# vtk DataFile Version 3.0
vtk output at time 150
ASCII
DATASET UNSTRUCTURED_GRID
POINTS 626 float
-3.68058e-05 0.000978749 0 3.68058e-05 0.000978749 0 -0.000829194 0.00052125 0 
-0.0008235 0.0005 0 -0.000866 0.0004575 0 -0.000866 -0.0004575 0 
-0.0008235 -0.0005 0 -0.000829194 -0.00052125 0 -3.68058e-05 -0.000978749 0 
3.68058e-05 -0.000978749 0 0.000829194 -0.00052125 0 0.000866 -0.0004575 0 
0.000866 0.0004575 0 0.000829194 0.00052125 0 8.5e-05 0 0 
-3.68058e-05 0.000978749 -0.001 3.68058e-05 0.000978749 -0.001 -0.000829194 0.00052125 -0.001 
-0.0008235 0.0005 -0.001 -0.000866 0.0004575 -0.001 -0.000866 -0.0004575 -0.001 
-0.0008235 -0.0005 -0.001 -0.000829194 -0.00052125 -0.001 -3.68058e-05 -0.000978749 -0.001 
3.68058e-05 -0.000978749 -0.001 0.000829194 -0.00052125 -0.001 0.000866 -0.0004575 -0.001 
0.000866 0.0004575 -0.001 0.000829194 0.00052125 -0.001 8.5e-05 0 -0.001 
8.46223e-17 0.0009575 0 -0.000715996 0.000586607 0 -0.000602797 0.000651965 0 
-0.000489599 0.000717321 0 -0.000376401 0.000782678 0 -0.000263202 0.000848036 0 
-0.000150004 0.000913393 0 -0.000835948 0.000469948 0 -0.000866 -0.000326786 0 
-0.000866 -0.000196071 0 -0.000866 -6.53571e-05 0 -0.000866 6.53571e-05 0 
-0.000866 0.000196071 0 -0.000866 0.000326786 0 -0.000835948 -0.000469948 0 
-0.000150004 -0.000913393 0 -0.000263202 -0.000848036 0 -0.000376401 -0.000782678 0 
-0.000489599 -0.000717321 0 -0.000602797 -0.000651965 0 -0.000715996 -0.000586607 0 
8.47648e-17 -0.0009575 0 0.000715996 -0.000586607 0 0.000602797 -0.000651965 0 
0.000489599 -0.000717321 0 0.000376401 -0.000782678 0 0.000263202 -0.000848036 0 
0.000150004 -0.000913393 0 0.000829194 -0.00047875 0 0.000866 0.000326786 0 
0.000866 0.000196071 0 0.000866 6.53571e-05 0 0.000866 -6.53571e-05 0 
0.000866 -0.000196071 0 0.000866 -0.000326786 0 0.000829194 0.00047875 0 
0.000150004 0.000913393 0 0.000263202 0.000848036 0 0.000376401 0.000782678 0 
0.000489599 0.000717321 0 0.000602797 0.000651965 0 0.000715996 0.000586607 0 
5.29966e-05 6.64557e-05 0 -1.89143e-05 8.28689e-05 0 -7.65824e-05 3.68801e-05 0 
-7.65824e-05 -3.68801e-05 0 -1.89143e-05 -8.28689e-05 0 5.29966e-05 -6.64557e-05 0 
8.46223e-17 0.0009575 -0.001 -0.000715996 0.000586607 -0.001 -0.000602797 0.000651965 -0.001 
-0.000489599 0.000717321 -0.001 -0.000376401 0.000782678 -0.001 -0.000263202 0.000848036 -0.001 
-0.000150004 0.000913393 -0.001 -0.000835948 0.000469948 -0.001 -0.000866 -0.000326786 -0.001 
-0.000866 -0.000196071 -0.001 -0.000866 -6.53571e-05 -0.001 -0.000866 6.53571e-05 -0.001 
-0.000866 0.000196071 -0.001 -0.000866 0.000326786 -0.001 -0.000835948 -0.000469948 -0.001 
-0.000150004 -0.000913393 -0.001 -0.000263202 -0.000848036 -0.001 -0.000376401 -0.000782678 -0.001 
-0.000489599 -0.000717321 -0.001 -0.000602797 -0.000651965 -0.001 -0.000715996 -0.000586607 -0.001 
8.47648e-17 -0.0009575 -0.001 0.000715996 -0.000586607 -0.001 0.000602797 -0.000651965 -0.001 
0.000489599 -0.000717321 -0.001 0.000376401 -0.000782678 -0.001 0.000263202 -0.000848036 -0.001 
0.000150004 -0.000913393 -0.001 0.000829194 -0.00047875 -0.001 0.000866 0.000326786 -0.001 
0.000866 0.000196071 -0.001 0.000866 6.53571e-05 -0.001 0.000866 -6.53571e-05 -0.001 
0.000866 -0.000196071 -0.001 0.000866 -0.000326786 -0.001 0.000829194 0.00047875 -0.001 
0.000150004 0.000913393 -0.001 0.000263202 0.000848036 -0.001 0.000376401 0.000782678 -0.001 
0.000489599 0.000717321 -0.001 0.000602797 0.000651965 -0.001 0.000715996 0.000586607 -0.001 
5.29966e-05 6.64557e-05 -0.001 -1.89143e-05 8.28689e-05 -0.001 -7.65824e-05 3.68801e-05 -0.001 
-7.65824e-05 -3.68801e-05 -0.001 -1.89143e-05 -8.28689e-05 -0.001 5.29966e-05 -6.64557e-05 -0.001 
0.000131234 6.38474e-05 0 0.00012964 -6.2443e-05 0 3.13827e-05 0.0001394 0 
3.12554e-05 -0.000136939 0 -0.000140461 8.25467e-19 0 -8.90565e-05 -0.000102707 0 
-9.04142e-05 0.000102872 0 -0.000765769 -0.00025965 0 -0.000756873 0.000262774 0 
-0.00015609 0.000787505 0 -0.000155807 -0.00079355 0 0.000605069 0.000528035 0 
0.000608694 -0.00052497 0 0.000744069 0.000116929 0 -0.000494418 0.000596218 0 
-0.000483866 -0.000584648 0 0.000269496 0.000702219 0 0.000263201 -0.000717324 0 
0.000754429 -0.000127825 0 -0.000748858 5.84659e-07 0 -0.000747838 0.000373886 0 
-0.0006542 0.000324842 0 -0.000645137 0.000210123 0 -0.000550884 0.000274171 0 
-0.000538857 0.000163195 0 -0.00045062 0.000224461 0 -0.000438393 0.000123907 0 
-0.000354088 0.000181668 0 -0.000363908 0.000282171 0 -0.000270361 0.000239477 0 
-0.000279138 0.000337653 0 -0.000188888 0.000294791 0 -0.000196448 0.000393271 0 
-0.000104767 0.000348259 0 -0.000113332 0.000449012 0 -2.01066e-05 0.000403223 0 
-2.89189e-05 0.000507105 0 6.9524e-05 0.000461596 0 -0.000213644 0.000490203 0 
7.33757e-05 0.000357726 0 0.000163331 0.00041299 0 0.000163359 0.000313022 0 
0.000248077 0.000366368 0 0.000250914 0.000265758 0 0.000335709 0.000322266 0 
0.000340555 0.000218148 0 0.000427299 0.000276717 0 0.000431508 0.000173093 0 
0.000328731 0.000425633 0 0.00034586 0.000114823 0 0.000435362 7.05241e-05 0 
0.000350892 1.5455e-05 0 0.000441547 -3.11896e-05 0 0.000353547 -8.47783e-05 0 
0.000445767 -0.000132964 0 0.000356135 -0.000186358 0 0.000449094 -0.000234674 0 
0.000359978 -0.000287876 0 0.00026856 -0.000240545 0 0.000271895 -0.000341045 0 
0.000181792 -0.00029305 0 0.00018533 -0.000392851 0 9.75701e-05 -0.00034483 0 
9.98764e-05 -0.000444884 0 8.75116e-06 -0.000396343 0 1.20916e-05 -0.000500496 0 
-7.83929e-05 -0.000449843 0 -8.1471e-05 -0.000347249 0 -0.000171566 -0.000403733 0 
-0.000169889 -0.000298891 0 -0.000259867 -0.000354132 0 -0.000257696 -0.000249137 0 
-0.00034313 -0.000299896 0 -0.000344514 -0.000199127 0 -0.000434309 -0.000250039 0 
-0.000169832 -0.000505815 0 -0.000435227 -0.000146227 0 0.000280331 -0.000442424 0 
-0.000340889 8.76793e-05 0 -0.000515252 4.06198e-05 0 6.50491e-05 0.000568253 0 
0.00053278 1.74743e-05 0 0.000522071 0.000229831 0 -0.00037162 0.000391659 0 
-0.000255272 -0.000150439 0 -0.000442893 -0.000350705 0 0.000450067 -0.000332559 0 
0.000545175 -0.000276306 0 -0.000527797 -0.000197598 0 0.000105306 -0.000551033 0 
1.45836e-05 -0.000609147 0 0.00017145 0.000214453 0 0.000515525 0.000341711 0 
0.000636086 0.000290368 0 -0.000558657 0.000404468 0 -4.01232e-05 0.000616718 0 
6.60192e-05 0.000696422 0 -0.000101806 0.0002546 0 0.000271142 -3.88908e-05 0 
0.000179455 -0.00018534 0 -8.79553e-05 -0.000254307 0 -0.000749267 -0.000373451 0 
-0.000655941 -0.000323397 0 0.000709746 0.000466718 0 0.000698426 -0.000473086 0 
-5.25801e-05 -0.00084886 0 -4.93005e-05 0.000848038 0 0.000617396 -0.000413362 0 
0.000702056 -0.000369817 0 0.000131459 -0.000679171 0 2.48171e-05 -0.000715924 0 
-0.000664217 -0.00042729 0 -0.000528828 -8.80444e-05 0 -0.000611101 -0.000136672 0 
-0.000426972 -4.45841e-05 0 0.000800669 0.000378216 0 0.000821144 -0.000415062 0 
7.2799e-05 0.00088254 0 6.81831e-05 -0.00087503 0 0.000104963 -0.000788946 0 
-7.40696e-05 -0.000660054 0 0.000126061 0.000809943 0 0.000764361 0.000295682 0 
0.000166862 0.000630623 0 0.000516462 -0.00046707 0 -0.000563585 -0.000389606 0 
-0.000622598 -1.40238e-05 0 0.000629891 0.000171529 0 2.5614e-06 -0.000299794 0 
8.6901e-05 -0.00024329 0 0.000272045 -0.000136982 0 -0.00075148 0.000138321 0 
0.000209366 -0.000599589 0 0.000324913 -0.000630055 0 0.000614044 0.00041245 0 
0.00049651 -0.000573327 0 0.000394822 -0.000507321 0 -0.000173714 -0.000206698 0 
0.000264897 5.63722e-05 0 0.000247997 0.000152811 0 -4.63327e-05 -0.000920208 0 
9.18688e-05 0.000258626 0 -5.54111e-06 0.000290558 0 -0.000184219 0.000201484 0 
-0.000263559 0.000142267 0 -0.000256427 5.13624e-05 0 -0.000336894 -2.06179e-06 0 
-0.000228499 -4.2388e-05 0 -0.00017589 0.000106626 0 -0.000769947 -0.000133367 0 
0.000767591 -0.000500293 0 -5.05874e-05 0.000737978 0 0.000754456 -3.51771e-06 0 
0.00064691 -6.15298e-05 0 0.000630483 -0.00018134 0 0.000749187 -0.000265543 0 
-0.000760805 -0.000462521 0 0.000638155 6.09315e-05 0 -4.46661e-05 0.000922995 0 
-2.37945e-05 0.000207237 0 0.000776979 0.000500181 0 -0.000605691 0.000527596 0 
-0.000377914 -0.000653727 0 -0.000372325 -0.000526022 0 -0.000275829 -0.000589621 0 
-0.000254285 -0.000710579 0 -0.000379307 0.000656222 0 -0.000379818 0.00052718 0 
-0.000266817 0.000721555 0 -0.000150544 0.000668174 0 0.000381963 0.00065079 0 
0.000493113 0.000590432 0 0.000505439 0.000463708 0 -0.000269094 0.000596608 0 
0.000385815 0.000532045 0 0.000283599 0.0005899 0 -0.000176405 -0.000108505 0 
-0.000278769 -0.000475415 0 0.000185395 2.33014e-06 0 0.000186773 0.000517571 0 
0.000540032 -8.68444e-05 0 -0.000600694 -0.000514877 0 -0.00063703 8.98033e-05 0 
-0.000459677 0.000335729 0 -0.000338836 -0.000100751 0 -0.000457327 0.000432721 0 
-8.72007e-06 -0.000210238 0 0.000156073 0.000129496 0 -7.70692e-05 -0.000555049 0 
0.00036091 -0.000389728 0 0.000531628 0.000120564 0 -0.000285451 0.000435562 0 
0.000192719 -0.000494604 0 0.00041642 0.00039368 0 -0.000135943 0.000554637 0 
-0.000170665 -0.000610079 0 -0.000666304 0.000434981 0 -0.000758736 0.000479231 0 
-0.000470189 -0.000458901 0 0.000203433 -8.59809e-05 0 0.000101846 0.000170114 0 
-0.00035513 -0.00040726 0 0.000100184 -0.000165831 0 2.96286e-05 0.00081537 0 
0.000720946 0.000381836 0 -0.000539809 -0.000292001 0 0.00052211 -0.000182426 0 
-6.41339e-05 -0.000753908 0 0.000638039 -0.000299861 0 -0.000605136 -0.000230182 0 
-3.41638e-05 -0.000145561 0 -0.000104037 0.000172396 0 -0.000808575 -0.00042774 0 
-0.000807207 -0.000465052 0 -0.00080817 0.000429771 0 -0.000806589 0.000469738 0 
-9.50634e-05 -0.000178909 0 0.000247777 0.000445058 0 1.48293e-05 -0.000814201 0 
-4.11555e-05 0.000140955 0 0.000276104 -0.000536845 0 0.000765969 -0.000436638 0 
0.000780871 -0.000362769 0 0.000424176 -0.000642018 0 0.00053413 -0.000368009 0 
-0.000416333 4.17911e-05 0 -0.000133891 -6.23822e-05 0 4.2574e-05 0.000206312 0 
0.000141163 -0.000121542 0 0.000707423 0.000212137 0 0.000172327 0.000723882 0 
7.72652e-06 -0.00090254 0 -0.000134435 5.66935e-05 0 -0.000188826 3.70894e-05 0 
0.000197119 8.09714e-05 0 1.27801e-05 0.000917296 0 0.000800767 0.00044758 0 
-0.000686682 0.000507104 0 9.35831e-05 0.000110457 0 -0.000696793 -0.000509595 0 
-0.00068446 -8.52012e-05 0 -0.000691033 -0.000201242 0 5.24052e-05 -0.000189075 0 
-0.000151818 -0.000701092 0 -0.000296988 0.000518087 0 9.31023e-05 -0.000108117 0 
0.00044261 -0.000416726 0 0.000197044 -0.000784423 0 -0.000516861 0.000504567 0 
0.000298997 0.000502377 0 0.000131234 6.38474e-05 -0.001 0.00012964 -6.2443e-05 -0.001 
3.13827e-05 0.0001394 -0.001 3.12554e-05 -0.000136939 -0.001 -0.000140461 8.25467e-19 -0.001 
-8.90565e-05 -0.000102707 -0.001 -9.04142e-05 0.000102872 -0.001 -0.000765769 -0.00025965 -0.001 
-0.000756873 0.000262774 -0.001 -0.00015609 0.000787505 -0.001 -0.000155807 -0.00079355 -0.001 
0.000605069 0.000528035 -0.001 0.000608694 -0.00052497 -0.001 0.000744069 0.000116929 -0.001 
-0.000494418 0.000596218 -0.001 -0.000483866 -0.000584648 -0.001 0.000269496 0.000702219 -0.001 
0.000263201 -0.000717324 -0.001 0.000754429 -0.000127825 -0.001 -0.000748858 5.84659e-07 -0.001 
-0.000747838 0.000373886 -0.001 -0.0006542 0.000324842 -0.001 -0.000645137 0.000210123 -0.001 
-0.000550884 0.000274171 -0.001 -0.000538857 0.000163195 -0.001 -0.00045062 0.000224461 -0.001 
-0.000438393 0.000123907 -0.001 -0.000354088 0.000181668 -0.001 -0.000363908 0.000282171 -0.001 
-0.000270361 0.000239477 -0.001 -0.000279138 0.000337653 -0.001 -0.000188888 0.000294791 -0.001 
-0.000196448 0.000393271 -0.001 -0.000104767 0.000348259 -0.001 -0.000113332 0.000449012 -0.001 
-2.01066e-05 0.000403223 -0.001 -2.89189e-05 0.000507105 -0.001 6.9524e-05 0.000461596 -0.001 
-0.000213644 0.000490203 -0.001 7.33757e-05 0.000357726 -0.001 0.000163331 0.00041299 -0.001 
0.000163359 0.000313022 -0.001 0.000248077 0.000366368 -0.001 0.000250914 0.000265758 -0.001 
0.000335709 0.000322266 -0.001 0.000340555 0.000218148 -0.001 0.000427299 0.000276717 -0.001 
0.000431508 0.000173093 -0.001 0.000328731 0.000425633 -0.001 0.00034586 0.000114823 -0.001 
0.000435362 7.05241e-05 -0.001 0.000350892 1.5455e-05 -0.001 0.000441547 -3.11896e-05 -0.001 
0.000353547 -8.47783e-05 -0.001 0.000445767 -0.000132964 -0.001 0.000356135 -0.000186358 -0.001 
0.000449094 -0.000234674 -0.001 0.000359978 -0.000287876 -0.001 0.00026856 -0.000240545 -0.001 
0.000271895 -0.000341045 -0.001 0.000181792 -0.00029305 -0.001 0.00018533 -0.000392851 -0.001 
9.75701e-05 -0.00034483 -0.001 9.98764e-05 -0.000444884 -0.001 8.75116e-06 -0.000396343 -0.001 
1.20916e-05 -0.000500496 -0.001 -7.83929e-05 -0.000449843 -0.001 -8.1471e-05 -0.000347249 -0.001 
-0.000171566 -0.000403733 -0.001 -0.000169889 -0.000298891 -0.001 -0.000259867 -0.000354132 -0.001 
-0.000257696 -0.000249137 -0.001 -0.00034313 -0.000299896 -0.001 -0.000344514 -0.000199127 -0.001 
-0.000434309 -0.000250039 -0.001 -0.000169832 -0.000505815 -0.001 -0.000435227 -0.000146227 -0.001 
0.000280331 -0.000442424 -0.001 -0.000340889 8.76793e-05 -0.001 -0.000515252 4.06198e-05 -0.001 
6.50491e-05 0.000568253 -0.001 0.00053278 1.74743e-05 -0.001 0.000522071 0.000229831 -0.001 
-0.00037162 0.000391659 -0.001 -0.000255272 -0.000150439 -0.001 -0.000442893 -0.000350705 -0.001 
0.000450067 -0.000332559 -0.001 0.000545175 -0.000276306 -0.001 -0.000527797 -0.000197598 -0.001 
0.000105306 -0.000551033 -0.001 1.45836e-05 -0.000609147 -0.001 0.00017145 0.000214453 -0.001 
0.000515525 0.000341711 -0.001 0.000636086 0.000290368 -0.001 -0.000558657 0.000404468 -0.001 
-4.01232e-05 0.000616718 -0.001 6.60192e-05 0.000696422 -0.001 -0.000101806 0.0002546 -0.001 
0.000271142 -3.88908e-05 -0.001 0.000179455 -0.00018534 -0.001 -8.79553e-05 -0.000254307 -0.001 
-0.000749267 -0.000373451 -0.001 -0.000655941 -0.000323397 -0.001 0.000709746 0.000466718 -0.001 
0.000698426 -0.000473086 -0.001 -5.25801e-05 -0.00084886 -0.001 -4.93005e-05 0.000848038 -0.001 
0.000617396 -0.000413362 -0.001 0.000702056 -0.000369817 -0.001 0.000131459 -0.000679171 -0.001 
2.48171e-05 -0.000715924 -0.001 -0.000664217 -0.00042729 -0.001 -0.000528828 -8.80444e-05 -0.001 
-0.000611101 -0.000136672 -0.001 -0.000426972 -4.45841e-05 -0.001 0.000800669 0.000378216 -0.001 
0.000821144 -0.000415062 -0.001 7.2799e-05 0.00088254 -0.001 6.81831e-05 -0.00087503 -0.001 
0.000104963 -0.000788946 -0.001 -7.40696e-05 -0.000660054 -0.001 0.000126061 0.000809943 -0.001 
0.000764361 0.000295682 -0.001 0.000166862 0.000630623 -0.001 0.000516462 -0.00046707 -0.001 
-0.000563585 -0.000389606 -0.001 -0.000622598 -1.40238e-05 -0.001 0.000629891 0.000171529 -0.001 
2.5614e-06 -0.000299794 -0.001 8.6901e-05 -0.00024329 -0.001 0.000272045 -0.000136982 -0.001 
-0.00075148 0.000138321 -0.001 0.000209366 -0.000599589 -0.001 0.000324913 -0.000630055 -0.001 
0.000614044 0.00041245 -0.001 0.00049651 -0.000573327 -0.001 0.000394822 -0.000507321 -0.001 
-0.000173714 -0.000206698 -0.001 0.000264897 5.63722e-05 -0.001 0.000247997 0.000152811 -0.001 
-4.63327e-05 -0.000920208 -0.001 9.18688e-05 0.000258626 -0.001 -5.54111e-06 0.000290558 -0.001 
-0.000184219 0.000201484 -0.001 -0.000263559 0.000142267 -0.001 -0.000256427 5.13624e-05 -0.001 
-0.000336894 -2.06179e-06 -0.001 -0.000228499 -4.2388e-05 -0.001 -0.00017589 0.000106626 -0.001 
-0.000769947 -0.000133367 -0.001 0.000767591 -0.000500293 -0.001 -5.05874e-05 0.000737978 -0.001 
0.000754456 -3.51771e-06 -0.001 0.00064691 -6.15298e-05 -0.001 0.000630483 -0.00018134 -0.001 
0.000749187 -0.000265543 -0.001 -0.000760805 -0.000462521 -0.001 0.000638155 6.09315e-05 -0.001 
-4.46661e-05 0.000922995 -0.001 -2.37945e-05 0.000207237 -0.001 0.000776979 0.000500181 -0.001 
-0.000605691 0.000527596 -0.001 -0.000377914 -0.000653727 -0.001 -0.000372325 -0.000526022 -0.001 
-0.000275829 -0.000589621 -0.001 -0.000254285 -0.000710579 -0.001 -0.000379307 0.000656222 -0.001 
-0.000379818 0.00052718 -0.001 -0.000266817 0.000721555 -0.001 -0.000150544 0.000668174 -0.001 
0.000381963 0.00065079 -0.001 0.000493113 0.000590432 -0.001 0.000505439 0.000463708 -0.001 
-0.000269094 0.000596608 -0.001 0.000385815 0.000532045 -0.001 0.000283599 0.0005899 -0.001 
-0.000176405 -0.000108505 -0.001 -0.000278769 -0.000475415 -0.001 0.000185395 2.33014e-06 -0.001 
0.000186773 0.000517571 -0.001 0.000540032 -8.68444e-05 -0.001 -0.000600694 -0.000514877 -0.001 
-0.00063703 8.98033e-05 -0.001 -0.000459677 0.000335729 -0.001 -0.000338836 -0.000100751 -0.001 
-0.000457327 0.000432721 -0.001 -8.72007e-06 -0.000210238 -0.001 0.000156073 0.000129496 -0.001 
-7.70692e-05 -0.000555049 -0.001 0.00036091 -0.000389728 -0.001 0.000531628 0.000120564 -0.001 
-0.000285451 0.000435562 -0.001 0.000192719 -0.000494604 -0.001 0.00041642 0.00039368 -0.001 
-0.000135943 0.000554637 -0.001 -0.000170665 -0.000610079 -0.001 -0.000666304 0.000434981 -0.001 
-0.000758736 0.000479231 -0.001 -0.000470189 -0.000458901 -0.001 0.000203433 -8.59809e-05 -0.001 
0.000101846 0.000170114 -0.001 -0.00035513 -0.00040726 -0.001 0.000100184 -0.000165831 -0.001 
2.96286e-05 0.00081537 -0.001 0.000720946 0.000381836 -0.001 -0.000539809 -0.000292001 -0.001 
0.00052211 -0.000182426 -0.001 -6.41339e-05 -0.000753908 -0.001 0.000638039 -0.000299861 -0.001 
-0.000605136 -0.000230182 -0.001 -3.41638e-05 -0.000145561 -0.001 -0.000104037 0.000172396 -0.001 
-0.000808575 -0.00042774 -0.001 -0.000807207 -0.000465052 -0.001 -0.00080817 0.000429771 -0.001 
-0.000806589 0.000469738 -0.001 -9.50634e-05 -0.000178909 -0.001 0.000247777 0.000445058 -0.001 
1.48293e-05 -0.000814201 -0.001 -4.11555e-05 0.000140955 -0.001 0.000276104 -0.000536845 -0.001 
0.000765969 -0.000436638 -0.001 0.000780871 -0.000362769 -0.001 0.000424176 -0.000642018 -0.001 
0.00053413 -0.000368009 -0.001 -0.000416333 4.17911e-05 -0.001 -0.000133891 -6.23822e-05 -0.001 
4.2574e-05 0.000206312 -0.001 0.000141163 -0.000121542 -0.001 0.000707423 0.000212137 -0.001 
0.000172327 0.000723882 -0.001 7.72652e-06 -0.00090254 -0.001 -0.000134435 5.66935e-05 -0.001 
-0.000188826 3.70894e-05 -0.001 0.000197119 8.09714e-05 -0.001 1.27801e-05 0.000917296 -0.001 
0.000800767 0.00044758 -0.001 -0.000686682 0.000507104 -0.001 9.35831e-05 0.000110457 -0.001 
-0.000696793 -0.000509595 -0.001 -0.00068446 -8.52012e-05 -0.001 -0.000691033 -0.000201242 -0.001 
5.24052e-05 -0.000189075 -0.001 -0.000151818 -0.000701092 -0.001 -0.000296988 0.000518087 -0.001 
9.31023e-05 -0.000108117 -0.001 0.00044261 -0.000416726 -0.001 0.000197044 -0.000784423 -0.001 
-0.000516861 0.000504567 -0.001 0.000298997 0.000502377 -0.001 

CELLS 563 3941
6 14 304 127 29 554 377 
6 143 259 55 393 509 103 
6 300 319 174 550 569 424 
6 259 349 55 509 599 103 
6 50 365 307 98 615 557 
6 299 320 164 549 570 414 
6 126 304 14 376 554 29 
6 298 319 300 548 569 550 
6 205 240 238 455 490 488 
6 257 308 145 507 558 395 
6 130 352 273 380 602 523 
6 295 320 299 545 570 549 
6 324 327 289 574 577 539 
6 235 258 143 485 508 393 
6 50 307 49 98 557 97 
6 207 283 279 457 533 529 
6 143 373 235 393 623 485 
6 145 308 252 395 558 502 
6 194 303 196 444 553 446 
6 279 306 207 529 556 457 
6 206 305 163 456 555 413 
6 51 357 9 99 607 24 
6 238 252 205 488 502 455 
6 293 317 209 543 567 459 
6 207 316 283 457 566 533 
6 142 301 249 392 551 499 
6 273 359 130 523 609 380 
6 211 327 324 461 577 574 
6 169 265 217 419 515 467 
6 7 365 50 22 615 98 
6 283 316 253 533 566 503 
6 159 268 223 409 518 473 
6 274 337 132 524 587 382 
6 232 361 329 482 611 579 
6 231 266 45 481 516 93 
6 229 362 330 479 612 580 
6 9 244 57 24 494 105 
6 230 276 52 480 526 100 
6 209 311 293 459 561 543 
6 131 342 302 381 592 552 
6 270 271 204 520 521 454 
6 66 243 1 114 493 16 
6 59 241 12 107 491 27 
6 280 306 279 530 556 529 
6 269 337 274 519 587 524 
6 179 256 224 429 506 474 
6 163 305 166 413 555 416 
6 201 303 194 451 553 444 
6 280 332 306 530 582 556 
6 186 255 225 436 505 475 
6 210 310 273 460 560 523 
6 153 270 204 403 520 454 
6 136 231 45 386 481 93 
6 171 265 169 421 515 419 
6 138 230 52 388 480 100 
6 225 354 325 475 604 575 
6 36 284 232 84 534 482 
6 161 268 159 411 518 409 
6 71 286 229 119 536 479 
6 290 303 201 540 553 451 
6 139 355 60 389 605 108 
6 60 355 248 108 605 498 
6 273 352 302 523 602 552 
6 235 373 245 485 623 495 
6 67 356 247 115 606 497 
6 221 295 277 471 545 527 
6 142 356 67 392 606 115 
6 139 283 253 389 533 503 
6 203 315 262 453 565 512 
6 41 257 145 89 507 395 
6 36 232 135 84 482 385 
6 71 229 137 119 479 387 
6 254 255 188 504 505 438 
6 233 350 334 483 600 584 
6 262 346 203 512 596 453 
6 304 325 127 554 575 377 
6 222 329 247 472 579 497 
6 218 298 260 468 548 510 
6 290 321 291 540 571 541 
6 272 310 240 522 560 490 
6 269 274 270 519 524 520 
6 244 245 57 494 495 105 
6 49 307 141 97 557 391 
6 225 325 256 475 575 506 
6 273 310 272 523 560 522 
6 312 368 255 562 618 505 
6 249 305 206 499 555 456 
6 228 331 251 478 581 501 
6 302 342 263 552 592 513 
6 338 339 44 588 589 92 
6 190 254 188 440 504 438 
6 37 341 340 85 591 590 
6 138 233 230 388 483 480 
6 228 335 331 478 585 581 
6 181 256 179 431 506 429 
6 195 263 226 445 513 476 
6 268 285 223 518 535 473 
6 290 291 288 540 541 538 
6 219 330 248 469 580 498 
6 201 321 290 451 571 540 
6 240 310 202 490 560 452 
6 188 255 186 438 505 436 
6 270 274 271 520 524 521 
6 262 349 259 512 599 509 
6 141 324 289 391 574 539 
6 296 301 142 546 551 392 
6 247 356 222 497 606 472 
6 239 252 238 489 502 488 
6 254 312 255 504 562 505 
6 54 261 53 102 511 101 
6 289 327 303 539 577 553 
6 268 353 285 518 603 535 
6 273 302 210 523 552 460 
6 292 299 293 542 549 543 
6 278 283 139 528 533 389 
6 175 265 171 425 515 421 
6 227 338 38 477 588 86 
6 264 360 265 514 610 515 
6 43 340 146 91 590 396 
6 165 268 161 415 518 411 
6 205 351 240 455 601 490 
6 64 281 63 112 531 111 
6 288 291 47 538 541 95 
6 135 295 294 385 545 544 
6 42 257 41 90 507 89 
6 245 373 57 495 623 105 
6 31 363 323 79 613 573 
6 292 293 140 542 543 390 
6 267 353 268 517 603 518 
6 155 270 153 405 520 403 
6 244 344 245 494 594 495 
6 61 278 139 109 528 389 
6 135 294 35 385 544 83 
6 69 297 296 117 547 546 
6 186 225 184 436 475 434 
6 329 361 243 579 611 493 
6 255 328 225 505 578 475 
6 213 332 280 463 582 530 
6 39 275 133 87 525 383 
6 330 362 241 580 612 491 
6 195 226 193 445 476 443 
6 211 324 251 461 574 501 
6 151 153 152 401 403 402 
6 295 299 294 545 549 544 
6 265 313 217 515 563 467 
6 258 259 143 508 509 393 
6 251 331 211 501 581 461 
6 149 151 150 399 401 400 
6 293 370 317 543 620 567 
6 153 204 152 403 454 402 
6 151 152 150 401 402 400 
6 33 292 140 81 542 390 
6 210 263 197 460 513 447 
6 301 305 249 551 555 499 
6 298 300 297 548 550 547 
6 68 296 142 116 546 392 
6 321 369 291 571 619 541 
6 179 224 177 429 474 427 
6 167 267 165 417 517 415 
6 259 346 262 509 596 512 
6 303 327 196 553 577 446 
6 269 270 155 519 520 405 
6 265 360 313 515 610 563 
6 223 269 157 473 519 407 
6 157 269 155 407 519 405 
6 144 279 278 394 529 528 
6 169 217 167 419 467 417 
6 177 264 175 427 514 425 
6 267 268 165 517 518 415 
6 159 223 157 409 473 407 
6 232 277 135 482 527 385 
6 193 254 190 443 504 440 
6 217 267 167 467 517 417 
6 249 356 142 499 606 392 
6 184 256 181 434 506 431 
6 248 355 219 498 605 469 
6 229 260 137 479 510 387 
6 149 150 148 399 400 398 
6 64 348 281 112 598 531 
6 311 374 293 561 624 543 
6 264 265 175 514 515 425 
6 297 300 296 547 550 546 
6 141 289 288 391 539 538 
6 197 263 195 447 513 445 
6 218 260 219 468 510 469 
6 224 264 177 474 514 427 
6 137 298 297 387 548 547 
6 277 295 135 527 545 385 
6 133 228 227 383 478 477 
6 261 349 262 511 599 512 
6 221 277 222 471 527 472 
6 256 325 224 506 575 474 
6 199 210 197 449 460 447 
6 226 254 193 476 504 443 
6 144 278 62 394 528 110 
6 279 283 278 529 533 528 
6 289 290 288 539 540 538 
6 137 297 70 387 547 118 
6 34 294 292 82 544 542 
6 235 236 216 485 486 466 
6 141 288 48 391 538 96 
6 178 306 180 428 556 430 
6 185 186 184 435 436 434 
6 63 281 144 111 531 394 
6 225 256 184 475 506 434 
6 46 291 136 94 541 386 
6 147 149 148 397 399 398 
6 271 272 204 521 522 454 
6 233 334 234 483 584 484 
6 145 275 40 395 525 88 
6 220 322 287 470 572 537 
6 280 334 213 530 584 463 
6 144 280 279 394 530 529 
6 140 287 32 390 537 80 
6 154 155 153 404 405 403 
6 334 350 213 584 600 463 
6 176 177 175 426 427 425 
6 260 298 137 510 548 387 
6 33 140 32 81 390 80 
6 49 141 48 97 391 96 
6 56 143 55 104 393 103 
6 68 142 67 116 392 115 
6 63 144 62 111 394 110 
6 61 139 60 109 389 108 
6 148 308 257 398 558 507 
6 71 137 70 119 387 118 
6 53 138 52 101 388 100 
6 46 136 45 94 386 93 
6 36 135 35 84 385 83 
6 43 146 134 91 396 384 
6 133 227 38 383 477 86 
6 192 193 190 442 443 440 
6 293 374 140 543 624 390 
6 34 292 33 82 542 81 
6 207 306 178 457 556 428 
6 43 134 42 91 384 90 
6 39 133 38 87 383 86 
6 41 145 40 89 395 88 
6 194 195 193 444 445 443 
6 69 296 68 117 546 116 
6 294 299 292 544 549 542 
6 173 175 171 423 425 421 
6 260 330 219 510 580 469 
6 183 184 181 433 434 431 
6 134 257 42 384 507 90 
6 55 349 54 103 599 102 
6 163 165 161 413 415 411 
6 166 167 165 416 417 415 
6 210 302 263 460 552 513 
6 271 273 272 521 523 522 
6 53 261 138 101 511 388 
6 217 326 267 467 576 517 
6 289 303 290 539 553 540 
6 178 179 177 428 429 427 
6 238 240 202 488 490 452 
6 62 278 61 110 528 109 
6 35 294 34 83 544 82 
6 284 361 232 534 611 482 
6 70 297 69 118 547 117 
6 224 304 264 474 554 514 
6 156 157 155 406 407 405 
6 48 288 47 96 538 95 
6 221 320 295 471 570 545 
6 187 188 186 437 438 436 
6 47 291 46 95 541 94 
6 151 154 153 401 404 403 
6 286 362 229 536 612 479 
6 168 169 167 418 419 417 
6 40 275 39 88 525 87 
6 307 324 141 557 574 391 
6 300 301 296 550 551 546 
6 32 287 31 80 537 79 
6 147 220 149 397 470 399 
6 333 344 231 583 594 481 
6 299 370 293 549 620 543 
6 271 359 273 521 609 523 
6 224 325 304 474 575 554 
6 228 237 227 478 487 477 
6 305 375 343 555 625 593 
6 218 319 298 468 569 548 
6 240 351 272 490 601 522 
6 277 329 222 527 579 472 
6 253 355 139 503 605 389 
6 158 159 157 408 409 407 
6 236 246 216 486 496 466 
6 192 194 193 442 444 443 
6 220 309 149 470 559 399 
6 183 185 184 433 435 434 
6 196 197 195 446 447 445 
6 276 347 58 526 597 106 
6 136 333 231 386 583 481 
6 67 247 66 115 497 114 
6 60 248 59 108 498 107 
6 261 262 250 511 512 500 
6 173 176 175 423 426 425 
6 344 357 231 594 607 481 
6 144 281 280 394 531 530 
6 152 205 150 402 455 400 
6 163 166 165 413 416 415 
6 185 187 186 435 437 436 
6 233 234 230 483 484 480 
6 170 171 169 420 421 419 
6 146 147 134 396 397 384 
6 176 178 177 426 428 427 
6 285 337 223 535 587 473 
6 154 156 155 404 406 405 
6 263 342 226 513 592 476 
6 235 245 236 485 495 486 
6 160 161 159 410 411 409 
6 58 347 242 106 597 492 
6 166 168 167 416 418 417 
6 287 374 220 537 624 470 
6 189 190 188 439 440 438 
6 148 257 134 398 507 384 
6 194 196 195 444 446 445 
6 252 308 205 502 558 455 
6 285 345 337 535 595 587 
6 301 375 305 551 625 555 
6 180 181 179 430 431 429 
6 281 348 234 531 598 484 
6 198 199 197 448 449 447 
6 151 309 154 401 559 404 
6 228 367 335 478 617 585 
6 54 349 261 102 599 511 
6 156 158 157 406 408 407 
6 168 170 169 418 420 419 
6 200 202 199 450 452 449 
6 147 148 134 397 398 384 
6 158 160 159 408 410 409 
6 150 308 148 400 558 398 
6 253 316 208 503 566 458 
6 232 329 277 482 579 527 
6 178 180 179 428 430 429 
6 191 192 190 441 442 440 
6 214 238 202 464 488 452 
6 172 173 171 422 423 421 
6 187 189 188 437 439 438 
6 162 163 161 412 413 411 
6 228 251 237 478 501 487 
6 215 258 235 465 508 485 
6 182 183 181 432 433 431 
6 202 310 199 452 560 449 
6 219 253 208 469 503 458 
6 222 249 206 472 499 456 
6 196 198 197 446 448 447 
6 229 330 260 479 580 510 
6 132 358 274 382 608 524 
6 149 309 151 399 559 401 
6 226 312 254 476 562 504 
6 154 309 209 404 559 459 
6 77 129 76 125 379 124 
6 73 128 72 121 378 120 
6 76 131 75 124 381 123 
6 74 132 73 122 382 121 
6 75 130 74 123 380 122 
6 14 127 77 29 377 125 
6 72 126 14 120 376 29 
6 133 367 228 383 617 478 
6 237 282 227 487 532 477 
6 239 366 252 489 616 502 
6 200 214 202 450 464 452 
6 192 201 194 442 451 444 
6 170 172 171 420 422 421 
6 220 311 309 470 561 559 
6 198 200 199 448 450 449 
6 189 191 190 439 441 440 
6 146 323 322 396 573 572 
6 160 162 161 410 412 411 
6 251 307 237 501 557 487 
6 199 310 210 449 560 460 
6 57 373 56 105 623 104 
6 214 239 238 464 489 488 
6 182 212 183 432 462 433 
6 180 182 181 430 432 431 
6 146 322 147 396 572 397 
6 172 218 208 422 468 458 
6 172 208 173 422 458 423 
6 162 221 206 412 471 456 
6 162 206 163 412 456 413 
6 176 207 178 426 457 428 
6 272 351 204 522 601 454 
6 198 211 200 448 461 450 
6 182 213 212 432 463 462 
6 234 334 281 484 584 531 
6 154 209 156 404 459 406 
6 185 203 187 435 453 437 
6 168 174 170 418 424 420 
6 189 215 191 439 465 441 
6 215 216 191 465 466 441 
6 221 222 206 471 472 456 
6 158 164 160 408 414 410 
6 218 219 208 468 469 458 
6 205 308 150 455 558 400 
6 191 314 192 441 564 442 
6 215 235 216 465 485 466 
6 215 318 258 465 568 508 
6 152 351 205 402 601 455 
6 138 261 250 388 511 500 
6 192 314 201 442 564 451 
6 234 347 230 484 597 480 
6 226 342 312 476 592 562 
6 138 250 233 388 500 483 
6 147 322 220 397 572 470 
6 216 314 191 466 564 441 
6 306 332 180 556 582 430 
6 222 356 249 472 606 499 
6 128 345 285 378 595 535 
6 314 321 201 564 571 451 
6 212 315 183 462 565 433 
6 312 342 336 562 592 586 
6 282 339 338 532 589 588 
6 340 341 323 590 591 573 
6 309 311 209 559 561 459 
6 183 315 185 433 565 435 
6 208 316 173 458 566 423 
6 173 316 176 423 566 426 
6 3 341 37 18 591 85 
6 44 339 6 92 589 21 
6 252 366 145 502 616 395 
6 246 321 314 496 571 564 
6 246 314 216 496 564 466 
6 126 364 313 376 614 563 
6 156 317 158 406 567 408 
6 275 367 133 525 617 383 
6 176 316 207 426 566 457 
6 185 315 203 435 565 453 
6 180 332 182 430 582 432 
6 302 352 131 552 602 381 
6 251 324 307 501 574 557 
6 187 318 189 437 568 439 
6 172 319 218 422 569 468 
6 162 320 221 412 570 471 
6 305 343 166 555 593 416 
6 170 319 172 420 569 422 
6 158 317 164 408 567 414 
6 209 317 156 459 567 406 
6 285 353 128 535 603 378 
6 223 337 269 473 587 519 
6 160 320 162 410 570 412 
6 211 331 200 461 581 450 
6 174 319 170 424 569 420 
6 203 318 187 453 568 437 
6 189 318 215 439 568 465 
6 198 327 211 448 577 461 
6 164 320 160 414 570 410 
6 326 353 267 576 603 517 
6 236 344 333 486 594 583 
6 196 327 198 446 577 448 
6 219 355 253 469 605 503 
6 281 334 280 531 584 530 
6 274 359 271 524 609 521 
6 164 370 299 414 620 549 
6 174 375 300 424 625 550 
6 287 363 31 537 613 79 
6 243 361 1 493 611 16 
6 241 362 12 491 612 27 
6 307 365 237 557 615 487 
6 166 343 168 416 593 418 
6 200 331 214 450 581 464 
6 313 326 217 563 576 467 
6 9 357 244 24 607 494 
6 1 361 30 16 611 78 
6 12 362 65 27 612 113 
6 337 345 132 587 595 382 
6 242 348 64 492 598 112 
6 231 357 266 481 607 516 
6 182 332 213 432 582 463 
6 245 344 236 495 594 486 
6 258 346 259 508 596 509 
6 145 366 275 395 616 525 
6 291 369 136 541 619 386 
6 236 333 246 486 583 496 
6 331 335 214 581 585 464 
6 312 336 129 562 586 379 
6 315 372 262 565 622 512 
6 220 374 311 470 624 561 
6 140 374 287 390 624 537 
6 126 360 304 376 610 554 
6 230 347 276 480 597 526 
6 313 364 326 563 614 576 
6 56 373 143 104 623 393 
6 239 367 366 489 617 616 
6 204 351 152 454 601 402 
6 300 375 301 550 625 551 
6 214 335 239 464 585 489 
6 247 329 243 497 579 493 
6 262 372 250 512 622 500 
6 248 330 241 498 580 491 
6 318 346 258 568 596 508 
6 333 369 246 583 619 496 
6 282 338 227 532 588 477 
6 146 340 323 396 590 573 
6 304 360 264 554 610 514 
6 366 367 275 616 617 525 
6 129 336 76 379 586 124 
6 73 345 128 121 595 378 
6 76 336 131 124 586 381 
6 250 350 233 500 600 483 
6 129 371 328 379 621 578 
6 132 345 73 382 595 121 
6 168 343 174 418 593 424 
6 131 352 75 381 602 123 
6 66 247 243 114 497 493 
6 59 248 241 107 498 491 
6 74 358 132 122 608 382 
6 203 346 318 453 596 568 
6 313 360 126 563 610 376 
6 128 364 72 378 614 120 
6 128 353 326 378 603 576 
6 77 371 129 125 621 379 
6 129 368 312 379 618 562 
6 244 357 344 494 607 594 
6 328 354 225 578 604 475 
6 326 364 128 576 614 378 
6 75 352 130 123 602 380 
6 350 372 212 600 622 462 
6 136 369 333 386 619 583 
6 325 354 127 575 604 377 
6 213 350 212 463 600 462 
6 130 358 74 380 608 122 
6 250 372 350 500 622 600 
6 317 370 164 567 620 414 
6 72 364 126 120 614 376 
6 328 368 129 578 618 379 
6 127 371 77 377 621 125 
6 336 342 131 586 592 381 
6 212 372 315 462 622 565 
6 234 348 347 484 598 597 
6 8 266 51 23 516 99 
6 10 276 58 25 526 106 
6 246 369 321 496 619 571 
6 30 284 0 78 534 15 
6 65 286 13 113 536 28 
6 58 242 11 106 492 26 
6 266 357 51 516 607 99 
6 255 368 328 505 618 578 
6 347 348 242 597 598 492 
6 322 363 287 572 613 537 
6 323 363 322 573 613 572 
6 335 367 239 585 617 489 
6 30 361 284 78 611 534 
6 65 362 286 113 612 536 
6 237 365 282 487 615 532 
6 130 359 358 380 609 608 
6 343 375 174 593 625 424 
6 354 371 127 604 621 377 
6 328 371 354 578 621 604 
6 358 359 274 608 609 524 
6 0 284 36 15 534 84 
6 45 266 8 93 516 23 
6 52 276 10 100 526 25 
6 11 242 64 26 492 112 
6 13 286 71 28 536 119 
6 2 323 3 17 573 18 
6 31 323 2 79 573 17 
6 323 341 3 573 591 18 
6 37 340 4 85 590 19 
6 4 340 43 19 590 91 
6 38 338 5 86 588 20 
6 5 338 44 20 588 92 
6 6 282 7 21 532 22 
6 6 339 282 21 589 532 
6 282 365 7 532 615 22 

CELL_TYPES 563
13
13
13
13
13
13
13
13
13
13
13
13
13
13
13
13
13
13
13
13
13
13
13
13
13
13
13
13
13
13
13
13
13
13
13
13
13
13
13
13
13
13
13
13
13
13
13
13
13
13
13
13
13
13
13
13
13
13
13
13
13
13
13
13
13
13
13
13
13
13
13
13
13
13
13
13
13
13
13
13
13
13
13
13
13
13
13
13
13
13
13
13
13
13
13
13
13
13
13
13
13
13
13
13
13
13
13
13
13
13
13
13
13
13
13
13
13
13
13
13
13
13
13
13
13
13
13
13
13
13
13
13
13
13
13
13
13
13
13
13
13
13
13
13
13
13
13
13
13
13
13
13
13
13
13
13
13
13
13
13
13
13
13
13
13
13
13
13
13
13
13
13
13
13
13
13
13
13
13
13
13
13
13
13
13
13
13
13
13
13
13
13
13
13
13
13
13
13
13
13
13
13
13
13
13
13
13
13
13
13
13
13
13
13
13
13
13
13
13
13
13
13
13
13
13
13
13
13
13
13
13
13
13
13
13
13
13
13
13
13
13
13
13
13
13
13
13
13
13
13
13
13
13
13
13
13
13
13
13
13
13
13
13
13
13
13
13
13
13
13
13
13
13
13
13
13
13
13
13
13
13
13
13
13
13
13
13
13
13
13
13
13
13
13
13
13
13
13
13
13
13
13
13
13
13
13
13
13
13
13
13
13
13
13
13
13
13
13
13
13
13
13
13
13
13
13
13
13
13
13
13
13
13
13
13
13
13
13
13
13
13
13
13
13
13
13
13
13
13
13
13
13
13
13
13
13
13
13
13
13
13
13
13
13
13
13
13
13
13
13
13
13
13
13
13
13
13
13
13
13
13
13
13
13
13
13
13
13
13
13
13
13
13
13
13
13
13
13
13
13
13
13
13
13
13
13
13
13
13
13
13
13
13
13
13
13
13
13
13
13
13
13
13
13
13
13
13
13
13
13
13
13
13
13
13
13
13
13
13
13
13
13
13
13
13
13
13
13
13
13
13
13
13
13
13
13
13
13
13
13
13
13
13
13
13
13
13
13
13
13
13
13
13
13
13
13
13
13
13
13
13
13
13
13
13
13
13
13
13
13
13
13
13
13
13
13
13
13
13
13
13
13
13
13
13
13
13
13
13
13
13
13
13
13
13
13
13
13
13
13
13
13
13
13
13
13
13
13
13
13
13
13
13
13
13
13
13
13
13
13
13
13
13
13
13
13
13
13
13
13
13
13
13
13
13
13
13
13
13
13
13
13
13

POINT_DATA 626
VECTORS displacement float
-1.74394e-06 3.09556e-05 1.80555e-05
1.73565e-06 3.09746e-05 1.81006e-05
-2.59873e-05 1.69934e-05 1.80876e-05
-2.58419e-05 1.60336e-05 1.80522e-05
-2.77216e-05 1.39734e-05 1.80696e-05
-2.77146e-05 -1.40196e-05 1.8095e-05
-2.58131e-05 -1.60717e-05 1.81064e-05
-2.59835e-05 -1.70115e-05 1.81676e-05
-1.6774e-06 -3.09593e-05 1.80519e-05
1.75544e-06 -3.09608e-05 1.81024e-05
2.59446e-05 -1.69812e-05 1.8044e-05
2.7718e-05 -1.39372e-05 1.80439e-05
2.76734e-05 1.399e-05 1.80922e-05
2.59159e-05 1.69935e-05 1.80465e-05
0 0 0
-1.74394e-06 3.09556e-05 -1.80555e-05
1.73565e-06 3.09746e-05 -1.81006e-05
-2.59873e-05 1.69934e-05 -1.80876e-05
-2.58419e-05 1.60336e-05 -1.80522e-05
-2.77216e-05 1.39734e-05 -1.80696e-05
-2.77146e-05 -1.40196e-05 -1.8095e-05
-2.58131e-05 -1.60717e-05 -1.81064e-05
-2.59835e-05 -1.70115e-05 -1.81676e-05
-1.6774e-06 -3.09593e-05 -1.80519e-05
1.75544e-06 -3.09608e-05 -1.81024e-05
2.59446e-05 -1.69812e-05 -1.8044e-05
2.7718e-05 -1.39372e-05 -1.80439e-05
2.76734e-05 1.399e-05 -1.80922e-05
2.59159e-05 1.69935e-05 -1.80465e-05
0 0 0
2.48896e-08 3.01554e-05 1.80347e-05
-2.11415e-05 1.8713e-05 1.75503e-05
-1.72333e-05 1.98346e-05 1.69214e-05
-1.40076e-05 2.10551e-05 1.65556e-05
-1.12073e-05 2.26659e-05 1.65494e-05
-8.52437e-06 2.4834e-05 1.6902e-05
-5.56791e-06 2.76229e-05 1.7538e-05
-2.64508e-05 1.46797e-05 1.8034e-05
-2.67698e-05 -9.012e-06 1.7578e-05
-2.58073e-05 -5.03577e-06 1.69266e-05
-2.52556e-05 -1.63631e-06 1.6572e-05
-2.52586e-05 1.60795e-06 1.6575e-05
-2.57996e-05 5.02317e-06 1.69248e-05
-2.6756e-05 8.98508e-06 1.75645e-05
-2.64377e-05 -1.4726e-05 1.80627e-05
-5.54116e-06 -2.76373e-05 1.75302e-05
-8.47689e-06 -2.4843e-05 1.69013e-05
-1.11705e-05 -2.26853e-05 1.65568e-05
-1.39712e-05 -2.10882e-05 1.65602e-05
-1.72157e-05 -1.987e-05 1.69373e-05
-2.11351e-05 -1.87498e-05 1.75628e-05
8.98336e-08 -3.01402e-05 1.80299e-05
2.11249e-05 -1.86255e-05 1.7512e-05
1.72455e-05 -1.9763e-05 1.68735e-05
1.40345e-05 -2.10121e-05 1.65122e-05
1.12255e-05 -2.2594e-05 1.65468e-05
8.58153e-06 -2.47812e-05 1.68748e-05
5.65478e-06 -2.76276e-05 1.75355e-05
2.61255e-05 -1.50602e-05 1.80289e-05
2.67178e-05 8.93888e-06 1.75021e-05
2.57231e-05 5.0499e-06 1.6909e-05
2.52077e-05 1.62342e-06 1.65238e-05
2.52048e-05 -1.59953e-06 1.65221e-05
2.57518e-05 -4.99768e-06 1.68889e-05
2.66999e-05 -8.91763e-06 1.75102e-05
2.61086e-05 1.50614e-05 1.80259e-05
5.63324e-06 2.76189e-05 1.75101e-05
8.5089e-06 2.48079e-05 1.69118e-05
1.12175e-05 2.26421e-05 1.653e-05
1.40051e-05 2.10231e-05 1.65254e-05
1.72225e-05 1.97942e-05 1.68857e-05
2.11159e-05 1.86351e-05 1.75259e-05
0 0 0
0 0 0
0 0 0
0 0 0
0 0 0
0 0 0
2.48896e-08 3.01554e-05 -1.80347e-05
-2.11415e-05 1.8713e-05 -1.75503e-05
-1.72333e-05 1.98346e-05 -1.69214e-05
-1.40076e-05 2.10551e-05 -1.65556e-05
-1.12073e-05 2.26659e-05 -1.65494e-05
-8.52437e-06 2.4834e-05 -1.6902e-05
-5.56791e-06 2.76229e-05 -1.7538e-05
-2.64508e-05 1.46797e-05 -1.8034e-05
-2.67698e-05 -9.012e-06 -1.7578e-05
-2.58073e-05 -5.03577e-06 -1.69266e-05
-2.52556e-05 -1.63631e-06 -1.6572e-05
-2.52586e-05 1.60795e-06 -1.6575e-05
-2.57996e-05 5.02317e-06 -1.69248e-05
-2.6756e-05 8.98508e-06 -1.75645e-05
-2.64377e-05 -1.4726e-05 -1.80627e-05
-5.54116e-06 -2.76373e-05 -1.75302e-05
-8.47689e-06 -2.4843e-05 -1.69013e-05
-1.11705e-05 -2.26853e-05 -1.65568e-05
-1.39712e-05 -2.10882e-05 -1.65602e-05
-1.72157e-05 -1.987e-05 -1.69373e-05
-2.11351e-05 -1.87498e-05 -1.75628e-05
8.98336e-08 -3.01402e-05 -1.80299e-05
2.11249e-05 -1.86255e-05 -1.7512e-05
1.72455e-05 -1.9763e-05 -1.68735e-05
1.40345e-05 -2.10121e-05 -1.65122e-05
1.12255e-05 -2.2594e-05 -1.65468e-05
8.58153e-06 -2.47812e-05 -1.68748e-05
5.65478e-06 -2.76276e-05 -1.75355e-05
2.61255e-05 -1.50602e-05 -1.80289e-05
2.67178e-05 8.93888e-06 -1.75021e-05
2.57231e-05 5.0499e-06 -1.6909e-05
2.52077e-05 1.62342e-06 -1.65238e-05
2.52048e-05 -1.59953e-06 -1.65221e-05
2.57518e-05 -4.99768e-06 -1.68889e-05
2.66999e-05 -8.91763e-06 -1.75102e-05
2.61086e-05 1.50614e-05 -1.80259e-05
5.63324e-06 2.76189e-05 -1.75101e-05
8.5089e-06 2.48079e-05 -1.69118e-05
1.12175e-05 2.26421e-05 -1.653e-05
1.40051e-05 2.10231e-05 -1.65254e-05
1.72225e-05 1.97942e-05 -1.68857e-05
2.11159e-05 1.86351e-05 -1.75259e-05
0 0 0
0 0 0
0 0 0
0 0 0
0 0 0
0 0 0
1.79374e-06 8.58774e-07 4.55244e-06
1.73787e-06 -8.25141e-07 4.46099e-06
4.31967e-07 1.84968e-06 4.49531e-06
4.36112e-07 -1.78069e-06 4.35627e-06
-1.84755e-06 2.0964e-08 4.42255e-06
-1.12312e-06 -1.30891e-06 4.15118e-06
-1.15924e-06 1.30684e-06 4.19996e-06
-2.2514e-05 -7.28801e-06 1.70005e-05
-2.21973e-05 7.37191e-06 1.69692e-05
-4.86061e-06 2.28995e-05 1.69376e-05
-4.85812e-06 -2.31326e-05 1.69645e-05
1.7422e-05 1.56361e-05 1.69304e-05
1.75695e-05 -1.55371e-05 1.69397e-05
2.10744e-05 3.16404e-06 1.6325e-05
-1.39537e-05 1.7152e-05 1.6479e-05
-1.35918e-05 -1.6742e-05 1.64105e-05
7.76816e-06 1.98204e-05 1.63318e-05
7.68517e-06 -2.03108e-05 1.64031e-05
2.14732e-05 -3.4439e-06 1.64008e-05
-2.11036e-05 6.58813e-09 1.62473e-05
-2.24212e-05 1.10002e-05 1.74541e-05
-1.87517e-05 9.25508e-06 1.66276e-05
-1.79835e-05 5.7957e-06 1.60369e-05
-1.49846e-05 7.44865e-06 1.54869e-05
-1.42251e-05 4.3079e-06 1.48302e-05
-1.15331e-05 5.74413e-06 1.40952e-05
-1.08585e-05 3.06886e-06 1.3374e-05
-8.40083e-06 4.30505e-06 1.24048e-05
-9.05918e-06 7.0137e-06 1.34568e-05
-6.20436e-06 5.48873e-06 1.16894e-05
-6.82859e-06 8.24979e-06 1.30804e-05
-4.28157e-06 6.67518e-06 1.14509e-05
-4.80021e-06 9.61033e-06 1.30943e-05
-2.40097e-06 7.99367e-06 1.17234e-05
-2.81297e-06 1.11677e-05 1.34754e-05
-4.75431e-07 9.59569e-06 1.25014e-05
-7.38387e-07 1.29975e-05 1.41422e-05
1.73115e-06 1.15183e-05 1.35354e-05
-5.53493e-06 1.27009e-05 1.44374e-05
1.68515e-06 8.22431e-06 1.1748e-05
4.00435e-06 1.01213e-05 1.31514e-05
3.7055e-06 7.09824e-06 1.14786e-05
6.06766e-06 8.96705e-06 1.31138e-05
5.76706e-06 6.10704e-06 1.1736e-05
8.35844e-06 8.02066e-06 1.34925e-05
8.10599e-06 5.19548e-06 1.25008e-05
1.09545e-05 7.09735e-06 1.41474e-05
1.07464e-05 4.32298e-06 1.34995e-05
8.53089e-06 1.1038e-05 1.44613e-05
7.93802e-06 2.64385e-06 1.17278e-05
1.06465e-05 1.73727e-06 1.31045e-05
7.94901e-06 3.58775e-07 1.1456e-05
1.08069e-05 -7.59145e-07 1.31246e-05
8.11198e-06 -1.93788e-06 1.17095e-05
1.10987e-05 -3.31299e-06 1.34844e-05
8.47009e-06 -4.42417e-06 1.24445e-05
1.15042e-05 -6.00314e-06 1.41099e-05
8.95595e-06 -7.13841e-06 1.34285e-05
6.14778e-06 -5.49464e-06 1.16417e-05
6.64478e-06 -8.30122e-06 1.30187e-05
4.10537e-06 -6.58878e-06 1.13113e-05
4.52355e-06 -9.55128e-06 1.29887e-05
2.24239e-06 -7.85861e-06 1.15978e-05
2.48494e-06 -1.10024e-05 1.33514e-05
2.25299e-07 -9.37408e-06 1.2354e-05
3.30026e-07 -1.27704e-05 1.40343e-05
-1.91552e-06 -1.11512e-05 1.33775e-05
-1.84114e-06 -7.92195e-06 1.15826e-05
-4.16808e-06 -9.87527e-06 1.30855e-05
-3.8141e-06 -6.73078e-06 1.13175e-05
-6.34589e-06 -8.66239e-06 1.30998e-05
-5.89155e-06 -5.69825e-06 1.16288e-05
-8.50009e-06 -7.43612e-06 1.33802e-05
-8.16789e-06 -4.72826e-06 1.24091e-05
-1.10961e-05 -6.40305e-06 1.40704e-05
-4.37185e-06 -1.31238e-05 1.44342e-05
-1.08093e-05 -3.65084e-06 1.34397e-05
7.22644e-06 -1.13733e-05 1.42735e-05
-7.74203e-06 1.98277e-06 1.14933e-05
-1.32167e-05 1.0351e-06 1.42115e-05
1.7292e-06 1.50835e-05 1.49528e-05
1.37687e-05 4.62259e-07 1.43883e-05
1.38438e-05 6.10037e-06 1.49323e-05
-9.69449e-06 1.01967e-05 1.45331e-05
-5.41623e-06 -3.19779e-06 1.01825e-05
-1.17141e-05 -9.29775e-06 1.48898e-05
1.18829e-05 -8.7606e-06 1.47877e-05
1.47824e-05 -7.47394e-06 1.54039e-05
-1.39604e-05 -5.24413e-06 1.48622e-05
2.79594e-06 -1.45168e-05 1.47968e-05
4.24578e-07 -1.65002e-05 1.53983e-05
3.51858e-06 4.39712e-06 9.58152e-06
1.40112e-05 9.29947e-06 1.54922e-05
1.79316e-05 8.14533e-06 1.63012e-05
-1.56762e-05 1.13958e-05 1.62341e-05
-1.09414e-06 1.67698e-05 1.54959e-05
1.90694e-06 1.96225e-05 1.63116e-05
-2.09196e-06 5.22029e-06 9.59802e-06
5.55417e-06 -7.84636e-07 9.59457e-06
3.5861e-06 -3.68371e-06 9.08238e-06
-1.77971e-06 -5.17879e-06 9.45002e-06
-2.24697e-05 -1.10113e-05 1.74749e-05
-1.8799e-05 -9.24183e-06 1.66516e-05
2.11487e-05 1.41653e-05 1.75062e-05
2.07546e-05 -1.43182e-05 1.74361e-05
-1.76465e-06 -2.54476e-05 1.75115e-05
-1.68218e-06 2.54116e-05 1.75161e-05
1.77138e-05 -1.19074e-05 1.66878e-05
2.06466e-05 -1.07515e-05 1.71166e-05
3.7758e-06 -1.8986e-05 1.614e-05
7.68557e-07 -2.03467e-05 1.64835e-05
-1.94059e-05 -1.26511e-05 1.71437e-05
-1.37317e-05 -2.30703e-06 1.44725e-05
-1.65935e-05 -3.7016e-06 1.54782e-05
-1.03763e-05 -1.09643e-06 1.29526e-05
2.4453e-05 1.10733e-05 1.76522e-05
2.54985e-05 -1.24038e-05 1.78487e-05
2.6493e-06 2.67271e-05 1.7661e-05
2.52105e-06 -2.64147e-05 1.76299e-05
3.33958e-06 -2.30329e-05 1.70297e-05
-2.05398e-06 -1.83207e-05 1.59515e-05
4.05919e-06 2.37924e-05 1.7131e-05
2.26151e-05 8.37964e-06 1.71198e-05
4.6138e-06 1.73141e-05 1.57279e-05
1.44276e-05 -1.312e-05 1.6138e-05
-1.57884e-05 -1.09852e-05 1.62151e-05
-1.68005e-05 -3.81446e-07 1.5378e-05
1.73067e-05 4.68769e-06 1.57263e-05
6.55239e-08 -6.38757e-06 1.02679e-05
1.74178e-06 -4.84865e-06 9.09288e-06
5.8507e-06 -2.93563e-06 1.03786e-05
-2.14451e-05 3.75069e-06 1.64594e-05
5.72961e-06 -1.62752e-05 1.55083e-05
9.08385e-06 -1.74998e-05 1.59981e-05
1.75729e-05 1.18822e-05 1.66729e-05
1.39948e-05 -1.63829e-05 1.64018e-05
1.07404e-05 -1.37896e-05 1.55507e-05
-3.54811e-06 -4.22036e-06 9.50117e-06
5.39933e-06 1.13854e-06 9.49946e-06
5.21825e-06 3.223e-06 1.00477e-05
-1.74981e-06 -2.83556e-05 1.78774e-05
1.89213e-06 5.2991e-06 9.58486e-06
-1.13828e-07 6.10524e-06 1.00392e-05
-3.78507e-06 4.1279e-06 9.57882e-06
-5.6229e-06 3.0343e-06 1.02857e-05
-5.16567e-06 1.04071e-06 9.214e-06
-7.52754e-06 -6.17417e-08 1.11729e-05
-4.33453e-06 -8.10307e-07 8.38221e-06
-3.1087e-06 1.8724e-06 7.37438e-06
-2.20821e-05 -3.60793e-06 1.65164e-05
2.34071e-05 -1.56885e-05 1.78366e-05
-1.50725e-06 2.11688e-05 1.66826e-05
2.12625e-05 -8.45237e-08 1.62264e-05
1.76228e-05 -1.64687e-06 1.5582e-05
1.73484e-05 -4.94189e-06 1.57713e-05
2.18924e-05 -7.45144e-06 1.69142e-05
-2.31831e-05 -1.42551e-05 1.78332e-05
1.73254e-05 1.64894e-06 1.55091e-05
-1.73402e-06 2.84741e-05 1.78946e-05
-4.22087e-07 3.68355e-06 7.49562e-06
2.37728e-05 1.57429e-05 1.78851e-05
-1.74981e-05 1.56428e-05 1.69755e-05
-1.06267e-05 -1.84669e-05 1.62557e-05
-1.01e-05 -1.43429e-05 1.55723e-05
-7.50809e-06 -1.60955e-05 1.56226e-05
-7.32242e-06 -2.01214e-05 1.63959e-05
-1.07049e-05 1.8536e-05 1.62674e-05
-1.03478e-05 1.43847e-05 1.56199e-05
-7.77295e-06 2.04933e-05 1.64448e-05
-4.25316e-06 1.86105e-05 1.60536e-05
1.07602e-05 1.83462e-05 1.62268e-05
1.38923e-05 1.69356e-05 1.64316e-05
1.40425e-05 1.29734e-05 1.60519e-05
-7.36189e-06 1.6289e-05 1.56391e-05
1.05256e-05 1.45476e-05 1.56458e-05
7.74908e-06 1.6093e-05 1.56145e-05
-3.11658e-06 -1.89883e-06 7.3935e-06
-7.25796e-06 -1.24225e-05 1.46258e-05
3.00877e-06 4.03616e-08 6.60126e-06
4.87278e-06 1.35233e-05 1.46187e-05
1.40766e-05 -2.26049e-06 1.45711e-05
-1.72905e-05 -1.52173e-05 1.69461e-05
-1.73672e-05 2.42041e-06 1.55984e-05
-1.22052e-05 8.91232e-06 1.49441e-05
-7.70595e-06 -2.29261e-06 1.15552e-05
-1.24503e-05 1.18131e-05 1.55406e-05
-1.42741e-07 -3.75436e-06 7.55451e-06
2.73033e-06 2.27216e-06 7.25225e-06
-2.00395e-06 -1.46511e-05 1.48087e-05
9.3655e-06 -1.00687e-05 1.439e-05
1.38613e-05 3.15795e-06 1.45667e-05
-7.34036e-06 1.11999e-05 1.42609e-05
4.99744e-06 -1.27754e-05 1.43699e-05
1.10323e-05 1.0431e-05 1.49203e-05
-3.5966e-06 1.46859e-05 1.49086e-05
-4.63567e-06 -1.66176e-05 1.55495e-05
-1.95079e-05 1.2893e-05 1.71619e-05
-2.31278e-05 1.48587e-05 1.7844e-05
-1.29055e-05 -1.26866e-05 1.58132e-05
3.76094e-06 -1.58618e-06 7.90731e-06
1.76446e-06 2.92239e-06 7.08475e-06
-9.23089e-06 -1.06099e-05 1.45324e-05
1.72781e-06 -2.82326e-06 6.93138e-06
9.94757e-07 2.41179e-05 1.73091e-05
2.13688e-05 1.11943e-05 1.72992e-05
-1.46653e-05 -7.95374e-06 1.5486e-05
1.37087e-05 -4.78654e-06 1.46913e-05
-1.90996e-06 -2.17639e-05 1.68033e-05
1.80612e-05 -8.41944e-06 1.63413e-05
-1.66797e-05 -6.32886e-06 1.57831e-05
-4.32916e-07 -1.92239e-06 4.79869e-06
-1.80544e-06 2.99555e-06 7.1775e-06
-2.5053e-05 -1.29823e-05 1.79228e-05
-2.51282e-05 -1.45078e-05 1.80026e-05
-2.50461e-05 1.30342e-05 1.79066e-05
-2.5119e-05 1.46505e-05 1.79827e-05
-1.64852e-06 -3.12497e-06 7.21024e-06
6.32824e-06 1.13689e-05 1.40772e-05
5.33723e-07 -2.40871e-05 1.73028e-05
-5.22796e-07 1.80961e-06 4.64522e-06
7.4078e-06 -1.43443e-05 1.5153e-05
2.33038e-05 -1.32099e-05 1.77294e-05
2.36337e-05 -1.0538e-05 1.74914e-05
1.1989e-05 -1.82118e-05 1.6294e-05
1.47308e-05 -1.01471e-05 1.57962e-05
-1.00275e-05 1.00129e-06 1.27552e-05
-1.74007e-06 -8.15931e-07 4.72367e-06
7.69094e-07 3.7085e-06 7.5735e-06
2.34316e-06 -1.99724e-06 6.55559e-06
2.01574e-05 5.89811e-06 1.64543e-05
5.07029e-06 2.05969e-05 1.64967e-05
3.4212e-07 -2.76811e-05 1.78546e-05
-1.73129e-06 7.09136e-07 4.60653e-06
-3.21163e-06 6.23071e-07 6.82446e-06
3.57736e-06 1.47547e-06 7.63698e-06
4.99229e-07 2.83249e-05 1.79278e-05
2.47613e-05 1.37346e-05 1.7919e-05
-2.03293e-05 1.55364e-05 1.74296e-05
1.17875e-06 1.36452e-06 4.46006e-06
-2.06405e-05 -1.5729e-05 1.75282e-05
-1.89998e-05 -2.3223e-06 1.59468e-05
-1.95601e-05 -5.58526e-06 1.63329e-05
9.05717e-07 -3.24788e-06 7.00643e-06
-4.36621e-06 -1.97902e-05 1.63225e-05
-7.93766e-06 1.38351e-05 1.51018e-05
1.16579e-06 -1.30423e-06 4.33949e-06
1.1935e-05 -1.12289e-05 1.52928e-05
6.1333e-06 -2.26971e-05 1.68211e-05
-1.45228e-05 1.4356e-05 1.63243e-05
7.92945e-06 1.33219e-05 1.49487e-05
1.79374e-06 8.58774e-07 -4.55244e-06
1.73787e-06 -8.25141e-07 -4.46099e-06
4.31967e-07 1.84968e-06 -4.49531e-06
4.36112e-07 -1.78069e-06 -4.35627e-06
-1.84755e-06 2.0964e-08 -4.42255e-06
-1.12312e-06 -1.30891e-06 -4.15118e-06
-1.15924e-06 1.30684e-06 -4.19996e-06
-2.2514e-05 -7.28801e-06 -1.70005e-05
-2.21973e-05 7.37191e-06 -1.69692e-05
-4.86061e-06 2.28995e-05 -1.69376e-05
-4.85812e-06 -2.31326e-05 -1.69645e-05
1.7422e-05 1.56361e-05 -1.69304e-05
1.75695e-05 -1.55371e-05 -1.69397e-05
2.10744e-05 3.16404e-06 -1.6325e-05
-1.39537e-05 1.7152e-05 -1.6479e-05
-1.35918e-05 -1.6742e-05 -1.64105e-05
7.76816e-06 1.98204e-05 -1.63318e-05
7.68517e-06 -2.03108e-05 -1.64031e-05
2.14732e-05 -3.4439e-06 -1.64008e-05
-2.11036e-05 6.58813e-09 -1.62473e-05
-2.24212e-05 1.10002e-05 -1.74541e-05
-1.87517e-05 9.25508e-06 -1.66276e-05
-1.79835e-05 5.7957e-06 -1.60369e-05
-1.49846e-05 7.44865e-06 -1.54869e-05
-1.42251e-05 4.3079e-06 -1.48302e-05
-1.15331e-05 5.74413e-06 -1.40952e-05
-1.08585e-05 3.06886e-06 -1.3374e-05
-8.40083e-06 4.30505e-06 -1.24048e-05
-9.05918e-06 7.0137e-06 -1.34568e-05
-6.20436e-06 5.48873e-06 -1.16894e-05
-6.82859e-06 8.24979e-06 -1.30804e-05
-4.28157e-06 6.67518e-06 -1.14509e-05
-4.80021e-06 9.61033e-06 -1.30943e-05
-2.40097e-06 7.99367e-06 -1.17234e-05
-2.81297e-06 1.11677e-05 -1.34754e-05
-4.75431e-07 9.59569e-06 -1.25014e-05
-7.38387e-07 1.29975e-05 -1.41422e-05
1.73115e-06 1.15183e-05 -1.35354e-05
-5.53493e-06 1.27009e-05 -1.44374e-05
1.68515e-06 8.22431e-06 -1.1748e-05
4.00435e-06 1.01213e-05 -1.31514e-05
3.7055e-06 7.09824e-06 -1.14786e-05
6.06766e-06 8.96705e-06 -1.31138e-05
5.76706e-06 6.10704e-06 -1.1736e-05
8.35844e-06 8.02066e-06 -1.34925e-05
8.10599e-06 5.19548e-06 -1.25008e-05
1.09545e-05 7.09735e-06 -1.41474e-05
1.07464e-05 4.32298e-06 -1.34995e-05
8.53089e-06 1.1038e-05 -1.44613e-05
7.93802e-06 2.64385e-06 -1.17278e-05
1.06465e-05 1.73727e-06 -1.31045e-05
7.94901e-06 3.58775e-07 -1.1456e-05
1.08069e-05 -7.59145e-07 -1.31246e-05
8.11198e-06 -1.93788e-06 -1.17095e-05
1.10987e-05 -3.31299e-06 -1.34844e-05
8.47009e-06 -4.42417e-06 -1.24445e-05
1.15042e-05 -6.00314e-06 -1.41099e-05
8.95595e-06 -7.13841e-06 -1.34285e-05
6.14778e-06 -5.49464e-06 -1.16417e-05
6.64478e-06 -8.30122e-06 -1.30187e-05
4.10537e-06 -6.58878e-06 -1.13113e-05
4.52355e-06 -9.55128e-06 -1.29887e-05
2.24239e-06 -7.85861e-06 -1.15978e-05
2.48494e-06 -1.10024e-05 -1.33514e-05
2.25299e-07 -9.37408e-06 -1.2354e-05
3.30026e-07 -1.27704e-05 -1.40343e-05
-1.91552e-06 -1.11512e-05 -1.33775e-05
-1.84114e-06 -7.92195e-06 -1.15826e-05
-4.16808e-06 -9.87527e-06 -1.30855e-05
-3.8141e-06 -6.73078e-06 -1.13175e-05
-6.34589e-06 -8.66239e-06 -1.30998e-05
-5.89155e-06 -5.69825e-06 -1.16288e-05
-8.50009e-06 -7.43612e-06 -1.33802e-05
-8.16789e-06 -4.72826e-06 -1.24091e-05
-1.10961e-05 -6.40305e-06 -1.40704e-05
-4.37185e-06 -1.31238e-05 -1.44342e-05
-1.08093e-05 -3.65084e-06 -1.34397e-05
7.22644e-06 -1.13733e-05 -1.42735e-05
-7.74203e-06 1.98277e-06 -1.14933e-05
-1.32167e-05 1.0351e-06 -1.42115e-05
1.7292e-06 1.50835e-05 -1.49528e-05
1.37687e-05 4.62259e-07 -1.43883e-05
1.38438e-05 6.10037e-06 -1.49323e-05
-9.69449e-06 1.01967e-05 -1.45331e-05
-5.41623e-06 -3.19779e-06 -1.01825e-05
-1.17141e-05 -9.29775e-06 -1.48898e-05
1.18829e-05 -8.7606e-06 -1.47877e-05
1.47824e-05 -7.47394e-06 -1.54039e-05
-1.39604e-05 -5.24413e-06 -1.48622e-05
2.79594e-06 -1.45168e-05 -1.47968e-05
4.24578e-07 -1.65002e-05 -1.53983e-05
3.51858e-06 4.39712e-06 -9.58152e-06
1.40112e-05 9.29947e-06 -1.54922e-05
1.79316e-05 8.14533e-06 -1.63012e-05
-1.56762e-05 1.13958e-05 -1.62341e-05
-1.09414e-06 1.67698e-05 -1.54959e-05
1.90694e-06 1.96225e-05 -1.63116e-05
-2.09196e-06 5.22029e-06 -9.59802e-06
5.55417e-06 -7.84636e-07 -9.59457e-06
3.5861e-06 -3.68371e-06 -9.08238e-06
-1.77971e-06 -5.17879e-06 -9.45002e-06
-2.24697e-05 -1.10113e-05 -1.74749e-05
-1.8799e-05 -9.24183e-06 -1.66516e-05
2.11487e-05 1.41653e-05 -1.75062e-05
2.07546e-05 -1.43182e-05 -1.74361e-05
-1.76465e-06 -2.54476e-05 -1.75115e-05
-1.68218e-06 2.54116e-05 -1.75161e-05
1.77138e-05 -1.19074e-05 -1.66878e-05
2.06466e-05 -1.07515e-05 -1.71166e-05
3.7758e-06 -1.8986e-05 -1.614e-05
7.68557e-07 -2.03467e-05 -1.64835e-05
-1.94059e-05 -1.26511e-05 -1.71437e-05
-1.37317e-05 -2.30703e-06 -1.44725e-05
-1.65935e-05 -3.7016e-06 -1.54782e-05
-1.03763e-05 -1.09643e-06 -1.29526e-05
2.4453e-05 1.10733e-05 -1.76522e-05
2.54985e-05 -1.24038e-05 -1.78487e-05
2.6493e-06 2.67271e-05 -1.7661e-05
2.52105e-06 -2.64147e-05 -1.76299e-05
3.33958e-06 -2.30329e-05 -1.70297e-05
-2.05398e-06 -1.83207e-05 -1.59515e-05
4.05919e-06 2.37924e-05 -1.7131e-05
2.26151e-05 8.37964e-06 -1.71198e-05
4.6138e-06 1.73141e-05 -1.57279e-05
1.44276e-05 -1.312e-05 -1.6138e-05
-1.57884e-05 -1.09852e-05 -1.62151e-05
-1.68005e-05 -3.81446e-07 -1.5378e-05
1.73067e-05 4.68769e-06 -1.57263e-05
6.55239e-08 -6.38757e-06 -1.02679e-05
1.74178e-06 -4.84865e-06 -9.09288e-06
5.8507e-06 -2.93563e-06 -1.03786e-05
-2.14451e-05 3.75069e-06 -1.64594e-05
5.72961e-06 -1.62752e-05 -1.55083e-05
9.08385e-06 -1.74998e-05 -1.59981e-05
1.75729e-05 1.18822e-05 -1.66729e-05
1.39948e-05 -1.63829e-05 -1.64018e-05
1.07404e-05 -1.37896e-05 -1.55507e-05
-3.54811e-06 -4.22036e-06 -9.50117e-06
5.39933e-06 1.13854e-06 -9.49946e-06
5.21825e-06 3.223e-06 -1.00477e-05
-1.74981e-06 -2.83556e-05 -1.78774e-05
1.89213e-06 5.2991e-06 -9.58486e-06
-1.13828e-07 6.10524e-06 -1.00392e-05
-3.78507e-06 4.1279e-06 -9.57882e-06
-5.6229e-06 3.0343e-06 -1.02857e-05
-5.16567e-06 1.04071e-06 -9.214e-06
-7.52754e-06 -6.17417e-08 -1.11729e-05
-4.33453e-06 -8.10307e-07 -8.38221e-06
-3.1087e-06 1.8724e-06 -7.37438e-06
-2.20821e-05 -3.60793e-06 -1.65164e-05
2.34071e-05 -1.56885e-05 -1.78366e-05
-1.50725e-06 2.11688e-05 -1.66826e-05
2.12625e-05 -8.45237e-08 -1.62264e-05
1.76228e-05 -1.64687e-06 -1.5582e-05
1.73484e-05 -4.94189e-06 -1.57713e-05
2.18924e-05 -7.45144e-06 -1.69142e-05
-2.31831e-05 -1.42551e-05 -1.78332e-05
1.73254e-05 1.64894e-06 -1.55091e-05
-1.73402e-06 2.84741e-05 -1.78946e-05
-4.22087e-07 3.68355e-06 -7.49562e-06
2.37728e-05 1.57429e-05 -1.78851e-05
-1.74981e-05 1.56428e-05 -1.69755e-05
-1.06267e-05 -1.84669e-05 -1.62557e-05
-1.01e-05 -1.43429e-05 -1.55723e-05
-7.50809e-06 -1.60955e-05 -1.56226e-05
-7.32242e-06 -2.01214e-05 -1.63959e-05
-1.07049e-05 1.8536e-05 -1.62674e-05
-1.03478e-05 1.43847e-05 -1.56199e-05
-7.77295e-06 2.04933e-05 -1.64448e-05
-4.25316e-06 1.86105e-05 -1.60536e-05
1.07602e-05 1.83462e-05 -1.62268e-05
1.38923e-05 1.69356e-05 -1.64316e-05
1.40425e-05 1.29734e-05 -1.60519e-05
-7.36189e-06 1.6289e-05 -1.56391e-05
1.05256e-05 1.45476e-05 -1.56458e-05
7.74908e-06 1.6093e-05 -1.56145e-05
-3.11658e-06 -1.89883e-06 -7.3935e-06
-7.25796e-06 -1.24225e-05 -1.46258e-05
3.00877e-06 4.03616e-08 -6.60126e-06
4.87278e-06 1.35233e-05 -1.46187e-05
1.40766e-05 -2.26049e-06 -1.45711e-05
-1.72905e-05 -1.52173e-05 -1.69461e-05
-1.73672e-05 2.42041e-06 -1.55984e-05
-1.22052e-05 8.91232e-06 -1.49441e-05
-7.70595e-06 -2.29261e-06 -1.15552e-05
-1.24503e-05 1.18131e-05 -1.55406e-05
-1.42741e-07 -3.75436e-06 -7.55451e-06
2.73033e-06 2.27216e-06 -7.25225e-06
-2.00395e-06 -1.46511e-05 -1.48087e-05
9.3655e-06 -1.00687e-05 -1.439e-05
1.38613e-05 3.15795e-06 -1.45667e-05
-7.34036e-06 1.11999e-05 -1.42609e-05
4.99744e-06 -1.27754e-05 -1.43699e-05
1.10323e-05 1.0431e-05 -1.49203e-05
-3.5966e-06 1.46859e-05 -1.49086e-05
-4.63567e-06 -1.66176e-05 -1.55495e-05
-1.95079e-05 1.2893e-05 -1.71619e-05
-2.31278e-05 1.48587e-05 -1.7844e-05
-1.29055e-05 -1.26866e-05 -1.58132e-05
3.76094e-06 -1.58618e-06 -7.90731e-06
1.76446e-06 2.92239e-06 -7.08475e-06
-9.23089e-06 -1.06099e-05 -1.45324e-05
1.72781e-06 -2.82326e-06 -6.93138e-06
9.94757e-07 2.41179e-05 -1.73091e-05
2.13688e-05 1.11943e-05 -1.72992e-05
-1.46653e-05 -7.95374e-06 -1.5486e-05
1.37087e-05 -4.78654e-06 -1.46913e-05
-1.90996e-06 -2.17639e-05 -1.68033e-05
1.80612e-05 -8.41944e-06 -1.63413e-05
-1.66797e-05 -6.32886e-06 -1.57831e-05
-4.32916e-07 -1.92239e-06 -4.79869e-06
-1.80544e-06 2.99555e-06 -7.1775e-06
-2.5053e-05 -1.29823e-05 -1.79228e-05
-2.51282e-05 -1.45078e-05 -1.80026e-05
-2.50461e-05 1.30342e-05 -1.79066e-05
-2.5119e-05 1.46505e-05 -1.79827e-05
-1.64852e-06 -3.12497e-06 -7.21024e-06
6.32824e-06 1.13689e-05 -1.40772e-05
5.33723e-07 -2.40871e-05 -1.73028e-05
-5.22796e-07 1.80961e-06 -4.64522e-06
7.4078e-06 -1.43443e-05 -1.5153e-05
2.33038e-05 -1.32099e-05 -1.77294e-05
2.36337e-05 -1.0538e-05 -1.74914e-05
1.1989e-05 -1.82118e-05 -1.6294e-05
1.47308e-05 -1.01471e-05 -1.57962e-05
-1.00275e-05 1.00129e-06 -1.27552e-05
-1.74007e-06 -8.15931e-07 -4.72367e-06
7.69094e-07 3.7085e-06 -7.5735e-06
2.34316e-06 -1.99724e-06 -6.55559e-06
2.01574e-05 5.89811e-06 -1.64543e-05
5.07029e-06 2.05969e-05 -1.64967e-05
3.4212e-07 -2.76811e-05 -1.78546e-05
-1.73129e-06 7.09136e-07 -4.60653e-06
-3.21163e-06 6.23071e-07 -6.82446e-06
3.57736e-06 1.47547e-06 -7.63698e-06
4.99229e-07 2.83249e-05 -1.79278e-05
2.47613e-05 1.37346e-05 -1.7919e-05
-2.03293e-05 1.55364e-05 -1.74296e-05
1.17875e-06 1.36452e-06 -4.46006e-06
-2.06405e-05 -1.5729e-05 -1.75282e-05
-1.89998e-05 -2.3223e-06 -1.59468e-05
-1.95601e-05 -5.58526e-06 -1.63329e-05
9.05717e-07 -3.24788e-06 -7.00643e-06
-4.36621e-06 -1.97902e-05 -1.63225e-05
-7.93766e-06 1.38351e-05 -1.51018e-05
1.16579e-06 -1.30423e-06 -4.33949e-06
1.1935e-05 -1.12289e-05 -1.52928e-05
6.1333e-06 -2.26971e-05 -1.68211e-05
-1.45228e-05 1.4356e-05 -1.63243e-05
7.92945e-06 1.33219e-05 -1.49487e-05
SCALARS effective_fluid_pressure_TPM float
LOOKUP_TABLE default
665
665
665
665
665
665
665
665
665
665
665
665
665
665
133
665
665
665
665
665
665
665
665
665
665
665
665
665
665
133
665
560.331
520.681
502.824
502.594
519.807
559.952
665
561.998
520.776
503.266
503.376
520.708
561.62
665
559.619
519.678
502.768
502.986
521.176
561.636
665
558.875
519.023
501.557
502.253
518.872
559.464
665
558.515
519.962
501.889
501.821
519.395
557.955
665
558.671
519.976
502.062
501.923
519.383
559.678
133
133
133
133
133
133
665
560.331
520.681
502.824
502.594
519.807
559.952
665
561.998
520.776
503.266
503.376
520.708
561.62
665
559.619
519.678
502.768
502.986
521.176
561.636
665
558.875
519.023
501.557
502.253
518.872
559.464
665
558.515
519.962
501.889
501.821
519.395
557.955
665
558.671
519.976
502.062
501.923
519.383
559.678
133
133
133
133
133
133
228.263
226.333
227.047
224.115
225.53
219.852
220.868
529.18
528.189
526.569
527.948
526.596
527.649
498.719
503.565
501.604
498.96
501.476
501.258
494.34
562.513
518.994
495.042
480.749
461.37
443.289
425.057
402.13
427.282
385.275
417.749
379.622
417.913
385.96
427.398
404.308
444.393
429.087
450.27
386.569
419.312
380.217
418.324
386.199
427.771
404.236
444.503
428.171
450.866
386.044
418.176
379.633
418.532
385.567
427.608
402.93
443.566
426.463
384.061
416.148
376.316
415.355
383.033
424.429
400.855
441.715
425.237
382.769
417.788
376.581
418.106
383.855
425.277
402.223
442.687
450.66
426.736
446.018
380.742
444.684
465.299
448.752
464.772
453.421
350.915
463.514
461.046
478.452
462.781
460.652
478.357
337.289
480.829
505.86
503.619
480.895
506.166
337.702
337.514
326.177
334.428
563.389
519.669
567.589
562.375
567.907
567.76
521.818
542.727
498.633
513.743
542.072
451.463
477.58
414.667
579.529
611.035
579.682
576.043
534.563
494.482
538.236
537.933
485.04
498.119
503.336
473.142
485.088
352.76
326.427
355.19
503.447
477.719
488.362
520.887
502.03
477.917
335.553
335.416
347.712
613.452
337.39
347.583
337.277
353.216
329.2
373.268
310.671
288.797
504.713
608.387
521.108
493.724
478.329
486.357
526.502
600.347
476.566
615.905
291.406
615.803
528.73
494.536
478.236
479.411
501.317
494.842
479.437
502.512
495.176
493.746
502.264
495.249
479.884
480.05
479.052
289.304
454.592
271.951
455
453.629
527.011
479.473
465.223
382.111
480.508
292.679
286.091
461.479
449.633
453.977
445.855
448.689
463.604
463.261
479.953
543.467
601.709
487.493
300.312
282.47
453.013
279.172
552.249
552.008
480.774
458.017
526.233
508.186
488.59
233.735
284.567
614.512
636.325
615.146
636.681
285.289
441.34
553.089
230.491
467.552
590.271
566.041
495.815
490.048
410.044
232.125
293.105
271.134
507.895
509.193
607.82
229.669
276.985
294.44
618.883
618.796
558.522
226.528
562.535
488.313
503.395
280.856
504.065
466.378
224.013
473.585
519.58
502.98
462.445
228.263
226.333
227.047
224.115
225.53
219.852
220.868
529.18
528.189
526.569
527.948
526.596
527.649
498.719
503.565
501.604
498.96
501.476
501.258
494.34
562.513
518.994
495.042
480.749
461.37
443.289
425.057
402.13
427.282
385.275
417.749
379.622
417.913
385.96
427.398
404.308
444.393
429.087
450.27
386.569
419.312
380.217
418.324
386.199
427.771
404.236
444.503
428.171
450.866
386.044
418.176
379.633
418.532
385.567
427.608
402.93
443.566
426.463
384.061
416.148
376.316
415.355
383.033
424.429
400.855
441.715
425.237
382.769
417.788
376.581
418.106
383.855
425.277
402.223
442.687
450.66
426.736
446.018
380.742
444.684
465.299
448.752
464.772
453.421
350.915
463.514
461.046
478.452
462.781
460.652
478.357
337.289
480.829
505.86
503.619
480.895
506.166
337.702
337.514
326.177
334.428
563.389
519.669
567.589
562.375
567.907
567.76
521.818
542.727
498.633
513.743
542.072
451.463
477.58
414.667
579.529
611.035
579.682
576.043
534.563
494.482
538.236
537.933
485.04
498.119
503.336
473.142
485.088
352.76
326.427
355.19
503.447
477.719
488.362
520.887
502.03
477.917
335.553
335.416
347.712
613.452
337.39
347.583
337.277
353.216
329.2
373.268
310.671
288.797
504.713
608.387
521.108
493.724
478.329
486.357
526.502
600.347
476.566
615.905
291.406
615.803
528.73
494.536
478.236
479.411
501.317
494.842
479.437
502.512
495.176
493.746
502.264
495.249
479.884
480.05
479.052
289.304
454.592
271.951
455
453.629
527.011
479.473
465.223
382.111
480.508
292.679
286.091
461.479
449.633
453.977
445.855
448.689
463.604
463.261
479.953
543.467
601.709
487.493
300.312
282.47
453.013
279.172
552.249
552.008
480.774
458.017
526.233
508.186
488.59
233.735
284.567
614.512
636.325
615.146
636.681
285.289
441.34
553.089
230.491
467.552
590.271
566.041
495.815
490.048
410.044
232.125
293.105
271.134
507.895
509.193
607.82
229.669
276.985
294.44
618.883
618.796
558.522
226.528
562.535
488.313
503.395
280.856
504.065
466.378
224.013
473.585
519.58
502.98
462.445

CELL_DATA 563
TENSORS stress float
164.618 -24.921 1.46845e-13
-24.921 28.1507 1.50398e-13
1.46845e-13 1.50398e-13 -12.6023

-40.3392 -21.3206 -6.02377e-12
-21.3206 -7.35481 -1.37194e-12
-6.02377e-12 -1.37194e-12 -10.2331

-9.94129 28.0446 -3.48403e-12
28.0446 -1.11103 -3.33008e-12
-3.48403e-12 -3.33008e-12 -6.36185

-40.4271 -29.8425 -2.82722e-12
-29.8425 -12.8458 -4.41129e-13
-2.82722e-12 -4.41129e-13 -10.5994

-22.6916 19.9309 -9.03277e-13
19.9309 -1.9247 8.34792e-12
-9.03277e-13 8.34792e-12 -23.0207

-27.1414 -18.0754 6.07514e-13
-18.0754 15.8879 5.31427e-12
6.07514e-13 5.31427e-12 -6.41264

161.269 26.4852 2.84691e-12
26.4852 28.0273 2.3744e-12
2.84691e-12 2.3744e-12 -13.2612

-5.96232 29.9587 1.31746e-12
29.9587 -10.1127 -1.46135e-12
1.31746e-12 -1.46135e-12 -7.27765

34.6321 5.48339 -1.55254e-12
5.48339 -19.097 -1.21074e-12
-1.55254e-12 -1.21074e-12 -4.12365

11.8602 -7.47761 1.68458e-13
-7.47761 -48.2878 -2.76941e-12
1.68458e-13 -2.76941e-12 -8.9483

104.199 16.3096 -1.66267e-12
16.3096 -8.44372 8.31335e-12
-1.66267e-12 8.31335e-12 -22.4539

-34.6389 -13.4537 1.0328e-12
-13.4537 18.9657 -2.77526e-12
1.0328e-12 -2.77526e-12 -7.18192

-6.02696 27.8342 -2.2542e-12
27.8342 -4.59189 2.72316e-12
-2.2542e-12 2.72316e-12 -6.16059

-35.5532 -14.3406 2.67954e-12
-14.3406 7.84503 1.25529e-13
2.67954e-12 1.25529e-13 -9.13258

-23.6537 33.31 2.56654e-12
33.31 -24.9933 1.12819e-12
2.56654e-12 1.12819e-12 -21.3646

21.3111 0.561036 8.08242e-13
0.561036 -32.3401 4.303e-12
8.08242e-13 4.303e-12 -5.59116

-48.9599 -17.9689 1.51287e-12
-17.9689 6.34259 -1.47852e-12
1.51287e-12 -1.47852e-12 -12.947

11.6602 -2.6652 2.25716e-12
-2.6652 -43.2507 1.13709e-12
2.25716e-12 1.13709e-12 -8.03509

-11.3516 26.6754 3.45561e-12
26.6754 19.5172 -1.61412e-12
3.45561e-12 -1.61412e-12 -6.09107

21.7657 -4.19584 -2.73618e-12
-4.19584 -35.297 -8.87216e-13
-2.73618e-12 -8.87216e-13 -6.74293

-24.4812 8.66921 2.48986e-13
8.66921 32.128 1.44359e-12
2.48986e-13 1.44359e-12 -4.93575

-11.8086 6.28672 -3.41131e-12
6.28672 -11.9718 -3.51423e-12
-3.41131e-12 -3.51423e-12 -75.6118

22.7436 1.87605 -1.33049e-12
1.87605 -33.4715 8.01581e-14
-1.33049e-12 8.01581e-14 -6.6789

-12.3894 -27.7166 4.57234e-12
-27.7166 1.599 1.74438e-12
4.57234e-12 1.74438e-12 -6.60434

21.3046 6.84969 3.50475e-12
6.84969 -34.3065 -3.92767e-12
3.50475e-12 -3.92767e-12 -6.80814

-37.9068 19.1134 -1.40184e-13
19.1134 2.65382 2.48246e-12
-1.40184e-13 2.48246e-12 -9.45904

106.608 4.18165 2.7498e-12
4.18165 20.6033 -3.00826e-12
2.7498e-12 -3.00826e-12 -12.0488

-5.30277 30.7471 7.93439e-14
30.7471 -7.27351 -1.81573e-12
7.93439e-14 -1.81573e-12 -7.44308

27.8902 37.0769 -4.50721e-12
37.0769 26.4694 1.01015e-12
-4.50721e-12 1.01015e-12 -8.63328

-9.43915 10.3235 1.80359e-12
10.3235 -32.9273 5.83326e-12
1.80359e-12 5.83326e-12 -49.504

19.8309 14.2172 1.9457e-12
14.2172 -29.3608 -2.66986e-12
1.9457e-12 -2.66986e-12 -6.00233

-4.21204 -17.7816 -5.59079e-12
-17.7816 59.66 8.50283e-13
-5.59079e-12 8.50283e-13 -8.47718

66.2862 -42.1039 9.00021e-14
-42.1039 71.1416 4.56168e-12
9.00021e-14 4.56168e-12 -11.2514

-48.2087 5.986 -1.63632e-12
5.986 7.26928 2.35693e-12
-1.63632e-12 2.35693e-12 -41.0342

-26.2907 -4.83953 6.9648e-13
-4.83953 1.75664 3.56692e-12
6.9648e-13 3.56692e-12 -37.7993

-1.46736 21.0276 -3.92575e-13
21.0276 -39.505 -1.65172e-12
-3.92575e-13 -1.65172e-12 -41.1001

-43.9731 5.06636 6.91847e-12
5.06636 0.514115 -4.92702e-12
6.91847e-12 -4.92702e-12 -52.186

-2.76078 -9.17047 1.89182e-12
-9.17047 -20.7688 9.35529e-13
1.89182e-12 9.35529e-13 -35.894

-3.97521 -27.9992 -3.39876e-13
-27.9992 -4.61095 6.2587e-13
-3.39876e-13 6.2587e-13 -5.99594

65.6 41.5232 -8.86284e-12
41.5232 73.1695 -5.98277e-12
-8.86284e-12 -5.98277e-12 -10.9631

60.1574 -17.9502 1.78701e-12
-17.9502 0.115443 -1.24227e-12
1.78701e-12 -1.24227e-12 -8.05108

-41.801 -3.70508 9.41469e-14
-3.70508 -1.18566 1.83054e-12
9.41469e-14 1.83054e-12 -52.7208

-14.5924 19.5538 5.70285e-13
19.5538 -28.5504 -2.77941e-12
5.70285e-13 -2.77941e-12 -52.829

18.1414 -12.2735 -1.15049e-12
-12.2735 -29.9007 -1.70205e-12
-1.15049e-12 -1.70205e-12 -6.2245

38.1743 -43.3016 5.69263e-12
-43.3016 41.8026 -2.61598e-12
5.69263e-12 -2.61598e-12 -14.5595

58.146 -18.0645 2.35782e-12
-18.0645 -2.30446 6.26758e-12
2.35782e-12 6.26758e-12 -7.91476

-21.4442 17.0867 8.99133e-13
17.0867 30.3276 -5.60263e-12
8.99133e-13 -5.60263e-12 -5.72995

-11.3742 19.3401 -3.17731e-12
19.3401 25.5108 5.38236e-12
-3.17731e-12 5.38236e-12 -3.92327

20.791 -16.3017 -3.43488e-12
-16.3017 -33.1165 -1.76037e-12
-3.43488e-12 -1.76037e-12 -7.31322

12.6146 -34.1876 3.91331e-12
-34.1876 46.4369 -4.08562e-13
3.91331e-12 -4.08562e-13 -10.3983

62.3624 19.183 1.44595e-12
19.183 2.80898 3.58232e-12
1.44595e-12 3.58232e-12 -8.4149

46.5148 -25.2899 -2.75098e-12
-25.2899 5.13277 4.47464e-12
-2.75098e-12 4.47464e-12 -5.61126

-31.8963 19.4847 2.48586e-12
19.4847 -4.28509 -1.12207e-13
2.48586e-12 -1.12207e-13 -26.0843

37.0397 29.6512 -2.08307e-12
29.6512 14.512 3.18086e-12
-2.08307e-12 3.18086e-12 -5.43368

-27.4489 -21.8127 -4.57027e-12
-21.8127 -8.2297 1.86833e-12
-4.57027e-12 1.86833e-12 -25.2468

64.871 -42.7136 -1.74794e-12
-42.7136 44.0815 -7.62649e-13
-1.74794e-12 -7.62649e-13 -9.50222

-27.749 5.4585 3.04349e-13
5.4585 2.66914 -2.2086e-12
3.04349e-13 -2.2086e-12 -38.3049

-5.55965 -5.33016 -7.49623e-13
-5.33016 57.3899 3.75048e-12
-7.49623e-13 3.75048e-12 -5.45071

-0.201169 10.3845 -4.96492e-13
10.3845 -24.8466 3.46676e-13
-4.96492e-13 3.46676e-13 -38.3664

-26.4871 21.4141 2.49578e-13
21.4141 12.2193 2.4271e-12
2.49578e-13 2.4271e-12 -6.87132

4.72591 5.75437 3.69482e-13
5.75437 -56.0402 -1.78524e-13
3.69482e-13 -1.78524e-13 -13.9816

0.54021 11.459 1.26121e-12
11.459 -34.0572 3.65308e-12
1.26121e-12 3.65308e-12 -14.84

106.348 31.8213 -3.94825e-12
31.8213 37.834 -7.07819e-12
-3.94825e-12 -7.07819e-12 -7.48922

-35.4925 -6.03569 -1.49214e-13
-6.03569 10.6013 -2.71131e-12
-1.49214e-13 -2.71131e-12 -13.4793

-35.3604 9.52017 -2.57735e-12
9.52017 1.23382 -2.4869e-13
-2.57735e-12 -2.4869e-13 -14.9603

-42.5889 -2.8812 2.30619e-12
-2.8812 21.1107 9.27258e-13
2.30619e-12 9.27258e-13 -11.2397

-44.9085 23.4016 1.6747e-12
23.4016 -5.89263 -5.26394e-13
1.6747e-12 -5.26394e-13 -13.9226

9.97099 8.46388 -4.41513e-12
8.46388 -42.3796 -1.7919e-12
-4.41513e-12 -1.7919e-12 -9.07927

-12.3358 -28.2407 3.28626e-12
-28.2407 1.68657 2.16952e-12
3.28626e-12 2.16952e-12 -6.67552

1.30883 -1.71139 3.94159e-12
-1.71139 -55.4568 1.50694e-13
3.94159e-12 1.50694e-13 -11.3052

-31.8858 -19.2607 2.6857e-12
-19.2607 -4.5944 8.8729e-13
2.6857e-12 8.8729e-13 -25.9537

-27.9743 21.3078 -2.46914e-12
21.3078 -8.35946 1.0398e-12
-2.46914e-12 1.0398e-12 -26.0121

-0.653323 -16.5845 1.69938e-12
-16.5845 61.6759 3.55271e-14
1.69938e-12 3.55271e-14 -7.94991

-0.65027 -27.9366 -2.11979e-13
-27.9366 -21.3623 -1.6452e-12
-2.11979e-13 -1.6452e-12 -12.7916

-14.0943 -25.1357 3.10241e-12
-25.1357 7.40656 2.51118e-12
3.10241e-12 2.51118e-12 -5.23749

91.6822 -31.7122 -1.18424e-14
-31.7122 19.4856 4.84028e-12
-1.18424e-14 4.84028e-12 -16.3328

-33.7071 3.22287 2.7293e-12
3.22287 9.19986 5.63105e-13
2.7293e-12 5.63105e-13 -18.5632

2.75137 28.9445 1.60938e-12
28.9445 -24.4253 -2.68526e-12
1.60938e-12 -2.68526e-12 -11.3173

-38.435 19.6646 1.45217e-13
19.6646 5.22952 -9.37916e-13
1.45217e-13 -9.37916e-13 -9.23653

50.1921 8.00001 -8.28967e-13
8.00001 -16.9664 3.78068e-13
-8.28967e-13 3.78068e-13 -7.06831

60.0336 -33.9375 1.94452e-12
-33.9375 33.7874 -3.04941e-12
1.94452e-12 -3.04941e-12 -6.98419

-18.9614 -10.5871 6.87717e-12
-10.5871 -0.541082 2.32436e-12
6.87717e-12 2.32436e-12 -25.4299

-33.9259 23.8999 -1.83438e-12
23.8999 -12.024 1.22413e-12
-1.83438e-12 1.22413e-12 -14.5409

58.1584 -32.3857 -1.64846e-12
-32.3857 18.0912 -1.67807e-12
-1.64846e-12 -1.67807e-12 -10.1344

66.8622 10.7917 1.64254e-12
10.7917 8.51218 1.80049e-12
1.64254e-12 1.80049e-12 -5.08524

7.67354 -21.2072 3.058e-12
-21.2072 88.4685 -8.31335e-13
3.058e-12 -8.31335e-13 -11.8625

-33.988 14.4261 1.24352e-12
14.4261 20.2383 1.73491e-13
1.24352e-12 1.73491e-13 -7.54792

8.475 23.144 -1.48918e-12
23.144 -26.0748 9.59233e-14
-1.48918e-12 9.59233e-14 -11.2999

34.8697 42.2011 2.27137e-12
42.2011 46.2009 -8.37256e-13
2.27137e-12 -8.37256e-13 -14.4209

-4.39438 16.5061 2.58567e-11
16.5061 -35.539 -1.3597e-11
2.58567e-11 -1.3597e-11 -73.279

-5.9818 -4.10863 1.73965e-12
-4.10863 57.9504 -3.62495e-12
1.73965e-12 -3.62495e-12 -5.44291

-1.81908 -16.6313 -4.39352e-12
-16.6313 -39.3987 1.1795e-12
-4.39352e-12 1.1795e-12 -74.1022

-3.33007 -27.3348 -1.17062e-12
-27.3348 -30.0295 5.72283e-13
-1.17062e-12 5.72283e-13 -21.5536

8.96672 27.425 -9.71667e-13
27.425 -29.9962 -6.74423e-13
-9.71667e-13 -6.74423e-13 -11.258

45.7126 -24.412 6.43633e-12
-24.412 5.02308 -7.2653e-13
6.43633e-12 -7.2653e-13 -5.23734

10.0945 31.3252 -4.57767e-12
31.3252 47.1647 2.07242e-12
-4.57767e-12 2.07242e-12 -9.64138

14.2719 -10.7057 2.79599e-12
-10.7057 82.8423 -6.03724e-12
2.79599e-12 -6.03724e-12 -6.44747

-38.6335 21.971 6.32383e-13
21.971 2.94132 -2.25331e-12
6.32383e-13 -2.25331e-12 -8.57033

1.19298 16.7947 4.73695e-15
16.7947 -25.7231 2.50466e-12
4.73695e-15 2.50466e-12 -18.5673

-26.5393 15.1547 -1.48474e-13
15.1547 18.4494 4.52853e-12
-1.48474e-13 4.52853e-12 -5.70946

43.66 15.9547 2.99612e-13
15.9547 -7.28694 -2.57986e-12
2.99612e-13 -2.57986e-12 -4.07656

12.5762 -21.4738 2.59407e-12
-21.4738 57.9576 -3.11691e-12
2.59407e-12 -3.11691e-12 -4.71497

65.999 -29.3923 -1.65793e-13
-29.3923 18.6434 -1.78998e-12
-1.65793e-13 -1.78998e-12 -9.33579

-32.3819 -24.5736 -1.95592e-12
-24.5736 -7.28221 3.05711e-12
-1.95592e-12 3.05711e-12 -8.97776

-22.6678 27.4518 -1.12562e-12
27.4518 -10.3512 2.60177e-12
-1.12562e-12 2.60177e-12 -9.28532

-38.3516 23.1879 -4.84501e-13
23.1879 1.99086 2.86882e-12
-4.84501e-13 2.86882e-12 -8.52624

-51.5537 13.1689 -3.27133e-12
13.1689 11.9263 1.32339e-12
-3.27133e-12 1.32339e-12 -16.4667

23.485 9.3725 -4.3047e-12
9.3725 -29.4896 -2.27166e-12
-4.3047e-12 -2.27166e-12 -5.32302

3.76755 -4.66529 1.69198e-12
-4.66529 79.4414 -5.40012e-13
1.69198e-12 -5.40012e-13 -9.53195

-44.9391 -36.8324 -1.49214e-13
-36.8324 -19.8286 -1.36328e-12
-1.49214e-13 -1.36328e-12 -14.7714

-16.0811 27.4665 4.30293e-12
27.4665 1.34025 6.21725e-13
4.30293e-12 6.21725e-13 -6.91635

-5.01668 2.17039 -3.3924e-12
2.17039 82.6772 -8.01966e-12
-3.3924e-12 -8.01966e-12 -13.4316

69.0482 34.6123 4.54984e-12
34.6123 15.4965 1.3974e-13
4.54984e-12 1.3974e-13 -10.7064

-31.353 -22.9746 -6.88782e-13
-22.9746 -4.63291 -3.32297e-12
-6.88782e-13 -3.32297e-12 -8.53137

11.743 5.73295 -2.01824e-12
5.73295 -48.3366 -4.86352e-13
-2.01824e-12 -4.86352e-13 -8.64264

43.0668 27.2056 3.74574e-12
27.2056 10.4511 1.56912e-13
3.74574e-12 1.56912e-13 -5.08203

-9.41353 12.745 4.82873e-12
12.745 -14.0399 7.91811e-12
4.82873e-12 7.91811e-12 -37.0375

70.3373 24.3319 -2.86112e-12
24.3319 23.805 -2.43953e-12
-2.86112e-12 -2.43953e-12 -6.79996

-10.5846 -13.0546 1.24922e-12
-13.0546 -13.9217 -2.73766e-12
1.24922e-12 -2.73766e-12 -37.3752

-4.38133 0.778607 -3.48018e-13
0.778607 59.4001 6.30015e-12
-3.48018e-13 6.30015e-12 -4.83187

38.3579 -2.23545 4.07378e-12
-2.23545 -23.8134 4.44241e-12
4.07378e-12 4.44241e-12 -5.83398

3.59336 -15.7671 4.43157e-12
-15.7671 -53.9697 3.00737e-12
4.43157e-12 3.00737e-12 -21.1238

-42.2777 24.3882 -7.33025e-14
24.3882 -11.737 -1.80744e-13
-7.33025e-14 -1.80744e-13 -11.1688

-46.8126 -13.5352 -1.57473e-12
-13.5352 11.0669 1.04095e-12
-1.57473e-12 1.04095e-12 -12.3546

5.80986 -7.99968 6.10327e-13
-7.99968 -70.9662 -1.79116e-13
6.10327e-13 -1.79116e-13 -14.8826

-49.5387 -22.283 3.2343e-12
-22.283 3.74774 -1.96287e-12
3.2343e-12 -1.96287e-12 -22.1037

-17.4588 -6.59755 -2.34183e-13
-6.59755 -13.1156 2.43775e-12
-2.34183e-13 2.43775e-12 -34.7787

-28.7302 -29.9083 -1.87435e-12
-29.9083 -9.39999 -1.55905e-12
-1.87435e-12 -1.55905e-12 -8.99733

15.693 11.4543 2.31667e-12
11.4543 80.1836 -3.31587e-12
2.31667e-12 -3.31587e-12 -6.53113

42.291 -28.1482 -9.5568e-13
-28.1482 11.0501 1.59043e-12
-9.5568e-13 1.59043e-12 -5.04529

-47.1703 -13.7713 -1.1835e-13
-13.7713 4.19622 6.77088e-13
-1.1835e-13 6.77088e-13 -29.2991

2.96465 0.504729 3.13986e-12
0.504729 -56.8125 -2.14391e-12
3.13986e-12 -2.14391e-12 -11.0065

-39.3372 -21.5242 9.20597e-13
-21.5242 -8.85698 1.64816e-12
9.20597e-13 1.64816e-12 -14.7748

-40.1952 25.698 -5.1544e-13
25.698 -14.6918 -2.55943e-13
-5.1544e-13 -2.55943e-13 -11.3122

32.2609 -31.4663 1.74083e-12
-31.4663 38.4302 8.64494e-14
1.74083e-12 8.64494e-14 -4.64914

-31.4684 -7.08378 7.9862e-14
-7.08378 1.70104 2.02712e-12
7.9862e-14 2.02712e-12 -40.989

36.6308 -33.0785 5.31841e-12
-33.0785 72.0301 -3.93878e-12
5.31841e-12 -3.93878e-12 -7.14493

16.6128 -19.1804 -3.38929e-12
-19.1804 -25.8716 5.74178e-12
-3.38929e-12 5.74178e-12 -7.13465

1.50243 1.97087 -1.83468e-12
1.97087 -51.3915 -1.42049e-12
-1.83468e-12 -1.42049e-12 -15.3748

-12.8743 17.8746 -1.36809e-12
17.8746 -16.9556 4.71889e-12
-1.36809e-12 4.71889e-12 -41.0566

10.7122 20.184 2.42295e-12
20.184 59.4561 -5.41434e-12
2.42295e-12 -5.41434e-12 -4.35764

4.31766 27.2115 2.47328e-12
27.2115 -16.2243 -3.54294e-12
2.47328e-12 -3.54294e-12 -8.12542

30.905 -24.5127 6.96095e-12
-24.5127 -8.1341 5.41582e-12
6.96095e-12 5.41582e-12 -4.87374

-37.7889 -17.8389 -1.23844e-12
-17.8389 2.40078 1.1348e-12
-1.23844e-12 1.1348e-12 -9.86578

55.5155 35.0701 -4.58774e-12
35.0701 42.3465 2.80309e-12
-4.58774e-12 2.80309e-12 -6.63671

-40.0159 -21.8313 -3.03816e-12
-21.8313 2.53675 -1.79382e-12
-3.03816e-12 -1.79382e-12 -9.3953

2.96607 30.8512 2.00136e-12
30.8512 -17.3898 2.00699e-12
2.00136e-12 2.00699e-12 -9.07952

18.5373 -25.2448 1.43234e-12
-25.2448 -19.4197 -1.6455e-12
1.43234e-12 -1.6455e-12 -6.34396

-15.6549 -25.1274 5.60441e-13
-25.1274 5.89538 1.03384e-12
5.60441e-13 1.03384e-12 -5.77713

42.7194 -18.6891 -1.11555e-12
-18.6891 -9.16777 2.66513e-12
-1.11555e-12 2.66513e-12 -5.37058

27.4322 -18.8505 -6.86858e-13
-18.8505 -20.3705 -4.33135e-13
-6.86858e-13 -4.33135e-13 -5.69136

-41.394 -25.3373 -1.02525e-12
-25.3373 -14.9643 -3.23867e-12
-1.02525e-12 -3.23867e-12 -11.5683

29.7812 35.9714 3.95772e-12
35.9714 25.2272 -2.45729e-12
3.95772e-12 -2.45729e-12 -8.64539

-28.5195 15.3775 -2.02001e-12
15.3775 18.5188 -2.43598e-12
-2.02001e-12 -2.43598e-12 -5.87544

-23.1087 26.423 1.09956e-12
26.423 -12.5475 -5.73171e-13
1.09956e-12 -5.73171e-13 -9.9594

-42.0973 25.4736 -3.6251e-12
25.4736 -11.5926 -1.68473e-12
-3.6251e-12 -1.68473e-12 -10.9941

-37.2895 11.622 -1.7501e-12
11.622 11.8441 1.27365e-12
-1.7501e-12 1.27365e-12 -9.08164

64.3954 -8.22744 -2.92151e-12
-8.22744 3.19629 -2.46233e-12
-2.92151e-12 -2.46233e-12 -4.25182

8.73287 18.6075 -2.10202e-13
18.6075 59.2219 3.04349e-12
-2.10202e-13 3.04349e-12 -4.16328

-25.616 -24.3812 -2.13755e-13
-24.3812 0.458168 2.28528e-12
-2.13755e-13 2.28528e-12 -7.21715

-1.14273 25.6671 -1.68695e-12
25.6671 13.7522 -1.31095e-12
-1.68695e-12 -1.31095e-12 -4.08424

32.3791 -35.6313 -9.09495e-13
-35.6313 21.6999 3.59179e-12
-9.09495e-13 3.59179e-12 -8.48713

59.5384 38.3187 2.25005e-14
38.3187 17.8478 -6.9349e-12
2.25005e-14 -6.9349e-12 -13.7227

12.1244 -33.3129 3.96128e-12
-33.3129 42.9145 1.01726e-12
3.96128e-12 1.01726e-12 -9.5437

30.5516 -31.1613 -2.63493e-12
-31.1613 36.8142 8.02913e-13
-2.63493e-12 8.02913e-13 -4.40639

11.7689 -6.83863 3.30047e-12
-6.83863 -48.8386 3.87068e-12
3.30047e-12 3.87068e-12 -8.77145

25.2744 30.3434 -4.90274e-13
30.3434 41.0899 -7.35412e-13
-4.90274e-13 -7.35412e-13 -4.4569

62.6843 13.2953 1.27424e-12
13.2953 5.22694 1.9537e-12
1.27424e-12 1.9537e-12 -4.30639

-7.02766 13.3796 3.46745e-12
13.3796 61.3463 6.43278e-12
3.46745e-12 6.43278e-12 -8.69598

11.7288 -22.3416 -8.50283e-13
-22.3416 55.7649 -6.09883e-13
-8.50283e-13 -6.09883e-13 -4.30236

-47.2603 -1.09199 1.82891e-13
-1.09199 12.4092 -9.4739e-13
1.82891e-13 -9.4739e-13 -22.1613

-5.9209 2.24676 -4.69402e-13
2.24676 59.0063 -4.59129e-12
-4.69402e-13 -4.59129e-12 -5.26361

6.26764 31.091 1.40036e-12
31.091 47.8666 3.52903e-13
1.40036e-12 3.52903e-13 -9.6615

-39.726 12.1083 4.35884e-12
12.1083 12.8445 -1.0516e-12
4.35884e-12 -1.0516e-12 -9.31404

40.7391 -27.6491 1.7432e-12
-27.6491 8.35662 -3.79015e-12
1.7432e-12 -3.79015e-12 -5.64311

7.53918 20.557 1.84001e-12
20.557 -47.4671 -1.26092e-12
1.84001e-12 -1.26092e-12 -16.4821

-3.42171 26.2704 -2.66454e-13
26.2704 -31.4861 -1.3826e-13
-2.66454e-13 -1.3826e-13 -22.2517

15.7772 -18.5684 2.61243e-12
-18.5684 -30.0147 -2.03689e-13
2.61243e-12 -2.03689e-13 -8.18424

4.42814 -1.80226 4.67685e-12
-1.80226 -34.133 2.06916e-12
4.67685e-12 2.06916e-12 -24.4383

-14.3405 -31.8124 1.90455e-12
-31.8124 -11.9313 -2.02978e-12
1.90455e-12 -2.02978e-12 -9.05078

56.2201 23.329 2.54848e-12
23.329 0.815352 -1.23871e-12
2.54848e-12 -1.23871e-12 -8.28897

-27.8285 30.1623 -6.40377e-13
30.1623 -9.23657 -7.96696e-13
-6.40377e-13 -7.96696e-13 -8.80159

-27.0041 29.2061 2.42325e-12
29.2061 -9.20187 -1.05782e-12
2.42325e-12 -1.05782e-12 -8.67888

28.6288 30.6625 -1.39858e-12
30.6625 40.4067 -3.90799e-14
-1.39858e-12 -3.90799e-14 -4.44989

0.343071 27.0856 -5.81994e-12
27.0856 -19.8473 -1.09956e-12
-5.81994e-12 -1.09956e-12 -11.7778

64.5105 3.52534 -2.65625e-12
3.52534 -11.8279 2.10091e-13
-2.65625e-12 2.10091e-13 -10.0194

-14.9002 31.8172 2.91796e-12
31.8172 -20.7989 -1.46135e-12
2.91796e-12 -1.46135e-12 -12.4482

-37.9455 -12.5995 2.30616e-12
-12.5995 8.18016 1.42938e-12
2.30616e-12 1.42938e-12 -14.0233

-0.474844 24.2778 -5.01821e-13
24.2778 -29.9996 1.6831e-12
-5.01821e-13 1.6831e-12 -20.7708

-23.728 -29.579 2.43953e-12
-29.579 -11.935 3.57462e-12
2.43953e-12 3.57462e-12 -8.84449

-38.1499 -4.89774 -1.14098e-12
-4.89774 18.8467 -6.83897e-13
-1.14098e-12 -6.83897e-13 -11.7308

69.9473 -24.5577 -1.21503e-12
-24.5577 18.0285 5.44749e-12
-1.21503e-12 5.44749e-12 -7.04486

39.9829 29.6948 9.92391e-13
29.6948 13.4788 -1.64372e-12
9.92391e-13 -1.64372e-12 -5.21615

-4.29785 14.6973 -5.72135e-13
14.6973 60.5735 3.23652e-12
-5.72135e-13 3.23652e-12 -8.40188

1.61133 -1.13907 -7.77156e-14
-1.13907 -56.1239 3.23933e-12
-7.77156e-14 3.23933e-12 -11.2104

9.61414 0.00219784 1.6005e-12
0.00219784 -44.7558 4.74532e-12
1.6005e-12 4.74532e-12 -8.43947

-31.0801 23.1246 1.72662e-12
23.1246 -4.33763 -1.35625e-12
1.72662e-12 -1.35625e-12 -8.45991

-34.7622 23.8712 3.29662e-12
23.8712 -13.1932 1.5653e-12
3.29662e-12 1.5653e-12 -14.8136

-43.3792 -24.3808 -3.13212e-13
-24.3808 -12.6138 2.94653e-12
-3.13212e-13 2.94653e-12 -11.4699

-39.0606 -0.673135 -5.57813e-13
-0.673135 21.0463 -6.24685e-13
-5.57813e-13 -6.24685e-13 -10.4964

-40.8069 25.5907 -1.39681e-12
25.5907 -13.2229 -1.26114e-12
-1.39681e-12 -1.26114e-12 -11.1735

32.3223 -10.3085 1.95991e-13
-10.3085 -25.1562 -5.13101e-12
1.95991e-13 -5.13101e-12 -6.01582

8.70574 -32.8354 -5.11591e-13
-32.8354 22.7977 1.77873e-12
-5.11591e-13 1.77873e-12 -6.99343

2.39663 -2.30137 3.80496e-12
-2.30137 -49.961 9.71075e-13
3.80496e-12 9.71075e-13 -14.7733

36.7464 -34.5103 -2.27492e-12
-34.5103 24.4797 -2.60947e-12
-2.27492e-12 -2.60947e-12 -7.71008

-38.2946 19.086 -9.08903e-14
19.086 -7.0934 1.55698e-12
-9.08903e-14 1.55698e-12 -14.45

7.87062 -26.479 6.51331e-15
-26.479 -27.9959 3.40172e-13
6.51331e-15 3.40172e-13 -10.9699

63.9498 -9.69084 6.09764e-12
-9.69084 5.67626 9.00021e-14
6.09764e-12 9.00021e-14 -5.07322

6.03987 -23.1924 -1.68517e-12
-23.1924 -35.4686 1.23605e-12
-1.68517e-12 1.23605e-12 -17.7361

0.141418 2.35835 -1.11008e-12
2.35835 -56.1745 -1.5099e-13
-1.11008e-12 -1.5099e-13 -11.5473

-4.06236 -23.3221 -3.00441e-12
-23.3221 -23.4119 -3.27161e-12
-3.00441e-12 -3.27161e-12 -16.7199

11.0384 -25.8598 1.31746e-12
-25.8598 -29.4872 -2.42088e-12
1.31746e-12 -2.42088e-12 -9.73471

10.2011 -8.54663 2.179e-12
-8.54663 -43.4916 -2.07464e-12
2.179e-12 -2.07464e-12 -9.28282

-35.4178 -23.0684 5.38739e-12
-23.0684 -12.6465 3.3855e-12
5.38739e-12 3.3855e-12 -15.1036

23.6643 -31.3437 3.76588e-13
-31.3437 5.71134 -6.04494e-12
3.76588e-13 -6.04494e-12 -5.87969

11.0594 -24.5882 2.87415e-12
-24.5882 -27.4957 -5.71987e-13
2.87415e-12 -5.71987e-13 -10.0491

46.6445 10.8651 1.84149e-12
10.8651 -16.1198 -7.6857e-13
1.84149e-12 -7.6857e-13 -6.80132

-14.1863 26.3408 3.02158e-12
26.3408 -15.641 -2.66454e-13
3.02158e-12 -2.66454e-13 -14.1195

-45.251 -37.612 1.69524e-12
-37.612 -20.612 -2.94287e-12
1.69524e-12 -2.94287e-12 -14.9198

-43.7079 37.2643 1.70945e-12
37.2643 -21.2657 -2.67194e-14
1.70945e-12 -2.67194e-14 -14.7702

-61.1836 -28.5728 -2.79469e-12
-28.5728 -7.49715 1.88235e-12
-2.79469e-12 1.88235e-12 -15.2003

-58.4147 27.0637 -9.00761e-13
27.0637 -6.27176 -3.75818e-12
-9.00761e-13 -3.75818e-12 -14.4789

5.60042 -8.52728 2.53856e-12
-8.52728 -71.0627 -3.35894e-12
2.53856e-12 -3.35894e-12 -14.7105

4.39728 9.27327 1.84149e-12
9.27327 -68.8314 -2.82974e-12
1.84149e-12 -2.82974e-12 -14.4384

9.02386 -9.84665 -1.75711e-12
-9.84665 -40.8916 -3.38973e-12
-1.75711e-12 -3.38973e-12 -9.61317

-24.3354 32.115 -1.67155e-12
32.115 -24.8091 -7.24689e-13
-1.67155e-12 -7.24689e-13 -21.1448

-25.5227 -32.8529 -1.49925e-12
-32.8529 -25.0952 1.21474e-12
-1.49925e-12 1.21474e-12 -21.469

-53.9181 16.0682 1.75001e-12
16.0682 3.40103 -1.43204e-12
1.75001e-12 -1.43204e-12 -21.4024

-52.4191 -15.8007 -9.64118e-13
-15.8007 3.2964 -1.44921e-12
-9.64118e-13 -1.44921e-12 -21.0757

6.11136 -3.74858 2.81094e-12
-3.74858 -43.9246 3.31083e-12
2.81094e-12 3.31083e-12 -25.764

6.91743 3.61132 -6.78864e-13
3.61132 -46.348 2.59082e-12
-6.78864e-13 2.59082e-12 -26.1403

-15.6282 9.83747 4.2996e-12
9.83747 46.264 -3.86062e-12
4.2996e-12 -3.86062e-12 -5.84948

-22.9194 -24.7749 -1.35891e-13
-24.7749 -14.5528 1.5549e-12
-1.35891e-13 1.5549e-12 -10.3311

-56.6026 -36.3868 1.33116e-12
-36.3868 -14.5325 5.62054e-12
1.33116e-12 5.62054e-12 -13.4382

33.3593 -4.66447 9.82917e-13
-4.66447 -19.8491 2.39527e-12
9.82917e-13 2.39527e-12 -3.94669

3.43306 -16.6938 1.05989e-12
-16.6938 -52.6275 2.94017e-12
1.05989e-12 2.94017e-12 -21.5322

3.67421 16.1747 -1.03177e-12
16.1747 -51.8832 4.51787e-13
-1.03177e-12 4.51787e-13 -21.4055

6.55552 0.121871 3.24007e-12
0.121871 -76.7536 -1.59144e-12
3.24007e-12 -1.59144e-12 -13.3051

-7.57157 23.3767 -4.60728e-12
23.3767 39.9368 -4.09391e-12
-4.60728e-12 -4.09391e-12 -6.88675

-56.8883 36.1708 -3.67188e-13
36.1708 -14.0111 -2.41969e-12
-3.67188e-13 -2.41969e-12 -13.3899

-39.795 -23.396 8.35036e-13
-23.396 2.56136 9.13936e-13
8.35036e-13 9.13936e-13 -8.80221

37.1176 23.3542 -7.57912e-13
23.3542 -8.61505 9.29627e-14
-7.57912e-13 9.29627e-14 -5.76014

4.73451 23.8586 -2.54611e-14
23.8586 -38.2261 1.62063e-12
-2.54611e-14 1.62063e-12 -18.9857

24.0135 -31.3155 -1.42938e-12
-31.3155 6.40729 3.55449e-12
-1.42938e-12 3.55449e-12 -5.64966

2.4306 -3.23154 3.48196e-12
-3.23154 -48.3701 2.50466e-13
3.48196e-12 2.50466e-13 -14.7433

-60.4564 -34.1604 2.2092e-12
-34.1604 -14.3498 -2.71812e-12
2.2092e-12 -2.71812e-12 -14.0319

-17.4551 8.32046 9.18524e-14
8.32046 45.6932 -3.11455e-13
9.18524e-14 -3.11455e-13 -5.78255

-9.47094 21.813 7.13503e-14
21.813 40.4262 2.96533e-12
7.13503e-14 2.96533e-12 -6.65526

58.6059 35.778 3.64508e-12
35.778 37.089 -6.60805e-13
3.64508e-12 -6.60805e-13 -6.91636

70.4873 1.57887 -7.22385e-14
1.57887 -5.54477 4.25637e-12
-7.22385e-14 4.25637e-12 -10.3749

-30.7593 -22.8049 1.78435e-12
-22.8049 -13.357 7.18203e-13
1.78435e-12 7.18203e-13 -14.4667

32.842 31.1857 2.2536e-12
31.1857 69.7973 4.66353e-12
2.2536e-12 4.66353e-12 -6.67971

-19.3777 23.6108 2.73855e-12
23.6108 7.68676 3.21106e-12
2.73855e-12 3.21106e-12 -5.51485

47.6388 -5.34988 -2.23821e-12
-5.34988 -17.4359 -1.56912e-12
-2.23821e-12 -1.56912e-12 -6.82327

33.2203 11.2167 -4.95011e-13
11.2167 -23.6395 -5.19851e-12
-4.95011e-13 -5.19851e-12 -6.01557

6.25405 0.42989 -2.02075e-12
0.42989 -77.5508 1.8802e-12
-2.02075e-12 1.8802e-12 -13.4508

-58.9345 -29.0305 -8.18308e-13
-29.0305 -6.28824 -2.404e-13
-8.18308e-13 -2.404e-13 -14.6978

-28.3316 -6.31838 2.02445e-12
-6.31838 -11.3566 -6.91891e-13
2.02445e-12 -6.91891e-13 -51.584

-44.6974 37.4107 4.62386e-12
37.4107 -20.811 1.51653e-12
4.62386e-12 1.51653e-12 -14.7742

93.7949 1.66337 -2.55559e-12
1.66337 16.6551 -6.60065e-13
-2.55559e-12 -6.60065e-13 -6.04331

10.0356 -32.7891 -2.23051e-12
-32.7891 21.3108 -2.53131e-12
-2.23051e-12 -2.53131e-12 -6.8097

-56.9351 36.6123 -2.6934e-13
36.6123 -14.571 6.41413e-13
-2.6934e-13 6.41413e-13 -13.5061

-35.0813 -11.1341 6.09883e-13
-11.1341 19.1773 -3.67765e-12
6.09883e-13 -3.67765e-12 -8.31783

-5.47937 -25.5163 -4.54747e-13
-25.5163 37.3512 2.90967e-12
-4.54747e-13 2.90967e-12 -6.98852

-58.4511 28.8295 -6.75571e-13
28.8295 -6.27162 1.88649e-12
-6.75571e-13 1.88649e-12 -14.6149

28.4962 -26.1434 1.84504e-12
-26.1434 -4.91396 -3.42955e-12
1.84504e-12 -3.42955e-12 -4.69874

-21.1686 10.4838 6.33567e-14
10.4838 -18.5587 -8.73198e-12
6.33567e-14 -8.73198e-12 -51.6796

3.43157 30.874 2.70125e-12
30.874 27.1629 -1.26003e-12
2.70125e-12 -1.26003e-12 -6.7345

6.14021 8.12638 1.39148e-14
8.12638 -72.2962 -1.49036e-12
1.39148e-14 -1.49036e-12 -14.985

-11.5464 30.1909 -5.48006e-13
30.1909 -20.6031 1.9309e-12
-5.48006e-13 1.9309e-12 -11.55

-30.7988 23.3327 -3.18856e-13
23.3327 -5.10015 -5.35572e-13
-3.18856e-13 -5.35572e-13 -8.46593

-25.8635 -32.4876 -6.41916e-12
-32.4876 -24.1119 1.96658e-12
-6.41916e-12 1.96658e-12 -21.5584

9.20485 -23.1911 9.14232e-13
-23.1911 -27.9232 -2.08426e-13
9.14232e-13 -2.08426e-13 -11.4265

-37.6615 10.4698 -9.82991e-13
10.4698 8.92897 -8.72191e-13
-9.82991e-13 -8.72191e-13 -25.3299

-23.0418 -23.4346 1.80123e-12
-23.4346 4.95219 -1.29615e-12
1.80123e-12 -1.29615e-12 -6.26458

88.8076 -9.70846 1.09424e-12
-9.70846 10.8068 3.58632e-12
1.09424e-12 3.58632e-12 -10.0311

84.0476 -14.278 2.76638e-12
-14.278 2.81176 4.6203e-12
2.76638e-12 4.6203e-12 -13.1972

5.88718 16.5303 4.21707e-12
16.5303 -33.9323 -3.01537e-12
4.21707e-12 -3.01537e-12 -22.3753

-16.423 22.5029 3.33689e-12
22.5029 16.2279 1.29674e-12
3.33689e-12 1.29674e-12 -5.08697

-3.91298 29.1643 8.95284e-13
29.1643 -12.2311 -3.77209e-12
8.95284e-13 -3.77209e-12 -8.39766

50.9946 0.6887 -1.73491e-12
0.6887 -6.53375 5.88497e-12
-1.73491e-12 5.88497e-12 -3.63577

-48.1418 6.57075 -3.305e-12
6.57075 14.7858 -3.15185e-12
-3.305e-12 -3.15185e-12 -18.9524

10.1157 16.5407 -4.21233e-12
16.5407 -36.0807 -1.33079e-12
-4.21233e-12 -1.33079e-12 -9.1366

-4.50547 -25.7628 1.77162e-12
-25.7628 35.5563 9.87654e-13
1.77162e-12 9.87654e-13 -6.7485

-39.1929 -2.5721 -1.37024e-12
-2.5721 21.5044 1.14871e-13
-1.37024e-12 1.14871e-13 -10.6703

-7.99247 13.3661 -5.84895e-12
13.3661 44.4066 -1.8936e-12
-5.84895e-12 -1.8936e-12 -3.94574

3.73434 -29.7142 -4.1626e-13
-29.7142 -17.3663 -2.65358e-12
-4.1626e-13 -2.65358e-12 -8.92178

21.4257 -29.9493 -1.70945e-12
-29.9493 14.7557 3.61074e-12
-1.70945e-12 3.61074e-12 -3.91931

6.87986 31.6249 -2.61243e-12
31.6249 25.4018 2.24768e-12
-2.61243e-12 2.24768e-12 -6.82963

2.78493 -15.0196 2.37825e-12
-15.0196 -39.2643 6.24397e-12
2.37825e-12 6.24397e-12 -63.3046

-46.1594 2.0417 1.24441e-12
2.0417 11.4611 4.86722e-13
1.24441e-12 4.86722e-13 -22.756

-55.443 20.2992 -2.01439e-12
20.2992 3.09489 1.9987e-12
-2.01439e-12 1.9987e-12 -22.9153

5.91589 15.4383 1.00468e-12
15.4383 -58.8168 1.35536e-12
1.00468e-12 1.35536e-12 -23.0354

-18.9223 -26.1896 -2.45433e-12
-26.1896 -12.9141 4.06667e-12
-2.45433e-12 4.06667e-12 -9.65393

41.3473 17.9582 2.83388e-12
17.9582 -6.2728 -4.11996e-12
2.83388e-12 -4.11996e-12 -3.86285

-44.6819 -5.29336 2.48964e-12
-5.29336 4.53841 -3.16724e-12
2.48964e-12 -3.16724e-12 -39.1419

7.49939 -18.988 1.87317e-12
-18.988 -39.895 2.59348e-12
1.87317e-12 2.59348e-12 -11.6607

30.2915 -15.5995 5.37052e-13
-15.5995 -20.5106 2.34213e-12
5.37052e-13 2.34213e-12 -4.80661

-9.64027 11.604 1.35714e-12
11.604 44.3204 3.90799e-13
1.35714e-12 3.90799e-13 -3.86052

8.333 -25.7358 9.4443e-13
-25.7358 32.9925 1.01134e-12
9.4443e-13 1.01134e-12 -3.6344

-10.2441 -25.2739 1.26536e-12
-25.2739 -19.1014 1.54321e-12
1.26536e-12 1.54321e-12 -23.1739

17.0047 31.9614 1.9534e-12
31.9614 11.1965 4.39589e-12
1.9534e-12 4.39589e-12 -5.74784

-1.0691 -25.1343 -4.90511e-12
-25.1343 -30.7633 2.5618e-12
-4.90511e-12 2.5618e-12 -20.891

48.0667 2.5975 1.01015e-12
2.5975 -8.41166 4.91044e-12
1.01015e-12 4.91044e-12 -3.53299

6.55206 -28.9322 -1.17595e-12
-28.9322 72.0536 -4.43142e-12
-1.17595e-12 -4.43142e-12 -14.5519

21.7914 -29.2327 -2.52835e-12
-29.2327 13.9632 -5.07268e-12
-2.52835e-12 -5.07268e-12 -3.93169

35.352 32.1608 -3.12639e-13
32.1608 74.1374 6.21725e-12
-3.12639e-13 6.21725e-12 -5.44194

-45.2844 -11.8765 -1.51083e-13
-11.8765 13.9218 -1.48622e-12
-1.51083e-13 -1.48622e-12 -15.3268

-14.4227 -13.8222 5.09666e-13
-13.8222 43.3835 9.78181e-13
5.09666e-13 9.78181e-13 -5.67415

-19.2414 -23.9864 1.6455e-12
-23.9864 -19.8299 4.05779e-12
1.6455e-12 4.05779e-12 -64.2463

2.43703 23.7723 -2.54256e-12
23.7723 36.0075 2.77822e-12
-2.54256e-12 2.77822e-12 -3.71245

-15.1827 -32.7263 5.89869e-12
-32.7263 -21.1199 -2.53042e-12
5.89869e-12 -2.53042e-12 -14.3136

-14.5674 -11.9638 -2.0961e-12
-11.9638 45.5318 7.30675e-13
-2.0961e-12 7.30675e-13 -5.74032

7.83542 -19.1167 -2.35219e-12
-19.1167 -43.1223 -9.56272e-14
-2.35219e-12 -9.56272e-14 -12.6327

6.54466 23.8786 3.39817e-12
23.8786 35.1721 -4.19694e-12
3.39817e-12 -4.19694e-12 -3.44339

23.1738 -4.97562 -7.86334e-13
-4.97562 -30.6779 -3.63513e-12
-7.86334e-13 -3.63513e-12 -5.36577

36.9716 -30.344 -6.98582e-12
-30.344 122.632 2.58638e-12
-6.98582e-12 2.58638e-12 -6.24112

-26.8711 21.015 1.83823e-12
21.015 8.43405 -4.1022e-12
1.83823e-12 -4.1022e-12 -7.13156

40.3394 -19.3244 1.7503e-12
-19.3244 -11.3744 1.67274e-13
1.7503e-12 1.67274e-13 -5.72737

6.52742 -21.4457 -7.89206e-12
-21.4457 -45.5576 -3.10655e-12
-7.89206e-12 -3.10655e-12 -24.9708

20.7049 31.7559 4.29642e-12
31.7559 9.55669 -8.5798e-13
4.29642e-12 -8.5798e-13 -5.80739

13.9186 -29.9731 -3.59475e-12
-29.9731 -7.60717 2.49578e-13
-3.59475e-12 2.49578e-13 -5.94571

6.75511 20.8857 -4.38997e-12
20.8857 -27.7934 -3.52607e-13
-4.38997e-12 -3.52607e-13 -11.1095

-38.2745 -28.0761 9.26814e-13
-28.0761 -14.0382 -6.16544e-13
9.26814e-13 -6.16544e-13 -11.0622

8.64546 -26.2268 2.66868e-12
-26.2268 31.1714 1.0741e-12
2.66868e-12 1.0741e-12 -3.63645

15.3309 28.9828 3.16784e-12
28.9828 19.1537 -8.45546e-13
3.16784e-12 -8.45546e-13 -3.88428

28.6407 26.1927 -1.40924e-13
26.1927 -5.63481 2.11683e-12
-1.40924e-13 2.11683e-12 -4.80335

7.9143 -14.6108 -1.19786e-12
-14.6108 -36.8785 -3.13823e-14
-1.19786e-12 -3.13823e-14 -13.9917

-6.84304 -16.6187 2.76579e-12
-16.6187 41.3419 -7.1528e-13
2.76579e-12 -7.1528e-13 -3.96072

17.4407 -17.5686 1.32871e-12
-17.5686 -31.0006 -2.13844e-12
1.32871e-12 -2.13844e-12 -7.10644

19.8418 16.9092 6.27646e-13
16.9092 -31.6663 -1.31006e-12
6.27646e-13 -1.31006e-12 -7.33586

-33.6805 -9.38594 -8.08102e-12
-9.38594 8.75626 -2.57868e-12
-8.08102e-12 -2.57868e-12 -23.9917

43.4328 -13.4307 -1.74438e-12
-13.4307 -8.37056 -7.4043e-12
-1.74438e-12 -7.4043e-12 -3.80545

-19.3807 0.594158 -4.91459e-13
0.594158 43.1464 1.62241e-12
-4.91459e-13 1.62241e-12 -4.7768

28.0564 18.5557 1.59221e-12
18.5557 -18.2008 5.03212e-12
1.59221e-12 5.03212e-12 -4.75107

25.5286 27.6054 2.85164e-12
27.6054 -3.77698 6.21399e-12
2.85164e-12 6.21399e-12 -4.7725

-6.71686 -15.6871 -1.59073e-12
-15.6871 43.7997 -8.43177e-13
-1.59073e-12 -8.43177e-13 -3.84923

-19.9087 -1.20227 1.14679e-12
-1.20227 42.1289 -5.08038e-12
1.14679e-12 -5.08038e-12 -4.68837

-5.47326 29.1345 -4.35977e-12
29.1345 -23.6477 -2.88924e-12
-4.35977e-12 -2.88924e-12 -16.797

-37.2751 -10.9226 -7.27862e-13
-10.9226 21.6799 2.33532e-12
-7.27862e-13 2.33532e-12 -7.83118

27.1435 -26.7168 -6.62581e-13
-26.7168 -5.53204 4.52675e-12
-6.62581e-13 4.52675e-12 -4.94555

40.72 21.3338 9.71075e-13
21.3338 -8.37187 -4.31181e-12
9.71075e-13 -4.31181e-12 -5.46884

12.3781 23.6658 1.10963e-12
23.6658 -27.1285 -8.21565e-13
1.10963e-12 -8.21565e-13 -8.66798

-37.7979 5.47125 -2.1679e-12
5.47125 23.3114 4.54747e-13
-2.1679e-12 4.54747e-13 -8.59842

18.5927 29.0673 5.1988e-13
29.0673 17.3776 2.82796e-12
5.1988e-13 2.82796e-12 -3.94835

-9.98838 22.9639 -1.05752e-12
22.9639 -14.9143 -7.29343e-13
-1.05752e-12 -7.29343e-13 -24.0249

68.3204 -59.6945 -2.54611e-12
-59.6945 36.3371 -8.91139e-12
-2.54611e-12 -8.91139e-12 -23.01

17.5306 -25.049 1.55609e-12
-25.049 -17.9934 9.38508e-13
1.55609e-12 9.38508e-13 -6.41892

10.0577 7.0703 1.64964e-12
7.0703 82.5542 -2.72848e-12
1.64964e-12 -2.72848e-12 -7.16569

11.9198 -28.8907 -1.56675e-12
-28.8907 -3.88235 1.62833e-13
-1.56675e-12 1.62833e-13 -5.16712

-66.9439 -52.703 -1.81188e-12
-52.703 143.258 2.6148e-12
-1.81188e-12 2.6148e-12 -49.6669

-68.3872 51.4536 9.11863e-13
51.4536 142.546 4.26326e-14
9.11863e-13 4.26326e-14 -49.856

19.5737 117.159 -1.0966e-12
117.159 64.1347 -4.73695e-15
-1.0966e-12 -4.73695e-15 -48.3574

20.5326 -117.101 6.43278e-12
-117.101 61.0314 -5.07328e-12
6.43278e-12 -5.07328e-12 -48.7222

157.752 -1.36343 -3.65219e-12
-1.36343 -79.1866 1.93468e-14
-3.65219e-12 1.93468e-14 -48.9092

110.333 -91.129 1.00897e-12
-91.129 -36.6879 -3.74219e-13
1.00897e-12 -3.74219e-13 -50.3038

110.386 91.6569 -4.358e-13
91.6569 -36.4981 -3.51245e-12
-4.358e-13 -3.51245e-12 -50.1766

7.84633 14.331 -4.36984e-13
14.331 -42.6821 4.15668e-13
-4.36984e-13 4.15668e-13 -15.0795

-11.7902 25.5359 7.17263e-12
25.5359 -27.4049 -8.37256e-13
7.17263e-12 -8.37256e-13 -35.1354

12.4382 6.60639 2.69296e-12
6.60639 -40.5356 1.77266e-12
2.69296e-12 1.77266e-12 -8.25387

26.2549 21.7858 6.55772e-12
21.7858 -19.5305 2.20564e-13
6.55772e-12 2.20564e-13 -5.85227

-21.2323 17.7455 -9.579e-13
17.7455 29.8688 5.14315e-12
-9.579e-13 5.14315e-12 -6.16385

22.5302 28.9001 2.9902e-12
28.9001 -0.776491 3.38929e-12
2.9902e-12 3.38929e-12 -4.73214

4.05478 -29.6644 5.04485e-13
-29.6644 -17.4671 -2.17604e-13
5.04485e-13 -2.17604e-13 -8.50549

25.9953 28.0294 6.27054e-13
28.0294 -2.30282 2.00728e-13
6.27054e-13 2.00728e-13 -4.73253

-19.3492 -2.84153 -8.07206e-13
-2.84153 43.0724 1.56912e-12
-8.07206e-13 1.56912e-12 -4.77135

-13.4107 -26.0968 -1.02881e-12
-26.0968 -25.8386 -5.87826e-12
-1.02881e-12 -5.87826e-12 -35.5184

-19.8443 -4.8628 -8.4451e-13
-4.8628 41.7774 -4.66827e-12
-8.4451e-13 -4.66827e-12 -4.74523

-1.82735 23.0169 -8.61e-12
23.0169 -24.3773 2.42532e-12
-8.61e-12 2.42532e-12 -16.1499

44.9838 26.8724 -3.69837e-12
26.8724 8.11046 3.33955e-13
-3.69837e-12 3.33955e-13 -5.37021

-52.507 -13.2162 -2.55603e-12
-13.2162 0.150073 1.01726e-12
-2.55603e-12 1.01726e-12 -20.6169

20.2806 13.7286 -4.24668e-12
13.7286 -31.1437 5.02117e-12
-4.24668e-12 5.02117e-12 -7.04443

13.7004 -29.9891 2.51651e-13
-29.9891 -6.69285 5.24617e-13
2.51651e-13 5.24617e-13 -5.83664

29.6314 -24.7148 1.01015e-12
-24.7148 -7.87536 1.32102e-12
1.01015e-12 1.32102e-12 -4.82651

5.76407 -16.0755 -4.16941e-12
-16.0755 -32.3342 1.54543e-13
-4.16941e-12 1.54543e-13 -22.2547

12.6275 27.9301 -3.32593e-12
27.9301 -13.6403 3.72946e-12
-3.32593e-12 3.72946e-12 -6.4209

23.309 23.9787 -2.00018e-12
23.9787 -17.945 4.32661e-12
-2.00018e-12 4.32661e-12 -5.96379

-31.079 -2.79286 -1.70001e-12
-2.79286 30.1322 2.94342e-12
-1.70001e-12 2.94342e-12 -6.39977

-28.6317 5.87355 2.91341e-14
5.87355 33.322 -1.64254e-12
2.91341e-14 -1.64254e-12 -6.06075

34.5494 2.64686 -1.52767e-12
2.64686 -26.1861 1.83183e-12
-1.52767e-12 1.83183e-12 -6.14363

50.6532 -7.29014 -4.0122e-12
-7.29014 -14.0841 1.14131e-13
-4.0122e-12 1.14131e-13 -6.77997

11.0407 30.4863 -2.35486e-12
30.4863 -4.78893 2.01735e-12
-2.35486e-12 2.01735e-12 -5.96761

17.4672 -26.1567 -1.4122e-12
-26.1567 -17.4564 2.03985e-13
-1.4122e-12 2.03985e-13 -6.35304

-0.0839942 -21.2546 -8.91435e-13
-21.2546 -27.9568 -4.29849e-12
-8.91435e-13 -4.29849e-12 -17.1663

4.93811 -31.6355 -5.18933e-12
-31.6355 4.86055 -8.43769e-13
-5.18933e-12 -8.43769e-13 -5.93652

-8.22882 -27.7873 2.85934e-12
-27.7873 18.5788 -7.1226e-12
2.85934e-12 -7.1226e-12 -6.13117

-1.65151 29.889 3.70963e-12
29.889 10.4469 -1.01726e-12
3.70963e-12 -1.01726e-12 -5.80158

-26.0188 -9.57841 7.70828e-13
-9.57841 32.9705 -1.01844e-13
7.70828e-13 -1.01844e-13 -5.78843

-31.3248 -1.54509 5.08334e-12
-1.54509 31.6512 -1.80004e-13
5.08334e-12 -1.80004e-13 -6.22463

-38.9173 5.74782 -5.539e-12
5.74782 23.9466 7.41925e-13
-5.539e-12 7.41925e-13 -9.18387

-17.2201 -21.0904 1.8631e-12
-21.0904 26.5714 -1.91432e-12
1.8631e-12 -1.91432e-12 -5.77324

13.0713 24.1122 -1.0522e-12
24.1122 -28.1024 3.63472e-12
-1.0522e-12 3.63472e-12 -9.20574

21.5553 -9.59023 -1.83794e-12
-9.59023 -31.7086 2.75513e-12
-1.83794e-12 2.75513e-12 -6.5993

-27.1558 7.4656 2.10217e-12
7.4656 34.3353 1.8711e-12
2.10217e-12 1.8711e-12 -5.87515

-35.2377 -9.70126 1.51741e-12
-9.70126 22.3138 1.27779e-12
1.51741e-12 1.27779e-12 -8.18442

-29.1577 -16.3315 -4.12322e-12
-16.3315 19.3469 -1.32398e-12
-4.12322e-12 -1.32398e-12 -6.66295

36.969 -8.23967 1.12739e-12
-8.23967 -20.2391 -3.59387e-12
1.12739e-12 -3.59387e-12 -5.10268

-14.8102 -32.3468 1.92557e-12
-32.3468 -21.6276 9.93872e-13
1.92557e-12 9.93872e-13 -12.9935

-22.826 9.32157 7.56136e-13
9.32157 33.324 2.25953e-12
7.56136e-13 2.25953e-12 -4.78994

-0.751466 -18.2129 -2.53664e-12
-18.2129 -35.1568 1.87006e-12
-2.53664e-12 1.87006e-12 -33.2753

4.93152 24.8243 -8.0392e-12
24.8243 75.3105 8.71599e-12
-8.0392e-12 8.71599e-12 -14.3193

-14.1419 -26.6267 -2.99671e-12
-26.6267 -16.3512 -2.28898e-12
-2.99671e-12 -2.28898e-12 -14.641

-6.35713 -30.2029 -1.41457e-12
-30.2029 -23.6035 1.38526e-12
-1.41457e-12 1.38526e-12 -17.0878

-31.2728 -0.701095 1.21377e-12
-0.701095 31.5009 6.762e-13
1.21377e-12 6.762e-13 -6.34949

28.4884 -16.6233 -5.06143e-12
-16.6233 -18.0588 -3.02573e-13
-5.06143e-12 -3.02573e-13 -4.43916

-37.8064 12.8418 -1.43948e-12
12.8418 11.1651 1.51582e-13
-1.43948e-12 1.51582e-13 -10.9897

-8.8613 -3.18091 4.73606e-12
-3.18091 111.057 2.76164e-12
4.73606e-12 2.76164e-12 -22.671

-31.6047 14.2743 5.1165e-12
14.2743 21.3505 1.06345e-12
5.1165e-12 1.06345e-12 -7.12562

12.4214 -29.4909 1.04272e-12
-29.4909 -2.5204 -4.15312e-12
1.04272e-12 -4.15312e-12 -4.92937

33.6333 25.1069 -3.51245e-12
25.1069 124.036 8.0315e-12
-3.51245e-12 8.0315e-12 -6.21351

-13.5017 26.0963 -6.49806e-12
26.0963 -19.0969 -2.065e-11
-6.49806e-12 -2.065e-11 -58.8892

-9.55226 -27.8055 -3.34444e-12
-27.8055 -22.806 3.69675e-12
-3.34444e-12 3.69675e-12 -59.5395

-2.8667 -30.4205 -8.50875e-13
-30.4205 -7.32247 -1.20259e-12
-8.50875e-13 -1.20259e-12 -7.28854

3.85929 -31.1621 2.64322e-12
-31.1621 5.63484 -4.45806e-12
2.64322e-12 -4.45806e-12 -6.06375

25.1525 20.8284 1.94037e-12
20.8284 -17.0362 -1.57889e-12
1.94037e-12 -1.57889e-12 -4.97804

31.8058 15.007 -1.63366e-12
15.007 -23.3034 -6.897e-12
-1.63366e-12 -6.897e-12 -5.95604

-9.48753 3.08244 3.44621e-12
3.08244 -9.82976 4.96625e-12
3.44621e-12 4.96625e-12 -80.928

-5.54819 -6.9985 1.30917e-11
-6.9985 -14.0404 6.7127e-12
1.30917e-11 6.7127e-12 -80.2808

11.7487 4.82424 2.32525e-12
4.82424 -43.2068 3.33156e-12
2.32525e-12 3.33156e-12 -7.8287

-35.0583 6.73153 5.55134e-12
6.73153 24.3755 -4.22062e-12
5.55134e-12 -4.22062e-12 -7.56501

-36.1125 6.73638 7.74133e-13
6.73638 24.4328 -3.61311e-12
7.74133e-13 -3.61311e-12 -8.30999

74.5908 58.6376 1.82609e-12
58.6376 34.1753 1.91136e-12
1.82609e-12 1.91136e-12 -21.8722

-6.92149 -28.2017 2.66157e-12
-28.2017 16.8751 5.13071e-12
2.66157e-12 5.13071e-12 -6.11807

8.17186 17.9743 -8.55908e-13
17.9743 -44.8761 -1.39651e-12
-8.55908e-13 -1.39651e-12 -12.8972

32.704 9.54017 -2.9073e-12
9.54017 -19.0822 -8.62125e-13
-2.9073e-12 -8.62125e-13 -4.07567

3.38688 -26.7249 7.77867e-12
-26.7249 13.4839 -6.97042e-12
7.77867e-12 -6.97042e-12 -3.82829

26.2379 -20.2389 2.05347e-12
-20.2389 -20.3251 2.62694e-12
2.05347e-12 2.62694e-12 -5.86454

65.3946 60.2355 -2.58401e-12
60.2355 34.2916 2.59585e-12
-2.58401e-12 2.59585e-12 -23.8671

-13.2429 31.0696 1.53122e-12
31.0696 -16.8827 -2.77733e-12
1.53122e-12 -2.77733e-12 -12.7866

-18.6065 -19.7874 -6.94733e-12
-19.7874 28.4153 -1.5253e-12
-6.94733e-12 -1.5253e-12 -5.9709

11.1739 28.8591 1.8409e-12
28.8591 -13.3243 -2.66809e-12
1.8409e-12 -2.66809e-12 -6.43736

-31.8712 -4.14524 -2.02668e-12
-4.14524 30.1483 2.84276e-12
-2.02668e-12 2.84276e-12 -6.35907

-14.5981 19.6105 -4.03203e-12
19.6105 27.1857 1.23634e-12
-4.03203e-12 1.23634e-12 -4.42004

7.4787 30.5205 9.50351e-13
30.5205 -1.67145 -4.20345e-12
9.50351e-13 -4.20345e-12 -5.66181

-9.34639 -22.4747 -2.45078e-12
-22.4747 23.1496 -3.49291e-12
-2.45078e-12 -3.49291e-12 -4.17679

4.58969 -27.3542 -7.84558e-13
-27.3542 11.4489 6.3037e-12
-7.84558e-13 6.3037e-12 -3.9398

24.2729 11.2576 -3.35583e-13
11.2576 102.085 1.91373e-12
-3.35583e-13 1.91373e-12 -12.4044

37.4677 -33.4584 5.41434e-12
-33.4584 69.2888 -1.03266e-12
5.41434e-12 -1.03266e-12 -5.70337

-25.3376 -11.6912 -8.14164e-13
-11.6912 31.3689 6.47186e-13
-8.14164e-13 6.47186e-13 -5.64972

16.0963 26.4859 1.77103e-12
26.4859 -15.5033 5.69382e-12
1.77103e-12 5.69382e-12 -6.21863

4.95498 29.4795 -1.35595e-12
29.4795 1.63633 -1.40332e-13
-1.35595e-12 -1.40332e-13 -4.99128

-9.85617 -21.4353 1.4652e-12
-21.4353 25.1213 -1.86162e-12
1.4652e-12 -1.86162e-12 -4.03457

-21.6367 -11.7832 -2.24768e-12
-11.7832 32.0828 6.987e-13
-2.24768e-12 6.987e-13 -4.63852

10.4624 28.4111 -1.84919e-12
28.4111 -0.157091 1.37372e-12
-1.84919e-12 1.37372e-12 -4.67416

-21.8487 -13.8787 1.13776e-12
-13.8787 29.4679 2.77704e-13
1.13776e-12 2.77704e-13 -4.84848

6.95811 27.8569 -3.87542e-12
27.8569 73.0888 3.91509e-12
-3.87542e-12 3.91509e-12 -14.3225

-45.8322 -4.04083 7.75609e-13
-4.04083 14.0478 4.29878e-13
7.75609e-13 4.29878e-13 -19.9646

0.876026 31.0295 -8.12979e-13
31.0295 7.51967 -1.45957e-12
-8.12979e-13 -1.45957e-12 -6.09051

9.71899 14.9019 -4.38168e-13
14.9019 -36.4305 -1.01785e-12
-4.38168e-13 -1.01785e-12 -10.9862

9.9281 -15.9282 -1.52559e-12
-15.9282 -39.4114 -2.46085e-12
-1.52559e-12 -2.46085e-12 -13.0698

85.618 -24.2061 -1.73136e-12
-24.2061 7.63545 -2.62309e-12
-1.73136e-12 -2.62309e-12 -12.9581

-23.2085 -21.2682 -4.92821e-12
-21.2682 10.5138 -3.36856e-12
-4.92821e-12 -3.36856e-12 -6.16666

-16.6022 26.6996 -5.26098e-12
26.6996 1.77803 9.74628e-13
-5.26098e-12 9.74628e-13 -6.58916

-26.2005 -21.7277 -4.86722e-12
-21.7277 -5.36661 5.18385e-12
-4.86722e-12 5.18385e-12 -23.8662

-41.5945 14.1051 -7.273e-12
14.1051 -3.55964 -3.09915e-12
-7.273e-12 -3.09915e-12 -64.1208

-0.893777 9.44526 -1.02413e-11
9.44526 -44.2563 2.3744e-12
-1.02413e-11 2.3744e-12 -64.2222

-20.3836 32.7049 -3.49676e-12
32.7049 -23.2032 4.16245e-12
-3.49676e-12 4.16245e-12 -24.3287

-11.4124 26.0021 -5.17542e-12
26.0021 22.6043 3.76173e-12
-5.17542e-12 3.76173e-12 -5.92714

16.0387 26.6626 3.00145e-12
26.6626 -17.289 -3.20988e-12
3.00145e-12 -3.20988e-12 -6.55114

30.4294 45.1889 6.77147e-12
45.1889 47.5571 -2.45966e-12
6.77147e-12 -2.45966e-12 -15.1954

-44.8862 -11.3424 -5.1202e-12
-11.3424 -1.8078 -4.2224e-12
-5.1202e-12 -4.2224e-12 -61.6773

-8.29806 -3.43224 -3.2511e-14
-3.43224 -12.7528 -4.85715e-12
-3.2511e-14 -4.85715e-12 -77.2186

-14.6891 -0.209432 -7.80546e-12
-0.209432 -6.41851 7.33376e-12
-7.80546e-12 7.33376e-12 -77.3628

27.6669 -53.8055 -6.68976e-12
-53.8055 71.1534 4.57826e-12
-6.68976e-12 4.57826e-12 -24.3889

-11.6898 -11.5994 5.90446e-12
-11.5994 -16.2051 -3.57669e-12
5.90446e-12 -3.57669e-12 -37.4279

-32.6097 8.8122 2.43346e-12
8.8122 -9.41799 -9.71075e-14
2.43346e-12 -9.71075e-14 -49.5366

18.2562 -26.2006 2.81079e-12
-26.2006 -19.5483 3.2756e-12
2.81079e-12 3.2756e-12 -6.50791

-39.4308 1.01054 -2.03648e-12
1.01054 11.9804 -2.16123e-13
-2.03648e-12 -2.16123e-13 -19.7215

-30.204 -20.2688 -2.40682e-12
-20.2688 6.30488 -1.10549e-12
-2.40682e-12 -1.10549e-12 -7.2175

10.5363 6.25545 -3.13853e-12
6.25545 -52.3904 3.64642e-12
-3.13853e-12 3.64642e-12 -9.64087

-49.813 15.5963 -2.79961e-12
15.5963 10.1649 1.7882e-13
-2.79961e-12 1.7882e-13 -13.5317

-40.2851 7.19132 -2.99834e-13
7.19132 16.5414 1.0143e-12
-2.99834e-13 1.0143e-12 -13.7747

16.4048 20.3938 -2.05761e-12
20.3938 -25.8425 -4.85153e-12
-2.05761e-12 -4.85153e-12 -7.60887

-9.10038 -3.11391 -7.07745e-12
-3.11391 108.401 9.85996e-12
-7.07745e-12 9.85996e-12 -23.1014

-3.32111 -27.6251 -1.20248e-11
-27.6251 -3.62992 -2.40933e-12
-1.20248e-11 -2.40933e-12 -5.83136

-7.3355 -26.1174 2.79658e-12
-26.1174 -14.0827 -1.69879e-12
2.79658e-12 -1.69879e-12 -9.81166

-14.1989 -31.4837 5.10495e-12
-31.4837 -21.7779 2.91767e-13
5.10495e-12 2.91767e-13 -12.7563

90.7328 32.7515 1.41161e-12
32.7515 20.9074 1.85925e-13
1.41161e-12 1.85925e-13 -16.5055

-23.1157 -20.116 -3.35199e-12
-20.116 -17.3854 9.88765e-13
-3.35199e-12 9.88765e-13 -44.4236

72.6338 54.3251 9.68707e-13
54.3251 91.6449 -6.9799e-12
9.68707e-13 -6.9799e-12 -6.14155

-36.216 -21.4391 2.15975e-13
-21.4391 -6.79682 2.60621e-12
2.15975e-13 2.60621e-12 -13.0437

15.034 14.6505 2.78829e-12
14.6505 -37.7529 -9.83362e-13
2.78829e-12 -9.83362e-13 -8.17993

44.5742 -14.5734 -8.18308e-13
-14.5734 -8.27386 -5.10022e-12
-8.18308e-13 -5.10022e-12 -4.41984

-21.2318 24.0476 -1.12177e-12
24.0476 4.95533 -1.82373e-12
-1.12177e-12 -1.82373e-12 -5.97779

17.3733 20.4286 -5.73882e-12
20.4286 -26.7941 6.24952e-12
-5.73882e-12 6.24952e-12 -6.95272

-51.1393 11.3998 3.13497e-12
11.3998 7.71002 4.99837e-12
3.13497e-12 4.99837e-12 -29.9924

-7.28789 -31.5811 3.04912e-12
-31.5811 -12.8274 -7.42902e-12
3.04912e-12 -7.42902e-12 -8.12032

2.79587 19.8123 -4.19872e-12
19.8123 -46.0323 1.79975e-12
-4.19872e-12 1.79975e-12 -29.9843

-24.6725 -18.4444 -1.96258e-12
-18.4444 17.8363 -3.33718e-12
-1.96258e-12 -3.33718e-12 -5.48149

-42.3415 4.2836 5.09146e-12
4.2836 17.8693 6.08817e-12
5.09146e-12 6.08817e-12 -12.7287

-4.09804 9.92728 7.47965e-12
9.92728 -40.274 -2.46203e-12
7.47965e-12 -2.46203e-12 -47.5444

-2.68838 -8.51399 -3.9968e-14
-8.51399 -38.3053 -5.12893e-12
-3.9968e-14 -5.12893e-12 -47.4001

81.7269 18.5135 -4.52379e-12
18.5135 1.69926 -1.14457e-12
-4.52379e-12 -1.14457e-12 -14.4535

3.89501 7.96542 -1.38467e-12
7.96542 -45.1843 -1.36439e-12
-1.38467e-12 -1.36439e-12 -11.0193

35.8748 7.74103 -1.7731e-12
7.74103 184.581 -2.72375e-12
-1.7731e-12 -2.72375e-12 -9.75485

40.1485 -11.3858 1.80422e-12
-11.3858 190.379 -5.33854e-12
1.80422e-12 -5.33854e-12 -7.38658

53.7683 56.4088 5.35276e-12
56.4088 159.262 -8.40809e-12
5.35276e-12 -8.40809e-12 -11.4976

1.70818 -28.9512 -1.39444e-12
-28.9512 -24.6914 -6.22613e-13
-1.39444e-12 -6.22613e-13 -11.9635

16.0503 -49.193 -3.49113e-12
-49.193 99.4239 -1.74557e-12
-3.49113e-12 -1.74557e-12 -21.6885

54.5162 -55.9513 4.46458e-12
-55.9513 149.979 -4.61379e-12
4.46458e-12 -4.61379e-12 -13.6625

-2.16688 26.2216 5.41493e-12
26.2216 17.5727 -4.25141e-13
5.41493e-12 -4.25141e-13 -3.99734

134.945 73.8463 1.07529e-12
73.8463 85.0291 5.31249e-12
1.07529e-12 5.31249e-12 -10.1566

-18.7211 13.0467 -1.51227e-12
13.0467 -3.89945 2.74447e-12
-1.51227e-12 2.74447e-12 -26.768

3.74086 0.0405981 4.05661e-12
0.0405981 -26.1892 -5.52417e-12
4.05661e-12 -5.52417e-12 -26.7712

144.104 -73.1317 -7.11964e-12
-73.1317 85.3566 -5.24144e-12
-7.11964e-12 -5.24144e-12 -8.19377

-21.3948 -23.4252 2.61687e-12
-23.4252 12.2478 4.62919e-12
2.61687e-12 4.62919e-12 -6.49269

89.3505 34.731 1.01844e-12
34.731 41.3917 1.95162e-12
1.01844e-12 1.95162e-12 -11.5475

72.1912 63.4931 -1.38319e-12
63.4931 149.699 8.52651e-14
-1.38319e-12 8.52651e-14 -9.6712

26.1655 21.6313 -3.48758e-12
21.6313 100.138 -1.27424e-12
-3.48758e-12 -1.27424e-12 -13.031

73.8781 -65.922 -5.34091e-12
-65.922 151.15 3.67587e-12
-5.34091e-12 3.67587e-12 -9.39968

25.77 -12.3817 4.45451e-12
-12.3817 105.017 5.4096e-12
4.45451e-12 5.4096e-12 -12.4279

-28.664 6.84057 -5.25209e-13
6.84057 3.10732 -2.11505e-12
-5.25209e-13 -2.11505e-12 -37.8504

37.7443 -45.9774 1.03029e-13
-45.9774 49.6713 9.6397e-13
1.03029e-13 9.6397e-13 -15.5326

14.4449 47.5342 -1.77754e-12
47.5342 94.8841 -7.17174e-12
-1.77754e-12 -7.17174e-12 -22.1918

173.346 37.9128 5.63697e-13
37.9128 48.0448 8.92323e-12
5.63697e-13 8.92323e-12 -9.51989

7.02014 -29.2869 4.23839e-12
-29.2869 -14.3593 6.22672e-12
4.23839e-12 6.22672e-12 -7.15724

-38.4187 12.8964 7.62279e-13
12.8964 6.43552 -1.04243e-12
7.62279e-13 -1.04243e-12 -15.2908

88.5089 -38.1144 -9.07126e-13
-38.1144 34.1643 2.10794e-13
-9.07126e-13 2.10794e-13 -14.0992

6.04142 -28.8032 -8.32519e-13
-28.8032 -16.1733 -4.2449e-12
-8.32519e-13 -4.2449e-12 -8.03108

169.212 -36.3447 9.00021e-14
-36.3447 34.9317 1.07825e-12
9.00021e-14 1.07825e-12 -13.2878

-5.72566 -28.3185 3.08968e-12
-28.3185 -14.4739 -2.46706e-12
3.08968e-12 -2.46706e-12 -9.31053

-17.7922 -25.2962 -5.19348e-12
-25.2962 12.08 -2.38861e-12
-5.19348e-12 -2.38861e-12 -5.93582

118.881 69.4627 3.60956e-12
69.4627 96.2237 4.62326e-12
3.60956e-12 4.62326e-12 -11.3979

29.4142 -22.934 3.60956e-12
-22.934 97.8007 6.15804e-14
3.60956e-12 6.15804e-14 -14.3395

117.964 -71.6948 2.84217e-14
-71.6948 93.6851 4.628e-12
2.84217e-14 4.628e-12 -12.4139

22.2659 50.7397 2.6669e-12
50.7397 73.7822 -7.36122e-12
2.6669e-12 -7.36122e-12 -24.7769

-1.53718 -30.2135 -6.84845e-12
-30.2135 -6.55364 1.02839e-11
-6.84845e-12 1.02839e-11 -6.99931

-7.04411 -14.6407 -3.59949e-12
-14.6407 -21.9199 -7.91959e-13
-3.59949e-12 -7.91959e-13 -32.6119

-11.8917 11.0915 4.9533e-12
11.0915 -16.4283 -1.6569e-12
4.9533e-12 -1.6569e-12 -77.7851

-26.1659 -5.1602 3.21491e-12
-5.1602 -6.38723 4.83596e-12
3.21491e-12 4.83596e-12 -77.6189

-38.9429 13.0838 2.9484e-12
13.0838 13.7443 -8.5798e-13
2.9484e-12 -8.5798e-13 -10.2399

-14.4799 -10.6658 6.76955e-12
-10.6658 -17.3156 -2.6857e-12
6.76955e-12 -2.6857e-12 -78.7477

-25.8997 4.09206 1.72869e-12
4.09206 -5.91369 1.13188e-11
1.72869e-12 1.13188e-11 -78.8899

-3.63299 7.4326 -7.57113e-12
7.4326 -27.8582 -2.83477e-13
-7.57113e-12 -2.83477e-13 -77.9773

-43.9723 -12.1138 4.13532e-12
-12.1138 2.91614 -5.61062e-12
4.13532e-12 -5.61062e-12 -68.1505

11.9735 -30.4719 -3.5764e-12
-30.4719 76.1667 -3.46508e-12
-3.5764e-12 -3.46508e-12 -14.7012

0.521154 -12.9721 2.10469e-12
-12.9721 -39.9891 -5.35572e-12
2.10469e-12 -5.35572e-12 -45.273

-16.3486 -34.4168 -1.46845e-13
-34.4168 -22.0694 -4.52793e-12
-1.46845e-13 -4.52793e-12 -23.5893

-2.4212 -18.1772 5.24854e-12
-18.1772 -29.8942 -3.13823e-12
5.24854e-12 -3.13823e-12 -33.6241

12.7378 15.4599 -1.65556e-12
15.4599 -37.7178 6.98019e-12
-1.65556e-12 6.98019e-12 -9.62645

-46.9052 9.86326 1.74024e-12
9.86326 8.87675 1.72573e-12
1.74024e-12 1.72573e-12 -70.1459

3.46197 19.2262 1.8147e-12
19.2262 -41.4689 3.74352e-12
1.8147e-12 3.74352e-12 -70.2617

1.47148 11.3074 6.60953e-12
11.3074 -23.9644 6.15212e-13
6.60953e-12 6.15212e-13 -31.8654

109.398 -15.3404 4.67063e-12
-15.3404 -12.5356 -2.56328e-12
4.67063e-12 -2.56328e-12 -25.0365

-14.3221 24.9655 -1.67333e-12
24.9655 10.3859 3.30994e-12
-1.67333e-12 3.30994e-12 -5.8063

76.611 -61.3578 4.97854e-12
-61.3578 37.3679 3.73982e-12
4.97854e-12 3.73982e-12 -22.3944

76.1176 -57.4599 7.20017e-12
-57.4599 99.233 -2.55322e-12
7.20017e-12 -2.55322e-12 -5.55426

118.202 -36.5459 2.34479e-12
-36.5459 40.6027 -8.30151e-13
2.34479e-12 -8.30151e-13 -7.37773

-51.1104 -5.1588 -7.82189e-13
-5.1588 3.34001 1.22243e-12
-7.82189e-13 1.22243e-12 -60.6539

-50.4744 2.89132 -2.36344e-12
2.89132 3.13427 -2.35856e-12
-2.36344e-12 -2.35856e-12 -60.1265

-11.9753 -24.4544 -2.94017e-12
-24.4544 -35.0006 8.85218e-14
-2.94017e-12 8.85218e-14 -59.1608

-8.99135 -21.7584 -3.20062e-12
-21.7584 -37.8856 8.76336e-13
-3.20062e-12 8.76336e-13 -59.4703

-14.7021 26.1339 -7.60873e-14
26.1339 -33.0251 4.25504e-12
-7.60873e-14 4.25504e-12 -60.7451

-18.1555 3.0981 -9.63674e-14
3.0981 -13.1634 3.49746e-12
-9.63674e-14 3.49746e-12 -75.4698

-9.94485 -20.5074 -6.82121e-13
-20.5074 -32.6483 3.66803e-12
-6.82121e-13 3.66803e-12 -56.7314

-26.6456 -18.5671 -2.23599e-12
-18.5671 -14.1957 -1.08321e-13
-2.23599e-12 -1.08321e-13 -71.2645

-15.4767 2.43351 -6.95207e-12
2.43351 -12.8519 -1.80836e-11
-6.95207e-12 -1.80836e-11 -77.864

-6.02722 -20.5245 -4.02656e-12
-20.5245 -41.4844 9.82917e-13
-4.02656e-12 9.82917e-13 -60.5012

-6.75645 20.954 -4.11952e-12
20.954 -40.1408 2.09018e-12
-4.11952e-12 2.09018e-12 -60.0124

-14.314 -3.45746 7.2579e-13
-3.45746 -11.3896 3.44894e-12
7.2579e-13 3.44894e-12 -76.8786

-11.2628 -3.1157 4.87003e-12
-3.1157 -17.6874 7.06768e-12
4.87003e-12 7.06768e-12 -74.0417

-24.2013 12.1095 -1.02804e-11
12.1095 -13.4004 1.29048e-11
-1.02804e-11 1.29048e-11 -69.9608

-22.081 26.928 3.57758e-12
26.928 -26.266 -3.24931e-12
3.57758e-12 -3.24931e-12 -57.577

VECTORS fluid_flux_TPM float
-8.72315e-05 3.1033e-05 5.17562e-21
3.55998e-06 6.88339e-06 -3.37148e-21
-1.27889e-05 -1.02267e-05 1.23585e-20
-4.17107e-06 4.25454e-06 3.67148e-22
2.27105e-05 -6.31407e-06 5.29659e-21
2.75795e-06 -1.59055e-05 -7.63338e-21
-8.58072e-05 -3.10977e-05 3.73923e-21
-1.3894e-05 -1.04681e-05 1.73591e-21
2.21245e-05 9.45636e-07 9.17192e-21
1.13854e-05 -3.90857e-06 3.90082e-21
5.46078e-05 1.24856e-05 -1.86849e-20
2.34718e-06 -1.71962e-05 -4.39528e-21
1.36132e-05 1.12552e-05 -1.09976e-20
2.66243e-06 1.37863e-05 -2.4062e-21
2.05835e-05 -2.94702e-06 7.62095e-21
-1.63344e-05 -2.7293e-07 -1.11228e-20
2.75388e-06 1.41005e-05 4.59598e-21
1.0183e-05 -2.39218e-06 1.09548e-20
9.89987e-06 1.72248e-05 2.94113e-23
-1.48503e-05 1.8857e-06 -5.01312e-21
-3.6016e-06 -2.13067e-05 4.43529e-21
3.41158e-05 5.9426e-05 4.90854e-21
1.56995e-05 1.63151e-06 -2.53749e-21
1.12288e-05 -1.12829e-05 1.55525e-22
-1.50803e-05 -3.33283e-06 1.82717e-20
-6.77292e-07 -1.11323e-05 3.60947e-21
6.29125e-05 -4.90916e-06 -1.41387e-20
1.40679e-05 1.02502e-05 5.4609e-21
-2.51532e-05 -2.06458e-05 -5.91474e-22
4.91275e-05 -1.28158e-05 2.01577e-20
-1.65847e-05 -6.03914e-06 -4.81092e-21
5.53799e-06 -3.20415e-05 -1.30542e-21
4.76618e-05 -4.80547e-05 -2.35892e-21
-4.9241e-06 -4.12542e-05 -4.00328e-21
-2.9678e-05 3.70111e-05 6.97551e-21
-3.82534e-05 -1.63977e-05 7.85289e-21
3.27077e-05 4.32223e-05 -1.06771e-20
-4.47478e-05 -8.72725e-06 -4.87473e-22
1.43766e-05 -1.10835e-05 1.25989e-20
4.64774e-05 5.0123e-05 -1.91178e-20
3.21345e-05 -1.40242e-05 -1.01023e-20
3.36454e-05 -4.23502e-05 -9.8553e-21
-1.98996e-05 -5.03865e-05 3.45808e-20
-1.59004e-05 6.35777e-06 1.55223e-20
3.05304e-05 -2.93189e-05 -3.80622e-21
-3.03375e-05 1.09921e-05 9.84528e-21
-4.05082e-06 -2.03739e-05 1.65446e-20
7.88741e-06 2.02151e-05 -1.08848e-20
-1.63452e-05 5.92882e-06 2.89737e-20
-1.78227e-05 2.87306e-05 1.73047e-21
3.2414e-05 1.52934e-05 -9.71036e-21
2.937e-05 -1.00768e-05 6.44649e-21
-1.5669e-05 1.57631e-05 6.73633e-21
-2.35453e-05 -2.06939e-05 6.82818e-21
-2.11435e-05 -5.13333e-06 3.69709e-21
-4.47994e-05 2.7081e-05 -1.10588e-20
-2.9377e-05 -3.80298e-05 7.38873e-21
6.36463e-06 -3.06333e-05 4.32586e-21
-4.77163e-05 6.48405e-06 -3.11039e-22
6.07522e-06 1.36995e-05 -7.74978e-21
-5.57784e-06 -8.17496e-06 -7.10557e-21
-6.58477e-06 -1.7947e-05 -1.52763e-21
5.71548e-05 2.48643e-05 -1.09815e-20
9.24462e-06 1.81477e-05 1.02961e-20
1.22989e-05 -1.44478e-05 -9.08282e-21
-1.64088e-06 -2.07565e-05 -7.17682e-21
4.622e-06 -8.80725e-06 -1.81623e-20
-1.00925e-05 -5.56598e-06 -3.66617e-21
-1.06047e-05 1.19317e-05 2.12036e-20
2.5587e-06 -4.09339e-06 -8.65565e-21
-1.50464e-05 -1.58463e-05 1.03573e-20
-2.13691e-05 5.16694e-06 4.99525e-21
-3.55743e-06 3.44883e-05 -1.76349e-21
-1.78754e-05 1.0713e-05 3.04565e-20
-9.0726e-06 1.46176e-05 2.71978e-20
-6.03673e-05 7.69378e-06 -1.03973e-20
7.81964e-06 -2.16859e-05 -2.09426e-20
-1.88839e-05 -8.90188e-06 6.2767e-21
1.93413e-06 1.16264e-05 -2.12767e-20
2.63063e-05 5.09066e-06 -6.95339e-21
3.4176e-05 -2.89809e-05 -1.87986e-20
2.21509e-05 2.05603e-05 -1.70317e-21
1.19109e-05 -2.8229e-06 3.56704e-21
-3.21604e-05 2.40722e-05 7.70655e-22
3.79121e-05 4.84683e-06 2.96192e-21
-4.98169e-06 4.94249e-05 9.33081e-21
-1.74144e-06 -1.68606e-05 5.25566e-21
1.81276e-05 9.95668e-06 2.21213e-20
2.93235e-05 3.02919e-05 -1.08518e-20
5.5036e-05 3.80212e-05 1.33786e-20
-5.33237e-06 3.07792e-05 4.18975e-21
5.91919e-05 -3.55197e-05 -6.04965e-21
-2.71304e-05 5.34228e-06 -4.46743e-21
1.78429e-05 1.10041e-05 9.87043e-21
-2.96473e-05 9.90541e-06 8.97368e-21
1.66565e-05 2.8527e-05 1.91327e-20
1.01711e-05 -4.43958e-05 8.35612e-21
1.91589e-06 1.16232e-05 -5.36599e-21
-1.48038e-05 -1.76238e-05 7.00584e-21
3.07055e-06 1.74783e-05 -4.94307e-21
2.64123e-05 5.25855e-06 3.74497e-21
-1.54464e-05 3.32181e-05 -2.97221e-21
4.05606e-05 -1.33358e-05 -6.06358e-21
-3.77382e-06 7.45659e-06 2.40131e-20
9.9549e-06 5.90052e-06 2.16703e-21
-2.28104e-06 -1.13269e-05 -1.84476e-20
3.22135e-06 -1.92559e-05 -2.20686e-20
1.7473e-05 3.89288e-06 -1.45604e-20
-7.93871e-06 4.09811e-05 2.16269e-20
-9.80762e-06 2.47989e-07 1.58686e-20
9.32045e-06 1.18882e-05 -3.98478e-21
-2.17759e-06 -4.17226e-05 5.88685e-21
4.20316e-05 1.28676e-05 -1.27884e-20
4.42349e-06 -7.45472e-06 4.05997e-21
-1.11475e-05 -3.55437e-06 -1.49454e-20
-2.93317e-05 -1.24886e-05 -9.10766e-21
1.5807e-05 4.11557e-05 2.01335e-20
-4.34941e-05 -1.55771e-05 7.63702e-21
1.60218e-05 -4.11323e-05 1.22324e-20
-3.70051e-06 -3.19268e-05 1.7532e-20
2.18434e-05 6.52303e-07 8.56651e-21
-7.17296e-06 1.84004e-05 -2.43929e-20
-1.6115e-06 3.97037e-06 2.87949e-20
-3.6867e-06 -1.65421e-05 -3.65828e-21
5.23106e-06 -8.3038e-06 -6.16e-21
9.36143e-06 1.58668e-05 1.43491e-20
3.3108e-05 1.06546e-05 4.053e-21
8.61725e-06 -7.45956e-06 5.4903e-21
-8.27253e-06 -4.51693e-05 -4.46288e-21
2.55574e-05 -1.88237e-05 -9.98775e-21
4.97896e-06 2.7777e-05 5.17806e-21
-2.81691e-06 -2.84219e-06 -6.12483e-21
-8.628e-06 -8.32753e-06 -4.77665e-21
-4.77763e-06 4.41229e-08 8.71416e-21
-2.28773e-05 2.86001e-05 -6.27246e-21
1.87669e-05 -3.73827e-05 3.86079e-21
-2.65854e-05 4.27233e-05 5.98721e-21
-1.63751e-05 9.53722e-06 2.76325e-20
2.52847e-06 1.22014e-05 -1.88368e-20
-2.29914e-05 -3.49965e-05 2.07995e-20
1.3939e-05 3.34728e-05 1.84598e-21
1.75113e-05 9.37109e-06 1.87916e-20
2.28161e-05 -8.52436e-06 4.83274e-21
-1.25342e-06 -1.12676e-05 -1.08866e-21
-3.39186e-05 -3.15645e-05 3.4673e-21
-2.75202e-06 1.13056e-05 -2.67966e-21
1.72502e-05 1.01738e-05 -4.97978e-21
1.88912e-05 -8.8226e-06 2.57325e-21
8.24485e-06 -1.43477e-05 6.95035e-21
2.43618e-05 -1.07975e-05 3.33174e-22
1.90133e-05 -8.99965e-06 1.72076e-20
4.64157e-06 2.05852e-07 -7.16136e-21
2.57458e-05 2.02251e-05 1.66862e-21
-2.74216e-06 -1.70333e-05 -2.54628e-21
-1.04819e-05 -4.4579e-06 9.00549e-21
1.12609e-06 -3.89086e-06 -9.42963e-21
-3.15567e-06 1.58501e-05 -1.0672e-20
-3.48905e-05 2.76868e-06 1.90748e-20
-1.21239e-05 -3.32649e-05 -6.97034e-21
-7.88062e-06 9.78097e-06 1.77321e-20
1.35679e-05 1.66436e-05 7.195e-21
2.65738e-05 -1.87484e-05 -3.37482e-21
-3.67997e-05 -2.03549e-05 1.54656e-20
1.74065e-05 -2.7513e-05 2.28981e-21
2.28085e-05 -2.72219e-05 -1.45404e-20
-1.09465e-05 3.78568e-06 -3.85292e-21
-1.98329e-05 -2.8846e-05 -8.37885e-21
-3.48868e-05 -5.79258e-06 2.33103e-20
-3.85311e-06 -3.1749e-05 1.59792e-20
1.54508e-05 -3.17054e-05 1.09451e-20
-9.10793e-06 -2.62047e-05 7.78192e-21
4.58218e-06 3.14116e-05 4.2431e-21
-1.57554e-05 -2.85278e-05 -1.52425e-20
2.93941e-06 -1.62955e-05 -1.31076e-20
-2.47442e-05 1.82636e-05 6.07421e-21
-1.50337e-05 -1.21135e-05 -8.83753e-21
-2.73582e-05 -5.17347e-06 1.32737e-20
1.56712e-05 -9.18339e-06 8.04932e-21
-4.30777e-06 2.39573e-05 -2.13983e-20
1.2235e-05 -9.32633e-06 -5.05649e-21
-2.95918e-05 -1.31669e-05 3.62312e-21
-8.83341e-06 -7.45959e-06 -1.32559e-20
9.08391e-06 7.54234e-06 7.04041e-21
2.14311e-05 2.87064e-05 -3.45031e-21
-1.75123e-05 -1.08114e-05 -3.72597e-22
-3.25128e-05 -7.51215e-07 2.83686e-20
-1.634e-05 -5.01717e-06 -5.15999e-22
-4.57902e-06 -1.65865e-05 5.92868e-21
1.76882e-05 2.12434e-05 1.27526e-20
-1.09595e-05 5.87595e-06 2.19675e-21
6.36193e-07 -2.05594e-05 -2.33794e-20
-4.19483e-05 1.08531e-05 1.11022e-20
2.48655e-05 2.02504e-05 -1.56466e-20
3.79534e-06 3.2792e-05 5.41544e-21
-2.43246e-06 3.79797e-06 -1.67277e-20
-9.05274e-06 2.51256e-07 -7.83772e-21
4.35598e-06 7.76164e-06 1.66976e-23
-1.16963e-05 3.40214e-06 2.7397e-21
-2.07378e-06 -3.78568e-06 7.97352e-21
1.66014e-06 2.07641e-05 -8.89393e-21
4.47331e-06 4.49782e-07 -4.99704e-21
-1.95421e-05 4.75763e-06 1.87159e-20
-1.73019e-05 1.9362e-05 1.10961e-20
-3.10807e-06 1.15805e-05 -9.75039e-21
-2.92229e-05 1.83981e-05 9.51847e-21
-9.34525e-06 8.98114e-06 1.28951e-20
1.73147e-05 -1.16161e-05 1.81153e-20
3.66117e-05 -3.5654e-06 6.98764e-21
-2.1145e-05 1.12996e-05 1.07354e-20
2.23346e-06 4.49916e-06 -3.30389e-21
2.17798e-05 -4.34577e-06 5.99954e-22
-1.72824e-05 1.0355e-05 2.34489e-20
-9.8738e-06 5.54017e-06 2.94554e-21
1.18338e-05 3.74347e-06 -1.83336e-20
2.18844e-05 -1.34739e-05 -2.25006e-20
-1.73836e-05 9.95817e-06 3.41566e-20
-2.50421e-05 -5.30415e-06 -8.48526e-21
-1.67651e-05 -4.36338e-06 5.65127e-21
9.87824e-06 6.25054e-09 -1.57142e-20
1.01759e-05 1.95391e-07 -2.16337e-21
4.39168e-06 8.31888e-06 -9.01187e-21
4.83056e-06 -8.79957e-06 -1.30488e-20
-5.01138e-06 8.42156e-06 -1.35305e-20
-5.26775e-06 -8.65937e-06 -8.17149e-21
9.91303e-06 -7.40951e-06 1.3566e-20
-2.03316e-05 3.23557e-06 6.27855e-22
-2.0064e-05 -3.2844e-06 1.20084e-20
-1.28374e-05 1.58797e-05 1.47678e-20
-1.29172e-05 -1.5934e-05 1.75238e-20
7.48778e-06 -1.98478e-05 7.84832e-21
7.20747e-06 1.97679e-05 1.74689e-20
1.55816e-06 2.58903e-05 -3.75832e-21
1.12427e-05 -3.13746e-06 -9.48026e-21
2.3604e-06 -3.8673e-06 -1.1456e-20
-2.14157e-05 1.42198e-06 1.19714e-20
7.67873e-06 -1.9517e-05 -1.84925e-22
7.2749e-06 1.96655e-05 -1.30118e-21
4.76976e-06 -5.27236e-08 -1.48643e-21
8.97005e-06 2.44081e-05 -1.17734e-20
-2.24273e-06 -4.01715e-06 3.89474e-21
2.31824e-06 -1.13193e-05 -5.33751e-21
-2.24349e-05 -1.2154e-05 -5.19623e-21
-2.13623e-05 -1.14969e-05 8.85634e-21
-2.18969e-05 1.36313e-05 1.34008e-22
3.25188e-06 -1.229e-05 8.22879e-21
-1.56562e-06 3.38263e-06 1.20508e-20
-5.87408e-07 -2.55739e-05 1.37901e-20
-7.72164e-06 -2.44275e-05 -2.39185e-22
3.271e-05 3.0368e-05 -1.87765e-20
3.54597e-05 -1.81552e-06 -1.6145e-20
-1.27134e-05 -3.63284e-06 -1.30337e-22
-2.28967e-05 -4.13936e-05 -5.15352e-23
8.30576e-06 1.37504e-05 -9.99501e-21
-2.52403e-05 3.03387e-06 1.29415e-20
2.00688e-05 5.78744e-06 9.04022e-22
-4.53394e-06 -3.27454e-08 -1.00881e-20
-4.66601e-06 -8.41423e-06 -1.83383e-21
-7.07415e-06 -3.93398e-05 1.3415e-21
-9.71006e-06 -8.39408e-08 1.45119e-20
-4.8683e-05 -1.81604e-06 1.14915e-20
1.73118e-05 -1.91086e-05 -3.49215e-21
2.42979e-06 3.99977e-06 2.44148e-20
-1.20631e-07 -1.75167e-05 -7.11496e-21
-9.8201e-06 2.40881e-05 2.42896e-21
-4.3728e-06 8.6289e-06 2.04794e-20
2.05598e-05 -1.36084e-05 -6.01994e-21
-3.76653e-05 -1.35537e-05 2.79063e-20
-1.52684e-05 -2.03693e-05 -3.70649e-21
4.97791e-06 8.39047e-06 -2.7012e-21
1.66339e-05 5.16143e-06 1.96387e-20
-4.76465e-06 -7.33951e-06 -1.32544e-21
1.97997e-05 3.54777e-06 -1.79246e-20
1.81913e-05 -9.82732e-06 1.05192e-20
-3.48859e-07 2.71769e-05 -4.48674e-22
8.32165e-06 -1.36688e-05 -7.25018e-21
4.88111e-05 2.20092e-06 -3.10652e-21
-4.23631e-05 1.14551e-05 1.19101e-20
2.28631e-05 1.15578e-05 4.36329e-20
-6.45378e-06 -1.71815e-05 4.08059e-21
-1.53519e-05 -8.61927e-06 7.8956e-21
2.87911e-05 -2.10569e-07 1.0575e-20
-6.92044e-07 -2.4258e-05 -4.14275e-21
-1.2619e-05 -1.08754e-05 3.05438e-21
1.02252e-05 -2.35025e-05 -8.5459e-21
-4.9664e-07 2.05579e-05 5.85623e-21
7.91869e-06 2.60708e-05 -9.7346e-21
1.727e-05 -9.88542e-06 1.01566e-20
-1.89501e-05 1.93009e-05 8.53895e-21
1.65297e-05 2.00317e-05 -1.23433e-20
-6.22377e-05 1.60238e-05 1.2337e-20
-1.01103e-05 2.60191e-05 -2.93889e-23
1.25205e-05 -1.525e-05 -8.40374e-21
-7.02988e-06 -1.83999e-05 1.02785e-20
-1.18549e-05 4.5062e-06 1.3097e-20
-2.58963e-05 -7.04661e-06 -6.22426e-21
-6.38682e-06 3.88622e-05 1.82914e-20
-1.26073e-05 1.19038e-05 -2.72853e-22
2.0779e-05 -4.47609e-06 8.88244e-23
-6.8732e-06 -2.57971e-05 5.26537e-21
-1.48704e-05 2.38937e-05 1.67101e-20
-2.17914e-05 1.25662e-05 -3.40878e-21
-2.05718e-05 -1.50571e-05 -1.89598e-21
1.80306e-05 -2.06573e-05 6.51166e-21
-2.75338e-05 -1.45641e-06 5.20261e-21
1.23687e-05 -4.08148e-05 2.79033e-21
1.93884e-05 -1.89152e-05 1.4702e-20
2.47354e-05 4.30867e-05 -4.00176e-21
1.97137e-06 1.98687e-05 1.59747e-20
2.96148e-06 -2.54241e-05 4.93218e-21
-4.1641e-05 4.69671e-05 1.27387e-20
-1.27035e-05 -2.44144e-05 1.41908e-20
1.63687e-05 -6.42124e-06 -2.19273e-20
-2.41111e-06 2.57752e-05 1.78353e-21
1.28844e-05 -1.18278e-05 6.7921e-21
1.38821e-05 2.43157e-05 1.61253e-21
1.72318e-05 -1.40064e-06 7.70613e-21
2.21227e-05 -6.32237e-05 6.59413e-21
-5.87675e-06 -1.28607e-05 -2.35165e-21
-2.3187e-05 1.00883e-05 1.25832e-20
-2.00222e-05 1.87211e-05 -9.18496e-21
2.16148e-05 1.45693e-05 -1.26723e-21
1.86747e-05 -1.07579e-05 1.16767e-20
1.49536e-05 1.25948e-05 1.51261e-20
-5.42872e-06 4.55316e-08 1.95141e-20
1.54054e-05 -2.30898e-05 1.23752e-20
-1.69922e-05 -2.04115e-05 9.84011e-21
2.25644e-05 9.77479e-06 1.34444e-20
1.2808e-05 -1.19911e-05 2.65475e-20
9.55505e-06 -2.48545e-05 1.63739e-21
1.6661e-05 -6.93365e-06 1.74395e-20
-1.58072e-05 -7.54548e-06 2.2134e-21
1.29701e-06 -2.63059e-05 -1.13171e-20
-2.61097e-05 4.4736e-06 2.28847e-20
2.39072e-06 2.45455e-05 -5.95656e-21
2.05873e-05 6.6282e-06 1.08366e-20
-2.17229e-05 -1.07031e-05 -4.86397e-21
-8.97818e-06 2.5613e-05 -1.34099e-20
-1.49551e-06 -2.41907e-05 9.03491e-21
1.94686e-05 1.18387e-05 7.42511e-21
-1.76914e-06 1.80868e-05 7.64824e-21
-2.01411e-05 1.37042e-05 2.76517e-21
2.35136e-05 1.14165e-05 7.95321e-21
-1.71172e-05 -9.98679e-06 9.50415e-22
9.51376e-08 -1.98371e-05 -1.62939e-20
1.83846e-05 1.99866e-05 -5.90838e-21
-2.21564e-05 -1.43053e-05 1.08857e-20
4.8357e-05 -3.39862e-05 6.84424e-21
1.78992e-05 -1.08238e-05 2.31404e-21
9.00311e-06 4.30926e-05 1.61754e-20
1.70363e-05 -1.36803e-05 2.16714e-20
-1.98766e-05 8.70472e-05 4.71027e-21
-1.97667e-05 -8.65614e-05 1.45146e-20
5.71923e-05 7.17266e-05 -2.26585e-21
5.69299e-05 -7.14002e-05 -1.02179e-20
9.0659e-05 -1.49228e-10 -1.08606e-20
-7.82115e-05 3.7645e-05 1.79807e-21
-7.74658e-05 -3.7289e-05 1.39365e-21
1.22355e-05 1.18203e-05 1.18492e-20
2.9372e-05 2.18954e-05 2.28977e-20
1.14497e-05 3.33328e-06 5.56428e-21
1.88583e-05 9.75286e-06 -1.05341e-20
4.98997e-06 2.0173e-05 -4.2355e-21
-1.88345e-05 -1.49825e-05 1.377e-20
1.70404e-05 -1.02156e-05 6.55439e-22
1.98554e-05 1.45514e-05 -6.77724e-21
-3.16735e-06 2.43675e-05 3.85535e-21
2.94448e-05 -1.99957e-05 4.88154e-21
3.79449e-06 -2.37432e-05 2.35468e-21
2.1964e-05 5.22779e-06 8.11571e-21
2.99002e-05 1.10275e-05 2.15185e-21
1.42108e-05 1.41459e-05 -3.0428e-20
1.58855e-05 6.59464e-06 -1.91611e-22
-1.85015e-05 1.09382e-05 1.58537e-20
-2.25665e-05 9.03799e-06 1.07921e-20
2.29328e-05 -1.12651e-05 7.12041e-21
-1.82706e-05 -9.99949e-06 5.98689e-21
-1.85572e-05 -1.0584e-05 7.60125e-21
-3.43874e-07 -2.07708e-05 7.4306e-22
-8.612e-08 -2.11639e-05 -8.01809e-21
-2.01301e-05 -1.00562e-06 1.59616e-20
2.6703e-05 -4.01975e-06 -5.45939e-21
1.81148e-05 1.13438e-05 1.17185e-20
-1.78669e-05 1.09467e-05 2.62583e-20
-1.53637e-05 1.66262e-05 1.17582e-20
1.60245e-05 -1.37553e-05 2.38366e-20
-1.10251e-05 1.74661e-05 9.27139e-21
-1.42271e-05 -1.48919e-05 1.99849e-20
-1.15538e-06 2.12139e-05 9.17165e-21
-1.28785e-06 2.09715e-05 1.19074e-20
8.97667e-08 -1.9837e-05 -1.01327e-20
6.1118e-06 -1.97404e-05 -8.45374e-21
-1.71436e-05 -9.93704e-06 8.98518e-21
1.55892e-05 -5.49112e-06 -4.66449e-21
6.63304e-07 2.14811e-05 -1.75005e-20
3.00918e-07 1.85104e-05 6.84546e-21
-2.34609e-06 1.686e-05 1.92376e-20
2.19122e-05 -5.52827e-06 -7.87591e-21
-1.65439e-05 5.37893e-06 2.74546e-20
4.15815e-06 2.15209e-05 1.62012e-21
-3.25635e-05 1.29213e-05 8.90334e-21
9.76505e-06 4.17381e-05 -5.55002e-21
-1.70562e-05 4.56888e-06 8.31823e-21
1.96876e-05 -1.1632e-05 1.8399e-21
9.45958e-07 2.10229e-05 -1.39343e-20
-2.04846e-05 6.70052e-06 1.09982e-20
2.44451e-06 -1.62651e-05 -1.02045e-20
1.8198e-06 -5.80221e-05 -4.71875e-21
2.00682e-06 1.74891e-05 -1.21657e-20
-1.69648e-05 1.40249e-05 1.93052e-20
1.78572e-05 6.39823e-05 -9.40112e-21
4.57768e-05 3.7713e-05 1.51206e-20
5.20735e-05 -3.52615e-05 4.2806e-22
1.48179e-05 -1.01688e-05 3.55703e-21
-1.57881e-05 1.404e-05 1.28027e-20
-2.02203e-05 -7.92204e-06 9.36202e-21
-1.9649e-05 -6.82358e-06 3.64343e-21
5.9277e-05 -2.46161e-05 1.31058e-20
5.74433e-05 2.38749e-05 1.75338e-20
1.08964e-05 3.81812e-06 2.04678e-20
7.66792e-07 1.95827e-05 5.50972e-21
7.84001e-08 1.9564e-05 -3.48184e-21
-4.83911e-05 -3.69255e-05 -3.55793e-21
1.14271e-05 -1.71749e-05 -2.77305e-21
1.17353e-05 1.24668e-05 5.92505e-21
-2.14219e-05 -3.39633e-06 5.77589e-21
-1.40474e-05 1.72051e-05 2.66497e-20
-1.88918e-05 9.16937e-06 1.45252e-20
4.76516e-05 3.37e-05 -4.3401e-21
1.58092e-05 7.06287e-06 -3.04529e-21
-5.56769e-06 2.00339e-05 7.24838e-21
-1.6981e-05 -1.17513e-05 1.78412e-20
1.85661e-06 -2.05465e-05 -8.38886e-21
-8.95128e-06 -1.92707e-05 1.28711e-20
-1.72522e-05 -1.17756e-05 2.09878e-20
1.05815e-05 -1.89391e-05 7.50423e-21
1.4125e-05 -1.69923e-05 1.20268e-20
-2.44063e-06 -6.14484e-05 -1.55881e-20
2.61849e-05 -4.11329e-05 6.4183e-21
1.74784e-06 -2.07893e-05 -4.9916e-21
1.79619e-05 1.13574e-05 -2.5133e-22
-1.44789e-05 -1.4908e-05 1.4725e-20
-9.84282e-06 1.97137e-05 7.23686e-21
-5.0403e-06 2.10105e-05 2.13646e-20
1.66302e-05 1.42463e-05 2.10397e-22
6.06013e-06 -1.9865e-05 -1.2069e-21
-1.34087e-05 -4.03654e-05 5.59854e-21
-1.98872e-06 2.5045e-05 -1.40016e-20
1.47945e-05 1.44577e-05 -7.91411e-21
-1.29607e-05 -1.02186e-05 -1.07526e-20
-1.35175e-05 1.06101e-05 2.12661e-20
4.43509e-05 -1.89166e-05 -4.27067e-21
7.56445e-06 -1.34026e-05 1.10309e-20
-8.31866e-06 -1.26293e-05 1.48974e-21
2.13344e-05 6.36465e-06 -1.76475e-20
1.09964e-05 -5.06712e-05 -5.88049e-21
-3.84585e-05 -3.49093e-05 2.58072e-20
2.3311e-05 6.20852e-06 1.92206e-20
-9.32992e-06 -1.82845e-05 1.76636e-20
1.87091e-05 9.48451e-06 1.44699e-21
-2.85697e-05 -3.25575e-05 -4.61476e-21
9.68998e-06 5.0056e-05 -1.12039e-23
3.43405e-05 -5.98707e-05 2.90279e-21
-3.47435e-05 -5.97875e-05 1.58194e-20
2.78138e-05 -5.20316e-05 -9.3408e-21
-1.27004e-05 4.36412e-05 1.95008e-20
-6.27722e-06 3.89846e-05 2.63905e-21
-1.87342e-05 8.94755e-06 9.60608e-21
5.97833e-06 2.42466e-05 6.69084e-21
-2.39199e-06 1.26564e-05 1.71082e-20
1.0122e-05 3.23373e-06 2.48686e-21
-3.18904e-06 1.62085e-05 2.72546e-21
-2.47478e-07 2.09956e-05 -7.80677e-21
1.66637e-05 9.75236e-06 -4.81547e-21
1.71087e-06 5.77349e-05 -1.07541e-20
-1.47199e-05 1.07347e-05 2.85605e-20
1.59524e-05 -6.24774e-06 4.16845e-22
1.6875e-05 -4.50978e-06 -1.37794e-20
-6.06741e-05 -8.77056e-06 1.54826e-21
-3.4612e-05 1.67445e-05 7.76104e-22
-4.35226e-05 -5.25562e-05 1.95451e-21
8.65812e-06 8.34722e-06 -1.56615e-21
1.42125e-05 7.29387e-06 -5.84016e-21
2.68097e-05 -4.19662e-06 4.64417e-21
-8.10585e-06 -1.32453e-05 9.00367e-21
1.72197e-05 8.43014e-06 -1.22194e-20
7.33669e-06 -3.00401e-05 -2.52087e-20
-1.37162e-05 1.02069e-05 4.27283e-20
-2.23784e-05 -2.14262e-05 2.14459e-20
-5.83702e-06 1.63007e-05 1.01433e-20
-3.27157e-06 2.06823e-05 -8.10327e-21
3.38559e-05 2.13003e-05 1.30922e-20
3.61198e-05 -1.92864e-05 6.74783e-21
-4.20782e-05 -1.16252e-05 -8.52493e-22
7.63556e-06 7.68713e-06 3.75378e-21
-4.05895e-06 0.000101379 -5.82954e-21
8.62256e-07 -0.000104487 7.08501e-22
5.24641e-05 8.76607e-05 -1.88883e-20
-1.91064e-05 8.45944e-06 9.00733e-21
-2.6381e-05 5.65601e-05 -1.47974e-21
5.30426e-05 -8.46549e-05 3.97843e-21
-1.17226e-05 -1.82857e-05 2.07316e-20
7.80139e-05 6.75095e-05 -3.81229e-21
2.39979e-05 -1.798e-05 -1.05465e-20
-3.60807e-06 -2.98275e-05 2.17912e-20
8.17933e-05 -6.58618e-05 -7.70432e-21
-6.74581e-06 1.4521e-05 2.03114e-20
-5.3842e-05 -3.48304e-05 3.75864e-21
-4.30209e-05 -9.31471e-05 -7.09101e-21
-2.41167e-05 -5.78147e-05 -8.77175e-21
-4.39826e-05 9.41542e-05 1.88538e-21
-1.00949e-05 6.40954e-05 -1.21954e-20
1.56355e-05 3.71149e-05 2.67816e-21
-2.79603e-05 3.72474e-05 -5.84864e-21
-2.52772e-05 -5.51935e-05 7.09108e-22
0.000100383 1.732e-05 -7.14255e-21
-1.69305e-05 1.0769e-05 4.49781e-20
-5.91338e-06 1.63359e-05 -1.33266e-23
-5.07673e-05 3.76468e-05 -5.38178e-21
-1.72793e-05 9.94591e-06 2.38845e-20
9.92201e-05 -1.5266e-05 -3.0676e-20
-1.53629e-05 7.8001e-06 3.13136e-20
7.19392e-06 -1.44975e-05 1.55399e-20
-7.79832e-05 -6.09595e-05 8.74963e-21
-2.58833e-05 5.77276e-05 7.54456e-21
-7.91363e-05 6.03867e-05 -3.5064e-21
2.45448e-05 5.19594e-05 -7.5885e-21
-1.47702e-05 1.05843e-05 3.74611e-20
-2.05335e-05 2.44809e-05 6.18427e-21
-2.85377e-05 4.98267e-05 -2.66503e-20
-5.67861e-05 2.08039e-07 -3.2014e-21
-9.4425e-07 1.62989e-05 -1.13911e-20
-2.88547e-05 -5.04154e-05 -1.28657e-20
-5.82087e-05 -2.19871e-07 -5.11772e-21
-2.83545e-05 4.87049e-05 1.47038e-20
-1.5193e-05 6.62778e-05 -1.13305e-20
-1.78678e-05 4.1268e-05 -6.5826e-21
-3.39062e-05 2.71422e-05 1.8661e-20
2.43872e-05 -6.058e-06 -2.3129e-20
3.80094e-05 -2.19568e-06 -6.39768e-21
1.34847e-05 8.20175e-06 -7.22502e-21
-1.0471e-05 -7.40007e-05 -5.16305e-22
-6.94612e-05 -2.79791e-05 1.80662e-20
3.71388e-05 7.32849e-07 1.73259e-20
5.83764e-05 -1.0894e-05 -1.47001e-20
-1.05855e-05 -1.34995e-05 -1.31182e-20
-5.08377e-05 3.76327e-05 -3.75954e-21
-4.61417e-05 5.40099e-05 -6.26004e-21
6.23736e-05 -2.22363e-05 -9.63305e-21
-2.81824e-05 -5.0506e-05 -1.5301e-20
-2.87822e-05 4.97883e-05 -1.05932e-20
-5.72646e-05 -1.17138e-06 1.06399e-20
-2.6578e-05 5.06068e-05 1.57536e-20
-5.79634e-05 -8.17148e-07 -2.07881e-21
6.60878e-05 1.73955e-05 1.57003e-20
5.63902e-05 1.29275e-06 -5.69011e-21
5.09091e-05 -2.9279e-05 5.7292e-21
2.49146e-05 -5.94376e-05 4.01623e-20
2.99238e-05 -4.88654e-05 2.4315e-20
2.91726e-05 4.86894e-05 2.68716e-20
2.43494e-05 5.80996e-05 3.30604e-20
7.58158e-05 -2.00411e-05 1.93143e-20
4.62745e-05 2.90684e-05 3.02752e-20
4.66325e-05 1.37479e-05 1.63715e-20
TENSORS solid_stress_TPM float
375.046 -24.921 1.46845e-13
-24.921 238.579 1.50398e-13
1.46845e-13 1.50398e-13 197.826

457.025 -21.3206 -6.02377e-12
-21.3206 490.009 -1.37194e-12
-6.02377e-12 -1.37194e-12 487.131

454.899 28.0446 -3.48403e-12
28.0446 463.729 -3.33008e-12
-3.48403e-12 -3.33008e-12 458.478

455.05 -29.8425 -2.82722e-12
-29.8425 482.631 -4.41129e-13
-2.82722e-12 -4.41129e-13 484.877

527.702 19.9309 -9.03277e-13
19.9309 548.469 8.34792e-12
-9.03277e-13 8.34792e-12 527.373

437.33 -18.0754 6.07514e-13
-18.0754 480.36 5.31427e-12
6.07514e-13 5.31427e-12 458.059

372.341 26.4852 2.84691e-12
26.4852 239.099 2.3744e-12
2.84691e-12 2.3744e-12 197.81

473.672 29.9587 1.31746e-12
29.9587 469.522 -1.46135e-12
1.31746e-12 -1.46135e-12 472.357

471.57 5.48339 -1.55254e-12
5.48339 417.841 -1.21074e-12
-1.55254e-12 -1.21074e-12 432.814

504.28 -7.47761 1.68458e-13
-7.47761 444.132 -2.76941e-12
1.68458e-13 -2.76941e-12 483.472

360.308 16.3096 -1.66267e-12
16.3096 247.665 8.31335e-12
-1.66267e-12 8.31335e-12 233.655

444.801 -13.4537 1.0328e-12
-13.4537 498.406 -2.77526e-12
1.0328e-12 -2.77526e-12 472.258

466.887 27.8342 -2.2542e-12
27.8342 468.322 2.72316e-12
-2.2542e-12 2.72316e-12 466.754

457.056 -14.3406 2.67954e-12
-14.3406 500.454 1.25529e-13
2.67954e-12 1.25529e-13 483.477

512.954 33.31 2.56654e-12
33.31 511.614 1.12819e-12
2.56654e-12 1.12819e-12 515.243

489.194 0.561036 8.08242e-13
0.561036 435.542 4.303e-12
8.08242e-13 4.303e-12 462.291

457.603 -17.9689 1.51287e-12
-17.9689 512.905 -1.47852e-12
1.51287e-12 -1.47852e-12 493.616

493.979 -2.6652 2.25716e-12
-2.6652 439.068 1.13709e-12
2.25716e-12 1.13709e-12 474.283

418.811 26.6754 3.45561e-12
26.6754 449.68 -1.61412e-12
3.45561e-12 -1.61412e-12 424.071

482.002 -4.19584 -2.73618e-12
-4.19584 424.94 -8.87216e-13
-2.73618e-12 -8.87216e-13 453.494

425.314 8.66921 2.48986e-13
8.66921 481.923 1.44359e-12
2.48986e-13 1.44359e-12 444.86

634.132 6.28672 -3.41131e-12
6.28672 633.968 -3.51423e-12
-3.41131e-12 -3.51423e-12 570.328

479.173 1.87605 -1.33049e-12
1.87605 422.958 8.01581e-14
-1.33049e-12 8.01581e-14 449.751

447.182 -27.7166 4.57234e-12
-27.7166 461.17 1.74438e-12
4.57234e-12 1.74438e-12 452.967

481.07 6.84969 3.50475e-12
6.84969 425.459 -3.92767e-12
3.50475e-12 -3.92767e-12 452.957

449.777 19.1134 -1.40184e-13
19.1134 490.338 2.48246e-12
-1.40184e-13 2.48246e-12 478.225

377.67 4.18165 2.7498e-12
4.18165 291.665 -3.00826e-12
2.7498e-12 -3.00826e-12 259.013

462.704 30.7471 7.93439e-14
30.7471 460.733 -1.81573e-12
7.93439e-14 -1.81573e-12 460.564

384.957 37.0769 -4.50721e-12
37.0769 383.536 1.01015e-12
-4.50721e-12 1.01015e-12 348.434

586.951 10.3235 1.80359e-12
10.3235 563.463 5.83326e-12
1.80359e-12 5.83326e-12 546.886

491.708 14.2172 1.9457e-12
14.2172 442.516 -2.66986e-12
1.9457e-12 -2.66986e-12 465.875

352.87 -17.7816 -5.59079e-12
-17.7816 416.742 8.50283e-13
-5.59079e-12 8.50283e-13 348.605

331.031 -42.1039 9.00021e-14
-42.1039 335.886 4.56168e-12
9.00021e-14 4.56168e-12 253.493

531.422 5.986 -1.63632e-12
5.986 586.9 2.35693e-12
-1.63632e-12 2.35693e-12 538.596

554.035 -4.83953 6.9648e-13
-4.83953 582.082 3.56692e-12
6.9648e-13 3.56692e-12 542.526

577.997 21.0276 -3.92575e-13
21.0276 539.96 -1.65172e-12
-3.92575e-13 -1.65172e-12 538.365

556.196 5.06636 6.91847e-12
5.06636 600.683 -4.92702e-12
6.91847e-12 -4.92702e-12 547.983

573.785 -9.17047 1.89182e-12
-9.17047 555.777 9.35529e-13
1.89182e-12 9.35529e-13 540.652

467.147 -27.9992 -3.39876e-13
-27.9992 466.511 6.2587e-13
-3.39876e-13 6.2587e-13 465.126

330.415 41.5232 -8.86284e-12
41.5232 337.984 -5.98277e-12
-8.86284e-12 -5.98277e-12 253.852

414.544 -17.9502 1.78701e-12
-17.9502 354.502 -1.24227e-12
1.78701e-12 -1.24227e-12 346.335

559.317 -3.70508 9.41469e-14
-3.70508 599.932 1.83054e-12
9.41469e-14 1.83054e-12 548.397

586.422 19.5538 5.70285e-13
19.5538 572.464 -2.77941e-12
5.70285e-13 -2.77941e-12 548.186

490.913 -12.2735 -1.15049e-12
-12.2735 442.871 -1.70205e-12
-1.15049e-12 -1.70205e-12 466.547

341.721 -43.3016 5.69263e-12
-43.3016 345.35 -2.61598e-12
5.69263e-12 -2.61598e-12 288.988

417.57 -18.0645 2.35782e-12
-18.0645 357.119 6.26758e-12
2.35782e-12 6.26758e-12 351.509

413.022 17.0867 8.99133e-13
17.0867 464.794 -5.60263e-12
8.99133e-13 -5.60263e-12 428.737

429.639 19.3401 -3.17731e-12
19.3401 466.524 5.38236e-12
-3.17731e-12 5.38236e-12 437.09

486.792 -16.3017 -3.43488e-12
-16.3017 432.885 -1.76037e-12
-3.43488e-12 -1.76037e-12 458.688

355.588 -34.1876 3.91331e-12
-34.1876 389.41 -4.08562e-13
3.91331e-12 -4.08562e-13 332.575

410.262 19.183 1.44595e-12
19.183 350.708 3.58232e-12
1.44595e-12 3.58232e-12 339.484

425.211 -25.2899 -2.75098e-12
-25.2899 383.829 4.47464e-12
-2.75098e-12 4.47464e-12 373.085

519.928 19.4847 2.48586e-12
19.4847 547.539 -1.12207e-13
2.48586e-12 -1.12207e-13 525.74

416.422 29.6512 -2.08307e-12
29.6512 393.895 3.18086e-12
-2.08307e-12 3.18086e-12 373.949

522.184 -21.8127 -4.57027e-12
-21.8127 541.404 1.86833e-12
-4.57027e-12 1.86833e-12 524.386

364.078 -42.7136 -1.74794e-12
-42.7136 343.289 -7.62649e-13
-1.74794e-12 -7.62649e-13 289.705

553.457 5.4585 3.04349e-13
5.4585 583.875 -2.2086e-12
3.04349e-13 -2.2086e-12 542.901

373.724 -5.33016 -7.49623e-13
-5.33016 436.674 3.75048e-12
-7.49623e-13 3.75048e-12 373.833

580.822 10.3845 -4.96492e-13
10.3845 556.177 3.46676e-13
-4.96492e-13 3.46676e-13 542.657

435.067 21.4141 2.49578e-13
21.4141 473.774 2.4271e-12
2.49578e-13 2.4271e-12 454.683

513.585 5.75437 3.69482e-13
5.75437 452.819 -1.78524e-13
3.69482e-13 -1.78524e-13 494.877

522.47 11.459 1.26121e-12
11.459 487.873 3.65308e-12
1.26121e-12 3.65308e-12 507.09

383.715 31.8213 -3.94825e-12
31.8213 315.201 -7.07819e-12
-3.94825e-12 -7.07819e-12 269.877

482.099 -6.03569 -1.49214e-13
-6.03569 528.193 -2.71131e-12
-1.49214e-13 -2.71131e-12 504.112

487.108 9.52017 -2.57735e-12
9.52017 523.702 -2.4869e-13
-2.57735e-12 -2.4869e-13 507.508

456.47 -2.8812 2.30619e-12
-2.8812 520.17 9.27258e-13
2.30619e-12 9.27258e-13 487.82

464.468 23.4016 1.6747e-12
23.4016 503.484 -5.26394e-13
1.6747e-12 -5.26394e-13 495.454

496.762 8.46388 -4.41513e-12
8.46388 444.411 -1.7919e-12
-4.41513e-12 -1.7919e-12 477.712

445.52 -28.2407 3.28626e-12
-28.2407 459.543 2.16952e-12
3.28626e-12 2.16952e-12 451.181

501.696 -1.71139 3.94159e-12
-1.71139 444.931 1.50694e-13
3.94159e-12 1.50694e-13 489.082

519.541 -19.2607 2.6857e-12
-19.2607 546.832 8.8729e-13
2.6857e-12 8.8729e-13 525.473

523.313 21.3078 -2.46914e-12
21.3078 542.928 1.0398e-12
-2.46914e-12 1.0398e-12 525.276

353.42 -16.5845 1.69938e-12
-16.5845 415.749 3.55271e-14
1.69938e-12 3.55271e-14 346.123

506.034 -27.9366 -2.11979e-13
-27.9366 485.322 -1.6452e-12
-2.11979e-13 -1.6452e-12 493.893

449.735 -25.1357 3.10241e-12
-25.1357 471.236 2.51118e-12
3.10241e-12 2.51118e-12 458.591

357.881 -31.7122 -1.18424e-14
-31.7122 285.684 4.84028e-12
-1.18424e-14 4.84028e-12 249.866

498.51 3.22287 2.7293e-12
3.22287 541.417 5.63105e-13
2.7293e-12 5.63105e-13 513.654

501.74 28.9445 1.60938e-12
28.9445 474.563 -2.68526e-12
1.60938e-12 -2.68526e-12 487.671

448.459 19.6646 1.45217e-13
19.6646 492.123 -9.37916e-13
1.45217e-13 -9.37916e-13 477.657

440.208 8.00001 -8.28967e-13
8.00001 373.049 3.78068e-13
-8.28967e-13 3.78068e-13 382.947

386.464 -33.9375 1.94452e-12
-33.9375 360.218 -3.04941e-12
1.94452e-12 -3.04941e-12 319.446

537.728 -10.5871 6.87717e-12
-10.5871 556.149 2.32436e-12
6.87717e-12 2.32436e-12 531.26

482.671 23.8999 -1.83438e-12
23.8999 504.573 1.22413e-12
-1.83438e-12 1.22413e-12 502.056

385.384 -32.3857 -1.64846e-12
-32.3857 345.317 -1.67807e-12
-1.64846e-12 -1.67807e-12 317.092

422.212 10.7917 1.64254e-12
10.7917 363.862 1.80049e-12
1.64254e-12 1.80049e-12 350.265

307.661 -21.2072 3.058e-12
-21.2072 388.456 -8.31335e-13
3.058e-12 -8.31335e-13 288.125

434.458 14.4261 1.24352e-12
14.4261 488.685 1.73491e-13
1.24352e-12 1.73491e-13 460.898

509.735 23.144 -1.48918e-12
23.144 475.185 9.59233e-14
-1.48918e-12 9.59233e-14 489.96

338.251 42.2011 2.27137e-12
42.2011 349.583 -8.37256e-13
2.27137e-12 -8.37256e-13 288.961

634.218 16.5061 2.58567e-11
16.5061 603.073 -1.3597e-11
2.58567e-11 -1.3597e-11 565.333

372.901 -4.10863 1.73965e-12
-4.10863 436.833 -3.62495e-12
1.73965e-12 -3.62495e-12 373.44

637.123 -16.6313 -4.39352e-12
-16.6313 599.544 1.1795e-12
-4.39352e-12 1.1795e-12 564.84

533.951 -27.3348 -1.17062e-12
-27.3348 507.251 5.72283e-13
-1.17062e-12 5.72283e-13 515.727

505.311 27.425 -9.71667e-13
27.425 466.348 -6.74423e-13
-9.71667e-13 -6.74423e-13 485.086

426.941 -24.412 6.43633e-12
-24.412 386.252 -7.2653e-13
6.43633e-12 -7.2653e-13 375.991

358.948 31.3252 -4.57767e-12
31.3252 396.018 2.07242e-12
-4.57767e-12 2.07242e-12 339.212

339.836 -10.7057 2.79599e-12
-10.7057 408.406 -6.03724e-12
2.79599e-12 -6.03724e-12 319.116

453.121 21.971 6.32383e-13
21.971 494.696 -2.25331e-12
6.32383e-13 -2.25331e-12 483.184

533.127 16.7947 4.73695e-15
16.7947 506.211 2.50466e-12
4.73695e-15 2.50466e-12 513.366

443.469 15.1547 -1.48474e-13
15.1547 488.457 4.52853e-12
-1.48474e-13 4.52853e-12 464.298

451.498 15.9547 2.99612e-13
15.9547 400.551 -2.57986e-12
2.99612e-13 -2.57986e-12 403.762

374.502 -21.4738 2.59407e-12
-21.4738 419.883 -3.11691e-12
2.59407e-12 -3.11691e-12 357.21

389.737 -29.3923 -1.65793e-13
-29.3923 342.381 -1.78998e-12
-1.65793e-13 -1.78998e-12 314.402

454.983 -24.5736 -1.95592e-12
-24.5736 480.083 3.05711e-12
-1.95592e-12 3.05711e-12 478.387

466.443 27.4518 -1.12562e-12
27.4518 478.76 2.60177e-12
-1.12562e-12 2.60177e-12 479.826

452.235 23.1879 -4.84501e-13
23.1879 492.577 2.86882e-12
-4.84501e-13 2.86882e-12 482.06

466.311 13.1689 -3.27133e-12
13.1689 529.791 1.32339e-12
-3.27133e-12 1.32339e-12 501.398

490.88 9.3725 -4.3047e-12
9.3725 437.905 -2.27166e-12
-4.3047e-12 -2.27166e-12 462.072

327.723 -4.66529 1.69198e-12
-4.66529 403.397 -5.40012e-13
1.69198e-12 -5.40012e-13 314.423

462.597 -36.8324 -1.49214e-13
-36.8324 487.708 -1.36328e-12
-1.49214e-13 -1.36328e-12 492.765

445.866 27.4665 4.30293e-12
27.4665 463.288 6.21725e-13
4.30293e-12 6.21725e-13 455.031

305.682 2.17039 -3.3924e-12
2.17039 393.376 -8.01966e-12
-3.3924e-12 -8.01966e-12 297.267

386.011 34.6123 4.54984e-12
34.6123 332.46 1.3974e-13
4.54984e-12 1.3974e-13 306.257

453.368 -22.9746 -6.88782e-13
-22.9746 480.088 -3.32297e-12
-6.88782e-13 -3.32297e-12 476.19

501.413 5.73295 -2.01824e-12
5.73295 441.333 -4.86352e-13
-2.01824e-12 -4.86352e-13 481.027

422.397 27.2056 3.74574e-12
27.2056 389.782 1.56912e-13
3.74574e-12 1.56912e-13 374.249

570.553 12.745 4.82873e-12
12.745 565.926 7.91811e-12
4.82873e-12 7.91811e-12 542.929

396.193 24.3319 -2.86112e-12
24.3319 349.661 -2.43953e-12
-2.86112e-12 -2.43953e-12 319.056

569.175 -13.0546 1.24922e-12
-13.0546 565.838 -2.73766e-12
1.24922e-12 -2.73766e-12 542.384

375.106 0.778607 -3.48018e-13
0.778607 438.887 6.30015e-12
-3.48018e-13 6.30015e-12 374.655

461.49 -2.23545 4.07378e-12
-2.23545 399.318 4.44241e-12
4.07378e-12 4.44241e-12 417.298

538.211 -15.7671 4.43157e-12
-15.7671 480.648 3.00737e-12
4.43157e-12 3.00737e-12 513.494

457.263 24.3882 -7.33025e-14
24.3882 487.803 -1.80744e-13
-7.33025e-14 -1.80744e-13 488.372

461.273 -13.5352 -1.57473e-12
-13.5352 519.153 1.04095e-12
-1.57473e-12 1.04095e-12 495.731

514.987 -7.99968 6.10327e-13
-7.99968 438.211 -1.79116e-13
6.10327e-13 -1.79116e-13 494.294

488.33 -22.283 3.2343e-12
-22.283 541.616 -1.96287e-12
3.2343e-12 -1.96287e-12 515.765

556.062 -6.59755 -2.34183e-13
-6.59755 560.405 2.43775e-12
-2.34183e-13 2.43775e-12 538.742

463.885 -29.9083 -1.87435e-12
-29.9083 483.215 -1.55905e-12
-1.87435e-12 -1.55905e-12 483.617

341.719 11.4543 2.31667e-12
11.4543 406.21 -3.31587e-12
2.31667e-12 -3.31587e-12 319.495

422.498 -28.1482 -9.5568e-13
-28.1482 391.257 1.59043e-12
-9.5568e-13 1.59043e-12 375.162

507.395 -13.7713 -1.1835e-13
-13.7713 558.761 6.77088e-13
-1.1835e-13 6.77088e-13 525.266

501.075 0.504729 3.13986e-12
0.504729 441.298 -2.14391e-12
3.13986e-12 -2.14391e-12 487.104

476.959 -21.5242 9.20597e-13
-21.5242 507.439 1.64816e-12
9.20597e-13 1.64816e-12 501.521

459.116 25.698 -5.1544e-13
25.698 484.62 -2.55943e-13
-5.1544e-13 -2.55943e-13 487.999

394.445 -31.4663 1.74083e-12
-31.4663 400.615 8.64494e-14
1.74083e-12 8.64494e-14 357.535

552.136 -7.08378 7.9862e-14
-7.08378 585.306 2.02712e-12
7.9862e-14 2.02712e-12 542.616

347.223 -33.0785 5.31841e-12
-33.0785 382.622 -3.93878e-12
5.31841e-12 -3.93878e-12 303.447

490.888 -19.1804 -3.38929e-12
-19.1804 448.404 5.74178e-12
-3.38929e-12 5.74178e-12 467.141

519.725 1.97087 -1.83468e-12
1.97087 466.831 -1.42049e-12
-1.83468e-12 -1.42049e-12 502.848

570.57 17.8746 -1.36809e-12
17.8746 566.489 4.71889e-12
-1.36809e-12 4.71889e-12 542.388

375.305 20.184 2.42295e-12
20.184 424.049 -5.41434e-12
2.42295e-12 -5.41434e-12 360.235

489.099 27.2115 2.47328e-12
27.2115 468.557 -3.54294e-12
2.47328e-12 -3.54294e-12 476.656

454.397 -24.5127 6.96095e-12
-24.5127 415.358 5.41582e-12
6.96095e-12 5.41582e-12 418.618

454.735 -17.8389 -1.23844e-12
-17.8389 494.925 1.1348e-12
-1.23844e-12 1.1348e-12 482.658

379.213 35.0701 -4.58774e-12
35.0701 366.044 2.80309e-12
-4.58774e-12 2.80309e-12 317.061

449.17 -21.8313 -3.03816e-12
-21.8313 491.723 -1.79382e-12
-3.03816e-12 -1.79382e-12 479.791

485.508 30.8512 2.00136e-12
30.8512 465.152 2.00699e-12
2.00136e-12 2.00699e-12 473.462

480.34 -25.2448 1.43234e-12
-25.2448 442.383 -1.6455e-12
1.43234e-12 -1.6455e-12 455.459

448.235 -25.1274 5.60441e-13
-25.1274 469.786 1.03384e-12
5.60441e-13 1.03384e-12 458.113

445.362 -18.6891 -1.11555e-12
-18.6891 393.475 2.66513e-12
-1.11555e-12 2.66513e-12 397.272

470.671 -18.8505 -6.86858e-13
-18.8505 422.868 -4.33135e-13
-6.86858e-13 -4.33135e-13 437.547

459.016 -25.3373 -1.02525e-12
-25.3373 485.446 -3.23867e-12
-1.02525e-12 -3.23867e-12 488.842

386.555 35.9714 3.95772e-12
35.9714 382.001 -2.45729e-12
3.95772e-12 -2.45729e-12 348.129

444.511 15.3775 -2.02001e-12
15.3775 491.55 -2.43598e-12
-2.02001e-12 -2.43598e-12 467.155

469.412 26.423 1.09956e-12
26.423 479.974 -5.73171e-13
1.09956e-12 -5.73171e-13 482.562

456.159 25.4736 -3.6251e-12
25.4736 486.664 -1.68473e-12
-3.6251e-12 -1.68473e-12 487.262

457.822 11.622 -1.7501e-12
11.622 506.956 1.27365e-12
-1.7501e-12 1.27365e-12 486.03

431.967 -8.22744 -2.92151e-12
-8.22744 370.768 -2.46233e-12
-2.92151e-12 -2.46233e-12 363.319

376.792 18.6075 -2.10202e-13
18.6075 427.281 3.04349e-12
-2.10202e-13 3.04349e-12 363.895

452.328 -24.3812 -2.13755e-13
-24.3812 478.402 2.28528e-12
-2.13755e-13 2.28528e-12 470.727

440.761 25.6671 -1.68695e-12
25.6671 455.656 -1.31095e-12
-1.68695e-12 -1.31095e-12 437.82

390.969 -35.6313 -9.09495e-13
-35.6313 380.289 3.59179e-12
-9.09495e-13 3.59179e-12 350.102

368.953 38.3187 2.25005e-14
38.3187 327.262 -6.9349e-12
2.25005e-14 -6.9349e-12 295.692

363.658 -33.3129 3.96128e-12
-33.3129 394.448 1.01726e-12
3.96128e-12 1.01726e-12 341.99

397.943 -31.1613 -2.63493e-12
-31.1613 404.206 8.02913e-13
-2.63493e-12 8.02913e-13 362.985

502.873 -6.83863 3.30047e-12
-6.83863 442.265 3.87068e-12
3.30047e-12 3.87068e-12 482.332

393.176 30.3434 -4.90274e-13
30.3434 408.992 -7.35412e-13
-4.90274e-13 -7.35412e-13 363.445

429.715 13.2953 1.27424e-12
13.2953 372.258 1.9537e-12
1.27424e-12 1.9537e-12 362.725

350.153 13.3796 3.46745e-12
13.3796 418.527 6.43278e-12
3.46745e-12 6.43278e-12 348.485

379.49 -22.3416 -8.50283e-13
-22.3416 423.526 -6.09883e-13
-8.50283e-13 -6.09883e-13 363.459

491.218 -1.09199 1.82891e-13
-1.09199 550.888 -9.4739e-13
1.82891e-13 -9.4739e-13 516.317

372.874 2.24676 -4.69402e-13
2.24676 437.801 -4.59129e-12
-4.69402e-13 -4.59129e-12 373.531

357.9 31.091 1.40036e-12
31.091 399.499 3.52903e-13
1.40036e-12 3.52903e-13 341.971

458.005 12.1083 4.35884e-12
12.1083 510.575 -1.0516e-12
4.35884e-12 -1.0516e-12 488.417

421.466 -27.6491 1.7432e-12
-27.6491 389.083 -3.79015e-12
1.7432e-12 -3.79015e-12 375.083

524.768 20.557 1.84001e-12
20.557 469.762 -1.26092e-12
1.84001e-12 -1.26092e-12 500.747

534.936 26.2704 -2.66454e-13
26.2704 506.871 -1.3826e-13
-2.66454e-13 -1.3826e-13 516.105

494.831 -18.5684 2.61243e-12
-18.5684 449.039 -2.03689e-13
2.61243e-12 -2.03689e-13 470.869

554.594 -1.80226 4.67685e-12
-1.80226 516.033 2.06916e-12
4.67685e-12 2.06916e-12 525.728

473.301 -31.8124 1.90455e-12
-31.8124 475.711 -2.02978e-12
1.90455e-12 -2.02978e-12 478.591

412.611 23.329 2.54848e-12
23.329 357.206 -1.23871e-12
2.54848e-12 -1.23871e-12 348.102

464.192 30.1623 -6.40377e-13
30.1623 482.784 -7.96696e-13
-6.40377e-13 -7.96696e-13 483.219

464.454 29.2061 2.42325e-12
29.2061 482.257 -1.05782e-12
2.42325e-12 -1.05782e-12 482.78

393.958 30.6625 -1.39858e-12
30.6625 405.736 -3.90799e-14
-1.39858e-12 -3.90799e-14 360.88

502.868 27.0856 -5.81994e-12
27.0856 482.678 -1.09956e-12
-5.81994e-12 -1.09956e-12 490.747

415.365 3.52534 -2.65625e-12
3.52534 339.026 2.10091e-13
-2.65625e-12 2.10091e-13 340.835

493.136 31.8172 2.91796e-12
31.8172 487.238 -1.46135e-12
2.91796e-12 -1.46135e-12 495.588

476.339 -12.5995 2.30616e-12
-12.5995 522.464 1.42938e-12
2.30616e-12 1.42938e-12 500.261

536.938 24.2778 -5.01821e-13
24.2778 507.413 1.6831e-12
-5.01821e-13 1.6831e-12 516.642

468.193 -29.579 2.43953e-12
-29.579 479.986 3.57462e-12
2.43953e-12 3.57462e-12 483.076

464.573 -4.89774 -1.14098e-12
-4.89774 521.57 -6.83897e-13
-1.14098e-12 -6.83897e-13 490.992

400.952 -24.5577 -1.21503e-12
-24.5577 349.033 5.44749e-12
-1.21503e-12 5.44749e-12 323.96

418.98 29.6948 9.92391e-13
29.6948 392.476 -1.64372e-12
9.92391e-13 -1.64372e-12 373.781

352.354 14.6973 -5.72135e-13
14.6973 417.226 3.23652e-12
-5.72135e-13 3.23652e-12 348.25

500.546 -1.13907 -7.77156e-14
-1.13907 442.81 3.23933e-12
-7.77156e-14 3.23933e-12 487.724

492.487 0.00219784 1.6005e-12
0.00219784 438.118 4.74532e-12
1.6005e-12 4.74532e-12 474.434

452.981 23.1246 1.72662e-12
23.1246 479.723 -1.35625e-12
1.72662e-12 -1.35625e-12 475.601

481.319 23.8712 3.29662e-12
23.8712 502.888 1.5653e-12
3.29662e-12 1.5653e-12 501.268

456.604 -24.3808 -3.13212e-13
-24.3808 487.369 2.94653e-12
-3.13212e-13 2.94653e-12 488.513

457.85 -0.673135 -5.57813e-13
-0.673135 517.957 -6.24685e-13
-5.57813e-13 -6.24685e-13 486.414

458.902 25.5907 -1.39681e-12
25.5907 486.486 -1.26114e-12
-1.39681e-12 -1.26114e-12 488.535

465.578 -10.3085 1.95991e-13
-10.3085 408.1 -5.13101e-12
1.95991e-13 -5.13101e-12 427.24

400.881 -32.8354 -5.11591e-13
-32.8354 414.973 1.77873e-12
-5.11591e-13 1.77873e-12 385.182

518.115 -2.30137 3.80496e-12
-2.30137 465.757 9.71075e-13
3.80496e-12 9.71075e-13 500.945

391.889 -34.5103 -2.27492e-12
-34.5103 379.622 -2.60947e-12
-2.27492e-12 -2.60947e-12 347.432

478.02 19.086 -9.08903e-14
19.086 509.221 1.55698e-12
-9.08903e-14 1.55698e-12 501.864

506.132 -26.479 6.51331e-15
-26.479 470.266 3.40172e-13
6.51331e-15 3.40172e-13 487.292

425.02 -9.69084 6.09764e-12
-9.69084 366.746 9.00021e-14
6.09764e-12 9.00021e-14 355.997

530.284 -23.1924 -1.68517e-12
-23.1924 488.775 1.23605e-12
-1.68517e-12 1.23605e-12 506.508

500.914 2.35835 -1.11008e-12
2.35835 444.599 -1.5099e-13
-1.11008e-12 -1.5099e-13 489.226

521.21 -23.3221 -3.00441e-12
-23.3221 501.86 -3.27161e-12
-3.00441e-12 -3.27161e-12 508.552

502.037 -25.8598 1.31746e-12
-25.8598 461.511 -2.42088e-12
1.31746e-12 -2.42088e-12 481.264

498.849 -8.54663 2.179e-12
-8.54663 445.156 -2.07464e-12
2.179e-12 -2.07464e-12 479.365

482.241 -23.0684 5.38739e-12
-23.0684 505.012 3.3855e-12
5.38739e-12 3.3855e-12 502.555

428.56 -31.3437 3.76588e-13
-31.3437 410.607 -6.04494e-12
3.76588e-13 -6.04494e-12 399.016

503.288 -24.5882 2.87415e-12
-24.5882 464.733 -5.71987e-13
2.87415e-12 -5.71987e-13 482.18

441.262 10.8651 1.84149e-12
10.8651 378.498 -7.6857e-13
1.84149e-12 -7.6857e-13 387.816

500.058 26.3408 3.02158e-12
26.3408 498.603 -2.66454e-13
3.02158e-12 -2.66454e-13 500.124

463.772 -37.612 1.69524e-12
-37.612 488.411 -2.94287e-12
1.69524e-12 -2.94287e-12 494.103

464.881 37.2643 1.70945e-12
37.2643 487.323 -2.67194e-14
1.70945e-12 -2.67194e-14 493.819

446.35 -28.5728 -2.79469e-12
-28.5728 500.036 1.88235e-12
-2.79469e-12 1.88235e-12 492.333

448.585 27.0637 -9.00761e-13
27.0637 500.728 -3.75818e-12
-9.00761e-13 -3.75818e-12 492.52

513.092 -8.52728 2.53856e-12
-8.52728 436.429 -3.35894e-12
2.53856e-12 -3.35894e-12 492.781

511.254 9.27327 1.84149e-12
9.27327 438.025 -2.82974e-12
1.84149e-12 -2.82974e-12 492.418

501.678 -9.84665 -1.75711e-12
-9.84665 451.763 -3.38973e-12
-1.75711e-12 -3.38973e-12 483.041

510.884 32.115 -1.67155e-12
32.115 510.41 -7.24689e-13
-1.67155e-12 -7.24689e-13 514.074

509.66 -32.8529 -1.49925e-12
-32.8529 510.087 1.21474e-12
-1.49925e-12 1.21474e-12 513.713

481.83 16.0682 1.75001e-12
16.0682 539.149 -1.43204e-12
1.75001e-12 -1.43204e-12 514.346

483.024 -15.8007 -9.64118e-13
-15.8007 538.739 -1.44921e-12
-9.64118e-13 -1.44921e-12 514.367

556.885 -3.74858 2.81094e-12
-3.74858 506.849 3.31083e-12
2.81094e-12 3.31083e-12 525.01

558.44 3.61132 -6.78864e-13
3.61132 505.174 2.59082e-12
-6.78864e-13 2.59082e-12 525.382

387.326 9.83747 4.2996e-12
9.83747 449.218 -3.86062e-12
4.2996e-12 -3.86062e-12 397.104

472.408 -24.7749 -1.35891e-13
-24.7749 480.775 1.5549e-12
-1.35891e-13 1.5549e-12 484.996

443.484 -36.3868 1.33116e-12
-36.3868 485.554 5.62054e-12
1.33116e-12 5.62054e-12 486.648

473.663 -4.66447 9.82917e-13
-4.66447 420.455 2.39527e-12
9.82917e-13 2.39527e-12 436.357

540.272 -16.6938 1.05989e-12
-16.6938 484.211 2.94017e-12
1.05989e-12 2.94017e-12 515.307

540.992 16.1747 -1.03177e-12
16.1747 485.435 4.51787e-13
-1.03177e-12 4.51787e-13 515.912

506.883 0.121871 3.24007e-12
0.121871 423.574 -1.59144e-12
3.24007e-12 -1.59144e-12 487.022

384.808 23.3767 -4.60728e-12
23.3767 432.316 -4.09391e-12
-4.60728e-12 -4.09391e-12 385.493

442.356 36.1708 -3.67188e-13
36.1708 485.233 -2.41969e-12
-3.67188e-13 -2.41969e-12 485.854

452.618 -23.396 8.35036e-13
-23.396 494.974 9.13936e-13
8.35036e-13 9.13936e-13 483.611

443.268 23.3542 -7.57912e-13
23.3542 397.535 9.29627e-14
-7.57912e-13 9.29627e-14 400.39

530.986 23.8586 -2.54611e-14
23.8586 488.025 1.62063e-12
-2.54611e-14 1.62063e-12 507.266

428.498 -31.3155 -1.42938e-12
-31.3155 410.892 3.55449e-12
-1.42938e-12 3.55449e-12 398.835

519.879 -3.23154 3.48196e-12
-3.23154 469.078 2.50466e-13
3.48196e-12 2.50466e-13 502.705

439.419 -34.1604 2.2092e-12
-34.1604 485.525 -2.71812e-12
2.2092e-12 -2.71812e-12 485.843

389.2 8.32046 9.18524e-14
8.32046 452.348 -3.11455e-13
9.18524e-14 -3.11455e-13 400.872

385.895 21.813 7.13503e-14
21.813 435.792 2.96533e-12
7.13503e-14 2.96533e-12 388.711

383.863 35.778 3.64508e-12
35.778 362.346 -6.60805e-13
3.64508e-12 -6.60805e-13 318.341

408.2 1.57887 -7.22385e-14
1.57887 332.168 4.25637e-12
-7.22385e-14 4.25637e-12 327.338

485.475 -22.8049 1.78435e-12
-22.8049 502.877 7.18203e-13
1.78435e-12 7.18203e-13 501.767

351.892 31.1857 2.2536e-12
31.1857 388.847 4.66353e-12
2.2536e-12 4.66353e-12 312.37

451.369 23.6108 2.73855e-12
23.6108 478.433 3.21106e-12
2.73855e-12 3.21106e-12 465.232

442.216 -5.34988 -2.23821e-12
-5.34988 377.141 -1.56912e-12
-2.23821e-12 -1.56912e-12 387.754

464.176 11.2167 -4.95011e-13
11.2167 407.316 -5.19851e-12
-4.95011e-13 -5.19851e-12 424.94

505.399 0.42989 -2.02075e-12
0.42989 421.594 1.8802e-12
-2.02075e-12 1.8802e-12 485.694

449.37 -29.0305 -8.18308e-13
-29.0305 502.016 -2.404e-13
-8.18308e-13 -2.404e-13 493.607

572.518 -6.31838 2.02445e-12
-6.31838 589.493 -6.91891e-13
2.02445e-12 -6.91891e-13 549.265

463.16 37.4107 4.62386e-12
37.4107 487.046 1.51653e-12
4.62386e-12 1.51653e-12 493.083

408.755 1.66337 -2.55559e-12
1.66337 331.615 -6.60065e-13
-2.55559e-12 -6.60065e-13 308.917

404.251 -32.7891 -2.23051e-12
-32.7891 415.526 -2.53131e-12
-2.23051e-12 -2.53131e-12 387.406

443.162 36.6123 -2.6934e-13
36.6123 485.526 6.41413e-13
-2.6934e-13 6.41413e-13 486.591

444.696 -11.1341 6.09883e-13
-11.1341 498.954 -3.67765e-12
6.09883e-13 -3.67765e-12 471.459

386.089 -25.5163 -4.54747e-13
-25.5163 428.919 2.90967e-12
-4.54747e-13 2.90967e-12 384.58

449.47 28.8295 -6.75571e-13
28.8295 501.65 1.88649e-12
-6.75571e-13 1.88649e-12 493.306

452.73 -26.1434 1.84504e-12
-26.1434 419.32 -3.42955e-12
1.84504e-12 -3.42955e-12 419.535

579.561 10.4838 6.33567e-14
10.4838 582.171 -8.73198e-12
6.33567e-14 -8.73198e-12 549.05

398.345 30.874 2.70125e-12
30.874 422.076 -1.26003e-12
2.70125e-12 -1.26003e-12 388.179

515.725 8.12638 1.39148e-14
8.12638 437.289 -1.49036e-12
1.39148e-14 -1.49036e-12 494.6

493.823 30.1909 -5.48006e-13
30.1909 484.766 1.9309e-12
-5.48006e-13 1.9309e-12 493.819

453.484 23.3327 -3.18856e-13
23.3327 479.183 -5.35572e-13
-3.18856e-13 -5.35572e-13 475.817

510.717 -32.4876 -6.41916e-12
-32.4876 512.469 1.96658e-12
-6.41916e-12 1.96658e-12 515.022

510.326 -23.1911 9.14232e-13
-23.1911 473.198 -2.08426e-13
9.14232e-13 -2.08426e-13 489.694

511.415 10.4698 -9.82991e-13
10.4698 558.005 -8.72191e-13
-9.82991e-13 -8.72191e-13 523.746

452.191 -23.4346 1.80123e-12
-23.4346 480.185 -1.29615e-12
1.80123e-12 -1.29615e-12 468.969

394.426 -9.70846 1.09424e-12
-9.70846 316.425 3.58632e-12
1.09424e-12 3.58632e-12 295.587

387.306 -14.278 2.76638e-12
-14.278 306.07 4.6203e-12
2.76638e-12 4.6203e-12 290.061

547.597 16.5303 4.21707e-12
16.5303 507.778 -3.01537e-12
4.21707e-12 -3.01537e-12 519.335

436.505 22.5029 3.33689e-12
22.5029 469.156 1.29674e-12
3.33689e-12 1.29674e-12 447.841

475.981 29.1643 8.95284e-13
29.1643 467.663 -3.77209e-12
8.95284e-13 -3.77209e-12 471.496

450.321 0.6887 -1.73491e-12
0.6887 392.793 5.88497e-12
-1.73491e-12 5.88497e-12 395.691

478.366 6.57075 -3.305e-12
6.57075 541.294 -3.15185e-12
-3.305e-12 -3.15185e-12 507.555

507.35 16.5407 -4.21233e-12
16.5407 461.153 -1.33079e-12
-4.21233e-12 -1.33079e-12 488.097

389.993 -25.7628 1.77162e-12
-25.7628 430.054 9.87654e-13
1.77162e-12 9.87654e-13 387.75

456.335 -2.5721 -1.37024e-12
-2.5721 517.032 1.14871e-13
-1.37024e-12 1.14871e-13 484.857

400.606 13.3661 -5.84895e-12
13.3661 453.005 -1.8936e-12
-5.84895e-12 -1.8936e-12 404.652

486.931 -29.7142 -4.1626e-13
-29.7142 465.831 -2.65358e-12
-4.1626e-13 -2.65358e-12 474.275

430.316 -29.9493 -1.70945e-12
-29.9493 423.646 3.61074e-12
-1.70945e-12 3.61074e-12 404.971

399.727 31.6249 -2.61243e-12
31.6249 418.249 2.24768e-12
-2.61243e-12 2.24768e-12 386.018

624.004 -15.0196 2.37825e-12
-15.0196 581.955 6.24397e-12
2.37825e-12 6.24397e-12 557.915

494.536 2.0417 1.24441e-12
2.0417 552.157 4.86722e-13
1.24441e-12 4.86722e-13 517.94

483.518 20.2992 -2.01439e-12
20.2992 542.056 1.9987e-12
-2.01439e-12 1.9987e-12 516.046

544.719 15.4383 1.00468e-12
15.4383 479.987 1.35536e-12
1.00468e-12 1.35536e-12 515.768

473.766 -26.1896 -2.45433e-12
-26.1896 479.774 4.06667e-12
-2.45433e-12 4.06667e-12 483.035

452.144 17.9582 2.83388e-12
17.9582 404.524 -4.11996e-12
2.83388e-12 -4.11996e-12 406.934

531.59 -5.29336 2.48964e-12
-5.29336 580.81 -3.16724e-12
2.48964e-12 -3.16724e-12 537.13

512.205 -18.988 1.87317e-12
-18.988 464.811 2.59348e-12
1.87317e-12 2.59348e-12 493.045

473.995 -15.5995 5.37052e-13
-15.5995 423.193 2.34213e-12
5.37052e-13 2.34213e-12 438.897

402.016 11.604 1.35714e-12
11.604 455.977 3.90799e-13
1.35714e-12 3.90799e-13 407.796

410.94 -25.7358 9.4443e-13
-25.7358 435.599 1.01134e-12
9.4443e-13 1.01134e-12 398.972

532.063 -25.2739 1.26536e-12
-25.2739 523.205 1.54321e-12
1.26536e-12 1.54321e-12 519.133

423.074 31.9614 1.9534e-12
31.9614 417.265 4.39589e-12
1.9534e-12 4.39589e-12 400.321

535.496 -25.1343 -4.90511e-12
-25.1343 505.802 2.5618e-12
-4.90511e-12 2.5618e-12 515.674

453.513 2.5975 1.01015e-12
2.5975 397.035 4.91044e-12
1.01015e-12 4.91044e-12 401.914

311.111 -28.9322 -1.17595e-12
-28.9322 376.612 -4.43142e-12
-1.17595e-12 -4.43142e-12 290.007

431.893 -29.2327 -2.52835e-12
-29.2327 424.065 -5.07268e-12
-2.52835e-12 -5.07268e-12 406.17

353.775 32.1608 -3.12639e-13
32.1608 392.56 6.21725e-12
-3.12639e-13 6.21725e-12 312.981

470.362 -11.8765 -1.51083e-13
-11.8765 529.568 -1.48622e-12
-1.51083e-13 -1.48622e-12 500.319

391.466 -13.8222 5.09666e-13
-13.8222 449.272 9.78181e-13
5.09666e-13 9.78181e-13 400.215

602.86 -23.9864 1.6455e-12
-23.9864 602.272 4.05779e-12
1.6455e-12 4.05779e-12 557.855

408.388 23.7723 -2.54256e-12
23.7723 441.959 2.77822e-12
-2.54256e-12 2.77822e-12 402.239

496.594 -32.7263 5.89869e-12
-32.7263 490.657 -2.53042e-12
5.89869e-12 -2.53042e-12 497.463

388.205 -11.9638 -2.0961e-12
-11.9638 448.304 7.30675e-13
-2.0961e-12 7.30675e-13 397.032

516.728 -19.1167 -2.35219e-12
-19.1167 465.771 -9.56272e-14
-2.35219e-12 -9.56272e-14 496.26

410.703 23.8786 3.39817e-12
23.8786 439.331 -4.19694e-12
3.39817e-12 -4.19694e-12 400.715

488.94 -4.97562 -7.86334e-13
-4.97562 435.089 -3.63513e-12
-7.86334e-13 -3.63513e-12 460.401

305.793 -30.344 -6.98582e-12
-30.344 391.454 2.58638e-12
-6.98582e-12 2.58638e-12 262.581

438.628 21.015 1.83823e-12
21.015 473.933 -4.1022e-12
1.83823e-12 -4.1022e-12 458.367

445.708 -19.3244 1.7503e-12
-19.3244 393.994 1.67274e-13
1.7503e-12 1.67274e-13 399.641

551.618 -21.4457 -7.89206e-12
-21.4457 499.533 -3.10655e-12
-7.89206e-12 -3.10655e-12 520.119

424.489 31.7559 4.29642e-12
31.7559 413.341 -8.5798e-13
4.29642e-12 -8.5798e-13 397.977

459.183 -29.9731 -3.59475e-12
-29.9731 437.657 2.49578e-13
-3.59475e-12 2.49578e-13 439.319

510.64 20.8857 -4.38997e-12
20.8857 476.091 -3.52607e-13
-4.38997e-12 -3.52607e-13 492.775

461.526 -28.0761 9.26814e-13
-28.0761 485.763 -6.16544e-13
9.26814e-13 -6.16544e-13 488.739

413.74 -26.2268 2.66868e-12
-26.2268 436.266 1.0741e-12
2.66868e-12 1.0741e-12 401.458

426.096 28.9828 3.16784e-12
28.9828 429.919 -8.45546e-13
3.16784e-12 -8.45546e-13 406.881

452.523 26.1927 -1.40924e-13
26.1927 418.247 2.11683e-12
-1.40924e-13 2.11683e-12 419.079

521.99 -14.6108 -1.19786e-12
-14.6108 477.197 -3.13823e-14
-1.19786e-12 -3.13823e-14 500.084

403.581 -16.6187 2.76579e-12
-16.6187 451.766 -7.1528e-13
2.76579e-12 -7.1528e-13 406.463

496.069 -17.5686 1.32871e-12
-17.5686 447.628 -2.13844e-12
1.32871e-12 -2.13844e-12 471.522

487.788 16.9092 6.27646e-13
16.9092 436.279 -1.31006e-12
6.27646e-13 -1.31006e-12 460.61

513.358 -9.38594 -8.08102e-12
-9.38594 555.795 -2.57868e-12
-8.08102e-12 -2.57868e-12 523.047

454.002 -13.4307 -1.74438e-12
-13.4307 402.198 -7.4043e-12
-1.74438e-12 -7.4043e-12 406.763

403.222 0.594158 -4.91459e-13
0.594158 465.749 1.62241e-12
-4.91459e-13 1.62241e-12 417.826

475.05 18.5557 1.59221e-12
18.5557 428.793 5.03212e-12
1.59221e-12 5.03212e-12 442.242

451.165 27.6054 2.85164e-12
27.6054 421.86 6.21399e-12
2.85164e-12 6.21399e-12 420.864

400.889 -15.6871 -1.59073e-12
-15.6871 451.405 -8.43177e-13
-1.59073e-12 -8.43177e-13 403.757

406.021 -1.20227 1.14679e-12
-1.20227 468.058 -5.08038e-12
1.14679e-12 -5.08038e-12 421.241

516.219 29.1345 -4.35977e-12
29.1345 498.045 -2.88924e-12
-4.35977e-12 -2.88924e-12 504.896

441.726 -10.9226 -7.27862e-13
-10.9226 500.681 2.33532e-12
-7.27862e-13 2.33532e-12 471.17

451.463 -26.7168 -6.62581e-13
-26.7168 418.787 4.52675e-12
-6.62581e-13 4.52675e-12 419.374

444.41 21.3338 9.71075e-13
21.3338 395.318 -4.31181e-12
9.71075e-13 -4.31181e-12 398.221

497.618 23.6658 1.10963e-12
23.6658 458.111 -8.21565e-13
1.10963e-12 -8.21565e-13 476.572

447.704 5.47125 -2.1679e-12
5.47125 508.813 4.54747e-13
-2.1679e-12 4.54747e-13 476.903

427.672 29.0673 5.1988e-13
29.0673 426.457 2.82796e-12
5.1988e-13 2.82796e-12 405.131

536.84 22.9639 -1.05752e-12
22.9639 531.914 -7.29343e-13
-1.05752e-12 -7.29343e-13 522.803

314.765 -59.6945 -2.54611e-12
-59.6945 282.782 -8.91139e-12
-2.54611e-12 -8.91139e-12 223.435

480.618 -25.049 1.55609e-12
-25.049 445.094 9.38508e-13
1.55609e-12 9.38508e-13 456.668

336.68 7.0703 1.64964e-12
7.0703 409.176 -2.72848e-12
1.64964e-12 -2.72848e-12 319.457

460.562 -28.8907 -1.56675e-12
-28.8907 444.759 1.62833e-13
-1.56675e-12 1.62833e-13 443.475

96.4278 -52.703 -1.81188e-12
-52.703 306.63 2.6148e-12
-1.81188e-12 2.6148e-12 113.705

95.9617 51.4536 9.11863e-13
51.4536 306.895 4.26326e-14
9.11863e-13 4.26326e-14 114.493

181.524 117.159 -1.0966e-12
117.159 226.085 -4.73695e-15
-1.0966e-12 -4.73695e-15 113.593

182.822 -117.101 6.43278e-12
-117.101 223.321 -5.07328e-12
6.43278e-12 -5.07328e-12 113.567

321.596 -1.36343 -3.65219e-12
-1.36343 84.6569 1.93468e-14
-3.65219e-12 1.93468e-14 114.934

274.444 -91.129 1.00897e-12
-91.129 127.423 -3.74219e-13
1.00897e-12 -3.74219e-13 113.807

275.141 91.6569 -4.358e-13
91.6569 128.256 -3.51245e-12
-4.358e-13 -3.51245e-12 114.578

525.261 14.331 -4.36984e-13
14.331 474.732 4.15668e-13
-4.36984e-13 4.15668e-13 502.335

556.813 25.5359 7.17263e-12
25.5359 541.198 -8.37256e-13
7.17263e-12 -8.37256e-13 533.467

492.117 6.60639 2.69296e-12
6.60639 439.143 1.77266e-12
2.69296e-12 1.77266e-12 471.425

470.323 21.7858 6.55772e-12
21.7858 424.538 2.20564e-13
6.55772e-12 2.20564e-13 438.216

409.996 17.7455 -9.579e-13
17.7455 461.097 5.14315e-12
-9.579e-13 5.14315e-12 425.064

448.034 28.9001 2.9902e-12
28.9001 424.727 3.38929e-12
2.9902e-12 3.38929e-12 420.771

487.172 -29.6644 5.04485e-13
-29.6644 465.65 -2.17604e-13
5.04485e-13 -2.17604e-13 474.611

449.391 28.0294 6.27054e-13
28.0294 421.093 2.00728e-13
6.27054e-13 2.00728e-13 418.663

402.984 -2.84153 -8.07206e-13
-2.84153 465.406 1.56912e-12
-8.07206e-13 1.56912e-12 417.562

555.819 -26.0968 -1.02881e-12
-26.0968 543.391 -5.87826e-12
-1.02881e-12 -5.87826e-12 533.711

405.522 -4.8628 -8.4451e-13
-4.8628 467.144 -4.66827e-12
-8.4451e-13 -4.66827e-12 420.621

522.312 23.0169 -8.61e-12
23.0169 499.763 2.42532e-12
-8.61e-12 2.42532e-12 507.99

423.4 26.8724 -3.69837e-12
26.8724 386.527 3.33955e-13
-3.69837e-12 3.33955e-13 373.046

480.132 -13.2162 -2.55603e-12
-13.2162 532.789 1.01726e-12
-2.55603e-12 1.01726e-12 512.022

484.222 13.7286 -4.24668e-12
13.7286 432.798 5.02117e-12
-4.24668e-12 5.02117e-12 456.897

457.392 -29.9891 2.51651e-13
-29.9891 436.999 5.24617e-13
2.51651e-13 5.24617e-13 437.855

454.332 -24.7148 1.01015e-12
-24.7148 416.826 1.32102e-12
1.01015e-12 1.32102e-12 419.874

547.422 -16.0755 -4.16941e-12
-16.0755 509.324 1.54543e-13
-4.16941e-12 1.54543e-13 519.403

475.996 27.9301 -3.32593e-12
27.9301 449.728 3.72946e-12
-3.32593e-12 3.72946e-12 456.947

469.125 23.9787 -2.00018e-12
23.9787 427.871 4.32661e-12
-2.00018e-12 4.32661e-12 439.852

432.45 -2.79286 -1.70001e-12
-2.79286 493.661 2.94342e-12
-1.70001e-12 2.94342e-12 457.129

417.628 5.87355 2.91341e-14
5.87355 479.582 -1.64254e-12
2.91341e-14 -1.64254e-12 440.199

463.036 2.64686 -1.52767e-12
2.64686 402.3 1.83183e-12
-1.52767e-12 1.83183e-12 422.343

438.671 -7.29014 -4.0122e-12
-7.29014 373.934 1.14131e-13
-4.0122e-12 1.14131e-13 381.238

454.867 30.4863 -2.35486e-12
30.4863 439.037 2.01735e-12
-2.35486e-12 2.01735e-12 437.858

478.489 -26.1567 -1.4122e-12
-26.1567 443.565 2.03985e-13
-1.4122e-12 2.03985e-13 454.668

525.721 -21.2546 -8.91435e-13
-21.2546 497.848 -4.29849e-12
-8.91435e-13 -4.29849e-12 508.639

437.755 -31.6355 -5.18933e-12
-31.6355 437.678 -8.43769e-13
-5.18933e-12 -8.43769e-13 426.881

417.612 -27.7873 2.85934e-12
-27.7873 444.419 -7.1226e-12
2.85934e-12 -7.1226e-12 419.71

430.669 29.889 3.70963e-12
29.889 442.767 -1.01726e-12
3.70963e-12 -1.01726e-12 426.519

416.246 -9.57841 7.70828e-13
-9.57841 475.236 -1.01844e-13
7.70828e-13 -1.01844e-13 436.477

428.916 -1.54509 5.08334e-12
-1.54509 491.892 -1.80004e-13
5.08334e-12 -1.80004e-13 454.017

445.203 5.74782 -5.539e-12
5.74782 508.067 7.41925e-13
-5.539e-12 7.41925e-13 474.936

414.64 -21.0904 1.8631e-12
-21.0904 458.432 -1.91432e-12
1.8631e-12 -1.91432e-12 426.087

496.892 24.1122 -1.0522e-12
24.1122 455.718 3.63472e-12
-1.0522e-12 3.63472e-12 474.615

483.398 -9.59023 -1.83794e-12
-9.59023 430.134 2.75513e-12
-1.83794e-12 2.75513e-12 455.243

415.654 7.4656 2.10217e-12
7.4656 477.145 1.8711e-12
2.10217e-12 1.8711e-12 436.935

443.976 -9.70126 1.51741e-12
-9.70126 501.527 1.27779e-12
1.51741e-12 1.27779e-12 471.029

433.196 -16.3315 -4.12322e-12
-16.3315 481.7 -1.32398e-12
-4.12322e-12 -1.32398e-12 455.69

463.564 -8.23967 1.12739e-12
-8.23967 406.356 -3.59387e-12
1.12739e-12 -3.59387e-12 421.492

494.456 -32.3468 1.92557e-12
-32.3468 487.638 9.93872e-13
1.92557e-12 9.93872e-13 496.272

422.966 9.32157 7.56136e-13
9.32157 479.116 2.25953e-12
7.56136e-13 2.25953e-12 441.002

564.373 -18.2129 -2.53664e-12
-18.2129 529.968 1.87006e-12
-2.53664e-12 1.87006e-12 531.849

309.063 24.8243 -8.0392e-12
24.8243 379.442 8.71599e-12
-8.0392e-12 8.71599e-12 289.813

501.72 -26.6267 -2.99671e-12
-26.6267 499.511 -2.28898e-12
-2.99671e-12 -2.28898e-12 501.221

515.67 -30.2029 -1.41457e-12
-30.2029 498.423 1.38526e-12
-1.41457e-12 1.38526e-12 504.939

429.244 -0.701095 1.21377e-12
-0.701095 492.018 6.762e-13
1.21377e-12 6.762e-13 454.167

474.906 -16.6233 -5.06143e-12
-16.6233 428.359 -3.02573e-13
-5.06143e-12 -3.02573e-13 441.979

462.327 12.8418 -1.43948e-12
12.8418 511.298 1.51582e-13
-1.43948e-12 1.51582e-13 489.143

240.787 -3.18091 4.73606e-12
-3.18091 360.705 2.76164e-12
4.73606e-12 2.76164e-12 226.977

432.426 14.2743 5.1165e-12
14.2743 485.381 1.06345e-12
5.1165e-12 1.06345e-12 456.905

458.135 -29.4909 1.04272e-12
-29.4909 443.194 -4.15312e-12
1.04272e-12 -4.15312e-12 440.785

304.201 25.1069 -3.51245e-12
25.1069 394.604 8.0315e-12
-3.51245e-12 8.0315e-12 264.354

603.56 26.0963 -6.49806e-12
26.0963 597.964 -2.065e-11
-6.49806e-12 -2.065e-11 558.172

608.293 -27.8055 -3.34444e-12
-27.8055 595.039 3.69675e-12
-3.34444e-12 3.69675e-12 558.306

463.517 -30.4205 -8.50875e-13
-30.4205 459.061 -1.20259e-12
-8.50875e-13 -1.20259e-12 459.095

434.607 -31.1621 2.64322e-12
-31.1621 436.383 -4.45806e-12
2.64322e-12 -4.45806e-12 424.684

474.126 20.8284 1.94037e-12
20.8284 431.937 -1.57889e-12
1.94037e-12 -1.57889e-12 443.996

465.247 15.007 -1.63366e-12
15.007 410.138 -6.897e-12
-1.63366e-12 -6.897e-12 427.485

646.073 3.08244 3.44621e-12
3.08244 645.731 4.96625e-12
3.44621e-12 4.96625e-12 574.632

649.893 -6.9985 1.30917e-11
-6.9985 641.401 6.7127e-12
1.30917e-11 6.7127e-12 575.161

497.014 4.82424 2.32525e-12
4.82424 442.058 3.33156e-12
2.32525e-12 3.33156e-12 477.436

443.58 6.73153 5.55134e-12
6.73153 503.014 -4.22062e-12
5.55134e-12 -4.22062e-12 471.073

441.993 6.73638 7.74133e-13
6.73638 502.539 -3.61311e-12
7.74133e-13 -3.61311e-12 469.796

321.551 58.6376 1.82609e-12
58.6376 281.136 1.91136e-12
1.82609e-12 1.91136e-12 225.088

420.251 -28.2017 2.66157e-12
-28.2017 444.047 5.13071e-12
2.66157e-12 5.13071e-12 421.054

520.601 17.9743 -8.55908e-13
17.9743 467.553 -1.39651e-12
-8.55908e-13 -1.39651e-12 499.532

473.006 9.54017 -2.9073e-12
9.54017 421.219 -8.62125e-13
-2.9073e-12 -8.62125e-13 436.226

440.654 -26.7249 7.77867e-12
-26.7249 450.751 -6.97042e-12
7.77867e-12 -6.97042e-12 433.438

469.301 -20.2389 2.05347e-12
-20.2389 422.738 2.62694e-12
2.05347e-12 2.62694e-12 437.199

312.488 60.2355 -2.58401e-12
60.2355 281.385 2.59585e-12
-2.58401e-12 2.59585e-12 223.226

492.704 31.0696 1.53122e-12
31.0696 489.064 -2.77733e-12
1.53122e-12 -2.77733e-12 493.16

410.885 -19.7874 -6.94733e-12
-19.7874 457.906 -1.5253e-12
-6.94733e-12 -1.5253e-12 423.52

474.152 28.8591 1.8409e-12
28.8591 449.654 -2.66809e-12
1.8409e-12 -2.66809e-12 456.541

430.978 -4.14524 -2.02668e-12
-4.14524 492.998 2.84276e-12
-2.02668e-12 2.84276e-12 456.49

423.953 19.6105 -4.03203e-12
19.6105 465.737 1.23634e-12
-4.03203e-12 1.23634e-12 434.131

452.772 30.5205 9.50351e-13
30.5205 443.621 -4.20345e-12
9.50351e-13 -4.20345e-12 439.631

428.666 -22.4747 -2.45078e-12
-22.4747 461.162 -3.49291e-12
-2.45078e-12 -3.49291e-12 433.836

443.598 -27.3542 -7.84558e-13
-27.3542 450.457 6.3037e-12
-7.84558e-13 6.3037e-12 435.069

294.792 11.2576 -3.35583e-13
11.2576 372.604 1.91373e-12
-3.35583e-13 1.91373e-12 258.115

357.316 -33.4584 5.41434e-12
-33.4584 389.138 -1.03266e-12
5.41434e-12 -1.03266e-12 314.145

419.68 -11.6912 -8.14164e-13
-11.6912 476.386 6.47186e-13
-8.14164e-13 6.47186e-13 439.368

478.421 26.4859 1.77103e-12
26.4859 446.822 5.69382e-12
1.77103e-12 5.69382e-12 456.107

452.369 29.4795 -1.35595e-12
29.4795 449.05 -1.40332e-13
-1.35595e-12 -1.40332e-13 442.423

426.831 -21.4353 1.4652e-12
-21.4353 461.809 -1.86162e-12
1.4652e-12 -1.86162e-12 432.653

422.953 -11.7832 -2.24768e-12
-11.7832 476.673 6.987e-13
-2.24768e-12 6.987e-13 439.951

457.73 28.4111 -1.84919e-12
28.4111 447.111 1.37372e-12
-1.84919e-12 1.37372e-12 442.594

425.128 -13.8787 1.13776e-12
-13.8787 476.444 2.77704e-13
1.13776e-12 2.77704e-13 442.128

311.28 27.8569 -3.87542e-12
27.8569 377.411 3.91509e-12
-3.87542e-12 3.91509e-12 290

485.189 -4.04083 7.75609e-13
-4.04083 545.069 4.29878e-13
7.75609e-13 4.29878e-13 511.057

433.008 31.0295 -8.12979e-13
31.0295 439.652 -1.45957e-12
-8.12979e-13 -1.45957e-12 426.042

509.333 14.9019 -4.38168e-13
14.9019 463.184 -1.01785e-12
-4.38168e-13 -1.01785e-12 488.628

516.943 -15.9282 -1.52559e-12
-15.9282 467.604 -2.46085e-12
-1.52559e-12 -2.46085e-12 493.945

383.945 -24.2061 -1.73136e-12
-24.2061 305.963 -2.62309e-12
-1.73136e-12 -2.62309e-12 285.369

442.302 -21.2682 -4.92821e-12
-21.2682 476.025 -3.36856e-12
-4.92821e-12 -3.36856e-12 459.344

447.851 26.6996 -5.26098e-12
26.6996 466.232 9.74628e-13
-5.26098e-12 9.74628e-13 457.865

522.994 -21.7277 -4.86722e-12
-21.7277 543.828 5.18385e-12
-4.86722e-12 5.18385e-12 525.328

579.594 14.1051 -7.273e-12
14.1051 617.629 -3.09915e-12
-7.273e-12 -3.09915e-12 557.068

620.215 9.44526 -1.02413e-11
9.44526 576.852 2.3744e-12
-1.02413e-11 2.3744e-12 556.886

523.489 32.7049 -3.49676e-12
32.7049 520.67 4.16245e-12
-3.49676e-12 4.16245e-12 519.544

414.913 26.0021 -5.17542e-12
26.0021 448.93 3.76173e-12
-5.17542e-12 3.76173e-12 420.398

478.12 26.6626 3.00145e-12
26.6626 444.792 -3.20988e-12
3.00145e-12 -3.20988e-12 455.53

332.38 45.1889 6.77147e-12
45.1889 349.507 -2.45966e-12
6.77147e-12 -2.45966e-12 286.755

571.402 -11.3424 -5.1202e-12
-11.3424 614.48 -4.2224e-12
-5.1202e-12 -4.2224e-12 554.61

641.33 -3.43224 -3.2511e-14
-3.43224 636.875 -4.85715e-12
-3.2511e-14 -4.85715e-12 572.409

634.91 -0.209432 -7.80546e-12
-0.209432 643.18 7.33376e-12
-7.80546e-12 7.33376e-12 572.236

272.976 -53.8055 -6.68976e-12
-53.8055 316.462 4.57826e-12
-6.68976e-12 4.57826e-12 220.92

566.654 -11.5994 5.90446e-12
-11.5994 562.138 -3.57669e-12
5.90446e-12 -3.57669e-12 540.916

563.783 8.8122 2.43346e-12
8.8122 586.975 -9.71075e-14
2.43346e-12 -9.71075e-14 546.856

478.268 -26.2006 2.81079e-12
-26.2006 440.464 3.2756e-12
2.81079e-12 3.2756e-12 453.504

494.367 1.01054 -2.03648e-12
1.01054 545.779 -2.16123e-13
-2.03648e-12 -2.16123e-13 514.077

447.674 -20.2688 -2.40682e-12
-20.2688 484.183 -1.10549e-12
-2.40682e-12 -1.10549e-12 470.66

506.325 6.25545 -3.13853e-12
6.25545 443.398 3.64642e-12
-3.13853e-12 3.64642e-12 486.148

461.297 15.5963 -2.79961e-12
15.5963 521.275 1.7882e-13
-2.79961e-12 1.7882e-13 497.578

471.201 7.19132 -2.99834e-13
7.19132 528.028 1.0143e-12
-2.99834e-13 1.0143e-12 497.711

493.787 20.3938 -2.05761e-12
20.3938 451.539 -4.85153e-12
-2.05761e-12 -4.85153e-12 469.773

241.076 -3.11391 -7.07745e-12
-3.11391 358.578 9.85996e-12
-7.07745e-12 9.85996e-12 227.075

463.724 -27.6251 -1.20248e-11
-27.6251 463.415 -2.40933e-12
-1.20248e-11 -2.40933e-12 461.214

488.367 -26.1174 2.79658e-12
-26.1174 481.62 -1.69879e-12
2.79658e-12 -1.69879e-12 485.891

497.56 -31.4837 5.10495e-12
-31.4837 489.981 2.91767e-13
5.10495e-12 2.91767e-13 499.002

355.617 32.7515 1.41161e-12
32.7515 285.792 1.85925e-13
1.41161e-12 1.85925e-13 248.379

563.896 -20.116 -3.35199e-12
-20.116 569.626 9.88765e-13
-3.35199e-12 9.88765e-13 542.588

337.663 54.3251 9.68707e-13
54.3251 356.675 -6.9799e-12
9.68707e-13 -6.9799e-12 258.888

477.093 -21.4391 2.15975e-13
-21.4391 506.512 2.60621e-12
2.15975e-13 2.60621e-12 500.266

504.797 14.6505 2.78829e-12
14.6505 452.01 -9.83362e-13
2.78829e-12 -9.83362e-13 481.583

449.855 -14.5734 -8.18308e-13
-14.5734 397.007 -5.10022e-12
-8.18308e-13 -5.10022e-12 400.861

452.617 24.0476 -1.12177e-12
24.0476 478.804 -1.82373e-12
-1.12177e-12 -1.82373e-12 467.871

493.69 20.4286 -5.73882e-12
20.4286 449.523 6.24952e-12
-5.73882e-12 6.24952e-12 469.364

505.583 11.3998 3.13497e-12
11.3998 564.432 4.99837e-12
3.13497e-12 4.99837e-12 526.73

475.919 -31.5811 3.04912e-12
-31.5811 470.379 -7.42902e-12
3.04912e-12 -7.42902e-12 475.086

559.286 19.8123 -4.19872e-12
19.8123 510.458 1.79975e-12
-4.19872e-12 1.79975e-12 526.506

439.981 -18.4444 -1.96258e-12
-18.4444 482.49 -3.33718e-12
-1.96258e-12 -3.33718e-12 459.172

465.919 4.2836 5.09146e-12
4.2836 526.129 6.08817e-12
5.09146e-12 6.08817e-12 495.531

588.651 9.92728 7.47965e-12
9.92728 552.475 -2.46203e-12
7.47965e-12 -2.46203e-12 545.205

590.434 -8.51399 -3.9968e-14
-8.51399 554.817 -5.12893e-12
-3.9968e-14 -5.12893e-12 545.722

382.329 18.5135 -4.52379e-12
18.5135 302.302 -1.14457e-12
-4.52379e-12 -1.14457e-12 286.149

502.702 7.96542 -1.38467e-12
7.96542 453.623 -1.36439e-12
-1.38467e-12 -1.36439e-12 487.788

232.825 7.74103 -1.7731e-12
7.74103 381.531 -2.72375e-12
-1.7731e-12 -2.72375e-12 187.195

236.994 -11.3858 1.80422e-12
-11.3858 387.225 -5.33854e-12
1.80422e-12 -5.33854e-12 189.459

249.297 56.4088 5.35276e-12
56.4088 354.791 -8.40809e-12
5.35276e-12 -8.40809e-12 184.032

505.036 -28.9512 -1.39444e-12
-28.9512 478.637 -6.22613e-13
-1.39444e-12 -6.22613e-13 491.365

258.483 -49.193 -3.49113e-12
-49.193 341.857 -1.74557e-12
-3.49113e-12 -1.74557e-12 220.745

249.303 -55.9513 4.46458e-12
-55.9513 344.766 -4.61379e-12
4.46458e-12 -4.61379e-12 181.124

434.677 26.2216 5.41493e-12
26.2216 454.416 -4.25141e-13
5.41493e-12 -4.25141e-13 432.846

329.937 73.8463 1.07529e-12
73.8463 280.021 5.31249e-12
1.07529e-12 5.31249e-12 184.836

540.142 13.0467 -1.51227e-12
13.0467 554.964 2.74447e-12
-1.51227e-12 2.74447e-12 532.095

562.4 0.0405981 4.05661e-12
0.0405981 532.47 -5.52417e-12
4.05661e-12 -5.52417e-12 531.888

338.616 -73.1317 -7.11964e-12
-73.1317 279.869 -5.24144e-12
-7.11964e-12 -5.24144e-12 186.318

432.692 -23.4252 2.61687e-12
-23.4252 466.334 4.62919e-12
2.61687e-12 4.62919e-12 447.594

358.948 34.731 1.01844e-12
34.731 310.99 1.95162e-12
1.01844e-12 1.95162e-12 258.05

267.716 63.4931 -1.38319e-12
63.4931 345.224 8.52651e-14
-1.38319e-12 8.52651e-14 185.854

293.706 21.6313 -3.48758e-12
21.6313 367.679 -1.27424e-12
-3.48758e-12 -1.27424e-12 254.51

267.587 -65.922 -5.34091e-12
-65.922 344.859 3.67587e-12
-5.34091e-12 3.67587e-12 184.309

291.653 -12.3817 4.45451e-12
-12.3817 370.9 5.4096e-12
4.45451e-12 5.4096e-12 253.455

550.32 6.84057 -5.25209e-13
6.84057 582.091 -2.11505e-12
-5.25209e-13 -2.11505e-12 541.134

329.905 -45.9774 1.03029e-13
-45.9774 341.832 9.6397e-13
1.03029e-13 9.6397e-13 276.628

259.793 47.5342 -1.77754e-12
47.5342 340.232 -7.17174e-12
-1.77754e-12 -7.17174e-12 223.156

370.231 37.9128 5.63697e-13
37.9128 244.93 8.92323e-12
5.63697e-13 8.92323e-12 187.365

481.913 -29.2869 4.23839e-12
-29.2869 460.534 6.22672e-12
4.23839e-12 6.22672e-12 467.736

480.996 12.8964 7.62279e-13
12.8964 525.851 -1.04243e-12
7.62279e-13 -1.04243e-12 504.124

354.435 -38.1144 -9.07126e-13
-38.1144 300.091 2.10794e-13
-9.07126e-13 2.10794e-13 251.827

482.557 -28.8032 -8.32519e-13
-28.8032 460.342 -4.2449e-12
-8.32519e-13 -4.2449e-12 468.485

365.278 -36.3447 9.00021e-14
-36.3447 230.998 1.07825e-12
9.00021e-14 1.07825e-12 182.778

481.525 -28.3185 3.08968e-12
-28.3185 472.777 -2.46706e-12
3.08968e-12 -2.46706e-12 477.94

436.376 -25.2962 -5.19348e-12
-25.2962 466.248 -2.38861e-12
-5.19348e-12 -2.38861e-12 448.232

314.811 69.4627 3.60956e-12
69.4627 292.154 4.62326e-12
3.60956e-12 4.62326e-12 184.532

290.795 -22.934 3.60956e-12
-22.934 359.181 6.15804e-14
3.60956e-12 6.15804e-14 247.041

312.413 -71.6948 2.84217e-14
-71.6948 288.134 4.628e-12
2.84217e-14 4.628e-12 182.035

268.558 50.7397 2.6669e-12
50.7397 320.074 -7.36122e-12
2.6669e-12 -7.36122e-12 221.515

459.884 -30.2135 -6.84845e-12
-30.2135 454.868 1.02839e-11
-6.84845e-12 1.02839e-11 454.422

559.302 -14.6407 -3.59949e-12
-14.6407 544.426 -7.91959e-13
-3.59949e-12 -7.91959e-13 533.734

635.925 11.0915 4.9533e-12
11.0915 631.389 -1.6569e-12
4.9533e-12 -1.6569e-12 570.032

619.963 -5.1602 3.21491e-12
-5.1602 639.742 4.83596e-12
3.21491e-12 4.83596e-12 568.51

453.891 13.0838 2.9484e-12
13.0838 506.578 -8.5798e-13
2.9484e-12 -8.5798e-13 482.594

634.155 -10.6658 6.76955e-12
-10.6658 631.319 -2.6857e-12
6.76955e-12 -2.6857e-12 569.887

622.701 4.09206 1.72869e-12
4.09206 642.687 1.13188e-11
1.72869e-12 1.13188e-11 569.711

643.379 7.4326 -7.57113e-12
7.4326 619.153 -2.83477e-13
-7.57113e-12 -2.83477e-13 569.034

584.785 -12.1138 4.13532e-12
-12.1138 631.673 -5.61062e-12
4.13532e-12 -5.61062e-12 560.607

307.458 -30.4719 -3.5764e-12
-30.4719 371.651 -3.46508e-12
-3.5764e-12 -3.46508e-12 280.784

589.637 -12.9721 2.10469e-12
-12.9721 549.126 -5.35572e-12
2.10469e-12 -5.35572e-12 543.842

527.225 -34.4168 -1.46845e-13
-34.4168 521.504 -4.52793e-12
-1.46845e-13 -4.52793e-12 519.984

565.478 -18.1772 5.24854e-12
-18.1772 538.005 -3.13823e-12
5.24854e-12 -3.13823e-12 534.275

502.593 15.4599 -1.65556e-12
15.4599 452.137 6.98019e-12
-1.65556e-12 6.98019e-12 480.228

586.357 9.86326 1.74024e-12
9.86326 642.139 1.72573e-12
1.74024e-12 1.72573e-12 563.117

636.662 19.2262 1.8147e-12
19.2262 591.731 3.74352e-12
1.8147e-12 3.74352e-12 562.938

569.79 11.3074 6.60953e-12
11.3074 544.354 6.15212e-13
6.60953e-12 6.15212e-13 536.453

353.459 -15.3404 4.67063e-12
-15.3404 231.526 -2.56328e-12
4.67063e-12 -2.56328e-12 219.025

437.228 24.9655 -1.67333e-12
24.9655 461.936 3.30994e-12
-1.67333e-12 3.30994e-12 445.744

317.104 -61.3578 4.97854e-12
-61.3578 277.861 3.73982e-12
4.97854e-12 3.73982e-12 218.099

334.224 -57.4599 7.20017e-12
-57.4599 357.339 -2.55322e-12
7.20017e-12 -2.55322e-12 252.552

383.352 -36.5459 2.34479e-12
-36.5459 305.753 -8.30151e-13
2.34479e-12 -8.30151e-13 257.772

562.508 -5.1588 -7.82189e-13
-5.1588 616.959 1.22243e-12
-7.82189e-13 1.22243e-12 552.965

562.216 2.89132 -2.36344e-12
2.89132 615.824 -2.35856e-12
-2.36344e-12 -2.35856e-12 552.564

598.779 -24.4544 -2.94017e-12
-24.4544 575.754 8.85218e-14
-2.94017e-12 8.85218e-14 551.593

602.338 -21.7584 -3.20062e-12
-21.7584 573.444 8.76336e-13
-3.20062e-12 8.76336e-13 551.859

598.792 26.1339 -7.60873e-14
26.1339 580.469 4.25504e-12
-7.60873e-14 4.25504e-12 552.749

625.747 3.0981 -9.63674e-14
3.0981 630.74 3.49746e-12
-9.63674e-14 3.49746e-12 568.433

599.068 -20.5074 -6.82121e-13
-20.5074 576.365 3.66803e-12
-6.82121e-13 3.66803e-12 552.282

607.818 -18.5671 -2.23599e-12
-18.5671 620.268 -1.08321e-13
-2.23599e-12 -1.08321e-13 563.199

632.905 2.43351 -6.95207e-12
2.43351 635.53 -1.80836e-11
-6.95207e-12 -1.80836e-11 570.518

607.895 -20.5245 -4.02656e-12
-20.5245 572.438 9.82917e-13
-4.02656e-12 9.82917e-13 553.421

607.08 20.954 -4.11952e-12
20.954 573.696 2.09018e-12
-4.11952e-12 2.09018e-12 553.824

633.857 -3.45746 7.2579e-13
-3.45746 636.781 3.44894e-12
7.2579e-13 3.44894e-12 571.292

632.186 -3.1157 4.87003e-12
-3.1157 625.762 7.06768e-12
4.87003e-12 7.06768e-12 569.407

609.689 12.1095 -1.02804e-11
12.1095 620.49 1.29048e-11
-1.02804e-11 1.29048e-11 563.93

587.213 26.928 3.57758e-12
26.928 583.028 -3.24931e-12
3.57758e-12 -3.24931e-12 551.717

FIELD solute_concentration_TPM 2
S_ext 1 563 float
0.899089
0.89892
0.898937
0.89892
0.898897
0.898937
0.899089
0.898929
0.898951
0.898923
0.899053
0.898929
0.898932
0.898922
0.898903
0.898935
0.898916
0.898928
0.898955
0.898939
0.898945
0.898857
0.898941
0.898939
0.898939
0.898925
0.899044
0.898935
0.898997
0.898878
0.898933
0.898996
0.899049
0.898884
0.898883
0.898884
0.898875
0.898885
0.898934
0.899049
0.898996
0.898874
0.898874
0.898933
0.899026
0.898996
0.898953
0.898949
0.898936
0.899004
0.899
0.898983
0.898896
0.898984
0.898897
0.899031
0.898883
0.898983
0.898883
0.898938
0.898915
0.898909
0.899041
0.898911
0.898909
0.89892
0.898914
0.898925
0.89894
0.898919
0.898896
0.898896
0.898998
0.898917
0.898937
0.899052
0.898905
0.89892
0.898925
0.898977
0.899013
0.898894
0.898912
0.899014
0.898996
0.899029
0.898935
0.89892
0.899026
0.898864
0.898983
0.898865
0.898902
0.898922
0.898983
0.899
0.899014
0.898923
0.898905
0.898934
0.898967
0.898993
0.899014
0.898925
0.898924
0.898923
0.898911
0.898935
0.899015
0.898915
0.898938
0.899023
0.899018
0.898926
0.898924
0.898984
0.898886
0.899016
0.898886
0.898983
0.898959
0.898903
0.898919
0.898915
0.898915
0.898902
0.898889
0.898923
0.899014
0.898982
0.898895
0.898919
0.898911
0.898919
0.898994
0.898883
0.899024
0.898932
0.898911
0.898883
0.898991
0.898927
0.898959
0.898923
0.899017
0.898924
0.898928
0.898939
0.898937
0.89897
0.898948
0.898919
0.898995
0.898932
0.898923
0.898919
0.898921
0.898991
0.89899
0.898929
0.898948
0.898994
0.899025
0.898998
0.898989
0.898923
0.89899
0.898991
0.898996
0.898989
0.898902
0.898983
0.899
0.89892
0.898983
0.898911
0.898902
0.89893
0.898897
0.898926
0.898997
0.898923
0.898923
0.89899
0.898918
0.899001
0.898915
0.898913
0.898903
0.898923
0.898918
0.899012
0.898983
0.898996
0.898919
0.898927
0.898926
0.898911
0.898919
0.898921
0.898919
0.898954
0.898976
0.898912
0.898998
0.898911
0.898921
0.898993
0.898908
0.898919
0.898909
0.898924
0.898925
0.898912
0.898969
0.898923
0.898975
0.898913
0.898915
0.898915
0.898915
0.898915
0.898915
0.898915
0.898923
0.898903
0.898903
0.898902
0.898903
0.898898
0.898897
0.89897
0.898922
0.898919
0.89895
0.898904
0.898903
0.898919
0.898975
0.898919
0.898923
0.898969
0.898907
0.89897
0.898912
0.898918
0.898968
0.898974
0.899013
0.899006
0.898911
0.899019
0.898933
0.898975
0.898954
0.898919
0.898915
0.898875
0.898915
0.899022
0.898974
0.898918
0.898929
0.898976
0.898915
0.898958
0.898875
0.898975
0.898915
0.898917
0.898926
0.898904
0.89892
0.898897
0.898931
0.899024
0.899029
0.898902
0.898943
0.898929
0.898971
0.898907
0.89892
0.898974
0.898921
0.898966
0.898928
0.898967
0.898975
0.898868
0.898901
0.898901
0.898901
0.898923
0.898966
0.898886
0.898917
0.898948
0.898965
0.89897
0.8989
0.898969
0.898904
0.898969
0.899026
0.898966
0.899017
0.898912
0.898968
0.898868
0.898969
0.898915
0.89897
0.898916
0.898969
0.898936
0.899047
0.898936
0.898969
0.898899
0.898969
0.898947
0.898918
0.898919
0.898969
0.898966
0.898958
0.898914
0.898966
0.89893
0.898935
0.898898
0.898966
0.898959
0.898946
0.898958
0.898967
0.898957
0.89891
0.898929
0.898959
0.898969
0.898927
0.898926
0.898966
0.898898
0.899059
0.898938
0.899013
0.898945
0.899113
0.899113
0.899111
0.899111
0.899108
0.899117
0.899117
0.898912
0.89889
0.898929
0.898948
0.898954
0.898958
0.898928
0.898958
0.898959
0.898891
0.898958
0.898909
0.898983
0.898904
0.898937
0.898948
0.898959
0.898902
0.898938
0.898947
0.898938
0.898947
0.898956
0.898978
0.898948
0.898939
0.898908
0.898954
0.898957
0.898954
0.898948
0.898939
0.898927
0.898954
0.898928
0.898938
0.898948
0.898929
0.898938
0.898957
0.898915
0.898946
0.89889
0.899026
0.898912
0.898911
0.898939
0.898947
0.898919
0.899059
0.898937
0.898947
0.899046
0.898871
0.898872
0.898936
0.898955
0.898945
0.898954
0.898858
0.898857
0.898926
0.89893
0.89893
0.899064
0.898956
0.898914
0.89895
0.898951
0.898949
0.899059
0.898917
0.898955
0.898938
0.898938
0.898951
0.898947
0.898951
0.89895
0.899047
0.899017
0.898947
0.898938
0.898946
0.898951
0.898947
0.898946
0.898946
0.899027
0.898905
0.898954
0.89892
0.898916
0.899029
0.898936
0.898937
0.898899
0.898866
0.898866
0.8989
0.898957
0.898938
0.899029
0.898868
0.898856
0.898856
0.899061
0.898885
0.898877
0.89894
0.898904
0.89893
0.898921
0.898914
0.898914
0.898931
0.899059
0.898935
0.898922
0.898914
0.899053
0.898881
0.899052
0.898912
0.898925
0.898968
0.898932
0.898931
0.898894
0.898927
0.898894
0.898936
0.898915
0.898881
0.898881
0.899031
0.89892
0.899091
0.899091
0.899091
0.898918
0.899065
0.899092
0.898952
0.89909
0.898893
0.898893
0.89909
0.898942
0.89905
0.899095
0.899049
0.899095
0.899049
0.898884
0.899035
0.899063
0.899089
0.898932
0.89891
0.899052
0.898931
0.899089
0.898926
0.898942
0.899095
0.899053
0.899096
0.89906
0.898939
0.89889
0.898856
0.898857
0.898923
0.898856
0.898856
0.898857
0.898865
0.899032
0.89888
0.898901
0.898891
0.898925
0.898864
0.898863
0.89889
0.89906
0.898944
0.899067
0.899056
0.899048
0.898869
0.898869
0.89887
0.89887
0.898869
0.89886
0.898874
0.898865
0.89886
0.898872
0.898871
0.898859
0.898859
0.898864
0.898873
P_ext 1 563 float
0.0158019
0.015798
0.0157986
0.015798
0.0157966
0.0157985
0.0158019
0.0157983
0.015799
0.015798
0.0158012
0.0157983
0.0157984
0.015798
0.0157969
0.0157985
0.0157977
0.0157982
0.0157991
0.0157987
0.0157988
0.015794
0.0157987
0.0157986
0.0157987
0.0157981
0.015801
0.0157984
0.0158001
0.0157953
0.0157984
0.0158001
0.0158011
0.0157958
0.0157958
0.0157958
0.0157952
0.0157959
0.0157984
0.0158011
0.0158001
0.0157952
0.0157952
0.0157984
0.0158007
0.0158001
0.015799
0.0157989
0.0157985
0.0158003
0.0158001
0.0157998
0.0157965
0.0157998
0.0157966
0.0158008
0.0157957
0.0157998
0.0157958
0.0157986
0.0157977
0.0157974
0.015801
0.0157974
0.0157973
0.0157978
0.0157977
0.0157982
0.0157987
0.0157979
0.0157965
0.0157966
0.0158001
0.0157976
0.0157986
0.0158012
0.015797
0.0157978
0.0157981
0.0157996
0.0158004
0.0157964
0.0157975
0.0158005
0.0158001
0.0158008
0.0157985
0.0157977
0.0158007
0.0157942
0.0157998
0.0157941
0.0157969
0.0157978
0.0157998
0.0158002
0.0158005
0.0157981
0.015797
0.0157984
0.0157994
0.0158
0.0158004
0.0157982
0.0157981
0.0157981
0.0157974
0.0157985
0.0158005
0.0157977
0.0157986
0.0158006
0.0158005
0.0157982
0.0157981
0.0157998
0.0157958
0.0158005
0.0157958
0.0157998
0.0157992
0.015797
0.0157979
0.0157977
0.0157977
0.0157969
0.0157959
0.015798
0.0158005
0.0157997
0.0157965
0.015798
0.0157975
0.015798
0.0158
0.0157957
0.0158007
0.0157983
0.0157974
0.0157957
0.0158
0.0157981
0.0157991
0.015798
0.0158005
0.0157981
0.0157981
0.0157985
0.0157986
0.0157994
0.0157988
0.0157979
0.0158
0.0157984
0.015798
0.015798
0.0157979
0.0158
0.0157999
0.0157983
0.0157989
0.0158
0.0158007
0.0158001
0.0157999
0.0157981
0.0158
0.0158
0.0158001
0.0157999
0.0157969
0.0157998
0.0158002
0.0157979
0.0157998
0.0157974
0.0157969
0.0157982
0.0157966
0.0157981
0.0158001
0.0157981
0.0157981
0.0157999
0.0157977
0.0158002
0.0157977
0.0157975
0.0157969
0.0157981
0.0157977
0.0158004
0.0157998
0.0158001
0.015798
0.0157983
0.0157982
0.0157975
0.0157979
0.0157978
0.0157979
0.0157991
0.0157996
0.0157975
0.0158001
0.0157975
0.0157978
0.0158
0.0157972
0.0157979
0.0157972
0.015798
0.0157981
0.0157974
0.0157994
0.015798
0.0157996
0.0157975
0.0157977
0.0157977
0.0157977
0.0157978
0.0157978
0.0157978
0.015798
0.015797
0.015797
0.015797
0.015797
0.0157965
0.0157965
0.0157995
0.015798
0.0157979
0.015799
0.0157969
0.0157969
0.0157979
0.0157996
0.015798
0.0157981
0.0157995
0.0157972
0.0157995
0.0157974
0.015798
0.0157994
0.0157996
0.0158004
0.0158003
0.0157975
0.0158006
0.0157984
0.0157996
0.015799
0.015798
0.0157977
0.0157952
0.0157977
0.0158006
0.0157996
0.0157979
0.0157982
0.0157996
0.0157977
0.0157991
0.0157952
0.0157996
0.0157977
0.0157977
0.0157982
0.0157969
0.0157977
0.0157966
0.0157984
0.0158007
0.0158008
0.0157968
0.0157988
0.0157982
0.0157995
0.0157972
0.0157979
0.0157996
0.0157979
0.0157994
0.0157981
0.0157994
0.0157996
0.0157947
0.0157968
0.0157969
0.0157969
0.015798
0.0157994
0.0157959
0.0157978
0.0157988
0.0157994
0.0157995
0.0157968
0.0157995
0.0157969
0.0157995
0.0158007
0.0157993
0.0158005
0.0157974
0.0157994
0.0157946
0.0157995
0.0157975
0.0157995
0.0157976
0.0157994
0.0157985
0.0158011
0.0157986
0.0157995
0.0157967
0.0157994
0.0157988
0.0157977
0.0157979
0.0157994
0.0157994
0.0157991
0.0157975
0.0157994
0.0157982
0.0157985
0.0157966
0.0157994
0.0157992
0.0157988
0.0157992
0.0157994
0.0157991
0.0157973
0.0157983
0.0157992
0.0157994
0.0157981
0.0157981
0.0157994
0.0157967
0.0158013
0.0157985
0.0158004
0.0157988
0.0158023
0.0158023
0.0158023
0.0158023
0.0158022
0.0158024
0.0158024
0.0157974
0.0157961
0.0157983
0.0157988
0.0157991
0.0157992
0.0157981
0.0157991
0.0157992
0.015796
0.0157991
0.0157972
0.0157998
0.0157971
0.0157985
0.0157989
0.0157992
0.0157968
0.0157985
0.0157988
0.0157985
0.0157988
0.0157991
0.0157996
0.0157988
0.0157986
0.0157972
0.015799
0.0157992
0.0157991
0.0157989
0.0157986
0.0157981
0.0157991
0.0157981
0.0157986
0.0157989
0.0157982
0.0157986
0.0157991
0.0157976
0.0157988
0.0157962
0.0158007
0.0157975
0.0157972
0.0157986
0.0157989
0.0157978
0.0158013
0.0157985
0.0157988
0.0158011
0.0157947
0.0157947
0.0157985
0.0157991
0.0157988
0.0157991
0.0157937
0.0157937
0.0157982
0.0157982
0.0157982
0.0158014
0.0157991
0.0157975
0.015799
0.015799
0.0157989
0.0158013
0.0157977
0.0157991
0.0157985
0.0157985
0.015799
0.0157989
0.015799
0.0157989
0.0158011
0.0158005
0.0157988
0.0157985
0.0157988
0.015799
0.0157989
0.0157988
0.0157988
0.0158007
0.015797
0.015799
0.0157978
0.0157977
0.0158007
0.0157985
0.0157986
0.0157966
0.0157946
0.0157947
0.0157967
0.0157992
0.0157985
0.0158008
0.0157948
0.0157939
0.0157939
0.0158014
0.0157958
0.0157953
0.0157986
0.015797
0.0157983
0.015798
0.0157976
0.0157975
0.0157982
0.0158013
0.0157985
0.0157979
0.0157976
0.0158012
0.0157956
0.0158012
0.0157976
0.015798
0.0157994
0.0157984
0.0157983
0.0157964
0.0157982
0.0157964
0.0157986
0.0157976
0.0157954
0.0157954
0.0158008
0.0157979
0.0158019
0.0158019
0.0158019
0.0157977
0.0158014
0.0158019
0.015799
0.0158019
0.0157964
0.0157964
0.0158019
0.0157987
0.0158012
0.015802
0.0158011
0.015802
0.0158011
0.0157958
0.0158009
0.0158014
0.0158019
0.0157983
0.0157974
0.0158012
0.0157983
0.0158019
0.0157981
0.0157987
0.015802
0.0158012
0.015802
0.0158013
0.0157986
0.0157961
0.0157939
0.015794
0.015798
0.0157939
0.0157939
0.015794
0.0157944
0.0158008
0.0157955
0.0157967
0.0157961
0.015798
0.0157943
0.0157943
0.0157961
0.0158013
0.0157988
0.0158015
0.0158013
0.0158011
0.0157949
0.0157949
0.015795
0.0157949
0.0157949
0.015794
0.015795
0.0157943
0.0157939
0.0157948
0.0157948
0.0157939
0.015794
0.0157943
0.015795
FIELD solute_flux_TPM 2
S_ext 3 563 float
-4.91766e-05 1.64329e-05 1.37954e-18
2.33869e-06 4.32392e-06 -2.1766e-18
-7.90298e-06 -6.21527e-06 3.66075e-18
-2.60964e-06 2.64367e-06 -1.83714e-18
1.50766e-05 -4.3452e-06 5.17648e-19
1.67121e-06 -9.82691e-06 -1.00337e-18
-4.84263e-05 -1.66329e-05 4.58466e-19
-8.76123e-06 -6.39171e-06 1.83874e-18
1.35737e-05 5.98181e-07 3.46761e-18
7.19496e-06 -2.61495e-06 8.37856e-19
3.28089e-05 7.63467e-06 -3.73093e-18
1.35733e-06 -1.07769e-05 -5.05551e-19
8.61728e-06 6.88319e-06 -3.17555e-18
1.7989e-06 8.65501e-06 -1.84182e-18
1.36694e-05 -2.05983e-06 1.02349e-18
-9.97897e-06 -1.62663e-07 -2.00415e-18
1.91494e-06 9.04869e-06 -4.98926e-19
6.36132e-06 -1.55428e-06 2.17554e-18
6.04636e-06 1.0526e-05 -4.92958e-19
-9.08359e-06 1.16305e-06 -1.32639e-18
-2.12596e-06 -1.30643e-05 9.98066e-19
2.86232e-05 4.03926e-05 4.34434e-21
9.72513e-06 1.0054e-06 4.95825e-19
7.00063e-06 -6.94136e-06 -1.65759e-19
-9.21327e-06 -2.0723e-06 3.82831e-18
-3.20343e-07 -6.96379e-06 1.17041e-18
3.76437e-05 -2.93489e-06 -3.60814e-18
8.85884e-06 6.37544e-06 1.00252e-18
-1.49996e-05 -1.21994e-05 -2.71262e-21
3.23665e-05 -8.60036e-06 1.92052e-18
-1.01839e-05 -3.8549e-06 -1.70345e-19
3.22562e-06 -1.92456e-05 -4.83222e-19
2.82399e-05 -2.87724e-05 -6.28523e-19
-3.46285e-06 -2.75958e-05 -1.03574e-18
-1.95514e-05 2.42857e-05 1.04129e-18
-2.56298e-05 -1.07874e-05 -1.54044e-18
2.14925e-05 2.80963e-05 -2.25976e-18
-2.95007e-05 -5.81444e-06 -2.06798e-18
9.10352e-06 -6.79158e-06 2.17518e-18
2.75918e-05 2.99814e-05 -3.92097e-18
1.93784e-05 -8.45758e-06 -1.93102e-18
2.19082e-05 -2.70458e-05 1.376e-18
-1.24753e-05 -3.24739e-05 3.14874e-18
-9.73998e-06 4.05009e-06 2.3467e-18
1.81225e-05 -1.77198e-05 -1.26549e-18
-1.798e-05 6.38589e-06 1.72276e-19
-2.48409e-06 -1.23704e-05 2.64678e-18
4.7987e-06 1.23309e-05 -2.98534e-18
-1.00997e-05 3.72042e-06 4.67502e-18
-1.07812e-05 1.69692e-05 -1.11402e-18
1.95449e-05 9.17627e-06 -1.76743e-18
1.7722e-05 -6.17651e-06 1.13421e-18
-1.0355e-05 1.03174e-05 -5.04618e-19
-1.40447e-05 -1.21688e-05 6.59384e-19
-1.3896e-05 -3.44266e-06 3.43248e-19
-2.63662e-05 1.57216e-05 -2.8522e-18
-1.93574e-05 -2.49962e-05 1.21396e-18
3.68603e-06 -1.83509e-05 4.89711e-19
-3.13348e-05 4.3081e-06 -1.03521e-18
3.71941e-06 8.45998e-06 -3.15744e-18
-3.51012e-06 -5.35903e-06 -1.51743e-18
-4.15541e-06 -1.17129e-05 -1.86017e-18
3.40174e-05 1.48113e-05 -2.37418e-18
6.15158e-06 1.16691e-05 6.85055e-19
8.12038e-06 -9.33752e-06 4.98509e-19
-1.18971e-06 -1.32465e-05 -5.11454e-19
3.10503e-06 -5.66306e-06 -2.03035e-18
-6.24075e-06 -3.56448e-06 -1.70103e-19
-6.56105e-06 7.25983e-06 1.01314e-18
1.58253e-06 -2.73197e-06 -1.34632e-18
-9.92518e-06 -1.03762e-05 5.22103e-19
-1.40171e-05 3.45291e-06 3.4654e-19
-2.30812e-06 2.04861e-05 -2.24796e-18
-1.14093e-05 6.86463e-06 4.40266e-18
-5.60589e-06 8.90798e-06 2.34767e-18
-3.51226e-05 4.38999e-06 -1.56974e-18
5.22356e-06 -1.40393e-05 -2.39674e-18
-1.21025e-05 -5.5126e-06 3.02679e-18
1.12618e-06 7.30156e-06 -5.69318e-18
1.59911e-05 3.06096e-06 -1.68035e-19
2.0441e-05 -1.73897e-05 -4.16066e-18
1.47013e-05 1.34551e-05 -1.3727e-18
7.84681e-06 -1.97986e-06 -1.65881e-19
-1.90318e-05 1.39386e-05 -1.11242e-18
2.27743e-05 2.93183e-06 4.91633e-19
-3.27248e-06 2.91408e-05 3.22694e-19
-1.04655e-06 -1.047e-05 1.16751e-18
1.17e-05 6.29593e-06 4.05596e-18
1.7429e-05 1.82428e-05 -2.05092e-18
4.25095e-05 2.64305e-05 5.61943e-18
-3.2332e-06 1.84407e-05 -9.67729e-19
4.44061e-05 -2.49552e-05 -7.0615e-19
-1.78022e-05 3.35193e-06 -1.02375e-18
1.14741e-05 7.17292e-06 1.85456e-18
-1.76075e-05 5.89285e-06 6.56808e-19
9.91012e-06 1.71785e-05 2.89684e-18
5.87419e-06 -2.63418e-05 1.44296e-18
1.14674e-06 7.3001e-06 -3.17953e-18
-9.48125e-06 -1.15124e-05 -6.71029e-19
1.81199e-06 1.08331e-05 -3.49854e-18
1.60552e-05 3.24595e-06 2.78232e-18
-9.24017e-06 1.96944e-05 -1.93473e-18
2.42663e-05 -8.10369e-06 -1.91076e-18
-2.37095e-06 4.57985e-06 2.52324e-18
6.38245e-06 3.6183e-06 -9.98179e-19
-1.33463e-06 -7.08358e-06 -2.85705e-18
2.21284e-06 -1.24806e-05 -2.5483e-18
1.08713e-05 2.49289e-06 -1.67711e-18
-4.88248e-06 2.43869e-05 2.24141e-18
-6.40447e-06 5.85432e-08 -6.562e-19
5.82664e-06 7.31314e-06 -2.15946e-18
-1.59722e-06 -2.48456e-05 7.94913e-19
2.51574e-05 7.8317e-06 -2.86706e-18
2.79309e-06 -4.60205e-06 1.33706e-18
-6.90398e-06 -2.29553e-06 -2.18607e-18
-1.73842e-05 -7.42877e-06 -2.11505e-18
1.0567e-05 2.7684e-05 3.8139e-18
-2.54035e-05 -9.06524e-06 9.65945e-19
1.07144e-05 -2.77581e-05 3.28828e-18
-2.2265e-06 -1.91053e-05 2.44629e-18
1.33786e-05 3.58122e-07 2.6292e-18
-4.67066e-06 1.21541e-05 -3.06988e-18
-1.07209e-06 2.48563e-06 2.86907e-18
-2.5173e-06 -1.06209e-05 -1.01248e-18
3.37588e-06 -5.55773e-06 -1.34581e-18
6.20845e-06 1.03699e-05 1.70936e-18
2.22432e-05 7.30753e-06 1.03595e-18
5.58231e-06 -4.59956e-06 1.84485e-18
-5.01783e-06 -2.66613e-05 -1.43724e-18
1.54548e-05 -1.13576e-05 -2.11582e-18
3.30148e-06 1.8277e-05 -3.35681e-19
-1.72437e-06 -1.85225e-06 -1.17567e-18
-5.6743e-06 -5.36537e-06 -1.68708e-18
-3.06464e-06 1.19842e-07 2.01391e-18
-1.36261e-05 1.68058e-05 -2.42437e-18
1.29202e-05 -2.4891e-05 1.72857e-18
-1.58231e-05 2.50233e-05 -3.1299e-19
-1.01015e-05 5.9507e-06 4.19069e-18
1.58822e-06 8.08635e-06 -3.21712e-18
-1.50683e-05 -2.36149e-05 1.22693e-18
8.25914e-06 2.00296e-05 -4.8258e-19
1.1213e-05 5.74954e-06 4.02915e-18
1.39606e-05 -5.31648e-06 1.48347e-18
-8.79865e-07 -7.0857e-06 -1.68903e-19
-1.99546e-05 -1.83486e-05 1.59251e-19
-1.61651e-06 7.09931e-06 -1.83985e-18
1.09761e-05 6.49986e-06 -1.71683e-19
1.17972e-05 -5.64922e-06 1.4962e-18
5.17221e-06 -8.80707e-06 1.33553e-18
1.48411e-05 -6.5614e-06 4.91267e-19
1.17667e-05 -5.57289e-06 3.9734e-18
3.06374e-06 2.55687e-07 -5.08244e-19
1.54487e-05 1.22311e-05 4.84104e-19
-1.57348e-06 -1.05495e-05 -1.69363e-19
-6.64799e-06 -2.6771e-06 3.01609e-18
7.91155e-07 -2.4434e-06 -1.17866e-18
-2.15832e-06 1.00118e-05 -3.52757e-18
-2.05511e-05 1.63529e-06 2.12106e-18
-7.24905e-06 -1.97223e-05 -2.91711e-18
-4.88637e-06 6.00595e-06 1.01431e-18
8.34312e-06 1.01326e-05 1.16131e-18
1.59443e-05 -1.13759e-05 -1.12836e-18
-2.17576e-05 -1.18099e-05 1.90642e-18
1.03635e-05 -1.65956e-05 -3.19994e-19
1.36764e-05 -1.63443e-05 -3.40046e-18
-6.79729e-06 2.47463e-06 1.64649e-19
-1.18129e-05 -1.69943e-05 -2.10744e-18
-2.05306e-05 -3.43121e-06 3.56801e-18
-2.48059e-06 -1.89118e-05 2.26313e-18
9.16989e-06 -1.89825e-05 1.95084e-18
-6.07856e-06 -1.71292e-05 1.876e-18
2.62325e-06 1.88131e-05 -9.69824e-19
-9.52413e-06 -1.68896e-05 -3.69754e-18
2.05576e-06 -1.03386e-05 -2.19309e-18
-1.47739e-05 1.07319e-05 -3.15513e-19
-9.66032e-06 -7.92829e-06 -3.20902e-18
-1.79204e-05 -3.24258e-06 3.07047e-18
9.90147e-06 -5.84796e-06 1.67602e-18
-2.77365e-06 1.57687e-05 -3.946e-18
7.915e-06 -5.8163e-06 -1.70003e-19
-1.75506e-05 -7.68529e-06 3.21025e-19
-5.60449e-06 -4.57872e-06 -2.01733e-18
5.83943e-06 4.63815e-06 -1.16359e-18
1.28504e-05 1.72159e-05 -6.49511e-19
-1.1078e-05 -6.92418e-06 8.38446e-19
-1.92263e-05 -4.67278e-07 4.02672e-18
-1.05664e-05 -3.04514e-06 1.51378e-18
-3.01271e-06 -1.0633e-05 1.69147e-18
1.16372e-05 1.4169e-05 1.71043e-18
-6.97786e-06 3.56107e-06 -2.00399e-18
4.88898e-07 -1.30924e-05 -3.38544e-18
-2.46101e-05 6.33191e-06 4.84926e-19
1.50373e-05 1.21865e-05 -2.27994e-18
2.19152e-06 1.9676e-05 -4.77582e-19
-1.48077e-06 2.48185e-06 -1.68613e-18
-5.56162e-06 1.54725e-07 -6.73841e-19
2.74164e-06 4.78799e-06 -2.83211e-18
-7.60821e-06 2.31068e-06 6.75457e-19
-1.35646e-06 -2.36458e-06 1.84682e-18
1.18635e-06 1.32e-05 -2.69443e-18
2.93631e-06 1.73088e-07 -3.34875e-18
-1.18277e-05 2.87332e-06 2.81003e-18
-1.04452e-05 1.15523e-05 3.36319e-19
-1.93734e-06 7.57682e-06 -3.45508e-19
-1.73807e-05 1.08584e-05 1.70226e-19
-6.1564e-06 5.78782e-06 -3.25461e-19
1.11044e-05 -7.65267e-06 3.87747e-18
2.20083e-05 -2.2009e-06 1.29666e-18
-1.37492e-05 7.27441e-06 6.86286e-19
1.3723e-06 2.94893e-06 1.64578e-19
1.43601e-05 -2.6762e-06 1.1856e-18
-1.08996e-05 6.67764e-06 3.36834e-18
-6.13675e-06 3.5581e-06 1.00474e-18
7.85105e-06 2.59916e-06 -2.88055e-18
1.33052e-05 -8.26211e-06 -4.42197e-18
-1.10096e-05 6.23133e-06 4.88906e-18
-1.49628e-05 -3.14784e-06 -2.44533e-18
-1.0774e-05 -2.70285e-06 2.70405e-18
6.56828e-06 1.22152e-07 -2.02347e-18
6.72076e-06 3.83405e-09 -2.34694e-18
2.94161e-06 5.36432e-06 -1.51368e-18
3.22335e-06 -5.6651e-06 -5.13987e-19
-3.18258e-06 5.5334e-06 -5.14164e-19
-3.3265e-06 -5.65687e-06 -1.68155e-18
6.25445e-06 -4.84638e-06 2.85429e-18
-1.33737e-05 2.1943e-06 -1.37715e-23
-1.32222e-05 -2.23581e-06 -4.97802e-19
-8.49655e-06 1.04235e-05 1.82648e-19
-8.54231e-06 -1.04617e-05 1.03288e-18
4.91418e-06 -1.32921e-05 1.71325e-18
4.73473e-06 1.31816e-05 2.40523e-18
9.23184e-07 1.56649e-05 -2.28575e-18
7.26988e-06 -1.81594e-06 -1.34678e-18
1.56746e-06 -2.4207e-06 -1.17824e-18
-1.29132e-05 8.9583e-07 1.82557e-18
5.06488e-06 -1.30791e-05 -6.78304e-19
4.80027e-06 1.31253e-05 -4.47136e-22
3.04961e-06 -5.62916e-08 9.99816e-19
5.38228e-06 1.47683e-05 -2.60856e-18
-1.41475e-06 -2.5284e-06 2.0045e-18
1.4153e-06 -7.11932e-06 -1.17609e-18
-1.34834e-05 -7.21502e-06 -1.63759e-18
-1.38977e-05 -7.41351e-06 1.69861e-18
-1.31721e-05 8.17104e-06 -1.14241e-18
2.05977e-06 -8.18222e-06 1.35528e-18
-1.00648e-06 2.1084e-06 -3.22654e-19
-4.46037e-07 -1.54193e-05 1.15234e-18
-4.72068e-06 -1.46303e-05 -1.46025e-18
1.95636e-05 1.81872e-05 -3.36116e-18
2.13894e-05 -1.09612e-06 -3.52652e-18
-8.28604e-06 -2.47505e-06 -3.03126e-18
-1.35999e-05 -2.42351e-05 -3.22543e-19
5.17455e-06 8.47753e-06 -4.16856e-18
-1.5077e-05 1.77937e-06 1.3105e-18
1.23446e-05 3.5439e-06 1.81052e-18
-2.85178e-06 -1.19927e-08 -1.67639e-18
-3.07543e-06 -5.43368e-06 -1.1741e-18
-5.42531e-06 -2.57765e-05 1.74471e-19
-6.32527e-06 3.52543e-08 2.85921e-18
-2.8276e-05 -1.06037e-06 1.44396e-18
1.04668e-05 -1.16179e-05 -8.12276e-19
1.59542e-06 2.50761e-06 1.52396e-18
-1.05841e-07 -1.09672e-05 -1.50464e-18
-5.99148e-06 1.44057e-05 -8.07449e-19
-2.90034e-06 5.56942e-06 1.18995e-18
1.26339e-05 -8.29861e-06 -8.2806e-19
-2.50332e-05 -8.16948e-06 2.62397e-18
-9.20771e-06 -1.21692e-05 -9.77381e-19
3.22015e-06 5.56865e-06 5.00073e-19
1.08648e-05 3.11022e-06 3.2114e-18
-2.94637e-06 -4.50603e-06 4.99357e-19
1.32143e-05 2.46221e-06 -2.55717e-18
1.17791e-05 -6.26138e-06 2.86757e-18
-2.27251e-07 1.7767e-05 -1.1937e-18
5.2042e-06 -8.44584e-06 -8.38409e-19
2.9216e-05 1.22764e-06 -1.74092e-18
-2.48276e-05 6.45955e-06 1.90336e-18
1.51687e-05 7.5364e-06 7.36083e-18
-3.93016e-06 -1.04574e-05 1.49344e-18
-9.60212e-06 -5.32575e-06 3.5103e-18
1.74453e-05 -1.41729e-07 2.94303e-18
-4.9178e-07 -1.57867e-05 -1.72305e-19
-7.8826e-06 -7.03686e-06 1.00905e-18
6.15239e-06 -1.4234e-05 -1.79259e-18
-4.03738e-07 1.30508e-05 1.73478e-19
4.7099e-06 1.57479e-05 -3.2766e-18
1.09834e-05 -6.32859e-06 2.84937e-18
-1.14343e-05 1.14694e-05 -4.85401e-19
9.97914e-06 1.21504e-05 -1.62935e-18
-4.32237e-05 1.03e-05 7.09006e-19
-6.74449e-06 1.70183e-05 -2.21069e-18
8.29799e-06 -1.00014e-05 1.17796e-18
-4.55592e-06 -1.21127e-05 -6.69015e-19
-7.54207e-06 2.69371e-06 -3.22683e-19
-1.54585e-05 -4.26086e-06 -1.8032e-18
-4.46631e-06 2.59239e-05 2.5936e-18
-7.9402e-06 7.78651e-06 5.03938e-19
1.28163e-05 -2.87332e-06 3.27606e-19
-4.11618e-06 -1.55264e-05 2.339e-21
-8.95086e-06 1.42473e-05 1.64642e-18
-1.41994e-05 8.20334e-06 -8.54125e-19
-1.23582e-05 -9.0249e-06 -1.13877e-18
1.18755e-05 -1.38446e-05 2.04449e-18
-1.63841e-05 -8.74424e-07 1.68185e-19
7.15996e-06 -2.44715e-05 1.65719e-19
1.18182e-05 -1.14483e-05 2.79593e-18
1.46285e-05 2.56788e-05 -1.59225e-18
1.3058e-06 1.28251e-05 1.53122e-18
1.7799e-06 -1.53874e-05 8.23662e-19
-2.81042e-05 3.30173e-05 -3.3743e-19
-7.62919e-06 -1.45819e-05 1.97461e-18
1.07729e-05 -4.07156e-06 -3.04934e-18
-1.54587e-06 1.55064e-05 -1.46259e-18
8.29221e-06 -7.88807e-06 1.01489e-18
8.37192e-06 1.46662e-05 6.6177e-19
1.06927e-05 -9.4796e-07 2.00346e-18
1.27675e-05 -3.7363e-05 1.10524e-18
-3.58536e-06 -7.89617e-06 -3.10532e-21
-1.39237e-05 5.97532e-06 1.15154e-18
-1.31284e-05 1.23382e-05 -2.73076e-18
1.31217e-05 8.88429e-06 3.26287e-19
1.15678e-05 -6.71523e-06 2.48815e-18
9.53469e-06 8.22524e-06 3.04112e-18
-3.52845e-06 -7.43823e-08 8.53627e-19
9.30884e-06 -1.39416e-05 2.13414e-18
-1.02414e-05 -1.21514e-05 1.48077e-18
1.38015e-05 6.03616e-06 3.95383e-18
8.28742e-06 -7.87242e-06 4.74677e-18
5.7134e-06 -1.5027e-05 6.55097e-19
1.04702e-05 -4.55465e-06 2.85436e-18
-9.76324e-06 -4.69148e-06 6.66006e-19
9.00993e-07 -1.71692e-05 -1.20498e-18
-1.55924e-05 2.71877e-06 3.45425e-18
1.36022e-06 1.49003e-05 -2.46485e-18
1.2707e-05 4.18083e-06 3.64838e-18
-1.30966e-05 -6.49547e-06 -1.31391e-18
-5.39785e-06 1.53886e-05 -3.76849e-18
-8.81611e-07 -1.47022e-05 1.1572e-18
1.2729e-05 7.7618e-06 1.0218e-18
-9.56628e-07 1.13445e-05 5.05746e-19
-1.22165e-05 8.18122e-06 -8.16851e-19
1.43455e-05 6.91961e-06 2.61467e-18
-1.06628e-05 -6.40625e-06 8.37202e-19
2.23732e-07 -1.24933e-05 -2.69194e-18
1.11906e-05 1.20773e-05 -3.34771e-19
-1.44081e-05 -9.3519e-06 1.88655e-18
2.88463e-05 -2.06305e-05 1.24455e-18
1.12626e-05 -6.72064e-06 1.82905e-18
5.16288e-06 2.56056e-05 1.12923e-18
1.06241e-05 -8.37819e-06 4.31673e-18
-1.33822e-05 5.16756e-05 7.41788e-19
-1.3451e-05 -5.11852e-05 2.06839e-18
3.36481e-05 4.39609e-05 -7.40042e-19
3.32446e-05 -4.39502e-05 -2.07544e-18
5.49266e-05 -2.74845e-08 -1.92045e-18
-4.72564e-05 1.916e-05 4.47566e-19
-4.64913e-05 -1.93593e-05 2.91305e-19
7.94245e-06 7.76564e-06 1.86458e-18
1.96169e-05 1.46428e-05 3.45123e-18
7.1575e-06 2.14697e-06 1.33711e-18
1.17073e-05 6.00834e-06 3.21735e-19
3.02131e-06 1.23331e-05 -2.13904e-18
-1.14364e-05 -8.95571e-06 1.49107e-18
1.09586e-05 -6.36384e-06 5.02814e-19
1.22087e-05 8.84583e-06 -8.25378e-19
-1.89432e-06 1.47968e-05 -6.53014e-19
1.9718e-05 -1.34405e-05 2.74825e-18
2.21683e-06 -1.4442e-05 1.69295e-19
1.44349e-05 3.22065e-06 1.53013e-18
1.8023e-05 6.72293e-06 1.13786e-18
9.39521e-06 9.25137e-06 -5.10217e-18
9.90688e-06 4.15449e-06 1.32705e-18
-1.13134e-05 6.69016e-06 1.17068e-18
-1.36084e-05 5.50046e-06 9.93005e-19
1.52284e-05 -7.38868e-06 2.56045e-18
-1.12458e-05 -6.2204e-06 1.33432e-18
-1.13635e-05 -6.41401e-06 9.99637e-19
-1.52307e-07 -1.28805e-05 -3.30904e-19
-1.01645e-07 -1.29937e-05 -1.82328e-18
-1.21463e-05 -6.16748e-07 2.31459e-18
1.62262e-05 -2.45672e-06 -3.30015e-19
1.12045e-05 7.02994e-06 3.31315e-18
-1.10764e-05 6.67465e-06 3.51178e-18
-9.83897e-06 1.08704e-05 1.53341e-18
9.85984e-06 -8.46063e-06 4.29507e-18
-6.72816e-06 1.05327e-05 -4.83522e-19
-8.64904e-06 -8.99172e-06 4.12783e-18
-7.48062e-07 1.29691e-05 -1.55998e-19
-7.09645e-07 1.29988e-05 1.50577e-18
1.18633e-08 -1.2495e-05 -1.67959e-18
3.72281e-06 -1.20553e-05 -1.15478e-18
-1.07864e-05 -6.18053e-06 2.51411e-18
9.6878e-06 -3.47533e-06 -6.68906e-19
4.16689e-07 1.31939e-05 -4.47184e-18
1.89955e-07 1.15771e-05 3.38966e-19
-1.42534e-06 1.03826e-05 2.00928e-18
1.34095e-05 -3.39911e-06 -8.28865e-19
-1.07396e-05 3.28464e-06 3.89285e-18
2.45141e-06 1.32064e-05 -1.1549e-18
-2.15736e-05 8.42708e-06 1.20827e-18
5.6229e-06 2.5e-05 -2.21411e-18
-1.10069e-05 2.83683e-06 8.51233e-19
1.29345e-05 -7.67243e-06 1.35239e-18
4.96603e-07 1.30261e-05 -3.49737e-18
-1.24207e-05 4.15638e-06 9.99565e-19
1.64658e-06 -1.03104e-05 -1.18523e-18
5.60895e-07 -3.45441e-05 -1.38619e-18
1.20389e-06 1.0853e-05 -3.82697e-18
-1.04317e-05 8.44351e-06 1.67196e-18
1.02932e-05 3.78475e-05 -2.99228e-18
3.14649e-05 2.61034e-05 4.89376e-18
3.60833e-05 -2.46866e-05 1.04639e-18
9.33053e-06 -6.34565e-06 6.67311e-19
-9.62704e-06 8.47934e-06 1.56815e-20
-1.22878e-05 -4.91462e-06 1.49884e-18
-1.1906e-05 -4.12471e-06 1.68727e-19
4.44331e-05 -1.22146e-05 3.36775e-18
4.53185e-05 9.53185e-06 5.8443e-18
6.81661e-06 2.43919e-06 4.02175e-18
3.40689e-07 1.22775e-05 -4.96983e-19
6.42698e-08 1.22723e-05 -1.50476e-18
-2.87613e-05 -2.10617e-05 -1.39272e-18
6.98738e-06 -1.04897e-05 -3.33525e-19
7.57027e-06 8.25951e-06 1.0155e-18
-1.29223e-05 -2.11279e-06 9.94369e-19
-8.57635e-06 1.03424e-05 2.49871e-18
-1.15299e-05 5.56037e-06 1.6616e-18
2.84893e-05 2.04316e-05 -7.79859e-19
1.0267e-05 4.48496e-06 -6.76226e-19
-3.42061e-06 1.21384e-05 -8.13899e-19
-1.05641e-05 -7.14951e-06 4.50114e-18
1.05008e-06 -1.276e-05 -1.99892e-18
-5.39975e-06 -1.17e-05 2.4825e-18
-1.05341e-05 -7.16405e-06 4.14728e-18
6.45225e-06 -1.15468e-05 1.82122e-18
8.73185e-06 -1.0342e-05 2.48435e-18
-1.74996e-06 -3.61579e-05 -3.45286e-18
1.54767e-05 -2.45285e-05 7.99327e-19
1.06972e-06 -1.27576e-05 -9.94245e-19
1.12923e-05 6.99869e-06 8.3404e-19
-8.91382e-06 -8.98493e-06 3.1567e-18
-5.96509e-06 1.19252e-05 -6.5318e-19
-3.01159e-06 1.28413e-05 1.83538e-18
1.03465e-05 8.68081e-06 -1.63089e-19
3.63852e-06 -1.22005e-05 -1.20101e-21
-8.3011e-06 -2.37815e-05 4.77038e-19
-1.37622e-06 1.63181e-05 -3.57371e-18
9.09041e-06 8.85499e-06 -9.93677e-19
-8.14014e-06 -6.53628e-06 -2.3594e-18
-8.61455e-06 6.81961e-06 3.38231e-18
2.66065e-05 -1.14144e-05 -1.41727e-18
4.66627e-06 -8.26605e-06 2.83086e-18
-5.15742e-06 -7.69416e-06 1.3262e-18
1.42328e-05 4.38503e-06 -3.25701e-18
8.80918e-06 -3.1775e-05 3.42761e-19
-2.3119e-05 -2.34948e-05 1.59129e-18
1.55047e-05 4.00994e-06 3.92771e-18
-5.67921e-06 -1.10368e-05 3.7883e-18
1.16879e-05 6.01298e-06 1.6612e-18
-1.71171e-05 -1.90244e-05 -1.26032e-18
7.13562e-06 3.22996e-05 -1.56504e-18
3.13389e-05 -4.04912e-05 1.41336e-18
-1.93994e-05 -4.73748e-05 1.42224e-20
1.61083e-05 -3.14588e-05 -2.00998e-18
-8.35479e-06 2.88286e-05 2.08484e-18
-4.7814e-06 2.55081e-05 -5.16847e-19
-1.15432e-05 5.60712e-06 6.72462e-19
4.02677e-06 1.57665e-05 6.857e-19
-1.42929e-06 7.81652e-06 1.34543e-18
6.4157e-06 2.13976e-06 6.71457e-19
-2.19727e-06 1.04416e-05 -1.00637e-18
-1.43309e-07 1.34807e-05 -3.21074e-18
1.05216e-05 6.15047e-06 3.3001e-19
5.14808e-07 3.43806e-05 -2.78825e-18
-9.14738e-06 6.48944e-06 3.18459e-18
1.02579e-05 -3.85717e-06 8.3912e-19
1.11213e-05 -2.7524e-06 -1.52745e-18
-3.52392e-05 -5.08464e-06 -2.16839e-22
-2.28499e-05 1.08805e-05 -1.71955e-19
-2.55635e-05 -3.03179e-05 -1.5807e-19
5.67897e-06 5.37017e-06 -3.38579e-19
8.98151e-06 4.77866e-06 -8.41309e-19
1.62841e-05 -2.63634e-06 1.47068e-18
-4.99512e-06 -8.12698e-06 2.6733e-18
1.08235e-05 5.43687e-06 -1.34656e-18
4.8793e-06 -1.97909e-05 -2.41302e-18
-8.71024e-06 6.25524e-06 6.21558e-18
-1.46945e-05 -1.4116e-05 1.38603e-18
-3.52343e-06 1.00394e-05 9.58616e-21
-2.25151e-06 1.32688e-05 -2.8694e-18
2.28372e-05 1.41737e-05 2.08448e-18
2.43545e-05 -1.29089e-05 2.0788e-18
-2.4684e-05 -6.64024e-06 -7.89598e-19
4.80023e-06 5.02713e-06 8.401e-19
-2.85556e-06 5.99869e-05 -1.69371e-18
7.39727e-09 -6.16167e-05 -4.63505e-19
3.03735e-05 5.1979e-05 -4.466e-18
-1.22954e-05 5.25742e-06 6.8062e-19
-1.63144e-05 3.29519e-05 -7.73918e-19
3.05615e-05 -5.01702e-05 6.13453e-19
-7.13783e-06 -1.10108e-05 4.46738e-18
4.64761e-05 4.04355e-05 -7.72939e-19
1.59043e-05 -1.17776e-05 1.70486e-18
-2.26478e-06 -1.96497e-05 8.76608e-19
4.86946e-05 -3.95392e-05 -1.54089e-18
-4.14177e-06 8.86479e-06 1.34284e-18
-3.12636e-05 -1.98563e-05 -1.53488e-19
-2.56897e-05 -5.36476e-05 -1.85457e-18
-1.45597e-05 -3.40358e-05 -2.34064e-18
-2.64108e-05 5.45251e-05 1.57026e-19
-6.25505e-06 3.7809e-05 -3.28907e-18
1.06926e-05 2.46939e-05 -1.69369e-19
-1.6812e-05 2.15997e-05 -2.51406e-18
-1.56129e-05 -3.20834e-05 -6.13322e-19
5.97841e-05 1.04954e-05 -1.23436e-18
-1.06392e-05 6.58315e-06 6.70781e-18
-3.919e-06 1.05058e-05 -1.51988e-18
-2.96541e-05 2.13457e-05 -7.89634e-19
-1.07935e-05 6.21685e-06 2.68993e-18
5.91956e-05 -9.35946e-06 -5.69397e-18
-9.69305e-06 4.80725e-06 4.04086e-18
4.45564e-06 -8.92366e-06 3.65524e-18
-4.59557e-05 -3.50275e-05 1.53928e-18
-1.56858e-05 3.40585e-05 6.30824e-19
-4.70492e-05 3.47777e-05 -4.5317e-19
1.42518e-05 3.13418e-05 -1.85853e-18
-9.16615e-06 6.4716e-06 5.17459e-18
-1.34359e-05 1.62313e-05 -6.80768e-19
-2.41632e-05 3.03667e-05 -4.59953e-18
-3.78996e-05 -4.87831e-06 -2.46383e-18
-6.72419e-07 1.03177e-05 -3.35837e-18
-2.55902e-05 -3.04943e-05 -1.87811e-19
-3.92165e-05 6.92139e-06 -1.41226e-18
-1.49444e-05 3.4648e-05 1.24426e-18
-1.1522e-05 4.60735e-05 -1.40759e-18
-1.09569e-05 2.43282e-05 -2.51986e-18
-2.22897e-05 1.79657e-05 1.57066e-18
1.62995e-05 -3.96021e-06 -3.08325e-18
2.5549e-05 -1.31037e-06 -6.92015e-19
8.57095e-06 5.29369e-06 -1.17663e-18
-8.09557e-06 -5.30232e-05 1.9244e-18
-4.99776e-05 -1.94864e-05 3.66373e-19
2.48753e-05 2.57648e-07 2.59354e-18
3.50705e-05 -6.77203e-06 -2.93683e-18
-6.46506e-06 -8.20586e-06 -1.82889e-18
-3.04043e-05 2.13936e-05 -6.25813e-19
-2.72496e-05 3.12271e-05 -1.72699e-18
3.7073e-05 -1.33553e-05 -1.88502e-18
-1.86706e-05 -3.16184e-05 -1.92433e-18
-1.90033e-05 3.13722e-05 -2.44107e-18
-3.68538e-05 -1.31511e-06 -5.1232e-19
-1.6752e-05 3.29781e-05 2.09781e-18
-3.67415e-05 3.90747e-07 8.66034e-19
4.57505e-05 1.63763e-05 4.23147e-18
3.68854e-05 1.37094e-06 6.89286e-19
3.4703e-05 -1.77756e-05 1.05486e-18
1.0142e-05 -4.88018e-05 9.18956e-18
1.83218e-05 -3.19384e-05 6.103e-18
1.81971e-05 3.19338e-05 5.06264e-18
9.93249e-06 4.76848e-05 6.72119e-18
4.99565e-05 -1.4089e-05 3.53271e-18
3.20107e-05 1.58538e-05 5.97828e-18
3.07345e-05 8.39272e-06 2.96347e-18
P_ext 3 563 float
-8.50908e-07 2.87689e-07 9.54841e-21
7.94056e-10 3.14857e-08 1.82412e-20
-7.83515e-08 -7.36882e-08 -2.83456e-20
-2.47851e-08 2.2876e-08 -2.34812e-20
2.15861e-08 4.22719e-10 -1.32711e-20
2.57911e-08 -1.04658e-07 2.32058e-20
-8.37776e-07 -2.91171e-07 1.21057e-20
-6.14144e-08 -6.9685e-08 5.25355e-21
1.70903e-07 3.02511e-09 -5.01359e-21
6.2379e-08 -5.85168e-09 4.96825e-20
5.53881e-07 1.29834e-07 -1.24061e-20
3.04269e-08 -8.90442e-08 5.10053e-21
6.97051e-08 8.29911e-08 1.02064e-20
-7.19469e-09 6.49944e-08 1.82778e-20
1.95022e-08 7.24533e-09 -2.63603e-20
-1.09236e-07 -1.78816e-09 -2.73639e-21
-1.36619e-08 4.28199e-08 2.10694e-20
6.58469e-08 -9.93237e-09 -2.426e-21
7.56463e-08 1.34913e-07 -1.79258e-20
-1.0148e-07 1.0232e-08 2.06773e-20
-3.81055e-08 -1.43735e-07 -5.09026e-21
1.26383e-09 2.14808e-10 -9.06888e-20
1.12398e-07 9.14961e-09 -1.55489e-20
7.15508e-08 -8.26216e-08 2.60099e-21
-1.03665e-07 -1.6689e-08 -4.87612e-21
-1.95495e-08 -5.67171e-08 1.5699e-20
6.36728e-07 -5.20883e-08 2.22165e-21
7.79533e-08 6.57286e-08 1.30089e-20
-2.32932e-07 -1.85024e-07 -8.7773e-20
1.36644e-08 2.57853e-09 -2.38899e-21
-1.04079e-07 -1.85248e-08 -5.47058e-20
4.55209e-08 -2.96236e-07 -5.01633e-20
4.78477e-07 -4.90023e-07 -7.4349e-21
1.01213e-09 -2.24355e-08 -2.74921e-21
-6.03162e-09 1.72527e-08 2.81154e-21
-1.87305e-08 -1.2334e-08 -3.48231e-20
2.46545e-09 1.23926e-08 -7.31739e-20
-1.89305e-08 3.22796e-09 6.46144e-20
7.52764e-08 -8.18864e-08 4.70118e-20
4.66904e-07 5.10674e-07 -2.67325e-21
2.98189e-07 -1.35102e-07 -1.76653e-20
4.59102e-09 -1.13499e-08 1.06632e-20
-7.46857e-09 -9.92572e-09 -1.56861e-20
-1.03393e-07 2.12278e-08 3.40831e-20
2.95877e-07 -2.90566e-07 4.17809e-20
-2.75655e-07 9.92219e-08 4.28687e-20
-3.48206e-08 -1.51931e-07 1.31343e-20
6.28206e-08 1.526e-07 3.0693e-20
-9.91762e-08 2.59275e-08 6.01351e-20
-1.70744e-07 2.65563e-07 5.01784e-21
3.02646e-07 1.48219e-07 -2.01339e-20
2.62769e-07 -8.64221e-08 3.54887e-20
-7.72428e-09 1.83645e-08 1.07888e-20
-2.05634e-07 -1.8453e-07 -3.77359e-20
-2.01439e-08 2.66451e-09 8.26423e-20
-4.41136e-07 2.59059e-07 -5.13221e-21
-5.5999e-09 -1.71808e-08 2.16836e-20
5.85572e-08 -2.71551e-07 1.2763e-20
-1.75069e-08 -3.82004e-09 -1.61805e-20
4.59277e-08 9.20847e-08 2.46542e-21
-2.45001e-08 -7.41703e-09 -1.20727e-19
-2.58659e-08 -2.42747e-08 -6.0749e-20
5.74081e-07 2.52744e-07 2.29096e-21
-5.11171e-10 5.00813e-08 1.60172e-20
7.72211e-09 -3.34103e-08 -1.07018e-20
1.30168e-08 -7.43579e-08 -8.66858e-20
-5.17923e-09 -2.43387e-08 -2.89005e-21
-5.95255e-08 -1.5117e-08 -4.43702e-20
-6.92993e-08 8.47948e-08 3.39822e-20
1.85848e-08 -6.73879e-09 4.42925e-20
-7.61835e-09 -1.88941e-08 3.21681e-20
-1.99233e-08 -2.92433e-09 -7.91076e-21
-3.43625e-08 3.18355e-07 -2.56489e-21
-6.11171e-08 3.08677e-08 1.62498e-20
-5.93166e-08 1.01459e-07 5.48895e-20
-5.97016e-07 7.01732e-08 -3.41894e-20
1.62963e-11 -4.7218e-08 1.02857e-20
-5.7416e-08 -4.81189e-08 5.25512e-20
2.41912e-08 5.90124e-08 -3.68524e-20
2.28743e-07 4.57317e-08 2.01488e-20
3.27893e-07 -2.85296e-07 -3.01727e-20
8.96494e-09 2.19705e-08 2.67231e-20
2.21449e-08 6.8885e-09 -3.67949e-20
-3.05525e-07 2.26041e-07 -1.48604e-20
3.56607e-07 4.33537e-08 1.00646e-19
-5.40593e-08 4.83405e-07 1.49072e-20
-1.87363e-08 -9.68206e-08 9.33781e-23
6.57281e-08 4.62966e-08 -2.06556e-20
2.84595e-07 3.00128e-07 7.28441e-21
5.14995e-09 2.27331e-09 2.75936e-20
-5.48446e-08 2.73086e-07 2.53987e-20
4.65126e-09 -2.47594e-09 5.73919e-20
-3.2888e-08 2.24436e-08 3.17748e-20
7.10424e-08 2.89049e-08 5.38691e-21
-2.62951e-07 8.12855e-08 -1.503e-20
1.52631e-07 2.68201e-07 4.02758e-20
9.49576e-08 -4.28737e-07 -4.22867e-20
2.23133e-08 5.84821e-08 1.03761e-20
-4.0347e-08 -2.39965e-08 -2.9086e-20
3.34545e-08 1.06975e-07 3.89057e-20
2.22467e-07 3.78537e-08 -4.84536e-20
-1.47706e-07 3.05145e-07 -1.50682e-20
3.92677e-07 -1.28338e-07 -7.56468e-21
-2.1779e-08 4.755e-08 7.33134e-20
4.17288e-08 4.23969e-08 -2.08507e-20
-2.48148e-08 -5.72243e-08 -1.59709e-20
-9.99211e-09 -4.35834e-08 -2.66978e-20
1.1545e-07 1.38345e-08 -7.30076e-20
-8.42557e-08 3.94105e-07 1.77336e-20
-1.94596e-08 1.202e-08 9.1816e-20
5.75839e-08 8.53473e-08 2.06296e-20
-2.84916e-08 -4.04448e-07 -2.45453e-20
4.09137e-07 1.22845e-07 -2.25388e-20
2.78399e-08 -4.91991e-08 4.17368e-20
-6.35579e-08 -7.2633e-09 -4.72269e-20
-2.61639e-07 -1.05008e-07 -3.54306e-20
1.29209e-08 1.38128e-08 6.23266e-20
-4.15659e-07 -1.45364e-07 -3.72061e-20
1.31179e-08 -1.37757e-08 1.21474e-19
-4.04166e-08 -2.84145e-07 2.54855e-20
1.75345e-07 6.65478e-09 1.29453e-20
-1.56081e-08 1.32946e-08 -1.36184e-20
4.1973e-09 1.9143e-08 8.66767e-20
1.17391e-08 -5.13364e-08 -2.89614e-20
2.03653e-08 -9.50891e-09 7.5797e-20
3.59445e-10 2.061e-08 2.93717e-20
1.77833e-08 -2.22362e-09 1.3515e-20
3.32148e-08 -4.90186e-08 5.31744e-21
-8.51087e-08 -4.34072e-07 7.43536e-21
2.24798e-07 -1.73057e-07 -7.74631e-21
7.14862e-10 2.73534e-08 4.2736e-20
-1.89499e-08 -3.4202e-09 -1.83787e-20
-6.14942e-09 -2.11801e-08 1.0459e-20
-1.56196e-08 -1.10353e-08 -1.03074e-20
-2.10171e-07 2.62633e-07 -1.01425e-20
-2.41275e-10 -2.08224e-08 6.20698e-20
-2.62927e-07 4.12833e-07 -1.72803e-20
-9.87593e-08 4.54106e-08 4.98867e-20
1.38836e-08 1.49531e-08 -2.66169e-20
-1.79265e-08 -1.04829e-08 -2.12227e-20
1.28182e-07 3.09364e-07 1.76481e-20
7.39117e-08 6.58894e-08 2.90625e-21
1.79479e-07 -5.9186e-08 -2.81226e-20
1.0106e-08 -5.52063e-08 -2.87676e-20
-3.2575e-07 -3.00173e-07 2.50341e-21
-3.14016e-08 5.42461e-08 -3.9165e-20
8.15056e-08 4.34772e-08 -5.74719e-20
1.19206e-07 -4.10333e-08 -1.03798e-20
5.14783e-08 -1.02845e-07 5.71936e-20
2.04129e-07 -9.41298e-08 2.79987e-20
1.35791e-07 -6.4095e-08 3.12173e-20
1.36365e-08 -1.1316e-08 1.55616e-20
2.3681e-07 1.87314e-07 -5.01633e-20
-3.42747e-08 -9.90848e-08 -3.90596e-20
-4.20734e-08 -3.60101e-08 3.40814e-20
-6.88801e-09 -1.80573e-08 1.02874e-20
9.46308e-09 7.0686e-08 -4.7307e-20
-3.16728e-07 2.27067e-08 5.83468e-20
-1.15708e-07 -3.02344e-07 1.50483e-20
-4.98105e-08 6.34919e-08 -4.9079e-21
9.79587e-08 1.30559e-07 1.30495e-20
2.43745e-07 -1.7288e-07 -1.51227e-20
-3.56368e-07 -1.90534e-07 -4.69114e-21
1.5852e-07 -2.5806e-07 -3.7508e-20
2.06405e-07 -2.53899e-07 -5.30712e-21
-6.07628e-08 6.01048e-09 -2.35319e-20
-1.812e-07 -2.62211e-07 -3.03908e-20
-3.17184e-07 -4.97096e-08 2.04526e-20
-3.78033e-08 -2.89464e-07 3.03297e-20
1.411e-07 -2.91642e-07 -1.74092e-20
2.95792e-09 -4.00518e-08 -3.96828e-20
4.19289e-08 2.79231e-07 2.03443e-20
-1.49385e-07 -2.61327e-07 -1.52644e-20
-1.40207e-08 -6.40766e-08 1.02813e-20
-2.15923e-07 1.61651e-07 1.08012e-22
-4.22737e-08 -1.38429e-08 -2.91047e-20
-3.29196e-08 -2.26374e-08 1.08481e-20
8.61424e-08 -4.41728e-08 -1.29164e-20
-1.18394e-08 1.67565e-08 -6.1683e-20
4.57743e-08 -5.77979e-08 -7.90771e-21
-2.687e-07 -1.19498e-07 -4.75988e-20
-3.55686e-08 -4.79167e-08 -2.37086e-20
3.71715e-08 5.08339e-08 -1.29149e-20
1.94287e-07 2.68192e-07 -2.27756e-20
-6.87266e-08 -3.1689e-08 3.93831e-20
-2.98903e-07 -6.72451e-09 2.29918e-20
-3.82727e-08 -3.55179e-08 -6.83006e-20
-2.17081e-09 -5.14165e-08 -3.15182e-20
3.74941e-08 1.88979e-08 5.59799e-20
-4.32506e-08 4.26461e-08 6.79474e-20
-7.22741e-09 -7.56997e-08 -5.81882e-20
-3.99023e-07 9.82863e-08 2.25695e-20
2.18704e-07 1.86581e-07 -5.8387e-20
2.92214e-08 3.03893e-07 2.75738e-20
-1.76147e-08 6.04664e-09 -2.87455e-21
-5.8762e-08 1.82597e-09 7.68272e-21
2.69755e-08 5.15071e-08 1.82247e-20
-2.1335e-08 -5.25161e-09 -6.04653e-20
2.53363e-09 -1.82046e-08 3.40906e-20
-1.17586e-08 8.01307e-08 4.96222e-20
1.30127e-08 1.37261e-08 -7.91441e-21
-1.48454e-07 3.28142e-08 3.8843e-20
-1.50582e-07 1.643e-07 -7.41741e-21
-1.62479e-08 1.50578e-08 -5.42537e-21
-2.7245e-07 1.64424e-07 -7.37114e-21
-6.97447e-09 2.31924e-08 -1.29636e-20
7.34842e-08 -2.63134e-08 -4.93824e-21
3.41515e-07 -3.14185e-08 6.30103e-20
-4.27702e-08 2.70623e-08 -2.36124e-20
1.73074e-08 7.96835e-09 2.60862e-20
4.4511e-08 -2.78687e-08 7.93465e-21
-7.64e-08 2.54525e-08 3.95763e-20
-5.5607e-08 1.45672e-08 1.04807e-20
1.9532e-08 -5.72135e-09 -5.8202e-20
1.80903e-07 -1.10017e-07 -3.35195e-20
-7.11613e-08 4.53731e-08 2.93006e-20
-2.12688e-07 -4.43513e-08 -7.88409e-20
-4.51656e-08 -2.37905e-08 -7.81528e-21
1.72676e-08 -1.14822e-08 -4.73638e-20
1.913e-08 1.34593e-08 -2.09893e-20
-4.84811e-09 2.17576e-08 5.10404e-21
-1.9761e-09 -2.45494e-08 -5.42742e-21
-1.99282e-08 1.01709e-08 -8.05526e-21
-2.23032e-08 -1.14099e-08 -7.86233e-20
5.58779e-08 -2.11073e-08 4.20363e-20
-2.04215e-08 -5.63309e-09 -6.61394e-20
-2.03776e-08 5.42616e-09 1.00758e-19
-5.00838e-09 2.02548e-08 1.08284e-20
-5.43918e-09 -2.06989e-08 5.0581e-20
1.34692e-08 -1.50719e-08 1.07916e-20
1.29485e-08 1.44237e-08 1.62935e-20
7.82138e-09 2.15893e-07 5.33703e-20
4.18619e-08 -3.45499e-08 2.46529e-21
9.77059e-09 -1.84305e-08 -2.10344e-20
-1.62796e-07 6.01477e-09 5.1773e-20
1.54499e-08 -1.46452e-08 5.32046e-21
1.44251e-08 1.48726e-08 -1.06247e-20
2.21358e-08 -4.82104e-10 6.51607e-20
7.47401e-08 2.11573e-07 -1.28933e-20
-1.12012e-08 -1.83153e-08 2.87249e-20
2.42245e-08 -5.54296e-08 1.55659e-20
-1.81694e-07 -1.00528e-07 2.02602e-20
-3.98954e-08 -2.58963e-08 -7.80782e-21
-1.82361e-07 1.08153e-07 3.05406e-20
1.61638e-08 -1.65542e-08 -2.50074e-21
-7.7493e-09 1.72218e-08 -2.58556e-20
-4.26454e-09 -2.09056e-07 1.80576e-20
-6.84475e-08 -2.07064e-07 7.57677e-21
3.13865e-07 2.98728e-07 -7.7949e-21
3.35718e-07 -1.90661e-08 5.206e-20
-2.37816e-08 5.19192e-09 8.94708e-20
-2.24536e-07 -3.96784e-07 -4.9794e-21
5.35099e-08 9.17527e-08 7.6639e-21
-2.15193e-07 2.53454e-08 -3.02435e-20
1.54466e-07 4.31926e-08 -5.12897e-21
-2.10996e-08 -8.53464e-11 -2.1002e-20
4.69852e-10 -2.19235e-08 2.8776e-20
-1.9084e-09 -1.49787e-08 -5.14028e-20
-1.86905e-08 -1.11345e-08 1.06956e-20
-4.65555e-07 -1.7642e-08 3.74721e-20
1.46294e-07 -1.65461e-07 -1.27057e-20
9.9417e-09 1.92886e-08 7.59811e-20
5.08693e-09 -9.23433e-08 -2.35618e-20
-8.72653e-08 2.06658e-07 3.04495e-20
1.79888e-09 2.31981e-08 1.07911e-20
1.56085e-07 -1.11695e-07 -1.80682e-20
-1.37013e-08 -5.99725e-09 3.83552e-20
-1.32749e-07 -1.72533e-07 1.00933e-20
1.8282e-08 9.28863e-09 1.56594e-20
4.32499e-08 4.18378e-08 -2.33317e-21
-3.07898e-08 -4.79629e-08 4.16538e-20
1.89176e-08 -6.13569e-09 -7.70346e-20
6.4104e-08 -4.47565e-08 2.64488e-20
-3.80317e-09 3.57263e-08 -4.26652e-20
5.275e-08 -8.89104e-08 2.46846e-21
4.81954e-07 2.42842e-08 2.43754e-21
-4.0831e-07 1.0803e-07 3.46008e-20
3.41522e-08 2.37969e-08 1.09762e-19
-5.0566e-08 -1.21733e-07 1.04032e-20
-7.68423e-08 -5.01346e-08 -1.03061e-20
2.50217e-07 -2.51554e-09 6.62709e-20
2.13546e-09 -4.77047e-08 -1.32642e-20
-6.25075e-08 -2.2054e-08 -6.54594e-20
8.52738e-08 -2.03745e-07 -3.81172e-20
6.79678e-09 8.2031e-08 4.46453e-20
6.99866e-08 2.17035e-07 1.51915e-20
8.39609e-08 -4.42468e-08 1.58358e-20
-1.53215e-07 1.63085e-07 -4.9762e-21
1.40895e-07 1.74104e-07 -1.29558e-19
-8.84525e-09 3.9507e-09 -1.61435e-20
1.46714e-09 3.77872e-08 -2.66899e-21
2.83149e-09 -1.71378e-08 -1.0739e-20
-1.35761e-08 -1.1239e-08 -3.16168e-20
-4.67663e-08 3.70945e-08 1.28261e-19
-2.14668e-07 -5.08568e-08 -4.35548e-20
7.46027e-10 2.41016e-08 -4.54071e-20
-5.61201e-08 1.6735e-08 -3.71093e-23
1.52078e-07 -2.20426e-08 1.29453e-20
-6.50454e-08 -2.10618e-07 5.27207e-21
-1.28107e-07 2.04018e-07 -3.28824e-20
-3.61376e-08 1.67045e-08 2.1223e-20
-1.7169e-07 -1.2148e-07 1.53025e-20
3.88362e-08 -1.82027e-08 -1.31595e-20
-2.32795e-07 -1.13984e-08 -5.86392e-20
1.13991e-07 -4.02242e-07 -5.41759e-20
1.557e-07 -1.6351e-07 3.34537e-20
2.38138e-07 4.2222e-07 3.97137e-20
-2.23886e-09 5.09855e-08 4.50434e-20
2.0434e-08 -2.12077e-07 -1.26691e-20
-8.2638e-09 5.00671e-09 -1.34147e-20
-1.10378e-07 -2.0596e-07 3.85102e-20
3.70016e-08 -3.1687e-08 -2.13949e-20
-2.12951e-08 2.14526e-07 5.34817e-20
5.1674e-08 -1.51518e-08 6.31946e-20
1.17642e-07 2.09654e-07 -3.31109e-20
1.178e-07 -2.74747e-09 7.96011e-21
2.15117e-07 -6.34727e-07 1.73026e-20
-4.5564e-08 -8.48169e-08 -3.37399e-20
-1.90048e-07 8.28086e-08 -4.91494e-21
-2.66097e-08 1.306e-08 -4.53384e-20
1.80418e-07 1.20823e-07 -4.07258e-20
1.28573e-07 -7.09829e-08 -2.04559e-20
6.79458e-08 2.98394e-08 5.50029e-21
-1.38903e-08 1.17497e-08 1.07601e-20
1.28984e-07 -1.99264e-07 1.64204e-22
-1.37508e-07 -1.71599e-07 2.06181e-20
1.7741e-07 6.9975e-08 1.30687e-20
4.5109e-08 -2.78717e-08 1.09854e-20
8.29451e-08 -2.06153e-07 -2.81035e-20
9.7443e-08 -1.84617e-08 3.41797e-20
-9.45656e-08 -3.77224e-08 -3.89454e-20
-4.10741e-09 -3.83555e-08 -5.88153e-20
-2.16814e-07 3.01041e-08 3.5647e-22
2.27796e-08 1.90188e-07 8.70819e-20
1.48303e-07 3.46007e-08 1.30803e-20
-1.68478e-07 -7.54052e-08 5.12228e-20
-8.28541e-08 2.12435e-07 7.42758e-21
-1.89398e-08 -1.85291e-07 5.27414e-21
4.89542e-08 2.38928e-08 3.18401e-20
-3.18004e-08 8.95868e-08 2.09524e-20
-1.51503e-07 1.08662e-07 -1.27617e-20
1.94588e-07 9.81528e-08 1.53981e-20
-8.85546e-08 -2.78076e-08 -4.44112e-20
-2.14848e-08 -9.11856e-08 -2.63571e-20
1.48696e-07 1.72855e-07 -9.96733e-20
-3.49201e-08 -1.58426e-08 -4.51601e-20
4.89147e-07 -3.51704e-07 -4.32251e-20
1.03517e-07 -7.24294e-08 -7.0064e-20
8.45768e-08 4.1447e-07 7.24748e-20
1.09161e-07 -1.04955e-07 1.06545e-20
-2.3618e-07 8.99449e-07 -6.01787e-20
-2.37548e-07 -8.90687e-07 -4.46265e-21
5.83639e-07 7.67152e-07 3.46213e-20
5.76402e-07 -7.66945e-07 -2.56912e-20
9.55371e-07 -3.75001e-10 -9.3783e-21
-8.23577e-07 3.31355e-07 6.88326e-21
-8.09924e-07 -3.34956e-07 6.85473e-21
3.93426e-08 2.13306e-08 -3.93574e-20
2.52313e-08 1.2256e-08 5.6621e-20
7.33531e-08 9.87244e-09 -3.63442e-20
1.29514e-07 6.92173e-08 -4.91786e-20
3.8421e-08 1.53047e-07 3.32712e-20
-1.38859e-07 -1.19304e-07 1.05385e-19
6.99011e-08 -6.44521e-08 -6.78251e-20
1.49203e-07 1.19748e-07 -1.29397e-20
-3.45122e-08 1.88375e-07 6.4113e-20
2.44699e-08 -1.20239e-08 -5.27733e-21
3.51197e-08 -1.80771e-07 -3.32838e-20
4.5848e-08 3.09285e-08 3.71867e-20
2.6916e-07 9.42866e-08 5.1011e-21
6.01028e-09 1.93529e-08 -3.22218e-20
1.03995e-07 3.40331e-08 -6.2248e-20
-1.2872e-07 7.12003e-08 5.69889e-20
-1.76252e-07 6.0968e-08 1.55778e-20
3.4867e-08 -2.38875e-08 8.10262e-21
-1.12508e-07 -5.20589e-08 5.2047e-20
-1.23626e-07 -7.32266e-08 2.73055e-21
-1.08402e-08 -1.24092e-07 -2.57426e-21
4.88043e-10 -1.42535e-07 -1.04353e-20
-1.56948e-07 -6.78368e-09 -4.83522e-21
2.32976e-07 -3.61739e-08 4.03965e-20
1.25658e-07 7.74428e-08 -2.56343e-20
-1.03972e-07 7.09291e-08 6.78588e-20
-4.6864e-08 2.29288e-08 1.34191e-20
1.17288e-07 -1.05098e-07 5.49637e-21
-8.81312e-08 1.37221e-07 -1.52057e-20
-1.08558e-07 -1.14353e-07 8.50174e-20
-1.02896e-08 1.49456e-07 2.33425e-20
-2.23661e-08 1.26127e-07 4.42649e-20
3.68376e-09 -9.15529e-08 2.44272e-21
4.72468e-08 -1.52708e-07 1.7888e-20
-7.72014e-08 -4.95437e-08 5.36963e-21
1.06982e-07 -3.0506e-08 -1.56404e-20
2.58848e-10 1.49271e-07 4.60884e-20
-3.23368e-09 9.53566e-08 5.22116e-20
-2.39747e-08 1.07275e-07 3.14135e-20
1.75605e-07 -4.32162e-08 2.45591e-21
-3.68517e-08 3.52056e-08 8.4544e-20
3.98018e-08 1.49389e-07 3.10323e-20
-2.40283e-08 1.51646e-08 1.08742e-20
8.87153e-08 4.11382e-07 2.21012e-20
-4.34715e-08 2.34766e-08 5.81179e-20
4.6124e-08 -2.40116e-08 2.6458e-21
1.32759e-08 1.26931e-07 2.3164e-20
-1.48877e-07 3.53574e-08 2.59974e-20
-4.5868e-09 -6.45126e-08 -2.11493e-20
6.15608e-09 -5.86954e-07 -1.21575e-20
1.78208e-08 1.07606e-07 3.86988e-20
-1.11216e-07 1.0581e-07 1.84335e-20
1.72787e-07 6.4265e-07 -1.4898e-20
8.27545e-09 5.45444e-09 4.38113e-20
7.14957e-09 -5.20175e-09 7.62757e-20
8.37184e-08 -6.52923e-08 1.30369e-20
-1.18862e-07 1.06424e-07 -4.88933e-21
-1.42659e-07 -4.21339e-08 2.76382e-21
-1.46608e-07 -4.81491e-08 -2.56221e-20
-2.95224e-09 1.82172e-09 5.72348e-21
-2.04708e-09 -1.0045e-09 4.44344e-20
6.84684e-08 1.39067e-08 2.63805e-20
2.17363e-08 9.99218e-08 1.57118e-20
-2.51275e-09 9.93539e-08 4.94594e-20
-4.91611e-07 -3.57124e-07 -1.44916e-20
8.72236e-08 -1.37194e-07 -1.801e-20
4.4103e-08 1.58673e-08 -2.09648e-20
-1.61811e-07 -1.74028e-08 -5.14375e-20
-1.02312e-07 1.35171e-07 2.97372e-21
-1.3208e-07 6.21037e-08 2.24241e-22
4.82665e-07 3.46787e-07 -9.72325e-21
4.77108e-08 3.13744e-08 2.88561e-20
-4.69611e-08 1.5326e-07 -7.56647e-21
-9.25481e-08 -7.92779e-08 5.73935e-20
2.30279e-08 -1.20713e-07 1.28536e-20
-7.49072e-08 -1.42508e-07 1.78335e-22
-1.20021e-07 -8.22667e-08 3.38319e-20
8.22632e-08 -1.45893e-07 3.36034e-20
9.86738e-08 -1.35614e-07 -1.26775e-20
-3.12904e-08 -6.12461e-07 -3.94101e-20
2.51787e-07 -4.02745e-07 -1.24153e-20
1.20231e-08 -1.46557e-07 -1.29473e-20
1.03337e-07 7.86737e-08 -3.37024e-20
-9.28326e-08 -1.12695e-07 4.92357e-20
-8.0524e-08 1.50116e-07 -1.27441e-20
-4.94752e-08 1.47123e-07 2.09518e-20
1.07756e-07 1.11594e-07 4.65264e-20
5.28349e-08 -1.37609e-07 -2.32604e-20
-1.36661e-07 -3.89652e-07 3.20838e-20
3.07738e-09 4.7294e-08 -2.40708e-20
1.09103e-07 1.12271e-07 -2.6777e-21
-5.87969e-08 -2.89415e-08 -8.40723e-20
-4.88514e-08 2.66571e-08 8.22717e-21
4.3754e-07 -1.9168e-07 -3.20233e-20
5.43149e-08 -8.97656e-08 6.76143e-20
-5.15511e-08 -8.81951e-08 -5.16424e-21
1.95339e-08 -1.69486e-09 -4.02694e-20
1.6613e-09 -7.39384e-09 8.07363e-21
-5.48072e-09 -5.39208e-09 -2.68029e-20
2.40622e-08 1.57916e-08 6.40553e-20
-7.55392e-08 -1.42592e-07 3.10019e-20
1.16214e-07 4.6602e-08 1.29908e-20
-2.82956e-07 -3.11073e-07 -9.88474e-21
1.04491e-09 9.09542e-09 -7.87928e-20
1.06293e-09 1.67135e-09 3.03492e-20
2.07851e-09 -2.53583e-10 -3.00528e-20
2.71544e-07 -5.36261e-07 1.18142e-20
-1.12725e-08 1.32681e-08 2.1838e-20
-2.57745e-09 1.60725e-08 -2.96835e-20
-1.16854e-07 4.15328e-08 6.75859e-20
-4.04469e-09 4.74349e-08 4.78585e-20
-2.56794e-08 7.61159e-08 -1.01708e-20
5.29146e-08 2.24804e-09 1.83412e-20
1.19471e-08 4.57399e-08 -6.82885e-20
-3.12748e-09 6.32508e-08 2.35785e-20
9.06928e-08 4.93384e-08 -3.13427e-20
6.47578e-09 5.84216e-07 -1.27881e-19
-8.4383e-08 7.98544e-08 3.16378e-20
6.32546e-08 -4.25441e-08 7.86857e-21
3.65032e-08 -3.33564e-08 -1.07353e-20
-5.99184e-07 -8.22681e-08 1.2158e-20
-1.7044e-08 6.7664e-09 -3.23293e-20
-4.36269e-07 -5.16065e-07 2.61401e-21
7.90256e-09 2.12027e-08 5.23708e-21
7.64706e-08 1.4857e-08 -6.28056e-20
2.27757e-07 -2.95554e-08 -2.51951e-21
-5.2051e-08 -8.55301e-08 3.9165e-20
9.95141e-08 2.85325e-08 -4.71074e-20
5.04318e-10 -2.53071e-08 -3.24143e-20
-5.61143e-08 6.49388e-08 6.59019e-20
-2.14535e-08 -1.36333e-08 -5.29927e-20
-5.05988e-08 1.02779e-07 -5.05269e-21
9.15934e-09 6.48479e-08 -4.48556e-20
1.48573e-08 1.08841e-08 5.68545e-20
1.47429e-08 -1.04552e-08 3.79046e-20
-4.06169e-07 -1.10646e-07 1.47487e-20
4.47158e-08 1.66724e-08 -4.70395e-20
-5.38621e-08 1.04277e-06 -5.54542e-20
-3.73593e-09 -1.07133e-06 -2.16217e-20
5.2732e-07 9.02738e-07 -3.87222e-20
-5.46717e-08 4.33843e-08 8.02263e-21
-2.79446e-07 5.62346e-07 -3.12264e-20
5.30354e-07 -8.71325e-07 -4.71938e-21
-8.7658e-08 -1.41876e-07 7.23437e-20
8.05383e-07 7.05673e-07 1.67791e-20
9.44536e-09 -1.67567e-08 -4.30088e-20
-9.84534e-09 -1.69786e-08 2.98035e-20
8.44227e-07 -6.89957e-07 -1.21294e-20
-5.17077e-08 1.01681e-07 5.49708e-21
-5.30289e-07 -3.37726e-07 3.42176e-20
-4.47203e-07 -9.32059e-07 -1.69585e-20
-2.50465e-07 -5.76195e-07 -2.45022e-20
-4.59735e-07 9.47574e-07 -3.11333e-20
-1.08641e-07 6.42129e-07 -5.12616e-20
-7.66436e-10 2.24444e-08 -2.68882e-20
-2.78934e-07 3.59115e-07 1.45781e-20
-2.67079e-07 -5.46595e-07 2.64649e-20
1.03847e-06 1.81233e-07 -1.42825e-20
-8.11428e-08 6.89934e-08 3.71534e-20
-1.89717e-09 4.55602e-08 -1.05364e-20
-5.02319e-07 3.63646e-07 -1.47506e-20
-8.99919e-08 4.80287e-08 1.07672e-20
1.02825e-06 -1.61205e-07 -3.64011e-20
-6.86775e-08 4.6109e-08 -2.82468e-20
5.00407e-08 -1.03494e-07 8.0403e-20
-8.00183e-07 -6.07764e-07 2.56279e-21
-2.69815e-07 5.78117e-07 -3.38529e-20
-8.19577e-07 6.03304e-07 -4.77074e-21
2.39471e-07 5.34261e-07 -6.02193e-20
-8.81054e-08 7.00409e-08 6.01853e-20
-2.44265e-08 1.38293e-08 2.96064e-20
-1.33167e-09 -2.17399e-09 -7.46656e-20
3.82116e-10 -1.84914e-09 -4.39919e-20
6.70335e-09 7.03178e-08 -3.68176e-20
-1.95822e-09 2.17637e-09 -5.70386e-21
1.07983e-09 2.65521e-09 -3.58233e-20
1.80597e-09 -7.96651e-10 1.39711e-20
-1.0458e-09 8.32005e-09 -6.0221e-20
-1.84254e-07 4.01998e-07 -2.21947e-20
-1.38438e-08 9.92027e-09 -1.58847e-20
2.3844e-08 -1.50393e-08 -1.09968e-20
2.33755e-08 -1.35467e-08 -1.88732e-20
6.74019e-08 2.62945e-08 -5.23515e-20
-6.25865e-10 -7.1205e-09 -8.21258e-21
-6.35329e-09 -3.23041e-09 1.12246e-20
2.33604e-08 1.36289e-08 1.63605e-20
5.95507e-07 -1.14786e-07 -4.11237e-20
-7.71142e-08 -9.82921e-08 2.3554e-21
-5.21365e-07 3.63501e-07 -3.61907e-20
-4.66762e-07 5.32366e-07 -2.53406e-21
6.29174e-07 -2.27222e-07 -1.71767e-20
-2.99144e-09 -8.75552e-09 -3.01001e-20
-3.28845e-09 8.99444e-09 1.61045e-20
-9.87149e-09 1.71902e-09 4.35333e-20
-6.49574e-09 6.58736e-09 -1.06038e-20
-8.94657e-09 -1.92186e-09 -2.44681e-20
1.62575e-09 2.12668e-09 1.12313e-20
9.60021e-09 -2.38361e-09 -2.45045e-20
4.02898e-09 -2.85427e-09 3.8363e-20
-2.87406e-09 -2.02956e-09 8.03913e-20
6.15773e-09 -6.30168e-09 1.52374e-19
6.19211e-09 6.48968e-09 7.91648e-20
-2.89166e-09 1.77902e-09 1.07824e-19
3.09611e-09 -6.58307e-10 -7.93038e-21
5.15649e-09 2.86903e-09 2.23552e-20
1.12115e-08 4.02496e-09 -2.68491e-20
SCALARS rr_necrosis float
LOOKUP_TABLE default
0
0
0
0
0
0
0
0
0
0
0
0
0
0
0
0
0
0
0
0
0
0
0
0
0
0
0
0
0
0
0
0
0
0
0
0
0
0
0
0
0
0
0
0
0
0
0
0
0
0
0
0
0
0
0
0
0
0
0
0
0
0
0
0
0
0
0
0
0
0
0
0
0
0
0
0
0
0
0
0
0
0
0
0
0
0
0
0
0
0
0
0
0
0
0
0
0
0
0
0
0
0
0
0
0
0
0
0
0
0
0
0
0
0
0
0
0
0
0
0
0
0
0
0
0
0
0
0
0
0
0
0
0
0
0
0
0
0
0
0
0
0
0
0
0
0
0
0
0
0
0
0
0
0
0
0
0
0
0
0
0
0
0
0
0
0
0
0
0
0
0
0
0
0
0
0
0
0
0
0
0
0
0
0
0
0
0
0
0
0
0
0
0
0
0
0
0
0
0
0
0
0
0
0
0
0
0
0
0
0
0
0
0
0
0
0
0
0
0
0
0
0
0
0
0
0
0
0
0
0
0
0
0
0
0
0
0
0
0
0
0
0
0
0
0
0
0
0
0
0
0
0
0
0
0
0
0
0
0
0
0
0
0
0
0
0
0
0
0
0
0
0
0
0
0
0
0
0
0
0
0
0
0
0
0
0
0
0
0
0
0
0
0
0
0
0
0
0
0
0
0
0
0
0
0
0
0
0
0
0
0
0
0
0
0
0
0
0
0
0
0
0
0
0
0
0
0
0
0
0
0
0
0
0
0
0
0
0
0
0
0
0
0
0
0
0
0
0
0
0
0
0
0
0
0
0
0
0
0
0
0
0
0
0
0
0
0
0
0
0
0
0
0
0
0
0
0
0
0
0
0
0
0
0
0
0
0
0
0
0
0
0
0
0
0
0
0
0
0
0
0
0
0
0
0
0
0
0
0
0
0
0
0
0
0
0
0
0
0
0
0
0
0
0
0
0
0
0
0
0
0
0
0
0
0
0
0
0
0
0
0
0
0
0
0
0
0
0
0
0
0
0
0
0
0
0
0
0
0
0
0
0
0
0
0
0
0
0
0
0
0
0
0
0
0
0
0
0
0
0
0
0
0
0
0
0
0
0
0
0
0
0
0
0
0
0
0
0
0
0
0
0
0
0
0
0
0
0
0
0
0
0
0
0
0
0
0
0
0
0
0
0
0
0
0
0
0
0
0
0
0
0
0
0
0
0
0
0
0
0
0
0
0
0
0
0
0
0
0
0
0
0
0
0
0
0
0
0
0
0
0
0
0
SCALARS rr_protein float
LOOKUP_TABLE default
1
1
1
1
1
1
1
1
1
1
1
1
1
1
1
1
1
1
1
1
1
1
1
1
1
1
1
1
1
1
1
1
1
1
1
1
1
1
1
1
1
1
1
1
1
1
1
1
1
1
1
1
1
1
1
1
1
1
1
1
1
1
1
1
1
1
1
1
1
1
1
1
1
1
1
1
1
1
1
1
1
1
1
1
1
1
1
1
1
1
1
1
1
1
1
1
1
1
1
1
1
1
1
1
1
1
1
1
1
1
1
1
1
1
1
1
1
1
1
1
1
1
1
1
1
1
1
1
1
1
1
1
1
1
1
1
1
1
1
1
1
1
1
1
1
1
1
1
1
1
1
1
1
1
1
1
1
1
1
1
1
1
1
1
1
1
1
1
1
1
1
1
1
1
1
1
1
1
1
1
1
1
1
1
1
1
1
1
1
1
1
1
1
1
1
1
1
1
1
1
1
1
1
1
1
1
1
1
1
1
1
1
1
1
1
1
1
1
1
1
1
1
1
1
1
1
1
1
1
1
1
1
1
1
1
1
1
1
1
1
1
1
1
1
1
1
1
1
1
1
1
1
1
1
1
1
1
1
1
1
1
1
1
1
1
1
1
1
1
1
1
1
1
1
1
1
1
1
1
1
1
1
1
1
1
1
1
1
1
1
1
1
1
1
1
1
1
1
1
1
1
1
1
1
1
1
1
1
1
1
1
1
1
1
1
1
1
1
1
1
1
1
1
1
1
1
1
1
1
1
1
1
1
1
1
1
1
1
1
1
1
1
1
1
1
1
1
1
1
1
1
1
1
1
1
1
1
1
1
1
1
1
1
1
1
1
1
1
1
1
1
1
1
1
1
1
1
1
1
1
1
1
1
1
1
1
1
1
1
1
1
1
1
1
1
1
1
1
1
1
1
1
1
1
1
1
1
1
1
1
1
1
1
1
1
1
1
1
1
1
1
1
1
1
1
1
1
1
1
1
1
1
1
1
1
1
1
1
1
1
1
1
1
1
1
1
1
1
1
1
1
1
1
1
1
1
1
1
1
1
1
1
1
1
1
1
1
1
1
1
1
1
1
1
1
1
1
1
1
1
1
1
1
1
1
1
1
1
1
1
1
1
1
1
1
1
1
1
1
1
1
1
1
1
1
1
1
1
1
1
1
1
1
1
1
1
1
1
1
1
1
1
1
1
1
1
1
1
1
1
1
1
1
1
1
1
1
1
1
1
1
1
1
1
1
1
1
1
1
1
1
1
1
1
1
1
1
1
1
1
1
1
1
SCALARS rr_(S_ext) float
LOOKUP_TABLE default
0.892756
0.892999
0.892981
0.892993
0.893078
0.89298
0.892754
0.892997
0.892961
0.893001
0.892745
0.892997
0.892992
0.893006
0.893046
0.892986
0.893013
0.892991
0.892946
0.892973
0.892973
0.893173
0.89297
0.892974
0.892973
0.892995
0.892796
0.892984
0.892876
0.893114
0.892992
0.892875
0.892795
0.893097
0.893108
0.893096
0.893115
0.893105
0.892991
0.892796
0.892874
0.893116
0.893115
0.892991
0.892811
0.892881
0.892953
0.892966
0.892982
0.892858
0.892868
0.892904
0.89307
0.892907
0.893069
0.89283
0.893109
0.892906
0.893109
0.892974
0.893011
0.893039
0.89282
0.893039
0.893039
0.893018
0.893012
0.892996
0.892972
0.893
0.89307
0.89307
0.892875
0.893027
0.892983
0.89278
0.893056
0.893017
0.892995
0.892907
0.892858
0.893087
0.893025
0.892848
0.892887
0.892819
0.892983
0.893024
0.892812
0.89316
0.892905
0.89316
0.893056
0.893015
0.892909
0.892864
0.89286
0.893
0.893056
0.89299
0.892935
0.892895
0.892846
0.892991
0.892998
0.892998
0.893029
0.892988
0.892846
0.893
0.892974
0.892822
0.892835
0.892991
0.892997
0.892908
0.893111
0.89286
0.89311
0.892909
0.892941
0.893042
0.892998
0.89302
0.893003
0.893048
0.8931
0.893
0.89286
0.892908
0.893068
0.892996
0.893022
0.892997
0.892896
0.893108
0.892847
0.892995
0.893024
0.893108
0.892897
0.893007
0.892948
0.893001
0.892859
0.892995
0.893001
0.892984
0.892981
0.892926
0.892964
0.892998
0.892874
0.892993
0.893001
0.892996
0.893011
0.892902
0.892902
0.892989
0.892966
0.892876
0.892821
0.892866
0.8929
0.892998
0.892901
0.892901
0.892875
0.8929
0.893056
0.892906
0.892867
0.893013
0.892907
0.893028
0.893056
0.892998
0.893073
0.893001
0.892877
0.892999
0.892999
0.892898
0.893023
0.892866
0.89302
0.893031
0.893059
0.893
0.893024
0.892863
0.892906
0.892875
0.892997
0.892989
0.89299
0.893022
0.892997
0.893017
0.892998
0.892951
0.89291
0.893022
0.892878
0.893024
0.893018
0.892892
0.893043
0.892999
0.893047
0.89301
0.892997
0.893025
0.892926
0.893013
0.892913
0.893031
0.893002
0.893001
0.892997
0.892999
0.893
0.892999
0.893004
0.893043
0.893042
0.893043
0.893044
0.89307
0.89307
0.892924
0.893004
0.892987
0.892965
0.893047
0.893048
0.892988
0.89291
0.892985
0.893
0.892928
0.893042
0.892927
0.893026
0.892983
0.892928
0.892914
0.892857
0.892852
0.893025
0.892855
0.892989
0.892913
0.892949
0.892985
0.893001
0.893119
0.893
0.892856
0.892912
0.892986
0.892997
0.892909
0.893
0.892949
0.893119
0.892913
0.893002
0.893019
0.89299
0.893046
0.893023
0.893072
0.892991
0.892829
0.892819
0.893065
0.892973
0.892997
0.892929
0.893043
0.893013
0.892912
0.893015
0.892936
0.893003
0.892937
0.89291
0.893142
0.893058
0.893045
0.893045
0.893003
0.89294
0.893093
0.893018
0.892967
0.89294
0.892932
0.893064
0.892928
0.893058
0.892936
0.892812
0.892938
0.892858
0.893031
0.892927
0.893141
0.892935
0.893025
0.892924
0.893022
0.892934
0.892985
0.89282
0.892977
0.892927
0.893061
0.892925
0.892966
0.893025
0.892999
0.892934
0.892939
0.892948
0.893033
0.892938
0.892998
0.892984
0.893072
0.892939
0.892947
0.892971
0.89295
0.892936
0.892951
0.893041
0.892996
0.892948
0.892926
0.893005
0.893005
0.892937
0.893072
0.892737
0.892986
0.892858
0.892972
0.892566
0.892567
0.892567
0.892566
0.892565
0.89257
0.892572
0.893033
0.893088
0.892989
0.892965
0.892948
0.89295
0.893004
0.892948
0.892947
0.893089
0.89295
0.893046
0.892905
0.893038
0.89298
0.892965
0.892949
0.893067
0.892986
0.892966
0.892986
0.892966
0.892945
0.892907
0.892964
0.892983
0.893046
0.892951
0.892942
0.89295
0.892962
0.892982
0.893003
0.89295
0.893003
0.892978
0.892963
0.892998
0.892978
0.892948
0.893021
0.89297
0.893085
0.892813
0.893033
0.893041
0.892982
0.892971
0.893016
0.892742
0.89298
0.89297
0.89282
0.893142
0.893144
0.892983
0.892949
0.892973
0.892952
0.89319
0.893188
0.892995
0.892999
0.892997
0.892746
0.892944
0.893026
0.892965
0.892963
0.892963
0.892734
0.893021
0.892947
0.892984
0.892984
0.892962
0.892966
0.892962
0.892965
0.892797
0.892858
0.892966
0.892985
0.89297
0.892961
0.892968
0.892972
0.89297
0.892814
0.893049
0.892949
0.893015
0.893023
0.892813
0.892981
0.892978
0.893073
0.893134
0.893134
0.893058
0.892944
0.892984
0.892809
0.893129
0.893179
0.893178
0.892731
0.893104
0.893113
0.892981
0.893055
0.89299
0.893002
0.893021
0.893031
0.892999
0.89274
0.892987
0.893015
0.893026
0.892778
0.893104
0.89282
0.893022
0.893006
0.892932
0.89299
0.892997
0.893071
0.892999
0.89307
0.892984
0.893027
0.89311
0.893113
0.892813
0.893006
0.89275
0.892759
0.892741
0.893022
0.892742
0.892733
0.892962
0.892744
0.893088
0.893087
0.892751
0.892968
0.892801
0.892752
0.892792
0.89275
0.892792
0.893106
0.892801
0.892742
0.892748
0.892996
0.893036
0.892788
0.892997
0.892733
0.893004
0.89297
0.892748
0.892783
0.892742
0.89273
0.892978
0.893091
0.893171
0.893167
0.893007
0.89317
0.89317
0.893169
0.893146
0.892806
0.893107
0.893061
0.893092
0.893004
0.893153
0.893153
0.893099
0.892726
0.892968
0.892739
0.892817
0.892812
0.893124
0.893124
0.893122
0.893123
0.893124
0.893168
0.893127
0.893154
0.893176
0.893128
0.893128
0.893177
0.893168
0.893155
0.893123
SCALARS rr_(P_ext) float
LOOKUP_TABLE default
0.0167362
0.0166533
0.0166606
0.0166547
0.0166325
0.0166608
0.0167365
0.0166558
0.0166676
0.0166537
0.0167308
0.0166558
0.0166575
0.0166526
0.0166401
0.0166594
0.0166496
0.0166567
0.0166712
0.0166627
0.0166638
0.016604
0.0166637
0.0166625
0.0166628
0.0166553
0.0167192
0.0166597
0.0166939
0.0166207
0.0166578
0.0166937
0.0167204
0.0166257
0.0166232
0.0166258
0.0166198
0.0166243
0.0166579
0.0167202
0.0166941
0.0166195
0.0166196
0.0166577
0.0167124
0.0166927
0.0166695
0.0166662
0.0166604
0.016699
0.016696
0.0166854
0.0166336
0.0166852
0.0166343
0.01671
0.016623
0.0166852
0.0166231
0.0166623
0.0166499
0.016643
0.0167139
0.0166435
0.0166429
0.0166496
0.0166496
0.0166553
0.0166632
0.0166531
0.0166338
0.0166338
0.0166941
0.0166471
0.0166604
0.0167239
0.0166386
0.0166497
0.0166553
0.0166835
0.0167007
0.0166299
0.0166464
0.016703
0.0166914
0.0167115
0.0166597
0.0166483
0.0167123
0.0166081
0.0166853
0.0166082
0.0166381
0.0166506
0.0166846
0.0166968
0.0167006
0.0166538
0.0166387
0.0166582
0.016676
0.0166895
0.0167032
0.0166559
0.0166545
0.0166543
0.0166454
0.0166589
0.0167033
0.0166521
0.0166622
0.0167098
0.0167061
0.0166564
0.0166547
0.016685
0.0166232
0.0167009
0.0166234
0.0166847
0.0166731
0.016641
0.0166533
0.0166481
0.0166515
0.0166394
0.016626
0.0166538
0.0167006
0.0166846
0.0166337
0.0166539
0.0166468
0.0166536
0.0166894
0.016623
0.0167051
0.016657
0.0166464
0.0166231
0.0166885
0.0166534
0.0166718
0.0166536
0.0167013
0.016655
0.0166547
0.0166605
0.0166607
0.0166785
0.0166664
0.0166533
0.0166939
0.0166574
0.0166536
0.0166538
0.0166514
0.0166877
0.0166874
0.0166575
0.0166661
0.0166932
0.0167104
0.016696
0.0166877
0.0166542
0.0166877
0.0166878
0.0166938
0.0166876
0.0166379
0.0166852
0.0166961
0.0166506
0.016685
0.0166457
0.016638
0.0166558
0.0166333
0.0166542
0.0166938
0.0166539
0.016654
0.0166883
0.0166482
0.0166967
0.0166482
0.0166453
0.0166376
0.0166538
0.0166481
0.0166997
0.0166851
0.0166937
0.0166537
0.016657
0.0166566
0.0166469
0.0166535
0.0166499
0.0166533
0.0166702
0.016683
0.016647
0.0166937
0.0166464
0.0166497
0.0166899
0.016642
0.0166532
0.0166413
0.0166521
0.0166547
0.0166463
0.0166782
0.0166515
0.0166821
0.0166453
0.0166516
0.0166517
0.0166526
0.0166522
0.0166522
0.0166523
0.0166531
0.0166407
0.0166409
0.0166406
0.0166406
0.0166341
0.0166341
0.0166788
0.0166528
0.0166555
0.0166666
0.0166401
0.0166398
0.0166552
0.0166827
0.0166558
0.0166538
0.0166779
0.0166419
0.0166782
0.0166461
0.0166561
0.0166777
0.0166818
0.0167009
0.0167003
0.0166463
0.0167025
0.0166584
0.0166822
0.0166707
0.0166559
0.0166518
0.0166191
0.016652
0.0167031
0.0166821
0.0166555
0.0166558
0.0166831
0.0166519
0.0166714
0.0166191
0.016682
0.0166515
0.0166486
0.0166566
0.0166403
0.0166485
0.0166337
0.0166576
0.0167086
0.0167116
0.0166359
0.0166636
0.0166558
0.0166782
0.0166418
0.0166507
0.0166821
0.0166504
0.0166757
0.0166543
0.0166757
0.0166825
0.0166128
0.0166371
0.0166398
0.01664
0.0166531
0.0166751
0.0166266
0.0166489
0.0166658
0.0166748
0.0166774
0.016636
0.0166779
0.0166381
0.0166765
0.0167122
0.0166752
0.0167017
0.0166451
0.0166779
0.0166128
0.0166765
0.016647
0.0166788
0.0166478
0.0166767
0.0166597
0.0167153
0.0166613
0.0166781
0.0166363
0.0166785
0.0166657
0.0166478
0.0166531
0.0166766
0.0166752
0.0166716
0.0166453
0.0166753
0.0166558
0.0166596
0.0166338
0.0166752
0.0166721
0.0166645
0.0166712
0.016676
0.016671
0.0166428
0.016656
0.0166717
0.0166782
0.0166537
0.0166536
0.0166756
0.0166339
0.0167337
0.0166599
0.0167008
0.0166642
0.0167776
0.0167775
0.016777
0.0167772
0.0167769
0.0167778
0.0167774
0.0166448
0.0166288
0.0166573
0.0166661
0.0166708
0.0166712
0.0166543
0.0166717
0.0166722
0.0166286
0.0166712
0.0166415
0.0166853
0.0166419
0.0166609
0.0166663
0.0166715
0.0166358
0.0166599
0.0166657
0.0166599
0.0166656
0.0166719
0.0166838
0.0166663
0.0166607
0.0166412
0.01667
0.0166726
0.0166703
0.0166668
0.0166609
0.0166542
0.0166704
0.0166543
0.0166616
0.0166666
0.0166556
0.0166614
0.0166714
0.0166479
0.0166649
0.0166295
0.0167122
0.0166449
0.0166428
0.0166608
0.0166647
0.0166498
0.0167327
0.0166609
0.0166651
0.0167148
0.0166133
0.0166131
0.01666
0.0166709
0.0166641
0.01667
0.0166007
0.0166007
0.0166556
0.0166555
0.0166559
0.0167329
0.0166722
0.0166467
0.0166666
0.0166673
0.0166667
0.0167342
0.0166483
0.0166713
0.0166602
0.0166602
0.0166674
0.0166658
0.0166674
0.0166667
0.0167196
0.0167015
0.0166659
0.0166601
0.0166649
0.0166677
0.0166654
0.0166644
0.0166649
0.0167121
0.01664
0.0166705
0.0166501
0.0166479
0.0167127
0.0166605
0.0166612
0.0166338
0.0166138
0.0166139
0.0166371
0.0166723
0.0166604
0.0167135
0.0166154
0.0166026
0.0166026
0.0167351
0.0166243
0.0166207
0.0166612
0.0166385
0.0166574
0.0166531
0.0166476
0.0166456
0.0166558
0.0167329
0.0166592
0.0166507
0.0166468
0.0167244
0.0166234
0.0167163
0.0166471
0.0166529
0.016677
0.0166579
0.0166562
0.0166331
0.0166551
0.0166332
0.0166601
0.0166468
0.016622
0.0166215
0.0167133
0.0166521
0.0167378
0.0167362
0.0167396
0.0166483
0.0167338
0.0167413
0.0166676
0.0167387
0.0166296
0.0166296
0.0167374
0.0166644
0.0167194
0.0167382
0.016721
0.0167386
0.016721
0.0166238
0.0167163
0.0167335
0.0167376
0.0166565
0.0166438
0.0167223
0.0166563
0.0167407
0.0166537
0.0166639
0.0167391
0.0167235
0.0167404
0.0167351
0.0166616
0.0166282
0.0166041
0.0166051
0.0166523
0.0166043
0.0166043
0.0166047
0.0166111
0.0167147
0.0166226
0.0166366
0.0166281
0.0166533
0.0166094
0.0166095
0.0166267
0.016736
0.0166647
0.016735
0.0167176
0.016717
0.0166164
0.0166166
0.0166172
0.016617
0.0166165
0.0166055
0.016617
0.0166094
0.0166039
0.0166162
0.0166162
0.0166035
0.0166052
0.0166091
0.0166177
SCALARS rr_(S) float
LOOKUP_TABLE default
0.834067
0.834182
0.834174
0.834178
0.834228
0.834174
0.834065
0.834183
0.834165
0.834184
0.834051
0.834183
0.83418
0.834187
0.834209
0.834176
0.83419
0.834178
0.834156
0.834169
0.834171
0.834282
0.834168
0.83417
0.834169
0.83418
0.834081
0.834175
0.834121
0.834248
0.83418
0.83412
0.834081
0.834238
0.834245
0.834238
0.834248
0.834243
0.83418
0.834082
0.83412
0.834248
0.834248
0.83418
0.834087
0.834123
0.83416
0.834167
0.834174
0.834111
0.834117
0.834136
0.834223
0.834137
0.834222
0.8341
0.834246
0.834136
0.834245
0.83417
0.834188
0.834205
0.834095
0.834206
0.834205
0.834194
0.834189
0.834181
0.834169
0.834182
0.834223
0.834223
0.834121
0.834199
0.834175
0.834073
0.834215
0.834194
0.83418
0.834136
0.834113
0.834233
0.834197
0.834107
0.834128
0.834092
0.834175
0.834198
0.834087
0.834276
0.834136
0.834276
0.834215
0.834193
0.834138
0.834114
0.834114
0.834183
0.834215
0.834179
0.834152
0.834132
0.834106
0.834178
0.834182
0.834182
0.834199
0.834178
0.834106
0.834181
0.83417
0.834092
0.8341
0.834178
0.834181
0.834138
0.834247
0.834115
0.834247
0.834138
0.834153
0.834206
0.834181
0.834195
0.834184
0.83421
0.834241
0.834183
0.834115
0.834138
0.834222
0.83418
0.834195
0.83418
0.834132
0.834245
0.834108
0.834182
0.834197
0.834245
0.834133
0.834188
0.834158
0.834184
0.834115
0.83418
0.834185
0.834176
0.834174
0.834146
0.834166
0.834181
0.834119
0.83418
0.834183
0.83418
0.83419
0.834136
0.834136
0.834177
0.834167
0.83412
0.834093
0.834115
0.834134
0.834182
0.834135
0.834135
0.83412
0.834135
0.834215
0.834136
0.834116
0.834191
0.834137
0.834199
0.834215
0.834183
0.834225
0.834184
0.834122
0.834183
0.834183
0.834133
0.834197
0.834115
0.834194
0.834201
0.834217
0.834183
0.834197
0.834116
0.834136
0.83412
0.83418
0.834177
0.834177
0.834195
0.83418
0.834194
0.834181
0.834158
0.834137
0.834195
0.834122
0.834196
0.834195
0.83413
0.834208
0.834182
0.834211
0.83419
0.834182
0.834197
0.834146
0.834191
0.834139
0.834201
0.834183
0.834183
0.83418
0.834181
0.834181
0.834181
0.834186
0.834207
0.834206
0.834207
0.834207
0.834224
0.834223
0.834145
0.834185
0.834174
0.834167
0.83421
0.83421
0.834175
0.834137
0.834173
0.834183
0.834147
0.834207
0.834147
0.834198
0.834172
0.834147
0.83414
0.834113
0.834108
0.834197
0.834113
0.834178
0.834139
0.834157
0.834173
0.834182
0.834251
0.834181
0.834114
0.834138
0.834173
0.834183
0.834137
0.834182
0.834158
0.834251
0.834139
0.834183
0.834195
0.834177
0.834209
0.834197
0.834224
0.834179
0.834098
0.834092
0.834221
0.83417
0.834183
0.834149
0.834208
0.834191
0.834139
0.834193
0.834152
0.834187
0.834153
0.834138
0.834264
0.834216
0.834208
0.834208
0.834185
0.834154
0.834236
0.834194
0.834167
0.834154
0.83415
0.83422
0.834147
0.834217
0.834152
0.834087
0.834153
0.834114
0.834201
0.834147
0.834264
0.834152
0.834198
0.834145
0.834196
0.834151
0.834177
0.834097
0.834171
0.834147
0.834218
0.834145
0.834167
0.834198
0.834182
0.834151
0.834154
0.834158
0.834202
0.834153
0.834183
0.834176
0.834225
0.834154
0.834157
0.83417
0.834159
0.834152
0.834159
0.834207
0.834182
0.834158
0.834146
0.834187
0.834187
0.834152
0.834225
0.834047
0.834177
0.834113
0.83417
0.833952
0.833952
0.833952
0.833951
0.83395
0.833955
0.833956
0.834202
0.834233
0.834178
0.834166
0.834157
0.834159
0.834187
0.834158
0.834157
0.834234
0.834159
0.83421
0.834136
0.834204
0.834173
0.834166
0.834158
0.834222
0.834177
0.834167
0.834177
0.834167
0.834155
0.834136
0.834165
0.834176
0.83421
0.834159
0.834154
0.834158
0.834165
0.834175
0.834186
0.834158
0.834186
0.834172
0.834165
0.834183
0.834172
0.834157
0.834195
0.834169
0.834231
0.834087
0.834202
0.834207
0.834175
0.83417
0.834193
0.834051
0.834173
0.834169
0.834097
0.834265
0.834267
0.834176
0.834157
0.834171
0.834159
0.834294
0.834293
0.834181
0.834184
0.834183
0.834054
0.834154
0.834198
0.834167
0.834166
0.834165
0.834045
0.834196
0.834156
0.834176
0.834176
0.834165
0.834167
0.834165
0.834167
0.834082
0.834114
0.834166
0.834177
0.834169
0.834164
0.834168
0.83417
0.834169
0.834089
0.834211
0.834157
0.834192
0.834196
0.834088
0.834174
0.834172
0.834225
0.834259
0.834259
0.834216
0.834155
0.834176
0.834086
0.834256
0.834286
0.834285
0.834044
0.834243
0.834247
0.834175
0.834215
0.834178
0.834184
0.834195
0.834201
0.834184
0.834049
0.834177
0.834193
0.834198
0.834072
0.834242
0.834098
0.834195
0.834188
0.83415
0.834178
0.834183
0.834223
0.834183
0.834223
0.834175
0.834199
0.834246
0.834248
0.834089
0.834186
0.834063
0.834069
0.834057
0.834196
0.834052
0.834053
0.834165
0.834059
0.834233
0.834233
0.834064
0.834166
0.834086
0.834065
0.83408
0.834064
0.83408
0.834244
0.834082
0.834052
0.834062
0.834183
0.834204
0.834078
0.834183
0.834052
0.834186
0.834168
0.834063
0.834075
0.834059
0.834043
0.834172
0.834235
0.83428
0.834278
0.834188
0.83428
0.83428
0.834279
0.834266
0.834085
0.834244
0.834218
0.834237
0.834186
0.834271
0.83427
0.83424
0.834041
0.834167
0.83405
0.834097
0.834092
0.834253
0.834253
0.834252
0.834253
0.834253
0.83428
0.834256
0.834272
0.834285
0.834256
0.834256
0.834286
0.83428
0.834272
0.834253
SCALARS rr_(P) float
LOOKUP_TABLE default
0.0192257
0.0191777
0.0191821
0.0191786
0.0191656
0.0191821
0.0192258
0.0191793
0.0191861
0.019178
0.0192223
0.0191792
0.0191802
0.0191773
0.01917
0.0191814
0.0191755
0.0191797
0.0191882
0.0191832
0.0191839
0.0191487
0.0191838
0.0191831
0.0191833
0.0191789
0.0192158
0.0191815
0.0192013
0.0191585
0.0191804
0.0192011
0.0192165
0.0191615
0.0191601
0.0191615
0.019158
0.0191608
0.0191805
0.0192164
0.0192013
0.0191578
0.0191578
0.0191804
0.0192118
0.0192006
0.0191872
0.0191853
0.0191819
0.0192042
0.0192025
0.0191964
0.0191662
0.0191963
0.0191666
0.0192105
0.01916
0.0191963
0.0191601
0.019183
0.0191757
0.0191718
0.0192128
0.019172
0.0191717
0.0191756
0.0191755
0.0191789
0.0191835
0.0191776
0.0191663
0.0191663
0.0192014
0.0191741
0.0191819
0.0192185
0.0191692
0.0191757
0.0191789
0.0191953
0.0192052
0.0191641
0.0191737
0.0192065
0.0191999
0.0192114
0.0191815
0.0191749
0.0192118
0.019151
0.0191964
0.0191511
0.0191689
0.0191762
0.0191959
0.0192029
0.0192051
0.019178
0.0191692
0.0191807
0.019191
0.0191988
0.0192066
0.0191793
0.0191784
0.0191784
0.0191731
0.0191811
0.0192067
0.0191769
0.0191829
0.0192103
0.0192082
0.0191796
0.0191786
0.0191962
0.0191601
0.0192054
0.0191602
0.019196
0.0191892
0.0191705
0.0191777
0.0191747
0.0191766
0.0191696
0.0191617
0.019178
0.0192051
0.0191959
0.0191662
0.0191781
0.0191739
0.0191779
0.0191987
0.0191599
0.0192078
0.0191799
0.0191736
0.01916
0.0191982
0.0191779
0.0191885
0.0191779
0.0192056
0.0191788
0.0191786
0.019182
0.0191821
0.0191924
0.0191854
0.0191777
0.0192012
0.0191802
0.019178
0.019178
0.0191766
0.0191977
0.0191976
0.0191802
0.0191852
0.0192009
0.0192107
0.0192025
0.0191977
0.0191783
0.0191977
0.0191978
0.0192012
0.0191977
0.0191687
0.0191963
0.0192025
0.0191762
0.0191962
0.0191733
0.0191688
0.0191793
0.0191661
0.0191783
0.0192012
0.0191781
0.0191781
0.0191981
0.0191748
0.0192029
0.0191748
0.0191731
0.0191686
0.019178
0.0191747
0.0192046
0.0191962
0.0192012
0.0191779
0.0191799
0.0191797
0.019174
0.0191778
0.0191758
0.0191777
0.0191876
0.019195
0.019174
0.0192011
0.0191737
0.0191757
0.019199
0.0191711
0.0191776
0.0191707
0.0191771
0.0191786
0.0191736
0.0191922
0.0191767
0.0191945
0.0191731
0.0191767
0.0191767
0.0191772
0.019177
0.019177
0.0191771
0.0191776
0.0191703
0.0191704
0.0191703
0.0191702
0.0191665
0.0191664
0.0191926
0.0191775
0.0191789
0.0191856
0.01917
0.0191698
0.0191788
0.0191948
0.0191791
0.019178
0.019192
0.0191711
0.0191923
0.0191735
0.0191792
0.0191919
0.0191943
0.0192053
0.0192049
0.0191737
0.0192063
0.0191808
0.0191945
0.0191879
0.0191792
0.0191768
0.0191576
0.0191769
0.0192066
0.0191945
0.0191789
0.0191792
0.0191951
0.0191768
0.0191883
0.0191576
0.0191944
0.0191766
0.019175
0.0191797
0.0191701
0.019175
0.0191662
0.0191803
0.0192097
0.0192114
0.0191676
0.0191838
0.0191793
0.0191922
0.019171
0.0191763
0.0191944
0.0191761
0.0191908
0.0191784
0.0191908
0.0191947
0.0191538
0.0191683
0.0191698
0.0191699
0.0191776
0.0191905
0.019162
0.0191752
0.0191851
0.0191903
0.0191918
0.0191676
0.0191921
0.0191688
0.0191913
0.0192117
0.0191905
0.0192058
0.019173
0.019192
0.0191539
0.0191913
0.0191741
0.0191926
0.0191745
0.0191914
0.0191815
0.0192136
0.0191824
0.0191922
0.0191678
0.0191924
0.019185
0.0191745
0.0191776
0.0191913
0.0191905
0.0191884
0.0191731
0.0191906
0.0191793
0.0191815
0.0191664
0.0191905
0.0191887
0.0191843
0.0191882
0.019191
0.0191881
0.0191716
0.0191794
0.0191885
0.0191922
0.019178
0.0191779
0.0191907
0.0191664
0.019224
0.0191817
0.0192053
0.0191841
0.019249
0.019249
0.0192486
0.0192488
0.0192486
0.0192492
0.019249
0.0191728
0.0191633
0.0191801
0.0191852
0.0191879
0.0191882
0.0191783
0.0191885
0.0191888
0.0191632
0.0191882
0.0191708
0.0191963
0.019171
0.0191822
0.0191853
0.0191884
0.0191675
0.0191817
0.019185
0.0191816
0.0191849
0.0191886
0.0191955
0.0191853
0.0191821
0.0191707
0.0191875
0.019189
0.0191877
0.0191856
0.0191822
0.0191783
0.0191877
0.0191784
0.0191826
0.0191855
0.0191791
0.0191825
0.0191883
0.0191746
0.0191846
0.0191638
0.0192117
0.0191728
0.0191716
0.0191822
0.0191845
0.0191757
0.0192234
0.0191822
0.0191847
0.0192134
0.0191542
0.019154
0.0191817
0.019188
0.0191841
0.0191875
0.0191468
0.0191468
0.0191791
0.0191791
0.0191793
0.0192236
0.0191887
0.0191739
0.0191855
0.019186
0.0191856
0.0192243
0.0191748
0.0191882
0.0191818
0.0191818
0.019186
0.0191851
0.019186
0.0191856
0.019216
0.0192057
0.0191851
0.0191817
0.0191845
0.0191862
0.0191848
0.0191842
0.0191845
0.0192117
0.01917
0.0191877
0.0191759
0.0191746
0.019212
0.019182
0.0191824
0.0191663
0.0191544
0.0191544
0.0191682
0.0191888
0.0191819
0.0192125
0.0191554
0.0191479
0.0191479
0.0192248
0.0191607
0.0191585
0.0191824
0.0191691
0.0191802
0.0191776
0.0191744
0.0191733
0.0191793
0.0192235
0.0191813
0.0191763
0.019174
0.0192188
0.0191601
0.0192142
0.0191741
0.0191775
0.0191916
0.0191805
0.0191795
0.0191658
0.0191788
0.0191659
0.0191818
0.0191739
0.0191593
0.019159
0.0192124
0.019177
0.0192265
0.0192257
0.0192276
0.0191749
0.0192241
0.0192285
0.0191862
0.0192271
0.0191639
0.0191639
0.0192263
0.0191842
0.0192159
0.0192268
0.0192168
0.019227
0.0192168
0.0191605
0.0192141
0.0192239
0.0192264
0.0191797
0.0191722
0.0192176
0.0191795
0.0192282
0.019178
0.0191839
0.0192274
0.0192182
0.019228
0.0192248
0.0191826
0.019163
0.0191487
0.0191493
0.0191772
0.0191488
0.0191488
0.0191491
0.0191528
0.0192132
0.0191597
0.0191679
0.019163
0.0191777
0.0191518
0.0191519
0.0191622
0.0192253
0.0191844
0.0192248
0.019215
0.0192146
0.0191559
0.0191561
0.0191564
0.0191563
0.019156
0.0191495
0.0191563
0.0191518
0.0191486
0.0191558
0.0191558
0.0191484
0.0191494
0.0191516
0.0191567
SCALARS rr_(T) float
LOOKUP_TABLE default
0.0601953
0.0602235
0.0602208
0.0602227
0.0602344
0.0602208
0.0601952
0.0602228
0.0602183
0.0602235
0.060196
0.0602228
0.0602221
0.0602242
0.0602303
0.0602212
0.0602255
0.0602223
0.0602169
0.06022
0.0602197
0.0602499
0.0602197
0.0602201
0.0602199
0.0602229
0.0602005
0.0602214
0.0602089
0.0602407
0.060222
0.060209
0.0602001
0.0602381
0.0602392
0.0602381
0.0602411
0.0602386
0.060222
0.0602002
0.0602089
0.0602413
0.0602412
0.0602219
0.0602025
0.0602094
0.0602175
0.0602187
0.060221
0.0602071
0.0602082
0.0602119
0.0602337
0.060212
0.0602334
0.0602037
0.0602393
0.060212
0.0602393
0.0602202
0.0602253
0.0602287
0.0602025
0.0602285
0.0602287
0.0602258
0.0602254
0.0602229
0.0602198
0.0602237
0.0602337
0.0602336
0.0602089
0.0602271
0.0602208
0.0601988
0.0602312
0.0602258
0.0602229
0.0602125
0.0602068
0.0602356
0.0602271
0.0602058
0.0602099
0.0602029
0.0602214
0.0602265
0.0602025
0.060248
0.0602119
0.060248
0.0602314
0.0602255
0.0602122
0.0602079
0.0602068
0.0602233
0.0602311
0.0602218
0.0602153
0.0602106
0.0602058
0.0602224
0.0602234
0.0602231
0.0602278
0.0602216
0.0602058
0.060224
0.0602202
0.0602034
0.0602048
0.0602223
0.0602229
0.0602121
0.0602394
0.0602067
0.0602393
0.0602122
0.0602162
0.0602297
0.0602235
0.0602262
0.0602243
0.0602308
0.0602378
0.0602233
0.0602068
0.0602122
0.0602338
0.0602232
0.0602268
0.0602233
0.0602106
0.0602394
0.0602053
0.0602225
0.0602271
0.0602394
0.0602109
0.0602241
0.0602168
0.0602237
0.0602066
0.0602229
0.0602237
0.0602212
0.0602207
0.0602144
0.0602188
0.0602235
0.0602089
0.0602221
0.0602236
0.0602232
0.0602247
0.0602112
0.0602113
0.0602219
0.0602188
0.0602091
0.0602033
0.0602081
0.0602112
0.0602231
0.0602112
0.0602112
0.0602089
0.0602112
0.0602315
0.060212
0.0602081
0.060225
0.060212
0.0602276
0.0602315
0.0602231
0.0602339
0.0602236
0.060209
0.0602232
0.0602233
0.060211
0.0602265
0.0602079
0.0602262
0.0602278
0.0602317
0.0602233
0.0602266
0.0602071
0.0602121
0.060209
0.0602233
0.060222
0.0602223
0.0602267
0.0602234
0.0602257
0.0602235
0.0602172
0.0602127
0.0602267
0.060209
0.060227
0.0602259
0.0602104
0.0602296
0.0602236
0.0602299
0.0602247
0.0602232
0.0602271
0.0602145
0.060225
0.060213
0.0602278
0.0602242
0.0602242
0.0602237
0.0602239
0.0602239
0.0602239
0.060224
0.0602299
0.0602298
0.0602299
0.0602299
0.0602336
0.0602336
0.0602142
0.060224
0.0602223
0.0602186
0.0602303
0.0602304
0.0602224
0.0602128
0.0602221
0.0602233
0.0602145
0.0602297
0.0602144
0.0602272
0.0602219
0.0602146
0.0602131
0.0602067
0.0602067
0.060227
0.0602062
0.0602216
0.0602129
0.0602171
0.060222
0.0602241
0.0602416
0.060224
0.0602061
0.060213
0.0602222
0.060223
0.0602126
0.0602241
0.060217
0.0602416
0.060213
0.0602243
0.060226
0.0602222
0.0602302
0.0602265
0.0602338
0.0602219
0.060204
0.0602029
0.0602327
0.0602196
0.060223
0.0602145
0.0602297
0.060225
0.060213
0.0602255
0.0602153
0.0602238
0.0602154
0.0602128
0.0602452
0.0602319
0.0602304
0.0602303
0.0602239
0.0602156
0.0602376
0.0602258
0.060219
0.0602157
0.0602147
0.0602326
0.0602145
0.0602315
0.060215
0.0602026
0.0602155
0.0602065
0.060228
0.0602145
0.0602451
0.060215
0.060227
0.0602142
0.0602265
0.060215
0.0602212
0.0602022
0.0602205
0.0602144
0.0602324
0.0602143
0.0602191
0.0602267
0.0602236
0.060215
0.0602155
0.0602169
0.0602279
0.0602155
0.0602229
0.0602214
0.0602337
0.0602155
0.0602167
0.0602195
0.060217
0.0602152
0.0602171
0.0602293
0.0602228
0.0602168
0.0602144
0.0602239
0.060224
0.0602154
0.0602337
0.0601951
0.0602214
0.0602067
0.0602197
0.0601789
0.0601789
0.0601791
0.060179
0.0601791
0.060179
0.0601791
0.0602281
0.0602365
0.0602221
0.0602189
0.0602171
0.060217
0.0602238
0.0602168
0.0602166
0.0602366
0.060217
0.0602298
0.060212
0.0602292
0.0602209
0.0602188
0.0602169
0.0602328
0.0602214
0.0602191
0.0602214
0.0602191
0.0602166
0.0602124
0.0602189
0.0602211
0.0602298
0.0602174
0.0602163
0.0602172
0.0602186
0.060221
0.0602239
0.0602172
0.0602238
0.0602205
0.0602187
0.0602231
0.0602206
0.0602168
0.0602264
0.0602193
0.060236
0.0602026
0.060228
0.0602293
0.060221
0.0602193
0.0602256
0.0601955
0.0602209
0.0602193
0.0602024
0.060245
0.0602452
0.0602213
0.060217
0.0602196
0.0602174
0.060252
0.0602519
0.0602227
0.0602231
0.0602231
0.0601956
0.0602165
0.0602269
0.0602186
0.0602183
0.0602187
0.0601949
0.0602265
0.0602168
0.0602212
0.0602212
0.0602183
0.060219
0.0602183
0.0602186
0.0602004
0.0602066
0.060219
0.0602214
0.0602193
0.0602181
0.0602191
0.0602196
0.0602193
0.0602026
0.0602306
0.0602172
0.0602255
0.0602266
0.0602025
0.0602208
0.0602205
0.0602337
0.0602446
0.0602445
0.060232
0.0602164
0.0602213
0.0602021
0.0602437
0.0602507
0.0602506
0.0601945
0.0602386
0.0602408
0.0602208
0.0602313
0.060222
0.0602237
0.0602265
0.0602278
0.0602231
0.0601954
0.0602214
0.0602253
0.0602269
0.0601986
0.0602393
0.060202
0.0602266
0.0602241
0.0602149
0.0602218
0.0602229
0.0602341
0.0602232
0.0602341
0.060221
0.0602271
0.0602402
0.0602405
0.0602023
0.0602244
0.0601949
0.0601956
0.0601941
0.0602264
0.0601952
0.0601934
0.0602182
0.0601945
0.0602358
0.0602358
0.060195
0.0602193
0.0602005
0.0601948
0.0601999
0.0601947
0.0601999
0.060239
0.0602012
0.0601953
0.0601949
0.0602227
0.0602285
0.0601994
0.0602229
0.0601936
0.0602239
0.0602196
0.0601945
0.060199
0.060194
0.0601945
0.0602206
0.0602366
0.0602499
0.0602493
0.0602245
0.0602498
0.0602497
0.0602495
0.0602461
0.0602018
0.0602398
0.0602324
0.0602368
0.0602241
0.0602471
0.0602471
0.0602375
0.0601942
0.0602192
0.0601949
0.0602016
0.0602016
0.060243
0.0602429
0.0602426
0.0602427
0.060243
0.0602492
0.0602428
0.0602472
0.0602502
0.0602433
0.0602433
0.0602503
0.0602492
0.0602473
0.0602426
SCALARS rr_tsim float
LOOKUP_TABLE default
150
150
150
150
150
150
150
150
150
150
150
150
150
150
150
150
150
150
150
150
150
150
150
150
150
150
150
150
150
150
150
150
150
150
150
150
150
150
150
150
150
150
150
150
150
150
150
150
150
150
150
150
150
150
150
150
150
150
150
150
150
150
150
150
150
150
150
150
150
150
150
150
150
150
150
150
150
150
150
150
150
150
150
150
150
150
150
150
150
150
150
150
150
150
150
150
150
150
150
150
150
150
150
150
150
150
150
150
150
150
150
150
150
150
150
150
150
150
150
150
150
150
150
150
150
150
150
150
150
150
150
150
150
150
150
150
150
150
150
150
150
150
150
150
150
150
150
150
150
150
150
150
150
150
150
150
150
150
150
150
150
150
150
150
150
150
150
150
150
150
150
150
150
150
150
150
150
150
150
150
150
150
150
150
150
150
150
150
150
150
150
150
150
150
150
150
150
150
150
150
150
150
150
150
150
150
150
150
150
150
150
150
150
150
150
150
150
150
150
150
150
150
150
150
150
150
150
150
150
150
150
150
150
150
150
150
150
150
150
150
150
150
150
150
150
150
150
150
150
150
150
150
150
150
150
150
150
150
150
150
150
150
150
150
150
150
150
150
150
150
150
150
150
150
150
150
150
150
150
150
150
150
150
150
150
150
150
150
150
150
150
150
150
150
150
150
150
150
150
150
150
150
150
150
150
150
150
150
150
150
150
150
150
150
150
150
150
150
150
150
150
150
150
150
150
150
150
150
150
150
150
150
150
150
150
150
150
150
150
150
150
150
150
150
150
150
150
150
150
150
150
150
150
150
150
150
150
150
150
150
150
150
150
150
150
150
150
150
150
150
150
150
150
150
150
150
150
150
150
150
150
150
150
150
150
150
150
150
150
150
150
150
150
150
150
150
150
150
150
150
150
150
150
150
150
150
150
150
150
150
150
150
150
150
150
150
150
150
150
150
150
150
150
150
150
150
150
150
150
150
150
150
150
150
150
150
150
150
150
150
150
150
150
150
150
150
150
150
150
150
150
150
150
150
150
150
150
150
150
150
150
150
150
150
150
150
150
150
150
150
150
150
150
150
150
150
150
150
150
150
150
150
150
150
150
150
150
150
150
150
150
150
150
150
150
150
150
150
150
150
150
150
150
150
150
150
150
150
150
150
150
150
150
150
150
150
150
150
150
150
150
150
150
150
150
150
150
150
150
150
150
150
150
150
150
150
150
150
150
150
150
150
150
150
150
150
150
150
150
150
150
150
150
150
150
150
150
150
150
150
150
150
150
SCALARS rr_Vext float
LOOKUP_TABLE default
0.18136
0.449129
0.356053
0.468116
0.250495
0.377833
0.179276
0.465095
0.395112
0.504572
0.16539
0.466515
0.409831
0.435019
0.516141
0.42487
0.369048
0.414189
0.365536
0.360532
0.405114
0.076511
0.415075
0.383019
0.34711
0.403477
0.155011
0.352839
0.267416
0.339249
0.361974
0.276488
0.171521
0.252903
0.249249
0.253454
0.330129
0.249492
0.361545
0.192838
0.224723
0.291052
0.291062
0.397277
0.216887
0.244123
0.344617
0.350188
0.330084
0.303764
0.312857
0.245239
0.401522
0.31521
0.369418
0.157755
0.26618
0.31752
0.266152
0.39319
0.470935
0.464878
0.153277
0.327645
0.445319
0.417379
0.45566
0.39191
0.35799
0.515563
0.435559
0.430795
0.277657
0.338748
0.353977
0.176427
0.37268
0.413482
0.395174
0.271136
0.240493
0.283509
0.527538
0.240253
0.327764
0.119293
0.407585
0.344613
0.229708
0.037483
0.273096
0.0407609
0.316361
0.299316
0.258662
0.232985
0.220911
0.442936
0.372915
0.35186
0.293539
0.277773
0.23048
0.418581
0.426143
0.383837
0.34063
0.340852
0.244631
0.512525
0.32603
0.16404
0.220058
0.457884
0.429724
0.304485
0.308633
0.18351
0.320037
0.30337
0.266989
0.502654
0.511817
0.442045
0.484532
0.384956
0.220817
0.478216
0.200081
0.262282
0.227505
0.456401
0.449029
0.448255
0.28894
0.187538
0.19064
0.327444
0.404473
0.187461
0.241544
0.387294
0.287973
0.472764
0.223278
0.385194
0.349735
0.336132
0.214792
0.269549
0.304302
0.440632
0.248029
0.397416
0.461995
0.469249
0.307859
0.249011
0.247659
0.401141
0.333857
0.24612
0.160078
0.239707
0.240469
0.430961
0.252351
0.255103
0.274623
0.245942
0.386347
0.258186
0.226061
0.297717
0.272815
0.34031
0.382122
0.361137
0.31398
0.360849
0.26657
0.418251
0.448858
0.241617
0.442305
0.239442
0.4368
0.402741
0.378969
0.379419
0.446232
0.200776
0.266931
0.246019
0.447415
0.439026
0.407204
0.447899
0.452957
0.381869
0.466575
0.307719
0.274113
0.512737
0.28555
0.465959
0.369965
0.226657
0.286344
0.46173
0.389038
0.350312
0.450061
0.445261
0.278862
0.284224
0.267546
0.395457
0.433424
0.498098
0.478094
0.520377
0.471564
0.515293
0.43206
0.457206
0.460655
0.434359
0.456362
0.422922
0.416639
0.282414
0.389415
0.454301
0.312124
0.470277
0.43216
0.492666
0.288249
0.468282
0.448683
0.284503
0.406917
0.282472
0.455243
0.411294
0.296258
0.277681
0.235555
0.2711
0.455778
0.197503
0.347025
0.276531
0.313907
0.468677
0.455554
0.147789
0.45711
0.236433
0.261767
0.466276
0.379031
0.264588
0.522188
0.291234
0.14778
0.267727
0.406404
0.508927
0.382694
0.457759
0.42516
0.226617
0.216734
0.17598
0.20143
0.308137
0.229078
0.371985
0.227527
0.406396
0.287626
0.268104
0.323956
0.293525
0.398526
0.28149
0.287599
0.136371
0.303574
0.437814
0.438062
0.391529
0.281119
0.19236
0.545884
0.360492
0.298321
0.274294
0.284978
0.282732
0.358846
0.278094
0.192061
0.274795
0.183498
0.351071
0.279579
0.127092
0.263724
0.321341
0.279318
0.443674
0.290713
0.381472
0.138316
0.305665
0.287017
0.261626
0.269321
0.321995
0.308726
0.32105
0.266567
0.271166
0.293862
0.403605
0.276098
0.399027
0.358791
0.290799
0.286477
0.290126
0.323376
0.289915
0.27012
0.308532
0.333032
0.38787
0.290172
0.286356
0.425147
0.419253
0.276215
0.290837
0.117369
0.342067
0.22768
0.319684
0.126305
0.131123
0.117233
0.11913
0.126412
0.133077
0.137186
0.365822
0.275205
0.269666
0.305537
0.29621
0.292411
0.314713
0.285996
0.29239
0.310825
0.291317
0.368791
0.261066
0.378836
0.289106
0.277581
0.291599
0.322768
0.328997
0.304699
0.351053
0.326034
0.300393
0.213977
0.303863
0.298865
0.328283
0.305311
0.288521
0.275038
0.304066
0.319095
0.436165
0.283309
0.424005
0.438663
0.298867
0.422867
0.322478
0.25568
0.356797
0.307321
0.229506
0.185272
0.353352
0.377142
0.313435
0.259545
0.317016
0.138205
0.309867
0.289516
0.14057
0.0597488
0.0653756
0.268654
0.283297
0.33136
0.316589
0.0311309
0.0325287
0.318183
0.321545
0.304245
0.103724
0.264729
0.315906
0.315644
0.272078
0.240284
0.107864
0.46447
0.284948
0.352164
0.357675
0.255165
0.323448
0.249478
0.275482
0.12974
0.199383
0.323808
0.327753
0.280327
0.293566
0.30366
0.320507
0.306412
0.143961
0.275781
0.301355
0.290887
0.437491
0.143858
0.233734
0.240574
0.234524
0.155625
0.155629
0.267701
0.208509
0.301876
0.153857
0.185526
0.0614169
0.0614143
0.11231
0.199634
0.134972
0.257002
0.28454
0.297809
0.337003
0.30742
0.285234
0.222218
0.127172
0.278052
0.290583
0.28244
0.14413
0.147645
0.104629
0.28195
0.285973
0.224182
0.258252
0.238714
0.223792
0.292913
0.223758
0.257206
0.251388
0.158047
0.195241
0.165309
0.310648
0.112707
0.118919
0.115939
0.294535
0.10769
0.104733
0.200918
0.0979325
0.243156
0.24351
0.10066
0.255447
0.113723
0.110989
0.127155
0.105858
0.105724
0.174206
0.126241
0.112775
0.106278
0.235812
0.27266
0.118744
0.260318
0.0960771
0.26479
0.208174
0.100551
0.0864356
0.09487
0.126461
0.225553
0.19218
0.0824427
0.0914075
0.253858
0.0775861
0.0775828
0.0878719
0.0979623
0.0995856
0.127334
0.207534
0.193795
0.25377
0.0775245
0.0775212
0.229253
0.084347
0.178715
0.0765194
0.0783418
0.103272
0.198596
0.205597
0.218907
0.20066
0.198581
0.0438925
0.320382
0.0557539
0.0543419
0.259009
0.257239
0.0563346
0.0390573
0.0548046
0.238561
SCALARS rr_Vli float
LOOKUP_TABLE default
0.396487
0.903301
0.721405
0.942906
0.493004
0.765667
0.392035
0.937673
0.80627
1.01512
0.359836
0.940546
0.827704
0.874157
1.02413
0.859731
0.739397
0.835918
0.748799
0.732056
0.823483
0.146196
0.84374
0.777628
0.70489
0.813143
0.333349
0.714259
0.56061
0.659802
0.731227
0.579529
0.369272
0.494393
0.485905
0.495507
0.641458
0.486897
0.730484
0.415065
0.471211
0.565331
0.56539
0.802517
0.463323
0.511149
0.704663
0.713574
0.668683
0.640144
0.657316
0.50971
0.791283
0.654956
0.728501
0.336094
0.518809
0.659758
0.518792
0.798049
0.943867
0.925033
0.32784
0.65222
0.886012
0.836198
0.913003
0.789776
0.727292
1.03671
0.858509
0.849154
0.582211
0.676854
0.716971
0.381183
0.738161
0.828442
0.796424
0.562482
0.507624
0.556449
1.05351
0.508333
0.685386
0.254579
0.825078
0.689489
0.490662
0.0719435
0.56753
0.0782462
0.626352
0.600261
0.53711
0.489903
0.466218
0.891217
0.738709
0.711151
0.604219
0.579674
0.487751
0.844113
0.858084
0.772716
0.679548
0.689382
0.51776
1.02965
0.66168
0.349479
0.46706
0.923824
0.865439
0.632493
0.601614
0.387412
0.624003
0.629993
0.547961
0.998315
1.02948
0.884281
0.97286
0.763255
0.431751
0.96224
0.422253
0.544648
0.448454
0.918483
0.897113
0.901826
0.602901
0.365538
0.404182
0.660934
0.807735
0.365415
0.503539
0.778936
0.590243
0.951063
0.471532
0.776067
0.704325
0.680957
0.435248
0.55627
0.620249
0.88631
0.519983
0.802499
0.929445
0.944265
0.617855
0.518658
0.515714
0.810199
0.680208
0.515661
0.341239
0.50364
0.500929
0.867517
0.525646
0.531444
0.575698
0.512237
0.76477
0.536475
0.475016
0.597027
0.56676
0.679102
0.756454
0.728161
0.618513
0.726375
0.558761
0.841639
0.903307
0.503623
0.884785
0.50341
0.87381
0.803286
0.749918
0.763392
0.892544
0.423345
0.554571
0.515692
0.900213
0.886303
0.821714
0.894907
0.911199
0.765273
0.93842
0.629676
0.568294
1.02454
0.598473
0.930555
0.74128
0.473242
0.5692
0.928577
0.77273
0.703608
0.906438
0.88914
0.575331
0.570473
0.554201
0.788785
0.87038
1.00029
0.961019
1.04559
0.947455
1.03539
0.868715
0.9077
0.914772
0.862347
0.905935
0.833932
0.821518
0.583006
0.782797
0.915911
0.63624
0.933124
0.857212
0.993027
0.597477
0.944372
0.902758
0.586738
0.808804
0.582776
0.908858
0.829729
0.610882
0.574983
0.497307
0.572063
0.910105
0.417615
0.701484
0.572847
0.642714
0.94526
0.91497
0.286928
0.918297
0.500198
0.54226
0.940104
0.764203
0.548651
1.04888
0.596678
0.286928
0.554502
0.81598
1.01856
0.772236
0.908469
0.850826
0.446602
0.437754
0.374435
0.429884
0.608685
0.465561
0.749995
0.469386
0.807671
0.576819
0.555342
0.649549
0.603997
0.80228
0.579181
0.596022
0.26302
0.600444
0.868513
0.869132
0.787211
0.578065
0.376389
1.09285
0.734303
0.613261
0.565368
0.56296
0.583125
0.710462
0.572679
0.410197
0.565169
0.387692
0.700128
0.576601
0.24515
0.543079
0.642116
0.576621
0.887243
0.5988
0.772176
0.296223
0.619805
0.592064
0.517042
0.555819
0.655881
0.617316
0.645552
0.549012
0.557649
0.602199
0.804989
0.567872
0.804509
0.726245
0.573156
0.58913
0.594778
0.657845
0.593797
0.555996
0.63181
0.662549
0.782183
0.594653
0.590812
0.85529
0.843311
0.568302
0.573279
0.256088
0.692604
0.480629
0.650106
0.287607
0.298551
0.266804
0.271172
0.287683
0.303057
0.312312
0.729346
0.539725
0.544567
0.622606
0.606503
0.598935
0.633522
0.586133
0.599486
0.609471
0.596714
0.732661
0.542547
0.75311
0.586006
0.565701
0.597467
0.637468
0.666115
0.620594
0.710718
0.663999
0.615744
0.444041
0.619299
0.605574
0.652006
0.624639
0.59187
0.562873
0.62002
0.646723
0.87792
0.579859
0.853551
0.889742
0.609279
0.852432
0.653931
0.523842
0.713545
0.625427
0.450402
0.395666
0.704471
0.750315
0.635203
0.52805
0.635255
0.301237
0.628023
0.589267
0.300913
0.115298
0.126126
0.544006
0.580099
0.673739
0.647664
0.0592775
0.0619389
0.641399
0.648089
0.613484
0.226113
0.542806
0.631014
0.643419
0.555016
0.489879
0.23547
0.929286
0.583735
0.713234
0.724385
0.520584
0.65885
0.508991
0.561649
0.279102
0.421178
0.659634
0.663711
0.570435
0.599126
0.618258
0.651895
0.623525
0.307428
0.547098
0.616834
0.583017
0.874904
0.307368
0.473535
0.487755
0.462242
0.300516
0.300536
0.529555
0.427594
0.611538
0.329006
0.358877
0.117176
0.117176
0.245399
0.38962
0.262495
0.521053
0.563541
0.601414
0.677649
0.614659
0.569071
0.448038
0.277251
0.562548
0.582802
0.564249
0.311557
0.287925
0.224285
0.563454
0.574852
0.461944
0.521749
0.481455
0.440838
0.590096
0.440799
0.520824
0.502149
0.307812
0.380028
0.353394
0.623984
0.246786
0.25998
0.254334
0.589285
0.234981
0.230138
0.410011
0.214645
0.477122
0.477844
0.220334
0.519612
0.244575
0.243123
0.273902
0.231958
0.22774
0.33983
0.270698
0.245997
0.232678
0.47575
0.543004
0.256117
0.52511
0.211012
0.532691
0.423221
0.220455
0.186663
0.208255
0.276319
0.457469
0.376609
0.157552
0.174883
0.509988
0.148307
0.148306
0.168049
0.188629
0.213206
0.248114
0.410275
0.379762
0.510342
0.149004
0.149003
0.448512
0.184462
0.363611
0.167149
0.168151
0.221554
0.38455
0.398196
0.424215
0.388779
0.38454
0.0840103
0.620732
0.107163
0.103829
0.501445
0.497966
0.107596
0.074733
0.105301
0.462543
SCALARS rr_S_ext' float
LOOKUP_TABLE default
-0.000870808
-0.00198793
-0.00158737
-0.00207501
-0.00108551
-0.00168475
-0.000861022
-0.00206348
-0.00177381
-0.002234
-0.000790382
-0.0020698
-0.0018214
-0.00192384
-0.00225451
-0.0018918
-0.00162736
-0.0018395
-0.00164722
-0.00161072
-0.00181185
-0.000322101
-0.00185641
-0.001711
-0.00155094
-0.00178944
-0.000732434
-0.00157167
-0.00123255
-0.00145313
-0.0016091
-0.00127415
-0.000811343
-0.00108872
-0.0010701
-0.00109117
-0.00141275
-0.00107226
-0.00160745
-0.000911962
-0.001036
-0.0012451
-0.00124523
-0.00176597
-0.00101818
-0.00112384
-0.0015502
-0.00156993
-0.00147136
-0.00140723
-0.00144509
-0.00112088
-0.00174221
-0.0014403
-0.00160396
-0.000738644
-0.00114257
-0.00145086
-0.00114253
-0.00175594
-0.00207737
-0.00203626
-0.000720434
-0.00143571
-0.00195037
-0.00184043
-0.00200945
-0.00173802
-0.00160022
-0.00228153
-0.00189022
-0.00186962
-0.00128004
-0.00148981
-0.00157763
-0.000837434
-0.00162507
-0.00182336
-0.00175264
-0.00123698
-0.00111588
-0.00122528
-0.00231887
-0.00111736
-0.00150698
-0.000559469
-0.00181552
-0.00151758
-0.00107826
-0.000158491
-0.00124804
-0.000172375
-0.00137893
-0.00132111
-0.00118117
-0.00107701
-0.00102486
-0.00196132
-0.00162628
-0.0015649
-0.00132902
-0.00127462
-0.00107211
-0.00185756
-0.00188837
-0.00170052
-0.00149579
-0.00151697
-0.00113808
-0.00226603
-0.00145589
-0.000768052
-0.00102656
-0.00203295
-0.00190455
-0.00139091
-0.00132493
-0.000851621
-0.00137423
-0.00138542
-0.00120536
-0.00219765
-0.0022656
-0.00194632
-0.00214107
-0.00168026
-0.000950775
-0.00211762
-0.000928217
-0.00119774
-0.000987374
-0.00202131
-0.00197461
-0.00198466
-0.00132569
-0.000805018
-0.000888393
-0.00145444
-0.0017779
-0.000804746
-0.00110724
-0.00171425
-0.00129841
-0.00209304
-0.00103653
-0.00170786
-0.00155
-0.00149837
-0.00095771
-0.00122348
-0.0013646
-0.00195052
-0.00114323
-0.00176595
-0.00204546
-0.00207805
-0.00135981
-0.00114051
-0.00113404
-0.00178288
-0.00149653
-0.00113374
-0.000749934
-0.00110723
-0.00110152
-0.00190915
-0.00115587
-0.00116862
-0.00126572
-0.00112639
-0.00168367
-0.00117975
-0.00104431
-0.001314
-0.00124636
-0.0014948
-0.00166536
-0.00160241
-0.00136183
-0.00159854
-0.00122849
-0.00185221
-0.00198792
-0.00110742
-0.00194744
-0.00110671
-0.00192327
-0.00176817
-0.00165099
-0.00168002
-0.00196452
-0.000930638
-0.00121955
-0.0011338
-0.00198111
-0.00195036
-0.00180824
-0.00196975
-0.00200529
-0.00168432
-0.00206521
-0.00138521
-0.00124978
-0.00225508
-0.00131581
-0.00204824
-0.00163152
-0.00104057
-0.001253
-0.00204355
-0.00170107
-0.00154852
-0.00199478
-0.00195708
-0.00126541
-0.00125553
-0.00121882
-0.00173625
-0.00191553
-0.00220142
-0.00211496
-0.0023011
-0.00208513
-0.00227866
-0.00191183
-0.00199819
-0.00201375
-0.00189835
-0.00199431
-0.00183609
-0.00180876
-0.00128227
-0.00172276
-0.00201554
-0.00139978
-0.00205418
-0.00188709
-0.00218526
-0.00131397
-0.00207816
-0.00198672
-0.00129051
-0.00178045
-0.00128179
-0.00200049
-0.00182587
-0.00134362
-0.00126453
-0.00109319
-0.00125753
-0.00200323
-0.000917979
-0.00154362
-0.00125982
-0.00141387
-0.00208011
-0.00201365
-0.000631945
-0.00202097
-0.0010995
-0.00119255
-0.00206878
-0.00168173
-0.00120658
-0.00230836
-0.00131258
-0.000631946
-0.00121948
-0.00179581
-0.00224185
-0.00169937
-0.0019999
-0.00187267
-0.000983309
-0.000963296
-0.000822928
-0.000944722
-0.00134011
-0.00102434
-0.00165046
-0.0010324
-0.00177796
-0.00126952
-0.00122133
-0.0014296
-0.00132855
-0.00176558
-0.00127397
-0.00131077
-0.000579372
-0.00132192
-0.00191196
-0.00191331
-0.00173247
-0.00127153
-0.000828841
-0.00240535
-0.00161555
-0.00134896
-0.00124353
-0.00123944
-0.00128257
-0.0015641
-0.00125964
-0.000901434
-0.00124316
-0.000852221
-0.0015411
-0.00126821
-0.000540006
-0.00119453
-0.00141334
-0.00126823
-0.00195285
-0.00131708
-0.00169912
-0.000650937
-0.00136378
-0.00130222
-0.00113833
-0.00122248
-0.00144301
-0.00135874
-0.0014207
-0.00120758
-0.00122662
-0.00132472
-0.00177192
-0.0012491
-0.00177043
-0.00159805
-0.00126195
-0.00129587
-0.00130838
-0.00144738
-0.00130625
-0.00122296
-0.00138988
-0.00145846
-0.00172129
-0.00130812
-0.00129946
-0.00188228
-0.00185592
-0.00125004
-0.00126222
-0.000562459
-0.00152402
-0.00105653
-0.00143036
-0.00063095
-0.000654961
-0.00058532
-0.000594901
-0.000631124
-0.000664846
-0.000685156
-0.00160542
-0.00118846
-0.00119834
-0.00136979
-0.00133421
-0.00131756
-0.0013942
-0.00128937
-0.00131874
-0.00134205
-0.00131267
-0.00161285
-0.0011931
-0.00165783
-0.00128942
-0.00124459
-0.00131432
-0.00140349
-0.00146574
-0.00136538
-0.00156388
-0.00146088
-0.00135451
-0.000976505
-0.00136251
-0.0013325
-0.00143531
-0.00137413
-0.00130196
-0.00123825
-0.00136408
-0.00142303
-0.00193205
-0.00127561
-0.00187842
-0.00195772
-0.00134046
-0.0018759
-0.00143887
-0.00115235
-0.00157054
-0.00137604
-0.000991764
-0.000869503
-0.00155067
-0.00165166
-0.00139768
-0.00116181
-0.00139816
-0.00066164
-0.00138188
-0.00129648
-0.00066125
-0.000253974
-0.000277826
-0.00119704
-0.00127612
-0.00148237
-0.00142479
-0.000130611
-0.000136475
-0.00141148
-0.00142622
-0.00135005
-0.000496639
-0.00119405
-0.00138892
-0.00141558
-0.00122106
-0.00107777
-0.000517166
-0.00204537
-0.00128411
-0.00156941
-0.00159394
-0.0011453
-0.00144955
-0.0011198
-0.00123567
-0.000613238
-0.000925832
-0.00145127
-0.00146044
-0.00125505
-0.00131809
-0.00136026
-0.00143429
-0.00137186
-0.000675597
-0.0012044
-0.00135695
-0.00128318
-0.0019257
-0.000675456
-0.00104196
-0.00107323
-0.00101774
-0.000661946
-0.00066199
-0.00116585
-0.000940605
-0.00134562
-0.000722991
-0.000790468
-0.000258173
-0.000258172
-0.000538961
-0.000858033
-0.000578111
-0.0011465
-0.00124065
-0.00132344
-0.00149134
-0.00135289
-0.00125262
-0.000985967
-0.000608954
-0.00123787
-0.00128269
-0.00124196
-0.000684462
-0.000634082
-0.000492846
-0.0012402
-0.00126512
-0.00101605
-0.00114813
-0.0010595
-0.000970621
-0.00129861
-0.000970535
-0.00114603
-0.00110528
-0.000677895
-0.000836949
-0.000776592
-0.00137327
-0.000541995
-0.000570998
-0.000558543
-0.00129703
-0.000516104
-0.000505384
-0.000902034
-0.000471392
-0.00105061
-0.0010522
-0.000483906
-0.00114324
-0.000537381
-0.000533946
-0.000601792
-0.000509423
-0.000500369
-0.000748392
-0.000594817
-0.000540302
-0.000511011
-0.00104694
-0.00119528
-0.000562698
-0.00115556
-0.000463387
-0.00117232
-0.000931173
-0.000484151
-0.000410093
-0.000457343
-0.00060687
-0.00100658
-0.000829304
-0.000347118
-0.000385292
-0.00112239
-0.000326748
-0.000326745
-0.000370239
-0.000415519
-0.000468506
-0.000546418
-0.00090326
-0.000836246
-0.00112314
-0.000328246
-0.000328244
-0.000987677
-0.000405117
-0.000800006
-0.00036711
-0.000369485
-0.000486833
-0.000846997
-0.000877049
-0.000934347
-0.000856303
-0.000846975
-0.000185085
-0.00136719
-0.000236073
-0.000228757
-0.00110447
-0.00109681
-0.00023706
-0.000164648
-0.000231972
-0.00101875
SCALARS rr_P_ext' float
LOOKUP_TABLE default
0.000153469
0.000354638
0.000282884
0.000370096
0.000194233
0.000300232
0.000151738
0.000367988
0.000315791
0.000398519
0.0001394
0.000369115
0.000324738
0.000343245
0.000402957
0.000337197
0.000290471
0.000327998
0.000293094
0.000286959
0.000322739
5.78663e-05
0.000330678
0.000304829
0.000276304
0.000319136
0.000129404
0.000280123
0.000218584
0.000260438
0.000286875
0.000225967
0.000143321
0.000194989
0.000191725
0.000195426
0.000253234
0.000192084
0.000286576
0.000161101
0.00018372
0.000223193
0.000223214
0.000314845
0.000180068
0.000199341
0.000275902
0.000279551
0.000262217
0.000249373
0.000256194
0.000199028
0.000311683
0.000255754
0.000286922
0.000130683
0.000204715
0.000257629
0.000204706
0.000312848
0.000370775
0.000363801
0.000127386
0.000256491
0.000348461
0.000328501
0.000358666
0.000309968
0.000285066
0.000407028
0.000338153
0.000334466
0.000226998
0.000266018
0.00028116
0.000147852
0.000290523
0.000325451
0.000312573
0.000219702
0.000197695
0.000219325
0.000414087
0.000197889
0.000267349
9.89584e-05
0.000323585
0.000270925
0.000190696
2.84565e-05
0.00022161
3.09488e-05
0.000246534
0.000235775
0.000209759
0.000190917
0.000181574
0.00034987
0.000290733
0.000278976
0.000236314
0.000226192
0.00018987
0.000331256
0.000336821
0.000303323
0.000267145
0.000270406
0.000201548
0.000404317
0.000259393
0.000135887
0.000181725
0.000362509
0.000339699
0.000246994
0.000237385
0.000150874
0.000246209
0.00024603
0.000214415
0.000392741
0.000404169
0.000347475
0.000382053
0.00030035
0.000170278
0.00037775
0.000164452
0.000212702
0.000176637
0.000360563
0.00035259
0.000354041
0.00023526
0.000144236
0.00015729
0.000259332
0.000317485
0.000144185
0.000196519
0.000305813
0.000231011
0.000373375
0.000183622
0.000304599
0.000276461
0.000267029
0.00017067
0.000217467
0.000242979
0.000347961
0.000202742
0.000314858
0.000364885
0.000370689
0.000242656
0.000202449
0.000201308
0.000317867
0.000266485
0.000201078
0.000132669
0.000196297
0.000195524
0.000340541
0.000205174
0.000207433
0.000224468
0.000199944
0.000301025
0.000209488
0.000185137
0.000234506
0.000221321
0.000266957
0.000297748
0.000285761
0.000243645
0.000285137
0.000217868
0.000330401
0.000354605
0.000196556
0.000347675
0.000196185
0.000343359
0.000315799
0.000295195
0.000299691
0.00035073
0.000164902
0.000216559
0.000201074
0.000353403
0.000347751
0.000322431
0.00035172
0.000357726
0.000300624
0.000368424
0.000246512
0.000221996
0.000402663
0.000233357
0.000365758
0.000291208
0.000184646
0.000223894
0.000364566
0.000303991
0.000276299
0.000355789
0.000349485
0.000224929
0.000224044
0.000216523
0.000310097
0.000341799
0.000392811
0.000377333
0.000410565
0.000372035
0.00040656
0.000341076
0.000357115
0.000359883
0.000339272
0.000356426
0.000328452
0.000323564
0.000227907
0.000307354
0.000359447
0.00024924
0.000367151
0.0003373
0.000389726
0.000233405
0.000370599
0.000354402
0.000229403
0.000318147
0.00022784
0.000357249
0.000325591
0.00023885
0.000224656
0.000193669
0.000222801
0.000357727
0.000162592
0.000275177
0.000223805
0.000251592
0.000370942
0.0003593
0.000113288
0.000360593
0.000194726
0.000211855
0.000368938
0.000299908
0.000214316
0.00041188
0.000233546
0.000113287
0.000216645
0.000320445
0.00040021
0.000303018
0.000357439
0.000334309
0.000175914
0.000171744
0.000145623
0.0001671
0.000239668
0.000182468
0.000294332
0.000183511
0.000317708
0.000226567
0.000216969
0.000255143
0.00023624
0.000314929
0.000226536
0.000232843
0.000103956
0.000236374
0.000341741
0.000341977
0.000309077
0.000226123
0.000148426
0.000429379
0.000287689
0.000239902
0.000221069
0.000221662
0.000227989
0.00027964
0.000223962
0.000159427
0.000221071
0.000150962
0.000275251
0.000225439
9.6891e-05
0.000212386
0.000252362
0.00022541
0.000348658
0.000234168
0.00030284
0.000115075
0.000243012
0.000231477
0.000203569
0.000217289
0.000256965
0.00024259
0.000253455
0.000214702
0.000218134
0.000235698
0.00031647
0.000222127
0.000315726
0.000284828
0.000225759
0.000230448
0.000232778
0.000257789
0.00023243
0.000217455
0.000247317
0.000260579
0.000306953
0.000232743
0.00023098
0.000335775
0.00033108
0.000222283
0.000225804
9.91584e-05
0.00027162
0.000187178
0.000254771
0.000110504
0.000114711
0.000102521
0.000104196
0.000110545
0.000116438
0.000120001
0.00028675
0.00021276
0.000213657
0.000243912
0.000237415
0.000234439
0.000248687
0.000229406
0.000234616
0.000240261
0.000233569
0.000288219
0.000211853
0.000296231
0.000229774
0.000221615
0.000233852
0.000251008
0.000261234
0.000243144
0.000278729
0.000260153
0.000240989
0.000173431
0.00024261
0.000237461
0.000256502
0.000244547
0.000231615
0.000220355
0.000242873
0.000253586
0.00034463
0.000227
0.000335057
0.000348832
0.000238674
0.000334542
0.00025639
0.000205037
0.000280398
0.00024507
0.00017753
0.000153781
0.000276971
0.000295096
0.000249072
0.000206923
0.000249552
0.000116661
0.000246254
0.000230896
0.000116906
4.55668e-05
4.98479e-05
0.000213341
0.000227077
0.00026404
0.000253564
2.34755e-05
2.45295e-05
0.000251721
0.000254353
0.000240754
8.7566e-05
0.000212432
0.000248014
0.000252052
0.000217395
0.0001919
9.11665e-05
0.000365151
0.000228484
0.000279699
0.000284073
0.000203904
0.000258128
0.000199362
0.000220013
0.000108339
0.000164006
0.000258432
0.000260284
0.000223526
0.000234655
0.000242243
0.000255465
0.000244328
0.000119487
0.00021527
0.000241472
0.000229023
0.000343808
0.000119453
0.000185689
0.000191242
0.000182071
0.000118753
0.00011876
0.000208463
0.000167338
0.000239809
0.000127844
0.000141777
4.63909e-05
4.63904e-05
9.49954e-05
0.000153707
0.000103613
0.000204298
0.000221799
0.000235959
0.000266056
0.000241548
0.000223711
0.00017583
0.000107368
0.000220644
0.000228914
0.000221768
0.000120835
0.000113602
8.71148e-05
0.000221443
0.000225708
0.000180637
0.000204689
0.000188934
0.000173656
0.000231611
0.000173639
0.00020425
0.000197365
0.000121473
0.000149986
0.000137327
0.000245029
9.54971e-05
0.000100631
9.83855e-05
0.000231552
9.09851e-05
8.8999e-05
0.000160588
8.30452e-05
0.000188066
0.000188348
8.52664e-05
0.000203623
9.49414e-05
9.40729e-05
0.000106296
8.97479e-05
8.83811e-05
0.000134074
0.000105136
9.52558e-05
9.00399e-05
0.000186686
0.000213526
9.93713e-05
0.00020606
8.16097e-05
0.000209127
0.000165864
8.52884e-05
7.24082e-05
8.05509e-05
0.000106965
0.000179356
0.000148477
6.23598e-05
6.92073e-05
0.00020026
5.86985e-05
5.86977e-05
6.65071e-05
7.45727e-05
8.28294e-05
9.79069e-05
0.000161524
0.000149721
0.000200365
5.89243e-05
5.89235e-05
0.000176872
7.13952e-05
0.000142485
6.47078e-05
6.52971e-05
8.6042e-05
0.000151895
0.000157279
0.000167542
0.000153551
0.00015189
3.32438e-05
0.000245164
4.2378e-05
4.10973e-05
0.000198074
0.000196703
4.2591e-05
2.9574e-05
4.16438e-05
0.000182664
SCALARS rr_S' float
LOOKUP_TABLE default
0.000664236
0.00151728
0.0012115
0.00158373
0.000828635
0.00128582
0.00065677
0.00157492
0.00135372
0.00170509
0.000602907
0.00157974
0.00139014
0.00146838
0.00172091
0.00144385
0.00124211
0.00140396
0.00125707
0.0012293
0.00138279
0.000245925
0.00141679
0.00130583
0.00118368
0.00136576
0.000558756
0.00119952
0.000940465
0.00110934
0.0012281
0.000972208
0.000618949
0.000831117
0.000816921
0.000832989
0.00107852
0.000818566
0.00122685
0.00069571
0.000790486
0.000950536
0.000950635
0.00134783
0.00077678
0.000857526
0.00118305
0.00119814
0.00112296
0.00107371
0.00110262
0.000855313
0.00132992
0.00109905
0.00122438
0.000563535
0.000872245
0.00110711
0.000872215
0.00134013
0.00158558
0.00155428
0.000549626
0.00109588
0.00148872
0.00140474
0.00153374
0.00132652
0.00122128
0.00174137
0.0014429
0.00142717
0.000976697
0.00113715
0.00120406
0.000638835
0.00124046
0.00139171
0.00133768
0.000943915
0.000851395
0.000935349
0.00176996
0.000852516
0.00114988
0.00042683
0.00138563
0.00115833
0.000822617
0.000121004
0.000952342
0.000131605
0.00105258
0.00100836
0.00090132
0.000821766
0.000781954
0.00149697
0.00124138
0.00119436
0.00101421
0.000972596
0.00081799
0.00141775
0.00144128
0.00129791
0.00114172
0.00115778
0.000868316
0.00172955
0.00111113
0.000585969
0.000783215
0.00155161
0.00145363
0.00106137
0.00101146
0.000649773
0.00104909
0.00105718
0.000919858
0.00167749
0.00172921
0.00148557
0.00163418
0.00128258
0.000725813
0.00161626
0.000708216
0.000913966
0.000753711
0.00154275
0.00150718
0.00151478
0.00101157
0.000614556
0.000677808
0.00111007
0.00135704
0.000614348
0.000844882
0.0013084
0.000990879
0.0015975
0.000790853
0.0013035
0.00118302
0.00114357
0.000730932
0.000933648
0.00104143
0.00148873
0.000872307
0.00134782
0.00156119
0.00158606
0.00103789
0.000870276
0.000865342
0.00136074
0.00114212
0.000865073
0.000572144
0.00084483
0.000840521
0.00145714
0.000881998
0.000891725
0.000965776
0.000859501
0.00128519
0.000900234
0.000796814
0.00100293
0.000951061
0.00114096
0.00127122
0.00122302
0.00103956
0.00122007
0.00093737
0.00141369
0.00151727
0.000845025
0.00148643
0.000844429
0.00146798
0.00134963
0.00126025
0.00128227
0.00149947
0.000710068
0.000930604
0.000865114
0.00151207
0.00148857
0.0013801
0.00150347
0.00153053
0.00128558
0.00157626
0.00105713
0.000953691
0.00172126
0.00100399
0.00156339
0.00124528
0.000794004
0.000956425
0.00155973
0.00129845
0.00118191
0.0015225
0.00149381
0.000965647
0.000958296
0.000930068
0.00132526
0.00146203
0.00168024
0.00161423
0.00175631
0.00159148
0.00173919
0.00145921
0.00152525
0.00153712
0.00144903
0.00152228
0.00140157
0.00138071
0.000978512
0.00131489
0.00153833
0.00106828
0.00156799
0.00144045
0.00166786
0.00100267
0.00158612
0.00151636
0.000984808
0.00135903
0.000978147
0.00152695
0.00139355
0.00102534
0.000964954
0.000834085
0.000959472
0.00152904
0.000700395
0.00117812
0.000961358
0.001079
0.00158761
0.00153693
0.000482442
0.00154251
0.000838886
0.000910024
0.00157896
0.00128355
0.000920721
0.00176186
0.0010017
0.000482443
0.000930576
0.00137066
0.00171114
0.00129701
0.00152655
0.00142936
0.00075061
0.000735212
0.000627843
0.000720747
0.00102296
0.000781771
0.00125969
0.000787833
0.00135713
0.000968979
0.000931981
0.00109116
0.00101385
0.00134757
0.000972198
0.00100023
0.000442325
0.00100907
0.00145943
0.00146046
0.0013223
0.000970344
0.000632725
0.00183594
0.00123296
0.00102943
0.000948962
0.000946111
0.000978743
0.00119392
0.00096126
0.000687717
0.000948688
0.000650227
0.00117631
0.000967792
0.00041227
0.000911575
0.00107878
0.000967797
0.00149057
0.0010051
0.00129679
0.000496601
0.00104084
0.000993741
0.000868926
0.000932889
0.00110128
0.0010371
0.00108434
0.000921529
0.000936071
0.00101096
0.00135249
0.000953226
0.00135125
0.00121966
0.000963312
0.000988916
0.000998488
0.00110462
0.000996871
0.00093327
0.00106069
0.00111325
0.00131375
0.000998291
0.00099163
0.00143664
0.00141653
0.000953936
0.000963517
0.000429037
0.00116315
0.000806116
0.00109164
0.000481114
0.000499423
0.000446321
0.000453626
0.000481248
0.00050696
0.000522448
0.00122541
0.000907242
0.000914606
0.00104539
0.0010182
0.0010055
0.00106411
0.000983984
0.00100639
0.00102449
0.00100176
0.00123111
0.000910417
0.00126543
0.000984096
0.000949846
0.00100302
0.00107134
0.00111867
0.00104203
0.00119358
0.00111492
0.00103369
0.000745151
0.00103984
0.00101697
0.00109559
0.00104868
0.000993583
0.000944976
0.00104103
0.00108607
0.00147463
0.000973488
0.00143369
0.00149414
0.001023
0.00143175
0.00109815
0.000879418
0.00119875
0.00105018
0.000757085
0.000663357
0.00118362
0.00126072
0.00106672
0.000886678
0.00106717
0.000504695
0.00105466
0.000989456
0.000504471
0.000193897
0.000212108
0.000913593
0.000973878
0.00113133
0.00108734
9.97239e-05
0.000104201
0.00107729
0.00108854
0.0010304
0.000378834
0.00091123
0.00106014
0.00108034
0.000931882
0.000822527
0.000394486
0.00156118
0.000979968
0.00119779
0.00121652
0.000874065
0.00110627
0.000854599
0.000943033
0.000467824
0.000706391
0.00110758
0.00111462
0.000957841
0.00100593
0.00103813
0.00109464
0.00104698
0.000515423
0.000919339
0.00103556
0.000979407
0.00146984
0.000515314
0.000795234
0.000819096
0.000776895
0.000505362
0.000505396
0.000889928
0.000717817
0.00102699
0.000551575
0.000603475
0.000197118
0.000197117
0.000411108
0.000655022
0.000441339
0.000875017
0.000947018
0.00101008
0.00113826
0.00103263
0.000956108
0.000752525
0.000464505
0.000944761
0.000979026
0.000947966
0.000522139
0.00048406
0.000375991
0.000946618
0.000965606
0.000775369
0.000876278
0.000808645
0.000740926
0.000991149
0.00074086
0.000874664
0.00084364
0.000517511
0.000638937
0.000592469
0.00104815
0.000413418
0.000435547
0.000426035
0.000989989
0.000393678
0.000385481
0.000688407
0.000359562
0.00080201
0.000803223
0.000369111
0.000872507
0.000409956
0.000407278
0.000459087
0.000388571
0.000381714
0.000571324
0.000453781
0.000412137
0.000389785
0.000799058
0.000912357
0.000429259
0.000881963
0.000353449
0.000894766
0.000710663
0.000369293
0.00031284
0.000348842
0.000462907
0.000768227
0.000633074
0.000265025
0.000294169
0.000856665
0.000249472
0.00024947
0.000282677
0.000317233
0.000357424
0.000417139
0.00068949
0.000638373
0.000857233
0.000250607
0.000250605
0.000753981
0.000309012
0.000610555
0.000280025
0.000281877
0.0003714
0.000646628
0.000669569
0.00071331
0.00065373
0.000646611
0.000141311
0.00104376
0.000180235
0.000174656
0.000843194
0.000837346
0.000180996
0.000125708
0.000177105
0.000777747
SCALARS rr_P' float
LOOKUP_TABLE default
5.31033e-05
0.000116011
9.29898e-05
0.000121187
6.26436e-05
9.87037e-05
5.2514e-05
0.00012057
0.000104298
0.000130391
4.8075e-05
0.00012094
0.000106522
0.000112219
0.000130652
0.00011075
9.47803e-05
0.000107541
9.70495e-05
9.44636e-05
0.00010632
1.83099e-05
0.000108935
0.000100339
9.09638e-05
0.000104538
4.42738e-05
9.2028e-05
7.35037e-05
8.33505e-05
9.41172e-05
7.59777e-05
4.90732e-05
6.26118e-05
6.14539e-05
6.27552e-05
8.09957e-05
6.16114e-05
9.40294e-05
5.5152e-05
6.1789e-05
7.13709e-05
7.1381e-05
0.000103291
6.13283e-05
6.69773e-05
9.12467e-05
9.22412e-05
8.61871e-05
8.41522e-05
8.62785e-05
6.65422e-05
0.000100609
8.5492e-05
9.26568e-05
4.44266e-05
6.56089e-05
8.61189e-05
6.56091e-05
0.000102959
0.000121012
0.000118176
4.34228e-05
8.33395e-05
0.000113185
0.000107187
0.000117039
0.00010153
9.38743e-05
0.000133131
0.000109166
0.000107979
7.63447e-05
8.66474e-05
9.24038e-05
5.07471e-05
9.40885e-05
0.000106196
0.000102389
7.33626e-05
6.67858e-05
7.061e-05
0.000134829
6.69595e-05
8.97497e-05
3.36804e-05
0.000106306
8.83229e-05
6.49436e-05
9.02997e-06
7.40855e-05
9.82173e-06
7.98204e-05
7.69817e-05
7.00867e-05
6.43302e-05
6.13333e-05
0.000114483
9.41635e-05
9.15557e-05
7.84995e-05
7.58301e-05
6.42545e-05
0.000108553
0.000110268
9.92866e-05
8.69247e-05
8.87837e-05
6.82121e-05
0.000132164
8.53617e-05
4.61955e-05
6.16196e-05
0.000118832
0.000111223
8.25484e-05
7.60843e-05
5.09743e-05
7.89256e-05
8.22101e-05
7.10865e-05
0.000127419
0.000132221
0.000113266
0.000124839
9.73354e-05
5.46839e-05
0.000123608
5.55493e-05
7.10717e-05
5.70259e-05
0.000117996
0.000114837
0.000115839
7.88633e-05
4.62267e-05
5.32952e-05
8.50352e-05
0.000103373
4.62129e-05
6.58356e-05
0.000100039
7.6521e-05
0.000122159
6.20537e-05
9.97564e-05
9.05155e-05
8.77705e-05
5.61073e-05
7.23629e-05
8.01885e-05
0.000113835
6.81779e-05
0.00010327
0.000119385
0.000121303
7.92675e-05
6.77832e-05
6.739e-05
0.000104272
8.79225e-05
6.75902e-05
4.512e-05
6.61078e-05
6.54702e-05
0.000111463
6.86984e-05
6.94605e-05
7.54805e-05
6.69422e-05
9.74507e-05
7.00269e-05
6.23538e-05
7.65653e-05
7.39729e-05
8.68799e-05
9.63942e-05
9.36346e-05
7.86264e-05
9.33281e-05
7.32565e-05
0.00010812
0.000116047
6.58421e-05
0.00011333
6.60992e-05
0.000111926
0.000102742
9.55428e-05
9.8061e-05
0.000114318
5.5668e-05
7.23842e-05
6.76102e-05
0.000115637
0.00011404
0.000105707
0.000114558
0.000117037
9.81097e-05
0.000120523
8.15662e-05
7.4097e-05
0.000131158
7.8458e-05
0.000119094
9.5025e-05
6.19226e-05
7.26806e-05
0.000119252
9.8631e-05
9.03042e-05
0.000116494
0.000113789
7.48321e-05
7.31919e-05
7.22285e-05
0.000100889
0.000111697
0.000128371
0.000123388
0.00013422
0.000121619
0.000132912
0.000111553
0.000115831
0.000116748
0.000110044
0.0001156
0.000106061
0.000104481
7.5853e-05
0.000100509
0.00011777
8.22593e-05
0.000119042
0.00010934
0.000127671
7.7894e-05
0.000121447
0.000115964
7.63009e-05
0.000103271
7.58005e-05
0.000116299
0.000106722
7.94343e-05
7.4923e-05
6.54353e-05
7.52523e-05
0.00011647
5.49924e-05
9.03179e-05
7.46609e-05
8.32794e-05
0.000121567
0.000117429
3.62153e-05
0.000117869
6.58849e-05
7.0674e-05
0.000120884
9.8267e-05
7.15426e-05
0.00013462
7.73392e-05
3.62165e-05
7.22628e-05
0.000104707
0.000130497
9.9341e-05
0.000115908
0.000109002
5.67844e-05
5.63392e-05
4.94618e-05
5.68743e-05
7.74824e-05
6.01026e-05
9.64398e-05
6.10501e-05
0.00010312
7.39756e-05
7.2376e-05
8.32949e-05
7.84582e-05
0.000103085
7.52314e-05
7.76971e-05
3.30911e-05
7.64817e-05
0.000110787
0.000110874
0.000101086
7.50635e-05
4.7689e-05
0.000140036
9.49033e-05
7.96224e-05
7.35017e-05
7.16631e-05
7.58337e-05
9.05389e-05
7.44183e-05
5.42901e-05
7.33959e-05
5.10316e-05
8.95416e-05
7.49838e-05
3.08444e-05
7.05712e-05
8.22029e-05
7.50229e-05
0.000113627
7.78213e-05
9.94875e-05
3.9261e-05
7.99248e-05
7.70028e-05
6.58311e-05
7.23055e-05
8.47676e-05
7.90543e-05
8.28983e-05
7.13475e-05
7.24158e-05
7.80636e-05
0.000102958
7.37485e-05
0.000103449
9.35684e-05
7.28799e-05
7.65035e-05
7.7117e-05
8.4967e-05
7.69543e-05
7.22334e-05
8.1873e-05
8.46343e-05
0.000100589
7.70866e-05
7.6847e-05
0.000109859
0.000108313
7.38166e-05
7.28985e-05
3.42638e-05
8.92476e-05
6.32373e-05
8.39527e-05
3.93331e-05
4.08277e-05
3.64775e-05
3.70785e-05
3.93315e-05
4.14482e-05
4.27066e-05
9.32657e-05
6.84608e-05
7.00797e-05
8.0483e-05
7.85887e-05
7.7622e-05
8.13992e-05
7.59845e-05
7.77316e-05
7.73008e-05
7.73354e-05
9.35259e-05
7.08252e-05
9.61667e-05
7.55521e-05
7.3131e-05
7.74443e-05
8.1139e-05
8.58328e-05
8.02035e-05
9.15768e-05
8.58098e-05
7.98301e-05
5.79237e-05
8.00623e-05
7.80616e-05
8.32188e-05
8.09065e-05
7.67645e-05
7.29174e-05
8.01752e-05
8.33761e-05
0.000112796
7.51217e-05
0.000109672
0.00011475
7.87773e-05
0.000109602
8.43277e-05
6.78989e-05
9.13841e-05
8.07956e-05
5.71496e-05
5.23648e-05
9.00841e-05
9.58465e-05
8.18877e-05
6.82065e-05
8.14378e-05
4.02832e-05
8.09653e-05
7.61291e-05
3.98732e-05
1.45097e-05
1.58705e-05
7.01024e-05
7.51698e-05
8.69976e-05
8.38859e-05
7.41149e-06
7.74425e-06
8.24679e-05
8.33229e-05
7.88905e-05
3.02395e-05
7.03844e-05
8.07665e-05
8.31877e-05
7.17841e-05
6.33414e-05
3.15133e-05
0.00011904
7.56574e-05
9.19181e-05
9.33544e-05
6.73351e-05
8.5152e-05
6.58363e-05
7.26218e-05
3.70756e-05
5.54342e-05
8.52565e-05
8.55302e-05
7.36878e-05
7.75069e-05
7.98876e-05
8.41912e-05
8.05465e-05
4.06859e-05
6.97891e-05
7.99142e-05
7.47488e-05
0.000112048
4.06887e-05
6.10367e-05
6.28928e-05
5.87765e-05
3.78305e-05
3.78339e-05
6.74561e-05
5.54491e-05
7.88216e-05
4.35718e-05
4.52155e-05
1.46646e-05
1.46648e-05
3.28573e-05
4.93036e-05
3.31594e-05
6.71857e-05
7.18281e-05
7.73962e-05
8.70213e-05
7.87107e-05
7.27956e-05
5.76122e-05
3.708e-05
7.24608e-05
7.47463e-05
7.22262e-05
4.14882e-05
3.64204e-05
2.97402e-05
7.21359e-05
7.38089e-05
6.00469e-05
6.71582e-05
6.19193e-05
5.6039e-05
7.58487e-05
5.60358e-05
6.71152e-05
6.4273e-05
3.89113e-05
4.80265e-05
4.67949e-05
8.00873e-05
3.30794e-05
3.48203e-05
3.41233e-05
7.54862e-05
3.14406e-05
3.09036e-05
5.30395e-05
2.87854e-05
6.0536e-05
6.06293e-05
2.95288e-05
6.71099e-05
3.24843e-05
3.25951e-05
3.64091e-05
3.11034e-05
3.0273e-05
4.2993e-05
3.58999e-05
3.29091e-05
3.11863e-05
6.11952e-05
6.9399e-05
3.40674e-05
6.75389e-05
2.83279e-05
6.84224e-05
5.46457e-05
2.95695e-05
2.48448e-05
2.79507e-05
3.69974e-05
5.89983e-05
4.77526e-05
1.97334e-05
2.19162e-05
6.5461e-05
1.85777e-05
1.85779e-05
2.10555e-05
2.37126e-05
2.82529e-05
3.1372e-05
5.22456e-05
4.81517e-05
6.55403e-05
1.87149e-05
1.87151e-05
5.68235e-05
2.47094e-05
4.6967e-05
2.23771e-05
2.23114e-05
2.93902e-05
4.84742e-05
5.01999e-05
5.34949e-05
4.90217e-05
4.84743e-05
1.05302e-05
7.82686e-05
1.34598e-05
1.30033e-05
6.32043e-05
6.27624e-05
1.34727e-05
9.36598e-06
1.32236e-05
5.83431e-05
SCALARS rr_T' float
LOOKUP_TABLE default
0.000203021
0.000462557
0.000369412
0.000482837
0.000252459
0.000392077
0.000200742
0.000480158
0.000412867
0.000519816
0.000184253
0.000481629
0.000423846
0.000447634
0.000524433
0.000440245
0.000378627
0.000428051
0.000383436
0.000374865
0.000421682
7.4866e-05
0.000432055
0.000398201
0.000360954
0.000416389
0.000170693
0.000365752
0.000287067
0.000337876
0.000374442
0.000296755
0.000189087
0.000253171
0.000248826
0.000253742
0.000328482
0.000249333
0.000374062
0.000212536
0.000241289
0.000289499
0.000289529
0.000410948
0.000237247
0.00026174
0.000360837
0.0003654
0.000342414
0.000327792
0.000336586
0.000261005
0.000405202
0.00033538
0.000373052
0.0001721
0.000265675
0.000337839
0.000265666
0.000408658
0.000483331
0.000473689
0.000167873
0.000333988
0.000453708
0.000428197
0.000467526
0.000404424
0.000372425
0.000530872
0.000439627
0.000434837
0.000298128
0.000346602
0.000367141
0.000195185
0.000377998
0.000424225
0.000407828
0.000288027
0.000259934
0.000284949
0.000539478
0.000260296
0.000350961
0.000130359
0.0004225
0.000353071
0.000251245
3.68417e-05
0.000290612
4.00693e-05
0.000320742
0.000307379
0.000275035
0.00025086
0.000238732
0.000456369
0.000378279
0.000364161
0.000309401
0.00029683
0.000249757
0.000432248
0.000439402
0.000395688
0.000347981
0.000353014
0.000265123
0.000527257
0.000338827
0.000178953
0.000239161
0.000473065
0.000443168
0.000323878
0.000308079
0.000198378
0.000319544
0.000322597
0.000280593
0.000511216
0.000527168
0.000452819
0.000498176
0.000390847
0.000221094
0.000492738
0.000216219
0.000278895
0.000229645
0.000470331
0.00045939
0.000461801
0.000308724
0.000187187
0.000206965
0.000338447
0.000413622
0.000187124
0.000257844
0.000398874
0.000302245
0.000487015
0.000241453
0.000397403
0.000360667
0.000348699
0.000222878
0.000284847
0.000317611
0.000453856
0.000266263
0.000410939
0.000475945
0.000483533
0.000316389
0.000265586
0.000264079
0.000414881
0.000348315
0.00026405
0.000174734
0.000257894
0.000256508
0.000444233
0.000269165
0.000272134
0.000294792
0.000262299
0.000391624
0.00027471
0.000243237
0.000305723
0.000290218
0.000347753
0.000387365
0.000372872
0.00031673
0.000371958
0.00028612
0.000430981
0.00046256
0.000257887
0.000453078
0.000257776
0.000447457
0.000411345
0.000384019
0.000390913
0.000457051
0.000216778
0.000283976
0.000264066
0.000460975
0.000453852
0.000420777
0.000458261
0.000466601
0.000391878
0.00048054
0.000322438
0.000291003
0.000524643
0.000306455
0.000476516
0.000379592
0.00024233
0.000291475
0.0004755
0.000395699
0.0003603
0.000464163
0.000455308
0.000294608
0.000292125
0.000283787
0.000403919
0.000445699
0.000512221
0.000492112
0.000535418
0.000485167
0.000530197
0.000444847
0.000464814
0.000468435
0.00044159
0.00046391
0.000427042
0.000420685
0.000298538
0.00040085
0.000469012
0.0003258
0.000477834
0.000438961
0.000508502
0.000305947
0.000483587
0.000462279
0.000300449
0.000414171
0.00029842
0.000465405
0.000424881
0.000312813
0.000294429
0.000254651
0.00029293
0.000466043
0.000213844
0.000359211
0.000293335
0.000329114
0.000484041
0.000468532
0.000146932
0.000470236
0.000256132
0.000277672
0.000481401
0.000391329
0.000280945
0.000537104
0.00030554
0.000146932
0.000283941
0.000417842
0.000521582
0.000395441
0.000465208
0.000435688
0.000228697
0.000224162
0.000191732
0.000220125
0.000311697
0.000238401
0.000384053
0.000240357
0.000413592
0.000295375
0.000284371
0.000332619
0.000309288
0.000410827
0.00029658
0.000305202
0.00013469
0.000307476
0.000444747
0.000445064
0.000403111
0.000296009
0.000192743
0.000559625
0.000376015
0.000314031
0.000289507
0.000288281
0.000298599
0.000363814
0.00029325
0.000210043
0.000289405
0.000198522
0.00035852
0.000295258
0.000125539
0.000278093
0.000328813
0.000295269
0.000454337
0.000306626
0.000395411
0.000151683
0.000317385
0.000303176
0.000264767
0.000284616
0.000335858
0.000316114
0.00033057
0.000281131
0.000285555
0.000308367
0.000412217
0.000290789
0.000411968
0.00037189
0.000293503
0.000301675
0.000304567
0.000336864
0.000304065
0.000284708
0.00032353
0.000339277
0.000400535
0.000304504
0.000302535
0.000437973
0.000431838
0.000291009
0.000293566
0.000131129
0.000354664
0.000246111
0.000332901
0.000147262
0.000152866
0.00013661
0.000138847
0.000147301
0.000155173
0.000159912
0.000373482
0.000276384
0.000278858
0.000318818
0.000310571
0.000306696
0.00032441
0.000300141
0.000306978
0.000312101
0.000305559
0.000375181
0.000277819
0.000385651
0.000300077
0.000289679
0.000305945
0.000326436
0.000341099
0.000317788
0.00036394
0.000340015
0.000315303
0.000227378
0.000317125
0.000310098
0.000333879
0.000319858
0.000303078
0.00028823
0.000317494
0.000331169
0.000449561
0.000296928
0.000437082
0.000455612
0.000311994
0.000436508
0.00033486
0.000268243
0.00036539
0.000320263
0.000230644
0.000202603
0.000360744
0.000384221
0.00032527
0.0002704
0.000325299
0.000154247
0.000321593
0.000301747
0.000154085
5.90432e-05
6.45881e-05
0.000278571
0.000297051
0.000345003
0.000331649
3.03558e-05
3.17187e-05
0.000328443
0.00033187
0.000314149
0.000115781
0.000277954
0.000323128
0.000329476
0.000284208
0.000250853
0.000120571
0.000475866
0.000298912
0.000365228
0.000370938
0.000266576
0.000337378
0.000260639
0.000287604
0.000142915
0.000215668
0.000337779
0.000339868
0.000292104
0.000306795
0.000316592
0.000333817
0.000319289
0.00015742
0.000280158
0.000315861
0.000298549
0.000448018
0.000157389
0.000242484
0.000249766
0.000236706
0.000153891
0.000153901
0.000271175
0.000218957
0.000313152
0.000168469
0.000183777
6.00053e-05
6.0005e-05
0.000125655
0.000199519
0.00013442
0.000266817
0.000288578
0.000307968
0.000347007
0.000314752
0.000291409
0.000229429
0.000141965
0.000288066
0.000298439
0.000288939
0.000159533
0.000147442
0.000114846
0.000288531
0.000294367
0.000236546
0.000267174
0.000246541
0.000225745
0.000302173
0.000225725
0.0002667
0.000257139
0.000157626
0.000194608
0.000180957
0.000319527
0.000126367
0.000133123
0.000130231
0.000301759
0.000120322
0.000117842
0.000209954
0.000109909
0.000244327
0.000244696
0.000112822
0.000266078
0.000125235
0.000124491
0.000140252
0.000118774
0.000116615
0.000174022
0.000138612
0.000125962
0.000119143
0.000243619
0.00027806
0.000131145
0.000268895
0.000108048
0.000272778
0.000216719
0.000112884
9.55814e-05
0.000106637
0.000141488
0.000234257
0.000192855
8.06813e-05
8.95563e-05
0.000261152
7.59472e-05
7.59464e-05
8.60566e-05
9.6595e-05
0.000109173
0.000127056
0.000210094
0.00019447
0.000261334
7.63039e-05
7.63034e-05
0.000229677
9.44528e-05
0.000186195
8.55882e-05
8.61027e-05
0.000113448
0.000196923
0.000203911
0.000217235
0.000199089
0.000196918
4.30211e-05
0.00031787
5.48775e-05
5.31701e-05
0.000256784
0.000255003
5.50994e-05
3.82703e-05
5.39238e-05
0.000236863
SCALARS rr_uec(SIM,_S_ext) float
LOOKUP_TABLE default
0.0144465
0.0329058
0.0262801
0.0343487
0.0179581
0.0278925
0.0142843
0.034158
0.0293721
0.0369791
0.0131112
0.0342626
0.0301521
0.0318439
0.0373057
0.031319
0.0269347
0.0304514
0.0272788
0.0266682
0.0299988
0.00532486
0.0307369
0.0283284
0.0256786
0.0296216
0.0121456
0.0260197
0.0204243
0.0240331
0.0266376
0.0211136
0.0134544
0.0180084
0.017699
0.018049
0.0233649
0.0177352
0.0266105
0.0151229
0.0171674
0.020592
0.0205941
0.0292346
0.0168809
0.0186223
0.0256708
0.0259951
0.0243594
0.0233223
0.0239477
0.0185695
0.0288233
0.0238609
0.0265365
0.0122452
0.0188975
0.0240359
0.0188969
0.0290723
0.0343832
0.0336963
0.0119446
0.0237585
0.0322749
0.0304608
0.0332588
0.0287704
0.0264947
0.0377657
0.0312721
0.0309314
0.0212113
0.0246561
0.0261185
0.0138886
0.0268887
0.0301783
0.0290125
0.020492
0.0184943
0.020269
0.0383768
0.0185202
0.02497
0.0092754
0.0300567
0.0251164
0.017877
0.00262041
0.0206759
0.00284998
0.0228158
0.0218662
0.0195676
0.0178485
0.0169857
0.0324656
0.0269086
0.0259063
0.022012
0.0211186
0.0177704
0.0307499
0.0312586
0.0281488
0.0247542
0.0251133
0.0188637
0.0375085
0.0241045
0.012733
0.0170167
0.0336537
0.0315266
0.0230426
0.0219137
0.0141145
0.0227292
0.0229515
0.0199624
0.0363656
0.0375023
0.0322123
0.0354396
0.0278029
0.0157266
0.0350528
0.0153839
0.0198422
0.0163354
0.0334589
0.0326797
0.0328521
0.0219647
0.0133147
0.0147257
0.0240768
0.0294238
0.0133102
0.0183448
0.0283752
0.0215026
0.0346456
0.0171793
0.028271
0.0256573
0.0248065
0.0158556
0.0202653
0.0225954
0.0322869
0.0189442
0.0292339
0.0338581
0.0343981
0.0225072
0.0188955
0.0187883
0.0295145
0.0247796
0.0187867
0.0124328
0.0183489
0.0182497
0.0316023
0.0191501
0.0193613
0.020974
0.0186616
0.0278579
0.0195445
0.0173061
0.0217485
0.0206478
0.024738
0.027555
0.0265258
0.0225299
0.0264606
0.020357
0.0306595
0.032906
0.0183478
0.0322306
0.0183406
0.0318309
0.0292616
0.0273168
0.0278091
0.0325132
0.0154236
0.0202038
0.0187879
0.0327934
0.0322869
0.0299339
0.0325994
0.0331936
0.0278772
0.0341851
0.0229391
0.0207037
0.0373216
0.0218037
0.0338979
0.0270032
0.0172411
0.0207342
0.0338266
0.0281481
0.025631
0.0330201
0.0323892
0.0209597
0.0207812
0.0201902
0.0287333
0.0317065
0.0364388
0.0350084
0.0380891
0.0345142
0.0377176
0.0316457
0.0330647
0.0333224
0.0314127
0.0330004
0.0303769
0.0299247
0.0212394
0.0285159
0.0333655
0.0231779
0.0339908
0.0312255
0.0361747
0.0217669
0.0344024
0.032886
0.0213753
0.0294623
0.0212309
0.0331074
0.0302261
0.0222549
0.0209473
0.0181184
0.020842
0.0331529
0.015215
0.0255542
0.0208695
0.0234141
0.0344347
0.0333308
0.0104512
0.0334521
0.0182237
0.0197552
0.0342469
0.0278387
0.019988
0.038209
0.021737
0.0104512
0.0202011
0.0297248
0.0371039
0.0281315
0.0330927
0.0309936
0.0162679
0.0159468
0.0136421
0.0156625
0.0221721
0.01696
0.0273211
0.0171
0.029421
0.0210123
0.0202318
0.0236617
0.0220039
0.0292256
0.0210998
0.0217138
0.00958018
0.0218721
0.0316372
0.0316598
0.0286767
0.0210591
0.0137101
0.0398103
0.0267502
0.0223413
0.0205967
0.0205065
0.0212437
0.0258796
0.0208629
0.0149453
0.0205893
0.0141248
0.0255038
0.021006
0.00892928
0.0197846
0.0233907
0.0210068
0.0323202
0.0218146
0.0281295
0.0107926
0.0225789
0.0215693
0.018834
0.0202489
0.0238934
0.0224873
0.0235164
0.0200008
0.0203153
0.0219381
0.0293236
0.0206878
0.029307
0.0264563
0.0208778
0.0214622
0.0216678
0.0239648
0.021632
0.0202552
0.0230168
0.0241347
0.0284937
0.0216632
0.0215237
0.0311567
0.0307203
0.0207035
0.0208823
0.00933104
0.0252307
0.0175107
0.0236829
0.0104811
0.0108799
0.00972294
0.00988214
0.0104838
0.0110441
0.0113813
0.0265681
0.0196598
0.0198379
0.0226812
0.0220949
0.0218192
0.0230781
0.0213528
0.0218393
0.0222003
0.0217383
0.0266885
0.0197658
0.0274336
0.0213476
0.0206082
0.0217657
0.0232205
0.0242658
0.0226079
0.0258906
0.0241891
0.0224316
0.016177
0.0225608
0.0220604
0.0237505
0.0227555
0.021562
0.0205055
0.0225871
0.0235594
0.0319811
0.0211243
0.0310934
0.0324125
0.0221958
0.0310527
0.0238221
0.0190836
0.0259928
0.0227839
0.0164062
0.0144159
0.025662
0.0273318
0.0231398
0.0192365
0.023141
0.0109761
0.0228783
0.0214666
0.0109635
0.0041996
0.00459399
0.0198175
0.021133
0.0245438
0.0235943
0.00215902
0.00225596
0.0233652
0.0236089
0.0223483
0.00823879
0.0197745
0.0229863
0.0234394
0.020219
0.0178461
0.0085798
0.0338517
0.0212655
0.0259823
0.0263885
0.0189647
0.0240015
0.0185423
0.0204606
0.0101691
0.0153447
0.0240301
0.0241782
0.0207806
0.0218259
0.0225228
0.0237481
0.0227146
0.0112009
0.019929
0.0224712
0.0212381
0.0318707
0.0111988
0.0172504
0.0177685
0.0168376
0.010946
0.0109467
0.0192898
0.0155773
0.0222776
0.0119872
0.0130718
0.00426787
0.00426785
0.0089416
0.0141919
0.0095613
0.0189814
0.0205279
0.0219087
0.0246856
0.0223906
0.0207298
0.0163213
0.0101021
0.0204929
0.0212302
0.0205542
0.0113517
0.0104877
0.00817162
0.0205253
0.0209408
0.0168289
0.0190066
0.0175387
0.016058
0.0214963
0.0160566
0.018973
0.018292
0.011212
0.0138424
0.0128757
0.0227306
0.008992
0.00947267
0.0092671
0.0214663
0.00856194
0.00838555
0.0149365
0.00782092
0.0173794
0.0174057
0.00802819
0.0189292
0.00891102
0.00885851
0.00997963
0.00845173
0.0082977
0.0123783
0.00986281
0.00896331
0.00847796
0.0173309
0.0197801
0.00933165
0.0191289
0.00768864
0.019405
0.0154176
0.0080326
0.00680115
0.00758813
0.0100683
0.0166651
0.0137181
0.00573849
0.00636976
0.0185779
0.00540178
0.00540173
0.00612083
0.00687055
0.00776808
0.00903752
0.0149448
0.013833
0.0185909
0.00542725
0.00542722
0.0163371
0.00672127
0.0132461
0.00609038
0.00612645
0.0080722
0.014007
0.014504
0.0154518
0.014161
0.0140066
0.0030599
0.0226097
0.00390325
0.00378172
0.0182648
0.018138
0.00391894
0.00272199
0.00383542
0.0168479
SCALARS rr_uec(PEX,_P_ext) float
LOOKUP_TABLE default
-0.0619336
-0.141145
-0.11272
-0.147332
-0.0770401
-0.119635
-0.0612381
-0.146514
-0.125976
-0.158617
-0.0562096
-0.146963
-0.12933
-0.136591
-0.160032
-0.134334
-0.115536
-0.130614
-0.116995
-0.114383
-0.128668
-0.022848
-0.131833
-0.121504
-0.110138
-0.127056
-0.0520744
-0.111603
-0.0875844
-0.10311
-0.114256
-0.0905403
-0.0576859
-0.0772591
-0.0759334
-0.0774332
-0.100243
-0.076088
-0.114139
-0.0648395
-0.0736176
-0.0883466
-0.0883559
-0.125395
-0.0723803
-0.0798574
-0.1101
-0.111494
-0.104482
-0.100008
-0.102692
-0.0796349
-0.123651
-0.102327
-0.113839
-0.0525051
-0.0810753
-0.103078
-0.0810727
-0.124694
-0.147485
-0.144546
-0.0512149
-0.101916
-0.138449
-0.130661
-0.142663
-0.123405
-0.113638
-0.161991
-0.134156
-0.132694
-0.0909592
-0.105764
-0.112027
-0.0595458
-0.115347
-0.129449
-0.124444
-0.0878803
-0.0793045
-0.0869552
-0.16462
-0.0794145
-0.107079
-0.0397705
-0.128919
-0.107738
-0.0766511
-0.0112434
-0.0886684
-0.0122284
-0.0978757
-0.0937943
-0.0839159
-0.076537
-0.0728357
-0.139256
-0.115433
-0.111118
-0.0944038
-0.0905644
-0.0761989
-0.131895
-0.134079
-0.12074
-0.106186
-0.107717
-0.0808871
-0.160888
-0.103387
-0.0545961
-0.0729658
-0.14435
-0.135228
-0.0988181
-0.0940154
-0.060524
-0.0975141
-0.0984276
-0.085615
-0.155998
-0.16086
-0.138175
-0.152015
-0.119268
-0.0674699
-0.150354
-0.0659673
-0.0850936
-0.070078
-0.143517
-0.140181
-0.140914
-0.0941932
-0.0571234
-0.063143
-0.103272
-0.126215
-0.0571041
-0.0786699
-0.121712
-0.0922216
-0.148608
-0.0736658
-0.121263
-0.110053
-0.1064
-0.0680075
-0.0869114
-0.0969118
-0.13849
-0.0812373
-0.125392
-0.14523
-0.147545
-0.0965433
-0.0810321
-0.0805724
-0.126595
-0.10628
-0.0805622
-0.0533087
-0.0786833
-0.0782623
-0.135553
-0.0821239
-0.0830298
-0.0899416
-0.0800291
-0.119505
-0.0838166
-0.0742114
-0.0932891
-0.0885482
-0.106116
-0.118206
-0.113777
-0.0966526
-0.113499
-0.0872957
-0.131509
-0.141145
-0.078683
-0.138254
-0.0786472
-0.136539
-0.125521
-0.117185
-0.119283
-0.139467
-0.066138
-0.0866439
-0.0805669
-0.140662
-0.138487
-0.128395
-0.139836
-0.142379
-0.119579
-0.146632
-0.0983834
-0.0887885
-0.160093
-0.0934998
-0.145407
-0.11583
-0.0739359
-0.0889437
-0.145094
-0.120748
-0.109942
-0.141634
-0.138936
-0.0898896
-0.0891395
-0.0865871
-0.123255
-0.136002
-0.1563
-0.150164
-0.163378
-0.148045
-0.161785
-0.135741
-0.141839
-0.142944
-0.134752
-0.141563
-0.130315
-0.128375
-0.0910885
-0.122316
-0.143114
-0.0994104
-0.145812
-0.13395
-0.155164
-0.0933482
-0.147561
-0.14106
-0.0916719
-0.126385
-0.0910528
-0.142017
-0.129647
-0.0954443
-0.089834
-0.0776925
-0.0893716
-0.142212
-0.0652422
-0.109608
-0.0895002
-0.10042
-0.1477
-0.142969
-0.0448394
-0.143489
-0.0781436
-0.0847214
-0.146894
-0.119409
-0.0857195
-0.163893
-0.0932272
-0.0448395
-0.0866341
-0.127501
-0.159158
-0.120664
-0.141959
-0.132948
-0.0697886
-0.0683999
-0.058495
-0.0671566
-0.0951159
-0.0727431
-0.117189
-0.0733368
-0.126208
-0.0901314
-0.0867653
-0.101496
-0.0943693
-0.125359
-0.0904919
-0.0931208
-0.0411042
-0.0938277
-0.135716
-0.135813
-0.123005
-0.0903177
-0.0588183
-0.170766
-0.114733
-0.0958169
-0.0883333
-0.0879706
-0.0911075
-0.111019
-0.0894758
-0.064081
-0.0883029
-0.0605677
-0.109401
-0.0900882
-0.0383115
-0.0848511
-0.100336
-0.090091
-0.138638
-0.0935569
-0.120653
-0.0462754
-0.0968444
-0.092504
-0.0807952
-0.0868409
-0.10248
-0.0964604
-0.10087
-0.0857781
-0.087128
-0.0940897
-0.125787
-0.0887253
-0.125707
-0.113476
-0.0895647
-0.0920466
-0.0929302
-0.102787
-0.0927771
-0.0868694
-0.0987165
-0.10353
-0.122218
-0.0929108
-0.0923083
-0.133643
-0.131771
-0.0887923
-0.0895839
-0.0400029
-0.10822
-0.075087
-0.101578
-0.0449189
-0.0466282
-0.0416699
-0.0423522
-0.0449309
-0.0473319
-0.0487774
-0.113967
-0.0843421
-0.0850898
-0.0972802
-0.0947625
-0.0935799
-0.0989901
-0.0915795
-0.0936656
-0.0952413
-0.0932329
-0.114487
-0.0847652
-0.117682
-0.0915633
-0.0883889
-0.0933505
-0.0996137
-0.104081
-0.096966
-0.11105
-0.103748
-0.096206
-0.0693754
-0.0967635
-0.0946209
-0.101883
-0.0975964
-0.0924756
-0.0879458
-0.0968759
-0.10105
-0.137178
-0.0905998
-0.133371
-0.139022
-0.0951978
-0.133195
-0.102177
-0.0818471
-0.111497
-0.0977215
-0.0703836
-0.0618109
-0.11008
-0.117245
-0.0992504
-0.0825067
-0.0992626
-0.0470555
-0.0981286
-0.0920715
-0.0470081
-0.0180186
-0.0197108
-0.0850012
-0.090637
-0.10527
-0.101194
-0.00926418
-0.00968013
-0.10022
-0.101266
-0.0958586
-0.0353207
-0.0848098
-0.0986011
-0.100532
-0.0867192
-0.076542
-0.036782
-0.145208
-0.091205
-0.111443
-0.113185
-0.0813393
-0.102943
-0.0795279
-0.0877557
-0.0436001
-0.065799
-0.103066
-0.103705
-0.0891292
-0.093611
-0.0966012
-0.101857
-0.0974243
-0.0480264
-0.0854908
-0.0963768
-0.0911001
-0.13671
-0.048017
-0.0739899
-0.0762116
-0.0722326
-0.0469638
-0.046967
-0.0827503
-0.0668087
-0.0955529
-0.0513971
-0.056084
-0.0183128
-0.0183127
-0.0383329
-0.0608865
-0.041021
-0.0814143
-0.0880606
-0.093972
-0.105886
-0.0960452
-0.0889225
-0.0700072
-0.0433088
-0.0878987
-0.0910663
-0.0881685
-0.0486692
-0.0449946
-0.0350372
-0.0880441
-0.0898232
-0.0721743
-0.0815242
-0.0752287
-0.068888
-0.0922045
-0.068882
-0.0813789
-0.0784649
-0.0481026
-0.0593881
-0.055207
-0.0975007
-0.0385492
-0.0406104
-0.039728
-0.0920801
-0.0367058
-0.0359483
-0.0640625
-0.0335284
-0.074559
-0.0746718
-0.0344174
-0.0811883
-0.0382064
-0.0379769
-0.0427875
-0.0362329
-0.0355763
-0.0531058
-0.0422878
-0.0384266
-0.0363455
-0.0743372
-0.0848497
-0.040009
-0.0820497
-0.0329608
-0.0832352
-0.0661274
-0.0344359
-0.0291593
-0.0325302
-0.0431629
-0.0714792
-0.0588523
-0.0246227
-0.0273312
-0.0796882
-0.0231779
-0.0231777
-0.0262631
-0.0294787
-0.0333067
-0.0387733
-0.0641112
-0.059345
-0.0797432
-0.0232864
-0.0232862
-0.070089
-0.0288141
-0.0568134
-0.0261098
-0.0262679
-0.0346105
-0.0600959
-0.0622284
-0.0662944
-0.0607567
-0.0600944
-0.0131293
-0.0970053
-0.0167475
-0.0162267
-0.0783639
-0.0778202
-0.0168155
-0.0116795
-0.0164565
-0.0722841
SCALARS cell_type float
LOOKUP_TABLE default
0
0
0
0
0
0
0
0
0
0
0
0
0
0
0
0
0
0
0
0
0
1
0
0
0
0
0
0
0
0
0
0
0
0
0
0
0
0
0
0
0
0
0
0
0
0
0
0
0
0
0
0
0
0
0
0
0
0
0
0
0
0
0
0
0
0
0
0
0
0
0
0
0
0
0
0
0
0
0
0
0
0
0
0
0
0
0
0
0
0
0
0
0
0
0
0
0
0
0
0
0
0
0
0
0
0
0
0
0
0
0
0
0
0
0
0
0
0
0
0
0
0
0
0
0
0
0
0
0
0
0
0
0
0
0
0
0
0
0
0
0
0
0
0
0
0
0
0
0
0
0
0
0
0
0
0
0
0
0
0
0
0
0
0
0
0
0
0
0
0
0
0
0
0
0
0
0
0
0
0
0
0
0
0
0
0
0
0
0
0
0
0
0
0
0
0
0
0
0
0
0
0
0
0
0
0
0
0
0
0
0
0
0
0
0
0
0
0
0
0
0
0
0
0
0
0
0
0
0
0
0
0
0
0
0
0
0
0
0
0
0
0
0
0
0
0
0
0
0
0
0
0
0
0
0
0
0
0
0
0
0
0
0
0
0
0
0
0
0
0
0
0
0
0
0
0
0
0
0
0
0
0
0
0
0
0
0
0
0
0
0
0
0
0
0
0
0
0
0
0
0
0
0
0
0
0
0
0
0
0
0
0
0
0
0
0
0
0
0
0
0
0
0
0
0
0
0
0
0
0
0
0
0
0
0
0
0
0
0
0
0
0
0
0
0
0
0
0
0
0
2
2
2
2
2
2
2
0
0
0
0
0
0
0
0
0
0
0
0
0
0
0
0
0
0
0
0
0
0
0
0
0
0
0
0
0
0
0
0
0
0
0
0
0
0
0
0
0
0
0
0
0
0
0
0
0
0
0
0
0
0
0
0
0
0
0
1
1
0
0
0
0
0
0
0
0
0
0
0
0
0
0
0
0
0
0
0
0
0
0
0
0
0
0
0
0
0
0
0
0
0
0
0
0
0
0
0
0
0
0
0
1
1
0
0
0
0
0
0
0
0
0
0
0
0
0
0
0
0
0
0
0
0
0
0
0
0
0
0
0
0
0
0
0
0
0
0
0
0
0
0
0
0
0
0
0
0
0
0
0
0
0
0
0
0
0
0
0
0
0
0
0
0
0
0
0
0
0
1
1
0
0
0
0
0
0
0
0
0
0
0
0
0
0
0
0
0
0
0
0
0
0
0
0
0
0
0
0
0
0
0
0
0
TENSORS Lagrange_strain float
0.0305689 -0.00319834 1.18417e-07
-0.00319834 0.0133893 2.55225e-07
1.18417e-07 2.55225e-07 0.00740203

0.0291939 -0.00280097 -2.32564e-07
-0.00280097 0.0335548 -7.23031e-08
-2.32564e-07 -7.23031e-08 0.0331644

0.0300224 0.00367923 -9.63435e-08
0.00367923 0.0311708 -1.39794e-07
-9.63435e-08 -1.39794e-07 0.0304688

0.0291629 -0.00392484 8.45979e-08
-0.00392484 0.0328001 3.46926e-08
8.45979e-08 3.46926e-08 0.0330893

0.0353678 0.00266961 -1.75069e-07
0.00266961 0.0380862 1.10861e-07
-1.75069e-07 1.10861e-07 0.0352931

0.0277362 -0.00236732 1.34879e-07
-0.00236732 0.0333853 1.93541e-07
1.34879e-07 1.93541e-07 0.0304398

0.0302629 0.00339414 1.24314e-07
0.00339414 0.013495 1.46578e-09
1.24314e-07 1.46578e-09 0.00746343

0.0317555 0.00393957 -5.96082e-08
0.00393957 0.0312011 -1.3179e-07
-5.96082e-08 -1.3179e-07 0.0315616

0.033243 0.000715526 2.05051e-07
0.000715526 0.0262222 -2.8902e-08
2.05051e-07 -2.8902e-08 0.028143

0.0354681 -0.000991037 2.21394e-07
-0.000991037 0.0275521 -7.75763e-08
2.21394e-07 -7.75763e-08 0.032722

0.0280623 0.00205126 1.51214e-07
0.00205126 0.0138094 2.15045e-07
1.51214e-07 2.15045e-07 0.0117539

0.0279542 -0.00176583 5.67222e-08
-0.00176583 0.0350074 -5.46509e-08
5.67222e-08 -5.46509e-08 0.0315501

0.0311222 0.00365729 4.93324e-08
0.00365729 0.0313015 1.48735e-07
4.93324e-08 1.48735e-07 0.0310804

0.0290701 -0.00187988 1.98197e-07
-0.00187988 0.0347998 1.18529e-07
1.98197e-07 1.18529e-07 0.0325474

0.0346328 0.00441834 -5.9672e-08
0.00441834 0.0343636 -7.45657e-08
-5.9672e-08 -7.45657e-08 0.0348856

0.0343288 7.29054e-05 -5.93503e-08
7.29054e-05 0.0272869 -5.01552e-08
-5.93503e-08 -5.01552e-08 0.0307794

0.0286938 -0.00235355 2.11162e-07
-0.00235355 0.036015 1.62819e-07
2.11162e-07 1.62819e-07 0.033451

0.0345743 -0.000353133 -4.14582e-08
-0.000353133 0.0273573 2.51748e-07
-4.14582e-08 2.51748e-07 0.031978

0.0269209 0.00347843 -2.106e-07
0.00347843 0.0309459 3.47476e-08
-2.106e-07 3.47476e-08 0.0275775

0.0338858 -0.000550535 -1.48271e-07
-0.000550535 0.0264102 -1.78633e-07
-1.48271e-07 -1.78633e-07 0.0301352

0.0266228 0.00113521 -9.46258e-08
0.00113521 0.0340347 2.06567e-07
-9.46258e-08 2.06567e-07 0.0291509

0.0452949 0.000853107 -1.49473e-07
0.000853107 0.0452654 -3.47582e-07
-1.49473e-07 -3.47582e-07 0.0366389

0.0336765 0.00024758 -1.68229e-08
0.00024758 0.0263162 -5.50123e-09
-1.68229e-08 -5.50123e-09 0.0298061

0.0293105 -0.00363234 -3.76413e-08
-0.00363234 0.0311366 6.85486e-08
-3.76413e-08 6.85486e-08 0.0300476

0.0337808 0.000900114 -9.17345e-08
0.000900114 0.0264971 2.84976e-08
-9.17345e-08 2.84976e-08 0.0300822

0.028547 0.00250777 1.22637e-07
0.00250777 0.0338947 4.04626e-08
1.22637e-07 4.04626e-08 0.0322879

0.0286307 0.000526681 3.41325e-07
0.000526681 0.0176903 -1.79076e-07
3.41325e-07 -1.79076e-07 0.0131718

0.0309152 0.00403468 1.10036e-07
0.00403468 0.0306475 1.33722e-08
1.10036e-07 1.33722e-08 0.0306116

0.0259256 0.00477661 1.18335e-07
0.00477661 0.0257338 1.0176e-07
1.18335e-07 1.0176e-07 0.0211287

0.0415295 0.0013702 -2.41724e-09
0.0013702 0.0383512 6.78628e-08
-2.41724e-09 6.78628e-08 0.036136

0.0344119 0.00187141 -1.1001e-07
0.00187141 0.0279533 -3.98218e-09
-1.1001e-07 -3.98218e-09 0.031001

0.0217603 -0.00228788 -1.01669e-07
-0.00228788 0.0299932 -1.66792e-07
-1.01669e-07 -1.66792e-07 0.0211256

0.0228641 -0.00535266 -1.91259e-08
-0.00535266 0.0234737 -3.68608e-08
-1.91259e-08 -3.68608e-08 0.0125793

0.0348333 0.000800732 7.83848e-08
0.000800732 0.042256 4.52863e-08
7.83848e-08 4.52863e-08 0.0357871

0.0374539 -0.000661841 -2.26893e-08
-0.000661841 0.0412034 -3.45107e-07
-2.26893e-08 -3.45107e-07 0.0359017

0.0410758 0.00281319 -8.86243e-09
0.00281319 0.035987 -1.89722e-07
-8.86243e-09 -1.89722e-07 0.0357673

0.0372544 0.000705191 1.24271e-08
0.000705191 0.0432152 -1.94444e-07
1.24271e-08 -1.94444e-07 0.0361424

0.0402612 -0.00121854 1.60281e-07
-0.00121854 0.0378307 7.87154e-08
1.60281e-07 7.87154e-08 0.035809

0.0312167 -0.00367793 1.89818e-07
-0.00367793 0.0311241 8.23662e-08
1.89818e-07 8.23662e-08 0.0309264

0.0227481 0.00527919 2.15068e-07
0.00527919 0.0237096 -8.34184e-08
2.15068e-07 -8.34184e-08 0.0125814

0.0297619 -0.00231582 -3.42501e-08
-0.00231582 0.0220317 2.27074e-07
-3.42501e-08 2.27074e-07 0.0208755

0.0376199 -0.000522869 -1.6489e-07
-0.000522869 0.0430651 -9.1054e-08
-1.6489e-07 -9.1054e-08 0.0361451

0.0412413 0.00263442 -6.48646e-08
0.00263442 0.0394155 2.19749e-07
-6.48646e-08 2.19749e-07 0.0361276

0.0343021 -0.0016171 -1.74171e-07
-0.0016171 0.0279954 -7.00027e-08
-1.74171e-07 -7.00027e-08 0.0310849

0.0231063 -0.00552601 -4.49792e-08
-0.00552601 0.0235634 -8.82036e-09
-4.49792e-08 -8.82036e-09 0.0162165

0.0299443 -0.00233231 6.47718e-08
-0.00233231 0.0221558 1.00642e-08
6.47718e-08 1.00642e-08 0.0213449

0.0258944 0.00222741 1.16288e-08
0.00222741 0.0326551 -1.60106e-08
1.16288e-08 -1.60106e-08 0.0279162

0.0275518 0.00252891 -1.68768e-07
0.00252891 0.032375 -2.80564e-08
-1.68768e-07 -2.80564e-08 0.0284917

0.0341765 -0.00214076 2.68677e-08
-0.00214076 0.027108 1.22376e-07
2.68677e-08 1.22376e-07 0.030473

0.0229032 -0.00439263 -1.59803e-07
-0.00439263 0.0272498 1.47206e-07
-1.59803e-07 1.47206e-07 0.0198509

0.0294948 0.00247153 -4.27413e-09
0.00247153 0.0218348 -1.98572e-07
-4.27413e-09 -1.98572e-07 0.0202815

0.0298733 -0.00327095 8.63119e-08
-0.00327095 0.0245142 5.66585e-08
8.63119e-08 5.66585e-08 0.0230489

0.0344784 0.00257771 -1.32461e-07
0.00257771 0.0382039 -1.79162e-07
-1.32461e-07 -1.79162e-07 0.0352718

0.0286903 0.00383877 -6.27101e-08
0.00383877 0.0257804 1.06634e-07
-6.27101e-08 1.06634e-07 0.0231175

0.0349293 -0.00291564 8.69059e-08
-0.00291564 0.0374331 6.73278e-08
8.69059e-08 6.73278e-08 0.0351902

0.0255808 -0.00545568 4.20182e-08
-0.00545568 0.022903 4.33197e-08
4.20182e-08 4.33197e-08 0.01582

0.0373475 0.000745921 4.02461e-08
0.000745921 0.0414136 3.42963e-07
4.02461e-08 3.42963e-07 0.0359222

0.0231683 -0.00069315 4.94451e-08
-0.00069315 0.0313142 9.30907e-08
4.94451e-08 9.30907e-08 0.0231035

0.0410308 0.00137959 3.41226e-07
0.00137959 0.0377074 -8.06173e-08
3.41226e-07 -8.06173e-08 0.0359004

0.0276767 0.00280509 -1.08199e-07
0.00280509 0.0327504 1.89935e-07
-1.08199e-07 1.89935e-07 0.0302321

0.0361401 0.000784682 1.71668e-08
0.000784682 0.0281325 1.69448e-07
1.71668e-08 1.69448e-07 0.0336742

0.0362554 0.00153406 9.06419e-09
0.00153406 0.0316941 8.94697e-08
9.06419e-09 8.94697e-08 0.0342217

0.0286382 0.00405718 1.21842e-07
0.00405718 0.0198979 7.50846e-08
1.21842e-07 7.50846e-08 0.0137597

0.0309735 -0.000783951 -8.07152e-08
-0.000783951 0.0370859 -1.90434e-08
-8.07152e-08 -1.90434e-08 0.0338826

0.031556 0.00124349 8.80024e-08
0.00124349 0.036422 -9.47043e-08
8.80024e-08 -9.47043e-08 0.0342605

0.0285499 -0.000375048 -1.5887e-09
-0.000375048 0.0369572 1.97272e-07
-1.5887e-09 1.97272e-07 0.0326717

0.0296037 0.00307129 -7.23114e-08
0.00307129 0.0347922 2.26554e-08
-7.23114e-08 2.26554e-08 0.0337099

0.0347206 0.00112224 6.36509e-09
0.00112224 0.0278396 4.71767e-09
6.36509e-09 4.71767e-09 0.0322096

0.0291882 -0.00369914 -1.29085e-07
-0.00369914 0.0310221 1.04104e-07
-1.29085e-07 1.04104e-07 0.0299105

0.0350558 -0.000236928 -9.03089e-08
-0.000236928 0.027581 -8.35595e-08
-9.03089e-08 -8.35595e-08 0.0333942

0.034453 -0.00254811 -9.90641e-08
-0.00254811 0.0381346 1.28129e-07
-9.90641e-08 1.28129e-07 0.0352619

0.0350116 0.00284938 -1.05477e-07
0.00284938 0.0375705 -5.72932e-08
-1.05477e-07 -5.72932e-08 0.0352417

0.0218893 -0.00213189 -7.26214e-08
-0.00213189 0.0299233 6.32194e-08
-7.26214e-08 6.32194e-08 0.020852

0.0347023 -0.00369091 7.79503e-08
-0.00369091 0.0319588 6.02881e-08
7.79503e-08 6.02881e-08 0.03308

0.029293 -0.00329727 -6.28717e-08
-0.00329727 0.0321139 2.2108e-07
-6.28717e-08 2.2108e-07 0.0304344

0.0267805 -0.00401708 2.77129e-07
-0.00401708 0.0176058 1.2048e-07
2.77129e-07 1.2048e-07 0.0127263

0.032405 0.000418902 3.67252e-08
0.000418902 0.038106 -1.271e-07
3.67252e-08 -1.271e-07 0.0344068

0.0345381 0.00381737 8.48056e-08
0.00381737 0.0309426 -5.83935e-08
8.48056e-08 -5.83935e-08 0.0326613

0.0283774 0.00258147 7.77825e-08
0.00258147 0.0341306 9.97519e-09
7.77825e-08 9.97519e-09 0.0322149

0.0315431 0.00103787 -1.32102e-08
0.00103787 0.0228446 6.63046e-08
-1.32102e-08 6.63046e-08 0.02407

0.027098 -0.00435886 3.41899e-09
-0.00435886 0.0237375 -4.58086e-09
3.41899e-09 -4.58086e-09 0.0183241

0.0362608 -0.00140271 9.26508e-08
-0.00140271 0.0387436 -2.31866e-08
9.26508e-08 -2.31866e-08 0.0354022

0.0315571 0.00317088 1.42726e-07
0.00317088 0.0344026 -7.76149e-08
1.42726e-07 -7.76149e-08 0.0340913

0.0273022 -0.00415622 -1.72222e-07
-0.00415622 0.0221756 9.51542e-08
-1.72222e-07 9.51542e-08 0.018412

0.030359 0.00139114 -1.45727e-07
0.00139114 0.0228312 6.87155e-08
-1.45727e-07 6.87155e-08 0.0209552

0.0186026 -0.00269701 7.70157e-08
-0.00269701 0.0289292 -2.27898e-07
7.70157e-08 -2.27898e-07 0.0158936

0.0272009 0.00188895 -1.95204e-07
0.00188895 0.0343211 -3.43786e-08
-1.95204e-07 -3.43786e-08 0.0306556

0.0353825 0.00305677 2.20645e-07
0.00305677 0.0308212 8.09107e-08
2.20645e-07 8.09107e-08 0.0327547

0.0226487 0.00538605 9.29541e-08
0.00538605 0.0240893 -2.25672e-07
9.29541e-08 -2.25672e-07 0.016199

0.0459481 0.00223843 -3.28228e-07
0.00223843 0.0417503 2.90997e-07
-3.28228e-07 2.90997e-07 0.0366399

0.0230821 -0.000534392 -8.60104e-08
-0.000534392 0.0313552 3.54344e-08
-8.60104e-08 3.54344e-08 0.0230733

0.0463635 -0.00225609 4.80138e-07
-0.00225609 0.0412944 -1.72236e-07
4.80138e-07 -1.72236e-07 0.036595

0.0370663 -0.00362431 1.21502e-07
-0.00362431 0.0334922 7.37877e-09
1.21502e-07 7.37877e-09 0.0346218

0.0351381 0.00361922 1.88576e-07
0.00361922 0.0300049 1.99279e-07
1.88576e-07 1.99279e-07 0.0324574

0.0299631 -0.00315905 1.42365e-07
-0.00315905 0.0246913 -1.10868e-07
1.42365e-07 -1.10868e-07 0.0232867

0.023013 0.00402999 6.97372e-11
0.00402999 0.02778 2.33995e-07
6.97372e-11 2.33995e-07 0.0203827

0.0210945 -0.00137853 -1.68484e-07
-0.00137853 0.0298962 1.32954e-08
-1.68484e-07 1.32954e-08 0.0182521

0.0287469 0.002889 -1.75633e-07
0.002889 0.0342284 -3.51627e-08
-1.75633e-07 -3.51627e-08 0.0327007

0.0370126 0.0022362 1.04553e-07
0.0022362 0.033453 4.17742e-08
1.04553e-07 4.17742e-08 0.0343851

0.0281493 0.00198827 6.90814e-08
0.00198827 0.0340605 -3.42582e-08
6.90814e-08 -3.42582e-08 0.0308664

0.0318837 0.00207316 -3.33571e-08
0.00207316 0.025255 3.48188e-08
-3.33571e-08 3.48188e-08 0.0256183

0.0239083 -0.00277451 -2.11882e-07
-0.00277451 0.029766 4.86349e-08
-2.11882e-07 4.86349e-08 0.0215622

0.0278995 -0.00376377 1.01679e-07
-0.00376377 0.0218159 2.3712e-07
1.01679e-07 2.3712e-07 0.0180765

0.0293324 -0.00323197 7.0891e-08
-0.00323197 0.0326308 -7.86121e-08
7.0891e-08 -7.86121e-08 0.0324039

0.0306271 0.0036147 -9.67149e-08
0.0036147 0.0322297 -6.41123e-08
-9.67149e-08 -6.41123e-08 0.0323716

0.0287091 0.00304813 -5.54637e-09
0.00304813 0.0340279 2.4376e-08
-5.54637e-09 2.4376e-08 0.0326311

0.0292077 0.00172521 3.21978e-08
0.00172521 0.0376186 -1.24649e-07
3.21978e-08 -1.24649e-07 0.033847

0.0344781 0.00123234 -1.79556e-07
0.00123234 0.0275247 -2.11639e-07
-1.79556e-07 -2.11639e-07 0.0306757

0.0199612 -0.000605199 9.27139e-08
-0.000605199 0.0296615 -1.83447e-07
9.27139e-08 -1.83447e-07 0.0181045

0.0297984 -0.00486314 2.21009e-08
-0.00486314 0.0330498 -2.39012e-08
2.21009e-08 -2.39012e-08 0.0337425

0.0290821 0.00360018 6.06543e-08
0.00360018 0.0313608 1.46976e-07
6.06543e-08 1.46976e-07 0.0302649

0.0181061 0.000282831 -2.98456e-08
0.000282831 0.0293117 -1.70455e-08
-2.98456e-08 -1.70455e-08 0.016879

0.027844 0.00442381 -1.7196e-07
0.00442381 0.0209687 -1.56479e-07
-1.7196e-07 -1.56479e-07 0.0174553

0.029192 -0.00302035 -4.18793e-08
-0.00302035 0.0327042 -1.08905e-07
-4.18793e-08 -1.08905e-07 0.0321862

0.0352438 0.00075968 1.06988e-07
0.00075968 0.0273396 -1.85598e-07
1.06988e-07 -1.85598e-07 0.0325536

0.0294281 0.00352038 6.27236e-08
0.00352038 0.025202 -7.10582e-08
6.27236e-08 -7.10582e-08 0.0231119

0.0396372 0.00171024 -4.88578e-08
0.00171024 0.0390398 1.40097e-07
-4.88578e-08 1.40097e-07 0.0359407

0.0283757 0.00312356 -1.91456e-07
0.00312356 0.022402 -2.87494e-08
-1.91456e-07 -2.87494e-08 0.018287

0.0394891 -0.00175035 -2.7333e-08
-0.00175035 0.0390656 2.48492e-07
-2.7333e-08 2.48492e-07 0.0359059

0.0232616 0.000103469 5.56482e-08
0.000103469 0.0315186 9.3894e-08
5.56482e-08 9.3894e-08 0.0231203

0.0327596 -0.000288489 -4.17335e-09
-0.000288489 0.0246607 -2.45409e-07
-4.17335e-09 -2.45409e-07 0.026967

0.0380552 -0.00212915 3.3335e-08
-0.00212915 0.0304645 2.51857e-08
3.3335e-08 2.51857e-08 0.034794

0.0292393 0.00320586 -1.09904e-07
0.00320586 0.0332784 1.07976e-07
-1.09904e-07 1.07976e-07 0.0333437

0.0289515 -0.00177263 -4.2472e-08
-0.00177263 0.0366103 -9.25108e-08
-4.2472e-08 -9.25108e-08 0.0335004

0.0365842 -0.00108475 -7.71894e-08
-0.00108475 0.0264773 -1.0425e-07
-7.71894e-08 -1.0425e-07 0.0338608

0.0311809 -0.00292581 -7.75606e-08
-0.00292581 0.0383065 -8.47617e-08
-7.75606e-08 -8.47617e-08 0.0348444

0.0381658 -0.000885328 1.03057e-07
-0.000885328 0.0387318 -1.98852e-07
1.03057e-07 -1.98852e-07 0.035836

0.0301804 -0.00394004 -5.33274e-08
-0.00394004 0.0327115 -1.08919e-07
-5.33274e-08 -1.08919e-07 0.032764

0.0213333 0.00146958 1.84209e-07
0.00146958 0.0296146 1.05206e-07
1.84209e-07 1.05206e-07 0.0182961

0.0293887 -0.00364584 1.09687e-08
-0.00364584 0.0253499 -1.1647e-07
1.09687e-08 -1.1647e-07 0.0231825

0.03286 -0.00181694 -1.23818e-07
-0.00181694 0.0397184 6.9299e-08
-1.23818e-07 6.9299e-08 0.0352416

0.0350918 7.6673e-05 1.4627e-07
7.6673e-05 0.0272229 -1.82338e-07
1.4627e-07 -1.82338e-07 0.0332519

0.0308192 -0.00282878 -4.75303e-08
-0.00282878 0.0348921 -8.4108e-08
-4.75303e-08 -8.4108e-08 0.0340848

0.0295353 0.00338889 5.29867e-08
0.00338889 0.0328723 -1.28079e-07
5.29867e-08 -1.28079e-07 0.0333267

0.026461 -0.00406332 1.63466e-07
-0.00406332 0.0272624 1.54471e-07
1.63466e-07 1.54471e-07 0.021585

0.0371728 -0.000958646 2.11539e-07
-0.000958646 0.0416104 6.72999e-08
2.11539e-07 6.72999e-08 0.0358871

0.0227115 -0.00423776 -2.4262e-08
-0.00423776 0.0272442 -6.89604e-08
-2.4262e-08 -6.89604e-08 0.0168778

0.034184 -0.00252488 2.71168e-08
-0.00252488 0.0286073 9.90147e-08
2.71168e-08 9.90147e-08 0.0310451

0.0364266 0.000289945 -2.67269e-08
0.000289945 0.0294382 -8.64933e-08
-2.67269e-08 -8.64933e-08 0.0341944

0.0396414 0.00239629 -1.09366e-07
0.00239629 0.0391138 -6.7717e-08
-1.09366e-07 -6.7717e-08 0.0358681

0.0238567 0.00260933 5.08459e-08
0.00260933 0.0301522 1.41001e-07
5.08459e-08 1.41001e-07 0.0217993

0.0334315 0.00358155 8.81596e-09
0.00358155 0.030716 3.89531e-08
8.81596e-09 3.89531e-08 0.0317679

0.0316441 -0.00319435 7.37381e-08
-0.00319435 0.0265525 1.36092e-08
7.37381e-08 1.36092e-08 0.026936

0.02893 -0.00234112 1.02614e-08
-0.00234112 0.0342357 2.23509e-08
1.02614e-08 2.23509e-08 0.0326066

0.026245 0.00450159 -1.39703e-07
0.00450159 0.0245582 -2.18541e-07
-1.39703e-07 -2.18541e-07 0.0180815

0.0284235 -0.0028665 -2.27158e-07
-0.0028665 0.0340327 -7.59676e-08
-2.27158e-07 -7.59676e-08 0.0324497

0.03315 0.00405873 -2.38601e-08
0.00405873 0.0304655 1.40317e-07
-2.38601e-08 1.40317e-07 0.0315429

0.0333355 -0.00331168 -1.5707e-07
-0.00331168 0.0283577 -1.06935e-08
-1.5707e-07 -1.06935e-08 0.0300465

0.0291617 -0.00329518 -6.95951e-08
-0.00329518 0.031989 3.56757e-08
-6.95951e-08 3.56757e-08 0.030438

0.0314562 -0.00242933 4.77514e-08
-0.00242933 0.0247194 5.13328e-08
4.77514e-08 5.13328e-08 0.0251568

0.0329566 -0.00246675 -1.54458e-07
-0.00246675 0.02671 -1.41322e-08
-1.54458e-07 -1.41322e-08 0.0285972

0.0294921 -0.00334222 -1.16632e-07
-0.00334222 0.0329512 1.23976e-08
-1.16632e-07 1.23976e-08 0.0334081

0.0261346 0.00463401 1.46035e-07
0.00463401 0.0255418 1.70447e-07
1.46035e-07 1.70447e-07 0.0210929

0.0281507 0.0020169 1.15498e-07
0.0020169 0.0343367 2.0341e-08
1.15498e-07 2.0341e-08 0.0311102

0.0308873 0.00348114 1.3759e-07
0.00348114 0.0322566 2.1338e-07
1.3759e-07 2.1338e-07 0.032601

0.0291581 0.00334813 -5.35575e-08
0.00334813 0.0331926 -8.05968e-08
-5.35575e-08 -8.05968e-08 0.0332612

0.0289847 0.00152297 2.50586e-07
0.00152297 0.0354716 -1.33771e-07
2.50586e-07 -1.33771e-07 0.0326963

0.0310535 -0.00106172 7.31964e-08
-0.00106172 0.023142 2.51184e-08
7.31964e-08 2.51184e-08 0.0220785

0.0238844 0.00240576 -2.03966e-07
0.00240576 0.0304112 -7.79194e-08
-2.03966e-07 -7.79194e-08 0.0221135

0.0292142 -0.003204 1.86607e-09
-0.003204 0.0326373 -3.92677e-08
1.86607e-09 -3.92677e-08 0.0316193

0.0289883 0.00335693 -6.03051e-08
0.00335693 0.0309335 1.13261e-08
-6.03051e-08 1.13261e-08 0.0285688

0.0266132 -0.00459148 8.3006e-08
-0.00459148 0.0252311 -1.11214e-07
8.3006e-08 -1.11214e-07 0.0212571

0.0262785 0.00489358 -1.8682e-07
0.00489358 0.0209468 -3.17909e-08
-1.8682e-07 -3.17909e-08 0.0167628

0.0235034 -0.0042869 9.65186e-09
-0.0042869 0.0274651 -3.6816e-08
9.65186e-09 -3.6816e-08 0.0206269

0.0266725 -0.00402767 1.18295e-07
-0.00402767 0.0274832 -3.14305e-08
1.18295e-07 -3.14305e-08 0.0220506

0.0353658 -0.000906431 1.86814e-07
-0.000906431 0.0273913 -2.26946e-08
1.86814e-07 -2.26946e-08 0.0326559

0.0260461 0.00392166 1.6771e-07
0.00392166 0.0280931 2.55524e-08
1.6771e-07 2.55524e-08 0.0221031

0.0307891 0.00171657 9.11927e-08
0.00171657 0.0233609 3.26749e-08
9.11927e-08 3.26749e-08 0.0220262

0.0214315 0.0017221 1.46008e-07
0.0017221 0.0302415 -1.25737e-08
1.46008e-07 -1.25737e-08 0.0211334

0.0242634 -0.0028895 -4.96082e-08
-0.0028895 0.0299526 -1.65296e-07
-4.96082e-08 -1.65296e-07 0.0220868

0.0313467 -0.000131163 1.14812e-07
-0.000131163 0.0392746 -2.49158e-07
1.14812e-07 -2.49158e-07 0.034672

0.023059 0.000294711 2.15384e-07
0.000294711 0.0314616 5.47564e-08
2.15384e-07 5.47564e-08 0.023063

0.0227777 0.00400153 -2.55857e-07
0.00400153 0.0281283 -9.23292e-09
-2.55857e-07 -9.23292e-09 0.0206387

0.0288896 0.00158575 -2.2022e-08
0.00158575 0.0358341 2.47957e-07
-2.2022e-08 2.47957e-07 0.0328948

0.029317 -0.00358033 1.06443e-07
-0.00358033 0.0251303 -1.7203e-07
1.06443e-07 -1.7203e-07 0.0232405

0.0369779 0.00273296 1.05237e-07
0.00273296 0.0297243 2.38885e-08
1.05237e-07 2.38885e-08 0.033803

0.0371769 0.00348328 -6.78118e-08
0.00348328 0.033424 6.93941e-09
-6.78118e-08 6.93941e-09 0.0346535

0.0345451 -0.00244635 2.73951e-07
-0.00244635 0.0285311 3.60253e-08
2.73951e-07 3.60253e-08 0.0313801

0.0390578 -0.000265594 -7.66861e-08
-0.000265594 0.0339258 -1.8468e-07
-7.66861e-08 -1.8468e-07 0.0352095

0.0314802 -0.00418772 1.01001e-07
-0.00418772 0.0317833 1.55521e-07
1.01001e-07 1.55521e-07 0.0321576

0.0294631 0.00300774 9.87131e-08
0.00300774 0.022328 2.2112e-08
9.87131e-08 2.2112e-08 0.0210673

0.030231 0.00397311 1.88032e-07
0.00397311 0.0326647 1.20733e-07
1.88032e-07 1.20733e-07 0.0327213

0.0302784 0.0038469 -8.60655e-08
0.0038469 0.0326086 -8.44444e-08
-8.60655e-08 -8.44444e-08 0.0326761

0.0262453 0.0039618 1.11588e-07
0.0039618 0.0277688 2.38954e-07
1.11588e-07 2.38954e-07 0.0218656

0.0344514 0.00357672 2.32986e-08
0.00357672 0.0317811 2.72784e-08
2.32986e-08 2.72784e-08 0.0328328

0.0302498 0.000452356 8.15608e-08
0.000452356 0.0204291 1.26529e-08
8.15608e-08 1.26529e-08 0.0205741

0.0331874 0.00420062 7.0482e-09
0.00420062 0.0323748 2.00848e-07
7.0482e-09 2.00848e-07 0.0334852

0.0305021 -0.00165433 1.93266e-07
-0.00165433 0.0366179 -8.15678e-08
1.93266e-07 -8.15678e-08 0.0336641

0.0373615 0.00323267 -1.61381e-07
0.00323267 0.0334611 9.65608e-09
-1.61381e-07 9.65608e-09 0.0346656

0.0307382 -0.00389624 -1.73704e-08
-0.00389624 0.0322745 -9.78709e-08
-1.73704e-08 -9.78709e-08 0.0326816

0.0293752 -0.00064488 1.85994e-08
-0.00064488 0.0369045 1.99047e-07
1.85994e-08 1.99047e-07 0.0328492

0.0288138 -0.00315238 -2.3764e-07
-0.00315238 0.0221408 7.2561e-09
-2.3764e-07 7.2561e-09 0.0187597

0.029004 0.00384477 -3.9733e-09
0.00384477 0.0255788 1.74463e-07
-3.9733e-09 1.74463e-07 0.0230738

0.0217022 0.00189108 1.61892e-07
0.00189108 0.0300625 1.48654e-07
1.61892e-07 1.48654e-07 0.0210847

0.0349914 -0.000161304 -1.55703e-07
-0.000161304 0.027391 -2.26355e-08
-1.55703e-07 -2.26355e-08 0.0333029

0.0344214 6.12013e-08 1.91867e-07
6.12013e-08 0.027276 -3.22487e-08
1.91867e-07 -3.22487e-08 0.0320426

0.0291672 0.00304016 -1.46262e-07
0.00304016 0.0326813 -8.17653e-08
-1.46262e-07 -8.17653e-08 0.0321341

0.0314512 0.003166 -1.18843e-07
0.003166 0.0342514 -2.4932e-08
-1.18843e-07 -2.4932e-08 0.0340595

0.02917 -0.0032042 8.38581e-08
-0.0032042 0.0332403 -7.24965e-08
8.38581e-08 -7.24965e-08 0.0333804

0.028775 -8.57841e-05 -3.65962e-08
-8.57841e-05 0.0367061 -3.42738e-08
-3.65962e-08 -3.42738e-08 0.032527

0.0294654 0.00337582 3.49191e-08
0.00337582 0.0330761 1.01153e-07
3.49191e-08 1.01153e-07 0.0333561

0.0328614 -0.00134647 1.19244e-07
-0.00134647 0.0253629 1.56443e-07
1.19244e-07 1.56443e-07 0.0278302

0.0263561 -0.00425473 1.86564e-07
-0.00425473 0.0281813 1.17392e-07
1.86564e-07 1.17392e-07 0.0242687

0.036299 -0.000331611 -6.48119e-08
-0.000331611 0.0293846 1.90157e-07
-6.48119e-08 1.90157e-07 0.0340293

0.026782 -0.00444577 -3.56682e-08
-0.00444577 0.0251914 -1.66877e-07
-3.56682e-08 -1.66877e-07 0.0209501

0.030901 0.00250717 -1.02335e-08
0.00250717 0.0350647 -5.74617e-08
-1.02335e-08 -5.74617e-08 0.0340692

0.0351146 -0.00349682 1.85931e-07
-0.00349682 0.0303895 1.66066e-07
1.85931e-07 1.66066e-07 0.0326161

0.0305033 -0.00124997 -1.65165e-07
-0.00124997 0.0229794 -7.7214e-08
-1.65165e-07 -7.7214e-08 0.0214793

0.0371493 -0.00307692 6.18164e-08
-0.00307692 0.0316545 6.32859e-08
6.18164e-08 6.32859e-08 0.0339892

0.0349708 0.000321925 3.10012e-08
0.000321925 0.0275562 1.61584e-08
3.10012e-08 1.61584e-08 0.0334314

0.0358445 -0.0030885 -1.35144e-07
-0.0030885 0.0332592 1.23971e-07
-1.35144e-07 1.23971e-07 0.0341448

0.0349303 -0.00341054 1.28376e-07
-0.00341054 0.0295963 8.18418e-09
1.28376e-07 8.18418e-09 0.0321794

0.0349107 -0.00113363 1.31662e-07
-0.00113363 0.0278514 -1.12045e-07
1.31662e-07 -1.12045e-07 0.0323428

0.0314914 -0.00306225 3.00035e-08
-0.00306225 0.0344498 -1.10297e-07
3.00035e-08 -1.10297e-07 0.0341478

0.0292367 -0.00407123 -5.61934e-08
-0.00407123 0.026901 -1.94043e-08
-5.61934e-08 -1.94043e-08 0.0253473

0.0349943 -0.00324377 1.23817e-07
-0.00324377 0.0299165 -9.79617e-09
1.23817e-07 -9.79617e-09 0.0321966

0.0314641 0.00140911 -1.35175e-07
0.00140911 0.023328 2.12768e-08
-1.35175e-07 2.12768e-08 0.0244848

0.0336662 0.00348424 1.22723e-07
0.00348424 0.0334453 2.17232e-08
1.22723e-07 2.17232e-08 0.0336514

0.0298941 -0.00496725 8.88846e-08
-0.00496725 0.0330799 4.22354e-09
8.88846e-08 4.22354e-09 0.0338585

0.0300446 0.00492043 4.16566e-08
0.00492043 0.0329415 1.00907e-07
4.16566e-08 1.00907e-07 0.0338255

0.0276896 -0.00374189 -1.55651e-07
-0.00374189 0.0348085 6.1106e-08
-1.55651e-07 6.1106e-08 0.0337681

0.0279273 0.00354716 -1.29463e-07
0.00354716 0.0348364 2.01894e-08
-1.29463e-07 2.01894e-08 0.0337329

0.0364311 -0.00115377 -1.74486e-07
-0.00115377 0.0263434 1.07834e-08
-1.74486e-07 1.07834e-08 0.0337592

0.0361999 0.00124744 1.85483e-07
0.00124744 0.0265648 -8.98586e-08
1.85483e-07 -8.98586e-08 0.033722

0.0350359 -0.00130643 1.59588e-07
-0.00130643 0.0284694 -2.23289e-07
1.59588e-07 -2.23289e-07 0.0325772

0.0344376 0.00425886 -1.22466e-07
0.00425886 0.0342905 -2.50144e-08
-1.22466e-07 -2.50144e-08 0.0348138

0.0343134 -0.0043566 3.45284e-08
-0.0043566 0.0342824 -2.38233e-08
3.45284e-08 -2.38233e-08 0.0348022

0.0305224 0.00209353 4.7037e-08
0.00209353 0.0381662 -1.70403e-07
4.7037e-08 -1.70403e-07 0.034851

0.0306654 -0.00205944 6.78197e-08
-0.00205944 0.0380962 1.20011e-07
6.78197e-08 1.20011e-07 0.0348383

0.0395029 -0.000529026 9.84975e-08
-0.000529026 0.0328506 -6.72928e-08
9.84975e-08 -6.72928e-08 0.0352591

0.0397058 0.000513477 -9.72131e-08
0.000513477 0.0326232 1.89807e-08
-9.72131e-08 1.89807e-08 0.0353043

0.0239662 0.00127607 1.78999e-07
0.00127607 0.0320048 -1.28006e-08
1.78999e-07 -1.28006e-08 0.0251855

0.0311634 -0.00326556 1.02131e-07
-0.00326556 0.0322421 1.49135e-07
1.02131e-07 1.49135e-07 0.0328032

0.0277815 -0.00478568 -1.60559e-07
-0.00478568 0.0333137 -6.68843e-08
-1.60559e-07 -6.68843e-08 0.0334566

0.0333606 -0.000610468 -6.67368e-08
-0.000610468 0.0264044 -1.72697e-07
-6.67368e-08 -1.72697e-07 0.0284495

0.0381888 -0.00225187 1.2948e-07
-0.00225187 0.0307958 -1.43932e-08
1.2948e-07 -1.43932e-08 0.0348941

0.0382374 0.00218374 -2.6624e-08
0.00218374 0.030909 -8.63615e-08
-2.6624e-08 -8.63615e-08 0.0349261

0.0360853 1.56165e-05 -2.38157e-09
1.56165e-05 0.0251275 7.54635e-08
-2.38157e-09 7.54635e-08 0.0334717

0.0242421 0.00302911 -4.43157e-09
0.00302911 0.0303991 4.00445e-08
-4.43157e-09 4.00445e-08 0.0242782

0.0276761 0.00475631 2.16805e-08
0.00475631 0.033314 -7.74333e-08
2.16805e-08 -7.74333e-08 0.0333945

0.028676 -0.0030758 2.89433e-08
-0.0030758 0.0342626 2.20136e-08
2.89433e-08 2.20136e-08 0.0327538

0.0310869 0.00303597 4.10497e-08
0.00303597 0.0251479 -7.2338e-08
4.10497e-08 -7.2338e-08 0.0254684

0.037229 0.00316569 1.04335e-07
0.00316569 0.0315421 4.19366e-08
1.04335e-07 4.19366e-08 0.0340772

0.0292282 -0.0040675 -2.63716e-08
-0.0040675 0.026937 4.2621e-08
-2.63716e-08 4.2621e-08 0.0253225

0.0364028 -0.000453853 4.10233e-08
-0.000453853 0.029693 1.30183e-07
4.10233e-08 1.30183e-07 0.0341324

0.0273459 -0.0044946 8.865e-10
-0.0044946 0.0333967 6.3146e-08
8.865e-10 6.3146e-08 0.0334432

0.024039 0.00107909 -8.77227e-08
0.00107909 0.032246 -2.0074e-07
-8.77227e-08 -2.0074e-07 0.0255071

0.0242308 0.00282684 -1.84184e-07
0.00282684 0.030703 -3.73257e-08
-1.84184e-07 -3.73257e-08 0.0245461

0.0267933 0.00459449 -1.31843e-07
0.00459449 0.0240428 -2.32279e-07
-1.31843e-07 -2.32279e-07 0.0182144

0.0298521 0.000199874 -1.87175e-07
0.000199874 0.0200892 -4.34005e-08
-1.87175e-07 -4.34005e-08 0.0193633

0.0319102 -0.00302387 2.25914e-08
-0.00302387 0.0341638 -2.32531e-08
2.25914e-08 -2.32531e-08 0.034037

0.0229196 0.0039998 -1.14254e-07
0.0039998 0.0276615 2.44582e-07
-1.14254e-07 2.44582e-07 0.0176539

0.0292113 0.00310109 3.54393e-08
0.00310109 0.0327646 1.93774e-07
3.54393e-08 1.93774e-07 0.0310137

0.0315963 -0.000694463 1.29313e-07
-0.000694463 0.023161 2.6658e-08
1.29313e-07 2.6658e-08 0.024486

0.0327629 0.00146456 1.85317e-07
0.00146456 0.025348 1.71216e-08
1.85317e-07 1.71216e-08 0.0276143

0.0359796 5.62456e-05 -5.94991e-08
5.62456e-05 0.0249605 1.50915e-07
-5.94991e-08 1.50915e-07 0.0333877

0.0279674 -0.00380538 7.54837e-08
-0.00380538 0.0349502 -8.76017e-08
7.54837e-08 -8.76017e-08 0.0338174

0.0393152 -0.000843599 -2.75534e-07
-0.000843599 0.0416027 3.62574e-07
-2.75534e-07 3.62574e-07 0.0361913

0.0298691 0.00493888 -5.91702e-08
0.00493888 0.0329578 -1.31239e-07
-5.91702e-08 -1.31239e-07 0.0337805

0.0302896 0.000214418 -2.53987e-07
0.000214418 0.0203977 -9.367e-09
-2.53987e-07 -9.367e-09 0.0172769

0.0266752 -0.00425082 1.56899e-07
-0.00425082 0.0281346 -8.79657e-08
1.56899e-07 -8.79657e-08 0.0244386

0.0277478 0.00481567 3.01009e-08
0.00481567 0.0333164 1.0963e-07
3.01009e-08 1.0963e-07 0.0334568

0.0279464 -0.00145842 -1.30067e-07
-0.00145842 0.0350866 -7.86672e-08
-1.30067e-07 -7.86672e-08 0.0314517

0.0244662 -0.00330529 -1.15224e-08
-0.00330529 0.0300167 -2.78012e-07
-1.15224e-08 -2.78012e-07 0.0242183

0.0279924 0.00377958 -1.23351e-08
0.00377958 0.0349119 -5.73101e-08
-1.23351e-08 -5.73101e-08 0.0337883

0.0313633 -0.00340958 6.43167e-08
-0.00340958 0.02701 -7.65172e-09
6.43167e-08 -7.65172e-09 0.0269926

0.0402805 0.00140906 1.11271e-07
0.00140906 0.0406177 3.81556e-07
1.11271e-07 3.81556e-07 0.0361717

0.0258824 0.00400291 7.67168e-08
0.00400291 0.0289559 -1.43662e-07
7.67168e-08 -1.43662e-07 0.0245122

0.0366795 0.00110295 -3.38845e-08
0.00110295 0.0263539 -7.54938e-08
-3.38845e-08 -7.54938e-08 0.0338992

0.0333433 0.00398395 1.35527e-07
0.00398395 0.0321173 -8.94396e-08
1.35527e-07 -8.94396e-08 0.0333171

0.0292297 0.00306735 -6.01778e-08
0.00306735 0.032607 1.12623e-07
-6.01778e-08 1.12623e-07 0.0321592

0.0343661 -0.00431073 1.10512e-07
-0.00431073 0.0345063 -1.12245e-07
1.10512e-07 -1.12245e-07 0.0348863

0.0354911 -0.00306352 1.66411e-08
-0.00306352 0.0305914 -1.79136e-07
1.66411e-08 -1.79136e-07 0.0327519

0.0333676 0.00138751 2.23814e-07
0.00138751 0.0395785 6.68657e-08
2.23814e-07 6.68657e-08 0.0350039

0.0291985 -0.00307907 -7.90165e-08
-0.00307907 0.0328748 -4.95456e-08
-7.90165e-08 -4.95456e-08 0.0313848

0.0292663 -0.00123227 -2.64044e-08
-0.00123227 0.019288 4.45809e-09
-2.64044e-08 4.45809e-09 0.016413

0.0287799 -0.00183239 -2.42192e-07
-0.00183239 0.0184148 1.4627e-08
-2.42192e-07 1.4627e-08 0.0161978

0.0385304 0.00220225 -1.35548e-08
0.00220225 0.0332402 -2.65994e-07
-1.35548e-08 -2.65994e-07 0.0347643

0.0280575 0.00294515 1.15252e-07
0.00294515 0.0323369 -1.80549e-07
1.15252e-07 -1.80549e-07 0.0295197

0.0320688 0.00383439 -1.05041e-07
0.00383439 0.0309623 -7.40156e-08
-1.05041e-07 -7.40156e-08 0.031456

0.0320518 8.98874e-05 1.42235e-07
8.98874e-05 0.0245782 -2.62958e-07
1.42235e-07 -2.62958e-07 0.0248894

0.030239 0.000866034 -1.14127e-07
0.000866034 0.0385823 -1.73212e-07
-1.14127e-07 -1.73212e-07 0.0340978

0.0354034 0.0021912 1.00404e-07
0.0021912 0.0293244 2.01362e-07
1.00404e-07 2.01362e-07 0.0328599

0.0248127 -0.00333911 -2.31356e-08
-0.00333911 0.0300079 -2.07501e-07
-2.31356e-08 -2.07501e-07 0.0244714

0.028652 -0.000337774 -1.83936e-07
-0.000337774 0.0366589 -4.83912e-08
-1.83936e-07 -4.83912e-08 0.0323973

0.0252166 0.00174016 3.15068e-08
0.00174016 0.0320316 -1.72344e-08
3.15068e-08 -1.72344e-08 0.0256854

0.0332822 -0.00390986 -1.69896e-07
-0.00390986 0.0304983 -1.90068e-07
-1.69896e-07 -1.90068e-07 0.031594

0.0290663 -0.0038963 9.35662e-09
-0.0038963 0.0282021 1.11665e-07
9.35662e-09 1.11665e-07 0.025715

0.0261506 0.00409899 -9.81092e-08
0.00409899 0.0285481 -1.31028e-07
-9.81092e-08 -1.31028e-07 0.0243195

0.0452883 -0.00201695 -2.69785e-07
-0.00201695 0.0396065 -1.03065e-07
-2.69785e-07 -1.03065e-07 0.0363682

0.031668 0.000256487 -1.62778e-08
0.000256487 0.0393284 3.76429e-08
-1.62778e-08 3.76429e-08 0.0347706

0.0306183 0.00265086 8.35256e-08
0.00265086 0.0384435 -7.84416e-08
8.35256e-08 -7.84416e-08 0.0349592

0.0387673 0.00209493 -2.05633e-07
0.00209493 0.0302234 -1.29544e-07
-2.05633e-07 -1.29544e-07 0.034944

0.0313725 -0.00345052 1.30584e-07
-0.00345052 0.0321425 1.30073e-07
1.30584e-07 1.30073e-07 0.0325743

0.0318198 0.00233614 -8.78962e-08
0.00233614 0.0256217 1.1719e-07
-8.78962e-08 1.1719e-07 0.0258811

0.0349948 -0.000708423 1.89491e-07
-0.000708423 0.0415759 1.33962e-07
1.89491e-07 1.33962e-07 0.0357291

0.0357897 -0.00251866 2.41923e-09
-0.00251866 0.0295519 1.87463e-07
2.41923e-09 1.87463e-07 0.0332596

0.0332989 -0.00203994 -6.42709e-08
-0.00203994 0.0266542 2.16513e-07
-6.42709e-08 2.16513e-07 0.0286769

0.0252537 0.00151102 -8.40994e-08
0.00151102 0.0322764 -2.00689e-07
-8.40994e-08 -2.00689e-07 0.0259515

0.0268062 -0.00334498 -2.4325e-08
-0.00334498 0.030011 -2.78722e-07
-2.4325e-08 -2.78722e-07 0.0251887

0.0364794 -0.00336035 1.0333e-07
-0.00336035 0.0352889 -1.72942e-08
1.0333e-07 -1.72942e-08 0.0347438

0.0284771 0.0041525 -1.60437e-07
0.0041525 0.0277176 -7.68683e-08
-1.60437e-07 -7.68683e-08 0.0254692

0.0372457 -0.00334555 6.17508e-08
-0.00334555 0.0333236 -6.42691e-08
6.17508e-08 -6.42691e-08 0.0346131

0.0322079 0.000337964 1.11098e-08
0.000337964 0.0248639 -2.03276e-07
1.11098e-08 -2.03276e-07 0.0254389

0.0191619 -0.00368926 -1.57421e-07
-0.00368926 0.0275274 3.09735e-08
-1.57421e-07 3.09735e-08 0.0163116

0.0292113 -0.00380387 -9.79646e-08
-0.00380387 0.0281942 -1.10883e-07
-9.79646e-08 -1.10883e-07 0.0258091

0.023047 0.00412768 -4.22707e-08
0.00412768 0.0280218 1.57098e-07
-4.22707e-08 1.57098e-07 0.017593

0.0296923 -0.00155952 -3.83772e-08
-0.00155952 0.037535 -2.9254e-08
-3.83772e-08 -2.9254e-08 0.03365

0.0243614 -0.00179377 1.66998e-07
-0.00179377 0.0318743 -8.75964e-08
1.66998e-07 -8.75964e-08 0.0254493

0.0424378 -0.0032341 -1.81979e-07
-0.0032341 0.0423769 2.87652e-08
-1.81979e-07 2.87652e-08 0.0363765

0.0263379 0.00309113 9.73296e-09
0.00309113 0.0307032 -3.73046e-08
9.73296e-09 -3.73046e-08 0.0254792

0.0334787 -0.00432346 -2.01895e-07
-0.00432346 0.0326609 9.8378e-08
-2.01895e-07 9.8378e-08 0.0335678

0.0240818 -0.00155092 -1.03382e-07
-0.00155092 0.0318886 6.51588e-08
-1.03382e-07 6.51588e-08 0.025178

0.0362244 -0.00253875 -7.56012e-08
-0.00253875 0.0295126 1.25056e-07
-7.56012e-08 1.25056e-07 0.0335208

0.0266747 0.00310486 -2.05303e-07
0.00310486 0.0303961 4.32964e-08
-2.05303e-07 4.32964e-08 0.0253144

0.034345 -0.000653898 -1.406e-07
-0.000653898 0.0272781 2.37628e-07
-1.406e-07 2.37628e-07 0.030579

0.0188913 -0.0038717 -1.1e-07
-0.0038717 0.0298031 -7.71622e-08
-1.1e-07 -7.71622e-08 0.0129618

0.0280005 0.00275458 1.38422e-07
0.00275458 0.0326307 -1.04362e-08
1.38422e-07 -1.04362e-08 0.0305749

0.0314388 -0.00251253 -8.89312e-08
-0.00251253 0.0247233 -1.16993e-07
-8.89312e-08 -1.16993e-07 0.025407

0.039119 -0.00286932 1.96717e-08
-0.00286932 0.0322223 -1.53239e-07
1.96717e-08 -1.53239e-07 0.034938

0.0287544 0.00412412 -3.5697e-08
0.00412412 0.0273011 1.19769e-07
-3.5697e-08 1.19769e-07 0.0252565

0.0313627 -0.00391928 1.23933e-07
-0.00391928 0.0285432 -9.70822e-08
1.23933e-07 -9.70822e-08 0.0287321

0.0354088 0.00276388 3.03083e-07
0.00276388 0.0308569 1.37035e-07
3.03083e-07 1.37035e-07 0.0330403

0.0297737 -0.00370367 -9.29342e-08
-0.00370367 0.0329385 -1.83713e-08
-9.29342e-08 -1.83713e-08 0.0333434

0.0270563 -0.00341054 1.04892e-07
-0.00341054 0.0299837 -1.97854e-07
1.04892e-07 -1.97854e-07 0.0253984

0.0284419 0.00377135 -1.12331e-07
0.00377135 0.0289408 -1.49182e-07
-1.12331e-07 -1.49182e-07 0.0258882

0.0313722 0.00341353 5.27712e-08
0.00341353 0.0269002 9.49051e-08
5.27712e-08 9.49051e-08 0.0269669

0.0365374 -0.00194434 -6.55865e-08
-0.00194434 0.0306259 1.4634e-07
-6.55865e-08 1.4634e-07 0.0336365

0.0255345 -0.00216331 3.01047e-08
-0.00216331 0.031803 -9.92724e-08
3.01047e-08 -9.92724e-08 0.0258546

0.0347003 -0.00231386 1.59579e-07
-0.00231386 0.0283352 -2.23043e-07
1.59579e-07 -2.23043e-07 0.0314568

0.0341872 0.00222306 -1.47587e-07
0.00222306 0.0274328 6.85496e-08
-1.47587e-07 6.85496e-08 0.0306047

0.0336455 -0.00124577 -4.27948e-08
-0.00124577 0.0393004 -2.47374e-07
-4.27948e-08 -2.47374e-07 0.0349281

0.0320731 -0.00174671 5.23319e-08
-0.00174671 0.0253311 1.53387e-07
5.23319e-08 1.53387e-07 0.0258719

0.0250025 7.98155e-05 1.00643e-07
7.98155e-05 0.0331523 1.15275e-07
1.00643e-07 1.15275e-07 0.026862

0.0332482 0.00242874 1.58569e-07
0.00242874 0.0271944 -2.62574e-08
1.58569e-07 -2.62574e-08 0.0289229

0.0311182 0.00359893 6.8315e-09
0.00359893 0.0272933 -1.41658e-07
6.8315e-09 -1.41658e-07 0.0271234

0.0252961 -0.00204118 1.80033e-07
-0.00204118 0.0318653 7.17194e-08
1.80033e-07 7.17194e-08 0.0256118

0.0252018 -0.000154635 -1.13026e-07
-0.000154635 0.0332931 -1.6241e-07
-1.13026e-07 -1.6241e-07 0.0271448

0.0354138 0.00385817 -2.69506e-08
0.00385817 0.0329962 -2.6471e-07
-2.69506e-08 -2.6471e-07 0.0338961

0.0275865 -0.00143103 1.35573e-07
-0.00143103 0.0353427 1.79509e-07
1.35573e-07 1.79509e-07 0.0314428

0.0312348 -0.00348397 -1.12599e-07
-0.00348397 0.0269783 3.94264e-08
-1.12599e-07 3.94264e-08 0.0270105

0.0312975 0.00277282 -1.05041e-08
0.00277282 0.0249227 -1.36072e-08
-1.05041e-08 -1.36072e-08 0.0252468

0.0345838 0.00311821 -1.34134e-07
0.00311821 0.0293872 9.38129e-08
-1.34134e-07 9.38129e-08 0.0317965

0.027992 0.00071663 -2.22014e-07
0.00071663 0.0360403 8.99869e-09
-2.22014e-07 8.99869e-09 0.0318189

0.0287172 0.0037814 1.16062e-07
0.0037814 0.0285602 -1.35634e-07
1.16062e-07 -1.35634e-07 0.0257286

0.0367911 0.00305742 3.99533e-08
0.00305742 0.0361261 -1.8313e-07
3.99533e-08 -1.8313e-07 0.0349077

0.0226807 -0.00754558 -2.08609e-09
-0.00754558 0.0186881 3.50375e-07
-2.08609e-09 3.50375e-07 0.0108454

0.0332917 -0.00328755 -2.13603e-07
-0.00328755 0.0286332 -1.24699e-07
-2.13603e-07 -1.24699e-07 0.0301247

0.0207273 0.000913425 -1.18721e-08
0.000913425 0.030032 -1.96668e-07
-1.18721e-08 -1.96668e-07 0.0183469

0.031301 -0.00378177 1.63202e-07
-0.00378177 0.029232 -2.69542e-08
1.63202e-07 -2.69542e-08 0.0290323

0.00153959 -0.00651889 9.13514e-09
-0.00651889 0.0275688 -4.00237e-08
9.13514e-09 -4.00237e-08 0.00290839

0.00146998 0.00636845 3.94153e-08
0.00636845 0.0275867 1.7269e-07
3.94153e-08 1.7269e-07 0.00300135

0.0119848 0.0145052 -9.9582e-08
0.0145052 0.0175328 -1.24872e-07
-9.9582e-08 -1.24872e-07 0.00277127

0.0121662 -0.0144959 -1.09776e-07
-0.0144959 0.0172242 1.37655e-07
-1.09776e-07 1.37655e-07 0.00280388

0.0293412 -0.000164093 -1.90994e-07
-0.000164093 0 0
-1.90994e-07 0 0.0029527

0.0235927 -0.0112828 -1.41937e-07
-0.0112828 0.00539555 6.83533e-08
-1.41937e-07 6.83533e-08 0.00297843

0.0236347 0.0113491 7.5546e-08
0.0113491 0.00544965 3.6381e-08
7.5546e-08 3.6381e-08 0.00303956

0.0369119 0.00191139 -1.65419e-07
0.00191139 0.030243 2.4879e-09
-1.65419e-07 2.4879e-09 0.0338786

0.0387059 0.00341007 1.61751e-07
0.00341007 0.0366181 1.07503e-08
1.61751e-07 1.07503e-08 0.0355792

0.0344166 0.000872243 -1.2592e-07
0.000872243 0.0274577 -2.06797e-07
-1.2592e-07 -2.06797e-07 0.0316887

0.0328739 0.00285036 9.10227e-08
0.00285036 0.0268901 9.53937e-08
9.10227e-08 9.53937e-08 0.0286472

0.0257015 0.00231333 2.78888e-08
0.00231333 0.0323682 -2.46952e-08
2.78888e-08 -2.46952e-08 0.0276365

0.0307135 0.00376907 -4.06062e-08
0.00376907 0.027677 -7.13998e-08
-4.06062e-08 -7.13998e-08 0.0271186

0.0333063 -0.00390345 -3.72723e-08
-0.00390345 0.0304666 9.03241e-10
-3.72723e-08 9.03241e-10 0.0316309

0.0309743 0.00365456 3.79878e-08
0.00365456 0.0272878 1.20972e-07
3.79878e-08 1.20972e-07 0.0269262

0.024988 -0.00037148 -7.99914e-08
-0.00037148 0.0331233 1.0948e-07
-7.99914e-08 1.0948e-07 0.0268441

0.0385488 -0.00348457 6.04382e-08
-0.00348457 0.0368812 1.58155e-07
6.04382e-08 1.58155e-07 0.0355848

0.0251764 -0.000635603 1.41177e-07
-0.000635603 0.0332117 -1.4084e-07
1.41177e-07 -1.4084e-07 0.0271037

0.0360188 0.0030474 -1.90826e-07
0.0030474 0.0330118 1.72837e-07
-1.90826e-07 1.72837e-07 0.034099

0.0296243 0.00347597 1.02159e-07
0.00347597 0.0248471 -2.00793e-08
1.02159e-07 -2.00793e-08 0.0230236

0.0304973 -0.00171369 1.08989e-07
-0.00171369 0.0375133 -1.52792e-07
1.08989e-07 -1.52792e-07 0.0347376

0.0339212 0.0018045 -2.86527e-07
0.0018045 0.0271826 -3.04847e-08
-2.86527e-07 -3.04847e-08 0.0303215

0.0312024 -0.00392065 9.13359e-09
-0.00392065 0.028532 -1.64709e-07
9.13359e-09 -1.64709e-07 0.0286155

0.0315847 -0.00322158 -1.45106e-07
-0.00322158 0.0266927 -2.31082e-08
-1.45106e-07 -2.31082e-08 0.0270487

0.0384808 -0.00214168 1.29729e-07
-0.00214168 0.0334181 6.54965e-08
1.29729e-07 6.54965e-08 0.0347459

0.0326824 0.00366442 1.73771e-07
0.00366442 0.029233 -8.81899e-08
1.73771e-07 -8.81899e-08 0.0301561

0.0326457 0.00313771 1.498e-07
0.00313771 0.0272533 -1.36075e-07
1.498e-07 -1.36075e-07 0.028789

0.0269562 -0.000365245 1.76472e-07
-0.000365245 0.0349884 3.51264e-08
1.76472e-07 3.51264e-08 0.0301691

0.0259007 0.00076576 6.04666e-08
0.00076576 0.0340049 2.13009e-07
6.04666e-08 2.13009e-07 0.0288241

0.0327795 0.000345441 -4.81454e-08
0.000345441 0.0248627 -2.07268e-07
-4.81454e-08 -2.07268e-07 0.0274449

0.0313887 -0.00094499 2.54726e-07
-0.00094499 0.0230048 -5.8687e-08
2.54726e-07 -5.8687e-08 0.0238931

0.0308818 0.00398537 -8.27623e-08
0.00398537 0.0288071 -9.97761e-08
-8.27623e-08 -9.97761e-08 0.0286253

0.0331192 -0.00343178 -1.15853e-07
-0.00343178 0.0285416 -1.66164e-07
-1.15853e-07 -1.66164e-07 0.0299705

0.0364138 -0.00282376 -1.10424e-07
-0.00282376 0.0327338 -9.43298e-08
-1.10424e-07 -9.43298e-08 0.0341452

0.0292072 -0.00412782 -1.39295e-07
-0.00412782 0.0291936 -4.82164e-08
-1.39295e-07 -4.82164e-08 0.027755

0.0269732 -0.0036207 -1.18082e-07
-0.0036207 0.0304659 -1.22675e-07
-1.18082e-07 -1.22675e-07 0.0272145

0.0283276 0.00389968 6.02626e-08
0.00389968 0.0299021 1.93899e-07
6.02626e-08 1.93899e-07 0.0277532

0.0259024 -0.00124901 8.02229e-08
-0.00124901 0.0336153 -1.43447e-07
8.02229e-08 -1.43447e-07 0.0285171

0.0266556 -0.000202223 1.74389e-07
-0.000202223 0.0349141 2.98525e-08
1.74389e-07 2.98525e-08 0.029921

0.0277635 0.00075294 1.63313e-07
0.00075294 0.0360398 6.08116e-09
1.63313e-07 6.08116e-09 0.0316594

0.0262482 -0.00274954 -1.38748e-08
-0.00274954 0.0319643 -3.37893e-08
-1.38748e-08 -3.37893e-08 0.0277118

0.0345838 0.00317604 -3.1051e-08
0.00317604 0.0291693 -1.0031e-07
-3.1051e-08 -1.0031e-07 0.0316356

0.033911 -0.00126122 -1.56049e-07
-0.00126122 0.0269314 1.99168e-07
-1.56049e-07 1.99168e-07 0.0302029

0.0257914 0.000974315 -6.62966e-08
0.000974315 0.0338307 -1.83042e-07
-6.62966e-08 -1.83042e-07 0.0285431

0.0278251 -0.0012702 8.53588e-08
-0.0012702 0.0353984 1.6925e-07
8.53588e-08 1.6925e-07 0.0313672

0.0272941 -0.00213727 3.11633e-08
-0.00213727 0.0336586 -4.41248e-08
3.11633e-08 -4.41248e-08 0.0302268

0.0327782 -0.00107738 -9.03902e-09
-0.00107738 0.0253211 1.65332e-07
-9.03902e-09 1.65332e-07 0.0272555

0.0333164 -0.00427101 -5.89032e-08
-0.00427101 0.0323821 1.65791e-07
-5.89032e-08 1.65791e-07 0.0335304

0.0264898 0.00121996 1.234e-07
0.00121996 0.0338367 -1.80703e-07
1.234e-07 -1.80703e-07 0.0288172

0.0398121 -0.00243162 5.01324e-08
-0.00243162 0.0352195 -1.54334e-08
5.01324e-08 -1.54334e-08 0.0354621

0.0188894 0.00316484 -2.00001e-07
0.00316484 0.0278772 1.42023e-07
-2.00001e-07 1.42023e-07 0.0162735

0.0338167 -0.00352284 -1.45325e-07
-0.00352284 0.0334961 2.81706e-08
-1.45325e-07 2.81706e-08 0.0337273

0.0353451 -0.00399947 -1.60741e-07
-0.00399947 0.0330476 3.35325e-08
-1.60741e-07 3.35325e-08 0.0339051

0.0266869 -9.05149e-05 -1.91654e-07
-9.05149e-05 0.0349192 2.14572e-08
-1.91654e-07 2.14572e-08 0.0299292

0.0332446 -0.0021763 1.47245e-07
-0.0021763 0.0271541 9.96162e-08
1.47245e-07 9.96162e-08 0.0289038

0.0293486 0.00168466 -6.46942e-08
0.00168466 0.035821 2.50454e-07
-6.46942e-08 2.50454e-07 0.0328809

0.0132079 -0.000379168 1.06476e-07
-0.000379168 0.0283634 -1.33675e-07
1.06476e-07 -1.33675e-07 0.0111523

0.0271148 0.00186864 2.00885e-07
0.00186864 0.0340625 -3.52941e-08
2.00885e-07 -3.52941e-08 0.0303074

0.0311106 -0.00385867 9.24025e-08
-0.00385867 0.0291553 3.14066e-09
9.24025e-08 3.14066e-09 0.0288075

0.0186204 0.00320468 -1.64393e-07
0.00320468 0.0301406 2.38044e-07
-1.64393e-07 2.38044e-07 0.0131273

0.0426015 0.00351754 2.6718e-07
0.00351754 0.0418486 3.12781e-07
2.6718e-07 3.12781e-07 0.0364814

0.043206 -0.00374836 1.69536e-07
-0.00374836 0.0414175 -1.59926e-07
1.69536e-07 -1.59926e-07 0.0364637

0.0310664 -0.00399095 1.48566e-07
-0.00399095 0.0304722 -3.60028e-09
1.48566e-07 -3.60028e-09 0.0304622

0.0289231 -0.00406421 7.50982e-08
-0.00406421 0.0291517 2.97981e-09
7.50982e-08 2.97981e-09 0.0275954

0.0330521 0.00272683 1.28989e-08
0.00272683 0.0275296 8.2469e-08
1.28989e-08 8.2469e-08 0.0290765

0.0327809 0.00196006 3.36647e-08
0.00196006 0.0255921 1.2198e-07
3.36647e-08 1.2198e-07 0.0278238

0.0464016 0.000418534 4.80777e-07
0.000418534 0.046356 -8.94027e-08
4.80777e-07 -8.94027e-08 0.0366955

0.0469183 -0.00095158 -3.02734e-07
-0.00095158 0.0457687 1.41137e-07
-3.02734e-07 1.41137e-07 0.0367667

0.0348008 0.000638343 -9.74131e-08
0.000638343 0.027574 -2.3173e-07
-9.74131e-08 -2.3173e-07 0.0322176

0.0277528 0.000882313 1.77332e-07
0.000882313 0.0355718 5.06574e-09
1.77332e-07 5.06574e-09 0.0313496

0.0276086 0.000882877 -2.08081e-07
0.000882877 0.0355719 -5.94413e-09
-2.08081e-07 -5.94413e-09 0.0312458

0.0234599 0.00740025 3.76188e-07
0.00740025 0.0183025 -7.58167e-08
3.76188e-07 -7.58167e-08 0.0109019

0.0272482 -0.00367572 -9.31751e-08
-0.00367572 0.030348 9.65435e-08
-9.31751e-08 9.65435e-08 0.0273204

0.0365682 0.00239148 -9.41458e-08
0.00239148 0.0295771 -8.86914e-08
-9.41458e-08 -8.86914e-08 0.0337855

0.033275 0.00124754 8.13321e-08
0.00124754 0.026505 3.03855e-08
8.13321e-08 3.03855e-08 0.0284328

0.0291533 -0.00349264 1.22941e-08
-0.00349264 0.0304722 -1.11928e-07
1.22941e-08 -1.11928e-07 0.0281742

0.0328121 -0.00264782 7.22999e-08
-0.00264782 0.026729 -1.6023e-08
7.22999e-08 -1.6023e-08 0.0285877

0.0224609 0.00761314 2.09609e-07
0.00761314 0.0185909 -6.33537e-09
2.09609e-07 -6.33537e-09 0.0109044

0.0331458 0.00410234 5.41966e-08
0.00410234 0.0326389 1.00153e-07
5.41966e-08 1.00153e-07 0.0331826

0.025891 -0.00257835 1.95879e-07
-0.00257835 0.0320253 4.63569e-08
1.95879e-07 4.63569e-08 0.0275083

0.0324836 0.003786 6.60087e-09
0.003786 0.0292691 1.38733e-07
6.60087e-09 1.38733e-07 0.0301478

0.0268169 -0.000543612 -1.79965e-07
-0.000543612 0.0349534 -1.30797e-09
-1.79965e-07 -1.30797e-09 0.0301388

0.026991 0.00256342 2.47577e-07
0.00256342 0.0324494 -6.89028e-08
2.47577e-07 -6.89028e-08 0.0282874

0.0305271 0.00399124 6.65736e-08
0.00399124 0.0293242 1.44132e-07
6.65736e-08 1.44132e-07 0.028776

0.0276097 -0.00293729 -1.68247e-07
-0.00293729 0.0318549 -6.11911e-08
-1.68247e-07 -6.11911e-08 0.0282499

0.0294568 -0.00357599 -5.32599e-08
-0.00357599 0.0303517 9.92129e-08
-5.32599e-08 9.92129e-08 0.0283059

0.0181382 0.00142547 -3.29529e-08
0.00142547 0.0280373 -2.47509e-07
-3.29529e-08 -2.47509e-07 0.013128

0.0234745 -0.0042941 -3.18269e-08
-0.0042941 0.027557 2.76019e-08
-3.18269e-08 2.76019e-08 0.0177239

0.0262063 -0.00152602 -9.15008e-08
-0.00152602 0.0336248 1.97354e-07
-9.15008e-08 1.97354e-07 0.0287527

0.0330249 0.00347489 -1.64981e-07
0.00347489 0.0288786 -9.29113e-08
-1.64981e-07 -9.29113e-08 0.0300697

0.0303228 0.00385756 2.45169e-08
0.00385756 0.0298873 1.91708e-07
2.45169e-08 1.91708e-07 0.0289912

0.0274154 -0.00280067 -3.88088e-08
-0.00280067 0.031985 2.93339e-08
-3.88088e-08 2.93339e-08 0.0281399

0.0265553 -0.00154083 9.48155e-08
-0.00154083 0.0335837 -1.42733e-07
9.48155e-08 -1.42733e-07 0.0287471

0.0309573 0.0037184 -2.99329e-08
0.0037184 0.0295644 -2.03585e-07
-2.99329e-08 -2.03585e-07 0.028942

0.0267601 -0.00181608 9.76857e-08
-0.00181608 0.0334753 2.37894e-07
9.76857e-08 2.37894e-07 0.0289551

0.0191665 0.00355473 2.00204e-08
0.00355473 0.0276089 2.59378e-07
2.00204e-08 2.59378e-07 0.0162927

0.0308742 -0.000534691 9.92028e-08
-0.000534691 0.0388203 -9.61804e-08
9.92028e-08 -9.61804e-08 0.0342952

0.0286574 0.0040479 6.54007e-08
0.0040479 0.0295194 -2.14001e-07
6.54007e-08 -2.14001e-07 0.0277153

0.0355807 0.00197497 1.64849e-07
0.00197497 0.0295037 7.83124e-08
1.64849e-07 7.83124e-08 0.0328435

0.0362599 -0.00211481 -1.36737e-07
-0.00211481 0.0297561 -8.71719e-09
-1.36737e-07 -8.71719e-09 0.0332187

0.0285114 -0.00309577 4.11704e-08
-0.00309577 0.0185694 3.24427e-07
4.11704e-08 3.24427e-07 0.0157304

0.0283544 -0.0027905 -2.29158e-07
-0.0027905 0.0327763 3.85066e-09
-2.29158e-07 3.85066e-09 0.0305724

0.0291918 0.00350102 -1.41192e-07
0.00350102 0.031601 -1.15739e-07
-1.41192e-07 -1.15739e-07 0.0304883

0.0349601 -0.00290756 5.47842e-08
-0.00290756 0.0376764 -2.16518e-07
5.47842e-08 -2.16518e-07 0.0352368

0.0394604 0.00188479 1.98688e-07
0.00188479 0.044609 4.49567e-08
1.98688e-07 4.49567e-08 0.0364335

0.0449441 0.00129006 2.84767e-07
0.00129006 0.0391169 -6.83057e-08
2.84767e-07 -6.83057e-08 0.0364155

0.0355609 0.00434542 -1.70802e-07
0.00434542 0.0351355 1.87624e-07
-1.70802e-07 1.87624e-07 0.0350041

0.0265726 0.00338814 1.4324e-07
0.00338814 0.0310075 2.05283e-07
1.4324e-07 2.05283e-07 0.0272566

0.0330405 0.00349732 -1.0257e-07
0.00349732 0.0286675 -2.49815e-07
-1.0257e-07 -2.49815e-07 0.0300509

0.0220605 0.00576452 2.22113e-07
0.00576452 0.0242381 -2.83556e-07
2.22113e-07 -2.83556e-07 0.0160728

0.0386185 -0.00151251 1.45812e-07
-0.00151251 0.0444322 -2.34835e-07
1.45812e-07 -2.34835e-07 0.0363627

0.046048 -0.000463994 4.07937e-08
-0.000463994 0.0454387 1.06716e-07
4.07937e-08 1.06716e-07 0.0366916

0.0451798 -3.11218e-05 2.41245e-07
-3.11218e-05 0.0463016 2.1831e-07
2.41245e-07 2.1831e-07 0.0366736

0.0176414 -0.00679514 -9.73255e-08
-0.00679514 0.0231089 -5.2124e-08
-9.73255e-08 -5.2124e-08 0.0107388

0.0392931 -0.00155602 -1.51265e-07
-0.00155602 0.0387148 -8.4634e-09
-1.51265e-07 -8.4634e-09 0.0358543

0.038397 0.00117694 -2.55091e-07
0.00117694 0.0415182 -3.65528e-07
-2.55091e-07 -3.65528e-07 0.0361256

0.033176 -0.00343577 -4.34111e-09
-0.00343577 0.0282205 9.11868e-08
-4.34111e-09 9.11868e-08 0.0299043

0.0318452 0.000140399 -8.25457e-08
0.000140399 0.0386731 -7.7722e-08
-8.25457e-08 -7.7722e-08 0.0344511

0.0285776 -0.00266017 -2.52423e-07
-0.00266017 0.0333814 -1.72422e-07
-2.52423e-07 -1.72422e-07 0.0315901

0.0356629 0.000831728 1.97935e-07
0.000831728 0.0273785 -1.01316e-08
1.97935e-07 -1.01316e-08 0.0330009

0.0288766 0.00204426 2.18593e-07
0.00204426 0.0368177 2.14148e-07
2.18593e-07 2.14148e-07 0.0336705

0.0298701 0.000946527 -3.43885e-08
0.000946527 0.0373893 2.1655e-07
-3.43885e-08 2.1655e-07 0.0333643

0.0344028 0.00268527 -2.22262e-07
0.00268527 0.0288521 -2.34877e-07
-2.22262e-07 -2.34877e-07 0.0312271

0.0132794 -0.000409357 -1.81526e-07
-0.000409357 0.0281237 2.30735e-07
-1.81526e-07 2.30735e-07 0.0112017

0.0309655 -0.00362617 -1.86013e-07
-0.00362617 0.0309164 8.77794e-08
-1.86013e-07 8.77794e-08 0.0306104

0.0329289 -0.0034435 -4.63742e-08
-0.0034435 0.0320219 3.34289e-08
-4.63742e-08 3.34289e-08 0.0325801

0.0335724 -0.00415912 -1.7137e-07
-0.00415912 0.0325353 2.16262e-07
-1.7137e-07 2.16262e-07 0.0337365

0.0265628 0.00414879 1.62798e-09
0.00414879 0.0176919 -1.07096e-07
1.62798e-09 -1.07096e-07 0.0126056

0.0388288 -0.00269597 9.24383e-08
-0.00269597 0.0395761 -9.37969e-08
9.24383e-08 -9.37969e-08 0.035959

0.0230835 0.00692103 3.76626e-07
0.00692103 0.0255027 -7.53194e-08
3.76626e-07 -7.53194e-08 0.0126099

0.0308755 -0.00281731 3.14485e-07
-0.00281731 0.0348086 6.11228e-08
3.14485e-07 6.11228e-08 0.0339571

0.0354131 0.00193633 1.22147e-07
0.00193633 0.0284666 1.46739e-07
1.22147e-07 1.46739e-07 0.0323454

0.0318223 -0.00189354 1.00987e-07
-0.00189354 0.0249516 1.94593e-07
1.00987e-07 1.94593e-07 0.0253963

0.0292933 0.00315916 -1.59398e-07
0.00315916 0.0327331 -6.2857e-08
-1.59398e-07 -6.2857e-08 0.0312805

0.0344381 0.00268907 -3.0047e-07
0.00268907 0.0286354 -4.92428e-08
-3.0047e-07 -4.92428e-08 0.0312217

0.0325194 0.00149897 5.3415e-08
0.00149897 0.0403736 1.68822e-07
5.3415e-08 1.68822e-07 0.0353373

0.0319415 -0.00415473 2.14339e-07
-0.00415473 0.0312024 -1.23416e-07
2.14339e-07 -1.23416e-07 0.0318116

0.0396771 0.00265557 -1.09232e-07
0.00265557 0.033199 -6.59689e-08
-1.09232e-07 -6.59689e-08 0.0353167

0.0279724 -0.00241866 -3.20213e-07
-0.00241866 0.0335523 -9.98528e-08
-3.20213e-07 -9.98528e-08 0.0304714

0.0293518 0.000558611 -1.10062e-07
0.000558611 0.037313 2.08516e-07
-1.10062e-07 2.08516e-07 0.0332535

0.0419442 0.00133765 5.7136e-08
0.00133765 0.0371007 2.43184e-08
5.7136e-08 2.43184e-08 0.0361169

0.0420973 -0.00114787 -1.29159e-07
-0.00114787 0.0373267 1.38614e-07
-1.29159e-07 1.38614e-07 0.0360988

0.028384 0.00236917 -2.08253e-07
0.00236917 0.0181821 -7.61549e-08
-2.08253e-07 -7.61549e-08 0.0159503

0.0350271 0.00106119 1.09086e-07
0.00106119 0.028567 1.47582e-07
1.09086e-07 1.47582e-07 0.0330599

0.0128673 0.000923434 -1.28267e-07
0.000923434 0.0316274 -1.67669e-07
-1.28267e-07 -1.67669e-07 0.00612191

0.0131629 -0.00138819 1.11148e-07
-0.00138819 0.0321331 1.0951e-07
1.11148e-07 1.0951e-07 0.00611223

0.0152692 0.00715444 -8.49346e-08
0.00715444 0.0284539 -1.78183e-07
-8.49346e-08 -1.78183e-07 0.00598435

0.034765 -0.00382131 -4.35894e-08
-0.00382131 0.0312688 -1.62843e-07
-4.35894e-08 -1.62843e-07 0.03294

0.0155813 -0.00619459 -3.5172e-08
-0.00619459 0.0261537 -6.80072e-08
-3.5172e-08 -6.80072e-08 0.0104724

0.0155133 -0.00708699 -1.45616e-07
-0.00708699 0.0274243 1.11811e-08
-1.45616e-07 1.11811e-08 0.00591415

0.0284269 0.00342589 5.21019e-08
0.00342589 0.0310077 2.0511e-07
5.21019e-08 2.0511e-07 0.0281537

0.0251941 0.00932618 7.22535e-08
0.00932618 0.0190213 -1.57886e-07
7.22535e-08 -1.57886e-07 0.00593405

0.0365386 0.00173185 -1.9561e-07
0.00173185 0.0385518 -1.38659e-08
-1.9561e-07 -1.38659e-08 0.035476

0.0395358 2.57825e-05 -2.43242e-07
2.57825e-05 0.0355402 -7.03002e-09
-2.43242e-07 -7.03002e-09 0.0354566

0.026108 -0.00924469 1.59549e-07
-0.00924469 0.018813 1.94598e-07
1.59549e-07 1.94598e-07 0.00588822

0.027691 -0.0030652 -1.55407e-07
-0.0030652 0.0320964 2.25056e-07
-1.55407e-07 2.25056e-07 0.0296238

0.026256 0.00441827 -4.82925e-08
0.00441827 0.0201588 8.49311e-08
-4.82925e-08 8.49311e-08 0.0130451

0.0172798 0.00797331 -3.52178e-07
0.00797331 0.0271497 5.71354e-08
-3.52178e-07 5.71354e-08 0.00598807

0.0181968 0.00275528 -2.65301e-07
0.00275528 0.0275908 -2.08579e-07
-2.65301e-07 -2.08579e-07 0.0128506

0.0173047 -0.00827654 -5.74249e-08
-0.00827654 0.0271532 -1.96e-08
-5.74249e-08 -1.96e-08 0.00581398

0.0179335 -0.00157107 -5.86315e-08
-0.00157107 0.0280065 1.63903e-07
-5.86315e-08 1.63903e-07 0.012691

0.0370507 0.000922729 -3.00635e-08
0.000922729 0.0413004 1.51627e-07
-3.00635e-08 1.51627e-07 0.0358108

0.022132 -0.00585547 -3.31718e-09
-0.00585547 0.0236656 1.60971e-08
-3.31718e-09 1.60971e-08 0.0151594

0.0157006 0.00598642 -3.67606e-07
0.00598642 0.0259032 2.78028e-08
-3.67606e-07 2.78028e-08 0.0107506

0.0302094 0.00473027 -8.22673e-08
0.00473027 0.0143498 1.89359e-07
-8.22673e-08 1.89359e-07 0.00611605

0.0329393 -0.00384943 -1.13525e-07
-0.00384943 0.030125 3.19094e-07
-1.13525e-07 3.19094e-07 0.0310522

0.0308895 0.00169386 -9.85461e-08
0.00169386 0.0368442 2.2789e-07
-9.85461e-08 2.2789e-07 0.0339511

0.0260908 -0.00484418 1.77002e-07
-0.00484418 0.0191978 -1.93397e-07
1.77002e-07 -1.93397e-07 0.0126955

0.0330014 -0.00378605 -2.34065e-07
-0.00378605 0.030076 3.33011e-08
-2.34065e-07 3.33011e-08 0.0311286

0.0300197 -0.00452005 -1.30098e-08
-0.00452005 0.0130539 -3.0929e-07
-1.30098e-08 -3.0929e-07 0.0060375

0.0324744 -0.00372773 1.62549e-07
-0.00372773 0.0313083 -1.99456e-07
1.62549e-07 -1.99456e-07 0.0319804

0.0280921 -0.00331149 -2.25614e-07
-0.00331149 0.0320053 1.38295e-08
-2.25614e-07 1.38295e-08 0.0296264

0.0234443 0.00874384 6.367e-08
0.00874384 0.0204834 -3.26451e-07
6.367e-08 -3.26451e-07 0.00602639

0.0182003 -0.00292084 8.67045e-08
-0.00292084 0.0268675 2.22784e-07
8.67045e-08 2.22784e-07 0.0122704

0.0233153 -0.00901949 -1.33878e-07
-0.00901949 0.0201527 -9.31959e-08
-1.33878e-07 -9.31959e-08 0.00588422

0.0170829 0.00640841 2.47644e-09
0.00640841 0.0235668 -6.65466e-08
2.47644e-09 -6.65466e-08 0.0108314

0.0308272 -0.0039602 -1.09676e-07
-0.0039602 0.0301612 3.18471e-07
-1.09676e-07 3.18471e-07 0.0300865

0.0389184 -0.00195896 1.07224e-08
-0.00195896 0.0369413 -5.31304e-08
1.07224e-08 -5.31304e-08 0.0355003

0.045541 0.00150573 2.16148e-07
0.00150573 0.0449514 2.68552e-07
2.16148e-07 2.68552e-07 0.0366198

0.0435652 -0.000711528 -2.9426e-07
-0.000711528 0.0462302 -3.32561e-08
-2.9426e-07 -3.32561e-08 0.0365855

0.0286165 0.00171583 8.83173e-08
0.00171583 0.0355673 -1.6732e-07
8.83173e-08 -1.6732e-07 0.0323905

0.0453363 -0.00144685 -6.20836e-08
-0.00144685 0.0449791 -3.2924e-07
-6.20836e-08 -3.2924e-07 0.0366375

0.0438079 0.000567661 -2.90562e-07
0.000567661 0.0465063 -5.32066e-07
-2.90562e-07 -5.32066e-07 0.0366186

0.0466785 0.000991198 -1.11362e-07
0.000991198 0.0433773 3.77016e-08
-1.11362e-07 3.77016e-08 0.0365937

0.0397508 -0.00163887 -2.66474e-07
-0.00163887 0.0460757 -3.3108e-07
-2.66474e-07 -3.3108e-07 0.0364835

0.0190545 -0.00388732 2.5226e-07
-0.00388732 0.0272316 -1.16282e-07
2.5226e-07 -1.16282e-07 0.0154717

0.0421415 -0.00175041 -1.6364e-07
-0.00175041 0.0367259 -1.79788e-08
-1.6364e-07 -1.79788e-08 0.0360055

0.0359647 -0.00457331 -1.07807e-08
-0.00457331 0.0351512 4.26075e-08
-1.07807e-08 4.26075e-08 0.0349689

0.0397536 -0.00242176 7.62378e-09
-0.00242176 0.0360645 4.78329e-08
7.62378e-09 4.78329e-08 0.0355679

0.0351853 0.00204364 2.51992e-07
0.00204364 0.02855 -1.403e-08
2.51992e-07 -1.403e-08 0.0322328

0.0396928 0.00133787 -3.12156e-07
0.00133787 0.0472264 -5.49169e-09
-3.12156e-07 -5.49169e-09 0.0365493

0.0464969 0.00259399 7.83713e-08
0.00259399 0.0404181 3.66789e-07
7.83713e-08 3.66789e-07 0.0365305

0.0400878 0.00150547 1.42439e-07
0.00150547 0.0366744 6.37123e-08
1.42439e-07 6.37123e-08 0.035616

0.0279157 -0.00192004 2.20194e-07
-0.00192004 0.012525 -3.35483e-07
2.20194e-07 -3.35483e-07 0.0106249

0.0283197 0.0032677 -1.29434e-08
0.0032677 0.0315511 -6.59878e-08
-1.29434e-08 -6.59878e-08 0.0294116

0.0231888 -0.00773617 2.63393e-08
-0.00773617 0.0181804 -2.22236e-07
2.63393e-08 -2.22236e-07 0.0102898

0.0228314 -0.00731591 7.32568e-08
-0.00731591 0.0257694 -5.47941e-08
7.32568e-08 -5.47941e-08 0.0119549

0.0290236 -0.0046471 -2.12891e-08
-0.0046471 0.0191288 3.35042e-07
-2.12891e-08 3.35042e-07 0.0126155

0.0375749 -0.00066068 1.03669e-07
-0.00066068 0.0449117 -3.525e-07
1.03669e-07 -3.525e-07 0.0362945

0.0375726 0.000358144 1.55044e-08
0.000358144 0.0447889 2.35824e-07
1.55044e-08 2.35824e-07 0.0362747

0.042606 -0.00327439 -1.85694e-07
-0.00327439 0.0394507 2.85594e-07
-1.85694e-07 2.85594e-07 0.0362286

0.0429982 -0.00294446 -1.538e-07
-0.00294446 0.0391692 -7.2056e-09
-1.538e-07 -7.2056e-09 0.0362356

0.0425017 0.00350425 -2.92175e-07
0.00350425 0.0399734 -5.27666e-07
-2.92175e-07 -5.27666e-07 0.0362734

0.0443975 0.000416583 4.11121e-07
0.000416583 0.0450806 4.42706e-07
4.11121e-07 4.42706e-07 0.0366367

0.0426093 -0.00274439 4.27408e-08
-0.00274439 0.0395078 -1.74911e-07
4.27408e-08 -1.74911e-07 0.0362902

0.0426031 -0.00251159 1.88007e-07
-0.00251159 0.0442674 -2.52967e-07
1.88007e-07 -2.52967e-07 0.0365643

0.0451182 0.000331162 -4.22603e-07
0.000331162 0.0454673 -7.96414e-07
-4.22603e-07 -7.96414e-07 0.036655

0.0436378 -0.00278302 5.60271e-08
-0.00278302 0.0389172 2.01775e-07
5.60271e-08 2.01775e-07 0.0363307

0.0435124 0.00283864 -1.05232e-07
0.00283864 0.0390697 1.08097e-07
-1.05232e-07 1.08097e-07 0.0363688

0.0451938 -0.000471138 -1.3514e-07
-0.000471138 0.045582 1.65779e-07
-1.3514e-07 1.65779e-07 0.0367037

0.045227 -0.000426384 8.81833e-07
-0.000426384 0.0443626 -1.12315e-06
8.81833e-07 -1.12315e-06 0.036722

0.0427994 0.00163779 2.91692e-07
0.00163779 0.0442496 -1.35989e-07
2.91692e-07 -1.35989e-07 0.0366081

0.041117 0.00361798 1.34022e-08
0.00361798 0.0405167 -1.1184e-07
1.34022e-08 -1.1184e-07 0.0363227

SCALARS pressure float
LOOKUP_TABLE default
-60.0555
19.309
5.80472
21.2908
15.879
5.88869
-58.6785
7.78423
-3.80381
15.1253
-24.4339
7.61838
5.59315
12.2802
23.3372
5.54005
18.5214
13.2085
-0.691507
6.75808
-0.903707
33.1307
5.80226
5.79825
6.60333
14.904
-38.3875
6.67312
-15.2421
30.6235
5.1774
-15.6569
-42.0588
27.3246
20.7778
27.3575
31.8817
19.8078
4.8607
-42.6021
-17.4073
31.9025
31.9906
5.9946
-21.8058
-15.9756
-1.05116
-3.40445
6.54621
-16.2178
-18.9188
-15.3454
20.7552
-15.3727
20.3085
-33.1501
21.1282
-15.4598
21.1381
7.04638
21.7653
16.119
-45.5643
12.7902
16.3623
10.906
21.5746
13.8293
5.77491
21.8177
20.8113
20.7819
-17.6909
11.6014
3.97507
-31.6117
14.3568
10.9971
14.1473
-8.71915
-28.9456
14.9774
20.1636
-22.0384
-23.4297
-28.0932
7.0992
9.63322
-22.2166
37.7375
-15.5086
38.44
18.3044
10.7625
-15.1661
-15.8726
-30.2222
14.7542
14.3658
4.59979
-10.7655
-21.9396
-25.1022
16.2139
14.1014
14.9623
18.698
3.77588
-24.559
26.513
7.21905
-21.4097
-24.6128
14.8391
15.0787
-16.1453
20.1636
-29.1141
20.6272
-16.729
-2.90351
23.8334
21.7278
16.0334
26.6796
22.6316
21.7844
15.7092
-29.7818
-16.0986
24.0911
21.6181
20.9897
22.0664
-22.014
23.5855
-33.8387
5.46446
21.7546
23.6288
-21.9369
6.67735
-5.96571
15.0846
-30.4084
15.6248
7.83443
2.40877
5.17889
-9.39368
-0.456791
22.6422
-15.4543
5.29204
15.2052
21.5613
11.509
-21.1133
-21.2638
10.7916
-2.84174
-15.1973
-21.2212
-15.1651
-20.9865
15.2804
-20.6358
-21.2016
-15.2076
-21.0638
19.0041
-15.9406
-14.8242
12.0652
-14.4842
18.8033
19.0532
7.47393
18.0477
11.7742
-16.2488
15.2889
14.9616
-21.5285
10.4273
-14.2211
16.0491
14.5962
17.0818
14.8358
10.3446
-26.977
-16.0819
-15.9579
21.9077
14.527
14.6259
20.923
22.4876
9.50356
21.7345
-0.383439
-8.17
20.7792
-17.8387
19.946
10.3651
-21.5176
15.7216
22.5268
14.7314
9.3945
14.1911
21.056
-7.83199
8.82848
-7.90782
14.6489
26.9276
26.5813
27.9604
26.3885
26.7242
26.2909
13.827
23.4298
24.0289
23.9732
23.3995
21.1924
21.8569
-8.26208
15.9344
28.1911
-3.18783
23.5755
23.2048
27.8344
-8.49282
28.0964
15.3453
-7.5808
17.4925
-8.25705
20.2276
29.6127
-7.48518
-8.10001
-29.5928
-18.1892
19.5277
-31.9865
5.73525
-7.7932
-1.18838
28.2492
26.6402
30.4241
26.7609
-34.8022
-8.1789
28.3374
8.07395
-8.29444
26.4459
-6.29449
30.469
-7.95333
27.047
14.5665
14.7883
23.8446
10.0483
18.0208
8.11806
-29.8611
-24.5541
16.8068
1.76069
8.18058
-13.6084
17.4361
11.7006
-8.10077
9.45297
-10.8228
7.5179
-10.754
-8.48402
33.2614
19.1514
25.0878
25.3121
13.8301
-10.4039
26.4284
14.6855
-1.6581
-10.2732
-12.5637
17.5065
-7.48445
17.5745
-12.0407
-21.3513
-10.6076
-34.6825
15.5631
-7.7622
34.4392
-11.5774
16.8721
-8.40803
15.9732
-12.7578
4.28994
-51.1209
8.52285
-7.74587
21.3337
-8.15141
-0.121895
10.7159
21.125
-12.0601
-10.2001
-6.06751
14.3186
-10.1794
6.88877
6.38681
16.3053
-10.4189
-6.32965
-1.70151
-5.65971
-11.0779
-5.84394
15.306
7.8088
-5.5553
-8.95977
7.80615
7.69498
-10.674
16.3092
-27.2158
2.2939
-28.4821
-0.956776
-8.88257
-8.10081
-11.7836
-10.9473
-9.88549
-7.78045
-7.90382
16.6384
24.7768
12.1171
-0.290736
-0.824218
-5.67387
7.30593
-6.31999
-6.31728
24.9226
-5.72929
14.1182
-15.908
24.3246
5.96915
-0.3903
-5.64316
16.275
2.47789
0.199933
2.44888
0.456819
-0.739913
-9.92969
-0.0947083
2.11405
15.069
-1.28738
-1.40626
-0.997931
-0.387734
1.96608
8.05151
-1.19268
8.07895
5.5842
-0.43478
7.03609
5.49124
-3.87574
16.4771
-1.90269
23.0612
-21.9742
15.0447
15.6828
2.04045
-1.99681
12.5437
-26.5083
5.79326
-1.6572
-50.4852
30.4959
30.6326
5.8259
-1.14346
-1.04609
-0.848775
33.4151
33.2898
13.0956
6.08262
6.66324
-28.9646
-1.27851
16.5338
-3.18204
-4.3475
-0.0160734
-25.273
14.304
-1.2793
2.8626
2.69399
-2.72254
-0.0484819
-3.2088
-4.03294
-37.9844
-33.6844
-0.127189
1.87522
-0.533341
-3.74354
-1.93588
-1.87705
-0.923566
-21.9081
17.2497
-0.768395
12.5659
14.1844
-26.7651
6.2871
7.13778
18.4778
36.425
36.4574
22.6385
-1.75491
2.60047
-20.9304
36.1237
32.7565
32.8235
-24.8105
21.7743
30.5214
2.59997
15.724
10.3722
17.165
17.7266
12.5061
5.6822
-25.3998
4.2608
10.4099
16.2444
-31.7116
28.3082
-52.7124
18.6855
10.2996
-10.6268
7.41808
5.45782
24.4739
9.41188
24.4069
4.10591
12.4003
30.6388
29.4646
-22.9909
17.4362
-70.2337
-74.3803
-67.1777
11.6489
-31.2619
-63.611
-3.80283
-69.9392
16.4628
16.4065
-73.7555
5.21322
-39.7315
-70.7397
-37.7575
-71.8762
-39.4531
21.1357
-23.961
-29.0457
-70.6236
4.83212
15.758
-36.1913
6.05433
-63.6186
9.83671
3.88269
-67.9022
-37.6251
-66.4117
-23.7571
5.03005
20.5253
35.3684
36.724
11.8128
36.8478
36.9011
36.4895
36.4022
-24.4796
28.247
20.6691
21.9798
11.5355
36.0581
36.0896
18.1195
-23.9419
3.24749
-30.5281
-56.5988
-50.4756
36.1414
35.8222
35.3789
35.4491
36.1574
35.5962
33.1082
37.3686
35.3975
36.0043
35.6366
34.1941
34.3306
35.8542
35.308
