# vtk DataFile Version 3.0
vtk output at time 210
ASCII
DATASET UNSTRUCTURED_GRID
POINTS 626 float
-3.68058e-05 0.000978749 0 3.68058e-05 0.000978749 0 -0.000829194 0.00052125 0 
-0.0008235 0.0005 0 -0.000866 0.0004575 0 -0.000866 -0.0004575 0 
-0.0008235 -0.0005 0 -0.000829194 -0.00052125 0 -3.68058e-05 -0.000978749 0 
3.68058e-05 -0.000978749 0 0.000829194 -0.00052125 0 0.000866 -0.0004575 0 
0.000866 0.0004575 0 0.000829194 0.00052125 0 8.5e-05 0 0 
-3.68058e-05 0.000978749 -0.001 3.68058e-05 0.000978749 -0.001 -0.000829194 0.00052125 -0.001 
-0.0008235 0.0005 -0.001 -0.000866 0.0004575 -0.001 -0.000866 -0.0004575 -0.001 
-0.0008235 -0.0005 -0.001 -0.000829194 -0.00052125 -0.001 -3.68058e-05 -0.000978749 -0.001 
3.68058e-05 -0.000978749 -0.001 0.000829194 -0.00052125 -0.001 0.000866 -0.0004575 -0.001 
0.000866 0.0004575 -0.001 0.000829194 0.00052125 -0.001 8.5e-05 0 -0.001 
8.46223e-17 0.0009575 0 -0.000715996 0.000586607 0 -0.000602797 0.000651965 0 
-0.000489599 0.000717321 0 -0.000376401 0.000782678 0 -0.000263202 0.000848036 0 
-0.000150004 0.000913393 0 -0.000835948 0.000469948 0 -0.000866 -0.000326786 0 
-0.000866 -0.000196071 0 -0.000866 -6.53571e-05 0 -0.000866 6.53571e-05 0 
-0.000866 0.000196071 0 -0.000866 0.000326786 0 -0.000835948 -0.000469948 0 
-0.000150004 -0.000913393 0 -0.000263202 -0.000848036 0 -0.000376401 -0.000782678 0 
-0.000489599 -0.000717321 0 -0.000602797 -0.000651965 0 -0.000715996 -0.000586607 0 
8.47648e-17 -0.0009575 0 0.000715996 -0.000586607 0 0.000602797 -0.000651965 0 
0.000489599 -0.000717321 0 0.000376401 -0.000782678 0 0.000263202 -0.000848036 0 
0.000150004 -0.000913393 0 0.000829194 -0.00047875 0 0.000866 0.000326786 0 
0.000866 0.000196071 0 0.000866 6.53571e-05 0 0.000866 -6.53571e-05 0 
0.000866 -0.000196071 0 0.000866 -0.000326786 0 0.000829194 0.00047875 0 
0.000150004 0.000913393 0 0.000263202 0.000848036 0 0.000376401 0.000782678 0 
0.000489599 0.000717321 0 0.000602797 0.000651965 0 0.000715996 0.000586607 0 
5.29966e-05 6.64557e-05 0 -1.89143e-05 8.28689e-05 0 -7.65824e-05 3.68801e-05 0 
-7.65824e-05 -3.68801e-05 0 -1.89143e-05 -8.28689e-05 0 5.29966e-05 -6.64557e-05 0 
8.46223e-17 0.0009575 -0.001 -0.000715996 0.000586607 -0.001 -0.000602797 0.000651965 -0.001 
-0.000489599 0.000717321 -0.001 -0.000376401 0.000782678 -0.001 -0.000263202 0.000848036 -0.001 
-0.000150004 0.000913393 -0.001 -0.000835948 0.000469948 -0.001 -0.000866 -0.000326786 -0.001 
-0.000866 -0.000196071 -0.001 -0.000866 -6.53571e-05 -0.001 -0.000866 6.53571e-05 -0.001 
-0.000866 0.000196071 -0.001 -0.000866 0.000326786 -0.001 -0.000835948 -0.000469948 -0.001 
-0.000150004 -0.000913393 -0.001 -0.000263202 -0.000848036 -0.001 -0.000376401 -0.000782678 -0.001 
-0.000489599 -0.000717321 -0.001 -0.000602797 -0.000651965 -0.001 -0.000715996 -0.000586607 -0.001 
8.47648e-17 -0.0009575 -0.001 0.000715996 -0.000586607 -0.001 0.000602797 -0.000651965 -0.001 
0.000489599 -0.000717321 -0.001 0.000376401 -0.000782678 -0.001 0.000263202 -0.000848036 -0.001 
0.000150004 -0.000913393 -0.001 0.000829194 -0.00047875 -0.001 0.000866 0.000326786 -0.001 
0.000866 0.000196071 -0.001 0.000866 6.53571e-05 -0.001 0.000866 -6.53571e-05 -0.001 
0.000866 -0.000196071 -0.001 0.000866 -0.000326786 -0.001 0.000829194 0.00047875 -0.001 
0.000150004 0.000913393 -0.001 0.000263202 0.000848036 -0.001 0.000376401 0.000782678 -0.001 
0.000489599 0.000717321 -0.001 0.000602797 0.000651965 -0.001 0.000715996 0.000586607 -0.001 
5.29966e-05 6.64557e-05 -0.001 -1.89143e-05 8.28689e-05 -0.001 -7.65824e-05 3.68801e-05 -0.001 
-7.65824e-05 -3.68801e-05 -0.001 -1.89143e-05 -8.28689e-05 -0.001 5.29966e-05 -6.64557e-05 -0.001 
0.000131234 6.38474e-05 0 0.00012964 -6.2443e-05 0 3.13827e-05 0.0001394 0 
3.12554e-05 -0.000136939 0 -0.000140461 8.25467e-19 0 -8.90565e-05 -0.000102707 0 
-9.04142e-05 0.000102872 0 -0.000765769 -0.00025965 0 -0.000756873 0.000262774 0 
-0.00015609 0.000787505 0 -0.000155807 -0.00079355 0 0.000605069 0.000528035 0 
0.000608694 -0.00052497 0 0.000744069 0.000116929 0 -0.000494418 0.000596218 0 
-0.000483866 -0.000584648 0 0.000269496 0.000702219 0 0.000263201 -0.000717324 0 
0.000754429 -0.000127825 0 -0.000748858 5.84659e-07 0 -0.000747838 0.000373886 0 
-0.0006542 0.000324842 0 -0.000645137 0.000210123 0 -0.000550884 0.000274171 0 
-0.000538857 0.000163195 0 -0.00045062 0.000224461 0 -0.000438393 0.000123907 0 
-0.000354088 0.000181668 0 -0.000363908 0.000282171 0 -0.000270361 0.000239477 0 
-0.000279138 0.000337653 0 -0.000188888 0.000294791 0 -0.000196448 0.000393271 0 
-0.000104767 0.000348259 0 -0.000113332 0.000449012 0 -2.01066e-05 0.000403223 0 
-2.89189e-05 0.000507105 0 6.9524e-05 0.000461596 0 -0.000213644 0.000490203 0 
7.33757e-05 0.000357726 0 0.000163331 0.00041299 0 0.000163359 0.000313022 0 
0.000248077 0.000366368 0 0.000250914 0.000265758 0 0.000335709 0.000322266 0 
0.000340555 0.000218148 0 0.000427299 0.000276717 0 0.000431508 0.000173093 0 
0.000328731 0.000425633 0 0.00034586 0.000114823 0 0.000435362 7.05241e-05 0 
0.000350892 1.5455e-05 0 0.000441547 -3.11896e-05 0 0.000353547 -8.47783e-05 0 
0.000445767 -0.000132964 0 0.000356135 -0.000186358 0 0.000449094 -0.000234674 0 
0.000359978 -0.000287876 0 0.00026856 -0.000240545 0 0.000271895 -0.000341045 0 
0.000181792 -0.00029305 0 0.00018533 -0.000392851 0 9.75701e-05 -0.00034483 0 
9.98764e-05 -0.000444884 0 8.75116e-06 -0.000396343 0 1.20916e-05 -0.000500496 0 
-7.83929e-05 -0.000449843 0 -8.1471e-05 -0.000347249 0 -0.000171566 -0.000403733 0 
-0.000169889 -0.000298891 0 -0.000259867 -0.000354132 0 -0.000257696 -0.000249137 0 
-0.00034313 -0.000299896 0 -0.000344514 -0.000199127 0 -0.000434309 -0.000250039 0 
-0.000169832 -0.000505815 0 -0.000435227 -0.000146227 0 0.000280331 -0.000442424 0 
-0.000340889 8.76793e-05 0 -0.000515252 4.06198e-05 0 6.50491e-05 0.000568253 0 
0.00053278 1.74743e-05 0 0.000522071 0.000229831 0 -0.00037162 0.000391659 0 
-0.000255272 -0.000150439 0 -0.000442893 -0.000350705 0 0.000450067 -0.000332559 0 
0.000545175 -0.000276306 0 -0.000527797 -0.000197598 0 0.000105306 -0.000551033 0 
1.45836e-05 -0.000609147 0 0.00017145 0.000214453 0 0.000515525 0.000341711 0 
0.000636086 0.000290368 0 -0.000558657 0.000404468 0 -4.01232e-05 0.000616718 0 
6.60192e-05 0.000696422 0 -0.000101806 0.0002546 0 0.000271142 -3.88908e-05 0 
0.000179455 -0.00018534 0 -8.79553e-05 -0.000254307 0 -0.000749267 -0.000373451 0 
-0.000655941 -0.000323397 0 0.000709746 0.000466718 0 0.000698426 -0.000473086 0 
-5.25801e-05 -0.00084886 0 -4.93005e-05 0.000848038 0 0.000617396 -0.000413362 0 
0.000702056 -0.000369817 0 0.000131459 -0.000679171 0 2.48171e-05 -0.000715924 0 
-0.000664217 -0.00042729 0 -0.000528828 -8.80444e-05 0 -0.000611101 -0.000136672 0 
-0.000426972 -4.45841e-05 0 0.000800669 0.000378216 0 0.000821144 -0.000415062 0 
7.2799e-05 0.00088254 0 6.81831e-05 -0.00087503 0 0.000104963 -0.000788946 0 
-7.40696e-05 -0.000660054 0 0.000126061 0.000809943 0 0.000764361 0.000295682 0 
0.000166862 0.000630623 0 0.000516462 -0.00046707 0 -0.000563585 -0.000389606 0 
-0.000622598 -1.40238e-05 0 0.000629891 0.000171529 0 2.5614e-06 -0.000299794 0 
8.6901e-05 -0.00024329 0 0.000272045 -0.000136982 0 -0.00075148 0.000138321 0 
0.000209366 -0.000599589 0 0.000324913 -0.000630055 0 0.000614044 0.00041245 0 
0.00049651 -0.000573327 0 0.000394822 -0.000507321 0 -0.000173714 -0.000206698 0 
0.000264897 5.63722e-05 0 0.000247997 0.000152811 0 -4.63327e-05 -0.000920208 0 
9.18688e-05 0.000258626 0 -5.54111e-06 0.000290558 0 -0.000184219 0.000201484 0 
-0.000263559 0.000142267 0 -0.000256427 5.13624e-05 0 -0.000336894 -2.06179e-06 0 
-0.000228499 -4.2388e-05 0 -0.00017589 0.000106626 0 -0.000769947 -0.000133367 0 
0.000767591 -0.000500293 0 -5.05874e-05 0.000737978 0 0.000754456 -3.51771e-06 0 
0.00064691 -6.15298e-05 0 0.000630483 -0.00018134 0 0.000749187 -0.000265543 0 
-0.000760805 -0.000462521 0 0.000638155 6.09315e-05 0 -4.46661e-05 0.000922995 0 
-2.37945e-05 0.000207237 0 0.000776979 0.000500181 0 -0.000605691 0.000527596 0 
-0.000377914 -0.000653727 0 -0.000372325 -0.000526022 0 -0.000275829 -0.000589621 0 
-0.000254285 -0.000710579 0 -0.000379307 0.000656222 0 -0.000379818 0.00052718 0 
-0.000266817 0.000721555 0 -0.000150544 0.000668174 0 0.000381963 0.00065079 0 
0.000493113 0.000590432 0 0.000505439 0.000463708 0 -0.000269094 0.000596608 0 
0.000385815 0.000532045 0 0.000283599 0.0005899 0 -0.000176405 -0.000108505 0 
-0.000278769 -0.000475415 0 0.000185395 2.33014e-06 0 0.000186773 0.000517571 0 
0.000540032 -8.68444e-05 0 -0.000600694 -0.000514877 0 -0.00063703 8.98033e-05 0 
-0.000459677 0.000335729 0 -0.000338836 -0.000100751 0 -0.000457327 0.000432721 0 
-8.72007e-06 -0.000210238 0 0.000156073 0.000129496 0 -7.70692e-05 -0.000555049 0 
0.00036091 -0.000389728 0 0.000531628 0.000120564 0 -0.000285451 0.000435562 0 
0.000192719 -0.000494604 0 0.00041642 0.00039368 0 -0.000135943 0.000554637 0 
-0.000170665 -0.000610079 0 -0.000666304 0.000434981 0 -0.000758736 0.000479231 0 
-0.000470189 -0.000458901 0 0.000203433 -8.59809e-05 0 0.000101846 0.000170114 0 
-0.00035513 -0.00040726 0 0.000100184 -0.000165831 0 2.96286e-05 0.00081537 0 
0.000720946 0.000381836 0 -0.000539809 -0.000292001 0 0.00052211 -0.000182426 0 
-6.41339e-05 -0.000753908 0 0.000638039 -0.000299861 0 -0.000605136 -0.000230182 0 
-3.41638e-05 -0.000145561 0 -0.000104037 0.000172396 0 -0.000808575 -0.00042774 0 
-0.000807207 -0.000465052 0 -0.00080817 0.000429771 0 -0.000806589 0.000469738 0 
-9.50634e-05 -0.000178909 0 0.000247777 0.000445058 0 1.48293e-05 -0.000814201 0 
-4.11555e-05 0.000140955 0 0.000276104 -0.000536845 0 0.000765969 -0.000436638 0 
0.000780871 -0.000362769 0 0.000424176 -0.000642018 0 0.00053413 -0.000368009 0 
-0.000416333 4.17911e-05 0 -0.000133891 -6.23822e-05 0 4.2574e-05 0.000206312 0 
0.000141163 -0.000121542 0 0.000707423 0.000212137 0 0.000172327 0.000723882 0 
7.72652e-06 -0.00090254 0 -0.000134435 5.66935e-05 0 -0.000188826 3.70894e-05 0 
0.000197119 8.09714e-05 0 1.27801e-05 0.000917296 0 0.000800767 0.00044758 0 
-0.000686682 0.000507104 0 9.35831e-05 0.000110457 0 -0.000696793 -0.000509595 0 
-0.00068446 -8.52012e-05 0 -0.000691033 -0.000201242 0 5.24052e-05 -0.000189075 0 
-0.000151818 -0.000701092 0 -0.000296988 0.000518087 0 9.31023e-05 -0.000108117 0 
0.00044261 -0.000416726 0 0.000197044 -0.000784423 0 -0.000516861 0.000504567 0 
0.000298997 0.000502377 0 0.000131234 6.38474e-05 -0.001 0.00012964 -6.2443e-05 -0.001 
3.13827e-05 0.0001394 -0.001 3.12554e-05 -0.000136939 -0.001 -0.000140461 8.25467e-19 -0.001 
-8.90565e-05 -0.000102707 -0.001 -9.04142e-05 0.000102872 -0.001 -0.000765769 -0.00025965 -0.001 
-0.000756873 0.000262774 -0.001 -0.00015609 0.000787505 -0.001 -0.000155807 -0.00079355 -0.001 
0.000605069 0.000528035 -0.001 0.000608694 -0.00052497 -0.001 0.000744069 0.000116929 -0.001 
-0.000494418 0.000596218 -0.001 -0.000483866 -0.000584648 -0.001 0.000269496 0.000702219 -0.001 
0.000263201 -0.000717324 -0.001 0.000754429 -0.000127825 -0.001 -0.000748858 5.84659e-07 -0.001 
-0.000747838 0.000373886 -0.001 -0.0006542 0.000324842 -0.001 -0.000645137 0.000210123 -0.001 
-0.000550884 0.000274171 -0.001 -0.000538857 0.000163195 -0.001 -0.00045062 0.000224461 -0.001 
-0.000438393 0.000123907 -0.001 -0.000354088 0.000181668 -0.001 -0.000363908 0.000282171 -0.001 
-0.000270361 0.000239477 -0.001 -0.000279138 0.000337653 -0.001 -0.000188888 0.000294791 -0.001 
-0.000196448 0.000393271 -0.001 -0.000104767 0.000348259 -0.001 -0.000113332 0.000449012 -0.001 
-2.01066e-05 0.000403223 -0.001 -2.89189e-05 0.000507105 -0.001 6.9524e-05 0.000461596 -0.001 
-0.000213644 0.000490203 -0.001 7.33757e-05 0.000357726 -0.001 0.000163331 0.00041299 -0.001 
0.000163359 0.000313022 -0.001 0.000248077 0.000366368 -0.001 0.000250914 0.000265758 -0.001 
0.000335709 0.000322266 -0.001 0.000340555 0.000218148 -0.001 0.000427299 0.000276717 -0.001 
0.000431508 0.000173093 -0.001 0.000328731 0.000425633 -0.001 0.00034586 0.000114823 -0.001 
0.000435362 7.05241e-05 -0.001 0.000350892 1.5455e-05 -0.001 0.000441547 -3.11896e-05 -0.001 
0.000353547 -8.47783e-05 -0.001 0.000445767 -0.000132964 -0.001 0.000356135 -0.000186358 -0.001 
0.000449094 -0.000234674 -0.001 0.000359978 -0.000287876 -0.001 0.00026856 -0.000240545 -0.001 
0.000271895 -0.000341045 -0.001 0.000181792 -0.00029305 -0.001 0.00018533 -0.000392851 -0.001 
9.75701e-05 -0.00034483 -0.001 9.98764e-05 -0.000444884 -0.001 8.75116e-06 -0.000396343 -0.001 
1.20916e-05 -0.000500496 -0.001 -7.83929e-05 -0.000449843 -0.001 -8.1471e-05 -0.000347249 -0.001 
-0.000171566 -0.000403733 -0.001 -0.000169889 -0.000298891 -0.001 -0.000259867 -0.000354132 -0.001 
-0.000257696 -0.000249137 -0.001 -0.00034313 -0.000299896 -0.001 -0.000344514 -0.000199127 -0.001 
-0.000434309 -0.000250039 -0.001 -0.000169832 -0.000505815 -0.001 -0.000435227 -0.000146227 -0.001 
0.000280331 -0.000442424 -0.001 -0.000340889 8.76793e-05 -0.001 -0.000515252 4.06198e-05 -0.001 
6.50491e-05 0.000568253 -0.001 0.00053278 1.74743e-05 -0.001 0.000522071 0.000229831 -0.001 
-0.00037162 0.000391659 -0.001 -0.000255272 -0.000150439 -0.001 -0.000442893 -0.000350705 -0.001 
0.000450067 -0.000332559 -0.001 0.000545175 -0.000276306 -0.001 -0.000527797 -0.000197598 -0.001 
0.000105306 -0.000551033 -0.001 1.45836e-05 -0.000609147 -0.001 0.00017145 0.000214453 -0.001 
0.000515525 0.000341711 -0.001 0.000636086 0.000290368 -0.001 -0.000558657 0.000404468 -0.001 
-4.01232e-05 0.000616718 -0.001 6.60192e-05 0.000696422 -0.001 -0.000101806 0.0002546 -0.001 
0.000271142 -3.88908e-05 -0.001 0.000179455 -0.00018534 -0.001 -8.79553e-05 -0.000254307 -0.001 
-0.000749267 -0.000373451 -0.001 -0.000655941 -0.000323397 -0.001 0.000709746 0.000466718 -0.001 
0.000698426 -0.000473086 -0.001 -5.25801e-05 -0.00084886 -0.001 -4.93005e-05 0.000848038 -0.001 
0.000617396 -0.000413362 -0.001 0.000702056 -0.000369817 -0.001 0.000131459 -0.000679171 -0.001 
2.48171e-05 -0.000715924 -0.001 -0.000664217 -0.00042729 -0.001 -0.000528828 -8.80444e-05 -0.001 
-0.000611101 -0.000136672 -0.001 -0.000426972 -4.45841e-05 -0.001 0.000800669 0.000378216 -0.001 
0.000821144 -0.000415062 -0.001 7.2799e-05 0.00088254 -0.001 6.81831e-05 -0.00087503 -0.001 
0.000104963 -0.000788946 -0.001 -7.40696e-05 -0.000660054 -0.001 0.000126061 0.000809943 -0.001 
0.000764361 0.000295682 -0.001 0.000166862 0.000630623 -0.001 0.000516462 -0.00046707 -0.001 
-0.000563585 -0.000389606 -0.001 -0.000622598 -1.40238e-05 -0.001 0.000629891 0.000171529 -0.001 
2.5614e-06 -0.000299794 -0.001 8.6901e-05 -0.00024329 -0.001 0.000272045 -0.000136982 -0.001 
-0.00075148 0.000138321 -0.001 0.000209366 -0.000599589 -0.001 0.000324913 -0.000630055 -0.001 
0.000614044 0.00041245 -0.001 0.00049651 -0.000573327 -0.001 0.000394822 -0.000507321 -0.001 
-0.000173714 -0.000206698 -0.001 0.000264897 5.63722e-05 -0.001 0.000247997 0.000152811 -0.001 
-4.63327e-05 -0.000920208 -0.001 9.18688e-05 0.000258626 -0.001 -5.54111e-06 0.000290558 -0.001 
-0.000184219 0.000201484 -0.001 -0.000263559 0.000142267 -0.001 -0.000256427 5.13624e-05 -0.001 
-0.000336894 -2.06179e-06 -0.001 -0.000228499 -4.2388e-05 -0.001 -0.00017589 0.000106626 -0.001 
-0.000769947 -0.000133367 -0.001 0.000767591 -0.000500293 -0.001 -5.05874e-05 0.000737978 -0.001 
0.000754456 -3.51771e-06 -0.001 0.00064691 -6.15298e-05 -0.001 0.000630483 -0.00018134 -0.001 
0.000749187 -0.000265543 -0.001 -0.000760805 -0.000462521 -0.001 0.000638155 6.09315e-05 -0.001 
-4.46661e-05 0.000922995 -0.001 -2.37945e-05 0.000207237 -0.001 0.000776979 0.000500181 -0.001 
-0.000605691 0.000527596 -0.001 -0.000377914 -0.000653727 -0.001 -0.000372325 -0.000526022 -0.001 
-0.000275829 -0.000589621 -0.001 -0.000254285 -0.000710579 -0.001 -0.000379307 0.000656222 -0.001 
-0.000379818 0.00052718 -0.001 -0.000266817 0.000721555 -0.001 -0.000150544 0.000668174 -0.001 
0.000381963 0.00065079 -0.001 0.000493113 0.000590432 -0.001 0.000505439 0.000463708 -0.001 
-0.000269094 0.000596608 -0.001 0.000385815 0.000532045 -0.001 0.000283599 0.0005899 -0.001 
-0.000176405 -0.000108505 -0.001 -0.000278769 -0.000475415 -0.001 0.000185395 2.33014e-06 -0.001 
0.000186773 0.000517571 -0.001 0.000540032 -8.68444e-05 -0.001 -0.000600694 -0.000514877 -0.001 
-0.00063703 8.98033e-05 -0.001 -0.000459677 0.000335729 -0.001 -0.000338836 -0.000100751 -0.001 
-0.000457327 0.000432721 -0.001 -8.72007e-06 -0.000210238 -0.001 0.000156073 0.000129496 -0.001 
-7.70692e-05 -0.000555049 -0.001 0.00036091 -0.000389728 -0.001 0.000531628 0.000120564 -0.001 
-0.000285451 0.000435562 -0.001 0.000192719 -0.000494604 -0.001 0.00041642 0.00039368 -0.001 
-0.000135943 0.000554637 -0.001 -0.000170665 -0.000610079 -0.001 -0.000666304 0.000434981 -0.001 
-0.000758736 0.000479231 -0.001 -0.000470189 -0.000458901 -0.001 0.000203433 -8.59809e-05 -0.001 
0.000101846 0.000170114 -0.001 -0.00035513 -0.00040726 -0.001 0.000100184 -0.000165831 -0.001 
2.96286e-05 0.00081537 -0.001 0.000720946 0.000381836 -0.001 -0.000539809 -0.000292001 -0.001 
0.00052211 -0.000182426 -0.001 -6.41339e-05 -0.000753908 -0.001 0.000638039 -0.000299861 -0.001 
-0.000605136 -0.000230182 -0.001 -3.41638e-05 -0.000145561 -0.001 -0.000104037 0.000172396 -0.001 
-0.000808575 -0.00042774 -0.001 -0.000807207 -0.000465052 -0.001 -0.00080817 0.000429771 -0.001 
-0.000806589 0.000469738 -0.001 -9.50634e-05 -0.000178909 -0.001 0.000247777 0.000445058 -0.001 
1.48293e-05 -0.000814201 -0.001 -4.11555e-05 0.000140955 -0.001 0.000276104 -0.000536845 -0.001 
0.000765969 -0.000436638 -0.001 0.000780871 -0.000362769 -0.001 0.000424176 -0.000642018 -0.001 
0.00053413 -0.000368009 -0.001 -0.000416333 4.17911e-05 -0.001 -0.000133891 -6.23822e-05 -0.001 
4.2574e-05 0.000206312 -0.001 0.000141163 -0.000121542 -0.001 0.000707423 0.000212137 -0.001 
0.000172327 0.000723882 -0.001 7.72652e-06 -0.00090254 -0.001 -0.000134435 5.66935e-05 -0.001 
-0.000188826 3.70894e-05 -0.001 0.000197119 8.09714e-05 -0.001 1.27801e-05 0.000917296 -0.001 
0.000800767 0.00044758 -0.001 -0.000686682 0.000507104 -0.001 9.35831e-05 0.000110457 -0.001 
-0.000696793 -0.000509595 -0.001 -0.00068446 -8.52012e-05 -0.001 -0.000691033 -0.000201242 -0.001 
5.24052e-05 -0.000189075 -0.001 -0.000151818 -0.000701092 -0.001 -0.000296988 0.000518087 -0.001 
9.31023e-05 -0.000108117 -0.001 0.00044261 -0.000416726 -0.001 0.000197044 -0.000784423 -0.001 
-0.000516861 0.000504567 -0.001 0.000298997 0.000502377 -0.001 

CELLS 563 3941
6 14 304 127 29 554 377 
6 143 259 55 393 509 103 
6 300 319 174 550 569 424 
6 259 349 55 509 599 103 
6 50 365 307 98 615 557 
6 299 320 164 549 570 414 
6 126 304 14 376 554 29 
6 298 319 300 548 569 550 
6 205 240 238 455 490 488 
6 257 308 145 507 558 395 
6 130 352 273 380 602 523 
6 295 320 299 545 570 549 
6 324 327 289 574 577 539 
6 235 258 143 485 508 393 
6 50 307 49 98 557 97 
6 207 283 279 457 533 529 
6 143 373 235 393 623 485 
6 145 308 252 395 558 502 
6 194 303 196 444 553 446 
6 279 306 207 529 556 457 
6 206 305 163 456 555 413 
6 51 357 9 99 607 24 
6 238 252 205 488 502 455 
6 293 317 209 543 567 459 
6 207 316 283 457 566 533 
6 142 301 249 392 551 499 
6 273 359 130 523 609 380 
6 211 327 324 461 577 574 
6 169 265 217 419 515 467 
6 7 365 50 22 615 98 
6 283 316 253 533 566 503 
6 159 268 223 409 518 473 
6 274 337 132 524 587 382 
6 232 361 329 482 611 579 
6 231 266 45 481 516 93 
6 229 362 330 479 612 580 
6 9 244 57 24 494 105 
6 230 276 52 480 526 100 
6 209 311 293 459 561 543 
6 131 342 302 381 592 552 
6 270 271 204 520 521 454 
6 66 243 1 114 493 16 
6 59 241 12 107 491 27 
6 280 306 279 530 556 529 
6 269 337 274 519 587 524 
6 179 256 224 429 506 474 
6 163 305 166 413 555 416 
6 201 303 194 451 553 444 
6 280 332 306 530 582 556 
6 186 255 225 436 505 475 
6 210 310 273 460 560 523 
6 153 270 204 403 520 454 
6 136 231 45 386 481 93 
6 171 265 169 421 515 419 
6 138 230 52 388 480 100 
6 225 354 325 475 604 575 
6 36 284 232 84 534 482 
6 161 268 159 411 518 409 
6 71 286 229 119 536 479 
6 290 303 201 540 553 451 
6 139 355 60 389 605 108 
6 60 355 248 108 605 498 
6 273 352 302 523 602 552 
6 235 373 245 485 623 495 
6 67 356 247 115 606 497 
6 221 295 277 471 545 527 
6 142 356 67 392 606 115 
6 139 283 253 389 533 503 
6 203 315 262 453 565 512 
6 41 257 145 89 507 395 
6 36 232 135 84 482 385 
6 71 229 137 119 479 387 
6 254 255 188 504 505 438 
6 233 350 334 483 600 584 
6 262 346 203 512 596 453 
6 304 325 127 554 575 377 
6 222 329 247 472 579 497 
6 218 298 260 468 548 510 
6 290 321 291 540 571 541 
6 272 310 240 522 560 490 
6 269 274 270 519 524 520 
6 244 245 57 494 495 105 
6 49 307 141 97 557 391 
6 225 325 256 475 575 506 
6 273 310 272 523 560 522 
6 312 368 255 562 618 505 
6 249 305 206 499 555 456 
6 228 331 251 478 581 501 
6 302 342 263 552 592 513 
6 338 339 44 588 589 92 
6 190 254 188 440 504 438 
6 37 341 340 85 591 590 
6 138 233 230 388 483 480 
6 228 335 331 478 585 581 
6 181 256 179 431 506 429 
6 195 263 226 445 513 476 
6 268 285 223 518 535 473 
6 290 291 288 540 541 538 
6 219 330 248 469 580 498 
6 201 321 290 451 571 540 
6 240 310 202 490 560 452 
6 188 255 186 438 505 436 
6 270 274 271 520 524 521 
6 262 349 259 512 599 509 
6 141 324 289 391 574 539 
6 296 301 142 546 551 392 
6 247 356 222 497 606 472 
6 239 252 238 489 502 488 
6 254 312 255 504 562 505 
6 54 261 53 102 511 101 
6 289 327 303 539 577 553 
6 268 353 285 518 603 535 
6 273 302 210 523 552 460 
6 292 299 293 542 549 543 
6 278 283 139 528 533 389 
6 175 265 171 425 515 421 
6 227 338 38 477 588 86 
6 264 360 265 514 610 515 
6 43 340 146 91 590 396 
6 165 268 161 415 518 411 
6 205 351 240 455 601 490 
6 64 281 63 112 531 111 
6 288 291 47 538 541 95 
6 135 295 294 385 545 544 
6 42 257 41 90 507 89 
6 245 373 57 495 623 105 
6 31 363 323 79 613 573 
6 292 293 140 542 543 390 
6 267 353 268 517 603 518 
6 155 270 153 405 520 403 
6 244 344 245 494 594 495 
6 61 278 139 109 528 389 
6 135 294 35 385 544 83 
6 69 297 296 117 547 546 
6 186 225 184 436 475 434 
6 329 361 243 579 611 493 
6 255 328 225 505 578 475 
6 213 332 280 463 582 530 
6 39 275 133 87 525 383 
6 330 362 241 580 612 491 
6 195 226 193 445 476 443 
6 211 324 251 461 574 501 
6 151 153 152 401 403 402 
6 295 299 294 545 549 544 
6 265 313 217 515 563 467 
6 258 259 143 508 509 393 
6 251 331 211 501 581 461 
6 149 151 150 399 401 400 
6 293 370 317 543 620 567 
6 153 204 152 403 454 402 
6 151 152 150 401 402 400 
6 33 292 140 81 542 390 
6 210 263 197 460 513 447 
6 301 305 249 551 555 499 
6 298 300 297 548 550 547 
6 68 296 142 116 546 392 
6 321 369 291 571 619 541 
6 179 224 177 429 474 427 
6 167 267 165 417 517 415 
6 259 346 262 509 596 512 
6 303 327 196 553 577 446 
6 269 270 155 519 520 405 
6 265 360 313 515 610 563 
6 223 269 157 473 519 407 
6 157 269 155 407 519 405 
6 144 279 278 394 529 528 
6 169 217 167 419 467 417 
6 177 264 175 427 514 425 
6 267 268 165 517 518 415 
6 159 223 157 409 473 407 
6 232 277 135 482 527 385 
6 193 254 190 443 504 440 
6 217 267 167 467 517 417 
6 249 356 142 499 606 392 
6 184 256 181 434 506 431 
6 248 355 219 498 605 469 
6 229 260 137 479 510 387 
6 149 150 148 399 400 398 
6 64 348 281 112 598 531 
6 311 374 293 561 624 543 
6 264 265 175 514 515 425 
6 297 300 296 547 550 546 
6 141 289 288 391 539 538 
6 197 263 195 447 513 445 
6 218 260 219 468 510 469 
6 224 264 177 474 514 427 
6 137 298 297 387 548 547 
6 277 295 135 527 545 385 
6 133 228 227 383 478 477 
6 261 349 262 511 599 512 
6 221 277 222 471 527 472 
6 256 325 224 506 575 474 
6 199 210 197 449 460 447 
6 226 254 193 476 504 443 
6 144 278 62 394 528 110 
6 279 283 278 529 533 528 
6 289 290 288 539 540 538 
6 137 297 70 387 547 118 
6 34 294 292 82 544 542 
6 235 236 216 485 486 466 
6 141 288 48 391 538 96 
6 178 306 180 428 556 430 
6 185 186 184 435 436 434 
6 63 281 144 111 531 394 
6 225 256 184 475 506 434 
6 46 291 136 94 541 386 
6 147 149 148 397 399 398 
6 271 272 204 521 522 454 
6 233 334 234 483 584 484 
6 145 275 40 395 525 88 
6 220 322 287 470 572 537 
6 280 334 213 530 584 463 
6 144 280 279 394 530 529 
6 140 287 32 390 537 80 
6 154 155 153 404 405 403 
6 334 350 213 584 600 463 
6 176 177 175 426 427 425 
6 260 298 137 510 548 387 
6 33 140 32 81 390 80 
6 49 141 48 97 391 96 
6 56 143 55 104 393 103 
6 68 142 67 116 392 115 
6 63 144 62 111 394 110 
6 61 139 60 109 389 108 
6 148 308 257 398 558 507 
6 71 137 70 119 387 118 
6 53 138 52 101 388 100 
6 46 136 45 94 386 93 
6 36 135 35 84 385 83 
6 43 146 134 91 396 384 
6 133 227 38 383 477 86 
6 192 193 190 442 443 440 
6 293 374 140 543 624 390 
6 34 292 33 82 542 81 
6 207 306 178 457 556 428 
6 43 134 42 91 384 90 
6 39 133 38 87 383 86 
6 41 145 40 89 395 88 
6 194 195 193 444 445 443 
6 69 296 68 117 546 116 
6 294 299 292 544 549 542 
6 173 175 171 423 425 421 
6 260 330 219 510 580 469 
6 183 184 181 433 434 431 
6 134 257 42 384 507 90 
6 55 349 54 103 599 102 
6 163 165 161 413 415 411 
6 166 167 165 416 417 415 
6 210 302 263 460 552 513 
6 271 273 272 521 523 522 
6 53 261 138 101 511 388 
6 217 326 267 467 576 517 
6 289 303 290 539 553 540 
6 178 179 177 428 429 427 
6 238 240 202 488 490 452 
6 62 278 61 110 528 109 
6 35 294 34 83 544 82 
6 284 361 232 534 611 482 
6 70 297 69 118 547 117 
6 224 304 264 474 554 514 
6 156 157 155 406 407 405 
6 48 288 47 96 538 95 
6 221 320 295 471 570 545 
6 187 188 186 437 438 436 
6 47 291 46 95 541 94 
6 151 154 153 401 404 403 
6 286 362 229 536 612 479 
6 168 169 167 418 419 417 
6 40 275 39 88 525 87 
6 307 324 141 557 574 391 
6 300 301 296 550 551 546 
6 32 287 31 80 537 79 
6 147 220 149 397 470 399 
6 333 344 231 583 594 481 
6 299 370 293 549 620 543 
6 271 359 273 521 609 523 
6 224 325 304 474 575 554 
6 228 237 227 478 487 477 
6 305 375 343 555 625 593 
6 218 319 298 468 569 548 
6 240 351 272 490 601 522 
6 277 329 222 527 579 472 
6 253 355 139 503 605 389 
6 158 159 157 408 409 407 
6 236 246 216 486 496 466 
6 192 194 193 442 444 443 
6 220 309 149 470 559 399 
6 183 185 184 433 435 434 
6 196 197 195 446 447 445 
6 276 347 58 526 597 106 
6 136 333 231 386 583 481 
6 67 247 66 115 497 114 
6 60 248 59 108 498 107 
6 261 262 250 511 512 500 
6 173 176 175 423 426 425 
6 344 357 231 594 607 481 
6 144 281 280 394 531 530 
6 152 205 150 402 455 400 
6 163 166 165 413 416 415 
6 185 187 186 435 437 436 
6 233 234 230 483 484 480 
6 170 171 169 420 421 419 
6 146 147 134 396 397 384 
6 176 178 177 426 428 427 
6 285 337 223 535 587 473 
6 154 156 155 404 406 405 
6 263 342 226 513 592 476 
6 235 245 236 485 495 486 
6 160 161 159 410 411 409 
6 58 347 242 106 597 492 
6 166 168 167 416 418 417 
6 287 374 220 537 624 470 
6 189 190 188 439 440 438 
6 148 257 134 398 507 384 
6 194 196 195 444 446 445 
6 252 308 205 502 558 455 
6 285 345 337 535 595 587 
6 301 375 305 551 625 555 
6 180 181 179 430 431 429 
6 281 348 234 531 598 484 
6 198 199 197 448 449 447 
6 151 309 154 401 559 404 
6 228 367 335 478 617 585 
6 54 349 261 102 599 511 
6 156 158 157 406 408 407 
6 168 170 169 418 420 419 
6 200 202 199 450 452 449 
6 147 148 134 397 398 384 
6 158 160 159 408 410 409 
6 150 308 148 400 558 398 
6 253 316 208 503 566 458 
6 232 329 277 482 579 527 
6 178 180 179 428 430 429 
6 191 192 190 441 442 440 
6 214 238 202 464 488 452 
6 172 173 171 422 423 421 
6 187 189 188 437 439 438 
6 162 163 161 412 413 411 
6 228 251 237 478 501 487 
6 215 258 235 465 508 485 
6 182 183 181 432 433 431 
6 202 310 199 452 560 449 
6 219 253 208 469 503 458 
6 222 249 206 472 499 456 
6 196 198 197 446 448 447 
6 229 330 260 479 580 510 
6 132 358 274 382 608 524 
6 149 309 151 399 559 401 
6 226 312 254 476 562 504 
6 154 309 209 404 559 459 
6 77 129 76 125 379 124 
6 73 128 72 121 378 120 
6 76 131 75 124 381 123 
6 74 132 73 122 382 121 
6 75 130 74 123 380 122 
6 14 127 77 29 377 125 
6 72 126 14 120 376 29 
6 133 367 228 383 617 478 
6 237 282 227 487 532 477 
6 239 366 252 489 616 502 
6 200 214 202 450 464 452 
6 192 201 194 442 451 444 
6 170 172 171 420 422 421 
6 220 311 309 470 561 559 
6 198 200 199 448 450 449 
6 189 191 190 439 441 440 
6 146 323 322 396 573 572 
6 160 162 161 410 412 411 
6 251 307 237 501 557 487 
6 199 310 210 449 560 460 
6 57 373 56 105 623 104 
6 214 239 238 464 489 488 
6 182 212 183 432 462 433 
6 180 182 181 430 432 431 
6 146 322 147 396 572 397 
6 172 218 208 422 468 458 
6 172 208 173 422 458 423 
6 162 221 206 412 471 456 
6 162 206 163 412 456 413 
6 176 207 178 426 457 428 
6 272 351 204 522 601 454 
6 198 211 200 448 461 450 
6 182 213 212 432 463 462 
6 234 334 281 484 584 531 
6 154 209 156 404 459 406 
6 185 203 187 435 453 437 
6 168 174 170 418 424 420 
6 189 215 191 439 465 441 
6 215 216 191 465 466 441 
6 221 222 206 471 472 456 
6 158 164 160 408 414 410 
6 218 219 208 468 469 458 
6 205 308 150 455 558 400 
6 191 314 192 441 564 442 
6 215 235 216 465 485 466 
6 215 318 258 465 568 508 
6 152 351 205 402 601 455 
6 138 261 250 388 511 500 
6 192 314 201 442 564 451 
6 234 347 230 484 597 480 
6 226 342 312 476 592 562 
6 138 250 233 388 500 483 
6 147 322 220 397 572 470 
6 216 314 191 466 564 441 
6 306 332 180 556 582 430 
6 222 356 249 472 606 499 
6 128 345 285 378 595 535 
6 314 321 201 564 571 451 
6 212 315 183 462 565 433 
6 312 342 336 562 592 586 
6 282 339 338 532 589 588 
6 340 341 323 590 591 573 
6 309 311 209 559 561 459 
6 183 315 185 433 565 435 
6 208 316 173 458 566 423 
6 173 316 176 423 566 426 
6 3 341 37 18 591 85 
6 44 339 6 92 589 21 
6 252 366 145 502 616 395 
6 246 321 314 496 571 564 
6 246 314 216 496 564 466 
6 126 364 313 376 614 563 
6 156 317 158 406 567 408 
6 275 367 133 525 617 383 
6 176 316 207 426 566 457 
6 185 315 203 435 565 453 
6 180 332 182 430 582 432 
6 302 352 131 552 602 381 
6 251 324 307 501 574 557 
6 187 318 189 437 568 439 
6 172 319 218 422 569 468 
6 162 320 221 412 570 471 
6 305 343 166 555 593 416 
6 170 319 172 420 569 422 
6 158 317 164 408 567 414 
6 209 317 156 459 567 406 
6 285 353 128 535 603 378 
6 223 337 269 473 587 519 
6 160 320 162 410 570 412 
6 211 331 200 461 581 450 
6 174 319 170 424 569 420 
6 203 318 187 453 568 437 
6 189 318 215 439 568 465 
6 198 327 211 448 577 461 
6 164 320 160 414 570 410 
6 326 353 267 576 603 517 
6 236 344 333 486 594 583 
6 196 327 198 446 577 448 
6 219 355 253 469 605 503 
6 281 334 280 531 584 530 
6 274 359 271 524 609 521 
6 164 370 299 414 620 549 
6 174 375 300 424 625 550 
6 287 363 31 537 613 79 
6 243 361 1 493 611 16 
6 241 362 12 491 612 27 
6 307 365 237 557 615 487 
6 166 343 168 416 593 418 
6 200 331 214 450 581 464 
6 313 326 217 563 576 467 
6 9 357 244 24 607 494 
6 1 361 30 16 611 78 
6 12 362 65 27 612 113 
6 337 345 132 587 595 382 
6 242 348 64 492 598 112 
6 231 357 266 481 607 516 
6 182 332 213 432 582 463 
6 245 344 236 495 594 486 
6 258 346 259 508 596 509 
6 145 366 275 395 616 525 
6 291 369 136 541 619 386 
6 236 333 246 486 583 496 
6 331 335 214 581 585 464 
6 312 336 129 562 586 379 
6 315 372 262 565 622 512 
6 220 374 311 470 624 561 
6 140 374 287 390 624 537 
6 126 360 304 376 610 554 
6 230 347 276 480 597 526 
6 313 364 326 563 614 576 
6 56 373 143 104 623 393 
6 239 367 366 489 617 616 
6 204 351 152 454 601 402 
6 300 375 301 550 625 551 
6 214 335 239 464 585 489 
6 247 329 243 497 579 493 
6 262 372 250 512 622 500 
6 248 330 241 498 580 491 
6 318 346 258 568 596 508 
6 333 369 246 583 619 496 
6 282 338 227 532 588 477 
6 146 340 323 396 590 573 
6 304 360 264 554 610 514 
6 366 367 275 616 617 525 
6 129 336 76 379 586 124 
6 73 345 128 121 595 378 
6 76 336 131 124 586 381 
6 250 350 233 500 600 483 
6 129 371 328 379 621 578 
6 132 345 73 382 595 121 
6 168 343 174 418 593 424 
6 131 352 75 381 602 123 
6 66 247 243 114 497 493 
6 59 248 241 107 498 491 
6 74 358 132 122 608 382 
6 203 346 318 453 596 568 
6 313 360 126 563 610 376 
6 128 364 72 378 614 120 
6 128 353 326 378 603 576 
6 77 371 129 125 621 379 
6 129 368 312 379 618 562 
6 244 357 344 494 607 594 
6 328 354 225 578 604 475 
6 326 364 128 576 614 378 
6 75 352 130 123 602 380 
6 350 372 212 600 622 462 
6 136 369 333 386 619 583 
6 325 354 127 575 604 377 
6 213 350 212 463 600 462 
6 130 358 74 380 608 122 
6 250 372 350 500 622 600 
6 317 370 164 567 620 414 
6 72 364 126 120 614 376 
6 328 368 129 578 618 379 
6 127 371 77 377 621 125 
6 336 342 131 586 592 381 
6 212 372 315 462 622 565 
6 234 348 347 484 598 597 
6 8 266 51 23 516 99 
6 10 276 58 25 526 106 
6 246 369 321 496 619 571 
6 30 284 0 78 534 15 
6 65 286 13 113 536 28 
6 58 242 11 106 492 26 
6 266 357 51 516 607 99 
6 255 368 328 505 618 578 
6 347 348 242 597 598 492 
6 322 363 287 572 613 537 
6 323 363 322 573 613 572 
6 335 367 239 585 617 489 
6 30 361 284 78 611 534 
6 65 362 286 113 612 536 
6 237 365 282 487 615 532 
6 130 359 358 380 609 608 
6 343 375 174 593 625 424 
6 354 371 127 604 621 377 
6 328 371 354 578 621 604 
6 358 359 274 608 609 524 
6 0 284 36 15 534 84 
6 45 266 8 93 516 23 
6 52 276 10 100 526 25 
6 11 242 64 26 492 112 
6 13 286 71 28 536 119 
6 2 323 3 17 573 18 
6 31 323 2 79 573 17 
6 323 341 3 573 591 18 
6 37 340 4 85 590 19 
6 4 340 43 19 590 91 
6 38 338 5 86 588 20 
6 5 338 44 20 588 92 
6 6 282 7 21 532 22 
6 6 339 282 21 589 532 
6 282 365 7 532 615 22 

CELL_TYPES 563
13
13
13
13
13
13
13
13
13
13
13
13
13
13
13
13
13
13
13
13
13
13
13
13
13
13
13
13
13
13
13
13
13
13
13
13
13
13
13
13
13
13
13
13
13
13
13
13
13
13
13
13
13
13
13
13
13
13
13
13
13
13
13
13
13
13
13
13
13
13
13
13
13
13
13
13
13
13
13
13
13
13
13
13
13
13
13
13
13
13
13
13
13
13
13
13
13
13
13
13
13
13
13
13
13
13
13
13
13
13
13
13
13
13
13
13
13
13
13
13
13
13
13
13
13
13
13
13
13
13
13
13
13
13
13
13
13
13
13
13
13
13
13
13
13
13
13
13
13
13
13
13
13
13
13
13
13
13
13
13
13
13
13
13
13
13
13
13
13
13
13
13
13
13
13
13
13
13
13
13
13
13
13
13
13
13
13
13
13
13
13
13
13
13
13
13
13
13
13
13
13
13
13
13
13
13
13
13
13
13
13
13
13
13
13
13
13
13
13
13
13
13
13
13
13
13
13
13
13
13
13
13
13
13
13
13
13
13
13
13
13
13
13
13
13
13
13
13
13
13
13
13
13
13
13
13
13
13
13
13
13
13
13
13
13
13
13
13
13
13
13
13
13
13
13
13
13
13
13
13
13
13
13
13
13
13
13
13
13
13
13
13
13
13
13
13
13
13
13
13
13
13
13
13
13
13
13
13
13
13
13
13
13
13
13
13
13
13
13
13
13
13
13
13
13
13
13
13
13
13
13
13
13
13
13
13
13
13
13
13
13
13
13
13
13
13
13
13
13
13
13
13
13
13
13
13
13
13
13
13
13
13
13
13
13
13
13
13
13
13
13
13
13
13
13
13
13
13
13
13
13
13
13
13
13
13
13
13
13
13
13
13
13
13
13
13
13
13
13
13
13
13
13
13
13
13
13
13
13
13
13
13
13
13
13
13
13
13
13
13
13
13
13
13
13
13
13
13
13
13
13
13
13
13
13
13
13
13
13
13
13
13
13
13
13
13
13
13
13
13
13
13
13
13
13
13
13
13
13
13
13
13
13
13
13
13
13
13
13
13
13
13
13
13
13
13
13
13
13
13
13
13
13
13
13
13
13
13
13
13
13
13
13
13
13
13
13
13
13
13
13
13
13
13
13
13
13
13
13
13
13
13
13
13
13
13
13
13
13
13
13
13
13
13
13
13
13
13
13
13
13
13
13
13
13
13
13
13
13
13
13
13
13
13
13
13
13
13
13
13
13
13
13
13
13
13
13
13
13
13
13
13
13

POINT_DATA 626
VECTORS displacement float
-1.74394e-06 3.09547e-05 1.80551e-05
1.73565e-06 3.09738e-05 1.81002e-05
-2.59865e-05 1.6993e-05 1.80872e-05
-2.58412e-05 1.60331e-05 1.80518e-05
-2.77209e-05 1.39729e-05 1.80692e-05
-2.77139e-05 -1.40192e-05 1.80946e-05
-2.58124e-05 -1.60713e-05 1.8106e-05
-2.59827e-05 -1.70111e-05 1.81672e-05
-1.6774e-06 -3.09585e-05 1.80515e-05
1.75545e-06 -3.096e-05 1.8102e-05
2.59439e-05 -1.69808e-05 1.80436e-05
2.77173e-05 -1.39368e-05 1.80435e-05
2.76727e-05 1.39896e-05 1.80918e-05
2.59152e-05 1.69931e-05 1.80462e-05
0 0 0
-1.74394e-06 3.09547e-05 -1.80551e-05
1.73565e-06 3.09738e-05 -1.81002e-05
-2.59865e-05 1.6993e-05 -1.80872e-05
-2.58412e-05 1.60331e-05 -1.80518e-05
-2.77209e-05 1.39729e-05 -1.80692e-05
-2.77139e-05 -1.40192e-05 -1.80946e-05
-2.58124e-05 -1.60713e-05 -1.8106e-05
-2.59827e-05 -1.70111e-05 -1.81672e-05
-1.6774e-06 -3.09585e-05 -1.80515e-05
1.75545e-06 -3.096e-05 -1.8102e-05
2.59439e-05 -1.69808e-05 -1.80436e-05
2.77173e-05 -1.39368e-05 -1.80435e-05
2.76727e-05 1.39896e-05 -1.80918e-05
2.59152e-05 1.69931e-05 -1.80462e-05
0 0 0
2.48931e-08 3.01546e-05 1.80343e-05
-2.11408e-05 1.87126e-05 1.75499e-05
-1.72327e-05 1.9834e-05 1.6921e-05
-1.40071e-05 2.10545e-05 1.65551e-05
-1.1207e-05 2.26651e-05 1.65489e-05
-8.52415e-06 2.48331e-05 1.69015e-05
-5.56782e-06 2.7622e-05 1.75376e-05
-2.64501e-05 1.46793e-05 1.80336e-05
-2.6769e-05 -9.01164e-06 1.75775e-05
-2.58065e-05 -5.03555e-06 1.69261e-05
-2.52547e-05 -1.63623e-06 1.65715e-05
-2.52577e-05 1.60787e-06 1.65745e-05
-2.57988e-05 5.02294e-06 1.69243e-05
-2.67552e-05 8.98473e-06 1.7564e-05
-2.6437e-05 -1.47256e-05 1.80624e-05
-5.54108e-06 -2.76365e-05 1.75298e-05
-8.47667e-06 -2.48421e-05 1.69008e-05
-1.11702e-05 -2.26845e-05 1.65563e-05
-1.39707e-05 -2.10875e-05 1.65597e-05
-1.72151e-05 -1.98694e-05 1.69368e-05
-2.11344e-05 -1.87493e-05 1.75623e-05
8.98382e-08 -3.01394e-05 1.80295e-05
2.11242e-05 -1.8625e-05 1.75116e-05
1.72449e-05 -1.97624e-05 1.6873e-05
1.4034e-05 -2.10114e-05 1.65117e-05
1.12252e-05 -2.25932e-05 1.65463e-05
8.58131e-06 -2.47803e-05 1.68743e-05
5.6547e-06 -2.76267e-05 1.75351e-05
2.61248e-05 -1.50598e-05 1.80285e-05
2.67171e-05 8.93852e-06 1.75016e-05
2.57223e-05 5.04967e-06 1.69085e-05
2.52068e-05 1.62334e-06 1.65233e-05
2.5204e-05 -1.59946e-06 1.65216e-05
2.57509e-05 -4.99746e-06 1.68885e-05
2.66991e-05 -8.91727e-06 1.75098e-05
2.61079e-05 1.5061e-05 1.80255e-05
5.63316e-06 2.76181e-05 1.75097e-05
8.50869e-06 2.4807e-05 1.69113e-05
1.12172e-05 2.26413e-05 1.65295e-05
1.40047e-05 2.10224e-05 1.65249e-05
1.72219e-05 1.97936e-05 1.68852e-05
2.11152e-05 1.86346e-05 1.75255e-05
0 0 0
0 0 0
0 0 0
0 0 0
0 0 0
0 0 0
2.48931e-08 3.01546e-05 -1.80343e-05
-2.11408e-05 1.87126e-05 -1.75499e-05
-1.72327e-05 1.9834e-05 -1.6921e-05
-1.40071e-05 2.10545e-05 -1.65551e-05
-1.1207e-05 2.26651e-05 -1.65489e-05
-8.52415e-06 2.48331e-05 -1.69015e-05
-5.56782e-06 2.7622e-05 -1.75376e-05
-2.64501e-05 1.46793e-05 -1.80336e-05
-2.6769e-05 -9.01164e-06 -1.75775e-05
-2.58065e-05 -5.03555e-06 -1.69261e-05
-2.52547e-05 -1.63623e-06 -1.65715e-05
-2.52577e-05 1.60787e-06 -1.65745e-05
-2.57988e-05 5.02294e-06 -1.69243e-05
-2.67552e-05 8.98473e-06 -1.7564e-05
-2.6437e-05 -1.47256e-05 -1.80624e-05
-5.54108e-06 -2.76365e-05 -1.75298e-05
-8.47667e-06 -2.48421e-05 -1.69008e-05
-1.11702e-05 -2.26845e-05 -1.65563e-05
-1.39707e-05 -2.10875e-05 -1.65597e-05
-1.72151e-05 -1.98694e-05 -1.69368e-05
-2.11344e-05 -1.87493e-05 -1.75623e-05
8.98382e-08 -3.01394e-05 -1.80295e-05
2.11242e-05 -1.8625e-05 -1.75116e-05
1.72449e-05 -1.97624e-05 -1.6873e-05
1.4034e-05 -2.10114e-05 -1.65117e-05
1.12252e-05 -2.25932e-05 -1.65463e-05
8.58131e-06 -2.47803e-05 -1.68743e-05
5.6547e-06 -2.76267e-05 -1.75351e-05
2.61248e-05 -1.50598e-05 -1.80285e-05
2.67171e-05 8.93852e-06 -1.75016e-05
2.57223e-05 5.04967e-06 -1.69085e-05
2.52068e-05 1.62334e-06 -1.65233e-05
2.5204e-05 -1.59946e-06 -1.65216e-05
2.57509e-05 -4.99746e-06 -1.68885e-05
2.66991e-05 -8.91727e-06 -1.75098e-05
2.61079e-05 1.5061e-05 -1.80255e-05
5.63316e-06 2.76181e-05 -1.75097e-05
8.50869e-06 2.4807e-05 -1.69113e-05
1.12172e-05 2.26413e-05 -1.65295e-05
1.40047e-05 2.10224e-05 -1.65249e-05
1.72219e-05 1.97936e-05 -1.68852e-05
2.11152e-05 1.86346e-05 -1.75255e-05
0 0 0
0 0 0
0 0 0
0 0 0
0 0 0
0 0 0
1.79369e-06 8.58752e-07 4.55229e-06
1.73783e-06 -8.2512e-07 4.46084e-06
4.31957e-07 1.84964e-06 4.49516e-06
4.36101e-07 -1.78064e-06 4.35613e-06
-1.8475e-06 2.09633e-08 4.4224e-06
-1.12309e-06 -1.30888e-06 4.15104e-06
-1.15922e-06 1.30681e-06 4.19982e-06
-2.25133e-05 -7.28775e-06 1.7e-05
-2.21966e-05 7.37164e-06 1.69687e-05
-4.86048e-06 2.28987e-05 1.69371e-05
-4.85799e-06 -2.31318e-05 1.6964e-05
1.74214e-05 1.56356e-05 1.69299e-05
1.75689e-05 -1.55366e-05 1.69392e-05
2.10737e-05 3.16391e-06 1.63245e-05
-1.39533e-05 1.71514e-05 1.64785e-05
-1.35913e-05 -1.67414e-05 1.641e-05
7.76791e-06 1.98197e-05 1.63313e-05
7.68493e-06 -2.03101e-05 1.64026e-05
2.14725e-05 -3.44377e-06 1.64003e-05
-2.11029e-05 6.5881e-09 1.62468e-05
-2.24205e-05 1.09998e-05 1.74537e-05
-1.87511e-05 9.25478e-06 1.66272e-05
-1.79829e-05 5.7955e-06 1.60364e-05
-1.49841e-05 7.4484e-06 1.54864e-05
-1.42246e-05 4.30776e-06 1.48297e-05
-1.15327e-05 5.74394e-06 1.40947e-05
-1.08581e-05 3.06876e-06 1.33736e-05
-8.40056e-06 4.30491e-06 1.24043e-05
-9.05888e-06 7.01346e-06 1.34564e-05
-6.20415e-06 5.48855e-06 1.1689e-05
-6.82836e-06 8.24951e-06 1.30799e-05
-4.28143e-06 6.67496e-06 1.14505e-05
-4.80005e-06 9.61001e-06 1.30939e-05
-2.40089e-06 7.99341e-06 1.17229e-05
-2.81288e-06 1.11673e-05 1.34749e-05
-4.75414e-07 9.59537e-06 1.2501e-05
-7.38361e-07 1.2997e-05 1.41417e-05
1.7311e-06 1.15179e-05 1.3535e-05
-5.53474e-06 1.27005e-05 1.44369e-05
1.68509e-06 8.22404e-06 1.17475e-05
4.00421e-06 1.0121e-05 1.31509e-05
3.70538e-06 7.09801e-06 1.14782e-05
6.06746e-06 8.96675e-06 1.31133e-05
5.76687e-06 6.10684e-06 1.17356e-05
8.35815e-06 8.02039e-06 1.3492e-05
8.10572e-06 5.19531e-06 1.25003e-05
1.09541e-05 7.09711e-06 1.4147e-05
1.07461e-05 4.32283e-06 1.34991e-05
8.5306e-06 1.10376e-05 1.44608e-05
7.93776e-06 2.64377e-06 1.17274e-05
1.06461e-05 1.73722e-06 1.3104e-05
7.94875e-06 3.58763e-07 1.14556e-05
1.08065e-05 -7.59119e-07 1.31241e-05
8.11171e-06 -1.93782e-06 1.17091e-05
1.10984e-05 -3.31288e-06 1.34839e-05
8.46981e-06 -4.42402e-06 1.2444e-05
1.15038e-05 -6.00294e-06 1.41094e-05
8.95565e-06 -7.13817e-06 1.34281e-05
6.14758e-06 -5.49446e-06 1.16413e-05
6.64456e-06 -8.30094e-06 1.30183e-05
4.10524e-06 -6.58857e-06 1.13109e-05
4.5234e-06 -9.55095e-06 1.29883e-05
2.24231e-06 -7.85836e-06 1.15974e-05
2.48486e-06 -1.1002e-05 1.3351e-05
2.25293e-07 -9.37377e-06 1.23536e-05
3.30016e-07 -1.27699e-05 1.40338e-05
-1.91545e-06 -1.11508e-05 1.3377e-05
-1.84108e-06 -7.92169e-06 1.15822e-05
-4.16794e-06 -9.87494e-06 1.30851e-05
-3.81397e-06 -6.73056e-06 1.13171e-05
-6.34568e-06 -8.6621e-06 1.30993e-05
-5.89135e-06 -5.69806e-06 1.16284e-05
-8.4998e-06 -7.43587e-06 1.33797e-05
-8.16762e-06 -4.7281e-06 1.24086e-05
-1.10958e-05 -6.40283e-06 1.40699e-05
-4.3717e-06 -1.31233e-05 1.44337e-05
-1.0809e-05 -3.65072e-06 1.34392e-05
7.22619e-06 -1.13729e-05 1.4273e-05
-7.74178e-06 1.9827e-06 1.14929e-05
-1.32163e-05 1.03507e-06 1.4211e-05
1.72914e-06 1.5083e-05 1.49523e-05
1.37682e-05 4.62242e-07 1.43878e-05
1.38433e-05 6.10017e-06 1.49318e-05
-9.69416e-06 1.01964e-05 1.45326e-05
-5.41606e-06 -3.19769e-06 1.01822e-05
-1.17137e-05 -9.29744e-06 1.48893e-05
1.18825e-05 -8.76031e-06 1.47872e-05
1.47819e-05 -7.47368e-06 1.54034e-05
-1.39599e-05 -5.24395e-06 1.48618e-05
2.79585e-06 -1.45163e-05 1.47963e-05
4.24567e-07 -1.64996e-05 1.53979e-05
3.51847e-06 4.39698e-06 9.58119e-06
1.40107e-05 9.29916e-06 1.54917e-05
1.7931e-05 8.14505e-06 1.63007e-05
-1.56756e-05 1.13955e-05 1.62336e-05
-1.0941e-06 1.67693e-05 1.54954e-05
1.90688e-06 1.96218e-05 1.63111e-05
-2.09189e-06 5.22013e-06 9.59769e-06
5.554e-06 -7.84612e-07 9.59423e-06
3.58599e-06 -3.6836e-06 9.08206e-06
-1.77966e-06 -5.17863e-06 9.4497e-06
-2.2469e-05 -1.10109e-05 1.74745e-05
-1.87984e-05 -9.24152e-06 1.66512e-05
2.11481e-05 1.41649e-05 1.75057e-05
2.0754e-05 -1.43178e-05 1.74357e-05
-1.76462e-06 -2.54468e-05 1.75111e-05
-1.68215e-06 2.54108e-05 1.75157e-05
1.77132e-05 -1.1907e-05 1.66873e-05
2.06459e-05 -1.07512e-05 1.71161e-05
3.77569e-06 -1.89853e-05 1.61395e-05
7.68538e-07 -2.0346e-05 1.6483e-05
-1.94053e-05 -1.26507e-05 1.71433e-05
-1.37312e-05 -2.30695e-06 1.4472e-05
-1.65929e-05 -3.70147e-06 1.54777e-05
-1.03759e-05 -1.0964e-06 1.29522e-05
2.44523e-05 1.10729e-05 1.76518e-05
2.54978e-05 -1.24034e-05 1.78483e-05
2.64926e-06 2.67263e-05 1.76606e-05
2.52102e-06 -2.64139e-05 1.76295e-05
3.33949e-06 -2.30321e-05 1.70292e-05
-2.05392e-06 -1.83201e-05 1.5951e-05
4.0591e-06 2.37916e-05 1.71305e-05
2.26144e-05 8.37935e-06 1.71194e-05
4.61365e-06 1.73135e-05 1.57274e-05
1.44271e-05 -1.31196e-05 1.61375e-05
-1.57878e-05 -1.09848e-05 1.62147e-05
-1.67999e-05 -3.81432e-07 1.53775e-05
1.73061e-05 4.68753e-06 1.57258e-05
6.55224e-08 -6.38737e-06 1.02675e-05
1.74173e-06 -4.8485e-06 9.09257e-06
5.85051e-06 -2.93554e-06 1.03783e-05
-2.14444e-05 3.75055e-06 1.6459e-05
5.72941e-06 -1.62746e-05 1.55078e-05
9.08354e-06 -1.74992e-05 1.59976e-05
1.75723e-05 1.18818e-05 1.66724e-05
1.39944e-05 -1.63824e-05 1.64013e-05
1.07401e-05 -1.37891e-05 1.55502e-05
-3.548e-06 -4.22023e-06 9.50084e-06
5.39916e-06 1.13851e-06 9.49913e-06
5.21809e-06 3.2229e-06 1.00473e-05
-1.74979e-06 -2.83547e-05 1.7877e-05
1.89207e-06 5.29893e-06 9.58453e-06
-1.13824e-07 6.10505e-06 1.00388e-05
-3.78495e-06 4.12777e-06 9.57848e-06
-5.62272e-06 3.03421e-06 1.02853e-05
-5.16551e-06 1.04068e-06 9.21369e-06
-7.5273e-06 -6.17397e-08 1.11725e-05
-4.3344e-06 -8.10284e-07 8.38192e-06
-3.10861e-06 1.87235e-06 7.37412e-06
-2.20813e-05 -3.60779e-06 1.65159e-05
2.34064e-05 -1.56881e-05 1.78362e-05
-1.50721e-06 2.11681e-05 1.66821e-05
2.12618e-05 -8.45204e-08 1.62259e-05
1.76222e-05 -1.64681e-06 1.55815e-05
1.73478e-05 -4.94171e-06 1.57708e-05
2.18917e-05 -7.45118e-06 1.69137e-05
-2.31824e-05 -1.42547e-05 1.78328e-05
1.73248e-05 1.64888e-06 1.55086e-05
-1.734e-06 2.84733e-05 1.78942e-05
-4.22075e-07 3.68344e-06 7.49536e-06
2.37721e-05 1.57424e-05 1.78847e-05
-1.74975e-05 1.56424e-05 1.6975e-05
-1.06263e-05 -1.84663e-05 1.62552e-05
-1.00996e-05 -1.43424e-05 1.55718e-05
-7.50783e-06 -1.6095e-05 1.56222e-05
-7.32218e-06 -2.01207e-05 1.63954e-05
-1.07045e-05 1.85354e-05 1.62669e-05
-1.03474e-05 1.43842e-05 1.56195e-05
-7.7727e-06 2.04926e-05 1.64443e-05
-4.25303e-06 1.86098e-05 1.60531e-05
1.07598e-05 1.83456e-05 1.62263e-05
1.38918e-05 1.6935e-05 1.64311e-05
1.40421e-05 1.2973e-05 1.60514e-05
-7.36164e-06 1.62884e-05 1.56386e-05
1.05252e-05 1.45471e-05 1.56453e-05
7.74882e-06 1.60924e-05 1.5614e-05
-3.11649e-06 -1.89878e-06 7.39325e-06
-7.25771e-06 -1.24221e-05 1.46253e-05
3.00868e-06 4.03605e-08 6.60104e-06
4.87262e-06 1.35229e-05 1.46182e-05
1.40761e-05 -2.26041e-06 1.45706e-05
-1.72899e-05 -1.52168e-05 1.69456e-05
-1.73666e-05 2.42033e-06 1.55979e-05
-1.22048e-05 8.91202e-06 1.49436e-05
-7.7057e-06 -2.29254e-06 1.15548e-05
-1.24499e-05 1.18127e-05 1.55401e-05
-1.42737e-07 -3.75426e-06 7.55425e-06
2.73025e-06 2.2721e-06 7.252e-06
-2.00388e-06 -1.46506e-05 1.48082e-05
9.36518e-06 -1.00683e-05 1.43895e-05
1.38609e-05 3.15784e-06 1.45662e-05
-7.34011e-06 1.11995e-05 1.42604e-05
4.99727e-06 -1.27749e-05 1.43694e-05
1.1032e-05 1.04306e-05 1.49198e-05
-3.59648e-06 1.46854e-05 1.49082e-05
-4.63551e-06 -1.6617e-05 1.5549e-05
-1.95073e-05 1.28926e-05 1.71614e-05
-2.31271e-05 1.48583e-05 1.78436e-05
-1.29051e-05 -1.26862e-05 1.58127e-05
3.76083e-06 -1.58614e-06 7.90703e-06
1.76441e-06 2.92231e-06 7.08451e-06
-9.23058e-06 -1.06096e-05 1.45319e-05
1.72776e-06 -2.82318e-06 6.93114e-06
9.94738e-07 2.41171e-05 1.73086e-05
2.13682e-05 1.1194e-05 1.72988e-05
-1.46648e-05 -7.95347e-06 1.54855e-05
1.37082e-05 -4.78637e-06 1.46908e-05
-1.9099e-06 -2.17632e-05 1.68029e-05
1.80606e-05 -8.41916e-06 1.63409e-05
-1.66791e-05 -6.32864e-06 1.57826e-05
-4.32904e-07 -1.92234e-06 4.79853e-06
-1.80539e-06 2.99547e-06 7.17726e-06
-2.50523e-05 -1.29819e-05 1.79224e-05
-2.51275e-05 -1.45074e-05 1.80023e-05
-2.50454e-05 1.30338e-05 1.79062e-05
-2.51183e-05 1.46501e-05 1.79823e-05
-1.64847e-06 -3.12488e-06 7.20999e-06
6.32802e-06 1.13685e-05 1.40767e-05
5.33714e-07 -2.40864e-05 1.73024e-05
-5.22783e-07 1.80956e-06 4.64506e-06
7.40755e-06 -1.43438e-05 1.51525e-05
2.33031e-05 -1.32095e-05 1.7729e-05
2.3633e-05 -1.05377e-05 1.7491e-05
1.19886e-05 -1.82112e-05 1.62935e-05
1.47303e-05 -1.01468e-05 1.57958e-05
-1.00272e-05 1.00126e-06 1.27548e-05
-1.74003e-06 -8.1591e-07 4.72351e-06
7.69072e-07 3.70839e-06 7.57324e-06
2.3431e-06 -1.99718e-06 6.55537e-06
2.01568e-05 5.8979e-06 1.64538e-05
5.07015e-06 2.05962e-05 1.64962e-05
3.42118e-07 -2.76803e-05 1.78542e-05
-1.73124e-06 7.09118e-07 4.60638e-06
-3.21154e-06 6.23054e-07 6.82422e-06
3.57725e-06 1.47543e-06 7.63671e-06
4.99227e-07 2.83241e-05 1.79274e-05
2.47606e-05 1.37342e-05 1.79186e-05
-2.03286e-05 1.5536e-05 1.74292e-05
1.17872e-06 1.36449e-06 4.45991e-06
-2.06399e-05 -1.57286e-05 1.75278e-05
-1.89991e-05 -2.32221e-06 1.59464e-05
-1.95594e-05 -5.58506e-06 1.63324e-05
9.05692e-07 -3.24779e-06 7.00619e-06
-4.36608e-06 -1.97895e-05 1.6322e-05
-7.93738e-06 1.38346e-05 1.51013e-05
1.16576e-06 -1.3042e-06 4.33935e-06
1.19346e-05 -1.12285e-05 1.52924e-05
6.13313e-06 -2.26964e-05 1.68207e-05
-1.45223e-05 1.43555e-05 1.63238e-05
7.92918e-06 1.33214e-05 1.49482e-05
1.79369e-06 8.58752e-07 -4.55229e-06
1.73783e-06 -8.2512e-07 -4.46084e-06
4.31957e-07 1.84964e-06 -4.49516e-06
4.36101e-07 -1.78064e-06 -4.35613e-06
-1.8475e-06 2.09633e-08 -4.4224e-06
-1.12309e-06 -1.30888e-06 -4.15104e-06
-1.15922e-06 1.30681e-06 -4.19982e-06
-2.25133e-05 -7.28775e-06 -1.7e-05
-2.21966e-05 7.37164e-06 -1.69687e-05
-4.86048e-06 2.28987e-05 -1.69371e-05
-4.85799e-06 -2.31318e-05 -1.6964e-05
1.74214e-05 1.56356e-05 -1.69299e-05
1.75689e-05 -1.55366e-05 -1.69392e-05
2.10737e-05 3.16391e-06 -1.63245e-05
-1.39533e-05 1.71514e-05 -1.64785e-05
-1.35913e-05 -1.67414e-05 -1.641e-05
7.76791e-06 1.98197e-05 -1.63313e-05
7.68493e-06 -2.03101e-05 -1.64026e-05
2.14725e-05 -3.44377e-06 -1.64003e-05
-2.11029e-05 6.5881e-09 -1.62468e-05
-2.24205e-05 1.09998e-05 -1.74537e-05
-1.87511e-05 9.25478e-06 -1.66272e-05
-1.79829e-05 5.7955e-06 -1.60364e-05
-1.49841e-05 7.4484e-06 -1.54864e-05
-1.42246e-05 4.30776e-06 -1.48297e-05
-1.15327e-05 5.74394e-06 -1.40947e-05
-1.08581e-05 3.06876e-06 -1.33736e-05
-8.40056e-06 4.30491e-06 -1.24043e-05
-9.05888e-06 7.01346e-06 -1.34564e-05
-6.20415e-06 5.48855e-06 -1.1689e-05
-6.82836e-06 8.24951e-06 -1.30799e-05
-4.28143e-06 6.67496e-06 -1.14505e-05
-4.80005e-06 9.61001e-06 -1.30939e-05
-2.40089e-06 7.99341e-06 -1.17229e-05
-2.81288e-06 1.11673e-05 -1.34749e-05
-4.75414e-07 9.59537e-06 -1.2501e-05
-7.38361e-07 1.2997e-05 -1.41417e-05
1.7311e-06 1.15179e-05 -1.3535e-05
-5.53474e-06 1.27005e-05 -1.44369e-05
1.68509e-06 8.22404e-06 -1.17475e-05
4.00421e-06 1.0121e-05 -1.31509e-05
3.70538e-06 7.09801e-06 -1.14782e-05
6.06746e-06 8.96675e-06 -1.31133e-05
5.76687e-06 6.10684e-06 -1.17356e-05
8.35815e-06 8.02039e-06 -1.3492e-05
8.10572e-06 5.19531e-06 -1.25003e-05
1.09541e-05 7.09711e-06 -1.4147e-05
1.07461e-05 4.32283e-06 -1.34991e-05
8.5306e-06 1.10376e-05 -1.44608e-05
7.93776e-06 2.64377e-06 -1.17274e-05
1.06461e-05 1.73722e-06 -1.3104e-05
7.94875e-06 3.58763e-07 -1.14556e-05
1.08065e-05 -7.59119e-07 -1.31241e-05
8.11171e-06 -1.93782e-06 -1.17091e-05
1.10984e-05 -3.31288e-06 -1.34839e-05
8.46981e-06 -4.42402e-06 -1.2444e-05
1.15038e-05 -6.00294e-06 -1.41094e-05
8.95565e-06 -7.13817e-06 -1.34281e-05
6.14758e-06 -5.49446e-06 -1.16413e-05
6.64456e-06 -8.30094e-06 -1.30183e-05
4.10524e-06 -6.58857e-06 -1.13109e-05
4.5234e-06 -9.55095e-06 -1.29883e-05
2.24231e-06 -7.85836e-06 -1.15974e-05
2.48486e-06 -1.1002e-05 -1.3351e-05
2.25293e-07 -9.37377e-06 -1.23536e-05
3.30016e-07 -1.27699e-05 -1.40338e-05
-1.91545e-06 -1.11508e-05 -1.3377e-05
-1.84108e-06 -7.92169e-06 -1.15822e-05
-4.16794e-06 -9.87494e-06 -1.30851e-05
-3.81397e-06 -6.73056e-06 -1.13171e-05
-6.34568e-06 -8.6621e-06 -1.30993e-05
-5.89135e-06 -5.69806e-06 -1.16284e-05
-8.4998e-06 -7.43587e-06 -1.33797e-05
-8.16762e-06 -4.7281e-06 -1.24086e-05
-1.10958e-05 -6.40283e-06 -1.40699e-05
-4.3717e-06 -1.31233e-05 -1.44337e-05
-1.0809e-05 -3.65072e-06 -1.34392e-05
7.22619e-06 -1.13729e-05 -1.4273e-05
-7.74178e-06 1.9827e-06 -1.14929e-05
-1.32163e-05 1.03507e-06 -1.4211e-05
1.72914e-06 1.5083e-05 -1.49523e-05
1.37682e-05 4.62242e-07 -1.43878e-05
1.38433e-05 6.10017e-06 -1.49318e-05
-9.69416e-06 1.01964e-05 -1.45326e-05
-5.41606e-06 -3.19769e-06 -1.01822e-05
-1.17137e-05 -9.29744e-06 -1.48893e-05
1.18825e-05 -8.76031e-06 -1.47872e-05
1.47819e-05 -7.47368e-06 -1.54034e-05
-1.39599e-05 -5.24395e-06 -1.48618e-05
2.79585e-06 -1.45163e-05 -1.47963e-05
4.24567e-07 -1.64996e-05 -1.53979e-05
3.51847e-06 4.39698e-06 -9.58119e-06
1.40107e-05 9.29916e-06 -1.54917e-05
1.7931e-05 8.14505e-06 -1.63007e-05
-1.56756e-05 1.13955e-05 -1.62336e-05
-1.0941e-06 1.67693e-05 -1.54954e-05
1.90688e-06 1.96218e-05 -1.63111e-05
-2.09189e-06 5.22013e-06 -9.59769e-06
5.554e-06 -7.84612e-07 -9.59423e-06
3.58599e-06 -3.6836e-06 -9.08206e-06
-1.77966e-06 -5.17863e-06 -9.4497e-06
-2.2469e-05 -1.10109e-05 -1.74745e-05
-1.87984e-05 -9.24152e-06 -1.66512e-05
2.11481e-05 1.41649e-05 -1.75057e-05
2.0754e-05 -1.43178e-05 -1.74357e-05
-1.76462e-06 -2.54468e-05 -1.75111e-05
-1.68215e-06 2.54108e-05 -1.75157e-05
1.77132e-05 -1.1907e-05 -1.66873e-05
2.06459e-05 -1.07512e-05 -1.71161e-05
3.77569e-06 -1.89853e-05 -1.61395e-05
7.68538e-07 -2.0346e-05 -1.6483e-05
-1.94053e-05 -1.26507e-05 -1.71433e-05
-1.37312e-05 -2.30695e-06 -1.4472e-05
-1.65929e-05 -3.70147e-06 -1.54777e-05
-1.03759e-05 -1.0964e-06 -1.29522e-05
2.44523e-05 1.10729e-05 -1.76518e-05
2.54978e-05 -1.24034e-05 -1.78483e-05
2.64926e-06 2.67263e-05 -1.76606e-05
2.52102e-06 -2.64139e-05 -1.76295e-05
3.33949e-06 -2.30321e-05 -1.70292e-05
-2.05392e-06 -1.83201e-05 -1.5951e-05
4.0591e-06 2.37916e-05 -1.71305e-05
2.26144e-05 8.37935e-06 -1.71194e-05
4.61365e-06 1.73135e-05 -1.57274e-05
1.44271e-05 -1.31196e-05 -1.61375e-05
-1.57878e-05 -1.09848e-05 -1.62147e-05
-1.67999e-05 -3.81432e-07 -1.53775e-05
1.73061e-05 4.68753e-06 -1.57258e-05
6.55224e-08 -6.38737e-06 -1.02675e-05
1.74173e-06 -4.8485e-06 -9.09257e-06
5.85051e-06 -2.93554e-06 -1.03783e-05
-2.14444e-05 3.75055e-06 -1.6459e-05
5.72941e-06 -1.62746e-05 -1.55078e-05
9.08354e-06 -1.74992e-05 -1.59976e-05
1.75723e-05 1.18818e-05 -1.66724e-05
1.39944e-05 -1.63824e-05 -1.64013e-05
1.07401e-05 -1.37891e-05 -1.55502e-05
-3.548e-06 -4.22023e-06 -9.50084e-06
5.39916e-06 1.13851e-06 -9.49913e-06
5.21809e-06 3.2229e-06 -1.00473e-05
-1.74979e-06 -2.83547e-05 -1.7877e-05
1.89207e-06 5.29893e-06 -9.58453e-06
-1.13824e-07 6.10505e-06 -1.00388e-05
-3.78495e-06 4.12777e-06 -9.57848e-06
-5.62272e-06 3.03421e-06 -1.02853e-05
-5.16551e-06 1.04068e-06 -9.21369e-06
-7.5273e-06 -6.17397e-08 -1.11725e-05
-4.3344e-06 -8.10284e-07 -8.38192e-06
-3.10861e-06 1.87235e-06 -7.37412e-06
-2.20813e-05 -3.60779e-06 -1.65159e-05
2.34064e-05 -1.56881e-05 -1.78362e-05
-1.50721e-06 2.11681e-05 -1.66821e-05
2.12618e-05 -8.45204e-08 -1.62259e-05
1.76222e-05 -1.64681e-06 -1.55815e-05
1.73478e-05 -4.94171e-06 -1.57708e-05
2.18917e-05 -7.45118e-06 -1.69137e-05
-2.31824e-05 -1.42547e-05 -1.78328e-05
1.73248e-05 1.64888e-06 -1.55086e-05
-1.734e-06 2.84733e-05 -1.78942e-05
-4.22075e-07 3.68344e-06 -7.49536e-06
2.37721e-05 1.57424e-05 -1.78847e-05
-1.74975e-05 1.56424e-05 -1.6975e-05
-1.06263e-05 -1.84663e-05 -1.62552e-05
-1.00996e-05 -1.43424e-05 -1.55718e-05
-7.50783e-06 -1.6095e-05 -1.56222e-05
-7.32218e-06 -2.01207e-05 -1.63954e-05
-1.07045e-05 1.85354e-05 -1.62669e-05
-1.03474e-05 1.43842e-05 -1.56195e-05
-7.7727e-06 2.04926e-05 -1.64443e-05
-4.25303e-06 1.86098e-05 -1.60531e-05
1.07598e-05 1.83456e-05 -1.62263e-05
1.38918e-05 1.6935e-05 -1.64311e-05
1.40421e-05 1.2973e-05 -1.60514e-05
-7.36164e-06 1.62884e-05 -1.56386e-05
1.05252e-05 1.45471e-05 -1.56453e-05
7.74882e-06 1.60924e-05 -1.5614e-05
-3.11649e-06 -1.89878e-06 -7.39325e-06
-7.25771e-06 -1.24221e-05 -1.46253e-05
3.00868e-06 4.03605e-08 -6.60104e-06
4.87262e-06 1.35229e-05 -1.46182e-05
1.40761e-05 -2.26041e-06 -1.45706e-05
-1.72899e-05 -1.52168e-05 -1.69456e-05
-1.73666e-05 2.42033e-06 -1.55979e-05
-1.22048e-05 8.91202e-06 -1.49436e-05
-7.7057e-06 -2.29254e-06 -1.15548e-05
-1.24499e-05 1.18127e-05 -1.55401e-05
-1.42737e-07 -3.75426e-06 -7.55425e-06
2.73025e-06 2.2721e-06 -7.252e-06
-2.00388e-06 -1.46506e-05 -1.48082e-05
9.36518e-06 -1.00683e-05 -1.43895e-05
1.38609e-05 3.15784e-06 -1.45662e-05
-7.34011e-06 1.11995e-05 -1.42604e-05
4.99727e-06 -1.27749e-05 -1.43694e-05
1.1032e-05 1.04306e-05 -1.49198e-05
-3.59648e-06 1.46854e-05 -1.49082e-05
-4.63551e-06 -1.6617e-05 -1.5549e-05
-1.95073e-05 1.28926e-05 -1.71614e-05
-2.31271e-05 1.48583e-05 -1.78436e-05
-1.29051e-05 -1.26862e-05 -1.58127e-05
3.76083e-06 -1.58614e-06 -7.90703e-06
1.76441e-06 2.92231e-06 -7.08451e-06
-9.23058e-06 -1.06096e-05 -1.45319e-05
1.72776e-06 -2.82318e-06 -6.93114e-06
9.94738e-07 2.41171e-05 -1.73086e-05
2.13682e-05 1.1194e-05 -1.72988e-05
-1.46648e-05 -7.95347e-06 -1.54855e-05
1.37082e-05 -4.78637e-06 -1.46908e-05
-1.9099e-06 -2.17632e-05 -1.68029e-05
1.80606e-05 -8.41916e-06 -1.63409e-05
-1.66791e-05 -6.32864e-06 -1.57826e-05
-4.32904e-07 -1.92234e-06 -4.79853e-06
-1.80539e-06 2.99547e-06 -7.17726e-06
-2.50523e-05 -1.29819e-05 -1.79224e-05
-2.51275e-05 -1.45074e-05 -1.80023e-05
-2.50454e-05 1.30338e-05 -1.79062e-05
-2.51183e-05 1.46501e-05 -1.79823e-05
-1.64847e-06 -3.12488e-06 -7.20999e-06
6.32802e-06 1.13685e-05 -1.40767e-05
5.33714e-07 -2.40864e-05 -1.73024e-05
-5.22783e-07 1.80956e-06 -4.64506e-06
7.40755e-06 -1.43438e-05 -1.51525e-05
2.33031e-05 -1.32095e-05 -1.7729e-05
2.3633e-05 -1.05377e-05 -1.7491e-05
1.19886e-05 -1.82112e-05 -1.62935e-05
1.47303e-05 -1.01468e-05 -1.57958e-05
-1.00272e-05 1.00126e-06 -1.27548e-05
-1.74003e-06 -8.1591e-07 -4.72351e-06
7.69072e-07 3.70839e-06 -7.57324e-06
2.3431e-06 -1.99718e-06 -6.55537e-06
2.01568e-05 5.8979e-06 -1.64538e-05
5.07015e-06 2.05962e-05 -1.64962e-05
3.42118e-07 -2.76803e-05 -1.78542e-05
-1.73124e-06 7.09118e-07 -4.60638e-06
-3.21154e-06 6.23054e-07 -6.82422e-06
3.57725e-06 1.47543e-06 -7.63671e-06
4.99227e-07 2.83241e-05 -1.79274e-05
2.47606e-05 1.37342e-05 -1.79186e-05
-2.03286e-05 1.5536e-05 -1.74292e-05
1.17872e-06 1.36449e-06 -4.45991e-06
-2.06399e-05 -1.57286e-05 -1.75278e-05
-1.89991e-05 -2.32221e-06 -1.59464e-05
-1.95594e-05 -5.58506e-06 -1.63324e-05
9.05692e-07 -3.24779e-06 -7.00619e-06
-4.36608e-06 -1.97895e-05 -1.6322e-05
-7.93738e-06 1.38346e-05 -1.51013e-05
1.16576e-06 -1.3042e-06 -4.33935e-06
1.19346e-05 -1.12285e-05 -1.52924e-05
6.13313e-06 -2.26964e-05 -1.68207e-05
-1.45223e-05 1.43555e-05 -1.63238e-05
7.92918e-06 1.33214e-05 -1.49482e-05
SCALARS effective_fluid_pressure_TPM float
LOOKUP_TABLE default
665
665
665
665
665
665
665
665
665
665
665
665
665
665
133
665
665
665
665
665
665
665
665
665
665
665
665
665
665
133
665
560.322
520.667
502.809
502.579
519.794
559.942
665
561.988
520.762
503.251
503.361
520.694
561.61
665
559.609
519.665
502.753
502.971
521.163
561.626
665
558.865
519.009
501.542
502.238
518.858
559.454
665
558.505
519.949
501.874
501.806
519.382
557.945
665
558.661
519.963
502.047
501.908
519.37
559.668
133
133
133
133
133
133
665
560.322
520.667
502.809
502.579
519.794
559.942
665
561.988
520.762
503.251
503.361
520.694
561.61
665
559.609
519.665
502.753
502.971
521.163
561.626
665
558.865
519.009
501.542
502.238
518.858
559.454
665
558.505
519.949
501.874
501.806
519.382
557.945
665
558.661
519.963
502.047
501.908
519.37
559.668
133
133
133
133
133
133
228.258
226.328
227.041
224.11
225.525
219.847
220.863
529.167
528.177
526.556
527.935
526.583
527.637
498.704
503.551
501.589
498.945
501.461
501.243
494.325
562.504
518.981
495.028
480.735
461.355
443.275
425.043
402.116
427.267
385.262
417.735
379.609
417.898
385.947
427.384
404.294
444.378
429.073
450.255
386.556
419.298
380.204
418.31
386.186
427.757
404.222
444.489
428.157
450.851
386.031
418.161
379.62
418.517
385.554
427.593
402.916
443.551
426.448
384.047
416.134
376.303
415.341
383.02
424.414
400.842
441.7
425.222
382.756
417.774
376.568
418.092
383.841
425.262
402.209
442.673
450.645
426.722
446.003
380.729
444.669
465.284
448.736
464.758
453.406
350.904
463.499
461.031
478.438
462.767
460.637
478.343
337.278
480.814
505.846
503.606
480.88
506.153
337.691
337.502
326.166
334.416
563.379
519.657
567.58
562.366
567.898
567.751
521.805
542.716
498.618
513.73
542.061
451.448
477.565
414.652
579.521
611.029
579.674
576.034
534.551
494.468
538.225
537.921
485.025
498.104
503.323
473.127
485.073
352.748
326.416
355.178
503.433
477.704
488.347
520.874
502.015
477.902
335.542
335.405
347.7
613.447
337.379
347.572
337.266
353.204
329.19
373.255
310.661
288.789
504.698
608.382
521.095
493.709
478.314
486.342
526.489
600.341
476.551
615.9
291.397
615.799
528.718
494.52
478.221
479.395
501.302
494.827
479.422
502.498
495.161
493.731
502.25
495.235
479.869
480.035
479.037
289.295
454.577
271.943
454.985
453.614
526.998
479.458
465.208
382.098
480.494
292.67
286.082
461.464
449.618
453.962
445.84
448.674
463.589
463.246
479.938
543.456
601.703
487.478
300.302
282.462
452.998
279.163
552.239
551.998
480.76
458.003
526.221
508.173
488.575
233.73
284.559
614.507
636.322
615.141
636.679
285.28
441.325
553.079
230.486
467.537
590.264
566.032
495.8
490.034
410.03
232.119
293.096
271.126
507.881
509.179
607.815
229.663
276.977
294.431
618.879
618.792
558.513
226.522
562.525
488.298
503.381
280.847
504.051
466.363
224.007
473.57
519.566
502.966
462.429
228.258
226.328
227.041
224.11
225.525
219.847
220.863
529.167
528.177
526.556
527.935
526.583
527.637
498.704
503.551
501.589
498.945
501.461
501.243
494.325
562.504
518.981
495.028
480.735
461.355
443.275
425.043
402.116
427.267
385.262
417.735
379.609
417.898
385.947
427.384
404.294
444.378
429.073
450.255
386.556
419.298
380.204
418.31
386.186
427.757
404.222
444.489
428.157
450.851
386.031
418.161
379.62
418.517
385.554
427.593
402.916
443.551
426.448
384.047
416.134
376.303
415.341
383.02
424.414
400.842
441.7
425.222
382.756
417.774
376.568
418.092
383.841
425.262
402.209
442.673
450.645
426.722
446.003
380.729
444.669
465.284
448.736
464.758
453.406
350.904
463.499
461.031
478.438
462.767
460.637
478.343
337.278
480.814
505.846
503.606
480.88
506.153
337.691
337.502
326.166
334.416
563.379
519.657
567.58
562.366
567.898
567.751
521.805
542.716
498.618
513.73
542.061
451.448
477.565
414.652
579.521
611.029
579.674
576.034
534.551
494.468
538.225
537.921
485.025
498.104
503.323
473.127
485.073
352.748
326.416
355.178
503.433
477.704
488.347
520.874
502.015
477.902
335.542
335.405
347.7
613.447
337.379
347.572
337.266
353.204
329.19
373.255
310.661
288.789
504.698
608.382
521.095
493.709
478.314
486.342
526.489
600.341
476.551
615.9
291.397
615.799
528.718
494.52
478.221
479.395
501.302
494.827
479.422
502.498
495.161
493.731
502.25
495.235
479.869
480.035
479.037
289.295
454.577
271.943
454.985
453.614
526.998
479.458
465.208
382.098
480.494
292.67
286.082
461.464
449.618
453.962
445.84
448.674
463.589
463.246
479.938
543.456
601.703
487.478
300.302
282.462
452.998
279.163
552.239
551.998
480.76
458.003
526.221
508.173
488.575
233.73
284.559
614.507
636.322
615.141
636.679
285.28
441.325
553.079
230.486
467.537
590.264
566.032
495.8
490.034
410.03
232.119
293.096
271.126
507.881
509.179
607.815
229.663
276.977
294.431
618.879
618.792
558.513
226.522
562.525
488.298
503.381
280.847
504.051
466.363
224.007
473.57
519.566
502.966
462.429

CELL_DATA 563
TENSORS stress float
164.612 -24.9206 4.358e-13
-24.9206 28.1491 9.79365e-13
4.358e-13 9.79365e-13 -12.6037

-40.3387 -21.3203 -1.61278e-13
-21.3203 -7.35474 1.86754e-12
-1.61278e-13 1.86754e-12 -10.2321

-9.94039 28.0437 8.72783e-12
28.0437 -1.11056 1.12917e-12
8.72783e-12 1.12917e-12 -6.36065

-40.4268 -29.8426 -3.56544e-12
-29.8426 -12.8459 -1.27542e-12
-3.56544e-12 -1.27542e-12 -10.5984

-22.6922 19.9309 -2.3892e-13
19.9309 -1.92326 4.26585e-12
-2.3892e-13 4.26585e-12 -23.0212

-27.14 -18.0747 -4.61779e-12
-18.0747 15.8879 -4.2828e-12
-4.61779e-12 -4.2828e-12 -6.41143

161.264 26.4847 1.42109e-13
26.4847 28.0258 3.23652e-12
1.42109e-13 3.23652e-12 -13.2626

-5.96168 29.9581 -4.36569e-12
29.9581 -10.1122 -1.43648e-12
-4.36569e-12 -1.43648e-12 -7.27661

34.6314 5.48321 1.40569e-12
5.48321 -19.0954 1.50239e-12
1.40569e-12 1.50239e-12 -4.12247

11.8602 -7.47758 2.5017e-12
-7.47758 -48.2873 4.50306e-13
2.5017e-12 4.50306e-13 -8.94733

104.195 16.3088 1.72188e-12
16.3088 -8.44356 -8.38914e-12
1.72188e-12 -8.38914e-12 -22.4542

-34.6379 -13.4534 9.21781e-13
-13.4534 18.9657 -1.17654e-12
9.21781e-13 -1.17654e-12 -7.18088

-6.02628 27.8335 1.2997e-12
27.8335 -4.5916 2.04932e-12
1.2997e-12 2.04932e-12 -6.1595

-35.5521 -14.3402 -1.12592e-12
-14.3402 7.84499 -9.87654e-13
-1.12592e-12 -9.87654e-13 -9.13164

-23.6537 33.3109 2.90967e-12
33.3109 -24.9939 1.50216e-12
2.90967e-12 1.50216e-12 -21.3649

21.3109 0.560994 6.32383e-13
0.560994 -32.3389 3.22214e-12
6.32383e-13 3.22214e-12 -5.59001

-48.9597 -17.9691 -1.09009e-12
-17.9691 6.34282 1.04539e-12
-1.09009e-12 1.04539e-12 -12.9463

11.6601 -2.6652 2.09906e-13
-2.6652 -43.2493 1.44248e-12
2.09906e-13 1.44248e-12 -8.03391

-11.3503 26.6742 -5.62187e-12
26.6742 19.5173 -1.89419e-12
-5.62187e-12 -1.89419e-12 -6.08981

21.7656 -4.19566 -3.10211e-12
-4.19566 -35.2952 -3.3471e-12
-3.10211e-12 -3.3471e-12 -6.74165

-24.4797 8.66879 2.77289e-12
8.66879 32.1276 1.65793e-12
2.77289e-12 1.65793e-12 -4.93461

-11.8087 6.28733 8.83475e-12
6.28733 -11.9732 5.37052e-12
8.83475e-12 5.37052e-12 -75.6177

22.7433 1.876 -3.97845e-12
1.876 -33.4696 1.58836e-12
-3.97845e-12 1.58836e-12 -6.67762

-12.3884 -27.7156 1.1345e-12
-27.7156 1.59947 1.51523e-12
1.1345e-12 1.51523e-12 -6.6031

21.3044 6.84948 1.5099e-12
6.84948 -34.3047 1.33005e-12
1.5099e-12 1.33005e-12 -6.80687

-37.9056 19.113 -1.24952e-12
19.113 2.65391 -1.24819e-12
-1.24952e-12 -1.24819e-12 -9.45797

106.604 4.18146 -3.66403e-12
4.18146 20.6028 4.11996e-12
-3.66403e-12 4.11996e-12 -12.0491

-5.30208 30.7462 2.28558e-13
30.7462 -7.2726 4.8382e-12
2.28558e-13 4.8382e-12 -7.44192

27.89 37.0751 -2.54256e-12
37.0751 26.4692 -1.64727e-12
-2.54256e-12 -1.64727e-12 -8.63245

-9.43912 10.3235 1.50546e-12
10.3235 -32.9292 3.69882e-12
1.50546e-12 3.69882e-12 -49.5073

19.8307 14.217 1.9836e-12
14.217 -29.3596 1.91136e-12
1.9836e-12 1.91136e-12 -6.00124

-4.21079 -17.7807 -3.01092e-13
-17.7807 59.6582 3.83812e-12
-3.01092e-13 3.83812e-12 -8.47635

66.2839 -42.1023 4.59247e-12
-42.1023 71.1392 -7.60281e-13
4.59247e-12 -7.60281e-13 -11.2518

-48.2096 5.98648 -2.66499e-12
5.98648 7.26948 5.18104e-12
-2.66499e-12 5.18104e-12 -41.0365

-26.291 -4.84027 9.99793e-13
-4.84027 1.75669 -1.24493e-12
9.99793e-13 -1.24493e-12 -37.8015

-1.467 21.0278 4.07467e-12
21.0278 -39.5059 7.6561e-13
4.07467e-12 7.6561e-13 -41.1024

-43.975 5.06709 1.27542e-12
5.06709 0.514186 -4.1996e-12
1.27542e-12 -4.1996e-12 -52.1895

-2.76032 -9.17014 8.2867e-13
-9.17014 -20.7695 -9.23891e-13
8.2867e-13 -9.23891e-13 -35.896

-3.97451 -27.9985 1.0066e-13
-27.9985 -4.61063 -2.49874e-13
1.0066e-13 -2.49874e-13 -5.99484

65.5977 41.5216 -1.85925e-12
41.5216 73.1669 -2.77822e-12
-1.85925e-12 -2.77822e-12 -10.9636

60.1557 -17.9494 -6.15922e-12
-17.9494 0.116506 4.6428e-12
-6.15922e-12 4.6428e-12 -8.0503

-41.8028 -3.7057 -4.89075e-12
-3.7057 -1.18566 1.12873e-12
-4.89075e-12 1.12873e-12 -52.7243

-14.5934 19.5549 2.38676e-12
19.5549 -28.5512 -1.43352e-12
2.38676e-12 -1.43352e-12 -52.8325

18.1411 -12.2733 -5.12479e-12
-12.2733 -29.8995 -1.89093e-12
-5.12479e-12 -1.89093e-12 -6.22342

38.1734 -43.2997 -1.86754e-12
-43.2997 41.8014 2.88125e-12
-1.86754e-12 2.88125e-12 -14.5591

58.1443 -18.0637 -1.81544e-12
-18.0637 -2.30326 2.10025e-12
-1.81544e-12 2.10025e-12 -7.91392

-21.4425 17.086 3.5915e-12
17.086 30.3272 -4.22891e-12
3.5915e-12 -4.22891e-12 -5.72872

-11.3731 19.3393 -3.50742e-12
19.3393 25.5106 -3.24422e-12
-3.50742e-12 -3.24422e-12 -3.9221

20.7911 -16.3012 1.6532e-12
-16.3012 -33.1149 2.81775e-12
1.6532e-12 2.81775e-12 -7.31205

12.615 -34.186 2.70243e-12
-34.186 46.4358 -1.92202e-12
2.70243e-12 -1.92202e-12 -10.3975

62.3605 19.1821 -5.05551e-12
19.1821 2.80986 -3.0127e-12
-5.05551e-12 -3.0127e-12 -8.4142

46.5137 -25.2888 -8.92915e-13
-25.2888 5.13364 -2.36996e-12
-8.92915e-13 -2.36996e-12 -5.61033

-31.8959 19.4853 4.67774e-13
19.4853 -4.28536 3.10566e-13
4.67774e-13 3.10566e-13 -26.0852

37.0391 29.6498 4.11996e-12
29.6498 14.5124 -6.61989e-13
4.11996e-12 -6.61989e-13 -5.43275

-27.4495 -21.8128 -1.6905e-13
-21.8128 -8.22882 7.4694e-13
-1.6905e-13 7.4694e-13 -25.2475

64.8691 -42.7118 -1.60109e-12
-42.7118 44.0803 -1.56083e-12
-1.60109e-12 -1.56083e-12 -9.50214

-27.7494 5.45926 -3.9333e-12
5.45926 2.66926 2.42177e-12
-3.9333e-12 2.42177e-12 -38.3071

-5.55834 -5.32988 -5.06528e-12
-5.32988 57.3884 2.08426e-12
-5.06528e-12 2.08426e-12 -5.44979

-0.200527 10.3843 -2.4043e-12
10.3843 -24.8476 8.69915e-13
-2.4043e-12 8.69915e-13 -38.3687

-26.4857 21.4133 -2.52983e-12
21.4133 12.2195 -1.87643e-12
-2.52983e-12 -1.87643e-12 -6.87006

4.72625 5.75406 1.10608e-12
5.75406 -56.04 3.44406e-12
1.10608e-12 3.44406e-12 -13.981

0.539936 11.4589 3.30994e-13
11.4589 -34.0567 -9.50351e-13
3.30994e-13 -9.50351e-13 -14.8398

106.345 31.8202 3.54324e-12
31.8202 37.8331 -2.54374e-12
3.54324e-12 -2.54374e-12 -7.48952

-35.492 -6.03534 -1.54055e-12
-6.03534 10.6012 -4.07852e-12
-1.54055e-12 -4.07852e-12 -13.479

-35.3601 9.51987 -1.82373e-13
9.51987 1.23369 -3.33807e-12
-1.82373e-13 -3.33807e-12 -14.96

-42.588 -2.88094 -2.09858e-12
-2.88094 21.1108 -5.47118e-13
-2.09858e-12 -5.47118e-13 -11.239

-44.908 23.4019 -1.35125e-12
23.4019 -5.89262 -3.44199e-12
-1.35125e-12 -3.44199e-12 -13.922

9.97102 8.46363 -4.16348e-12
8.46363 -42.3784 2.25005e-13
-4.16348e-12 2.25005e-13 -9.0782

-12.3348 -28.2397 5.32907e-13
-28.2397 1.68709 -7.18832e-13
5.32907e-13 -7.18832e-13 -6.67427

1.30885 -1.71129 7.46662e-13
-1.71129 -55.4564 -3.42023e-13
7.46662e-13 -3.42023e-13 -11.3043

-31.8854 -19.2614 -2.68008e-12
-19.2614 -4.59471 2.60651e-12
-2.68008e-12 2.60651e-12 -25.9545

-27.975 21.3078 2.2086e-12
21.3078 -8.35863 2.08332e-12
2.2086e-12 2.08332e-12 -26.0129

-0.652242 -16.5837 4.45569e-12
-16.5837 61.6741 7.10543e-13
4.45569e-12 7.10543e-13 -7.94914

-0.650172 -27.9362 2.63197e-12
-27.9362 -21.3613 -4.305e-12
2.63197e-12 -4.305e-12 -12.7911

-14.0934 -25.1349 -2.35071e-12
-25.1349 7.40673 -4.60076e-13
-2.35071e-12 -4.60076e-13 -5.23632

91.6789 -31.711 -2.49164e-12
-31.711 19.485 7.49919e-12
-2.49164e-12 7.49919e-12 -16.333

-33.7064 3.22271 3.75603e-12
3.22271 9.19953 -1.48267e-12
3.75603e-12 -1.48267e-12 -18.5633

2.75192 28.9441 -1.65616e-12
28.9441 -24.4248 -2.94905e-12
-1.65616e-12 -2.94905e-12 -11.3167

-38.4339 19.6643 -3.15718e-12
19.6643 5.22966 1.61885e-12
-3.15718e-12 1.61885e-12 -9.23546

50.1909 7.99965 -1.42109e-13
7.99965 -16.9645 -2.06946e-13
-1.42109e-13 -2.06946e-13 -7.06722

60.0319 -33.936 -2.58045e-12
-33.936 33.7869 2.20268e-12
-2.58045e-12 2.20268e-12 -6.98381

-18.9604 -10.5874 6.40169e-12
-10.5874 -0.541506 1.63425e-12
6.40169e-12 1.63425e-12 -25.4308

-33.926 23.8996 -5.76132e-13
23.8996 -12.0234 -2.35455e-13
-5.76132e-13 -2.35455e-13 -14.5404

58.1567 -32.3843 -6.00409e-13
-32.3843 18.0912 -3.98614e-12
-6.00409e-13 -3.98614e-12 -10.1339

66.8602 10.7912 -2.84809e-12
10.7912 8.51287 7.28306e-14
-2.84809e-12 7.28306e-14 -5.08458

7.67389 -21.2063 -4.89682e-12
-21.2063 88.4654 -5.06854e-13
-4.89682e-12 -5.06854e-13 -11.8623

-33.9864 14.4258 2.7911e-12
14.4258 20.2383 1.12029e-12
2.7911e-12 1.12029e-12 -7.54675

8.47532 23.1433 2.72316e-12
23.1433 -26.0741 5.01584e-12
2.72316e-12 5.01584e-12 -11.2993

34.8689 42.1992 -2.18018e-12
42.1992 46.1996 1.88649e-12
-2.18018e-12 1.88649e-12 -14.4206

-4.39441 16.5067 -1.2002e-11
16.5067 -35.5408 3.75048e-12
-1.2002e-11 3.75048e-12 -73.2846

-5.98045 -4.10842 2.81641e-12
-4.10842 57.9488 2.19676e-12
2.81641e-12 2.19676e-12 -5.44199

-1.81891 -16.6319 7.76956e-12
-16.6319 -39.4008 -4.1056e-12
7.76956e-12 -4.1056e-12 -74.1078

-3.32966 -27.3349 1.52885e-12
-27.3349 -30.0297 2.23984e-12
1.52885e-12 2.23984e-12 -21.554

8.96699 27.4247 2.45433e-12
27.4247 -29.9952 1.78169e-12
2.45433e-12 1.78169e-12 -11.2573

45.7115 -24.4109 -4.09865e-12
-24.4109 5.02395 -2.32703e-12
-4.09865e-12 -2.32703e-12 -5.2364

10.095 31.3237 -7.28306e-14
31.3237 47.1635 2.11031e-12
-7.28306e-14 2.11031e-12 -9.6406

14.2722 -10.7052 1.92675e-12
-10.7052 82.8396 -3.21165e-12
1.92675e-12 -3.21165e-12 -6.44711

-38.6331 21.9708 1.14693e-12
21.9708 2.94147 1.83853e-12
1.14693e-12 1.83853e-12 -8.56935

1.19279 16.7943 -1.06256e-12
16.7943 -25.7224 8.50579e-13
-1.06256e-12 8.50579e-13 -18.5675

-26.5382 15.1541 -5.11798e-12
15.1541 18.4493 7.31859e-13
-5.11798e-12 7.31859e-13 -5.70835

43.659 15.954 9.14232e-13
15.954 -7.28559 9.40729e-13
9.14232e-13 9.40729e-13 -4.07549

12.5767 -21.4728 2.78947e-12
-21.4728 57.956 -2.69414e-12
2.78947e-12 -2.69414e-12 -4.71424

65.997 -29.391 -1.54898e-12
-29.391 18.6435 7.1078e-12
-1.54898e-12 7.1078e-12 -9.33537

-32.3813 -24.5732 -3.40113e-12
-24.5732 -7.28182 -2.17308e-12
-3.40113e-12 -2.17308e-12 -8.97666

-22.6672 27.4512 -5.78796e-13
27.4512 -10.3505 -3.66818e-13
-5.78796e-13 -3.66818e-13 -9.28424

-38.3513 23.1877 8.30595e-13
23.1877 1.991 -2.20683e-12
8.30595e-13 -2.20683e-12 -8.52525

-51.5534 13.1691 -1.25215e-13
13.1691 11.9267 -1.0818e-12
-1.25215e-13 -1.0818e-12 -16.4664

23.4847 9.37232 -4.79261e-12
9.37232 -29.4883 -2.02268e-12
-4.79261e-12 -2.02268e-12 -5.32187

3.76831 -4.66511 -8.80185e-13
-4.66511 79.4388 8.20677e-12
-8.80185e-13 8.20677e-12 -9.5315

-44.9396 -36.8329 -3.28626e-12
-36.8329 -19.8288 1.5136e-13
-3.28626e-12 1.5136e-13 -14.7708

-16.0799 27.4656 -5.98336e-13
27.4656 1.3408 -3.34547e-13
-5.98336e-13 -3.34547e-13 -6.91507

-5.01568 2.17034 1.53951e-13
2.17034 82.6744 -1.79767e-12
1.53951e-13 -1.79767e-12 -13.4312

69.046 34.6108 1.34529e-12
34.6108 15.4966 -3.49528e-12
1.34529e-12 -3.49528e-12 -10.706

-31.3521 -22.9741 9.87802e-13
-22.9741 -4.63259 -1.08861e-12
9.87802e-13 -1.08861e-12 -8.53021

11.743 5.73296 1.06285e-13
5.73296 -48.3361 -3.71037e-12
1.06285e-13 -3.71037e-12 -8.64165

43.0659 27.2044 2.80783e-12
27.2044 10.4517 -2.42946e-12
2.80783e-12 -2.42946e-12 -5.08112

-9.41433 12.7453 3.65352e-12
12.7453 -14.0394 1.34233e-12
3.65352e-12 1.34233e-12 -37.0396

70.3351 24.3308 1.91847e-13
24.3308 23.8049 -1.54484e-12
1.91847e-13 -1.54484e-12 -6.79959

-10.5855 -13.0549 -8.69083e-13
-13.0549 -13.9212 4.32247e-13
-8.69083e-13 4.32247e-13 -37.3773

-4.38006 0.778555 2.35219e-13
0.778555 59.3985 4.93827e-13
2.35219e-13 4.93827e-13 -4.83097

38.3571 -2.23535 -3.14415e-12
-2.23535 -23.8114 -7.40889e-13
-3.14415e-12 -7.40889e-13 -5.83275

3.59359 -15.7677 5.80721e-13
-15.7677 -53.9707 2.04251e-12
5.80721e-13 2.04251e-12 -21.1241

-42.2772 24.3882 7.19089e-13
24.3882 -11.737 -1.15804e-12
7.19089e-13 -1.15804e-12 -11.1679

-46.8124 -13.5351 -1.33823e-12
-13.5351 11.0672 1.09424e-12
-1.33823e-12 1.09424e-12 -12.354

5.81006 -7.99987 -1.09631e-12
-7.99987 -70.9671 2.87651e-12
-1.09631e-12 2.87651e-12 -14.8821

-49.539 -22.2837 -1.42597e-12
-22.2837 3.74824 -1.90485e-12
-1.42597e-12 -1.90485e-12 -22.104

-17.4591 -6.59688 1.66385e-12
-6.59688 -13.1157 -1.88679e-12
1.66385e-12 -1.88679e-12 -34.7806

-28.7298 -29.9082 -1.64402e-12
-29.9082 -9.39991 1.77636e-13
-1.64402e-12 1.77636e-13 -8.99636

15.6933 11.4538 1.8782e-12
11.4538 80.181 -7.43701e-13
1.8782e-12 -7.43701e-13 -6.53077

42.2902 -28.1469 1.89123e-12
-28.1469 11.0506 2.57276e-12
1.89123e-12 2.57276e-12 -5.04437

-47.1704 -13.7719 -1.87443e-12
-13.7719 4.19617 1.39207e-12
-1.87443e-12 1.39207e-12 -29.3001

2.96479 0.504537 -3.42304e-12
0.504537 -56.8121 -3.37345e-12
-3.42304e-12 -3.37345e-12 -11.0056

-39.3367 -21.5244 -2.29431e-12
-21.5244 -8.85718 1.71655e-12
-2.29431e-12 1.71655e-12 -14.7744

-40.195 25.6978 1.26269e-12
25.6978 -14.6916 -2.98354e-13
1.26269e-12 -2.98354e-13 -11.3112

32.2605 -31.4648 -6.8899e-12
-31.4648 38.4295 2.28439e-12
-6.8899e-12 2.28439e-12 -4.64842

-31.4686 -7.08458 -5.26246e-13
-7.08458 1.70057 6.21458e-12
-5.26246e-13 6.21458e-12 -40.9915

36.6301 -33.0771 2.70717e-12
-33.0771 72.0279 -4.49063e-12
2.70717e-12 -4.49063e-12 -7.14476

16.6127 -19.1798 -3.84877e-14
-19.1798 -25.8703 1.6757e-13
-3.84877e-14 1.6757e-13 -7.13364

1.50253 1.97049 -2.22822e-12
1.97049 -51.3915 4.26622e-13
-2.22822e-12 4.26622e-13 -15.3744

-12.8754 17.8749 3.83042e-12
17.8749 -16.9551 -1.10549e-12
3.83042e-12 -1.10549e-12 -41.0591

10.7128 20.1831 -2.24828e-12
20.1831 59.4545 1.85452e-12
-2.24828e-12 1.85452e-12 -4.3569

4.31814 27.2107 3.53613e-12
27.2107 -16.2238 9.71667e-13
3.53613e-12 9.71667e-13 -8.12454

30.9046 -24.5118 -2.81849e-12
-24.5118 -8.13282 2.88362e-12
-2.81849e-12 2.88362e-12 -4.87259

-37.7878 -17.8386 -9.30589e-13
-17.8386 2.40084 1.9836e-13
-9.30589e-13 1.9836e-13 -9.86478

55.514 35.0686 -8.26006e-12
35.0686 42.3456 -1.64135e-12
-8.26006e-12 -1.64135e-12 -6.63637

-40.0152 -21.8311 4.20849e-13
-21.8311 2.53682 8.97948e-13
4.20849e-13 8.97948e-13 -9.3943

2.96641 30.8506 2.6373e-12
30.8506 -17.3887 4.39796e-12
2.6373e-12 4.39796e-12 -9.07858

18.5373 -25.2442 -3.381e-13
-25.2442 -19.4184 5.68434e-14
-3.381e-13 5.68434e-14 -6.34287

-15.654 -25.1266 2.69533e-12
-25.1266 5.89555 1.10726e-12
2.69533e-12 1.10726e-12 -5.77595

42.7185 -18.6883 -1.12029e-12
-18.6883 -9.16635 -5.65178e-12
-1.12029e-12 -5.65178e-12 -5.36949

27.4319 -18.8498 9.60417e-13
-18.8498 -20.369 3.67114e-13
9.60417e-13 3.67114e-13 -5.69018

-41.3939 -25.3371 -2.72123e-12
-25.3371 -14.9641 2.96171e-13
-2.72123e-12 2.96171e-13 -11.5674

29.7809 35.9697 1.90544e-12
35.9697 25.227 2.66927e-12
1.90544e-12 2.66927e-12 -8.64456

-28.5185 15.3769 8.63013e-14
15.3769 18.5188 1.87702e-12
8.63013e-14 1.87702e-12 -5.87435

-23.1082 26.4224 -1.19608e-12
26.4224 -12.547 1.3974e-13
-1.19608e-12 1.3974e-13 -9.95841

-42.0967 25.4736 1.30589e-12
25.4736 -11.5925 1.25825e-14
1.30589e-12 1.25825e-14 -10.9931

-37.2887 11.6216 9.77644e-13
11.6216 11.8441 -1.00897e-12
9.77644e-13 -1.00897e-12 -9.08077

64.3935 -8.22707 4.14483e-13
-8.22707 3.19727 1.23013e-12
4.14483e-13 1.23013e-12 -4.25103

8.73356 18.6066 -7.10543e-13
18.6066 59.2203 3.75877e-12
-7.10543e-13 3.75877e-12 -4.16251

-25.6149 -24.3806 -3.49913e-12
-24.3806 0.458356 -2.3516e-12
-3.49913e-12 -2.3516e-12 -7.21597

-1.14192 25.6661 -4.57767e-12
25.6661 13.7523 -8.941e-14
-4.57767e-12 -8.941e-14 -4.08306

32.3787 -35.6296 2.68348e-12
-35.6296 21.7 9.4739e-14
2.68348e-12 9.4739e-14 -8.48628

59.5366 38.3169 -4.32602e-12
38.3169 17.8477 4.95248e-12
-4.32602e-12 4.95248e-12 -13.7223

12.1249 -33.3113 -3.05415e-12
-33.3113 42.9135 -2.44545e-12
-3.05415e-12 -2.44545e-12 -9.54289

30.5513 -31.1598 -3.51363e-12
-31.1598 36.8136 -1.18542e-12
-3.51363e-12 -1.18542e-12 -4.40561

11.7689 -6.83864 3.39521e-12
-6.83864 -48.8381 1.91506e-12
3.39521e-12 1.91506e-12 -8.77047

25.2744 30.342 1.74201e-12
30.342 41.0891 1.10726e-12
1.74201e-12 1.10726e-12 -4.45612

62.6825 13.2948 -1.55254e-12
13.2948 5.22781 -6.33567e-13
-1.55254e-12 -6.33567e-13 -4.30562

-7.02626 13.3789 2.4268e-12
13.3789 61.3445 9.59233e-13
2.4268e-12 9.59233e-13 -8.69514

11.7294 -22.3405 -7.77452e-13
-22.3405 55.7635 3.09441e-12
-7.77452e-13 3.09441e-12 -4.30158

-47.2605 -1.09169 -1.31754e-12
-1.09169 12.4095 3.42482e-12
-1.31754e-12 3.42482e-12 -22.1618

-5.91955 2.24663 -4.66146e-12
2.24663 59.0047 -5.1313e-12
-4.66146e-12 -5.1313e-12 -5.26269

6.26838 31.0895 -2.61361e-12
31.0895 47.8654 -3.30994e-12
-2.61361e-12 -3.30994e-12 -9.66068

-39.7255 12.1079 -1.55521e-12
12.1079 12.8447 1.96761e-12
-1.55521e-12 1.96761e-12 -9.31322

40.7384 -27.6478 1.96939e-12
-27.6478 8.35729 3.07902e-12
1.96939e-12 3.07902e-12 -5.64217

7.53971 20.557 -1.83379e-12
20.557 -47.4669 2.26337e-12
-1.83379e-12 2.26337e-12 -16.4818

-3.42131 26.2704 -1.19016e-12
26.2704 -31.4864 -1.11614e-12
-1.19016e-12 -1.11614e-12 -22.2522

15.7773 -18.5678 -3.3206e-12
-18.5678 -30.0135 -4.47642e-13
-3.3206e-12 -4.47642e-13 -8.18323

4.4285 -1.80157 -2.34198e-12
-1.80157 -34.133 -1.3527e-12
-2.34198e-12 -1.3527e-12 -24.439

-14.3399 -31.8119 6.85082e-13
-31.8119 -11.9306 4.74406e-12
6.85082e-13 4.74406e-12 -9.04977

56.2186 23.328 7.69755e-14
23.328 0.816405 -3.11514e-12
7.69755e-14 -3.11514e-12 -8.28815

-27.8282 30.1621 8.17124e-14
30.1621 -9.23646 -1.48148e-12
8.17124e-14 -1.48148e-12 -8.80062

-27.0038 29.2059 2.77408e-13
29.2059 -9.20181 1.06552e-12
2.77408e-13 1.06552e-12 -8.6779

28.6286 30.6611 2.3294e-12
30.6611 40.4059 2.67519e-12
2.3294e-12 2.67519e-12 -4.44912

0.343088 27.0852 -5.1692e-13
27.0852 -19.8463 -2.4721e-12
-5.1692e-13 -2.4721e-12 -11.7772

64.5085 3.52518 -5.77908e-13
3.52518 -11.8263 6.63506e-13
-5.77908e-13 6.63506e-13 -10.0185

-14.8999 31.8172 -7.09951e-13
31.8172 -20.7988 2.12038e-12
-7.09951e-13 2.12038e-12 -12.4477

-37.9445 -12.5996 -4.73214e-12
-12.5996 8.18008 1.82313e-12
-4.73214e-12 1.82313e-12 -14.0229

-0.474963 24.2781 -1.1872e-12
24.2781 -29.9993 -5.38207e-12
-1.1872e-12 -5.38207e-12 -20.7712

-23.7276 -29.5788 4.54955e-12
-29.5788 -11.9349 -2.40075e-12
4.54955e-12 -2.40075e-12 -8.84354

-38.1487 -4.89795 4.72108e-12
-4.89795 18.8466 -1.40984e-12
4.72108e-12 -1.40984e-12 -11.7302

69.9452 -24.5565 3.99325e-12
-24.5565 18.0287 -1.48326e-12
3.99325e-12 -1.48326e-12 -7.04441

39.9822 29.6934 -4.13417e-12
29.6934 13.4792 5.3267e-12
-4.13417e-12 5.3267e-12 -5.21524

-4.2966 14.6967 -3.05385e-12
14.6967 60.5718 3.51837e-12
-3.05385e-12 3.51837e-12 -8.40106

1.61139 -1.13895 -1.65482e-12
-1.13895 -56.1235 1.10393e-12
-1.65482e-12 1.10393e-12 -11.2095

9.61414 0.00221789 2.47535e-12
0.00221789 -44.7545 1.43418e-12
2.47535e-12 1.43418e-12 -8.43828

-31.0791 23.1241 4.98461e-12
23.1241 -4.33729 6.22613e-13
4.98461e-12 6.22613e-13 -8.45873

-34.7624 23.871 -2.80783e-12
23.871 -13.1927 -5.15736e-13
-2.80783e-12 -5.15736e-13 -14.8132

-43.3788 -24.3808 2.32582e-12
-24.3808 -12.6139 -6.31347e-13
2.32582e-12 -6.31347e-13 -11.4689

-39.0595 -0.672894 5.38458e-14
-0.672894 21.0463 -1.05516e-12
5.38458e-14 -1.05516e-12 -10.4957

-40.8067 25.5905 1.70974e-13
25.5905 -13.2226 8.80777e-13
1.70974e-13 8.80777e-13 -11.1726

32.3218 -10.3081 1.86103e-12
-10.3081 -25.1543 -6.6569e-13
1.86103e-12 -6.6569e-13 -6.01457

8.70641 -32.8339 -2.53605e-12
-32.8339 22.7976 -6.83187e-12
-2.53605e-12 -6.83187e-12 -6.99232

2.39677 -2.30094 -6.79012e-13
-2.30094 -49.9608 3.18264e-13
-6.79012e-13 3.18264e-13 -14.7728

36.7457 -34.5087 1.45306e-12
-34.5087 24.4796 2.03807e-12
1.45306e-12 2.03807e-12 -7.70931

-38.2941 19.0861 -5.08615e-12
19.0861 -7.09357 -3.04941e-12
-5.08615e-12 -3.04941e-12 -14.4496

7.8707 -26.4788 -3.66699e-12
-26.4788 -27.9949 -2.14465e-12
-3.66699e-12 -2.14465e-12 -10.9692

63.948 -9.69039 -2.41466e-12
-9.69039 5.67712 3.65959e-12
-2.41466e-12 3.65959e-12 -5.07249

6.04046 -23.1921 -5.84066e-12
-23.1921 -35.4683 -2.90286e-12
-5.84066e-12 -2.90286e-12 -17.7361

0.141382 2.3583 3.07102e-12
2.3583 -56.1742 -4.77544e-13
3.07102e-12 -4.77544e-13 -11.5463

-4.06216 -23.3216 1.44477e-12
-23.3216 -23.4117 2.73751e-12
1.44477e-12 2.73751e-12 -16.7199

11.0387 -25.8596 -2.13222e-12
-25.8596 -29.4862 -2.1109e-12
-2.13222e-12 -2.1109e-12 -9.73387

10.2013 -8.54628 1.73432e-12
-8.54628 -43.4904 3.14859e-13
1.73432e-12 3.14859e-13 -9.28175

-35.418 -23.0682 9.31403e-13
-23.0682 -12.6461 -1.23612e-12
9.31403e-13 -1.23612e-12 -15.1032

23.6643 -31.3423 5.19525e-12
-31.3423 5.71211 -1.43234e-12
5.19525e-12 -1.43234e-12 -5.87857

11.0597 -24.5876 -1.52471e-12
-24.5876 -27.4949 1.96495e-12
-1.52471e-12 1.96495e-12 -10.0483

46.6434 10.8646 -2.32229e-12
10.8646 -16.118 -1.52411e-12
-2.32229e-12 -1.52411e-12 -6.8002

-14.1862 26.3404 1.10371e-12
26.3404 -15.6402 -6.95e-13
1.10371e-12 -6.95e-13 -14.1191

-45.2515 -37.6126 2.60384e-12
-37.6126 -20.6122 -8.32445e-13
2.60384e-12 -8.32445e-13 -14.9193

-43.7083 37.2649 -2.36255e-13
37.2649 -21.266 2.04888e-12
-2.36255e-13 2.04888e-12 -14.7697

-61.1846 -28.5732 4.99626e-12
-28.5732 -7.49709 9.17784e-14
4.99626e-12 9.17784e-14 -15.1997

-58.4156 27.064 1.94481e-12
27.064 -6.27171 -1.26506e-12
1.94481e-12 -1.26506e-12 -14.4783

5.60057 -8.52751 -8.5872e-13
-8.52751 -71.0636 1.94659e-13
-8.5872e-13 1.94659e-13 -14.7099

4.39735 9.27351 1.44817e-12
9.27351 -68.8323 1.68191e-12
1.44817e-12 1.68191e-12 -14.4379

9.02393 -9.84632 3.39758e-12
-9.84632 -40.8905 6.70575e-14
3.39758e-12 6.70575e-14 -9.61219

-24.3355 32.1157 1.69849e-12
32.1157 -24.8097 7.23384e-13
1.69849e-12 7.23384e-13 -21.1451

-25.5228 -32.8537 4.31655e-13
-32.8537 -25.0958 4.75388e-13
4.31655e-13 4.75388e-13 -21.4693

-53.9193 16.0684 -2.75572e-12
16.0684 3.40151 -1.4199e-12
-2.75572e-12 -1.4199e-12 -21.4027

-52.4202 -15.8009 -2.92773e-12
-15.8009 3.29685 3.02218e-12
-2.92773e-12 3.02218e-12 -21.076

6.11193 -3.74796 -8.34148e-13
-3.74796 -43.925 -3.26169e-12
-8.34148e-13 -3.26169e-12 -25.7647

6.91806 3.61072 -2.85549e-13
3.61072 -46.3485 -4.82903e-12
-2.85549e-13 -4.82903e-12 -26.1411

-15.6265 9.83704 -3.30654e-12
9.83704 46.2629 1.44477e-13
-3.30654e-12 1.44477e-13 -5.84836

-22.9188 -24.7744 -1.47822e-12
-24.7744 -14.5524 2.08678e-12
-1.47822e-12 2.08678e-12 -10.3302

-56.6033 -36.3873 -3.70652e-12
-36.3873 -14.5326 7.25198e-13
-3.70652e-12 7.25198e-13 -13.4374

33.3586 -4.66434 2.70006e-12
-4.66434 -19.8476 -1.00375e-12
2.70006e-12 -1.00375e-12 -3.94552

3.43328 -16.6944 6.50591e-13
-16.6944 -52.6283 -1.21325e-12
6.50591e-13 -1.21325e-12 -21.5326

3.67442 16.1754 -4.28531e-12
16.1754 -51.884 -9.78773e-13
-4.28531e-12 -9.78773e-13 -21.4058

6.55567 0.121878 2.45759e-12
0.121878 -76.7545 8.22393e-13
2.45759e-12 8.22393e-13 -13.3043

-7.57017 23.3756 3.59801e-12
23.3756 39.936 4.84353e-12
3.59801e-12 4.84353e-12 -6.88565

-56.889 36.1713 2.04585e-12
36.1713 -14.0113 9.19413e-13
2.04585e-12 9.19413e-13 -13.3891

-39.7947 -23.3958 1.57815e-12
-23.3958 2.56149 2.15206e-12
1.57815e-12 2.15206e-12 -8.80125

37.117 23.3532 3.55153e-12
23.3532 -8.61368 -6.6495e-13
3.55153e-12 -6.6495e-13 -5.75901

4.73503 23.8583 3.09382e-12
23.8583 -38.226 1.7734e-13
3.09382e-12 1.7734e-13 -18.9857

24.0135 -31.3141 3.26968e-12
-31.3141 6.40801 1.12917e-12
3.26968e-12 1.12917e-12 -5.64854

2.43072 -3.23116 -2.15813e-12
-3.23116 -48.3699 5.61033e-13
-2.15813e-12 5.61033e-13 -14.7428

-60.4573 -34.1608 -9.51831e-14
-34.1608 -14.3498 -8.40957e-13
-9.51831e-14 -8.40957e-13 -14.0311

-17.4534 8.32011 -1.52195e-12
8.32011 45.6922 -4.25852e-12
-1.52195e-12 -4.25852e-12 -5.78142

-9.46946 21.812 -7.72123e-13
21.812 40.4254 3.71259e-12
-7.72123e-13 3.71259e-12 -6.65414

58.6043 35.7765 -3.8014e-13
35.7765 37.0883 -1.69109e-12
-3.8014e-13 -1.69109e-12 -6.91599

70.485 1.57879 -2.85283e-12
1.57879 -5.54351 3.03535e-13
-2.85283e-12 3.03535e-13 -10.3742

-30.7594 -22.8046 -1.55313e-12
-22.8046 -13.3566 8.4451e-13
-1.55313e-12 8.4451e-13 -14.4662

32.8415 31.1844 -7.51991e-13
31.1844 69.7952 1.18424e-13
-7.51991e-13 1.18424e-13 -6.67943

-19.3768 23.6102 6.21044e-12
23.6102 7.68687 -6.04553e-13
6.21044e-12 -6.04553e-13 -5.51369

47.6376 -5.34965 -1.45424e-12
-5.34965 -17.434 3.80362e-12
-1.45424e-12 3.80362e-12 -6.82215

33.2197 11.2163 3.89733e-12
11.2163 -23.6377 7.93439e-14
3.89733e-12 7.93439e-14 -6.01433

6.25419 0.429899 -2.78636e-12
0.429899 -77.5518 -1.17457e-12
-2.78636e-12 -1.17457e-12 -13.45

-58.9354 -29.0309 3.84093e-12
-29.0309 -6.28814 -1.09868e-12
3.84093e-12 -1.09868e-12 -14.6973

-28.3318 -6.31875 2.98398e-12
-6.31875 -11.3577 4.77277e-12
2.98398e-12 4.77277e-12 -51.5875

-44.6979 37.4113 -2.28765e-12
37.4113 -20.8113 1.78776e-12
-2.28765e-12 1.78776e-12 -14.7737

93.7918 1.66331 -1.04687e-12
1.66331 16.6553 -2.37403e-12
-1.04687e-12 -2.37403e-12 -6.04311

10.0362 -32.7876 1.04805e-13
-32.7876 21.3109 -4.21529e-12
1.04805e-13 -4.21529e-12 -6.80859

-56.9358 36.6128 -4.00716e-13
36.6128 -14.5711 3.47574e-13
-4.00716e-13 3.47574e-13 -13.5053

-35.0798 -11.1339 -1.72882e-12
-11.1339 19.1772 1.31746e-12
-1.72882e-12 1.31746e-12 -8.31681

-5.47806 -25.5151 -1.18335e-12
-25.5151 37.3505 2.97481e-12
-1.18335e-12 2.97481e-12 -6.98741

-58.4519 28.8299 1.18043e-12
28.8299 -6.27152 -1.12591e-12
1.18043e-12 -1.12591e-12 -14.6144

28.496 -26.1423 -3.31172e-12
-26.1423 -4.91294 -1.85333e-13
-3.31172e-12 -1.85333e-13 -4.69761

-21.1698 10.4836 4.30648e-12
10.4836 -18.5589 -6.71167e-12
4.30648e-12 -6.71167e-12 -51.683

3.43248 30.8726 -7.60873e-13
30.8726 27.1627 4.96788e-12
-7.60873e-13 4.96788e-12 -6.73338

6.14045 8.12661 4.79468e-13
8.12661 -72.2972 -2.31859e-12
4.79468e-13 -2.31859e-12 -14.9845

-11.5459 30.1907 4.3728e-13
30.1907 -20.6032 5.87086e-13
4.3728e-13 5.87086e-13 -11.5494

-30.798 23.3321 -1.24064e-12
23.3321 -5.09984 -2.27196e-12
-1.24064e-12 -2.27196e-12 -8.46477

-25.8636 -32.4884 1.32783e-12
-32.4884 -24.1125 -1.3386e-12
1.32783e-12 -1.3386e-12 -21.5587

9.20525 -23.1905 -2.36966e-12
-23.1905 -27.9225 -1.82225e-12
-2.36966e-12 -1.82225e-12 -11.4259

-37.6611 10.4704 -1.3816e-12
10.4704 8.92893 1.83616e-12
-1.3816e-12 1.83616e-12 -25.3307

-23.0409 -23.434 6.64535e-12
-23.434 4.95238 -6.65186e-12
6.64535e-12 -6.65186e-12 -6.26341

88.8046 -9.70799 3.8843e-12
-9.70799 10.8071 6.987e-14
3.8843e-12 6.987e-14 -10.0309

84.0447 -14.2774 -3.72798e-12
-14.2774 2.81239 6.47304e-12
-3.72798e-12 6.47304e-12 -13.1969

5.88771 16.5297 -5.37733e-12
16.5297 -33.9324 2.11919e-12
-5.37733e-12 2.11919e-12 -22.3758

-16.4218 22.502 -6.00261e-12
22.502 16.2279 -8.41579e-12
-6.00261e-12 -8.41579e-12 -5.08574

-3.91254 29.1635 -1.87287e-12
29.1635 -12.2302 -4.76893e-12
-1.87287e-12 -4.76893e-12 -8.39665

50.9932 0.688679 -3.56456e-12
0.688679 -6.53238 2.0748e-12
-3.56456e-12 2.0748e-12 -3.63476

-48.1413 6.57103 2.54663e-12
6.57103 14.786 -5.2965e-12
2.54663e-12 -5.2965e-12 -18.9524

10.1157 16.5407 -1.75445e-12
16.5407 -36.08 -3.1027e-13
-1.75445e-12 -3.1027e-13 -9.13577

-4.50422 -25.7615 4.51668e-12
-25.7615 35.5557 -2.57572e-12
4.51668e-12 -2.57572e-12 -6.74738

-39.1917 -2.5723 1.52526e-13
-2.5723 21.5043 3.00204e-13
1.52526e-13 3.00204e-13 -10.6696

-7.99118 13.3654 4.01605e-12
13.3654 44.4057 -9.75812e-13
4.01605e-12 -9.75812e-13 -3.94467

3.73457 -29.7136 -1.94215e-13
-29.7136 -17.3652 -9.52423e-13
-1.94215e-13 -9.52423e-13 -8.92087

21.4258 -29.9479 -1.62241e-12
-29.9479 14.756 -5.06735e-12
-1.62241e-12 -5.06735e-12 -3.91824

6.88061 31.6234 5.9804e-14
31.6234 25.4017 -6.96924e-13
5.9804e-14 -6.96924e-13 -6.82853

2.78535 -15.0199 2.79273e-12
-15.0199 -39.2663 3.91346e-12
2.79273e-12 3.91346e-12 -63.3092

-46.1596 2.04144 2.9244e-12
2.04144 11.4613 3.19803e-12
2.9244e-12 3.19803e-12 -22.7565

-55.4442 20.2998 -1.83379e-12
20.2998 3.09547 -4.00598e-12
-1.83379e-12 -4.00598e-12 -22.9157

5.91649 15.4387 1.66104e-12
15.4387 -58.818 9.04758e-13
1.66104e-12 9.04758e-13 -23.0358

-18.9217 -26.1889 4.18924e-12
-26.1889 -12.9136 2.11238e-12
4.18924e-12 2.11238e-12 -9.65297

41.3464 17.9575 3.80022e-12
17.9575 -6.27152 1.85925e-13
3.80022e-12 1.85925e-13 -3.86178

-44.6824 -5.29382 3.18662e-13
-5.29382 4.53836 -3.02395e-12
3.18662e-13 -3.02395e-12 -39.144

7.49931 -18.9881 2.61302e-12
-18.9881 -39.8945 9.23706e-14
2.61302e-12 9.23706e-14 -11.6601

30.2911 -15.599 3.43725e-12
-15.599 -20.5091 1.99855e-12
3.43725e-12 1.99855e-12 -4.80542

-9.63893 11.6034 5.86494e-12
11.6034 44.3195 -4.22654e-12
5.86494e-12 -4.22654e-12 -3.85944

8.33366 -25.7346 3.21402e-12
-25.7346 32.992 -1.52175e-12
3.21402e-12 -1.52175e-12 -3.63337

-10.2445 -25.2738 -2.87178e-12
-25.2738 -19.1006 -1.51997e-12
-2.87178e-12 -1.51997e-12 -23.1745

17.0049 31.96 -8.23045e-13
31.96 11.197 1.32871e-12
-8.23045e-13 1.32871e-12 -5.74671

-1.06921 -25.1346 -4.06786e-13
-25.1346 -30.7629 -4.00687e-12
-4.06786e-13 -4.00687e-12 -20.8914

48.0655 2.5974 -1.42345e-12
2.5974 -8.41026 9.46206e-13
-1.42345e-12 9.46206e-13 -3.53194

6.55243 -28.931 1.26121e-13
-28.931 72.0512 -5.16091e-12
1.26121e-13 -5.16091e-12 -14.5516

21.7914 -29.2314 -7.53175e-13
-29.2314 13.9634 3.23889e-13
-7.53175e-13 3.23889e-13 -3.93062

35.3514 32.1594 -4.74879e-13
32.1594 74.1351 2.84217e-14
-4.74879e-13 2.84217e-14 -5.44171

-45.2836 -11.8768 1.9866e-12
-11.8768 13.922 6.56068e-13
1.9866e-12 6.56068e-13 -15.3264

-14.4211 -13.8216 -1.15004e-12
-13.8216 43.3826 -4.27155e-12
-1.15004e-12 -4.27155e-12 -5.67302

-19.2427 -23.9875 4.11597e-12
-23.9875 -19.8303 6.40243e-12
4.11597e-12 6.40243e-12 -64.251

2.43791 23.7712 1.01608e-12
23.7712 36.0069 4.59129e-12
1.01608e-12 4.59129e-12 -3.71139

-15.1825 -32.7263 -3.95595e-12
-32.7263 -21.1193 1.87998e-12
-3.95595e-12 1.87998e-12 -14.3131

-14.5658 -11.9633 -1.10408e-12
-11.9633 45.5308 9.03573e-13
-1.10408e-12 9.03573e-13 -5.73921

7.83554 -19.1168 4.58034e-12
-19.1168 -43.122 1.35447e-12
4.58034e-12 1.35447e-12 -12.6322

6.54538 23.8775 -8.39033e-13
23.8775 35.1715 1.04923e-12
-8.39033e-13 1.04923e-12 -3.44235

23.1735 -4.97552 -7.03437e-13
-4.97552 -30.6766 3.80984e-12
-7.03437e-13 3.80984e-12 -5.36462

36.9706 -30.343 2.81849e-12
-30.343 122.628 -2.84217e-13
2.81849e-12 -2.84217e-13 -6.24159

-26.8697 21.0143 -3.05e-12
21.0143 8.4342 5.5144e-12
-3.05e-12 5.5144e-12 -7.13031

40.3386 -19.3236 -4.63037e-13
-19.3236 -11.3729 -2.31607e-12
-4.63037e-13 -2.31607e-12 -5.72624

6.52814 -21.4458 -1.09838e-13
-21.4458 -45.558 -1.69376e-12
-1.09838e-13 -1.69376e-12 -24.9715

20.705 31.7545 -7.63123e-12
31.7545 9.55727 -1.46253e-12
-7.63123e-12 -1.46253e-12 -5.80627

13.9188 -29.9721 -1.52826e-12
-29.9721 -7.60607 -2.09669e-12
-1.52826e-12 -2.09669e-12 -5.94453

6.75495 20.8854 2.56388e-12
20.8854 -27.7925 -9.93872e-13
2.56388e-12 -9.93872e-13 -11.1089

-38.2742 -28.0759 5.25135e-12
-28.0759 -14.0379 3.31143e-13
5.25135e-12 3.31143e-13 -11.0612

8.6461 -26.2256 2.87355e-12
-26.2256 31.171 -4.33313e-12
2.87355e-12 -4.33313e-12 -3.6354

15.3312 28.9815 -7.30083e-13
28.9815 19.1538 6.35936e-12
-7.30083e-13 6.35936e-12 -3.88319

28.6404 26.1917 -1.13687e-12
26.1917 -5.63364 -1.33079e-12
-1.13687e-12 -1.33079e-12 -4.80221

7.91461 -14.6102 2.11209e-12
-14.6102 -36.8778 -3.0953e-12
2.11209e-12 -3.0953e-12 -13.9913

-6.8418 -16.6179 1.93031e-12
-16.6179 41.3411 -4.20523e-12
1.93031e-12 -4.20523e-12 -3.95963

17.4407 -17.5683 -1.44655e-12
-17.5683 -30.9995 1.16189e-12
-1.44655e-12 1.16189e-12 -7.1054

19.8418 16.9087 3.50416e-12
16.9087 -31.6648 -6.32087e-13
3.50416e-12 -6.32087e-13 -7.33471

-33.6798 -9.38651 -1.74875e-12
-9.38651 8.75609 1.89537e-12
-1.74875e-12 1.89537e-12 -23.9924

43.4318 -13.4302 3.13112e-12
-13.4302 -8.3692 -1.6945e-12
3.13112e-12 -1.6945e-12 -3.80437

-19.379 0.594069 -6.71907e-13
0.594069 43.1455 1.88649e-12
-6.71907e-13 1.88649e-12 -4.77566

28.056 18.5551 4.66234e-12
18.5551 -18.1994 2.64825e-12
4.66234e-12 2.64825e-12 -4.74991

25.5284 27.6043 1.84978e-12
27.6043 -3.7759 1.79323e-12
1.84978e-12 1.79323e-12 -4.77136

-6.71561 -15.6864 3.8014e-12
-15.6864 43.7987 -7.44886e-13
3.8014e-12 -7.44886e-13 -3.84816

-19.907 -1.20229 -2.63441e-12
-1.20229 42.1281 -4.33076e-12
-2.63441e-12 -4.33076e-12 -4.68723

-5.47322 29.1344 1.78405e-12
29.1344 -23.6469 1.48415e-12
1.78405e-12 1.48415e-12 -16.7968

-37.274 -10.9222 -9.33476e-13
-10.9222 21.6799 -3.5764e-13
-9.33476e-13 -3.5764e-13 -7.83017

27.1433 -26.7157 -3.30521e-12
-26.7157 -5.531 -6.06922e-13
-3.30521e-12 -6.06922e-13 -4.94441

40.7192 21.3329 3.61193e-12
21.3329 -8.3705 -7.83966e-13
3.61193e-12 -7.83966e-13 -5.46774

12.378 23.6654 2.44308e-12
23.6654 -27.1274 -7.81005e-13
2.44308e-12 -7.81005e-13 -8.66709

-37.7968 5.47092 1.0314e-12
5.47092 23.3114 2.14229e-12
1.0314e-12 2.14229e-12 -8.59754

18.5929 29.066 -5.85487e-12
29.066 17.3777 1.09897e-12
-5.85487e-12 1.09897e-12 -3.94727

-9.98884 22.9639 2.74121e-12
22.9639 -14.9134 -1.24567e-12
2.74121e-12 -1.24567e-12 -24.0256

68.3176 -59.6925 1.01844e-13
-59.6925 36.3357 -4.44208e-12
1.01844e-13 -4.44208e-12 -23.0105

17.5308 -25.0481 4.29286e-12
-25.0481 -17.9923 -8.51763e-13
4.29286e-12 -8.51763e-13 -6.41784

10.0582 7.07001 -3.11839e-12
7.07001 82.5515 1.17405e-11
-3.11839e-12 1.17405e-11 -7.1653

11.9202 -28.8896 -3.40646e-12
-28.8896 -3.88168 -6.78568e-13
-3.40646e-12 -6.78568e-13 -5.16599

-66.9445 -52.7017 8.47914e-13
-52.7017 143.253 2.65743e-12
8.47914e-13 2.65743e-12 -49.6684

-68.3878 51.4524 9.39101e-13
51.4524 142.54 -8.76336e-13
9.39101e-13 -8.76336e-13 -49.8575

19.5709 117.156 -3.90088e-12
117.156 64.1308 -8.90547e-13
-3.90088e-12 -8.90547e-13 -48.359

20.5298 -117.099 9.21337e-13
-117.099 61.0276 -4.73695e-13
9.21337e-13 -4.73695e-13 -48.7238

157.746 -1.36339 3.24955e-12
-1.36339 -79.1869 7.30781e-14
3.24955e-12 7.30781e-14 -48.9107

110.328 -91.1268 6.50857e-12
-91.1268 -36.6893 -9.23706e-13
6.50857e-12 -9.23706e-13 -50.3053

110.381 91.6546 5.30539e-13
91.6546 -36.4995 -2.62664e-12
5.30539e-13 -2.62664e-12 -50.1781

7.84679 14.3305 1.05338e-12
14.3305 -42.6817 2.97066e-12
1.05338e-12 2.97066e-12 -15.0791

-11.7907 25.5363 -7.90923e-12
25.5363 -27.4047 7.8885e-13
-7.90923e-12 7.8885e-13 -35.1371

12.4381 6.60614 1.58629e-12
6.60614 -40.5341 1.11067e-12
1.58629e-12 1.11067e-12 -8.25271

26.2548 21.7849 3.17376e-12
21.7849 -19.529 -1.59398e-12
3.17376e-12 -1.59398e-12 -5.85109

-21.2306 17.7447 1.73787e-13
17.7447 29.8685 -1.80596e-12
1.73787e-13 -1.80596e-12 -6.1626

22.5303 28.899 -3.7718e-13
28.899 -0.775673 -8.65678e-13
-3.7718e-13 -8.65678e-13 -4.73099

4.05531 -29.6637 -3.69482e-13
-29.6637 -17.4664 -4.50514e-12
-3.69482e-13 -4.50514e-12 -8.50458

25.9952 28.0283 -3.98496e-13
28.0283 -2.30191 8.94692e-13
-3.98496e-13 8.94692e-13 -4.73139

-19.3475 -2.84134 1.55594e-12
-2.84134 43.0716 -8.7752e-13
1.55594e-12 -8.7752e-13 -4.77021

-13.4113 -26.0972 2.70539e-12
-26.0972 -25.8385 -2.58845e-12
2.70539e-12 -2.58845e-12 -35.5202

-19.8426 -4.86251 4.05246e-12
-4.86251 41.7766 -2.97717e-12
4.05246e-12 -2.97717e-12 -4.74408

-1.82703 23.0165 4.14839e-12
23.0165 -24.3771 -3.70918e-12
4.14839e-12 -3.70918e-12 -16.1499

44.9829 26.8712 -2.89901e-12
26.8712 8.11118 -1.31569e-12
-2.89901e-12 -1.31569e-12 -5.36929

-52.5082 -13.2161 -5.43713e-13
-13.2161 0.150293 -1.86873e-12
-5.43713e-13 -1.86873e-12 -20.6172

20.2805 13.7281 -1.82136e-12
13.7281 -31.142 -1.95103e-13
-1.82136e-12 -1.95103e-13 -7.04324

13.7006 -29.9881 -6.31791e-13
-29.9881 -6.69178 -6.96273e-12
-6.31791e-13 -6.96273e-12 -5.83547

29.631 -24.7139 -3.9968e-12
-24.7139 -7.87411 3.60837e-12
-3.9968e-12 3.60837e-12 -4.82537

5.76456 -16.075 2.08692e-12
-16.075 -32.3342 -1.43145e-12
2.08692e-12 -1.43145e-12 -22.2552

12.6276 27.9293 -2.00669e-12
27.9293 -13.6391 1.23161e-13
-2.00669e-12 1.23161e-13 -6.41982

23.309 23.9778 3.96128e-13
23.9778 -17.9436 1.90366e-13
3.96128e-13 1.90366e-13 -5.96261

-31.0774 -2.79291 -1.52707e-12
-2.79291 30.1318 -1.78287e-12
-1.52707e-12 -1.78287e-12 -6.39869

-28.6299 5.87341 -1.60869e-12
5.87341 33.3216 7.75676e-13
-1.60869e-12 7.75676e-13 -6.05957

34.5488 2.64675 1.14042e-12
2.64675 -26.1841 -7.12578e-13
1.14042e-12 -7.12578e-13 -6.14236

50.6518 -7.2898 -4.9738e-13
-7.2898 -14.0824 3.66788e-12
-4.9738e-13 3.66788e-12 -6.7789

11.041 30.4852 2.66986e-12
30.4852 -4.78792 -7.80413e-13
2.66986e-12 -7.80413e-13 -5.96642

17.4674 -26.1558 2.12748e-12
-26.1558 -17.4553 -3.27353e-12
2.12748e-12 -3.27353e-12 -6.35196

-0.0842852 -21.2544 1.79027e-12
-21.2544 -27.9561 6.86266e-13
1.79027e-12 6.86266e-13 -17.1664

4.93878 -31.6342 4.58122e-12
-31.6342 4.86121 6.85674e-13
4.58122e-12 6.85674e-13 -5.93529

-8.22756 -27.7861 1.84445e-12
-27.7861 18.5788 1.04509e-12
1.84445e-12 1.04509e-12 -6.12992

-1.65058 29.8877 -1.57326e-12
29.8877 10.4473 -2.38387e-12
-1.57326e-12 -2.38387e-12 -5.80034

-26.0171 -9.57807 -1.63665e-12
-9.57807 32.97 2.63315e-12
-1.63665e-12 2.63315e-12 -5.78724

-31.3233 -1.54489 1.85563e-12
-1.54489 31.6509 1.05693e-12
1.85563e-12 1.05693e-12 -6.22353

-38.9159 5.7479 2.86589e-12
5.7479 23.9466 4.08207e-12
2.86589e-12 4.08207e-12 -9.18296

-17.2186 -21.0895 -2.49963e-12
-21.0895 26.5711 5.35808e-12
-2.49963e-12 5.35808e-12 -5.77199

13.0717 24.1115 -2.03156e-12
24.1115 -28.1015 1.37697e-12
-2.03156e-12 1.37697e-12 -9.20483

21.5551 -9.5899 -2.32229e-12
-9.5899 -31.707 -1.00201e-12
-2.32229e-12 -1.00201e-12 -6.59809

-27.154 7.46537 5.56666e-13
7.46537 34.3348 6.57252e-14
5.56666e-13 6.57252e-14 -5.87397

-35.2362 -9.70115 1.06706e-13
-9.70115 22.3136 -1.34115e-12
1.06706e-13 -1.34115e-12 -8.18344

-29.1561 -16.3309 1.40924e-12
-16.3309 19.3468 1.623e-12
1.40924e-12 1.623e-12 -6.66175

36.9682 -8.23935 9.65154e-13
-8.23935 -20.2373 -3.53199e-12
9.65154e-13 -3.53199e-12 -5.10149

-14.8098 -32.3468 -2.28706e-12
-32.3468 -21.6275 1.2624e-12
-2.28706e-12 1.2624e-12 -12.9929

-22.8245 9.3211 1.85244e-12
9.3211 33.3236 -1.60701e-12
1.85244e-12 -1.60701e-12 -4.7888

-0.751159 -18.2127 -8.44066e-13
-18.2127 -35.1573 -1.48341e-12
-8.44066e-13 -1.48341e-12 -33.2769

4.93198 24.8232 4.34971e-12
24.8232 75.3079 -1.58214e-12
4.34971e-12 -1.58214e-12 -14.319

-14.1418 -26.6264 -4.06282e-12
-26.6264 -16.3504 2.17544e-12
-4.06282e-12 2.17544e-12 -14.6406

-6.35707 -30.2029 -2.09077e-12
-30.2029 -23.6026 -1.74734e-12
-2.09077e-12 -1.74734e-12 -17.0877

-31.2712 -0.701216 -1.59561e-12
-0.701216 31.5006 1.99189e-12
-1.59561e-12 1.99189e-12 -6.3484

28.4879 -16.6228 -1.14753e-12
-16.6228 -18.0574 1.38733e-12
-1.14753e-12 1.38733e-12 -4.438

-37.8053 12.8417 3.11066e-13
12.8417 11.1651 -1.99366e-12
3.11066e-13 -1.99366e-12 -10.989

-8.86119 -3.18067 -1.95473e-12
-3.18067 111.053 2.7498e-12
-1.95473e-12 2.7498e-12 -22.6714

-31.6031 14.2739 3.17812e-12
14.2739 21.3504 1.08358e-13
3.17812e-12 1.08358e-13 -7.12444

12.4218 -29.4898 1.42109e-12
-29.4898 -2.51974 2.91026e-12
1.42109e-12 2.91026e-12 -4.92822

33.6324 25.1061 -1.39444e-12
25.1061 124.032 -1.14705e-11
-1.39444e-12 -1.14705e-11 -6.21395

-13.5023 26.0973 7.84217e-12
26.0973 -19.0972 -5.16091e-12
7.84217e-12 -5.16091e-12 -58.8933

-9.55257 -27.8066 -7.52702e-12
-27.8066 -22.8065 4.44829e-12
-7.52702e-12 4.44829e-12 -59.5437

-2.86604 -30.4195 2.94816e-12
-30.4195 -7.32155 -5.0567e-12
2.94816e-12 -5.0567e-12 -7.28738

3.86002 -31.1609 -8.7456e-12
-31.1609 5.63544 2.07301e-12
-8.7456e-12 2.07301e-12 -6.06251

25.1522 20.8278 1.85215e-12
20.8278 -17.0348 -6.00113e-13
1.85215e-12 -6.00113e-13 -4.9769

31.8054 15.0064 -1.62892e-12
15.0064 -23.3016 -7.29491e-13
-1.62892e-12 -7.29491e-13 -5.9548

-9.4883 3.08312 1.11403e-11
3.08312 -9.83027 1.31957e-11
1.11403e-11 1.31957e-11 -80.9345

-5.54871 -6.99949 -1.52414e-11
-6.99949 -14.0412 1.19858e-11
-1.52414e-11 1.19858e-11 -80.2872

11.7486 4.82428 1.58392e-12
4.82428 -43.2059 9.23261e-13
1.58392e-12 9.23261e-13 -7.8276

-35.0571 6.73118 1.77939e-12
6.73118 24.3754 3.68061e-12
1.77939e-12 3.68061e-12 -7.56403

-36.111 6.73634 -4.3028e-12
6.73634 24.4327 9.29035e-13
-4.3028e-12 9.29035e-13 -8.30901

74.5881 58.6355 -1.68162e-12
58.6355 34.1736 9.30811e-13
-1.68162e-12 9.30811e-13 -21.8727

-6.9203 -28.2004 -1.57208e-12
-28.2004 16.8752 2.82145e-12
-1.57208e-12 2.82145e-12 -6.11681

8.17197 17.9744 2.86378e-12
17.9744 -44.8759 3.99976e-13
2.86378e-12 3.99976e-13 -12.8967

32.7034 9.5399 -2.75927e-13
9.5399 -19.0807 2.73233e-12
-2.75927e-13 2.73233e-12 -4.0745

3.38758 -26.7239 -4.2526e-12
-26.7239 13.484 2.01676e-12
-4.2526e-12 2.01676e-12 -3.82713

26.2377 -20.2381 -3.84285e-12
-20.2381 -20.3236 2.89102e-12
-3.84285e-12 2.89102e-12 -5.86335

65.3919 60.2334 -1.88768e-12
60.2334 34.2902 -8.08834e-13
-1.88768e-12 -8.08834e-13 -23.8675

-13.2426 31.0693 6.2883e-13
31.0693 -16.8817 -5.10081e-12
6.2883e-13 -5.10081e-12 -12.7859

-18.6049 -19.7866 -5.05077e-12
-19.7866 28.415 -1.46431e-12
-5.05077e-12 -1.46431e-12 -5.96965

11.1743 28.8582 -1.10134e-13
28.8582 -13.3234 -3.20336e-13
-1.10134e-13 -3.20336e-13 -6.43626

-31.8697 -4.14498 -1.07988e-13
-4.14498 30.1481 -7.73899e-13
-1.07988e-13 -7.73899e-13 -6.35797

-14.5968 19.6096 4.79616e-14
19.6096 27.1855 -3.22053e-12
4.79616e-14 -3.22053e-12 -4.41885

7.47915 30.5194 1.22924e-12
30.5194 -1.67062 8.51467e-13
1.22924e-12 8.51467e-13 -5.66062

-9.34526 -22.4737 -7.1528e-13
-22.4737 23.1494 6.28357e-12
-7.1528e-13 6.28357e-12 -4.1756

4.59035 -27.3531 -1.15167e-12
-27.3531 11.4491 9.92391e-13
-1.15167e-12 9.92391e-13 -3.93864

24.2722 11.2572 -2.64041e-12
11.2572 102.081 -8.19493e-13
-2.64041e-12 -8.19493e-13 -12.4048

37.467 -33.457 -1.6307e-12
-33.457 69.2868 -5.20117e-12
-1.6307e-12 -5.20117e-12 -5.70312

-25.3359 -11.6908 1.9158e-12
-11.6908 31.3685 2.89072e-12
1.9158e-12 2.89072e-12 -5.64853

16.0965 26.485 -2.00728e-13
26.485 -15.5023 6.51331e-14
-2.00728e-13 6.51331e-14 -6.21756

4.9556 29.4785 4.74287e-12
29.4785 1.63681 -1.66089e-12
4.74287e-12 -1.66089e-12 -4.99011

-9.85504 -21.4344 1.12591e-12
-21.4344 25.1211 1.81129e-12
1.12591e-12 1.81129e-12 -4.03339

-21.6352 -11.7827 -1.64047e-12
-11.7827 32.0824 3.72324e-12
-1.64047e-12 3.72324e-12 -4.63735

10.4629 28.4101 -3.25961e-12
28.4101 -0.156577 2.04459e-12
-3.25961e-12 2.04459e-12 -4.67302

-21.8473 -13.8781 -8.88652e-12
-13.8781 29.4676 -1.30266e-13
-8.88652e-12 -1.30266e-13 -4.8473

6.9585 27.8557 -2.09432e-12
27.8557 73.0863 2.4869e-13
-2.09432e-12 2.4869e-13 -14.3221

-45.8318 -4.04111 -3.07285e-12
-4.04111 14.0479 -7.28306e-14
-3.07285e-12 -7.28306e-14 -19.9648

0.876865 31.0283 -3.82035e-12
31.0283 7.52021 2.74151e-12
-3.82035e-12 2.74151e-12 -6.08926

9.71916 14.9015 -3.92516e-12
14.9015 -36.4295 -3.06718e-13
-3.92516e-12 -3.06718e-13 -10.9855

9.92853 -15.9278 6.34159e-13
-15.9278 -39.4107 -9.01501e-13
6.34159e-13 -9.01501e-13 -13.0692

85.615 -24.2051 2.63848e-12
-24.2051 7.63575 -4.58537e-12
2.63848e-12 -4.58537e-12 -12.9579

-23.2073 -21.2676 1.48503e-12
-21.2676 10.5139 -6.71167e-12
1.48503e-12 -6.71167e-12 -6.16546

-16.6012 26.6987 7.23688e-12
26.6987 1.77844 2.17189e-12
7.23688e-12 2.17189e-12 -6.58793

-26.201 -21.7278 9.21633e-13
-21.7278 -5.36553 2.67571e-12
9.21633e-13 2.67571e-12 -23.8668

-41.596 14.1061 -1.31006e-12
14.1061 -3.55993 1.85629e-12
-1.31006e-12 1.85629e-12 -64.1254

-0.893545 9.44531 1.84119e-12
9.44531 -44.2583 -1.94185e-12
1.84119e-12 -1.94185e-12 -64.2268

-20.3839 32.7053 1.3302e-12
32.7053 -23.2027 -5.36919e-12
1.3302e-12 -5.36919e-12 -24.3292

-11.411 26.001 -6.93075e-13
26.001 22.6042 4.06194e-13
-6.93075e-13 4.06194e-13 -5.92589

16.0387 26.6619 3.88134e-12
26.6619 -17.2877 -7.75261e-12
3.88134e-12 -7.75261e-12 -6.55004

30.4287 45.187 5.64881e-13
45.187 47.5556 -3.46745e-12
5.64881e-13 -3.46745e-12 -15.1951

-44.8878 -11.3432 -6.50828e-12
-11.3432 -1.80796 -3.13142e-12
-6.50828e-12 -3.13142e-12 -61.6816

-8.29813 -3.43267 -1.20106e-12
-3.43267 -12.7543 3.50682e-13
-1.20106e-12 3.50682e-13 -77.2248

-14.6906 -0.209806 9.30959e-13
-0.209806 -6.41855 1.89404e-13
9.30959e-13 1.89404e-13 -77.369

27.6657 -53.8036 1.00779e-12
-53.8036 71.1504 1.0895e-13
1.00779e-12 1.0895e-13 -24.3893

-11.6907 -11.5998 2.1189e-12
-11.5998 -16.2048 -6.13228e-12
2.1189e-12 -6.13228e-12 -37.43

-32.6101 8.81271 4.48071e-12
8.81271 -9.41891 -1.45306e-12
4.48071e-12 -1.45306e-12 -49.5398

18.2562 -26.1999 3.49646e-12
-26.1999 -19.5469 -3.04053e-13
3.49646e-12 -3.04053e-13 -6.5068

-39.4303 1.01087 -6.02185e-13
1.01087 11.9803 -1.14279e-12
-6.02185e-13 -1.14279e-12 -19.7217

-30.2029 -20.2682 1.4427e-12
-20.2682 6.30505 -6.66726e-13
1.4427e-12 -6.66726e-13 -7.21633

10.5365 6.25537 3.55064e-12
6.25537 -52.3901 3.40076e-12
3.55064e-12 3.40076e-12 -9.63991

-49.8128 15.5963 -5.5402e-13
15.5963 10.1652 3.24481e-13
-5.5402e-13 3.24481e-13 -13.5312

-40.284 7.1915 -1.46636e-12
7.1915 16.5414 -3.52488e-12
-1.46636e-12 -3.52488e-12 -13.7743

16.4049 20.3932 -7.01069e-13
20.3932 -25.8413 1.12591e-12
-7.01069e-13 1.12591e-12 -7.60786

-9.10024 -3.11391 -2.69658e-12
-3.11391 108.397 -9.77707e-12
-2.69658e-12 -9.77707e-12 -23.1017

-3.32039 -27.6242 2.54078e-12
-27.6242 -3.62956 -5.03893e-13
2.54078e-12 -5.03893e-13 -5.83024

-7.33513 -26.1167 -4.50603e-13
-26.1167 -14.0821 1.89508e-12
-4.50603e-13 1.89508e-12 -9.81087

-14.1985 -31.4837 -1.43826e-12
-31.4837 -21.7779 2.71768e-12
-1.43826e-12 2.71768e-12 -12.7558

90.7295 32.7503 -3.32297e-12
32.7503 20.9067 -6.16514e-12
-3.32297e-12 -6.16514e-12 -16.5058

-23.1168 -20.1163 -1.78494e-12
-20.1163 -17.3851 -3.37256e-12
-1.78494e-12 -3.37256e-12 -44.4263

72.6315 54.3233 -4.38642e-12
54.3233 91.6421 -7.09358e-12
-4.38642e-12 -7.09358e-12 -6.14208

-36.2154 -21.4394 -1.97235e-12
-21.4394 -6.79682 -1.20881e-12
-1.97235e-12 -1.20881e-12 -13.0431

15.034 14.6504 1.42819e-12
14.6504 -37.752 1.68147e-12
1.42819e-12 1.68147e-12 -8.17898

44.5732 -14.5728 4.42905e-12
-14.5728 -8.27244 -1.54321e-12
4.42905e-12 -1.54321e-12 -4.41876

-21.231 24.047 6.22051e-12
24.047 4.9555 5.02117e-12
6.22051e-12 5.02117e-12 -5.97663

17.3733 20.4282 3.48166e-13
20.4282 -26.7928 1.98597e-12
3.48166e-13 1.98597e-12 -6.95169

-51.1397 11.4003 2.58393e-12
11.4003 7.71032 2.70539e-12
2.58393e-12 2.70539e-12 -29.9936

-7.28725 -31.5805 2.05347e-12
-31.5805 -12.8269 2.04844e-12
2.05347e-12 2.04844e-12 -8.1193

2.79641 19.8123 2.16301e-12
19.8123 -46.033 6.40969e-12
2.16301e-12 6.40969e-12 -29.9855

-24.6714 -18.4438 2.67046e-12
-18.4438 17.8362 1.18424e-12
2.67046e-12 1.18424e-12 -5.48033

-42.3408 4.28333 -7.66258e-13
4.28333 17.8694 -6.55476e-12
-7.66258e-13 -6.55476e-12 -12.7282

-4.09805 9.92695 9.28887e-12
9.92695 -40.2752 -6.29496e-12
9.28887e-12 -6.29496e-12 -47.5474

-2.68831 -8.5136 -7.86097e-12
-8.5136 -38.3065 -3.71658e-12
-7.86097e-12 -3.71658e-12 -47.4031

81.724 18.5127 -8.8581e-13
18.5127 1.69989 -5.40605e-12
-8.8581e-13 -5.40605e-12 -14.4532

3.89498 7.96516 -1.6153e-12
7.96516 -45.1835 1.56971e-12
-1.6153e-12 1.56971e-12 -11.0184

35.8727 7.74066 -3.56796e-12
7.74066 184.575 3.75167e-12
-3.56796e-12 3.75167e-12 -9.7566

40.1462 -11.3853 1.85614e-12
-11.3853 190.373 -8.14756e-13
1.85614e-12 -8.14756e-13 -7.38839

53.7658 56.4074 -6.2812e-12
56.4074 159.257 2.72375e-12
-6.2812e-12 2.72375e-12 -11.4993

1.70871 -28.9507 9.69891e-13
-28.9507 -24.6909 -7.65314e-13
9.69891e-13 -7.65314e-13 -11.9629

16.0493 -49.1912 1.00423e-12
-49.1912 99.4203 -3.45324e-12
1.00423e-12 -3.45324e-12 -21.689

54.5136 -55.95 -4.48116e-12
-55.95 149.974 1.83794e-12
-4.48116e-12 1.83794e-12 -13.6642

-2.16599 26.2206 -7.61347e-12
26.2206 17.5727 2.65092e-12
-7.61347e-12 2.65092e-12 -3.99615

134.94 73.8445 -9.28443e-13
73.8445 85.0258 -7.98176e-13
-9.28443e-13 -7.98176e-13 -10.1584

-18.7202 13.0471 -2.30867e-12
13.0471 -3.89993 -2.36167e-12
-2.30867e-12 -2.36167e-12 -26.769

3.74102 0.0398416 1.93519e-12
0.0398416 -26.189 1.74912e-12
1.93519e-12 1.74912e-12 -26.7723

144.099 -73.1299 -2.29742e-12
-73.1299 85.3533 3.67824e-12
-2.29742e-12 3.67824e-12 -8.19561

-21.3934 -23.4243 -7.21201e-13
-23.4243 12.248 -1.16529e-12
-7.21201e-13 -1.16529e-12 -6.49139

89.3473 34.7296 -7.04148e-12
34.7296 41.3903 2.70835e-12
-7.04148e-12 2.70835e-12 -11.5479

72.188 63.4914 5.85487e-12
63.4914 149.694 -8.62125e-13
5.85487e-12 -8.62125e-13 -9.67298

26.1647 21.6305 -3.45797e-12
21.6305 100.134 2.0961e-12
-3.45797e-12 2.0961e-12 -13.0314

73.8748 -65.9203 -1.7882e-12
-65.9203 151.145 5.61329e-12
-1.7882e-12 5.61329e-12 -9.4015

25.7692 -12.3812 -8.00545e-12
-12.3812 105.013 -4.69669e-12
-8.00545e-12 -4.69669e-12 -12.4283

-28.6639 6.84131 -9.09732e-12
6.84131 3.10699 -4.95959e-12
-9.09732e-12 -4.95959e-12 -37.8526

37.7431 -45.9755 1.93031e-12
-45.9755 49.6698 1.53951e-13
1.93031e-12 1.53951e-13 -15.5325

14.444 47.5325 9.61601e-13
47.5325 94.8806 -3.63561e-12
9.61601e-13 -3.63561e-12 -22.1922

173.34 37.9117 -6.63173e-14
37.9117 48.0423 -1.05912e-11
-6.63173e-14 -1.05912e-11 -9.52164

7.02062 -29.2861 -1.44536e-12
-29.2861 -14.3586 2.02742e-12
-1.44536e-12 2.02742e-12 -7.15624

-38.4178 12.8966 7.18455e-12
12.8966 6.43539 6.7241e-12
7.18455e-12 6.7241e-12 -15.2905

88.5056 -38.1129 -3.77061e-12
-38.1129 34.1632 -3.3656e-12
-3.77061e-12 -3.3656e-12 -14.0995

6.0417 -28.8025 -3.22409e-12
-28.8025 -16.1722 -1.97709e-12
-3.22409e-12 -1.97709e-12 -8.03009

169.206 -36.3436 1.82846e-12
-36.3436 34.9295 6.4766e-12
1.82846e-12 6.4766e-12 -13.2895

-5.72525 -28.3177 7.93439e-13
-28.3177 -14.4731 -4.18421e-12
7.93439e-13 -4.18421e-12 -9.30962

-17.7909 -25.2953 1.12355e-12
-25.2953 12.0802 1.58037e-12
1.12355e-12 1.58037e-12 -5.93454

118.877 69.4609 -8.43177e-13
69.4609 96.2199 5.44039e-12
-8.43177e-13 5.44039e-12 -11.3996

29.4132 -22.9331 -2.72375e-14
-22.9331 97.7971 -6.99174e-12
-2.72375e-14 -6.99174e-12 -14.3399

117.96 -71.6929 5.49486e-12
-71.6929 93.6813 8.986e-12
5.49486e-12 8.986e-12 -12.4156

22.2649 50.738 -9.0085e-12
50.738 73.7792 -1.77636e-12
-9.0085e-12 -1.77636e-12 -24.7773

-1.5365 -30.2126 1.74497e-12
-30.2126 -6.55279 5.19703e-12
1.74497e-12 5.19703e-12 -6.99814

-7.04475 -14.6404 3.82124e-12
-14.6404 -21.9196 -5.12775e-13
3.82124e-12 -5.12775e-13 -32.6135

-11.8919 11.0922 -1.1772e-11
11.0922 -16.4298 -3.96927e-12
-1.1772e-11 -3.96927e-12 -77.7912

-26.1678 -5.16008 -1.59576e-13
-5.16008 -6.38732 3.72907e-12
-1.59576e-13 3.72907e-12 -77.625

-38.9417 13.0837 3.8526e-12
13.0837 13.7444 -2.20742e-12
3.8526e-12 -2.20742e-12 -10.239

-14.4803 -10.6665 5.70699e-12
-10.6665 -17.3173 -8.93804e-13
5.70699e-12 -8.93804e-13 -78.7539

-25.9016 4.09186 2.05983e-12
4.09186 -5.9138 4.16626e-12
2.05983e-12 4.16626e-12 -78.8961

-3.6335 7.43352 -1.00702e-11
7.43352 -27.8597 2.85786e-12
-1.00702e-11 2.85786e-12 -77.9834

-43.9741 -12.1146 2.3311e-12
-12.1146 2.91625 8.43503e-12
2.3311e-12 8.43503e-12 -68.1555

11.9736 -30.4706 -5.3344e-12
-30.4706 76.164 -6.65542e-13
-5.3344e-12 -6.65542e-13 -14.701

0.521599 -12.9721 6.6267e-12
-12.9721 -39.9901 9.80253e-13
6.6267e-12 9.80253e-13 -45.2757

-16.3487 -34.4174 1.9081e-12
-34.4174 -22.0689 7.9566e-13
1.9081e-12 7.9566e-13 -23.5898

-2.42082 -18.177 2.57779e-12
-18.177 -29.8949 -1.20866e-12
2.57779e-12 -1.20866e-12 -33.6257

12.7381 15.4595 1.0895e-12
15.4595 -37.7167 -8.26598e-13
1.0895e-12 -8.26598e-13 -9.62549

-46.9073 9.86386 3.79463e-12
9.86386 8.87731 2.48157e-12
3.79463e-12 2.48157e-12 -70.1511

3.46239 19.2271 -4.24697e-13
19.2271 -41.4709 -4.20971e-12
-4.24697e-13 -4.20971e-12 -70.267

1.47201 11.3067 -6.67229e-12
11.3067 -23.9648 -1.82654e-12
-6.67229e-12 -1.82654e-12 -31.867

109.394 -15.3397 2.64559e-12
-15.3397 -12.5355 9.90674e-12
2.64559e-12 9.90674e-12 -25.0369

-14.3209 24.9645 -1.20271e-11
24.9645 10.3861 -5.22367e-12
-1.20271e-11 -5.22367e-12 -5.80504

76.6082 -61.3556 6.84016e-12
-61.3556 37.3661 2.77349e-12
6.84016e-12 2.77349e-12 -22.395

76.1152 -57.4581 7.21675e-12
-57.4581 99.2298 -5.13959e-13
7.21675e-12 -5.13959e-13 -5.55493

118.198 -36.5446 2.25242e-12
-36.5446 40.6014 -3.4639e-12
2.25242e-12 -3.4639e-12 -7.37822

-51.1129 -5.1589 -3.68905e-12
-5.1589 3.34047 3.32297e-12
-3.68905e-12 3.32297e-12 -60.6581

-50.4769 2.89127 3.8846e-12
2.89127 3.13473 -5.09133e-12
3.8846e-12 -5.09133e-12 -60.1307

-11.9755 -24.4556 -2.28913e-12
-24.4556 -35.0024 4.79039e-12
-2.28913e-12 4.79039e-12 -59.1649

-8.99172 -21.7598 -1.08593e-11
-21.7598 -37.8872 6.46002e-13
-1.08593e-11 6.46002e-13 -59.4745

-14.7024 26.1352 1.18246e-12
26.1352 -33.0268 6.47867e-12
1.18246e-12 6.47867e-12 -60.7493

-18.1568 3.09895 -2.73722e-12
3.09895 -13.1641 3.07735e-12
-2.73722e-12 3.07735e-12 -75.4757

-9.94498 -20.5083 -9.91947e-12
-20.5083 -32.6499 5.32308e-12
-9.91947e-12 5.32308e-12 -56.7353

-26.6474 -18.5679 -9.60417e-12
-18.5679 -14.1958 -2.18344e-13
-9.60417e-12 -2.18344e-13 -71.2698

-15.4782 2.43414 1.2957e-12
2.43414 -12.8524 -1.57767e-11
1.2957e-12 -1.57767e-11 -77.8701

-6.02742 -20.5256 2.71886e-12
-20.5256 -41.4862 1.17832e-13
2.71886e-12 1.17832e-13 -60.5055

-6.75668 20.9551 -5.67169e-12
20.9551 -40.1425 -3.87246e-12
-5.67169e-12 -3.87246e-12 -60.0166

-14.3154 -3.45814 -6.31909e-12
-3.45814 -11.39 -7.12704e-12
-6.31909e-12 -7.12704e-12 -76.8846

-11.2636 -3.11665 9.69506e-12
-3.11665 -17.6886 -3.44391e-12
9.69506e-12 -3.44391e-12 -74.0475

-24.2031 12.1097 6.2772e-12
12.1097 -13.4006 8.60593e-12
6.2772e-12 8.60593e-12 -69.966

-22.082 26.929 2.57868e-13
26.929 -26.2666 2.815e-12
2.57868e-13 2.815e-12 -57.5809

VECTORS fluid_flux_TPM float
-8.72176e-05 3.10277e-05 -1.17058e-20
3.55944e-06 6.88234e-06 -1.18298e-21
-1.2787e-05 -1.02252e-05 1.94571e-21
-4.17045e-06 4.2539e-06 -2.41459e-20
2.27071e-05 -6.31312e-06 -2.09469e-20
2.75751e-06 -1.59031e-05 -3.61403e-21
-8.57935e-05 -3.10925e-05 1.02046e-21
-1.38919e-05 -1.04665e-05 1.37091e-20
2.21212e-05 9.45494e-07 -1.02939e-20
1.13837e-05 -3.90798e-06 -1.98119e-21
5.45996e-05 1.24837e-05 -1.86294e-20
2.34681e-06 -1.71936e-05 1.66549e-20
1.36111e-05 1.12535e-05 -2.70577e-20
2.66201e-06 1.37842e-05 -2.2058e-20
2.05804e-05 -2.94657e-06 -3.54018e-20
-1.63319e-05 -2.72891e-07 -3.89234e-21
2.75345e-06 1.40984e-05 -3.58037e-20
1.01815e-05 -2.39182e-06 9.73612e-21
9.89836e-06 1.72223e-05 -1.85235e-21
-1.48481e-05 1.88541e-06 4.30706e-21
-3.60108e-06 -2.13035e-05 1.86006e-20
3.41107e-05 5.94171e-05 1.09744e-21
1.56971e-05 1.63126e-06 -4.4259e-21
1.12271e-05 -1.12812e-05 -1.5419e-21
-1.5078e-05 -3.33233e-06 4.59051e-21
-6.77203e-07 -1.11306e-05 2.83094e-21
6.29031e-05 -4.90844e-06 -6.90699e-21
1.40657e-05 1.02487e-05 -2.12864e-20
-2.51494e-05 -2.06426e-05 1.12233e-21
4.91201e-05 -1.28139e-05 -7.40642e-22
-1.65822e-05 -6.03823e-06 1.90387e-21
5.53709e-06 -3.20367e-05 -4.87154e-21
4.76546e-05 -4.80475e-05 -1.21229e-20
-4.92337e-06 -4.1248e-05 1.75864e-21
-2.96735e-05 3.70056e-05 -2.37774e-21
-3.82477e-05 -1.63952e-05 5.9202e-21
3.27028e-05 4.32158e-05 1.43918e-20
-4.47411e-05 -8.72593e-06 8.33793e-21
1.43745e-05 -1.10818e-05 -1.85443e-20
4.64704e-05 5.01155e-05 -2.14611e-21
3.21296e-05 -1.40221e-05 -1.33101e-20
3.36403e-05 -4.23439e-05 -3.21461e-20
-1.98966e-05 -5.03789e-05 -8.75417e-21
-1.5898e-05 6.35681e-06 6.1412e-21
3.05257e-05 -2.93146e-05 3.87262e-21
-3.03328e-05 1.09904e-05 2.63244e-20
-4.05024e-06 -2.03708e-05 8.87059e-21
7.88621e-06 2.0212e-05 1.82473e-21
-1.63427e-05 5.92792e-06 -7.56365e-21
-1.78201e-05 2.87262e-05 6.21788e-22
3.24091e-05 1.52911e-05 -1.76781e-20
2.93656e-05 -1.00753e-05 4.43529e-21
-1.56666e-05 1.57607e-05 -6.14789e-21
-2.35417e-05 -2.06907e-05 7.20532e-21
-2.11403e-05 -5.13256e-06 -1.29433e-20
-4.47926e-05 2.70767e-05 4.34445e-22
-2.93726e-05 -3.80241e-05 -4.37769e-21
6.36362e-06 -3.06287e-05 -4.80212e-21
-4.77091e-05 6.48306e-06 -2.36599e-20
6.07429e-06 1.36974e-05 -4.97373e-21
-5.577e-06 -8.17373e-06 -2.04054e-20
-6.58379e-06 -1.79443e-05 -2.04324e-20
5.71462e-05 2.48606e-05 1.5947e-22
9.24322e-06 1.8145e-05 -1.95872e-20
1.2297e-05 -1.44456e-05 -1.81605e-20
-1.64065e-06 -2.07534e-05 7.34264e-21
4.6213e-06 -8.80592e-06 -1.52513e-20
-1.0091e-05 -5.56514e-06 -1.98285e-20
-1.06031e-05 1.19298e-05 -1.17698e-20
2.55831e-06 -4.09278e-06 -4.47774e-21
-1.50441e-05 -1.5844e-05 -7.54545e-21
-2.13659e-05 5.16617e-06 -2.9313e-21
-3.55696e-06 3.4483e-05 -1.08297e-20
-1.78727e-05 1.07114e-05 -6.07663e-21
-9.07124e-06 1.46154e-05 -7.39238e-21
-6.03579e-05 7.69254e-06 -8.45343e-21
7.81845e-06 -2.16826e-05 3.20505e-21
-1.88811e-05 -8.90053e-06 -2.46655e-21
1.93382e-06 1.16246e-05 -3.02449e-20
2.63023e-05 5.0899e-06 9.5709e-22
3.41708e-05 -2.89766e-05 -5.63159e-21
2.21475e-05 2.05572e-05 -1.12462e-20
1.19091e-05 -2.82247e-06 -2.00165e-20
-3.21555e-05 2.40684e-05 6.58353e-21
3.79064e-05 4.84611e-06 2.55537e-21
-4.98105e-06 4.94173e-05 2.29828e-21
-1.7412e-06 -1.6858e-05 1.08981e-20
1.81249e-05 9.95519e-06 2.03041e-20
2.9319e-05 3.02874e-05 -1.72776e-20
5.50277e-05 3.80155e-05 5.24233e-21
-5.33161e-06 3.07745e-05 -2.05576e-20
5.9183e-05 -3.55144e-05 -9.16744e-21
-2.71263e-05 5.34147e-06 -8.05115e-21
1.78403e-05 1.10025e-05 -1.17324e-21
-2.96427e-05 9.90388e-06 1.82575e-20
1.6654e-05 2.85227e-05 -8.91152e-21
1.01694e-05 -4.43891e-05 -1.29026e-21
1.91559e-06 1.16214e-05 -2.35547e-20
-1.48016e-05 -1.76211e-05 3.94871e-21
3.07007e-06 1.74757e-05 -9.42055e-21
2.64083e-05 5.25777e-06 -2.87369e-21
-1.54441e-05 3.3213e-05 -1.37482e-20
4.05545e-05 -1.33339e-05 -3.55673e-21
-3.77327e-06 7.45546e-06 -1.37776e-20
9.9534e-06 5.89964e-06 -1.51707e-20
-2.2807e-06 -1.13252e-05 -3.69044e-21
3.22085e-06 -1.9253e-05 -7.42057e-21
1.74703e-05 3.8923e-06 2.16369e-21
-7.9376e-06 4.09749e-05 -1.15336e-20
-9.80616e-06 2.47943e-07 -2.27216e-20
9.31904e-06 1.18864e-05 -2.39033e-20
-2.17738e-06 -4.17162e-05 -6.96975e-21
4.20253e-05 1.28657e-05 -2.88431e-20
4.42281e-06 -7.4536e-06 -2.67544e-21
-1.11458e-05 -3.55384e-06 -1.98473e-20
-2.93273e-05 -1.24867e-05 1.16934e-20
1.58047e-05 4.11496e-05 8.56258e-21
-4.34874e-05 -1.55747e-05 1.25713e-20
1.60194e-05 -4.11261e-05 -3.91511e-21
-3.69999e-06 -3.19219e-05 -4.51593e-21
2.18401e-05 6.52203e-07 -6.42982e-21
-7.17189e-06 1.83976e-05 -1.22482e-20
-1.61128e-06 3.96978e-06 -2.9363e-20
-3.68617e-06 -1.65396e-05 -5.99057e-22
5.23027e-06 -8.30256e-06 -2.17314e-20
9.36001e-06 1.58644e-05 -7.54366e-21
3.3103e-05 1.0653e-05 -4.32657e-22
8.61595e-06 -7.45844e-06 -8.42253e-21
-8.27135e-06 -4.51625e-05 -1.57345e-20
2.55535e-05 -1.88209e-05 1.0417e-20
4.9782e-06 2.77728e-05 3.57218e-21
-2.81649e-06 -2.84176e-06 -8.74145e-21
-8.62672e-06 -8.32629e-06 -1.80504e-20
-4.77693e-06 4.41238e-08 5.46058e-21
-2.28739e-05 2.85957e-05 -1.11859e-20
1.87641e-05 -3.7377e-05 -1.13496e-20
-2.65814e-05 4.27168e-05 1.02018e-20
-1.63727e-05 9.53577e-06 -1.66046e-20
2.52809e-06 1.21995e-05 3.30325e-20
-2.2988e-05 -3.49912e-05 -3.04134e-21
1.39369e-05 3.34678e-05 1.23021e-20
1.75087e-05 9.36969e-06 -3.75167e-21
2.28127e-05 -8.52309e-06 -1.03532e-21
-1.25325e-06 -1.1266e-05 7.47846e-21
-3.39134e-05 -3.15596e-05 7.43663e-21
-2.75162e-06 1.13039e-05 -1.47226e-20
1.72476e-05 1.01722e-05 1.51006e-21
1.88884e-05 -8.82128e-06 3.11955e-21
8.2436e-06 -1.43456e-05 -3.05924e-21
2.43581e-05 -1.07959e-05 -1.30452e-20
1.90105e-05 -8.99831e-06 -2.96315e-21
4.64086e-06 2.05815e-07 -7.0022e-21
2.57419e-05 2.02221e-05 -1.1858e-20
-2.74175e-06 -1.70308e-05 1.4681e-20
-1.04803e-05 -4.45722e-06 1.81711e-20
1.12591e-06 -3.89027e-06 1.69709e-21
-3.15521e-06 1.58477e-05 -1.82402e-20
-3.48851e-05 2.76825e-06 -1.41032e-21
-1.21221e-05 -3.32599e-05 1.78573e-20
-7.87945e-06 9.77949e-06 -2.78896e-20
1.35659e-05 1.66411e-05 -9.84558e-21
2.65698e-05 -1.87456e-05 -7.61368e-21
-3.67941e-05 -2.03517e-05 -3.82016e-21
1.74039e-05 -2.75089e-05 5.92201e-21
2.2805e-05 -2.72178e-05 -6.79877e-21
-1.09449e-05 3.78511e-06 -9.74159e-21
-1.98299e-05 -2.88416e-05 1.98301e-21
-3.48815e-05 -5.79169e-06 6.98189e-21
-3.85259e-06 -3.17442e-05 -1.9266e-21
1.54484e-05 -3.17006e-05 7.25018e-21
-9.10657e-06 -2.62007e-05 -2.03666e-21
4.58144e-06 3.14069e-05 2.27705e-21
-1.57531e-05 -2.85234e-05 9.82648e-21
2.93895e-06 -1.6293e-05 1.07281e-20
-2.47405e-05 1.82608e-05 1.13217e-20
-1.50315e-05 -1.21117e-05 2.48837e-21
-2.73541e-05 -5.17268e-06 1.48702e-20
1.56688e-05 -9.18202e-06 7.46977e-22
-4.30713e-06 2.39537e-05 -4.74453e-21
1.22332e-05 -9.32494e-06 2.72543e-21
-2.95873e-05 -1.31649e-05 8.52408e-21
-8.83209e-06 -7.45846e-06 4.97613e-21
9.08254e-06 7.54121e-06 -2.29626e-20
2.14279e-05 2.87021e-05 -7.76314e-21
-1.75097e-05 -1.08098e-05 1.63233e-20
-3.25078e-05 -7.51106e-07 2.54932e-21
-1.63375e-05 -5.01641e-06 9.25803e-21
-4.57834e-06 -1.65841e-05 1.96419e-21
1.76856e-05 2.12403e-05 6.22246e-21
-1.09579e-05 5.87505e-06 -3.06236e-20
6.36082e-07 -2.05563e-05 1.23342e-20
-4.19418e-05 1.08514e-05 1.39768e-20
2.48618e-05 2.02473e-05 -1.34247e-20
3.79471e-06 3.2787e-05 -7.83742e-21
-2.43209e-06 3.7974e-06 -2.01044e-20
-9.05137e-06 2.51216e-07 -2.44139e-21
4.35531e-06 7.76048e-06 -8.22791e-21
-1.16945e-05 3.40163e-06 -7.29718e-21
-2.07348e-06 -3.78512e-06 3.3894e-22
1.65988e-06 2.0761e-05 -2.4024e-20
4.47263e-06 4.4972e-07 -1.75141e-20
-1.95391e-05 4.7569e-06 6.53441e-21
-1.72993e-05 1.9359e-05 -2.48016e-20
-3.1076e-06 1.15788e-05 5.76002e-22
-2.92185e-05 1.83953e-05 1.55854e-20
-9.34386e-06 8.9798e-06 -8.84211e-21
1.73121e-05 -1.16144e-05 6.81184e-22
3.66062e-05 -3.56488e-06 -6.07057e-21
-2.11418e-05 1.12979e-05 -1.31707e-20
2.23312e-06 4.49848e-06 -9.51662e-21
2.17765e-05 -4.34513e-06 -1.81478e-20
-1.72798e-05 1.03534e-05 5.45241e-21
-9.87231e-06 5.53933e-06 -3.66436e-21
1.18321e-05 3.7429e-06 -2.13725e-20
2.18811e-05 -1.34719e-05 -8.22334e-21
-1.73809e-05 9.95665e-06 8.22333e-21
-2.50383e-05 -5.30333e-06 -1.18385e-21
-1.67626e-05 -4.36272e-06 3.13836e-21
9.87675e-06 6.24267e-09 9.68669e-21
1.01744e-05 1.95368e-07 -4.00005e-20
4.39101e-06 8.31762e-06 -9.17863e-21
4.82982e-06 -8.79824e-06 -1.48363e-20
-5.01062e-06 8.42029e-06 -1.11237e-20
-5.26696e-06 -8.65807e-06 -1.0927e-20
9.91154e-06 -7.40841e-06 -8.65991e-21
-2.03286e-05 3.23509e-06 -1.45962e-20
-2.0061e-05 -3.28391e-06 -2.16875e-20
-1.28354e-05 1.58773e-05 -1.10202e-21
-1.29152e-05 -1.59316e-05 3.28373e-20
7.48666e-06 -1.98448e-05 -7.79348e-21
7.2064e-06 1.97649e-05 1.46059e-20
1.55789e-06 2.58864e-05 4.31886e-21
1.12411e-05 -3.137e-06 -1.92652e-20
2.36003e-06 -3.86673e-06 1.36739e-20
-2.14125e-05 1.42176e-06 -1.72652e-21
7.67758e-06 -1.95141e-05 -8.4668e-21
7.27381e-06 1.96626e-05 2.05637e-20
4.76905e-06 -5.27165e-08 2.34226e-21
8.96867e-06 2.44044e-05 4.91913e-21
-2.2424e-06 -4.01654e-06 -5.75984e-21
2.31787e-06 -1.13176e-05 -1.92213e-22
-2.24315e-05 -1.21522e-05 6.9934e-21
-2.13591e-05 -1.14951e-05 1.49424e-20
-2.18936e-05 1.36292e-05 9.49206e-22
3.2514e-06 -1.22881e-05 4.26539e-22
-1.5654e-06 3.38212e-06 -3.02376e-20
-5.87359e-07 -2.557e-05 2.462e-21
-7.72051e-06 -2.44237e-05 1.76775e-21
3.27051e-05 3.03635e-05 -1.36482e-20
3.54544e-05 -1.81525e-06 -1.97563e-20
-1.27115e-05 -3.6323e-06 -2.87003e-20
-2.28933e-05 -4.13872e-05 -1.80607e-20
8.3045e-06 1.37483e-05 -6.94522e-21
-2.52365e-05 3.03339e-06 1.6125e-20
2.00657e-05 5.78657e-06 8.37613e-21
-4.53326e-06 -3.27423e-08 -8.4198e-21
-4.66532e-06 -8.41298e-06 2.18294e-20
-7.07309e-06 -3.93339e-05 -1.63181e-20
-9.70861e-06 -8.39212e-08 -9.09161e-21
-4.86755e-05 -1.81576e-06 -3.55974e-21
1.73092e-05 -1.91058e-05 -2.42195e-20
2.42942e-06 3.99918e-06 -3.00367e-20
-1.20632e-07 -1.75141e-05 3.42303e-21
-9.81866e-06 2.40844e-05 -1.73419e-20
-4.37215e-06 8.62761e-06 -2.26322e-20
2.05567e-05 -1.36063e-05 6.07873e-21
-3.76597e-05 -1.35517e-05 -1.44303e-20
-1.52661e-05 -2.03662e-05 -6.50742e-21
4.97716e-06 8.38922e-06 5.81229e-21
1.66314e-05 5.16066e-06 -1.90378e-20
-4.76395e-06 -7.33839e-06 1.19756e-20
1.97967e-05 3.54723e-06 -1.79082e-21
1.81886e-05 -9.82586e-06 -1.71134e-20
-3.48818e-07 2.71728e-05 -1.19865e-20
8.32039e-06 -1.36668e-05 5.04555e-21
4.88037e-05 2.20058e-06 -6.23488e-21
-4.23566e-05 1.14533e-05 1.30967e-20
2.28597e-05 1.1556e-05 2.32206e-20
-6.45282e-06 -1.71789e-05 1.27514e-20
-1.53496e-05 -8.61796e-06 4.42105e-21
2.87867e-05 -2.1054e-07 -6.54536e-22
-6.91955e-07 -2.42543e-05 2.32942e-20
-1.26171e-05 -1.08738e-05 -1.81574e-20
1.02236e-05 -2.3499e-05 2.11184e-21
-4.96583e-07 2.05548e-05 -1.1717e-20
7.91746e-06 2.60669e-05 -6.73754e-21
1.72674e-05 -9.88394e-06 -1.06114e-20
-1.89473e-05 1.92979e-05 -1.3992e-20
1.65272e-05 2.00287e-05 -1.29991e-20
-6.22283e-05 1.60213e-05 -1.83211e-20
-1.01088e-05 2.60152e-05 2.6328e-20
1.25186e-05 -1.52477e-05 -1.51464e-20
-7.02883e-06 -1.83971e-05 -7.97566e-21
-1.18531e-05 4.50551e-06 -2.19976e-20
-2.58924e-05 -7.04553e-06 1.03922e-20
-6.38587e-06 3.88564e-05 -1.32568e-20
-1.26054e-05 1.1902e-05 5.10741e-21
2.07758e-05 -4.47543e-06 4.1018e-21
-6.87219e-06 -2.57932e-05 -1.37537e-20
-1.48682e-05 2.389e-05 -3.08127e-20
-2.17881e-05 1.25643e-05 -5.27627e-21
-2.05687e-05 -1.50548e-05 1.19914e-20
1.80279e-05 -2.06542e-05 -2.70153e-21
-2.75296e-05 -1.45619e-06 8.96276e-21
1.23667e-05 -4.08087e-05 -6.29551e-21
1.93855e-05 -1.89124e-05 -4.29888e-21
2.47316e-05 4.30802e-05 -1.49136e-20
1.97106e-06 1.98657e-05 -2.54613e-20
2.961e-06 -2.54202e-05 1.04143e-20
-4.16348e-05 4.69601e-05 -2.35077e-20
-1.27016e-05 -2.44106e-05 1.28702e-20
1.63662e-05 -6.42029e-06 -2.44323e-21
-2.41079e-06 2.57713e-05 1.07105e-20
1.28825e-05 -1.1826e-05 -8.28944e-21
1.388e-05 2.4312e-05 -2.28134e-20
1.72292e-05 -1.40044e-06 3.99236e-21
2.21193e-05 -6.32141e-05 -1.87052e-20
-5.87588e-06 -1.28587e-05 -2.24038e-21
-2.31834e-05 1.00867e-05 1.51046e-20
-2.00192e-05 1.87183e-05 6.38373e-21
2.16115e-05 1.45671e-05 -1.6949e-20
1.86719e-05 -1.07563e-05 -1.633e-20
1.49514e-05 1.2593e-05 4.02997e-21
-5.42792e-06 4.55164e-08 -4.1908e-20
1.5403e-05 -2.30864e-05 -1.89708e-20
-1.69896e-05 -2.04084e-05 6.80696e-21
2.2561e-05 9.77333e-06 -7.17469e-21
1.28061e-05 -1.19893e-05 -1.846e-20
9.55358e-06 -2.48508e-05 -4.05452e-21
1.66585e-05 -6.93262e-06 7.47238e-21
-1.58048e-05 -7.54434e-06 -1.9733e-21
1.2968e-06 -2.63019e-05 1.31461e-20
-2.61058e-05 4.47291e-06 2.61e-20
2.39032e-06 2.45418e-05 3.24051e-21
2.05842e-05 6.62721e-06 -1.18971e-20
-2.17196e-05 -1.07014e-05 -4.21489e-21
-8.97686e-06 2.56091e-05 -1.20711e-20
-1.49532e-06 -2.41871e-05 7.01128e-21
1.94657e-05 1.1837e-05 -6.48731e-23
-1.76889e-06 1.80841e-05 -2.38248e-20
-2.0138e-05 1.37021e-05 -3.7177e-21
2.35101e-05 1.14148e-05 2.36863e-21
-1.71146e-05 -9.98528e-06 9.60182e-21
9.51086e-08 -1.98341e-05 2.62054e-21
1.83818e-05 1.99836e-05 -5.16229e-21
-2.21531e-05 -1.43032e-05 2.9416e-21
4.83497e-05 -3.39812e-05 -9.87043e-21
1.78965e-05 -1.08222e-05 1.17373e-20
9.00168e-06 4.30861e-05 -6.88488e-21
1.70337e-05 -1.36783e-05 -2.84111e-20
-1.98741e-05 8.70338e-05 -1.65149e-20
-1.97643e-05 -8.65481e-05 -1.27769e-20
5.71834e-05 7.17161e-05 -1.5475e-20
5.6921e-05 -7.13898e-05 -1.02197e-20
9.06455e-05 -1.55961e-10 -8.18877e-21
-7.81998e-05 3.76382e-05 -4.0333e-21
-7.74541e-05 -3.72824e-05 7.93412e-21
1.22337e-05 1.18185e-05 1.17404e-20
2.93676e-05 2.18921e-05 2.54955e-20
1.1448e-05 3.33278e-06 3.28236e-21
1.88555e-05 9.7514e-06 5.24141e-21
4.98919e-06 2.01699e-05 -2.25495e-21
-1.88317e-05 -1.49802e-05 2.07335e-21
1.70378e-05 -1.02141e-05 -1.85819e-20
1.98524e-05 1.45492e-05 5.73283e-21
-3.1669e-06 2.43638e-05 -1.22703e-20
2.94404e-05 -1.99927e-05 -2.50414e-20
3.79389e-06 -2.37397e-05 7.94411e-21
2.19607e-05 5.22701e-06 -6.86065e-22
2.98957e-05 1.10259e-05 -2.12154e-21
1.42086e-05 1.41437e-05 7.12116e-22
1.58831e-05 6.59366e-06 -1.161e-20
-1.84987e-05 1.09366e-05 5.13865e-22
-2.25631e-05 9.03661e-06 4.21101e-22
2.29294e-05 -1.12634e-05 -1.15367e-20
-1.82678e-05 -9.99798e-06 -5.0719e-22
-1.85544e-05 -1.05824e-05 1.41447e-20
-3.43843e-07 -2.07677e-05 -5.02048e-22
-8.61342e-08 -2.11607e-05 1.77593e-21
-2.0127e-05 -1.00547e-06 1.56563e-20
2.6699e-05 -4.01915e-06 -7.31597e-21
1.8112e-05 1.13421e-05 -7.77375e-21
-1.78642e-05 1.09451e-05 1.90075e-20
-1.53614e-05 1.66236e-05 -2.09093e-20
1.60221e-05 -1.37532e-05 -2.3816e-20
-1.10235e-05 1.74634e-05 -2.55786e-20
-1.42249e-05 -1.48896e-05 5.31933e-21
-1.15524e-06 2.12107e-05 -3.78836e-21
-1.28767e-06 2.09683e-05 -4.32405e-21
8.97333e-08 -1.98341e-05 1.37576e-20
6.11086e-06 -1.97374e-05 -6.6296e-21
-1.7141e-05 -9.93553e-06 -1.68347e-21
1.55869e-05 -5.4903e-06 5.34873e-21
6.63179e-07 2.14779e-05 1.94362e-20
3.00854e-07 1.85076e-05 -2.61722e-20
-2.34575e-06 1.68574e-05 -3.13473e-21
2.19089e-05 -5.52745e-06 1.20095e-20
-1.65414e-05 5.37811e-06 -2.35174e-20
4.1575e-06 2.15176e-05 -5.51245e-21
-3.25586e-05 1.29194e-05 -1.11719e-20
9.76347e-06 4.17319e-05 6.803e-21
-1.70536e-05 4.56818e-06 -9.01855e-21
1.96846e-05 -1.16302e-05 -6.63054e-21
9.45793e-07 2.10197e-05 -4.93917e-21
-2.04815e-05 6.6995e-06 8.85786e-21
2.44413e-06 -1.62627e-05 6.73569e-21
1.81929e-06 -5.80133e-05 -4.00238e-21
2.0065e-06 1.74865e-05 -5.98781e-21
-1.69623e-05 1.40228e-05 1.29866e-20
1.78544e-05 6.39726e-05 -2.92888e-21
4.57699e-05 3.77073e-05 2.46785e-20
5.20657e-05 -3.52562e-05 1.17057e-20
1.48157e-05 -1.01673e-05 -1.56424e-20
-1.57857e-05 1.40378e-05 -1.86022e-20
-2.02172e-05 -7.92084e-06 8.41885e-22
-1.9646e-05 -6.82253e-06 7.87409e-21
5.92681e-05 -2.46124e-05 1.11255e-20
5.74347e-05 2.38713e-05 1.15348e-20
1.08947e-05 3.81755e-06 2.03102e-20
7.66658e-07 1.95797e-05 -1.14993e-20
7.83697e-08 1.9561e-05 -2.52113e-21
-4.83839e-05 -3.69196e-05 1.07069e-20
1.14254e-05 -1.71723e-05 -8.39372e-21
1.17335e-05 1.24649e-05 2.26561e-20
-2.14186e-05 -3.39582e-06 5.37359e-21
-1.40453e-05 1.72025e-05 -2.20188e-20
-1.8889e-05 9.16797e-06 5.61006e-21
4.76444e-05 3.3695e-05 -6.51288e-21
1.58068e-05 7.06182e-06 -6.97552e-21
-5.56688e-06 2.00308e-05 -2.89583e-21
-1.69785e-05 -1.17495e-05 1.50718e-20
1.8563e-06 -2.05434e-05 2.32178e-20
-8.94994e-06 -1.92678e-05 -1.45443e-20
-1.72496e-05 -1.17738e-05 6.65174e-21
1.05798e-05 -1.89363e-05 -9.61062e-21
1.41228e-05 -1.69898e-05 -1.87389e-20
-2.44038e-06 -6.14391e-05 -9.19376e-21
2.61809e-05 -4.11268e-05 6.9746e-21
1.74755e-06 -2.07862e-05 7.28049e-21
1.79592e-05 1.13557e-05 -1.55808e-20
-1.44768e-05 -1.49057e-05 -3.77621e-21
-9.84135e-06 1.97107e-05 -8.32369e-21
-5.03956e-06 2.10073e-05 -1.21884e-20
1.66277e-05 1.42441e-05 -1.42063e-20
6.05919e-06 -1.9862e-05 3.77045e-21
-1.34068e-05 -4.03592e-05 -1.72573e-20
-1.98843e-06 2.50412e-05 -9.84194e-21
1.47923e-05 1.44555e-05 -5.80591e-21
-1.29587e-05 -1.0217e-05 -8.6796e-21
-1.35154e-05 1.06085e-05 1.76441e-21
4.43442e-05 -1.89138e-05 -8.22485e-22
7.56329e-06 -1.34006e-05 2.0991e-21
-8.31742e-06 -1.26274e-05 1.98658e-20
2.13312e-05 6.36368e-06 -9.59852e-21
1.09947e-05 -5.06636e-05 -2.43875e-20
-3.84527e-05 -3.49041e-05 -5.44967e-21
2.33075e-05 6.20759e-06 5.67613e-21
-9.32854e-06 -1.82817e-05 2.2801e-21
1.87062e-05 9.4831e-06 -5.53488e-21
-2.85654e-05 -3.25524e-05 -5.98325e-21
9.68851e-06 5.00485e-05 -4.73664e-21
3.43353e-05 -5.98617e-05 -2.77857e-20
-3.47383e-05 -5.97785e-05 -1.05701e-20
2.78094e-05 -5.20239e-05 -6.4671e-21
-1.26985e-05 4.36346e-05 -8.0278e-21
-6.27628e-06 3.89787e-05 -2.07762e-20
-1.87313e-05 8.94619e-06 2.452e-21
5.97742e-06 2.4243e-05 -6.55533e-21
-2.39165e-06 1.26545e-05 -1.87435e-20
1.01205e-05 3.23325e-06 1.05983e-20
-3.18857e-06 1.6206e-05 1.63647e-21
-2.47455e-07 2.09924e-05 2.9031e-21
1.66612e-05 9.7509e-06 -1.11531e-20
1.71039e-06 5.77262e-05 -1.35484e-20
-1.47177e-05 1.0733e-05 -3.95693e-20
1.595e-05 -6.24681e-06 -4.73212e-21
1.68724e-05 -4.50912e-06 -4.68755e-21
-6.06647e-05 -8.76917e-06 2.77235e-20
-3.46068e-05 1.6742e-05 -1.91661e-21
-4.35161e-05 -5.2548e-05 -2.84489e-21
8.65681e-06 8.34596e-06 -2.71757e-20
1.42104e-05 7.29278e-06 1.50227e-20
2.68056e-05 -4.19599e-06 -1.01994e-20
-8.10464e-06 -1.32432e-05 4.23157e-21
1.72171e-05 8.42888e-06 -1.10109e-20
7.33557e-06 -3.00356e-05 -1.31989e-20
-1.37141e-05 1.02053e-05 -2.94794e-20
-2.23751e-05 -2.1423e-05 -8.03113e-21
-5.83615e-06 1.62982e-05 -5.91354e-21
-3.27109e-06 2.06792e-05 6.15726e-21
3.38508e-05 2.12971e-05 6.5435e-21
3.61144e-05 -1.92835e-05 -8.41499e-21
-4.20718e-05 -1.16234e-05 -3.36806e-22
7.63442e-06 7.68598e-06 1.68566e-20
-4.05856e-06 0.000101364 -1.63106e-20
8.61891e-07 -0.000104471 -3.63767e-21
5.2456e-05 8.76475e-05 -2.63383e-20
-1.91035e-05 8.45816e-06 -2.14789e-20
-2.63772e-05 5.65513e-05 2.84004e-21
5.30343e-05 -8.46421e-05 -1.73374e-20
-1.17209e-05 -1.82829e-05 1.1174e-20
7.80023e-05 6.74995e-05 -1.67062e-20
2.39943e-05 -1.79773e-05 -3.62646e-21
-3.60754e-06 -2.9823e-05 -1.11552e-20
8.17811e-05 -6.58521e-05 -1.02218e-20
-6.74482e-06 1.45187e-05 5.3381e-21
-5.38337e-05 -3.48249e-05 2.31845e-20
-4.30145e-05 -9.31326e-05 1.69196e-21
-2.41132e-05 -5.78059e-05 -1.15606e-20
-4.39761e-05 9.41396e-05 -1.21114e-21
-1.00935e-05 6.40857e-05 3.66979e-21
1.56332e-05 3.71093e-05 -2.08626e-20
-2.79561e-05 3.72416e-05 2.14116e-20
-2.52736e-05 -5.5185e-05 -4.96883e-22
0.000100368 1.73174e-05 -3.45001e-21
-1.69279e-05 1.07673e-05 5.75103e-21
-5.9125e-06 1.63335e-05 4.04572e-21
-5.07595e-05 3.76408e-05 -3.8044e-21
-1.72767e-05 9.9444e-06 -2.86187e-21
9.92053e-05 -1.52637e-05 8.7175e-21
-1.53606e-05 7.79892e-06 -8.75115e-21
7.19282e-06 -1.44953e-05 -2.07426e-21
-7.79715e-05 -6.095e-05 9.02217e-21
-2.58796e-05 5.77188e-05 5.87714e-21
-7.91245e-05 6.03772e-05 2.86066e-21
2.4541e-05 5.19516e-05 -1.04774e-20
-1.47679e-05 1.05827e-05 3.78743e-21
-2.05304e-05 2.44772e-05 -1.72592e-20
-2.85334e-05 4.98192e-05 8.34399e-21
-5.67775e-05 2.08e-07 -4.47986e-21
-9.44125e-07 1.62965e-05 -3.54492e-21
-2.88504e-05 -5.04078e-05 -2.53009e-20
-5.81999e-05 -2.1982e-07 -1.20856e-20
-2.83503e-05 4.86975e-05 -1.64852e-20
-1.51907e-05 6.62679e-05 -1.96038e-20
-1.78652e-05 4.12617e-05 -1.16206e-20
-3.39011e-05 2.71381e-05 -1.39383e-20
2.43835e-05 -6.0571e-06 -1.52104e-20
3.80037e-05 -2.19536e-06 -2.95165e-21
1.34827e-05 8.20052e-06 -8.15057e-21
-1.04694e-05 -7.39896e-05 -2.26979e-20
-6.94507e-05 -2.79749e-05 -6.57654e-21
3.71332e-05 7.3275e-07 5.06709e-21
5.83676e-05 -1.08924e-05 -1.54708e-20
-1.0584e-05 -1.34974e-05 7.82529e-21
-5.08301e-05 3.76266e-05 6.85546e-21
-4.61348e-05 5.40015e-05 7.52575e-21
6.23643e-05 -2.2233e-05 -2.57144e-20
-2.81781e-05 -5.04984e-05 -2.94958e-20
-2.87778e-05 4.97808e-05 -1.87089e-20
-5.72559e-05 -1.17119e-06 2.08544e-20
-2.6574e-05 5.05991e-05 -2.65793e-20
-5.79547e-05 -8.17031e-07 -1.55511e-20
6.60779e-05 1.73929e-05 -3.11978e-20
5.63817e-05 1.29254e-06 -1.35624e-20
5.09015e-05 -2.92746e-05 8.96998e-21
2.49109e-05 -5.94287e-05 1.46534e-20
2.99193e-05 -4.88581e-05 1.4232e-20
2.91682e-05 4.8682e-05 1.97894e-20
2.43457e-05 5.80909e-05 2.40979e-20
7.58044e-05 -2.00381e-05 1.68108e-20
4.62676e-05 2.9064e-05 2.33055e-20
4.66255e-05 1.37458e-05 2.3749e-20
TENSORS solid_stress_TPM float
375.036 -24.9206 4.358e-13
-24.9206 238.573 9.79365e-13
4.358e-13 9.79365e-13 197.82

457.01 -21.3203 -1.61278e-13
-21.3203 489.994 1.86754e-12
-1.61278e-13 1.86754e-12 487.117

454.885 28.0437 8.72783e-12
28.0437 463.715 1.12917e-12
8.72783e-12 1.12917e-12 458.464

455.035 -29.8426 -3.56544e-12
-29.8426 482.616 -1.27542e-12
-3.56544e-12 -1.27542e-12 484.863

527.691 19.9309 -2.3892e-13
19.9309 548.46 4.26585e-12
-2.3892e-13 4.26585e-12 527.362

437.317 -18.0747 -4.61779e-12
-18.0747 480.345 -4.2828e-12
-4.61779e-12 -4.2828e-12 458.045

372.331 26.4847 1.42109e-13
26.4847 239.093 3.23652e-12
1.42109e-13 3.23652e-12 197.804

473.658 29.9581 -4.36569e-12
29.9581 469.507 -1.43648e-12
-4.36569e-12 -1.43648e-12 472.343

471.555 5.48321 1.40569e-12
5.48321 417.828 1.50239e-12
1.40569e-12 1.50239e-12 432.801

504.265 -7.47758 2.5017e-12
-7.47758 444.118 4.50306e-13
2.5017e-12 4.50306e-13 483.458

360.297 16.3088 1.72188e-12
16.3088 247.658 -8.38914e-12
1.72188e-12 -8.38914e-12 233.648

444.788 -13.4534 9.21781e-13
-13.4534 498.391 -1.17654e-12
9.21781e-13 -1.17654e-12 472.245

466.873 27.8335 1.2997e-12
27.8335 468.308 2.04932e-12
1.2997e-12 2.04932e-12 466.74

457.043 -14.3402 -1.12592e-12
-14.3402 500.44 -9.87654e-13
-1.12592e-12 -9.87654e-13 483.463

512.942 33.3109 2.90967e-12
33.3109 511.602 1.50216e-12
2.90967e-12 1.50216e-12 515.231

489.178 0.560994 6.32383e-13
0.560994 435.528 3.22214e-12
6.32383e-13 3.22214e-12 462.277

457.589 -17.9691 -1.09009e-12
-17.9691 512.892 1.04539e-12
-1.09009e-12 1.04539e-12 493.602

493.963 -2.6652 2.09906e-13
-2.6652 439.054 1.44248e-12
2.09906e-13 1.44248e-12 474.269

418.797 26.6742 -5.62187e-12
26.6742 449.665 -1.89419e-12
-5.62187e-12 -1.89419e-12 424.058

481.987 -4.19566 -3.10211e-12
-4.19566 424.926 -3.3471e-12
-3.10211e-12 -3.3471e-12 453.48

425.301 8.66879 2.77289e-12
8.66879 481.908 1.65793e-12
2.77289e-12 1.65793e-12 444.846

634.13 6.28733 8.83475e-12
6.28733 633.965 5.37052e-12
8.83475e-12 5.37052e-12 570.321

479.158 1.876 -3.97845e-12
1.876 422.945 1.58836e-12
-3.97845e-12 1.58836e-12 449.737

447.168 -27.7156 1.1345e-12
-27.7156 461.155 1.51523e-12
1.1345e-12 1.51523e-12 452.953

481.054 6.84948 1.5099e-12
6.84948 425.445 1.33005e-12
1.5099e-12 1.33005e-12 452.943

449.763 19.113 -1.24952e-12
19.113 490.323 -1.24819e-12
-1.24952e-12 -1.24819e-12 478.211

377.658 4.18146 -3.66403e-12
4.18146 291.657 4.11996e-12
-3.66403e-12 4.11996e-12 259.005

462.69 30.7462 2.28558e-13
30.7462 460.72 4.8382e-12
2.28558e-13 4.8382e-12 460.55

384.945 37.0751 -2.54256e-12
37.0751 383.524 -1.64727e-12
-2.54256e-12 -1.64727e-12 348.422

586.945 10.3235 1.50546e-12
10.3235 563.455 3.69882e-12
1.50546e-12 3.69882e-12 546.877

491.693 14.217 1.9836e-12
14.217 442.503 1.91136e-12
1.9836e-12 1.91136e-12 465.861

352.859 -17.7807 -3.01092e-13
-17.7807 416.728 3.83812e-12
-3.01092e-13 3.83812e-12 348.593

331.021 -42.1023 4.59247e-12
-42.1023 335.876 -7.60281e-13
4.59247e-12 -7.60281e-13 253.485

531.413 5.98648 -2.66499e-12
5.98648 586.892 5.18104e-12
-2.66499e-12 5.18104e-12 538.586

554.027 -4.84027 9.99793e-13
-4.84027 582.074 -1.24493e-12
9.99793e-13 -1.24493e-12 542.516

577.99 21.0278 4.07467e-12
21.0278 539.951 7.6561e-13
4.07467e-12 7.6561e-13 538.354

556.188 5.06709 1.27542e-12
5.06709 600.677 -4.1996e-12
1.27542e-12 -4.1996e-12 547.973

573.777 -9.17014 8.2867e-13
-9.17014 555.768 -9.23891e-13
8.2867e-13 -9.23891e-13 540.642

467.133 -27.9985 1.0066e-13
-27.9985 466.497 -2.49874e-13
1.0066e-13 -2.49874e-13 465.112

330.405 41.5216 -1.85925e-12
41.5216 337.974 -2.77822e-12
-1.85925e-12 -2.77822e-12 253.844

414.53 -17.9494 -6.15922e-12
-17.9494 354.491 4.6428e-12
-6.15922e-12 4.6428e-12 346.324

559.309 -3.7057 -4.89075e-12
-3.7057 599.926 1.12873e-12
-4.89075e-12 1.12873e-12 548.387

586.415 19.5549 2.38676e-12
19.5549 572.458 -1.43352e-12
2.38676e-12 -1.43352e-12 548.176

490.898 -12.2733 -5.12479e-12
-12.2733 442.857 -1.89093e-12
-5.12479e-12 -1.89093e-12 466.533

341.711 -43.2997 -1.86754e-12
-43.2997 345.339 2.88125e-12
-1.86754e-12 2.88125e-12 288.979

417.556 -18.0637 -1.81544e-12
-18.0637 357.108 2.10025e-12
-1.81544e-12 2.10025e-12 351.497

413.009 17.086 3.5915e-12
17.086 464.779 -4.22891e-12
3.5915e-12 -4.22891e-12 428.723

429.626 19.3393 -3.50742e-12
19.3393 466.509 -3.24422e-12
-3.50742e-12 -3.24422e-12 437.077

486.777 -16.3012 1.6532e-12
-16.3012 432.871 2.81775e-12
1.6532e-12 2.81775e-12 458.674

355.577 -34.186 2.70243e-12
-34.186 389.398 -1.92202e-12
2.70243e-12 -1.92202e-12 332.564

410.248 19.1821 -5.05551e-12
19.1821 350.697 -3.0127e-12
-5.05551e-12 -3.0127e-12 339.473

425.197 -25.2888 -8.92915e-13
-25.2888 383.817 -2.36996e-12
-8.92915e-13 -2.36996e-12 373.073

519.918 19.4853 4.67774e-13
19.4853 547.528 3.10566e-13
4.67774e-13 3.10566e-13 525.729

416.409 29.6498 4.11996e-12
29.6498 393.882 -6.61989e-13
4.11996e-12 -6.61989e-13 373.937

522.173 -21.8128 -1.6905e-13
-21.8128 541.394 7.4694e-13
-1.6905e-13 7.4694e-13 524.375

364.067 -42.7118 -1.60109e-12
-42.7118 343.279 -1.56083e-12
-1.60109e-12 -1.56083e-12 289.696

553.448 5.45926 -3.9333e-12
5.45926 583.867 2.42177e-12
-3.9333e-12 2.42177e-12 542.891

373.713 -5.32988 -5.06528e-12
-5.32988 436.659 2.08426e-12
-5.06528e-12 2.08426e-12 373.821

580.815 10.3843 -2.4043e-12
10.3843 556.168 8.69915e-13
-2.4043e-12 8.69915e-13 542.647

435.054 21.4133 -2.52983e-12
21.4133 473.759 -1.87643e-12
-2.52983e-12 -1.87643e-12 454.669

513.571 5.75406 1.10608e-12
5.75406 452.805 3.44406e-12
1.10608e-12 3.44406e-12 494.864

522.457 11.4589 3.30994e-13
11.4589 487.86 -9.50351e-13
3.30994e-13 -9.50351e-13 507.077

383.703 31.8202 3.54324e-12
31.8202 315.191 -2.54374e-12
3.54324e-12 -2.54374e-12 269.869

482.087 -6.03534 -1.54055e-12
-6.03534 528.18 -4.07852e-12
-1.54055e-12 -4.07852e-12 504.1

487.095 9.51987 -1.82373e-13
9.51987 523.689 -3.33807e-12
-1.82373e-13 -3.33807e-12 507.495

456.458 -2.88094 -2.09858e-12
-2.88094 520.156 -5.47118e-13
-2.09858e-12 -5.47118e-13 487.807

464.454 23.4019 -1.35125e-12
23.4019 503.47 -3.44199e-12
-1.35125e-12 -3.44199e-12 495.44

496.747 8.46363 -4.16348e-12
8.46363 444.398 2.25005e-13
-4.16348e-12 2.25005e-13 477.698

445.506 -28.2397 5.32907e-13
-28.2397 459.528 -7.18832e-13
5.32907e-13 -7.18832e-13 451.167

501.682 -1.71129 7.46662e-13
-1.71129 444.916 -3.42023e-13
7.46662e-13 -3.42023e-13 489.068

519.531 -19.2614 -2.68008e-12
-19.2614 546.822 2.60651e-12
-2.68008e-12 2.60651e-12 525.462

523.302 21.3078 2.2086e-12
21.3078 542.918 2.08332e-12
2.2086e-12 2.08332e-12 525.264

353.409 -16.5837 4.45569e-12
-16.5837 415.735 7.10543e-13
4.45569e-12 7.10543e-13 346.112

506.021 -27.9362 2.63197e-12
-27.9362 485.309 -4.305e-12
2.63197e-12 -4.305e-12 493.88

449.72 -25.1349 -2.35071e-12
-25.1349 471.221 -4.60076e-13
-2.35071e-12 -4.60076e-13 458.577

357.87 -31.711 -2.49164e-12
-31.711 285.676 7.49919e-12
-2.49164e-12 7.49919e-12 249.858

498.499 3.22271 3.75603e-12
3.22271 541.405 -1.48267e-12
3.75603e-12 -1.48267e-12 513.642

501.726 28.9441 -1.65616e-12
28.9441 474.55 -2.94905e-12
-1.65616e-12 -2.94905e-12 487.658

448.445 19.6643 -3.15718e-12
19.6643 492.108 1.61885e-12
-3.15718e-12 1.61885e-12 477.643

440.193 7.99965 -1.42109e-13
7.99965 373.038 -2.06946e-13
-1.42109e-13 -2.06946e-13 382.935

386.451 -33.936 -2.58045e-12
-33.936 360.206 2.20268e-12
-2.58045e-12 2.20268e-12 319.436

537.719 -10.5874 6.40169e-12
-10.5874 556.138 1.63425e-12
6.40169e-12 1.63425e-12 531.249

482.658 23.8996 -5.76132e-13
23.8996 504.56 -2.35455e-13
-5.76132e-13 -2.35455e-13 502.043

385.372 -32.3843 -6.00409e-13
-32.3843 345.307 -3.98614e-12
-6.00409e-13 -3.98614e-12 317.081

422.198 10.7912 -2.84809e-12
10.7912 363.851 7.28306e-14
-2.84809e-12 7.28306e-14 350.254

307.652 -21.2063 -4.89682e-12
-21.2063 388.443 -5.06854e-13
-4.89682e-12 -5.06854e-13 288.116

434.445 14.4258 2.7911e-12
14.4258 488.67 1.12029e-12
2.7911e-12 1.12029e-12 460.885

509.722 23.1433 2.72316e-12
23.1433 475.172 5.01584e-12
2.72316e-12 5.01584e-12 489.947

338.241 42.1992 -2.18018e-12
42.1992 349.572 1.88649e-12
-2.18018e-12 1.88649e-12 288.952

634.215 16.5067 -1.2002e-11
16.5067 603.069 3.75048e-12
-1.2002e-11 3.75048e-12 565.325

372.889 -4.10842 2.81641e-12
-4.10842 436.819 2.19676e-12
2.81641e-12 2.19676e-12 373.428

637.121 -16.6319 7.76956e-12
-16.6319 599.539 -4.1056e-12
7.76956e-12 -4.1056e-12 564.832

533.94 -27.3349 1.52885e-12
-27.3349 507.24 2.23984e-12
1.52885e-12 2.23984e-12 515.715

505.298 27.4247 2.45433e-12
27.4247 466.335 1.78169e-12
2.45433e-12 1.78169e-12 485.073

426.927 -24.4109 -4.09865e-12
-24.4109 386.24 -2.32703e-12
-4.09865e-12 -2.32703e-12 375.979

358.937 31.3237 -7.28306e-14
31.3237 396.006 2.11031e-12
-7.28306e-14 2.11031e-12 339.201

339.826 -10.7052 1.92675e-12
-10.7052 408.393 -3.21165e-12
1.92675e-12 -3.21165e-12 319.106

453.106 21.9708 1.14693e-12
21.9708 494.681 1.83853e-12
1.14693e-12 1.83853e-12 483.17

533.115 16.7943 -1.06256e-12
16.7943 506.199 8.50579e-13
-1.06256e-12 8.50579e-13 513.354

443.455 15.1541 -5.11798e-12
15.1541 488.442 7.31859e-13
-5.11798e-12 7.31859e-13 464.285

451.483 15.954 9.14232e-13
15.954 400.539 9.40729e-13
9.14232e-13 9.40729e-13 403.749

374.49 -21.4728 2.78947e-12
-21.4728 419.869 -2.69414e-12
2.78947e-12 -2.69414e-12 357.199

389.724 -29.391 -1.54898e-12
-29.391 342.371 7.1078e-12
-1.54898e-12 7.1078e-12 314.392

454.968 -24.5732 -3.40113e-12
-24.5732 480.068 -2.17308e-12
-3.40113e-12 -2.17308e-12 478.373

466.429 27.4512 -5.78796e-13
27.4512 478.746 -3.66818e-13
-5.78796e-13 -3.66818e-13 479.812

452.22 23.1877 8.30595e-13
23.1877 492.562 -2.20683e-12
8.30595e-13 -2.20683e-12 482.046

466.299 13.1691 -1.25215e-13
13.1691 529.779 -1.0818e-12
-1.25215e-13 -1.0818e-12 501.386

490.865 9.37232 -4.79261e-12
9.37232 437.892 -2.02268e-12
-4.79261e-12 -2.02268e-12 462.058

327.713 -4.66511 -8.80185e-13
-4.66511 403.384 8.20677e-12
-8.80185e-13 8.20677e-12 314.413

462.582 -36.8329 -3.28626e-12
-36.8329 487.693 1.5136e-13
-3.28626e-12 1.5136e-13 492.751

445.852 27.4656 -5.98336e-13
27.4656 463.273 -3.34547e-13
-5.98336e-13 -3.34547e-13 455.017

305.673 2.17034 1.53951e-13
2.17034 393.363 -1.79767e-12
1.53951e-13 -1.79767e-12 297.257

385.999 34.6108 1.34529e-12
34.6108 332.45 -3.49528e-12
1.34529e-12 -3.49528e-12 306.247

453.354 -22.9741 9.87802e-13
-22.9741 480.073 -1.08861e-12
9.87802e-13 -1.08861e-12 476.176

501.398 5.73296 1.06285e-13
5.73296 441.319 -3.71037e-12
1.06285e-13 -3.71037e-12 481.013

422.384 27.2044 2.80783e-12
27.2044 389.769 -2.42946e-12
2.80783e-12 -2.42946e-12 374.237

570.544 12.7453 3.65352e-12
12.7453 565.919 1.34233e-12
3.65352e-12 1.34233e-12 542.919

396.181 24.3308 1.91847e-13
24.3308 349.65 -1.54484e-12
1.91847e-13 -1.54484e-12 319.046

569.166 -13.0549 -8.69083e-13
-13.0549 565.83 4.32247e-13
-8.69083e-13 4.32247e-13 542.374

375.094 0.778555 2.35219e-13
0.778555 438.872 4.93827e-13
2.35219e-13 4.93827e-13 374.643

461.474 -2.23535 -3.14415e-12
-2.23535 399.306 -7.40889e-13
-3.14415e-12 -7.40889e-13 417.284

538.199 -15.7677 5.80721e-13
-15.7677 480.635 2.04251e-12
5.80721e-13 2.04251e-12 513.481

457.248 24.3882 7.19089e-13
24.3882 487.788 -1.15804e-12
7.19089e-13 -1.15804e-12 488.358

461.259 -13.5351 -1.33823e-12
-13.5351 519.139 1.09424e-12
-1.33823e-12 1.09424e-12 495.718

514.973 -7.99987 -1.09631e-12
-7.99987 438.195 2.87651e-12
-1.09631e-12 2.87651e-12 494.28

488.318 -22.2837 -1.42597e-12
-22.2837 541.605 -1.90485e-12
-1.42597e-12 -1.90485e-12 515.753

556.053 -6.59688 1.66385e-12
-6.59688 560.397 -1.88679e-12
1.66385e-12 -1.88679e-12 538.732

463.87 -29.9082 -1.64402e-12
-29.9082 483.2 1.77636e-13
-1.64402e-12 1.77636e-13 483.603

341.709 11.4538 1.8782e-12
11.4538 406.197 -7.43701e-13
1.8782e-12 -7.43701e-13 319.485

422.484 -28.1469 1.89123e-12
-28.1469 391.245 2.57276e-12
1.89123e-12 2.57276e-12 375.15

507.384 -13.7719 -1.87443e-12
-13.7719 558.751 1.39207e-12
-1.87443e-12 1.39207e-12 525.255

501.06 0.504537 -3.42304e-12
0.504537 441.284 -3.37345e-12
-3.42304e-12 -3.37345e-12 487.09

476.946 -21.5244 -2.29431e-12
-21.5244 507.425 1.71655e-12
-2.29431e-12 1.71655e-12 501.508

459.101 25.6978 1.26269e-12
25.6978 484.605 -2.98354e-13
1.26269e-12 -2.98354e-13 487.985

394.433 -31.4648 -6.8899e-12
-31.4648 400.602 2.28439e-12
-6.8899e-12 2.28439e-12 357.524

552.128 -7.08458 -5.26246e-13
-7.08458 585.298 6.21458e-12
-5.26246e-13 6.21458e-12 542.606

347.212 -33.0771 2.70717e-12
-33.0771 382.61 -4.49063e-12
2.70717e-12 -4.49063e-12 303.437

490.874 -19.1798 -3.84877e-14
-19.1798 448.391 1.6757e-13
-3.84877e-14 1.6757e-13 467.127

519.712 1.97049 -2.22822e-12
1.97049 466.818 4.26622e-13
-2.22822e-12 4.26622e-13 502.835

570.562 17.8749 3.83042e-12
17.8749 566.482 -1.10549e-12
3.83042e-12 -1.10549e-12 542.378

375.293 20.1831 -2.24828e-12
20.1831 424.035 1.85452e-12
-2.24828e-12 1.85452e-12 360.223

489.085 27.2107 3.53613e-12
27.2107 468.543 9.71667e-13
3.53613e-12 9.71667e-13 476.642

454.382 -24.5118 -2.81849e-12
-24.5118 415.345 2.88362e-12
-2.81849e-12 2.88362e-12 418.605

454.722 -17.8386 -9.30589e-13
-17.8386 494.91 1.9836e-13
-9.30589e-13 1.9836e-13 482.645

379.201 35.0686 -8.26006e-12
35.0686 366.033 -1.64135e-12
-8.26006e-12 -1.64135e-12 317.051

449.156 -21.8311 4.20849e-13
-21.8311 491.708 8.97948e-13
4.20849e-13 8.97948e-13 479.777

485.494 30.8506 2.6373e-12
30.8506 465.139 4.39796e-12
2.6373e-12 4.39796e-12 473.449

480.325 -25.2442 -3.381e-13
-25.2442 442.37 5.68434e-14
-3.381e-13 5.68434e-14 455.445

448.221 -25.1266 2.69533e-12
-25.1266 469.771 1.10726e-12
2.69533e-12 1.10726e-12 458.099

445.348 -18.6883 -1.12029e-12
-18.6883 393.463 -5.65178e-12
-1.12029e-12 -5.65178e-12 397.26

470.656 -18.8498 9.60417e-13
-18.8498 422.855 3.67114e-13
9.60417e-13 3.67114e-13 437.534

459.001 -25.3371 -2.72123e-12
-25.3371 485.431 2.96171e-13
-2.72123e-12 2.96171e-13 488.828

386.543 35.9697 1.90544e-12
35.9697 381.989 2.66927e-12
1.90544e-12 2.66927e-12 348.118

444.497 15.3769 8.63013e-14
15.3769 491.535 1.87702e-12
8.63013e-14 1.87702e-12 467.141

469.398 26.4224 -1.19608e-12
26.4224 479.96 1.3974e-13
-1.19608e-12 1.3974e-13 482.548

456.144 25.4736 1.30589e-12
25.4736 486.648 1.25825e-14
1.30589e-12 1.25825e-14 487.248

457.809 11.6216 9.77644e-13
11.6216 506.941 -1.00897e-12
9.77644e-13 -1.00897e-12 486.016

431.952 -8.22707 4.14483e-13
-8.22707 370.756 1.23013e-12
4.14483e-13 1.23013e-12 363.308

376.78 18.6066 -7.10543e-13
18.6066 427.267 3.75877e-12
-7.10543e-13 3.75877e-12 363.884

452.313 -24.3806 -3.49913e-12
-24.3806 478.387 -2.3516e-12
-3.49913e-12 -2.3516e-12 470.712

440.747 25.6661 -4.57767e-12
25.6661 455.642 -8.941e-14
-4.57767e-12 -8.941e-14 437.806

390.956 -35.6296 2.68348e-12
-35.6296 380.277 9.4739e-14
2.68348e-12 9.4739e-14 350.091

368.941 38.3169 -4.32602e-12
38.3169 327.252 4.95248e-12
-4.32602e-12 4.95248e-12 295.682

363.647 -33.3113 -3.05415e-12
-33.3113 394.435 -2.44545e-12
-3.05415e-12 -2.44545e-12 341.979

397.93 -31.1598 -3.51363e-12
-31.1598 404.192 -1.18542e-12
-3.51363e-12 -1.18542e-12 362.973

502.858 -6.83864 3.39521e-12
-6.83864 442.251 1.91506e-12
3.39521e-12 1.91506e-12 482.318

393.164 30.342 1.74201e-12
30.342 408.978 1.10726e-12
1.74201e-12 1.10726e-12 363.433

429.701 13.2948 -1.55254e-12
13.2948 372.246 -6.33567e-13
-1.55254e-12 -6.33567e-13 362.713

350.143 13.3789 2.4268e-12
13.3789 418.513 9.59233e-13
2.4268e-12 9.59233e-13 348.474

379.478 -22.3405 -7.77452e-13
-22.3405 423.512 3.09441e-12
-7.77452e-13 3.09441e-12 363.447

491.207 -1.09169 -1.31754e-12
-1.09169 550.877 3.42482e-12
-1.31754e-12 3.42482e-12 516.306

372.862 2.24663 -4.66146e-12
2.24663 437.787 -5.1313e-12
-4.66146e-12 -5.1313e-12 373.519

357.889 31.0895 -2.61361e-12
31.0895 399.486 -3.30994e-12
-2.61361e-12 -3.30994e-12 341.96

457.991 12.1079 -1.55521e-12
12.1079 510.561 1.96761e-12
-1.55521e-12 1.96761e-12 488.403

421.452 -27.6478 1.96939e-12
-27.6478 389.071 3.07902e-12
1.96939e-12 3.07902e-12 375.071

524.756 20.557 -1.83379e-12
20.557 469.749 2.26337e-12
-1.83379e-12 2.26337e-12 500.735

534.924 26.2704 -1.19016e-12
26.2704 506.859 -1.11614e-12
-1.19016e-12 -1.11614e-12 516.094

494.817 -18.5678 -3.3206e-12
-18.5678 449.026 -4.47642e-13
-3.3206e-12 -4.47642e-13 470.856

554.584 -1.80157 -2.34198e-12
-1.80157 516.022 -1.3527e-12
-2.34198e-12 -1.3527e-12 525.716

473.287 -31.8119 6.85082e-13
-31.8119 475.697 4.74406e-12
6.85082e-13 4.74406e-12 478.578

412.597 23.328 7.69755e-14
23.328 357.195 -3.11514e-12
7.69755e-14 -3.11514e-12 348.091

464.177 30.1621 8.17124e-14
30.1621 482.769 -1.48148e-12
8.17124e-14 -1.48148e-12 483.205

464.44 29.2059 2.77408e-13
29.2059 482.242 1.06552e-12
2.77408e-13 1.06552e-12 482.766

393.946 30.6611 2.3294e-12
30.6611 405.723 2.67519e-12
2.3294e-12 2.67519e-12 360.868

502.855 27.0852 -5.1692e-13
27.0852 482.665 -2.4721e-12
-5.1692e-13 -2.4721e-12 490.734

415.351 3.52518 -5.77908e-13
3.52518 339.016 6.63506e-13
-5.77908e-13 6.63506e-13 340.824

493.123 31.8172 -7.09951e-13
31.8172 487.224 2.12038e-12
-7.09951e-13 2.12038e-12 495.575

476.326 -12.5996 -4.73214e-12
-12.5996 522.451 1.82313e-12
-4.73214e-12 1.82313e-12 500.248

536.926 24.2781 -1.1872e-12
24.2781 507.402 -5.38207e-12
-1.1872e-12 -5.38207e-12 516.63

468.178 -29.5788 4.54955e-12
-29.5788 479.971 -2.40075e-12
4.54955e-12 -2.40075e-12 483.062

464.561 -4.89795 4.72108e-12
-4.89795 521.556 -1.40984e-12
4.72108e-12 -1.40984e-12 490.979

400.939 -24.5565 3.99325e-12
-24.5565 349.023 -1.48326e-12
3.99325e-12 -1.48326e-12 323.95

418.967 29.6934 -4.13417e-12
29.6934 392.464 5.3267e-12
-4.13417e-12 5.3267e-12 373.769

352.344 14.6967 -3.05385e-12
14.6967 417.212 3.51837e-12
-3.05385e-12 3.51837e-12 348.239

500.531 -1.13895 -1.65482e-12
-1.13895 442.796 1.10393e-12
-1.65482e-12 1.10393e-12 487.71

492.472 0.00221789 2.47535e-12
0.00221789 438.104 1.43418e-12
2.47535e-12 1.43418e-12 474.42

452.967 23.1241 4.98461e-12
23.1241 479.708 6.22613e-13
4.98461e-12 6.22613e-13 475.587

481.305 23.871 -2.80783e-12
23.871 502.875 -5.15736e-13
-2.80783e-12 -5.15736e-13 501.254

456.589 -24.3808 2.32582e-12
-24.3808 487.354 -6.31347e-13
2.32582e-12 -6.31347e-13 488.499

457.838 -0.672894 5.38458e-14
-0.672894 517.943 -1.05516e-12
5.38458e-14 -1.05516e-12 486.401

458.887 25.5905 1.70974e-13
25.5905 486.471 8.80777e-13
1.70974e-13 8.80777e-13 488.521

465.563 -10.3081 1.86103e-12
-10.3081 408.087 -6.6569e-13
1.86103e-12 -6.6569e-13 427.227

400.868 -32.8339 -2.53605e-12
-32.8339 414.959 -6.83187e-12
-2.53605e-12 -6.83187e-12 385.169

518.102 -2.30094 -6.79012e-13
-2.30094 465.744 3.18264e-13
-6.79012e-13 3.18264e-13 500.932

391.876 -34.5087 1.45306e-12
-34.5087 379.61 2.03807e-12
1.45306e-12 2.03807e-12 347.421

478.007 19.0861 -5.08615e-12
19.0861 509.207 -3.04941e-12
-5.08615e-12 -3.04941e-12 501.851

506.119 -26.4788 -3.66699e-12
-26.4788 470.253 -2.14465e-12
-3.66699e-12 -2.14465e-12 487.279

425.006 -9.69039 -2.41466e-12
-9.69039 366.735 3.65959e-12
-2.41466e-12 3.65959e-12 355.985

530.272 -23.1921 -5.84066e-12
-23.1921 488.763 -2.90286e-12
-5.84066e-12 -2.90286e-12 506.495

500.899 2.3583 3.07102e-12
2.3583 444.584 -4.77544e-13
3.07102e-12 -4.77544e-13 489.212

521.198 -23.3216 1.44477e-12
-23.3216 501.848 2.73751e-12
1.44477e-12 2.73751e-12 508.54

502.023 -25.8596 -2.13222e-12
-25.8596 461.498 -2.1109e-12
-2.13222e-12 -2.1109e-12 481.251

498.834 -8.54628 1.73432e-12
-8.54628 445.143 3.14859e-13
1.73432e-12 3.14859e-13 479.351

482.227 -23.0682 9.31403e-13
-23.0682 504.999 -1.23612e-12
9.31403e-13 -1.23612e-12 502.542

428.546 -31.3423 5.19525e-12
-31.3423 410.594 -1.43234e-12
5.19525e-12 -1.43234e-12 399.003

503.275 -24.5876 -1.52471e-12
-24.5876 464.72 1.96495e-12
-1.52471e-12 1.96495e-12 482.167

441.247 10.8646 -2.32229e-12
10.8646 378.486 -1.52411e-12
-2.32229e-12 -1.52411e-12 387.804

500.044 26.3404 1.10371e-12
26.3404 498.59 -6.95e-13
1.10371e-12 -6.95e-13 500.112

463.757 -37.6126 2.60384e-12
-37.6126 488.397 -8.32445e-13
2.60384e-12 -8.32445e-13 494.09

464.866 37.2649 -2.36255e-13
37.2649 487.308 2.04888e-12
-2.36255e-13 2.04888e-12 493.805

446.335 -28.5732 4.99626e-12
-28.5732 500.022 9.17784e-14
4.99626e-12 9.17784e-14 492.319

448.569 27.064 1.94481e-12
27.064 500.713 -1.26506e-12
1.94481e-12 -1.26506e-12 492.507

513.077 -8.52751 -8.5872e-13
-8.52751 436.413 1.94659e-13
-8.5872e-13 1.94659e-13 492.767

511.24 9.27351 1.44817e-12
9.27351 438.01 1.68191e-12
1.44817e-12 1.68191e-12 492.404

501.664 -9.84632 3.39758e-12
-9.84632 451.749 6.70575e-14
3.39758e-12 6.70575e-14 483.027

510.871 32.1157 1.69849e-12
32.1157 510.397 7.23384e-13
1.69849e-12 7.23384e-13 514.062

509.647 -32.8537 4.31655e-13
-32.8537 510.074 4.75388e-13
4.31655e-13 4.75388e-13 513.701

481.817 16.0684 -2.75572e-12
16.0684 539.138 -1.4199e-12
-2.75572e-12 -1.4199e-12 514.333

483.01 -15.8009 -2.92773e-12
-15.8009 538.727 3.02218e-12
-2.92773e-12 3.02218e-12 514.355

556.875 -3.74796 -8.34148e-13
-3.74796 506.839 -3.26169e-12
-8.34148e-13 -3.26169e-12 524.999

558.43 3.61072 -2.85549e-13
3.61072 505.163 -4.82903e-12
-2.85549e-13 -4.82903e-12 525.371

387.313 9.83704 -3.30654e-12
9.83704 449.203 1.44477e-13
-3.30654e-12 1.44477e-13 397.092

472.394 -24.7744 -1.47822e-12
-24.7744 480.761 2.08678e-12
-1.47822e-12 2.08678e-12 484.983

443.468 -36.3873 -3.70652e-12
-36.3873 485.539 7.25198e-13
-3.70652e-12 7.25198e-13 486.634

473.648 -4.66434 2.70006e-12
-4.66434 420.442 -1.00375e-12
2.70006e-12 -1.00375e-12 436.344

540.26 -16.6944 6.50591e-13
-16.6944 484.199 -1.21325e-12
6.50591e-13 -1.21325e-12 515.294

540.98 16.1754 -4.28531e-12
16.1754 485.422 -9.78773e-13
-4.28531e-12 -9.78773e-13 515.9

506.868 0.121878 2.45759e-12
0.121878 423.558 8.22393e-13
2.45759e-12 8.22393e-13 487.008

384.796 23.3756 3.59801e-12
23.3756 432.302 4.84353e-12
3.59801e-12 4.84353e-12 385.48

442.34 36.1713 2.04585e-12
36.1713 485.217 9.19413e-13
2.04585e-12 9.19413e-13 485.84

452.603 -23.3958 1.57815e-12
-23.3958 494.959 2.15206e-12
1.57815e-12 2.15206e-12 483.597

443.254 23.3532 3.55153e-12
23.3532 397.523 -6.6495e-13
3.55153e-12 -6.6495e-13 400.378

530.975 23.8583 3.09382e-12
23.8583 488.014 1.7734e-13
3.09382e-12 1.7734e-13 507.254

428.484 -31.3141 3.26968e-12
-31.3141 410.878 1.12917e-12
3.26968e-12 1.12917e-12 398.822

519.865 -3.23116 -2.15813e-12
-3.23116 469.065 5.61033e-13
-2.15813e-12 5.61033e-13 502.692

439.403 -34.1608 -9.51831e-14
-34.1608 485.51 -8.40957e-13
-9.51831e-14 -8.40957e-13 485.829

389.188 8.32011 -1.52195e-12
8.32011 452.333 -4.25852e-12
-1.52195e-12 -4.25852e-12 400.86

385.883 21.812 -7.72123e-13
21.812 435.778 3.71259e-12
-7.72123e-13 3.71259e-12 388.698

383.851 35.7765 -3.8014e-13
35.7765 362.335 -1.69109e-12
-3.8014e-13 -1.69109e-12 318.331

408.187 1.57879 -2.85283e-12
1.57879 332.158 3.03535e-13
-2.85283e-12 3.03535e-13 327.328

485.461 -22.8046 -1.55313e-12
-22.8046 502.864 8.4451e-13
-1.55313e-12 8.4451e-13 501.754

351.881 31.1844 -7.51991e-13
31.1844 388.835 1.18424e-13
-7.51991e-13 1.18424e-13 312.36

451.355 23.6102 6.21044e-12
23.6102 478.418 -6.04553e-13
6.21044e-12 -6.04553e-13 465.218

442.201 -5.34965 -1.45424e-12
-5.34965 377.13 3.80362e-12
-1.45424e-12 3.80362e-12 387.742

464.16 11.2163 3.89733e-12
11.2163 407.303 7.93439e-14
3.89733e-12 7.93439e-14 424.926

505.384 0.429899 -2.78636e-12
0.429899 421.578 -1.17457e-12
-2.78636e-12 -1.17457e-12 485.68

449.355 -29.0309 3.84093e-12
-29.0309 502.002 -1.09868e-12
3.84093e-12 -1.09868e-12 493.593

572.511 -6.31875 2.98398e-12
-6.31875 589.486 4.77277e-12
2.98398e-12 4.77277e-12 549.256

463.145 37.4113 -2.28765e-12
37.4113 487.031 1.78776e-12
-2.28765e-12 1.78776e-12 493.069

408.742 1.66331 -1.04687e-12
1.66331 331.605 -2.37403e-12
-1.04687e-12 -2.37403e-12 308.907

404.238 -32.7876 1.04805e-13
-32.7876 415.513 -4.21529e-12
1.04805e-13 -4.21529e-12 387.393

443.146 36.6128 -4.00716e-13
36.6128 485.51 3.47574e-13
-4.00716e-13 3.47574e-13 486.576

444.683 -11.1339 -1.72882e-12
-11.1339 498.94 1.31746e-12
-1.72882e-12 1.31746e-12 471.446

386.077 -25.5151 -1.18335e-12
-25.5151 428.905 2.97481e-12
-1.18335e-12 2.97481e-12 384.567

449.455 28.8299 1.18043e-12
28.8299 501.635 -1.12591e-12
1.18043e-12 -1.12591e-12 493.293

452.715 -26.1423 -3.31172e-12
-26.1423 419.306 -1.85333e-13
-3.31172e-12 -1.85333e-13 419.522

579.554 10.4836 4.30648e-12
10.4836 582.165 -6.71167e-12
4.30648e-12 -6.71167e-12 549.041

398.332 30.8726 -7.60873e-13
30.8726 422.062 4.96788e-12
-7.60873e-13 4.96788e-12 388.166

515.711 8.12661 4.79468e-13
8.12661 437.273 -2.31859e-12
4.79468e-13 -2.31859e-12 494.586

493.809 30.1907 4.3728e-13
30.1907 484.752 5.87086e-13
4.3728e-13 5.87086e-13 493.806

453.47 23.3321 -1.24064e-12
23.3321 479.168 -2.27196e-12
-1.24064e-12 -2.27196e-12 475.803

510.705 -32.4884 1.32783e-12
-32.4884 512.456 -1.3386e-12
1.32783e-12 -1.3386e-12 515.01

510.313 -23.1905 -2.36966e-12
-23.1905 473.185 -1.82225e-12
-2.36966e-12 -1.82225e-12 489.681

511.405 10.4704 -1.3816e-12
10.4704 557.995 1.83616e-12
-1.3816e-12 1.83616e-12 523.735

452.177 -23.434 6.64535e-12
-23.434 480.17 -6.65186e-12
6.64535e-12 -6.65186e-12 468.955

394.414 -9.70799 3.8843e-12
-9.70799 316.416 6.987e-14
3.8843e-12 6.987e-14 295.578

387.294 -14.2774 -3.72798e-12
-14.2774 306.062 6.47304e-12
-3.72798e-12 6.47304e-12 290.052

547.587 16.5297 -5.37733e-12
16.5297 507.767 2.11919e-12
-5.37733e-12 2.11919e-12 519.323

436.491 22.502 -6.00261e-12
22.502 469.141 -8.41579e-12
-6.00261e-12 -8.41579e-12 447.827

475.967 29.1635 -1.87287e-12
29.1635 467.649 -4.76893e-12
-1.87287e-12 -4.76893e-12 471.483

450.306 0.688679 -3.56456e-12
0.688679 392.78 2.0748e-12
-3.56456e-12 2.0748e-12 395.678

478.354 6.57103 2.54663e-12
6.57103 541.282 -5.2965e-12
2.54663e-12 -5.2965e-12 507.543

507.335 16.5407 -1.75445e-12
16.5407 461.139 -3.1027e-13
-1.75445e-12 -3.1027e-13 488.084

389.98 -25.7615 4.51668e-12
-25.7615 430.04 -2.57572e-12
4.51668e-12 -2.57572e-12 387.737

456.322 -2.5723 1.52526e-13
-2.5723 517.018 3.00204e-13
1.52526e-13 3.00204e-13 484.844

400.593 13.3654 4.01605e-12
13.3654 452.99 -9.75812e-13
4.01605e-12 -9.75812e-13 404.639

486.917 -29.7136 -1.94215e-13
-29.7136 465.818 -9.52423e-13
-1.94215e-13 -9.52423e-13 474.262

430.302 -29.9479 -1.62241e-12
-29.9479 423.632 -5.06735e-12
-1.62241e-12 -5.06735e-12 404.958

399.714 31.6234 5.9804e-14
31.6234 418.236 -6.96924e-13
5.9804e-14 -6.96924e-13 386.005

624.001 -15.0199 2.79273e-12
-15.0199 581.949 3.91346e-12
2.79273e-12 3.91346e-12 557.906

494.525 2.04144 2.9244e-12
2.04144 552.146 3.19803e-12
2.9244e-12 3.19803e-12 517.928

483.505 20.2998 -1.83379e-12
20.2998 542.045 -4.00598e-12
-1.83379e-12 -4.00598e-12 516.034

544.708 15.4387 1.66104e-12
15.4387 479.974 9.04758e-13
1.66104e-12 9.04758e-13 515.756

473.752 -26.1889 4.18924e-12
-26.1889 479.76 2.11238e-12
4.18924e-12 2.11238e-12 483.021

452.129 17.9575 3.80022e-12
17.9575 404.511 1.85925e-13
3.80022e-12 1.85925e-13 406.921

531.581 -5.29382 3.18662e-13
-5.29382 580.802 -3.02395e-12
3.18662e-13 -3.02395e-12 537.12

512.191 -18.9881 2.61302e-12
-18.9881 464.797 9.23706e-14
2.61302e-12 9.23706e-14 493.031

473.98 -15.599 3.43725e-12
-15.599 423.18 1.99855e-12
3.43725e-12 1.99855e-12 438.883

402.003 11.6034 5.86494e-12
11.6034 455.962 -4.22654e-12
5.86494e-12 -4.22654e-12 407.783

410.927 -25.7346 3.21402e-12
-25.7346 435.585 -1.52175e-12
3.21402e-12 -1.52175e-12 398.96

532.051 -25.2738 -2.87178e-12
-25.2738 523.195 -1.51997e-12
-2.87178e-12 -1.51997e-12 519.121

423.06 31.96 -8.23045e-13
31.96 417.252 1.32871e-12
-8.23045e-13 1.32871e-12 400.308

535.485 -25.1346 -4.06786e-13
-25.1346 505.791 -4.00687e-12
-4.06786e-13 -4.00687e-12 515.663

453.498 2.5974 -1.42345e-12
2.5974 397.023 9.46206e-13
-1.42345e-12 9.46206e-13 401.901

311.102 -28.931 1.26121e-13
-28.931 376.6 -5.16091e-12
1.26121e-13 -5.16091e-12 289.998

431.88 -29.2314 -7.53175e-13
-29.2314 424.052 3.23889e-13
-7.53175e-13 3.23889e-13 406.157

353.764 32.1594 -4.74879e-13
32.1594 392.548 2.84217e-14
-4.74879e-13 2.84217e-14 312.971

470.35 -11.8768 1.9866e-12
-11.8768 529.555 6.56068e-13
1.9866e-12 6.56068e-13 500.307

391.454 -13.8216 -1.15004e-12
-13.8216 449.257 -4.27155e-12
-1.15004e-12 -4.27155e-12 400.202

602.855 -23.9875 4.11597e-12
-23.9875 602.268 6.40243e-12
4.11597e-12 6.40243e-12 557.847

408.375 23.7712 1.01608e-12
23.7712 441.944 4.59129e-12
1.01608e-12 4.59129e-12 402.226

496.581 -32.7263 -3.95595e-12
-32.7263 490.644 1.87998e-12
-3.95595e-12 1.87998e-12 497.45

388.193 -11.9633 -1.10408e-12
-11.9633 448.289 9.03573e-13
-1.10408e-12 9.03573e-13 397.019

516.715 -19.1168 4.58034e-12
-19.1168 465.757 1.35447e-12
4.58034e-12 1.35447e-12 496.247

410.69 23.8775 -8.39033e-13
23.8775 439.316 1.04923e-12
-8.39033e-13 1.04923e-12 400.702

488.925 -4.97552 -7.03437e-13
-4.97552 435.075 3.80984e-12
-7.03437e-13 3.80984e-12 460.387

305.785 -30.343 2.81849e-12
-30.343 391.442 -2.84217e-13
2.81849e-12 -2.84217e-13 262.572

438.614 21.0143 -3.05e-12
21.0143 473.918 5.5144e-12
-3.05e-12 5.5144e-12 458.353

445.693 -19.3236 -4.63037e-13
-19.3236 393.981 -2.31607e-12
-4.63037e-13 -2.31607e-12 399.628

551.607 -21.4458 -1.09838e-13
-21.4458 499.521 -1.69376e-12
-1.09838e-13 -1.69376e-12 520.108

424.476 31.7545 -7.63123e-12
31.7545 413.328 -1.46253e-12
-7.63123e-12 -1.46253e-12 397.965

459.169 -29.9721 -1.52826e-12
-29.9721 437.644 -2.09669e-12
-1.52826e-12 -2.09669e-12 439.305

510.626 20.8854 2.56388e-12
20.8854 476.078 -9.93872e-13
2.56388e-12 -9.93872e-13 492.762

461.512 -28.0759 5.25135e-12
-28.0759 485.748 3.31143e-13
5.25135e-12 3.31143e-13 488.725

413.727 -26.2256 2.87355e-12
-26.2256 436.252 -4.33313e-12
2.87355e-12 -4.33313e-12 401.445

426.082 28.9815 -7.30083e-13
28.9815 429.905 6.35936e-12
-7.30083e-13 6.35936e-12 406.868

452.508 26.1917 -1.13687e-12
26.1917 418.234 -1.33079e-12
-1.13687e-12 -1.33079e-12 419.066

521.977 -14.6102 2.11209e-12
-14.6102 477.184 -3.0953e-12
2.11209e-12 -3.0953e-12 500.071

403.568 -16.6179 1.93031e-12
-16.6179 451.751 -4.20523e-12
1.93031e-12 -4.20523e-12 406.45

496.054 -17.5683 -1.44655e-12
-17.5683 447.614 1.16189e-12
-1.44655e-12 1.16189e-12 471.508

487.773 16.9087 3.50416e-12
16.9087 436.266 -6.32087e-13
3.50416e-12 -6.32087e-13 460.596

513.348 -9.38651 -1.74875e-12
-9.38651 555.784 1.89537e-12
-1.74875e-12 1.89537e-12 523.036

453.987 -13.4302 3.13112e-12
-13.4302 402.186 -1.6945e-12
3.13112e-12 -1.6945e-12 406.75

403.209 0.594069 -6.71907e-13
0.594069 465.734 1.88649e-12
-6.71907e-13 1.88649e-12 417.812

475.035 18.5551 4.66234e-12
18.5551 428.779 2.64825e-12
4.66234e-12 2.64825e-12 442.229

451.151 27.6043 1.84978e-12
27.6043 421.847 1.79323e-12
1.84978e-12 1.79323e-12 420.851

400.876 -15.6864 3.8014e-12
-15.6864 451.391 -7.44886e-13
3.8014e-12 -7.44886e-13 403.744

406.008 -1.20229 -2.63441e-12
-1.20229 468.043 -4.33076e-12
-2.63441e-12 -4.33076e-12 421.228

516.207 29.1344 1.78405e-12
29.1344 498.033 1.48415e-12
1.78405e-12 1.48415e-12 504.883

441.712 -10.9222 -9.33476e-13
-10.9222 500.666 -3.5764e-13
-9.33476e-13 -3.5764e-13 471.156

451.448 -26.7157 -3.30521e-12
-26.7157 418.774 -6.06922e-13
-3.30521e-12 -6.06922e-13 419.361

444.396 21.3329 3.61193e-12
21.3329 395.306 -7.83966e-13
3.61193e-12 -7.83966e-13 398.209

497.604 23.6654 2.44308e-12
23.6654 458.098 -7.81005e-13
2.44308e-12 -7.81005e-13 476.559

447.691 5.47092 1.0314e-12
5.47092 508.799 2.14229e-12
1.0314e-12 2.14229e-12 476.89

427.658 29.066 -5.85487e-12
29.066 426.443 1.09897e-12
-5.85487e-12 1.09897e-12 405.118

536.829 22.9639 2.74121e-12
22.9639 531.904 -1.24567e-12
2.74121e-12 -1.24567e-12 522.792

314.756 -59.6925 1.01844e-13
-59.6925 282.774 -4.44208e-12
1.01844e-13 -4.44208e-12 223.428

480.603 -25.0481 4.29286e-12
-25.0481 445.08 -8.51763e-13
4.29286e-12 -8.51763e-13 456.655

336.67 7.07001 -3.11839e-12
7.07001 409.163 1.17405e-11
-3.11839e-12 1.17405e-11 319.446

460.547 -28.8896 -3.40646e-12
-28.8896 444.745 -6.78568e-13
-3.40646e-12 -6.78568e-13 443.461

96.4254 -52.7017 8.47914e-13
-52.7017 306.623 2.65743e-12
8.47914e-13 2.65743e-12 113.701

95.9593 51.4524 9.39101e-13
51.4524 306.887 -8.76336e-13
9.39101e-13 -8.76336e-13 114.49

181.52 117.156 -3.90088e-12
117.156 226.08 -8.90547e-13
-3.90088e-12 -8.90547e-13 113.59

182.818 -117.099 9.21337e-13
-117.099 223.315 -4.73695e-13
9.21337e-13 -4.73695e-13 113.564

321.588 -1.36339 3.24955e-12
-1.36339 84.6548 7.30781e-14
3.24955e-12 7.30781e-14 114.931

274.437 -91.1268 6.50857e-12
-91.1268 127.42 -9.23706e-13
6.50857e-12 -9.23706e-13 113.804

275.134 91.6546 5.30539e-13
91.6546 128.253 -2.62664e-12
5.30539e-13 -2.62664e-12 114.574

525.248 14.3305 1.05338e-12
14.3305 474.72 2.97066e-12
1.05338e-12 2.97066e-12 502.322

556.803 25.5363 -7.90923e-12
25.5363 541.189 7.8885e-13
-7.90923e-12 7.8885e-13 533.457

492.102 6.60614 1.58629e-12
6.60614 439.129 1.11067e-12
1.58629e-12 1.11067e-12 471.411

470.309 21.7849 3.17376e-12
21.7849 424.525 -1.59398e-12
3.17376e-12 -1.59398e-12 438.203

409.983 17.7447 1.73787e-13
17.7447 461.082 -1.80596e-12
1.73787e-13 -1.80596e-12 425.051

448.019 28.899 -3.7718e-13
28.899 424.713 -8.65678e-13
-3.7718e-13 -8.65678e-13 420.758

487.158 -29.6637 -3.69482e-13
-29.6637 465.636 -4.50514e-12
-3.69482e-13 -4.50514e-12 474.598

449.377 28.0283 -3.98496e-13
28.0283 421.079 8.94692e-13
-3.98496e-13 8.94692e-13 418.65

402.971 -2.84134 1.55594e-12
-2.84134 465.39 -8.7752e-13
1.55594e-12 -8.7752e-13 417.549

555.81 -26.0972 2.70539e-12
-26.0972 543.382 -2.58845e-12
2.70539e-12 -2.58845e-12 533.701

405.509 -4.86251 4.05246e-12
-4.86251 467.129 -2.97717e-12
4.05246e-12 -2.97717e-12 420.608

522.3 23.0165 4.14839e-12
23.0165 499.75 -3.70918e-12
4.14839e-12 -3.70918e-12 507.978

423.386 26.8712 -2.89901e-12
26.8712 386.515 -1.31569e-12
-2.89901e-12 -1.31569e-12 373.034

480.118 -13.2161 -5.43713e-13
-13.2161 532.776 -1.86873e-12
-5.43713e-13 -1.86873e-12 512.009

484.207 13.7281 -1.82136e-12
13.7281 432.785 -1.95103e-13
-1.82136e-12 -1.95103e-13 456.883

457.377 -29.9881 -6.31791e-13
-29.9881 436.985 -6.96273e-12
-6.31791e-13 -6.96273e-12 437.841

454.318 -24.7139 -3.9968e-12
-24.7139 416.812 3.60837e-12
-3.9968e-12 3.60837e-12 419.861

547.412 -16.075 2.08692e-12
-16.075 509.313 -1.43145e-12
2.08692e-12 -1.43145e-12 519.392

475.981 27.9293 -2.00669e-12
27.9293 449.714 1.23161e-13
-2.00669e-12 1.23161e-13 456.934

469.11 23.9778 3.96128e-13
23.9778 427.857 1.90366e-13
3.96128e-13 1.90366e-13 439.838

432.437 -2.79291 -1.52707e-12
-2.79291 493.646 -1.78287e-12
-1.52707e-12 -1.78287e-12 457.115

417.615 5.87341 -1.60869e-12
5.87341 479.567 7.75676e-13
-1.60869e-12 7.75676e-13 440.185

463.021 2.64675 1.14042e-12
2.64675 402.288 -7.12578e-13
1.14042e-12 -7.12578e-13 422.329

438.657 -7.2898 -4.9738e-13
-7.2898 373.922 3.66788e-12
-4.9738e-13 3.66788e-12 381.226

454.853 30.4852 2.66986e-12
30.4852 439.024 -7.80413e-13
2.66986e-12 -7.80413e-13 437.845

478.474 -26.1558 2.12748e-12
-26.1558 443.551 -3.27353e-12
2.12748e-12 -3.27353e-12 454.655

525.709 -21.2544 1.79027e-12
-21.2544 497.837 6.86266e-13
1.79027e-12 6.86266e-13 508.627

437.741 -31.6342 4.58122e-12
-31.6342 437.664 6.85674e-13
4.58122e-12 6.85674e-13 426.867

417.599 -27.7861 1.84445e-12
-27.7861 444.405 1.04509e-12
1.84445e-12 1.04509e-12 419.696

430.655 29.8877 -1.57326e-12
29.8877 442.753 -2.38387e-12
-1.57326e-12 -2.38387e-12 426.506

416.234 -9.57807 -1.63665e-12
-9.57807 475.221 2.63315e-12
-1.63665e-12 2.63315e-12 436.463

428.903 -1.54489 1.85563e-12
-1.54489 491.878 1.05693e-12
1.85563e-12 1.05693e-12 454.003

445.19 5.7479 2.86589e-12
5.7479 508.052 4.08207e-12
2.86589e-12 4.08207e-12 474.923

414.627 -21.0895 -2.49963e-12
-21.0895 458.417 5.35808e-12
-2.49963e-12 5.35808e-12 426.074

496.878 24.1115 -2.03156e-12
24.1115 455.705 1.37697e-12
-2.03156e-12 1.37697e-12 474.601

483.382 -9.5899 -2.32229e-12
-9.5899 430.12 -1.00201e-12
-2.32229e-12 -1.00201e-12 455.229

415.642 7.46537 5.56666e-13
7.46537 477.13 6.57252e-14
5.56666e-13 6.57252e-14 436.922

443.963 -9.70115 1.06706e-13
-9.70115 501.513 -1.34115e-12
1.06706e-13 -1.34115e-12 471.016

433.182 -16.3309 1.40924e-12
-16.3309 481.685 1.623e-12
1.40924e-12 1.623e-12 455.677

463.549 -8.23935 9.65154e-13
-8.23935 406.343 -3.53199e-12
9.65154e-13 -3.53199e-12 421.479

494.442 -32.3468 -2.28706e-12
-32.3468 487.625 1.2624e-12
-2.28706e-12 1.2624e-12 496.259

422.953 9.3211 1.85244e-12
9.3211 479.101 -1.60701e-12
1.85244e-12 -1.60701e-12 440.988

564.364 -18.2127 -8.44066e-13
-18.2127 529.958 -1.48341e-12
-8.44066e-13 -1.48341e-12 531.839

309.054 24.8232 4.34971e-12
24.8232 379.43 -1.58214e-12
4.34971e-12 -1.58214e-12 289.803

501.707 -26.6264 -4.06282e-12
-26.6264 499.498 2.17544e-12
-4.06282e-12 2.17544e-12 501.208

515.657 -30.2029 -2.09077e-12
-30.2029 498.412 -1.74734e-12
-2.09077e-12 -1.74734e-12 504.927

429.231 -0.701216 -1.59561e-12
-0.701216 492.003 1.99189e-12
-1.59561e-12 1.99189e-12 454.154

474.891 -16.6228 -1.14753e-12
-16.6228 428.346 1.38733e-12
-1.14753e-12 1.38733e-12 441.965

462.314 12.8417 3.11066e-13
12.8417 511.284 -1.99366e-12
3.11066e-13 -1.99366e-12 489.13

240.78 -3.18067 -1.95473e-12
-3.18067 360.695 2.7498e-12
-1.95473e-12 2.7498e-12 226.97

432.413 14.2739 3.17812e-12
14.2739 485.366 1.08358e-13
3.17812e-12 1.08358e-13 456.891

458.121 -29.4898 1.42109e-12
-29.4898 443.18 2.91026e-12
1.42109e-12 2.91026e-12 440.771

304.193 25.1061 -1.39444e-12
25.1061 394.592 -1.14705e-11
-1.39444e-12 -1.14705e-11 264.346

603.555 26.0973 7.84217e-12
26.0973 597.96 -5.16091e-12
7.84217e-12 -5.16091e-12 558.164

608.288 -27.8066 -7.52702e-12
-27.8066 595.034 4.44829e-12
-7.52702e-12 4.44829e-12 558.297

463.503 -30.4195 2.94816e-12
-30.4195 459.048 -5.0567e-12
2.94816e-12 -5.0567e-12 459.082

434.594 -31.1609 -8.7456e-12
-31.1609 436.369 2.07301e-12
-8.7456e-12 2.07301e-12 424.671

474.111 20.8278 1.85215e-12
20.8278 431.924 -6.00113e-13
1.85215e-12 -6.00113e-13 443.982

465.232 15.0064 -1.62892e-12
15.0064 410.125 -7.29491e-13
-1.62892e-12 -7.29491e-13 427.472

646.071 3.08312 1.11403e-11
3.08312 645.729 1.31957e-11
1.11403e-11 1.31957e-11 574.625

649.892 -6.99949 -1.52414e-11
-6.99949 641.399 1.19858e-11
-1.52414e-11 1.19858e-11 575.154

496.999 4.82428 1.58392e-12
4.82428 442.044 9.23261e-13
1.58392e-12 9.23261e-13 477.422

443.566 6.73118 1.77939e-12
6.73118 502.999 3.68061e-12
1.77939e-12 3.68061e-12 471.06

441.981 6.73634 -4.3028e-12
6.73634 502.524 9.29035e-13
-4.3028e-12 9.29035e-13 469.783

321.542 58.6355 -1.68162e-12
58.6355 281.128 9.30811e-13
-1.68162e-12 9.30811e-13 225.081

420.237 -28.2004 -1.57208e-12
-28.2004 444.033 2.82145e-12
-1.57208e-12 2.82145e-12 421.041

520.587 17.9744 2.86378e-12
17.9744 467.54 3.99976e-13
2.86378e-12 3.99976e-13 499.519

472.99 9.5399 -2.75927e-13
9.5399 421.206 2.73233e-12
-2.75927e-13 2.73233e-12 436.212

440.639 -26.7239 -4.2526e-12
-26.7239 450.736 2.01676e-12
-4.2526e-12 2.01676e-12 433.425

469.287 -20.2381 -3.84285e-12
-20.2381 422.725 2.89102e-12
-3.84285e-12 2.89102e-12 437.186

312.479 60.2334 -1.88768e-12
60.2334 281.377 -8.08834e-13
-1.88768e-12 -8.08834e-13 223.22

492.691 31.0693 6.2883e-13
31.0693 489.051 -5.10081e-12
6.2883e-13 -5.10081e-12 493.147

410.872 -19.7866 -5.05077e-12
-19.7866 457.892 -1.46431e-12
-5.05077e-12 -1.46431e-12 423.507

474.138 28.8582 -1.10134e-13
28.8582 449.641 -3.20336e-13
-1.10134e-13 -3.20336e-13 456.528

430.965 -4.14498 -1.07988e-13
-4.14498 492.983 -7.73899e-13
-1.07988e-13 -7.73899e-13 456.477

423.939 19.6096 4.79616e-14
19.6096 465.722 -3.22053e-12
4.79616e-14 -3.22053e-12 434.117

452.757 30.5194 1.22924e-12
30.5194 443.608 8.51467e-13
1.22924e-12 8.51467e-13 439.618

428.652 -22.4737 -7.1528e-13
-22.4737 461.147 6.28357e-12
-7.1528e-13 6.28357e-12 433.822

443.584 -27.3531 -1.15167e-12
-27.3531 450.443 9.92391e-13
-1.15167e-12 9.92391e-13 435.055

294.784 11.2572 -2.64041e-12
11.2572 372.593 -8.19493e-13
-2.64041e-12 -8.19493e-13 258.107

357.306 -33.457 -1.6307e-12
-33.457 389.125 -5.20117e-12
-1.6307e-12 -5.20117e-12 314.135

419.667 -11.6908 1.9158e-12
-11.6908 476.371 2.89072e-12
1.9158e-12 2.89072e-12 439.354

478.407 26.485 -2.00728e-13
26.485 446.808 6.51331e-14
-2.00728e-13 6.51331e-14 456.093

452.355 29.4785 4.74287e-12
29.4785 449.036 -1.66089e-12
4.74287e-12 -1.66089e-12 442.409

426.818 -21.4344 1.12591e-12
-21.4344 461.794 1.81129e-12
1.12591e-12 1.81129e-12 432.639

422.94 -11.7827 -1.64047e-12
-11.7827 476.658 3.72324e-12
-1.64047e-12 3.72324e-12 439.938

457.716 28.4101 -3.25961e-12
28.4101 447.097 2.04459e-12
-3.25961e-12 2.04459e-12 442.58

425.114 -13.8781 -8.88652e-12
-13.8781 476.429 -1.30266e-13
-8.88652e-12 -1.30266e-13 442.114

311.271 27.8557 -2.09432e-12
27.8557 377.399 2.4869e-13
-2.09432e-12 2.4869e-13 289.99

485.178 -4.04111 -3.07285e-12
-4.04111 545.058 -7.28306e-14
-3.07285e-12 -7.28306e-14 511.045

432.994 31.0283 -3.82035e-12
31.0283 439.638 2.74151e-12
-3.82035e-12 2.74151e-12 426.028

509.319 14.9015 -3.92516e-12
14.9015 463.171 -3.06718e-13
-3.92516e-12 -3.06718e-13 488.615

516.93 -15.9278 6.34159e-13
-15.9278 467.591 -9.01501e-13
6.34159e-13 -9.01501e-13 493.932

383.933 -24.2051 2.63848e-12
-24.2051 305.954 -4.58537e-12
2.63848e-12 -4.58537e-12 285.36

442.288 -21.2676 1.48503e-12
-21.2676 476.01 -6.71167e-12
1.48503e-12 -6.71167e-12 459.33

447.837 26.6987 7.23688e-12
26.6987 466.217 2.17189e-12
7.23688e-12 2.17189e-12 457.851

522.983 -21.7278 9.21633e-13
-21.7278 543.818 2.67571e-12
9.21633e-13 2.67571e-12 525.317

579.588 14.1061 -1.31006e-12
14.1061 617.624 1.85629e-12
-1.31006e-12 1.85629e-12 557.059

620.211 9.44531 1.84119e-12
9.44531 576.846 -1.94185e-12
1.84119e-12 -1.94185e-12 556.877

523.478 32.7053 1.3302e-12
32.7053 520.659 -5.36919e-12
1.3302e-12 -5.36919e-12 519.532

414.9 26.001 -6.93075e-13
26.001 448.915 4.06194e-13
-6.93075e-13 4.06194e-13 420.385

478.105 26.6619 3.88134e-12
26.6619 444.779 -7.75261e-12
3.88134e-12 -7.75261e-12 455.516

332.37 45.187 5.64881e-13
45.187 349.496 -3.46745e-12
5.64881e-13 -3.46745e-12 286.746

571.395 -11.3432 -6.50828e-12
-11.3432 614.475 -3.13142e-12
-6.50828e-12 -3.13142e-12 554.602

641.328 -3.43267 -1.20106e-12
-3.43267 636.872 3.50682e-13
-1.20106e-12 3.50682e-13 572.402

634.907 -0.209806 9.30959e-13
-0.209806 643.179 1.89404e-13
9.30959e-13 1.89404e-13 572.228

272.968 -53.8036 1.00779e-12
-53.8036 316.453 1.0895e-13
1.00779e-12 1.0895e-13 220.913

566.645 -11.5998 2.1189e-12
-11.5998 562.13 -6.13228e-12
2.1189e-12 -6.13228e-12 540.905

563.776 8.81271 4.48071e-12
8.81271 586.968 -1.45306e-12
4.48071e-12 -1.45306e-12 546.847

478.253 -26.1999 3.49646e-12
-26.1999 440.45 -3.04053e-13
3.49646e-12 -3.04053e-13 453.49

494.356 1.01087 -6.02185e-13
1.01087 545.767 -1.14279e-12
-6.02185e-13 -1.14279e-12 514.065

447.66 -20.2682 1.4427e-12
-20.2682 484.168 -6.66726e-13
1.4427e-12 -6.66726e-13 470.646

506.31 6.25537 3.55064e-12
6.25537 443.384 3.40076e-12
3.55064e-12 3.40076e-12 486.134

461.283 15.5963 -5.5402e-13
15.5963 521.261 3.24481e-13
-5.5402e-13 3.24481e-13 497.565

471.189 7.1915 -1.46636e-12
7.1915 528.014 -3.52488e-12
-1.46636e-12 -3.52488e-12 497.699

493.772 20.3932 -7.01069e-13
20.3932 451.526 1.12591e-12
-7.01069e-13 1.12591e-12 469.759

241.07 -3.11391 -2.69658e-12
-3.11391 358.567 -9.77707e-12
-2.69658e-12 -9.77707e-12 227.068

463.71 -27.6242 2.54078e-12
-27.6242 463.4 -5.03893e-13
2.54078e-12 -5.03893e-13 461.2

488.353 -26.1167 -4.50603e-13
-26.1167 481.607 1.89508e-12
-4.50603e-13 1.89508e-12 485.878

497.546 -31.4837 -1.43826e-12
-31.4837 489.967 2.71768e-12
-1.43826e-12 2.71768e-12 498.989

355.607 32.7503 -3.32297e-12
32.7503 285.784 -6.16514e-12
-3.32297e-12 -6.16514e-12 248.371

563.887 -20.1163 -1.78494e-12
-20.1163 569.619 -3.37256e-12
-1.78494e-12 -3.37256e-12 542.578

337.654 54.3233 -4.38642e-12
54.3233 356.664 -7.09358e-12
-4.38642e-12 -7.09358e-12 258.88

477.08 -21.4394 -1.97235e-12
-21.4394 506.499 -1.20881e-12
-1.97235e-12 -1.20881e-12 500.252

504.782 14.6504 1.42819e-12
14.6504 451.996 1.68147e-12
1.42819e-12 1.68147e-12 481.569

449.84 -14.5728 4.42905e-12
-14.5728 396.995 -1.54321e-12
4.42905e-12 -1.54321e-12 400.848

452.603 24.047 6.22051e-12
24.047 478.789 5.02117e-12
6.22051e-12 5.02117e-12 467.857

493.676 20.4282 3.48166e-13
20.4282 449.51 1.98597e-12
3.48166e-13 1.98597e-12 469.351

505.573 11.4003 2.58393e-12
11.4003 564.423 2.70539e-12
2.58393e-12 2.70539e-12 526.719

475.905 -31.5805 2.05347e-12
-31.5805 470.365 2.04844e-12
2.05347e-12 2.04844e-12 475.073

559.276 19.8123 2.16301e-12
19.8123 510.447 6.40969e-12
2.16301e-12 6.40969e-12 526.495

439.967 -18.4438 2.67046e-12
-18.4438 482.474 1.18424e-12
2.67046e-12 1.18424e-12 459.158

465.906 4.28333 -7.66258e-13
4.28333 526.116 -6.55476e-12
-7.66258e-13 -6.55476e-12 495.518

588.645 9.92695 9.28887e-12
9.92695 552.467 -6.29496e-12
9.28887e-12 -6.29496e-12 545.195

590.427 -8.5136 -7.86097e-12
-8.5136 554.809 -3.71658e-12
-7.86097e-12 -3.71658e-12 545.713

382.317 18.5127 -8.8581e-13
18.5127 302.293 -5.40605e-12
-8.8581e-13 -5.40605e-12 286.14

502.687 7.96516 -1.6153e-12
7.96516 453.609 1.56971e-12
-1.6153e-12 1.56971e-12 487.774

232.819 7.74066 -3.56796e-12
7.74066 381.522 3.75167e-12
-3.56796e-12 3.75167e-12 187.19

236.989 -11.3853 1.85614e-12
-11.3853 387.215 -8.14756e-13
1.85614e-12 -8.14756e-13 189.454

249.291 56.4074 -6.2812e-12
56.4074 354.782 2.72375e-12
-6.2812e-12 2.72375e-12 184.026

505.023 -28.9507 9.69891e-13
-28.9507 478.624 -7.65314e-13
9.69891e-13 -7.65314e-13 491.352

258.476 -49.1912 1.00423e-12
-49.1912 341.847 -3.45324e-12
1.00423e-12 -3.45324e-12 220.738

249.297 -55.95 -4.48116e-12
-55.95 344.757 1.83794e-12
-4.48116e-12 1.83794e-12 181.119

434.663 26.2206 -7.61347e-12
26.2206 454.401 2.65092e-12
-7.61347e-12 2.65092e-12 432.833

329.929 73.8445 -9.28443e-13
73.8445 280.015 -7.98176e-13
-9.28443e-13 -7.98176e-13 184.83

540.133 13.0471 -2.30867e-12
13.0471 554.953 -2.36167e-12
-2.30867e-12 -2.36167e-12 532.084

562.39 0.0398416 1.93519e-12
0.0398416 532.46 1.74912e-12
1.93519e-12 1.74912e-12 531.877

338.607 -73.1299 -2.29742e-12
-73.1299 279.862 3.67824e-12
-2.29742e-12 3.67824e-12 186.313

432.678 -23.4243 -7.21201e-13
-23.4243 466.319 -1.16529e-12
-7.21201e-13 -1.16529e-12 447.58

358.938 34.7296 -7.04148e-12
34.7296 310.981 2.70835e-12
-7.04148e-12 2.70835e-12 258.042

267.709 63.4914 5.85487e-12
63.4914 345.216 -8.62125e-13
5.85487e-12 -8.62125e-13 185.848

293.698 21.6305 -3.45797e-12
21.6305 367.668 2.0961e-12
-3.45797e-12 2.0961e-12 254.502

267.581 -65.9203 -1.7882e-12
-65.9203 344.851 5.61329e-12
-1.7882e-12 5.61329e-12 184.304

291.645 -12.3812 -8.00545e-12
-12.3812 370.889 -4.69669e-12
-8.00545e-12 -4.69669e-12 253.447

550.312 6.84131 -9.09732e-12
6.84131 582.083 -4.95959e-12
-9.09732e-12 -4.95959e-12 541.124

329.895 -45.9755 1.93031e-12
-45.9755 341.822 1.53951e-13
1.93031e-12 1.53951e-13 276.62

259.786 47.5325 9.61601e-13
47.5325 340.222 -3.63561e-12
9.61601e-13 -3.63561e-12 223.15

370.222 37.9117 -6.63173e-14
37.9117 244.924 -1.05912e-11
-6.63173e-14 -1.05912e-11 187.36

481.899 -29.2861 -1.44536e-12
-29.2861 460.52 2.02742e-12
-1.44536e-12 2.02742e-12 467.722

480.984 12.8966 7.18455e-12
12.8966 525.838 6.7241e-12
7.18455e-12 6.7241e-12 504.112

354.425 -38.1129 -3.77061e-12
-38.1129 300.082 -3.3656e-12
-3.77061e-12 -3.3656e-12 251.819

482.543 -28.8025 -3.22409e-12
-28.8025 460.329 -1.97709e-12
-3.22409e-12 -1.97709e-12 468.471

365.269 -36.3436 1.82846e-12
-36.3436 230.992 6.4766e-12
1.82846e-12 6.4766e-12 182.773

481.511 -28.3177 7.93439e-13
-28.3177 472.763 -4.18421e-12
7.93439e-13 -4.18421e-12 477.927

436.362 -25.2953 1.12355e-12
-25.2953 466.233 1.58037e-12
1.12355e-12 1.58037e-12 448.218

314.803 69.4609 -8.43177e-13
69.4609 292.146 5.44039e-12
-8.43177e-13 5.44039e-12 184.527

290.787 -22.9331 -2.72375e-14
-22.9331 359.171 -6.99174e-12
-2.72375e-14 -6.99174e-12 247.034

312.405 -71.6929 5.49486e-12
-71.6929 288.126 8.986e-12
5.49486e-12 8.986e-12 182.03

268.551 50.738 -9.0085e-12
50.738 320.065 -1.77636e-12
-9.0085e-12 -1.77636e-12 221.508

459.87 -30.2126 1.74497e-12
-30.2126 454.854 5.19703e-12
1.74497e-12 5.19703e-12 454.408

559.293 -14.6404 3.82124e-12
-14.6404 544.418 -5.12775e-13
3.82124e-12 -5.12775e-13 533.724

635.924 11.0922 -1.1772e-11
11.0922 631.386 -3.96927e-12
-1.1772e-11 -3.96927e-12 570.024

619.96 -5.16008 -1.59576e-13
-5.16008 639.74 3.72907e-12
-1.59576e-13 3.72907e-12 568.502

453.878 13.0837 3.8526e-12
13.0837 506.564 -2.20742e-12
3.8526e-12 -2.20742e-12 482.58

634.153 -10.6665 5.70699e-12
-10.6665 631.316 -8.93804e-13
5.70699e-12 -8.93804e-13 569.879

622.698 4.09186 2.05983e-12
4.09186 642.686 4.16626e-12
2.05983e-12 4.16626e-12 569.704

643.376 7.43352 -1.00702e-11
7.43352 619.15 2.85786e-12
-1.00702e-11 2.85786e-12 569.026

584.78 -12.1146 2.3311e-12
-12.1146 631.67 8.43503e-12
2.3311e-12 8.43503e-12 560.598

307.449 -30.4706 -5.3344e-12
-30.4706 371.64 -6.65542e-13
-5.3344e-12 -6.65542e-13 280.775

589.63 -12.9721 6.6267e-12
-12.9721 549.118 9.80253e-13
6.6267e-12 9.80253e-13 543.833

527.214 -34.4174 1.9081e-12
-34.4174 521.493 7.9566e-13
1.9081e-12 7.9566e-13 519.972

565.47 -18.177 2.57779e-12
-18.177 537.996 -1.20866e-12
2.57779e-12 -1.20866e-12 534.265

502.579 15.4595 1.0895e-12
15.4595 452.124 -8.26598e-13
1.0895e-12 -8.26598e-13 480.215

586.352 9.86386 3.79463e-12
9.86386 642.137 2.48157e-12
3.79463e-12 2.48157e-12 563.109

636.659 19.2271 -4.24697e-13
19.2271 591.726 -4.20971e-12
-4.24697e-13 -4.20971e-12 562.93

569.781 11.3067 -6.67229e-12
11.3067 544.344 -1.82654e-12
-6.67229e-12 -1.82654e-12 536.442

353.449 -15.3397 2.64559e-12
-15.3397 231.519 9.90674e-12
2.64559e-12 9.90674e-12 219.018

437.214 24.9645 -1.20271e-11
24.9645 461.921 -5.22367e-12
-1.20271e-11 -5.22367e-12 445.73

317.096 -61.3556 6.84016e-12
-61.3556 277.853 2.77349e-12
6.84016e-12 2.77349e-12 218.092

334.214 -57.4581 7.21675e-12
-57.4581 357.329 -5.13959e-13
7.21675e-12 -5.13959e-13 252.544

383.341 -36.5446 2.25242e-12
-36.5446 305.744 -3.4639e-12
2.25242e-12 -3.4639e-12 257.764

562.501 -5.1589 -3.68905e-12
-5.1589 616.955 3.32297e-12
-3.68905e-12 3.32297e-12 552.956

562.208 2.89127 3.8846e-12
2.89127 615.82 -5.09133e-12
3.8846e-12 -5.09133e-12 552.554

598.774 -24.4556 -2.28913e-12
-24.4556 575.747 4.79039e-12
-2.28913e-12 4.79039e-12 551.584

602.333 -21.7598 -1.08593e-11
-21.7598 573.437 6.46002e-13
-1.08593e-11 6.46002e-13 551.85

598.786 26.1352 1.18246e-12
26.1352 580.462 6.47867e-12
1.18246e-12 6.47867e-12 552.74

625.744 3.09895 -2.73722e-12
3.09895 630.737 3.07735e-12
-2.73722e-12 3.07735e-12 568.425

599.063 -20.5083 -9.91947e-12
-20.5083 576.358 5.32308e-12
-9.91947e-12 5.32308e-12 552.273

607.813 -18.5679 -9.60417e-12
-18.5679 620.265 -2.18344e-13
-9.60417e-12 -2.18344e-13 563.191

632.902 2.43414 1.2957e-12
2.43414 635.528 -1.57767e-11
1.2957e-12 -1.57767e-11 570.51

607.89 -20.5256 2.71886e-12
-20.5256 572.431 1.17832e-13
2.71886e-12 1.17832e-13 553.412

607.075 20.9551 -5.67169e-12
20.9551 573.689 -3.87246e-12
-5.67169e-12 -3.87246e-12 553.815

633.854 -3.45814 -6.31909e-12
-3.45814 636.779 -7.12704e-12
-6.31909e-12 -7.12704e-12 571.284

632.183 -3.11665 9.69506e-12
-3.11665 625.759 -3.44391e-12
9.69506e-12 -3.44391e-12 569.4

609.685 12.1097 6.2772e-12
12.1097 620.487 8.60593e-12
6.2772e-12 8.60593e-12 563.922

587.207 26.929 2.57868e-13
26.929 583.022 2.815e-12
2.57868e-13 2.815e-12 551.708

FIELD solute_concentration_TPM 2
S_ext 1 563 float
0.950849
0.950668
0.950686
0.950669
0.950641
0.950686
0.950849
0.950678
0.950702
0.950671
0.950811
0.950678
0.950682
0.95067
0.950648
0.950685
0.950663
0.950677
0.950706
0.950689
0.950695
0.950592
0.950691
0.950689
0.950689
0.950673
0.950802
0.950684
0.950751
0.950617
0.950683
0.95075
0.950807
0.950625
0.950624
0.950625
0.950614
0.950626
0.950683
0.950806
0.950751
0.950613
0.950613
0.950682
0.950783
0.95075
0.950704
0.9507
0.950686
0.95076
0.950755
0.950737
0.950639
0.950738
0.95064
0.950788
0.950624
0.950737
0.950624
0.950688
0.950662
0.950655
0.950798
0.950657
0.950654
0.950667
0.950661
0.950674
0.95069
0.950667
0.950639
0.950639
0.950752
0.950663
0.950687
0.95081
0.950649
0.950667
0.950673
0.95073
0.950768
0.950636
0.950658
0.95077
0.95075
0.950786
0.950684
0.950667
0.950782
0.9506
0.950737
0.9506
0.950647
0.950669
0.950737
0.950755
0.95077
0.950671
0.95065
0.950683
0.950719
0.950748
0.95077
0.950673
0.950673
0.950671
0.950657
0.950685
0.950771
0.950662
0.950688
0.950779
0.950774
0.950675
0.950672
0.950738
0.950626
0.950772
0.950627
0.950737
0.95071
0.950648
0.950666
0.950662
0.950662
0.950646
0.95063
0.950671
0.95077
0.950736
0.950638
0.950667
0.950658
0.950667
0.950748
0.950623
0.95078
0.950681
0.950657
0.950623
0.950745
0.950675
0.95071
0.950671
0.950773
0.950672
0.950677
0.950688
0.950687
0.950722
0.950699
0.950666
0.95075
0.950682
0.950671
0.950667
0.950669
0.950745
0.950744
0.950679
0.950699
0.950749
0.950782
0.950753
0.950743
0.950671
0.950745
0.950746
0.950751
0.950743
0.950646
0.950737
0.950754
0.950668
0.950737
0.950657
0.950646
0.950679
0.95064
0.950674
0.950752
0.950671
0.950671
0.950745
0.950666
0.950756
0.950662
0.950659
0.950648
0.950671
0.950665
0.950768
0.950736
0.95075
0.950667
0.950676
0.950675
0.950658
0.950666
0.950668
0.950666
0.950705
0.950729
0.950658
0.950753
0.950657
0.950669
0.950747
0.950654
0.950666
0.950654
0.950672
0.950673
0.950658
0.950721
0.950671
0.950729
0.950659
0.950662
0.950662
0.950662
0.950662
0.950662
0.950663
0.950671
0.950648
0.950648
0.950647
0.950648
0.950641
0.95064
0.950722
0.95067
0.950666
0.950701
0.950648
0.950648
0.950667
0.950728
0.950667
0.950671
0.950722
0.950653
0.950722
0.950658
0.950666
0.95072
0.950727
0.950769
0.950761
0.950658
0.950775
0.950683
0.950729
0.950706
0.950667
0.950662
0.950614
0.950662
0.950779
0.950727
0.950666
0.950678
0.95073
0.950662
0.95071
0.950614
0.950728
0.950662
0.950664
0.950675
0.950648
0.950667
0.95064
0.95068
0.950781
0.950786
0.950646
0.950693
0.950678
0.950724
0.950652
0.950668
0.950727
0.950669
0.950719
0.950677
0.950719
0.950728
0.950605
0.950645
0.950646
0.950646
0.95067
0.950719
0.950627
0.950664
0.950698
0.950718
0.950723
0.950644
0.950721
0.950649
0.950722
0.950782
0.950718
0.950773
0.950658
0.950721
0.950605
0.950721
0.950661
0.950723
0.950663
0.950721
0.950686
0.950805
0.950686
0.950722
0.950643
0.950722
0.950698
0.950665
0.950666
0.950721
0.950718
0.95071
0.95066
0.950718
0.950679
0.950685
0.950642
0.950719
0.950711
0.950696
0.95071
0.95072
0.950709
0.950656
0.950678
0.95071
0.950722
0.950675
0.950675
0.950718
0.950642
0.950818
0.950688
0.950769
0.950696
0.950874
0.950875
0.950872
0.950872
0.95087
0.950879
0.950879
0.950658
0.950632
0.950678
0.950698
0.950705
0.95071
0.950677
0.95071
0.950711
0.950632
0.950709
0.950654
0.950737
0.950649
0.950687
0.950699
0.95071
0.950646
0.950688
0.950698
0.950687
0.950697
0.950708
0.950731
0.950698
0.950689
0.950653
0.950705
0.950709
0.950705
0.950699
0.950689
0.950676
0.950705
0.950676
0.950688
0.950699
0.950678
0.950688
0.950708
0.950662
0.950697
0.950633
0.950782
0.950658
0.950656
0.950689
0.950697
0.950666
0.950818
0.950686
0.950698
0.950804
0.950608
0.950609
0.950686
0.950706
0.950696
0.950705
0.950592
0.950591
0.950675
0.950678
0.950679
0.950822
0.950708
0.95066
0.950701
0.950702
0.950699
0.950817
0.950664
0.950707
0.950688
0.950687
0.950702
0.950698
0.950702
0.950701
0.950805
0.950773
0.950698
0.950688
0.950697
0.950703
0.950698
0.950696
0.950697
0.950784
0.95065
0.950705
0.950667
0.950663
0.950785
0.950686
0.950687
0.950642
0.950603
0.950603
0.950644
0.950709
0.950688
0.950786
0.950606
0.95059
0.95059
0.950819
0.950626
0.950616
0.950689
0.950648
0.950679
0.950669
0.95066
0.95066
0.950679
0.950817
0.950685
0.95067
0.950661
0.950811
0.950621
0.95081
0.950659
0.950673
0.950721
0.950681
0.95068
0.950637
0.950676
0.950637
0.950686
0.950662
0.95062
0.950621
0.950788
0.950668
0.950851
0.950852
0.950851
0.950665
0.950823
0.950852
0.950703
0.95085
0.950635
0.950635
0.950851
0.950692
0.950808
0.950855
0.950807
0.950856
0.950807
0.950625
0.950792
0.950822
0.950849
0.950681
0.950656
0.95081
0.95068
0.950849
0.950674
0.950692
0.950856
0.950811
0.950856
0.950818
0.950688
0.950632
0.95059
0.950592
0.95067
0.95059
0.95059
0.950591
0.950601
0.950789
0.95062
0.950645
0.950633
0.950673
0.950599
0.950599
0.950632
0.950819
0.950694
0.950826
0.950814
0.950806
0.950606
0.950607
0.950608
0.950608
0.950606
0.950595
0.950612
0.950601
0.950594
0.950609
0.950609
0.950594
0.950594
0.950599
0.950611
P_ext 1 563 float
0.018226
0.0182215
0.0182222
0.0182216
0.0182199
0.0182221
0.018226
0.0182218
0.0182226
0.0182216
0.0182252
0.0182218
0.0182219
0.0182215
0.0182203
0.0182221
0.0182212
0.0182218
0.0182228
0.0182223
0.0182224
0.0182169
0.0182223
0.0182222
0.0182223
0.0182217
0.018225
0.018222
0.0182239
0.0182184
0.018222
0.0182239
0.0182251
0.018219
0.0182189
0.018219
0.0182183
0.0182191
0.018222
0.0182251
0.0182239
0.0182183
0.0182183
0.018222
0.0182246
0.0182239
0.0182227
0.0182226
0.0182221
0.0182241
0.018224
0.0182236
0.0182198
0.0182236
0.0182199
0.0182247
0.0182189
0.0182236
0.0182189
0.0182222
0.0182212
0.0182208
0.0182249
0.0182209
0.0182207
0.0182213
0.0182211
0.0182217
0.0182223
0.0182214
0.0182199
0.0182199
0.018224
0.0182211
0.0182222
0.0182252
0.0182204
0.0182213
0.0182217
0.0182234
0.0182243
0.0182197
0.0182209
0.0182244
0.0182239
0.0182247
0.018222
0.0182212
0.0182246
0.0182171
0.0182236
0.0182171
0.0182203
0.0182213
0.0182236
0.018224
0.0182243
0.0182216
0.0182204
0.018222
0.0182231
0.0182239
0.0182243
0.0182217
0.0182216
0.0182217
0.0182208
0.0182221
0.0182244
0.0182212
0.0182222
0.0182246
0.0182244
0.0182218
0.0182217
0.0182236
0.0182189
0.0182244
0.0182189
0.0182236
0.0182229
0.0182204
0.0182214
0.0182211
0.0182211
0.0182203
0.0182192
0.0182216
0.0182244
0.0182235
0.0182197
0.0182215
0.0182209
0.0182215
0.0182239
0.0182188
0.0182246
0.0182219
0.0182209
0.0182189
0.0182238
0.0182216
0.0182228
0.0182215
0.0182244
0.0182217
0.0182217
0.0182221
0.0182222
0.0182232
0.0182225
0.0182214
0.0182239
0.018222
0.0182216
0.0182215
0.0182215
0.0182238
0.0182238
0.0182219
0.0182226
0.0182239
0.0182246
0.018224
0.0182237
0.0182217
0.0182238
0.0182238
0.0182239
0.0182237
0.0182202
0.0182236
0.018224
0.0182214
0.0182236
0.0182209
0.0182202
0.0182218
0.0182199
0.0182216
0.018224
0.0182216
0.0182216
0.0182238
0.0182212
0.018224
0.0182212
0.0182209
0.0182202
0.0182216
0.0182212
0.0182243
0.0182236
0.0182239
0.0182215
0.0182218
0.0182218
0.018221
0.0182214
0.0182214
0.0182214
0.0182228
0.0182234
0.018221
0.018224
0.0182209
0.0182213
0.0182238
0.0182206
0.0182214
0.0182206
0.0182215
0.0182217
0.0182209
0.0182232
0.0182215
0.0182234
0.0182209
0.0182212
0.0182212
0.0182212
0.0182212
0.0182212
0.0182213
0.0182215
0.0182204
0.0182204
0.0182203
0.0182204
0.0182199
0.0182198
0.0182232
0.0182215
0.0182214
0.0182226
0.0182203
0.0182203
0.0182214
0.0182234
0.0182215
0.0182216
0.0182232
0.0182206
0.0182232
0.0182209
0.0182215
0.0182232
0.0182234
0.0182243
0.0182241
0.018221
0.0182245
0.018222
0.0182234
0.0182227
0.0182215
0.0182212
0.0182183
0.0182212
0.0182246
0.0182233
0.0182214
0.0182218
0.0182234
0.0182212
0.0182228
0.0182183
0.0182234
0.0182211
0.0182212
0.0182218
0.0182203
0.0182212
0.0182199
0.0182219
0.0182246
0.0182247
0.0182201
0.0182224
0.0182218
0.0182232
0.0182206
0.0182214
0.0182233
0.0182214
0.0182231
0.0182217
0.0182231
0.0182234
0.0182177
0.0182202
0.0182203
0.0182203
0.0182216
0.0182231
0.0182191
0.0182212
0.0182225
0.0182231
0.0182232
0.0182201
0.0182232
0.0182203
0.0182232
0.0182246
0.0182231
0.0182244
0.0182209
0.0182232
0.0182176
0.0182232
0.018221
0.0182232
0.0182211
0.0182232
0.0182221
0.0182251
0.0182222
0.0182232
0.0182201
0.0182232
0.0182224
0.0182212
0.0182215
0.0182232
0.0182231
0.0182228
0.0182209
0.0182231
0.0182218
0.0182221
0.01822
0.0182231
0.0182229
0.0182224
0.0182229
0.0182232
0.0182228
0.0182207
0.0182218
0.0182229
0.0182232
0.0182217
0.0182216
0.0182231
0.01822
0.0182253
0.0182221
0.0182243
0.0182224
0.0182265
0.0182265
0.0182264
0.0182264
0.0182264
0.0182266
0.0182266
0.0182208
0.0182193
0.0182218
0.0182225
0.0182227
0.0182229
0.0182217
0.0182228
0.0182229
0.0182193
0.0182228
0.0182206
0.0182236
0.0182205
0.0182221
0.0182225
0.0182229
0.0182201
0.0182221
0.0182225
0.0182221
0.0182225
0.0182228
0.0182234
0.0182225
0.0182222
0.0182206
0.0182227
0.0182229
0.0182228
0.0182225
0.0182222
0.0182217
0.0182227
0.0182217
0.0182222
0.0182225
0.0182218
0.0182222
0.0182228
0.0182211
0.0182225
0.0182194
0.0182246
0.0182209
0.0182207
0.0182222
0.0182225
0.0182213
0.0182254
0.0182221
0.0182225
0.0182251
0.0182178
0.0182177
0.0182221
0.0182228
0.0182224
0.0182227
0.0182166
0.0182166
0.0182217
0.0182218
0.0182218
0.0182255
0.0182228
0.018221
0.0182226
0.0182227
0.0182226
0.0182253
0.0182211
0.0182228
0.0182222
0.0182221
0.0182226
0.0182225
0.0182226
0.0182226
0.0182251
0.0182244
0.0182225
0.0182221
0.0182225
0.0182227
0.0182225
0.0182224
0.0182225
0.0182247
0.0182204
0.0182227
0.0182213
0.0182211
0.0182247
0.0182221
0.0182222
0.0182199
0.0182177
0.0182177
0.0182201
0.0182229
0.0182221
0.0182247
0.0182178
0.0182168
0.0182168
0.0182254
0.018219
0.0182184
0.0182222
0.0182203
0.0182219
0.0182215
0.018221
0.018221
0.0182218
0.0182253
0.0182221
0.0182214
0.018221
0.0182252
0.0182188
0.0182252
0.018221
0.0182216
0.0182231
0.018222
0.0182218
0.0182197
0.0182218
0.0182197
0.0182222
0.0182211
0.0182185
0.0182185
0.0182247
0.0182214
0.018226
0.018226
0.018226
0.0182212
0.0182255
0.018226
0.0182227
0.018226
0.0182196
0.0182197
0.018226
0.0182224
0.0182252
0.0182261
0.0182251
0.0182261
0.0182251
0.018219
0.0182248
0.0182254
0.018226
0.0182219
0.0182208
0.0182252
0.0182219
0.018226
0.0182216
0.0182223
0.0182261
0.0182252
0.0182261
0.0182254
0.0182222
0.0182194
0.0182168
0.0182169
0.0182215
0.0182168
0.0182168
0.0182169
0.0182174
0.0182248
0.0182187
0.0182201
0.0182193
0.0182215
0.0182173
0.0182173
0.0182193
0.0182254
0.0182224
0.0182255
0.0182253
0.0182251
0.0182179
0.0182179
0.018218
0.018218
0.0182179
0.0182169
0.018218
0.0182172
0.0182168
0.0182179
0.0182179
0.0182168
0.0182169
0.0182172
0.018218
FIELD solute_flux_TPM 2
S_ext 3 563 float
-5.20041e-05 1.73893e-05 -2.78877e-18
2.34149e-06 4.4289e-06 3.84513e-18
-8.16402e-06 -6.46068e-06 -1.64334e-19
-2.69221e-06 2.71991e-06 -1.02463e-18
1.5149e-05 -4.34391e-06 -8.7262e-19
1.75706e-06 -1.01755e-05 6.60664e-19
-5.12101e-05 -1.76009e-05 -3.01363e-19
-8.96599e-06 -6.62386e-06 2.68226e-18
1.41427e-05 6.08277e-07 -2.15316e-18
7.40286e-06 -2.63456e-06 4.99445e-19
3.46492e-05 8.06585e-06 -3.72789e-18
1.45862e-06 -1.10737e-05 4.6851e-18
8.84964e-06 7.15961e-06 -2.68856e-18
1.7751e-06 8.87172e-06 -1.52799e-18
1.37348e-05 -2.03582e-06 -2.40747e-18
-1.03429e-05 -1.68621e-07 1.62115e-19
1.86961e-06 9.19159e-06 -3.72568e-18
6.58069e-06 -1.58742e-06 2.67552e-18
6.29819e-06 1.09751e-05 1.31137e-18
-9.42156e-06 1.19715e-06 6.65703e-19
-2.25277e-06 -1.35431e-05 4.48397e-18
2.86273e-05 4.0394e-05 2.28956e-18
1.00994e-05 1.03589e-06 -1.16184e-18
7.23899e-06 -7.21649e-06 4.9501e-19
-9.55851e-06 -2.12793e-06 1.16421e-18
-3.85353e-07 -7.15284e-06 1.83782e-18
3.97598e-05 -3.10802e-06 -1.7308e-18
9.11863e-06 6.59437e-06 -2.5099e-18
-1.57742e-05 -1.28147e-05 -1.12365e-18
3.24122e-05 -8.59182e-06 1.20899e-18
-1.05307e-05 -3.91675e-06 3.33264e-19
3.37701e-06 -2.02307e-05 -1.44395e-18
2.983e-05 -3.04009e-05 -2.0389e-18
-3.45938e-06 -2.76708e-05 1.8944e-18
-1.95717e-05 2.43434e-05 1.55063e-18
-2.56924e-05 -1.08287e-05 5.21659e-19
2.15009e-05 2.81377e-05 4.16851e-18
-2.95641e-05 -5.80367e-06 2.24808e-18
9.35442e-06 -7.06431e-06 -1.01803e-18
2.91434e-05 3.16786e-05 1.53325e-19
2.037e-05 -8.90684e-06 -2.74142e-18
2.19237e-05 -2.70837e-05 -4.70656e-18
-1.25001e-05 -3.25072e-05 -2.60697e-18
-1.00844e-05 4.12094e-06 1.50792e-18
1.91059e-05 -1.86855e-05 1.09911e-18
-1.88967e-05 6.71586e-06 4.3638e-18
-2.59997e-06 -1.28763e-05 1.98139e-18
5.00786e-06 1.2839e-05 2.14578e-18
-1.04301e-05 3.80688e-06 -1.33329e-18
-1.13489e-05 1.78521e-05 3.19311e-19
2.05513e-05 9.66911e-06 -3.69377e-18
1.85961e-05 -6.46401e-06 1.61928e-18
-1.0381e-05 1.03789e-05 5.0517e-19
-1.47287e-05 -1.27827e-05 -1.5085e-19
-1.39635e-05 -3.43378e-06 -3.54297e-19
-2.78326e-05 1.65827e-05 -1.10192e-18
-1.93762e-05 -2.50537e-05 -1.90273e-18
3.88081e-06 -1.92542e-05 -8.15873e-19
-3.13934e-05 4.29538e-06 -3.99131e-18
3.87236e-06 8.76668e-06 1.31853e-18
-3.59181e-06 -5.38399e-06 -3.03947e-18
-4.24171e-06 -1.17941e-05 -3.06113e-18
3.59257e-05 1.56515e-05 -4.64938e-19
6.1501e-06 1.18363e-05 -1.53901e-18
8.14639e-06 -9.44913e-06 -1.70774e-18
-1.14641e-06 -1.34945e-05 1.85548e-18
3.08798e-06 -5.74434e-06 -5.18912e-19
-6.43908e-06 -3.61499e-06 -2.85652e-18
-6.79187e-06 7.54221e-06 -1.11196e-20
1.64444e-06 -2.75454e-06 -1.00834e-18
-9.95074e-06 -1.04395e-05 -2.22474e-18
-1.40839e-05 3.44315e-06 -6.84824e-19
-2.42238e-06 2.15447e-05 -6.55962e-19
-1.16132e-05 6.96763e-06 -5.09904e-19
-5.80348e-06 9.24592e-06 8.19931e-19
-3.71064e-05 4.62312e-06 -2.65828e-18
5.22374e-06 -1.4197e-05 1.69927e-18
-1.22941e-05 -5.67299e-06 -1.70034e-19
1.2067e-06 7.49825e-06 -3.36767e-18
1.67521e-05 3.21309e-06 1.64044e-19
2.15312e-05 -1.83382e-05 -6.3942e-19
1.47314e-05 1.35288e-05 -5.24609e-19
7.9209e-06 -1.95703e-06 3.17903e-19
-2.00475e-05 1.469e-05 1.69131e-19
2.39603e-05 3.07602e-06 4.86026e-19
-3.45215e-06 3.07476e-05 1.26528e-18
-1.10889e-06 -1.07926e-05 3.16737e-18
1.19193e-05 6.45032e-06 2.70759e-18
1.83749e-05 1.92404e-05 -3.00896e-18
4.25267e-05 2.64384e-05 -5.20793e-19
-3.4156e-06 1.93491e-05 -1.79763e-18
4.44216e-05 -2.49637e-05 4.1961e-18
-1.79121e-05 3.42678e-06 -6.86015e-19
1.1711e-05 7.26941e-06 -6.72805e-19
-1.84822e-05 6.16328e-06 2.76952e-18
1.04177e-05 1.80703e-05 -1.282e-18
6.18992e-06 -2.77673e-05 -6.39115e-19
1.22103e-06 7.49505e-06 -1.86092e-18
-9.61597e-06 -1.15927e-05 1.87078e-18
1.92337e-06 1.11895e-05 4.90899e-19
1.67955e-05 3.37196e-06 -1.47626e-18
-9.7314e-06 2.07093e-05 -9.82931e-19
2.55718e-05 -8.53034e-06 -3.2433e-19
-2.44351e-06 4.73826e-06 1.52143e-19
6.52164e-06 3.7595e-06 -3.48046e-19
-1.41723e-06 -7.27434e-06 1.66532e-18
2.1797e-06 -1.26261e-05 -1.76563e-19
1.12559e-05 2.53905e-06 -8.29784e-19
-5.16259e-06 2.56971e-05 -6.52612e-19
-6.46951e-06 9.85243e-08 -6.92029e-19
6.01849e-06 7.59735e-06 -2.50875e-18
-1.69195e-06 -2.61899e-05 -1.585e-18
2.65176e-05 8.24003e-06 -5.25271e-18
2.88585e-06 -4.76594e-06 6.62639e-19
-7.11578e-06 -2.31983e-06 -2.69033e-18
-1.82545e-05 -7.77811e-06 9.83971e-19
1.06102e-05 2.77303e-05 1.04317e-18
-2.67855e-05 -9.54853e-06 9.68624e-19
1.07583e-05 -2.78043e-05 4.31015e-18
-2.36091e-06 -2.00505e-05 -1.14009e-18
1.39622e-05 3.80269e-07 -6.62721e-19
-4.72275e-06 1.21988e-05 -1.70532e-18
-1.05819e-06 2.54944e-06 -2.36865e-18
-2.47834e-06 -1.07921e-05 3.34905e-19
3.44378e-06 -5.58963e-06 -3.03581e-18
6.20992e-06 1.04389e-05 8.43034e-19
2.23028e-05 7.3001e-06 4.98814e-18
5.69312e-06 -4.76287e-06 -8.64294e-21
-5.30078e-06 -2.81045e-05 -3.67828e-18
1.62026e-05 -1.19333e-05 2.92735e-18
3.30403e-06 1.83684e-05 1.19763e-18
-1.7875e-06 -1.86374e-06 -1.75774e-19
-5.69501e-06 -5.43613e-06 -4.73116e-18
-3.11676e-06 8.31449e-08 2.68027e-18
-1.43251e-05 1.76793e-05 -2.11002e-18
1.29193e-05 -2.49608e-05 -8.73476e-19
-1.66972e-05 2.63957e-05 1.90994e-18
-1.04306e-05 6.10209e-06 -2.6821e-18
1.63454e-06 8.13648e-06 3.73707e-18
-1.51283e-05 -2.365e-05 -1.90106e-18
8.68549e-06 2.10586e-05 3.4021e-18
1.14595e-05 5.96905e-06 4.97229e-19
1.4558e-05 -5.51354e-06 1.80251e-18
-8.46305e-07 -7.26974e-06 1.67905e-18
-2.10376e-05 -1.93465e-05 1.64932e-19
-1.72103e-06 7.28014e-06 3.20945e-19
1.12478e-05 6.64478e-06 5.03979e-19
1.21943e-05 -5.786e-06 2.49462e-18
5.34371e-06 -9.1496e-06 -4.06854e-21
1.55203e-05 -6.87461e-06 -1.15066e-18
1.22188e-05 -5.78633e-06 1.64986e-18
3.10928e-06 2.18069e-07 -6.22917e-21
1.62362e-05 1.2854e-05 -1.77142e-18
-1.68755e-06 -1.08797e-05 3.84831e-18
-6.78832e-06 -2.79703e-06 4.02933e-18
7.68306e-07 -2.5036e-06 3.67896e-18
-2.12694e-06 1.02475e-05 -1.69322e-18
-2.16045e-05 1.71083e-06 -8.0183e-19
-7.63389e-06 -2.07279e-05 2.44245e-18
-5.05232e-06 6.21746e-06 -2.68974e-18
8.66934e-06 1.05672e-05 -5.04838e-19
1.67549e-05 -1.19508e-05 -3.31383e-19
-2.29422e-05 -1.24431e-05 -1.89416e-18
1.08906e-05 -1.74537e-05 1.44915e-18
1.43629e-05 -1.71888e-05 -4.89306e-19
-6.99979e-06 2.49477e-06 -1.01186e-18
-1.24156e-05 -1.78665e-05 -8.04672e-19
-2.15856e-05 -3.59657e-06 1.66124e-19
-2.60629e-06 -1.98745e-05 -9.65206e-19
9.63922e-06 -1.99526e-05 1.4585e-18
-6.06881e-06 -1.7263e-05 -1.72468e-19
2.76273e-06 1.97419e-05 2.59094e-18
-1.00209e-05 -1.77586e-05 9.73166e-19
2.00923e-06 -1.05524e-05 3.36427e-18
-1.54922e-05 1.12696e-05 1.95269e-18
-9.80134e-06 -7.97467e-06 1.35086e-18
-1.80305e-05 -3.31807e-06 3.07174e-18
1.01885e-05 -5.99524e-06 2.66951e-18
-2.81332e-06 1.58249e-05 -3.46128e-19
8.06769e-06 -6.00884e-06 3.01075e-18
-1.84441e-05 -8.08269e-06 6.52176e-19
-5.72312e-06 -4.73837e-06 2.17619e-18
5.96342e-06 4.8075e-06 -1.19167e-18
1.34966e-05 1.8108e-05 -6.54167e-19
-1.13072e-05 -7.02991e-06 3.54688e-18
-2.02202e-05 -4.89643e-07 -9.53926e-19
-1.06942e-05 -3.16346e-06 2.02599e-18
-3.02007e-06 -1.08047e-05 1.35001e-18
1.17623e-05 1.42322e-05 -5.05099e-19
-7.12212e-06 3.70312e-06 -2.70386e-18
4.64833e-07 -1.33449e-05 2.8708e-18
-2.59367e-05 6.65871e-06 1.44803e-18
1.57649e-05 1.28072e-05 -1.95629e-18
2.28872e-06 2.06866e-05 3.17572e-19
-1.53944e-06 2.50211e-06 -2.52631e-18
-5.75737e-06 1.60808e-07 8.2941e-19
2.83152e-06 4.95956e-06 1.49069e-18
-7.67957e-06 2.29328e-06 -3.44332e-19
-1.34811e-06 -2.42527e-06 -1.66871e-19
1.14727e-06 1.34673e-05 -3.21129e-18
2.97977e-06 2.1874e-07 1.15359e-18
-1.23219e-05 2.98259e-06 6.61178e-19
-1.09462e-05 1.20989e-05 -3.59341e-18
-1.99153e-06 7.62729e-06 1.34749e-18
-1.82867e-05 1.14052e-05 2.42303e-18
-6.17986e-06 5.86529e-06 -7.58456e-21
1.13495e-05 -7.74054e-06 3.35909e-18
2.31441e-05 -2.30541e-06 -9.72239e-19
-1.3892e-05 7.36478e-06 -2.38302e-18
1.42995e-06 2.97561e-06 -3.85548e-18
1.45088e-05 -2.76912e-06 6.61577e-19
-1.11543e-05 6.76264e-06 1.34535e-18
-6.32204e-06 3.60678e-06 1.64397e-19
7.91643e-06 2.58021e-06 -1.03111e-18
1.39072e-05 -8.62822e-06 -3.33549e-19
-1.12469e-05 6.38262e-06 1.68222e-18
-1.56704e-05 -3.2954e-06 -9.73802e-19
-1.09248e-05 -2.78215e-06 8.46541e-19
6.62605e-06 8.39771e-08 3.69384e-18
6.78473e-06 4.85933e-08 -2.38178e-18
2.92564e-06 5.43696e-06 1.1617e-18
3.21696e-06 -5.74706e-06 1.32493e-18
-3.24902e-06 5.56752e-06 -8.47382e-19
-3.40086e-06 -5.69512e-06 -6.80292e-19
6.44067e-06 -4.91688e-06 1.5904e-19
-1.34421e-05 2.17566e-06 -2.38666e-18
-1.32904e-05 -2.21785e-06 -1.0364e-18
-8.51351e-06 1.04912e-05 2.37056e-18
-8.5607e-06 -1.05309e-05 4.26814e-18
4.95926e-06 -1.33426e-05 2.38144e-18
4.77809e-06 1.323e-05 1.88956e-18
9.49244e-07 1.63833e-05 2.77561e-18
7.40955e-06 -1.93098e-06 -1.19001e-18
1.60005e-06 -2.48213e-06 2.68315e-18
-1.34552e-05 9.15885e-07 -6.64052e-19
5.11643e-06 -1.31283e-05 1.00898e-18
4.8484e-06 1.31752e-05 2.05413e-18
3.12341e-06 -5.7893e-08 -1.1661e-18
5.63096e-06 1.54722e-05 2.92244e-18
-1.45208e-06 -2.58946e-06 9.95599e-19
1.49597e-06 -7.3041e-06 6.69789e-19
-1.40881e-05 -7.54955e-06 6.61293e-19
-1.40309e-05 -7.5e-06 3.39863e-18
-1.37789e-05 8.53095e-06 3.24244e-19
2.11369e-06 -8.23768e-06 1.68507e-18
-1.0323e-06 2.1658e-06 -2.02886e-18
-4.60227e-07 -1.6115e-05 6.54276e-19
-4.94839e-06 -1.53192e-05 1.67136e-19
2.06072e-05 1.91804e-05 -2.40184e-18
2.25056e-05 -1.15949e-06 -3.52389e-18
-8.36558e-06 -2.45784e-06 -2.04871e-18
-1.43464e-05 -2.55543e-05 -4.47566e-18
5.35284e-06 8.78319e-06 1.32469e-18
-1.5793e-05 1.8637e-06 2.61668e-18
1.28588e-05 3.6877e-06 9.90885e-19
-2.92211e-06 -1.2277e-08 4.91818e-19
-3.07402e-06 -5.50687e-06 2.36495e-18
-5.4318e-06 -2.58268e-05 -2.26757e-18
-6.38774e-06 -1.77661e-09 -1.7605e-19
-2.98237e-05 -1.11903e-06 -2.38417e-18
1.09536e-05 -1.21684e-05 -3.43372e-18
1.62858e-06 2.5719e-06 -6.95283e-19
-8.89427e-08 -1.1275e-05 1.17126e-18
-6.28179e-06 1.50933e-05 -2.4491e-18
-2.8945e-06 5.64686e-06 -1.19396e-18
1.31535e-05 -8.67039e-06 3.12046e-18
-2.50792e-05 -8.18954e-06 -2.6126e-18
-9.64936e-06 -1.27432e-05 -2.11717e-18
3.28112e-06 5.59983e-06 -1.83617e-18
1.10092e-05 3.24958e-06 -5.22054e-19
-3.04893e-06 -4.66581e-06 3.01251e-18
1.32777e-05 2.4419e-06 3.55796e-18
1.19929e-05 -6.41062e-06 -1.7038e-20
-2.40014e-07 1.78864e-05 -1.03595e-18
5.37996e-06 -8.74205e-06 2.1689e-18
3.08181e-05 1.3084e-06 -1.42811e-18
-2.61847e-05 6.81864e-06 1.43465e-18
1.52828e-05 7.61594e-06 3.93895e-18
-4.09852e-06 -1.08629e-05 1.99746e-18
-9.85826e-06 -5.49279e-06 6.72115e-19
1.82779e-05 -1.50091e-07 3.2583e-19
-4.84617e-07 -1.5946e-05 5.09856e-18
-8.09096e-06 -7.1106e-06 -2.86834e-18
6.43612e-06 -1.49119e-05 6.52613e-19
-3.81098e-07 1.33244e-05 -1.18479e-18
4.9428e-06 1.64702e-05 -6.229e-21
1.12633e-05 -6.47608e-06 1.15898e-18
-1.19442e-05 1.20121e-05 -1.97163e-18
1.04479e-05 1.27296e-05 -1.14843e-18
-4.32533e-05 1.03134e-05 -2.98097e-18
-6.73973e-06 1.71445e-05 5.97563e-18
8.30772e-06 -1.00588e-05 -8.63163e-19
-4.60124e-06 -1.21505e-05 -5.15189e-19
-7.69807e-06 2.81725e-06 -1.86227e-18
-1.61729e-05 -4.43016e-06 1.64525e-18
-4.46375e-06 2.60045e-05 -8.72532e-19
-8.1273e-06 7.84255e-06 1.34921e-18
1.33227e-05 -2.94678e-06 2.14811e-18
-4.3326e-06 -1.62274e-05 -2.63092e-18
-9.37713e-06 1.49262e-05 -5.09286e-18
-1.43202e-05 8.25914e-06 -1.36787e-18
-1.29296e-05 -9.42916e-06 6.63581e-19
1.20051e-05 -1.39055e-05 3.73348e-18
-1.71588e-05 -9.12364e-07 1.31642e-18
7.53882e-06 -2.58085e-05 -1.42107e-18
1.23364e-05 -1.19924e-05 8.11799e-19
1.54203e-05 2.70826e-05 -2.40195e-18
1.29847e-06 1.29953e-05 -4.0727e-18
1.84793e-06 -1.60931e-05 1.8025e-18
-2.81319e-05 3.30341e-05 -5.25273e-18
-7.99647e-06 -1.52673e-05 2.29713e-18
1.08965e-05 -4.17715e-06 3.19506e-18
-1.61671e-06 1.62203e-05 3.91682e-18
8.46453e-06 -7.93883e-06 6.66264e-19
8.76341e-06 1.53639e-05 -3.12318e-18
1.10851e-05 -9.57152e-07 1.66491e-18
1.34826e-05 -3.94729e-05 -3.63064e-18
-3.73707e-06 -8.17869e-06 -4.98819e-19
-1.45561e-05 6.25089e-06 1.96811e-18
-1.32172e-05 1.2382e-05 1.36735e-18
1.37221e-05 9.28635e-06 -2.13463e-18
1.1996e-05 -6.95162e-06 -1.80104e-19
9.76125e-06 8.32491e-06 3.64262e-21
-3.57486e-06 -3.53057e-08 -4.72342e-18
9.73808e-06 -1.46047e-05 -2.63144e-18
-1.0699e-05 -1.27224e-05 -1.57972e-19
1.4392e-05 6.26913e-06 -1.32181e-18
8.43791e-06 -7.96554e-06 -1.85796e-19
5.98942e-06 -1.57131e-05 -3.30862e-19
1.07949e-05 -4.61631e-06 2.84283e-18
-1.00783e-05 -4.81723e-06 -3.34138e-19
8.87231e-07 -1.72974e-05 3.25337e-18
-1.6314e-05 2.81899e-06 4.44511e-18
1.43603e-06 1.55334e-05 2.62685e-18
1.32009e-05 4.29613e-06 -2.82422e-18
-1.36574e-05 -6.74652e-06 -1.97607e-18
-5.67353e-06 1.60956e-05 -1.48107e-18
-9.44612e-07 -1.5319e-05 1.65001e-18
1.28924e-05 7.84156e-06 -5.06755e-19
-1.06244e-06 1.16431e-05 -2.19246e-18
-1.27208e-05 8.54292e-06 -1.15296e-18
1.49931e-05 7.24622e-06 1.62594e-19
-1.0958e-05 -6.49909e-06 2.18547e-18
1.52273e-07 -1.27973e-05 2.00806e-18
1.16855e-05 1.26525e-05 -4.73841e-21
-1.45249e-05 -9.40483e-06 6.85456e-19
3.04713e-05 -2.17992e-05 -1.69794e-18
1.16076e-05 -6.9619e-06 4.49704e-18
5.44409e-06 2.69836e-05 3.16092e-19
1.09877e-05 -8.72766e-06 -3.5031e-18
-1.41665e-05 5.46618e-05 -2.51999e-18
-1.42399e-05 -5.41422e-05 -2.51938e-18
3.55857e-05 4.65082e-05 -2.80997e-18
3.51581e-05 -4.64968e-05 -1.79092e-18
5.80987e-05 -2.86934e-08 -2.22456e-18
-4.99907e-05 2.02597e-05 -8.94285e-19
-4.91802e-05 -2.0471e-05 1.19582e-18
8.07373e-06 7.83698e-06 5.17122e-19
1.97013e-05 1.46837e-05 3.96901e-18
7.40188e-06 2.17995e-06 8.3528e-19
1.21386e-05 6.23884e-06 8.29851e-19
3.14922e-06 1.28426e-05 8.1939e-19
-1.18987e-05 -9.35283e-06 -4.90528e-19
1.11917e-05 -6.57857e-06 -6.86448e-19
1.27054e-05 9.24441e-06 1.64844e-18
-2.00914e-06 1.54239e-05 1.54841e-19
1.97999e-05 -1.34807e-05 1.00515e-18
2.33372e-06 -1.50437e-05 2.3095e-18
1.4588e-05 3.32378e-06 3.40007e-19
1.89184e-05 7.0366e-06 -8.11333e-19
9.41554e-06 9.31608e-06 2.19994e-18
1.02533e-05 4.26793e-06 -2.99773e-18
-1.1742e-05 6.92728e-06 1.10386e-21
-1.41951e-05 5.70346e-06 -6.54714e-19
1.53449e-05 -7.46851e-06 2.71421e-18
-1.16206e-05 -6.39389e-06 -4.98043e-19
-1.17752e-05 -6.65787e-06 1.9913e-18
-1.88368e-07 -1.32939e-05 8.29624e-19
-1.00008e-07 -1.34683e-05 9.94346e-19
-1.26688e-05 -6.3934e-07 3.13295e-18
1.70013e-05 -2.57706e-06 -8.18261e-19
1.1623e-05 7.28783e-06 -3.38346e-19
-1.14228e-05 6.91093e-06 3.50433e-18
-9.99536e-06 1.09471e-05 -3.91569e-18
1.02503e-05 -8.81049e-06 -2.8161e-18
-7.0215e-06 1.09894e-05 -3.63222e-18
-9.01044e-06 -9.3724e-06 4.96688e-19
-7.8229e-07 1.34668e-05 9.87297e-19
-7.84059e-07 1.3419e-05 1.15523e-18
2.41613e-08 -1.28002e-05 2.85396e-18
3.88009e-06 -1.25637e-05 -8.30276e-19
-1.10438e-05 -6.3457e-06 -2.32164e-21
1.00441e-05 -3.57699e-06 1.33083e-18
4.17578e-07 1.3691e-05 5.1308e-18
1.79253e-07 1.1895e-05 -2.36193e-18
-1.50511e-06 1.07399e-05 1.15885e-18
1.39941e-05 -3.54297e-06 3.29275e-18
-1.08627e-05 3.40193e-06 -1.87243e-18
2.58391e-06 1.37039e-05 -6.48947e-21
-2.1654e-05 8.47783e-06 -2.92445e-18
5.91775e-06 2.63674e-05 2.20765e-18
-1.1152e-05 2.91509e-06 4.97461e-19
1.30886e-05 -7.75257e-06 3.03715e-18
5.40807e-07 1.34489e-05 8.25569e-19
-1.29165e-05 4.2742e-06 9.9813e-19
1.63145e-06 -1.05255e-05 3.02776e-18
5.81084e-07 -3.64942e-05 -7.84878e-19
1.26322e-06 1.12114e-05 -1.71819e-19
-1.08021e-05 8.79582e-06 3.15245e-18
1.08676e-05 3.99837e-05 7.83849e-19
3.14927e-05 2.61217e-05 3.50898e-18
3.61074e-05 -2.4704e-05 9.42497e-18
9.60951e-06 -6.56312e-06 -1.17706e-18
-1.00227e-05 8.83361e-06 -2.48257e-18
-1.27628e-05 -5.05503e-06 4.97352e-19
-1.23941e-05 -4.28503e-06 1.81707e-18
4.44238e-05 -1.22089e-05 6.89909e-18
4.53122e-05 9.52906e-06 1.07084e-18
7.04474e-06 2.4856e-06 4.18918e-18
4.13031e-07 1.26105e-05 -1.34423e-18
5.59031e-08 1.26034e-05 8.31383e-19
-3.03948e-05 -2.22479e-05 1.24564e-18
7.27774e-06 -1.09463e-05 -9.91429e-19
7.71735e-06 8.31268e-06 2.37781e-18
-1.3461e-05 -2.17079e-06 1.32613e-18
-8.91701e-06 1.07924e-05 -2.49512e-18
-1.19698e-05 5.7672e-06 9.94019e-19
3.00927e-05 2.15839e-05 -9.30087e-19
1.04263e-05 4.58952e-06 3.29143e-19
-3.57689e-06 1.26486e-05 3.26514e-19
-1.08724e-05 -7.41357e-06 2.17428e-18
1.12673e-06 -1.31622e-05 4.671e-18
-5.6491e-06 -1.21745e-05 -2.3226e-18
-1.09338e-05 -7.43799e-06 3.36983e-19
6.72615e-06 -1.20325e-05 -1.49364e-18
9.06046e-06 -1.07935e-05 -2.49102e-18
-1.85397e-06 -3.81932e-05 -1.88862e-18
1.63138e-05 -2.58676e-05 1.43806e-18
1.10976e-06 -1.32457e-05 1.82498e-18
1.16366e-05 7.26075e-06 -1.67915e-18
-9.22302e-06 -9.36017e-06 -1.32492e-18
-6.23315e-06 1.24249e-05 -5.01079e-19
-3.17625e-06 1.33313e-05 -1.168e-18
1.07054e-05 9.05237e-06 -1.50034e-18
3.81442e-06 -1.26588e-05 1.98888e-18
-8.75529e-06 -2.50765e-05 -3.79545e-18
-1.36595e-06 1.6476e-05 -1.19482e-18
9.45366e-06 9.22872e-06 3.23865e-19
-8.33617e-06 -6.63294e-06 -1.18261e-18
-8.77748e-06 6.90868e-06 1.18026e-18
2.80608e-05 -1.20515e-05 1.85026e-21
4.84719e-06 -8.56505e-06 9.97314e-19
-5.32914e-06 -7.98791e-06 2.83919e-18
1.42983e-05 4.3794e-06 1.5265e-18
8.81512e-06 -3.18e-05 -2.11437e-18
-2.31373e-05 -2.35133e-05 -2.27041e-18
1.55853e-05 4.06257e-06 2.7256e-18
-5.93063e-06 -1.15114e-05 1.67755e-19
1.2075e-05 6.1683e-06 -5.04454e-19
-1.80575e-05 -2.00583e-05 -1.88375e-18
7.13943e-06 3.23301e-05 -1.22068e-18
3.13423e-05 -4.04863e-05 -1.9655e-18
-1.93932e-05 -4.73759e-05 -4.2404e-18
1.70106e-05 -3.32403e-05 -1.23898e-18
-8.39246e-06 2.88731e-05 -1.38638e-18
-4.79013e-06 2.5562e-05 -1.92196e-18
-1.19325e-05 5.74555e-06 1.64935e-19
4.01338e-06 1.59249e-05 -5.16235e-19
-1.51475e-06 8.07014e-06 -6.83292e-19
6.59207e-06 2.14736e-06 1.01346e-18
-2.15762e-06 1.05942e-05 1.85194e-18
-1.53751e-07 1.36918e-05 1.01335e-18
1.08239e-05 6.31495e-06 -1.67797e-18
5.36093e-07 3.63215e-05 -1.39593e-18
-9.42856e-06 6.7554e-06 -6.52068e-18
1.04689e-05 -3.9989e-06 2.34339e-18
1.12432e-05 -2.8635e-06 2.35344e-18
-3.72302e-05 -5.35798e-06 4.8516e-18
-2.29071e-05 1.0903e-05 -1.61185e-21
-2.70137e-05 -3.20333e-05 -1.10709e-18
5.70557e-06 5.44101e-06 -2.8865e-18
9.23639e-06 4.82834e-06 2.69205e-18
1.7042e-05 -2.73473e-06 -1.14887e-18
-5.16853e-06 -8.41193e-06 5.04237e-19
1.11552e-05 5.53208e-06 -2.01097e-18
4.88117e-06 -1.98755e-05 -6.95777e-19
-8.89737e-06 6.47158e-06 -4.5365e-18
-1.47661e-05 -1.41617e-05 -1.20232e-18
-3.6919e-06 1.03818e-05 1.60511e-19
-2.22108e-06 1.34852e-05 2.19366e-18
2.28869e-05 1.42103e-05 1.04205e-18
2.44038e-05 -1.2944e-05 5.17599e-18
-2.60339e-05 -7.00801e-06 -1.09969e-18
4.94925e-06 5.08287e-06 2.52718e-18
-3.03489e-06 6.34521e-05 -2.01923e-18
-5.30851e-09 -6.5177e-05 -7.72428e-19
3.2126e-05 5.49787e-05 -4.17086e-18
-1.24778e-05 5.40203e-06 -2.70908e-18
-1.72426e-05 3.48203e-05 7.68728e-19
3.2324e-05 -5.30653e-05 -3.08702e-18
-7.42968e-06 -1.14832e-05 1.32955e-18
4.91523e-05 4.2781e-05 -3.07202e-18
1.5936e-05 -1.18338e-05 6.81622e-19
-2.29781e-06 -1.97067e-05 -1.72453e-18
5.15001e-05 -4.18325e-05 -2.17206e-18
-4.31393e-06 9.20341e-06 2.98218e-18
-3.30259e-05 -2.09786e-05 3.46576e-18
-2.71756e-05 -5.6745e-05 1.50007e-19
-1.5392e-05 -3.59506e-05 -2.35797e-18
-2.79384e-05 5.76741e-05 1.47218e-19
-6.6161e-06 3.99429e-05 2.03273e-18
1.069e-05 2.47691e-05 -2.77796e-18
-1.77389e-05 2.27932e-05 3.77905e-18
-1.65e-05 -3.38995e-05 -4.68771e-19
6.32352e-05 1.10974e-05 -9.23675e-19
-1.09097e-05 6.81301e-06 1.00538e-18
-3.92546e-06 1.06579e-05 2.53688e-18
-3.13233e-05 2.25541e-05 -1.56055e-18
-1.10935e-05 6.37693e-06 -6.68405e-19
6.26126e-05 -9.89483e-06 9.23797e-19
-9.92204e-06 4.96089e-06 -1.00993e-18
4.6223e-06 -9.26832e-06 3.27677e-19
-4.86149e-05 -3.70468e-05 1.53869e-18
-1.65824e-05 3.59796e-05 1.88092e-18
-4.97727e-05 3.67822e-05 3.04423e-19
1.50475e-05 3.31166e-05 -1.2429e-18
-9.45968e-06 6.70488e-06 1.4956e-18
-1.35177e-05 1.62776e-05 -3.10608e-18
-2.41677e-05 3.03602e-05 2.47214e-18
-3.7899e-05 -4.88428e-06 -1.05926e-18
-6.50164e-07 1.05522e-05 1.16692e-18
-2.55968e-05 -3.04878e-05 -4.07066e-18
-3.92136e-05 6.92996e-06 -3.00225e-18
-1.49389e-05 3.46459e-05 -3.35665e-18
-1.15256e-05 4.61013e-05 -1.41568e-18
-1.15693e-05 2.56642e-05 -1.89949e-18
-2.2336e-05 1.79991e-05 -2.4298e-18
1.63793e-05 -4.01033e-06 1.51699e-18
2.56272e-05 -1.35565e-06 4.28836e-18
8.79561e-06 5.38147e-06 -2.0146e-18
-8.0978e-06 -5.30471e-05 -3.34653e-18
-4.99989e-05 -1.94971e-05 -2.63098e-18
2.49535e-05 3.03267e-07 1.20628e-18
3.70489e-05 -7.15311e-06 -3.0882e-18
-6.72184e-06 -8.53317e-06 6.68086e-19
-3.21366e-05 2.2601e-05 7.73711e-19
-2.88012e-05 3.29967e-05 1.41728e-18
3.91644e-05 -1.41106e-05 -4.56741e-18
-1.86809e-05 -3.16475e-05 -5.06653e-18
-1.90146e-05 3.14021e-05 -2.62349e-18
-3.68868e-05 -1.30971e-06 4.0109e-18
-1.67734e-05 3.30003e-05 -5.23315e-18
-3.67715e-05 3.84704e-07 -2.79333e-18
4.57565e-05 1.6383e-05 -1.08405e-18
3.69176e-05 1.36326e-06 1.89521e-18
3.47168e-05 -1.77851e-05 7.70772e-18
1.01331e-05 -4.88088e-05 7.75903e-18
1.83422e-05 -3.19597e-05 8.70019e-18
1.82176e-05 3.19557e-05 2.62612e-18
9.92347e-06 4.76911e-05 2.66419e-18
4.99673e-05 -1.40907e-05 1.42215e-18
3.20284e-05 1.58635e-05 2.64815e-18
3.07722e-05 8.4059e-06 3.83882e-18
P_ext 3 563 float
-9.83414e-07 3.32506e-07 -2.41891e-20
9.27046e-10 3.64104e-08 1.56681e-20
-9.05935e-08 -8.5197e-08 -1.54831e-20
-2.86577e-08 2.64521e-08 4.76425e-21
2.49863e-08 4.81807e-10 -1.63753e-20
2.98175e-08 -1.21007e-07 1.81197e-20
-9.68236e-07 -3.36529e-07 -1.68324e-20
-7.10192e-08 -8.0572e-08 4.19279e-20
1.97584e-07 3.49898e-09 7.45233e-20
7.21301e-08 -6.77253e-09 2.5856e-21
6.4013e-07 1.50042e-07 -7.75884e-20
3.51763e-08 -1.02964e-07 2.91242e-21
8.06037e-08 9.59533e-08 1.25794e-20
-8.30904e-09 7.51593e-08 -8.25978e-21
2.257e-08 8.36985e-09 -3.773e-20
-1.26301e-07 -2.06753e-09 3.36509e-20
-1.57856e-08 4.95245e-08 -6.11712e-22
7.61353e-08 -1.14866e-08 2.87978e-20
8.74553e-08 1.55971e-07 1.53725e-20
-1.17329e-07 1.18314e-08 3.88441e-20
-4.40505e-08 -1.66184e-07 -1.26133e-20
1.45566e-09 2.81315e-10 6.60333e-20
1.29951e-07 1.05795e-08 7.48934e-20
8.27294e-08 -9.55237e-08 -3.62714e-20
-1.19855e-07 -1.92984e-08 5.70147e-20
-2.25971e-08 -6.55844e-08 5.25615e-21
7.35902e-07 -6.02007e-08 -2.2224e-20
9.01375e-08 7.59957e-08 -2.63219e-20
-2.69242e-07 -2.13869e-07 4.02024e-20
1.58118e-08 2.97777e-09 5.67303e-20
-1.20341e-07 -2.1427e-08 5.26095e-23
5.26196e-08 -3.42416e-07 -2.75962e-20
5.53001e-07 -5.66343e-07 3.39605e-20
1.17514e-09 -2.59566e-08 7.79688e-20
-6.98271e-09 1.99614e-08 3.50061e-20
-2.16683e-08 -1.42726e-08 5.38535e-20
2.86324e-09 1.43343e-08 3.27332e-20
-2.19052e-08 3.73201e-09 4.05355e-20
8.70446e-08 -9.46759e-08 -3.41559e-20
5.39624e-07 5.90211e-07 -7.07488e-20
3.44673e-07 -1.5616e-07 -2.02412e-20
5.3232e-09 -1.31272e-08 -4.11859e-20
-8.63166e-09 -1.1491e-08 1.06146e-20
-1.19547e-07 2.45522e-08 -4.9325e-20
3.41971e-07 -3.35832e-07 4.97822e-21
-3.18628e-07 1.1469e-07 1.55801e-20
-4.02538e-08 -1.7565e-07 -1.01495e-20
7.26284e-08 1.76425e-07 1.80694e-20
-1.14671e-07 2.99833e-08 -5.46347e-20
-1.97354e-07 3.06953e-07 7.22553e-20
3.49822e-07 1.71319e-07 2.96294e-20
3.03747e-07 -9.9901e-08 4.20069e-23
-8.94176e-09 2.12538e-08 -1.87868e-20
-2.37703e-07 -2.13305e-07 6.85284e-20
-2.33144e-08 3.08047e-09 4.77311e-20
-5.09863e-07 2.99419e-07 2.72186e-20
-6.48354e-09 -1.98781e-08 3.22741e-20
6.7688e-08 -3.13899e-07 -4.05264e-20
-2.02579e-08 -4.41553e-09 2.38325e-20
5.31003e-08 1.06468e-07 -1.56539e-20
-2.83319e-08 -8.5905e-09 -6.32867e-20
-2.99136e-08 -2.80895e-08 -3.00583e-21
6.63516e-07 2.92119e-07 -6.87481e-20
-5.77601e-10 5.79259e-08 1.81483e-20
8.94523e-09 -3.8647e-08 -8.25761e-21
1.50465e-08 -8.59921e-08 2.11361e-22
-5.97685e-09 -2.81525e-08 -8.16012e-21
-6.88275e-08 -1.74874e-08 -7.59993e-20
-8.01236e-08 9.80374e-08 -8.03356e-21
2.1488e-08 -7.79846e-09 -3.6664e-20
-8.81942e-09 -2.18661e-08 2.92096e-20
-2.30592e-08 -3.38162e-09 -1.33881e-20
-3.97192e-08 3.67982e-07 3.48117e-20
-7.06822e-08 3.57005e-08 -5.27198e-20
-6.85825e-08 1.17307e-07 1.02554e-20
-6.89992e-07 8.11024e-08 -4.8768e-20
2.67639e-11 -5.46187e-08 2.12855e-20
-6.64033e-08 -5.56412e-08 1.0446e-20
2.79672e-08 6.82381e-08 -2.13991e-20
2.64421e-07 5.28635e-08 3.29939e-20
3.78993e-07 -3.29755e-07 -4.9909e-21
1.03802e-08 2.54257e-08 -2.15981e-20
2.56227e-08 7.95815e-09 2.85703e-20
-3.53135e-07 2.61265e-07 1.90446e-22
4.12199e-07 5.01132e-08 2.61882e-21
-6.24802e-08 5.58713e-07 4.69334e-20
-2.16585e-08 -1.11951e-07 -3.09592e-20
7.60134e-08 5.35382e-08 4.76432e-20
3.28931e-07 3.46883e-07 -5.69007e-20
5.95751e-09 2.6434e-09 1.64374e-19
-6.33936e-08 3.15673e-07 -1.5499e-20
5.38115e-09 -2.87636e-09 4.637e-20
-3.80477e-08 2.59541e-08 2.90938e-20
8.21549e-08 3.34319e-08 -5.23222e-21
-3.03957e-07 9.39647e-08 -7.29091e-21
1.76423e-07 3.10006e-07 2.23385e-20
1.09757e-07 -4.9555e-07 -5.98086e-20
2.57973e-08 6.76261e-08 -2.13212e-20
-4.66672e-08 -2.77638e-08 7.70049e-20
3.86771e-08 1.2369e-07 -1.57845e-20
2.57177e-07 4.37623e-08 1.26907e-20
-1.70732e-07 3.5272e-07 -2.81025e-20
4.53868e-07 -1.48337e-07 -6.45854e-20
-2.51819e-08 5.49795e-08 -5.46539e-21
4.82584e-08 4.90185e-08 3.88517e-20
-2.86879e-08 -6.61719e-08 1.81861e-20
-1.15443e-08 -5.04108e-08 -4.49267e-20
1.33487e-07 1.60005e-08 1.06606e-19
-9.73826e-08 4.55518e-07 3.45164e-20
-2.25124e-08 1.38944e-08 -6.31777e-20
6.65819e-08 9.86756e-08 1.51692e-20
-3.29298e-08 -4.6746e-07 -8.40256e-20
4.72888e-07 1.41986e-07 -6.49276e-20
3.21905e-08 -5.68851e-08 1.81791e-20
-7.34918e-08 -8.4039e-09 -4.99358e-20
-3.02439e-07 -1.21386e-07 7.8923e-21
1.49491e-08 1.59867e-08 7.56308e-20
-4.80433e-07 -1.68018e-07 4.25563e-20
1.51766e-08 -1.5943e-08 -5.46012e-21
-4.67158e-08 -3.28457e-07 -4.05667e-20
2.02711e-07 7.69272e-09 7.54956e-21
-1.80517e-08 1.5394e-08 1.82922e-20
4.84856e-09 2.21359e-08 -5.01745e-20
1.35644e-08 -5.93727e-08 -9.98004e-24
2.35505e-08 -1.10075e-08 -7.89084e-20
4.31128e-10 2.3847e-08 4.49596e-20
2.05824e-08 -2.57102e-09 -8.06788e-21
3.84134e-08 -5.66774e-08 5.05524e-21
-9.83698e-08 -5.01717e-07 -8.24003e-20
2.59857e-07 -2.00042e-07 1.79795e-20
8.36016e-10 3.16458e-08 8.04664e-21
-2.19102e-08 -3.96011e-09 -2.62759e-20
-7.12272e-09 -2.45001e-08 -3.28592e-22
-1.8065e-08 -1.27557e-08 8.36725e-20
-2.42938e-07 3.03579e-07 -1.28754e-20
-2.79021e-10 -2.40979e-08 2.94396e-20
-3.03893e-07 4.77159e-07 3.73757e-20
-1.14192e-07 5.25117e-08 -9.14607e-20
1.6056e-08 1.73071e-08 -2.30707e-20
-2.07467e-08 -1.21314e-08 1.18545e-19
1.48168e-07 3.57598e-07 4.29834e-20
8.54734e-08 7.61836e-08 -7.88359e-21
2.07492e-07 -6.84264e-08 -1.80538e-20
1.16791e-08 -6.38386e-08 3.14955e-20
-3.76513e-07 -3.4695e-07 2.99056e-20
-3.6302e-08 6.27283e-08 2.32127e-20
9.42506e-08 5.02751e-08 1.31074e-20
1.37829e-07 -4.74486e-08 -1.08856e-19
5.95219e-08 -1.18908e-07 -1.82355e-20
2.35976e-07 -1.08813e-07 -2.56383e-20
1.56994e-07 -7.41033e-08 -2.58799e-20
1.57737e-08 -1.30792e-08 7.71192e-21
2.73727e-07 2.16515e-07 1.98548e-20
-3.96227e-08 -1.1457e-07 -3.6093e-20
-4.86562e-08 -4.16342e-08 3.68911e-20
-7.95835e-09 -2.08814e-08 1.30615e-19
1.09336e-08 8.17419e-08 -5.79378e-20
-3.66112e-07 2.6248e-08 -5.04599e-20
-1.33747e-07 -3.49487e-07 2.80773e-20
-5.75928e-08 7.34117e-08 2.10442e-21
1.13256e-07 1.50941e-07 1.01208e-20
2.81744e-07 -1.99831e-07 -1.85981e-22
-4.11888e-07 -2.20218e-07 -1.24151e-20
1.83231e-07 -2.98285e-07 5.01782e-20
2.38589e-07 -2.93485e-07 2.51825e-20
-7.02606e-08 6.95626e-09 7.6512e-21
-2.09452e-07 -3.03095e-07 -1.24845e-20
-3.66638e-07 -5.74618e-08 -3.01388e-20
-4.36958e-08 -3.3459e-07 -7.27874e-20
1.631e-07 -3.37115e-07 2.62364e-21
3.41371e-09 -4.63288e-08 6.89965e-20
4.84672e-08 3.22776e-07 3.80804e-20
-1.72669e-07 -3.02062e-07 7.27257e-20
-1.62007e-08 -7.4102e-08 2.90226e-20
-2.49597e-07 1.8686e-07 4.31642e-20
-4.88896e-08 -1.60214e-08 7.37678e-20
-3.80831e-08 -2.6178e-08 -1.56465e-20
9.96066e-08 -5.10803e-08 -5.2108e-20
-1.3701e-08 1.93961e-08 -5.43367e-21
5.2938e-08 -6.68276e-08 -3.65012e-20
-3.10588e-07 -1.38127e-07 -4.24473e-20
-4.11334e-08 -5.54043e-08 8.88525e-20
4.29884e-08 5.87759e-08 -3.96142e-20
2.24581e-07 3.10006e-07 2.25515e-20
-7.94792e-08 -3.66495e-08 1.87195e-20
-3.45494e-07 -7.77313e-09 -3.74381e-20
-4.42706e-08 -4.10669e-08 5.41452e-21
-2.51676e-09 -5.94675e-08 2.89988e-20
4.33667e-08 2.18676e-08 3.46195e-20
-5.00178e-08 4.93083e-08 -1.36256e-20
-8.35522e-09 -8.75446e-08 1.33814e-20
-4.61207e-07 1.13606e-07 2.66563e-21
2.52812e-07 2.15676e-07 -2.55439e-20
3.37797e-08 3.51267e-07 -4.03004e-20
-2.03661e-08 6.99816e-09 -8.20846e-21
-6.79423e-08 2.11124e-09 -3.38696e-20
3.11916e-08 5.95536e-08 2.06725e-20
-2.46844e-08 -6.06639e-09 -1.5911e-20
2.92453e-09 -2.10508e-08 -5.74679e-20
-1.35898e-08 9.26672e-08 -3.18925e-20
1.50525e-08 1.58662e-08 -1.86048e-20
-1.71628e-07 3.79378e-08 4.63075e-20
-1.74068e-07 1.89928e-07 -5.37271e-20
-1.87897e-08 1.74279e-08 1.01451e-23
-3.14919e-07 1.90057e-07 4.28344e-20
-8.07719e-09 2.68274e-08 1.56405e-20
8.49778e-08 -3.04369e-08 -4.4524e-20
3.94759e-07 -3.63177e-08 -2.5268e-20
-4.9471e-08 3.13027e-08 -2.49549e-22
2.00108e-08 9.22098e-09 -2.8926e-20
5.14885e-08 -3.22263e-08 -4.53289e-20
-8.8347e-08 2.94414e-08 -6.00643e-20
-6.42976e-08 1.68519e-08 -4.96141e-20
2.26015e-08 -6.60868e-09 -3.7237e-20
2.09128e-07 -1.27183e-07 -1.28439e-20
-8.22918e-08 5.24696e-08 2.37092e-20
-2.45863e-07 -5.12698e-08 -1.7756e-20
-5.22414e-08 -2.75101e-08 2.11289e-20
1.99796e-08 -1.32716e-08 -3.12254e-20
2.2133e-08 1.55574e-08 -5.04439e-20
-5.59438e-09 2.51663e-08 -4.19945e-20
-2.27374e-09 -2.8395e-08 1.54343e-20
-2.30448e-08 1.17735e-08 1.02556e-20
-2.5791e-08 -1.32064e-08 -4.98699e-20
6.46121e-08 -2.44153e-08 1.81336e-20
-2.36327e-08 -6.50644e-09 -3.73442e-20
-2.35823e-08 6.26726e-09 2.87149e-20
-5.80664e-09 2.34335e-08 -7.94612e-21
-6.3047e-09 -2.39472e-08 9.32519e-20
1.5585e-08 -1.74466e-08 6.65028e-20
1.4983e-08 1.66972e-08 4.82282e-20
9.04475e-09 2.49575e-07 5.16415e-21
4.84145e-08 -3.99441e-08 -1.86748e-20
1.12997e-08 -2.13118e-08 -3.10242e-20
-1.88212e-07 6.95565e-09 7.47387e-20
1.78685e-08 -1.69549e-08 -2.13334e-20
1.66832e-08 1.72185e-08 4.81013e-20
2.55972e-08 -5.57141e-10 -4.6895e-20
8.63998e-08 2.44573e-07 -5.06233e-20
-1.29516e-08 -2.11796e-08 5.46096e-20
2.80073e-08 -6.40967e-08 4.69922e-20
-2.10043e-07 -1.16212e-07 -2.02483e-20
-4.61457e-08 -2.99546e-08 1.27195e-19
-2.10811e-07 1.25029e-07 1.27138e-20
1.86928e-08 -1.91583e-08 2.89504e-20
-8.96003e-09 1.99141e-08 -4.22218e-20
-4.92999e-09 -2.41674e-07 1.27616e-20
-7.9123e-08 -2.39364e-07 2.28849e-20
3.62779e-07 3.4528e-07 3.22233e-20
3.8804e-07 -2.20363e-08 -1.07508e-19
-2.75143e-08 5.99737e-09 1.79034e-20
-2.59524e-07 -4.58615e-07 -6.49179e-20
6.18716e-08 1.06087e-07 -2.73296e-21
-2.48759e-07 2.92986e-08 2.3182e-20
1.78578e-07 4.99351e-08 3.3458e-20
-2.43987e-08 -9.86895e-11 -2.77043e-21
5.345e-10 -2.53576e-08 4.48918e-20
-2.21307e-09 -1.73392e-08 2.67694e-20
-2.1623e-08 -1.28706e-08 -3.41733e-20
-5.381e-07 -2.03912e-08 -1.49115e-20
1.69114e-07 -1.91269e-07 -3.34507e-20
1.14976e-08 2.23038e-08 -5.52833e-20
5.8795e-09 -1.06778e-07 -2.34006e-20
-1.00875e-07 2.38892e-07 -2.78477e-21
2.0714e-09 2.68313e-08 -3.03546e-21
1.80449e-07 -1.29126e-07 7.74383e-21
-1.58631e-08 -6.93849e-09 3.49301e-20
-1.53455e-07 -1.99446e-07 4.80343e-20
2.11417e-08 1.07533e-08 -6.27087e-20
5.00268e-08 4.83729e-08 1.80352e-20
-3.55998e-08 -5.54564e-08 9.91881e-20
2.18954e-08 -7.08665e-09 -7.97395e-21
7.41356e-08 -5.17568e-08 -1.34232e-20
-4.40186e-09 4.13319e-08 -3.75912e-20
6.09932e-08 -1.02802e-07 7.03238e-20
5.57044e-07 2.80674e-08 -4.95418e-20
-4.71919e-07 1.2486e-07 2.98449e-20
3.95066e-08 2.75291e-08 1.63938e-20
-5.84602e-08 -1.40745e-07 -4.88986e-20
-8.8856e-08 -5.7969e-08 -2.5128e-21
2.8925e-07 -2.90742e-09 6.87723e-20
2.47172e-09 -5.51792e-08 4.53425e-20
-7.22805e-08 -2.55152e-08 -8.68035e-20
9.85768e-08 -2.35525e-07 5.05307e-21
7.85847e-09 9.48632e-08 -7.6179e-20
8.09056e-08 2.50898e-07 4.58299e-20
9.70892e-08 -5.11647e-08 -4.71955e-20
-1.77122e-07 1.8853e-07 2.33823e-21
1.62873e-07 2.0126e-07 -2.08949e-22
-1.02394e-08 4.57667e-09 -5.75463e-20
1.6892e-09 4.37098e-08 1.10895e-20
3.29134e-09 -1.98309e-08 -1.35189e-20
-1.5702e-08 -1.3017e-08 4.2249e-20
-5.4084e-08 4.2888e-08 1.00251e-20
-2.48162e-07 -5.87954e-08 2.65534e-21
8.66246e-10 2.78842e-08 -1.09972e-20
-6.48964e-08 1.93663e-08 -3.40356e-20
1.75824e-07 -2.54884e-08 3.61663e-20
-7.51907e-08 -2.43483e-07 -1.81772e-20
-1.48092e-07 2.35846e-07 -5.92303e-20
-4.18049e-08 1.93229e-08 3.18495e-20
-1.98475e-07 -1.40434e-07 1.22572e-19
4.49188e-08 -2.10631e-08 -7.17505e-20
-2.69114e-07 -1.31772e-08 3.58948e-20
1.31751e-07 -4.64905e-07 -1.48449e-20
1.79997e-07 -1.8902e-07 -6.13669e-20
2.75248e-07 4.88015e-07 -1.75871e-20
-2.58156e-09 5.8971e-08 -2.41744e-20
2.36248e-08 -2.45165e-07 2.05467e-20
-9.56805e-09 5.79577e-09 -2.49522e-20
-1.27597e-07 -2.38093e-07 2.82151e-21
4.28022e-08 -3.66388e-08 -7.91772e-21
-2.46166e-08 2.47995e-07 -2.34982e-21
5.97569e-08 -1.75355e-08 5.50051e-20
1.35997e-07 2.42362e-07 -2.33688e-20
1.36202e-07 -3.17909e-09 5.45346e-20
2.48631e-07 -7.33606e-07 -3.46478e-20
-5.26779e-08 -9.80664e-08 -6.73931e-20
-2.19699e-07 9.57281e-08 3.33783e-20
-3.07786e-08 1.51182e-08 -2.91321e-20
2.08566e-07 1.39674e-07 -7.96629e-21
1.48653e-07 -8.20683e-08 -7.51283e-20
7.85731e-08 3.45161e-08 -7.79878e-21
-1.60676e-08 1.35817e-08 -5.04179e-20
1.49108e-07 -2.30351e-07 -6.16753e-20
-1.58965e-07 -1.98373e-07 9.9737e-20
2.051e-07 8.08993e-08 1.01292e-20
5.21689e-08 -3.22416e-08 2.2734e-21
9.58862e-08 -2.3832e-07 -5.63063e-20
1.12672e-07 -2.13551e-08 1.05604e-20
-1.09341e-07 -4.36208e-08 1.81343e-20
-4.75273e-09 -4.43728e-08 1.14884e-19
-2.50644e-07 3.4804e-08 8.2358e-20
2.63341e-08 2.19873e-07 4.35839e-20
1.71462e-07 4.00086e-08 1.26813e-20
-1.94774e-07 -8.71778e-08 2.48641e-21
-9.57774e-08 2.45581e-07 -1.30019e-20
-2.18924e-08 -2.14214e-07 -3.31916e-20
5.66227e-08 2.76354e-08 -5.2809e-21
-3.67608e-08 1.03593e-07 -3.95395e-20
-1.75151e-07 1.25621e-07 -5.39125e-20
2.24948e-07 1.13465e-07 1.7803e-20
-1.02398e-07 -3.21639e-08 4.20217e-20
-2.48342e-08 -1.05445e-07 -4.17307e-20
1.719e-07 1.99822e-07 -5.30008e-23
-4.03994e-08 -1.83266e-08 8.27011e-20
5.65305e-07 -4.06475e-07 -4.88183e-21
1.19693e-07 -8.37433e-08 -4.13217e-20
9.77578e-08 4.79061e-07 9.92288e-21
1.26213e-07 -1.21342e-07 -5.99626e-20
-2.72929e-07 1.03939e-06 -7.62594e-20
-2.7451e-07 -1.02927e-06 -1.39442e-20
6.74447e-07 8.86522e-07 -6.69994e-20
6.66082e-07 -8.86284e-07 -1.63821e-20
1.10402e-06 -4.31469e-10 -9.46802e-21
-9.51717e-07 3.82899e-07 -3.72133e-20
-9.35939e-07 -3.87062e-07 -7.16371e-20
4.55014e-08 2.46792e-08 2.65782e-20
2.91915e-08 1.41759e-08 1.0229e-19
8.48143e-08 1.14197e-08 1.82317e-20
1.4974e-07 8.00259e-08 2.70521e-21
4.44192e-08 1.76937e-07 5.07461e-21
-1.60535e-07 -1.37924e-07 4.88004e-20
8.08358e-08 -7.45225e-08 1.79469e-20
1.72493e-07 1.38435e-07 2.57265e-20
-3.98939e-08 2.17776e-07 1.52087e-20
2.83119e-08 -1.3908e-08 -5.40555e-20
4.05997e-08 -2.08987e-07 5.14961e-20
5.30348e-08 3.57653e-08 -1.84971e-20
3.11134e-07 1.08992e-07 -2.03291e-20
6.9673e-09 2.23903e-08 -1.84979e-20
1.20241e-07 3.93536e-08 1.01602e-20
-1.4882e-07 8.23203e-08 -2.31945e-20
-2.03761e-07 7.04876e-08 3.33414e-20
4.03343e-08 -2.76331e-08 -3.74666e-20
-1.30086e-07 -6.01957e-08 -6.48845e-20
-1.42933e-07 -8.46622e-08 1.31035e-20
-1.25302e-08 -1.43481e-07 -2.07956e-20
5.64951e-10 -1.64794e-07 -5.1314e-21
-1.81445e-07 -7.84314e-09 7.98228e-20
2.69313e-07 -4.18152e-08 4.9253e-21
1.45281e-07 8.95362e-08 1.53128e-20
-1.20217e-07 8.20097e-08 2.36963e-20
-5.42007e-08 2.65282e-08 -9.03596e-20
1.356e-07 -1.21503e-07 -2.61076e-20
-1.01885e-07 1.58638e-07 -2.09797e-20
-1.25504e-07 -1.32204e-07 5.65435e-20
-1.18943e-08 1.72793e-07 4.11911e-20
-2.58541e-08 1.45833e-07 -7.88918e-21
4.2607e-09 -1.05869e-07 1.15127e-19
5.46225e-08 -1.76545e-07 -3.09663e-20
-8.92728e-08 -5.72906e-08 7.78912e-21
1.23692e-07 -3.52738e-08 4.92953e-20
3.01683e-10 1.7258e-07 -1.25807e-20
-3.7349e-09 1.10264e-07 -3.6992e-20
-2.77147e-08 1.24035e-07 -2.07467e-20
2.03013e-07 -4.99613e-08 6.69116e-20
-4.26277e-08 4.0706e-08 -1.35649e-20
4.60142e-08 1.72719e-07 -7.88204e-21
-2.78001e-08 1.75461e-08 3.46057e-20
1.02538e-07 4.75469e-07 2.4663e-20
-5.02829e-08 2.71473e-08 -6.34421e-20
5.33502e-08 -2.77718e-08 2.53022e-21
1.53487e-08 1.46763e-07 -1.07231e-22
-1.72124e-07 4.08835e-08 3.6283e-20
-5.29504e-09 -7.46065e-08 -1.55923e-20
7.10664e-09 -6.78347e-07 -5.00436e-21
2.06033e-08 1.24418e-07 -3.89652e-20
-1.28585e-07 1.2233e-07 1.31908e-20
1.99707e-07 7.42764e-07 4.16018e-20
9.5837e-09 6.3129e-09 1.39333e-19
8.28012e-09 -6.02066e-09 7.64846e-20
9.68025e-08 -7.5491e-08 -1.3258e-20
-1.37415e-07 1.23036e-07 -2.09067e-20
-1.64937e-07 -4.87192e-08 -2.83832e-20
-1.69495e-07 -5.56671e-08 1.30119e-20
-3.38787e-09 2.08684e-09 2.77984e-20
-2.34302e-09 -1.13526e-09 7.74852e-20
7.91677e-08 1.60842e-08 8.89796e-20
2.51282e-08 1.15542e-07 -6.01406e-20
-2.90443e-09 1.14885e-07 -8.34359e-20
-5.68166e-07 -4.12723e-07 -6.9697e-21
1.00839e-07 -1.58606e-07 -6.93456e-20
5.10023e-08 1.83642e-08 2.14354e-20
-1.87074e-07 -2.01231e-08 5.42724e-20
-1.18286e-07 1.56272e-07 -1.58632e-20
-1.52705e-07 7.18024e-08 4.3917e-20
5.57813e-07 4.00791e-07 -7.95694e-20
5.51833e-08 3.62785e-08 7.73611e-21
-5.42888e-08 1.77183e-07 1.01845e-20
-1.07011e-07 -9.16614e-08 8.07773e-21
2.66222e-08 -1.39574e-07 3.42022e-20
-8.65981e-08 -1.64758e-07 -9.04486e-20
-1.38764e-07 -9.51133e-08 4.40158e-20
9.51061e-08 -1.68669e-07 -5.41988e-20
1.14083e-07 -1.56784e-07 -4.92516e-20
-3.61637e-08 -7.07852e-07 -5.38963e-20
2.91025e-07 -4.65505e-07 1.00238e-20
1.39012e-08 -1.69442e-07 -1.27348e-20
1.19485e-07 9.09623e-08 -5.736e-20
-1.07332e-07 -1.3029e-07 8.25871e-20
-9.30921e-08 1.73551e-07 -3.10519e-20
-5.71946e-08 1.70098e-07 -1.05037e-20
1.24588e-07 1.29016e-07 3.07005e-20
6.10825e-08 -1.59099e-07 2.62022e-21
-1.57949e-07 -4.50355e-07 -3.95556e-20
3.55895e-09 5.4705e-08 -1.07665e-20
1.26137e-07 1.29796e-07 2.30003e-20
-6.79917e-08 -3.34769e-08 3.65662e-20
-5.64946e-08 3.08366e-08 -1.04736e-20
5.05702e-07 -2.2154e-07 -1.00936e-19
6.27991e-08 -1.03788e-07 6.23198e-20
-5.96047e-08 -1.01971e-07 8.32849e-20
2.26109e-08 -1.95745e-09 2.91341e-20
1.94167e-09 -8.5658e-09 -3.03928e-20
-6.34124e-09 -6.2606e-09 4.3429e-20
2.78441e-08 1.82604e-08 -2.56526e-21
-8.73277e-08 -1.64849e-07 -4.86214e-20
1.34371e-07 5.38869e-08 2.84488e-20
-3.27035e-07 -3.59533e-07 -6.89511e-20
1.22538e-09 1.05316e-08 1.07996e-20
1.22318e-09 1.90006e-09 1.05128e-20
2.3721e-09 -3.04124e-10 1.6333e-20
3.1383e-07 -6.19751e-07 -5.03876e-21
-1.30396e-08 1.53548e-08 -2.16847e-20
-2.98762e-09 1.86012e-08 -3.0102e-20
-1.35109e-07 4.80263e-08 5.18393e-20
-4.6714e-09 5.48695e-08 4.49982e-20
-2.96863e-08 8.80108e-08 -1.59369e-20
6.11872e-08 2.60601e-09 8.02925e-21
1.38051e-08 5.29018e-08 -1.57221e-20
-3.61689e-09 7.31529e-08 -3.15772e-20
1.04869e-07 5.70527e-08 1.8032e-20
7.47696e-09 6.75181e-07 4.65659e-21
-9.75698e-08 9.23263e-08 -8.64495e-20
7.31532e-08 -4.91908e-08 1.8277e-20
4.2227e-08 -3.85663e-08 -5.36789e-21
-6.92496e-07 -9.50812e-08 3.12449e-21
-1.97254e-08 7.82306e-09 5.92335e-20
-5.04232e-07 -5.9646e-07 -4.91787e-20
9.15311e-09 2.45271e-08 -4.25634e-20
8.84251e-08 1.71893e-08 5.51549e-20
2.6329e-07 -3.41692e-08 1.25706e-20
-6.01831e-08 -9.88939e-08 2.60988e-20
1.15067e-07 3.29994e-08 2.06546e-20
5.938e-10 -2.92774e-08 -3.49215e-20
-6.48923e-08 7.5085e-08 -7.09749e-20
-2.48144e-08 -1.57803e-08 1.09242e-19
-5.84977e-08 1.18837e-07 3.62288e-20
1.05852e-08 7.4998e-08 -5.77588e-20
1.71916e-08 1.25987e-08 1.09113e-20
1.70607e-08 -1.21027e-08 -4.60404e-20
-4.69441e-07 -1.27884e-07 -1.71948e-20
5.17052e-08 1.92888e-08 1.59938e-20
-6.22604e-08 1.20515e-06 -5.78097e-20
-4.32655e-09 -1.23817e-06 -5.52606e-20
6.09445e-07 1.04331e-06 -6.26515e-20
-6.32314e-08 5.0167e-08 -9.75776e-20
-3.22948e-07 6.49913e-07 -3.85156e-20
6.12948e-07 -1.00699e-06 -2.66317e-20
-1.01343e-07 -1.64025e-07 5.68465e-20
9.30794e-07 8.15578e-07 -4.83246e-20
1.09346e-08 -1.93957e-08 1.59899e-20
-1.1395e-08 -1.96531e-08 8.5495e-20
9.75694e-07 -7.97418e-07 4.06534e-20
-5.97803e-08 1.17561e-07 5.17431e-20
-6.12883e-07 -3.90327e-07 -5.07626e-20
-5.16834e-07 -1.07721e-06 -9.09669e-20
-2.89472e-07 -6.65935e-07 -8.07955e-20
-5.31317e-07 1.09514e-06 -5.51314e-20
-1.2556e-07 7.42137e-07 4.15174e-20
-8.85301e-10 2.59738e-08 -3.79074e-22
-3.22381e-07 4.15055e-07 5.68489e-20
-3.08655e-07 -6.31709e-07 2.4209e-21
1.2002e-06 2.09445e-07 -7.68445e-20
-9.38291e-08 7.97732e-08 -5.71757e-20
-2.20099e-09 5.26969e-08 -1.13374e-19
-5.80551e-07 4.2028e-07 3.15788e-20
-1.04059e-07 5.55375e-08 -3.12949e-20
1.18838e-06 -1.86295e-07 2.15802e-20
-7.94185e-08 5.33149e-08 -4.7162e-20
5.78568e-08 -1.19656e-07 -4.65784e-20
-9.24795e-07 -7.02398e-07 -9.56561e-20
-3.11834e-07 6.6815e-07 -2.89933e-20
-9.47206e-07 6.97241e-07 -7.18087e-20
2.76762e-07 6.1744e-07 -2.42095e-20
-1.01871e-07 8.09813e-08 -1.80946e-20
-2.82613e-08 1.60043e-08 -2.71172e-20
-1.54567e-09 -2.47939e-09 7.43994e-20
4.0827e-10 -2.12936e-09 3.01273e-20
7.74672e-09 8.13162e-08 -1.07331e-19
-2.26892e-09 2.4829e-09 7.65204e-20
1.21683e-09 3.05759e-09 4.10128e-20
2.06379e-09 -8.94765e-10 7.94988e-21
-1.21101e-09 9.62934e-09 -2.21859e-20
-2.12955e-07 4.64619e-07 7.27561e-21
-1.6013e-08 1.14875e-08 -6.49847e-20
2.75917e-08 -1.73897e-08 -2.78362e-22
2.7047e-08 -1.56701e-08 -7.22158e-23
7.79398e-08 3.04128e-08 -2.78418e-21
-7.30513e-10 -8.24134e-09 -1.68183e-20
-7.35678e-09 -3.73301e-09 8.08081e-21
2.70305e-08 1.57688e-08 2.69349e-20
6.88229e-07 -1.32647e-07 -3.63842e-20
-8.91552e-08 -1.13641e-07 -1.01788e-20
-6.0255e-07 4.20091e-07 1.20904e-20
-5.39474e-07 6.15299e-07 -4.81263e-21
7.27188e-07 -2.62616e-07 -5.92567e-20
-3.47897e-09 -1.01222e-08 -3.24935e-21
-3.82181e-09 1.0398e-08 -1.12108e-20
-1.14224e-08 1.97049e-09 4.64725e-20
-7.4986e-09 7.63384e-09 -4.66212e-20
-1.03536e-08 -2.20372e-09 3.22716e-20
1.90533e-09 2.44267e-09 2.17877e-21
1.11122e-08 -2.74232e-09 -2.19607e-20
4.67815e-09 -3.29777e-09 5.48426e-20
-3.29487e-09 -2.35967e-09 -2.49008e-21
7.1135e-09 -7.30326e-09 2.46672e-20
7.15304e-09 7.52086e-09 7.63889e-20
-3.315e-09 2.07227e-09 1.65526e-19
3.60507e-09 -7.3632e-10 9.64255e-20
5.98727e-09 3.32151e-09 9.34285e-20
1.29831e-08 4.64272e-09 1.00744e-19
SCALARS rr_necrosis float
LOOKUP_TABLE default
0
0
0
0
0
0
0
0
0
0
0
0
0
0
0
0
0
0
0
0
0
0
0
0
0
0
0
0
0
0
0
0
0
0
0
0
0
0
0
0
0
0
0
0
0
0
0
0
0
0
0
0
0
0
0
0
0
0
0
0
0
0
0
0
0
0
0
0
0
0
0
0
0
0
0
0
0
0
0
0
0
0
0
0
0
0
0
0
0
0
0
0
0
0
0
0
0
0
0
0
0
0
0
0
0
0
0
0
0
0
0
0
0
0
0
0
0
0
0
0
0
0
0
0
0
0
0
0
0
0
0
0
0
0
0
0
0
0
0
0
0
0
0
0
0
0
0
0
0
0
0
0
0
0
0
0
0
0
0
0
0
0
0
0
0
0
0
0
0
0
0
0
0
0
0
0
0
0
0
0
0
0
0
0
0
0
0
0
0
0
0
0
0
0
0
0
0
0
0
0
0
0
0
0
0
0
0
0
0
0
0
0
0
0
0
0
0
0
0
0
0
0
0
0
0
0
0
0
0
0
0
0
0
0
0
0
0
0
0
0
0
0
0
0
0
0
0
0
0
0
0
0
0
0
0
0
0
0
0
0
0
0
0
0
0
0
0
0
0
0
0
0
0
0
0
0
0
0
0
0
0
0
0
0
0
0
0
0
0
0
0
0
0
0
0
0
0
0
0
0
0
0
0
0
0
0
0
0
0
0
0
0
0
0
0
0
0
0
0
0
0
0
0
0
0
0
0
0
0
0
0
0
0
0
0
0
0
0
0
0
0
0
0
0
0
0
0
0
0
0
0
0
0
0
0
0
0
0
0
0
0
0
0
0
0
0
0
0
0
0
0
0
0
0
0
0
0
0
0
0
0
0
0
0
0
0
0
0
0
0
0
0
0
0
0
0
0
0
0
0
0
0
0
0
0
0
0
0
0
0
0
0
0
0
0
0
0
0
0
0
0
0
0
0
0
0
0
0
0
0
0
0
0
0
0
0
0
0
0
0
0
0
0
0
0
0
0
0
0
0
0
0
0
0
0
0
0
0
0
0
0
0
0
0
0
0
0
0
0
0
0
0
0
0
0
0
0
0
0
0
0
0
0
0
0
0
0
0
0
0
0
0
0
0
0
0
0
0
0
0
0
0
0
0
0
0
0
0
0
0
0
0
0
0
0
0
0
0
0
0
0
0
0
0
0
0
0
0
0
0
0
0
0
0
0
0
0
0
0
0
0
0
0
0
0
0
0
0
0
0
0
0
0
0
0
0
0
0
0
0
0
0
0
SCALARS rr_protein float
LOOKUP_TABLE default
1
1
1
1
1
1
1
1
1
1
1
1
1
1
1
1
1
1
1
1
1
1
1
1
1
1
1
1
1
1
1
1
1
1
1
1
1
1
1
1
1
1
1
1
1
1
1
1
1
1
1
1
1
1
1
1
1
1
1
1
1
1
1
1
1
1
1
1
1
1
1
1
1
1
1
1
1
1
1
1
1
1
1
1
1
1
1
1
1
1
1
1
1
1
1
1
1
1
1
1
1
1
1
1
1
1
1
1
1
1
1
1
1
1
1
1
1
1
1
1
1
1
1
1
1
1
1
1
1
1
1
1
1
1
1
1
1
1
1
1
1
1
1
1
1
1
1
1
1
1
1
1
1
1
1
1
1
1
1
1
1
1
1
1
1
1
1
1
1
1
1
1
1
1
1
1
1
1
1
1
1
1
1
1
1
1
1
1
1
1
1
1
1
1
1
1
1
1
1
1
1
1
1
1
1
1
1
1
1
1
1
1
1
1
1
1
1
1
1
1
1
1
1
1
1
1
1
1
1
1
1
1
1
1
1
1
1
1
1
1
1
1
1
1
1
1
1
1
1
1
1
1
1
1
1
1
1
1
1
1
1
1
1
1
1
1
1
1
1
1
1
1
1
1
1
1
1
1
1
1
1
1
1
1
1
1
1
1
1
1
1
1
1
1
1
1
1
1
1
1
1
1
1
1
1
1
1
1
1
1
1
1
1
1
1
1
1
1
1
1
1
1
1
1
1
1
1
1
1
1
1
1
1
1
1
1
1
1
1
1
1
1
1
1
1
1
1
1
1
1
1
1
1
1
1
1
1
1
1
1
1
1
1
1
1
1
1
1
1
1
1
1
1
1
1
1
1
1
1
1
1
1
1
1
1
1
1
1
1
1
1
1
1
1
1
1
1
1
1
1
1
1
1
1
1
1
1
1
1
1
1
1
1
1
1
1
1
1
1
1
1
1
1
1
1
1
1
1
1
1
1
1
1
1
1
1
1
1
1
1
1
1
1
1
1
1
1
1
1
1
1
1
1
1
1
1
1
1
1
1
1
1
1
1
1
1
1
1
1
1
1
1
1
1
1
1
1
1
1
1
1
1
1
1
1
1
1
1
1
1
1
1
1
1
1
1
1
1
1
1
1
1
1
1
1
1
1
1
1
1
1
1
1
1
1
1
1
1
1
1
1
1
1
1
1
1
1
1
1
1
1
1
1
1
1
1
1
1
1
1
1
1
1
1
1
1
1
1
1
1
1
1
1
1
1
1
1
1
1
1
1
1
1
SCALARS rr_(S_ext) float
LOOKUP_TABLE default
0.947227
0.947293
0.947291
0.94729
0.947327
0.94729
0.947226
0.947296
0.947286
0.947296
0.947205
0.947296
0.947295
0.947298
0.947311
0.947293
0.947299
0.947292
0.947279
0.947287
0.94729
0.947359
0.947286
0.947288
0.947287
0.947293
0.947231
0.947291
0.947257
0.947336
0.947295
0.947256
0.947232
0.94733
0.947336
0.94733
0.947335
0.947336
0.947295
0.947232
0.947255
0.947335
0.947335
0.947295
0.947231
0.947259
0.947282
0.947288
0.947291
0.947249
0.947253
0.947267
0.947321
0.947269
0.947321
0.947245
0.947337
0.947268
0.947337
0.947287
0.947297
0.94731
0.947243
0.947311
0.94731
0.947304
0.947297
0.947294
0.947287
0.947293
0.947321
0.947321
0.947257
0.947307
0.947292
0.947225
0.947318
0.947304
0.947293
0.947266
0.947253
0.94733
0.947303
0.947248
0.947263
0.947238
0.947291
0.947307
0.947232
0.947355
0.947268
0.947355
0.947316
0.947303
0.94727
0.947251
0.947255
0.947295
0.947318
0.947294
0.947278
0.947266
0.947247
0.947291
0.947294
0.947294
0.947305
0.947294
0.947247
0.947291
0.947287
0.947236
0.947242
0.947291
0.947294
0.94727
0.947339
0.947256
0.947339
0.94727
0.947277
0.947309
0.947291
0.947303
0.947292
0.947312
0.947334
0.947295
0.947255
0.947269
0.947319
0.947291
0.947302
0.947291
0.947267
0.947336
0.947251
0.947296
0.947303
0.947336
0.947267
0.947301
0.947281
0.947295
0.947256
0.947293
0.947298
0.947293
0.947291
0.947274
0.947286
0.947291
0.947255
0.947295
0.947295
0.947291
0.9473
0.947269
0.947269
0.947292
0.947287
0.947256
0.947237
0.947252
0.947267
0.947294
0.947269
0.947269
0.947256
0.947268
0.947316
0.947268
0.947253
0.947301
0.947269
0.947305
0.947316
0.947297
0.947324
0.947297
0.947258
0.947295
0.947295
0.947267
0.947306
0.947252
0.947303
0.947308
0.947319
0.947295
0.947306
0.947256
0.947268
0.947256
0.947291
0.947291
0.947291
0.947302
0.947291
0.947304
0.947292
0.947281
0.947267
0.947302
0.947258
0.947303
0.947305
0.947264
0.947312
0.947292
0.947315
0.947301
0.947294
0.947303
0.947273
0.947302
0.947269
0.947308
0.947292
0.947291
0.947289
0.94729
0.947291
0.947291
0.947297
0.94731
0.947309
0.947309
0.94731
0.947322
0.947321
0.947273
0.947296
0.947285
0.947288
0.947312
0.947312
0.947286
0.947267
0.947284
0.947295
0.947275
0.947311
0.947274
0.947304
0.947283
0.947274
0.947269
0.947253
0.947247
0.947303
0.947254
0.947293
0.947269
0.94728
0.947284
0.947291
0.947338
0.947291
0.947257
0.947268
0.947284
0.947296
0.947267
0.947291
0.947282
0.947338
0.947269
0.947292
0.947303
0.947291
0.947311
0.947307
0.947323
0.947294
0.947242
0.947238
0.947321
0.947289
0.947296
0.947276
0.947311
0.947302
0.947268
0.947303
0.947278
0.947299
0.947279
0.947267
0.947347
0.947317
0.94731
0.947309
0.947297
0.94728
0.947329
0.947303
0.947287
0.94728
0.947278
0.94732
0.947274
0.947318
0.947279
0.947232
0.947279
0.947255
0.947307
0.947274
0.947346
0.947279
0.947305
0.947273
0.947304
0.947278
0.947293
0.947246
0.947288
0.947274
0.947317
0.947273
0.947287
0.947307
0.947292
0.947278
0.94728
0.947281
0.947309
0.947279
0.947297
0.947292
0.947324
0.94728
0.947281
0.947289
0.947283
0.947279
0.947283
0.947312
0.947296
0.947282
0.947273
0.9473
0.9473
0.947278
0.947324
0.947202
0.947294
0.947253
0.94729
0.947124
0.947125
0.947124
0.947123
0.947122
0.947128
0.94713
0.947308
0.947328
0.947292
0.947286
0.947279
0.947283
0.947299
0.947281
0.947281
0.947329
0.947282
0.947314
0.947267
0.947307
0.94729
0.947286
0.947282
0.947322
0.947294
0.947287
0.947294
0.947287
0.947279
0.947266
0.947286
0.947293
0.947314
0.947281
0.947278
0.947281
0.947285
0.947292
0.947299
0.94728
0.947299
0.947289
0.947285
0.947297
0.947289
0.947281
0.947303
0.947289
0.947327
0.947232
0.947308
0.947312
0.947292
0.94729
0.947302
0.947205
0.94729
0.947289
0.947246
0.947349
0.94735
0.947292
0.94728
0.94729
0.947282
0.947369
0.947367
0.947294
0.947297
0.947297
0.94721
0.947278
0.947305
0.947288
0.947287
0.947286
0.9472
0.947304
0.947279
0.947293
0.947293
0.947286
0.947287
0.947286
0.947288
0.947232
0.947255
0.947286
0.947294
0.947289
0.947286
0.947288
0.947289
0.947288
0.947234
0.947314
0.94728
0.947302
0.947304
0.947234
0.94729
0.947289
0.947324
0.947342
0.947341
0.947316
0.947278
0.947293
0.947232
0.947339
0.947361
0.947361
0.947199
0.947335
0.947335
0.947292
0.947317
0.947292
0.947295
0.947302
0.947308
0.947298
0.947204
0.947294
0.947303
0.947305
0.947224
0.947333
0.947248
0.947302
0.947299
0.947276
0.947294
0.947297
0.94732
0.947297
0.94732
0.947292
0.947307
0.947335
0.947337
0.947235
0.947297
0.947224
0.94723
0.947219
0.947305
0.947208
0.947215
0.947286
0.947221
0.94733
0.94733
0.947225
0.947285
0.947236
0.947227
0.947231
0.947227
0.947231
0.947336
0.94723
0.947207
0.947222
0.947297
0.947309
0.94723
0.947297
0.947213
0.947298
0.947287
0.947225
0.947227
0.947222
0.947199
0.94729
0.94733
0.947357
0.947355
0.947299
0.947356
0.947356
0.947356
0.947347
0.947231
0.947334
0.947319
0.947331
0.947298
0.947351
0.947351
0.947335
0.947196
0.947286
0.947207
0.947248
0.947242
0.947337
0.947337
0.947337
0.947338
0.947337
0.947357
0.947341
0.947352
0.947361
0.947341
0.947341
0.947362
0.947357
0.947352
0.947338
SCALARS rr_(P_ext) float
LOOKUP_TABLE default
0.0193026
0.0192099
0.0192181
0.0192115
0.0191865
0.0192182
0.0193029
0.0192127
0.0192258
0.0192103
0.0192965
0.0192127
0.0192146
0.0192091
0.0191951
0.0192167
0.0192057
0.0192137
0.01923
0.0192204
0.0192216
0.0191546
0.0192215
0.0192202
0.0192205
0.0192122
0.0192836
0.019217
0.0192553
0.0191734
0.0192149
0.0192551
0.019285
0.019179
0.0191762
0.019179
0.0191724
0.0191774
0.019215
0.0192847
0.0192555
0.019172
0.0191721
0.0192149
0.019276
0.019254
0.019228
0.0192243
0.0192179
0.019261
0.0192577
0.0192458
0.0191878
0.0192456
0.0191886
0.0192733
0.019176
0.0192456
0.0191761
0.0192199
0.019206
0.0191984
0.0192777
0.0191989
0.0191983
0.0192058
0.0192057
0.0192121
0.019221
0.0192096
0.019188
0.0191881
0.0192555
0.0192029
0.0192178
0.0192889
0.0191934
0.0192059
0.0192122
0.0192437
0.0192629
0.0191836
0.0192022
0.0192655
0.0192526
0.019275
0.019217
0.0192043
0.0192759
0.0191592
0.0192457
0.0191593
0.0191929
0.0192068
0.0192449
0.0192585
0.0192628
0.0192104
0.0191935
0.0192154
0.0192353
0.0192504
0.0192657
0.0192128
0.0192112
0.019211
0.019201
0.0192162
0.0192658
0.0192085
0.0192198
0.0192731
0.0192689
0.0192134
0.0192115
0.0192453
0.0191761
0.0192632
0.0191764
0.019245
0.019232
0.0191961
0.0192099
0.0192041
0.0192078
0.0191943
0.0191793
0.0192104
0.0192628
0.0192449
0.0191879
0.0192105
0.0192026
0.0192102
0.0192503
0.0191759
0.0192679
0.019214
0.0192021
0.019176
0.0192492
0.01921
0.0192306
0.0192102
0.0192636
0.0192118
0.0192114
0.0192179
0.0192182
0.019238
0.0192245
0.0192099
0.0192553
0.0192145
0.0192103
0.0192104
0.0192077
0.0192483
0.019248
0.0192146
0.0192242
0.0192546
0.0192738
0.0192577
0.0192484
0.0192109
0.0192484
0.0192485
0.0192552
0.0192482
0.0191926
0.0192456
0.0192578
0.0192069
0.0192454
0.0192014
0.0191927
0.0192127
0.0191875
0.0192109
0.0192552
0.0192106
0.0192106
0.0192491
0.0192042
0.0192584
0.0192041
0.0192009
0.0191923
0.0192104
0.019204
0.0192618
0.0192454
0.0192551
0.0192103
0.0192141
0.0192136
0.0192027
0.01921
0.0192061
0.0192099
0.0192288
0.0192431
0.0192028
0.019255
0.0192022
0.0192059
0.0192509
0.0191972
0.0192097
0.0191964
0.0192086
0.0192115
0.0192021
0.0192377
0.0192078
0.0192421
0.019201
0.019208
0.0192081
0.0192091
0.0192087
0.0192086
0.0192087
0.0192096
0.0191957
0.019196
0.0191957
0.0191956
0.0191884
0.0191883
0.0192384
0.0192093
0.0192123
0.0192248
0.0191951
0.0191947
0.019212
0.0192428
0.0192126
0.0192104
0.0192374
0.0191971
0.0192378
0.0192018
0.019213
0.0192372
0.0192417
0.0192631
0.0192624
0.0192021
0.0192649
0.0192156
0.0192422
0.0192294
0.0192127
0.0192082
0.0191715
0.0192085
0.0192656
0.0192421
0.0192123
0.0192127
0.0192433
0.0192083
0.0192302
0.0191716
0.019242
0.0192078
0.0192046
0.0192136
0.0191953
0.0192046
0.0191879
0.0192147
0.0192717
0.0192751
0.0191904
0.0192214
0.0192127
0.0192377
0.0191969
0.0192069
0.0192421
0.0192067
0.019235
0.019211
0.0192349
0.0192426
0.0191645
0.0191918
0.0191948
0.019195
0.0192096
0.0192343
0.01918
0.019205
0.0192239
0.0192339
0.0192368
0.0191905
0.0192374
0.0191928
0.0192359
0.0192758
0.0192344
0.019264
0.0192007
0.0192374
0.0191646
0.0192358
0.0192028
0.0192384
0.0192037
0.0192361
0.019217
0.0192793
0.0192189
0.0192376
0.0191908
0.0192381
0.0192238
0.0192037
0.0192096
0.0192359
0.0192343
0.0192304
0.0192009
0.0192345
0.0192127
0.019217
0.0191881
0.0192343
0.0192309
0.0192225
0.0192299
0.0192353
0.0192297
0.0191981
0.0192129
0.0192305
0.0192378
0.0192103
0.0192102
0.0192348
0.0191882
0.0192998
0.0192173
0.019263
0.0192221
0.0193489
0.0193488
0.0193482
0.0193484
0.0193481
0.0193491
0.0193487
0.0192004
0.0191824
0.0192144
0.0192242
0.0192295
0.0192299
0.019211
0.0192305
0.019231
0.0191822
0.0192299
0.0191966
0.0192457
0.0191971
0.0192184
0.0192244
0.0192303
0.0191902
0.0192173
0.0192238
0.0192172
0.0192237
0.0192307
0.0192441
0.0192244
0.0192182
0.0191963
0.0192286
0.0192315
0.019229
0.019225
0.0192184
0.0192109
0.019229
0.019211
0.0192192
0.0192247
0.0192125
0.019219
0.0192302
0.0192038
0.0192229
0.0191833
0.0192757
0.0192005
0.0191981
0.0192183
0.0192227
0.019206
0.0192987
0.0192183
0.0192231
0.0192787
0.0191651
0.0191648
0.0192174
0.0192296
0.019222
0.0192286
0.019151
0.019151
0.0192124
0.0192124
0.0192128
0.0192989
0.019231
0.0192025
0.0192247
0.0192255
0.0192248
0.0193004
0.0192042
0.01923
0.0192176
0.0192176
0.0192257
0.0192239
0.0192257
0.0192249
0.0192841
0.0192638
0.0192239
0.0192175
0.0192228
0.019226
0.0192234
0.0192223
0.0192228
0.0192757
0.019195
0.0192291
0.0192062
0.0192038
0.0192763
0.019218
0.0192188
0.019188
0.0191656
0.0191657
0.0191918
0.0192312
0.0192179
0.0192772
0.0191675
0.0191531
0.0191531
0.0193014
0.0191774
0.0191734
0.0192188
0.0191933
0.0192145
0.0192097
0.0192035
0.0192012
0.0192127
0.0192989
0.0192165
0.019207
0.0192026
0.0192895
0.0191763
0.0192804
0.019203
0.0192094
0.0192364
0.019215
0.0192131
0.0191872
0.0192118
0.0191873
0.0192175
0.0192025
0.0191749
0.0191743
0.019277
0.0192085
0.0193044
0.0193027
0.0193064
0.0192043
0.0193
0.0193083
0.0192259
0.0193054
0.0191833
0.0191834
0.019304
0.0192223
0.0192838
0.0193049
0.0192856
0.0193053
0.0192856
0.0191769
0.0192803
0.0192996
0.0193042
0.0192135
0.0191992
0.019287
0.0192133
0.0193077
0.0192103
0.0192217
0.0193059
0.0192884
0.0193073
0.0193014
0.0192192
0.0191818
0.0191547
0.0191559
0.0192087
0.0191549
0.019155
0.0191555
0.0191626
0.0192786
0.0191755
0.0191912
0.0191817
0.0192098
0.0191607
0.0191608
0.0191801
0.0193024
0.0192226
0.0193012
0.0192818
0.0192811
0.0191685
0.0191688
0.0191694
0.0191692
0.0191686
0.0191563
0.0191693
0.0191607
0.0191545
0.0191684
0.0191683
0.0191541
0.019156
0.0191603
0.0191699
SCALARS rr_(S) float
LOOKUP_TABLE default
0.909694
0.909684
0.909688
0.909682
0.909698
0.909687
0.909693
0.909689
0.909689
0.909687
0.909669
0.909689
0.909689
0.909688
0.90969
0.909688
0.909686
0.909686
0.909686
0.909686
0.90969
0.909706
0.909686
0.909687
0.909686
0.909685
0.909683
0.909688
0.909685
0.909698
0.909689
0.909684
0.909685
0.909696
0.9097
0.909696
0.909697
0.9097
0.90969
0.909685
0.909684
0.909696
0.909696
0.909689
0.909678
0.909686
0.909687
0.909689
0.909688
0.909682
0.909684
0.909687
0.909694
0.909689
0.909694
0.909688
0.9097
0.909688
0.9097
0.909686
0.909685
0.909691
0.90969
0.909693
0.909691
0.909691
0.909685
0.909686
0.909686
0.909683
0.909694
0.909694
0.909685
0.909692
0.909688
0.909681
0.909695
0.909691
0.909685
0.909684
0.909687
0.909699
0.909688
0.909684
0.909688
0.909683
0.909687
0.909692
0.909678
0.909706
0.909687
0.909706
0.909693
0.909691
0.909689
0.909682
0.909689
0.909686
0.909695
0.909689
0.909689
0.90969
0.909684
0.909684
0.909686
0.909686
0.909689
0.90969
0.909684
0.909681
0.909686
0.90968
0.909682
0.909685
0.909686
0.909689
0.909702
0.90969
0.909703
0.909689
0.909686
0.909689
0.909683
0.909689
0.909682
0.90969
0.9097
0.909686
0.909689
0.909688
0.909693
0.909683
0.909687
0.909682
0.90969
0.9097
0.90969
0.90969
0.909687
0.909699
0.909689
0.909691
0.909688
0.909686
0.90969
0.909685
0.90969
0.90969
0.909688
0.909687
0.909688
0.909683
0.909683
0.909689
0.909686
0.909682
0.909689
0.909691
0.90969
0.909686
0.909689
0.909683
0.909681
0.909682
0.909689
0.909686
0.90969
0.909691
0.909684
0.909689
0.909693
0.909688
0.909683
0.909689
0.909688
0.909689
0.909693
0.90969
0.909696
0.909688
0.909685
0.909686
0.909686
0.909689
0.909692
0.909683
0.909689
0.909691
0.909695
0.909686
0.909692
0.909689
0.909687
0.909684
0.909683
0.909685
0.909685
0.909687
0.909682
0.909691
0.909683
0.909687
0.909685
0.909687
0.909686
0.909687
0.909692
0.909688
0.909693
0.909683
0.909694
0.90969
0.909686
0.909688
0.909686
0.909691
0.909686
0.909691
0.909682
0.909681
0.90968
0.909681
0.909681
0.909681
0.909688
0.909689
0.909689
0.909689
0.909689
0.909696
0.909695
0.909686
0.909687
0.909679
0.90969
0.909691
0.909691
0.909679
0.909684
0.909678
0.909686
0.909687
0.909692
0.909687
0.909689
0.909677
0.909687
0.909685
0.909687
0.909681
0.909688
0.90969
0.909688
0.909686
0.909686
0.909678
0.909681
0.909699
0.909681
0.909693
0.909685
0.909678
0.909689
0.909685
0.909681
0.909689
0.909698
0.909685
0.909682
0.909689
0.909685
0.90969
0.909693
0.909696
0.909688
0.909683
0.909683
0.909696
0.909688
0.909689
0.909689
0.909692
0.90969
0.909685
0.909691
0.909689
0.90969
0.90969
0.909684
0.909702
0.909693
0.909689
0.909689
0.909687
0.90969
0.909696
0.909689
0.909689
0.90969
0.90969
0.909695
0.909687
0.909695
0.909691
0.909678
0.909689
0.90969
0.90969
0.909687
0.909701
0.90969
0.90969
0.909687
0.90969
0.90969
0.909689
0.909694
0.909686
0.909687
0.909693
0.909686
0.909688
0.909692
0.909683
0.909689
0.90969
0.909688
0.909692
0.909689
0.90969
0.909688
0.909697
0.90969
0.909688
0.90969
0.909689
0.909689
0.909689
0.909693
0.909689
0.909689
0.909687
0.90969
0.90969
0.909689
0.909697
0.909669
0.90969
0.909687
0.90969
0.909636
0.909637
0.909635
0.909635
0.909633
0.90964
0.909641
0.909691
0.909697
0.909686
0.909688
0.909686
0.909689
0.909691
0.909688
0.909688
0.909698
0.909689
0.909694
0.909687
0.909688
0.909687
0.909689
0.909689
0.909697
0.90969
0.909689
0.90969
0.909688
0.909686
0.909685
0.909688
0.90969
0.909693
0.909687
0.909686
0.909687
0.909688
0.909689
0.90969
0.909687
0.90969
0.909687
0.909688
0.909689
0.909687
0.909687
0.909689
0.909689
0.909696
0.909678
0.909691
0.909693
0.909689
0.90969
0.90969
0.909671
0.909687
0.90969
0.909693
0.909704
0.909705
0.909688
0.909687
0.90969
0.909687
0.909713
0.909711
0.909686
0.90969
0.909689
0.909675
0.909686
0.90969
0.90969
0.90969
0.909688
0.909668
0.90969
0.909686
0.90969
0.909689
0.909689
0.909689
0.909689
0.90969
0.909685
0.90969
0.909688
0.90969
0.909689
0.909689
0.909689
0.90969
0.909689
0.90968
0.909693
0.909686
0.90969
0.90969
0.90968
0.909687
0.909687
0.909697
0.909698
0.909698
0.909692
0.909686
0.909689
0.909679
0.909697
0.909707
0.909707
0.909668
0.909699
0.909697
0.909689
0.909694
0.909686
0.909686
0.909688
0.909692
0.90969
0.90967
0.909689
0.909691
0.90969
0.909681
0.909697
0.909696
0.909687
0.909689
0.909688
0.909688
0.90969
0.909693
0.909688
0.909693
0.909688
0.909691
0.909698
0.9097
0.909681
0.909686
0.909693
0.909697
0.90969
0.909691
0.909674
0.909687
0.90969
0.90969
0.909699
0.909699
0.909693
0.909686
0.909688
0.909696
0.909684
0.909696
0.909685
0.9097
0.909679
0.909674
0.909691
0.90969
0.909691
0.909684
0.90969
0.909686
0.909689
0.909687
0.909695
0.909683
0.909693
0.909667
0.909688
0.909698
0.909704
0.909704
0.909688
0.909704
0.909704
0.909704
0.909701
0.909679
0.909697
0.909694
0.909699
0.909689
0.909703
0.909703
0.909701
0.909666
0.909687
0.909675
0.909698
0.909691
0.909696
0.909696
0.909696
0.909697
0.909696
0.909706
0.9097
0.909704
0.909708
0.909699
0.909699
0.909709
0.909705
0.909703
0.909698
SCALARS rr_(P) float
LOOKUP_TABLE default
0.0220883
0.0220337
0.0220386
0.0220346
0.0220198
0.0220387
0.0220884
0.0220354
0.0220432
0.0220339
0.0220844
0.0220354
0.0220365
0.0220332
0.0220248
0.0220378
0.0220312
0.022036
0.0220456
0.02204
0.0220407
0.0220005
0.0220406
0.0220398
0.02204
0.022035
0.022077
0.0220379
0.0220605
0.0220117
0.0220367
0.0220603
0.0220778
0.0220151
0.0220136
0.0220152
0.0220111
0.0220143
0.0220368
0.0220777
0.0220606
0.0220109
0.0220109
0.0220367
0.0220725
0.0220597
0.0220445
0.0220423
0.0220385
0.0220638
0.0220618
0.0220549
0.0220205
0.0220548
0.0220209
0.022071
0.0220134
0.0220548
0.0220135
0.0220397
0.0220314
0.0220269
0.0220736
0.0220272
0.0220268
0.0220313
0.0220312
0.022035
0.0220403
0.0220335
0.0220206
0.0220206
0.0220606
0.0220296
0.0220384
0.0220801
0.0220239
0.0220313
0.022035
0.0220537
0.0220649
0.0220181
0.022029
0.0220664
0.0220589
0.022072
0.022038
0.0220304
0.0220725
0.0220031
0.0220549
0.0220032
0.0220235
0.0220319
0.0220544
0.0220623
0.0220649
0.022034
0.022024
0.022037
0.0220488
0.0220577
0.0220665
0.0220354
0.0220345
0.0220344
0.0220284
0.0220375
0.0220666
0.0220328
0.0220396
0.0220708
0.0220684
0.0220358
0.0220346
0.0220547
0.0220135
0.0220651
0.0220137
0.0220545
0.0220468
0.0220254
0.0220337
0.0220302
0.0220324
0.0220243
0.0220154
0.022034
0.0220649
0.0220544
0.0220205
0.022034
0.0220293
0.0220338
0.0220576
0.0220134
0.0220679
0.0220362
0.022029
0.0220134
0.022057
0.0220338
0.022046
0.0220339
0.0220654
0.0220348
0.0220346
0.0220385
0.0220387
0.0220504
0.0220424
0.0220337
0.0220604
0.0220365
0.0220339
0.022034
0.0220324
0.0220565
0.0220563
0.0220365
0.0220422
0.02206
0.0220712
0.0220618
0.0220565
0.0220343
0.0220565
0.0220566
0.0220604
0.0220564
0.0220234
0.0220548
0.0220619
0.0220319
0.0220547
0.0220286
0.0220234
0.0220354
0.0220203
0.0220343
0.0220604
0.0220341
0.0220341
0.0220569
0.0220303
0.0220623
0.0220303
0.0220284
0.0220232
0.022034
0.0220302
0.0220643
0.0220547
0.0220604
0.0220339
0.0220362
0.0220359
0.0220294
0.0220337
0.0220315
0.0220336
0.0220449
0.0220533
0.0220294
0.0220603
0.0220291
0.0220313
0.0220579
0.0220262
0.0220335
0.0220257
0.022033
0.0220347
0.022029
0.0220502
0.0220325
0.0220528
0.0220284
0.0220325
0.0220325
0.0220331
0.0220329
0.0220328
0.0220329
0.0220335
0.0220252
0.0220253
0.0220252
0.0220251
0.0220208
0.0220208
0.0220506
0.0220334
0.022035
0.0220426
0.0220248
0.0220246
0.0220348
0.0220531
0.0220352
0.022034
0.02205
0.022026
0.0220502
0.0220289
0.0220354
0.0220498
0.0220525
0.0220651
0.0220646
0.022029
0.0220662
0.0220371
0.0220528
0.0220453
0.0220353
0.0220326
0.0220106
0.0220327
0.0220666
0.0220527
0.022035
0.0220354
0.0220534
0.0220326
0.0220457
0.0220107
0.0220527
0.0220323
0.0220306
0.0220359
0.0220249
0.0220305
0.0220206
0.0220366
0.02207
0.022072
0.0220221
0.0220406
0.0220354
0.0220502
0.022026
0.022032
0.0220527
0.0220318
0.0220486
0.0220344
0.0220486
0.022053
0.0220064
0.0220229
0.0220246
0.0220247
0.0220336
0.0220482
0.0220157
0.0220308
0.022042
0.022048
0.0220497
0.0220221
0.02205
0.0220235
0.0220491
0.0220724
0.0220482
0.0220656
0.0220282
0.02205
0.0220064
0.0220491
0.0220295
0.0220506
0.02203
0.0220492
0.022038
0.0220746
0.0220391
0.0220501
0.0220223
0.0220504
0.022042
0.02203
0.0220335
0.0220492
0.0220482
0.0220459
0.0220283
0.0220483
0.0220354
0.0220379
0.0220207
0.0220482
0.0220462
0.0220412
0.0220456
0.0220488
0.0220455
0.0220266
0.0220355
0.0220459
0.0220502
0.022034
0.0220339
0.0220485
0.0220208
0.0220863
0.0220381
0.022065
0.022041
0.0221148
0.0221148
0.0221144
0.0221145
0.0221143
0.022115
0.0221148
0.022028
0.0220172
0.0220363
0.0220422
0.0220453
0.0220456
0.0220344
0.0220459
0.0220462
0.0220171
0.0220456
0.0220258
0.0220549
0.022026
0.0220388
0.0220423
0.0220458
0.022022
0.0220382
0.022042
0.0220381
0.0220419
0.022046
0.0220539
0.0220423
0.0220387
0.0220256
0.0220448
0.0220465
0.022045
0.0220427
0.0220388
0.0220343
0.0220451
0.0220344
0.0220392
0.0220425
0.0220353
0.0220391
0.0220457
0.0220301
0.0220415
0.0220177
0.0220723
0.0220281
0.0220267
0.0220387
0.0220413
0.0220314
0.0220857
0.0220387
0.0220416
0.0220743
0.0220068
0.0220066
0.0220382
0.0220454
0.0220409
0.0220448
0.0219983
0.0219983
0.0220352
0.0220352
0.0220355
0.0220859
0.0220462
0.0220293
0.0220426
0.0220431
0.0220426
0.0220867
0.0220303
0.0220456
0.0220384
0.0220383
0.0220431
0.022042
0.0220431
0.0220427
0.0220773
0.0220655
0.0220421
0.0220382
0.0220414
0.0220433
0.0220418
0.0220411
0.0220414
0.0220723
0.0220248
0.0220451
0.0220316
0.0220301
0.0220727
0.0220385
0.022039
0.0220206
0.022007
0.0220071
0.0220228
0.0220463
0.0220385
0.0220732
0.0220081
0.0219996
0.0219996
0.0220873
0.0220143
0.0220117
0.022039
0.0220238
0.0220364
0.0220336
0.0220299
0.0220286
0.0220354
0.0220858
0.0220377
0.022032
0.0220294
0.0220804
0.0220135
0.0220752
0.0220296
0.0220335
0.0220494
0.0220368
0.0220356
0.0220201
0.0220349
0.0220201
0.0220383
0.0220293
0.0220126
0.0220123
0.0220731
0.0220328
0.0220893
0.0220883
0.0220904
0.0220304
0.0220865
0.0220915
0.0220433
0.0220899
0.0220179
0.0220179
0.022089
0.0220411
0.0220772
0.0220896
0.0220782
0.0220898
0.0220782
0.022014
0.022075
0.0220863
0.0220891
0.0220359
0.0220274
0.022079
0.0220357
0.0220911
0.022034
0.0220408
0.0220902
0.0220798
0.022091
0.0220873
0.0220392
0.0220169
0.0220005
0.0220012
0.022033
0.0220006
0.0220007
0.0220009
0.0220052
0.022074
0.022013
0.0220225
0.0220168
0.0220337
0.0220041
0.0220041
0.0220159
0.0220878
0.0220413
0.0220872
0.0220761
0.0220756
0.0220088
0.0220089
0.0220093
0.0220092
0.0220088
0.0220015
0.0220092
0.0220041
0.0220004
0.0220087
0.0220086
0.0220002
0.0220013
0.0220039
0.0220096
SCALARS rr_(T) float
LOOKUP_TABLE default
0.0913728
0.0914014
0.0913988
0.0914006
0.0914126
0.0913987
0.0913726
0.0914008
0.0913962
0.0914015
0.0913732
0.0914008
0.0914001
0.0914022
0.0914083
0.0913991
0.0914035
0.0914002
0.0913947
0.0913979
0.0913977
0.0914283
0.0913976
0.091398
0.0913979
0.0914008
0.0913779
0.0913994
0.0913866
0.0914189
0.0913999
0.0913866
0.0913776
0.0914163
0.0914174
0.0914162
0.0914193
0.0914169
0.0914
0.0913777
0.0913865
0.0914195
0.0914194
0.0913999
0.0913799
0.091387
0.0913954
0.0913967
0.091399
0.0913847
0.0913858
0.0913897
0.0914119
0.0913898
0.0914115
0.0913812
0.0914176
0.0913898
0.0914175
0.0913981
0.0914033
0.0914067
0.0913801
0.0914066
0.0914068
0.0914039
0.0914034
0.0914009
0.0913977
0.0914016
0.0914118
0.0914118
0.0913865
0.0914051
0.0913988
0.0913761
0.0914093
0.0914038
0.0914009
0.0913902
0.0913844
0.0914138
0.0914051
0.0913834
0.0913876
0.0913804
0.0913993
0.0914046
0.09138
0.0914264
0.0913897
0.0914263
0.0914095
0.0914036
0.09139
0.0913855
0.0913845
0.0914013
0.0914092
0.0913998
0.0913931
0.0913883
0.0913834
0.0914003
0.0914013
0.091401
0.0914058
0.0913995
0.0913833
0.0914019
0.0913981
0.0913809
0.0913823
0.0914003
0.0914009
0.0913899
0.0914176
0.0913844
0.0914175
0.09139
0.0913941
0.0914077
0.0914014
0.0914042
0.0914023
0.0914088
0.0914161
0.0914013
0.0913845
0.09139
0.0914119
0.0914011
0.0914048
0.0914013
0.0913884
0.0914177
0.091383
0.0914005
0.0914051
0.0914176
0.0913887
0.0914021
0.0913947
0.0914017
0.0913843
0.0914008
0.0914017
0.0913992
0.0913987
0.0913922
0.0913967
0.0914014
0.0913865
0.0914001
0.0914016
0.0914012
0.0914027
0.091389
0.0913891
0.0913998
0.0913967
0.0913868
0.0913807
0.0913858
0.0913889
0.0914011
0.091389
0.0913889
0.0913866
0.091389
0.0914096
0.0913898
0.0913857
0.091403
0.0913898
0.0914057
0.0914096
0.0914011
0.091412
0.0914016
0.0913867
0.0914012
0.0914012
0.0913887
0.0914046
0.0913855
0.0914042
0.0914059
0.0914099
0.0914013
0.0914047
0.0913848
0.0913898
0.0913866
0.0914012
0.0914
0.0914002
0.0914047
0.0914013
0.0914037
0.0914015
0.0913951
0.0913904
0.0914047
0.0913867
0.091405
0.0914039
0.0913881
0.0914077
0.0914015
0.091408
0.0914027
0.0914011
0.0914051
0.0913923
0.091403
0.0913907
0.0914058
0.0914022
0.0914021
0.0914016
0.0914018
0.0914018
0.0914018
0.091402
0.0914079
0.0914078
0.0914079
0.091408
0.0914118
0.0914118
0.091392
0.091402
0.0914002
0.0913965
0.0914084
0.0914085
0.0914003
0.0913905
0.0914
0.0914013
0.0913924
0.0914077
0.0913922
0.0914053
0.0913998
0.0913924
0.0913909
0.0913843
0.0913843
0.091405
0.0913839
0.0913996
0.0913907
0.091395
0.0913999
0.091402
0.0914199
0.0914019
0.0913838
0.0913907
0.0914001
0.091401
0.0913903
0.091402
0.0913948
0.0914198
0.0913908
0.0914023
0.0914041
0.0914001
0.0914082
0.0914045
0.091412
0.0913999
0.0913815
0.0913804
0.0914109
0.0913976
0.091401
0.0913923
0.0914078
0.091403
0.0913907
0.0914035
0.0913932
0.0914019
0.0913932
0.0913906
0.0914234
0.09141
0.0914084
0.0914083
0.0914019
0.0913934
0.0914158
0.0914038
0.0913969
0.0913935
0.0913926
0.0914107
0.0913923
0.0914097
0.0913929
0.09138
0.0913934
0.0913842
0.091406
0.0913923
0.0914234
0.0913929
0.0914051
0.091392
0.0914045
0.0913928
0.0913991
0.0913798
0.0913984
0.0913923
0.0914105
0.0913921
0.091397
0.0914047
0.0914015
0.0913929
0.0913934
0.0913947
0.091406
0.0913933
0.0914009
0.0913993
0.0914119
0.0913934
0.0913946
0.0913974
0.0913949
0.0913931
0.091395
0.0914074
0.0914008
0.0913947
0.0913922
0.0914019
0.091402
0.0913932
0.0914118
0.0913723
0.0913994
0.0913844
0.0913976
0.0913553
0.0913554
0.0913555
0.0913554
0.0913554
0.0913554
0.0913556
0.0914062
0.0914147
0.0914001
0.0913969
0.0913949
0.0913949
0.0914018
0.0913947
0.0913945
0.0914148
0.0913949
0.0914079
0.0913897
0.0914072
0.0913988
0.0913968
0.0913947
0.091411
0.0913993
0.091397
0.0913994
0.091397
0.0913944
0.0913901
0.0913968
0.091399
0.0914079
0.0913953
0.0913941
0.091395
0.0913965
0.0913989
0.0914018
0.091395
0.0914018
0.0913985
0.0913966
0.0914011
0.0913985
0.0913947
0.0914044
0.0913972
0.0914142
0.09138
0.0914061
0.0914074
0.091399
0.0913973
0.0914036
0.0913727
0.0913988
0.0913972
0.09138
0.0914233
0.0914235
0.0913993
0.0913949
0.0913976
0.0913952
0.0914304
0.0914304
0.0914006
0.0914011
0.0914011
0.0913728
0.0913944
0.091405
0.0913965
0.0913962
0.0913966
0.091372
0.0914045
0.0913947
0.0913992
0.0913992
0.0913962
0.0913969
0.0913962
0.0913965
0.0913778
0.0913842
0.0913969
0.0913993
0.0913972
0.091396
0.091397
0.0913975
0.0913972
0.0913801
0.0914086
0.0913951
0.0914035
0.0914046
0.0913799
0.0913987
0.0913984
0.0914119
0.0914228
0.0914227
0.0914101
0.0913943
0.0913992
0.0913796
0.0914219
0.0914291
0.091429
0.0913717
0.0914169
0.091419
0.0913988
0.0914094
0.0913999
0.0914017
0.0914045
0.0914059
0.0914011
0.0913725
0.0913994
0.0914033
0.0914049
0.091376
0.0914175
0.0913796
0.0914046
0.0914021
0.0913927
0.0913997
0.0914009
0.0914123
0.0914012
0.0914122
0.0913989
0.0914052
0.0914184
0.0914187
0.0913798
0.0914024
0.0913723
0.091373
0.0913715
0.0914044
0.0913724
0.0913708
0.0913961
0.0913718
0.091414
0.091414
0.0913725
0.0913972
0.091378
0.0913723
0.0913773
0.0913721
0.0913773
0.0914172
0.0913786
0.0913725
0.0913723
0.0914007
0.0914066
0.0913769
0.0914009
0.0913709
0.0914019
0.0913975
0.0913719
0.0913764
0.0913713
0.0913716
0.0913985
0.0914148
0.0914282
0.0914276
0.0914025
0.0914281
0.0914281
0.0914278
0.0914244
0.0913792
0.091418
0.0914105
0.091415
0.0914021
0.0914254
0.0914254
0.0914158
0.0913713
0.0913971
0.0913721
0.0913792
0.0913791
0.0914212
0.0914211
0.0914208
0.0914209
0.0914212
0.0914275
0.0914211
0.0914255
0.0914285
0.0914215
0.0914216
0.0914287
0.0914276
0.0914256
0.0914208
SCALARS rr_tsim float
LOOKUP_TABLE default
210
210
210
210
210
210
210
210
210
210
210
210
210
210
210
210
210
210
210
210
210
210
210
210
210
210
210
210
210
210
210
210
210
210
210
210
210
210
210
210
210
210
210
210
210
210
210
210
210
210
210
210
210
210
210
210
210
210
210
210
210
210
210
210
210
210
210
210
210
210
210
210
210
210
210
210
210
210
210
210
210
210
210
210
210
210
210
210
210
210
210
210
210
210
210
210
210
210
210
210
210
210
210
210
210
210
210
210
210
210
210
210
210
210
210
210
210
210
210
210
210
210
210
210
210
210
210
210
210
210
210
210
210
210
210
210
210
210
210
210
210
210
210
210
210
210
210
210
210
210
210
210
210
210
210
210
210
210
210
210
210
210
210
210
210
210
210
210
210
210
210
210
210
210
210
210
210
210
210
210
210
210
210
210
210
210
210
210
210
210
210
210
210
210
210
210
210
210
210
210
210
210
210
210
210
210
210
210
210
210
210
210
210
210
210
210
210
210
210
210
210
210
210
210
210
210
210
210
210
210
210
210
210
210
210
210
210
210
210
210
210
210
210
210
210
210
210
210
210
210
210
210
210
210
210
210
210
210
210
210
210
210
210
210
210
210
210
210
210
210
210
210
210
210
210
210
210
210
210
210
210
210
210
210
210
210
210
210
210
210
210
210
210
210
210
210
210
210
210
210
210
210
210
210
210
210
210
210
210
210
210
210
210
210
210
210
210
210
210
210
210
210
210
210
210
210
210
210
210
210
210
210
210
210
210
210
210
210
210
210
210
210
210
210
210
210
210
210
210
210
210
210
210
210
210
210
210
210
210
210
210
210
210
210
210
210
210
210
210
210
210
210
210
210
210
210
210
210
210
210
210
210
210
210
210
210
210
210
210
210
210
210
210
210
210
210
210
210
210
210
210
210
210
210
210
210
210
210
210
210
210
210
210
210
210
210
210
210
210
210
210
210
210
210
210
210
210
210
210
210
210
210
210
210
210
210
210
210
210
210
210
210
210
210
210
210
210
210
210
210
210
210
210
210
210
210
210
210
210
210
210
210
210
210
210
210
210
210
210
210
210
210
210
210
210
210
210
210
210
210
210
210
210
210
210
210
210
210
210
210
210
210
210
210
210
210
210
210
210
210
210
210
210
210
210
210
210
210
210
210
210
210
210
210
210
210
210
210
210
210
210
210
210
210
210
210
210
210
210
210
210
210
210
210
210
210
210
210
210
210
210
210
210
210
210
210
210
210
210
210
210
210
210
210
210
210
210
210
210
210
210
210
210
SCALARS rr_Vext float
LOOKUP_TABLE default
0.181359
0.449125
0.35605
0.468112
0.250493
0.37783
0.179275
0.465091
0.395108
0.504568
0.165389
0.466511
0.409828
0.435015
0.516137
0.424866
0.369045
0.414186
0.365533
0.360529
0.405111
0.0765107
0.415072
0.383016
0.347107
0.403473
0.15501
0.352836
0.267414
0.339247
0.361971
0.276486
0.171521
0.252902
0.249248
0.253453
0.330127
0.249491
0.361542
0.192837
0.224722
0.291051
0.29106
0.397274
0.216886
0.244121
0.344614
0.350185
0.330081
0.303762
0.312855
0.245237
0.401519
0.315208
0.369415
0.157754
0.266179
0.317518
0.266151
0.393187
0.470931
0.464874
0.153276
0.327643
0.445315
0.417376
0.455657
0.391907
0.357987
0.515559
0.435556
0.430792
0.277655
0.338746
0.353974
0.176427
0.372677
0.413479
0.395171
0.271134
0.240491
0.283507
0.527534
0.240251
0.327762
0.119292
0.407582
0.344611
0.229707
0.0374829
0.273094
0.0407608
0.316358
0.299313
0.25866
0.232984
0.220909
0.442932
0.372912
0.351857
0.293537
0.277771
0.230479
0.418578
0.42614
0.383833
0.340628
0.340849
0.24463
0.512521
0.326028
0.164039
0.220057
0.45788
0.42972
0.304483
0.308631
0.183509
0.320036
0.303367
0.266987
0.50265
0.511812
0.442042
0.484527
0.384953
0.220815
0.478212
0.200079
0.26228
0.227504
0.456397
0.449025
0.448251
0.288938
0.187537
0.190639
0.327441
0.40447
0.18746
0.241543
0.387291
0.287971
0.47276
0.223276
0.385191
0.349733
0.336129
0.21479
0.269547
0.3043
0.440628
0.248027
0.397412
0.461991
0.469245
0.307857
0.249009
0.247657
0.401137
0.333854
0.246118
0.160077
0.239705
0.240468
0.430957
0.252349
0.255101
0.274621
0.24594
0.386345
0.258184
0.226059
0.297715
0.272812
0.340307
0.382119
0.361134
0.313978
0.360846
0.266568
0.418248
0.448854
0.241615
0.442301
0.23944
0.436796
0.402738
0.378967
0.379416
0.446228
0.200775
0.266929
0.246017
0.447411
0.439022
0.4072
0.447896
0.452953
0.381866
0.466571
0.307717
0.274111
0.512733
0.285548
0.465955
0.369962
0.226655
0.286342
0.461726
0.389036
0.350309
0.450057
0.445257
0.27886
0.284222
0.267544
0.395454
0.433421
0.498094
0.47809
0.520372
0.47156
0.515289
0.432057
0.457203
0.460652
0.434356
0.456358
0.422919
0.416636
0.282412
0.389412
0.454296
0.312121
0.470274
0.432157
0.492661
0.288247
0.468278
0.448679
0.284501
0.406914
0.28247
0.455239
0.411291
0.296256
0.277679
0.235553
0.271098
0.455774
0.197501
0.347021
0.276528
0.313904
0.468673
0.45555
0.147789
0.457106
0.236431
0.261765
0.466272
0.379028
0.264586
0.522183
0.291232
0.14778
0.267725
0.4064
0.508923
0.382691
0.457756
0.425157
0.226615
0.216732
0.175979
0.201428
0.308135
0.229076
0.371982
0.227525
0.406393
0.287623
0.268102
0.323954
0.293523
0.398523
0.281487
0.287597
0.13637
0.303572
0.437811
0.438059
0.391526
0.281117
0.192359
0.545879
0.360489
0.298318
0.274292
0.284976
0.28273
0.358843
0.278092
0.19206
0.274792
0.183496
0.351068
0.279577
0.127091
0.263722
0.321338
0.279316
0.443671
0.290711
0.381469
0.138315
0.305663
0.287015
0.261625
0.269319
0.321992
0.308723
0.321047
0.266565
0.271164
0.29386
0.403602
0.276096
0.399023
0.358788
0.290797
0.286475
0.290123
0.323373
0.289913
0.270118
0.30853
0.33303
0.387867
0.29017
0.286354
0.425144
0.419249
0.276212
0.290836
0.117369
0.342064
0.227679
0.319681
0.126304
0.131123
0.117233
0.119129
0.126411
0.133076
0.137186
0.365819
0.275203
0.269664
0.305535
0.296208
0.292408
0.31471
0.285994
0.292388
0.310823
0.291315
0.368788
0.261064
0.378833
0.289104
0.277579
0.291597
0.322765
0.328994
0.304696
0.35105
0.326031
0.30039
0.213976
0.30386
0.298862
0.328281
0.305309
0.288519
0.275036
0.304064
0.319092
0.436162
0.283306
0.424001
0.43866
0.298865
0.422864
0.322475
0.255678
0.356794
0.307318
0.229505
0.18527
0.353349
0.377139
0.313433
0.259543
0.317013
0.138204
0.309864
0.289513
0.140569
0.0597486
0.0653754
0.268652
0.283294
0.331357
0.316587
0.0311309
0.0325286
0.31818
0.321542
0.304242
0.103724
0.264726
0.315903
0.315642
0.272075
0.240282
0.107863
0.464466
0.284946
0.352161
0.357672
0.255163
0.323445
0.249475
0.27548
0.129739
0.199381
0.323805
0.32775
0.280325
0.293563
0.303658
0.320505
0.306409
0.143961
0.275779
0.301353
0.290884
0.437488
0.143858
0.233732
0.240572
0.234523
0.155625
0.155629
0.267699
0.208507
0.301873
0.153856
0.185526
0.0614167
0.0614142
0.11231
0.199633
0.134971
0.257
0.284538
0.297806
0.337
0.307417
0.285232
0.222216
0.127171
0.278049
0.29058
0.282438
0.144129
0.147645
0.104629
0.281947
0.285971
0.22418
0.25825
0.238712
0.223791
0.292911
0.223757
0.257203
0.251386
0.158046
0.19524
0.165308
0.310645
0.112706
0.118918
0.115939
0.294533
0.10769
0.104733
0.200916
0.0979321
0.243154
0.243509
0.100659
0.255445
0.113722
0.110989
0.127155
0.105858
0.105723
0.174205
0.126241
0.112775
0.106277
0.23581
0.272658
0.118744
0.260316
0.0960767
0.264788
0.208172
0.100551
0.0864351
0.0948696
0.12646
0.225551
0.192179
0.0824425
0.0914072
0.253856
0.0775859
0.0775826
0.0878716
0.097962
0.099585
0.127334
0.207532
0.193794
0.253768
0.0775243
0.0775209
0.229252
0.0843466
0.178714
0.076519
0.0783414
0.103271
0.198596
0.205596
0.218906
0.200659
0.19858
0.0438924
0.320381
0.0557537
0.0543418
0.259008
0.257238
0.0563345
0.0390572
0.0548044
0.23856
SCALARS rr_Vli float
LOOKUP_TABLE default
0.396487
0.903298
0.721403
0.942903
0.493003
0.765665
0.392034
0.937671
0.806267
1.01512
0.359835
0.940543
0.827702
0.874154
1.02412
0.859729
0.739395
0.835915
0.748797
0.732053
0.82348
0.146196
0.843738
0.777626
0.704888
0.81314
0.333349
0.714257
0.560608
0.659801
0.731225
0.579528
0.369272
0.494392
0.485904
0.495506
0.641457
0.486896
0.730482
0.415065
0.47121
0.56533
0.565389
0.802514
0.463322
0.511147
0.704661
0.713572
0.668681
0.640142
0.657315
0.509709
0.791281
0.654954
0.728499
0.336094
0.518808
0.659756
0.518791
0.798046
0.943864
0.92503
0.32784
0.652218
0.88601
0.836195
0.913
0.789774
0.727289
1.03671
0.858507
0.849152
0.58221
0.676852
0.716969
0.381182
0.738159
0.828439
0.796421
0.56248
0.507623
0.556448
1.05351
0.508332
0.685384
0.254579
0.825075
0.689487
0.490661
0.0719434
0.567528
0.0782461
0.62635
0.600259
0.537108
0.489902
0.466217
0.891214
0.738707
0.711149
0.604217
0.579673
0.487749
0.84411
0.858081
0.772714
0.679547
0.68938
0.517759
1.02965
0.661678
0.349478
0.467059
0.923821
0.865436
0.632492
0.601613
0.387411
0.624001
0.629991
0.54796
0.998312
1.02947
0.884278
0.972857
0.763253
0.43175
0.962237
0.422252
0.544646
0.448453
0.91848
0.89711
0.901823
0.602899
0.365537
0.404182
0.660932
0.807732
0.365414
0.503538
0.778934
0.590241
0.95106
0.471531
0.776065
0.704323
0.680955
0.435247
0.556268
0.620247
0.886307
0.519982
0.802497
0.929442
0.944262
0.617853
0.518657
0.515713
0.810197
0.680206
0.515659
0.341239
0.503638
0.500928
0.867515
0.525645
0.531443
0.575696
0.512236
0.764768
0.536474
0.475015
0.597026
0.566759
0.679101
0.756452
0.728159
0.618512
0.726373
0.55876
0.841636
0.903304
0.503622
0.884783
0.503408
0.873807
0.803284
0.749916
0.763389
0.892542
0.423344
0.55457
0.515691
0.90021
0.8863
0.821711
0.894904
0.911196
0.765271
0.938417
0.629674
0.568292
1.02454
0.598471
0.930552
0.741278
0.47324
0.569198
0.928574
0.772728
0.703606
0.906436
0.889138
0.575329
0.570471
0.5542
0.788783
0.870377
1.00028
0.961016
1.04558
0.947452
1.03539
0.868712
0.907697
0.91477
0.862345
0.905932
0.83393
0.821516
0.583004
0.782795
0.915908
0.636238
0.933121
0.85721
0.993024
0.597476
0.944369
0.902755
0.586736
0.808802
0.582774
0.908856
0.829726
0.610881
0.574981
0.497305
0.572062
0.910102
0.417614
0.701482
0.572846
0.642712
0.945257
0.914967
0.286927
0.918295
0.500197
0.542259
0.940101
0.764201
0.548649
1.04888
0.596676
0.286928
0.554501
0.815978
1.01856
0.772234
0.908466
0.850823
0.446601
0.437753
0.374434
0.429883
0.608684
0.46556
0.749992
0.469385
0.807669
0.576817
0.555341
0.649547
0.603996
0.802278
0.579179
0.59602
0.263019
0.600443
0.868511
0.86913
0.787209
0.578063
0.376388
1.09285
0.7343
0.613259
0.565367
0.562958
0.583124
0.71046
0.572677
0.410196
0.565167
0.387692
0.700126
0.5766
0.245149
0.543077
0.642114
0.57662
0.887241
0.598798
0.772174
0.296222
0.619803
0.592062
0.517041
0.555817
0.655879
0.617315
0.64555
0.549011
0.557648
0.602197
0.804986
0.567871
0.804506
0.726243
0.573155
0.589128
0.594776
0.657843
0.593795
0.555995
0.631808
0.662547
0.782181
0.594652
0.59081
0.855288
0.843308
0.5683
0.573278
0.256088
0.692602
0.480628
0.650104
0.287607
0.29855
0.266803
0.271172
0.287682
0.303056
0.312311
0.729344
0.539724
0.544566
0.622604
0.606501
0.598933
0.63352
0.586131
0.599484
0.60947
0.596713
0.732659
0.542546
0.753107
0.586004
0.565699
0.597466
0.637467
0.666113
0.620592
0.710716
0.663997
0.615743
0.44404
0.619298
0.605572
0.652004
0.624637
0.591869
0.562872
0.620018
0.646721
0.877918
0.579858
0.853549
0.889739
0.609277
0.852429
0.653929
0.523841
0.713543
0.625425
0.450401
0.395665
0.704469
0.750314
0.635201
0.528049
0.635253
0.301236
0.628021
0.589265
0.300912
0.115298
0.126126
0.544004
0.580097
0.673737
0.647662
0.0592774
0.0619389
0.641397
0.648088
0.613482
0.226113
0.542805
0.631012
0.643417
0.555015
0.489878
0.235469
0.929284
0.583733
0.713232
0.724383
0.520583
0.658848
0.50899
0.561647
0.279102
0.421177
0.659632
0.663709
0.570434
0.599124
0.618257
0.651893
0.623523
0.307428
0.547097
0.616832
0.583015
0.874902
0.307368
0.473534
0.487754
0.462241
0.300515
0.300535
0.529554
0.427593
0.611536
0.329006
0.358876
0.117176
0.117176
0.245398
0.38962
0.262494
0.521051
0.56354
0.601412
0.677647
0.614657
0.56907
0.448036
0.277251
0.562547
0.5828
0.564248
0.311557
0.287924
0.224284
0.563452
0.57485
0.461942
0.521747
0.481454
0.440837
0.590095
0.440798
0.520822
0.502147
0.307811
0.380027
0.353394
0.623982
0.246786
0.25998
0.254334
0.589283
0.234981
0.230138
0.41001
0.214644
0.477121
0.477843
0.220334
0.519611
0.244574
0.243122
0.273901
0.231958
0.227739
0.33983
0.270697
0.245997
0.232678
0.475749
0.543002
0.256116
0.525108
0.211012
0.532689
0.423219
0.220454
0.186663
0.208255
0.276319
0.457467
0.376608
0.157552
0.174883
0.509987
0.148307
0.148306
0.168049
0.188628
0.213206
0.248113
0.410274
0.379761
0.510341
0.149004
0.149003
0.448512
0.184462
0.36361
0.167149
0.16815
0.221554
0.384549
0.398195
0.424214
0.388779
0.38454
0.0840102
0.620732
0.107163
0.103829
0.501445
0.497965
0.107596
0.0747329
0.105301
0.462543
SCALARS rr_S_ext' float
LOOKUP_TABLE default
-0.000526156
-0.00120112
-0.000959101
-0.00125374
-0.000655875
-0.00101794
-0.000520243
-0.00124677
-0.00107175
-0.0013498
-0.000477562
-0.00125059
-0.00110051
-0.0011624
-0.0013622
-0.00114304
-0.000983265
-0.00111144
-0.000995264
-0.00097321
-0.00109473
-0.000194617
-0.00112166
-0.0010338
-0.000937093
-0.00108119
-0.000442547
-0.000949617
-0.000744722
-0.000877994
-0.000972227
-0.000769857
-0.000490225
-0.000657814
-0.000646564
-0.000659295
-0.0008536
-0.00064787
-0.000971234
-0.000551021
-0.00062596
-0.000752302
-0.000752381
-0.00106701
-0.000615196
-0.000679038
-0.000936643
-0.000948566
-0.00088901
-0.000850266
-0.00087314
-0.000677248
-0.00105266
-0.000870243
-0.000969123
-0.000446298
-0.00069035
-0.000876622
-0.000690327
-0.00106095
-0.00125516
-0.00123032
-0.000435296
-0.000867468
-0.00117843
-0.001112
-0.00121412
-0.00105013
-0.000966864
-0.00137852
-0.00114208
-0.00112964
-0.000773414
-0.000900156
-0.000953213
-0.00050599
-0.000981882
-0.00110169
-0.00105896
-0.000747396
-0.000674225
-0.000740326
-0.00140108
-0.000675125
-0.000910535
-0.000338039
-0.00109695
-0.000916932
-0.000651497
-9.5762e-05
-0.000754076
-0.000104151
-0.000833162
-0.000798226
-0.000713672
-0.000650744
-0.000619233
-0.00118505
-0.000982609
-0.000945522
-0.000803007
-0.000770137
-0.000647785
-0.00112235
-0.00114097
-0.00102746
-0.000903766
-0.000916564
-0.00068764
-0.00136915
-0.000879659
-0.000464067
-0.00062026
-0.00122833
-0.00115075
-0.000840403
-0.000800533
-0.000514559
-0.00083032
-0.000837086
-0.000728289
-0.00132784
-0.00136889
-0.00117598
-0.00129365
-0.00101523
-0.000574466
-0.00127948
-0.000560839
-0.000723686
-0.00059658
-0.00122129
-0.00119307
-0.00119915
-0.000800998
-0.000486399
-0.000536777
-0.000878782
-0.00107422
-0.000486235
-0.000669003
-0.00103576
-0.000784511
-0.00126463
-0.000626282
-0.0010319
-0.000936521
-0.000905328
-0.000578656
-0.000739236
-0.0008245
-0.00117852
-0.000690751
-0.001067
-0.00123588
-0.00125557
-0.000821609
-0.000689106
-0.000685198
-0.00107723
-0.000904215
-0.000685019
-0.00045312
-0.000669004
-0.000665547
-0.00115352
-0.000698389
-0.000706091
-0.000764765
-0.000680574
-0.00101729
-0.000712816
-0.000630981
-0.000793928
-0.00075306
-0.000903167
-0.00100622
-0.000968189
-0.000822829
-0.000965849
-0.00074227
-0.00111912
-0.00120112
-0.000669116
-0.00117666
-0.000668689
-0.00116205
-0.00106834
-0.000997539
-0.00101508
-0.00118698
-0.000562302
-0.000736862
-0.000685054
-0.001197
-0.00117842
-0.00109255
-0.00119014
-0.00121161
-0.00101768
-0.00124781
-0.000836955
-0.000755132
-0.00136254
-0.000795026
-0.00123756
-0.000985775
-0.000628725
-0.000757073
-0.00123473
-0.0010278
-0.000935626
-0.00120526
-0.00118248
-0.000764571
-0.000758602
-0.000736422
-0.00104905
-0.00115738
-0.00133012
-0.00127787
-0.00139034
-0.00125985
-0.00137678
-0.00115515
-0.00120732
-0.00121672
-0.001147
-0.00120498
-0.00110938
-0.00109287
-0.00077476
-0.0010409
-0.00121781
-0.000845759
-0.00124116
-0.00114019
-0.00132035
-0.000793913
-0.00125564
-0.00120039
-0.000779739
-0.00107576
-0.000774467
-0.00120872
-0.0011032
-0.000811828
-0.000764042
-0.000660518
-0.000759812
-0.00121037
-0.000554653
-0.000932665
-0.000761198
-0.000854272
-0.00125682
-0.00121667
-0.000381828
-0.00122109
-0.000664329
-0.000720552
-0.00124997
-0.00101611
-0.000729027
-0.00139473
-0.000793072
-0.000381828
-0.000736824
-0.00108504
-0.00135454
-0.00102677
-0.00120836
-0.00113148
-0.000594123
-0.000582031
-0.000497224
-0.000570813
-0.000809704
-0.000618916
-0.000997222
-0.000623782
-0.00107426
-0.000767055
-0.000737937
-0.000863775
-0.00080272
-0.00106678
-0.000769741
-0.000791982
-0.000350062
-0.000798716
-0.00115522
-0.00115604
-0.00104677
-0.000768269
-0.000500793
-0.00145333
-0.000976128
-0.000815051
-0.000751353
-0.000748877
-0.000774937
-0.000945044
-0.000761085
-0.000544659
-0.000751125
-0.000514922
-0.000931146
-0.000766267
-0.000326277
-0.000721747
-0.000853952
-0.000766276
-0.00117993
-0.000795794
-0.00102662
-0.000393305
-0.000824007
-0.000786813
-0.000687786
-0.000738636
-0.00087188
-0.000820963
-0.000858396
-0.000729629
-0.000741135
-0.000800406
-0.00107061
-0.000754718
-0.00106971
-0.000965557
-0.000762481
-0.000782974
-0.000790536
-0.000874518
-0.00078925
-0.000738921
-0.000839778
-0.000881215
-0.00104002
-0.000790378
-0.000785144
-0.00113729
-0.00112136
-0.000755283
-0.000762644
-0.000339847
-0.000920825
-0.000638368
-0.000864236
-0.000381237
-0.000395744
-0.000353666
-0.000359454
-0.000381342
-0.000401717
-0.000413989
-0.00097001
-0.00071808
-0.000724048
-0.000827638
-0.00080614
-0.000796079
-0.000842386
-0.000779051
-0.000796791
-0.000810878
-0.000793126
-0.000974499
-0.00072088
-0.00100167
-0.000779079
-0.000751993
-0.000794122
-0.000847997
-0.000885609
-0.000824975
-0.000944911
-0.000882675
-0.000818404
-0.000590014
-0.000823239
-0.000805105
-0.000867227
-0.000830262
-0.000786657
-0.00074816
-0.000824188
-0.000859807
-0.00116736
-0.000770735
-0.00113496
-0.00118287
-0.000809915
-0.00113343
-0.000869377
-0.000696262
-0.000948929
-0.000831415
-0.000599233
-0.000525366
-0.000936929
-0.000997948
-0.000844492
-0.000701973
-0.000844776
-0.000399774
-0.000834943
-0.000783344
-0.000399536
-0.000153454
-0.000167866
-0.000723259
-0.000771045
-0.000895659
-0.00086087
-7.89166e-05
-8.24598e-05
-0.000852828
-0.000861732
-0.00081571
-0.000300078
-0.000721453
-0.000839195
-0.000855302
-0.000737775
-0.000651196
-0.000312481
-0.00123583
-0.00077587
-0.000948248
-0.000963073
-0.000692002
-0.000875827
-0.000676591
-0.000746601
-0.000370527
-0.000559398
-0.000876867
-0.000882408
-0.000758314
-0.0007964
-0.000821877
-0.000866612
-0.000828888
-0.000408205
-0.000727708
-0.000819878
-0.000775306
-0.00116352
-0.00040812
-0.00062956
-0.000648454
-0.000614928
-0.000399955
-0.000399981
-0.000704415
-0.000568321
-0.000813037
-0.000436841
-0.000477609
-0.000155991
-0.00015599
-0.00032565
-0.000518431
-0.0003493
-0.000692725
-0.000749608
-0.000799631
-0.000901077
-0.000817425
-0.00075684
-0.000595729
-0.00036794
-0.000747928
-0.000775009
-0.000750402
-0.000413562
-0.000383118
-0.000297784
-0.000749337
-0.000764397
-0.000613908
-0.000693706
-0.000640157
-0.000586457
-0.000784629
-0.000586406
-0.00069244
-0.000667817
-0.000409591
-0.000505693
-0.000469227
-0.000829739
-0.000327482
-0.000345006
-0.000337481
-0.000783674
-0.000311839
-0.000305362
-0.000545016
-0.000284823
-0.000634788
-0.000635748
-0.000292384
-0.000690755
-0.000324693
-0.000322619
-0.000363612
-0.000307801
-0.00030233
-0.000452185
-0.000359397
-0.00032646
-0.000308761
-0.000632568
-0.000722199
-0.00033999
-0.000698199
-0.000279986
-0.000708322
-0.000562622
-0.000292532
-0.000247784
-0.000276335
-0.000366681
-0.000608185
-0.000501072
-0.000209733
-0.000232798
-0.000678154
-0.000197425
-0.000197423
-0.000223703
-0.000251061
-0.000283078
-0.000330151
-0.000545757
-0.000505267
-0.000678609
-0.00019833
-0.000198328
-0.000596763
-0.000244779
-0.00048337
-0.000221814
-0.000223248
-0.000294151
-0.000511765
-0.000529922
-0.000564542
-0.000517387
-0.000511751
-0.000111831
-0.000826072
-0.000142638
-0.000138217
-0.000667334
-0.000662705
-0.000143234
-9.94818e-05
-0.00014016
-0.000615542
SCALARS rr_P_ext' float
LOOKUP_TABLE default
0.000170005
0.000392725
0.000313274
0.000409845
0.000215075
0.000332485
0.000168088
0.000407513
0.000349725
0.000441319
0.000154417
0.00040876
0.00035962
0.000380107
0.00044621
0.000373419
0.000321661
0.000363229
0.000324594
0.000317789
0.000357415
6.40686e-05
0.000366206
0.000337578
0.00030599
0.000353412
0.000143338
0.000310215
0.000242097
0.000288371
0.00031769
0.000250274
0.000158754
0.000215907
0.000212291
0.000216391
0.000280394
0.00021269
0.000317359
0.000178448
0.000203483
0.000247131
0.000247154
0.000348664
0.000199451
0.000220782
0.000305552
0.000309589
0.000290386
0.000276201
0.000283754
0.00022043
0.00034513
0.000283256
0.000317713
0.000144748
0.000226674
0.000285332
0.000226664
0.000346459
0.000410589
0.000402855
0.000141099
0.000284027
0.000385869
0.000363775
0.00039718
0.00034326
0.000315693
0.000450741
0.000374441
0.000370358
0.000251416
0.00029458
0.000311364
0.000163775
0.000321706
0.000360398
0.000346145
0.000243326
0.000218964
0.000242857
0.000458546
0.000219181
0.000296105
0.00010961
0.000358345
0.000300016
0.000211223
3.1507e-05
0.00024544
3.42665e-05
0.000272994
0.000261093
0.000232314
0.000211456
0.000201109
0.000387446
0.000321939
0.000308943
0.000261715
0.000250519
0.0002103
0.000366836
0.000372996
0.0003359
0.000295826
0.000299453
0.000223234
0.000447737
0.00028726
0.000150512
0.00020128
0.000401445
0.000376183
0.000273554
0.000262848
0.000167106
0.00027262
0.000272485
0.000237461
0.000434899
0.000447575
0.000384785
0.00042308
0.000332588
0.000188545
0.000418319
0.000182144
0.000235573
0.000195592
0.000399287
0.000390447
0.000392064
0.000260562
0.000159707
0.000174215
0.000287188
0.000351572
0.000159652
0.000217653
0.000338656
0.000255839
0.000413475
0.000203378
0.000337314
0.000306153
0.000295715
0.000189005
0.000240845
0.000269087
0.000385331
0.000224551
0.000348678
0.000404073
0.0004105
0.000268714
0.00022422
0.000222957
0.00035201
0.000295119
0.000222707
0.000146949
0.000217414
0.000216552
0.000377115
0.000227239
0.000229741
0.000248614
0.000221447
0.000333334
0.000232015
0.000205054
0.000259689
0.00024512
0.000295618
0.000329706
0.000316453
0.000269791
0.000315761
0.000241304
0.000365886
0.00039269
0.000217694
0.000385006
0.000217291
0.000380227
0.000349704
0.000326877
0.000331877
0.000388389
0.000182643
0.000239846
0.000222703
0.000391357
0.000385104
0.000357064
0.000389483
0.000396145
0.000332906
0.000407991
0.000273004
0.000245866
0.000445896
0.000258459
0.000405028
0.000322478
0.000204505
0.000247929
0.000403719
0.000336623
0.000305971
0.000394002
0.000387008
0.000249109
0.000248104
0.000239803
0.000343389
0.000378504
0.000434995
0.000417855
0.000454656
0.000411988
0.000450221
0.000377706
0.000395448
0.000398514
0.000375689
0.000394685
0.0003637
0.000358287
0.000252408
0.000340362
0.000398053
0.000276022
0.000406561
0.000373505
0.000431584
0.000258501
0.000410404
0.000392465
0.000254064
0.000352299
0.000252333
0.000395605
0.000360562
0.000264526
0.00024881
0.000214506
0.000246771
0.000396135
0.000180085
0.000304736
0.000247869
0.00027863
0.000410783
0.000397885
0.000125438
0.000399317
0.000215678
0.000234634
0.000408564
0.00033212
0.00023736
0.000456111
0.000258646
0.000125437
0.000239938
0.000354857
0.000443182
0.000335565
0.000395806
0.000370206
0.000194791
0.000190192
0.000161295
0.000185087
0.000265389
0.000202073
0.000325945
0.000203239
0.000351812
0.000250897
0.000240298
0.000282541
0.000261633
0.000348753
0.000250887
0.000257879
0.000115102
0.000261743
0.000378423
0.000378684
0.00034227
0.000250428
0.00016435
0.000475485
0.000318601
0.000265688
0.000244834
0.000245451
0.000252497
0.000309654
0.000248036
0.000176588
0.000244834
0.000167204
0.000304802
0.000249674
0.00010728
0.000235217
0.000279458
0.000249643
0.000386095
0.00025934
0.000335372
0.000127464
0.000269119
0.000256361
0.000225416
0.000240648
0.000284576
0.000268637
0.000280675
0.000237781
0.000241581
0.000261029
0.000350447
0.000246004
0.000349637
0.000315425
0.000249985
0.000255219
0.000257796
0.000285487
0.000257409
0.000240829
0.000273896
0.000288552
0.000339923
0.000257757
0.000255811
0.000371837
0.000366637
0.000246176
0.000250036
0.000109842
0.000300799
0.000207316
0.000282145
0.00012243
0.000127091
0.000113586
0.000115441
0.000122475
0.000129005
0.000132952
0.000317536
0.000235587
0.000236606
0.000270121
0.00026293
0.000259635
0.000275396
0.000254062
0.000259832
0.000266038
0.000258671
0.000319158
0.000234634
0.000328031
0.000254459
0.000245428
0.000258985
0.000277947
0.000289297
0.000269269
0.000308672
0.000288106
0.000266889
0.000192079
0.000268679
0.000262971
0.000284035
0.000270828
0.000256509
0.000244036
0.00026897
0.000280829
0.000381643
0.000251396
0.000371042
0.000386308
0.000264321
0.000370474
0.000283934
0.000227072
0.000310505
0.000271402
0.000196577
0.000170334
0.000306707
0.000326775
0.00027583
0.000229156
0.000276349
0.00012923
0.000272708
0.000255705
0.000129492
5.04526e-05
5.51927e-05
0.000236259
0.000251481
0.000292409
0.000280814
2.59914e-05
2.71583e-05
0.000278758
0.000281672
0.000266613
9.7e-05
0.000235263
0.000274643
0.000279136
0.000240755
0.00021252
0.000100989
0.000404359
0.000253039
0.000309746
0.000314589
0.000225815
0.000285863
0.000220785
0.000243655
0.000120005
0.000181651
0.0002862
0.000288245
0.000247542
0.00025987
0.000268271
0.000282913
0.00027058
0.000132349
0.000238377
0.000267423
0.000253616
0.000380723
0.000132312
0.000205637
0.000211787
0.000201609
0.000131487
0.000131495
0.000230837
0.000185323
0.00026557
0.000141606
0.00015698
5.13629e-05
5.13624e-05
0.000105231
0.000170195
0.000114726
0.000226246
0.000245606
0.000261304
0.000294629
0.000267483
0.00024773
0.000194715
0.000118935
0.000244346
0.000253496
0.000245579
0.000133849
0.000125788
9.64938e-05
0.000245219
0.000249948
0.000200055
0.000226676
0.000209228
0.000192291
0.000256486
0.000192272
0.000226191
0.000218555
0.000134503
0.000166074
0.00015211
0.000271343
0.000105787
0.000111474
0.000108988
0.000256415
0.000100788
9.85905e-05
0.000177844
9.19941e-05
0.000208244
0.000208557
9.44542e-05
0.000225501
0.000105164
0.00010421
0.000117742
9.9419e-05
9.78984e-05
0.000148457
0.000116455
0.000105518
9.97421e-05
0.000206738
0.000236449
0.000110073
0.000228193
9.04046e-05
0.000231587
0.000183685
9.44792e-05
8.02062e-05
8.92316e-05
0.00011849
0.000198625
0.000164407
6.90438e-05
7.66256e-05
0.000221766
6.49901e-05
6.49892e-05
7.36358e-05
8.2568e-05
9.17465e-05
0.000108409
0.00017886
0.000165785
0.000221883
6.52414e-05
6.52406e-05
0.000195847
7.90879e-05
0.000157794
7.16797e-05
7.23276e-05
9.53058e-05
0.000168184
0.000174146
0.000185509
0.000170018
0.000168178
3.68072e-05
0.000271455
4.69212e-05
4.55022e-05
0.000219314
0.000217796
4.71559e-05
3.2744e-05
4.61082e-05
0.000202254
SCALARS rr_S' float
LOOKUP_TABLE default
0.000312941
0.000715365
0.000571159
0.000746684
0.000390757
0.000606197
0.000309423
0.000742528
0.000638173
0.000803913
0.000284059
0.000744801
0.000655401
0.000692314
0.000811465
0.000680711
0.000585649
0.000661917
0.000592591
0.000579542
0.000651897
0.000115998
0.000667928
0.000615622
0.000558033
0.000643917
0.000263286
0.000565519
0.00044325
0.000523178
0.000579004
0.000458211
0.000291646
0.000391949
0.000385263
0.000392831
0.000508649
0.000386035
0.00057841
0.000327816
0.000372562
0.00044829
0.000448336
0.000635453
0.000366041
0.000404164
0.000557705
0.000564836
0.00052942
0.000506024
0.000519663
0.000403147
0.000627137
0.000518035
0.000577365
0.00026556
0.000411355
0.000521832
0.000411341
0.000631794
0.000747589
0.00073288
0.000258997
0.000516731
0.000701967
0.000662328
0.000723151
0.000625417
0.000575758
0.000821021
0.000680413
0.000672999
0.000460325
0.000536172
0.000567656
0.000301006
0.000584929
0.000656184
0.000630678
0.000444917
0.000401246
0.000441089
0.000834548
0.000401765
0.000541963
0.000201137
0.000653261
0.000546153
0.000387641
5.70734e-05
0.000448882
6.2073e-05
0.000496335
0.000475431
0.000424836
0.000387295
0.00036852
0.000705787
0.000585362
0.000563095
0.000478084
0.000458412
0.000385493
0.000668425
0.000679528
0.000611931
0.000538333
0.000545843
0.00040921
0.000815453
0.000523836
0.000276132
0.000369095
0.000731533
0.000685349
0.000500275
0.000477008
0.000306225
0.000494755
0.000498302
0.000433618
0.000790986
0.000815284
0.00070045
0.000770492
0.000604783
0.000342288
0.000762031
0.000333769
0.000430797
0.00035542
0.00072737
0.000710644
0.000714186
0.000476783
0.000289827
0.000319425
0.000523359
0.000639853
0.000289729
0.000398221
0.000616884
0.000467103
0.000753187
0.000372712
0.000614564
0.000557765
0.000539138
0.000344597
0.000440098
0.000490956
0.000701903
0.000411126
0.000635448
0.000736066
0.000747789
0.000489353
0.000410193
0.000407868
0.000641536
0.000538427
0.000407719
0.000269616
0.000398168
0.000396168
0.000687007
0.000415718
0.000420302
0.000455179
0.000405114
0.000606024
0.000424322
0.000375538
0.000472871
0.00044828
0.000537974
0.000599433
0.000576615
0.000490217
0.000575235
0.000441792
0.000666522
0.000715356
0.000398289
0.000700856
0.000397977
0.000692156
0.000636366
0.000594263
0.000604559
0.000707004
0.000334644
0.000438637
0.000407736
0.000712907
0.000701807
0.000650672
0.000708896
0.00072161
0.000606146
0.000743173
0.000498342
0.000449528
0.000811582
0.000473193
0.000737148
0.000587145
0.000374235
0.00045098
0.00073538
0.000612256
0.000557255
0.000717817
0.000704342
0.000455183
0.000451825
0.000438396
0.000624878
0.000689325
0.000792208
0.00076108
0.00082807
0.000750354
0.000819995
0.000687987
0.000719201
0.000724797
0.000683264
0.000717804
0.000660925
0.000651086
0.000461244
0.000619947
0.000725273
0.000503616
0.00073936
0.00067922
0.000786346
0.000472615
0.000747803
0.000714928
0.000464216
0.00064082
0.000461075
0.000719969
0.000657012
0.000483322
0.000454841
0.000393087
0.000452181
0.000720953
0.000330077
0.000555436
0.000453145
0.000508647
0.000748503
0.000724636
0.000227529
0.000727265
0.000395343
0.000428948
0.000744428
0.000605157
0.000433986
0.000830687
0.000472204
0.000227529
0.000438636
0.000646245
0.000806802
0.000611495
0.000719819
0.000673945
0.000353959
0.000346625
0.000295868
0.00033964
0.000482378
0.000368556
0.000593906
0.000371366
0.000639925
0.000456865
0.000439298
0.000514475
0.000477915
0.000635347
0.000458282
0.000471467
0.00020862
0.000475822
0.00068817
0.000688658
0.000623441
0.00045741
0.000298386
0.000865641
0.000581251
0.000485265
0.000447321
0.00044614
0.000461357
0.000562986
0.000453122
0.000324073
0.000447201
0.000306437
0.000554646
0.000456195
0.000194445
0.000429702
0.000508649
0.000456194
0.000702805
0.000473785
0.000611378
0.000234008
0.000490702
0.000468426
0.000409742
0.00043974
0.000519174
0.000488995
0.000511246
0.000434393
0.000441254
0.000476569
0.000637716
0.00044934
0.000637075
0.000575013
0.00045426
0.000466164
0.000470689
0.000520756
0.000469931
0.00043993
0.000500017
0.000524924
0.00061939
0.000470598
0.00046743
0.000677346
0.000667862
0.000449673
0.000454357
0.000202135
0.000548371
0.000379906
0.000514637
0.000226576
0.000235199
0.000210193
0.000213632
0.000226641
0.000238749
0.000246043
0.000577798
0.000427837
0.000431203
0.000492827
0.000479989
0.000473996
0.000501704
0.000463853
0.000474413
0.000483128
0.000472238
0.000580504
0.000429121
0.000596682
0.00046395
0.000447782
0.000472829
0.000505192
0.0005274
0.000491245
0.000562716
0.000525604
0.000487282
0.000351228
0.000490206
0.000479452
0.000516605
0.000494357
0.000468374
0.00044547
0.000490767
0.000512026
0.000695253
0.000458911
0.000675951
0.000704405
0.00048227
0.000675029
0.00051772
0.000414562
0.000565215
0.000495087
0.000357024
0.000312594
0.000558094
0.000594459
0.000502906
0.000418009
0.000503163
0.000237782
0.000497218
0.000466461
0.000237717
9.14504e-05
0.00010004
0.000430715
0.000459093
0.00053335
0.000512583
4.70393e-05
4.91512e-05
0.000507911
0.000513216
0.000485804
0.000178484
0.000429555
0.000499862
0.000509298
0.00043931
0.00038776
0.000185856
0.000736096
0.000461962
0.000564701
0.000573529
0.000412053
0.000521525
0.000402877
0.000444569
0.000220438
0.000332906
0.000522144
0.000525492
0.000451557
0.000474215
0.000489404
0.00051605
0.000493582
0.000242883
0.0004335
0.000488171
0.000461784
0.000693034
0.00024283
0.000374913
0.00038616
0.000366353
0.000238349
0.000238365
0.000419642
0.00033838
0.000484177
0.000259916
0.000284619
9.29779e-05
9.29774e-05
0.000193685
0.000308908
0.000208141
0.000412524
0.000446558
0.000476217
0.000536666
0.000486887
0.000450817
0.000354793
0.000218847
0.000445413
0.000461602
0.000446972
0.00024602
0.000228284
0.000177173
0.000446335
0.000455265
0.000365494
0.000413131
0.000381251
0.000349393
0.0004673
0.000349362
0.000412362
0.000397782
0.000244062
0.000301329
0.000279187
0.000494186
0.000194771
0.000205199
0.000200711
0.00046678
0.000185476
0.000181603
0.00032453
0.000169396
0.000378211
0.000378783
0.000173897
0.000411329
0.000193171
0.000191877
0.000216319
0.000183063
0.000179861
0.000269437
0.000213827
0.000194173
0.000183637
0.00037673
0.000430194
0.000202261
0.000415817
0.000166513
0.000421863
0.000335032
0.00017398
0.000147404
0.000164343
0.000218089
0.000362178
0.000298547
0.000125007
0.000138752
0.000403904
0.000117671
0.00011767
0.000133332
0.000149624
0.000168425
0.000196725
0.000325128
0.000301046
0.000404168
0.000118201
0.0001182
0.00035557
0.000145584
0.000287836
0.000131929
0.000132823
0.000175008
0.000304969
0.000315788
0.000336416
0.000308317
0.000304961
6.6653e-05
0.000492266
8.50093e-05
8.23821e-05
0.000397676
0.000394918
8.53727e-05
5.92932e-05
8.35332e-05
0.000366805
SCALARS rr_P' float
LOOKUP_TABLE default
4.32104e-05
9.30316e-05
7.46678e-05
9.72088e-05
5.0043e-05
7.92583e-05
4.27329e-05
9.67289e-05
8.38531e-05
0.000104569
3.90863e-05
9.70259e-05
8.54853e-05
8.99774e-05
0.000104522
8.89081e-05
7.59551e-05
8.62925e-05
7.80787e-05
7.588e-05
8.542e-05
1.45501e-05
8.75218e-05
8.05977e-05
7.30703e-05
8.38613e-05
3.59233e-05
7.38839e-05
5.93755e-05
6.64446e-05
7.55334e-05
6.13722e-05
3.98253e-05
4.99577e-05
4.90097e-05
5.00729e-05
6.45566e-05
4.91446e-05
7.54653e-05
4.47567e-05
4.99144e-05
5.68817e-05
5.68904e-05
8.28955e-05
4.97045e-05
5.4092e-05
7.33866e-05
7.4141e-05
6.92035e-05
6.80412e-05
6.97226e-05
5.36712e-05
8.03907e-05
6.89522e-05
7.40452e-05
3.59897e-05
5.23215e-05
6.94579e-05
5.23223e-05
8.26981e-05
9.69826e-05
9.4589e-05
3.51999e-05
6.67103e-05
9.05921e-05
8.58971e-05
9.3794e-05
8.14477e-05
7.54139e-05
0.000106757
8.72305e-05
8.62825e-05
6.16729e-05
6.94042e-05
7.4193e-05
4.1209e-05
7.52477e-05
8.5104e-05
8.2138e-05
5.9153e-05
5.40152e-05
5.63794e-05
0.000107987
5.41788e-05
7.24669e-05
2.72921e-05
8.53468e-05
7.07629e-05
5.26336e-05
7.1815e-06
5.9754e-05
7.81139e-06
6.38321e-05
6.1702e-05
5.65209e-05
5.19932e-05
4.9604e-05
9.1813e-05
7.53092e-05
7.34842e-05
6.32083e-05
6.1206e-05
5.19919e-05
8.70921e-05
8.8445e-05
7.96336e-05
6.96071e-05
7.12681e-05
5.51954e-05
0.000105964
6.85629e-05
3.74225e-05
4.98854e-05
9.53477e-05
8.92132e-05
6.65748e-05
6.06764e-05
4.12285e-05
6.29451e-05
6.62987e-05
5.72098e-05
0.000101953
0.000106033
9.07443e-05
0.000100082
7.78587e-05
4.36335e-05
9.91323e-05
4.4926e-05
5.73156e-05
4.5568e-05
9.46338e-05
9.19827e-05
9.28992e-05
6.36528e-05
3.68648e-05
4.31379e-05
6.82349e-05
8.27938e-05
3.68543e-05
5.31292e-05
8.02235e-05
6.15691e-05
9.79666e-05
5.01927e-05
8.00217e-05
7.26034e-05
7.04753e-05
4.50534e-05
5.82934e-05
6.44566e-05
9.12885e-05
5.50737e-05
8.28731e-05
9.57429e-05
9.7285e-05
6.35424e-05
5.46926e-05
5.4373e-05
8.36804e-05
7.06681e-05
5.4593e-05
3.65549e-05
5.3422e-05
5.28274e-05
8.93989e-05
5.54316e-05
5.60478e-05
6.0972e-05
5.40135e-05
7.79284e-05
5.64792e-05
5.03892e-05
6.13678e-05
5.96597e-05
6.95747e-05
7.70844e-05
7.51212e-05
6.28211e-05
7.48534e-05
5.91744e-05
8.67116e-05
9.30707e-05
5.31332e-05
9.07953e-05
5.34214e-05
8.96713e-05
8.227e-05
7.63982e-05
7.86427e-05
9.15849e-05
4.50146e-05
5.83791e-05
5.46137e-05
9.27384e-05
9.15119e-05
8.48188e-05
9.17601e-05
9.38587e-05
7.86266e-05
9.66506e-05
6.56094e-05
5.97385e-05
0.000105058
6.33747e-05
9.53854e-05
7.61519e-05
4.9985e-05
5.81637e-05
9.563e-05
7.892e-05
7.23998e-05
9.34425e-05
9.11347e-05
6.02797e-05
5.86731e-05
5.82233e-05
8.07868e-05
8.95486e-05
0.000102916
9.89385e-05
0.000107616
9.7512e-05
0.000106568
8.9452e-05
9.2675e-05
9.34123e-05
8.80448e-05
9.24887e-05
8.47559e-05
8.34925e-05
6.11083e-05
8.05929e-05
9.44831e-05
6.6122e-05
9.52348e-05
8.74681e-05
0.000102422
6.27974e-05
9.74381e-05
9.30005e-05
6.14585e-05
8.26426e-05
6.10596e-05
9.3141e-05
8.5629e-05
6.39806e-05
6.03914e-05
5.2925e-05
6.08594e-05
9.3281e-05
4.44908e-05
7.24926e-05
6.01846e-05
6.69943e-05
9.75361e-05
9.41467e-05
2.88607e-05
9.4503e-05
5.33082e-05
5.69707e-05
9.69823e-05
7.88369e-05
5.7681e-05
0.000107931
6.22228e-05
2.8862e-05
5.82495e-05
8.39422e-05
0.000104558
7.97104e-05
9.2731e-05
8.73336e-05
4.53731e-05
4.52135e-05
4.00598e-05
4.60869e-05
6.19375e-05
4.82864e-05
7.73709e-05
4.91772e-05
8.25203e-05
5.92926e-05
5.83419e-05
6.67598e-05
6.31715e-05
8.26799e-05
6.05724e-05
6.26367e-05
2.634e-05
6.11515e-05
8.8627e-05
8.86989e-05
8.10589e-05
6.04308e-05
3.80572e-05
0.000112207
7.62759e-05
6.40977e-05
5.9198e-05
5.72861e-05
6.1083e-05
7.24036e-05
5.99266e-05
4.39986e-05
5.90903e-05
4.12806e-05
7.16981e-05
6.0398e-05
2.45522e-05
5.68286e-05
6.58451e-05
6.04397e-05
9.1028e-05
6.26695e-05
7.98719e-05
3.18332e-05
6.4186e-05
6.20265e-05
5.26279e-05
5.82476e-05
6.81295e-05
6.33303e-05
6.64754e-05
5.74551e-05
5.83001e-05
6.28081e-05
8.2443e-05
5.93746e-05
8.29943e-05
7.51194e-05
5.82353e-05
6.15909e-05
6.20509e-05
6.82742e-05
6.19098e-05
5.81625e-05
6.58648e-05
6.77397e-05
8.07027e-05
6.20224e-05
6.19031e-05
8.81028e-05
8.68604e-05
5.94329e-05
5.8251e-05
2.78712e-05
7.16545e-05
5.11462e-05
6.74551e-05
3.223e-05
3.34542e-05
2.98874e-05
3.03808e-05
3.22256e-05
3.39637e-05
3.49929e-05
7.46764e-05
5.46559e-05
5.62388e-05
6.46904e-05
6.32213e-05
6.24475e-05
6.52861e-05
6.11363e-05
6.25466e-05
6.17113e-05
6.22172e-05
7.48377e-05
5.71247e-05
7.69598e-05
6.06703e-05
5.87821e-05
6.23082e-05
6.48583e-05
6.89123e-05
6.44602e-05
7.3523e-05
6.89651e-05
6.42324e-05
4.6707e-05
6.43542e-05
6.26816e-05
6.65869e-05
6.50767e-05
6.17742e-05
5.86539e-05
6.44505e-05
6.69519e-05
9.0466e-05
6.04281e-05
8.79623e-05
9.21579e-05
6.33243e-05
8.79281e-05
6.77225e-05
5.46278e-05
7.32097e-05
6.49268e-05
4.56309e-05
4.24377e-05
7.21287e-05
7.6714e-05
6.57558e-05
5.48075e-05
6.52645e-05
3.27617e-05
6.50161e-05
6.11782e-05
3.23271e-05
1.15506e-05
1.26333e-05
5.62841e-05
6.04716e-05
6.98995e-05
6.74722e-05
5.88594e-06
6.1502e-06
6.61596e-05
6.68438e-05
6.32929e-05
2.45939e-05
5.66353e-05
6.469e-05
6.68683e-05
5.77093e-05
5.09168e-05
2.56362e-05
9.53729e-05
6.08686e-05
7.38019e-05
7.4955e-05
5.41339e-05
6.84386e-05
5.29291e-05
5.8377e-05
3.00846e-05
4.48405e-05
6.85235e-05
6.86715e-05
5.92139e-05
6.2315e-05
6.42022e-05
6.76487e-05
6.47257e-05
3.29725e-05
5.58298e-05
6.42838e-05
5.99061e-05
8.97639e-05
3.29778e-05
4.90098e-05
5.05068e-05
4.69659e-05
3.0119e-05
3.01219e-05
5.39363e-05
4.46187e-05
6.32894e-05
3.53194e-05
3.60097e-05
1.16502e-05
1.16504e-05
2.67337e-05
3.93277e-05
2.64335e-05
5.3954e-05
5.74441e-05
6.21105e-05
6.97819e-05
6.30543e-05
5.82935e-05
4.62207e-05
3.01577e-05
5.81688e-05
5.99113e-05
5.78512e-05
3.36933e-05
2.90471e-05
2.41175e-05
5.77822e-05
5.91835e-05
4.83591e-05
5.38985e-05
4.96791e-05
4.4774e-05
6.08427e-05
4.47719e-05
5.38857e-05
5.14797e-05
3.10266e-05
3.82908e-05
3.79302e-05
6.42094e-05
2.69242e-05
2.83334e-05
2.77826e-05
6.04782e-05
2.55749e-05
2.51685e-05
4.26427e-05
2.34331e-05
4.83335e-05
4.84085e-05
2.40328e-05
5.39246e-05
2.63576e-05
2.65318e-05
2.95505e-05
2.5319e-05
2.45704e-05
3.4291e-05
2.91143e-05
2.67679e-05
2.53827e-05
4.91008e-05
5.55558e-05
2.76562e-05
5.41892e-05
2.30689e-05
5.4872e-05
4.3905e-05
2.40727e-05
2.01735e-05
2.27597e-05
3.01022e-05
4.73823e-05
3.81182e-05
1.56817e-05
1.74199e-05
5.24842e-05
1.4764e-05
1.47642e-05
1.67345e-05
1.88693e-05
2.29065e-05
2.50172e-05
4.17696e-05
3.84365e-05
5.25575e-05
1.48876e-05
1.48878e-05
4.53455e-05
2.01073e-05
3.77407e-05
1.82058e-05
1.80972e-05
2.3837e-05
3.8612e-05
3.99882e-05
4.26171e-05
3.90522e-05
3.86124e-05
8.37045e-06
6.23511e-05
1.07073e-05
1.03331e-05
5.03436e-05
4.99907e-05
1.07054e-05
7.44459e-06
1.05187e-05
4.64839e-05
SCALARS rr_T' float
LOOKUP_TABLE default
0.00020811
0.000474123
0.000378651
0.00049491
0.000258768
0.000401883
0.000205773
0.000492165
0.000423195
0.000532814
0.00018887
0.000493673
0.000434445
0.000458826
0.000537541
0.000451255
0.000388093
0.000438755
0.000393029
0.000384241
0.000432229
7.67354e-05
0.000442862
0.000408161
0.000369982
0.000426801
0.000174969
0.0003749
0.000294253
0.000346317
0.000383806
0.000304183
0.000193824
0.000259497
0.000255042
0.000260082
0.000336688
0.000255562
0.000383416
0.00021786
0.00024733
0.00029673
0.000296762
0.000421224
0.000243189
0.000268292
0.000369863
0.00037454
0.000350978
0.000335999
0.000345012
0.000267537
0.000415328
0.000343773
0.000382375
0.00017641
0.000272312
0.000346294
0.000272304
0.000418879
0.000495415
0.00048553
0.000172078
0.000342337
0.000465049
0.000438903
0.000479215
0.000414537
0.00038174
0.000544146
0.000450613
0.000445703
0.000305591
0.000355267
0.000376323
0.000200076
0.000387446
0.000434832
0.000418026
0.000295235
0.000266442
0.000292069
0.000552965
0.000266814
0.000359746
0.000133624
0.000433066
0.000361899
0.000257538
3.77618e-05
0.000297885
4.10699e-05
0.000328759
0.000315064
0.000281918
0.00025714
0.000244709
0.000467781
0.000387733
0.000373268
0.000317142
0.00030426
0.000256011
0.000443056
0.00045039
0.000405582
0.00035668
0.000361842
0.000271762
0.00054044
0.000347302
0.000183435
0.000245151
0.000484895
0.00045425
0.000331984
0.000315775
0.000203345
0.000327527
0.000330671
0.000287614
0.000523994
0.00054035
0.00046414
0.000510632
0.000400616
0.000226618
0.000505059
0.000221633
0.000285875
0.000235384
0.000482091
0.000470875
0.000473348
0.000316451
0.000191864
0.000212148
0.00034691
0.000423962
0.000191799
0.000264298
0.000408848
0.000309806
0.000499192
0.000247499
0.000407341
0.000369685
0.00035742
0.000228453
0.000291975
0.000325556
0.000465204
0.000272929
0.000421215
0.000487845
0.000495624
0.000324299
0.000272234
0.000270689
0.000425256
0.000357027
0.00027066
0.00017911
0.00026435
0.000262928
0.000455341
0.000275902
0.000278945
0.000302172
0.000268864
0.000401412
0.000281585
0.000249326
0.000313367
0.000297481
0.000356446
0.000397047
0.000382197
0.000324645
0.000381259
0.000293283
0.000441758
0.000474126
0.000264342
0.000464405
0.00026423
0.000458644
0.000421628
0.000393616
0.000400688
0.000468478
0.000222206
0.000291084
0.000270676
0.000472502
0.000465201
0.0004313
0.000469717
0.000478268
0.000401676
0.000492555
0.000330504
0.000298286
0.000537759
0.000314127
0.000488428
0.000389083
0.000248395
0.000298761
0.000487389
0.00040559
0.000369309
0.00047577
0.000466691
0.000301979
0.00029943
0.000290889
0.000414017
0.000456843
0.000525028
0.000504417
0.000548805
0.000497298
0.000543454
0.00045597
0.000476432
0.000480144
0.000452627
0.000475506
0.000437714
0.000431198
0.000306008
0.000410873
0.00048074
0.00033395
0.000489777
0.000449933
0.000521217
0.000313604
0.000495679
0.000473838
0.000307967
0.000424524
0.000305887
0.00047704
0.000435505
0.00032064
0.000301797
0.000261027
0.000300264
0.000477694
0.000219199
0.000368194
0.000300676
0.000337347
0.000496145
0.000480247
0.000150602
0.000481993
0.000262545
0.000284621
0.000493439
0.000401114
0.000287976
0.000550533
0.000313184
0.000150603
0.000291047
0.00042829
0.000534622
0.00040533
0.000476836
0.000446581
0.000234412
0.000229768
0.000196534
0.000225638
0.000319487
0.000244363
0.000393657
0.000246372
0.00042393
0.00030276
0.000291488
0.000340935
0.000317026
0.0004211
0.000304
0.00031284
0.000138054
0.000315161
0.000455864
0.000456189
0.00041319
0.000303415
0.000197559
0.000573616
0.00038542
0.000321888
0.000296751
0.000295486
0.000306071
0.000372907
0.000300588
0.000215304
0.000296646
0.000203493
0.000367482
0.000302646
0.000128674
0.000285051
0.000337033
0.000302657
0.000465695
0.000314298
0.000405299
0.000155482
0.000325323
0.000310763
0.000271384
0.000291738
0.000344259
0.000324017
0.000338836
0.000288166
0.000292699
0.000316082
0.000422522
0.000298065
0.00042227
0.000381191
0.000300838
0.000309223
0.000312187
0.000345289
0.000311672
0.000291831
0.000331624
0.000347758
0.000410551
0.000312122
0.000310105
0.000448924
0.000442636
0.00029829
0.000300903
0.000134415
0.000363534
0.000252273
0.000341227
0.000150957
0.000156702
0.000140038
0.000142331
0.000150997
0.000159067
0.000163925
0.000382818
0.000283291
0.000285832
0.000326793
0.000318341
0.000314369
0.000332522
0.000307649
0.000314658
0.000319899
0.000313203
0.000384559
0.000284772
0.000395291
0.000307582
0.000296925
0.000313599
0.000334594
0.00034963
0.000325737
0.000373041
0.00034852
0.000323192
0.000233068
0.000325058
0.000317853
0.000342225
0.00032786
0.00031066
0.000295441
0.000325436
0.000339452
0.000460802
0.000304356
0.000448011
0.000467007
0.000319798
0.000447424
0.000343235
0.000274954
0.000374525
0.000328274
0.000236407
0.000207677
0.000369762
0.000393825
0.000333405
0.000277163
0.000333432
0.000158113
0.000329636
0.000309294
0.000157944
6.05179e-05
6.62013e-05
0.000285537
0.000304482
0.000353632
0.000339946
3.11137e-05
3.25106e-05
0.000336656
0.000340169
0.000322005
0.000118682
0.000284908
0.000331206
0.000337718
0.000291317
0.000257128
0.000123593
0.000487763
0.00030639
0.000374362
0.000380215
0.000273244
0.000345817
0.000267159
0.000294798
0.000146496
0.000221068
0.000346228
0.000348368
0.00029941
0.000314469
0.000324511
0.000342166
0.000327276
0.000161363
0.000287161
0.000323763
0.000306013
0.000459219
0.000161332
0.000248549
0.000256012
0.000242621
0.000157734
0.000157745
0.000277952
0.000224435
0.000320984
0.000172689
0.000188367
6.15036e-05
6.15033e-05
0.000128805
0.000204504
0.000137778
0.00027349
0.000295791
0.000315669
0.000355683
0.000322621
0.000298694
0.000235166
0.000145523
0.00029527
0.000305901
0.000296163
0.000163531
0.000151126
0.000117723
0.000295745
0.000301728
0.000242465
0.000273855
0.000252706
0.000231386
0.000309729
0.000231366
0.00027337
0.000263567
0.000161564
0.000199469
0.00018549
0.000327516
0.000129534
0.00013646
0.000133496
0.000309303
0.000123337
0.000120796
0.000215206
0.000112663
0.000250432
0.000250811
0.00011565
0.000272734
0.000128373
0.000127611
0.000143766
0.000121751
0.000119536
0.00017837
0.000142084
0.000129119
0.000122129
0.000249712
0.000285011
0.000134431
0.000275619
0.000110757
0.000279598
0.00022214
0.000115713
9.79761e-05
0.00010931
0.000145034
0.000240116
0.000197674
8.26959e-05
9.17926e-05
0.000267682
7.78435e-05
7.78428e-05
8.82055e-05
9.90074e-05
0.000111908
0.00013023
0.000215345
0.000199329
0.000267868
7.82095e-05
7.82089e-05
0.000235415
9.68201e-05
0.000190852
8.77333e-05
8.82596e-05
0.00011629
0.000201842
0.000209005
0.000222661
0.000204062
0.000201837
4.40954e-05
0.00032581
5.62479e-05
5.44977e-05
0.000263198
0.000261372
5.64752e-05
3.92259e-05
5.52704e-05
0.000242779
SCALARS rr_uec(SIM,_S_ext) float
LOOKUP_TABLE default
0.0137953
0.0314274
0.025099
0.0328054
0.017152
0.026639
0.0136404
0.0326232
0.0280517
0.0353177
0.0125203
0.0327231
0.0287972
0.0304133
0.0356306
0.0299116
0.0257248
0.0290831
0.0260524
0.0254696
0.0286505
0.00508614
0.0293554
0.0270552
0.0245245
0.0282907
0.0115984
0.0248504
0.0195052
0.0229549
0.0254406
0.0201635
0.0128483
0.0172003
0.0169049
0.0172391
0.0223167
0.0169394
0.0254148
0.0144416
0.0163948
0.0196682
0.0196703
0.0279209
0.0161207
0.0177843
0.0245167
0.0248266
0.0232647
0.0222726
0.02287
0.0177341
0.0275295
0.0227875
0.0253452
0.0116938
0.0180496
0.0229546
0.018049
0.0277657
0.0328387
0.0321831
0.0114066
0.0226915
0.0308255
0.0290925
0.0317649
0.0274777
0.0253039
0.036069
0.0298683
0.0295429
0.0202568
0.0235487
0.0249447
0.0132628
0.0256814
0.0288227
0.027709
0.0195702
0.0176618
0.0193593
0.0366532
0.0176865
0.0238464
0.00885769
0.028706
0.0239883
0.0170719
0.00250292
0.0197458
0.00272219
0.0217915
0.020884
0.0186874
0.0170452
0.0162211
0.031007
0.0257005
0.0247422
0.0210221
0.0201684
0.0169704
0.0293682
0.0298542
0.0268841
0.0236424
0.0239848
0.0180145
0.0358234
0.0230211
0.0121596
0.0162506
0.0321415
0.0301101
0.022006
0.0209304
0.0134792
0.0217093
0.021919
0.0190648
0.0347327
0.0358174
0.0307654
0.0338475
0.0265546
0.0150209
0.033478
0.0146914
0.0189497
0.0156022
0.0319557
0.0312119
0.0313761
0.0209765
0.0127173
0.0140627
0.022995
0.0281023
0.012713
0.0175194
0.0271004
0.0205358
0.0330891
0.016406
0.0270008
0.0245046
0.0236917
0.0151431
0.0193539
0.0215797
0.0308363
0.0180917
0.0279203
0.032337
0.0328527
0.0214961
0.0180454
0.017943
0.0281883
0.0236658
0.0179413
0.0118729
0.0175231
0.0174286
0.0301824
0.0182885
0.0184903
0.0200302
0.017822
0.0266072
0.0186653
0.0165272
0.0207715
0.019719
0.0236269
0.0263179
0.0253339
0.0215186
0.0252718
0.0194409
0.029282
0.0314276
0.0175223
0.0307829
0.0175151
0.0304011
0.0279474
0.0260904
0.0265597
0.0310529
0.0147294
0.0192949
0.0179424
0.03132
0.0308361
0.0285889
0.0311352
0.0317023
0.026625
0.0326493
0.0219078
0.0197724
0.0356453
0.0208225
0.0323754
0.0257902
0.0164653
0.0198032
0.0323068
0.0268842
0.0244796
0.0315366
0.0309345
0.0200171
0.0198476
0.019282
0.0274429
0.0302821
0.0348018
0.0334357
0.0363779
0.0329637
0.0360232
0.030224
0.03158
0.0318261
0.0300022
0.0315186
0.0290133
0.0285814
0.0202842
0.0272348
0.0318664
0.022136
0.0324645
0.0298235
0.0345494
0.0207878
0.0328566
0.0314085
0.020414
0.0281393
0.0202761
0.0316205
0.028868
0.021254
0.0200051
0.0173028
0.0199039
0.0316639
0.0145301
0.0244058
0.0199308
0.0223614
0.0328875
0.0318335
0.00998235
0.0319492
0.0174033
0.0188666
0.0327081
0.0265879
0.019089
0.0364924
0.0207597
0.00998237
0.0192925
0.0283894
0.0354373
0.0268675
0.0316068
0.0296014
0.0155377
0.0152302
0.0130278
0.0149571
0.0211767
0.0161978
0.0260936
0.016331
0.0280999
0.0200684
0.0193217
0.0225988
0.0210144
0.0279126
0.020151
0.0207371
0.00915052
0.0208901
0.0302167
0.0302382
0.0273884
0.0201121
0.0130948
0.038022
0.0255478
0.0213367
0.0196704
0.0195859
0.0202883
0.0247177
0.0199247
0.0142722
0.0196635
0.0134889
0.0243584
0.0200613
0.00852882
0.0188949
0.0223401
0.020062
0.0308685
0.0208336
0.0268654
0.0103065
0.0215642
0.0205993
0.0179884
0.0193383
0.0228194
0.0214773
0.0224599
0.0191013
0.0194018
0.0209518
0.0280066
0.0197575
0.0279902
0.0252674
0.0199406
0.0204971
0.0206936
0.0228877
0.0206594
0.0193443
0.021982
0.0230509
0.0272135
0.0206892
0.0205557
0.0297569
0.0293401
0.0197725
0.0199449
0.00891046
0.0240969
0.0167225
0.0226184
0.0100078
0.0103886
0.00928391
0.00943592
0.0100105
0.0105454
0.0108674
0.0253749
0.0187774
0.0189465
0.0216617
0.0211015
0.0208382
0.0220412
0.0203928
0.0208574
0.021204
0.0207609
0.0254901
0.0188766
0.0262017
0.0203882
0.0196818
0.0207871
0.0221781
0.0231753
0.0215917
0.0247271
0.0231018
0.0214231
0.0154493
0.0215467
0.021069
0.0226841
0.0217325
0.0205925
0.0195836
0.0215717
0.0225007
0.0305443
0.0201745
0.0296964
0.0309558
0.021198
0.0296575
0.0227515
0.0182256
0.0248253
0.0217598
0.0156699
0.0137666
0.0245095
0.0261044
0.0220998
0.0183719
0.0221015
0.0104813
0.0218501
0.0205017
0.0104697
0.00401125
0.00438795
0.0189269
0.0201829
0.0234406
0.0225336
0.00206224
0.00215483
0.0223154
0.0225481
0.0213441
0.00786745
0.0188854
0.0219539
0.0223858
0.0193101
0.0170439
0.00819307
0.0323312
0.0203094
0.0248147
0.0252026
0.0181122
0.0229227
0.0177088
0.0195409
0.00971096
0.014654
0.02295
0.0230917
0.0198465
0.0208448
0.0215104
0.0226806
0.0216936
0.0106965
0.0190342
0.021461
0.020284
0.0304392
0.0106944
0.0164752
0.0169699
0.0160818
0.0104551
0.0104558
0.0184238
0.0148769
0.0212765
0.0114473
0.0124855
0.00407654
0.00407653
0.00853855
0.0135551
0.00913234
0.0181284
0.0196062
0.0209242
0.0235766
0.0213849
0.0197987
0.015588
0.0096468
0.019572
0.0202765
0.019631
0.0108403
0.0100171
0.00780356
0.0196034
0.02
0.0160721
0.0181526
0.0167506
0.0153372
0.0205304
0.0153358
0.0181204
0.0174704
0.010709
0.0132214
0.0122958
0.0217094
0.00858663
0.00904567
0.0088493
0.0205021
0.00817602
0.00800747
0.0142651
0.00746834
0.0165994
0.0166245
0.00766628
0.0180783
0.0085096
0.00845915
0.00953004
0.00807071
0.00792388
0.0118229
0.00941857
0.0085593
0.00809577
0.0165521
0.0188918
0.00891124
0.0182694
0.00734199
0.0185332
0.0147247
0.00767046
0.00649472
0.00724602
0.00961442
0.0159162
0.0131025
0.00548122
0.00608418
0.0177433
0.00515961
0.00515956
0.00584641
0.00656244
0.00741821
0.00863203
0.0142739
0.0132122
0.0177556
0.00518388
0.00518385
0.015604
0.00641829
0.0126507
0.00581585
0.00585049
0.0077086
0.0133787
0.0138534
0.0147586
0.0135258
0.0133784
0.00292271
0.0215955
0.00372822
0.00361218
0.0174455
0.0173244
0.00374325
0.00259996
0.00366343
0.0160921
SCALARS rr_uec(PEX,_P_ext) float
LOOKUP_TABLE default
-0.061343
-0.139803
-0.111648
-0.145932
-0.0763085
-0.118498
-0.0606541
-0.145121
-0.124778
-0.157109
-0.0556737
-0.145566
-0.128101
-0.135293
-0.158512
-0.133057
-0.114438
-0.129373
-0.115882
-0.113295
-0.127444
-0.0226313
-0.130579
-0.120348
-0.109091
-0.125848
-0.0515782
-0.110542
-0.0867506
-0.102131
-0.113169
-0.0896784
-0.0571362
-0.0765257
-0.0752126
-0.0766981
-0.0992919
-0.0753658
-0.113054
-0.0642216
-0.0729168
-0.0875082
-0.0875174
-0.124203
-0.0716907
-0.0790972
-0.109053
-0.110433
-0.103488
-0.0990559
-0.101714
-0.078877
-0.122476
-0.101354
-0.112758
-0.0520049
-0.0803058
-0.102097
-0.0803032
-0.123509
-0.146084
-0.143173
-0.0507269
-0.100948
-0.137133
-0.12942
-0.141307
-0.122232
-0.112558
-0.160451
-0.132882
-0.131434
-0.0900932
-0.104759
-0.110962
-0.0589782
-0.114252
-0.128219
-0.123261
-0.087044
-0.0785493
-0.0861297
-0.163056
-0.0786582
-0.10606
-0.0393916
-0.127693
-0.106714
-0.0759208
-0.0111368
-0.0878245
-0.0121124
-0.0969461
-0.092903
-0.0831173
-0.0758083
-0.0721421
-0.137933
-0.114336
-0.110062
-0.0935057
-0.0897023
-0.0754732
-0.130641
-0.132804
-0.119592
-0.105177
-0.106693
-0.0801168
-0.159359
-0.102404
-0.054076
-0.0722708
-0.142978
-0.133942
-0.0978777
-0.0931231
-0.0599476
-0.0965885
-0.0974909
-0.0848006
-0.154516
-0.159331
-0.136862
-0.15057
-0.118135
-0.0668294
-0.148925
-0.0653391
-0.0842838
-0.0694125
-0.142153
-0.138849
-0.139575
-0.0932966
-0.0565812
-0.0625416
-0.102291
-0.125016
-0.0565621
-0.0779211
-0.120555
-0.0913444
-0.147195
-0.0729642
-0.12011
-0.109007
-0.105388
-0.0673609
-0.0860845
-0.0959902
-0.137174
-0.0804639
-0.1242
-0.143849
-0.146143
-0.0956258
-0.0802609
-0.0798055
-0.125392
-0.10527
-0.0797952
-0.0528009
-0.0779342
-0.0775174
-0.134264
-0.0813423
-0.0822395
-0.0890853
-0.0792674
-0.11837
-0.0830189
-0.0735048
-0.0924025
-0.0877055
-0.105108
-0.117083
-0.112696
-0.0957348
-0.11242
-0.0864646
-0.130259
-0.139804
-0.0779341
-0.13694
-0.0778984
-0.135242
-0.124328
-0.116072
-0.118149
-0.138141
-0.0655082
-0.0858193
-0.0797999
-0.139325
-0.13717
-0.127174
-0.138508
-0.141025
-0.118442
-0.145238
-0.0974477
-0.0879436
-0.158571
-0.0926097
-0.144025
-0.114729
-0.0732321
-0.0880988
-0.143715
-0.119601
-0.108897
-0.140288
-0.137616
-0.0890343
-0.0882924
-0.0857631
-0.122084
-0.134709
-0.154815
-0.148737
-0.161826
-0.146638
-0.160247
-0.13445
-0.140491
-0.141586
-0.133472
-0.140218
-0.129077
-0.127156
-0.0902218
-0.121153
-0.141753
-0.098465
-0.144427
-0.132678
-0.153689
-0.0924599
-0.146158
-0.139719
-0.0907997
-0.125184
-0.0901865
-0.140668
-0.128415
-0.0945363
-0.0889791
-0.0769526
-0.0885206
-0.14086
-0.0646208
-0.108566
-0.0886486
-0.0994652
-0.146296
-0.14161
-0.0444139
-0.142125
-0.0773994
-0.0839152
-0.145498
-0.118274
-0.0849038
-0.162335
-0.0923404
-0.044414
-0.0858097
-0.12629
-0.157645
-0.119517
-0.140611
-0.131684
-0.0691259
-0.0677497
-0.0579378
-0.0665168
-0.0942126
-0.0720515
-0.116075
-0.072639
-0.125009
-0.0892748
-0.0859396
-0.100531
-0.0934715
-0.124168
-0.089631
-0.0922347
-0.0407143
-0.0929366
-0.134427
-0.134522
-0.121836
-0.0894585
-0.0582599
-0.169143
-0.113642
-0.0949054
-0.0874929
-0.0871352
-0.0902407
-0.109965
-0.0886245
-0.0634704
-0.0874628
-0.0599909
-0.108362
-0.0892311
-0.037948
-0.0840438
-0.0993824
-0.0892338
-0.137321
-0.0926668
-0.119506
-0.0458345
-0.0959236
-0.0916239
-0.0800279
-0.0860147
-0.101505
-0.0955438
-0.0999117
-0.084962
-0.0862991
-0.0931948
-0.124592
-0.0878812
-0.124512
-0.112397
-0.0887142
-0.0911709
-0.0920462
-0.101809
-0.0918947
-0.086043
-0.0977775
-0.102547
-0.121056
-0.092027
-0.09143
-0.132372
-0.130518
-0.0879476
-0.0887332
-0.0396214
-0.107191
-0.0743719
-0.100612
-0.0444898
-0.0461828
-0.0412719
-0.0419476
-0.0445017
-0.0468798
-0.0483115
-0.112884
-0.0835414
-0.0842809
-0.0963551
-0.0938611
-0.0926898
-0.0980493
-0.0907084
-0.0927747
-0.0943371
-0.0923461
-0.113399
-0.0839585
-0.116564
-0.0906928
-0.0875484
-0.0924626
-0.0986677
-0.103091
-0.0960439
-0.109994
-0.102761
-0.0952909
-0.0687152
-0.0958433
-0.0937213
-0.100916
-0.0966681
-0.091596
-0.0871093
-0.0959546
-0.10009
-0.135875
-0.089738
-0.132103
-0.1377
-0.0942925
-0.131929
-0.101205
-0.0810686
-0.110437
-0.0967922
-0.0697154
-0.0612221
-0.109034
-0.116131
-0.0983068
-0.0817221
-0.0983193
-0.0466069
-0.0971956
-0.091196
-0.0465602
-0.0178476
-0.0195238
-0.0841931
-0.0897749
-0.104269
-0.100232
-0.00917635
-0.00958836
-0.0992678
-0.100303
-0.0949474
-0.0349839
-0.0840031
-0.0976643
-0.099576
-0.0858945
-0.0758141
-0.0364313
-0.143828
-0.0903375
-0.110384
-0.112109
-0.0805657
-0.101964
-0.0787716
-0.0869212
-0.0431846
-0.0651724
-0.102086
-0.102719
-0.0882816
-0.0927208
-0.0956826
-0.100889
-0.0964979
-0.0475689
-0.0846787
-0.0954601
-0.0902343
-0.135411
-0.0475595
-0.0732865
-0.075487
-0.0715466
-0.0465183
-0.0465214
-0.0819644
-0.0661732
-0.0946445
-0.0509074
-0.0555519
-0.0181391
-0.0181391
-0.0379674
-0.0603086
-0.0406317
-0.0806402
-0.0872242
-0.0930787
-0.104879
-0.0951326
-0.0880776
-0.0693417
-0.0428959
-0.087063
-0.0902008
-0.0873308
-0.0482053
-0.0445675
-0.0347033
-0.0872075
-0.0889695
-0.0714877
-0.0807492
-0.0745136
-0.0682339
-0.0913281
-0.0682279
-0.0806052
-0.0777193
-0.0476461
-0.0588245
-0.054681
-0.0965741
-0.0381816
-0.0402232
-0.0393491
-0.0912051
-0.0363558
-0.0356054
-0.0634533
-0.0332087
-0.0738511
-0.0739629
-0.0340891
-0.0804163
-0.0378423
-0.0376147
-0.0423797
-0.0358874
-0.0352372
-0.0526018
-0.0418848
-0.0380602
-0.0359989
-0.0736305
-0.0840436
-0.0396277
-0.0812698
-0.0326464
-0.0824441
-0.0654987
-0.0341075
-0.0288814
-0.0322199
-0.0427513
-0.0707996
-0.0582936
-0.0243892
-0.027072
-0.0789308
-0.0229581
-0.0229579
-0.0260141
-0.0291991
-0.0329894
-0.0384053
-0.0635023
-0.0587817
-0.0789853
-0.0230656
-0.0230654
-0.0694237
-0.0285393
-0.0562731
-0.0258608
-0.0260176
-0.0342807
-0.0595257
-0.0616379
-0.0656653
-0.0601802
-0.0595242
-0.0130048
-0.0960849
-0.0165886
-0.0160728
-0.0776204
-0.0770818
-0.0166561
-0.0115687
-0.0163004
-0.0715982
SCALARS cell_type float
LOOKUP_TABLE default
0
0
0
0
0
0
0
0
0
0
0
0
0
0
0
0
0
0
0
0
0
1
0
0
0
0
0
0
0
0
0
0
0
0
0
0
0
0
0
0
0
0
0
0
0
0
0
0
0
0
0
0
0
0
0
0
0
0
0
0
0
0
0
0
0
0
0
0
0
0
0
0
0
0
0
0
0
0
0
0
0
0
0
0
0
0
0
0
0
0
0
0
0
0
0
0
0
0
0
0
0
0
0
0
0
0
0
0
0
0
0
0
0
0
0
0
0
0
0
0
0
0
0
0
0
0
0
0
0
0
0
0
0
0
0
0
0
0
0
0
0
0
0
0
0
0
0
0
0
0
0
0
0
0
0
0
0
0
0
0
0
0
0
0
0
0
0
0
0
0
0
0
0
0
0
0
0
0
0
0
0
0
0
0
0
0
0
0
0
0
0
0
0
0
0
0
0
0
0
0
0
0
0
0
0
0
0
0
0
0
0
0
0
0
0
0
0
0
0
0
0
0
0
0
0
0
0
0
0
0
0
0
0
0
0
0
0
0
0
0
0
0
0
0
0
0
0
0
0
0
0
0
0
0
0
0
0
0
0
0
0
0
0
0
0
0
0
0
0
0
0
0
0
0
0
0
0
0
0
0
0
0
0
0
0
0
0
0
0
0
0
0
0
0
0
0
0
0
0
0
0
0
0
0
0
0
0
0
0
0
0
0
0
0
0
0
0
0
0
0
0
0
0
0
0
0
0
0
0
0
0
0
0
0
0
0
0
0
0
0
0
0
0
0
0
0
0
0
0
0
2
2
2
2
2
2
2
0
0
0
0
0
0
0
0
0
0
0
0
0
0
0
0
0
0
0
0
0
0
0
0
0
0
0
0
0
0
0
0
0
0
0
0
0
0
0
0
0
0
0
0
0
0
0
0
0
0
0
0
0
0
0
0
0
0
0
1
1
0
0
0
0
0
0
0
0
0
0
0
0
0
0
0
0
0
0
0
0
0
0
0
0
0
0
0
0
0
0
0
0
0
0
0
0
0
0
0
0
0
0
0
1
1
0
0
0
0
0
0
0
0
0
0
0
0
0
0
0
0
0
0
0
0
0
0
0
0
0
0
0
0
0
0
0
0
0
0
0
0
0
0
0
0
0
0
0
0
0
0
0
0
0
0
0
0
0
0
0
0
0
0
0
0
0
0
0
0
0
1
1
0
0
0
0
0
0
0
0
0
0
0
0
0
0
0
0
0
0
0
0
0
0
0
0
0
0
0
0
0
0
0
0
0
TENSORS Lagrange_strain float
0.030568 -0.0031983 1.45156e-07
-0.0031983 0.0133891 -6.12949e-08
1.45156e-07 -6.12949e-08 0.00740175

0.0291927 -0.00280083 7.43291e-08
-0.00280083 0.0335538 2.8152e-08
7.43291e-08 2.8152e-08 0.0331633

0.0300214 0.00367915 -2.70182e-08
0.00367915 0.0311694 6.51137e-08
-2.70182e-08 6.51137e-08 0.0304677

0.029162 -0.00392465 -2.31364e-07
-0.00392465 0.0327991 -7.49752e-08
-2.31364e-07 -7.49752e-08 0.0330882

0.0353672 0.00266928 2.14171e-08
0.00266928 0.0380855 -3.23047e-07
2.14171e-08 -3.23047e-07 0.0352922

0.0277352 -0.00236699 4.86263e-08
-0.00236699 0.0333838 -1.74947e-07
4.86263e-08 -1.74947e-07 0.0304388

0.030262 0.0033941 1.47427e-07
0.0033941 0.0134946 -1.58779e-07
1.47427e-07 -1.58779e-07 0.00746318

0.0317545 0.00393971 1.04857e-07
0.00393971 0.0311999 9.43567e-08
1.04857e-07 9.43567e-08 0.0315605

0.033242 0.000715323 -1.44146e-08
0.000715323 0.0262213 1.52104e-09
-1.44146e-08 1.52104e-09 0.0281419

0.0354674 -0.000991273 4.77795e-08
-0.000991273 0.0275511 1.6108e-07
4.77795e-08 1.6108e-07 0.0327209

0.0280613 0.00205114 -1.17739e-07
0.00205114 0.013809 2.30973e-07
-1.17739e-07 2.30973e-07 0.0117535

0.0279532 -0.0017656 8.85969e-08
-0.0017656 0.0350064 -4.84868e-08
8.85969e-08 -4.84868e-08 0.0315491

0.0311212 0.00365718 4.53529e-08
0.00365718 0.0313 1.84828e-07
4.53529e-08 1.84828e-07 0.0310794

0.0290691 -0.00188006 1.72229e-07
-0.00188006 0.0347992 1.02669e-07
1.72229e-07 1.02669e-07 0.0325464

0.0346317 0.0044185 -1.51046e-07
0.0044185 0.0343623 -4.57161e-08
-1.51046e-07 -4.57161e-08 0.0348846

0.0343275 7.31018e-05 1.80355e-07
7.31018e-05 0.0272859 -3.30172e-08
1.80355e-07 -3.30172e-08 0.0307783

0.0286928 -0.00235384 1.75597e-07
-0.00235384 0.0360136 1.13881e-07
1.75597e-07 1.13881e-07 0.03345

0.0345729 -0.000352941 1.81294e-07
-0.000352941 0.0273563 -6.42336e-09
1.81294e-07 -6.42336e-09 0.031977

0.0269199 0.00347825 -1.7037e-07
0.00347825 0.0309446 1.01656e-07
-1.7037e-07 1.01656e-07 0.0275765

0.0338845 -0.000550282 9.42093e-08
-0.000550282 0.0264092 -1.57286e-07
9.42093e-08 -1.57286e-07 0.0301341

0.026622 0.0011352 1.25588e-07
0.0011352 0.0340335 1.63172e-07
1.25588e-07 1.63172e-07 0.0291499

0.0452948 0.000852756 1.35118e-07
0.000852756 0.0452644 1.01012e-07
1.35118e-07 1.01012e-07 0.0366381

0.0336749 0.000247424 2.30412e-08
0.000247424 0.0263152 -2.43132e-09
2.30412e-08 -2.43132e-09 0.029805

0.0293096 -0.00363209 -2.05653e-08
-0.00363209 0.0311357 3.50324e-08
-2.05653e-08 3.50324e-08 0.0300466

0.0337797 0.000900079 1.52813e-07
0.000900079 0.0264963 3.35011e-08
1.52813e-07 3.35011e-08 0.0300811

0.0285459 0.0025075 -1.68556e-07
0.0025075 0.0338936 1.22553e-08
-1.68556e-07 1.22553e-08 0.0322869

0.0286296 0.000526746 1.17219e-07
0.000526746 0.0176897 -2.57046e-07
1.17219e-07 -2.57046e-07 0.0131713

0.0309141 0.00403458 1.15044e-07
0.00403458 0.0306462 2.94276e-08
1.15044e-07 2.94276e-08 0.0306106

0.0259246 0.0047764 -4.18719e-08
0.0047764 0.0257329 -2.56365e-08
-4.18719e-08 -2.56365e-08 0.021128

0.0415291 0.00137013 -6.22923e-08
0.00137013 0.0383502 -3.02424e-07
-6.22923e-08 -3.02424e-07 0.0361352

0.0344108 0.00187127 1.57361e-07
0.00187127 0.0279522 4.14183e-08
1.57361e-07 4.14183e-08 0.0309999

0.0217596 -0.00228778 -1.86655e-07
-0.00228778 0.0299922 -5.547e-08
-1.86655e-07 -5.547e-08 0.0211248

0.0228634 -0.00535246 -2.83055e-08
-0.00535246 0.0234729 -5.79291e-10
-2.83055e-08 -5.79291e-10 0.0125789

0.0348326 0.00080064 8.30633e-08
0.00080064 0.0422554 1.43047e-07
8.30633e-08 1.43047e-07 0.0357862

0.0374533 -0.000661817 7.72107e-08
-0.000661817 0.0412026 1.62267e-10
7.72107e-08 1.62267e-10 0.0359008

0.0410751 0.0028132 1.54882e-07
0.0028132 0.035986 2.20079e-07
1.54882e-07 2.20079e-07 0.0357665

0.0372539 0.000705402 5.78598e-08
0.000705402 0.043215 6.56577e-10
5.78598e-08 6.56577e-10 0.0361416

0.0402605 -0.00121862 -2.02089e-07
-0.00121862 0.0378303 2.26304e-08
-2.02089e-07 2.26304e-08 0.0358081

0.0312155 -0.00367778 -1.70714e-07
-0.00367778 0.0311232 2.598e-08
-1.70714e-07 2.598e-08 0.0309254

0.0227473 0.00527901 2.12908e-07
0.00527901 0.023709 -1.10438e-07
2.12908e-07 -1.10438e-07 0.012581

0.0297606 -0.00231567 1.67137e-07
-0.00231567 0.0220309 1.33099e-07
1.67137e-07 1.33099e-07 0.0208748

0.0376193 -0.000522975 1.0162e-07
-0.000522975 0.0430643 9.67509e-08
1.0162e-07 9.67509e-08 0.0361443

0.0412407 0.00263424 -2.23085e-07
0.00263424 0.0394151 8.2856e-08
-2.23085e-07 8.2856e-08 0.0361268

0.034301 -0.00161726 2.63605e-08
-0.00161726 0.0279944 1.29386e-07
2.63605e-08 1.29386e-07 0.0310839

0.0231056 -0.00552576 1.59961e-07
-0.00552576 0.0235625 -2.06373e-07
1.59961e-07 -2.06373e-07 0.016216

0.0299432 -0.00233228 2.38946e-07
-0.00233228 0.0221551 8.5043e-08
2.38946e-07 8.5043e-08 0.0213441

0.0258935 0.00222746 1.23699e-07
0.00222746 0.032654 1.66631e-07
1.23699e-07 1.66631e-07 0.0279152

0.0275506 0.00252879 -1.34643e-07
0.00252879 0.0323738 4.80914e-08
-1.34643e-07 4.80914e-08 0.0284907

0.0341754 -0.00214089 7.52915e-09
-0.00214089 0.0271071 1.11301e-07
7.52915e-09 1.11301e-07 0.0304721

0.0229024 -0.00439238 2.11049e-07
-0.00439238 0.0272487 6.70005e-08
2.11049e-07 6.70005e-08 0.0198502

0.0294938 0.00247155 2.02926e-07
0.00247155 0.0218341 -9.75055e-08
2.02926e-07 -9.75055e-08 0.0202808

0.0298722 -0.00327096 2.57109e-07
-0.00327096 0.0245134 6.41639e-09
2.57109e-07 6.41639e-09 0.0230481

0.0344776 0.00257768 6.73118e-08
0.00257768 0.0382033 1.50378e-08
6.73118e-08 1.50378e-08 0.0352709

0.0286892 0.00383857 1.31858e-07
0.00383857 0.0257795 -3.01732e-08
1.31858e-07 -3.01732e-08 0.0231167

0.0349284 -0.00291583 1.78343e-07
-0.00291583 0.0374327 8.14796e-08
1.78343e-07 8.14796e-08 0.0351892

0.0255802 -0.00545523 -6.49502e-08
-0.00545523 0.0229022 -1.16813e-07
-6.49502e-08 -1.16813e-07 0.0158195

0.0373469 0.000746191 1.45447e-07
0.000746191 0.0414128 2.2412e-08
1.45447e-07 2.2412e-08 0.0359213

0.0231675 -0.00069315 -6.21324e-08
-0.00069315 0.0313131 1.59171e-07
-6.21324e-08 1.59171e-07 0.0231027

0.0410299 0.00137991 -1.42046e-08
0.00137991 0.0377071 -6.99433e-08
-1.42046e-08 -6.99433e-08 0.0358995

0.0276756 0.0028051 -1.61482e-07
0.0028051 0.0327496 -4.72106e-08
-1.61482e-07 -4.72106e-08 0.0302311

0.036139 0.000784638 -8.36167e-09
0.000784638 0.0281316 -1.11779e-07
-8.36167e-09 -1.11779e-07 0.0336731

0.0362543 0.00153395 -1.37561e-08
0.00153395 0.0316932 -1.6504e-07
-1.37561e-08 -1.6504e-07 0.0342208

0.0286372 0.00405691 -1.27296e-07
0.00405691 0.0198973 1.87295e-07
-1.27296e-07 1.87295e-07 0.0137592

0.0309726 -0.000783987 -1.33906e-07
-0.000783987 0.0370848 -7.89751e-08
-1.33906e-07 -7.89751e-08 0.0338817

0.0315551 0.00124366 2.51295e-08
0.00124366 0.0364208 -4.11111e-08
2.51295e-08 -4.11111e-08 0.0342596

0.028549 -0.000375297 -9.23352e-08
-0.000375297 0.0369562 -1.57096e-08
-9.23352e-08 -1.57096e-08 0.0326707

0.0296025 0.00307127 -1.12429e-07
0.00307127 0.0347914 5.95884e-08
-1.12429e-07 5.95884e-08 0.033709

0.0347195 0.00112217 6.20362e-09
0.00112217 0.0278386 3.01582e-08
6.20362e-09 3.01582e-08 0.0322085

0.0291873 -0.00369889 -7.26191e-09
-0.00369889 0.0310211 -7.77355e-08
-7.26191e-09 -7.77355e-08 0.0299095

0.0350546 -0.000237077 3.68846e-08
-0.000237077 0.02758 1.60974e-07
3.68846e-08 1.60974e-07 0.0333932

0.0344524 -0.00254793 9.86207e-08
-0.00254793 0.0381336 -4.96185e-08
9.86207e-08 -4.96185e-08 0.035261

0.035011 0.00284947 -1.83447e-08
0.00284947 0.0375703 -6.9684e-08
-1.83447e-08 -6.9684e-08 0.0352408

0.0218886 -0.00213178 -2.41638e-07
-0.00213178 0.0299222 -2.53899e-08
-2.41638e-07 -2.53899e-08 0.0208513

0.034701 -0.00369082 1.16958e-07
-0.00369082 0.031958 2.83719e-08
1.16958e-07 2.83719e-08 0.033079

0.029292 -0.0032973 3.00128e-09
-0.0032973 0.0321123 -5.96613e-08
3.00128e-09 -5.96613e-08 0.0304333

0.0267797 -0.00401691 -1.28424e-07
-0.00401691 0.0176053 1.74528e-07
-1.28424e-07 1.74528e-07 0.0127259

0.0324042 0.000418549 -2.94191e-09
0.000418549 0.0381048 -5.22818e-08
-2.94191e-09 -5.22818e-08 0.0344058

0.034537 0.00381722 -2.55105e-08
0.00381722 0.0309416 1.74869e-07
-2.55105e-08 1.74869e-07 0.0326603

0.0283765 0.00258135 -1.97226e-07
0.00258135 0.034129 -5.06433e-08
-1.97226e-07 -5.06433e-08 0.0322138

0.0315417 0.00103786 -2.03711e-07
0.00103786 0.0228439 1.03075e-07
-2.03711e-07 1.03075e-07 0.0240692

0.0270971 -0.00435862 -1.1913e-07
-0.00435862 0.0237367 -2.31327e-07
-1.1913e-07 -2.31327e-07 0.0183235

0.0362602 -0.00140267 1.16149e-08
-0.00140267 0.0387428 -9.78916e-08
1.16149e-08 -9.78916e-08 0.0354012

0.031556 0.003171 8.72017e-08
0.003171 0.0344013 -4.93357e-08
8.72017e-08 -4.93357e-08 0.0340904

0.0273014 -0.00415602 -2.06739e-07
-0.00415602 0.0221749 -8.29287e-08
-2.06739e-07 -8.29287e-08 0.0184113

0.030358 0.00139112 1.00246e-07
0.00139112 0.0228304 9.67996e-08
1.00246e-07 9.67996e-08 0.0209545

0.0186021 -0.00269693 4.30023e-08
-0.00269693 0.0289284 1.10431e-07
4.30023e-08 1.10431e-07 0.015893

0.0272 0.00188897 5.85752e-08
0.00188897 0.03432 2.02818e-09
5.85752e-08 2.02818e-09 0.0306545

0.035382 0.00305674 1.84334e-07
0.00305674 0.03082 6.57095e-08
1.84334e-07 6.57095e-08 0.0327538

0.0226479 0.00538589 2.91032e-07
0.00538589 0.0240886 -2.14326e-08
2.91032e-07 -2.14326e-08 0.0161985

0.0459481 0.00223783 8.08669e-07
0.00223783 0.0417511 -5.13283e-07
8.08669e-07 -5.13283e-07 0.0366391

0.0230813 -0.000534368 -1.26612e-07
-0.000534368 0.031354 2.18304e-07
-1.26612e-07 2.18304e-07 0.0230725

0.0463635 -0.00225609 -5.94369e-07
-0.00225609 0.0412937 -9.43518e-08
-5.94369e-07 -9.43518e-08 0.0365942

0.0370656 -0.0036244 2.23218e-07
-0.0036244 0.0334909 3.66061e-09
2.23218e-07 3.66061e-09 0.0346209

0.0351375 0.00361925 1.58743e-07
0.00361925 0.0300039 1.60162e-07
1.58743e-07 1.60162e-07 0.0324564

0.0299618 -0.00315881 1.40596e-07
-0.00315881 0.0246904 2.39442e-07
1.40596e-07 2.39442e-07 0.0232859

0.0230123 0.00402976 9.54921e-08
0.00402976 0.0277788 -2.27514e-07
9.54921e-08 -2.27514e-07 0.020382

0.0210939 -0.00137846 -2.45012e-07
-0.00137846 0.0298951 1.02296e-07
-2.45012e-07 1.02296e-07 0.0182515

0.0287457 0.0028889 1.08018e-07
0.0028889 0.0342269 3.71703e-09
1.08018e-07 3.71703e-09 0.0326996

0.0370117 0.00223621 -8.03091e-08
0.00223621 0.0334522 -7.7294e-09
-8.03091e-08 -7.7294e-09 0.0343843

0.0281483 0.00198815 -1.89465e-07
0.00198815 0.0340599 -1.19676e-08
-1.89465e-07 -1.19676e-08 0.0308654

0.0318824 0.00207312 -2.21778e-07
0.00207312 0.025254 7.53493e-08
-2.21778e-07 7.53493e-08 0.0256174

0.0239076 -0.00277427 1.86479e-07
-0.00277427 0.0297649 1.95941e-08
1.86479e-07 1.95941e-08 0.0215615

0.0278985 -0.0037635 2.43445e-08
-0.0037635 0.0218152 1.21573e-07
2.43445e-08 1.21573e-07 0.0180759

0.0293315 -0.00323173 -2.11363e-07
-0.00323173 0.0326296 8.98047e-08
-2.11363e-07 8.98047e-08 0.0324028

0.0306261 0.00361468 -1.18723e-07
0.00361468 0.0322285 -5.42552e-08
-1.18723e-07 -5.42552e-08 0.0323706

0.0287079 0.00304808 -1.92016e-08
0.00304808 0.0340268 3.10189e-08
-1.92016e-08 3.10189e-08 0.0326301

0.0292068 0.00172513 7.40382e-10
0.00172513 0.0376171 -5.42012e-08
7.40382e-10 -5.42012e-08 0.033846

0.0344772 0.00123251 5.95393e-08
0.00123251 0.0275237 4.37785e-08
5.95393e-08 4.37785e-08 0.0306746

0.0199606 -0.000605224 -8.46037e-08
-0.000605224 0.0296605 -2.58765e-07
-8.46037e-08 -2.58765e-07 0.0181039

0.0297973 -0.00486313 7.45088e-08
-0.00486313 0.033049 -6.83907e-09
7.45088e-08 -6.83907e-09 0.0337415

0.0290812 0.00360004 7.51273e-08
0.00360004 0.0313593 1.8037e-07
7.51273e-08 1.8037e-07 0.0302639

0.0181055 0.000282938 -3.92603e-08
0.000282938 0.0293106 5.71561e-08
-3.92603e-08 5.71561e-08 0.0168784

0.0278434 0.0044237 -3.24152e-07
0.0044237 0.020968 3.32224e-08
-3.24152e-07 3.32224e-08 0.0174546

0.0291909 -0.00302045 -4.15563e-08
-0.00302045 0.0327028 -1.16178e-07
-4.15563e-08 -1.16178e-07 0.0321852

0.0352424 0.000759841 -1.82156e-08
0.000759841 0.0273385 7.63588e-08
-1.82156e-08 7.63588e-08 0.0325526

0.029427 0.00352011 8.92548e-10
0.00352011 0.0252011 1.55355e-07
8.92548e-10 1.55355e-07 0.0231111

0.0396362 0.00171009 2.46629e-07
0.00171009 0.0390391 2.33559e-07
2.46629e-07 2.33559e-07 0.0359399

0.0283749 0.00312325 -1.76773e-08
0.00312325 0.0224013 -4.87058e-08
-1.76773e-08 -4.87058e-08 0.0182863

0.0394888 -0.00175064 8.53561e-08
-0.00175064 0.0390654 -3.4216e-08
8.53561e-08 -3.4216e-08 0.035905

0.0232608 0.00010354 -1.75995e-07
0.00010354 0.0315175 1.44453e-07
-1.75995e-07 1.44453e-07 0.0231195

0.0327587 -0.000288583 -2.12329e-07
-0.000288583 0.0246599 -2.03555e-07
-2.12329e-07 -2.03555e-07 0.026966

0.0380541 -0.00212916 5.86467e-08
-0.00212916 0.0304635 -6.47631e-08
5.86467e-08 -6.47631e-08 0.0347931

0.0292382 0.003206 4.46416e-08
0.003206 0.0332775 -1.34237e-07
4.46416e-08 -1.34237e-07 0.0333426

0.0289503 -0.00177255 -3.8006e-09
-0.00177255 0.0366088 -4.34768e-08
-3.8006e-09 -4.34768e-08 0.0334994

0.0365829 -0.00108483 1.73862e-07
-0.00108483 0.0264761 -5.39221e-08
1.73862e-07 -5.39221e-08 0.0338598

0.0311801 -0.00292597 -1.30576e-07
-0.00292597 0.0383056 -1.49301e-07
-1.30576e-07 -1.49301e-07 0.0348434

0.0381648 -0.000885368 -1.15017e-07
-0.000885368 0.0387309 1.11544e-07
-1.15017e-07 1.11544e-07 0.0358351

0.0301797 -0.00393993 -7.40451e-08
-0.00393993 0.0327101 -1.16112e-07
-7.40451e-08 -1.16112e-07 0.032763

0.0213326 0.00146948 2.68979e-07
0.00146948 0.0296133 2.33308e-07
2.68979e-07 2.33308e-07 0.0182954

0.0293878 -0.00364563 1.53859e-07
-0.00364563 0.0253491 -2.30888e-07
1.53859e-07 -2.30888e-07 0.0231818

0.0328593 -0.00181693 -1.48322e-07
-0.00181693 0.0397176 -2.9543e-08
-1.48322e-07 -2.9543e-08 0.0352407

0.0350905 7.68192e-05 -5.74259e-09
7.68192e-05 0.0272218 7.74855e-08
-5.74259e-09 7.74855e-08 0.0332509

0.0308181 -0.00282898 1.29535e-09
-0.00282898 0.0348911 -5.20598e-08
1.29535e-09 -5.20598e-08 0.0340839

0.0295342 0.00338865 6.85232e-08
0.00338865 0.0328713 -1.46155e-07
6.85232e-08 -1.46155e-07 0.0333257

0.02646 -0.00406326 -1.50942e-07
-0.00406326 0.0272613 5.92511e-08
-1.50942e-07 5.92511e-08 0.0215842

0.0371723 -0.000958223 -3.76916e-07
-0.000958223 0.04161 6.70239e-08
-3.76916e-07 6.70239e-08 0.0358862

0.0227107 -0.00423753 1.50732e-07
-0.00423753 0.0272432 1.62177e-07
1.50732e-07 1.62177e-07 0.0168772

0.0341829 -0.00252494 7.72962e-09
-0.00252494 0.0286062 9.17555e-08
7.72962e-09 9.17555e-08 0.0310442

0.0364251 0.000290002 -2.70253e-08
0.000290002 0.0294372 -1.53501e-07
-2.70253e-08 -1.53501e-07 0.0341935

0.0396406 0.00239627 3.30972e-07
0.00239627 0.0391129 6.32185e-09
3.30972e-07 6.32185e-09 0.0358672

0.0238559 0.0026092 -4.04144e-08
0.0026092 0.0301512 2.2172e-08
-4.04144e-08 2.2172e-08 0.0217985

0.0334306 0.00358136 -2.26446e-08
0.00358136 0.0307147 6.42278e-08
-2.26446e-08 6.42278e-08 0.0317669

0.0316427 -0.00319439 -1.54709e-07
-0.00319439 0.0265516 -4.89898e-08
-1.54709e-07 -4.89898e-08 0.0269351

0.0289288 -0.00234081 3.48247e-08
-0.00234081 0.0342348 4.06848e-08
3.48247e-08 4.06848e-08 0.0326056

0.0262441 0.00450144 -1.23784e-07
0.00450144 0.0245574 -1.27433e-07
-1.23784e-07 -1.27433e-07 0.0180809

0.0284224 -0.0028667 4.87331e-08
-0.0028667 0.0340322 4.61981e-08
4.87331e-08 4.61981e-08 0.0324487

0.0331489 0.00405867 -4.07539e-08
0.00405867 0.0304644 1.20414e-07
-4.07539e-08 1.20414e-07 0.031542

0.0333343 -0.0033119 -1.27974e-07
-0.0033119 0.0283567 8.97854e-10
-1.27974e-07 8.97854e-10 0.0300455

0.0291607 -0.00329554 -5.99838e-08
-0.00329554 0.031987 -5.54791e-09
-5.99838e-08 -5.54791e-09 0.030437

0.0314549 -0.00242939 -1.52864e-07
-0.00242939 0.0247185 -5.12189e-08
-1.52864e-07 -5.12189e-08 0.025156

0.032955 -0.00246679 -9.7923e-08
-0.00246679 0.0267091 -4.2132e-08
-9.7923e-08 -4.2132e-08 0.0285963

0.029491 -0.00334195 -1.33375e-07
-0.00334195 0.0329502 -2.45003e-09
-1.33375e-07 -2.45003e-09 0.0334071

0.0261337 0.00463364 -2.55879e-07
0.00463364 0.025541 8.63774e-09
-2.55879e-07 8.63774e-09 0.0210922

0.0281497 0.00201668 -1.87022e-07
0.00201668 0.0343356 -4.12291e-08
-1.87022e-07 -4.12291e-08 0.0311091

0.0308862 0.00348118 2.0402e-08
0.00348118 0.0322552 -5.35701e-08
2.0402e-08 -5.35701e-08 0.0325999

0.0291571 0.00334817 3.89901e-08
0.00334817 0.0331912 1.5832e-07
3.89901e-08 1.5832e-07 0.0332602

0.0289838 0.00152273 1.69783e-09
0.00152273 0.0354702 -2.16254e-07
1.69783e-09 -2.16254e-07 0.0326953

0.0310524 -0.00106171 5.04837e-08
-0.00106171 0.0231412 -2.53641e-07
5.04837e-08 -2.53641e-07 0.0220777

0.0238837 0.00240562 7.78129e-08
0.00240562 0.0304103 -2.17591e-07
7.78129e-08 -2.17591e-07 0.0221127

0.0292132 -0.0032041 -4.94936e-09
-0.0032041 0.0326365 -2.77447e-08
-4.94936e-09 -2.77447e-08 0.0316182

0.0289872 0.0033568 -1.6351e-08
0.0033568 0.0309323 7.77231e-08
-1.6351e-08 7.77231e-08 0.0285678

0.0266123 -0.00459127 -1.06992e-07
-0.00459127 0.0252304 -2.48695e-07
-1.06992e-07 -2.48695e-07 0.0212565

0.0262776 0.00489329 -1.71142e-07
0.00489329 0.0209461 6.00701e-08
-1.71142e-07 6.00701e-08 0.0167622

0.0235027 -0.00428684 2.70632e-07
-0.00428684 0.0274643 1.13006e-07
2.70632e-07 1.13006e-07 0.0206262

0.0266715 -0.00402753 4.7678e-08
-0.00402753 0.0274824 1.01986e-07
4.7678e-08 1.01986e-07 0.0220499

0.0353649 -0.00090665 -9.1369e-08
-0.00090665 0.0273903 -4.90661e-08
-9.1369e-08 -4.90661e-08 0.0326549

0.026045 0.00392153 -1.40807e-07
0.00392153 0.0280922 1.27514e-07
-1.40807e-07 1.27514e-07 0.0221023

0.0307877 0.00171649 -1.28321e-07
0.00171649 0.0233601 2.85353e-09
-1.28321e-07 2.85353e-09 0.0220255

0.0214308 0.00172204 1.2463e-07
0.00172204 0.0302406 -2.08636e-07
1.2463e-07 -2.08636e-07 0.0211326

0.0242627 -0.00288947 1.98785e-07
-0.00288947 0.0299517 -4.33298e-08
1.98785e-07 -4.33298e-08 0.022086

0.0313459 -0.000131053 5.09773e-09
-0.000131053 0.0392741 1.15303e-07
5.09773e-09 1.15303e-07 0.0346711

0.0230583 0.000294708 -9.13467e-08
0.000294708 0.0314604 2.20563e-07
-9.13467e-08 2.20563e-07 0.0230622

0.0227769 0.00400142 -1.81936e-07
0.00400142 0.0281274 1.23943e-07
-1.81936e-07 1.23943e-07 0.020638

0.0288883 0.00158565 -1.33969e-07
0.00158565 0.0358329 -3.74566e-08
-1.33969e-07 -3.74566e-08 0.0328938

0.0293158 -0.00358007 -3.62105e-08
-0.00358007 0.0251294 -6.16681e-08
-3.62105e-08 -6.16681e-08 0.0232397

0.0369769 0.00273282 -7.54937e-08
0.00273282 0.0297234 -1.22896e-07
-7.54937e-08 -1.22896e-07 0.033802

0.0371763 0.00348316 2.85251e-08
0.00348316 0.0334232 1.03517e-08
2.85251e-08 1.03517e-08 0.0346525

0.0345442 -0.00244662 -1.86233e-08
-0.00244662 0.02853 1.2767e-08
-1.86233e-08 1.2767e-08 0.0313791

0.0390566 -0.00026568 -5.3505e-08
-0.00026568 0.0339253 -2.78746e-07
-5.3505e-08 -2.78746e-07 0.0352086

0.0314796 -0.00418743 1.28705e-07
-0.00418743 0.0317818 -2.1984e-07
1.28705e-07 -2.1984e-07 0.0321566

0.029462 0.00300743 -8.26706e-08
0.00300743 0.0223273 -6.02172e-08
-8.26706e-08 -6.02172e-08 0.0210666

0.0302301 0.00397296 6.9609e-08
0.00397296 0.0326637 -1.44001e-07
6.9609e-08 -1.44001e-07 0.0327203

0.0302774 0.00384678 -1.09226e-07
0.00384678 0.0326076 -7.24045e-08
-1.09226e-07 -7.24045e-08 0.0326751

0.0262443 0.00396163 -1.31799e-07
0.00396163 0.0277676 -2.37272e-07
-1.31799e-07 -2.37272e-07 0.0218649

0.0344504 0.00357653 5.68074e-08
0.00357653 0.0317801 6.02455e-08
5.68074e-08 6.02455e-08 0.0328319

0.0302485 0.000452463 -1.26491e-07
0.000452463 0.0204284 6.32038e-09
-1.26491e-07 6.32038e-09 0.0205734

0.0331863 0.00420071 -6.82533e-08
0.00420071 0.0323734 -6.22397e-08
-6.82533e-08 -6.22397e-08 0.0334842

0.0305013 -0.00165448 -7.08589e-08
-0.00165448 0.0366164 -4.66002e-08
-7.08589e-08 -4.66002e-08 0.0336632

0.0373607 0.00323291 -2.17871e-07
0.00323291 0.0334603 -7.29146e-08
-2.17871e-07 -7.29146e-08 0.0346646

0.0307374 -0.00389603 -1.66067e-07
-0.00389603 0.0322733 9.97112e-08
-1.66067e-07 9.97112e-08 0.0326806

0.0293743 -0.000644801 1.79914e-07
-0.000644801 0.0369035 7.78293e-09
1.79914e-07 7.78293e-09 0.0328483

0.0288127 -0.00315236 -8.4296e-08
-0.00315236 0.0221401 8.1861e-08
-8.4296e-08 8.1861e-08 0.0187591

0.0290027 0.00384444 -3.29993e-08
0.00384444 0.0255781 3.16695e-09
-3.29993e-08 3.16695e-09 0.023073

0.0217015 0.00189098 1.83215e-08
0.00189098 0.0300615 2.62527e-08
1.83215e-08 2.62527e-08 0.0210839

0.0349906 -0.000161518 -1.57733e-07
-0.000161518 0.02739 -4.90818e-08
-1.57733e-07 -4.90818e-08 0.0333019

0.0344201 2.59828e-07 -8.95208e-08
2.59828e-07 0.027275 -5.23668e-08
-8.95208e-08 -5.23668e-08 0.0320415

0.0291661 0.00303976 1.63223e-07
0.00303976 0.0326804 -8.42873e-08
1.63223e-07 -8.42873e-08 0.0321331

0.0314501 0.00316625 -6.16899e-08
0.00316625 0.0342505 -5.04307e-08
-6.16899e-08 -5.04307e-08 0.0340585

0.0291691 -0.00320416 -3.50488e-08
-0.00320416 0.0332389 1.75371e-07
-3.50488e-08 1.75371e-07 0.0333794

0.0287741 -8.56006e-05 -6.59997e-08
-8.56006e-05 0.036705 -7.66486e-08
-6.59997e-08 -7.66486e-08 0.0325261

0.0294646 0.00337582 1.37186e-08
0.00337582 0.0330752 1.16229e-07
1.37186e-08 1.16229e-07 0.0333551

0.0328596 -0.00134662 4.35269e-08
-0.00134662 0.025362 1.69371e-07
4.35269e-08 1.69371e-07 0.0278292

0.0263551 -0.00425457 -6.77607e-08
-0.00425457 0.0281801 -7.86993e-08
-6.77607e-08 -7.86993e-08 0.0242678

0.036298 -0.000331555 -6.04024e-08
-0.000331555 0.0293834 1.35389e-07
-6.04024e-08 1.35389e-07 0.0340284

0.0267812 -0.00444554 -2.21789e-07
-0.00444554 0.0251905 -5.52844e-08
-2.21789e-07 -5.52844e-08 0.0209494

0.0308999 0.00250715 -7.08921e-08
0.00250715 0.0350639 1.31107e-07
-7.08921e-08 1.31107e-07 0.0340682

0.0351134 -0.00349691 3.01255e-08
-0.00349691 0.0303887 -5.89887e-08
3.01255e-08 -5.89887e-08 0.0326151

0.030502 -0.0012498 6.90129e-08
-0.0012498 0.0229786 -9.52538e-08
6.90129e-08 -9.52538e-08 0.0214786

0.0371485 -0.00307682 1.37152e-07
-0.00307682 0.0316537 2.47413e-08
1.37152e-07 2.47413e-08 0.0339883

0.0349697 0.000321973 -2.44213e-07
0.000321973 0.0275551 3.49416e-08
-2.44213e-07 3.49416e-08 0.0334303

0.0358434 -0.00308843 2.5824e-08
-0.00308843 0.0332585 -3.21256e-08
2.5824e-08 -3.21256e-08 0.0341439

0.034929 -0.00341055 1.43845e-07
-0.00341055 0.0295953 -3.04134e-08
1.43845e-07 -3.04134e-08 0.0321785

0.0349099 -0.00113379 1.93692e-08
-0.00113379 0.0278504 1.30502e-07
1.93692e-08 1.30502e-07 0.0323418

0.0314903 -0.00306248 9.47196e-08
-0.00306248 0.0344488 9.98363e-08
9.47196e-08 9.98363e-08 0.0341469

0.0292358 -0.004071 -1.40211e-07
-0.004071 0.0269001 1.9501e-07
-1.40211e-07 1.9501e-07 0.0253465

0.034993 -0.00324366 1.47069e-07
-0.00324366 0.0299155 -1.77126e-08
1.47069e-07 -1.77126e-08 0.0321957

0.0314627 0.00140905 6.88098e-08
0.00140905 0.0233273 1.2859e-08
6.88098e-08 1.2859e-08 0.024484

0.033665 0.00348415 -1.08276e-07
0.00348415 0.0334446 -2.78665e-10
-1.08276e-07 -2.78665e-10 0.0336504

0.0298933 -0.00496723 3.85751e-08
-0.00496723 0.0330789 -9.29507e-09
3.85751e-08 -9.29507e-09 0.0338576

0.0300436 0.00492045 -7.06167e-09
0.00492045 0.0329406 1.17178e-07
-7.06167e-09 1.17178e-07 0.0338245

0.0276884 -0.00374187 7.47116e-08
-0.00374187 0.0348072 2.87576e-08
7.47116e-08 2.87576e-08 0.033767

0.0279264 0.003547 1.06264e-07
0.003547 0.0348356 6.90283e-08
1.06264e-07 6.90283e-08 0.0337319

0.03643 -0.00115371 -1.65168e-07
-0.00115371 0.0263423 -3.59447e-08
-1.65168e-07 -3.59447e-08 0.0337583

0.0361986 0.0012476 -5.52554e-08
0.0012476 0.0265636 -3.95377e-08
-5.52554e-08 -3.95377e-08 0.033721

0.0350351 -0.00130673 -2.38213e-09
-0.00130673 0.0284684 4.2747e-08
-2.38213e-09 4.2747e-08 0.0325761

0.0344371 0.0042591 -2.8789e-08
0.0042591 0.0342895 -4.98625e-08
-2.8789e-08 -4.98625e-08 0.0348129

0.0343123 -0.00435711 1.30147e-07
-0.00435711 0.0342815 -2.33919e-09
1.30147e-07 -2.33919e-09 0.0348012

0.0305212 0.00209348 -1.01044e-08
0.00209348 0.0381657 1.12844e-08
-1.01044e-08 1.12844e-08 0.0348501

0.0306645 -0.00205952 5.25745e-09
-0.00205952 0.0380952 -4.5087e-08
5.25745e-09 -4.5087e-08 0.0348374

0.0395024 -0.000528914 6.70971e-08
-0.000528914 0.0328495 1.14825e-08
6.70971e-08 1.14825e-08 0.0352582

0.039705 0.000513511 1.4505e-07
0.000513511 0.0326224 -2.03133e-08
1.4505e-07 -2.03133e-08 0.0353034

0.0239654 0.00127603 -1.53741e-07
0.00127603 0.0320037 1.06685e-07
-1.53741e-07 1.06685e-07 0.0251846

0.0311627 -0.00326519 7.17193e-08
-0.00326519 0.0322413 1.2585e-07
7.17193e-08 1.2585e-07 0.0328022

0.02778 -0.0047859 -3.48667e-08
-0.0047859 0.0333123 1.7538e-07
-3.48667e-08 1.7538e-07 0.0334556

0.0333594 -0.000610205 -1.50569e-07
-0.000610205 0.0264034 -1.74043e-07
-1.50569e-07 -1.74043e-07 0.0284486

0.038188 -0.00225196 1.06776e-07
-0.00225196 0.0307948 7.91623e-08
1.06776e-07 7.91623e-08 0.0348931

0.0382362 0.00218406 1.00064e-07
0.00218406 0.0309081 4.67791e-08
1.00064e-07 4.67791e-08 0.0349252

0.0360842 1.56194e-05 -1.37569e-07
1.56194e-05 0.0251262 -1.5452e-07
-1.37569e-07 -1.5452e-07 0.0334707

0.0242412 0.00302897 4.17067e-08
0.00302897 0.030398 1.72552e-07
4.17067e-08 1.72552e-07 0.0242773

0.0276746 0.00475653 -1.15659e-07
0.00475653 0.0333127 1.51817e-07
-1.15659e-07 1.51817e-07 0.0333935

0.028675 -0.00307578 4.32219e-08
-0.00307578 0.0342616 4.05375e-08
4.32219e-08 4.05375e-08 0.0327528

0.0310861 0.00303575 7.91207e-08
0.00303575 0.025147 1.5972e-07
7.91207e-08 1.5972e-07 0.0254675

0.0372284 0.00316564 -1.19335e-07
0.00316564 0.0315411 2.85009e-08
-1.19335e-07 2.85009e-08 0.0340762

0.0292272 -0.00406741 3.96168e-08
-0.00406741 0.0269361 -1.84457e-07
3.96168e-08 -1.84457e-07 0.0253217

0.0364017 -0.000453687 1.80286e-07
-0.000453687 0.0296919 -4.12833e-08
1.80286e-07 -4.12833e-08 0.0341314

0.0273449 -0.00449466 -1.78729e-07
-0.00449466 0.0333959 -9.29038e-08
-1.78729e-07 -9.29038e-08 0.0334422

0.0240381 0.00107904 -2.68081e-07
0.00107904 0.0322445 -4.36035e-08
-2.68081e-07 -4.36035e-08 0.0255062

0.02423 0.00282655 1.03029e-07
0.00282655 0.0307018 -1.67705e-07
1.03029e-07 -1.67705e-07 0.0245452

0.0267928 0.0045944 -2.86863e-07
0.0045944 0.0240421 -3.733e-08
-2.86863e-07 -3.733e-08 0.0182138

0.0298511 0.000199793 4.3172e-08
0.000199793 0.0200886 -5.63501e-08
4.3172e-08 -5.63501e-08 0.0193626

0.0319091 -0.0030239 7.95946e-08
-0.0030239 0.0341629 5.23139e-12
7.95946e-08 5.23139e-12 0.034036

0.0229187 0.00399957 -2.69021e-07
0.00399957 0.0276605 -3.42452e-08
-2.69021e-07 -3.42452e-08 0.0176532

0.0292104 0.00310081 1.93429e-07
0.00310081 0.0327638 -3.81078e-08
1.93429e-07 -3.81078e-08 0.0310127

0.031595 -0.000694451 1.68786e-07
-0.000694451 0.0231603 -2.51096e-07
1.68786e-07 -2.51096e-07 0.0244851

0.0327617 0.00146459 -3.96446e-08
0.00146459 0.0253471 6.06674e-08
-3.96446e-08 6.06674e-08 0.0276133

0.0359788 5.60026e-05 -4.88588e-08
5.60026e-05 0.0249593 1.47322e-07
-4.88588e-08 1.47322e-07 0.0333867

0.0279663 -0.00380532 -1.59391e-07
-0.00380532 0.0349492 -4.74552e-08
-1.59391e-07 -4.74552e-08 0.0338164

0.0393148 -0.0008437 2.23082e-07
-0.0008437 0.0416019 1.76199e-08
2.23082e-07 1.76199e-08 0.0361904

0.0298683 0.00493889 -6.76064e-09
0.00493889 0.0329569 -1.48302e-07
-6.76064e-09 -1.48302e-07 0.0337795

0.0302887 0.000214531 -2.29485e-07
0.000214531 0.0203971 -4.77733e-10
-2.29485e-07 -4.77733e-10 0.0172763

0.0266742 -0.00425049 5.43067e-08
-0.00425049 0.0281334 9.26154e-08
5.43067e-08 9.26154e-08 0.0244378

0.0277468 0.00481577 1.55611e-07
0.00481577 0.0333154 -1.32949e-07
1.55611e-07 -1.32949e-07 0.0334558

0.0279454 -0.00145874 -1.20011e-07
-0.00145874 0.0350855 -7.53091e-08
-1.20011e-07 -7.53091e-08 0.0314507

0.0244653 -0.00330505 1.00742e-07
-0.00330505 0.0300158 1.59869e-07
1.00742e-07 1.59869e-07 0.0242174

0.0279914 0.00377962 -1.13656e-07
0.00377962 0.034911 1.33848e-07
-1.13656e-07 1.33848e-07 0.0337872

0.0313622 -0.00340945 -4.21586e-08
-0.00340945 0.0270091 2.04917e-07
-4.21586e-08 2.04917e-07 0.0269917

0.0402798 0.00140908 6.18176e-08
0.00140908 0.0406178 -2.22711e-07
6.18176e-08 -2.22711e-07 0.0361708

0.0258814 0.00400282 -1.90534e-07
0.00400282 0.028955 3.62928e-08
-1.90534e-07 3.62928e-08 0.0245114

0.0366783 0.00110288 -1.95255e-07
0.00110288 0.0263527 1.04253e-07
-1.95255e-07 1.04253e-07 0.0338982

0.0333422 0.00398403 7.17692e-08
0.00398403 0.032116 -7.50347e-08
7.17692e-08 -7.50347e-08 0.0333161

0.0292287 0.00306721 8.87092e-08
0.00306721 0.032606 -1.43304e-07
8.87092e-08 -1.43304e-07 0.0321582

0.034365 -0.0043107 -1.22932e-07
-0.0043107 0.0345053 1.04971e-07
-1.22932e-07 1.04971e-07 0.0348854

0.0354901 -0.0030634 -2.28816e-08
-0.0030634 0.0305905 -1.67083e-07
-2.28816e-08 -1.67083e-07 0.0327509

0.0333669 0.00138775 2.29956e-07
0.00138775 0.0395779 -2.65134e-08
2.29956e-07 -2.65134e-08 0.035003

0.0291974 -0.00307945 -6.76061e-08
-0.00307945 0.0328743 -7.44955e-08
-6.76061e-08 -7.44955e-08 0.0313838

0.0292656 -0.00123225 -1.63278e-07
-0.00123225 0.0192873 -1.17655e-07
-1.63278e-07 -1.17655e-07 0.0164124

0.0287789 -0.00183242 -1.4657e-07
-0.00183242 0.0184142 1.71501e-07
-1.4657e-07 1.71501e-07 0.0161973

0.03853 0.00220197 -2.53254e-07
0.00220197 0.0332396 -6.98821e-09
-2.53254e-07 -6.98821e-09 0.0347634

0.0280563 0.00294509 -1.46089e-07
0.00294509 0.0323359 -1.64166e-08
-1.46089e-07 -1.64166e-08 0.0295187

0.0320679 0.00383439 3.75588e-08
0.00383439 0.0309613 1.79883e-07
3.75588e-08 1.79883e-07 0.031455

0.0320505 8.97882e-05 -4.98511e-08
8.97882e-05 0.0245774 -2.23115e-07
-4.98511e-08 -2.23115e-07 0.0248885

0.0302382 0.000866119 1.78504e-07
0.000866119 0.0385813 3.24407e-09
1.78504e-07 3.24407e-09 0.0340969

0.0354025 0.00219136 -7.36547e-08
0.00219136 0.0293236 -1.36828e-07
-7.36547e-08 -1.36828e-07 0.0328588

0.0248119 -0.00333895 1.85145e-07
-0.00333895 0.0300066 -2.12561e-08
1.85145e-07 -2.12561e-08 0.0244705

0.0286511 -0.000337792 -1.72443e-07
-0.000337792 0.0366578 -8.68416e-08
-1.72443e-07 -8.68416e-08 0.0323964

0.0252158 0.00173998 7.87955e-08
0.00173998 0.0320304 1.13714e-07
7.87955e-08 1.13714e-07 0.0256845

0.0332812 -0.00390951 1.32113e-07
-0.00390951 0.0304974 -1.57657e-07
1.32113e-07 -1.57657e-07 0.031593

0.0290655 -0.00389614 9.72013e-08
-0.00389614 0.0282009 -7.33303e-08
9.72013e-08 -7.33303e-08 0.0257141

0.0261497 0.00409901 -8.55707e-09
0.00409901 0.028547 -1.97815e-08
-8.55707e-09 -1.97815e-08 0.0243186

0.0452883 -0.00201686 2.93679e-07
-0.00201686 0.039606 -1.18302e-07
2.93679e-07 -1.18302e-07 0.0363674

0.0316673 0.000256398 3.21293e-08
0.000256398 0.0393277 -5.05728e-08
3.21293e-08 -5.05728e-08 0.0347697

0.0306171 0.00265113 1.73615e-08
0.00265113 0.0384436 -1.31121e-08
1.73615e-08 -1.31121e-08 0.0349582

0.0387665 0.0020949 1.12825e-07
0.0020949 0.0302223 -3.59845e-08
1.12825e-07 -3.59845e-08 0.0349431

0.0313714 -0.00345058 -1.0603e-07
-0.00345058 0.032141 1.92168e-07
-1.0603e-07 1.92168e-07 0.0325733

0.0318186 0.00233621 1.15309e-07
0.00233621 0.0256209 1.06637e-07
1.15309e-07 1.06637e-07 0.0258802

0.0349942 -0.00070844 2.00085e-07
-0.00070844 0.0415759 3.18689e-08
2.00085e-07 3.18689e-08 0.0357282

0.0357887 -0.00251856 1.86655e-08
-0.00251856 0.0295507 1.32283e-07
1.86655e-08 1.32283e-07 0.0332586

0.0332977 -0.00203952 -9.85734e-08
-0.00203952 0.0266533 -4.37796e-08
-9.85734e-08 -4.37796e-08 0.0286759

0.0252527 0.00151094 2.02283e-08
0.00151094 0.0322749 -3.29266e-08
2.02283e-08 -3.29266e-08 0.0259506

0.0268052 -0.00334475 5.85749e-08
-0.00334475 0.0300101 1.58519e-07
5.85749e-08 1.58519e-07 0.0251878

0.0364786 -0.00336028 1.78986e-07
-0.00336028 0.0352881 -5.63855e-08
1.78986e-07 -5.63855e-08 0.0347428

0.0284761 0.0041524 7.76039e-08
0.0041524 0.0277167 -1.32951e-07
7.76039e-08 -1.32951e-07 0.0254683

0.0372444 -0.00334531 8.50405e-09
-0.00334531 0.0333225 1.62365e-08
8.50405e-09 1.62365e-08 0.0346122

0.0322066 0.000337921 2.00774e-07
0.000337921 0.0248631 -1.89452e-07
2.00774e-07 -1.89452e-07 0.0254381

0.0191613 -0.00368911 -2.33584e-07
-0.00368911 0.0275263 1.20172e-07
-2.33584e-07 1.20172e-07 0.0163111

0.0292105 -0.00380371 -1.97255e-07
-0.00380371 0.028193 7.0241e-08
-1.97255e-07 7.0241e-08 0.0258082

0.0230463 0.00412748 2.5948e-07
0.00412748 0.0280206 6.8952e-08
2.5948e-07 6.8952e-08 0.0175924

0.0296915 -0.00155938 -5.90793e-08
-0.00155938 0.0375338 -9.70117e-08
-5.90793e-08 -9.70117e-08 0.033649

0.0243605 -0.0017937 1.80055e-07
-0.0017937 0.0318731 -2.13727e-07
1.80055e-07 -2.13727e-07 0.0254484

0.0424371 -0.00323453 4.01342e-07
-0.00323453 0.0423765 4.33342e-08
4.01342e-07 4.33342e-08 0.0363757

0.026337 0.003091 -6.21124e-08
0.003091 0.030702 -1.679e-07
-6.21124e-08 -1.679e-07 0.0254782

0.0334774 -0.00432395 4.07508e-08
-0.00432395 0.0326598 -2.6401e-08
4.07508e-08 -2.6401e-08 0.0335669

0.0240809 -0.00155085 5.59846e-08
-0.00155085 0.0318874 -9.65286e-08
5.59846e-08 -9.65286e-08 0.0251772

0.0362233 -0.00253876 5.79382e-08
-0.00253876 0.0295116 -4.65572e-08
5.79382e-08 -4.65572e-08 0.0335197

0.0266739 0.00310488 -1.28434e-07
0.00310488 0.0303949 1.75444e-07
-1.28434e-07 1.75444e-07 0.0253135

0.0343431 -0.000653722 3.53919e-08
-0.000653722 0.0272771 -2.66628e-08
3.53919e-08 -2.66628e-08 0.0305779

0.0188907 -0.00387158 -1.80186e-07
-0.00387158 0.0298019 -1.4489e-09
-1.80186e-07 -1.4489e-09 0.0129614

0.0279994 0.00275455 -1.55317e-07
0.00275455 0.0326293 -8.35252e-08
-1.55317e-07 -8.35252e-08 0.0305739

0.0314379 -0.0025123 -4.64681e-08
-0.0025123 0.0247224 2.35154e-07
-4.64681e-08 2.35154e-07 0.0254062

0.0391182 -0.00286941 8.06906e-08
-0.00286941 0.0322217 -2.34949e-07
8.06906e-08 -2.34949e-07 0.0349371

0.0287533 0.00412402 7.35936e-08
0.00412402 0.0273002 1.88338e-07
7.35936e-08 1.88338e-07 0.0252556

0.0313615 -0.00391914 3.29247e-09
-0.00391914 0.0285422 1.36858e-07
3.29247e-09 1.36858e-07 0.0287311

0.0354082 0.00276396 2.87311e-07
0.00276396 0.0308558 9.02229e-08
2.87311e-07 9.02229e-08 0.0330393

0.0297728 -0.00370367 -7.15879e-08
-0.00370367 0.0329377 1.7428e-10
-7.15879e-08 1.7428e-10 0.0333425

0.0270552 -0.00341021 -6.7773e-09
-0.00341021 0.0299825 -3.60213e-08
-6.7773e-09 -3.60213e-08 0.0253975

0.0284408 0.00377128 -3.80859e-08
0.00377128 0.0289399 4.06451e-08
-3.80859e-08 4.06451e-08 0.0258873

0.0313714 0.00341325 1.46184e-07
0.00341325 0.0268995 1.22713e-07
1.46184e-07 1.22713e-07 0.026966

0.0365363 -0.0019443 5.29095e-08
-0.0019443 0.0306252 -5.72475e-08
5.29095e-08 -5.72475e-08 0.0336355

0.0255336 -0.00216323 8.69781e-08
-0.00216323 0.0318018 -2.21727e-07
8.69781e-08 -2.21727e-07 0.0258537

0.0346995 -0.00231407 -5.50029e-09
-0.00231407 0.0283342 4.24918e-08
-5.50029e-09 4.24918e-08 0.0314557

0.034186 0.00222291 1.28475e-07
0.00222291 0.0274317 9.69823e-08
1.28475e-07 9.69823e-08 0.0306037

0.0336448 -0.00124593 7.12521e-08
-0.00124593 0.0392998 1.14557e-07
7.12521e-08 1.14557e-07 0.0349272

0.032072 -0.0017468 -8.38368e-08
-0.0017468 0.0253302 1.63779e-07
-8.38368e-08 1.63779e-07 0.025871

0.0250017 7.97421e-05 -4.08054e-08
7.97421e-05 0.0331514 -7.75008e-08
-4.08054e-08 -7.75008e-08 0.0268611

0.0332469 0.00242873 7.29146e-08
0.00242873 0.0271936 2.41901e-07
7.29146e-08 2.41901e-07 0.0289219

0.0311175 0.00359886 6.03648e-08
0.00359886 0.0272924 1.21858e-07
6.03648e-08 1.21858e-07 0.0271224

0.0252952 -0.0020411 -4.07798e-08
-0.0020411 0.0318641 -9.87994e-08
-4.07798e-08 -9.87994e-08 0.0256109

0.0252009 -0.000154657 -1.28822e-07
-0.000154657 0.0332916 -2.5814e-07
-1.28822e-07 -2.5814e-07 0.0271439

0.0354128 0.00385803 1.11551e-07
0.00385803 0.0329956 -3.60231e-08
1.11551e-07 -3.60231e-08 0.0338952

0.0275854 -0.00143097 1.03808e-07
-0.00143097 0.0353418 1.69367e-07
1.03808e-07 1.69367e-07 0.0314418

0.0312338 -0.00348389 -1.42191e-08
-0.00348389 0.0269774 -1.86794e-07
-1.42191e-08 -1.86794e-07 0.0270096

0.0312965 0.00277241 -6.9589e-08
0.00277241 0.024922 -2.47087e-07
-6.9589e-08 -2.47087e-07 0.025246

0.0345827 0.00311824 5.54313e-09
0.00311824 0.0293864 -1.3052e-07
5.54313e-09 -1.3052e-07 0.0317955

0.0279911 0.000716654 4.43979e-08
0.000716654 0.0360394 2.52781e-08
4.43979e-08 2.52781e-08 0.0318178

0.0287161 0.00378139 1.99903e-07
0.00378139 0.028559 -2.41175e-08
1.99903e-07 -2.41175e-08 0.0257277

0.0367905 0.00305737 -7.32361e-08
0.00305737 0.036125 1.89821e-07
-7.32361e-08 1.89821e-07 0.0349068

0.02268 -0.00754529 -3.59106e-08
-0.00754529 0.0186876 -1.74799e-07
-3.59106e-08 -1.74799e-07 0.010845

0.0332909 -0.0032873 -6.31703e-08
-0.0032873 0.0286323 1.31627e-07
-6.31703e-08 1.31627e-07 0.0301237

0.0207266 0.000913317 -1.27678e-07
0.000913317 0.0300309 -2.6425e-07
-1.27678e-07 -2.6425e-07 0.0183462

0.0312999 -0.00378166 -1.29743e-07
-0.00378166 0.0292309 -1.00993e-07
-1.29743e-07 -1.00993e-07 0.0290313

0.00153955 -0.00651873 -1.58872e-08
-0.00651873 0.0275682 6.96064e-08
-1.58872e-08 6.96064e-08 0.00290831

0.00146994 0.00636829 1.10975e-08
0.00636829 0.027586 4.86214e-08
1.10975e-08 4.86214e-08 0.00300126

0.0119845 0.0145048 -4.19924e-08
0.0145048 0.0175323 -5.26568e-08
-4.19924e-08 -5.26568e-08 0.00277118

0.0121659 -0.0144955 -4.95764e-08
-0.0144955 0.0172238 6.21668e-08
-4.95764e-08 6.21668e-08 0.00280379

0.0293405 -0.000164088 -6.96146e-08
-0.000164088 0 0
-6.96146e-08 0 0.00295261

0.0235921 -0.0112826 1.37358e-07
-0.0112826 0.00539546 -6.61483e-08
1.37358e-07 -6.61483e-08 0.0029783

0.0236341 0.0113488 -4.29575e-08
0.0113488 0.00544951 -2.06872e-08
-4.29575e-08 -2.06872e-08 0.00303947

0.0369109 0.00191148 -2.05164e-07
0.00191148 0.0302421 -5.12437e-08
-2.05164e-07 -5.12437e-08 0.0338777

0.0387055 0.00340972 -5.39351e-08
0.00340972 0.0366174 3.08175e-07
-5.39351e-08 3.08175e-07 0.0355784

0.0344152 0.000872435 7.66119e-08
0.000872435 0.0274567 4.54153e-08
7.66119e-08 4.54153e-08 0.0316877

0.0328728 0.00285017 1.38931e-07
0.00285017 0.0268894 1.22842e-07
1.38931e-07 1.22842e-07 0.0286463

0.0257007 0.00231312 4.78758e-08
0.00231312 0.032367 5.11513e-08
4.78758e-08 5.11513e-08 0.0276355

0.0307128 0.00376899 2.27834e-07
0.00376899 0.0276762 -1.26173e-07
2.27834e-07 -1.26173e-07 0.0271176

0.0333054 -0.00390315 2.27705e-07
-0.00390315 0.0304657 -2.00217e-08
2.27705e-07 -2.00217e-08 0.0316298

0.0309733 0.00365447 1.08528e-07
0.00365447 0.0272869 1.89115e-07
1.08528e-07 1.89115e-07 0.0269252

0.0249871 -0.000371375 6.81527e-08
-0.000371375 0.0331225 -7.4005e-08
6.81527e-08 -7.4005e-08 0.0268432

0.0385482 -0.00348468 -1.66828e-07
-0.00348468 0.0368809 -9.32091e-08
-1.66828e-07 -9.32091e-08 0.035584

0.0251756 -0.000635627 1.71194e-07
-0.000635627 0.0332102 -2.3268e-07
1.71194e-07 -2.3268e-07 0.0271027

0.0360177 0.00304747 7.08103e-08
0.00304747 0.033011 7.282e-08
7.08103e-08 7.282e-08 0.0340981

0.0296229 0.00347566 1.08862e-07
0.00347566 0.0248464 -2.56855e-07
1.08862e-07 -2.56855e-07 0.0230228

0.0304963 -0.00171385 3.34984e-08
-0.00171385 0.0375123 -2.09125e-07
3.34984e-08 -2.09125e-07 0.0347366

0.0339205 0.00180444 -5.7056e-08
0.00180444 0.0271817 2.40996e-07
-5.7056e-08 2.40996e-07 0.0303205

0.0312012 -0.0039204 -4.15523e-08
-0.0039204 0.0285311 -1.41329e-07
-4.15523e-08 -1.41329e-07 0.0286145

0.0315838 -0.00322135 8.79449e-08
-0.00322135 0.0266919 9.76245e-09
8.79449e-08 9.76245e-09 0.0270478

0.0384797 -0.00214126 -9.72931e-08
-0.00214126 0.0334171 -1.85759e-07
-9.72931e-08 -1.85759e-07 0.034745

0.0326811 0.00366429 -1.79858e-07
0.00366429 0.0292323 -1.08878e-07
-1.79858e-07 -1.08878e-07 0.0301551

0.0326445 0.00313754 -6.80316e-08
0.00313754 0.0272524 1.16831e-07
-6.80316e-08 1.16831e-07 0.028788

0.0269553 -0.000365206 1.6147e-07
-0.000365206 0.0349873 1.2233e-08
1.6147e-07 1.2233e-08 0.0301681

0.0258998 0.000765786 6.47285e-08
0.000765786 0.0340038 1.6057e-07
6.47285e-08 1.6057e-07 0.0288232

0.0327785 0.000345402 -1.31149e-07
0.000345402 0.0248619 -2.10019e-07
-1.31149e-07 -2.10019e-07 0.0274439

0.0313877 -0.000944831 1.93161e-08
-0.000944831 0.023004 -9.7693e-08
1.93161e-08 -9.7693e-08 0.0238923

0.0308807 0.00398519 -3.39273e-08
0.00398519 0.0288062 -7.14257e-08
-3.39273e-08 -7.14257e-08 0.0286243

0.0331184 -0.00343151 -1.29915e-07
-0.00343151 0.0285407 -1.42389e-07
-1.29915e-07 -1.42389e-07 0.0299695

0.0364127 -0.00282371 -7.13551e-08
-0.00282371 0.0327331 -1.66078e-07
-7.13551e-08 -1.66078e-07 0.0341443

0.0292064 -0.0041277 -8.74835e-08
-0.0041277 0.0291925 -9.79056e-08
-8.74835e-08 -9.79056e-08 0.0277541

0.0269722 -0.0036205 1.64826e-07
-0.0036205 0.0304651 -1.85262e-08
1.64826e-07 -1.85262e-08 0.0272136

0.0283265 0.00389951 8.75427e-09
0.00389951 0.0299009 1.33924e-07
8.75427e-09 1.33924e-07 0.0277522

0.0259015 -0.00124873 7.33376e-08
-0.00124873 0.0336139 -8.21361e-08
7.33376e-08 -8.21361e-08 0.0285161

0.0266547 -0.000201875 1.47897e-07
-0.000201875 0.034913 5.50976e-08
1.47897e-07 5.50976e-08 0.02992

0.0277626 0.000753042 1.6727e-07
0.000753042 0.0360389 2.43443e-08
1.6727e-07 2.43443e-08 0.0316584

0.0262473 -0.00274951 -1.72242e-07
-0.00274951 0.0319634 1.64641e-07
-1.72242e-07 1.64641e-07 0.0277108

0.0345828 0.00317599 -1.11069e-08
0.00317599 0.0291686 -9.91428e-08
-1.11069e-08 -9.91428e-08 0.0316346

0.0339093 -0.00126086 3.91608e-08
-0.00126086 0.0269305 -1.72906e-08
3.91608e-08 -1.72906e-08 0.0302019

0.0257905 0.000974235 -6.88032e-08
0.000974235 0.0338298 -1.27522e-07
-6.88032e-08 -1.27522e-07 0.0285421

0.0278242 -0.00126994 7.82916e-08
-0.00126994 0.0353976 1.64149e-07
7.82916e-08 1.64149e-07 0.0313662

0.0272932 -0.00213711 1.66143e-08
-0.00213711 0.0336575 -1.74381e-08
1.66143e-08 -1.74381e-08 0.0302258

0.0327772 -0.00107711 -2.1556e-07
-0.00107711 0.0253203 6.43592e-08
-2.1556e-07 6.43592e-08 0.0272545

0.0333155 -0.00427116 5.70029e-09
-0.00427116 0.0323806 1.71344e-07
5.70029e-09 1.71344e-07 0.0335294

0.0264889 0.00121972 1.55628e-07
0.00121972 0.0338359 -1.24731e-07
1.55628e-07 -1.24731e-07 0.0288163

0.0398112 -0.00243182 -3.13328e-07
-0.00243182 0.0352187 -3.91129e-08
-3.13328e-07 -3.91129e-08 0.0354612

0.0188889 0.00316467 -2.83923e-07
0.00316467 0.027876 1.76662e-08
-2.83923e-07 1.76662e-08 0.0162729

0.0338161 -0.00352275 -8.45299e-08
-0.00352275 0.0334948 2.76398e-08
-8.45299e-08 2.76398e-08 0.0337264

0.0353441 -0.00399926 -1.5133e-08
-0.00399926 0.0330465 -1.76591e-07
-1.5133e-08 -1.76591e-07 0.0339042

0.026686 -9.05148e-05 -1.76184e-07
-9.05148e-05 0.0349181 4.76649e-08
-1.76184e-07 4.76649e-08 0.0299282

0.0332428 -0.00217643 7.86748e-08
-0.00217643 0.0271532 9.77936e-08
7.86748e-08 9.77936e-08 0.0289029

0.0293477 0.00168456 -1.56919e-09
0.00168456 0.0358197 -4.52136e-08
-1.56919e-09 -4.52136e-08 0.0328799

0.0132075 -0.000379148 1.28181e-07
-0.000379148 0.0283623 -8.21313e-08
1.28181e-07 -8.21313e-08 0.0111519

0.0271138 0.00186842 2.14081e-07
0.00186842 0.0340619 -1.51867e-08
2.14081e-07 -1.51867e-08 0.0303064

0.0311094 -0.00385849 5.84223e-08
-0.00385849 0.0291541 6.02248e-08
5.84223e-08 6.02248e-08 0.0288066

0.0186199 0.00320465 -2.38909e-07
0.00320465 0.0301397 1.39283e-07
-2.38909e-07 1.39283e-07 0.0131269

0.0426015 0.00351785 -3.95959e-07
0.00351785 0.0418494 -5.57365e-07
-3.95959e-07 -5.57365e-07 0.0364805

0.043206 -0.00374829 1.02938e-07
-0.00374829 0.0414167 -1.21933e-07
1.02938e-07 -1.21933e-07 0.036463

0.0310652 -0.00399082 -1.87841e-07
-0.00399082 0.0304712 -9.93561e-09
-1.87841e-07 -9.93561e-09 0.0304611

0.0289222 -0.00406405 1.69496e-08
-0.00406405 0.0291505 5.97772e-08
1.69496e-08 5.97772e-08 0.0275945

0.0330509 0.00272671 -4.59589e-08
0.00272671 0.0275285 8.1602e-08
-4.59589e-08 8.1602e-08 0.0290755

0.0327798 0.00196018 -3.55944e-08
0.00196018 0.0255913 1.01156e-07
-3.55944e-08 1.01156e-07 0.0278229

0.0464016 0.000418534 -5.91206e-07
0.000418534 0.046356 3.54628e-07
-5.91206e-07 3.54628e-07 0.0366947

0.0469183 -0.000952074 7.93525e-07
-0.000952074 0.0457683 -4.23877e-07
7.93525e-07 -4.23877e-07 0.0367658

0.0347994 0.000638523 1.77222e-07
0.000638523 0.0275731 -4.19714e-08
1.77222e-07 -4.19714e-08 0.0322166

0.0277518 0.000882313 2.07124e-07
0.000882313 0.0355706 -3.01206e-09
2.07124e-07 -3.01206e-09 0.0313486

0.0276077 0.000882854 -2.13441e-07
0.000882854 0.0355708 -1.50252e-08
-2.13441e-07 -1.50252e-08 0.0312448

0.023459 0.0073998 -1.0408e-07
0.0073998 0.0183019 1.84673e-07
-1.0408e-07 1.84673e-07 0.0109016

0.0272471 -0.00367548 -4.66832e-08
-0.00367548 0.0303471 2.3224e-08
-4.66832e-08 2.3224e-08 0.0273195

0.036567 0.00239167 -1.22794e-07
0.00239167 0.0295762 -1.56612e-07
-1.22794e-07 -1.56612e-07 0.0337845

0.033274 0.00124752 4.93445e-10
0.00124752 0.0265041 3.17496e-08
4.93445e-10 3.17496e-08 0.0284318

0.0291524 -0.00349242 -3.49943e-08
-0.00349242 0.0304713 -3.51838e-08
-3.49943e-08 -3.51838e-08 0.0281732

0.0328107 -0.00264769 2.02071e-08
-0.00264769 0.0267281 7.55659e-09
2.02071e-08 7.55659e-09 0.0285867

0.02246 0.00761276 2.13684e-07
0.00761276 0.0185903 -1.27198e-07
2.13684e-07 -1.27198e-07 0.010904

0.0331447 0.0041023 -7.04422e-10
0.0041023 0.0326382 9.39247e-08
-7.04422e-10 9.39247e-08 0.0331816

0.0258901 -0.00257829 7.55406e-09
-0.00257829 0.0320239 -1.78477e-07
7.55406e-09 -1.78477e-07 0.0275074

0.0324825 0.00378585 -1.41262e-07
0.00378585 0.029268 -1.61267e-07
-1.41262e-07 -1.61267e-07 0.0301468

0.0268159 -0.000543867 -1.55527e-07
-0.000543867 0.0349522 -2.01694e-08
-1.55527e-07 -2.01694e-08 0.0301379

0.0269899 0.00256331 8.26556e-08
0.00256331 0.0324483 1.75899e-07
8.26556e-08 1.75899e-07 0.0282864

0.0305263 0.00399098 2.28014e-07
0.00399098 0.0293231 -1.26727e-07
2.28014e-07 -1.26727e-07 0.028775

0.0276086 -0.00293711 3.82527e-08
-0.00293711 0.031854 2.02082e-07
3.82527e-08 2.02082e-07 0.0282489

0.029456 -0.0035758 -1.55789e-08
-0.0035758 0.0303508 2.5254e-08
-1.55789e-08 2.5254e-08 0.0283049

0.0181377 0.00142553 -4.30051e-08
0.00142553 0.0280364 -2.2173e-07
-4.30051e-08 -2.2173e-07 0.0131276

0.0234738 -0.00429392 2.73829e-07
-0.00429392 0.0275559 1.06559e-07
2.73829e-07 1.06559e-07 0.0177233

0.0262054 -0.00152615 -8.46201e-08
-0.00152615 0.0336239 1.39057e-07
-8.46201e-08 1.39057e-07 0.0287518

0.0330236 0.00347469 -1.50821e-07
0.00347469 0.0288777 -6.15598e-08
-1.50821e-07 -6.15598e-08 0.0300688

0.0303217 0.00385748 -2.08296e-09
0.00385748 0.0298862 1.33349e-07
-2.08296e-09 1.33349e-07 0.0289902

0.0274143 -0.00280077 8.43684e-08
-0.00280077 0.0319835 -1.73006e-07
8.43684e-08 -1.73006e-07 0.0281389

0.0265545 -0.0015407 5.88626e-08
-0.0015407 0.0335823 -8.28953e-08
5.88626e-08 -8.28953e-08 0.0287461

0.0309562 0.0037183 3.06694e-09
0.0037183 0.0295633 -1.44105e-07
3.06694e-09 -1.44105e-07 0.028941

0.0267592 -0.00181603 -1.92501e-07
-0.00181603 0.0334744 1.15994e-07
-1.92501e-07 1.15994e-07 0.0289541

0.019166 0.00355442 4.64203e-07
0.00355442 0.0276078 4.84102e-08
4.64203e-07 4.84102e-08 0.0162921

0.0308733 -0.000534783 1.13403e-07
-0.000534783 0.0388191 -1.78939e-07
1.13403e-07 -1.78939e-07 0.0342942

0.0286562 0.00404782 1.14171e-07
0.00404782 0.0295183 -1.56357e-07
1.14171e-07 -1.56357e-07 0.0277144

0.0355799 0.00197499 -7.9203e-08
0.00197499 0.0295029 -1.2623e-07
-7.9203e-08 -1.2623e-07 0.0328425

0.0362588 -0.00211469 -1.08165e-07
-0.00211469 0.0297551 -4.65181e-08
-1.08165e-07 -4.65181e-08 0.0332177

0.0285107 -0.00309576 -8.04946e-08
-0.00309576 0.0185689 2.74001e-07
-8.04946e-08 2.74001e-07 0.0157298

0.0283531 -0.00278994 1.16248e-07
-0.00278994 0.0327752 -1.39733e-07
1.16248e-07 -1.39733e-07 0.0305714

0.0291912 0.00350077 1.53886e-07
0.00350077 0.0315997 -3.19298e-08
1.53886e-07 -3.19298e-08 0.0304873

0.0349593 -0.00290724 -1.20627e-07
-0.00290724 0.0376757 1.0939e-07
-1.20627e-07 1.0939e-07 0.0352359

0.03946 0.00188536 -4.87541e-07
0.00188536 0.0446087 -1.23645e-07
-4.87541e-07 -1.23645e-07 0.0364327

0.0449441 0.0012899 -1.3103e-07
0.0012899 0.039116 6.97471e-09
-1.3103e-07 6.97471e-09 0.0364146

0.0355603 0.00434551 4.20145e-08
0.00434551 0.0351344 5.19539e-08
4.20145e-08 5.19539e-08 0.0350032

0.0265717 0.00338788 1.00709e-07
0.00338788 0.031006 1.27973e-07
1.00709e-07 1.27973e-07 0.0272557

0.0330392 0.00349697 -7.3483e-08
0.00349697 0.0286666 -2.55996e-07
-7.3483e-08 -2.55996e-07 0.0300499

0.0220595 0.00576426 -2.20557e-07
0.00576426 0.0242373 -1.09627e-07
-2.20557e-07 -1.09627e-07 0.0160722

0.038618 -0.00151205 -4.57218e-08
-0.00151205 0.0444319 3.19959e-08
-4.57218e-08 3.19959e-08 0.0363619

0.046048 -0.000463911 3.99697e-07
-0.000463911 0.0454387 -4.7059e-07
3.99697e-07 -4.7059e-07 0.0366908

0.0451801 -3.25247e-05 -7.08725e-08
-3.25247e-05 0.0463021 -3.888e-07
-7.08725e-08 -3.888e-07 0.0366728

0.0176409 -0.00679486 -1.95773e-07
-0.00679486 0.0231081 -3.34024e-08
-1.95773e-07 -3.34024e-08 0.0107385

0.0392916 -0.0015559 -1.23589e-07
-0.0015559 0.0387144 -1.13186e-07
-1.23589e-07 -1.13186e-07 0.0358533

0.0383965 0.00117659 1.7993e-07
0.00117659 0.0415173 9.15526e-09
1.7993e-07 9.15526e-09 0.0361247

0.0331749 -0.00343581 -3.28148e-08
-0.00343581 0.0282195 8.1698e-08
-3.28148e-08 8.1698e-08 0.0299033

0.0318444 0.00014056 -1.1278e-07
0.00014056 0.0386718 -1.55976e-07
-1.1278e-07 -1.55976e-07 0.0344502

0.0285766 -0.0026602 3.46783e-08
-0.0026602 0.0333806 -6.9934e-09
3.46783e-08 -6.9934e-09 0.031589

0.0356614 0.000831762 1.88997e-07
0.000831762 0.0273775 -3.32602e-08
1.88997e-07 -3.32602e-08 0.0329999

0.0288757 0.00204421 -3.44724e-08
0.00204421 0.0368164 1.74253e-07
-3.44724e-08 1.74253e-07 0.0336694

0.0298692 0.000946457 -3.21061e-08
0.000946457 0.037388 1.61744e-07
-3.21061e-08 1.61744e-07 0.0333633

0.0344014 0.00268494 -2.17954e-07
0.00268494 0.0288512 -2.37908e-07
-2.17954e-07 -2.37908e-07 0.0312261

0.0132791 -0.000409416 -1.14371e-07
-0.000409416 0.0281227 1.87837e-07
-1.14371e-07 1.87837e-07 0.0112013

0.0309644 -0.00362605 1.18123e-07
-0.00362605 0.0309153 -4.16259e-08
1.18123e-07 -4.16259e-08 0.0306093

0.0329281 -0.00344339 2.54573e-07
-0.00344339 0.0320202 -1.15671e-07
2.54573e-07 -1.15671e-07 0.0325791

0.0335711 -0.00415936 7.97523e-08
-0.00415936 0.0325348 1.24009e-07
7.97523e-08 1.24009e-07 0.0337356

0.0265619 0.00414866 5.70795e-08
0.00414866 0.0176914 -2.39782e-07
5.70795e-08 -2.39782e-07 0.0126051

0.0388279 -0.0026963 -2.6312e-07
-0.0026963 0.0395756 -1.32444e-07
-2.6312e-07 -1.32444e-07 0.0359582

0.0230826 0.00692075 -7.39422e-08
0.00692075 0.0255018 8.54939e-08
-7.39422e-08 8.54939e-08 0.0126094

0.0308746 -0.00281764 2.62062e-07
-0.00281764 0.0348072 2.87651e-08
2.62062e-07 2.87651e-08 0.0339561

0.0354115 0.00193635 1.22196e-07
0.00193635 0.0284655 1.10343e-07
1.22196e-07 1.10343e-07 0.0323445

0.0318213 -0.00189328 -9.83306e-08
-0.00189328 0.0249507 9.56354e-08
-9.83306e-08 9.56354e-08 0.0253954

0.0292925 0.00315915 1.53095e-07
0.00315915 0.0327317 -2.93012e-08
1.53095e-07 -2.93012e-08 0.0312795

0.0344368 0.00268862 -2.87236e-07
0.00268862 0.0286344 -7.34618e-08
-2.87236e-07 -7.34618e-08 0.0312207

0.0325186 0.00149882 -9.51069e-09
0.00149882 0.0403739 -1.69018e-07
-9.51069e-09 -1.69018e-07 0.0353364

0.0319401 -0.00415448 -5.96801e-08
-0.00415448 0.0312014 5.21881e-08
-5.96801e-08 5.21881e-08 0.0318105

0.0396764 0.00265572 3.39777e-07
0.00265572 0.0331983 2.03994e-07
3.39777e-07 2.03994e-07 0.0353158

0.0279713 -0.00241846 4.08584e-08
-0.00241846 0.0335512 -1.35984e-08
4.08584e-08 -1.35984e-08 0.0304704

0.0293507 0.000558549 -7.68258e-08
0.000558549 0.0373117 1.56992e-07
-7.68258e-08 1.56992e-07 0.0332525

0.0419438 0.00133711 2.09504e-07
0.00133711 0.0371 2.742e-07
2.09504e-07 2.742e-07 0.0361161

0.0420973 -0.00114802 5.16317e-08
-0.00114802 0.0373264 -7.06464e-08
5.16317e-08 -7.06464e-08 0.036098

0.0283833 0.00236908 -7.98888e-08
0.00236908 0.0181815 -2.20115e-07
-7.98888e-08 -2.20115e-07 0.0159498

0.0350256 0.00106115 1.07586e-07
0.00106115 0.0285659 1.1125e-07
1.07586e-07 1.1125e-07 0.0330589

0.0128669 0.000923332 -8.93904e-08
0.000923332 0.0316265 1.67447e-09
-8.93904e-08 1.67447e-09 0.00612173

0.0131625 -0.00138814 1.28114e-07
-0.00138814 0.0321323 -5.53098e-08
1.28114e-07 -5.53098e-08 0.00611205

0.0152688 0.00715425 -5.5188e-08
0.00715425 0.0284531 -6.64242e-09
-5.5188e-08 -6.64242e-09 0.00598417

0.034764 -0.00382097 1.48605e-08
-0.00382097 0.0312679 -1.5905e-07
1.48605e-08 -1.5905e-07 0.0329391

0.0155808 -0.00619433 1.13264e-08
-0.00619433 0.0261531 -1.7177e-07
1.13264e-08 -1.7177e-07 0.010472

0.0155129 -0.00708682 -1.07928e-07
-0.00708682 0.0274236 -1.4567e-07
-1.07928e-07 -1.4567e-07 0.00591397

0.028426 0.0034257 1.33328e-08
0.0034257 0.0310062 1.27749e-07
1.33328e-08 1.27749e-07 0.0281527

0.0251935 0.00932593 2.3222e-07
0.00932593 0.0190208 -1.0481e-07
2.3222e-07 -1.0481e-07 0.00593387

0.0365379 0.00173164 1.58491e-07
0.00173164 0.038552 -4.578e-08
1.58491e-07 -4.578e-08 0.0354751

0.0395351 2.55484e-05 -7.30412e-09
2.55484e-05 0.0355398 3.56728e-07
-7.30412e-09 3.56728e-07 0.0354557

0.0261073 -0.00924444 -2.41467e-07
-0.00924444 0.0188126 2.21688e-08
-2.41467e-07 2.21688e-08 0.00588801

0.0276898 -0.00306521 1.71873e-08
-0.00306521 0.0320948 -6.02509e-08
1.71873e-08 -6.02509e-08 0.0296228

0.0262552 0.00441801 -4.77845e-08
0.00441801 0.020158 1.63677e-07
-4.77845e-08 1.63677e-07 0.0130447

0.0172794 0.00797314 1.33309e-07
0.00797314 0.0271491 8.49679e-08
1.33309e-07 8.49679e-08 0.00598785

0.0181963 0.00275509 2.66228e-07
0.00275509 0.02759 -2.73389e-07
2.66228e-07 -2.73389e-07 0.0128501

0.0173043 -0.00827629 -1.1521e-07
-0.00827629 0.0271525 1.0043e-07
-1.1521e-07 1.0043e-07 0.0058138

0.017933 -0.00157097 4.62074e-08
-0.00157097 0.0280054 1.00444e-07
4.62074e-08 1.00444e-07 0.0126906

0.0370501 0.000923229 -5.49818e-08
0.000923229 0.0413003 5.2381e-08
-5.49818e-08 5.2381e-08 0.0358099

0.0221312 -0.00585519 1.07352e-07
-0.00585519 0.0236646 -1.33444e-08
1.07352e-07 -1.33444e-08 0.0151589

0.0157002 0.00598621 1.21345e-07
0.00598621 0.0259023 5.83091e-08
1.21345e-07 5.83091e-08 0.0107502

0.0302087 0.00473012 7.4426e-08
0.00473012 0.0143494 2.49864e-07
7.4426e-08 2.49864e-07 0.00611587

0.0329386 -0.00384927 -2.43967e-07
-0.00384927 0.0301239 -3.44194e-09
-2.43967e-07 -3.44194e-09 0.0310512

0.0308887 0.00169399 -6.5702e-08
0.00169399 0.0368429 1.75646e-07
-6.5702e-08 1.75646e-07 0.0339502

0.0260902 -0.00484381 -1.65157e-07
-0.00484381 0.0191973 5.93519e-08
-1.65157e-07 5.93519e-08 0.0126951

0.0330008 -0.00378587 -2.3081e-07
-0.00378587 0.030075 2.77982e-08
-2.3081e-07 2.77982e-08 0.0311276

0.0300189 -0.0045199 -1.82349e-07
-0.0045199 0.0130536 1.94892e-07
-1.82349e-07 1.94892e-07 0.00603728

0.0324733 -0.00372724 -1.79919e-07
-0.00372724 0.0313074 -1.24169e-07
-1.79919e-07 -1.24169e-07 0.0319794

0.0280909 -0.00331095 1.71839e-07
-0.00331095 0.0320036 2.68588e-08
1.71839e-07 2.68588e-08 0.0296254

0.0234437 0.00874362 -3.44028e-08
0.00874362 0.020483 2.39672e-07
-3.44028e-08 2.39672e-07 0.00602617

0.0181998 -0.00292084 1.41818e-07
-0.00292084 0.0268663 1.39197e-07
1.41818e-07 1.39197e-07 0.01227

0.0233147 -0.00901929 1.17304e-07
-0.00901929 0.020152 3.24276e-07
1.17304e-07 3.24276e-07 0.005884

0.0170825 0.00640827 -1.16087e-07
0.00640827 0.0235661 -8.43442e-08
-1.16087e-07 -8.43442e-08 0.010831

0.0308261 -0.00396014 1.20027e-07
-0.00396014 0.0301601 -3.56682e-08
1.20027e-07 -3.56682e-08 0.0300855

0.0389176 -0.00195886 3.35388e-08
-0.00195886 0.0369408 2.92666e-07
3.35388e-08 2.92666e-07 0.0354994

0.045541 0.00150595 2.45877e-07
0.00150595 0.0449514 2.17058e-07
2.45877e-07 2.17058e-07 0.036619

0.0435652 -0.000711782 1.59017e-08
-0.000711782 0.0462317 6.7615e-07
1.59017e-08 6.7615e-07 0.0365847

0.0286155 0.00171577 1.08478e-07
0.00171577 0.0355659 -1.9408e-07
1.08478e-07 -1.9408e-07 0.0323896

0.0453362 -0.00144709 -3.50162e-08
-0.00144709 0.0449791 -2.82357e-07
-3.50162e-08 -2.82357e-07 0.0366368

0.0438073 0.000568377 5.92988e-08
0.000568377 0.0465063 1.8844e-07
5.92988e-08 1.8844e-07 0.0366178

0.046679 0.000990879 -7.95213e-08
0.000990879 0.0433769 -1.74483e-08
-7.95213e-08 -1.74483e-08 0.0365929

0.0397503 -0.0016393 1.50691e-07
-0.0016393 0.0460747 9.88055e-08
1.50691e-07 9.88055e-08 0.0364827

0.0190539 -0.00388735 1.29659e-07
-0.00388735 0.0272306 1.65534e-07
1.29659e-07 1.65534e-07 0.0154712

0.0421403 -0.0017502 3.26771e-07
-0.0017502 0.0367255 2.33652e-07
3.26771e-07 2.33652e-07 0.0360046

0.035964 -0.0045733 -1.06747e-07
-0.0045733 0.0351504 5.46251e-08
-1.06747e-07 5.46251e-08 0.0349681

0.0397529 -0.00242209 -9.43537e-08
-0.00242209 0.0360636 5.8174e-08
-9.43537e-08 5.8174e-08 0.0355671

0.0351844 0.00204321 2.43353e-07
0.00204321 0.028549 -3.96681e-08
2.43353e-07 -3.96681e-08 0.0322318

0.0396923 0.00133788 1.67399e-07
0.00133788 0.0472264 -5.44353e-07
1.67399e-07 -5.44353e-07 0.0365485

0.0464955 0.00259367 -1.4853e-07
0.00259367 0.0404181 -3.17918e-07
-1.4853e-07 -3.17918e-07 0.0365297

0.0400871 0.00150567 3.90873e-08
0.00150567 0.0366733 5.31518e-08
3.90873e-08 5.31518e-08 0.0356152

0.0279145 -0.00191992 4.14936e-07
-0.00191992 0.0125247 1.32201e-07
4.14936e-07 1.32201e-07 0.0106245

0.0283189 0.00326758 -4.33125e-08
0.00326758 0.03155 -1.08241e-07
-4.33125e-08 -1.08241e-07 0.0294107

0.023188 -0.00773599 3.30265e-07
-0.00773599 0.0181799 1.55729e-07
3.30265e-07 1.55729e-07 0.0102894

0.0228306 -0.00731578 2.47266e-07
-0.00731578 0.0257687 -1.43069e-07
2.47266e-07 -1.43069e-07 0.0119545

0.0290225 -0.00464701 3.97027e-07
-0.00464701 0.0191283 1.84387e-07
3.97027e-07 1.84387e-07 0.0126151

0.0375743 -0.00066058 1.75985e-07
-0.00066058 0.0449116 -3.12012e-07
1.75985e-07 -3.12012e-07 0.0362937

0.0375719 0.000358317 8.9824e-08
0.000358317 0.0447889 1.91605e-07
8.9824e-08 1.91605e-07 0.036274

0.042606 -0.0032749 -2.05642e-07
-0.0032749 0.0394506 2.47158e-08
-2.05642e-07 2.47158e-08 0.0362278

0.0429987 -0.0029448 -1.55024e-07
-0.0029448 0.0391687 -9.72755e-08
-1.55024e-07 -9.72755e-08 0.0362347

0.0425015 0.00350463 1.24136e-07
0.00350463 0.0399729 2.76507e-08
1.24136e-07 2.76507e-08 0.0362725

0.0443985 0.000418148 -6.52056e-07
0.000418148 0.0450806 -1.21669e-06
-6.52056e-07 -1.21669e-06 0.0366359

0.0426086 -0.00274452 9.11303e-08
-0.00274452 0.0395068 2.95176e-08
9.11303e-08 2.95176e-08 0.0362893

0.0426031 -0.00251159 -5.1423e-08
-0.00251159 0.0442674 6.56189e-07
-5.1423e-08 6.56189e-07 0.0365635

0.0451182 0.000331677 9.30404e-08
0.000331677 0.0454673 3.80936e-07
9.30404e-08 3.80936e-07 0.0366542

0.0436375 -0.00278289 -6.53992e-08
-0.00278289 0.0389165 5.04436e-08
-6.53992e-08 5.04436e-08 0.0363299

0.0435121 0.00283899 -1.19696e-07
0.00283899 0.0390693 2.52227e-08
-1.19696e-07 2.52227e-08 0.0363681

0.0451938 -0.000471138 -1.69366e-07
-0.000471138 0.045582 1.21001e-07
-1.69366e-07 1.21001e-07 0.0367029

0.045227 -0.000426384 -7.43047e-07
-0.000426384 0.0443626 6.64703e-07
-7.43047e-07 6.64703e-07 0.0367212

0.0427994 0.00163815 -4.34519e-07
0.00163815 0.0442484 1.48656e-07
-4.34519e-07 1.48656e-07 0.0366073

0.0411164 0.00361853 -7.94224e-08
0.00361853 0.0405161 -1.08e-07
-7.94224e-08 -1.08e-07 0.0363219

SCALARS pressure float
LOOKUP_TABLE default
-60.0526
19.3085
5.80387
21.2904
15.8789
5.88783
-58.6757
7.78351
-3.8045
15.1248
-24.4325
7.61767
5.59246
12.2796
23.3375
5.53935
18.521
13.2077
-0.692387
6.7571
-0.904442
33.1332
5.8013
5.79734
6.60237
14.9032
-38.3859
6.6722
-15.2422
30.6252
5.1767
-15.657
-42.0571
27.3255
20.7786
27.3584
31.8834
19.8086
4.85999
-42.6003
-17.4073
31.9042
31.9924
5.99393
-21.8052
-15.9757
-1.052
-3.40512
6.5453
-16.2177
-18.9187
-15.3457
20.7555
-15.3729
20.3086
-33.1491
21.1291
-15.4601
21.1389
7.04543
21.7649
16.1189
-45.5627
12.7899
16.3621
10.9054
21.5742
13.8285
5.77399
21.8173
20.8115
20.7822
-17.6909
11.6008
3.97434
-31.6103
14.3567
10.9965
14.1466
-8.71971
-28.945
14.9776
20.1633
-22.038
-23.4295
-28.0923
7.09827
9.63268
-22.216
37.7399
-15.5088
38.4425
18.3044
10.7618
-15.1663
-15.8727
-30.2216
14.7537
14.3657
4.59908
-10.766
-21.9395
-25.1017
16.2133
14.1006
14.9619
18.6977
3.77514
-24.5585
26.5131
7.21807
-21.4092
-24.6122
14.8383
15.0783
-16.1455
20.1644
-29.1135
20.628
-16.7291
-2.90431
23.8337
21.7273
16.0331
26.6797
22.6316
21.7851
15.7087
-29.7812
-16.0988
24.0915
21.6176
20.9894
22.0659
-22.0139
23.5865
-33.8377
5.46376
21.7544
23.6299
-21.9368
6.67675
-5.96638
15.0839
-30.4077
15.6242
7.83362
2.40798
5.17814
-9.39422
-0.457601
22.6418
-15.4545
5.29136
15.2045
21.5608
11.5085
-21.1132
-21.2638
10.7908
-2.84243
-15.1975
-21.2206
-15.1652
-20.9864
15.2799
-20.6358
-21.2016
-15.2077
-21.0637
19.0043
-15.9408
-14.8244
12.0647
-14.4845
18.803
19.0533
7.47314
18.0478
11.7734
-16.2489
15.2884
14.9612
-21.5285
10.4268
-14.2212
16.0488
14.5958
17.0818
14.8353
10.3441
-26.9765
-16.0821
-15.958
21.9072
14.5262
14.6251
20.9228
22.4872
9.50297
21.734
-0.384303
-8.17058
20.7789
-17.8387
19.9457
10.3645
-21.5175
15.7213
22.5264
14.7313
9.39381
14.1903
21.0558
-7.83261
8.82786
-7.90842
14.6485
26.9277
26.5813
27.9605
26.3885
26.7243
26.2909
13.8262
23.4301
24.0293
23.9735
23.3998
21.1926
21.8572
-8.26268
15.9338
28.1911
-3.1885
23.5759
23.2051
27.8344
-8.4934
28.0964
15.3448
-7.58143
17.4922
-8.25765
20.2273
29.6127
-7.48581
-8.1006
-29.5922
-18.1891
19.5274
-31.9858
5.73455
-7.7938
-1.18923
28.2492
26.6403
30.4257
26.761
-34.8013
-8.1795
28.3374
8.07315
-8.29502
26.4459
-6.29513
30.4706
-7.95393
27.0471
14.5662
14.7875
23.8449
10.0477
18.0209
8.11731
-29.8603
-24.5534
16.8068
1.75988
8.17979
-13.6087
17.4359
11.7
-8.10136
9.45236
-10.8233
7.51715
-10.7545
-8.48459
33.2634
19.1516
25.0881
25.3124
13.8294
-10.4044
26.4293
14.6851
-1.65886
-10.2737
-12.5641
17.5065
-7.48507
17.5745
-12.0411
-21.3507
-10.6081
-34.6816
15.5627
-7.76282
34.4413
-11.5778
16.8716
-8.40862
15.9729
-12.7582
4.28924
-51.1191
8.52194
-7.74649
21.3338
-8.15201
-0.122724
10.7155
21.1244
-12.0606
-10.2006
-6.06818
14.3182
-10.1799
6.88807
6.3859
16.3054
-10.4194
-6.3303
-1.70225
-5.66038
-11.0783
-5.84461
15.3056
7.80809
-5.55597
-8.96033
7.80549
7.69434
-10.6745
16.3093
-27.2143
2.29312
-28.4815
-0.957508
-8.87993
-8.0982
-11.7809
-10.9446
-9.88283
-7.77781
-7.90118
16.638
24.7775
12.1162
-0.291569
-0.825093
-5.67454
7.30524
-6.32065
-6.31794
24.9233
-5.72997
14.118
-15.9083
24.325
5.96825
-0.391128
-5.64383
16.275
2.47711
0.199094
2.4481
0.455971
-0.740787
-9.93019
-0.095555
2.11327
15.0689
-1.28823
-1.40711
-0.998779
-0.388554
1.9653
8.05076
-1.19352
8.0782
5.58331
-0.435609
7.03532
5.49035
-3.87647
16.4767
-1.90341
23.0618
-21.9736
15.0443
15.6825
2.03966
-1.99751
12.543
-26.5068
5.79235
-1.65793
-50.4834
30.4976
30.6343
5.82499
-1.14432
-1.04682
-0.84964
33.4177
33.2924
13.0949
6.08192
6.66245
-28.963
-1.27938
16.5335
-3.18273
-4.34816
-0.0169112
-25.2715
14.3034
-1.28015
2.86181
2.6932
-2.72327
-0.0493023
-3.20951
-4.0336
-37.9828
-33.6836
-0.128009
1.87446
-0.534101
-3.74422
-1.93661
-1.87775
-0.924325
-21.9076
17.2496
-0.76927
12.5653
14.1838
-26.7643
6.28631
7.13691
18.4778
36.4271
36.4596
22.6386
-1.75576
2.59966
-20.9298
36.1258
32.7591
32.826
-24.8089
21.7751
30.5229
2.59915
15.7239
10.3714
17.1645
17.7263
12.5056
5.68142
-25.3983
4.26006
10.4094
16.244
-31.7102
28.3094
-52.7105
18.6851
10.299
-10.6273
7.41737
5.45709
24.4743
9.41114
24.4073
4.10516
12.3999
30.6402
29.466
-22.9902
17.4356
-70.2304
-74.3769
-67.1744
11.6484
-31.2602
-63.6078
-3.80352
-69.9359
16.4631
16.4068
-73.7521
5.21225
-39.7299
-70.7364
-37.7559
-71.8728
-39.4514
21.1365
-23.9601
-29.0441
-70.6203
4.8314
15.7577
-36.1898
6.05354
-63.6155
9.83599
3.88175
-67.8989
-37.6235
-66.4084
-23.7556
5.02914
20.526
35.371
36.7267
11.8121
36.8505
36.9038
36.4922
36.4045
-24.4789
28.2481
20.6691
21.9805
11.5347
36.0604
36.0918
18.1199
-23.9404
3.2466
-30.5264
-56.5967
-50.4737
36.1435
35.8243
35.3809
35.4511
36.1595
35.5989
33.1101
37.371
35.4002
36.0064
35.6386
34.1967
34.3333
35.8566
35.3098
