# vtk DataFile Version 3.0
vtk output at time 270
ASCII
DATASET UNSTRUCTURED_GRID
POINTS 626 float
-3.68058e-05 0.000978749 0 3.68058e-05 0.000978749 0 -0.000829194 0.00052125 0 
-0.0008235 0.0005 0 -0.000866 0.0004575 0 -0.000866 -0.0004575 0 
-0.0008235 -0.0005 0 -0.000829194 -0.00052125 0 -3.68058e-05 -0.000978749 0 
3.68058e-05 -0.000978749 0 0.000829194 -0.00052125 0 0.000866 -0.0004575 0 
0.000866 0.0004575 0 0.000829194 0.00052125 0 8.5e-05 0 0 
-3.68058e-05 0.000978749 -0.001 3.68058e-05 0.000978749 -0.001 -0.000829194 0.00052125 -0.001 
-0.0008235 0.0005 -0.001 -0.000866 0.0004575 -0.001 -0.000866 -0.0004575 -0.001 
-0.0008235 -0.0005 -0.001 -0.000829194 -0.00052125 -0.001 -3.68058e-05 -0.000978749 -0.001 
3.68058e-05 -0.000978749 -0.001 0.000829194 -0.00052125 -0.001 0.000866 -0.0004575 -0.001 
0.000866 0.0004575 -0.001 0.000829194 0.00052125 -0.001 8.5e-05 0 -0.001 
8.46223e-17 0.0009575 0 -0.000715996 0.000586607 0 -0.000602797 0.000651965 0 
-0.000489599 0.000717321 0 -0.000376401 0.000782678 0 -0.000263202 0.000848036 0 
-0.000150004 0.000913393 0 -0.000835948 0.000469948 0 -0.000866 -0.000326786 0 
-0.000866 -0.000196071 0 -0.000866 -6.53571e-05 0 -0.000866 6.53571e-05 0 
-0.000866 0.000196071 0 -0.000866 0.000326786 0 -0.000835948 -0.000469948 0 
-0.000150004 -0.000913393 0 -0.000263202 -0.000848036 0 -0.000376401 -0.000782678 0 
-0.000489599 -0.000717321 0 -0.000602797 -0.000651965 0 -0.000715996 -0.000586607 0 
8.47648e-17 -0.0009575 0 0.000715996 -0.000586607 0 0.000602797 -0.000651965 0 
0.000489599 -0.000717321 0 0.000376401 -0.000782678 0 0.000263202 -0.000848036 0 
0.000150004 -0.000913393 0 0.000829194 -0.00047875 0 0.000866 0.000326786 0 
0.000866 0.000196071 0 0.000866 6.53571e-05 0 0.000866 -6.53571e-05 0 
0.000866 -0.000196071 0 0.000866 -0.000326786 0 0.000829194 0.00047875 0 
0.000150004 0.000913393 0 0.000263202 0.000848036 0 0.000376401 0.000782678 0 
0.000489599 0.000717321 0 0.000602797 0.000651965 0 0.000715996 0.000586607 0 
5.29966e-05 6.64557e-05 0 -1.89143e-05 8.28689e-05 0 -7.65824e-05 3.68801e-05 0 
-7.65824e-05 -3.68801e-05 0 -1.89143e-05 -8.28689e-05 0 5.29966e-05 -6.64557e-05 0 
8.46223e-17 0.0009575 -0.001 -0.000715996 0.000586607 -0.001 -0.000602797 0.000651965 -0.001 
-0.000489599 0.000717321 -0.001 -0.000376401 0.000782678 -0.001 -0.000263202 0.000848036 -0.001 
-0.000150004 0.000913393 -0.001 -0.000835948 0.000469948 -0.001 -0.000866 -0.000326786 -0.001 
-0.000866 -0.000196071 -0.001 -0.000866 -6.53571e-05 -0.001 -0.000866 6.53571e-05 -0.001 
-0.000866 0.000196071 -0.001 -0.000866 0.000326786 -0.001 -0.000835948 -0.000469948 -0.001 
-0.000150004 -0.000913393 -0.001 -0.000263202 -0.000848036 -0.001 -0.000376401 -0.000782678 -0.001 
-0.000489599 -0.000717321 -0.001 -0.000602797 -0.000651965 -0.001 -0.000715996 -0.000586607 -0.001 
8.47648e-17 -0.0009575 -0.001 0.000715996 -0.000586607 -0.001 0.000602797 -0.000651965 -0.001 
0.000489599 -0.000717321 -0.001 0.000376401 -0.000782678 -0.001 0.000263202 -0.000848036 -0.001 
0.000150004 -0.000913393 -0.001 0.000829194 -0.00047875 -0.001 0.000866 0.000326786 -0.001 
0.000866 0.000196071 -0.001 0.000866 6.53571e-05 -0.001 0.000866 -6.53571e-05 -0.001 
0.000866 -0.000196071 -0.001 0.000866 -0.000326786 -0.001 0.000829194 0.00047875 -0.001 
0.000150004 0.000913393 -0.001 0.000263202 0.000848036 -0.001 0.000376401 0.000782678 -0.001 
0.000489599 0.000717321 -0.001 0.000602797 0.000651965 -0.001 0.000715996 0.000586607 -0.001 
5.29966e-05 6.64557e-05 -0.001 -1.89143e-05 8.28689e-05 -0.001 -7.65824e-05 3.68801e-05 -0.001 
-7.65824e-05 -3.68801e-05 -0.001 -1.89143e-05 -8.28689e-05 -0.001 5.29966e-05 -6.64557e-05 -0.001 
0.000131234 6.38474e-05 0 0.00012964 -6.2443e-05 0 3.13827e-05 0.0001394 0 
3.12554e-05 -0.000136939 0 -0.000140461 8.25467e-19 0 -8.90565e-05 -0.000102707 0 
-9.04142e-05 0.000102872 0 -0.000765769 -0.00025965 0 -0.000756873 0.000262774 0 
-0.00015609 0.000787505 0 -0.000155807 -0.00079355 0 0.000605069 0.000528035 0 
0.000608694 -0.00052497 0 0.000744069 0.000116929 0 -0.000494418 0.000596218 0 
-0.000483866 -0.000584648 0 0.000269496 0.000702219 0 0.000263201 -0.000717324 0 
0.000754429 -0.000127825 0 -0.000748858 5.84659e-07 0 -0.000747838 0.000373886 0 
-0.0006542 0.000324842 0 -0.000645137 0.000210123 0 -0.000550884 0.000274171 0 
-0.000538857 0.000163195 0 -0.00045062 0.000224461 0 -0.000438393 0.000123907 0 
-0.000354088 0.000181668 0 -0.000363908 0.000282171 0 -0.000270361 0.000239477 0 
-0.000279138 0.000337653 0 -0.000188888 0.000294791 0 -0.000196448 0.000393271 0 
-0.000104767 0.000348259 0 -0.000113332 0.000449012 0 -2.01066e-05 0.000403223 0 
-2.89189e-05 0.000507105 0 6.9524e-05 0.000461596 0 -0.000213644 0.000490203 0 
7.33757e-05 0.000357726 0 0.000163331 0.00041299 0 0.000163359 0.000313022 0 
0.000248077 0.000366368 0 0.000250914 0.000265758 0 0.000335709 0.000322266 0 
0.000340555 0.000218148 0 0.000427299 0.000276717 0 0.000431508 0.000173093 0 
0.000328731 0.000425633 0 0.00034586 0.000114823 0 0.000435362 7.05241e-05 0 
0.000350892 1.5455e-05 0 0.000441547 -3.11896e-05 0 0.000353547 -8.47783e-05 0 
0.000445767 -0.000132964 0 0.000356135 -0.000186358 0 0.000449094 -0.000234674 0 
0.000359978 -0.000287876 0 0.00026856 -0.000240545 0 0.000271895 -0.000341045 0 
0.000181792 -0.00029305 0 0.00018533 -0.000392851 0 9.75701e-05 -0.00034483 0 
9.98764e-05 -0.000444884 0 8.75116e-06 -0.000396343 0 1.20916e-05 -0.000500496 0 
-7.83929e-05 -0.000449843 0 -8.1471e-05 -0.000347249 0 -0.000171566 -0.000403733 0 
-0.000169889 -0.000298891 0 -0.000259867 -0.000354132 0 -0.000257696 -0.000249137 0 
-0.00034313 -0.000299896 0 -0.000344514 -0.000199127 0 -0.000434309 -0.000250039 0 
-0.000169832 -0.000505815 0 -0.000435227 -0.000146227 0 0.000280331 -0.000442424 0 
-0.000340889 8.76793e-05 0 -0.000515252 4.06198e-05 0 6.50491e-05 0.000568253 0 
0.00053278 1.74743e-05 0 0.000522071 0.000229831 0 -0.00037162 0.000391659 0 
-0.000255272 -0.000150439 0 -0.000442893 -0.000350705 0 0.000450067 -0.000332559 0 
0.000545175 -0.000276306 0 -0.000527797 -0.000197598 0 0.000105306 -0.000551033 0 
1.45836e-05 -0.000609147 0 0.00017145 0.000214453 0 0.000515525 0.000341711 0 
0.000636086 0.000290368 0 -0.000558657 0.000404468 0 -4.01232e-05 0.000616718 0 
6.60192e-05 0.000696422 0 -0.000101806 0.0002546 0 0.000271142 -3.88908e-05 0 
0.000179455 -0.00018534 0 -8.79553e-05 -0.000254307 0 -0.000749267 -0.000373451 0 
-0.000655941 -0.000323397 0 0.000709746 0.000466718 0 0.000698426 -0.000473086 0 
-5.25801e-05 -0.00084886 0 -4.93005e-05 0.000848038 0 0.000617396 -0.000413362 0 
0.000702056 -0.000369817 0 0.000131459 -0.000679171 0 2.48171e-05 -0.000715924 0 
-0.000664217 -0.00042729 0 -0.000528828 -8.80444e-05 0 -0.000611101 -0.000136672 0 
-0.000426972 -4.45841e-05 0 0.000800669 0.000378216 0 0.000821144 -0.000415062 0 
7.2799e-05 0.00088254 0 6.81831e-05 -0.00087503 0 0.000104963 -0.000788946 0 
-7.40696e-05 -0.000660054 0 0.000126061 0.000809943 0 0.000764361 0.000295682 0 
0.000166862 0.000630623 0 0.000516462 -0.00046707 0 -0.000563585 -0.000389606 0 
-0.000622598 -1.40238e-05 0 0.000629891 0.000171529 0 2.5614e-06 -0.000299794 0 
8.6901e-05 -0.00024329 0 0.000272045 -0.000136982 0 -0.00075148 0.000138321 0 
0.000209366 -0.000599589 0 0.000324913 -0.000630055 0 0.000614044 0.00041245 0 
0.00049651 -0.000573327 0 0.000394822 -0.000507321 0 -0.000173714 -0.000206698 0 
0.000264897 5.63722e-05 0 0.000247997 0.000152811 0 -4.63327e-05 -0.000920208 0 
9.18688e-05 0.000258626 0 -5.54111e-06 0.000290558 0 -0.000184219 0.000201484 0 
-0.000263559 0.000142267 0 -0.000256427 5.13624e-05 0 -0.000336894 -2.06179e-06 0 
-0.000228499 -4.2388e-05 0 -0.00017589 0.000106626 0 -0.000769947 -0.000133367 0 
0.000767591 -0.000500293 0 -5.05874e-05 0.000737978 0 0.000754456 -3.51771e-06 0 
0.00064691 -6.15298e-05 0 0.000630483 -0.00018134 0 0.000749187 -0.000265543 0 
-0.000760805 -0.000462521 0 0.000638155 6.09315e-05 0 -4.46661e-05 0.000922995 0 
-2.37945e-05 0.000207237 0 0.000776979 0.000500181 0 -0.000605691 0.000527596 0 
-0.000377914 -0.000653727 0 -0.000372325 -0.000526022 0 -0.000275829 -0.000589621 0 
-0.000254285 -0.000710579 0 -0.000379307 0.000656222 0 -0.000379818 0.00052718 0 
-0.000266817 0.000721555 0 -0.000150544 0.000668174 0 0.000381963 0.00065079 0 
0.000493113 0.000590432 0 0.000505439 0.000463708 0 -0.000269094 0.000596608 0 
0.000385815 0.000532045 0 0.000283599 0.0005899 0 -0.000176405 -0.000108505 0 
-0.000278769 -0.000475415 0 0.000185395 2.33014e-06 0 0.000186773 0.000517571 0 
0.000540032 -8.68444e-05 0 -0.000600694 -0.000514877 0 -0.00063703 8.98033e-05 0 
-0.000459677 0.000335729 0 -0.000338836 -0.000100751 0 -0.000457327 0.000432721 0 
-8.72007e-06 -0.000210238 0 0.000156073 0.000129496 0 -7.70692e-05 -0.000555049 0 
0.00036091 -0.000389728 0 0.000531628 0.000120564 0 -0.000285451 0.000435562 0 
0.000192719 -0.000494604 0 0.00041642 0.00039368 0 -0.000135943 0.000554637 0 
-0.000170665 -0.000610079 0 -0.000666304 0.000434981 0 -0.000758736 0.000479231 0 
-0.000470189 -0.000458901 0 0.000203433 -8.59809e-05 0 0.000101846 0.000170114 0 
-0.00035513 -0.00040726 0 0.000100184 -0.000165831 0 2.96286e-05 0.00081537 0 
0.000720946 0.000381836 0 -0.000539809 -0.000292001 0 0.00052211 -0.000182426 0 
-6.41339e-05 -0.000753908 0 0.000638039 -0.000299861 0 -0.000605136 -0.000230182 0 
-3.41638e-05 -0.000145561 0 -0.000104037 0.000172396 0 -0.000808575 -0.00042774 0 
-0.000807207 -0.000465052 0 -0.00080817 0.000429771 0 -0.000806589 0.000469738 0 
-9.50634e-05 -0.000178909 0 0.000247777 0.000445058 0 1.48293e-05 -0.000814201 0 
-4.11555e-05 0.000140955 0 0.000276104 -0.000536845 0 0.000765969 -0.000436638 0 
0.000780871 -0.000362769 0 0.000424176 -0.000642018 0 0.00053413 -0.000368009 0 
-0.000416333 4.17911e-05 0 -0.000133891 -6.23822e-05 0 4.2574e-05 0.000206312 0 
0.000141163 -0.000121542 0 0.000707423 0.000212137 0 0.000172327 0.000723882 0 
7.72652e-06 -0.00090254 0 -0.000134435 5.66935e-05 0 -0.000188826 3.70894e-05 0 
0.000197119 8.09714e-05 0 1.27801e-05 0.000917296 0 0.000800767 0.00044758 0 
-0.000686682 0.000507104 0 9.35831e-05 0.000110457 0 -0.000696793 -0.000509595 0 
-0.00068446 -8.52012e-05 0 -0.000691033 -0.000201242 0 5.24052e-05 -0.000189075 0 
-0.000151818 -0.000701092 0 -0.000296988 0.000518087 0 9.31023e-05 -0.000108117 0 
0.00044261 -0.000416726 0 0.000197044 -0.000784423 0 -0.000516861 0.000504567 0 
0.000298997 0.000502377 0 0.000131234 6.38474e-05 -0.001 0.00012964 -6.2443e-05 -0.001 
3.13827e-05 0.0001394 -0.001 3.12554e-05 -0.000136939 -0.001 -0.000140461 8.25467e-19 -0.001 
-8.90565e-05 -0.000102707 -0.001 -9.04142e-05 0.000102872 -0.001 -0.000765769 -0.00025965 -0.001 
-0.000756873 0.000262774 -0.001 -0.00015609 0.000787505 -0.001 -0.000155807 -0.00079355 -0.001 
0.000605069 0.000528035 -0.001 0.000608694 -0.00052497 -0.001 0.000744069 0.000116929 -0.001 
-0.000494418 0.000596218 -0.001 -0.000483866 -0.000584648 -0.001 0.000269496 0.000702219 -0.001 
0.000263201 -0.000717324 -0.001 0.000754429 -0.000127825 -0.001 -0.000748858 5.84659e-07 -0.001 
-0.000747838 0.000373886 -0.001 -0.0006542 0.000324842 -0.001 -0.000645137 0.000210123 -0.001 
-0.000550884 0.000274171 -0.001 -0.000538857 0.000163195 -0.001 -0.00045062 0.000224461 -0.001 
-0.000438393 0.000123907 -0.001 -0.000354088 0.000181668 -0.001 -0.000363908 0.000282171 -0.001 
-0.000270361 0.000239477 -0.001 -0.000279138 0.000337653 -0.001 -0.000188888 0.000294791 -0.001 
-0.000196448 0.000393271 -0.001 -0.000104767 0.000348259 -0.001 -0.000113332 0.000449012 -0.001 
-2.01066e-05 0.000403223 -0.001 -2.89189e-05 0.000507105 -0.001 6.9524e-05 0.000461596 -0.001 
-0.000213644 0.000490203 -0.001 7.33757e-05 0.000357726 -0.001 0.000163331 0.00041299 -0.001 
0.000163359 0.000313022 -0.001 0.000248077 0.000366368 -0.001 0.000250914 0.000265758 -0.001 
0.000335709 0.000322266 -0.001 0.000340555 0.000218148 -0.001 0.000427299 0.000276717 -0.001 
0.000431508 0.000173093 -0.001 0.000328731 0.000425633 -0.001 0.00034586 0.000114823 -0.001 
0.000435362 7.05241e-05 -0.001 0.000350892 1.5455e-05 -0.001 0.000441547 -3.11896e-05 -0.001 
0.000353547 -8.47783e-05 -0.001 0.000445767 -0.000132964 -0.001 0.000356135 -0.000186358 -0.001 
0.000449094 -0.000234674 -0.001 0.000359978 -0.000287876 -0.001 0.00026856 -0.000240545 -0.001 
0.000271895 -0.000341045 -0.001 0.000181792 -0.00029305 -0.001 0.00018533 -0.000392851 -0.001 
9.75701e-05 -0.00034483 -0.001 9.98764e-05 -0.000444884 -0.001 8.75116e-06 -0.000396343 -0.001 
1.20916e-05 -0.000500496 -0.001 -7.83929e-05 -0.000449843 -0.001 -8.1471e-05 -0.000347249 -0.001 
-0.000171566 -0.000403733 -0.001 -0.000169889 -0.000298891 -0.001 -0.000259867 -0.000354132 -0.001 
-0.000257696 -0.000249137 -0.001 -0.00034313 -0.000299896 -0.001 -0.000344514 -0.000199127 -0.001 
-0.000434309 -0.000250039 -0.001 -0.000169832 -0.000505815 -0.001 -0.000435227 -0.000146227 -0.001 
0.000280331 -0.000442424 -0.001 -0.000340889 8.76793e-05 -0.001 -0.000515252 4.06198e-05 -0.001 
6.50491e-05 0.000568253 -0.001 0.00053278 1.74743e-05 -0.001 0.000522071 0.000229831 -0.001 
-0.00037162 0.000391659 -0.001 -0.000255272 -0.000150439 -0.001 -0.000442893 -0.000350705 -0.001 
0.000450067 -0.000332559 -0.001 0.000545175 -0.000276306 -0.001 -0.000527797 -0.000197598 -0.001 
0.000105306 -0.000551033 -0.001 1.45836e-05 -0.000609147 -0.001 0.00017145 0.000214453 -0.001 
0.000515525 0.000341711 -0.001 0.000636086 0.000290368 -0.001 -0.000558657 0.000404468 -0.001 
-4.01232e-05 0.000616718 -0.001 6.60192e-05 0.000696422 -0.001 -0.000101806 0.0002546 -0.001 
0.000271142 -3.88908e-05 -0.001 0.000179455 -0.00018534 -0.001 -8.79553e-05 -0.000254307 -0.001 
-0.000749267 -0.000373451 -0.001 -0.000655941 -0.000323397 -0.001 0.000709746 0.000466718 -0.001 
0.000698426 -0.000473086 -0.001 -5.25801e-05 -0.00084886 -0.001 -4.93005e-05 0.000848038 -0.001 
0.000617396 -0.000413362 -0.001 0.000702056 -0.000369817 -0.001 0.000131459 -0.000679171 -0.001 
2.48171e-05 -0.000715924 -0.001 -0.000664217 -0.00042729 -0.001 -0.000528828 -8.80444e-05 -0.001 
-0.000611101 -0.000136672 -0.001 -0.000426972 -4.45841e-05 -0.001 0.000800669 0.000378216 -0.001 
0.000821144 -0.000415062 -0.001 7.2799e-05 0.00088254 -0.001 6.81831e-05 -0.00087503 -0.001 
0.000104963 -0.000788946 -0.001 -7.40696e-05 -0.000660054 -0.001 0.000126061 0.000809943 -0.001 
0.000764361 0.000295682 -0.001 0.000166862 0.000630623 -0.001 0.000516462 -0.00046707 -0.001 
-0.000563585 -0.000389606 -0.001 -0.000622598 -1.40238e-05 -0.001 0.000629891 0.000171529 -0.001 
2.5614e-06 -0.000299794 -0.001 8.6901e-05 -0.00024329 -0.001 0.000272045 -0.000136982 -0.001 
-0.00075148 0.000138321 -0.001 0.000209366 -0.000599589 -0.001 0.000324913 -0.000630055 -0.001 
0.000614044 0.00041245 -0.001 0.00049651 -0.000573327 -0.001 0.000394822 -0.000507321 -0.001 
-0.000173714 -0.000206698 -0.001 0.000264897 5.63722e-05 -0.001 0.000247997 0.000152811 -0.001 
-4.63327e-05 -0.000920208 -0.001 9.18688e-05 0.000258626 -0.001 -5.54111e-06 0.000290558 -0.001 
-0.000184219 0.000201484 -0.001 -0.000263559 0.000142267 -0.001 -0.000256427 5.13624e-05 -0.001 
-0.000336894 -2.06179e-06 -0.001 -0.000228499 -4.2388e-05 -0.001 -0.00017589 0.000106626 -0.001 
-0.000769947 -0.000133367 -0.001 0.000767591 -0.000500293 -0.001 -5.05874e-05 0.000737978 -0.001 
0.000754456 -3.51771e-06 -0.001 0.00064691 -6.15298e-05 -0.001 0.000630483 -0.00018134 -0.001 
0.000749187 -0.000265543 -0.001 -0.000760805 -0.000462521 -0.001 0.000638155 6.09315e-05 -0.001 
-4.46661e-05 0.000922995 -0.001 -2.37945e-05 0.000207237 -0.001 0.000776979 0.000500181 -0.001 
-0.000605691 0.000527596 -0.001 -0.000377914 -0.000653727 -0.001 -0.000372325 -0.000526022 -0.001 
-0.000275829 -0.000589621 -0.001 -0.000254285 -0.000710579 -0.001 -0.000379307 0.000656222 -0.001 
-0.000379818 0.00052718 -0.001 -0.000266817 0.000721555 -0.001 -0.000150544 0.000668174 -0.001 
0.000381963 0.00065079 -0.001 0.000493113 0.000590432 -0.001 0.000505439 0.000463708 -0.001 
-0.000269094 0.000596608 -0.001 0.000385815 0.000532045 -0.001 0.000283599 0.0005899 -0.001 
-0.000176405 -0.000108505 -0.001 -0.000278769 -0.000475415 -0.001 0.000185395 2.33014e-06 -0.001 
0.000186773 0.000517571 -0.001 0.000540032 -8.68444e-05 -0.001 -0.000600694 -0.000514877 -0.001 
-0.00063703 8.98033e-05 -0.001 -0.000459677 0.000335729 -0.001 -0.000338836 -0.000100751 -0.001 
-0.000457327 0.000432721 -0.001 -8.72007e-06 -0.000210238 -0.001 0.000156073 0.000129496 -0.001 
-7.70692e-05 -0.000555049 -0.001 0.00036091 -0.000389728 -0.001 0.000531628 0.000120564 -0.001 
-0.000285451 0.000435562 -0.001 0.000192719 -0.000494604 -0.001 0.00041642 0.00039368 -0.001 
-0.000135943 0.000554637 -0.001 -0.000170665 -0.000610079 -0.001 -0.000666304 0.000434981 -0.001 
-0.000758736 0.000479231 -0.001 -0.000470189 -0.000458901 -0.001 0.000203433 -8.59809e-05 -0.001 
0.000101846 0.000170114 -0.001 -0.00035513 -0.00040726 -0.001 0.000100184 -0.000165831 -0.001 
2.96286e-05 0.00081537 -0.001 0.000720946 0.000381836 -0.001 -0.000539809 -0.000292001 -0.001 
0.00052211 -0.000182426 -0.001 -6.41339e-05 -0.000753908 -0.001 0.000638039 -0.000299861 -0.001 
-0.000605136 -0.000230182 -0.001 -3.41638e-05 -0.000145561 -0.001 -0.000104037 0.000172396 -0.001 
-0.000808575 -0.00042774 -0.001 -0.000807207 -0.000465052 -0.001 -0.00080817 0.000429771 -0.001 
-0.000806589 0.000469738 -0.001 -9.50634e-05 -0.000178909 -0.001 0.000247777 0.000445058 -0.001 
1.48293e-05 -0.000814201 -0.001 -4.11555e-05 0.000140955 -0.001 0.000276104 -0.000536845 -0.001 
0.000765969 -0.000436638 -0.001 0.000780871 -0.000362769 -0.001 0.000424176 -0.000642018 -0.001 
0.00053413 -0.000368009 -0.001 -0.000416333 4.17911e-05 -0.001 -0.000133891 -6.23822e-05 -0.001 
4.2574e-05 0.000206312 -0.001 0.000141163 -0.000121542 -0.001 0.000707423 0.000212137 -0.001 
0.000172327 0.000723882 -0.001 7.72652e-06 -0.00090254 -0.001 -0.000134435 5.66935e-05 -0.001 
-0.000188826 3.70894e-05 -0.001 0.000197119 8.09714e-05 -0.001 1.27801e-05 0.000917296 -0.001 
0.000800767 0.00044758 -0.001 -0.000686682 0.000507104 -0.001 9.35831e-05 0.000110457 -0.001 
-0.000696793 -0.000509595 -0.001 -0.00068446 -8.52012e-05 -0.001 -0.000691033 -0.000201242 -0.001 
5.24052e-05 -0.000189075 -0.001 -0.000151818 -0.000701092 -0.001 -0.000296988 0.000518087 -0.001 
9.31023e-05 -0.000108117 -0.001 0.00044261 -0.000416726 -0.001 0.000197044 -0.000784423 -0.001 
-0.000516861 0.000504567 -0.001 0.000298997 0.000502377 -0.001 

CELLS 563 3941
6 14 304 127 29 554 377 
6 143 259 55 393 509 103 
6 300 319 174 550 569 424 
6 259 349 55 509 599 103 
6 50 365 307 98 615 557 
6 299 320 164 549 570 414 
6 126 304 14 376 554 29 
6 298 319 300 548 569 550 
6 205 240 238 455 490 488 
6 257 308 145 507 558 395 
6 130 352 273 380 602 523 
6 295 320 299 545 570 549 
6 324 327 289 574 577 539 
6 235 258 143 485 508 393 
6 50 307 49 98 557 97 
6 207 283 279 457 533 529 
6 143 373 235 393 623 485 
6 145 308 252 395 558 502 
6 194 303 196 444 553 446 
6 279 306 207 529 556 457 
6 206 305 163 456 555 413 
6 51 357 9 99 607 24 
6 238 252 205 488 502 455 
6 293 317 209 543 567 459 
6 207 316 283 457 566 533 
6 142 301 249 392 551 499 
6 273 359 130 523 609 380 
6 211 327 324 461 577 574 
6 169 265 217 419 515 467 
6 7 365 50 22 615 98 
6 283 316 253 533 566 503 
6 159 268 223 409 518 473 
6 274 337 132 524 587 382 
6 232 361 329 482 611 579 
6 231 266 45 481 516 93 
6 229 362 330 479 612 580 
6 9 244 57 24 494 105 
6 230 276 52 480 526 100 
6 209 311 293 459 561 543 
6 131 342 302 381 592 552 
6 270 271 204 520 521 454 
6 66 243 1 114 493 16 
6 59 241 12 107 491 27 
6 280 306 279 530 556 529 
6 269 337 274 519 587 524 
6 179 256 224 429 506 474 
6 163 305 166 413 555 416 
6 201 303 194 451 553 444 
6 280 332 306 530 582 556 
6 186 255 225 436 505 475 
6 210 310 273 460 560 523 
6 153 270 204 403 520 454 
6 136 231 45 386 481 93 
6 171 265 169 421 515 419 
6 138 230 52 388 480 100 
6 225 354 325 475 604 575 
6 36 284 232 84 534 482 
6 161 268 159 411 518 409 
6 71 286 229 119 536 479 
6 290 303 201 540 553 451 
6 139 355 60 389 605 108 
6 60 355 248 108 605 498 
6 273 352 302 523 602 552 
6 235 373 245 485 623 495 
6 67 356 247 115 606 497 
6 221 295 277 471 545 527 
6 142 356 67 392 606 115 
6 139 283 253 389 533 503 
6 203 315 262 453 565 512 
6 41 257 145 89 507 395 
6 36 232 135 84 482 385 
6 71 229 137 119 479 387 
6 254 255 188 504 505 438 
6 233 350 334 483 600 584 
6 262 346 203 512 596 453 
6 304 325 127 554 575 377 
6 222 329 247 472 579 497 
6 218 298 260 468 548 510 
6 290 321 291 540 571 541 
6 272 310 240 522 560 490 
6 269 274 270 519 524 520 
6 244 245 57 494 495 105 
6 49 307 141 97 557 391 
6 225 325 256 475 575 506 
6 273 310 272 523 560 522 
6 312 368 255 562 618 505 
6 249 305 206 499 555 456 
6 228 331 251 478 581 501 
6 302 342 263 552 592 513 
6 338 339 44 588 589 92 
6 190 254 188 440 504 438 
6 37 341 340 85 591 590 
6 138 233 230 388 483 480 
6 228 335 331 478 585 581 
6 181 256 179 431 506 429 
6 195 263 226 445 513 476 
6 268 285 223 518 535 473 
6 290 291 288 540 541 538 
6 219 330 248 469 580 498 
6 201 321 290 451 571 540 
6 240 310 202 490 560 452 
6 188 255 186 438 505 436 
6 270 274 271 520 524 521 
6 262 349 259 512 599 509 
6 141 324 289 391 574 539 
6 296 301 142 546 551 392 
6 247 356 222 497 606 472 
6 239 252 238 489 502 488 
6 254 312 255 504 562 505 
6 54 261 53 102 511 101 
6 289 327 303 539 577 553 
6 268 353 285 518 603 535 
6 273 302 210 523 552 460 
6 292 299 293 542 549 543 
6 278 283 139 528 533 389 
6 175 265 171 425 515 421 
6 227 338 38 477 588 86 
6 264 360 265 514 610 515 
6 43 340 146 91 590 396 
6 165 268 161 415 518 411 
6 205 351 240 455 601 490 
6 64 281 63 112 531 111 
6 288 291 47 538 541 95 
6 135 295 294 385 545 544 
6 42 257 41 90 507 89 
6 245 373 57 495 623 105 
6 31 363 323 79 613 573 
6 292 293 140 542 543 390 
6 267 353 268 517 603 518 
6 155 270 153 405 520 403 
6 244 344 245 494 594 495 
6 61 278 139 109 528 389 
6 135 294 35 385 544 83 
6 69 297 296 117 547 546 
6 186 225 184 436 475 434 
6 329 361 243 579 611 493 
6 255 328 225 505 578 475 
6 213 332 280 463 582 530 
6 39 275 133 87 525 383 
6 330 362 241 580 612 491 
6 195 226 193 445 476 443 
6 211 324 251 461 574 501 
6 151 153 152 401 403 402 
6 295 299 294 545 549 544 
6 265 313 217 515 563 467 
6 258 259 143 508 509 393 
6 251 331 211 501 581 461 
6 149 151 150 399 401 400 
6 293 370 317 543 620 567 
6 153 204 152 403 454 402 
6 151 152 150 401 402 400 
6 33 292 140 81 542 390 
6 210 263 197 460 513 447 
6 301 305 249 551 555 499 
6 298 300 297 548 550 547 
6 68 296 142 116 546 392 
6 321 369 291 571 619 541 
6 179 224 177 429 474 427 
6 167 267 165 417 517 415 
6 259 346 262 509 596 512 
6 303 327 196 553 577 446 
6 269 270 155 519 520 405 
6 265 360 313 515 610 563 
6 223 269 157 473 519 407 
6 157 269 155 407 519 405 
6 144 279 278 394 529 528 
6 169 217 167 419 467 417 
6 177 264 175 427 514 425 
6 267 268 165 517 518 415 
6 159 223 157 409 473 407 
6 232 277 135 482 527 385 
6 193 254 190 443 504 440 
6 217 267 167 467 517 417 
6 249 356 142 499 606 392 
6 184 256 181 434 506 431 
6 248 355 219 498 605 469 
6 229 260 137 479 510 387 
6 149 150 148 399 400 398 
6 64 348 281 112 598 531 
6 311 374 293 561 624 543 
6 264 265 175 514 515 425 
6 297 300 296 547 550 546 
6 141 289 288 391 539 538 
6 197 263 195 447 513 445 
6 218 260 219 468 510 469 
6 224 264 177 474 514 427 
6 137 298 297 387 548 547 
6 277 295 135 527 545 385 
6 133 228 227 383 478 477 
6 261 349 262 511 599 512 
6 221 277 222 471 527 472 
6 256 325 224 506 575 474 
6 199 210 197 449 460 447 
6 226 254 193 476 504 443 
6 144 278 62 394 528 110 
6 279 283 278 529 533 528 
6 289 290 288 539 540 538 
6 137 297 70 387 547 118 
6 34 294 292 82 544 542 
6 235 236 216 485 486 466 
6 141 288 48 391 538 96 
6 178 306 180 428 556 430 
6 185 186 184 435 436 434 
6 63 281 144 111 531 394 
6 225 256 184 475 506 434 
6 46 291 136 94 541 386 
6 147 149 148 397 399 398 
6 271 272 204 521 522 454 
6 233 334 234 483 584 484 
6 145 275 40 395 525 88 
6 220 322 287 470 572 537 
6 280 334 213 530 584 463 
6 144 280 279 394 530 529 
6 140 287 32 390 537 80 
6 154 155 153 404 405 403 
6 334 350 213 584 600 463 
6 176 177 175 426 427 425 
6 260 298 137 510 548 387 
6 33 140 32 81 390 80 
6 49 141 48 97 391 96 
6 56 143 55 104 393 103 
6 68 142 67 116 392 115 
6 63 144 62 111 394 110 
6 61 139 60 109 389 108 
6 148 308 257 398 558 507 
6 71 137 70 119 387 118 
6 53 138 52 101 388 100 
6 46 136 45 94 386 93 
6 36 135 35 84 385 83 
6 43 146 134 91 396 384 
6 133 227 38 383 477 86 
6 192 193 190 442 443 440 
6 293 374 140 543 624 390 
6 34 292 33 82 542 81 
6 207 306 178 457 556 428 
6 43 134 42 91 384 90 
6 39 133 38 87 383 86 
6 41 145 40 89 395 88 
6 194 195 193 444 445 443 
6 69 296 68 117 546 116 
6 294 299 292 544 549 542 
6 173 175 171 423 425 421 
6 260 330 219 510 580 469 
6 183 184 181 433 434 431 
6 134 257 42 384 507 90 
6 55 349 54 103 599 102 
6 163 165 161 413 415 411 
6 166 167 165 416 417 415 
6 210 302 263 460 552 513 
6 271 273 272 521 523 522 
6 53 261 138 101 511 388 
6 217 326 267 467 576 517 
6 289 303 290 539 553 540 
6 178 179 177 428 429 427 
6 238 240 202 488 490 452 
6 62 278 61 110 528 109 
6 35 294 34 83 544 82 
6 284 361 232 534 611 482 
6 70 297 69 118 547 117 
6 224 304 264 474 554 514 
6 156 157 155 406 407 405 
6 48 288 47 96 538 95 
6 221 320 295 471 570 545 
6 187 188 186 437 438 436 
6 47 291 46 95 541 94 
6 151 154 153 401 404 403 
6 286 362 229 536 612 479 
6 168 169 167 418 419 417 
6 40 275 39 88 525 87 
6 307 324 141 557 574 391 
6 300 301 296 550 551 546 
6 32 287 31 80 537 79 
6 147 220 149 397 470 399 
6 333 344 231 583 594 481 
6 299 370 293 549 620 543 
6 271 359 273 521 609 523 
6 224 325 304 474 575 554 
6 228 237 227 478 487 477 
6 305 375 343 555 625 593 
6 218 319 298 468 569 548 
6 240 351 272 490 601 522 
6 277 329 222 527 579 472 
6 253 355 139 503 605 389 
6 158 159 157 408 409 407 
6 236 246 216 486 496 466 
6 192 194 193 442 444 443 
6 220 309 149 470 559 399 
6 183 185 184 433 435 434 
6 196 197 195 446 447 445 
6 276 347 58 526 597 106 
6 136 333 231 386 583 481 
6 67 247 66 115 497 114 
6 60 248 59 108 498 107 
6 261 262 250 511 512 500 
6 173 176 175 423 426 425 
6 344 357 231 594 607 481 
6 144 281 280 394 531 530 
6 152 205 150 402 455 400 
6 163 166 165 413 416 415 
6 185 187 186 435 437 436 
6 233 234 230 483 484 480 
6 170 171 169 420 421 419 
6 146 147 134 396 397 384 
6 176 178 177 426 428 427 
6 285 337 223 535 587 473 
6 154 156 155 404 406 405 
6 263 342 226 513 592 476 
6 235 245 236 485 495 486 
6 160 161 159 410 411 409 
6 58 347 242 106 597 492 
6 166 168 167 416 418 417 
6 287 374 220 537 624 470 
6 189 190 188 439 440 438 
6 148 257 134 398 507 384 
6 194 196 195 444 446 445 
6 252 308 205 502 558 455 
6 285 345 337 535 595 587 
6 301 375 305 551 625 555 
6 180 181 179 430 431 429 
6 281 348 234 531 598 484 
6 198 199 197 448 449 447 
6 151 309 154 401 559 404 
6 228 367 335 478 617 585 
6 54 349 261 102 599 511 
6 156 158 157 406 408 407 
6 168 170 169 418 420 419 
6 200 202 199 450 452 449 
6 147 148 134 397 398 384 
6 158 160 159 408 410 409 
6 150 308 148 400 558 398 
6 253 316 208 503 566 458 
6 232 329 277 482 579 527 
6 178 180 179 428 430 429 
6 191 192 190 441 442 440 
6 214 238 202 464 488 452 
6 172 173 171 422 423 421 
6 187 189 188 437 439 438 
6 162 163 161 412 413 411 
6 228 251 237 478 501 487 
6 215 258 235 465 508 485 
6 182 183 181 432 433 431 
6 202 310 199 452 560 449 
6 219 253 208 469 503 458 
6 222 249 206 472 499 456 
6 196 198 197 446 448 447 
6 229 330 260 479 580 510 
6 132 358 274 382 608 524 
6 149 309 151 399 559 401 
6 226 312 254 476 562 504 
6 154 309 209 404 559 459 
6 77 129 76 125 379 124 
6 73 128 72 121 378 120 
6 76 131 75 124 381 123 
6 74 132 73 122 382 121 
6 75 130 74 123 380 122 
6 14 127 77 29 377 125 
6 72 126 14 120 376 29 
6 133 367 228 383 617 478 
6 237 282 227 487 532 477 
6 239 366 252 489 616 502 
6 200 214 202 450 464 452 
6 192 201 194 442 451 444 
6 170 172 171 420 422 421 
6 220 311 309 470 561 559 
6 198 200 199 448 450 449 
6 189 191 190 439 441 440 
6 146 323 322 396 573 572 
6 160 162 161 410 412 411 
6 251 307 237 501 557 487 
6 199 310 210 449 560 460 
6 57 373 56 105 623 104 
6 214 239 238 464 489 488 
6 182 212 183 432 462 433 
6 180 182 181 430 432 431 
6 146 322 147 396 572 397 
6 172 218 208 422 468 458 
6 172 208 173 422 458 423 
6 162 221 206 412 471 456 
6 162 206 163 412 456 413 
6 176 207 178 426 457 428 
6 272 351 204 522 601 454 
6 198 211 200 448 461 450 
6 182 213 212 432 463 462 
6 234 334 281 484 584 531 
6 154 209 156 404 459 406 
6 185 203 187 435 453 437 
6 168 174 170 418 424 420 
6 189 215 191 439 465 441 
6 215 216 191 465 466 441 
6 221 222 206 471 472 456 
6 158 164 160 408 414 410 
6 218 219 208 468 469 458 
6 205 308 150 455 558 400 
6 191 314 192 441 564 442 
6 215 235 216 465 485 466 
6 215 318 258 465 568 508 
6 152 351 205 402 601 455 
6 138 261 250 388 511 500 
6 192 314 201 442 564 451 
6 234 347 230 484 597 480 
6 226 342 312 476 592 562 
6 138 250 233 388 500 483 
6 147 322 220 397 572 470 
6 216 314 191 466 564 441 
6 306 332 180 556 582 430 
6 222 356 249 472 606 499 
6 128 345 285 378 595 535 
6 314 321 201 564 571 451 
6 212 315 183 462 565 433 
6 312 342 336 562 592 586 
6 282 339 338 532 589 588 
6 340 341 323 590 591 573 
6 309 311 209 559 561 459 
6 183 315 185 433 565 435 
6 208 316 173 458 566 423 
6 173 316 176 423 566 426 
6 3 341 37 18 591 85 
6 44 339 6 92 589 21 
6 252 366 145 502 616 395 
6 246 321 314 496 571 564 
6 246 314 216 496 564 466 
6 126 364 313 376 614 563 
6 156 317 158 406 567 408 
6 275 367 133 525 617 383 
6 176 316 207 426 566 457 
6 185 315 203 435 565 453 
6 180 332 182 430 582 432 
6 302 352 131 552 602 381 
6 251 324 307 501 574 557 
6 187 318 189 437 568 439 
6 172 319 218 422 569 468 
6 162 320 221 412 570 471 
6 305 343 166 555 593 416 
6 170 319 172 420 569 422 
6 158 317 164 408 567 414 
6 209 317 156 459 567 406 
6 285 353 128 535 603 378 
6 223 337 269 473 587 519 
6 160 320 162 410 570 412 
6 211 331 200 461 581 450 
6 174 319 170 424 569 420 
6 203 318 187 453 568 437 
6 189 318 215 439 568 465 
6 198 327 211 448 577 461 
6 164 320 160 414 570 410 
6 326 353 267 576 603 517 
6 236 344 333 486 594 583 
6 196 327 198 446 577 448 
6 219 355 253 469 605 503 
6 281 334 280 531 584 530 
6 274 359 271 524 609 521 
6 164 370 299 414 620 549 
6 174 375 300 424 625 550 
6 287 363 31 537 613 79 
6 243 361 1 493 611 16 
6 241 362 12 491 612 27 
6 307 365 237 557 615 487 
6 166 343 168 416 593 418 
6 200 331 214 450 581 464 
6 313 326 217 563 576 467 
6 9 357 244 24 607 494 
6 1 361 30 16 611 78 
6 12 362 65 27 612 113 
6 337 345 132 587 595 382 
6 242 348 64 492 598 112 
6 231 357 266 481 607 516 
6 182 332 213 432 582 463 
6 245 344 236 495 594 486 
6 258 346 259 508 596 509 
6 145 366 275 395 616 525 
6 291 369 136 541 619 386 
6 236 333 246 486 583 496 
6 331 335 214 581 585 464 
6 312 336 129 562 586 379 
6 315 372 262 565 622 512 
6 220 374 311 470 624 561 
6 140 374 287 390 624 537 
6 126 360 304 376 610 554 
6 230 347 276 480 597 526 
6 313 364 326 563 614 576 
6 56 373 143 104 623 393 
6 239 367 366 489 617 616 
6 204 351 152 454 601 402 
6 300 375 301 550 625 551 
6 214 335 239 464 585 489 
6 247 329 243 497 579 493 
6 262 372 250 512 622 500 
6 248 330 241 498 580 491 
6 318 346 258 568 596 508 
6 333 369 246 583 619 496 
6 282 338 227 532 588 477 
6 146 340 323 396 590 573 
6 304 360 264 554 610 514 
6 366 367 275 616 617 525 
6 129 336 76 379 586 124 
6 73 345 128 121 595 378 
6 76 336 131 124 586 381 
6 250 350 233 500 600 483 
6 129 371 328 379 621 578 
6 132 345 73 382 595 121 
6 168 343 174 418 593 424 
6 131 352 75 381 602 123 
6 66 247 243 114 497 493 
6 59 248 241 107 498 491 
6 74 358 132 122 608 382 
6 203 346 318 453 596 568 
6 313 360 126 563 610 376 
6 128 364 72 378 614 120 
6 128 353 326 378 603 576 
6 77 371 129 125 621 379 
6 129 368 312 379 618 562 
6 244 357 344 494 607 594 
6 328 354 225 578 604 475 
6 326 364 128 576 614 378 
6 75 352 130 123 602 380 
6 350 372 212 600 622 462 
6 136 369 333 386 619 583 
6 325 354 127 575 604 377 
6 213 350 212 463 600 462 
6 130 358 74 380 608 122 
6 250 372 350 500 622 600 
6 317 370 164 567 620 414 
6 72 364 126 120 614 376 
6 328 368 129 578 618 379 
6 127 371 77 377 621 125 
6 336 342 131 586 592 381 
6 212 372 315 462 622 565 
6 234 348 347 484 598 597 
6 8 266 51 23 516 99 
6 10 276 58 25 526 106 
6 246 369 321 496 619 571 
6 30 284 0 78 534 15 
6 65 286 13 113 536 28 
6 58 242 11 106 492 26 
6 266 357 51 516 607 99 
6 255 368 328 505 618 578 
6 347 348 242 597 598 492 
6 322 363 287 572 613 537 
6 323 363 322 573 613 572 
6 335 367 239 585 617 489 
6 30 361 284 78 611 534 
6 65 362 286 113 612 536 
6 237 365 282 487 615 532 
6 130 359 358 380 609 608 
6 343 375 174 593 625 424 
6 354 371 127 604 621 377 
6 328 371 354 578 621 604 
6 358 359 274 608 609 524 
6 0 284 36 15 534 84 
6 45 266 8 93 516 23 
6 52 276 10 100 526 25 
6 11 242 64 26 492 112 
6 13 286 71 28 536 119 
6 2 323 3 17 573 18 
6 31 323 2 79 573 17 
6 323 341 3 573 591 18 
6 37 340 4 85 590 19 
6 4 340 43 19 590 91 
6 38 338 5 86 588 20 
6 5 338 44 20 588 92 
6 6 282 7 21 532 22 
6 6 339 282 21 589 532 
6 282 365 7 532 615 22 

CELL_TYPES 563
13
13
13
13
13
13
13
13
13
13
13
13
13
13
13
13
13
13
13
13
13
13
13
13
13
13
13
13
13
13
13
13
13
13
13
13
13
13
13
13
13
13
13
13
13
13
13
13
13
13
13
13
13
13
13
13
13
13
13
13
13
13
13
13
13
13
13
13
13
13
13
13
13
13
13
13
13
13
13
13
13
13
13
13
13
13
13
13
13
13
13
13
13
13
13
13
13
13
13
13
13
13
13
13
13
13
13
13
13
13
13
13
13
13
13
13
13
13
13
13
13
13
13
13
13
13
13
13
13
13
13
13
13
13
13
13
13
13
13
13
13
13
13
13
13
13
13
13
13
13
13
13
13
13
13
13
13
13
13
13
13
13
13
13
13
13
13
13
13
13
13
13
13
13
13
13
13
13
13
13
13
13
13
13
13
13
13
13
13
13
13
13
13
13
13
13
13
13
13
13
13
13
13
13
13
13
13
13
13
13
13
13
13
13
13
13
13
13
13
13
13
13
13
13
13
13
13
13
13
13
13
13
13
13
13
13
13
13
13
13
13
13
13
13
13
13
13
13
13
13
13
13
13
13
13
13
13
13
13
13
13
13
13
13
13
13
13
13
13
13
13
13
13
13
13
13
13
13
13
13
13
13
13
13
13
13
13
13
13
13
13
13
13
13
13
13
13
13
13
13
13
13
13
13
13
13
13
13
13
13
13
13
13
13
13
13
13
13
13
13
13
13
13
13
13
13
13
13
13
13
13
13
13
13
13
13
13
13
13
13
13
13
13
13
13
13
13
13
13
13
13
13
13
13
13
13
13
13
13
13
13
13
13
13
13
13
13
13
13
13
13
13
13
13
13
13
13
13
13
13
13
13
13
13
13
13
13
13
13
13
13
13
13
13
13
13
13
13
13
13
13
13
13
13
13
13
13
13
13
13
13
13
13
13
13
13
13
13
13
13
13
13
13
13
13
13
13
13
13
13
13
13
13
13
13
13
13
13
13
13
13
13
13
13
13
13
13
13
13
13
13
13
13
13
13
13
13
13
13
13
13
13
13
13
13
13
13
13
13
13
13
13
13
13
13
13
13
13
13
13
13
13
13
13
13
13
13
13
13
13
13
13
13
13
13
13
13
13
13
13
13
13
13
13
13
13
13
13
13
13
13
13
13
13
13
13
13
13
13
13
13
13
13
13
13
13
13
13
13
13
13
13
13
13
13
13
13
13
13
13
13
13
13
13
13
13
13
13
13
13
13
13
13
13
13
13
13
13
13
13
13
13
13

POINT_DATA 626
VECTORS displacement float
-1.74395e-06 3.09544e-05 1.8055e-05
1.73566e-06 3.09734e-05 1.81001e-05
-2.59862e-05 1.69928e-05 1.8087e-05
-2.58408e-05 1.6033e-05 1.80516e-05
-2.77206e-05 1.39727e-05 1.8069e-05
-2.77135e-05 -1.4019e-05 1.80945e-05
-2.5812e-05 -1.60711e-05 1.81058e-05
-2.59824e-05 -1.70109e-05 1.8167e-05
-1.6774e-06 -3.09581e-05 1.80514e-05
1.75545e-06 -3.09596e-05 1.81018e-05
2.59436e-05 -1.69806e-05 1.80434e-05
2.77169e-05 -1.39366e-05 1.80433e-05
2.76724e-05 1.39894e-05 1.80916e-05
2.59149e-05 1.69929e-05 1.8046e-05
0 0 0
-1.74395e-06 3.09544e-05 -1.8055e-05
1.73566e-06 3.09734e-05 -1.81001e-05
-2.59862e-05 1.69928e-05 -1.8087e-05
-2.58408e-05 1.6033e-05 -1.80516e-05
-2.77206e-05 1.39727e-05 -1.8069e-05
-2.77135e-05 -1.4019e-05 -1.80945e-05
-2.5812e-05 -1.60711e-05 -1.81058e-05
-2.59824e-05 -1.70109e-05 -1.8167e-05
-1.6774e-06 -3.09581e-05 -1.80514e-05
1.75545e-06 -3.09596e-05 -1.81018e-05
2.59436e-05 -1.69806e-05 -1.80434e-05
2.77169e-05 -1.39366e-05 -1.80433e-05
2.76724e-05 1.39894e-05 -1.80916e-05
2.59149e-05 1.69929e-05 -1.8046e-05
0 0 0
2.48947e-08 3.01542e-05 1.80341e-05
-2.11405e-05 1.87123e-05 1.75497e-05
-1.72324e-05 1.98337e-05 1.69207e-05
-1.40069e-05 2.10541e-05 1.65548e-05
-1.12068e-05 2.26647e-05 1.65487e-05
-8.52405e-06 2.48327e-05 1.69013e-05
-5.56778e-06 2.76216e-05 1.75374e-05
-2.64498e-05 1.46791e-05 1.80334e-05
-2.67686e-05 -9.01148e-06 1.75773e-05
-2.58061e-05 -5.03544e-06 1.69259e-05
-2.52544e-05 -1.6362e-06 1.65713e-05
-2.52573e-05 1.60784e-06 1.65743e-05
-2.57984e-05 5.02284e-06 1.69241e-05
-2.67548e-05 8.98457e-06 1.75638e-05
-2.64367e-05 -1.47254e-05 1.80622e-05
-5.54104e-06 -2.76361e-05 1.75296e-05
-8.47657e-06 -2.48418e-05 1.69006e-05
-1.117e-05 -2.26842e-05 1.65561e-05
-1.39705e-05 -2.10871e-05 1.65595e-05
-1.72149e-05 -1.98691e-05 1.69366e-05
-2.11341e-05 -1.87491e-05 1.75621e-05
8.98404e-08 -3.0139e-05 1.80293e-05
2.11239e-05 -1.86248e-05 1.75114e-05
1.72446e-05 -1.97621e-05 1.68728e-05
1.40338e-05 -2.10111e-05 1.65115e-05
1.1225e-05 -2.25929e-05 1.6546e-05
8.58121e-06 -2.478e-05 1.68741e-05
5.65467e-06 -2.76263e-05 1.75349e-05
2.61245e-05 -1.50596e-05 1.80283e-05
2.67167e-05 8.93835e-06 1.75014e-05
2.57219e-05 5.04956e-06 1.69083e-05
2.52065e-05 1.62331e-06 1.65231e-05
2.52036e-05 -1.59942e-06 1.65214e-05
2.57506e-05 -4.99735e-06 1.68882e-05
2.66988e-05 -8.91711e-06 1.75096e-05
2.61075e-05 1.50608e-05 1.80253e-05
5.63313e-06 2.76177e-05 1.75095e-05
8.50859e-06 2.48067e-05 1.69111e-05
1.1217e-05 2.26409e-05 1.65293e-05
1.40044e-05 2.1022e-05 1.65246e-05
1.72216e-05 1.97934e-05 1.6885e-05
2.11149e-05 1.86344e-05 1.75253e-05
0 0 0
0 0 0
0 0 0
0 0 0
0 0 0
0 0 0
2.48947e-08 3.01542e-05 -1.80341e-05
-2.11405e-05 1.87123e-05 -1.75497e-05
-1.72324e-05 1.98337e-05 -1.69207e-05
-1.40069e-05 2.10541e-05 -1.65548e-05
-1.12068e-05 2.26647e-05 -1.65487e-05
-8.52405e-06 2.48327e-05 -1.69013e-05
-5.56778e-06 2.76216e-05 -1.75374e-05
-2.64498e-05 1.46791e-05 -1.80334e-05
-2.67686e-05 -9.01148e-06 -1.75773e-05
-2.58061e-05 -5.03544e-06 -1.69259e-05
-2.52544e-05 -1.6362e-06 -1.65713e-05
-2.52573e-05 1.60784e-06 -1.65743e-05
-2.57984e-05 5.02284e-06 -1.69241e-05
-2.67548e-05 8.98457e-06 -1.75638e-05
-2.64367e-05 -1.47254e-05 -1.80622e-05
-5.54104e-06 -2.76361e-05 -1.75296e-05
-8.47657e-06 -2.48418e-05 -1.69006e-05
-1.117e-05 -2.26842e-05 -1.65561e-05
-1.39705e-05 -2.10871e-05 -1.65595e-05
-1.72149e-05 -1.98691e-05 -1.69366e-05
-2.11341e-05 -1.87491e-05 -1.75621e-05
8.98404e-08 -3.0139e-05 -1.80293e-05
2.11239e-05 -1.86248e-05 -1.75114e-05
1.72446e-05 -1.97621e-05 -1.68728e-05
1.40338e-05 -2.10111e-05 -1.65115e-05
1.1225e-05 -2.25929e-05 -1.6546e-05
8.58121e-06 -2.478e-05 -1.68741e-05
5.65467e-06 -2.76263e-05 -1.75349e-05
2.61245e-05 -1.50596e-05 -1.80283e-05
2.67167e-05 8.93835e-06 -1.75014e-05
2.57219e-05 5.04956e-06 -1.69083e-05
2.52065e-05 1.62331e-06 -1.65231e-05
2.52036e-05 -1.59942e-06 -1.65214e-05
2.57506e-05 -4.99735e-06 -1.68882e-05
2.66988e-05 -8.91711e-06 -1.75096e-05
2.61075e-05 1.50608e-05 -1.80253e-05
5.63313e-06 2.76177e-05 -1.75095e-05
8.50859e-06 2.48067e-05 -1.69111e-05
1.1217e-05 2.26409e-05 -1.65293e-05
1.40044e-05 2.1022e-05 -1.65246e-05
1.72216e-05 1.97934e-05 -1.6885e-05
2.11149e-05 1.86344e-05 -1.75253e-05
0 0 0
0 0 0
0 0 0
0 0 0
0 0 0
0 0 0
1.79367e-06 8.58742e-07 4.55222e-06
1.73781e-06 -8.2511e-07 4.46077e-06
4.31952e-07 1.84962e-06 4.49509e-06
4.36096e-07 -1.78062e-06 4.35606e-06
-1.84748e-06 2.0963e-08 4.42233e-06
-1.12308e-06 -1.30887e-06 4.15097e-06
-1.1592e-06 1.30679e-06 4.19975e-06
-2.25129e-05 -7.28763e-06 1.69998e-05
-2.21963e-05 7.37152e-06 1.69685e-05
-4.86042e-06 2.28984e-05 1.69369e-05
-4.85793e-06 -2.31315e-05 1.69638e-05
1.74211e-05 1.56354e-05 1.69297e-05
1.75687e-05 -1.55364e-05 1.6939e-05
2.10734e-05 3.16386e-06 1.63243e-05
-1.3953e-05 1.71511e-05 1.64783e-05
-1.35911e-05 -1.67411e-05 1.64098e-05
7.7678e-06 1.98194e-05 1.63311e-05
7.68482e-06 -2.03098e-05 1.64024e-05
2.14722e-05 -3.44371e-06 1.64e-05
-2.11026e-05 6.58809e-09 1.62465e-05
-2.24202e-05 1.09997e-05 1.74535e-05
-1.87508e-05 9.25464e-06 1.66269e-05
-1.79826e-05 5.79541e-06 1.60362e-05
-1.49839e-05 7.44828e-06 1.54862e-05
-1.42243e-05 4.30769e-06 1.48295e-05
-1.15325e-05 5.74385e-06 1.40945e-05
-1.08579e-05 3.06871e-06 1.33734e-05
-8.40043e-06 4.30484e-06 1.24041e-05
-9.05874e-06 7.01336e-06 1.34561e-05
-6.20406e-06 5.48847e-06 1.16888e-05
-6.82825e-06 8.24938e-06 1.30797e-05
-4.28137e-06 6.67486e-06 1.14503e-05
-4.79998e-06 9.60986e-06 1.30937e-05
-2.40085e-06 7.99329e-06 1.17228e-05
-2.81283e-06 1.11671e-05 1.34747e-05
-4.75407e-07 9.59523e-06 1.25008e-05
-7.38349e-07 1.29968e-05 1.41415e-05
1.73107e-06 1.15177e-05 1.35348e-05
-5.53465e-06 1.27003e-05 1.44367e-05
1.68507e-06 8.22392e-06 1.17474e-05
4.00415e-06 1.01208e-05 1.31507e-05
3.70533e-06 7.0979e-06 1.1478e-05
6.06736e-06 8.96661e-06 1.31131e-05
5.76678e-06 6.10675e-06 1.17354e-05
8.35802e-06 8.02027e-06 1.34918e-05
8.1056e-06 5.19523e-06 1.25001e-05
1.09539e-05 7.097e-06 1.41467e-05
1.07459e-05 4.32277e-06 1.34989e-05
8.53046e-06 1.10374e-05 1.44605e-05
7.93764e-06 2.64373e-06 1.17272e-05
1.06459e-05 1.73719e-06 1.31038e-05
7.94863e-06 3.58758e-07 1.14554e-05
1.08063e-05 -7.59107e-07 1.31239e-05
8.11159e-06 -1.93779e-06 1.17089e-05
1.10982e-05 -3.31283e-06 1.34837e-05
8.46968e-06 -4.42395e-06 1.24438e-05
1.15036e-05 -6.00284e-06 1.41092e-05
8.95551e-06 -7.13806e-06 1.34279e-05
6.14748e-06 -5.49438e-06 1.16411e-05
6.64445e-06 -8.30081e-06 1.30181e-05
4.10518e-06 -6.58847e-06 1.13107e-05
4.52333e-06 -9.55081e-06 1.29881e-05
2.24228e-06 -7.85824e-06 1.15972e-05
2.48482e-06 -1.10018e-05 1.33507e-05
2.2529e-07 -9.37363e-06 1.23534e-05
3.30012e-07 -1.27697e-05 1.40336e-05
-1.91542e-06 -1.11506e-05 1.33768e-05
-1.84106e-06 -7.92157e-06 1.1582e-05
-4.16787e-06 -9.87479e-06 1.30848e-05
-3.81392e-06 -6.73046e-06 1.13169e-05
-6.34558e-06 -8.66197e-06 1.30991e-05
-5.89126e-06 -5.69798e-06 1.16282e-05
-8.49967e-06 -7.43575e-06 1.33795e-05
-8.1675e-06 -4.72803e-06 1.24084e-05
-1.10956e-05 -6.40273e-06 1.40697e-05
-4.37163e-06 -1.31231e-05 1.44335e-05
-1.08088e-05 -3.65066e-06 1.3439e-05
7.22608e-06 -1.13727e-05 1.42728e-05
-7.74166e-06 1.98267e-06 1.14928e-05
-1.3216e-05 1.03505e-06 1.42108e-05
1.72911e-06 1.50827e-05 1.49521e-05
1.3768e-05 4.62235e-07 1.43876e-05
1.38431e-05 6.10007e-06 1.49316e-05
-9.69401e-06 1.01962e-05 1.45324e-05
-5.41599e-06 -3.19764e-06 1.0182e-05
-1.17135e-05 -9.29729e-06 1.48891e-05
1.18823e-05 -8.76017e-06 1.4787e-05
1.47817e-05 -7.47357e-06 1.54032e-05
-1.39597e-05 -5.24387e-06 1.48615e-05
2.79581e-06 -1.45161e-05 1.47961e-05
4.24561e-07 -1.64993e-05 1.53976e-05
3.51842e-06 4.39692e-06 9.58103e-06
1.40105e-05 9.29902e-06 1.54915e-05
1.79307e-05 8.14492e-06 1.63005e-05
-1.56754e-05 1.13953e-05 1.62334e-05
-1.09408e-06 1.6769e-05 1.54952e-05
1.90685e-06 1.96215e-05 1.63109e-05
-2.09186e-06 5.22006e-06 9.59753e-06
5.55392e-06 -7.84601e-07 9.59408e-06
3.58594e-06 -3.68355e-06 9.08192e-06
-1.77963e-06 -5.17856e-06 9.44954e-06
-2.24687e-05 -1.10108e-05 1.74743e-05
-1.87981e-05 -9.24138e-06 1.6651e-05
2.11478e-05 1.41647e-05 1.75055e-05
2.07537e-05 -1.43176e-05 1.74355e-05
-1.7646e-06 -2.54464e-05 1.75109e-05
-1.68213e-06 2.54105e-05 1.75155e-05
1.77129e-05 -1.19068e-05 1.66871e-05
2.06456e-05 -1.0751e-05 1.71159e-05
3.77563e-06 -1.89851e-05 1.61393e-05
7.68529e-07 -2.03457e-05 1.64828e-05
-1.9405e-05 -1.26505e-05 1.71431e-05
-1.3731e-05 -2.30691e-06 1.44718e-05
-1.65926e-05 -3.70141e-06 1.54774e-05
-1.03758e-05 -1.09638e-06 1.2952e-05
2.4452e-05 1.10727e-05 1.76516e-05
2.54975e-05 -1.24032e-05 1.78481e-05
2.64925e-06 2.67259e-05 1.76604e-05
2.521e-06 -2.64135e-05 1.76293e-05
3.33946e-06 -2.30318e-05 1.7029e-05
-2.05388e-06 -1.83198e-05 1.59508e-05
4.05906e-06 2.37912e-05 1.71303e-05
2.26141e-05 8.37921e-06 1.71192e-05
4.61358e-06 1.73132e-05 1.57272e-05
1.44269e-05 -1.31194e-05 1.61373e-05
-1.57876e-05 -1.09847e-05 1.62145e-05
-1.67997e-05 -3.81425e-07 1.53772e-05
1.73058e-05 4.68745e-06 1.57255e-05
6.55217e-08 -6.38727e-06 1.02673e-05
1.7417e-06 -4.84843e-06 9.09242e-06
5.85043e-06 -2.93549e-06 1.03781e-05
-2.14441e-05 3.75048e-06 1.64587e-05
5.72933e-06 -1.62744e-05 1.55076e-05
9.0834e-06 -1.74989e-05 1.59974e-05
1.75721e-05 1.18816e-05 1.66722e-05
1.39941e-05 -1.63821e-05 1.64011e-05
1.07399e-05 -1.37889e-05 1.555e-05
-3.54795e-06 -4.22017e-06 9.50069e-06
5.39908e-06 1.13849e-06 9.49897e-06
5.21802e-06 3.22285e-06 1.00471e-05
-1.74978e-06 -2.83544e-05 1.78768e-05
1.89205e-06 5.29886e-06 9.58437e-06
-1.13823e-07 6.10496e-06 1.00387e-05
-3.7849e-06 4.12771e-06 9.57833e-06
-5.62264e-06 3.03416e-06 1.02852e-05
-5.16544e-06 1.04067e-06 9.21354e-06
-7.52719e-06 -6.17387e-08 1.11723e-05
-4.33434e-06 -8.10273e-07 8.38179e-06
-3.10857e-06 1.87232e-06 7.37401e-06
-2.2081e-05 -3.60772e-06 1.65157e-05
2.34061e-05 -1.56879e-05 1.7836e-05
-1.50719e-06 2.11678e-05 1.66819e-05
2.12615e-05 -8.45189e-08 1.62256e-05
1.76219e-05 -1.64679e-06 1.55813e-05
1.73476e-05 -4.94163e-06 1.57705e-05
2.18914e-05 -7.45105e-06 1.69135e-05
-2.31821e-05 -1.42545e-05 1.78326e-05
1.73245e-05 1.64886e-06 1.55084e-05
-1.734e-06 2.84729e-05 1.7894e-05
-4.22069e-07 3.68339e-06 7.49524e-06
2.37718e-05 1.57423e-05 1.78845e-05
-1.74972e-05 1.56421e-05 1.69748e-05
-1.06261e-05 -1.8466e-05 1.62549e-05
-1.00995e-05 -1.43422e-05 1.55715e-05
-7.50771e-06 -1.60947e-05 1.56219e-05
-7.32207e-06 -2.01204e-05 1.63952e-05
-1.07044e-05 1.85351e-05 1.62667e-05
-1.03472e-05 1.4384e-05 1.56192e-05
-7.77259e-06 2.04923e-05 1.64441e-05
-4.25296e-06 1.86095e-05 1.60529e-05
1.07596e-05 1.83453e-05 1.6226e-05
1.38916e-05 1.69348e-05 1.64309e-05
1.40418e-05 1.29728e-05 1.60512e-05
-7.36152e-06 1.62882e-05 1.56384e-05
1.0525e-05 1.45469e-05 1.56451e-05
7.74869e-06 1.60922e-05 1.56138e-05
-3.11645e-06 -1.89875e-06 7.39313e-06
-7.25759e-06 -1.24219e-05 1.4625e-05
3.00864e-06 4.03599e-08 6.60093e-06
4.87254e-06 1.35226e-05 1.4618e-05
1.40759e-05 -2.26037e-06 1.45703e-05
-1.72896e-05 -1.52166e-05 1.69454e-05
-1.73664e-05 2.42029e-06 1.55977e-05
-1.22046e-05 8.91188e-06 1.49434e-05
-7.70558e-06 -2.29251e-06 1.15546e-05
-1.24497e-05 1.18126e-05 1.55399e-05
-1.42735e-07 -3.75421e-06 7.55413e-06
2.73022e-06 2.27207e-06 7.25188e-06
-2.00385e-06 -1.46504e-05 1.4808e-05
9.36503e-06 -1.00682e-05 1.43893e-05
1.38607e-05 3.15779e-06 1.4566e-05
-7.33999e-06 1.11993e-05 1.42602e-05
4.99719e-06 -1.27747e-05 1.43692e-05
1.10318e-05 1.04304e-05 1.49196e-05
-3.59642e-06 1.46852e-05 1.49079e-05
-4.63544e-06 -1.66168e-05 1.55487e-05
-1.9507e-05 1.28924e-05 1.71612e-05
-2.31268e-05 1.48581e-05 1.78434e-05
-1.29049e-05 -1.2686e-05 1.58124e-05
3.76078e-06 -1.58612e-06 7.90691e-06
1.76439e-06 2.92227e-06 7.0844e-06
-9.23043e-06 -1.06094e-05 1.45317e-05
1.72773e-06 -2.82315e-06 6.93103e-06
9.94729e-07 2.41168e-05 1.73084e-05
2.13679e-05 1.11938e-05 1.72986e-05
-1.46646e-05 -7.95335e-06 1.54853e-05
1.3708e-05 -4.7863e-06 1.46906e-05
-1.90988e-06 -2.17629e-05 1.68027e-05
1.80603e-05 -8.41903e-06 1.63407e-05
-1.66789e-05 -6.32854e-06 1.57824e-05
-4.32899e-07 -1.92232e-06 4.79845e-06
-1.80536e-06 2.99543e-06 7.17714e-06
-2.50519e-05 -1.29818e-05 1.79222e-05
-2.51271e-05 -1.45072e-05 1.80021e-05
-2.50451e-05 1.30337e-05 1.7906e-05
-2.5118e-05 1.46499e-05 1.79821e-05
-1.64845e-06 -3.12484e-06 7.20988e-06
6.32792e-06 1.13683e-05 1.40765e-05
5.3371e-07 -2.4086e-05 1.73022e-05
-5.22776e-07 1.80954e-06 4.64499e-06
7.40743e-06 -1.43436e-05 1.51523e-05
2.33028e-05 -1.32093e-05 1.77288e-05
2.36326e-05 -1.05375e-05 1.74908e-05
1.19884e-05 -1.82109e-05 1.62932e-05
1.47301e-05 -1.01466e-05 1.57955e-05
-1.0027e-05 1.00124e-06 1.27546e-05
-1.74001e-06 -8.159e-07 4.72344e-06
7.69062e-07 3.70834e-06 7.57311e-06
2.34307e-06 -1.99715e-06 6.55526e-06
2.01565e-05 5.8978e-06 1.64536e-05
5.07008e-06 2.05959e-05 1.6496e-05
3.42118e-07 -2.768e-05 1.7854e-05
-1.73122e-06 7.0911e-07 4.60631e-06
-3.2115e-06 6.23046e-07 6.82412e-06
3.57721e-06 1.47541e-06 7.63659e-06
4.99225e-07 2.83238e-05 1.79272e-05
2.47603e-05 1.37341e-05 1.79184e-05
-2.03283e-05 1.55358e-05 1.7429e-05
1.1787e-06 1.36447e-06 4.45984e-06
-2.06396e-05 -1.57284e-05 1.75276e-05
-1.89988e-05 -2.32217e-06 1.59461e-05
-1.95591e-05 -5.58497e-06 1.63322e-05
9.0568e-07 -3.24775e-06 7.00608e-06
-4.36601e-06 -1.97892e-05 1.63218e-05
-7.93726e-06 1.38344e-05 1.5101e-05
1.16575e-06 -1.30418e-06 4.33928e-06
1.19344e-05 -1.12283e-05 1.52921e-05
6.13306e-06 -2.2696e-05 1.68205e-05
-1.45221e-05 1.43553e-05 1.63236e-05
7.92905e-06 1.33212e-05 1.49479e-05
1.79367e-06 8.58742e-07 -4.55222e-06
1.73781e-06 -8.2511e-07 -4.46077e-06
4.31952e-07 1.84962e-06 -4.49509e-06
4.36096e-07 -1.78062e-06 -4.35606e-06
-1.84748e-06 2.0963e-08 -4.42233e-06
-1.12308e-06 -1.30887e-06 -4.15097e-06
-1.1592e-06 1.30679e-06 -4.19975e-06
-2.25129e-05 -7.28763e-06 -1.69998e-05
-2.21963e-05 7.37152e-06 -1.69685e-05
-4.86042e-06 2.28984e-05 -1.69369e-05
-4.85793e-06 -2.31315e-05 -1.69638e-05
1.74211e-05 1.56354e-05 -1.69297e-05
1.75687e-05 -1.55364e-05 -1.6939e-05
2.10734e-05 3.16386e-06 -1.63243e-05
-1.3953e-05 1.71511e-05 -1.64783e-05
-1.35911e-05 -1.67411e-05 -1.64098e-05
7.7678e-06 1.98194e-05 -1.63311e-05
7.68482e-06 -2.03098e-05 -1.64024e-05
2.14722e-05 -3.44371e-06 -1.64e-05
-2.11026e-05 6.58809e-09 -1.62465e-05
-2.24202e-05 1.09997e-05 -1.74535e-05
-1.87508e-05 9.25464e-06 -1.66269e-05
-1.79826e-05 5.79541e-06 -1.60362e-05
-1.49839e-05 7.44828e-06 -1.54862e-05
-1.42243e-05 4.30769e-06 -1.48295e-05
-1.15325e-05 5.74385e-06 -1.40945e-05
-1.08579e-05 3.06871e-06 -1.33734e-05
-8.40043e-06 4.30484e-06 -1.24041e-05
-9.05874e-06 7.01336e-06 -1.34561e-05
-6.20406e-06 5.48847e-06 -1.16888e-05
-6.82825e-06 8.24938e-06 -1.30797e-05
-4.28137e-06 6.67486e-06 -1.14503e-05
-4.79998e-06 9.60986e-06 -1.30937e-05
-2.40085e-06 7.99329e-06 -1.17228e-05
-2.81283e-06 1.11671e-05 -1.34747e-05
-4.75407e-07 9.59523e-06 -1.25008e-05
-7.38349e-07 1.29968e-05 -1.41415e-05
1.73107e-06 1.15177e-05 -1.35348e-05
-5.53465e-06 1.27003e-05 -1.44367e-05
1.68507e-06 8.22392e-06 -1.17474e-05
4.00415e-06 1.01208e-05 -1.31507e-05
3.70533e-06 7.0979e-06 -1.1478e-05
6.06736e-06 8.96661e-06 -1.31131e-05
5.76678e-06 6.10675e-06 -1.17354e-05
8.35802e-06 8.02027e-06 -1.34918e-05
8.1056e-06 5.19523e-06 -1.25001e-05
1.09539e-05 7.097e-06 -1.41467e-05
1.07459e-05 4.32277e-06 -1.34989e-05
8.53046e-06 1.10374e-05 -1.44605e-05
7.93764e-06 2.64373e-06 -1.17272e-05
1.06459e-05 1.73719e-06 -1.31038e-05
7.94863e-06 3.58758e-07 -1.14554e-05
1.08063e-05 -7.59107e-07 -1.31239e-05
8.11159e-06 -1.93779e-06 -1.17089e-05
1.10982e-05 -3.31283e-06 -1.34837e-05
8.46968e-06 -4.42395e-06 -1.24438e-05
1.15036e-05 -6.00284e-06 -1.41092e-05
8.95551e-06 -7.13806e-06 -1.34279e-05
6.14748e-06 -5.49438e-06 -1.16411e-05
6.64445e-06 -8.30081e-06 -1.30181e-05
4.10518e-06 -6.58847e-06 -1.13107e-05
4.52333e-06 -9.55081e-06 -1.29881e-05
2.24228e-06 -7.85824e-06 -1.15972e-05
2.48482e-06 -1.10018e-05 -1.33507e-05
2.2529e-07 -9.37363e-06 -1.23534e-05
3.30012e-07 -1.27697e-05 -1.40336e-05
-1.91542e-06 -1.11506e-05 -1.33768e-05
-1.84106e-06 -7.92157e-06 -1.1582e-05
-4.16787e-06 -9.87479e-06 -1.30848e-05
-3.81392e-06 -6.73046e-06 -1.13169e-05
-6.34558e-06 -8.66197e-06 -1.30991e-05
-5.89126e-06 -5.69798e-06 -1.16282e-05
-8.49967e-06 -7.43575e-06 -1.33795e-05
-8.1675e-06 -4.72803e-06 -1.24084e-05
-1.10956e-05 -6.40273e-06 -1.40697e-05
-4.37163e-06 -1.31231e-05 -1.44335e-05
-1.08088e-05 -3.65066e-06 -1.3439e-05
7.22608e-06 -1.13727e-05 -1.42728e-05
-7.74166e-06 1.98267e-06 -1.14928e-05
-1.3216e-05 1.03505e-06 -1.42108e-05
1.72911e-06 1.50827e-05 -1.49521e-05
1.3768e-05 4.62235e-07 -1.43876e-05
1.38431e-05 6.10007e-06 -1.49316e-05
-9.69401e-06 1.01962e-05 -1.45324e-05
-5.41599e-06 -3.19764e-06 -1.0182e-05
-1.17135e-05 -9.29729e-06 -1.48891e-05
1.18823e-05 -8.76017e-06 -1.4787e-05
1.47817e-05 -7.47357e-06 -1.54032e-05
-1.39597e-05 -5.24387e-06 -1.48615e-05
2.79581e-06 -1.45161e-05 -1.47961e-05
4.24561e-07 -1.64993e-05 -1.53976e-05
3.51842e-06 4.39692e-06 -9.58103e-06
1.40105e-05 9.29902e-06 -1.54915e-05
1.79307e-05 8.14492e-06 -1.63005e-05
-1.56754e-05 1.13953e-05 -1.62334e-05
-1.09408e-06 1.6769e-05 -1.54952e-05
1.90685e-06 1.96215e-05 -1.63109e-05
-2.09186e-06 5.22006e-06 -9.59753e-06
5.55392e-06 -7.84601e-07 -9.59408e-06
3.58594e-06 -3.68355e-06 -9.08192e-06
-1.77963e-06 -5.17856e-06 -9.44954e-06
-2.24687e-05 -1.10108e-05 -1.74743e-05
-1.87981e-05 -9.24138e-06 -1.6651e-05
2.11478e-05 1.41647e-05 -1.75055e-05
2.07537e-05 -1.43176e-05 -1.74355e-05
-1.7646e-06 -2.54464e-05 -1.75109e-05
-1.68213e-06 2.54105e-05 -1.75155e-05
1.77129e-05 -1.19068e-05 -1.66871e-05
2.06456e-05 -1.0751e-05 -1.71159e-05
3.77563e-06 -1.89851e-05 -1.61393e-05
7.68529e-07 -2.03457e-05 -1.64828e-05
-1.9405e-05 -1.26505e-05 -1.71431e-05
-1.3731e-05 -2.30691e-06 -1.44718e-05
-1.65926e-05 -3.70141e-06 -1.54774e-05
-1.03758e-05 -1.09638e-06 -1.2952e-05
2.4452e-05 1.10727e-05 -1.76516e-05
2.54975e-05 -1.24032e-05 -1.78481e-05
2.64925e-06 2.67259e-05 -1.76604e-05
2.521e-06 -2.64135e-05 -1.76293e-05
3.33946e-06 -2.30318e-05 -1.7029e-05
-2.05388e-06 -1.83198e-05 -1.59508e-05
4.05906e-06 2.37912e-05 -1.71303e-05
2.26141e-05 8.37921e-06 -1.71192e-05
4.61358e-06 1.73132e-05 -1.57272e-05
1.44269e-05 -1.31194e-05 -1.61373e-05
-1.57876e-05 -1.09847e-05 -1.62145e-05
-1.67997e-05 -3.81425e-07 -1.53772e-05
1.73058e-05 4.68745e-06 -1.57255e-05
6.55217e-08 -6.38727e-06 -1.02673e-05
1.7417e-06 -4.84843e-06 -9.09242e-06
5.85043e-06 -2.93549e-06 -1.03781e-05
-2.14441e-05 3.75048e-06 -1.64587e-05
5.72933e-06 -1.62744e-05 -1.55076e-05
9.0834e-06 -1.74989e-05 -1.59974e-05
1.75721e-05 1.18816e-05 -1.66722e-05
1.39941e-05 -1.63821e-05 -1.64011e-05
1.07399e-05 -1.37889e-05 -1.555e-05
-3.54795e-06 -4.22017e-06 -9.50069e-06
5.39908e-06 1.13849e-06 -9.49897e-06
5.21802e-06 3.22285e-06 -1.00471e-05
-1.74978e-06 -2.83544e-05 -1.78768e-05
1.89205e-06 5.29886e-06 -9.58437e-06
-1.13823e-07 6.10496e-06 -1.00387e-05
-3.7849e-06 4.12771e-06 -9.57833e-06
-5.62264e-06 3.03416e-06 -1.02852e-05
-5.16544e-06 1.04067e-06 -9.21354e-06
-7.52719e-06 -6.17387e-08 -1.11723e-05
-4.33434e-06 -8.10273e-07 -8.38179e-06
-3.10857e-06 1.87232e-06 -7.37401e-06
-2.2081e-05 -3.60772e-06 -1.65157e-05
2.34061e-05 -1.56879e-05 -1.7836e-05
-1.50719e-06 2.11678e-05 -1.66819e-05
2.12615e-05 -8.45189e-08 -1.62256e-05
1.76219e-05 -1.64679e-06 -1.55813e-05
1.73476e-05 -4.94163e-06 -1.57705e-05
2.18914e-05 -7.45105e-06 -1.69135e-05
-2.31821e-05 -1.42545e-05 -1.78326e-05
1.73245e-05 1.64886e-06 -1.55084e-05
-1.734e-06 2.84729e-05 -1.7894e-05
-4.22069e-07 3.68339e-06 -7.49524e-06
2.37718e-05 1.57423e-05 -1.78845e-05
-1.74972e-05 1.56421e-05 -1.69748e-05
-1.06261e-05 -1.8466e-05 -1.62549e-05
-1.00995e-05 -1.43422e-05 -1.55715e-05
-7.50771e-06 -1.60947e-05 -1.56219e-05
-7.32207e-06 -2.01204e-05 -1.63952e-05
-1.07044e-05 1.85351e-05 -1.62667e-05
-1.03472e-05 1.4384e-05 -1.56192e-05
-7.77259e-06 2.04923e-05 -1.64441e-05
-4.25296e-06 1.86095e-05 -1.60529e-05
1.07596e-05 1.83453e-05 -1.6226e-05
1.38916e-05 1.69348e-05 -1.64309e-05
1.40418e-05 1.29728e-05 -1.60512e-05
-7.36152e-06 1.62882e-05 -1.56384e-05
1.0525e-05 1.45469e-05 -1.56451e-05
7.74869e-06 1.60922e-05 -1.56138e-05
-3.11645e-06 -1.89875e-06 -7.39313e-06
-7.25759e-06 -1.24219e-05 -1.4625e-05
3.00864e-06 4.03599e-08 -6.60093e-06
4.87254e-06 1.35226e-05 -1.4618e-05
1.40759e-05 -2.26037e-06 -1.45703e-05
-1.72896e-05 -1.52166e-05 -1.69454e-05
-1.73664e-05 2.42029e-06 -1.55977e-05
-1.22046e-05 8.91188e-06 -1.49434e-05
-7.70558e-06 -2.29251e-06 -1.15546e-05
-1.24497e-05 1.18126e-05 -1.55399e-05
-1.42735e-07 -3.75421e-06 -7.55413e-06
2.73022e-06 2.27207e-06 -7.25188e-06
-2.00385e-06 -1.46504e-05 -1.4808e-05
9.36503e-06 -1.00682e-05 -1.43893e-05
1.38607e-05 3.15779e-06 -1.4566e-05
-7.33999e-06 1.11993e-05 -1.42602e-05
4.99719e-06 -1.27747e-05 -1.43692e-05
1.10318e-05 1.04304e-05 -1.49196e-05
-3.59642e-06 1.46852e-05 -1.49079e-05
-4.63544e-06 -1.66168e-05 -1.55487e-05
-1.9507e-05 1.28924e-05 -1.71612e-05
-2.31268e-05 1.48581e-05 -1.78434e-05
-1.29049e-05 -1.2686e-05 -1.58124e-05
3.76078e-06 -1.58612e-06 -7.90691e-06
1.76439e-06 2.92227e-06 -7.0844e-06
-9.23043e-06 -1.06094e-05 -1.45317e-05
1.72773e-06 -2.82315e-06 -6.93103e-06
9.94729e-07 2.41168e-05 -1.73084e-05
2.13679e-05 1.11938e-05 -1.72986e-05
-1.46646e-05 -7.95335e-06 -1.54853e-05
1.3708e-05 -4.7863e-06 -1.46906e-05
-1.90988e-06 -2.17629e-05 -1.68027e-05
1.80603e-05 -8.41903e-06 -1.63407e-05
-1.66789e-05 -6.32854e-06 -1.57824e-05
-4.32899e-07 -1.92232e-06 -4.79845e-06
-1.80536e-06 2.99543e-06 -7.17714e-06
-2.50519e-05 -1.29818e-05 -1.79222e-05
-2.51271e-05 -1.45072e-05 -1.80021e-05
-2.50451e-05 1.30337e-05 -1.7906e-05
-2.5118e-05 1.46499e-05 -1.79821e-05
-1.64845e-06 -3.12484e-06 -7.20988e-06
6.32792e-06 1.13683e-05 -1.40765e-05
5.3371e-07 -2.4086e-05 -1.73022e-05
-5.22776e-07 1.80954e-06 -4.64499e-06
7.40743e-06 -1.43436e-05 -1.51523e-05
2.33028e-05 -1.32093e-05 -1.77288e-05
2.36326e-05 -1.05375e-05 -1.74908e-05
1.19884e-05 -1.82109e-05 -1.62932e-05
1.47301e-05 -1.01466e-05 -1.57955e-05
-1.0027e-05 1.00124e-06 -1.27546e-05
-1.74001e-06 -8.159e-07 -4.72344e-06
7.69062e-07 3.70834e-06 -7.57311e-06
2.34307e-06 -1.99715e-06 -6.55526e-06
2.01565e-05 5.8978e-06 -1.64536e-05
5.07008e-06 2.05959e-05 -1.6496e-05
3.42118e-07 -2.768e-05 -1.7854e-05
-1.73122e-06 7.0911e-07 -4.60631e-06
-3.2115e-06 6.23046e-07 -6.82412e-06
3.57721e-06 1.47541e-06 -7.63659e-06
4.99225e-07 2.83238e-05 -1.79272e-05
2.47603e-05 1.37341e-05 -1.79184e-05
-2.03283e-05 1.55358e-05 -1.7429e-05
1.1787e-06 1.36447e-06 -4.45984e-06
-2.06396e-05 -1.57284e-05 -1.75276e-05
-1.89988e-05 -2.32217e-06 -1.59461e-05
-1.95591e-05 -5.58497e-06 -1.63322e-05
9.0568e-07 -3.24775e-06 -7.00608e-06
-4.36601e-06 -1.97892e-05 -1.63218e-05
-7.93726e-06 1.38344e-05 -1.5101e-05
1.16575e-06 -1.30418e-06 -4.33928e-06
1.19344e-05 -1.12283e-05 -1.52921e-05
6.13306e-06 -2.2696e-05 -1.68205e-05
-1.45221e-05 1.43553e-05 -1.63236e-05
7.92905e-06 1.33212e-05 -1.49479e-05
SCALARS effective_fluid_pressure_TPM float
LOOKUP_TABLE default
665
665
665
665
665
665
665
665
665
665
665
665
665
665
133
665
665
665
665
665
665
665
665
665
665
665
665
665
665
133
665
560.317
520.661
502.802
502.572
519.788
559.937
665
561.984
520.756
503.244
503.354
520.688
561.605
665
559.604
519.659
502.746
502.964
521.157
561.621
665
558.861
519.003
501.535
502.231
518.852
559.449
665
558.501
519.943
501.867
501.799
519.375
557.94
665
558.657
519.956
502.04
501.901
519.364
559.663
133
133
133
133
133
133
665
560.317
520.661
502.802
502.572
519.788
559.937
665
561.984
520.756
503.244
503.354
520.688
561.605
665
559.604
519.659
502.746
502.964
521.157
561.621
665
558.861
519.003
501.535
502.231
518.852
559.449
665
558.501
519.943
501.867
501.799
519.375
557.94
665
558.657
519.956
502.04
501.901
519.364
559.663
133
133
133
133
133
133
228.255
226.326
227.039
224.107
225.523
219.845
220.861
529.162
528.171
526.55
527.929
526.577
527.631
498.697
503.544
501.582
498.938
501.455
501.236
494.318
562.499
518.975
495.022
480.728
461.348
443.268
425.036
402.11
427.261
385.256
417.728
379.603
417.892
385.941
427.377
404.288
444.371
429.066
450.248
386.55
419.291
380.197
418.303
386.18
427.75
404.216
444.482
428.15
450.844
386.025
418.155
379.614
418.511
385.548
427.586
402.909
443.544
426.442
384.041
416.127
376.297
415.335
383.013
424.408
400.835
441.694
425.215
382.75
417.767
376.562
418.085
383.835
425.256
402.202
442.666
450.638
426.715
445.996
380.723
444.662
465.277
448.729
464.751
453.399
350.898
463.493
461.024
478.431
462.76
460.63
478.336
337.273
480.808
505.84
503.6
480.874
506.147
337.686
337.497
326.161
334.411
563.375
519.651
567.576
562.362
567.893
567.747
521.799
542.711
498.612
513.724
542.056
451.441
477.558
414.646
579.517
611.027
579.67
576.031
534.545
494.462
538.219
537.916
485.019
498.098
503.316
473.12
485.066
352.743
326.411
355.172
503.426
477.697
488.34
520.868
502.009
477.895
335.537
335.4
347.695
613.445
337.374
347.566
337.261
353.199
329.185
373.25
310.656
288.784
504.692
608.38
521.09
493.702
478.307
486.335
526.484
600.339
476.544
615.898
291.393
615.797
528.712
494.513
478.214
479.388
501.296
494.82
479.415
502.491
495.155
493.724
502.243
495.228
479.862
480.028
479.03
289.291
454.57
271.939
454.978
453.607
526.993
479.451
465.201
382.092
480.487
292.666
286.078
461.457
449.611
453.955
445.833
448.667
463.582
463.239
479.931
543.451
601.7
487.472
300.298
282.458
452.991
279.16
552.234
551.993
480.753
457.996
526.215
508.167
488.569
233.727
284.555
614.505
636.321
615.139
636.678
285.276
441.318
553.074
230.483
467.529
590.261
566.027
495.793
490.028
410.023
232.117
293.092
271.123
507.875
509.172
607.813
229.661
276.973
294.427
618.877
618.79
558.508
226.52
562.521
488.291
503.374
280.843
504.045
466.356
224.005
473.563
519.56
502.96
462.422
228.255
226.326
227.039
224.107
225.523
219.845
220.861
529.162
528.171
526.55
527.929
526.577
527.631
498.697
503.544
501.582
498.938
501.455
501.236
494.318
562.499
518.975
495.022
480.728
461.348
443.268
425.036
402.11
427.261
385.256
417.728
379.603
417.892
385.941
427.377
404.288
444.371
429.066
450.248
386.55
419.291
380.197
418.303
386.18
427.75
404.216
444.482
428.15
450.844
386.025
418.155
379.614
418.511
385.548
427.586
402.909
443.544
426.442
384.041
416.127
376.297
415.335
383.013
424.408
400.835
441.694
425.215
382.75
417.767
376.562
418.085
383.835
425.256
402.202
442.666
450.638
426.715
445.996
380.723
444.662
465.277
448.729
464.751
453.399
350.898
463.493
461.024
478.431
462.76
460.63
478.336
337.273
480.808
505.84
503.6
480.874
506.147
337.686
337.497
326.161
334.411
563.375
519.651
567.576
562.362
567.893
567.747
521.799
542.711
498.612
513.724
542.056
451.441
477.558
414.646
579.517
611.027
579.67
576.031
534.545
494.462
538.219
537.916
485.019
498.098
503.316
473.12
485.066
352.743
326.411
355.172
503.426
477.697
488.34
520.868
502.009
477.895
335.537
335.4
347.695
613.445
337.374
347.566
337.261
353.199
329.185
373.25
310.656
288.784
504.692
608.38
521.09
493.702
478.307
486.335
526.484
600.339
476.544
615.898
291.393
615.797
528.712
494.513
478.214
479.388
501.296
494.82
479.415
502.491
495.155
493.724
502.243
495.228
479.862
480.028
479.03
289.291
454.57
271.939
454.978
453.607
526.993
479.451
465.201
382.092
480.487
292.666
286.078
461.457
449.611
453.955
445.833
448.667
463.582
463.239
479.931
543.451
601.7
487.472
300.298
282.458
452.991
279.16
552.234
551.993
480.753
457.996
526.215
508.167
488.569
233.727
284.555
614.505
636.321
615.139
636.678
285.276
441.318
553.074
230.483
467.529
590.261
566.027
495.793
490.028
410.023
232.117
293.092
271.123
507.875
509.172
607.813
229.661
276.973
294.427
618.877
618.79
558.508
226.52
562.521
488.291
503.374
280.843
504.045
466.356
224.005
473.563
519.56
502.96
462.422

CELL_DATA 563
TENSORS stress float
164.61 -24.9204 7.53175e-13
-24.9204 28.1483 4.14483e-14
7.53175e-13 4.14483e-14 -12.6044

-40.3385 -21.3202 4.24401e-13
-21.3202 -7.3547 3.02839e-12
4.24401e-13 3.02839e-12 -10.2317

-9.93997 28.0432 -3.83219e-12
28.0432 -1.11034 -2.45256e-12
-3.83219e-12 -2.45256e-12 -6.36009

-40.4267 -29.8427 -3.88134e-12
-29.8427 -12.8459 -2.10498e-12
-3.88134e-12 -2.10498e-12 -10.598

-22.6924 19.9309 -5.13219e-12
19.9309 -1.9226 -2.32984e-12
-5.13219e-12 -2.32984e-12 -23.0215

-27.1393 -18.0744 -1.62537e-12
-18.0744 15.8879 3.20514e-12
-1.62537e-12 3.20514e-12 -6.41087

161.262 26.4845 1.99899e-12
26.4845 28.025 -1.74912e-12
1.99899e-12 -1.74912e-12 -13.2633

-5.96139 29.9579 1.05456e-12
29.9579 -10.112 6.987e-14
1.05456e-12 6.987e-14 -7.27613

34.6311 5.48313 2.30334e-12
5.48313 -19.0947 2.05747e-12
2.30334e-12 2.05747e-12 -4.12193

11.8603 -7.47757 2.45108e-12
-7.47757 -48.2871 -1.74668e-12
2.45108e-12 -1.74668e-12 -8.94688

104.194 16.3085 3.63087e-12
16.3085 -8.44349 -1.53359e-13
3.63087e-12 -1.53359e-13 -22.4543

-34.6374 -13.4532 -2.10513e-12
-13.4532 18.9658 3.07902e-14
-2.10513e-12 3.07902e-14 -7.18039

-6.02596 27.8331 4.2378e-12
27.8331 -4.59147 -1.66563e-12
4.2378e-12 -1.66563e-12 -6.159

-35.5516 -14.3401 1.68097e-13
-14.3401 7.84498 1.30089e-12
1.68097e-13 1.30089e-12 -9.13121

-23.6537 33.3112 -1.50931e-12
33.3112 -24.9941 -4.252e-12
-1.50931e-12 -4.252e-12 -21.3651

21.3107 0.560974 5.10407e-13
0.560974 -32.3383 6.06294e-12
5.10407e-13 6.06294e-12 -5.58947

-48.9595 -17.9691 -1.0904e-12
-17.9691 6.34293 -2.42532e-12
-1.0904e-12 -2.42532e-12 -12.946

11.6601 -2.6652 -2.76816e-12
-2.6652 -43.2487 4.21959e-12
-2.76816e-12 4.21959e-12 -8.03336

-11.3497 26.6737 -2.11683e-12
26.6737 19.5173 7.53175e-13
-2.11683e-12 7.53175e-13 -6.08922

21.7655 -4.19557 -1.13568e-12
-4.19557 -35.2944 2.47358e-12
-1.13568e-12 2.47358e-12 -6.74105

-24.479 8.66859 3.60837e-12
8.66859 32.1275 1.87287e-12
3.60837e-12 1.87287e-12 -4.93408

-11.8087 6.28761 -1.27935e-12
6.28761 -11.9738 -7.72478e-12
-1.27935e-12 -7.72478e-12 -75.6205

22.7432 1.87598 1.60464e-12
1.87598 -33.4687 -5.70803e-13
1.60464e-12 -5.70803e-13 -6.67703

-12.3879 -27.7151 -1.11082e-12
-27.7151 1.59969 -2.45493e-12
-1.11082e-12 -2.45493e-12 -6.60252

21.3043 6.84938 -9.29627e-14
6.84938 -34.3038 -6.96776e-13
-9.29627e-14 -6.96776e-13 -6.80628

-37.9051 19.1129 4.31018e-12
19.1129 2.65395 8.33111e-13
4.31018e-12 8.33111e-13 -9.45748

106.602 4.18137 1.80478e-12
4.18137 20.6026 5.42026e-12
1.80478e-12 5.42026e-12 -12.0493

-5.30176 30.7458 -6.2883e-13
30.7458 -7.27217 6.09261e-12
-6.2883e-13 6.09261e-12 -7.44137

27.8899 37.0743 -1.06581e-14
37.0743 26.4691 -3.69837e-12
-1.06581e-14 -3.69837e-12 -8.63206

-9.4391 10.3235 5.785e-13
10.3235 -32.93 -2.92129e-12
5.785e-13 -2.92129e-12 -49.5088

19.8306 14.2169 3.75996e-13
14.2169 -29.359 8.67158e-13
3.75996e-13 8.67158e-13 -6.00073

-4.21021 -17.7803 5.37348e-13
-17.7803 59.6575 -1.88175e-12
5.37348e-13 -1.88175e-12 -8.47596

66.2828 -42.1016 1.86636e-12
-42.1016 71.138 1.78346e-12
1.86636e-12 1.78346e-12 -11.2521

-48.2099 5.98671 1.43853e-12
5.98671 7.26957 2.55825e-12
1.43853e-12 2.55825e-12 -41.0376

-26.2912 -4.84061 -2.41155e-12
-4.84061 1.75672 -3.62229e-12
-2.41155e-12 -3.62229e-12 -37.8025

-1.46683 21.0279 -7.21497e-13
21.0279 -39.5064 -4.3617e-12
-7.21497e-13 -4.3617e-12 -41.1034

-43.9758 5.06743 4.40981e-13
5.06743 0.514218 -1.15108e-12
4.40981e-13 -1.15108e-12 -52.1912

-2.76011 -9.16998 4.31625e-12
-9.16998 -20.7698 1.33103e-12
4.31625e-12 1.33103e-12 -35.8969

-3.97418 -27.9981 1.23694e-12
-27.9981 -4.61048 -2.78592e-12
1.23694e-12 -2.78592e-12 -5.99434

65.5966 41.5209 -4.57116e-12
41.5209 73.1657 -4.56168e-12
-4.57116e-12 -4.56168e-12 -10.9638

60.1549 -17.949 -1.01726e-12
-17.949 0.117 1.09601e-12
-1.01726e-12 1.09601e-12 -8.04994

-41.8036 -3.70599 9.1808e-13
-3.70599 -1.18565 4.71741e-12
9.1808e-13 4.71741e-12 -52.726

-14.5938 19.5554 1.01844e-13
19.5554 -28.5516 -2.08337e-12
1.01844e-13 -2.08337e-12 -52.8342

18.141 -12.2733 1.4276e-12
-12.2733 -29.8989 -9.58789e-13
1.4276e-12 -9.58789e-13 -6.22291

38.1729 -43.2989 6.15804e-13
-43.2989 41.8009 8.78704e-13
6.15804e-13 8.78704e-13 -14.559

58.1435 -18.0633 -9.78181e-13
-18.0633 -2.3027 3.60127e-12
-9.78181e-13 3.60127e-12 -7.91353

-21.4417 17.0856 1.61796e-12
17.0856 30.327 9.10679e-13
1.61796e-12 9.10679e-13 -5.72815

-11.3726 19.3389 5.68434e-13
19.3389 25.5105 -4.4024e-12
5.68434e-13 -4.4024e-12 -3.92156

20.7911 -16.301 -1.13154e-12
-16.301 -33.1142 -1.5928e-13
-1.13154e-12 -1.5928e-13 -7.3115

12.6152 -34.1852 -4.7932e-12
-34.1852 46.4352 1.9232e-12
-4.7932e-12 1.9232e-12 -10.3972

62.3597 19.1817 -2.74625e-12
19.1817 2.81027 -2.16597e-12
-2.74625e-12 -2.16597e-12 -8.41387

46.5132 -25.2882 1.94215e-13
-25.2882 5.13405 1.69376e-12
1.94215e-13 1.69376e-12 -5.6099

-31.8957 19.4857 -4.73251e-13
19.4857 -4.28549 -1.79738e-12
-4.73251e-13 -1.79738e-12 -26.0855

37.0389 29.6492 3.5989e-12
29.6492 14.5126 -9.33179e-13
3.5989e-12 -9.33179e-13 -5.43233

-27.4498 -21.8128 4.35622e-12
-21.8128 -8.22842 1.1124e-12
4.35622e-12 1.1124e-12 -25.2479

64.8682 -42.711 -8.62125e-13
-42.711 44.0798 -1.11318e-12
-8.62125e-13 -1.11318e-12 -9.5021

-27.7495 5.45962 5.38384e-13
5.45962 2.66931 -1.8104e-12
5.38384e-13 -1.8104e-12 -38.3081

-5.55773 -5.32976 -1.73668e-12
-5.32976 57.3877 -3.23415e-12
-1.73668e-12 -3.23415e-12 -5.44936

-0.200229 10.3842 1.95488e-12
10.3842 -24.848 1.3954e-12
1.95488e-12 1.3954e-12 -38.3697

-26.485 21.413 2.64588e-12
21.413 12.2195 -1.18424e-12
2.64588e-12 -1.18424e-12 -6.86947

4.72641 5.75391 4.94271e-13
5.75391 -56.04 -3.18323e-12
4.94271e-13 -3.18323e-12 -13.9807

0.539809 11.4589 -4.97084e-13
11.4589 -34.0565 6.38896e-13
-4.97084e-13 6.38896e-13 -14.8397

106.343 31.8197 -7.95808e-13
31.8197 37.8327 -1.73728e-12
-7.95808e-13 -1.73728e-12 -7.48966

-35.4917 -6.03518 2.63167e-12
-6.03518 10.6012 -3.25606e-12
2.63167e-12 -3.25606e-12 -13.4788

-35.3599 9.51974 -3.72857e-12
9.51974 1.23363 2.09018e-12
-3.72857e-12 2.09018e-12 -14.9599

-42.5876 -2.88081 -5.48931e-13
-2.88081 21.1109 -1.63721e-12
-5.48931e-13 -1.63721e-12 -11.2387

-44.9078 23.402 -2.16734e-12
23.402 -5.89261 -1.21325e-12
-2.16734e-12 -1.21325e-12 -13.9217

9.97104 8.46351 -2.84247e-12
8.46351 -42.3778 1.73076e-12
-2.84247e-12 1.73076e-12 -9.07771

-12.3343 -28.2392 2.81197e-12
-28.2392 1.68733 -4.61675e-12
2.81197e-12 -4.61675e-12 -6.67369

1.30886 -1.71124 -6.31791e-13
-1.71124 -55.4562 -3.12602e-12
-6.31791e-13 -3.12602e-12 -11.3038

-31.8852 -19.2617 -7.43553e-13
-19.2617 -4.59486 1.41872e-12
-7.43553e-13 1.41872e-12 -25.9549

-27.9753 21.3078 -1.14782e-12
21.3078 -8.35825 2.31278e-12
-1.14782e-12 2.31278e-12 -26.0133

-0.65174 -16.5833 5.58664e-13
-16.5833 61.6733 1.79294e-12
5.58664e-13 1.79294e-12 -7.94878

-0.650127 -27.9361 4.62445e-13
-27.9361 -21.3608 8.83145e-13
4.62445e-13 8.83145e-13 -12.7908

-14.0931 -25.1345 1.71182e-12
-25.1345 7.40681 -5.34506e-12
1.71182e-12 -5.34506e-12 -5.23577

91.6774 -31.7104 1.78346e-12
-31.7104 19.4847 6.32353e-12
1.78346e-12 6.32353e-12 -16.3332

-33.706 3.22263 3.62096e-12
3.22263 9.19938 -7.72715e-13
3.62096e-12 -7.72715e-13 -18.5634

2.75217 28.9438 -9.45022e-13
28.9438 -24.4246 1.26595e-12
-9.45022e-13 1.26595e-12 -11.3164

-38.4333 19.6642 -1.57296e-12
19.6642 5.22972 1.24434e-12
-1.57296e-12 1.24434e-12 -9.23495

50.1903 7.99948 -4.46221e-12
7.99948 -16.9636 3.59505e-12
-4.46221e-12 3.59505e-12 -7.06671

60.0311 -33.9353 1.04805e-12
-33.9353 33.7867 1.08476e-12
1.04805e-12 1.08476e-12 -6.98364

-18.96 -10.5875 1.06463e-12
-10.5875 -0.541702 2.15117e-12
1.06463e-12 2.15117e-12 -25.4313

-33.9261 23.8995 -2.63611e-12
23.8995 -12.0231 -4.33866e-12
-2.63611e-12 -4.33866e-12 -14.5401

58.1559 -32.3836 -3.31231e-12
-32.3836 18.0913 -5.42381e-13
-3.31231e-12 -5.42381e-13 -10.1337

66.8592 10.791 -3.63916e-12
10.791 8.51319 5.34313e-12
-3.63916e-12 5.34313e-12 -5.08428

7.67406 -21.2058 -3.44406e-12
-21.2058 88.464 -8.7231e-12
-3.44406e-12 -8.7231e-12 -11.8622

-33.9856 14.4256 2.04133e-12
14.4256 20.2383 -2.8854e-12
2.04133e-12 -2.8854e-12 -7.54621

8.47548 23.143 -9.96536e-13
23.143 -26.0738 5.55408e-13
-9.96536e-13 5.55408e-13 -11.299

34.8685 42.1984 1.75149e-12
42.1984 46.1991 -8.0765e-13
1.75149e-12 -8.0765e-13 -14.4205

-4.39442 16.507 -1.62979e-11
16.507 -35.5417 1.09675e-12
-1.62979e-11 1.09675e-12 -73.2871

-5.97982 -4.10833 1.07677e-12
-4.10833 57.9481 3.49587e-12
1.07677e-12 3.49587e-12 -5.44155

-1.81883 -16.6322 1.88444e-11
-16.6322 -39.4018 1.16769e-11
1.88444e-11 1.16769e-11 -74.1104

-3.32946 -27.3349 7.40741e-12
-27.3349 -30.0298 1.06359e-12
7.40741e-12 1.06359e-12 -21.5541

8.96712 27.4245 2.50762e-12
27.4245 -29.9947 -1.41961e-12
2.50762e-12 -1.41961e-12 -11.257

45.711 -24.4104 2.58164e-12
-24.4104 5.02435 -7.33339e-13
2.58164e-12 -7.33339e-13 -5.23597

10.0953 31.323 8.34888e-14
31.323 47.163 1.24345e-13
8.34888e-14 1.24345e-13 -9.64023

14.2724 -10.705 1.93208e-12
-10.705 82.8384 -1.06818e-12
1.93208e-12 -1.06818e-12 -6.44694

-38.633 21.9707 -4.43645e-13
21.9707 2.94155 3.55271e-13
-4.43645e-13 3.55271e-13 -8.56889

1.1927 16.7941 2.45759e-12
16.7941 -25.7221 1.16263e-12
2.45759e-12 1.16263e-12 -18.5676

-26.5378 15.1538 -2.58193e-12
15.1538 18.4493 1.64846e-12
-2.58193e-12 1.64846e-12 -5.70783

43.6586 15.9537 -1.52411e-12
15.9537 -7.28496 -9.95352e-13
-1.52411e-12 -9.95352e-13 -4.07499

12.577 -21.4724 -2.4644e-12
-21.4724 57.9553 -6.22909e-13
-2.4644e-12 -6.22909e-13 -4.7139

65.996 -29.3904 -1.46372e-12
-29.3904 18.6435 1.64668e-12
-1.46372e-12 1.64668e-12 -9.33517

-32.3811 -24.5729 -2.3254e-12
-24.5729 -7.28164 1.63839e-12
-2.3254e-12 1.63839e-12 -8.97615

-22.6669 27.4509 2.54907e-12
27.4509 -10.3501 6.26758e-13
2.54907e-12 6.26758e-13 -9.28374

-38.3512 23.1876 -2.89487e-12
23.1876 1.99106 -1.95725e-12
-2.89487e-12 -1.95725e-12 -8.52479

-51.5533 13.1691 -1.05057e-12
13.1691 11.9269 2.47861e-12
-1.05057e-12 2.47861e-12 -16.4662

23.4846 9.37224 3.56811e-12
9.37224 -29.4876 -3.71259e-13
3.56811e-12 -3.71259e-13 -5.32133

3.76866 -4.66503 -1.67451e-12
-4.66503 79.4376 5.40012e-12
-1.67451e-12 5.40012e-12 -9.53129

-44.9398 -36.8332 4.77544e-13
-36.8332 -19.8288 -1.21977e-12
4.77544e-13 -1.21977e-12 -14.7706

-16.0794 27.4652 -2.37262e-12
27.4652 1.34105 -2.22163e-12
-2.37262e-12 -2.22163e-12 -6.91448

-5.01522 2.17031 5.43558e-12
2.17031 82.673 -3.31823e-12
5.43558e-12 -3.31823e-12 -13.431

69.045 34.6101 3.87246e-12
34.6101 15.4966 9.01797e-13
3.87246e-12 9.01797e-13 -10.7058

-31.3517 -22.9738 2.33976e-12
-22.9738 -4.63243 -3.22823e-12
2.33976e-12 -3.22823e-12 -8.52966

11.7429 5.73296 -5.50671e-14
5.73296 -48.3359 2.56787e-12
-5.50671e-14 2.56787e-12 -8.64119

43.0654 27.2038 2.10321e-12
27.2038 10.452 -1.74024e-12
2.10321e-12 -1.74024e-12 -5.0807

-9.4147 12.7455 9.10531e-13
12.7455 -14.0391 3.93966e-12
9.10531e-13 3.93966e-12 -37.0406

70.3341 24.3303 -5.22249e-12
24.3303 23.8048 -3.52074e-12
-5.22249e-12 -3.52074e-12 -6.79942

-10.5859 -13.055 -4.12204e-12
-13.055 -13.9209 -8.92915e-13
-4.12204e-12 -8.92915e-13 -37.3783

-4.37948 0.778531 1.709e-12
0.778531 59.3977 -1.3974e-13
1.709e-12 -1.3974e-13 -4.83055

38.3568 -2.2353 -1.1191e-12
-2.2353 -23.8105 -1.58984e-13
-1.1191e-12 -1.58984e-13 -5.83218

3.5937 -15.7679 2.8139e-12
-15.7679 -53.9711 1.56083e-12
2.8139e-12 1.56083e-12 -21.1242

-42.277 24.3881 -6.39435e-13
24.3881 -11.737 4.7519e-12
-6.39435e-13 4.7519e-12 -11.1674

-46.8124 -13.535 -1.16035e-12
-13.535 11.0673 -3.63561e-13
-1.16035e-12 -3.63561e-13 -12.3538

5.81015 -7.99997 1.96139e-13
-7.99997 -70.9675 -3.12343e-12
1.96139e-13 -3.12343e-12 -14.8818

-49.5391 -22.284 -2.95305e-12
-22.284 3.74847 8.77816e-13
-2.95305e-12 8.77816e-13 -22.1041

-17.4592 -6.59657 4.07378e-13
-6.59657 -13.1158 -4.64936e-12
4.07378e-13 -4.64936e-12 -34.7814

-28.7297 -29.9081 -1.12591e-12
-29.9081 -9.39987 -3.25458e-12
-1.12591e-12 -3.25458e-12 -8.99592

15.6934 11.4535 5.41256e-12
11.4535 80.1798 -5.21065e-13
5.41256e-12 -5.21065e-13 -6.5306

42.2898 -28.1463 2.68111e-12
-28.1463 11.0509 -4.32543e-12
2.68111e-12 -4.32543e-12 -5.04395

-47.1705 -13.7721 -1.14042e-12
-13.7721 4.19615 4.34911e-12
-1.14042e-12 4.34911e-12 -29.3006

2.96485 0.504447 3.9968e-13
0.504447 -56.8119 7.93069e-13
3.9968e-13 7.93069e-13 -11.0051

-39.3365 -21.5245 -8.38588e-13
-21.5245 -8.85727 3.54946e-12
-8.38588e-13 3.54946e-12 -14.7741

-40.1949 25.6977 2.51577e-12
25.6977 -14.6915 2.62013e-13
2.51577e-12 2.62013e-13 -11.3108

32.2603 -31.4641 2.65861e-12
-31.4641 38.4292 4.14365e-12
2.65861e-12 4.14365e-12 -4.64808

-31.4688 -7.08495 -7.27344e-13
-7.08495 1.70035 2.06975e-12
-7.27344e-13 2.06975e-12 -40.9926

36.6298 -33.0765 9.8647e-13
-33.0765 72.0268 -3.33008e-12
9.8647e-13 -3.33008e-12 -7.14468

16.6126 -19.1796 -6.15212e-13
-19.1796 -25.8697 -1.04657e-12
-6.15212e-13 -1.04657e-12 -7.13317

1.50258 1.97031 6.54217e-13
1.97031 -51.3914 1.39089e-12
6.54217e-13 1.39089e-12 -15.3742

-12.8759 17.875 -8.61533e-14
17.875 -16.9549 9.30219e-13
-8.61533e-14 9.30219e-13 -41.0602

10.7131 20.1826 -5.18815e-12
20.1826 59.4537 6.99292e-12
-5.18815e-12 6.99292e-12 -4.35655

4.31836 27.2104 3.01329e-12
27.2104 -16.2236 4.28102e-12
3.01329e-12 4.28102e-12 -8.12414

30.9044 -24.5114 7.67386e-13
-24.5114 -8.13222 3.42422e-12
7.67386e-13 3.42422e-12 -4.87206

-37.7873 -17.8385 -2.16636e-12
-17.8385 2.40086 -1.33937e-12
-2.16636e-12 -1.33937e-12 -9.86432

55.5133 35.0678 -9.59233e-13
35.0678 42.3452 -2.75454e-12
-9.59233e-13 -2.75454e-12 -6.63622

-40.0149 -21.831 4.19131e-12
-21.831 2.53686 1.55638e-12
4.19131e-12 1.55638e-12 -9.39384

2.96657 30.8503 2.33295e-12
30.8503 -17.3882 2.29594e-12
2.33295e-12 2.29594e-12 -9.07814

18.5373 -25.2439 -1.12621e-12
-25.2439 -19.4178 -5.35897e-12
-1.12621e-12 -5.35897e-12 -6.34236

-15.6536 -25.1262 -4.63925e-12
-25.1262 5.89563 -2.01202e-12
-4.63925e-12 -2.01202e-12 -5.7754

42.7181 -18.6879 -3.13823e-13
-18.6879 -9.16569 2.20268e-13
-3.13823e-13 2.20268e-13 -5.36898

27.4318 -18.8494 -7.17174e-12
-18.8494 -20.3682 1.05308e-12
-7.17174e-12 1.05308e-12 -5.68962

-41.3938 -25.337 -2.85164e-12
-25.337 -14.964 1.04505e-12
-2.85164e-12 1.04505e-12 -11.567

29.7808 35.969 -1.39385e-12
35.969 25.227 1.8107e-12
-1.39385e-12 1.8107e-12 -8.64417

-28.5181 15.3766 2.96962e-12
15.3766 18.5188 -5.26808e-12
2.96962e-12 -5.26808e-12 -5.87384

-23.1079 26.4221 -2.64677e-13
26.4221 -12.5467 -3.04556e-12
-2.64677e-13 -3.04556e-12 -9.95796

-42.0965 25.4736 1.95545e-12
25.4736 -11.5925 2.0132e-13
1.95545e-12 2.0132e-13 -10.9926

-37.2884 11.6214 -1.79316e-12
11.6214 11.8441 6.7916e-13
-1.79316e-12 6.7916e-13 -9.08037

64.3926 -8.2269 1.6153e-12
-8.2269 3.19772 2.71116e-12
1.6153e-12 2.71116e-12 -4.25067

8.73388 18.6062 -3.51482e-12
18.6062 59.2195 -3.03165e-12
-3.51482e-12 -3.03165e-12 -4.16215

-25.6145 -24.3804 1.52471e-13
-24.3804 0.458443 -6.53403e-13
1.52471e-13 -6.53403e-13 -7.21542

-1.14155 25.6657 1.10608e-12
25.6657 13.7523 -1.2547e-12
1.10608e-12 -1.2547e-12 -4.08252

32.3785 -35.6289 1.75741e-12
-35.6289 21.7 -2.67638e-12
1.75741e-12 -2.67638e-12 -8.48589

59.5358 38.3161 9.78181e-13
38.3161 17.8476 -6.28001e-12
9.78181e-13 -6.28001e-12 -13.7221

12.1251 -33.3106 -4.0418e-12
-33.3106 42.9131 -1.84386e-12
-4.0418e-12 -1.84386e-12 -9.54251

30.5512 -31.1592 5.31841e-12
-31.1592 36.8133 -7.95808e-13
5.31841e-12 -7.95808e-13 -4.40525

11.7688 -6.83865 4.12559e-12
-6.83865 -48.8379 -3.03387e-12
4.12559e-12 -3.03387e-12 -8.77002

25.2743 30.3413 -1.34056e-12
30.3413 41.0887 1.80359e-12
-1.34056e-12 1.80359e-12 -4.45575

62.6816 13.2945 -1.7882e-12
13.2945 5.22821 6.25248e-12
-1.7882e-12 6.25248e-12 -4.30526

-7.02562 13.3786 6.41191e-12
13.3786 61.3437 -3.64272e-12
6.41191e-12 -3.64272e-12 -8.69475

11.7296 -22.34 1.73491e-12
-22.34 55.7628 -1.70649e-12
1.73491e-12 -1.70649e-12 -4.30122

-47.2605 -1.09156 -6.81011e-13
-1.09156 12.4096 8.14164e-13
-6.81011e-13 8.14164e-13 -22.162

-5.91893 2.24658 -2.42117e-12
2.24658 59.0039 8.17124e-14
-2.42117e-12 8.17124e-14 -5.26227

6.26873 31.0888 -6.17876e-12
31.0888 47.8648 -2.5544e-12
-6.17876e-12 -2.5544e-12 -9.6603

-39.7253 12.1078 7.65314e-14
12.1078 12.8448 5.64585e-12
7.65314e-14 5.64585e-12 -9.31284

40.738 -27.6472 -1.54898e-12
-27.6472 8.35759 -3.39817e-12
-1.54898e-12 -3.39817e-12 -5.64173

7.53995 20.5569 -3.99384e-13
20.5569 -47.4668 1.62211e-12
-3.99384e-13 1.62211e-12 -16.4816

-3.42113 26.2704 1.12858e-12
26.2704 -31.4866 -4.45866e-13
1.12858e-12 -4.45866e-13 -22.2524

15.7774 -18.5675 -8.33111e-13
-18.5675 -30.0129 -5.13663e-12
-8.33111e-13 -5.13663e-12 -8.18276

4.42866 -1.80124 2.52257e-12
-1.80124 -34.133 -1.94866e-12
2.52257e-12 -1.94866e-12 -24.4394

-14.3396 -31.8117 9.42653e-13
-31.8117 -11.9303 -1.20319e-12
9.42653e-13 -1.20319e-12 -9.0493

56.2178 23.3275 5.22604e-12
23.3275 0.816895 -3.37745e-12
5.22604e-12 -3.37745e-12 -8.28776

-27.828 30.1621 -1.64757e-12
30.1621 -9.23642 -7.77156e-13
-1.64757e-12 -7.77156e-13 -8.80017

-27.0036 29.2058 3.32741e-12
29.2058 -9.20178 9.95056e-13
3.32741e-12 9.95056e-13 -8.67745

28.6285 30.6604 4.45273e-13
30.6604 40.4056 -1.75622e-12
4.45273e-13 -1.75622e-12 -4.44877

0.343097 27.0849 -1.5099e-12
27.0849 -19.8458 1.58125e-12
-1.5099e-12 1.58125e-12 -11.7769

64.5076 3.5251 1.0895e-13
3.5251 -11.8256 4.38675e-12
1.0895e-13 4.38675e-12 -10.0181

-14.8997 31.8172 6.54587e-13
31.8172 -20.7987 -3.76114e-12
6.54587e-13 -3.76114e-12 -12.4474

-37.944 -12.5997 8.81517e-14
-12.5997 8.18004 -2.84158e-12
8.81517e-14 -2.84158e-12 -14.0227

-0.475018 24.2782 2.75158e-12
24.2782 -29.9991 -2.74566e-12
2.75158e-12 -2.74566e-12 -20.7713

-23.7274 -29.5787 1.43026e-12
-29.5787 -11.9349 2.97629e-12
1.43026e-12 2.97629e-12 -8.8431

-38.1482 -4.89805 3.61537e-12
-4.89805 18.8466 -2.99849e-12
3.61537e-12 -2.99849e-12 -11.73

69.9441 -24.556 -2.81375e-12
-24.556 18.0288 3.67884e-12
-2.81375e-12 3.67884e-12 -7.0442

39.9819 29.6928 -4.39589e-12
29.6928 13.4794 -2.6598e-12
-4.39589e-12 -2.6598e-12 -5.21482

-4.29602 14.6963 -2.5208e-12
14.6963 60.571 8.01847e-12
-2.5208e-12 8.01847e-12 -8.40068

1.61142 -1.1389 9.50499e-13
-1.1389 -56.1233 -4.43519e-12
9.50499e-13 -4.43519e-12 -11.209

9.61413 0.0022272 2.70835e-12
0.0022272 -44.7538 3.67875e-12
2.70835e-12 3.67875e-12 -8.43773

-31.0787 23.1238 3.05089e-13
23.1238 -4.33713 9.14232e-13
3.05089e-13 9.14232e-13 -8.45818

-34.7625 23.8709 2.1334e-12
23.8709 -13.1925 1.20176e-12
2.1334e-12 1.20176e-12 -14.813

-43.3786 -24.3807 -1.50835e-12
-24.3807 -12.6139 2.2955e-12
-1.50835e-12 2.2955e-12 -11.4685

-39.0591 -0.672782 -1.37451e-12
-0.672782 21.0464 2.2542e-12
-1.37451e-12 2.2542e-12 -10.4954

-40.8067 25.5904 1.26062e-12
25.5904 -13.2225 9.85212e-13
1.26062e-12 9.85212e-13 -11.1721

32.3216 -10.3079 -1.9161e-12
-10.3079 -25.1535 2.53368e-12
-1.9161e-12 2.53368e-12 -6.01399

8.70672 -32.8332 1.69879e-12
-32.8332 22.7976 3.43784e-12
1.69879e-12 3.43784e-12 -6.99181

2.39683 -2.30074 3.53791e-13
-2.30074 -49.9607 4.77485e-12
3.53791e-13 4.77485e-12 -14.7726

36.7455 -34.508 9.26074e-13
-34.508 24.4796 -2.57216e-12
9.26074e-13 -2.57216e-12 -7.70895

-38.2939 19.0861 -7.72271e-13
19.0861 -7.09365 -2.82145e-12
-7.72271e-13 -2.82145e-12 -14.4494

7.87074 -26.4787 -5.78619e-12
-26.4787 -27.9945 -1.38881e-12
-5.78619e-12 -1.38881e-12 -10.9689

63.9471 -9.69018 1.157e-12
-9.69018 5.67752 2.64766e-12
1.157e-12 2.64766e-12 -5.07214

6.04073 -23.192 -1.61945e-12
-23.192 -35.4681 2.45522e-12
-1.61945e-12 2.45522e-12 -17.736

0.141366 2.35827 -1.56053e-12
2.35827 -56.174 2.12623e-12
-1.56053e-12 2.12623e-12 -11.5459

-4.06206 -23.3214 -4.13891e-13
-23.3214 -23.4117 -5.03153e-13
-4.13891e-13 -5.03153e-13 -16.7199

11.0388 -25.8594 2.96948e-12
-25.8594 -29.4858 -4.89919e-12
2.96948e-12 -4.89919e-12 -9.73349

10.2014 -8.54612 3.63946e-12
-8.54612 -43.4899 -1.66978e-12
3.63946e-12 -1.66978e-12 -9.28125

-35.4182 -23.0681 -6.92779e-14
-23.0681 -12.6458 -1.86843e-12
-6.92779e-14 -1.86843e-12 -15.103

23.6643 -31.3417 -1.0895e-13
-31.3417 5.71247 -3.45442e-12
-1.0895e-13 -3.45442e-12 -5.87805

11.0598 -24.5872 1.34648e-12
-24.5872 -27.4945 -1.70323e-12
1.34648e-12 -1.70323e-12 -10.048

46.6429 10.8644 3.07902e-13
10.8644 -16.1171 6.27853e-12
3.07902e-13 6.27853e-12 -6.79968

-14.1861 26.3402 1.2399e-12
26.3402 -15.6398 -7.19869e-13
1.2399e-12 -7.19869e-13 -14.1189

-45.2517 -37.6129 -1.21236e-12
-37.6129 -20.6124 -7.33302e-13
-1.21236e-12 -7.33302e-13 -14.919

-43.7085 37.2652 -1.16174e-12
37.2652 -21.2662 -1.46697e-13
-1.16174e-12 -1.46697e-13 -14.7694

-61.185 -28.5734 1.24234e-12
-28.5734 -7.49706 5.04781e-13
1.24234e-12 5.04781e-13 -15.1995

-58.4159 27.0641 2.61169e-12
27.0641 -6.27168 -1.90041e-12
2.61169e-12 -1.90041e-12 -14.4781

5.60064 -8.52761 -1.49969e-12
-8.52761 -71.064 -2.63611e-12
-1.49969e-12 -2.63611e-12 -14.7096

4.39738 9.27362 -1.84549e-12
9.27362 -68.8326 2.10513e-12
-1.84549e-12 2.10513e-12 -14.4376

9.02396 -9.84617 -2.8629e-13
-9.84617 -40.8899 2.4567e-12
-2.8629e-13 2.4567e-12 -9.61173

-24.3355 32.1161 -1.24671e-12
32.1161 -24.81 2.37302e-12
-1.24671e-12 2.37302e-12 -21.1453

-25.5229 -32.8541 8.8581e-13
-32.8541 -25.096 -4.75406e-12
8.8581e-13 -4.75406e-12 -21.4694

-53.9198 16.0685 -2.10202e-14
16.0685 3.40173 -1.79412e-12
-2.10202e-14 -1.79412e-12 -21.4029

-52.4207 -15.8009 -3.56929e-12
-15.8009 3.29705 -4.81393e-13
-3.56929e-12 -4.81393e-13 -21.0761

6.1122 -3.74768 -2.03482e-12
-3.74768 -43.9252 -1.43559e-12
-2.03482e-12 -1.43559e-12 -25.7651

6.91835 3.61044 -5.81461e-13
3.61044 -46.3487 -8.82553e-13
-5.81461e-13 -8.82553e-13 -26.1414

-15.6257 9.83684 1.91077e-12
9.83684 46.2625 -4.8838e-12
1.91077e-12 -4.8838e-12 -5.84785

-22.9186 -24.7741 1.22154e-12
-24.7741 -14.5523 -4.19516e-13
1.22154e-12 -4.19516e-13 -10.3298

-56.6036 -36.3875 -4.67108e-13
-36.3875 -14.5327 4.46295e-12
-4.67108e-13 4.46295e-12 -13.4371

33.3583 -4.66428 -3.41179e-12
-4.66428 -19.8469 1.9178e-12
-3.41179e-12 1.9178e-12 -3.94497

3.43339 -16.6947 6.58584e-13
-16.6947 -52.6287 2.55144e-12
6.58584e-13 2.55144e-12 -21.5327

3.67452 16.1756 2.6749e-13
16.1756 -51.8844 -4.61853e-12
2.6749e-13 -4.61853e-12 -21.406

6.55574 0.121881 -2.56832e-13
0.121881 -76.7549 7.4284e-13
-2.56832e-13 7.4284e-13 -13.3039

-7.56952 23.3751 -4.30767e-12
23.3751 39.9356 1.19963e-12
-4.30767e-12 1.19963e-12 -6.88514

-56.8893 36.1715 2.17293e-12
36.1715 -14.0113 1.75312e-12
2.17293e-12 1.75312e-12 -13.3888

-39.7946 -23.3958 2.63093e-12
-23.3958 2.56155 -1.39266e-12
2.63093e-12 -1.39266e-12 -8.8008

37.1167 23.3527 1.7728e-12
23.3527 -8.61305 -4.35977e-12
1.7728e-12 -4.35977e-12 -5.75848

4.73528 23.8582 1.0593e-12
23.8582 -38.2259 2.47772e-12
1.0593e-12 2.47772e-12 -18.9858

24.0134 -31.3135 -5.71276e-12
-31.3135 6.40835 5.30835e-12
-5.71276e-12 5.30835e-12 -5.64802

2.43078 -3.23099 1.26861e-12
-3.23099 -48.3698 6.98404e-13
1.26861e-12 6.98404e-13 -14.7426

-60.4577 -34.161 1.13369e-12
-34.161 -14.3498 -3.62392e-12
1.13369e-12 -3.62392e-12 -14.0308

-17.4526 8.31994 4.30274e-12
8.31994 45.6918 3.04941e-12
4.30274e-12 3.04941e-12 -5.78089

-9.46877 21.8115 -1.09335e-12
21.8115 40.425 9.22521e-13
-1.09335e-12 9.22521e-13 -6.65362

58.6035 35.7757 6.13435e-12
35.7757 37.088 -8.78704e-13
6.13435e-12 -8.78704e-13 -6.91582

70.4839 1.57875 -7.22385e-14
1.57875 -5.54292 5.09037e-12
-7.22385e-14 5.09037e-12 -10.3739

-30.7595 -22.8045 -4.55636e-13
-22.8045 -13.3564 -3.15969e-12
-4.55636e-13 -3.15969e-12 -14.466

32.8413 31.1838 -4.29997e-12
31.1838 69.7942 4.33668e-12
-4.29997e-12 4.33668e-12 -6.6793

-19.3764 23.6099 -4.3725e-12
23.6099 7.68692 -2.53249e-12
-4.3725e-12 -2.53249e-12 -5.51316

47.637 -5.34954 3.19626e-12
-5.34954 -17.4332 9.57308e-13
3.19626e-12 9.57308e-13 -6.82163

33.2195 11.2161 2.34894e-12
11.2161 -23.6368 -4.53622e-12
2.34894e-12 -4.53622e-12 -6.01376

6.25426 0.429903 1.20082e-12
0.429903 -77.5522 -2.24776e-12
1.20082e-12 -2.24776e-12 -13.4496

-58.9358 -29.0311 1.51508e-12
-29.0311 -6.2881 1.89715e-12
1.51508e-12 1.89715e-12 -14.697

-28.332 -6.31892 3.77913e-12
-6.31892 -11.3583 -1.6005e-12
3.77913e-12 -1.6005e-12 -51.5891

-44.6981 37.4115 2.27018e-12
37.4115 -20.8114 9.16674e-13
2.27018e-12 9.16674e-13 -14.7734

93.7904 1.66328 -8.17124e-13
1.66328 16.6553 3.58506e-12
-8.17124e-13 3.58506e-12 -6.04302

10.0365 -32.7869 3.00796e-13
-32.7869 21.3109 8.2423e-13
3.00796e-13 8.2423e-13 -6.80807

-56.9361 36.613 9.94538e-13
36.613 -14.5712 1.82195e-12
9.94538e-13 1.82195e-12 -13.505

-35.0791 -11.1338 2.61965e-12
-11.1338 19.1771 1.92083e-12
2.61965e-12 1.92083e-12 -8.31634

-5.47745 -25.5145 -5.18489e-12
-25.5145 37.3502 -3.39876e-12
-5.18489e-12 -3.39876e-12 -6.9869

-58.4523 28.83 2.08585e-12
28.83 -6.27147 -3.32031e-12
2.08585e-12 -3.32031e-12 -14.6141

28.4958 -26.1418 4.44089e-13
-26.1418 -4.91246 -3.246e-12
4.44089e-13 -3.246e-12 -4.69709

-21.1704 10.4835 1.9987e-12
10.4835 -18.559 7.45404e-13
1.9987e-12 7.45404e-13 -51.6846

3.4329 30.8719 8.08242e-13
30.8719 27.1626 8.77639e-12
8.08242e-13 8.77639e-12 -6.73286

6.14056 8.12671 -1.20393e-12
8.12671 -72.2977 3.62199e-12
-1.20393e-12 3.62199e-12 -14.9842

-11.5457 30.1906 3.00737e-12
30.1906 -20.6032 -2.78592e-13
3.00737e-12 -2.78592e-13 -11.5491

-30.7976 23.3319 -1.68177e-12
23.3319 -5.0997 -2.67046e-13
-1.68177e-12 -2.67046e-13 -8.46424

-25.8637 -32.4888 1.69997e-12
-32.4888 -24.1127 -2.08561e-12
1.69997e-12 -2.08561e-12 -21.5589

9.20543 -23.1902 9.4739e-15
-23.1902 -27.9222 2.09965e-12
9.4739e-15 2.09965e-12 -11.4256

-37.6608 10.4706 4.93032e-12
10.4706 8.92891 5.2669e-12
4.93032e-12 5.2669e-12 -25.3311

-23.0405 -23.4338 1.10045e-12
-23.4338 4.95246 6.41857e-13
1.10045e-12 6.41857e-13 -6.26287

88.8032 -9.70777 1.90189e-12
-9.70777 10.8073 1.79856e-12
1.90189e-12 1.79856e-12 -10.0308

84.0433 -14.2772 9.82917e-13
-14.2772 2.81268 1.86991e-12
9.82917e-13 1.86991e-12 -13.1968

5.88795 16.5295 4.95219e-12
16.5295 -33.9324 1.09808e-12
4.95219e-12 1.09808e-12 -22.376

-16.4213 22.5016 6.98996e-13
22.5016 16.228 1.46846e-12
6.98996e-13 1.46846e-12 -5.08517

-3.91233 29.1631 -1.14693e-12
29.1631 -12.2298 1.85481e-12
-1.14693e-12 1.85481e-12 -8.39618

50.9926 0.688669 8.89363e-13
0.688669 -6.53175 -3.69735e-12
8.89363e-13 -3.69735e-12 -3.63429

-48.1411 6.57116 4.48311e-12
6.57116 14.7861 -2.00965e-12
4.48311e-12 -2.00965e-12 -18.9524

10.1157 16.5408 -2.61006e-12
16.5408 -36.0797 -4.77751e-12
-2.61006e-12 -4.77751e-12 -9.13538

-4.50364 -25.761 -9.40285e-13
-25.761 35.5554 2.57572e-12
-9.40285e-13 2.57572e-12 -6.74686

-39.1912 -2.57239 4.35696e-12
-2.57239 21.5042 1.75741e-12
4.35696e-12 1.75741e-12 -10.6693

-7.99057 13.3651 2.25449e-12
13.3651 44.4052 -4.47168e-12
2.25449e-12 -4.47168e-12 -3.94418

3.73468 -29.7132 -3.44376e-12
-29.7132 -17.3647 2.98398e-12
-3.44376e-12 2.98398e-12 -8.92044

21.4259 -29.9473 -2.18847e-12
-29.9473 14.7561 7.78636e-13
-2.18847e-12 7.78636e-13 -3.91774

6.88096 31.6227 -9.08903e-13
31.6227 25.4016 -2.31518e-13
-9.08903e-13 -2.31518e-13 -6.82802

2.78554 -15.0201 5.86701e-12
-15.0201 -39.2672 -4.33002e-12
5.86701e-12 -4.33002e-12 -63.3114

-46.1597 2.04132 1.63795e-12
2.04132 11.4614 4.66116e-12
1.63795e-12 4.66116e-12 -22.7568

-55.4447 20.3 -3.27856e-12
20.3 3.09574 9.16008e-13
-3.27856e-12 9.16008e-13 -22.9159

5.91678 15.439 3.25917e-12
15.439 -58.8186 3.0805e-12
3.25917e-12 3.0805e-12 -23.036

-18.9215 -26.1887 -2.30897e-12
-26.1887 -12.9134 1.38763e-12
-2.30897e-12 1.38763e-12 -9.65253

41.3459 17.9572 -6.51331e-14
17.9572 -6.27093 -3.82835e-12
-6.51331e-14 -3.82835e-12 -3.86128

-44.6827 -5.29404 3.68294e-12
-5.29404 4.53833 5.78145e-12
3.68294e-12 5.78145e-12 -39.145

7.49928 -18.9881 2.59822e-12
-18.9881 -39.8943 2.62457e-12
2.59822e-12 2.62457e-12 -11.6598

30.2909 -15.5988 -2.30097e-12
-15.5988 -20.5084 2.48882e-12
-2.30097e-12 2.48882e-12 -4.80487

-9.6383 11.6032 -6.57548e-13
11.6032 44.3191 2.66809e-12
-6.57548e-13 2.66809e-12 -3.85893

8.33397 -25.7341 2.69533e-12
-25.7341 32.9918 -1.76925e-12
2.69533e-12 -1.76925e-12 -3.63289

-10.2447 -25.2738 3.15274e-12
-25.2738 -19.1003 -1.72381e-12
3.15274e-12 -1.72381e-12 -23.1747

17.005 31.9594 3.41238e-12
31.9594 11.1972 -5.77908e-13
3.41238e-12 -5.77908e-13 -5.74619

-1.06926 -25.1347 6.27765e-12
-25.1347 -30.7628 -2.63463e-12
6.27765e-12 -2.63463e-12 -20.8915

48.0649 2.59736 7.97821e-12
2.59736 -8.40961 9.98683e-13
7.97821e-12 9.98683e-13 -3.53145

6.5526 -28.9304 5.72579e-13
-28.9304 72.0501 -9.23706e-14
5.72579e-13 -9.23706e-14 -14.5514

21.7915 -29.2308 -5.31131e-13
-29.2308 13.9636 -1.74497e-12
-5.31131e-13 -1.74497e-12 -3.93013

35.3511 32.1588 2.50585e-12
32.1588 74.134 2.75927e-12
2.50585e-12 2.75927e-12 -5.44161

-45.2832 -11.8769 -2.44699e-12
-11.8769 13.9221 -3.20336e-12
-2.44699e-12 -3.20336e-12 -15.3263

-14.4203 -13.8213 -3.5573e-12
-13.8213 43.3821 2.39808e-12
-3.5573e-12 2.39808e-12 -5.6725

-19.2434 -23.988 1.38201e-12
-23.988 -19.8304 1.58199e-12
1.38201e-12 1.58199e-12 -64.2532

2.43832 23.7707 4.64103e-12
23.7707 36.0066 9.76996e-13
4.64103e-12 9.76996e-13 -3.7109

-15.1824 -32.7263 -3.72916e-12
-32.7263 -21.119 -3.11603e-12
-3.72916e-12 -3.11603e-12 -14.3128

-14.565 -11.9631 2.91663e-12
-11.9631 45.5303 7.88702e-13
2.91663e-12 7.88702e-13 -5.73869

7.8356 -19.1169 1.0294e-12
-19.1169 -43.1218 1.24552e-12
1.0294e-12 1.24552e-12 -12.6319

6.54571 23.8769 -2.14347e-12
23.8769 35.1712 3.5089e-12
-2.14347e-12 3.5089e-12 -3.44187

23.1733 -4.97548 8.46138e-13
-4.97548 -30.676 7.07286e-12
8.46138e-13 7.07286e-12 -5.36409

36.9701 -30.3425 -2.61124e-12
-30.3425 122.626 2.89428e-12
-2.61124e-12 2.89428e-12 -6.24181

-26.8691 21.014 -2.32377e-12
21.014 8.43426 2.49164e-12
-2.32377e-12 2.49164e-12 -7.12974

40.3382 -19.3232 2.0286e-12
-19.3232 -11.3722 -3.44909e-12
2.0286e-12 -3.44909e-12 -5.72572

6.52848 -21.4459 4.75471e-13
-21.4459 -45.5582 -3.36146e-12
4.75471e-13 -3.36146e-12 -24.9718

20.7051 31.7538 -3.48403e-12
31.7538 9.55754 1.76155e-12
-3.48403e-12 1.76155e-12 -5.80575

13.9189 -29.9716 -3.60068e-12
-29.9716 -7.60555 -1.9306e-12
-3.60068e-12 -1.9306e-12 -5.94399

6.75487 20.8853 -1.82965e-12
20.8853 -27.792 -2.75661e-12
-1.82965e-12 -2.75661e-12 -11.1086

-38.2741 -28.0759 4.9436e-12
-28.0759 -14.0378 -2.37876e-12
4.9436e-12 -2.37876e-12 -11.0608

8.6464 -26.2251 1.61945e-12
-26.2251 31.1708 3.39166e-12
1.61945e-12 3.39166e-12 -3.63491

15.3314 28.9809 -2.22459e-12
28.9809 19.1538 5.98395e-12
-2.22459e-12 5.98395e-12 -3.88269

28.6402 26.1912 6.23738e-12
26.1912 -5.63309 7.89887e-13
6.23738e-12 7.89887e-13 -4.80168

7.91476 -14.61 1.46668e-12
-14.61 -36.8775 -1.47053e-12
1.46668e-12 -1.47053e-12 -13.9911

-6.84122 -16.6175 -4.00716e-12
-16.6175 41.3407 3.45087e-12
-4.00716e-12 3.45087e-12 -3.95912

17.4407 -17.5682 6.44225e-13
-17.5682 -30.999 2.45389e-12
6.44225e-13 2.45389e-12 -7.10492

19.8419 16.9084 3.54442e-12
16.9084 -31.6641 -6.08077e-12
3.54442e-12 -6.08077e-12 -7.33417

-33.6795 -9.38678 -9.23484e-13
-9.38678 8.75602 -5.20473e-13
-9.23484e-13 -5.20473e-13 -23.9927

43.4313 -13.43 7.27951e-12
-13.43 -8.36856 -1.30666e-12
7.27951e-12 -1.30666e-12 -3.80386

-19.3782 0.594027 -2.03082e-12
0.594027 43.1451 -8.53836e-13
-2.03082e-12 -8.53836e-13 -4.77513

28.0558 18.5549 -1.85511e-12
18.5549 -18.1987 -3.99888e-12
-1.85511e-12 -3.99888e-12 -4.74937

25.5283 27.6038 -2.43953e-13
27.6038 -3.7754 1.06937e-12
-2.43953e-13 1.06937e-12 -4.77083

-6.71502 -15.686 -1.03058e-12
-15.686 43.7983 1.64964e-12
-1.03058e-12 1.64964e-12 -3.84766

-19.9062 -1.20229 4.10486e-13
-1.20229 42.1277 5.14078e-12
4.10486e-13 5.14078e-12 -4.6867

-5.47321 29.1343 1.16115e-12
29.1343 -23.6465 3.18382e-12
1.16115e-12 3.18382e-12 -16.7968

-37.2735 -10.9221 1.76496e-12
-10.9221 21.6799 -9.11863e-14
1.76496e-12 -9.11863e-14 -7.82971

27.1433 -26.7151 1.99663e-12
-26.7151 -5.53052 2.64677e-12
1.99663e-12 2.64677e-12 -4.94388

40.7189 21.3324 1.55609e-12
21.3324 -8.36987 -5.28881e-12
1.55609e-12 -5.28881e-12 -5.46723

12.378 23.6653 6.19949e-12
23.6653 -27.1269 -3.8014e-12
6.19949e-12 -3.8014e-12 -8.66668

-37.7963 5.47077 -3.84108e-12
5.47077 23.3113 2.34242e-12
-3.84108e-12 2.34242e-12 -8.59713

18.593 29.0654 -1.71122e-12
29.0654 17.3778 1.85096e-12
-1.71122e-12 1.85096e-12 -3.94677

-9.98905 22.9638 -4.18332e-13
22.9638 -14.9129 -1.83646e-12
-4.18332e-13 -1.83646e-12 -24.0259

68.3163 -59.6915 1.89478e-14
-59.6915 36.3351 7.11609e-12
1.89478e-14 7.11609e-12 -23.0107

17.5309 -25.0477 1.2772e-12
-25.0477 -17.9918 -3.14534e-12
1.2772e-12 -3.14534e-12 -6.41734

10.0584 7.06987 -4.77899e-12
7.06987 82.5502 2.67875e-12
-4.77899e-12 2.67875e-12 -7.16511

11.9204 -28.8891 1.71951e-12
-28.8891 -3.88137 3.36916e-12
1.71951e-12 3.36916e-12 -5.16546

-66.9448 -52.7011 -9.18969e-13
-52.7011 143.25 4.47642e-12
-9.18969e-13 4.47642e-12 -49.6691

-68.3881 51.4518 2.74625e-12
51.4518 142.537 -8.76336e-13
2.74625e-12 -8.76336e-13 -49.8582

19.5696 117.155 -1.18897e-12
117.155 64.129 1.84267e-12
-1.18897e-12 1.84267e-12 -48.3598

20.5285 -117.097 9.78181e-13
-117.097 61.0259 -3.19744e-12
9.78181e-13 -3.19744e-12 -48.7245

157.743 -1.36337 9.66338e-13
-1.36337 -79.1871 4.32247e-14
9.66338e-13 4.32247e-14 -48.9114

110.326 -91.1257 -2.78059e-12
-91.1257 -36.6899 1.88294e-12
-2.78059e-12 1.88294e-12 -50.306

110.379 91.6536 5.5896e-13
91.6536 -36.5001 -4.45037e-12
5.5896e-13 -4.45037e-12 -50.1788

7.847 14.3303 3.82124e-12
14.3303 -42.6815 -2.74388e-12
3.82124e-12 -2.74388e-12 -15.0789

-11.7909 25.5365 -2.51947e-13
25.5365 -27.4047 -1.10578e-13
-2.51947e-13 -1.10578e-13 -35.1379

12.4381 6.60603 -5.04485e-12
6.60603 -40.5335 -2.8549e-12
-5.04485e-12 -2.8549e-12 -8.25217

26.2547 21.7845 -1.33168e-12
21.7845 -19.5283 4.24283e-12
-1.33168e-12 4.24283e-12 -5.85054

-21.2298 17.7444 -1.20437e-12
17.7444 29.8683 -3.62199e-12
-1.20437e-12 -3.62199e-12 -6.16202

22.5303 28.8984 -1.42997e-12
28.8984 -0.775293 6.09883e-13
-1.42997e-12 6.09883e-13 -4.73046

4.05555 -29.6634 -5.30894e-12
-29.6634 -17.4662 1.65616e-12
-5.30894e-12 1.65616e-12 -8.50415

25.9952 28.0277 7.98768e-13
28.0277 -2.30149 4.30648e-12
7.98768e-13 4.30648e-12 -4.73086

-19.3468 -2.84125 4.65213e-12
-2.84125 43.0712 -2.179e-13
4.65213e-12 -2.179e-13 -4.76968

-13.4115 -26.0974 5.65266e-12
-26.0974 -25.8384 1.54987e-12
5.65266e-12 1.54987e-12 -35.521

-19.8419 -4.86238 -4.60372e-14
-4.86238 41.7762 4.61616e-12
-4.60372e-14 4.61616e-12 -4.74354

-1.82688 23.0162 -1.77636e-15
23.0162 -24.3771 8.61089e-13
-1.77636e-15 8.61089e-13 -16.1498

44.9824 26.8706 1.42464e-12
26.8706 8.11152 -2.98902e-12
1.42464e-12 -2.98902e-12 -5.36886

-52.5087 -13.2161 -2.42547e-12
-13.2161 0.150395 3.18649e-12
-2.42547e-12 3.18649e-12 -20.6173

20.2805 13.7279 4.43319e-12
13.7279 -31.1413 -5.79004e-12
4.43319e-12 -5.79004e-12 -7.04269

13.7007 -29.9876 3.84404e-12
-29.9876 -6.69128 -5.0034e-13
3.84404e-12 -5.0034e-13 -5.83492

29.6308 -24.7134 4.64103e-12
-24.7134 -7.87353 -1.90751e-12
4.64103e-12 -1.90751e-12 -4.82483

5.76479 -16.0747 6.30488e-12
-16.0747 -32.3342 1.45099e-12
6.30488e-12 1.45099e-12 -22.2555

12.6277 27.9289 -6.46653e-12
27.9289 -13.6386 2.52628e-12
-6.46653e-12 2.52628e-12 -6.41932

23.309 23.9774 -3.24007e-12
23.9774 -17.943 1.58658e-12
-3.24007e-12 1.58658e-12 -5.96206

-31.0767 -2.79293 -2.62631e-12
-2.79293 30.1317 -3.42837e-13
-2.62631e-12 -3.42837e-13 -6.39819

-28.6291 5.87335 -2.23481e-12
5.87335 33.3214 -1.49806e-13
-2.23481e-12 -1.49806e-13 -6.05902

34.5485 2.6467 -1.26536e-12
2.6467 -26.1832 1.8003e-12
-1.26536e-12 1.8003e-12 -6.14178

50.6512 -7.28964 4.65287e-12
-7.28964 -14.0815 8.52947e-13
4.65287e-12 8.52947e-13 -6.77841

11.0412 30.4847 1.28608e-12
30.4847 -4.78745 -6.15744e-12
1.28608e-12 -6.15744e-12 -5.96587

17.4675 -26.1554 -1.77103e-12
-26.1554 -17.4548 9.92095e-13
-1.77103e-12 9.92095e-13 -6.35145

-0.0844204 -21.2543 -5.68138e-13
-21.2543 -27.9559 -2.18196e-12
-5.68138e-13 -2.18196e-12 -17.1664

4.93908 -31.6336 -2.59763e-12
-31.6336 4.86152 4.71386e-12
-2.59763e-12 4.71386e-12 -5.93472

-8.22698 -27.7855 -1.81129e-12
-27.7855 18.5788 4.85538e-13
-1.81129e-12 4.85538e-13 -6.12933

-1.65015 29.8871 -5.52802e-12
29.8871 10.4474 1.27957e-12
-5.52802e-12 1.27957e-12 -5.79976

-26.0163 -9.57791 3.55923e-12
-9.57791 32.9698 1.09364e-12
3.55923e-12 1.09364e-12 -5.78669

-31.3226 -1.5448 4.29804e-13
-1.5448 31.6508 -3.04053e-12
4.29804e-13 -3.04053e-12 -6.22302

-38.9152 5.74793 -3.841e-13
5.74793 23.9465 1.04035e-12
-3.841e-13 1.04035e-12 -9.18254

-17.2179 -21.089 3.44376e-12
-21.089 26.571 -6.45824e-12
3.44376e-12 -6.45824e-12 -5.77142

13.0718 24.1112 -7.81597e-13
24.1112 -28.101 2.44812e-12
-7.81597e-13 2.44812e-12 -9.20442

21.555 -9.58975 4.44089e-14
-9.58975 -31.7062 1.61293e-12
4.44089e-14 1.61293e-12 -6.59752

-27.1532 7.46527 1.39283e-12
7.46527 34.3346 2.6598e-12
1.39283e-12 2.6598e-12 -5.87342

-35.2355 -9.70109 -3.44412e-12
-9.70109 22.3136 -7.4607e-13
-3.44412e-12 -7.4607e-13 -8.18298

-29.1554 -16.3307 1.76096e-12
-16.3307 19.3468 1.32635e-12
1.76096e-12 1.32635e-12 -6.66119

36.9678 -8.2392 -5.2592e-12
-8.2392 -20.2365 1.43263e-12
-5.2592e-12 1.43263e-12 -5.10093

-14.8096 -32.3468 -2.65684e-12
-32.3468 -21.6274 1.18986e-12
-2.65684e-12 1.18986e-12 -12.9927

-22.8238 9.32088 -2.60458e-12
9.32088 33.3234 -1.6757e-12
-2.60458e-12 -1.6757e-12 -4.78826

-0.751016 -18.2127 -2.67815e-12
-18.2127 -35.1575 -1.04124e-12
-2.67815e-12 -1.04124e-12 -33.2776

4.9322 24.8227 -4.36392e-12
24.8227 75.3067 4.47405e-12
-4.36392e-12 4.47405e-12 -14.3189

-14.1418 -26.6262 -3.93256e-12
-26.6262 -16.35 2.99879e-12
-3.93256e-12 2.99879e-12 -14.6405

-6.35704 -30.2028 -1.2624e-12
-30.2028 -23.6022 7.19425e-14
-1.2624e-12 7.19425e-14 -17.0876

-31.2704 -0.701272 1.77332e-12
-0.701272 31.5004 -4.60076e-12
1.77332e-12 -4.60076e-12 -6.34789

28.4877 -16.6226 5.94487e-13
-16.6226 -18.0567 -6.90411e-13
5.94487e-13 -6.90411e-13 -4.43747

-37.8047 12.8417 -1.97079e-12
12.8417 11.1651 2.35308e-12
-1.97079e-12 2.35308e-12 -10.9886

-8.86114 -3.18056 2.43346e-12
-3.18056 111.051 9.45022e-13
2.43346e-12 9.45022e-13 -22.6716

-31.6023 14.2737 6.30607e-14
14.2737 21.3504 4.73754e-12
6.30607e-14 4.73754e-12 -7.1239

12.422 -29.4893 1.42109e-12
-29.4893 -2.51944 9.4443e-13
1.42109e-12 9.4443e-13 -4.92769

33.632 25.1057 -2.16952e-12
25.1057 124.03 -2.51295e-12
-2.16952e-12 -2.51295e-12 -6.21415

-13.5026 26.0978 2.47743e-12
26.0978 -19.0973 -3.71777e-12
2.47743e-12 -3.71777e-12 -58.8952

-9.55272 -27.8072 -1.45035e-11
-27.8072 -22.8068 1.63715e-11
-1.45035e-11 1.63715e-11 -59.5456

-2.86574 -30.4191 5.26216e-12
-30.4191 -7.32112 -2.25657e-12
5.26216e-12 -2.25657e-12 -7.28684

3.86035 -31.1603 -1.75445e-12
-31.1603 5.63572 -6.4541e-13
-1.75445e-12 -6.4541e-13 -6.06194

25.1521 20.8275 2.72375e-14
20.8275 -17.0342 -3.39403e-12
2.72375e-14 -3.39403e-12 -4.97637

31.8052 15.0061 -3.20573e-12
15.0061 -23.3008 -4.34408e-12
-3.20573e-12 -4.34408e-12 -5.95423

-9.48866 3.08343 1.8e-11
3.08343 -9.8305 -4.27806e-14
1.8e-11 -4.27806e-14 -80.9375

-5.54895 -6.99995 -1.8403e-11
-6.99995 -14.0416 3.13734e-12
-1.8403e-11 3.13734e-12 -80.2902

11.7486 4.8243 -4.25615e-12
4.8243 -43.2054 -1.92143e-12
-4.25615e-12 -1.92143e-12 -7.82709

-35.0565 6.73102 -8.3548e-13
6.73102 24.3753 2.78888e-12
-8.3548e-13 2.78888e-12 -7.56358

-36.1103 6.73633 2.57356e-12
6.73633 24.4326 4.4776e-12
2.57356e-12 4.4776e-12 -8.30855

74.5868 58.6345 5.47118e-12
58.6345 34.1729 -1.77636e-12
5.47118e-12 -1.77636e-12 -21.8729

-6.91975 -28.1999 2.60532e-12
-28.1999 16.8753 2.51295e-12
2.60532e-12 2.51295e-12 -6.11623

8.17203 17.9745 5.95376e-13
17.9745 -44.8758 -1.78524e-13
5.95376e-13 -1.78524e-13 -12.8965

32.7031 9.53977 -3.59061e-12
9.53977 -19.08 2.36848e-15
-3.59061e-12 2.36848e-15 -4.07395

3.3879 -26.7234 -1.98123e-12
-26.7234 13.4841 -5.34624e-12
-1.98123e-12 -5.34624e-12 -3.82659

26.2376 -20.2377 -4.23957e-13
-20.2377 -20.3229 -1.86281e-12
-4.23957e-13 -1.86281e-12 -5.86279

65.3907 60.2324 7.20017e-13
60.2324 34.2896 -1.79767e-12
7.20017e-13 -1.79767e-12 -23.8677

-13.2425 31.0691 2.61124e-13
31.0691 -16.8813 -2.30926e-13
2.61124e-13 -2.30926e-13 -12.7856

-18.6041 -19.7862 -1.46579e-12
-19.7862 28.4148 -3.98496e-12
-1.46579e-12 -3.98496e-12 -5.96907

11.1745 28.8578 -1.41931e-12
28.8578 -13.323 -1.26536e-12
-1.41931e-12 -1.26536e-12 -6.43575

-31.869 -4.14485 1.16551e-12
-4.14485 30.1479 -1.78524e-12
1.16551e-12 -1.78524e-12 -6.35746

-14.5962 19.6093 -3.33659e-13
19.6093 27.1853 6.96924e-13
-3.33659e-13 6.96924e-13 -4.41829

7.47935 30.5189 2.12748e-12
30.5189 -1.67023 -1.32871e-12
2.12748e-12 -1.32871e-12 -5.66007

-9.34474 -22.4733 1.82195e-12
-22.4733 23.1493 -9.13699e-12
1.82195e-12 -9.13699e-12 -4.17505

4.59066 -27.3526 -1.17476e-12
-27.3526 11.4492 1.58096e-12
-1.17476e-12 1.58096e-12 -3.9381

24.2719 11.257 2.53382e-12
11.257 102.079 1.7953e-12
2.53382e-12 1.7953e-12 -12.4049

37.4667 -33.4563 -4.29168e-12
-33.4563 69.2858 -6.30015e-13
-4.29168e-12 -6.30015e-13 -5.703

-25.3351 -11.6906 8.52725e-13
-11.6906 31.3682 -6.90411e-13
8.52725e-13 -6.90411e-13 -5.64797

16.0966 26.4846 6.71463e-13
26.4846 -15.5019 -2.59407e-12
6.71463e-13 -2.59407e-12 -6.21706

4.95589 29.478 1.1493e-12
29.478 1.63703 3.13941e-12
1.1493e-12 3.13941e-12 -4.98956

-9.85452 -21.434 2.83092e-12
-21.434 25.121 -4.91459e-14
2.83092e-12 -4.91459e-14 -4.03284

-21.6346 -11.7824 1.27602e-13
-11.7824 32.0822 8.81073e-13
1.27602e-13 8.81073e-13 -4.63681

10.4631 28.4096 1.65793e-13
28.4096 -0.156338 1.60346e-12
1.65793e-13 1.60346e-12 -4.67249

-21.8467 -13.8778 2.63967e-12
-13.8778 29.4675 2.55203e-13
2.63967e-12 2.55203e-13 -4.84675

6.95868 27.8551 -2.11209e-12
27.8551 73.0852 1.80004e-12
-2.11209e-12 1.80004e-12 -14.322

-45.8316 -4.04123 -2.37714e-12
-4.04123 14.0479 -1.24167e-12
-2.37714e-12 -1.24167e-12 -19.9649

0.877255 31.0277 -1.62773e-12
31.0277 7.52046 1.82491e-12
-1.62773e-12 1.82491e-12 -6.08868

9.71924 14.9013 -4.53504e-12
14.9013 -36.4291 -4.47523e-12
-4.53504e-12 -4.47523e-12 -10.9851

9.92873 -15.9275 -1.78198e-12
-15.9275 -39.4104 -2.52539e-12
-1.78198e-12 -2.52539e-12 -13.0689

85.6136 -24.2046 9.99497e-13
-24.2046 7.63589 -1.79412e-12
9.99497e-13 -1.79412e-12 -12.9579

-23.2068 -21.2673 -2.47683e-12
-21.2673 10.5139 1.58333e-12
-2.47683e-12 1.58333e-12 -6.16491

-16.6008 26.6984 -1.991e-12
26.6984 1.77862 -1.46372e-12
-1.991e-12 -1.46372e-12 -6.58736

-26.2013 -21.7278 3.91568e-12
-21.7278 -5.36503 -3.29699e-13
3.91568e-12 -3.29699e-13 -23.8671

-41.5967 14.1065 9.39693e-13
14.1065 -3.56007 2.03126e-12
9.39693e-13 2.03126e-12 -64.1275

-0.893438 9.44533 1.70071e-12
9.44533 -44.2593 -1.89952e-12
1.70071e-12 -1.89952e-12 -64.229

-20.3841 32.7054 -7.14984e-12
32.7054 -23.2025 -3.12343e-13
-7.14984e-12 -3.12343e-13 -24.3295

-11.4104 26.0005 1.82669e-13
26.0005 22.6042 -2.74625e-12
1.82669e-13 -2.74625e-12 -5.92531

16.0388 26.6615 -1.84208e-12
26.6615 -17.2871 -2.73263e-12
-1.84208e-12 -2.73263e-12 -6.54953

30.4284 45.1861 -2.94875e-13
45.1861 47.5549 -6.29067e-12
-2.94875e-13 -6.29067e-12 -15.1949

-44.8885 -11.3436 -1.36543e-12
-11.3436 -1.80804 7.88406e-13
-1.36543e-12 7.88406e-13 -61.6836

-8.29817 -3.43287 2.055e-11
-3.43287 -12.7549 5.76724e-13
2.055e-11 5.76724e-13 -77.2276

-14.6913 -0.209979 -1.74098e-12
-0.209979 -6.41856 -3.10603e-12
-1.74098e-12 -3.10603e-12 -77.3718

27.6652 -53.8027 -8.7752e-13
-53.8027 71.149 1.76925e-12
-8.7752e-13 1.76925e-12 -24.3895

-11.6911 -11.6 -3.75996e-13
-11.6 -16.2046 7.67682e-13
-3.75996e-13 7.67682e-13 -37.431

-32.6103 8.81294 -2.3684e-12
8.81294 -9.41934 -1.34411e-12
-2.3684e-12 -1.34411e-12 -49.5412

18.2563 -26.1996 -1.44477e-12
-26.1996 -19.5463 -2.19943e-12
-1.44477e-12 -2.19943e-12 -6.50629

-39.43 1.01102 -2.61383e-13
1.01102 11.9802 -2.22518e-12
-2.61383e-13 -2.22518e-12 -19.7218

-30.2024 -20.2679 3.14563e-12
-20.2679 6.30513 1.77221e-12
3.14563e-12 1.77221e-12 -7.21579

10.5366 6.25534 3.89881e-12
6.25534 -52.3899 3.73768e-12
3.89881e-12 3.73768e-12 -9.63947

-49.8127 15.5963 1.5236e-13
15.5963 10.1653 -4.15075e-13
1.5236e-13 -4.15075e-13 -13.5309

-40.2836 7.19158 7.9714e-14
7.19158 16.5414 -6.00882e-12
7.9714e-14 -6.00882e-12 -13.7741

16.4049 20.3929 3.71555e-12
20.3929 -25.8407 1.64283e-12
3.71555e-12 1.64283e-12 -7.6074

-9.10018 -3.1139 -4.4087e-12
-3.1139 108.395 -3.03165e-13
-4.4087e-12 -3.03165e-13 -23.1019

-3.32005 -27.6238 7.82781e-13
-27.6238 -3.6294 -7.81005e-12
7.82781e-13 -7.81005e-12 -5.82971

-7.33495 -26.1164 -4.10931e-12
-26.1164 -14.0818 -1.79323e-12
-4.10931e-12 -1.79323e-12 -9.8105

-14.1983 -31.4837 -2.83447e-12
-31.4837 -21.7779 -8.5576e-13
-2.83447e-12 -8.5576e-13 -12.7555

90.7279 32.7497 4.76774e-12
32.7497 20.9065 9.26074e-13
4.76774e-12 9.26074e-13 -16.5059

-23.1173 -20.1165 4.68958e-13
-20.1165 -17.385 -1.83187e-12
4.68958e-13 -1.83187e-12 -44.4275

72.6305 54.3224 1.05397e-12
54.3224 91.6407 8.95284e-13
1.05397e-12 8.95284e-13 -6.14233

-36.2151 -21.4395 -4.62519e-12
-21.4395 -6.79682 1.52056e-12
-4.62519e-12 1.52056e-12 -13.0428

15.034 14.6504 -5.21834e-12
14.6504 -37.7516 1.79146e-12
-5.21834e-12 1.79146e-12 -8.17854

44.5727 -14.5725 3.73272e-12
-14.5725 -8.27179 4.3725e-12
3.73272e-12 4.3725e-12 -4.41826

-21.2306 24.0468 2.07982e-12
24.0468 4.95559 2.49045e-12
2.07982e-12 2.49045e-12 -5.9761

17.3732 20.428 7.76801e-12
20.428 -26.7923 -5.35779e-12
7.76801e-12 -5.35779e-12 -6.95121

-51.1399 11.4005 -2.38846e-13
11.4005 7.71045 -5.76132e-13
-2.38846e-13 -5.76132e-13 -29.9941

-7.28695 -31.5802 -1.19608e-13
-31.5802 -12.8266 -6.56127e-12
-1.19608e-13 -6.56127e-12 -8.11882

2.79666 19.8124 3.80022e-12
19.8124 -46.0333 3.09501e-12
3.80022e-12 3.09501e-12 -29.986

-24.6708 -18.4435 4.51461e-12
-18.4435 17.8362 1.86458e-12
4.51461e-12 1.86458e-12 -5.47979

-42.3405 4.28321 3.29843e-13
4.28321 17.8694 -7.71472e-12
3.29843e-13 -7.71472e-12 -12.728

-4.09805 9.9268 7.11638e-12
9.9268 -40.2758 -1.95518e-12
7.11638e-12 -1.95518e-12 -47.5487

-2.68828 -8.51342 -1.72603e-12
-8.51342 -38.307 2.43094e-12
-1.72603e-12 2.43094e-12 -47.4045

81.7226 18.5124 -1.76925e-12
18.5124 1.70019 1.16055e-13
-1.76925e-12 1.16055e-13 -14.4531

3.89496 7.96504 1.63484e-12
7.96504 -45.1831 2.41436e-12
1.63484e-12 2.41436e-12 -11.018

35.8717 7.7405 -8.88815e-12
7.7405 184.572 -8.71599e-13
-8.88815e-12 -8.71599e-13 -9.75741

40.1452 -11.3851 2.72556e-12
-11.3851 190.37 -8.19493e-13
2.72556e-12 -8.19493e-13 -7.38924

53.7646 56.4068 4.44326e-12
56.4068 159.254 -1.04213e-12
4.44326e-12 -1.04213e-12 -11.5001

1.70895 -28.9505 -2.76816e-12
-28.9505 -24.6907 8.39921e-13
-2.76816e-12 8.39921e-13 -11.9626

16.0489 -49.1904 5.69618e-13
-49.1904 99.4186 1.85925e-12
5.69618e-13 1.85925e-12 -21.6893

54.5124 -55.9493 -2.69296e-12
-55.9493 149.972 -1.81899e-12
-2.69296e-12 -1.81899e-12 -13.665

-2.16557 26.2201 -2.6823e-13
26.2201 17.5727 -4.10812e-12
-2.6823e-13 -4.10812e-12 -3.9956

134.938 73.8436 6.26699e-12
73.8436 85.0243 9.23706e-13
6.26699e-12 9.23706e-13 -10.1592

-18.7198 13.0473 3.51689e-12
13.0473 -3.90016 1.14545e-12
3.51689e-12 1.14545e-12 -26.7695

3.7411 0.0394903 4.63674e-12
0.0394903 -26.1889 -1.55757e-12
4.63674e-12 -1.55757e-12 -26.7728

144.096 -73.1291 3.16428e-12
-73.1291 85.3518 1.79767e-12
3.16428e-12 1.79767e-12 -8.19647

-21.3927 -23.4239 1.06374e-12
-23.4239 12.2481 -6.74187e-12
1.06374e-12 -6.74187e-12 -6.49079

89.3458 34.729 6.44936e-12
34.729 41.3897 6.23738e-12
6.44936e-12 6.23738e-12 -11.5481

72.1865 63.4906 -7.51044e-12
63.4906 149.692 -1.74794e-12
-7.51044e-12 -1.74794e-12 -9.67381

26.1644 21.6301 -2.52006e-12
21.6301 100.133 2.03689e-13
-2.52006e-12 2.03689e-13 -13.0315

73.8733 -65.9195 -9.33179e-13
-65.9195 151.143 4.56168e-12
-9.33179e-13 4.56168e-12 -9.40235

25.7688 -12.381 -8.67454e-13
-12.381 105.011 1.01134e-12
-8.67454e-13 1.01134e-12 -12.4285

-28.6639 6.84165 -4.49204e-12
6.84165 3.10683 5.1544e-13
-4.49204e-12 5.1544e-13 -37.8536

37.7426 -45.9746 -3.42718e-12
-45.9746 49.669 -1.62122e-12
-3.42718e-12 -1.62122e-12 -15.5324

14.4436 47.5317 -6.92069e-12
47.5317 94.879 6.36409e-12
-6.92069e-12 6.36409e-12 -22.1925

173.338 37.9112 4.68958e-13
37.9112 48.0411 4.52201e-12
4.68958e-13 4.52201e-12 -9.52245

7.02084 -29.2857 -1.48622e-13
-29.2857 -14.3583 3.47811e-12
-1.48622e-13 3.47811e-12 -7.15578

-38.4174 12.8967 6.0707e-12
12.8967 6.43533 3.43932e-12
6.0707e-12 3.43932e-12 -15.2904

88.5041 -38.1123 -1.7953e-12
-38.1123 34.1627 7.30912e-12
-1.7953e-12 7.30912e-12 -14.0997

6.04183 -28.8021 3.50712e-12
-28.8021 -16.1717 -1.85333e-13
3.50712e-12 -1.85333e-13 -8.02963

169.204 -36.3431 3.65693e-12
-36.3431 34.9285 -5.20532e-12
3.65693e-12 -5.20532e-12 -13.2903

-5.72506 -28.3174 5.66717e-12
-28.3174 -14.4727 9.15712e-13
5.66717e-12 9.15712e-13 -9.3092

-17.7903 -25.2948 -2.51088e-12
-25.2948 12.0803 -1.21384e-12
-2.51088e-12 -1.21384e-12 -5.93395

118.875 69.4601 6.63173e-14
69.4601 96.2181 -1.79057e-12
6.63173e-14 -1.79057e-12 -11.4004

29.4127 -22.9327 2.71072e-12
-22.9327 97.7955 6.15804e-14
2.71072e-12 6.15804e-14 -14.3401

117.958 -71.6921 -1.78109e-12
-71.6921 93.6796 5.47355e-12
-1.78109e-12 5.47355e-12 -12.4165

22.2644 50.7371 2.2015e-12
50.7371 73.7778 -5.38355e-12
2.2015e-12 -5.38355e-12 -24.7775

-1.53619 -30.2121 7.13503e-13
-30.2121 -6.55239 6.26876e-12
7.13503e-13 6.26876e-12 -6.99759

-7.04504 -14.6403 3.34606e-12
-14.6403 -21.9194 -9.3614e-13
3.34606e-12 -9.3614e-13 -32.6143

-11.892 11.0925 3.74049e-12
11.0925 -16.4306 5.54016e-12
3.74049e-12 5.54016e-12 -77.794

-26.1687 -5.16002 -2.99198e-12
-5.16002 -6.38735 -1.84251e-12
-2.99198e-12 -1.84251e-12 -77.6278

-38.9411 13.0836 -6.06089e-13
13.0836 13.7444 -2.7048e-12
-6.06089e-13 -2.7048e-12 -10.2386

-14.4805 -10.6669 -2.62064e-12
-10.6669 -17.3181 8.19789e-13
-2.62064e-12 8.19789e-13 -78.7568

-25.9025 4.09177 -5.15336e-12
4.09177 -5.91385 -8.92027e-13
-5.15336e-12 -8.92027e-13 -78.899

-3.63374 7.43394 3.13453e-12
7.43394 -27.8604 -6.55994e-12
3.13453e-12 -6.55994e-12 -77.9862

-43.975 -12.115 -6.01223e-13
-12.115 2.9163 -6.30858e-12
-6.01223e-13 -6.30858e-12 -68.1578

11.9737 -30.47 9.48575e-13
-30.47 76.1628 1.01844e-13
9.48575e-13 1.01844e-13 -14.7009

0.521806 -12.9721 2.66305e-12
-12.9721 -39.9906 3.69986e-12
2.66305e-12 3.69986e-12 -45.2769

-16.3488 -34.4176 9.68114e-13
-34.4176 -22.0686 -3.16103e-12
9.68114e-13 -3.16103e-12 -23.59

-2.42065 -18.1769 3.30846e-12
-18.1769 -29.8952 -7.18803e-12
3.30846e-12 -7.18803e-12 -33.6265

12.7382 15.4592 1.157e-12
15.4592 -37.7162 -4.67211e-12
1.157e-12 -4.67211e-12 -9.62504

-46.9083 9.86415 1.76488e-12
9.86415 8.87757 -5.43225e-12
1.76488e-12 -5.43225e-12 -70.1536

3.46259 19.2275 -7.4607e-13
19.2275 -41.4718 2.98421e-12
-7.4607e-13 2.98421e-12 -70.2694

1.47225 11.3064 -5.92711e-13
11.3064 -23.965 -1.50665e-12
-5.92711e-13 -1.50665e-12 -31.8677

109.392 -15.3394 1.42109e-14
-15.3394 -12.5355 -5.27223e-12
1.42109e-14 -5.27223e-12 -25.0371

-14.3203 24.9641 -1.34411e-13
24.9641 10.3862 -1.65201e-13
-1.34411e-13 -1.65201e-13 -5.80445

76.6069 -61.3546 4.48826e-12
-61.3546 37.3653 1.18424e-13
4.48826e-12 1.18424e-13 -22.3953

76.1141 -57.4572 -1.06652e-11
-57.4572 99.2283 6.89226e-13
-1.06652e-11 6.89226e-13 -5.55524

118.196 -36.544 -4.42431e-12
-36.544 40.6009 -8.04098e-13
-4.42431e-12 -8.04098e-13 -7.37845

-51.1141 -5.15894 1.77162e-12
-5.15894 3.34068 -1.3903e-12
1.77162e-12 -1.3903e-12 -60.6601

-50.478 2.89124 -9.43393e-13
2.89124 3.13495 -2.89013e-12
-9.43393e-13 -2.89013e-12 -60.1327

-11.9755 -24.4561 -4.65583e-12
-24.4561 -35.0033 2.16345e-13
-4.65583e-12 2.16345e-13 -59.1668

-8.99189 -21.7604 -8.75744e-13
-21.7604 -37.888 -1.28135e-12
-8.75744e-13 -1.28135e-12 -59.4764

-14.7026 26.1358 -5.40309e-12
26.1358 -33.0276 -5.21309e-12
-5.40309e-12 -5.21309e-12 -60.7513

-18.1575 3.09935 -9.02981e-15
3.09935 -13.1645 -1.01712e-11
-9.02981e-15 -1.01712e-11 -75.4785

-9.94505 -20.5088 -7.5436e-13
-20.5088 -32.6507 6.7879e-13
-7.5436e-13 6.7879e-13 -56.7371

-26.6482 -18.5682 -5.55911e-12
-18.5682 -14.1959 -1.53553e-11
-5.55911e-12 -1.53553e-11 -71.2723

-15.4789 2.43443 1.13872e-11
2.43443 -12.8526 3.46434e-12
1.13872e-11 3.46434e-12 -77.873

-6.02751 -20.5261 2.35826e-12
-20.5261 -41.487 -4.26681e-12
2.35826e-12 -4.26681e-12 -60.5074

-6.75679 20.9557 4.2227e-12
20.9557 -40.1433 3.46774e-12
4.2227e-12 3.46774e-12 -60.0186

-14.3161 -3.45845 1.42557e-11
-3.45845 -11.3902 -1.89377e-11
1.42557e-11 -1.89377e-11 -76.8875

-11.264 -3.11709 -5.80632e-12
-3.11709 -17.6892 3.11499e-12
-5.80632e-12 3.11499e-12 -74.0502

-24.2039 12.1098 6.22065e-12
12.1098 -13.4006 -1.47873e-11
6.22065e-12 -1.47873e-11 -69.9685

-22.0824 26.9295 -4.71919e-13
26.9295 -26.2669 5.1828e-13
-4.71919e-13 5.1828e-13 -57.5827

VECTORS fluid_flux_TPM float
-8.72111e-05 3.10253e-05 5.09013e-21
3.55918e-06 6.88186e-06 2.08283e-20
-1.27861e-05 -1.02245e-05 -4.98554e-21
-4.17017e-06 4.25359e-06 1.432e-20
2.27055e-05 -6.31267e-06 -2.76004e-20
2.75731e-06 -1.5902e-05 4.95036e-21
-8.57871e-05 -3.10901e-05 1.5854e-20
-1.3891e-05 -1.04657e-05 -1.4336e-20
2.21196e-05 9.45428e-07 -2.14198e-20
1.13829e-05 -3.90771e-06 -8.38526e-21
5.45958e-05 1.24829e-05 1.22854e-20
2.34663e-06 -1.71924e-05 -1.83326e-21
1.36102e-05 1.12527e-05 -1.51983e-20
2.66182e-06 1.37832e-05 -9.1116e-21
2.0579e-05 -2.94636e-06 -1.70221e-20
-1.63307e-05 -2.72872e-07 1.83254e-20
2.75326e-06 1.40974e-05 -1.01897e-20
1.01808e-05 -2.39165e-06 -3.37671e-20
9.89766e-06 1.72211e-05 -4.43123e-20
-1.4847e-05 1.88528e-06 -5.26837e-21
-3.60083e-06 -2.1302e-05 -1.03567e-20
3.41083e-05 5.94129e-05 1.38604e-20
1.5696e-05 1.63115e-06 -2.58909e-20
1.12263e-05 -1.12804e-05 3.49578e-21
-1.5077e-05 -3.33209e-06 1.93556e-20
-6.77162e-07 -1.11298e-05 -4.32546e-20
6.28987e-05 -4.9081e-06 8.24121e-21
1.40648e-05 1.02479e-05 -9.05768e-21
-2.51476e-05 -2.06411e-05 -2.97041e-21
4.91166e-05 -1.2813e-05 -8.6192e-22
-1.6581e-05 -6.03781e-06 2.66448e-20
5.53667e-06 -3.20345e-05 3.12349e-21
4.76512e-05 -4.80442e-05 -1.8585e-22
-4.92303e-06 -4.12451e-05 -1.68705e-20
-2.96714e-05 3.7003e-05 -9.73431e-21
-3.8245e-05 -1.63941e-05 2.60276e-20
3.27005e-05 4.32128e-05 2.4295e-20
-4.47379e-05 -8.72532e-06 1.09646e-20
1.43735e-05 -1.1081e-05 -9.75221e-21
4.64671e-05 5.01121e-05 -2.46109e-21
3.21274e-05 -1.40211e-05 -9.18923e-21
3.3638e-05 -4.23409e-05 -2.2905e-20
-1.98952e-05 -5.03754e-05 3.41885e-20
-1.58969e-05 6.35636e-06 1.47393e-20
3.05235e-05 -2.93126e-05 1.25327e-21
-3.03307e-05 1.09896e-05 2.67042e-20
-4.04996e-06 -2.03694e-05 -3.10654e-21
7.88565e-06 2.02106e-05 -5.02656e-20
-1.63415e-05 5.9275e-06 2.44044e-20
-1.78189e-05 2.87241e-05 9.68612e-22
3.24069e-05 1.529e-05 -1.48684e-20
2.93636e-05 -1.00746e-05 -1.53089e-20
-1.56656e-05 1.57596e-05 8.65109e-21
-2.354e-05 -2.06892e-05 -1.66622e-20
-2.11389e-05 -5.1322e-06 1.49333e-20
-4.47894e-05 2.70748e-05 3.32056e-21
-2.93706e-05 -3.80214e-05 -2.56844e-20
6.36315e-06 -3.06265e-05 5.0219e-21
-4.77058e-05 6.4826e-06 2.05121e-20
6.07386e-06 1.36965e-05 -2.57517e-20
-5.57661e-06 -8.17316e-06 1.73971e-20
-6.58333e-06 -1.7943e-05 2.60337e-20
5.71422e-05 2.48589e-05 1.95631e-21
9.24257e-06 1.81437e-05 -3.00223e-21
1.22962e-05 -1.44446e-05 1.13602e-20
-1.64054e-06 -2.0752e-05 -1.10404e-20
4.62097e-06 -8.80531e-06 6.22608e-21
-1.00903e-05 -5.56475e-06 1.41669e-20
-1.06024e-05 1.1929e-05 3.35452e-21
2.55813e-06 -4.0925e-06 -1.54408e-20
-1.50431e-05 -1.58429e-05 -2.57484e-20
-2.13644e-05 5.1658e-06 1.02837e-20
-3.55674e-06 3.44806e-05 8.79267e-21
-1.78715e-05 1.07106e-05 5.94446e-21
-9.07061e-06 1.46144e-05 7.09284e-21
-6.03536e-05 7.69197e-06 -4.54747e-21
7.8179e-06 -2.16811e-05 -3.19233e-21
-1.88798e-05 -8.8999e-06 6.14222e-22
1.93368e-06 1.16238e-05 -1.35421e-20
2.63005e-05 5.08955e-06 -3.34891e-20
3.41684e-05 -2.89746e-05 -7.70373e-21
2.2146e-05 2.05558e-05 8.45556e-21
1.19082e-05 -2.82227e-06 -8.10333e-21
-3.21532e-05 2.40667e-05 1.41632e-20
3.79037e-05 4.84577e-06 -2.97001e-20
-4.98075e-06 4.94138e-05 -1.17027e-22
-1.74108e-06 -1.68568e-05 -2.62798e-20
1.81236e-05 9.9545e-06 -5.25629e-21
2.9317e-05 3.02853e-05 -1.1784e-20
5.50239e-05 3.80128e-05 2.59515e-22
-5.33126e-06 3.07724e-05 1.15654e-20
5.91788e-05 -3.55119e-05 -3.56616e-20
-2.71244e-05 5.3411e-06 8.4198e-21
1.7839e-05 1.10017e-05 -2.70849e-21
-2.96406e-05 9.90317e-06 1.33899e-20
1.66528e-05 2.85208e-05 -5.08416e-22
1.01687e-05 -4.4386e-05 -1.97912e-20
1.91545e-06 1.16206e-05 -1.32289e-20
-1.48005e-05 -1.76199e-05 1.38319e-20
3.06985e-06 1.74744e-05 -2.71178e-20
2.64065e-05 5.2574e-06 -1.82378e-20
-1.54431e-05 3.32107e-05 1.26514e-20
4.05516e-05 -1.33329e-05 -6.1115e-21
-3.77301e-06 7.45493e-06 4.87155e-21
9.9527e-06 5.89923e-06 -2.18045e-20
-2.28055e-06 -1.13244e-05 -2.12879e-20
3.22062e-06 -1.92516e-05 -2.25806e-20
1.74691e-05 3.89203e-06 -2.36726e-20
-7.93708e-06 4.0972e-05 9.36164e-22
-9.80548e-06 2.47922e-07 2.03381e-20
9.31838e-06 1.18856e-05 -2.15532e-20
-2.17729e-06 -4.17133e-05 -8.03054e-21
4.20224e-05 1.28648e-05 -4.94705e-21
4.42249e-06 -7.45309e-06 -1.82466e-20
-1.1145e-05 -3.55359e-06 3.1179e-20
-2.93252e-05 -1.24858e-05 -1.62466e-21
1.58036e-05 4.11467e-05 -1.43967e-20
-4.34843e-05 -1.55736e-05 -5.40876e-21
1.60183e-05 -4.11232e-05 -4.40814e-20
-3.69975e-06 -3.19197e-05 -3.45306e-21
2.18385e-05 6.52156e-07 -1.27548e-20
-7.17139e-06 1.83964e-05 7.05464e-21
-1.61117e-06 3.96951e-06 -8.72025e-21
-3.68592e-06 -1.65385e-05 -2.76486e-20
5.22991e-06 -8.30198e-06 -1.28157e-20
9.35935e-06 1.58633e-05 -1.25628e-20
3.31007e-05 1.06522e-05 -2.50596e-20
8.61534e-06 -7.45793e-06 -3.33483e-21
-8.27079e-06 -4.51593e-05 -1.29085e-20
2.55517e-05 -1.88196e-05 4.98086e-22
4.97785e-06 2.77708e-05 3.40212e-21
-2.81629e-06 -2.84157e-06 1.47332e-20
-8.62612e-06 -8.32572e-06 -1.90803e-20
-4.7766e-06 4.41241e-08 -9.20165e-21
-2.28723e-05 2.85937e-05 -5.48485e-21
1.87628e-05 -3.73744e-05 -4.71757e-21
-2.65796e-05 4.27137e-05 -7.87926e-22
-1.63715e-05 9.5351e-06 1.2042e-20
2.52791e-06 1.21987e-05 -3.9807e-20
-2.29864e-05 -3.49888e-05 1.71716e-20
1.39359e-05 3.34655e-05 -1.84254e-20
1.75074e-05 9.36904e-06 -2.31891e-20
2.28111e-05 -8.5225e-06 3.54685e-22
-1.25317e-06 -1.12652e-05 -1.5747e-20
-3.3911e-05 -3.15574e-05 -1.71488e-20
-2.75143e-06 1.13031e-05 6.73268e-21
1.72464e-05 1.01715e-05 -8.78331e-21
1.88871e-05 -8.82067e-06 -2.26864e-20
8.24301e-06 -1.43446e-05 7.44252e-22
2.43564e-05 -1.07951e-05 -1.30567e-20
1.90091e-05 -8.99768e-06 -7.18107e-21
4.64053e-06 2.05797e-07 2.27978e-21
2.57401e-05 2.02207e-05 -3.34118e-20
-2.74157e-06 -1.70296e-05 -8.78147e-21
-1.04796e-05 -4.4569e-06 -2.40898e-20
1.12582e-06 -3.88999e-06 -7.06586e-21
-3.15499e-06 1.58466e-05 -8.82786e-21
-3.48826e-05 2.76805e-06 2.745e-20
-1.21212e-05 -3.32575e-05 -1.99176e-20
-7.8789e-06 9.7788e-06 1.45901e-20
1.35649e-05 1.664e-05 -2.85615e-20
2.65679e-05 -1.87443e-05 5.51546e-21
-3.67915e-05 -2.03502e-05 2.22674e-21
1.74026e-05 -2.7507e-05 -1.54622e-22
2.28034e-05 -2.72159e-05 -4.66965e-21
-1.09441e-05 3.78484e-06 2.15885e-21
-1.98285e-05 -2.88395e-05 -9.84691e-22
-3.4879e-05 -5.79128e-06 9.16285e-21
-3.85235e-06 -3.17419e-05 -1.34214e-20
1.54473e-05 -3.16984e-05 7.52575e-21
-9.10594e-06 -2.61989e-05 -1.59092e-20
4.5811e-06 3.14047e-05 2.45138e-21
-1.5752e-05 -2.85214e-05 -2.34795e-20
2.93874e-06 -1.62919e-05 -3.09967e-20
-2.47387e-05 1.82594e-05 2.51263e-21
-1.50304e-05 -1.21108e-05 2.335e-21
-2.73522e-05 -5.17232e-06 9.98413e-21
1.56678e-05 -9.18138e-06 -2.58845e-20
-4.30683e-06 2.3952e-05 6.38891e-21
1.22323e-05 -9.32429e-06 1.86694e-20
-2.95852e-05 -1.31639e-05 1.54399e-20
-8.83147e-06 -7.45793e-06 -2.62816e-20
9.0819e-06 7.54068e-06 -1.37067e-20
2.14263e-05 2.87001e-05 -2.8539e-20
-1.75085e-05 -1.0809e-05 1.21554e-20
-3.25055e-05 -7.51055e-07 -2.68087e-21
-1.63364e-05 -5.01605e-06 -1.24692e-20
-4.57803e-06 -1.65829e-05 -2.45051e-20
1.76843e-05 2.12388e-05 -3.09113e-20
-1.09571e-05 5.87464e-06 -2.45466e-20
6.36031e-07 -2.05549e-05 -8.05116e-21
-4.19389e-05 1.08506e-05 1.66428e-20
2.486e-05 2.02459e-05 -6.39649e-21
3.79441e-06 3.27847e-05 -1.23783e-21
-2.43192e-06 3.79713e-06 -1.10658e-20
-9.05073e-06 2.51197e-07 2.14162e-20
4.355e-06 7.75994e-06 -2.96989e-20
-1.16937e-05 3.4014e-06 -7.59397e-21
-2.07334e-06 -3.78486e-06 -5.78621e-21
1.65975e-06 2.07595e-05 -1.54514e-20
4.47232e-06 4.49691e-07 -2.12491e-20
-1.95377e-05 4.75656e-06 1.38443e-20
-1.72981e-05 1.93576e-05 3.15048e-21
-3.10739e-06 1.1578e-05 1.01318e-20
-2.92165e-05 1.8394e-05 9.513e-21
-9.34321e-06 8.97918e-06 -6.00662e-21
1.73109e-05 -1.16136e-05 -2.02848e-20
3.66036e-05 -3.56463e-06 -2.72509e-20
-2.11403e-05 1.12971e-05 -3.96508e-21
2.23297e-06 4.49817e-06 -2.46998e-20
2.1775e-05 -4.34483e-06 -1.65925e-21
-1.72786e-05 1.03527e-05 2.25859e-21
-9.87162e-06 5.53894e-06 -1.5194e-20
1.18312e-05 3.74263e-06 -1.71446e-20
2.18795e-05 -1.34709e-05 -2.62026e-21
-1.73797e-05 9.95595e-06 2.86184e-20
-2.50365e-05 -5.30295e-06 8.03053e-21
-1.67615e-05 -4.36241e-06 2.34377e-20
9.87606e-06 6.23897e-09 5.42086e-21
1.01737e-05 1.95357e-07 -3.73232e-22
4.3907e-06 8.31704e-06 1.22673e-20
4.82948e-06 -8.79763e-06 2.51202e-21
-5.01027e-06 8.4197e-06 2.27352e-20
-5.26659e-06 -8.65746e-06 1.70239e-20
9.91085e-06 -7.40789e-06 -2.37775e-21
-2.03272e-05 3.23486e-06 -1.46947e-20
-2.00596e-05 -3.28368e-06 3.12957e-20
-1.28345e-05 1.58762e-05 -1.26256e-20
-1.29143e-05 -1.59305e-05 -1.8869e-20
7.48614e-06 -1.98434e-05 -1.56994e-20
7.2059e-06 1.97635e-05 -2.93894e-20
1.55776e-06 2.58846e-05 -1.40717e-20
1.12403e-05 -3.13678e-06 4.45741e-21
2.35986e-06 -3.86646e-06 2.34921e-21
-2.1411e-05 1.42166e-06 1.97333e-20
7.67705e-06 -1.95127e-05 -2.44791e-20
7.27331e-06 1.96612e-05 -1.18547e-20
4.76872e-06 -5.27132e-08 -3.96045e-20
8.96802e-06 2.44027e-05 -2.12997e-20
-2.24225e-06 -4.01625e-06 -5.47728e-21
2.31771e-06 -1.13168e-05 -1.47453e-20
-2.24299e-05 -1.21513e-05 1.02579e-20
-2.13576e-05 -1.14943e-05 2.28347e-20
-2.18921e-05 1.36282e-05 -5.18078e-21
3.25117e-06 -1.22873e-05 -1.57316e-21
-1.56529e-06 3.38188e-06 -5.33296e-21
-5.87336e-07 -2.55682e-05 -2.68605e-21
-7.71999e-06 -2.4422e-05 -4.74636e-21
3.27028e-05 3.03614e-05 -8.00969e-22
3.54519e-05 -1.81513e-06 -1.43045e-20
-1.27106e-05 -3.63204e-06 1.53747e-20
-2.28917e-05 -4.13843e-05 -7.25716e-21
8.30391e-06 1.37474e-05 -4.01472e-20
-2.52347e-05 3.03317e-06 7.41542e-21
2.00643e-05 5.78617e-06 -2.65982e-20
-4.53294e-06 -3.27409e-08 5.83592e-21
-4.665e-06 -8.4124e-06 5.05658e-22
-7.0726e-06 -3.93311e-05 -7.07073e-21
-9.70794e-06 -8.39121e-08 -1.70986e-21
-4.8672e-05 -1.81563e-06 5.82015e-21
1.7308e-05 -1.91044e-05 1.94661e-21
2.42925e-06 3.9989e-06 -2.98411e-20
-1.20633e-07 -1.75129e-05 -1.68493e-20
-9.81798e-06 2.40827e-05 -3.96842e-21
-4.37185e-06 8.62701e-06 -6.64327e-21
2.05552e-05 -1.36054e-05 -1.91691e-20
-3.7657e-05 -1.35507e-05 4.66299e-21
-1.5265e-05 -2.03647e-05 -1.52574e-20
4.97681e-06 8.38863e-06 -2.81167e-20
1.66302e-05 5.1603e-06 -1.11068e-20
-4.76362e-06 -7.33788e-06 -1.69763e-20
1.97953e-05 3.54698e-06 -8.40467e-21
1.81873e-05 -9.82517e-06 -2.24651e-20
-3.48799e-07 2.71709e-05 -2.41077e-21
8.3198e-06 -1.36658e-05 -6.40012e-21
4.88003e-05 2.20043e-06 -4.15154e-21
-4.23535e-05 1.14524e-05 2.21198e-20
2.28581e-05 1.15552e-05 -4.29556e-21
-6.45238e-06 -1.71777e-05 -6.13029e-21
-1.53485e-05 -8.61735e-06 -1.10037e-20
2.87847e-05 -2.10526e-07 -1.68948e-20
-6.91914e-07 -2.42526e-05 -8.21608e-21
-1.26162e-05 -1.0873e-05 9.83922e-21
1.02229e-05 -2.34973e-05 -9.69551e-21
-4.96556e-07 2.05533e-05 -1.00076e-21
7.91689e-06 2.60651e-05 -3.19708e-20
1.72662e-05 -9.88326e-06 -9.26048e-21
-1.8946e-05 1.92965e-05 1.05653e-21
1.6526e-05 2.00273e-05 -1.59889e-20
-6.2224e-05 1.60202e-05 -8.06418e-21
-1.01081e-05 2.60134e-05 3.8814e-21
1.25177e-05 -1.52467e-05 9.63154e-21
-7.02834e-06 -1.83958e-05 4.19365e-20
-1.18523e-05 4.50519e-06 1.60771e-20
-2.58905e-05 -7.04503e-06 2.6693e-20
-6.38543e-06 3.88537e-05 1.08515e-20
-1.26045e-05 1.19012e-05 -5.00311e-21
2.07744e-05 -4.47512e-06 -2.01674e-20
-6.87172e-06 -2.57914e-05 -7.82318e-21
-1.48672e-05 2.38883e-05 5.02434e-21
-2.17866e-05 1.25634e-05 -4.15061e-21
-2.05673e-05 -1.50538e-05 3.34389e-21
1.80267e-05 -2.06528e-05 -1.86653e-20
-2.75277e-05 -1.45609e-06 2.82733e-21
1.23658e-05 -4.08058e-05 -4.76121e-21
1.93841e-05 -1.89111e-05 2.86186e-21
2.47299e-05 4.30772e-05 -1.24097e-20
1.97091e-06 1.98643e-05 -6.60838e-21
2.96078e-06 -2.54184e-05 3.13044e-20
-4.16319e-05 4.69568e-05 -2.49384e-21
-1.27007e-05 -2.44089e-05 -1.66683e-20
1.63651e-05 -6.41984e-06 -1.47371e-21
-2.41064e-06 2.57694e-05 3.0093e-20
1.28816e-05 -1.18252e-05 -5.27055e-21
1.38791e-05 2.43103e-05 -2.73154e-20
1.7228e-05 -1.40034e-06 -1.32137e-20
2.21177e-05 -6.32097e-05 4.80202e-22
-5.87548e-06 -1.28578e-05 -2.30417e-20
-2.31818e-05 1.0086e-05 2.18734e-21
-2.00178e-05 1.87169e-05 -1.39928e-20
2.161e-05 1.45661e-05 -1.35794e-20
1.86706e-05 -1.07555e-05 -6.40649e-21
1.49503e-05 1.25921e-05 -7.34934e-21
-5.42754e-06 4.55093e-08 -2.05397e-20
1.54019e-05 -2.30847e-05 -6.12059e-21
-1.69884e-05 -2.04069e-05 -6.63992e-21
2.25594e-05 9.77265e-06 -2.05094e-20
1.28052e-05 -1.19884e-05 -1.65189e-20
9.55289e-06 -2.48491e-05 -3.14352e-21
1.66574e-05 -6.93214e-06 -1.87723e-20
-1.58037e-05 -7.54381e-06 1.38552e-20
1.29671e-06 -2.63001e-05 -3.44401e-20
-2.61039e-05 4.47259e-06 1.47471e-20
2.39014e-06 2.45401e-05 -3.64828e-21
2.05827e-05 6.62675e-06 -1.16376e-20
-2.17181e-05 -1.07007e-05 -4.24673e-21
-8.97624e-06 2.56073e-05 1.82657e-21
-1.49522e-06 -2.41854e-05 2.22892e-20
1.94643e-05 1.18361e-05 6.52073e-21
-1.76877e-06 1.80828e-05 -4.62962e-21
-2.01366e-05 1.37011e-05 -5.01222e-21
2.35084e-05 1.1414e-05 -9.01158e-21
-1.71134e-05 -9.98458e-06 2.44669e-20
9.50951e-08 -1.98327e-05 -3.26354e-20
1.83805e-05 1.99822e-05 -3.52568e-20
-2.21515e-05 -1.43022e-05 1.25447e-20
4.83463e-05 -3.39789e-05 -8.66414e-21
1.78952e-05 -1.08214e-05 -1.09145e-20
9.00101e-06 4.30831e-05 6.98823e-21
1.70325e-05 -1.36773e-05 6.97458e-21
-1.9873e-05 8.70276e-05 1.67107e-20
-1.97632e-05 -8.65419e-05 4.74331e-21
5.71793e-05 7.17112e-05 -6.64051e-21
5.69168e-05 -7.1385e-05 -8.37613e-21
9.06392e-05 -1.59095e-10 1.89235e-21
-7.81943e-05 3.7635e-05 5.22079e-21
-7.74486e-05 -3.72793e-05 1.89211e-20
1.22328e-05 1.18177e-05 -2.40879e-20
2.93655e-05 2.18906e-05 4.73269e-21
1.14472e-05 3.33255e-06 -2.53549e-20
1.88542e-05 9.75072e-06 -2.34304e-20
4.98883e-06 2.01685e-05 -6.83304e-21
-1.88303e-05 -1.49791e-05 -2.39509e-20
1.70366e-05 -1.02134e-05 -1.33726e-20
1.9851e-05 1.45482e-05 -5.52489e-21
-3.16669e-06 2.43621e-05 -7.09704e-22
2.94383e-05 -1.99913e-05 -1.74929e-21
3.79361e-06 -2.3738e-05 1.23336e-20
2.19592e-05 5.22665e-06 -3.54797e-21
2.98936e-05 1.10251e-05 -1.00357e-20
1.42076e-05 1.41427e-05 1.93959e-20
1.5882e-05 6.5932e-06 -2.73191e-20
-1.84974e-05 1.09358e-05 4.69693e-21
-2.25615e-05 9.03596e-06 7.85196e-21
2.29278e-05 -1.12627e-05 -3.19745e-20
-1.82665e-05 -9.99727e-06 8.45465e-21
-1.85531e-05 -1.05817e-05 -4.10666e-21
-3.43828e-07 -2.07662e-05 1.78158e-20
-8.61409e-08 -2.11592e-05 2.50929e-21
-2.01256e-05 -1.0054e-06 8.70023e-21
2.66971e-05 -4.01888e-06 -3.39717e-20
1.81108e-05 1.13414e-05 -3.55497e-20
-1.7863e-05 1.09443e-05 6.30704e-21
-1.53604e-05 1.66225e-05 -1.38313e-20
1.6021e-05 -1.37523e-05 9.25347e-21
-1.10227e-05 1.74622e-05 -6.81847e-21
-1.42239e-05 -1.48886e-05 -1.15873e-20
-1.15517e-06 2.12092e-05 -3.22254e-22
-1.28759e-06 2.09668e-05 -4.2161e-21
8.97178e-08 -1.98327e-05 -5.63978e-21
6.11042e-06 -1.9736e-05 -9.0237e-21
-1.71398e-05 -9.93483e-06 1.80683e-20
1.55858e-05 -5.48992e-06 -2.23772e-20
6.63121e-07 2.14764e-05 -1.67371e-20
3.00824e-07 1.85063e-05 3.85505e-21
-2.3456e-06 1.68562e-05 -1.40789e-21
2.19074e-05 -5.52706e-06 -1.30158e-20
-1.65403e-05 5.37773e-06 1.70047e-21
4.1572e-06 2.15161e-05 -1.69824e-20
-3.25564e-05 1.29185e-05 -1.95267e-21
9.76274e-06 4.17289e-05 -5.6613e-21
-1.70525e-05 4.56786e-06 9.26684e-21
1.96833e-05 -1.16294e-05 -1.24568e-20
9.45716e-07 2.10182e-05 -3.21512e-20
-2.048e-05 6.69903e-06 1.26495e-20
2.44395e-06 -1.62615e-05 -1.71624e-20
1.81906e-06 -5.80092e-05 -2.49232e-21
2.00635e-06 1.74853e-05 -2.07128e-20
-1.69611e-05 1.40218e-05 1.41623e-20
1.78531e-05 6.39681e-05 -1.1131e-20
4.57667e-05 3.77047e-05 1.26147e-20
5.2062e-05 -3.52537e-05 -2.81231e-20
1.48146e-05 -1.01666e-05 7.35141e-21
-1.57846e-05 1.40368e-05 -1.14936e-20
-2.02158e-05 -7.92028e-06 7.26353e-21
-1.96446e-05 -6.82205e-06 9.85407e-21
5.92639e-05 -2.46107e-05 -2.55307e-20
5.74307e-05 2.38697e-05 2.01523e-20
1.0894e-05 3.81728e-06 -2.02626e-20
7.66595e-07 1.95784e-05 -3.07278e-20
7.83555e-08 1.95597e-05 -1.29103e-20
-4.83805e-05 -3.69169e-05 6.93579e-21
1.14246e-05 -1.71711e-05 4.13507e-22
1.17327e-05 1.2464e-05 -3.89785e-20
-2.14171e-05 -3.39558e-06 2.7018e-20
-1.40443e-05 1.72013e-05 -8.3218e-22
-1.88877e-05 9.16732e-06 1.31555e-20
4.7641e-05 3.36927e-05 -7.73888e-21
1.58057e-05 7.06133e-06 -9.78831e-21
-5.5665e-06 2.00294e-05 6.47894e-21
-1.69773e-05 -1.17487e-05 8.91606e-21
1.85616e-06 -2.05419e-05 1.02815e-20
-8.94932e-06 -1.92664e-05 -1.10037e-20
-1.72484e-05 -1.1773e-05 3.04892e-21
1.05791e-05 -1.89349e-05 -1.1911e-20
1.41218e-05 -1.69886e-05 2.37957e-20
-2.44027e-06 -6.14347e-05 -6.72125e-22
2.61791e-05 -4.11239e-05 1.2313e-20
1.74742e-06 -2.07847e-05 2.69192e-20
1.79579e-05 1.13549e-05 -8.78906e-21
-1.44757e-05 -1.49047e-05 -2.68316e-20
-9.84067e-06 1.97093e-05 9.18291e-22
-5.03921e-06 2.10059e-05 1.42891e-20
1.66266e-05 1.42432e-05 -2.62726e-20
6.05875e-06 -1.98606e-05 6.34977e-21
-1.34059e-05 -4.03563e-05 -2.98866e-20
-1.9883e-06 2.50395e-05 -5.87897e-21
1.47913e-05 1.44545e-05 -2.68076e-20
-1.29578e-05 -1.02163e-05 -1.17403e-20
-1.35145e-05 1.06078e-05 -7.56576e-21
4.43411e-05 -1.89125e-05 -1.22018e-20
7.56275e-06 -1.33997e-05 -9.18074e-21
-8.31685e-06 -1.26265e-05 -2.46321e-20
2.13297e-05 6.36323e-06 -6.63782e-21
1.09939e-05 -5.066e-05 5.4658e-22
-3.845e-05 -3.49016e-05 4.13989e-20
2.33059e-05 6.20716e-06 1.16533e-21
-9.32789e-06 -1.82804e-05 -8.41919e-21
1.87049e-05 9.48244e-06 -1.92704e-20
-2.85634e-05 -3.25501e-05 4.65538e-21
9.68783e-06 5.0045e-05 4.23497e-20
3.43329e-05 -5.98575e-05 -1.03164e-20
-3.47359e-05 -5.97744e-05 2.78814e-20
2.78074e-05 -5.20203e-05 7.17438e-21
-1.26976e-05 4.36316e-05 1.26978e-20
-6.27585e-06 3.8976e-05 2.40986e-21
-1.873e-05 8.94556e-06 7.49636e-21
5.97699e-06 2.42413e-05 7.93442e-21
-2.39149e-06 1.26536e-05 1.16173e-21
1.01198e-05 3.23302e-06 -3.64922e-20
-3.18836e-06 1.62049e-05 2.00067e-20
-2.47445e-07 2.0991e-05 -5.11865e-21
1.666e-05 9.75022e-06 -1.62308e-20
1.71017e-06 5.77221e-05 8.10934e-21
-1.47167e-05 1.07323e-05 -1.21659e-21
1.59488e-05 -6.24638e-06 -1.34396e-21
1.68712e-05 -4.5088e-06 -1.57561e-20
-6.06604e-05 -8.76853e-06 2.44078e-21
-3.46044e-05 1.67408e-05 -1.1032e-21
-4.3513e-05 -5.25442e-05 -7.50035e-22
8.6562e-06 8.34538e-06 2.38901e-22
1.42094e-05 7.29227e-06 -2.43844e-20
2.68038e-05 -4.19571e-06 -7.56032e-21
-8.10408e-06 -1.32423e-05 -1.55908e-20
1.72159e-05 8.4283e-06 -3.14191e-20
7.33505e-06 -3.00335e-05 -1.32744e-20
-1.37132e-05 1.02046e-05 1.37888e-20
-2.23735e-05 -2.14215e-05 2.87891e-20
-5.83575e-06 1.62971e-05 7.29808e-21
-3.27087e-06 2.06777e-05 1.24356e-21
3.38485e-05 2.12956e-05 -2.2344e-22
3.61118e-05 -1.92821e-05 -1.6055e-20
-4.20687e-05 -1.16225e-05 -4.30918e-21
7.63388e-06 7.68544e-06 -3.46178e-20
-4.05839e-06 0.000101357 -4.50805e-22
8.61722e-07 -0.000104464 2.90977e-21
5.24522e-05 8.76414e-05 -1.35405e-20
-1.91022e-05 8.45756e-06 1.97639e-20
-2.63755e-05 5.65472e-05 6.09665e-22
5.30305e-05 -8.46362e-05 -5.6043e-21
-1.172e-05 -1.82816e-05 -9.98776e-21
7.79968e-05 6.74949e-05 -4.98554e-21
2.39926e-05 -1.79761e-05 -1.07988e-21
-3.60729e-06 -2.98209e-05 3.25023e-20
8.17754e-05 -6.58476e-05 4.06844e-22
-6.74435e-06 1.45177e-05 1.88759e-20
-5.38298e-05 -3.48224e-05 8.28154e-21
-4.30115e-05 -9.31259e-05 4.67146e-21
-2.41116e-05 -5.78018e-05 -1.0468e-20
-4.3973e-05 9.41329e-05 -2.98223e-21
-1.00929e-05 6.40811e-05 6.95246e-21
1.56321e-05 3.71067e-05 1.38025e-20
-2.79541e-05 3.72389e-05 -1.75657e-20
-2.52719e-05 -5.5181e-05 8.88089e-21
0.000100361 1.73162e-05 6.237e-21
-1.69267e-05 1.07666e-05 1.8276e-20
-5.9121e-06 1.63323e-05 -2.88432e-21
-5.07558e-05 3.7638e-05 7.60882e-21
-1.72755e-05 9.9437e-06 1.36618e-20
9.91984e-05 -1.52627e-05 -6.33616e-22
-1.53595e-05 7.79837e-06 3.24225e-20
7.19231e-06 -1.44943e-05 1.25398e-20
-7.7966e-05 -6.09455e-05 9.73309e-21
-2.58778e-05 5.77147e-05 5.89806e-21
-7.9119e-05 6.03728e-05 -4.36011e-21
2.45392e-05 5.1948e-05 -3.35997e-21
-1.47669e-05 1.0582e-05 2.16253e-20
-2.0529e-05 2.44755e-05 7.41995e-21
-2.85314e-05 4.98157e-05 -8.80843e-21
-5.67735e-05 2.07981e-07 2.29086e-20
-9.44067e-07 1.62954e-05 -2.36071e-20
-2.88484e-05 -5.04042e-05 1.08078e-20
-5.81958e-05 -2.19797e-07 4.14247e-20
-2.83483e-05 4.86941e-05 5.36146e-21
-1.51896e-05 6.62632e-05 -2.07956e-20
-1.7864e-05 4.12587e-05 5.34691e-21
-3.38988e-05 2.71362e-05 -1.08809e-20
2.43818e-05 -6.05668e-06 -2.01699e-21
3.8001e-05 -2.19521e-06 -1.2729e-20
1.34818e-05 8.19995e-06 -1.36664e-20
-1.04687e-05 -7.39844e-05 4.27267e-23
-6.94459e-05 -2.7973e-05 2.96497e-22
3.71306e-05 7.32703e-07 -4.7688e-21
5.83636e-05 -1.08917e-05 -1.51097e-21
-1.05832e-05 -1.34965e-05 -1.66813e-20
-5.08265e-05 3.76238e-05 -1.31792e-20
-4.61316e-05 5.39977e-05 -2.41018e-22
6.23599e-05 -2.22314e-05 -3.87149e-22
-2.81762e-05 -5.04949e-05 -1.58886e-20
-2.87758e-05 4.97773e-05 -7.75405e-21
-5.72519e-05 -1.17111e-06 2.30406e-21
-2.65722e-05 5.05956e-05 2.06022e-20
-5.79506e-05 -8.16976e-07 1.52079e-20
6.60733e-05 1.73917e-05 -3.56341e-21
5.63778e-05 1.29245e-06 -2.04248e-20
5.08979e-05 -2.92726e-05 -3.53693e-20
2.49091e-05 -5.94246e-05 -7.00402e-21
2.99172e-05 -4.88547e-05 -1.43964e-20
2.91661e-05 4.86786e-05 -1.2508e-20
2.4344e-05 5.80869e-05 -1.54338e-20
7.5799e-05 -2.00367e-05 2.18866e-20
4.62643e-05 2.9062e-05 3.78219e-20
4.66222e-05 1.37449e-05 1.20756e-20
TENSORS solid_stress_TPM float
375.031 -24.9204 7.53175e-13
-24.9204 238.57 4.14483e-14
7.53175e-13 4.14483e-14 197.817

457.003 -21.3202 4.24401e-13
-21.3202 489.987 3.02839e-12
4.24401e-13 3.02839e-12 487.11

454.878 28.0432 -3.83219e-12
28.0432 463.708 -2.45256e-12
-3.83219e-12 -2.45256e-12 458.458

455.028 -29.8427 -3.88134e-12
-29.8427 482.609 -2.10498e-12
-3.88134e-12 -2.10498e-12 484.857

527.686 19.9309 -5.13219e-12
19.9309 548.456 -2.32984e-12
-5.13219e-12 -2.32984e-12 527.357

437.31 -18.0744 -1.62537e-12
-18.0744 480.338 3.20514e-12
-1.62537e-12 3.20514e-12 458.039

372.326 26.4845 1.99899e-12
26.4845 239.09 -1.74912e-12
1.99899e-12 -1.74912e-12 197.801

473.651 29.9579 1.05456e-12
29.9579 469.501 6.987e-14
1.05456e-12 6.987e-14 472.337

471.547 5.48313 2.30334e-12
5.48313 417.822 2.05747e-12
2.30334e-12 2.05747e-12 432.794

504.258 -7.47757 2.45108e-12
-7.47757 444.111 -1.74668e-12
2.45108e-12 -1.74668e-12 483.451

360.292 16.3085 3.63087e-12
16.3085 247.655 -1.53359e-13
3.63087e-12 -1.53359e-13 233.644

444.781 -13.4532 -2.10513e-12
-13.4532 498.384 3.07902e-14
-2.10513e-12 3.07902e-14 472.238

466.866 27.8331 4.2378e-12
27.8331 468.301 -1.66563e-12
4.2378e-12 -1.66563e-12 466.733

457.036 -14.3401 1.68097e-13
-14.3401 500.433 1.30089e-12
1.68097e-13 1.30089e-12 483.457

512.937 33.3112 -1.50931e-12
33.3112 511.596 -4.252e-12
-1.50931e-12 -4.252e-12 515.225

489.171 0.560974 5.10407e-13
0.560974 435.522 6.06294e-12
5.10407e-13 6.06294e-12 462.271

457.583 -17.9691 -1.0904e-12
-17.9691 512.885 -2.42532e-12
-1.0904e-12 -2.42532e-12 493.596

493.956 -2.6652 -2.76816e-12
-2.6652 439.048 4.21959e-12
-2.76816e-12 4.21959e-12 474.263

418.791 26.6737 -2.11683e-12
26.6737 449.658 7.53175e-13
-2.11683e-12 7.53175e-13 424.052

481.98 -4.19557 -1.13568e-12
-4.19557 424.92 2.47358e-12
-1.13568e-12 2.47358e-12 453.473

425.295 8.66859 3.60837e-12
8.66859 481.901 1.87287e-12
3.60837e-12 1.87287e-12 444.84

634.129 6.28761 -1.27935e-12
6.28761 633.964 -7.72478e-12
-1.27935e-12 -7.72478e-12 570.317

479.151 1.87598 1.60464e-12
1.87598 422.939 -5.70803e-13
1.60464e-12 -5.70803e-13 449.731

447.161 -27.7151 -1.11082e-12
-27.7151 461.149 -2.45493e-12
-1.11082e-12 -2.45493e-12 452.946

481.047 6.84938 -9.29627e-14
6.84938 425.439 -6.96776e-13
-9.29627e-14 -6.96776e-13 452.937

449.757 19.1129 4.31018e-12
19.1129 490.316 8.33111e-13
4.31018e-12 8.33111e-13 478.205

377.653 4.18137 1.80478e-12
4.18137 291.653 5.42026e-12
1.80478e-12 5.42026e-12 259.001

462.684 30.7458 -6.2883e-13
30.7458 460.713 6.09261e-12
-6.2883e-13 6.09261e-12 460.544

384.939 37.0743 -1.06581e-14
37.0743 383.518 -3.69837e-12
-1.06581e-14 -3.69837e-12 348.417

586.942 10.3235 5.785e-13
10.3235 563.451 -2.92129e-12
5.785e-13 -2.92129e-12 546.872

491.686 14.2169 3.75996e-13
14.2169 442.496 8.67158e-13
3.75996e-13 8.67158e-13 465.854

352.854 -17.7803 5.37348e-13
-17.7803 416.722 -1.88175e-12
5.37348e-13 -1.88175e-12 348.588

331.016 -42.1016 1.86636e-12
-42.1016 335.872 1.78346e-12
1.86636e-12 1.78346e-12 253.481

531.409 5.98671 1.43853e-12
5.98671 586.889 2.55825e-12
1.43853e-12 2.55825e-12 538.581

554.023 -4.84061 -2.41155e-12
-4.84061 582.071 -3.62229e-12
-2.41155e-12 -3.62229e-12 542.512

577.986 21.0279 -7.21497e-13
21.0279 539.947 -4.3617e-12
-7.21497e-13 -4.3617e-12 538.35

556.184 5.06743 4.40981e-13
5.06743 600.674 -1.15108e-12
4.40981e-13 -1.15108e-12 547.969

573.774 -9.16998 4.31625e-12
-9.16998 555.764 1.33103e-12
4.31625e-12 1.33103e-12 540.637

467.126 -27.9981 1.23694e-12
-27.9981 466.49 -2.78592e-12
1.23694e-12 -2.78592e-12 465.106

330.401 41.5209 -4.57116e-12
41.5209 337.97 -4.56168e-12
-4.57116e-12 -4.56168e-12 253.84

414.524 -17.949 -1.01726e-12
-17.949 354.486 1.09601e-12
-1.01726e-12 1.09601e-12 346.319

559.305 -3.70599 9.1808e-13
-3.70599 599.923 4.71741e-12
9.1808e-13 4.71741e-12 548.383

586.412 19.5554 1.01844e-13
19.5554 572.454 -2.08337e-12
1.01844e-13 -2.08337e-12 548.172

490.891 -12.2733 1.4276e-12
-12.2733 442.851 -9.58789e-13
1.4276e-12 -9.58789e-13 466.527

341.706 -43.2989 6.15804e-13
-43.2989 345.334 8.78704e-13
6.15804e-13 8.78704e-13 288.974

417.549 -18.0633 -9.78181e-13
-18.0633 357.103 3.60127e-12
-9.78181e-13 3.60127e-12 351.492

413.003 17.0856 1.61796e-12
17.0856 464.772 9.10679e-13
1.61796e-12 9.10679e-13 428.717

429.619 19.3389 5.68434e-13
19.3389 466.502 -4.4024e-12
5.68434e-13 -4.4024e-12 437.07

486.77 -16.301 -1.13154e-12
-16.301 432.865 -1.5928e-13
-1.13154e-12 -1.5928e-13 458.668

355.572 -34.1852 -4.7932e-12
-34.1852 389.392 1.9232e-12
-4.7932e-12 1.9232e-12 332.559

410.242 19.1817 -2.74625e-12
19.1817 350.692 -2.16597e-12
-2.74625e-12 -2.16597e-12 339.468

425.19 -25.2882 1.94215e-13
-25.2882 383.811 1.69376e-12
1.94215e-13 1.69376e-12 373.067

519.913 19.4857 -4.73251e-13
19.4857 547.523 -1.79738e-12
-4.73251e-13 -1.79738e-12 525.723

416.402 29.6492 3.5989e-12
29.6492 393.876 -9.33179e-13
3.5989e-12 -9.33179e-13 373.931

522.168 -21.8128 4.35622e-12
-21.8128 541.389 1.1124e-12
4.35622e-12 1.1124e-12 524.37

364.062 -42.711 -8.62125e-13
-42.711 343.274 -1.11318e-12
-8.62125e-13 -1.11318e-12 289.692

553.444 5.45962 5.38384e-13
5.45962 583.863 -1.8104e-12
5.38384e-13 -1.8104e-12 542.886

373.707 -5.32976 -1.73668e-12
-5.32976 436.652 -3.23415e-12
-1.73668e-12 -3.23415e-12 373.815

580.812 10.3842 1.95488e-12
10.3842 556.164 1.3954e-12
1.95488e-12 1.3954e-12 542.642

435.047 21.413 2.64588e-12
21.413 473.752 -1.18424e-12
2.64588e-12 -1.18424e-12 454.663

513.565 5.75391 4.94271e-13
5.75391 452.798 -3.18323e-12
4.94271e-13 -3.18323e-12 494.858

522.451 11.4589 -4.97084e-13
11.4589 487.855 6.38896e-13
-4.97084e-13 6.38896e-13 507.071

383.698 31.8197 -7.95808e-13
31.8197 315.187 -1.73728e-12
-7.95808e-13 -1.73728e-12 269.865

482.081 -6.03518 2.63167e-12
-6.03518 528.174 -3.25606e-12
2.63167e-12 -3.25606e-12 504.094

487.089 9.51974 -3.72857e-12
9.51974 523.683 2.09018e-12
-3.72857e-12 2.09018e-12 507.489

456.452 -2.88081 -5.48931e-13
-2.88081 520.15 -1.63721e-12
-5.48931e-13 -1.63721e-12 487.801

464.448 23.402 -2.16734e-12
23.402 503.463 -1.21325e-12
-2.16734e-12 -1.21325e-12 495.434

496.74 8.46351 -2.84247e-12
8.46351 444.391 1.73076e-12
-2.84247e-12 1.73076e-12 477.691

445.5 -28.2392 2.81197e-12
-28.2392 459.521 -4.61675e-12
2.81197e-12 -4.61675e-12 451.16

501.675 -1.71124 -6.31791e-13
-1.71124 444.91 -3.12602e-12
-6.31791e-13 -3.12602e-12 489.062

519.526 -19.2617 -7.43553e-13
-19.2617 546.817 1.41872e-12
-7.43553e-13 1.41872e-12 525.456

523.297 21.3078 -1.14782e-12
21.3078 542.914 2.31278e-12
-1.14782e-12 2.31278e-12 525.259

353.404 -16.5833 5.58664e-13
-16.5833 415.729 1.79294e-12
5.58664e-13 1.79294e-12 346.107

506.014 -27.9361 4.62445e-13
-27.9361 485.304 8.83145e-13
4.62445e-13 8.83145e-13 493.874

449.714 -25.1345 1.71182e-12
-25.1345 471.214 -5.34506e-12
1.71182e-12 -5.34506e-12 458.571

357.865 -31.7104 1.78346e-12
-31.7104 285.672 6.32353e-12
1.78346e-12 6.32353e-12 249.854

498.494 3.22263 3.62096e-12
3.22263 541.399 -7.72715e-13
3.62096e-12 -7.72715e-13 513.636

501.72 28.9438 -9.45022e-13
28.9438 474.543 1.26595e-12
-9.45022e-13 1.26595e-12 487.652

448.438 19.6642 -1.57296e-12
19.6642 492.102 1.24434e-12
-1.57296e-12 1.24434e-12 477.637

440.186 7.99948 -4.46221e-12
7.99948 373.032 3.59505e-12
-4.46221e-12 3.59505e-12 382.929

386.446 -33.9353 1.04805e-12
-33.9353 360.201 1.08476e-12
1.04805e-12 1.08476e-12 319.431

537.715 -10.5875 1.06463e-12
-10.5875 556.133 2.15117e-12
1.06463e-12 2.15117e-12 531.244

482.651 23.8995 -2.63611e-12
23.8995 504.554 -4.33866e-12
-2.63611e-12 -4.33866e-12 502.037

385.366 -32.3836 -3.31231e-12
-32.3836 345.302 -5.42381e-13
-3.31231e-12 -5.42381e-13 317.077

422.192 10.791 -3.63916e-12
10.791 363.846 5.34313e-12
-3.63916e-12 5.34313e-12 350.248

307.648 -21.2058 -3.44406e-12
-21.2058 388.438 -8.7231e-12
-3.44406e-12 -8.7231e-12 288.111

434.439 14.4256 2.04133e-12
14.4256 488.663 -2.8854e-12
2.04133e-12 -2.8854e-12 460.878

509.716 23.143 -9.96536e-13
23.143 475.166 5.55408e-13
-9.96536e-13 5.55408e-13 489.941

338.237 42.1984 1.75149e-12
42.1984 349.567 -8.0765e-13
1.75149e-12 -8.0765e-13 288.948

634.214 16.507 -1.62979e-11
16.507 603.067 1.09675e-12
-1.62979e-11 1.09675e-12 565.321

372.884 -4.10833 1.07677e-12
-4.10833 436.812 3.49587e-12
1.07677e-12 3.49587e-12 373.422

637.12 -16.6322 1.88444e-11
-16.6322 599.537 1.16769e-11
1.88444e-11 1.16769e-11 564.828

533.934 -27.3349 7.40741e-12
-27.3349 507.234 1.06359e-12
7.40741e-12 1.06359e-12 515.71

505.291 27.4245 2.50762e-12
27.4245 466.329 -1.41961e-12
2.50762e-12 -1.41961e-12 485.067

426.921 -24.4104 2.58164e-12
-24.4104 386.234 -7.33339e-13
2.58164e-12 -7.33339e-13 375.974

358.932 31.323 8.34888e-14
31.323 396 1.24345e-13
8.34888e-14 1.24345e-13 339.196

339.821 -10.705 1.93208e-12
-10.705 408.387 -1.06818e-12
1.93208e-12 -1.06818e-12 319.101

453.099 21.9707 -4.43645e-13
21.9707 494.674 3.55271e-13
-4.43645e-13 3.55271e-13 483.164

533.109 16.7941 2.45759e-12
16.7941 506.194 1.16263e-12
2.45759e-12 1.16263e-12 513.349

443.448 15.1538 -2.58193e-12
15.1538 488.435 1.64846e-12
-2.58193e-12 1.64846e-12 464.278

451.476 15.9537 -1.52411e-12
15.9537 400.533 -9.95352e-13
-1.52411e-12 -9.95352e-13 403.743

374.484 -21.4724 -2.4644e-12
-21.4724 419.863 -6.22909e-13
-2.4644e-12 -6.22909e-13 357.194

389.719 -29.3904 -1.46372e-12
-29.3904 342.366 1.64668e-12
-1.46372e-12 1.64668e-12 314.387

454.961 -24.5729 -2.3254e-12
-24.5729 480.061 1.63839e-12
-2.3254e-12 1.63839e-12 478.366

466.423 27.4509 2.54907e-12
27.4509 478.739 6.26758e-13
2.54907e-12 6.26758e-13 479.806

452.213 23.1876 -2.89487e-12
23.1876 492.555 -1.95725e-12
-2.89487e-12 -1.95725e-12 482.039

466.293 13.1691 -1.05057e-12
13.1691 529.773 2.47861e-12
-1.05057e-12 2.47861e-12 501.38

490.858 9.37224 3.56811e-12
9.37224 437.885 -3.71259e-13
3.56811e-12 -3.71259e-13 462.052

327.709 -4.66503 -1.67451e-12
-4.66503 403.378 5.40012e-12
-1.67451e-12 5.40012e-12 314.409

462.575 -36.8332 4.77544e-13
-36.8332 487.686 -1.21977e-12
4.77544e-13 -1.21977e-12 492.745

445.846 27.4652 -2.37262e-12
27.4652 463.266 -2.22163e-12
-2.37262e-12 -2.22163e-12 455.011

305.669 2.17031 5.43558e-12
2.17031 393.357 -3.31823e-12
5.43558e-12 -3.31823e-12 297.253

385.993 34.6101 3.87246e-12
34.6101 332.445 9.01797e-13
3.87246e-12 9.01797e-13 306.243

453.347 -22.9738 2.33976e-12
-22.9738 480.066 -3.22823e-12
2.33976e-12 -3.22823e-12 476.169

501.391 5.73296 -5.50671e-14
5.73296 441.312 2.56787e-12
-5.50671e-14 2.56787e-12 481.007

422.377 27.2038 2.10321e-12
27.2038 389.764 -1.74024e-12
2.10321e-12 -1.74024e-12 374.231

570.54 12.7455 9.10531e-13
12.7455 565.915 3.93966e-12
9.10531e-13 3.93966e-12 542.914

396.175 24.3303 -5.22249e-12
24.3303 349.645 -3.52074e-12
-5.22249e-12 -3.52074e-12 319.041

569.162 -13.055 -4.12204e-12
-13.055 565.827 -8.92915e-13
-4.12204e-12 -8.92915e-13 542.37

375.088 0.778531 1.709e-12
0.778531 438.866 -1.3974e-13
1.709e-12 -1.3974e-13 374.637

461.467 -2.2353 -1.1191e-12
-2.2353 399.3 -1.58984e-13
-1.1191e-12 -1.58984e-13 417.278

538.193 -15.7679 2.8139e-12
-15.7679 480.629 1.56083e-12
2.8139e-12 1.56083e-12 513.475

457.242 24.3881 -6.39435e-13
24.3881 487.782 4.7519e-12
-6.39435e-13 4.7519e-12 488.351

461.253 -13.535 -1.16035e-12
-13.535 519.133 -3.63561e-13
-1.16035e-12 -3.63561e-13 495.712

514.966 -7.99997 1.96139e-13
-7.99997 438.188 -3.12343e-12
1.96139e-13 -3.12343e-12 494.274

488.312 -22.284 -2.95305e-12
-22.284 541.6 8.77816e-13
-2.95305e-12 8.77816e-13 515.747

556.049 -6.59657 4.07378e-13
-6.59657 560.393 -4.64936e-12
4.07378e-13 -4.64936e-12 538.727

463.863 -29.9081 -1.12591e-12
-29.9081 483.193 -3.25458e-12
-1.12591e-12 -3.25458e-12 483.597

341.704 11.4535 5.41256e-12
11.4535 406.191 -5.21065e-13
5.41256e-12 -5.21065e-13 319.48

422.478 -28.1463 2.68111e-12
-28.1463 391.239 -4.32543e-12
2.68111e-12 -4.32543e-12 375.144

507.38 -13.7721 -1.14042e-12
-13.7721 558.746 4.34911e-12
-1.14042e-12 4.34911e-12 525.249

501.054 0.504447 3.9968e-13
0.504447 441.277 7.93069e-13
3.9968e-13 7.93069e-13 487.084

476.94 -21.5245 -8.38588e-13
-21.5245 507.419 3.54946e-12
-8.38588e-13 3.54946e-12 501.502

459.094 25.6977 2.51577e-12
25.6977 484.598 2.62013e-13
2.51577e-12 2.62013e-13 487.979

394.427 -31.4641 2.65861e-12
-31.4641 400.596 4.14365e-12
2.65861e-12 4.14365e-12 357.519

552.125 -7.08495 -7.27344e-13
-7.08495 585.294 2.06975e-12
-7.27344e-13 2.06975e-12 542.601

347.207 -33.0765 9.8647e-13
-33.0765 382.604 -3.33008e-12
9.8647e-13 -3.33008e-12 303.433

490.867 -19.1796 -6.15212e-13
-19.1796 448.384 -1.04657e-12
-6.15212e-13 -1.04657e-12 467.121

519.706 1.97031 6.54217e-13
1.97031 466.812 1.39089e-12
6.54217e-13 1.39089e-12 502.829

570.558 17.875 -8.61533e-14
17.875 566.479 9.30219e-13
-8.61533e-14 9.30219e-13 542.373

375.288 20.1826 -5.18815e-12
20.1826 424.028 6.99292e-12
-5.18815e-12 6.99292e-12 360.218

489.079 27.2104 3.01329e-12
27.2104 468.537 4.28102e-12
3.01329e-12 4.28102e-12 476.636

454.376 -24.5114 7.67386e-13
-24.5114 415.339 3.42422e-12
7.67386e-13 3.42422e-12 418.599

454.715 -17.8385 -2.16636e-12
-17.8385 494.903 -1.33937e-12
-2.16636e-12 -1.33937e-12 482.638

379.195 35.0678 -9.59233e-13
35.0678 366.027 -2.75454e-12
-9.59233e-13 -2.75454e-12 317.046

449.149 -21.831 4.19131e-12
-21.831 491.701 1.55638e-12
4.19131e-12 1.55638e-12 479.77

485.487 30.8503 2.33295e-12
30.8503 465.133 2.29594e-12
2.33295e-12 2.29594e-12 473.443

480.319 -25.2439 -1.12621e-12
-25.2439 442.363 -5.35897e-12
-1.12621e-12 -5.35897e-12 455.439

448.214 -25.1262 -4.63925e-12
-25.1262 469.764 -2.01202e-12
-4.63925e-12 -2.01202e-12 458.093

445.341 -18.6879 -3.13823e-13
-18.6879 393.457 2.20268e-13
-3.13823e-13 2.20268e-13 397.254

470.649 -18.8494 -7.17174e-12
-18.8494 422.849 1.05308e-12
-7.17174e-12 1.05308e-12 437.528

458.995 -25.337 -2.85164e-12
-25.337 485.424 1.04505e-12
-2.85164e-12 1.04505e-12 488.821

386.537 35.969 -1.39385e-12
35.969 381.984 1.8107e-12
-1.39385e-12 1.8107e-12 348.112

444.491 15.3766 2.96962e-12
15.3766 491.528 -5.26808e-12
2.96962e-12 -5.26808e-12 467.135

469.392 26.4221 -2.64677e-13
26.4221 479.953 -3.04556e-12
-2.64677e-13 -3.04556e-12 482.542

456.138 25.4736 1.95545e-12
25.4736 486.642 2.0132e-13
1.95545e-12 2.0132e-13 487.241

457.802 11.6214 -1.79316e-12
11.6214 506.935 6.7916e-13
-1.79316e-12 6.7916e-13 486.01

431.946 -8.2269 1.6153e-12
-8.2269 370.751 2.71116e-12
1.6153e-12 2.71116e-12 363.302

376.774 18.6062 -3.51482e-12
18.6062 427.26 -3.03165e-12
-3.51482e-12 -3.03165e-12 363.878

452.307 -24.3804 1.52471e-13
-24.3804 478.38 -6.53403e-13
1.52471e-13 -6.53403e-13 470.706

440.741 25.6657 1.10608e-12
25.6657 455.635 -1.2547e-12
1.10608e-12 -1.2547e-12 437.8

390.95 -35.6289 1.75741e-12
-35.6289 380.272 -2.67638e-12
1.75741e-12 -2.67638e-12 350.086

368.936 38.3161 9.78181e-13
38.3161 327.248 -6.28001e-12
9.78181e-13 -6.28001e-12 295.678

363.641 -33.3106 -4.0418e-12
-33.3106 394.429 -1.84386e-12
-4.0418e-12 -1.84386e-12 341.974

397.924 -31.1592 5.31841e-12
-31.1592 404.186 -7.95808e-13
5.31841e-12 -7.95808e-13 362.968

502.851 -6.83865 4.12559e-12
-6.83865 442.244 -3.03387e-12
4.12559e-12 -3.03387e-12 482.312

393.158 30.3413 -1.34056e-12
30.3413 408.972 1.80359e-12
-1.34056e-12 1.80359e-12 363.428

429.694 13.2945 -1.7882e-12
13.2945 372.241 6.25248e-12
-1.7882e-12 6.25248e-12 362.707

350.138 13.3786 6.41191e-12
13.3786 418.507 -3.64272e-12
6.41191e-12 -3.64272e-12 348.469

379.473 -22.34 1.73491e-12
-22.34 423.506 -1.70649e-12
1.73491e-12 -1.70649e-12 363.442

491.202 -1.09156 -6.81011e-13
-1.09156 550.872 8.14164e-13
-6.81011e-13 8.14164e-13 516.3

372.857 2.24658 -2.42117e-12
2.24658 437.78 8.17124e-14
-2.42117e-12 8.17124e-14 373.514

357.883 31.0888 -6.17876e-12
31.0888 399.48 -2.5544e-12
-6.17876e-12 -2.5544e-12 341.954

457.984 12.1078 7.65314e-14
12.1078 510.555 5.64585e-12
7.65314e-14 5.64585e-12 488.397

421.446 -27.6472 -1.54898e-12
-27.6472 389.065 -3.39817e-12
-1.54898e-12 -3.39817e-12 375.066

524.75 20.5569 -3.99384e-13
20.5569 469.743 1.62211e-12
-3.99384e-13 1.62211e-12 500.729

534.919 26.2704 1.12858e-12
26.2704 506.854 -4.45866e-13
1.12858e-12 -4.45866e-13 516.088

494.81 -18.5675 -8.33111e-13
-18.5675 449.02 -5.13663e-12
-8.33111e-13 -5.13663e-12 470.85

554.579 -1.80124 2.52257e-12
-1.80124 516.017 -1.94866e-12
2.52257e-12 -1.94866e-12 525.711

473.281 -31.8117 9.42653e-13
-31.8117 475.69 -1.20319e-12
9.42653e-13 -1.20319e-12 478.571

412.591 23.3275 5.22604e-12
23.3275 357.19 -3.37745e-12
5.22604e-12 -3.37745e-12 348.085

464.17 30.1621 -1.64757e-12
30.1621 482.762 -7.77156e-13
-1.64757e-12 -7.77156e-13 483.198

464.433 29.2058 3.32741e-12
29.2058 482.235 9.95056e-13
3.32741e-12 9.95056e-13 482.759

393.94 30.6604 4.45273e-13
30.6604 405.717 -1.75622e-12
4.45273e-13 -1.75622e-12 360.863

502.848 27.0849 -1.5099e-12
27.0849 482.66 1.58125e-12
-1.5099e-12 1.58125e-12 490.728

415.344 3.5251 1.0895e-13
3.5251 339.011 4.38675e-12
1.0895e-13 4.38675e-12 340.819

493.116 31.8172 6.54587e-13
31.8172 487.217 -3.76114e-12
6.54587e-13 -3.76114e-12 495.569

476.321 -12.5997 8.81517e-14
-12.5997 522.445 -2.84158e-12
8.81517e-14 -2.84158e-12 500.242

536.921 24.2782 2.75158e-12
24.2782 507.397 -2.74566e-12
2.75158e-12 -2.74566e-12 516.624

468.171 -29.5787 1.43026e-12
-29.5787 479.964 2.97629e-12
1.43026e-12 2.97629e-12 483.056

464.555 -4.89805 3.61537e-12
-4.89805 521.55 -2.99849e-12
3.61537e-12 -2.99849e-12 490.973

400.933 -24.556 -2.81375e-12
-24.556 349.018 3.67884e-12
-2.81375e-12 3.67884e-12 323.945

418.96 29.6928 -4.39589e-12
29.6928 392.458 -2.6598e-12
-4.39589e-12 -2.6598e-12 373.764

352.339 14.6963 -2.5208e-12
14.6963 417.206 8.01847e-12
-2.5208e-12 8.01847e-12 348.234

500.524 -1.1389 9.50499e-13
-1.1389 442.789 -4.43519e-12
9.50499e-13 -4.43519e-12 487.703

492.465 0.0022272 2.70835e-12
0.0022272 438.097 3.67875e-12
2.70835e-12 3.67875e-12 474.413

452.96 23.1238 3.05089e-13
23.1238 479.702 9.14232e-13
3.05089e-13 9.14232e-13 475.58

481.299 23.8709 2.1334e-12
23.8709 502.869 1.20176e-12
2.1334e-12 1.20176e-12 501.248

456.582 -24.3807 -1.50835e-12
-24.3807 487.347 2.2955e-12
-1.50835e-12 2.2955e-12 488.492

457.832 -0.672782 -1.37451e-12
-0.672782 517.937 2.2542e-12
-1.37451e-12 2.2542e-12 486.395

458.88 25.5904 1.26062e-12
25.5904 486.464 9.85212e-13
1.26062e-12 9.85212e-13 488.514

465.556 -10.3079 -1.9161e-12
-10.3079 408.081 2.53368e-12
-1.9161e-12 2.53368e-12 427.22

400.862 -32.8332 1.69879e-12
-32.8332 414.953 3.43784e-12
1.69879e-12 3.43784e-12 385.164

518.095 -2.30074 3.53791e-13
-2.30074 465.738 4.77485e-12
3.53791e-13 4.77485e-12 500.926

391.87 -34.508 9.26074e-13
-34.508 379.604 -2.57216e-12
9.26074e-13 -2.57216e-12 347.416

478.001 19.0861 -7.72271e-13
19.0861 509.201 -2.82145e-12
-7.72271e-13 -2.82145e-12 501.845

506.112 -26.4787 -5.78619e-12
-26.4787 470.247 -1.38881e-12
-5.78619e-12 -1.38881e-12 487.273

424.999 -9.69018 1.157e-12
-9.69018 366.73 2.64766e-12
1.157e-12 2.64766e-12 355.98

530.266 -23.192 -1.61945e-12
-23.192 488.758 2.45522e-12
-1.61945e-12 2.45522e-12 506.49

500.893 2.35827 -1.56053e-12
2.35827 444.577 2.12623e-12
-1.56053e-12 2.12623e-12 489.205

521.192 -23.3214 -4.13891e-13
-23.3214 501.843 -5.03153e-13
-4.13891e-13 -5.03153e-13 508.534

502.017 -25.8594 2.96948e-12
-25.8594 461.492 -4.89919e-12
2.96948e-12 -4.89919e-12 481.244

498.828 -8.54612 3.63946e-12
-8.54612 445.136 -1.66978e-12
3.63946e-12 -1.66978e-12 479.345

482.221 -23.0681 -6.92779e-14
-23.0681 504.993 -1.86843e-12
-6.92779e-14 -1.86843e-12 502.536

428.54 -31.3417 -1.0895e-13
-31.3417 410.588 -3.45442e-12
-1.0895e-13 -3.45442e-12 398.997

503.268 -24.5872 1.34648e-12
-24.5872 464.714 -1.70323e-12
1.34648e-12 -1.70323e-12 482.161

441.241 10.8644 3.07902e-13
10.8644 378.48 6.27853e-12
3.07902e-13 6.27853e-12 387.798

500.038 26.3402 1.2399e-12
26.3402 498.585 -7.19869e-13
1.2399e-12 -7.19869e-13 500.106

463.75 -37.6129 -1.21236e-12
-37.6129 488.39 -7.33302e-13
-1.21236e-12 -7.33302e-13 494.083

464.859 37.2652 -1.16174e-12
37.2652 487.302 -1.46697e-13
-1.16174e-12 -1.46697e-13 493.798

446.327 -28.5734 1.24234e-12
-28.5734 500.015 5.04781e-13
1.24234e-12 5.04781e-13 492.313

448.562 27.0641 2.61169e-12
27.0641 500.706 -1.90041e-12
2.61169e-12 -1.90041e-12 492.5

513.071 -8.52761 -1.49969e-12
-8.52761 436.406 -2.63611e-12
-1.49969e-12 -2.63611e-12 492.76

511.233 9.27362 -1.84549e-12
9.27362 438.003 2.10513e-12
-1.84549e-12 2.10513e-12 492.398

501.657 -9.84617 -2.8629e-13
-9.84617 451.743 2.4567e-12
-2.8629e-13 2.4567e-12 483.021

510.866 32.1161 -1.24671e-12
32.1161 510.391 2.37302e-12
-1.24671e-12 2.37302e-12 514.056

509.642 -32.8541 8.8581e-13
-32.8541 510.069 -4.75406e-12
8.8581e-13 -4.75406e-12 513.695

481.811 16.0685 -2.10202e-14
16.0685 539.132 -1.79412e-12
-2.10202e-14 -1.79412e-12 514.328

483.004 -15.8009 -3.56929e-12
-15.8009 538.722 -4.81393e-13
-3.56929e-12 -4.81393e-13 514.349

556.871 -3.74768 -2.03482e-12
-3.74768 506.833 -1.43559e-12
-2.03482e-12 -1.43559e-12 524.994

558.425 3.61044 -5.81461e-13
3.61044 505.158 -8.82553e-13
-5.81461e-13 -8.82553e-13 525.365

387.308 9.83684 1.91077e-12
9.83684 449.196 -4.8838e-12
1.91077e-12 -4.8838e-12 397.086

472.388 -24.7741 1.22154e-12
-24.7741 480.754 -4.19516e-13
1.22154e-12 -4.19516e-13 484.976

443.461 -36.3875 -4.67108e-13
-36.3875 485.532 4.46295e-12
-4.67108e-13 4.46295e-12 486.627

473.641 -4.66428 -3.41179e-12
-4.66428 420.435 1.9178e-12
-3.41179e-12 1.9178e-12 436.337

540.255 -16.6947 6.58584e-13
-16.6947 484.193 2.55144e-12
6.58584e-13 2.55144e-12 515.289

540.975 16.1756 2.6749e-13
16.1756 485.416 -4.61853e-12
2.6749e-13 -4.61853e-12 515.894

506.861 0.121881 -2.56832e-13
0.121881 423.55 7.4284e-13
-2.56832e-13 7.4284e-13 487.001

384.79 23.3751 -4.30767e-12
23.3751 432.296 1.19963e-12
-4.30767e-12 1.19963e-12 385.475

442.332 36.1715 2.17293e-12
36.1715 485.21 1.75312e-12
2.17293e-12 1.75312e-12 485.833

452.596 -23.3958 2.63093e-12
-23.3958 494.952 -1.39266e-12
2.63093e-12 -1.39266e-12 483.59

443.247 23.3527 1.7728e-12
23.3527 397.517 -4.35977e-12
1.7728e-12 -4.35977e-12 400.372

530.969 23.8582 1.0593e-12
23.8582 488.008 2.47772e-12
1.0593e-12 2.47772e-12 507.248

428.477 -31.3135 -5.71276e-12
-31.3135 410.872 5.30835e-12
-5.71276e-12 5.30835e-12 398.816

519.859 -3.23099 1.26861e-12
-3.23099 469.058 6.98404e-13
1.26861e-12 6.98404e-13 502.686

439.395 -34.161 1.13369e-12
-34.161 485.503 -3.62392e-12
1.13369e-12 -3.62392e-12 485.822

389.182 8.31994 4.30274e-12
8.31994 452.326 3.04941e-12
4.30274e-12 3.04941e-12 400.854

385.877 21.8115 -1.09335e-12
21.8115 435.771 9.22521e-13
-1.09335e-12 9.22521e-13 388.693

383.845 35.7757 6.13435e-12
35.7757 362.33 -8.78704e-13
6.13435e-12 -8.78704e-13 318.326

408.181 1.57875 -7.22385e-14
1.57875 332.154 5.09037e-12
-7.22385e-14 5.09037e-12 327.323

485.455 -22.8045 -4.55636e-13
-22.8045 502.858 -3.15969e-12
-4.55636e-13 -3.15969e-12 501.748

351.876 31.1838 -4.29997e-12
31.1838 388.829 4.33668e-12
-4.29997e-12 4.33668e-12 312.356

451.348 23.6099 -4.3725e-12
23.6099 478.411 -2.53249e-12
-4.3725e-12 -2.53249e-12 465.211

442.194 -5.34954 3.19626e-12
-5.34954 377.124 9.57308e-13
3.19626e-12 9.57308e-13 387.736

464.153 11.2161 2.34894e-12
11.2161 407.297 -4.53622e-12
2.34894e-12 -4.53622e-12 424.92

505.377 0.429903 1.20082e-12
0.429903 421.57 -2.24776e-12
1.20082e-12 -2.24776e-12 485.673

449.348 -29.0311 1.51508e-12
-29.0311 501.996 1.89715e-12
1.51508e-12 1.89715e-12 493.587

572.509 -6.31892 3.77913e-12
-6.31892 589.482 -1.6005e-12
3.77913e-12 -1.6005e-12 549.251

463.138 37.4115 2.27018e-12
37.4115 487.024 9.16674e-13
2.27018e-12 9.16674e-13 493.062

408.736 1.66328 -8.17124e-13
1.66328 331.601 3.58506e-12
-8.17124e-13 3.58506e-12 308.902

404.232 -32.7869 3.00796e-13
-32.7869 415.507 8.2423e-13
3.00796e-13 8.2423e-13 387.388

443.139 36.613 9.94538e-13
36.613 485.503 1.82195e-12
9.94538e-13 1.82195e-12 486.57

444.677 -11.1338 2.61965e-12
-11.1338 498.933 1.92083e-12
2.61965e-12 1.92083e-12 471.44

386.071 -25.5145 -5.18489e-12
-25.5145 428.899 -3.39876e-12
-5.18489e-12 -3.39876e-12 384.562

449.448 28.83 2.08585e-12
28.83 501.629 -3.32031e-12
2.08585e-12 -3.32031e-12 493.286

452.709 -26.1418 4.44089e-13
-26.1418 419.3 -3.246e-12
4.44089e-13 -3.246e-12 419.516

579.551 10.4835 1.9987e-12
10.4835 582.162 7.45404e-13
1.9987e-12 7.45404e-13 549.036

398.326 30.8719 8.08242e-13
30.8719 422.056 8.77639e-12
8.08242e-13 8.77639e-12 388.161

515.704 8.12671 -1.20393e-12
8.12671 437.266 3.62199e-12
-1.20393e-12 3.62199e-12 494.58

493.803 30.1906 3.00737e-12
30.1906 484.746 -2.78592e-13
3.00737e-12 -2.78592e-13 493.8

453.463 23.3319 -1.68177e-12
23.3319 479.161 -2.67046e-13
-1.68177e-12 -2.67046e-13 475.796

510.7 -32.4888 1.69997e-12
-32.4888 512.451 -2.08561e-12
1.69997e-12 -2.08561e-12 515.005

510.306 -23.1902 9.4739e-15
-23.1902 473.179 2.09965e-12
9.4739e-15 2.09965e-12 489.675

511.4 10.4706 4.93032e-12
10.4706 557.99 5.2669e-12
4.93032e-12 5.2669e-12 523.73

452.171 -23.4338 1.10045e-12
-23.4338 480.163 6.41857e-13
1.10045e-12 6.41857e-13 468.948

394.408 -9.70777 1.90189e-12
-9.70777 316.412 1.79856e-12
1.90189e-12 1.79856e-12 295.574

387.288 -14.2772 9.82917e-13
-14.2772 306.057 1.86991e-12
9.82917e-13 1.86991e-12 290.048

547.582 16.5295 4.95219e-12
16.5295 507.762 1.09808e-12
4.95219e-12 1.09808e-12 519.318

436.485 22.5016 6.98996e-13
22.5016 469.134 1.46846e-12
6.98996e-13 1.46846e-12 447.821

475.96 29.1631 -1.14693e-12
29.1631 467.643 1.85481e-12
-1.14693e-12 1.85481e-12 471.477

450.299 0.688669 8.89363e-13
0.688669 392.775 -3.69735e-12
8.89363e-13 -3.69735e-12 395.672

478.349 6.57116 4.48311e-12
6.57116 541.276 -2.00965e-12
4.48311e-12 -2.00965e-12 507.538

507.328 16.5408 -2.61006e-12
16.5408 461.133 -4.77751e-12
-2.61006e-12 -4.77751e-12 488.077

389.975 -25.761 -9.40285e-13
-25.761 430.034 2.57572e-12
-9.40285e-13 2.57572e-12 387.731

456.316 -2.57239 4.35696e-12
-2.57239 517.012 1.75741e-12
4.35696e-12 1.75741e-12 484.838

400.587 13.3651 2.25449e-12
13.3651 452.983 -4.47168e-12
2.25449e-12 -4.47168e-12 404.633

486.911 -29.7132 -3.44376e-12
-29.7132 465.812 2.98398e-12
-3.44376e-12 2.98398e-12 474.256

430.296 -29.9473 -2.18847e-12
-29.9473 423.626 7.78636e-13
-2.18847e-12 7.78636e-13 404.952

399.708 31.6227 -9.08903e-13
31.6227 418.229 -2.31518e-13
-9.08903e-13 -2.31518e-13 386

623.999 -15.0201 5.86701e-12
-15.0201 581.946 -4.33002e-12
5.86701e-12 -4.33002e-12 557.902

494.52 2.04132 1.63795e-12
2.04132 552.141 4.66116e-12
1.63795e-12 4.66116e-12 517.922

483.499 20.3 -3.27856e-12
20.3 542.04 9.16008e-13
-3.27856e-12 9.16008e-13 516.028

544.703 15.439 3.25917e-12
15.439 479.968 3.0805e-12
3.25917e-12 3.0805e-12 515.75

473.746 -26.1887 -2.30897e-12
-26.1887 479.754 1.38763e-12
-2.30897e-12 1.38763e-12 483.014

452.122 17.9572 -6.51331e-14
17.9572 404.505 -3.82835e-12
-6.51331e-14 -3.82835e-12 406.915

531.577 -5.29404 3.68294e-12
-5.29404 580.798 5.78145e-12
3.68294e-12 5.78145e-12 537.115

512.184 -18.9881 2.59822e-12
-18.9881 464.791 2.62457e-12
2.59822e-12 2.62457e-12 493.025

473.973 -15.5988 -2.30097e-12
-15.5988 423.174 2.48882e-12
-2.30097e-12 2.48882e-12 438.877

401.997 11.6032 -6.57548e-13
11.6032 455.955 2.66809e-12
-6.57548e-13 2.66809e-12 407.777

410.92 -25.7341 2.69533e-12
-25.7341 435.578 -1.76925e-12
2.69533e-12 -1.76925e-12 398.954

532.046 -25.2738 3.15274e-12
-25.2738 523.19 -1.72381e-12
3.15274e-12 -1.72381e-12 519.116

423.054 31.9594 3.41238e-12
31.9594 417.246 -5.77908e-13
3.41238e-12 -5.77908e-13 400.302

535.479 -25.1347 6.27765e-12
-25.1347 505.786 -2.63463e-12
6.27765e-12 -2.63463e-12 515.657

453.491 2.59736 7.97821e-12
2.59736 397.017 9.98683e-13
7.97821e-12 9.98683e-13 401.895

311.097 -28.9304 5.72579e-13
-28.9304 376.595 -9.23706e-14
5.72579e-13 -9.23706e-14 289.993

431.873 -29.2308 -5.31131e-13
-29.2308 424.045 -1.74497e-12
-5.31131e-13 -1.74497e-12 406.151

353.759 32.1588 2.50585e-12
32.1588 392.542 2.75927e-12
2.50585e-12 2.75927e-12 312.966

470.344 -11.8769 -2.44699e-12
-11.8769 529.549 -3.20336e-12
-2.44699e-12 -3.20336e-12 500.301

391.448 -13.8213 -3.5573e-12
-13.8213 449.251 2.39808e-12
-3.5573e-12 2.39808e-12 400.196

602.853 -23.988 1.38201e-12
-23.988 602.266 1.58199e-12
1.38201e-12 1.58199e-12 557.843

408.369 23.7707 4.64103e-12
23.7707 441.937 9.76996e-13
4.64103e-12 9.76996e-13 402.22

496.575 -32.7263 -3.72916e-12
-32.7263 490.638 -3.11603e-12
-3.72916e-12 -3.11603e-12 497.444

388.187 -11.9631 2.91663e-12
-11.9631 448.283 7.88702e-13
2.91663e-12 7.88702e-13 397.013

516.708 -19.1169 1.0294e-12
-19.1169 465.751 1.24552e-12
1.0294e-12 1.24552e-12 496.241

410.684 23.8769 -2.14347e-12
23.8769 439.309 3.5089e-12
-2.14347e-12 3.5089e-12 400.696

488.918 -4.97548 8.46138e-13
-4.97548 435.068 7.07286e-12
8.46138e-13 7.07286e-12 460.38

305.781 -30.3425 -2.61124e-12
-30.3425 391.437 2.89428e-12
-2.61124e-12 2.89428e-12 262.569

438.608 21.014 -2.32377e-12
21.014 473.911 2.49164e-12
-2.32377e-12 2.49164e-12 458.347

445.686 -19.3232 2.0286e-12
-19.3232 393.976 -3.44909e-12
2.0286e-12 -3.44909e-12 399.622

551.603 -21.4459 4.75471e-13
-21.4459 499.516 -3.36146e-12
4.75471e-13 -3.36146e-12 520.102

424.469 31.7538 -3.48403e-12
31.7538 413.322 1.76155e-12
-3.48403e-12 1.76155e-12 397.959

459.162 -29.9716 -3.60068e-12
-29.9716 437.638 -1.9306e-12
-3.60068e-12 -1.9306e-12 439.299

510.619 20.8853 -1.82965e-12
20.8853 476.073 -2.75661e-12
-1.82965e-12 -2.75661e-12 492.756

461.505 -28.0759 4.9436e-12
-28.0759 485.741 -2.37876e-12
4.9436e-12 -2.37876e-12 488.718

413.721 -26.2251 1.61945e-12
-26.2251 436.245 3.39166e-12
1.61945e-12 3.39166e-12 401.439

426.076 28.9809 -2.22459e-12
28.9809 429.898 5.98395e-12
-2.22459e-12 5.98395e-12 406.862

452.501 26.1912 6.23738e-12
26.1912 418.228 7.89887e-13
6.23738e-12 7.89887e-13 419.06

521.971 -14.61 1.46668e-12
-14.61 477.179 -1.47053e-12
1.46668e-12 -1.47053e-12 500.065

403.562 -16.6175 -4.00716e-12
-16.6175 451.744 3.45087e-12
-4.00716e-12 3.45087e-12 406.444

496.047 -17.5682 6.44225e-13
-17.5682 447.608 2.45389e-12
6.44225e-13 2.45389e-12 471.502

487.766 16.9084 3.54442e-12
16.9084 436.26 -6.08077e-12
3.54442e-12 -6.08077e-12 460.59

513.344 -9.38678 -9.23484e-13
-9.38678 555.779 -5.20473e-13
-9.23484e-13 -5.20473e-13 523.031

453.98 -13.43 7.27951e-12
-13.43 402.18 -1.30666e-12
7.27951e-12 -1.30666e-12 406.744

403.203 0.594027 -2.03082e-12
0.594027 465.727 -8.53836e-13
-2.03082e-12 -8.53836e-13 417.806

475.028 18.5549 -1.85511e-12
18.5549 428.773 -3.99888e-12
-1.85511e-12 -3.99888e-12 442.223

451.144 27.6038 -2.43953e-13
27.6038 421.84 1.06937e-12
-2.43953e-13 1.06937e-12 420.845

400.87 -15.686 -1.03058e-12
-15.686 451.384 1.64964e-12
-1.03058e-12 1.64964e-12 403.738

406.002 -1.20229 4.10486e-13
-1.20229 468.036 5.14078e-12
4.10486e-13 5.14078e-12 421.222

516.201 29.1343 1.16115e-12
29.1343 498.028 3.18382e-12
1.16115e-12 3.18382e-12 504.878

441.706 -10.9221 1.76496e-12
-10.9221 500.66 -9.11863e-14
1.76496e-12 -9.11863e-14 471.15

451.442 -26.7151 1.99663e-12
-26.7151 418.768 2.64677e-12
1.99663e-12 2.64677e-12 419.354

444.389 21.3324 1.55609e-12
21.3324 395.3 -5.28881e-12
1.55609e-12 -5.28881e-12 398.203

497.597 23.6653 6.19949e-12
23.6653 458.092 -3.8014e-12
6.19949e-12 -3.8014e-12 476.552

447.685 5.47077 -3.84108e-12
5.47077 508.792 2.34242e-12
-3.84108e-12 2.34242e-12 476.884

427.652 29.0654 -1.71122e-12
29.0654 426.436 1.85096e-12
-1.71122e-12 1.85096e-12 405.112

536.823 22.9638 -4.18332e-13
22.9638 531.9 -1.83646e-12
-4.18332e-13 -1.83646e-12 522.786

314.752 -59.6915 1.89478e-14
-59.6915 282.77 7.11609e-12
1.89478e-14 7.11609e-12 223.425

480.597 -25.0477 1.2772e-12
-25.0477 445.074 -3.14534e-12
1.2772e-12 -3.14534e-12 456.648

336.665 7.06987 -4.77899e-12
7.06987 409.157 2.67875e-12
-4.77899e-12 2.67875e-12 319.442

460.541 -28.8891 1.71951e-12
-28.8891 444.739 3.36916e-12
1.71951e-12 3.36916e-12 443.455

96.4243 -52.7011 -9.18969e-13
-52.7011 306.619 4.47642e-12
-9.18969e-13 4.47642e-12 113.7

95.9582 51.4518 2.74625e-12
51.4518 306.884 -8.76336e-13
2.74625e-12 -8.76336e-13 114.488

181.518 117.155 -1.18897e-12
117.155 226.077 1.84267e-12
-1.18897e-12 1.84267e-12 113.588

182.815 -117.097 9.78181e-13
-117.097 223.313 -3.19744e-12
9.78181e-13 -3.19744e-12 113.563

321.584 -1.36337 9.66338e-13
-1.36337 84.6539 4.32247e-14
9.66338e-13 4.32247e-14 114.93

274.434 -91.1257 -2.78059e-12
-91.1257 127.419 1.88294e-12
-2.78059e-12 1.88294e-12 113.803

275.13 91.6536 5.5896e-13
91.6536 128.252 -4.45037e-12
5.5896e-13 -4.45037e-12 114.573

525.242 14.3303 3.82124e-12
14.3303 474.714 -2.74388e-12
3.82124e-12 -2.74388e-12 502.317

556.799 25.5365 -2.51947e-13
25.5365 541.185 -1.10578e-13
-2.51947e-13 -1.10578e-13 533.452

492.095 6.60603 -5.04485e-12
6.60603 439.123 -2.8549e-12
-5.04485e-12 -2.8549e-12 471.404

470.302 21.7845 -1.33168e-12
21.7845 424.519 4.24283e-12
-1.33168e-12 4.24283e-12 438.197

409.977 17.7444 -1.20437e-12
17.7444 461.075 -3.62199e-12
-1.20437e-12 -3.62199e-12 425.045

448.013 28.8984 -1.42997e-12
28.8984 424.707 6.09883e-13
-1.42997e-12 6.09883e-13 420.752

487.151 -29.6634 -5.30894e-12
-29.6634 465.63 1.65616e-12
-5.30894e-12 1.65616e-12 474.592

449.37 28.0277 7.98768e-13
28.0277 421.073 4.30648e-12
7.98768e-13 4.30648e-12 418.644

402.965 -2.84125 4.65213e-12
-2.84125 465.383 -2.179e-13
4.65213e-12 -2.179e-13 417.543

555.805 -26.0974 5.65266e-12
-26.0974 543.378 1.54987e-12
5.65266e-12 1.54987e-12 533.696

405.503 -4.86238 -4.60372e-14
-4.86238 467.121 4.61616e-12
-4.60372e-14 4.61616e-12 420.602

522.295 23.0162 -1.77636e-15
23.0162 499.745 8.61089e-13
-1.77636e-15 8.61089e-13 507.972

423.38 26.8706 1.42464e-12
26.8706 386.509 -2.98902e-12
1.42464e-12 -2.98902e-12 373.029

480.112 -13.2161 -2.42547e-12
-13.2161 532.771 3.18649e-12
-2.42547e-12 3.18649e-12 512.003

484.2 13.7279 4.43319e-12
13.7279 432.778 -5.79004e-12
4.43319e-12 -5.79004e-12 456.877

457.371 -29.9876 3.84404e-12
-29.9876 436.979 -5.0034e-13
3.84404e-12 -5.0034e-13 437.835

454.311 -24.7134 4.64103e-12
-24.7134 416.806 -1.90751e-12
4.64103e-12 -1.90751e-12 419.855

547.407 -16.0747 6.30488e-12
-16.0747 509.308 1.45099e-12
6.30488e-12 1.45099e-12 519.386

475.974 27.9289 -6.46653e-12
27.9289 449.708 2.52628e-12
-6.46653e-12 2.52628e-12 456.927

469.103 23.9774 -3.24007e-12
23.9774 427.851 1.58658e-12
-3.24007e-12 1.58658e-12 439.832

432.431 -2.79293 -2.62631e-12
-2.79293 493.639 -3.42837e-13
-2.62631e-12 -3.42837e-13 457.109

417.609 5.87335 -2.23481e-12
5.87335 479.56 -1.49806e-13
-2.23481e-12 -1.49806e-13 440.179

463.013 2.6467 -1.26536e-12
2.6467 402.282 1.8003e-12
-1.26536e-12 1.8003e-12 422.323

438.65 -7.28964 4.65287e-12
-7.28964 373.917 8.52947e-13
4.65287e-12 8.52947e-13 381.22

454.846 30.4847 1.28608e-12
30.4847 439.017 -6.15744e-12
1.28608e-12 -6.15744e-12 437.839

478.467 -26.1554 -1.77103e-12
-26.1554 443.545 9.92095e-13
-1.77103e-12 9.92095e-13 454.649

525.703 -21.2543 -5.68138e-13
-21.2543 497.831 -2.18196e-12
-5.68138e-13 -2.18196e-12 508.621

437.735 -31.6336 -2.59763e-12
-31.6336 437.657 4.71386e-12
-2.59763e-12 4.71386e-12 426.861

417.592 -27.7855 -1.81129e-12
-27.7855 444.398 4.85538e-13
-1.81129e-12 4.85538e-13 419.69

430.649 29.8871 -5.52802e-12
29.8871 442.747 1.27957e-12
-5.52802e-12 1.27957e-12 426.499

416.228 -9.57791 3.55923e-12
-9.57791 475.214 1.09364e-12
3.55923e-12 1.09364e-12 436.457

428.897 -1.5448 4.29804e-13
-1.5448 491.871 -3.04053e-12
4.29804e-13 -3.04053e-12 453.997

445.184 5.74793 -3.841e-13
5.74793 508.046 1.04035e-12
-3.841e-13 1.04035e-12 474.917

414.621 -21.089 3.44376e-12
-21.089 458.41 -6.45824e-12
3.44376e-12 -6.45824e-12 426.067

496.871 24.1112 -7.81597e-13
24.1112 455.699 2.44812e-12
-7.81597e-13 2.44812e-12 474.595

483.375 -9.58975 4.44089e-14
-9.58975 430.114 1.61293e-12
4.44089e-14 1.61293e-12 455.223

415.636 7.46527 1.39283e-12
7.46527 477.123 2.6598e-12
1.39283e-12 2.6598e-12 436.915

443.957 -9.70109 -3.44412e-12
-9.70109 501.506 -7.4607e-13
-3.44412e-12 -7.4607e-13 471.01

433.176 -16.3307 1.76096e-12
-16.3307 481.678 1.32635e-12
1.76096e-12 1.32635e-12 455.67

463.542 -8.2392 -5.2592e-12
-8.2392 406.337 1.43263e-12
-5.2592e-12 1.43263e-12 421.473

494.436 -32.3468 -2.65684e-12
-32.3468 487.618 1.18986e-12
-2.65684e-12 1.18986e-12 496.253

422.946 9.32088 -2.60458e-12
9.32088 479.094 -1.6757e-12
-2.60458e-12 -1.6757e-12 440.982

564.36 -18.2127 -2.67815e-12
-18.2127 529.954 -1.04124e-12
-2.67815e-12 -1.04124e-12 531.834

309.05 24.8227 -4.36392e-12
24.8227 379.425 4.47405e-12
-4.36392e-12 4.47405e-12 289.799

501.701 -26.6262 -3.93256e-12
-26.6262 499.493 2.99879e-12
-3.93256e-12 2.99879e-12 501.202

515.652 -30.2028 -1.2624e-12
-30.2028 498.406 7.19425e-14
-1.2624e-12 7.19425e-14 504.921

429.225 -0.701272 1.77332e-12
-0.701272 491.996 -4.60076e-12
1.77332e-12 -4.60076e-12 454.148

474.884 -16.6226 5.94487e-13
-16.6226 428.339 -6.90411e-13
5.94487e-13 -6.90411e-13 441.959

462.308 12.8417 -1.97079e-12
12.8417 511.278 2.35308e-12
-1.97079e-12 2.35308e-12 489.124

240.777 -3.18056 2.43346e-12
-3.18056 360.69 9.45022e-13
2.43346e-12 9.45022e-13 226.967

432.407 14.2737 6.30607e-14
14.2737 485.359 4.73754e-12
6.30607e-14 4.73754e-12 456.885

458.114 -29.4893 1.42109e-12
-29.4893 443.173 9.4443e-13
1.42109e-12 9.4443e-13 440.765

304.189 25.1057 -2.16952e-12
25.1057 394.587 -2.51295e-12
-2.16952e-12 -2.51295e-12 264.342

603.552 26.0978 2.47743e-12
26.0978 597.957 -3.71777e-12
2.47743e-12 -3.71777e-12 558.16

608.286 -27.8072 -1.45035e-11
-27.8072 595.032 1.63715e-11
-1.45035e-11 1.63715e-11 558.293

463.497 -30.4191 5.26216e-12
-30.4191 459.041 -2.25657e-12
5.26216e-12 -2.25657e-12 459.076

434.587 -31.1603 -1.75445e-12
-31.1603 436.362 -6.4541e-13
-1.75445e-12 -6.4541e-13 424.665

474.104 20.8275 2.72375e-14
20.8275 431.918 -3.39403e-12
2.72375e-14 -3.39403e-12 443.976

465.225 15.0061 -3.20573e-12
15.0061 410.119 -4.34408e-12
-3.20573e-12 -4.34408e-12 427.466

646.071 3.08343 1.8e-11
3.08343 645.729 -4.27806e-14
1.8e-11 -4.27806e-14 574.622

649.891 -6.99995 -1.8403e-11
-6.99995 641.399 3.13734e-12
-1.8403e-11 3.13734e-12 575.15

496.991 4.8243 -4.25615e-12
4.8243 442.038 -1.92143e-12
-4.25615e-12 -1.92143e-12 477.416

443.56 6.73102 -8.3548e-13
6.73102 502.992 2.78888e-12
-8.3548e-13 2.78888e-12 471.053

441.975 6.73633 2.57356e-12
6.73633 502.518 4.4776e-12
2.57356e-12 4.4776e-12 469.776

321.538 58.6345 5.47118e-12
58.6345 281.124 -1.77636e-12
5.47118e-12 -1.77636e-12 225.078

420.231 -28.1999 2.60532e-12
-28.1999 444.026 2.51295e-12
2.60532e-12 2.51295e-12 421.035

520.581 17.9745 5.95376e-13
17.9745 467.533 -1.78524e-13
5.95376e-13 -1.78524e-13 499.513

472.983 9.53977 -3.59061e-12
9.53977 421.2 2.36848e-15
-3.59061e-12 2.36848e-15 436.206

440.633 -26.7234 -1.98123e-12
-26.7234 450.729 -5.34624e-12
-1.98123e-12 -5.34624e-12 433.418

469.28 -20.2377 -4.23957e-13
-20.2377 422.719 -1.86281e-12
-4.23957e-13 -1.86281e-12 437.179

312.475 60.2324 7.20017e-13
60.2324 281.374 -1.79767e-12
7.20017e-13 -1.79767e-12 223.216

492.684 31.0691 2.61124e-13
31.0691 489.046 -2.30926e-13
2.61124e-13 -2.30926e-13 493.141

410.866 -19.7862 -1.46579e-12
-19.7862 457.885 -3.98496e-12
-1.46579e-12 -3.98496e-12 423.501

474.132 28.8578 -1.41931e-12
28.8578 449.634 -1.26536e-12
-1.41931e-12 -1.26536e-12 456.521

430.959 -4.14485 1.16551e-12
-4.14485 492.976 -1.78524e-12
1.16551e-12 -1.78524e-12 456.471

423.933 19.6093 -3.33659e-13
19.6093 465.715 6.96924e-13
-3.33659e-13 6.96924e-13 434.111

452.751 30.5189 2.12748e-12
30.5189 443.601 -1.32871e-12
2.12748e-12 -1.32871e-12 439.611

428.646 -22.4733 1.82195e-12
-22.4733 461.14 -9.13699e-12
1.82195e-12 -9.13699e-12 433.816

443.577 -27.3526 -1.17476e-12
-27.3526 450.436 1.58096e-12
-1.17476e-12 1.58096e-12 435.049

294.78 11.257 2.53382e-12
11.257 372.588 1.7953e-12
2.53382e-12 1.7953e-12 258.103

357.3 -33.4563 -4.29168e-12
-33.4563 389.12 -6.30015e-13
-4.29168e-12 -6.30015e-13 314.131

419.661 -11.6906 8.52725e-13
-11.6906 476.364 -6.90411e-13
8.52725e-13 -6.90411e-13 439.348

478.401 26.4846 6.71463e-13
26.4846 446.802 -2.59407e-12
6.71463e-13 -2.59407e-12 456.087

452.348 29.478 1.1493e-12
29.478 449.029 3.13941e-12
1.1493e-12 3.13941e-12 442.403

426.811 -21.434 2.83092e-12
-21.434 461.787 -4.91459e-14
2.83092e-12 -4.91459e-14 432.633

422.934 -11.7824 1.27602e-13
-11.7824 476.651 8.81073e-13
1.27602e-13 8.81073e-13 439.931

457.71 28.4096 1.65793e-13
28.4096 447.09 1.60346e-12
1.65793e-13 1.60346e-12 442.574

425.108 -13.8778 2.63967e-12
-13.8778 476.422 2.55203e-13
2.63967e-12 2.55203e-13 442.108

311.267 27.8551 -2.11209e-12
27.8551 377.393 1.80004e-12
-2.11209e-12 1.80004e-12 289.986

485.173 -4.04123 -2.37714e-12
-4.04123 545.052 -1.24167e-12
-2.37714e-12 -1.24167e-12 511.04

432.988 31.0277 -1.62773e-12
31.0277 439.631 1.82491e-12
-1.62773e-12 1.82491e-12 426.022

509.313 14.9013 -4.53504e-12
14.9013 463.165 -4.47523e-12
-4.53504e-12 -4.47523e-12 488.609

516.924 -15.9275 -1.78198e-12
-15.9275 467.585 -2.52539e-12
-1.78198e-12 -2.52539e-12 493.926

383.928 -24.2046 9.99497e-13
-24.2046 305.95 -1.79412e-12
9.99497e-13 -1.79412e-12 285.356

442.282 -21.2673 -2.47683e-12
-21.2673 476.003 1.58333e-12
-2.47683e-12 1.58333e-12 459.324

447.831 26.6984 -1.991e-12
26.6984 466.21 -1.46372e-12
-1.991e-12 -1.46372e-12 457.844

522.978 -21.7278 3.91568e-12
-21.7278 543.814 -3.29699e-13
3.91568e-12 -3.29699e-13 525.312

579.586 14.1065 9.39693e-13
14.1065 617.622 2.03126e-12
9.39693e-13 2.03126e-12 557.055

620.209 9.44533 1.70071e-12
9.44533 576.843 -1.89952e-12
1.70071e-12 -1.89952e-12 556.873

523.472 32.7054 -7.14984e-12
32.7054 520.654 -3.12343e-13
-7.14984e-12 -3.12343e-13 519.527

414.894 26.0005 1.82669e-13
26.0005 448.908 -2.74625e-12
1.82669e-13 -2.74625e-12 420.379

478.099 26.6615 -1.84208e-12
26.6615 444.773 -2.73263e-12
-1.84208e-12 -2.73263e-12 455.51

332.365 45.1861 -2.94875e-13
45.1861 349.491 -6.29067e-12
-2.94875e-13 -6.29067e-12 286.741

571.393 -11.3436 -1.36543e-12
-11.3436 614.473 7.88406e-13
-1.36543e-12 7.88406e-13 554.597

641.327 -3.43287 2.055e-11
-3.43287 636.871 5.76724e-13
2.055e-11 5.76724e-13 572.398

634.905 -0.209979 -1.74098e-12
-0.209979 643.178 -3.10603e-12
-1.74098e-12 -3.10603e-12 572.225

272.965 -53.8027 -8.7752e-13
-53.8027 316.449 1.76925e-12
-8.7752e-13 1.76925e-12 220.91

566.64 -11.6 -3.75996e-13
-11.6 562.127 7.67682e-13
-3.75996e-13 7.67682e-13 540.901

563.773 8.81294 -2.3684e-12
8.81294 586.964 -1.34411e-12
-2.3684e-12 -1.34411e-12 546.842

478.247 -26.1996 -1.44477e-12
-26.1996 440.444 -2.19943e-12
-1.44477e-12 -2.19943e-12 453.484

494.351 1.01102 -2.61383e-13
1.01102 545.761 -2.22518e-12
-2.61383e-13 -2.22518e-12 514.059

447.653 -20.2679 3.14563e-12
-20.2679 484.161 1.77221e-12
3.14563e-12 1.77221e-12 470.64

506.303 6.25534 3.89881e-12
6.25534 443.377 3.73768e-12
3.89881e-12 3.73768e-12 486.127

461.277 15.5963 1.5236e-13
15.5963 521.255 -4.15075e-13
1.5236e-13 -4.15075e-13 497.559

471.183 7.19158 7.9714e-14
7.19158 528.008 -6.00882e-12
7.9714e-14 -6.00882e-12 497.693

493.766 20.3929 3.71555e-12
20.3929 451.52 1.64283e-12
3.71555e-12 1.64283e-12 469.753

241.067 -3.1139 -4.4087e-12
-3.1139 358.562 -3.03165e-13
-4.4087e-12 -3.03165e-13 227.065

463.703 -27.6238 7.82781e-13
-27.6238 463.394 -7.81005e-12
7.82781e-13 -7.81005e-12 461.193

488.347 -26.1164 -4.10931e-12
-26.1164 481.6 -1.79323e-12
-4.10931e-12 -1.79323e-12 485.872

497.54 -31.4837 -2.83447e-12
-31.4837 489.961 -8.5576e-13
-2.83447e-12 -8.5576e-13 498.983

355.602 32.7497 4.76774e-12
32.7497 285.78 9.26074e-13
4.76774e-12 9.26074e-13 248.368

563.883 -20.1165 4.68958e-13
-20.1165 569.616 -1.83187e-12
4.68958e-13 -1.83187e-12 542.573

337.649 54.3224 1.05397e-12
54.3224 356.659 8.95284e-13
1.05397e-12 8.95284e-13 258.876

477.074 -21.4395 -4.62519e-12
-21.4395 506.492 1.52056e-12
-4.62519e-12 1.52056e-12 500.246

504.775 14.6504 -5.21834e-12
14.6504 451.99 1.79146e-12
-5.21834e-12 1.79146e-12 481.563

449.833 -14.5725 3.73272e-12
-14.5725 396.989 4.3725e-12
3.73272e-12 4.3725e-12 400.842

452.596 24.0468 2.07982e-12
24.0468 478.782 2.49045e-12
2.07982e-12 2.49045e-12 467.851

493.669 20.428 7.76801e-12
20.428 449.503 -5.35779e-12
7.76801e-12 -5.35779e-12 469.345

505.568 11.4005 -2.38846e-13
11.4005 564.418 -5.76132e-13
-2.38846e-13 -5.76132e-13 526.714

475.898 -31.5802 -1.19608e-13
-31.5802 470.359 -6.56127e-12
-1.19608e-13 -6.56127e-12 475.066

559.272 19.8124 3.80022e-12
19.8124 510.442 3.09501e-12
3.80022e-12 3.09501e-12 526.489

439.96 -18.4435 4.51461e-12
-18.4435 482.467 1.86458e-12
4.51461e-12 1.86458e-12 459.151

465.9 4.28321 3.29843e-13
4.28321 526.11 -7.71472e-12
3.29843e-13 -7.71472e-12 495.512

588.641 9.9268 7.11638e-12
9.9268 552.464 -1.95518e-12
7.11638e-12 -1.95518e-12 545.191

590.424 -8.51342 -1.72603e-12
-8.51342 554.806 2.43094e-12
-1.72603e-12 2.43094e-12 545.708

382.311 18.5124 -1.76925e-12
18.5124 302.289 1.16055e-13
-1.76925e-12 1.16055e-13 286.135

502.681 7.96504 1.63484e-12
7.96504 453.603 2.41436e-12
1.63484e-12 2.41436e-12 487.768

232.816 7.7405 -8.88815e-12
7.7405 381.517 -8.71599e-13
-8.88815e-12 -8.71599e-13 187.187

236.986 -11.3851 2.72556e-12
-11.3851 387.211 -8.19493e-13
2.72556e-12 -8.19493e-13 189.451

249.289 56.4068 4.44326e-12
56.4068 354.778 -1.04213e-12
4.44326e-12 -1.04213e-12 184.024

505.017 -28.9505 -2.76816e-12
-28.9505 478.618 8.39921e-13
-2.76816e-12 8.39921e-13 491.346

258.473 -49.1904 5.69618e-13
-49.1904 341.843 1.85925e-12
5.69618e-13 1.85925e-12 220.735

249.294 -55.9493 -2.69296e-12
-55.9493 344.753 -1.81899e-12
-2.69296e-12 -1.81899e-12 181.116

434.656 26.2201 -2.6823e-13
26.2201 454.395 -4.10812e-12
-2.6823e-13 -4.10812e-12 432.826

329.925 73.8436 6.26699e-12
73.8436 280.012 9.23706e-13
6.26699e-12 9.23706e-13 184.828

540.129 13.0473 3.51689e-12
13.0473 554.948 1.14545e-12
3.51689e-12 1.14545e-12 532.079

562.386 0.0394903 4.63674e-12
0.0394903 532.456 -1.55757e-12
4.63674e-12 -1.55757e-12 531.872

338.603 -73.1291 3.16428e-12
-73.1291 279.859 1.79767e-12
3.16428e-12 1.79767e-12 186.311

432.672 -23.4239 1.06374e-12
-23.4239 466.312 -6.74187e-12
1.06374e-12 -6.74187e-12 447.573

358.933 34.729 6.44936e-12
34.729 310.976 6.23738e-12
6.44936e-12 6.23738e-12 258.039

267.706 63.4906 -7.51044e-12
63.4906 345.212 -1.74794e-12
-7.51044e-12 -1.74794e-12 185.846

293.694 21.6301 -2.52006e-12
21.6301 367.662 2.03689e-13
-2.52006e-12 2.03689e-13 254.498

267.577 -65.9195 -9.33179e-13
-65.9195 344.847 4.56168e-12
-9.33179e-13 4.56168e-12 184.302

291.641 -12.381 -8.67454e-13
-12.381 370.884 1.01134e-12
-8.67454e-13 1.01134e-12 253.444

550.309 6.84165 -4.49204e-12
6.84165 582.079 5.1544e-13
-4.49204e-12 5.1544e-13 541.119

329.891 -45.9746 -3.42718e-12
-45.9746 341.817 -1.62122e-12
-3.42718e-12 -1.62122e-12 276.616

259.783 47.5317 -6.92069e-12
47.5317 340.218 6.36409e-12
-6.92069e-12 6.36409e-12 223.146

370.218 37.9112 4.68958e-13
37.9112 244.921 4.52201e-12
4.68958e-13 4.52201e-12 187.357

481.893 -29.2857 -1.48622e-13
-29.2857 460.513 3.47811e-12
-1.48622e-13 3.47811e-12 467.716

480.979 12.8967 6.0707e-12
12.8967 525.832 3.43932e-12
6.0707e-12 3.43932e-12 504.106

354.42 -38.1123 -1.7953e-12
-38.1123 300.078 7.30912e-12
-1.7953e-12 7.30912e-12 251.816

482.536 -28.8021 3.50712e-12
-28.8021 460.323 -1.85333e-13
3.50712e-12 -1.85333e-13 468.465

365.265 -36.3431 3.65693e-12
-36.3431 230.99 -5.20532e-12
3.65693e-12 -5.20532e-12 182.771

481.505 -28.3174 5.66717e-12
-28.3174 472.757 9.15712e-13
5.66717e-12 9.15712e-13 477.92

436.355 -25.2948 -2.51088e-12
-25.2948 466.226 -1.21384e-12
-2.51088e-12 -1.21384e-12 448.212

314.8 69.4601 6.63173e-14
69.4601 292.143 -1.79057e-12
6.63173e-14 -1.79057e-12 184.525

290.783 -22.9327 2.71072e-12
-22.9327 359.166 6.15804e-14
2.71072e-12 6.15804e-14 247.03

312.401 -71.6921 -1.78109e-12
-71.6921 288.123 5.47355e-12
-1.78109e-12 5.47355e-12 182.027

268.547 50.7371 2.2015e-12
50.7371 320.061 -5.38355e-12
2.2015e-12 -5.38355e-12 221.505

459.863 -30.2121 7.13503e-13
-30.2121 454.847 6.26876e-12
7.13503e-13 6.26876e-12 454.402

559.288 -14.6403 3.34606e-12
-14.6403 544.414 -9.3614e-13
3.34606e-12 -9.3614e-13 533.719

635.923 11.0925 3.74049e-12
11.0925 631.384 5.54016e-12
3.74049e-12 5.54016e-12 570.021

619.958 -5.16002 -2.99198e-12
-5.16002 639.739 -1.84251e-12
-2.99198e-12 -1.84251e-12 568.499

453.872 13.0836 -6.06089e-13
13.0836 506.557 -2.7048e-12
-6.06089e-13 -2.7048e-12 482.574

634.152 -10.6669 -2.62064e-12
-10.6669 631.315 8.19789e-13
-2.62064e-12 8.19789e-13 569.876

622.696 4.09177 -5.15336e-12
4.09177 642.685 -8.92027e-13
-5.15336e-12 -8.92027e-13 569.7

643.375 7.43394 3.13453e-12
7.43394 619.149 -6.55994e-12
3.13453e-12 -6.55994e-12 569.023

584.777 -12.115 -6.01223e-13
-12.115 631.669 -6.30858e-12
-6.01223e-13 -6.30858e-12 560.595

307.445 -30.47 9.48575e-13
-30.47 371.634 1.01844e-13
9.48575e-13 1.01844e-13 280.771

589.627 -12.9721 2.66305e-12
-12.9721 549.115 3.69986e-12
2.66305e-12 3.69986e-12 543.828

527.208 -34.4176 9.68114e-13
-34.4176 521.488 -3.16103e-12
9.68114e-13 -3.16103e-12 519.967

565.466 -18.1769 3.30846e-12
-18.1769 537.991 -7.18803e-12
3.30846e-12 -7.18803e-12 534.26

502.572 15.4592 1.157e-12
15.4592 452.118 -4.67211e-12
1.157e-12 -4.67211e-12 480.209

586.35 9.86415 1.76488e-12
9.86415 642.136 -5.43225e-12
1.76488e-12 -5.43225e-12 563.105

636.658 19.2275 -7.4607e-13
19.2275 591.724 2.98421e-12
-7.4607e-13 2.98421e-12 562.926

569.777 11.3064 -5.92711e-13
11.3064 544.34 -1.50665e-12
-5.92711e-13 -1.50665e-12 536.438

353.444 -15.3394 1.42109e-14
-15.3394 231.517 -5.27223e-12
1.42109e-14 -5.27223e-12 219.015

437.208 24.9641 -1.34411e-13
24.9641 461.914 -1.65201e-13
-1.34411e-13 -1.65201e-13 445.724

317.091 -61.3546 4.48826e-12
-61.3546 277.85 1.18424e-13
4.48826e-12 1.18424e-13 218.089

334.21 -57.4572 -1.06652e-11
-57.4572 357.324 6.89226e-13
-1.06652e-11 6.89226e-13 252.541

383.336 -36.544 -4.42431e-12
-36.544 305.74 -8.04098e-13
-4.42431e-12 -8.04098e-13 257.761

562.498 -5.15894 1.77162e-12
-5.15894 616.953 -1.3903e-12
1.77162e-12 -1.3903e-12 552.952

562.205 2.89124 -9.43393e-13
2.89124 615.818 -2.89013e-12
-9.43393e-13 -2.89013e-12 552.55

598.771 -24.4561 -4.65583e-12
-24.4561 575.743 2.16345e-13
-4.65583e-12 2.16345e-13 551.58

602.33 -21.7604 -8.75744e-13
-21.7604 573.434 -1.28135e-12
-8.75744e-13 -1.28135e-12 551.846

598.784 26.1358 -5.40309e-12
26.1358 580.459 -5.21309e-12
-5.40309e-12 -5.21309e-12 552.735

625.743 3.09935 -9.02981e-15
3.09935 630.736 -1.01712e-11
-9.02981e-15 -1.01712e-11 568.422

599.061 -20.5088 -7.5436e-13
-20.5088 576.355 6.7879e-13
-7.5436e-13 6.7879e-13 552.268

607.811 -18.5682 -5.55911e-12
-18.5682 620.263 -1.53553e-11
-5.55911e-12 -1.53553e-11 563.187

632.901 2.43443 1.13872e-11
2.43443 635.527 3.46434e-12
1.13872e-11 3.46434e-12 570.507

607.887 -20.5261 2.35826e-12
-20.5261 572.428 -4.26681e-12
2.35826e-12 -4.26681e-12 553.407

607.073 20.9557 4.2227e-12
20.9557 573.686 3.46774e-12
4.2227e-12 3.46774e-12 553.811

633.852 -3.45845 1.42557e-11
-3.45845 636.778 -1.89377e-11
1.42557e-11 -1.89377e-11 571.281

632.182 -3.11709 -5.80632e-12
-3.11709 625.757 3.11499e-12
-5.80632e-12 3.11499e-12 569.396

609.683 12.1098 6.22065e-12
12.1098 620.486 -1.47873e-11
6.22065e-12 -1.47873e-11 563.918

587.204 26.9295 -4.71919e-13
26.9295 583.02 5.1828e-13
-4.71919e-13 5.1828e-13 551.704

FIELD solute_concentration_TPM 2
S_ext 1 563 float
0.974882
0.974695
0.974715
0.974696
0.974666
0.974715
0.974882
0.974706
0.974731
0.974699
0.974844
0.974706
0.97471
0.974698
0.974673
0.974713
0.97469
0.974704
0.974735
0.974718
0.974724
0.974613
0.97472
0.974718
0.974718
0.974701
0.974834
0.974713
0.974782
0.974641
0.974711
0.974781
0.974839
0.974649
0.974648
0.974649
0.974637
0.974651
0.974711
0.974839
0.974782
0.974636
0.974636
0.97471
0.974814
0.974781
0.974733
0.974729
0.974714
0.974791
0.974786
0.974767
0.974664
0.974768
0.974666
0.97482
0.974648
0.974767
0.974648
0.974716
0.974689
0.974681
0.97483
0.974683
0.974681
0.974694
0.974688
0.974702
0.974719
0.974694
0.974665
0.974665
0.974783
0.97469
0.974715
0.974843
0.974675
0.974695
0.974701
0.97476
0.974799
0.974661
0.974685
0.974801
0.974781
0.974818
0.974712
0.974694
0.974814
0.974622
0.974767
0.974622
0.974673
0.974697
0.974767
0.974785
0.974801
0.974698
0.974676
0.974711
0.974749
0.974778
0.974801
0.974701
0.9747
0.974699
0.974684
0.974713
0.974802
0.974689
0.974716
0.974811
0.974805
0.974703
0.9747
0.974768
0.974651
0.974803
0.974651
0.974767
0.974739
0.974674
0.974694
0.974689
0.974689
0.974672
0.974654
0.974698
0.974801
0.974766
0.974663
0.974695
0.974684
0.974694
0.974779
0.974647
0.974811
0.974709
0.974684
0.974647
0.974776
0.974703
0.974739
0.974698
0.974804
0.9747
0.974704
0.974717
0.974715
0.974752
0.974728
0.974694
0.97478
0.97471
0.974698
0.974695
0.974696
0.974776
0.974775
0.974707
0.974728
0.974779
0.974813
0.974784
0.974774
0.974699
0.974775
0.974776
0.974781
0.974774
0.974672
0.974767
0.974785
0.974695
0.974767
0.974684
0.974672
0.974707
0.974666
0.974702
0.974783
0.974698
0.974699
0.974775
0.974693
0.974787
0.974689
0.974686
0.974674
0.974698
0.974692
0.974799
0.974766
0.974781
0.974694
0.974704
0.974703
0.974684
0.974694
0.974696
0.974694
0.974734
0.974759
0.974685
0.974783
0.974684
0.974696
0.974777
0.97468
0.974694
0.974681
0.974699
0.974701
0.974684
0.974751
0.974699
0.974759
0.974686
0.974689
0.974689
0.974689
0.97469
0.97469
0.97469
0.974699
0.974674
0.974674
0.974673
0.974674
0.974667
0.974666
0.974752
0.974697
0.974694
0.97473
0.974674
0.974674
0.974694
0.974758
0.974694
0.974698
0.974751
0.974679
0.974752
0.974685
0.974694
0.97475
0.974757
0.9748
0.974792
0.974684
0.974806
0.974711
0.974759
0.974735
0.974694
0.974689
0.974638
0.974689
0.97481
0.974757
0.974693
0.974706
0.97476
0.974689
0.974739
0.974637
0.974758
0.974689
0.974691
0.974703
0.974674
0.974694
0.974666
0.974708
0.974812
0.974818
0.974671
0.974722
0.974706
0.974754
0.974679
0.974696
0.974757
0.974696
0.974748
0.974704
0.974749
0.974758
0.974627
0.97467
0.974671
0.974672
0.974698
0.974748
0.974651
0.974691
0.974727
0.974747
0.974753
0.97467
0.974751
0.974674
0.974752
0.974814
0.974748
0.974805
0.974685
0.97475
0.974627
0.974751
0.974688
0.974752
0.97469
0.974751
0.974714
0.974837
0.974714
0.974752
0.974668
0.974751
0.974726
0.974692
0.974694
0.974751
0.974748
0.974739
0.974687
0.974748
0.974707
0.974713
0.974667
0.974748
0.97474
0.974725
0.974739
0.974749
0.974738
0.974682
0.974706
0.97474
0.974751
0.974703
0.974702
0.974748
0.974667
0.97485
0.974716
0.9748
0.974724
0.974908
0.974908
0.974906
0.974906
0.974904
0.974913
0.974913
0.974685
0.974657
0.974706
0.974727
0.974734
0.974739
0.974704
0.974739
0.97474
0.974657
0.974738
0.974681
0.974767
0.974675
0.974715
0.974728
0.97474
0.974672
0.974716
0.974727
0.974715
0.974726
0.974737
0.974761
0.974727
0.974717
0.974679
0.974734
0.974738
0.974735
0.974728
0.974717
0.974703
0.974734
0.974704
0.974716
0.974728
0.974706
0.974716
0.974737
0.974688
0.974726
0.974657
0.974814
0.974685
0.974682
0.974717
0.974726
0.974694
0.97485
0.974715
0.974726
0.974836
0.974631
0.974631
0.974714
0.974735
0.974725
0.974734
0.974613
0.974612
0.974703
0.974706
0.974706
0.974855
0.974737
0.974687
0.97473
0.974731
0.974728
0.97485
0.974691
0.974736
0.974716
0.974716
0.974731
0.974727
0.974731
0.97473
0.974837
0.974804
0.974726
0.974716
0.974725
0.974732
0.974727
0.974725
0.974725
0.974816
0.974676
0.974734
0.974694
0.97469
0.974817
0.974714
0.974715
0.974667
0.974625
0.974625
0.97467
0.974738
0.974716
0.974818
0.974628
0.974612
0.974611
0.974852
0.97465
0.97464
0.974718
0.974674
0.974707
0.974697
0.974687
0.974687
0.974707
0.97485
0.974713
0.974697
0.974688
0.974844
0.974645
0.974842
0.974686
0.9747
0.97475
0.974709
0.974708
0.974662
0.974704
0.974662
0.974715
0.974689
0.974644
0.974644
0.97482
0.974695
0.974884
0.974885
0.974885
0.974692
0.974856
0.974886
0.974732
0.974883
0.97466
0.974661
0.974884
0.974721
0.97484
0.974889
0.974839
0.974889
0.97484
0.974649
0.974824
0.974855
0.974882
0.974709
0.974682
0.974842
0.974708
0.974883
0.974701
0.974721
0.974889
0.974843
0.97489
0.974851
0.974717
0.974657
0.974611
0.974613
0.974698
0.974612
0.974611
0.974613
0.974623
0.974821
0.974644
0.974671
0.974658
0.9747
0.974621
0.974621
0.974657
0.974851
0.974723
0.974859
0.974846
0.974838
0.974629
0.974629
0.974631
0.974631
0.974629
0.974616
0.974635
0.974623
0.974615
0.974632
0.974632
0.974615
0.974615
0.974621
0.974634
P_ext 1 563 float
0.0193881
0.0193834
0.0193841
0.0193835
0.0193816
0.0193841
0.0193881
0.0193837
0.0193846
0.0193834
0.0193873
0.0193837
0.0193839
0.0193834
0.0193821
0.0193841
0.0193831
0.0193837
0.0193847
0.0193842
0.0193844
0.0193785
0.0193842
0.0193842
0.0193842
0.0193836
0.0193871
0.0193839
0.019386
0.0193801
0.0193839
0.0193859
0.0193872
0.0193807
0.0193807
0.0193807
0.01938
0.0193808
0.0193839
0.0193872
0.0193859
0.01938
0.01938
0.0193839
0.0193867
0.019386
0.0193847
0.0193845
0.019384
0.0193862
0.019386
0.0193856
0.0193816
0.0193856
0.0193817
0.0193868
0.0193806
0.0193856
0.0193807
0.0193841
0.019383
0.0193826
0.019387
0.0193827
0.0193826
0.0193832
0.019383
0.0193836
0.0193842
0.0193833
0.0193816
0.0193817
0.019386
0.019383
0.0193841
0.0193873
0.0193822
0.0193832
0.0193836
0.0193854
0.0193864
0.0193815
0.0193828
0.0193864
0.0193859
0.0193868
0.019384
0.0193831
0.0193867
0.0193787
0.0193856
0.0193787
0.0193821
0.0193832
0.0193856
0.019386
0.0193864
0.0193835
0.0193822
0.0193839
0.0193851
0.0193859
0.0193864
0.0193836
0.0193835
0.0193835
0.0193827
0.019384
0.0193864
0.0193831
0.0193841
0.0193866
0.0193865
0.0193837
0.0193836
0.0193856
0.0193807
0.0193865
0.0193807
0.0193856
0.0193848
0.0193822
0.0193833
0.019383
0.019383
0.0193821
0.0193809
0.0193835
0.0193864
0.0193855
0.0193815
0.0193834
0.0193828
0.0193834
0.0193859
0.0193806
0.0193867
0.0193838
0.0193827
0.0193806
0.0193858
0.0193835
0.0193848
0.0193834
0.0193865
0.0193836
0.0193836
0.019384
0.0193841
0.0193852
0.0193844
0.0193833
0.0193859
0.0193839
0.0193835
0.0193834
0.0193833
0.0193858
0.0193858
0.0193838
0.0193845
0.0193859
0.0193867
0.019386
0.0193858
0.0193835
0.0193858
0.0193858
0.019386
0.0193858
0.019382
0.0193856
0.0193861
0.0193833
0.0193856
0.0193827
0.019382
0.0193837
0.0193817
0.0193835
0.019386
0.0193835
0.0193835
0.0193858
0.0193831
0.0193861
0.019383
0.0193828
0.019382
0.0193835
0.0193831
0.0193864
0.0193856
0.0193859
0.0193834
0.0193837
0.0193837
0.0193828
0.0193833
0.0193832
0.0193833
0.0193847
0.0193854
0.0193828
0.019386
0.0193828
0.0193832
0.0193858
0.0193825
0.0193833
0.0193824
0.0193834
0.0193836
0.0193827
0.0193851
0.0193834
0.0193854
0.0193828
0.019383
0.019383
0.0193831
0.0193831
0.0193831
0.0193831
0.0193834
0.0193822
0.0193822
0.0193822
0.0193822
0.0193816
0.0193816
0.0193852
0.0193834
0.0193833
0.0193846
0.0193821
0.0193821
0.0193833
0.0193854
0.0193834
0.0193835
0.0193852
0.0193824
0.0193852
0.0193827
0.0193834
0.0193851
0.0193854
0.0193864
0.0193862
0.0193828
0.0193865
0.0193839
0.0193854
0.0193847
0.0193834
0.0193831
0.01938
0.0193831
0.0193866
0.0193853
0.0193833
0.0193837
0.0193854
0.0193831
0.0193848
0.01938
0.0193854
0.019383
0.019383
0.0193837
0.0193821
0.0193831
0.0193817
0.0193839
0.0193866
0.0193868
0.0193819
0.0193843
0.0193837
0.0193852
0.0193824
0.0193833
0.0193853
0.0193832
0.0193851
0.0193835
0.0193851
0.0193854
0.0193793
0.019382
0.0193821
0.0193821
0.0193834
0.0193851
0.0193808
0.0193831
0.0193844
0.0193851
0.0193852
0.0193819
0.0193852
0.0193821
0.0193852
0.0193867
0.0193851
0.0193865
0.0193827
0.0193852
0.0193793
0.0193852
0.0193828
0.0193852
0.0193829
0.0193852
0.019384
0.0193872
0.0193841
0.0193852
0.0193818
0.0193852
0.0193844
0.019383
0.0193833
0.0193852
0.0193851
0.0193848
0.0193828
0.0193851
0.0193837
0.019384
0.0193817
0.0193851
0.0193849
0.0193844
0.0193848
0.0193851
0.0193848
0.0193825
0.0193837
0.0193849
0.0193852
0.0193836
0.0193835
0.0193851
0.0193818
0.0193875
0.019384
0.0193864
0.0193843
0.0193887
0.0193887
0.0193886
0.0193886
0.0193886
0.0193888
0.0193888
0.0193827
0.019381
0.0193837
0.0193844
0.0193847
0.0193848
0.0193836
0.0193848
0.0193849
0.019381
0.0193848
0.0193824
0.0193856
0.0193823
0.019384
0.0193845
0.0193848
0.0193819
0.0193841
0.0193844
0.019384
0.0193844
0.0193848
0.0193854
0.0193844
0.0193841
0.0193824
0.0193847
0.0193848
0.0193847
0.0193845
0.0193841
0.0193835
0.0193847
0.0193836
0.0193841
0.0193845
0.0193837
0.0193841
0.0193848
0.019383
0.0193844
0.0193812
0.0193867
0.0193827
0.0193825
0.0193841
0.0193845
0.0193832
0.0193875
0.019384
0.0193844
0.0193872
0.0193794
0.0193794
0.019384
0.0193847
0.0193844
0.0193847
0.0193781
0.0193781
0.0193836
0.0193837
0.0193837
0.0193876
0.0193848
0.0193829
0.0193846
0.0193846
0.0193845
0.0193875
0.019383
0.0193848
0.0193841
0.0193841
0.0193846
0.0193845
0.0193846
0.0193846
0.0193872
0.0193865
0.0193844
0.019384
0.0193844
0.0193846
0.0193845
0.0193844
0.0193844
0.0193867
0.0193822
0.0193847
0.0193832
0.019383
0.0193868
0.0193841
0.0193841
0.0193817
0.0193793
0.0193793
0.0193818
0.0193848
0.019384
0.0193868
0.0193795
0.0193783
0.0193784
0.0193875
0.0193808
0.0193801
0.0193841
0.0193822
0.0193838
0.0193834
0.0193829
0.0193828
0.0193837
0.0193875
0.019384
0.0193833
0.0193829
0.0193873
0.0193805
0.0193873
0.0193829
0.0193835
0.0193851
0.0193839
0.0193837
0.0193815
0.0193837
0.0193815
0.0193841
0.0193829
0.0193802
0.0193802
0.0193868
0.0193833
0.0193882
0.0193882
0.0193882
0.0193831
0.0193876
0.0193882
0.0193846
0.0193882
0.0193814
0.0193814
0.0193882
0.0193843
0.0193873
0.0193883
0.0193873
0.0193883
0.0193873
0.0193807
0.0193869
0.0193876
0.0193881
0.0193838
0.0193826
0.0193873
0.0193838
0.0193881
0.0193835
0.0193843
0.0193883
0.0193873
0.0193883
0.0193875
0.0193841
0.0193811
0.0193784
0.0193785
0.0193834
0.0193784
0.0193784
0.0193784
0.019379
0.0193869
0.0193804
0.0193819
0.0193811
0.0193834
0.0193789
0.0193789
0.019381
0.0193875
0.0193844
0.0193877
0.0193874
0.0193872
0.0193796
0.0193796
0.0193797
0.0193797
0.0193796
0.0193785
0.0193797
0.0193788
0.0193784
0.0193795
0.0193795
0.0193784
0.0193785
0.0193789
0.0193797
FIELD solute_flux_TPM 2
S_ext 3 563 float
-5.33158e-05 1.7833e-05 1.38316e-18
2.34278e-06 4.47759e-06 2.69571e-18
-8.28509e-06 -6.57451e-06 -8.35341e-19
-2.73051e-06 2.75527e-06 1.85045e-18
1.51825e-05 -4.3433e-06 -1.98541e-19
1.79689e-06 -1.03372e-05 2.16033e-18
-5.25015e-05 -1.80499e-05 3.23409e-18
-9.06095e-06 -6.73153e-06 -2.51694e-18
1.44066e-05 6.12958e-07 -1.5039e-18
7.49928e-06 -2.64365e-06 2.66648e-18
3.55029e-05 8.26588e-06 3.41792e-18
1.5056e-06 -1.12114e-05 2.16566e-18
8.9574e-06 7.28781e-06 1.98427e-18
1.76405e-06 8.97222e-06 -2.51895e-18
1.37651e-05 -2.02468e-06 2.52627e-18
-1.05116e-05 -1.71384e-07 1.34877e-18
1.84858e-06 9.25786e-06 -3.0301e-18
6.68243e-06 -1.60278e-06 -3.69781e-18
6.415e-06 1.11834e-05 -6.11628e-18
-9.57831e-06 1.21296e-06 -3.48477e-18
-2.31159e-06 -1.37651e-05 -1.33353e-18
2.86292e-05 4.03947e-05 1.38767e-20
1.0273e-05 1.05003e-06 -1.84775e-18
7.34954e-06 -7.3441e-06 2.15545e-18
-9.71863e-06 -2.15373e-06 8.464e-19
-4.15509e-07 -7.24051e-06 -7.55168e-18
4.07415e-05 -3.18834e-06 2.50913e-18
9.23911e-06 6.69591e-06 2.81584e-18
-1.61335e-05 -1.31001e-05 3.19782e-19
3.24334e-05 -8.58785e-06 2.76604e-18
-1.06915e-05 -3.94543e-06 2.02575e-18
3.44723e-06 -2.06877e-05 1.92903e-18
3.05677e-05 -3.11564e-05 1.09917e-18
-3.45777e-06 -2.77056e-05 -5.31673e-19
-1.95811e-05 2.43702e-05 -1.04495e-18
-2.57214e-05 -1.08478e-05 1.91928e-18
2.15048e-05 2.81569e-05 3.83235e-18
-2.95934e-05 -5.79868e-06 -1.02328e-18
9.47079e-06 -7.19081e-06 6.53991e-19
2.98632e-05 3.24659e-05 1.48166e-19
2.083e-05 -9.11524e-06 -4.88287e-19
2.19309e-05 -2.71012e-05 -2.09962e-18
-1.25116e-05 -3.25227e-05 2.63155e-18
-1.02442e-05 4.1538e-06 8.43899e-19
1.95621e-05 -1.91335e-05 1.57737e-18
-1.93219e-05 6.86893e-06 3.39785e-18
-2.65372e-06 -1.31109e-05 8.24173e-19
5.10487e-06 1.30747e-05 -6.81542e-18
-1.05833e-05 3.84697e-06 2.84628e-18
-1.16123e-05 1.82617e-05 9.31236e-22
2.10181e-05 9.89773e-06 -6.62358e-19
1.90016e-05 -6.59737e-06 -1.63404e-18
-1.0393e-05 1.04075e-05 3.25119e-18
-1.5046e-05 -1.30674e-05 -2.44421e-18
-1.39948e-05 -3.42966e-06 5.26229e-19
-2.85128e-05 1.69822e-05 9.49677e-19
-1.93849e-05 -2.50804e-05 -8.86965e-19
3.97116e-06 -1.96733e-05 2.59092e-18
-3.14205e-05 4.28949e-06 1.74645e-18
3.9433e-06 8.90893e-06 -2.17974e-18
-3.6297e-06 -5.39556e-06 1.52687e-18
-4.28172e-06 -1.18318e-05 2.05374e-18
3.6811e-05 1.60412e-05 1.42021e-18
6.14941e-06 1.19138e-05 -1.35581e-18
8.15844e-06 -9.50088e-06 1.8696e-18
-1.12633e-06 -1.36095e-05 -1.79121e-19
3.08006e-06 -5.78203e-06 1.51822e-18
-6.53107e-06 -3.63841e-06 1.7937e-19
-6.89892e-06 7.67318e-06 3.2348e-21
1.67315e-06 -2.76501e-06 1.99145e-18
-9.96259e-06 -1.04688e-05 -2.58478e-18
-1.41149e-05 3.43862e-06 6.9274e-19
-2.47539e-06 2.20358e-05 2.09545e-18
-1.17078e-05 7.0154e-06 4.88522e-21
-5.89512e-06 9.40267e-06 6.69999e-19
-3.80267e-05 4.73127e-06 -6.23519e-19
5.22382e-06 -1.42702e-05 6.77431e-19
-1.23829e-05 -5.74737e-06 -1.17488e-18
1.24405e-06 7.58947e-06 -3.44014e-19
1.71051e-05 3.28366e-06 -3.92214e-18
2.20369e-05 -1.87782e-05 3.15259e-19
1.47453e-05 1.35629e-05 1.55056e-18
7.95525e-06 -1.94643e-06 3.86424e-18
-2.05186e-05 1.50386e-05 2.07985e-18
2.45104e-05 3.14291e-06 -3.08884e-18
-3.5355e-06 3.14929e-05 4.77388e-19
-1.1378e-06 -1.09422e-05 -3.84589e-18
1.20209e-05 6.52192e-06 2.34975e-18
1.88137e-05 1.97031e-05 -9.57454e-19
4.25347e-05 2.6442e-05 -7.00636e-19
-3.50021e-06 1.97705e-05 2.92482e-18
4.44288e-05 -2.49676e-05 -2.83804e-18
-1.79631e-05 3.46149e-06 -5.01186e-19
1.18209e-05 7.31415e-06 1.84207e-18
-1.8888e-05 6.28872e-06 8.25033e-19
1.06531e-05 1.8484e-05 9.59769e-19
6.33637e-06 -2.84285e-05 -2.09075e-18
1.25549e-06 7.58547e-06 6.5526e-19
-9.67844e-06 -1.16299e-05 -2.02469e-18
1.97502e-06 1.13549e-05 -2.68739e-18
1.71389e-05 3.4304e-06 -8.3561e-19
-9.95927e-06 2.11801e-05 2.59316e-18
2.61774e-05 -8.72826e-06 3.13558e-19
-2.47717e-06 4.81173e-06 8.37373e-19
6.58619e-06 3.82499e-06 3.13613e-19
-1.45555e-06 -7.3628e-06 -3.19475e-18
2.16433e-06 -1.26936e-05 -3.56107e-18
1.14343e-05 2.56046e-06 -2.18583e-18
-5.29254e-06 2.63049e-05 9.52551e-19
-6.49967e-06 1.1707e-07 1.69383e-18
6.10747e-06 7.72918e-06 -5.20105e-19
-1.73589e-06 -2.68135e-05 1.46631e-19
2.71485e-05 8.42945e-06 9.47052e-19
2.92887e-06 -4.84195e-06 -1.51707e-18
-7.21401e-06 -2.3311e-06 3.87018e-18
-1.86582e-05 -7.94015e-06 3.23356e-19
1.06302e-05 2.77517e-05 -1.91198e-18
-2.74265e-05 -9.77272e-06 -6.47858e-19
1.07787e-05 -2.78256e-05 -3.66524e-18
-2.42327e-06 -2.0489e-05 1.46057e-18
1.42329e-05 3.90542e-07 -3.39399e-19
-4.7469e-06 1.22195e-05 5.14899e-19
-1.05174e-06 2.57904e-06 1.83018e-18
-2.46027e-06 -1.08716e-05 -2.21113e-18
3.47528e-06 -5.60442e-06 3.50499e-18
6.21059e-06 1.04708e-05 -3.40474e-18
2.23304e-05 7.29666e-06 -1.056e-18
5.74451e-06 -4.83861e-06 1.33349e-18
-5.43204e-06 -2.8774e-05 -4.93577e-19
1.65495e-05 -1.22003e-05 1.62123e-18
3.30521e-06 1.84108e-05 3.82766e-21
-1.81677e-06 -1.86906e-06 2.02001e-18
-5.7046e-06 -5.46894e-06 -5.22789e-19
-3.14093e-06 6.61225e-08 -1.17866e-18
-1.46493e-05 1.80845e-05 -8.11947e-19
1.2919e-05 -2.49931e-05 2.41175e-18
-1.71027e-05 2.70323e-05 5.72358e-22
-1.05832e-05 6.17231e-06 3.45051e-19
1.65602e-06 8.15971e-06 -3.40626e-18
-1.51562e-05 -2.36663e-05 -1.56477e-19
8.88325e-06 2.15359e-05 -2.6008e-18
1.15738e-05 6.07086e-06 -3.54273e-19
1.48351e-05 -5.60493e-06 2.1327e-18
-8.30736e-07 -7.35509e-06 -1.1861e-18
-2.154e-05 -1.98095e-05 -2.24982e-18
-1.76951e-06 7.364e-06 1.749e-19
1.13738e-05 6.712e-06 1.66523e-18
1.23785e-05 -5.84943e-06 -2.01511e-18
5.42325e-06 -9.30847e-06 2.15747e-18
1.58354e-05 -7.0199e-06 -9.9051e-19
1.24286e-05 -5.88533e-06 8.18027e-19
3.1304e-06 2.00619e-07 1.84184e-18
1.66015e-05 1.31429e-05 -4.67944e-18
-1.74046e-06 -1.10328e-05 -6.72156e-19
-6.8534e-06 -2.85265e-06 -3.86811e-18
7.57705e-07 -2.53152e-06 -6.75688e-19
-2.11237e-06 1.03568e-05 3.24999e-19
-2.20932e-05 1.74586e-06 3.57796e-18
-7.8124e-06 -2.11944e-05 -1.47392e-18
-5.12928e-06 6.31556e-06 2.1786e-18
8.82065e-06 1.07689e-05 -2.00712e-18
1.71309e-05 -1.22175e-05 2.73414e-18
-2.34916e-05 -1.27369e-05 7.90725e-19
1.11351e-05 -1.78518e-05 9.59123e-19
1.46814e-05 -1.75805e-05 -8.27776e-21
-7.09371e-06 2.50411e-06 -1.16843e-18
-1.26951e-05 -1.8271e-05 1.28839e-18
-2.20749e-05 -3.67327e-06 1.13696e-18
-2.6646e-06 -2.0321e-05 -3.32997e-19
9.85692e-06 -2.04025e-05 2.11038e-18
-6.06428e-06 -1.7325e-05 -5.24597e-19
2.82743e-06 2.01728e-05 1.62021e-18
-1.02513e-05 -1.81617e-05 -2.58067e-18
1.98764e-06 -1.06515e-05 -5.06166e-18
-1.58254e-05 1.1519e-05 -4.8452e-19
-9.86674e-06 -7.99618e-06 -2.52504e-18
-1.80815e-05 -3.35307e-06 -4.99251e-19
1.03217e-05 -6.06354e-06 -2.02528e-18
-2.83172e-06 1.5851e-05 -1.35936e-18
8.13851e-06 -6.09814e-06 6.53482e-18
-1.88586e-05 -8.26702e-06 3.06468e-18
-5.77813e-06 -4.81242e-06 -4.20477e-18
6.02092e-06 4.88604e-06 8.23357e-19
1.37964e-05 1.85217e-05 -4.05928e-18
-1.14135e-05 -7.07894e-06 1.02328e-18
-2.06812e-05 -5.00017e-07 -1.60509e-18
-1.07535e-05 -3.21833e-06 -2.53339e-18
-3.02347e-06 -1.08842e-05 -1.37314e-18
1.18204e-05 1.42616e-05 -3.09105e-18
-7.18902e-06 3.76901e-06 -5.20438e-18
4.5367e-07 -1.3462e-05 6.62538e-19
-2.65521e-05 6.81029e-06 2.09164e-18
1.61024e-05 1.30951e-05 1.12635e-18
2.3338e-06 2.11554e-05 9.58558e-19
-1.56665e-06 2.51151e-06 -2.01674e-18
-5.84815e-06 1.63629e-07 2.18473e-18
2.87321e-06 5.03914e-06 -2.02881e-18
-7.71266e-06 2.28521e-06 -1.01725e-18
-1.34423e-06 -2.45341e-06 3.29173e-19
1.12914e-06 1.35912e-05 -3.03791e-18
2.99992e-06 2.39916e-07 1.46058e-19
-1.25511e-05 3.03326e-06 6.70637e-19
-1.11785e-05 1.23524e-05 4.89637e-19
-2.01666e-06 7.65069e-06 1.5251e-18
-1.8707e-05 1.16588e-05 1.13338e-18
-6.19073e-06 5.90121e-06 1.3416e-18
1.14631e-05 -7.78129e-06 -1.02759e-18
2.3671e-05 -2.35388e-06 -4.05711e-18
-1.39582e-05 7.40669e-06 -2.20324e-18
1.45668e-06 2.98797e-06 -1.9133e-19
1.45777e-05 -2.81221e-06 3.55583e-18
-1.12724e-05 6.80205e-06 -1.50522e-18
-6.40798e-06 3.62935e-06 -3.52174e-18
7.94674e-06 2.57142e-06 1.51765e-19
1.41864e-05 -8.79804e-06 9.73824e-19
-1.13569e-05 6.45278e-06 3.37745e-18
-1.59986e-05 -3.36385e-06 4.96835e-19
-1.09947e-05 -2.81893e-06 3.2264e-18
6.65283e-06 6.62683e-08 3.1876e-18
6.81439e-06 6.93557e-08 4.35317e-18
2.91823e-06 5.47065e-06 1.01506e-18
3.21398e-06 -5.78506e-06 3.38554e-19
-3.27983e-06 5.58333e-06 4.54273e-18
-3.43534e-06 -5.71285e-06 1.85894e-18
6.52704e-06 -4.94957e-06 2.84115e-18
-1.34738e-05 2.167e-06 -2.21687e-18
-1.33221e-05 -2.20952e-06 3.07725e-18
-8.52137e-06 1.05226e-05 1.56364e-19
-8.56922e-06 -1.0563e-05 -5.27193e-19
4.98017e-06 -1.33661e-05 1.52022e-18
4.79819e-06 1.32524e-05 -3.26859e-18
9.61329e-07 1.67166e-05 -1.96927e-18
7.47432e-06 -1.98434e-06 3.18416e-18
1.61517e-06 -2.51062e-06 1.83693e-18
-1.37066e-05 9.25185e-07 1.3403e-18
5.14034e-06 -1.31511e-05 1.16151e-18
4.87072e-06 1.31984e-05 1.17488e-18
3.15763e-06 -5.86359e-08 -2.70824e-18
5.7463e-06 1.57987e-05 -2.61765e-18
-1.46939e-06 -2.61777e-06 1.61821e-19
1.53338e-06 -7.3898e-06 -1.01741e-18
-1.43685e-05 -7.70471e-06 1.80372e-18
-1.40926e-05 -7.5401e-06 5.29986e-19
-1.40604e-05 8.69789e-06 -8.21958e-19
2.1387e-06 -8.26339e-06 4.71546e-18
-1.04427e-06 2.19242e-06 -1.67279e-18
-4.66809e-07 -1.64377e-05 9.7464e-19
-5.05401e-06 -1.56388e-05 1.29386e-18
2.10913e-05 1.96411e-05 7.88039e-19
2.30234e-05 -1.1889e-06 -9.68259e-19
-8.40245e-06 -2.44986e-06 3.53455e-19
-1.46927e-05 -2.61662e-05 1.53785e-19
5.43553e-06 8.92495e-06 -4.1963e-18
-1.61251e-05 1.90281e-06 -4.75728e-19
1.30973e-05 3.7544e-06 -2.1642e-18
-2.95473e-06 -1.24089e-08 1.00683e-18
-3.07336e-06 -5.54081e-06 2.51344e-18
-5.43481e-06 -2.58501e-05 1.553e-18
-6.41671e-06 -1.89536e-08 6.68152e-19
-3.05417e-05 -1.14624e-06 6.44691e-19
1.11793e-05 -1.24237e-05 1.2993e-18
1.64396e-06 2.60171e-06 -1.69721e-18
-8.11043e-08 -1.14177e-05 -1.18495e-18
-6.41645e-06 1.54122e-05 -1.14019e-18
-2.89178e-06 5.68276e-06 2.0025e-18
1.33945e-05 -8.84283e-06 -1.49596e-18
-2.51005e-05 -8.19883e-06 -1.3806e-18
-9.85422e-06 -1.30095e-05 -1.31367e-18
3.30939e-06 5.61428e-06 -1.19971e-18
1.10762e-05 3.31421e-06 2.67857e-18
-3.0965e-06 -4.73991e-06 -1.68268e-18
1.33071e-05 2.43247e-06 3.71874e-18
1.20921e-05 -6.47984e-06 -1.53515e-18
-2.45931e-07 1.79418e-05 -2.44777e-21
5.46147e-06 -8.87943e-06 1.15798e-18
3.15613e-05 1.34586e-06 4.71318e-19
-2.68142e-05 6.98522e-06 4.27845e-18
1.53357e-05 7.65283e-06 1.86824e-18
-4.1766e-06 -1.10509e-05 -8.3351e-19
-9.97705e-06 -5.57026e-06 -2.01614e-18
1.86641e-05 -1.5397e-07 -6.71411e-19
-4.81296e-07 -1.60199e-05 1.00838e-18
-8.18759e-06 -7.14479e-06 -6.61841e-19
6.56772e-06 -1.52263e-05 -9.82653e-19
-3.70597e-07 1.34512e-05 1.34028e-18
5.05083e-06 1.68052e-05 -4.60874e-18
1.13931e-05 -6.54448e-06 1.15992e-18
-1.21807e-05 1.22639e-05 1.61001e-19
1.06654e-05 1.29983e-05 -1.15478e-18
-4.32671e-05 1.03195e-05 -1.22806e-18
-6.73751e-06 1.7203e-05 1.87429e-18
8.31222e-06 -1.00854e-05 1.36595e-18
-4.62225e-06 -1.2168e-05 4.10862e-18
-7.77041e-06 2.87455e-06 1.68882e-18
-1.65043e-05 -4.50868e-06 4.60266e-18
-4.46256e-06 2.60419e-05 1.90112e-18
-8.21408e-06 7.86852e-06 -2.18956e-18
1.35576e-05 -2.98085e-06 -1.3382e-18
-4.43298e-06 -1.65525e-05 6.47083e-19
-9.57486e-06 1.52411e-05 8.21541e-19
-1.43762e-05 8.28501e-06 -2.04768e-18
-1.31946e-05 -9.61667e-06 1.63125e-18
1.20653e-05 -1.39338e-05 -1.82767e-20
-1.75181e-05 -9.29962e-07 -1.46662e-18
7.71457e-06 -2.64286e-05 4.66523e-19
1.25767e-05 -1.22448e-05 1.96868e-18
1.57876e-05 2.77338e-05 -1.60274e-18
1.29506e-06 1.30742e-05 -1.52355e-18
1.87948e-06 -1.64204e-05 6.87766e-18
-2.81448e-05 3.30418e-05 3.46638e-19
-8.16684e-06 -1.55852e-05 -1.48565e-18
1.09538e-05 -4.22611e-06 3.36613e-18
-1.64957e-06 1.65514e-05 5.40411e-18
8.54444e-06 -7.96236e-06 3.35961e-18
8.945e-06 1.56875e-05 -2.96891e-18
1.12671e-05 -9.61414e-07 -3.42186e-19
1.38143e-05 -4.04517e-05 1.25823e-18
-3.80743e-06 -8.30972e-06 -3.34021e-18
-1.48494e-05 6.3787e-06 -4.88154e-19
-1.32584e-05 1.24023e-05 -4.26876e-18
1.40006e-05 9.47284e-06 -3.40302e-19
1.21946e-05 -7.06126e-06 1.31321e-18
9.86633e-06 8.37113e-06 1.50692e-18
-3.59637e-06 -1.71798e-08 -4.87049e-18
9.93719e-06 -1.49122e-05 -6.55861e-19
-1.09113e-05 -1.29873e-05 -1.74366e-19
1.46659e-05 6.37719e-06 -1.82344e-18
8.5077e-06 -8.00873e-06 1.52603e-19
6.11746e-06 -1.60313e-05 4.83666e-19
1.09455e-05 -4.64491e-06 -1.01776e-18
-1.02244e-05 -4.87555e-06 1.52355e-20
8.8085e-07 -1.73569e-05 -4.12819e-18
-1.66487e-05 2.86548e-06 1.32422e-18
1.4712e-06 1.5827e-05 -4.97213e-19
1.34299e-05 4.34961e-06 4.84285e-19
-1.39175e-05 -6.86297e-06 -9.86393e-19
-5.8014e-06 1.64235e-05 -1.59924e-19
-9.73838e-07 -1.56051e-05 5.11407e-18
1.29682e-05 7.87854e-06 5.07753e-18
-1.11152e-06 1.17816e-05 -1.50568e-18
-1.29548e-05 8.71068e-06 -1.15349e-18
1.52934e-05 7.39771e-06 8.06591e-19
-1.10948e-05 -6.54214e-06 2.52867e-18
1.19126e-07 -1.29382e-05 -5.54925e-18
1.19151e-05 1.29194e-05 -4.12133e-18
-1.4579e-05 -9.42937e-06 -1.3526e-18
3.12251e-05 -2.23414e-05 -9.39312e-19
1.17675e-05 -7.0738e-06 6.53575e-19
5.57454e-06 2.76228e-05 2.39678e-18
1.11564e-05 -8.88976e-06 3.48204e-18
-1.45303e-05 5.60471e-05 2.82634e-18
-1.46058e-05 -5.5514e-05 1.03813e-18
3.64846e-05 4.76899e-05 -1.35132e-18
3.60458e-05 -4.76783e-05 -1.20017e-18
5.95703e-05 -2.92556e-08 4.45199e-19
-5.12592e-05 2.07699e-05 1.18994e-18
-5.04277e-05 -2.09868e-05 3.27253e-18
8.13461e-06 7.87007e-06 -2.21619e-18
1.97404e-05 1.47027e-05 2.23329e-18
7.51522e-06 2.19524e-06 -2.35693e-18
1.23386e-05 6.34575e-06 -1.84225e-18
3.20854e-06 1.30789e-05 9.79653e-19
-1.21131e-05 -9.53703e-06 -3.79828e-18
1.12998e-05 -6.67816e-06 1.53411e-19
1.29358e-05 9.42929e-06 1.30913e-18
-2.0624e-06 1.57147e-05 -4.92512e-19
1.98378e-05 -1.34993e-05 3.42785e-18
2.38793e-06 -1.53229e-05 3.62577e-18
1.4659e-05 3.37161e-06 3.72145e-18
1.93337e-05 7.1821e-06 1.52364e-19
9.42496e-06 9.34609e-06 2.38748e-18
1.0414e-05 4.32054e-06 -2.34952e-18
-1.19408e-05 7.03726e-06 1.70217e-19
-1.44672e-05 5.79761e-06 9.94967e-19
1.53989e-05 -7.50553e-06 -2.75648e-18
-1.17945e-05 -6.47434e-06 1.3373e-18
-1.19662e-05 -6.77098e-06 -1.15925e-18
-2.05096e-07 -1.34857e-05 4.00293e-18
-9.92485e-08 -1.36885e-05 1.15852e-18
-1.29111e-05 -6.49818e-07 -1.55439e-19
1.73608e-05 -2.63287e-06 -4.73415e-18
1.18171e-05 7.40744e-06 -3.829e-18
-1.15835e-05 7.02052e-06 6.8465e-21
-1.00679e-05 1.09826e-05 -4.2486e-18
1.04315e-05 -8.97277e-06 3.78877e-18
-7.15756e-06 1.12013e-05 -1.81322e-18
-9.17806e-06 -9.54897e-06 -1.48918e-18
-7.98166e-07 1.36976e-05 -1.15463e-18
-8.18577e-07 1.36138e-05 -1.66277e-18
2.98642e-08 -1.29418e-05 -1.75711e-19
3.95304e-06 -1.27995e-05 -8.28024e-19
-1.11631e-05 -6.42229e-06 1.68829e-18
1.02094e-05 -3.62414e-06 -1.34853e-18
4.17988e-07 1.39215e-05 -2.82072e-18
1.74286e-07 1.20424e-05 -1.60407e-19
-1.54212e-06 1.09057e-05 -1.32869e-18
1.42652e-05 -3.6097e-06 -3.44088e-19
-1.09197e-05 3.45632e-06 -1.85047e-18
2.64536e-06 1.39346e-05 -1.83291e-18
-2.16912e-05 8.50135e-06 -1.54454e-18
6.05453e-06 2.70016e-05 -4.7872e-19
-1.12194e-05 2.95138e-06 8.73492e-21
1.316e-05 -7.78973e-06 1.51247e-18
5.6131e-07 1.36451e-05 -5.8381e-18
-1.31464e-05 4.32884e-06 1.00482e-18
1.62442e-06 -1.06253e-05 -2.19892e-18
5.90447e-07 -3.73989e-05 3.05416e-19
1.29073e-06 1.13777e-05 -2.01258e-18
-1.09739e-05 8.95923e-06 1.99819e-18
1.11341e-05 4.09747e-05 -1.42345e-18
3.15056e-05 2.61302e-05 1.9294e-18
3.61185e-05 -2.47121e-05 -8.99245e-19
9.73889e-06 -6.66399e-06 3.82846e-18
-1.02063e-05 8.99793e-06 -2.14758e-18
-1.29832e-05 -5.12015e-06 -3.25598e-19
-1.26205e-05 -4.3594e-06 1.72177e-19
4.44194e-05 -1.22063e-05 -2.49025e-20
4.53093e-05 9.52775e-06 9.02686e-19
7.15055e-06 2.50712e-06 -1.86467e-19
4.46585e-07 1.2765e-05 -4.53252e-18
5.20214e-08 1.2757e-05 -1.51218e-18
-3.11525e-05 -2.27982e-05 2.0155e-18
7.41242e-06 -1.11581e-05 1.14879e-18
7.78556e-06 8.33733e-06 -4.4149e-18
-1.37109e-05 -2.19769e-06 2.99626e-18
-9.07502e-06 1.10011e-05 -9.89408e-19
-1.21738e-05 5.86313e-06 1.82833e-18
3.08365e-05 2.21185e-05 -1.08371e-18
1.05001e-05 4.63801e-06 3.18472e-18
-3.64939e-06 1.28853e-05 1.70314e-19
-1.10155e-05 -7.53605e-06 2.16726e-18
1.16229e-06 -1.33487e-05 3.49846e-18
-5.76476e-06 -1.23946e-05 -6.68371e-19
-1.11192e-05 -7.56505e-06 1.32518e-18
6.85318e-06 -1.22578e-05 -8.34225e-19
9.21286e-06 -1.10029e-05 6.29066e-18
-1.90222e-06 -3.91374e-05 9.35444e-19
1.67021e-05 -2.64887e-05 3.35468e-18
1.12832e-06 -1.3472e-05 6.29605e-18
1.17963e-05 7.38229e-06 1.15283e-18
-9.36642e-06 -9.53421e-06 -4.32346e-18
-6.35748e-06 1.26568e-05 -4.93872e-19
-3.25262e-06 1.35585e-05 1.66546e-18
1.08719e-05 9.22471e-06 -1.18442e-18
3.896e-06 -1.28713e-05 2.32013e-18
-8.96599e-06 -2.56773e-05 -4.28359e-18
-1.36118e-06 1.65493e-05 -3.45295e-19
9.62214e-06 9.40207e-06 -1.83276e-18
-8.42708e-06 -6.67776e-06 -4.54226e-18
-8.85304e-06 6.94998e-06 -2.69987e-18
2.87354e-05 -1.23471e-05 -1.27468e-18
4.9311e-06 -8.70373e-06 -1.098e-20
-5.40879e-06 -8.12415e-06 -4.50361e-18
1.43287e-05 4.37679e-06 3.06439e-18
8.81786e-06 -3.18115e-05 3.30928e-18
-2.31458e-05 -2.35218e-05 6.83277e-18
1.56226e-05 4.08698e-06 4.25251e-18
-6.04725e-06 -1.17316e-05 -3.38821e-19
1.22546e-05 6.24033e-06 -1.18149e-18
-1.84938e-05 -2.05379e-05 2.20587e-18
7.14119e-06 3.23443e-05 5.77869e-18
3.13439e-05 -4.04841e-05 1.66074e-19
-1.93902e-05 -4.73764e-05 4.08168e-18
1.74291e-05 -3.40667e-05 2.16251e-18
-8.40993e-06 2.88936e-05 3.56871e-19
-4.79418e-06 2.55869e-05 -1.70867e-19
-1.2113e-05 5.80976e-06 9.88014e-21
4.00716e-06 1.59984e-05 1.53581e-18
-1.55439e-06 8.18777e-06 -4.98342e-19
6.67387e-06 2.15088e-06 -2.87764e-18
-2.13922e-06 1.0665e-05 6.9158e-18
-1.58594e-07 1.37897e-05 1.17536e-18
1.0964e-05 6.39123e-06 -1.18371e-18
5.45966e-07 3.72219e-05 1.54758e-18
-9.55897e-06 6.87875e-06 -8.34101e-19
1.05668e-05 -4.06464e-06 3.01768e-18
1.12998e-05 -2.91503e-06 -1.84396e-19
-3.81538e-05 -5.48477e-06 6.24513e-19
-2.29335e-05 1.09135e-05 -1.55341e-18
-2.76864e-05 -3.28291e-05 6.25252e-19
5.7179e-06 5.47386e-06 -8.40951e-19
9.3546e-06 4.85138e-06 -1.86376e-18
1.73935e-05 -2.78036e-06 -3.33934e-19
-5.24895e-06 -8.54409e-06 -2.18087e-18
1.1309e-05 5.57623e-06 -4.19694e-18
4.88203e-06 -1.99147e-05 -8.65955e-19
-8.98416e-06 6.57192e-06 1.51557e-18
-1.47993e-05 -1.41829e-05 1.05271e-18
-3.77003e-06 1.05407e-05 5.03639e-19
-2.20697e-06 1.35855e-05 2.18901e-18
2.291e-05 1.42272e-05 8.63341e-19
2.44267e-05 -1.29603e-05 5.02994e-19
-2.66601e-05 -7.17862e-06 -4.75267e-19
5.01836e-06 5.10872e-06 -3.3833e-18
-3.11809e-06 6.50597e-05 -1.53752e-19
-1.12051e-08 -6.68287e-05 9.21146e-19
3.2939e-05 5.63703e-05 -2.77233e-18
-1.25624e-05 5.46909e-06 2.0351e-18
-1.76732e-05 3.56871e-05 -2.66562e-21
3.31417e-05 -5.44083e-05 -4.66114e-19
-7.56505e-06 -1.17023e-05 -1.49387e-18
5.03938e-05 4.3869e-05 -1.08257e-18
1.59507e-05 -1.18599e-05 5.13788e-19
-2.31312e-06 -1.9733e-05 2.08854e-18
5.28016e-05 -4.28964e-05 3.14628e-19
-4.39378e-06 9.36047e-06 2.16677e-18
-3.38434e-05 -2.14993e-05 2.04167e-18
-2.78649e-05 -5.81819e-05 9.22928e-19
-1.57781e-05 -3.68388e-05 -7.86327e-19
-2.8647e-05 5.91349e-05 -4.64746e-19
-6.78359e-06 4.09328e-05 1.87883e-18
1.06888e-05 2.4804e-05 2.60062e-18
-1.81689e-05 2.33468e-05 -2.99484e-18
-1.69115e-05 -3.4742e-05 2.47696e-18
6.48363e-05 1.13767e-05 1.38855e-18
-1.10351e-05 6.91962e-06 2.35134e-18
-3.92844e-06 1.07285e-05 1.51742e-18
-3.20977e-05 2.31147e-05 1.72605e-18
-1.12326e-05 6.45118e-06 8.461e-19
6.41977e-05 -1.01432e-05 1.52732e-19
-1.00282e-05 5.03215e-06 4.71326e-18
4.6996e-06 -9.42817e-06 3.65271e-18
-4.98485e-05 -3.79836e-05 1.70069e-18
-1.69984e-05 3.68707e-05 9.45045e-19
-5.10362e-05 3.77121e-05 -7.67085e-19
1.54166e-05 3.39399e-05 -3.01428e-19
-9.59581e-06 6.81308e-06 3.66963e-18
-1.35556e-05 1.62991e-05 1.0371e-18
-2.41698e-05 3.03572e-05 -3.52796e-18
-3.78987e-05 -4.88705e-06 4.24085e-18
-6.3984e-07 1.0661e-05 -2.36656e-18
-2.55999e-05 -3.04847e-05 3.52946e-18
-3.92122e-05 6.93394e-06 7.07825e-18
-1.49363e-05 3.46449e-05 1.06049e-18
-1.15272e-05 4.61143e-05 -5.08549e-18
-1.18534e-05 2.6284e-05 9.47063e-19
-2.23574e-05 1.80146e-05 -2.77196e-18
1.64163e-05 -4.03357e-06 3.91031e-18
2.56635e-05 -1.37664e-06 1.18925e-18
8.89981e-06 5.42218e-06 -3.48598e-19
-8.09882e-06 -5.30582e-05 2.44974e-18
-5.00088e-05 -1.95021e-05 -1.7458e-19
2.49898e-05 3.24419e-07 1.54241e-18
3.79667e-05 -7.32991e-06 1.5662e-21
-6.84094e-06 -8.68498e-06 -2.66027e-18
-3.29403e-05 2.31611e-05 -1.85903e-18
-2.95209e-05 3.38176e-05 1.55614e-19
4.01347e-05 -1.4461e-05 9.36416e-19
-1.86857e-05 -3.1661e-05 1.0264e-18
-1.90199e-05 3.1416e-05 -3.5479e-19
-3.69022e-05 -1.3072e-06 -1.38574e-18
-1.67833e-05 3.30106e-05 3.3183e-18
-3.67853e-05 3.8189e-07 1.7527e-18
4.57592e-05 1.63861e-05 8.75345e-19
3.69325e-05 1.35969e-06 -7.14506e-19
3.47232e-05 -1.77895e-05 -3.00874e-18
1.01289e-05 -4.88121e-05 -3.59003e-19
1.83517e-05 -3.19696e-05 1.89676e-18
1.82271e-05 3.19659e-05 -2.09754e-18
9.91927e-06 4.76939e-05 -3.18464e-18
4.99723e-05 -1.40915e-05 4.94384e-18
3.20366e-05 1.58679e-05 6.51331e-18
3.07897e-05 8.41202e-06 3.82854e-18
P_ext 3 563 float
-1.04695e-06 3.53994e-07 3.84388e-20
9.9088e-10 3.87718e-08 9.18621e-20
-9.64634e-08 -9.07154e-08 1.80898e-20
-3.05146e-08 2.81668e-08 -1.27624e-20
2.66169e-08 5.10086e-10 -4.59309e-20
3.17481e-08 -1.28847e-07 -8.02758e-20
-1.03079e-06 -3.58277e-07 1.69873e-20
-7.56247e-08 -8.57923e-08 2.05589e-20
2.10377e-07 3.7262e-09 -5.54123e-21
7.68058e-08 -7.21412e-09 3.37839e-20
6.81483e-07 1.59731e-07 5.12989e-21
3.74536e-08 -1.09639e-07 -6.00166e-20
8.58295e-08 1.02169e-07 -1.04329e-19
-8.84329e-09 8.00334e-08 3.38538e-20
2.40411e-08 8.909e-09 6.3244e-20
-1.34483e-07 -2.20149e-09 8.08714e-20
-1.68038e-08 5.27394e-08 1.29216e-20
8.10685e-08 -1.22318e-08 9.8301e-20
9.31175e-08 1.66068e-07 -3.67761e-20
-1.24929e-07 1.25983e-08 3.61049e-20
-4.69011e-08 -1.76949e-07 1.5277e-20
1.54762e-09 3.13427e-10 -1.34709e-20
1.38368e-07 1.12651e-08 4.60339e-20
8.80895e-08 -1.0171e-07 7.78833e-21
-1.27618e-07 -2.05497e-08 7.53909e-20
-2.40583e-08 -6.98363e-08 -5.55745e-20
7.83453e-07 -6.40903e-08 9.85187e-21
9.59798e-08 8.09187e-08 -4.42849e-20
-2.86653e-07 -2.277e-07 -5.15689e-21
1.68416e-08 3.16917e-09 -2.97597e-20
-1.28138e-07 -2.28186e-08 7.59829e-20
5.60233e-08 -3.64558e-07 -1.75972e-20
5.88732e-07 -6.02936e-07 2.19507e-20
1.25333e-09 -2.7645e-08 -5.40859e-20
-7.43883e-09 2.12603e-08 -2.44542e-20
-2.3077e-08 -1.52023e-08 -1.83129e-20
3.05407e-09 1.52654e-08 4.91693e-20
-2.33317e-08 3.97369e-09 -1.32508e-20
9.26874e-08 -1.00808e-07 1.02048e-20
5.74491e-07 6.28347e-07 -9.85455e-21
3.66961e-07 -1.66257e-07 -6.28111e-20
5.67439e-09 -1.39795e-08 -1.39712e-20
-9.18934e-09 -1.22416e-08 4.3972e-20
-1.27293e-07 2.61463e-08 2.62657e-20
3.64072e-07 -3.57535e-07 4.90459e-21
-3.39233e-07 1.22107e-07 1.08426e-19
-4.28589e-08 -1.87023e-07 2.30953e-20
7.73311e-08 1.87849e-07 -6.02839e-20
-1.22101e-07 3.1928e-08 1.85784e-20
-2.10113e-07 3.26799e-07 3.74343e-20
3.72441e-07 1.82395e-07 2.47288e-20
3.23395e-07 -1.06364e-07 -4.83594e-20
-9.52563e-09 2.26393e-08 -1.05015e-20
-2.53079e-07 -2.27103e-07 -1.19226e-19
-2.48348e-08 3.27991e-09 -2.63877e-20
-5.42815e-07 3.18771e-07 2.22737e-20
-6.90731e-09 -2.11715e-08 7.60614e-21
7.20661e-08 -3.34204e-07 7.63268e-21
-2.15771e-08 -4.70104e-09 4.35405e-20
5.65395e-08 1.13365e-07 -4.96899e-20
-3.01693e-08 -9.15328e-09 -1.80201e-20
-3.18545e-08 -2.99189e-08 1.36946e-20
7.06398e-07 3.10998e-07 7.44638e-21
-6.09351e-10 6.16875e-08 -5.01959e-20
9.53184e-09 -4.11581e-08 -1.03555e-20
1.60196e-08 -9.15707e-08 4.96478e-20
-6.35921e-09 -2.99813e-08 3.42349e-20
-7.32878e-08 -1.8624e-08 1.58995e-20
-8.53138e-08 1.04387e-07 -1.79818e-20
2.28801e-08 -8.30662e-09 4.15166e-20
-9.39542e-09 -2.32913e-08 -1.11674e-20
-2.4563e-08 -3.60089e-09 1.35442e-20
-4.22876e-08 3.91777e-07 9.78266e-20
-7.52688e-08 3.80178e-08 1.03303e-22
-7.30255e-08 1.24906e-07 1.53918e-22
-7.34571e-07 8.63427e-08 3.89457e-20
3.18427e-11 -5.81676e-08 -5.84848e-20
-7.07128e-08 -5.92481e-08 -1.5713e-20
2.97777e-08 7.26619e-08 -1.32643e-20
2.81528e-07 5.6283e-08 -3.35852e-20
4.03494e-07 -3.51071e-07 -1.07181e-19
1.1059e-08 2.70827e-08 -2.39325e-20
2.72905e-08 8.47099e-09 7.72012e-21
-3.75963e-07 2.78154e-07 4.49454e-20
4.38854e-07 5.33543e-08 -8.16235e-21
-6.65177e-08 5.94822e-07 1.08454e-19
-2.30597e-08 -1.19206e-07 -3.42878e-20
8.09453e-08 5.70105e-08 -2.63216e-20
3.50189e-07 3.69301e-07 -1.00541e-20
6.34476e-09 2.82096e-09 8.98214e-24
-6.74926e-08 3.36092e-07 1.28904e-20
5.73115e-09 -3.06845e-09 1.29967e-20
-4.05219e-08 2.76374e-08 2.80678e-21
8.74834e-08 3.56027e-08 5.75719e-20
-3.23619e-07 1.00044e-07 5.34027e-20
1.87831e-07 3.3005e-07 7.47041e-21
1.16852e-07 -5.27586e-07 -6.01318e-20
2.74678e-08 7.20107e-08 -6.29492e-20
-4.96979e-08 -2.95703e-08 -1.83177e-20
4.11813e-08 1.31705e-07 -6.54818e-20
2.7382e-07 4.65954e-08 -5.48219e-21
-1.81772e-07 3.75531e-07 4.80905e-20
4.83207e-07 -1.57926e-07 -7.60884e-21
-2.68135e-08 5.85419e-08 2.35486e-20
5.13894e-08 5.21935e-08 -1.86483e-20
-3.0545e-08 -7.04623e-08 -8.13478e-20
-1.22885e-08 -5.36847e-08 -1.88527e-20
1.42135e-07 1.70391e-08 9.04991e-20
-1.03677e-07 4.84963e-07 1.24153e-19
-2.39763e-08 1.47932e-08 5.64296e-21
7.08964e-08 1.05066e-07 1.50867e-20
-3.50578e-08 -4.97673e-07 2.30708e-21
5.03455e-07 1.51164e-07 -1.99626e-20
3.42767e-08 -6.05705e-08 -2.89993e-20
-7.82551e-08 -8.95086e-09 4.49409e-20
-3.22002e-07 -1.2924e-07 -1.77568e-20
1.59217e-08 1.70292e-08 6.443e-20
-5.1149e-07 -1.7888e-07 -1.17159e-19
1.61638e-08 -1.69823e-08 -8.60547e-22
-4.97361e-08 -3.49704e-07 5.04406e-21
2.15832e-07 8.1904e-09 2.02668e-20
-1.92234e-08 1.64009e-08 -5.14968e-21
5.16079e-09 2.3571e-08 1.02737e-20
1.44395e-08 -6.32262e-08 -2.15266e-20
2.50779e-08 -1.17262e-08 -2.37977e-20
4.65615e-10 2.53993e-08 1.30166e-20
2.19247e-08 -2.73758e-09 1.02574e-20
4.09062e-08 -6.03497e-08 -5.95493e-23
-1.04728e-07 -5.3415e-07 7.1798e-21
2.76667e-07 -2.12982e-07 -5.30897e-20
8.94175e-10 3.37041e-08 5.87215e-20
-2.33297e-08 -4.21904e-09 5.50917e-21
-7.58951e-09 -2.60921e-08 -2.40451e-20
-1.92376e-08 -1.35806e-08 -7.33143e-20
-2.58649e-07 3.23212e-07 -2.01377e-20
-2.97114e-10 -2.56686e-08 -4.59154e-20
-3.23535e-07 5.08001e-07 7.68369e-20
-1.21592e-07 5.59166e-08 -3.8807e-20
1.70976e-08 1.8436e-08 7.12622e-21
-2.20992e-08 -1.29219e-08 -7.24655e-20
1.5775e-07 3.80725e-07 2.1483e-21
9.10172e-08 8.11196e-08 -6.83197e-20
2.20923e-07 -7.2857e-08 5.12625e-21
1.24333e-08 -6.79777e-08 -6.82248e-20
-4.00852e-07 -3.69378e-07 -4.51269e-20
-3.86517e-08 6.67955e-08 3.14895e-20
1.00362e-07 5.35347e-08 -1.27751e-22
1.46759e-07 -5.05247e-08 -4.52751e-22
6.33787e-08 -1.2661e-07 -4.40732e-20
2.51246e-07 -1.15853e-07 -3.07742e-20
1.67161e-07 -7.89022e-08 5.39925e-20
1.67986e-08 -1.39246e-08 2.09542e-20
2.91428e-07 2.30516e-07 -3.57346e-20
-4.2187e-08 -1.21996e-07 -2.62307e-20
-5.18128e-08 -4.43309e-08 -3.44363e-20
-8.47153e-09 -2.22356e-08 -6.02067e-20
1.16387e-08 8.70432e-08 1.2882e-20
-3.89791e-07 2.7946e-08 9.88881e-20
-1.42397e-07 -3.72091e-07 -1.81017e-20
-6.13244e-08 7.81682e-08 5.48307e-21
1.20591e-07 1.60713e-07 -1.85996e-20
2.99964e-07 -2.12754e-07 -3.75626e-20
-4.38508e-07 -2.34451e-07 -3.69788e-20
1.95079e-07 -3.17572e-07 -2.81288e-24
2.54021e-07 -3.12466e-07 -4.29753e-20
-7.48147e-08 7.40981e-09 1.30909e-20
-2.22999e-07 -3.22698e-07 -1.52207e-20
-3.90351e-07 -6.11788e-08 1.5335e-20
-4.65212e-08 -3.56227e-07 2.73906e-20
1.73649e-07 -3.58918e-07 2.06798e-22
3.63221e-09 -4.93387e-08 1.82802e-20
5.16022e-08 3.43655e-07 1.01108e-20
-1.83833e-07 -3.21594e-07 3.95831e-20
-1.72458e-08 -7.89092e-08 -5.30396e-20
-2.65743e-07 1.98947e-07 1.01309e-20
-5.2062e-08 -1.70661e-08 -2.6287e-20
-4.05591e-08 -2.78757e-08 2.86372e-21
1.06063e-07 -5.43925e-08 1.77392e-20
-1.45938e-08 2.0662e-08 -1.58984e-20
5.6373e-08 -7.11573e-08 9.95471e-20
-3.30672e-07 -1.47059e-07 2.81769e-21
-4.38017e-08 -5.89945e-08 -2.92374e-20
4.57776e-08 6.2584e-08 3.10995e-20
2.39107e-07 3.30055e-07 -7.37728e-20
-8.46352e-08 -3.90282e-08 3.96326e-20
-3.67833e-07 -8.27591e-09 2.23856e-20
-4.71468e-08 -4.37276e-08 -4.75423e-20
-2.68269e-09 -6.3328e-08 3.38104e-20
4.61827e-08 2.32917e-08 -6.96415e-20
-5.32627e-08 5.25028e-08 -4.22538e-20
-8.896e-09 -9.32244e-08 3.92643e-20
-4.91023e-07 1.20951e-07 8.75375e-20
2.69167e-07 2.29626e-07 -6.34759e-20
3.59653e-08 3.73981e-07 1.12805e-19
-2.16853e-08 7.45447e-09 -2.37141e-20
-7.23443e-08 2.24802e-09 2.63957e-20
3.32132e-08 6.34118e-08 -6.04573e-20
-2.62906e-08 -6.45702e-09 -3.43581e-20
3.11192e-09 -2.24156e-08 -5.33169e-21
-1.44678e-08 9.86784e-08 -8.19611e-21
1.60306e-08 1.68924e-08 2.19318e-21
-1.82739e-07 4.03945e-08 5.4125e-21
-1.85329e-07 2.02216e-07 7.61483e-20
-2.00085e-08 1.85645e-08 2.0505e-22
-3.35283e-07 2.02348e-07 2.27993e-20
-8.60604e-09 2.85705e-08 -2.7263e-21
9.0489e-08 -3.24141e-08 -5.62813e-21
4.20288e-07 -3.86668e-08 4.47658e-20
-5.26842e-08 3.3336e-08 -7.99304e-21
2.1307e-08 9.82167e-09 3.87187e-20
5.48344e-08 -3.43157e-08 -1.32547e-20
-9.40757e-08 3.13541e-08 -2.61284e-20
-6.84647e-08 1.79475e-08 -1.09888e-19
2.40735e-08 -7.03409e-09 1.01863e-20
2.22661e-07 -1.35413e-07 7.56201e-21
-8.76288e-08 5.58724e-08 8.39817e-21
-2.61771e-07 -5.4587e-08 2.73133e-21
-5.56343e-08 -2.92936e-08 -2.5904e-20
2.12802e-08 -1.41296e-08 3.41293e-20
2.35731e-08 1.65635e-08 1.30756e-20
-5.95213e-09 2.68009e-08 6.29608e-20
-2.41638e-09 -3.02391e-08 -3.65667e-20
-2.45392e-08 1.2542e-08 3.44481e-20
-2.74635e-08 -1.40679e-08 -3.62983e-20
6.88001e-08 -2.60014e-08 4.43691e-20
-2.51727e-08 -6.92516e-09 -6.11598e-20
-2.51192e-08 6.6705e-09 -1.52981e-20
-6.18953e-09 2.49578e-08 -2.67377e-20
-6.71984e-09 -2.55048e-08 2.08015e-20
1.65996e-08 -1.85854e-08 2.9021e-20
1.59587e-08 1.77874e-08 5.80744e-20
9.63133e-09 2.65725e-07 -4.61115e-20
5.15565e-08 -4.25306e-08 2.88515e-20
1.20329e-08 -2.26934e-08 2.64988e-21
-2.00399e-07 7.40681e-09 8.02821e-20
1.90283e-08 -1.80625e-08 -3.12751e-21
1.77659e-08 1.83435e-08 8.72103e-20
2.72569e-08 -5.93117e-10 3.83516e-20
9.19904e-08 2.60396e-07 -2.575e-20
-1.3791e-08 -2.2553e-08 -1.01729e-19
2.98211e-08 -6.82526e-08 -5.7723e-20
-2.23636e-07 -1.23733e-07 2.05264e-20
-4.91429e-08 -3.19006e-08 2.4255e-20
-2.24453e-07 1.33121e-07 -3.83202e-20
1.99055e-08 -2.0407e-08 1.84017e-20
-9.54058e-09 2.12051e-08 -7.92409e-21
-5.24907e-09 -2.57314e-07 1.01656e-20
-8.42417e-08 -2.54851e-07 1.51433e-20
3.86232e-07 3.676e-07 2.96648e-20
4.13127e-07 -2.34605e-08 -4.50887e-20
-2.93042e-08 6.38352e-09 3.71791e-20
-2.763e-07 -4.88261e-07 -1.5004e-20
6.5881e-08 1.1296e-07 -5.01585e-20
-2.64853e-07 3.11941e-08 5.25681e-21
1.90139e-07 5.3168e-08 2.05905e-21
-2.59806e-08 -1.05085e-10 2.61702e-20
5.65427e-10 -2.70043e-08 3.1411e-20
-2.3592e-09 -1.84713e-08 3.50512e-20
-2.30293e-08 -1.3703e-08 -4.18933e-20
-5.72883e-07 -2.17094e-08 -1.9793e-20
1.80057e-07 -2.03644e-07 -7.61333e-21
1.22437e-08 2.37496e-08 -6.31445e-20
6.25951e-09 -1.137e-07 -3.68266e-20
-1.07401e-07 2.54347e-07 -4.06376e-20
2.202e-09 2.85735e-08 4.95865e-20
1.92132e-07 -1.37483e-07 -4.14234e-20
-1.68999e-08 -7.38984e-09 -5.13392e-20
-1.63383e-07 -2.1235e-07 -4.34136e-20
2.25129e-08 1.14558e-08 9.36852e-20
5.32764e-08 5.15065e-08 2.07746e-20
-3.79061e-08 -5.90495e-08 -5.50319e-20
2.33234e-08 -7.54257e-09 1.3091e-20
7.89459e-08 -5.51135e-08 4.78915e-21
-4.68897e-09 4.40199e-08 5.32988e-20
6.49457e-08 -1.09462e-07 -4.95442e-20
5.93047e-07 2.98813e-08 -2.46032e-20
-5.02418e-07 1.3293e-07 9.64752e-20
4.20741e-08 2.93188e-08 -1.33579e-20
-6.22454e-08 -1.4986e-07 7.64548e-21
-9.46166e-08 -6.17255e-08 -1.06651e-20
3.07966e-07 -3.09531e-09 -5.39831e-21
2.63297e-09 -5.87633e-08 -3.4533e-20
-7.69667e-08 -2.7175e-08 8.04567e-21
1.04955e-07 -2.50763e-07 3.28171e-20
8.36754e-09 1.01016e-07 -2.62554e-21
8.6141e-08 2.67135e-07 -6.44732e-20
1.03384e-07 -5.44818e-08 -2.62632e-20
-1.88585e-07 2.0073e-07 5.36703e-20
1.73411e-07 2.14281e-07 -3.57842e-20
-1.0908e-08 4.87688e-09 -3.28574e-20
1.79561e-09 4.65498e-08 2.92941e-20
3.51197e-09 -2.11223e-08 -3.69044e-20
-1.67214e-08 -1.38697e-08 3.5245e-20
-5.75929e-08 4.5666e-08 -2.28794e-21
-2.64223e-07 -6.26018e-08 5.66755e-20
9.2391e-10 2.9698e-08 4.85317e-20
-6.91046e-08 2.06281e-08 -2.89635e-20
1.8721e-07 -2.71406e-08 -8.14274e-21
-8.00553e-08 -2.59241e-07 -4.36223e-20
-1.57674e-07 2.51107e-07 3.83472e-20
-4.45225e-08 2.05785e-08 -5.06385e-20
-2.11318e-07 -1.49523e-07 -1.51157e-20
4.78355e-08 -2.24348e-08 -1.09729e-20
-2.86529e-07 -1.40301e-08 -5.02348e-21
1.40266e-07 -4.9495e-07 -3.70364e-20
1.91647e-07 -2.01252e-07 4.09342e-20
2.93042e-07 5.19561e-07 -1.51665e-20
-2.74583e-09 6.28002e-08 -1.59536e-20
2.51547e-08 -2.6103e-07 3.37557e-20
-1.01935e-08 6.17417e-09 -3.81887e-20
-1.35853e-07 -2.53501e-07 2.26989e-20
4.55838e-08 -3.90132e-08 2.8914e-20
-2.62092e-08 2.64042e-07 1.83238e-20
6.36326e-08 -1.86785e-08 -1.32422e-20
1.44797e-07 2.58044e-07 -3.11751e-21
1.45026e-07 -3.38606e-09 8.80806e-20
2.647e-07 -7.81016e-07 -3.4409e-20
-5.60889e-08 -1.04419e-07 -5.22896e-20
-2.33917e-07 1.01923e-07 7.59244e-21
-3.27777e-08 1.61053e-08 -1.09371e-20
2.22062e-07 1.48712e-07 -2.06293e-20
1.5828e-07 -8.73836e-08 -2.08401e-20
8.3669e-08 3.67587e-08 -5.79769e-20
-1.71117e-08 1.44601e-08 -6.05029e-20
1.58758e-07 -2.45257e-07 2.28678e-20
-1.69253e-07 -2.11211e-07 -9.21613e-20
2.18377e-07 8.61374e-08 -5.42755e-20
5.55542e-08 -3.4337e-08 1.02294e-20
1.02091e-07 -2.53743e-07 -4.35177e-20
1.19974e-07 -2.27426e-08 4.91653e-20
-1.16425e-07 -4.64491e-08 -4.64442e-20
-5.06219e-09 -4.72582e-08 -3.79652e-20
-2.66864e-07 3.70576e-08 5.13882e-20
2.80384e-08 2.34106e-07 -6.67502e-20
1.82566e-07 4.26017e-08 4.36727e-20
-2.07383e-07 -9.28227e-08 -2.05717e-20
-1.01974e-07 2.61474e-07 -7.70867e-21
-2.33081e-08 -2.28082e-07 -4.68216e-21
6.02999e-08 2.94301e-08 -2.89558e-20
-3.91393e-08 1.10309e-07 -5.99929e-20
-1.8649e-07 1.33753e-07 1.78543e-20
2.39505e-07 1.20807e-07 -3.32442e-20
-1.09035e-07 -3.42528e-08 -2.83006e-20
-2.64402e-08 -1.12282e-07 3.85473e-20
1.83026e-07 2.12753e-07 -5.68677e-20
-4.30269e-08 -1.95178e-08 2.95818e-20
6.01821e-07 -4.32736e-07 -2.67337e-20
1.2745e-07 -8.91683e-08 -3.65376e-20
1.04078e-07 5.1003e-07 1.21987e-19
1.34389e-07 -1.29199e-07 2.59571e-20
-2.90548e-07 1.10649e-06 2.83047e-20
-2.92232e-07 -1.09571e-06 6.47315e-20
7.17986e-07 9.43756e-07 9.0584e-21
7.0908e-07 -9.43502e-07 -3.25327e-20
1.1753e-06 -4.58528e-10 -4.58906e-21
-1.01316e-06 4.07613e-07 3.43075e-20
-9.96359e-07 -4.12045e-07 5.36279e-20
4.84546e-08 2.6285e-08 -2.94472e-20
3.10904e-08 1.50965e-08 7.24249e-20
9.03098e-08 1.21617e-08 3.59027e-20
1.59438e-07 8.52085e-08 4.6719e-21
4.72952e-08 1.88393e-07 -3.86219e-20
-1.70928e-07 -1.46852e-07 -6.97461e-20
8.60791e-08 -7.93512e-08 4.66573e-20
1.83661e-07 1.47396e-07 -1.23348e-22
-4.24743e-08 2.31874e-07 -8.96916e-20
3.01543e-08 -1.48115e-08 3.74807e-20
4.32273e-08 -2.22517e-07 -3.31041e-20
5.6481e-08 3.80846e-08 -1.85982e-20
3.3126e-07 1.16044e-07 -7.78521e-21
7.42633e-09 2.38468e-08 2.68205e-20
1.28031e-07 4.19047e-08 1.76201e-20
-1.58457e-07 8.76523e-08 9.54977e-20
-2.16951e-07 7.50521e-08 -1.00447e-20
4.2956e-08 -2.94292e-08 -3.52194e-20
-1.38514e-07 -6.40972e-08 -2.05838e-20
-1.52191e-07 -9.01454e-08 -1.18754e-19
-1.33404e-08 -1.52778e-07 -4.92771e-21
6.01825e-10 -1.75468e-07 -1.80074e-20
-1.93191e-07 -8.35113e-09 8.73191e-20
2.86736e-07 -4.45201e-08 -3.86658e-20
1.5469e-07 9.53349e-08 -1.39983e-19
-1.28007e-07 8.73227e-08 1.0441e-20
-5.77187e-08 2.82542e-08 2.35192e-20
1.4438e-07 -1.29369e-07 3.86851e-20
-1.0848e-07 1.68907e-07 4.3444e-20
-1.33629e-07 -1.40763e-07 -7.47081e-20
-1.26638e-08 1.83983e-07 -7.98589e-20
-2.75266e-08 1.55282e-07 -1.01112e-19
4.53734e-09 -1.12733e-07 3.3819e-20
5.81591e-08 -1.87975e-07 -1.0551e-19
-9.50611e-08 -6.10052e-08 -4.39509e-20
1.31705e-07 -3.756e-08 2.03147e-20
3.22227e-10 1.83756e-07 -8.27636e-20
-3.97521e-09 1.17412e-07 -4.16079e-20
-2.9508e-08 1.32071e-07 -1.0368e-20
2.16155e-07 -5.31954e-08 -3.36622e-20
-4.53974e-08 4.33434e-08 -3.93983e-20
4.8993e-08 1.83905e-07 -8.55593e-20
-2.96088e-08 1.8688e-08 -2.41581e-20
1.09165e-07 5.06197e-07 6.3929e-20
-5.3549e-08 2.89074e-08 8.10119e-21
5.68153e-08 -2.95749e-08 -1.34329e-20
1.63425e-08 1.56272e-07 -8.35738e-20
-1.83271e-07 4.35332e-08 4.4189e-20
-5.63458e-09 -7.94466e-08 1.27861e-20
7.56222e-09 -7.22167e-07 1.186e-20
2.19374e-08 1.32479e-07 -7.81896e-20
-1.36914e-07 1.30252e-07 4.94126e-20
2.12614e-07 7.90766e-07 3.41623e-20
1.02111e-08 6.72457e-09 9.28322e-20
8.82231e-09 -6.41337e-09 -4.68498e-20
1.03076e-07 -8.03812e-08 3.38897e-20
-1.46312e-07 1.31002e-07 2.02294e-20
-1.75619e-07 -5.18768e-08 -1.28142e-20
-1.80469e-07 -5.92718e-08 6.18558e-20
-3.59659e-09 2.21384e-09 2.71031e-20
-2.48476e-09 -1.19779e-09 1.41868e-20
8.4298e-08 1.71284e-08 1.78181e-20
2.67546e-08 1.23032e-07 2.80641e-20
-3.09223e-09 1.22333e-07 7.58696e-21
-6.04872e-07 -4.39381e-07 -3.84712e-20
1.07368e-07 -1.68873e-07 -3.07138e-20
5.43106e-08 1.95616e-08 -3.23246e-20
-1.99187e-07 -2.14275e-08 1.03639e-19
-1.25945e-07 1.6639e-07 3.86022e-20
-1.62594e-07 7.64529e-08 5.387e-21
5.93843e-07 4.26685e-07 -2.67083e-20
5.87665e-08 3.86299e-08 -3.95615e-20
-5.78023e-08 1.88654e-07 -5.37388e-20
-1.13946e-07 -9.75992e-08 -3.61391e-20
2.83457e-08 -1.48619e-07 -6.72643e-20
-9.22038e-08 -1.75427e-07 -2.20923e-22
-1.4775e-07 -1.01273e-07 -3.86342e-20
1.01264e-07 -1.7959e-07 -2.33582e-20
1.21472e-07 -1.66935e-07 2.88113e-20
-3.85003e-08 -7.53589e-07 3.65232e-20
3.09838e-07 -4.95597e-07 -2.20613e-21
1.48017e-08 -1.80416e-07 -4.68558e-21
1.27227e-07 9.68546e-08 -9.10377e-20
-1.14285e-07 -1.38727e-07 -7.54581e-20
-9.91184e-08 1.84788e-07 -2.83544e-20
-6.08959e-08 1.81114e-07 -4.87307e-20
1.32659e-07 1.3737e-07 -4.44538e-20
6.50371e-08 -1.69404e-07 1.30632e-20
-1.68156e-07 -4.79461e-07 -5.48073e-20
3.78985e-09 5.82587e-08 5.28941e-20
1.34304e-07 1.38199e-07 -4.68222e-20
-7.24006e-08 -3.56517e-08 -5.78825e-20
-6.01595e-08 3.28407e-08 -1.43998e-22
5.38384e-07 -2.35857e-07 -1.01325e-20
6.68672e-08 -1.10511e-07 -1.53223e-19
-6.34663e-08 -1.08576e-07 -5.63397e-21
2.40864e-08 -2.08335e-09 3.45009e-20
2.07624e-09 -9.12786e-09 2.99345e-20
-6.75388e-09 -6.67723e-09 1.1691e-20
2.96576e-08 1.94442e-08 1.06723e-20
-9.29801e-08 -1.7552e-07 4.33941e-20
1.43077e-07 5.738e-08 -5.2222e-20
-3.48169e-07 -3.82768e-07 6.3928e-20
1.31203e-09 1.12203e-08 6.60222e-20
1.29999e-09 2.0095e-09 -3.60072e-20
2.51267e-09 -3.28434e-10 4.46141e-20
3.34104e-07 -6.59781e-07 5.05839e-20
-1.3887e-08 1.63555e-08 2.49345e-22
-3.18436e-09 1.98139e-08 -5.12965e-20
-1.43862e-07 5.11399e-08 -2.4652e-21
-4.97186e-09 5.84346e-08 3.20163e-20
-3.16075e-08 9.37144e-08 -1.03771e-20
6.51538e-08 2.77771e-09 -6.08145e-20
1.4696e-08 5.63359e-08 1.35023e-20
-3.85157e-09 7.79011e-08 -1.06196e-20
1.11666e-07 6.07517e-08 -5.53253e-21
7.95682e-09 7.18796e-07 6.0477e-20
-1.03893e-07 9.83065e-08 -4.41418e-20
7.78996e-08 -5.23779e-08 2.8767e-20
4.49717e-08 -4.10644e-08 -2.13589e-20
-7.37236e-07 -1.01225e-07 -7.28117e-21
-2.10112e-08 8.32973e-09 2.42457e-20
-5.36819e-07 -6.35007e-07 -1.96032e-20
9.75286e-09 2.61212e-08 3.15449e-20
9.41573e-08 1.83077e-08 -9.72254e-20
2.80328e-07 -3.63815e-08 -5.24315e-21
-6.40825e-08 -1.05302e-07 -1.85225e-20
1.22524e-07 3.51412e-08 -2.40418e-20
6.36782e-10 -3.11813e-08 -4.82747e-20
-6.91014e-08 7.995e-08 -8.58291e-20
-2.6426e-08 -1.68099e-08 -1.5436e-20
-6.22851e-08 1.26537e-07 1.30554e-20
1.12688e-08 7.9865e-08 -5.25732e-21
1.83111e-08 1.3421e-08 7.28556e-20
1.81721e-08 -1.28928e-08 3.74803e-20
-4.99779e-07 -1.36149e-07 -1.32904e-19
5.50567e-08 2.05434e-08 -5.29955e-20
-6.62874e-08 1.28301e-06 2.89907e-20
-4.60994e-09 -1.31817e-06 4.81856e-20
6.48822e-07 1.1107e-06 1.41999e-20
-6.73358e-08 5.34194e-08 1.08519e-20
-3.43805e-07 6.91899e-07 1.193e-20
6.52549e-07 -1.07204e-06 4.28898e-20
-1.07905e-07 -1.74645e-07 -2.76511e-21
9.90924e-07 8.68274e-07 1.44931e-20
1.16488e-08 -2.06613e-08 -5.36197e-21
-1.21382e-08 -2.09357e-08 5.95473e-20
1.03873e-06 -8.48942e-07 4.32405e-20
-6.3651e-08 1.25175e-07 1.8441e-20
-6.52484e-07 -4.15548e-07 -5.11945e-20
-5.5022e-07 -1.14681e-06 4.08232e-20
-3.08174e-07 -7.08962e-07 4.60882e-20
-5.65639e-07 1.1659e-06 3.57639e-20
-1.33672e-07 7.90088e-07 -2.25619e-21
-9.42285e-10 2.76663e-08 3.25798e-20
-3.43212e-07 4.41876e-07 -5.17575e-20
-3.28589e-07 -6.72518e-07 5.79529e-20
1.27774e-06 2.22972e-07 -1.18456e-20
-9.99121e-08 8.49421e-08 2.11474e-20
-2.34673e-09 5.61191e-08 2.63229e-20
-6.18061e-07 4.47434e-07 8.31048e-20
-1.10804e-07 5.9138e-08 6.27534e-20
1.26515e-06 -1.98325e-07 -1.89447e-20
-8.45689e-08 5.67701e-08 2.93682e-20
6.16045e-08 -1.27406e-07 -2.30291e-20
-9.84543e-07 -7.47772e-07 8.3959e-20
-3.31981e-07 7.11318e-07 3.66276e-20
-1.0084e-06 7.42281e-07 6.92839e-20
2.94642e-07 6.57321e-07 3.60282e-20
-1.08472e-07 8.62271e-08 -2.03355e-20
-3.01002e-08 1.70473e-08 -2.55431e-21
-1.64833e-09 -2.62561e-09 1.35811e-20
4.20584e-10 -2.26366e-09 1.41782e-20
8.24697e-09 8.65899e-08 -2.39985e-20
-2.41794e-09 2.62965e-09 8.26837e-20
1.2823e-09 3.25045e-09 1.45426e-20
2.18725e-09 -9.41632e-10 -8.14305e-21
-1.29025e-09 1.02572e-08 -8.50071e-20
-2.26716e-07 4.94644e-07 5.17504e-20
-1.70531e-08 1.22391e-08 -4.066e-20
2.93889e-08 -1.85167e-08 7.17382e-20
2.88076e-08 -1.66883e-08 3.46243e-20
8.29927e-08 3.23876e-08 -3.94747e-20
-7.80742e-10 -8.77883e-09 2.73326e-21
-7.83802e-09 -3.97398e-09 -1.03888e-19
2.87905e-08 1.6795e-08 5.90115e-20
7.32685e-07 -1.41211e-07 -4.87044e-21
-9.49288e-08 -1.21001e-07 -4.16268e-20
-6.41476e-07 4.47224e-07 -6.7517e-20
-5.74337e-07 6.55063e-07 2.69188e-20
7.74184e-07 -2.79587e-07 -6.12911e-20
-3.71289e-09 -1.07776e-08 -3.01128e-21
-4.07769e-09 1.1071e-08 -1.37306e-20
-1.21661e-08 2.09095e-09 -5.41608e-20
-7.97938e-09 8.13575e-09 3.10651e-21
-1.10284e-08 -2.33875e-09 -2.14068e-20
2.03956e-09 2.59408e-09 2.73851e-20
1.18372e-08 -2.91422e-09 -7.6351e-20
4.98956e-09 -3.51042e-09 4.58e-20
-3.49646e-09 -2.51806e-09 1.36229e-20
7.57175e-09 -7.78364e-09 3.50156e-20
7.61377e-09 8.01544e-09 7.03249e-20
-3.51779e-09 2.21299e-09 2.99744e-20
3.84929e-09 -7.7356e-10 -1.60538e-20
6.3858e-09 3.53851e-09 9.09841e-20
1.38327e-08 4.93887e-09 1.10528e-20
SCALARS rr_necrosis float
LOOKUP_TABLE default
0
0
0
0
0
0
0
0
0
0
0
0
0
0
0
0
0
0
0
0
0
0
0
0
0
0
0
0
0
0
0
0
0
0
0
0
0
0
0
0
0
0
0
0
0
0
0
0
0
0
0
0
0
0
0
0
0
0
0
0
0
0
0
0
0
0
0
0
0
0
0
0
0
0
0
0
0
0
0
0
0
0
0
0
0
0
0
0
0
0
0
0
0
0
0
0
0
0
0
0
0
0
0
0
0
0
0
0
0
0
0
0
0
0
0
0
0
0
0
0
0
0
0
0
0
0
0
0
0
0
0
0
0
0
0
0
0
0
0
0
0
0
0
0
0
0
0
0
0
0
0
0
0
0
0
0
0
0
0
0
0
0
0
0
0
0
0
0
0
0
0
0
0
0
0
0
0
0
0
0
0
0
0
0
0
0
0
0
0
0
0
0
0
0
0
0
0
0
0
0
0
0
0
0
0
0
0
0
0
0
0
0
0
0
0
0
0
0
0
0
0
0
0
0
0
0
0
0
0
0
0
0
0
0
0
0
0
0
0
0
0
0
0
0
0
0
0
0
0
0
0
0
0
0
0
0
0
0
0
0
0
0
0
0
0
0
0
0
0
0
0
0
0
0
0
0
0
0
0
0
0
0
0
0
0
0
0
0
0
0
0
0
0
0
0
0
0
0
0
0
0
0
0
0
0
0
0
0
0
0
0
0
0
0
0
0
0
0
0
0
0
0
0
0
0
0
0
0
0
0
0
0
0
0
0
0
0
0
0
0
0
0
0
0
0
0
0
0
0
0
0
0
0
0
0
0
0
0
0
0
0
0
0
0
0
0
0
0
0
0
0
0
0
0
0
0
0
0
0
0
0
0
0
0
0
0
0
0
0
0
0
0
0
0
0
0
0
0
0
0
0
0
0
0
0
0
0
0
0
0
0
0
0
0
0
0
0
0
0
0
0
0
0
0
0
0
0
0
0
0
0
0
0
0
0
0
0
0
0
0
0
0
0
0
0
0
0
0
0
0
0
0
0
0
0
0
0
0
0
0
0
0
0
0
0
0
0
0
0
0
0
0
0
0
0
0
0
0
0
0
0
0
0
0
0
0
0
0
0
0
0
0
0
0
0
0
0
0
0
0
0
0
0
0
0
0
0
0
0
0
0
0
0
0
0
0
0
0
0
0
0
0
0
0
0
0
0
0
0
0
0
0
0
0
0
0
0
0
0
0
0
0
0
0
0
0
0
0
0
0
0
0
0
0
0
0
0
0
0
0
0
0
0
SCALARS rr_protein float
LOOKUP_TABLE default
1
1
1
1
1
1
1
1
1
1
1
1
1
1
1
1
1
1
1
1
1
1
1
1
1
1
1
1
1
1
1
1
1
1
1
1
1
1
1
1
1
1
1
1
1
1
1
1
1
1
1
1
1
1
1
1
1
1
1
1
1
1
1
1
1
1
1
1
1
1
1
1
1
1
1
1
1
1
1
1
1
1
1
1
1
1
1
1
1
1
1
1
1
1
1
1
1
1
1
1
1
1
1
1
1
1
1
1
1
1
1
1
1
1
1
1
1
1
1
1
1
1
1
1
1
1
1
1
1
1
1
1
1
1
1
1
1
1
1
1
1
1
1
1
1
1
1
1
1
1
1
1
1
1
1
1
1
1
1
1
1
1
1
1
1
1
1
1
1
1
1
1
1
1
1
1
1
1
1
1
1
1
1
1
1
1
1
1
1
1
1
1
1
1
1
1
1
1
1
1
1
1
1
1
1
1
1
1
1
1
1
1
1
1
1
1
1
1
1
1
1
1
1
1
1
1
1
1
1
1
1
1
1
1
1
1
1
1
1
1
1
1
1
1
1
1
1
1
1
1
1
1
1
1
1
1
1
1
1
1
1
1
1
1
1
1
1
1
1
1
1
1
1
1
1
1
1
1
1
1
1
1
1
1
1
1
1
1
1
1
1
1
1
1
1
1
1
1
1
1
1
1
1
1
1
1
1
1
1
1
1
1
1
1
1
1
1
1
1
1
1
1
1
1
1
1
1
1
1
1
1
1
1
1
1
1
1
1
1
1
1
1
1
1
1
1
1
1
1
1
1
1
1
1
1
1
1
1
1
1
1
1
1
1
1
1
1
1
1
1
1
1
1
1
1
1
1
1
1
1
1
1
1
1
1
1
1
1
1
1
1
1
1
1
1
1
1
1
1
1
1
1
1
1
1
1
1
1
1
1
1
1
1
1
1
1
1
1
1
1
1
1
1
1
1
1
1
1
1
1
1
1
1
1
1
1
1
1
1
1
1
1
1
1
1
1
1
1
1
1
1
1
1
1
1
1
1
1
1
1
1
1
1
1
1
1
1
1
1
1
1
1
1
1
1
1
1
1
1
1
1
1
1
1
1
1
1
1
1
1
1
1
1
1
1
1
1
1
1
1
1
1
1
1
1
1
1
1
1
1
1
1
1
1
1
1
1
1
1
1
1
1
1
1
1
1
1
1
1
1
1
1
1
1
1
1
1
1
1
1
1
1
1
1
1
1
1
1
1
1
1
1
1
1
1
1
1
1
1
1
1
1
1
SCALARS rr_(S_ext) float
LOOKUP_TABLE default
0.972516
0.972498
0.972504
0.972496
0.972511
0.972503
0.972515
0.972504
0.972506
0.972501
0.972488
0.972504
0.972505
0.972503
0.972503
0.972504
0.9725
0.972501
0.972502
0.972502
0.972506
0.972514
0.972502
0.972503
0.972502
0.9725
0.972503
0.972503
0.972503
0.972508
0.972505
0.972502
0.972505
0.972507
0.972511
0.972507
0.972506
0.972512
0.972505
0.972505
0.972502
0.972506
0.972506
0.972505
0.972496
0.972504
0.972504
0.972506
0.972503
0.972501
0.972502
0.972505
0.972506
0.972507
0.972507
0.972508
0.972511
0.972506
0.972511
0.972502
0.972499
0.972505
0.97251
0.972507
0.972505
0.972505
0.972499
0.972501
0.972502
0.972498
0.972507
0.972507
0.972503
0.972506
0.972505
0.972501
0.972508
0.972505
0.9725
0.972502
0.972506
0.972512
0.972501
0.972504
0.972507
0.972502
0.972503
0.972507
0.972496
0.972514
0.972506
0.972514
0.972506
0.972505
0.972507
0.9725
0.972508
0.972501
0.972508
0.972505
0.972506
0.972508
0.972503
0.972499
0.972501
0.972501
0.972502
0.972505
0.972503
0.972495
0.972502
0.972499
0.972501
0.9725
0.972501
0.972507
0.972514
0.972509
0.972514
0.972507
0.972503
0.972502
0.972497
0.972503
0.972496
0.972503
0.972512
0.972501
0.972508
0.972506
0.972505
0.972497
0.972501
0.972497
0.972509
0.97251
0.972509
0.972506
0.972501
0.97251
0.972508
0.972506
0.972505
0.972501
0.97251
0.9725
0.972505
0.972506
0.972504
0.972504
0.972505
0.972497
0.972501
0.972505
0.972501
0.972497
0.972504
0.97251
0.972509
0.972502
0.972506
0.972501
0.9725
0.9725
0.972508
0.972501
0.972509
0.97251
0.972502
0.972508
0.972506
0.972506
0.972501
0.972504
0.972506
0.972502
0.972506
0.972505
0.972509
0.972503
0.972504
0.972501
0.972501
0.972507
0.972506
0.972502
0.972503
0.972505
0.972508
0.972501
0.972506
0.972508
0.972505
0.972502
0.972497
0.9725
0.9725
0.972501
0.972497
0.972506
0.972497
0.972504
0.972503
0.972501
0.972505
0.972501
0.972506
0.972507
0.972506
0.972497
0.972508
0.972505
0.972501
0.972502
0.972504
0.972506
0.972503
0.972505
0.972495
0.972495
0.972493
0.972495
0.972495
0.972495
0.972502
0.972502
0.972502
0.972501
0.972502
0.972508
0.972507
0.972504
0.972501
0.972492
0.972507
0.972503
0.972503
0.972493
0.972502
0.972492
0.972501
0.972505
0.972505
0.972505
0.972502
0.972491
0.972504
0.972503
0.972506
0.972499
0.972502
0.97251
0.972504
0.972503
0.972503
0.972492
0.972495
0.972508
0.972495
0.972512
0.972502
0.972492
0.972504
0.972502
0.972495
0.972506
0.972508
0.972503
0.972495
0.972504
0.9725
0.972503
0.972507
0.972508
0.972503
0.972503
0.972502
0.972509
0.972505
0.972504
0.972507
0.972505
0.972504
0.972502
0.972505
0.972507
0.972506
0.972507
0.972502
0.972511
0.972506
0.972501
0.972501
0.972502
0.972508
0.972507
0.972503
0.972506
0.972507
0.972508
0.972508
0.972505
0.972508
0.972508
0.972497
0.972507
0.97251
0.972504
0.972504
0.97251
0.972508
0.972504
0.972504
0.972504
0.972507
0.972505
0.972514
0.972501
0.972505
0.972505
0.972504
0.972505
0.972507
0.972497
0.972507
0.972507
0.972505
0.972506
0.972507
0.972505
0.972504
0.972509
0.972508
0.972506
0.972506
0.972506
0.972507
0.972506
0.972506
0.972504
0.972506
0.972504
0.972506
0.972505
0.972506
0.972509
0.972488
0.972506
0.972507
0.972506
0.972454
0.972455
0.972453
0.972453
0.972451
0.972459
0.97246
0.972505
0.972508
0.972501
0.972504
0.972503
0.972506
0.972506
0.972506
0.972506
0.972509
0.972506
0.972508
0.972505
0.972501
0.972503
0.972505
0.972506
0.97251
0.972506
0.972505
0.972506
0.972504
0.972503
0.972502
0.972504
0.972506
0.972507
0.972504
0.972503
0.972504
0.972504
0.972505
0.972505
0.972503
0.972505
0.972503
0.972504
0.972505
0.972503
0.972504
0.972503
0.972506
0.972508
0.972497
0.972505
0.972507
0.972505
0.972507
0.972504
0.972491
0.972503
0.972506
0.972514
0.972513
0.972514
0.972504
0.972503
0.972507
0.972504
0.97252
0.972519
0.972501
0.972505
0.972505
0.972495
0.972503
0.972504
0.972507
0.972507
0.972505
0.972487
0.972504
0.972503
0.972506
0.972505
0.972506
0.972505
0.972506
0.972507
0.972505
0.972509
0.972505
0.972506
0.972506
0.972506
0.972506
0.972506
0.972506
0.972499
0.972506
0.972503
0.972504
0.972504
0.972499
0.972503
0.972502
0.97251
0.972506
0.972506
0.972505
0.972503
0.972505
0.972498
0.972506
0.972515
0.972514
0.972487
0.972511
0.972507
0.972505
0.972507
0.972502
0.9725
0.972502
0.972506
0.972506
0.972489
0.972505
0.972506
0.972504
0.972501
0.972507
0.972517
0.972501
0.972504
0.972506
0.972504
0.972506
0.972505
0.972504
0.972505
0.972504
0.972505
0.972508
0.97251
0.9725
0.972501
0.972515
0.972519
0.972511
0.972506
0.972494
0.972509
0.972506
0.972512
0.972511
0.972511
0.972515
0.972502
0.972508
0.972518
0.972504
0.972518
0.972505
0.972511
0.972498
0.972493
0.972513
0.972506
0.972505
0.972505
0.972505
0.972507
0.972504
0.972503
0.972517
0.972503
0.972515
0.972486
0.972504
0.97251
0.972512
0.972511
0.972503
0.972511
0.972511
0.972512
0.972509
0.972499
0.972508
0.972507
0.972511
0.972504
0.972511
0.972511
0.972513
0.972485
0.972503
0.972495
0.972519
0.972512
0.972505
0.972505
0.972505
0.972506
0.972505
0.972513
0.972509
0.972512
0.972516
0.972508
0.972508
0.972516
0.972513
0.972511
0.972507
SCALARS rr_(P_ext) float
LOOKUP_TABLE default
0.0205329
0.0204355
0.020444
0.0204371
0.0204109
0.0204442
0.0205332
0.0204384
0.0204522
0.0204358
0.0205265
0.0204384
0.0204404
0.0204346
0.0204199
0.0204426
0.020431
0.0204395
0.0204565
0.0204465
0.0204478
0.0203774
0.0204477
0.0204463
0.0204466
0.0204378
0.0205129
0.0204429
0.0204831
0.0203971
0.0204407
0.0204829
0.0205143
0.0204029
0.0204001
0.020403
0.020396
0.0204013
0.0204409
0.020514
0.0204833
0.0203956
0.0203957
0.0204407
0.0205049
0.0204817
0.0204545
0.0204506
0.0204438
0.0204891
0.0204856
0.0204732
0.0204122
0.020473
0.020413
0.020502
0.0203998
0.0204729
0.0203999
0.020446
0.0204314
0.0204234
0.0205067
0.0204239
0.0204232
0.0204311
0.0204311
0.0204378
0.0204471
0.0204351
0.0204124
0.0204125
0.0204834
0.0204281
0.0204437
0.0205184
0.0204181
0.0204312
0.0204378
0.020471
0.0204911
0.0204079
0.0204273
0.0204939
0.0204803
0.0205039
0.020443
0.0204296
0.0205048
0.0203821
0.0204731
0.0203823
0.0204176
0.0204322
0.0204722
0.0204865
0.020491
0.020436
0.0204183
0.0204412
0.0204621
0.020478
0.0204941
0.0204385
0.0204368
0.0204366
0.0204261
0.020442
0.0204942
0.020434
0.0204459
0.0205018
0.0204974
0.0204391
0.0204371
0.0204727
0.0203999
0.0204914
0.0204002
0.0204723
0.0204587
0.020421
0.0204355
0.0204294
0.0204333
0.0204191
0.0204033
0.020436
0.020491
0.0204722
0.0204124
0.0204361
0.0204278
0.0204358
0.0204779
0.0203998
0.0204964
0.0204397
0.0204272
0.0203999
0.0204768
0.0204356
0.0204572
0.0204358
0.0204918
0.0204375
0.020437
0.0204439
0.0204442
0.020465
0.0204508
0.0204355
0.0204831
0.0204402
0.0204358
0.020436
0.0204331
0.0204758
0.0204755
0.0204404
0.0204504
0.0204824
0.0205025
0.0204856
0.0204759
0.0204365
0.0204759
0.020476
0.0204831
0.0204757
0.0204173
0.0204729
0.0204858
0.0204323
0.0204727
0.0204265
0.0204174
0.0204384
0.0204119
0.0204365
0.020483
0.0204361
0.0204362
0.0204766
0.0204294
0.0204864
0.0204294
0.020426
0.020417
0.020436
0.0204293
0.02049
0.0204728
0.020483
0.0204359
0.0204398
0.0204393
0.0204279
0.0204356
0.0204315
0.0204354
0.0204553
0.0204703
0.020428
0.0204829
0.0204274
0.0204312
0.0204785
0.0204221
0.0204353
0.0204213
0.0204341
0.0204371
0.0204272
0.0204647
0.0204333
0.0204693
0.0204261
0.0204335
0.0204335
0.0204346
0.0204342
0.0204341
0.0204342
0.0204352
0.0204206
0.0204208
0.0204205
0.0204204
0.0204129
0.0204128
0.0204654
0.0204349
0.020438
0.0204511
0.0204199
0.0204195
0.0204377
0.02047
0.0204383
0.020436
0.0204643
0.020422
0.0204648
0.020427
0.0204387
0.0204641
0.0204689
0.0204914
0.0204906
0.0204272
0.0204933
0.0204414
0.0204694
0.0204559
0.0204384
0.0204337
0.0203951
0.0204339
0.020494
0.0204693
0.020438
0.0204384
0.0204705
0.0204338
0.0204568
0.0203952
0.0204692
0.0204333
0.0204299
0.0204393
0.0204201
0.0204298
0.0204123
0.0204405
0.0205004
0.0205039
0.020415
0.0204476
0.0204384
0.0204647
0.0204218
0.0204323
0.0204692
0.0204321
0.0204618
0.0204366
0.0204617
0.0204698
0.0203877
0.0204164
0.0204196
0.0204198
0.0204352
0.020461
0.020404
0.0204303
0.0204501
0.0204607
0.0204638
0.020415
0.0204644
0.0204175
0.0204627
0.0205047
0.0204612
0.0204923
0.0204258
0.0204643
0.0203878
0.0204627
0.020428
0.0204654
0.0204289
0.0204629
0.020443
0.0205083
0.0204449
0.0204646
0.0204154
0.0204651
0.0204501
0.0204289
0.0204352
0.0204628
0.0204611
0.020457
0.020426
0.0204613
0.0204384
0.0204429
0.0204125
0.0204611
0.0204575
0.0204487
0.0204565
0.0204621
0.0204562
0.020423
0.0204386
0.0204571
0.0204647
0.0204359
0.0204357
0.0204616
0.0204126
0.0205299
0.0204432
0.0204913
0.0204482
0.0205815
0.0205813
0.0205807
0.020581
0.0205806
0.0205817
0.0205813
0.0204255
0.0204066
0.0204401
0.0204505
0.020456
0.0204565
0.0204366
0.0204571
0.0204576
0.0204064
0.0204565
0.0204215
0.0204731
0.020422
0.0204444
0.0204507
0.0204569
0.0204148
0.0204433
0.02045
0.0204432
0.0204499
0.0204573
0.0204713
0.0204507
0.0204441
0.0204212
0.0204551
0.0204582
0.0204555
0.0204513
0.0204444
0.0204365
0.0204556
0.0204366
0.0204452
0.020451
0.0204382
0.020445
0.0204567
0.020429
0.0204491
0.0204075
0.0205046
0.0204255
0.020423
0.0204443
0.0204489
0.0204314
0.0205287
0.0204443
0.0204493
0.0205078
0.0203883
0.0203881
0.0204433
0.0204561
0.0204481
0.0204551
0.0203735
0.0203735
0.0204381
0.0204381
0.0204385
0.020529
0.0204576
0.0204276
0.0204511
0.0204519
0.0204511
0.0205305
0.0204295
0.0204566
0.0204436
0.0204436
0.020452
0.0204502
0.020452
0.0204512
0.0205134
0.0204921
0.0204502
0.0204434
0.020449
0.0204524
0.0204497
0.0204485
0.020449
0.0205046
0.0204198
0.0204556
0.0204316
0.020429
0.0205052
0.0204439
0.0204448
0.0204125
0.0203889
0.020389
0.0204164
0.0204578
0.0204438
0.0205062
0.0203908
0.0203757
0.0203758
0.0205316
0.0204013
0.020397
0.0204448
0.020418
0.0204403
0.0204352
0.0204287
0.0204264
0.0204384
0.0205289
0.0204424
0.0204324
0.0204278
0.020519
0.0204002
0.0205095
0.0204282
0.020435
0.0204633
0.0204408
0.0204388
0.0204116
0.0204375
0.0204117
0.0204434
0.0204277
0.0203986
0.020398
0.0205059
0.020434
0.0205347
0.0205329
0.0205368
0.0204296
0.0205301
0.0205388
0.0204523
0.0205358
0.0204075
0.0204076
0.0205343
0.0204485
0.0205131
0.0205353
0.0205149
0.0205356
0.020515
0.0204008
0.0205094
0.0205297
0.0205345
0.0204392
0.0204243
0.0205165
0.020439
0.0205382
0.0204359
0.0204479
0.0205363
0.0205179
0.0205377
0.0205315
0.0204452
0.0204059
0.0203774
0.0203787
0.0204342
0.0203777
0.0203777
0.0203782
0.0203857
0.0205076
0.0203993
0.0204158
0.0204058
0.0204354
0.0203838
0.0203838
0.0204041
0.0205326
0.0204488
0.0205314
0.020511
0.0205103
0.020392
0.0203923
0.0203929
0.0203927
0.0203921
0.0203791
0.0203927
0.0203837
0.0203772
0.0203918
0.0203917
0.0203768
0.0203788
0.0203834
0.0203935
SCALARS rr_(S) float
LOOKUP_TABLE default
0.94593
0.945854
0.945864
0.945853
0.945852
0.945864
0.945929
0.945862
0.945871
0.945857
0.945899
0.945862
0.945863
0.945858
0.94585
0.945864
0.945854
0.945859
0.94587
0.945864
0.945869
0.945836
0.945865
0.945865
0.945864
0.945857
0.945905
0.945863
0.945887
0.945842
0.945864
0.945886
0.945908
0.945844
0.945846
0.945844
0.94584
0.945848
0.945864
0.945908
0.945886
0.945839
0.945839
0.945863
0.945894
0.945887
0.945871
0.94587
0.945864
0.945889
0.945888
0.945883
0.945849
0.945884
0.94585
0.945903
0.945846
0.945883
0.945846
0.945863
0.945852
0.945854
0.945908
0.945855
0.945853
0.945858
0.945852
0.945858
0.945865
0.945854
0.945849
0.945849
0.945887
0.945857
0.945865
0.945907
0.945854
0.945858
0.945858
0.945878
0.945895
0.945851
0.945853
0.945894
0.945889
0.945899
0.945863
0.945859
0.945894
0.945839
0.945883
0.945839
0.945852
0.945859
0.945884
0.945886
0.945897
0.945857
0.945854
0.945864
0.945877
0.945889
0.945893
0.945857
0.945858
0.945857
0.945853
0.945865
0.945894
0.94585
0.945863
0.945894
0.945893
0.945858
0.945857
0.945885
0.945849
0.945898
0.945849
0.945884
0.945872
0.945849
0.945853
0.945855
0.945851
0.945849
0.945849
0.945857
0.945897
0.945883
0.945847
0.945853
0.945852
0.945853
0.945889
0.945846
0.945901
0.945863
0.945852
0.945846
0.945888
0.945862
0.945874
0.945857
0.945899
0.945857
0.945862
0.945866
0.945864
0.945877
0.945869
0.945853
0.945885
0.945863
0.945857
0.945853
0.945858
0.945889
0.945888
0.94586
0.94587
0.945885
0.945896
0.945886
0.945887
0.945857
0.945888
0.945889
0.945886
0.945887
0.945851
0.945883
0.945887
0.945858
0.945884
0.945853
0.945851
0.945862
0.945851
0.945859
0.945888
0.945857
0.945857
0.945887
0.945858
0.945888
0.945855
0.945855
0.945853
0.945857
0.945858
0.945896
0.945883
0.945886
0.945853
0.945858
0.945858
0.945852
0.945853
0.945859
0.945853
0.945871
0.945879
0.945852
0.945888
0.945852
0.945859
0.945887
0.945854
0.945853
0.945855
0.94586
0.945858
0.945853
0.945877
0.94586
0.945879
0.945855
0.94585
0.94585
0.945849
0.94585
0.94585
0.94585
0.945858
0.945849
0.945849
0.945849
0.945849
0.945851
0.94585
0.945877
0.945857
0.94585
0.945871
0.94585
0.94585
0.945851
0.945878
0.94585
0.945857
0.945877
0.945853
0.945878
0.945853
0.945849
0.945877
0.945878
0.945895
0.945888
0.945853
0.945899
0.945863
0.945879
0.945871
0.94585
0.94585
0.945841
0.94585
0.945902
0.945878
0.94585
0.945861
0.945879
0.94585
0.945874
0.945841
0.945879
0.94585
0.945856
0.945858
0.94585
0.945859
0.94585
0.945862
0.945897
0.945899
0.945853
0.945867
0.945862
0.94588
0.945853
0.945858
0.945878
0.945859
0.945877
0.945862
0.945878
0.945878
0.945839
0.945851
0.945848
0.945848
0.945857
0.945878
0.945845
0.945856
0.94587
0.945877
0.94588
0.945852
0.945877
0.945853
0.94588
0.945894
0.945877
0.945899
0.945854
0.945877
0.945839
0.945879
0.945855
0.945877
0.945856
0.945879
0.945865
0.945913
0.945863
0.945878
0.94585
0.945877
0.945869
0.945858
0.945853
0.945879
0.945878
0.945874
0.945856
0.945877
0.945862
0.945864
0.945852
0.945878
0.945874
0.945869
0.945874
0.945878
0.945874
0.945855
0.945861
0.945874
0.945877
0.945861
0.945861
0.945877
0.945852
0.945902
0.945866
0.945895
0.945869
0.945901
0.945901
0.9459
0.945899
0.945897
0.945905
0.945906
0.945855
0.945847
0.94586
0.945869
0.94587
0.945874
0.945862
0.945874
0.945874
0.945848
0.945874
0.945855
0.945883
0.945849
0.945864
0.94587
0.945874
0.945854
0.945866
0.945869
0.945866
0.945868
0.945872
0.945879
0.945869
0.945866
0.945854
0.945871
0.945872
0.945871
0.945869
0.945866
0.945861
0.945871
0.945861
0.945865
0.945869
0.945862
0.945864
0.945872
0.945855
0.945869
0.945847
0.945894
0.945855
0.945855
0.945866
0.94587
0.945857
0.945903
0.945864
0.94587
0.945912
0.945842
0.945843
0.945864
0.945871
0.945869
0.945871
0.94584
0.945839
0.945859
0.945862
0.945862
0.945907
0.945871
0.945855
0.945871
0.945872
0.94587
0.9459
0.945856
0.945871
0.945866
0.945866
0.945871
0.945869
0.945871
0.945871
0.945907
0.945898
0.945869
0.945866
0.945869
0.945871
0.94587
0.945869
0.945869
0.945896
0.945852
0.94587
0.945858
0.945856
0.945896
0.945864
0.945863
0.945852
0.945836
0.945836
0.94585
0.945872
0.945866
0.945896
0.945837
0.945836
0.945836
0.945901
0.945847
0.945841
0.945866
0.945853
0.94586
0.945856
0.945854
0.945856
0.945863
0.945902
0.945864
0.945859
0.945855
0.945907
0.945843
0.945917
0.945853
0.94586
0.945878
0.945862
0.945863
0.945847
0.94586
0.945847
0.945865
0.945856
0.945843
0.945844
0.945898
0.945856
0.94593
0.945932
0.945927
0.945858
0.945907
0.945926
0.945872
0.945928
0.94585
0.94585
0.94593
0.945865
0.94591
0.945933
0.945908
0.945933
0.945908
0.945847
0.945899
0.945906
0.945928
0.945864
0.945854
0.945909
0.945863
0.945924
0.94586
0.945866
0.945933
0.945908
0.945931
0.9459
0.945865
0.945848
0.945834
0.945835
0.945858
0.945834
0.945834
0.945835
0.945837
0.945898
0.945843
0.945851
0.945849
0.945859
0.945837
0.945837
0.94585
0.9459
0.945867
0.945908
0.945919
0.945911
0.945836
0.945836
0.945837
0.945837
0.945836
0.945837
0.945841
0.945839
0.945838
0.945839
0.945839
0.945839
0.945836
0.945838
0.945839
SCALARS rr_(P) float
LOOKUP_TABLE default
0.0234614
0.0234036
0.0234088
0.0234046
0.0233889
0.0234089
0.0234615
0.0234055
0.0234137
0.0234039
0.0234573
0.0234054
0.0234066
0.0234031
0.0233942
0.023408
0.023401
0.023406
0.0234162
0.0234103
0.0234111
0.0233685
0.023411
0.0234102
0.0234104
0.0234051
0.0234495
0.0234081
0.023432
0.0233804
0.0234069
0.0234318
0.0234503
0.023384
0.0233823
0.023384
0.0233797
0.0233831
0.0234069
0.0234502
0.0234321
0.0233795
0.0233795
0.0234068
0.0234447
0.0234312
0.023415
0.0234128
0.0234087
0.0234355
0.0234334
0.0234261
0.0233897
0.023426
0.0233901
0.0234431
0.0233822
0.023426
0.0233822
0.0234099
0.0234012
0.0233964
0.0234459
0.0233967
0.0233963
0.0234011
0.023401
0.0234051
0.0234106
0.0234034
0.0233898
0.0233898
0.0234321
0.0233993
0.0234087
0.0234527
0.0233933
0.0234011
0.0234051
0.0234248
0.0234367
0.0233871
0.0233987
0.0234383
0.0234303
0.0234442
0.0234082
0.0234002
0.0234447
0.0233713
0.0234261
0.0233714
0.0233929
0.0234017
0.0234256
0.0234339
0.0234366
0.023404
0.0233934
0.0234072
0.0234196
0.023429
0.0234384
0.0234055
0.0234045
0.0234044
0.023398
0.0234076
0.0234385
0.0234027
0.0234099
0.0234429
0.0234403
0.0234058
0.0234046
0.0234258
0.0233823
0.0234369
0.0233824
0.0234256
0.0234175
0.0233949
0.0234036
0.0234
0.0234022
0.0233937
0.0233843
0.023404
0.0234366
0.0234255
0.0233897
0.023404
0.023399
0.0234038
0.0234289
0.0233821
0.0234398
0.0234063
0.0233987
0.0233822
0.0234283
0.0234038
0.0234167
0.0234038
0.0234371
0.0234049
0.0234046
0.0234087
0.0234089
0.0234213
0.0234129
0.0234036
0.0234319
0.0234066
0.0234039
0.0234039
0.0234023
0.0234277
0.0234275
0.0234066
0.0234127
0.0234315
0.0234434
0.0234334
0.0234277
0.0234043
0.0234278
0.0234279
0.0234319
0.0234276
0.0233927
0.023426
0.0234335
0.0234018
0.0234259
0.0233982
0.0233928
0.0234054
0.0233895
0.0234043
0.0234319
0.0234041
0.0234041
0.0234282
0.0234001
0.0234339
0.0234
0.023398
0.0233925
0.023404
0.0234
0.023436
0.0234259
0.0234318
0.0234039
0.0234063
0.0234059
0.0233991
0.0234037
0.0234013
0.0234036
0.0234155
0.0234244
0.0233991
0.0234318
0.0233988
0.0234011
0.0234293
0.0233957
0.0234035
0.0233951
0.0234029
0.0234047
0.0233987
0.0234211
0.0234024
0.0234238
0.023398
0.0234023
0.0234024
0.023403
0.0234028
0.0234027
0.0234028
0.0234035
0.0233946
0.0233948
0.0233946
0.0233945
0.02339
0.02339
0.0234215
0.0234033
0.023405
0.0234131
0.0233942
0.023394
0.0234049
0.0234242
0.0234052
0.023404
0.0234209
0.0233955
0.0234211
0.0233985
0.0234054
0.0234207
0.0234236
0.0234368
0.0234363
0.0233987
0.023438
0.0234073
0.0234239
0.0234159
0.0234053
0.0234025
0.0233792
0.0234026
0.0234384
0.0234238
0.023405
0.0234054
0.0234245
0.0234025
0.0234164
0.0233793
0.0234237
0.0234022
0.0234003
0.023406
0.0233943
0.0234003
0.0233897
0.0234067
0.0234421
0.0234442
0.0233913
0.023411
0.0234055
0.0234211
0.0233954
0.0234018
0.0234238
0.0234016
0.0234194
0.0234044
0.0234194
0.0234241
0.0233747
0.0233922
0.023394
0.0233941
0.0234035
0.023419
0.0233846
0.0234006
0.0234125
0.0234188
0.0234206
0.0233914
0.0234209
0.0233929
0.02342
0.0234446
0.023419
0.0234374
0.0233979
0.0234209
0.0233747
0.02342
0.0233992
0.0234215
0.0233997
0.0234201
0.0234082
0.0234469
0.0234093
0.023421
0.0233916
0.0234213
0.0234124
0.0233998
0.0234034
0.02342
0.023419
0.0234165
0.023398
0.0234191
0.0234055
0.0234081
0.0233899
0.023419
0.0234168
0.0234116
0.0234162
0.0234196
0.0234161
0.0233962
0.0234056
0.0234166
0.0234211
0.023404
0.0234039
0.0234193
0.0233899
0.0234593
0.0234084
0.0234368
0.0234113
0.0234895
0.0234894
0.023489
0.0234892
0.023489
0.0234896
0.0234894
0.0233976
0.0233862
0.0234064
0.0234127
0.0234159
0.0234163
0.0234044
0.0234166
0.0234169
0.0233861
0.0234163
0.0233953
0.0234261
0.0233955
0.023409
0.0234128
0.0234165
0.0233912
0.0234084
0.0234124
0.0234083
0.0234123
0.0234167
0.023425
0.0234128
0.0234089
0.0233951
0.0234154
0.0234172
0.0234156
0.0234132
0.023409
0.0234043
0.0234157
0.0234044
0.0234095
0.023413
0.0234053
0.0234094
0.0234164
0.0233998
0.0234119
0.0233867
0.0234445
0.0233977
0.0233962
0.023409
0.0234117
0.0234012
0.0234587
0.023409
0.023412
0.0234466
0.0233751
0.023375
0.0234084
0.023416
0.0234113
0.0234154
0.0233661
0.0233661
0.0234053
0.0234053
0.0234055
0.0234589
0.0234169
0.023399
0.0234131
0.0234135
0.0234131
0.0234597
0.0234001
0.0234163
0.0234086
0.0234085
0.0234136
0.0234125
0.0234136
0.0234131
0.0234498
0.0234373
0.0234125
0.0234084
0.0234118
0.0234138
0.0234122
0.0234115
0.0234118
0.0234445
0.0233942
0.0234157
0.0234014
0.0233998
0.0234449
0.0234088
0.0234093
0.0233898
0.0233754
0.0233754
0.0233921
0.023417
0.0234087
0.0234455
0.0233766
0.0233675
0.0233675
0.0234603
0.0233831
0.0233804
0.0234093
0.0233932
0.0234066
0.0234035
0.0233996
0.0233982
0.0234055
0.0234588
0.0234079
0.0234018
0.0233991
0.0234531
0.0233823
0.0234476
0.0233993
0.0234034
0.0234203
0.0234069
0.0234057
0.0233892
0.0234049
0.0233893
0.0234085
0.023399
0.0233813
0.023381
0.0234453
0.0234027
0.0234625
0.0234614
0.0234637
0.0234002
0.0234595
0.0234648
0.0234138
0.0234631
0.0233869
0.0233869
0.0234622
0.0234115
0.0234497
0.0234628
0.0234507
0.023463
0.0234507
0.0233827
0.0234474
0.0234593
0.0234623
0.023406
0.0233969
0.0234516
0.0234058
0.0234644
0.0234039
0.0234111
0.0234634
0.0234524
0.0234642
0.0234603
0.0234095
0.0233859
0.0233685
0.0233692
0.0234029
0.0233686
0.0233686
0.023369
0.0233735
0.0234463
0.0233818
0.0233918
0.0233858
0.0234036
0.0233723
0.0233723
0.0233848
0.0234609
0.0234117
0.0234603
0.0234485
0.023448
0.0233772
0.0233774
0.0233778
0.0233777
0.0233773
0.0233695
0.0233777
0.0233722
0.0233683
0.0233771
0.0233771
0.0233681
0.0233693
0.023372
0.0233781
SCALARS rr_(T) float
LOOKUP_TABLE default
0.123008
0.123036
0.123033
0.123035
0.123047
0.123033
0.123008
0.123035
0.123031
0.123036
0.123008
0.123035
0.123035
0.123037
0.123043
0.123034
0.123038
0.123035
0.123029
0.123032
0.123032
0.123062
0.123032
0.123032
0.123032
0.123035
0.123013
0.123034
0.123021
0.123053
0.123034
0.123021
0.123012
0.123051
0.123052
0.12305
0.123053
0.123051
0.123034
0.123013
0.123021
0.123054
0.123054
0.123034
0.123015
0.123022
0.12303
0.123031
0.123033
0.123019
0.123021
0.123024
0.123046
0.123024
0.123046
0.123016
0.123052
0.123024
0.123052
0.123033
0.123038
0.123041
0.123015
0.123041
0.123041
0.123038
0.123038
0.123035
0.123032
0.123036
0.123046
0.123046
0.123021
0.12304
0.123033
0.123011
0.123044
0.123038
0.123035
0.123025
0.123019
0.123048
0.123039
0.123018
0.123022
0.123015
0.123034
0.123039
0.123015
0.12306
0.123024
0.12306
0.123044
0.123038
0.123025
0.12302
0.123019
0.123036
0.123044
0.123034
0.123028
0.123023
0.123018
0.123035
0.123036
0.123035
0.12304
0.123034
0.123018
0.123036
0.123033
0.123016
0.123017
0.123035
0.123035
0.123025
0.123052
0.123019
0.123052
0.123025
0.123029
0.123042
0.123036
0.123039
0.123037
0.123043
0.12305
0.123036
0.123019
0.123025
0.123046
0.123035
0.123039
0.123036
0.123023
0.123052
0.123018
0.123035
0.123039
0.123052
0.123023
0.123037
0.123029
0.123036
0.123019
0.123035
0.123036
0.123034
0.123033
0.123027
0.123031
0.123036
0.123021
0.123035
0.123036
0.123036
0.123037
0.123024
0.123024
0.123034
0.123031
0.123021
0.123015
0.12302
0.123024
0.123035
0.123024
0.123024
0.123021
0.123024
0.123044
0.123024
0.12302
0.123037
0.123024
0.12304
0.123044
0.123036
0.123046
0.123036
0.123021
0.123036
0.123036
0.123023
0.123039
0.12302
0.123039
0.12304
0.123044
0.123036
0.123039
0.12302
0.123024
0.123021
0.123036
0.123034
0.123035
0.123039
0.123036
0.123038
0.123036
0.12303
0.123025
0.123039
0.123021
0.123039
0.123038
0.123023
0.123042
0.123036
0.123042
0.123037
0.123036
0.123039
0.123027
0.123037
0.123025
0.12304
0.123036
0.123036
0.123036
0.123036
0.123036
0.123036
0.123036
0.123042
0.123042
0.123042
0.123042
0.123046
0.123046
0.123027
0.123036
0.123034
0.123031
0.123043
0.123043
0.123035
0.123025
0.123034
0.123036
0.123027
0.123042
0.123027
0.12304
0.123034
0.123027
0.123025
0.123019
0.123019
0.123039
0.123019
0.123034
0.123025
0.123029
0.123034
0.123036
0.123054
0.123036
0.123019
0.123025
0.123034
0.123035
0.123025
0.123036
0.123029
0.123054
0.123025
0.123037
0.123038
0.123035
0.123043
0.123039
0.123046
0.123034
0.123016
0.123015
0.123045
0.123032
0.123035
0.123027
0.123042
0.123037
0.123025
0.123038
0.123028
0.123036
0.123028
0.123025
0.123058
0.123044
0.123043
0.123043
0.123036
0.123028
0.12305
0.123038
0.123031
0.123028
0.123027
0.123045
0.123027
0.123044
0.123028
0.123015
0.123028
0.123019
0.12304
0.123027
0.123057
0.123028
0.123039
0.123027
0.123039
0.123027
0.123034
0.123015
0.123033
0.123027
0.123045
0.123027
0.123032
0.123039
0.123036
0.123027
0.123028
0.123029
0.12304
0.123028
0.123035
0.123034
0.123046
0.123028
0.123029
0.123032
0.123029
0.123028
0.12303
0.123042
0.123035
0.123029
0.123027
0.123036
0.123036
0.123028
0.123046
0.123007
0.123034
0.123019
0.123032
0.12299
0.12299
0.12299
0.12299
0.12299
0.12299
0.12299
0.123041
0.123049
0.123034
0.123031
0.123029
0.123029
0.123036
0.123029
0.123029
0.123049
0.123029
0.123042
0.123024
0.123041
0.123033
0.123031
0.123029
0.123045
0.123034
0.123031
0.123034
0.123032
0.123029
0.123025
0.123031
0.123034
0.123042
0.12303
0.123029
0.12303
0.123031
0.123033
0.123036
0.12303
0.123036
0.123033
0.123031
0.123036
0.123033
0.123029
0.123039
0.123032
0.123048
0.123015
0.12304
0.123042
0.123033
0.123032
0.123038
0.123007
0.123033
0.123032
0.123015
0.123057
0.123058
0.123034
0.123029
0.123032
0.12303
0.123065
0.123064
0.123035
0.123036
0.123035
0.123008
0.123029
0.123039
0.123031
0.123031
0.123031
0.123007
0.123039
0.123029
0.123034
0.123034
0.123031
0.123031
0.123031
0.123031
0.123013
0.123019
0.123031
0.123034
0.123032
0.123031
0.123032
0.123032
0.123032
0.123015
0.123043
0.12303
0.123038
0.123039
0.123015
0.123033
0.123033
0.123046
0.123057
0.123057
0.123044
0.123029
0.123034
0.123014
0.123056
0.123063
0.123063
0.123006
0.123051
0.123053
0.123033
0.123044
0.123034
0.123036
0.123039
0.12304
0.123036
0.123007
0.123034
0.123038
0.123039
0.123011
0.123052
0.123015
0.123039
0.123036
0.123027
0.123034
0.123035
0.123047
0.123036
0.123046
0.123033
0.12304
0.123053
0.123053
0.123015
0.123037
0.123007
0.123008
0.123006
0.123039
0.123007
0.123006
0.123031
0.123007
0.123048
0.123048
0.123007
0.123032
0.123013
0.123007
0.123012
0.123007
0.123012
0.123051
0.123013
0.123007
0.123007
0.123035
0.123041
0.123012
0.123035
0.123006
0.123036
0.123032
0.123007
0.123011
0.123006
0.123006
0.123033
0.123049
0.123062
0.123062
0.123037
0.123062
0.123062
0.123062
0.123058
0.123014
0.123052
0.123045
0.123049
0.123037
0.12306
0.123059
0.12305
0.123006
0.123032
0.123007
0.123014
0.123014
0.123055
0.123055
0.123055
0.123055
0.123055
0.123062
0.123055
0.12306
0.123063
0.123056
0.123056
0.123063
0.123062
0.12306
0.123055
SCALARS rr_tsim float
LOOKUP_TABLE default
270
270
270
270
270
270
270
270
270
270
270
270
270
270
270
270
270
270
270
270
270
270
270
270
270
270
270
270
270
270
270
270
270
270
270
270
270
270
270
270
270
270
270
270
270
270
270
270
270
270
270
270
270
270
270
270
270
270
270
270
270
270
270
270
270
270
270
270
270
270
270
270
270
270
270
270
270
270
270
270
270
270
270
270
270
270
270
270
270
270
270
270
270
270
270
270
270
270
270
270
270
270
270
270
270
270
270
270
270
270
270
270
270
270
270
270
270
270
270
270
270
270
270
270
270
270
270
270
270
270
270
270
270
270
270
270
270
270
270
270
270
270
270
270
270
270
270
270
270
270
270
270
270
270
270
270
270
270
270
270
270
270
270
270
270
270
270
270
270
270
270
270
270
270
270
270
270
270
270
270
270
270
270
270
270
270
270
270
270
270
270
270
270
270
270
270
270
270
270
270
270
270
270
270
270
270
270
270
270
270
270
270
270
270
270
270
270
270
270
270
270
270
270
270
270
270
270
270
270
270
270
270
270
270
270
270
270
270
270
270
270
270
270
270
270
270
270
270
270
270
270
270
270
270
270
270
270
270
270
270
270
270
270
270
270
270
270
270
270
270
270
270
270
270
270
270
270
270
270
270
270
270
270
270
270
270
270
270
270
270
270
270
270
270
270
270
270
270
270
270
270
270
270
270
270
270
270
270
270
270
270
270
270
270
270
270
270
270
270
270
270
270
270
270
270
270
270
270
270
270
270
270
270
270
270
270
270
270
270
270
270
270
270
270
270
270
270
270
270
270
270
270
270
270
270
270
270
270
270
270
270
270
270
270
270
270
270
270
270
270
270
270
270
270
270
270
270
270
270
270
270
270
270
270
270
270
270
270
270
270
270
270
270
270
270
270
270
270
270
270
270
270
270
270
270
270
270
270
270
270
270
270
270
270
270
270
270
270
270
270
270
270
270
270
270
270
270
270
270
270
270
270
270
270
270
270
270
270
270
270
270
270
270
270
270
270
270
270
270
270
270
270
270
270
270
270
270
270
270
270
270
270
270
270
270
270
270
270
270
270
270
270
270
270
270
270
270
270
270
270
270
270
270
270
270
270
270
270
270
270
270
270
270
270
270
270
270
270
270
270
270
270
270
270
270
270
270
270
270
270
270
270
270
270
270
270
270
270
270
270
270
270
270
270
270
270
270
270
270
270
270
270
270
270
270
270
270
270
270
270
270
270
270
270
270
270
270
270
270
270
270
270
270
270
270
270
270
270
270
270
270
270
270
SCALARS rr_Vext float
LOOKUP_TABLE default
0.181359
0.449123
0.356049
0.46811
0.250492
0.377828
0.179275
0.465089
0.395107
0.504566
0.165389
0.466509
0.409826
0.435014
0.516135
0.424865
0.369044
0.414184
0.365531
0.360527
0.405109
0.0765107
0.41507
0.383015
0.347106
0.403472
0.15501
0.352835
0.267413
0.339246
0.36197
0.276485
0.17152
0.252901
0.249247
0.253452
0.330126
0.24949
0.36154
0.192836
0.224721
0.29105
0.29106
0.397272
0.216885
0.24412
0.344612
0.350184
0.330079
0.303761
0.312854
0.245236
0.401518
0.315207
0.369414
0.157754
0.266178
0.317516
0.26615
0.393185
0.470929
0.464873
0.153275
0.327642
0.445314
0.417374
0.455655
0.391905
0.357986
0.515557
0.435555
0.430791
0.277654
0.338745
0.353972
0.176426
0.372676
0.413477
0.39517
0.271133
0.24049
0.283507
0.527532
0.24025
0.327761
0.119292
0.40758
0.344609
0.229706
0.0374828
0.273093
0.0407607
0.316357
0.299312
0.258659
0.232983
0.220908
0.44293
0.372911
0.351856
0.293535
0.27777
0.230478
0.418576
0.426138
0.383832
0.340626
0.340848
0.244629
0.512519
0.326026
0.164039
0.220056
0.457879
0.429718
0.304482
0.308631
0.183508
0.320035
0.303366
0.266986
0.502649
0.51181
0.44204
0.484526
0.384952
0.220815
0.47821
0.200079
0.262279
0.227503
0.456395
0.449023
0.448249
0.288937
0.187537
0.190638
0.32744
0.404468
0.187459
0.241542
0.38729
0.287969
0.472758
0.223276
0.385189
0.349731
0.336127
0.214789
0.269546
0.304299
0.440626
0.248026
0.397411
0.461989
0.469243
0.307856
0.249008
0.247657
0.401136
0.333853
0.246117
0.160076
0.239704
0.240467
0.430955
0.252349
0.255101
0.27462
0.245939
0.386344
0.258183
0.226059
0.297714
0.272811
0.340306
0.382118
0.361133
0.313977
0.360845
0.266567
0.418246
0.448852
0.241614
0.4423
0.23944
0.436795
0.402737
0.378965
0.379414
0.446227
0.200774
0.266928
0.246017
0.447409
0.43902
0.407199
0.447894
0.452952
0.381865
0.466569
0.307715
0.27411
0.512731
0.285547
0.465953
0.369961
0.226655
0.286341
0.461724
0.389034
0.350308
0.450056
0.445255
0.278859
0.284221
0.267543
0.395452
0.433419
0.498092
0.478088
0.52037
0.471558
0.515287
0.432055
0.457201
0.46065
0.434354
0.456357
0.422918
0.416635
0.282411
0.38941
0.454295
0.31212
0.470272
0.432155
0.492659
0.288246
0.468276
0.448677
0.2845
0.406913
0.282469
0.455238
0.411289
0.296255
0.277678
0.235552
0.271097
0.455773
0.197501
0.34702
0.276527
0.313903
0.468671
0.455548
0.147788
0.457104
0.236431
0.261764
0.46627
0.379027
0.264585
0.522181
0.291231
0.147779
0.267724
0.406398
0.508921
0.382689
0.457754
0.425155
0.226615
0.216731
0.175979
0.201428
0.308134
0.229075
0.371981
0.227524
0.406392
0.287622
0.268101
0.323953
0.293522
0.398521
0.281486
0.287596
0.13637
0.303571
0.43781
0.438057
0.391524
0.281116
0.192358
0.545877
0.360488
0.298317
0.274291
0.284976
0.282729
0.358842
0.278091
0.192059
0.274791
0.183496
0.351067
0.279576
0.127091
0.263721
0.321337
0.279315
0.443669
0.29071
0.381467
0.138314
0.305661
0.287013
0.261624
0.269318
0.321991
0.308722
0.321045
0.266564
0.271163
0.293859
0.403601
0.276095
0.399022
0.358787
0.290796
0.286474
0.290122
0.323372
0.289912
0.270117
0.308529
0.333029
0.387866
0.290169
0.286353
0.425142
0.419248
0.276211
0.290835
0.117368
0.342063
0.227678
0.31968
0.126304
0.131123
0.117233
0.119129
0.126411
0.133076
0.137186
0.365818
0.275202
0.269663
0.305533
0.296206
0.292407
0.314709
0.285993
0.292386
0.310823
0.291314
0.368787
0.261063
0.378832
0.289103
0.277578
0.291595
0.322764
0.328993
0.304695
0.351048
0.32603
0.300389
0.213975
0.303859
0.298861
0.32828
0.305308
0.288518
0.275035
0.304062
0.319091
0.43616
0.283305
0.424
0.438658
0.298864
0.422862
0.322474
0.255677
0.356792
0.307317
0.229504
0.18527
0.353348
0.377138
0.313431
0.259542
0.317012
0.138204
0.309863
0.289512
0.140569
0.0597485
0.0653753
0.268651
0.283293
0.331356
0.316585
0.0311308
0.0325286
0.318179
0.321541
0.304241
0.103724
0.264725
0.315902
0.31564
0.272074
0.240281
0.107863
0.464465
0.284944
0.352159
0.35767
0.255162
0.323444
0.249474
0.275479
0.129739
0.199381
0.323804
0.327749
0.280324
0.293562
0.303656
0.320503
0.306408
0.14396
0.275778
0.301352
0.290883
0.437486
0.143857
0.233731
0.240571
0.234522
0.155624
0.155628
0.267698
0.208506
0.301872
0.153856
0.185525
0.0614166
0.0614141
0.11231
0.199633
0.134971
0.256999
0.284537
0.297805
0.336999
0.307416
0.28523
0.222215
0.127171
0.278048
0.290579
0.282437
0.144129
0.147644
0.104628
0.281946
0.285969
0.22418
0.258249
0.238711
0.22379
0.29291
0.223756
0.257202
0.251385
0.158046
0.19524
0.165308
0.310644
0.112706
0.118918
0.115939
0.294532
0.10769
0.104732
0.200915
0.0979319
0.243154
0.243508
0.100659
0.255444
0.113722
0.110988
0.127154
0.105858
0.105723
0.174205
0.12624
0.112774
0.106277
0.235809
0.272657
0.118743
0.260315
0.0960765
0.264787
0.208171
0.100551
0.0864349
0.0948694
0.12646
0.22555
0.192179
0.0824424
0.0914071
0.253855
0.0775858
0.0775825
0.0878715
0.0979619
0.0995847
0.127333
0.207532
0.193794
0.253767
0.0775242
0.0775208
0.229251
0.0843464
0.178713
0.0765188
0.0783412
0.103271
0.198595
0.205595
0.218906
0.200659
0.198579
0.0438923
0.32038
0.0557536
0.0543417
0.259007
0.257238
0.0563344
0.0390571
0.0548044
0.238559
SCALARS rr_Vli float
LOOKUP_TABLE default
0.396486
0.903296
0.721402
0.942901
0.493002
0.765664
0.392034
0.937669
0.806266
1.01511
0.359835
0.940541
0.827701
0.874153
1.02412
0.859728
0.739394
0.835914
0.748796
0.732052
0.823479
0.146196
0.843737
0.777625
0.704887
0.813139
0.333348
0.714256
0.560608
0.659801
0.731224
0.579527
0.369271
0.494392
0.485904
0.495506
0.641456
0.486895
0.730481
0.415064
0.47121
0.565329
0.565389
0.802513
0.463322
0.511147
0.70466
0.713571
0.66868
0.640142
0.657314
0.509708
0.79128
0.654953
0.728498
0.336093
0.518807
0.659755
0.51879
0.798045
0.943863
0.925029
0.327839
0.652217
0.886009
0.836194
0.912999
0.789773
0.727288
1.03671
0.858506
0.849151
0.582209
0.676851
0.716968
0.381182
0.738158
0.828438
0.79642
0.562479
0.507623
0.556447
1.05351
0.508332
0.685383
0.254579
0.825074
0.689486
0.49066
0.0719434
0.567528
0.0782461
0.626349
0.600258
0.537108
0.489901
0.466216
0.891213
0.738706
0.711148
0.604216
0.579672
0.487749
0.844109
0.85808
0.772713
0.679546
0.689379
0.517758
1.02965
0.661677
0.349478
0.467059
0.92382
0.865435
0.632491
0.601612
0.387411
0.624001
0.629991
0.547959
0.998311
1.02947
0.884277
0.972855
0.763252
0.43175
0.962235
0.422252
0.544646
0.448452
0.918479
0.897109
0.901821
0.602898
0.365537
0.404181
0.660931
0.807731
0.365414
0.503538
0.778933
0.59024
0.951059
0.471531
0.776064
0.704322
0.680954
0.435246
0.556267
0.620246
0.886306
0.519981
0.802496
0.929441
0.944261
0.617853
0.518656
0.515712
0.810196
0.680205
0.515659
0.341238
0.503638
0.500927
0.867513
0.525644
0.531442
0.575695
0.512236
0.764767
0.536473
0.475014
0.597025
0.566758
0.6791
0.756451
0.728158
0.618511
0.726372
0.558759
0.841635
0.903303
0.503621
0.884782
0.503408
0.873806
0.803283
0.749915
0.763388
0.892541
0.423344
0.554569
0.51569
0.900209
0.886299
0.82171
0.894903
0.911195
0.76527
0.938415
0.629673
0.568292
1.02454
0.598471
0.930551
0.741277
0.47324
0.569198
0.928573
0.772727
0.703605
0.906434
0.889136
0.575328
0.570471
0.554199
0.788782
0.870376
1.00028
0.961015
1.04558
0.94745
1.03539
0.868711
0.907696
0.914768
0.862344
0.905931
0.833929
0.821516
0.583003
0.782794
0.915906
0.636237
0.93312
0.857209
0.993023
0.597475
0.944368
0.902754
0.586735
0.808801
0.582774
0.908854
0.829725
0.61088
0.57498
0.497305
0.572061
0.910101
0.417614
0.701481
0.572845
0.642712
0.945256
0.914966
0.286927
0.918293
0.500197
0.542258
0.9401
0.7642
0.548648
1.04888
0.596675
0.286927
0.5545
0.815977
1.01856
0.772233
0.908465
0.850822
0.4466
0.437752
0.374434
0.429883
0.608683
0.465559
0.749991
0.469384
0.807668
0.576817
0.55534
0.649547
0.603995
0.802276
0.579178
0.59602
0.263019
0.600442
0.86851
0.869129
0.787208
0.578062
0.376388
1.09285
0.734299
0.613258
0.565366
0.562958
0.583123
0.710459
0.572676
0.410196
0.565166
0.387691
0.700125
0.576599
0.245149
0.543076
0.642113
0.576619
0.88724
0.598797
0.772173
0.296222
0.619802
0.592062
0.51704
0.555817
0.655879
0.617314
0.645549
0.54901
0.557647
0.602196
0.804985
0.56787
0.804505
0.726242
0.573154
0.589127
0.594776
0.657842
0.593794
0.555994
0.631807
0.662546
0.782179
0.594651
0.590809
0.855287
0.843307
0.5683
0.573277
0.256088
0.692601
0.480627
0.650103
0.287606
0.29855
0.266803
0.271172
0.287682
0.303056
0.312311
0.729343
0.539723
0.544565
0.622603
0.6065
0.598932
0.633519
0.586131
0.599483
0.609469
0.596712
0.732658
0.542545
0.753107
0.586003
0.565698
0.597465
0.637466
0.666112
0.620591
0.710715
0.663996
0.615742
0.444039
0.619297
0.605571
0.652004
0.624636
0.591868
0.562871
0.620017
0.64672
0.877916
0.579857
0.853548
0.889738
0.609277
0.852428
0.653928
0.52384
0.713542
0.625424
0.450401
0.395665
0.704468
0.750313
0.6352
0.528048
0.635252
0.301236
0.628021
0.589265
0.300912
0.115298
0.126126
0.544004
0.580097
0.673736
0.647661
0.0592774
0.0619389
0.641396
0.648087
0.613481
0.226113
0.542804
0.631011
0.643416
0.555014
0.489877
0.235469
0.929282
0.583733
0.713231
0.724382
0.520582
0.658847
0.508989
0.561647
0.279101
0.421176
0.659631
0.663708
0.570433
0.599124
0.618256
0.651892
0.623522
0.307427
0.547096
0.616831
0.583015
0.874901
0.307367
0.473533
0.487753
0.46224
0.300515
0.300535
0.529553
0.427592
0.611535
0.329005
0.358876
0.117176
0.117176
0.245398
0.389619
0.262494
0.52105
0.563539
0.601411
0.677646
0.614656
0.569069
0.448036
0.27725
0.562546
0.5828
0.564247
0.311557
0.287924
0.224284
0.563451
0.574849
0.461942
0.521747
0.481453
0.440836
0.590094
0.440798
0.520821
0.502147
0.307811
0.380027
0.353393
0.623981
0.246785
0.25998
0.254334
0.589283
0.234981
0.230138
0.410009
0.214644
0.47712
0.477842
0.220334
0.51961
0.244574
0.243122
0.273901
0.231958
0.227739
0.339829
0.270697
0.245996
0.232678
0.475748
0.543002
0.256116
0.525107
0.211012
0.532689
0.423219
0.220454
0.186663
0.208255
0.276319
0.457467
0.376608
0.157552
0.174883
0.509986
0.148307
0.148306
0.168049
0.188628
0.213205
0.248113
0.410273
0.379761
0.51034
0.149004
0.149003
0.448511
0.184462
0.363609
0.167149
0.16815
0.221554
0.384549
0.398195
0.424214
0.388778
0.384539
0.0840102
0.620731
0.107163
0.103829
0.501444
0.497965
0.107596
0.0747329
0.105301
0.462542
SCALARS rr_S_ext' float
LOOKUP_TABLE default
-0.000363222
-0.000829335
-0.000662215
-0.000865662
-0.000452883
-0.000702841
-0.00035914
-0.000860847
-0.000739983
-0.000931992
-0.000329682
-0.000863483
-0.000759854
-0.000802599
-0.000940583
-0.000789218
-0.000678918
-0.000767405
-0.000687167
-0.000671954
-0.000755856
-0.000134393
-0.000774446
-0.000713787
-0.000647016
-0.000746523
-0.000305517
-0.000655669
-0.000514156
-0.000606276
-0.000671283
-0.00053151
-0.000338431
-0.00045423
-0.000446464
-0.000455253
-0.000589432
-0.000447364
-0.000670597
-0.000380402
-0.000432163
-0.000519484
-0.000519538
-0.000736728
-0.000424714
-0.000468809
-0.000646695
-0.000654932
-0.000613821
-0.000587017
-0.000602813
-0.000467581
-0.00072686
-0.000600828
-0.000669179
-0.000308113
-0.000476699
-0.000605232
-0.000476683
-0.000732535
-0.000866655
-0.000849519
-0.000300514
-0.000598972
-0.000813686
-0.000767806
-0.000838321
-0.000725073
-0.000667572
-0.000951823
-0.000788609
-0.000780016
-0.000533965
-0.000621537
-0.00065815
-0.000349312
-0.000677981
-0.000760684
-0.000731173
-0.000516015
-0.000465478
-0.0005112
-0.000967417
-0.000466097
-0.000628637
-0.000233372
-0.000757398
-0.000633118
-0.000449775
-6.6128e-05
-0.000520625
-7.1921e-05
-0.000575292
-0.000551152
-0.000492729
-0.000449271
-0.000427511
-0.000818234
-0.000678483
-0.000652843
-0.000554419
-0.000531708
-0.000447221
-0.000774943
-0.000787799
-0.000709428
-0.000624033
-0.000632848
-0.000474736
-0.00094536
-0.000607362
-0.00032038
-0.000428216
-0.000848112
-0.000794549
-0.000580226
-0.000552783
-0.000355246
-0.000573351
-0.000577937
-0.000502835
-0.000916857
-0.000945176
-0.000811985
-0.000893231
-0.000701007
-0.000396677
-0.000883439
-0.000387197
-0.000499643
-0.000411939
-0.00084326
-0.000823791
-0.000827973
-0.000553014
-0.000335868
-0.000370581
-0.000606764
-0.000741726
-0.000335754
-0.000461885
-0.000715159
-0.000541654
-0.000873183
-0.000432378
-0.00071249
-0.000646635
-0.000625088
-0.000399535
-0.000510387
-0.000569271
-0.000813731
-0.000476895
-0.000736719
-0.000853335
-0.000866932
-0.000567297
-0.000475765
-0.000473068
-0.000743781
-0.000624311
-0.000472938
-0.000312822
-0.000461878
-0.0004595
-0.000796466
-0.000482174
-0.000487492
-0.000527994
-0.000469875
-0.000702429
-0.000492138
-0.000435627
-0.000548184
-0.000519923
-0.000623619
-0.00069479
-0.000668498
-0.000568164
-0.000666885
-0.000512463
-0.000772714
-0.00082933
-0.000461964
-0.000812452
-0.00046166
-0.00080237
-0.000737668
-0.000688794
-0.000700877
-0.000819579
-0.000388208
-0.00050874
-0.000472961
-0.00082649
-0.000813655
-0.000754367
-0.000821765
-0.00083658
-0.000702678
-0.000861576
-0.000577866
-0.000521357
-0.000940801
-0.000548886
-0.00085451
-0.00068065
-0.000434075
-0.000522748
-0.000852541
-0.000709682
-0.00064602
-0.00083219
-0.000816481
-0.000527879
-0.000523792
-0.00050844
-0.000724351
-0.000799136
-0.000918408
-0.000882333
-0.000959989
-0.000869891
-0.000950627
-0.00079759
-0.000833644
-0.000840133
-0.00079199
-0.000832024
-0.000766026
-0.000754623
-0.000534913
-0.00071871
-0.000840854
-0.000583949
-0.000857005
-0.000787293
-0.000911657
-0.000548132
-0.000866977
-0.00082883
-0.000538352
-0.000742798
-0.000534712
-0.000834593
-0.000761722
-0.000560508
-0.00052751
-0.000456014
-0.000524567
-0.000835734
-0.000382925
-0.000643966
-0.000525545
-0.000589821
-0.000867791
-0.000840073
-0.000263662
-0.000843123
-0.000458642
-0.000497483
-0.000863063
-0.000701588
-0.000503333
-0.000963019
-0.000547566
-0.000263662
-0.000508717
-0.000749192
-0.000935277
-0.000708945
-0.000834357
-0.000781261
-0.000410242
-0.000401868
-0.000343272
-0.000394074
-0.000559098
-0.00042733
-0.000688544
-0.000430675
-0.00074176
-0.000529629
-0.000509486
-0.000596412
-0.000554221
-0.000736574
-0.000531451
-0.000546799
-0.000241731
-0.000551509
-0.000797669
-0.000798235
-0.00072276
-0.000530436
-0.000345804
-0.00100349
-0.000673963
-0.000562736
-0.000518754
-0.000517097
-0.000535037
-0.000652546
-0.000525474
-0.000376017
-0.000518599
-0.000355495
-0.000642938
-0.00052905
-0.000225306
-0.000498314
-0.000589635
-0.000529056
-0.000814712
-0.000549438
-0.000708837
-0.000271524
-0.000568938
-0.000543236
-0.000474913
-0.000509973
-0.000601986
-0.000566855
-0.000592695
-0.000503756
-0.000511701
-0.000552629
-0.000739232
-0.00052108
-0.000738592
-0.000666674
-0.000526493
-0.000540589
-0.000545814
-0.000603809
-0.000544927
-0.000510172
-0.000579814
-0.000608466
-0.000718091
-0.000545705
-0.000542083
-0.000785257
-0.000774261
-0.000521469
-0.000526605
-0.00023461
-0.000635788
-0.000440722
-0.00059671
-0.000263157
-0.000273172
-0.000244126
-0.000248122
-0.00026323
-0.000277294
-0.000285765
-0.000669774
-0.000495841
-0.000499926
-0.000571439
-0.000556589
-0.000549642
-0.000581638
-0.000537885
-0.000550132
-0.000559919
-0.000547603
-0.000672879
-0.000497706
-0.000691642
-0.000537918
-0.000519209
-0.00054829
-0.000585539
-0.000611473
-0.0005696
-0.000652419
-0.000609439
-0.000565055
-0.000407355
-0.000568401
-0.000555888
-0.000598809
-0.000573245
-0.000543135
-0.000516558
-0.000569056
-0.000593657
-0.000806022
-0.000532145
-0.000783647
-0.000816716
-0.000559201
-0.000782592
-0.000600264
-0.000480724
-0.000655213
-0.000574048
-0.000413775
-0.000362698
-0.000646932
-0.000689068
-0.000583083
-0.000484675
-0.000583295
-0.00027598
-0.00057649
-0.000540857
-0.000275826
-0.000105965
-0.000115917
-0.000499378
-0.000532358
-0.000618406
-0.000594378
-5.44965e-05
-5.69432e-05
-0.000588847
-0.000594994
-0.000563217
-0.000207155
-0.000498117
-0.000579446
-0.000590538
-0.000509391
-0.000449615
-0.000215717
-0.000853308
-0.000535689
-0.000654723
-0.000664958
-0.000477788
-0.000604711
-0.000467147
-0.000515486
-0.000255797
-0.000386201
-0.000605429
-0.000609263
-0.000523575
-0.000549868
-0.000567462
-0.00059835
-0.000572303
-0.000281813
-0.000502474
-0.000566075
-0.000535327
-0.000803383
-0.000281754
-0.000434683
-0.000447727
-0.000424608
-0.000276183
-0.000276201
-0.000486395
-0.000392389
-0.000561365
-0.000301582
-0.000329805
-0.00010772
-0.00010772
-0.000224808
-0.000357985
-0.0002412
-0.000478294
-0.000517598
-0.000552113
-0.000622164
-0.000564413
-0.000522582
-0.000411328
-0.000254004
-0.000516412
-0.000535121
-0.000518136
-0.000285504
-0.00026455
-0.000205579
-0.0005174
-0.000527791
-0.000423859
-0.000478975
-0.000442004
-0.00040495
-0.000541758
-0.000404914
-0.000478098
-0.000461113
-0.000282831
-0.000349192
-0.00032394
-0.000572909
-0.000226071
-0.000238169
-0.000232973
-0.000541107
-0.000215274
-0.000210799
-0.000376302
-0.000196622
-0.000438326
-0.000438988
-0.000201841
-0.00047693
-0.000224155
-0.000222713
-0.000251022
-0.000212484
-0.000208716
-0.000312241
-0.000248115
-0.000225368
-0.000213147
-0.000436764
-0.000498666
-0.000234714
-0.00048208
-0.000193282
-0.000489072
-0.000388462
-0.000201943
-0.000171059
-0.000190761
-0.000253134
-0.000419923
-0.000345995
-0.000144831
-0.000160759
-0.000468244
-0.000136332
-0.000136331
-0.000154478
-0.000173368
-0.000195428
-0.000227976
-0.000376843
-0.000348892
-0.000468557
-0.000136955
-0.000136954
-0.000412072
-0.00016898
-0.000333742
-0.000153126
-0.000154122
-0.000203071
-0.00035339
-0.000365928
-0.000389833
-0.000357271
-0.00035338
-7.72247e-05
-0.000570428
-9.84975e-05
-9.54464e-05
-0.000460815
-0.000457619
-9.89107e-05
-6.86972e-05
-9.67867e-05
-0.00042505
SCALARS rr_P_ext' float
LOOKUP_TABLE default
0.000177869
0.000410836
0.000327725
0.000428747
0.000224986
0.000347823
0.000175864
0.000426307
0.000365862
0.000461671
0.000161559
0.000427612
0.000376206
0.000397636
0.000466777
0.000390644
0.000336493
0.000379982
0.000339573
0.000332449
0.000373904
6.70177e-05
0.000383101
0.000353151
0.000320106
0.000369711
0.000149964
0.000324524
0.000253276
0.000301653
0.000332343
0.000261831
0.000166094
0.000225854
0.00022207
0.00022636
0.000293308
0.000222487
0.000331997
0.000186698
0.00021288
0.000258513
0.000258537
0.000364746
0.000208669
0.000230978
0.000319651
0.000323873
0.000303781
0.000288959
0.000296859
0.000230607
0.000361034
0.000296334
0.000332354
0.000151437
0.000237115
0.000298506
0.000237105
0.000362441
0.000429521
0.000421426
0.000147621
0.00029712
0.000403657
0.000380549
0.000415494
0.000359091
0.000330257
0.000471527
0.000391696
0.000387425
0.000263026
0.000308162
0.000325727
0.000171348
0.000336533
0.000377016
0.000362109
0.00025456
0.000229079
0.000254047
0.000479687
0.000229308
0.000309779
0.000114676
0.000374875
0.000313849
0.000220985
3.29575e-05
0.000256772
3.5844e-05
0.000285576
0.000273133
0.00024304
0.000221221
0.000210399
0.000405313
0.000336777
0.000323193
0.000273795
0.000262088
0.000220016
0.000383754
0.000390198
0.000351391
0.000309464
0.000313265
0.000233548
0.000468384
0.000300512
0.000157468
0.00021058
0.000419961
0.000393532
0.000286184
0.000274956
0.000174826
0.000285177
0.000285066
0.000248419
0.000454946
0.000468216
0.000402526
0.000442589
0.000347918
0.000197231
0.000437611
0.000190559
0.00024645
0.000204605
0.0004177
0.000408448
0.000410144
0.000272595
0.000167064
0.000182265
0.000300434
0.000367781
0.000167006
0.000227704
0.000354274
0.000267645
0.000432543
0.000212774
0.000352871
0.000320272
0.000309356
0.000197723
0.000251962
0.000281503
0.000403101
0.000234921
0.00036476
0.000422708
0.000429431
0.000281105
0.000234574
0.000233252
0.000368246
0.000308736
0.000232992
0.00015374
0.000227454
0.000226551
0.000394507
0.000237732
0.00024035
0.000260094
0.000231672
0.000348697
0.000242727
0.000214523
0.000271663
0.000256438
0.000309247
0.000344901
0.000331048
0.000282223
0.000330323
0.000252447
0.000382759
0.000410799
0.000227747
0.000402757
0.000227326
0.000397758
0.000365826
0.000341942
0.000347182
0.000406296
0.00019108
0.00025092
0.000232988
0.000409405
0.000402866
0.000373532
0.00040744
0.000414413
0.000348256
0.000426806
0.000285602
0.000257217
0.000466454
0.000270394
0.000423701
0.000337347
0.000213948
0.000259357
0.000422336
0.00035214
0.000320081
0.000412172
0.00040485
0.000260608
0.000259544
0.000250874
0.00035922
0.000395958
0.000455053
0.000437125
0.000475622
0.000430986
0.000470982
0.000395124
0.000413676
0.000416883
0.000393006
0.000412878
0.00038046
0.000374798
0.000264059
0.000356058
0.000416411
0.000288757
0.0004253
0.000390721
0.000451488
0.000270435
0.000429331
0.000410564
0.000265792
0.000368539
0.00026398
0.000413844
0.000377192
0.000276736
0.000260296
0.000224415
0.000258171
0.000414398
0.000188406
0.000318792
0.000259312
0.000291488
0.000429729
0.000416232
0.000131215
0.000417731
0.000225643
0.000245466
0.000427407
0.000347437
0.000248318
0.000477144
0.000270581
0.000131214
0.000251015
0.00037122
0.000463617
0.000351042
0.00041405
0.000387275
0.000203768
0.000198965
0.000168749
0.000193641
0.00027762
0.000211395
0.000340978
0.00021262
0.000368029
0.000262466
0.000251391
0.000295569
0.000273709
0.000364837
0.000262467
0.000269784
0.000120402
0.000273806
0.000395866
0.000396139
0.000358054
0.000261987
0.000171921
0.000497409
0.000333301
0.000277951
0.000256135
0.000256763
0.000264152
0.000323926
0.000259485
0.000184749
0.000256134
0.000174929
0.000318854
0.000261198
0.00011222
0.000246073
0.000292343
0.000261167
0.000403896
0.00027131
0.000350842
0.000133356
0.000281533
0.000268194
0.000235805
0.000251757
0.000297706
0.000281023
0.000293618
0.000248756
0.00025273
0.000273075
0.000366603
0.000257358
0.000365762
0.000329974
0.000261505
0.000266998
0.000269693
0.000298659
0.000269288
0.000251945
0.000286536
0.000301853
0.0003556
0.000269652
0.000267619
0.000388985
0.000383545
0.000257538
0.000261558
0.000114922
0.000314674
0.000216893
0.000295162
0.000128103
0.000132979
0.000118848
0.00012079
0.00012815
0.000134982
0.000139112
0.000332174
0.000246441
0.000247519
0.000282584
0.000275063
0.000271616
0.000288096
0.000265786
0.000271823
0.000278295
0.000270608
0.000333869
0.000245468
0.000343152
0.000266197
0.000256752
0.000270936
0.000290756
0.000302641
0.000281693
0.00032291
0.000301398
0.000279205
0.000200947
0.000281076
0.000275101
0.000297128
0.000283325
0.000268346
0.000255297
0.00028138
0.000293783
0.000399243
0.000262997
0.000388154
0.000404128
0.000276516
0.00038756
0.000297032
0.000237551
0.000324821
0.000283923
0.000205635
0.000178207
0.000320846
0.000341839
0.000288554
0.000239728
0.000289091
0.000135207
0.000285288
0.000267503
0.000135477
5.27757e-05
5.77341e-05
0.000247158
0.000263086
0.0003059
0.000293772
2.71876e-05
2.84083e-05
0.000291614
0.000294662
0.00027891
0.000101487
0.00024612
0.000287305
0.000292015
0.000251864
0.000222325
0.00010566
0.000423003
0.000264717
0.000324034
0.000329101
0.000236234
0.000299053
0.000230972
0.000254897
0.000125553
0.000190044
0.000299405
0.000301541
0.000258963
0.000271861
0.000280649
0.000295966
0.000283064
0.000138466
0.000249365
0.000279764
0.000265311
0.000398277
0.000138427
0.000215123
0.000221557
0.0002109
0.000137541
0.000137549
0.000241476
0.000193876
0.000277821
0.000148151
0.000164209
5.3727e-05
5.37265e-05
0.000110099
0.000178035
0.00012001
0.000236683
0.000256925
0.000273356
0.000308216
0.000279816
0.000259151
0.000203696
0.000124437
0.000255617
0.000265185
0.000256901
0.000140038
0.000131582
0.000100954
0.000256525
0.000261474
0.000209289
0.000237131
0.000218877
0.000201152
0.000268315
0.000201132
0.000236625
0.000228632
0.000140698
0.000173723
0.000159141
0.000283856
0.000110682
0.000116631
0.00011403
0.000268238
0.00010545
0.000103152
0.00018605
9.62502e-05
0.000217839
0.000218166
9.88239e-05
0.000235904
0.000110026
0.000109031
0.000123186
0.000104019
0.000102425
0.000155295
0.000121839
0.000110399
0.000104356
0.000216273
0.000247349
0.000115162
0.000238717
9.45875e-05
0.000242267
0.000192159
9.88503e-05
8.39148e-05
9.33602e-05
0.000123971
0.000207788
0.000171982
7.22218e-05
8.01528e-05
0.000231993
6.79816e-05
6.79806e-05
7.70253e-05
8.63695e-05
9.59873e-05
0.000113402
0.000187103
0.000173423
0.000232116
6.8245e-05
6.82442e-05
0.00020487
8.27465e-05
0.000165074
7.49955e-05
7.56712e-05
9.97115e-05
0.000175929
0.000182165
0.000194052
0.000177848
0.000175923
3.85015e-05
0.000283956
4.90814e-05
4.75967e-05
0.000229414
0.000227826
4.93265e-05
3.42513e-05
4.8231e-05
0.000211568
SCALARS rr_S' float
LOOKUP_TABLE default
0.000147071
0.0003369
0.000268939
0.000351637
0.000184121
0.000285436
0.000145416
0.000349672
0.000300442
0.000378599
0.000133514
0.000350743
0.000308629
0.000326051
0.000382281
0.000320533
0.000275836
0.000311703
0.000278956
0.000272872
0.000306932
5.46946e-05
0.000314479
0.000289861
0.000262744
0.000303237
0.000123788
0.000266289
0.000208535
0.000246585
0.000272652
0.000215575
0.000137117
0.000184712
0.000181573
0.000185127
0.000239742
0.000181932
0.000272372
0.000154124
0.000175278
0.000211295
0.000211316
0.000299234
0.000172129
0.000190153
0.000262545
0.000265925
0.000249286
0.000238037
0.000244472
0.000189709
0.000295492
0.000243774
0.000272037
0.000124887
0.000193871
0.000245561
0.000193864
0.000297477
0.000352105
0.000345237
0.000121788
0.000243414
0.000330676
0.000311952
0.000340597
0.000294525
0.000271087
0.00038666
0.000320593
0.0003171
0.000216568
0.000252549
0.000267292
0.000141505
0.000275572
0.000309057
0.000297002
0.000209375
0.000188741
0.000207851
0.000393096
0.000188974
0.000254993
9.45858e-05
0.000307605
0.000257242
0.000182286
2.69081e-05
0.000211232
2.92651e-05
0.000233836
0.000223919
0.00019992
0.000182197
0.000173348
0.000332386
0.000275775
0.000265158
0.000225026
0.000215694
0.00018132
0.000314774
0.000320014
0.000288181
0.000253576
0.00025703
0.000192474
0.000384046
0.000246646
0.000129859
0.000173594
0.000344488
0.000322754
0.000235418
0.000224813
0.000144044
0.000233175
0.000234492
0.000204112
0.000372625
0.000383956
0.000329918
0.000362876
0.000284919
0.000161308
0.000358873
0.000157002
0.000202725
0.000167465
0.000342549
0.00033473
0.000336342
0.000224338
0.000136595
0.000150237
0.000246454
0.000301389
0.000136548
0.000187377
0.000290521
0.000219881
0.00035471
0.000175317
0.000289416
0.00026267
0.000253862
0.000162258
0.000207134
0.00023114
0.000330559
0.000193422
0.000299235
0.000346647
0.000352166
0.000230472
0.000193015
0.000191922
0.0003021
0.000253492
0.000191822
0.000126792
0.000187315
0.000186415
0.000323538
0.000195614
0.000197771
0.000214148
0.000190625
0.000285514
0.000199675
0.000176669
0.000222714
0.00021095
0.000253406
0.000282409
0.00027154
0.000230981
0.000270901
0.00020785
0.000313894
0.000336891
0.00018741
0.00033011
0.000187222
0.000326012
0.000299756
0.000279976
0.000284714
0.000333007
0.000157417
0.000206412
0.000191828
0.000335739
0.000330485
0.000306409
0.000333906
0.000339839
0.000285488
0.000349996
0.000234595
0.000211548
0.000382273
0.000222624
0.000347217
0.00027654
0.000176084
0.000212448
0.000346327
0.000288427
0.000262447
0.000338044
0.000331765
0.000214235
0.000212797
0.000206314
0.000294344
0.000324648
0.000373102
0.000358434
0.000389987
0.000353386
0.000386184
0.000324009
0.000338811
0.000341445
0.000321882
0.000338154
0.000311408
0.000306772
0.000217085
0.000291967
0.000341546
0.0002371
0.000348313
0.000319983
0.000370308
0.000222414
0.000352153
0.000336691
0.000218489
0.000301878
0.000217008
0.000339128
0.000309396
0.000227482
0.000214055
0.000184903
0.000212702
0.00033959
0.000155258
0.00026155
0.000213254
0.000239443
0.000352482
0.000341277
0.000107244
0.000342513
0.000185954
0.000201867
0.000350566
0.000284981
0.000204233
0.000391222
0.000222284
0.000107244
0.000206427
0.00030436
0.000380007
0.00028796
0.000339105
0.000317432
0.000166777
0.000163226
0.000139145
0.000159718
0.000227272
0.000173528
0.000279683
0.000174786
0.000301457
0.000215175
0.000206738
0.000242309
0.000224949
0.000299209
0.000215708
0.000221875
9.83462e-05
0.000224177
0.000324199
0.000324427
0.000293611
0.000215301
0.000140616
0.000407717
0.000273655
0.000228414
0.00021054
0.000210199
0.000217143
0.000265237
0.000213275
0.000152394
0.000210495
0.000144141
0.000261263
0.000214713
9.16635e-05
0.000202251
0.000239584
0.000214707
0.00033103
0.000222999
0.000287883
0.000110034
0.00023105
0.000220469
0.000193048
0.000206965
0.00024443
0.000230324
0.000240772
0.000204459
0.000207696
0.000224338
0.000300391
0.000211501
0.000300012
0.00027076
0.000214036
0.000219421
0.000221568
0.000245182
0.000221216
0.000207068
0.00023538
0.000247276
0.000291682
0.000221527
0.000219999
0.000318994
0.000314528
0.000211656
0.000214081
9.50004e-05
0.000258213
0.000178703
0.000242303
0.000106365
0.000110413
9.86752e-05
0.000100289
0.000106397
0.000112079
0.000115505
0.00027217
0.00020161
0.000203055
0.000232023
0.000225952
0.000223129
0.000236272
0.000218351
0.00022332
0.000227665
0.000222301
0.000273468
0.000201932
0.000281084
0.000218456
0.000210815
0.000222578
0.000238022
0.000248339
0.000231281
0.000264969
0.000247458
0.000229379
0.000165284
0.000230788
0.000225757
0.000243368
0.000232721
0.000220475
0.000209705
0.000231049
0.000241093
0.000327422
0.000216032
0.000318332
0.000331671
0.00022705
0.000317887
0.000243771
0.00019515
0.000266223
0.000233094
0.000168238
0.000146996
0.000262889
0.000280032
0.0002368
0.000196806
0.000236985
0.000111757
0.000234121
0.000219616
0.000111779
4.31103e-05
4.71595e-05
0.000202812
0.000216115
0.000251115
0.000241301
2.21814e-05
2.31773e-05
0.000239187
0.000241686
0.000228775
8.38869e-05
0.000202204
0.000235448
0.000239776
0.000206822
0.000182555
8.73483e-05
0.000346707
0.000217463
0.000265901
0.000270058
0.000193989
0.000245536
0.000189669
0.000209301
0.000103641
0.000156592
0.000245827
0.000247439
0.0002126
0.000223252
0.000230416
0.000242967
0.000232386
0.000114215
0.000204223
0.000229806
0.000217495
0.000326428
0.000114189
0.000176534
0.000181826
0.000172616
0.000112357
0.000112365
0.000197708
0.000159284
0.000227983
0.000122221
0.000134164
4.38418e-05
4.38415e-05
9.10259e-05
0.000145583
9.81014e-05
0.00019424
0.000210383
0.000224252
0.000252743
0.000229331
0.000212352
0.000167079
0.000102857
0.000209737
0.000217405
0.000210535
0.000115654
0.000107588
8.33072e-05
0.000210233
0.000214409
0.000172028
0.000194542
0.000179537
0.000164627
0.000220066
0.000164612
0.00019417
0.000187366
0.000115028
0.00014202
0.000131284
0.000232744
9.15312e-05
9.6436e-05
9.43181e-05
0.000219857
8.7171e-05
8.53349e-05
0.000152783
7.96044e-05
0.000178222
0.000178491
8.17224e-05
0.000193662
9.08221e-05
9.01705e-05
0.000101701
8.60279e-05
8.45606e-05
0.000126983
0.000100541
9.12594e-05
8.62991e-05
0.000177407
0.000202647
9.50888e-05
0.000195815
7.82453e-05
0.000198675
0.000157742
8.17581e-05
6.92967e-05
7.72269e-05
0.000102495
0.000170533
0.000140687
5.89423e-05
6.54216e-05
0.000190223
5.54828e-05
5.54823e-05
6.28666e-05
7.0537e-05
7.91964e-05
9.27168e-05
0.000153181
0.000141865
0.000190343
5.57257e-05
5.57253e-05
0.000167565
6.84181e-05
0.000135518
6.20027e-05
6.24518e-05
8.22877e-05
0.000143753
0.000148852
0.000158573
0.000145329
0.000143749
3.14265e-05
0.000232036
4.00775e-05
3.88442e-05
0.000187453
0.000186153
4.02547e-05
2.79566e-05
3.93819e-05
0.000172895
SCALARS rr_P' float
LOOKUP_TABLE default
3.82826e-05
8.15993e-05
6.55514e-05
8.5279e-05
4.37759e-05
6.95829e-05
3.78607e-05
8.48673e-05
7.36794e-05
9.17227e-05
3.46092e-05
8.5128e-05
7.50186e-05
7.89119e-05
9.15249e-05
7.80408e-05
6.65897e-05
7.57205e-05
6.86379e-05
6.66332e-05
7.50207e-05
1.26808e-05
7.68667e-05
7.0775e-05
6.41668e-05
7.35743e-05
3.17648e-05
6.48562e-05
5.23442e-05
5.80375e-05
6.62872e-05
5.41033e-05
3.52197e-05
4.36646e-05
4.28211e-05
4.37656e-05
5.63817e-05
4.29447e-05
6.62288e-05
3.95797e-05
4.40046e-05
4.96764e-05
4.96845e-05
7.27478e-05
4.3916e-05
4.76791e-05
6.44988e-05
6.51342e-05
6.07531e-05
6.00207e-05
6.14824e-05
4.72648e-05
7.03345e-05
6.07197e-05
6.47882e-05
3.17882e-05
4.57136e-05
6.11651e-05
4.57147e-05
7.26169e-05
8.50283e-05
8.28559e-05
3.11052e-05
5.84382e-05
7.93537e-05
7.53055e-05
8.223e-05
7.14561e-05
6.62283e-05
9.3636e-05
7.63204e-05
7.54913e-05
5.4371e-05
6.08262e-05
6.5132e-05
3.64587e-05
6.58761e-05
7.46107e-05
7.20625e-05
5.20805e-05
4.76568e-05
4.93019e-05
9.46343e-05
4.78145e-05
6.38648e-05
2.41107e-05
7.49184e-05
6.20272e-05
4.65035e-05
6.26243e-06
5.26206e-05
6.81183e-06
5.58795e-05
5.41005e-05
4.97687e-05
4.5853e-05
4.3764e-05
8.05345e-05
6.59309e-05
6.44928e-05
5.55982e-05
5.39265e-05
4.58855e-05
7.64147e-05
7.75876e-05
6.98558e-05
6.09923e-05
6.25532e-05
4.87135e-05
9.29301e-05
6.02042e-05
3.30536e-05
4.40418e-05
8.36632e-05
7.8263e-05
5.86241e-05
5.3014e-05
3.63759e-05
5.4998e-05
5.83789e-05
5.0304e-05
8.92857e-05
9.30044e-05
7.95403e-05
8.77649e-05
6.81706e-05
3.81379e-05
8.69551e-05
3.96368e-05
5.04687e-05
3.9869e-05
8.30108e-05
8.06132e-05
8.14863e-05
5.60814e-05
3.22091e-05
3.80798e-05
5.98761e-05
7.25561e-05
3.22002e-05
4.68043e-05
7.03651e-05
5.41282e-05
8.59303e-05
4.42869e-05
7.02032e-05
6.36917e-05
6.18698e-05
3.95533e-05
5.12911e-05
5.66283e-05
8.00715e-05
4.8552e-05
7.27248e-05
8.39803e-05
8.53356e-05
5.57193e-05
4.81766e-05
4.78937e-05
7.34353e-05
6.20823e-05
4.81246e-05
3.22896e-05
4.71091e-05
4.65344e-05
7.84213e-05
4.8828e-05
4.93714e-05
5.37514e-05
4.75782e-05
6.82179e-05
4.9736e-05
4.44352e-05
5.38071e-05
5.25355e-05
6.09661e-05
6.74796e-05
6.59102e-05
5.49599e-05
6.56618e-05
5.21661e-05
7.60608e-05
8.16397e-05
4.68071e-05
7.95848e-05
4.7112e-05
7.86e-05
7.2086e-05
6.68757e-05
6.89818e-05
8.02758e-05
3.97111e-05
5.14082e-05
4.81456e-05
8.13461e-05
8.03033e-05
7.44262e-05
8.04186e-05
8.2327e-05
6.89339e-05
8.47739e-05
5.76686e-05
5.25919e-05
9.2074e-05
5.58681e-05
8.3591e-05
6.67628e-05
4.40431e-05
5.09425e-05
8.38777e-05
6.91151e-05
6.34922e-05
8.19737e-05
7.98651e-05
5.3037e-05
5.145e-05
5.12526e-05
7.07867e-05
7.85296e-05
9.02527e-05
8.67744e-05
9.43802e-05
8.55184e-05
9.34612e-05
7.84567e-05
8.11565e-05
8.18048e-05
7.7102e-05
8.09924e-05
7.4159e-05
7.30533e-05
5.377e-05
7.06846e-05
8.28971e-05
5.8092e-05
8.33924e-05
7.65884e-05
8.98603e-05
5.52834e-05
8.54928e-05
8.15759e-05
5.40716e-05
7.23815e-05
5.37232e-05
8.16209e-05
7.51346e-05
5.62895e-05
5.31588e-05
4.6696e-05
5.36939e-05
8.17456e-05
3.92616e-05
6.36237e-05
5.29795e-05
5.88902e-05
8.55798e-05
8.25636e-05
2.52035e-05
8.28783e-05
4.70456e-05
5.01503e-05
8.50904e-05
6.91699e-05
5.07817e-05
9.46525e-05
5.47002e-05
2.52047e-05
5.12749e-05
7.36115e-05
9.16538e-05
6.99435e-05
8.12019e-05
7.65543e-05
3.96974e-05
3.9678e-05
3.53776e-05
4.0715e-05
5.42055e-05
4.24069e-05
6.78836e-05
4.32681e-05
7.22733e-05
5.19879e-05
5.13568e-05
5.85337e-05
5.55636e-05
7.2528e-05
5.3277e-05
5.51408e-05
2.29831e-05
5.35263e-05
7.76041e-05
7.76685e-05
7.10951e-05
5.31485e-05
3.3267e-05
9.83624e-05
6.70068e-05
5.63716e-05
5.20793e-05
5.0135e-05
5.37417e-05
6.33829e-05
5.27144e-05
3.88736e-05
5.19707e-05
3.64253e-05
6.28217e-05
5.31388e-05
2.14234e-05
4.99891e-05
5.77075e-05
5.31818e-05
7.97857e-05
5.51287e-05
7.0112e-05
2.81344e-05
5.63548e-05
5.4573e-05
4.60607e-05
5.1251e-05
5.98504e-05
5.55081e-05
5.83048e-05
5.05412e-05
5.12751e-05
5.52162e-05
7.22374e-05
5.2221e-05
7.28174e-05
6.594e-05
5.09514e-05
5.41693e-05
5.45531e-05
5.9968e-05
5.4423e-05
5.11597e-05
5.78984e-05
5.93356e-05
7.08086e-05
5.45256e-05
5.44656e-05
7.72785e-05
7.61875e-05
5.22745e-05
5.09656e-05
2.4687e-05
6.29008e-05
4.51261e-05
5.9246e-05
2.86895e-05
2.9779e-05
2.66025e-05
2.70423e-05
2.86837e-05
3.02331e-05
3.11481e-05
6.54292e-05
4.77901e-05
4.93524e-05
5.68319e-05
5.55738e-05
5.48959e-05
5.72695e-05
5.37471e-05
5.49897e-05
5.3958e-05
5.46938e-05
6.55416e-05
5.03054e-05
6.74057e-05
5.32656e-05
5.16421e-05
5.47756e-05
5.67605e-05
6.04934e-05
5.66263e-05
6.45402e-05
6.05832e-05
5.64702e-05
4.11241e-05
5.65378e-05
5.5029e-05
5.83138e-05
5.71992e-05
5.43142e-05
5.15558e-05
5.66258e-05
5.87798e-05
7.93566e-05
5.31159e-05
7.71616e-05
8.09168e-05
5.56347e-05
7.71446e-05
5.94602e-05
4.80235e-05
6.41684e-05
5.70305e-05
3.99022e-05
3.74941e-05
6.31967e-05
6.71967e-05
5.77291e-05
4.81403e-05
5.72185e-05
2.90152e-05
5.70803e-05
5.37387e-05
2.85693e-05
1.00792e-05
1.10236e-05
4.94087e-05
5.31572e-05
6.13917e-05
5.93042e-05
5.1275e-06
5.35771e-06
5.80457e-05
5.8645e-05
5.55326e-05
2.17818e-05
4.9793e-05
5.66925e-05
5.87476e-05
5.07054e-05
4.47342e-05
2.27087e-05
8.3599e-05
5.35089e-05
6.4788e-05
6.58001e-05
4.75647e-05
6.0122e-05
4.65063e-05
5.12887e-05
2.66031e-05
3.95656e-05
6.01972e-05
6.02833e-05
5.20118e-05
5.47553e-05
5.63972e-05
5.94173e-05
5.68533e-05
2.91313e-05
4.88862e-05
5.65056e-05
5.2522e-05
7.8678e-05
2.91378e-05
4.30257e-05
4.43439e-05
4.10916e-05
2.62845e-05
2.62871e-05
4.72115e-05
3.92288e-05
5.55611e-05
3.12099e-05
3.14321e-05
1.01515e-05
1.01518e-05
2.36834e-05
3.43665e-05
2.30888e-05
4.73704e-05
5.02894e-05
5.45053e-05
6.12051e-05
5.52657e-05
5.10793e-05
4.05531e-05
2.67097e-05
5.10577e-05
5.25309e-05
5.07001e-05
2.98111e-05
2.53803e-05
2.13175e-05
5.06417e-05
5.19073e-05
4.25423e-05
4.73013e-05
4.35891e-05
3.9171e-05
5.33768e-05
3.91696e-05
4.73033e-05
4.51154e-05
2.71056e-05
3.34493e-05
3.35158e-05
5.63101e-05
2.3858e-05
2.51021e-05
2.46241e-05
5.3012e-05
2.26531e-05
2.23115e-05
3.74692e-05
2.07669e-05
4.22646e-05
4.23304e-05
2.12951e-05
4.73637e-05
2.33066e-05
2.35114e-05
2.61348e-05
2.24375e-05
2.17304e-05
2.99634e-05
2.57352e-05
2.3709e-05
2.24918e-05
4.30834e-05
4.86696e-05
2.44632e-05
4.75473e-05
2.0449e-05
4.81305e-05
3.85606e-05
2.13345e-05
1.78471e-05
2.01737e-05
2.66676e-05
4.16025e-05
3.33266e-05
1.36673e-05
1.51844e-05
4.60282e-05
1.28679e-05
1.28681e-05
1.45862e-05
1.64611e-05
2.02441e-05
2.18569e-05
3.65589e-05
3.36048e-05
4.60983e-05
1.29846e-05
1.29848e-05
3.96372e-05
1.78149e-05
3.31497e-05
1.6128e-05
1.59986e-05
2.10716e-05
3.37078e-05
3.49103e-05
3.7208e-05
3.40948e-05
3.37084e-05
7.29664e-06
5.44358e-05
9.33864e-06
9.00548e-06
4.39485e-05
4.36399e-05
9.32952e-06
6.4893e-06
9.17374e-06
4.05867e-05
SCALARS rr_T' float
LOOKUP_TABLE default
0.000209628
0.00047757
0.000381405
0.000498509
0.000260648
0.000404805
0.000207274
0.000495744
0.000426273
0.000536688
0.000190248
0.000497262
0.000437604
0.000462162
0.000541448
0.000454537
0.000390915
0.000441946
0.000395889
0.000387035
0.000435373
7.72922e-05
0.000446083
0.00041113
0.000372673
0.000429904
0.000176244
0.000377626
0.000296396
0.000348831
0.000386597
0.000306399
0.000195237
0.000261381
0.000256894
0.000261971
0.000339133
0.000257418
0.000386204
0.000219449
0.000249131
0.000298885
0.000298916
0.000424288
0.000244961
0.000270246
0.000372554
0.000377265
0.00035353
0.000338446
0.000347525
0.000269485
0.000418346
0.000346276
0.000385153
0.000177695
0.00027429
0.000348815
0.000274281
0.000421925
0.000499017
0.000489059
0.000173332
0.000344825
0.000468429
0.000442093
0.000482699
0.000417551
0.000384517
0.000548102
0.000453887
0.000448941
0.000307817
0.000357849
0.00037906
0.000201535
0.000390261
0.000437993
0.000421065
0.000297384
0.000268383
0.000294191
0.000556984
0.000268758
0.000362365
0.000134598
0.000436216
0.000364529
0.000259415
3.80358e-05
0.000300054
4.1368e-05
0.000331148
0.000317355
0.000283971
0.000259013
0.000246492
0.000471182
0.000390551
0.000375983
0.00031945
0.000306476
0.000257876
0.000446278
0.000453665
0.000408531
0.000359273
0.000364474
0.000273742
0.000544369
0.000349828
0.000184771
0.000246937
0.000488421
0.000457553
0.0003344
0.000318069
0.000204827
0.000329905
0.000333078
0.000289706
0.000527802
0.000544279
0.000467514
0.000514345
0.000403527
0.000228263
0.000508731
0.000223247
0.000287956
0.000237094
0.000485596
0.000474298
0.00047679
0.000318755
0.000193257
0.000213694
0.000349433
0.000427044
0.000193192
0.000266223
0.00041182
0.000312061
0.000502822
0.000249302
0.000410303
0.000372373
0.00036002
0.000230114
0.0002941
0.000327924
0.000468587
0.000274916
0.000424278
0.000491393
0.000499227
0.000326657
0.000274216
0.00027266
0.000428349
0.000359625
0.000272631
0.000180415
0.000266276
0.000264842
0.000458652
0.00027791
0.000280976
0.000304373
0.000270821
0.000404328
0.000283635
0.000251142
0.000315645
0.000299647
0.000359037
0.000399932
0.000384976
0.000327003
0.000384031
0.000295419
0.00044497
0.000477574
0.000266267
0.000467781
0.000266154
0.000461978
0.000424692
0.000396477
0.000403601
0.000471884
0.000223825
0.000293203
0.000272648
0.000475937
0.000468584
0.000434436
0.000473132
0.000481745
0.000404596
0.000496137
0.000332909
0.000300457
0.000541668
0.000316414
0.000491978
0.000391911
0.000250204
0.000300933
0.000490933
0.000408538
0.000371994
0.000479229
0.000470083
0.000304177
0.000301606
0.000293007
0.000417026
0.000460164
0.000528845
0.000508084
0.000552795
0.000500913
0.000547405
0.000459285
0.000479894
0.000483633
0.000455917
0.000478961
0.000440894
0.000434331
0.000308235
0.000413861
0.000484236
0.000336379
0.000493336
0.000453202
0.000525007
0.000315887
0.000499283
0.000477283
0.000310208
0.000427609
0.000308114
0.000480508
0.000438672
0.000322973
0.000303994
0.000262928
0.000302452
0.000481167
0.000220795
0.000370872
0.000302865
0.000339802
0.000499753
0.000483739
0.000151696
0.000485498
0.000264458
0.000286693
0.000497027
0.000404031
0.000290072
0.000554536
0.000315463
0.000151696
0.000293165
0.000431403
0.000538508
0.000408278
0.000480301
0.000449827
0.000236115
0.000231439
0.000197966
0.000227282
0.000321808
0.000246141
0.000396519
0.000248165
0.000427011
0.000304961
0.00029361
0.000343414
0.000319333
0.000424162
0.000306213
0.000315117
0.000139056
0.000317451
0.000459176
0.000459504
0.000416194
0.000305623
0.000198994
0.000577786
0.000388224
0.000324231
0.00029891
0.000297633
0.000308298
0.000375617
0.000302775
0.000216873
0.000298805
0.000204975
0.000370154
0.000304849
0.000129608
0.000287126
0.000339483
0.00030486
0.00046908
0.000316585
0.000408247
0.000156616
0.000327689
0.000313024
0.000273356
0.000293861
0.000346763
0.000326372
0.000341299
0.000290263
0.000294829
0.000318382
0.000425593
0.000300234
0.000425341
0.000383963
0.000303024
0.000311473
0.000314459
0.000347801
0.00031394
0.000293955
0.000334037
0.000350286
0.000413537
0.000314393
0.000312362
0.000452188
0.000445855
0.000300461
0.000303089
0.000135396
0.000366177
0.000254111
0.000343709
0.000152061
0.000157847
0.000141062
0.000143371
0.000152101
0.000160229
0.000165123
0.000385601
0.000285348
0.00028791
0.00032917
0.000320657
0.000316656
0.00033494
0.000309888
0.000316948
0.000322223
0.000315482
0.000387353
0.000286845
0.000398164
0.000309819
0.000299085
0.00031588
0.000337025
0.000352173
0.000328107
0.000375754
0.000351055
0.000325543
0.000234765
0.000327422
0.000320165
0.000344712
0.000330245
0.000312921
0.00029759
0.000327803
0.000341921
0.000464153
0.000306571
0.000451269
0.000470404
0.000322125
0.000450677
0.000345731
0.000276955
0.000377247
0.000330662
0.000238124
0.000209191
0.000372449
0.000396687
0.00033583
0.000279179
0.000335856
0.000159266
0.000332034
0.000311544
0.000159095
6.09572e-05
6.66818e-05
0.000287614
0.000306697
0.000356204
0.000342419
3.13394e-05
3.27465e-05
0.000339104
0.000342642
0.000324346
0.000119548
0.000286981
0.000333613
0.000340174
0.000293436
0.000258998
0.000124495
0.000491308
0.00030862
0.000377085
0.00038298
0.000275232
0.000348333
0.000269103
0.000296943
0.000147564
0.000222679
0.000348747
0.000350902
0.000301588
0.000316757
0.000326872
0.000344655
0.000329656
0.000162539
0.000289247
0.000326119
0.000308238
0.000462557
0.000162507
0.000250356
0.000257874
0.000244384
0.000158879
0.00015889
0.000279972
0.000226068
0.000323318
0.000173948
0.000189734
6.19499e-05
6.19496e-05
0.000129744
0.000205989
0.000138779
0.000275479
0.00029794
0.000317965
0.000358269
0.000324966
0.000300865
0.000236876
0.000146585
0.000297417
0.000308125
0.000298315
0.000164723
0.000152223
0.000118581
0.000297894
0.000303921
0.00024423
0.000275847
0.000254543
0.000233067
0.000311981
0.000233047
0.000275358
0.000265483
0.000162737
0.000200918
0.000186842
0.000329897
0.000130479
0.000137455
0.00013447
0.000311552
0.000124237
0.000121677
0.000216772
0.000113485
0.000252251
0.000252633
0.000116494
0.000274717
0.000129309
0.000128542
0.000144814
0.00012264
0.000120408
0.000179666
0.00014312
0.000130061
0.00012302
0.000251527
0.000287083
0.000135411
0.000277623
0.000111565
0.000281631
0.000223755
0.000116558
9.86905e-05
0.000110107
0.000146092
0.000241862
0.00019911
8.3296e-05
9.24587e-05
0.000269628
7.84084e-05
7.84077e-05
8.88456e-05
9.97261e-05
0.000112723
0.000131176
0.000216909
0.000200777
0.000269816
7.87771e-05
7.87766e-05
0.000237125
9.75265e-05
0.00019224
8.83734e-05
8.8903e-05
0.000117138
0.000203308
0.000210522
0.000224278
0.000205544
0.000203302
4.44154e-05
0.000328175
5.66562e-05
5.48932e-05
0.000265109
0.00026327
5.6885e-05
3.95105e-05
5.56716e-05
0.000244542
SCALARS rr_uec(SIM,_S_ext) float
LOOKUP_TABLE default
0.0135117
0.0307835
0.0245846
0.0321333
0.0168009
0.026093
0.01336
0.0319547
0.0274766
0.0345941
0.012263
0.0320526
0.0282071
0.0297902
0.034901
0.0292986
0.0251978
0.0284871
0.0255182
0.0249476
0.0280632
0.00498215
0.0287537
0.0265006
0.0240218
0.027711
0.0113602
0.0243411
0.0191049
0.0224852
0.0249193
0.0197497
0.0125844
0.0168483
0.016559
0.0168863
0.0218601
0.0165928
0.024894
0.0141449
0.0160583
0.0192658
0.0192678
0.0273488
0.0157896
0.0174193
0.0240141
0.0243177
0.0227879
0.0218154
0.0224006
0.0173703
0.0269659
0.02232
0.0248264
0.0114537
0.0176803
0.0224837
0.0176797
0.0271966
0.032166
0.0315239
0.0111724
0.0222268
0.0301942
0.0284966
0.0311141
0.0269147
0.0247852
0.03533
0.0292569
0.0289381
0.0198411
0.0230663
0.0244335
0.0129903
0.0251555
0.0282322
0.0271412
0.0191687
0.0172992
0.018963
0.0359024
0.0173234
0.0233571
0.00867578
0.0281177
0.0234969
0.0167213
0.00245173
0.0193407
0.00266652
0.0213453
0.0204561
0.018304
0.0166954
0.0158881
0.0303717
0.0251742
0.0242351
0.020591
0.0197545
0.016622
0.0287664
0.0292425
0.0263333
0.0231582
0.0234932
0.0176447
0.0350895
0.0225493
0.0119099
0.0159169
0.0314829
0.0294932
0.0215545
0.0205021
0.0132025
0.0212651
0.0214693
0.0186739
0.0340214
0.0350835
0.0301352
0.0331541
0.0260108
0.0147135
0.032792
0.0143898
0.0185609
0.0152828
0.0313009
0.0305726
0.0307333
0.020546
0.012457
0.013774
0.0225238
0.0275267
0.0124528
0.01716
0.0265451
0.0201147
0.0324111
0.0160692
0.0264475
0.0240025
0.0232061
0.0148327
0.018957
0.0211373
0.0302045
0.0177204
0.0273482
0.0316744
0.0321796
0.0210558
0.0176752
0.0175749
0.0276106
0.0231806
0.0175731
0.0116291
0.0171635
0.017071
0.029564
0.0179133
0.0181109
0.0196191
0.0174564
0.0260624
0.0182824
0.016188
0.020346
0.0193145
0.023143
0.025779
0.0248148
0.0210781
0.024754
0.0190419
0.0286821
0.0307837
0.0171628
0.0301523
0.0171556
0.0297784
0.027375
0.0255562
0.0260155
0.0304168
0.014427
0.0188991
0.0175742
0.0306783
0.0302042
0.0280031
0.0304974
0.0310527
0.0260795
0.0319804
0.0214586
0.0193668
0.0349151
0.0203952
0.0317122
0.0252619
0.0161275
0.0193976
0.0316449
0.0263336
0.0239781
0.0308904
0.0303009
0.0196066
0.019441
0.0188865
0.0268808
0.0296617
0.0340888
0.0327506
0.0356326
0.0322883
0.0352851
0.0296048
0.0309334
0.0311744
0.0293878
0.0308732
0.0284193
0.0279963
0.0198681
0.0266768
0.0312134
0.0216822
0.0317997
0.0292128
0.0338414
0.0203613
0.0321833
0.030765
0.0199953
0.027563
0.0198603
0.0309728
0.0282764
0.0208181
0.0195947
0.0169476
0.0194953
0.0310153
0.0142318
0.0239057
0.019522
0.0219029
0.0322136
0.0311813
0.00977812
0.0312947
0.017046
0.0184796
0.0320379
0.0260431
0.0186974
0.0357448
0.020334
0.00977814
0.0188968
0.0278078
0.0347114
0.026317
0.0309595
0.028995
0.0152196
0.0149181
0.0127603
0.01465
0.0207432
0.0158657
0.0255589
0.0159961
0.0275244
0.0196573
0.0189254
0.0221358
0.0205834
0.0273407
0.0197377
0.0203117
0.00896336
0.0204624
0.0295979
0.029619
0.0268272
0.0196997
0.0128268
0.0372432
0.0250241
0.0208991
0.019267
0.0191849
0.0198722
0.0242116
0.0195161
0.0139791
0.0192602
0.013212
0.0238595
0.0196499
0.00835437
0.0185074
0.0218825
0.0196506
0.0302362
0.0204063
0.0263148
0.0100949
0.0211222
0.0201768
0.0176201
0.0189416
0.0223516
0.0210373
0.0219997
0.0187096
0.019004
0.0205222
0.027433
0.0193524
0.0274166
0.0247495
0.0195324
0.0200768
0.0202693
0.0224185
0.0202358
0.0189476
0.0215313
0.0225788
0.0266558
0.020265
0.0201341
0.0291472
0.028739
0.019367
0.0195366
0.0087273
0.023603
0.0163792
0.0221548
0.00980172
0.0101747
0.00909275
0.00924163
0.00980434
0.0103282
0.0106436
0.0248552
0.0183931
0.0185582
0.0212176
0.0206689
0.0204109
0.0215896
0.0199747
0.0204297
0.02077
0.0203353
0.0249681
0.0184893
0.0256651
0.0199704
0.0192784
0.0203609
0.021724
0.0227003
0.0211491
0.0242204
0.0226283
0.0209838
0.0151324
0.021105
0.0206372
0.0222195
0.0212869
0.0201702
0.019182
0.0211295
0.0220395
0.0299184
0.0197609
0.0290879
0.0303213
0.0207635
0.0290498
0.0222852
0.0178519
0.0243168
0.0213138
0.0153491
0.0134839
0.0240075
0.0255698
0.0216469
0.0179953
0.0216487
0.0102659
0.0214023
0.0200815
0.0102547
0.00392921
0.0042982
0.0185391
0.0197691
0.0229601
0.0220716
0.00202008
0.00211078
0.0218581
0.0220861
0.0209068
0.00770574
0.0184982
0.0215042
0.0219269
0.0189142
0.0166945
0.00802465
0.0316689
0.019893
0.0243061
0.0246861
0.0177408
0.0224528
0.0173458
0.0191403
0.00951147
0.0143532
0.0224795
0.0226184
0.0194397
0.0204174
0.0210695
0.0222157
0.0212489
0.0104768
0.0186444
0.021021
0.0198685
0.0298157
0.0104748
0.0161375
0.0166221
0.0157526
0.0102412
0.0102419
0.0180466
0.0145719
0.0208404
0.0112122
0.0122301
0.0039932
0.00399318
0.00836303
0.0132777
0.00894549
0.0177568
0.0192047
0.0204955
0.0230935
0.0209469
0.0193932
0.0152686
0.00944851
0.0191709
0.0198612
0.0192289
0.0106175
0.00981211
0.00764327
0.0192018
0.0195902
0.0157425
0.0177806
0.0164074
0.0150232
0.0201098
0.0150219
0.017749
0.0171126
0.0104898
0.0129508
0.0120433
0.0212647
0.00841011
0.00885972
0.00866737
0.0200821
0.00800796
0.00784283
0.0139726
0.0073148
0.0162597
0.0162843
0.00750868
0.0177078
0.00833478
0.00828525
0.00933425
0.00790478
0.00776109
0.0115809
0.00922511
0.00838337
0.00792934
0.016213
0.0185049
0.00872815
0.0178951
0.00719103
0.0181534
0.0144228
0.00751277
0.00636128
0.00709704
0.00941679
0.01559
0.0128343
0.00536916
0.00595978
0.0173798
0.00505411
0.00505407
0.00572687
0.00642822
0.00726584
0.0084554
0.0139816
0.0129418
0.0173918
0.00507787
0.00507784
0.0152847
0.00628635
0.0123914
0.0056963
0.00573031
0.00755026
0.013105
0.01357
0.0144567
0.0132491
0.0131047
0.00286295
0.0211537
0.00365198
0.00353833
0.0170886
0.0169701
0.00366672
0.0025468
0.00358851
0.0157629
SCALARS rr_uec(PEX,_P_ext) float
LOOKUP_TABLE default
-0.0610639
-0.139169
-0.111141
-0.14527
-0.0759627
-0.11796
-0.0603781
-0.144463
-0.124212
-0.156396
-0.0554204
-0.144906
-0.12752
-0.134679
-0.157793
-0.132453
-0.113919
-0.128786
-0.115356
-0.112781
-0.126866
-0.0225289
-0.129987
-0.119802
-0.108596
-0.125278
-0.0513436
-0.110041
-0.0863565
-0.101668
-0.112656
-0.0892709
-0.0568763
-0.076179
-0.074872
-0.0763507
-0.0988422
-0.0750244
-0.112541
-0.0639295
-0.0725855
-0.0871119
-0.0871211
-0.123639
-0.0713648
-0.0787379
-0.108558
-0.109932
-0.103019
-0.0986057
-0.101252
-0.0785188
-0.121921
-0.100893
-0.112247
-0.0517685
-0.0799421
-0.101633
-0.0799394
-0.122948
-0.145421
-0.142524
-0.0504963
-0.10049
-0.136512
-0.128833
-0.140666
-0.121678
-0.112047
-0.159723
-0.132279
-0.130838
-0.0896839
-0.104284
-0.110458
-0.0587099
-0.113734
-0.127638
-0.122702
-0.0866487
-0.0781923
-0.0857394
-0.162316
-0.0783007
-0.105578
-0.0392125
-0.127114
-0.10623
-0.0755757
-0.0110864
-0.0874257
-0.0120576
-0.0965067
-0.0924816
-0.0827398
-0.0754638
-0.0718142
-0.137307
-0.113818
-0.109563
-0.0930812
-0.0892949
-0.0751302
-0.130049
-0.132202
-0.11905
-0.1047
-0.106209
-0.0797527
-0.158636
-0.101939
-0.0538302
-0.0719423
-0.142329
-0.133335
-0.0974332
-0.0927013
-0.0596752
-0.096151
-0.0970481
-0.0844156
-0.153816
-0.158609
-0.136242
-0.149887
-0.1176
-0.0665267
-0.148249
-0.0650421
-0.083901
-0.069098
-0.141508
-0.13822
-0.138942
-0.0928728
-0.0563249
-0.0622573
-0.101827
-0.124449
-0.056306
-0.0775672
-0.120008
-0.0909298
-0.146527
-0.0726327
-0.119566
-0.108513
-0.10491
-0.0670553
-0.0856936
-0.0955546
-0.136551
-0.0800984
-0.123637
-0.143197
-0.14548
-0.0951921
-0.0798963
-0.079443
-0.124823
-0.104792
-0.0794327
-0.0525609
-0.0775801
-0.0771653
-0.133655
-0.0809728
-0.0818659
-0.0886806
-0.0789073
-0.117834
-0.0826418
-0.0731709
-0.0919834
-0.0873072
-0.104631
-0.116553
-0.112185
-0.095301
-0.11191
-0.0860718
-0.129669
-0.13917
-0.0775801
-0.136319
-0.0775444
-0.134628
-0.123764
-0.115546
-0.117613
-0.137515
-0.0652106
-0.0854296
-0.0794374
-0.138693
-0.136548
-0.126597
-0.13788
-0.140386
-0.117905
-0.14458
-0.0970054
-0.0875443
-0.157852
-0.092189
-0.143372
-0.114209
-0.0728995
-0.0876994
-0.143063
-0.119059
-0.108403
-0.139652
-0.136992
-0.0886301
-0.0878919
-0.0853737
-0.12153
-0.134098
-0.154113
-0.148062
-0.161092
-0.145972
-0.159521
-0.133841
-0.139855
-0.140944
-0.132867
-0.139583
-0.128492
-0.12658
-0.0898122
-0.120604
-0.14111
-0.0980181
-0.143772
-0.132076
-0.152992
-0.09204
-0.145495
-0.139085
-0.0903875
-0.124616
-0.089777
-0.14003
-0.127832
-0.094107
-0.0885751
-0.0766029
-0.0881183
-0.140222
-0.0643272
-0.108073
-0.088246
-0.0990138
-0.145632
-0.140968
-0.0442128
-0.14148
-0.0770476
-0.0835341
-0.144838
-0.117737
-0.0845182
-0.161599
-0.0919213
-0.0442129
-0.08542
-0.125717
-0.15693
-0.118975
-0.139973
-0.131087
-0.0688126
-0.0674423
-0.0576744
-0.0662144
-0.0937856
-0.0717245
-0.115548
-0.0723092
-0.124442
-0.0888699
-0.0855494
-0.100076
-0.0930472
-0.123605
-0.0892241
-0.0918158
-0.04053
-0.0925154
-0.133817
-0.133913
-0.121284
-0.0890524
-0.057996
-0.168376
-0.113126
-0.0944746
-0.0870957
-0.0867402
-0.089831
-0.109466
-0.0882222
-0.0631819
-0.0870657
-0.0597182
-0.107871
-0.0888259
-0.0377762
-0.0836622
-0.0989317
-0.0888287
-0.136698
-0.0922461
-0.118964
-0.0456261
-0.0954884
-0.0912079
-0.0796652
-0.0856241
-0.101044
-0.0951106
-0.0994585
-0.0845763
-0.0859074
-0.0927717
-0.124027
-0.0874822
-0.123947
-0.111888
-0.0883122
-0.090757
-0.0916284
-0.101347
-0.0914776
-0.0856524
-0.0973337
-0.102082
-0.120507
-0.0916093
-0.0910149
-0.131772
-0.129926
-0.0875483
-0.0883311
-0.0394411
-0.106704
-0.074034
-0.100155
-0.0442871
-0.0459723
-0.0410838
-0.0417564
-0.0442989
-0.0466661
-0.0480912
-0.112372
-0.0831629
-0.0838985
-0.0959179
-0.0934351
-0.0922691
-0.0976045
-0.0902967
-0.0923536
-0.0939097
-0.091927
-0.112885
-0.0835772
-0.116035
-0.0902813
-0.0871511
-0.0920429
-0.0982205
-0.102624
-0.0956081
-0.109495
-0.102295
-0.0948584
-0.0684031
-0.0954084
-0.0932961
-0.100458
-0.0962294
-0.0911802
-0.086714
-0.0955192
-0.0996356
-0.135258
-0.0893307
-0.131504
-0.137075
-0.0938646
-0.13133
-0.100746
-0.0807006
-0.109937
-0.096353
-0.0693995
-0.0609437
-0.10854
-0.115604
-0.0978608
-0.0813513
-0.0978734
-0.0463948
-0.0967547
-0.0907821
-0.0463485
-0.0177668
-0.0194354
-0.0838111
-0.0893675
-0.103796
-0.0997766
-0.00913483
-0.00954497
-0.0988175
-0.0998484
-0.0945167
-0.0348247
-0.0836218
-0.0972214
-0.0991241
-0.0855046
-0.07547
-0.0362655
-0.143176
-0.0899274
-0.109883
-0.111601
-0.0802001
-0.101502
-0.0784141
-0.0865267
-0.0429882
-0.0648762
-0.101622
-0.102253
-0.087881
-0.0922999
-0.0952484
-0.100431
-0.09606
-0.0473526
-0.0842949
-0.0950268
-0.0898251
-0.134797
-0.0473433
-0.072954
-0.0751445
-0.0712224
-0.0463077
-0.0463108
-0.0815929
-0.0658728
-0.0942151
-0.0506759
-0.0553004
-0.0180571
-0.018057
-0.0377946
-0.0600354
-0.0404477
-0.0802744
-0.0868289
-0.0926565
-0.104404
-0.0947012
-0.0876782
-0.0690272
-0.0427007
-0.086668
-0.0897917
-0.0869348
-0.0479861
-0.0443657
-0.0345455
-0.0868121
-0.088566
-0.0711631
-0.0803828
-0.0741756
-0.0679247
-0.0909138
-0.0679188
-0.0802395
-0.0773669
-0.0474303
-0.0585581
-0.0544324
-0.096136
-0.0380078
-0.0400401
-0.03917
-0.0907915
-0.0361904
-0.0354434
-0.0631653
-0.0330575
-0.0735165
-0.0736277
-0.033934
-0.0800514
-0.0376702
-0.0374435
-0.042187
-0.035724
-0.035077
-0.0523635
-0.0416944
-0.037887
-0.035835
-0.0732965
-0.0836626
-0.0394474
-0.0809011
-0.0324978
-0.0820701
-0.0652014
-0.0339523
-0.02875
-0.0320733
-0.0425568
-0.0704784
-0.0580295
-0.0242789
-0.0269495
-0.0785728
-0.0228542
-0.022854
-0.0258964
-0.0290669
-0.0328394
-0.0382314
-0.0632145
-0.0585153
-0.0786271
-0.0229611
-0.022961
-0.0691092
-0.0284094
-0.0560178
-0.0257432
-0.0258993
-0.0341249
-0.0592562
-0.0613589
-0.065368
-0.0599077
-0.0592547
-0.012946
-0.0956498
-0.0165136
-0.0160001
-0.0772689
-0.0767328
-0.0165807
-0.0115163
-0.0162266
-0.071274
SCALARS cell_type float
LOOKUP_TABLE default
0
0
0
0
0
0
0
0
0
0
0
0
0
0
0
0
0
0
0
0
0
1
0
0
0
0
0
0
0
0
0
0
0
0
0
0
0
0
0
0
0
0
0
0
0
0
0
0
0
0
0
0
0
0
0
0
0
0
0
0
0
0
0
0
0
0
0
0
0
0
0
0
0
0
0
0
0
0
0
0
0
0
0
0
0
0
0
0
0
0
0
0
0
0
0
0
0
0
0
0
0
0
0
0
0
0
0
0
0
0
0
0
0
0
0
0
0
0
0
0
0
0
0
0
0
0
0
0
0
0
0
0
0
0
0
0
0
0
0
0
0
0
0
0
0
0
0
0
0
0
0
0
0
0
0
0
0
0
0
0
0
0
0
0
0
0
0
0
0
0
0
0
0
0
0
0
0
0
0
0
0
0
0
0
0
0
0
0
0
0
0
0
0
0
0
0
0
0
0
0
0
0
0
0
0
0
0
0
0
0
0
0
0
0
0
0
0
0
0
0
0
0
0
0
0
0
0
0
0
0
0
0
0
0
0
0
0
0
0
0
0
0
0
0
0
0
0
0
0
0
0
0
0
0
0
0
0
0
0
0
0
0
0
0
0
0
0
0
0
0
0
0
0
0
0
0
0
0
0
0
0
0
0
0
0
0
0
0
0
0
0
0
0
0
0
0
0
0
0
0
0
0
0
0
0
0
0
0
0
0
0
0
0
0
0
0
0
0
0
0
0
0
0
0
0
0
0
0
0
0
0
0
0
0
0
0
0
0
0
0
0
0
0
0
0
0
0
0
0
0
2
2
2
2
2
2
2
0
0
0
0
0
0
0
0
0
0
0
0
0
0
0
0
0
0
0
0
0
0
0
0
0
0
0
0
0
0
0
0
0
0
0
0
0
0
0
0
0
0
0
0
0
0
0
0
0
0
0
0
0
0
0
0
0
0
0
1
1
0
0
0
0
0
0
0
0
0
0
0
0
0
0
0
0
0
0
0
0
0
0
0
0
0
0
0
0
0
0
0
0
0
0
0
0
0
0
0
0
0
0
0
1
1
0
0
0
0
0
0
0
0
0
0
0
0
0
0
0
0
0
0
0
0
0
0
0
0
0
0
0
0
0
0
0
0
0
0
0
0
0
0
0
0
0
0
0
0
0
0
0
0
0
0
0
0
0
0
0
0
0
0
0
0
0
0
0
0
0
1
1
0
0
0
0
0
0
0
0
0
0
0
0
0
0
0
0
0
0
0
0
0
0
0
0
0
0
0
0
0
0
0
0
0
TENSORS Lagrange_strain float
0.0305677 -0.00319816 -1.18175e-07
-0.00319816 0.0133889 2.92297e-08
-1.18175e-07 2.92297e-08 0.00740169

0.0291922 -0.00280077 6.40258e-08
-0.00280077 0.0335531 2.46761e-08
6.40258e-08 2.46761e-08 0.0331629

0.0300206 0.00367898 -3.17141e-08
0.00367898 0.031169 5.22267e-08
-3.17141e-08 5.22267e-08 0.0304673

0.0291614 -0.0039247 -2.31364e-07
-0.0039247 0.0327982 -7.49752e-08
-2.31364e-07 -7.49752e-08 0.0330877

0.0353665 0.00266926 -5.35427e-09
0.00266926 0.0380845 8.07616e-08
-5.35427e-09 8.07616e-08 0.0352918

0.0277348 -0.00236696 5.41683e-08
-0.00236696 0.0333838 -1.85264e-07
5.41683e-08 -1.85264e-07 0.0304383

0.0302617 0.00339397 -1.22561e-07
0.00339397 0.0134945 2.17907e-07
-1.22561e-07 2.17907e-07 0.00746308

0.0317539 0.00393965 -1.72089e-07
0.00393965 0.0311995 2.12379e-08
-1.72089e-07 2.12379e-08 0.0315601

0.033241 0.000715366 2.64268e-08
0.000715366 0.0262209 -2.78857e-09
2.64268e-08 -2.78857e-09 0.0281416

0.0354666 -0.000991013 4.80141e-08
-0.000991013 0.0275506 1.71308e-07
4.80141e-08 1.71308e-07 0.0327204

0.0280609 0.002051 -5.00061e-08
0.002051 0.0138087 -2.13606e-07
-5.00061e-08 -2.13606e-07 0.0117533

0.0279527 -0.00176565 9.84506e-08
-0.00176565 0.0350058 -4.51546e-08
9.84506e-08 -4.51546e-08 0.0315487

0.0311208 0.00365706 4.52574e-08
0.00365706 0.0312995 1.98654e-07
4.52574e-08 1.98654e-07 0.031079

0.0290687 -0.00187994 1.61241e-07
-0.00187994 0.0347983 1.01631e-07
1.61241e-07 1.01631e-07 0.0325459

0.0346309 0.00441828 6.90094e-08
0.00441828 0.0343623 -3.87993e-08
6.90094e-08 -3.87993e-08 0.0348842

0.0343269 7.30642e-05 1.63706e-07
7.30642e-05 0.0272855 -3.03815e-08
1.63706e-07 -3.03815e-08 0.0307778

0.0286923 -0.00235375 1.57814e-07
-0.00235375 0.0360132 8.94119e-08
1.57814e-07 8.94119e-08 0.0334496

0.0345728 -0.000353234 1.856e-07
-0.000353234 0.0273559 -1.30693e-09
1.856e-07 -1.30693e-09 0.0319765

0.0269196 0.00347808 3.00904e-08
0.00347808 0.0309444 -1.39492e-07
3.00904e-08 -1.39492e-07 0.0275761

0.033884 -0.000550319 7.48134e-08
-0.000550319 0.0264088 -1.58635e-07
7.48134e-08 -1.58635e-07 0.0301337

0.0266216 0.00113511 1.12383e-07
0.00113511 0.034033 1.40687e-07
1.12383e-07 1.40687e-07 0.0291494

0.0452948 0.000853023 1.45064e-07
0.000853023 0.0452654 7.38979e-08
1.45064e-07 7.38979e-08 0.0366378

0.0336743 0.000247459 -2.48845e-07
0.000247459 0.0263148 2.62582e-08
-2.48845e-07 2.62582e-08 0.0298046

0.0293093 -0.00363199 -1.20273e-08
-0.00363199 0.0311353 1.82744e-08
-1.20273e-08 1.82744e-08 0.0300461

0.0337791 0.000900073 1.37332e-07
0.000900073 0.0264958 3.33281e-08
1.37332e-07 3.33281e-08 0.0300807

0.0285456 0.00250779 -1.79642e-07
0.00250779 0.0338931 1.50407e-08
-1.79642e-07 1.50407e-08 0.0322864

0.0286291 0.000526654 -1.27093e-07
0.000526654 0.0176895 -5.39396e-08
-1.27093e-07 -5.39396e-08 0.0131711

0.0309137 0.00403442 1.17548e-07
0.00403442 0.030646 3.74552e-08
1.17548e-07 3.74552e-08 0.0306101

0.0259242 0.00477622 -1.17247e-07
0.00477622 0.0257325 -8.53464e-08
-1.17247e-07 -8.53464e-08 0.0211276

0.0415287 0.00136958 -1.38064e-07
0.00136958 0.0383496 1.13915e-07
-1.38064e-07 1.13915e-07 0.0361348

0.0344102 0.00187127 1.48718e-07
0.00187127 0.0279518 5.34843e-08
1.48718e-07 5.34843e-08 0.0309994

0.0217593 -0.00228778 1.35565e-07
-0.00228778 0.0299916 -1.36985e-07
1.35565e-07 -1.36985e-07 0.0211245

0.022863 -0.00535226 -2.07619e-07
-0.00535226 0.0234725 2.09323e-07
-2.07619e-07 2.09323e-07 0.0125787

0.0348323 0.000800924 -4.90008e-08
0.000800924 0.0422549 -1.32798e-07
-4.90008e-08 -1.32798e-07 0.0357858

0.0374531 -0.000661747 1.06129e-07
-0.000661747 0.0412026 -4.34948e-08
1.06129e-07 -4.34948e-08 0.0359004

0.0410752 0.00281339 -1.44719e-07
0.00281339 0.035986 1.97187e-07
-1.44719e-07 1.97187e-07 0.0357661

0.0372536 0.000705144 2.59608e-08
0.000705144 0.0432158 -3.05541e-08
2.59608e-08 -3.05541e-08 0.0361412

0.0402605 -0.00121873 3.12476e-07
-0.00121873 0.0378298 1.02271e-07
3.12476e-07 1.02271e-07 0.0358077

0.0312148 -0.00367773 1.9238e-07
-0.00367773 0.0311228 3.06547e-08
1.9238e-07 3.06547e-08 0.0309249

0.0227471 0.00527894 4.46087e-08
0.00527894 0.0237086 -3.14693e-07
4.46087e-08 -3.14693e-07 0.0125808

0.0297602 -0.00231566 -1.0184e-07
-0.00231566 0.0220306 6.34913e-08
-1.0184e-07 6.34913e-08 0.0208744

0.0376189 -0.000522843 7.03879e-08
-0.000522843 0.0430638 1.29117e-07
7.03879e-08 1.29117e-07 0.0361439

0.0412407 0.00263438 5.90775e-08
0.00263438 0.0394148 -1.08073e-07
5.90775e-08 -1.08073e-07 0.0361264

0.0343005 -0.00161722 8.83808e-09
-0.00161722 0.0279939 1.20053e-07
8.83808e-09 1.20053e-07 0.0310834

0.0231052 -0.00552565 -9.72193e-09
-0.00552565 0.0235622 -6.94249e-09
-9.72193e-09 -6.94249e-09 0.0162157

0.0299428 -0.00233228 -2.12621e-07
-0.00233228 0.0221548 1.14022e-07
-2.12621e-07 1.14022e-07 0.0213437

0.0258931 0.00222729 1.16031e-07
0.00222729 0.0326535 1.32606e-07
1.16031e-07 1.32606e-07 0.0279147

0.0275502 0.00252894 -1.18543e-07
0.00252894 0.0323729 8.2714e-08
-1.18543e-07 8.2714e-08 0.0284903

0.0341743 -0.00214103 -3.24724e-09
-0.00214103 0.0271067 1.08421e-07
-3.24724e-09 1.08421e-07 0.0304716

0.0229021 -0.00439226 -1.59803e-07
-0.00439226 0.0272483 1.47206e-07
-1.59803e-07 1.47206e-07 0.0198499

0.0294933 0.00247146 -1.19544e-08
0.00247146 0.0218338 2.65743e-08
-1.19544e-08 2.65743e-08 0.0202805

0.0298717 -0.00327083 -9.08004e-09
-0.00327083 0.0245131 -6.80806e-08
-9.08004e-09 -6.80806e-08 0.0230477

0.0344774 0.00257796 8.99898e-08
0.00257796 0.0382028 -1.91989e-08
8.99898e-08 -1.91989e-08 0.0352705

0.0286887 0.00383842 6.87812e-08
0.00383842 0.0257791 -9.03181e-08
6.87812e-08 -9.03181e-08 0.0231162

0.0349278 -0.00291574 -9.11553e-08
-0.00291574 0.0374322 3.97687e-08
-9.11553e-08 3.97687e-08 0.0351889

0.0255797 -0.00545524 -2.0636e-07
-0.00545524 0.022902 -3.15526e-08
-2.0636e-07 -3.15526e-08 0.0158192

0.0373465 0.000745863 1.73456e-07
0.000745863 0.0414128 5.83659e-08
1.73456e-07 5.83659e-08 0.0359209

0.0231672 -0.000693151 1.16344e-07
-0.000693151 0.0313126 -1.70741e-07
1.16344e-07 -1.70741e-07 0.0231023

0.0410292 0.0013798 3.29416e-08
0.0013798 0.0377066 -8.02546e-08
3.29416e-08 -8.02546e-08 0.0358991

0.0276752 0.00280522 -1.51529e-07
0.00280522 0.0327485 -3.46531e-08
-1.51529e-07 -3.46531e-08 0.0302306

0.0361386 0.000784537 -2.67775e-09
0.000784537 0.0281311 -8.49182e-08
-2.67775e-09 -8.49182e-08 0.0336727

0.036254 0.00153438 -7.25102e-09
0.00153438 0.0316927 -1.30089e-07
-7.25102e-09 -1.30089e-07 0.0342203

0.0286369 0.00405704 5.11659e-08
0.00405704 0.0198971 2.65159e-07
5.11659e-08 2.65159e-07 0.013759

0.0309722 -0.000784027 -1.58026e-07
-0.000784027 0.0370843 -1.07398e-07
-1.58026e-07 -1.07398e-07 0.0338812

0.0315547 0.00124363 -6.30688e-09
0.00124363 0.03642 -1.43146e-08
-6.30688e-09 -1.43146e-08 0.0342591

0.0285484 -0.000375276 -8.10592e-08
-0.000375276 0.0369552 8.48798e-09
-8.10592e-08 8.48798e-09 0.0326703

0.0296024 0.00307117 -1.2833e-07
0.00307117 0.0347905 7.50122e-08
-1.2833e-07 7.50122e-08 0.0337085

0.034719 0.00112212 -2.69106e-10
0.00112212 0.0278382 4.24008e-08
-2.69106e-10 4.24008e-08 0.0322081

0.0291868 -0.00369877 -1.57701e-08
-0.00369877 0.0310204 -6.02836e-08
-1.57701e-08 -6.02836e-08 0.0299091

0.0350538 -0.000236856 3.85492e-08
-0.000236856 0.0275795 1.71235e-07
3.85492e-08 1.71235e-07 0.0333927

0.0344519 -0.00254833 1.24317e-07
-0.00254833 0.0381336 -1.7223e-08
1.24317e-07 -1.7223e-08 0.0352605

0.0350107 0.00284936 2.08096e-08
0.00284936 0.0375698 -7.95739e-08
2.08096e-08 -7.95739e-08 0.0352403

0.0218883 -0.00213174 7.81526e-08
-0.00213174 0.0299216 1.13344e-07
7.81526e-08 1.13344e-07 0.0208509

0.0347007 -0.00369103 1.38511e-07
-0.00369103 0.0319575 1.61779e-08
1.38511e-07 1.61779e-08 0.0330786

0.0292914 -0.00329721 -5.3549e-09
-0.00329721 0.0321117 -4.19252e-08
-5.3549e-09 -4.19252e-08 0.0304328

0.0267793 -0.00401677 -3.5484e-09
-0.00401677 0.017605 -6.98169e-08
-3.5484e-09 -6.98169e-08 0.0127257

0.0324038 0.000418585 -2.05214e-08
0.000418585 0.0381048 -1.81356e-08
-2.05214e-08 -1.81356e-08 0.0344054

0.034537 0.00381725 1.66474e-07
0.00381725 0.0309411 -5.93359e-08
1.66474e-07 -5.93359e-08 0.0326599

0.0283761 0.00258144 -1.84925e-07
0.00258144 0.034129 -5.62099e-08
-1.84925e-07 -5.62099e-08 0.0322133

0.0315414 0.00103784 1.99072e-07
0.00103784 0.0228436 1.09302e-07
1.99072e-07 1.09302e-07 0.0240688

0.0270966 -0.00435853 1.16548e-07
-0.00435853 0.0237364 4.13175e-09
1.16548e-07 4.13175e-09 0.0183232

0.03626 -0.00140319 1.14679e-07
-0.00140319 0.0387424 1.58726e-07
1.14679e-07 1.58726e-07 0.0354009

0.0315558 0.00317079 6.1397e-08
0.00317079 0.0344013 -3.86545e-08
6.1397e-08 -3.86545e-08 0.0340899

0.0273009 -0.00415597 6.01818e-08
-0.00415597 0.0221747 -9.60785e-08
6.01818e-08 -9.60785e-08 0.018411

0.0303574 0.00139112 -5.82117e-08
0.00139112 0.0228301 1.14028e-07
-5.82117e-08 1.14028e-07 0.0209542

0.0186018 -0.00269686 -2.1419e-07
-0.00269686 0.0289282 -4.34483e-07
-2.1419e-07 -4.34483e-07 0.0158927

0.0271995 0.00188881 5.3491e-08
0.00188881 0.0343195 -9.39194e-10
5.3491e-08 -9.39194e-10 0.0306541

0.0353814 0.00305671 -1.94276e-08
0.00305671 0.0308197 -1.97255e-07
-1.94276e-08 -1.97255e-07 0.0327533

0.0226476 0.0053857 1.14114e-07
0.0053857 0.0240882 -2.3568e-07
1.14114e-07 -2.3568e-07 0.0161982

0.0459481 0.00223843 -3.82701e-07
0.00223843 0.0417503 2.25869e-07
-3.82701e-07 2.25869e-07 0.0366387

0.023081 -0.000534357 2.64225e-08
-0.000534357 0.0313533 4.10269e-09
2.64225e-08 4.10269e-09 0.0230721

0.0463614 -0.00225604 4.16395e-07
-0.00225604 0.0412944 -1.10777e-07
4.16395e-07 -1.10777e-07 0.0365938

0.0370649 -0.00362437 -8.40967e-08
-0.00362437 0.0334909 2.76236e-08
-8.40967e-08 2.76236e-08 0.0346205

0.0351371 0.00361897 -1.55539e-07
0.00361897 0.0300035 3.06283e-07
-1.55539e-07 3.06283e-07 0.032456

0.0299615 -0.00315882 -1.17397e-07
-0.00315882 0.0246901 -3.50494e-08
-1.17397e-07 -3.50494e-08 0.0232855

0.0230119 0.00402966 -2.72762e-08
0.00402966 0.0277785 1.74991e-07
-2.72762e-08 1.74991e-07 0.0203817

0.0210936 -0.00137851 -2.02306e-08
-0.00137851 0.0298946 2.7948e-07
-2.02306e-08 2.7948e-07 0.0182512

0.0287451 0.00288896 1.16536e-07
0.00288896 0.0342269 -2.52673e-09
1.16536e-07 -2.52673e-09 0.0326991

0.0370117 0.00223587 -6.34662e-08
0.00223587 0.0334519 2.80424e-08
-6.34662e-08 2.80424e-08 0.0343838

0.0281478 0.00198809 -1.74809e-07
0.00198809 0.0340594 -5.34364e-09
-1.74809e-07 -5.34364e-09 0.0308649

0.0318819 0.00207298 -1.15716e-08
0.00207298 0.0252538 -2.21536e-07
-1.15716e-08 -2.21536e-07 0.025617

0.0239072 -0.00277425 -1.92844e-07
-0.00277425 0.0297643 8.49409e-08
-1.92844e-07 8.49409e-08 0.0215611

0.027898 -0.0037635 1.48561e-07
-0.0037635 0.0218149 8.29442e-08
1.48561e-07 8.29442e-08 0.0180756

0.0293309 -0.00323171 -2.10931e-07
-0.00323171 0.0326291 9.33823e-08
-2.10931e-07 9.33823e-08 0.0324023

0.0306257 0.00361465 -1.25265e-07
0.00361465 0.0322283 -4.9812e-08
-1.25265e-07 -4.9812e-08 0.0323702

0.0287072 0.00304803 -2.60292e-08
0.00304803 0.0340262 3.43404e-08
-2.60292e-08 3.43404e-08 0.0326296

0.0292064 0.00172552 -1.69289e-08
0.00172552 0.0376167 -2.00206e-08
-1.69289e-08 -2.00206e-08 0.0338456

0.0344765 0.00123247 -2.65302e-07
0.00123247 0.0275232 5.69012e-09
-2.65302e-07 5.69012e-09 0.0306742

0.0199604 -0.000605228 9.99179e-09
-0.000605228 0.02966 2.14476e-07
9.99179e-09 2.14476e-07 0.0181035

0.0297967 -0.00486299 9.6247e-08
-0.00486299 0.0330485 -1.35661e-09
9.6247e-08 -1.35661e-09 0.0337411

0.0290807 0.00359975 7.78894e-08
0.00359975 0.0313589 1.93771e-07
7.78894e-08 1.93771e-07 0.0302634

0.0181053 0.000282827 -4.13245e-08
0.000282827 0.0293101 2.83736e-07
-4.13245e-08 2.83736e-07 0.0168781

0.0278427 0.00442358 -1.9514e-07
0.00442358 0.0209678 7.18997e-08
-1.9514e-07 7.18997e-08 0.0174544

0.0291905 -0.00302018 -3.50232e-08
-0.00302018 0.0327023 -1.19839e-07
-3.50232e-08 -1.19839e-07 0.0321848

0.0352419 0.000759811 -2.01858e-08
0.000759811 0.027338 8.00853e-08
-2.01858e-08 8.00853e-08 0.0325521

0.0294264 0.00352006 -8.25495e-08
0.00352006 0.0252007 1.24061e-07
-8.25495e-08 1.24061e-07 0.0231107

0.0396362 0.00171009 -1.0677e-07
0.00171009 0.0390391 -4.7703e-09
-1.0677e-07 -4.7703e-09 0.0359395

0.0283743 0.00312329 -3.55537e-08
0.00312329 0.022401 2.31411e-07
-3.55537e-08 2.31411e-07 0.018286

0.0394884 -0.00175059 -2.59608e-07
-0.00175059 0.0390648 1.91493e-07
-2.59608e-07 1.91493e-07 0.0359046

0.0232605 0.000103577 1.23615e-08
0.000103577 0.031517 -1.84187e-07
1.23615e-08 -1.84187e-07 0.0231191

0.032758 -0.000288369 1.33229e-07
-0.000288369 0.0246595 1.07902e-07
1.33229e-07 1.07902e-07 0.0269657

0.0380539 -0.00212926 6.82196e-08
-0.00212926 0.0304631 -1.07938e-07
6.82196e-08 -1.07938e-07 0.0347926

0.0292374 0.00320588 5.44164e-08
0.00320588 0.033277 -1.37764e-07
5.44164e-08 -1.37764e-07 0.0333421

0.0289499 -0.00177241 1.96631e-08
-0.00177241 0.0366083 -1.8768e-08
1.96631e-08 -1.8768e-08 0.033499

0.0365827 -0.00108506 1.66036e-07
-0.00108506 0.0264756 -2.87585e-08
1.66036e-07 -2.87585e-08 0.0338593

0.0311797 -0.00292607 -1.66247e-07
-0.00292607 0.0383056 5.69896e-08
-1.66247e-07 5.69896e-08 0.034843

0.0381645 -0.00088454 -1.57047e-07
-0.00088454 0.0387305 1.01969e-07
-1.57047e-07 1.01969e-07 0.0358347

0.030179 -0.00393995 -8.4404e-08
-0.00393995 0.0327096 -1.19709e-07
-8.4404e-08 -1.19709e-07 0.0327626

0.0213323 0.00146939 7.16901e-09
0.00146939 0.0296128 3.11853e-07
7.16901e-09 3.11853e-07 0.0182951

0.0293871 -0.00364567 2.33471e-08
-0.00364567 0.0253487 6.41885e-09
2.33471e-08 6.41885e-09 0.0231814

0.0328589 -0.00181687 1.05858e-07
-0.00181687 0.0397168 1.62464e-07
1.05858e-07 1.62464e-07 0.0352403

0.0350905 7.68031e-05 -4.03104e-09
7.68031e-05 0.0272213 8.15321e-08
-4.03104e-09 8.15321e-08 0.0332504

0.0308177 -0.00282883 2.89005e-08
-0.00282883 0.0348906 -3.42691e-08
2.89005e-08 -3.42691e-08 0.0340834

0.0295337 0.00338851 7.73118e-08
0.00338851 0.0328708 -1.53314e-07
7.73118e-08 -1.53314e-07 0.0333253

0.0264596 -0.00406307 1.18556e-07
-0.00406307 0.0272609 1.53496e-07
1.18556e-07 1.53496e-07 0.0215839

0.0371721 -0.000958402 -2.78164e-08
-0.000958402 0.0416093 -1.29308e-07
-2.78164e-08 -1.29308e-07 0.0358858

0.0227104 -0.00423753 -2.21685e-08
-0.00423753 0.027243 -7.23039e-08
-2.21685e-08 -7.23039e-08 0.016877

0.0341818 -0.00252468 -3.07985e-09
-0.00252468 0.0286057 9.15958e-08
-3.07985e-09 9.15958e-08 0.0310437

0.0364251 0.000289926 -2.95364e-08
0.000289926 0.0294368 -1.79639e-07
-2.95364e-08 -1.79639e-07 0.034193

0.0396407 0.0023967 -1.58653e-08
0.0023967 0.0391125 4.07447e-08
-1.58653e-08 4.07447e-08 0.0358669

0.0238555 0.00260914 2.66092e-09
0.00260914 0.0301506 1.20145e-07
2.66092e-09 1.20145e-07 0.0217982

0.0334301 0.00358146 -3.41453e-08
0.00358146 0.0307143 7.5798e-08
-3.41453e-08 7.5798e-08 0.0317664

0.0316422 -0.00319418 -1.12675e-07
-0.00319418 0.0265513 -5.78062e-08
-1.12675e-07 -5.78062e-08 0.0269346

0.0289285 -0.00234077 4.68339e-08
-0.00234077 0.0342338 4.04659e-08
4.68339e-08 4.04659e-08 0.0326051

0.0262438 0.00450134 1.61764e-08
0.00450134 0.024557 8.01639e-08
1.61764e-08 8.01639e-08 0.0180806

0.0284219 -0.00286654 3.60738e-08
-0.00286654 0.0340313 4.43954e-08
3.60738e-08 4.43954e-08 0.0324482

0.0331483 0.00405892 6.00313e-08
0.00405892 0.030464 -2.16381e-07
6.00313e-08 -2.16381e-07 0.0315415

0.033334 -0.00331186 -1.12064e-07
-0.00331186 0.0283563 4.7316e-09
-1.12064e-07 4.7316e-09 0.0300451

0.0291603 -0.00329519 -5.35843e-08
-0.00329519 0.0319871 -2.4518e-08
-5.35843e-08 -2.4518e-08 0.0304366

0.0314544 -0.00242917 -9.68415e-08
-0.00242917 0.0247183 -8.05401e-08
-9.68415e-08 -8.05401e-08 0.0251555

0.0329545 -0.00246665 -7.18887e-08
-0.00246665 0.0267088 -5.2916e-08
-7.18887e-08 -5.2916e-08 0.0285958

0.0294905 -0.00334194 -1.41746e-07
-0.00334194 0.0329492 -9.87386e-09
-1.41746e-07 -9.87386e-09 0.0334066

0.0261333 0.00463358 1.77406e-07
0.00463358 0.0255406 5.9141e-08
1.77406e-07 5.9141e-08 0.0210918

0.0281492 0.00201682 -2.00626e-07
0.00201682 0.0343351 -4.56977e-08
-2.00626e-07 -4.56977e-08 0.0311087

0.0308857 0.00348107 -8.99597e-08
0.00348107 0.0322544 1.65321e-07
-8.99597e-08 1.65321e-07 0.0325995

0.0291563 0.00334804 3.04745e-08
0.00334804 0.0331908 1.57961e-07
3.04745e-08 1.57961e-07 0.0332597

0.0289835 0.00152278 1.61186e-08
0.00152278 0.0354702 -2.23582e-07
1.61186e-08 -2.23582e-07 0.0326948

0.0310521 -0.00106172 -2.50313e-07
-0.00106172 0.0231409 4.66844e-08
-2.50313e-07 4.66844e-08 0.0220774

0.0238833 0.00240554 -1.56698e-07
0.00240554 0.0304099 -5.03422e-08
-1.56698e-07 -5.03422e-08 0.0221124

0.0292127 -0.003204 -1.06579e-08
-0.003204 0.0326359 -2.06727e-08
-1.06579e-08 -2.06727e-08 0.0316177

0.0289866 0.00335662 -1.89039e-07
0.00335662 0.0309321 -1.05468e-07
-1.89039e-07 -1.05468e-07 0.0285674

0.0266119 -0.0045912 1.10627e-07
-0.0045912 0.0252299 1.25172e-08
1.10627e-07 1.25172e-08 0.0212561

0.0262773 0.00489327 -1.92201e-08
0.00489327 0.0209457 2.1954e-07
-1.92201e-08 2.1954e-07 0.0167619

0.0235022 -0.00428667 -2.95815e-08
-0.00428667 0.027464 1.09527e-08
-2.95815e-08 1.09527e-08 0.0206258

0.0266712 -0.00402735 1.13175e-07
-0.00402735 0.0274821 1.81132e-08
1.13175e-07 1.81132e-08 0.0220495

0.0353644 -0.00090662 -8.72951e-08
-0.00090662 0.0273898 -5.66186e-08
-8.72951e-08 -5.66186e-08 0.0326544

0.0260446 0.00392144 -1.49646e-08
0.00392144 0.0280916 -2.44016e-07
-1.49646e-08 -2.44016e-07 0.0221019

0.0307873 0.00171646 1.23435e-07
0.00171646 0.0233598 3.9132e-09
1.23435e-07 3.9132e-09 0.0220251

0.0214305 0.00172199 -1.08892e-07
0.00172199 0.0302402 -4.14015e-08
-1.08892e-07 -4.14015e-08 0.0211323

0.0242622 -0.00288942 -1.01426e-07
-0.00288942 0.029951 -1.44608e-07
-1.01426e-07 -1.44608e-07 0.0220857

0.0313454 -0.000131195 2.50457e-08
-0.000131195 0.0392735 1.57796e-07
2.50457e-08 1.57796e-07 0.0346706

0.0230579 0.000294703 9.21649e-08
0.000294703 0.0314597 8.31742e-09
9.21649e-08 8.31742e-09 0.0230618

0.0227767 0.00400135 -9.64772e-09
0.00400135 0.0281267 -2.43239e-07
-9.64772e-09 -2.43239e-07 0.0206376

0.0288882 0.00158565 -1.50829e-07
0.00158565 0.0358329 -2.64006e-08
-1.50829e-07 -2.64006e-08 0.0328933

0.0293154 -0.0035801 -1.01402e-07
-0.0035801 0.025129 -7.81691e-09
-1.01402e-07 -7.81691e-09 0.0232393

0.0369769 0.00273321 -5.83251e-08
0.00273321 0.0297228 -9.52283e-08
-5.83251e-08 -9.52283e-08 0.0338016

0.037176 0.00348303 7.55886e-08
0.00348303 0.0334227 1.40063e-08
7.55886e-08 1.40063e-08 0.0346521

0.0345436 -0.00244659 2.76532e-07
-0.00244659 0.0285296 4.68659e-08
2.76532e-07 4.68659e-08 0.0313787

0.0390566 -0.000265567 1.56706e-07
-0.000265567 0.0339247 6.07453e-08
1.56706e-07 6.07453e-08 0.0352082

0.031479 -0.00418771 5.50475e-08
-0.00418771 0.0317818 1.43561e-07
5.50475e-08 1.43561e-07 0.0321562

0.0294615 0.00300751 -4.0728e-08
0.00300751 0.022327 2.31141e-07
-4.0728e-08 2.31141e-07 0.0210662

0.0302295 0.00397281 8.03202e-08
0.00397281 0.0326632 -1.47606e-07
8.03202e-08 -1.47606e-07 0.0327198

0.0302769 0.00384692 -1.17488e-07
0.00384692 0.0326072 -6.46921e-08
-1.17488e-07 -6.46921e-08 0.0326746

0.0262439 0.00396153 1.15889e-07
0.00396153 0.0277673 1.81181e-07
1.15889e-07 1.81181e-07 0.0218645

0.03445 0.00357669 7.05658e-08
0.00357669 0.0317798 7.42654e-08
7.05658e-08 7.42654e-08 0.0328314

0.0302482 0.00045243 -1.82183e-08
0.00045243 0.0204281 -2.93443e-07
-1.82183e-08 -2.93443e-07 0.020573

0.0331857 0.00420075 1.02661e-07
0.00420075 0.0323727 1.84201e-07
1.02661e-07 1.84201e-07 0.0334838

0.0305008 -0.00165461 -5.95226e-08
-0.00165461 0.0366159 -2.24514e-08
-5.95226e-08 -2.24514e-08 0.0336628

0.03736 0.00323285 -7.38333e-08
0.00323285 0.0334598 1.75242e-07
-7.38333e-08 1.75242e-07 0.0346642

0.0307369 -0.00389615 -1.5268e-07
-0.00389615 0.0322728 1.06113e-07
-1.5268e-07 1.06113e-07 0.0326801

0.0293739 -0.000645002 1.75993e-07
-0.000645002 0.0369025 3.0673e-08
1.75993e-07 3.0673e-08 0.0328478

0.0288122 -0.00315231 2.1914e-07
-0.00315231 0.0221398 1.1771e-07
2.1914e-07 1.1771e-07 0.0187588

0.0290023 0.0038444 3.34947e-08
0.0038444 0.0255776 6.27969e-08
3.34947e-08 6.27969e-08 0.0230727

0.0217012 0.00189093 2.78827e-08
0.00189093 0.0300609 1.21823e-07
2.78827e-08 1.21823e-07 0.0210836

0.03499 -0.000161488 -1.61922e-07
-0.000161488 0.0273895 -5.66371e-08
-1.61922e-07 -5.66371e-08 0.0333015

0.0344195 2.58455e-07 -9.15102e-08
2.58455e-07 0.0272746 -4.86785e-08
-9.15102e-08 -4.86785e-08 0.032041

0.0291655 0.00303993 1.63204e-07
0.00303993 0.0326799 -7.69394e-08
1.63204e-07 -7.69394e-08 0.0321326

0.0314496 0.00316638 -3.63017e-08
0.00316638 0.03425 -6.51346e-08
-3.63017e-08 -6.51346e-08 0.0340581

0.0291685 -0.00320428 -2.87715e-08
-0.00320428 0.0332384 1.78941e-07
-2.87715e-08 1.78941e-07 0.0333789

0.0287736 -8.56055e-05 -8.14346e-08
-8.56055e-05 0.036705 -9.57086e-08
-8.14346e-08 -9.57086e-08 0.0325256

0.029464 0.00337582 3.02931e-09
0.00337582 0.0330743 1.20231e-07
3.02931e-09 1.20231e-07 0.0333546

0.0328589 -0.00134645 1.49539e-07
-0.00134645 0.0253617 -1.13162e-07
1.49539e-07 -1.13162e-07 0.0278288

0.0263548 -0.00425449 2.22927e-07
-0.00425449 0.0281798 -1.80855e-08
2.22927e-07 -1.80855e-08 0.0242674

0.0362974 -0.000331413 -5.81794e-08
-0.000331413 0.029383 1.04591e-07
-5.81794e-08 1.04591e-07 0.0340279

0.0267807 -0.00444541 1.61628e-08
-0.00444541 0.0251901 -1.17492e-08
1.61628e-08 -1.17492e-08 0.020949

0.0308996 0.00250709 -4.56166e-08
0.00250709 0.035063 1.15791e-07
-4.56166e-08 1.15791e-07 0.0340677

0.0351128 -0.00349688 1.53167e-07
-0.00349688 0.0303883 2.28937e-07
1.53167e-07 2.28937e-07 0.0326147

0.0305016 -0.00124979 -1.81645e-07
-0.00124979 0.0229783 -1.21935e-07
-1.81645e-07 -1.21935e-07 0.0214782

0.037148 -0.00307708 -2.25584e-07
-0.00307708 0.0316532 8.24328e-08
-2.25584e-07 8.24328e-08 0.0339879

0.0349688 0.000321778 3.7227e-08
0.000321778 0.0275547 -2.33934e-08
3.7227e-08 -2.33934e-08 0.0334299

0.035843 -0.00308835 -9.70721e-09
-0.00308835 0.033258 -3.42464e-08
-9.70721e-09 -3.42464e-08 0.0341435

0.0349283 -0.0034106 1.58262e-07
-0.0034106 0.029595 -5.32445e-08
1.58262e-07 -5.32445e-08 0.032178

0.0349094 -0.00113375 2.07373e-08
-0.00113375 0.0278499 1.18565e-07
2.07373e-08 1.18565e-07 0.0323413

0.0314898 -0.00306232 6.75294e-08
-0.00306232 0.0344483 8.91311e-08
6.75294e-08 8.91311e-08 0.0341465

0.0292351 -0.004071 -8.94186e-08
-0.004071 0.0268995 1.69826e-07
-8.94186e-08 1.69826e-07 0.025346

0.0349924 -0.00324366 1.65419e-07
-0.00324366 0.0299152 -2.50387e-08
1.65419e-07 -2.50387e-08 0.0321952

0.0314623 0.00140901 6.81657e-09
0.00140901 0.0233269 -1.99832e-09
6.81657e-09 -1.99832e-09 0.0244835

0.0336648 0.00348389 2.06048e-07
0.00348389 0.033444 2.41289e-08
2.06048e-07 2.41289e-08 0.0336499

0.0298927 -0.00496719 1.34203e-08
-0.00496719 0.0330779 -1.60544e-08
1.34203e-08 -1.60544e-08 0.0338571

0.0300431 0.00492072 -2.93659e-08
0.00492072 0.0329397 1.21684e-07
-2.93659e-08 1.21684e-07 0.033824

0.0276878 -0.00374173 5.60338e-08
-0.00374173 0.0348067 1.07845e-08
5.60338e-08 1.07845e-08 0.0337666

0.0279256 0.003547 8.60066e-08
0.003547 0.0348347 8.42645e-08
8.60066e-08 8.42645e-08 0.0337314

0.0364295 -0.00115364 -1.59503e-07
-0.00115364 0.0263417 -6.11059e-08
-1.59503e-07 -6.11059e-08 0.0337578

0.0361984 0.00124735 -4.61339e-08
0.00124735 0.026563 -1.79717e-08
-4.61339e-08 -1.79717e-08 0.0337205

0.0350343 -0.00130646 -1.08737e-07
-0.00130646 0.0284679 -1.9846e-07
-1.08737e-07 -1.9846e-07 0.0325757

0.0344365 0.00425922 1.27432e-08
0.00425922 0.0342891 -6.42813e-08
1.27432e-08 -6.42813e-08 0.0348124

0.0343121 -0.00435686 -1.00638e-07
-0.00435686 0.0342806 2.31892e-08
-1.00638e-07 2.31892e-08 0.0348008

0.0305208 0.00209344 2.44832e-08
0.00209344 0.0381652 -2.23617e-08
2.44832e-08 -2.23617e-08 0.0348496

0.030664 -0.00205935 4.08504e-08
-0.00205935 0.0380952 -1.31832e-08
4.08504e-08 -1.31832e-08 0.0348369

0.0395021 -0.000529041 -1.00335e-07
-0.000529041 0.0328495 -2.07804e-07
-1.00335e-07 -2.07804e-07 0.0352578

0.039705 0.0005134 -3.22937e-08
0.0005134 0.0326218 1.81376e-07
-3.22937e-08 1.81376e-07 0.035303

0.023965 0.00127603 2.26811e-08
0.00127603 0.0320031 -1.19702e-07
2.26811e-08 -1.19702e-07 0.0251842

0.0311621 -0.00326527 5.92022e-08
-0.00326527 0.0322408 1.18672e-07
5.92022e-08 1.18672e-07 0.0328017

0.0277795 -0.00478575 -3.70401e-08
-0.00478575 0.0333118 1.79144e-07
-3.70401e-08 1.79144e-07 0.0334551

0.0333584 -0.000610226 1.26131e-07
-0.000610226 0.026403 -1.54806e-07
1.26131e-07 -1.54806e-07 0.0284481

0.038188 -0.00225199 9.33131e-08
-0.00225199 0.0307943 1.22342e-07
9.33131e-08 1.22342e-07 0.0348927

0.0382362 0.00218396 8.67522e-08
0.00218396 0.0309075 3.59839e-09
8.67522e-08 3.59839e-09 0.0349248

0.0360832 1.56208e-05 -1.63981e-08
1.56208e-05 0.0251257 7.18699e-08
-1.63981e-08 7.18699e-08 0.0334702

0.0242408 0.00302891 -8.91393e-08
0.00302891 0.0303974 -4.7431e-08
-8.91393e-08 -4.7431e-08 0.024277

0.027674 0.00475638 -1.11406e-07
0.00475638 0.0333122 1.51996e-07
-1.11406e-07 1.51996e-07 0.033393

0.0286744 -0.00307576 5.16568e-08
-0.00307576 0.0342607 4.03837e-08
5.16568e-08 4.03837e-08 0.0327523

0.0310854 0.00303564 3.11749e-08
0.00303564 0.0251466 1.30188e-07
3.11749e-08 1.30188e-07 0.0254671

0.0372274 0.00316575 -8.33942e-08
0.00316575 0.0315409 4.65395e-08
-8.33942e-08 4.65395e-08 0.0340758

0.0292267 -0.00406726 -1.1019e-08
-0.00406726 0.0269355 -1.54233e-07
-1.1019e-08 -1.54233e-07 0.0253212

0.0364017 -0.000453709 1.74883e-07
-0.000453709 0.0296913 -1.13044e-08
1.74883e-07 -1.13044e-08 0.0341309

0.0273444 -0.00449504 -1.73567e-07
-0.00449504 0.0333953 -9.46569e-08
-1.73567e-07 -9.46569e-08 0.0334417

0.0240378 0.00107902 5.85105e-08
0.00107902 0.032244 -8.9841e-08
5.85105e-08 -8.9841e-08 0.0255058

0.0242296 0.0028264 -9.84443e-08
0.0028264 0.0307012 6.75319e-08
-9.84443e-08 6.75319e-08 0.0245448

0.0267922 0.0045942 -2.93723e-08
0.0045942 0.0240417 -2.40078e-07
-2.93723e-08 -2.40078e-07 0.0182135

0.0298506 0.000199875 -1.58509e-07
0.000199875 0.0200883 -1.5598e-07
-1.58509e-07 -1.5598e-07 0.0193623

0.0319089 -0.00302373 1.07282e-07
-0.00302373 0.0341619 1.35225e-08
1.07282e-07 1.35225e-08 0.0340356

0.0229185 0.00399955 5.82875e-08
0.00399955 0.0276598 -1.20199e-07
5.82875e-08 -1.20199e-07 0.0176529

0.0292097 0.00310076 1.96742e-07
0.00310076 0.0327627 -2.57122e-08
1.96742e-07 -2.57122e-08 0.0310122

0.0315946 -0.000694453 -7.36933e-08
-0.000694453 0.02316 5.14847e-08
-7.36933e-08 5.14847e-08 0.0244848

0.0327609 0.00146444 1.24651e-07
0.00146444 0.0253468 -2.33021e-07
1.24651e-07 -2.33021e-07 0.0276129

0.0359785 5.62348e-05 -4.68668e-08
5.62348e-05 0.0249587 1.50915e-07
-4.68668e-08 1.50915e-07 0.0333862

0.0279658 -0.00380544 -1.44972e-07
-0.00380544 0.0349488 -2.92923e-08
-1.44972e-07 -2.92923e-08 0.0338159

0.0393146 -0.000843745 -2.94645e-07
-0.000843745 0.0416019 8.73247e-08
-2.94645e-07 8.73247e-08 0.03619

0.0298678 0.00493902 1.42031e-08
0.00493902 0.0329564 -1.55127e-07
1.42031e-08 -1.55127e-07 0.033779

0.030288 0.000214522 1.74264e-07
0.000214522 0.0203968 -2.79898e-07
1.74264e-07 -2.79898e-07 0.017276

0.0266738 -0.00425026 9.57906e-08
-0.00425026 0.0281331 4.4142e-08
9.57906e-08 4.4142e-08 0.0244374

0.0277463 0.00481563 1.49315e-07
0.00481563 0.033315 -1.36666e-07
1.49315e-07 -1.36666e-07 0.0334553

0.027945 -0.00145855 -1.18987e-07
-0.00145855 0.035085 -7.31128e-08
-1.18987e-07 -7.31128e-08 0.0314502

0.024465 -0.00330505 -9.02495e-08
-0.00330505 0.0300152 -8.25144e-08
-9.02495e-08 -8.25144e-08 0.024217

0.0279906 0.00377966 -9.72598e-08
0.00377966 0.0349101 1.19112e-07
-9.72598e-08 1.19112e-07 0.0337868

0.0313615 -0.00340946 -8.12451e-09
-0.00340946 0.0270085 1.78048e-07
-8.12451e-09 1.78048e-07 0.0269913

0.0402795 0.00140832 -1.33016e-07
0.00140832 0.0406183 2.5318e-07
-1.33016e-07 2.5318e-07 0.0361704

0.025881 0.00400283 1.15034e-07
0.00400283 0.0289544 -3.70107e-09
1.15034e-07 -3.70107e-09 0.024511

0.036678 0.00110304 -5.05469e-08
0.00110304 0.0263522 -1.47392e-07
-5.05469e-08 -1.47392e-07 0.0338978

0.0333421 0.00398385 4.36651e-08
0.00398385 0.0321158 -6.82429e-08
4.36651e-08 -6.82429e-08 0.0333156

0.0292281 0.00306705 8.64312e-08
0.00306705 0.0326055 -1.47329e-07
8.64312e-08 -1.47329e-07 0.0321577

0.0343644 -0.00431082 -1.66832e-07
-0.00431082 0.0345049 9.46463e-08
-1.66832e-07 9.46463e-08 0.034885

0.0354895 -0.00306338 -3.79626e-08
-0.00306338 0.03059 -1.60778e-07
-3.79626e-08 -1.60778e-07 0.0327504

0.0333665 0.00138752 -1.8431e-07
0.00138752 0.0395772 -1.16553e-07
-1.8431e-07 -1.16553e-07 0.0350025

0.0291971 -0.00307908 -5.97504e-08
-0.00307908 0.0328734 -8.02713e-08
-5.97504e-08 -8.02713e-08 0.0313834

0.0292647 -0.00123219 -1.1668e-08
-0.00123219 0.0192871 -1.11927e-07
-1.1668e-08 -1.11927e-07 0.0164122

0.0287783 -0.00183228 3.05131e-07
-0.00183228 0.018414 -7.0041e-09
3.05131e-07 -7.0041e-09 0.016197

0.038529 0.00220229 4.89543e-08
0.00220229 0.033239 -5.36926e-08
4.89543e-08 -5.36926e-08 0.034763

0.0280559 0.00294495 -1.57473e-07
0.00294495 0.032335 -3.89014e-08
-1.57473e-07 -3.89014e-08 0.0295182

0.0320672 0.00383439 -9.19463e-08
0.00383439 0.0309608 -8.06189e-08
-9.19463e-08 -8.06189e-08 0.0314545

0.03205 8.99874e-05 2.0417e-07
8.99874e-05 0.024577 9.8919e-08
2.0417e-07 9.8919e-08 0.0248881

0.0302378 0.000866153 1.80737e-07
0.000866153 0.0385813 4.34403e-08
1.80737e-07 4.34403e-08 0.0340964

0.0354018 0.00219118 -7.43227e-08
0.00219118 0.0293231 -1.12431e-07
-7.43227e-08 -1.12431e-07 0.0328583

0.0248115 -0.00333895 -1.2601e-07
-0.00333895 0.030006 -1.06624e-07
-1.2601e-07 -1.06624e-07 0.0244701

0.0286507 -0.000337793 -1.62875e-07
-0.000337793 0.0366578 -1.03503e-07
-1.62875e-07 -1.03503e-07 0.0323959

0.0252153 0.00173998 -4.27224e-08
0.00173998 0.0320298 -1.21722e-07
-4.27224e-08 -1.21722e-07 0.0256841

0.0332809 -0.00390953 -1.88846e-07
-0.00390953 0.0304969 -1.69606e-07
-1.88846e-07 -1.69606e-07 0.0315925

0.0290648 -0.00389606 5.66195e-08
-0.00389606 0.0282006 -2.36397e-08
5.66195e-08 -2.36397e-08 0.0257137

0.0261494 0.00409885 3.0493e-08
0.00409885 0.0285464 3.04161e-08
3.0493e-08 3.04161e-08 0.0243183

0.0452876 -0.00201743 -1.63458e-07
-0.00201743 0.0396065 -1.4475e-07
-1.63458e-07 -1.4475e-07 0.036367

0.0316669 0.000256566 5.32807e-08
0.000256566 0.0393271 -8.76226e-08
5.32807e-08 -8.76226e-08 0.0347692

0.0306168 0.00265102 -1.50457e-08
0.00265102 0.038443 1.7123e-08
-1.50457e-08 1.7123e-08 0.0349578

0.0387658 0.00209518 1.27377e-07
0.00209518 0.030222 7.1969e-09
1.27377e-07 7.1969e-09 0.0349427

0.0313712 -0.00345036 -9.26906e-08
-0.00345036 0.0321408 1.98497e-07
-9.26906e-08 1.98497e-07 0.0325728

0.0318181 0.00233599 5.49733e-08
0.00233599 0.0256204 9.52765e-08
5.49733e-08 9.52765e-08 0.0258797

0.0349939 -0.000708727 -2.57799e-07
-0.000708727 0.0415753 2.60566e-08
-2.57799e-07 2.60566e-08 0.0357278

0.0357882 -0.00251857 2.82856e-08
-0.00251857 0.0295502 1.01226e-07
2.82856e-08 1.01226e-07 0.0332581

0.0332971 -0.0020396 3.6593e-08
-0.0020396 0.0266528 2.24492e-07
3.6593e-08 2.24492e-07 0.0286755

0.0252524 0.00151075 -4.71609e-10
0.00151075 0.0322743 -9.20671e-08
-4.71609e-10 -9.20671e-08 0.0259502

0.0268048 -0.00334475 1.94143e-07
-0.00334475 0.0300095 -7.25061e-08
1.94143e-07 -7.25061e-08 0.0251874

0.0364779 -0.00336037 -1.50907e-07
-0.00336037 0.0352878 -6.30046e-08
-1.50907e-07 -6.30046e-08 0.0347424

0.0284758 0.00415228 2.85418e-08
0.00415228 0.027716 -1.66577e-07
2.85418e-08 -1.66577e-07 0.0254678

0.0372441 -0.00334557 1.51668e-07
-0.00334557 0.0333225 -2.28164e-07
1.51668e-07 -2.28164e-07 0.0346117

0.0322062 0.000337899 -5.36091e-08
0.000337899 0.0248627 9.06954e-08
-5.36091e-08 9.06954e-08 0.0254377

0.019161 -0.00368907 -1.95714e-07
-0.00368907 0.0275261 -1.01481e-08
-1.95714e-07 -1.01481e-08 0.0163108

0.0292099 -0.00380349 -1.57152e-07
-0.00380349 0.0281927 2.15761e-08
-1.57152e-07 2.15761e-08 0.0258078

0.0230458 0.0041274 -2.93879e-08
0.0041274 0.0280204 1.70586e-07
-2.93879e-08 1.70586e-07 0.0175921

0.029691 -0.00155932 -7.02346e-08
-0.00155932 0.0375332 -1.28556e-07
-7.02346e-08 -1.28556e-07 0.0336486

0.0243602 -0.00179366 9.48201e-10
-0.00179366 0.0318725 7.02097e-09
9.48201e-10 7.02097e-09 0.025448

0.0424378 -0.00323427 -9.4724e-08
-0.00323427 0.0423764 -4.15544e-08
-9.4724e-08 -4.15544e-08 0.0363753

0.0263367 0.00309101 7.02167e-08
0.00309101 0.0307014 6.76391e-08
7.02167e-08 6.76391e-08 0.0254778

0.0334768 -0.00432352 8.82634e-09
-0.00432352 0.0326596 -2.71502e-08
8.82634e-09 -2.71502e-08 0.0335665

0.0240806 -0.00155089 5.11396e-08
-0.00155089 0.0318871 -3.84146e-08
5.11396e-08 -3.84146e-08 0.0251767

0.0362227 -0.00253871 -2.23662e-07
-0.00253871 0.029511 -2.85649e-08
-2.23662e-07 -2.85649e-08 0.0335193

0.0266736 0.00310465 8.00236e-08
0.00310465 0.0303943 -5.01846e-08
8.00236e-08 -5.01846e-08 0.0253131

0.0343429 -0.000654021 -2.07208e-07
-0.000654021 0.0272767 -5.58737e-08
-2.07208e-07 -5.58737e-08 0.0305775

0.0188904 -0.00387146 -1.12717e-07
-0.00387146 0.0298017 -1.99797e-07
-1.12717e-07 -1.99797e-07 0.0129612

0.027999 0.00275452 -1.64983e-07
0.00275452 0.0326293 -9.32541e-08
-1.64983e-07 -9.32541e-08 0.0305734

0.0314373 -0.0025123 7.52036e-08
-0.0025123 0.0247221 -3.02077e-08
7.52036e-08 -3.02077e-08 0.0254058

0.0391175 -0.00286932 8.03449e-08
-0.00286932 0.0322212 3.58584e-08
8.03449e-08 3.58584e-08 0.0349367

0.0287528 0.00412383 -4.70186e-08
0.00412383 0.0272998 -7.69641e-08
-4.70186e-08 -7.69641e-08 0.0252552

0.0313608 -0.00391916 1.96413e-07
-0.00391916 0.0285417 -1.29007e-07
1.96413e-07 -1.29007e-07 0.0287306

0.0354074 0.00276385 2.80142e-07
0.00276385 0.0308554 6.89449e-08
2.80142e-07 6.89449e-08 0.0330388

0.0297724 -0.00370388 -5.76695e-08
-0.00370388 0.0329373 6.02962e-09
-5.76695e-08 6.02962e-09 0.033342

0.0270547 -0.00341021 2.98995e-08
-0.00341021 0.0299819 -9.47408e-08
2.98995e-08 -9.47408e-08 0.025397

0.0284405 0.00377112 -7.64293e-08
0.00377112 0.0289393 -9.10774e-09
-7.64293e-08 -9.10774e-09 0.0258869

0.0313707 0.0034132 -1.39506e-07
0.0034132 0.0268988 1.3143e-07
-1.39506e-07 1.3143e-07 0.0269655

0.0365357 -0.0019442 -1.12124e-07
-0.0019442 0.0306248 2.08186e-07
-1.12124e-07 2.08186e-07 0.0336351

0.0255333 -0.00216319 -7.34126e-08
-0.00216319 0.0318012 7.02562e-10
-7.34126e-08 7.02562e-10 0.0258533

0.0346991 -0.00231381 1.76812e-07
-0.00231381 0.0283337 -1.7902e-07
1.76812e-07 -1.7902e-07 0.0314553

0.0341852 0.00222314 1.24068e-07
0.00222314 0.0274314 1.00884e-07
1.24068e-07 1.00884e-07 0.0306032

0.0336445 -0.00124568 7.10638e-08
-0.00124568 0.0392993 1.57296e-07
7.10638e-08 1.57296e-07 0.0349268

0.0320715 -0.00174666 2.94129e-08
-0.00174666 0.0253299 -1.17921e-07
2.94129e-08 -1.17921e-07 0.0258706

0.0250013 7.98363e-05 -3.23661e-08
7.98363e-05 0.0331505 -3.01703e-08
-3.23661e-08 -3.01703e-08 0.0268606

0.0332462 0.00242862 2.51399e-07
0.00242862 0.0271931 -2.96527e-08
2.51399e-07 -2.96527e-08 0.0289215

0.0311169 0.00359874 -1.2631e-07
0.00359874 0.027292 -1.87619e-07
-1.2631e-07 -1.87619e-07 0.027122

0.0252949 -0.00204098 -6.76862e-08
-0.00204098 0.0318638 -4.11699e-08
-6.76862e-08 -4.11699e-08 0.0256105

0.0252005 -0.000154718 1.38702e-09
-0.000154718 0.0332913 -2.12972e-09
1.38702e-09 -2.12972e-09 0.0271434

0.0354125 0.00385813 8.1775e-08
0.00385813 0.032995 -5.62663e-08
8.1775e-08 -5.62663e-08 0.0338948

0.027585 -0.00143108 9.23028e-08
-0.00143108 0.0353413 1.68848e-07
9.23028e-08 1.68848e-07 0.0314413

0.0312333 -0.00348366 -4.83822e-08
-0.00348366 0.0269768 -1.55895e-07
-4.83822e-08 -1.55895e-07 0.0270091

0.0312958 0.00277246 -1.60659e-07
0.00277246 0.0249215 9.45526e-08
-1.60659e-07 9.45526e-08 0.0252456

0.0345817 0.00311817 7.49923e-09
0.00311817 0.0293858 -1.14836e-07
7.49923e-09 -1.14836e-07 0.031795

0.0279906 0.000716619 3.1826e-08
0.000716619 0.0360385 3.45211e-08
3.1826e-08 3.45211e-08 0.0318174

0.0287154 0.00378139 -1.12641e-07
0.00378139 0.0285585 3.34166e-08
-1.12641e-07 3.34166e-08 0.0257273

0.0367895 0.00305766 -3.628e-08
0.00305766 0.036125 2.11321e-07
-3.628e-08 2.11321e-07 0.0349064

0.0226795 -0.00754509 -2.14987e-07
-0.00754509 0.0186873 3.32365e-08
-2.14987e-07 3.32365e-08 0.0108449

0.0332906 -0.0032873 -1.94238e-07
-0.0032873 0.0286318 -1.60997e-07
-1.94238e-07 -1.60997e-07 0.0301233

0.0207264 0.000913364 7.89201e-08
0.000913364 0.0300304 2.23209e-07
7.89201e-08 2.23209e-07 0.0183459

0.0312992 -0.00378168 2.11253e-07
-0.00378168 0.0292304 -1.02606e-07
2.11253e-07 -1.02606e-07 0.0290308

0.00153954 -0.00651865 2.70082e-08
-0.00651865 0.0275677 -1.18331e-07
2.70082e-08 -1.18331e-07 0.00290825

0.00146993 0.00636824 -4.74514e-08
0.00636824 0.0275858 -2.07898e-07
-4.74514e-08 -2.07898e-07 0.00300123

0.0119843 0.0145047 1.25977e-07
0.0145047 0.0175321 1.5797e-07
1.25977e-07 1.5797e-07 0.00277116

0.0121658 -0.0144954 1.18039e-07
-0.0144954 0.0172236 -1.48016e-07
1.18039e-07 -1.48016e-07 0.00280377

0.0293402 -0.000164086 1.98134e-07
-0.000164086 0 0
1.98134e-07 0 0.00295259

0.0235917 -0.0112824 -9.46247e-08
-0.0112824 0.00539536 4.55689e-08
-9.46247e-08 4.55689e-08 0.00297828

0.0236337 0.0113487 1.06653e-07
0.0113487 0.00544946 5.13614e-08
1.06653e-07 5.13614e-08 0.00303941

0.0369102 0.00191138 -2.18561e-07
0.00191138 0.0302416 -7.43261e-08
-2.18561e-07 -7.43261e-08 0.0338772

0.0387046 0.00341018 3.65269e-08
0.00341018 0.036617 -7.34239e-08
3.65269e-08 -7.34239e-08 0.035578

0.0344143 0.000872339 7.77113e-08
0.000872339 0.0274563 3.78715e-08
7.77113e-08 3.78715e-08 0.0316872

0.0328721 0.00285012 1.60358e-07
0.00285012 0.0268887 1.34292e-07
1.60358e-07 1.34292e-07 0.0286458

0.0257002 0.00231305 5.99485e-08
0.00231305 0.0323661 8.56777e-08
5.99485e-08 8.56777e-08 0.0276351

0.0307122 0.00376896 -1.35193e-07
0.00376896 0.0276754 -1.74461e-07
-1.35193e-07 -1.74461e-07 0.0271172

0.0333051 -0.00390321 -8.6395e-08
-0.00390321 0.0304651 -2.2079e-08
-8.6395e-08 -2.2079e-08 0.0316295

0.0309728 0.00365419 -2.14787e-08
0.00365419 0.0272865 -7.67345e-08
-2.14787e-08 -7.67345e-08 0.0269248

0.0249867 -0.000371607 5.71747e-08
-0.000371607 0.0331216 -2.72981e-08
5.71747e-08 -2.72981e-08 0.0268428

0.0385482 -0.00348455 -6.28797e-08
-0.00348455 0.0368801 2.30284e-07
-6.28797e-08 2.30284e-07 0.0355836

0.0251752 -0.000635523 -3.76486e-09
-0.000635523 0.0332099 -2.56666e-09
-3.76486e-09 -2.56666e-09 0.0271023

0.0360177 0.00304729 3.35254e-08
0.00304729 0.0330104 7.26095e-08
3.35254e-08 7.26095e-08 0.0340976

0.0296225 0.00347562 2.20169e-08
0.00347562 0.0248459 8.38291e-08
2.20169e-08 8.38291e-08 0.0230225

0.0304955 -0.00171355 1.65811e-07
-0.00171355 0.0375121 -6.41237e-08
1.65811e-07 -6.41237e-08 0.0347362

0.0339198 0.00180444 -2.41557e-07
0.00180444 0.0271813 -3.43361e-08
-2.41557e-07 -3.43361e-08 0.0303201

0.0312007 -0.00392019 -6.42873e-08
-0.00392019 0.0285307 -1.29613e-07
-6.42873e-08 -1.29613e-07 0.0286141

0.0315832 -0.00322127 4.41328e-08
-0.00322127 0.0266913 2.21002e-08
4.41328e-08 2.21002e-08 0.0270474

0.0384797 -0.00214133 2.04715e-07
-0.00214133 0.0334168 -1.26947e-07
2.04715e-07 -1.26947e-07 0.0347446

0.0326808 0.00366403 1.34131e-07
0.00366403 0.0292318 -8.84161e-08
1.34131e-07 -8.84161e-08 0.0301546

0.0326445 0.00313759 8.9008e-08
0.00313759 0.027252 -1.79161e-07
8.9008e-08 -1.79161e-07 0.0287876

0.0269549 -0.000365332 1.57608e-07
-0.000365332 0.0349867 -9.77709e-10
1.57608e-07 -9.77709e-10 0.0301677

0.0258994 0.000765679 6.65043e-08
0.000765679 0.0340032 1.3872e-07
6.65043e-08 1.3872e-07 0.0288227

0.0327776 0.000345378 -6.48589e-09
0.000345378 0.0248615 9.37398e-08
-6.48589e-09 9.37398e-08 0.0274435

0.0313869 -0.000944843 8.86039e-08
-0.000944843 0.0230037 -1.1017e-07
8.86039e-08 -1.1017e-07 0.0238919

0.0308804 0.00398504 -1.19481e-08
0.00398504 0.0288057 -5.9365e-08
-1.19481e-08 -5.9365e-08 0.0286239

0.0331179 -0.00343138 -1.39393e-07
-0.00343138 0.0285402 -1.30525e-07
-1.39393e-07 -1.30525e-07 0.029969

0.0364123 -0.00282385 -1.58575e-07
-0.00282385 0.0327328 1.43794e-07
-1.58575e-07 1.43794e-07 0.0341439

0.0292061 -0.00412754 -6.35624e-08
-0.00412754 0.029192 -1.21823e-07
-6.35624e-08 -1.21823e-07 0.0277536

0.0269717 -0.00362037 1.42563e-07
-0.00362037 0.0304645 1.41666e-08
1.42563e-07 1.41666e-08 0.0272131

0.0283262 0.00389942 -1.91706e-08
0.00389942 0.0299006 1.0492e-07
-1.91706e-08 1.0492e-07 0.0277517

0.0259011 -0.00124894 7.38256e-08
-0.00124894 0.033613 -5.34819e-08
7.38256e-08 -5.34819e-08 0.0285157

0.0266543 -0.000202028 1.38553e-07
-0.000202028 0.0349125 6.56553e-08
1.38553e-07 6.56553e-08 0.0299196

0.0277621 0.000752798 1.73692e-07
0.000752798 0.0360379 3.34422e-08
1.73692e-07 3.34422e-08 0.0316579

0.0262469 -0.00274935 -1.5918e-07
-0.00274935 0.0319625 1.28401e-07
-1.5918e-07 1.28401e-07 0.0277104

0.0345821 0.00317558 -2.214e-09
0.00317558 0.0291681 -9.65269e-08
-2.214e-09 -9.65269e-08 0.0316341

0.0339093 -0.00126087 -1.04778e-07
-0.00126087 0.02693 1.97581e-07
-1.04778e-07 1.97581e-07 0.0302014

0.0257901 0.00097437 -7.07311e-08
0.00097437 0.0338292 -9.86599e-08
-7.07311e-08 -9.86599e-08 0.0285417

0.0278238 -0.00127009 7.49703e-08
-0.00127009 0.0353971 1.653e-07
7.49703e-08 1.653e-07 0.0313657

0.0272927 -0.00213729 1.0084e-08
-0.00213729 0.0336569 -7.32214e-09
1.0084e-08 -7.32214e-09 0.0302253

0.0327766 -0.00107719 1.32942e-07
-0.00107719 0.0253197 1.35232e-07
1.32942e-07 1.35232e-07 0.0272541

0.0333152 -0.00427108 3.8002e-08
-0.00427108 0.0323804 1.7412e-07
3.8002e-08 1.7412e-07 0.033529

0.0264884 0.00121953 1.71066e-07
0.00121953 0.0338353 -9.5643e-08
1.71066e-07 -9.5643e-08 0.0288158

0.0398103 -0.00243149 1.86743e-07
-0.00243149 0.0352184 -7.49198e-08
1.86743e-07 -7.49198e-08 0.0354609

0.0188887 0.00316462 1.01064e-07
0.00316462 0.0278758 1.82663e-07
1.01064e-07 1.82663e-07 0.0162726

0.0338155 -0.00352288 -5.53919e-08
-0.00352288 0.0334948 2.53677e-08
-5.53919e-08 2.53677e-08 0.0337259

0.0353435 -0.00399933 -4.36885e-08
-0.00399933 0.0330462 -1.5413e-07
-4.36885e-08 -1.5413e-07 0.0339037

0.0266856 -9.03487e-05 -1.6715e-07
-9.03487e-05 0.0349176 5.86442e-08
-1.6715e-07 5.86442e-08 0.0299277

0.0332425 -0.00217665 4.58029e-08
-0.00217665 0.0271528 9.90639e-08
4.58029e-08 9.90639e-08 0.0289024

0.0293473 0.00168486 -1.31776e-08
0.00168486 0.0358197 -3.44655e-08
-1.31776e-08 -3.44655e-08 0.0328794

0.0132074 -0.000379021 -2.69614e-07
-0.000379021 0.028362 -1.58297e-07
-2.69614e-07 -1.58297e-07 0.0111517

0.0271134 0.00186827 2.17642e-07
0.00186827 0.0340613 -8.47758e-09
2.17642e-07 -8.47758e-09 0.0303059

0.0311087 -0.00385839 4.11798e-08
-0.00385839 0.0291538 8.30251e-08
4.11798e-08 8.30251e-08 0.0288061

0.0186196 0.00320454 2.16126e-08
0.00320454 0.0301391 -3.60146e-08
2.16126e-08 -3.60146e-08 0.0131266

0.0426002 0.00351784 1.69304e-07
0.00351784 0.0418486 2.4607e-07
1.69304e-07 2.4607e-07 0.0364802

0.043206 -0.003749 6.84601e-08
-0.003749 0.0414175 -9.69964e-08
6.84601e-08 -9.69964e-08 0.0364625

0.0310645 -0.00399078 1.64142e-07
-0.00399078 0.0304706 -2.81239e-08
1.64142e-07 -2.81239e-08 0.0304607

0.0289215 -0.00406396 -7.36467e-09
-0.00406396 0.0291502 8.24864e-08
-7.36467e-09 8.24864e-08 0.027594

0.0330505 0.00272697 -7.54349e-08
0.00272697 0.0275282 8.3305e-08
-7.54349e-08 8.3305e-08 0.0290751

0.032779 0.00195998 -7.14141e-08
0.00195998 0.0255908 9.06996e-08
-7.14141e-08 9.06996e-08 0.0278224

0.0463995 0.00041896 4.16777e-07
0.00041896 0.046356 -6.28933e-08
4.16777e-07 -6.28933e-08 0.0366944

0.0469183 -0.00095158 -3.58998e-07
-0.00095158 0.0457687 8.64748e-08
-3.58998e-07 8.64748e-08 0.0367655

0.0347993 0.000638134 1.79905e-07
0.000638134 0.0275725 -5.08951e-08
1.79905e-07 -5.08951e-08 0.0322161

0.0277514 0.000882191 2.15804e-07
0.000882191 0.03557 -4.99633e-09
2.15804e-07 -4.99633e-09 0.0313482

0.0276073 0.000883045 -2.1218e-07
0.000883045 0.0355702 -1.72212e-08
-2.1218e-07 -1.72212e-08 0.0312443

0.0234588 0.00739984 2.76312e-07
0.00739984 0.0183016 -1.34305e-07
2.76312e-07 -1.34305e-07 0.0109014

0.0272466 -0.00367547 -2.6328e-08
-0.00367547 0.0303465 -1.12372e-08
-2.6328e-08 -1.12372e-08 0.027319

0.0365662 0.00239164 -1.33595e-07
0.00239164 0.0295757 -1.83014e-07
-1.33595e-07 -1.83014e-07 0.033784

0.0332731 0.0012475 -4.0547e-08
0.0012475 0.0265036 3.1291e-08
-4.0547e-08 3.1291e-08 0.0284314

0.0291519 -0.00349229 -5.3689e-08
-0.00349229 0.0304707 -2.16268e-09
-5.3689e-08 -2.16268e-09 0.0281728

0.0328107 -0.00264768 -5.07859e-09
-0.00264768 0.0267275 2.05205e-08
-5.07859e-09 2.05205e-08 0.0285863

0.0224599 0.0076128 3.20465e-09
0.0076128 0.0185902 3.08498e-07
3.20465e-09 3.08498e-07 0.0109039

0.0331445 0.00410238 -2.40329e-08
0.00410238 0.0326374 8.95895e-08
-2.40329e-08 8.95895e-08 0.0331812

0.0258897 -0.00257807 -6.00809e-09
-0.00257807 0.0320236 -1.42738e-07
-6.00809e-09 -1.42738e-07 0.0275069

0.0324819 0.00378584 -2.90875e-10
0.00378584 0.0292675 9.40539e-08
-2.90875e-10 9.40539e-08 0.0301464

0.0268154 -0.000543697 -1.45448e-07
-0.000543697 0.0349517 -3.19547e-08
-1.45448e-07 -3.19547e-08 0.0301374

0.0269896 0.0025634 6.11956e-08
0.0025634 0.0324477 1.44953e-07
6.11956e-08 1.44953e-07 0.0282859

0.0305256 0.00399098 -1.86514e-09
0.00399098 0.0293226 9.37856e-08
-1.86514e-09 9.37856e-08 0.0287746

0.0276081 -0.00293713 5.83813e-08
-0.00293713 0.031853 1.67076e-07
5.83813e-08 1.67076e-07 0.0282485

0.0294557 -0.00357566 2.08405e-09
-0.00357566 0.0303502 -9.41416e-09
2.08405e-09 -9.41416e-09 0.0283045

0.0181374 0.00142538 -4.47733e-08
0.00142538 0.0280357 2.47008e-08
-4.47733e-08 2.47008e-08 0.0131274

0.0234734 -0.00429385 -1.27046e-08
-0.00429385 0.0275557 -1.51353e-08
-1.27046e-08 -1.51353e-08 0.017723

0.026205 -0.00152596 -8.18437e-08
-0.00152596 0.0336234 1.10874e-07
-8.18437e-08 1.10874e-07 0.0287513

0.033023 0.00347483 1.46633e-07
0.00347483 0.0288771 -7.29694e-08
1.46633e-07 -7.29694e-08 0.0300683

0.030321 0.0038574 -1.22259e-08
0.0038574 0.0298859 1.05514e-07
-1.22259e-08 1.05514e-07 0.0289897

0.0274138 -0.00280056 6.33909e-08
-0.00280056 0.0319833 -1.37784e-07
6.33909e-08 -1.37784e-07 0.0281385

0.026554 -0.00154075 4.09679e-08
-0.00154075 0.0335814 -5.51752e-08
4.09679e-08 -5.51752e-08 0.0287457

0.0309559 0.00371815 1.76028e-08
0.00371815 0.0295627 -1.17413e-07
1.76028e-08 -1.17413e-07 0.0289406

0.0267587 -0.0018158 -1.74786e-07
-0.0018158 0.0334739 9.10022e-08
-1.74786e-07 9.10022e-08 0.0289537

0.0191657 0.00355445 4.21415e-07
0.00355445 0.0276071 -7.91003e-08
4.21415e-07 -7.91003e-08 0.0162918

0.0308729 -0.000535007 -1.72163e-08
-0.000535007 0.0388186 1.02198e-07
-1.72163e-08 1.02198e-07 0.0342938

0.0286555 0.00404785 -1.95538e-07
0.00404785 0.0295178 -9.34552e-08
-1.95538e-07 -9.34552e-08 0.027714

0.0355791 0.00197498 -7.52615e-08
0.00197498 0.0295023 -1.10634e-07
-7.52615e-08 -1.10634e-07 0.032842

0.0362583 -0.00211467 -9.26788e-08
-0.00211467 0.0297548 -6.93042e-08
-9.26788e-08 -6.93042e-08 0.0332172

0.0285099 -0.00309555 5.73803e-08
-0.00309555 0.0185686 2.15144e-07
5.73803e-08 2.15144e-07 0.0157296

0.0283528 -0.00279032 1.27915e-07
-0.00279032 0.0327747 -1.46861e-07
1.27915e-07 -1.46861e-07 0.030571

0.0291906 0.00350077 1.50423e-07
0.00350077 0.031599 -4.54785e-08
1.50423e-07 -4.54785e-08 0.0304868

0.0349591 -0.00290715 -1.64505e-07
-0.00290715 0.0376747 9.91294e-08
-1.64505e-07 9.91294e-08 0.0352355

0.0394599 0.0018852 1.36112e-07
0.0018852 0.0446079 1.53733e-07
1.36112e-07 1.53733e-07 0.0364323

0.0449431 0.0012906 -1.2175e-07
0.0012906 0.0391156 4.09143e-08
-1.2175e-07 4.09143e-08 0.0364143

0.0355597 0.00434559 -7.42969e-09
0.00434559 0.0351345 4.29475e-08
-7.42969e-09 4.29475e-08 0.0350028

0.0265713 0.00338795 8.2205e-08
0.00338795 0.0310056 8.93292e-08
8.2205e-08 8.93292e-08 0.0272552

0.0330386 0.00349708 1.04138e-07
0.00349708 0.0286663 3.38669e-08
1.04138e-07 3.38669e-08 0.0300495

0.0220594 0.00576407 -8.03444e-08
0.00576407 0.024237 9.74727e-08
-8.03444e-08 9.74727e-08 0.0160719

0.0386178 -0.00151227 -6.02928e-08
-0.00151227 0.0444325 -4.46528e-09
-6.02928e-08 -4.46528e-09 0.0363616

0.046048 -0.00046563 2.7509e-08
-0.00046563 0.0454391 1.96241e-07
2.7509e-08 1.96241e-07 0.0366904

0.0451791 -3.18493e-05 -2.27567e-07
-3.18493e-05 0.0463028 7.36542e-07
-2.27567e-07 7.36542e-07 0.0366724

0.0176406 -0.00679472 1.24151e-07
-0.00679472 0.0231077 2.73882e-07
1.24151e-07 2.73882e-07 0.0107383

0.039292 -0.00155634 1.63512e-07
-0.00155634 0.0387144 4.49035e-08
1.63512e-07 4.49035e-08 0.035853

0.0383963 0.00117666 -3.55827e-07
0.00117666 0.0415173 -8.39557e-08
-3.55827e-07 -8.39557e-08 0.0361243

0.0331745 -0.00343557 -4.79645e-08
-0.00343557 0.028219 8.04694e-08
-4.79645e-08 8.04694e-08 0.0299029

0.031844 0.000140638 1.26728e-07
0.000140638 0.0386712 8.75836e-08
1.26728e-07 8.75836e-08 0.0344498

0.0285761 -0.00265997 2.36318e-08
-0.00265997 0.0333802 -2.71684e-09
2.36318e-08 -2.71684e-09 0.0315886

0.0356616 0.000831557 1.85612e-07
0.000831557 0.027377 -4.67476e-08
1.85612e-07 -4.67476e-08 0.0329995

0.0288754 0.00204424 -1.83007e-08
0.00204424 0.0368157 1.48149e-07
-1.83007e-08 1.48149e-07 0.033669

0.0298688 0.000946241 -2.99426e-08
0.000946241 0.0373873 1.31947e-07
-2.99426e-08 1.31947e-07 0.0333629

0.0344014 0.00268491 -3.5721e-07
0.00268491 0.0288509 9.26216e-08
-3.5721e-07 9.26216e-08 0.0312257

0.0132789 -0.000409276 -5.1232e-08
-0.000409276 0.0281224 -6.45877e-08
-5.1232e-08 -6.45877e-08 0.0112011

0.0309641 -0.0036259 1.12723e-07
-0.0036259 0.0309146 -2.32645e-08
1.12723e-07 -2.32645e-08 0.0306089

0.0329278 -0.00344349 -9.74413e-08
-0.00344349 0.0320204 1.72424e-08
-9.74413e-08 1.72424e-08 0.0325787

0.0335705 -0.00415904 4.74122e-08
-0.00415904 0.0325341 1.21675e-07
4.74122e-08 1.21675e-07 0.0337351

0.0265617 0.00414854 -2.34188e-07
0.00414854 0.0176912 1.21274e-07
-2.34188e-07 1.21274e-07 0.012605

0.0388275 -0.00269669 2.19201e-07
-0.00269669 0.039576 -1.34944e-07
2.19201e-07 -1.34944e-07 0.0359578

0.0230824 0.00692059 1.23414e-07
0.00692059 0.0255017 3.68817e-07
1.23414e-07 3.68817e-07 0.0126092

0.0308739 -0.0028174 2.37675e-07
-0.0028174 0.0348067 1.07887e-08
2.37675e-07 1.07887e-08 0.0339556

0.0354111 0.00193658 1.17433e-07
0.00193658 0.0284652 9.44387e-08
1.17433e-07 9.44387e-08 0.032344

0.0318206 -0.00189331 -3.33495e-08
-0.00189331 0.0249502 9.03845e-08
-3.33495e-08 9.03845e-08 0.025395

0.0292919 0.00315909 1.48045e-07
0.00315909 0.0327317 -3.82235e-08
1.48045e-07 -3.82235e-08 0.031279

0.0344365 0.00268894 -2.81066e-07
0.00268894 0.0286339 -8.81061e-08
-2.81066e-07 -8.81061e-08 0.0312203

0.0325182 0.00149886 -2.68257e-08
0.00149886 0.0403731 -1.29869e-07
-2.68257e-08 -1.29869e-07 0.0353359

0.0319401 -0.0041545 -4.72223e-08
-0.0041545 0.0312007 6.11469e-08
-4.72223e-08 6.11469e-08 0.03181

0.0396763 0.00265535 -1.53292e-08
0.00265535 0.033198 5.23525e-08
-1.53292e-08 5.23525e-08 0.0353154

0.0279709 -0.00241826 2.56245e-08
-0.00241826 0.0335507 -4.85999e-09
2.56245e-08 -4.85999e-09 0.0304699

0.0293504 0.000558691 -6.18173e-08
0.000558691 0.0373111 1.28558e-07
-6.18173e-08 1.28558e-07 0.033252

0.041943 0.00133767 -5.47349e-08
0.00133767 0.0370997 -6.1636e-08
-5.47349e-08 -6.1636e-08 0.0361157

0.0420973 -0.0011479 -2.40688e-07
-0.0011479 0.0373255 2.12004e-07
-2.40688e-07 2.12004e-07 0.0360976

0.0283826 0.002369 -8.33184e-08
0.002369 0.0181814 9.90636e-08
-8.33184e-08 9.90636e-08 0.0159496

0.0350253 0.00106144 1.05659e-07
0.00106144 0.0285656 9.51734e-08
1.05659e-07 9.51734e-08 0.0330585

0.0128668 0.000923428 -3.6077e-08
0.000923428 0.0316262 -1.77323e-07
-3.6077e-08 -1.77323e-07 0.00612161

0.0131624 -0.00138803 -2.65225e-07
-0.00138803 0.0321318 -1.49127e-08
-2.65225e-07 -1.49127e-08 0.00611196

0.0152686 0.00715414 2.40362e-07
0.00715414 0.0284529 -2.44541e-07
2.40362e-07 -2.44541e-07 0.00598408

0.0347637 -0.00382123 4.2909e-08
-0.00382123 0.0312673 -1.59313e-07
4.2909e-08 -1.59313e-07 0.0329386

0.0155806 -0.00619428 -7.2903e-08
-0.00619428 0.0261526 4.98638e-09
-7.2903e-08 4.98638e-09 0.0104718

0.0155128 -0.00708677 2.0627e-07
-0.00708677 0.0274231 1.65607e-07
2.0627e-07 1.65607e-07 0.00591389

0.0284257 0.00342565 -7.49642e-09
0.00342565 0.0310058 8.9063e-08
-7.49642e-09 8.9063e-08 0.0281523

0.025193 0.00932577 -9.30066e-08
0.00932577 0.0190206 2.00039e-07
-9.30066e-08 2.00039e-07 0.00593379

0.0365375 0.00173182 1.28325e-07
0.00173182 0.0385514 -1.60526e-08
1.28325e-07 -1.60526e-08 0.0354746

0.0395347 2.53408e-05 1.33679e-07
2.53408e-05 0.0355394 -1.31933e-08
1.33679e-07 -1.31933e-08 0.0354553

0.0261071 -0.00924438 2.07815e-09
-0.00924438 0.0188124 -1.72851e-07
2.07815e-09 -1.72851e-07 0.00588796

0.0276894 -0.00306501 6.57167e-09
-0.00306501 0.0320941 -4.24269e-08
6.57167e-09 -4.24269e-08 0.0296223

0.026255 0.00441804 -2.16273e-07
0.00441804 0.0201577 5.20087e-08
-2.16273e-07 5.20087e-08 0.0130444

0.0172791 0.00797296 3.83617e-09
0.00797296 0.0271488 -1.93276e-07
3.83617e-09 -1.93276e-07 0.0059878

0.018196 0.00275511 4.34301e-07
0.00275511 0.0275893 -5.54315e-08
4.34301e-07 -5.54315e-08 0.0128499

0.017304 -0.00827625 -2.20105e-08
-0.00827625 0.027152 -1.03528e-07
-2.20105e-08 -1.03528e-07 0.00581368

0.0179328 -0.0015709 -4.08549e-07
-0.0015709 0.0280052 1.30149e-07
-4.08549e-07 1.30149e-07 0.0126903

0.0370499 0.000923383 -6.71753e-08
0.000923383 0.0412996 1.07301e-08
-6.71753e-08 1.07301e-08 0.0358096

0.0221309 -0.00585518 2.15132e-08
-0.00585518 0.0236644 1.05162e-07
2.15132e-08 1.05162e-07 0.0151586

0.0156999 0.00598602 2.56902e-07
0.00598602 0.0259022 3.49628e-07
2.56902e-07 3.49628e-07 0.0107501

0.0302083 0.0047299 8.42577e-08
0.0047299 0.0143491 -1.98317e-07
8.42577e-08 -1.98317e-07 0.00611578

0.0329381 -0.00384949 -2.37885e-07
-0.00384949 0.0301236 4.37146e-09
-2.37885e-07 4.37146e-09 0.0310508

0.0308883 0.00169414 -4.92799e-08
0.00169414 0.0368422 1.49524e-07
-4.92799e-08 1.49524e-07 0.0339497

0.0260897 -0.00484384 -6.81557e-08
-0.00484384 0.0191971 -2.72362e-07
-6.81557e-08 -2.72362e-07 0.0126949

0.0330004 -0.00378591 -2.30208e-07
-0.00378591 0.0300747 2.26148e-08
-2.30208e-07 2.26148e-08 0.0311271

0.0300187 -0.00451985 1.12464e-07
-0.00451985 0.0130535 1.49435e-07
1.12464e-07 1.49435e-07 0.00603723

0.032473 -0.00372751 -1.71378e-07
-0.00372751 0.0313068 -1.20957e-07
-1.71378e-07 -1.20957e-07 0.0319789

0.0280905 -0.00331135 1.796e-07
-0.00331135 0.0320035 8.09424e-09
1.796e-07 8.09424e-09 0.0296249

0.0234433 0.00874357 9.59747e-08
0.00874357 0.0204826 -2.78271e-07
9.59747e-08 -2.78271e-07 0.00602609

0.0181995 -0.00292076 5.88547e-08
-0.00292076 0.0268661 3.19639e-07
5.88547e-08 3.19639e-07 0.0122698

0.0233143 -0.0090192 -8.39623e-08
-0.0090192 0.0201519 -1.63172e-07
-8.39623e-08 -1.63172e-07 0.00588392

0.0170823 0.00640808 1.79754e-07
0.00640808 0.0235658 -3.24815e-07
1.79754e-07 -3.24815e-07 0.0108309

0.0308256 -0.00396017 1.1157e-07
-0.00396017 0.0301597 -2.65742e-08
1.1157e-07 -2.65742e-08 0.030085

0.0389169 -0.00195857 9.78958e-08
-0.00195857 0.0369404 -1.59909e-07
9.78958e-08 -1.59909e-07 0.035499

0.045541 0.00150574 -5.09363e-07
0.00150574 0.0449523 6.19607e-08
-5.09363e-07 6.19607e-08 0.0366186

0.0435642 -0.00071153 -1.98616e-07
-0.00071153 0.0462302 -4.43396e-08
-1.98616e-07 -4.43396e-08 0.0365843

0.0286151 0.00171581 1.13384e-07
0.00171581 0.0355659 -2.03375e-07
1.13384e-07 -2.03375e-07 0.0323891

0.0453362 -0.00144686 -2.14825e-08
-0.00144686 0.0449801 -2.58915e-07
-2.14825e-08 -2.58915e-07 0.0366363

0.0438079 0.000567363 -2.09283e-07
0.000567363 0.0465049 -5.09897e-07
-2.09283e-07 -5.09897e-07 0.0366174

0.0466785 0.00099171 -5.56521e-08
0.00099171 0.043377 -3.66217e-08
-5.56521e-08 -3.66217e-08 0.0365926

0.0397502 -0.00163951 -4.34156e-07
-0.00163951 0.0460759 1.55314e-07
-4.34156e-07 1.55314e-07 0.0364823

0.0190537 -0.00388728 2.74929e-07
-0.00388728 0.0272304 -1.2315e-07
2.74929e-07 -1.2315e-07 0.0154709

0.0421415 -0.00175053 -6.09036e-08
-0.00175053 0.0367252 -1.27939e-07
-6.09036e-08 -1.27939e-07 0.0360043

0.035964 -0.00457365 -1.54729e-07
-0.00457365 0.0351502 6.06339e-08
-1.54729e-07 6.06339e-08 0.0349676

0.0397529 -0.00242172 -1.42398e-07
-0.00242172 0.0360638 6.41763e-08
-1.42398e-07 6.41763e-08 0.0355667

0.0351839 0.00204352 2.38171e-07
0.00204352 0.0285486 -5.50509e-08
2.38171e-07 -5.50509e-08 0.0322313

0.0396922 0.00133797 -2.94085e-07
0.00133797 0.0472279 9.39883e-08
-2.94085e-07 9.39883e-08 0.0365481

0.0464963 0.00259343 1.57968e-07
0.00259343 0.0404188 3.84873e-07
1.57968e-07 3.84873e-07 0.0365293

0.0400867 0.00150531 -5.6744e-09
0.00150531 0.0366737 4.22757e-08
-5.6744e-09 4.22757e-08 0.0356148

0.0279142 -0.00191988 3.58819e-08
-0.00191988 0.0125245 1.58305e-07
3.58819e-08 1.58305e-07 0.0106244

0.0283185 0.0032674 -5.92838e-08
0.0032674 0.0315491 -1.26623e-07
-5.92838e-08 -1.26623e-07 0.0294102

0.0231877 -0.00773589 2.72627e-08
-0.00773589 0.0181797 -2.5315e-07
2.72627e-08 -2.5315e-07 0.0102893

0.0228303 -0.00731564 1.05657e-07
-0.00731564 0.0257682 2.6918e-08
1.05657e-07 2.6918e-08 0.0119543

0.0290221 -0.0046468 1.28358e-08
-0.0046468 0.019128 2.22748e-07
1.28358e-08 2.22748e-07 0.0126149

0.0375739 -0.000660962 2.05349e-07
-0.000660962 0.0449128 -2.9081e-07
2.05349e-07 -2.9081e-07 0.0362933

0.0375717 0.000358396 1.19829e-07
0.000358396 0.04479 1.64308e-07
1.19829e-07 1.64308e-07 0.0362735

0.0426052 -0.00327434 -7.07164e-08
-0.00327434 0.0394495 3.31442e-07
-7.07164e-08 3.31442e-07 0.0362274

0.0429973 -0.00294457 6.76257e-08
-0.00294457 0.0391685 9.36727e-08
6.76257e-08 9.36727e-08 0.0362344

0.0425015 0.00350428 -2.90429e-07
0.00350428 0.0399717 -3.08465e-07
-2.90429e-07 -3.08465e-07 0.0362722

0.0443965 0.00041593 3.2322e-07
0.00041593 0.0450803 4.63492e-07
3.2322e-07 4.63492e-07 0.0366355

0.0426089 -0.00274464 5.68389e-08
-0.00274464 0.0395071 1.68505e-08
5.68389e-08 1.68505e-08 0.0362889

0.0426027 -0.00251126 9.71291e-08
-0.00251126 0.0442667 -2.41485e-07
9.71291e-08 -2.41485e-07 0.0365631

0.0451178 0.000332146 3.11179e-07
0.000332146 0.0454679 -1.83545e-07
3.11179e-07 -1.83545e-07 0.0366538

0.0436365 -0.00278315 3.31688e-07
-0.00278315 0.0389165 -1.40521e-07
3.31688e-07 -1.40521e-07 0.0363295

0.0435121 0.00283879 -1.23761e-07
0.00283879 0.039069 -1.4413e-08
-1.23761e-07 -1.4413e-08 0.0363676

0.0451938 -0.000471538 -1.80299e-07
-0.000471538 0.0455825 9.46044e-08
-1.80299e-07 9.46044e-08 0.0367025

0.0452258 -0.000424927 7.86004e-07
-0.000424927 0.0443591 -1.16398e-06
7.86004e-07 -1.16398e-06 0.0367208

0.0427981 0.00163844 1.92043e-07
0.00163844 0.0442493 -1.70413e-07
1.92043e-07 -1.70413e-07 0.0366069

0.041116 0.00361802 -1.18301e-07
0.00361802 0.0405161 -1.10844e-07
-1.18301e-07 -1.10844e-07 0.0363215

SCALARS pressure float
LOOKUP_TABLE default
-60.0513
19.3083
5.80347
21.2902
15.8788
5.88743
-58.6744
7.78318
-3.80482
15.1246
-24.4319
7.61734
5.59214
12.2793
23.3376
5.53903
18.5209
13.2073
-0.692795
6.75664
-0.904782
33.1343
5.80086
5.79692
6.60192
14.9029
-38.3852
6.67177
-15.2423
30.626
5.17637
-15.6571
-42.0563
27.326
20.779
27.3589
31.8843
19.8089
4.85967
-42.5995
-17.4073
31.9051
31.9932
5.99361
-21.805
-15.9758
-1.05239
-3.40544
6.54487
-16.2177
-18.9187
-15.3458
20.7556
-15.373
20.3087
-33.1486
21.1294
-15.4602
21.1393
7.04498
21.7648
16.1188
-45.562
12.7898
16.3621
10.9051
21.574
13.8282
5.77355
21.8171
20.8116
20.7823
-17.6909
11.6006
3.974
-31.6096
14.3567
10.9963
14.1462
-8.71997
-28.9447
14.9777
20.1631
-22.0378
-23.4294
-28.092
7.09784
9.63243
-22.2157
37.7411
-15.5089
38.4437
18.3045
10.7615
-15.1665
-15.8727
-30.2213
14.7534
14.3657
4.59875
-10.7662
-21.9395
-25.1015
16.213
14.1003
14.9616
18.6975
3.77479
-24.5583
26.5131
7.21762
-21.4089
-24.612
14.8379
15.078
-16.1456
20.1648
-29.1132
20.6284
-16.7292
-2.90469
23.8339
21.7271
16.0329
26.6797
22.6316
21.7855
15.7085
-29.7809
-16.0989
24.0917
21.6174
20.9893
22.0657
-22.0138
23.587
-33.8373
5.46343
21.7543
23.6304
-21.9368
6.67647
-5.96669
15.0836
-30.4074
15.624
7.83325
2.40761
5.1778
-9.39446
-0.457977
22.6416
-15.4545
5.29104
15.2042
21.5606
11.5082
-21.1132
-21.2638
10.7905
-2.84275
-15.1975
-21.2204
-15.1652
-20.9864
15.2797
-20.6358
-21.2015
-15.2078
-21.0637
19.0043
-15.9409
-14.8244
12.0644
-14.4846
18.8028
19.0534
7.47277
18.0479
11.7731
-16.249
15.2882
14.9609
-21.5284
10.4265
-14.2213
16.0486
14.5956
17.0818
14.8351
10.3439
-26.9762
-16.0822
-15.9581
21.907
14.5258
14.6247
20.9226
22.487
9.50269
21.7338
-0.384706
-8.17085
20.7788
-17.8387
19.9456
10.3642
-21.5175
15.7211
22.5262
14.7312
9.39349
14.1899
21.0557
-7.83289
8.82757
-7.9087
14.6483
26.9277
26.5814
27.9605
26.3886
26.7243
26.291
13.8259
23.4302
24.0294
23.9737
23.3999
21.1927
21.8573
-8.26296
15.9335
28.1911
-3.18881
23.576
23.2053
27.8344
-8.49366
28.0964
15.3446
-7.58172
17.4921
-8.25792
20.2272
29.6128
-7.48611
-8.10088
-29.5919
-18.189
19.5273
-31.9854
5.73422
-7.79407
-1.18963
28.2492
26.6403
30.4264
26.761
-34.8009
-8.17977
28.3374
8.07278
-8.29529
26.4459
-6.29543
30.4713
-7.9542
27.0471
14.566
14.7872
23.8451
10.0475
18.021
8.11696
-29.8599
-24.5531
16.8068
1.7595
8.17942
-13.6089
17.4358
11.6998
-8.10163
9.45208
-10.8235
7.51681
-10.7547
-8.48486
33.2643
19.1517
25.0883
25.3126
13.8291
-10.4046
26.4298
14.685
-1.65922
-10.2739
-12.5643
17.5066
-7.48536
17.5745
-12.0413
-21.3504
-10.6083
-34.6812
15.5625
-7.7631
34.4423
-11.578
16.8714
-8.40889
15.9727
-12.7583
4.28892
-51.1182
8.52152
-7.74677
21.3338
-8.15229
-0.12311
10.7153
21.1242
-12.0607
-10.2008
-6.06849
14.3179
-10.1801
6.88774
6.38548
16.3054
-10.4196
-6.3306
-1.70259
-5.66069
-11.0785
-5.84491
15.3055
7.80777
-5.55628
-8.96059
7.80519
7.69404
-10.6747
16.3093
-27.2136
2.29276
-28.4812
-0.957848
-8.87871
-8.09699
-11.7796
-10.9433
-9.88159
-7.77659
-7.89995
16.6378
24.7778
12.1159
-0.291956
-0.8255
-5.67486
7.30492
-6.32096
-6.31825
24.9236
-5.73028
14.1179
-15.9084
24.3252
5.96784
-0.391513
-5.64414
16.2749
2.47675
0.198706
2.44774
0.455577
-0.741193
-9.93043
-0.0959484
2.11291
15.0689
-1.28863
-1.40751
-0.999172
-0.388935
1.96494
8.05041
-1.19391
8.07786
5.5829
-0.435994
7.03496
5.48993
-3.87681
16.4766
-1.90375
23.062
-21.9734
15.0441
15.6823
2.0393
-1.99784
12.5427
-26.5062
5.79193
-1.65828
-50.4826
30.4984
30.635
5.82457
-1.14471
-1.04716
-0.850042
33.4189
33.2936
13.0946
6.08159
6.66209
-28.9623
-1.27978
16.5334
-3.18305
-4.34846
-0.0172995
-25.2709
14.3031
-1.28055
2.86144
2.69283
-2.72361
-0.0496831
-3.20984
-4.03391
-37.9821
-33.6832
-0.12839
1.87412
-0.534453
-3.74454
-1.93695
-1.87808
-0.924677
-21.9073
17.2495
-0.769677
12.565
14.1835
-26.7639
6.28594
7.13651
18.4778
36.4281
36.4606
22.6387
-1.75616
2.59928
-20.9295
36.1267
32.7602
32.8272
-24.8082
21.7756
30.5236
2.59877
15.7239
10.371
17.1643
17.7261
12.5054
5.68106
-25.3976
4.25972
10.4091
16.2439
-31.7095
28.3099
-52.7096
18.6849
10.2987
-10.6275
7.41704
5.45675
24.4745
9.41079
24.4075
4.10482
12.3997
30.6409
29.4666
-22.9899
17.4354
-70.2289
-74.3754
-67.1729
11.6481
-31.2594
-63.6063
-3.80384
-69.9344
16.4632
16.4069
-73.7505
5.21179
-39.7292
-70.7349
-37.7551
-71.8713
-39.4506
21.1369
-23.9598
-29.0434
-70.6188
4.83107
15.7575
-36.189
6.05317
-63.614
9.83566
3.88131
-67.8974
-37.6227
-66.4069
-23.7549
5.02872
20.5263
35.3722
36.7279
11.8118
36.8518
36.9051
36.4934
36.4055
-24.4785
28.2486
20.6691
21.9808
11.5343
36.0614
36.0929
18.1202
-23.9397
3.24619
-30.5256
-56.5957
-50.4729
36.1445
35.8253
35.3819
35.4521
36.1605
35.6001
33.1109
37.3721
35.4015
36.0073
35.6396
34.1979
34.3345
35.8577
35.3107
