# vtk DataFile Version 3.0
vtk output at time 330
ASCII
DATASET UNSTRUCTURED_GRID
POINTS 626 float
-3.68058e-05 0.000978749 0 3.68058e-05 0.000978749 0 -0.000829194 0.00052125 0 
-0.0008235 0.0005 0 -0.000866 0.0004575 0 -0.000866 -0.0004575 0 
-0.0008235 -0.0005 0 -0.000829194 -0.00052125 0 -3.68058e-05 -0.000978749 0 
3.68058e-05 -0.000978749 0 0.000829194 -0.00052125 0 0.000866 -0.0004575 0 
0.000866 0.0004575 0 0.000829194 0.00052125 0 8.5e-05 0 0 
-3.68058e-05 0.000978749 -0.001 3.68058e-05 0.000978749 -0.001 -0.000829194 0.00052125 -0.001 
-0.0008235 0.0005 -0.001 -0.000866 0.0004575 -0.001 -0.000866 -0.0004575 -0.001 
-0.0008235 -0.0005 -0.001 -0.000829194 -0.00052125 -0.001 -3.68058e-05 -0.000978749 -0.001 
3.68058e-05 -0.000978749 -0.001 0.000829194 -0.00052125 -0.001 0.000866 -0.0004575 -0.001 
0.000866 0.0004575 -0.001 0.000829194 0.00052125 -0.001 8.5e-05 0 -0.001 
8.46223e-17 0.0009575 0 -0.000715996 0.000586607 0 -0.000602797 0.000651965 0 
-0.000489599 0.000717321 0 -0.000376401 0.000782678 0 -0.000263202 0.000848036 0 
-0.000150004 0.000913393 0 -0.000835948 0.000469948 0 -0.000866 -0.000326786 0 
-0.000866 -0.000196071 0 -0.000866 -6.53571e-05 0 -0.000866 6.53571e-05 0 
-0.000866 0.000196071 0 -0.000866 0.000326786 0 -0.000835948 -0.000469948 0 
-0.000150004 -0.000913393 0 -0.000263202 -0.000848036 0 -0.000376401 -0.000782678 0 
-0.000489599 -0.000717321 0 -0.000602797 -0.000651965 0 -0.000715996 -0.000586607 0 
8.47648e-17 -0.0009575 0 0.000715996 -0.000586607 0 0.000602797 -0.000651965 0 
0.000489599 -0.000717321 0 0.000376401 -0.000782678 0 0.000263202 -0.000848036 0 
0.000150004 -0.000913393 0 0.000829194 -0.00047875 0 0.000866 0.000326786 0 
0.000866 0.000196071 0 0.000866 6.53571e-05 0 0.000866 -6.53571e-05 0 
0.000866 -0.000196071 0 0.000866 -0.000326786 0 0.000829194 0.00047875 0 
0.000150004 0.000913393 0 0.000263202 0.000848036 0 0.000376401 0.000782678 0 
0.000489599 0.000717321 0 0.000602797 0.000651965 0 0.000715996 0.000586607 0 
5.29966e-05 6.64557e-05 0 -1.89143e-05 8.28689e-05 0 -7.65824e-05 3.68801e-05 0 
-7.65824e-05 -3.68801e-05 0 -1.89143e-05 -8.28689e-05 0 5.29966e-05 -6.64557e-05 0 
8.46223e-17 0.0009575 -0.001 -0.000715996 0.000586607 -0.001 -0.000602797 0.000651965 -0.001 
-0.000489599 0.000717321 -0.001 -0.000376401 0.000782678 -0.001 -0.000263202 0.000848036 -0.001 
-0.000150004 0.000913393 -0.001 -0.000835948 0.000469948 -0.001 -0.000866 -0.000326786 -0.001 
-0.000866 -0.000196071 -0.001 -0.000866 -6.53571e-05 -0.001 -0.000866 6.53571e-05 -0.001 
-0.000866 0.000196071 -0.001 -0.000866 0.000326786 -0.001 -0.000835948 -0.000469948 -0.001 
-0.000150004 -0.000913393 -0.001 -0.000263202 -0.000848036 -0.001 -0.000376401 -0.000782678 -0.001 
-0.000489599 -0.000717321 -0.001 -0.000602797 -0.000651965 -0.001 -0.000715996 -0.000586607 -0.001 
8.47648e-17 -0.0009575 -0.001 0.000715996 -0.000586607 -0.001 0.000602797 -0.000651965 -0.001 
0.000489599 -0.000717321 -0.001 0.000376401 -0.000782678 -0.001 0.000263202 -0.000848036 -0.001 
0.000150004 -0.000913393 -0.001 0.000829194 -0.00047875 -0.001 0.000866 0.000326786 -0.001 
0.000866 0.000196071 -0.001 0.000866 6.53571e-05 -0.001 0.000866 -6.53571e-05 -0.001 
0.000866 -0.000196071 -0.001 0.000866 -0.000326786 -0.001 0.000829194 0.00047875 -0.001 
0.000150004 0.000913393 -0.001 0.000263202 0.000848036 -0.001 0.000376401 0.000782678 -0.001 
0.000489599 0.000717321 -0.001 0.000602797 0.000651965 -0.001 0.000715996 0.000586607 -0.001 
5.29966e-05 6.64557e-05 -0.001 -1.89143e-05 8.28689e-05 -0.001 -7.65824e-05 3.68801e-05 -0.001 
-7.65824e-05 -3.68801e-05 -0.001 -1.89143e-05 -8.28689e-05 -0.001 5.29966e-05 -6.64557e-05 -0.001 
0.000131234 6.38474e-05 0 0.00012964 -6.2443e-05 0 3.13827e-05 0.0001394 0 
3.12554e-05 -0.000136939 0 -0.000140461 8.25467e-19 0 -8.90565e-05 -0.000102707 0 
-9.04142e-05 0.000102872 0 -0.000765769 -0.00025965 0 -0.000756873 0.000262774 0 
-0.00015609 0.000787505 0 -0.000155807 -0.00079355 0 0.000605069 0.000528035 0 
0.000608694 -0.00052497 0 0.000744069 0.000116929 0 -0.000494418 0.000596218 0 
-0.000483866 -0.000584648 0 0.000269496 0.000702219 0 0.000263201 -0.000717324 0 
0.000754429 -0.000127825 0 -0.000748858 5.84659e-07 0 -0.000747838 0.000373886 0 
-0.0006542 0.000324842 0 -0.000645137 0.000210123 0 -0.000550884 0.000274171 0 
-0.000538857 0.000163195 0 -0.00045062 0.000224461 0 -0.000438393 0.000123907 0 
-0.000354088 0.000181668 0 -0.000363908 0.000282171 0 -0.000270361 0.000239477 0 
-0.000279138 0.000337653 0 -0.000188888 0.000294791 0 -0.000196448 0.000393271 0 
-0.000104767 0.000348259 0 -0.000113332 0.000449012 0 -2.01066e-05 0.000403223 0 
-2.89189e-05 0.000507105 0 6.9524e-05 0.000461596 0 -0.000213644 0.000490203 0 
7.33757e-05 0.000357726 0 0.000163331 0.00041299 0 0.000163359 0.000313022 0 
0.000248077 0.000366368 0 0.000250914 0.000265758 0 0.000335709 0.000322266 0 
0.000340555 0.000218148 0 0.000427299 0.000276717 0 0.000431508 0.000173093 0 
0.000328731 0.000425633 0 0.00034586 0.000114823 0 0.000435362 7.05241e-05 0 
0.000350892 1.5455e-05 0 0.000441547 -3.11896e-05 0 0.000353547 -8.47783e-05 0 
0.000445767 -0.000132964 0 0.000356135 -0.000186358 0 0.000449094 -0.000234674 0 
0.000359978 -0.000287876 0 0.00026856 -0.000240545 0 0.000271895 -0.000341045 0 
0.000181792 -0.00029305 0 0.00018533 -0.000392851 0 9.75701e-05 -0.00034483 0 
9.98764e-05 -0.000444884 0 8.75116e-06 -0.000396343 0 1.20916e-05 -0.000500496 0 
-7.83929e-05 -0.000449843 0 -8.1471e-05 -0.000347249 0 -0.000171566 -0.000403733 0 
-0.000169889 -0.000298891 0 -0.000259867 -0.000354132 0 -0.000257696 -0.000249137 0 
-0.00034313 -0.000299896 0 -0.000344514 -0.000199127 0 -0.000434309 -0.000250039 0 
-0.000169832 -0.000505815 0 -0.000435227 -0.000146227 0 0.000280331 -0.000442424 0 
-0.000340889 8.76793e-05 0 -0.000515252 4.06198e-05 0 6.50491e-05 0.000568253 0 
0.00053278 1.74743e-05 0 0.000522071 0.000229831 0 -0.00037162 0.000391659 0 
-0.000255272 -0.000150439 0 -0.000442893 -0.000350705 0 0.000450067 -0.000332559 0 
0.000545175 -0.000276306 0 -0.000527797 -0.000197598 0 0.000105306 -0.000551033 0 
1.45836e-05 -0.000609147 0 0.00017145 0.000214453 0 0.000515525 0.000341711 0 
0.000636086 0.000290368 0 -0.000558657 0.000404468 0 -4.01232e-05 0.000616718 0 
6.60192e-05 0.000696422 0 -0.000101806 0.0002546 0 0.000271142 -3.88908e-05 0 
0.000179455 -0.00018534 0 -8.79553e-05 -0.000254307 0 -0.000749267 -0.000373451 0 
-0.000655941 -0.000323397 0 0.000709746 0.000466718 0 0.000698426 -0.000473086 0 
-5.25801e-05 -0.00084886 0 -4.93005e-05 0.000848038 0 0.000617396 -0.000413362 0 
0.000702056 -0.000369817 0 0.000131459 -0.000679171 0 2.48171e-05 -0.000715924 0 
-0.000664217 -0.00042729 0 -0.000528828 -8.80444e-05 0 -0.000611101 -0.000136672 0 
-0.000426972 -4.45841e-05 0 0.000800669 0.000378216 0 0.000821144 -0.000415062 0 
7.2799e-05 0.00088254 0 6.81831e-05 -0.00087503 0 0.000104963 -0.000788946 0 
-7.40696e-05 -0.000660054 0 0.000126061 0.000809943 0 0.000764361 0.000295682 0 
0.000166862 0.000630623 0 0.000516462 -0.00046707 0 -0.000563585 -0.000389606 0 
-0.000622598 -1.40238e-05 0 0.000629891 0.000171529 0 2.5614e-06 -0.000299794 0 
8.6901e-05 -0.00024329 0 0.000272045 -0.000136982 0 -0.00075148 0.000138321 0 
0.000209366 -0.000599589 0 0.000324913 -0.000630055 0 0.000614044 0.00041245 0 
0.00049651 -0.000573327 0 0.000394822 -0.000507321 0 -0.000173714 -0.000206698 0 
0.000264897 5.63722e-05 0 0.000247997 0.000152811 0 -4.63327e-05 -0.000920208 0 
9.18688e-05 0.000258626 0 -5.54111e-06 0.000290558 0 -0.000184219 0.000201484 0 
-0.000263559 0.000142267 0 -0.000256427 5.13624e-05 0 -0.000336894 -2.06179e-06 0 
-0.000228499 -4.2388e-05 0 -0.00017589 0.000106626 0 -0.000769947 -0.000133367 0 
0.000767591 -0.000500293 0 -5.05874e-05 0.000737978 0 0.000754456 -3.51771e-06 0 
0.00064691 -6.15298e-05 0 0.000630483 -0.00018134 0 0.000749187 -0.000265543 0 
-0.000760805 -0.000462521 0 0.000638155 6.09315e-05 0 -4.46661e-05 0.000922995 0 
-2.37945e-05 0.000207237 0 0.000776979 0.000500181 0 -0.000605691 0.000527596 0 
-0.000377914 -0.000653727 0 -0.000372325 -0.000526022 0 -0.000275829 -0.000589621 0 
-0.000254285 -0.000710579 0 -0.000379307 0.000656222 0 -0.000379818 0.00052718 0 
-0.000266817 0.000721555 0 -0.000150544 0.000668174 0 0.000381963 0.00065079 0 
0.000493113 0.000590432 0 0.000505439 0.000463708 0 -0.000269094 0.000596608 0 
0.000385815 0.000532045 0 0.000283599 0.0005899 0 -0.000176405 -0.000108505 0 
-0.000278769 -0.000475415 0 0.000185395 2.33014e-06 0 0.000186773 0.000517571 0 
0.000540032 -8.68444e-05 0 -0.000600694 -0.000514877 0 -0.00063703 8.98033e-05 0 
-0.000459677 0.000335729 0 -0.000338836 -0.000100751 0 -0.000457327 0.000432721 0 
-8.72007e-06 -0.000210238 0 0.000156073 0.000129496 0 -7.70692e-05 -0.000555049 0 
0.00036091 -0.000389728 0 0.000531628 0.000120564 0 -0.000285451 0.000435562 0 
0.000192719 -0.000494604 0 0.00041642 0.00039368 0 -0.000135943 0.000554637 0 
-0.000170665 -0.000610079 0 -0.000666304 0.000434981 0 -0.000758736 0.000479231 0 
-0.000470189 -0.000458901 0 0.000203433 -8.59809e-05 0 0.000101846 0.000170114 0 
-0.00035513 -0.00040726 0 0.000100184 -0.000165831 0 2.96286e-05 0.00081537 0 
0.000720946 0.000381836 0 -0.000539809 -0.000292001 0 0.00052211 -0.000182426 0 
-6.41339e-05 -0.000753908 0 0.000638039 -0.000299861 0 -0.000605136 -0.000230182 0 
-3.41638e-05 -0.000145561 0 -0.000104037 0.000172396 0 -0.000808575 -0.00042774 0 
-0.000807207 -0.000465052 0 -0.00080817 0.000429771 0 -0.000806589 0.000469738 0 
-9.50634e-05 -0.000178909 0 0.000247777 0.000445058 0 1.48293e-05 -0.000814201 0 
-4.11555e-05 0.000140955 0 0.000276104 -0.000536845 0 0.000765969 -0.000436638 0 
0.000780871 -0.000362769 0 0.000424176 -0.000642018 0 0.00053413 -0.000368009 0 
-0.000416333 4.17911e-05 0 -0.000133891 -6.23822e-05 0 4.2574e-05 0.000206312 0 
0.000141163 -0.000121542 0 0.000707423 0.000212137 0 0.000172327 0.000723882 0 
7.72652e-06 -0.00090254 0 -0.000134435 5.66935e-05 0 -0.000188826 3.70894e-05 0 
0.000197119 8.09714e-05 0 1.27801e-05 0.000917296 0 0.000800767 0.00044758 0 
-0.000686682 0.000507104 0 9.35831e-05 0.000110457 0 -0.000696793 -0.000509595 0 
-0.00068446 -8.52012e-05 0 -0.000691033 -0.000201242 0 5.24052e-05 -0.000189075 0 
-0.000151818 -0.000701092 0 -0.000296988 0.000518087 0 9.31023e-05 -0.000108117 0 
0.00044261 -0.000416726 0 0.000197044 -0.000784423 0 -0.000516861 0.000504567 0 
0.000298997 0.000502377 0 0.000131234 6.38474e-05 -0.001 0.00012964 -6.2443e-05 -0.001 
3.13827e-05 0.0001394 -0.001 3.12554e-05 -0.000136939 -0.001 -0.000140461 8.25467e-19 -0.001 
-8.90565e-05 -0.000102707 -0.001 -9.04142e-05 0.000102872 -0.001 -0.000765769 -0.00025965 -0.001 
-0.000756873 0.000262774 -0.001 -0.00015609 0.000787505 -0.001 -0.000155807 -0.00079355 -0.001 
0.000605069 0.000528035 -0.001 0.000608694 -0.00052497 -0.001 0.000744069 0.000116929 -0.001 
-0.000494418 0.000596218 -0.001 -0.000483866 -0.000584648 -0.001 0.000269496 0.000702219 -0.001 
0.000263201 -0.000717324 -0.001 0.000754429 -0.000127825 -0.001 -0.000748858 5.84659e-07 -0.001 
-0.000747838 0.000373886 -0.001 -0.0006542 0.000324842 -0.001 -0.000645137 0.000210123 -0.001 
-0.000550884 0.000274171 -0.001 -0.000538857 0.000163195 -0.001 -0.00045062 0.000224461 -0.001 
-0.000438393 0.000123907 -0.001 -0.000354088 0.000181668 -0.001 -0.000363908 0.000282171 -0.001 
-0.000270361 0.000239477 -0.001 -0.000279138 0.000337653 -0.001 -0.000188888 0.000294791 -0.001 
-0.000196448 0.000393271 -0.001 -0.000104767 0.000348259 -0.001 -0.000113332 0.000449012 -0.001 
-2.01066e-05 0.000403223 -0.001 -2.89189e-05 0.000507105 -0.001 6.9524e-05 0.000461596 -0.001 
-0.000213644 0.000490203 -0.001 7.33757e-05 0.000357726 -0.001 0.000163331 0.00041299 -0.001 
0.000163359 0.000313022 -0.001 0.000248077 0.000366368 -0.001 0.000250914 0.000265758 -0.001 
0.000335709 0.000322266 -0.001 0.000340555 0.000218148 -0.001 0.000427299 0.000276717 -0.001 
0.000431508 0.000173093 -0.001 0.000328731 0.000425633 -0.001 0.00034586 0.000114823 -0.001 
0.000435362 7.05241e-05 -0.001 0.000350892 1.5455e-05 -0.001 0.000441547 -3.11896e-05 -0.001 
0.000353547 -8.47783e-05 -0.001 0.000445767 -0.000132964 -0.001 0.000356135 -0.000186358 -0.001 
0.000449094 -0.000234674 -0.001 0.000359978 -0.000287876 -0.001 0.00026856 -0.000240545 -0.001 
0.000271895 -0.000341045 -0.001 0.000181792 -0.00029305 -0.001 0.00018533 -0.000392851 -0.001 
9.75701e-05 -0.00034483 -0.001 9.98764e-05 -0.000444884 -0.001 8.75116e-06 -0.000396343 -0.001 
1.20916e-05 -0.000500496 -0.001 -7.83929e-05 -0.000449843 -0.001 -8.1471e-05 -0.000347249 -0.001 
-0.000171566 -0.000403733 -0.001 -0.000169889 -0.000298891 -0.001 -0.000259867 -0.000354132 -0.001 
-0.000257696 -0.000249137 -0.001 -0.00034313 -0.000299896 -0.001 -0.000344514 -0.000199127 -0.001 
-0.000434309 -0.000250039 -0.001 -0.000169832 -0.000505815 -0.001 -0.000435227 -0.000146227 -0.001 
0.000280331 -0.000442424 -0.001 -0.000340889 8.76793e-05 -0.001 -0.000515252 4.06198e-05 -0.001 
6.50491e-05 0.000568253 -0.001 0.00053278 1.74743e-05 -0.001 0.000522071 0.000229831 -0.001 
-0.00037162 0.000391659 -0.001 -0.000255272 -0.000150439 -0.001 -0.000442893 -0.000350705 -0.001 
0.000450067 -0.000332559 -0.001 0.000545175 -0.000276306 -0.001 -0.000527797 -0.000197598 -0.001 
0.000105306 -0.000551033 -0.001 1.45836e-05 -0.000609147 -0.001 0.00017145 0.000214453 -0.001 
0.000515525 0.000341711 -0.001 0.000636086 0.000290368 -0.001 -0.000558657 0.000404468 -0.001 
-4.01232e-05 0.000616718 -0.001 6.60192e-05 0.000696422 -0.001 -0.000101806 0.0002546 -0.001 
0.000271142 -3.88908e-05 -0.001 0.000179455 -0.00018534 -0.001 -8.79553e-05 -0.000254307 -0.001 
-0.000749267 -0.000373451 -0.001 -0.000655941 -0.000323397 -0.001 0.000709746 0.000466718 -0.001 
0.000698426 -0.000473086 -0.001 -5.25801e-05 -0.00084886 -0.001 -4.93005e-05 0.000848038 -0.001 
0.000617396 -0.000413362 -0.001 0.000702056 -0.000369817 -0.001 0.000131459 -0.000679171 -0.001 
2.48171e-05 -0.000715924 -0.001 -0.000664217 -0.00042729 -0.001 -0.000528828 -8.80444e-05 -0.001 
-0.000611101 -0.000136672 -0.001 -0.000426972 -4.45841e-05 -0.001 0.000800669 0.000378216 -0.001 
0.000821144 -0.000415062 -0.001 7.2799e-05 0.00088254 -0.001 6.81831e-05 -0.00087503 -0.001 
0.000104963 -0.000788946 -0.001 -7.40696e-05 -0.000660054 -0.001 0.000126061 0.000809943 -0.001 
0.000764361 0.000295682 -0.001 0.000166862 0.000630623 -0.001 0.000516462 -0.00046707 -0.001 
-0.000563585 -0.000389606 -0.001 -0.000622598 -1.40238e-05 -0.001 0.000629891 0.000171529 -0.001 
2.5614e-06 -0.000299794 -0.001 8.6901e-05 -0.00024329 -0.001 0.000272045 -0.000136982 -0.001 
-0.00075148 0.000138321 -0.001 0.000209366 -0.000599589 -0.001 0.000324913 -0.000630055 -0.001 
0.000614044 0.00041245 -0.001 0.00049651 -0.000573327 -0.001 0.000394822 -0.000507321 -0.001 
-0.000173714 -0.000206698 -0.001 0.000264897 5.63722e-05 -0.001 0.000247997 0.000152811 -0.001 
-4.63327e-05 -0.000920208 -0.001 9.18688e-05 0.000258626 -0.001 -5.54111e-06 0.000290558 -0.001 
-0.000184219 0.000201484 -0.001 -0.000263559 0.000142267 -0.001 -0.000256427 5.13624e-05 -0.001 
-0.000336894 -2.06179e-06 -0.001 -0.000228499 -4.2388e-05 -0.001 -0.00017589 0.000106626 -0.001 
-0.000769947 -0.000133367 -0.001 0.000767591 -0.000500293 -0.001 -5.05874e-05 0.000737978 -0.001 
0.000754456 -3.51771e-06 -0.001 0.00064691 -6.15298e-05 -0.001 0.000630483 -0.00018134 -0.001 
0.000749187 -0.000265543 -0.001 -0.000760805 -0.000462521 -0.001 0.000638155 6.09315e-05 -0.001 
-4.46661e-05 0.000922995 -0.001 -2.37945e-05 0.000207237 -0.001 0.000776979 0.000500181 -0.001 
-0.000605691 0.000527596 -0.001 -0.000377914 -0.000653727 -0.001 -0.000372325 -0.000526022 -0.001 
-0.000275829 -0.000589621 -0.001 -0.000254285 -0.000710579 -0.001 -0.000379307 0.000656222 -0.001 
-0.000379818 0.00052718 -0.001 -0.000266817 0.000721555 -0.001 -0.000150544 0.000668174 -0.001 
0.000381963 0.00065079 -0.001 0.000493113 0.000590432 -0.001 0.000505439 0.000463708 -0.001 
-0.000269094 0.000596608 -0.001 0.000385815 0.000532045 -0.001 0.000283599 0.0005899 -0.001 
-0.000176405 -0.000108505 -0.001 -0.000278769 -0.000475415 -0.001 0.000185395 2.33014e-06 -0.001 
0.000186773 0.000517571 -0.001 0.000540032 -8.68444e-05 -0.001 -0.000600694 -0.000514877 -0.001 
-0.00063703 8.98033e-05 -0.001 -0.000459677 0.000335729 -0.001 -0.000338836 -0.000100751 -0.001 
-0.000457327 0.000432721 -0.001 -8.72007e-06 -0.000210238 -0.001 0.000156073 0.000129496 -0.001 
-7.70692e-05 -0.000555049 -0.001 0.00036091 -0.000389728 -0.001 0.000531628 0.000120564 -0.001 
-0.000285451 0.000435562 -0.001 0.000192719 -0.000494604 -0.001 0.00041642 0.00039368 -0.001 
-0.000135943 0.000554637 -0.001 -0.000170665 -0.000610079 -0.001 -0.000666304 0.000434981 -0.001 
-0.000758736 0.000479231 -0.001 -0.000470189 -0.000458901 -0.001 0.000203433 -8.59809e-05 -0.001 
0.000101846 0.000170114 -0.001 -0.00035513 -0.00040726 -0.001 0.000100184 -0.000165831 -0.001 
2.96286e-05 0.00081537 -0.001 0.000720946 0.000381836 -0.001 -0.000539809 -0.000292001 -0.001 
0.00052211 -0.000182426 -0.001 -6.41339e-05 -0.000753908 -0.001 0.000638039 -0.000299861 -0.001 
-0.000605136 -0.000230182 -0.001 -3.41638e-05 -0.000145561 -0.001 -0.000104037 0.000172396 -0.001 
-0.000808575 -0.00042774 -0.001 -0.000807207 -0.000465052 -0.001 -0.00080817 0.000429771 -0.001 
-0.000806589 0.000469738 -0.001 -9.50634e-05 -0.000178909 -0.001 0.000247777 0.000445058 -0.001 
1.48293e-05 -0.000814201 -0.001 -4.11555e-05 0.000140955 -0.001 0.000276104 -0.000536845 -0.001 
0.000765969 -0.000436638 -0.001 0.000780871 -0.000362769 -0.001 0.000424176 -0.000642018 -0.001 
0.00053413 -0.000368009 -0.001 -0.000416333 4.17911e-05 -0.001 -0.000133891 -6.23822e-05 -0.001 
4.2574e-05 0.000206312 -0.001 0.000141163 -0.000121542 -0.001 0.000707423 0.000212137 -0.001 
0.000172327 0.000723882 -0.001 7.72652e-06 -0.00090254 -0.001 -0.000134435 5.66935e-05 -0.001 
-0.000188826 3.70894e-05 -0.001 0.000197119 8.09714e-05 -0.001 1.27801e-05 0.000917296 -0.001 
0.000800767 0.00044758 -0.001 -0.000686682 0.000507104 -0.001 9.35831e-05 0.000110457 -0.001 
-0.000696793 -0.000509595 -0.001 -0.00068446 -8.52012e-05 -0.001 -0.000691033 -0.000201242 -0.001 
5.24052e-05 -0.000189075 -0.001 -0.000151818 -0.000701092 -0.001 -0.000296988 0.000518087 -0.001 
9.31023e-05 -0.000108117 -0.001 0.00044261 -0.000416726 -0.001 0.000197044 -0.000784423 -0.001 
-0.000516861 0.000504567 -0.001 0.000298997 0.000502377 -0.001 

CELLS 563 3941
6 14 304 127 29 554 377 
6 143 259 55 393 509 103 
6 300 319 174 550 569 424 
6 259 349 55 509 599 103 
6 50 365 307 98 615 557 
6 299 320 164 549 570 414 
6 126 304 14 376 554 29 
6 298 319 300 548 569 550 
6 205 240 238 455 490 488 
6 257 308 145 507 558 395 
6 130 352 273 380 602 523 
6 295 320 299 545 570 549 
6 324 327 289 574 577 539 
6 235 258 143 485 508 393 
6 50 307 49 98 557 97 
6 207 283 279 457 533 529 
6 143 373 235 393 623 485 
6 145 308 252 395 558 502 
6 194 303 196 444 553 446 
6 279 306 207 529 556 457 
6 206 305 163 456 555 413 
6 51 357 9 99 607 24 
6 238 252 205 488 502 455 
6 293 317 209 543 567 459 
6 207 316 283 457 566 533 
6 142 301 249 392 551 499 
6 273 359 130 523 609 380 
6 211 327 324 461 577 574 
6 169 265 217 419 515 467 
6 7 365 50 22 615 98 
6 283 316 253 533 566 503 
6 159 268 223 409 518 473 
6 274 337 132 524 587 382 
6 232 361 329 482 611 579 
6 231 266 45 481 516 93 
6 229 362 330 479 612 580 
6 9 244 57 24 494 105 
6 230 276 52 480 526 100 
6 209 311 293 459 561 543 
6 131 342 302 381 592 552 
6 270 271 204 520 521 454 
6 66 243 1 114 493 16 
6 59 241 12 107 491 27 
6 280 306 279 530 556 529 
6 269 337 274 519 587 524 
6 179 256 224 429 506 474 
6 163 305 166 413 555 416 
6 201 303 194 451 553 444 
6 280 332 306 530 582 556 
6 186 255 225 436 505 475 
6 210 310 273 460 560 523 
6 153 270 204 403 520 454 
6 136 231 45 386 481 93 
6 171 265 169 421 515 419 
6 138 230 52 388 480 100 
6 225 354 325 475 604 575 
6 36 284 232 84 534 482 
6 161 268 159 411 518 409 
6 71 286 229 119 536 479 
6 290 303 201 540 553 451 
6 139 355 60 389 605 108 
6 60 355 248 108 605 498 
6 273 352 302 523 602 552 
6 235 373 245 485 623 495 
6 67 356 247 115 606 497 
6 221 295 277 471 545 527 
6 142 356 67 392 606 115 
6 139 283 253 389 533 503 
6 203 315 262 453 565 512 
6 41 257 145 89 507 395 
6 36 232 135 84 482 385 
6 71 229 137 119 479 387 
6 254 255 188 504 505 438 
6 233 350 334 483 600 584 
6 262 346 203 512 596 453 
6 304 325 127 554 575 377 
6 222 329 247 472 579 497 
6 218 298 260 468 548 510 
6 290 321 291 540 571 541 
6 272 310 240 522 560 490 
6 269 274 270 519 524 520 
6 244 245 57 494 495 105 
6 49 307 141 97 557 391 
6 225 325 256 475 575 506 
6 273 310 272 523 560 522 
6 312 368 255 562 618 505 
6 249 305 206 499 555 456 
6 228 331 251 478 581 501 
6 302 342 263 552 592 513 
6 338 339 44 588 589 92 
6 190 254 188 440 504 438 
6 37 341 340 85 591 590 
6 138 233 230 388 483 480 
6 228 335 331 478 585 581 
6 181 256 179 431 506 429 
6 195 263 226 445 513 476 
6 268 285 223 518 535 473 
6 290 291 288 540 541 538 
6 219 330 248 469 580 498 
6 201 321 290 451 571 540 
6 240 310 202 490 560 452 
6 188 255 186 438 505 436 
6 270 274 271 520 524 521 
6 262 349 259 512 599 509 
6 141 324 289 391 574 539 
6 296 301 142 546 551 392 
6 247 356 222 497 606 472 
6 239 252 238 489 502 488 
6 254 312 255 504 562 505 
6 54 261 53 102 511 101 
6 289 327 303 539 577 553 
6 268 353 285 518 603 535 
6 273 302 210 523 552 460 
6 292 299 293 542 549 543 
6 278 283 139 528 533 389 
6 175 265 171 425 515 421 
6 227 338 38 477 588 86 
6 264 360 265 514 610 515 
6 43 340 146 91 590 396 
6 165 268 161 415 518 411 
6 205 351 240 455 601 490 
6 64 281 63 112 531 111 
6 288 291 47 538 541 95 
6 135 295 294 385 545 544 
6 42 257 41 90 507 89 
6 245 373 57 495 623 105 
6 31 363 323 79 613 573 
6 292 293 140 542 543 390 
6 267 353 268 517 603 518 
6 155 270 153 405 520 403 
6 244 344 245 494 594 495 
6 61 278 139 109 528 389 
6 135 294 35 385 544 83 
6 69 297 296 117 547 546 
6 186 225 184 436 475 434 
6 329 361 243 579 611 493 
6 255 328 225 505 578 475 
6 213 332 280 463 582 530 
6 39 275 133 87 525 383 
6 330 362 241 580 612 491 
6 195 226 193 445 476 443 
6 211 324 251 461 574 501 
6 151 153 152 401 403 402 
6 295 299 294 545 549 544 
6 265 313 217 515 563 467 
6 258 259 143 508 509 393 
6 251 331 211 501 581 461 
6 149 151 150 399 401 400 
6 293 370 317 543 620 567 
6 153 204 152 403 454 402 
6 151 152 150 401 402 400 
6 33 292 140 81 542 390 
6 210 263 197 460 513 447 
6 301 305 249 551 555 499 
6 298 300 297 548 550 547 
6 68 296 142 116 546 392 
6 321 369 291 571 619 541 
6 179 224 177 429 474 427 
6 167 267 165 417 517 415 
6 259 346 262 509 596 512 
6 303 327 196 553 577 446 
6 269 270 155 519 520 405 
6 265 360 313 515 610 563 
6 223 269 157 473 519 407 
6 157 269 155 407 519 405 
6 144 279 278 394 529 528 
6 169 217 167 419 467 417 
6 177 264 175 427 514 425 
6 267 268 165 517 518 415 
6 159 223 157 409 473 407 
6 232 277 135 482 527 385 
6 193 254 190 443 504 440 
6 217 267 167 467 517 417 
6 249 356 142 499 606 392 
6 184 256 181 434 506 431 
6 248 355 219 498 605 469 
6 229 260 137 479 510 387 
6 149 150 148 399 400 398 
6 64 348 281 112 598 531 
6 311 374 293 561 624 543 
6 264 265 175 514 515 425 
6 297 300 296 547 550 546 
6 141 289 288 391 539 538 
6 197 263 195 447 513 445 
6 218 260 219 468 510 469 
6 224 264 177 474 514 427 
6 137 298 297 387 548 547 
6 277 295 135 527 545 385 
6 133 228 227 383 478 477 
6 261 349 262 511 599 512 
6 221 277 222 471 527 472 
6 256 325 224 506 575 474 
6 199 210 197 449 460 447 
6 226 254 193 476 504 443 
6 144 278 62 394 528 110 
6 279 283 278 529 533 528 
6 289 290 288 539 540 538 
6 137 297 70 387 547 118 
6 34 294 292 82 544 542 
6 235 236 216 485 486 466 
6 141 288 48 391 538 96 
6 178 306 180 428 556 430 
6 185 186 184 435 436 434 
6 63 281 144 111 531 394 
6 225 256 184 475 506 434 
6 46 291 136 94 541 386 
6 147 149 148 397 399 398 
6 271 272 204 521 522 454 
6 233 334 234 483 584 484 
6 145 275 40 395 525 88 
6 220 322 287 470 572 537 
6 280 334 213 530 584 463 
6 144 280 279 394 530 529 
6 140 287 32 390 537 80 
6 154 155 153 404 405 403 
6 334 350 213 584 600 463 
6 176 177 175 426 427 425 
6 260 298 137 510 548 387 
6 33 140 32 81 390 80 
6 49 141 48 97 391 96 
6 56 143 55 104 393 103 
6 68 142 67 116 392 115 
6 63 144 62 111 394 110 
6 61 139 60 109 389 108 
6 148 308 257 398 558 507 
6 71 137 70 119 387 118 
6 53 138 52 101 388 100 
6 46 136 45 94 386 93 
6 36 135 35 84 385 83 
6 43 146 134 91 396 384 
6 133 227 38 383 477 86 
6 192 193 190 442 443 440 
6 293 374 140 543 624 390 
6 34 292 33 82 542 81 
6 207 306 178 457 556 428 
6 43 134 42 91 384 90 
6 39 133 38 87 383 86 
6 41 145 40 89 395 88 
6 194 195 193 444 445 443 
6 69 296 68 117 546 116 
6 294 299 292 544 549 542 
6 173 175 171 423 425 421 
6 260 330 219 510 580 469 
6 183 184 181 433 434 431 
6 134 257 42 384 507 90 
6 55 349 54 103 599 102 
6 163 165 161 413 415 411 
6 166 167 165 416 417 415 
6 210 302 263 460 552 513 
6 271 273 272 521 523 522 
6 53 261 138 101 511 388 
6 217 326 267 467 576 517 
6 289 303 290 539 553 540 
6 178 179 177 428 429 427 
6 238 240 202 488 490 452 
6 62 278 61 110 528 109 
6 35 294 34 83 544 82 
6 284 361 232 534 611 482 
6 70 297 69 118 547 117 
6 224 304 264 474 554 514 
6 156 157 155 406 407 405 
6 48 288 47 96 538 95 
6 221 320 295 471 570 545 
6 187 188 186 437 438 436 
6 47 291 46 95 541 94 
6 151 154 153 401 404 403 
6 286 362 229 536 612 479 
6 168 169 167 418 419 417 
6 40 275 39 88 525 87 
6 307 324 141 557 574 391 
6 300 301 296 550 551 546 
6 32 287 31 80 537 79 
6 147 220 149 397 470 399 
6 333 344 231 583 594 481 
6 299 370 293 549 620 543 
6 271 359 273 521 609 523 
6 224 325 304 474 575 554 
6 228 237 227 478 487 477 
6 305 375 343 555 625 593 
6 218 319 298 468 569 548 
6 240 351 272 490 601 522 
6 277 329 222 527 579 472 
6 253 355 139 503 605 389 
6 158 159 157 408 409 407 
6 236 246 216 486 496 466 
6 192 194 193 442 444 443 
6 220 309 149 470 559 399 
6 183 185 184 433 435 434 
6 196 197 195 446 447 445 
6 276 347 58 526 597 106 
6 136 333 231 386 583 481 
6 67 247 66 115 497 114 
6 60 248 59 108 498 107 
6 261 262 250 511 512 500 
6 173 176 175 423 426 425 
6 344 357 231 594 607 481 
6 144 281 280 394 531 530 
6 152 205 150 402 455 400 
6 163 166 165 413 416 415 
6 185 187 186 435 437 436 
6 233 234 230 483 484 480 
6 170 171 169 420 421 419 
6 146 147 134 396 397 384 
6 176 178 177 426 428 427 
6 285 337 223 535 587 473 
6 154 156 155 404 406 405 
6 263 342 226 513 592 476 
6 235 245 236 485 495 486 
6 160 161 159 410 411 409 
6 58 347 242 106 597 492 
6 166 168 167 416 418 417 
6 287 374 220 537 624 470 
6 189 190 188 439 440 438 
6 148 257 134 398 507 384 
6 194 196 195 444 446 445 
6 252 308 205 502 558 455 
6 285 345 337 535 595 587 
6 301 375 305 551 625 555 
6 180 181 179 430 431 429 
6 281 348 234 531 598 484 
6 198 199 197 448 449 447 
6 151 309 154 401 559 404 
6 228 367 335 478 617 585 
6 54 349 261 102 599 511 
6 156 158 157 406 408 407 
6 168 170 169 418 420 419 
6 200 202 199 450 452 449 
6 147 148 134 397 398 384 
6 158 160 159 408 410 409 
6 150 308 148 400 558 398 
6 253 316 208 503 566 458 
6 232 329 277 482 579 527 
6 178 180 179 428 430 429 
6 191 192 190 441 442 440 
6 214 238 202 464 488 452 
6 172 173 171 422 423 421 
6 187 189 188 437 439 438 
6 162 163 161 412 413 411 
6 228 251 237 478 501 487 
6 215 258 235 465 508 485 
6 182 183 181 432 433 431 
6 202 310 199 452 560 449 
6 219 253 208 469 503 458 
6 222 249 206 472 499 456 
6 196 198 197 446 448 447 
6 229 330 260 479 580 510 
6 132 358 274 382 608 524 
6 149 309 151 399 559 401 
6 226 312 254 476 562 504 
6 154 309 209 404 559 459 
6 77 129 76 125 379 124 
6 73 128 72 121 378 120 
6 76 131 75 124 381 123 
6 74 132 73 122 382 121 
6 75 130 74 123 380 122 
6 14 127 77 29 377 125 
6 72 126 14 120 376 29 
6 133 367 228 383 617 478 
6 237 282 227 487 532 477 
6 239 366 252 489 616 502 
6 200 214 202 450 464 452 
6 192 201 194 442 451 444 
6 170 172 171 420 422 421 
6 220 311 309 470 561 559 
6 198 200 199 448 450 449 
6 189 191 190 439 441 440 
6 146 323 322 396 573 572 
6 160 162 161 410 412 411 
6 251 307 237 501 557 487 
6 199 310 210 449 560 460 
6 57 373 56 105 623 104 
6 214 239 238 464 489 488 
6 182 212 183 432 462 433 
6 180 182 181 430 432 431 
6 146 322 147 396 572 397 
6 172 218 208 422 468 458 
6 172 208 173 422 458 423 
6 162 221 206 412 471 456 
6 162 206 163 412 456 413 
6 176 207 178 426 457 428 
6 272 351 204 522 601 454 
6 198 211 200 448 461 450 
6 182 213 212 432 463 462 
6 234 334 281 484 584 531 
6 154 209 156 404 459 406 
6 185 203 187 435 453 437 
6 168 174 170 418 424 420 
6 189 215 191 439 465 441 
6 215 216 191 465 466 441 
6 221 222 206 471 472 456 
6 158 164 160 408 414 410 
6 218 219 208 468 469 458 
6 205 308 150 455 558 400 
6 191 314 192 441 564 442 
6 215 235 216 465 485 466 
6 215 318 258 465 568 508 
6 152 351 205 402 601 455 
6 138 261 250 388 511 500 
6 192 314 201 442 564 451 
6 234 347 230 484 597 480 
6 226 342 312 476 592 562 
6 138 250 233 388 500 483 
6 147 322 220 397 572 470 
6 216 314 191 466 564 441 
6 306 332 180 556 582 430 
6 222 356 249 472 606 499 
6 128 345 285 378 595 535 
6 314 321 201 564 571 451 
6 212 315 183 462 565 433 
6 312 342 336 562 592 586 
6 282 339 338 532 589 588 
6 340 341 323 590 591 573 
6 309 311 209 559 561 459 
6 183 315 185 433 565 435 
6 208 316 173 458 566 423 
6 173 316 176 423 566 426 
6 3 341 37 18 591 85 
6 44 339 6 92 589 21 
6 252 366 145 502 616 395 
6 246 321 314 496 571 564 
6 246 314 216 496 564 466 
6 126 364 313 376 614 563 
6 156 317 158 406 567 408 
6 275 367 133 525 617 383 
6 176 316 207 426 566 457 
6 185 315 203 435 565 453 
6 180 332 182 430 582 432 
6 302 352 131 552 602 381 
6 251 324 307 501 574 557 
6 187 318 189 437 568 439 
6 172 319 218 422 569 468 
6 162 320 221 412 570 471 
6 305 343 166 555 593 416 
6 170 319 172 420 569 422 
6 158 317 164 408 567 414 
6 209 317 156 459 567 406 
6 285 353 128 535 603 378 
6 223 337 269 473 587 519 
6 160 320 162 410 570 412 
6 211 331 200 461 581 450 
6 174 319 170 424 569 420 
6 203 318 187 453 568 437 
6 189 318 215 439 568 465 
6 198 327 211 448 577 461 
6 164 320 160 414 570 410 
6 326 353 267 576 603 517 
6 236 344 333 486 594 583 
6 196 327 198 446 577 448 
6 219 355 253 469 605 503 
6 281 334 280 531 584 530 
6 274 359 271 524 609 521 
6 164 370 299 414 620 549 
6 174 375 300 424 625 550 
6 287 363 31 537 613 79 
6 243 361 1 493 611 16 
6 241 362 12 491 612 27 
6 307 365 237 557 615 487 
6 166 343 168 416 593 418 
6 200 331 214 450 581 464 
6 313 326 217 563 576 467 
6 9 357 244 24 607 494 
6 1 361 30 16 611 78 
6 12 362 65 27 612 113 
6 337 345 132 587 595 382 
6 242 348 64 492 598 112 
6 231 357 266 481 607 516 
6 182 332 213 432 582 463 
6 245 344 236 495 594 486 
6 258 346 259 508 596 509 
6 145 366 275 395 616 525 
6 291 369 136 541 619 386 
6 236 333 246 486 583 496 
6 331 335 214 581 585 464 
6 312 336 129 562 586 379 
6 315 372 262 565 622 512 
6 220 374 311 470 624 561 
6 140 374 287 390 624 537 
6 126 360 304 376 610 554 
6 230 347 276 480 597 526 
6 313 364 326 563 614 576 
6 56 373 143 104 623 393 
6 239 367 366 489 617 616 
6 204 351 152 454 601 402 
6 300 375 301 550 625 551 
6 214 335 239 464 585 489 
6 247 329 243 497 579 493 
6 262 372 250 512 622 500 
6 248 330 241 498 580 491 
6 318 346 258 568 596 508 
6 333 369 246 583 619 496 
6 282 338 227 532 588 477 
6 146 340 323 396 590 573 
6 304 360 264 554 610 514 
6 366 367 275 616 617 525 
6 129 336 76 379 586 124 
6 73 345 128 121 595 378 
6 76 336 131 124 586 381 
6 250 350 233 500 600 483 
6 129 371 328 379 621 578 
6 132 345 73 382 595 121 
6 168 343 174 418 593 424 
6 131 352 75 381 602 123 
6 66 247 243 114 497 493 
6 59 248 241 107 498 491 
6 74 358 132 122 608 382 
6 203 346 318 453 596 568 
6 313 360 126 563 610 376 
6 128 364 72 378 614 120 
6 128 353 326 378 603 576 
6 77 371 129 125 621 379 
6 129 368 312 379 618 562 
6 244 357 344 494 607 594 
6 328 354 225 578 604 475 
6 326 364 128 576 614 378 
6 75 352 130 123 602 380 
6 350 372 212 600 622 462 
6 136 369 333 386 619 583 
6 325 354 127 575 604 377 
6 213 350 212 463 600 462 
6 130 358 74 380 608 122 
6 250 372 350 500 622 600 
6 317 370 164 567 620 414 
6 72 364 126 120 614 376 
6 328 368 129 578 618 379 
6 127 371 77 377 621 125 
6 336 342 131 586 592 381 
6 212 372 315 462 622 565 
6 234 348 347 484 598 597 
6 8 266 51 23 516 99 
6 10 276 58 25 526 106 
6 246 369 321 496 619 571 
6 30 284 0 78 534 15 
6 65 286 13 113 536 28 
6 58 242 11 106 492 26 
6 266 357 51 516 607 99 
6 255 368 328 505 618 578 
6 347 348 242 597 598 492 
6 322 363 287 572 613 537 
6 323 363 322 573 613 572 
6 335 367 239 585 617 489 
6 30 361 284 78 611 534 
6 65 362 286 113 612 536 
6 237 365 282 487 615 532 
6 130 359 358 380 609 608 
6 343 375 174 593 625 424 
6 354 371 127 604 621 377 
6 328 371 354 578 621 604 
6 358 359 274 608 609 524 
6 0 284 36 15 534 84 
6 45 266 8 93 516 23 
6 52 276 10 100 526 25 
6 11 242 64 26 492 112 
6 13 286 71 28 536 119 
6 2 323 3 17 573 18 
6 31 323 2 79 573 17 
6 323 341 3 573 591 18 
6 37 340 4 85 590 19 
6 4 340 43 19 590 91 
6 38 338 5 86 588 20 
6 5 338 44 20 588 92 
6 6 282 7 21 532 22 
6 6 339 282 21 589 532 
6 282 365 7 532 615 22 

CELL_TYPES 563
13
13
13
13
13
13
13
13
13
13
13
13
13
13
13
13
13
13
13
13
13
13
13
13
13
13
13
13
13
13
13
13
13
13
13
13
13
13
13
13
13
13
13
13
13
13
13
13
13
13
13
13
13
13
13
13
13
13
13
13
13
13
13
13
13
13
13
13
13
13
13
13
13
13
13
13
13
13
13
13
13
13
13
13
13
13
13
13
13
13
13
13
13
13
13
13
13
13
13
13
13
13
13
13
13
13
13
13
13
13
13
13
13
13
13
13
13
13
13
13
13
13
13
13
13
13
13
13
13
13
13
13
13
13
13
13
13
13
13
13
13
13
13
13
13
13
13
13
13
13
13
13
13
13
13
13
13
13
13
13
13
13
13
13
13
13
13
13
13
13
13
13
13
13
13
13
13
13
13
13
13
13
13
13
13
13
13
13
13
13
13
13
13
13
13
13
13
13
13
13
13
13
13
13
13
13
13
13
13
13
13
13
13
13
13
13
13
13
13
13
13
13
13
13
13
13
13
13
13
13
13
13
13
13
13
13
13
13
13
13
13
13
13
13
13
13
13
13
13
13
13
13
13
13
13
13
13
13
13
13
13
13
13
13
13
13
13
13
13
13
13
13
13
13
13
13
13
13
13
13
13
13
13
13
13
13
13
13
13
13
13
13
13
13
13
13
13
13
13
13
13
13
13
13
13
13
13
13
13
13
13
13
13
13
13
13
13
13
13
13
13
13
13
13
13
13
13
13
13
13
13
13
13
13
13
13
13
13
13
13
13
13
13
13
13
13
13
13
13
13
13
13
13
13
13
13
13
13
13
13
13
13
13
13
13
13
13
13
13
13
13
13
13
13
13
13
13
13
13
13
13
13
13
13
13
13
13
13
13
13
13
13
13
13
13
13
13
13
13
13
13
13
13
13
13
13
13
13
13
13
13
13
13
13
13
13
13
13
13
13
13
13
13
13
13
13
13
13
13
13
13
13
13
13
13
13
13
13
13
13
13
13
13
13
13
13
13
13
13
13
13
13
13
13
13
13
13
13
13
13
13
13
13
13
13
13
13
13
13
13
13
13
13
13
13
13
13
13
13
13
13
13
13
13
13
13
13
13
13
13
13
13
13
13
13
13
13
13
13
13
13
13
13
13
13
13
13
13
13
13
13
13
13
13
13
13
13
13
13
13
13
13
13
13
13
13
13
13
13
13
13
13
13
13
13
13
13
13
13
13
13
13
13
13
13
13
13
13
13
13
13
13
13
13
13
13
13
13
13
13
13
13
13

POINT_DATA 626
VECTORS displacement float
-1.74395e-06 3.09542e-05 1.80549e-05
1.73566e-06 3.09732e-05 1.81e-05
-2.5986e-05 1.69927e-05 1.80869e-05
-2.58407e-05 1.60329e-05 1.80515e-05
-2.77204e-05 1.39727e-05 1.80689e-05
-2.77134e-05 -1.40189e-05 1.80944e-05
-2.58119e-05 -1.6071e-05 1.81057e-05
-2.59823e-05 -1.70108e-05 1.81669e-05
-1.67741e-06 -3.09579e-05 1.80513e-05
1.75545e-06 -3.09594e-05 1.81018e-05
2.59434e-05 -1.69806e-05 1.80434e-05
2.77168e-05 -1.39365e-05 1.80432e-05
2.76722e-05 1.39893e-05 1.80915e-05
2.59147e-05 1.69928e-05 1.80459e-05
0 0 0
-1.74395e-06 3.09542e-05 -1.80549e-05
1.73566e-06 3.09732e-05 -1.81e-05
-2.5986e-05 1.69927e-05 -1.80869e-05
-2.58407e-05 1.60329e-05 -1.80515e-05
-2.77204e-05 1.39727e-05 -1.80689e-05
-2.77134e-05 -1.40189e-05 -1.80944e-05
-2.58119e-05 -1.6071e-05 -1.81057e-05
-2.59823e-05 -1.70108e-05 -1.81669e-05
-1.67741e-06 -3.09579e-05 -1.80513e-05
1.75545e-06 -3.09594e-05 -1.81018e-05
2.59434e-05 -1.69806e-05 -1.80434e-05
2.77168e-05 -1.39365e-05 -1.80432e-05
2.76722e-05 1.39893e-05 -1.80915e-05
2.59147e-05 1.69928e-05 -1.80459e-05
0 0 0
2.48955e-08 3.01541e-05 1.80341e-05
-2.11404e-05 1.87122e-05 1.75496e-05
-1.72323e-05 1.98336e-05 1.69206e-05
-1.40068e-05 2.1054e-05 1.65547e-05
-1.12067e-05 2.26646e-05 1.65486e-05
-8.52401e-06 2.48326e-05 1.69012e-05
-5.56777e-06 2.76214e-05 1.75373e-05
-2.64496e-05 1.4679e-05 1.80333e-05
-2.67685e-05 -9.0114e-06 1.75772e-05
-2.58059e-05 -5.03539e-06 1.69258e-05
-2.52542e-05 -1.63618e-06 1.65712e-05
-2.52571e-05 1.60782e-06 1.65742e-05
-2.57982e-05 5.02279e-06 1.6924e-05
-2.67547e-05 8.98449e-06 1.75637e-05
-2.64365e-05 -1.47253e-05 1.80621e-05
-5.54103e-06 -2.76359e-05 1.75295e-05
-8.47652e-06 -2.48416e-05 1.69005e-05
-1.11699e-05 -2.2684e-05 1.6556e-05
-1.39704e-05 -2.1087e-05 1.65593e-05
-1.72147e-05 -1.9869e-05 1.69365e-05
-2.1134e-05 -1.8749e-05 1.7562e-05
8.98414e-08 -3.01388e-05 1.80292e-05
2.11237e-05 -1.86247e-05 1.75113e-05
1.72445e-05 -1.9762e-05 1.68727e-05
1.40337e-05 -2.10109e-05 1.65114e-05
1.12249e-05 -2.25927e-05 1.65459e-05
8.58117e-06 -2.47798e-05 1.6874e-05
5.65465e-06 -2.76261e-05 1.75348e-05
2.61243e-05 -1.50595e-05 1.80282e-05
2.67165e-05 8.93827e-06 1.75013e-05
2.57217e-05 5.04951e-06 1.69082e-05
2.52063e-05 1.62329e-06 1.6523e-05
2.52034e-05 -1.5994e-06 1.65213e-05
2.57504e-05 -4.9973e-06 1.68881e-05
2.66986e-05 -8.91703e-06 1.75095e-05
2.61074e-05 1.50607e-05 1.80253e-05
5.63311e-06 2.76175e-05 1.75094e-05
8.50854e-06 2.48065e-05 1.6911e-05
1.12169e-05 2.26407e-05 1.65292e-05
1.40043e-05 2.10219e-05 1.65245e-05
1.72215e-05 1.97932e-05 1.68849e-05
2.11147e-05 1.86343e-05 1.75252e-05
0 0 0
0 0 0
0 0 0
0 0 0
0 0 0
0 0 0
2.48955e-08 3.01541e-05 -1.80341e-05
-2.11404e-05 1.87122e-05 -1.75496e-05
-1.72323e-05 1.98336e-05 -1.69206e-05
-1.40068e-05 2.1054e-05 -1.65547e-05
-1.12067e-05 2.26646e-05 -1.65486e-05
-8.52401e-06 2.48326e-05 -1.69012e-05
-5.56777e-06 2.76214e-05 -1.75373e-05
-2.64496e-05 1.4679e-05 -1.80333e-05
-2.67685e-05 -9.0114e-06 -1.75772e-05
-2.58059e-05 -5.03539e-06 -1.69258e-05
-2.52542e-05 -1.63618e-06 -1.65712e-05
-2.52571e-05 1.60782e-06 -1.65742e-05
-2.57982e-05 5.02279e-06 -1.6924e-05
-2.67547e-05 8.98449e-06 -1.75637e-05
-2.64365e-05 -1.47253e-05 -1.80621e-05
-5.54103e-06 -2.76359e-05 -1.75295e-05
-8.47652e-06 -2.48416e-05 -1.69005e-05
-1.11699e-05 -2.2684e-05 -1.6556e-05
-1.39704e-05 -2.1087e-05 -1.65593e-05
-1.72147e-05 -1.9869e-05 -1.69365e-05
-2.1134e-05 -1.8749e-05 -1.7562e-05
8.98414e-08 -3.01388e-05 -1.80292e-05
2.11237e-05 -1.86247e-05 -1.75113e-05
1.72445e-05 -1.9762e-05 -1.68727e-05
1.40337e-05 -2.10109e-05 -1.65114e-05
1.12249e-05 -2.25927e-05 -1.65459e-05
8.58117e-06 -2.47798e-05 -1.6874e-05
5.65465e-06 -2.76261e-05 -1.75348e-05
2.61243e-05 -1.50595e-05 -1.80282e-05
2.67165e-05 8.93827e-06 -1.75013e-05
2.57217e-05 5.04951e-06 -1.69082e-05
2.52063e-05 1.62329e-06 -1.6523e-05
2.52034e-05 -1.5994e-06 -1.65213e-05
2.57504e-05 -4.9973e-06 -1.68881e-05
2.66986e-05 -8.91703e-06 -1.75095e-05
2.61074e-05 1.50607e-05 -1.80253e-05
5.63311e-06 2.76175e-05 -1.75094e-05
8.50854e-06 2.48065e-05 -1.6911e-05
1.12169e-05 2.26407e-05 -1.65292e-05
1.40043e-05 2.10219e-05 -1.65245e-05
1.72215e-05 1.97932e-05 -1.68849e-05
2.11147e-05 1.86343e-05 -1.75252e-05
0 0 0
0 0 0
0 0 0
0 0 0
0 0 0
0 0 0
1.79366e-06 8.58737e-07 4.55219e-06
1.7378e-06 -8.25106e-07 4.46074e-06
4.31949e-07 1.84961e-06 4.49506e-06
4.36093e-07 -1.78061e-06 4.35603e-06
-1.84747e-06 2.09628e-08 4.4223e-06
-1.12308e-06 -1.30886e-06 4.15094e-06
-1.1592e-06 1.30678e-06 4.19972e-06
-2.25128e-05 -7.28757e-06 1.69997e-05
-2.21961e-05 7.37146e-06 1.69684e-05
-4.86039e-06 2.28982e-05 1.69368e-05
-4.8579e-06 -2.31313e-05 1.69637e-05
1.7421e-05 1.56353e-05 1.69296e-05
1.75685e-05 -1.55362e-05 1.69389e-05
2.10732e-05 3.16383e-06 1.63242e-05
-1.39529e-05 1.7151e-05 1.64781e-05
-1.3591e-05 -1.6741e-05 1.64097e-05
7.76774e-06 1.98193e-05 1.6331e-05
7.68477e-06 -2.03097e-05 1.64023e-05
2.1472e-05 -3.44368e-06 1.63999e-05
-2.11024e-05 6.58808e-09 1.62464e-05
-2.24201e-05 1.09996e-05 1.74534e-05
-1.87507e-05 9.25457e-06 1.66268e-05
-1.79825e-05 5.79536e-06 1.6036e-05
-1.49837e-05 7.44822e-06 1.54861e-05
-1.42242e-05 4.30766e-06 1.48294e-05
-1.15324e-05 5.7438e-06 1.40944e-05
-1.08579e-05 3.06869e-06 1.33733e-05
-8.40037e-06 4.30481e-06 1.24041e-05
-9.05867e-06 7.0133e-06 1.3456e-05
-6.20402e-06 5.48843e-06 1.16887e-05
-6.8282e-06 8.24932e-06 1.30796e-05
-4.28134e-06 6.67481e-06 1.14502e-05
-4.79994e-06 9.60979e-06 1.30936e-05
-2.40084e-06 7.99323e-06 1.17227e-05
-2.81281e-06 1.11671e-05 1.34746e-05
-4.75403e-07 9.59516e-06 1.25007e-05
-7.38343e-07 1.29967e-05 1.41414e-05
1.73106e-06 1.15176e-05 1.35347e-05
-5.5346e-06 1.27002e-05 1.44366e-05
1.68506e-06 8.22386e-06 1.17473e-05
4.00412e-06 1.01207e-05 1.31506e-05
3.7053e-06 7.09785e-06 1.1478e-05
6.06732e-06 8.96654e-06 1.3113e-05
5.76674e-06 6.1067e-06 1.17353e-05
8.35796e-06 8.02021e-06 1.34917e-05
8.10554e-06 5.19519e-06 1.25e-05
1.09538e-05 7.09695e-06 1.41466e-05
1.07458e-05 4.32273e-06 1.34987e-05
8.5304e-06 1.10373e-05 1.44604e-05
7.93758e-06 2.64371e-06 1.17271e-05
1.06459e-05 1.73718e-06 1.31037e-05
7.94858e-06 3.58755e-07 1.14553e-05
1.08062e-05 -7.59102e-07 1.31238e-05
8.11153e-06 -1.93778e-06 1.17088e-05
1.10981e-05 -3.3128e-06 1.34836e-05
8.46962e-06 -4.42392e-06 1.24438e-05
1.15035e-05 -6.0028e-06 1.41091e-05
8.95545e-06 -7.13801e-06 1.34277e-05
6.14744e-06 -5.49434e-06 1.1641e-05
6.6444e-06 -8.30075e-06 1.3018e-05
4.10515e-06 -6.58842e-06 1.13107e-05
4.52329e-06 -9.55073e-06 1.2988e-05
2.24226e-06 -7.85818e-06 1.15971e-05
2.4848e-06 -1.10017e-05 1.33506e-05
2.25288e-07 -9.37356e-06 1.23533e-05
3.3001e-07 -1.27696e-05 1.40335e-05
-1.91541e-06 -1.11505e-05 1.33767e-05
-1.84104e-06 -7.92151e-06 1.15819e-05
-4.16784e-06 -9.87472e-06 1.30847e-05
-3.81389e-06 -6.73041e-06 1.13169e-05
-6.34553e-06 -8.6619e-06 1.3099e-05
-5.89122e-06 -5.69794e-06 1.16281e-05
-8.49961e-06 -7.4357e-06 1.33794e-05
-8.16744e-06 -4.728e-06 1.24084e-05
-1.10955e-05 -6.40268e-06 1.40696e-05
-4.37159e-06 -1.3123e-05 1.44334e-05
-1.08087e-05 -3.65063e-06 1.34389e-05
7.22602e-06 -1.13726e-05 1.42727e-05
-7.7416e-06 1.98266e-06 1.14927e-05
-1.32159e-05 1.03504e-06 1.42107e-05
1.7291e-06 1.50826e-05 1.4952e-05
1.37679e-05 4.62231e-07 1.43875e-05
1.3843e-05 6.10002e-06 1.49315e-05
-9.69393e-06 1.01961e-05 1.45323e-05
-5.41595e-06 -3.19762e-06 1.01819e-05
-1.17135e-05 -9.29722e-06 1.4889e-05
1.18822e-05 -8.7601e-06 1.47869e-05
1.47816e-05 -7.47351e-06 1.54031e-05
-1.39596e-05 -5.24383e-06 1.48614e-05
2.79579e-06 -1.4516e-05 1.4796e-05
4.24559e-07 -1.64992e-05 1.53975e-05
3.5184e-06 4.39689e-06 9.58096e-06
1.40104e-05 9.29895e-06 1.54914e-05
1.79306e-05 8.14486e-06 1.63004e-05
-1.56753e-05 1.13952e-05 1.62333e-05
-1.09407e-06 1.67689e-05 1.54951e-05
1.90684e-06 1.96214e-05 1.63108e-05
-2.09185e-06 5.22002e-06 9.59746e-06
5.55389e-06 -7.84595e-07 9.594e-06
3.58592e-06 -3.68353e-06 9.08185e-06
-1.77962e-06 -5.17852e-06 9.44947e-06
-2.24685e-05 -1.10107e-05 1.74742e-05
-1.8798e-05 -9.24131e-06 1.66509e-05
2.11476e-05 1.41646e-05 1.75055e-05
2.07535e-05 -1.43175e-05 1.74354e-05
-1.76459e-06 -2.54463e-05 1.75108e-05
-1.68212e-06 2.54103e-05 1.75154e-05
1.77128e-05 -1.19068e-05 1.6687e-05
2.06455e-05 -1.0751e-05 1.71158e-05
3.77561e-06 -1.89849e-05 1.61392e-05
7.68525e-07 -2.03456e-05 1.64827e-05
-1.94049e-05 -1.26504e-05 1.7143e-05
-1.37309e-05 -2.3069e-06 1.44717e-05
-1.65925e-05 -3.70138e-06 1.54773e-05
-1.03757e-05 -1.09637e-06 1.29519e-05
2.44518e-05 1.10727e-05 1.76515e-05
2.54973e-05 -1.24031e-05 1.7848e-05
2.64924e-06 2.67257e-05 1.76603e-05
2.52099e-06 -2.64133e-05 1.76292e-05
3.33944e-06 -2.30316e-05 1.70289e-05
-2.05387e-06 -1.83197e-05 1.59507e-05
4.05904e-06 2.37911e-05 1.71302e-05
2.26139e-05 8.37914e-06 1.71191e-05
4.61355e-06 1.73131e-05 1.57271e-05
1.44268e-05 -1.31193e-05 1.61372e-05
-1.57875e-05 -1.09846e-05 1.62144e-05
-1.67996e-05 -3.81422e-07 1.53771e-05
1.73057e-05 4.68741e-06 1.57254e-05
6.55214e-08 -6.38723e-06 1.02673e-05
1.74169e-06 -4.8484e-06 9.09235e-06
5.85039e-06 -2.93547e-06 1.0378e-05
-2.14439e-05 3.75045e-06 1.64586e-05
5.72928e-06 -1.62742e-05 1.55075e-05
9.08333e-06 -1.74988e-05 1.59973e-05
1.75719e-05 1.18815e-05 1.66721e-05
1.3994e-05 -1.6382e-05 1.6401e-05
1.07398e-05 -1.37888e-05 1.55499e-05
-3.54792e-06 -4.22014e-06 9.50062e-06
5.39905e-06 1.13848e-06 9.4989e-06
5.21798e-06 3.22283e-06 1.00471e-05
-1.74978e-06 -2.83542e-05 1.78767e-05
1.89203e-06 5.29882e-06 9.5843e-06
-1.13822e-07 6.10492e-06 1.00386e-05
-3.78487e-06 4.12769e-06 9.57826e-06
-5.6226e-06 3.03414e-06 1.02851e-05
-5.1654e-06 1.04066e-06 9.21347e-06
-7.52714e-06 -6.17382e-08 1.11722e-05
-4.33432e-06 -8.10267e-07 8.38173e-06
-3.10855e-06 1.87231e-06 7.37395e-06
-2.20808e-05 -3.60769e-06 1.65156e-05
2.34059e-05 -1.56878e-05 1.78359e-05
-1.50718e-06 2.11676e-05 1.66818e-05
2.12613e-05 -8.45181e-08 1.62255e-05
1.76218e-05 -1.64677e-06 1.55812e-05
1.73474e-05 -4.94159e-06 1.57704e-05
2.18912e-05 -7.45099e-06 1.69134e-05
-2.31819e-05 -1.42544e-05 1.78325e-05
1.73243e-05 1.64884e-06 1.55083e-05
-1.73399e-06 2.84727e-05 1.78939e-05
-4.22066e-07 3.68337e-06 7.49519e-06
2.37716e-05 1.57422e-05 1.78844e-05
-1.74971e-05 1.5642e-05 1.69747e-05
-1.06261e-05 -1.84658e-05 1.62548e-05
-1.00994e-05 -1.43421e-05 1.55714e-05
-7.50766e-06 -1.60946e-05 1.56218e-05
-7.32202e-06 -2.01202e-05 1.63951e-05
-1.07043e-05 1.85349e-05 1.62666e-05
-1.03472e-05 1.43839e-05 1.56191e-05
-7.77253e-06 2.04921e-05 1.6444e-05
-4.25293e-06 1.86094e-05 1.60527e-05
1.07595e-05 1.83452e-05 1.62259e-05
1.38914e-05 1.69347e-05 1.64308e-05
1.40417e-05 1.29727e-05 1.60511e-05
-7.36147e-06 1.62881e-05 1.56383e-05
1.0525e-05 1.45468e-05 1.5645e-05
7.74864e-06 1.60921e-05 1.56137e-05
-3.11643e-06 -1.89874e-06 7.39308e-06
-7.25754e-06 -1.24218e-05 1.46249e-05
3.00863e-06 4.03597e-08 6.60088e-06
4.87251e-06 1.35225e-05 1.46179e-05
1.40758e-05 -2.26035e-06 1.45702e-05
-1.72895e-05 -1.52165e-05 1.69453e-05
-1.73662e-05 2.42027e-06 1.55976e-05
-1.22045e-05 8.91181e-06 1.49433e-05
-7.70552e-06 -2.29249e-06 1.15545e-05
-1.24496e-05 1.18125e-05 1.55398e-05
-1.42734e-07 -3.75418e-06 7.55407e-06
2.7302e-06 2.27205e-06 7.25183e-06
-2.00384e-06 -1.46503e-05 1.48078e-05
9.36496e-06 -1.00681e-05 1.43892e-05
1.38606e-05 3.15777e-06 1.45659e-05
-7.33994e-06 1.11992e-05 1.42601e-05
4.99715e-06 -1.27746e-05 1.43691e-05
1.10317e-05 1.04304e-05 1.49194e-05
-3.5964e-06 1.46851e-05 1.49078e-05
-4.63541e-06 -1.66167e-05 1.55486e-05
-1.95068e-05 1.28923e-05 1.71611e-05
-2.31267e-05 1.4858e-05 1.78433e-05
-1.29048e-05 -1.26859e-05 1.58123e-05
3.76076e-06 -1.58611e-06 7.90684e-06
1.76438e-06 2.92225e-06 7.08434e-06
-9.23036e-06 -1.06093e-05 1.45316e-05
1.72772e-06 -2.82313e-06 6.93098e-06
9.94725e-07 2.41166e-05 1.73083e-05
2.13677e-05 1.11937e-05 1.72985e-05
-1.46644e-05 -7.95329e-06 1.54852e-05
1.37079e-05 -4.78626e-06 1.46905e-05
-1.90986e-06 -2.17627e-05 1.68026e-05
1.80602e-05 -8.41896e-06 1.63406e-05
-1.66787e-05 -6.32849e-06 1.57823e-05
-4.32897e-07 -1.9223e-06 4.79842e-06
-1.80535e-06 2.99541e-06 7.17709e-06
-2.50518e-05 -1.29817e-05 1.79222e-05
-2.5127e-05 -1.45072e-05 1.8002e-05
-2.5045e-05 1.30336e-05 1.79059e-05
-2.51178e-05 1.46498e-05 1.7982e-05
-1.64844e-06 -3.12482e-06 7.20983e-06
6.32787e-06 1.13682e-05 1.40764e-05
5.33708e-07 -2.40859e-05 1.73021e-05
-5.22773e-07 1.80953e-06 4.64496e-06
7.40737e-06 -1.43435e-05 1.51522e-05
2.33027e-05 -1.32092e-05 1.77287e-05
2.36325e-05 -1.05374e-05 1.74907e-05
1.19883e-05 -1.82107e-05 1.62931e-05
1.473e-05 -1.01465e-05 1.57954e-05
-1.0027e-05 1.00124e-06 1.27545e-05
-1.74e-06 -8.15895e-07 4.7234e-06
7.69057e-07 3.70832e-06 7.57306e-06
2.34305e-06 -1.99714e-06 6.55521e-06
2.01563e-05 5.89775e-06 1.64535e-05
5.07004e-06 2.05957e-05 1.64959e-05
3.42117e-07 -2.76798e-05 1.78539e-05
-1.73121e-06 7.09106e-07 4.60627e-06
-3.21148e-06 6.23042e-07 6.82406e-06
3.57718e-06 1.4754e-06 7.63653e-06
4.99225e-07 2.83236e-05 1.79272e-05
2.47601e-05 1.3734e-05 1.79183e-05
-2.03282e-05 1.55357e-05 1.74289e-05
1.1787e-06 1.36446e-06 4.4598e-06
-2.06394e-05 -1.57283e-05 1.75275e-05
-1.89987e-05 -2.32216e-06 1.5946e-05
-1.9559e-05 -5.58493e-06 1.63321e-05
9.05675e-07 -3.24773e-06 7.00602e-06
-4.36598e-06 -1.97891e-05 1.63217e-05
-7.93719e-06 1.38343e-05 1.51009e-05
1.16574e-06 -1.30417e-06 4.33925e-06
1.19343e-05 -1.12282e-05 1.5292e-05
6.13302e-06 -2.26959e-05 1.68204e-05
-1.4522e-05 1.43552e-05 1.63235e-05
7.92899e-06 1.33211e-05 1.49478e-05
1.79366e-06 8.58737e-07 -4.55219e-06
1.7378e-06 -8.25106e-07 -4.46074e-06
4.31949e-07 1.84961e-06 -4.49506e-06
4.36093e-07 -1.78061e-06 -4.35603e-06
-1.84747e-06 2.09628e-08 -4.4223e-06
-1.12308e-06 -1.30886e-06 -4.15094e-06
-1.1592e-06 1.30678e-06 -4.19972e-06
-2.25128e-05 -7.28757e-06 -1.69997e-05
-2.21961e-05 7.37146e-06 -1.69684e-05
-4.86039e-06 2.28982e-05 -1.69368e-05
-4.8579e-06 -2.31313e-05 -1.69637e-05
1.7421e-05 1.56353e-05 -1.69296e-05
1.75685e-05 -1.55362e-05 -1.69389e-05
2.10732e-05 3.16383e-06 -1.63242e-05
-1.39529e-05 1.7151e-05 -1.64781e-05
-1.3591e-05 -1.6741e-05 -1.64097e-05
7.76774e-06 1.98193e-05 -1.6331e-05
7.68477e-06 -2.03097e-05 -1.64023e-05
2.1472e-05 -3.44368e-06 -1.63999e-05
-2.11024e-05 6.58808e-09 -1.62464e-05
-2.24201e-05 1.09996e-05 -1.74534e-05
-1.87507e-05 9.25457e-06 -1.66268e-05
-1.79825e-05 5.79536e-06 -1.6036e-05
-1.49837e-05 7.44822e-06 -1.54861e-05
-1.42242e-05 4.30766e-06 -1.48294e-05
-1.15324e-05 5.7438e-06 -1.40944e-05
-1.08579e-05 3.06869e-06 -1.33733e-05
-8.40037e-06 4.30481e-06 -1.24041e-05
-9.05867e-06 7.0133e-06 -1.3456e-05
-6.20402e-06 5.48843e-06 -1.16887e-05
-6.8282e-06 8.24932e-06 -1.30796e-05
-4.28134e-06 6.67481e-06 -1.14502e-05
-4.79994e-06 9.60979e-06 -1.30936e-05
-2.40084e-06 7.99323e-06 -1.17227e-05
-2.81281e-06 1.11671e-05 -1.34746e-05
-4.75403e-07 9.59516e-06 -1.25007e-05
-7.38343e-07 1.29967e-05 -1.41414e-05
1.73106e-06 1.15176e-05 -1.35347e-05
-5.5346e-06 1.27002e-05 -1.44366e-05
1.68506e-06 8.22386e-06 -1.17473e-05
4.00412e-06 1.01207e-05 -1.31506e-05
3.7053e-06 7.09785e-06 -1.1478e-05
6.06732e-06 8.96654e-06 -1.3113e-05
5.76674e-06 6.1067e-06 -1.17353e-05
8.35796e-06 8.02021e-06 -1.34917e-05
8.10554e-06 5.19519e-06 -1.25e-05
1.09538e-05 7.09695e-06 -1.41466e-05
1.07458e-05 4.32273e-06 -1.34987e-05
8.5304e-06 1.10373e-05 -1.44604e-05
7.93758e-06 2.64371e-06 -1.17271e-05
1.06459e-05 1.73718e-06 -1.31037e-05
7.94858e-06 3.58755e-07 -1.14553e-05
1.08062e-05 -7.59102e-07 -1.31238e-05
8.11153e-06 -1.93778e-06 -1.17088e-05
1.10981e-05 -3.3128e-06 -1.34836e-05
8.46962e-06 -4.42392e-06 -1.24438e-05
1.15035e-05 -6.0028e-06 -1.41091e-05
8.95545e-06 -7.13801e-06 -1.34277e-05
6.14744e-06 -5.49434e-06 -1.1641e-05
6.6444e-06 -8.30075e-06 -1.3018e-05
4.10515e-06 -6.58842e-06 -1.13107e-05
4.52329e-06 -9.55073e-06 -1.2988e-05
2.24226e-06 -7.85818e-06 -1.15971e-05
2.4848e-06 -1.10017e-05 -1.33506e-05
2.25288e-07 -9.37356e-06 -1.23533e-05
3.3001e-07 -1.27696e-05 -1.40335e-05
-1.91541e-06 -1.11505e-05 -1.33767e-05
-1.84104e-06 -7.92151e-06 -1.15819e-05
-4.16784e-06 -9.87472e-06 -1.30847e-05
-3.81389e-06 -6.73041e-06 -1.13169e-05
-6.34553e-06 -8.6619e-06 -1.3099e-05
-5.89122e-06 -5.69794e-06 -1.16281e-05
-8.49961e-06 -7.4357e-06 -1.33794e-05
-8.16744e-06 -4.728e-06 -1.24084e-05
-1.10955e-05 -6.40268e-06 -1.40696e-05
-4.37159e-06 -1.3123e-05 -1.44334e-05
-1.08087e-05 -3.65063e-06 -1.34389e-05
7.22602e-06 -1.13726e-05 -1.42727e-05
-7.7416e-06 1.98266e-06 -1.14927e-05
-1.32159e-05 1.03504e-06 -1.42107e-05
1.7291e-06 1.50826e-05 -1.4952e-05
1.37679e-05 4.62231e-07 -1.43875e-05
1.3843e-05 6.10002e-06 -1.49315e-05
-9.69393e-06 1.01961e-05 -1.45323e-05
-5.41595e-06 -3.19762e-06 -1.01819e-05
-1.17135e-05 -9.29722e-06 -1.4889e-05
1.18822e-05 -8.7601e-06 -1.47869e-05
1.47816e-05 -7.47351e-06 -1.54031e-05
-1.39596e-05 -5.24383e-06 -1.48614e-05
2.79579e-06 -1.4516e-05 -1.4796e-05
4.24559e-07 -1.64992e-05 -1.53975e-05
3.5184e-06 4.39689e-06 -9.58096e-06
1.40104e-05 9.29895e-06 -1.54914e-05
1.79306e-05 8.14486e-06 -1.63004e-05
-1.56753e-05 1.13952e-05 -1.62333e-05
-1.09407e-06 1.67689e-05 -1.54951e-05
1.90684e-06 1.96214e-05 -1.63108e-05
-2.09185e-06 5.22002e-06 -9.59746e-06
5.55389e-06 -7.84595e-07 -9.594e-06
3.58592e-06 -3.68353e-06 -9.08185e-06
-1.77962e-06 -5.17852e-06 -9.44947e-06
-2.24685e-05 -1.10107e-05 -1.74742e-05
-1.8798e-05 -9.24131e-06 -1.66509e-05
2.11476e-05 1.41646e-05 -1.75055e-05
2.07535e-05 -1.43175e-05 -1.74354e-05
-1.76459e-06 -2.54463e-05 -1.75108e-05
-1.68212e-06 2.54103e-05 -1.75154e-05
1.77128e-05 -1.19068e-05 -1.6687e-05
2.06455e-05 -1.0751e-05 -1.71158e-05
3.77561e-06 -1.89849e-05 -1.61392e-05
7.68525e-07 -2.03456e-05 -1.64827e-05
-1.94049e-05 -1.26504e-05 -1.7143e-05
-1.37309e-05 -2.3069e-06 -1.44717e-05
-1.65925e-05 -3.70138e-06 -1.54773e-05
-1.03757e-05 -1.09637e-06 -1.29519e-05
2.44518e-05 1.10727e-05 -1.76515e-05
2.54973e-05 -1.24031e-05 -1.7848e-05
2.64924e-06 2.67257e-05 -1.76603e-05
2.52099e-06 -2.64133e-05 -1.76292e-05
3.33944e-06 -2.30316e-05 -1.70289e-05
-2.05387e-06 -1.83197e-05 -1.59507e-05
4.05904e-06 2.37911e-05 -1.71302e-05
2.26139e-05 8.37914e-06 -1.71191e-05
4.61355e-06 1.73131e-05 -1.57271e-05
1.44268e-05 -1.31193e-05 -1.61372e-05
-1.57875e-05 -1.09846e-05 -1.62144e-05
-1.67996e-05 -3.81422e-07 -1.53771e-05
1.73057e-05 4.68741e-06 -1.57254e-05
6.55214e-08 -6.38723e-06 -1.02673e-05
1.74169e-06 -4.8484e-06 -9.09235e-06
5.85039e-06 -2.93547e-06 -1.0378e-05
-2.14439e-05 3.75045e-06 -1.64586e-05
5.72928e-06 -1.62742e-05 -1.55075e-05
9.08333e-06 -1.74988e-05 -1.59973e-05
1.75719e-05 1.18815e-05 -1.66721e-05
1.3994e-05 -1.6382e-05 -1.6401e-05
1.07398e-05 -1.37888e-05 -1.55499e-05
-3.54792e-06 -4.22014e-06 -9.50062e-06
5.39905e-06 1.13848e-06 -9.4989e-06
5.21798e-06 3.22283e-06 -1.00471e-05
-1.74978e-06 -2.83542e-05 -1.78767e-05
1.89203e-06 5.29882e-06 -9.5843e-06
-1.13822e-07 6.10492e-06 -1.00386e-05
-3.78487e-06 4.12769e-06 -9.57826e-06
-5.6226e-06 3.03414e-06 -1.02851e-05
-5.1654e-06 1.04066e-06 -9.21347e-06
-7.52714e-06 -6.17382e-08 -1.11722e-05
-4.33432e-06 -8.10267e-07 -8.38173e-06
-3.10855e-06 1.87231e-06 -7.37395e-06
-2.20808e-05 -3.60769e-06 -1.65156e-05
2.34059e-05 -1.56878e-05 -1.78359e-05
-1.50718e-06 2.11676e-05 -1.66818e-05
2.12613e-05 -8.45181e-08 -1.62255e-05
1.76218e-05 -1.64677e-06 -1.55812e-05
1.73474e-05 -4.94159e-06 -1.57704e-05
2.18912e-05 -7.45099e-06 -1.69134e-05
-2.31819e-05 -1.42544e-05 -1.78325e-05
1.73243e-05 1.64884e-06 -1.55083e-05
-1.73399e-06 2.84727e-05 -1.78939e-05
-4.22066e-07 3.68337e-06 -7.49519e-06
2.37716e-05 1.57422e-05 -1.78844e-05
-1.74971e-05 1.5642e-05 -1.69747e-05
-1.06261e-05 -1.84658e-05 -1.62548e-05
-1.00994e-05 -1.43421e-05 -1.55714e-05
-7.50766e-06 -1.60946e-05 -1.56218e-05
-7.32202e-06 -2.01202e-05 -1.63951e-05
-1.07043e-05 1.85349e-05 -1.62666e-05
-1.03472e-05 1.43839e-05 -1.56191e-05
-7.77253e-06 2.04921e-05 -1.6444e-05
-4.25293e-06 1.86094e-05 -1.60527e-05
1.07595e-05 1.83452e-05 -1.62259e-05
1.38914e-05 1.69347e-05 -1.64308e-05
1.40417e-05 1.29727e-05 -1.60511e-05
-7.36147e-06 1.62881e-05 -1.56383e-05
1.0525e-05 1.45468e-05 -1.5645e-05
7.74864e-06 1.60921e-05 -1.56137e-05
-3.11643e-06 -1.89874e-06 -7.39308e-06
-7.25754e-06 -1.24218e-05 -1.46249e-05
3.00863e-06 4.03597e-08 -6.60088e-06
4.87251e-06 1.35225e-05 -1.46179e-05
1.40758e-05 -2.26035e-06 -1.45702e-05
-1.72895e-05 -1.52165e-05 -1.69453e-05
-1.73662e-05 2.42027e-06 -1.55976e-05
-1.22045e-05 8.91181e-06 -1.49433e-05
-7.70552e-06 -2.29249e-06 -1.15545e-05
-1.24496e-05 1.18125e-05 -1.55398e-05
-1.42734e-07 -3.75418e-06 -7.55407e-06
2.7302e-06 2.27205e-06 -7.25183e-06
-2.00384e-06 -1.46503e-05 -1.48078e-05
9.36496e-06 -1.00681e-05 -1.43892e-05
1.38606e-05 3.15777e-06 -1.45659e-05
-7.33994e-06 1.11992e-05 -1.42601e-05
4.99715e-06 -1.27746e-05 -1.43691e-05
1.10317e-05 1.04304e-05 -1.49194e-05
-3.5964e-06 1.46851e-05 -1.49078e-05
-4.63541e-06 -1.66167e-05 -1.55486e-05
-1.95068e-05 1.28923e-05 -1.71611e-05
-2.31267e-05 1.4858e-05 -1.78433e-05
-1.29048e-05 -1.26859e-05 -1.58123e-05
3.76076e-06 -1.58611e-06 -7.90684e-06
1.76438e-06 2.92225e-06 -7.08434e-06
-9.23036e-06 -1.06093e-05 -1.45316e-05
1.72772e-06 -2.82313e-06 -6.93098e-06
9.94725e-07 2.41166e-05 -1.73083e-05
2.13677e-05 1.11937e-05 -1.72985e-05
-1.46644e-05 -7.95329e-06 -1.54852e-05
1.37079e-05 -4.78626e-06 -1.46905e-05
-1.90986e-06 -2.17627e-05 -1.68026e-05
1.80602e-05 -8.41896e-06 -1.63406e-05
-1.66787e-05 -6.32849e-06 -1.57823e-05
-4.32897e-07 -1.9223e-06 -4.79842e-06
-1.80535e-06 2.99541e-06 -7.17709e-06
-2.50518e-05 -1.29817e-05 -1.79222e-05
-2.5127e-05 -1.45072e-05 -1.8002e-05
-2.5045e-05 1.30336e-05 -1.79059e-05
-2.51178e-05 1.46498e-05 -1.7982e-05
-1.64844e-06 -3.12482e-06 -7.20983e-06
6.32787e-06 1.13682e-05 -1.40764e-05
5.33708e-07 -2.40859e-05 -1.73021e-05
-5.22773e-07 1.80953e-06 -4.64496e-06
7.40737e-06 -1.43435e-05 -1.51522e-05
2.33027e-05 -1.32092e-05 -1.77287e-05
2.36325e-05 -1.05374e-05 -1.74907e-05
1.19883e-05 -1.82107e-05 -1.62931e-05
1.473e-05 -1.01465e-05 -1.57954e-05
-1.0027e-05 1.00124e-06 -1.27545e-05
-1.74e-06 -8.15895e-07 -4.7234e-06
7.69057e-07 3.70832e-06 -7.57306e-06
2.34305e-06 -1.99714e-06 -6.55521e-06
2.01563e-05 5.89775e-06 -1.64535e-05
5.07004e-06 2.05957e-05 -1.64959e-05
3.42117e-07 -2.76798e-05 -1.78539e-05
-1.73121e-06 7.09106e-07 -4.60627e-06
-3.21148e-06 6.23042e-07 -6.82406e-06
3.57718e-06 1.4754e-06 -7.63653e-06
4.99225e-07 2.83236e-05 -1.79272e-05
2.47601e-05 1.3734e-05 -1.79183e-05
-2.03282e-05 1.55357e-05 -1.74289e-05
1.1787e-06 1.36446e-06 -4.4598e-06
-2.06394e-05 -1.57283e-05 -1.75275e-05
-1.89987e-05 -2.32216e-06 -1.5946e-05
-1.9559e-05 -5.58493e-06 -1.63321e-05
9.05675e-07 -3.24773e-06 -7.00602e-06
-4.36598e-06 -1.97891e-05 -1.63217e-05
-7.93719e-06 1.38343e-05 -1.51009e-05
1.16574e-06 -1.30417e-06 -4.33925e-06
1.19343e-05 -1.12282e-05 -1.5292e-05
6.13302e-06 -2.26959e-05 -1.68204e-05
-1.4522e-05 1.43552e-05 -1.63235e-05
7.92899e-06 1.33211e-05 -1.49478e-05
SCALARS effective_fluid_pressure_TPM float
LOOKUP_TABLE default
665
665
665
665
665
665
665
665
665
665
665
665
665
665
133
665
665
665
665
665
665
665
665
665
665
665
665
665
665
133
665
560.315
520.658
502.798
502.569
519.785
559.935
665
561.981
520.753
503.241
503.35
520.685
561.603
665
559.602
519.656
502.743
502.961
521.154
561.619
665
558.858
519
501.531
502.227
518.849
559.447
665
558.498
519.94
501.864
501.795
519.372
557.938
665
558.655
519.953
502.036
501.898
519.361
559.661
133
133
133
133
133
133
665
560.315
520.658
502.798
502.569
519.785
559.935
665
561.981
520.753
503.241
503.35
520.685
561.603
665
559.602
519.656
502.743
502.961
521.154
561.619
665
558.858
519
501.531
502.227
518.849
559.447
665
558.498
519.94
501.864
501.795
519.372
557.938
665
558.655
519.953
502.036
501.898
519.361
559.661
133
133
133
133
133
133
228.254
226.325
227.038
224.106
225.522
219.844
220.86
529.159
528.168
526.547
527.926
526.574
527.628
498.694
503.541
501.579
498.935
501.451
501.233
494.314
562.497
518.973
495.018
480.725
461.345
443.265
425.033
402.107
427.257
385.253
417.725
379.6
417.888
385.938
427.374
404.285
444.368
429.063
450.245
386.547
419.288
380.195
418.3
386.177
427.747
404.213
444.478
428.147
450.841
386.022
418.151
379.611
418.507
385.545
427.583
402.906
443.541
426.438
384.038
416.124
376.295
415.331
383.011
424.405
400.832
441.69
425.212
382.747
417.764
376.559
418.082
383.832
425.252
402.199
442.663
450.635
426.712
445.993
380.72
444.659
465.274
448.726
464.748
453.396
350.896
463.489
461.021
478.428
462.757
460.627
478.333
337.27
480.804
505.837
503.597
480.87
506.144
337.683
337.495
326.159
334.409
563.373
519.648
567.574
562.359
567.891
567.745
521.796
542.709
498.609
513.721
542.054
451.438
477.555
414.643
579.516
611.026
579.668
576.029
534.543
494.459
538.217
537.913
485.015
498.095
503.313
473.117
485.063
352.74
326.409
355.169
503.423
477.694
488.337
520.865
502.005
477.891
335.534
335.397
347.692
613.443
337.371
347.564
337.258
353.196
329.182
373.247
310.654
288.783
504.688
608.378
521.087
493.698
478.304
486.332
526.481
600.337
476.541
615.897
291.391
615.796
528.709
494.51
478.211
479.385
501.292
494.816
479.412
502.488
495.152
493.721
502.24
495.225
479.859
480.024
479.026
289.289
454.567
271.937
454.975
453.603
526.99
479.448
465.198
382.089
480.484
292.664
286.077
461.454
449.608
453.952
445.83
448.664
463.579
463.236
479.928
543.449
601.699
487.468
300.296
282.456
452.988
279.158
552.232
551.991
480.75
457.992
526.212
508.164
488.566
233.726
284.553
614.504
636.32
615.138
636.677
285.275
441.315
553.072
230.482
467.526
590.259
566.025
495.79
490.025
410.02
232.116
293.09
271.121
507.872
509.169
607.811
229.659
276.971
294.425
618.876
618.789
558.506
226.519
562.519
488.288
503.371
280.842
504.042
466.353
224.004
473.56
519.557
502.957
462.419
228.254
226.325
227.038
224.106
225.522
219.844
220.86
529.159
528.168
526.547
527.926
526.574
527.628
498.694
503.541
501.579
498.935
501.451
501.233
494.314
562.497
518.973
495.018
480.725
461.345
443.265
425.033
402.107
427.257
385.253
417.725
379.6
417.888
385.938
427.374
404.285
444.368
429.063
450.245
386.547
419.288
380.195
418.3
386.177
427.747
404.213
444.478
428.147
450.841
386.022
418.151
379.611
418.507
385.545
427.583
402.906
443.541
426.438
384.038
416.124
376.295
415.331
383.011
424.405
400.832
441.69
425.212
382.747
417.764
376.559
418.082
383.832
425.252
402.199
442.663
450.635
426.712
445.993
380.72
444.659
465.274
448.726
464.748
453.396
350.896
463.489
461.021
478.428
462.757
460.627
478.333
337.27
480.804
505.837
503.597
480.87
506.144
337.683
337.495
326.159
334.409
563.373
519.648
567.574
562.359
567.891
567.745
521.796
542.709
498.609
513.721
542.054
451.438
477.555
414.643
579.516
611.026
579.668
576.029
534.543
494.459
538.217
537.913
485.015
498.095
503.313
473.117
485.063
352.74
326.409
355.169
503.423
477.694
488.337
520.865
502.005
477.891
335.534
335.397
347.692
613.443
337.371
347.564
337.258
353.196
329.182
373.247
310.654
288.783
504.688
608.378
521.087
493.698
478.304
486.332
526.481
600.337
476.541
615.897
291.391
615.796
528.709
494.51
478.211
479.385
501.292
494.816
479.412
502.488
495.152
493.721
502.24
495.225
479.859
480.024
479.026
289.289
454.567
271.937
454.975
453.603
526.99
479.448
465.198
382.089
480.484
292.664
286.077
461.454
449.608
453.952
445.83
448.664
463.579
463.236
479.928
543.449
601.699
487.468
300.296
282.456
452.988
279.158
552.232
551.991
480.75
457.992
526.212
508.164
488.566
233.726
284.553
614.504
636.32
615.138
636.677
285.275
441.315
553.072
230.482
467.526
590.259
566.025
495.79
490.025
410.02
232.116
293.09
271.121
507.872
509.169
607.811
229.659
276.971
294.425
618.876
618.789
558.506
226.519
562.519
488.288
503.371
280.842
504.042
466.353
224.004
473.56
519.557
502.957
462.419

CELL_DATA 563
TENSORS stress float
164.609 -24.9203 -1.68635e-12
-24.9203 28.148 -2.63611e-12
-1.68635e-12 -2.63611e-12 -12.6047

-40.3384 -21.3202 2.78777e-12
-21.3202 -7.35468 2.53516e-12
2.78777e-12 2.53516e-12 -10.2315

-9.93977 28.043 -5.38769e-12
28.043 -1.11024 3.09382e-13
-5.38769e-12 3.09382e-13 -6.35983

-40.4266 -29.8427 -1.92468e-12
-29.8427 -12.8459 2.79036e-13
-1.92468e-12 2.79036e-13 -10.5978

-22.6925 19.9309 2.10676e-12
19.9309 -1.92228 -3.97482e-12
2.10676e-12 -3.97482e-12 -23.0216

-27.139 -18.0743 -2.60636e-12
-18.0743 15.8879 -1.58569e-12
-2.60636e-12 -1.58569e-12 -6.4106

161.26 26.4844 1.06581e-12
26.4844 28.0247 5.39539e-12
1.06581e-12 5.39539e-12 -13.2636

-5.96125 29.9577 2.04044e-12
29.9577 -10.1119 2.9153e-12
2.04044e-12 2.9153e-12 -7.2759

34.631 5.48309 -2.47387e-12
5.48309 -19.0944 1.10005e-12
-2.47387e-12 1.10005e-12 -4.12166

11.8603 -7.47756 -2.71546e-12
-7.47756 -48.287 1.88471e-12
-2.71546e-12 1.88471e-12 -8.94667

104.193 16.3084 -2.77112e-12
16.3084 -8.44345 -6.57963e-12
-2.77112e-12 -6.57963e-12 -22.4544

-34.6372 -13.4531 -1.42775e-12
-13.4531 18.9658 7.24161e-13
-1.42775e-12 7.24161e-13 -7.18016

-6.02581 27.833 -1.95991e-13
27.833 -4.59141 1.93564e-12
-1.95991e-13 1.93564e-12 -6.15876

-35.5514 -14.34 -7.24624e-13
-14.34 7.84497 -1.26773e-12
-7.24624e-13 -1.26773e-12 -9.131

-23.6537 33.3114 1.64017e-12
33.3114 -24.9942 5.26977e-13
1.64017e-12 5.26977e-13 -21.3652

21.3107 0.560965 -2.37795e-12
0.560965 -32.3381 -1.74453e-12
-2.37795e-12 -1.74453e-12 -5.58922

-48.9595 -17.9692 -5.29619e-12
-17.9692 6.34298 -6.37742e-12
-5.29619e-12 -6.37742e-12 -12.9459

11.6601 -2.6652 2.66986e-12
-2.6652 -43.2484 -5.90269e-12
2.66986e-12 -5.90269e-12 -8.0331

-11.3494 26.6734 1.05397e-12
26.6734 19.5173 4.27865e-12
1.05397e-12 4.27865e-12 -6.08894

21.7655 -4.19553 -9.43838e-13
-4.19553 -35.294 -6.14716e-12
-9.43838e-13 -6.14716e-12 -6.74077

-24.4787 8.6685 3.01537e-12
8.6685 32.1274 1.24404e-12
3.01537e-12 1.24404e-12 -4.93382

-11.8088 6.28775 3.5712e-12
6.28775 -11.9741 6.08313e-12
3.5712e-12 6.08313e-12 -75.6218

22.7431 1.87597 -2.33176e-12
1.87597 -33.4683 3.2309e-12
-2.33176e-12 3.2309e-12 -6.67674

-12.3877 -27.7149 -3.97608e-13
-27.7149 1.5998 -3.27264e-12
-3.97608e-13 -3.27264e-12 -6.60225

21.3043 6.84933 -3.90147e-12
6.84933 -34.3034 3.94085e-12
-3.90147e-12 3.94085e-12 -6.806

-37.9049 19.1128 -3.2514e-12
19.1128 2.65398 1.50132e-12
-3.2514e-12 1.50132e-12 -9.45725

106.601 4.18132 -3.60956e-12
4.18132 20.6024 -4.87136e-12
-3.60956e-12 -4.87136e-12 -12.0494

-5.3016 30.7456 1.68517e-12
30.7456 -7.27197 -1.80685e-12
1.68517e-12 -1.80685e-12 -7.44112

27.8899 37.0739 -3.61666e-12
37.0739 26.469 -2.12334e-12
-3.61666e-12 -2.12334e-12 -8.63187

-9.4391 10.3235 -3.52903e-12
10.3235 -32.9305 3.45265e-12
-3.52903e-12 3.45265e-12 -49.5095

19.8306 14.2168 -3.23297e-12
14.2168 -29.3588 1.74512e-12
-3.23297e-12 1.74512e-12 -6.00048

-4.20994 -17.7802 -9.82917e-13
-17.7802 59.6571 -3.52311e-12
-9.82917e-13 -3.52311e-12 -8.47578

66.2823 -42.1012 1.86162e-12
-42.1012 71.1375 -8.88178e-13
1.86162e-12 -8.88178e-13 -11.2522

-48.2101 5.98681 -1.74699e-12
5.98681 7.26961 -6.31821e-12
-1.74699e-12 -6.31821e-12 -41.0381

-26.2912 -4.84077 1.63425e-12
-4.84077 1.75673 -3.85321e-12
1.63425e-12 -3.85321e-12 -37.803

-1.46675 21.0279 1.92024e-12
21.0279 -39.5066 -1.995e-12
1.92024e-12 -1.995e-12 -41.1039

-43.9762 5.06759 -5.60396e-12
5.06759 0.514234 -9.74332e-13
-5.60396e-12 -9.74332e-13 -52.1919

-2.76 -9.16991 -4.07111e-12
-9.16991 -20.7699 -9.37259e-13
-4.07111e-12 -9.37259e-13 -35.8973

-3.97402 -27.9979 -8.36072e-13
-27.9979 -4.61041 -2.69533e-12
-8.36072e-13 -2.69533e-12 -5.99409

65.5961 41.5205 -1.7953e-12
41.5205 73.1652 -1.66504e-12
-1.7953e-12 -1.66504e-12 -10.9639

60.1545 -17.9488 -3.07902e-14
-17.9488 0.117235 -6.31791e-13
-3.07902e-14 -6.31791e-13 -8.04977

-41.804 -3.70613 3.24984e-12
-3.70613 -1.18565 1.68443e-12
3.24984e-12 1.68443e-12 -52.7268

-14.594 19.5557 2.84535e-12
19.5557 -28.5517 -6.75312e-13
2.84535e-12 -6.75312e-13 -52.8349

18.1409 -12.2732 -1.68103e-12
-12.2732 -29.8986 -9.31551e-13
-1.68103e-12 -9.31551e-13 -6.22267

38.1727 -43.2985 -9.4739e-14
-43.2985 41.8007 -8.5502e-13
-9.4739e-14 -8.5502e-13 -14.5589

58.1432 -18.0631 2.71664e-12
-18.0631 -2.30243 1.78998e-12
2.71664e-12 1.78998e-12 -7.91335

-21.4414 17.0855 2.33887e-13
17.0855 30.327 3.65752e-12
2.33887e-13 3.65752e-12 -5.72787

-11.3723 19.3387 5.0037e-12
19.3387 25.5104 -3.36856e-12
5.0037e-12 -3.36856e-12 -3.9213

20.7911 -16.3009 1.53655e-12
-16.3009 -33.1139 4.24031e-12
1.53655e-12 4.24031e-12 -7.31124

12.6153 -34.1849 -5.88685e-12
-34.1849 46.435 2.85164e-12
-5.88685e-12 2.85164e-12 -10.397

62.3593 19.1815 3.86062e-13
19.1815 2.81047 4.37221e-12
3.86062e-13 4.37221e-12 -8.41372

46.513 -25.288 -4.52971e-12
-25.288 5.13424 -3.524e-12
-4.52971e-12 -3.524e-12 -5.60969

-31.8956 19.4858 -2.92966e-12
19.4858 -4.28555 6.43337e-13
-2.92966e-12 6.43337e-13 -26.0857

37.0387 29.6489 4.89209e-12
29.6489 14.5127 -2.00136e-12
4.89209e-12 -2.00136e-12 -5.43212

-27.45 -21.8128 -2.96059e-14
-21.8128 -8.22822 8.57259e-13
-2.96059e-14 8.57259e-13 -25.2481

64.8678 -42.7106 2.64322e-12
-42.7106 44.0795 -2.23466e-12
2.64322e-12 -2.23466e-12 -9.50208

-27.7496 5.45978 3.68268e-12
5.45978 2.66933 8.07354e-13
3.68268e-12 8.07354e-13 -38.3086

-5.55744 -5.3297 6.06685e-12
-5.3297 57.3873 -3.33126e-12
6.06685e-12 -3.33126e-12 -5.44915

-0.200087 10.3842 9.54496e-13
10.3842 -24.8482 -1.9577e-12
9.54496e-13 -1.9577e-12 -38.3702

-26.4847 21.4128 4.56139e-12
21.4128 12.2195 -5.79329e-12
4.56139e-12 -5.79329e-12 -6.86919

4.72649 5.75384 6.21133e-13
5.75384 -56.04 3.45501e-13
6.21133e-13 3.45501e-13 -13.9806

0.539748 11.4589 8.18604e-14
11.4589 -34.0564 2.22459e-12
8.18604e-14 2.22459e-12 -14.8396

106.342 31.8194 -1.19134e-12
31.8194 37.8325 1.78228e-12
-1.19134e-12 1.78228e-12 -7.48972

-35.4916 -6.0351 6.86014e-12
-6.0351 10.6012 1.82313e-12
6.86014e-12 1.82313e-12 -13.4788

-35.3599 9.51967 -2.2881e-12
9.51967 1.2336 1.79323e-12
-2.2881e-12 1.79323e-12 -14.9599

-42.5874 -2.88076 -1.46165e-12
-2.88076 21.1109 -5.82053e-13
-1.46165e-12 -5.82053e-13 -11.2385

-44.9077 23.402 -1.05327e-12
23.402 -5.89261 1.63454e-12
-1.05327e-12 1.63454e-12 -13.9215

9.97104 8.46346 -1.13006e-12
8.46346 -42.3776 2.4909e-12
-1.13006e-12 2.4909e-12 -9.07747

-12.3341 -28.239 6.52811e-12
-28.239 1.68745 1.54365e-12
6.52811e-12 1.54365e-12 -6.67341

1.30886 -1.71122 -2.81804e-12
-1.71122 -55.4561 6.19875e-13
-2.81804e-12 6.19875e-13 -11.3036

-31.8851 -19.2618 4.8832e-12
-19.2618 -4.59493 8.03209e-13
4.8832e-12 8.03209e-13 -25.955

-27.9755 21.3078 1.67274e-13
21.3078 -8.35806 4.46268e-13
1.67274e-13 4.46268e-13 -26.0134

-0.651501 -16.5831 -9.38953e-13
-16.5831 61.6729 1.39266e-12
-9.38953e-13 1.39266e-12 -7.94861

-0.650105 -27.936 2.25953e-12
-27.936 -21.3606 -4.44089e-14
2.25953e-12 -4.44089e-14 -12.7907

-14.0929 -25.1344 2.48838e-12
-25.1344 7.40684 -9.95944e-13
2.48838e-12 -9.95944e-13 -5.23551

91.6766 -31.7101 -7.65018e-13
-31.7101 19.4846 -3.99976e-13
-7.65018e-13 -3.99976e-13 -16.3332

-33.7058 3.2226 1.61878e-12
3.2226 9.1993 2.78474e-12
1.61878e-12 2.78474e-12 -18.5635

2.75229 28.9437 1.42109e-13
28.9437 -24.4245 2.49401e-12
1.42109e-13 2.49401e-12 -11.3162

-38.4331 19.6641 -8.27042e-13
19.6641 5.22975 1.58866e-12
-8.27042e-13 1.58866e-12 -9.23472

50.19 7.9994 2.50229e-12
7.9994 -16.9632 -3.64538e-12
2.50229e-12 -3.64538e-12 -7.06646

60.0307 -33.935 2.74625e-12
-33.935 33.7866 -3.92693e-12
2.74625e-12 -3.92693e-12 -6.98355

-18.9598 -10.5875 -8.29855e-12
-10.5875 -0.541796 -4.11227e-13
-8.29855e-12 -4.11227e-13 -25.4315

-33.9261 23.8994 -1.44122e-12
23.8994 -12.023 -9.1061e-13
-1.44122e-12 -9.1061e-13 -14.54

58.1555 -32.3832 -6.14264e-12
-32.3832 18.0913 -1.14516e-12
-6.14264e-12 -1.14516e-12 -10.1335

66.8588 10.7909 4.09273e-12
10.7909 8.51335 -1.79012e-12
4.09273e-12 -1.79012e-12 -5.08413

7.67414 -21.2056 1.7127e-12
-21.2056 88.4633 -9.61601e-12
1.7127e-12 -9.61601e-12 -11.8622

-33.9852 14.4255 1.90618e-12
14.4255 20.2383 6.46002e-13
1.90618e-12 6.46002e-13 -7.54595

8.47555 23.1428 5.50789e-12
23.1428 -26.0736 4.91163e-13
5.50789e-12 4.91163e-13 -11.2988

34.8684 42.198 4.76064e-13
42.198 46.1988 4.38168e-14
4.76064e-13 4.38168e-14 -14.4204

-4.39443 16.5071 9.97306e-12
16.5071 -35.5421 -6.78983e-12
9.97306e-12 -6.78983e-12 -73.2884

-5.97952 -4.10828 -1.75563e-12
-4.10828 57.9478 5.28289e-12
-1.75563e-12 5.28289e-12 -5.44135

-1.81879 -16.6323 -1.65501e-11
-16.6323 -39.4022 -6.04331e-12
-1.65501e-11 -6.04331e-12 -74.1117

-3.32937 -27.3349 -2.29091e-12
-27.3349 -30.0298 -1.06256e-12
-2.29091e-12 -1.06256e-12 -21.5542

8.96718 27.4245 4.89919e-12
27.4245 -29.9945 1.88856e-12
4.89919e-12 1.88856e-12 -11.2568

45.7108 -24.4102 2.18966e-12
-24.4102 5.02454 2.63049e-12
2.18966e-12 2.63049e-12 -5.23576

10.0954 31.3227 -8.40809e-13
31.3227 47.1627 4.20404e-12
-8.40809e-13 4.20404e-12 -9.64006

14.2724 -10.7049 -2.73973e-12
-10.7049 82.8378 6.61278e-12
-2.73973e-12 6.61278e-12 -6.44686

-38.6329 21.9706 -4.31655e-13
21.9706 2.94158 1.71566e-12
-4.31655e-13 1.71566e-12 -8.56868

1.19266 16.794 3.21935e-12
16.794 -25.722 1.32102e-12
3.21935e-12 1.32102e-12 -18.5676

-26.5375 15.1537 -1.64624e-12
15.1537 18.4493 2.56328e-12
-1.64624e-12 2.56328e-12 -5.70758

43.6584 15.9536 -2.25005e-13
15.9536 -7.28466 -3.69305e-12
-2.25005e-13 -3.69305e-12 -4.07475

12.5771 -21.4721 -2.68171e-12
-21.4721 57.955 4.55932e-13
-2.68171e-12 4.55932e-13 -4.71374

65.9956 -29.3901 1.76688e-12
-29.3901 18.6435 -2.73144e-12
1.76688e-12 -2.73144e-12 -9.33507

-32.3809 -24.5728 -2.49874e-13
-24.5728 -7.28155 -1.32309e-12
-2.49874e-13 -1.32309e-12 -8.97591

-22.6667 27.4508 -1.56882e-12
27.4508 -10.35 1.57681e-12
-1.56882e-12 1.57681e-12 -9.28351

-38.3511 23.1875 1.97102e-12
23.1875 1.99109 2.50762e-12
1.97102e-12 2.50762e-12 -8.52457

-51.5532 13.1692 -1.73561e-12
13.1692 11.927 2.00432e-12
-1.73561e-12 2.00432e-12 -16.4662

23.4845 9.3722 -1.72899e-12
9.3722 -29.4873 3.44628e-12
-1.72899e-12 3.44628e-12 -5.32107

3.76883 -4.66499 -7.10543e-14
-4.66499 79.437 -1.02081e-12
-7.10543e-14 -1.02081e-12 -9.5312

-44.9399 -36.8333 5.56e-13
-36.8333 -19.8289 -3.31957e-13
5.56e-13 -3.31957e-13 -14.7704

-16.0792 27.4649 -1.43766e-12
27.4649 1.34117 1.21444e-12
-1.43766e-12 1.21444e-12 -6.9142

-5.015 2.1703 8.8074e-12
2.1703 82.6724 6.65542e-12
8.8074e-12 6.65542e-12 -13.4309

69.0446 34.6097 -2.72848e-12
34.6097 15.4966 4.83584e-12
-2.72848e-12 4.83584e-12 -10.7057

-31.3515 -22.9737 2.19528e-13
-22.9737 -4.63236 -1.76718e-12
2.19528e-13 -1.76718e-12 -8.52941

11.7429 5.73296 1.91018e-12
5.73296 -48.3358 -1.91077e-12
1.91018e-12 -1.91077e-12 -8.64097

43.0652 27.2036 4.15075e-12
27.2036 10.4521 -2.44071e-12
4.15075e-12 -2.44071e-12 -5.0805

-9.41488 12.7455 4.53578e-12
12.7455 -14.039 2.01113e-12
4.53578e-12 2.01113e-12 -37.041

70.3337 24.3301 -1.4874e-12
24.3301 23.8048 1.0291e-12
-1.4874e-12 1.0291e-12 -6.79934

-10.5861 -13.0551 -2.06205e-13
-13.0551 -13.9208 -2.54256e-12
-2.06205e-13 -2.54256e-12 -37.3788

-4.3792 0.77852 7.59245e-13
0.77852 59.3973 -2.55677e-12
7.59245e-13 -2.55677e-12 -4.83035

38.3566 -2.23528 3.00796e-13
-2.23528 -23.8101 5.01602e-12
3.00796e-13 5.01602e-12 -5.8319

3.59376 -15.768 1.20925e-12
-15.768 -53.9713 -2.54966e-12
1.20925e-12 -2.54966e-12 -21.1243

-42.2769 24.3881 1.02777e-12
24.3881 -11.7369 3.50416e-12
1.02777e-12 3.50416e-12 -11.1672

-46.8123 -13.535 -1.3397e-12
-13.535 11.0674 -1.55668e-12
-1.3397e-12 -1.55668e-12 -12.3536

5.81019 -8.00001 -1.52189e-12
-8.00001 -70.9677 -1.85866e-12
-1.52189e-12 -1.85866e-12 -14.8817

-49.5391 -22.2841 9.21929e-12
-22.2841 3.74858 3.0731e-12
9.21929e-12 3.0731e-12 -22.1042

-17.4593 -6.59642 1.24404e-12
-6.59642 -13.1158 -3.16532e-12
1.24404e-12 -3.16532e-12 -34.7818

-28.7296 -29.9081 -1.67274e-12
-29.9081 -9.39985 -2.28884e-12
-1.67274e-12 -2.28884e-12 -8.9957

15.6935 11.4534 -4.03884e-12
11.4534 80.1792 2.74506e-12
-4.03884e-12 2.74506e-12 -6.53052

42.2896 -28.146 -1.72425e-12
-28.146 11.051 -1.32043e-13
-1.72425e-12 -1.32043e-13 -5.04374

-47.1705 -13.7723 -1.94511e-12
-13.7723 4.19614 -3.62466e-12
-1.94511e-12 -3.62466e-12 -29.3009

2.96488 0.504404 -3.65189e-13
0.504404 -56.8118 -3.27738e-13
-3.65189e-13 -3.27738e-13 -11.0049

-39.3364 -21.5245 -1.95755e-12
-21.5245 -8.85731 3.80436e-13
-1.95755e-12 3.80436e-13 -14.774

-40.1948 25.6976 -8.10611e-13
25.6976 -14.6915 3.3192e-13
-8.10611e-13 3.3192e-13 -11.3106

32.2602 -31.4638 -3.60245e-12
-31.4638 38.429 3.79193e-12
-3.60245e-12 3.79193e-12 -4.64792

-31.4688 -7.08513 5.05751e-12
-7.08513 1.70025 -4.7784e-12
5.05751e-12 -4.7784e-12 -40.9932

36.6296 -33.0762 1.66504e-12
-33.0762 72.0263 -5.8904e-12
1.66504e-12 -5.8904e-12 -7.14464

16.6126 -19.1794 3.32179e-13
-19.1794 -25.8694 1.40362e-12
3.32179e-13 1.40362e-12 -7.13294

1.5026 1.97023 9.81215e-13
1.97023 -51.3914 1.25352e-12
9.81215e-13 1.25352e-12 -15.3741

-12.8761 17.8751 -1.8329e-12
17.8751 -16.9549 3.58232e-13
-1.8329e-12 3.58232e-13 -41.0607

10.7132 20.1824 -4.20404e-14
20.1824 59.4534 -1.67333e-12
-4.20404e-14 -1.67333e-12 -4.35638

4.31847 27.2102 3.66403e-12
27.2102 -16.2235 -1.63691e-12
3.66403e-12 -1.63691e-12 -8.12394

30.9043 -24.5112 -1.2849e-12
-24.5112 -8.13193 3.41949e-12
-1.2849e-12 3.41949e-12 -4.8718

-37.787 -17.8384 -1.51879e-13
-17.8384 2.40088 1.37372e-12
-1.51879e-13 1.37372e-12 -9.8641

55.513 35.0675 -2.40874e-12
35.0675 42.345 -1.59991e-12
-2.40874e-12 -1.59991e-12 -6.63615

-40.0148 -21.831 4.34082e-12
-21.831 2.53688 3.40676e-12
4.34082e-12 3.40676e-12 -9.39361

2.96665 30.8502 3.98318e-12
30.8502 -17.3879 1.25322e-12
3.98318e-12 1.25322e-12 -9.07793

18.5373 -25.2437 1.02851e-12
-25.2437 -19.4175 3.22971e-12
1.02851e-12 3.22971e-12 -6.34211

-15.6534 -25.126 -1.98952e-12
-25.126 5.89567 -2.90138e-12
-1.98952e-12 -2.90138e-12 -5.77514

42.7179 -18.6877 -4.55932e-13
-18.6877 -9.16537 -8.26006e-13
-4.55932e-13 -8.26006e-13 -5.36874

27.4317 -18.8493 2.18137e-12
-18.8493 -20.3679 -1.14871e-12
2.18137e-12 -1.14871e-12 -5.68936

-41.3937 -25.3369 -2.16301e-12
-25.3369 -14.964 -5.44701e-12
-2.16301e-12 -5.44701e-12 -11.5668

29.7807 35.9686 4.73932e-12
35.9686 25.2269 8.36072e-13
4.73932e-12 8.36072e-13 -8.64399

-28.5179 15.3765 -2.02742e-12
15.3765 18.5188 -9.7522e-13
-2.02742e-12 -9.7522e-13 -5.8736

-23.1078 26.422 -5.66066e-13
26.422 -12.5466 -3.41357e-12
-5.66066e-13 -3.41357e-12 -9.95774

-42.0964 25.4736 1.19008e-12
25.4736 -11.5925 -8.58424e-13
1.19008e-12 -8.58424e-13 -10.9924

-37.2882 11.6213 8.77157e-13
11.6213 11.8441 -2.05998e-12
8.77157e-13 -2.05998e-12 -9.08018

64.3922 -8.22682 -6.89226e-13
-8.22682 3.19793 1.03813e-12
-6.89226e-13 1.03813e-12 -4.2505

8.73403 18.606 -1.85866e-12
18.606 59.2192 5.82645e-13
-1.85866e-12 5.82645e-13 -4.16198

-25.6142 -24.3802 1.7053e-13
-24.3802 0.458485 -5.23729e-13
1.7053e-13 -5.23729e-13 -7.21516

-1.14137 25.6654 -2.3288e-12
25.6654 13.7523 4.36096e-12
-2.3288e-12 4.36096e-12 -4.08226

32.3784 -35.6285 3.51245e-12
-35.6285 21.7 2.65447e-12
3.51245e-12 2.65447e-12 -8.4857

59.5354 38.3158 -8.88178e-13
38.3158 17.8476 -8.27782e-13
-8.88178e-13 -8.27782e-13 -13.7221

12.1252 -33.3103 -1.03325e-12
-33.3103 42.9129 9.49759e-13
-1.03325e-12 9.49759e-13 -9.54233

30.5511 -31.1588 4.38642e-12
-31.1588 36.8132 4.81511e-12
4.38642e-12 4.81511e-12 -4.40508

11.7688 -6.83865 -1.71063e-12
-6.83865 -48.8378 1.19571e-12
-1.71063e-12 1.19571e-12 -8.76981

25.2743 30.341 -1.84741e-12
30.341 41.0885 1.04568e-12
-1.84741e-12 1.04568e-12 -4.45558

62.6812 13.2943 -1.6982e-12
13.2943 5.22841 -6.59324e-13
-1.6982e-12 -6.59324e-13 -4.30509

-7.02531 13.3785 -3.40143e-12
13.3785 61.3433 2.70243e-12
-3.40143e-12 2.70243e-12 -8.69456

11.7298 -22.3398 -3.64982e-12
-22.3398 55.7624 -7.13503e-12
-3.64982e-12 -7.13503e-12 -4.30104

-47.2606 -1.09149 2.62708e-12
-1.09149 12.4096 2.35249e-12
2.62708e-12 2.35249e-12 -22.1621

-5.91863 2.24655 5.15143e-13
2.24655 59.0036 2.64085e-12
5.15143e-13 2.64085e-12 -5.26207

6.26889 31.0885 3.47041e-12
31.0885 47.8645 1.94215e-12
3.47041e-12 1.94215e-12 -9.66012

-39.7252 12.1077 -2.7591e-12
12.1077 12.8448 1.20555e-12
-2.7591e-12 1.20555e-12 -9.31266

40.7378 -27.647 -1.12029e-12
-27.647 8.35774 -1.24582e-12
-1.12029e-12 -1.24582e-12 -5.64152

7.54007 20.5569 1.11052e-12
20.5569 -47.4668 1.93504e-12
1.11052e-12 1.93504e-12 -16.4816

-3.42104 26.2704 -4.13299e-13
26.2704 -31.4867 -1.04553e-12
-4.13299e-13 -1.04553e-12 -22.2525

15.7774 -18.5674 1.83024e-12
-18.5674 -30.0126 3.29396e-12
1.83024e-12 3.29396e-12 -8.18254

4.42874 -1.80109 4.93442e-12
-1.80109 -34.133 -2.58164e-12
4.93442e-12 -2.58164e-12 -24.4395

-14.3395 -31.8116 1.1271e-12
-31.8116 -11.9301 -8.3696e-13
1.1271e-12 -8.3696e-13 -9.04908

56.2175 23.3272 2.55085e-12
23.3272 0.817128 -2.14584e-12
2.55085e-12 -2.14584e-12 -8.28758

-27.828 30.162 -8.70119e-13
30.162 -9.23639 -3.95239e-13
-8.70119e-13 -3.95239e-13 -8.79995

-27.0035 29.2058 3.28952e-12
29.2058 -9.20176 -3.79459e-12
3.28952e-12 -3.79459e-12 -8.67723

28.6284 30.6601 3.85233e-12
30.6601 40.4054 4.41958e-12
3.85233e-12 4.41958e-12 -4.4486

0.343101 27.0848 -8.92915e-13
27.0848 -19.8456 4.45658e-12
-8.92915e-13 4.45658e-12 -11.7768

64.5071 3.52507 -7.80413e-13
3.52507 -11.8252 3.37101e-13
-7.80413e-13 3.37101e-13 -10.018

-14.8996 31.8172 -1.14161e-12
31.8172 -20.7987 -2.83122e-12
-1.14161e-12 -2.83122e-12 -12.4473

-37.9438 -12.5997 1.15419e-12
-12.5997 8.18003 -2.79066e-12
1.15419e-12 -2.79066e-12 -14.0226

-0.475044 24.2782 -4.60817e-12
24.2782 -29.999 -3.76765e-12
-4.60817e-12 -3.76765e-12 -20.7714

-23.7273 -29.5786 -2.16716e-12
-29.5786 -11.9349 -1.28786e-12
-2.16716e-12 -1.28786e-12 -8.84289

-38.1479 -4.89809 -9.17322e-13
-4.89809 18.8466 -3.40468e-13
-9.17322e-13 -3.40468e-13 -11.7298

69.9437 -24.5558 6.27646e-13
-24.5558 18.0288 3.54028e-12
6.27646e-13 3.54028e-12 -7.0441

39.9817 29.6925 -5.3042e-12
29.6925 13.4795 -1.0516e-12
-5.3042e-12 -1.0516e-12 -5.21462

-4.29574 14.6962 4.83569e-12
14.6962 60.5706 -8.49099e-13
4.83569e-12 -8.49099e-13 -8.40049

1.61143 -1.13887 -1.00187e-12
-1.13887 -56.1232 7.5695e-13
-1.00187e-12 7.5695e-13 -11.2088

9.61413 0.00223164 -4.55339e-13
0.00223164 -44.7535 -1.49344e-12
-4.55339e-13 -1.49344e-12 -8.43747

-31.0785 23.1237 3.46982e-12
23.1237 -4.33706 -5.22871e-12
3.46982e-12 -5.22871e-12 -8.45792

-34.7625 23.8709 1.17476e-12
23.8709 -13.1924 8.15126e-13
1.17476e-12 8.15126e-13 -14.8129

-43.3785 -24.3807 3.02845e-12
-24.3807 -12.6139 -2.32836e-12
3.02845e-12 -2.32836e-12 -11.4683

-39.0588 -0.672728 1.99896e-13
-0.672728 21.0464 2.3513e-12
1.99896e-13 2.3513e-12 -10.4952

-40.8066 25.5903 3.84418e-12
25.5903 -13.2224 1.98878e-13
3.84418e-12 1.98878e-13 -11.1719

32.3214 -10.3078 7.03437e-13
-10.3078 -25.153 -3.48196e-12
7.03437e-13 -3.48196e-12 -6.01372

8.70687 -32.8329 -3.24007e-12
-32.8329 22.7976 1.67392e-12
-3.24007e-12 1.67392e-12 -6.99157

2.39686 -2.30065 2.78814e-12
-2.30065 -49.9606 -7.95512e-13
2.78814e-12 -7.95512e-13 -14.7724

36.7453 -34.5076 -2.44427e-12
-34.5076 24.4796 -1.58688e-13
-2.44427e-12 -1.58688e-13 -7.70878

-38.2938 19.0861 1.63025e-12
19.0861 -7.09369 -1.40954e-12
1.63025e-12 -1.40954e-12 -14.4492

7.87076 -26.4786 3.7114e-12
-26.4786 -27.9942 2.59644e-13
3.7114e-12 2.59644e-13 -10.9688

63.9467 -9.69008 2.51887e-12
-9.69008 5.67771 1.86517e-14
2.51887e-12 1.86517e-14 -5.07198

6.04086 -23.1919 5.28762e-13
-23.1919 -35.4681 1.71566e-12
5.28762e-13 1.71566e-12 -17.736

0.141358 2.35826 7.09359e-13
2.35826 -56.174 6.69316e-13
7.09359e-13 6.69316e-13 -11.5457

-4.06202 -23.3213 1.73787e-12
-23.3213 -23.4116 -8.86698e-13
1.73787e-12 -8.86698e-13 -16.7199

11.0388 -25.8594 -1.61293e-12
-25.8594 -29.4855 4.00865e-13
-1.61293e-12 4.00865e-13 -9.7333

10.2014 -8.54604 -2.14791e-12
-8.54604 -43.4896 4.43349e-13
-2.14791e-12 4.43349e-13 -9.28102

-35.4182 -23.0681 1.38053e-12
-23.0681 -12.6457 2.89426e-12
1.38053e-12 2.89426e-12 -15.1029

23.6643 -31.3414 -3.246e-12
-31.3414 5.71264 -1.04746e-12
-3.246e-12 -1.04746e-12 -5.8778

11.0599 -24.5871 -1.43411e-12
-24.5871 -27.4944 9.71075e-14
-1.43411e-12 9.71075e-14 -10.0478

46.6427 10.8643 -1.33227e-12
10.8643 -16.1167 1.72899e-13
-1.33227e-12 1.72899e-13 -6.79943

-14.1861 26.3401 2.32999e-13
26.3401 -15.6396 -2.31785e-12
2.32999e-13 -2.31785e-12 -14.1188

-45.2519 -37.613 -5.80573e-12
-37.613 -20.6124 -3.57843e-12
-5.80573e-12 -3.57843e-12 -14.9189

-43.7086 37.2653 -6.04257e-13
37.2653 -21.2662 -4.13447e-13
-6.04257e-13 -4.13447e-13 -14.7693

-61.1852 -28.5734 1.79553e-12
-28.5734 -7.49704 -4.31063e-12
1.79553e-12 -4.31063e-12 -15.1994

-58.4161 27.0642 8.4821e-14
27.0642 -6.27167 1.18187e-12
8.4821e-14 1.18187e-12 -14.4779

5.60067 -8.52766 2.22711e-12
-8.52766 -71.0642 -1.76733e-12
2.22711e-12 -1.76733e-12 -14.7095

4.39739 9.27368 -1.60612e-12
9.27368 -68.8328 -1.13983e-12
-1.60612e-12 -1.13983e-12 -14.4375

9.02398 -9.8461 -4.31447e-12
-9.8461 -40.8897 -1.49066e-12
-4.31447e-12 -1.49066e-12 -9.61151

-24.3355 32.1163 3.02573e-13
32.1163 -24.8101 -7.92311e-13
3.02573e-13 -7.92311e-13 -21.1453

-25.5229 -32.8543 -2.02505e-13
-32.8543 -25.0962 -9.6322e-13
-2.02505e-13 -9.6322e-13 -21.4695

-53.9201 16.0685 4.36244e-13
16.0685 3.40184 -3.40468e-13
4.36244e-13 -3.40468e-13 -21.4029

-52.421 -15.801 -3.3092e-12
-15.801 3.29715 1.92883e-12
-3.3092e-12 1.92883e-12 -21.0762

6.11232 -3.74754 -1.08136e-12
-3.74754 -43.9253 -2.85342e-12
-1.08136e-12 -2.85342e-12 -25.7653

6.91849 3.61031 1.32575e-12
3.61031 -46.3488 -1.72277e-12
1.32575e-12 -1.72277e-12 -26.1416

-15.6254 9.83675 -1.75371e-12
9.83675 46.2622 -1.37253e-12
-1.75371e-12 -1.37253e-12 -5.8476

-22.9185 -24.774 -1.67925e-12
-24.774 -14.5522 7.42517e-13
-1.67925e-12 7.42517e-13 -10.3296

-56.6037 -36.3876 7.85372e-13
-36.3876 -14.5327 -1.36306e-12
7.85372e-13 -1.36306e-12 -13.4369

33.3582 -4.66425 -4.40536e-12
-4.66425 -19.8466 -1.29689e-12
-4.40536e-12 -1.29689e-12 -3.94471

3.43343 -16.6948 3.22261e-13
-16.6948 -52.6289 -5.34683e-13
3.22261e-13 -5.34683e-13 -21.5328

3.67457 16.1758 1.30858e-12
16.1758 -51.8846 -8.48803e-13
1.30858e-12 -8.48803e-13 -21.406

6.55577 0.121883 -1.89596e-12
0.121883 -76.7551 2.94836e-12
-1.89596e-12 2.94836e-12 -13.3038

-7.56921 23.3749 1.7728e-12
23.3749 39.9355 -4.6659e-13
1.7728e-12 -4.6659e-13 -6.88489

-56.8894 36.1716 -7.49919e-13
36.1716 -14.0114 1.99677e-12
-7.49919e-13 1.99677e-12 -13.3886

-39.7946 -23.3957 8.18456e-13
-23.3957 2.56158 2.65388e-12
8.18456e-13 2.65388e-12 -8.80059

37.1166 23.3525 5.16328e-13
23.3525 -8.61275 -1.56852e-12
5.16328e-13 -1.56852e-12 -5.75823

4.73539 23.8582 8.26598e-13
23.8582 -38.2259 4.76212e-12
8.26598e-13 4.76212e-12 -18.9858

24.0134 -31.3132 -4.68366e-12
-31.3132 6.40851 -2.81967e-12
-4.68366e-12 -2.81967e-12 -5.64778

2.43081 -3.2309 -8.63902e-13
-3.2309 -48.3698 4.44977e-13
-8.63902e-13 4.44977e-13 -14.7425

-60.4579 -34.161 -2.80146e-13
-34.161 -14.3498 -9.2785e-13
-2.80146e-13 -9.2785e-13 -14.0306

-17.4522 8.31987 -1.00829e-12
8.31987 45.6916 -2.09136e-12
-1.00829e-12 -2.09136e-12 -5.78064

-9.46845 21.8113 -1.98508e-12
21.8113 40.4249 -1.70412e-12
-1.98508e-12 -1.70412e-12 -6.65337

58.6032 35.7754 1.76688e-12
35.7754 37.0879 -2.59585e-12
1.76688e-12 -2.59585e-12 -6.91574

70.4834 1.57874 3.38337e-12
1.57874 -5.54264 6.57178e-13
3.38337e-12 6.57178e-13 -10.3738

-30.7595 -22.8044 5.01525e-13
-22.8044 -13.3563 2.33402e-12
5.01525e-13 2.33402e-12 -14.4659

32.8412 31.1835 -1.53951e-14
31.1835 69.7938 -2.60059e-12
-1.53951e-14 -2.60059e-12 -6.67924

-19.3763 23.6098 2.31785e-12
23.6098 7.68694 -5.78559e-12
2.31785e-12 -5.78559e-12 -5.5129

47.6368 -5.34948 5.22249e-13
-5.34948 -17.4328 -7.29787e-13
5.22249e-13 -7.29787e-13 -6.82138

33.2194 11.216 1.36483e-12
11.216 -23.6364 -8.10404e-12
1.36483e-12 -8.10404e-12 -6.01348

6.25429 0.429905 -9.2711e-13
0.429905 -77.5524 1.06261e-12
-9.2711e-13 1.06261e-12 -13.4495

-58.9359 -29.0311 2.43798e-12
-29.0311 -6.28807 -2.63789e-12
2.43798e-12 -2.63789e-12 -14.6969

-28.332 -6.31901 -1.09219e-11
-6.31901 -11.3585 5.98336e-13
-1.09219e-11 5.98336e-13 -51.5898

-44.6982 37.4117 -1.83379e-12
37.4117 -20.8115 1.02973e-12
-1.83379e-12 1.02973e-12 -14.7733

93.7897 1.66327 2.33058e-12
1.66327 16.6554 4.51964e-12
2.33058e-12 4.51964e-12 -6.04298

10.0366 -32.7865 3.43074e-12
-32.7865 21.3109 -7.89887e-13
3.43074e-12 -7.89887e-13 -6.80782

-56.9362 36.6131 2.02705e-12
36.6131 -14.5712 4.04595e-12
2.02705e-12 4.04595e-12 -13.5048

-35.0788 -11.1338 -2.31352e-13
-11.1338 19.1771 2.57868e-12
-2.31352e-13 2.57868e-12 -8.31611

-5.47715 -25.5142 -1.34618e-12
-25.5142 37.3501 -6.93963e-13
-1.34618e-12 -6.93963e-13 -6.98665

-58.4524 28.8301 9.91762e-13
28.8301 -6.27145 -4.70439e-13
9.91762e-13 -4.70439e-13 -14.614

28.4958 -26.1416 1.21088e-12
-26.1416 -4.91223 -2.80072e-13
1.21088e-12 -2.80072e-13 -4.69684

-21.1707 10.4834 3.62525e-12
10.4834 -18.559 -5.42263e-12
3.62525e-12 -5.42263e-12 -51.6854

3.4331 30.8716 -1.07174e-12
30.8716 27.1625 4.51668e-12
-1.07174e-12 4.51668e-12 -6.73261

6.14061 8.12676 4.39204e-13
8.12676 -72.298 6.0707e-13
4.39204e-13 6.0707e-13 -14.9841

-11.5456 30.1906 4.2603e-13
30.1906 -20.6032 2.87977e-12
4.2603e-13 2.87977e-12 -11.549

-30.7974 23.3318 3.76247e-12
23.3318 -5.09963 -3.74101e-12
3.76247e-12 -3.74101e-12 -8.46398

-25.8637 -32.4889 2.0887e-12
-32.4889 -24.1129 4.43077e-12
2.0887e-12 4.43077e-12 -21.5589

9.20552 -23.19 4.77129e-12
-23.19 -27.9221 1.06197e-12
4.77129e-12 1.06197e-12 -11.4255

-37.6607 10.4708 -1.23794e-12
10.4708 8.92891 2.14821e-12
-1.23794e-12 2.14821e-12 -25.3312

-23.0403 -23.4336 -5.14344e-12
-23.4336 4.95251 6.30844e-12
-5.14344e-12 6.30844e-12 -6.26261

88.8026 -9.70767 -2.7119e-12
-9.70767 10.8074 1.76836e-12
-2.7119e-12 1.76836e-12 -10.0308

84.0427 -14.277 6.65542e-13
-14.277 2.81281 -1.70471e-12
6.65542e-13 -1.70471e-12 -13.1967

5.88807 16.5293 -7.19839e-12
16.5293 -33.9324 -4.67981e-12
-7.19839e-12 -4.67981e-12 -22.3761

-16.421 22.5014 -5.30065e-12
22.5014 16.228 -4.29523e-12
-5.30065e-12 -4.29523e-12 -5.0849

-3.91223 29.163 3.75877e-12
29.163 -12.2296 2.31548e-12
3.75877e-12 2.31548e-12 -8.39596

50.9923 0.688664 -4.583e-12
0.688664 -6.53144 4.11218e-12
-4.583e-12 4.11218e-12 -3.63406

-48.141 6.57122 -1.77193e-12
6.57122 14.7862 3.00264e-12
-1.77193e-12 3.00264e-12 -18.9524

10.1157 16.5408 -2.75927e-12
16.5408 -36.0795 -3.25961e-12
-2.75927e-12 -3.25961e-12 -9.1352

-4.50336 -25.7607 -2.73914e-12
-25.7607 35.5553 -1.92794e-12
-2.73914e-12 -1.92794e-12 -6.74661

-39.1909 -2.57243 -1.54236e-12
-2.57243 21.5042 3.90384e-12
-1.54236e-12 3.90384e-12 -10.6691

-7.99029 13.365 -9.32587e-13
13.365 44.405 7.05806e-13
-9.32587e-13 7.05806e-13 -3.94394

3.73473 -29.7131 -7.30675e-13
-29.7131 -17.3644 3.7866e-13
-7.30675e-13 3.7866e-13 -8.92024

21.4259 -29.947 -3.25429e-12
-29.947 14.7561 2.42177e-12
-3.25429e-12 2.42177e-12 -3.91751

6.88112 31.6224 -9.02389e-13
31.6224 25.4016 -3.42896e-12
-9.02389e-13 -3.42896e-12 -6.82777

2.78563 -15.0202 3.89289e-12
-15.0202 -39.2676 -1.1741e-12
3.89289e-12 -1.1741e-12 -63.3124

-46.1597 2.04126 -7.19276e-13
2.04126 11.4615 3.33126e-12
-7.19276e-13 3.33126e-12 -22.7569

-55.445 20.3001 -6.8449e-13
20.3001 3.09587 -1.37372e-12
-6.8449e-13 -1.37372e-12 -22.916

5.91691 15.4391 -2.07893e-12
15.4391 -58.8188 5.0034e-13
-2.07893e-12 5.0034e-13 -23.0361

-18.9213 -26.1885 5.61329e-13
-26.1885 -12.9133 9.21633e-13
5.61329e-13 9.21633e-13 -9.65231

41.3457 17.957 -6.97516e-13
17.957 -6.27065 -2.25094e-12
-6.97516e-13 -2.25094e-12 -3.86104

-44.6828 -5.29414 6.13989e-12
-5.29414 4.53832 -8.02617e-13
6.13989e-12 -8.02617e-13 -39.1454

7.49926 -18.9882 -1.05397e-12
-18.9882 -39.8942 -7.32451e-13
-1.05397e-12 -7.32451e-13 -11.6597

30.2908 -15.5987 2.86645e-12
-15.5987 -20.5081 -2.42576e-12
2.86645e-12 -2.42576e-12 -4.80461

-9.638 11.603 -3.71673e-12
11.603 44.3188 -3.40705e-12
-3.71673e-12 -3.40705e-12 -3.8587

8.33411 -25.7338 4.29286e-13
-25.7338 32.9916 1.06581e-14
4.29286e-13 1.06581e-14 -3.63266

-10.2447 -25.2738 2.74418e-12
-25.2738 -19.1001 -1.17092e-13
2.74418e-12 -1.17092e-13 -23.1749

17.0051 31.959 6.11008e-12
31.959 11.1973 2.26959e-12
6.11008e-12 2.26959e-12 -5.74594

-1.06929 -25.1347 -1.54425e-12
-25.1347 -30.7627 -8.62717e-13
-1.54425e-12 -8.62717e-13 -20.8916

48.0646 2.59733 1.0895e-13
2.59733 -8.4093 1.42264e-12
1.0895e-13 1.42264e-12 -3.53122

6.55268 -28.9301 -4.91814e-12
-28.9301 72.0495 -1.65793e-14
-4.91814e-12 -1.65793e-14 -14.5513

21.7915 -29.2305 -5.72579e-12
-29.2305 13.9636 -3.43429e-14
-5.72579e-12 -3.43429e-14 -3.92989

35.351 32.1585 -3.99088e-12
32.1585 74.1335 6.22435e-12
-3.99088e-12 6.22435e-12 -5.44156

-45.283 -11.877 -1.03214e-13
-11.877 13.9222 1.45306e-12
-1.03214e-13 1.45306e-12 -15.3262

-14.42 -13.8211 -9.70631e-13
-13.8211 43.3819 7.8811e-12
-9.70631e-13 7.8811e-12 -5.67225

-19.2437 -23.9882 9.74628e-12
-23.9882 -19.8305 5.24603e-12
9.74628e-12 5.24603e-12 -64.2542

2.43852 23.7704 -1.16529e-12
23.7704 36.0065 -3.39639e-12
-1.16529e-12 -3.39639e-12 -3.71066

-15.1823 -32.7263 3.04764e-12
-32.7263 -21.1188 -3.06599e-12
3.04764e-12 -3.06599e-12 -14.3127

-14.5646 -11.9629 8.58869e-13
-11.9629 45.5301 4.8909e-12
8.58869e-13 4.8909e-12 -5.73845

7.83562 -19.1169 -4.70527e-12
-19.1169 -43.1218 1.12562e-12
-4.70527e-12 1.12562e-12 -12.6318

6.54587 23.8767 3.92575e-13
23.8767 35.1711 -7.69755e-13
3.92575e-13 -7.69755e-13 -3.44164

23.1733 -4.97545 1.19371e-12
-4.97545 -30.6757 -8.90118e-12
1.19371e-12 -8.90118e-12 -5.36383

36.9699 -30.3423 -3.51245e-12
-30.3423 122.626 -2.81138e-12
-3.51245e-12 -2.81138e-12 -6.24191

-26.8688 21.0138 -5.51174e-12
21.0138 8.43429 1.9457e-12
-5.51174e-12 1.9457e-12 -7.12946

40.338 -19.323 8.17598e-12
-19.323 -11.3719 4.40063e-12
8.17598e-12 4.40063e-12 -5.72547

6.52864 -21.4459 7.6561e-13
-21.4459 -45.5583 -1.46461e-12
7.6561e-13 -1.46461e-12 -24.9719

20.7051 31.7535 -5.41789e-12
31.7535 9.55767 -1.75386e-12
-5.41789e-12 -1.75386e-12 -5.8055

13.9189 -29.9714 -1.01844e-12
-29.9714 -7.60531 5.41197e-13
-1.01844e-12 5.41197e-13 -5.94373

6.75484 20.8852 2.14998e-12
20.8852 -27.7918 3.52844e-12
2.14998e-12 3.52844e-12 -11.1085

-38.274 -28.0758 -1.78317e-12
-28.0758 -14.0377 -3.0842e-13
-1.78317e-12 -3.0842e-13 -11.0605

8.64655 -26.2248 3.03639e-12
-26.2248 31.1707 -4.44681e-12
3.03639e-12 -4.44681e-12 -3.63468

15.3315 28.9806 2.07064e-12
28.9806 19.1538 5.37762e-12
2.07064e-12 5.37762e-12 -3.88245

28.6402 26.191 6.93845e-12
26.191 -5.63283 5.25358e-12
6.93845e-12 5.25358e-12 -4.80143

7.91483 -14.6099 -3.336e-12
-14.6099 -36.8774 1.25026e-12
-3.336e-12 1.25026e-12 -13.991

-6.84095 -16.6173 3.33363e-13
-16.6173 41.3405 3.46034e-12
3.33363e-13 3.46034e-12 -3.95888

17.4406 -17.5682 -1.0143e-12
-17.5682 -30.9987 -2.88362e-13
-1.0143e-12 -2.88362e-13 -7.10469

19.8419 16.9083 6.12251e-13
16.9083 -31.6638 -5.17808e-12
6.12251e-13 -5.17808e-12 -7.33392

-33.6794 -9.3869 -1.98693e-12
-9.3869 8.75598 1.33819e-12
-1.98693e-12 1.33819e-12 -23.9928

43.4311 -13.4298 4.45392e-12
-13.4298 -8.36826 -5.12923e-13
4.45392e-12 -5.12923e-13 -3.80363

-19.3778 0.594007 -2.25064e-12
0.594007 43.145 4.73695e-15
-2.25064e-12 4.73695e-15 -4.77488

28.0557 18.5548 3.16843e-12
18.5548 -18.1984 1.1197e-12
3.16843e-12 1.1197e-12 -4.74912

25.5283 27.6036 3.07902e-14
27.6036 -3.77516 1.2621e-12
3.07902e-14 1.2621e-12 -4.77058

-6.71475 -15.6859 4.44592e-12
-15.6859 43.7981 2.49637e-12
4.44592e-12 2.49637e-12 -3.84742

-19.9059 -1.20229 -7.51399e-13
-1.20229 42.1275 2.404e-12
-7.51399e-13 2.404e-12 -4.68645

-5.4732 29.1343 -6.07514e-13
29.1343 -23.6463 -3.0802e-12
-6.07514e-13 -3.0802e-12 -16.7967

-37.2733 -10.922 -5.03952e-12
-10.922 21.6799 4.0495e-12
-5.03952e-12 4.0495e-12 -7.82948

27.1432 -26.7149 -2.33117e-12
-26.7149 -5.53029 -1.84386e-12
-2.33117e-12 -1.84386e-12 -4.94362

40.7187 21.3322 2.3815e-12
21.3322 -8.36957 -1.35003e-13
2.3815e-12 -1.35003e-13 -5.46698

12.378 23.6652 1.7284e-12
23.6652 -27.1267 -3.05149e-12
1.7284e-12 -3.05149e-12 -8.66649

-37.7961 5.4707 2.87089e-12
5.4707 23.3113 2.36255e-13
2.87089e-12 2.36255e-13 -8.59693

18.5931 29.0651 -6.57548e-12
29.0651 17.3778 -4.54214e-12
-6.57548e-12 -4.54214e-12 -3.94654

-9.98915 22.9638 -2.75365e-12
22.9638 -14.9127 -4.57752e-12
-2.75365e-12 -4.57752e-12 -24.0261

68.3157 -59.691 7.08411e-12
-59.691 36.3348 4.3805e-12
7.08411e-12 4.3805e-12 -23.0107

17.5309 -25.0475 2.14584e-12
-25.0475 -17.9916 1.61826e-12
2.14584e-12 1.61826e-12 -6.4171

10.0585 7.06981 4.32099e-12
7.06981 82.5496 1.84504e-12
4.32099e-12 1.84504e-12 -7.16502

11.9205 -28.8889 4.55932e-14
-28.8889 -3.88122 -3.26258e-13
4.55932e-14 -3.26258e-13 -5.16521

-66.9449 -52.7008 -1.82254e-12
-52.7008 143.249 1.76688e-12
-1.82254e-12 1.76688e-12 -49.6695

-68.3882 51.4515 9.27258e-13
51.4515 142.536 -9.14232e-13
9.27258e-13 -9.14232e-13 -49.8586

19.569 117.154 -3.87009e-12
117.154 64.1282 -1.83794e-12
-3.87009e-12 -1.83794e-12 -48.3601

20.5279 -117.097 -3.69245e-12
-117.097 61.025 3.24955e-12
-3.69245e-12 3.24955e-12 -48.7248

157.742 -1.36336 5.11591e-12
-1.36336 -79.1871 3.67553e-14
5.11591e-12 3.67553e-14 -48.9117

110.325 -91.1252 -2.68111e-12
-91.1252 -36.6902 4.73695e-14
-2.68111e-12 4.73695e-14 -50.3063

110.378 91.6531 1.44951e-12
91.6531 -36.5004 5.68434e-14
1.44951e-12 5.68434e-14 -50.1791

7.8471 14.3302 -4.31359e-12
14.3302 -42.6814 5.5748e-13
-4.31359e-12 5.5748e-13 -15.0788

-11.791 25.5366 8.75152e-13
25.5366 -27.4046 3.24067e-12
8.75152e-13 3.24067e-12 -35.1383

12.4381 6.60597 3.58883e-12
6.60597 -40.5332 5.38628e-12
3.58883e-12 5.38628e-12 -8.25192

26.2547 21.7844 1.24996e-12
21.7844 -19.528 5.87412e-12
1.24996e-12 5.87412e-12 -5.85028

-21.2294 17.7442 -3.05948e-12
17.7442 29.8682 -2.62427e-12
-3.05948e-12 -2.62427e-12 -6.16175

22.5303 28.8981 -1.57148e-12
28.8981 -0.775112 1.51879e-12
-1.57148e-12 1.51879e-12 -4.73021

4.05567 -29.6633 -1.01785e-12
-29.6633 -17.466 2.44367e-12
-1.01785e-12 2.44367e-12 -8.50395

25.9952 28.0275 8.12979e-12
28.0275 -2.30128 -1.9907e-12
8.12979e-12 -1.9907e-12 -4.73061

-19.3464 -2.84121 -8.66418e-13
-2.84121 43.071 -1.72899e-13
-8.66418e-13 -1.72899e-13 -4.76943

-13.4117 -26.0975 -2.63996e-12
-26.0975 -25.8384 2.46321e-12
-2.63996e-12 2.46321e-12 -35.5214

-19.8415 -4.86232 -9.34512e-13
-4.86232 41.7761 1.15345e-12
-9.34512e-13 1.15345e-12 -4.74329

-1.82682 23.0161 -8.65086e-13
23.0161 -24.377 -5.18252e-13
-8.65086e-13 -5.18252e-13 -16.1498

44.9822 26.8703 -7.33872e-12
26.8703 8.11168 -2.0736e-12
-7.33872e-12 -2.0736e-12 -5.36866

-52.509 -13.2161 5.50123e-12
-13.2161 0.150444 2.56506e-12
5.50123e-12 2.56506e-12 -20.6173

20.2804 13.7278 -6.41857e-13
13.7278 -31.1409 -1.97472e-12
-6.41857e-13 -1.97472e-12 -7.04243

13.7008 -29.9873 -1.70116e-12
-29.9873 -6.69105 -2.35723e-12
-1.70116e-12 -2.35723e-12 -5.83466

29.6307 -24.7132 4.22654e-12
-24.7132 -7.87325 9.28146e-12
4.22654e-12 9.28146e-12 -4.82458

5.7649 -16.0746 1.04598e-12
-16.0746 -32.3342 6.46298e-13
1.04598e-12 6.46298e-13 -22.2556

12.6277 27.9287 -3.49173e-12
27.9287 -13.6383 1.33464e-12
-3.49173e-12 1.33464e-12 -6.41909

23.309 23.9772 -3.07191e-12
23.9772 -17.9427 9.91799e-13
-3.07191e-12 9.91799e-13 -5.9618

-31.0763 -2.79294 -4.55698e-12
-2.79294 30.1316 -2.01024e-12
-4.55698e-12 -2.01024e-12 -6.39796

-28.6287 5.87331 -1.49671e-12
5.87331 33.3213 8.01137e-13
-1.49671e-12 8.01137e-13 -6.05876

34.5484 2.64668 -5.26808e-12
2.64668 -26.1827 8.86846e-13
-5.26808e-12 8.86846e-13 -6.1415

50.6509 -7.28957 -3.73035e-12
-7.28957 -14.0812 -9.2489e-13
-3.73035e-12 -9.2489e-13 -6.77817

11.0412 30.4844 4.96847e-12
30.4844 -4.78723 -4.44089e-12
4.96847e-12 -4.44089e-12 -5.96561

17.4676 -26.1552 3.81858e-12
-26.1552 -17.4546 -2.61036e-12
3.81858e-12 -2.61036e-12 -6.35121

-0.0844848 -21.2543 -1.0294e-12
-21.2543 -27.9557 9.68114e-14
-1.0294e-12 9.68114e-14 -17.1664

4.93923 -31.6333 -7.02135e-12
-31.6333 4.86166 -6.50739e-13
-7.02135e-12 -6.50739e-13 -5.93445

-8.2267 -27.7852 -4.42254e-12
-27.7852 18.5789 -2.14051e-12
-4.42254e-12 -2.14051e-12 -6.12906

-1.64994 29.8868 1.64135e-12
29.8868 10.4475 8.02321e-13
1.64135e-12 8.02321e-13 -5.79949

-26.0159 -9.57783 -2.74051e-12
-9.57783 32.9697 -5.76783e-12
-2.74051e-12 -5.76783e-12 -5.78643

-31.3222 -1.54476 4.6015e-12
-1.54476 31.6507 -2.59407e-12
4.6015e-12 -2.59407e-12 -6.22278

-38.9149 5.74795 -4.06575e-12
5.74795 23.9465 6.14027e-13
-4.06575e-12 6.14027e-13 -9.18234

-17.2175 -21.0888 -1.78021e-12
-21.0888 26.5709 8.47322e-12
-1.78021e-12 8.47322e-12 -5.77114

13.0719 24.111 -8.98837e-13
24.111 -28.1008 3.55656e-12
-8.98837e-13 3.55656e-12 -9.20422

21.555 -9.58968 1.39148e-12
-9.58968 -31.7058 -3.76602e-12
1.39148e-12 -3.76602e-12 -6.59725

-27.1528 7.46522 -2.70217e-12
7.46522 34.3345 -3.4337e-12
-2.70217e-12 -3.4337e-12 -5.87316

-35.2351 -9.70107 -3.11806e-13
-9.70107 22.3135 3.74574e-12
-3.11806e-13 3.74574e-12 -8.18276

-29.155 -16.3305 -4.47701e-12
-16.3305 19.3467 2.48453e-12
-4.47701e-12 2.48453e-12 -6.66093

36.9676 -8.23913 -4.43023e-12
-8.23913 -20.2361 -2.36255e-12
-4.43023e-12 -2.36255e-12 -5.10067

-14.8096 -32.3468 2.31518e-13
-32.3468 -21.6274 3.59564e-12
2.31518e-13 3.59564e-12 -12.9926

-22.8235 9.32077 -1.75711e-12
9.32077 33.3233 -4.70379e-12
-1.75711e-12 -4.70379e-12 -4.78801

-0.750948 -18.2126 -6.41413e-12
-18.2126 -35.1576 -2.55026e-12
-6.41413e-12 -2.55026e-12 -33.2779

4.9323 24.8225 3.4485e-12
24.8225 75.3062 4.92406e-12
3.4485e-12 4.92406e-12 -14.3188

-14.1417 -26.6261 -3.52311e-14
-26.6261 -16.3498 -9.96832e-13
-3.52311e-14 -9.96832e-13 -14.6404

-6.35703 -30.2028 3.61607e-12
-30.2028 -23.602 1.79116e-13
3.61607e-12 1.79116e-13 -17.0876

-31.2701 -0.701299 -3.63761e-12
-0.701299 31.5003 -1.58747e-12
-3.63761e-12 -1.58747e-12 -6.34765

28.4876 -16.6225 -6.84667e-12
-16.6225 -18.0564 5.88803e-12
-6.84667e-12 5.88803e-12 -4.43721

-37.8045 12.8416 1.93813e-12
12.8416 11.1651 -1.04864e-12
1.93813e-12 -1.04864e-12 -10.9885

-8.86112 -3.1805 5.16883e-12
-3.1805 111.05 -4.9738e-14
5.16883e-12 -4.9738e-14 -22.6717

-31.6019 14.2736 3.46545e-12
14.2736 21.3504 3.69364e-12
3.46545e-12 3.69364e-12 -7.12364

12.422 -29.489 -5.40012e-13
-29.489 -2.5193 -3.69186e-12
-5.40012e-13 -3.69186e-12 -4.92743

33.6318 25.1055 -9.29035e-13
25.1055 124.029 3.6285e-12
-9.29035e-13 3.6285e-12 -6.21425

-13.5027 26.0981 -3.50327e-12
26.0981 -19.0974 -3.61755e-12
-3.50327e-12 -3.61755e-12 -58.8962

-9.55279 -27.8074 5.87796e-12
-27.8074 -22.8069 -1.02346e-11
5.87796e-12 -1.02346e-11 -59.5466

-2.86559 -30.4189 1.94333e-12
-30.4189 -7.32091 6.12547e-13
1.94333e-12 6.12547e-13 -7.28659

3.86051 -31.16 5.15321e-12
-31.16 5.63585 -3.85173e-12
5.15321e-12 -3.85173e-12 -6.06167

25.152 20.8274 4.43556e-12
20.8274 -17.0339 -5.32108e-12
4.43556e-12 -5.32108e-12 -4.97612

31.8051 15.006 3.35613e-12
15.006 -23.3004 -4.16496e-12
3.35613e-12 -4.16496e-12 -5.95396

-9.48883 3.08358 -1.8092e-11
3.08358 -9.83062 9.29227e-12
-1.8092e-11 9.29227e-12 -80.9389

-5.54906 -7.00017 1.16283e-11
-7.00017 -14.0418 -1.01751e-11
1.16283e-11 -1.01751e-11 -80.2916

11.7485 4.82431 4.54747e-12
4.82431 -43.2052 3.6664e-12
4.54747e-12 3.6664e-12 -7.82685

-35.0563 6.73095 3.30069e-12
6.73095 24.3753 4.00805e-12
3.30069e-12 4.00805e-12 -7.56336

-36.11 6.73632 -3.72603e-12
6.73632 24.4326 3.76765e-12
-3.72603e-12 3.76765e-12 -8.30833

74.5862 58.634 -3.54561e-12
58.634 34.1725 -3.59061e-12
-3.54561e-12 -3.59061e-12 -21.873

-6.91948 -28.1996 -3.4414e-12
-28.1996 16.8753 2.75098e-12
-3.4414e-12 2.75098e-12 -6.11595

8.17205 17.9745 -5.46526e-13
17.9745 -44.8757 1.55638e-12
-5.46526e-13 1.55638e-12 -12.8964

32.703 9.5397 -1.51701e-12
9.5397 -19.0797 3.49424e-12
-1.51701e-12 3.49424e-12 -4.0737

3.38806 -26.7231 3.57344e-12
-26.7231 13.4841 2.68052e-12
3.57344e-12 2.68052e-12 -3.82633

26.2375 -20.2376 -6.01119e-12
-20.2376 -20.3225 7.784e-12
-6.01119e-12 7.784e-12 -5.86253

65.3901 60.2319 -2.7877e-12
60.2319 34.2893 -2.67164e-12
-2.7877e-12 -2.67164e-12 -23.8678

-13.2424 31.069 2.35486e-12
31.069 -16.8811 -3.70607e-12
2.35486e-12 -3.70607e-12 -12.7855

-18.6037 -19.786 2.62723e-12
-19.786 28.4147 2.54611e-14
2.62723e-12 2.54611e-14 -5.9688

11.1746 28.8576 -2.80664e-13
28.8576 -13.3229 -1.80478e-12
-2.80664e-13 -1.80478e-12 -6.43551

-31.8686 -4.14479 2.06524e-12
-4.14479 30.1479 6.77976e-13
2.06524e-12 6.77976e-13 -6.35722

-14.5959 19.6091 7.1602e-12
19.6091 27.1853 3.53021e-12
7.1602e-12 3.53021e-12 -4.41803

7.47945 30.5186 -1.55668e-12
30.5186 -1.67005 -1.99899e-12
-1.55668e-12 -1.99899e-12 -5.65981

-9.3445 -22.4731 -2.9825e-12
-22.4731 23.1493 2.41407e-12
-2.9825e-12 2.41407e-12 -4.17478

4.5908 -27.3524 -4.62623e-12
-27.3524 11.4492 1.67333e-12
-4.62623e-12 1.67333e-12 -3.93785

24.2718 11.2569 4.32617e-12
11.2569 102.079 -5.44749e-14
4.32617e-12 -5.44749e-14 -12.405

37.4666 -33.456 8.82257e-13
-33.456 69.2853 1.42109e-12
8.82257e-13 1.42109e-12 -5.70295

-25.3347 -11.6905 -1.06507e-13
-11.6905 31.3682 2.32288e-12
-1.06507e-13 2.32288e-12 -5.64771

16.0966 26.4844 -4.28694e-13
26.4844 -15.5017 -2.76579e-12
-4.28694e-13 -2.76579e-12 -6.21682

4.95603 29.4778 -2.66335e-12
29.4778 1.63714 5.06854e-13
-2.66335e-12 5.06854e-13 -4.9893

-9.85427 -21.4338 1.11614e-13
-21.4338 25.1209 1.6307e-12
1.11614e-13 1.6307e-12 -4.03258

-21.6342 -11.7823 -1.8332e-12
-11.7823 32.0821 -4.64458e-12
-1.8332e-12 -4.64458e-12 -4.63655

10.4632 28.4094 3.38041e-12
28.4094 -0.156224 2.16775e-12
3.38041e-12 2.16775e-12 -4.67224

-21.8464 -13.8777 -2.60236e-12
-13.8777 29.4674 -1.98774e-12
-2.60236e-12 -1.98774e-12 -4.84649

6.95877 27.8548 -3.10211e-12
27.8548 73.0846 2.76164e-12
-3.10211e-12 2.76164e-12 -14.3219

-45.8315 -4.0413 -8.28441e-13
-4.0413 14.0479 -1.82906e-12
-8.28441e-13 -1.82906e-12 -19.9649

0.877441 31.0274 -4.43616e-12
31.0274 7.52058 3.42363e-12
-4.43616e-12 3.42363e-12 -6.08841

9.71928 14.9012 -3.50534e-12
14.9012 -36.4289 -1.89596e-12
-3.50534e-12 -1.89596e-12 -10.9849

9.92882 -15.9274 -3.31291e-13
-15.9274 -39.4103 -7.31563e-13
-3.31291e-13 -7.31563e-13 -13.0688

85.6129 -24.2044 -1.85925e-12
-24.2044 7.63596 3.54324e-12
-1.85925e-12 3.54324e-12 -12.9578

-23.2066 -21.2671 6.16751e-12
-21.2671 10.5139 3.291e-12
6.16751e-12 3.291e-12 -6.16464

-16.6006 26.6982 3.37922e-12
26.6982 1.77871 -4.47405e-12
3.37922e-12 -4.47405e-12 -6.58709

-26.2014 -21.7279 -3.62495e-12
-21.7279 -5.36479 -4.91118e-12
-3.62495e-12 -4.91118e-12 -23.8672

-41.597 14.1067 7.80087e-12
14.1067 -3.56013 5.67102e-12
7.80087e-12 5.67102e-12 -64.1285

-0.893387 9.44534 -1.21266e-12
9.44534 -44.2597 -7.34524e-13
-1.21266e-12 -7.34524e-13 -64.23

-20.3842 32.7055 3.07902e-14
32.7055 -23.2024 1.56379e-12
3.07902e-14 1.56379e-12 -24.3296

-11.4101 26.0002 5.94073e-12
26.0002 22.6042 5.33085e-12
5.94073e-12 5.33085e-12 -5.92503

16.0388 26.6614 -3.50653e-12
26.6614 -17.2868 -2.06768e-12
-3.50653e-12 -2.06768e-12 -6.54929

30.4283 45.1857 1.0895e-13
45.1857 47.5546 1.03029e-13
1.0895e-13 1.03029e-13 -15.1949

-44.8889 -11.3437 -5.8041e-12
-11.3437 -1.80808 2.13252e-12
-5.8041e-12 2.13252e-12 -61.6846

-8.29818 -3.43296 -6.63977e-12
-3.43296 -12.7552 1.10794e-11
-6.63977e-12 1.10794e-11 -77.229

-14.6916 -0.210062 -8.20233e-13
-0.210062 -6.41857 -6.854e-12
-8.20233e-13 -6.854e-12 -77.3732

27.6649 -53.8023 -7.05095e-12
-53.8023 71.1484 -2.6598e-12
-7.05095e-12 -2.6598e-12 -24.3896

-11.6913 -11.6 4.01738e-12
-11.6 -16.2045 4.94419e-13
4.01738e-12 4.94419e-13 -37.4314

-32.6104 8.81306 3.42955e-12
8.81306 -9.41955 -3.37419e-12
3.42955e-12 -3.37419e-12 -49.5419

18.2563 -26.1994 4.73695e-12
-26.1994 -19.546 -1.42286e-12
4.73695e-12 -1.42286e-12 -6.50604

-39.4299 1.01109 -3.81151e-12
1.01109 11.9802 -6.70871e-13
-3.81151e-12 -6.70871e-13 -19.7219

-30.2021 -20.2678 2.7461e-12
-20.2678 6.30517 1.92439e-13
2.7461e-12 1.92439e-13 -7.21553

10.5366 6.25532 -4.57915e-12
6.25532 -52.3898 7.51177e-13
-4.57915e-12 7.51177e-13 -9.63926

-49.8126 15.5963 2.50836e-13
15.5963 10.1654 -1.40273e-12
2.50836e-13 -1.40273e-12 -13.5308

-40.2833 7.19162 -3.41612e-12
7.19162 16.5415 -7.28543e-12
-3.41612e-12 -7.28543e-12 -13.774

16.405 20.3927 -4.01457e-13
20.3927 -25.8405 -1.89981e-12
-4.01457e-13 -1.89981e-12 -7.60718

-9.10015 -3.1139 -4.49988e-12
-3.1139 108.394 1.06345e-12
-4.49988e-12 1.06345e-12 -23.102

-3.31989 -27.6236 -1.01235e-11
-27.6236 -3.62932 1.01252e-13
-1.01235e-11 1.01252e-13 -5.82947

-7.33487 -26.1162 1.19371e-12
-26.1162 -14.0817 -4.06371e-12
1.19371e-12 -4.06371e-12 -9.81033

-14.1982 -31.4837 3.27116e-12
-31.4837 -21.7779 2.43731e-12
3.27116e-12 2.43731e-12 -12.7554

90.7272 32.7494 -1.45424e-12
32.7494 20.9063 5.37526e-12
-1.45424e-12 5.37526e-12 -16.506

-23.1175 -20.1165 -6.50887e-12
-20.1165 -17.385 1.05057e-12
-6.50887e-12 1.05057e-12 -44.4281

72.63 54.322 -3.50061e-12
54.322 91.6401 -4.38642e-12
-3.50061e-12 -4.38642e-12 -6.14245

-36.2149 -21.4396 -1.5817e-12
-21.4396 -6.79682 -4.75472e-12
-1.5817e-12 -4.75472e-12 -13.0427

15.0339 14.6504 -1.69524e-12
14.6504 -37.7514 -1.6116e-12
-1.69524e-12 -1.6116e-12 -8.17832

44.5725 -14.5724 1.25766e-12
-14.5724 -8.27147 -5.52151e-14
1.25766e-12 -5.52151e-14 -4.41802

-21.2304 24.0466 3.71259e-12
24.0466 4.95562 1.63129e-12
3.71259e-12 1.63129e-12 -5.97584

17.3732 20.4279 2.62368e-12
20.4279 -26.792 -1.03118e-12
2.62368e-12 -1.03118e-12 -6.95098

-51.14 11.4006 -6.80123e-13
11.4006 7.71052 -2.637e-12
-6.80123e-13 -2.637e-12 -29.9943

-7.28681 -31.5801 4.45303e-12
-31.5801 -12.8265 -8.85573e-12
4.45303e-12 -8.85573e-12 -8.1186

2.79678 19.8124 -4.63955e-12
19.8124 -46.0334 5.01229e-13
-4.63955e-12 5.01229e-13 -29.9862

-24.6706 -18.4434 1.14427e-12
-18.4434 17.8362 2.59822e-12
1.14427e-12 2.59822e-12 -5.47953

-42.3403 4.28315 6.2786e-13
4.28315 17.8694 -2.72552e-12
6.2786e-13 -2.72552e-12 -12.7279

-4.09805 9.92673 4.37872e-12
9.92673 -40.276 5.85458e-13
4.37872e-12 5.85458e-13 -47.5494

-2.68827 -8.51334 -1.36187e-14
-8.51334 -38.3073 3.18649e-12
-1.36187e-14 3.18649e-12 -47.4051

81.722 18.5122 1.76451e-12
18.5122 1.70033 2.38506e-12
1.76451e-12 2.38506e-12 -14.453

3.89495 7.96499 -5.70507e-12
7.96499 -45.1829 -6.22169e-13
-5.70507e-12 -6.22169e-13 -11.0178

35.8712 7.74042 -2.69133e-12
7.74042 184.571 -8.10019e-13
-2.69133e-12 -8.10019e-13 -9.7578

40.1447 -11.385 1.81433e-12
-11.385 190.369 -4.96906e-12
1.81433e-12 -4.96906e-12 -7.38964

53.764 56.4065 -1.65793e-14
56.4065 159.253 6.63173e-13
-1.65793e-14 6.63173e-13 -11.5005

1.70907 -28.9504 9.21929e-13
-28.9504 -24.6906 -4.54155e-12
9.21929e-13 -4.54155e-12 -11.9625

16.0487 -49.19 -4.10931e-13
-49.19 99.4178 -8.76336e-13
-4.10931e-13 -8.76336e-13 -21.6894

54.5119 -55.949 -8.07887e-12
-55.949 149.97 -9.01442e-12
-8.07887e-12 -9.01442e-12 -13.6654

-2.16537 26.2198 -1.75859e-13
26.2198 17.5727 8.11795e-13
-1.75859e-13 8.11795e-13 -3.99534

134.937 73.8432 2.69533e-12
73.8432 85.0236 9.40285e-13
2.69533e-12 9.40285e-13 -10.1596

-18.7196 13.0473 5.06558e-12
13.0473 -3.90027 5.62513e-14
5.06558e-12 5.62513e-14 -26.7698

3.74113 0.039323 2.23362e-12
0.039323 -26.1889 -2.15176e-12
2.23362e-12 -2.15176e-12 -26.773

144.095 -73.1287 -5.21065e-13
-73.1287 85.351 4.493e-12
-5.21065e-13 4.493e-12 -8.19688

-21.3924 -23.4237 7.50807e-13
-23.4237 12.2481 -3.37212e-12
7.50807e-13 -3.37212e-12 -6.49051

89.3451 34.7287 7.57912e-14
34.7287 41.3894 5.4096e-12
7.57912e-14 5.4096e-12 -11.5482

72.1858 63.4903 3.15718e-12
63.4903 149.691 -3.63798e-12
3.15718e-12 -3.63798e-12 -9.6742

26.1642 21.6299 2.71072e-12
21.6299 100.132 6.56068e-13
2.71072e-12 6.56068e-13 -13.0316

73.8726 -65.9191 -5.38118e-12
-65.9191 151.142 2.87059e-12
-5.38118e-12 2.87059e-12 -9.40276

25.7687 -12.3809 -3.63679e-12
-12.3809 105.011 1.49451e-12
-3.63679e-12 1.49451e-12 -12.4286

-28.6639 6.84181 -2.39668e-12
6.84181 3.10676 -9.02981e-14
-2.39668e-12 -9.02981e-14 -37.8541

37.7424 -45.9742 1.76215e-12
-45.9742 49.6687 -3.60008e-12
1.76215e-12 -3.60008e-12 -15.5324

14.4434 47.5313 3.67351e-12
47.5313 94.8783 -4.47642e-13
3.67351e-12 -4.47642e-13 -22.1926

173.336 37.911 2.24532e-12
37.911 48.0405 -9.71786e-12
2.24532e-12 -9.71786e-12 -9.52284

7.02095 -29.2855 3.18501e-12
-29.2855 -14.3581 5.98099e-12
3.18501e-12 5.98099e-12 -7.15556

-38.4172 12.8967 1.65845e-12
12.8967 6.4353 2.55647e-12
1.65845e-12 2.55647e-12 -15.2903

88.5034 -38.1119 1.01844e-12
-38.1119 34.1624 1.01608e-12
1.01844e-12 1.01608e-12 -14.0998

6.04189 -28.802 -2.67697e-12
-28.802 -16.1715 5.90935e-12
-2.67697e-12 5.90935e-12 -8.02941

169.203 -36.3429 1.78109e-12
-36.3429 34.928 4.62208e-12
1.78109e-12 4.62208e-12 -13.2907

-5.72496 -28.3172 7.39142e-12
-28.3172 -14.4725 -1.72632e-12
7.39142e-12 -1.72632e-12 -9.309

-17.79 -25.2946 5.38739e-12
-25.2946 12.0804 -8.68875e-12
5.38739e-12 -8.68875e-12 -5.93367

118.874 69.4597 3.70903e-12
69.4597 96.2173 7.22385e-12
3.70903e-12 7.22385e-12 -11.4008

29.4125 -22.9325 1.70886e-12
-22.9325 97.7947 -3.45087e-12
1.70886e-12 -3.45087e-12 -14.3402

117.957 -71.6917 9.85286e-13
-71.6917 93.6787 1.88057e-12
9.85286e-13 1.88057e-12 -12.4168

22.2642 50.7367 -3.14889e-12
50.7367 73.7771 -1.83557e-12
-3.14889e-12 -1.83557e-12 -24.7776

-1.53603 -30.2119 -5.32552e-12
-30.2119 -6.5522 2.6444e-12
-5.32552e-12 2.6444e-12 -6.99733

-7.04519 -14.6403 1.45987e-12
-14.6403 -21.9194 1.90366e-12
1.45987e-12 1.90366e-12 -32.6146

-11.892 11.0926 -6.93401e-12
11.0926 -16.4309 -4.80445e-12
-6.93401e-12 -4.80445e-12 -77.7954

-26.1692 -5.15999 5.54579e-12
-5.15999 -6.38737 -1.56408e-12
5.54579e-12 -1.56408e-12 -77.6291

-38.9408 13.0836 -1.07299e-12
13.0836 13.7444 -2.13518e-12
-1.07299e-12 -2.13518e-12 -10.2384

-14.4806 -10.667 1.08299e-12
-10.667 -17.3184 -9.00036e-12
1.08299e-12 -9.00036e-12 -78.7582

-25.9029 4.09173 7.21408e-12
4.09173 -5.91387 8.72917e-12
7.21408e-12 8.72917e-12 -78.9003

-3.63385 7.43415 6.18069e-12
7.43415 -27.8607 -2.72138e-12
6.18069e-12 -2.72138e-12 -77.9876

-43.9754 -12.1152 5.10703e-15
-12.1152 2.91633 8.79089e-12
5.10703e-15 8.79089e-12 -68.1589

11.9737 -30.4697 8.59165e-13
-30.4697 76.1622 -4.35563e-12
8.59165e-13 -4.35563e-12 -14.7009

0.521905 -12.9721 4.06549e-12
-12.9721 -39.9908 3.33925e-12
4.06549e-12 3.33925e-12 -45.2775

-16.3488 -34.4178 -1.79382e-12
-34.4178 -22.0685 9.83214e-13
-1.79382e-12 9.83214e-13 -23.5901

-2.42057 -18.1768 -9.82325e-13
-18.1768 -29.8953 3.42689e-13
-9.82325e-13 3.42689e-13 -33.6269

12.7383 15.4591 1.6526e-12
15.4591 -37.7159 1.49332e-12
1.6526e-12 1.49332e-12 -9.62483

-46.9088 9.86428 -8.36505e-12
9.86428 8.87769 1.16812e-11
-8.36505e-12 1.16812e-11 -70.1547

3.46268 19.2277 -6.2171e-12
19.2277 -41.4722 -4.50488e-12
-6.2171e-12 -4.50488e-12 -70.2706

1.47236 11.3063 -3.201e-12
11.3063 -23.9651 6.29867e-13
-3.201e-12 6.29867e-13 -31.8681

109.391 -15.3392 1.80004e-12
-15.3392 -12.5355 3.60127e-12
1.80004e-12 3.60127e-12 -25.0372

-14.32 24.9639 -1.02229e-12
24.9639 10.3862 -7.04918e-12
-1.02229e-12 -7.04918e-12 -5.80418

76.6063 -61.3542 5.03301e-12
-61.3542 37.3649 -8.52651e-13
5.03301e-12 -8.52651e-13 -22.3954

76.1135 -57.4568 3.55745e-12
-57.4568 99.2276 -5.06617e-12
3.55745e-12 -5.06617e-12 -5.55539

118.195 -36.5438 1.0715e-11
-36.5438 40.6006 3.46863e-12
1.0715e-11 3.46863e-12 -7.37856

-51.1147 -5.15896 4.68277e-12
-5.15896 3.34079 -7.18018e-12
4.68277e-12 -7.18018e-12 -60.6611

-50.4786 2.89123 2.49667e-12
2.89123 3.13505 -1.32797e-12
2.49667e-12 -1.32797e-12 -60.1336

-11.9756 -24.4564 4.07082e-12
-24.4564 -35.0037 -6.42545e-12
4.07082e-12 -6.42545e-12 -59.1677

-8.99197 -21.7606 -3.44358e-12
-21.7606 -37.8883 1.3447e-12
-3.44358e-12 1.3447e-12 -59.4773

-14.7027 26.1361 5.91764e-12
26.1361 -33.028 1.79671e-12
5.91764e-12 1.79671e-12 -60.7523

-18.1578 3.09954 -3.02247e-12
3.09954 -13.1646 -1.08733e-11
-3.02247e-12 -1.08733e-11 -75.4798

-9.94508 -20.509 1.92439e-12
-20.509 -32.651 3.2078e-13
1.92439e-12 3.2078e-13 -56.738

-26.6486 -18.5684 1.70145e-12
-18.5684 -14.1959 9.40274e-12
1.70145e-12 9.40274e-12 -71.2735

-15.4792 2.43457 3.79578e-12
2.43457 -12.8527 -6.39844e-12
3.79578e-12 -6.39844e-12 -77.8744

-6.02755 -20.5264 -9.32957e-13
-20.5264 -41.4874 -7.43109e-14
-9.32957e-13 -7.43109e-14 -60.5084

-6.75684 20.9559 4.50373e-12
20.9559 -40.1437 2.04784e-12
4.50373e-12 2.04784e-12 -60.0195

-14.3164 -3.4586 4.77559e-12
-3.4586 -11.3902 -1.60642e-12
4.77559e-12 -1.60642e-12 -76.8888

-11.2642 -3.1173 -4.19235e-12
-3.1173 -17.6894 -1.86517e-14
-4.19235e-12 -1.86517e-14 -74.0515

-24.2043 12.1098 -2.19795e-12
12.1098 -13.4007 -5.10555e-12
-2.19795e-12 -5.10555e-12 -69.9696

-22.0826 26.9298 -3.56959e-12
26.9298 -26.267 3.51287e-12
-3.56959e-12 3.51287e-12 -57.5836

VECTORS fluid_flux_TPM float
-8.7208e-05 3.10242e-05 1.62129e-20
3.55906e-06 6.88163e-06 5.26353e-21
-1.27857e-05 -1.02241e-05 1.8189e-20
-4.17003e-06 4.25345e-06 -6.43073e-21
2.27047e-05 -6.31246e-06 2.40136e-20
2.75721e-06 -1.59015e-05 1.53999e-20
-8.57841e-05 -3.10889e-05 -8.61017e-21
-1.38905e-05 -1.04654e-05 3.99724e-21
2.21189e-05 9.45396e-07 6.25884e-21
1.13825e-05 -3.90758e-06 1.53865e-20
5.45939e-05 1.24825e-05 2.72972e-20
2.34655e-06 -1.71918e-05 3.08455e-20
1.36097e-05 1.12523e-05 2.25191e-21
2.66173e-06 1.37828e-05 -2.11297e-20
2.05783e-05 -2.94626e-06 3.0505e-20
-1.63302e-05 -2.72863e-07 1.51521e-21
2.75316e-06 1.4097e-05 -5.19686e-21
1.01805e-05 -2.39158e-06 7.27748e-21
9.89732e-06 1.72205e-05 -7.45724e-21
-1.48465e-05 1.88521e-06 -2.51293e-21
-3.60072e-06 -2.13013e-05 2.51151e-20
3.41071e-05 5.94109e-05 3.87366e-20
1.56955e-05 1.6311e-06 2.78963e-20
1.12259e-05 -1.128e-05 2.83874e-20
-1.50765e-05 -3.33198e-06 -5.77013e-21
-6.77142e-07 -1.11294e-05 3.05523e-20
6.28966e-05 -4.90794e-06 -1.14035e-20
1.40643e-05 1.02476e-05 -5.41785e-21
-2.51468e-05 -2.06404e-05 6.19335e-21
4.9115e-05 -1.28125e-05 -6.19821e-21
-1.65805e-05 -6.0376e-06 -1.00075e-21
5.53647e-06 -3.20334e-05 1.84236e-20
4.76496e-05 -4.80426e-05 -5.35994e-22
-4.92287e-06 -4.12437e-05 1.59968e-20
-2.96704e-05 3.70017e-05 2.48622e-20
-3.82437e-05 -1.63935e-05 -1.24843e-21
3.26994e-05 4.32113e-05 1.68317e-20
-4.47364e-05 -8.72503e-06 1.08093e-20
1.4373e-05 -1.10807e-05 8.91487e-21
4.64655e-05 5.01104e-05 1.66007e-20
3.21263e-05 -1.40207e-05 8.13966e-21
3.36368e-05 -4.23395e-05 6.8764e-21
-1.98946e-05 -5.03737e-05 -6.23428e-21
-1.58963e-05 6.35614e-06 -4.64872e-21
3.05225e-05 -2.93116e-05 9.54908e-21
-3.03296e-05 1.09892e-05 4.96947e-21
-4.04983e-06 -2.03687e-05 1.27675e-20
7.88538e-06 2.02099e-05 -3.48276e-21
-1.6341e-05 5.9273e-06 2.05818e-21
-1.78183e-05 2.87232e-05 1.85221e-20
3.24058e-05 1.52895e-05 1.10785e-20
2.93626e-05 -1.00743e-05 -4.30038e-21
-1.5665e-05 1.57591e-05 1.52264e-20
-2.35392e-05 -2.06885e-05 2.05264e-20
-2.11382e-05 -5.13203e-06 2.20337e-20
-4.47879e-05 2.70738e-05 4.79788e-21
-2.93696e-05 -3.80201e-05 1.63551e-20
6.36293e-06 -3.06255e-05 1.40978e-20
-4.77042e-05 6.48239e-06 2.91438e-20
6.07365e-06 1.3696e-05 -8.17877e-21
-5.57643e-06 -8.17289e-06 6.27127e-21
-6.58311e-06 -1.79424e-05 -1.69166e-20
5.71403e-05 2.48581e-05 6.82151e-21
9.24225e-06 1.81431e-05 -3.05227e-21
1.22957e-05 -1.44441e-05 3.12281e-20
-1.64049e-06 -2.07513e-05 9.40479e-21
4.62081e-06 -8.80501e-06 3.49397e-20
-1.00899e-05 -5.56456e-06 2.32073e-21
-1.06021e-05 1.19286e-05 4.22065e-21
2.55805e-06 -4.09236e-06 1.32765e-20
-1.50426e-05 -1.58423e-05 7.84926e-21
-2.13637e-05 5.16563e-06 1.22309e-20
-3.55664e-06 3.44794e-05 7.75313e-21
-1.78709e-05 1.07103e-05 -1.21796e-20
-9.07031e-06 1.46139e-05 2.32769e-21
-6.03515e-05 7.69169e-06 8.60382e-22
7.81763e-06 -2.16804e-05 1.81756e-20
-1.88791e-05 -8.8996e-06 1.50658e-20
1.93361e-06 1.16234e-05 4.88125e-21
2.62996e-05 5.08938e-06 1.26453e-20
3.41673e-05 -2.89736e-05 2.42992e-20
2.21452e-05 2.05551e-05 -1.32686e-20
1.19078e-05 -2.82218e-06 1.3292e-20
-3.21521e-05 2.40658e-05 1.49687e-20
3.79025e-05 4.84561e-06 1.94286e-20
-4.98061e-06 4.94121e-05 6.13028e-21
-1.74103e-06 -1.68563e-05 2.64184e-20
1.8123e-05 9.95417e-06 9.00459e-21
2.9316e-05 3.02843e-05 -5.24474e-21
5.5022e-05 3.80116e-05 -1.30785e-20
-5.33109e-06 3.07713e-05 -5.29626e-22
5.91769e-05 -3.55107e-05 -2.36393e-20
-2.71235e-05 5.34092e-06 1.37643e-20
1.78384e-05 1.10013e-05 1.91179e-20
-2.96396e-05 9.90283e-06 9.46993e-21
1.66522e-05 2.85198e-05 4.55292e-21
1.01683e-05 -4.43845e-05 -5.16924e-21
1.91538e-06 1.16203e-05 1.26141e-20
-1.48e-05 -1.76193e-05 -5.15894e-21
3.06974e-06 1.74739e-05 -1.02012e-20
2.64056e-05 5.25723e-06 7.74594e-22
-1.54426e-05 3.32096e-05 1.77472e-20
4.05503e-05 -1.33325e-05 9.81435e-21
-3.77289e-06 7.45468e-06 -6.49318e-21
9.95237e-06 5.89903e-06 7.07344e-21
-2.28047e-06 -1.1324e-05 3.38544e-20
3.22051e-06 -1.9251e-05 5.21705e-23
1.74685e-05 3.8919e-06 3.08676e-20
-7.93683e-06 4.09706e-05 4.86973e-21
-9.80515e-06 2.47912e-07 -1.5425e-21
9.31807e-06 1.18852e-05 2.26889e-21
-2.17724e-06 -4.17119e-05 7.82862e-21
4.2021e-05 1.28644e-05 1.4549e-21
4.42234e-06 -7.45284e-06 1.69678e-20
-1.11446e-05 -3.55347e-06 6.13544e-21
-2.93242e-05 -1.24854e-05 2.261e-20
1.5803e-05 4.11453e-05 -2.26124e-20
-4.34828e-05 -1.5573e-05 9.26169e-22
1.60178e-05 -4.11218e-05 -1.921e-20
-3.69963e-06 -3.19186e-05 8.23244e-21
2.18378e-05 6.52134e-07 1.56966e-20
-7.17115e-06 1.83957e-05 4.07139e-22
-1.61112e-06 3.96938e-06 -1.68852e-22
-3.6858e-06 -1.65379e-05 1.98697e-20
5.22974e-06 -8.30171e-06 3.67375e-21
9.35904e-06 1.58628e-05 -1.75805e-21
3.30996e-05 1.06519e-05 4.83123e-21
8.61505e-06 -7.45768e-06 2.65984e-20
-8.27053e-06 -4.51577e-05 5.48425e-21
2.55509e-05 -1.88189e-05 -8.11566e-22
4.97768e-06 2.77699e-05 -1.33755e-21
-2.8162e-06 -2.84147e-06 1.15575e-20
-8.62584e-06 -8.32544e-06 2.17782e-20
-4.77644e-06 4.41243e-08 4.52652e-20
-2.28715e-05 2.85927e-05 2.73012e-20
1.87622e-05 -3.73732e-05 2.01329e-20
-2.65787e-05 4.27123e-05 3.24719e-21
-1.6371e-05 9.53478e-06 -1.03773e-20
2.52783e-06 1.21983e-05 -1.28957e-20
-2.29856e-05 -3.49876e-05 -6.69932e-21
1.39354e-05 3.34644e-05 1.36787e-21
1.75068e-05 9.36873e-06 -2.97313e-21
2.28103e-05 -8.52222e-06 1.73001e-20
-1.25313e-06 -1.12648e-05 1.74095e-20
-3.39099e-05 -3.15563e-05 3.1999e-21
-2.75134e-06 1.13027e-05 -7.73403e-21
1.72458e-05 1.01712e-05 1.97118e-21
1.88864e-05 -8.82038e-06 5.05014e-21
8.24274e-06 -1.43441e-05 1.51216e-20
2.43556e-05 -1.07948e-05 1.18434e-20
1.90085e-05 -8.99739e-06 -3.59838e-22
4.64038e-06 2.05789e-07 7.19715e-21
2.57392e-05 2.022e-05 -3.63615e-21
-2.74148e-06 -1.7029e-05 1.99874e-20
-1.04792e-05 -4.45675e-06 4.2356e-20
1.12578e-06 -3.88986e-06 3.54894e-20
-3.15489e-06 1.58461e-05 7.67919e-22
-3.48814e-05 2.76795e-06 -1.17158e-20
-1.21208e-05 -3.32564e-05 -6.2761e-21
-7.87864e-06 9.77847e-06 -1.46295e-20
1.35645e-05 1.66394e-05 7.74889e-22
2.6567e-05 -1.87437e-05 1.24043e-20
-3.67902e-05 -2.03495e-05 -6.51348e-21
1.7402e-05 -2.7506e-05 2.57096e-20
2.28026e-05 -2.7215e-05 2.31376e-21
-1.09437e-05 3.78471e-06 -7.87348e-21
-1.98278e-05 -2.88385e-05 -2.18591e-20
-3.48778e-05 -5.79108e-06 9.75431e-21
-3.85224e-06 -3.17408e-05 -3.43818e-21
1.54468e-05 -3.16973e-05 1.62393e-20
-9.10564e-06 -2.6198e-05 1.15048e-20
4.58093e-06 3.14036e-05 2.42904e-20
-1.57515e-05 -2.85204e-05 -1.45864e-20
2.93864e-06 -1.62913e-05 2.24615e-20
-2.47379e-05 1.82588e-05 -4.55414e-21
-1.50299e-05 -1.21104e-05 3.10077e-21
-2.73513e-05 -5.17214e-06 9.52726e-21
1.56672e-05 -9.18107e-06 -1.13884e-20
-4.30669e-06 2.39512e-05 1.35163e-20
1.22319e-05 -9.32398e-06 4.99859e-21
-2.95842e-05 -1.31635e-05 1.04279e-20
-8.83118e-06 -7.45768e-06 4.61089e-20
9.0816e-06 7.54043e-06 1.92573e-20
2.14256e-05 2.86992e-05 -1.48172e-20
-1.75079e-05 -1.08087e-05 1.27356e-20
-3.25044e-05 -7.5103e-07 -1.03224e-20
-1.63358e-05 -5.01588e-06 3.20742e-20
-4.57788e-06 -1.65824e-05 -1.98812e-21
1.76837e-05 2.12381e-05 -2.53791e-20
-1.09567e-05 5.87444e-06 8.19605e-21
6.36006e-07 -2.05542e-05 1.2045e-21
-4.19374e-05 1.08503e-05 2.02862e-20
2.48592e-05 2.02453e-05 -9.05581e-21
3.79427e-06 3.27836e-05 9.48599e-22
-2.43184e-06 3.797e-06 1.85421e-20
-9.05043e-06 2.51188e-07 -1.88963e-21
4.35485e-06 7.75969e-06 2.19188e-21
-1.16933e-05 3.40129e-06 3.67778e-20
-2.07328e-06 -3.78473e-06 9.82585e-22
1.65969e-06 2.07588e-05 4.63174e-21
4.47217e-06 4.49677e-07 2.73547e-21
-1.95371e-05 4.75639e-06 8.75629e-21
-1.72975e-05 1.9357e-05 2.7701e-20
-3.10728e-06 1.15776e-05 -9.98412e-21
-2.92155e-05 1.83934e-05 2.31345e-20
-9.34291e-06 8.97888e-06 2.17954e-20
1.73103e-05 -1.16132e-05 -1.99966e-21
3.66024e-05 -3.56452e-06 2.69071e-20
-2.11396e-05 1.12968e-05 1.09242e-20
2.23289e-06 4.49802e-06 1.81259e-20
2.17742e-05 -4.34468e-06 -3.97023e-21
-1.7278e-05 1.03523e-05 -1.98955e-20
-9.87129e-06 5.53876e-06 -3.12745e-21
1.18308e-05 3.74251e-06 1.17743e-20
2.18788e-05 -1.34705e-05 1.00169e-20
-1.73791e-05 9.95561e-06 -4.50564e-21
-2.50357e-05 -5.30277e-06 -3.63342e-21
-1.67609e-05 -4.36226e-06 4.86642e-21
9.87573e-06 6.2372e-09 2.46391e-20
1.01734e-05 1.95351e-07 1.7395e-20
4.39055e-06 8.31676e-06 6.75237e-21
4.82932e-06 -8.79733e-06 4.18856e-20
-5.01011e-06 8.41942e-06 2.77365e-21
-5.26641e-06 -8.65718e-06 1.50038e-21
9.91052e-06 -7.40765e-06 1.00305e-20
-2.03265e-05 3.23476e-06 3.90719e-20
-2.00589e-05 -3.28357e-06 4.77605e-21
-1.28341e-05 1.58757e-05 1.09861e-20
-1.29139e-05 -1.593e-05 1.65731e-20
7.4859e-06 -1.98428e-05 -1.72973e-20
7.20566e-06 1.97629e-05 -5.63218e-21
1.5577e-06 2.58837e-05 1.03758e-20
1.12399e-05 -3.13668e-06 5.77348e-21
2.35978e-06 -3.86633e-06 5.688e-21
-2.14102e-05 1.42161e-06 1.06016e-21
7.67679e-06 -1.95121e-05 -1.07147e-20
7.27306e-06 1.96606e-05 -2.45084e-20
4.76856e-06 -5.27116e-08 2.00874e-20
8.96771e-06 2.44019e-05 -1.50276e-20
-2.24218e-06 -4.01612e-06 5.37074e-20
2.31763e-06 -1.13164e-05 8.63232e-21
-2.24292e-05 -1.21509e-05 2.42065e-20
-2.13569e-05 -1.14939e-05 -3.57915e-21
-2.18913e-05 1.36278e-05 -6.29977e-21
3.25106e-06 -1.22869e-05 6.36346e-22
-1.56524e-06 3.38176e-06 6.7833e-21
-5.87326e-07 -2.55673e-05 1.04465e-20
-7.71974e-06 -2.44212e-05 1.27999e-20
3.27017e-05 3.03604e-05 9.8771e-21
3.54507e-05 -1.81507e-06 4.29312e-21
-1.27102e-05 -3.63192e-06 -1.24056e-21
-2.28909e-05 -4.13829e-05 -6.41041e-21
8.30363e-06 1.37469e-05 -1.76533e-21
-2.52339e-05 3.03307e-06 -1.72758e-20
2.00637e-05 5.78598e-06 1.03449e-20
-4.53279e-06 -3.27402e-08 1.40929e-20
-4.66485e-06 -8.41212e-06 2.15823e-20
-7.07237e-06 -3.93298e-05 1.18471e-20
-9.70762e-06 -8.39078e-08 5.71738e-20
-4.86703e-05 -1.81557e-06 -8.68293e-21
1.73074e-05 -1.91038e-05 2.17709e-20
2.42916e-06 3.99877e-06 3.38303e-21
-1.20633e-07 -1.75123e-05 2.65193e-20
-9.81766e-06 2.40819e-05 -1.18589e-20
-4.37171e-06 8.62673e-06 1.50491e-20
2.05545e-05 -1.36049e-05 9.43358e-21
-3.76558e-05 -1.35503e-05 8.97398e-21
-1.52645e-05 -2.0364e-05 -6.1033e-21
4.97665e-06 8.38835e-06 1.2129e-20
1.66297e-05 5.16013e-06 1.25665e-20
-4.76346e-06 -7.33763e-06 3.27958e-20
1.97947e-05 3.54686e-06 8.41829e-21
1.81867e-05 -9.82485e-06 -1.85349e-20
-3.4879e-07 2.717e-05 8.65899e-21
8.31952e-06 -1.36654e-05 2.14089e-20
4.87987e-05 2.20035e-06 -1.12404e-20
-4.23521e-05 1.1452e-05 3.82897e-21
2.28573e-05 1.15548e-05 -2.4432e-21
-6.45216e-06 -1.71771e-05 3.88633e-20
-1.5348e-05 -8.61706e-06 1.24355e-20
2.87838e-05 -2.10519e-07 5.30599e-21
-6.91894e-07 -2.42518e-05 6.06544e-21
-1.26158e-05 -1.08726e-05 1.13502e-20
1.02225e-05 -2.34965e-05 -7.48793e-23
-4.96543e-07 2.05527e-05 9.8768e-21
7.91662e-06 2.60642e-05 9.99563e-21
1.72656e-05 -9.88293e-06 9.9235e-21
-1.89453e-05 1.92959e-05 5.81408e-21
1.65255e-05 2.00266e-05 -8.88696e-21
-6.22219e-05 1.60197e-05 -5.81411e-21
-1.01077e-05 2.60126e-05 2.14171e-20
1.25173e-05 -1.52461e-05 2.17588e-20
-7.02811e-06 -1.83952e-05 -1.23755e-20
-1.18519e-05 4.50504e-06 -1.46362e-20
-2.58897e-05 -7.04479e-06 6.28763e-21
-6.38522e-06 3.88524e-05 1.54808e-20
-1.26041e-05 1.19008e-05 5.53668e-21
2.07737e-05 -4.47497e-06 7.49727e-21
-6.87149e-06 -2.57905e-05 2.39021e-20
-1.48667e-05 2.38875e-05 1.06774e-21
-2.17858e-05 1.2563e-05 4.76028e-21
-2.05666e-05 -1.50532e-05 2.96404e-21
1.80261e-05 -2.06521e-05 -2.00928e-20
-2.75267e-05 -1.45604e-06 -1.46125e-21
1.23654e-05 -4.08045e-05 1.30115e-20
1.93835e-05 -1.89105e-05 2.32852e-20
2.4729e-05 4.30758e-05 3.74196e-21
1.97084e-06 1.98637e-05 -2.02545e-21
2.96067e-06 -2.54176e-05 1.76514e-20
-4.16305e-05 4.69552e-05 2.67412e-20
-1.27003e-05 -2.44081e-05 2.27489e-20
1.63645e-05 -6.41963e-06 -1.41849e-21
-2.41056e-06 2.57686e-05 1.93755e-20
1.28811e-05 -1.18248e-05 9.45783e-21
1.38786e-05 2.43095e-05 -1.18437e-20
1.72274e-05 -1.40029e-06 1.46711e-20
2.21169e-05 -6.32076e-05 2.64936e-21
-5.87529e-06 -1.28574e-05 4.35629e-20
-2.3181e-05 1.00857e-05 5.28839e-21
-2.00171e-05 1.87163e-05 1.08618e-20
2.16092e-05 1.45656e-05 -4.89701e-21
1.867e-05 -1.07552e-05 7.11074e-21
1.49498e-05 1.25917e-05 2.85249e-21
-5.42736e-06 4.5506e-08 1.09888e-20
1.54014e-05 -2.3084e-05 -3.96204e-21
-1.69879e-05 -2.04062e-05 3.80563e-21
2.25587e-05 9.77233e-06 7.28207e-22
1.28048e-05 -1.1988e-05 -8.62684e-21
9.55257e-06 -2.48482e-05 1.15766e-20
1.66568e-05 -6.93191e-06 -2.4638e-21
-1.58032e-05 -7.54355e-06 -4.36405e-21
1.29666e-06 -2.62992e-05 1.87068e-20
-2.6103e-05 4.47244e-06 8.19028e-21
2.39005e-06 2.45393e-05 1.68559e-21
2.0582e-05 6.62653e-06 1.30453e-21
-2.17174e-05 -1.07003e-05 -1.09236e-20
-8.97594e-06 2.56064e-05 -1.57069e-21
-1.49518e-06 -2.41846e-05 1.27087e-20
1.94637e-05 1.18357e-05 -1.42002e-21
-1.76872e-06 1.80822e-05 8.85694e-21
-2.0136e-05 1.37007e-05 -1.14684e-20
2.35076e-05 1.14136e-05 1.13326e-20
-1.71129e-05 -9.98424e-06 -1.28593e-20
9.50886e-08 -1.9832e-05 6.311e-21
1.83799e-05 1.99816e-05 -1.42426e-21
-2.21508e-05 -1.43017e-05 -6.334e-21
4.83446e-05 -3.39778e-05 2.54446e-20
1.78947e-05 -1.08211e-05 1.69978e-20
9.0007e-06 4.30816e-05 1.7666e-20
1.70319e-05 -1.36769e-05 2.22044e-20
-1.98724e-05 8.70246e-05 -5.93384e-21
-1.97627e-05 -8.65389e-05 1.06765e-20
5.71773e-05 7.17088e-05 1.10755e-20
5.69148e-05 -7.13827e-05 1.63657e-20
9.06362e-05 -1.60589e-10 1.62278e-20
-7.81917e-05 3.76335e-05 8.90999e-22
-7.7446e-05 -3.72778e-05 -1.63315e-21
1.22324e-05 1.18173e-05 3.68892e-21
2.93645e-05 2.18898e-05 1.62087e-20
1.14468e-05 3.33244e-06 1.69471e-21
1.88536e-05 9.7504e-06 -8.02415e-21
4.98866e-06 2.01679e-05 -6.7788e-22
-1.88297e-05 -1.49786e-05 2.16766e-22
1.70361e-05 -1.02131e-05 -7.05462e-21
1.98504e-05 1.45477e-05 -2.44078e-21
-3.16659e-06 2.43613e-05 9.098e-22
2.94374e-05 -1.99906e-05 -1.49894e-20
3.79347e-06 -2.37372e-05 4.21885e-21
2.19584e-05 5.22648e-06 1.06153e-20
2.98926e-05 1.10248e-05 7.08344e-21
1.42072e-05 1.41423e-05 -1.37276e-20
1.58815e-05 6.59298e-06 1.52583e-20
-1.84968e-05 1.09354e-05 -1.11546e-20
-2.25607e-05 9.03566e-06 5.70979e-21
2.2927e-05 -1.12623e-05 -3.33463e-20
-1.82659e-05 -9.99693e-06 -8.75235e-21
-1.85524e-05 -1.05813e-05 -1.41775e-20
-3.43821e-07 -2.07656e-05 8.8597e-21
-8.6144e-08 -2.11585e-05 2.3619e-20
-2.01249e-05 -1.00537e-06 -4.13032e-21
2.66962e-05 -4.01874e-06 8.28337e-21
1.81102e-05 1.1341e-05 1.12732e-20
-1.78624e-05 1.09439e-05 -1.37988e-20
-1.53599e-05 1.66219e-05 1.67914e-20
1.60204e-05 -1.37518e-05 1.74411e-20
-1.10224e-05 1.74616e-05 -8.25911e-21
-1.42235e-05 -1.48881e-05 4.28281e-21
-1.15513e-06 2.12085e-05 8.2291e-21
-1.28755e-06 2.09661e-05 7.58488e-21
8.97104e-08 -1.9832e-05 8.81575e-21
6.11021e-06 -1.97354e-05 6.40527e-21
-1.71392e-05 -9.93449e-06 -6.66654e-22
1.55853e-05 -5.48974e-06 5.44455e-21
6.63094e-07 2.14757e-05 1.45277e-21
3.0081e-07 1.85057e-05 8.69869e-21
-2.34552e-06 1.68557e-05 -8.48866e-22
2.19067e-05 -5.52688e-06 1.43155e-21
-1.65397e-05 5.37755e-06 -1.48778e-20
4.15706e-06 2.15154e-05 3.34785e-21
-3.25553e-05 1.2918e-05 3.2344e-20
9.76239e-06 4.17275e-05 1.26647e-20
-1.70519e-05 4.56771e-06 -1.5489e-20
1.96826e-05 -1.1629e-05 -1.11425e-20
9.45679e-07 2.10175e-05 4.77182e-21
-2.04793e-05 6.6988e-06 4.03299e-21
2.44387e-06 -1.6261e-05 4.9019e-21
1.81894e-06 -5.80073e-05 4.31616e-21
2.00628e-06 1.74847e-05 -1.70609e-20
-1.69605e-05 1.40213e-05 3.38543e-21
1.78525e-05 6.3966e-05 1.88632e-20
4.57652e-05 3.77034e-05 -1.11962e-20
5.20603e-05 -3.52525e-05 -4.6811e-20
1.48141e-05 -1.01662e-05 -5.47499e-22
-1.57841e-05 1.40364e-05 4.42285e-21
-2.02151e-05 -7.92001e-06 6.04601e-21
-1.96439e-05 -6.82182e-06 -1.18386e-21
5.92619e-05 -2.46098e-05 -5.07883e-20
5.74287e-05 2.38689e-05 8.17272e-21
1.08936e-05 3.81715e-06 2.66179e-20
7.66566e-07 1.95777e-05 -4.34192e-21
7.83488e-08 1.9559e-05 7.26776e-21
-4.83788e-05 -3.69155e-05 2.40046e-21
1.14242e-05 -1.71705e-05 2.86848e-20
1.17323e-05 1.24636e-05 -1.34177e-20
-2.14164e-05 -3.39546e-06 6.60292e-21
-1.40439e-05 1.72007e-05 -1.8766e-21
-1.8887e-05 9.16701e-06 -4.79139e-23
4.76394e-05 3.36916e-05 1.7401e-20
1.58052e-05 7.06109e-06 1.76776e-21
-5.56632e-06 2.00288e-05 5.53093e-21
-1.69767e-05 -1.17483e-05 2.0397e-21
1.8561e-06 -2.05413e-05 6.64902e-21
-8.94903e-06 -1.92658e-05 3.31601e-20
-1.72478e-05 -1.17726e-05 7.25715e-21
1.05787e-05 -1.89343e-05 1.44479e-20
1.41214e-05 -1.6988e-05 1.87647e-20
-2.44021e-06 -6.14326e-05 7.12831e-21
2.61782e-05 -4.11225e-05 -3.06192e-22
1.74735e-06 -2.0784e-05 -9.43598e-21
1.79573e-05 1.13546e-05 2.32588e-20
-1.44753e-05 -1.49042e-05 1.51473e-20
-9.84034e-06 1.97086e-05 1.05538e-20
-5.03905e-06 2.10051e-05 1.95238e-20
1.6626e-05 1.42427e-05 -1.06793e-20
6.05855e-06 -1.98599e-05 1.01066e-20
-1.34055e-05 -4.03549e-05 2.36347e-21
-1.98824e-06 2.50386e-05 -9.71187e-21
1.47908e-05 1.44541e-05 1.27723e-21
-1.29574e-05 -1.0216e-05 -7.01734e-21
-1.3514e-05 1.06074e-05 -7.14105e-21
4.43396e-05 -1.89119e-05 5.0192e-21
7.5625e-06 -1.33992e-05 7.57367e-21
-8.31657e-06 -1.26261e-05 1.37943e-20
2.1329e-05 6.36302e-06 1.0331e-20
1.09935e-05 -5.06583e-05 -2.03603e-21
-3.84487e-05 -3.49005e-05 -2.70028e-21
2.33051e-05 6.20696e-06 1.16185e-20
-9.32759e-06 -1.82798e-05 2.77538e-20
1.87043e-05 9.48212e-06 6.38828e-21
-2.85625e-05 -3.25489e-05 1.11055e-20
9.6875e-06 5.00433e-05 1.34069e-20
3.43318e-05 -5.98555e-05 2.26561e-20
-3.47347e-05 -5.97724e-05 2.14922e-20
2.78064e-05 -5.20186e-05 1.60216e-20
-1.26972e-05 4.36301e-05 2.37423e-20
-6.27564e-06 3.89747e-05 3.54072e-20
-1.87294e-05 8.94526e-06 -7.44543e-21
5.97679e-06 2.42405e-05 1.93121e-22
-2.39141e-06 1.26531e-05 -1.30028e-21
1.01195e-05 3.23291e-06 1.35845e-20
-3.18825e-06 1.62044e-05 2.79367e-21
-2.4744e-07 2.09903e-05 -5.21743e-22
1.66594e-05 9.7499e-06 5.57918e-23
1.71006e-06 5.77201e-05 4.69965e-21
-1.47162e-05 1.07319e-05 -4.87186e-21
1.59483e-05 -6.24617e-06 -8.34641e-21
1.68707e-05 -4.50866e-06 -4.42601e-22
-6.06583e-05 -8.76822e-06 -1.26786e-20
-3.46033e-05 1.67403e-05 1.54068e-20
-4.35115e-05 -5.25424e-05 1.28781e-20
8.65591e-06 8.3451e-06 -1.92861e-20
1.42089e-05 7.29203e-06 -4.24761e-21
2.68029e-05 -4.19557e-06 1.14214e-20
-8.10381e-06 -1.32419e-05 1.63746e-20
1.72154e-05 8.42802e-06 1.5886e-21
7.33481e-06 -3.00325e-05 3.66896e-20
-1.37127e-05 1.02042e-05 -1.63845e-20
-2.23728e-05 -2.14208e-05 1.39638e-21
-5.83556e-06 1.62965e-05 3.68587e-21
-3.27077e-06 2.06771e-05 4.9998e-21
3.38473e-05 2.12949e-05 -1.54177e-20
3.61106e-05 -1.92815e-05 -4.12665e-20
-4.20673e-05 -1.16221e-05 1.77867e-21
7.63363e-06 7.68519e-06 7.98144e-21
-4.0583e-06 0.000101354 4.5126e-21
8.61641e-07 -0.00010446 8.64018e-21
5.24504e-05 8.76385e-05 7.07828e-21
-1.91015e-05 8.45728e-06 -2.29138e-20
-2.63746e-05 5.65453e-05 -1.59604e-20
5.30286e-05 -8.46333e-05 7.05979e-21
-1.17196e-05 -1.8281e-05 -5.90987e-21
7.79942e-05 6.74927e-05 1.75875e-20
2.39918e-05 -1.79755e-05 1.6913e-20
-3.60717e-06 -2.98199e-05 -1.41299e-20
8.17726e-05 -6.58455e-05 2.46106e-20
-6.74413e-06 1.45172e-05 -4.81183e-21
-5.3828e-05 -3.48211e-05 -2.4148e-20
-4.301e-05 -9.31226e-05 -9.3223e-22
-2.41108e-05 -5.77998e-05 -5.55609e-21
-4.39716e-05 9.41296e-05 1.06326e-20
-1.00925e-05 6.4079e-05 -1.14445e-21
1.56316e-05 3.71055e-05 9.39235e-21
-2.79532e-05 3.72376e-05 -1.25668e-20
-2.52711e-05 -5.51791e-05 -7.17888e-22
0.000100358 1.73156e-05 1.06026e-20
-1.69262e-05 1.07662e-05 -1.85364e-20
-5.9119e-06 1.63318e-05 2.1994e-20
-5.07541e-05 3.76367e-05 5.00373e-21
-1.72749e-05 9.94336e-06 -2.61767e-20
9.91952e-05 -1.52622e-05 1.78685e-20
-1.5359e-05 7.7981e-06 -2.47164e-20
7.19206e-06 -1.44938e-05 1.76369e-20
-7.79634e-05 -6.09434e-05 -5.32812e-21
-2.5877e-05 5.77127e-05 -1.80768e-20
-7.91164e-05 6.03707e-05 3.20991e-21
2.45383e-05 5.19463e-05 1.00933e-20
-1.47664e-05 1.05816e-05 -1.94947e-20
-2.05283e-05 2.44747e-05 9.56452e-21
-2.85305e-05 4.9814e-05 3.87005e-20
-5.67716e-05 2.07973e-07 3.07043e-21
-9.44039e-07 1.62948e-05 -3.564e-21
-2.88474e-05 -5.04026e-05 2.16766e-22
-5.81939e-05 -2.19785e-07 1.30479e-20
-2.83473e-05 4.86925e-05 1.26068e-20
-1.51891e-05 6.6261e-05 2.20119e-20
-1.78634e-05 4.12573e-05 1.64603e-20
-3.38976e-05 2.71353e-05 1.13838e-20
2.4381e-05 -6.05648e-06 -3.84593e-21
3.79998e-05 -2.19514e-06 -2.61173e-20
1.34813e-05 8.19968e-06 1.10516e-20
-1.04684e-05 -7.39819e-05 2.75346e-20
-6.94436e-05 -2.7972e-05 7.12164e-21
3.71294e-05 7.32681e-07 1.91629e-21
5.83616e-05 -1.08913e-05 1.42639e-21
-1.05829e-05 -1.3496e-05 3.25032e-20
-5.08249e-05 3.76225e-05 1.49421e-20
-4.613e-05 5.39958e-05 2.76183e-21
6.23578e-05 -2.22307e-05 1.72094e-20
-2.81752e-05 -5.04932e-05 -1.25971e-20
-2.87749e-05 4.97757e-05 2.16239e-20
-5.725e-05 -1.17107e-06 4.69449e-21
-2.65713e-05 5.05939e-05 -4.76515e-21
-5.79487e-05 -8.1695e-07 -6.36674e-21
6.60711e-05 1.73911e-05 -1.84752e-20
5.63759e-05 1.2924e-06 -2.81722e-20
5.08962e-05 -2.92716e-05 -2.50693e-20
2.49083e-05 -5.94226e-05 -1.56433e-20
2.99162e-05 -4.8853e-05 -1.66762e-20
2.91652e-05 4.8677e-05 -6.30368e-21
2.43432e-05 5.80849e-05 -2.04306e-20
7.57965e-05 -2.0036e-05 -5.94748e-21
4.62628e-05 2.9061e-05 3.19141e-21
4.66207e-05 1.37444e-05 -9.34232e-21
TENSORS solid_stress_TPM float
375.029 -24.9203 -1.68635e-12
-24.9203 238.569 -2.63611e-12
-1.68635e-12 -2.63611e-12 197.816

457 -21.3202 2.78777e-12
-21.3202 489.984 2.53516e-12
2.78777e-12 2.53516e-12 487.107

454.875 28.043 -5.38769e-12
28.043 463.705 3.09382e-13
-5.38769e-12 3.09382e-13 458.455

455.025 -29.8427 -1.92468e-12
-29.8427 482.605 2.79036e-13
-1.92468e-12 2.79036e-13 484.853

527.684 19.9309 2.10676e-12
19.9309 548.454 -3.97482e-12
2.10676e-12 -3.97482e-12 527.354

437.307 -18.0743 -2.60636e-12
-18.0743 480.334 -1.58569e-12
-2.60636e-12 -1.58569e-12 458.036

372.324 26.4844 1.06581e-12
26.4844 239.088 5.39539e-12
1.06581e-12 5.39539e-12 197.8

473.648 29.9577 2.04044e-12
29.9577 469.498 2.9153e-12
2.04044e-12 2.9153e-12 472.334

471.544 5.48309 -2.47387e-12
5.48309 417.819 1.10005e-12
-2.47387e-12 1.10005e-12 432.791

504.255 -7.47756 -2.71546e-12
-7.47756 444.108 1.88471e-12
-2.71546e-12 1.88471e-12 483.448

360.29 16.3084 -2.77112e-12
16.3084 247.654 -6.57963e-12
-2.77112e-12 -6.57963e-12 233.643

444.778 -13.4531 -1.42775e-12
-13.4531 498.381 7.24161e-13
-1.42775e-12 7.24161e-13 472.235

466.863 27.833 -1.95991e-13
27.833 468.298 1.93564e-12
-1.95991e-13 1.93564e-12 466.73

457.033 -14.34 -7.24624e-13
-14.34 500.43 -1.26773e-12
-7.24624e-13 -1.26773e-12 483.454

512.934 33.3114 1.64017e-12
33.3114 511.593 5.26977e-13
1.64017e-12 5.26977e-13 515.222

489.168 0.560965 -2.37795e-12
0.560965 435.519 -1.74453e-12
-2.37795e-12 -1.74453e-12 462.268

457.58 -17.9692 -5.29619e-12
-17.9692 512.882 -6.37742e-12
-5.29619e-12 -6.37742e-12 493.593

493.953 -2.6652 2.66986e-12
-2.6652 439.045 -5.90269e-12
2.66986e-12 -5.90269e-12 474.26

418.788 26.6734 1.05397e-12
26.6734 449.655 4.27865e-12
1.05397e-12 4.27865e-12 424.049

481.976 -4.19553 -9.43838e-13
-4.19553 424.917 -6.14716e-12
-9.43838e-13 -6.14716e-12 453.47

425.292 8.6685 3.01537e-12
8.6685 481.898 1.24404e-12
3.01537e-12 1.24404e-12 444.837

634.128 6.28775 3.5712e-12
6.28775 633.963 6.08313e-12
3.5712e-12 6.08313e-12 570.315

479.148 1.87597 -2.33176e-12
1.87597 422.936 3.2309e-12
-2.33176e-12 3.2309e-12 449.728

447.158 -27.7149 -3.97608e-13
-27.7149 461.145 -3.27264e-12
-3.97608e-13 -3.27264e-12 452.943

481.044 6.84933 -3.90147e-12
6.84933 425.436 3.94085e-12
-3.90147e-12 3.94085e-12 452.934

449.754 19.1128 -3.2514e-12
19.1128 490.313 1.50132e-12
-3.2514e-12 1.50132e-12 478.202

377.65 4.18132 -3.60956e-12
4.18132 291.651 -4.87136e-12
-3.60956e-12 -4.87136e-12 259

462.68 30.7456 1.68517e-12
30.7456 460.71 -1.80685e-12
1.68517e-12 -1.80685e-12 460.541

384.936 37.0739 -3.61666e-12
37.0739 383.516 -2.12334e-12
-3.61666e-12 -2.12334e-12 348.415

586.94 10.3235 -3.52903e-12
10.3235 563.449 3.45265e-12
-3.52903e-12 3.45265e-12 546.87

491.682 14.2168 -3.23297e-12
14.2168 442.493 1.74512e-12
-3.23297e-12 1.74512e-12 465.851

352.852 -17.7802 -9.82917e-13
-17.7802 416.719 -3.52311e-12
-9.82917e-13 -3.52311e-12 348.586

331.014 -42.1012 1.86162e-12
-42.1012 335.869 -8.88178e-13
1.86162e-12 -8.88178e-13 253.48

531.407 5.98681 -1.74699e-12
5.98681 586.887 -6.31821e-12
-1.74699e-12 -6.31821e-12 538.579

554.021 -4.84077 1.63425e-12
-4.84077 582.069 -3.85321e-12
1.63425e-12 -3.85321e-12 542.509

577.985 21.0279 1.92024e-12
21.0279 539.945 -1.995e-12
1.92024e-12 -1.995e-12 538.347

556.182 5.06759 -5.60396e-12
5.06759 600.673 -9.74332e-13
-5.60396e-12 -9.74332e-13 547.967

573.772 -9.16991 -4.07111e-12
-9.16991 555.762 -9.37259e-13
-4.07111e-12 -9.37259e-13 540.635

467.123 -27.9979 -8.36072e-13
-27.9979 466.487 -2.69533e-12
-8.36072e-13 -2.69533e-12 465.103

330.399 41.5205 -1.7953e-12
41.5205 337.968 -1.66504e-12
-1.7953e-12 -1.66504e-12 253.838

414.521 -17.9488 -3.07902e-14
-17.9488 354.483 -6.31791e-13
-3.07902e-14 -6.31791e-13 346.316

559.304 -3.70613 3.24984e-12
-3.70613 599.922 1.68443e-12
3.24984e-12 1.68443e-12 548.381

586.411 19.5557 2.84535e-12
19.5557 572.453 -6.75312e-13
2.84535e-12 -6.75312e-13 548.17

490.887 -12.2732 -1.68103e-12
-12.2732 442.848 -9.31551e-13
-1.68103e-12 -9.31551e-13 466.524

341.704 -43.2985 -9.4739e-14
-43.2985 345.332 -8.5502e-13
-9.4739e-14 -8.5502e-13 288.972

417.546 -18.0631 2.71664e-12
-18.0631 357.101 1.78998e-12
2.71664e-12 1.78998e-12 351.49

413.001 17.0855 2.33887e-13
17.0855 464.769 3.65752e-12
2.33887e-13 3.65752e-12 428.714

429.616 19.3387 5.0037e-12
19.3387 466.499 -3.36856e-12
5.0037e-12 -3.36856e-12 437.067

486.767 -16.3009 1.53655e-12
-16.3009 432.862 4.24031e-12
1.53655e-12 4.24031e-12 458.665

355.569 -34.1849 -5.88685e-12
-34.1849 389.389 2.85164e-12
-5.88685e-12 2.85164e-12 332.557

410.239 19.1815 3.86062e-13
19.1815 350.69 4.37221e-12
3.86062e-13 4.37221e-12 339.466

425.187 -25.288 -4.52971e-12
-25.288 383.808 -3.524e-12
-4.52971e-12 -3.524e-12 373.065

519.911 19.4858 -2.92966e-12
19.4858 547.521 6.43337e-13
-2.92966e-12 6.43337e-13 525.721

416.399 29.6489 4.89209e-12
29.6489 393.873 -2.00136e-12
4.89209e-12 -2.00136e-12 373.929

522.165 -21.8128 -2.96059e-14
-21.8128 541.387 8.57259e-13
-2.96059e-14 8.57259e-13 524.367

364.06 -42.7106 2.64322e-12
-42.7106 343.271 -2.23466e-12
2.64322e-12 -2.23466e-12 289.69

553.443 5.45978 3.68268e-12
5.45978 583.862 8.07354e-13
3.68268e-12 8.07354e-13 542.884

373.705 -5.3297 6.06685e-12
-5.3297 436.649 -3.33126e-12
6.06685e-12 -3.33126e-12 373.813

580.81 10.3842 9.54496e-13
10.3842 556.162 -1.9577e-12
9.54496e-13 -1.9577e-12 542.64

435.044 21.4128 4.56139e-12
21.4128 473.749 -5.79329e-12
4.56139e-12 -5.79329e-12 454.66

513.562 5.75384 6.21133e-13
5.75384 452.795 3.45501e-13
6.21133e-13 3.45501e-13 494.855

522.448 11.4589 8.18604e-14
11.4589 487.852 2.22459e-12
8.18604e-14 2.22459e-12 507.069

383.695 31.8194 -1.19134e-12
31.8194 315.185 1.78228e-12
-1.19134e-12 1.78228e-12 269.863

482.078 -6.0351 6.86014e-12
-6.0351 528.171 1.82313e-12
6.86014e-12 1.82313e-12 504.091

487.087 9.51967 -2.2881e-12
9.51967 523.68 1.79323e-12
-2.2881e-12 1.79323e-12 507.487

456.449 -2.88076 -1.46165e-12
-2.88076 520.147 -5.82053e-13
-1.46165e-12 -5.82053e-13 487.798

464.445 23.402 -1.05327e-12
23.402 503.46 1.63454e-12
-1.05327e-12 1.63454e-12 495.431

496.737 8.46346 -1.13006e-12
8.46346 444.388 2.4909e-12
-1.13006e-12 2.4909e-12 477.688

445.497 -28.239 6.52811e-12
-28.239 459.518 1.54365e-12
6.52811e-12 1.54365e-12 451.157

501.671 -1.71122 -2.81804e-12
-1.71122 444.906 6.19875e-13
-2.81804e-12 6.19875e-13 489.059

519.524 -19.2618 4.8832e-12
-19.2618 546.814 8.03209e-13
4.8832e-12 8.03209e-13 525.454

523.294 21.3078 1.67274e-13
21.3078 542.912 4.46268e-13
1.67274e-13 4.46268e-13 525.256

353.402 -16.5831 -9.38953e-13
-16.5831 415.726 1.39266e-12
-9.38953e-13 1.39266e-12 346.105

506.012 -27.936 2.25953e-12
-27.936 485.301 -4.44089e-14
2.25953e-12 -4.44089e-14 493.871

449.711 -25.1344 2.48838e-12
-25.1344 471.21 -9.95944e-13
2.48838e-12 -9.95944e-13 458.568

357.863 -31.7101 -7.65018e-13
-31.7101 285.671 -3.99976e-13
-7.65018e-13 -3.99976e-13 249.853

498.491 3.2226 1.61878e-12
3.2226 541.397 2.78474e-12
1.61878e-12 2.78474e-12 513.634

501.717 28.9437 1.42109e-13
28.9437 474.54 2.49401e-12
1.42109e-13 2.49401e-12 487.649

448.435 19.6641 -8.27042e-13
19.6641 492.098 1.58866e-12
-8.27042e-13 1.58866e-12 477.634

440.183 7.9994 2.50229e-12
7.9994 373.03 -3.64538e-12
2.50229e-12 -3.64538e-12 382.926

386.443 -33.935 2.74625e-12
-33.935 360.199 -3.92693e-12
2.74625e-12 -3.92693e-12 319.429

537.713 -10.5875 -8.29855e-12
-10.5875 556.131 -4.11227e-13
-8.29855e-12 -4.11227e-13 531.241

482.648 23.8994 -1.44122e-12
23.8994 504.551 -9.1061e-13
-1.44122e-12 -9.1061e-13 502.034

385.363 -32.3832 -6.14264e-12
-32.3832 345.299 -1.14516e-12
-6.14264e-12 -1.14516e-12 317.074

422.189 10.7909 4.09273e-12
10.7909 363.843 -1.79012e-12
4.09273e-12 -1.79012e-12 350.246

307.646 -21.2056 1.7127e-12
-21.2056 388.435 -9.61601e-12
1.7127e-12 -9.61601e-12 288.109

434.436 14.4255 1.90618e-12
14.4255 488.66 6.46002e-13
1.90618e-12 6.46002e-13 460.875

509.713 23.1428 5.50789e-12
23.1428 475.163 4.91163e-13
5.50789e-12 4.91163e-13 489.938

338.234 42.198 4.76064e-13
42.198 349.565 4.38168e-14
4.76064e-13 4.38168e-14 288.945

634.214 16.5071 9.97306e-12
16.5071 603.066 -6.78983e-12
9.97306e-12 -6.78983e-12 565.32

372.881 -4.10828 -1.75563e-12
-4.10828 436.809 5.28289e-12
-1.75563e-12 5.28289e-12 373.42

637.12 -16.6323 -1.65501e-11
-16.6323 599.536 -6.04331e-12
-1.65501e-11 -6.04331e-12 564.827

533.932 -27.3349 -2.29091e-12
-27.3349 507.231 -1.06256e-12
-2.29091e-12 -1.06256e-12 515.707

505.288 27.4245 4.89919e-12
27.4245 466.327 1.88856e-12
4.89919e-12 1.88856e-12 485.064

426.918 -24.4102 2.18966e-12
-24.4102 386.231 2.63049e-12
2.18966e-12 2.63049e-12 375.971

358.93 31.3227 -8.40809e-13
31.3227 395.997 4.20404e-12
-8.40809e-13 4.20404e-12 339.194

339.819 -10.7049 -2.73973e-12
-10.7049 408.384 6.61278e-12
-2.73973e-12 6.61278e-12 319.099

453.096 21.9706 -4.31655e-13
21.9706 494.671 1.71566e-12
-4.31655e-13 1.71566e-12 483.16

533.106 16.794 3.21935e-12
16.794 506.192 1.32102e-12
3.21935e-12 1.32102e-12 513.346

443.445 15.1537 -1.64624e-12
15.1537 488.432 2.56328e-12
-1.64624e-12 2.56328e-12 464.275

451.473 15.9536 -2.25005e-13
15.9536 400.53 -3.69305e-12
-2.25005e-13 -3.69305e-12 403.74

374.482 -21.4721 -2.68171e-12
-21.4721 419.86 4.55932e-13
-2.68171e-12 4.55932e-13 357.191

389.716 -29.3901 1.76688e-12
-29.3901 342.364 -2.73144e-12
1.76688e-12 -2.73144e-12 314.385

454.958 -24.5728 -2.49874e-13
-24.5728 480.058 -1.32309e-12
-2.49874e-13 -1.32309e-12 478.363

466.419 27.4508 -1.56882e-12
27.4508 478.736 1.57681e-12
-1.56882e-12 1.57681e-12 479.803

452.21 23.1875 1.97102e-12
23.1875 492.552 2.50762e-12
1.97102e-12 2.50762e-12 482.036

466.29 13.1692 -1.73561e-12
13.1692 529.77 2.00432e-12
-1.73561e-12 2.00432e-12 501.377

490.854 9.3722 -1.72899e-12
9.3722 437.882 3.44628e-12
-1.72899e-12 3.44628e-12 462.049

327.707 -4.66499 -7.10543e-14
-4.66499 403.375 -1.02081e-12
-7.10543e-14 -1.02081e-12 314.407

462.572 -36.8333 5.56e-13
-36.8333 487.683 -3.31957e-13
5.56e-13 -3.31957e-13 492.742

445.843 27.4649 -1.43766e-12
27.4649 463.263 1.21444e-12
-1.43766e-12 1.21444e-12 455.008

305.667 2.1703 8.8074e-12
2.1703 393.354 6.65542e-12
8.8074e-12 6.65542e-12 297.251

385.991 34.6097 -2.72848e-12
34.6097 332.443 4.83584e-12
-2.72848e-12 4.83584e-12 306.24

453.344 -22.9737 2.19528e-13
-22.9737 480.063 -1.76718e-12
2.19528e-13 -1.76718e-12 476.166

501.387 5.73296 1.91018e-12
5.73296 441.309 -1.91077e-12
1.91018e-12 -1.91077e-12 481.003

422.374 27.2036 4.15075e-12
27.2036 389.761 -2.44071e-12
4.15075e-12 -2.44071e-12 374.228

570.538 12.7455 4.53578e-12
12.7455 565.914 2.01113e-12
4.53578e-12 2.01113e-12 542.912

396.172 24.3301 -1.4874e-12
24.3301 349.643 1.0291e-12
-1.4874e-12 1.0291e-12 319.039

569.16 -13.0551 -2.06205e-13
-13.0551 565.825 -2.54256e-12
-2.06205e-13 -2.54256e-12 542.367

375.086 0.77852 7.59245e-13
0.77852 438.862 -2.55677e-12
7.59245e-13 -2.55677e-12 374.635

461.464 -2.23528 3.00796e-13
-2.23528 399.297 5.01602e-12
3.00796e-13 5.01602e-12 417.275

538.191 -15.768 1.20925e-12
-15.768 480.626 -2.54966e-12
1.20925e-12 -2.54966e-12 513.473

457.238 24.3881 1.02777e-12
24.3881 487.778 3.50416e-12
1.02777e-12 3.50416e-12 488.348

461.25 -13.535 -1.3397e-12
-13.535 519.13 -1.55668e-12
-1.3397e-12 -1.55668e-12 495.709

514.963 -8.00001 -1.52189e-12
-8.00001 438.185 -1.85866e-12
-1.52189e-12 -1.85866e-12 494.271

488.31 -22.2841 9.21929e-12
-22.2841 541.598 3.0731e-12
9.21929e-12 3.0731e-12 515.745

556.047 -6.59642 1.24404e-12
-6.59642 560.391 -3.16532e-12
1.24404e-12 -3.16532e-12 538.725

463.86 -29.9081 -1.67274e-12
-29.9081 483.19 -2.28884e-12
-1.67274e-12 -2.28884e-12 483.594

341.702 11.4534 -4.03884e-12
11.4534 406.188 2.74506e-12
-4.03884e-12 2.74506e-12 319.478

422.475 -28.146 -1.72425e-12
-28.146 391.236 -1.32043e-13
-1.72425e-12 -1.32043e-13 375.142

507.377 -13.7723 -1.94511e-12
-13.7723 558.744 -3.62466e-12
-1.94511e-12 -3.62466e-12 525.247

501.05 0.504404 -3.65189e-13
0.504404 441.274 -3.27738e-13
-3.65189e-13 -3.27738e-13 487.08

476.937 -21.5245 -1.95755e-12
-21.5245 507.416 3.80436e-13
-1.95755e-12 3.80436e-13 501.499

459.091 25.6976 -8.10611e-13
25.6976 484.595 3.3192e-13
-8.10611e-13 3.3192e-13 487.975

394.424 -31.4638 -3.60245e-12
-31.4638 400.593 3.79193e-12
-3.60245e-12 3.79193e-12 357.516

552.123 -7.08513 5.05751e-12
-7.08513 585.292 -4.7784e-12
5.05751e-12 -4.7784e-12 542.599

347.205 -33.0762 1.66504e-12
-33.0762 382.602 -5.8904e-12
1.66504e-12 -5.8904e-12 303.431

490.864 -19.1794 3.32179e-13
-19.1794 448.382 1.40362e-12
3.32179e-13 1.40362e-12 467.118

519.703 1.97023 9.81215e-13
1.97023 466.809 1.25352e-12
9.81215e-13 1.25352e-12 502.826

570.556 17.8751 -1.8329e-12
17.8751 566.477 3.58232e-13
-1.8329e-12 3.58232e-13 542.371

375.285 20.1824 -4.20404e-14
20.1824 424.025 -1.67333e-12
-4.20404e-14 -1.67333e-12 360.215

489.076 27.2102 3.66403e-12
27.2102 468.534 -1.63691e-12
3.66403e-12 -1.63691e-12 476.633

454.372 -24.5112 -1.2849e-12
-24.5112 415.336 3.41949e-12
-1.2849e-12 3.41949e-12 418.596

454.712 -17.8384 -1.51879e-13
-17.8384 494.9 1.37372e-12
-1.51879e-13 1.37372e-12 482.635

379.193 35.0675 -2.40874e-12
35.0675 366.025 -1.59991e-12
-2.40874e-12 -1.59991e-12 317.044

449.146 -21.831 4.34082e-12
-21.831 491.697 3.40676e-12
4.34082e-12 3.40676e-12 479.767

485.484 30.8502 3.98318e-12
30.8502 465.13 1.25322e-12
3.98318e-12 1.25322e-12 473.44

480.315 -25.2437 1.02851e-12
-25.2437 442.361 3.22971e-12
1.02851e-12 3.22971e-12 455.436

448.211 -25.126 -1.98952e-12
-25.126 469.76 -2.90138e-12
-1.98952e-12 -2.90138e-12 458.089

445.338 -18.6877 -4.55932e-13
-18.6877 393.454 -8.26006e-13
-4.55932e-13 -8.26006e-13 397.251

470.646 -18.8493 2.18137e-12
-18.8493 422.846 -1.14871e-12
2.18137e-12 -1.14871e-12 437.525

458.991 -25.3369 -2.16301e-12
-25.3369 485.421 -5.44701e-12
-2.16301e-12 -5.44701e-12 488.818

386.535 35.9686 4.73932e-12
35.9686 381.981 8.36072e-13
4.73932e-12 8.36072e-13 348.11

444.488 15.3765 -2.02742e-12
15.3765 491.524 -9.7522e-13
-2.02742e-12 -9.7522e-13 467.132

469.389 26.422 -5.66066e-13
26.422 479.95 -3.41357e-12
-5.66066e-13 -3.41357e-12 482.539

456.134 25.4736 1.19008e-12
25.4736 486.638 -8.58424e-13
1.19008e-12 -8.58424e-13 487.238

457.799 11.6213 8.77157e-13
11.6213 506.931 -2.05998e-12
8.77157e-13 -2.05998e-12 486.007

431.942 -8.22682 -6.89226e-13
-8.22682 370.748 1.03813e-12
-6.89226e-13 1.03813e-12 363.3

376.772 18.606 -1.85866e-12
18.606 427.257 5.82645e-13
-1.85866e-12 5.82645e-13 363.876

452.304 -24.3802 1.7053e-13
-24.3802 478.376 -5.23729e-13
1.7053e-13 -5.23729e-13 470.703

440.738 25.6654 -2.3288e-12
25.6654 455.631 4.36096e-12
-2.3288e-12 4.36096e-12 437.797

390.947 -35.6285 3.51245e-12
-35.6285 380.269 2.65447e-12
3.51245e-12 2.65447e-12 350.083

368.933 38.3158 -8.88178e-13
38.3158 327.245 -8.27782e-13
-8.88178e-13 -8.27782e-13 295.676

363.639 -33.3103 -1.03325e-12
-33.3103 394.427 9.49759e-13
-1.03325e-12 9.49759e-13 341.971

397.921 -31.1588 4.38642e-12
-31.1588 404.183 4.81511e-12
4.38642e-12 4.81511e-12 362.965

502.847 -6.83865 -1.71063e-12
-6.83865 442.241 1.19571e-12
-1.71063e-12 1.19571e-12 482.309

393.155 30.341 -1.84741e-12
30.341 408.969 1.04568e-12
-1.84741e-12 1.04568e-12 363.425

429.691 13.2943 -1.6982e-12
13.2943 372.238 -6.59324e-13
-1.6982e-12 -6.59324e-13 362.705

350.135 13.3785 -3.40143e-12
13.3785 418.504 2.70243e-12
-3.40143e-12 2.70243e-12 348.466

379.47 -22.3398 -3.64982e-12
-22.3398 423.503 -7.13503e-12
-3.64982e-12 -7.13503e-12 363.439

491.199 -1.09149 2.62708e-12
-1.09149 550.869 2.35249e-12
2.62708e-12 2.35249e-12 516.297

372.855 2.24655 5.15143e-13
2.24655 437.777 2.64085e-12
5.15143e-13 2.64085e-12 373.511

357.881 31.0885 3.47041e-12
31.0885 399.477 1.94215e-12
3.47041e-12 1.94215e-12 341.952

457.981 12.1077 -2.7591e-12
12.1077 510.551 1.20555e-12
-2.7591e-12 1.20555e-12 488.394

421.442 -27.647 -1.12029e-12
-27.647 389.062 -1.24582e-12
-1.12029e-12 -1.24582e-12 375.063

524.747 20.5569 1.11052e-12
20.5569 469.741 1.93504e-12
1.11052e-12 1.93504e-12 500.726

534.917 26.2704 -4.13299e-13
26.2704 506.851 -1.04553e-12
-4.13299e-13 -1.04553e-12 516.086

494.807 -18.5674 1.83024e-12
-18.5674 449.017 3.29396e-12
1.83024e-12 3.29396e-12 470.847

554.577 -1.80109 4.93442e-12
-1.80109 516.015 -2.58164e-12
4.93442e-12 -2.58164e-12 525.708

473.278 -31.8116 1.1271e-12
-31.8116 475.687 -8.3696e-13
1.1271e-12 -8.3696e-13 478.568

412.588 23.3272 2.55085e-12
23.3272 357.188 -2.14584e-12
2.55085e-12 -2.14584e-12 348.083

464.167 30.162 -8.70119e-13
30.162 482.759 -3.95239e-13
-8.70119e-13 -3.95239e-13 483.195

464.43 29.2058 3.28952e-12
29.2058 482.232 -3.79459e-12
3.28952e-12 -3.79459e-12 482.756

393.937 30.6601 3.85233e-12
30.6601 405.714 4.41958e-12
3.85233e-12 4.41958e-12 360.86

502.845 27.0848 -8.92915e-13
27.0848 482.657 4.45658e-12
-8.92915e-13 4.45658e-12 490.726

415.341 3.52507 -7.80413e-13
3.52507 339.009 3.37101e-13
-7.80413e-13 3.37101e-13 340.816

493.113 31.8172 -1.14161e-12
31.8172 487.214 -2.83122e-12
-1.14161e-12 -2.83122e-12 495.566

476.318 -12.5997 1.15419e-12
-12.5997 522.442 -2.79066e-12
1.15419e-12 -2.79066e-12 500.239

536.918 24.2782 -4.60817e-12
24.2782 507.394 -3.76765e-12
-4.60817e-12 -3.76765e-12 516.622

468.168 -29.5786 -2.16716e-12
-29.5786 479.961 -1.28786e-12
-2.16716e-12 -1.28786e-12 483.053

464.552 -4.89809 -9.17322e-13
-4.89809 521.547 -3.40468e-13
-9.17322e-13 -3.40468e-13 490.97

400.93 -24.5558 6.27646e-13
-24.5558 349.015 3.54028e-12
6.27646e-13 3.54028e-12 323.943

418.957 29.6925 -5.3042e-12
29.6925 392.455 -1.0516e-12
-5.3042e-12 -1.0516e-12 373.761

352.336 14.6962 4.83569e-12
14.6962 417.203 -8.49099e-13
4.83569e-12 -8.49099e-13 348.232

500.52 -1.13887 -1.00187e-12
-1.13887 442.786 7.5695e-13
-1.00187e-12 7.5695e-13 487.7

492.462 0.00223164 -4.55339e-13
0.00223164 438.094 -1.49344e-12
-4.55339e-13 -1.49344e-12 474.41

452.957 23.1237 3.46982e-12
23.1237 479.698 -5.22871e-12
3.46982e-12 -5.22871e-12 475.577

481.296 23.8709 1.17476e-12
23.8709 502.866 8.15126e-13
1.17476e-12 8.15126e-13 501.245

456.579 -24.3807 3.02845e-12
-24.3807 487.344 -2.32836e-12
3.02845e-12 -2.32836e-12 488.489

457.829 -0.672728 1.99896e-13
-0.672728 517.934 2.3513e-12
1.99896e-13 2.3513e-12 486.392

458.877 25.5903 3.84418e-12
25.5903 486.461 1.98878e-13
3.84418e-12 1.98878e-13 488.511

465.553 -10.3078 7.03437e-13
-10.3078 408.078 -3.48196e-12
7.03437e-13 -3.48196e-12 427.218

400.859 -32.8329 -3.24007e-12
-32.8329 414.95 1.67392e-12
-3.24007e-12 1.67392e-12 385.161

518.092 -2.30065 2.78814e-12
-2.30065 465.735 -7.95512e-13
2.78814e-12 -7.95512e-13 500.923

391.867 -34.5076 -2.44427e-12
-34.5076 379.602 -1.58688e-13
-2.44427e-12 -1.58688e-13 347.413

477.998 19.0861 1.63025e-12
19.0861 509.198 -1.40954e-12
1.63025e-12 -1.40954e-12 501.842

506.109 -26.4786 3.7114e-12
-26.4786 470.244 2.59644e-13
3.7114e-12 2.59644e-13 487.27

424.996 -9.69008 2.51887e-12
-9.69008 366.727 1.86517e-14
2.51887e-12 1.86517e-14 355.978

530.264 -23.1919 5.28762e-13
-23.1919 488.755 1.71566e-12
5.28762e-13 1.71566e-12 506.487

500.889 2.35826 7.09359e-13
2.35826 444.574 6.69316e-13
7.09359e-13 6.69316e-13 489.202

521.19 -23.3213 1.73787e-12
-23.3213 501.84 -8.86698e-13
1.73787e-12 -8.86698e-13 508.532

502.014 -25.8594 -1.61293e-12
-25.8594 461.489 4.00865e-13
-1.61293e-12 4.00865e-13 481.241

498.824 -8.54604 -2.14791e-12
-8.54604 445.133 4.43349e-13
-2.14791e-12 4.43349e-13 479.342

482.218 -23.0681 1.38053e-12
-23.0681 504.99 2.89426e-12
1.38053e-12 2.89426e-12 502.533

428.537 -31.3414 -3.246e-12
-31.3414 410.585 -1.04746e-12
-3.246e-12 -1.04746e-12 398.995

503.265 -24.5871 -1.43411e-12
-24.5871 464.711 9.71075e-14
-1.43411e-12 9.71075e-14 482.158

441.237 10.8643 -1.33227e-12
10.8643 378.478 1.72899e-13
-1.33227e-12 1.72899e-13 387.795

500.036 26.3401 2.32999e-13
26.3401 498.582 -2.31785e-12
2.32999e-13 -2.31785e-12 500.103

463.747 -37.613 -5.80573e-12
-37.613 488.387 -3.57843e-12
-5.80573e-12 -3.57843e-12 494.08

464.856 37.2653 -6.04257e-13
37.2653 487.298 -4.13447e-13
-6.04257e-13 -4.13447e-13 493.795

446.324 -28.5734 1.79553e-12
-28.5734 500.012 -4.31063e-12
1.79553e-12 -4.31063e-12 492.31

448.559 27.0642 8.4821e-14
27.0642 500.703 1.18187e-12
8.4821e-14 1.18187e-12 492.497

513.068 -8.52766 2.22711e-12
-8.52766 436.403 -1.76733e-12
2.22711e-12 -1.76733e-12 492.757

511.23 9.27368 -1.60612e-12
9.27368 438 -1.13983e-12
-1.60612e-12 -1.13983e-12 492.395

501.654 -9.8461 -4.31447e-12
-9.8461 451.74 -1.49066e-12
-4.31447e-12 -1.49066e-12 483.018

510.863 32.1163 3.02573e-13
32.1163 510.389 -7.92311e-13
3.02573e-13 -7.92311e-13 514.053

509.639 -32.8543 -2.02505e-13
-32.8543 510.066 -9.6322e-13
-2.02505e-13 -9.6322e-13 513.693

481.808 16.0685 4.36244e-13
16.0685 539.13 -3.40468e-13
4.36244e-13 -3.40468e-13 514.325

483.001 -15.801 -3.3092e-12
-15.801 538.72 1.92883e-12
-3.3092e-12 1.92883e-12 514.346

556.869 -3.74754 -1.08136e-12
-3.74754 506.831 -2.85342e-12
-1.08136e-12 -2.85342e-12 524.991

558.423 3.61031 1.32575e-12
3.61031 505.156 -1.72277e-12
1.32575e-12 -1.72277e-12 525.363

387.305 9.83675 -1.75371e-12
9.83675 449.193 -1.37253e-12
-1.75371e-12 -1.37253e-12 397.083

472.384 -24.774 -1.67925e-12
-24.774 480.751 7.42517e-13
-1.67925e-12 7.42517e-13 484.973

443.457 -36.3876 7.85372e-13
-36.3876 485.528 -1.36306e-12
7.85372e-13 -1.36306e-12 486.624

473.637 -4.66425 -4.40536e-12
-4.66425 420.432 -1.29689e-12
-4.40536e-12 -1.29689e-12 436.334

540.252 -16.6948 3.22261e-13
-16.6948 484.19 -5.34683e-13
3.22261e-13 -5.34683e-13 515.286

540.972 16.1758 1.30858e-12
16.1758 485.413 -8.48803e-13
1.30858e-12 -8.48803e-13 515.892

506.858 0.121883 -1.89596e-12
0.121883 423.547 2.94836e-12
-1.89596e-12 2.94836e-12 486.998

384.788 23.3749 1.7728e-12
23.3749 432.292 -4.6659e-13
1.7728e-12 -4.6659e-13 385.472

442.329 36.1716 -7.49919e-13
36.1716 485.207 1.99677e-12
-7.49919e-13 1.99677e-12 485.83

452.593 -23.3957 8.18456e-13
-23.3957 494.949 2.65388e-12
8.18456e-13 2.65388e-12 483.587

443.244 23.3525 5.16328e-13
23.3525 397.514 -1.56852e-12
5.16328e-13 -1.56852e-12 400.369

530.967 23.8582 8.26598e-13
23.8582 488.005 4.76212e-12
8.26598e-13 4.76212e-12 507.245

428.474 -31.3132 -4.68366e-12
-31.3132 410.869 -2.81967e-12
-4.68366e-12 -2.81967e-12 398.813

519.856 -3.2309 -8.63902e-13
-3.2309 469.056 4.44977e-13
-8.63902e-13 4.44977e-13 502.683

439.392 -34.161 -2.80146e-13
-34.161 485.5 -9.2785e-13
-2.80146e-13 -9.2785e-13 485.819

389.179 8.31987 -1.00829e-12
8.31987 452.323 -2.09136e-12
-1.00829e-12 -2.09136e-12 400.851

385.875 21.8113 -1.98508e-12
21.8113 435.768 -1.70412e-12
-1.98508e-12 -1.70412e-12 388.69

383.843 35.7754 1.76688e-12
35.7754 362.327 -2.59585e-12
1.76688e-12 -2.59585e-12 318.324

408.178 1.57874 3.38337e-12
1.57874 332.152 6.57178e-13
3.38337e-12 6.57178e-13 327.321

485.452 -22.8044 5.01525e-13
-22.8044 502.855 2.33402e-12
5.01525e-13 2.33402e-12 501.745

351.874 31.1835 -1.53951e-14
31.1835 388.826 -2.60059e-12
-1.53951e-14 -2.60059e-12 312.353

451.345 23.6098 2.31785e-12
23.6098 478.408 -5.78559e-12
2.31785e-12 -5.78559e-12 465.208

442.191 -5.34948 5.22249e-13
-5.34948 377.122 -7.29787e-13
5.22249e-13 -7.29787e-13 387.733

464.15 11.216 1.36483e-12
11.216 407.294 -8.10404e-12
1.36483e-12 -8.10404e-12 424.917

505.373 0.429905 -9.2711e-13
0.429905 421.567 1.06261e-12
-9.2711e-13 1.06261e-12 485.67

449.344 -29.0311 2.43798e-12
-29.0311 501.992 -2.63789e-12
2.43798e-12 -2.63789e-12 493.583

572.507 -6.31901 -1.09219e-11
-6.31901 589.481 5.98336e-13
-1.09219e-11 5.98336e-13 549.249

463.134 37.4117 -1.83379e-12
37.4117 487.021 1.02973e-12
-1.83379e-12 1.02973e-12 493.059

408.733 1.66327 2.33058e-12
1.66327 331.599 4.51964e-12
2.33058e-12 4.51964e-12 308.9

404.229 -32.7865 3.43074e-12
-32.7865 415.504 -7.89887e-13
3.43074e-12 -7.89887e-13 387.385

443.135 36.6131 2.02705e-12
36.6131 485.5 4.04595e-12
2.02705e-12 4.04595e-12 486.566

444.674 -11.1338 -2.31352e-13
-11.1338 498.93 2.57868e-12
-2.31352e-13 2.57868e-12 471.437

386.068 -25.5142 -1.34618e-12
-25.5142 428.896 -6.93963e-13
-1.34618e-12 -6.93963e-13 384.559

449.445 28.8301 9.91762e-13
28.8301 501.626 -4.70439e-13
9.91762e-13 -4.70439e-13 493.283

452.705 -26.1416 1.21088e-12
-26.1416 419.297 -2.80072e-13
1.21088e-12 -2.80072e-13 419.513

579.549 10.4834 3.62525e-12
10.4834 582.161 -5.42263e-12
3.62525e-12 -5.42263e-12 549.034

398.324 30.8716 -1.07174e-12
30.8716 422.053 4.51668e-12
-1.07174e-12 4.51668e-12 388.158

515.701 8.12676 4.39204e-13
8.12676 437.263 6.0707e-13
4.39204e-13 6.0707e-13 494.577

493.8 30.1906 4.2603e-13
30.1906 484.743 2.87977e-12
4.2603e-13 2.87977e-12 493.797

453.46 23.3318 3.76247e-12
23.3318 479.158 -3.74101e-12
3.76247e-12 -3.74101e-12 475.793

510.697 -32.4889 2.0887e-12
-32.4889 512.448 4.43077e-12
2.0887e-12 4.43077e-12 515.002

510.304 -23.19 4.77129e-12
-23.19 473.176 1.06197e-12
4.77129e-12 1.06197e-12 489.673

511.398 10.4708 -1.23794e-12
10.4708 557.987 2.14821e-12
-1.23794e-12 2.14821e-12 523.727

452.167 -23.4336 -5.14344e-12
-23.4336 480.16 6.30844e-12
-5.14344e-12 6.30844e-12 468.945

394.405 -9.70767 -2.7119e-12
-9.70767 316.41 1.76836e-12
-2.7119e-12 1.76836e-12 295.572

387.285 -14.277 6.65542e-13
-14.277 306.055 -1.70471e-12
6.65542e-13 -1.70471e-12 290.046

547.58 16.5293 -7.19839e-12
16.5293 507.759 -4.67981e-12
-7.19839e-12 -4.67981e-12 519.315

436.482 22.5014 -5.30065e-12
22.5014 469.131 -4.29523e-12
-5.30065e-12 -4.29523e-12 447.818

475.957 29.163 3.75877e-12
29.163 467.64 2.31548e-12
3.75877e-12 2.31548e-12 471.474

450.296 0.688664 -4.583e-12
0.688664 392.772 4.11218e-12
-4.583e-12 4.11218e-12 395.669

478.346 6.57122 -1.77193e-12
6.57122 541.273 3.00264e-12
-1.77193e-12 3.00264e-12 507.535

507.325 16.5408 -2.75927e-12
16.5408 461.13 -3.25961e-12
-2.75927e-12 -3.25961e-12 488.074

389.972 -25.7607 -2.73914e-12
-25.7607 430.03 -1.92794e-12
-2.73914e-12 -1.92794e-12 387.729

456.313 -2.57243 -1.54236e-12
-2.57243 517.008 3.90384e-12
-1.54236e-12 3.90384e-12 484.835

400.584 13.365 -9.32587e-13
13.365 452.98 7.05806e-13
-9.32587e-13 7.05806e-13 404.631

486.908 -29.7131 -7.30675e-13
-29.7131 465.809 3.7866e-13
-7.30675e-13 3.7866e-13 474.253

430.293 -29.947 -3.25429e-12
-29.947 423.623 2.42177e-12
-3.25429e-12 2.42177e-12 404.949

399.706 31.6224 -9.02389e-13
31.6224 418.226 -3.42896e-12
-9.02389e-13 -3.42896e-12 385.997

623.998 -15.0202 3.89289e-12
-15.0202 581.945 -1.1741e-12
3.89289e-12 -1.1741e-12 557.9

494.517 2.04126 -7.19276e-13
2.04126 552.138 3.33126e-12
-7.19276e-13 3.33126e-12 517.92

483.497 20.3001 -6.8449e-13
20.3001 542.037 -1.37372e-12
-6.8449e-13 -1.37372e-12 516.026

544.701 15.4391 -2.07893e-12
15.4391 479.965 5.0034e-13
-2.07893e-12 5.0034e-13 515.748

473.742 -26.1885 5.61329e-13
-26.1885 479.75 9.21633e-13
5.61329e-13 9.21633e-13 483.011

452.119 17.957 -6.97516e-13
17.957 404.503 -2.25094e-12
-6.97516e-13 -2.25094e-12 406.912

531.575 -5.29414 6.13989e-12
-5.29414 580.797 -8.02617e-13
6.13989e-12 -8.02617e-13 537.113

512.181 -18.9882 -1.05397e-12
-18.9882 464.788 -7.32451e-13
-1.05397e-12 -7.32451e-13 493.022

473.97 -15.5987 2.86645e-12
-15.5987 423.171 -2.42576e-12
2.86645e-12 -2.42576e-12 438.874

401.995 11.603 -3.71673e-12
11.603 455.952 -3.40705e-12
-3.71673e-12 -3.40705e-12 407.774

410.917 -25.7338 4.29286e-13
-25.7338 435.575 1.06581e-14
4.29286e-13 1.06581e-14 398.951

532.044 -25.2738 2.74418e-12
-25.2738 523.188 -1.17092e-13
2.74418e-12 -1.17092e-13 519.113

423.051 31.959 6.11008e-12
31.959 417.243 2.26959e-12
6.11008e-12 2.26959e-12 400.3

535.477 -25.1347 -1.54425e-12
-25.1347 505.783 -8.62717e-13
-1.54425e-12 -8.62717e-13 515.654

453.488 2.59733 1.0895e-13
2.59733 397.014 1.42264e-12
1.0895e-13 1.42264e-12 401.892

311.095 -28.9301 -4.91814e-12
-28.9301 376.592 -1.65793e-14
-4.91814e-12 -1.65793e-14 289.991

431.87 -29.2305 -5.72579e-12
-29.2305 424.042 -3.43429e-14
-5.72579e-12 -3.43429e-14 406.149

353.757 32.1585 -3.99088e-12
32.1585 392.539 6.22435e-12
-3.99088e-12 6.22435e-12 312.964

470.341 -11.877 -1.03214e-13
-11.877 529.546 1.45306e-12
-1.03214e-13 1.45306e-12 500.298

391.445 -13.8211 -9.70631e-13
-13.8211 449.247 7.8811e-12
-9.70631e-13 7.8811e-12 400.193

602.851 -23.9882 9.74628e-12
-23.9882 602.265 5.24603e-12
9.74628e-12 5.24603e-12 557.841

408.366 23.7704 -1.16529e-12
23.7704 441.934 -3.39639e-12
-1.16529e-12 -3.39639e-12 402.217

496.572 -32.7263 3.04764e-12
-32.7263 490.635 -3.06599e-12
3.04764e-12 -3.06599e-12 497.441

388.185 -11.9629 8.58869e-13
-11.9629 448.279 4.8909e-12
8.58869e-13 4.8909e-12 397.011

516.705 -19.1169 -4.70527e-12
-19.1169 465.748 1.12562e-12
-4.70527e-12 1.12562e-12 496.238

410.681 23.8767 3.92575e-13
23.8767 439.306 -7.69755e-13
3.92575e-13 -7.69755e-13 400.694

488.914 -4.97545 1.19371e-12
-4.97545 435.065 -8.90118e-12
1.19371e-12 -8.90118e-12 460.377

305.779 -30.3423 -3.51245e-12
-30.3423 391.434 -2.81138e-12
-3.51245e-12 -2.81138e-12 262.567

438.605 21.0138 -5.51174e-12
21.0138 473.908 1.9457e-12
-5.51174e-12 1.9457e-12 458.344

445.683 -19.323 8.17598e-12
-19.323 393.973 4.40063e-12
8.17598e-12 4.40063e-12 399.619

551.6 -21.4459 7.6561e-13
-21.4459 499.513 -1.46461e-12
7.6561e-13 -1.46461e-12 520.1

424.466 31.7535 -5.41789e-12
31.7535 413.319 -1.75386e-12
-5.41789e-12 -1.75386e-12 397.956

459.159 -29.9714 -1.01844e-12
-29.9714 437.635 5.41197e-13
-1.01844e-12 5.41197e-13 439.296

510.616 20.8852 2.14998e-12
20.8852 476.07 3.52844e-12
2.14998e-12 3.52844e-12 492.753

461.501 -28.0758 -1.78317e-12
-28.0758 485.738 -3.0842e-13
-1.78317e-12 -3.0842e-13 488.715

413.718 -26.2248 3.03639e-12
-26.2248 436.242 -4.44681e-12
3.03639e-12 -4.44681e-12 401.436

426.073 28.9806 2.07064e-12
28.9806 429.895 5.37762e-12
2.07064e-12 5.37762e-12 406.859

452.498 26.191 6.93845e-12
26.191 418.225 5.25358e-12
6.93845e-12 5.25358e-12 419.057

521.968 -14.6099 -3.336e-12
-14.6099 477.176 1.25026e-12
-3.336e-12 1.25026e-12 500.062

403.559 -16.6173 3.33363e-13
-16.6173 451.74 3.46034e-12
3.33363e-13 3.46034e-12 406.441

496.044 -17.5682 -1.0143e-12
-17.5682 447.605 -2.88362e-13
-1.0143e-12 -2.88362e-13 471.499

487.763 16.9083 6.12251e-13
16.9083 436.257 -5.17808e-12
6.12251e-13 -5.17808e-12 460.587

513.342 -9.3869 -1.98693e-12
-9.3869 555.777 1.33819e-12
-1.98693e-12 1.33819e-12 523.028

453.976 -13.4298 4.45392e-12
-13.4298 402.177 -5.12923e-13
4.45392e-12 -5.12923e-13 406.742

403.201 0.594007 -2.25064e-12
0.594007 465.723 4.73695e-15
-2.25064e-12 4.73695e-15 417.803

475.025 18.5548 3.16843e-12
18.5548 428.77 1.1197e-12
3.16843e-12 1.1197e-12 442.22

451.141 27.6036 3.07902e-14
27.6036 421.837 1.2621e-12
3.07902e-14 1.2621e-12 420.842

400.867 -15.6859 4.44592e-12
-15.6859 451.38 2.49637e-12
4.44592e-12 2.49637e-12 403.735

405.999 -1.20229 -7.51399e-13
-1.20229 468.033 2.404e-12
-7.51399e-13 2.404e-12 421.219

516.198 29.1343 -6.07514e-13
29.1343 498.025 -3.0802e-12
-6.07514e-13 -3.0802e-12 504.875

441.703 -10.922 -5.03952e-12
-10.922 500.656 4.0495e-12
-5.03952e-12 4.0495e-12 471.147

451.438 -26.7149 -2.33117e-12
-26.7149 418.765 -1.84386e-12
-2.33117e-12 -1.84386e-12 419.352

444.386 21.3322 2.3815e-12
21.3322 395.297 -1.35003e-13
2.3815e-12 -1.35003e-13 398.2

497.594 23.6652 1.7284e-12
23.6652 458.089 -3.05149e-12
1.7284e-12 -3.05149e-12 476.549

447.682 5.4707 2.87089e-12
5.4707 508.789 2.36255e-13
2.87089e-12 2.36255e-13 476.881

427.649 29.0651 -6.57548e-12
29.0651 426.433 -4.54214e-12
-6.57548e-12 -4.54214e-12 405.109

536.821 22.9638 -2.75365e-12
22.9638 531.897 -4.57752e-12
-2.75365e-12 -4.57752e-12 522.784

314.75 -59.691 7.08411e-12
-59.691 282.769 4.3805e-12
7.08411e-12 4.3805e-12 223.423

480.593 -25.0475 2.14584e-12
-25.0475 445.071 1.61826e-12
2.14584e-12 1.61826e-12 456.645

336.663 7.06981 4.32099e-12
7.06981 409.154 1.84504e-12
4.32099e-12 1.84504e-12 319.439

460.538 -28.8889 4.55932e-14
-28.8889 444.736 -3.26258e-13
4.55932e-14 -3.26258e-13 443.452

96.4238 -52.7008 -1.82254e-12
-52.7008 306.617 1.76688e-12
-1.82254e-12 1.76688e-12 113.699

95.9577 51.4515 9.27258e-13
51.4515 306.882 -9.14232e-13
9.27258e-13 -9.14232e-13 114.487

181.517 117.154 -3.87009e-12
117.154 226.076 -1.83794e-12
-3.87009e-12 -1.83794e-12 113.588

182.814 -117.097 -3.69245e-12
-117.097 223.312 3.24955e-12
-3.69245e-12 3.24955e-12 113.562

321.582 -1.36336 5.11591e-12
-1.36336 84.6534 3.67553e-14
5.11591e-12 3.67553e-14 114.929

274.433 -91.1252 -2.68111e-12
-91.1252 127.418 4.73695e-14
-2.68111e-12 4.73695e-14 113.802

275.129 91.6531 1.44951e-12
91.6531 128.251 5.68434e-14
1.44951e-12 5.68434e-14 114.572

525.24 14.3302 -4.31359e-12
14.3302 474.711 5.5748e-13
-4.31359e-12 5.5748e-13 502.314

556.797 25.5366 8.75152e-13
25.5366 541.183 3.24067e-12
8.75152e-13 3.24067e-12 533.45

492.091 6.60597 3.58883e-12
6.60597 439.12 5.38628e-12
3.58883e-12 5.38628e-12 471.401

470.299 21.7844 1.24996e-12
21.7844 424.516 5.87412e-12
1.24996e-12 5.87412e-12 438.194

409.974 17.7442 -3.05948e-12
17.7442 461.072 -2.62427e-12
-3.05948e-12 -2.62427e-12 425.042

448.01 28.8981 -1.57148e-12
28.8981 424.704 1.51879e-12
-1.57148e-12 1.51879e-12 420.749

487.148 -29.6633 -1.01785e-12
-29.6633 465.627 2.44367e-12
-1.01785e-12 2.44367e-12 474.589

449.367 28.0275 8.12979e-12
28.0275 421.07 -1.9907e-12
8.12979e-12 -1.9907e-12 418.641

402.963 -2.84121 -8.66418e-13
-2.84121 465.38 -1.72899e-13
-8.66418e-13 -1.72899e-13 417.54

555.803 -26.0975 -2.63996e-12
-26.0975 543.376 2.46321e-12
-2.63996e-12 2.46321e-12 533.693

405.501 -4.86232 -9.34512e-13
-4.86232 467.118 1.15345e-12
-9.34512e-13 1.15345e-12 420.599

522.292 23.0161 -8.65086e-13
23.0161 499.742 -5.18252e-13
-8.65086e-13 -5.18252e-13 507.969

423.377 26.8703 -7.33872e-12
26.8703 386.506 -2.0736e-12
-7.33872e-12 -2.0736e-12 373.026

480.109 -13.2161 5.50123e-12
-13.2161 532.768 2.56506e-12
5.50123e-12 2.56506e-12 512

484.197 13.7278 -6.41857e-13
13.7278 432.776 -1.97472e-12
-6.41857e-13 -1.97472e-12 456.874

457.368 -29.9873 -1.70116e-12
-29.9873 436.976 -2.35723e-12
-1.70116e-12 -2.35723e-12 437.832

454.307 -24.7132 4.22654e-12
-24.7132 416.803 9.28146e-12
4.22654e-12 9.28146e-12 419.852

547.404 -16.0746 1.04598e-12
-16.0746 509.305 6.46298e-13
1.04598e-12 6.46298e-13 519.384

475.971 27.9287 -3.49173e-12
27.9287 449.705 1.33464e-12
-3.49173e-12 1.33464e-12 456.924

469.1 23.9772 -3.07191e-12
23.9772 427.848 9.91799e-13
-3.07191e-12 9.91799e-13 439.829

432.428 -2.79294 -4.55698e-12
-2.79294 493.636 -2.01024e-12
-4.55698e-12 -2.01024e-12 457.106

417.606 5.87331 -1.49671e-12
5.87331 479.556 8.01137e-13
-1.49671e-12 8.01137e-13 440.176

463.01 2.64668 -5.26808e-12
2.64668 402.279 8.86846e-13
-5.26808e-12 8.86846e-13 422.32

438.647 -7.28957 -3.73035e-12
-7.28957 373.914 -9.2489e-13
-3.73035e-12 -9.2489e-13 381.217

454.843 30.4844 4.96847e-12
30.4844 439.014 -4.44089e-12
4.96847e-12 -4.44089e-12 437.836

478.464 -26.1552 3.81858e-12
-26.1552 443.542 -2.61036e-12
3.81858e-12 -2.61036e-12 454.646

525.7 -21.2543 -1.0294e-12
-21.2543 497.829 9.68114e-14
-1.0294e-12 9.68114e-14 508.618

437.732 -31.6333 -7.02135e-12
-31.6333 437.654 -6.50739e-13
-7.02135e-12 -6.50739e-13 426.858

417.589 -27.7852 -4.42254e-12
-27.7852 444.395 -2.14051e-12
-4.42254e-12 -2.14051e-12 419.687

430.646 29.8868 1.64135e-12
29.8868 442.743 8.02321e-13
1.64135e-12 8.02321e-13 426.496

416.225 -9.57783 -2.74051e-12
-9.57783 475.21 -5.76783e-12
-2.74051e-12 -5.76783e-12 436.454

428.894 -1.54476 4.6015e-12
-1.54476 491.867 -2.59407e-12
4.6015e-12 -2.59407e-12 453.994

445.181 5.74795 -4.06575e-12
5.74795 508.043 6.14027e-13
-4.06575e-12 6.14027e-13 474.914

414.618 -21.0888 -1.78021e-12
-21.0888 458.406 8.47322e-12
-1.78021e-12 8.47322e-12 426.064

496.868 24.111 -8.98837e-13
24.111 455.696 3.55656e-12
-8.98837e-13 3.55656e-12 474.592

483.372 -9.58968 1.39148e-12
-9.58968 430.111 -3.76602e-12
1.39148e-12 -3.76602e-12 455.22

415.633 7.46522 -2.70217e-12
7.46522 477.12 -3.4337e-12
-2.70217e-12 -3.4337e-12 436.912

443.954 -9.70107 -3.11806e-13
-9.70107 501.503 3.74574e-12
-3.11806e-13 3.74574e-12 471.007

433.173 -16.3305 -4.47701e-12
-16.3305 481.675 2.48453e-12
-4.47701e-12 2.48453e-12 455.667

463.538 -8.23913 -4.43023e-12
-8.23913 406.335 -2.36255e-12
-4.43023e-12 -2.36255e-12 421.47

494.433 -32.3468 2.31518e-13
-32.3468 487.615 3.59564e-12
2.31518e-13 3.59564e-12 496.25

422.944 9.32077 -1.75711e-12
9.32077 479.09 -4.70379e-12
-1.75711e-12 -4.70379e-12 440.979

564.358 -18.2126 -6.41413e-12
-18.2126 529.952 -2.55026e-12
-6.41413e-12 -2.55026e-12 531.831

309.048 24.8225 3.4485e-12
24.8225 379.422 4.92406e-12
3.4485e-12 4.92406e-12 289.797

501.698 -26.6261 -3.52311e-14
-26.6261 499.49 -9.96832e-13
-3.52311e-14 -9.96832e-13 501.199

515.649 -30.2028 3.61607e-12
-30.2028 498.404 1.79116e-13
3.61607e-12 1.79116e-13 504.918

429.222 -0.701299 -3.63761e-12
-0.701299 491.993 -1.58747e-12
-3.63761e-12 -1.58747e-12 454.145

474.88 -16.6225 -6.84667e-12
-16.6225 428.337 5.88803e-12
-6.84667e-12 5.88803e-12 441.956

462.305 12.8416 1.93813e-12
12.8416 511.275 -1.04864e-12
1.93813e-12 -1.04864e-12 489.121

240.776 -3.1805 5.16883e-12
-3.1805 360.687 -4.9738e-14
5.16883e-12 -4.9738e-14 226.965

432.404 14.2736 3.46545e-12
14.2736 485.356 3.69364e-12
3.46545e-12 3.69364e-12 456.882

458.111 -29.489 -5.40012e-13
-29.489 443.17 -3.69186e-12
-5.40012e-13 -3.69186e-12 440.762

304.187 25.1055 -9.29035e-13
25.1055 394.584 3.6285e-12
-9.29035e-13 3.6285e-12 264.341

603.551 26.0981 -3.50327e-12
26.0981 597.956 -3.61755e-12
-3.50327e-12 -3.61755e-12 558.158

608.285 -27.8074 5.87796e-12
-27.8074 595.031 -1.02346e-11
5.87796e-12 -1.02346e-11 558.291

463.494 -30.4189 1.94333e-12
-30.4189 459.038 6.12547e-13
1.94333e-12 6.12547e-13 459.073

434.584 -31.16 5.15321e-12
-31.16 436.359 -3.85173e-12
5.15321e-12 -3.85173e-12 424.662

474.101 20.8274 4.43556e-12
20.8274 431.915 -5.32108e-12
4.43556e-12 -5.32108e-12 443.973

465.222 15.006 3.35613e-12
15.006 410.116 -4.16496e-12
3.35613e-12 -4.16496e-12 427.463

646.07 3.08358 -1.8092e-11
3.08358 645.728 9.29227e-12
-1.8092e-11 9.29227e-12 574.62

649.891 -7.00017 1.16283e-11
-7.00017 641.398 -1.01751e-11
1.16283e-11 -1.01751e-11 575.148

496.988 4.82431 4.54747e-12
4.82431 442.034 3.6664e-12
4.54747e-12 3.6664e-12 477.413

443.557 6.73095 3.30069e-12
6.73095 502.989 4.00805e-12
3.30069e-12 4.00805e-12 471.05

441.972 6.73632 -3.72603e-12
6.73632 502.514 3.76765e-12
-3.72603e-12 3.76765e-12 469.773

321.536 58.634 -3.54561e-12
58.634 281.122 -3.59061e-12
-3.54561e-12 -3.59061e-12 225.077

420.228 -28.1996 -3.4414e-12
-28.1996 444.023 2.75098e-12
-3.4414e-12 2.75098e-12 421.032

520.578 17.9745 -5.46526e-13
17.9745 467.53 1.55638e-12
-5.46526e-13 1.55638e-12 499.51

472.98 9.5397 -1.51701e-12
9.5397 421.197 3.49424e-12
-1.51701e-12 3.49424e-12 436.203

440.63 -26.7231 3.57344e-12
-26.7231 450.726 2.68052e-12
3.57344e-12 2.68052e-12 433.415

469.276 -20.2376 -6.01119e-12
-20.2376 422.716 7.784e-12
-6.01119e-12 7.784e-12 437.176

312.473 60.2319 -2.7877e-12
60.2319 281.372 -2.67164e-12
-2.7877e-12 -2.67164e-12 223.215

492.681 31.069 2.35486e-12
31.069 489.043 -3.70607e-12
2.35486e-12 -3.70607e-12 493.138

410.863 -19.786 2.62723e-12
-19.786 457.881 2.54611e-14
2.62723e-12 2.54611e-14 423.498

474.129 28.8576 -2.80664e-13
28.8576 449.631 -1.80478e-12
-2.80664e-13 -1.80478e-12 456.518

430.956 -4.14479 2.06524e-12
-4.14479 492.973 6.77976e-13
2.06524e-12 6.77976e-13 456.468

423.93 19.6091 7.1602e-12
19.6091 465.711 3.53021e-12
7.1602e-12 3.53021e-12 434.108

452.748 30.5186 -1.55668e-12
30.5186 443.598 -1.99899e-12
-1.55668e-12 -1.99899e-12 439.608

428.643 -22.4731 -2.9825e-12
-22.4731 461.137 2.41407e-12
-2.9825e-12 2.41407e-12 433.813

443.574 -27.3524 -4.62623e-12
-27.3524 450.433 1.67333e-12
-4.62623e-12 1.67333e-12 435.046

294.778 11.2569 4.32617e-12
11.2569 372.585 -5.44749e-14
4.32617e-12 -5.44749e-14 258.101

357.298 -33.456 8.82257e-13
-33.456 389.117 1.42109e-12
8.82257e-13 1.42109e-12 314.129

419.658 -11.6905 -1.06507e-13
-11.6905 476.361 2.32288e-12
-1.06507e-13 2.32288e-12 439.345

478.397 26.4844 -4.28694e-13
26.4844 446.799 -2.76579e-12
-4.28694e-13 -2.76579e-12 456.084

452.345 29.4778 -2.66335e-12
29.4778 449.026 5.06854e-13
-2.66335e-12 5.06854e-13 442.4

426.808 -21.4338 1.11614e-13
-21.4338 461.784 1.6307e-12
1.11614e-13 1.6307e-12 432.63

422.931 -11.7823 -1.8332e-12
-11.7823 476.647 -4.64458e-12
-1.8332e-12 -4.64458e-12 439.928

457.706 28.4094 3.38041e-12
28.4094 447.087 2.16775e-12
3.38041e-12 2.16775e-12 442.571

425.105 -13.8777 -2.60236e-12
-13.8777 476.419 -1.98774e-12
-2.60236e-12 -1.98774e-12 442.105

311.265 27.8548 -3.10211e-12
27.8548 377.391 2.76164e-12
-3.10211e-12 2.76164e-12 289.984

485.17 -4.0413 -8.28441e-13
-4.0413 545.05 -1.82906e-12
-8.28441e-13 -1.82906e-12 511.037

432.985 31.0274 -4.43616e-12
31.0274 439.628 3.42363e-12
-4.43616e-12 3.42363e-12 426.019

509.31 14.9012 -3.50534e-12
14.9012 463.162 -1.89596e-12
-3.50534e-12 -1.89596e-12 488.606

516.921 -15.9274 -3.31291e-13
-15.9274 467.582 -7.31563e-13
-3.31291e-13 -7.31563e-13 493.923

383.925 -24.2044 -1.85925e-12
-24.2044 305.948 3.54324e-12
-1.85925e-12 3.54324e-12 285.354

442.279 -21.2671 6.16751e-12
-21.2671 475.999 3.291e-12
6.16751e-12 3.291e-12 459.321

447.828 26.6982 3.37922e-12
26.6982 466.207 -4.47405e-12
3.37922e-12 -4.47405e-12 457.841

522.975 -21.7279 -3.62495e-12
-21.7279 543.812 -4.91118e-12
-3.62495e-12 -4.91118e-12 525.309

579.584 14.1067 7.80087e-12
14.1067 617.621 5.67102e-12
7.80087e-12 5.67102e-12 557.053

620.208 9.44534 -1.21266e-12
9.44534 576.842 -7.34524e-13
-1.21266e-12 -7.34524e-13 556.872

523.47 32.7055 3.07902e-14
32.7055 520.652 1.56379e-12
3.07902e-14 1.56379e-12 519.525

414.891 26.0002 5.94073e-12
26.0002 448.905 5.33085e-12
5.94073e-12 5.33085e-12 420.376

478.095 26.6614 -3.50653e-12
26.6614 444.77 -2.06768e-12
-3.50653e-12 -2.06768e-12 455.507

332.363 45.1857 1.0895e-13
45.1857 349.489 1.03029e-13
1.0895e-13 1.03029e-13 286.739

571.391 -11.3437 -5.8041e-12
-11.3437 614.472 2.13252e-12
-5.8041e-12 2.13252e-12 554.595

641.327 -3.43296 -6.63977e-12
-3.43296 636.87 1.10794e-11
-6.63977e-12 1.10794e-11 572.396

634.905 -0.210062 -8.20233e-13
-0.210062 643.178 -6.854e-12
-8.20233e-13 -6.854e-12 572.223

272.963 -53.8023 -7.05095e-12
-53.8023 316.447 -2.6598e-12
-7.05095e-12 -2.6598e-12 220.909

566.638 -11.6 4.01738e-12
-11.6 562.125 4.94419e-13
4.01738e-12 4.94419e-13 540.898

563.772 8.81306 3.42955e-12
8.81306 586.963 -3.37419e-12
3.42955e-12 -3.37419e-12 546.84

478.243 -26.1994 4.73695e-12
-26.1994 440.441 -1.42286e-12
4.73695e-12 -1.42286e-12 453.481

494.349 1.01109 -3.81151e-12
1.01109 545.759 -6.70871e-13
-3.81151e-12 -6.70871e-13 514.057

447.65 -20.2678 2.7461e-12
-20.2678 484.157 1.92439e-13
2.7461e-12 1.92439e-13 470.637

506.3 6.25532 -4.57915e-12
6.25532 443.374 7.51177e-13
-4.57915e-12 7.51177e-13 486.124

461.274 15.5963 2.50836e-13
15.5963 521.252 -1.40273e-12
2.50836e-13 -1.40273e-12 497.556

471.181 7.19162 -3.41612e-12
7.19162 528.006 -7.28543e-12
-3.41612e-12 -7.28543e-12 497.69

493.762 20.3927 -4.01457e-13
20.3927 451.517 -1.89981e-12
-4.01457e-13 -1.89981e-12 469.75

241.065 -3.1139 -4.49988e-12
-3.1139 358.559 1.06345e-12
-4.49988e-12 1.06345e-12 227.063

463.7 -27.6236 -1.01235e-11
-27.6236 463.39 1.01252e-13
-1.01235e-11 1.01252e-13 461.19

488.344 -26.1162 1.19371e-12
-26.1162 481.597 -4.06371e-12
1.19371e-12 -4.06371e-12 485.869

497.537 -31.4837 3.27116e-12
-31.4837 489.958 2.43731e-12
3.27116e-12 2.43731e-12 498.98

355.599 32.7494 -1.45424e-12
32.7494 285.778 5.37526e-12
-1.45424e-12 5.37526e-12 248.366

563.882 -20.1165 -6.50887e-12
-20.1165 569.614 1.05057e-12
-6.50887e-12 1.05057e-12 542.571

337.647 54.322 -3.50061e-12
54.322 356.657 -4.38642e-12
-3.50061e-12 -4.38642e-12 258.875

477.071 -21.4396 -1.5817e-12
-21.4396 506.489 -4.75472e-12
-1.5817e-12 -4.75472e-12 500.243

504.772 14.6504 -1.69524e-12
14.6504 451.987 -1.6116e-12
-1.69524e-12 -1.6116e-12 481.56

449.83 -14.5724 1.25766e-12
-14.5724 396.986 -5.52151e-14
1.25766e-12 -5.52151e-14 400.84

452.593 24.0466 3.71259e-12
24.0466 478.779 1.63129e-12
3.71259e-12 1.63129e-12 467.847

493.666 20.4279 2.62368e-12
20.4279 449.5 -1.03118e-12
2.62368e-12 -1.03118e-12 469.342

505.565 11.4006 -6.80123e-13
11.4006 564.416 -2.637e-12
-6.80123e-13 -2.637e-12 526.711

475.895 -31.5801 4.45303e-12
-31.5801 470.355 -8.85573e-12
4.45303e-12 -8.85573e-12 475.063

559.27 19.8124 -4.63955e-12
19.8124 510.44 5.01229e-13
-4.63955e-12 5.01229e-13 526.487

439.957 -18.4434 1.14427e-12
-18.4434 482.464 2.59822e-12
1.14427e-12 2.59822e-12 459.148

465.897 4.28315 6.2786e-13
4.28315 526.107 -2.72552e-12
6.2786e-13 -2.72552e-12 495.51

588.64 9.92673 4.37872e-12
9.92673 552.462 5.85458e-13
4.37872e-12 5.85458e-13 545.189

590.423 -8.51334 -1.36187e-14
-8.51334 554.804 3.18649e-12
-1.36187e-14 3.18649e-12 545.706

382.309 18.5122 1.76451e-12
18.5122 302.287 2.38506e-12
1.76451e-12 2.38506e-12 286.134

502.677 7.96499 -5.70507e-12
7.96499 453.6 -6.22169e-13
-5.70507e-12 -6.22169e-13 487.765

232.815 7.74042 -2.69133e-12
7.74042 381.515 -8.10019e-13
-2.69133e-12 -8.10019e-13 187.186

236.985 -11.385 1.81433e-12
-11.385 387.209 -4.96906e-12
1.81433e-12 -4.96906e-12 189.45

249.287 56.4065 -1.65793e-14
56.4065 354.776 6.63173e-13
-1.65793e-14 6.63173e-13 184.023

505.014 -28.9504 9.21929e-13
-28.9504 478.615 -4.54155e-12
9.21929e-13 -4.54155e-12 491.343

258.471 -49.19 -4.10931e-13
-49.19 341.84 -8.76336e-13
-4.10931e-13 -8.76336e-13 220.733

249.292 -55.949 -8.07887e-12
-55.949 344.751 -9.01442e-12
-8.07887e-12 -9.01442e-12 181.115

434.653 26.2198 -1.75859e-13
26.2198 454.391 8.11795e-13
-1.75859e-13 8.11795e-13 432.823

329.923 73.8432 2.69533e-12
73.8432 280.01 9.40285e-13
2.69533e-12 9.40285e-13 184.827

540.127 13.0473 5.06558e-12
13.0473 554.946 5.62513e-14
5.06558e-12 5.62513e-14 532.077

562.383 0.039323 2.23362e-12
0.039323 532.453 -2.15176e-12
2.23362e-12 -2.15176e-12 531.869

338.601 -73.1287 -5.21065e-13
-73.1287 279.857 4.493e-12
-5.21065e-13 4.493e-12 186.31

432.669 -23.4237 7.50807e-13
-23.4237 466.309 -3.37212e-12
7.50807e-13 -3.37212e-12 447.57

358.93 34.7287 7.57912e-14
34.7287 310.974 5.4096e-12
7.57912e-14 5.4096e-12 258.037

267.705 63.4903 3.15718e-12
63.4903 345.21 -3.63798e-12
3.15718e-12 -3.63798e-12 185.845

293.692 21.6299 2.71072e-12
21.6299 367.66 6.56068e-13
2.71072e-12 6.56068e-13 254.496

267.576 -65.9191 -5.38118e-12
-65.9191 344.845 2.87059e-12
-5.38118e-12 2.87059e-12 184.301

291.639 -12.3809 -3.63679e-12
-12.3809 370.881 1.49451e-12
-3.63679e-12 1.49451e-12 253.442

550.307 6.84181 -2.39668e-12
6.84181 582.077 -9.02981e-14
-2.39668e-12 -9.02981e-14 541.117

329.888 -45.9742 1.76215e-12
-45.9742 341.815 -3.60008e-12
1.76215e-12 -3.60008e-12 276.614

259.781 47.5313 3.67351e-12
47.5313 340.216 -4.47642e-13
3.67351e-12 -4.47642e-13 223.145

370.216 37.911 2.24532e-12
37.911 244.92 -9.71786e-12
2.24532e-12 -9.71786e-12 187.356

481.889 -29.2855 3.18501e-12
-29.2855 460.51 5.98099e-12
3.18501e-12 5.98099e-12 467.713

480.976 12.8967 1.65845e-12
12.8967 525.829 2.55647e-12
1.65845e-12 2.55647e-12 504.103

354.417 -38.1119 1.01844e-12
-38.1119 300.076 1.01608e-12
1.01844e-12 1.01608e-12 251.814

482.533 -28.802 -2.67697e-12
-28.802 460.32 5.90935e-12
-2.67697e-12 5.90935e-12 468.462

365.263 -36.3429 1.78109e-12
-36.3429 230.988 4.62208e-12
1.78109e-12 4.62208e-12 182.77

481.501 -28.3172 7.39142e-12
-28.3172 472.754 -1.72632e-12
7.39142e-12 -1.72632e-12 477.917

436.352 -25.2946 5.38739e-12
-25.2946 466.223 -8.68875e-12
5.38739e-12 -8.68875e-12 448.209

314.798 69.4597 3.70903e-12
69.4597 292.141 7.22385e-12
3.70903e-12 7.22385e-12 184.523

290.781 -22.9325 1.70886e-12
-22.9325 359.163 -3.45087e-12
1.70886e-12 -3.45087e-12 247.028

312.4 -71.6917 9.85286e-13
-71.6917 288.122 1.88057e-12
9.85286e-13 1.88057e-12 182.026

268.546 50.7367 -3.14889e-12
50.7367 320.059 -1.83557e-12
-3.14889e-12 -1.83557e-12 221.504

459.86 -30.2119 -5.32552e-12
-30.2119 454.844 2.6444e-12
-5.32552e-12 2.6444e-12 454.399

559.286 -14.6403 1.45987e-12
-14.6403 544.412 1.90366e-12
1.45987e-12 1.90366e-12 533.716

635.922 11.0926 -6.93401e-12
11.0926 631.384 -4.80445e-12
-6.93401e-12 -4.80445e-12 570.019

619.957 -5.15999 5.54579e-12
-5.15999 639.739 -1.56408e-12
5.54579e-12 -1.56408e-12 568.497

453.869 13.0836 -1.07299e-12
13.0836 506.554 -2.13518e-12
-1.07299e-12 -2.13518e-12 482.571

634.152 -10.667 1.08299e-12
-10.667 631.314 -9.00036e-12
1.08299e-12 -9.00036e-12 569.874

622.696 4.09173 7.21408e-12
4.09173 642.685 8.72917e-12
7.21408e-12 8.72917e-12 569.698

643.375 7.43415 6.18069e-12
7.43415 619.148 -2.72138e-12
6.18069e-12 -2.72138e-12 569.021

584.776 -12.1152 5.10703e-15
-12.1152 631.668 8.79089e-12
5.10703e-15 8.79089e-12 560.593

307.443 -30.4697 8.59165e-13
-30.4697 371.632 -4.35563e-12
8.59165e-13 -4.35563e-12 280.769

589.625 -12.9721 4.06549e-12
-12.9721 549.113 3.33925e-12
4.06549e-12 3.33925e-12 543.826

527.206 -34.4178 -1.79382e-12
-34.4178 521.486 9.83214e-13
-1.79382e-12 9.83214e-13 519.964

565.464 -18.1768 -9.82325e-13
-18.1768 537.989 3.42689e-13
-9.82325e-13 3.42689e-13 534.258

502.569 15.4591 1.6526e-12
15.4591 452.115 1.49332e-12
1.6526e-12 1.49332e-12 480.206

586.349 9.86428 -8.36505e-12
9.86428 642.135 1.16812e-11
-8.36505e-12 1.16812e-11 563.103

636.658 19.2277 -6.2171e-12
19.2277 591.723 -4.50488e-12
-6.2171e-12 -4.50488e-12 562.924

569.776 11.3063 -3.201e-12
11.3063 544.338 6.29867e-13
-3.201e-12 6.29867e-13 536.435

353.441 -15.3392 1.80004e-12
-15.3392 231.515 3.60127e-12
1.80004e-12 3.60127e-12 219.013

437.205 24.9639 -1.02229e-12
24.9639 461.911 -7.04918e-12
-1.02229e-12 -7.04918e-12 445.721

317.089 -61.3542 5.03301e-12
-61.3542 277.848 -8.52651e-13
5.03301e-12 -8.52651e-13 218.088

334.208 -57.4568 3.55745e-12
-57.4568 357.322 -5.06617e-12
3.55745e-12 -5.06617e-12 252.539

383.333 -36.5438 1.0715e-11
-36.5438 305.738 3.46863e-12
1.0715e-11 3.46863e-12 257.759

562.496 -5.15896 4.68277e-12
-5.15896 616.952 -7.18018e-12
4.68277e-12 -7.18018e-12 552.95

562.203 2.89123 2.49667e-12
2.89123 615.817 -1.32797e-12
2.49667e-12 -1.32797e-12 552.548

598.77 -24.4564 4.07082e-12
-24.4564 575.742 -6.42545e-12
4.07082e-12 -6.42545e-12 551.578

602.329 -21.7606 -3.44358e-12
-21.7606 573.433 1.3447e-12
-3.44358e-12 1.3447e-12 551.844

598.783 26.1361 5.91764e-12
26.1361 580.458 1.79671e-12
5.91764e-12 1.79671e-12 552.733

625.742 3.09954 -3.02247e-12
3.09954 630.735 -1.08733e-11
-3.02247e-12 -1.08733e-11 568.42

599.059 -20.509 1.92439e-12
-20.509 576.353 3.2078e-13
1.92439e-12 3.2078e-13 552.266

607.81 -18.5684 1.70145e-12
-18.5684 620.263 9.40274e-12
1.70145e-12 9.40274e-12 563.185

632.9 2.43457 3.79578e-12
2.43457 635.527 -6.39844e-12
3.79578e-12 -6.39844e-12 570.505

607.886 -20.5264 -9.32957e-13
-20.5264 572.426 -7.43109e-14
-9.32957e-13 -7.43109e-14 553.405

607.072 20.9559 4.50373e-12
20.9559 573.685 2.04784e-12
4.50373e-12 2.04784e-12 553.809

633.852 -3.4586 4.77559e-12
-3.4586 636.778 -1.60642e-12
4.77559e-12 -1.60642e-12 571.279

632.182 -3.1173 -4.19235e-12
-3.1173 625.756 -1.86517e-14
-4.19235e-12 -1.86517e-14 569.394

609.682 12.1098 -2.19795e-12
12.1098 620.485 -5.10555e-12
-2.19795e-12 -5.10555e-12 563.916

587.203 26.9298 -3.56959e-12
26.9298 583.018 3.51287e-12
-3.56959e-12 3.51287e-12 551.702

FIELD solute_concentration_TPM 2
S_ext 1 563 float
0.98634
0.986149
0.98617
0.986151
0.986119
0.98617
0.986339
0.986161
0.986186
0.986153
0.9863
0.986161
0.986164
0.986152
0.986127
0.986168
0.986144
0.986159
0.98619
0.986173
0.986179
0.986065
0.986175
0.986173
0.986173
0.986155
0.986291
0.986167
0.986238
0.986093
0.986165
0.986237
0.986296
0.986102
0.986101
0.986102
0.986089
0.986104
0.986166
0.986295
0.986238
0.986089
0.986089
0.986165
0.98627
0.986237
0.986188
0.986184
0.986169
0.986247
0.986242
0.986222
0.986117
0.986224
0.986119
0.986276
0.986101
0.986223
0.986101
0.986171
0.986143
0.986135
0.986287
0.986138
0.986135
0.986149
0.986142
0.986156
0.986174
0.986148
0.986118
0.986118
0.986239
0.986144
0.98617
0.986299
0.986129
0.986149
0.986156
0.986215
0.986256
0.986115
0.986139
0.986258
0.986237
0.986274
0.986167
0.986148
0.98627
0.986073
0.986223
0.986074
0.986126
0.986151
0.986223
0.986241
0.986257
0.986153
0.986129
0.986166
0.986204
0.986234
0.986257
0.986156
0.986155
0.986154
0.986138
0.986168
0.986258
0.986144
0.986171
0.986267
0.986261
0.986157
0.986154
0.986224
0.986103
0.986259
0.986104
0.986223
0.986195
0.986128
0.986148
0.986143
0.986143
0.986126
0.986107
0.986153
0.986257
0.986221
0.986116
0.986149
0.986138
0.986148
0.986234
0.9861
0.986268
0.986164
0.986138
0.9861
0.986231
0.986157
0.986195
0.986153
0.98626
0.986154
0.986159
0.986171
0.98617
0.986207
0.986183
0.986148
0.986236
0.986164
0.986153
0.986149
0.986151
0.986232
0.98623
0.986161
0.986183
0.986235
0.98627
0.98624
0.98623
0.986154
0.986231
0.986232
0.986237
0.98623
0.986126
0.986223
0.986241
0.986149
0.986223
0.986138
0.986126
0.986161
0.986119
0.986156
0.986239
0.986153
0.986153
0.986231
0.986147
0.986243
0.986143
0.98614
0.986127
0.986153
0.986147
0.986255
0.986222
0.986237
0.986149
0.986159
0.986157
0.986139
0.986148
0.98615
0.986148
0.986189
0.986215
0.986139
0.986239
0.986138
0.98615
0.986233
0.986134
0.986148
0.986134
0.986154
0.986155
0.986138
0.986206
0.986153
0.986214
0.98614
0.986143
0.986143
0.986143
0.986144
0.986144
0.986144
0.986153
0.986127
0.986127
0.986127
0.986127
0.98612
0.986119
0.986207
0.986151
0.986148
0.986185
0.986128
0.986127
0.986148
0.986214
0.986148
0.986153
0.986207
0.986133
0.986207
0.986139
0.986148
0.986206
0.986213
0.986256
0.986248
0.986138
0.986263
0.986165
0.986214
0.98619
0.986149
0.986143
0.98609
0.986143
0.986266
0.986213
0.986148
0.98616
0.986215
0.986143
0.986194
0.98609
0.986213
0.986143
0.986145
0.986158
0.986128
0.986148
0.986119
0.986163
0.986268
0.986274
0.986125
0.986177
0.98616
0.986209
0.986133
0.98615
0.986213
0.986151
0.986204
0.986159
0.986205
0.986213
0.98608
0.986124
0.986125
0.986125
0.986153
0.986204
0.986104
0.986146
0.986182
0.986202
0.986208
0.986124
0.986207
0.986128
0.986207
0.98627
0.986203
0.986261
0.986139
0.986206
0.986079
0.986206
0.986142
0.986208
0.986144
0.986206
0.986169
0.986294
0.986169
0.986207
0.986122
0.986207
0.986181
0.986146
0.986148
0.986206
0.986203
0.986194
0.986141
0.986203
0.986161
0.986168
0.986121
0.986204
0.986195
0.98618
0.986194
0.986205
0.986193
0.986136
0.986161
0.986195
0.986207
0.986157
0.986157
0.986203
0.986121
0.986307
0.986171
0.986256
0.986179
0.986366
0.986366
0.986363
0.986364
0.986361
0.986371
0.986371
0.986139
0.98611
0.986161
0.986182
0.98619
0.986194
0.986159
0.986194
0.986195
0.98611
0.986194
0.986135
0.986222
0.986129
0.98617
0.986183
0.986195
0.986125
0.986171
0.986182
0.98617
0.986181
0.986192
0.986216
0.986182
0.986172
0.986133
0.986189
0.986194
0.98619
0.986183
0.986172
0.986158
0.98619
0.986158
0.986171
0.986183
0.98616
0.986171
0.986193
0.986143
0.986181
0.98611
0.98627
0.986139
0.986136
0.986172
0.986181
0.986148
0.986307
0.98617
0.986181
0.986292
0.986083
0.986084
0.986169
0.986191
0.98618
0.986189
0.986064
0.986063
0.986157
0.986161
0.986161
0.986312
0.986192
0.986141
0.986185
0.986187
0.986183
0.986307
0.986145
0.986191
0.986171
0.986171
0.986186
0.986182
0.986186
0.986185
0.986294
0.98626
0.986181
0.986171
0.98618
0.986187
0.986182
0.98618
0.98618
0.986272
0.98613
0.986189
0.986149
0.986144
0.986273
0.986169
0.98617
0.986121
0.986077
0.986077
0.986123
0.986193
0.986171
0.986274
0.98608
0.986063
0.986063
0.986309
0.986103
0.986092
0.986173
0.986128
0.986161
0.986151
0.986141
0.986141
0.986162
0.986306
0.986168
0.986151
0.986142
0.9863
0.986098
0.986299
0.98614
0.986155
0.986206
0.986164
0.986163
0.986115
0.986158
0.986115
0.986169
0.986143
0.986096
0.986097
0.986276
0.986149
0.986342
0.986342
0.986342
0.986146
0.986313
0.986343
0.986187
0.986341
0.986114
0.986114
0.986341
0.986176
0.986297
0.986346
0.986296
0.986346
0.986296
0.986102
0.98628
0.986312
0.986339
0.986163
0.986136
0.986299
0.986163
0.98634
0.986156
0.986176
0.986347
0.9863
0.986347
0.986308
0.986172
0.98611
0.986063
0.986064
0.986152
0.986063
0.986063
0.986064
0.986075
0.986277
0.986097
0.986124
0.986111
0.986155
0.986073
0.986073
0.98611
0.986308
0.986178
0.986316
0.986303
0.986295
0.986081
0.986082
0.986083
0.986083
0.986081
0.986068
0.986087
0.986074
0.986067
0.986084
0.986084
0.986067
0.986067
0.986073
0.986086
P_ext 1 563 float
0.0199404
0.0199355
0.0199363
0.0199356
0.0199337
0.0199362
0.0199404
0.0199359
0.0199368
0.0199356
0.0199396
0.0199359
0.019936
0.0199356
0.0199342
0.0199362
0.0199352
0.0199358
0.0199369
0.0199364
0.0199365
0.0199305
0.0199364
0.0199363
0.0199364
0.0199357
0.0199394
0.0199361
0.0199382
0.0199322
0.0199361
0.0199382
0.0199395
0.0199328
0.0199327
0.0199328
0.0199321
0.0199329
0.0199361
0.0199395
0.0199382
0.019932
0.019932
0.0199361
0.0199389
0.0199382
0.0199368
0.0199367
0.0199362
0.0199384
0.0199383
0.0199378
0.0199337
0.0199378
0.0199338
0.0199391
0.0199327
0.0199378
0.0199327
0.0199363
0.0199352
0.0199347
0.0199393
0.0199348
0.0199347
0.0199353
0.0199351
0.0199358
0.0199364
0.0199354
0.0199337
0.0199338
0.0199382
0.0199351
0.0199363
0.0199396
0.0199343
0.0199353
0.0199357
0.0199376
0.0199386
0.0199335
0.0199349
0.0199387
0.0199381
0.019939
0.0199361
0.0199352
0.0199389
0.0199307
0.0199378
0.0199307
0.0199342
0.0199353
0.0199378
0.0199383
0.0199386
0.0199356
0.0199344
0.0199361
0.0199373
0.0199381
0.0199386
0.0199358
0.0199357
0.0199357
0.0199348
0.0199361
0.0199387
0.0199352
0.0199363
0.0199389
0.0199387
0.0199358
0.0199357
0.0199378
0.0199327
0.0199387
0.0199327
0.0199378
0.019937
0.0199343
0.0199355
0.0199351
0.0199351
0.0199342
0.019933
0.0199356
0.0199386
0.0199378
0.0199336
0.0199355
0.0199349
0.0199355
0.0199381
0.0199326
0.0199389
0.019936
0.0199348
0.0199326
0.019938
0.0199357
0.019937
0.0199356
0.0199387
0.0199357
0.0199357
0.0199362
0.0199362
0.0199374
0.0199366
0.0199354
0.0199381
0.0199361
0.0199356
0.0199355
0.0199355
0.019938
0.019938
0.019936
0.0199367
0.0199381
0.0199389
0.0199382
0.019938
0.0199357
0.019938
0.019938
0.0199382
0.019938
0.0199341
0.0199378
0.0199383
0.0199354
0.0199378
0.0199348
0.0199342
0.0199358
0.0199338
0.0199357
0.0199382
0.0199357
0.0199356
0.019938
0.0199352
0.0199383
0.0199351
0.0199349
0.0199341
0.0199357
0.0199352
0.0199386
0.0199378
0.0199382
0.0199355
0.0199359
0.0199358
0.0199349
0.0199354
0.0199354
0.0199354
0.0199369
0.0199376
0.019935
0.0199382
0.0199349
0.0199353
0.0199381
0.0199346
0.0199354
0.0199345
0.0199356
0.0199357
0.0199349
0.0199373
0.0199355
0.0199376
0.0199349
0.0199352
0.0199352
0.0199352
0.0199352
0.0199352
0.0199353
0.0199355
0.0199343
0.0199343
0.0199343
0.0199343
0.0199337
0.0199337
0.0199374
0.0199355
0.0199355
0.0199368
0.0199342
0.0199342
0.0199354
0.0199376
0.0199355
0.0199356
0.0199374
0.0199345
0.0199374
0.0199349
0.0199355
0.0199373
0.0199376
0.0199386
0.0199384
0.0199349
0.0199388
0.0199361
0.0199376
0.0199369
0.0199355
0.0199352
0.019932
0.0199352
0.0199389
0.0199375
0.0199355
0.0199358
0.0199376
0.0199352
0.019937
0.0199321
0.0199376
0.0199351
0.0199352
0.0199359
0.0199342
0.0199352
0.0199338
0.019936
0.0199389
0.019939
0.019934
0.0199365
0.0199359
0.0199374
0.0199345
0.0199355
0.0199375
0.0199354
0.0199373
0.0199357
0.0199373
0.0199376
0.0199313
0.0199341
0.0199342
0.0199342
0.0199356
0.0199373
0.0199329
0.0199352
0.0199366
0.0199373
0.0199374
0.019934
0.0199374
0.0199342
0.0199374
0.0199389
0.0199373
0.0199387
0.0199348
0.0199373
0.0199313
0.0199374
0.019935
0.0199374
0.0199351
0.0199374
0.0199362
0.0199394
0.0199362
0.0199374
0.0199339
0.0199374
0.0199366
0.0199352
0.0199355
0.0199374
0.0199373
0.019937
0.0199349
0.0199373
0.0199359
0.0199362
0.0199338
0.0199373
0.019937
0.0199365
0.019937
0.0199373
0.019937
0.0199346
0.0199359
0.019937
0.0199373
0.0199357
0.0199357
0.0199373
0.0199339
0.0199397
0.0199362
0.0199386
0.0199365
0.0199409
0.019941
0.0199409
0.0199409
0.0199408
0.0199411
0.0199411
0.0199348
0.0199331
0.0199359
0.0199366
0.0199369
0.019937
0.0199357
0.019937
0.019937
0.0199331
0.019937
0.0199346
0.0199378
0.0199344
0.0199362
0.0199367
0.019937
0.019934
0.0199362
0.0199366
0.0199362
0.0199366
0.019937
0.0199376
0.0199366
0.0199363
0.0199346
0.0199368
0.019937
0.0199369
0.0199367
0.0199363
0.0199357
0.0199369
0.0199357
0.0199363
0.0199366
0.0199358
0.0199363
0.019937
0.0199351
0.0199366
0.0199333
0.0199389
0.0199349
0.0199346
0.0199363
0.0199366
0.0199353
0.0199397
0.0199362
0.0199366
0.0199394
0.0199314
0.0199314
0.0199361
0.0199369
0.0199366
0.0199369
0.0199301
0.0199301
0.0199358
0.0199358
0.0199358
0.0199398
0.019937
0.019935
0.0199368
0.0199368
0.0199367
0.0199397
0.0199351
0.0199369
0.0199362
0.0199362
0.0199368
0.0199366
0.0199368
0.0199367
0.0199395
0.0199387
0.0199366
0.0199362
0.0199366
0.0199368
0.0199366
0.0199365
0.0199366
0.019939
0.0199343
0.0199369
0.0199354
0.0199351
0.019939
0.0199362
0.0199363
0.0199338
0.0199313
0.0199313
0.0199339
0.019937
0.0199362
0.019939
0.0199315
0.0199303
0.0199304
0.0199398
0.0199328
0.0199322
0.0199363
0.0199343
0.019936
0.0199355
0.019935
0.0199349
0.0199358
0.0199397
0.0199362
0.0199354
0.019935
0.0199396
0.0199325
0.0199396
0.019935
0.0199356
0.0199373
0.0199361
0.0199359
0.0199335
0.0199358
0.0199336
0.0199363
0.0199351
0.0199323
0.0199323
0.0199391
0.0199354
0.0199405
0.0199405
0.0199405
0.0199352
0.0199399
0.0199405
0.0199368
0.0199404
0.0199335
0.0199335
0.0199404
0.0199365
0.0199395
0.0199405
0.0199395
0.0199406
0.0199395
0.0199328
0.0199392
0.0199398
0.0199404
0.019936
0.0199347
0.0199396
0.0199359
0.0199404
0.0199357
0.0199365
0.0199406
0.0199396
0.0199406
0.0199397
0.0199363
0.0199332
0.0199304
0.0199305
0.0199355
0.0199304
0.0199304
0.0199305
0.0199311
0.0199391
0.0199325
0.019934
0.0199331
0.0199356
0.0199309
0.0199309
0.0199331
0.0199398
0.0199365
0.0199399
0.0199397
0.0199395
0.0199316
0.0199316
0.0199317
0.0199317
0.0199316
0.0199305
0.0199317
0.0199308
0.0199304
0.0199316
0.0199316
0.0199304
0.0199305
0.0199309
0.0199317
FIELD solute_flux_TPM 2
S_ext 3 563 float
-5.39408e-05 1.80444e-05 2.63047e-18
2.34339e-06 4.50079e-06 1.67723e-18
-8.34278e-06 -6.62874e-06 1.01165e-18
-2.74876e-06 2.77212e-06 -8.41476e-19
1.51985e-05 -4.34301e-06 6.00455e-18
1.81586e-06 -1.04143e-05 1.45325e-20
-5.31169e-05 -1.82639e-05 -1.70775e-18
-9.1062e-06 -6.78283e-06 -1.83076e-18
1.45324e-05 6.15189e-07 -6.52346e-19
7.54522e-06 -2.64798e-06 1.18612e-18
3.59097e-05 8.36119e-06 4.66689e-18
1.52798e-06 -1.12769e-05 2.36563e-18
9.00874e-06 7.3489e-06 3.32903e-19
1.75879e-06 9.0201e-06 -2.86659e-18
1.37795e-05 -2.01937e-06 4.77439e-18
-1.0592e-05 -1.72701e-07 5.00512e-19
1.83856e-06 9.28943e-06 4.97616e-19
6.73091e-06 -1.6101e-06 -9.92484e-19
6.47065e-06 1.12827e-05 -9.91047e-19
-9.653e-06 1.2205e-06 -4.99741e-19
-2.33961e-06 -1.38709e-05 1.68225e-18
2.86301e-05 4.0395e-05 3.91028e-18
1.03558e-05 1.05676e-06 3.3368e-18
7.40221e-06 -7.4049e-06 3.33977e-18
-9.79493e-06 -2.16603e-06 -3.3548e-19
-4.29879e-07 -7.28229e-06 1.03206e-18
4.12092e-05 -3.22661e-06 -2.52236e-18
9.29651e-06 6.74429e-06 -1.83088e-18
-1.63047e-05 -1.32361e-05 9.6632e-19
3.24435e-05 -8.58596e-06 -6.56372e-21
-1.07681e-05 -3.95909e-06 3.96073e-22
3.48069e-06 -2.09055e-05 2.90561e-18
3.09192e-05 -3.15164e-05 -1.56974e-19
-3.457e-06 -2.77222e-05 -3.27792e-19
-1.95855e-05 2.43829e-05 1.74957e-18
-2.57352e-05 -1.08569e-05 -1.59263e-21
2.15066e-05 2.8166e-05 2.61362e-18
-2.96074e-05 -5.7963e-06 2.76761e-18
9.52623e-06 -7.25108e-06 -3.25305e-19
3.02063e-05 3.28411e-05 2.98392e-18
2.10492e-05 -9.21455e-06 1.29156e-18
2.19343e-05 -2.71096e-05 -2.07222e-18
-1.25171e-05 -3.253e-05 -3.51551e-19
-1.03203e-05 4.16945e-06 -1.00222e-18
1.97795e-05 -1.9347e-05 1.26725e-18
-1.95246e-05 6.94186e-06 1.45222e-18
-2.67934e-06 -1.32227e-05 1.70999e-20
5.15109e-06 1.31869e-05 -3.34226e-19
-1.06564e-05 3.86608e-06 3.33732e-19
-1.17378e-05 1.84569e-05 4.00719e-18
2.12406e-05 1.00067e-05 9.68055e-19
1.91948e-05 -6.66092e-06 -1.29818e-18
-1.03987e-05 1.04211e-05 1.89334e-18
-1.51972e-05 -1.32031e-05 3.25541e-18
-1.40098e-05 -3.42769e-06 4.79737e-18
-2.8837e-05 1.71725e-05 9.55774e-19
-1.9389e-05 -2.5093e-05 -1.56626e-19
4.01421e-06 -1.98729e-05 1.79479e-18
-3.14335e-05 4.28668e-06 3.30689e-18
3.9771e-06 8.97671e-06 -1.66643e-18
-3.64775e-06 -5.40107e-06 -6.66635e-19
-4.30079e-06 -1.18498e-05 -4.07365e-18
3.72328e-05 1.6227e-05 4.78762e-19
6.14907e-06 1.19508e-05 3.3568e-19
8.16418e-06 -9.52553e-06 7.06535e-19
-1.11676e-06 -1.36643e-05 -1.50233e-18
3.07628e-06 -5.79999e-06 1.04176e-18
-6.5749e-06 -3.64957e-06 -1.63758e-19
-6.94993e-06 7.73559e-06 1.16343e-18
1.68683e-06 -2.76999e-06 8.49413e-19
-9.96824e-06 -1.04828e-05 -2.2112e-18
-1.41296e-05 3.43646e-06 -1.5864e-19
-2.50064e-06 2.22698e-05 1.44416e-18
-1.17528e-05 7.03816e-06 -1.86171e-18
-5.93878e-06 9.47735e-06 1.49527e-18
-3.84652e-05 4.7828e-06 2.89553e-21
5.22386e-06 -1.4305e-05 -4.89561e-19
-1.24252e-05 -5.78281e-06 6.86109e-19
1.26185e-06 7.63294e-06 3.38495e-19
1.72733e-05 3.31729e-06 1.1484e-18
2.22779e-05 -1.89879e-05 4.00703e-18
1.4752e-05 1.35791e-05 -3.09693e-18
7.97162e-06 -1.94138e-06 1.02263e-18
-2.07432e-05 1.52047e-05 2.71926e-18
2.47725e-05 3.17478e-06 2.11427e-18
-3.57521e-06 3.18481e-05 1.42834e-18
-1.15157e-06 -1.10135e-05 1.68603e-18
1.20694e-05 6.55603e-06 1.69039e-18
1.90228e-05 1.99237e-05 -1.10298e-18
4.25385e-05 2.64437e-05 -3.69278e-18
-3.54053e-06 1.99713e-05 -3.2675e-19
4.44323e-05 -2.49695e-05 -3.87774e-18
-1.79874e-05 3.47802e-06 3.75187e-18
1.18732e-05 7.33546e-06 2.86755e-18
-1.90813e-05 6.34849e-06 3.24788e-18
1.07653e-05 1.86811e-05 1.60369e-18
6.40616e-06 -2.87436e-05 -2.23489e-18
1.27191e-06 7.62855e-06 1.34946e-18
-9.70821e-06 -1.16476e-05 -1.70451e-18
1.99964e-06 1.14336e-05 -1.50696e-18
1.73026e-05 3.45825e-06 -8.16977e-19
-1.00679e-05 2.14044e-05 3.39677e-18
2.6466e-05 -8.82257e-06 1.2861e-18
-2.4932e-06 4.84673e-06 -5.06245e-19
6.61694e-06 3.85619e-06 3.39888e-19
-1.4738e-06 -7.40496e-06 5.33087e-19
2.157e-06 -1.27257e-05 -3.03454e-18
1.15193e-05 2.57066e-06 3.18911e-18
-5.35446e-06 2.65945e-05 1.11742e-18
-6.51404e-06 1.25906e-07 -1.98216e-21
6.14986e-06 7.79199e-06 -1.63875e-19
-1.75683e-06 -2.71107e-05 3.26016e-19
2.74491e-05 8.51971e-06 -1.10313e-18
2.94937e-06 -4.87817e-06 6.82287e-19
-7.26082e-06 -2.33646e-06 8.41433e-19
-1.88506e-05 -8.01736e-06 4.23299e-18
1.06398e-05 2.77619e-05 -5.36986e-18
-2.7732e-05 -9.87955e-06 6.19456e-21
1.07884e-05 -2.78358e-05 -2.95149e-18
-2.45298e-06 -2.06979e-05 6.56717e-19
1.43619e-05 3.95437e-07 1.98411e-18
-4.75841e-06 1.22294e-05 1.35624e-18
-1.04866e-06 2.59314e-06 -1.33826e-18
-2.45166e-06 -1.09094e-05 5.24374e-19
3.49028e-06 -5.61146e-06 -1.64513e-19
6.21091e-06 1.04861e-05 -2.63507e-21
2.23436e-05 7.29501e-06 6.93114e-19
5.76899e-06 -4.8747e-06 3.20095e-18
-5.49459e-06 -2.9093e-05 3.28123e-19
1.67148e-05 -1.23276e-05 -8.0708e-19
3.30576e-06 1.8431e-05 -1.1959e-18
-1.83072e-06 -1.8716e-06 1.18134e-18
-5.70917e-06 -5.48457e-06 3.57381e-19
-3.15245e-06 5.80113e-08 2.55175e-18
-1.48038e-05 1.82776e-05 5.82987e-18
1.29188e-05 -2.50085e-05 -8.41292e-19
-1.72959e-05 2.73357e-05 8.02151e-19
-1.06559e-05 6.20576e-06 -1.50994e-18
1.66625e-06 8.17078e-06 -4.22388e-18
-1.51695e-05 -2.3674e-05 -1.90436e-18
8.97749e-06 2.17633e-05 8.01392e-19
1.16283e-05 6.11937e-06 -1.50825e-18
1.49672e-05 -5.64848e-06 9.9845e-19
-8.23318e-07 -7.39575e-06 1.84817e-19
-2.17794e-05 -2.00301e-05 3.25215e-19
-1.79261e-06 7.40396e-06 -6.76108e-19
1.14338e-05 6.74402e-06 5.03126e-19
1.24663e-05 -5.87965e-06 -2.32003e-18
5.46115e-06 -9.38417e-06 8.49574e-19
1.59855e-05 -7.08912e-06 1.15388e-18
1.25285e-05 -5.9325e-06 -2.14541e-18
3.14046e-06 1.92304e-07 -1.49804e-18
1.67756e-05 1.32806e-05 -1.45358e-18
-1.76567e-06 -1.11058e-05 -1.46066e-19
-6.88441e-06 -2.87915e-06 4.05556e-18
7.52653e-07 -2.54482e-06 3.68553e-19
-2.10543e-06 1.04089e-05 -3.35314e-19
-2.2326e-05 1.76256e-06 -2.11481e-18
-7.89747e-06 -2.14167e-05 -1.78288e-18
-5.16595e-06 6.3623e-06 -2.17953e-18
8.89274e-06 1.08649e-05 -9.56735e-22
1.73101e-05 -1.23446e-05 1.94001e-18
-2.37535e-05 -1.28769e-05 -1.5838e-18
1.12517e-05 -1.80414e-05 4.34215e-18
1.48332e-05 -1.77672e-05 -4.82858e-19
-7.13846e-06 2.50856e-06 -1.34474e-18
-1.28283e-05 -1.84638e-05 -4.7068e-18
-2.23081e-05 -3.70982e-06 1.94783e-18
-2.69239e-06 -2.05338e-05 -1.61092e-18
9.96066e-06 -2.06169e-05 2.92118e-18
-6.06212e-06 -1.73546e-05 -1.68858e-18
2.85825e-06 2.03781e-05 4.07075e-18
-1.03611e-05 -1.83537e-05 -3.37615e-18
1.97735e-06 -1.06987e-05 -4.80806e-19
-1.59842e-05 1.16379e-05 -4.4914e-21
-9.89789e-06 -8.00642e-06 -1.65231e-19
-1.81058e-05 -3.36975e-06 -4.99529e-19
1.03851e-05 -6.09608e-06 -4.17773e-18
-2.84048e-06 1.58634e-05 4.28098e-18
8.17224e-06 -6.14069e-06 -1.33287e-18
-1.90561e-05 -8.35486e-06 1.61808e-18
-5.80434e-06 -4.8477e-06 3.39032e-18
6.04832e-06 4.92347e-06 2.02485e-18
1.39392e-05 1.87189e-05 -3.07879e-18
-1.14642e-05 -7.10231e-06 8.54129e-19
-2.09009e-05 -5.0496e-07 -2.57114e-18
-1.07817e-05 -3.24448e-06 2.3857e-18
-3.0251e-06 -1.09222e-05 -3.88093e-18
1.1848e-05 1.42755e-05 -5.80331e-18
-7.2209e-06 3.8004e-06 2.18125e-18
4.48351e-07 -1.35178e-05 -3.52993e-18
-2.68454e-05 6.88253e-06 3.5296e-18
1.62632e-05 1.32322e-05 -2.76488e-18
2.35528e-06 2.13788e-05 4.81623e-19
-1.57961e-06 2.51598e-06 3.69573e-18
-5.89141e-06 1.64974e-07 -1.9069e-21
2.89308e-06 5.07705e-06 3.35346e-19
-7.72842e-06 2.28136e-06 2.05664e-18
-1.34238e-06 -2.46682e-06 -3.17524e-18
1.1205e-06 1.36503e-05 1.51347e-18
3.00952e-06 2.50007e-07 -1.83627e-18
-1.26603e-05 3.05741e-06 2.30841e-18
-1.12893e-05 1.24732e-05 6.51797e-18
-2.02863e-06 7.66183e-06 -8.5105e-19
-1.89073e-05 1.17797e-05 5.15278e-18
-6.19591e-06 5.91833e-06 2.04342e-18
1.15172e-05 -7.8007e-06 -2.35193e-18
2.39221e-05 -2.37698e-06 4.37318e-18
-1.39898e-05 7.42665e-06 2.88637e-18
1.46942e-06 2.99387e-06 8.54228e-19
1.46106e-05 -2.83274e-06 -2.20409e-18
-1.13287e-05 6.82083e-06 -3.36881e-18
-6.44893e-06 3.64011e-06 -3.37348e-19
7.96118e-06 2.56722e-06 -4.94486e-19
1.43195e-05 -8.87895e-06 6.63739e-19
-1.14094e-05 6.48621e-06 1.6359e-19
-1.6155e-05 -3.39646e-06 -9.77419e-19
-1.10281e-05 -2.83646e-06 -1.85066e-18
6.66559e-06 5.78299e-08 2.20109e-18
6.82852e-06 7.92491e-08 3.51007e-19
2.9147e-06 5.48669e-06 2.85096e-18
3.21256e-06 -5.80317e-06 1.54759e-18
-3.29451e-06 5.59086e-06 8.40552e-19
-3.45177e-06 -5.72129e-06 -1.67184e-18
6.56819e-06 -4.96514e-06 -1.57381e-19
-1.34889e-05 2.16288e-06 2.91783e-18
-1.33372e-05 -2.20555e-06 1.18982e-18
-8.52511e-06 1.05376e-05 -8.36581e-19
-8.57328e-06 -1.05783e-05 -6.61647e-19
4.99013e-06 -1.33772e-05 -3.258e-18
4.80776e-06 1.32631e-05 -1.88254e-18
9.67086e-07 1.68753e-05 1.96563e-18
7.50518e-06 -2.00976e-06 -1.33321e-18
1.62237e-06 -2.5242e-06 -1.8291e-18
-1.38264e-05 9.29617e-07 8.24967e-19
5.15173e-06 -1.3162e-05 -1.87639e-18
4.88136e-06 1.32094e-05 -6.46777e-18
3.17394e-06 -5.899e-08 1.68841e-18
5.80127e-06 1.59542e-05 -2.44804e-18
-1.47764e-06 -2.63127e-06 3.88827e-18
1.55121e-06 -7.43063e-06 -6.60289e-19
-1.45022e-05 -7.77865e-06 4.26004e-18
-1.41221e-05 -7.55921e-06 -1.52558e-18
-1.41945e-05 8.77744e-06 6.44259e-19
2.15061e-06 -8.27564e-06 -3.359e-19
-1.04998e-06 2.2051e-06 1.67376e-18
-4.69946e-07 -1.65914e-05 5.03178e-19
-5.10434e-06 -1.5791e-05 8.26618e-19
2.13219e-05 1.98607e-05 1.12738e-18
2.32701e-05 -1.20291e-06 -6.38429e-19
-8.42002e-06 -2.44606e-06 6.7265e-19
-1.48577e-05 -2.64578e-05 -1.59482e-18
5.47492e-06 8.9925e-06 -2.36564e-21
-1.62833e-05 1.92145e-06 -2.77754e-18
1.32109e-05 3.78618e-06 5.05785e-19
-2.97027e-06 -1.24717e-08 2.01494e-18
-3.07304e-06 -5.55698e-06 3.55802e-19
-5.43624e-06 -2.58612e-05 -8.54669e-19
-6.43051e-06 -2.71385e-08 5.24622e-18
-3.08838e-05 -1.1592e-06 -2.07633e-18
1.12869e-05 -1.25454e-05 2.94864e-18
1.65128e-06 2.61592e-06 -1.99855e-18
-7.73694e-08 -1.14857e-05 2.36302e-18
-6.48061e-06 1.55641e-05 -1.95715e-18
-2.89049e-06 5.69987e-06 6.84425e-19
1.35094e-05 -8.925e-06 9.30332e-21
-2.51107e-05 -8.20326e-06 8.75207e-19
-9.95183e-06 -1.31364e-05 -2.27634e-18
3.32286e-06 5.62116e-06 3.46527e-19
1.11081e-05 3.34501e-06 1.35772e-18
-3.11917e-06 -4.77522e-06 3.65552e-19
1.33211e-05 2.42798e-06 -1.1762e-18
1.21393e-05 -6.51282e-06 -5.22809e-18
-2.4875e-07 1.79682e-05 1.03275e-18
5.50032e-06 -8.94489e-06 2.186e-18
3.19154e-05 1.36372e-06 -3.16738e-18
-2.71142e-05 7.0646e-06 6.34556e-19
1.53609e-05 7.6704e-06 -8.54163e-19
-4.21381e-06 -1.11405e-05 4.67325e-18
-1.00337e-05 -5.60718e-06 5.12185e-19
1.88481e-05 -1.55818e-07 3.27724e-19
-4.79715e-07 -1.60551e-05 -2.36024e-18
-8.23364e-06 -7.16108e-06 1.35328e-18
6.63043e-06 -1.53762e-05 -1.63579e-19
-3.65594e-07 1.35117e-05 1.6855e-18
5.1023e-06 1.69648e-05 1.80777e-18
1.1455e-05 -6.57707e-06 1.76285e-19
-1.22934e-05 1.23838e-05 2.46183e-18
1.0769e-05 1.31263e-05 -1.46968e-18
-4.32737e-05 1.03225e-05 1.56394e-18
-6.73645e-06 1.72309e-05 2.40212e-18
8.31437e-06 -1.0098e-05 -1.33402e-18
-4.63226e-06 -1.21764e-05 -3.2331e-18
-7.80488e-06 2.90185e-06 -1.52114e-18
-1.66622e-05 -4.5461e-06 9.8587e-19
-4.462e-06 2.60597e-05 1.21929e-18
-8.25542e-06 7.8809e-06 2.02033e-18
1.36695e-05 -2.99708e-06 1.71029e-19
-4.48082e-06 -1.67074e-05 2.64017e-18
-9.66907e-06 1.53911e-05 1.14035e-18
-1.44029e-05 8.29733e-06 1.36704e-18
-1.33208e-05 -9.70602e-06 -1.60121e-19
1.20939e-05 -1.39472e-05 -4.09674e-18
-1.76894e-05 -9.38347e-07 -6.51346e-19
7.79831e-06 -2.67242e-05 1.7451e-18
1.26913e-05 -1.23651e-05 2.6382e-18
1.59626e-05 2.80441e-05 6.4068e-19
1.29343e-06 1.31118e-05 1.66788e-19
1.89451e-06 -1.65764e-05 2.78714e-18
-2.8151e-05 3.30456e-05 7.69794e-18
-8.24802e-06 -1.57367e-05 2.14976e-18
1.09811e-05 -4.24945e-06 -2.35769e-18
-1.66523e-06 1.67092e-05 3.76405e-18
8.58251e-06 -7.97357e-06 8.49685e-19
9.03153e-06 1.58417e-05 -2.13238e-18
1.13538e-05 -9.63444e-07 6.76591e-19
1.39724e-05 -4.09181e-05 1.67213e-19
-3.84096e-06 -8.37215e-06 4.02244e-18
-1.49892e-05 6.43961e-06 2.28681e-18
-1.3278e-05 1.2412e-05 4.6061e-18
1.41332e-05 9.5617e-06 -1.30561e-18
1.22892e-05 -7.11351e-06 -9.83782e-19
9.91639e-06 8.39314e-06 -1.84695e-18
-3.60662e-06 -8.54276e-09 2.51965e-18
1.00321e-05 -1.50588e-05 -1.96347e-18
-1.10124e-05 -1.31135e-05 3.29552e-21
1.47965e-05 6.42868e-06 -4.91948e-19
8.54096e-06 -8.0293e-06 -2.36982e-18
6.17846e-06 -1.61829e-05 1.97209e-18
1.10172e-05 -4.65853e-06 -2.33814e-18
-1.0294e-05 -4.90334e-06 -6.70828e-19
8.7781e-07 -1.73852e-05 -1.51928e-19
-1.68081e-05 2.88763e-06 2.13596e-18
1.48796e-06 1.5967e-05 4.94131e-19
1.35391e-05 4.37509e-06 -1.65218e-18
-1.40415e-05 -6.91845e-06 -2.31069e-18
-5.86233e-06 1.65798e-05 -4.87908e-19
-9.87764e-07 -1.57415e-05 9.96776e-19
1.30043e-05 7.89617e-06 -3.3898e-19
-1.13491e-06 1.18476e-05 2.17491e-18
-1.30662e-05 8.79062e-06 -5.05342e-19
1.54365e-05 7.4699e-06 1.31475e-18
-1.11601e-05 -6.56265e-06 -3.0227e-18
1.0333e-07 -1.30054e-05 -2.33441e-18
1.20245e-05 1.30465e-05 -8.17542e-19
-1.46048e-05 -9.44106e-06 -2.73712e-18
3.15843e-05 -2.25998e-05 4.49396e-18
1.18437e-05 -7.12712e-06 6.81786e-19
5.6367e-06 2.79274e-05 3.83716e-18
1.12367e-05 -8.96699e-06 2.33977e-18
-1.47037e-05 5.67073e-05 -8.89217e-19
-1.47802e-05 -5.61677e-05 1.77579e-18
3.6913e-05 4.82531e-05 1.93835e-18
3.64689e-05 -4.82413e-05 3.10802e-18
6.02716e-05 -2.95237e-08 3.2711e-18
-5.18637e-05 2.1013e-05 2.89491e-19
-5.10221e-05 -2.12325e-05 -1.57715e-19
8.16361e-06 7.88582e-06 -1.00948e-18
1.97591e-05 1.47117e-05 3.10318e-18
7.56922e-06 2.20252e-06 -2.49785e-18
1.24339e-05 6.39669e-06 -1.99311e-18
3.23681e-06 1.31915e-05 3.28008e-19
-1.22153e-05 -9.6248e-06 -3.30629e-19
1.13513e-05 -6.72562e-06 -3.18313e-18
1.30456e-05 9.51738e-06 -4.95634e-19
-2.08778e-06 1.58533e-05 -3.28647e-19
1.98559e-05 -1.35082e-05 -1.72978e-18
2.41376e-06 -1.54559e-05 -3.24487e-19
1.46929e-05 3.3944e-06 1.8739e-18
1.95316e-05 7.25143e-06 8.16674e-19
9.42944e-06 9.36038e-06 -1.83546e-19
1.04905e-05 4.34561e-06 8.44358e-19
-1.20355e-05 7.08966e-06 -1.00117e-18
-1.45969e-05 5.84248e-06 2.63191e-18
1.54246e-05 -7.52317e-06 -6.67341e-18
-1.18773e-05 -6.51268e-06 -2.16758e-18
-1.20571e-05 -6.82487e-06 -2.49333e-18
-2.13067e-07 -1.35771e-05 -1.15479e-18
-9.8887e-08 -1.37934e-05 1.84105e-18
-1.30265e-05 -6.54811e-07 -1.69153e-19
1.75321e-05 -2.65947e-06 3.29421e-19
1.19096e-05 7.46443e-06 1.82736e-18
-1.166e-05 7.07274e-06 -1.83961e-18
-1.01024e-05 1.09996e-05 5.09677e-18
1.05178e-05 -9.05009e-06 8.39303e-19
-7.22239e-06 1.13022e-05 -9.92641e-19
-9.25793e-06 -9.6331e-06 -1.60751e-19
-8.05732e-07 1.38076e-05 8.31825e-19
-8.35024e-07 1.37067e-05 6.73134e-19
3.25812e-08 -1.30092e-05 -1.99808e-18
3.9878e-06 -1.29118e-05 3.34261e-19
-1.122e-05 -6.45879e-06 -6.67926e-19
1.02881e-05 -3.64661e-06 -1.98647e-18
4.18183e-07 1.40314e-05 -4.93222e-19
1.71919e-07 1.21126e-05 1.842e-18
-1.55975e-06 1.09846e-05 4.97996e-19
1.43944e-05 -3.6415e-06 -1.14926e-18
-1.09469e-05 3.48224e-06 -2.53622e-18
2.67464e-06 1.40446e-05 5.00053e-19
-2.1709e-05 8.51256e-06 7.22951e-18
6.1197e-06 2.73039e-05 2.68617e-18
-1.12514e-05 2.96867e-06 -2.71307e-18
1.3194e-05 -7.80744e-06 -3.39281e-18
5.71079e-07 1.37385e-05 -1.59812e-19
-1.3256e-05 4.35488e-06 1.32615e-18
1.62107e-06 -1.06729e-05 -3.52185e-18
5.94909e-07 -3.78299e-05 3.08742e-19
1.30384e-06 1.14569e-05 -3.49991e-18
-1.10557e-05 9.0371e-06 1.49112e-18
1.1261e-05 4.14469e-05 3.6258e-18
3.15118e-05 2.61342e-05 -2.27679e-18
3.61239e-05 -2.47159e-05 -6.6708e-18
9.80054e-06 -6.71205e-06 -1.99259e-18
-1.02937e-05 9.07623e-06 2.30435e-18
-1.30882e-05 -5.15117e-06 1.32991e-18
-1.27283e-05 -4.39483e-06 -3.27905e-19
4.44174e-05 -1.22051e-05 -6.58521e-18
4.53079e-05 9.52712e-06 3.61351e-19
7.20096e-06 2.51738e-06 2.02764e-18
4.62574e-07 1.28386e-05 -1.1764e-18
5.01716e-08 1.28302e-05 8.40263e-19
-3.15136e-05 -2.30604e-05 4.6791e-19
7.47659e-06 -1.1259e-05 4.45555e-18
7.81806e-06 8.34907e-06 -4.39003e-18
-1.383e-05 -2.2105e-06 1.82058e-18
-9.15031e-06 1.11006e-05 4.91144e-19
-1.22709e-05 5.90883e-06 1.64778e-18
3.1191e-05 2.23732e-05 2.78896e-18
1.05353e-05 4.66112e-06 -5.04182e-19
-3.68393e-06 1.2998e-05 1.48192e-18
-1.10836e-05 -7.5944e-06 -1.15963e-18
1.17923e-06 -1.34376e-05 -1.32117e-18
-5.81987e-06 -1.24995e-05 3.33127e-18
-1.12075e-05 -7.62559e-06 1.16403e-18
6.91371e-06 -1.23652e-05 1.16885e-18
9.28549e-06 -1.11027e-05 1.33933e-18
-1.92521e-06 -3.95873e-05 9.47038e-19
1.68872e-05 -2.67847e-05 -6.38132e-19
1.13717e-06 -1.35799e-05 -3.47696e-18
1.18724e-05 7.4402e-06 4.00943e-18
-9.43476e-06 -9.61714e-06 1.00547e-18
-6.41672e-06 1.27672e-05 2.31767e-18
-3.28901e-06 1.36668e-05 4.31123e-18
1.09512e-05 9.30683e-06 -2.15874e-18
3.93487e-06 -1.29726e-05 -6.50761e-19
-9.06639e-06 -2.59636e-05 1.63079e-19
-1.35892e-06 1.65842e-05 -1.87465e-18
9.70242e-06 9.48467e-06 1.6626e-19
-8.4704e-06 -6.69911e-06 -1.85188e-18
-8.88904e-06 6.96965e-06 -6.70333e-21
2.90569e-05 -1.24879e-05 1.59765e-19
4.97108e-06 -8.76981e-06 -8.22621e-19
-5.44674e-06 -8.18906e-06 -3.17974e-19
1.43432e-05 4.37555e-06 -1.5955e-19
8.81917e-06 -3.1817e-05 -3.65873e-18
-2.31499e-05 -2.35259e-05 -6.99342e-19
1.56404e-05 4.09861e-06 2.73183e-18
-6.10282e-06 -1.18365e-05 2.64963e-18
1.23401e-05 6.27465e-06 8.36684e-19
-1.87017e-05 -2.07664e-05 1.42697e-18
7.14203e-06 3.23511e-05 -3.34365e-19
3.13446e-05 -4.0483e-05 3.90006e-18
-1.93888e-05 -4.73766e-05 4.42774e-18
1.76285e-05 -3.44605e-05 2.78453e-18
-8.41825e-06 2.89035e-05 5.88251e-18
-4.79611e-06 2.55988e-05 3.49354e-18
-1.21991e-05 5.84035e-06 -1.73041e-19
4.00419e-06 1.60334e-05 -5.10051e-19
-1.57328e-06 8.24381e-06 1.65776e-19
6.71284e-06 2.15256e-06 3.47647e-19
-2.13046e-06 1.06988e-05 -8.38766e-19
-1.60901e-07 1.38363e-05 -5.0812e-19
1.10308e-05 6.42757e-06 -1.16634e-18
5.5067e-07 3.76509e-05 1.24316e-18
-9.62111e-06 6.93752e-06 -5.03235e-19
1.06134e-05 -4.09596e-06 -3.36356e-18
1.13267e-05 -2.93958e-06 -2.3562e-18
-3.85939e-05 -5.5452e-06 -2.19191e-18
-2.29462e-05 1.09184e-05 4.49842e-18
-2.8007e-05 -3.32083e-05 2.04631e-18
5.72377e-06 5.48951e-06 -8.59597e-19
9.41092e-06 4.86236e-06 -3.85362e-18
1.75611e-05 -2.80211e-06 1.64294e-18
-5.28727e-06 -8.60706e-06 -1.14933e-18
1.13822e-05 5.59726e-06 -1.83279e-18
4.88244e-06 -1.99334e-05 2.25602e-18
-9.0255e-06 6.61973e-06 -2.02018e-18
-1.48151e-05 -1.4193e-05 1.72083e-19
-3.80727e-06 1.06163e-05 1.49793e-18
-2.20024e-06 1.36333e-05 -1.63003e-19
2.29209e-05 1.42353e-05 -2.43238e-18
2.44376e-05 -1.2968e-05 -6.60689e-18
-2.69585e-05 -7.25991e-06 1.58345e-19
5.05129e-06 5.12103e-06 -1.66531e-18
-3.15773e-06 6.58258e-05 1.08283e-18
-1.40154e-08 -6.76158e-05 1.70634e-18
3.33265e-05 5.70334e-05 1.23659e-18
-1.26028e-05 5.50105e-06 -4.05462e-18
-1.78784e-05 3.61001e-05 -2.95218e-18
3.35313e-05 -5.50483e-05 1.68467e-18
-7.62955e-06 -1.18067e-05 -3.13671e-18
5.09854e-05 4.43875e-05 3.08388e-18
1.59577e-05 -1.18723e-05 -2.04069e-18
-2.32042e-06 -1.97456e-05 -2.58519e-18
5.34218e-05 -4.34033e-05 4.47981e-18
-4.43183e-06 9.4353e-06 -3.35343e-19
-3.4233e-05 -2.17474e-05 -4.71412e-18
-2.81934e-05 -5.88666e-05 -1.54914e-19
-1.59621e-05 -3.72621e-05 -1.7245e-18
-2.89847e-05 5.9831e-05 2.16297e-18
-6.8634e-06 4.14045e-05 1.58404e-19
1.06882e-05 2.48206e-05 -1.62709e-19
-1.83738e-05 2.36107e-05 -2.054e-18
-1.71076e-05 -3.51434e-05 -6.16278e-19
6.55992e-05 1.15098e-05 2.00953e-18
-1.10949e-05 6.97041e-06 -3.18471e-18
-3.92987e-06 1.07621e-05 2.55547e-18
-3.24666e-05 2.33818e-05 6.25064e-19
-1.12988e-05 6.48655e-06 -4.52776e-18
6.49531e-05 -1.02616e-05 3.08971e-18
-1.00788e-05 5.0661e-06 -4.03841e-18
4.73643e-06 -9.50434e-06 8.43779e-19
-5.04363e-05 -3.843e-05 -4.72653e-19
-1.71966e-05 3.72954e-05 -3.13473e-18
-5.16382e-05 3.81552e-05 4.58296e-19
1.55924e-05 3.43323e-05 1.54574e-18
-9.66068e-06 6.86463e-06 -3.16961e-18
-1.35736e-05 1.63093e-05 3.61268e-18
-2.41708e-05 3.03557e-05 3.73372e-18
-3.78986e-05 -4.88837e-06 2.99122e-18
-6.3492e-07 1.07128e-05 -1.00624e-18
-2.56014e-05 -3.04833e-05 -3.51627e-19
-3.92115e-05 6.93584e-06 1.77199e-18
-1.49351e-05 3.46444e-05 5.64021e-18
-1.1528e-05 4.61204e-05 -5.02038e-19
-1.19888e-05 2.65793e-05 3.006e-18
-2.23676e-05 1.80219e-05 4.84445e-18
1.6434e-05 -4.04464e-06 -2.21509e-18
2.56807e-05 -1.38664e-06 -3.80115e-18
8.94945e-06 5.44157e-06 -9.93193e-19
-8.09931e-06 -5.30634e-05 3.70201e-18
-5.00135e-05 -1.95045e-05 8.81986e-19
2.5007e-05 3.34496e-07 1.72185e-18
3.84041e-05 -7.41415e-06 1.49309e-19
-6.89769e-06 -8.75731e-06 3.50533e-18
-3.33232e-05 2.3428e-05 2.93679e-18
-2.98639e-05 3.42088e-05 7.79615e-19
4.0597e-05 -1.46279e-05 2.83357e-18
-1.8688e-05 -3.16675e-05 -3.31335e-18
-1.90224e-05 3.14226e-05 -1.02088e-18
-3.69095e-05 -1.306e-06 2.08626e-18
-1.67881e-05 3.30155e-05 8.63806e-19
-3.6792e-05 3.80547e-07 -3.30648e-18
4.57605e-05 1.63876e-05 -2.12658e-18
3.69396e-05 1.35799e-06 -4.54127e-18
3.47262e-05 -1.77916e-05 -1.94948e-18
1.01269e-05 -4.88136e-05 -1.42351e-18
1.83562e-05 -3.19743e-05 -2.79699e-18
1.82316e-05 3.19707e-05 -3.13319e-18
9.91727e-06 4.76953e-05 -4.24639e-18
4.99747e-05 -1.40918e-05 -1.41163e-18
3.20405e-05 1.58701e-05 7.03698e-19
3.07981e-05 8.41494e-06 -1.57076e-18
P_ext 3 563 float
-1.07714e-06 3.64205e-07 3.62261e-20
1.02122e-09 3.9894e-08 2.62223e-20
-9.92528e-08 -9.33376e-08 -7.44096e-21
-3.1397e-08 2.89816e-08 1.03022e-20
2.73917e-08 5.23522e-10 -1.55475e-20
3.26655e-08 -1.32572e-07 -1.77976e-20
-1.06051e-06 -3.68612e-07 1.18141e-20
-7.78132e-08 -8.8273e-08 -4.95213e-20
2.16456e-07 3.83417e-09 4.39526e-20
7.90276e-08 -7.42396e-09 -7.51426e-21
7.01134e-07 1.64335e-07 9.00582e-20
3.85357e-08 -1.1281e-07 6.57794e-20
8.83128e-08 1.05122e-07 7.28604e-20
-9.09716e-09 8.23495e-08 -8.66854e-20
2.47402e-08 9.16519e-09 -7.88588e-20
-1.38371e-07 -2.26514e-09 4.68325e-20
-1.72876e-08 5.42672e-08 -1.58695e-20
8.34127e-08 -1.2586e-08 3.40049e-20
9.58081e-08 1.70865e-07 -5.33936e-21
-1.2854e-07 1.29627e-08 3.87573e-20
-4.82556e-08 -1.82064e-07 -7.44638e-20
1.59131e-09 3.2869e-10 6.12706e-20
1.42367e-07 1.15909e-08 8.59272e-20
9.06366e-08 -1.0465e-07 -7.17876e-21
-1.31307e-07 -2.11443e-08 -2.33922e-20
-2.47526e-08 -7.18567e-08 2.66979e-20
8.06049e-07 -6.59386e-08 -3.18944e-20
9.8756e-08 8.3258e-08 7.51236e-20
-2.94926e-07 -2.34272e-07 2.60224e-21
1.73309e-08 3.26012e-09 -8.92624e-20
-1.31844e-07 -2.34798e-08 -1.29664e-20
5.76406e-08 -3.7508e-07 7.794e-21
6.05711e-07 -6.20324e-07 4.81501e-21
1.29048e-09 -2.84473e-08 4.87041e-20
-7.65558e-09 2.18775e-08 3.1833e-21
-2.37464e-08 -1.56441e-08 1.0211e-19
3.14476e-09 1.57079e-08 1.11667e-20
-2.40096e-08 4.08853e-09 1.2678e-19
9.53688e-08 -1.03722e-07 5.37772e-21
5.9106e-07 6.46468e-07 3.16008e-22
3.77552e-07 -1.71055e-07 4.28532e-20
5.84127e-09 -1.43845e-08 -1.02658e-19
-9.45434e-09 -1.25983e-08 1.07138e-20
-1.30974e-07 2.69038e-08 2.5932e-20
3.74574e-07 -3.67849e-07 8.88379e-20
-3.49025e-07 1.25631e-07 4.81276e-23
-4.40969e-08 -1.92427e-07 -7.68554e-20
7.95658e-08 1.93278e-07 6.17385e-20
-1.25631e-07 3.28521e-08 6.48883e-20
-2.16176e-07 3.3623e-07 4.03497e-20
3.8319e-07 1.87658e-07 -3.73748e-20
3.32732e-07 -1.09435e-07 3.78687e-20
-9.80308e-09 2.32977e-08 1.36529e-20
-2.60385e-07 -2.33659e-07 4.84567e-20
-2.55574e-08 3.37468e-09 8.30463e-20
-5.58474e-07 3.27967e-07 5.10221e-21
-7.10869e-09 -2.17862e-08 2.18867e-20
7.41465e-08 -3.43852e-07 -9.84096e-21
-2.2204e-08 -4.83672e-09 -1.02159e-20
5.81737e-08 1.16642e-07 -4.67741e-20
-3.10424e-08 -9.42071e-09 4.73363e-20
-3.27768e-08 -3.07882e-08 6.30613e-20
7.26775e-07 3.1997e-07 4.17297e-20
-6.24434e-10 6.34749e-08 1.05155e-20
9.81059e-09 -4.23513e-08 -2.31395e-20
1.64821e-08 -9.42217e-08 -3.64992e-20
-6.54091e-09 -3.08504e-08 -4.54111e-21
-7.54073e-08 -1.91642e-08 -2.55579e-21
-8.77801e-08 1.07404e-07 7.76719e-20
2.35416e-08 -8.5481e-09 -1.8023e-20
-9.66914e-09 -2.39686e-08 -2.38363e-20
-2.52776e-08 -3.70508e-09 4.29029e-20
-4.35081e-08 4.03084e-07 2.52474e-20
-7.74482e-08 3.9119e-08 2.37174e-21
-7.51367e-08 1.28517e-07 3.63427e-20
-7.55754e-07 8.88328e-08 3.63451e-23
3.42585e-11 -5.98539e-08 -1.82124e-20
-7.27606e-08 -6.09621e-08 -3.38581e-20
3.06381e-08 7.4764e-08 3.39963e-20
2.89657e-07 5.7908e-08 7.79638e-21
4.15136e-07 -3.61201e-07 8.52393e-20
1.13815e-08 2.78701e-08 2.38411e-20
2.8083e-08 8.71468e-09 -8.39366e-20
-3.8681e-07 2.86179e-07 7.66707e-21
4.5152e-07 5.48944e-08 5.0763e-20
-6.84363e-08 6.1198e-07 -2.33327e-21
-2.37255e-08 -1.22653e-07 -1.29222e-19
8.32888e-08 5.86606e-08 -1.41656e-19
3.60291e-07 3.79954e-07 -4.42891e-20
6.52877e-09 2.90534e-09 -1.31679e-19
-6.94404e-08 3.45796e-07 -2.2751e-20
5.89747e-09 -3.15973e-09 -8.68312e-21
-4.16976e-08 2.84373e-08 3.7426e-20
9.00154e-08 3.66342e-08 -7.57031e-21
-3.32962e-07 1.02933e-07 -5.28585e-20
1.93252e-07 3.39575e-07 -5.50019e-20
1.20224e-07 -5.42809e-07 -4.23053e-20
2.82616e-08 7.40942e-08 3.16166e-20
-5.1138e-08 -3.04287e-08 2.90294e-20
4.23712e-08 1.35514e-07 1.80149e-20
2.81729e-07 4.79416e-08 -8.42612e-20
-1.87018e-07 3.8637e-07 5.50687e-21
4.97149e-07 -1.62483e-07 1.76295e-20
-2.75889e-08 6.02348e-08 5.71861e-20
5.28772e-08 5.37022e-08 -3.11792e-20
-3.14275e-08 -7.2501e-08 5.88403e-21
-1.26422e-08 -5.52404e-08 -1.36934e-19
1.46245e-07 1.75326e-08 8.89353e-20
-1.06667e-07 4.98955e-07 3.23476e-20
-2.46719e-08 1.52203e-08 -9.41998e-20
7.29465e-08 1.08103e-07 5.18464e-20
-3.60691e-08 -5.1203e-07 2.72196e-20
5.1798e-07 1.55525e-07 1.24718e-20
3.5268e-08 -6.23218e-08 -2.83512e-20
-8.05185e-08 -9.21077e-09 2.62117e-20
-3.31298e-07 -1.32971e-07 1.05197e-20
1.63839e-08 1.75246e-08 -6.51453e-20
-5.26248e-07 -1.84041e-07 -2.51041e-21
1.66329e-08 -1.74762e-08 -4.62087e-20
-5.11713e-08 -3.598e-07 -2.27712e-20
2.22067e-07 8.42689e-09 1.0603e-20
-1.97802e-08 1.68793e-08 -2.63553e-21
5.30916e-09 2.42529e-08 -1.3078e-20
1.48554e-08 -6.50574e-08 -7.5024e-21
2.58037e-08 -1.20677e-08 -4.7047e-20
4.82006e-10 2.61369e-08 -8.01953e-21
2.25625e-08 -2.81673e-09 8.60953e-20
4.20907e-08 -6.20948e-08 -5.17189e-20
-1.07749e-07 -5.49563e-07 -3.47164e-20
2.84655e-07 -2.1913e-07 7.49175e-21
9.21813e-10 3.46822e-08 -3.20013e-20
-2.40042e-08 -4.34208e-09 -2.32639e-20
-7.81133e-09 -2.68486e-08 -3.11434e-20
-1.97948e-08 -1.39726e-08 3.51034e-21
-2.66114e-07 3.32541e-07 3.06976e-20
-3.0571e-10 -2.6415e-08 -2.92542e-20
-3.32869e-07 5.22657e-07 -5.1913e-20
-1.25108e-07 5.75346e-08 4.66994e-20
1.75926e-08 1.89724e-08 -7.65697e-20
-2.27418e-08 -1.32976e-08 3.76214e-20
1.62304e-07 3.91715e-07 1.00225e-20
9.36516e-08 8.34652e-08 -7.90543e-21
2.27306e-07 -7.49624e-08 2.87835e-21
1.27917e-08 -6.99446e-08 -2.57807e-20
-4.12418e-07 -3.80036e-07 -2.23559e-20
-3.97682e-08 6.87282e-08 -1.01883e-19
1.03266e-07 5.50836e-08 -1.20001e-19
1.51002e-07 -5.19865e-08 1.57038e-20
6.52114e-08 -1.3027e-07 8.12883e-21
2.58503e-07 -1.19199e-07 3.58671e-20
1.71992e-07 -8.11825e-08 -3.86665e-20
1.72856e-08 -1.43263e-08 -7.29912e-20
2.99839e-07 2.37169e-07 -1.51782e-20
-4.34056e-08 -1.25524e-07 -6.98425e-20
-5.33127e-08 -4.56124e-08 2.43728e-20
-8.71539e-09 -2.28791e-08 -7.50271e-20
1.19737e-08 8.95623e-08 2.59045e-21
-4.01042e-07 2.87529e-08 2.23502e-20
-1.46507e-07 -3.82832e-07 1.00016e-20
-6.30976e-08 8.04284e-08 5.17477e-20
1.24076e-07 1.65357e-07 3.09394e-20
3.08621e-07 -2.18894e-07 4.03328e-20
-4.51158e-07 -2.41214e-07 2.19144e-20
2.0071e-07 -3.26737e-07 -2.96078e-20
2.61354e-07 -3.21486e-07 -3.03016e-20
-7.69788e-08 7.62533e-09 4.42111e-20
-2.29436e-07 -3.32013e-07 7.08192e-21
-4.01618e-07 -6.29451e-08 -5.27265e-20
-4.78638e-08 -3.66508e-07 2.74906e-20
1.78662e-07 -3.69279e-07 -7.03885e-20
3.73603e-09 -5.0769e-08 1.35274e-20
5.30919e-08 3.53576e-07 6.88611e-20
-1.89138e-07 -3.30875e-07 -3.03014e-20
-1.77425e-08 -8.11936e-08 -4.78541e-21
-2.73415e-07 2.0469e-07 -3.54091e-20
-5.35695e-08 -1.75626e-08 6.326e-20
-4.17356e-08 -2.86825e-08 5.53305e-21
1.0913e-07 -5.59664e-08 -5.49478e-20
-1.5018e-08 2.12635e-08 4.29553e-20
5.80053e-08 -7.32148e-08 2.09904e-20
-3.40216e-07 -1.51303e-07 -3.73789e-20
-4.50696e-08 -6.07006e-08 -3.03748e-20
4.7103e-08 6.43936e-08 2.98788e-21
2.46009e-07 3.39582e-07 -9.86168e-20
-8.70852e-08 -4.01585e-08 6.59964e-20
-3.78449e-07 -8.51483e-09 -8.26606e-20
-4.85135e-08 -4.49919e-08 -4.61672e-21
-2.76155e-09 -6.51625e-08 -5.80326e-20
4.75208e-08 2.39685e-08 -1.12044e-19
-5.48046e-08 5.40207e-08 -2.33421e-20
-9.15297e-09 -9.59233e-08 -4.98711e-20
-5.05191e-07 1.24441e-07 7.25542e-20
2.76938e-07 2.36255e-07 -9.3745e-20
3.70039e-08 3.84775e-07 -3.75561e-20
-2.23122e-08 7.6713e-09 1.20511e-19
-7.4436e-08 2.31302e-09 -2.62886e-21
3.41738e-08 6.52452e-08 -5.15148e-21
-2.70538e-08 -6.64264e-09 3.36577e-21
3.20096e-09 -2.30641e-08 -1.01863e-19
-1.48851e-08 1.01535e-07 -5.14121e-21
1.64953e-08 1.738e-08 -1.17532e-19
-1.88019e-07 4.15619e-08 9.01287e-20
-1.9068e-07 2.08055e-07 5.37506e-20
-2.05877e-08 1.91046e-08 -1.33523e-20
-3.44959e-07 2.08188e-07 5.42766e-21
-8.85735e-09 2.93988e-08 7.67681e-20
9.31078e-08 -3.33537e-08 -5.25104e-20
4.32419e-07 -3.9783e-08 8.61018e-20
-5.4211e-08 3.43022e-08 7.95221e-20
2.1923e-08 1.01071e-08 -1.79307e-20
5.64243e-08 -3.53086e-08 -4.2393e-20
-9.67979e-08 3.2263e-08 -1.61072e-20
-7.04449e-08 1.84681e-08 1.04323e-19
2.47729e-08 -7.23624e-09 -1.55438e-20
2.29092e-07 -1.39324e-07 3.83849e-20
-9.0165e-08 5.74894e-08 3.65671e-20
-2.6933e-07 -5.61633e-08 -2.28902e-20
-5.72466e-08 -3.01412e-08 -3.14943e-20
2.18982e-08 -1.45373e-08 1.35635e-20
2.42574e-08 1.70415e-08 -1.30516e-19
-6.12212e-09 2.75776e-08 2.36543e-20
-2.48416e-09 -3.11153e-08 6.62088e-20
-2.52493e-08 1.29072e-08 7.58979e-20
-2.82582e-08 -1.44773e-08 -1.83012e-20
7.07903e-08 -2.67552e-08 -2.5952e-20
-2.59045e-08 -7.12412e-09 1.13841e-20
-2.58495e-08 6.86212e-09 -6.86938e-20
-6.37148e-09 2.56821e-08 1.21976e-19
-6.91712e-09 -2.6245e-08 -2.34879e-20
1.70817e-08 -1.91266e-08 -3.23387e-20
1.64223e-08 1.83055e-08 -6.93973e-20
9.91007e-09 2.73399e-07 7.41006e-20
5.30496e-08 -4.37597e-08 5.24408e-20
1.23813e-08 -2.33499e-08 -8.85081e-20
-2.0619e-07 7.62119e-09 4.38163e-20
1.95794e-08 -1.85889e-08 -1.87522e-20
1.82804e-08 1.88781e-08 -4.81815e-20
2.80456e-08 -6.10214e-10 1.86448e-20
9.4647e-08 2.67915e-07 2.2534e-20
-1.41898e-08 -2.32056e-08 -1.97877e-20
3.0683e-08 -7.02275e-08 -1.54985e-20
-2.30095e-07 -1.27306e-07 -1.48574e-20
-5.05671e-08 -3.28253e-08 -3.71086e-20
-2.30935e-07 1.36966e-07 -3.57787e-20
2.04818e-08 -2.10004e-08 7.89623e-21
-9.81645e-09 2.18186e-08 4.96237e-20
-5.40069e-09 -2.64746e-07 -1.50534e-20
-8.66741e-08 -2.6221e-07 1.30141e-20
3.97377e-07 3.78207e-07 7.992e-20
4.25048e-07 -2.41372e-08 -2.22414e-20
-3.01547e-08 6.56702e-09 -4.21092e-20
-2.84272e-07 -5.02348e-07 2.72666e-20
6.77862e-08 1.16226e-07 2.33194e-20
-2.72501e-07 3.20949e-08 -6.37383e-20
1.95633e-07 5.47043e-08 2.85185e-20
-2.67323e-08 -1.08127e-10 6.80296e-20
5.80118e-10 -2.77867e-08 2.6598e-20
-2.42864e-09 -1.90092e-08 5.64394e-21
-2.36975e-08 -1.40985e-08 -4.09478e-21
-5.89412e-07 -2.23358e-08 -1.2815e-20
1.85256e-07 -2.09524e-07 2.07633e-20
1.25982e-08 2.44367e-08 -4.42465e-20
6.44009e-09 -1.16989e-07 -5.42109e-20
-1.10502e-07 2.61692e-07 2.25428e-20
2.26406e-09 2.94014e-08 9.44551e-20
1.97683e-07 -1.41455e-07 7.45834e-20
-1.73925e-08 -7.60432e-09 1.00324e-19
-1.681e-07 -2.18482e-07 1.01404e-19
2.31645e-08 1.17896e-08 -2.06907e-20
5.48206e-08 5.29955e-08 -4.43686e-20
-3.90021e-08 -6.0757e-08 1.62954e-20
2.4002e-08 -7.75922e-09 -5.27842e-20
8.12316e-08 -5.67085e-08 4.89804e-21
-4.8254e-09 4.52973e-08 -5.15523e-21
6.68239e-08 -1.12628e-07 5.76766e-20
6.10156e-07 3.07433e-08 4.18233e-20
-5.16911e-07 1.36765e-07 1.97701e-20
4.32942e-08 3.01693e-08 -3.99776e-20
-6.40441e-08 -1.54192e-07 -3.02749e-20
-9.7354e-08 -6.35105e-08 8.02773e-21
3.1686e-07 -3.18459e-09 5.60505e-20
2.70959e-09 -6.04665e-08 -3.42914e-20
-7.91935e-08 -2.79637e-08 2.9048e-20
1.07986e-07 -2.58004e-07 -1.24274e-19
8.60944e-09 1.0394e-07 -2.33532e-20
8.86289e-08 2.74851e-07 1.91801e-19
1.06376e-07 -5.60581e-08 4.4562e-20
-1.94032e-07 2.06528e-07 -3.55814e-20
1.78418e-07 2.20469e-07 -8.13997e-20
-1.12258e-08 5.01953e-09 7.07417e-20
1.84618e-09 4.78994e-08 2.43437e-20
3.61682e-09 -2.1736e-08 -7.37342e-20
-1.72058e-08 -1.42749e-08 5.0059e-20
-5.92602e-08 4.69861e-08 -2.64652e-20
-2.71854e-07 -6.44106e-08 -1.01162e-20
9.51311e-10 3.05599e-08 -2.11589e-20
-7.11043e-08 2.12277e-08 1.4449e-19
1.92621e-07 -2.79258e-08 -5.0343e-21
-8.23668e-08 -2.66729e-07 4.64712e-20
-1.62227e-07 2.58359e-07 -4.0846e-20
-4.58138e-08 2.11752e-08 5.8628e-20
-2.17421e-07 -1.53842e-07 3.30961e-20
4.92215e-08 -2.30867e-08 -1.36666e-20
-2.94804e-07 -1.44354e-08 3.3476e-23
1.44312e-07 -5.09227e-07 7.62912e-21
1.97183e-07 -2.07064e-07 6.4267e-20
3.01497e-07 5.34552e-07 2.60892e-21
-2.82389e-09 6.46197e-08 -3.43066e-20
2.58817e-08 -2.68569e-07 -3.52719e-20
-1.04907e-08 6.35399e-09 4.14106e-20
-1.39776e-07 -2.60822e-07 1.22976e-19
4.69055e-08 -4.01415e-08 -2.89632e-20
-2.6966e-08 2.71668e-07 1.31359e-20
6.54744e-08 -1.92217e-08 3.43328e-20
1.48979e-07 2.65497e-07 1.24999e-20
1.49219e-07 -3.48441e-09 -1.79184e-20
2.72336e-07 -8.03545e-07 4.19406e-20
-5.77098e-08 -1.07438e-07 4.74951e-20
-2.40673e-07 1.04866e-07 3.57742e-20
-3.37276e-08 1.65744e-08 1.38497e-19
2.28476e-07 1.53007e-07 -8.4052e-20
1.62855e-07 -8.99094e-08 -3.3428e-20
8.60905e-08 3.78244e-08 -6.04017e-20
-1.76078e-08 1.48775e-08 -3.37613e-20
1.63343e-07 -2.5234e-07 -7.40238e-20
-1.74142e-07 -2.17311e-07 5.87788e-20
2.24686e-07 8.86265e-08 -5.1273e-20
5.71629e-08 -3.53327e-08 -3.17891e-20
1.0504e-07 -2.61072e-07 -9.6907e-20
1.23443e-07 -2.34019e-08 -1.82726e-20
-1.19792e-07 -4.7793e-08 -1.83113e-20
-5.20924e-09 -4.86294e-08 5.63909e-20
-2.74572e-07 3.81284e-08 5.6425e-20
2.88483e-08 2.40869e-07 9.75742e-20
1.87843e-07 4.38339e-08 3.87927e-20
-2.13374e-07 -9.5505e-08 -2.0757e-20
-1.04918e-07 2.69026e-07 2.29309e-20
-2.39809e-08 -2.34671e-07 -4.08087e-20
6.20472e-08 3.02828e-08 -6.34171e-20
-4.02695e-08 1.135e-07 4.9634e-20
-1.91878e-07 1.37617e-07 -1.81961e-20
2.46422e-07 1.24295e-07 -7.41831e-21
-1.1219e-07 -3.52454e-08 -5.51441e-20
-2.72033e-08 -1.15531e-07 -8.08585e-20
1.88313e-07 2.18897e-07 -1.02178e-19
-4.42754e-08 -2.00838e-08 2.92429e-20
6.19173e-07 -4.45215e-07 -9.21014e-21
1.31135e-07 -9.17461e-08 1.07432e-20
1.07081e-07 5.24746e-07 7.50071e-20
1.38275e-07 -1.32933e-07 5.73343e-20
-2.98921e-07 1.13838e-06 2.33674e-21
-3.00654e-07 -1.12729e-06 1.36963e-20
7.38675e-07 9.70953e-07 3.48147e-20
7.29512e-07 -9.70692e-07 5.35594e-20
1.20917e-06 -4.71398e-10 8.34301e-20
-1.04235e-06 4.19356e-07 -6.45187e-20
-1.02507e-06 -4.23916e-07 6.25234e-20
4.98579e-08 2.70481e-08 -6.3185e-20
3.19928e-08 1.5534e-08 2.97904e-21
9.29212e-08 1.25143e-08 3.64669e-20
1.64046e-07 8.76712e-08 -4.14515e-20
4.86619e-08 1.93836e-07 1.12867e-19
-1.75867e-07 -1.51095e-07 1.79674e-20
8.85706e-08 -8.16457e-08 -1.58379e-20
1.88967e-07 1.51654e-07 -1.56523e-19
-4.37005e-08 2.38573e-07 6.41491e-20
3.10297e-08 -1.52408e-08 3.45715e-20
4.44759e-08 -2.28946e-07 -9.23422e-20
5.81186e-08 3.91866e-08 -2.38644e-21
3.40823e-07 1.19394e-07 -6.81688e-20
7.64446e-09 2.45389e-08 -5.57605e-20
1.31732e-07 4.3117e-08 3.6566e-20
-1.63037e-07 9.0186e-08 -2.60144e-20
-2.23218e-07 7.72211e-08 2.05772e-20
4.42018e-08 -3.02827e-08 4.69765e-21
-1.4252e-07 -6.59512e-08 5.05582e-21
-1.5659e-07 -9.2751e-08 -4.41569e-20
-1.37255e-08 -1.57196e-07 -1.55615e-19
6.19346e-10 -1.8054e-07 -3.05154e-20
-1.98772e-07 -8.59253e-09 -1.03285e-20
2.95015e-07 -4.58054e-08 8.87706e-20
1.59161e-07 9.80904e-08 -2.80785e-20
-1.31708e-07 8.98474e-08 -4.17535e-20
-5.93905e-08 2.90743e-08 9.29783e-20
1.48552e-07 -1.33107e-07 6.70883e-20
-1.11614e-07 1.73787e-07 2.28183e-20
-1.3749e-07 -1.4483e-07 7.96545e-20
-1.30294e-08 1.89301e-07 1.03277e-19
-2.83213e-08 1.59772e-07 7.01077e-20
4.66879e-09 -1.15995e-07 -8.5952e-20
5.98396e-08 -1.93406e-07 -7.18012e-20
-9.78116e-08 -6.27704e-08 2.56092e-21
1.35512e-07 -3.86464e-08 5.96376e-20
3.31989e-10 1.89067e-07 8.25145e-20
-4.08941e-09 1.20808e-07 5.48516e-20
-3.03602e-08 1.35889e-07 1.03085e-20
2.22399e-07 -5.47323e-08 5.64395e-20
-4.67135e-08 4.45967e-08 -6.07458e-20
5.04085e-08 1.8922e-07 6.9748e-20
-3.04683e-08 1.92307e-08 1.07748e-19
1.12314e-07 5.20798e-07 4.69677e-20
-5.51011e-08 2.97438e-08 4.45048e-20
5.84618e-08 -3.04317e-08 1.56544e-20
1.68148e-08 1.6079e-07 5.18948e-20
-1.88567e-07 4.47923e-08 1.00797e-19
-5.79592e-09 -8.17466e-08 -2.87594e-20
7.77866e-09 -7.4299e-07 -2.31972e-21
2.25714e-08 1.3631e-07 -4.17536e-20
-1.40872e-07 1.34016e-07 2.8423e-20
2.18747e-07 8.13576e-07 8.13914e-20
1.05093e-08 6.9202e-09 -8.46426e-20
9.07995e-09 -6.59999e-09 -9.38466e-22
1.06058e-07 -8.2705e-08 -1.55509e-20
-1.50539e-07 1.34787e-07 2.63555e-21
-1.80695e-07 -5.33773e-08 -3.34463e-20
-1.85683e-07 -6.09848e-08 -1.28895e-20
-3.69576e-09 2.27419e-09 -5.34467e-20
-2.55211e-09 -1.2275e-09 -1.70948e-19
8.67359e-08 1.76245e-08 1.36082e-19
2.75274e-08 1.26591e-07 -5.32965e-21
-3.18148e-09 1.25872e-07 3.4021e-20
-6.22314e-07 -4.52048e-07 4.83366e-20
1.1047e-07 -1.73752e-07 6.71482e-20
5.58826e-08 2.01306e-08 -1.86545e-20
-2.04943e-07 -2.20473e-08 4.1345e-20
-1.29585e-07 1.71198e-07 5.66512e-20
-1.67293e-07 7.86627e-08 -5.12727e-21
6.10964e-07 4.38989e-07 8.19659e-20
6.04692e-08 3.97473e-08 1.84272e-20
-5.94719e-08 1.94104e-07 5.14069e-20
-1.17242e-07 -1.00421e-07 2.07541e-20
2.91646e-08 -1.52916e-07 -1.24353e-19
-9.48676e-08 -1.80497e-07 4.18305e-20
-1.52021e-07 -1.042e-07 2.59361e-20
1.0419e-07 -1.84779e-07 -7.41744e-21
1.24982e-07 -1.71758e-07 4.15327e-20
-3.96107e-08 -7.75323e-07 1.72746e-20
3.18778e-07 -5.09896e-07 7.45311e-20
1.52296e-08 -1.8563e-07 -1.47222e-19
1.30907e-07 9.96546e-08 2.12294e-20
-1.17589e-07 -1.42737e-07 1.06156e-20
-1.01982e-07 1.90128e-07 4.14399e-20
-6.26548e-08 1.86349e-07 5.19979e-20
1.36494e-07 1.41339e-07 -5.32869e-21
6.69163e-08 -1.743e-07 -1.31425e-19
-1.73006e-07 -4.93291e-07 -1.47206e-20
3.89958e-09 5.99474e-08 -7.17357e-20
1.38185e-07 1.42192e-07 2.59832e-21
-7.44957e-08 -3.66851e-08 2.49685e-21
-6.1901e-08 3.37931e-08 4.45477e-20
5.53914e-07 -2.4266e-07 8.40019e-23
6.88003e-08 -1.13706e-07 -5.03087e-21
-6.53013e-08 -1.11715e-07 4.43518e-20
2.47876e-08 -2.14317e-09 -2.91095e-20
2.14019e-09 -9.39495e-09 -7.62513e-20
-6.94997e-09 -6.87521e-09 2.66638e-21
3.05194e-08 2.00067e-08 6.39746e-20
-9.5666e-08 -1.80591e-07 1.31214e-19
1.47214e-07 5.90399e-08 -5.1683e-20
-3.58212e-07 -3.93808e-07 6.89234e-20
1.35321e-09 1.15476e-08 3.01703e-20
1.33649e-09 2.06151e-09 3.34983e-20
2.57947e-09 -3.39989e-10 1.13353e-19
3.43739e-07 -6.78803e-07 7.26053e-20
-1.42897e-08 1.6831e-08 3.0085e-20
-3.27784e-09 2.03901e-08 2.23368e-20
-1.48021e-07 5.26195e-08 -4.93699e-20
-5.11463e-09 6.01286e-08 -5.04161e-20
-3.25204e-08 9.64247e-08 -1.30383e-20
6.70388e-08 2.8593e-09 5.51494e-20
1.51193e-08 5.79678e-08 -2.35818e-20
-3.96309e-09 8.01574e-08 -2.67318e-21
1.14896e-07 6.25094e-08 3.12824e-20
8.18481e-09 7.39521e-07 8.70309e-20
-1.06898e-07 1.01148e-07 3.62553e-20
8.01551e-08 -5.38923e-08 4.43958e-20
4.6276e-08 -4.22514e-08 -2.1099e-20
-7.58496e-07 -1.04144e-07 6.536e-20
-2.16223e-08 8.57049e-09 4.3432e-20
-5.52303e-07 -6.53324e-07 2.24422e-20
1.00379e-08 2.68787e-08 -9.50559e-20
9.68812e-08 1.88391e-08 -3.93077e-20
2.88424e-07 -3.74327e-08 5.30065e-21
-6.59354e-08 -1.08347e-07 4.19581e-20
1.26068e-07 3.6159e-08 -6.25282e-20
6.57209e-10 -3.20861e-08 4.87551e-20
-7.11015e-08 8.22619e-08 -2.37974e-20
-2.71919e-08 -1.72992e-08 -5.29054e-21
-6.40849e-08 1.30196e-07 2.60104e-20
1.15936e-08 8.21778e-08 -3.14474e-20
1.8843e-08 1.38117e-08 2.12849e-20
1.87003e-08 -1.32683e-08 -1.97277e-20
-5.14195e-07 -1.40076e-07 -2.21686e-20
5.66492e-08 2.11396e-08 2.89354e-20
-6.8201e-08 1.32001e-06 1.03137e-22
-4.74464e-09 -1.35618e-06 2.41765e-20
6.67533e-07 1.14273e-06 6.25737e-20
-6.92862e-08 5.49648e-08 -4.77147e-20
-3.53717e-07 7.1185e-07 -5.83737e-20
6.71367e-07 -1.10295e-06 3.60408e-20
-1.11023e-07 -1.79691e-07 -5.27255e-21
1.0195e-06 8.93315e-07 1.20347e-19
1.19882e-08 -2.12627e-08 -9.6063e-20
-1.24913e-08 -2.15451e-08 3.1831e-20
1.06868e-06 -8.73426e-07 4.12765e-20
-6.54903e-08 1.28793e-07 -5.17503e-20
-6.71302e-07 -4.27533e-07 3.61313e-20
-5.66084e-07 -1.17988e-06 -2.65783e-20
-3.17061e-07 -7.29408e-07 -2.5919e-21
-5.81948e-07 1.19952e-06 -6.6924e-20
-1.37527e-07 8.12874e-07 9.52681e-20
-9.69362e-10 2.84705e-08 -2.94433e-20
-3.53111e-07 4.54621e-07 -6.88589e-20
-3.38061e-07 -6.9191e-07 -5.27912e-20
1.31458e-06 2.294e-07 5.07803e-20
-1.02803e-07 8.73983e-08 -2.90284e-20
-2.41599e-09 5.77453e-08 1.10189e-20
-6.35885e-07 4.60337e-07 6.571e-20
-1.14009e-07 6.08489e-08 -3.43531e-20
1.30163e-06 -2.04042e-07 9.11184e-20
-8.70163e-08 5.8412e-08 -3.1848e-20
6.33854e-08 -1.31088e-07 1.06689e-20
-1.01293e-06 -7.69333e-07 -6.96925e-20
-3.41555e-07 7.31831e-07 -4.17482e-20
-1.03748e-06 7.63683e-07 -5.95264e-20
3.03138e-07 6.76272e-07 5.07403e-20
-1.11608e-07 8.87199e-08 -4.3019e-22
-3.09741e-08 1.7543e-08 4.57934e-20
-1.69711e-09 -2.69508e-09 -1.29828e-20
4.26431e-10 -2.32748e-09 1.09932e-19
8.48468e-09 8.90959e-08 -4.19321e-20
-2.48876e-09 2.69938e-09 1.92476e-20
1.31341e-09 3.3421e-09 1.95053e-20
2.24592e-09 -9.639e-10 9.91825e-20
-1.3279e-09 1.05556e-08 -3.50368e-20
-2.33255e-07 5.08911e-07 -1.18643e-20
-1.75474e-08 1.25963e-08 8.11316e-20
3.02429e-08 -1.90522e-08 -1.60158e-20
2.96443e-08 -1.71722e-08 -3.19339e-21
8.53938e-08 3.3326e-08 5.4426e-21
-8.04611e-10 -9.03424e-09 7.71119e-20
-8.0667e-09 -4.08849e-09 1.06771e-19
2.96268e-08 1.72826e-08 1.34855e-20
7.53811e-07 -1.4528e-07 3.12502e-20
-9.76723e-08 -1.24498e-07 6.52478e-20
-6.59973e-07 4.60117e-07 1.23182e-20
-5.90904e-07 6.73958e-07 -3.91175e-20
7.96515e-07 -2.87651e-07 1.48937e-20
-3.82405e-09 -1.1089e-08 -6.53926e-20
-4.19929e-09 1.13908e-08 -1.10802e-19
-1.25195e-08 2.14819e-09 6.7863e-20
-8.20785e-09 8.37426e-09 3.78913e-20
-1.1349e-08 -2.40291e-09 -2.84745e-21
2.10335e-09 2.66603e-09 -3.10345e-21
1.21818e-08 -2.99591e-09 -3.03959e-20
5.13754e-09 -3.61146e-09 -1.14425e-20
-3.59225e-09 -2.59332e-09 -1.13179e-20
7.7895e-09 -8.01192e-09 -8.47964e-21
7.8327e-09 8.25046e-09 8.02841e-21
-3.61416e-09 2.27986e-09 -1.96732e-20
3.96535e-09 -7.91256e-10 -1.15463e-19
6.57518e-09 3.64162e-09 -1.01146e-19
1.42365e-08 5.07959e-09 -3.26875e-20
SCALARS rr_necrosis float
LOOKUP_TABLE default
0
0
0
0
0
0
0
0
0
0
0
0
0
0
0
0
0
0
0
0
0
0
0
0
0
0
0
0
0
0
0
0
0
0
0
0
0
0
0
0
0
0
0
0
0
0
0
0
0
0
0
0
0
0
0
0
0
0
0
0
0
0
0
0
0
0
0
0
0
0
0
0
0
0
0
0
0
0
0
0
0
0
0
0
0
0
0
0
0
0
0
0
0
0
0
0
0
0
0
0
0
0
0
0
0
0
0
0
0
0
0
0
0
0
0
0
0
0
0
0
0
0
0
0
0
0
0
0
0
0
0
0
0
0
0
0
0
0
0
0
0
0
0
0
0
0
0
0
0
0
0
0
0
0
0
0
0
0
0
0
0
0
0
0
0
0
0
0
0
0
0
0
0
0
0
0
0
0
0
0
0
0
0
0
0
0
0
0
0
0
0
0
0
0
0
0
0
0
0
0
0
0
0
0
0
0
0
0
0
0
0
0
0
0
0
0
0
0
0
0
0
0
0
0
0
0
0
0
0
0
0
0
0
0
0
0
0
0
0
0
0
0
0
0
0
0
0
0
0
0
0
0
0
0
0
0
0
0
0
0
0
0
0
0
0
0
0
0
0
0
0
0
0
0
0
0
0
0
0
0
0
0
0
0
0
0
0
0
0
0
0
0
0
0
0
0
0
0
0
0
0
0
0
0
0
0
0
0
0
0
0
0
0
0
0
0
0
0
0
0
0
0
0
0
0
0
0
0
0
0
0
0
0
0
0
0
0
0
0
0
0
0
0
0
0
0
0
0
0
0
0
0
0
0
0
0
0
0
0
0
0
0
0
0
0
0
0
0
0
0
0
0
0
0
0
0
0
0
0
0
0
0
0
0
0
0
0
0
0
0
0
0
0
0
0
0
0
0
0
0
0
0
0
0
0
0
0
0
0
0
0
0
0
0
0
0
0
0
0
0
0
0
0
0
0
0
0
0
0
0
0
0
0
0
0
0
0
0
0
0
0
0
0
0
0
0
0
0
0
0
0
0
0
0
0
0
0
0
0
0
0
0
0
0
0
0
0
0
0
0
0
0
0
0
0
0
0
0
0
0
0
0
0
0
0
0
0
0
0
0
0
0
0
0
0
0
0
0
0
0
0
0
0
0
0
0
0
0
0
0
0
0
0
0
0
0
0
0
0
0
0
0
0
0
0
0
0
0
0
0
0
0
0
0
0
0
0
0
0
0
0
0
0
0
0
0
0
0
0
0
0
0
0
0
0
0
0
0
0
0
0
0
0
SCALARS rr_protein float
LOOKUP_TABLE default
1
1
1
1
1
1
1
1
1
1
1
1
1
1
1
1
1
1
1
1
1
1
1
1
1
1
1
1
1
1
1
1
1
1
1
1
1
1
1
1
1
1
1
1
1
1
1
1
1
1
1
1
1
1
1
1
1
1
1
1
1
1
1
1
1
1
1
1
1
1
1
1
1
1
1
1
1
1
1
1
1
1
1
1
1
1
1
1
1
1
1
1
1
1
1
1
1
1
1
1
1
1
1
1
1
1
1
1
1
1
1
1
1
1
1
1
1
1
1
1
1
1
1
1
1
1
1
1
1
1
1
1
1
1
1
1
1
1
1
1
1
1
1
1
1
1
1
1
1
1
1
1
1
1
1
1
1
1
1
1
1
1
1
1
1
1
1
1
1
1
1
1
1
1
1
1
1
1
1
1
1
1
1
1
1
1
1
1
1
1
1
1
1
1
1
1
1
1
1
1
1
1
1
1
1
1
1
1
1
1
1
1
1
1
1
1
1
1
1
1
1
1
1
1
1
1
1
1
1
1
1
1
1
1
1
1
1
1
1
1
1
1
1
1
1
1
1
1
1
1
1
1
1
1
1
1
1
1
1
1
1
1
1
1
1
1
1
1
1
1
1
1
1
1
1
1
1
1
1
1
1
1
1
1
1
1
1
1
1
1
1
1
1
1
1
1
1
1
1
1
1
1
1
1
1
1
1
1
1
1
1
1
1
1
1
1
1
1
1
1
1
1
1
1
1
1
1
1
1
1
1
1
1
1
1
1
1
1
1
1
1
1
1
1
1
1
1
1
1
1
1
1
1
1
1
1
1
1
1
1
1
1
1
1
1
1
1
1
1
1
1
1
1
1
1
1
1
1
1
1
1
1
1
1
1
1
1
1
1
1
1
1
1
1
1
1
1
1
1
1
1
1
1
1
1
1
1
1
1
1
1
1
1
1
1
1
1
1
1
1
1
1
1
1
1
1
1
1
1
1
1
1
1
1
1
1
1
1
1
1
1
1
1
1
1
1
1
1
1
1
1
1
1
1
1
1
1
1
1
1
1
1
1
1
1
1
1
1
1
1
1
1
1
1
1
1
1
1
1
1
1
1
1
1
1
1
1
1
1
1
1
1
1
1
1
1
1
1
1
1
1
1
1
1
1
1
1
1
1
1
1
1
1
1
1
1
1
1
1
1
1
1
1
1
1
1
1
1
1
1
1
1
1
1
1
1
1
1
1
1
1
1
1
1
1
1
1
1
1
1
1
1
1
1
1
1
1
1
1
1
1
1
1
SCALARS rr_(S_ext) float
LOOKUP_TABLE default
0.984571
0.984513
0.984522
0.984512
0.984516
0.984522
0.984571
0.984521
0.984528
0.984517
0.98454
0.984521
0.984522
0.984518
0.984511
0.984522
0.984514
0.984518
0.984526
0.984522
0.984526
0.984504
0.984522
0.984522
0.984522
0.984516
0.98455
0.984521
0.984538
0.984507
0.984523
0.984537
0.984553
0.984509
0.984511
0.984508
0.984505
0.984512
0.984523
0.984553
0.984537
0.984504
0.984504
0.984522
0.98454
0.984538
0.984527
0.984528
0.984522
0.984538
0.984538
0.984536
0.984512
0.984537
0.984513
0.98455
0.984511
0.984536
0.984511
0.984521
0.984512
0.984515
0.984554
0.984517
0.984515
0.984519
0.984512
0.984517
0.984522
0.984513
0.984512
0.984512
0.984538
0.984518
0.984523
0.984551
0.984516
0.984519
0.984516
0.984531
0.984544
0.984515
0.984513
0.984543
0.984541
0.984545
0.984521
0.98452
0.98454
0.984506
0.984536
0.984507
0.984514
0.984519
0.984537
0.984536
0.984546
0.984516
0.984516
0.984522
0.984532
0.984541
0.984542
0.984515
0.984517
0.984516
0.984514
0.984523
0.984543
0.984509
0.984521
0.984541
0.984541
0.984516
0.984516
0.984538
0.984514
0.984548
0.984514
0.984537
0.984528
0.984511
0.984512
0.984515
0.98451
0.984511
0.984513
0.984516
0.984546
0.984536
0.98451
0.984512
0.984512
0.984512
0.984541
0.984511
0.98455
0.984522
0.984513
0.98451
0.98454
0.984521
0.98453
0.984516
0.984548
0.984516
0.984521
0.984524
0.984522
0.984532
0.984526
0.984512
0.984536
0.984522
0.984516
0.984512
0.984518
0.984541
0.984541
0.984519
0.984527
0.984536
0.984543
0.984536
0.984539
0.984516
0.984541
0.984542
0.984537
0.98454
0.984513
0.984536
0.984537
0.984518
0.984537
0.984514
0.984513
0.984521
0.984514
0.984519
0.984539
0.984516
0.984516
0.984539
0.984519
0.984538
0.984515
0.984516
0.984515
0.984516
0.984519
0.984546
0.984536
0.984537
0.984512
0.984517
0.984516
0.984512
0.984512
0.984519
0.984512
0.984527
0.984532
0.984513
0.984539
0.984513
0.98452
0.984539
0.984516
0.984512
0.984517
0.98452
0.984517
0.984513
0.984531
0.98452
0.984533
0.984516
0.984509
0.984509
0.984508
0.984509
0.984509
0.984509
0.984517
0.984511
0.98451
0.98451
0.984511
0.984514
0.984513
0.984531
0.984516
0.984508
0.984528
0.984512
0.984512
0.984509
0.984531
0.984508
0.984516
0.984532
0.984514
0.984532
0.984514
0.984507
0.984531
0.984532
0.984545
0.984537
0.984513
0.984549
0.984522
0.984532
0.984526
0.984508
0.984509
0.984506
0.984509
0.984552
0.984531
0.984508
0.98452
0.984532
0.984509
0.98453
0.984506
0.984532
0.984509
0.984516
0.984516
0.984512
0.98452
0.984514
0.98452
0.984545
0.984545
0.984516
0.984525
0.984521
0.984534
0.984514
0.984518
0.984531
0.984519
0.984533
0.984521
0.984533
0.984531
0.984506
0.984513
0.98451
0.98451
0.984517
0.984534
0.984509
0.984516
0.984527
0.984533
0.984534
0.984514
0.984532
0.984516
0.984535
0.98454
0.984533
0.984548
0.984515
0.984531
0.984505
0.984534
0.984516
0.984532
0.984516
0.984534
0.984523
0.984559
0.98452
0.984532
0.984512
0.984531
0.984526
0.984519
0.984512
0.984534
0.984533
0.984529
0.984517
0.984532
0.984522
0.984522
0.984515
0.984534
0.98453
0.984527
0.98453
0.984533
0.98453
0.984516
0.98452
0.98453
0.984531
0.984521
0.984521
0.984532
0.984515
0.984542
0.984524
0.984545
0.984526
0.984529
0.984529
0.984528
0.984528
0.984525
0.984534
0.984534
0.984516
0.984511
0.984518
0.984526
0.984526
0.98453
0.984521
0.98453
0.98453
0.984512
0.98453
0.984517
0.984536
0.98451
0.984522
0.984527
0.98453
0.984516
0.984524
0.984526
0.984524
0.984526
0.984527
0.984532
0.984526
0.984525
0.984516
0.984527
0.984527
0.984527
0.984526
0.984524
0.98452
0.984527
0.984521
0.984522
0.984526
0.984521
0.984522
0.984528
0.984515
0.984527
0.984511
0.98454
0.984516
0.984517
0.984524
0.984528
0.984517
0.984544
0.984522
0.984527
0.984559
0.984508
0.984509
0.984522
0.984527
0.984527
0.984527
0.984509
0.984508
0.984518
0.984521
0.984521
0.984549
0.984527
0.984516
0.984528
0.984529
0.984526
0.984541
0.984517
0.984527
0.984524
0.984524
0.984528
0.984526
0.984528
0.984528
0.984552
0.984548
0.984526
0.984524
0.984526
0.984528
0.984527
0.984527
0.984526
0.984542
0.984514
0.984526
0.984518
0.984517
0.984543
0.984522
0.984521
0.984515
0.984502
0.984502
0.984512
0.984528
0.984524
0.984542
0.984502
0.984505
0.984505
0.984542
0.984511
0.984506
0.984524
0.984515
0.984519
0.984515
0.984514
0.984517
0.984522
0.984543
0.984523
0.984519
0.984516
0.984551
0.984508
0.984563
0.984513
0.984519
0.984532
0.984521
0.984522
0.98451
0.98452
0.98451
0.984523
0.984517
0.984508
0.984509
0.984545
0.984515
0.984571
0.984574
0.984568
0.984518
0.984548
0.984566
0.984529
0.984568
0.984514
0.984515
0.984571
0.984523
0.984556
0.984574
0.984552
0.984574
0.984552
0.984512
0.984544
0.984547
0.984569
0.984523
0.984515
0.984553
0.984522
0.984564
0.984519
0.984523
0.984574
0.984552
0.984572
0.984541
0.984523
0.984512
0.984502
0.984502
0.984518
0.984502
0.984502
0.984503
0.984503
0.984543
0.984508
0.984514
0.984513
0.984519
0.984504
0.984504
0.984515
0.98454
0.984524
0.984549
0.984565
0.984557
0.984502
0.984502
0.984503
0.984503
0.984501
0.984505
0.984506
0.984505
0.984507
0.984505
0.984504
0.984507
0.984504
0.984505
0.984504
SCALARS rr_(P_ext) float
LOOKUP_TABLE default
0.0211175
0.0210178
0.0210266
0.0210195
0.0209927
0.0210268
0.0211178
0.0210208
0.021035
0.0210182
0.0211109
0.0210208
0.0210229
0.0210169
0.0210019
0.0210252
0.0210133
0.0210219
0.0210394
0.0210291
0.0210305
0.0209584
0.0210303
0.0210289
0.0210292
0.0210203
0.021097
0.0210255
0.0210666
0.0209786
0.0210232
0.0210664
0.0210985
0.0209845
0.0209816
0.0209847
0.0209775
0.0209829
0.0210234
0.0210982
0.0210668
0.0209771
0.0209772
0.0210232
0.0210889
0.0210652
0.0210373
0.0210333
0.0210264
0.0210727
0.0210692
0.0210564
0.0209941
0.0210562
0.0209949
0.0210859
0.0209814
0.0210562
0.0209815
0.0210286
0.0210137
0.0210055
0.0210907
0.021006
0.0210053
0.0210134
0.0210134
0.0210202
0.0210297
0.0210175
0.0209943
0.0209944
0.0210669
0.0210103
0.0210263
0.0211027
0.0210001
0.0210135
0.0210203
0.0210542
0.0210748
0.0209896
0.0210095
0.0210776
0.0210637
0.0210878
0.0210255
0.0210118
0.0210888
0.0209633
0.0210563
0.0209634
0.0209995
0.0210145
0.0210554
0.0210701
0.0210746
0.0210184
0.0210002
0.0210238
0.0210451
0.0210613
0.0210778
0.021021
0.0210192
0.021019
0.0210083
0.0210246
0.0210779
0.0210163
0.0210285
0.0210857
0.0210812
0.0210216
0.0210195
0.0210559
0.0209815
0.0210751
0.0209818
0.0210555
0.0210416
0.021003
0.0210179
0.0210116
0.0210156
0.0210011
0.020985
0.0210184
0.0210746
0.0210554
0.0209942
0.0210185
0.02101
0.0210181
0.0210612
0.0209813
0.0210801
0.0210222
0.0210094
0.0209814
0.0210601
0.021018
0.0210401
0.0210181
0.0210755
0.0210199
0.0210194
0.0210264
0.0210267
0.0210481
0.0210335
0.0210179
0.0210666
0.0210227
0.0210182
0.0210184
0.0210155
0.0210591
0.0210588
0.0210229
0.0210332
0.0210658
0.0210864
0.0210691
0.0210592
0.0210189
0.0210592
0.0210593
0.0210665
0.021059
0.0209993
0.0210562
0.0210693
0.0210146
0.021056
0.0210086
0.0209993
0.0210209
0.0209937
0.0210189
0.0210665
0.0210185
0.0210186
0.0210599
0.0210117
0.02107
0.0210116
0.0210082
0.0209989
0.0210184
0.0210115
0.0210736
0.021056
0.0210664
0.0210182
0.0210223
0.0210218
0.0210101
0.021018
0.0210138
0.0210178
0.0210382
0.0210535
0.0210102
0.0210663
0.0210095
0.0210135
0.0210619
0.0210042
0.0210176
0.0210033
0.0210164
0.0210195
0.0210094
0.0210477
0.0210156
0.0210525
0.0210082
0.0210158
0.0210158
0.0210169
0.0210165
0.0210164
0.0210165
0.0210175
0.0210026
0.0210028
0.0210025
0.0210025
0.0209947
0.0209946
0.0210485
0.0210172
0.0210204
0.0210338
0.0210019
0.0210015
0.0210201
0.0210532
0.0210208
0.0210184
0.0210473
0.0210041
0.0210478
0.0210091
0.0210211
0.0210471
0.021052
0.021075
0.0210743
0.0210094
0.021077
0.0210239
0.0210525
0.0210388
0.0210209
0.021016
0.0209766
0.0210163
0.0210777
0.0210525
0.0210204
0.0210208
0.0210537
0.0210161
0.0210396
0.0209767
0.0210523
0.0210156
0.0210122
0.0210218
0.0210021
0.0210121
0.0209942
0.0210229
0.0210842
0.0210879
0.0209969
0.0210302
0.0210208
0.0210478
0.0210039
0.0210146
0.0210524
0.0210143
0.0210448
0.021019
0.0210447
0.021053
0.020969
0.0209983
0.0210016
0.0210018
0.0210176
0.021044
0.0209856
0.0210125
0.0210328
0.0210436
0.0210468
0.0209969
0.0210474
0.0209995
0.0210457
0.0210886
0.0210442
0.021076
0.021008
0.0210473
0.0209691
0.0210457
0.0210102
0.0210485
0.0210112
0.0210459
0.0210255
0.0210923
0.0210275
0.0210476
0.0209973
0.0210481
0.0210328
0.0210112
0.0210175
0.0210458
0.0210441
0.0210399
0.0210081
0.0210442
0.0210208
0.0210254
0.0209944
0.0210441
0.0210404
0.0210313
0.0210393
0.0210451
0.0210391
0.0210051
0.0210211
0.02104
0.0210478
0.0210183
0.0210181
0.0210446
0.0209945
0.0211144
0.0210258
0.0210749
0.0210309
0.0211671
0.021167
0.0211664
0.0211666
0.0211663
0.0211674
0.021167
0.0210076
0.0209883
0.0210226
0.0210332
0.0210388
0.0210394
0.021019
0.02104
0.0210405
0.0209881
0.0210394
0.0210036
0.0210563
0.0210041
0.021027
0.0210334
0.0210397
0.0209967
0.0210258
0.0210327
0.0210257
0.0210326
0.0210402
0.0210545
0.0210334
0.0210267
0.0210033
0.0210379
0.0210411
0.0210383
0.021034
0.021027
0.0210189
0.0210384
0.021019
0.0210278
0.0210338
0.0210206
0.0210276
0.0210396
0.0210113
0.0210318
0.0209892
0.0210885
0.0210077
0.0210051
0.0210269
0.0210315
0.0210136
0.0211132
0.0210269
0.021032
0.0210918
0.0209696
0.0209694
0.0210258
0.021039
0.0210308
0.0210379
0.0209545
0.0209545
0.0210206
0.0210205
0.021021
0.0211135
0.0210405
0.0210098
0.0210338
0.0210346
0.0210339
0.021115
0.0210117
0.0210395
0.0210262
0.0210261
0.0210348
0.0210329
0.0210348
0.0210339
0.0210975
0.0210758
0.0210329
0.021026
0.0210317
0.0210352
0.0210324
0.0210311
0.0210317
0.0210885
0.0210018
0.0210384
0.0210139
0.0210113
0.0210891
0.0210265
0.0210274
0.0209943
0.0209702
0.0209703
0.0209983
0.0210407
0.0210264
0.0210902
0.0209722
0.0209567
0.0209568
0.0211161
0.0209829
0.0209785
0.0210274
0.021
0.0210227
0.0210176
0.0210109
0.0210085
0.0210208
0.0211134
0.021025
0.0210147
0.02101
0.0211033
0.0209817
0.0210935
0.0210104
0.0210173
0.0210463
0.0210233
0.0210212
0.0209934
0.0210199
0.0209935
0.021026
0.0210099
0.0209801
0.0209795
0.0210899
0.0210163
0.0211193
0.0211175
0.0211215
0.0210118
0.0211146
0.0211235
0.0210351
0.0211205
0.0209892
0.0209893
0.0211189
0.0210312
0.0210973
0.0211199
0.0210991
0.0211203
0.0210991
0.0209823
0.0210935
0.0211142
0.0211191
0.0210217
0.0210064
0.0211007
0.0210214
0.0211229
0.0210182
0.0210305
0.021121
0.0211022
0.0211224
0.0211161
0.0210278
0.0209876
0.0209585
0.0209597
0.0210166
0.0209587
0.0209588
0.0209593
0.020967
0.0210916
0.0209808
0.0209977
0.0209875
0.0210178
0.0209649
0.020965
0.0209857
0.0211171
0.0210315
0.021116
0.0210951
0.0210944
0.0209734
0.0209736
0.0209743
0.0209741
0.0209734
0.0209602
0.0209741
0.0209649
0.0209582
0.0209732
0.020973
0.0209579
0.0209599
0.0209645
0.0209749
SCALARS rr_(S) float
LOOKUP_TABLE default
0.963462
0.963354
0.963367
0.963354
0.963344
0.963367
0.963462
0.963362
0.963377
0.963357
0.963429
0.963362
0.963365
0.963357
0.963344
0.963366
0.963352
0.96336
0.963377
0.963368
0.963373
0.963316
0.963369
0.963368
0.963368
0.963358
0.96343
0.963366
0.963403
0.963328
0.963365
0.963402
0.963434
0.963333
0.963334
0.963333
0.963325
0.963336
0.963366
0.963434
0.963402
0.963325
0.963325
0.963365
0.963417
0.963403
0.963377
0.963375
0.963367
0.963406
0.963404
0.963395
0.963341
0.963397
0.963342
0.963425
0.963334
0.963396
0.963334
0.963367
0.963351
0.963349
0.963431
0.963351
0.963349
0.963357
0.96335
0.963359
0.963369
0.963353
0.963341
0.963341
0.963403
0.963355
0.963368
0.963434
0.963348
0.963357
0.963358
0.96339
0.963413
0.963341
0.96335
0.963413
0.963404
0.963421
0.963365
0.963357
0.963417
0.96332
0.963396
0.963321
0.963345
0.963358
0.963396
0.963403
0.963415
0.963357
0.963348
0.963365
0.963386
0.963403
0.963413
0.963357
0.963358
0.963357
0.963349
0.963367
0.963413
0.963349
0.963367
0.963416
0.963414
0.963359
0.963358
0.963397
0.963336
0.963417
0.963337
0.963396
0.96338
0.963344
0.963352
0.963353
0.96335
0.963343
0.963338
0.963357
0.963415
0.963395
0.963339
0.963353
0.963349
0.963353
0.963403
0.963333
0.963421
0.963365
0.963349
0.963333
0.963401
0.963362
0.963381
0.963357
0.963417
0.963357
0.963362
0.963369
0.963367
0.963387
0.963374
0.963353
0.963401
0.963365
0.963357
0.963353
0.963357
0.963402
0.963401
0.963362
0.963375
0.9634
0.963418
0.963403
0.9634
0.963357
0.963402
0.963403
0.963402
0.963401
0.963345
0.963396
0.963404
0.963356
0.963396
0.96335
0.963345
0.963363
0.963342
0.963359
0.963404
0.963357
0.963357
0.963401
0.963356
0.963404
0.963353
0.963352
0.963346
0.963357
0.963356
0.963414
0.963395
0.963401
0.963353
0.963359
0.963359
0.963349
0.963352
0.963357
0.963353
0.963377
0.96339
0.963349
0.963404
0.963349
0.963358
0.963402
0.963349
0.963353
0.96335
0.963359
0.963358
0.96335
0.963386
0.963359
0.96339
0.963352
0.963349
0.963349
0.963349
0.963349
0.963349
0.96335
0.963358
0.963344
0.963344
0.963343
0.963344
0.963343
0.963342
0.963387
0.963356
0.963351
0.963377
0.963345
0.963344
0.963351
0.96339
0.963351
0.963357
0.963387
0.963348
0.963387
0.96335
0.96335
0.963386
0.96339
0.963414
0.963406
0.96335
0.963419
0.963365
0.96339
0.963377
0.963351
0.963349
0.963327
0.963349
0.963422
0.963389
0.96335
0.963362
0.96339
0.963349
0.963381
0.963327
0.96339
0.963349
0.963354
0.963359
0.963345
0.963357
0.963342
0.963363
0.963419
0.963421
0.963346
0.963371
0.963362
0.963389
0.963348
0.963357
0.963389
0.963358
0.963386
0.963362
0.963387
0.963389
0.963322
0.963344
0.963342
0.963342
0.963357
0.963387
0.963333
0.963354
0.963374
0.963386
0.963389
0.963344
0.963387
0.963347
0.963389
0.963417
0.963386
0.963418
0.963351
0.963386
0.963322
0.963388
0.963352
0.963387
0.963353
0.963388
0.963367
0.963437
0.963366
0.963387
0.963342
0.963386
0.963374
0.963356
0.963353
0.963388
0.963386
0.963381
0.963353
0.963386
0.963363
0.963366
0.963344
0.963387
0.963381
0.963374
0.963381
0.963387
0.963381
0.96335
0.963362
0.963381
0.963387
0.963361
0.963361
0.963386
0.963344
0.963433
0.963369
0.963414
0.963373
0.963448
0.963449
0.963447
0.963447
0.963444
0.963453
0.963453
0.963351
0.963337
0.963361
0.963374
0.963377
0.963381
0.963362
0.963381
0.963381
0.963338
0.963381
0.96335
0.963395
0.963344
0.963367
0.963375
0.963381
0.963346
0.963369
0.963374
0.963368
0.963373
0.963379
0.963391
0.963374
0.963369
0.963349
0.963377
0.963379
0.963378
0.963374
0.963369
0.963361
0.963377
0.963362
0.963368
0.963374
0.963363
0.963367
0.963379
0.963352
0.963374
0.963337
0.963417
0.963351
0.963351
0.963369
0.963374
0.963356
0.963434
0.963367
0.963374
0.963436
0.963325
0.963326
0.963367
0.963378
0.963374
0.963378
0.963318
0.963317
0.963359
0.963363
0.963363
0.963438
0.963378
0.963352
0.963377
0.963377
0.963375
0.963432
0.963354
0.963378
0.963369
0.963368
0.963376
0.963374
0.963376
0.963377
0.963433
0.963417
0.963374
0.963369
0.963374
0.963377
0.963374
0.963373
0.963373
0.963419
0.963347
0.963377
0.963356
0.963354
0.963419
0.963366
0.963366
0.963344
0.963319
0.963319
0.963343
0.963379
0.963368
0.96342
0.963321
0.963315
0.963315
0.963433
0.963335
0.963327
0.963369
0.963347
0.963362
0.963356
0.963351
0.963353
0.963364
0.963433
0.963367
0.963358
0.963353
0.963435
0.963331
0.963441
0.96335
0.963359
0.963387
0.963364
0.963364
0.963339
0.963361
0.963339
0.963367
0.963354
0.96333
0.963331
0.963422
0.963355
0.963463
0.963465
0.963461
0.963355
0.963438
0.963461
0.963377
0.963461
0.963341
0.963341
0.963463
0.96337
0.963436
0.963466
0.963434
0.963466
0.963434
0.963335
0.963423
0.963437
0.96346
0.963365
0.96335
0.963436
0.963364
0.963458
0.96336
0.96337
0.963466
0.963435
0.963466
0.963432
0.963368
0.963338
0.963314
0.963314
0.963358
0.963314
0.963314
0.963315
0.963319
0.963422
0.96333
0.963344
0.963339
0.963359
0.963319
0.963319
0.963339
0.963432
0.963371
0.96344
0.963444
0.963436
0.963321
0.963321
0.963322
0.963322
0.963321
0.963317
0.963326
0.96332
0.963318
0.963323
0.963323
0.963318
0.963316
0.963319
0.963324
SCALARS rr_(P) float
LOOKUP_TABLE default
0.0241142
0.024055
0.0240603
0.024056
0.0240399
0.0240604
0.0241144
0.0240568
0.0240653
0.0240552
0.02411
0.0240568
0.0240581
0.0240545
0.0240453
0.0240595
0.0240522
0.0240574
0.0240679
0.0240618
0.0240626
0.0240189
0.0240625
0.0240617
0.0240619
0.0240564
0.024102
0.0240596
0.024084
0.0240311
0.0240583
0.0240839
0.0241029
0.0240348
0.0240331
0.0240348
0.0240304
0.0240339
0.0240584
0.0241027
0.0240841
0.0240302
0.0240302
0.0240583
0.0240971
0.0240832
0.0240667
0.0240643
0.0240602
0.0240876
0.0240855
0.024078
0.0240406
0.0240779
0.0240411
0.0240955
0.0240329
0.0240779
0.024033
0.0240614
0.0240524
0.0240476
0.0240983
0.0240479
0.0240475
0.0240523
0.0240522
0.0240564
0.0240621
0.0240547
0.0240407
0.0240408
0.0240842
0.0240505
0.0240601
0.0241053
0.0240443
0.0240524
0.0240564
0.0240766
0.0240889
0.024038
0.0240499
0.0240905
0.0240823
0.0240965
0.0240596
0.0240514
0.024097
0.0240218
0.024078
0.0240218
0.0240439
0.024053
0.0240775
0.024086
0.0240888
0.0240553
0.0240444
0.0240586
0.0240713
0.024081
0.0240906
0.0240569
0.0240558
0.0240557
0.0240492
0.0240591
0.0240907
0.024054
0.0240614
0.0240953
0.0240926
0.0240572
0.024056
0.0240777
0.024033
0.0240891
0.0240332
0.0240775
0.0240692
0.024046
0.0240549
0.0240512
0.0240535
0.0240448
0.0240351
0.0240553
0.0240888
0.0240774
0.0240406
0.0240553
0.0240502
0.0240551
0.0240809
0.0240329
0.0240921
0.0240577
0.0240499
0.0240329
0.0240802
0.0240551
0.0240683
0.0240552
0.0240893
0.0240562
0.024056
0.0240602
0.0240604
0.0240731
0.0240644
0.0240549
0.024084
0.024058
0.0240552
0.0240553
0.0240536
0.0240797
0.0240795
0.0240581
0.0240642
0.0240835
0.0240957
0.0240855
0.0240797
0.0240557
0.0240797
0.0240798
0.024084
0.0240796
0.0240437
0.0240779
0.0240856
0.0240531
0.0240778
0.0240494
0.0240438
0.0240568
0.0240405
0.0240556
0.0240839
0.0240554
0.0240554
0.0240801
0.0240513
0.024086
0.0240513
0.0240492
0.0240436
0.0240553
0.0240512
0.0240882
0.0240778
0.0240839
0.0240552
0.0240577
0.0240573
0.0240503
0.024055
0.0240526
0.0240549
0.0240672
0.0240763
0.0240503
0.0240839
0.02405
0.0240524
0.0240813
0.0240468
0.0240548
0.0240462
0.0240542
0.024056
0.0240499
0.0240729
0.0240537
0.0240757
0.0240492
0.0240536
0.0240537
0.0240543
0.0240541
0.024054
0.0240541
0.0240548
0.0240457
0.0240459
0.0240457
0.0240456
0.024041
0.0240409
0.0240733
0.0240546
0.0240564
0.0240646
0.0240453
0.0240451
0.0240562
0.0240761
0.0240566
0.0240553
0.0240727
0.0240467
0.0240729
0.0240497
0.0240568
0.0240725
0.0240754
0.024089
0.0240885
0.0240499
0.0240902
0.0240587
0.0240757
0.0240675
0.0240567
0.0240538
0.0240299
0.0240539
0.0240907
0.0240757
0.0240564
0.0240568
0.0240764
0.0240538
0.0240681
0.02403
0.0240756
0.0240535
0.0240516
0.0240574
0.0240454
0.0240515
0.0240407
0.0240581
0.0240944
0.0240966
0.0240423
0.0240625
0.0240568
0.0240729
0.0240466
0.0240531
0.0240756
0.0240529
0.0240711
0.0240557
0.0240711
0.0240759
0.0240253
0.0240432
0.0240451
0.0240452
0.0240548
0.0240707
0.0240354
0.0240518
0.024064
0.0240705
0.0240724
0.0240424
0.0240727
0.0240439
0.0240717
0.024097
0.0240708
0.0240896
0.024049
0.0240726
0.0240253
0.0240717
0.0240504
0.0240733
0.024051
0.0240718
0.0240596
0.0240993
0.0240608
0.0240728
0.0240426
0.0240731
0.024064
0.024051
0.0240548
0.0240718
0.0240708
0.0240682
0.0240491
0.0240708
0.0240568
0.0240596
0.0240408
0.0240708
0.0240685
0.0240631
0.0240679
0.0240714
0.0240678
0.0240473
0.024057
0.0240683
0.0240729
0.0240553
0.0240552
0.024071
0.0240409
0.0241121
0.0240598
0.024089
0.0240629
0.024143
0.024143
0.0241426
0.0241427
0.0241425
0.0241432
0.024143
0.0240488
0.0240371
0.0240579
0.0240642
0.0240676
0.0240679
0.0240557
0.0240683
0.0240686
0.0240369
0.0240679
0.0240464
0.024078
0.0240466
0.0240605
0.0240644
0.0240682
0.0240422
0.0240598
0.024064
0.0240598
0.0240639
0.0240684
0.0240769
0.0240644
0.0240604
0.0240462
0.024067
0.0240689
0.0240673
0.0240647
0.0240605
0.0240556
0.0240673
0.0240557
0.024061
0.0240646
0.0240567
0.0240609
0.024068
0.024051
0.0240634
0.0240376
0.0240969
0.0240489
0.0240473
0.0240605
0.0240633
0.0240525
0.0241114
0.0240605
0.0240635
0.024099
0.0240257
0.0240255
0.0240598
0.0240677
0.0240628
0.024067
0.0240165
0.0240165
0.0240566
0.0240566
0.0240569
0.0241116
0.0240685
0.0240502
0.0240646
0.0240651
0.0240646
0.0241125
0.0240513
0.0240679
0.02406
0.02406
0.0240652
0.024064
0.0240652
0.0240647
0.0241023
0.0240895
0.0240641
0.0240599
0.0240634
0.0240654
0.0240638
0.024063
0.0240634
0.0240969
0.0240453
0.0240673
0.0240526
0.024051
0.0240973
0.0240602
0.0240607
0.0240408
0.024026
0.024026
0.0240432
0.0240687
0.0240601
0.0240979
0.0240272
0.0240179
0.0240179
0.0241131
0.0240339
0.0240311
0.0240608
0.0240442
0.024058
0.0240548
0.0240508
0.0240494
0.0240568
0.0241116
0.0240593
0.0240531
0.0240503
0.0241057
0.0240331
0.0241001
0.0240505
0.0240547
0.0240721
0.0240583
0.0240571
0.0240402
0.0240563
0.0240402
0.0240599
0.0240502
0.024032
0.0240317
0.0240977
0.024054
0.0241153
0.0241143
0.0241166
0.0240514
0.0241123
0.0241177
0.0240654
0.0241159
0.0240378
0.0240378
0.0241151
0.024063
0.0241022
0.0241157
0.0241033
0.0241159
0.0241033
0.0240335
0.0240999
0.0241121
0.0241152
0.0240573
0.0240481
0.0241042
0.0240572
0.0241173
0.0240553
0.0240626
0.0241163
0.024105
0.0241172
0.0241131
0.024061
0.0240367
0.0240189
0.0240196
0.0240542
0.024019
0.024019
0.0240194
0.024024
0.0240988
0.0240325
0.0240428
0.0240366
0.024055
0.0240228
0.0240228
0.0240356
0.0241137
0.0240632
0.0241131
0.024101
0.0241005
0.0240279
0.024028
0.0240285
0.0240283
0.0240279
0.0240199
0.0240284
0.0240227
0.0240187
0.0240277
0.0240277
0.0240185
0.0240198
0.0240225
0.0240288
SCALARS rr_(T) float
LOOKUP_TABLE default
0.154748
0.154775
0.154773
0.154774
0.154786
0.154773
0.154748
0.154775
0.15477
0.154775
0.154748
0.154775
0.154774
0.154776
0.154782
0.154773
0.154777
0.154774
0.154769
0.154772
0.154772
0.154801
0.154771
0.154772
0.154772
0.154775
0.154753
0.154773
0.154761
0.154792
0.154774
0.154761
0.154753
0.154789
0.154791
0.154789
0.154792
0.15479
0.154774
0.154753
0.154761
0.154792
0.154792
0.154774
0.154755
0.154761
0.154769
0.154771
0.154773
0.154759
0.15476
0.154764
0.154785
0.154764
0.154785
0.154756
0.154791
0.154764
0.154791
0.154772
0.154777
0.15478
0.154755
0.15478
0.15478
0.154777
0.154777
0.154775
0.154772
0.154775
0.154785
0.154785
0.154761
0.154779
0.154773
0.154751
0.154783
0.154777
0.154775
0.154764
0.154759
0.154787
0.154779
0.154758
0.154762
0.154755
0.154773
0.154778
0.154755
0.154799
0.154764
0.154799
0.154783
0.154777
0.154764
0.15476
0.154759
0.154775
0.154783
0.154774
0.154767
0.154763
0.154758
0.154774
0.154775
0.154775
0.154779
0.154773
0.154758
0.154775
0.154772
0.154756
0.154757
0.154774
0.154775
0.154764
0.154791
0.154759
0.154791
0.154764
0.154768
0.154781
0.154775
0.154778
0.154776
0.154782
0.154789
0.154775
0.154759
0.154764
0.154785
0.154775
0.154778
0.154775
0.154763
0.154791
0.154758
0.154774
0.154779
0.154791
0.154763
0.154776
0.154769
0.154775
0.154759
0.154774
0.154775
0.154773
0.154773
0.154766
0.154771
0.154775
0.154761
0.154774
0.154775
0.154775
0.154776
0.154763
0.154764
0.154774
0.154771
0.154761
0.154755
0.15476
0.154763
0.154775
0.154763
0.154763
0.154761
0.154763
0.154783
0.154764
0.15476
0.154777
0.154764
0.154779
0.154783
0.154775
0.154785
0.154775
0.154761
0.154775
0.154775
0.154763
0.154778
0.15476
0.154778
0.154779
0.154783
0.154775
0.154778
0.154759
0.154764
0.154761
0.154775
0.154774
0.154774
0.154778
0.154775
0.154777
0.154775
0.154769
0.154765
0.154778
0.154761
0.154778
0.154778
0.154763
0.154781
0.154775
0.154782
0.154776
0.154775
0.154779
0.154766
0.154777
0.154765
0.154779
0.154776
0.154776
0.154775
0.154775
0.154775
0.154775
0.154776
0.154781
0.154781
0.154781
0.154781
0.154785
0.154785
0.154766
0.154776
0.154774
0.154771
0.154782
0.154782
0.154774
0.154765
0.154773
0.154775
0.154767
0.154781
0.154766
0.154779
0.154773
0.154767
0.154765
0.154759
0.154759
0.154779
0.154759
0.154773
0.154765
0.154769
0.154773
0.154776
0.154793
0.154775
0.154759
0.154765
0.154774
0.154775
0.154765
0.154775
0.154769
0.154793
0.154765
0.154776
0.154778
0.154774
0.154782
0.154778
0.154785
0.154774
0.154756
0.154755
0.154784
0.154772
0.154775
0.154767
0.154781
0.154777
0.154765
0.154777
0.154767
0.154776
0.154767
0.154765
0.154796
0.154783
0.154782
0.154782
0.154776
0.154768
0.154789
0.154777
0.154771
0.154768
0.154767
0.154784
0.154767
0.154783
0.154767
0.154755
0.154768
0.154759
0.15478
0.154767
0.154796
0.154767
0.154779
0.154766
0.154778
0.154767
0.154773
0.154755
0.154772
0.154766
0.154784
0.154766
0.154771
0.154778
0.154775
0.154767
0.154768
0.154769
0.15478
0.154768
0.154775
0.154773
0.154785
0.154768
0.154769
0.154771
0.154769
0.154767
0.154769
0.154781
0.154775
0.154769
0.154766
0.154776
0.154776
0.154767
0.154785
0.154747
0.154773
0.154759
0.154772
0.15473
0.15473
0.15473
0.15473
0.15473
0.15473
0.154731
0.15478
0.154788
0.154774
0.154771
0.154769
0.154769
0.154776
0.154769
0.154769
0.154788
0.154769
0.154781
0.154764
0.154781
0.154773
0.154771
0.154769
0.154784
0.154773
0.154771
0.154773
0.154771
0.154768
0.154764
0.154771
0.154773
0.154781
0.154769
0.154768
0.154769
0.15477
0.154773
0.154776
0.154769
0.154776
0.154772
0.154771
0.154775
0.154772
0.154769
0.154778
0.154771
0.154787
0.154755
0.15478
0.154781
0.154773
0.154771
0.154777
0.154748
0.154773
0.154771
0.154755
0.154796
0.154796
0.154773
0.154769
0.154772
0.154769
0.154803
0.154803
0.154774
0.154775
0.154775
0.154748
0.154768
0.154779
0.154771
0.15477
0.154771
0.154747
0.154778
0.154769
0.154773
0.154773
0.15477
0.154771
0.15477
0.154771
0.154753
0.154759
0.154771
0.154773
0.154771
0.15477
0.154771
0.154771
0.154771
0.154755
0.154782
0.154769
0.154777
0.154778
0.154755
0.154773
0.154772
0.154785
0.154796
0.154796
0.154784
0.154768
0.154773
0.154754
0.154795
0.154802
0.154802
0.154747
0.15479
0.154792
0.154773
0.154783
0.154774
0.154775
0.154778
0.154779
0.154775
0.154747
0.154773
0.154777
0.154778
0.154751
0.154791
0.154755
0.154778
0.154776
0.154767
0.154774
0.154775
0.154786
0.154775
0.154785
0.154773
0.154779
0.154791
0.154792
0.154755
0.154776
0.154748
0.154749
0.154747
0.154778
0.154747
0.154746
0.15477
0.154747
0.154787
0.154787
0.154748
0.154771
0.154753
0.154748
0.154752
0.154748
0.154752
0.15479
0.154753
0.154747
0.154748
0.154775
0.15478
0.154752
0.154775
0.154746
0.154776
0.154771
0.154747
0.154751
0.154747
0.154746
0.154772
0.154788
0.154801
0.1548
0.154776
0.154801
0.154801
0.154801
0.154797
0.154754
0.154791
0.154784
0.154788
0.154776
0.154798
0.154798
0.154789
0.154746
0.154771
0.154747
0.154754
0.154754
0.154794
0.154794
0.154794
0.154794
0.154794
0.1548
0.154794
0.154798
0.154801
0.154794
0.154794
0.154802
0.1548
0.154798
0.154794
SCALARS rr_tsim float
LOOKUP_TABLE default
330
330
330
330
330
330
330
330
330
330
330
330
330
330
330
330
330
330
330
330
330
330
330
330
330
330
330
330
330
330
330
330
330
330
330
330
330
330
330
330
330
330
330
330
330
330
330
330
330
330
330
330
330
330
330
330
330
330
330
330
330
330
330
330
330
330
330
330
330
330
330
330
330
330
330
330
330
330
330
330
330
330
330
330
330
330
330
330
330
330
330
330
330
330
330
330
330
330
330
330
330
330
330
330
330
330
330
330
330
330
330
330
330
330
330
330
330
330
330
330
330
330
330
330
330
330
330
330
330
330
330
330
330
330
330
330
330
330
330
330
330
330
330
330
330
330
330
330
330
330
330
330
330
330
330
330
330
330
330
330
330
330
330
330
330
330
330
330
330
330
330
330
330
330
330
330
330
330
330
330
330
330
330
330
330
330
330
330
330
330
330
330
330
330
330
330
330
330
330
330
330
330
330
330
330
330
330
330
330
330
330
330
330
330
330
330
330
330
330
330
330
330
330
330
330
330
330
330
330
330
330
330
330
330
330
330
330
330
330
330
330
330
330
330
330
330
330
330
330
330
330
330
330
330
330
330
330
330
330
330
330
330
330
330
330
330
330
330
330
330
330
330
330
330
330
330
330
330
330
330
330
330
330
330
330
330
330
330
330
330
330
330
330
330
330
330
330
330
330
330
330
330
330
330
330
330
330
330
330
330
330
330
330
330
330
330
330
330
330
330
330
330
330
330
330
330
330
330
330
330
330
330
330
330
330
330
330
330
330
330
330
330
330
330
330
330
330
330
330
330
330
330
330
330
330
330
330
330
330
330
330
330
330
330
330
330
330
330
330
330
330
330
330
330
330
330
330
330
330
330
330
330
330
330
330
330
330
330
330
330
330
330
330
330
330
330
330
330
330
330
330
330
330
330
330
330
330
330
330
330
330
330
330
330
330
330
330
330
330
330
330
330
330
330
330
330
330
330
330
330
330
330
330
330
330
330
330
330
330
330
330
330
330
330
330
330
330
330
330
330
330
330
330
330
330
330
330
330
330
330
330
330
330
330
330
330
330
330
330
330
330
330
330
330
330
330
330
330
330
330
330
330
330
330
330
330
330
330
330
330
330
330
330
330
330
330
330
330
330
330
330
330
330
330
330
330
330
330
330
330
330
330
330
330
330
330
330
330
330
330
330
330
330
330
330
330
330
330
330
330
330
330
330
330
330
330
330
330
330
330
330
330
330
330
330
330
330
330
330
330
330
330
330
330
330
330
330
330
330
330
330
330
330
SCALARS rr_Vext float
LOOKUP_TABLE default
0.181359
0.449123
0.356048
0.468109
0.250492
0.377827
0.179274
0.465089
0.395106
0.504565
0.165389
0.466508
0.409825
0.435013
0.516134
0.424864
0.369043
0.414183
0.365531
0.360527
0.405108
0.0765106
0.415069
0.383014
0.347105
0.403471
0.15501
0.352834
0.267413
0.339246
0.361969
0.276485
0.17152
0.252901
0.249247
0.253452
0.330126
0.24949
0.361539
0.192836
0.224721
0.29105
0.29106
0.397271
0.216885
0.24412
0.344612
0.350183
0.330079
0.303761
0.312853
0.245236
0.401517
0.315206
0.369414
0.157753
0.266178
0.317516
0.26615
0.393184
0.470929
0.464872
0.153275
0.327641
0.445313
0.417374
0.455654
0.391904
0.357985
0.515556
0.435554
0.43079
0.277654
0.338744
0.353972
0.176426
0.372675
0.413476
0.395169
0.271132
0.24049
0.283506
0.527531
0.24025
0.32776
0.119291
0.407579
0.344609
0.229706
0.0374828
0.273092
0.0407607
0.316357
0.299312
0.258659
0.232983
0.220908
0.44293
0.37291
0.351855
0.293535
0.277769
0.230478
0.418575
0.426137
0.383831
0.340626
0.340847
0.244628
0.512518
0.326026
0.164038
0.220056
0.457878
0.429717
0.304481
0.30863
0.183508
0.320035
0.303366
0.266985
0.502648
0.511809
0.442039
0.484525
0.384951
0.220815
0.478209
0.200078
0.262278
0.227503
0.456394
0.449023
0.448248
0.288937
0.187537
0.190638
0.327439
0.404468
0.187459
0.241541
0.387289
0.287969
0.472757
0.223275
0.385189
0.349731
0.336127
0.214789
0.269545
0.304298
0.440625
0.248026
0.39741
0.461989
0.469242
0.307855
0.249008
0.247656
0.401135
0.333852
0.246117
0.160076
0.239704
0.240466
0.430954
0.252348
0.2551
0.274619
0.245938
0.386343
0.258183
0.226058
0.297713
0.272811
0.340305
0.382117
0.361132
0.313977
0.360844
0.266566
0.418245
0.448851
0.241614
0.442299
0.239439
0.436794
0.402736
0.378965
0.379414
0.446226
0.200774
0.266928
0.246016
0.447408
0.43902
0.407198
0.447893
0.452951
0.381864
0.466568
0.307715
0.274109
0.51273
0.285547
0.465952
0.36996
0.226654
0.286341
0.461723
0.389034
0.350307
0.450055
0.445255
0.278858
0.28422
0.267542
0.395452
0.433418
0.498091
0.478087
0.520369
0.471557
0.515285
0.432054
0.4572
0.46065
0.434354
0.456356
0.422918
0.416634
0.28241
0.389409
0.454294
0.31212
0.470271
0.432155
0.492658
0.288245
0.468275
0.448676
0.284499
0.406912
0.282468
0.455237
0.411288
0.296254
0.277677
0.235552
0.271097
0.455772
0.197501
0.347019
0.276527
0.313902
0.46867
0.455547
0.147788
0.457103
0.23643
0.261764
0.466269
0.379026
0.264584
0.52218
0.29123
0.147779
0.267723
0.406398
0.50892
0.382688
0.457754
0.425154
0.226614
0.216731
0.175978
0.201428
0.308134
0.229075
0.37198
0.227524
0.406391
0.287622
0.268101
0.323952
0.293521
0.39852
0.281486
0.287596
0.13637
0.303571
0.437809
0.438057
0.391523
0.281115
0.192358
0.545876
0.360487
0.298317
0.27429
0.284975
0.282728
0.358842
0.27809
0.192059
0.274791
0.183495
0.351066
0.279576
0.127091
0.263721
0.321336
0.279314
0.443668
0.290709
0.381467
0.138314
0.305661
0.287013
0.261623
0.269317
0.321991
0.308721
0.321045
0.266563
0.271163
0.293858
0.4036
0.276094
0.399021
0.358786
0.290796
0.286473
0.290122
0.323371
0.289911
0.270116
0.308528
0.333028
0.387865
0.290168
0.286352
0.425141
0.419247
0.276211
0.290834
0.117368
0.342062
0.227677
0.319679
0.126304
0.131123
0.117233
0.119129
0.126411
0.133076
0.137186
0.365817
0.275202
0.269662
0.305533
0.296206
0.292407
0.314708
0.285992
0.292386
0.310822
0.291313
0.368787
0.261063
0.378831
0.289102
0.277578
0.291595
0.322764
0.328992
0.304695
0.351048
0.326029
0.300388
0.213974
0.303858
0.298861
0.328279
0.305307
0.288517
0.275034
0.304062
0.31909
0.436159
0.283305
0.423999
0.438657
0.298863
0.422861
0.322474
0.255677
0.356792
0.307316
0.229504
0.18527
0.353347
0.377137
0.313431
0.259542
0.317011
0.138204
0.309862
0.289511
0.140569
0.0597485
0.0653752
0.26865
0.283293
0.331355
0.316585
0.0311308
0.0325286
0.318178
0.32154
0.30424
0.103723
0.264725
0.315902
0.31564
0.272074
0.24028
0.107863
0.464464
0.284944
0.352159
0.35767
0.255161
0.323443
0.249474
0.275478
0.129739
0.19938
0.323804
0.327748
0.280323
0.293561
0.303656
0.320503
0.306407
0.14396
0.275777
0.301351
0.290883
0.437485
0.143857
0.23373
0.240571
0.234522
0.155624
0.155628
0.267698
0.208506
0.301871
0.153855
0.185525
0.0614166
0.0614141
0.112309
0.199632
0.134971
0.256999
0.284536
0.297805
0.336998
0.307416
0.28523
0.222215
0.127171
0.278048
0.290579
0.282436
0.144129
0.147644
0.104628
0.281946
0.285969
0.224179
0.258248
0.238711
0.22379
0.292909
0.223756
0.257202
0.251385
0.158046
0.19524
0.165307
0.310644
0.112706
0.118918
0.115939
0.294531
0.10769
0.104732
0.200915
0.0979318
0.243153
0.243508
0.100659
0.255443
0.113722
0.110988
0.127154
0.105858
0.105723
0.174204
0.12624
0.112774
0.106277
0.235809
0.272657
0.118743
0.260315
0.0960764
0.264786
0.208171
0.100551
0.0864348
0.0948693
0.12646
0.22555
0.192179
0.0824423
0.0914071
0.253855
0.0775858
0.0775825
0.0878715
0.0979618
0.0995846
0.127333
0.207531
0.193793
0.253766
0.0775241
0.0775208
0.229251
0.0843463
0.178713
0.0765188
0.0783411
0.103271
0.198595
0.205595
0.218906
0.200659
0.198579
0.0438923
0.32038
0.0557536
0.0543417
0.259007
0.257238
0.0563344
0.0390571
0.0548043
0.238559
SCALARS rr_Vli float
LOOKUP_TABLE default
0.396486
0.903296
0.721402
0.942901
0.493002
0.765663
0.392034
0.937669
0.806266
1.01511
0.359835
0.940541
0.8277
0.874152
1.02412
0.859727
0.739393
0.835914
0.748795
0.732052
0.823479
0.146196
0.843736
0.777625
0.704886
0.813138
0.333348
0.714256
0.560607
0.6598
0.731224
0.579527
0.369271
0.494392
0.485904
0.495506
0.641456
0.486895
0.73048
0.415064
0.47121
0.565329
0.565389
0.802513
0.463322
0.511146
0.70466
0.71357
0.66868
0.640141
0.657313
0.509708
0.79128
0.654953
0.728498
0.336093
0.518807
0.659755
0.51879
0.798045
0.943862
0.925028
0.327839
0.652217
0.886008
0.836194
0.912998
0.789772
0.727288
1.0367
0.858505
0.849151
0.582209
0.676851
0.716967
0.381182
0.738158
0.828438
0.79642
0.562479
0.507622
0.556447
1.0535
0.508331
0.685383
0.254579
0.825074
0.689486
0.49066
0.0719434
0.567527
0.0782461
0.626349
0.600258
0.537107
0.489901
0.466216
0.891212
0.738706
0.711147
0.604216
0.579672
0.487749
0.844109
0.858079
0.772712
0.679545
0.689378
0.517758
1.02965
0.661676
0.349478
0.467058
0.923819
0.865434
0.632491
0.601612
0.38741
0.624001
0.62999
0.547959
0.99831
1.02947
0.884276
0.972855
0.763252
0.431749
0.962234
0.422252
0.544645
0.448452
0.918478
0.897108
0.901821
0.602898
0.365537
0.404181
0.66093
0.807731
0.365414
0.503537
0.778932
0.59024
0.951058
0.471531
0.776063
0.704321
0.680953
0.435246
0.556267
0.620246
0.886305
0.519981
0.802495
0.92944
0.94426
0.617852
0.518656
0.515712
0.810195
0.680205
0.515659
0.341238
0.503637
0.500927
0.867513
0.525644
0.531442
0.575695
0.512235
0.764767
0.536473
0.475014
0.597024
0.566758
0.679099
0.756451
0.728157
0.618511
0.726371
0.558759
0.841634
0.903302
0.503621
0.884781
0.503408
0.873805
0.803282
0.749914
0.763388
0.89254
0.423343
0.554569
0.51569
0.900208
0.886299
0.82171
0.894903
0.911194
0.76527
0.938415
0.629673
0.568291
1.02453
0.59847
0.930551
0.741276
0.47324
0.569197
0.928572
0.772727
0.703604
0.906434
0.889136
0.575328
0.57047
0.554199
0.788781
0.870376
1.00028
0.961014
1.04558
0.94745
1.03539
0.868711
0.907696
0.914768
0.862343
0.905931
0.833929
0.821515
0.583003
0.782793
0.915906
0.636237
0.93312
0.857209
0.993022
0.597475
0.944367
0.902753
0.586735
0.8088
0.582773
0.908854
0.829724
0.61088
0.57498
0.497305
0.572061
0.9101
0.417614
0.70148
0.572845
0.642711
0.945255
0.914966
0.286927
0.918293
0.500196
0.542258
0.940099
0.7642
0.548648
1.04887
0.596675
0.286927
0.554499
0.815976
1.01856
0.772232
0.908465
0.850822
0.4466
0.437752
0.374434
0.429883
0.608683
0.465559
0.749991
0.469384
0.807668
0.576816
0.55534
0.649546
0.603994
0.802276
0.579178
0.596019
0.263019
0.600442
0.868509
0.869129
0.787207
0.578062
0.376387
1.09285
0.734299
0.613258
0.565366
0.562957
0.583123
0.710459
0.572676
0.410196
0.565166
0.387691
0.700125
0.576598
0.245149
0.543076
0.642113
0.576619
0.887239
0.598797
0.772172
0.296222
0.619802
0.592061
0.51704
0.555816
0.655878
0.617314
0.645549
0.54901
0.557647
0.602196
0.804985
0.56787
0.804505
0.726242
0.573154
0.589127
0.594775
0.657842
0.593794
0.555994
0.631807
0.662546
0.782179
0.59465
0.590809
0.855286
0.843307
0.568299
0.573277
0.256088
0.6926
0.480627
0.650103
0.287606
0.29855
0.266803
0.271172
0.287682
0.303056
0.312311
0.729343
0.539723
0.544565
0.622603
0.6065
0.598932
0.633518
0.58613
0.599483
0.609469
0.596711
0.732657
0.542545
0.753106
0.586003
0.565698
0.597464
0.637466
0.666112
0.620591
0.710715
0.663996
0.615741
0.444039
0.619296
0.605571
0.652003
0.624636
0.591867
0.562871
0.620017
0.64672
0.877916
0.579857
0.853547
0.889737
0.609276
0.852427
0.653928
0.52384
0.713542
0.625424
0.450401
0.395665
0.704467
0.750312
0.6352
0.528048
0.635252
0.301236
0.62802
0.589264
0.300912
0.115298
0.126126
0.544003
0.580096
0.673735
0.647661
0.0592774
0.0619388
0.641395
0.648086
0.613481
0.226113
0.542804
0.631011
0.643416
0.555013
0.489877
0.235469
0.929282
0.583732
0.713231
0.724382
0.520582
0.658847
0.508989
0.561646
0.279101
0.421176
0.659631
0.663707
0.570433
0.599123
0.618255
0.651892
0.623522
0.307427
0.547096
0.616831
0.583014
0.8749
0.307367
0.473533
0.487753
0.46224
0.300515
0.300535
0.529553
0.427592
0.611535
0.329005
0.358876
0.117176
0.117176
0.245398
0.389619
0.262494
0.52105
0.563539
0.60141
0.677645
0.614656
0.569069
0.448036
0.27725
0.562545
0.582799
0.564247
0.311556
0.287924
0.224284
0.563451
0.574849
0.461942
0.521746
0.481453
0.440836
0.590093
0.440798
0.520821
0.502146
0.307811
0.380027
0.353393
0.623981
0.246785
0.25998
0.254334
0.589282
0.234981
0.230138
0.410009
0.214644
0.47712
0.477842
0.220334
0.51961
0.244574
0.243122
0.273901
0.231958
0.227739
0.339829
0.270697
0.245996
0.232677
0.475748
0.543001
0.256116
0.525107
0.211011
0.532688
0.423218
0.220454
0.186663
0.208255
0.276319
0.457466
0.376607
0.157552
0.174883
0.509986
0.148307
0.148306
0.168048
0.188628
0.213205
0.248113
0.410273
0.379761
0.51034
0.149004
0.149003
0.448511
0.184461
0.363609
0.167149
0.16815
0.221553
0.384549
0.398195
0.424214
0.388778
0.384539
0.0840102
0.620731
0.107163
0.103829
0.501444
0.497965
0.107596
0.0747329
0.105301
0.462542
SCALARS rr_S_ext' float
LOOKUP_TABLE default
-0.000284907
-0.000650676
-0.000519546
-0.000679175
-0.000355342
-0.00055142
-0.000281705
-0.000675394
-0.000580548
-0.000731218
-0.000258603
-0.000677462
-0.000596155
-0.000629701
-0.000737988
-0.000619189
-0.000532669
-0.000602081
-0.000539106
-0.000527184
-0.000593007
-0.000105457
-0.000607593
-0.000560004
-0.000507619
-0.0005857
-0.000239656
-0.000514412
-0.000403347
-0.000475715
-0.000526665
-0.000416961
-0.000265473
-0.000356407
-0.000350316
-0.00035721
-0.000462501
-0.000351021
-0.000526126
-0.000298396
-0.000339024
-0.000407616
-0.000407658
-0.000578011
-0.000333163
-0.000367774
-0.000507357
-0.000513824
-0.000481578
-0.000460498
-0.000472894
-0.000366818
-0.00057031
-0.00047135
-0.000525051
-0.000241698
-0.00037404
-0.000474806
-0.000374027
-0.000574714
-0.000679963
-0.000666532
-0.000235735
-0.000469952
-0.000638418
-0.000602408
-0.000657734
-0.000568871
-0.000523745
-0.000746778
-0.000618759
-0.000612016
-0.000418886
-0.000487651
-0.000516358
-0.000274006
-0.00053195
-0.00059682
-0.000573657
-0.000404817
-0.000365152
-0.000401102
-0.000759027
-0.000365635
-0.000493158
-0.000183068
-0.000594224
-0.000496736
-0.000352823
-5.18895e-05
-0.000408431
-5.64351e-05
-0.00045138
-0.000432424
-0.000386548
-0.000352443
-0.000335369
-0.000641966
-0.000532344
-0.000512197
-0.000434955
-0.000417121
-0.000350828
-0.000607997
-0.000618086
-0.000556599
-0.000489612
-0.000496508
-0.000372412
-0.00074171
-0.000476509
-0.000251322
-0.000335916
-0.000665402
-0.000623381
-0.000455189
-0.000433738
-0.000278678
-0.000449876
-0.000453393
-0.000394489
-0.00071937
-0.000741562
-0.000637073
-0.000700812
-0.000550016
-0.000311248
-0.000693124
-0.000303744
-0.000391972
-0.000323216
-0.0006616
-0.000646339
-0.000649607
-0.000433836
-0.000263537
-0.000290705
-0.000476047
-0.000581952
-0.000263448
-0.000362347
-0.000561096
-0.000424945
-0.000685078
-0.000339185
-0.000558999
-0.000507331
-0.000490418
-0.000313458
-0.000400408
-0.000446619
-0.000638434
-0.000374116
-0.000578004
-0.000669505
-0.000680173
-0.000445089
-0.000373236
-0.00037112
-0.000583545
-0.0004898
-0.000371013
-0.000245392
-0.000362333
-0.000360476
-0.000624886
-0.000378264
-0.000382435
-0.000414202
-0.000368616
-0.000551133
-0.000386083
-0.00034174
-0.000430095
-0.000407881
-0.000489287
-0.00054514
-0.000524483
-0.000445793
-0.00052322
-0.000402019
-0.000606251
-0.000650671
-0.000362408
-0.000637439
-0.000362161
-0.000629529
-0.000578769
-0.000540436
-0.000549891
-0.000643031
-0.000304537
-0.000399108
-0.00037103
-0.000648444
-0.000638366
-0.000591852
-0.000644749
-0.00065636
-0.000551309
-0.000675972
-0.000453357
-0.000409008
-0.000738143
-0.000430592
-0.000670441
-0.000534027
-0.000340528
-0.000410149
-0.000668883
-0.000556819
-0.000506853
-0.000652913
-0.000640604
-0.000414131
-0.000410956
-0.000398876
-0.000568321
-0.000626987
-0.000720565
-0.000692259
-0.000753187
-0.000682498
-0.000745842
-0.00062577
-0.000654081
-0.000659173
-0.0006214
-0.000652811
-0.00060104
-0.000592093
-0.000419649
-0.000563883
-0.000659711
-0.000458134
-0.000672412
-0.000617716
-0.000715261
-0.000430014
-0.000680206
-0.000650279
-0.000422347
-0.000582801
-0.000419491
-0.000654815
-0.000597625
-0.000439729
-0.000413837
-0.000357728
-0.000411506
-0.00065571
-0.00030039
-0.000505232
-0.000412295
-0.000462736
-0.000680843
-0.000659104
-0.000206884
-0.000661497
-0.000359787
-0.00039028
-0.000677135
-0.000550445
-0.000394868
-0.000755566
-0.000429584
-0.000206884
-0.000399093
-0.000587802
-0.000733806
-0.000556216
-0.000654642
-0.000612966
-0.000321884
-0.000315292
-0.00026928
-0.000309128
-0.000438677
-0.000335262
-0.000540211
-0.000337872
-0.000581987
-0.000415537
-0.000399697
-0.000467934
-0.000434799
-0.000577896
-0.000416936
-0.000428969
-0.000189679
-0.000432721
-0.000625857
-0.0006263
-0.00056706
-0.00041614
-0.000271331
-0.000787322
-0.000528755
-0.000441481
-0.000406972
-0.000405722
-0.000419746
-0.000511994
-0.000412246
-0.000294964
-0.000406854
-0.000278873
-0.000504446
-0.00041505
-0.000176791
-0.000390938
-0.000462621
-0.000415053
-0.000639213
-0.000431046
-0.000556126
-0.000212993
-0.000446364
-0.000426178
-0.000372624
-0.000400082
-0.000472286
-0.000444747
-0.000465014
-0.000395207
-0.000401442
-0.000433556
-0.000579997
-0.0004088
-0.000579476
-0.000523046
-0.000413097
-0.000424105
-0.000428208
-0.000473717
-0.000427514
-0.000400242
-0.000454884
-0.000477402
-0.000563392
-0.000428123
-0.000425274
-0.000616092
-0.000607465
-0.000409105
-0.000413185
-0.000184027
-0.000498814
-0.000345732
-0.000468149
-0.000206395
-0.000214249
-0.000191469
-0.000194603
-0.000206453
-0.000217482
-0.000224126
-0.000525501
-0.000389053
-0.000392225
-0.00044832
-0.000436664
-0.000431212
-0.000456337
-0.000421988
-0.000431596
-0.000439331
-0.000429613
-0.000527942
-0.000390451
-0.000542664
-0.000422028
-0.000407343
-0.000430152
-0.000459423
-0.000479737
-0.000446878
-0.000511861
-0.000478133
-0.000443304
-0.000319573
-0.000445936
-0.000436126
-0.000469828
-0.000449732
-0.000426106
-0.000405258
-0.000446449
-0.000465758
-0.000632383
-0.000417486
-0.000614828
-0.00064076
-0.000438718
-0.000613998
-0.000470941
-0.000377144
-0.000514072
-0.000450368
-0.00032466
-0.000284515
-0.000507579
-0.000540642
-0.000457462
-0.000380251
-0.000457643
-0.000216478
-0.000452289
-0.000424328
-0.000216368
-8.31476e-05
-9.09567e-05
-0.000391792
-0.000417654
-0.00048517
-0.000466311
-4.27633e-05
-4.46833e-05
-0.000461991
-0.000466814
-0.000441883
-0.000162492
-0.000390789
-0.000454628
-0.000463303
-0.000399639
-0.000352743
-0.000169208
-0.000669495
-0.000420266
-0.000513668
-0.000521699
-0.000374845
-0.000474424
-0.000366497
-0.000404421
-0.000200654
-0.000302962
-0.000474987
-0.000478003
-0.00041077
-0.000431395
-0.0004452
-0.000469435
-0.000449
-0.000221066
-0.000394244
-0.000444106
-0.000420008
-0.000630324
-0.00022102
-0.000341034
-0.000351268
-0.000333156
-0.000216712
-0.000216727
-0.000381632
-0.000307841
-0.000440424
-0.000236573
-0.000258786
-8.45275e-05
-8.4527e-05
-0.000176338
-0.00028089
-0.000189258
-0.000375248
-0.000406112
-0.000433169
-0.000488135
-0.000442832
-0.000410014
-0.000322715
-0.00019924
-0.000405156
-0.000419846
-0.000406524
-0.000223953
-0.000207578
-0.000161263
-0.000405947
-0.000414092
-0.000332526
-0.000375787
-0.000346782
-0.000317733
-0.000425047
-0.000317705
-0.000375096
-0.000361785
-0.000221923
-0.000273994
-0.000254112
-0.000449492
-0.000177326
-0.000186816
-0.000182739
-0.000424545
-0.00016886
-0.000165346
-0.000295225
-0.000154226
-0.000343923
-0.000344443
-0.000158321
-0.000374175
-0.000175833
-0.000174692
-0.000196907
-0.000166669
-0.000163721
-0.000244998
-0.00019463
-0.000176777
-0.00016719
-0.000342671
-0.000391252
-0.000184114
-0.000378224
-0.000151606
-0.000383713
-0.000304768
-0.0001584
-0.000134181
-0.000149629
-0.000198556
-0.000329453
-0.000271479
-0.000113648
-0.000126146
-0.000367374
-0.000106979
-0.000106978
-0.000121217
-0.000136037
-0.000153301
-0.000178881
-0.000295676
-0.000273752
-0.000367618
-0.000107466
-0.000107465
-0.000323327
-0.000132546
-0.000261837
-0.000120111
-0.000120897
-0.000159295
-0.000277292
-0.00028713
-0.000305887
-0.000280337
-0.000277284
-6.05972e-05
-0.000447592
-7.72889e-05
-7.4896e-05
-0.000361585
-0.000359077
-7.76144e-05
-5.39059e-05
-7.59465e-05
-0.00033352
SCALARS rr_P_ext' float
LOOKUP_TABLE default
0.000181601
0.000419428
0.000334581
0.000437714
0.000229688
0.0003551
0.000179553
0.000435225
0.000373518
0.000471327
0.000164948
0.000436557
0.000384076
0.000405953
0.000476535
0.000398816
0.00034353
0.00038793
0.00034668
0.000339405
0.000381727
6.84168e-05
0.000391117
0.00036054
0.000326803
0.000377445
0.000153109
0.000331313
0.000258581
0.000307955
0.000339296
0.000267315
0.000169576
0.000230573
0.00022671
0.00023109
0.000299435
0.000227136
0.000338942
0.000190613
0.000217338
0.000263913
0.000263938
0.000372376
0.000213043
0.000235815
0.000326341
0.000330651
0.000310137
0.000295013
0.000303077
0.000235436
0.000368579
0.000302539
0.000339301
0.000154612
0.000242069
0.000304757
0.000242058
0.000370025
0.000438504
0.000430237
0.000150716
0.000303332
0.000412096
0.000388507
0.000424183
0.000366603
0.000337167
0.000481389
0.000399882
0.000395523
0.000268535
0.000314606
0.000332541
0.000174941
0.000343568
0.0003849
0.000369683
0.00025989
0.000233879
0.000259356
0.000489717
0.000234113
0.000316266
0.00011708
0.000382717
0.000320412
0.000225618
3.36457e-05
0.000262149
3.65925e-05
0.000291546
0.000278845
0.00024813
0.000225856
0.000214807
0.000413791
0.000343817
0.000329954
0.000279526
0.000267576
0.000224626
0.000391782
0.00039836
0.000358741
0.000315935
0.000319819
0.000238442
0.00047818
0.0003068
0.000160769
0.000214993
0.000428745
0.000401763
0.000292177
0.0002807
0.000178489
0.000291135
0.000291035
0.000253619
0.000464457
0.000478009
0.000410944
0.000451846
0.000355191
0.000201352
0.000446764
0.000194551
0.00025161
0.000208882
0.000426437
0.000416989
0.000418723
0.000278303
0.000170554
0.000186084
0.000306718
0.000375471
0.000170495
0.000232472
0.000361684
0.000273247
0.00044159
0.000217232
0.000360252
0.000326971
0.000315828
0.00020186
0.000257237
0.000287393
0.000411532
0.000239841
0.00037239
0.000431549
0.000438413
0.000286985
0.000239486
0.000238137
0.00037595
0.000315196
0.000237871
0.000156963
0.000232219
0.000231295
0.000402758
0.00024271
0.000245382
0.000265542
0.000236523
0.000355986
0.00024781
0.000219017
0.000277345
0.000261807
0.000315713
0.000352111
0.000337973
0.000288121
0.000337232
0.000257734
0.000390765
0.000419392
0.000232516
0.00041118
0.000232088
0.000406076
0.000373475
0.00034909
0.000354444
0.000414792
0.000195083
0.000256174
0.000237867
0.000417968
0.000411293
0.000381346
0.00041596
0.000423081
0.000355539
0.000435733
0.000291579
0.000262603
0.000476208
0.000276057
0.000432561
0.000344402
0.000218429
0.00026478
0.00043117
0.000359501
0.000326775
0.000420794
0.000413316
0.000266063
0.000264973
0.000256126
0.000366731
0.000404239
0.000464571
0.000446267
0.000485569
0.00044
0.000480833
0.000403389
0.000422324
0.000425598
0.000401222
0.000421509
0.000388411
0.000382631
0.000269587
0.000363505
0.000425121
0.0002948
0.000434191
0.000398889
0.000460932
0.000276097
0.000438312
0.000419151
0.000271356
0.000376243
0.000269507
0.000422497
0.000385082
0.00028253
0.000265746
0.000229117
0.00026358
0.000423064
0.000192353
0.000325461
0.000264741
0.000297589
0.000438717
0.000424938
0.000133956
0.000426468
0.000230371
0.000250605
0.000436347
0.000354705
0.000253518
0.000487123
0.000276245
0.000133955
0.000256271
0.000378984
0.000473312
0.000358385
0.000422706
0.000395374
0.000208027
0.000203127
0.000172286
0.0001977
0.000283423
0.000215818
0.00034811
0.000217072
0.000375724
0.000267955
0.000256655
0.000301751
0.000279438
0.000372468
0.000267961
0.000275433
0.000122916
0.00027953
0.000404141
0.00040442
0.000365543
0.000267471
0.000175513
0.000507811
0.000340275
0.000283769
0.000261497
0.00026213
0.000269682
0.000330697
0.000264917
0.000188622
0.000261496
0.000178595
0.000325521
0.000266667
0.000114563
0.000251225
0.000298456
0.000266634
0.000412342
0.00027699
0.000358182
0.000136151
0.000287424
0.000273809
0.000240734
0.000257027
0.000303935
0.0002869
0.000299759
0.000253963
0.000258021
0.000278791
0.000374269
0.000262745
0.000373413
0.000336878
0.000266971
0.000272587
0.000275338
0.000304908
0.000274924
0.000257219
0.000292533
0.000308164
0.000363038
0.000275296
0.000273221
0.000397121
0.000391567
0.00026293
0.000267025
0.000117333
0.000321258
0.000221438
0.000301338
0.000130794
0.000135774
0.000121346
0.000123328
0.000130842
0.000137818
0.000142036
0.00033912
0.000251591
0.000252697
0.000288497
0.00028082
0.000277301
0.000294122
0.000271349
0.000277512
0.000284111
0.000276272
0.000340849
0.000250608
0.000350326
0.000271766
0.000262125
0.000276607
0.000296833
0.000308973
0.000287587
0.000329666
0.000307705
0.000285049
0.000205155
0.000286957
0.000280857
0.00030334
0.000289255
0.000273963
0.00026064
0.000287269
0.00029993
0.000407594
0.000268501
0.000396272
0.000412584
0.000282303
0.000395667
0.000303247
0.000242523
0.000331614
0.000289864
0.000209932
0.000181942
0.000327555
0.000348986
0.000294591
0.000244745
0.000295137
0.000138044
0.000291257
0.0002731
0.000138317
5.38779e-05
5.89398e-05
0.000252328
0.000268592
0.0003123
0.000299921
2.77551e-05
2.90013e-05
0.000297714
0.000300826
0.000284744
0.000103616
0.000251271
0.000293313
0.000298126
0.000257135
0.000226978
0.000107877
0.000431848
0.000270257
0.000330813
0.000335986
0.000241177
0.00030531
0.000235806
0.000260231
0.000128185
0.000194026
0.00030567
0.000307849
0.000264382
0.00027755
0.000286521
0.000302159
0.000288987
0.000141369
0.000254578
0.000285619
0.000270859
0.000406606
0.000141329
0.000219624
0.000226192
0.000215308
0.000140414
0.000140422
0.000246523
0.000197934
0.000283633
0.000151257
0.000167639
5.48486e-05
5.48481e-05
0.000112408
0.000181755
0.000122517
0.000241635
0.000262296
0.000279075
0.000314662
0.000285667
0.000264569
0.000207957
0.000127047
0.000260965
0.000270731
0.000262273
0.000142975
0.000134331
0.000103071
0.00026189
0.000266943
0.00021367
0.000242092
0.000223456
0.000205356
0.000273928
0.000205336
0.000241576
0.000233412
0.000143637
0.000177352
0.000162477
0.000289792
0.000113004
0.000119078
0.000116423
0.000273847
0.000107662
0.000105317
0.000189943
9.82697e-05
0.000222391
0.000222725
0.000100897
0.000240841
0.000112333
0.000111319
0.000125769
0.000106201
0.000104572
0.00015854
0.000124393
0.000112715
0.000106546
0.000220797
0.000252521
0.000117577
0.000243711
9.65723e-05
0.000247334
0.00019618
0.000100924
8.56745e-05
9.53192e-05
0.000126572
0.000212135
0.000175575
7.37296e-05
8.18262e-05
0.000236845
6.94009e-05
6.93999e-05
7.86334e-05
8.81732e-05
9.79995e-05
0.000115771
0.000191014
0.000177046
0.000236971
6.96701e-05
6.96692e-05
0.00020915
8.44826e-05
0.000168528
7.65689e-05
7.72577e-05
0.000101802
0.000179604
0.00018597
0.000198105
0.000181562
0.000179597
3.93053e-05
0.000289887
5.01062e-05
4.85903e-05
0.000234206
0.000232584
5.03562e-05
3.49664e-05
4.92381e-05
0.000215987
SCALARS rr_S' float
LOOKUP_TABLE default
6.73865e-05
0.000155129
0.000123784
0.000161901
8.48826e-05
0.000131376
6.66274e-05
0.000160988
0.000138227
0.000174326
6.11929e-05
0.000161481
0.000142078
0.000150141
0.000176158
0.000147542
0.000127038
0.000143498
0.000128314
0.000125579
0.000141245
2.52553e-05
0.000144717
0.000133398
0.000120917
0.000139612
5.67759e-05
0.00012257
9.57925e-05
0.000113753
0.000125514
9.90272e-05
6.28854e-05
8.51862e-05
8.37513e-05
8.53775e-05
0.000110602
8.39123e-05
0.000125384
7.0686e-05
8.05144e-05
9.74797e-05
9.74893e-05
0.000137751
7.89796e-05
8.73546e-05
0.000120778
0.000122357
0.000114739
0.000109311
0.000112286
8.71888e-05
0.000136216
0.000112038
0.000125399
5.73127e-05
8.94247e-05
0.000112859
8.94211e-05
0.000136905
0.000162162
0.000159063
5.58773e-05
0.000112147
0.000152355
0.000143672
0.000156864
0.000135602
0.000124753
0.000178043
0.000147786
0.000146175
9.94808e-05
0.000116331
0.000123028
6.48836e-05
0.000126998
0.000142339
0.000136741
9.62373e-05
8.66648e-05
9.58368e-05
0.000181076
8.67592e-05
0.000117151
4.34025e-05
0.000141588
0.000118484
8.36409e-05
1.24219e-05
9.70811e-05
1.35099e-05
0.000107766
0.000103122
9.18867e-05
8.36786e-05
7.95975e-05
0.000153047
0.000127091
0.00012206
0.000103478
9.91074e-05
8.3244e-05
0.000144919
0.000147344
0.000132689
0.000116815
0.000118314
8.83646e-05
0.000176848
0.000113512
5.95942e-05
7.9683e-05
0.000158594
0.000148604
0.0001082
0.000103696
6.61404e-05
0.000107552
0.000107776
9.38767e-05
0.000171699
0.000176795
0.00015196
0.000167105
0.000131298
7.43918e-05
0.000165242
7.20916e-05
9.31755e-05
7.71969e-05
0.000157724
0.000154187
0.000154869
0.00010308
6.30056e-05
6.89664e-05
0.000113459
0.000138832
6.29839e-05
8.61017e-05
0.000133773
0.000101137
0.000163327
8.04982e-05
0.000133251
0.00012094
0.000116845
7.46817e-05
9.52363e-05
0.00010635
0.000152208
8.88498e-05
0.000137754
0.000159614
0.000162153
0.000106136
8.86968e-05
8.8196e-05
0.000139071
0.000116637
8.81181e-05
5.8185e-05
8.60334e-05
8.56632e-05
0.000148969
8.9891e-05
9.08813e-05
9.83708e-05
8.7599e-05
0.000131584
9.17704e-05
8.1143e-05
0.000102568
9.69535e-05
0.000116734
0.000130153
0.000125015
0.00010648
0.000124733
9.54784e-05
0.000144531
0.000155119
8.61174e-05
0.000152048
8.59874e-05
0.00015016
0.00013809
0.000129034
0.000131096
0.000153384
7.22861e-05
9.48674e-05
8.81184e-05
0.00015459
0.000152143
0.000141062
0.000153807
0.00015648
0.000131482
0.000161158
0.000107916
9.72398e-05
0.000176085
0.000102266
0.000159943
0.000127363
8.09051e-05
9.78877e-05
0.00015947
0.000132902
0.000120856
0.000155643
0.000152826
9.85028e-05
9.79957e-05
9.48387e-05
0.000135596
0.0001495
0.000171813
0.000165049
0.000179582
0.000162729
0.000177831
0.000149195
0.000156122
0.000157333
0.000148321
0.00015582
0.000143549
0.000141412
9.98097e-05
0.000134443
0.000157246
0.000109092
0.000160505
0.000147453
0.00017049
0.000102236
0.000162127
0.000155029
0.000100461
0.000139094
9.9778e-05
0.000156219
0.000142439
0.000104597
9.83992e-05
8.4901e-05
9.76685e-05
0.00015643
7.12826e-05
0.000120399
9.80287e-05
0.000110142
0.000162278
0.000157156
4.94776e-05
0.000157723
8.53733e-05
9.27942e-05
0.000161399
0.000131204
9.38764e-05
0.000180155
0.000102245
4.94774e-05
9.48916e-05
0.000140159
0.000175026
0.000132569
0.00015626
0.000146205
7.6881e-05
7.51409e-05
6.38608e-05
7.32894e-05
0.000104755
7.98552e-05
0.000128765
8.03652e-05
0.000138901
9.90954e-05
9.50339e-05
0.000111593
0.000103445
0.000137766
9.91958e-05
0.000101989
4.53888e-05
0.00010332
0.000149395
0.000149499
0.000135198
9.90121e-05
6.48466e-05
0.000187786
0.000125916
0.000105044
9.68094e-05
9.68849e-05
9.98417e-05
0.000122238
9.80723e-05
6.99256e-05
9.68007e-05
6.61817e-05
0.000120358
9.87249e-05
4.23043e-05
9.30032e-05
0.000110359
9.87167e-05
0.000152475
0.000102542
0.00013251
5.04805e-05
0.00010634
0.00010137
8.89777e-05
9.51585e-05
0.000112469
0.000106089
0.000110867
9.40175e-05
9.55142e-05
0.000103188
0.000138383
9.72633e-05
0.000138124
0.000124629
9.86659e-05
0.000100906
0.000101912
0.000112823
0.000101756
9.52205e-05
0.000108272
0.00011393
0.000134288
0.000101895
0.000101153
0.000146882
0.000144827
9.73328e-05
9.86863e-05
4.35336e-05
0.000118852
8.2055e-05
0.000111501
4.86089e-05
5.04592e-05
4.50962e-05
4.58333e-05
4.86253e-05
5.12198e-05
5.27865e-05
0.000125385
9.29629e-05
9.34769e-05
0.000106758
0.000103936
0.000102635
0.000108788
0.000100434
0.000102717
0.000104978
0.000102254
0.000126007
9.2807e-05
0.000129512
0.000100546
9.69992e-05
0.00010238
0.000109711
0.000114307
0.000106419
0.000121962
0.000113863
0.000105506
7.597e-05
0.000106188
0.000103908
0.00011214
0.000107054
0.000101405
9.64653e-05
0.000106306
0.000110966
0.000150758
9.93749e-05
0.000146571
0.000152648
0.000104467
0.000146355
0.000112195
8.97638e-05
0.000122624
0.000107259
7.75723e-05
6.74492e-05
0.000121109
0.000129022
0.00010899
9.05623e-05
0.000109144
5.12157e-05
0.000107756
0.000101056
5.12827e-05
1.98957e-05
2.17648e-05
9.33507e-05
9.94106e-05
0.000115557
0.000111002
1.02442e-05
1.07041e-05
0.000110122
0.000111273
0.000105326
3.8443e-05
9.30043e-05
0.000108456
0.000110323
9.51566e-05
8.39944e-05
4.00257e-05
0.000159691
0.000100028
0.000122388
0.000124302
8.92517e-05
0.000112978
8.72638e-05
9.63e-05
4.75346e-05
7.18994e-05
0.000113111
0.000113892
9.7829e-05
0.000102713
0.000106024
0.000111805
0.000106933
5.24078e-05
9.41086e-05
0.00010571
0.000100167
0.000150355
5.23941e-05
8.12531e-05
8.36856e-05
7.95723e-05
5.18519e-05
5.18552e-05
9.11205e-05
7.32628e-05
0.000104934
5.60764e-05
6.19095e-05
2.02456e-05
2.02454e-05
4.17086e-05
6.71468e-05
4.52555e-05
8.93993e-05
9.6956e-05
0.000103235
0.000116379
0.000105633
9.78238e-05
7.69225e-05
4.71363e-05
9.65431e-05
0.000100122
9.69791e-05
5.30288e-05
4.96246e-05
3.82169e-05
9.68384e-05
9.87298e-05
7.91021e-05
8.95561e-05
8.26567e-05
7.58918e-05
0.000101322
7.58847e-05
8.93731e-05
8.63075e-05
5.30597e-05
6.55127e-05
6.02357e-05
0.000107177
4.19348e-05
4.41862e-05
4.32066e-05
0.000101265
3.99457e-05
3.90873e-05
7.02924e-05
3.64683e-05
8.21766e-05
8.23005e-05
3.74417e-05
8.91163e-05
4.1656e-05
4.13104e-05
4.6641e-05
3.94117e-05
3.87803e-05
5.85693e-05
4.6122e-05
4.182e-05
3.9538e-05
8.16745e-05
9.33622e-05
4.36052e-05
9.01497e-05
3.58411e-05
9.14803e-05
7.25894e-05
3.74543e-05
3.17752e-05
3.53757e-05
4.69638e-05
7.8486e-05
6.4874e-05
2.72164e-05
3.02064e-05
8.75956e-05
2.56187e-05
2.56184e-05
2.90274e-05
3.25571e-05
3.63338e-05
4.27671e-05
7.06014e-05
6.54172e-05
8.76456e-05
2.57233e-05
2.57231e-05
7.72751e-05
3.13478e-05
6.23597e-05
2.84105e-05
2.86473e-05
3.77473e-05
6.63307e-05
6.86827e-05
7.3166e-05
6.70558e-05
6.63287e-05
1.45099e-05
0.000107063
1.85e-05
1.79364e-05
8.64956e-05
8.58966e-05
1.85881e-05
1.2908e-05
1.81793e-05
7.97719e-05
SCALARS rr_P' float
LOOKUP_TABLE default
3.59195e-05
7.6119e-05
6.11811e-05
7.95602e-05
4.07719e-05
6.49447e-05
3.55243e-05
7.91813e-05
6.88023e-05
8.55644e-05
3.24624e-05
7.94245e-05
7.00012e-05
7.36075e-05
8.52948e-05
7.28312e-05
6.21004e-05
7.06526e-05
6.4112e-05
6.22005e-05
7.00354e-05
1.17849e-05
7.17589e-05
6.60662e-05
5.98987e-05
6.86431e-05
2.97708e-05
6.05285e-05
4.89731e-05
5.40079e-05
6.18548e-05
5.06184e-05
3.30114e-05
4.06482e-05
3.98549e-05
4.07425e-05
5.24634e-05
3.9973e-05
6.1801e-05
3.70974e-05
4.11713e-05
4.6223e-05
4.62307e-05
6.78832e-05
4.11405e-05
4.46048e-05
6.02381e-05
6.08165e-05
5.67022e-05
5.61747e-05
5.75308e-05
4.41934e-05
6.55143e-05
5.67728e-05
6.0351e-05
2.97736e-05
4.25463e-05
5.71892e-05
4.25476e-05
6.77842e-05
7.9298e-05
7.72317e-05
2.91418e-05
5.4473e-05
7.39666e-05
7.02284e-05
7.66867e-05
6.66665e-05
6.18249e-05
8.73461e-05
7.10909e-05
7.03188e-05
5.08702e-05
5.67143e-05
6.07884e-05
3.4181e-05
6.1384e-05
6.95807e-05
6.72327e-05
4.86897e-05
4.4608e-05
4.59095e-05
8.82336e-05
4.4763e-05
5.97407e-05
2.25854e-05
6.99193e-05
5.78397e-05
4.35642e-05
5.82194e-06
4.92006e-05
6.33277e-06
5.20675e-05
5.04566e-05
4.65315e-05
4.29082e-05
4.09638e-05
7.5128e-05
6.14355e-05
6.01825e-05
5.19498e-05
5.04374e-05
4.29578e-05
7.12963e-05
7.23829e-05
6.51687e-05
5.68628e-05
5.83755e-05
4.56056e-05
8.6682e-05
5.61972e-05
3.09589e-05
4.124e-05
7.8062e-05
7.30139e-05
5.48124e-05
4.93413e-05
3.40492e-05
5.11888e-05
5.4582e-05
4.69933e-05
8.32138e-05
8.67588e-05
7.41696e-05
8.18607e-05
6.35268e-05
3.55038e-05
8.11178e-05
3.71006e-05
4.71862e-05
3.71374e-05
7.74391e-05
7.51632e-05
7.60154e-05
5.24523e-05
2.99776e-05
3.56545e-05
5.58691e-05
6.76487e-05
2.99695e-05
4.37728e-05
6.56393e-05
5.05611e-05
8.01606e-05
4.14551e-05
6.54965e-05
5.94197e-05
5.77446e-05
3.69167e-05
4.79341e-05
5.28755e-05
7.46945e-05
4.54253e-05
6.786e-05
7.83417e-05
7.96074e-05
5.19691e-05
4.50532e-05
4.47873e-05
6.8524e-05
5.79663e-05
4.50235e-05
3.02445e-05
4.40813e-05
4.35179e-05
7.31591e-05
4.56626e-05
4.61713e-05
5.02896e-05
4.44933e-05
6.35633e-05
4.65031e-05
4.15795e-05
5.01828e-05
4.912e-05
5.68395e-05
6.28757e-05
6.14947e-05
5.11919e-05
6.12557e-05
4.8806e-05
7.09551e-05
7.61601e-05
4.3775e-05
7.42109e-05
4.40859e-05
7.32929e-05
6.72043e-05
6.23112e-05
6.43507e-05
7.48547e-05
3.71679e-05
4.80662e-05
4.50446e-05
7.5885e-05
7.49302e-05
6.94443e-05
7.49821e-05
7.67991e-05
6.42876e-05
7.90807e-05
5.38619e-05
4.91656e-05
8.585e-05
5.22692e-05
7.79374e-05
6.22621e-05
4.11946e-05
4.74811e-05
7.8244e-05
6.44152e-05
5.92223e-05
7.64759e-05
7.4463e-05
4.95648e-05
4.79875e-05
4.79107e-05
6.59932e-05
7.32475e-05
8.41823e-05
8.09434e-05
8.80356e-05
7.97692e-05
8.71784e-05
7.3186e-05
7.56353e-05
7.62408e-05
7.18566e-05
7.54818e-05
6.90795e-05
6.80495e-05
5.02519e-05
6.5935e-05
7.73432e-05
5.42425e-05
7.77159e-05
7.13733e-05
8.38384e-05
5.16811e-05
7.97666e-05
7.60993e-05
5.05302e-05
6.74629e-05
5.0206e-05
7.60987e-05
7.01039e-05
5.26023e-05
4.96913e-05
4.37094e-05
5.02579e-05
7.6216e-05
3.67543e-05
5.93722e-05
4.95252e-05
5.50051e-05
7.98483e-05
7.7011e-05
2.34505e-05
7.73058e-05
4.40429e-05
4.68805e-05
7.93898e-05
6.45358e-05
4.7474e-05
8.82875e-05
5.10938e-05
2.34518e-05
4.79311e-05
6.86594e-05
8.54681e-05
6.52615e-05
7.56756e-05
7.13872e-05
3.69768e-05
3.70245e-05
3.31327e-05
3.81393e-05
5.04994e-05
3.95883e-05
6.33357e-05
4.04352e-05
6.73615e-05
4.84863e-05
4.80081e-05
5.45905e-05
5.19163e-05
6.76615e-05
4.97795e-05
5.15471e-05
2.13742e-05
4.98712e-05
7.23204e-05
7.23811e-05
6.63188e-05
4.96572e-05
3.0971e-05
9.17259e-05
6.25633e-05
5.26676e-05
4.86665e-05
4.67073e-05
5.02221e-05
5.9059e-05
4.92568e-05
3.64162e-05
4.85576e-05
3.40972e-05
5.85668e-05
4.96586e-05
1.99239e-05
4.67102e-05
5.38068e-05
4.97022e-05
7.43966e-05
5.15135e-05
6.54333e-05
2.63608e-05
5.26007e-05
5.09996e-05
4.29129e-05
4.78968e-05
5.58814e-05
5.17584e-05
5.43881e-05
4.72266e-05
4.79072e-05
5.15767e-05
6.73454e-05
4.87915e-05
6.79389e-05
6.15396e-05
4.746e-05
5.06113e-05
5.09587e-05
5.59861e-05
5.08338e-05
4.78024e-05
5.40793e-05
5.53072e-05
6.60657e-05
5.09317e-05
5.09e-05
7.20898e-05
7.10712e-05
4.88426e-05
4.74735e-05
2.31601e-05
5.87045e-05
4.22395e-05
5.53107e-05
2.69915e-05
2.80163e-05
2.50271e-05
2.54412e-05
2.6985e-05
2.84439e-05
2.93041e-05
6.09965e-05
4.44992e-05
4.60513e-05
5.30647e-05
5.19076e-05
5.12757e-05
5.34267e-05
5.02047e-05
5.13669e-05
5.02417e-05
5.1087e-05
6.10856e-05
4.70361e-05
6.2826e-05
4.9716e-05
4.82192e-05
5.11646e-05
5.28789e-05
5.64575e-05
5.28708e-05
6.02341e-05
5.6565e-05
5.27489e-05
3.84475e-05
5.27907e-05
5.13606e-05
5.43481e-05
5.34228e-05
5.07378e-05
4.81529e-05
5.28747e-05
5.48622e-05
7.40311e-05
4.96105e-05
7.19841e-05
7.5528e-05
5.19484e-05
7.19753e-05
5.54994e-05
4.48574e-05
5.98344e-05
5.32452e-05
3.71562e-05
3.51238e-05
5.89152e-05
6.26346e-05
5.38813e-05
4.49441e-05
5.33615e-05
2.72187e-05
5.32761e-05
5.01723e-05
2.67675e-05
9.37394e-06
1.02521e-05
4.61128e-05
4.96506e-05
5.73132e-05
5.53885e-05
4.764e-06
4.97789e-06
5.41561e-05
5.47148e-05
5.18126e-05
2.04333e-05
4.65128e-05
5.28589e-05
5.48547e-05
4.73479e-05
4.17704e-05
2.13049e-05
7.79551e-05
4.99807e-05
6.04669e-05
6.14115e-05
4.44155e-05
5.61351e-05
4.34272e-05
4.78906e-05
2.49337e-05
3.70364e-05
5.62056e-05
5.62621e-05
4.85592e-05
5.11313e-05
5.26556e-05
5.54713e-05
5.30794e-05
2.72896e-05
4.55579e-05
5.27767e-05
4.89824e-05
7.33639e-05
2.72966e-05
4.0157e-05
4.13895e-05
3.82758e-05
2.44466e-05
2.44492e-05
4.39881e-05
3.6645e-05
5.18564e-05
2.92395e-05
2.92381e-05
9.43324e-06
9.43349e-06
2.22207e-05
3.19886e-05
2.14857e-05
4.42143e-05
4.68599e-05
5.08595e-05
5.70937e-05
5.15321e-05
4.76212e-05
3.78363e-05
2.50563e-05
4.76488e-05
4.89931e-05
4.72722e-05
2.79496e-05
2.36228e-05
1.99749e-05
4.72188e-05
4.84193e-05
3.97536e-05
4.41387e-05
4.06698e-05
3.64854e-05
4.97979e-05
3.64842e-05
4.41478e-05
4.20647e-05
2.52262e-05
3.11287e-05
3.13991e-05
5.25234e-05
2.23877e-05
2.35527e-05
2.31094e-05
4.94331e-05
2.12521e-05
2.09415e-05
3.4989e-05
1.94883e-05
3.93557e-05
3.94171e-05
1.99823e-05
4.42184e-05
2.18436e-05
2.20631e-05
2.4497e-05
2.10557e-05
2.03686e-05
2.78892e-05
2.4115e-05
2.22422e-05
2.11055e-05
4.01988e-05
4.53687e-05
2.29322e-05
4.43634e-05
1.91927e-05
4.48988e-05
3.59985e-05
2.00214e-05
1.67315e-05
1.89337e-05
2.50206e-05
3.88318e-05
3.10299e-05
1.27018e-05
1.4113e-05
4.29334e-05
1.19591e-05
1.19593e-05
1.35566e-05
1.53069e-05
1.89675e-05
2.03421e-05
3.40612e-05
3.12889e-05
4.30021e-05
1.20725e-05
1.20728e-05
3.69011e-05
1.67157e-05
3.09489e-05
1.51316e-05
1.49923e-05
1.97456e-05
3.13573e-05
3.24765e-05
3.46154e-05
3.17187e-05
3.1358e-05
6.78199e-06
5.06421e-05
8.68268e-06
8.36921e-06
4.08834e-05
4.0596e-05
8.67011e-06
6.03146e-06
8.52913e-06
3.77601e-05
SCALARS rr_T' float
LOOKUP_TABLE default
0.000209711
0.000477754
0.000381552
0.000498701
0.000260748
0.000404962
0.000207356
0.000495935
0.000426439
0.000536895
0.000190323
0.000497455
0.000437773
0.000462341
0.000541656
0.000454713
0.000391065
0.000442117
0.000396042
0.000387185
0.000435542
7.73216e-05
0.000446256
0.000411289
0.000372817
0.00043007
0.000176314
0.000377772
0.000296512
0.000348965
0.000386747
0.000306519
0.000195315
0.000261481
0.000256992
0.000262071
0.000339262
0.000257517
0.000386354
0.000219535
0.000249228
0.000298999
0.000299031
0.000424452
0.000245058
0.000270351
0.000372699
0.000377411
0.000353667
0.000338579
0.000347661
0.00026959
0.000418506
0.000346411
0.000385301
0.000177765
0.000274395
0.000348951
0.000274386
0.000422089
0.000499209
0.000489247
0.0001734
0.000344957
0.000468609
0.000442264
0.000482885
0.000417712
0.000384666
0.000548314
0.000454061
0.000449114
0.000307937
0.000357987
0.000379207
0.000201614
0.000390411
0.000438162
0.000421228
0.0002975
0.000268489
0.000294303
0.000557199
0.000268864
0.000362507
0.000134651
0.000436384
0.00036467
0.000259518
3.80503e-05
0.000300171
4.13837e-05
0.000331275
0.000317477
0.000284082
0.000259115
0.000246588
0.000471364
0.000390701
0.000376128
0.000319575
0.000306595
0.000257977
0.000446451
0.00045384
0.000408689
0.000359411
0.000364615
0.00027385
0.00054458
0.000349963
0.000184844
0.000247034
0.00048861
0.00045773
0.000334531
0.00031819
0.000204907
0.000330032
0.000333208
0.000289819
0.000528005
0.000544489
0.000467694
0.000514543
0.000403682
0.000228351
0.000508927
0.000223335
0.000288068
0.000237185
0.000485784
0.000474481
0.000476974
0.00031888
0.000193331
0.000213778
0.000349568
0.000427209
0.000193266
0.000266327
0.000411979
0.000312182
0.000503016
0.0002494
0.000410461
0.000372517
0.000360159
0.000230203
0.000294214
0.000328051
0.000468768
0.000275024
0.000424442
0.000491582
0.00049942
0.000326783
0.000274323
0.000272766
0.000428514
0.000359764
0.000272738
0.000180486
0.00026638
0.000264946
0.000458829
0.000278019
0.000281086
0.000304492
0.000270927
0.000404484
0.000283746
0.000251241
0.000315767
0.000299764
0.000359176
0.000400086
0.000385124
0.000327129
0.000384179
0.000295534
0.000445142
0.000477758
0.000266371
0.000467962
0.000266258
0.000462156
0.000424856
0.000396629
0.000403757
0.000472065
0.000223912
0.000293317
0.000272754
0.000476121
0.000468765
0.000434604
0.000473314
0.000481931
0.000404752
0.000496328
0.000333038
0.000300574
0.000541876
0.000316538
0.000492168
0.000392062
0.000250302
0.000301048
0.000491122
0.000408695
0.000372138
0.000479415
0.000470264
0.000304296
0.000301723
0.000293121
0.000417186
0.000460342
0.000529049
0.00050828
0.000553009
0.000501106
0.000547616
0.000459462
0.000480079
0.000483819
0.000456092
0.000479145
0.000441063
0.000434497
0.000308355
0.00041402
0.000484423
0.00033651
0.000493526
0.000453376
0.00052521
0.00031601
0.000499476
0.000477468
0.000310329
0.000427774
0.000308234
0.000480693
0.000438842
0.000323099
0.000304112
0.000263032
0.00030257
0.000481352
0.000220882
0.000371015
0.000302983
0.000339934
0.000499946
0.000483925
0.000151754
0.000485685
0.000264562
0.000286805
0.000497219
0.000404187
0.000290185
0.00055475
0.000315585
0.000151754
0.00029328
0.00043157
0.000538716
0.000408435
0.000480486
0.000450001
0.000236206
0.000231528
0.000198044
0.000227372
0.000321931
0.000246236
0.000396672
0.000248261
0.000427175
0.000305079
0.000293724
0.000343546
0.000319458
0.000424326
0.000306332
0.00031524
0.000139109
0.000317573
0.000459353
0.000459681
0.000416355
0.000305742
0.00019907
0.000578009
0.000388375
0.000324357
0.000299027
0.000297747
0.000308418
0.000375761
0.000302893
0.000216959
0.000298921
0.000205056
0.000370296
0.000304968
0.000129657
0.000287238
0.000339614
0.000304979
0.000469261
0.000316709
0.000408405
0.000156678
0.000327816
0.000313146
0.000273461
0.000293976
0.000346897
0.000326498
0.000341431
0.000290376
0.000294944
0.000318506
0.000425757
0.000300351
0.000425505
0.000384112
0.00030314
0.000311594
0.000314581
0.000347936
0.000314062
0.00029407
0.000334167
0.00035042
0.000413697
0.000314515
0.000312484
0.000452363
0.000446027
0.000300578
0.000303205
0.00013545
0.000366319
0.00025421
0.000343843
0.000152122
0.00015791
0.000141118
0.000143429
0.000152162
0.000160294
0.000165189
0.000385749
0.000285458
0.000288022
0.000329298
0.000320781
0.000316779
0.00033507
0.000310008
0.000317071
0.000322346
0.000315605
0.000387502
0.000286957
0.000398317
0.000309939
0.000299201
0.000316003
0.000337155
0.000352309
0.000328234
0.0003759
0.000351191
0.00032567
0.000234856
0.000327549
0.000320289
0.000344844
0.000330374
0.000313043
0.000297706
0.00032793
0.000342053
0.000464332
0.00030669
0.000451443
0.000470586
0.00032225
0.000450851
0.000345865
0.000277062
0.000377393
0.00033079
0.000238215
0.000209273
0.000372593
0.00039684
0.00033596
0.000279287
0.000335985
0.000159329
0.000332162
0.000311665
0.000159158
6.09804e-05
6.67072e-05
0.000287725
0.000306817
0.000356342
0.000342552
3.13513e-05
3.27589e-05
0.000339235
0.000342775
0.000324472
0.000119596
0.000287092
0.000333742
0.000340306
0.00029355
0.000259099
0.000124544
0.000491498
0.00030874
0.000377231
0.000383128
0.000275339
0.000348468
0.000269207
0.000297058
0.000147622
0.000222766
0.000348882
0.000351038
0.000301705
0.00031688
0.000326999
0.000344789
0.000329784
0.000162603
0.000289359
0.000326246
0.000308357
0.000462735
0.000162571
0.000250453
0.000257974
0.000244478
0.00015894
0.000158951
0.00028008
0.000226156
0.000323443
0.000174016
0.000189807
6.19734e-05
6.19731e-05
0.000129796
0.000206068
0.000138832
0.000275586
0.000298055
0.000318088
0.000358408
0.000325092
0.000300981
0.000236967
0.000146643
0.000297532
0.000308244
0.00029843
0.000164788
0.000152282
0.000118628
0.000298009
0.000304039
0.000244325
0.000275953
0.000254642
0.000233157
0.000312102
0.000233137
0.000275464
0.000265586
0.0001628
0.000200994
0.000186915
0.000330024
0.000130531
0.00013751
0.000134523
0.000311672
0.000124286
0.000121726
0.000216856
0.000113531
0.000252348
0.000252729
0.00011654
0.000274824
0.00012936
0.000128593
0.000144871
0.000122688
0.000120455
0.000179734
0.000143176
0.000130112
0.000123069
0.000251625
0.000287193
0.000135465
0.000277731
0.000111609
0.00028174
0.000223842
0.000116604
9.87295e-05
0.000110151
0.00014615
0.000241956
0.000199186
8.33276e-05
9.24939e-05
0.000269732
7.84382e-05
7.84375e-05
8.88793e-05
9.9764e-05
0.000112768
0.000131226
0.000216993
0.000200854
0.00026992
7.88071e-05
7.88065e-05
0.000237216
9.75652e-05
0.000192315
8.84084e-05
8.89381e-05
0.000117184
0.000203385
0.000210602
0.000224364
0.000205622
0.00020338
4.44323e-05
0.000328301
5.66778e-05
5.4914e-05
0.00026521
0.00026337
5.69066e-05
3.95256e-05
5.56928e-05
0.000244635
SCALARS rr_uec(SIM,_S_ext) float
LOOKUP_TABLE default
0.0133804
0.0304853
0.0243464
0.031822
0.0166383
0.0258402
0.0132301
0.0316452
0.0272103
0.034259
0.0121438
0.0317421
0.0279338
0.0295016
0.0345631
0.0290147
0.0249538
0.0282111
0.0252708
0.0247058
0.0277913
0.00493399
0.028475
0.0262438
0.023789
0.0274425
0.0112498
0.0241052
0.0189195
0.0222677
0.0246779
0.0195581
0.0124621
0.0166853
0.0163988
0.0167229
0.0216486
0.0164322
0.0246528
0.0140075
0.0159025
0.0190794
0.0190814
0.0270838
0.0156363
0.0172503
0.0237813
0.024082
0.0225671
0.0216037
0.0221832
0.0172018
0.0267049
0.0221035
0.0245861
0.0113425
0.0175092
0.0222656
0.0175087
0.026933
0.0318544
0.0312187
0.0110639
0.0220116
0.0299018
0.0282206
0.0308128
0.0266539
0.024545
0.0349877
0.0289737
0.028658
0.0196486
0.0228429
0.0241967
0.0128641
0.024912
0.0279588
0.0268783
0.0189828
0.0171313
0.0187795
0.0355547
0.0171553
0.0231305
0.00859155
0.0278452
0.0232693
0.0165589
0.00242803
0.0191531
0.00264074
0.0211386
0.020258
0.0181265
0.0165333
0.0157339
0.0300774
0.0249305
0.0240003
0.0203913
0.0195629
0.0164606
0.0284878
0.0289592
0.0260782
0.0229339
0.0232656
0.0174734
0.0347496
0.0223308
0.0117943
0.0157624
0.0311779
0.0292074
0.0213455
0.0203038
0.0130743
0.0210594
0.0212611
0.0184928
0.033692
0.0347437
0.0298434
0.0328329
0.025759
0.0145711
0.0324744
0.0142502
0.0183809
0.0151348
0.0309977
0.0302765
0.0304356
0.0203467
0.0123365
0.0136403
0.0223056
0.0272601
0.0123324
0.0169935
0.026288
0.0199197
0.0320972
0.0159132
0.0261913
0.02377
0.0229813
0.014689
0.0187732
0.0209324
0.0299119
0.0175485
0.0270832
0.0313676
0.0318678
0.0208518
0.0175037
0.0174044
0.0273431
0.022956
0.0174026
0.0115162
0.0169969
0.0169054
0.0292776
0.0177395
0.0179352
0.0194288
0.017287
0.0258101
0.0181051
0.0160309
0.0201489
0.0191271
0.0229189
0.0255294
0.0245744
0.0208741
0.0245142
0.0188572
0.0284042
0.0304855
0.0169963
0.0298603
0.0169892
0.02949
0.0271099
0.0253088
0.0257635
0.0301222
0.014287
0.0187158
0.0174037
0.0303811
0.0299116
0.0277318
0.0302021
0.0307519
0.0258269
0.0316706
0.0212506
0.019179
0.034577
0.0201973
0.0314051
0.0250172
0.015971
0.0192098
0.0313384
0.0260786
0.0237458
0.0305911
0.0300074
0.0194165
0.0192527
0.0187034
0.0266205
0.0293744
0.0337586
0.0324334
0.0352874
0.0319756
0.0349433
0.029318
0.0306339
0.0308725
0.0291033
0.0305743
0.0281442
0.0277253
0.0196755
0.0264184
0.030911
0.0214721
0.0314919
0.0289299
0.0335136
0.0201639
0.0318716
0.0304669
0.0198014
0.0272962
0.0196677
0.0306729
0.0280025
0.0206163
0.0194047
0.0167831
0.0193061
0.0307149
0.0140936
0.0236741
0.0193326
0.0216906
0.0319015
0.0308792
0.00968354
0.0309915
0.0168806
0.0183004
0.0317275
0.0257908
0.018516
0.0353986
0.0201369
0.00968355
0.0187135
0.0275384
0.0343752
0.026062
0.0306598
0.0287142
0.0150723
0.0147736
0.0126364
0.0145077
0.0205424
0.015712
0.0253113
0.015841
0.0272579
0.0194669
0.0187419
0.0219214
0.0203839
0.0270758
0.0195463
0.0201147
0.00887668
0.0202643
0.0293114
0.0293323
0.0265674
0.0195087
0.0127027
0.0368824
0.0247816
0.0206965
0.0190802
0.0189992
0.0196795
0.0239772
0.0193269
0.0138434
0.0190735
0.0130838
0.0236285
0.0194593
0.00827358
0.018328
0.0216706
0.01946
0.0299433
0.0202084
0.0260598
0.00999682
0.0209176
0.0199812
0.0174496
0.018758
0.022135
0.0208336
0.0217866
0.0185282
0.0188197
0.0203232
0.0271673
0.0191647
0.027151
0.0245097
0.0193433
0.0198821
0.0200728
0.0222012
0.0200397
0.0187639
0.0213225
0.0223602
0.0263976
0.0200686
0.0199389
0.0288648
0.0284606
0.0191792
0.0193475
0.00864249
0.0233743
0.0162203
0.0219401
0.0097063
0.0100756
0.00900423
0.00915166
0.00970889
0.0102277
0.01054
0.0246145
0.0182151
0.0183784
0.021012
0.0204685
0.0202131
0.0213805
0.019781
0.0202317
0.020569
0.0201381
0.0247264
0.01831
0.0254166
0.0197769
0.0190915
0.0201635
0.0215138
0.0224804
0.0209441
0.0239857
0.022409
0.0207804
0.0149856
0.0209004
0.0204372
0.0220044
0.0210806
0.0199747
0.0189961
0.0209247
0.0218259
0.0296286
0.0195694
0.0288062
0.0300275
0.0205622
0.0287684
0.0220692
0.0176788
0.0240813
0.0211072
0.0152006
0.013353
0.023775
0.0253222
0.0214372
0.0178209
0.021439
0.0101661
0.0211949
0.0198868
0.0101551
0.00389121
0.00425664
0.0183594
0.0195774
0.0227376
0.0218576
0.00200056
0.00209038
0.0216464
0.0218721
0.0207042
0.00763086
0.0183189
0.0212959
0.0217144
0.0187309
0.0165327
0.00794667
0.0313622
0.0197001
0.0240706
0.0244469
0.0175689
0.0222352
0.0171776
0.0189548
0.00941909
0.0142139
0.0222616
0.0223992
0.0192513
0.0202195
0.0208653
0.0220004
0.021043
0.0103751
0.0184639
0.0208172
0.0196761
0.0295269
0.0103731
0.0159811
0.016461
0.0156001
0.0101422
0.0101428
0.0178719
0.0144306
0.0206385
0.0111033
0.0121118
0.0039546
0.00395458
0.00828175
0.0131493
0.00885896
0.0175847
0.0190188
0.0202969
0.0228698
0.020744
0.0192054
0.0151206
0.00935669
0.0189852
0.0196688
0.0190427
0.0105144
0.00971718
0.00756905
0.0190159
0.0194005
0.0155898
0.0176083
0.0162484
0.0148778
0.0199149
0.0148765
0.017577
0.0169469
0.0103883
0.0128256
0.0119264
0.0210587
0.00832837
0.00877361
0.00858312
0.0198876
0.00793014
0.00776659
0.0138372
0.0072437
0.0161023
0.0161267
0.0074357
0.0175362
0.00825383
0.00820472
0.00924359
0.00782795
0.00768571
0.0114689
0.00913552
0.0083019
0.00785227
0.0160559
0.0183257
0.00864337
0.0177217
0.00712113
0.0179776
0.0142831
0.00743974
0.00629948
0.00702805
0.00932527
0.0154389
0.0127101
0.00531725
0.00590216
0.0172114
0.00500525
0.00500521
0.00567151
0.00636606
0.00719529
0.0083736
0.0138463
0.0128165
0.0172234
0.00502877
0.00502874
0.0151368
0.00622525
0.0122713
0.00564094
0.00567466
0.00747693
0.0129783
0.0134388
0.0143169
0.013121
0.0129779
0.00283528
0.0209491
0.00361667
0.00350412
0.0169233
0.0168059
0.00363127
0.00252218
0.00355382
0.0156104
SCALARS rr_uec(PEX,_P_ext) float
LOOKUP_TABLE default
-0.0609321
-0.13887
-0.110902
-0.144957
-0.0757995
-0.117707
-0.0602478
-0.144152
-0.123945
-0.15606
-0.0553009
-0.144594
-0.127246
-0.13439
-0.157454
-0.132168
-0.113674
-0.128509
-0.115108
-0.112539
-0.126593
-0.0224806
-0.129707
-0.119545
-0.108362
-0.125008
-0.0512329
-0.109804
-0.0861704
-0.10145
-0.112414
-0.0890786
-0.0567537
-0.0760154
-0.0747112
-0.0761867
-0.09863
-0.0748633
-0.112299
-0.0637917
-0.0724291
-0.0869249
-0.086934
-0.123373
-0.0712109
-0.0785683
-0.108324
-0.109696
-0.102797
-0.0983933
-0.101034
-0.0783497
-0.121659
-0.100676
-0.112006
-0.0516569
-0.0797704
-0.101414
-0.0797678
-0.122684
-0.145108
-0.142217
-0.0503874
-0.100274
-0.136218
-0.128556
-0.140364
-0.121416
-0.111806
-0.15938
-0.131995
-0.130557
-0.0894907
-0.10406
-0.110221
-0.0585833
-0.113489
-0.127363
-0.122438
-0.0864621
-0.0780238
-0.0855552
-0.161967
-0.078132
-0.105351
-0.039128
-0.12684
-0.106002
-0.0754127
-0.0110626
-0.0872374
-0.0120317
-0.0962993
-0.0922828
-0.0825616
-0.0753012
-0.0716595
-0.137012
-0.113573
-0.109327
-0.0928808
-0.0891026
-0.0749683
-0.129769
-0.131918
-0.118794
-0.104475
-0.10598
-0.0795808
-0.158295
-0.10172
-0.0537141
-0.0717873
-0.142023
-0.133048
-0.0972233
-0.0925022
-0.0595466
-0.0959445
-0.0968391
-0.0842339
-0.153485
-0.158268
-0.135949
-0.149565
-0.117347
-0.0663838
-0.14793
-0.064902
-0.0837204
-0.0689495
-0.141203
-0.137922
-0.138643
-0.0926727
-0.056204
-0.0621232
-0.101608
-0.124182
-0.056185
-0.0774001
-0.11975
-0.090734
-0.146212
-0.0724761
-0.119308
-0.108279
-0.104684
-0.066911
-0.0855091
-0.095349
-0.136258
-0.0799258
-0.123371
-0.142889
-0.145167
-0.0949874
-0.0797243
-0.0792719
-0.124554
-0.104566
-0.0792616
-0.0524475
-0.0774129
-0.0769991
-0.133368
-0.0807984
-0.0816896
-0.0884896
-0.0787374
-0.117581
-0.0824639
-0.0730132
-0.0917856
-0.0871192
-0.104406
-0.116302
-0.111943
-0.0950962
-0.111669
-0.0858864
-0.12939
-0.13887
-0.077413
-0.136026
-0.0773773
-0.134339
-0.123498
-0.115297
-0.11736
-0.137219
-0.06507
-0.0852456
-0.0792663
-0.138395
-0.136254
-0.126325
-0.137583
-0.140084
-0.117652
-0.144269
-0.0967966
-0.0873557
-0.157513
-0.0919904
-0.143064
-0.113963
-0.0727425
-0.0875109
-0.142756
-0.118803
-0.10817
-0.139351
-0.136697
-0.0884393
-0.0877029
-0.0851898
-0.121269
-0.13381
-0.153781
-0.147744
-0.160745
-0.145659
-0.159178
-0.133553
-0.139554
-0.140641
-0.132581
-0.139283
-0.128216
-0.126308
-0.0896188
-0.120344
-0.140807
-0.0978072
-0.143463
-0.131792
-0.152663
-0.0918418
-0.145182
-0.138786
-0.0901929
-0.124349
-0.0895837
-0.139729
-0.127558
-0.0939044
-0.0883844
-0.0764379
-0.0879284
-0.13992
-0.0641885
-0.107841
-0.088056
-0.0988007
-0.145319
-0.140665
-0.0441179
-0.141176
-0.0768816
-0.0833542
-0.144526
-0.117484
-0.0843362
-0.161252
-0.0917234
-0.0441179
-0.0852361
-0.125446
-0.156593
-0.118719
-0.139672
-0.130805
-0.0686648
-0.0672972
-0.0575501
-0.0660717
-0.0935841
-0.0715702
-0.1153
-0.0721536
-0.124175
-0.0886788
-0.0853652
-0.0998603
-0.0928469
-0.123339
-0.089032
-0.0916181
-0.040443
-0.0923165
-0.13353
-0.133625
-0.121023
-0.0888607
-0.0578714
-0.168014
-0.112882
-0.0942712
-0.0869082
-0.0865538
-0.0896376
-0.109231
-0.0880322
-0.0630457
-0.0868783
-0.0595895
-0.107639
-0.0886347
-0.0376951
-0.0834821
-0.098719
-0.0886374
-0.136404
-0.0920475
-0.118708
-0.0455277
-0.0952829
-0.0910115
-0.079494
-0.0854398
-0.100827
-0.094906
-0.0992446
-0.0843942
-0.0857224
-0.0925721
-0.12376
-0.0872939
-0.12368
-0.111647
-0.0881224
-0.0905617
-0.0914312
-0.101129
-0.0912807
-0.085468
-0.0971242
-0.101862
-0.120248
-0.0914121
-0.090819
-0.131489
-0.129647
-0.0873598
-0.0881413
-0.039356
-0.106475
-0.0738744
-0.0999398
-0.0441913
-0.0458729
-0.040995
-0.0416662
-0.0442032
-0.0465652
-0.0479873
-0.112131
-0.0829842
-0.0837181
-0.0957115
-0.093234
-0.0920705
-0.0973946
-0.0901024
-0.0921548
-0.093708
-0.0917291
-0.112642
-0.0833972
-0.115786
-0.0900871
-0.0869635
-0.0918448
-0.0980095
-0.102403
-0.0954024
-0.10926
-0.102075
-0.0946542
-0.0682558
-0.0952031
-0.0930954
-0.100242
-0.0960223
-0.0909839
-0.0865273
-0.0953136
-0.0994212
-0.134967
-0.0891384
-0.131221
-0.13678
-0.0936626
-0.131048
-0.100529
-0.0805269
-0.1097
-0.0961456
-0.0692504
-0.0608123
-0.108307
-0.115356
-0.0976503
-0.0811762
-0.097663
-0.0462947
-0.0965465
-0.0905868
-0.0462486
-0.0177287
-0.0193937
-0.0836308
-0.0891751
-0.103573
-0.0995619
-0.00911523
-0.00952449
-0.098605
-0.0996336
-0.0943134
-0.0347496
-0.0834418
-0.0970124
-0.0989108
-0.0853206
-0.0753076
-0.0361873
-0.142868
-0.0897339
-0.109646
-0.111361
-0.0800275
-0.101283
-0.0782453
-0.0863405
-0.0428955
-0.0647364
-0.101404
-0.102033
-0.0876919
-0.0921013
-0.0950434
-0.100215
-0.0958533
-0.0472505
-0.0841137
-0.0948223
-0.089632
-0.134507
-0.0472412
-0.072797
-0.0749828
-0.0710694
-0.0462083
-0.0462114
-0.0814175
-0.065731
-0.0940124
-0.0505667
-0.0551816
-0.0180183
-0.0180182
-0.037713
-0.0599064
-0.0403608
-0.0801017
-0.0866423
-0.0924572
-0.104179
-0.0944976
-0.0874897
-0.0688787
-0.0426086
-0.0864816
-0.0895986
-0.0867479
-0.0478826
-0.0442704
-0.034471
-0.0866254
-0.0883755
-0.0710099
-0.0802099
-0.074016
-0.0677787
-0.0907183
-0.0677728
-0.0800669
-0.0772006
-0.0473284
-0.0584323
-0.0543151
-0.0959293
-0.0379258
-0.0399537
-0.0390855
-0.0905963
-0.0361123
-0.0353669
-0.0630294
-0.0329862
-0.0733586
-0.0734695
-0.0338608
-0.0798791
-0.037589
-0.0373627
-0.042096
-0.035647
-0.0350013
-0.052251
-0.0416045
-0.0378052
-0.0357577
-0.0731389
-0.0834827
-0.0393624
-0.0807271
-0.0324277
-0.0818936
-0.0650611
-0.033879
-0.028688
-0.0320041
-0.0424649
-0.0703268
-0.0579048
-0.0242268
-0.0268916
-0.0784038
-0.0228052
-0.022805
-0.0258408
-0.0290045
-0.0327686
-0.0381493
-0.0630787
-0.0583896
-0.078458
-0.0229119
-0.0229117
-0.0689607
-0.0283481
-0.0558972
-0.0256876
-0.0258435
-0.0340513
-0.059129
-0.0612271
-0.0652276
-0.0597791
-0.0591274
-0.0129182
-0.0954444
-0.0164781
-0.0159658
-0.077103
-0.0765681
-0.0165451
-0.0114916
-0.0161918
-0.0711209
SCALARS cell_type float
LOOKUP_TABLE default
0
0
0
0
0
0
0
0
0
0
0
0
0
0
0
0
0
0
0
0
0
1
0
0
0
0
0
0
0
0
0
0
0
0
0
0
0
0
0
0
0
0
0
0
0
0
0
0
0
0
0
0
0
0
0
0
0
0
0
0
0
0
0
0
0
0
0
0
0
0
0
0
0
0
0
0
0
0
0
0
0
0
0
0
0
0
0
0
0
0
0
0
0
0
0
0
0
0
0
0
0
0
0
0
0
0
0
0
0
0
0
0
0
0
0
0
0
0
0
0
0
0
0
0
0
0
0
0
0
0
0
0
0
0
0
0
0
0
0
0
0
0
0
0
0
0
0
0
0
0
0
0
0
0
0
0
0
0
0
0
0
0
0
0
0
0
0
0
0
0
0
0
0
0
0
0
0
0
0
0
0
0
0
0
0
0
0
0
0
0
0
0
0
0
0
0
0
0
0
0
0
0
0
0
0
0
0
0
0
0
0
0
0
0
0
0
0
0
0
0
0
0
0
0
0
0
0
0
0
0
0
0
0
0
0
0
0
0
0
0
0
0
0
0
0
0
0
0
0
0
0
0
0
0
0
0
0
0
0
0
0
0
0
0
0
0
0
0
0
0
0
0
0
0
0
0
0
0
0
0
0
0
0
0
0
0
0
0
0
0
0
0
0
0
0
0
0
0
0
0
0
0
0
0
0
0
0
0
0
0
0
0
0
0
0
0
0
0
0
0
0
0
0
0
0
0
0
0
0
0
0
0
0
0
0
0
0
0
0
0
0
0
0
0
0
0
0
0
0
0
2
2
2
2
2
2
2
0
0
0
0
0
0
0
0
0
0
0
0
0
0
0
0
0
0
0
0
0
0
0
0
0
0
0
0
0
0
0
0
0
0
0
0
0
0
0
0
0
0
0
0
0
0
0
0
0
0
0
0
0
0
0
0
0
0
0
1
1
0
0
0
0
0
0
0
0
0
0
0
0
0
0
0
0
0
0
0
0
0
0
0
0
0
0
0
0
0
0
0
0
0
0
0
0
0
0
0
0
0
0
0
1
1
0
0
0
0
0
0
0
0
0
0
0
0
0
0
0
0
0
0
0
0
0
0
0
0
0
0
0
0
0
0
0
0
0
0
0
0
0
0
0
0
0
0
0
0
0
0
0
0
0
0
0
0
0
0
0
0
0
0
0
0
0
0
0
0
0
1
1
0
0
0
0
0
0
0
0
0
0
0
0
0
0
0
0
0
0
0
0
0
0
0
0
0
0
0
0
0
0
0
0
0
TENSORS Lagrange_strain float
0.0305674 -0.00319827 5.3318e-08
-0.00319827 0.0133889 -1.83806e-07
5.3318e-08 -1.83806e-07 0.00740158

0.0291919 -0.00280096 5.88741e-08
-0.00280096 0.0335526 2.29382e-08
5.88741e-08 2.29382e-08 0.0331626

0.0300206 0.00367889 -3.73024e-08
0.00367889 0.0311685 4.42201e-08
-3.73024e-08 4.42201e-08 0.030467

0.0291611 -0.00392478 -2.31364e-07
-0.00392478 0.0327978 -7.49752e-08
-2.31364e-07 -7.49752e-08 0.0330875

0.0353659 0.00266941 -2.46745e-08
0.00266941 0.0380847 8.55791e-08
-2.46745e-08 8.55791e-08 0.0352916

0.0277345 -0.00236709 1.66797e-07
-0.00236709 0.0333831 1.44146e-07
1.66797e-07 1.44146e-07 0.0304381

0.0302614 0.00339396 5.00205e-08
0.00339396 0.0134944 -4.1603e-08
5.00205e-08 -4.1603e-08 0.00746302

0.0317536 0.00393947 -1.67547e-07
0.00393947 0.031199 1.5465e-08
-1.67547e-07 1.5465e-08 0.0315599

0.0332411 0.000715595 4.64258e-08
0.000715595 0.0262207 -1.26639e-09
4.64258e-08 -1.26639e-09 0.0281414

0.0354666 -0.000991026 4.53359e-08
-0.000991026 0.0275504 1.74665e-07
4.53359e-08 1.74665e-07 0.0327202

0.0280606 0.00205108 -1.85567e-07
0.00205108 0.0138087 2.55173e-07
-1.85567e-07 2.55173e-07 0.0117532

0.0279524 -0.00176569 1.06948e-07
-0.00176569 0.0350053 -4.61267e-08
1.06948e-07 -4.61267e-08 0.0315484

0.0311203 0.00365703 4.45941e-08
0.00365703 0.0312992 2.04669e-07
4.45941e-08 2.04669e-07 0.0310787

0.0290685 -0.00188004 1.53029e-07
-0.00188004 0.0347983 9.78759e-08
1.53029e-07 9.78759e-08 0.0325457

0.0346309 0.00441829 4.82251e-08
0.00441829 0.0343614 -3.16185e-08
4.82251e-08 -3.16185e-08 0.034884

0.0343269 7.30614e-05 1.59387e-07
7.30614e-05 0.0272852 -3.06903e-08
1.59387e-07 -3.06903e-08 0.0307776

0.0286923 -0.00235362 1.47536e-07
-0.00235362 0.0360132 7.85447e-08
1.47536e-07 7.85447e-08 0.0334493

0.0345724 -0.000352973 1.856e-07
-0.000352973 0.0273556 -1.30693e-09
1.856e-07 -1.30693e-09 0.0319763

0.0269193 0.00347798 4.04798e-08
0.00347798 0.030944 -1.25705e-07
4.04798e-08 -1.25705e-07 0.0275759

0.0338836 -0.000550601 7.05032e-08
-0.000550601 0.0264086 -1.58934e-07
7.05032e-08 -1.58934e-07 0.0301334

0.0266213 0.00113526 -1.45491e-07
0.00113526 0.0340327 1.16709e-07
-1.45491e-07 1.16709e-07 0.0291492

0.0452949 0.000852712 1.35909e-07
0.000852712 0.0452644 5.8041e-08
1.35909e-07 5.8041e-08 0.0366376

0.0336741 0.000247697 -2.39281e-07
0.000247697 0.0263147 2.88872e-08
-2.39281e-07 2.88872e-08 0.0298044

0.0293089 -0.00363206 -6.83037e-09
-0.00363206 0.0311348 1.34064e-08
-6.83037e-09 1.34064e-08 0.0300459

0.0337791 0.000900043 1.31977e-07
0.000900043 0.0264957 3.55393e-08
1.31977e-07 3.55393e-08 0.0300804

0.0285453 0.00250767 -1.86525e-07
0.00250767 0.0338925 1.83539e-08
-1.86525e-07 1.83539e-08 0.0322862

0.0286289 0.00052671 -3.30647e-08
0.00052671 0.0176894 -6.1749e-08
-3.30647e-08 -6.1749e-08 0.013171

0.0309132 0.00403441 1.17653e-07
0.00403441 0.0306456 4.17586e-08
1.17653e-07 4.17586e-08 0.0306099

0.0259241 0.00477635 5.86684e-08
0.00477635 0.0257325 1.44405e-07
5.86684e-08 1.44405e-07 0.0211275

0.0415291 0.00137016 7.64823e-08
0.00137016 0.0383494 6.04181e-08
7.64823e-08 6.04181e-08 0.0361346

0.0344102 0.00187123 1.41831e-07
0.00187123 0.0279517 5.29698e-08
1.41831e-07 5.29698e-08 0.0309992

0.0217592 -0.00228773 2.30024e-08
-0.00228773 0.0299912 1.32085e-07
2.30024e-08 1.32085e-07 0.0211244

0.0228629 -0.00535227 1.90878e-07
-0.00535227 0.0234724 -2.22537e-07
1.90878e-07 -2.22537e-07 0.0125786

0.0348322 0.000800926 3.60241e-07
0.000800926 0.0422549 -3.7439e-08
3.60241e-07 -3.7439e-08 0.0357857

0.0374529 -0.000661784 -1.41303e-07
-0.000661784 0.0412017 3.37346e-07
-1.41303e-07 3.37346e-07 0.0359002

0.0410751 0.00281303 1.37312e-07
0.00281303 0.035986 -1.09433e-07
1.37312e-07 -1.09433e-07 0.0357659

0.0372535 0.000705312 1.15993e-08
0.000705312 0.043215 -4.891e-08
1.15993e-08 -4.891e-08 0.036141

0.0402605 -0.00121873 -1.35125e-07
-0.00121873 0.0378298 3.71413e-08
-1.35125e-07 3.71413e-08 0.0358076

0.0312148 -0.00367766 1.92636e-07
-0.00367766 0.0311224 2.54836e-08
1.92636e-07 2.54836e-08 0.0309247

0.0227469 0.00527891 8.76487e-08
0.00527891 0.0237085 1.48679e-07
8.76487e-08 1.48679e-07 0.0125807

0.0297599 -0.00231565 -5.80361e-08
-0.00231565 0.0220305 4.39519e-08
-5.80361e-08 4.39519e-08 0.0208742

0.0376188 -0.000522936 1.61869e-07
-0.000522936 0.0430643 -1.30328e-07
1.61869e-07 -1.30328e-07 0.0361437

0.0412407 0.00263438 6.16775e-08
0.00263438 0.0394148 -8.64583e-08
6.16775e-08 -8.64583e-08 0.0361262

0.0342999 -0.00161717 5.26342e-09
-0.00161717 0.0279937 1.16631e-07
5.26342e-09 1.16631e-07 0.0310832

0.023105 -0.00552553 3.4524e-08
-0.00552553 0.023562 -5.17688e-08
3.4524e-08 -5.17688e-08 0.0162156

0.0299424 -0.00233228 -6.27283e-08
-0.00233228 0.0221546 -1.73364e-07
-6.27283e-08 -1.73364e-07 0.0213436

0.0258929 0.0022274 -2.27829e-08
0.0022274 0.0326534 -1.40103e-07
-2.27829e-08 -1.40103e-07 0.0279146

0.0275499 0.00252866 -1.09736e-07
0.00252866 0.0323729 9.88932e-08
-1.09736e-07 9.88932e-08 0.02849

0.0341743 -0.00214078 -5.38776e-09
-0.00214078 0.0271064 1.06372e-07
-5.38776e-09 1.06372e-07 0.0304714

0.0229019 -0.00439218 1.31269e-07
-0.00439218 0.027248 1.94418e-07
1.31269e-07 1.94418e-07 0.0198498

0.029493 0.00247143 3.48749e-08
0.00247143 0.0218337 4.93159e-08
3.48749e-08 4.93159e-08 0.0202803

0.0298713 -0.00327075 2.94045e-08
-0.00327075 0.0245128 -7.99959e-08
2.94045e-08 -7.99959e-08 0.0230475

0.0344771 0.00257765 1.02229e-07
0.00257765 0.0382028 -3.03845e-08
1.02229e-07 -3.03845e-08 0.0352703

0.0286885 0.00383848 -1.51185e-07
0.00383848 0.0257791 1.50101e-07
-1.51185e-07 1.50101e-07 0.0231161

0.0349278 -0.00291574 -6.92924e-08
-0.00291574 0.0374322 4.72968e-08
-6.92924e-08 4.72968e-08 0.0351886

0.0255794 -0.0054552 2.75076e-07
-0.0054552 0.0229018 -1.24489e-07
2.75076e-07 -1.24489e-07 0.0158191

0.0373464 0.00074613 -9.79562e-08
0.00074613 0.0414128 9.39894e-08
-9.79562e-08 9.39894e-08 0.0359208

0.0231671 -0.000693068 -3.36287e-08
-0.000693068 0.0313123 3.4873e-08
-3.36287e-08 3.4873e-08 0.0231022

0.0410301 0.00137961 -7.19027e-08
0.00137961 0.0377064 1.72604e-07
-7.19027e-08 1.72604e-07 0.0358989

0.0276749 0.00280494 -1.46047e-07
0.00280494 0.0327485 -3.04116e-08
-1.46047e-07 -3.04116e-08 0.0302304

0.0361383 0.000784782 1.44554e-09
0.000784782 0.0281309 -7.3462e-08
1.44554e-09 -7.3462e-08 0.0336724

0.0362536 0.00153416 -2.34553e-09
0.00153416 0.0316925 -1.10927e-07
-2.34553e-09 -1.10927e-07 0.0342201

0.0286365 0.00405684 -2.38406e-07
0.00405684 0.0198969 7.3722e-09
-2.38406e-07 7.3722e-09 0.0137588

0.0309719 -0.000783644 -1.67716e-07
-0.000783644 0.0370847 -1.17901e-07
-1.67716e-07 -1.17901e-07 0.033881

0.0315544 0.00124363 -1.62316e-08
0.00124363 0.03642 -3.26384e-09
-1.62316e-08 -3.26384e-09 0.0342589

0.0285483 -0.000375149 -7.28717e-08
-0.000375149 0.0369557 1.6936e-08
-7.28717e-08 1.6936e-08 0.03267

0.0296021 0.00307116 -1.35919e-07
0.00307116 0.0347905 8.43508e-08
-1.35919e-07 8.43508e-08 0.0337083

0.0347184 0.00112206 -2.69105e-10
0.00112206 0.027838 4.24008e-08
-2.69105e-10 4.24008e-08 0.0322078

0.0291868 -0.0036987 -2.12461e-08
-0.0036987 0.0310202 -5.191e-08
-2.12461e-08 -5.191e-08 0.0299088

0.0350538 -0.000236853 4.04548e-08
-0.000236853 0.0275792 1.74682e-07
4.04548e-08 1.74682e-07 0.0333924

0.0344518 -0.00254825 -1.51671e-07
-0.00254825 0.0381332 1.10704e-08
-1.51671e-07 1.10704e-08 0.0352603

0.0350102 0.00284944 -9.59892e-08
0.00284944 0.0375695 1.73755e-07
-9.59892e-08 1.73755e-07 0.0352401

0.0218881 -0.00213179 -7.21192e-08
-0.00213179 0.0299213 -1.46992e-07
-7.21192e-08 -1.46992e-07 0.0208508

0.0347007 -0.00369103 1.46723e-07
-0.00369103 0.0319575 1.05475e-08
1.46723e-07 1.05475e-08 0.0330784

0.0292914 -0.00329699 -9.84487e-09
-0.00329699 0.032112 -3.1803e-08
-9.84487e-09 -3.1803e-08 0.0304326

0.0267789 -0.00401677 -9.46726e-08
-0.00401677 0.017605 -5.71416e-08
-9.46726e-08 -5.71416e-08 0.0127256

0.0324037 0.0004186 -2.95375e-08
0.0004186 0.0381042 -5.0842e-09
-2.95375e-08 -5.0842e-09 0.0344052

0.0345364 0.0038173 1.78076e-07
0.0038173 0.0309408 -6.2224e-08
1.78076e-07 -6.2224e-08 0.0326596

0.0283758 0.00258137 -1.84925e-07
0.00258137 0.0341285 -5.62098e-08
-1.84925e-07 -5.62098e-08 0.0322131

0.031541 0.00103785 3.95885e-08
0.00103785 0.0228434 -1.82402e-07
3.95885e-08 -1.82402e-07 0.0240686

0.0270965 -0.00435847 -1.83346e-07
-0.00435847 0.0237361 -7.10098e-08
-1.83346e-07 -7.10098e-08 0.0183231

0.0362598 -0.00140308 1.01346e-07
-0.00140308 0.0387416 1.42557e-07
1.01346e-07 1.42557e-07 0.0354006

0.0315553 0.00317078 4.55227e-08
0.00317078 0.0344004 -3.15541e-08
4.55227e-08 -3.15541e-08 0.0340897

0.0273009 -0.00415591 1.47846e-08
-0.00415591 0.0221744 -6.18217e-08
1.47846e-08 -6.18217e-08 0.0184109

0.0303572 0.0013911 1.58433e-07
0.0013911 0.0228299 -1.84199e-07
1.58433e-07 -1.84199e-07 0.020954

0.0186017 -0.0026969 1.90049e-08
-0.0026969 0.0289278 3.37982e-07
1.90049e-08 3.37982e-07 0.0158926

0.0271993 0.001889 -9.52319e-08
0.001889 0.034319 2.38079e-07
-9.52319e-08 2.38079e-07 0.0306539

0.0353814 0.00305675 -3.10165e-08
0.00305675 0.0308194 -1.99241e-07
-3.10165e-08 -1.99241e-07 0.0327531

0.0226473 0.00538563 5.16819e-08
0.00538563 0.024088 1.07292e-07
5.16819e-08 1.07292e-07 0.0161981

0.0459502 0.00223847 -3.96853e-07
0.00223847 0.0417503 2.12724e-07
-3.96853e-07 2.12724e-07 0.0366385

0.0230808 -0.000534356 1.86716e-08
-0.000534356 0.0313533 4.45542e-08
1.86716e-08 4.45542e-08 0.0230719

0.0463635 -0.00225609 -6.10156e-07
-0.00225609 0.0412944 -5.8365e-08
-6.10156e-07 -5.8365e-08 0.0365937

0.0370646 -0.00362401 -5.66578e-08
-0.00362401 0.0334906 2.54841e-08
-5.66578e-08 2.54841e-08 0.0346202

0.0351369 0.00361937 -6.2809e-08
0.00361937 0.0300034 -8.15563e-08
-6.2809e-08 -8.15563e-08 0.0324558

0.0299611 -0.00315882 -1.56868e-07
-0.00315882 0.0246898 -2.68953e-08
-1.56868e-07 -2.68953e-08 0.0232853

0.0230117 0.00402956 1.69746e-07
0.00402956 0.0277782 -9.86319e-08
1.69746e-07 -9.86319e-08 0.0203815

0.0210934 -0.00137851 1.37908e-07
-0.00137851 0.0298946 -1.76071e-07
1.37908e-07 -1.76071e-07 0.0182511

0.0287448 0.00288882 1.16536e-07
0.00288882 0.0342263 -2.52673e-09
1.16536e-07 -2.52673e-09 0.0326989

0.0370112 0.0022361 -5.29176e-08
0.0022361 0.0334515 3.8815e-08
-5.29176e-08 3.8815e-08 0.0343836

0.0281476 0.00198804 -1.73063e-07
0.00198804 0.0340588 3.63063e-09
-1.73063e-07 3.63063e-09 0.0308647

0.0318816 0.00207301 1.9424e-07
0.00207301 0.0252535 5.99138e-08
1.9424e-07 5.99138e-08 0.0256168

0.0239071 -0.00277413 -4.6343e-08
-0.00277413 0.029764 -1.44379e-07
-4.6343e-08 -1.44379e-07 0.021561

0.0278978 -0.00376348 -1.39215e-07
-0.00376348 0.0218148 3.74525e-08
-1.39215e-07 3.74525e-08 0.0180755

0.0293306 -0.00323163 -2.10931e-07
-0.00323163 0.0326291 9.33823e-08
-2.10931e-07 9.33823e-08 0.0324021

0.0306257 0.00361495 -1.27346e-07
0.00361495 0.032228 -4.58541e-08
-1.27346e-07 -4.58541e-08 0.0323699

0.0287072 0.0030479 -2.84294e-08
0.0030479 0.0340257 3.82177e-08
-2.84294e-08 3.82177e-08 0.0326294

0.0292062 0.00172531 -2.45251e-08
0.00172531 0.0376165 -7.72445e-09
-2.45251e-08 -7.72445e-09 0.0338453

0.0344758 0.00123241 -2.60465e-07
0.00123241 0.027523 2.32374e-09
-2.60465e-07 2.32374e-09 0.0306739

0.0199602 -0.000605293 -1.22576e-07
-0.000605293 0.0296596 -7.10067e-08
-1.22576e-07 -7.10067e-08 0.0181034

0.0297967 -0.00486314 1.07116e-07
-0.00486314 0.0330481 1.38462e-09
1.07116e-07 1.38462e-09 0.0337408

0.0290805 0.00359971 7.9849e-08
0.00359971 0.0313586 1.99402e-07
7.9849e-08 1.99402e-07 0.0302632

0.0181052 0.000282935 -5.0643e-08
0.000282935 0.02931 -1.34571e-07
-5.0643e-08 -1.34571e-07 0.016878

0.0278427 0.00442361 -1.33356e-07
0.00442361 0.0209676 9.08425e-08
-1.33356e-07 9.08425e-08 0.0174542

0.0291902 -0.00302018 -3.69855e-08
-0.00302018 0.0327023 -1.23467e-07
-3.69855e-08 -1.23467e-07 0.0321845

0.0352416 0.000759545 -2.21561e-08
0.000759545 0.0273377 8.38119e-08
-2.21561e-08 8.38119e-08 0.0325518

0.0294264 0.00352005 7.28856e-08
0.00352005 0.0252005 -1.67323e-07
7.28856e-08 -1.67323e-07 0.0231106

0.0396355 0.0017099 -1.14009e-07
0.0017099 0.0390391 -2.28787e-08
-1.14009e-07 -2.28787e-08 0.0359393

0.0283742 0.00312312 -2.17654e-07
0.00312312 0.0224008 -1.19756e-07
-2.17654e-07 -1.19756e-07 0.0182859

0.0394884 -0.00175068 -1.18747e-07
-0.00175068 0.0390646 -1.61891e-07
-1.18747e-07 -1.61891e-07 0.0359045

0.0232603 0.000103508 1.42496e-07
0.000103508 0.0315167 5.76433e-08
1.42496e-07 5.76433e-08 0.0231189

0.0327574 -0.000288504 1.52103e-07
-0.000288504 0.0246593 1.0828e-07
1.52103e-07 1.0828e-07 0.0269654

0.0380534 -0.00212929 7.3006e-08
-0.00212929 0.0304629 -1.29526e-07
7.3006e-08 -1.29526e-07 0.0347924

0.0292372 0.00320588 1.63876e-07
0.00320588 0.033277 1.00261e-07
1.63876e-07 1.00261e-07 0.0333419

0.0289496 -0.00177268 2.52029e-08
-0.00177268 0.0366082 -6.70134e-09
2.52029e-08 -6.70134e-09 0.0334987

0.0365827 -0.00108501 1.65558e-07
-0.00108501 0.0264752 -2.15688e-08
1.65558e-07 -2.15688e-08 0.0338591

0.0311794 -0.0029258 -1.75737e-07
-0.0029258 0.0383049 4.22169e-08
-1.75737e-07 4.22169e-08 0.0348428

0.0381648 -0.000885368 3.14323e-07
-0.000885368 0.0387309 -1.03191e-07
3.14323e-07 -1.03191e-07 0.0358346

0.0301788 -0.00393969 -9.06765e-08
-0.00393969 0.0327096 -1.23322e-07
-9.06765e-08 -1.23322e-07 0.0327623

0.0213321 0.00146933 2.29258e-07
0.00146933 0.0296126 2.51427e-08
2.29258e-07 2.51427e-08 0.018295

0.0293869 -0.00364539 5.55064e-08
-0.00364539 0.0253485 -2.00422e-08
5.55064e-08 -2.00422e-08 0.0231812

0.0328587 -0.00181718 9.50275e-08
-0.00181718 0.0397163 1.45229e-07
9.50275e-08 1.45229e-07 0.0352401

0.0350898 7.64973e-05 -6.31685e-09
7.64973e-05 0.027221 8.5234e-08
-6.31685e-09 8.5234e-08 0.0332502

0.0308175 -0.00282908 3.73517e-08
-0.00282908 0.0348902 -2.70787e-08
3.73517e-08 -2.70787e-08 0.0340832

0.0295331 0.00338865 7.95611e-08
0.00338865 0.0328704 -1.56953e-07
7.95611e-08 -1.56953e-07 0.033325

0.0264593 -0.00406316 8.88047e-08
-0.00406316 0.0272606 1.93816e-07
8.88047e-08 1.93816e-07 0.0215837

0.037172 -0.000958397 -3.60921e-08
-0.000958397 0.0416093 -1.02962e-07
-3.60921e-08 -1.02962e-07 0.0358856

0.0227101 -0.00423739 2.95182e-07
-0.00423739 0.0272428 -6.8528e-08
2.95182e-07 -6.8528e-08 0.0168769

0.0341818 -0.00252475 -5.21181e-09
-0.00252475 0.0286056 8.8576e-08
-5.21181e-09 8.8576e-08 0.0310435

0.0364248 0.000289605 -1.84236e-07
0.000289605 0.0294365 3.48471e-08
-1.84236e-07 3.48471e-08 0.0341928

0.0396399 0.0023967 2.46505e-09
0.0023967 0.0391125 5.4293e-08
2.46505e-09 5.4293e-08 0.0358666

0.0238553 0.00260904 2.41986e-08
0.00260904 0.0301503 1.69132e-07
2.41986e-08 1.69132e-07 0.021798

0.0334299 0.00358126 -3.98956e-08
0.00358126 0.0307141 8.15832e-08
-3.98956e-08 8.15832e-08 0.0317662

0.0316419 -0.00319427 -9.038e-08
-0.00319427 0.026551 -6.2059e-08
-9.038e-08 -6.2059e-08 0.0269344

0.0289282 -0.00234103 5.02543e-08
-0.00234103 0.0342338 4.79162e-08
5.02543e-08 4.79162e-08 0.0326049

0.0262433 0.00450123 -3.29076e-08
0.00450123 0.0245569 3.04751e-08
-3.29076e-08 3.04751e-08 0.0180805

0.0284217 -0.00286694 3.14557e-08
-0.00286694 0.034031 4.22838e-08
3.14557e-08 4.22838e-08 0.032448

0.0331481 0.00405887 5.74957e-08
0.00405887 0.0304637 -2.20567e-07
5.74957e-08 -2.20567e-07 0.0315413

0.0333339 -0.00331159 2.09813e-07
-0.00331159 0.028356 4.17237e-08
2.09813e-07 4.17237e-08 0.0300449

0.0291599 -0.00329524 -5.1662e-08
-0.00329524 0.0319868 -3.27627e-08
-5.1662e-08 -3.27627e-08 0.0304363

0.0314541 -0.00242925 -6.83444e-08
-0.00242925 0.0247179 -9.38928e-08
-6.83444e-08 -9.38928e-08 0.0251553

0.0329548 -0.00246661 2.5264e-07
-0.00246661 0.0267085 -2.0428e-08
2.5264e-07 -2.0428e-08 0.0285956

0.0294902 -0.0033418 -1.48015e-07
-0.0033418 0.0329497 -1.35029e-08
-1.48015e-07 -1.35029e-08 0.0334064

0.0261333 0.00463362 -1.43289e-07
0.00463362 0.0255404 9.75929e-08
-1.43289e-07 9.75929e-08 0.0210917

0.028149 0.00201676 -1.10564e-07
0.00201676 0.0343345 2.35488e-07
-1.10564e-07 2.35488e-07 0.0311085

0.0308854 0.00348106 -8.38914e-08
0.00348106 0.0322544 1.62207e-07
-8.38914e-08 1.62207e-07 0.0325992

0.0291562 0.00334793 2.78769e-08
0.00334793 0.0331908 1.61412e-07
2.78769e-08 1.61412e-07 0.0332595

0.0289832 0.00152278 2.60448e-08
0.00152278 0.0354695 -2.31841e-07
2.60448e-08 -2.31841e-07 0.0326946

0.0310517 -0.00106171 6.70927e-08
-0.00106171 0.0231407 5.97265e-08
6.70927e-08 5.97265e-08 0.0220772

0.0238831 0.00240544 -1.75398e-07
0.00240544 0.0304096 -9.83785e-08
-1.75398e-07 -9.83785e-08 0.0221122

0.0292127 -0.0032037 -1.29586e-08
-0.0032037 0.0326356 -1.93621e-08
-1.29586e-08 -1.93621e-08 0.0316175

0.0289866 0.00335659 -1.79644e-07
0.00335659 0.0309316 -9.15112e-08
-1.79644e-07 -9.15112e-08 0.0285671

0.0266117 -0.00459109 -2.0831e-07
-0.00459109 0.0252298 -3.84578e-08
-2.0831e-07 -3.84578e-08 0.0212559

0.0262768 0.00489316 5.39038e-08
0.00489316 0.0209456 -3.11674e-07
5.39038e-08 -3.11674e-07 0.0167618

0.0235021 -0.00428658 -4.74043e-09
-0.00428658 0.0274637 -2.75898e-08
-4.74043e-09 -2.75898e-08 0.0206258

0.0266709 -0.00402743 -2.08168e-07
-0.00402743 0.0274817 -3.78066e-08
-2.08168e-07 -3.78066e-08 0.0220493

0.0353641 -0.00090638 -8.96229e-08
-0.00090638 0.0273896 -6.03939e-08
-8.96229e-08 -6.03939e-08 0.0326541

0.0260446 0.00392153 1.31384e-07
0.00392153 0.0280913 3.19992e-08
1.31384e-07 3.19992e-08 0.0221018

0.030787 0.00171646 7.13253e-08
0.00171646 0.0233596 -3.40194e-09
7.13253e-08 -3.40194e-09 0.0220249

0.0214303 0.00172192 2.1316e-07
0.00172192 0.0302399 -2.58085e-08
2.1316e-07 -2.58085e-08 0.0211321

0.0242621 -0.00288932 6.97024e-08
-0.00288932 0.0299507 1.33682e-07
6.97024e-08 1.33682e-07 0.0220856

0.0313452 -0.000131054 -9.26471e-08
-0.000131054 0.039273 -9.29155e-08
-9.26471e-08 -9.29155e-08 0.0346704

0.0230577 0.000294706 9.92273e-08
0.000294706 0.0314597 4.97182e-08
9.92273e-08 4.97182e-08 0.0230616

0.0227765 0.00400126 -2.50381e-07
0.00400126 0.0281264 6.31977e-10
-2.50381e-07 6.31977e-10 0.0206375

0.0288879 0.00158559 -1.5926e-07
0.00158559 0.0358322 -2.08727e-08
-1.5926e-07 -2.08727e-08 0.0328931

0.0293153 -0.00357986 -1.3187e-07
-0.00357986 0.025129 1.56681e-08
-1.3187e-07 1.56681e-08 0.0232391

0.0369764 0.002733 -4.7976e-08
0.002733 0.0297227 -7.9785e-08
-4.7976e-08 -7.9785e-08 0.0338013

0.0371757 0.00348335 -2.02086e-07
0.00348335 0.0334225 -7.55553e-09
-2.02086e-07 -7.55553e-09 0.0346519

0.0345433 -0.00244633 -1.66643e-08
-0.00244633 0.0285294 1.72037e-08
-1.66643e-08 1.72037e-08 0.0313785

0.0390559 -0.000265667 1.60837e-07
-0.000265667 0.0339247 3.78962e-08
1.60837e-07 3.78962e-08 0.0352079

0.0314787 -0.00418757 4.80766e-08
-0.00418757 0.0317815 1.44315e-07
4.80766e-08 1.44315e-07 0.032156

0.0294614 0.00300734 1.13523e-07
0.00300734 0.0223268 -6.19394e-08
1.13523e-07 -6.19394e-08 0.0210661

0.0302291 0.00397306 8.4619e-08
0.00397306 0.0326627 -1.47467e-07
8.4619e-08 -1.47467e-07 0.0327196

0.0302771 0.00384704 -1.17488e-07
0.00384704 0.0326067 -6.46921e-08
-1.17488e-07 -6.46921e-08 0.0326744

0.0262439 0.00396161 -3.97329e-08
0.00396161 0.027767 -1.07472e-07
-3.97329e-08 -1.07472e-07 0.0218644

0.0344498 0.0035765 7.65579e-08
0.0035765 0.0317796 7.91926e-08
7.65579e-08 7.91926e-08 0.0328312

0.0302478 0.000452435 8.71486e-08
0.000452435 0.020428 3.00671e-08
8.71486e-08 3.00671e-08 0.0205728

0.0331857 0.00420075 1.18222e-07
0.00420075 0.0323727 1.82008e-07
1.18222e-07 1.82008e-07 0.0334835

0.0305006 -0.00165432 -5.38545e-08
-0.00165432 0.0366159 -1.0377e-08
-5.38545e-08 -1.0377e-08 0.0336625

0.0373598 0.00323301 4.72952e-08
0.00323301 0.0334595 -8.8182e-08
4.72952e-08 -8.8182e-08 0.034664

0.0307363 -0.00389609 -1.47303e-07
-0.00389609 0.0322728 1.07285e-07
-1.47303e-07 1.07285e-07 0.0326799

0.0293737 -0.000644904 1.74687e-07
-0.000644904 0.036903 3.83031e-08
1.74687e-07 3.83031e-08 0.0328476

0.0288122 -0.00315225 -6.7823e-08
-0.00315225 0.0221396 -1.72982e-07
-6.7823e-08 -1.72982e-07 0.0187586

0.029002 0.00384427 6.41004e-08
0.00384427 0.0255775 9.26768e-08
6.41004e-08 9.26768e-08 0.0230725

0.021701 0.00189101 3.13345e-08
0.00189101 0.0300606 1.69515e-07
3.13345e-08 1.69515e-07 0.0210834

0.0349898 -0.000161213 -1.59806e-07
-0.000161213 0.0273892 -6.04157e-08
-1.59806e-07 -6.04157e-08 0.0333012

0.0344195 2.58073e-07 -9.571e-08
2.58073e-07 0.0272743 -4.89787e-08
-9.571e-08 -4.89787e-08 0.0320408

0.0291652 0.00303978 1.63204e-07
0.00303978 0.0326795 -7.69393e-08
1.63204e-07 -7.69393e-08 0.0321323

0.0314496 0.00316638 -2.36076e-08
0.00316638 0.03425 -7.24866e-08
-2.36076e-08 -7.24866e-08 0.0340578

0.0291683 -0.00320413 -2.03079e-08
-0.00320413 0.0332379 1.78747e-07
-2.03079e-08 1.78747e-07 0.0333787

0.0287735 -8.5512e-05 -8.42283e-08
-8.5512e-05 0.0367045 -1.00372e-07
-8.42283e-08 -1.00372e-07 0.0325254

0.029464 0.00337587 5.27409e-09
0.00337587 0.0330743 1.23674e-07
5.27409e-09 1.23674e-07 0.0333544

0.0328592 -0.00134647 1.32763e-07
-0.00134647 0.0253615 -1.09266e-07
1.32763e-07 -1.09266e-07 0.0278285

0.0263544 -0.00425449 2.02549e-07
-0.00425449 0.0281792 6.72179e-09
2.02549e-07 6.72179e-09 0.0242672

0.0362972 -0.000331626 -5.81061e-08
-0.000331626 0.0293828 9.09379e-08
-5.81061e-08 9.09379e-08 0.0340277

0.0267806 -0.00444527 -2.38173e-08
-0.00444527 0.0251901 1.20068e-08
-2.38173e-08 1.20068e-08 0.0209488

0.0308993 0.0025071 -3.11852e-08
0.0025071 0.035063 1.04597e-07
-3.11852e-08 1.04597e-07 0.0340675

0.0351128 -0.00349692 -1.5512e-07
-0.00349692 0.0303882 2.20946e-07
-1.5512e-07 2.20946e-07 0.0326145

0.0305013 -0.00124979 1.45308e-08
-0.00124979 0.0229781 2.12822e-07
1.45308e-08 2.12822e-07 0.0214781

0.0371473 -0.00307701 -2.04863e-07
-0.00307701 0.0316532 7.45236e-08
-2.04863e-07 7.45236e-08 0.0339876

0.0349685 0.000322023 3.7227e-08
0.000322023 0.0275545 -2.33934e-08
3.7227e-08 -2.33934e-08 0.0334297

0.035843 -0.00308839 -3.05491e-08
-0.00308839 0.0332577 -3.0756e-08
-3.05491e-08 -3.0756e-08 0.0341432

0.0349283 -0.0034105 1.61356e-07
-0.0034105 0.0295945 -6.0964e-08
1.61356e-07 -6.0964e-08 0.0321778

0.0349088 -0.00113368 1.85107e-08
-0.00113368 0.0278497 1.14954e-07
1.85107e-08 1.14954e-07 0.0323411

0.0314895 -0.00306235 5.74811e-08
-0.00306235 0.0344483 7.80271e-08
5.74811e-08 7.80271e-08 0.0341462

0.0292351 -0.00407087 1.26113e-07
-0.00407087 0.0268994 -1.2218e-07
1.26113e-07 -1.2218e-07 0.0253459

0.0349924 -0.00324354 1.70322e-07
-0.00324354 0.0299148 -2.56291e-08
1.70322e-07 -2.56291e-08 0.032195

0.031462 0.00140903 -2.22507e-08
0.00140903 0.0233267 -8.15749e-09
-2.22507e-08 -8.15749e-09 0.0244833

0.0336644 0.00348422 2.19519e-07
0.00348422 0.0334438 2.5175e-08
2.19519e-07 2.5175e-08 0.0336497

0.0298922 -0.00496733 7.21591e-09
-0.00496733 0.0330784 -1.96876e-08
7.21591e-09 -1.96876e-08 0.0338569

0.0300428 0.00492024 -4.35704e-08
0.00492024 0.0329397 1.25839e-07
-4.35704e-08 1.25839e-07 0.0338238

0.0276876 -0.00374173 4.56573e-08
-0.00374173 0.0348067 5.79383e-13
4.56573e-08 5.79383e-13 0.0337663

0.0279253 0.003547 7.89603e-08
0.003547 0.0348347 9.36266e-08
7.89603e-08 9.36266e-08 0.0337312

0.0364295 -0.00115362 -1.55478e-07
-0.00115362 0.0263415 -6.82948e-08
-1.55478e-07 -6.82948e-08 0.0337575

0.0361981 0.00124757 -4.39061e-08
0.00124757 0.0265629 -3.59434e-09
-4.39061e-08 -3.59434e-09 0.0337203

0.035034 -0.00130672 -1.11256e-07
-0.00130672 0.0284677 -1.94729e-07
-1.11256e-07 -1.94729e-07 0.0325755

0.034436 0.00425922 3.35093e-08
0.00425922 0.0342891 -7.14907e-08
3.35093e-08 -7.14907e-08 0.0348122

0.0343118 -0.00435709 -7.94169e-08
-0.00435709 0.0342806 2.96107e-08
-7.94169e-08 2.96107e-08 0.0348006

0.0305205 0.00209343 3.8862e-08
0.00209343 0.0381652 -3.34391e-08
3.8862e-08 -3.34391e-08 0.0348494

0.0306639 -0.00205954 5.33451e-08
-0.00205954 0.0380948 1.15699e-09
5.33451e-08 1.15699e-09 0.0348367

0.0395021 -0.000529118 -1.07313e-07
-0.000529118 0.0328493 -1.90298e-07
-1.07313e-07 -1.90298e-07 0.0352576

0.0397046 0.000513586 -1.51605e-07
0.000513586 0.0326215 -1.17081e-07
-1.51605e-07 -1.17081e-07 0.0353028

0.0239648 0.00127595 2.3261e-08
0.00127595 0.0320028 -9.01572e-08
2.3261e-08 -9.01572e-08 0.025184

0.0311618 -0.00326519 5.29437e-08
-0.00326519 0.0322401 1.15082e-07
5.29437e-08 1.15082e-07 0.0328015

0.0277792 -0.00478588 -4.12454e-08
-0.00478588 0.0333113 1.79241e-07
-4.12454e-08 1.79241e-07 0.0334549

0.0333584 -0.000610528 1.06366e-07
-0.000610528 0.0264028 -1.5618e-07
1.06366e-07 -1.5618e-07 0.0284479

0.038188 -0.00225199 8.87368e-08
-0.00225199 0.0307943 1.43931e-07
8.87368e-08 1.43931e-07 0.0348924

0.0382362 0.00218388 -2.17894e-07
0.00218388 0.0309072 -1.7992e-08
-2.17894e-07 -1.7992e-08 0.0349246

0.0360832 1.56214e-05 -1.63981e-08
1.56214e-05 0.0251254 7.18699e-08
-1.63981e-08 7.18699e-08 0.03347

0.0242406 0.00302891 -7.87076e-08
0.00302891 0.0303974 -1.87281e-08
-7.87076e-08 -1.87281e-08 0.0242767

0.0276736 0.00475626 -1.13551e-07
0.00475626 0.0333122 1.55467e-07
-1.13551e-07 1.55467e-07 0.0333928

0.0286741 -0.00307576 5.56813e-08
-0.00307576 0.0342607 4.78241e-08
5.56813e-08 4.78241e-08 0.032752

0.0310851 0.00303565 1.99486e-07
0.00303565 0.0251464 -1.61209e-07
1.99486e-07 -1.61209e-07 0.0254669

0.0372278 0.00316551 -6.83231e-08
0.00316551 0.0315406 5.31104e-08
-6.83231e-08 5.31104e-08 0.0340756

0.0292267 -0.00406713 -3.63369e-08
-0.00406713 0.0269354 -1.39121e-07
-3.63369e-08 -1.39121e-07 0.025321

0.0364017 -0.000453638 1.76528e-07
-0.000453638 0.0296911 9.67759e-11
1.76528e-07 9.67759e-11 0.0341307

0.0273439 -0.0044949 -1.73567e-07
-0.0044949 0.0333947 -9.46569e-08
-1.73567e-07 -9.46569e-08 0.0334415

0.0240376 0.00107898 5.89723e-08
0.00107898 0.0322437 -1.1451e-07
5.89723e-08 -1.1451e-07 0.0255056

0.0242294 0.0028264 -1.07158e-07
0.0028264 0.0307012 3.95738e-08
-1.07158e-07 3.95738e-08 0.0245446

0.0267922 0.00459424 -1.39488e-07
0.00459424 0.0240415 1.02258e-07
-1.39488e-07 1.02258e-07 0.0182133

0.0298503 0.000199821 2.0108e-07
0.000199821 0.0200882 -6.8633e-08
2.0108e-07 -6.8633e-08 0.0193622

0.0319085 -0.00302395 1.21126e-07
-0.00302395 0.0341619 2.02812e-08
1.21126e-07 2.02812e-08 0.0340353

0.0229183 0.00399945 -1.77708e-07
0.00399945 0.0276596 1.30262e-07
-1.77708e-07 1.30262e-07 0.0176528

0.0292094 0.00310076 1.99493e-07
0.00310076 0.0327627 -2.15379e-08
1.99493e-07 -2.15379e-08 0.031012

0.0315943 -0.000694449 -1.02521e-07
-0.000694449 0.0231598 5.53679e-08
-1.02521e-07 5.53679e-08 0.0244846

0.0327612 0.00146444 1.39912e-08
0.00146444 0.0253466 7.4695e-08
1.39912e-08 7.4695e-08 0.0276127

0.0359777 5.60065e-05 -4.46481e-08
5.60065e-05 0.0249584 1.47322e-07
-4.46481e-08 1.47322e-07 0.0333859

0.0279654 -0.00380541 -1.32452e-07
-0.00380541 0.0349483 -2.22201e-08
-1.32452e-07 -2.22201e-08 0.0338157

0.0393145 -0.000843767 2.36805e-07
-0.000843767 0.0416019 7.3314e-08
2.36805e-07 7.3314e-08 0.0361899

0.0298678 0.00493914 2.4685e-08
0.00493914 0.032956 -1.5854e-07
2.4685e-08 -1.5854e-07 0.0337788

0.030288 0.000214507 -1.00737e-07
0.000214507 0.0203966 1.7673e-08
-1.00737e-07 1.7673e-08 0.0172759

0.0266735 -0.00425034 -2.2855e-07
-0.00425034 0.0281328 -8.57219e-09
-2.2855e-07 -8.57219e-09 0.0244372

0.027746 0.00481589 1.95707e-08
0.00481589 0.033315 9.85787e-08
1.95707e-08 9.85787e-08 0.0334551

0.0279448 -0.00145862 -1.15494e-07
-0.00145862 0.0350844 -7.47282e-08
-1.15494e-07 -7.47282e-08 0.03145

0.0244648 -0.00330498 -1.03086e-07
-0.00330498 0.0300152 -5.26431e-08
-1.03086e-07 -5.26431e-08 0.0242168

0.0279903 0.00377966 1.69096e-07
0.00377966 0.0349101 9.15777e-08
1.69096e-07 9.15777e-08 0.0337866

0.0313612 -0.00340951 -1.28141e-07
-0.00340951 0.0270083 -1.47232e-07
-1.28141e-07 -1.47232e-07 0.0269911

0.0402798 0.00140889 1.1691e-07
0.00140889 0.0406177 -2.06749e-07
1.1691e-07 -2.06749e-07 0.0361703

0.0258809 0.00400277 9.83762e-08
0.00400277 0.0289541 -2.96321e-08
9.83762e-08 -2.96321e-08 0.0245107

0.0366774 0.001103 -5.81831e-08
0.001103 0.0263519 -1.58177e-07
-5.81831e-08 -1.58177e-07 0.0338976

0.0333419 0.00398427 2.68854e-08
0.00398427 0.0321155 -6.26828e-08
2.68854e-08 -6.26828e-08 0.0333154

0.0292279 0.00306703 8.64311e-08
0.00306703 0.032605 -1.47329e-07
8.64311e-08 -1.47329e-07 0.0321575

0.0343647 -0.00431085 8.40816e-08
-0.00431085 0.0345049 7.7463e-08
8.40816e-08 7.7463e-08 0.0348848

0.0354895 -0.00306344 -2.35056e-07
-0.00306344 0.0305898 5.80289e-08
-2.35056e-07 5.80289e-08 0.0327502

0.0333664 0.00138794 -1.81289e-07
0.00138794 0.0395773 -1.36001e-07
-1.81289e-07 -1.36001e-07 0.0350023

0.0291967 -0.00307902 -5.7973e-08
-0.00307902 0.0328734 -8.98583e-08
-5.7973e-08 -8.98583e-08 0.0313831

0.0292647 -0.00123217 6.23134e-08
-0.00123217 0.019287 -1.09606e-07
6.23134e-08 -1.09606e-07 0.016412

0.0287783 -0.00183228 -1.41221e-07
-0.00183228 0.0184139 -6.67766e-08
-1.41221e-07 -6.67766e-08 0.0161969

0.0385293 0.0022019 3.297e-08
0.0022019 0.0332388 -6.14727e-08
3.297e-08 -6.14727e-08 0.0347628

0.0280558 0.00294504 7.44214e-08
0.00294504 0.0323355 -2.66529e-07
7.44214e-08 -2.66529e-07 0.029518

0.0320669 0.00383415 -8.91078e-08
0.00383415 0.0309605 -8.42272e-08
-8.91078e-08 -8.42272e-08 0.0314543

0.0320498 8.98267e-05 -1.12961e-07
8.98267e-05 0.0245768 1.40678e-07
-1.12961e-07 1.40678e-07 0.024888

0.0302376 0.000866065 1.82535e-07
0.000866065 0.0385808 5.97956e-08
1.82535e-07 5.97956e-08 0.0340962

0.0354016 0.00219139 -6.8543e-08
0.00219139 0.0293229 -1.00345e-07
-6.8543e-08 -1.00345e-07 0.0328581

0.0248112 -0.00333889 4.17654e-08
-0.00333889 0.030006 1.7819e-07
4.17654e-08 1.7819e-07 0.0244699

0.0286505 -0.000337967 -1.60483e-07
-0.000337967 0.0366572 -1.07669e-07
-1.60483e-07 -1.07669e-07 0.0323957

0.0252152 0.00174007 -3.29622e-08
0.00174007 0.0320295 -9.18872e-08
-3.29622e-08 -9.18872e-08 0.0256839

0.0332806 -0.00390962 -2.19867e-08
-0.00390962 0.0304967 7.06613e-08
-2.19867e-08 7.06613e-08 0.0315923

0.0290648 -0.00389605 3.63286e-08
-0.00389605 0.0282 1.2056e-09
3.63286e-08 1.2056e-09 0.0257134

0.0261492 0.0040988 5.2018e-08
0.0040988 0.0285462 5.43647e-08
5.2018e-08 5.43647e-08 0.0243181

0.0452873 -0.00201688 1.72557e-07
-0.00201688 0.039606 3.3736e-07
1.72557e-07 3.3736e-07 0.0363668

0.0316667 0.000256239 6.14196e-08
0.000256239 0.039327 -1.06444e-07
6.14196e-08 -1.06444e-07 0.034769

0.0306164 0.00265106 -2.64258e-08
0.00265106 0.038443 3.33976e-08
-2.64258e-08 3.33976e-08 0.0349576

0.0387658 0.00209508 1.31127e-07
0.00209508 0.0302216 2.51892e-08
1.31127e-07 2.51892e-08 0.0349424

0.0313707 -0.00345039 -8.34655e-08
-0.00345039 0.0321405 2.05599e-07
-8.34655e-08 2.05599e-07 0.0325726

0.0318178 0.00233601 2.72796e-08
0.00233601 0.0256202 9.19625e-08
2.72796e-08 9.19625e-08 0.0258795

0.0349938 -0.000708264 -2.53652e-07
-0.000708264 0.0415752 4.40914e-09
-2.53652e-07 4.40914e-09 0.0357276

0.0357879 -0.00251874 3.0421e-08
-0.00251874 0.02955 8.75042e-08
3.0421e-08 8.75042e-08 0.0332579

0.0332972 -0.0020398 2.6897e-07
-0.0020398 0.0266526 2.12794e-08
2.6897e-07 2.12794e-08 0.0286753

0.0252522 0.00151087 -1.0984e-08
0.00151087 0.032274 -1.17153e-07
-1.0984e-08 -1.17153e-07 0.0259499

0.0268046 -0.00334451 1.76354e-07
-0.00334451 0.0300095 -4.27823e-08
1.76354e-07 -4.27823e-08 0.0251872

0.0364772 -0.00336028 -1.29164e-07
-0.00336028 0.0352875 -7.28768e-08
-1.29164e-07 -7.28768e-08 0.0347422

0.0284753 0.004152 -1.81208e-07
0.004152 0.0277158 9.45479e-08
-1.81208e-07 9.45479e-08 0.0254677

0.0372435 -0.00334546 1.45723e-07
-0.00334546 0.0333222 -2.10753e-07
1.45723e-07 -2.10753e-07 0.0346115

0.0322059 0.000337903 -8.54593e-08
0.000337903 0.0248625 8.87588e-08
-8.54593e-08 8.87588e-08 0.0254374

0.0191609 -0.00368907 1.95898e-07
-0.00368907 0.0275259 -7.97996e-08
1.95898e-07 -7.97996e-08 0.0163107

0.0292099 -0.00380339 1.95345e-07
-0.00380339 0.0281924 2.93382e-08
1.95345e-07 2.93382e-08 0.0258076

0.0230456 0.00412728 1.419e-07
0.00412728 0.0280202 -1.47706e-07
1.419e-07 -1.47706e-07 0.017592

0.0296909 -0.00155937 -7.02134e-08
-0.00155937 0.0375338 -1.41401e-07
-7.02134e-08 -1.41401e-07 0.0336483

0.02436 -0.00179354 2.3738e-09
-0.00179354 0.0318722 -2.06193e-08
2.3738e-09 -2.06193e-08 0.0254478

0.0424367 -0.00323425 -8.92123e-08
-0.00323425 0.042376 -5.56483e-08
-8.92123e-08 -5.56483e-08 0.0363751

0.0263363 0.00309101 5.48213e-08
0.00309101 0.0307014 3.96543e-08
5.48213e-08 3.96543e-08 0.0254776

0.0334768 -0.00432355 -5.48912e-09
-0.00432355 0.0326593 -2.11729e-08
-5.48912e-09 -2.11729e-08 0.0335662

0.0240804 -0.00155081 4.93451e-08
-0.00155081 0.0318868 -8.17868e-09
4.93451e-08 -8.17868e-09 0.0251765

0.0362222 -0.00253871 -2.3109e-07
-0.00253871 0.0295107 -1.75634e-08
-2.3109e-07 -1.75634e-08 0.033519

0.0266733 0.00310465 9.87278e-08
0.00310465 0.0303943 -2.15854e-08
9.87278e-08 -2.15854e-08 0.0253129

0.0343426 -0.000653739 -1.97019e-07
-0.000653739 0.0272764 -5.44574e-08
-1.97019e-07 -5.44574e-08 0.0305773

0.0188903 -0.00387145 1.18365e-07
-0.00387145 0.0298012 9.75556e-08
1.18365e-07 9.75556e-08 0.0129611

0.0279988 0.00275446 1.03665e-07
0.00275446 0.0326286 -5.13411e-08
1.03665e-07 -5.13411e-08 0.0305732

0.031437 -0.0025123 4.93257e-08
-0.0025123 0.0247218 -2.16888e-08
4.93257e-08 -2.16888e-08 0.0254055

0.0391182 -0.00286939 9.40448e-08
-0.00286939 0.0322211 1.61337e-08
9.40448e-08 1.61337e-08 0.0349365

0.0287525 0.00412369 -2.54331e-08
0.00412369 0.0272996 -6.27915e-08
-2.54331e-08 -6.27915e-08 0.025255

0.0313605 -0.00391912 -1.20668e-07
-0.00391912 0.0285413 -1.5902e-07
-1.20668e-07 -1.5902e-07 0.0287305

0.0354076 0.0027641 -1.11486e-07
0.0027641 0.0308552 -5.50889e-08
-1.11486e-07 -5.50889e-08 0.0330386

0.029772 -0.00370366 -5.41118e-08
-0.00370366 0.0329369 9.12055e-09
-5.41118e-08 9.12055e-09 0.0333417

0.0270545 -0.00341014 -1.4686e-07
-0.00341014 0.0299819 1.63864e-07
-1.4686e-07 1.63864e-07 0.0253969

0.02844 0.00377089 -9.4843e-08
0.00377089 0.028939 -3.51216e-08
-9.4843e-08 -3.51216e-08 0.0258867

0.0313706 0.00341342 4.3655e-08
0.00341342 0.0268988 -1.45769e-07
4.3655e-08 -1.45769e-07 0.0269654

0.0365351 -0.00194419 -1.17208e-07
-0.00194419 0.0306247 2.24165e-07
-1.17208e-07 2.24165e-07 0.0336349

0.025533 -0.00216324 -5.84462e-08
-0.00216324 0.0318009 -2.57974e-08
-5.84462e-08 -2.57974e-08 0.0258531

0.0346983 -0.00231406 -1.10123e-07
-0.00231406 0.0283335 -1.94455e-07
-1.10123e-07 -1.94455e-07 0.0314551

0.0341852 0.00222317 1.17227e-07
0.00222317 0.027431 1.00286e-07
1.17227e-07 1.00286e-07 0.030603

0.0336443 -0.00124581 3.349e-07
-0.00124581 0.0392987 -9.79373e-08
3.349e-07 -9.79373e-08 0.0349266

0.0320711 -0.00174665 8.45775e-10
-0.00174665 0.0253297 -1.14523e-07
8.45775e-10 -1.14523e-07 0.0258704

0.0250011 7.96686e-05 -2.74718e-08
7.96686e-05 0.0331505 -7.6039e-09
-2.74718e-08 -7.6039e-09 0.0268604

0.0332462 0.00242834 -5.40262e-08
0.00242834 0.0271928 -3.46629e-08
-5.40262e-08 -3.46629e-08 0.0289213

0.0311165 0.00359874 1.88717e-07
0.00359874 0.0272917 -1.83835e-07
1.88717e-07 -1.83835e-07 0.0271218

0.0252946 -0.00204106 -8.04938e-08
-0.00204106 0.0318635 -1.11753e-08
-8.04938e-08 -1.11753e-08 0.0256103

0.0252004 -0.000154695 -9.4003e-10
-0.000154695 0.0332907 -2.25535e-08
-9.4003e-10 -2.25535e-08 0.0271432

0.0354121 0.00385791 6.60141e-08
0.00385791 0.0329947 -6.40569e-08
6.60141e-08 -6.40569e-08 0.0338945

0.0275848 -0.00143094 8.38899e-08
-0.00143094 0.0353409 1.65302e-07
8.38899e-08 1.65302e-07 0.0314411

0.0312329 -0.0034837 -6.80253e-08
-0.0034837 0.0269767 -1.40542e-07
-6.80253e-08 -1.40542e-07 0.0270089

0.0312955 0.00277248 1.804e-07
0.00277248 0.0249213 8.90823e-08
1.804e-07 8.90823e-08 0.0252454

0.0345817 0.00311824 7.37989e-09
0.00311824 0.0293855 -1.02991e-07
7.37989e-09 -1.02991e-07 0.0317948

0.0279904 0.000716619 2.61341e-08
0.000716619 0.0360385 4.00529e-08
2.61341e-08 4.00529e-08 0.0318172

0.0287152 0.00378116 -9.69414e-08
0.00378116 0.0285582 5.75184e-08
-9.69414e-08 5.75184e-08 0.0257271

0.0367899 0.00305733 -1.24811e-07
0.00305733 0.036125 -1.43915e-07
-1.24811e-07 -1.43915e-07 0.0349062

0.0226795 -0.00754512 2.12617e-07
-0.00754512 0.0186873 2.80081e-07
2.12617e-07 2.80081e-07 0.0108448

0.0332903 -0.00328733 1.19913e-07
-0.00328733 0.0286314 -1.39633e-07
1.19913e-07 -1.39633e-07 0.0301231

0.0207262 0.000913446 -8.71575e-08
0.000913446 0.0300301 -6.65581e-08
-8.71575e-08 -6.65581e-08 0.0183458

0.0312991 -0.00378138 5.02712e-08
-0.00378138 0.0292304 1.46662e-07
5.02712e-08 1.46662e-07 0.0290307

0.00153952 -0.00651862 -1.19154e-09
-0.00651862 0.0275677 5.22048e-09
-1.19154e-09 5.22048e-09 0.00290824

0.00146992 0.00636819 2.25777e-08
0.00636819 0.0275856 9.89194e-08
2.25777e-08 9.89194e-08 0.00300118

0.0119843 0.0145046 -1.00782e-07
0.0145046 0.017532 -1.26376e-07
-1.00782e-07 -1.26376e-07 0.00277111

0.0121657 -0.0144953 -1.03874e-07
-0.0144953 0.0172235 1.30254e-07
-1.03874e-07 1.30254e-07 0.00280372

0.02934 -0.000164084 -1.32089e-07
-0.000164084 0 0
-1.32089e-07 0 0.00295254

0.0235917 -0.0112824 1.84671e-07
-0.0112824 0.00539536 -8.89328e-08
1.84671e-07 -8.89328e-08 0.00297823

0.0236335 0.0113486 -4.44388e-09
0.0113486 0.00544942 -2.14006e-09
-4.44388e-09 -2.14006e-09 0.0030394

0.0369099 0.00191153 1.02021e-07
0.00191153 0.0302414 6.22694e-09
1.02021e-07 6.22694e-09 0.033877

0.0387049 0.00340982 2.01153e-08
0.00340982 0.036617 -8.18658e-08
2.01153e-08 -8.18658e-08 0.0355778

0.0344143 0.000872368 8.16821e-08
0.000872368 0.0274561 3.44203e-08
8.16821e-08 3.44203e-08 0.031687

0.0328717 0.00285018 7.95411e-09
0.00285018 0.0268887 -1.46317e-07
7.95411e-09 -1.46317e-07 0.0286456

0.0257 0.00231322 6.28858e-08
0.00231322 0.0323661 1.01744e-07
6.28858e-08 1.01744e-07 0.0276349

0.030712 0.00376878 -4.89546e-09
0.00376878 0.0276753 1.02916e-07
-4.89546e-09 1.02916e-07 0.027117

0.0333048 -0.0039032 -8.96969e-08
-0.0039032 0.0304651 -2.68336e-08
-8.96969e-08 -2.68336e-08 0.0316292

0.0309728 0.00365432 -3.50438e-09
0.00365432 0.0272863 -6.25895e-08
-3.50438e-09 -6.25895e-08 0.0269246

0.0249865 -0.000371438 5.10784e-08
-0.000371438 0.0331216 -5.08453e-09
5.10784e-08 -5.08453e-09 0.0268425

0.0385475 -0.00348468 1.18178e-07
-0.00348468 0.0368804 -1.90487e-08
1.18178e-07 -1.90487e-08 0.0355834

0.025175 -0.000635502 1.54752e-09
-0.000635502 0.0332094 -2.23416e-08
1.54752e-09 -2.23416e-08 0.0271021

0.036017 0.00304734 1.56731e-08
0.00304734 0.0330107 7.03943e-08
1.56731e-08 7.03943e-08 0.0340974

0.0296222 0.00347552 6.24572e-08
0.00347552 0.0248457 9.56784e-08
6.24572e-08 9.56784e-08 0.0230223

0.0304955 -0.00171384 1.52832e-07
-0.00171384 0.0375117 -7.7622e-08
1.52832e-07 -7.7622e-08 0.034736

0.0339194 0.00180416 -2.3747e-07
0.00180416 0.027181 -3.64351e-08
-2.3747e-07 -3.64351e-08 0.0303199

0.0312004 -0.00392023 -7.61365e-08
-0.00392023 0.0285305 -1.27343e-07
-7.61365e-08 -1.27343e-07 0.0286138

0.0315828 -0.00322131 1.96721e-08
-0.00322131 0.0266911 2.81856e-08
1.96721e-08 2.81856e-08 0.0270471

0.0384791 -0.00214128 1.93474e-07
-0.00214128 0.0334165 -1.19643e-07
1.93474e-07 -1.19643e-07 0.0347444

0.0326805 0.00366396 1.30109e-07
0.00366396 0.0292315 -8.65587e-08
1.30109e-07 -8.65587e-08 0.0301544

0.0326441 0.00313751 7.94153e-08
0.00313751 0.0272517 -1.88577e-07
7.94153e-08 -1.88577e-07 0.0287874

0.0269547 -0.000365167 1.53206e-07
-0.000365167 0.0349862 -5.69967e-09
1.53206e-07 -5.69967e-09 0.0301674

0.0258992 0.00076573 6.75698e-08
0.00076573 0.034003 1.2561e-07
6.75698e-08 1.2561e-07 0.0288225

0.0327772 0.000345346 -2.63203e-08
0.000345346 0.0248613 9.25338e-08
-2.63203e-08 9.25338e-08 0.0274433

0.0313869 -0.00094484 -7.48801e-08
-0.00094484 0.0230035 2.09333e-07
-7.48801e-08 2.09333e-07 0.0238917

0.0308803 0.00398498 2.78034e-10
0.00398498 0.0288054 -5.57626e-08
2.78034e-10 -5.57626e-08 0.0286236

0.0331175 -0.00343134 -1.40799e-07
-0.00343134 0.0285401 -1.28148e-07
-1.40799e-07 -1.28148e-07 0.0299688

0.0364121 -0.00282362 -1.48808e-07
-0.00282362 0.0327326 1.25857e-07
-1.48808e-07 1.25857e-07 0.0341436

0.0292059 -0.00412741 1.16034e-07
-0.00412741 0.029192 1.51122e-07
1.16034e-07 1.51122e-07 0.0277534

0.0269716 -0.00362021 1.3206e-07
-0.00362021 0.0304645 3.17168e-08
1.3206e-07 3.17168e-08 0.0272129

0.0283258 0.00389941 -3.0576e-08
0.00389941 0.0299006 9.28509e-08
-3.0576e-08 9.28509e-08 0.0277515

0.0259008 -0.00124869 7.34557e-08
-0.00124869 0.0336127 -4.02874e-08
7.34557e-08 -4.02874e-08 0.0285154

0.0266541 -0.000201855 1.33291e-07
-0.000201855 0.0349119 6.98433e-08
1.33291e-07 6.98433e-08 0.0299193

0.0277619 0.000753084 1.7399e-07
0.000753084 0.0360379 3.89278e-08
1.7399e-07 3.89278e-08 0.0316577

0.0262467 -0.00274953 3.32876e-08
-0.00274953 0.0319624 -1.62783e-07
3.32876e-08 -1.62783e-07 0.0277102

0.0345821 0.00317565 2.69007e-09
0.00317565 0.0291678 -9.41444e-08
2.69007e-09 -9.41444e-08 0.0316339

0.0339085 -0.00126116 -2.03104e-07
-0.00126116 0.0269298 -6.96762e-08
-2.03104e-07 -6.96762e-08 0.0302012

0.0257899 0.000974121 -7.22732e-08
0.000974121 0.033829 -8.75691e-08
-7.22732e-08 -8.75691e-08 0.0285414

0.0278236 -0.00127 7.37217e-08
-0.00127 0.0353967 1.63216e-07
7.37217e-08 1.63216e-07 0.0313655

0.0272926 -0.00213706 6.16584e-09
-0.00213706 0.0336563 -1.25258e-09
6.16584e-09 -1.25258e-09 0.0302251

0.032776 -0.00107709 1.519e-07
-0.00107709 0.0253196 1.28951e-07
1.519e-07 1.28951e-07 0.0272539

0.0333146 -0.00427096 5.20793e-08
-0.00427096 0.0323801 1.80319e-07
5.20793e-08 1.80319e-07 0.0335287

0.0264883 0.00121978 1.77004e-07
0.00121978 0.033835 -8.44552e-08
1.77004e-07 -8.44552e-08 0.0288156

0.0398112 -0.00243166 2.0596e-07
-0.00243166 0.0352181 -8.47094e-08
2.0596e-07 -8.47094e-08 0.0354606

0.0188885 0.00316462 -3.27343e-08
0.00316462 0.0278757 -1.63964e-07
-3.27343e-08 -1.63964e-07 0.0162725

0.0338152 -0.00352252 -4.56792e-08
-0.00352252 0.0334945 2.46104e-08
-4.56792e-08 2.46104e-08 0.0337257

0.0353435 -0.00399937 -6.37202e-08
-0.00399937 0.033046 -1.47799e-07
-6.37202e-08 -1.47799e-07 0.0339035

0.0266854 -9.05167e-05 -1.64572e-07
-9.05167e-05 0.034917 6.30121e-08
-1.64572e-07 6.30121e-08 0.0299275

0.0332425 -0.00217634 3.07327e-08
-0.00217634 0.0271525 9.9443e-08
3.07327e-08 9.9443e-08 0.0289022

0.0293471 0.00168466 -1.89818e-08
0.00168466 0.035819 -2.90915e-08
-1.89818e-08 -2.90915e-08 0.0328792

0.0132073 -0.000379115 1.44557e-07
-0.000379115 0.0283616 9.04683e-08
1.44557e-07 9.04683e-08 0.0111516

0.0271132 0.00186844 2.2239e-07
0.00186844 0.0340608 4.67952e-10
2.2239e-07 4.67952e-10 0.0303057

0.0311084 -0.00385847 3.50062e-08
-0.00385847 0.0291535 9.67434e-08
3.50062e-08 9.67434e-08 0.0288059

0.0186196 0.00320456 4.84538e-08
0.00320456 0.030139 6.0017e-08
4.84538e-08 6.0017e-08 0.0131266

0.0426002 0.00351784 1.49729e-07
0.00351784 0.0418486 2.32728e-07
1.49729e-07 2.32728e-07 0.0364799

0.043206 -0.00374868 5.61821e-08
-0.00374868 0.0414175 -8.47246e-08
5.61821e-08 -8.47246e-08 0.0364624

0.0310645 -0.00399061 1.64556e-07
-0.00399061 0.0304706 -3.29631e-08
1.64556e-07 -3.29631e-08 0.0304605

0.0289215 -0.00406404 -2.08984e-08
-0.00406404 0.0291499 9.61216e-08
-2.08984e-08 9.61216e-08 0.0275938

0.0330502 0.00272692 -9.01257e-08
0.00272692 0.0275278 8.20201e-08
-9.01257e-08 8.20201e-08 0.0290748

0.0327787 0.00195999 -8.69147e-08
0.00195999 0.0255906 8.78395e-08
-8.69147e-08 8.78395e-08 0.0278222

0.0464016 0.000419546 -6.07094e-07
0.000419546 0.046357 3.76886e-07
-6.07094e-07 3.76886e-07 0.0366942

0.0469203 -0.000951091 -3.74311e-07
-0.000951091 0.0457678 8.01318e-08
-3.74311e-07 8.01318e-08 0.0367653

0.0347989 0.000638327 1.79905e-07
0.000638327 0.0275724 -5.08951e-08
1.79905e-07 -5.08951e-08 0.0322159

0.0277512 0.000882355 2.25656e-07
0.000882355 0.0355695 -4.7149e-09
2.25656e-07 -4.7149e-09 0.0313479

0.0276071 0.000882869 -2.1218e-07
0.000882869 0.0355696 -1.72212e-08
-2.1218e-07 -1.72212e-08 0.0312441

0.0234586 0.00739981 -3.27859e-07
0.00739981 0.0183015 1.37679e-08
-3.27859e-07 1.37679e-08 0.0109013

0.0272464 -0.00367538 -1.82723e-08
-0.00367538 0.0303462 -2.74121e-08
-1.82723e-08 -2.74121e-08 0.0273188

0.0365666 0.0023914 7.30039e-08
0.0023914 0.0295755 4.33433e-08
7.30039e-08 4.33433e-08 0.0337838

0.0332728 0.00124748 -5.86178e-08
0.00124748 0.0265035 3.33565e-08
-5.86178e-08 3.33565e-08 0.0284311

0.0291519 -0.00349229 -6.51264e-08
-0.00349229 0.0304707 1.53265e-08
-6.51264e-08 1.53265e-08 0.0281726

0.0328103 -0.00264764 -1.61571e-08
-0.00264764 0.0267274 2.70537e-08
-1.61571e-08 2.70537e-08 0.028586

0.0224596 0.00761254 1.18676e-07
0.00761254 0.01859 -3.21177e-07
1.18676e-07 -3.21177e-07 0.0109037

0.0331445 0.00410245 -3.68372e-08
0.00410245 0.0326376 8.58853e-08
-3.68372e-08 8.58853e-08 0.0331809

0.0258895 -0.00257814 -1.14805e-08
-0.00257814 0.032023 -1.24774e-07
-1.14805e-08 -1.24774e-07 0.0275067

0.0324816 0.00378566 1.36577e-09
0.00378566 0.0292675 8.82028e-08
1.36577e-09 8.82028e-08 0.0301462

0.0268154 -0.00054382 -1.40561e-07
-0.00054382 0.0349511 -3.5727e-08
-1.40561e-07 -3.5727e-08 0.0301372

0.0269893 0.00256317 1.72224e-07
0.00256317 0.0324478 -1.83865e-07
1.72224e-07 -1.83865e-07 0.0282857

0.0305256 0.00399098 -1.30228e-08
0.00399098 0.0293226 8.67504e-08
-1.30228e-08 8.67504e-08 0.0287744

0.0276079 -0.00293696 -9.33128e-08
-0.00293696 0.0318531 -1.85328e-07
-9.33128e-08 -1.85328e-07 0.0282483

0.0294553 -0.00357576 1.29528e-08
-0.00357576 0.0303499 -2.54233e-08
1.29528e-08 -2.54233e-08 0.0283042

0.0181373 0.0014255 -4.95294e-08
0.0014255 0.0280357 -6.74498e-08
-4.95294e-08 -6.74498e-08 0.0131272

0.0234731 -0.00429374 2.60677e-08
-0.00429374 0.0275555 -7.52929e-08
2.60677e-08 -7.52929e-08 0.0177229

0.0262048 -0.00152607 -8.11194e-08
-0.00152607 0.0336231 9.77465e-08
-8.11194e-08 9.77465e-08 0.0287511

0.0330225 0.00347462 1.49312e-07
0.00347462 0.0288768 -6.85466e-08
1.49312e-07 -6.85466e-08 0.0300681

0.030321 0.0038574 -1.91865e-08
0.0038574 0.0298859 9.37311e-08
-1.91865e-08 9.37311e-08 0.0289895

0.0274135 -0.00280064 5.29022e-08
-0.00280064 0.0319827 -1.20173e-07
5.29022e-08 -1.20173e-07 0.0281382

0.0265539 -0.00154066 3.27089e-08
-0.00154066 0.0335812 -4.23813e-08
3.27089e-08 -4.23813e-08 0.0287454

0.0309556 0.00371824 2.42826e-08
0.00371824 0.0295624 -1.02912e-07
2.42826e-08 -1.02912e-07 0.0289403

0.0267585 -0.00181609 1.61743e-07
-0.00181609 0.0334735 1.49757e-07
1.61743e-07 1.49757e-07 0.0289535

0.0191655 0.00355434 8.58821e-08
0.00355434 0.027607 1.59777e-07
8.58821e-08 1.59777e-07 0.0162917

0.0308727 -0.000534655 -1.75894e-08
-0.000534655 0.0388185 7.83195e-08
-1.75894e-08 7.83195e-08 0.0342936

0.0286555 0.00404777 -1.86291e-07
0.00404777 0.0295175 -7.9259e-08
-1.86291e-07 -7.9259e-08 0.0277137

0.0355791 0.00197495 -6.9193e-08
0.00197495 0.029502 -9.90999e-08
-6.9193e-08 -9.90999e-08 0.0328418

0.0362583 -0.00211473 -8.61357e-08
-0.00211473 0.0297543 -7.68115e-08
-8.61357e-08 -7.68115e-08 0.033217

0.0285099 -0.00309564 3.86562e-08
-0.00309564 0.0185685 -2.21386e-07
3.86562e-08 -2.21386e-07 0.0157294

0.0283527 -0.00278997 -1.91246e-07
-0.00278997 0.0327745 -4.24296e-08
-1.91246e-07 -4.24296e-08 0.0305708

0.0291902 0.00350058 1.48422e-07
0.00350058 0.0315988 -5.54092e-08
1.48422e-07 -5.54092e-08 0.0304865

0.0349586 -0.00290771 -9.27906e-08
-0.00290771 0.0376754 -2.53177e-07
-9.27906e-08 -2.53177e-07 0.0352353

0.0394598 0.00188546 -1.11091e-07
0.00188546 0.0446087 -2.32496e-07
-1.11091e-07 -2.32496e-07 0.0364322

0.0449431 0.0012906 -1.09372e-07
0.0012906 0.0391156 5.4478e-08
-1.09372e-07 5.4478e-08 0.0364141

0.0355591 0.00434539 -2.72074e-08
0.00434539 0.0351344 3.9345e-08
-2.72074e-08 3.9345e-08 0.0350026

0.026571 0.00338785 7.4026e-08
0.00338785 0.0310052 7.44621e-08
7.4026e-08 7.44621e-08 0.027255

0.033038 0.003497 1.08813e-07
0.003497 0.0286662 3.3272e-08
1.08813e-07 3.3272e-08 0.0300492

0.0220592 0.00576394 -1.24531e-07
0.00576394 0.0242369 4.70111e-08
-1.24531e-07 4.70111e-08 0.0160719

0.0386178 -0.00151216 -7.54145e-08
-0.00151216 0.0444319 -2.25958e-08
-7.54145e-08 -2.25958e-08 0.0363613

0.046048 -0.00046385 -6.53878e-07
-0.00046385 0.0454387 -2.03576e-08
-6.53878e-07 -2.03576e-08 0.0366903

0.0451791 -3.17615e-05 -4.53379e-08
-3.17615e-05 0.0463016 -3.66744e-07
-4.53379e-08 -3.66744e-07 0.0366722

0.0176405 -0.00679462 -6.68497e-08
-0.00679462 0.0231076 -2.7257e-07
-6.68497e-08 -2.7257e-07 0.0107382

0.0392911 -0.00155602 1.65082e-07
-0.00155602 0.038714 2.81071e-08
1.65082e-07 2.81071e-08 0.0358528

0.0383962 0.00117679 5.82234e-08
0.00117679 0.0415165 3.5489e-07
5.82234e-08 3.5489e-07 0.0361242

0.0331742 -0.00343556 -5.19e-08
-0.00343556 0.0282188 7.70091e-08
-5.19e-08 7.70091e-08 0.0299026

0.0318438 0.000140295 1.17519e-07
0.000140295 0.0386713 6.45997e-08
1.17519e-07 6.45997e-08 0.0344496

0.028576 -0.00266041 1.96932e-08
-0.00266041 0.0333791 -2.26403e-09
1.96932e-08 -2.26403e-09 0.0315883

0.0356614 0.000831777 1.85612e-07
0.000831777 0.0273768 -4.67476e-08
1.85612e-07 -4.67476e-08 0.0329992

0.0288751 0.00204425 -7.67705e-09
0.00204425 0.0368157 1.32446e-07
-7.67705e-09 1.32446e-07 0.0336687

0.0298687 0.000946466 -3.39127e-08
0.000946466 0.037388 1.16514e-07
-3.39127e-08 1.16514e-07 0.0333627

0.0344006 0.00268499 5.26473e-08
0.00268499 0.0288507 4.04709e-08
5.26473e-08 4.04709e-08 0.0312255

0.0132789 -0.000409387 -5.02271e-08
-0.000409387 0.0281221 2.11195e-08
-5.02271e-08 2.11195e-08 0.011201

0.0309637 -0.003626 1.13192e-07
-0.003626 0.0309143 -1.317e-08
1.13192e-07 -1.317e-08 0.0306086

0.0329275 -0.00344337 -1.02683e-07
-0.00344337 0.03202 1.94311e-08
-1.02683e-07 1.94311e-08 0.0325785

0.0335705 -0.00415912 3.12421e-08
-0.00415912 0.0325335 1.20509e-07
3.12421e-08 1.20509e-07 0.0337349

0.0265614 0.00414853 1.41901e-07
0.00414853 0.0176911 3.88587e-08
1.41901e-07 3.88587e-08 0.0126048

0.0388279 -0.0026963 -1.90196e-08
-0.0026963 0.0395756 3.32351e-07
-1.90196e-08 3.32351e-07 0.0359576

0.0230823 0.00692056 -2.76495e-07
0.00692056 0.0255015 -1.56589e-07
-2.76495e-07 -1.56589e-07 0.0126092

0.0308742 -0.0028174 2.27304e-07
-0.0028174 0.0348067 2.88499e-12
2.27304e-07 2.88499e-12 0.0339554

0.0354107 0.00193634 1.18127e-07
0.00193634 0.0284649 8.63121e-08
1.18127e-07 8.63121e-08 0.0323438

0.0318204 -0.00189318 -8.59012e-10
-0.00189318 0.0249501 8.7759e-08
-8.59012e-10 8.7759e-08 0.0253947

0.0292915 0.00315885 1.44678e-07
0.00315885 0.0327309 -4.41716e-08
1.44678e-07 -4.41716e-08 0.0312788

0.034436 0.00268863 -3.29005e-08
0.00268863 0.0286338 2.43521e-07
-3.29005e-08 2.43521e-07 0.0312201

0.0325181 0.00149887 -3.51027e-08
0.00149887 0.0403731 -1.03534e-07
-3.51027e-08 -1.03534e-07 0.0353357

0.0319396 -0.00415462 -3.73602e-08
-0.00415462 0.0312005 6.62982e-08
-3.73602e-08 6.62982e-08 0.0318098

0.0396756 0.0026555 3.04532e-09
0.0026555 0.0331976 6.70736e-08
3.04532e-09 6.70736e-08 0.0353152

0.0279706 -0.00241876 1.7095e-08
-0.00241876 0.03355 4.799e-10
1.7095e-08 4.799e-10 0.0304697

0.0293501 0.000558558 -5.43131e-08
0.000558558 0.0373117 1.14341e-07
-5.43131e-08 1.14341e-07 0.0332518

0.0419426 0.00133736 -7.07776e-08
0.00133736 0.0370997 -7.0131e-08
-7.07776e-08 -7.0131e-08 0.0361155

0.0420973 -0.00114776 2.47302e-09
-0.00114776 0.0373259 -3.10331e-08
2.47302e-09 -3.10331e-08 0.0360975

0.0283826 0.002369 -1.44145e-07
0.002369 0.0181812 8.16986e-08
-1.44145e-07 8.16986e-08 0.0159494

0.0350256 0.00106115 1.10369e-07
0.00106115 0.0285653 8.68139e-08
1.10369e-07 8.68139e-08 0.0330582

0.0128667 0.000923333 -4.2809e-08
0.000923333 0.031626 -3.33747e-08
-4.2809e-08 -3.33747e-08 0.00612158

0.0131623 -0.00138812 1.41769e-07
-0.00138812 0.0321318 -6.76003e-09
1.41769e-07 -6.76003e-09 0.0061119

0.0152685 0.00715413 -1.33781e-07
0.00715413 0.0284526 -1.12402e-08
-1.33781e-07 -1.12402e-08 0.00598402

0.0347637 -0.00382123 5.31873e-08
-0.00382123 0.0312673 -1.61146e-07
5.31873e-08 -1.61146e-07 0.0329384

0.0155805 -0.0061942 -1.11507e-07
-0.0061942 0.0261525 8.78245e-08
-1.11507e-07 8.78245e-08 0.0104718

0.0155127 -0.0070867 -1.76756e-07
-0.0070867 0.0274232 -1.28712e-07
-1.76756e-07 -1.28712e-07 0.00591383

0.0284253 0.00342579 -1.68412e-08
0.00342579 0.0310055 7.41788e-08
-1.68412e-08 7.41788e-08 0.028152

0.0251931 0.00932573 2.34362e-07
0.00932573 0.0190205 -1.90343e-07
2.34362e-07 -1.90343e-07 0.00593373

0.0365374 0.00173183 1.08882e-07
0.00173183 0.0385514 2.09474e-09
1.08882e-07 2.09474e-09 0.0354744

0.0395347 2.52348e-05 1.36315e-07
2.52348e-05 0.0355391 8.45471e-09
1.36315e-07 8.45471e-09 0.0354551

0.0261068 -0.00924429 2.81994e-07
-0.00924429 0.0188123 2.11598e-07
2.81994e-07 2.11598e-07 0.0058879

0.0276891 -0.00306527 5.05587e-10
-0.00306527 0.0320945 -3.22417e-08
5.05587e-10 -3.22417e-08 0.0296221

0.0262547 0.00441804 2.00507e-07
0.00441804 0.0201576 -1.86378e-07
2.00507e-07 -1.86378e-07 0.0130443

0.017279 0.00797293 1.58696e-07
0.00797293 0.0271486 1.39526e-07
1.58696e-07 1.39526e-07 0.0059877

0.0181959 0.00275511 -5.25283e-08
0.00275511 0.0275893 -6.69278e-08
-5.25283e-08 -6.69278e-08 0.0128498

0.0173039 -0.00827614 -8.47e-08
-0.00827614 0.027152 3.09934e-08
-8.47e-08 3.09934e-08 0.00581366

0.0179326 -0.00157096 1.69848e-07
-0.00157096 0.0280049 -9.89132e-08
1.69848e-07 -9.89132e-08 0.0126903

0.0370498 0.000923377 -8.13543e-08
0.000923377 0.0412996 -9.4455e-09
-8.13543e-08 -9.4455e-09 0.0358093

0.0221307 -0.00585507 2.81952e-07
-0.00585507 0.0236642 -1.20177e-07
2.81952e-07 -1.20177e-07 0.0151585

0.0156999 0.00598605 3.46893e-09
0.00598605 0.025902 -1.95011e-07
3.46893e-09 -1.95011e-07 0.0107499

0.0302082 0.00473002 2.68593e-08
0.00473002 0.0143491 2.76025e-07
2.68593e-08 2.76025e-07 0.00611572

0.0329378 -0.00384938 -2.35621e-07
-0.00384938 0.0301232 9.73911e-09
-2.35621e-07 9.73911e-09 0.0310505

0.0308881 0.00169381 -4.25609e-08
0.00169381 0.0368422 1.33986e-07
-4.25609e-08 1.33986e-07 0.0339495

0.0260894 -0.00484374 2.38313e-08
-0.00484374 0.0191968 3.14366e-07
2.38313e-08 3.14366e-07 0.0126947

0.0330001 -0.00378578 -2.30208e-07
-0.00378578 0.0300743 2.26148e-08
-2.30208e-07 2.26148e-08 0.0311269

0.0300184 -0.00451979 8.22007e-08
-0.00451979 0.0130533 -3.71862e-07
8.22007e-08 -3.71862e-07 0.00603717

0.0324726 -0.00372748 -1.65715e-07
-0.00372748 0.0313068 -1.21967e-07
-1.65715e-07 -1.21967e-07 0.0319787

0.0280903 -0.00331105 -1.94529e-07
-0.00331105 0.0320032 -5.27159e-08
-1.94529e-07 -5.27159e-08 0.0296247

0.0234431 0.00874352 4.99302e-09
0.00874352 0.0204825 2.81311e-07
4.99302e-09 2.81311e-07 0.00602603

0.0181995 -0.00292067 -2.63739e-07
-0.00292067 0.0268659 -2.74737e-07
-2.63739e-07 -2.74737e-07 0.0122697

0.0233143 -0.00901911 1.66263e-07
-0.00901911 0.0201517 2.72592e-07
1.66263e-07 2.72592e-07 0.00588385

0.0170821 0.00640811 -4.094e-09
0.00640811 0.0235657 1.55645e-07
-4.094e-09 1.55645e-07 0.0108308

0.0308253 -0.00396021 1.10572e-07
-0.00396021 0.0301594 -2.09227e-08
1.10572e-07 -2.09227e-08 0.0300848

0.0389176 -0.00195883 1.11218e-07
-0.00195883 0.03694 -1.75339e-07
1.11218e-07 -1.75339e-07 0.0354988

0.045541 0.00150611 -2.21603e-07
0.00150611 0.0449514 -4.14293e-07
-2.21603e-07 -4.14293e-07 0.0366184

0.0435642 -0.000711784 3.09975e-07
-0.000711784 0.0462317 -5.54191e-08
3.09975e-07 -5.54191e-08 0.0365841

0.0286149 0.00171594 1.1829e-07
0.00171594 0.0355653 -2.12671e-07
1.1829e-07 -2.12671e-07 0.0323889

0.0453362 -0.00144722 2.71747e-07
-0.00144722 0.0449791 2.48982e-07
2.71747e-07 2.48982e-07 0.0366362

0.0438073 0.000568377 9.53886e-08
0.000568377 0.0465063 1.8844e-07
9.53886e-08 1.8844e-07 0.0366173

0.04668 0.000991547 -4.76918e-08
0.000991547 0.0433765 -5.04092e-08
-4.76918e-08 -5.04092e-08 0.0365923

0.03975 -0.00163932 1.56238e-07
-0.00163932 0.0460747 5.51719e-08
1.56238e-07 5.51719e-08 0.0364822

0.0190536 -0.00388718 -4.25423e-07
-0.00388718 0.0272302 5.50732e-08
-4.25423e-07 5.50732e-08 0.0154708

0.0421403 -0.00175032 -5.54914e-08
-0.00175032 0.0367247 -1.41779e-07
-5.54914e-08 -1.41779e-07 0.0360041

0.0359631 -0.00457331 -1.72531e-07
-0.00457331 0.0351499 6.21264e-08
-1.72531e-07 6.21264e-08 0.0349674

0.0397526 -0.00242164 2.08621e-07
-0.00242164 0.0360632 1.69877e-07
2.08621e-07 1.69877e-07 0.0355665

0.0351837 0.00204316 -1.0243e-08
0.00204316 0.0285484 2.452e-07
-1.0243e-08 2.452e-07 0.0322311

0.0396921 0.0013379 2.56291e-07
0.0013379 0.0472264 2.68941e-07
2.56291e-07 2.68941e-07 0.036548

0.0464955 0.00259367 -1.08732e-07
0.00259367 0.0404181 -3.08875e-07
-1.08732e-07 -3.08875e-07 0.0365292

0.0400867 0.00150538 -2.35791e-08
0.00150538 0.0366733 3.79253e-08
-2.35791e-08 3.79253e-08 0.0356146

0.027914 -0.00191987 -2.45465e-07
-0.00191987 0.0125244 -3.38676e-07
-2.45465e-07 -3.38676e-07 0.0106243

0.0283181 0.00326774 -6.80759e-08
0.00326774 0.0315493 -1.39175e-07
-6.80759e-08 -1.39175e-07 0.02941

0.0231876 -0.00773573 9.88677e-08
-0.00773573 0.0181795 3.28268e-07
9.88677e-08 3.28268e-07 0.0102892

0.0228302 -0.00731559 3.68399e-08
-0.00731559 0.0257681 1.06176e-07
3.68399e-08 1.06176e-07 0.0119543

0.0290219 -0.00464691 -3.12214e-07
-0.00464691 0.0191279 -1.55468e-07
-3.12214e-07 -1.55468e-07 0.0126148

0.0375738 -0.000660683 -1.17106e-07
-0.000660683 0.0449116 3.03711e-07
-1.17106e-07 3.03711e-07 0.0362931

0.0375715 0.000358443 -1.90436e-07
0.000358443 0.0447889 -4.09099e-07
-1.90436e-07 -4.09099e-07 0.0362733

0.0426052 -0.00327475 2.60829e-07
-0.00327475 0.03945 -1.99562e-07
2.60829e-07 -1.99562e-07 0.0362272

0.0429982 -0.00294492 7.15803e-08
-0.00294492 0.0391683 7.56587e-08
7.15803e-08 7.56587e-08 0.0362341

0.0425017 0.00350446 6.32198e-08
0.00350446 0.0399723 2.68026e-07
6.32198e-08 2.68026e-07 0.036272

0.0443965 0.00041593 -6.99805e-07
0.00041593 0.0450803 -1.22949e-06
-6.99805e-07 -1.22949e-06 0.0366354

0.0426086 -0.00274487 3.75793e-08
-0.00274487 0.0395071 6.97229e-09
3.75793e-08 6.97229e-09 0.0362888

0.0426027 -0.00251107 -9.24307e-08
-0.00251107 0.0442679 6.64406e-07
-9.24307e-08 6.64406e-07 0.036563

0.0451167 0.000331017 5.35635e-08
0.000331017 0.0454679 4.00547e-07
5.35635e-08 4.00547e-07 0.0366537

0.0436365 -0.00278321 -1.95464e-07
-0.00278321 0.0389162 -1.18903e-07
-1.95464e-07 -1.18903e-07 0.0363294

0.0435121 0.00283879 -1.30828e-07
0.00283879 0.039069 -3.24292e-08
-1.30828e-07 -3.24292e-08 0.0363674

0.0451927 -0.000470456 -1.87588e-07
-0.000470456 0.0455826 7.70068e-08
-1.87588e-07 7.70068e-08 0.0367023

0.045227 -0.000426384 -2.50885e-07
-0.000426384 0.0443626 5.32824e-07
-2.50885e-07 5.32824e-07 0.0367206

0.042798 0.00163935 1.71962e-07
0.00163935 0.0442484 -1.74531e-07
1.71962e-07 -1.74531e-07 0.0366067

0.0411164 0.00361853 6.75627e-08
0.00361853 0.0405161 1.61908e-07
6.75627e-08 1.61908e-07 0.0363213

SCALARS pressure float
LOOKUP_TABLE default
-60.0506
19.3082
5.80328
21.2901
15.8788
5.88724
-58.6738
7.78303
-3.80498
15.1245
-24.4316
7.61718
5.59199
12.2791
23.3377
5.53887
18.5208
13.2071
-0.69299
6.75643
-0.904944
33.1349
5.80065
5.79672
6.60171
14.9027
-38.3848
6.67156
-15.2423
30.6264
5.17622
-15.6571
-42.0559
27.3262
20.7792
27.3591
31.8846
19.8091
4.85951
-42.5991
-17.4073
31.9055
31.9936
5.99346
-21.8048
-15.9758
-1.05257
-3.40559
6.54467
-16.2177
-18.9187
-15.3459
20.7556
-15.3731
20.3088
-33.1484
21.1296
-15.4602
21.1395
7.04477
21.7647
16.1188
-45.5617
12.7897
16.3621
10.905
21.5739
13.828
5.77335
21.817
20.8117
20.7823
-17.6909
11.6005
3.97384
-31.6093
14.3567
10.9961
14.146
-8.72009
-28.9446
14.9777
20.163
-22.0378
-23.4293
-28.0918
7.09764
9.63231
-22.2156
37.7416
-15.509
38.4442
18.3045
10.7614
-15.1665
-15.8727
-30.2211
14.7533
14.3657
4.5986
-10.7663
-21.9394
-25.1014
16.2128
14.1001
14.9615
18.6975
3.77462
-24.5582
26.5131
7.2174
-21.4088
-24.6118
14.8378
15.0779
-16.1456
20.165
-29.113
20.6286
-16.7293
-2.90486
23.8339
21.727
16.0329
26.6797
22.6316
21.7856
15.7084
-29.7807
-16.0989
24.0917
21.6173
20.9893
22.0656
-22.0138
23.5872
-33.8371
5.46327
21.7543
23.6306
-21.9367
6.67633
-5.96684
15.0834
-30.4073
15.6238
7.83307
2.40744
5.17763
-9.39458
-0.458156
22.6415
-15.4545
5.29089
15.204
21.5604
11.5081
-21.1132
-21.2637
10.7903
-2.8429
-15.1976
-21.2203
-15.1652
-20.9864
15.2796
-20.6358
-21.2015
-15.2078
-21.0637
19.0043
-15.941
-14.8244
12.0643
-14.4847
18.8028
19.0534
7.4726
18.0479
11.7729
-16.249
15.2881
14.9608
-21.5284
10.4264
-14.2213
16.0485
14.5955
17.0818
14.835
10.3437
-26.9761
-16.0822
-15.9581
21.9069
14.5256
14.6245
20.9226
22.4869
9.50256
21.7337
-0.384898
-8.17098
20.7787
-17.8387
19.9456
10.3641
-21.5175
15.7211
22.5261
14.7312
9.39334
14.1897
21.0556
-7.83303
8.82743
-7.90883
14.6482
26.9277
26.5814
27.9605
26.3886
26.7243
26.291
13.8257
23.4303
24.0295
23.9737
23.4
21.1927
21.8573
-8.26309
15.9334
28.1911
-3.18896
23.5761
23.2054
27.8344
-8.49379
28.0965
15.3445
-7.58186
17.4921
-8.25806
20.2272
29.6128
-7.48625
-8.10101
-29.5918
-18.189
19.5272
-31.9852
5.73407
-7.79421
-1.18982
28.2492
26.6403
30.4268
26.761
-34.8007
-8.1799
28.3374
8.0726
-8.29541
26.446
-6.29557
30.4717
-7.95434
27.0472
14.5659
14.787
23.8452
10.0473
18.021
8.11679
-29.8597
-24.5529
16.8068
1.75932
8.17925
-13.6089
17.4357
11.6997
-8.10176
9.45195
-10.8236
7.51665
-10.7548
-8.48498
33.2648
19.1517
25.0884
25.3127
13.829
-10.4047
26.43
14.6849
-1.65939
-10.2741
-12.5644
17.5066
-7.4855
17.5745
-12.0414
-21.3503
-10.6084
-34.681
15.5623
-7.76324
34.4428
-11.5781
16.8713
-8.40902
15.9726
-12.7584
4.28877
-51.1178
8.52132
-7.74691
21.3338
-8.15242
-0.123293
10.7152
21.1241
-12.0608
-10.2009
-6.06864
14.3178
-10.1802
6.88759
6.38528
16.3054
-10.4197
-6.33075
-1.70275
-5.66084
-11.0786
-5.84506
15.3054
7.80761
-5.55643
-8.96072
7.80504
7.6939
-10.6748
16.3093
-27.2132
2.29258
-28.4811
-0.95801
-8.87812
-8.09641
-11.779
-10.9427
-9.881
-7.77601
-7.89937
16.6377
24.778
12.1157
-0.29214
-0.825693
-5.67501
7.30476
-6.3211
-6.31839
24.9238
-5.73043
14.1179
-15.9084
24.3253
5.96764
-0.391696
-5.64429
16.2749
2.47658
0.19852
2.44756
0.455389
-0.741386
-9.93054
-0.0961358
2.11274
15.0689
-1.28882
-1.4077
-0.999359
-0.389116
1.96477
8.05024
-1.1941
8.07769
5.5827
-0.436178
7.03479
5.48974
-3.87697
16.4765
-1.90391
23.0622
-21.9732
15.044
15.6822
2.03912
-1.99799
12.5426
-26.5058
5.79173
-1.65844
-50.4822
30.4987
30.6354
5.82436
-1.1449
-1.04733
-0.850233
33.4195
33.2942
13.0945
6.08144
6.66191
-28.9619
-1.27997
16.5333
-3.1832
-4.3486
-0.0174848
-25.2705
14.303
-1.28074
2.86126
2.69266
-2.72377
-0.0498646
-3.21
-4.03405
-37.9818
-33.683
-0.128571
1.87395
-0.534621
-3.74469
-1.93711
-1.87823
-0.924844
-21.9072
17.2495
-0.769871
12.5648
14.1834
-26.7637
6.28577
7.13632
18.4778
36.4286
36.461
22.6387
-1.75635
2.5991
-20.9293
36.1272
32.7608
32.8278
-24.8079
21.7757
30.524
2.59859
15.7239
10.3708
17.1642
17.726
12.5053
5.68089
-25.3973
4.25956
10.409
16.2438
-31.7092
28.3102
-52.7092
18.6848
10.2986
-10.6277
7.41688
5.45659
24.4746
9.41062
24.4076
4.10465
12.3996
30.6412
29.4669
-22.9898
17.4353
-70.2282
-74.3746
-67.1722
11.648
-31.259
-63.6057
-3.80399
-69.9336
16.4632
16.4069
-73.7497
5.21158
-39.7288
-70.7342
-37.7548
-71.8705
-39.4502
21.1371
-23.9596
-29.043
-70.6181
4.83091
15.7574
-36.1887
6.053
-63.6134
9.8355
3.88111
-67.8967
-37.6223
-66.4062
-23.7546
5.02852
20.5264
35.3728
36.7285
11.8116
36.8524
36.9057
36.494
36.406
-24.4783
28.2488
20.6691
21.9809
11.5341
36.0619
36.0934
18.1203
-23.9393
3.246
-30.5253
-56.5953
-50.4725
36.145
35.8257
35.3823
35.4525
36.161
35.6007
33.1114
37.3727
35.4021
36.0078
35.64
34.1985
34.3351
35.8582
35.3111
