# vtk DataFile Version 3.0
vtk output at time 100
ASCII
DATASET UNSTRUCTURED_GRID
POINTS 626 float
-3.68058e-05 0.000978749 0 3.68058e-05 0.000978749 0 -0.000829194 0.00052125 0 
-0.0008235 0.0005 0 -0.000866 0.0004575 0 -0.000866 -0.0004575 0 
-0.0008235 -0.0005 0 -0.000829194 -0.00052125 0 -3.68058e-05 -0.000978749 0 
3.68058e-05 -0.000978749 0 0.000829194 -0.00052125 0 0.000866 -0.0004575 0 
0.000866 0.0004575 0 0.000829194 0.00052125 0 8.5e-05 0 0 
-3.68058e-05 0.000978749 -0.001 3.68058e-05 0.000978749 -0.001 -0.000829194 0.00052125 -0.001 
-0.0008235 0.0005 -0.001 -0.000866 0.0004575 -0.001 -0.000866 -0.0004575 -0.001 
-0.0008235 -0.0005 -0.001 -0.000829194 -0.00052125 -0.001 -3.68058e-05 -0.000978749 -0.001 
3.68058e-05 -0.000978749 -0.001 0.000829194 -0.00052125 -0.001 0.000866 -0.0004575 -0.001 
0.000866 0.0004575 -0.001 0.000829194 0.00052125 -0.001 8.5e-05 0 -0.001 
8.46223e-17 0.0009575 0 -0.000715996 0.000586607 0 -0.000602797 0.000651965 0 
-0.000489599 0.000717321 0 -0.000376401 0.000782678 0 -0.000263202 0.000848036 0 
-0.000150004 0.000913393 0 -0.000835948 0.000469948 0 -0.000866 -0.000326786 0 
-0.000866 -0.000196071 0 -0.000866 -6.53571e-05 0 -0.000866 6.53571e-05 0 
-0.000866 0.000196071 0 -0.000866 0.000326786 0 -0.000835948 -0.000469948 0 
-0.000150004 -0.000913393 0 -0.000263202 -0.000848036 0 -0.000376401 -0.000782678 0 
-0.000489599 -0.000717321 0 -0.000602797 -0.000651965 0 -0.000715996 -0.000586607 0 
8.47648e-17 -0.0009575 0 0.000715996 -0.000586607 0 0.000602797 -0.000651965 0 
0.000489599 -0.000717321 0 0.000376401 -0.000782678 0 0.000263202 -0.000848036 0 
0.000150004 -0.000913393 0 0.000829194 -0.00047875 0 0.000866 0.000326786 0 
0.000866 0.000196071 0 0.000866 6.53571e-05 0 0.000866 -6.53571e-05 0 
0.000866 -0.000196071 0 0.000866 -0.000326786 0 0.000829194 0.00047875 0 
0.000150004 0.000913393 0 0.000263202 0.000848036 0 0.000376401 0.000782678 0 
0.000489599 0.000717321 0 0.000602797 0.000651965 0 0.000715996 0.000586607 0 
5.29966e-05 6.64557e-05 0 -1.89143e-05 8.28689e-05 0 -7.65824e-05 3.68801e-05 0 
-7.65824e-05 -3.68801e-05 0 -1.89143e-05 -8.28689e-05 0 5.29966e-05 -6.64557e-05 0 
8.46223e-17 0.0009575 -0.001 -0.000715996 0.000586607 -0.001 -0.000602797 0.000651965 -0.001 
-0.000489599 0.000717321 -0.001 -0.000376401 0.000782678 -0.001 -0.000263202 0.000848036 -0.001 
-0.000150004 0.000913393 -0.001 -0.000835948 0.000469948 -0.001 -0.000866 -0.000326786 -0.001 
-0.000866 -0.000196071 -0.001 -0.000866 -6.53571e-05 -0.001 -0.000866 6.53571e-05 -0.001 
-0.000866 0.000196071 -0.001 -0.000866 0.000326786 -0.001 -0.000835948 -0.000469948 -0.001 
-0.000150004 -0.000913393 -0.001 -0.000263202 -0.000848036 -0.001 -0.000376401 -0.000782678 -0.001 
-0.000489599 -0.000717321 -0.001 -0.000602797 -0.000651965 -0.001 -0.000715996 -0.000586607 -0.001 
8.47648e-17 -0.0009575 -0.001 0.000715996 -0.000586607 -0.001 0.000602797 -0.000651965 -0.001 
0.000489599 -0.000717321 -0.001 0.000376401 -0.000782678 -0.001 0.000263202 -0.000848036 -0.001 
0.000150004 -0.000913393 -0.001 0.000829194 -0.00047875 -0.001 0.000866 0.000326786 -0.001 
0.000866 0.000196071 -0.001 0.000866 6.53571e-05 -0.001 0.000866 -6.53571e-05 -0.001 
0.000866 -0.000196071 -0.001 0.000866 -0.000326786 -0.001 0.000829194 0.00047875 -0.001 
0.000150004 0.000913393 -0.001 0.000263202 0.000848036 -0.001 0.000376401 0.000782678 -0.001 
0.000489599 0.000717321 -0.001 0.000602797 0.000651965 -0.001 0.000715996 0.000586607 -0.001 
5.29966e-05 6.64557e-05 -0.001 -1.89143e-05 8.28689e-05 -0.001 -7.65824e-05 3.68801e-05 -0.001 
-7.65824e-05 -3.68801e-05 -0.001 -1.89143e-05 -8.28689e-05 -0.001 5.29966e-05 -6.64557e-05 -0.001 
0.000131234 6.38474e-05 0 0.00012964 -6.2443e-05 0 3.13827e-05 0.0001394 0 
3.12554e-05 -0.000136939 0 -0.000140461 8.25467e-19 0 -8.90565e-05 -0.000102707 0 
-9.04142e-05 0.000102872 0 -0.000765769 -0.00025965 0 -0.000756873 0.000262774 0 
-0.00015609 0.000787505 0 -0.000155807 -0.00079355 0 0.000605069 0.000528035 0 
0.000608694 -0.00052497 0 0.000744069 0.000116929 0 -0.000494418 0.000596218 0 
-0.000483866 -0.000584648 0 0.000269496 0.000702219 0 0.000263201 -0.000717324 0 
0.000754429 -0.000127825 0 -0.000748858 5.84659e-07 0 -0.000747838 0.000373886 0 
-0.0006542 0.000324842 0 -0.000645137 0.000210123 0 -0.000550884 0.000274171 0 
-0.000538857 0.000163195 0 -0.00045062 0.000224461 0 -0.000438393 0.000123907 0 
-0.000354088 0.000181668 0 -0.000363908 0.000282171 0 -0.000270361 0.000239477 0 
-0.000279138 0.000337653 0 -0.000188888 0.000294791 0 -0.000196448 0.000393271 0 
-0.000104767 0.000348259 0 -0.000113332 0.000449012 0 -2.01066e-05 0.000403223 0 
-2.89189e-05 0.000507105 0 6.9524e-05 0.000461596 0 -0.000213644 0.000490203 0 
7.33757e-05 0.000357726 0 0.000163331 0.00041299 0 0.000163359 0.000313022 0 
0.000248077 0.000366368 0 0.000250914 0.000265758 0 0.000335709 0.000322266 0 
0.000340555 0.000218148 0 0.000427299 0.000276717 0 0.000431508 0.000173093 0 
0.000328731 0.000425633 0 0.00034586 0.000114823 0 0.000435362 7.05241e-05 0 
0.000350892 1.5455e-05 0 0.000441547 -3.11896e-05 0 0.000353547 -8.47783e-05 0 
0.000445767 -0.000132964 0 0.000356135 -0.000186358 0 0.000449094 -0.000234674 0 
0.000359978 -0.000287876 0 0.00026856 -0.000240545 0 0.000271895 -0.000341045 0 
0.000181792 -0.00029305 0 0.00018533 -0.000392851 0 9.75701e-05 -0.00034483 0 
9.98764e-05 -0.000444884 0 8.75116e-06 -0.000396343 0 1.20916e-05 -0.000500496 0 
-7.83929e-05 -0.000449843 0 -8.1471e-05 -0.000347249 0 -0.000171566 -0.000403733 0 
-0.000169889 -0.000298891 0 -0.000259867 -0.000354132 0 -0.000257696 -0.000249137 0 
-0.00034313 -0.000299896 0 -0.000344514 -0.000199127 0 -0.000434309 -0.000250039 0 
-0.000169832 -0.000505815 0 -0.000435227 -0.000146227 0 0.000280331 -0.000442424 0 
-0.000340889 8.76793e-05 0 -0.000515252 4.06198e-05 0 6.50491e-05 0.000568253 0 
0.00053278 1.74743e-05 0 0.000522071 0.000229831 0 -0.00037162 0.000391659 0 
-0.000255272 -0.000150439 0 -0.000442893 -0.000350705 0 0.000450067 -0.000332559 0 
0.000545175 -0.000276306 0 -0.000527797 -0.000197598 0 0.000105306 -0.000551033 0 
1.45836e-05 -0.000609147 0 0.00017145 0.000214453 0 0.000515525 0.000341711 0 
0.000636086 0.000290368 0 -0.000558657 0.000404468 0 -4.01232e-05 0.000616718 0 
6.60192e-05 0.000696422 0 -0.000101806 0.0002546 0 0.000271142 -3.88908e-05 0 
0.000179455 -0.00018534 0 -8.79553e-05 -0.000254307 0 -0.000749267 -0.000373451 0 
-0.000655941 -0.000323397 0 0.000709746 0.000466718 0 0.000698426 -0.000473086 0 
-5.25801e-05 -0.00084886 0 -4.93005e-05 0.000848038 0 0.000617396 -0.000413362 0 
0.000702056 -0.000369817 0 0.000131459 -0.000679171 0 2.48171e-05 -0.000715924 0 
-0.000664217 -0.00042729 0 -0.000528828 -8.80444e-05 0 -0.000611101 -0.000136672 0 
-0.000426972 -4.45841e-05 0 0.000800669 0.000378216 0 0.000821144 -0.000415062 0 
7.2799e-05 0.00088254 0 6.81831e-05 -0.00087503 0 0.000104963 -0.000788946 0 
-7.40696e-05 -0.000660054 0 0.000126061 0.000809943 0 0.000764361 0.000295682 0 
0.000166862 0.000630623 0 0.000516462 -0.00046707 0 -0.000563585 -0.000389606 0 
-0.000622598 -1.40238e-05 0 0.000629891 0.000171529 0 2.5614e-06 -0.000299794 0 
8.6901e-05 -0.00024329 0 0.000272045 -0.000136982 0 -0.00075148 0.000138321 0 
0.000209366 -0.000599589 0 0.000324913 -0.000630055 0 0.000614044 0.00041245 0 
0.00049651 -0.000573327 0 0.000394822 -0.000507321 0 -0.000173714 -0.000206698 0 
0.000264897 5.63722e-05 0 0.000247997 0.000152811 0 -4.63327e-05 -0.000920208 0 
9.18688e-05 0.000258626 0 -5.54111e-06 0.000290558 0 -0.000184219 0.000201484 0 
-0.000263559 0.000142267 0 -0.000256427 5.13624e-05 0 -0.000336894 -2.06179e-06 0 
-0.000228499 -4.2388e-05 0 -0.00017589 0.000106626 0 -0.000769947 -0.000133367 0 
0.000767591 -0.000500293 0 -5.05874e-05 0.000737978 0 0.000754456 -3.51771e-06 0 
0.00064691 -6.15298e-05 0 0.000630483 -0.00018134 0 0.000749187 -0.000265543 0 
-0.000760805 -0.000462521 0 0.000638155 6.09315e-05 0 -4.46661e-05 0.000922995 0 
-2.37945e-05 0.000207237 0 0.000776979 0.000500181 0 -0.000605691 0.000527596 0 
-0.000377914 -0.000653727 0 -0.000372325 -0.000526022 0 -0.000275829 -0.000589621 0 
-0.000254285 -0.000710579 0 -0.000379307 0.000656222 0 -0.000379818 0.00052718 0 
-0.000266817 0.000721555 0 -0.000150544 0.000668174 0 0.000381963 0.00065079 0 
0.000493113 0.000590432 0 0.000505439 0.000463708 0 -0.000269094 0.000596608 0 
0.000385815 0.000532045 0 0.000283599 0.0005899 0 -0.000176405 -0.000108505 0 
-0.000278769 -0.000475415 0 0.000185395 2.33014e-06 0 0.000186773 0.000517571 0 
0.000540032 -8.68444e-05 0 -0.000600694 -0.000514877 0 -0.00063703 8.98033e-05 0 
-0.000459677 0.000335729 0 -0.000338836 -0.000100751 0 -0.000457327 0.000432721 0 
-8.72007e-06 -0.000210238 0 0.000156073 0.000129496 0 -7.70692e-05 -0.000555049 0 
0.00036091 -0.000389728 0 0.000531628 0.000120564 0 -0.000285451 0.000435562 0 
0.000192719 -0.000494604 0 0.00041642 0.00039368 0 -0.000135943 0.000554637 0 
-0.000170665 -0.000610079 0 -0.000666304 0.000434981 0 -0.000758736 0.000479231 0 
-0.000470189 -0.000458901 0 0.000203433 -8.59809e-05 0 0.000101846 0.000170114 0 
-0.00035513 -0.00040726 0 0.000100184 -0.000165831 0 2.96286e-05 0.00081537 0 
0.000720946 0.000381836 0 -0.000539809 -0.000292001 0 0.00052211 -0.000182426 0 
-6.41339e-05 -0.000753908 0 0.000638039 -0.000299861 0 -0.000605136 -0.000230182 0 
-3.41638e-05 -0.000145561 0 -0.000104037 0.000172396 0 -0.000808575 -0.00042774 0 
-0.000807207 -0.000465052 0 -0.00080817 0.000429771 0 -0.000806589 0.000469738 0 
-9.50634e-05 -0.000178909 0 0.000247777 0.000445058 0 1.48293e-05 -0.000814201 0 
-4.11555e-05 0.000140955 0 0.000276104 -0.000536845 0 0.000765969 -0.000436638 0 
0.000780871 -0.000362769 0 0.000424176 -0.000642018 0 0.00053413 -0.000368009 0 
-0.000416333 4.17911e-05 0 -0.000133891 -6.23822e-05 0 4.2574e-05 0.000206312 0 
0.000141163 -0.000121542 0 0.000707423 0.000212137 0 0.000172327 0.000723882 0 
7.72652e-06 -0.00090254 0 -0.000134435 5.66935e-05 0 -0.000188826 3.70894e-05 0 
0.000197119 8.09714e-05 0 1.27801e-05 0.000917296 0 0.000800767 0.00044758 0 
-0.000686682 0.000507104 0 9.35831e-05 0.000110457 0 -0.000696793 -0.000509595 0 
-0.00068446 -8.52012e-05 0 -0.000691033 -0.000201242 0 5.24052e-05 -0.000189075 0 
-0.000151818 -0.000701092 0 -0.000296988 0.000518087 0 9.31023e-05 -0.000108117 0 
0.00044261 -0.000416726 0 0.000197044 -0.000784423 0 -0.000516861 0.000504567 0 
0.000298997 0.000502377 0 0.000131234 6.38474e-05 -0.001 0.00012964 -6.2443e-05 -0.001 
3.13827e-05 0.0001394 -0.001 3.12554e-05 -0.000136939 -0.001 -0.000140461 8.25467e-19 -0.001 
-8.90565e-05 -0.000102707 -0.001 -9.04142e-05 0.000102872 -0.001 -0.000765769 -0.00025965 -0.001 
-0.000756873 0.000262774 -0.001 -0.00015609 0.000787505 -0.001 -0.000155807 -0.00079355 -0.001 
0.000605069 0.000528035 -0.001 0.000608694 -0.00052497 -0.001 0.000744069 0.000116929 -0.001 
-0.000494418 0.000596218 -0.001 -0.000483866 -0.000584648 -0.001 0.000269496 0.000702219 -0.001 
0.000263201 -0.000717324 -0.001 0.000754429 -0.000127825 -0.001 -0.000748858 5.84659e-07 -0.001 
-0.000747838 0.000373886 -0.001 -0.0006542 0.000324842 -0.001 -0.000645137 0.000210123 -0.001 
-0.000550884 0.000274171 -0.001 -0.000538857 0.000163195 -0.001 -0.00045062 0.000224461 -0.001 
-0.000438393 0.000123907 -0.001 -0.000354088 0.000181668 -0.001 -0.000363908 0.000282171 -0.001 
-0.000270361 0.000239477 -0.001 -0.000279138 0.000337653 -0.001 -0.000188888 0.000294791 -0.001 
-0.000196448 0.000393271 -0.001 -0.000104767 0.000348259 -0.001 -0.000113332 0.000449012 -0.001 
-2.01066e-05 0.000403223 -0.001 -2.89189e-05 0.000507105 -0.001 6.9524e-05 0.000461596 -0.001 
-0.000213644 0.000490203 -0.001 7.33757e-05 0.000357726 -0.001 0.000163331 0.00041299 -0.001 
0.000163359 0.000313022 -0.001 0.000248077 0.000366368 -0.001 0.000250914 0.000265758 -0.001 
0.000335709 0.000322266 -0.001 0.000340555 0.000218148 -0.001 0.000427299 0.000276717 -0.001 
0.000431508 0.000173093 -0.001 0.000328731 0.000425633 -0.001 0.00034586 0.000114823 -0.001 
0.000435362 7.05241e-05 -0.001 0.000350892 1.5455e-05 -0.001 0.000441547 -3.11896e-05 -0.001 
0.000353547 -8.47783e-05 -0.001 0.000445767 -0.000132964 -0.001 0.000356135 -0.000186358 -0.001 
0.000449094 -0.000234674 -0.001 0.000359978 -0.000287876 -0.001 0.00026856 -0.000240545 -0.001 
0.000271895 -0.000341045 -0.001 0.000181792 -0.00029305 -0.001 0.00018533 -0.000392851 -0.001 
9.75701e-05 -0.00034483 -0.001 9.98764e-05 -0.000444884 -0.001 8.75116e-06 -0.000396343 -0.001 
1.20916e-05 -0.000500496 -0.001 -7.83929e-05 -0.000449843 -0.001 -8.1471e-05 -0.000347249 -0.001 
-0.000171566 -0.000403733 -0.001 -0.000169889 -0.000298891 -0.001 -0.000259867 -0.000354132 -0.001 
-0.000257696 -0.000249137 -0.001 -0.00034313 -0.000299896 -0.001 -0.000344514 -0.000199127 -0.001 
-0.000434309 -0.000250039 -0.001 -0.000169832 -0.000505815 -0.001 -0.000435227 -0.000146227 -0.001 
0.000280331 -0.000442424 -0.001 -0.000340889 8.76793e-05 -0.001 -0.000515252 4.06198e-05 -0.001 
6.50491e-05 0.000568253 -0.001 0.00053278 1.74743e-05 -0.001 0.000522071 0.000229831 -0.001 
-0.00037162 0.000391659 -0.001 -0.000255272 -0.000150439 -0.001 -0.000442893 -0.000350705 -0.001 
0.000450067 -0.000332559 -0.001 0.000545175 -0.000276306 -0.001 -0.000527797 -0.000197598 -0.001 
0.000105306 -0.000551033 -0.001 1.45836e-05 -0.000609147 -0.001 0.00017145 0.000214453 -0.001 
0.000515525 0.000341711 -0.001 0.000636086 0.000290368 -0.001 -0.000558657 0.000404468 -0.001 
-4.01232e-05 0.000616718 -0.001 6.60192e-05 0.000696422 -0.001 -0.000101806 0.0002546 -0.001 
0.000271142 -3.88908e-05 -0.001 0.000179455 -0.00018534 -0.001 -8.79553e-05 -0.000254307 -0.001 
-0.000749267 -0.000373451 -0.001 -0.000655941 -0.000323397 -0.001 0.000709746 0.000466718 -0.001 
0.000698426 -0.000473086 -0.001 -5.25801e-05 -0.00084886 -0.001 -4.93005e-05 0.000848038 -0.001 
0.000617396 -0.000413362 -0.001 0.000702056 -0.000369817 -0.001 0.000131459 -0.000679171 -0.001 
2.48171e-05 -0.000715924 -0.001 -0.000664217 -0.00042729 -0.001 -0.000528828 -8.80444e-05 -0.001 
-0.000611101 -0.000136672 -0.001 -0.000426972 -4.45841e-05 -0.001 0.000800669 0.000378216 -0.001 
0.000821144 -0.000415062 -0.001 7.2799e-05 0.00088254 -0.001 6.81831e-05 -0.00087503 -0.001 
0.000104963 -0.000788946 -0.001 -7.40696e-05 -0.000660054 -0.001 0.000126061 0.000809943 -0.001 
0.000764361 0.000295682 -0.001 0.000166862 0.000630623 -0.001 0.000516462 -0.00046707 -0.001 
-0.000563585 -0.000389606 -0.001 -0.000622598 -1.40238e-05 -0.001 0.000629891 0.000171529 -0.001 
2.5614e-06 -0.000299794 -0.001 8.6901e-05 -0.00024329 -0.001 0.000272045 -0.000136982 -0.001 
-0.00075148 0.000138321 -0.001 0.000209366 -0.000599589 -0.001 0.000324913 -0.000630055 -0.001 
0.000614044 0.00041245 -0.001 0.00049651 -0.000573327 -0.001 0.000394822 -0.000507321 -0.001 
-0.000173714 -0.000206698 -0.001 0.000264897 5.63722e-05 -0.001 0.000247997 0.000152811 -0.001 
-4.63327e-05 -0.000920208 -0.001 9.18688e-05 0.000258626 -0.001 -5.54111e-06 0.000290558 -0.001 
-0.000184219 0.000201484 -0.001 -0.000263559 0.000142267 -0.001 -0.000256427 5.13624e-05 -0.001 
-0.000336894 -2.06179e-06 -0.001 -0.000228499 -4.2388e-05 -0.001 -0.00017589 0.000106626 -0.001 
-0.000769947 -0.000133367 -0.001 0.000767591 -0.000500293 -0.001 -5.05874e-05 0.000737978 -0.001 
0.000754456 -3.51771e-06 -0.001 0.00064691 -6.15298e-05 -0.001 0.000630483 -0.00018134 -0.001 
0.000749187 -0.000265543 -0.001 -0.000760805 -0.000462521 -0.001 0.000638155 6.09315e-05 -0.001 
-4.46661e-05 0.000922995 -0.001 -2.37945e-05 0.000207237 -0.001 0.000776979 0.000500181 -0.001 
-0.000605691 0.000527596 -0.001 -0.000377914 -0.000653727 -0.001 -0.000372325 -0.000526022 -0.001 
-0.000275829 -0.000589621 -0.001 -0.000254285 -0.000710579 -0.001 -0.000379307 0.000656222 -0.001 
-0.000379818 0.00052718 -0.001 -0.000266817 0.000721555 -0.001 -0.000150544 0.000668174 -0.001 
0.000381963 0.00065079 -0.001 0.000493113 0.000590432 -0.001 0.000505439 0.000463708 -0.001 
-0.000269094 0.000596608 -0.001 0.000385815 0.000532045 -0.001 0.000283599 0.0005899 -0.001 
-0.000176405 -0.000108505 -0.001 -0.000278769 -0.000475415 -0.001 0.000185395 2.33014e-06 -0.001 
0.000186773 0.000517571 -0.001 0.000540032 -8.68444e-05 -0.001 -0.000600694 -0.000514877 -0.001 
-0.00063703 8.98033e-05 -0.001 -0.000459677 0.000335729 -0.001 -0.000338836 -0.000100751 -0.001 
-0.000457327 0.000432721 -0.001 -8.72007e-06 -0.000210238 -0.001 0.000156073 0.000129496 -0.001 
-7.70692e-05 -0.000555049 -0.001 0.00036091 -0.000389728 -0.001 0.000531628 0.000120564 -0.001 
-0.000285451 0.000435562 -0.001 0.000192719 -0.000494604 -0.001 0.00041642 0.00039368 -0.001 
-0.000135943 0.000554637 -0.001 -0.000170665 -0.000610079 -0.001 -0.000666304 0.000434981 -0.001 
-0.000758736 0.000479231 -0.001 -0.000470189 -0.000458901 -0.001 0.000203433 -8.59809e-05 -0.001 
0.000101846 0.000170114 -0.001 -0.00035513 -0.00040726 -0.001 0.000100184 -0.000165831 -0.001 
2.96286e-05 0.00081537 -0.001 0.000720946 0.000381836 -0.001 -0.000539809 -0.000292001 -0.001 
0.00052211 -0.000182426 -0.001 -6.41339e-05 -0.000753908 -0.001 0.000638039 -0.000299861 -0.001 
-0.000605136 -0.000230182 -0.001 -3.41638e-05 -0.000145561 -0.001 -0.000104037 0.000172396 -0.001 
-0.000808575 -0.00042774 -0.001 -0.000807207 -0.000465052 -0.001 -0.00080817 0.000429771 -0.001 
-0.000806589 0.000469738 -0.001 -9.50634e-05 -0.000178909 -0.001 0.000247777 0.000445058 -0.001 
1.48293e-05 -0.000814201 -0.001 -4.11555e-05 0.000140955 -0.001 0.000276104 -0.000536845 -0.001 
0.000765969 -0.000436638 -0.001 0.000780871 -0.000362769 -0.001 0.000424176 -0.000642018 -0.001 
0.00053413 -0.000368009 -0.001 -0.000416333 4.17911e-05 -0.001 -0.000133891 -6.23822e-05 -0.001 
4.2574e-05 0.000206312 -0.001 0.000141163 -0.000121542 -0.001 0.000707423 0.000212137 -0.001 
0.000172327 0.000723882 -0.001 7.72652e-06 -0.00090254 -0.001 -0.000134435 5.66935e-05 -0.001 
-0.000188826 3.70894e-05 -0.001 0.000197119 8.09714e-05 -0.001 1.27801e-05 0.000917296 -0.001 
0.000800767 0.00044758 -0.001 -0.000686682 0.000507104 -0.001 9.35831e-05 0.000110457 -0.001 
-0.000696793 -0.000509595 -0.001 -0.00068446 -8.52012e-05 -0.001 -0.000691033 -0.000201242 -0.001 
5.24052e-05 -0.000189075 -0.001 -0.000151818 -0.000701092 -0.001 -0.000296988 0.000518087 -0.001 
9.31023e-05 -0.000108117 -0.001 0.00044261 -0.000416726 -0.001 0.000197044 -0.000784423 -0.001 
-0.000516861 0.000504567 -0.001 0.000298997 0.000502377 -0.001 

CELLS 563 3941
6 14 304 127 29 554 377 
6 143 259 55 393 509 103 
6 300 319 174 550 569 424 
6 259 349 55 509 599 103 
6 50 365 307 98 615 557 
6 299 320 164 549 570 414 
6 126 304 14 376 554 29 
6 298 319 300 548 569 550 
6 205 240 238 455 490 488 
6 257 308 145 507 558 395 
6 130 352 273 380 602 523 
6 295 320 299 545 570 549 
6 324 327 289 574 577 539 
6 235 258 143 485 508 393 
6 50 307 49 98 557 97 
6 207 283 279 457 533 529 
6 143 373 235 393 623 485 
6 145 308 252 395 558 502 
6 194 303 196 444 553 446 
6 279 306 207 529 556 457 
6 206 305 163 456 555 413 
6 51 357 9 99 607 24 
6 238 252 205 488 502 455 
6 293 317 209 543 567 459 
6 207 316 283 457 566 533 
6 142 301 249 392 551 499 
6 273 359 130 523 609 380 
6 211 327 324 461 577 574 
6 169 265 217 419 515 467 
6 7 365 50 22 615 98 
6 283 316 253 533 566 503 
6 159 268 223 409 518 473 
6 274 337 132 524 587 382 
6 232 361 329 482 611 579 
6 231 266 45 481 516 93 
6 229 362 330 479 612 580 
6 9 244 57 24 494 105 
6 230 276 52 480 526 100 
6 209 311 293 459 561 543 
6 131 342 302 381 592 552 
6 270 271 204 520 521 454 
6 66 243 1 114 493 16 
6 59 241 12 107 491 27 
6 280 306 279 530 556 529 
6 269 337 274 519 587 524 
6 179 256 224 429 506 474 
6 163 305 166 413 555 416 
6 201 303 194 451 553 444 
6 280 332 306 530 582 556 
6 186 255 225 436 505 475 
6 210 310 273 460 560 523 
6 153 270 204 403 520 454 
6 136 231 45 386 481 93 
6 171 265 169 421 515 419 
6 138 230 52 388 480 100 
6 225 354 325 475 604 575 
6 36 284 232 84 534 482 
6 161 268 159 411 518 409 
6 71 286 229 119 536 479 
6 290 303 201 540 553 451 
6 139 355 60 389 605 108 
6 60 355 248 108 605 498 
6 273 352 302 523 602 552 
6 235 373 245 485 623 495 
6 67 356 247 115 606 497 
6 221 295 277 471 545 527 
6 142 356 67 392 606 115 
6 139 283 253 389 533 503 
6 203 315 262 453 565 512 
6 41 257 145 89 507 395 
6 36 232 135 84 482 385 
6 71 229 137 119 479 387 
6 254 255 188 504 505 438 
6 233 350 334 483 600 584 
6 262 346 203 512 596 453 
6 304 325 127 554 575 377 
6 222 329 247 472 579 497 
6 218 298 260 468 548 510 
6 290 321 291 540 571 541 
6 272 310 240 522 560 490 
6 269 274 270 519 524 520 
6 244 245 57 494 495 105 
6 49 307 141 97 557 391 
6 225 325 256 475 575 506 
6 273 310 272 523 560 522 
6 312 368 255 562 618 505 
6 249 305 206 499 555 456 
6 228 331 251 478 581 501 
6 302 342 263 552 592 513 
6 338 339 44 588 589 92 
6 190 254 188 440 504 438 
6 37 341 340 85 591 590 
6 138 233 230 388 483 480 
6 228 335 331 478 585 581 
6 181 256 179 431 506 429 
6 195 263 226 445 513 476 
6 268 285 223 518 535 473 
6 290 291 288 540 541 538 
6 219 330 248 469 580 498 
6 201 321 290 451 571 540 
6 240 310 202 490 560 452 
6 188 255 186 438 505 436 
6 270 274 271 520 524 521 
6 262 349 259 512 599 509 
6 141 324 289 391 574 539 
6 296 301 142 546 551 392 
6 247 356 222 497 606 472 
6 239 252 238 489 502 488 
6 254 312 255 504 562 505 
6 54 261 53 102 511 101 
6 289 327 303 539 577 553 
6 268 353 285 518 603 535 
6 273 302 210 523 552 460 
6 292 299 293 542 549 543 
6 278 283 139 528 533 389 
6 175 265 171 425 515 421 
6 227 338 38 477 588 86 
6 264 360 265 514 610 515 
6 43 340 146 91 590 396 
6 165 268 161 415 518 411 
6 205 351 240 455 601 490 
6 64 281 63 112 531 111 
6 288 291 47 538 541 95 
6 135 295 294 385 545 544 
6 42 257 41 90 507 89 
6 245 373 57 495 623 105 
6 31 363 323 79 613 573 
6 292 293 140 542 543 390 
6 267 353 268 517 603 518 
6 155 270 153 405 520 403 
6 244 344 245 494 594 495 
6 61 278 139 109 528 389 
6 135 294 35 385 544 83 
6 69 297 296 117 547 546 
6 186 225 184 436 475 434 
6 329 361 243 579 611 493 
6 255 328 225 505 578 475 
6 213 332 280 463 582 530 
6 39 275 133 87 525 383 
6 330 362 241 580 612 491 
6 195 226 193 445 476 443 
6 211 324 251 461 574 501 
6 151 153 152 401 403 402 
6 295 299 294 545 549 544 
6 265 313 217 515 563 467 
6 258 259 143 508 509 393 
6 251 331 211 501 581 461 
6 149 151 150 399 401 400 
6 293 370 317 543 620 567 
6 153 204 152 403 454 402 
6 151 152 150 401 402 400 
6 33 292 140 81 542 390 
6 210 263 197 460 513 447 
6 301 305 249 551 555 499 
6 298 300 297 548 550 547 
6 68 296 142 116 546 392 
6 321 369 291 571 619 541 
6 179 224 177 429 474 427 
6 167 267 165 417 517 415 
6 259 346 262 509 596 512 
6 303 327 196 553 577 446 
6 269 270 155 519 520 405 
6 265 360 313 515 610 563 
6 223 269 157 473 519 407 
6 157 269 155 407 519 405 
6 144 279 278 394 529 528 
6 169 217 167 419 467 417 
6 177 264 175 427 514 425 
6 267 268 165 517 518 415 
6 159 223 157 409 473 407 
6 232 277 135 482 527 385 
6 193 254 190 443 504 440 
6 217 267 167 467 517 417 
6 249 356 142 499 606 392 
6 184 256 181 434 506 431 
6 248 355 219 498 605 469 
6 229 260 137 479 510 387 
6 149 150 148 399 400 398 
6 64 348 281 112 598 531 
6 311 374 293 561 624 543 
6 264 265 175 514 515 425 
6 297 300 296 547 550 546 
6 141 289 288 391 539 538 
6 197 263 195 447 513 445 
6 218 260 219 468 510 469 
6 224 264 177 474 514 427 
6 137 298 297 387 548 547 
6 277 295 135 527 545 385 
6 133 228 227 383 478 477 
6 261 349 262 511 599 512 
6 221 277 222 471 527 472 
6 256 325 224 506 575 474 
6 199 210 197 449 460 447 
6 226 254 193 476 504 443 
6 144 278 62 394 528 110 
6 279 283 278 529 533 528 
6 289 290 288 539 540 538 
6 137 297 70 387 547 118 
6 34 294 292 82 544 542 
6 235 236 216 485 486 466 
6 141 288 48 391 538 96 
6 178 306 180 428 556 430 
6 185 186 184 435 436 434 
6 63 281 144 111 531 394 
6 225 256 184 475 506 434 
6 46 291 136 94 541 386 
6 147 149 148 397 399 398 
6 271 272 204 521 522 454 
6 233 334 234 483 584 484 
6 145 275 40 395 525 88 
6 220 322 287 470 572 537 
6 280 334 213 530 584 463 
6 144 280 279 394 530 529 
6 140 287 32 390 537 80 
6 154 155 153 404 405 403 
6 334 350 213 584 600 463 
6 176 177 175 426 427 425 
6 260 298 137 510 548 387 
6 33 140 32 81 390 80 
6 49 141 48 97 391 96 
6 56 143 55 104 393 103 
6 68 142 67 116 392 115 
6 63 144 62 111 394 110 
6 61 139 60 109 389 108 
6 148 308 257 398 558 507 
6 71 137 70 119 387 118 
6 53 138 52 101 388 100 
6 46 136 45 94 386 93 
6 36 135 35 84 385 83 
6 43 146 134 91 396 384 
6 133 227 38 383 477 86 
6 192 193 190 442 443 440 
6 293 374 140 543 624 390 
6 34 292 33 82 542 81 
6 207 306 178 457 556 428 
6 43 134 42 91 384 90 
6 39 133 38 87 383 86 
6 41 145 40 89 395 88 
6 194 195 193 444 445 443 
6 69 296 68 117 546 116 
6 294 299 292 544 549 542 
6 173 175 171 423 425 421 
6 260 330 219 510 580 469 
6 183 184 181 433 434 431 
6 134 257 42 384 507 90 
6 55 349 54 103 599 102 
6 163 165 161 413 415 411 
6 166 167 165 416 417 415 
6 210 302 263 460 552 513 
6 271 273 272 521 523 522 
6 53 261 138 101 511 388 
6 217 326 267 467 576 517 
6 289 303 290 539 553 540 
6 178 179 177 428 429 427 
6 238 240 202 488 490 452 
6 62 278 61 110 528 109 
6 35 294 34 83 544 82 
6 284 361 232 534 611 482 
6 70 297 69 118 547 117 
6 224 304 264 474 554 514 
6 156 157 155 406 407 405 
6 48 288 47 96 538 95 
6 221 320 295 471 570 545 
6 187 188 186 437 438 436 
6 47 291 46 95 541 94 
6 151 154 153 401 404 403 
6 286 362 229 536 612 479 
6 168 169 167 418 419 417 
6 40 275 39 88 525 87 
6 307 324 141 557 574 391 
6 300 301 296 550 551 546 
6 32 287 31 80 537 79 
6 147 220 149 397 470 399 
6 333 344 231 583 594 481 
6 299 370 293 549 620 543 
6 271 359 273 521 609 523 
6 224 325 304 474 575 554 
6 228 237 227 478 487 477 
6 305 375 343 555 625 593 
6 218 319 298 468 569 548 
6 240 351 272 490 601 522 
6 277 329 222 527 579 472 
6 253 355 139 503 605 389 
6 158 159 157 408 409 407 
6 236 246 216 486 496 466 
6 192 194 193 442 444 443 
6 220 309 149 470 559 399 
6 183 185 184 433 435 434 
6 196 197 195 446 447 445 
6 276 347 58 526 597 106 
6 136 333 231 386 583 481 
6 67 247 66 115 497 114 
6 60 248 59 108 498 107 
6 261 262 250 511 512 500 
6 173 176 175 423 426 425 
6 344 357 231 594 607 481 
6 144 281 280 394 531 530 
6 152 205 150 402 455 400 
6 163 166 165 413 416 415 
6 185 187 186 435 437 436 
6 233 234 230 483 484 480 
6 170 171 169 420 421 419 
6 146 147 134 396 397 384 
6 176 178 177 426 428 427 
6 285 337 223 535 587 473 
6 154 156 155 404 406 405 
6 263 342 226 513 592 476 
6 235 245 236 485 495 486 
6 160 161 159 410 411 409 
6 58 347 242 106 597 492 
6 166 168 167 416 418 417 
6 287 374 220 537 624 470 
6 189 190 188 439 440 438 
6 148 257 134 398 507 384 
6 194 196 195 444 446 445 
6 252 308 205 502 558 455 
6 285 345 337 535 595 587 
6 301 375 305 551 625 555 
6 180 181 179 430 431 429 
6 281 348 234 531 598 484 
6 198 199 197 448 449 447 
6 151 309 154 401 559 404 
6 228 367 335 478 617 585 
6 54 349 261 102 599 511 
6 156 158 157 406 408 407 
6 168 170 169 418 420 419 
6 200 202 199 450 452 449 
6 147 148 134 397 398 384 
6 158 160 159 408 410 409 
6 150 308 148 400 558 398 
6 253 316 208 503 566 458 
6 232 329 277 482 579 527 
6 178 180 179 428 430 429 
6 191 192 190 441 442 440 
6 214 238 202 464 488 452 
6 172 173 171 422 423 421 
6 187 189 188 437 439 438 
6 162 163 161 412 413 411 
6 228 251 237 478 501 487 
6 215 258 235 465 508 485 
6 182 183 181 432 433 431 
6 202 310 199 452 560 449 
6 219 253 208 469 503 458 
6 222 249 206 472 499 456 
6 196 198 197 446 448 447 
6 229 330 260 479 580 510 
6 132 358 274 382 608 524 
6 149 309 151 399 559 401 
6 226 312 254 476 562 504 
6 154 309 209 404 559 459 
6 77 129 76 125 379 124 
6 73 128 72 121 378 120 
6 76 131 75 124 381 123 
6 74 132 73 122 382 121 
6 75 130 74 123 380 122 
6 14 127 77 29 377 125 
6 72 126 14 120 376 29 
6 133 367 228 383 617 478 
6 237 282 227 487 532 477 
6 239 366 252 489 616 502 
6 200 214 202 450 464 452 
6 192 201 194 442 451 444 
6 170 172 171 420 422 421 
6 220 311 309 470 561 559 
6 198 200 199 448 450 449 
6 189 191 190 439 441 440 
6 146 323 322 396 573 572 
6 160 162 161 410 412 411 
6 251 307 237 501 557 487 
6 199 310 210 449 560 460 
6 57 373 56 105 623 104 
6 214 239 238 464 489 488 
6 182 212 183 432 462 433 
6 180 182 181 430 432 431 
6 146 322 147 396 572 397 
6 172 218 208 422 468 458 
6 172 208 173 422 458 423 
6 162 221 206 412 471 456 
6 162 206 163 412 456 413 
6 176 207 178 426 457 428 
6 272 351 204 522 601 454 
6 198 211 200 448 461 450 
6 182 213 212 432 463 462 
6 234 334 281 484 584 531 
6 154 209 156 404 459 406 
6 185 203 187 435 453 437 
6 168 174 170 418 424 420 
6 189 215 191 439 465 441 
6 215 216 191 465 466 441 
6 221 222 206 471 472 456 
6 158 164 160 408 414 410 
6 218 219 208 468 469 458 
6 205 308 150 455 558 400 
6 191 314 192 441 564 442 
6 215 235 216 465 485 466 
6 215 318 258 465 568 508 
6 152 351 205 402 601 455 
6 138 261 250 388 511 500 
6 192 314 201 442 564 451 
6 234 347 230 484 597 480 
6 226 342 312 476 592 562 
6 138 250 233 388 500 483 
6 147 322 220 397 572 470 
6 216 314 191 466 564 441 
6 306 332 180 556 582 430 
6 222 356 249 472 606 499 
6 128 345 285 378 595 535 
6 314 321 201 564 571 451 
6 212 315 183 462 565 433 
6 312 342 336 562 592 586 
6 282 339 338 532 589 588 
6 340 341 323 590 591 573 
6 309 311 209 559 561 459 
6 183 315 185 433 565 435 
6 208 316 173 458 566 423 
6 173 316 176 423 566 426 
6 3 341 37 18 591 85 
6 44 339 6 92 589 21 
6 252 366 145 502 616 395 
6 246 321 314 496 571 564 
6 246 314 216 496 564 466 
6 126 364 313 376 614 563 
6 156 317 158 406 567 408 
6 275 367 133 525 617 383 
6 176 316 207 426 566 457 
6 185 315 203 435 565 453 
6 180 332 182 430 582 432 
6 302 352 131 552 602 381 
6 251 324 307 501 574 557 
6 187 318 189 437 568 439 
6 172 319 218 422 569 468 
6 162 320 221 412 570 471 
6 305 343 166 555 593 416 
6 170 319 172 420 569 422 
6 158 317 164 408 567 414 
6 209 317 156 459 567 406 
6 285 353 128 535 603 378 
6 223 337 269 473 587 519 
6 160 320 162 410 570 412 
6 211 331 200 461 581 450 
6 174 319 170 424 569 420 
6 203 318 187 453 568 437 
6 189 318 215 439 568 465 
6 198 327 211 448 577 461 
6 164 320 160 414 570 410 
6 326 353 267 576 603 517 
6 236 344 333 486 594 583 
6 196 327 198 446 577 448 
6 219 355 253 469 605 503 
6 281 334 280 531 584 530 
6 274 359 271 524 609 521 
6 164 370 299 414 620 549 
6 174 375 300 424 625 550 
6 287 363 31 537 613 79 
6 243 361 1 493 611 16 
6 241 362 12 491 612 27 
6 307 365 237 557 615 487 
6 166 343 168 416 593 418 
6 200 331 214 450 581 464 
6 313 326 217 563 576 467 
6 9 357 244 24 607 494 
6 1 361 30 16 611 78 
6 12 362 65 27 612 113 
6 337 345 132 587 595 382 
6 242 348 64 492 598 112 
6 231 357 266 481 607 516 
6 182 332 213 432 582 463 
6 245 344 236 495 594 486 
6 258 346 259 508 596 509 
6 145 366 275 395 616 525 
6 291 369 136 541 619 386 
6 236 333 246 486 583 496 
6 331 335 214 581 585 464 
6 312 336 129 562 586 379 
6 315 372 262 565 622 512 
6 220 374 311 470 624 561 
6 140 374 287 390 624 537 
6 126 360 304 376 610 554 
6 230 347 276 480 597 526 
6 313 364 326 563 614 576 
6 56 373 143 104 623 393 
6 239 367 366 489 617 616 
6 204 351 152 454 601 402 
6 300 375 301 550 625 551 
6 214 335 239 464 585 489 
6 247 329 243 497 579 493 
6 262 372 250 512 622 500 
6 248 330 241 498 580 491 
6 318 346 258 568 596 508 
6 333 369 246 583 619 496 
6 282 338 227 532 588 477 
6 146 340 323 396 590 573 
6 304 360 264 554 610 514 
6 366 367 275 616 617 525 
6 129 336 76 379 586 124 
6 73 345 128 121 595 378 
6 76 336 131 124 586 381 
6 250 350 233 500 600 483 
6 129 371 328 379 621 578 
6 132 345 73 382 595 121 
6 168 343 174 418 593 424 
6 131 352 75 381 602 123 
6 66 247 243 114 497 493 
6 59 248 241 107 498 491 
6 74 358 132 122 608 382 
6 203 346 318 453 596 568 
6 313 360 126 563 610 376 
6 128 364 72 378 614 120 
6 128 353 326 378 603 576 
6 77 371 129 125 621 379 
6 129 368 312 379 618 562 
6 244 357 344 494 607 594 
6 328 354 225 578 604 475 
6 326 364 128 576 614 378 
6 75 352 130 123 602 380 
6 350 372 212 600 622 462 
6 136 369 333 386 619 583 
6 325 354 127 575 604 377 
6 213 350 212 463 600 462 
6 130 358 74 380 608 122 
6 250 372 350 500 622 600 
6 317 370 164 567 620 414 
6 72 364 126 120 614 376 
6 328 368 129 578 618 379 
6 127 371 77 377 621 125 
6 336 342 131 586 592 381 
6 212 372 315 462 622 565 
6 234 348 347 484 598 597 
6 8 266 51 23 516 99 
6 10 276 58 25 526 106 
6 246 369 321 496 619 571 
6 30 284 0 78 534 15 
6 65 286 13 113 536 28 
6 58 242 11 106 492 26 
6 266 357 51 516 607 99 
6 255 368 328 505 618 578 
6 347 348 242 597 598 492 
6 322 363 287 572 613 537 
6 323 363 322 573 613 572 
6 335 367 239 585 617 489 
6 30 361 284 78 611 534 
6 65 362 286 113 612 536 
6 237 365 282 487 615 532 
6 130 359 358 380 609 608 
6 343 375 174 593 625 424 
6 354 371 127 604 621 377 
6 328 371 354 578 621 604 
6 358 359 274 608 609 524 
6 0 284 36 15 534 84 
6 45 266 8 93 516 23 
6 52 276 10 100 526 25 
6 11 242 64 26 492 112 
6 13 286 71 28 536 119 
6 2 323 3 17 573 18 
6 31 323 2 79 573 17 
6 323 341 3 573 591 18 
6 37 340 4 85 590 19 
6 4 340 43 19 590 91 
6 38 338 5 86 588 20 
6 5 338 44 20 588 92 
6 6 282 7 21 532 22 
6 6 339 282 21 589 532 
6 282 365 7 532 615 22 

CELL_TYPES 563
13
13
13
13
13
13
13
13
13
13
13
13
13
13
13
13
13
13
13
13
13
13
13
13
13
13
13
13
13
13
13
13
13
13
13
13
13
13
13
13
13
13
13
13
13
13
13
13
13
13
13
13
13
13
13
13
13
13
13
13
13
13
13
13
13
13
13
13
13
13
13
13
13
13
13
13
13
13
13
13
13
13
13
13
13
13
13
13
13
13
13
13
13
13
13
13
13
13
13
13
13
13
13
13
13
13
13
13
13
13
13
13
13
13
13
13
13
13
13
13
13
13
13
13
13
13
13
13
13
13
13
13
13
13
13
13
13
13
13
13
13
13
13
13
13
13
13
13
13
13
13
13
13
13
13
13
13
13
13
13
13
13
13
13
13
13
13
13
13
13
13
13
13
13
13
13
13
13
13
13
13
13
13
13
13
13
13
13
13
13
13
13
13
13
13
13
13
13
13
13
13
13
13
13
13
13
13
13
13
13
13
13
13
13
13
13
13
13
13
13
13
13
13
13
13
13
13
13
13
13
13
13
13
13
13
13
13
13
13
13
13
13
13
13
13
13
13
13
13
13
13
13
13
13
13
13
13
13
13
13
13
13
13
13
13
13
13
13
13
13
13
13
13
13
13
13
13
13
13
13
13
13
13
13
13
13
13
13
13
13
13
13
13
13
13
13
13
13
13
13
13
13
13
13
13
13
13
13
13
13
13
13
13
13
13
13
13
13
13
13
13
13
13
13
13
13
13
13
13
13
13
13
13
13
13
13
13
13
13
13
13
13
13
13
13
13
13
13
13
13
13
13
13
13
13
13
13
13
13
13
13
13
13
13
13
13
13
13
13
13
13
13
13
13
13
13
13
13
13
13
13
13
13
13
13
13
13
13
13
13
13
13
13
13
13
13
13
13
13
13
13
13
13
13
13
13
13
13
13
13
13
13
13
13
13
13
13
13
13
13
13
13
13
13
13
13
13
13
13
13
13
13
13
13
13
13
13
13
13
13
13
13
13
13
13
13
13
13
13
13
13
13
13
13
13
13
13
13
13
13
13
13
13
13
13
13
13
13
13
13
13
13
13
13
13
13
13
13
13
13
13
13
13
13
13
13
13
13
13
13
13
13
13
13
13
13
13
13
13
13
13
13
13
13
13
13
13
13
13
13
13
13
13
13
13
13
13
13
13
13
13
13
13
13
13
13
13
13
13
13
13
13
13
13
13
13
13
13
13
13
13
13
13
13
13
13
13
13
13
13
13
13
13
13
13
13
13
13
13
13
13
13
13

POINT_DATA 626
VECTORS displacement float
-1.74393e-06 3.0957e-05 1.80562e-05
1.73563e-06 3.0976e-05 1.81013e-05
-2.59885e-05 1.69941e-05 1.80882e-05
-2.58431e-05 1.60343e-05 1.80528e-05
-2.77229e-05 1.39741e-05 1.80702e-05
-2.77158e-05 -1.40204e-05 1.80957e-05
-2.58143e-05 -1.60724e-05 1.8107e-05
-2.59847e-05 -1.70122e-05 1.81682e-05
-1.67739e-06 -3.09607e-05 1.80526e-05
1.75543e-06 -3.09622e-05 1.81031e-05
2.59459e-05 -1.6982e-05 1.80447e-05
2.77192e-05 -1.3938e-05 1.80445e-05
2.76747e-05 1.39907e-05 1.80928e-05
2.59172e-05 1.69942e-05 1.80472e-05
0 0 0
-1.74393e-06 3.0957e-05 -1.80562e-05
1.73563e-06 3.0976e-05 -1.81013e-05
-2.59885e-05 1.69941e-05 -1.80882e-05
-2.58431e-05 1.60343e-05 -1.80528e-05
-2.77229e-05 1.39741e-05 -1.80702e-05
-2.77158e-05 -1.40204e-05 -1.80957e-05
-2.58143e-05 -1.60724e-05 -1.8107e-05
-2.59847e-05 -1.70122e-05 -1.81682e-05
-1.67739e-06 -3.09607e-05 -1.80526e-05
1.75543e-06 -3.09622e-05 -1.81031e-05
2.59459e-05 -1.6982e-05 -1.80447e-05
2.77192e-05 -1.3938e-05 -1.80445e-05
2.76747e-05 1.39907e-05 -1.80928e-05
2.59172e-05 1.69942e-05 -1.80472e-05
0 0 0
2.48834e-08 3.01569e-05 1.80354e-05
-2.11427e-05 1.87139e-05 1.7551e-05
-1.72344e-05 1.98357e-05 1.69223e-05
-1.40085e-05 2.10564e-05 1.65564e-05
-1.1208e-05 2.26672e-05 1.65503e-05
-8.52475e-06 2.48354e-05 1.69028e-05
-5.56805e-06 2.76243e-05 1.75387e-05
-2.6452e-05 1.46804e-05 1.80347e-05
-2.67711e-05 -9.01262e-06 1.75787e-05
-2.58088e-05 -5.03618e-06 1.69274e-05
-2.52571e-05 -1.63645e-06 1.65729e-05
-2.526e-05 1.60808e-06 1.65759e-05
-2.5801e-05 5.02356e-06 1.69256e-05
-2.67573e-05 8.9857e-06 1.75652e-05
-2.64389e-05 -1.47267e-05 1.80634e-05
-5.54131e-06 -2.76388e-05 1.7531e-05
-8.47727e-06 -2.48444e-05 1.69021e-05
-1.11712e-05 -2.26866e-05 1.65577e-05
-1.39721e-05 -2.10894e-05 1.6561e-05
-1.72168e-05 -1.9871e-05 1.69381e-05
-2.11363e-05 -1.87507e-05 1.75635e-05
8.98254e-08 -3.01416e-05 1.80305e-05
2.11261e-05 -1.86263e-05 1.75127e-05
1.72466e-05 -1.9764e-05 1.68743e-05
1.40354e-05 -2.10133e-05 1.65131e-05
1.12262e-05 -2.25954e-05 1.65476e-05
8.5819e-06 -2.47826e-05 1.68756e-05
5.65491e-06 -2.7629e-05 1.75363e-05
2.61267e-05 -1.50609e-05 1.80295e-05
2.67192e-05 8.93951e-06 1.75028e-05
2.57246e-05 5.0503e-06 1.69098e-05
2.52092e-05 1.62356e-06 1.65247e-05
2.52063e-05 -1.59967e-06 1.6523e-05
2.57532e-05 -4.99808e-06 1.68898e-05
2.67013e-05 -8.91825e-06 1.7511e-05
2.61098e-05 1.50621e-05 1.80266e-05
5.63337e-06 2.76204e-05 1.75109e-05
8.50928e-06 2.48093e-05 1.69126e-05
1.12182e-05 2.26434e-05 1.65309e-05
1.4006e-05 2.10243e-05 1.65262e-05
1.72236e-05 1.97953e-05 1.68865e-05
2.11171e-05 1.8636e-05 1.75267e-05
0 0 0
0 0 0
0 0 0
0 0 0
0 0 0
0 0 0
2.48834e-08 3.01569e-05 -1.80354e-05
-2.11427e-05 1.87139e-05 -1.7551e-05
-1.72344e-05 1.98357e-05 -1.69223e-05
-1.40085e-05 2.10564e-05 -1.65564e-05
-1.1208e-05 2.26672e-05 -1.65503e-05
-8.52475e-06 2.48354e-05 -1.69028e-05
-5.56805e-06 2.76243e-05 -1.75387e-05
-2.6452e-05 1.46804e-05 -1.80347e-05
-2.67711e-05 -9.01262e-06 -1.75787e-05
-2.58088e-05 -5.03618e-06 -1.69274e-05
-2.52571e-05 -1.63645e-06 -1.65729e-05
-2.526e-05 1.60808e-06 -1.65759e-05
-2.5801e-05 5.02356e-06 -1.69256e-05
-2.67573e-05 8.9857e-06 -1.75652e-05
-2.64389e-05 -1.47267e-05 -1.80634e-05
-5.54131e-06 -2.76388e-05 -1.7531e-05
-8.47727e-06 -2.48444e-05 -1.69021e-05
-1.11712e-05 -2.26866e-05 -1.65577e-05
-1.39721e-05 -2.10894e-05 -1.6561e-05
-1.72168e-05 -1.9871e-05 -1.69381e-05
-2.11363e-05 -1.87507e-05 -1.75635e-05
8.98254e-08 -3.01416e-05 -1.80305e-05
2.11261e-05 -1.86263e-05 -1.75127e-05
1.72466e-05 -1.9764e-05 -1.68743e-05
1.40354e-05 -2.10133e-05 -1.65131e-05
1.12262e-05 -2.25954e-05 -1.65476e-05
8.5819e-06 -2.47826e-05 -1.68756e-05
5.65491e-06 -2.7629e-05 -1.75363e-05
2.61267e-05 -1.50609e-05 -1.80295e-05
2.67192e-05 8.93951e-06 -1.75028e-05
2.57246e-05 5.0503e-06 -1.69098e-05
2.52092e-05 1.62356e-06 -1.65247e-05
2.52063e-05 -1.59967e-06 -1.6523e-05
2.57532e-05 -4.99808e-06 -1.68898e-05
2.67013e-05 -8.91825e-06 -1.7511e-05
2.61098e-05 1.50621e-05 -1.80266e-05
5.63337e-06 2.76204e-05 -1.75109e-05
8.50928e-06 2.48093e-05 -1.69126e-05
1.12182e-05 2.26434e-05 -1.65309e-05
1.4006e-05 2.10243e-05 -1.65262e-05
1.72236e-05 1.97953e-05 -1.68865e-05
2.11171e-05 1.8636e-05 -1.75267e-05
0 0 0
0 0 0
0 0 0
0 0 0
0 0 0
0 0 0
1.79382e-06 8.58811e-07 4.55271e-06
1.73795e-06 -8.25177e-07 4.46125e-06
4.31986e-07 1.84976e-06 4.49557e-06
4.36131e-07 -1.78076e-06 4.35653e-06
-1.84763e-06 2.09652e-08 4.42281e-06
-1.12317e-06 -1.30897e-06 4.15142e-06
-1.15929e-06 1.30689e-06 4.2002e-06
-2.25152e-05 -7.28848e-06 1.70013e-05
-2.21985e-05 7.37237e-06 1.697e-05
-4.86083e-06 2.29008e-05 1.69384e-05
-4.85834e-06 -2.31339e-05 1.69653e-05
1.7423e-05 1.56369e-05 1.69312e-05
1.75706e-05 -1.55379e-05 1.69405e-05
2.10757e-05 3.16425e-06 1.63259e-05
-1.39546e-05 1.7153e-05 1.64798e-05
-1.35926e-05 -1.67429e-05 1.64114e-05
7.7686e-06 1.98216e-05 1.63327e-05
7.68559e-06 -2.03121e-05 1.64039e-05
2.14745e-05 -3.44414e-06 1.64016e-05
-2.11049e-05 6.58817e-09 1.62481e-05
-2.24224e-05 1.10008e-05 1.74549e-05
-1.87527e-05 9.25562e-06 1.66284e-05
-1.79846e-05 5.79605e-06 1.60377e-05
-1.49855e-05 7.44908e-06 1.54877e-05
-1.42259e-05 4.30816e-06 1.4831e-05
-1.15338e-05 5.74447e-06 1.4096e-05
-1.08591e-05 3.06904e-06 1.33748e-05
-8.40132e-06 4.3053e-06 1.24055e-05
-9.05972e-06 7.01411e-06 1.34576e-05
-6.20471e-06 5.48904e-06 1.16901e-05
-6.82899e-06 8.25027e-06 1.30812e-05
-4.28182e-06 6.67556e-06 1.14516e-05
-4.8005e-06 9.61089e-06 1.30951e-05
-2.40111e-06 7.99413e-06 1.17241e-05
-2.81314e-06 1.11684e-05 1.34762e-05
-4.7546e-07 9.59625e-06 1.25021e-05
-7.38432e-07 1.29982e-05 1.4143e-05
1.73125e-06 1.15189e-05 1.35362e-05
-5.53526e-06 1.27017e-05 1.44383e-05
1.68524e-06 8.22478e-06 1.17487e-05
4.00458e-06 1.01219e-05 1.31522e-05
3.70571e-06 7.09864e-06 1.14793e-05
6.06802e-06 8.96758e-06 1.31146e-05
5.76739e-06 6.10739e-06 1.17367e-05
8.35893e-06 8.02114e-06 1.34933e-05
8.10646e-06 5.19579e-06 1.25015e-05
1.09551e-05 7.09777e-06 1.41483e-05
1.07471e-05 4.32323e-06 1.35003e-05
8.5314e-06 1.10386e-05 1.44621e-05
7.93847e-06 2.644e-06 1.17285e-05
1.06471e-05 1.73738e-06 1.31053e-05
7.94946e-06 3.58796e-07 1.14567e-05
1.08075e-05 -7.59189e-07 1.31254e-05
8.11244e-06 -1.93799e-06 1.17102e-05
1.10994e-05 -3.31319e-06 1.34852e-05
8.47058e-06 -4.42442e-06 1.24452e-05
1.15049e-05 -6.00349e-06 1.41107e-05
8.95648e-06 -7.13883e-06 1.34293e-05
6.14813e-06 -5.49496e-06 1.16424e-05
6.64517e-06 -8.3017e-06 1.30195e-05
4.1056e-06 -6.58916e-06 1.1312e-05
4.52381e-06 -9.55184e-06 1.29895e-05
2.24251e-06 -7.85906e-06 1.15985e-05
2.48508e-06 -1.1003e-05 1.33522e-05
2.25311e-07 -9.37462e-06 1.23548e-05
3.30043e-07 -1.27711e-05 1.40351e-05
-1.91563e-06 -1.11518e-05 1.33783e-05
-1.84125e-06 -7.9224e-06 1.15833e-05
-4.16833e-06 -9.87585e-06 1.30863e-05
-3.81432e-06 -6.73116e-06 1.13182e-05
-6.34627e-06 -8.6629e-06 1.31006e-05
-5.89188e-06 -5.69857e-06 1.16295e-05
-8.50059e-06 -7.43655e-06 1.3381e-05
-8.16836e-06 -4.72853e-06 1.24098e-05
-1.10968e-05 -6.40342e-06 1.40712e-05
-4.37211e-06 -1.31246e-05 1.4435e-05
-1.081e-05 -3.65105e-06 1.34405e-05
7.22687e-06 -1.13739e-05 1.42743e-05
-7.74247e-06 1.98288e-06 1.1494e-05
-1.32175e-05 1.03516e-06 1.42123e-05
1.72929e-06 1.50844e-05 1.49536e-05
1.37695e-05 4.62287e-07 1.43892e-05
1.38446e-05 6.10074e-06 1.49331e-05
-9.69507e-06 1.01973e-05 1.45339e-05
-5.41653e-06 -3.19796e-06 1.01832e-05
-1.17148e-05 -9.2983e-06 1.48906e-05
1.18836e-05 -8.76112e-06 1.47885e-05
1.47833e-05 -7.47438e-06 1.54048e-05
-1.39612e-05 -5.24444e-06 1.48631e-05
2.79611e-06 -1.45177e-05 1.47976e-05
4.24599e-07 -1.65011e-05 1.53992e-05
3.51877e-06 4.39736e-06 9.58211e-06
1.4012e-05 9.30002e-06 1.5493e-05
1.79326e-05 8.14581e-06 1.6302e-05
-1.56771e-05 1.13965e-05 1.62349e-05
-1.0942e-06 1.67708e-05 1.54967e-05
1.90703e-06 1.96236e-05 1.63124e-05
-2.09207e-06 5.22058e-06 9.5986e-06
5.55447e-06 -7.84678e-07 9.59515e-06
3.58629e-06 -3.68391e-06 9.08293e-06
-1.77981e-06 -5.17907e-06 9.4506e-06
-2.24709e-05 -1.10119e-05 1.74756e-05
-1.88001e-05 -9.24236e-06 1.66524e-05
2.11499e-05 1.41661e-05 1.75069e-05
2.07558e-05 -1.43189e-05 1.74369e-05
-1.76471e-06 -2.54489e-05 1.75122e-05
-1.68224e-06 2.5413e-05 1.75169e-05
1.77148e-05 -1.19081e-05 1.66886e-05
2.06477e-05 -1.07522e-05 1.71173e-05
3.776e-06 -1.89871e-05 1.61409e-05
7.6859e-07 -2.03479e-05 1.64843e-05
-1.9407e-05 -1.26517e-05 1.71445e-05
-1.37325e-05 -2.30717e-06 1.44733e-05
-1.65944e-05 -3.70183e-06 1.5479e-05
-1.03769e-05 -1.0965e-06 1.29534e-05
2.44543e-05 1.10739e-05 1.76529e-05
2.54998e-05 -1.24045e-05 1.78494e-05
2.64937e-06 2.67285e-05 1.76618e-05
2.52111e-06 -2.64161e-05 1.76306e-05
3.33972e-06 -2.30342e-05 1.70305e-05
-2.0541e-06 -1.83218e-05 1.59523e-05
4.05936e-06 2.37937e-05 1.71317e-05
2.26163e-05 8.38017e-06 1.71206e-05
4.61406e-06 1.73151e-05 1.57287e-05
1.44285e-05 -1.31208e-05 1.61388e-05
-1.57893e-05 -1.09858e-05 1.6216e-05
-1.68015e-05 -3.8147e-07 1.53788e-05
1.73077e-05 4.68798e-06 1.57271e-05
6.55266e-08 -6.38792e-06 1.02685e-05
1.74187e-06 -4.84891e-06 9.09343e-06
5.85102e-06 -2.93579e-06 1.03793e-05
-2.14464e-05 3.75094e-06 1.64603e-05
5.72994e-06 -1.62762e-05 1.55092e-05
9.08439e-06 -1.75008e-05 1.5999e-05
1.75739e-05 1.18828e-05 1.66737e-05
1.39957e-05 -1.63839e-05 1.64027e-05
1.07411e-05 -1.37904e-05 1.55516e-05
-3.5483e-06 -4.22058e-06 9.50175e-06
5.39962e-06 1.1386e-06 9.50004e-06
5.21854e-06 3.22318e-06 1.00483e-05
-1.74985e-06 -2.8357e-05 1.78781e-05
1.89223e-06 5.29938e-06 9.58544e-06
-1.13835e-07 6.10558e-06 1.00398e-05
-3.78527e-06 4.12812e-06 9.5794e-06
-5.62321e-06 3.03447e-06 1.02863e-05
-5.16594e-06 1.04077e-06 9.21456e-06
-7.52797e-06 -6.17454e-08 1.11736e-05
-4.33475e-06 -8.10348e-07 8.38272e-06
-3.10885e-06 1.87249e-06 7.37482e-06
-2.20834e-05 -3.60818e-06 1.65173e-05
2.34083e-05 -1.56892e-05 1.78373e-05
-1.50733e-06 2.117e-05 1.66834e-05
2.12638e-05 -8.45296e-08 1.62272e-05
1.76239e-05 -1.64698e-06 1.55829e-05
1.73495e-05 -4.94219e-06 1.57721e-05
2.18936e-05 -7.45191e-06 1.6915e-05
-2.31843e-05 -1.42558e-05 1.78339e-05
1.73264e-05 1.64905e-06 1.551e-05
-1.73406e-06 2.84755e-05 1.78953e-05
-4.22108e-07 3.68373e-06 7.49607e-06
2.3774e-05 1.57436e-05 1.78857e-05
-1.74991e-05 1.56437e-05 1.69763e-05
-1.06273e-05 -1.8468e-05 1.62566e-05
-1.01006e-05 -1.43438e-05 1.55731e-05
-7.50854e-06 -1.60965e-05 1.56235e-05
-7.32283e-06 -2.01226e-05 1.63967e-05
-1.07056e-05 1.85371e-05 1.62683e-05
-1.03484e-05 1.43856e-05 1.56208e-05
-7.77338e-06 2.04945e-05 1.64457e-05
-4.2534e-06 1.86116e-05 1.60544e-05
1.07608e-05 1.83473e-05 1.62277e-05
1.38931e-05 1.69366e-05 1.64325e-05
1.40434e-05 1.29742e-05 1.60527e-05
-7.36233e-06 1.629e-05 1.564e-05
1.05262e-05 1.45485e-05 1.56467e-05
7.74954e-06 1.6094e-05 1.56154e-05
-3.11673e-06 -1.89893e-06 7.39394e-06
-7.2584e-06 -1.24233e-05 1.46266e-05
3.00891e-06 4.03637e-08 6.60166e-06
4.87307e-06 1.35241e-05 1.46195e-05
1.40775e-05 -2.26062e-06 1.45719e-05
-1.72915e-05 -1.52181e-05 1.69469e-05
-1.73683e-05 2.42056e-06 1.55993e-05
-1.22059e-05 8.91284e-06 1.49449e-05
-7.70638e-06 -2.29274e-06 1.15559e-05
-1.24511e-05 1.18138e-05 1.55414e-05
-1.42748e-07 -3.75455e-06 7.55497e-06
2.73047e-06 2.27227e-06 7.25268e-06
-2.00407e-06 -1.4652e-05 1.48095e-05
9.36606e-06 -1.00693e-05 1.43908e-05
1.38622e-05 3.15814e-06 1.45675e-05
-7.3408e-06 1.12005e-05 1.42617e-05
4.99773e-06 -1.27761e-05 1.43707e-05
1.1033e-05 1.04316e-05 1.49211e-05
-3.59682e-06 1.46868e-05 1.49095e-05
-4.63594e-06 -1.66186e-05 1.55503e-05
-1.9509e-05 1.28937e-05 1.71626e-05
-2.3129e-05 1.48594e-05 1.78446e-05
-1.29063e-05 -1.26874e-05 1.5814e-05
3.76113e-06 -1.58626e-06 7.90778e-06
1.76455e-06 2.92254e-06 7.08518e-06
-9.23145e-06 -1.06106e-05 1.45332e-05
1.72789e-06 -2.8234e-06 6.93179e-06
9.9479e-07 2.41192e-05 1.73098e-05
2.137e-05 1.1195e-05 1.73e-05
-1.46661e-05 -7.95421e-06 1.54868e-05
1.37095e-05 -4.78682e-06 1.46921e-05
-1.91005e-06 -2.17651e-05 1.68041e-05
1.80622e-05 -8.41994e-06 1.63422e-05
-1.66806e-05 -6.32923e-06 1.57839e-05
-4.32936e-07 -1.92248e-06 4.79897e-06
-1.80553e-06 2.9957e-06 7.17793e-06
-2.50542e-05 -1.2983e-05 1.79235e-05
-2.51294e-05 -1.45085e-05 1.80033e-05
-2.50474e-05 1.30349e-05 1.79073e-05
-2.51202e-05 1.46512e-05 1.79834e-05
-1.6486e-06 -3.12512e-06 7.21067e-06
6.32861e-06 1.13696e-05 1.4078e-05
5.33738e-07 -2.40884e-05 1.73036e-05
-5.22821e-07 1.80969e-06 4.64549e-06
7.40824e-06 -1.43452e-05 1.51539e-05
2.3305e-05 -1.32106e-05 1.77301e-05
2.36349e-05 -1.05387e-05 1.74922e-05
1.19897e-05 -1.82129e-05 1.62948e-05
1.47317e-05 -1.01477e-05 1.57971e-05
-1.00281e-05 1.00135e-06 1.2756e-05
-1.74015e-06 -8.15968e-07 4.72394e-06
7.69132e-07 3.70868e-06 7.57395e-06
2.34328e-06 -1.99733e-06 6.55598e-06
2.01586e-05 5.89848e-06 1.64551e-05
5.07056e-06 2.05981e-05 1.64975e-05
3.42122e-07 -2.76825e-05 1.78553e-05
-1.73137e-06 7.09168e-07 4.6068e-06
-3.21179e-06 6.23102e-07 6.82486e-06
3.57754e-06 1.47555e-06 7.63744e-06
4.99234e-07 2.83264e-05 1.79285e-05
2.47625e-05 1.37353e-05 1.79197e-05
-2.03304e-05 1.55372e-05 1.74304e-05
1.1788e-06 1.36458e-06 4.46032e-06
-2.06417e-05 -1.57298e-05 1.75289e-05
-1.90009e-05 -2.32245e-06 1.59477e-05
-1.95612e-05 -5.58561e-06 1.63338e-05
9.05761e-07 -3.24804e-06 7.00685e-06
-4.36645e-06 -1.97914e-05 1.63234e-05
-7.93814e-06 1.38359e-05 1.51026e-05
1.16584e-06 -1.30429e-06 4.33975e-06
1.19357e-05 -1.12295e-05 1.52937e-05
6.13358e-06 -2.26984e-05 1.6822e-05
-1.45237e-05 1.43568e-05 1.63251e-05
7.92992e-06 1.33227e-05 1.49495e-05
1.79382e-06 8.58811e-07 -4.55271e-06
1.73795e-06 -8.25177e-07 -4.46125e-06
4.31986e-07 1.84976e-06 -4.49557e-06
4.36131e-07 -1.78076e-06 -4.35653e-06
-1.84763e-06 2.09652e-08 -4.42281e-06
-1.12317e-06 -1.30897e-06 -4.15142e-06
-1.15929e-06 1.30689e-06 -4.2002e-06
-2.25152e-05 -7.28848e-06 -1.70013e-05
-2.21985e-05 7.37237e-06 -1.697e-05
-4.86083e-06 2.29008e-05 -1.69384e-05
-4.85834e-06 -2.31339e-05 -1.69653e-05
1.7423e-05 1.56369e-05 -1.69312e-05
1.75706e-05 -1.55379e-05 -1.69405e-05
2.10757e-05 3.16425e-06 -1.63259e-05
-1.39546e-05 1.7153e-05 -1.64798e-05
-1.35926e-05 -1.67429e-05 -1.64114e-05
7.7686e-06 1.98216e-05 -1.63327e-05
7.68559e-06 -2.03121e-05 -1.64039e-05
2.14745e-05 -3.44414e-06 -1.64016e-05
-2.11049e-05 6.58817e-09 -1.62481e-05
-2.24224e-05 1.10008e-05 -1.74549e-05
-1.87527e-05 9.25562e-06 -1.66284e-05
-1.79846e-05 5.79605e-06 -1.60377e-05
-1.49855e-05 7.44908e-06 -1.54877e-05
-1.42259e-05 4.30816e-06 -1.4831e-05
-1.15338e-05 5.74447e-06 -1.4096e-05
-1.08591e-05 3.06904e-06 -1.33748e-05
-8.40132e-06 4.3053e-06 -1.24055e-05
-9.05972e-06 7.01411e-06 -1.34576e-05
-6.20471e-06 5.48904e-06 -1.16901e-05
-6.82899e-06 8.25027e-06 -1.30812e-05
-4.28182e-06 6.67556e-06 -1.14516e-05
-4.8005e-06 9.61089e-06 -1.30951e-05
-2.40111e-06 7.99413e-06 -1.17241e-05
-2.81314e-06 1.11684e-05 -1.34762e-05
-4.7546e-07 9.59625e-06 -1.25021e-05
-7.38432e-07 1.29982e-05 -1.4143e-05
1.73125e-06 1.15189e-05 -1.35362e-05
-5.53526e-06 1.27017e-05 -1.44383e-05
1.68524e-06 8.22478e-06 -1.17487e-05
4.00458e-06 1.01219e-05 -1.31522e-05
3.70571e-06 7.09864e-06 -1.14793e-05
6.06802e-06 8.96758e-06 -1.31146e-05
5.76739e-06 6.10739e-06 -1.17367e-05
8.35893e-06 8.02114e-06 -1.34933e-05
8.10646e-06 5.19579e-06 -1.25015e-05
1.09551e-05 7.09777e-06 -1.41483e-05
1.07471e-05 4.32323e-06 -1.35003e-05
8.5314e-06 1.10386e-05 -1.44621e-05
7.93847e-06 2.644e-06 -1.17285e-05
1.06471e-05 1.73738e-06 -1.31053e-05
7.94946e-06 3.58796e-07 -1.14567e-05
1.08075e-05 -7.59189e-07 -1.31254e-05
8.11244e-06 -1.93799e-06 -1.17102e-05
1.10994e-05 -3.31319e-06 -1.34852e-05
8.47058e-06 -4.42442e-06 -1.24452e-05
1.15049e-05 -6.00349e-06 -1.41107e-05
8.95648e-06 -7.13883e-06 -1.34293e-05
6.14813e-06 -5.49496e-06 -1.16424e-05
6.64517e-06 -8.3017e-06 -1.30195e-05
4.1056e-06 -6.58916e-06 -1.1312e-05
4.52381e-06 -9.55184e-06 -1.29895e-05
2.24251e-06 -7.85906e-06 -1.15985e-05
2.48508e-06 -1.1003e-05 -1.33522e-05
2.25311e-07 -9.37462e-06 -1.23548e-05
3.30043e-07 -1.27711e-05 -1.40351e-05
-1.91563e-06 -1.11518e-05 -1.33783e-05
-1.84125e-06 -7.9224e-06 -1.15833e-05
-4.16833e-06 -9.87585e-06 -1.30863e-05
-3.81432e-06 -6.73116e-06 -1.13182e-05
-6.34627e-06 -8.6629e-06 -1.31006e-05
-5.89188e-06 -5.69857e-06 -1.16295e-05
-8.50059e-06 -7.43655e-06 -1.3381e-05
-8.16836e-06 -4.72853e-06 -1.24098e-05
-1.10968e-05 -6.40342e-06 -1.40712e-05
-4.37211e-06 -1.31246e-05 -1.4435e-05
-1.081e-05 -3.65105e-06 -1.34405e-05
7.22687e-06 -1.13739e-05 -1.42743e-05
-7.74247e-06 1.98288e-06 -1.1494e-05
-1.32175e-05 1.03516e-06 -1.42123e-05
1.72929e-06 1.50844e-05 -1.49536e-05
1.37695e-05 4.62287e-07 -1.43892e-05
1.38446e-05 6.10074e-06 -1.49331e-05
-9.69507e-06 1.01973e-05 -1.45339e-05
-5.41653e-06 -3.19796e-06 -1.01832e-05
-1.17148e-05 -9.2983e-06 -1.48906e-05
1.18836e-05 -8.76112e-06 -1.47885e-05
1.47833e-05 -7.47438e-06 -1.54048e-05
-1.39612e-05 -5.24444e-06 -1.48631e-05
2.79611e-06 -1.45177e-05 -1.47976e-05
4.24599e-07 -1.65011e-05 -1.53992e-05
3.51877e-06 4.39736e-06 -9.58211e-06
1.4012e-05 9.30002e-06 -1.5493e-05
1.79326e-05 8.14581e-06 -1.6302e-05
-1.56771e-05 1.13965e-05 -1.62349e-05
-1.0942e-06 1.67708e-05 -1.54967e-05
1.90703e-06 1.96236e-05 -1.63124e-05
-2.09207e-06 5.22058e-06 -9.5986e-06
5.55447e-06 -7.84678e-07 -9.59515e-06
3.58629e-06 -3.68391e-06 -9.08293e-06
-1.77981e-06 -5.17907e-06 -9.4506e-06
-2.24709e-05 -1.10119e-05 -1.74756e-05
-1.88001e-05 -9.24236e-06 -1.66524e-05
2.11499e-05 1.41661e-05 -1.75069e-05
2.07558e-05 -1.43189e-05 -1.74369e-05
-1.76471e-06 -2.54489e-05 -1.75122e-05
-1.68224e-06 2.5413e-05 -1.75169e-05
1.77148e-05 -1.19081e-05 -1.66886e-05
2.06477e-05 -1.07522e-05 -1.71173e-05
3.776e-06 -1.89871e-05 -1.61409e-05
7.6859e-07 -2.03479e-05 -1.64843e-05
-1.9407e-05 -1.26517e-05 -1.71445e-05
-1.37325e-05 -2.30717e-06 -1.44733e-05
-1.65944e-05 -3.70183e-06 -1.5479e-05
-1.03769e-05 -1.0965e-06 -1.29534e-05
2.44543e-05 1.10739e-05 -1.76529e-05
2.54998e-05 -1.24045e-05 -1.78494e-05
2.64937e-06 2.67285e-05 -1.76618e-05
2.52111e-06 -2.64161e-05 -1.76306e-05
3.33972e-06 -2.30342e-05 -1.70305e-05
-2.0541e-06 -1.83218e-05 -1.59523e-05
4.05936e-06 2.37937e-05 -1.71317e-05
2.26163e-05 8.38017e-06 -1.71206e-05
4.61406e-06 1.73151e-05 -1.57287e-05
1.44285e-05 -1.31208e-05 -1.61388e-05
-1.57893e-05 -1.09858e-05 -1.6216e-05
-1.68015e-05 -3.8147e-07 -1.53788e-05
1.73077e-05 4.68798e-06 -1.57271e-05
6.55266e-08 -6.38792e-06 -1.02685e-05
1.74187e-06 -4.84891e-06 -9.09343e-06
5.85102e-06 -2.93579e-06 -1.03793e-05
-2.14464e-05 3.75094e-06 -1.64603e-05
5.72994e-06 -1.62762e-05 -1.55092e-05
9.08439e-06 -1.75008e-05 -1.5999e-05
1.75739e-05 1.18828e-05 -1.66737e-05
1.39957e-05 -1.63839e-05 -1.64027e-05
1.07411e-05 -1.37904e-05 -1.55516e-05
-3.5483e-06 -4.22058e-06 -9.50175e-06
5.39962e-06 1.1386e-06 -9.50004e-06
5.21854e-06 3.22318e-06 -1.00483e-05
-1.74985e-06 -2.8357e-05 -1.78781e-05
1.89223e-06 5.29938e-06 -9.58544e-06
-1.13835e-07 6.10558e-06 -1.00398e-05
-3.78527e-06 4.12812e-06 -9.5794e-06
-5.62321e-06 3.03447e-06 -1.02863e-05
-5.16594e-06 1.04077e-06 -9.21456e-06
-7.52797e-06 -6.17454e-08 -1.11736e-05
-4.33475e-06 -8.10348e-07 -8.38272e-06
-3.10885e-06 1.87249e-06 -7.37482e-06
-2.20834e-05 -3.60818e-06 -1.65173e-05
2.34083e-05 -1.56892e-05 -1.78373e-05
-1.50733e-06 2.117e-05 -1.66834e-05
2.12638e-05 -8.45296e-08 -1.62272e-05
1.76239e-05 -1.64698e-06 -1.55829e-05
1.73495e-05 -4.94219e-06 -1.57721e-05
2.18936e-05 -7.45191e-06 -1.6915e-05
-2.31843e-05 -1.42558e-05 -1.78339e-05
1.73264e-05 1.64905e-06 -1.551e-05
-1.73406e-06 2.84755e-05 -1.78953e-05
-4.22108e-07 3.68373e-06 -7.49607e-06
2.3774e-05 1.57436e-05 -1.78857e-05
-1.74991e-05 1.56437e-05 -1.69763e-05
-1.06273e-05 -1.8468e-05 -1.62566e-05
-1.01006e-05 -1.43438e-05 -1.55731e-05
-7.50854e-06 -1.60965e-05 -1.56235e-05
-7.32283e-06 -2.01226e-05 -1.63967e-05
-1.07056e-05 1.85371e-05 -1.62683e-05
-1.03484e-05 1.43856e-05 -1.56208e-05
-7.77338e-06 2.04945e-05 -1.64457e-05
-4.2534e-06 1.86116e-05 -1.60544e-05
1.07608e-05 1.83473e-05 -1.62277e-05
1.38931e-05 1.69366e-05 -1.64325e-05
1.40434e-05 1.29742e-05 -1.60527e-05
-7.36233e-06 1.629e-05 -1.564e-05
1.05262e-05 1.45485e-05 -1.56467e-05
7.74954e-06 1.6094e-05 -1.56154e-05
-3.11673e-06 -1.89893e-06 -7.39394e-06
-7.2584e-06 -1.24233e-05 -1.46266e-05
3.00891e-06 4.03637e-08 -6.60166e-06
4.87307e-06 1.35241e-05 -1.46195e-05
1.40775e-05 -2.26062e-06 -1.45719e-05
-1.72915e-05 -1.52181e-05 -1.69469e-05
-1.73683e-05 2.42056e-06 -1.55993e-05
-1.22059e-05 8.91284e-06 -1.49449e-05
-7.70638e-06 -2.29274e-06 -1.15559e-05
-1.24511e-05 1.18138e-05 -1.55414e-05
-1.42748e-07 -3.75455e-06 -7.55497e-06
2.73047e-06 2.27227e-06 -7.25268e-06
-2.00407e-06 -1.4652e-05 -1.48095e-05
9.36606e-06 -1.00693e-05 -1.43908e-05
1.38622e-05 3.15814e-06 -1.45675e-05
-7.3408e-06 1.12005e-05 -1.42617e-05
4.99773e-06 -1.27761e-05 -1.43707e-05
1.1033e-05 1.04316e-05 -1.49211e-05
-3.59682e-06 1.46868e-05 -1.49095e-05
-4.63594e-06 -1.66186e-05 -1.55503e-05
-1.9509e-05 1.28937e-05 -1.71626e-05
-2.3129e-05 1.48594e-05 -1.78446e-05
-1.29063e-05 -1.26874e-05 -1.5814e-05
3.76113e-06 -1.58626e-06 -7.90778e-06
1.76455e-06 2.92254e-06 -7.08518e-06
-9.23145e-06 -1.06106e-05 -1.45332e-05
1.72789e-06 -2.8234e-06 -6.93179e-06
9.9479e-07 2.41192e-05 -1.73098e-05
2.137e-05 1.1195e-05 -1.73e-05
-1.46661e-05 -7.95421e-06 -1.54868e-05
1.37095e-05 -4.78682e-06 -1.46921e-05
-1.91005e-06 -2.17651e-05 -1.68041e-05
1.80622e-05 -8.41994e-06 -1.63422e-05
-1.66806e-05 -6.32923e-06 -1.57839e-05
-4.32936e-07 -1.92248e-06 -4.79897e-06
-1.80553e-06 2.9957e-06 -7.17793e-06
-2.50542e-05 -1.2983e-05 -1.79235e-05
-2.51294e-05 -1.45085e-05 -1.80033e-05
-2.50474e-05 1.30349e-05 -1.79073e-05
-2.51202e-05 1.46512e-05 -1.79834e-05
-1.6486e-06 -3.12512e-06 -7.21067e-06
6.32861e-06 1.13696e-05 -1.4078e-05
5.33738e-07 -2.40884e-05 -1.73036e-05
-5.22821e-07 1.80969e-06 -4.64549e-06
7.40824e-06 -1.43452e-05 -1.51539e-05
2.3305e-05 -1.32106e-05 -1.77301e-05
2.36349e-05 -1.05387e-05 -1.74922e-05
1.19897e-05 -1.82129e-05 -1.62948e-05
1.47317e-05 -1.01477e-05 -1.57971e-05
-1.00281e-05 1.00135e-06 -1.2756e-05
-1.74015e-06 -8.15968e-07 -4.72394e-06
7.69132e-07 3.70868e-06 -7.57395e-06
2.34328e-06 -1.99733e-06 -6.55598e-06
2.01586e-05 5.89848e-06 -1.64551e-05
5.07056e-06 2.05981e-05 -1.64975e-05
3.42122e-07 -2.76825e-05 -1.78553e-05
-1.73137e-06 7.09168e-07 -4.6068e-06
-3.21179e-06 6.23102e-07 -6.82486e-06
3.57754e-06 1.47555e-06 -7.63744e-06
4.99234e-07 2.83264e-05 -1.79285e-05
2.47625e-05 1.37353e-05 -1.79197e-05
-2.03304e-05 1.55372e-05 -1.74304e-05
1.1788e-06 1.36458e-06 -4.46032e-06
-2.06417e-05 -1.57298e-05 -1.75289e-05
-1.90009e-05 -2.32245e-06 -1.59477e-05
-1.95612e-05 -5.58561e-06 -1.63338e-05
9.05761e-07 -3.24804e-06 -7.00685e-06
-4.36645e-06 -1.97914e-05 -1.63234e-05
-7.93814e-06 1.38359e-05 -1.51026e-05
1.16584e-06 -1.30429e-06 -4.33975e-06
1.19357e-05 -1.12295e-05 -1.52937e-05
6.13358e-06 -2.26984e-05 -1.6822e-05
-1.45237e-05 1.43568e-05 -1.63251e-05
7.92992e-06 1.33227e-05 -1.49495e-05
SCALARS effective_fluid_pressure_TPM float
LOOKUP_TABLE default
665
665
665
665
665
665
665
665
665
665
665
665
665
665
133
665
665
665
665
665
665
665
665
665
665
665
665
665
665
133
665
560.349
520.704
502.85
502.62
519.831
559.969
665
562.015
520.799
503.292
503.402
520.731
561.637
665
559.636
519.702
502.795
503.012
521.2
561.653
665
558.893
519.046
501.583
502.279
518.896
559.481
665
558.533
519.986
501.915
501.847
519.419
557.972
665
558.689
520
502.088
501.95
519.407
559.695
133
133
133
133
133
133
665
560.349
520.704
502.85
502.62
519.831
559.969
665
562.015
520.799
503.292
503.402
520.731
561.637
665
559.636
519.702
502.795
503.012
521.2
561.653
665
558.893
519.046
501.583
502.279
518.896
559.481
665
558.533
519.986
501.915
501.847
519.419
557.972
665
558.689
520
502.088
501.95
519.407
559.695
133
133
133
133
133
133
228.272
226.343
227.056
224.124
225.54
219.861
220.877
529.201
528.211
526.591
527.969
526.618
527.671
498.745
503.591
501.629
498.986
501.502
501.284
494.367
562.529
519.016
495.067
480.774
461.395
443.315
425.082
402.154
427.307
385.298
417.774
379.645
417.938
385.983
427.423
404.332
444.418
429.113
450.296
386.593
419.338
380.24
418.349
386.223
427.797
404.26
444.529
428.197
450.893
386.067
418.201
379.656
418.557
385.591
427.633
402.954
443.591
426.488
384.084
416.173
376.339
415.381
383.056
424.454
400.88
441.741
425.262
382.792
417.813
376.604
418.131
383.878
425.302
402.247
442.713
450.686
426.762
446.045
380.765
444.71
465.325
448.778
464.798
453.447
350.936
463.54
461.072
478.478
462.807
460.678
478.382
337.309
480.854
505.884
503.643
480.92
506.19
337.722
337.533
326.195
334.447
563.405
519.691
567.605
562.392
567.922
567.775
521.839
542.747
498.657
513.766
542.092
451.489
477.606
414.692
579.543
611.043
579.696
576.057
534.583
494.507
538.257
537.953
485.066
498.143
503.36
473.169
485.113
352.781
326.446
355.211
503.472
477.745
488.389
520.909
502.055
477.943
335.572
335.436
347.733
613.46
337.41
347.604
337.296
353.237
329.219
373.291
310.688
288.812
504.738
608.397
521.13
493.751
478.356
486.383
526.524
600.358
476.593
615.913
291.422
615.812
528.752
494.562
478.263
479.437
501.343
494.869
479.464
502.538
495.201
493.773
502.29
495.274
479.911
480.077
479.079
289.319
454.619
271.964
455.026
453.655
527.033
479.499
465.248
382.134
480.534
292.695
286.106
461.504
449.659
454.003
445.881
448.715
463.63
463.287
479.979
543.487
601.719
487.518
300.328
282.485
453.039
279.186
552.267
552.026
480.799
458.043
526.254
508.21
488.615
233.745
284.582
614.52
636.33
615.154
636.686
285.304
441.366
553.107
230.501
467.579
590.283
566.057
495.842
490.073
410.069
232.135
293.121
271.148
507.919
509.217
607.83
229.678
276.999
294.456
618.891
618.804
558.54
226.537
562.552
488.339
503.419
280.87
504.089
466.405
224.022
473.611
519.603
503.005
462.471
228.272
226.343
227.056
224.124
225.54
219.861
220.877
529.201
528.211
526.591
527.969
526.618
527.671
498.745
503.591
501.629
498.986
501.502
501.284
494.367
562.529
519.016
495.067
480.774
461.395
443.315
425.082
402.154
427.307
385.298
417.774
379.645
417.938
385.983
427.423
404.332
444.418
429.113
450.296
386.593
419.338
380.24
418.349
386.223
427.797
404.26
444.529
428.197
450.893
386.067
418.201
379.656
418.557
385.591
427.633
402.954
443.591
426.488
384.084
416.173
376.339
415.381
383.056
424.454
400.88
441.741
425.262
382.792
417.813
376.604
418.131
383.878
425.302
402.247
442.713
450.686
426.762
446.045
380.765
444.71
465.325
448.778
464.798
453.447
350.936
463.54
461.072
478.478
462.807
460.678
478.382
337.309
480.854
505.884
503.643
480.92
506.19
337.722
337.533
326.195
334.447
563.405
519.691
567.605
562.392
567.922
567.775
521.839
542.747
498.657
513.766
542.092
451.489
477.606
414.692
579.543
611.043
579.696
576.057
534.583
494.507
538.257
537.953
485.066
498.143
503.36
473.169
485.113
352.781
326.446
355.211
503.472
477.745
488.389
520.909
502.055
477.943
335.572
335.436
347.733
613.46
337.41
347.604
337.296
353.237
329.219
373.291
310.688
288.812
504.738
608.397
521.13
493.751
478.356
486.383
526.524
600.358
476.593
615.913
291.422
615.812
528.752
494.562
478.263
479.437
501.343
494.869
479.464
502.538
495.201
493.773
502.29
495.274
479.911
480.077
479.079
289.319
454.619
271.964
455.026
453.655
527.033
479.499
465.248
382.134
480.534
292.695
286.106
461.504
449.659
454.003
445.881
448.715
463.63
463.287
479.979
543.487
601.719
487.518
300.328
282.485
453.039
279.186
552.267
552.026
480.799
458.043
526.254
508.21
488.615
233.745
284.582
614.52
636.33
615.154
636.686
285.304
441.366
553.107
230.501
467.579
590.283
566.057
495.842
490.073
410.069
232.135
293.121
271.148
507.919
509.217
607.83
229.678
276.999
294.456
618.891
618.804
558.54
226.537
562.552
488.339
503.419
280.87
504.089
466.405
224.022
473.611
519.603
503.005
462.471

CELL_DATA 563
TENSORS stress float
164.628 -24.9216 -2.13637e-12
-24.9216 28.1536 -6.51331e-14
-2.13637e-12 -6.51331e-14 -12.5998

-40.34 -21.3209 -5.14107e-12
-21.3209 -7.35495 4.48352e-12
-5.14107e-12 4.48352e-12 -10.2348

-9.94286 28.0463 -1.90603e-12
28.0463 -1.11185 -1.46431e-12
-1.90603e-12 -1.46431e-12 -6.36395

-40.4276 -29.8424 -3.62865e-12
-29.8424 -12.8457 -5.03301e-15
-3.62865e-12 -5.03301e-15 -10.6011

-22.6907 19.9308 -1.47911e-12
19.9308 -1.92722 1.06352e-12
-1.47911e-12 1.06352e-12 -23.0196

-27.1438 -18.0766 6.3934e-13
-18.0766 15.888 -1.56912e-13
6.3934e-13 -1.56912e-13 -6.41475

161.279 26.486 -6.91595e-13
26.486 28.0301 1.69464e-12
-6.91595e-13 1.69464e-12 -13.2588

-5.96343 29.9598 -2.03807e-12
29.9598 -10.1135 -4.99452e-13
-2.03807e-12 -4.99452e-13 -7.27947

34.6332 5.4837 -1.89478e-12
5.4837 -19.0997 4.15371e-13
-1.89478e-12 4.15371e-13 -4.12572

11.8601 -7.47766 1.85452e-12
-7.47766 -48.2886 -1.69213e-12
1.85452e-12 -1.69213e-12 -8.94999

104.206 16.3109 1.77636e-12
16.3109 -8.444 1.31628e-12
1.77636e-12 1.31628e-12 -22.4534

-34.6407 -13.4544 -2.59052e-14
-13.4544 18.9656 -1.78998e-12
-2.59052e-14 -1.78998e-12 -7.18376

-6.02815 27.8354 -3.59771e-12
27.8354 -4.59239 -2.96652e-13
-3.59771e-12 -2.96652e-13 -6.16249

-35.555 -14.3413 7.63565e-13
-14.3413 7.84509 -1.47911e-12
7.63565e-13 -1.47911e-12 -9.13421

-23.6538 33.3085 -1.33493e-12
33.3085 -24.9923 1.69705e-12
-1.33493e-12 1.69705e-12 -21.3641

21.3116 0.56111 -5.64289e-13
0.56111 -32.3422 5.36839e-13
-5.64289e-13 5.36839e-13 -5.59318

-48.9604 -17.9687 -5.33564e-13
-17.9687 6.34219 -4.66886e-13
-5.33564e-13 -4.66886e-13 -12.9481

11.6603 -2.66519 2.48187e-12
-2.66519 -43.253 1.29918e-12
2.48187e-12 1.29918e-12 -8.03716

-11.354 26.6774 4.01309e-12
26.6774 19.5172 2.6373e-12
4.01309e-12 2.6373e-12 -6.09328

21.766 -4.19616 -1.22628e-12
-4.19616 -35.3002 2.2482e-12
-1.22628e-12 2.2482e-12 -6.74517

-24.4837 8.66996 -1.06729e-13
8.66996 32.1288 -1.06818e-12
-1.06729e-13 -1.06818e-12 -4.93776

-11.8084 6.28565 7.11388e-12
6.28565 -11.9693 5.80602e-12
7.11388e-12 5.80602e-12 -75.6014

22.744 1.87614 1.89774e-12
1.87614 -33.4747 -2.10276e-12
1.89774e-12 -2.10276e-12 -6.68113

-12.3912 -27.7183 -1.87406e-12
-27.7183 1.59816 -1.54543e-12
-1.87406e-12 -1.54543e-12 -6.60651

21.3049 6.85007 6.60213e-13
6.85007 -34.3096 -5.48983e-12
6.60213e-13 -5.48983e-12 -6.81035

-37.9087 19.114 -4.95085e-13
19.114 2.65365 -2.82056e-12
-4.95085e-13 -2.82056e-12 -9.4609

106.615 4.18198 6.2812e-12
4.18198 20.6041 1.95784e-12
6.2812e-12 1.95784e-12 -12.0482

-5.30398 30.7487 -3.43962e-12
30.7487 -7.27511 -4.70468e-12
-3.43962e-12 -4.70468e-12 -7.44512

27.8906 37.0799 -6.11422e-12
37.0799 26.4697 3.1702e-12
-6.11422e-12 3.1702e-12 -8.63474

-9.43921 10.3236 1.17802e-12
10.3236 -32.924 3.1745e-13
1.17802e-12 3.1745e-13 -49.4983

19.8312 14.2175 2.49697e-12
14.2175 -29.3629 -1.11481e-12
2.49697e-12 -1.11481e-12 -6.00425

-4.21423 -17.783 -5.21242e-12
-17.783 59.6629 7.93913e-12
-5.21242e-12 7.93913e-12 -8.47864

66.2903 -42.1067 -2.52716e-12
-42.1067 71.1459 5.46171e-12
-2.52716e-12 5.46171e-12 -11.2505

-48.2073 5.98515 2.43542e-12
5.98515 7.26894 -3.41297e-12
2.43542e-12 -3.41297e-12 -41.0302

-26.2902 -4.83824 -7.32747e-14
-4.83824 1.75655 5.13397e-12
-7.32747e-14 5.13397e-12 -37.7955

-1.468 21.0272 8.19197e-13
21.0272 -39.5032 3.61444e-12
8.19197e-13 3.61444e-12 -41.0961

-43.9699 5.06509 3.73968e-12
5.06509 0.513992 -1.45839e-12
3.73968e-12 -1.45839e-12 -52.1799

-2.76158 -9.17105 -4.47227e-12
-9.17105 -20.7676 2.53427e-12
-4.47227e-12 2.53427e-12 -35.8905

-3.97644 -28.0006 3.426e-12
-28.0006 -4.61152 -1.59872e-13
3.426e-12 -1.59872e-13 -5.99786

65.604 41.5259 2.60769e-12
41.5259 73.1739 -1.3974e-13
2.60769e-12 -1.3974e-13 -10.9622

60.1605 -17.9517 -1.64017e-12
-17.9517 0.113585 2.02742e-12
-1.64017e-12 2.02742e-12 -8.05243

-41.7979 -3.70399 -2.19469e-12
-3.70399 -1.18568 -2.35959e-13
-2.19469e-12 -2.35959e-13 -52.7146

-14.5907 19.5519 2.51947e-12
19.5519 -28.5491 1.7953e-12
2.51947e-12 1.7953e-12 -52.8227

18.1419 -12.2738 -9.76404e-13
-12.2738 -29.9028 4.48382e-12
-9.76404e-13 4.48382e-12 -6.2264

38.1759 -43.3049 3.60008e-12
-43.3049 41.8045 -8.02913e-13
3.60008e-12 -8.02913e-13 -14.56

58.1489 -18.0659 -1.23279e-12
-18.0659 -2.30656 2.43657e-12
-1.23279e-12 2.43657e-12 -7.91623

-21.4472 17.0879 -3.08154e-12
17.0879 30.3284 1.94037e-12
-3.08154e-12 1.94037e-12 -5.7321

-11.3762 19.3416 1.02733e-13
19.3416 25.5113 -2.00136e-13
1.02733e-13 -2.00136e-13 -3.92531

20.791 -16.3025 -2.91026e-12
-16.3025 -33.1192 4.02434e-12
-2.91026e-12 4.02434e-12 -7.31528

12.6139 -34.1903 -3.69127e-12
-34.1903 46.439 -4.15075e-12
-3.69127e-12 -4.15075e-12 -10.3996

62.3656 19.1846 -5.07564e-12
19.1846 2.80743 -2.62901e-12
-5.07564e-12 -2.62901e-12 -8.41613

46.5166 -25.2919 -1.23753e-12
-25.2919 5.13124 -4.26918e-12
-1.23753e-12 -4.26918e-12 -5.61289

-31.897 19.4835 8.30151e-13
19.4835 -4.2846 5.93303e-13
8.30151e-13 5.93303e-13 -26.0829

37.0408 29.6536 1.89715e-12
29.6536 14.5114 4.21589e-12
1.89715e-12 4.21589e-12 -5.43529

-27.4477 -21.8127 1.13154e-12
-21.8127 -8.23123 4.49403e-12
1.13154e-12 4.49403e-12 -25.2455

64.8742 -42.7167 -8.84863e-12
-42.7167 44.0836 5.01051e-12
-8.84863e-12 5.01051e-12 -9.50237

-27.7483 5.45718 -1.69953e-12
5.45718 2.66895 9.31699e-13
-1.69953e-12 9.31699e-13 -38.301

-5.56195 -5.33063 -1.0453e-11
-5.33063 57.3926 3.9672e-13
-1.0453e-11 3.9672e-13 -5.45233

-0.202292 10.3848 -1.15315e-12
10.3848 -24.845 6.4497e-13
-1.15315e-12 6.4497e-13 -38.3625

-26.4897 21.4154 -4.12707e-13
21.4154 12.2191 -2.29091e-12
-4.12707e-13 -2.29091e-12 -6.87353

4.72532 5.75491 1.4504e-12
5.75491 -56.0404 -8.39329e-13
1.4504e-12 -8.39329e-13 -13.9828

0.540689 11.459 1.46934e-12
11.459 -34.058 -2.86882e-12
1.46934e-12 -2.86882e-12 -14.8404

106.354 31.8231 -5.99224e-13
31.8231 37.8357 1.94689e-12
-5.99224e-13 1.94689e-12 -7.48871

-35.4935 -6.0363 2.43583e-12
-6.0363 10.6014 -2.82204e-12
2.43583e-12 -2.82204e-12 -13.4799

-35.3608 9.52069 -4.28857e-12
9.52069 1.23405 -6.03369e-13
-4.28857e-12 -6.03369e-13 -14.9607

-42.5905 -2.88167 1.88183e-13
-2.88167 21.1105 -2.88776e-12
1.88183e-13 -2.88776e-12 -11.2408

-44.9094 23.4012 -1.29852e-12
23.4012 -5.89265 -4.89682e-13
-1.29852e-12 -4.89682e-13 -13.9237

9.97094 8.46432 -9.22521e-13
8.46432 -42.3817 -1.59191e-12
-9.22521e-13 -1.59191e-12 -9.08114

-12.3376 -28.2425 -7.98176e-13
-28.2425 1.68566 1.2174e-12
-7.98176e-13 1.2174e-12 -6.67771

1.30879 -1.71158 3.3286e-12
-1.71158 -55.4576 -2.24332e-12
3.3286e-12 -2.24332e-12 -11.3068

-31.8866 -19.2595 -2.2012e-12
-19.2595 -4.59385 -1.8255e-12
-2.2012e-12 -1.8255e-12 -25.9523

-27.973 21.3078 3.00678e-12
21.3078 -8.36091 7.82906e-13
3.00678e-12 7.82906e-13 -26.0106

-0.655212 -16.5858 6.99589e-13
-16.5858 61.6791 1.00779e-12
6.99589e-13 1.00779e-12 -7.95125

-0.650442 -27.9373 -2.57216e-12
-27.9373 -21.364 -3.38751e-12
-2.57216e-12 -3.38751e-12 -12.7925

-14.0958 -25.137 -8.73968e-13
-25.137 7.40626 4.96551e-12
-8.73968e-13 4.96551e-12 -5.23954

91.6881 -31.7144 -4.26089e-12
-31.7144 19.4866 3.08376e-12
-4.26089e-12 3.08376e-12 -16.3322

-33.7085 3.22316 5.59404e-13
3.22316 9.20044 4.12588e-12
5.59404e-13 4.12588e-12 -18.5628

2.75042 28.9453 5.12716e-12
28.9453 -24.4262 -7.54952e-14
5.12716e-12 -7.54952e-14 -11.3185

-38.437 19.6651 3.10877e-12
19.6651 5.22928 -8.02617e-13
3.10877e-12 -8.02617e-13 -9.23842

50.1944 8.00064 1.71596e-12
8.00064 -16.9696 -1.46579e-12
1.71596e-12 -1.46579e-12 -7.07022

60.0366 -33.9401 2.82559e-12
-33.9401 33.7883 -1.47319e-12
2.82559e-12 -1.47319e-12 -6.98486

-18.963 -10.5868 1.00571e-12
-10.5868 -0.540342 8.23045e-13
1.00571e-12 8.23045e-13 -25.4282

-33.9257 23.9004 1.22687e-12
23.9004 -12.0251 1.4466e-12
1.22687e-12 1.4466e-12 -14.5417

58.1613 -32.3883 -1.52056e-12
-32.3883 18.091 -2.67993e-12
-1.52056e-12 -2.67993e-12 -10.1353

66.8657 10.7926 -4.68129e-12
10.7926 8.51097 -4.29819e-12
-4.68129e-12 -4.29819e-12 -5.08638

7.67292 -21.2088 2.53072e-12
-21.2088 88.4739 -3.27323e-12
2.53072e-12 -3.27323e-12 -11.8627

-33.9908 14.4267 -1.44581e-12
14.4267 20.2383 -1.27779e-12
-1.44581e-12 -1.27779e-12 -7.54995

8.47443 23.1452 -2.89309e-12
23.1452 -26.076 -2.80102e-12
-2.89309e-12 -2.80102e-12 -11.3009

34.8711 42.2043 -1.86754e-12
42.2043 46.2032 -5.10288e-12
-1.86754e-12 -5.10288e-12 -14.4215

-4.39433 16.505 -2.95349e-12
16.505 -35.5358 9.64858e-13
-2.95349e-12 9.64858e-13 -73.2694

-5.98415 -4.10899 2.54878e-12
-4.10899 57.9531 4.70971e-12
2.54878e-12 4.70971e-12 -5.44454

-1.81938 -16.6303 -1.92032e-12
-16.6303 -39.3951 7.86304e-12
-1.92032e-12 7.86304e-12 -74.0924

-3.33081 -27.3347 1.81958e-12
-27.3347 -30.0291 3.93537e-12
1.81958e-12 3.93537e-12 -21.5529

8.96624 27.4255 -2.77052e-12
27.4255 -29.9978 -2.11416e-12
-2.77052e-12 -2.11416e-12 -11.2593

45.7144 -24.4139 9.91207e-13
-24.4139 5.02158 1.52589e-12
9.91207e-13 1.52589e-12 -5.23897

10.0935 31.3278 -2.75691e-12
31.3278 47.1667 -3.60127e-12
-2.75691e-12 -3.60127e-12 -9.64276

14.2713 -10.7065 6.31791e-12
-10.7065 82.8469 -7.20964e-12
6.31791e-12 -7.20964e-12 -6.44811

-38.634 21.9715 8.38144e-13
21.9715 2.94105 -1.54839e-13
8.38144e-13 -1.54839e-13 -8.57205

1.19331 16.7954 -2.6219e-12
16.7954 -25.7242 -2.90316e-12
-2.6219e-12 -2.90316e-12 -18.567

-26.5411 15.1556 -8.20085e-13
15.1556 18.4495 -2.30334e-12
-8.20085e-13 -2.30334e-12 -5.71141

43.6618 15.9558 3.49824e-12
15.9558 -7.28931 -9.70483e-13
3.49824e-12 -9.70483e-13 -4.07844

12.5753 -21.4756 -9.35548e-14
-21.4756 57.9604 -2.11742e-12
-9.35548e-14 -2.11742e-12 -4.71624

66.0025 -29.3946 -1.05397e-12
-29.3946 18.6433 -8.91731e-13
-1.05397e-12 -8.91731e-13 -9.33654

-32.3828 -24.5745 -2.51458e-12
-24.5745 -7.28288 -1.70797e-12
-2.51458e-12 -1.70797e-12 -8.97968

-22.669 27.4529 -4.0569e-12
27.4529 -10.3524 -2.01824e-12
-4.0569e-12 -2.01824e-12 -9.28719

-38.3522 23.1884 1.21769e-12
23.1884 1.99063 -3.1406e-12
1.21769e-12 -3.1406e-12 -8.52798

-51.5542 13.1687 -6.87459e-13
13.1687 11.9256 3.40113e-12
-6.87459e-13 3.40113e-12 -16.4672

23.4855 9.37282 3.94943e-12
9.37282 -29.492 3.3246e-12
3.94943e-12 3.3246e-12 -5.32504

3.76623 -4.66561 4.22181e-12
-4.66561 79.446 1.99663e-12
4.22181e-12 1.99663e-12 -9.53274

-44.9383 -36.8314 -2.80428e-12
-36.8314 -19.8283 2.22666e-12
-2.80428e-12 2.22666e-12 -14.7724

-16.083 27.4682 -2.45167e-12
27.4682 1.3393 -2.19854e-12
-2.45167e-12 -2.19854e-12 -6.91857

-5.01841 2.17049 1.95681e-12
2.17049 82.6823 -5.56118e-12
1.95681e-12 -5.56118e-12 -13.4323

69.0519 34.615 -3.65219e-12
34.615 15.4963 -1.69938e-12
-3.65219e-12 -1.69938e-12 -10.707

-31.3546 -22.9756 -2.23392e-12
-22.9756 -4.63349 2.7948e-13
-2.23392e-12 2.7948e-13 -8.53341

11.7431 5.73293 2.41969e-12
5.73293 -48.3375 -1.11333e-12
2.41969e-12 -1.11333e-12 -8.64437

43.0684 27.2078 2.04755e-12
27.2078 10.4501 -1.8859e-12
2.04755e-12 -1.8859e-12 -5.08361

-9.41214 12.7445 4.1432e-12
12.7445 -14.0408 1.76748e-12
4.1432e-12 1.76748e-12 -37.0338

70.3411 24.3338 -6.76437e-12
24.3338 23.8052 -3.66818e-12
-6.76437e-12 -3.66818e-12 -6.8006

-10.5831 -13.054 3.22616e-12
-13.054 -13.9227 -7.14243e-12
3.22616e-12 -7.14243e-12 -37.3715

-4.38353 0.778697 1.79249e-12
0.778697 59.403 8.60941e-13
1.79249e-12 8.60941e-13 -4.83343

38.3593 -2.23562 -3.25665e-12
-2.23562 -23.8169 -2.67416e-12
-3.25665e-12 -2.67416e-12 -5.83613

3.59295 -15.7662 -1.27409e-12
-15.7662 -53.9681 1.08743e-12
-1.27409e-12 1.08743e-12 -21.1233

-42.2785 24.3884 -1.00961e-14
24.3884 -11.737 1.61382e-12
-1.00961e-14 1.61382e-12 -11.1705

-46.8128 -13.5354 -1.8734e-12
-13.5354 11.0665 -2.25597e-13
-1.8734e-12 -2.25597e-13 -12.3556

5.80952 -7.99933 -1.81129e-12
-7.99933 -70.9646 2.15309e-12
-1.81129e-12 2.15309e-12 -14.8836

-49.5384 -22.2817 4.47494e-13
-22.2817 3.74687 4.51787e-13
4.47494e-13 4.51787e-13 -22.1033

-17.4582 -6.59872 1.90218e-12
-6.59872 -13.1154 -4.55528e-12
1.90218e-12 -4.55528e-12 -34.7755

-28.7308 -29.9086 2.50526e-12
-29.9086 -9.40014 1.13124e-12
2.50526e-12 1.13124e-12 -8.99902

15.6926 11.4551 -2.59348e-13
11.4551 80.1882 -7.56491e-12
-2.59348e-13 -7.56491e-12 -6.53176

42.2925 -28.1504 2.29742e-13
-28.1504 11.0491 -5.79862e-12
2.29742e-13 -5.79862e-12 -5.04688

-47.1701 -13.7703 -1.71307e-12
-13.7703 4.19631 -5.03893e-13
-1.71307e-12 -5.03893e-13 -29.2972

2.9644 0.505066 2.21601e-12
0.505066 -56.8133 -6.06108e-13
2.21601e-12 -6.06108e-13 -11.0083

-39.3381 -21.5239 -6.38008e-14
-21.5239 -8.85664 -1.02881e-12
-6.38008e-14 -1.02881e-12 -14.7757

-40.1956 25.6983 2.86438e-13
25.6983 -14.6921 -2.3358e-12
2.86438e-13 -2.3358e-12 -11.3138

32.2615 -31.4688 8.33703e-13
-31.4688 38.4314 -1.55727e-12
8.33703e-13 -1.55727e-12 -4.65041

-31.468 -7.08239 -1.06974e-12
-7.08239 1.70186 -1.15463e-14
-1.06974e-12 -1.15463e-14 -40.9847

36.6321 -33.081 -5.43684e-12
-33.081 72.0339 -4.02404e-12
-5.43684e-12 -4.02404e-12 -7.14524

16.6131 -19.1814 -2.4265e-12
-19.1814 -25.8738 -2.55618e-12
-2.4265e-12 -2.55618e-12 -7.13642

1.50226 1.97155 -2.94587e-12
1.97155 -51.3916 1.66533e-12
-2.94587e-12 1.66533e-12 -15.3755

-12.8724 17.8741 3.09974e-13
17.8741 -16.9563 6.8141e-12
3.09974e-13 6.8141e-12 -41.0523

10.7112 20.1857 -4.52201e-12
20.1857 59.459 7.62649e-13
-4.52201e-12 7.62649e-13 -4.35895

4.31683 27.2128 -4.63037e-13
27.2128 -16.2251 -4.58567e-12
-4.63037e-13 -4.58567e-12 -8.12694

30.9057 -24.5144 1.72307e-12
-24.5144 -8.13635 3.52429e-12
1.72307e-12 3.52429e-12 -4.87574

-37.7908 -17.8395 -1.20622e-12
-17.8395 2.40067 2.4265e-12
-1.20622e-12 2.4265e-12 -9.86752

55.5181 35.0727 -5.00341e-12
35.0727 42.3482 3.29573e-12
-5.00341e-12 3.29573e-12 -6.63729

-40.017 -21.8315 3.29855e-12
-21.8315 2.53662 2.37114e-12
3.29855e-12 2.37114e-12 -9.39705

2.96546 30.8522 -1.71833e-12
30.8522 -17.3918 4.22181e-13
-1.71833e-12 4.22181e-13 -9.08117

18.5374 -25.246 3.81917e-13
-25.246 -19.422 6.01297e-12
3.81917e-13 6.01297e-12 -6.34588

-15.6565 -25.1287 -3.66226e-12
-25.1287 5.89509 7.75084e-13
-3.66226e-12 7.75084e-13 -5.77919

42.721 -18.6906 1.77044e-12
-18.6906 -9.17026 -6.63173e-12
1.77044e-12 -6.63173e-12 -5.37248

27.4327 -18.8518 4.52912e-12
-18.8518 -20.3731 2.03807e-12
4.52912e-12 2.03807e-12 -5.69343

-41.3943 -25.3377 1.31332e-12
-25.3377 -14.9646 2.36093e-12
1.31332e-12 2.36093e-12 -11.5699

29.7818 35.9743 1.16766e-12
35.9743 25.2274 4.52379e-12
1.16766e-12 4.52379e-12 -8.64684

-28.5213 15.3784 1.15463e-13
15.3784 18.5189 -1.66741e-12
1.15463e-13 -1.66741e-12 -5.87735

-23.1097 26.424 -8.03505e-13
26.424 -12.5485 3.30787e-12
-8.03505e-13 3.30787e-12 -9.96112

-42.0982 25.4736 3.21848e-12
25.4736 -11.5926 -9.93428e-13
3.21848e-12 -9.93428e-13 -10.9958

-37.2909 11.6228 3.6294e-12
11.6228 11.8441 -2.21216e-12
3.6294e-12 -2.21216e-12 -9.08315

64.3987 -8.22808 -3.36205e-12
-8.22808 3.19459 1.58569e-12
-3.36205e-12 1.58569e-12 -4.25318

8.73166 18.609 3.67055e-12
18.609 59.2248 -2.07242e-12
3.67055e-12 -2.07242e-12 -4.16463

-25.6178 -24.3822 1.18572e-12
-24.3822 0.457839 -2.5769e-12
1.18572e-12 -2.5769e-12 -7.21921

-1.14413 25.6689 1.13509e-12
25.6689 13.7521 3.53732e-12
1.13509e-12 3.53732e-12 -4.08629

32.3798 -35.6342 6.86384e-12
-35.6342 21.6999 -2.71842e-12
6.86384e-12 -2.71842e-12 -8.48861

59.5416 38.3217 -4.40063e-12
38.3217 17.8479 -7.33517e-12
-4.40063e-12 -7.33517e-12 -13.7233

12.1235 -33.3156 -5.64941e-12
-33.3156 42.9162 -3.52192e-12
-5.64941e-12 -3.52192e-12 -9.54512

30.5521 -31.1638 5.4996e-12
-31.1638 36.8153 -1.78938e-12
5.4996e-12 -1.78938e-12 -4.40775

11.7689 -6.8386 9.40581e-13
-6.8386 -48.8393 1.90122e-12
9.40581e-13 1.90122e-12 -8.77314

25.2745 30.3459 3.12284e-12
30.3459 41.0914 -5.4925e-12
3.12284e-12 -5.4925e-12 -4.45828

62.6875 13.2964 2.3294e-12
13.2964 5.22542 4.30619e-12
2.3294e-12 4.30619e-12 -4.30773

-7.03009 13.3807 5.45282e-12
13.3807 61.3494 -8.11203e-13
5.45282e-12 -8.11203e-13 -8.69746

11.7278 -22.3434 3.58587e-12
-22.3434 55.7675 6.59857e-12
3.58587e-12 6.59857e-12 -4.30372

-47.2601 -1.0925 -8.44288e-13
-1.0925 12.4088 -1.24582e-12
-8.44288e-13 -1.24582e-12 -22.1605

-5.92324 2.24697 -2.70924e-12
2.24697 59.0091 1.47793e-12
-2.70924e-12 1.47793e-12 -5.26521

6.26633 31.0935 5.01643e-12
31.0935 47.8687 -4.358e-12
5.01643e-12 -4.358e-12 -9.66292

-39.7268 12.1088 -2.17965e-12
12.1088 12.8441 2.13755e-13
-2.17965e-12 2.13755e-13 -9.31549

40.7405 -27.6513 2.72848e-12
-27.6513 8.35547 -3.57225e-12
2.72848e-12 -3.57225e-12 -5.64477

7.53827 20.5571 -2.42769e-12
20.5571 -47.4674 -7.98768e-13
-2.42769e-12 -7.98768e-13 -16.4826

-3.4224 26.2704 4.14839e-12
26.2704 -31.4856 -2.76964e-12
4.14839e-12 -2.76964e-12 -22.2509

15.777 -18.5694 8.78704e-13
-18.5694 -30.0169 6.26225e-12
8.78704e-13 6.26225e-12 -8.18601

4.42751 -1.80348 1.64431e-12
-1.80348 -34.1329 6.93963e-13
1.64431e-12 6.93963e-13 -24.437

-14.3416 -31.8133 -8.73672e-13
-31.8133 -11.9324 4.98416e-12
-8.73672e-13 4.98416e-12 -9.05254

56.2228 23.3309 1.74675e-12
23.3309 0.813512 -2.3815e-12
1.74675e-12 -2.3815e-12 -8.29041

-27.8291 30.1626 1.69909e-12
30.1626 -9.23674 -1.73876e-12
1.69909e-12 -1.73876e-12 -8.80329

-27.0048 29.2065 -2.69592e-12
29.2065 -9.20199 -8.20381e-13
-2.69592e-12 -8.20381e-13 -8.68059

28.6291 30.665 -5.15143e-13
30.665 40.4081 2.7723e-12
-5.15143e-13 2.7723e-12 -4.45122

0.343039 27.0864 5.1763e-12
27.0864 -19.8491 -9.55976e-13
5.1763e-12 -9.55976e-13 -11.7788

64.514 3.52562 -2.46677e-12
3.52562 -11.8307 -5.56266e-12
-2.46677e-12 -5.56266e-12 -10.0208

-14.9009 31.8172 -1.61708e-12
31.8172 -20.799 2.05169e-12
-1.61708e-12 2.05169e-12 -12.4493

-37.9473 -12.5993 -1.3282e-12
-12.5993 8.1803 4.65998e-13
-1.3282e-12 4.65998e-13 -14.0241

-0.474637 24.2774 2.82826e-12
24.2774 -30.0003 -1.81514e-12
2.82826e-12 -1.81514e-12 -20.7702

-23.7286 -29.5794 3.61666e-12
-29.5794 -11.9351 -3.67706e-13
3.61666e-12 -3.67706e-13 -8.84616

-38.1519 -4.89738 -3.12705e-12
-4.89738 18.8469 -2.04222e-12
-3.12705e-12 -2.04222e-12 -11.7318

69.9511 -24.5596 2.46558e-12
-24.5596 18.0282 6.07692e-12
2.46558e-12 6.07692e-12 -7.04564

39.9842 29.6971 -1.00187e-12
29.6971 13.478 9.20153e-13
-1.00187e-12 9.20153e-13 -5.21774

-4.30004 14.6986 -1.10919e-12
14.6986 60.5766 4.51195e-13
-1.10919e-12 4.51195e-13 -8.40332

1.61123 -1.13928 -2.95615e-13
-1.13928 -56.1246 1.92668e-12
-2.95615e-13 1.92668e-12 -11.2121

9.61415 0.00216279 2.49134e-12
0.00216279 -44.7581 1.88276e-12
2.49134e-12 1.88276e-12 -8.44154

-31.0818 23.1256 5.22841e-13
23.1256 -4.33823 1.61648e-13
5.22841e-13 1.61648e-13 -8.46197

-34.7619 23.8716 -4.37872e-13
23.8716 -13.194 2.26946e-12
-4.37872e-13 2.26946e-12 -14.8145

-43.3798 -24.381 8.67251e-13
-24.381 -12.6138 -2.91619e-14
8.67251e-13 -2.91619e-14 -11.4715

-39.0624 -0.673556 -1.30664e-12
-0.673556 21.0463 -5.90579e-12
-1.30664e-12 -5.90579e-12 -10.4976

-40.8073 25.5911 -1.9161e-12
25.5911 -13.2235 4.86973e-12
-1.9161e-12 4.86973e-12 -11.1752

32.3233 -10.3092 -2.28558e-13
-10.3092 -25.1595 -3.70045e-12
-2.28558e-13 -3.70045e-12 -6.018

8.70457 -32.8381 2.18788e-12
-32.8381 22.7977 -8.75744e-13
2.18788e-12 -8.75744e-13 -6.99537

2.3964 -2.30213 -6.93075e-13
-2.30213 -49.9614 3.33659e-13
-6.93075e-13 3.33659e-13 -14.7741

36.7474 -34.5131 4.02167e-12
-34.5131 24.4799 -1.79294e-12
4.02167e-12 -1.79294e-12 -7.71143

-38.2954 19.0859 -7.20609e-13
19.0859 -7.09309 -3.40498e-12
-7.20609e-13 -3.40498e-12 -14.4509

7.87047 -26.4794 1.83971e-12
-26.4794 -27.9976 8.65086e-13
1.83971e-12 8.65086e-13 -10.9711

63.9531 -9.69164 -1.84031e-12
-9.69164 5.67477 1.59132e-13
-1.84031e-12 1.59132e-13 -5.07451

6.03885 -23.1929 1.59398e-12
-23.1929 -35.4691 -3.33008e-12
1.59398e-12 -3.33008e-12 -17.7362

0.141479 2.35845 -1.36853e-12
2.35845 -56.175 -9.17858e-13
-1.36853e-12 -9.17858e-13 -11.5488

-4.06272 -23.3229 -2.89546e-12
-23.3229 -23.4122 1.13376e-12
-2.89546e-12 1.13376e-12 -16.72

11.038 -25.8603 -7.21615e-12
-25.8603 -29.489 -3.12698e-12
-7.21615e-12 -3.12698e-12 -9.73617

10.2008 -8.54723 1.90337e-12
-8.54723 -43.4936 1.06759e-12
1.90337e-12 1.06759e-12 -9.28469

-35.4173 -23.0688 -1.7355e-12
-23.0688 -12.6474 6.4676e-13
-1.7355e-12 6.4676e-13 -15.1044

23.6644 -31.3461 -2.21334e-12
-31.3461 5.71 9.66338e-13
-2.21334e-12 9.66338e-13 -5.88166

11.0588 -24.5894 -6.87746e-12
-24.5894 -27.4971 -8.28967e-14
-6.87746e-12 -8.28967e-14 -10.0504

46.6465 10.8659 -4.75827e-12
10.8659 -16.1229 -9.78181e-13
-4.75827e-12 -9.78181e-13 -6.80328

-14.1864 26.3416 3.1554e-12
26.3416 -15.6425 -4.33535e-12
3.1554e-12 -4.33535e-12 -14.1203

-45.2501 -37.6109 -1.73402e-12
-37.6109 -20.6115 1.08032e-12
-1.73402e-12 1.08032e-12 -14.9207

-43.7071 37.2634 1.08891e-12
37.2634 -21.2651 3.76936e-12
1.08891e-12 3.76936e-12 -14.7711

-61.182 -28.5722 -1.02092e-12
-28.5722 -7.49727 -1.03058e-12
-1.02092e-12 -1.03058e-12 -15.2012

-58.4133 27.0632 5.5164e-12
27.0632 -6.27185 -1.66474e-12
5.5164e-12 -1.66474e-12 -14.4799

5.60017 -8.52689 -3.43429e-13
-8.52689 -71.0611 -1.01386e-12
-3.43429e-13 -1.01386e-12 -14.7114

4.39716 9.27284 -7.66054e-13
9.27284 -68.83 -9.78477e-13
-7.66054e-13 -9.78477e-13 -14.4394

9.02373 -9.84722 3.28508e-12
-9.84722 -40.8935 -5.56e-13
3.28508e-12 -5.56e-13 -9.61489

-24.3353 32.1137 3.15984e-12
32.1137 -24.8081 2.9319e-12
3.15984e-12 2.9319e-12 -21.1443

-25.5224 -32.8515 -4.09154e-13
-32.8515 -25.0942 -1.96065e-13
-4.09154e-13 -1.96065e-13 -21.4684

-53.916 16.0679 -2.76505e-12
16.0679 3.40019 -1.8181e-12
-2.76505e-12 -1.8181e-12 -21.4019

-52.4171 -15.8005 2.829e-12
-15.8005 3.29562 1.74379e-13
2.829e-12 1.74379e-13 -21.0752

6.11037 -3.74966 -1.74201e-12
-3.74966 -43.9239 2.87296e-12
-1.74201e-12 2.87296e-12 -25.7626

6.91634 3.61236 2.81982e-12
3.61236 -46.3471 -1.9457e-12
2.81982e-12 -1.9457e-12 -26.1389

-15.6312 9.83822 -3.48477e-12
9.83822 46.2657 -3.83693e-12
-3.48477e-12 -3.83693e-12 -5.85143

-22.9204 -24.7759 2.2086e-13
-24.7759 -14.5534 -4.42609e-14
2.2086e-13 -4.42609e-14 -10.3328

-56.6015 -36.386 1.72884e-12
-36.386 -14.5323 1.94348e-12
1.72884e-12 1.94348e-12 -13.4395

33.3604 -4.66469 2.67046e-12
-4.66469 -19.8517 1.43008e-12
2.67046e-12 1.43008e-12 -3.94874

3.43267 -16.6927 -2.11609e-12
-16.6927 -52.6259 1.20555e-12
-2.11609e-12 1.20555e-12 -21.5316

3.67384 16.1737 1.87554e-13
16.1737 -51.8816 1.27098e-12
1.87554e-13 1.27098e-12 -21.4049

6.55525 0.12186 1.24789e-13
0.12186 -76.7521 -3.12956e-12
1.24789e-13 -3.12956e-12 -13.3064

-7.57401 23.3787 8.73672e-13
23.3787 39.9381 3.31587e-13
8.73672e-13 3.31587e-13 -6.88869

-56.8871 36.17 -4.25808e-13
36.17 -14.0109 1.17728e-12
-4.25808e-13 1.17728e-12 -13.3912

-39.7955 -23.3964 -1.15966e-12
-23.3964 2.56113 4.04328e-12
-1.15966e-12 4.04328e-12 -8.8039

37.1187 23.356 3.62969e-12
23.356 -8.61743 -6.987e-14
3.62969e-12 -6.987e-14 -5.76212

4.73358 23.8591 -1.78228e-12
23.8591 -38.2264 -1.01015e-12
-1.78228e-12 -1.01015e-12 -18.9857

24.0136 -31.3179 -1.62833e-12
-31.3179 6.40603 1.62537e-12
-1.62833e-12 1.62537e-12 -5.65161

2.43039 -3.2322 -2.78177e-12
-3.2322 -48.3705 2.25301e-12
-2.78177e-12 2.25301e-12 -14.7441

-60.4548 -34.1598 -3.38529e-12
-34.1598 -14.3498 2.06827e-12
-3.38529e-12 2.06827e-12 -14.0331

-17.4582 8.32108 2.64244e-12
8.32108 45.695 4.78669e-12
2.64244e-12 4.78669e-12 -5.78453

-9.47352 21.8148 -3.50742e-12
21.8148 40.4276 -6.762e-13
-3.50742e-12 -6.762e-13 -6.65721

58.6088 35.7807 -6.30607e-12
35.7807 37.0901 -3.42955e-12
-6.30607e-12 -3.42955e-12 -6.91701

70.4913 1.579 -3.6664e-12
1.579 -5.54697 7.23888e-12
-3.6664e-12 7.23888e-12 -10.376

-30.7592 -22.8053 -2.61628e-12
-22.8053 -13.3578 4.53952e-13
-2.61628e-12 4.53952e-13 -14.4674

32.8429 31.1881 3.75048e-12
31.1881 69.8009 3.59771e-12
3.75048e-12 3.59771e-12 -6.6802

-19.3791 23.6119 4.43379e-12
23.6119 7.68658 -1.51523e-12
4.43379e-12 -1.51523e-12 -5.51686

47.6408 -5.35029 -4.41365e-12
-5.35029 -17.4392 -1.53359e-13
-4.41365e-12 -1.53359e-13 -6.82523

33.2212 11.2175 -1.86695e-12
11.2175 -23.6428 7.58504e-13
-1.86695e-12 7.58504e-13 -6.01774

6.25379 0.429875 -3.46686e-13
0.429875 -77.5492 1.13587e-12
-3.46686e-13 1.13587e-12 -13.4521

-58.9331 -29.0299 -8.48951e-13
-29.0299 -6.28841 -4.04713e-12
-8.48951e-13 -4.04713e-12 -14.6988

-28.3312 -6.31774 2.17574e-12
-6.31774 -11.3545 2.46173e-12
2.17574e-12 2.46173e-12 -51.578

-44.6966 37.4096 9.81733e-13
37.4096 -20.8105 -2.26941e-12
9.81733e-13 -2.26941e-12 -14.7752

93.8003 1.66347 -2.42769e-12
1.66347 16.6549 -3.63731e-12
-2.42769e-12 -3.63731e-12 -6.04366

10.0345 -32.7917 2.3069e-12
-32.7917 21.3107 2.70125e-12
2.3069e-12 2.70125e-12 -6.81165

-56.9339 36.6114 1.00046e-12
36.6114 -14.5707 -5.81017e-13
1.00046e-12 -5.81017e-13 -13.5074

-35.0839 -11.1345 3.50325e-12
-11.1345 19.1775 3.34547e-13
3.50325e-12 3.34547e-13 -8.3196

-5.48167 -25.5183 3.15007e-13
-25.5183 37.3524 -1.53833e-12
3.15007e-13 -1.53833e-12 -6.99045

-58.4497 28.8289 4.48234e-13
28.8289 -6.27179 -2.6148e-12
4.48234e-13 -2.6148e-12 -14.6159

28.4966 -26.1453 -4.57767e-12
-26.1453 -4.91576 8.78704e-13
-4.57767e-12 8.78704e-13 -4.70072

-21.1663 10.4842 -2.96592e-12
10.4842 -18.5585 -5.97063e-12
-2.96592e-12 -5.97063e-12 -51.6736

3.42999 30.8765 -8.52059e-13
30.8765 27.1633 2.10794e-13
-8.52059e-13 2.10794e-13 -6.73645

6.1398 8.126 -9.00021e-14
8.126 -72.2944 9.62341e-13
-9.00021e-14 9.62341e-13 -14.9859

-11.5472 30.1912 1.29615e-12
30.1912 -20.6031 -2.45877e-12
1.29615e-12 -2.45877e-12 -11.5511

-30.8004 23.3336 -1.84282e-12
23.3336 -5.10069 -1.75711e-12
-1.84282e-12 -1.75711e-12 -8.46796

-25.8632 -32.4862 5.59138e-12
-32.4862 -24.1109 -4.23421e-13
5.59138e-12 -4.23421e-13 -21.5578

9.20415 -23.1922 1.41102e-12
-23.1922 -27.9243 -3.5462e-12
1.41102e-12 -3.5462e-12 -11.4276

-37.6623 10.4688 -8.70008e-13
10.4688 8.92903 7.16464e-13
-8.70008e-13 7.16464e-13 -25.3285

-23.0434 -23.4356 2.48364e-12
-23.4356 4.95187 -4.40359e-12
2.48364e-12 -4.40359e-12 -6.26661

88.8128 -9.70928 -1.09897e-12
-9.70928 10.8062 4.5944e-12
-1.09897e-12 4.5944e-12 -10.0315

84.0528 -14.2789 3.81088e-12
-14.2789 2.81067 3.46449e-12
3.81088e-12 3.46449e-12 -13.1976

5.88626 16.5312 1.89034e-12
16.5312 -33.9323 4.75916e-12
1.89034e-12 4.75916e-12 -22.3745

-16.4251 22.5045 3.21817e-12
22.5045 16.2278 7.01246e-12
3.21817e-12 7.01246e-12 -5.08911

-3.91376 29.1657 -2.65269e-12
29.1657 -12.2327 8.42881e-13
-2.65269e-12 8.42881e-13 -8.39942

50.9969 0.688738 1.73254e-12
0.688738 -6.53615 -1.9947e-12
1.73254e-12 -1.9947e-12 -3.63754

-48.1426 6.57026 -1.68458e-13
6.57026 14.7854 1.45188e-12
-1.68458e-13 1.45188e-12 -18.9524

10.1157 16.5406 -5.06854e-13
16.5406 -36.082 -3.76706e-12
-5.06854e-13 -3.76706e-12 -9.13806

-4.50767 -25.7649 4.32247e-12
-25.7649 35.5573 2.53427e-12
4.32247e-12 2.53427e-12 -6.75045

-39.195 -2.57175 2.2119e-12
-2.57175 21.5045 -4.50366e-12
2.2119e-12 -4.50366e-12 -10.6716

-7.99474 13.3672 4.35059e-12
13.3672 44.4083 -1.32753e-12
4.35059e-12 -1.32753e-12 -3.94761

3.73394 -29.7154 4.28102e-13
-29.7154 -17.3681 -2.15946e-12
4.28102e-13 -2.15946e-12 -8.92338

21.4255 -29.9516 -4.25378e-12
-29.9516 14.7553 -1.34411e-13
-4.25378e-12 -1.34411e-13 -3.92118

6.87856 31.6274 1.82254e-12
31.6274 25.4021 1.80004e-12
1.82254e-12 1.80004e-12 -6.83156

2.7842 -15.019 -2.96948e-13
-15.019 -39.261 8.10048e-12
-2.96948e-13 8.10048e-12 -63.2966

-46.1592 2.04216 -1.20888e-12
2.04216 11.4608 2.70954e-12
-1.20888e-12 2.70954e-12 -22.7551

-55.441 20.2983 -4.53415e-12
20.2983 3.09387 1.71626e-12
-4.53415e-12 1.71626e-12 -22.9146

5.91482 15.4374 -8.54132e-13
15.4374 -58.8147 -8.65382e-13
-8.54132e-13 -8.65382e-13 -23.0346

-18.9233 -26.1906 6.13731e-13
-26.1906 -12.915 -1.15197e-12
6.13731e-13 -1.15197e-12 -9.6556

41.3488 17.9595 -2.48216e-12
17.9595 -6.27502 2.36966e-12
-2.48216e-12 2.36966e-12 -3.86473

-44.6809 -5.29255 -8.38154e-13
-5.29255 4.53851 -2.20298e-12
-8.38154e-13 -2.20298e-12 -39.1382

7.49953 -18.9877 2.68319e-12
-18.9877 -39.8959 -1.03354e-12
2.68319e-12 -1.03354e-12 -11.6618

30.2923 -15.6003 4.99689e-12
-15.6003 -20.5133 -4.84827e-12
4.99689e-12 -4.84827e-12 -4.80868

-9.64263 11.605 -3.04379e-12
11.605 44.3221 3.62495e-12
-3.04379e-12 3.62495e-12 -3.86241

8.33185 -25.7379 1.30325e-12
-25.7379 32.9935 -2.53545e-12
1.30325e-12 -2.53545e-12 -3.63622

-10.2435 -25.274 -3.55271e-14
-25.274 -19.1027 -3.99118e-12
-3.55271e-14 -3.99118e-12 -23.1729

17.0042 31.9639 -3.45738e-12
31.9639 11.1957 5.15143e-14
-3.45738e-12 5.15143e-14 -5.74982

-1.0689 -25.1339 1.16115e-12
-25.1339 -30.7639 3.67439e-12
1.16115e-12 3.67439e-12 -20.8904

48.0688 2.59768 -2.47624e-12
2.59768 -8.41412 -6.67755e-12
-2.47624e-12 -6.67755e-12 -3.53483

6.55142 -28.9344 -2.61717e-13
-28.9344 72.0579 -5.29118e-12
-2.61717e-13 -5.29118e-12 -14.5524

21.7912 -29.235 -5.43565e-12
-29.235 13.9627 4.41129e-12
-5.43565e-12 4.41129e-12 -3.93356

35.3531 32.1632 -1.90781e-12
32.1632 74.1414 -3.49824e-12
-1.90781e-12 -3.49824e-12 -5.44232

-45.2858 -11.8761 -3.57414e-12
-11.8761 13.9214 8.71599e-13
-3.57414e-12 8.71599e-13 -15.3274

-14.4256 -13.8233 -7.51399e-12
-13.8233 43.3851 -1.01844e-12
-7.51399e-12 -1.01844e-12 -5.67613

-19.239 -23.9846 -2.06901e-12
-23.9846 -19.8292 1.60923e-12
-2.06901e-12 1.60923e-12 -64.2382

2.43548 23.7742 3.59002e-12
23.7742 36.0087 -2.60532e-14
3.59002e-12 -2.60532e-14 -3.71431

-15.1832 -32.7264 1.76451e-13
-32.7264 -21.121 -2.25597e-13
1.76451e-13 -2.25597e-13 -14.3145

-14.5703 -11.9648 3.53599e-12
-11.9648 45.5336 -1.14516e-12
3.53599e-12 -1.14516e-12 -5.74227

7.83521 -19.1165 1.84593e-12
-19.1165 -43.1229 1.92912e-12
1.84593e-12 1.92912e-12 -12.6337

6.5434 23.8805 6.03961e-14
23.8805 35.1731 2.56506e-12
6.03961e-14 2.56506e-12 -3.4452

23.1744 -4.97579 9.06534e-13
-4.97579 -30.6801 -1.38304e-12
9.06534e-13 -1.38304e-12 -5.36779

36.9733 -30.3458 1.37372e-13
-30.3458 122.639 -3.19271e-12
1.37372e-13 -3.19271e-12 -6.24029

-26.8734 21.0162 3.22705e-14
21.0162 8.4338 -1.20733e-12
3.22705e-14 -1.20733e-12 -7.13373

40.3408 -19.3259 4.88024e-12
-19.3259 -11.377 2.37025e-12
4.88024e-12 2.37025e-12 -5.72934

6.52616 -21.4456 -1.34204e-12
-21.4456 -45.5569 -1.00068e-12
-1.34204e-12 -1.00068e-12 -24.9697

20.7048 31.7584 3.31113e-12
31.7584 9.55568 4.88617e-12
3.31113e-12 4.88617e-12 -5.80935

13.9182 -29.975 -3.42363e-12
-29.975 -7.6091 9.64858e-13
-3.42363e-12 9.64858e-13 -5.94776

6.7554 20.8862 -9.48575e-13
20.8862 -27.795 -3.69837e-12
-9.48575e-13 -3.69837e-12 -11.1106

-38.275 -28.0763 -4.4181e-12
-28.0763 -14.0387 4.49766e-12
-4.4181e-12 4.49766e-12 -11.0638

8.64433 -26.229 4.51372e-12
-26.229 31.1722 8.51467e-13
4.51372e-12 8.51467e-13 -3.63829

15.3303 28.9851 -1.68339e-12
28.9851 19.1536 3.0281e-12
-1.68339e-12 3.0281e-12 -3.88617

28.6413 26.1945 -6.987e-14
26.1945 -5.63687 -4.09628e-12
-6.987e-14 -4.09628e-12 -4.80535

7.91375 -14.6117 1.946e-12
-14.6117 -36.8796 1.64076e-12
1.946e-12 1.64076e-12 -13.9925

-6.84521 -16.6201 3.43547e-12
-16.6201 41.3434 -3.75877e-12
3.43547e-12 -3.75877e-12 -3.96262

17.4409 -17.569 -3.35554e-12
-17.569 -31.0026 -3.7977e-12
-3.35554e-12 -3.7977e-12 -7.10824

19.8416 16.9102 2.64322e-12
16.9102 -31.669 1.99396e-12
2.64322e-12 1.99396e-12 -7.33788

-33.6816 -9.38494 2.02505e-12
-9.38494 8.75654 -1.34766e-12
2.02505e-12 -1.34766e-12 -23.9904

43.4345 -13.4316 1.8936e-12
-13.4316 -8.37295 -5.98144e-12
1.8936e-12 -5.98144e-12 -3.80734

-19.3836 0.594315 -5.18193e-12
0.594315 43.1479 -4.73103e-12
-5.18193e-12 -4.73103e-12 -4.77878

28.0571 18.5567 -3.67824e-12
18.5567 -18.2034 1.29141e-12
-3.67824e-12 1.29141e-12 -4.75309

25.529 27.6073 1.59872e-13
27.6073 -3.77887 -7.66794e-14
1.59872e-13 -7.66794e-14 -4.7745

-6.71905 -15.6884 3.5163e-12
-15.6884 43.8013 -2.76046e-12
3.5163e-12 -2.76046e-12 -3.85109

-19.9116 -1.20225 5.17216e-12
-1.20225 42.1303 4.28576e-12
5.17216e-12 4.28576e-12 -4.69036

-5.47332 29.1348 7.57912e-14
29.1348 -23.6492 5.81135e-12
7.57912e-14 5.81135e-12 -16.7973

-37.277 -10.9232 3.85455e-12
-10.9232 21.6798 4.99156e-13
3.85455e-12 4.99156e-13 -7.83294

27.1438 -26.7187 2.4567e-12
-26.7187 -5.53386 -1.13568e-12
2.4567e-12 -1.13568e-12 -4.94755

40.7214 21.3355 7.36714e-12
21.3355 -8.37425 1.72603e-12
7.36714e-12 1.72603e-12 -5.47077

12.3781 23.6664 3.14178e-12
23.6664 -27.1304 5.41493e-13
3.14178e-12 5.41493e-13 -8.66953

-37.7999 5.47182 -2.29372e-13
5.47182 23.3115 -4.43675e-12
-2.29372e-13 -4.43675e-12 -8.59996

18.5923 29.0696 5.13367e-13
29.0696 17.3773 1.43885e-13
5.13367e-13 1.43885e-13 -3.95023

-9.98758 22.964 -3.91983e-13
22.964 -14.9159 6.36025e-12
-3.91983e-13 6.36025e-12 -24.0237

68.3253 -59.6981 -8.02913e-13
-59.6981 36.3396 7.18832e-12
-8.02913e-13 7.18832e-12 -23.0093

17.5302 -25.0505 3.66522e-13
-25.0505 -17.9952 8.36072e-13
3.66522e-13 8.36072e-13 -6.42081

10.0568 7.0708 6.22909e-13
7.0708 82.5589 7.98176e-13
6.22909e-13 7.98176e-13 -7.16638

11.9191 -28.8925 -3.81739e-12
-28.8925 -3.88353 -9.35548e-13
-3.81739e-12 -9.35548e-13 -5.16911

-66.9427 -52.7053 -1.06581e-14
-52.7053 143.269 8.52651e-13
-1.06581e-14 8.52651e-13 -49.6643

-68.3862 51.4558 -2.65625e-12
51.4558 142.556 -6.46594e-12
-2.65625e-12 -6.46594e-12 -49.8534

19.5785 117.164 -4.78195e-12
117.164 64.1414 1.89478e-14
-4.78195e-12 1.89478e-14 -48.3547

20.5375 -117.106 4.65879e-12
-117.106 61.038 -5.02117e-12
4.65879e-12 -5.02117e-12 -48.7194

157.763 -1.36351 3.76114e-12
-1.36351 -79.186 6.2043e-14
3.76114e-12 6.2043e-14 -48.9065

110.342 -91.1329 -1.80952e-12
-91.1329 -36.6854 1.36187e-12
-1.80952e-12 1.36187e-12 -50.3012

110.395 91.6609 -3.74219e-13
91.6609 -36.4957 -2.74506e-12
-3.74219e-13 -2.74506e-12 -50.174

7.84553 14.3318 1.30177e-12
14.3318 -42.6828 -1.85008e-12
1.30177e-12 -1.85008e-12 -15.0802

-11.7894 25.5352 -5.92563e-12
25.5352 -27.4051 -1.75696e-12
-5.92563e-12 -1.75696e-12 -35.1324

12.4382 6.60682 -7.82544e-12
6.60682 -40.5381 1.25056e-12
-7.82544e-12 1.25056e-12 -8.25589

26.2552 21.7872 3.30994e-12
21.7872 -19.533 -3.53613e-12
3.30994e-12 -3.53613e-12 -5.85434

-21.2353 17.7468 -3.57344e-13
17.7468 29.8694 1.50931e-12
-3.57344e-13 1.50931e-12 -6.16603

22.5301 28.9022 -6.43041e-13
28.9022 -0.777921 -3.89614e-13
-6.43041e-13 -3.89614e-13 -4.73415

4.05386 -29.6656 -1.58569e-12
-29.6656 -17.4682 -1.04006e-12
-1.58569e-12 -1.04006e-12 -8.50709

25.9955 28.0315 -3.27264e-12
28.0315 -2.30441 6.19001e-12
-3.27264e-12 6.19001e-12 -4.73452

-19.3521 -2.84187 1.83039e-12
-2.84187 43.0739 -4.58892e-12
1.83039e-12 -4.58892e-12 -4.77335

-13.4097 -26.0961 -1.54454e-12
-26.0961 -25.8389 2.23688e-12
-1.54454e-12 2.23688e-12 -35.5154

-19.8472 -4.86329 -2.31741e-12
-4.86329 41.7787 1.99899e-12
-2.31741e-12 1.99899e-12 -4.74725

-1.8279 23.0178 4.47168e-12
23.0178 -24.3776 -9.11567e-13
4.47168e-12 -9.11567e-13 -16.1501

44.9855 26.8745 5.69618e-13
26.8745 8.1092 8.9706e-13
5.69618e-13 8.9706e-13 -5.37182

-52.5049 -13.2164 -1.78583e-12
-13.2164 0.149687 -2.60236e-13
-1.78583e-12 -2.60236e-13 -20.6165

20.2808 13.7294 5.41078e-12
13.7294 -31.1465 1.70589e-12
5.41078e-12 1.70589e-12 -7.0465

13.7 -29.9909 4.66767e-12
-29.9909 -6.69471 6.29541e-12
4.66767e-12 6.29541e-12 -5.8387

29.632 -24.7164 6.20778e-12
-24.7164 -7.87755 1.3222e-12
6.20778e-12 1.3222e-12 -4.82851

5.76321 -16.0765 1.98241e-12
-16.0765 -32.3343 8.84922e-13
1.98241e-12 8.84922e-13 -22.2539

12.6274 27.9315 7.34228e-13
27.9315 -13.6424 -1.70856e-12
7.34228e-13 -1.70856e-12 -6.42278

23.309 23.9803 1.03858e-12
23.9803 -17.9474 -1.98419e-12
1.03858e-12 -1.98419e-12 -5.96584

-31.0818 -2.79277 -9.91799e-13
-2.79277 30.1328 -3.17376e-13
-9.91799e-13 -3.17376e-13 -6.40166

-28.6348 5.87379 2.49985e-12
5.87379 33.3227 -4.60076e-13
2.49985e-12 -4.60076e-13 -6.06282

34.5506 2.64705 4.62267e-12
2.64705 -26.1896 -3.63661e-12
4.62267e-12 -3.63661e-12 -6.14583

50.6554 -7.29073 7.35056e-12
-7.29073 -14.0872 -8.39181e-13
7.35056e-12 -8.39181e-13 -6.78184

11.0401 30.4882 -1.14753e-12
30.4882 -4.7907 5.30124e-12
-1.14753e-12 5.30124e-12 -5.96969

17.4669 -26.1582 2.12156e-12
-26.1582 -17.4582 4.20967e-12
2.12156e-12 4.20967e-12 -6.35494

-0.0834855 -21.2548 2.47565e-12
-21.2548 -27.9578 -2.04222e-12
2.47565e-12 -2.04222e-12 -17.1663

4.93695 -31.6377 -2.38506e-12
-31.6377 4.8594 1.53418e-12
-2.38506e-12 1.53418e-12 -5.93867

-8.23102 -27.7894 -1.62833e-13
-27.7894 18.5787 -5.60145e-13
-1.62833e-13 -5.60145e-13 -6.13337

-1.65314 29.8911 -1.82017e-12
29.8911 10.4463 1.32457e-12
-1.82017e-12 1.32457e-12 -5.80376

-26.0219 -9.57901 1.79901e-12
-9.57901 32.9713 4.5759e-12
1.79901e-12 4.5759e-12 -5.79051

-31.3276 -1.54543 1.56763e-13
-1.54543 31.6517 5.8679e-12
1.56763e-13 5.8679e-12 -6.22654

-38.9198 5.7477 -4.05328e-12
5.7477 23.9468 -4.9584e-12
-4.05328e-12 -4.9584e-12 -9.18545

-17.2228 -21.092 1.61234e-12
-21.092 26.5718 -2.75631e-12
1.61234e-12 -2.75631e-12 -5.77541

13.0707 24.1134 4.12885e-12
24.1134 -28.1042 -2.60532e-12
4.12885e-12 -2.60532e-12 -9.20732

21.5557 -9.59079 -2.50822e-12
-9.59079 -31.7116 -4.28161e-12
-2.50822e-12 -4.28161e-12 -6.60142

-27.1589 7.466 3.95693e-12
7.466 34.3361 1.6982e-12
3.95693e-12 1.6982e-12 -5.87722

-35.2403 -9.70147 9.17285e-13
-9.70147 22.3141 -3.36324e-13
9.17285e-13 -3.36324e-13 -8.18615

-29.1604 -16.3325 5.79921e-12
-16.3325 19.3471 2.44604e-12
5.79921e-12 2.44604e-12 -6.66505

36.9703 -8.24023 -5.09578e-12
-8.24023 -20.2422 -1.17447e-12
-5.09578e-12 -1.17447e-12 -5.10477

-14.8108 -32.3468 -1.07588e-12
-32.3468 -21.6278 9.33476e-13
-1.07588e-12 9.33476e-13 -12.9944

-22.8286 9.3224 5.32448e-12
9.3224 33.3248 1.24404e-12
5.32448e-12 1.24404e-12 -4.79195

-0.752004 -18.2132 -1.20792e-12
-18.2132 -35.1559 -1.19815e-12
-1.20792e-12 -1.19815e-12 -33.2726

4.93072 24.8262 -2.00728e-13
24.8262 75.315 -3.43903e-12
-2.00728e-13 -3.43903e-12 -14.3199

-14.142 -26.6274 6.9574e-14
-26.6274 -16.3526 1.80863e-12
6.9574e-14 1.80863e-12 -14.6417

-6.35723 -30.203 -4.08088e-12
-30.203 -23.6049 -2.65773e-12
-4.08088e-12 -2.65773e-12 -17.0881

-31.2756 -0.700884 1.87161e-12
-0.700884 31.5015 2.1565e-12
1.87161e-12 2.1565e-12 -6.3514

28.4892 -16.6242 -6.07514e-13
-16.6242 -18.0612 1.17269e-12
-6.07514e-13 1.17269e-12 -4.44117

-37.8085 12.842 3.90245e-12
12.842 11.1652 1.3672e-12
3.90245e-12 1.3672e-12 -10.9911

-8.86149 -3.18132 -1.27408e-11
-3.18132 111.065 9.04758e-13
-1.27408e-11 9.04758e-13 -22.6703

-31.6075 14.2751 2.28284e-12
14.2751 21.3507 -2.51414e-12
2.28284e-12 -2.51414e-12 -7.12768

12.4207 -29.4928 -1.58866e-12
-29.4928 -2.52154 -3.53673e-12
-1.58866e-12 -3.53673e-12 -4.93137

33.6348 25.1084 -4.95011e-13
25.1084 124.043 -4.4101e-12
-4.95011e-13 -4.4101e-12 -6.21273

-13.5006 26.0945 2.0924e-12
26.0945 -19.0963 -8.48728e-12
2.0924e-12 -8.48728e-12 -58.8819

-9.55172 -27.8034 -1.664e-12
-27.8034 -22.805 5.39006e-12
-1.664e-12 5.39006e-12 -59.5321

-2.86785 -30.4221 1.10608e-12
-30.4221 -7.32409 -3.81117e-12
1.10608e-12 -3.81117e-12 -7.29056

3.85803 -31.1644 -2.58519e-12
-31.1644 5.63378 -4.84353e-12
-2.58519e-12 -4.84353e-12 -6.0659

25.153 20.8295 3.04527e-12
20.8295 -17.0386 4.38701e-12
3.04527e-12 4.38701e-12 -4.98003

31.8065 15.008 1.51642e-12
15.008 -23.3065 3.42274e-12
1.51642e-12 3.42274e-12 -5.9582

-9.48619 3.08125 -2.10891e-12
3.08125 -9.82887 2.75602e-12
-2.10891e-12 2.75602e-12 -80.9168

-5.54727 -6.99675 -1.14876e-11
-6.99675 -14.0388 -3.40987e-12
-1.14876e-11 -3.40987e-12 -80.2696

11.749 4.82417 1.51938e-12
4.82417 -43.2085 -5.72845e-12
1.51938e-12 -5.72845e-12 -7.83062

-35.0605 6.73214 -2.16123e-14
6.73214 24.3757 -1.65675e-12
-2.16123e-14 -1.65675e-12 -7.56671

-36.1152 6.73644 -2.54251e-12
6.73644 24.433 4.86722e-13
-2.54251e-12 4.86722e-13 -8.31171

74.5955 58.6413 7.29727e-12
58.6413 34.1781 -2.79717e-12
7.29727e-12 -2.79717e-12 -21.8714

-6.92358 -28.2038 2.83507e-12
-28.2038 16.8749 1.95162e-12
2.83507e-12 1.95162e-12 -6.12027

8.17165 17.974 -3.20129e-12
17.974 -44.8765 1.57948e-12
-3.20129e-12 1.57948e-12 -12.8982

32.7051 9.54066 5.90698e-12
9.54066 -19.0849 -3.64316e-12
5.90698e-12 -3.64316e-12 -4.07772

3.38565 -26.7268 -1.68162e-12
-26.7268 13.4838 -6.15804e-14
-1.68162e-12 -6.15804e-14 -3.83031

26.2382 -20.2402 -4.89801e-12
-20.2402 -20.3278 3.23623e-12
-4.89801e-12 3.23623e-12 -5.86663

65.3993 60.2392 6.11777e-12
60.2392 34.294 -6.11896e-12
6.11777e-12 -6.11896e-12 -23.8664

-13.2433 31.0701 -1.08683e-12
31.0701 -16.8843 -3.72916e-12
-1.08683e-12 -3.72916e-12 -12.7877

-18.6094 -19.7889 1.21976e-13
-19.7889 28.4159 -1.74024e-12
1.21976e-13 -1.74024e-12 -5.97307

11.1731 28.8606 1.72603e-12
28.8606 -13.3258 -1.45661e-13
1.72603e-12 -1.45661e-13 -6.43927

-31.8738 -4.14571 3.29544e-12
-4.14571 30.1487 3.15185e-12
3.29544e-12 3.15185e-12 -6.36099

-14.6003 19.6119 -1.12887e-12
19.6119 27.1863 4.34142e-12
-1.12887e-12 4.34142e-12 -4.42213

7.47792 30.5225 -1.29023e-12
30.5225 -1.67289 2.05702e-12
-1.29023e-12 2.05702e-12 -5.66388

-9.34835 -22.4763 2.15946e-12
-22.4763 23.1499 -2.73204e-12
2.15946e-12 -2.73204e-12 -4.17888

4.58854 -27.356 -3.77594e-12
-27.356 11.4487 7.53175e-13
-3.77594e-12 7.53175e-13 -3.94182

24.274 11.2584 3.26746e-12
11.2584 102.091 6.2362e-12
3.26746e-12 6.2362e-12 -12.4039

37.4689 -33.461 2.25005e-13
-33.461 69.2925 -9.60417e-12
2.25005e-13 -9.60417e-12 -5.70381

-25.3406 -11.6919 -4.4198e-12
-11.6919 31.3696 1.2174e-12
-4.4198e-12 1.2174e-12 -5.65179

16.0958 26.4875 2.27847e-12
26.4875 -15.5049 7.05391e-12
2.27847e-12 7.05391e-12 -6.2205

4.9539 29.4813 -7.21793e-13
29.4813 1.63549 1.40391e-12
-7.21793e-13 1.40391e-12 -4.99334

-9.85814 -21.4369 4.83465e-13
-21.4369 25.1218 -1.53359e-13
4.83465e-13 -1.53359e-13 -4.03663

-21.6392 -11.7842 4.02611e-12
-11.7842 32.0835 7.11845e-12
4.02611e-12 7.11845e-12 -4.64055

10.4616 28.413 -1.88057e-12
28.413 -0.157991 3.03816e-12
-1.88057e-12 3.03816e-12 -4.67615

-21.8511 -13.8798 2.23732e-12
-13.8798 29.4684 -1.25944e-12
2.23732e-12 -1.25944e-12 -4.85054

6.95744 27.8591 -6.4239e-12
27.8591 73.093 -2.56269e-12
-6.4239e-12 -2.56269e-12 -14.323

-45.8329 -4.04034 1.78436e-12
-4.04034 14.0476 5.55526e-12
1.78436e-12 5.55526e-12 -19.9643

0.874558 31.0318 -1.3447e-12
31.0318 7.51873 9.11863e-14
-1.3447e-12 9.11863e-14 -6.0927

9.71869 14.9027 -3.10033e-12
14.9027 -36.4322 3.42541e-12
-3.10033e-12 3.42541e-12 -10.9875

9.92735 -15.9291 3.81858e-12
-15.9291 -39.4125 -2.41081e-12
3.81858e-12 -2.41081e-12 -13.0708

85.6233 -24.2079 7.10543e-15
-24.2079 7.63492 5.63342e-12
7.10543e-15 5.63342e-12 -12.9584

-23.2104 -21.2693 -3.614e-12
-21.2693 10.5137 -2.02386e-12
-3.614e-12 -2.02386e-12 -6.16875

-16.6039 26.701 -2.90553e-12
26.701 1.77732 4.39352e-13
-2.90553e-12 4.39352e-13 -6.59131

-26.1995 -21.7275 4.72807e-13
-21.7275 -5.3685 -4.6908e-12
4.72807e-13 -4.6908e-12 -23.8651

-41.5919 14.1035 1.56912e-13
14.1035 -3.55914 -1.30296e-12
1.56912e-13 -1.30296e-12 -64.1127

-0.894183 9.44518 7.4755e-14
9.44518 -44.2528 5.66835e-12
7.4755e-14 5.66835e-12 -64.2142

-20.3829 32.7042 4.95604e-13
32.7042 -23.204 -2.43213e-12
4.95604e-13 -2.43213e-12 -24.3278

-11.4148 26.0041 -1.48948e-12
26.0041 22.6045 -2.74388e-12
-1.48948e-12 -2.74388e-12 -5.92934

16.0386 26.6638 6.07159e-12
26.6638 -17.2912 1.79738e-12
6.07159e-12 1.79738e-12 -6.55306

30.4306 45.1923 2.43953e-12
45.1923 47.5596 -9.59233e-13
2.43953e-12 -9.59233e-13 -15.1959

-44.8834 -11.3411 -9.17074e-12
-11.3411 -1.80751 3.18323e-12
-9.17074e-12 3.18323e-12 -61.6697

-8.29794 -3.43149 -2.03474e-12
-3.43149 -12.7503 9.85286e-12
-2.03474e-12 9.85286e-12 -77.2079

-14.6866 -0.208778 -7.62501e-13
-0.208778 -6.41844 6.57593e-12
-7.62501e-13 6.57593e-12 -77.3521

27.669 -53.8088 4.54274e-12
-53.8088 71.1585 9.09021e-12
4.54274e-12 9.09021e-12 -24.3881

-11.6883 -11.5988 7.82337e-13
-11.5988 -16.2058 -1.22273e-12
7.82337e-13 -1.22273e-12 -37.4241

-32.609 8.8113 6.00956e-12
8.8113 -9.41636 5.74651e-13
6.00956e-12 5.74651e-13 -49.531

18.2562 -26.2017 -2.17189e-12
-26.2017 -19.5506 -4.50514e-12
-2.17189e-12 -4.50514e-12 -6.50986

-39.4318 1.00997 -4.55495e-12
1.00997 11.9806 2.79717e-12
-4.55495e-12 2.79717e-12 -19.721

-30.2059 -20.2699 2.15665e-12
-20.2699 6.30459 -2.45137e-12
2.15665e-12 -2.45137e-12 -7.21955

10.536 6.25557 6.67881e-12
6.25557 -52.391 -4.52971e-12
6.67881e-12 -4.52971e-12 -9.64254

-49.8134 15.5962 1.32113e-12
15.5962 10.1643 4.00568e-13
1.32113e-12 4.00568e-13 -13.5327

-40.2869 7.191 1.31147e-12
7.191 16.5414 -3.72443e-13
1.31147e-12 -3.72443e-13 -13.7754

16.4046 20.395 2.08307e-12
20.395 -25.8447 5.29621e-12
2.08307e-12 5.29621e-12 -7.61062

-9.10061 -3.11391 5.30257e-12
-3.11391 108.408 1.89004e-12
5.30257e-12 1.89004e-12 -23.1007

-3.32238 -27.6267 -3.90325e-12
-27.6267 -3.63055 -8.20085e-13
-3.90325e-12 -8.20085e-13 -5.83333

-7.33615 -26.1186 -2.44367e-12
-26.1186 -14.0837 1.30385e-12
-2.44367e-12 1.30385e-12 -9.81304

-14.1995 -31.4837 -4.28013e-12
-31.4837 -21.778 -2.6293e-12
-4.28013e-12 -2.6293e-12 -12.7572

90.7386 32.7538 2.34479e-12
32.7538 20.9085 2.53368e-12
2.34479e-12 2.53368e-12 -16.5049

-23.1138 -20.1154 -4.92376e-12
-20.1154 -17.3858 6.48052e-12
-4.92376e-12 6.48052e-12 -44.419

72.6377 54.3282 6.92305e-12
54.3282 91.6499 6.25751e-12
6.92305e-12 6.25751e-12 -6.14061

-36.2172 -21.4387 1.578e-12
-21.4387 -6.79683 -3.85173e-13
1.578e-12 -3.85173e-13 -13.0448

15.034 14.6507 -8.55375e-12
14.6507 -37.7545 3.17642e-12
-8.55375e-12 3.17642e-12 -8.18159

44.576 -14.5744 5.83474e-12
-14.5744 -8.27634 2.56313e-12
5.83474e-12 2.56313e-12 -4.42172

-21.2332 24.0486 -8.98244e-13
24.0486 4.95503 -2.16123e-12
-8.98244e-13 -2.16123e-12 -5.97981

17.3734 20.4292 5.98277e-12
20.4292 -26.7962 2.58016e-12
5.98277e-12 2.58016e-12 -6.95452

-51.1387 11.399 -2.88902e-12
11.399 7.7095 -1.43944e-12
-2.88902e-12 -1.43944e-12 -29.9905

-7.28902 -31.5821 -1.61945e-12
-31.5821 -12.8284 -2.17693e-12
-1.61945e-12 -2.17693e-12 -8.12211

2.79493 19.8122 6.20837e-13
19.8122 -46.0312 3.80584e-12
6.20837e-13 3.80584e-12 -29.9824

-24.6744 -18.4454 -2.63671e-12
-18.4454 17.8363 3.36264e-12
-2.63671e-12 3.36264e-12 -5.48353

-42.3427 4.28407 -3.0065e-12
4.28407 17.8692 1.69287e-12
-3.0065e-12 1.69287e-12 -12.7295

-4.09802 9.92785 6.4541e-12
9.92785 -40.2719 -1.61634e-12
6.4541e-12 -1.61634e-12 -47.5392

-2.68849 -8.51467 5.66658e-12
-8.51467 -38.3033 -7.12467e-13
5.66658e-12 -7.12467e-13 -47.3949

81.7319 18.5148 -6.12725e-12
18.5148 1.69816 2.39808e-12
-6.12725e-12 2.39808e-12 -14.4539

3.89508 7.96587 2.46321e-13
7.96587 -45.1858 4.96595e-12
2.46321e-13 4.96595e-12 -11.0208

35.8786 7.74166 1.55431e-14
7.74166 184.591 1.86162e-12
1.55431e-14 1.86162e-12 -9.75179

40.1525 -11.3865 -1.14916e-11
-11.3865 190.389 -8.43177e-13
-1.14916e-11 -8.43177e-13 -7.3834

53.7727 56.4111 -8.88178e-13
56.4111 159.272 2.78059e-12
-8.88178e-13 2.78059e-12 -11.4945

1.70727 -28.9519 -3.6214e-12
-28.9519 -24.6921 1.17891e-12
-3.6214e-12 1.17891e-12 -11.9645

16.052 -49.1961 2.71427e-12
-49.1961 99.4302 -5.45934e-12
2.71427e-12 -5.45934e-12 -21.6875

54.5206 -55.9537 5.44039e-12
-55.9537 149.988 7.31859e-12
5.44039e-12 7.31859e-12 -13.6595

-2.16846 26.2235 6.74956e-12
26.2235 17.5727 -4.98505e-12
6.74956e-12 -4.98505e-12 -3.99941

134.954 73.8495 8.96231e-12
73.8495 85.0347 -7.04858e-12
8.96231e-12 -7.04858e-12 -10.1535

-18.7226 13.0461 1.47349e-12
13.0461 -3.8986 -4.00568e-13
1.47349e-12 -4.00568e-13 -26.7661

3.74059 0.0419212 2.37232e-12
0.0419212 -26.1896 -2.76549e-12
2.37232e-12 -2.76549e-12 -26.7694

144.112 -73.1348 4.20641e-12
-73.1348 85.3623 -2.64085e-12
4.20641e-12 -2.64085e-12 -8.19055

-21.3973 -23.4267 -6.18646e-12
-23.4267 12.2475 1.32635e-12
-6.18646e-12 1.32635e-12 -6.49494

89.356 34.7333 5.47355e-12
34.7333 41.394 3.44968e-12
5.47355e-12 3.44968e-12 -11.5468

72.1967 63.496 -5.74829e-12
63.496 149.708 -7.25227e-12
-5.74829e-12 -7.25227e-12 -9.66809

26.1668 21.6328 3.80614e-12
21.6328 100.144 7.62175e-12
3.80614e-12 7.62175e-12 -13.0303

73.8838 -65.925 -1.78346e-12
-65.925 151.159 9.66338e-13
-1.78346e-12 9.66338e-13 -9.39648

25.7714 -12.3825 2.56624e-12
-12.3825 105.024 3.65456e-12
2.56624e-12 3.65456e-12 -12.4271

-28.664 6.83928 -7.61465e-13
6.83928 3.10791 -6.48163e-12
-7.61465e-13 -6.48163e-12 -37.8466

37.7462 -45.9807 -7.24754e-12
-45.9807 49.674 9.85641e-12
-7.24754e-12 9.85641e-12 -15.5328

14.4464 47.5373 3.81443e-12
47.5373 94.8902 7.47017e-12
3.81443e-12 7.47017e-12 -22.1909

173.356 37.9147 4.83169e-13
37.9147 48.0492 1.00601e-12
4.83169e-13 1.00601e-12 -9.51682

7.01931 -29.2882 6.206e-12
-29.2882 -14.3605 -1.15463e-13
6.206e-12 -1.15463e-13 -7.15898

-38.4202 12.8962 1.92069e-12
12.8962 6.43574 2.75987e-12
1.92069e-12 2.75987e-12 -15.2914

88.5145 -38.1169 -5.21065e-12
-38.1169 34.1663 -4.37221e-12
-5.21065e-12 -4.37221e-12 -14.0985

6.04093 -28.8044 1.92557e-12
-28.8044 -16.1752 -4.13299e-12
1.92557e-12 -4.13299e-12 -8.03281

169.222 -36.3465 5.54223e-12
-36.3465 34.9355 -3.40291e-12
5.54223e-12 -3.40291e-12 -13.2849

-5.72638 -28.3197 3.06303e-12
-28.3197 -14.4754 1.668e-12
3.06303e-12 1.668e-12 -9.31213

-17.7945 -25.2979 -1.71774e-12
-25.2979 12.0796 -4.68366e-13
-1.71774e-12 -4.68366e-13 -5.93806

118.888 69.4658 2.78059e-12
69.4658 96.2303 -4.52616e-12
2.78059e-12 -4.52616e-12 -11.3949

29.4159 -22.9355 2.11979e-12
-22.9355 97.807 1.86636e-12
2.11979e-12 1.86636e-12 -14.3387

117.971 -71.698 -1.80478e-12
-71.698 93.6917 -2.71664e-12
-1.80478e-12 -2.71664e-12 -12.4109

22.2677 50.7429 -6.22554e-12
50.7429 73.7874 3.60956e-12
-6.22554e-12 3.60956e-12 -24.7763

-1.53838 -30.2153 -4.39708e-12
-30.2153 -6.55514 2.35042e-12
-4.39708e-12 2.35042e-12 -7.00137

-7.04298 -14.6411 -2.24058e-12
-14.6411 -21.9205 -2.63434e-12
-2.24058e-12 -2.63434e-12 -32.6091

-11.8914 11.0903 -6.75682e-12
11.0903 -16.4255 -1.51582e-13
-6.75682e-12 -1.51582e-13 -77.7744

-26.1625 -5.16043 6.02244e-12
-5.16043 -6.38709 -1.24554e-11
6.02244e-12 -1.24554e-11 -77.6083

-38.9452 13.084 -8.0926e-13
13.084 13.7443 6.69094e-13
-8.0926e-13 6.69094e-13 -10.2415

-14.4792 -10.6646 2.0827e-12
-10.6646 -17.3127 2.97629e-12
2.0827e-12 2.97629e-12 -78.7369

-25.8963 4.0924 1.12621e-12
4.0924 -5.91351 2.05532e-12
1.12621e-12 2.05532e-12 -78.879

-3.6321 7.43099 6.93238e-12
7.43099 -27.8556 5.27859e-12
6.93238e-12 5.27859e-12 -77.9666

-43.969 -12.1122 5.16624e-13
-12.1122 2.91595 5.60145e-12
5.16624e-13 5.60145e-12 -68.1417

11.9733 -30.4742 4.30411e-12
-30.4742 76.1713 -1.59635e-12
4.30411e-12 -1.59635e-12 -14.7016

0.520374 -12.9721 -2.18255e-12
-12.9721 -39.9874 1.18424e-14
-2.18255e-12 1.18424e-14 -45.2682

-16.3484 -34.4159 -1.17772e-12
-34.4159 -22.0704 -2.91737e-12
-1.17772e-12 -2.91737e-12 -23.5884

-2.42184 -18.1777 2.42058e-12
-18.1777 -29.8931 -5.46097e-12
2.42058e-12 -5.46097e-12 -33.6212

12.7373 15.4607 1.38674e-12
15.4607 -37.7198 -8.08242e-14
1.38674e-12 -8.08242e-14 -9.62814

-46.9016 9.86219 1.47582e-12
9.86219 8.87577 1.43176e-11
1.47582e-12 1.43176e-11 -70.1368

3.46122 19.2248 -3.64804e-12
19.2248 -41.4655 -2.6091e-12
-3.64804e-12 -2.6091e-12 -70.2526

1.47057 11.3085 -5.62661e-12
11.3085 -23.9637 -5.43343e-12
-5.62661e-12 -5.43343e-12 -31.8627

109.405 -15.3415 -8.52651e-13
-15.3415 -12.5357 -1.63662e-12
-8.52651e-13 -1.63662e-12 -25.0358

-14.3242 24.9672 5.85606e-12
24.9672 10.3856 6.00942e-12
5.85606e-12 6.00942e-12 -5.8085

76.6159 -61.3615 2.77349e-12
-61.3615 37.371 8.76336e-13
2.77349e-12 8.76336e-13 -22.3935

76.1218 -57.4631 8.85336e-12
-57.4631 99.2386 4.26326e-13
8.85336e-12 4.26326e-13 -5.55308

118.208 -36.5481 -8.19493e-13
-36.5481 40.6048 9.69891e-13
-8.19493e-13 9.69891e-13 -7.37687

-51.106 -5.15864 -3.71747e-12
-5.15864 3.3392 6.83276e-12
-3.71747e-12 6.83276e-12 -60.6464

-50.4701 2.89141 -1.85511e-12
2.89141 3.13347 -6.65838e-13
-1.85511e-12 -6.65838e-13 -60.1191

-11.975 -24.4523 1.0246e-11
-24.4523 -34.9975 -4.93812e-12
1.0246e-11 -4.93812e-12 -59.1536

-8.99072 -21.7562 2.95145e-12
-21.7562 -37.8828 -3.09915e-12
2.95145e-12 -3.09915e-12 -59.4631

-14.7014 26.1315 -4.58685e-12
26.1315 -33.0222 -2.44301e-12
-4.58685e-12 -2.44301e-12 -60.7376

-18.1531 3.09661 -5.35512e-12
3.09661 -13.1621 -7.43868e-12
-5.35512e-12 -7.43868e-12 -75.4595

-9.94461 -20.5058 2.61835e-12
-20.5058 -32.6455 -6.14686e-12
2.61835e-12 -6.14686e-12 -56.7245

-26.6425 -18.5659 1.5327e-12
-18.5659 -14.1955 -2.05643e-12
1.5327e-12 -2.05643e-12 -71.2551

-15.4741 2.43241 -1.39047e-11
2.43241 -12.8511 -3.05533e-13
-1.39047e-11 -3.05533e-13 -77.8533

-6.02687 -20.5225 -1.2865e-11
-20.5225 -41.4812 6.161e-13
-1.2865e-11 6.161e-13 -60.4938

-6.75605 20.952 2.58534e-12
20.952 -40.1377 1.04509e-12
2.58534e-12 1.04509e-12 -60.0051

-14.3116 -3.45628 7.89058e-12
-3.45628 -11.389 -3.75181e-12
7.89058e-12 -3.75181e-12 -76.868

-11.2613 -3.11404 -1.12651e-13
-3.11404 -17.6852 4.20701e-13
-1.12651e-13 4.20701e-13 -74.0316

-24.1983 12.1092 1.3799e-11
12.1092 -13.4002 -1.76411e-11
1.3799e-11 -1.76411e-11 -69.9516

-22.0794 26.9261 1.20348e-12
26.9261 -26.2649 2.59134e-12
1.20348e-12 2.59134e-12 -57.5702

VECTORS fluid_flux_TPM float
-8.72558e-05 3.10421e-05 3.18414e-21
3.56094e-06 6.8852e-06 -4.09832e-21
-1.27923e-05 -1.02295e-05 1.31557e-21
-4.17214e-06 4.25567e-06 7.62793e-21
2.27164e-05 -6.31574e-06 2.6224e-20
2.7587e-06 -1.59096e-05 -5.6851e-21
-8.5831e-05 -3.11067e-05 -4.07514e-21
-1.38976e-05 -1.04708e-05 8.87058e-21
2.21303e-05 9.45884e-07 3.90111e-21
1.13884e-05 -3.90958e-06 -8.19652e-21
5.46221e-05 1.24888e-05 -3.05226e-21
2.34783e-06 -1.72007e-05 1.246e-21
1.36168e-05 1.12581e-05 1.54209e-20
2.66315e-06 1.37899e-05 5.92232e-21
2.05889e-05 -2.9478e-06 2.34125e-20
-1.63387e-05 -2.72998e-07 -4.55262e-21
2.75462e-06 1.41042e-05 -3.41666e-21
1.01857e-05 -2.3928e-06 -7.63475e-21
9.90251e-06 1.72293e-05 6.76573e-21
-1.48542e-05 1.88621e-06 -4.08696e-21
-3.60251e-06 -2.13123e-05 -7.6769e-21
3.41248e-05 5.94416e-05 2.45686e-20
1.57036e-05 1.63194e-06 -8.08207e-21
1.12317e-05 -1.12858e-05 -1.10482e-20
-1.50843e-05 -3.33371e-06 -1.07034e-20
-6.77447e-07 -1.11352e-05 -9.49708e-21
6.29289e-05 -4.91042e-06 -2.11972e-21
1.40716e-05 1.02529e-05 -1.92984e-20
-2.51598e-05 -2.06514e-05 7.44905e-21
4.91403e-05 -1.28192e-05 3.99883e-20
-1.65891e-05 -6.04073e-06 -5.3598e-21
5.53955e-06 -3.20499e-05 -1.91886e-20
4.76744e-05 -4.80672e-05 -1.70422e-20
-4.92537e-06 -4.1265e-05 -7.45846e-21
-2.96858e-05 3.70208e-05 3.50897e-21
-3.82635e-05 -1.6402e-05 -1.57685e-20
3.27163e-05 4.32336e-05 -1.978e-21
-4.47595e-05 -8.72955e-06 2.59472e-20
1.43804e-05 -1.10864e-05 -1.61538e-20
4.64897e-05 5.01361e-05 -2.80078e-21
3.21429e-05 -1.40278e-05 8.39841e-21
3.36542e-05 -4.23613e-05 1.47359e-20
-1.99048e-05 -5.03997e-05 -6.70526e-21
-1.59046e-05 6.35945e-06 -1.78396e-20
3.05385e-05 -2.93265e-05 2.86566e-21
-3.03455e-05 1.09951e-05 -1.25208e-20
-4.05184e-06 -2.03793e-05 -1.0543e-20
7.88951e-06 2.02204e-05 -9.15488e-23
-1.63495e-05 5.93039e-06 -4.13758e-21
-1.78273e-05 2.87383e-05 -7.20319e-21
3.24225e-05 1.52974e-05 -4.30175e-21
2.93778e-05 -1.00794e-05 1.51445e-21
-1.56731e-05 1.57672e-05 1.63025e-21
-2.35515e-05 -2.06995e-05 -6.60839e-21
-2.1149e-05 -5.13467e-06 1.25563e-20
-4.48112e-05 2.70883e-05 -2.85126e-21
-2.93847e-05 -3.80397e-05 -6.05282e-21
6.36639e-06 -3.06414e-05 -1.8242e-20
-4.77288e-05 6.48576e-06 -4.557e-20
6.07685e-06 1.37031e-05 1.061e-20
-5.5793e-06 -8.1771e-06 -1.51117e-20
-6.58649e-06 -1.79517e-05 -6.30342e-21
5.71697e-05 2.48708e-05 1.8008e-21
9.24706e-06 1.81525e-05 -9.81616e-21
1.23021e-05 -1.44515e-05 1.13209e-20
-1.64127e-06 -2.0762e-05 4.40041e-22
4.62323e-06 -8.80956e-06 7.63142e-21
-1.00951e-05 -5.56744e-06 -5.95598e-21
-1.06075e-05 1.19348e-05 -8.31118e-22
2.55936e-06 -4.09446e-06 -2.90705e-21
-1.50503e-05 -1.58505e-05 5.60234e-21
-2.13747e-05 5.1683e-06 -2.07903e-20
-3.55826e-06 3.44974e-05 1.07708e-20
-1.78801e-05 1.07158e-05 -7.02962e-21
-9.07496e-06 1.46215e-05 -8.8868e-21
-6.03836e-05 7.69595e-06 -4.31145e-21
7.8217e-06 -2.16915e-05 1.82325e-20
-1.88889e-05 -8.90423e-06 -1.36692e-20
1.93467e-06 1.16294e-05 2.4873e-20
2.63131e-05 5.09199e-06 1.05371e-20
3.4185e-05 -2.89884e-05 -2.17058e-20
2.21567e-05 2.05657e-05 -1.68693e-20
1.1914e-05 -2.82365e-06 6.75938e-21
-3.21689e-05 2.40788e-05 -4.73027e-21
3.7922e-05 4.8481e-06 -5.94369e-21
-4.98281e-06 4.9438e-05 -2.69406e-21
-1.74186e-06 -1.6865e-05 -1.29003e-20
1.81323e-05 9.95927e-06 -7.67295e-21
2.93313e-05 3.02998e-05 -2.60412e-22
5.50504e-05 3.80311e-05 6.29412e-21
-5.3337e-06 3.07873e-05 1.09264e-20
5.92074e-05 -3.5529e-05 -7.23076e-21
-2.71375e-05 5.34369e-06 5.05481e-21
1.78476e-05 1.1007e-05 -1.36791e-20
-2.96551e-05 9.90807e-06 -5.52305e-21
1.6661e-05 2.85345e-05 1.14055e-20
1.01739e-05 -4.44075e-05 -1.15894e-20
1.91641e-06 1.16262e-05 5.1857e-22
-1.48077e-05 -1.76284e-05 -1.75472e-20
3.07138e-06 1.74829e-05 1.45269e-20
2.64192e-05 5.25992e-06 4.05376e-21
-1.54504e-05 3.32269e-05 -7.44132e-21
4.05712e-05 -1.33393e-05 -9.75462e-21
-3.77479e-06 7.45857e-06 -6.04115e-21
9.95752e-06 5.90205e-06 1.54432e-20
-2.28162e-06 -1.13299e-05 3.67875e-21
3.22221e-06 -1.92609e-05 1.44196e-20
1.74775e-05 3.8939e-06 -6.23594e-21
-7.94066e-06 4.09919e-05 -1.92615e-21
-9.81016e-06 2.48068e-07 2.2401e-20
9.32292e-06 1.18913e-05 5.18003e-21
-2.17795e-06 -4.17336e-05 -5.76315e-21
4.20427e-05 1.2871e-05 -5.2555e-21
4.42467e-06 -7.45666e-06 2.48141e-21
-1.11504e-05 -3.5553e-06 2.23008e-21
-2.93395e-05 -1.2492e-05 -3.86717e-21
1.58111e-05 4.11665e-05 -1.22247e-20
-4.35058e-05 -1.55813e-05 4.58992e-21
1.6026e-05 -4.1143e-05 3.8361e-21
-3.70141e-06 -3.19352e-05 -2.38534e-20
2.18491e-05 6.52478e-07 5.64506e-21
-7.17483e-06 1.84052e-05 4.40712e-21
-1.61191e-06 3.9714e-06 2.27576e-20
-3.68764e-06 -1.65464e-05 -4.80075e-21
5.23242e-06 -8.30596e-06 -1.80083e-20
9.3639e-06 1.58709e-05 -1.23256e-20
3.31166e-05 1.06574e-05 7.83197e-21
8.61953e-06 -7.4615e-06 1.86007e-21
-8.2746e-06 -4.51813e-05 -1.39804e-20
2.55641e-05 -1.88286e-05 -1.77409e-20
4.98029e-06 2.77842e-05 -4.1335e-21
-2.81765e-06 -2.84293e-06 -7.3575e-21
-8.63023e-06 -8.32969e-06 1.2848e-20
-4.77886e-06 4.41211e-08 5.65373e-21
-2.28834e-05 2.86078e-05 9.25408e-22
1.87719e-05 -3.73924e-05 3.30374e-21
-2.65924e-05 4.27348e-05 4.64766e-21
-1.63794e-05 9.53975e-06 -5.81635e-21
2.52912e-06 1.22045e-05 -7.09269e-21
-2.29975e-05 -3.50057e-05 -1.71268e-20
1.39427e-05 3.34816e-05 -1.38488e-20
1.75159e-05 9.37353e-06 -7.80755e-21
2.28221e-05 -8.52657e-06 -2.65704e-20
-1.25372e-06 -1.12706e-05 9.5512e-21
-3.39276e-05 -3.15731e-05 1.00261e-20
-2.75272e-06 1.13086e-05 8.76813e-21
1.72547e-05 1.01764e-05 -2.19735e-20
1.88962e-05 -8.82489e-06 -6.69645e-21
8.24704e-06 -1.43515e-05 -4.54736e-23
2.43682e-05 -1.08003e-05 -9.09198e-22
1.90183e-05 -9.00199e-06 2.91371e-21
4.6428e-06 2.05916e-07 2.07427e-21
2.57526e-05 2.02304e-05 -2.32799e-21
-2.74285e-06 -1.70378e-05 -8.58571e-22
-1.04846e-05 -4.45908e-06 -1.01069e-20
1.1264e-06 -3.89189e-06 4.43773e-21
-3.15647e-06 1.58542e-05 9.65367e-21
-3.48998e-05 2.76943e-06 5.61916e-21
-1.2127e-05 -3.32737e-05 -3.50914e-21
-7.88267e-06 9.78355e-06 7.23507e-22
1.35715e-05 1.6648e-05 -1.0714e-20
2.65809e-05 -1.87532e-05 -1.96163e-21
-3.68094e-05 -2.03605e-05 1.9213e-20
1.74112e-05 -2.75202e-05 -7.33537e-21
2.28145e-05 -2.7229e-05 -3.37225e-21
-1.09494e-05 3.78668e-06 -6.76935e-21
-1.98381e-05 -2.88537e-05 -5.15972e-21
-3.48961e-05 -5.79413e-06 1.98224e-20
-3.854e-06 -3.17574e-05 -2.04848e-20
1.54549e-05 -3.17137e-05 -7.2811e-21
-9.11029e-06 -2.62115e-05 -4.43013e-21
4.58347e-06 3.14199e-05 9.76736e-21
-1.57595e-05 -2.85354e-05 -2.56978e-21
2.9402e-06 -1.62997e-05 -4.30902e-21
-2.47508e-05 1.82685e-05 9.85452e-21
-1.50377e-05 -1.21167e-05 -2.11326e-20
-2.73654e-05 -5.17483e-06 -8.88032e-21
1.56753e-05 -9.18577e-06 -1.18515e-20
-4.30888e-06 2.39636e-05 2.19826e-20
1.22382e-05 -9.32875e-06 -1.67084e-20
-2.95997e-05 -1.31705e-05 8.47678e-21
-8.8357e-06 -7.46156e-06 -8.46874e-21
9.0863e-06 7.5443e-06 2.1786e-20
2.14368e-05 2.87139e-05 6.07769e-21
-1.75169e-05 -1.08143e-05 -1.89232e-20
-3.25214e-05 -7.51406e-07 1.14364e-20
-1.63442e-05 -5.0185e-06 -2.0801e-20
-4.58019e-06 -1.65909e-05 1.93041e-21
1.76928e-05 2.1249e-05 -7.7736e-21
-1.09624e-05 5.87751e-06 1.39653e-20
6.36385e-07 -2.05648e-05 5.3986e-21
-4.19595e-05 1.08561e-05 -1.23539e-21
2.48721e-05 2.02556e-05 -8.51431e-22
3.79644e-06 3.28006e-05 -7.88302e-21
-2.4331e-06 3.79897e-06 6.72207e-21
-9.05512e-06 2.51326e-07 -6.57199e-21
4.35714e-06 7.76367e-06 7.77132e-21
-1.16993e-05 3.40302e-06 -6.93341e-22
-2.0743e-06 -3.78665e-06 1.63826e-20
1.6606e-06 2.07695e-05 5.29128e-21
4.4745e-06 4.49891e-07 3.89386e-21
-1.95473e-05 4.7589e-06 5.28111e-22
-1.73064e-05 1.93672e-05 -6.61626e-21
-3.10888e-06 1.15836e-05 1.07564e-21
-2.92306e-05 1.84031e-05 9.56575e-21
-9.34768e-06 8.98347e-06 6.2261e-21
1.73192e-05 -1.16192e-05 -1.02306e-20
3.66213e-05 -3.56632e-06 1.1194e-20
-2.11505e-05 1.13026e-05 -1.59004e-22
2.23404e-06 4.50033e-06 -1.17188e-20
2.17855e-05 -4.34689e-06 1.24949e-20
-1.7287e-05 1.03577e-05 -3.22975e-21
-9.8764e-06 5.54163e-06 -4.73921e-21
1.18369e-05 3.74446e-06 5.67585e-21
2.18901e-05 -1.34774e-05 7.90197e-22
-1.73881e-05 9.9608e-06 5.77378e-21
-2.50487e-05 -5.30557e-06 2.19342e-20
-1.67695e-05 -4.36453e-06 -6.27355e-21
9.88084e-06 6.264e-09 -5.96505e-21
1.01786e-05 1.95433e-07 1.1238e-20
4.39285e-06 8.32106e-06 2.88416e-21
4.83184e-06 -8.80188e-06 -3.63538e-21
-5.01269e-06 8.42376e-06 2.24553e-20
-5.26913e-06 -8.66163e-06 -6.37359e-21
9.91562e-06 -7.41144e-06 -3.12063e-21
-2.03369e-05 3.23641e-06 1.13255e-20
-2.00692e-05 -3.28525e-06 1.61881e-20
-1.28407e-05 1.58838e-05 1.8644e-20
-1.29205e-05 -1.59382e-05 1.58204e-20
7.48973e-06 -1.9853e-05 -2.11346e-20
7.20935e-06 1.9773e-05 -8.70251e-21
1.55863e-06 2.58971e-05 -8.05628e-21
1.12457e-05 -3.13827e-06 1.99256e-21
2.36103e-06 -3.8683e-06 4.4761e-21
-2.14214e-05 1.42236e-06 -1.15904e-20
7.68073e-06 -1.95221e-05 -1.59856e-20
7.27679e-06 1.96707e-05 -2.10498e-20
4.77101e-06 -5.2736e-08 -5.99221e-21
8.97247e-06 2.44144e-05 4.68936e-21
-2.24329e-06 -4.01821e-06 -2.68214e-20
2.31887e-06 -1.13222e-05 9.93865e-21
-2.24409e-05 -1.21573e-05 -6.11498e-21
-2.13679e-05 -1.14999e-05 -2.47661e-20
-2.19027e-05 1.36349e-05 -6.95762e-21
3.25273e-06 -1.22932e-05 -1.7117e-20
-1.56601e-06 3.38353e-06 1.26809e-20
-5.87492e-07 -2.55806e-05 -1.40329e-20
-7.72361e-06 -2.44339e-05 -9.48799e-21
3.27186e-05 3.03759e-05 -2.40706e-22
3.5469e-05 -1.81599e-06 2.64115e-20
-1.27167e-05 -3.63378e-06 1.64797e-20
-2.29027e-05 -4.14047e-05 3.11865e-21
8.30796e-06 1.3754e-05 7.4236e-21
-2.5247e-05 3.03469e-06 -6.02837e-22
2.0074e-05 5.78894e-06 6.24655e-21
-4.53513e-06 -3.27506e-08 8.2864e-21
-4.6672e-06 -8.41642e-06 1.0818e-20
-7.07598e-06 -3.93501e-05 1.06035e-20
-9.71258e-06 -8.39754e-08 -9.53361e-21
-4.86962e-05 -1.81652e-06 -1.10954e-22
1.73164e-05 -1.91136e-05 -5.00509e-21
2.43044e-06 4.00081e-06 1.35893e-20
-1.20628e-07 -1.75213e-05 -3.33042e-21
-9.82262e-06 2.40945e-05 2.04075e-21
-4.37392e-06 8.63114e-06 2.17469e-20
2.05652e-05 -1.36119e-05 -2.38224e-20
-3.76752e-05 -1.35573e-05 -2.87808e-20
-1.52723e-05 -2.03747e-05 -8.01628e-21
4.9792e-06 8.39266e-06 -1.82999e-20
1.66383e-05 5.16277e-06 2.61483e-20
-4.76588e-06 -7.34145e-06 1.90478e-21
1.98049e-05 3.54872e-06 1.60342e-20
1.81961e-05 -9.82988e-06 -4.14895e-21
-3.48931e-07 2.7184e-05 -3.34132e-21
8.32386e-06 -1.36724e-05 -1.22747e-20
4.88238e-05 2.20151e-06 -1.02952e-20
-4.23745e-05 1.14583e-05 -4.86079e-21
2.28691e-05 1.15608e-05 -1.77674e-20
-6.45545e-06 -1.71861e-05 2.05375e-22
-1.53559e-05 -8.62156e-06 1.25144e-21
2.87986e-05 -2.1062e-07 8.3258e-21
-6.92199e-07 -2.42643e-05 3.74272e-21
-1.26223e-05 -1.08782e-05 -1.82432e-20
1.02279e-05 -2.35086e-05 -1.16081e-21
-4.9674e-07 2.05633e-05 9.7193e-21
7.92082e-06 2.60777e-05 -7.04735e-21
1.72745e-05 -9.88799e-06 -5.4709e-21
-1.89551e-05 1.9306e-05 1.50476e-21
1.65341e-05 2.00369e-05 1.1657e-20
-6.2254e-05 1.6028e-05 2.28145e-20
-1.01129e-05 2.60259e-05 1.98927e-20
1.25238e-05 -1.5254e-05 -4.14985e-21
-7.03171e-06 -1.84047e-05 -5.77456e-21
-1.1858e-05 4.5074e-06 1.25602e-21
-2.59032e-05 -7.04848e-06 2.09138e-21
-6.38848e-06 3.88724e-05 8.83103e-21
-1.26106e-05 1.19069e-05 -1.04419e-20
2.07844e-05 -4.47725e-06 -2.01735e-20
-6.87496e-06 -2.58039e-05 -8.59836e-21
-1.48743e-05 2.39e-05 -1.06124e-20
-2.17971e-05 1.25695e-05 6.73482e-22
-2.05772e-05 -1.50611e-05 -1.97354e-20
1.80354e-05 -2.06627e-05 -4.82016e-21
-2.75411e-05 -1.4568e-06 -1.93146e-21
1.23721e-05 -4.08255e-05 3.09591e-21
1.93935e-05 -1.89202e-05 4.11531e-21
2.4742e-05 4.30979e-05 -8.78357e-21
1.97191e-06 1.98739e-05 -1.58087e-20
2.96232e-06 -2.54307e-05 -3.04332e-21
-4.16519e-05 4.69795e-05 2.23212e-20
-1.27068e-05 -2.44208e-05 -1.86917e-21
1.6373e-05 -6.42291e-06 2.10533e-21
-2.41168e-06 2.5782e-05 2.56104e-20
1.28878e-05 -1.18309e-05 -1.31972e-20
1.38858e-05 2.4322e-05 -7.05993e-21
1.72363e-05 -1.40101e-06 -1.8107e-20
2.21288e-05 -6.32403e-05 -9.42417e-21
-5.87827e-06 -1.28641e-05 -1.35795e-20
-2.31931e-05 1.0091e-05 -1.12428e-21
-2.00274e-05 1.8726e-05 -6.809e-22
2.16204e-05 1.45731e-05 3.25492e-21
1.86796e-05 -1.07607e-05 -7.23062e-21
1.49575e-05 1.25981e-05 -9.0766e-21
-5.43011e-06 4.55585e-08 -6.91137e-21
1.54095e-05 -2.30959e-05 -1.31113e-20
-1.69966e-05 -2.0417e-05 -8.75571e-21
2.25703e-05 9.77734e-06 -5.78468e-21
1.28114e-05 -1.19942e-05 -1.26827e-20
9.55762e-06 -2.48611e-05 -1.05093e-20
1.66654e-05 -6.93546e-06 -2.66789e-20
-1.58114e-05 -7.54748e-06 8.23226e-21
1.29737e-06 -2.63128e-05 7.60474e-21
-2.61167e-05 4.47479e-06 7.16771e-21
2.3914e-06 2.4552e-05 2.93858e-21
2.05926e-05 6.62992e-06 9.79994e-21
-2.17287e-05 -1.07059e-05 -1.51863e-20
-8.9805e-06 2.56197e-05 3.34816e-21
-1.49586e-06 -2.41971e-05 -2.03869e-20
1.94737e-05 1.18418e-05 -2.77177e-20
-1.76958e-06 1.80916e-05 1.0938e-20
-2.01464e-05 1.37079e-05 8.62624e-21
2.35198e-05 1.14195e-05 1.18083e-22
-1.71217e-05 -9.98941e-06 -8.03842e-21
9.51875e-08 -1.98423e-05 2.13531e-20
1.83894e-05 1.99918e-05 -2.07167e-21
-2.21622e-05 -1.43091e-05 -2.47731e-20
4.83698e-05 -3.39949e-05 -1.35997e-20
1.79039e-05 -1.08266e-05 -2.40384e-20
9.00561e-06 4.3104e-05 -1.41278e-20
1.70407e-05 -1.36839e-05 -1.37805e-20
-1.98809e-05 8.70705e-05 1.29394e-20
-1.97709e-05 -8.65847e-05 2.67269e-21
5.72079e-05 7.17449e-05 2.67074e-20
5.69455e-05 -7.14184e-05 -9.15572e-21
9.06827e-05 -1.3751e-10 7.87954e-21
-7.82319e-05 3.7657e-05 -2.48413e-21
-7.74862e-05 -3.73006e-05 1.83436e-20
1.22387e-05 1.18233e-05 -8.60108e-21
2.93797e-05 2.19011e-05 -3.36848e-21
1.14527e-05 3.33415e-06 5.95157e-21
1.88633e-05 9.75539e-06 -1.15228e-20
4.99133e-06 2.01782e-05 3.15458e-21
-1.88395e-05 -1.49865e-05 -1.74342e-20
1.70449e-05 -1.02183e-05 -1.12748e-20
1.98606e-05 1.45552e-05 -8.80843e-22
-3.16813e-06 2.43739e-05 1.26799e-20
2.94525e-05 -2.00009e-05 -6.25216e-21
3.79555e-06 -2.37495e-05 -2.71206e-20
2.19697e-05 5.22914e-06 -1.05213e-21
2.9908e-05 1.10304e-05 -3.03452e-21
1.42145e-05 1.41496e-05 -1.01561e-22
1.58897e-05 6.59636e-06 -4.61268e-22
-1.85063e-05 1.09411e-05 -3.62279e-23
-2.25724e-05 9.0404e-06 -4.98069e-21
2.29388e-05 -1.12681e-05 5.21593e-23
-1.82754e-05 -1.00021e-05 5.13923e-21
-1.85621e-05 -1.05869e-05 -5.20846e-22
-3.43929e-07 -2.07763e-05 5.01736e-21
-8.60949e-08 -2.11695e-05 -4.04938e-21
-2.01354e-05 -1.00589e-06 1.13041e-20
2.671e-05 -4.02079e-06 9.60379e-21
1.81195e-05 1.13468e-05 -5.29825e-21
-1.78716e-05 1.09497e-05 -2.59504e-22
-1.53678e-05 1.66305e-05 2.72425e-21
1.60288e-05 -1.37589e-05 2.7926e-21
-1.1028e-05 1.74707e-05 7.07055e-21
-1.42308e-05 -1.48959e-05 -6.25551e-21
-1.15564e-06 2.12195e-05 1.70378e-20
-1.28815e-06 2.0977e-05 1.96625e-20
8.98251e-08 -1.98422e-05 1.47981e-20
6.11345e-06 -1.97455e-05 -2.47165e-20
-1.71481e-05 -9.93966e-06 -4.64678e-21
1.55933e-05 -5.49255e-06 4.47955e-21
6.63522e-07 2.14868e-05 -7.53196e-21
3.01029e-07 1.85153e-05 1.41517e-21
-2.34667e-06 1.68644e-05 1.33555e-20
2.19179e-05 -5.52971e-06 5.77482e-21
-1.65482e-05 5.38036e-06 2.60874e-21
4.15928e-06 2.15265e-05 -1.49414e-21
-3.25721e-05 1.29247e-05 1.4166e-20
9.76779e-06 4.1749e-05 -1.04073e-20
-1.70607e-05 4.57009e-06 -6.41799e-21
1.96928e-05 -1.1635e-05 -7.21379e-21
9.46247e-07 2.10284e-05 1.48469e-20
-2.049e-05 6.7023e-06 -1.25581e-20
2.44518e-06 -1.62694e-05 -1.70317e-21
1.82069e-06 -5.80374e-05 -7.7504e-21
2.00738e-06 1.74937e-05 1.32215e-20
-1.69693e-05 1.40287e-05 4.70193e-21
1.78621e-05 6.39991e-05 1.47172e-21
4.57888e-05 3.77229e-05 -1.90996e-21
5.20872e-05 -3.52707e-05 1.98882e-20
1.48218e-05 -1.01715e-05 -1.75056e-20
-1.57922e-05 1.40437e-05 6.01781e-22
-2.02256e-05 -7.92413e-06 6.01917e-21
-1.96542e-05 -6.82539e-06 -2.32679e-21
5.92925e-05 -2.46225e-05 -3.24341e-21
5.74584e-05 2.38811e-05 9.87253e-21
1.08992e-05 3.81912e-06 -9.47995e-21
7.67026e-07 1.95878e-05 1.56716e-20
7.84532e-08 1.95691e-05 1.11139e-20
-4.84038e-05 -3.69358e-05 1.18763e-20
1.14302e-05 -1.71793e-05 -1.73392e-20
1.17384e-05 1.247e-05 -1.71364e-20
-2.14275e-05 -3.39723e-06 -1.27867e-20
-1.40511e-05 1.72097e-05 -4.16502e-21
-1.88968e-05 9.17182e-06 -1.28951e-21
4.76642e-05 3.37086e-05 -1.31296e-20
1.58133e-05 7.06471e-06 -7.70583e-21
-5.56911e-06 2.00392e-05 4.2246e-21
-1.69855e-05 -1.17544e-05 -5.45562e-21
1.85714e-06 -2.05519e-05 3.79197e-21
-8.9536e-06 -1.92758e-05 -1.52933e-21
-1.72567e-05 -1.17788e-05 -6.94703e-21
1.05843e-05 -1.89441e-05 -1.55678e-20
1.41287e-05 -1.69967e-05 -1.25416e-20
-2.44105e-06 -6.14648e-05 -6.77739e-21
2.61919e-05 -4.11437e-05 -8.79753e-21
1.74834e-06 -2.07947e-05 -1.16259e-20
1.79666e-05 1.13604e-05 -1.20088e-20
-1.44827e-05 -1.4912e-05 -9.02962e-21
-9.84537e-06 1.97189e-05 5.15153e-21
-5.04159e-06 2.1016e-05 1.56477e-20
1.66346e-05 1.425e-05 -1.03094e-20
6.06176e-06 -1.98702e-05 -1.63438e-20
-1.34121e-05 -4.03762e-05 -2.0168e-21
-1.98922e-06 2.50515e-05 -1.16847e-20
1.47984e-05 1.44615e-05 -3.84064e-21
-1.29641e-05 -1.02213e-05 -1.98909e-20
-1.3521e-05 1.06129e-05 9.25275e-21
4.43625e-05 -1.89215e-05 -2.66903e-20
7.56646e-06 -1.34061e-05 -1.64976e-20
-8.32083e-06 -1.26327e-05 -6.39081e-22
2.134e-05 6.36633e-06 -2.63554e-21
1.09992e-05 -5.06845e-05 -1.38818e-20
-3.84686e-05 -3.49185e-05 -7.95323e-21
2.33171e-05 6.21013e-06 -1.09214e-21
-9.33234e-06 -1.82894e-05 2.27023e-21
1.8714e-05 9.48698e-06 -2.62117e-21
-2.85771e-05 -3.25663e-05 1.56903e-20
9.69254e-06 5.00692e-05 2.86702e-21
3.43494e-05 -5.98864e-05 -1.3275e-20
-3.47526e-05 -5.98032e-05 -4.53202e-21
2.78214e-05 -5.20451e-05 7.04599e-21
-1.27037e-05 4.36527e-05 2.34428e-20
-6.27884e-06 3.89948e-05 1.82276e-20
-1.87391e-05 8.94992e-06 1.19219e-20
5.97992e-06 2.4253e-05 -1.96175e-20
-2.3926e-06 1.26597e-05 1.62194e-21
1.01247e-05 3.23457e-06 -1.41828e-20
-3.18985e-06 1.62127e-05 6.66008e-21
-2.47518e-07 2.10011e-05 -4.21139e-21
1.6668e-05 9.7549e-06 -5.96234e-21
1.7117e-06 5.77501e-05 1.1407e-20
-1.47238e-05 1.07375e-05 -4.20488e-21
1.59565e-05 -6.24937e-06 -1.30179e-20
1.68794e-05 -4.51095e-06 7.6152e-21
-6.06906e-05 -8.77297e-06 -1.29482e-21
-3.46211e-05 1.67489e-05 2.07568e-20
-4.35341e-05 -5.25704e-05 2.0024e-21
8.66041e-06 8.34941e-06 -1.68496e-20
1.42162e-05 7.29577e-06 3.2578e-21
2.68167e-05 -4.1977e-06 2.99799e-21
-8.10796e-06 -1.32488e-05 -4.96054e-21
1.72242e-05 8.43234e-06 1.21716e-20
7.33863e-06 -3.00479e-05 1.14116e-20
-1.37198e-05 1.02096e-05 9.43691e-21
-2.23843e-05 -2.14318e-05 -1.0258e-20
-5.83853e-06 1.6305e-05 -2.24705e-21
-3.2724e-06 2.06877e-05 -1.0409e-21
3.38648e-05 2.13058e-05 -5.35861e-21
3.61293e-05 -1.92914e-05 7.66341e-21
-4.20895e-05 -1.16284e-05 -1.31709e-21
7.63756e-06 7.68913e-06 -1.76752e-22
-4.05962e-06 0.000101406 2.07442e-20
8.62892e-07 -0.000104514 -3.59796e-21
5.24782e-05 8.76837e-05 1.68537e-20
-1.91114e-05 8.46168e-06 -4.13212e-22
-2.63877e-05 5.65754e-05 1.46363e-20
5.3057e-05 -8.46771e-05 -1.89569e-21
-1.17257e-05 -1.82905e-05 4.55609e-21
7.80343e-05 6.75268e-05 8.91667e-21
2.40042e-05 -1.79847e-05 7.98173e-21
-3.60899e-06 -2.98353e-05 9.57087e-21
8.18147e-05 -6.58786e-05 -1.13005e-20
-6.74755e-06 1.45248e-05 -5.22125e-21
-5.38566e-05 -3.48401e-05 2.31061e-20
-4.3032e-05 -9.31723e-05 4.75256e-21
-2.41229e-05 -5.78301e-05 2.70984e-21
-4.39939e-05 9.41795e-05 1.54709e-20
-1.00974e-05 6.41125e-05 2.19496e-22
1.56397e-05 3.71246e-05 -9.16316e-21
-2.79675e-05 3.72575e-05 1.94903e-20
-2.52836e-05 -5.52085e-05 5.42407e-21
0.000100409 1.73244e-05 2.90749e-21
-1.69349e-05 1.07718e-05 1.4191e-20
-5.9149e-06 1.63402e-05 3.71529e-21
-5.07809e-05 3.76573e-05 3.46305e-21
-1.72839e-05 9.94854e-06 1.20141e-20
9.9246e-05 -1.52699e-05 -1.0104e-20
-1.53669e-05 7.80217e-06 -4.14623e-21
7.19584e-06 -1.45013e-05 -1.75381e-21
-7.80037e-05 -6.09762e-05 8.82966e-21
-2.58899e-05 5.77429e-05 1.36924e-20
-7.91569e-05 6.04031e-05 -3.48836e-21
2.45515e-05 5.19729e-05 5.42061e-22
-1.4774e-05 1.05871e-05 1.03844e-20
-2.05389e-05 2.44873e-05 1.98094e-20
-2.85452e-05 4.98398e-05 3.98601e-20
-5.68009e-05 2.08106e-07 1.50729e-20
-9.44468e-07 1.63032e-05 6.16835e-21
-2.88622e-05 -5.04286e-05 -1.73501e-20
-5.82239e-05 -2.1996e-07 -4.0365e-20
-2.8362e-05 4.87176e-05 2.87483e-20
-1.51969e-05 6.62952e-05 3.36276e-20
-1.78723e-05 4.1279e-05 -6.99051e-21
-3.39151e-05 2.71493e-05 7.68659e-21
2.43936e-05 -6.05957e-06 -7.34405e-22
3.80194e-05 -2.19623e-06 -5.68766e-21
1.34883e-05 8.20388e-06 9.74703e-21
-1.04737e-05 -7.40201e-05 -1.59627e-20
-6.94794e-05 -2.79865e-05 -2.19787e-20
3.71485e-05 7.33023e-07 -1.21793e-20
5.83917e-05 -1.08968e-05 -1.90368e-20
-1.05883e-05 -1.35031e-05 1.24437e-20
-5.08509e-05 3.76432e-05 6.72313e-21
-4.61538e-05 5.40245e-05 9.78433e-21
6.23899e-05 -2.2242e-05 -1.64242e-20
-2.81898e-05 -5.05192e-05 -6.73359e-21
-2.87897e-05 4.98014e-05 2.09976e-20
-5.72796e-05 -1.1717e-06 2.69998e-20
-2.6585e-05 5.06201e-05 1.68923e-20
-5.79786e-05 -8.17352e-07 -4.73761e-20
6.61051e-05 1.74001e-05 2.24297e-21
5.6405e-05 1.29312e-06 -6.55092e-21
5.09225e-05 -2.92867e-05 5.96992e-21
2.49212e-05 -5.94531e-05 -2.34901e-20
2.99316e-05 -4.88782e-05 -1.23104e-20
2.91802e-05 4.87021e-05 -3.72122e-21
2.43558e-05 5.81148e-05 1.47853e-20
7.58356e-05 -2.00464e-05 3.11295e-20
4.62866e-05 2.9076e-05 8.00761e-21
4.66447e-05 1.37515e-05 9.13723e-21
TENSORS solid_stress_TPM float
375.063 -24.9216 -2.13637e-12
-24.9216 238.589 -6.51331e-14
-2.13637e-12 -6.51331e-14 197.836

457.05 -21.3209 -5.14107e-12
-21.3209 490.035 4.48352e-12
-5.14107e-12 4.48352e-12 487.155

454.924 28.0463 -1.90603e-12
28.0463 463.755 -1.46431e-12
-1.90603e-12 -1.46431e-12 458.503

455.076 -29.8424 -3.62865e-12
-29.8424 482.658 -5.03301e-15
-3.62865e-12 -5.03301e-15 484.902

527.722 19.9308 -1.47911e-12
19.9308 548.485 1.06352e-12
-1.47911e-12 1.06352e-12 527.393

437.354 -18.0766 6.3934e-13
-18.0766 480.386 -1.56912e-13
6.3934e-13 -1.56912e-13 458.083

372.358 26.486 -6.91595e-13
26.486 239.109 1.69464e-12
-6.91595e-13 1.69464e-12 197.82

473.697 29.9598 -2.03807e-12
29.9598 469.547 -4.99452e-13
-2.03807e-12 -4.99452e-13 472.381

471.597 5.4837 -1.89478e-12
5.4837 417.864 4.15371e-13
-1.89478e-12 4.15371e-13 432.838

504.306 -7.47766 1.85452e-12
-7.47766 444.158 -1.69213e-12
1.85452e-12 -1.69213e-12 483.496

360.327 16.3109 1.77636e-12
16.3109 247.677 1.31628e-12
1.77636e-12 1.31628e-12 233.667

444.826 -13.4544 -2.59052e-14
-13.4544 498.432 -1.78998e-12
-2.59052e-14 -1.78998e-12 472.282

466.912 27.8354 -3.59771e-12
27.8354 468.348 -2.96652e-13
-3.59771e-12 -2.96652e-13 466.778

457.08 -14.3413 7.63565e-13
-14.3413 500.48 -1.47911e-12
7.63565e-13 -1.47911e-12 483.501

512.975 33.3085 -1.33493e-12
33.3085 511.636 1.69705e-12
-1.33493e-12 1.69705e-12 515.264

489.221 0.56111 -5.64289e-13
0.56111 435.567 5.36839e-13
-5.64289e-13 5.36839e-13 462.316

457.627 -17.9687 -5.33564e-13
-17.9687 512.93 -4.66886e-13
-5.33564e-13 -4.66886e-13 493.639

494.005 -2.66519 2.48187e-12
-2.66519 439.092 1.29918e-12
2.48187e-12 1.29918e-12 474.308

418.834 26.6774 4.01309e-12
26.6774 449.705 2.6373e-12
4.01309e-12 2.6373e-12 424.095

482.029 -4.19616 -1.22628e-12
-4.19616 424.963 2.2482e-12
-1.22628e-12 2.2482e-12 453.518

425.337 8.66996 -1.06729e-13
8.66996 481.95 -1.06818e-12
-1.06729e-13 -1.06818e-12 444.883

634.135 6.28565 7.11388e-12
6.28565 633.974 5.80602e-12
7.11388e-12 5.80602e-12 570.342

479.2 1.87614 1.89774e-12
1.87614 422.981 -2.10276e-12
1.89774e-12 -2.10276e-12 449.775

447.206 -27.7183 -1.87406e-12
-27.7183 461.195 -1.54543e-12
-1.87406e-12 -1.54543e-12 452.991

481.096 6.85007 6.60213e-13
6.85007 425.482 -5.48983e-12
6.60213e-13 -5.48983e-12 452.981

449.801 19.114 -4.95085e-13
19.114 490.364 -2.82056e-12
-4.95085e-13 -2.82056e-12 478.249

377.69 4.18198 6.2812e-12
4.18198 291.68 1.95784e-12
6.2812e-12 1.95784e-12 259.027

462.729 30.7487 -3.43962e-12
30.7487 460.757 -4.70468e-12
-3.43962e-12 -4.70468e-12 460.587

384.979 37.0799 -6.11422e-12
37.0799 383.558 3.1702e-12
-6.11422e-12 3.1702e-12 348.453

586.962 10.3236 1.17802e-12
10.3236 563.477 3.1745e-13
1.17802e-12 3.1745e-13 546.903

491.735 14.2175 2.49697e-12
14.2175 442.54 -1.11481e-12
2.49697e-12 -1.11481e-12 465.899

352.889 -17.783 -5.21242e-12
-17.783 416.766 7.93913e-12
-5.21242e-12 7.93913e-12 348.624

331.047 -42.1067 -2.52716e-12
-42.1067 335.903 5.46171e-12
-2.52716e-12 5.46171e-12 253.507

531.437 5.98515 2.43542e-12
5.98515 586.913 -3.41297e-12
2.43542e-12 -3.41297e-12 538.614

554.049 -4.83824 -7.32747e-14
-4.83824 582.096 5.13397e-12
-7.32747e-14 5.13397e-12 542.544

578.01 21.0272 8.19197e-13
21.0272 539.975 3.61444e-12
8.19197e-13 3.61444e-12 538.382

556.21 5.06509 3.73968e-12
5.06509 600.693 -1.45839e-12
3.73968e-12 -1.45839e-12 548

573.799 -9.17105 -4.47227e-12
-9.17105 555.793 2.53427e-12
-4.47227e-12 2.53427e-12 540.67

467.172 -28.0006 3.426e-12
-28.0006 466.537 -1.59872e-13
3.426e-12 -1.59872e-13 465.15

330.432 41.5259 2.60769e-12
41.5259 338.002 -1.3974e-13
2.60769e-12 -1.3974e-13 253.866

414.567 -17.9517 -1.64017e-12
-17.9517 354.52 2.02742e-12
-1.64017e-12 2.02742e-12 346.354

559.33 -3.70399 -2.19469e-12
-3.70399 599.943 -2.35959e-13
-2.19469e-12 -2.35959e-13 548.414

586.435 19.5519 2.51947e-12
19.5519 572.476 1.7953e-12
2.51947e-12 1.7953e-12 548.202

490.94 -12.2738 -9.76404e-13
-12.2738 442.895 4.48382e-12
-9.76404e-13 4.48382e-12 466.572

341.74 -43.3049 3.60008e-12
-43.3049 345.368 -8.02913e-13
3.60008e-12 -8.02913e-13 289.004

417.594 -18.0659 -1.23279e-12
-18.0659 357.138 2.43657e-12
-1.23279e-12 2.43657e-12 351.529

413.045 17.0879 -3.08154e-12
17.0879 464.821 1.94037e-12
-3.08154e-12 1.94037e-12 428.76

429.663 19.3416 1.02733e-13
19.3416 466.551 -2.00136e-13
1.02733e-13 -2.00136e-13 437.114

486.818 -16.3025 -2.91026e-12
-16.3025 432.908 4.02434e-12
-2.91026e-12 4.02434e-12 458.712

355.607 -34.1903 -3.69127e-12
-34.1903 389.432 -4.15075e-12
-3.69127e-12 -4.15075e-12 332.594

410.285 19.1846 -5.07564e-12
19.1846 350.727 -2.62901e-12
-5.07564e-12 -2.62901e-12 339.503

425.235 -25.2919 -1.23753e-12
-25.2919 383.85 -4.26918e-12
-1.23753e-12 -4.26918e-12 373.106

519.946 19.4835 8.30151e-13
19.4835 547.558 5.93303e-13
8.30151e-13 5.93303e-13 525.76

416.446 29.6536 1.89715e-12
29.6536 393.917 4.21589e-12
1.89715e-12 4.21589e-12 373.97

522.204 -21.8127 1.13154e-12
-21.8127 541.421 4.49403e-12
1.13154e-12 4.49403e-12 524.406

364.098 -42.7167 -8.84863e-12
-42.7167 343.307 5.01051e-12
-8.84863e-12 5.01051e-12 289.721

553.471 5.45718 -1.69953e-12
5.45718 583.888 9.31699e-13
-1.69953e-12 9.31699e-13 542.918

373.745 -5.33063 -1.0453e-11
-5.33063 436.699 3.9672e-13
-1.0453e-11 3.9672e-13 373.854

580.835 10.3848 -1.15315e-12
10.3848 556.192 6.4497e-13
-1.15315e-12 6.4497e-13 542.675

435.091 21.4154 -4.12707e-13
21.4154 473.8 -2.29091e-12
-4.12707e-13 -2.29091e-12 454.707

513.609 5.75491 1.4504e-12
5.75491 452.843 -8.39329e-13
1.4504e-12 -8.39329e-13 494.901

522.494 11.459 1.46934e-12
11.459 487.895 -2.86882e-12
1.46934e-12 -2.86882e-12 507.112

383.735 31.8231 -5.99224e-13
31.8231 315.216 1.94689e-12
-5.99224e-13 1.94689e-12 269.892

482.121 -6.0363 2.43583e-12
-6.0363 528.216 -2.82204e-12
2.43583e-12 -2.82204e-12 504.135

487.13 9.52069 -4.28857e-12
9.52069 523.725 -6.03369e-13
-4.28857e-12 -6.03369e-13 507.53

456.493 -2.88167 1.88183e-13
-2.88167 520.194 -2.88776e-12
1.88183e-13 -2.88776e-12 487.843

464.491 23.4012 -1.29852e-12
23.4012 503.508 -4.89682e-13
-1.29852e-12 -4.89682e-13 495.477

496.788 8.46432 -9.22521e-13
8.46432 444.435 -1.59191e-12
-9.22521e-13 -1.59191e-12 477.736

445.545 -28.2425 -7.98176e-13
-28.2425 459.568 1.2174e-12
-7.98176e-13 1.2174e-12 451.205

501.722 -1.71158 3.3286e-12
-1.71158 444.956 -2.24332e-12
3.3286e-12 -2.24332e-12 489.107

519.559 -19.2595 -2.2012e-12
-19.2595 546.851 -1.8255e-12
-2.2012e-12 -1.8255e-12 525.493

523.333 21.3078 3.00678e-12
21.3078 542.945 7.82906e-13
3.00678e-12 7.82906e-13 525.295

353.439 -16.5858 6.99589e-13
-16.5858 415.773 1.00779e-12
6.99589e-13 1.00779e-12 346.143

506.057 -27.9373 -2.57216e-12
-27.9373 485.343 -3.38751e-12
-2.57216e-12 -3.38751e-12 493.915

449.76 -25.137 -8.73968e-13
-25.137 471.262 4.96551e-12
-8.73968e-13 4.96551e-12 458.616

357.9 -31.7144 -4.26089e-12
-31.7144 285.698 3.08376e-12
-4.26089e-12 3.08376e-12 249.879

498.529 3.22316 5.59404e-13
3.22316 541.438 4.12588e-12
5.59404e-13 4.12588e-12 513.675

501.763 28.9453 5.12716e-12
28.9453 474.586 -7.54952e-14
5.12716e-12 -7.54952e-14 487.694

448.483 19.6651 3.10877e-12
19.6651 492.149 -8.02617e-13
3.10877e-12 -8.02617e-13 477.681

440.233 8.00064 1.71596e-12
8.00064 373.069 -1.46579e-12
1.71596e-12 -1.46579e-12 382.969

386.485 -33.9401 2.82559e-12
-33.9401 360.237 -1.47319e-12
2.82559e-12 -1.47319e-12 319.464

537.744 -10.5868 1.00571e-12
-10.5868 556.167 8.23045e-13
1.00571e-12 8.23045e-13 531.279

482.695 23.9004 1.22687e-12
23.9004 504.596 1.4466e-12
1.22687e-12 1.4466e-12 502.079

385.406 -32.3883 -1.52056e-12
-32.3883 345.336 -2.67993e-12
-1.52056e-12 -2.67993e-12 317.109

422.237 10.7926 -4.68129e-12
10.7926 363.882 -4.29819e-12
-4.68129e-12 -4.29819e-12 350.285

307.676 -21.2088 2.53072e-12
-21.2088 388.477 -3.27323e-12
2.53072e-12 -3.27323e-12 288.141

434.481 14.4267 -1.44581e-12
14.4267 488.711 -1.27779e-12
-1.44581e-12 -1.27779e-12 460.922

509.758 23.1452 -2.89309e-12
23.1452 475.207 -2.80102e-12
-2.89309e-12 -2.80102e-12 489.982

338.269 42.2043 -1.86754e-12
42.2043 349.601 -5.10288e-12
-1.86754e-12 -5.10288e-12 288.977

634.222 16.505 -2.95349e-12
16.505 603.081 9.64858e-13
-2.95349e-12 9.64858e-13 565.347

372.921 -4.10899 2.54878e-12
-4.10899 436.859 4.70971e-12
2.54878e-12 4.70971e-12 373.461

637.127 -16.6303 -1.92032e-12
-16.6303 599.552 7.86304e-12
-1.92032e-12 7.86304e-12 564.854

533.97 -27.3347 1.81958e-12
-27.3347 507.272 3.93537e-12
1.81958e-12 3.93537e-12 515.748

505.335 27.4255 -2.77052e-12
27.4255 466.37 -2.11416e-12
-2.77052e-12 -2.11416e-12 485.109

426.966 -24.4139 9.91207e-13
-24.4139 386.273 1.52589e-12
9.91207e-13 1.52589e-12 376.013

358.968 31.3278 -2.75691e-12
31.3278 396.041 -3.60127e-12
-2.75691e-12 -3.60127e-12 339.231

339.854 -10.7065 6.31791e-12
-10.7065 408.429 -7.20964e-12
6.31791e-12 -7.20964e-12 319.134

453.147 21.9715 8.38144e-13
21.9715 494.722 -1.54839e-13
8.38144e-13 -1.54839e-13 483.209

533.148 16.7954 -2.6219e-12
16.7954 506.23 -2.90316e-12
-2.6219e-12 -2.90316e-12 513.387

443.493 15.1556 -8.20085e-13
15.1556 488.484 -2.30334e-12
-8.20085e-13 -2.30334e-12 464.323

451.524 15.9558 3.49824e-12
15.9558 400.573 -9.70483e-13
3.49824e-12 -9.70483e-13 403.784

374.522 -21.4756 -9.35548e-14
-21.4756 419.907 -2.11742e-12
-9.35548e-14 -2.11742e-12 357.231

389.759 -29.3946 -1.05397e-12
-29.3946 342.4 -8.91731e-13
-1.05397e-12 -8.91731e-13 314.42

455.009 -24.5745 -2.51458e-12
-24.5745 480.109 -1.70797e-12
-2.51458e-12 -1.70797e-12 478.412

466.468 27.4529 -4.0569e-12
27.4529 478.785 -2.01824e-12
-4.0569e-12 -2.01824e-12 479.85

452.26 23.1884 1.21769e-12
23.1884 492.603 -3.1406e-12
1.21769e-12 -3.1406e-12 482.085

466.334 13.1687 -6.87459e-13
13.1687 529.813 3.40113e-12
-6.87459e-13 3.40113e-12 501.421

490.907 9.37282 3.94943e-12
9.37282 437.929 3.3246e-12
3.94943e-12 3.3246e-12 462.096

327.74 -4.66561 4.22181e-12
-4.66561 403.42 1.99663e-12
4.22181e-12 1.99663e-12 314.441

462.623 -36.8314 -2.80428e-12
-36.8314 487.733 2.22666e-12
-2.80428e-12 2.22666e-12 492.789

445.891 27.4682 -2.45167e-12
27.4682 463.313 -2.19854e-12
-2.45167e-12 -2.19854e-12 455.055

305.697 2.17049 1.95681e-12
2.17049 393.398 -5.56118e-12
1.95681e-12 -5.56118e-12 297.283

386.033 34.615 -3.65219e-12
34.615 332.477 -1.69938e-12
-3.65219e-12 -1.69938e-12 306.274

453.393 -22.9756 -2.23392e-12
-22.9756 480.114 2.7948e-13
-2.23392e-12 2.7948e-13 476.214

501.439 5.73293 2.41969e-12
5.73293 441.359 -1.11333e-12
2.41969e-12 -1.11333e-12 481.052

422.422 27.2078 2.04755e-12
27.2078 389.803 -1.8859e-12
2.04755e-12 -1.8859e-12 374.27

570.568 12.7445 4.1432e-12
12.7445 565.939 1.76748e-12
4.1432e-12 1.76748e-12 542.946

396.216 24.3338 -6.76437e-12
24.3338 349.68 -3.66818e-12
-6.76437e-12 -3.66818e-12 319.074

569.19 -13.054 3.22616e-12
-13.054 565.851 -7.14243e-12
3.22616e-12 -7.14243e-12 542.402

375.126 0.778697 1.79249e-12
0.778697 438.913 8.60941e-13
1.79249e-12 8.60941e-13 374.676

461.516 -2.23562 -3.25665e-12
-2.23562 399.34 -2.67416e-12
-3.25665e-12 -2.67416e-12 417.321

538.231 -15.7662 -1.27409e-12
-15.7662 480.67 1.08743e-12
-1.27409e-12 1.08743e-12 513.515

457.288 24.3884 -1.00961e-14
24.3884 487.83 1.61382e-12
-1.00961e-14 1.61382e-12 488.396

461.297 -13.5354 -1.8734e-12
-13.5354 519.176 -2.25597e-13
-1.8734e-12 -2.25597e-13 495.754

515.011 -7.99933 -1.81129e-12
-7.99933 438.237 2.15309e-12
-1.81129e-12 2.15309e-12 494.318

488.351 -22.2817 4.47494e-13
-22.2817 541.636 4.51787e-13
4.47494e-13 4.51787e-13 515.786

556.078 -6.59872 1.90218e-12
-6.59872 560.42 -4.55528e-12
1.90218e-12 -4.55528e-12 538.76

463.91 -29.9086 2.50526e-12
-29.9086 483.241 1.13124e-12
2.50526e-12 1.13124e-12 483.642

341.737 11.4551 -2.59348e-13
11.4551 406.233 -7.56491e-12
-2.59348e-13 -7.56491e-12 319.513

422.522 -28.1504 2.29742e-13
-28.1504 391.279 -5.79862e-12
2.29742e-13 -5.79862e-12 375.183

507.412 -13.7703 -1.71307e-12
-13.7703 558.779 -5.03893e-13
-1.71307e-12 -5.03893e-13 525.285

501.102 0.505066 2.21601e-12
0.505066 441.324 -6.06108e-13
2.21601e-12 -6.06108e-13 487.129

476.982 -21.5239 -6.38008e-14
-21.5239 507.463 -1.02881e-12
-6.38008e-14 -1.02881e-12 501.544

459.142 25.6983 2.86438e-13
25.6983 484.645 -2.3358e-12
2.86438e-13 -2.3358e-12 488.024

394.468 -31.4688 8.33703e-13
-31.4688 400.638 -1.55727e-12
8.33703e-13 -1.55727e-12 357.556

552.15 -7.08239 -1.06974e-12
-7.08239 585.32 -1.15463e-14
-1.06974e-12 -1.15463e-14 542.633

347.241 -33.081 -5.43684e-12
-33.081 382.643 -4.02404e-12
-5.43684e-12 -4.02404e-12 303.464

490.914 -19.1814 -2.4265e-12
-19.1814 448.427 -2.55618e-12
-2.4265e-12 -2.55618e-12 467.165

519.749 1.97155 -2.94587e-12
1.97155 466.855 1.66533e-12
-2.94587e-12 1.66533e-12 502.871

570.585 17.8741 3.09974e-13
17.8741 566.501 6.8141e-12
3.09974e-13 6.8141e-12 542.405

375.325 20.1857 -4.52201e-12
20.1857 424.073 7.62649e-13
-4.52201e-12 7.62649e-13 360.255

489.123 27.2128 -4.63037e-13
27.2128 468.581 -4.58567e-12
-4.63037e-13 -4.58567e-12 476.679

454.423 -24.5144 1.72307e-12
-24.5144 415.381 3.52429e-12
1.72307e-12 3.52429e-12 418.641

454.759 -17.8395 -1.20622e-12
-17.8395 494.951 2.4265e-12
-1.20622e-12 2.4265e-12 482.682

379.234 35.0727 -5.00341e-12
35.0727 366.064 3.29573e-12
-5.00341e-12 3.29573e-12 317.079

449.195 -21.8315 3.29855e-12
-21.8315 491.749 2.37114e-12
3.29855e-12 2.37114e-12 479.815

485.532 30.8522 -1.71833e-12
30.8522 465.174 4.22181e-13
-1.71833e-12 4.22181e-13 473.485

480.365 -25.246 3.81917e-13
-25.246 442.406 6.01297e-12
3.81917e-13 6.01297e-12 455.482

448.26 -25.1287 -3.66226e-12
-25.1287 469.812 7.75084e-13
-3.66226e-12 7.75084e-13 458.137

445.388 -18.6906 1.77044e-12
-18.6906 393.497 -6.63173e-12
1.77044e-12 -6.63173e-12 397.294

470.697 -18.8518 4.52912e-12
-18.8518 422.891 2.03807e-12
4.52912e-12 2.03807e-12 437.571

459.042 -25.3377 1.31332e-12
-25.3377 485.472 2.36093e-12
1.31332e-12 2.36093e-12 488.866

386.577 35.9743 1.16766e-12
35.9743 382.023 4.52379e-12
1.16766e-12 4.52379e-12 348.148

444.536 15.3784 1.15463e-13
15.3784 491.576 -1.66741e-12
1.15463e-13 -1.66741e-12 467.18

469.437 26.424 -8.03505e-13
26.424 479.998 3.30787e-12
-8.03505e-13 3.30787e-12 482.586

456.184 25.4736 3.21848e-12
25.4736 486.69 -9.93428e-13
3.21848e-12 -9.93428e-13 487.287

457.846 11.6228 3.6294e-12
11.6228 506.981 -2.21216e-12
3.6294e-12 -2.21216e-12 486.054

431.992 -8.22808 -3.36205e-12
-8.22808 370.788 1.58569e-12
-3.36205e-12 1.58569e-12 363.34

376.812 18.609 3.67055e-12
18.609 427.305 -2.07242e-12
3.67055e-12 -2.07242e-12 363.916

452.353 -24.3822 1.18572e-12
-24.3822 478.428 -2.5769e-12
1.18572e-12 -2.5769e-12 470.751

440.786 25.6689 1.13509e-12
25.6689 455.682 3.53732e-12
1.13509e-12 3.53732e-12 437.844

390.99 -35.6342 6.86384e-12
-35.6342 380.31 -2.71842e-12
6.86384e-12 -2.71842e-12 350.122

368.973 38.3217 -4.40063e-12
38.3217 327.279 -7.33517e-12
-4.40063e-12 -7.33517e-12 295.708

363.678 -33.3156 -5.64941e-12
-33.3156 394.47 -3.52192e-12
-5.64941e-12 -3.52192e-12 342.009

397.965 -31.1638 5.4996e-12
-31.1638 404.228 -1.78938e-12
5.4996e-12 -1.78938e-12 363.005

502.899 -6.8386 9.40581e-13
-6.8386 442.291 1.90122e-12
9.40581e-13 1.90122e-12 482.357

393.198 30.3459 3.12284e-12
30.3459 409.015 -5.4925e-12
3.12284e-12 -5.4925e-12 363.465

429.74 13.2964 2.3294e-12
13.2964 372.278 4.30619e-12
2.3294e-12 4.30619e-12 362.745

350.172 13.3807 5.45282e-12
13.3807 418.552 -8.11203e-13
5.45282e-12 -8.11203e-13 348.505

379.511 -22.3434 3.58587e-12
-22.3434 423.551 6.59857e-12
3.58587e-12 6.59857e-12 363.479

491.239 -1.0925 -8.44288e-13
-1.0925 550.908 -1.24582e-12
-8.44288e-13 -1.24582e-12 516.338

372.894 2.24697 -2.70924e-12
2.24697 437.827 1.47793e-12
-2.70924e-12 1.47793e-12 373.552

357.919 31.0935 5.01643e-12
31.0935 399.521 -4.358e-12
5.01643e-12 -4.358e-12 341.99

458.029 12.1088 -2.17965e-12
12.1088 510.6 2.13755e-13
-2.17965e-12 2.13755e-13 488.441

421.49 -27.6513 2.72848e-12
-27.6513 389.105 -3.57225e-12
2.72848e-12 -3.57225e-12 375.105

524.79 20.5571 -2.42769e-12
20.5571 469.785 -7.98768e-13
-2.42769e-12 -7.98768e-13 500.769

534.955 26.2704 4.14839e-12
26.2704 506.892 -2.76964e-12
4.14839e-12 -2.76964e-12 516.126

494.856 -18.5694 8.78704e-13
-18.5694 449.062 6.26225e-12
8.78704e-13 6.26225e-12 470.893

554.612 -1.80348 1.64431e-12
-1.80348 516.052 6.93963e-13
1.64431e-12 6.93963e-13 525.747

473.326 -31.8133 -8.73672e-13
-31.8133 475.735 4.98416e-12
-8.73672e-13 4.98416e-12 478.615

412.635 23.3309 1.74675e-12
23.3309 357.225 -2.3815e-12
1.74675e-12 -2.3815e-12 348.121

464.218 30.1626 1.69909e-12
30.1626 482.81 -1.73876e-12
1.69909e-12 -1.73876e-12 483.243

464.48 29.2065 -2.69592e-12
29.2065 482.283 -8.20381e-13
-2.69592e-12 -8.20381e-13 482.804

393.98 30.665 -5.15143e-13
30.665 405.759 2.7723e-12
-5.15143e-13 2.7723e-12 360.9

502.892 27.0864 5.1763e-12
27.0864 482.7 -9.55976e-13
5.1763e-12 -9.55976e-13 490.77

415.389 3.52562 -2.46677e-12
3.52562 339.044 -5.56266e-12
-2.46677e-12 -5.56266e-12 340.854

493.16 31.8172 -1.61708e-12
31.8172 487.262 2.05169e-12
-1.61708e-12 2.05169e-12 495.611

476.36 -12.5993 -1.3282e-12
-12.5993 522.487 4.65998e-13
-1.3282e-12 4.65998e-13 500.283

536.958 24.2774 2.82826e-12
24.2774 507.432 -1.81514e-12
2.82826e-12 -1.81514e-12 516.662

468.218 -29.5794 3.61666e-12
-29.5794 480.012 -3.67706e-13
3.61666e-12 -3.67706e-13 483.101

464.595 -4.89738 -3.12705e-12
-4.89738 521.594 -2.04222e-12
-3.12705e-12 -2.04222e-12 491.015

400.975 -24.5596 2.46558e-12
-24.5596 349.052 6.07692e-12
2.46558e-12 6.07692e-12 323.978

419.004 29.6971 -1.00187e-12
29.6971 392.498 9.20153e-13
-1.00187e-12 9.20153e-13 373.802

352.373 14.6986 -1.10919e-12
14.6986 417.25 4.51195e-13
-1.10919e-12 4.51195e-13 348.27

500.572 -1.13928 -2.95615e-13
-1.13928 442.836 1.92668e-12
-2.95615e-13 1.92668e-12 487.748

492.514 0.00216279 2.49134e-12
0.00216279 438.142 1.88276e-12
2.49134e-12 1.88276e-12 474.459

453.006 23.1256 5.22841e-13
23.1256 479.749 1.61648e-13
5.22841e-13 1.61648e-13 475.626

481.343 23.8716 -4.37872e-13
23.8716 502.911 2.26946e-12
-4.37872e-13 2.26946e-12 501.291

456.629 -24.381 8.67251e-13
-24.381 487.395 -2.91619e-14
8.67251e-13 -2.91619e-14 488.538

457.873 -0.673556 -1.30664e-12
-0.673556 517.981 -5.90579e-12
-1.30664e-12 -5.90579e-12 486.437

458.927 25.5911 -1.9161e-12
25.5911 486.511 4.86973e-12
-1.9161e-12 4.86973e-12 488.559

465.605 -10.3092 -2.28558e-13
-10.3092 408.122 -3.70045e-12
-2.28558e-13 -3.70045e-12 427.264

400.903 -32.8381 2.18788e-12
-32.8381 414.996 -8.75744e-13
2.18788e-12 -8.75744e-13 385.203

518.139 -2.30213 -6.93075e-13
-2.30213 465.781 3.33659e-13
-6.93075e-13 3.33659e-13 500.968

391.911 -34.5131 4.02167e-12
-34.5131 379.643 -1.79294e-12
4.02167e-12 -1.79294e-12 347.452

478.043 19.0859 -7.20609e-13
19.0859 509.245 -3.40498e-12
-7.20609e-13 -3.40498e-12 501.887

506.156 -26.4794 1.83971e-12
-26.4794 470.288 8.65086e-13
1.83971e-12 8.65086e-13 487.315

425.045 -9.69164 -1.84031e-12
-9.69164 366.766 1.59132e-13
-1.84031e-12 1.59132e-13 356.017

530.304 -23.1929 1.59398e-12
-23.1929 488.796 -3.33008e-12
1.59398e-12 -3.33008e-12 506.529

500.941 2.35845 -1.36853e-12
2.35845 444.624 -9.17858e-13
-1.36853e-12 -9.17858e-13 489.25

521.231 -23.3229 -2.89546e-12
-23.3229 501.882 1.13376e-12
-2.89546e-12 1.13376e-12 508.574

502.061 -25.8603 -7.21615e-12
-25.8603 461.534 -3.12698e-12
-7.21615e-12 -3.12698e-12 481.287

498.875 -8.54723 1.90337e-12
-8.54723 445.18 1.06759e-12
1.90337e-12 1.06759e-12 479.389

482.265 -23.0688 -1.7355e-12
-23.0688 505.035 6.4676e-13
-1.7355e-12 6.4676e-13 502.578

428.584 -31.3461 -2.21334e-12
-31.3461 410.63 9.66338e-13
-2.21334e-12 9.66338e-13 399.038

503.312 -24.5894 -6.87746e-12
-24.5894 464.756 -8.28967e-14
-6.87746e-12 -8.28967e-14 482.203

441.288 10.8659 -4.75827e-12
10.8659 378.518 -9.78181e-13
-4.75827e-12 -9.78181e-13 387.838

500.08 26.3416 3.1554e-12
26.3416 498.624 -4.33535e-12
3.1554e-12 -4.33535e-12 500.147

463.798 -37.6109 -1.73402e-12
-37.6109 488.437 1.08032e-12
-1.73402e-12 1.08032e-12 494.128

464.907 37.2634 1.08891e-12
37.2634 487.349 3.76936e-12
1.08891e-12 3.76936e-12 493.843

446.377 -28.5722 -1.02092e-12
-28.5722 500.062 -1.03058e-12
-1.02092e-12 -1.03058e-12 492.358

448.611 27.0632 5.5164e-12
27.0632 500.753 -1.66474e-12
5.5164e-12 -1.66474e-12 492.545

513.117 -8.52689 -3.43429e-13
-8.52689 436.456 -1.01386e-12
-3.43429e-13 -1.01386e-12 492.805

511.279 9.27284 -7.66054e-13
9.27284 438.052 -9.78477e-13
-7.66054e-13 -9.78477e-13 492.443

501.703 -9.84722 3.28508e-12
-9.84722 451.786 -5.56e-13
3.28508e-12 -5.56e-13 483.065

510.905 32.1137 3.15984e-12
32.1137 510.432 2.9319e-12
3.15984e-12 2.9319e-12 514.096

509.681 -32.8515 -4.09154e-13
-32.8515 510.109 -1.96065e-13
-4.09154e-13 -1.96065e-13 513.735

481.853 16.0679 -2.76505e-12
16.0679 539.169 -1.8181e-12
-2.76505e-12 -1.8181e-12 514.367

483.047 -15.8005 2.829e-12
-15.8005 538.759 1.74379e-13
2.829e-12 1.74379e-13 514.388

556.903 -3.74966 -1.74201e-12
-3.74966 506.869 2.87296e-12
-1.74201e-12 2.87296e-12 525.03

558.457 3.61236 2.81982e-12
3.61236 505.193 -1.9457e-12
2.81982e-12 -1.9457e-12 525.402

387.347 9.83822 -3.48477e-12
9.83822 449.244 -3.83693e-12
-3.48477e-12 -3.83693e-12 397.126

472.433 -24.7759 2.2086e-13
-24.7759 480.8 -4.42609e-14
2.2086e-13 -4.42609e-14 485.02

443.511 -36.386 1.72884e-12
-36.386 485.581 1.94348e-12
1.72884e-12 1.94348e-12 486.673

473.69 -4.66469 2.67046e-12
-4.66469 420.478 1.43008e-12
2.67046e-12 1.43008e-12 436.381

540.292 -16.6927 -2.11609e-12
-16.6927 484.234 1.20555e-12
-2.11609e-12 1.20555e-12 515.328

541.012 16.1737 1.87554e-13
16.1737 485.457 1.27098e-12
1.87554e-13 1.27098e-12 515.934

506.909 0.12186 1.24789e-13
0.12186 423.602 -3.12956e-12
1.24789e-13 -3.12956e-12 487.047

384.829 23.3787 8.73672e-13
23.3787 432.341 3.31587e-13
8.73672e-13 3.31587e-13 385.514

442.383 36.17 -4.25808e-13
36.17 485.259 1.17728e-12
-4.25808e-13 1.17728e-12 485.879

452.644 -23.3964 -1.15966e-12
-23.3964 495 4.04328e-12
-1.15966e-12 4.04328e-12 483.635

443.293 23.356 3.62969e-12
23.356 397.557 -6.987e-14
3.62969e-12 -6.987e-14 400.413

531.006 23.8591 -1.78228e-12
23.8591 488.046 -1.01015e-12
-1.78228e-12 -1.01015e-12 507.287

428.522 -31.3179 -1.62833e-12
-31.3179 410.915 1.62537e-12
-1.62833e-12 1.62537e-12 398.857

519.902 -3.2322 -2.78177e-12
-3.2322 469.101 2.25301e-12
-2.78177e-12 2.25301e-12 502.728

439.447 -34.1598 -3.38529e-12
-34.1598 485.552 2.06827e-12
-3.38529e-12 2.06827e-12 485.868

389.221 8.32108 2.64244e-12
8.32108 452.374 4.78669e-12
2.64244e-12 4.78669e-12 400.895

385.916 21.8148 -3.50742e-12
21.8148 435.818 -6.762e-13
-3.50742e-12 -6.762e-13 388.733

383.884 35.7807 -6.30607e-12
35.7807 362.366 -3.42955e-12
-6.30607e-12 -3.42955e-12 318.359

408.224 1.579 -3.6664e-12
1.579 332.186 7.23888e-12
-3.6664e-12 7.23888e-12 327.357

485.498 -22.8053 -2.61628e-12
-22.8053 502.9 4.53952e-13
-2.61628e-12 4.53952e-13 501.79

351.911 31.1881 3.75048e-12
31.1881 388.869 3.59771e-12
3.75048e-12 3.59771e-12 312.388

451.394 23.6119 4.43379e-12
23.6119 478.46 -1.51523e-12
4.43379e-12 -1.51523e-12 465.256

442.242 -5.35029 -4.41365e-12
-5.35029 377.162 -1.53359e-13
-4.41365e-12 -1.53359e-13 387.776

464.202 11.2175 -1.86695e-12
11.2175 407.338 7.58504e-13
-1.86695e-12 7.58504e-13 424.963

505.425 0.429875 -3.46686e-13
0.429875 421.622 1.13587e-12
-3.46686e-13 1.13587e-12 485.719

449.397 -29.0299 -8.48951e-13
-29.0299 502.041 -4.04713e-12
-8.48951e-13 -4.04713e-12 493.631

572.529 -6.31774 2.17574e-12
-6.31774 589.505 2.46173e-12
2.17574e-12 2.46173e-12 549.282

463.186 37.4096 9.81733e-13
37.4096 487.072 -2.26941e-12
9.81733e-13 -2.26941e-12 493.107

408.778 1.66347 -2.42769e-12
1.66347 331.633 -3.63731e-12
-2.42769e-12 -3.63731e-12 308.934

404.274 -32.7917 2.3069e-12
-32.7917 415.55 2.70125e-12
2.3069e-12 2.70125e-12 387.427

443.189 36.6114 1.00046e-12
36.6114 485.552 -5.81017e-13
1.00046e-12 -5.81017e-13 486.616

444.719 -11.1345 3.50325e-12
-11.1345 498.98 3.34547e-13
3.50325e-12 3.34547e-13 471.483

386.11 -25.5183 3.15007e-13
-25.5183 428.944 -1.53833e-12
3.15007e-13 -1.53833e-12 384.601

449.497 28.8289 4.48234e-13
28.8289 501.675 -2.6148e-12
4.48234e-13 -2.6148e-12 493.331

452.755 -26.1453 -4.57767e-12
-26.1453 419.343 8.78704e-13
-4.57767e-12 8.78704e-13 419.558

579.574 10.4842 -2.96592e-12
10.4842 582.182 -5.97063e-12
-2.96592e-12 -5.97063e-12 549.067

398.367 30.8765 -8.52059e-13
30.8765 422.1 2.10794e-13
-8.52059e-13 2.10794e-13 388.201

515.75 8.126 -9.00021e-14
8.126 437.315 9.62341e-13
-9.00021e-14 9.62341e-13 494.624

493.846 30.1912 1.29615e-12
30.1912 484.791 -2.45877e-12
1.29615e-12 -2.45877e-12 493.842

453.509 23.3336 -1.84282e-12
23.3336 479.209 -1.75711e-12
-1.84282e-12 -1.75711e-12 475.842

510.738 -32.4862 5.59138e-12
-32.4862 512.491 -4.23421e-13
5.59138e-12 -4.23421e-13 515.044

510.349 -23.1922 1.41102e-12
-23.1922 473.22 -3.5462e-12
1.41102e-12 -3.5462e-12 489.717

511.432 10.4688 -8.70008e-13
10.4688 558.023 7.16464e-13
-8.70008e-13 7.16464e-13 523.766

452.216 -23.4356 2.48364e-12
-23.4356 480.212 -4.40359e-12
2.48364e-12 -4.40359e-12 468.993

394.448 -9.70928 -1.09897e-12
-9.70928 316.441 4.5944e-12
-1.09897e-12 4.5944e-12 295.604

387.328 -14.2789 3.81088e-12
-14.2789 306.086 3.46449e-12
3.81088e-12 3.46449e-12 290.078

547.616 16.5312 1.89034e-12
16.5312 507.797 4.75916e-12
1.89034e-12 4.75916e-12 519.355

436.53 22.5045 3.21817e-12
22.5045 469.182 7.01246e-12
3.21817e-12 7.01246e-12 447.866

476.006 29.1657 -2.65269e-12
29.1657 467.687 8.42881e-13
-2.65269e-12 8.42881e-13 471.52

450.347 0.688738 1.73254e-12
0.688738 392.814 -1.9947e-12
1.73254e-12 -1.9947e-12 395.713

478.386 6.57026 -1.68458e-13
6.57026 541.314 1.45188e-12
-1.68458e-13 1.45188e-12 507.577

507.375 16.5406 -5.06854e-13
16.5406 461.177 -3.76706e-12
-5.06854e-13 -3.76706e-12 488.121

390.014 -25.7649 4.32247e-12
-25.7649 430.079 2.53427e-12
4.32247e-12 2.53427e-12 387.771

456.357 -2.57175 2.2119e-12
-2.57175 517.056 -4.50366e-12
2.2119e-12 -4.50366e-12 484.88

400.628 13.3672 4.35059e-12
13.3672 453.031 -1.32753e-12
4.35059e-12 -1.32753e-12 404.675

486.956 -29.7154 4.28102e-13
-29.7154 465.854 -2.15946e-12
4.28102e-13 -2.15946e-12 474.298

430.341 -29.9516 -4.25378e-12
-29.9516 423.67 -1.34411e-13
-4.25378e-12 -1.34411e-13 404.994

399.749 31.6274 1.82254e-12
31.6274 418.273 1.80004e-12
1.82254e-12 1.80004e-12 386.039

624.011 -15.019 -2.96948e-13
-15.019 581.966 8.10048e-12
-2.96948e-13 8.10048e-12 557.93

494.556 2.04216 -1.20888e-12
2.04216 552.176 2.70954e-12
-1.20888e-12 2.70954e-12 517.96

483.541 20.2983 -4.53415e-12
20.2983 542.076 1.71626e-12
-4.53415e-12 1.71626e-12 516.067

544.739 15.4374 -8.54132e-13
15.4374 480.009 -8.65382e-13
-8.54132e-13 -8.65382e-13 515.789

473.791 -26.1906 6.13731e-13
-26.1906 479.799 -1.15197e-12
6.13731e-13 -1.15197e-12 483.058

452.17 17.9595 -2.48216e-12
17.9595 404.547 2.36966e-12
-2.48216e-12 2.36966e-12 406.957

531.605 -5.29255 -8.38154e-13
-5.29255 580.825 -2.20298e-12
-8.38154e-13 -2.20298e-12 537.148

512.23 -18.9877 2.68319e-12
-18.9877 464.834 -1.03354e-12
2.68319e-12 -1.03354e-12 493.068

474.022 -15.6003 4.99689e-12
-15.6003 423.216 -4.84827e-12
4.99689e-12 -4.84827e-12 438.921

402.038 11.605 -3.04379e-12
11.605 456.003 3.62495e-12
-3.04379e-12 3.62495e-12 407.819

410.963 -25.7379 1.30325e-12
-25.7379 435.624 -2.53545e-12
1.30325e-12 -2.53545e-12 398.995

532.083 -25.274 -3.55271e-14
-25.274 523.223 -3.99118e-12
-3.55271e-14 -3.99118e-12 519.153

423.097 31.9639 -3.45738e-12
31.9639 417.289 5.15143e-14
-3.45738e-12 5.15143e-14 400.343

535.517 -25.1339 1.16115e-12
-25.1339 505.822 3.67439e-12
1.16115e-12 3.67439e-12 515.695

453.54 2.59768 -2.47624e-12
2.59768 397.057 -6.67755e-12
-2.47624e-12 -6.67755e-12 401.936

311.127 -28.9344 -2.61717e-13
-28.9344 376.633 -5.29118e-12
-2.61717e-13 -5.29118e-12 290.023

431.918 -29.235 -5.43565e-12
-29.235 424.089 4.41129e-12
-5.43565e-12 4.41129e-12 406.193

353.794 32.1632 -1.90781e-12
32.1632 392.582 -3.49824e-12
-1.90781e-12 -3.49824e-12 312.999

470.383 -11.8761 -3.57414e-12
-11.8761 529.59 8.71599e-13
-3.57414e-12 8.71599e-13 500.341

391.487 -13.8233 -7.51399e-12
-13.8233 449.298 -1.01844e-12
-7.51399e-12 -1.01844e-12 400.237

602.87 -23.9846 -2.06901e-12
-23.9846 602.28 1.60923e-12
-2.06901e-12 1.60923e-12 557.871

408.411 23.7742 3.59002e-12
23.7742 441.984 -2.60532e-14
3.59002e-12 -2.60532e-14 402.261

496.617 -32.7264 1.76451e-13
-32.7264 490.679 -2.25597e-13
1.76451e-13 -2.25597e-13 497.486

388.226 -11.9648 3.53599e-12
-11.9648 448.33 -1.14516e-12
3.53599e-12 -1.14516e-12 397.054

516.752 -19.1165 1.84593e-12
-19.1165 465.794 1.92912e-12
1.84593e-12 1.92912e-12 496.283

410.726 23.8805 6.03961e-14
23.8805 439.356 2.56506e-12
6.03961e-14 2.56506e-12 400.738

488.967 -4.97579 9.06534e-13
-4.97579 435.113 -1.38304e-12
9.06534e-13 -1.38304e-12 460.425

305.808 -30.3458 1.37372e-13
-30.3458 391.474 -3.19271e-12
1.37372e-13 -3.19271e-12 262.595

438.652 21.0162 3.22705e-14
21.0162 473.959 -1.20733e-12
3.22705e-14 -1.20733e-12 458.392

445.733 -19.3259 4.88024e-12
-19.3259 394.015 2.37025e-12
4.88024e-12 2.37025e-12 399.663

551.635 -21.4456 -1.34204e-12
-21.4456 499.552 -1.00068e-12
-1.34204e-12 -1.00068e-12 520.139

424.513 31.7584 3.31113e-12
31.7584 413.364 4.88617e-12
3.31113e-12 4.88617e-12 397.999

459.208 -29.975 -3.42363e-12
-29.975 437.681 9.64858e-13
-3.42363e-12 9.64858e-13 439.342

510.664 20.8862 -9.48575e-13
20.8862 476.113 -3.69837e-12
-9.48575e-13 -3.69837e-12 492.798

461.552 -28.0763 -4.4181e-12
-28.0763 485.788 4.49766e-12
-4.4181e-12 4.49766e-12 488.763

413.763 -26.229 4.51372e-12
-26.229 436.291 8.51467e-13
4.51372e-12 8.51467e-13 401.481

426.12 28.9851 -1.68339e-12
28.9851 429.943 3.0281e-12
-1.68339e-12 3.0281e-12 406.903

452.548 26.1945 -6.987e-14
26.1945 418.27 -4.09628e-12
-6.987e-14 -4.09628e-12 419.102

522.012 -14.6117 1.946e-12
-14.6117 477.219 1.64076e-12
1.946e-12 1.64076e-12 500.106

403.603 -16.6201 3.43547e-12
-16.6201 451.792 -3.75877e-12
3.43547e-12 -3.75877e-12 406.486

496.095 -17.569 -3.35554e-12
-17.569 447.651 -3.7977e-12
-3.35554e-12 -3.7977e-12 471.546

487.813 16.9102 2.64322e-12
16.9102 436.303 1.99396e-12
2.64322e-12 1.99396e-12 460.634

513.376 -9.38494 2.02505e-12
-9.38494 555.814 -1.34766e-12
2.02505e-12 -1.34766e-12 523.067

454.028 -13.4316 1.8936e-12
-13.4316 402.221 -5.98144e-12
1.8936e-12 -5.98144e-12 406.786

403.244 0.594315 -5.18193e-12
0.594315 465.775 -4.73103e-12
-5.18193e-12 -4.73103e-12 417.849

475.076 18.5567 -3.67824e-12
18.5567 428.816 1.29141e-12
-3.67824e-12 1.29141e-12 442.266

451.191 27.6073 1.59872e-13
27.6073 421.883 -7.66794e-14
1.59872e-13 -7.66794e-14 420.887

400.911 -15.6884 3.5163e-12
-15.6884 451.432 -2.76046e-12
3.5163e-12 -2.76046e-12 403.779

406.043 -1.20225 5.17216e-12
-1.20225 468.085 4.28576e-12
5.17216e-12 4.28576e-12 421.264

516.241 29.1348 7.57912e-14
29.1348 498.065 5.81135e-12
7.57912e-14 5.81135e-12 504.917

441.75 -10.9232 3.85455e-12
-10.9232 500.707 4.99156e-13
3.85455e-12 4.99156e-13 471.194

451.488 -26.7187 2.4567e-12
-26.7187 418.81 -1.13568e-12
2.4567e-12 -1.13568e-12 419.397

444.435 21.3355 7.36714e-12
21.3355 395.34 1.72603e-12
7.36714e-12 1.72603e-12 398.243

497.643 23.6664 3.14178e-12
23.6664 458.135 5.41493e-13
3.14178e-12 5.41493e-13 476.595

447.727 5.47182 -2.29372e-13
5.47182 508.838 -4.43675e-12
-2.29372e-13 -4.43675e-12 476.927

427.696 29.0696 5.13367e-13
29.0696 426.481 1.43885e-13
5.13367e-13 1.43885e-13 405.153

536.859 22.964 -3.91983e-13
22.964 531.931 6.36025e-12
-3.91983e-13 6.36025e-12 522.823

314.781 -59.6981 -8.02913e-13
-59.6981 282.795 7.18832e-12
-8.02913e-13 7.18832e-12 223.447

480.643 -25.0505 3.66522e-13
-25.0505 445.117 8.36072e-13
3.66522e-13 8.36072e-13 456.691

336.698 7.0708 6.22909e-13
7.0708 409.2 7.98176e-13
6.22909e-13 7.98176e-13 319.474

460.586 -28.8925 -3.81739e-12
-28.8925 444.784 -9.35548e-13
-3.81739e-12 -9.35548e-13 443.498

96.4319 -52.7053 -1.06581e-14
-52.7053 306.643 8.52651e-13
-1.06581e-14 8.52651e-13 113.71

95.9658 51.4558 -2.65625e-12
51.4558 306.908 -6.46594e-12
-2.65625e-12 -6.46594e-12 114.499

181.532 117.164 -4.78195e-12
117.164 226.095 1.89478e-14
-4.78195e-12 1.89478e-14 113.599

182.83 -117.106 4.65879e-12
-117.106 223.33 -5.02117e-12
4.65879e-12 -5.02117e-12 113.573

321.609 -1.36351 3.76114e-12
-1.36351 84.6605 6.2043e-14
3.76114e-12 6.2043e-14 114.94

274.456 -91.1329 -1.80952e-12
-91.1329 127.429 1.36187e-12
-1.80952e-12 1.36187e-12 113.813

275.152 91.6609 -3.74219e-13
91.6609 128.262 -2.74506e-12
-3.74219e-13 -2.74506e-12 114.583

525.283 14.3318 1.30177e-12
14.3318 474.755 -1.85008e-12
1.30177e-12 -1.85008e-12 502.357

556.829 25.5352 -5.92563e-12
25.5352 541.213 -1.75696e-12
-5.92563e-12 -1.75696e-12 533.486

492.143 6.60682 -7.82544e-12
6.60682 439.167 1.25056e-12
-7.82544e-12 1.25056e-12 471.449

470.349 21.7872 3.30994e-12
21.7872 424.561 -3.53613e-12
3.30994e-12 -3.53613e-12 438.24

410.018 17.7468 -3.57344e-13
17.7468 461.123 1.50931e-12
-3.57344e-13 1.50931e-12 425.088

448.059 28.9022 -6.43041e-13
28.9022 424.751 -3.89614e-13
-6.43041e-13 -3.89614e-13 420.794

487.196 -29.6656 -1.58569e-12
-29.6656 465.674 -1.04006e-12
-1.58569e-12 -1.04006e-12 474.635

449.416 28.0315 -3.27264e-12
28.0315 421.116 6.19001e-12
-3.27264e-12 6.19001e-12 418.686

403.006 -2.84187 1.83039e-12
-2.84187 465.432 -4.58892e-12
1.83039e-12 -4.58892e-12 417.585

555.835 -26.0961 -1.54454e-12
-26.0961 543.406 2.23688e-12
-1.54454e-12 2.23688e-12 533.73

405.544 -4.86329 -2.31741e-12
-4.86329 467.17 1.99899e-12
-2.31741e-12 1.99899e-12 420.644

522.334 23.0178 4.47168e-12
23.0178 499.784 -9.11567e-13
4.47168e-12 -9.11567e-13 508.011

423.424 26.8745 5.69618e-13
26.8745 386.548 8.9706e-13
5.69618e-13 8.9706e-13 373.067

480.155 -13.2164 -1.78583e-12
-13.2164 532.81 -2.60236e-13
-1.78583e-12 -2.60236e-13 512.044

484.248 13.7294 5.41078e-12
13.7294 432.821 1.70589e-12
5.41078e-12 1.70589e-12 456.921

457.417 -29.9909 4.66767e-12
-29.9909 437.022 6.29541e-12
4.66767e-12 6.29541e-12 437.878

454.358 -24.7164 6.20778e-12
-24.7164 416.848 1.3222e-12
6.20778e-12 1.3222e-12 419.897

547.441 -16.0765 1.98241e-12
-16.0765 509.343 8.84922e-13
1.98241e-12 8.84922e-13 519.424

476.021 27.9315 7.34228e-13
27.9315 449.751 -1.70856e-12
7.34228e-13 -1.70856e-12 456.971

469.15 23.9803 1.03858e-12
23.9803 427.894 -1.98419e-12
1.03858e-12 -1.98419e-12 439.875

432.472 -2.79277 -9.91799e-13
-2.79277 493.687 -3.17376e-13
-9.91799e-13 -3.17376e-13 457.153

417.65 5.87379 2.49985e-12
5.87379 479.608 -4.60076e-13
2.49985e-12 -4.60076e-13 440.222

463.063 2.64705 4.62267e-12
2.64705 402.322 -3.63661e-12
4.62267e-12 -3.63661e-12 422.366

438.697 -7.29073 7.35056e-12
-7.29073 373.954 -8.39181e-13
7.35056e-12 -8.39181e-13 381.259

454.892 30.4882 -1.14753e-12
30.4882 439.061 5.30124e-12
-1.14753e-12 5.30124e-12 437.882

478.514 -26.1582 2.12156e-12
-26.1582 443.589 4.20967e-12
2.12156e-12 4.20967e-12 454.692

525.743 -21.2548 2.47565e-12
-21.2548 497.869 -2.04222e-12
2.47565e-12 -2.04222e-12 508.66

437.78 -31.6377 -2.38506e-12
-31.6377 437.702 1.53418e-12
-2.38506e-12 1.53418e-12 426.904

417.635 -27.7894 -1.62833e-13
-27.7894 444.445 -5.60145e-13
-1.62833e-13 -5.60145e-13 419.733

430.693 29.8911 -1.82017e-12
29.8911 442.792 1.32457e-12
-1.82017e-12 1.32457e-12 426.542

416.269 -9.57901 1.79901e-12
-9.57901 475.262 4.5759e-12
1.79901e-12 4.5759e-12 436.5

428.939 -1.54543 1.56763e-13
-1.54543 491.919 5.8679e-12
1.56763e-13 5.8679e-12 454.04

445.225 5.7477 -4.05328e-12
5.7477 508.092 -4.9584e-12
-4.05328e-12 -4.9584e-12 474.959

414.663 -21.092 1.61234e-12
-21.092 458.458 -2.75631e-12
1.61234e-12 -2.75631e-12 426.11

496.916 24.1134 4.12885e-12
24.1134 455.741 -2.60532e-12
4.12885e-12 -2.60532e-12 474.638

483.424 -9.59079 -2.50822e-12
-9.59079 430.157 -4.28161e-12
-2.50822e-12 -4.28161e-12 455.267

415.677 7.466 3.95693e-12
7.466 477.172 1.6982e-12
3.95693e-12 1.6982e-12 436.958

443.999 -9.70147 9.17285e-13
-9.70147 501.553 -3.36324e-13
9.17285e-13 -3.36324e-13 471.053

433.219 -16.3325 5.79921e-12
-16.3325 481.727 2.44604e-12
5.79921e-12 2.44604e-12 455.714

463.591 -8.24023 -5.09578e-12
-8.24023 406.378 -1.17447e-12
-5.09578e-12 -1.17447e-12 421.516

494.479 -32.3468 -1.07588e-12
-32.3468 487.662 9.33476e-13
-1.07588e-12 9.33476e-13 496.296

422.989 9.3224 5.32448e-12
9.3224 479.142 1.24404e-12
5.32448e-12 1.24404e-12 441.026

564.389 -18.2132 -1.20792e-12
-18.2132 529.985 -1.19815e-12
-1.20792e-12 -1.19815e-12 531.868

309.079 24.8262 -2.00728e-13
24.8262 379.463 -3.43903e-12
-2.00728e-13 -3.43903e-12 289.829

501.743 -26.6274 6.9574e-14
-26.6274 499.532 1.80863e-12
6.9574e-14 1.80863e-12 501.243

515.691 -30.203 -4.08088e-12
-30.203 498.444 -2.65773e-12
-4.08088e-12 -2.65773e-12 504.961

429.267 -0.700884 1.87161e-12
-0.700884 492.044 2.1565e-12
1.87161e-12 2.1565e-12 454.191

474.933 -16.6242 -6.07514e-13
-16.6242 428.383 1.17269e-12
-6.07514e-13 1.17269e-12 442.003

462.349 12.842 3.90245e-12
12.842 511.323 1.3672e-12
3.90245e-12 1.3672e-12 489.166

240.798 -3.18132 -1.27408e-11
-3.18132 360.724 9.04758e-13
-1.27408e-11 9.04758e-13 226.989

432.449 14.2751 2.28284e-12
14.2751 485.407 -2.51414e-12
2.28284e-12 -2.51414e-12 456.929

458.16 -29.4928 -1.58866e-12
-29.4928 443.218 -3.53673e-12
-1.58866e-12 -3.53673e-12 440.808

304.216 25.1084 -4.95011e-13
25.1084 394.624 -4.4101e-12
-4.95011e-13 -4.4101e-12 264.369

603.569 26.0945 2.0924e-12
26.0945 597.973 -8.48728e-12
2.0924e-12 -8.48728e-12 558.187

608.301 -27.8034 -1.664e-12
-27.8034 595.048 5.39006e-12
-1.664e-12 5.39006e-12 558.321

463.542 -30.4221 1.10608e-12
-30.4221 459.086 -3.81117e-12
1.10608e-12 -3.81117e-12 459.119

434.632 -31.1644 -2.58519e-12
-31.1644 436.407 -4.84353e-12
-2.58519e-12 -4.84353e-12 424.708

474.152 20.8295 3.04527e-12
20.8295 431.961 4.38701e-12
3.04527e-12 4.38701e-12 444.019

465.274 15.008 1.51642e-12
15.008 410.16 3.42274e-12
1.51642e-12 3.42274e-12 427.509

646.076 3.08125 -2.10891e-12
3.08125 645.733 2.75602e-12
-2.10891e-12 2.75602e-12 574.645

649.896 -6.99675 -1.14876e-11
-6.99675 641.404 -3.40987e-12
-1.14876e-11 -3.40987e-12 575.174

497.041 4.82417 1.51938e-12
4.82417 442.083 -5.72845e-12
1.51938e-12 -5.72845e-12 477.461

443.603 6.73214 -2.16123e-14
6.73214 503.039 -1.65675e-12
-2.16123e-14 -1.65675e-12 471.097

442.016 6.73644 -2.54251e-12
6.73644 502.564 4.86722e-13
-2.54251e-12 4.86722e-13 469.819

321.567 58.6413 7.29727e-12
58.6413 281.15 -2.79717e-12
7.29727e-12 -2.79717e-12 225.1

420.274 -28.2038 2.83507e-12
-28.2038 444.073 1.95162e-12
2.83507e-12 1.95162e-12 421.077

520.625 17.974 -3.20129e-12
17.974 467.576 1.57948e-12
-3.20129e-12 1.57948e-12 499.555

473.033 9.54066 5.90698e-12
9.54066 421.243 -3.64316e-12
5.90698e-12 -3.64316e-12 436.25

440.678 -26.7268 -1.68162e-12
-26.7268 450.776 -6.15804e-14
-1.68162e-12 -6.15804e-14 433.462

469.327 -20.2402 -4.89801e-12
-20.2402 422.761 3.23623e-12
-4.89801e-12 3.23623e-12 437.223

312.504 60.2392 6.11777e-12
60.2392 281.399 -6.11896e-12
6.11777e-12 -6.11896e-12 223.238

492.727 31.0701 -1.08683e-12
31.0701 489.086 -3.72916e-12
-1.08683e-12 -3.72916e-12 493.183

410.907 -19.7889 1.21976e-13
-19.7889 457.933 -1.74024e-12
1.21976e-13 -1.74024e-12 423.544

474.177 28.8606 1.72603e-12
28.8606 449.678 -1.45661e-13
1.72603e-12 -1.45661e-13 456.565

431.001 -4.14571 3.29544e-12
-4.14571 493.024 3.15185e-12
3.29544e-12 3.15185e-12 456.514

423.976 19.6119 -1.12887e-12
19.6119 465.763 4.34142e-12
-1.12887e-12 4.34142e-12 434.155

452.796 30.5225 -1.29023e-12
30.5225 443.646 2.05702e-12
-1.29023e-12 2.05702e-12 439.655

428.69 -22.4763 2.15946e-12
-22.4763 461.188 -2.73204e-12
2.15946e-12 -2.73204e-12 433.859

443.623 -27.356 -3.77594e-12
-27.356 450.483 7.53175e-13
-3.77594e-12 7.53175e-13 435.092

294.807 11.2584 3.26746e-12
11.2584 372.624 6.2362e-12
3.26746e-12 6.2362e-12 258.129

357.336 -33.461 2.25005e-13
-33.461 389.159 -9.60417e-12
2.25005e-13 -9.60417e-12 314.163

419.702 -11.6919 -4.4198e-12
-11.6919 476.413 1.2174e-12
-4.4198e-12 1.2174e-12 439.391

478.446 26.4875 2.27847e-12
26.4875 446.846 7.05391e-12
2.27847e-12 7.05391e-12 456.13

452.394 29.4813 -7.21793e-13
29.4813 449.075 1.40391e-12
-7.21793e-13 1.40391e-12 442.446

426.855 -21.4369 4.83465e-13
-21.4369 461.835 -1.53359e-13
4.83465e-13 -1.53359e-13 432.677

422.977 -11.7842 4.02611e-12
-11.7842 476.699 7.11845e-12
4.02611e-12 7.11845e-12 439.975

457.755 28.413 -1.88057e-12
28.413 447.136 3.03816e-12
-1.88057e-12 3.03816e-12 442.618

425.151 -13.8798 2.23732e-12
-13.8798 476.471 -1.25944e-12
2.23732e-12 -1.25944e-12 442.152

311.296 27.8591 -6.4239e-12
27.8591 377.432 -2.56269e-12
-6.4239e-12 -2.56269e-12 290.016

485.209 -4.04034 1.78436e-12
-4.04034 545.09 5.55526e-12
1.78436e-12 5.55526e-12 511.078

433.032 31.0318 -1.3447e-12
31.0318 439.676 9.11863e-14
-1.3447e-12 9.11863e-14 426.065

509.357 14.9027 -3.10033e-12
14.9027 463.207 3.42541e-12
-3.10033e-12 3.42541e-12 488.651

516.966 -15.9291 3.81858e-12
-15.9291 467.626 -2.41081e-12
3.81858e-12 -2.41081e-12 493.968

383.967 -24.2079 7.10543e-15
-24.2079 305.978 5.63342e-12
7.10543e-15 5.63342e-12 285.385

442.327 -21.2693 -3.614e-12
-21.2693 476.051 -2.02386e-12
-3.614e-12 -2.02386e-12 459.369

447.876 26.701 -2.90553e-12
26.701 466.258 4.39352e-13
-2.90553e-12 4.39352e-13 457.889

523.014 -21.7275 4.72807e-13
-21.7275 543.845 -4.6908e-12
4.72807e-13 -4.6908e-12 525.348

579.604 14.1035 1.56912e-13
14.1035 617.636 -1.30296e-12
1.56912e-13 -1.30296e-12 557.083

620.221 9.44518 7.4755e-14
9.44518 576.863 5.66835e-12
7.4755e-14 5.66835e-12 556.901

523.509 32.7042 4.95604e-13
32.7042 520.688 -2.43213e-12
4.95604e-13 -2.43213e-12 519.564

414.936 26.0041 -1.48948e-12
26.0041 448.955 -2.74388e-12
-1.48948e-12 -2.74388e-12 420.422

478.145 26.6638 6.07159e-12
26.6638 444.815 1.79738e-12
6.07159e-12 1.79738e-12 455.553

332.397 45.1923 2.43953e-12
45.1923 349.526 -9.59233e-13
2.43953e-12 -9.59233e-13 286.771

571.412 -11.3411 -9.17074e-12
-11.3411 614.488 3.18323e-12
-9.17074e-12 3.18323e-12 554.626

641.332 -3.43149 -2.03474e-12
-3.43149 636.88 9.85286e-12
-2.03474e-12 9.85286e-12 572.422

634.915 -0.208778 -7.62501e-13
-0.208778 643.183 6.57593e-12
-7.62501e-13 6.57593e-12 572.249

272.989 -53.8088 4.54274e-12
-53.8088 316.479 9.09021e-12
4.54274e-12 9.09021e-12 220.932

566.669 -11.5988 7.82337e-13
-11.5988 562.152 -1.22273e-12
7.82337e-13 -1.22273e-12 540.933

563.795 8.8113 6.00956e-12
8.8113 586.988 5.74651e-13
6.00956e-12 5.74651e-13 546.873

478.294 -26.2017 -2.17189e-12
-26.2017 440.487 -4.50514e-12
-2.17189e-12 -4.50514e-12 453.528

494.387 1.00997 -4.55495e-12
1.00997 545.799 2.79717e-12
-4.55495e-12 2.79717e-12 514.098

447.698 -20.2699 2.15665e-12
-20.2699 484.209 -2.45137e-12
2.15665e-12 -2.45137e-12 470.685

506.351 6.25557 6.67881e-12
6.25557 443.424 -4.52971e-12
6.67881e-12 -4.52971e-12 486.172

461.32 15.5962 1.32113e-12
15.5962 521.298 4.00568e-13
1.32113e-12 4.00568e-13 497.601

471.222 7.191 1.31147e-12
7.191 528.05 -3.72443e-13
1.31147e-12 -3.72443e-13 497.734

493.812 20.395 2.08307e-12
20.395 451.562 5.29621e-12
2.08307e-12 5.29621e-12 469.796

241.087 -3.11391 5.30257e-12
-3.11391 358.596 1.89004e-12
5.30257e-12 1.89004e-12 227.087

463.749 -27.6267 -3.90325e-12
-27.6267 463.441 -8.20085e-13
-3.90325e-12 -8.20085e-13 461.238

488.391 -26.1186 -2.44367e-12
-26.1186 481.644 1.30385e-12
-2.44367e-12 1.30385e-12 485.914

497.583 -31.4837 -4.28013e-12
-31.4837 490.005 -2.6293e-12
-4.28013e-12 -2.6293e-12 499.025

355.636 32.7538 2.34479e-12
32.7538 285.806 2.53368e-12
2.34479e-12 2.53368e-12 248.393

563.91 -20.1154 -4.92376e-12
-20.1154 569.638 6.48052e-12
-4.92376e-12 6.48052e-12 542.605

337.68 54.3282 6.92305e-12
54.3282 356.693 6.25751e-12
6.92305e-12 6.25751e-12 258.902

477.116 -21.4387 1.578e-12
-21.4387 506.537 -3.85173e-13
1.578e-12 -3.85173e-13 500.289

504.822 14.6507 -8.55375e-12
14.6507 452.034 3.17642e-12
-8.55375e-12 3.17642e-12 481.607

449.881 -14.5744 5.83474e-12
-14.5744 397.029 2.56313e-12
5.83474e-12 2.56313e-12 400.883

452.642 24.0486 -8.98244e-13
24.0486 478.831 -2.16123e-12
-8.98244e-13 -2.16123e-12 467.896

493.716 20.4292 5.98277e-12
20.4292 449.546 2.58016e-12
5.98277e-12 2.58016e-12 469.388

505.601 11.399 -2.88902e-12
11.399 564.449 -1.43944e-12
-2.88902e-12 -1.43944e-12 526.749

475.943 -31.5821 -1.61945e-12
-31.5821 470.404 -2.17693e-12
-1.61945e-12 -2.17693e-12 475.11

559.302 19.8122 6.20837e-13
19.8122 510.476 3.80584e-12
6.20837e-13 3.80584e-12 526.525

440.005 -18.4454 -2.63671e-12
-18.4454 482.516 3.36264e-12
-2.63671e-12 3.36264e-12 459.196

465.941 4.28407 -3.0065e-12
4.28407 526.153 1.69287e-12
-3.0065e-12 1.69287e-12 495.554

588.663 9.92785 6.4541e-12
9.92785 552.489 -1.61634e-12
6.4541e-12 -1.61634e-12 545.222

590.446 -8.51467 5.66658e-12
-8.51467 554.831 -7.12467e-13
5.66658e-12 -7.12467e-13 545.739

382.35 18.5148 -6.12725e-12
18.5148 302.317 2.39808e-12
-6.12725e-12 2.39808e-12 286.165

502.727 7.96587 2.46321e-13
7.96587 453.646 4.96595e-12
2.46321e-13 4.96595e-12 487.811

232.835 7.74166 1.55431e-14
7.74166 381.548 1.86162e-12
1.55431e-14 1.86162e-12 187.205

237.005 -11.3865 -1.14916e-11
-11.3865 387.242 -8.43177e-13
-1.14916e-11 -8.43177e-13 189.469

249.308 56.4111 -8.88178e-13
56.4111 354.807 2.78059e-12
-8.88178e-13 2.78059e-12 184.041

505.059 -28.9519 -3.6214e-12
-28.9519 478.66 1.17891e-12
-3.6214e-12 1.17891e-12 491.387

258.496 -49.1961 2.71427e-12
-49.1961 341.874 -5.45934e-12
2.71427e-12 -5.45934e-12 220.756

249.313 -55.9537 5.44039e-12
-55.9537 344.781 7.31859e-12
5.44039e-12 7.31859e-12 181.133

434.701 26.2235 6.74956e-12
26.2235 454.442 -4.98505e-12
6.74956e-12 -4.98505e-12 432.87

329.952 73.8495 8.96231e-12
73.8495 280.033 -7.04858e-12
8.96231e-12 -7.04858e-12 184.845

540.158 13.0461 1.47349e-12
13.0461 554.982 -4.00568e-13
1.47349e-12 -4.00568e-13 532.114

562.417 0.0419212 2.37232e-12
0.0419212 532.487 -2.76549e-12
2.37232e-12 -2.76549e-12 531.907

338.631 -73.1348 4.20641e-12
-73.1348 279.881 -2.64085e-12
4.20641e-12 -2.64085e-12 186.328

432.716 -23.4267 -6.18646e-12
-23.4267 466.36 1.32635e-12
-6.18646e-12 1.32635e-12 447.618

358.967 34.7333 5.47355e-12
34.7333 311.005 3.44968e-12
5.47355e-12 3.44968e-12 258.065

267.728 63.496 -5.74829e-12
63.496 345.239 -7.25227e-12
-5.74829e-12 -7.25227e-12 185.863

293.721 21.6328 3.80614e-12
21.6328 367.698 7.62175e-12
3.80614e-12 7.62175e-12 254.524

267.599 -65.925 -1.78346e-12
-65.925 344.874 9.66338e-13
-1.78346e-12 9.66338e-13 184.319

291.668 -12.3825 2.56624e-12
-12.3825 370.92 3.65456e-12
2.56624e-12 3.65456e-12 253.469

550.334 6.83928 -7.61465e-13
6.83928 582.106 -6.48163e-12
-7.61465e-13 -6.48163e-12 541.151

329.923 -45.9807 -7.24754e-12
-45.9807 341.85 9.85641e-12
-7.24754e-12 9.85641e-12 276.644

259.806 47.5373 3.81443e-12
47.5373 340.249 7.47017e-12
3.81443e-12 7.47017e-12 223.168

370.247 37.9147 4.83169e-13
37.9147 244.941 1.00601e-12
4.83169e-13 1.00601e-12 187.375

481.938 -29.2882 6.206e-12
-29.2882 460.558 -1.15463e-13
6.206e-12 -1.15463e-13 467.759

481.017 12.8962 1.92069e-12
12.8962 525.873 2.75987e-12
1.92069e-12 2.75987e-12 504.146

354.454 -38.1169 -5.21065e-12
-38.1169 300.106 -4.37221e-12
-5.21065e-12 -4.37221e-12 251.841

482.582 -28.8044 1.92557e-12
-28.8044 460.366 -4.13299e-12
1.92557e-12 -4.13299e-12 468.508

365.294 -36.3465 5.54223e-12
-36.3465 231.008 -3.40291e-12
5.54223e-12 -3.40291e-12 182.788

481.549 -28.3197 3.06303e-12
-28.3197 472.8 1.668e-12
3.06303e-12 1.668e-12 477.964

436.4 -25.2979 -1.71774e-12
-25.2979 466.274 -4.68366e-13
-1.71774e-12 -4.68366e-13 448.256

314.824 69.4658 2.78059e-12
69.4658 292.167 -4.52616e-12
2.78059e-12 -4.52616e-12 184.541

290.809 -22.9355 2.11979e-12
-22.9355 359.2 1.86636e-12
2.11979e-12 1.86636e-12 247.055

312.426 -71.698 -1.80478e-12
-71.698 288.146 -2.71664e-12
-1.80478e-12 -2.71664e-12 182.044

268.571 50.7429 -6.22554e-12
50.7429 320.091 3.60956e-12
-6.22554e-12 3.60956e-12 221.527

459.909 -30.2153 -4.39708e-12
-30.2153 454.892 2.35042e-12
-4.39708e-12 2.35042e-12 454.446

559.319 -14.6411 -2.24058e-12
-14.6411 544.442 -2.63434e-12
-2.24058e-12 -2.63434e-12 533.753

635.929 11.0903 -6.75682e-12
11.0903 631.395 -1.51582e-13
-6.75682e-12 -1.51582e-13 570.046

619.97 -5.16043 6.02244e-12
-5.16043 639.745 -1.24554e-11
6.02244e-12 -1.24554e-11 568.524

453.913 13.084 -8.0926e-13
13.084 506.603 6.69094e-13
-8.0926e-13 6.69094e-13 482.617

634.158 -10.6646 2.0827e-12
-10.6646 631.325 2.97629e-12
2.0827e-12 2.97629e-12 569.901

622.708 4.0924 1.12621e-12
4.0924 642.69 2.05532e-12
1.12621e-12 2.05532e-12 569.725

643.382 7.43099 6.93238e-12
7.43099 619.159 5.27859e-12
6.93238e-12 5.27859e-12 569.048

584.794 -12.1122 5.16624e-13
-12.1122 631.679 5.60145e-12
5.16624e-13 5.60145e-12 560.622

307.474 -30.4742 4.30411e-12
-30.4742 371.672 -1.59635e-12
4.30411e-12 -1.59635e-12 280.799

589.648 -12.9721 -2.18255e-12
-12.9721 549.14 1.18424e-14
-2.18255e-12 1.18424e-14 543.86

527.244 -34.4159 -1.17772e-12
-34.4159 521.522 -2.91737e-12
-1.17772e-12 -2.91737e-12 520.004

565.493 -18.1777 2.42058e-12
-18.1777 538.022 -5.46097e-12
2.42058e-12 -5.46097e-12 534.294

502.617 15.4607 1.38674e-12
15.4607 452.16 -8.08242e-14
1.38674e-12 -8.08242e-14 480.252

586.366 9.86219 1.47582e-12
9.86219 642.144 1.43176e-11
1.47582e-12 1.43176e-11 563.131

636.666 19.2248 -3.64804e-12
19.2248 591.74 -2.6091e-12
-3.64804e-12 -2.6091e-12 562.953

569.804 11.3085 -5.62661e-12
11.3085 544.37 -5.43343e-12
-5.62661e-12 -5.43343e-12 536.471

353.477 -15.3415 -8.52651e-13
-15.3415 231.536 -1.63662e-12
-8.52651e-13 -1.63662e-12 219.036

437.253 24.9672 5.85606e-12
24.9672 461.962 6.00942e-12
5.85606e-12 6.00942e-12 445.768

317.12 -61.3615 2.77349e-12
-61.3615 277.875 8.76336e-13
2.77349e-12 8.76336e-13 218.111

334.24 -57.4631 8.85336e-12
-57.4631 357.357 4.26326e-13
8.85336e-12 4.26326e-13 252.565

383.371 -36.5481 -8.19493e-13
-36.5481 305.768 9.69891e-13
-8.19493e-13 9.69891e-13 257.786

562.521 -5.15864 -3.71747e-12
-5.15864 616.967 6.83276e-12
-3.71747e-12 6.83276e-12 552.981

562.229 2.89141 -1.85511e-12
2.89141 615.832 -6.65838e-13
-1.85511e-12 -6.65838e-13 552.58

598.788 -24.4523 1.0246e-11
-24.4523 575.766 -4.93812e-12
1.0246e-11 -4.93812e-12 551.61

602.348 -21.7562 2.95145e-12
-21.7562 573.456 -3.09915e-12
2.95145e-12 -3.09915e-12 551.876

598.801 26.1315 -4.58685e-12
26.1315 580.48 -2.44301e-12
-4.58685e-12 -2.44301e-12 552.765

625.753 3.09661 -5.35512e-12
3.09661 630.744 -7.43868e-12
-5.35512e-12 -7.43868e-12 568.447

599.078 -20.5058 2.61835e-12
-20.5058 576.377 -6.14686e-12
2.61835e-12 -6.14686e-12 552.298

607.826 -18.5659 1.5327e-12
-18.5659 620.273 -2.05643e-12
1.5327e-12 -2.05643e-12 563.213

632.911 2.43241 -1.39047e-11
2.43241 635.534 -3.05533e-13
-1.39047e-11 -3.05533e-13 570.531

607.903 -20.5225 -1.2865e-11
-20.5225 572.449 6.161e-13
-1.2865e-11 6.161e-13 553.437

607.089 20.952 2.58534e-12
20.952 573.707 1.04509e-12
2.58534e-12 1.04509e-12 553.84

633.862 -3.45628 7.89058e-12
-3.45628 636.784 -3.75181e-12
7.89058e-12 -3.75181e-12 571.305

632.191 -3.11404 -1.12651e-13
-3.11404 625.767 4.20701e-13
-1.12651e-13 4.20701e-13 569.421

609.698 12.1092 1.3799e-11
12.1092 620.496 -1.76411e-11
1.3799e-11 -1.76411e-11 563.944

587.224 26.9261 1.20348e-12
26.9261 583.038 2.59134e-12
1.20348e-12 2.59134e-12 551.733

FIELD solute_concentration_TPM 2
S_ext 1 563 float
0.808433
0.808286
0.808299
0.808286
0.808272
0.8083
0.808433
0.808294
0.808312
0.808289
0.808401
0.808294
0.808296
0.808288
0.808275
0.808298
0.808283
0.808293
0.808315
0.808301
0.808306
0.808246
0.808303
0.808302
0.808302
0.80829
0.808393
0.808299
0.808351
0.808259
0.808297
0.80835
0.808397
0.808263
0.808262
0.808263
0.808256
0.808263
0.808297
0.808397
0.808351
0.808256
0.808256
0.808296
0.808377
0.80835
0.808313
0.80831
0.808299
0.808358
0.808354
0.808339
0.80827
0.80834
0.808271
0.808381
0.808262
0.808339
0.808262
0.808301
0.808282
0.808279
0.80839
0.80828
0.808278
0.808287
0.808282
0.80829
0.808302
0.808286
0.80827
0.80827
0.808352
0.808285
0.8083
0.8084
0.808276
0.808287
0.80829
0.808333
0.808365
0.808269
0.808281
0.808367
0.80835
0.80838
0.808298
0.808287
0.808377
0.808252
0.808339
0.808253
0.808275
0.808289
0.808339
0.808354
0.808366
0.808288
0.808276
0.808297
0.808325
0.808348
0.808366
0.80829
0.80829
0.808288
0.80828
0.808299
0.808367
0.808282
0.8083
0.808374
0.80837
0.808291
0.808289
0.80834
0.808264
0.808368
0.808265
0.808339
0.808318
0.808275
0.808285
0.808283
0.808283
0.808274
0.808266
0.808288
0.808366
0.808338
0.808269
0.808286
0.80828
0.808285
0.808348
0.808262
0.808375
0.808296
0.808281
0.808262
0.808346
0.808293
0.808318
0.808288
0.808368
0.808289
0.808294
0.808302
0.8083
0.808328
0.808309
0.808285
0.80835
0.808296
0.808288
0.808285
0.808287
0.808346
0.808345
0.808294
0.808309
0.808349
0.808376
0.808353
0.808345
0.808288
0.808345
0.808346
0.80835
0.808345
0.808274
0.808339
0.808353
0.808287
0.808339
0.808281
0.808274
0.808295
0.808271
0.808291
0.808352
0.808288
0.808288
0.808345
0.808286
0.808354
0.808283
0.808282
0.808276
0.808288
0.808286
0.808365
0.808339
0.80835
0.808285
0.808292
0.808291
0.80828
0.808285
0.808288
0.808285
0.808314
0.808333
0.80828
0.808352
0.80828
0.808288
0.808347
0.808279
0.808285
0.80828
0.80829
0.80829
0.808281
0.808327
0.80829
0.808332
0.808281
0.808283
0.808283
0.808282
0.808283
0.808283
0.808283
0.808289
0.808275
0.808275
0.808274
0.808275
0.808272
0.808272
0.808327
0.808288
0.808285
0.80831
0.808276
0.808275
0.808285
0.808332
0.808285
0.808288
0.808327
0.808278
0.808327
0.808281
0.808285
0.808326
0.808331
0.808365
0.808359
0.80828
0.80837
0.808297
0.808332
0.808314
0.808285
0.808282
0.808257
0.808282
0.808374
0.808332
0.808285
0.808294
0.808333
0.808282
0.808318
0.808257
0.808332
0.808283
0.808285
0.808291
0.808276
0.808288
0.808271
0.808295
0.808375
0.80838
0.808275
0.808304
0.808294
0.808329
0.808278
0.808287
0.808331
0.808288
0.808325
0.808294
0.808325
0.808332
0.808253
0.808273
0.808273
0.808273
0.808288
0.808324
0.808264
0.808284
0.808309
0.808324
0.808328
0.808273
0.808327
0.808276
0.808327
0.808377
0.808324
0.808369
0.808281
0.808326
0.808253
0.808326
0.808283
0.808328
0.808284
0.808327
0.808299
0.808396
0.808299
0.808327
0.808272
0.808327
0.808309
0.808286
0.808285
0.808326
0.808324
0.808318
0.808283
0.808324
0.808295
0.808299
0.808272
0.808324
0.808318
0.808308
0.808317
0.808325
0.808317
0.808281
0.808294
0.808318
0.808327
0.808292
0.808292
0.808324
0.808272
0.808407
0.808301
0.808365
0.808307
0.808455
0.808455
0.808453
0.808453
0.808451
0.808459
0.808459
0.808281
0.808267
0.808294
0.808309
0.808314
0.808317
0.808294
0.808318
0.808318
0.808268
0.808317
0.808279
0.808339
0.808275
0.8083
0.808309
0.808318
0.808275
0.808301
0.808308
0.808301
0.808308
0.808316
0.808334
0.808309
0.808302
0.808278
0.808314
0.808317
0.808314
0.808309
0.808302
0.808293
0.808314
0.808293
0.808301
0.808309
0.808294
0.8083
0.808316
0.808283
0.808308
0.808267
0.808377
0.808281
0.808281
0.808302
0.808308
0.808286
0.808407
0.8083
0.808308
0.808395
0.808256
0.808256
0.8083
0.808315
0.808307
0.808314
0.808249
0.808248
0.808291
0.808294
0.808295
0.80841
0.808316
0.808283
0.808311
0.808312
0.808309
0.808406
0.808285
0.808315
0.808301
0.808301
0.808311
0.808308
0.808311
0.808311
0.808396
0.808369
0.808308
0.808301
0.808307
0.808312
0.808308
0.808307
0.808307
0.808378
0.808276
0.808314
0.808286
0.808284
0.808379
0.808299
0.808299
0.808273
0.808251
0.808251
0.808274
0.808317
0.808302
0.80838
0.808253
0.808245
0.808245
0.808408
0.808263
0.808258
0.808302
0.808276
0.808294
0.808287
0.808282
0.808283
0.808295
0.808406
0.808299
0.808289
0.808283
0.808401
0.808261
0.8084
0.808281
0.80829
0.808326
0.808295
0.808296
0.808269
0.808292
0.808269
0.808299
0.808284
0.808261
0.808262
0.808381
0.808287
0.808435
0.808436
0.808435
0.808285
0.808411
0.808436
0.808312
0.808434
0.808268
0.808268
0.808435
0.808304
0.808398
0.808438
0.808398
0.808439
0.808398
0.808263
0.808385
0.80841
0.808433
0.808296
0.80828
0.8084
0.808296
0.808433
0.808291
0.808304
0.808439
0.808401
0.808439
0.808407
0.808301
0.808267
0.808245
0.808246
0.808289
0.808245
0.808245
0.808246
0.808251
0.808382
0.80826
0.808274
0.808268
0.808291
0.808251
0.80825
0.808267
0.808408
0.808305
0.808414
0.808403
0.808397
0.808253
0.808253
0.808254
0.808254
0.808252
0.808249
0.808257
0.808252
0.808249
0.808256
0.808255
0.808249
0.808247
0.808251
0.808256
P_ext 1 563 float
0.0119724
0.0119694
0.0119698
0.0119694
0.0119683
0.0119698
0.0119724
0.0119696
0.0119701
0.0119694
0.0119719
0.0119696
0.0119697
0.0119694
0.0119686
0.0119698
0.0119692
0.0119696
0.0119702
0.0119699
0.01197
0.0119664
0.0119699
0.0119699
0.0119699
0.0119695
0.0119717
0.0119697
0.011971
0.0119674
0.0119697
0.011971
0.0119718
0.0119677
0.0119677
0.0119677
0.0119673
0.0119678
0.0119697
0.0119718
0.011971
0.0119673
0.0119673
0.0119697
0.0119715
0.011971
0.0119702
0.0119701
0.0119698
0.0119711
0.0119711
0.0119708
0.0119683
0.0119708
0.0119684
0.0119716
0.0119677
0.0119708
0.0119677
0.0119699
0.0119692
0.0119689
0.0119717
0.011969
0.0119689
0.0119693
0.0119692
0.0119695
0.0119699
0.0119693
0.0119683
0.0119683
0.011971
0.0119691
0.0119699
0.0119719
0.0119687
0.0119693
0.0119695
0.0119706
0.0119713
0.0119682
0.011969
0.0119713
0.011971
0.0119715
0.0119698
0.0119692
0.0119715
0.0119665
0.0119708
0.0119665
0.0119686
0.0119693
0.0119708
0.0119711
0.0119713
0.0119695
0.0119687
0.0119697
0.0119705
0.011971
0.0119713
0.0119696
0.0119695
0.0119695
0.011969
0.0119698
0.0119713
0.0119692
0.0119699
0.0119714
0.0119713
0.0119696
0.0119695
0.0119708
0.0119677
0.0119713
0.0119677
0.0119708
0.0119703
0.0119687
0.0119694
0.0119692
0.0119692
0.0119686
0.0119679
0.0119694
0.0119713
0.0119707
0.0119682
0.0119694
0.011969
0.0119694
0.011971
0.0119677
0.0119714
0.0119697
0.011969
0.0119677
0.0119709
0.0119695
0.0119703
0.0119694
0.0119713
0.0119695
0.0119695
0.0119698
0.0119698
0.0119705
0.0119701
0.0119693
0.011971
0.0119697
0.0119694
0.0119694
0.0119694
0.0119709
0.0119709
0.0119697
0.0119701
0.011971
0.0119715
0.011971
0.0119709
0.0119695
0.0119709
0.0119709
0.011971
0.0119709
0.0119686
0.0119708
0.0119711
0.0119693
0.0119708
0.011969
0.0119686
0.0119696
0.0119684
0.0119695
0.011971
0.0119695
0.0119695
0.0119709
0.0119692
0.0119711
0.0119692
0.011969
0.0119686
0.0119695
0.0119692
0.0119713
0.0119708
0.011971
0.0119694
0.0119696
0.0119696
0.011969
0.0119694
0.0119693
0.0119694
0.0119702
0.0119707
0.0119691
0.011971
0.011969
0.0119693
0.0119709
0.0119688
0.0119693
0.0119688
0.0119694
0.0119695
0.011969
0.0119705
0.0119694
0.0119707
0.011969
0.0119692
0.0119692
0.0119692
0.0119692
0.0119692
0.0119692
0.0119694
0.0119687
0.0119687
0.0119686
0.0119686
0.0119683
0.0119683
0.0119705
0.0119694
0.0119694
0.0119702
0.0119686
0.0119686
0.0119693
0.0119706
0.0119694
0.0119695
0.0119705
0.0119688
0.0119705
0.011969
0.0119694
0.0119705
0.0119706
0.0119713
0.0119711
0.011969
0.0119714
0.0119697
0.0119707
0.0119702
0.0119694
0.0119692
0.0119673
0.0119692
0.0119714
0.0119706
0.0119694
0.0119696
0.0119707
0.0119692
0.0119703
0.0119673
0.0119706
0.0119692
0.0119692
0.0119696
0.0119686
0.0119692
0.0119683
0.0119697
0.0119714
0.0119715
0.0119685
0.01197
0.0119696
0.0119706
0.0119688
0.0119694
0.0119706
0.0119693
0.0119705
0.0119695
0.0119705
0.0119706
0.0119669
0.0119685
0.0119686
0.0119686
0.0119694
0.0119705
0.0119678
0.0119692
0.0119701
0.0119704
0.0119706
0.0119685
0.0119705
0.0119686
0.0119705
0.0119715
0.0119704
0.0119713
0.011969
0.0119705
0.0119669
0.0119705
0.0119691
0.0119705
0.0119691
0.0119705
0.0119698
0.0119718
0.0119698
0.0119705
0.0119684
0.0119705
0.01197
0.0119692
0.0119694
0.0119705
0.0119705
0.0119703
0.011969
0.0119705
0.0119696
0.0119698
0.0119684
0.0119705
0.0119703
0.01197
0.0119703
0.0119705
0.0119703
0.0119688
0.0119696
0.0119703
0.0119705
0.0119695
0.0119695
0.0119705
0.0119684
0.011972
0.0119698
0.0119713
0.01197
0.0119727
0.0119727
0.0119727
0.0119727
0.0119726
0.0119728
0.0119728
0.011969
0.0119679
0.0119696
0.01197
0.0119702
0.0119703
0.0119695
0.0119703
0.0119703
0.0119679
0.0119703
0.0119688
0.0119708
0.0119687
0.0119698
0.0119701
0.0119703
0.0119685
0.0119698
0.0119701
0.0119698
0.01197
0.0119703
0.0119707
0.01197
0.0119699
0.0119688
0.0119702
0.0119703
0.0119702
0.0119701
0.0119698
0.0119695
0.0119702
0.0119695
0.0119698
0.0119701
0.0119696
0.0119699
0.0119703
0.0119691
0.01197
0.011968
0.0119715
0.011969
0.0119688
0.0119698
0.0119701
0.0119693
0.011972
0.0119698
0.0119701
0.0119718
0.0119669
0.0119669
0.0119698
0.0119702
0.01197
0.0119702
0.0119661
0.0119662
0.0119696
0.0119696
0.0119696
0.011972
0.0119703
0.0119691
0.0119701
0.0119702
0.0119701
0.0119719
0.0119692
0.0119703
0.0119698
0.0119698
0.0119702
0.0119701
0.0119701
0.0119701
0.0119718
0.0119713
0.0119701
0.0119698
0.01197
0.0119702
0.0119701
0.01197
0.01197
0.0119715
0.0119687
0.0119702
0.0119693
0.0119692
0.0119715
0.0119698
0.0119699
0.0119684
0.0119669
0.0119669
0.0119684
0.0119703
0.0119698
0.0119715
0.011967
0.0119663
0.0119663
0.011972
0.0119678
0.0119674
0.0119699
0.0119686
0.0119697
0.0119694
0.0119691
0.011969
0.0119696
0.0119719
0.0119698
0.0119693
0.0119691
0.0119719
0.0119676
0.0119719
0.0119691
0.0119694
0.0119705
0.0119697
0.0119696
0.0119682
0.0119696
0.0119682
0.0119698
0.0119691
0.0119674
0.0119674
0.0119716
0.0119693
0.0119724
0.0119724
0.0119724
0.0119692
0.011972
0.0119724
0.0119702
0.0119724
0.0119682
0.0119682
0.0119724
0.01197
0.0119718
0.0119724
0.0119718
0.0119725
0.0119718
0.0119677
0.0119716
0.011972
0.0119724
0.0119697
0.0119689
0.0119719
0.0119696
0.0119724
0.0119695
0.01197
0.0119725
0.0119719
0.0119725
0.011972
0.0119699
0.011968
0.0119663
0.0119664
0.0119694
0.0119663
0.0119663
0.0119663
0.0119667
0.0119716
0.0119676
0.0119685
0.011968
0.0119694
0.0119666
0.0119666
0.0119679
0.011972
0.01197
0.0119721
0.0119719
0.0119718
0.011967
0.011967
0.0119671
0.0119671
0.011967
0.0119664
0.0119671
0.0119666
0.0119663
0.011967
0.011967
0.0119663
0.0119664
0.0119666
0.0119671
FIELD solute_flux_TPM 2
S_ext 3 563 float
-4.42159e-05 1.47549e-05 6.14733e-19
2.33374e-06 4.13962e-06 -1.3412e-18
-7.44481e-06 -5.78454e-06 1.49435e-18
-2.4647e-06 2.50984e-06 5.86524e-21
1.49493e-05 -4.34743e-06 2.41303e-18
1.52052e-06 -9.215e-06 -5.02509e-19
-4.35422e-05 -1.49346e-05 -4.65496e-19
-8.40178e-06 -5.98425e-06 3.34395e-18
1.25751e-05 5.80453e-07 1.81497e-18
6.83003e-06 -2.5805e-06 -1.73653e-19
2.95802e-05 6.87821e-06 -3.10645e-19
1.17957e-06 -1.0256e-05 3.34615e-19
8.2094e-06 6.39804e-06 2.17559e-18
1.84063e-06 8.2746e-06 5.05759e-19
1.35547e-05 -2.10194e-06 8.65765e-19
-9.3403e-06 -1.52207e-07 -6.70694e-19
1.99446e-06 8.7978e-06 -1.34676e-18
5.97627e-06 -1.49612e-06 -5.04949e-19
5.60439e-06 9.73786e-06 3.33092e-19
-8.4904e-06 1.10319e-06 -1.32935e-18
-1.90342e-06 -1.22241e-05 3.28056e-19
2.86161e-05 4.039e-05 3.71612e-18
9.06817e-06 9.51879e-07 -8.34799e-19
6.58226e-06 -6.45847e-06 -1.99811e-18
-8.60732e-06 -1.97464e-06 -1.82934e-18
-2.0627e-07 -6.63194e-06 -2.34303e-18
3.3931e-05 -2.63114e-06 -4.77589e-19
8.40285e-06 5.99119e-06 -3.83563e-18
-1.36404e-05 -1.11197e-05 2.09035e-18
3.22861e-05 -8.61533e-06 4.87515e-18
-9.57532e-06 -3.7463e-06 -5.03736e-19
2.95994e-06 -1.7517e-05 -3.54481e-18
2.545e-05 -2.59152e-05 -2.66714e-18
-3.46896e-06 -2.74641e-05 -8.65912e-19
-1.95159e-05 2.41844e-05 1.21065e-18
-2.55199e-05 -1.07148e-05 -1.83914e-19
2.14776e-05 2.80237e-05 3.44647e-19
-2.93894e-05 -5.83333e-06 5.3637e-18
8.66309e-06 -6.3129e-06 -3.00961e-18
2.48694e-05 2.70038e-05 -1.25518e-18
1.76383e-05 -7.66928e-06 1.60765e-18
2.18808e-05 -2.69793e-05 1.22347e-18
-1.24318e-05 -3.24154e-05 1.89855e-18
-9.13539e-06 3.92568e-06 -4.01079e-18
1.6397e-05 -1.60253e-05 1.10748e-18
-1.63714e-05 5.80687e-06 -2.58158e-18
-2.28074e-06 -1.14827e-05 -1.72933e-19
4.43161e-06 1.14391e-05 -8.26149e-19
-9.51982e-06 3.56864e-06 -1.50037e-18
-9.78514e-06 1.54198e-05 -1.28553e-18
1.7779e-05 8.3115e-06 -1.44627e-18
1.61881e-05 -5.67199e-06 8.08988e-19
-1.03095e-05 1.02092e-05 1.87821e-18
-1.28443e-05 -1.10917e-05 -1.69029e-19
-1.37774e-05 -3.45825e-06 2.39955e-18
-2.37934e-05 1.42108e-05 -9.43931e-19
-1.93244e-05 -2.48953e-05 -1.90262e-18
3.34423e-06 -1.67658e-05 -3.25089e-18
-3.12319e-05 4.3304e-06 -5.0407e-18
3.45097e-06 7.92166e-06 6.71738e-19
-3.36672e-06 -5.31514e-06 -1.80452e-19
-4.00393e-06 -1.15702e-05 2.02409e-18
3.06692e-05 1.33371e-05 -3.08285e-19
6.15411e-06 1.13755e-05 -2.37445e-18
8.07465e-06 -9.14156e-06 3.47516e-19
-1.26568e-06 -1.28111e-05 3.35344e-19
3.13492e-06 -5.52035e-06 -4.97221e-19
-5.89262e-06 -3.47578e-06 1.61509e-19
-6.15593e-06 6.76421e-06 -9.94655e-19
1.47388e-06 -2.69233e-06 1.64952e-19
-9.88025e-06 -1.02649e-05 -1.01756e-18
-1.38998e-05 3.47005e-06 -1.04159e-18
-2.10762e-06 1.86284e-05 1.6096e-18
-1.10514e-05 6.68378e-06 -2.02635e-18
-5.25909e-06 8.31483e-06 -2.4977e-18
-3.1642e-05 3.98093e-06 -9.34904e-19
5.2232e-06 -1.37623e-05 2.3925e-18
-1.17662e-05 -5.23108e-06 -6.82384e-19
9.84853e-07 6.95629e-06 3.85944e-18
1.46557e-05 2.79399e-06 2.44354e-18
1.85281e-05 -1.57253e-05 -3.8475e-18
1.46484e-05 1.33258e-05 -2.24215e-18
7.71668e-06 -2.01992e-06 -2.18459e-18
-1.72496e-05 1.262e-05 -1.27931e-18
2.06933e-05 2.67881e-06 -1.61051e-18
-2.95725e-06 2.63217e-05 -1.25903e-18
-9.37175e-07 -9.90374e-06 -1.00941e-18
1.13151e-05 6.0249e-06 -6.77851e-19
1.57694e-05 1.64926e-05 -7.86484e-19
4.24793e-05 2.64166e-05 4.91152e-18
-2.91315e-06 1.68466e-05 1.46736e-18
4.43788e-05 -2.49401e-05 -3.33466e-18
-1.76091e-05 3.22055e-06 1.02515e-18
1.10583e-05 7.00353e-06 -2.69327e-18
-1.60726e-05 5.41827e-06 -9.74569e-19
9.01955e-06 1.56137e-05 1.44644e-18
5.3202e-06 -2.38406e-05 -1.43879e-18
1.01635e-06 6.95789e-06 -6.68918e-19
-9.24472e-06 -1.13715e-05 -3.52891e-19
1.61652e-06 1.02075e-05 2.17555e-18
1.4756e-05 3.02481e-06 1.31174e-18
-8.37821e-06 1.79136e-05 -1.46023e-18
2.19757e-05 -7.35507e-06 -1.43832e-18
-2.2436e-06 4.3018e-06 -2.17254e-18
6.1381e-06 3.37048e-06 1.51437e-18
-1.18966e-06 -6.74873e-06 2.60962e-21
2.27096e-06 -1.22251e-05 1.69689e-18
1.01962e-05 2.41183e-06 -8.35604e-19
-4.39103e-06 2.2088e-05 -9.53436e-19
-6.29024e-06 -1.16168e-08 1.35701e-18
5.4899e-06 6.8143e-06 -1.6122e-19
-1.43104e-06 -2.24868e-05 -1.26561e-18
2.27709e-05 7.11521e-06 -1.8998e-18
2.63028e-06 -4.3144e-06 -3.31455e-19
-6.5322e-06 -2.25286e-06 5.02888e-19
-1.58569e-05 -6.81573e-06 -1.69574e-19
1.0491e-05 2.76026e-05 1.54273e-18
-2.29787e-05 -8.21722e-06 3.13464e-21
1.06374e-05 -2.7677e-05 1.75543e-19
-1.99067e-06 -1.74466e-05 -3.90519e-18
1.23543e-05 3.1926e-07 2.62589e-18
-4.57922e-06 1.20756e-05 -1.35195e-18
-1.09647e-06 2.37363e-06 3.69752e-18
-2.58563e-06 -1.03201e-05 -2.6948e-18
3.25668e-06 -5.50168e-06 -1.52133e-18
6.2058e-06 1.02488e-05 -2.04558e-18
2.21384e-05 7.32057e-06 -1.36897e-18
5.38777e-06 -4.31292e-06 -6.68979e-19
-4.52137e-06 -2.41291e-05 -2.08072e-18
1.41424e-05 -1.03474e-05 -2.92967e-18
3.29696e-06 1.81164e-05 -1.73637e-19
-1.61358e-06 -1.83205e-06 -1.34282e-18
-5.6379e-06 -5.24113e-06 3.47959e-19
-2.97312e-06 1.84237e-07 -4.9627e-19
-1.23995e-05 1.52731e-05 3.16678e-19
1.29216e-05 -2.47684e-05 2.31037e-21
-1.42895e-05 2.26152e-05 9.51561e-19
-9.52395e-06 5.68494e-06 -2.1713e-18
1.50692e-06 7.99829e-06 -8.47283e-19
-1.49627e-05 -2.35532e-05 -1.39488e-18
7.51101e-06 1.82241e-05 -4.04355e-18
1.07803e-05 5.36425e-06 -8.43648e-19
1.29121e-05 -4.97063e-06 -4.45264e-18
-9.38745e-07 -6.76264e-06 6.76809e-19
-1.80543e-05 -1.65975e-05 2.07992e-18
-1.43309e-06 6.78187e-06 5.08146e-19
1.04991e-05 6.24546e-06 -3.52397e-18
1.11002e-05 -5.40914e-06 -1.49765e-18
4.87118e-06 -8.20587e-06 -1.67204e-19
1.3649e-05 -6.01177e-06 8.13613e-19
1.09731e-05 -5.19829e-06 6.5976e-19
2.98377e-06 3.2169e-07 -1.67022e-18
1.40668e-05 1.1138e-05 -1.12348e-18
-1.37331e-06 -9.96994e-06 9.98119e-19
-6.40163e-06 -2.46662e-06 -1.51405e-18
8.31231e-07 -2.33771e-06 -8.32197e-19
-2.21337e-06 9.59801e-06 8.45829e-19
-1.87025e-05 1.50275e-06 6.51087e-19
-6.57378e-06 -1.79576e-05 3.15559e-19
-4.5951e-06 5.6347e-06 -4.99834e-19
7.77058e-06 9.36968e-06 -2.81557e-18
1.45219e-05 -1.03671e-05 -9.34468e-22
-1.96793e-05 -1.06987e-05 3.48722e-18
9.43852e-06 -1.50899e-05 -1.12742e-18
1.24716e-05 -1.48624e-05 -4.85865e-19
-6.44184e-06 2.43926e-06 -2.34383e-18
-1.07553e-05 -1.54639e-05 -5.48817e-21
-1.86794e-05 -3.14104e-06 3.24626e-18
-2.26002e-06 -1.72227e-05 -3.38667e-18
8.34634e-06 -1.72803e-05 -9.8142e-19
-6.09564e-06 -1.68944e-05 -2.38137e-18
2.3785e-06 1.71831e-05 1.14279e-18
-8.65253e-06 -1.53648e-05 -4.40625e-21
2.13738e-06 -9.96346e-06 -2.18387e-18
-1.35135e-05 9.78827e-06 9.81564e-19
-9.41274e-06 -7.84679e-06 -5.22939e-19
-1.77273e-05 -3.11007e-06 1.18305e-18
9.39757e-06 -5.58944e-06 -1.51117e-18
-2.70396e-06 1.567e-05 2.57891e-18
7.64692e-06 -5.47835e-06 -3.85598e-18
-1.59827e-05 -6.98798e-06 1.45434e-18
-5.39624e-06 -4.2985e-06 -1.8455e-18
5.62175e-06 4.34091e-06 2.18924e-18
1.17164e-05 1.56507e-05 4.89453e-19
-1.06756e-05 -6.73856e-06 -1.35937e-18
-1.74823e-05 -4.28032e-07 1.60931e-18
-1.03419e-05 -2.83746e-06 -3.21125e-18
-2.99977e-06 -1.03318e-05 -5.04977e-19
1.14174e-05 1.40579e-05 -5.17348e-19
-6.72461e-06 3.31173e-06 1.014e-18
5.31126e-07 -1.26491e-05 1.18239e-18
-2.22823e-05 5.75849e-06 -6.38076e-19
1.37606e-05 1.10974e-05 -8.11362e-19
2.02094e-06 1.79027e-05 -2.89739e-18
-1.37779e-06 2.44626e-06 5.06612e-19
-5.21804e-06 1.44047e-07 -1.67072e-18
2.58386e-06 4.48684e-06 8.40087e-19
-7.48288e-06 2.3412e-06 3.36503e-19
-1.3711e-06 -2.25806e-06 5.14983e-19
1.25492e-06 1.27309e-05 6.75535e-19
2.85998e-06 9.2979e-08 -8.33036e-19
-1.09603e-05 2.68156e-06 3.29222e-19
-9.56611e-06 1.0593e-05 -1.30617e-18
-1.8422e-06 7.48815e-06 -1.68158e-18
-1.57909e-05 9.89893e-06 1.29224e-18
-6.11516e-06 5.65179e-06 1.73112e-19
1.06743e-05 -7.49837e-06 -2.35859e-18
2.00152e-05 -2.01753e-06 2.26693e-18
-1.34985e-05 7.11572e-06 -6.77678e-19
1.27112e-06 2.90207e-06 -1.51447e-18
1.4099e-05 -2.5131e-06 1.36624e-18
-1.04525e-05 6.52838e-06 -1.84441e-18
-5.81151e-06 3.4726e-06 -1.84007e-18
7.7362e-06 2.6324e-06 3.40812e-19
1.22488e-05 -7.61962e-06 3.2691e-19
-1.05931e-05 5.96575e-06 -3.30759e-19
-1.3721e-05 -2.88888e-06 3.91382e-18
-1.05092e-05 -2.56365e-06 8.38314e-19
6.46682e-06 1.89137e-07 -2.85236e-18
6.60841e-06 -7.47052e-08 -9.95348e-19
2.96957e-06 5.23677e-06 2.22201e-21
3.23452e-06 -5.5212e-06 -2.51328e-18
-3.06594e-06 5.47346e-06 2.19423e-18
-3.19597e-06 -5.58967e-06 3.28885e-19
5.92757e-06 -4.7226e-06 3.31879e-19
-1.32535e-05 2.22701e-06 3.90609e-18
-1.31023e-05 -2.26731e-06 1.53744e-18
-8.46671e-06 1.03046e-05 3.40488e-18
-8.50995e-06 -1.03402e-05 1.82861e-19
4.83499e-06 -1.32032e-05 -4.62258e-18
4.65858e-06 1.30965e-05 1.69971e-18
8.77429e-07 1.44042e-05 -2.61274e-18
7.02468e-06 -1.61405e-06 -5.00879e-19
1.51025e-06 -2.31288e-06 -2.16535e-18
-1.19619e-05 8.60622e-07 -2.81682e-18
4.97436e-06 -1.29928e-05 -2.21657e-18
4.71577e-06 1.30375e-05 -1.71335e-18
2.92008e-06 -5.34822e-08 1.62533e-19
4.94588e-06 1.35331e-05 -6.42593e-19
-1.34924e-06 -2.42121e-06 -6.85934e-18
1.27373e-06 -6.79496e-06 6.77298e-19
-1.24224e-05 -6.62796e-06 -4.95563e-19
-1.36638e-05 -7.26165e-06 -1.37151e-18
-1.21072e-05 7.53941e-06 -1.30876e-18
1.96512e-06 -8.0848e-06 -2.03646e-18
-9.61163e-07 2.00764e-06 6.77113e-19
-4.21135e-07 -1.41984e-05 -1.97171e-18
-4.32109e-06 -1.34213e-05 -6.56581e-19
1.77325e-05 1.64444e-05 -7.96759e-19
1.94309e-05 -9.84915e-07 4.80168e-18
-8.14637e-06 -2.50521e-06 8.56112e-19
-1.22901e-05 -2.19205e-05 7.99874e-19
4.86161e-06 7.94105e-06 3.40755e-19
-1.38207e-05 1.6314e-06 -8.11674e-19
1.14421e-05 3.29153e-06 1.81157e-18
-2.72831e-06 -1.14937e-08 5.07148e-19
-3.07787e-06 -5.30518e-06 -3.27147e-19
-5.4139e-06 -2.56882e-05 2.43392e-18
-6.21554e-06 1.00236e-07 -2.01612e-18
-2.55602e-05 -9.57448e-07 -4.7507e-19
9.61264e-06 -1.06519e-05 -9.77747e-19
1.5372e-06 2.39477e-06 2.17931e-18
-1.35495e-07 -1.0427e-05 -3.34923e-19
-5.48205e-06 1.31992e-05 1.63309e-19
-2.91056e-06 5.43347e-06 3.19994e-18
1.1722e-05 -7.64616e-06 -4.61625e-18
-2.49522e-05 -8.13426e-06 -2.44836e-18
-8.43268e-06 -1.11619e-05 -1.71053e-19
3.11314e-06 5.51387e-06 -3.53213e-18
1.06112e-05 2.86562e-06 2.54233e-18
-2.76635e-06 -4.22558e-06 5.02112e-19
1.31029e-05 2.49782e-06 8.60705e-19
1.14037e-05 -5.99938e-06 -1.51612e-18
-2.04832e-07 1.75572e-05 -1.02629e-18
4.89569e-06 -7.92594e-06 -2.17483e-18
2.6405e-05 1.08596e-06 -2.37768e-18
-2.24465e-05 5.8295e-06 -6.39435e-19
1.49683e-05 7.39672e-06 -2.22606e-18
-3.6347e-06 -9.74589e-06 2.31744e-18
-9.1525e-06 -5.03256e-06 2.66985e-18
1.59842e-05 -1.27058e-07 2.4545e-18
-5.04364e-07 -1.5507e-05 3.40443e-19
-7.51684e-06 -6.90736e-06 -1.86051e-18
5.65448e-06 -1.30445e-05 -6.4964e-19
-4.43476e-07 1.25706e-05 1.68541e-18
4.3012e-06 1.44803e-05 -2.45627e-18
1.04921e-05 -6.06969e-06 -1.50601e-18
-1.05394e-05 1.0517e-05 9.68611e-22
9.15651e-06 1.11339e-05 1.79337e-18
-4.31715e-05 1.02766e-05 5.42424e-18
-6.75283e-06 1.67967e-05 2.90805e-18
8.28082e-06 -9.90065e-06 -3.05512e-18
-4.47637e-06 -1.20462e-05 2.70861e-18
-7.26822e-06 2.47688e-06 -5.00831e-19
-1.42048e-05 -3.96373e-06 3.29365e-19
-4.47083e-06 2.57824e-05 8.66754e-19
-7.61175e-06 7.68807e-06 -3.70343e-18
1.19275e-05 -2.74436e-06 -2.82185e-18
-3.73641e-06 -1.42963e-05 -3.36299e-19
-8.20281e-06 1.30559e-05 -2.12796e-18
-1.39874e-05 8.10536e-06 -1.7022e-19
-1.13556e-05 -8.31545e-06 -2.62346e-18
1.16479e-05 -1.37376e-05 -1.70391e-18
-1.50247e-05 -8.07842e-07 -8.18983e-19
6.49519e-06 -2.21258e-05 7.88448e-19
1.09087e-05 -1.04934e-05 8.18223e-19
1.32393e-05 2.32157e-05 -2.55633e-18
1.31864e-06 1.25263e-05 -3.2166e-18
1.66051e-06 -1.41489e-05 -4.91276e-19
-2.80553e-05 3.29878e-05 4.20289e-18
-6.98465e-06 -1.33791e-05 9.75424e-19
1.05559e-05 -3.88623e-06 -3.34233e-19
-1.42155e-06 1.42537e-05 3.93165e-18
7.98972e-06 -7.7989e-06 -1.52386e-18
7.68489e-06 1.34419e-05 -2.29208e-18
1.0004e-05 -9.31814e-07 -2.5088e-18
1.15128e-05 -3.36612e-05 -2.0472e-18
-3.3191e-06 -7.4003e-06 -1.50405e-18
-1.28138e-05 5.49174e-06 -3.25987e-19
-1.29724e-05 1.22612e-05 -1.02133e-18
1.20681e-05 8.17872e-06 8.16125e-19
1.08163e-05 -6.30034e-06 -1.98696e-18
9.13696e-06 8.05024e-06 -8.49204e-19
-3.44698e-06 -1.42954e-07 -3.51823e-18
8.55556e-06 -1.2778e-05 -2.78552e-18
-9.43824e-06 -1.11492e-05 1.59904e-19
1.2765e-05 5.62729e-06 -9.90701e-19
8.02321e-06 -7.70889e-06 -2.37149e-18
5.22901e-06 -1.3823e-05 -1.478e-18
9.90024e-06 -4.44639e-06 -4.85986e-18
-9.21027e-06 -4.47073e-06 3.49824e-18
9.2516e-07 -1.6944e-05 5.19044e-19
-1.43262e-05 2.54287e-06 1.64319e-18
1.22717e-06 1.37892e-05 -6.54195e-19
1.18402e-05 3.97843e-06 1.82499e-18
-1.21123e-05 -6.05485e-06 -1.48864e-18
-4.9141e-06 1.4148e-05 -4.85565e-19
-7.71066e-07 -1.36197e-05 -2.80516e-18
1.2442e-05 7.62175e-06 -3.91056e-18
-7.70945e-07 1.08203e-05 1.17667e-18
-1.13314e-05 7.54645e-06 1.81125e-18
1.32092e-05 6.34646e-06 3.98803e-21
-1.01447e-05 -6.24324e-06 3.28591e-19
3.49119e-07 -1.19596e-05 4.69994e-18
1.03221e-05 1.10679e-05 -3.27067e-19
-1.42031e-05 -9.25895e-06 -1.72528e-18
2.59953e-05 -1.85801e-05 -2.02237e-18
1.06572e-05 -6.29718e-06 -4.66989e-18
4.66945e-06 2.31877e-05 -3.67529e-18
9.98591e-06 -7.76486e-06 -2.82409e-18
-1.20063e-05 4.64369e-05 2.3746e-18
-1.20671e-05 -4.59975e-05 7.4851e-19
3.02488e-05 3.94921e-05 5.18495e-18
2.98875e-05 -3.94826e-05 -1.48447e-18
4.93618e-05 -2.53731e-08 1.91993e-18
-4.24596e-05 1.72307e-05 -4.43616e-19
-4.1774e-05 -1.74089e-05 3.55455e-18
7.71197e-06 7.64034e-06 -8.50291e-19
1.94687e-05 1.4571e-05 2.05639e-18
6.72856e-06 2.08908e-06 1.50508e-18
1.09503e-05 5.60378e-06 -1.82458e-18
2.79683e-06 1.14389e-05 3.82245e-21
-1.06251e-05 -8.25877e-06 -1.65504e-18
1.05494e-05 -5.98693e-06 -2.3496e-18
1.1337e-05 8.14635e-06 -3.26013e-19
-1.69286e-06 1.36964e-05 1.32081e-18
1.95742e-05 -1.33701e-05 -1.3775e-18
2.01171e-06 -1.33858e-05 -4.29049e-18
1.41659e-05 3.03962e-06 -5.08688e-19
1.64518e-05 6.17249e-06 -1.13504e-18
9.35945e-06 9.13773e-06 6.50164e-23
9.29887e-06 3.95537e-06 3.32724e-19
-1.05611e-05 6.27398e-06 -4.35985e-22
-1.25788e-05 5.14417e-06 -9.87904e-19
1.50238e-05 -7.2485e-06 -1.87331e-18
-1.05879e-05 -5.91589e-06 2.99386e-18
-1.06409e-05 -5.986e-06 9.91758e-19
-8.90339e-08 -1.21548e-05 2.49585e-18
-1.04524e-07 -1.21605e-05 9.89399e-19
-1.12295e-05 -5.77096e-07 1.9773e-18
1.48661e-05 -2.24555e-06 2.27773e-18
1.04701e-05 6.57732e-06 -9.95274e-19
-1.04684e-05 6.25994e-06 -6.65722e-19
-9.5644e-06 1.07357e-05 -8.44736e-19
9.17448e-06 -7.84661e-06 4.9444e-19
-6.21337e-06 9.73106e-06 1.31781e-18
-8.0148e-06 -8.32363e-06 3.21249e-19
-6.87999e-07 1.20956e-05 2.48939e-18
-5.79069e-07 1.22612e-05 3.16804e-18
-9.72924e-09 -1.19593e-05 3.85447e-18
3.44677e-06 -1.11632e-05 -3.80028e-18
-1.03347e-05 -5.8906e-06 1.83435e-18
9.0624e-06 -3.29688e-06 1.33229e-18
4.15111e-07 1.23215e-05 -2.14757e-18
2.08721e-07 1.10192e-05 1.70946e-21
-1.28536e-06 9.75534e-06 1.83549e-18
1.23837e-05 -3.14663e-06 2.30069e-18
-1.05234e-05 3.07879e-06 -1.65085e-19
2.21888e-06 1.23332e-05 -9.90845e-19
-2.14325e-05 8.33796e-06 2.75309e-18
5.10553e-06 2.2601e-05 -3.31239e-18
-1.0752e-05 2.69945e-06 -1.18566e-18
1.26641e-05 -7.53172e-06 -2.37129e-18
4.19022e-07 1.22838e-05 2.33549e-18
-1.15506e-05 3.94957e-06 -2.65694e-18
1.67311e-06 -9.9326e-06 -1.34399e-18
5.25459e-07 -3.11228e-05 -9.37862e-19
1.09976e-06 1.02238e-05 2.33427e-18
-9.78155e-06 7.82517e-06 4.99577e-19
9.28545e-06 3.40995e-05 -7.82542e-19
3.14159e-05 2.60713e-05 2.26421e-18
3.6041e-05 -2.46559e-05 2.10788e-18
8.84086e-06 -5.96395e-06 -3.17014e-18
-8.9326e-06 7.85757e-06 1.62448e-19
-1.14539e-05 -4.66817e-06 2.48747e-18
-1.10494e-05 -3.84333e-06 -4.92535e-21
4.44493e-05 -1.22244e-05 -3.55875e-19
4.53295e-05 9.53665e-06 4.77693e-18
6.41618e-06 2.3577e-06 -1.67569e-18
2.13732e-07 1.16929e-05 2.18096e-18
7.89465e-08 1.1691e-05 1.51162e-18
-2.58953e-05 -1.89804e-05 2.01146e-18
6.47778e-06 -9.68823e-06 -2.63834e-18
7.31208e-06 8.16611e-06 -2.37122e-18
-1.19767e-05 -2.01099e-06 -1.82399e-18
-7.97847e-06 9.55257e-06 -8.29027e-19
-1.0758e-05 5.19737e-06 -3.30247e-19
2.56762e-05 1.84099e-05 -2.32838e-18
9.98739e-06 4.30143e-06 -2.36068e-18
-3.14634e-06 1.1243e-05 1.65378e-19
-1.00228e-05 -6.68603e-06 1.48849e-18
9.15543e-07 -1.20541e-05 2.32665e-18
-4.96215e-06 -1.08673e-05 1.64622e-18
-9.83263e-06 -6.68325e-06 9.85093e-19
5.97156e-06 -1.06943e-05 -2.48279e-18
8.15512e-06 -9.5496e-06 -2.64543e-18
-1.56749e-06 -3.25868e-05 -1.25867e-18
1.40078e-05 -2.21791e-05 -1.28132e-18
9.9945e-07 -1.19011e-05 -1.16485e-18
1.0688e-05 6.53875e-06 -1.67113e-18
-8.37113e-06 -8.32635e-06 -8.46137e-21
-5.49466e-06 1.1048e-05 4.95705e-19
-2.72264e-06 1.19814e-05 2.32734e-18
9.7165e-06 8.0287e-06 -2.15951e-18
3.32982e-06 -1.13962e-05 -2.49294e-18
-7.50421e-06 -2.15091e-05 -3.15693e-19
-1.39424e-06 1.60408e-05 -2.89197e-18
8.45289e-06 8.19908e-06 -9.89677e-19
-7.79603e-06 -6.36656e-06 -1.19023e-18
-8.32852e-06 6.66322e-06 -4.96886e-19
2.40548e-05 -1.02966e-05 -5.21673e-18
4.34874e-06 -7.74125e-06 -3.16739e-18
-4.85601e-06 -7.1786e-06 1.16308e-18
1.41177e-05 4.39488e-06 -2.73302e-18
8.79866e-06 -3.17311e-05 -1.92754e-18
-2.30868e-05 -2.34622e-05 -6.73686e-21
1.53632e-05 3.91755e-06 -1.02151e-18
-5.23798e-06 -1.02038e-05 2.13519e-18
1.10083e-05 5.74035e-06 1.65799e-19
-1.5467e-05 -1.72105e-05 2.69133e-18
7.12885e-06 3.22458e-05 6.97448e-19
3.13329e-05 -4.04997e-05 -1.59717e-18
-1.94103e-05 -4.73729e-05 8.777e-19
1.45254e-05 -2.83334e-05 1.54538e-18
-8.28865e-06 2.87506e-05 3.29353e-18
-4.76604e-06 2.54135e-05 3.29981e-18
-1.086e-05 5.36411e-06 1.50285e-18
4.05026e-06 1.54883e-05 -3.92095e-18
-1.27932e-06 7.37135e-06 -8.31603e-19
6.1061e-06 2.12637e-06 -2.35292e-18
-2.26682e-06 1.01736e-05 3.40952e-19
-1.2498e-07 1.31101e-05 -2.53157e-18
9.99108e-06 5.86175e-06 -1.00588e-18
4.77451e-07 3.09753e-05 1.38967e-18
-8.65384e-06 6.02265e-06 -1.49876e-18
9.8875e-06 -3.6084e-06 -3.02855e-18
1.09071e-05 -2.55741e-06 3.42379e-19
-3.1746e-05 -4.60504e-06 -1.56737e-19
-2.27496e-05 1.0841e-05 2.94881e-18
-2.30191e-05 -2.73081e-05 1.58369e-19
5.63221e-06 5.24577e-06 -3.54773e-18
8.53411e-06 4.6914e-06 1.84224e-18
1.4954e-05 -2.46366e-06 1.47274e-18
-4.69076e-06 -7.62683e-06 3.3029e-19
1.02415e-05 5.26971e-06 2.84449e-18
4.87598e-06 -1.96424e-05 1.03369e-18
-8.38174e-06 5.87551e-06 1.17579e-18
-1.45687e-05 -1.40357e-05 1.01533e-18
-3.22778e-06 9.43845e-06 -1.32837e-18
-2.30488e-06 1.2889e-05 -1.68502e-18
2.27498e-05 1.41096e-05 2.06826e-18
2.42677e-05 -1.28472e-05 -3.39542e-19
-2.23155e-05 -5.99495e-06 -7.91194e-19
4.53864e-06 4.92923e-06 8.36029e-19
-2.54094e-06 5.39072e-05 4.00507e-18
2.96735e-08 -5.53702e-05 -6.11619e-19
2.72988e-05 4.67164e-05 3.23611e-18
-1.19751e-05 5.00357e-06 -1.68517e-19
-1.46859e-05 2.96738e-05 2.48018e-18
2.74693e-05 -4.5091e-05 -1.49201e-19
-6.62562e-06 -1.01819e-05 2.80546e-18
4.17809e-05 3.63206e-05 2.13911e-18
1.58487e-05 -1.16788e-05 -6.78515e-19
-2.20676e-06 -1.95496e-05 6.17723e-18
4.37726e-05 -3.55157e-05 -1.85103e-18
-3.83964e-06 8.27047e-06 -1.493e-18
-2.81716e-05 -1.78871e-05 4.2417e-18
-2.30829e-05 -4.82133e-05 9.27988e-19
-1.30994e-05 -3.06763e-05 3.08703e-19
-2.37309e-05 4.90004e-05 2.93204e-18
-5.62162e-06 3.4065e-05 -4.67217e-19
1.0697e-05 2.45618e-05 -1.79249e-19
-1.51856e-05 1.95057e-05 3.31057e-18
-1.40565e-05 -2.88972e-05 9.25418e-19
5.37291e-05 9.43928e-06 1.23782e-18
-1.01644e-05 6.17971e-06 2.51234e-18
-3.90765e-06 1.02387e-05 -3.33211e-19
-2.67254e-05 1.92256e-05 3.15667e-19
-1.02671e-05 5.93584e-06 1.51084e-18
5.32007e-05 -8.42021e-06 -1.39079e-18
-9.29107e-06 4.53757e-06 -1.0079e-18
4.16312e-06 -8.31876e-06 -1.67967e-19
-4.12904e-05 -3.14846e-05 1.85233e-18
-1.41127e-05 3.06881e-05 2.03263e-18
-4.22709e-05 3.1261e-05 -6.17578e-19
1.28558e-05 2.8228e-05 -3.1161e-19
-8.65095e-06 6.06215e-06 1.66867e-18
-1.32924e-05 1.61499e-05 3.62097e-18
-2.41552e-05 3.0378e-05 6.01568e-18
-3.79004e-05 -4.86787e-06 3.70405e-18
-7.11466e-07 9.90615e-06 -1.62211e-19
-2.55786e-05 -3.05057e-05 -2.12539e-18
-3.92215e-05 6.9064e-06 -5.48652e-18
-1.49539e-05 3.46516e-05 5.82677e-18
-1.15159e-05 4.60245e-05 3.17146e-18
-9.88249e-06 2.1984e-05 -1.57765e-18
-2.22086e-05 1.79071e-05 5.2434e-19
1.61593e-05 -3.87225e-06 -1.53184e-18
2.54116e-05 -1.23088e-06 -2.57936e-18
8.17657e-06 5.13958e-06 3.35293e-18
-8.09164e-06 -5.29813e-05 -1.06286e-18
-4.994e-05 -1.94676e-05 -8.92602e-19
2.4738e-05 1.77536e-07 -8.6816e-19
3.15995e-05 -6.10347e-06 -2.93645e-18
-6.01439e-06 -7.63141e-06 4.63946e-18
-2.7365e-05 1.92752e-05 1.08342e-18
-2.45274e-05 2.81223e-05 1.88547e-18
3.34035e-05 -1.20303e-05 -2.67853e-18
-1.86523e-05 -3.15673e-05 -3.52769e-19
-1.89833e-05 3.13197e-05 3.6634e-18
-3.67958e-05 -1.32451e-06 5.40231e-18
-1.67145e-05 3.29389e-05 3.3123e-18
-3.66888e-05 4.01279e-07 -5.94357e-18
4.574e-05 1.63646e-05 -1.74212e-19
3.68288e-05 1.38436e-06 -2.26196e-18
3.46786e-05 -1.7759e-05 5.29664e-19
1.01577e-05 -4.87894e-05 -5.29989e-18
1.82861e-05 -3.19009e-05 -2.96263e-18
1.81611e-05 3.18952e-05 2.77768e-18
9.94821e-06 4.76738e-05 4.59045e-18
4.99374e-05 -1.40862e-05 6.52842e-18
3.19796e-05 1.58369e-05 4.90749e-18
3.06682e-05 8.36962e-06 1.56965e-18
P_ext 3 563 float
-6.41702e-07 2.16932e-07 -6.01428e-20
5.84913e-10 2.37123e-08 -1.70262e-20
-5.90272e-08 -5.55207e-08 -1.16836e-20
-1.86721e-08 1.72313e-08 -7.73107e-21
1.62212e-08 3.28817e-10 -1.83773e-20
1.94349e-08 -7.88498e-08 2.97434e-20
-6.31802e-07 -2.19558e-07 -2.41623e-20
-4.62538e-08 -5.24992e-08 1.03545e-22
1.28786e-07 2.27721e-09 5.26122e-23
4.6987e-08 -4.3987e-09 -4.32151e-20
4.17709e-07 9.79269e-08 4.853e-21
2.29294e-08 -6.70718e-08 2.60475e-20
5.25021e-08 6.25293e-08 4.83008e-20
-5.43481e-09 4.89496e-08 -1.3021e-20
1.46616e-08 5.46957e-09 8.20852e-21
-8.22989e-08 -1.34716e-09 7.70882e-21
-1.03086e-08 3.22376e-08 -5.29888e-21
4.96064e-08 -7.47919e-09 -5.0863e-20
5.70045e-08 1.01671e-07 2.63705e-21
-7.646e-08 7.70739e-09 1.80746e-20
-2.87204e-08 -1.08298e-07 2.44745e-20
9.60585e-10 1.12506e-10 7.8674e-20
8.46889e-08 6.89249e-09 -7.88998e-21
5.39048e-08 -6.22547e-08 1.28142e-20
-7.81068e-08 -1.257e-08 1.66797e-20
-1.47383e-08 -4.27202e-08 -1.70582e-20
4.80151e-07 -3.92803e-08 -2.44092e-20
5.87204e-08 4.95215e-08 1.92703e-20
-1.75607e-07 -1.39486e-07 4.77102e-20
1.02759e-08 1.94797e-09 8.58406e-21
-7.84094e-08 -1.39445e-08 3.24601e-20
3.43141e-08 -2.23329e-07 -5.66555e-20
3.60819e-07 -3.69527e-07 -3.07201e-20
7.55192e-10 -1.68789e-08 5.90433e-20
-4.53115e-09 1.29782e-08 2.83469e-20
-1.40942e-08 -9.27469e-09 -2.43957e-20
1.83867e-09 9.32812e-09 7.43517e-20
-1.42364e-08 2.43222e-09 7.5709e-20
5.67005e-08 -6.16974e-08 4.14002e-20
3.52092e-07 3.851e-07 8.50207e-21
2.24802e-07 -1.01857e-07 2.64338e-20
3.43658e-09 -8.54468e-09 -1.33476e-20
-5.63234e-09 -7.45624e-09 6.67429e-21
-7.78941e-08 1.59809e-08 -3.27415e-20
2.23103e-07 -2.19101e-07 -8.53744e-21
-2.07811e-07 7.48016e-08 -2.15567e-20
-2.62435e-08 -1.14489e-07 -4.25316e-20
4.73379e-08 1.1499e-07 -5.16577e-21
-7.47171e-08 1.95258e-08 1.03197e-20
-1.28733e-07 2.00216e-07 1.98347e-20
2.28169e-07 1.11748e-07 -3.88501e-20
1.98077e-07 -6.51431e-08 2.40072e-20
-5.80344e-09 1.38054e-08 -1.7327e-20
-1.55007e-07 -1.39102e-07 -5.17095e-21
-1.51411e-08 2.00782e-09 3.61605e-20
-3.32632e-07 1.95339e-07 -2.2264e-20
-4.20591e-09 -1.29243e-08 -2.56886e-20
4.41421e-08 -2.04696e-07 -6.08818e-20
-1.31657e-08 -2.87988e-09 -2.88428e-20
3.46053e-08 6.93799e-08 -1.67059e-20
-1.84517e-08 -5.566e-09 -1.72257e-20
-1.94771e-08 -1.82549e-08 -1.06447e-20
4.32881e-07 1.90579e-07 -9.75328e-21
-4.05091e-10 3.77e-08 -1.85942e-20
5.79288e-09 -2.51455e-08 6.73942e-21
9.81253e-09 -5.59944e-08 -1.1803e-20
-3.91914e-09 -1.83194e-08 1.396e-21
-4.4842e-08 -1.13761e-08 -5.27623e-21
-5.22126e-08 6.38903e-08 6.46165e-21
1.40019e-08 -5.06669e-09 -5.49094e-20
-5.72342e-09 -1.42044e-08 -2.25763e-20
-1.49752e-08 -2.20246e-09 -4.69143e-20
-2.59059e-08 2.40008e-07 8.94372e-23
-4.60196e-08 2.324e-08 -3.0345e-20
-4.46899e-08 7.64413e-08 4.78978e-20
-4.50223e-07 5.29176e-08 -4.74538e-20
4.94838e-13 -3.55376e-08 1.21558e-20
-4.32306e-08 -3.6245e-08 -1.4724e-21
1.82303e-08 4.44498e-08 1.60811e-21
1.72419e-07 3.44728e-08 2.67277e-21
2.47218e-07 -2.15106e-07 -5.38058e-20
6.73217e-09 1.65182e-08 4.26335e-20
1.66565e-08 5.19943e-09 1.05902e-20
-2.3036e-07 1.70431e-07 -1.74145e-20
2.68842e-07 3.26823e-08 1.1225e-20
-4.07647e-08 3.64508e-07 -1.21517e-21
-1.4123e-08 -7.29375e-08 -3.12987e-20
4.94938e-08 3.48661e-08 -5.65659e-20
2.14597e-07 2.2631e-07 -7.41897e-21
3.87546e-09 1.69035e-09 -3.96238e-20
-4.13481e-08 2.05854e-07 2.67178e-21
3.49939e-09 -1.84499e-09 1.36036e-20
-2.47453e-08 1.69024e-08 -6.56455e-21
5.3502e-08 2.17598e-08 -2.74283e-21
-1.98214e-07 6.12689e-08 -2.53902e-20
1.15069e-07 2.02203e-07 -1.11412e-20
7.15934e-08 -3.23253e-07 -1.01238e-20
1.68135e-08 4.40485e-08 -7.70533e-20
-3.03717e-08 -1.80514e-08 -2.18187e-22
2.521e-08 8.05892e-08 2.4889e-20
1.67671e-07 2.85262e-08 3.96357e-20
-1.11355e-07 2.30038e-07 6.19404e-21
2.96071e-07 -9.67643e-08 -4.97843e-20
-1.64076e-08 3.58222e-08 -4.95919e-20
3.14224e-08 3.19443e-08 3.15071e-20
-1.87006e-08 -4.31009e-08 1.70149e-20
-7.5411e-09 -3.28077e-08 -2.22127e-20
8.69784e-08 1.04158e-08 -1.43548e-20
-6.35312e-08 2.97148e-07 6.18024e-21
-1.46418e-08 9.06071e-09 1.72725e-20
4.33804e-08 6.43076e-08 6.53739e-21
-2.14847e-08 -3.04964e-07 -5.00209e-21
3.08488e-07 9.26248e-08 -3.34476e-20
2.09722e-08 -3.70664e-08 3.3907e-20
-4.78772e-08 -5.46334e-09 4.01829e-23
-1.97227e-07 -7.91517e-08 -2.02672e-20
9.72009e-09 1.03826e-08 -3.11506e-20
-3.13397e-07 -1.09598e-07 -4.95105e-21
9.86895e-09 -1.03559e-08 1.48693e-20
-3.04719e-08 -2.14189e-07 -1.4162e-20
1.32144e-07 5.01617e-09 -8.88195e-21
-1.17512e-08 9.98254e-09 -7.13793e-20
3.16884e-09 1.44188e-08 -1.27895e-20
8.85696e-09 -3.86523e-08 2.22686e-20
1.53375e-08 -7.14453e-09 -4.46944e-20
2.47669e-10 1.55018e-08 4.09387e-20
1.33668e-08 -1.67519e-09 5.92301e-20
2.50094e-08 -3.69289e-08 4.05009e-20
-6.41725e-08 -3.27276e-07 7.31573e-21
1.6945e-07 -1.30454e-07 -2.80281e-20
5.24431e-10 2.05796e-08 8.92612e-20
-1.42769e-08 -2.56844e-09 -4.44817e-20
-4.6142e-09 -1.59404e-08 -1.15676e-21
-1.176e-08 -8.31918e-09 1.31297e-20
-1.58441e-07 1.9799e-07 -2.39445e-20
-1.81628e-10 -1.5654e-08 4.07728e-21
-1.9825e-07 3.11277e-07 6.2088e-21
-7.43988e-08 3.42019e-08 -3.52282e-20
1.04547e-08 1.12388e-08 -3.03473e-20
-1.34764e-08 -7.88176e-09 6.53791e-21
9.66298e-08 2.33217e-07 -1.27635e-20
5.56625e-08 4.96396e-08 1.68752e-20
1.35258e-07 -4.45991e-08 -5.03574e-20
7.62223e-09 -4.15806e-08 2.36303e-20
-2.45607e-07 -2.26322e-07 -1.59355e-20
-2.36656e-08 4.08572e-08 2.61943e-20
6.1388e-08 3.27469e-08 -2.2481e-20
8.98081e-08 -3.09069e-08 -1.36576e-21
3.87813e-08 -7.74887e-08 2.59472e-20
1.53853e-07 -7.09496e-08 -7.65426e-21
1.02319e-07 -4.82961e-08 -2.31606e-20
1.02634e-08 -8.53227e-09 3.6606e-20
1.78528e-07 1.41214e-07 2.25275e-20
-2.58321e-08 -7.46408e-08 -4.37308e-24
-3.16829e-08 -2.71319e-08 5.09444e-21
-5.19792e-09 -1.35995e-08 2.6167e-20
7.14101e-09 5.3235e-08 -2.34539e-20
-2.38764e-07 1.7116e-08 2.60194e-21
-8.72297e-08 -2.27919e-07 1.25374e-20
-3.75259e-08 4.78331e-08 -3.91312e-21
7.38109e-08 9.83837e-08 -1.43632e-21
1.83755e-07 -1.30331e-07 -1.29726e-21
-2.68713e-07 -1.43668e-07 -1.69768e-20
1.19507e-07 -1.94555e-07 -2.50697e-20
1.55595e-07 -1.91403e-07 6.30873e-21
-4.57705e-08 4.51814e-09 -2.69915e-21
-1.36597e-07 -1.97666e-07 1.63255e-20
-2.39109e-07 -3.74712e-08 4.81871e-20
-2.85006e-08 -2.18223e-07 -5.22757e-21
1.06367e-07 -2.19853e-07 -3.28893e-20
2.23779e-09 -3.01452e-08 2.91584e-20
3.16066e-08 2.10486e-07 -4.90637e-21
-1.12625e-07 -1.97016e-07 3.3727e-20
-1.05787e-08 -4.82524e-08 -1.44687e-20
-1.62762e-07 1.21855e-07 -1.63307e-20
-3.18313e-08 -1.04054e-08 -2.79003e-20
-2.47708e-08 -1.70487e-08 2.11138e-20
6.48891e-08 -3.32695e-08 -3.27366e-20
-8.90175e-09 1.25918e-08 -2.50884e-20
3.44673e-08 -4.35441e-08 3.76556e-20
-2.02569e-07 -9.00884e-08 -2.38505e-21
-2.67852e-08 -3.60974e-08 -6.61751e-21
2.79903e-08 3.82973e-08 5.49665e-21
1.46461e-07 2.0218e-07 1.90069e-20
-5.17544e-08 -2.38594e-08 2.34465e-20
-2.25348e-07 -5.06908e-09 2.39288e-20
-2.88063e-08 -2.67585e-08 -4.49096e-20
-1.62536e-09 -3.87093e-08 1.97898e-20
2.82253e-08 1.42116e-08 -1.47012e-20
-3.25693e-08 3.21296e-08 -7.69114e-21
-5.44701e-09 -5.70035e-08 3.02816e-20
-3.00849e-07 7.41009e-08 -1.74613e-20
1.64857e-07 1.4065e-07 -1.64581e-20
2.20252e-08 2.29103e-07 -1.14024e-20
-1.32714e-08 4.54523e-09 2.35916e-20
-4.42704e-08 1.37566e-09 -5.28274e-21
2.03204e-08 3.88054e-08 -5.72018e-20
-1.60492e-08 -3.96491e-09 1.31456e-20
1.91611e-09 -1.37119e-08 4.85219e-20
-8.86749e-09 6.0343e-08 -1.69818e-20
9.79349e-09 1.03475e-08 1.05024e-20
-1.11872e-07 2.47261e-08 -2.56671e-20
-1.13506e-07 1.23841e-07 -3.55536e-20
-1.22358e-08 1.1318e-08 -4.20692e-20
-2.05401e-07 1.23955e-07 -3.24292e-20
-5.23501e-09 1.74555e-08 2.37522e-20
5.53423e-08 -1.98055e-08 2.61153e-20
2.57458e-07 -2.36841e-08 -1.99549e-20
-3.21944e-08 2.03697e-08 -2.24726e-20
1.30399e-08 5.99173e-09 -7.06856e-20
3.34988e-08 -2.09904e-08 3.98419e-20
-5.7542e-08 1.91571e-08 -5.62843e-20
-4.18888e-08 1.09614e-08 -1.18011e-20
1.46882e-08 -4.32007e-09 3.69071e-20
1.36346e-07 -8.29191e-08 -3.77666e-21
-5.35926e-08 3.41716e-08 2.68584e-21
-1.60313e-07 -3.34294e-08 5.35254e-20
-3.3998e-08 -1.79192e-08 4.86603e-20
1.29878e-08 -8.65711e-09 1.0383e-20
1.43909e-08 1.01469e-08 4.46319e-20
-3.66909e-09 1.63776e-08 1.44268e-20
-1.50526e-09 -1.84799e-08 1.25009e-21
-1.50088e-08 7.64235e-09 1.46525e-20
-1.67978e-08 -8.57535e-09 -3.01572e-20
4.20909e-08 -1.58866e-08 -3.96993e-21
-1.53542e-08 -4.25385e-09 1.46903e-20
-1.53206e-08 4.09783e-09 2.40134e-20
-3.74976e-09 1.52384e-08 1.61153e-20
-4.07439e-09 -1.55727e-08 -3.15789e-20
1.01304e-08 -1.13252e-08 6.41562e-21
9.7379e-09 1.08368e-08 1.72221e-20
5.89031e-09 1.62721e-07 -2.04413e-20
3.15194e-08 -2.60346e-08 3.27108e-20
7.3571e-09 -1.38825e-08 -9.07561e-21
-1.22674e-07 4.52964e-09 1.14607e-20
1.16324e-08 -1.10012e-08 -2.84757e-21
1.08611e-08 1.11717e-08 -5.72095e-20
1.66722e-08 -3.63634e-10 -4.56913e-20
5.63332e-08 1.59476e-07 1.02298e-20
-8.438e-09 -1.37942e-08 9.85659e-22
1.82531e-08 -4.17489e-08 3.9324e-20
-1.36941e-07 -7.57684e-08 -2.68505e-20
-3.00305e-08 -1.94913e-08 -2.14396e-20
-1.37448e-07 8.15126e-08 -2.55131e-20
1.21719e-08 -1.24453e-08 -1.33618e-20
-5.83813e-09 1.29719e-08 -8.95534e-21
-3.21412e-09 -1.57563e-07 9.98059e-21
-5.15943e-08 -1.56073e-07 -4.20237e-20
2.36641e-07 2.25233e-07 -3.48685e-20
2.53114e-07 -1.43768e-08 9.00612e-21
-1.78911e-08 3.91996e-09 -2.42615e-21
-1.69298e-07 -2.99166e-07 4.72317e-20
4.03108e-08 6.91256e-08 -2.32945e-20
-1.62202e-07 1.91043e-08 3.41835e-20
1.16403e-07 3.25489e-08 3.21607e-20
-1.58921e-08 -6.4291e-11 2.35562e-20
3.66973e-10 -1.65036e-08 -2.21244e-20
-1.42805e-09 -1.12542e-08 5.42634e-20
-1.40626e-08 -8.39365e-09 2.50162e-21
-3.51022e-07 -1.33016e-08 -2.97022e-20
1.10267e-07 -1.24717e-07 1.64495e-20
7.48585e-09 1.45291e-08 -7.64902e-21
3.8356e-09 -6.95578e-08 -3.93183e-21
-6.57795e-08 1.55771e-07 -1.25175e-21
1.36788e-09 1.74637e-08 1.33399e-20
1.17623e-07 -8.4178e-08 -1.31094e-20
-1.02907e-08 -4.51185e-09 -6.12491e-20
-1.00062e-07 -1.30045e-07 -5.13839e-21
1.37682e-08 6.97777e-09 -3.94811e-20
3.25541e-08 3.15216e-08 2.91727e-20
-2.31971e-08 -3.6134e-08 -2.58038e-21
1.42191e-08 -4.63387e-09 3.59444e-20
4.82701e-08 -3.3707e-08 -2.49728e-20
-2.8585e-09 2.68798e-08 3.86305e-20
3.9738e-08 -6.69825e-08 -1.1856e-20
3.63404e-07 1.83113e-08 -3.21944e-20
-3.07884e-07 8.14577e-08 -3.82218e-20
2.57018e-08 1.79066e-08 -4.94258e-20
-3.81042e-08 -9.17219e-08 3.89868e-21
-5.78789e-08 -3.7768e-08 2.08626e-20
1.88596e-07 -1.89687e-09 -1.77525e-20
1.60485e-09 -3.59078e-08 2.51686e-20
-4.7081e-08 -1.65916e-08 1.027e-20
6.42727e-08 -1.53574e-07 -2.55894e-21
5.12079e-09 6.17763e-08 9.28232e-21
5.27492e-08 1.63576e-07 -4.09113e-20
6.32383e-08 -3.33271e-08 2.60404e-20
-1.15474e-07 1.22917e-07 3.88034e-21
1.06199e-07 1.31233e-07 2.67748e-21
-6.64558e-09 2.9633e-09 7.08532e-21
1.1159e-09 2.84399e-08 2.41644e-20
2.10718e-09 -1.28881e-08 -3.31715e-20
-1.02208e-08 -8.43428e-09 -9.35059e-21
-3.52161e-08 2.79489e-08 -2.34966e-20
-1.61791e-07 -3.83248e-08 6.39563e-21
5.56517e-10 1.81323e-08 6.86013e-20
-4.22671e-08 1.25829e-08 -2.89769e-20
1.14593e-07 -1.66035e-08 -4.92268e-20
-4.90292e-08 -1.58735e-07 -2.57003e-20
-9.65581e-08 1.53771e-07 -3.96223e-20
-2.71936e-08 1.2572e-08 4.65635e-20
-1.29404e-07 -9.15565e-08 -2.57239e-20
2.92359e-08 -1.3689e-08 1.26922e-21
-1.75459e-07 -8.59028e-09 2.54704e-21
8.59515e-08 -3.03309e-07 -1.96814e-20
1.17344e-07 -1.23238e-07 -3.77444e-21
1.79549e-07 3.18346e-07 2.22815e-20
-1.69729e-09 3.83818e-08 -1.46707e-20
1.53971e-08 -1.59843e-07 -6.39108e-21
-6.20613e-09 3.76178e-09 -1.19905e-20
-8.31946e-08 -1.55232e-07 1.25521e-21
2.78468e-08 -2.38704e-08 5.39565e-20
-1.60517e-08 1.6169e-07 5.37795e-20
3.89158e-08 -1.13907e-08 -1.98591e-20
8.86659e-08 1.5802e-07 -1.41158e-20
8.87518e-08 -2.06637e-09 -4.82513e-20
1.62206e-07 -4.78616e-07 -1.97215e-20
-3.4334e-08 -6.39019e-08 -1.4302e-21
-1.43239e-07 6.2413e-08 -1.6582e-20
-2.003e-08 9.81254e-09 5.31006e-21
1.35982e-07 9.10642e-08 -3.76582e-21
9.68771e-08 -5.34838e-08 -6.50564e-21
5.11712e-08 2.24583e-08 -1.98383e-20
-1.0454e-08 8.85746e-09 -4.58172e-20
9.72134e-08 -1.50188e-07 2.02763e-20
-1.03635e-07 -1.29332e-07 -1.79985e-20
1.33698e-07 5.27299e-08 3.3273e-20
3.39656e-08 -2.09752e-08 3.79783e-21
6.25155e-08 -1.55373e-07 -2.94921e-20
7.34045e-08 -1.38951e-08 -3.55138e-20
-7.12426e-08 -2.84119e-08 2.73805e-20
-3.08906e-09 -2.88592e-08 1.21077e-20
-1.63409e-07 2.26847e-08 -3.31429e-20
1.71682e-08 1.43328e-07 -2.81487e-20
1.11745e-07 2.60642e-08 5.56394e-20
-1.26966e-07 -5.68208e-08 -4.24678e-20
-6.24524e-08 1.60109e-07 5.17466e-21
-1.42784e-08 -1.39634e-07 -2.84341e-20
3.6851e-08 1.79859e-08 -7.42962e-20
-2.39694e-08 6.74786e-08 -2.20314e-20
-1.14172e-07 8.18904e-08 -2.55797e-20
1.4666e-07 7.39803e-08 2.41833e-20
-6.67034e-08 -2.0932e-08 -1.8384e-20
-1.6197e-08 -6.8678e-08 3.68472e-20
1.12066e-07 1.30282e-07 -3.45141e-20
-2.6273e-08 -1.19223e-08 -5.09407e-20
3.68904e-07 -2.6523e-07 -5.55346e-20
7.79831e-08 -5.45698e-08 -9.37464e-21
6.3767e-08 3.12497e-07 -4.24794e-20
8.22441e-08 -7.90878e-08 1.14686e-20
-1.7816e-07 6.78487e-07 3.94502e-20
-1.7919e-07 -6.7188e-07 4.71264e-21
4.40261e-07 5.78678e-07 2.92113e-20
4.34805e-07 -5.78521e-07 -1.97259e-20
7.20663e-07 -2.85778e-10 -6.94522e-21
-6.21254e-07 2.49968e-07 -2.55451e-20
-6.10956e-07 -2.52683e-07 2.09255e-20
2.96217e-08 1.60461e-08 -1.85521e-20
1.89818e-08 9.2258e-09 -1.87925e-20
5.52613e-08 7.4304e-09 9.18287e-21
9.75869e-08 5.2155e-08 8.88137e-21
2.89523e-08 1.15333e-07 -2.6908e-20
-1.04641e-07 -8.99095e-08 -1.9472e-20
5.26414e-08 -4.85557e-08 3.76063e-21
1.12437e-07 9.02471e-08 1.24916e-21
-2.60162e-08 1.41961e-07 2.82788e-20
1.8407e-08 -9.05025e-09 2.40612e-20
2.64685e-08 -1.36227e-07 -3.75326e-20
3.45056e-08 2.32939e-08 -4.89492e-20
2.02896e-07 7.10705e-08 6.34907e-21
4.50122e-09 1.45595e-08 4.49567e-20
7.83505e-08 2.56349e-08 -3.88087e-21
-9.69908e-08 5.36465e-08 -3.99752e-20
-1.32827e-07 4.59405e-08 -5.90792e-20
2.62383e-08 -1.7976e-08 4.2572e-20
-8.47612e-08 -3.92149e-08 1.04429e-20
-9.31491e-08 -5.51746e-08 5.1518e-21
-8.17228e-09 -9.34857e-08 2.60302e-20
3.66651e-10 -1.07396e-07 -1.29562e-20
-1.18277e-07 -5.11126e-09 7.79086e-21
1.75611e-07 -2.7268e-08 6.4369e-21
9.4681e-08 5.83524e-08 -1.16256e-20
-7.83286e-08 5.34379e-08 -1.03625e-20
-3.5284e-08 1.72486e-08 -5.2569e-21
8.83819e-08 -7.92002e-08 1.92917e-20
-6.64189e-08 1.03411e-07 1.67798e-20
-8.1808e-08 -8.61743e-08 -5.21262e-21
-7.75626e-09 1.12615e-07 2.08072e-20
-1.68596e-08 9.50209e-08 3.52353e-20
2.77314e-09 -6.89558e-08 2.109e-20
3.56034e-08 -1.15079e-07 -1.577e-21
-5.8147e-08 -3.73155e-08 1.17199e-20
8.0604e-08 -2.29798e-08 3.11436e-20
1.91402e-10 1.12475e-07 -1.39238e-21
-2.44215e-09 7.18261e-08 -3.12747e-20
-1.80705e-08 8.08202e-08 1.44017e-20
1.32338e-07 -3.25683e-08 -8.91778e-21
-2.77357e-08 2.6523e-08 -7.83224e-21
2.99946e-08 1.12562e-07 -1.31362e-21
-1.8076e-08 1.14065e-08 4.03149e-20
6.68925e-08 3.10201e-07 -7.48244e-21
-3.27212e-08 1.76824e-08 -4.75088e-20
3.47189e-08 -1.80768e-08 2.55372e-21
1.00039e-08 9.56268e-08 2.35346e-20
-1.1218e-07 2.66346e-08 -2.98661e-20
-3.46809e-09 -4.85803e-08 2.62124e-20
4.65402e-09 -4.42657e-07 -3.14334e-20
1.34285e-08 8.10684e-08 -2.18745e-20
-8.37963e-08 7.97303e-08 -6.41064e-21
1.30287e-07 4.8459e-07 2.58411e-20
6.21164e-09 4.09991e-09 -1.09155e-20
5.36614e-09 -3.90964e-09 3.83727e-20
6.3065e-08 -4.91931e-08 2.31377e-20
-8.95726e-08 8.01988e-08 -7.72552e-21
-1.07492e-07 -3.17389e-08 6.55077e-21
-1.1048e-07 -3.62814e-08 -2.83155e-20
-2.26254e-09 1.40167e-09 1.51411e-20
-1.57801e-09 -7.96016e-10 -4.12799e-20
5.15792e-08 1.04698e-08 -5.748e-20
1.63816e-08 7.52652e-08 3.53983e-20
-1.89442e-09 7.48378e-08 9.2902e-21
-3.70743e-07 -2.69342e-07 3.97875e-20
6.57298e-08 -1.03393e-07 -1.5591e-20
3.3213e-08 1.19275e-08 -4.49287e-20
-1.21932e-07 -1.31088e-08 6.30359e-21
-7.7096e-08 1.0186e-07 -6.49608e-21
-9.95233e-08 4.67936e-08 -3.47836e-20
3.64019e-07 2.61523e-07 -3.51139e-20
3.59168e-08 2.36334e-08 -6.84126e-20
-3.53932e-08 1.15495e-07 -2.50495e-21
-6.97179e-08 -5.97297e-08 1.1607e-20
1.73538e-08 -9.09393e-08 -3.1063e-20
-5.64515e-08 -1.07385e-07 -5.2805e-20
-9.04353e-08 -6.19873e-08 2.5141e-21
6.19893e-08 -1.09939e-07 -7.88096e-21
7.43492e-08 -1.02196e-07 3.85488e-20
-2.35967e-08 -4.61856e-07 1.09328e-20
1.89839e-07 -3.03661e-07 -1.75116e-20
9.05834e-09 -1.1043e-07 8.87915e-21
7.78469e-08 5.92754e-08 -3.00182e-20
-6.99436e-08 -8.49182e-08 8.94098e-21
-6.06837e-08 1.1312e-07 2.19518e-20
-3.7289e-08 1.10855e-07 2.72688e-20
8.11859e-08 8.40908e-08 -2.59404e-20
3.98151e-08 -1.03685e-07 -6.67244e-21
-1.03052e-07 -2.93814e-07 8.63522e-21
2.31723e-09 3.55973e-08 2.50334e-20
8.2214e-08 8.4607e-08 -1.2898e-21
-4.42833e-08 -2.17834e-08 -1.85955e-20
-3.67874e-08 2.0061e-08 -1.95791e-20
3.29925e-07 -1.44538e-07 -7.16402e-20
4.0922e-08 -6.76309e-08 4.98604e-21
-3.88382e-08 -6.64497e-08 1.03784e-20
1.46791e-08 -1.28011e-09 1.7295e-20
1.22043e-09 -5.54531e-09 6.64146e-21
-4.12277e-09 -4.02326e-09 5.3349e-21
1.80944e-08 1.18946e-08 -4.91534e-20
-5.69295e-08 -1.07458e-07 -1.91819e-20
8.75535e-08 3.51029e-08 5.15152e-21
-2.13365e-07 -2.34565e-07 4.20178e-20
7.61451e-10 6.82974e-09 6.79503e-20
8.09513e-10 1.3077e-09 6.59435e-20
1.61256e-09 -1.74718e-10 -1.38259e-20
2.0478e-07 -4.04444e-07 -3.9575e-20
-8.48353e-09 9.9756e-09 8.35423e-21
-1.93062e-09 1.20823e-08 9.88402e-20
-8.80382e-08 3.12829e-08 -1.80012e-20
-3.05493e-09 3.57012e-08 1.83561e-20
-1.9354e-08 5.73394e-08 2.60165e-20
3.98566e-08 1.68358e-09 -4.8501e-20
9.01339e-09 3.44361e-08 -1.96397e-20
-2.35502e-09 4.76217e-08 1.17957e-20
6.83162e-08 3.71616e-08 1.29486e-20
4.89389e-09 4.40596e-07 3.5063e-20
-6.35673e-08 6.01666e-08 -3.64191e-20
4.76306e-08 -3.2052e-08 1.03421e-20
2.74699e-08 -2.51322e-08 5.00713e-20
-4.5186e-07 -6.20383e-08 -3.65143e-20
-1.28129e-08 5.09844e-09 8.32626e-21
-3.28969e-07 -3.89137e-07 2.20149e-20
5.92993e-09 1.59561e-08 2.42042e-21
5.76006e-08 1.11765e-08 -3.65765e-20
1.71661e-07 -2.22721e-08 1.27924e-20
-3.9214e-08 -6.44349e-08 3.85643e-21
7.49644e-08 2.14823e-08 1.18551e-20
3.64001e-10 -1.90412e-08 1.48089e-20
-4.2259e-08 4.89227e-08 -4.16265e-20
-1.61491e-08 -1.02457e-08 3.05619e-20
-3.81295e-08 7.74308e-08 1.03669e-20
6.90812e-09 4.88274e-08 6.54957e-21
1.11735e-08 8.1787e-09 -9.50879e-21
1.10856e-08 -7.85581e-09 5.48356e-21
-3.06274e-07 -8.34311e-08 -3.07426e-20
3.36829e-08 1.25433e-08 -1.83144e-20
-4.06042e-08 7.86388e-07 4.21982e-20
-2.80479e-09 -8.07914e-07 -4.75686e-21
3.97657e-07 6.80804e-07 5.88919e-20
-4.11615e-08 3.26779e-08 -1.83998e-20
-2.10763e-07 4.2409e-07 6.18534e-21
3.99952e-07 -6.57123e-07 -3.12014e-20
-6.60549e-08 -1.06912e-07 2.19276e-20
6.0738e-07 5.32154e-07 1.69419e-20
7.09577e-09 -1.25928e-08 -2.1333e-20
-7.40008e-09 -1.27589e-08 3.76092e-20
6.36662e-07 -5.20297e-07 -2.18246e-20
-3.89644e-08 7.66134e-08 4.51375e-20
-3.99887e-07 -2.54677e-07 -1.80621e-20
-3.37266e-07 -7.02888e-07 3.71088e-21
-1.88881e-07 -4.34512e-07 3.53224e-20
-3.46717e-07 7.14589e-07 8.61538e-21
-8.19287e-08 4.84234e-07 4.90702e-21
-5.7867e-10 1.68752e-08 5.10804e-20
-2.10339e-07 2.70797e-07 -5.90177e-21
-2.01436e-07 -4.12213e-07 8.07113e-20
7.83138e-07 1.3669e-07 -1.79212e-20
-6.11179e-08 5.19771e-08 1.45007e-20
-1.41829e-09 3.42963e-08 -2.58814e-21
-3.78804e-07 2.7423e-07 -3.15379e-20
-6.77872e-08 3.6176e-08 3.40162e-20
7.75449e-07 -1.21591e-07 -3.25711e-20
-5.17233e-08 3.47344e-08 -3.27078e-20
3.77026e-08 -7.79805e-08 2.84123e-20
-6.03442e-07 -4.58352e-07 -2.36602e-21
-2.03475e-07 4.35971e-07 -2.29979e-21
-6.18072e-07 4.54991e-07 -5.15395e-20
1.80593e-07 4.02934e-07 1.9253e-20
-6.63758e-08 5.27708e-08 -4.77895e-20
-1.83746e-08 1.03973e-08 -5.1266e-21
-9.94384e-10 -1.68912e-09 6.64723e-20
3.38092e-10 -1.40614e-09 -1.49276e-20
5.05598e-09 5.29577e-08 1.70634e-20
-1.46819e-09 1.6898e-09 3.82821e-20
8.60981e-10 2.01907e-09 -4.85946e-20
1.39703e-09 -6.39624e-10 -1.02855e-21
-7.8519e-10 6.25413e-09 4.95285e-20
-1.38941e-07 3.03132e-07 -2.58711e-20
-1.04203e-08 7.44782e-09 -3.95751e-21
1.793e-08 -1.13292e-08 3.5872e-20
1.75818e-08 -1.01954e-08 -2.73884e-21
5.07681e-08 1.97945e-08 -1.29414e-20
-4.61255e-10 -5.35196e-09 5.03927e-20
-4.7702e-09 -2.43689e-09 -3.71724e-20
1.75688e-08 1.0252e-08 -4.84846e-20
4.49114e-07 -8.6585e-08 -3.26233e-20
-5.81065e-08 -7.40625e-08 5.29497e-21
-3.93186e-07 2.74153e-07 -3.53262e-21
-3.51963e-07 4.01431e-07 -1.45804e-20
4.74429e-07 -1.71341e-07 -7.8565e-20
-2.22357e-09 -6.59811e-09 -2.99269e-20
-2.4482e-09 6.77888e-09 1.51759e-20
-7.42423e-09 1.32064e-09 3.28688e-20
-4.91178e-09 4.937e-09 -2.14778e-20
-6.72636e-09 -1.47541e-09 -3.31381e-20
1.18654e-09 1.6266e-09 8.37724e-20
7.21469e-09 -1.81625e-09 4.19756e-20
3.00587e-09 -2.154e-09 6.56916e-20
-2.20753e-09 -1.50957e-09 1.34696e-20
4.64857e-09 -4.72215e-09 2.56455e-20
4.67476e-09 4.86346e-09 -3.94149e-20
-2.22113e-09 1.3174e-09 -9.33745e-20
2.29479e-09 -5.33177e-10 -5.12282e-21
3.84716e-09 2.15511e-09 -6.74213e-21
8.41665e-09 3.04891e-09 -1.20808e-20
SCALARS rr_necrosis float
LOOKUP_TABLE default
0
0
0
0
0
0
0
0
0
0
0
0
0
0
0
0
0
0
0
0
0
0
0
0
0
0
0
0
0
0
0
0
0
0
0
0
0
0
0
0
0
0
0
0
0
0
0
0
0
0
0
0
0
0
0
0
0
0
0
0
0
0
0
0
0
0
0
0
0
0
0
0
0
0
0
0
0
0
0
0
0
0
0
0
0
0
0
0
0
0
0
0
0
0
0
0
0
0
0
0
0
0
0
0
0
0
0
0
0
0
0
0
0
0
0
0
0
0
0
0
0
0
0
0
0
0
0
0
0
0
0
0
0
0
0
0
0
0
0
0
0
0
0
0
0
0
0
0
0
0
0
0
0
0
0
0
0
0
0
0
0
0
0
0
0
0
0
0
0
0
0
0
0
0
0
0
0
0
0
0
0
0
0
0
0
0
0
0
0
0
0
0
0
0
0
0
0
0
0
0
0
0
0
0
0
0
0
0
0
0
0
0
0
0
0
0
0
0
0
0
0
0
0
0
0
0
0
0
0
0
0
0
0
0
0
0
0
0
0
0
0
0
0
0
0
0
0
0
0
0
0
0
0
0
0
0
0
0
0
0
0
0
0
0
0
0
0
0
0
0
0
0
0
0
0
0
0
0
0
0
0
0
0
0
0
0
0
0
0
0
0
0
0
0
0
0
0
0
0
0
0
0
0
0
0
0
0
0
0
0
0
0
0
0
0
0
0
0
0
0
0
0
0
0
0
0
0
0
0
0
0
0
0
0
0
0
0
0
0
0
0
0
0
0
0
0
0
0
0
0
0
0
0
0
0
0
0
0
0
0
0
0
0
0
0
0
0
0
0
0
0
0
0
0
0
0
0
0
0
0
0
0
0
0
0
0
0
0
0
0
0
0
0
0
0
0
0
0
0
0
0
0
0
0
0
0
0
0
0
0
0
0
0
0
0
0
0
0
0
0
0
0
0
0
0
0
0
0
0
0
0
0
0
0
0
0
0
0
0
0
0
0
0
0
0
0
0
0
0
0
0
0
0
0
0
0
0
0
0
0
0
0
0
0
0
0
0
0
0
0
0
0
0
0
0
0
0
0
0
0
0
0
0
0
0
0
0
0
0
0
0
0
0
0
0
0
0
0
0
0
0
0
0
0
0
0
0
0
0
0
0
0
0
0
0
0
0
0
0
0
0
0
0
0
0
0
0
0
0
0
0
0
0
0
0
0
0
0
0
0
0
0
0
0
0
0
0
0
0
0
0
0
0
0
0
0
0
0
0
0
0
0
0
SCALARS rr_protein float
LOOKUP_TABLE default
1
1
1
1
1
1
1
1
1
1
1
1
1
1
1
1
1
1
1
1
1
1
1
1
1
1
1
1
1
1
1
1
1
1
1
1
1
1
1
1
1
1
1
1
1
1
1
1
1
1
1
1
1
1
1
1
1
1
1
1
1
1
1
1
1
1
1
1
1
1
1
1
1
1
1
1
1
1
1
1
1
1
1
1
1
1
1
1
1
1
1
1
1
1
1
1
1
1
1
1
1
1
1
1
1
1
1
1
1
1
1
1
1
1
1
1
1
1
1
1
1
1
1
1
1
1
1
1
1
1
1
1
1
1
1
1
1
1
1
1
1
1
1
1
1
1
1
1
1
1
1
1
1
1
1
1
1
1
1
1
1
1
1
1
1
1
1
1
1
1
1
1
1
1
1
1
1
1
1
1
1
1
1
1
1
1
1
1
1
1
1
1
1
1
1
1
1
1
1
1
1
1
1
1
1
1
1
1
1
1
1
1
1
1
1
1
1
1
1
1
1
1
1
1
1
1
1
1
1
1
1
1
1
1
1
1
1
1
1
1
1
1
1
1
1
1
1
1
1
1
1
1
1
1
1
1
1
1
1
1
1
1
1
1
1
1
1
1
1
1
1
1
1
1
1
1
1
1
1
1
1
1
1
1
1
1
1
1
1
1
1
1
1
1
1
1
1
1
1
1
1
1
1
1
1
1
1
1
1
1
1
1
1
1
1
1
1
1
1
1
1
1
1
1
1
1
1
1
1
1
1
1
1
1
1
1
1
1
1
1
1
1
1
1
1
1
1
1
1
1
1
1
1
1
1
1
1
1
1
1
1
1
1
1
1
1
1
1
1
1
1
1
1
1
1
1
1
1
1
1
1
1
1
1
1
1
1
1
1
1
1
1
1
1
1
1
1
1
1
1
1
1
1
1
1
1
1
1
1
1
1
1
1
1
1
1
1
1
1
1
1
1
1
1
1
1
1
1
1
1
1
1
1
1
1
1
1
1
1
1
1
1
1
1
1
1
1
1
1
1
1
1
1
1
1
1
1
1
1
1
1
1
1
1
1
1
1
1
1
1
1
1
1
1
1
1
1
1
1
1
1
1
1
1
1
1
1
1
1
1
1
1
1
1
1
1
1
1
1
1
1
1
1
1
1
1
1
1
1
1
1
1
1
1
1
1
1
1
1
1
1
1
1
1
1
1
1
1
1
1
1
1
1
1
1
1
1
1
1
1
1
1
1
1
1
1
1
1
1
1
1
1
1
1
1
1
1
1
1
1
1
1
1
SCALARS rr_(S_ext) float
LOOKUP_TABLE default
0.797327
0.797873
0.797828
0.797862
0.798029
0.797827
0.797325
0.797862
0.797783
0.797874
0.797338
0.797862
0.79785
0.797882
0.797969
0.797837
0.797901
0.797852
0.797754
0.797812
0.797808
0.798231
0.797805
0.797814
0.797812
0.797861
0.797429
0.797834
0.797601
0.798109
0.797849
0.797602
0.797424
0.798074
0.798094
0.798073
0.798114
0.798087
0.797848
0.797425
0.797599
0.798116
0.798115
0.797849
0.797469
0.79761
0.797767
0.797792
0.797829
0.797564
0.797586
0.79766
0.798018
0.797663
0.798013
0.797496
0.798095
0.797663
0.798095
0.797815
0.797897
0.797951
0.797472
0.797949
0.797951
0.797905
0.797899
0.797862
0.797809
0.797875
0.798017
0.798016
0.7976
0.797924
0.79783
0.797396
0.797984
0.797905
0.797861
0.79767
0.797558
0.798048
0.797924
0.79754
0.797621
0.797481
0.797834
0.797916
0.79747
0.798203
0.797661
0.798203
0.797986
0.797899
0.797668
0.797579
0.797561
0.797872
0.797983
0.797845
0.797726
0.797636
0.797538
0.797856
0.797868
0.797868
0.797932
0.797841
0.797538
0.797879
0.797815
0.79749
0.797517
0.797853
0.797866
0.797666
0.798097
0.797559
0.798096
0.797667
0.797742
0.797962
0.797872
0.797913
0.797884
0.797974
0.798075
0.797872
0.797561
0.797667
0.798015
0.797868
0.79792
0.79787
0.797637
0.798095
0.797531
0.797855
0.797924
0.798094
0.797642
0.79788
0.797753
0.797874
0.797557
0.797862
0.79787
0.797831
0.797827
0.797707
0.79779
0.797872
0.797599
0.797851
0.797873
0.797868
0.797892
0.797649
0.797651
0.797847
0.797793
0.797604
0.797487
0.797584
0.797647
0.797869
0.797648
0.797648
0.797601
0.797649
0.797987
0.797662
0.797584
0.797897
0.797664
0.79793
0.797987
0.797862
0.798021
0.797872
0.797603
0.797871
0.797871
0.797643
0.797916
0.797581
0.797913
0.797935
0.797991
0.797872
0.797917
0.797567
0.797663
0.797601
0.797869
0.797849
0.797852
0.79792
0.797871
0.797903
0.797872
0.797762
0.797675
0.797919
0.797604
0.797923
0.797906
0.797631
0.797959
0.797873
0.797966
0.797888
0.797866
0.797925
0.797708
0.797893
0.797681
0.797935
0.797882
0.797882
0.797874
0.797878
0.797878
0.797878
0.797879
0.797964
0.797963
0.797964
0.797965
0.798016
0.798015
0.797704
0.797879
0.797853
0.79779
0.79797
0.797972
0.797855
0.797676
0.797851
0.797872
0.797712
0.797959
0.797709
0.797927
0.797848
0.797712
0.797683
0.797557
0.797555
0.797924
0.797549
0.797844
0.797681
0.797758
0.79785
0.797881
0.798121
0.797879
0.797548
0.79768
0.797852
0.797862
0.797673
0.79788
0.797756
0.79812
0.797682
0.797884
0.797911
0.797852
0.797968
0.797915
0.798019
0.797848
0.797502
0.79748
0.798004
0.797808
0.797862
0.797711
0.79796
0.797897
0.797681
0.7979
0.797728
0.797873
0.797729
0.797677
0.798167
0.797992
0.79797
0.797968
0.797878
0.797733
0.798067
0.797908
0.797794
0.797735
0.797717
0.798002
0.797711
0.797988
0.797724
0.797471
0.797731
0.797554
0.797935
0.797711
0.798166
0.797723
0.797922
0.797704
0.797917
0.797722
0.797835
0.797467
0.797821
0.79771
0.797998
0.797706
0.797794
0.797919
0.797874
0.797722
0.797732
0.797754
0.797936
0.797731
0.797862
0.797835
0.798019
0.797733
0.797752
0.797803
0.797758
0.797726
0.797759
0.797954
0.79786
0.797754
0.797708
0.797877
0.797878
0.797729
0.798018
0.797318
0.797835
0.797558
0.797806
0.796989
0.79699
0.796993
0.796991
0.796991
0.796992
0.796995
0.797938
0.798053
0.797849
0.797791
0.797758
0.797758
0.797874
0.797754
0.797751
0.798055
0.797758
0.797964
0.797661
0.797954
0.797825
0.797791
0.797756
0.798006
0.797835
0.797795
0.797835
0.797795
0.79775
0.797669
0.79779
0.79783
0.797965
0.797764
0.797745
0.797761
0.797786
0.797828
0.797874
0.797761
0.797873
0.797821
0.797788
0.797863
0.797822
0.797755
0.797915
0.7978
0.798047
0.797472
0.797938
0.797954
0.797828
0.797803
0.797903
0.797327
0.797826
0.7978
0.797469
0.798166
0.798168
0.797833
0.797758
0.797807
0.797764
0.79826
0.798259
0.79786
0.797864
0.797861
0.79733
0.797748
0.797924
0.79779
0.797785
0.797788
0.797314
0.797914
0.797754
0.797832
0.797833
0.797784
0.797794
0.797784
0.797789
0.797429
0.797555
0.797793
0.797834
0.797801
0.797782
0.797797
0.797805
0.797801
0.797473
0.797972
0.79776
0.797901
0.797917
0.79747
0.797828
0.797822
0.798019
0.798156
0.798155
0.797992
0.797747
0.797831
0.797464
0.798144
0.798242
0.798241
0.797307
0.798086
0.798108
0.797825
0.797984
0.797848
0.797876
0.797916
0.797934
0.797863
0.797325
0.797839
0.797898
0.797923
0.797393
0.79809
0.797463
0.797919
0.797882
0.797718
0.797847
0.797861
0.79802
0.797866
0.798019
0.797832
0.797925
0.798101
0.798106
0.797468
0.797884
0.797316
0.79733
0.7973
0.797914
0.797323
0.797286
0.797782
0.797306
0.798049
0.798049
0.797318
0.7978
0.797433
0.797315
0.797419
0.797313
0.797419
0.79809
0.797445
0.797324
0.797315
0.797858
0.797945
0.797411
0.797859
0.797288
0.797876
0.797805
0.797308
0.797401
0.797298
0.797307
0.797821
0.798058
0.798229
0.798221
0.797885
0.798227
0.798227
0.798224
0.798178
0.797456
0.798096
0.797997
0.79806
0.797879
0.798191
0.79819
0.798072
0.797299
0.7978
0.797315
0.797455
0.797453
0.798136
0.798135
0.798131
0.798133
0.798136
0.798221
0.798136
0.798193
0.798235
0.798141
0.798141
0.798237
0.798222
0.798194
0.79813
SCALARS rr_(P_ext) float
LOOKUP_TABLE default
0.0126809
0.0126139
0.0126198
0.0126151
0.0125971
0.0126199
0.0126811
0.0126159
0.0126254
0.0126142
0.0126765
0.0126159
0.0126173
0.0126133
0.0126033
0.0126189
0.0126109
0.0126167
0.0126284
0.0126215
0.0126224
0.0125742
0.0126223
0.0126214
0.0126216
0.0126156
0.0126672
0.0126191
0.0126467
0.0125877
0.0126175
0.0126465
0.0126681
0.0125917
0.0125897
0.0125918
0.012587
0.0125905
0.0126176
0.012668
0.0126468
0.0125867
0.0125867
0.0126175
0.0126617
0.0126457
0.012627
0.0126243
0.0126197
0.0126508
0.0126484
0.0126399
0.012598
0.0126397
0.0125986
0.0126597
0.0125895
0.0126397
0.0125896
0.0126212
0.0126112
0.0126057
0.0126629
0.012606
0.0126056
0.012611
0.012611
0.0126155
0.0126219
0.0126137
0.0125982
0.0125982
0.0126469
0.0126089
0.0126196
0.012671
0.0126021
0.012611
0.0126156
0.0126383
0.0126522
0.012595
0.0126084
0.0126541
0.0126447
0.012661
0.0126191
0.0126099
0.0126616
0.0125775
0.0126398
0.0125776
0.0126017
0.0126117
0.0126392
0.0126491
0.0126521
0.0126143
0.0126022
0.0126179
0.0126323
0.0126432
0.0126542
0.0126161
0.0126149
0.0126147
0.0126076
0.0126184
0.0126543
0.0126129
0.0126211
0.0126596
0.0126565
0.0126164
0.0126151
0.0126395
0.0125896
0.0126524
0.0125898
0.0126392
0.0126299
0.012604
0.012614
0.0126098
0.0126125
0.0126027
0.0125919
0.0126143
0.0126521
0.0126392
0.0125982
0.0126144
0.0126087
0.0126142
0.0126431
0.0125895
0.0126558
0.0126169
0.0126083
0.0125896
0.0126423
0.012614
0.0126289
0.0126142
0.0126527
0.0126153
0.012615
0.0126197
0.0126199
0.0126342
0.0126245
0.012614
0.0126467
0.0126172
0.0126142
0.0126143
0.0126124
0.0126417
0.0126414
0.0126173
0.0126242
0.0126462
0.0126601
0.0126484
0.0126417
0.0126147
0.0126417
0.0126418
0.0126467
0.0126416
0.0126015
0.0126397
0.0126485
0.0126117
0.0126395
0.0126078
0.0126016
0.012616
0.0125978
0.0126147
0.0126466
0.0126144
0.0126145
0.0126422
0.0126098
0.012649
0.0126098
0.0126075
0.0126013
0.0126143
0.0126097
0.0126514
0.0126396
0.0126466
0.0126142
0.0126169
0.0126166
0.0126088
0.0126141
0.0126112
0.0126139
0.0126276
0.0126379
0.0126088
0.0126465
0.0126084
0.012611
0.0126435
0.0126048
0.0126138
0.0126042
0.012613
0.0126151
0.0126083
0.012634
0.0126124
0.0126372
0.0126075
0.0126126
0.0126126
0.0126134
0.0126131
0.012613
0.0126131
0.0126137
0.0126037
0.0126039
0.0126037
0.0126037
0.0125985
0.0125984
0.0126345
0.0126135
0.0126157
0.0126246
0.0126033
0.012603
0.0126155
0.0126377
0.0126159
0.0126143
0.0126337
0.0126047
0.0126341
0.0126081
0.0126162
0.0126336
0.0126369
0.0126524
0.0126519
0.0126083
0.0126537
0.012618
0.0126373
0.012628
0.012616
0.0126127
0.0125864
0.0126129
0.0126541
0.0126372
0.0126157
0.0126159
0.012638
0.0126128
0.0126286
0.0125864
0.0126371
0.0126125
0.0126101
0.0126166
0.0126034
0.0126101
0.0125981
0.0126174
0.0126586
0.012661
0.0125999
0.0126222
0.012616
0.012634
0.0126046
0.0126118
0.0126372
0.0126116
0.012632
0.0126147
0.012632
0.0126375
0.0125813
0.0126009
0.0126031
0.0126032
0.0126138
0.0126315
0.0125924
0.0126104
0.012624
0.0126313
0.0126334
0.0126
0.0126338
0.0126017
0.0126327
0.0126615
0.0126316
0.012653
0.0126073
0.0126338
0.0125813
0.0126326
0.0126089
0.0126345
0.0126095
0.0126328
0.0126191
0.012664
0.0126204
0.0126339
0.0126002
0.0126343
0.012624
0.0126095
0.0126137
0.0126327
0.0126316
0.0126287
0.0126074
0.0126317
0.012616
0.012619
0.0125982
0.0126316
0.0126291
0.012623
0.0126284
0.0126323
0.0126282
0.0126054
0.0126161
0.0126288
0.0126341
0.0126142
0.0126141
0.0126319
0.0125983
0.0126789
0.0126193
0.0126523
0.0126227
0.0127144
0.0127143
0.0127139
0.012714
0.0127138
0.0127145
0.0127142
0.0126071
0.0125942
0.0126172
0.0126243
0.012628
0.0126284
0.0126147
0.0126288
0.0126291
0.0125941
0.0126284
0.0126044
0.0126398
0.0126048
0.0126201
0.0126244
0.0126286
0.0125998
0.0126193
0.0126239
0.0126192
0.0126239
0.0126289
0.0126386
0.0126244
0.0126199
0.0126042
0.0126274
0.0126295
0.0126277
0.0126248
0.0126201
0.0126146
0.0126277
0.0126147
0.0126206
0.0126246
0.0126158
0.0126205
0.0126286
0.0126095
0.0126233
0.0125948
0.0126615
0.0126071
0.0126054
0.01262
0.0126231
0.0126111
0.0126781
0.01262
0.0126234
0.0126636
0.0125817
0.0125815
0.0126193
0.0126281
0.0126226
0.0126274
0.0125716
0.0125716
0.0126158
0.0126157
0.012616
0.0126782
0.0126291
0.0126086
0.0126246
0.0126252
0.0126247
0.0126793
0.0126099
0.0126285
0.0126195
0.0126195
0.0126253
0.012624
0.0126253
0.0126247
0.0126675
0.0126529
0.0126241
0.0126194
0.0126232
0.0126256
0.0126237
0.0126229
0.0126232
0.0126615
0.0126032
0.0126278
0.0126113
0.0126095
0.0126619
0.0126197
0.0126203
0.0125982
0.0125821
0.0125822
0.0126009
0.0126293
0.0126197
0.0126626
0.0125834
0.0125731
0.0125731
0.01268
0.0125906
0.0125877
0.0126203
0.012602
0.0126172
0.0126138
0.0126093
0.0126077
0.012616
0.0126782
0.0126187
0.0126118
0.0126087
0.0126714
0.0125898
0.0126648
0.012609
0.0126136
0.0126331
0.0126176
0.0126162
0.0125976
0.0126153
0.0125977
0.0126194
0.0126086
0.0125887
0.0125883
0.0126624
0.0126129
0.0126822
0.0126809
0.0126836
0.0126099
0.012679
0.012685
0.0126255
0.0126829
0.0125948
0.0125949
0.0126819
0.0126229
0.0126673
0.0126825
0.0126686
0.0126828
0.0126686
0.0125902
0.0126648
0.0126787
0.012682
0.0126165
0.0126063
0.0126696
0.0126164
0.0126846
0.0126142
0.0126225
0.0126833
0.0126706
0.0126842
0.01268
0.0126206
0.0125937
0.0125743
0.0125751
0.0126131
0.0125744
0.0125745
0.0125748
0.0125799
0.0126635
0.0125892
0.0126005
0.0125936
0.0126139
0.0125786
0.0125786
0.0125925
0.0126807
0.0126231
0.0126799
0.0126659
0.0126654
0.0125842
0.0125844
0.0125848
0.0125847
0.0125843
0.0125754
0.0125847
0.0125786
0.0125741
0.0125841
0.012584
0.0125738
0.0125752
0.0125783
0.0125852
SCALARS rr_(S) float
LOOKUP_TABLE default
0.709072
0.709371
0.709346
0.709364
0.709465
0.709345
0.70907
0.709365
0.709321
0.709372
0.709072
0.709366
0.709359
0.709377
0.709429
0.709351
0.709388
0.70936
0.709304
0.709337
0.709336
0.709587
0.709333
0.709338
0.709337
0.709365
0.709125
0.70935
0.709219
0.709514
0.709358
0.709219
0.709122
0.709492
0.709504
0.709492
0.709516
0.7095
0.709358
0.709123
0.709218
0.709517
0.709517
0.709358
0.709146
0.709225
0.709312
0.709326
0.709347
0.709199
0.709211
0.709253
0.709458
0.709254
0.709455
0.709163
0.709505
0.709254
0.709504
0.709338
0.709386
0.709418
0.70915
0.709417
0.709418
0.709391
0.709387
0.709365
0.709335
0.709372
0.709457
0.709457
0.709219
0.709402
0.709347
0.709107
0.709438
0.709391
0.709365
0.709257
0.709197
0.709476
0.709402
0.709186
0.709231
0.709153
0.709349
0.709398
0.709146
0.709572
0.709253
0.709572
0.709439
0.709388
0.709257
0.709207
0.709198
0.709371
0.709438
0.709356
0.709289
0.709239
0.709185
0.709361
0.709369
0.709369
0.709407
0.709354
0.709184
0.709375
0.709339
0.709157
0.709173
0.70936
0.709367
0.709256
0.709506
0.709198
0.709506
0.709257
0.709298
0.709424
0.70937
0.709396
0.709378
0.709432
0.709494
0.709371
0.709198
0.709256
0.709457
0.709368
0.7094
0.709369
0.70924
0.709505
0.709182
0.709362
0.709402
0.709504
0.709243
0.709377
0.709305
0.709372
0.709197
0.709365
0.709371
0.709349
0.709346
0.709279
0.709325
0.709371
0.709218
0.70936
0.709372
0.709368
0.709383
0.709247
0.709248
0.709357
0.709327
0.709221
0.709156
0.70921
0.709246
0.709369
0.709247
0.709247
0.709219
0.709247
0.70944
0.709254
0.70921
0.709386
0.709255
0.709406
0.709439
0.709366
0.70946
0.709371
0.70922
0.70937
0.70937
0.709243
0.709398
0.709208
0.709395
0.709409
0.709443
0.709371
0.709398
0.709201
0.709254
0.709219
0.709369
0.709357
0.709359
0.709399
0.70937
0.70939
0.709371
0.709309
0.70926
0.709399
0.709221
0.709401
0.709392
0.709237
0.709423
0.709372
0.709427
0.709381
0.709368
0.709403
0.709279
0.709384
0.709264
0.709408
0.709377
0.709377
0.709372
0.709374
0.709374
0.709374
0.709376
0.709426
0.709425
0.709426
0.709427
0.709457
0.709457
0.709277
0.709376
0.70936
0.709325
0.70943
0.709431
0.709361
0.709261
0.709358
0.709371
0.709281
0.709423
0.70928
0.709404
0.709356
0.709281
0.709265
0.709196
0.709193
0.709402
0.709192
0.709355
0.709263
0.709307
0.709357
0.709376
0.709521
0.709375
0.709192
0.709263
0.709359
0.709366
0.709259
0.709375
0.709306
0.70952
0.709264
0.709378
0.709394
0.709359
0.709429
0.709397
0.709459
0.709358
0.709165
0.709153
0.70945
0.709335
0.709366
0.709281
0.709424
0.709386
0.709263
0.709388
0.70929
0.709373
0.709291
0.709261
0.709549
0.709443
0.709429
0.709428
0.709375
0.709293
0.709488
0.709393
0.709328
0.709294
0.709284
0.709449
0.70928
0.709441
0.709288
0.709147
0.709292
0.709195
0.709409
0.70928
0.709548
0.709288
0.709401
0.709277
0.709398
0.709287
0.709351
0.709148
0.709342
0.70928
0.709446
0.709278
0.709328
0.7094
0.709372
0.709287
0.709293
0.709305
0.70941
0.709292
0.709366
0.70935
0.709459
0.709293
0.709303
0.709333
0.709307
0.709289
0.709308
0.709421
0.709365
0.709305
0.709279
0.709375
0.709375
0.709291
0.709458
0.709062
0.709351
0.709196
0.709334
0.708875
0.708875
0.708876
0.708875
0.708875
0.708877
0.708879
0.709411
0.70948
0.709358
0.709326
0.709306
0.709307
0.709373
0.709305
0.709303
0.709481
0.709307
0.709426
0.709253
0.70942
0.709345
0.709325
0.709306
0.709452
0.709351
0.709328
0.709351
0.709328
0.709302
0.709257
0.709325
0.709348
0.709426
0.70931
0.709299
0.709309
0.709323
0.709346
0.709373
0.709308
0.709372
0.709342
0.709324
0.709367
0.709343
0.709305
0.709396
0.709331
0.709476
0.709147
0.70941
0.709421
0.709347
0.709332
0.709389
0.709067
0.709345
0.709331
0.709149
0.709548
0.70955
0.709349
0.709306
0.709335
0.70931
0.709606
0.709605
0.709365
0.709367
0.709366
0.709069
0.709301
0.709402
0.709325
0.709322
0.709324
0.709058
0.709396
0.709305
0.709349
0.709349
0.709321
0.709327
0.709321
0.709325
0.709125
0.709195
0.709327
0.70935
0.709331
0.70932
0.709329
0.709333
0.709331
0.709148
0.709431
0.709308
0.709389
0.709398
0.709147
0.709346
0.709343
0.709459
0.709542
0.709541
0.709443
0.709301
0.709349
0.709143
0.709535
0.709594
0.709593
0.709055
0.709499
0.709513
0.709345
0.709438
0.709357
0.709374
0.709397
0.709408
0.709367
0.709065
0.709352
0.709387
0.709402
0.709105
0.709502
0.709146
0.709398
0.709377
0.709285
0.709356
0.709365
0.70946
0.709368
0.709459
0.709349
0.709403
0.709509
0.709512
0.709145
0.709379
0.709065
0.709074
0.709056
0.709396
0.709065
0.709048
0.709321
0.70906
0.709477
0.709477
0.709067
0.70933
0.709128
0.709066
0.70912
0.709065
0.70912
0.709502
0.709133
0.709066
0.709065
0.709364
0.709414
0.709115
0.709364
0.709049
0.709374
0.709333
0.709062
0.709109
0.709056
0.709055
0.709342
0.709482
0.709586
0.709581
0.709379
0.709585
0.709585
0.709583
0.709555
0.709139
0.709505
0.709446
0.709484
0.709376
0.709564
0.709563
0.709491
0.70905
0.70933
0.709061
0.709143
0.70914
0.70953
0.709529
0.709527
0.709528
0.709529
0.709582
0.709531
0.709565
0.709591
0.709533
0.709534
0.709592
0.709582
0.709566
0.709527
SCALARS rr_(P) float
LOOKUP_TABLE default
0.0147034
0.0146663
0.0146696
0.0146669
0.0146569
0.0146697
0.0147036
0.0146675
0.0146728
0.0146665
0.0147009
0.0146675
0.0146682
0.014666
0.0146603
0.0146691
0.0146646
0.0146678
0.0146744
0.0146705
0.0146711
0.0146439
0.014671
0.0146705
0.0146706
0.0146672
0.0146958
0.0146692
0.0146845
0.0146515
0.0146684
0.0146844
0.0146964
0.0146538
0.0146527
0.0146538
0.0146511
0.0146532
0.0146684
0.0146963
0.0146846
0.0146509
0.014651
0.0146683
0.0146927
0.014684
0.0146736
0.0146721
0.0146695
0.0146868
0.0146854
0.0146807
0.0146574
0.0146807
0.0146577
0.0146917
0.0146526
0.0146806
0.0146527
0.0146703
0.0146647
0.0146617
0.0146935
0.0146619
0.0146616
0.0146647
0.0146646
0.0146672
0.0146708
0.0146662
0.0146575
0.0146575
0.0146846
0.0146635
0.0146695
0.0146979
0.0146597
0.0146647
0.0146672
0.0146799
0.0146876
0.0146557
0.0146632
0.0146886
0.0146834
0.0146924
0.0146692
0.0146641
0.0146927
0.0146457
0.0146807
0.0146458
0.0146594
0.0146651
0.0146804
0.0146858
0.0146875
0.0146665
0.0146597
0.0146686
0.0146765
0.0146826
0.0146886
0.0146675
0.0146668
0.0146668
0.0146627
0.0146689
0.0146887
0.0146657
0.0146703
0.0146916
0.0146899
0.0146677
0.0146669
0.0146806
0.0146527
0.0146877
0.0146528
0.0146804
0.0146752
0.0146607
0.0146663
0.014664
0.0146654
0.01466
0.014654
0.0146665
0.0146875
0.0146804
0.0146574
0.0146665
0.0146633
0.0146664
0.0146825
0.0146526
0.0146896
0.014668
0.0146631
0.0146526
0.0146821
0.0146664
0.0146747
0.0146664
0.0146878
0.0146671
0.0146669
0.0146696
0.0146697
0.0146776
0.0146722
0.0146663
0.0146845
0.0146682
0.0146665
0.0146665
0.0146654
0.0146818
0.0146816
0.0146682
0.0146721
0.0146842
0.0146919
0.0146854
0.0146818
0.0146667
0.0146818
0.0146818
0.0146845
0.0146817
0.0146593
0.0146806
0.0146855
0.0146651
0.0146806
0.0146629
0.0146594
0.0146675
0.0146573
0.0146667
0.0146845
0.0146666
0.0146666
0.014682
0.014664
0.0146858
0.014664
0.0146627
0.0146592
0.0146665
0.014664
0.0146871
0.0146806
0.0146844
0.0146664
0.014668
0.0146678
0.0146634
0.0146663
0.0146648
0.0146663
0.0146739
0.0146796
0.0146634
0.0146844
0.0146632
0.0146647
0.0146828
0.0146612
0.0146662
0.0146609
0.0146658
0.014667
0.0146631
0.0146775
0.0146655
0.0146793
0.0146627
0.0146655
0.0146655
0.0146659
0.0146658
0.0146657
0.0146658
0.0146662
0.0146606
0.0146607
0.0146605
0.0146605
0.0146576
0.0146576
0.0146778
0.0146661
0.0146672
0.0146723
0.0146603
0.0146602
0.0146671
0.0146795
0.0146673
0.0146665
0.0146774
0.0146611
0.0146775
0.014663
0.0146675
0.0146773
0.0146791
0.0146877
0.0146873
0.0146631
0.0146884
0.0146686
0.0146793
0.0146742
0.0146674
0.0146656
0.0146507
0.0146657
0.0146887
0.0146792
0.0146672
0.0146674
0.0146797
0.0146656
0.0146745
0.0146508
0.0146792
0.0146654
0.0146642
0.0146678
0.0146604
0.0146642
0.0146574
0.0146682
0.0146911
0.0146924
0.0146584
0.014671
0.0146675
0.0146775
0.0146611
0.0146651
0.0146792
0.014665
0.0146764
0.0146668
0.0146764
0.0146794
0.0146479
0.014659
0.0146602
0.0146602
0.0146662
0.0146761
0.0146542
0.0146643
0.014672
0.014676
0.0146772
0.0146585
0.0146774
0.0146594
0.0146768
0.0146927
0.0146762
0.014688
0.0146626
0.0146774
0.0146479
0.0146768
0.0146635
0.0146778
0.0146638
0.0146769
0.0146692
0.0146941
0.0146699
0.0146775
0.0146586
0.0146776
0.0146719
0.0146638
0.0146662
0.0146768
0.0146762
0.0146746
0.0146627
0.0146762
0.0146675
0.0146692
0.0146575
0.0146762
0.0146748
0.0146714
0.0146744
0.0146766
0.0146743
0.0146615
0.0146675
0.0146746
0.0146775
0.0146665
0.0146664
0.0146763
0.0146576
0.0147022
0.0146693
0.0146876
0.0146712
0.0147216
0.0147215
0.0147213
0.0147214
0.0147213
0.0147217
0.0147215
0.0146625
0.0146552
0.0146681
0.0146721
0.0146742
0.0146744
0.0146668
0.0146746
0.0146748
0.0146551
0.0146744
0.014661
0.0146807
0.0146611
0.0146698
0.0146722
0.0146745
0.0146584
0.0146693
0.0146719
0.0146693
0.0146719
0.0146747
0.01468
0.0146722
0.0146697
0.0146609
0.0146738
0.014675
0.014674
0.0146724
0.0146698
0.0146667
0.014674
0.0146668
0.0146701
0.0146723
0.0146674
0.01467
0.0146745
0.0146638
0.0146716
0.0146555
0.0146926
0.0146625
0.0146615
0.0146697
0.0146715
0.0146648
0.0147017
0.0146697
0.0146716
0.0146939
0.0146481
0.014648
0.0146693
0.0146742
0.0146712
0.0146738
0.0146424
0.0146424
0.0146673
0.0146673
0.0146675
0.0147019
0.0146748
0.0146633
0.0146723
0.0146726
0.0146723
0.0147024
0.014664
0.0146744
0.0146695
0.0146694
0.0146727
0.014672
0.0146727
0.0146724
0.014696
0.0146879
0.014672
0.0146694
0.0146715
0.0146728
0.0146718
0.0146713
0.0146715
0.0146926
0.0146603
0.014674
0.0146649
0.0146639
0.0146929
0.0146696
0.0146699
0.0146575
0.0146483
0.0146483
0.014659
0.0146749
0.0146695
0.0146932
0.0146491
0.0146433
0.0146433
0.0147028
0.0146532
0.0146515
0.0146699
0.0146596
0.0146682
0.0146662
0.0146637
0.0146628
0.0146675
0.0147018
0.014669
0.0146651
0.0146634
0.0146981
0.0146527
0.0146946
0.0146635
0.0146661
0.014677
0.0146684
0.0146676
0.0146571
0.0146671
0.0146572
0.0146694
0.0146634
0.0146521
0.0146519
0.0146931
0.0146657
0.0147041
0.0147035
0.0147049
0.0146641
0.0147023
0.0147057
0.0146728
0.0147045
0.0146556
0.0146556
0.014704
0.0146713
0.0146959
0.0147044
0.0146966
0.0147045
0.0146966
0.014653
0.0146945
0.0147021
0.014704
0.0146678
0.014662
0.0146972
0.0146677
0.0147054
0.0146665
0.0146711
0.0147048
0.0146977
0.0147053
0.0147028
0.0146701
0.014655
0.0146439
0.0146444
0.0146658
0.014644
0.014644
0.0146442
0.0146471
0.0146938
0.0146524
0.0146587
0.0146549
0.0146663
0.0146463
0.0146464
0.0146543
0.0147032
0.0146714
0.0147028
0.0146952
0.0146949
0.0146495
0.0146496
0.0146499
0.0146498
0.0146495
0.0146446
0.0146498
0.0146463
0.0146438
0.0146494
0.0146494
0.0146437
0.0146445
0.0146462
0.0146501
SCALARS rr_(T) float
LOOKUP_TABLE default
0.0352016
0.0352272
0.0352248
0.0352265
0.0352374
0.0352248
0.0352015
0.0352266
0.0352224
0.0352272
0.0352024
0.0352266
0.035226
0.0352279
0.0352336
0.0352251
0.0352291
0.0352261
0.0352212
0.035224
0.0352238
0.0352521
0.0352237
0.0352241
0.035224
0.0352267
0.0352063
0.0352253
0.035214
0.0352434
0.0352258
0.035214
0.035206
0.035241
0.035242
0.0352409
0.0352438
0.0352414
0.0352258
0.0352061
0.0352139
0.035244
0.0352439
0.0352258
0.0352082
0.0352143
0.0352218
0.0352228
0.035225
0.0352123
0.0352133
0.0352167
0.0352368
0.0352167
0.0352365
0.0352092
0.0352421
0.0352167
0.035242
0.0352242
0.035229
0.035232
0.0352082
0.0352319
0.0352321
0.0352294
0.0352291
0.0352267
0.0352238
0.0352274
0.0352368
0.0352367
0.0352139
0.0352306
0.0352248
0.0352048
0.0352344
0.0352294
0.0352267
0.0352172
0.035212
0.0352386
0.0352306
0.0352112
0.0352148
0.0352086
0.0352253
0.0352301
0.0352082
0.0352503
0.0352167
0.0352502
0.0352346
0.0352292
0.0352169
0.035213
0.035212
0.0352271
0.0352343
0.0352256
0.0352197
0.0352154
0.0352112
0.0352262
0.0352271
0.0352268
0.0352313
0.0352254
0.0352111
0.0352277
0.0352242
0.035209
0.0352102
0.0352262
0.0352267
0.0352168
0.0352421
0.0352119
0.035242
0.0352169
0.0352206
0.035233
0.0352272
0.0352298
0.0352281
0.0352341
0.0352406
0.0352271
0.035212
0.0352169
0.0352369
0.035227
0.0352303
0.0352271
0.0352154
0.0352422
0.0352107
0.0352263
0.0352306
0.0352421
0.0352157
0.0352278
0.0352211
0.0352275
0.0352118
0.0352267
0.0352275
0.0352251
0.0352247
0.0352189
0.0352229
0.0352272
0.035214
0.0352259
0.0352274
0.035227
0.0352284
0.035216
0.0352161
0.0352257
0.0352229
0.0352142
0.0352089
0.0352133
0.035216
0.0352269
0.035216
0.0352159
0.035214
0.035216
0.0352348
0.0352167
0.0352132
0.0352286
0.0352168
0.0352311
0.0352347
0.0352269
0.0352369
0.0352273
0.035214
0.035227
0.035227
0.0352158
0.0352301
0.035213
0.0352297
0.0352313
0.0352349
0.0352271
0.0352301
0.0352123
0.0352168
0.035214
0.0352271
0.0352259
0.0352261
0.0352303
0.0352272
0.0352293
0.0352273
0.0352215
0.0352174
0.0352303
0.0352141
0.0352305
0.0352294
0.0352153
0.0352329
0.0352273
0.0352332
0.0352283
0.035227
0.0352306
0.035219
0.0352287
0.0352176
0.0352313
0.035228
0.0352279
0.0352275
0.0352276
0.0352277
0.0352276
0.0352278
0.0352332
0.0352331
0.0352332
0.0352333
0.0352367
0.0352367
0.0352187
0.0352278
0.0352261
0.0352227
0.0352336
0.0352337
0.0352263
0.0352174
0.035226
0.0352271
0.035219
0.035233
0.0352189
0.0352307
0.0352258
0.0352191
0.0352177
0.0352119
0.035212
0.0352305
0.0352115
0.0352255
0.0352176
0.0352214
0.0352259
0.0352278
0.0352443
0.0352277
0.0352114
0.0352177
0.0352261
0.0352268
0.0352173
0.0352278
0.0352212
0.0352442
0.0352177
0.035228
0.0352296
0.035226
0.0352335
0.03523
0.0352369
0.0352258
0.0352095
0.0352085
0.0352359
0.0352237
0.0352268
0.035219
0.0352331
0.0352286
0.0352177
0.0352291
0.0352197
0.0352276
0.0352198
0.0352175
0.0352476
0.0352351
0.0352337
0.0352336
0.0352276
0.0352199
0.0352405
0.0352294
0.0352231
0.03522
0.0352192
0.0352358
0.035219
0.0352347
0.0352194
0.0352082
0.0352199
0.0352117
0.0352315
0.035219
0.0352475
0.0352195
0.0352306
0.0352187
0.03523
0.0352194
0.0352251
0.0352079
0.0352244
0.035219
0.0352356
0.0352189
0.0352232
0.0352302
0.0352274
0.0352194
0.0352199
0.0352212
0.0352314
0.0352199
0.0352267
0.0352253
0.0352368
0.0352199
0.035221
0.0352236
0.0352213
0.0352196
0.0352213
0.0352326
0.0352266
0.0352211
0.035219
0.0352277
0.0352277
0.0352198
0.0352367
0.0352016
0.0352254
0.0352119
0.0352237
0.0351871
0.0351871
0.0351873
0.0351872
0.0351872
0.0351871
0.0351872
0.0352316
0.0352395
0.035226
0.0352231
0.0352213
0.0352212
0.0352275
0.0352211
0.0352209
0.0352395
0.0352213
0.0352331
0.0352167
0.0352326
0.0352248
0.035223
0.0352211
0.0352359
0.0352253
0.0352232
0.0352253
0.0352232
0.0352209
0.0352171
0.035223
0.035225
0.0352331
0.0352217
0.0352207
0.0352214
0.0352228
0.0352249
0.0352276
0.0352214
0.0352275
0.0352245
0.0352229
0.0352269
0.0352246
0.0352211
0.0352299
0.0352234
0.035239
0.0352083
0.0352315
0.0352327
0.035225
0.0352234
0.0352292
0.0352019
0.0352249
0.0352233
0.035208
0.0352474
0.0352476
0.0352253
0.0352213
0.0352237
0.0352216
0.035254
0.0352539
0.0352265
0.0352269
0.0352269
0.0352019
0.0352209
0.0352304
0.0352227
0.0352225
0.0352228
0.0352014
0.0352301
0.0352211
0.0352251
0.0352252
0.0352224
0.0352231
0.0352224
0.0352227
0.0352062
0.0352118
0.0352231
0.0352253
0.0352233
0.0352223
0.0352232
0.0352236
0.0352234
0.0352083
0.0352338
0.0352215
0.0352291
0.0352302
0.0352082
0.0352247
0.0352245
0.0352368
0.0352471
0.035247
0.0352353
0.0352208
0.0352252
0.0352079
0.0352462
0.0352528
0.0352527
0.0352011
0.0352414
0.0352435
0.0352248
0.0352345
0.0352258
0.0352274
0.0352301
0.0352313
0.0352269
0.0352018
0.0352253
0.0352289
0.0352304
0.0352046
0.0352421
0.0352076
0.0352302
0.0352278
0.0352193
0.0352256
0.0352267
0.0352372
0.0352269
0.0352372
0.0352249
0.0352306
0.0352429
0.0352432
0.035208
0.0352281
0.0352012
0.0352018
0.0352006
0.0352299
0.0352016
0.0352
0.0352223
0.0352009
0.0352387
0.0352387
0.0352014
0.0352234
0.0352063
0.0352011
0.0352058
0.0352011
0.0352058
0.0352417
0.035207
0.0352017
0.0352012
0.0352265
0.0352319
0.0352054
0.0352267
0.0352001
0.0352276
0.0352236
0.0352008
0.035205
0.0352004
0.035201
0.0352246
0.0352395
0.035252
0.0352515
0.0352282
0.0352519
0.0352519
0.0352517
0.0352485
0.0352075
0.0352426
0.0352355
0.0352397
0.0352279
0.0352494
0.0352494
0.0352403
0.0352008
0.0352233
0.0352013
0.0352073
0.0352073
0.0352456
0.0352455
0.0352452
0.0352453
0.0352456
0.0352514
0.0352454
0.0352495
0.0352523
0.0352458
0.0352459
0.0352524
0.0352514
0.0352496
0.0352452
SCALARS rr_tsim float
LOOKUP_TABLE default
100
100
100
100
100
100
100
100
100
100
100
100
100
100
100
100
100
100
100
100
100
100
100
100
100
100
100
100
100
100
100
100
100
100
100
100
100
100
100
100
100
100
100
100
100
100
100
100
100
100
100
100
100
100
100
100
100
100
100
100
100
100
100
100
100
100
100
100
100
100
100
100
100
100
100
100
100
100
100
100
100
100
100
100
100
100
100
100
100
100
100
100
100
100
100
100
100
100
100
100
100
100
100
100
100
100
100
100
100
100
100
100
100
100
100
100
100
100
100
100
100
100
100
100
100
100
100
100
100
100
100
100
100
100
100
100
100
100
100
100
100
100
100
100
100
100
100
100
100
100
100
100
100
100
100
100
100
100
100
100
100
100
100
100
100
100
100
100
100
100
100
100
100
100
100
100
100
100
100
100
100
100
100
100
100
100
100
100
100
100
100
100
100
100
100
100
100
100
100
100
100
100
100
100
100
100
100
100
100
100
100
100
100
100
100
100
100
100
100
100
100
100
100
100
100
100
100
100
100
100
100
100
100
100
100
100
100
100
100
100
100
100
100
100
100
100
100
100
100
100
100
100
100
100
100
100
100
100
100
100
100
100
100
100
100
100
100
100
100
100
100
100
100
100
100
100
100
100
100
100
100
100
100
100
100
100
100
100
100
100
100
100
100
100
100
100
100
100
100
100
100
100
100
100
100
100
100
100
100
100
100
100
100
100
100
100
100
100
100
100
100
100
100
100
100
100
100
100
100
100
100
100
100
100
100
100
100
100
100
100
100
100
100
100
100
100
100
100
100
100
100
100
100
100
100
100
100
100
100
100
100
100
100
100
100
100
100
100
100
100
100
100
100
100
100
100
100
100
100
100
100
100
100
100
100
100
100
100
100
100
100
100
100
100
100
100
100
100
100
100
100
100
100
100
100
100
100
100
100
100
100
100
100
100
100
100
100
100
100
100
100
100
100
100
100
100
100
100
100
100
100
100
100
100
100
100
100
100
100
100
100
100
100
100
100
100
100
100
100
100
100
100
100
100
100
100
100
100
100
100
100
100
100
100
100
100
100
100
100
100
100
100
100
100
100
100
100
100
100
100
100
100
100
100
100
100
100
100
100
100
100
100
100
100
100
100
100
100
100
100
100
100
100
100
100
100
100
100
100
100
100
100
100
100
100
100
100
100
100
100
100
100
100
100
100
100
100
100
100
100
100
100
100
100
100
100
100
100
100
100
100
100
100
100
100
100
100
100
100
100
100
100
100
100
100
100
100
100
100
100
100
100
100
SCALARS rr_Vext float
LOOKUP_TABLE default
0.181361
0.449136
0.356059
0.468123
0.250497
0.377839
0.179277
0.465102
0.395118
0.50458
0.165392
0.466522
0.409837
0.435025
0.516147
0.424877
0.369054
0.414196
0.365541
0.360537
0.40512
0.0765113
0.415081
0.383025
0.347115
0.403483
0.155013
0.352844
0.267419
0.339252
0.36198
0.276492
0.171523
0.252905
0.249251
0.253456
0.330131
0.249495
0.36155
0.19284
0.224726
0.291055
0.291064
0.397283
0.21689
0.244126
0.344622
0.350193
0.330088
0.303768
0.312861
0.245242
0.401526
0.315215
0.369422
0.157757
0.266183
0.317524
0.266155
0.393196
0.470942
0.464884
0.153278
0.32765
0.445325
0.417385
0.455667
0.391916
0.357996
0.515571
0.435564
0.4308
0.277661
0.338753
0.353982
0.176429
0.372684
0.413488
0.39518
0.27114
0.240496
0.283512
0.527546
0.240256
0.327768
0.119294
0.407591
0.344618
0.22971
0.0374832
0.273099
0.0407611
0.316364
0.29932
0.258666
0.232988
0.220913
0.442943
0.372919
0.351865
0.293543
0.277776
0.230483
0.418588
0.426149
0.383843
0.340635
0.340857
0.244634
0.512533
0.326035
0.164042
0.220061
0.457891
0.429731
0.30449
0.308636
0.183512
0.32004
0.303374
0.266993
0.502661
0.511825
0.442052
0.484539
0.38496
0.220819
0.478224
0.200083
0.262285
0.227508
0.456408
0.449035
0.448262
0.288944
0.18754
0.190642
0.327449
0.404479
0.187463
0.241548
0.3873
0.287977
0.472771
0.22328
0.3852
0.34974
0.336136
0.214795
0.269553
0.304307
0.440639
0.248032
0.397422
0.462002
0.469256
0.307864
0.249014
0.247663
0.401147
0.333862
0.246123
0.160079
0.23971
0.240473
0.430968
0.252355
0.255107
0.274626
0.245945
0.386352
0.25819
0.226064
0.297722
0.272818
0.340314
0.382126
0.361142
0.313984
0.360855
0.266573
0.418258
0.448864
0.24162
0.442311
0.239445
0.436806
0.402747
0.378974
0.379425
0.446238
0.200779
0.266935
0.246022
0.447422
0.439033
0.40721
0.447906
0.452964
0.381874
0.466582
0.307724
0.274117
0.512744
0.285554
0.465965
0.36997
0.22666
0.286348
0.461737
0.389043
0.350317
0.450068
0.445267
0.278866
0.284228
0.267549
0.395462
0.433431
0.498105
0.478102
0.520385
0.471571
0.515301
0.432067
0.457212
0.460661
0.434365
0.456367
0.422927
0.416644
0.282418
0.389421
0.454308
0.312129
0.470283
0.432166
0.492673
0.288253
0.46829
0.44869
0.284507
0.406922
0.282476
0.455249
0.411301
0.296262
0.277685
0.235558
0.271103
0.455784
0.197505
0.34703
0.276534
0.313911
0.468685
0.455561
0.147791
0.457117
0.236436
0.261771
0.466283
0.379037
0.264592
0.522196
0.291238
0.147782
0.267731
0.40641
0.508935
0.3827
0.457765
0.425166
0.226619
0.216737
0.175982
0.201432
0.308141
0.229081
0.371991
0.22753
0.406401
0.28763
0.268108
0.323961
0.293529
0.398532
0.281494
0.287603
0.136372
0.303578
0.43782
0.438068
0.391535
0.281123
0.192362
0.545892
0.360498
0.298325
0.274298
0.284982
0.282736
0.35885
0.278098
0.192063
0.274799
0.1835
0.351075
0.279583
0.127093
0.263728
0.321345
0.279322
0.44368
0.290717
0.381478
0.138317
0.30567
0.287021
0.261629
0.269324
0.322
0.30873
0.321054
0.266571
0.27117
0.293867
0.403611
0.276102
0.399033
0.358796
0.290802
0.286481
0.29013
0.323381
0.28992
0.270124
0.308537
0.333036
0.387876
0.290176
0.28636
0.425153
0.419259
0.276219
0.290841
0.11737
0.342072
0.227683
0.319688
0.126305
0.131124
0.117234
0.11913
0.126412
0.133077
0.137187
0.365827
0.275207
0.26967
0.305542
0.296214
0.292415
0.314717
0.286
0.292394
0.310828
0.291321
0.368796
0.261069
0.378841
0.28911
0.277585
0.291603
0.322771
0.329002
0.304703
0.351058
0.326039
0.300397
0.21398
0.303867
0.298869
0.328288
0.305316
0.288526
0.275042
0.304071
0.319099
0.436171
0.283313
0.424011
0.43867
0.298872
0.422873
0.322483
0.255684
0.356802
0.307325
0.229508
0.185274
0.353357
0.377147
0.31344
0.259549
0.31702
0.138206
0.309871
0.28952
0.140571
0.0597492
0.065376
0.268658
0.283301
0.331365
0.316594
0.031131
0.0325288
0.318188
0.32155
0.304249
0.103725
0.264733
0.31591
0.315649
0.272082
0.240287
0.107865
0.464476
0.284952
0.352169
0.35768
0.255169
0.323453
0.249481
0.275486
0.129741
0.199385
0.323813
0.327758
0.280332
0.29357
0.303665
0.320512
0.306416
0.143963
0.275784
0.30136
0.290891
0.437497
0.14386
0.233737
0.240578
0.234527
0.155626
0.15563
0.267704
0.208512
0.30188
0.153859
0.185528
0.0614171
0.0614146
0.112311
0.199636
0.134973
0.257006
0.284543
0.297814
0.337008
0.307424
0.285237
0.222221
0.127173
0.278056
0.290587
0.282444
0.144132
0.147647
0.10463
0.281954
0.285977
0.224185
0.258256
0.238718
0.223794
0.292917
0.223761
0.257209
0.251392
0.158048
0.195243
0.165311
0.310653
0.112708
0.118919
0.11594
0.294539
0.107691
0.104734
0.200921
0.0979331
0.243159
0.243513
0.100661
0.255451
0.113724
0.11099
0.127157
0.105859
0.105725
0.174208
0.126243
0.112776
0.106278
0.235815
0.272664
0.118745
0.260322
0.0960777
0.264794
0.208177
0.100552
0.0864364
0.0948706
0.126462
0.225556
0.192182
0.0824431
0.0914079
0.253862
0.0775865
0.0775832
0.0878723
0.0979629
0.0995866
0.127336
0.207536
0.193797
0.253773
0.0775249
0.0775216
0.229255
0.0843477
0.178718
0.07652
0.0783426
0.103273
0.198598
0.205598
0.218909
0.200662
0.198582
0.0438927
0.320385
0.0557542
0.0543422
0.259011
0.257241
0.0563349
0.0390575
0.0548049
0.238563
SCALARS rr_Vli float
LOOKUP_TABLE default
0.396488
0.903305
0.721409
0.942911
0.493006
0.765671
0.392036
0.937678
0.806274
1.01512
0.359837
0.940551
0.827709
0.874161
1.02413
0.859736
0.739401
0.835922
0.748803
0.732059
0.823487
0.146196
0.843745
0.777633
0.704893
0.813147
0.33335
0.714263
0.560612
0.659804
0.731231
0.579532
0.369274
0.494395
0.485907
0.495509
0.64146
0.486899
0.730488
0.415067
0.471213
0.565332
0.565392
0.802521
0.463325
0.511151
0.704667
0.713578
0.668686
0.640146
0.657319
0.509713
0.791286
0.654959
0.728504
0.336096
0.518811
0.659761
0.518794
0.798053
0.943872
0.925037
0.327841
0.652223
0.886017
0.836202
0.913007
0.78978
0.727295
1.03672
0.858512
0.849158
0.582214
0.676857
0.716975
0.381184
0.738164
0.828446
0.796428
0.562484
0.507626
0.556451
1.05352
0.508335
0.685389
0.25458
0.825082
0.689492
0.490663
0.0719437
0.567533
0.0782464
0.626354
0.600264
0.537112
0.489905
0.46622
0.891222
0.738712
0.711155
0.604222
0.579677
0.487752
0.844118
0.858088
0.772721
0.679552
0.689385
0.517762
1.02966
0.661683
0.34948
0.467062
0.923829
0.865443
0.632496
0.601616
0.387413
0.624005
0.629996
0.547964
0.998319
1.02948
0.884285
0.972865
0.763258
0.431753
0.962245
0.422255
0.54465
0.448456
0.918488
0.897117
0.90183
0.602903
0.365539
0.404184
0.660937
0.807739
0.365416
0.503542
0.77894
0.590246
0.951068
0.471534
0.776071
0.704328
0.68096
0.43525
0.556272
0.620252
0.886315
0.519985
0.802504
0.929449
0.94427
0.617859
0.51866
0.515717
0.810204
0.680212
0.515663
0.341241
0.503642
0.500932
0.867522
0.525648
0.531447
0.5757
0.51224
0.764773
0.536477
0.475018
0.59703
0.566763
0.679106
0.756457
0.728164
0.618516
0.726379
0.558764
0.841643
0.903312
0.503625
0.884789
0.503412
0.873814
0.80329
0.749921
0.763396
0.892549
0.423347
0.554574
0.515694
0.900218
0.886308
0.821718
0.894911
0.911204
0.765277
0.938425
0.629679
0.568297
1.02454
0.598475
0.93056
0.741284
0.473244
0.569202
0.928582
0.772734
0.703611
0.906443
0.889145
0.575333
0.570476
0.554204
0.788788
0.870385
1.00029
0.961024
1.04559
0.94746
1.0354
0.868719
0.907704
0.914776
0.862351
0.905939
0.833936
0.821522
0.583009
0.782801
0.915916
0.636244
0.933128
0.857216
0.993033
0.59748
0.944378
0.902763
0.58674
0.808807
0.582779
0.908863
0.829734
0.610885
0.574985
0.497309
0.572065
0.910109
0.417617
0.701487
0.57285
0.642718
0.945266
0.914975
0.286928
0.918302
0.5002
0.542263
0.940109
0.764207
0.548653
1.04889
0.596681
0.286929
0.554505
0.815985
1.01857
0.772241
0.908473
0.85083
0.446604
0.437756
0.374436
0.429886
0.608688
0.465564
0.749999
0.469388
0.807675
0.576822
0.555345
0.649553
0.604
0.802284
0.579183
0.596025
0.26302
0.600447
0.868517
0.869136
0.787215
0.578067
0.37639
1.09286
0.734306
0.613264
0.565371
0.562962
0.583128
0.710465
0.572681
0.410199
0.565172
0.387694
0.700131
0.576604
0.24515
0.543081
0.642119
0.576624
0.887248
0.598803
0.77218
0.296224
0.619808
0.592067
0.517044
0.555821
0.655885
0.61732
0.645555
0.549015
0.557652
0.602202
0.804992
0.567875
0.804513
0.726249
0.573159
0.589133
0.594781
0.657848
0.5938
0.555999
0.631813
0.662552
0.782187
0.594656
0.590814
0.855295
0.843315
0.568305
0.573282
0.256089
0.692607
0.480631
0.650109
0.287607
0.298551
0.266804
0.271172
0.287683
0.303057
0.312312
0.729349
0.539727
0.54457
0.622609
0.606506
0.598938
0.633525
0.586136
0.599489
0.609473
0.596717
0.732664
0.542549
0.753113
0.586009
0.565704
0.59747
0.637471
0.666118
0.620597
0.710722
0.664003
0.615747
0.444043
0.619303
0.605577
0.652009
0.624642
0.591873
0.562876
0.620023
0.646727
0.877925
0.579862
0.853555
0.889747
0.609282
0.852436
0.653935
0.523845
0.713549
0.62543
0.450404
0.395668
0.704474
0.750319
0.635206
0.528053
0.635258
0.301237
0.628027
0.58927
0.300914
0.115299
0.126127
0.544009
0.580102
0.673742
0.647667
0.0592775
0.061939
0.641402
0.648093
0.613487
0.226114
0.542809
0.631017
0.643422
0.555019
0.489882
0.23547
0.929291
0.583738
0.713238
0.724389
0.520587
0.658854
0.508994
0.561652
0.279103
0.421179
0.659638
0.663714
0.570438
0.599129
0.618262
0.651898
0.623528
0.307429
0.547101
0.616837
0.58302
0.874909
0.307369
0.473538
0.487758
0.462244
0.300516
0.300537
0.529557
0.427596
0.611541
0.329007
0.358878
0.117176
0.117176
0.245399
0.389622
0.262496
0.521055
0.563544
0.601417
0.677652
0.614662
0.569074
0.44804
0.277252
0.562551
0.582805
0.564252
0.311558
0.287926
0.224285
0.563456
0.574855
0.461946
0.521752
0.481458
0.440839
0.590099
0.440801
0.520827
0.502151
0.307813
0.380029
0.353396
0.623987
0.246786
0.259981
0.254335
0.589288
0.234982
0.230139
0.410013
0.214645
0.477124
0.477846
0.220335
0.519615
0.244575
0.243123
0.273903
0.231959
0.22774
0.339832
0.270699
0.245998
0.232678
0.475753
0.543006
0.256117
0.525112
0.211012
0.532694
0.423223
0.220455
0.186664
0.208256
0.27632
0.457471
0.37661
0.157552
0.174883
0.509991
0.148308
0.148306
0.168049
0.188629
0.213207
0.248115
0.410276
0.379763
0.510345
0.149005
0.149004
0.448514
0.184462
0.363613
0.16715
0.168151
0.221555
0.384551
0.398197
0.424216
0.38878
0.384541
0.0840105
0.620734
0.107164
0.103829
0.501447
0.497967
0.107596
0.0747331
0.105301
0.462545
SCALARS rr_S_ext' float
LOOKUP_TABLE default
-0.00145336
-0.00331899
-0.00265015
-0.00346436
-0.00181248
-0.00281273
-0.00143702
-0.00344509
-0.00296133
-0.00372982
-0.00131916
-0.00345564
-0.00304091
-0.003212
-0.00376426
-0.00315841
-0.00271704
-0.00307113
-0.00274994
-0.00268911
-0.00302487
-0.000537871
-0.00309926
-0.00285652
-0.00258931
-0.00298756
-0.0012225
-0.00262395
-0.00205748
-0.0024264
-0.00268645
-0.00212692
-0.0013542
-0.00181788
-0.00178681
-0.00182198
-0.00235899
-0.00179042
-0.0026837
-0.00152215
-0.00172937
-0.00207905
-0.00207927
-0.00294836
-0.00169949
-0.00187602
-0.00258799
-0.00262097
-0.00245647
-0.00234901
-0.00241224
-0.00187114
-0.00290896
-0.00240436
-0.00267811
-0.00123292
-0.00190782
-0.00242198
-0.00190776
-0.00293155
-0.00346835
-0.00339982
-0.0012025
-0.00239712
-0.00325641
-0.00307277
-0.00335496
-0.00290172
-0.00267157
-0.00380918
-0.00315609
-0.0031217
-0.00213675
-0.00248741
-0.00263388
-0.00139773
-0.00271333
-0.00304426
-0.00292614
-0.00206496
-0.00186266
-0.00204588
-0.00387163
-0.00186512
-0.00251561
-0.00093384
-0.00303106
-0.00253375
-0.00179977
-0.000264657
-0.0020834
-0.000287841
-0.00230236
-0.00220571
-0.00197178
-0.00179782
-0.00171073
-0.00327456
-0.00271534
-0.00261265
-0.00221869
-0.00212774
-0.00178959
-0.0031013
-0.00315276
-0.00283912
-0.0024974
-0.00253263
-0.00189969
-0.00378332
-0.00243062
-0.00128201
-0.00171353
-0.00339411
-0.00317977
-0.00232192
-0.00221232
-0.00142155
-0.00229463
-0.00231276
-0.00201226
-0.00366931
-0.00378258
-0.00324958
-0.0035747
-0.00280547
-0.00158755
-0.00353551
-0.00154941
-0.00199945
-0.00164861
-0.00337471
-0.00329683
-0.00331353
-0.002213
-0.00134419
-0.00148291
-0.00242825
-0.0029684
-0.00134374
-0.00184833
-0.00286206
-0.00216762
-0.00349447
-0.0017302
-0.00285137
-0.00258782
-0.00250156
-0.00159892
-0.00204246
-0.00227816
-0.00325654
-0.00190837
-0.00294833
-0.00341503
-0.00346945
-0.00227032
-0.00190388
-0.00189309
-0.00297659
-0.00249843
-0.00189254
-0.00125176
-0.00184827
-0.00183879
-0.00318745
-0.00192953
-0.00195081
-0.00211285
-0.00188031
-0.00281117
-0.00196941
-0.00174322
-0.00219384
-0.0020806
-0.00249574
-0.0027806
-0.00267531
-0.00227385
-0.00266886
-0.00205071
-0.00309239
-0.00331897
-0.00184865
-0.00325145
-0.00184739
-0.0032111
-0.00295217
-0.0027566
-0.0028049
-0.00327997
-0.00155346
-0.00203585
-0.00189263
-0.0033076
-0.00325622
-0.00301895
-0.00328872
-0.00334798
-0.00281212
-0.00344801
-0.00231254
-0.00208634
-0.00376511
-0.00219646
-0.00341977
-0.00272397
-0.00173704
-0.00209206
-0.00341185
-0.00284019
-0.00258537
-0.0033304
-0.00326757
-0.00211247
-0.00209621
-0.00203466
-0.00289888
-0.00319813
-0.00367546
-0.00353108
-0.00384186
-0.00348129
-0.0038044
-0.00319194
-0.00333629
-0.00336226
-0.00316958
-0.0033298
-0.0030657
-0.00302007
-0.00214061
-0.00287627
-0.00336507
-0.00233691
-0.00342978
-0.00315079
-0.00364842
-0.00219349
-0.00346961
-0.00331697
-0.00215438
-0.00297271
-0.00213981
-0.00334006
-0.00304838
-0.00224304
-0.00211097
-0.00182479
-0.00209911
-0.00334463
-0.00153231
-0.00257712
-0.00210311
-0.00236038
-0.00347286
-0.00336196
-0.00105521
-0.00337417
-0.0018353
-0.00199081
-0.00345395
-0.00280774
-0.00201422
-0.00385399
-0.00219128
-0.00105522
-0.00203577
-0.00299825
-0.00374299
-0.00283718
-0.00333914
-0.00312662
-0.00164183
-0.00160826
-0.00137361
-0.00157689
-0.00223755
-0.00171014
-0.00275553
-0.00172348
-0.00296856
-0.00211958
-0.00203884
-0.00238684
-0.0022179
-0.00294775
-0.00212678
-0.00218816
-0.00096745
-0.00220718
-0.00319231
-0.00319458
-0.00289248
-0.00212272
-0.00138395
-0.00401598
-0.00269713
-0.00225197
-0.00207596
-0.00206946
-0.00214111
-0.00261153
-0.00210285
-0.00150463
-0.00207534
-0.00142255
-0.00257306
-0.00211715
-0.000901716
-0.00199416
-0.00235973
-0.00211717
-0.00326049
-0.00219875
-0.00283673
-0.0010865
-0.00227685
-0.00217392
-0.00190064
-0.00204081
-0.00240908
-0.00226857
-0.00237196
-0.00201594
-0.00204774
-0.00221154
-0.00295843
-0.00208527
-0.00295583
-0.00266799
-0.00210707
-0.00216334
-0.00218427
-0.00241639
-0.00218072
-0.00204162
-0.00232033
-0.00243511
-0.00287378
-0.00218383
-0.00216931
-0.00314259
-0.00309858
-0.00208683
-0.00210752
-0.000938739
-0.00254439
-0.0017636
-0.00238798
-0.00105285
-0.00109291
-0.000976708
-0.000992693
-0.00105314
-0.00110941
-0.0011433
-0.00268046
-0.00198441
-0.00200068
-0.00228684
-0.00222739
-0.00219959
-0.0023277
-0.00215253
-0.00220155
-0.00224086
-0.00219143
-0.0026929
-0.00199169
-0.00276798
-0.00215271
-0.00207782
-0.00219418
-0.00234338
-0.00244708
-0.00227948
-0.00261094
-0.00243891
-0.00226127
-0.00163013
-0.00227468
-0.00222463
-0.00239647
-0.00229405
-0.00217354
-0.0020672
-0.0022773
-0.00237578
-0.00322569
-0.00212957
-0.00313614
-0.00326844
-0.00223786
-0.00313191
-0.00240221
-0.00192379
-0.00262218
-0.00229729
-0.00165597
-0.00145133
-0.00258904
-0.00275768
-0.00233346
-0.00193963
-0.00233435
-0.00110428
-0.00230707
-0.00216446
-0.00110371
-0.000424091
-0.000463921
-0.00199848
-0.00213042
-0.00247481
-0.00237862
-0.000218108
-0.0002279
-0.00235655
-0.00238115
-0.00225398
-0.00082889
-0.00199339
-0.00231896
-0.00236327
-0.00203853
-0.00179931
-0.000863144
-0.00341495
-0.00214375
-0.00262016
-0.00266112
-0.00191205
-0.00241999
-0.00186947
-0.00206292
-0.00102355
-0.00154542
-0.00242286
-0.00243823
-0.0020953
-0.00220051
-0.00227093
-0.00239454
-0.00229031
-0.00112767
-0.00201093
-0.00226535
-0.00214238
-0.00321515
-0.00112743
-0.00173957
-0.00179178
-0.00169932
-0.00110533
-0.0011054
-0.00194658
-0.00157028
-0.00224655
-0.00120677
-0.00131993
-0.000431121
-0.000431119
-0.000899515
-0.00143271
-0.000965317
-0.0019141
-0.00207146
-0.00220954
-0.00248989
-0.00225879
-0.00209139
-0.00164612
-0.00101634
-0.00206666
-0.00214156
-0.00207359
-0.00114241
-0.00105877
-0.000822619
-0.00207065
-0.00211222
-0.0016962
-0.00191684
-0.00176889
-0.00162064
-0.0021681
-0.0016205
-0.00191332
-0.00184539
-0.00113193
-0.00139751
-0.00129624
-0.00229278
-0.000904569
-0.000952981
-0.00093218
-0.00216552
-0.000861373
-0.000843454
-0.00150592
-0.000786733
-0.00175423
-0.00175688
-0.000807622
-0.00190863
-0.000896942
-0.000891135
-0.00100444
-0.000850204
-0.000835158
-0.00124963
-0.000992821
-0.000901761
-0.000852859
-0.00174792
-0.00199568
-0.000939186
-0.00192927
-0.000773365
-0.00195726
-0.00155459
-0.000808026
-0.000684472
-0.00076328
-0.00101285
-0.0016805
-0.00138471
-0.000579647
-0.00064339
-0.00187391
-0.000545631
-0.000545625
-0.000618254
-0.000693848
-0.000781998
-0.00091239
-0.00150815
-0.00139631
-0.00187516
-0.000548121
-0.000548117
-0.00164917
-0.00067613
-0.0013356
-0.0006127
-0.000616712
-0.000812579
-0.00141432
-0.0014645
-0.00156017
-0.00142985
-0.00141428
-0.000309069
-0.00228294
-0.000394205
-0.000381997
-0.00184425
-0.00183146
-0.000395862
-0.000274941
-0.000387358
-0.00170111
SCALARS rr_P_ext' float
LOOKUP_TABLE default
0.000126714
0.000292997
0.000233702
0.000305765
0.000160499
0.000248033
0.000125285
0.000304021
0.000260874
0.00032925
0.000115103
0.000304952
0.000268286
0.000283586
0.000332953
0.000278574
0.00023999
0.000270981
0.000242117
0.000237064
0.000266621
4.78271e-05
0.00027318
0.000251827
0.000228262
0.000263661
0.000106859
0.000231422
0.000180535
0.000215226
0.000237004
0.000186633
0.00011835
0.000161133
0.000158439
0.000161494
0.000209274
0.000158734
0.000236757
0.000133033
0.00015174
0.000184449
0.000184466
0.000260112
0.000148703
0.000164643
0.000227918
0.000230939
0.000216628
0.000205956
0.000211595
0.000164393
0.000257548
0.000211249
0.000237087
0.000107922
0.000169173
0.000212797
0.000169165
0.000258453
0.000306337
0.000300592
0.000105197
0.000211926
0.000287918
0.000271411
0.000296334
0.000256088
0.0002355
0.000336282
0.00027942
0.000276374
0.000187484
0.000219791
0.000232278
0.000122089
0.000240054
0.00026889
0.00025824
0.000181473
0.000163273
0.000181236
0.000342132
0.000163431
0.000220816
8.1722e-05
0.000267328
0.000223844
0.00015748
2.35189e-05
0.000183046
2.55787e-05
0.000203707
0.000194798
0.000173259
0.00015768
0.000149959
0.000289057
0.000240227
0.000230478
0.000195205
0.000186825
0.000156808
0.000273674
0.000278275
0.0002506
0.000220725
0.000223396
0.000166452
0.000334045
0.000214292
0.00011222
0.000150078
0.000299493
0.000280651
0.000204014
0.000196171
0.000124604
0.000203463
0.000203218
0.00017712
0.000324509
0.000333919
0.000287091
0.000315652
0.000248172
0.000140712
0.000312091
0.000135818
0.000175689
0.000145958
0.000297891
0.00029132
0.000292503
0.000194315
0.000119194
0.000129899
0.000214251
0.000262316
0.000119152
0.000162317
0.000252658
0.000190831
0.000308477
0.00015165
0.000251652
0.000228406
0.000220604
0.000140997
0.000179633
0.000200726
0.000287481
0.000167451
0.000260123
0.000301463
0.000306257
0.000200482
0.000167216
0.000166275
0.000262609
0.000220145
0.000166077
0.000109562
0.000162124
0.000161497
0.000281348
0.000169467
0.000171333
0.000185395
0.000165148
0.000248733
0.000173034
0.000152908
0.00019375
0.000182808
0.000220569
0.000246025
0.000236087
0.000201328
0.000235575
0.000179944
0.000272972
0.000292969
0.000162348
0.000287256
0.000162032
0.00028369
0.000260926
0.000243916
0.0002476
0.00028978
0.000136191
0.000178875
0.000166073
0.000291976
0.000287299
0.000266382
0.000290601
0.000295548
0.000248378
0.000304387
0.000203638
0.000183369
0.000332691
0.000192737
0.000302201
0.000240599
0.000152509
0.000184995
0.0003012
0.000251177
0.000228277
0.000293945
0.000288756
0.000185798
0.000185105
0.000178848
0.000256214
0.000282394
0.00032454
0.000311749
0.000339206
0.000307373
0.000335897
0.000281793
0.000295073
0.00029736
0.00028033
0.000294504
0.000271404
0.000267365
0.000188257
0.000253933
0.000296966
0.000205898
0.000303367
0.000278703
0.000321982
0.000192792
0.000306178
0.000292802
0.000189494
0.000262872
0.000188202
0.000295171
0.000268994
0.000197298
0.000185567
0.000159949
0.000184009
0.000295566
0.00013428
0.000227339
0.000184864
0.000207834
0.000306461
0.000296852
9.36222e-05
0.00029792
0.000160819
0.000174993
0.000304807
0.000247775
0.000177025
0.000340294
0.000192926
9.36214e-05
0.00017895
0.000264751
0.00033066
0.000250343
0.000295342
0.000276212
0.00014536
0.000141888
0.000120261
0.000137995
0.000198037
0.000150741
0.000243168
0.000151586
0.00026251
0.00018719
0.000179218
0.0002108
0.000195144
0.000260189
0.000187129
0.000192329
8.59144e-05
0.000195314
0.000282372
0.000282567
0.000255356
0.000186788
0.000122654
0.00035476
0.000237662
0.000198171
0.000182611
0.000183159
0.000188325
0.000231063
0.000185001
0.000131657
0.000182615
0.000124677
0.000227423
0.00018622
8.00758e-05
0.000175439
0.000208509
0.000186195
0.00028807
0.000193432
0.00025019
9.50292e-05
0.000200761
0.000191206
0.000168208
0.000179487
0.000212281
0.000200433
0.000209401
0.000177352
0.000180189
0.000194703
0.00026148
0.000183488
0.000260844
0.000235309
0.000186547
0.000190361
0.00019229
0.000212964
0.000192004
0.000179627
0.000204302
0.000215305
0.000253595
0.000192262
0.000190796
0.000277412
0.000273533
0.000183616
0.000186585
8.18733e-05
0.000224398
0.000154587
0.000210471
9.12094e-05
9.46818e-05
8.46211e-05
8.60033e-05
9.12437e-05
9.61073e-05
9.90487e-05
0.000236925
0.000175813
0.000176515
0.000201497
0.000196123
0.000193664
0.00020546
0.000189506
0.000193809
0.000198539
0.000192945
0.000238145
0.000174987
0.000244765
0.000189825
0.000183077
0.000193178
0.000207409
0.000215817
0.000200863
0.000230271
0.000214914
0.000199073
0.000143253
0.000200421
0.000196176
0.000211938
0.000202015
0.000191329
0.00018203
0.000200637
0.000209497
0.000284727
0.00018752
0.000276817
0.000288182
0.000197169
0.000276389
0.000211813
0.000169375
0.000231671
0.000202456
0.0001467
0.000126995
0.000228845
0.000243825
0.000205768
0.000170942
0.000206182
9.6326e-05
0.00020344
0.000190746
9.65417e-05
3.76586e-05
4.11968e-05
0.000176251
0.000187583
0.000218128
0.000209465
1.94033e-05
2.02745e-05
0.000207965
0.000210139
0.000198904
7.23022e-05
0.000175483
0.000204917
0.000208221
0.00017959
0.000158529
7.52742e-05
0.000301695
0.000188744
0.000231071
0.000234685
0.000168444
0.000213241
0.000164693
0.000181753
8.94639e-05
0.00013545
0.000213492
0.000215032
0.000184657
0.000193847
0.000200119
0.000211044
0.000201843
9.8675e-05
0.000177872
0.000199475
0.000189221
0.000284062
9.86465e-05
0.000153406
0.000157992
0.000150448
9.8143e-05
9.81489e-05
0.000172252
0.000138232
0.000198116
0.000105575
0.000117169
3.8343e-05
3.83426e-05
7.84349e-05
0.000127019
8.56256e-05
0.000168778
0.000183269
0.00019494
0.000219812
0.000199573
0.000184839
0.000145266
8.86525e-05
0.000182285
0.000189129
0.000183231
9.97792e-05
9.38786e-05
7.19392e-05
0.000182962
0.000186478
0.000149213
0.000169106
0.000156092
0.000143495
0.000191351
0.000143481
0.00016874
0.000163068
0.000100384
0.000123948
0.000113407
0.000202442
7.88475e-05
8.30873e-05
8.12312e-05
0.000191313
7.51247e-05
7.34803e-05
0.000132661
6.8566e-05
0.000155406
0.00015564
7.04007e-05
0.000168216
7.84005e-05
7.76714e-05
8.77759e-05
7.41002e-05
7.29823e-05
0.000110796
8.6821e-05
7.86511e-05
7.43419e-05
0.000154234
0.000176426
8.20569e-05
0.00017024
6.73797e-05
0.000172778
0.000137024
7.04179e-05
5.97912e-05
6.65058e-05
8.83177e-05
0.000148172
0.000122694
5.1541e-05
5.72001e-05
0.000165453
4.85149e-05
4.85141e-05
5.49685e-05
6.16316e-05
6.8401e-05
8.0909e-05
0.000133467
0.000123722
0.000165539
4.86995e-05
4.86988e-05
0.00014616
5.89484e-05
0.000117709
5.34274e-05
5.39217e-05
7.10529e-05
0.00012553
0.00012998
0.00013846
0.000126898
0.000125526
2.7476e-05
0.000202609
3.50244e-05
3.39674e-05
0.000163694
0.000162561
3.52021e-05
2.4443e-05
3.44177e-05
0.000150958
SCALARS rr_S' float
LOOKUP_TABLE default
0.00125959
0.00287745
0.00229752
0.00300347
0.00157149
0.00243847
0.00124543
0.00298675
0.00256723
0.00323362
0.0011433
0.0029959
0.00263633
0.0027847
0.00326365
0.00273818
0.00235561
0.00266253
0.00238394
0.00233128
0.00262236
0.000466401
0.00268685
0.00247642
0.00224476
0.0025901
0.00105959
0.00227482
0.00178348
0.00210386
0.00232903
0.00184367
0.00117373
0.0015762
0.00154928
0.00157975
0.00204542
0.0015524
0.00232664
0.00131929
0.00149906
0.00180269
0.00180288
0.00255609
0.00147304
0.00162619
0.00224356
0.00227219
0.00212962
0.00203614
0.00209097
0.00162201
0.00252216
0.00208423
0.002322
0.00106866
0.00165421
0.00209951
0.00165415
0.00254147
0.00300698
0.00294765
0.00104227
0.0020783
0.00282332
0.00266403
0.00290868
0.00251568
0.00231607
0.00330243
0.00273642
0.00270661
0.00185218
0.00215655
0.00228343
0.00121144
0.0023525
0.00263931
0.00253684
0.00179004
0.00161455
0.00177387
0.00335666
0.00161668
0.00218062
0.000809417
0.00262777
0.00219672
0.00155996
0.000229487
0.00180601
0.00024959
0.00199618
0.0019123
0.00170926
0.00155837
0.00148287
0.00283893
0.00235424
0.00226504
0.00192336
0.00184441
0.0015512
0.00268869
0.00273332
0.00246142
0.00216522
0.00219566
0.00164664
0.00328002
0.00210719
0.0011112
0.00148525
0.00294255
0.00275674
0.00201277
0.00191822
0.0012322
0.00198959
0.00200483
0.00174443
0.00318131
0.00327936
0.00281733
0.00309916
0.00243238
0.0013765
0.00306516
0.00134303
0.00173324
0.0014294
0.00292575
0.00285831
0.00287272
0.00191833
0.0011655
0.00128536
0.00210518
0.00257357
0.00116511
0.00160222
0.00248131
0.00187912
0.00302958
0.00149974
0.00247202
0.00224354
0.00216871
0.00138617
0.00177057
0.00197499
0.0028233
0.00165422
0.00255606
0.00296072
0.00300789
0.00196831
0.00165038
0.00164102
0.00258056
0.00216595
0.0016405
0.00108498
0.00160211
0.00159395
0.0027634
0.00167261
0.00169105
0.00183147
0.00162995
0.00243733
0.0017072
0.00151106
0.00190201
0.00180358
0.00216378
0.00241083
0.00231938
0.0019715
0.00231381
0.00177761
0.00268099
0.00287743
0.00160249
0.00281896
0.00160135
0.00278397
0.00255951
0.00239003
0.00243175
0.00284368
0.00134655
0.00176479
0.00164058
0.00286757
0.00282299
0.00261729
0.00285128
0.00290258
0.00243805
0.00298931
0.00200476
0.00180858
0.0032643
0.00190395
0.0029649
0.00236162
0.00150574
0.00181383
0.00295796
0.00246246
0.00224144
0.00288733
0.00283295
0.00183126
0.00181736
0.00176378
0.00251331
0.00277268
0.00318651
0.00306133
0.00333077
0.00301817
0.00329829
0.00276731
0.00289258
0.0029151
0.00274805
0.00288697
0.00265805
0.00261849
0.00185565
0.00249363
0.00291737
0.00202592
0.00297365
0.00273177
0.00316302
0.00190146
0.003008
0.0028757
0.00186759
0.00257736
0.00185496
0.0028958
0.00264281
0.00194445
0.00182994
0.00158173
0.00181951
0.00289976
0.0013282
0.00223424
0.00182312
0.00204623
0.00301082
0.00291472
0.000914951
0.0029253
0.00159083
0.00172577
0.00299442
0.00243419
0.00174605
0.00334129
0.00189963
0.000914952
0.00176474
0.0025994
0.00324511
0.00245971
0.00289506
0.00271072
0.00142352
0.00139429
0.00119061
0.00136678
0.00194001
0.00148258
0.00238894
0.00149405
0.00257375
0.00183763
0.00176741
0.00206934
0.00192267
0.00255559
0.00184368
0.00189684
0.000838872
0.00191367
0.00276777
0.00276973
0.00250768
0.00184017
0.00119996
0.00348178
0.00233821
0.00195222
0.00179962
0.00179427
0.00185609
0.00226424
0.00182294
0.00130415
0.0017991
0.00123306
0.00223083
0.00183532
0.000781874
0.00172872
0.00204585
0.00183533
0.0028268
0.00190607
0.00245929
0.000941721
0.00197389
0.00188453
0.0016479
0.00176913
0.00208849
0.00196681
0.00205641
0.00174759
0.00177517
0.00191719
0.00256494
0.00180771
0.00256258
0.00231301
0.0018269
0.00187539
0.00189355
0.00209484
0.00189048
0.00176986
0.00201151
0.00211124
0.00249145
0.00189317
0.00188053
0.00272452
0.00268637
0.00180905
0.00182729
0.000813585
0.00220584
0.00152869
0.00207021
0.000912305
0.000947023
0.000846332
0.000860182
0.000912561
0.000961315
0.000990685
0.00232394
0.00172057
0.0017345
0.00198251
0.00193094
0.00190684
0.00201803
0.00186604
0.00190853
0.00194292
0.00189976
0.00233476
0.00172651
0.00239985
0.00186627
0.00180131
0.00190214
0.00203176
0.00212149
0.00197614
0.00226355
0.00211436
0.0019603
0.0014131
0.00197197
0.00192862
0.00207776
0.00198873
0.00188425
0.00179207
0.00197424
0.00205966
0.00279655
0.00184614
0.00271892
0.00283354
0.00194005
0.00271524
0.00208258
0.00166774
0.00227339
0.00199158
0.0014358
0.00125795
0.00224469
0.00239091
0.00202297
0.00168152
0.00202383
0.000957057
0.0020001
0.00187643
0.000956645
0.000367727
0.000402264
0.00173257
0.00184688
0.00214549
0.00206205
0.000189129
0.00019762
0.00204303
0.00206436
0.0019541
0.000718385
0.00172807
0.00201051
0.00204878
0.00176724
0.00155986
0.000748066
0.00296071
0.00185843
0.00227153
0.00230705
0.0016576
0.00209795
0.00162068
0.00178839
0.000887147
0.00133957
0.00210044
0.00211381
0.00181648
0.00190767
0.00196873
0.0020759
0.00198553
0.000977419
0.0017435
0.00196385
0.0018574
0.00278749
0.000977212
0.00150811
0.00155336
0.00147336
0.000958422
0.000958486
0.00168772
0.00136128
0.00194763
0.00104598
0.00114449
0.000373838
0.000373836
0.000779586
0.00124224
0.000836998
0.00165941
0.00179599
0.00191557
0.00215866
0.00195834
0.00181322
0.00142712
0.000880845
0.00179168
0.00185668
0.00179778
0.000990142
0.000918016
0.000713003
0.00179522
0.00183122
0.00147041
0.00166181
0.00153355
0.00140515
0.00187966
0.00140503
0.00165875
0.00159993
0.000981456
0.00121174
0.00112352
0.00198777
0.000783961
0.000825924
0.000807884
0.00187747
0.000746534
0.000730982
0.00130551
0.000681833
0.001521
0.0015233
0.000699941
0.00165465
0.00077741
0.000772317
0.000870579
0.000736843
0.000723855
0.00108351
0.000860522
0.000781538
0.000739146
0.00151537
0.00173025
0.000814014
0.00167259
0.000670241
0.00169688
0.00134772
0.000700286
0.000593245
0.000661503
0.000877813
0.00145689
0.00120062
0.000502625
0.000557896
0.00162462
0.000473129
0.000473124
0.000536101
0.000601636
0.000677797
0.000791102
0.0013076
0.00121067
0.0016257
0.000475279
0.000475275
0.00142992
0.000585981
0.00115787
0.000531012
0.00053453
0.000704298
0.00122633
0.00126984
0.00135279
0.0012398
0.0012263
0.000268
0.0019795
0.000341818
0.000331239
0.00159912
0.00158803
0.000343262
0.000238407
0.000335881
0.001475
SCALARS rr_P' float
LOOKUP_TABLE default
6.70564e-05
0.00014854
0.000118919
0.00015513
8.04966e-05
0.000126222
6.63094e-05
0.000154316
0.000133223
0.000166945
6.07554e-05
0.000154789
0.000136297
0.000143707
0.000167661
0.000141661
0.000121434
0.000137617
0.000123885
0.00012076
0.000135892
2.36428e-05
0.000139235
0.000128273
0.000116284
0.000133805
5.60597e-05
0.000117706
9.34691e-05
0.000107314
0.00012042
9.66179e-05
6.2125e-05
8.05452e-05
7.90919e-05
8.07288e-05
0.000104299
7.92808e-05
0.000120304
6.98233e-05
7.85696e-05
9.19103e-05
9.19222e-05
0.000132159
7.77412e-05
8.51875e-05
0.000116512
0.00011785
0.000110222
0.000106917
0.000109674
8.47378e-05
0.000129254
0.000108874
0.000119024
5.63423e-05
8.44422e-05
0.000109673
8.44415e-05
0.000131629
0.000155033
0.00015158
5.50321e-05
0.00010689
0.000145181
0.000137331
0.00014995
0.000129957
0.000119996
0.000170467
0.000140243
0.000138717
9.70782e-05
0.000111064
0.000118176
6.42061e-05
0.000120776
0.00013606
0.000131054
9.34521e-05
8.48302e-05
9.07745e-05
0.000172837
8.50171e-05
0.000114176
4.27015e-05
0.000135968
0.000113186
8.23255e-05
1.16514e-05
9.43459e-05
1.26727e-05
0.000102468
9.86144e-05
8.92653e-05
8.17629e-05
7.79066e-05
0.000146573
0.00012087
0.000117133
0.000100125
9.65005e-05
8.158e-05
0.00013893
0.00014116
0.000127107
0.000111448
0.000113573
8.6603e-05
0.000169254
0.000109133
5.85854e-05
7.81966e-05
0.000152074
0.000142378
0.000105131
9.7923e-05
6.4745e-05
0.000101575
0.000104705
9.07141e-05
0.000163486
0.000169294
0.000145155
0.000159888
0.000124923
7.03445e-05
0.000158256
7.05598e-05
9.05191e-05
7.3259e-05
0.000151067
0.0001472
0.000148313
0.000100363
5.94959e-05
6.7645e-05
0.000108814
0.000132515
5.94774e-05
8.37963e-05
0.00012809
9.76708e-05
0.000156407
7.88128e-05
0.000127691
0.000115871
0.000112247
7.17507e-05
9.22587e-05
0.000102446
0.000145751
8.66963e-05
0.00013214
0.000152854
0.000155303
0.00010153
8.62875e-05
8.57906e-05
0.000133417
0.000112335
8.59577e-05
5.72157e-05
8.40333e-05
8.33413e-05
0.000142697
8.74517e-05
8.84201e-05
9.59835e-05
8.52176e-05
0.000125104
8.91794e-05
7.92601e-05
9.80819e-05
9.42076e-05
0.000111385
0.000123747
0.00011984
0.000101019
0.00011948
9.31569e-05
0.000138425
0.000148571
8.38064e-05
0.000145238
8.40134e-05
0.000143438
0.000131732
0.000122662
0.000125549
0.000146506
7.07211e-05
9.21834e-05
8.59766e-05
0.000148052
0.000145926
0.000135273
0.000146841
0.000149849
0.000125694
0.000154316
0.000104139
9.43977e-05
0.000168116
9.97735e-05
0.000152666
0.000121746
7.87954e-05
9.32406e-05
0.000152692
0.000126548
0.000115651
0.000149125
0.000145868
9.54113e-05
9.37468e-05
9.20304e-05
0.000129356
0.000143053
0.000164406
0.000158001
0.000171882
0.000155748
0.000170207
0.000142839
0.000148628
0.000149798
0.000141202
0.000148334
0.000136246
0.000134216
9.67033e-05
0.000128702
0.000150733
0.000105091
0.000152763
0.00014032
0.000163411
9.92383e-05
0.000155431
0.00014847
9.72904e-05
0.000132486
9.6646e-05
0.000149091
0.000136578
0.000101288
9.54695e-05
8.31119e-05
9.55888e-05
0.000149305
6.98301e-05
0.000115546
9.51287e-05
0.000106316
0.000155583
0.00015039
4.66411e-05
0.000150948
8.36542e-05
9.00489e-05
0.000154717
0.00012577
9.11406e-05
0.000172405
9.87219e-05
4.66421e-05
9.20762e-05
0.000134105
0.000167224
0.000127127
0.000148736
0.000139681
7.29515e-05
7.20861e-05
6.27418e-05
7.21071e-05
9.95039e-05
7.68225e-05
0.000123431
7.78401e-05
0.000132295
9.47636e-05
9.22188e-05
0.000106705
0.000100078
0.00013197
9.59634e-05
9.89905e-05
4.26637e-05
9.81979e-05
0.000142175
0.000142283
0.000129437
9.57591e-05
6.13388e-05
0.000179439
0.000121259
0.00010158
9.37298e-05
9.20302e-05
9.66936e-05
0.000116228
9.4913e-05
6.8822e-05
9.36287e-05
6.48092e-05
0.00011481
9.56104e-05
3.97664e-05
9.00067e-05
0.000105365
9.56448e-05
0.000145625
9.92495e-05
0.000127248
4.97468e-05
0.000102197
9.81814e-05
8.45348e-05
9.2185e-05
0.000108308
0.000101319
0.000106147
9.09945e-05
9.23799e-05
9.96429e-05
0.00013201
9.40779e-05
0.000132403
0.000119678
9.36278e-05
9.75948e-05
9.84281e-05
0.000108586
9.82356e-05
9.21336e-05
0.000104518
0.000108561
0.000128737
9.83954e-05
9.79797e-05
0.000140658
0.000138681
9.41595e-05
9.36504e-05
4.32808e-05
0.000114146
8.03217e-05
0.000107296
4.93327e-05
5.12083e-05
4.57555e-05
4.65078e-05
4.93356e-05
5.19848e-05
5.35661e-05
0.00011959
8.80228e-05
8.96697e-05
0.000102827
0.000100327
9.90871e-05
0.000104208
9.69875e-05
9.92108e-05
9.93917e-05
9.87207e-05
0.000119994
9.01936e-05
0.000123369
9.66122e-05
9.34322e-05
9.8855e-05
0.000104203
0.000109779
0.000102478
0.000117127
0.000109643
0.000101893
7.37817e-05
0.000102287
9.9827e-05
0.000106775
0.0001033
9.79677e-05
9.30947e-05
0.000102422
0.000106619
0.000144405
9.59072e-05
0.000140402
0.00014672
0.000100641
0.000140282
0.000107826
8.66714e-05
0.000117118
0.000103249
7.34715e-05
6.63823e-05
0.000115511
0.000122943
0.000104717
8.71652e-05
0.000104336
5.08932e-05
0.000103536
9.72834e-05
5.05265e-05
1.87054e-05
2.04605e-05
8.96582e-05
9.59614e-05
0.000111191
0.000107105
9.5756e-06
1.00055e-05
0.000105552
0.000106649
0.000100968
3.82033e-05
8.98323e-05
0.000103531
0.000106277
9.16969e-05
8.09198e-05
3.98032e-05
0.000152551
9.65769e-05
0.000117556
0.000119393
8.60119e-05
0.000108799
8.40971e-05
9.27756e-05
4.69426e-05
7.04025e-05
0.000108931
0.000109389
9.41672e-05
9.89996e-05
0.000102081
0.000107598
0.000102932
5.15775e-05
8.95609e-05
0.000102025
9.57633e-05
0.000143602
5.15765e-05
7.80571e-05
8.04208e-05
7.55093e-05
4.87645e-05
4.87684e-05
8.66077e-05
7.07686e-05
0.000100803
5.52231e-05
5.82673e-05
1.89405e-05
1.89406e-05
4.14947e-05
6.34425e-05
4.26933e-05
8.59104e-05
9.22028e-05
9.90312e-05
0.000111426
0.00010088
9.33317e-05
7.37365e-05
4.68445e-05
9.2688e-05
9.57493e-05
9.25812e-05
5.24873e-05
4.68708e-05
3.76775e-05
9.24605e-05
9.45134e-05
7.65759e-05
8.59254e-05
7.92448e-05
7.19991e-05
9.70901e-05
7.19943e-05
8.58378e-05
8.23885e-05
5.00871e-05
6.18264e-05
5.93109e-05
0.000102566
4.17606e-05
4.39697e-05
4.30652e-05
9.67364e-05
3.97144e-05
3.89909e-05
6.77483e-05
3.63338e-05
7.7827e-05
7.79462e-05
3.72802e-05
8.57665e-05
4.11314e-05
4.11465e-05
4.60886e-05
3.92613e-05
3.83212e-05
5.53265e-05
4.54787e-05
4.15716e-05
3.93714e-05
7.8314e-05
8.90035e-05
4.3115e-05
8.64346e-05
3.57442e-05
8.76044e-05
6.98436e-05
3.73216e-05
3.14365e-05
3.52712e-05
4.67231e-05
7.54363e-05
6.14054e-05
2.54804e-05
2.82936e-05
8.38321e-05
2.39871e-05
2.39872e-05
2.71843e-05
3.05805e-05
3.58007e-05
4.03794e-05
6.70859e-05
6.19188e-05
8.39192e-05
2.41425e-05
2.41426e-05
7.30897e-05
3.12003e-05
6.00216e-05
2.82608e-05
2.82599e-05
3.72289e-05
6.24562e-05
6.46773e-05
6.8916e-05
6.31554e-05
6.24557e-05
1.35935e-05
0.000100835
1.73633e-05
1.67908e-05
8.14372e-05
8.08694e-05
1.7398e-05
1.20911e-05
1.70596e-05
7.51554e-05
SCALARS rr_T' float
LOOKUP_TABLE default
0.000191597
0.000436583
0.000348664
0.000455723
0.000238291
0.000370056
0.000189445
0.000453194
0.000389675
0.000490627
0.000173886
0.000454583
0.000400043
0.000422498
0.000494995
0.00041552
0.000357368
0.000404013
0.000361895
0.00035381
0.000397997
7.06676e-05
0.000407787
0.000375836
0.00034068
0.000393006
0.000161092
0.000345211
0.00027093
0.00031892
0.000353414
0.000280074
0.000178451
0.000238965
0.000234864
0.000239504
0.000310053
0.000235343
0.000353055
0.000200581
0.000227726
0.000273257
0.000273286
0.000387869
0.000223904
0.000247027
0.000340566
0.000344875
0.000323183
0.000309364
0.000317665
0.000246336
0.000382461
0.000316532
0.000352115
0.000162422
0.000250769
0.000318852
0.00025076
0.000385705
0.000456193
0.000447098
0.000158432
0.000315238
0.000428238
0.000404155
0.000441276
0.000381713
0.000351507
0.000501062
0.000414953
0.000410432
0.00028137
0.000327142
0.000346521
0.000184205
0.000356781
0.000400406
0.000384926
0.000271841
0.00024532
0.000268958
0.00050919
0.000245661
0.000331234
0.000123028
0.000398771
0.000333248
0.000237116
3.47755e-05
0.00027428
3.7822e-05
0.000302739
0.00029012
0.000259579
0.000236757
0.00022531
0.000430743
0.000357045
0.00034371
0.000292017
0.000280147
0.000235714
0.000407974
0.000414728
0.000373468
0.000328445
0.000333188
0.000250217
0.000497651
0.000319797
0.000168889
0.000225714
0.000446499
0.000418282
0.000305676
0.000290793
0.000187225
0.000301615
0.000304468
0.000264829
0.000482519
0.000497566
0.000427396
0.000470204
0.000368908
0.000208687
0.000465069
0.000204063
0.000263222
0.000216756
0.00044392
0.000433599
0.000435869
0.000291372
0.000176684
0.000195328
0.00031944
0.0003904
0.000176625
0.000243353
0.000376476
0.000285265
0.000459667
0.000227878
0.000375087
0.000340414
0.000329115
0.000210361
0.000268842
0.00029977
0.000428371
0.000251296
0.000387861
0.000449219
0.000456381
0.000298623
0.00025066
0.000249237
0.000391582
0.00032875
0.000249207
0.000164907
0.000243396
0.000242092
0.000419288
0.000254037
0.000256839
0.000278222
0.000247557
0.000369642
0.000259272
0.000229563
0.000288557
0.000273908
0.00032823
0.000365622
0.000351933
0.000298954
0.000351071
0.000270037
0.00040678
0.000436586
0.000243393
0.00042764
0.000243285
0.000422335
0.000388252
0.000362464
0.000368962
0.00043139
0.000204591
0.000268017
0.000249222
0.00043509
0.000428364
0.000397148
0.000432533
0.0004404
0.000369875
0.000453556
0.000304324
0.00027465
0.000495187
0.000289229
0.000449763
0.000358279
0.000228709
0.000275113
0.000448799
0.000373487
0.000340069
0.000438098
0.000429746
0.000278054
0.000275723
0.00026784
0.000381243
0.000420673
0.00048346
0.000464479
0.000505354
0.000457924
0.000500426
0.000419868
0.000438722
0.00044214
0.000416801
0.000437869
0.000403075
0.000397074
0.000281763
0.000378342
0.000442675
0.000307499
0.000451011
0.000414321
0.000479947
0.000288754
0.00045643
0.000436321
0.000283567
0.000390922
0.000281652
0.000439277
0.000401021
0.000295236
0.000277883
0.000240334
0.000276461
0.000439879
0.000201821
0.000339038
0.000276851
0.000310625
0.000456859
0.000442224
0.000138689
0.000443832
0.000241731
0.000262069
0.000454368
0.000369353
0.000265157
0.000506945
0.000288375
0.000138689
0.000267985
0.000394381
0.000492297
0.000373234
0.000439094
0.000411226
0.000215862
0.000211573
0.00018095
0.000207745
0.000294202
0.00022501
0.000362486
0.000226852
0.000390374
0.00027879
0.000268391
0.000313943
0.00029191
0.000387758
0.000279917
0.000288051
0.000127135
0.000290218
0.000419783
0.000420082
0.000380475
0.000279378
0.000181927
0.000528204
0.000354894
0.000296388
0.00027324
0.000272101
0.000281821
0.000343393
0.000276774
0.000198231
0.000273145
0.00018736
0.000338392
0.000278668
0.000118497
0.000262468
0.000310352
0.000278677
0.000428828
0.000289398
0.000373204
0.000143152
0.000299559
0.000286141
0.000249907
0.000268624
0.000316992
0.000298366
0.000312008
0.000265336
0.000269511
0.000291043
0.000389075
0.000274452
0.000388834
0.000351004
0.000277031
0.000284725
0.000287457
0.000317942
0.000286983
0.000268711
0.000305355
0.000320231
0.000378043
0.000287397
0.000285536
0.000413379
0.000407589
0.000274659
0.00027709
0.00012375
0.000334745
0.000232274
0.000314202
0.000138966
0.000144254
0.000128915
0.000131025
0.000139003
0.000146432
0.000150904
0.000352515
0.000260875
0.000263198
0.00030091
0.000293124
0.000289466
0.000306194
0.000283279
0.000289732
0.000294587
0.000288393
0.00035412
0.000262206
0.000364002
0.000283224
0.000273407
0.000288757
0.000308114
0.000321943
0.000299938
0.0003435
0.000320916
0.00029759
0.0002146
0.000299312
0.000292682
0.000315137
0.00030189
0.000286051
0.000272038
0.000299659
0.00031257
0.000424316
0.000280247
0.000412538
0.000430023
0.000294469
0.000411996
0.000316053
0.000253174
0.000344875
0.000302274
0.0002177
0.000191209
0.000340492
0.000362652
0.000307002
0.000255212
0.000307034
0.000145568
0.000303531
0.000284798
0.000145419
5.57313e-05
6.09652e-05
0.000262925
0.000280363
0.000325624
0.000313018
2.86536e-05
2.99401e-05
0.000309999
0.000313233
0.000296508
0.000109266
0.000262338
0.000304987
0.000310969
0.000268243
0.000236762
0.000113787
0.000449148
0.00028212
0.000344716
0.000350105
0.000251601
0.000318427
0.000245998
0.000271449
0.000134876
0.000203543
0.000318806
0.00032078
0.000275696
0.000289561
0.000298809
0.000315067
0.000301355
0.000148567
0.000264432
0.000298117
0.000281786
0.000422864
0.000148538
0.000228866
0.000235738
0.000223421
0.000145258
0.000145268
0.000255954
0.000206656
0.000295564
0.000158994
0.000173467
5.66404e-05
5.66401e-05
0.000118585
0.000188324
0.000126879
0.000251831
0.00027238
0.000290673
0.000327521
0.000297081
0.000275049
0.000216545
0.000133977
0.000271888
0.000281682
0.000272717
0.000150559
0.00013917
0.000108387
0.000272332
0.000277838
0.000223255
0.000252169
0.000232696
0.000213076
0.000285204
0.000213057
0.000251721
0.000242702
0.000148783
0.000183689
0.00017078
0.000301585
0.000119255
0.000125632
0.000122902
0.000284817
0.000113551
0.00011121
0.000198161
0.000103723
0.000230616
0.000230964
0.000106473
0.000251133
0.000118191
0.000117485
0.000132363
0.00011209
0.000110055
0.000164258
0.000130816
0.000118874
0.000112438
0.000229938
0.000262451
0.000123768
0.000253795
0.000101967
0.00025746
0.000204546
0.000106531
9.02045e-05
0.000100636
0.000133526
0.0002211
0.000182033
7.61567e-05
8.45339e-05
0.000246488
7.1688e-05
7.16873e-05
8.12305e-05
9.1177e-05
0.000103033
0.000119927
0.000198302
0.000183558
0.000246659
7.20242e-05
7.20237e-05
0.000216789
8.91377e-05
0.000175736
8.07721e-05
8.12598e-05
0.000107067
0.000185876
0.000192472
0.000205048
0.00018792
0.000185872
4.06084e-05
0.000300038
5.17996e-05
5.01884e-05
0.00024238
0.000240698
5.20095e-05
3.6124e-05
5.08993e-05
0.000223575
SCALARS rr_uec(SIM,_S_ext) float
LOOKUP_TABLE default
0.0157433
0.0358484
0.028631
0.0374206
0.0195624
0.0303876
0.0155665
0.0372129
0.0320004
0.040286
0.0142878
0.0373269
0.032849
0.0346915
0.0406396
0.0341205
0.0293429
0.0331749
0.0297202
0.0290541
0.0326828
0.0057999
0.0334869
0.0308627
0.0279759
0.0322708
0.013235
0.0283471
0.0222542
0.0261789
0.0290202
0.0230052
0.0146613
0.0196166
0.0192795
0.0196609
0.0254509
0.0193189
0.0289907
0.0164794
0.0187054
0.0224304
0.0224328
0.0318494
0.0183946
0.0202906
0.0279681
0.0283211
0.0265385
0.0254123
0.0260935
0.0202325
0.0313984
0.0259978
0.0289073
0.0133431
0.020585
0.0261885
0.0205843
0.0316731
0.0374574
0.0367081
0.0130157
0.0258821
0.0351596
0.0331843
0.0362325
0.0313434
0.0288651
0.0411428
0.034066
0.0336948
0.0231117
0.0268603
0.0284549
0.0151346
0.0292915
0.0328765
0.0316072
0.022327
0.0201517
0.0220795
0.0418075
0.0201802
0.0272068
0.0101071
0.0327453
0.0273619
0.01948
0.00285423
0.0225276
0.00310428
0.0248546
0.0238213
0.02132
0.0194478
0.0185079
0.0353689
0.0293132
0.0282235
0.0239824
0.0230102
0.0193631
0.0335
0.0340541
0.0306662
0.026967
0.0273596
0.0205545
0.0408625
0.0262609
0.0138746
0.0185421
0.0366636
0.0343461
0.0251062
0.0238704
0.0153795
0.0247588
0.0250069
0.0217491
0.0396157
0.0408559
0.0350922
0.0386085
0.0302875
0.0171311
0.0381875
0.0167626
0.0216192
0.0177949
0.0364511
0.0356012
0.03579
0.0239322
0.0145036
0.0160457
0.0262303
0.0320542
0.0144987
0.0199879
0.0309127
0.0234271
0.0377438
0.0187189
0.0307993
0.0279519
0.0270255
0.017274
0.0220797
0.0246172
0.0351741
0.0206415
0.0318487
0.0368859
0.0374743
0.0245198
0.0205879
0.020471
0.0321544
0.0269968
0.0204698
0.0135475
0.019993
0.0198842
0.0344284
0.0208653
0.0210955
0.0228531
0.0203331
0.0303473
0.0212949
0.0188567
0.0236931
0.022497
0.0269494
0.0300173
0.0288981
0.0245427
0.028827
0.0221808
0.0334013
0.0358487
0.0199912
0.0351121
0.019984
0.0346767
0.0318773
0.0297578
0.030296
0.03542
0.0168058
0.0220132
0.0204711
0.035726
0.0351746
0.0326112
0.0355137
0.0361619
0.0303697
0.0372421
0.024992
0.0225576
0.040658
0.0237572
0.0369282
0.0294175
0.0187855
0.0225874
0.0368515
0.0306638
0.027923
0.0359732
0.0352846
0.0228362
0.0226393
0.0219981
0.0313018
0.0345416
0.039697
0.038139
0.041495
0.0376005
0.0410904
0.0344756
0.0360198
0.0363005
0.0342201
0.0359497
0.0330908
0.0325982
0.0231409
0.0310659
0.0363495
0.0252519
0.0370284
0.034016
0.03941
0.023716
0.0374792
0.0358269
0.0232889
0.0320955
0.0231317
0.036067
0.0329294
0.0242472
0.0228229
0.0197421
0.0227099
0.0361166
0.0165787
0.0278399
0.0227383
0.0255096
0.0375144
0.0363112
0.0113842
0.0364433
0.0198571
0.0215242
0.0373097
0.0303285
0.021778
0.0416256
0.0236824
0.0113843
0.02201
0.0323827
0.0404212
0.0306476
0.0360501
0.0337645
0.0177213
0.0173731
0.0148652
0.0170669
0.0241532
0.0184774
0.0297646
0.018631
0.0320505
0.0228911
0.0220434
0.0257773
0.0239736
0.0318393
0.0229886
0.0236582
0.0104352
0.0238265
0.0344646
0.0344892
0.0312411
0.0229442
0.0149345
0.0433695
0.0291437
0.0243411
0.0224406
0.0223388
0.0231455
0.0281922
0.0227306
0.0162854
0.0224324
0.0153907
0.0277836
0.0228866
0.00972621
0.0215557
0.0254818
0.0228875
0.0352096
0.0237674
0.0306457
0.0117605
0.0245988
0.0235004
0.0205168
0.0220618
0.0260313
0.0244977
0.0256193
0.0217913
0.0221339
0.0239016
0.0319448
0.0225397
0.0319281
0.0288228
0.022743
0.0233834
0.0236071
0.026109
0.023568
0.0220684
0.0250768
0.0262918
0.0310421
0.0236021
0.0234507
0.0339429
0.0334675
0.0225568
0.0227479
0.0101686
0.0274877
0.01908
0.0258018
0.0114237
0.0118584
0.0105974
0.0107709
0.0114267
0.0120373
0.0124049
0.028943
0.0214157
0.0216122
0.0247107
0.0240723
0.023772
0.0251419
0.023264
0.023794
0.0241832
0.0236838
0.0290738
0.0215359
0.0298855
0.0232573
0.0224522
0.0237138
0.0252953
0.0264364
0.0246308
0.0282066
0.0263535
0.0244393
0.0176257
0.0245795
0.0240338
0.0258732
0.024792
0.0234919
0.0223406
0.0246082
0.025667
0.0348411
0.0230148
0.033874
0.0353121
0.0241818
0.0338299
0.0259532
0.0207916
0.0283166
0.0248224
0.0178716
0.0157085
0.0279559
0.0297747
0.0252098
0.0209576
0.02521
0.0119612
0.0249249
0.0233873
0.0119467
0.00457442
0.005004
0.0215903
0.0230244
0.0267397
0.0257059
0.00235159
0.00245718
0.0254549
0.0257203
0.024347
0.00897825
0.0215444
0.0250412
0.0255368
0.0220283
0.019443
0.00934991
0.0368782
0.0231688
0.0283065
0.0287491
0.0206617
0.0261491
0.0202016
0.0222914
0.0110812
0.01672
0.0261803
0.026341
0.0226399
0.023779
0.024538
0.0258728
0.0247469
0.0122053
0.02171
0.0244823
0.023137
0.03472
0.012203
0.0187935
0.019358
0.0183419
0.011923
0.0119238
0.0210135
0.0169716
0.0242705
0.0130621
0.0142386
0.00464858
0.00464856
0.00974422
0.0154593
0.010415
0.0206794
0.0223623
0.0238683
0.0268931
0.0243923
0.0225828
0.017781
0.0110088
0.022326
0.0231285
0.0223917
0.0123702
0.0114242
0.00890448
0.0223602
0.0228134
0.0183354
0.0207067
0.0191073
0.0174926
0.0234187
0.0174911
0.0206702
0.0199273
0.0122131
0.0150784
0.0140303
0.0247632
0.00979922
0.010323
0.0100991
0.0233854
0.00933043
0.00913846
0.0162731
0.00852305
0.0189318
0.0189605
0.00874888
0.0206228
0.00971031
0.00965376
0.0108748
0.00921048
0.00904203
0.0134837
0.0107474
0.00976782
0.00923904
0.0188809
0.0215481
0.0101688
0.0208398
0.00837895
0.0211403
0.016797
0.00875374
0.00741131
0.00826941
0.010972
0.018156
0.0149434
0.00625043
0.00693804
0.0202391
0.00588368
0.00588363
0.00666689
0.00748369
0.0084647
0.0098445
0.0162802
0.0150685
0.0202533
0.00591155
0.00591151
0.0177962
0.00732462
0.0144313
0.00663706
0.00667592
0.00879617
0.0152573
0.0157988
0.0168311
0.0154252
0.0152569
0.0033329
0.024628
0.00425156
0.00411909
0.0198951
0.0197571
0.00426854
0.00296484
0.00417766
0.0183519
SCALARS rr_uec(PEX,_P_ext) float
LOOKUP_TABLE default
-0.0628904
-0.143317
-0.114455
-0.149601
-0.0782248
-0.121478
-0.0621841
-0.14877
-0.127917
-0.161058
-0.0570778
-0.149226
-0.131322
-0.138694
-0.162494
-0.136402
-0.117314
-0.132625
-0.118798
-0.116144
-0.130649
-0.0231988
-0.133863
-0.123375
-0.111834
-0.129012
-0.0528783
-0.113322
-0.088935
-0.104694
-0.116015
-0.0919365
-0.0585765
-0.0784468
-0.0771005
-0.0786235
-0.101784
-0.0772576
-0.115897
-0.0658405
-0.0747529
-0.0897043
-0.0897138
-0.127325
-0.0734973
-0.0810888
-0.111796
-0.113211
-0.106091
-0.101551
-0.104276
-0.0808625
-0.125552
-0.103905
-0.11559
-0.0533153
-0.0823215
-0.104667
-0.0823188
-0.126615
-0.149755
-0.14677
-0.0520053
-0.103484
-0.140579
-0.132672
-0.144858
-0.125305
-0.115388
-0.164484
-0.136219
-0.134734
-0.0923619
-0.107391
-0.113752
-0.0604651
-0.117122
-0.131442
-0.12636
-0.0892348
-0.0805277
-0.0882923
-0.167153
-0.0806396
-0.10873
-0.0403842
-0.130904
-0.109396
-0.077834
-0.0114161
-0.0900352
-0.0124162
-0.0993813
-0.095238
-0.0852094
-0.0777174
-0.0739592
-0.1414
-0.117209
-0.112829
-0.0958585
-0.0919607
-0.0773744
-0.133926
-0.136143
-0.122599
-0.10782
-0.109375
-0.082135
-0.163365
-0.104979
-0.0554385
-0.0740915
-0.146572
-0.13731
-0.100341
-0.0954605
-0.0614576
-0.099013
-0.0999448
-0.0869341
-0.158398
-0.163337
-0.140302
-0.154355
-0.121103
-0.0685071
-0.152668
-0.0669848
-0.0864053
-0.0711557
-0.145726
-0.142338
-0.143083
-0.0956454
-0.0580014
-0.0641172
-0.104862
-0.128158
-0.0579819
-0.0798827
-0.123586
-0.0936424
-0.150895
-0.0748021
-0.12313
-0.111747
-0.108038
-0.0690548
-0.0882507
-0.0984045
-0.140622
-0.08249
-0.127323
-0.147465
-0.149817
-0.0980293
-0.0822814
-0.0818145
-0.128544
-0.107917
-0.0818045
-0.0541314
-0.0798967
-0.0794688
-0.13764
-0.08339
-0.0843098
-0.0913286
-0.0812628
-0.121344
-0.0851086
-0.0753559
-0.094725
-0.0899132
-0.107749
-0.120024
-0.115529
-0.098139
-0.115246
-0.0886418
-0.133534
-0.143318
-0.0798961
-0.140382
-0.0798601
-0.138641
-0.127452
-0.118987
-0.121119
-0.141613
-0.0671582
-0.0879795
-0.0818093
-0.142827
-0.140619
-0.130372
-0.141988
-0.144571
-0.121419
-0.148889
-0.099899
-0.0901571
-0.162556
-0.0949417
-0.147645
-0.117613
-0.0750759
-0.0903122
-0.147328
-0.122606
-0.111635
-0.143815
-0.141074
-0.0912748
-0.0905116
-0.0879216
-0.125151
-0.138095
-0.158706
-0.152475
-0.165893
-0.150323
-0.164275
-0.13783
-0.144021
-0.145143
-0.136825
-0.143741
-0.132319
-0.130349
-0.0924923
-0.124199
-0.145317
-0.100942
-0.148055
-0.136011
-0.157553
-0.094787
-0.149833
-0.143231
-0.0930846
-0.128329
-0.092456
-0.144202
-0.131643
-0.0969151
-0.0912186
-0.0788909
-0.0907502
-0.1444
-0.0662486
-0.111295
-0.0908797
-0.101967
-0.149974
-0.14517
-0.0455285
-0.145697
-0.0793491
-0.0860272
-0.149156
-0.121247
-0.0870407
-0.166416
-0.0946634
-0.0455286
-0.0879693
-0.129464
-0.161607
-0.122522
-0.144143
-0.134994
-0.0708619
-0.069453
-0.0593976
-0.068193
-0.0965789
-0.0738635
-0.118993
-0.074467
-0.128149
-0.0915187
-0.0881026
-0.103058
-0.0958234
-0.127289
-0.0918863
-0.0945561
-0.0417357
-0.095271
-0.137804
-0.137902
-0.124899
-0.0917094
-0.0597225
-0.173394
-0.1165
-0.0972933
-0.0896945
-0.0893237
-0.0925115
-0.112727
-0.0908545
-0.0650699
-0.0896635
-0.061502
-0.111085
-0.0914764
-0.0389001
-0.0861586
-0.10188
-0.0914794
-0.140772
-0.0949985
-0.122511
-0.0469896
-0.0983357
-0.0939295
-0.0820379
-0.0881792
-0.104058
-0.0979449
-0.102423
-0.0870999
-0.0884705
-0.0955393
-0.127722
-0.0900924
-0.127642
-0.115224
-0.0909421
-0.0934649
-0.0943619
-0.10437
-0.0942064
-0.088208
-0.100237
-0.105123
-0.1241
-0.0943422
-0.0937308
-0.1357
-0.133799
-0.0901605
-0.0909617
-0.0406208
-0.109886
-0.0762452
-0.103142
-0.045614
-0.0473497
-0.0423147
-0.0430075
-0.0456262
-0.0480643
-0.0495322
-0.115721
-0.0856389
-0.0863998
-0.0987786
-0.0962223
-0.0950216
-0.100514
-0.0929904
-0.0951087
-0.0967057
-0.0946693
-0.116248
-0.0860718
-0.119492
-0.0929733
-0.0897503
-0.0947887
-0.101146
-0.105683
-0.0984595
-0.11276
-0.105346
-0.0976882
-0.0704448
-0.0982539
-0.096078
-0.103451
-0.0990999
-0.0939004
-0.0893007
-0.0983681
-0.102607
-0.13929
-0.0919955
-0.135424
-0.141163
-0.0966641
-0.135246
-0.10375
-0.083108
-0.113213
-0.0992265
-0.0714658
-0.0627648
-0.111774
-0.119049
-0.100779
-0.0837774
-0.10079
-0.0477823
-0.0996397
-0.0934896
-0.0477337
-0.0182954
-0.0200136
-0.0863101
-0.0920334
-0.106892
-0.102753
-0.00940642
-0.00982876
-0.101763
-0.102825
-0.0973344
-0.0358662
-0.0861165
-0.100119
-0.102081
-0.088055
-0.0777209
-0.0373502
-0.147443
-0.0926101
-0.113159
-0.114928
-0.0825922
-0.104529
-0.0807529
-0.0891074
-0.0442732
-0.066814
-0.104653
-0.105302
-0.0905019
-0.095053
-0.0980891
-0.103426
-0.0989248
-0.0487676
-0.0868059
-0.0978615
-0.0925022
-0.138814
-0.048758
-0.0751293
-0.0773852
-0.0733434
-0.0476854
-0.0476886
-0.0840231
-0.067838
-0.0970243
-0.0521903
-0.0569457
-0.018594
-0.0185939
-0.038925
-0.0618224
-0.0416514
-0.082668
-0.0894153
-0.0954189
-0.107516
-0.0975233
-0.0902908
-0.071085
-0.0439777
-0.0892521
-0.0924679
-0.0895254
-0.0494207
-0.0456862
-0.035578
-0.0893991
-0.0912059
-0.0732865
-0.0827794
-0.0763869
-0.0699474
-0.093624
-0.0699413
-0.082632
-0.0796724
-0.0488419
-0.0603009
-0.056059
-0.0990015
-0.0391447
-0.0412378
-0.0403418
-0.0934972
-0.0372728
-0.0365037
-0.0650493
-0.0340464
-0.0757055
-0.07582
-0.0349491
-0.0824387
-0.0387962
-0.0385636
-0.0434481
-0.0367927
-0.0361255
-0.0539222
-0.0429405
-0.0390201
-0.036907
-0.0754817
-0.0861553
-0.0406267
-0.083313
-0.03347
-0.0845165
-0.0671459
-0.034968
-0.0296095
-0.0330328
-0.0438296
-0.07258
-0.0597571
-0.0250008
-0.0277509
-0.0809148
-0.0235338
-0.0235336
-0.0266664
-0.0299316
-0.0338208
-0.0393693
-0.0650973
-0.0602575
-0.0809708
-0.0236441
-0.0236439
-0.0711666
-0.0292592
-0.0576884
-0.0265131
-0.0266734
-0.0351448
-0.0610193
-0.0631846
-0.0673131
-0.0616903
-0.0610178
-0.013331
-0.0984959
-0.0170047
-0.0164759
-0.079568
-0.0790159
-0.0170737
-0.0118588
-0.0167092
-0.0733948
SCALARS cell_type float
LOOKUP_TABLE default
0
0
0
0
0
0
0
0
0
0
0
0
0
0
0
0
0
0
0
0
0
1
0
0
0
0
0
0
0
0
0
0
0
0
0
0
0
0
0
0
0
0
0
0
0
0
0
0
0
0
0
0
0
0
0
0
0
0
0
0
0
0
0
0
0
0
0
0
0
0
0
0
0
0
0
0
0
0
0
0
0
0
0
0
0
0
0
0
0
0
0
0
0
0
0
0
0
0
0
0
0
0
0
0
0
0
0
0
0
0
0
0
0
0
0
0
0
0
0
0
0
0
0
0
0
0
0
0
0
0
0
0
0
0
0
0
0
0
0
0
0
0
0
0
0
0
0
0
0
0
0
0
0
0
0
0
0
0
0
0
0
0
0
0
0
0
0
0
0
0
0
0
0
0
0
0
0
0
0
0
0
0
0
0
0
0
0
0
0
0
0
0
0
0
0
0
0
0
0
0
0
0
0
0
0
0
0
0
0
0
0
0
0
0
0
0
0
0
0
0
0
0
0
0
0
0
0
0
0
0
0
0
0
0
0
0
0
0
0
0
0
0
0
0
0
0
0
0
0
0
0
0
0
0
0
0
0
0
0
0
0
0
0
0
0
0
0
0
0
0
0
0
0
0
0
0
0
0
0
0
0
0
0
0
0
0
0
0
0
0
0
0
0
0
0
0
0
0
0
0
0
0
0
0
0
0
0
0
0
0
0
0
0
0
0
0
0
0
0
0
0
0
0
0
0
0
0
0
0
0
0
0
0
0
0
0
0
0
0
0
0
0
0
0
0
0
0
0
0
0
2
2
2
2
2
2
2
0
0
0
0
0
0
0
0
0
0
0
0
0
0
0
0
0
0
0
0
0
0
0
0
0
0
0
0
0
0
0
0
0
0
0
0
0
0
0
0
0
0
0
0
0
0
0
0
0
0
0
0
0
0
0
0
0
0
0
1
1
0
0
0
0
0
0
0
0
0
0
0
0
0
0
0
0
0
0
0
0
0
0
0
0
0
0
0
0
0
0
0
0
0
0
0
0
0
0
0
0
0
0
0
1
1
0
0
0
0
0
0
0
0
0
0
0
0
0
0
0
0
0
0
0
0
0
0
0
0
0
0
0
0
0
0
0
0
0
0
0
0
0
0
0
0
0
0
0
0
0
0
0
0
0
0
0
0
0
0
0
0
0
0
0
0
0
0
0
0
0
1
1
0
0
0
0
0
0
0
0
0
0
0
0
0
0
0
0
0
0
0
0
0
0
0
0
0
0
0
0
0
0
0
0
0
TENSORS Lagrange_strain float
0.0305704 -0.0031984 -5.74043e-08
-0.0031984 0.0133899 1.58181e-08
-5.74043e-08 1.58181e-08 0.00740248

0.0291956 -0.00280102 1.42767e-07
-0.00280102 0.0335568 6.04703e-08
1.42767e-07 6.04703e-08 0.0331662

0.0300239 0.00367941 -7.24208e-08
0.00367941 0.0311727 -8.88016e-08
-7.24208e-08 -8.88016e-08 0.0304705

0.029165 -0.00392508 8.04401e-08
-0.00392508 0.0328019 3.94431e-08
8.04401e-08 3.94431e-08 0.033091

0.0353691 0.00266917 -6.67917e-09
0.00266917 0.0380872 5.66532e-08
-6.67917e-09 5.66532e-08 0.0352946

0.027738 -0.00236747 -1.63044e-07
-0.00236747 0.0333874 1.02116e-07
-1.63044e-07 1.02116e-07 0.0304416

0.0302643 0.00339419 -6.33089e-08
0.00339419 0.0134955 2.70075e-07
-6.33089e-08 2.70075e-07 0.00746388

0.0317572 0.00393983 -9.25057e-08
0.00393983 0.0312031 -9.33192e-08
-9.25057e-08 -9.33192e-08 0.0315633

0.0332451 0.000715459 5.05475e-08
0.000715459 0.0262238 -2.168e-08
5.05475e-08 -2.168e-08 0.0281447

0.0354706 -0.000991343 -4.0028e-08
-0.000991343 0.0275541 -1.23446e-07
-4.0028e-08 -1.23446e-07 0.0327237

0.0280638 0.00205131 4.44912e-08
0.00205131 0.01381 -3.47466e-07
4.44912e-08 -3.47466e-07 0.0117546

0.027956 -0.00176597 -1.37892e-07
-0.00176597 0.0350095 1.82558e-07
-1.37892e-07 1.82558e-07 0.0315519

0.0311239 0.00365748 -1.00378e-07
0.00365748 0.031303 -1.39372e-07
-1.00378e-07 -1.39372e-07 0.0310822

0.0290718 -0.00188009 -1.39919e-08
-0.00188009 0.0348023 2.54916e-08
-1.39919e-08 2.54916e-08 0.0325492

0.0346335 0.00441801 -3.58209e-08
0.00441801 0.0343654 1.03479e-07
-3.58209e-08 1.03479e-07 0.0348871

0.034331 7.29748e-05 4.89116e-10
7.29748e-05 0.0272886 -4.97029e-08
4.89116e-10 -4.97029e-08 0.0307811

0.0286957 -0.00235364 -8.70569e-10
-0.00235364 0.0360164 7.08618e-08
-8.70569e-10 7.08618e-08 0.0334528

0.0345762 -0.000353002 -9.53997e-08
-0.000353002 0.027359 -5.39208e-08
-9.53997e-08 -5.39208e-08 0.0319798

0.0269226 0.00347859 1.61829e-07
0.00347859 0.0309479 9.03244e-08
1.61829e-07 9.03244e-08 0.0275791

0.033888 -0.000550513 1.19876e-07
-0.000550513 0.0264118 1.22795e-07
1.19876e-07 1.22795e-07 0.0301369

0.0266245 0.00113538 -1.61693e-07
0.00113538 0.0340366 8.56763e-09
-1.61693e-07 8.56763e-09 0.0291525

0.0452949 0.000851376 -1.49162e-07
0.000851376 0.0452648 -2.3619e-07
-1.49162e-07 -2.3619e-07 0.0366403

0.0336782 0.000247494 -9.48786e-08
0.000247494 0.0263178 -6.36027e-09
-9.48786e-08 -6.36027e-09 0.0298078

0.0293123 -0.00363244 3.81984e-08
-0.00363244 0.0311388 -9.09719e-08
3.81984e-08 -9.09719e-08 0.0300493

0.0337831 0.000900154 -3.01588e-08
0.000900154 0.0264987 2.46438e-08
-3.01588e-08 2.46438e-08 0.0300839

0.0285487 0.0025076 1.57052e-07
0.0025076 0.0338968 2.38968e-08
1.57052e-07 2.38968e-08 0.0322896

0.0286321 0.000526832 -1.92189e-07
0.000526832 0.0176911 1.43758e-07
-1.92189e-07 1.43758e-07 0.0131726

0.0309169 0.00403476 -1.9023e-07
0.00403476 0.0306492 6.0981e-08
-1.9023e-07 6.0981e-08 0.0306133

0.0259272 0.00477697 1.87457e-07
0.00477697 0.0257354 6.70921e-08
1.87457e-07 6.70921e-08 0.02113

0.0415304 0.00136982 1.62321e-07
0.00136982 0.0383521 1.45562e-08
1.62321e-07 1.45562e-08 0.0361375

0.034414 0.00187129 -6.57165e-08
0.00187129 0.0279551 -3.88084e-08
-6.57165e-08 -3.88084e-08 0.0310027

0.0217616 -0.00228818 -4.05997e-08
-0.00228818 0.0299951 -1.30163e-07
-4.05997e-08 -1.30163e-07 0.0211269

0.0228654 -0.005353 8.04819e-08
-0.005353 0.0234749 -1.91188e-07
8.04819e-08 -1.91188e-07 0.0125801

0.0348344 0.000800817 6.64834e-08
0.000800817 0.0422566 -1.27564e-07
6.64834e-08 -1.27564e-07 0.0357886

0.0374551 -0.000661389 1.55907e-07
-0.000661389 0.0412044 -1.84303e-07
1.55907e-07 -1.84303e-07 0.0359032

0.0410764 0.00281318 -8.77179e-08
0.00281318 0.0359881 9.93402e-08
-8.77179e-08 9.93402e-08 0.0357688

0.0372557 0.000705263 1.31255e-07
0.000705263 0.0432165 -7.60281e-08
1.31255e-07 -7.60281e-08 0.0361439

0.0402619 -0.00121871 3.2278e-07
-0.00121871 0.037832 -1.65676e-07
3.2278e-07 -1.65676e-07 0.0358105

0.0312184 -0.00367817 8.34429e-08
-0.00367817 0.0311263 -8.83123e-08
8.34429e-08 -8.83123e-08 0.0309281

0.0227493 0.00527961 2.97101e-07
0.00527961 0.023711 5.05979e-08
2.97101e-07 5.05979e-08 0.0125822

0.0297638 -0.00231615 4.61961e-08
-0.00231615 0.0220328 -2.31243e-07
4.61961e-08 -2.31243e-07 0.0208768

0.0376209 -0.000522647 -3.95587e-08
-0.000522647 0.0430649 -1.91001e-07
-3.95587e-08 -1.91001e-07 0.0361466

0.0412424 0.00263409 -9.1573e-08
0.00263409 0.0394164 5.76391e-08
-9.1573e-08 5.76391e-08 0.0361291

0.0343043 -0.00161706 1.67505e-07
-0.00161706 0.0279971 -7.77308e-08
1.67505e-07 -7.77308e-08 0.0310867

0.0231077 -0.00552642 -1.39383e-07
-0.00552642 0.0235646 4.8651e-08
-1.39383e-07 4.8651e-08 0.0162175

0.0299461 -0.00233273 3.57114e-08
-0.00233273 0.022157 -1.18018e-07
3.57114e-08 -1.18018e-07 0.0213462

0.025896 0.00222763 -8.79026e-08
0.00222763 0.0326574 -1.45613e-07
-8.79026e-08 -1.45613e-07 0.0279178

0.0275535 0.00252911 1.27566e-07
0.00252911 0.0323767 1.41854e-07
1.27566e-07 1.41854e-07 0.0284934

0.0341782 -0.00214099 6.22958e-08
-0.00214099 0.0271097 -1.783e-07
6.22958e-08 -1.783e-07 0.0304748

0.0229045 -0.00439299 4.49641e-08
-0.00439299 0.0272516 -1.79833e-07
4.49641e-08 -1.79833e-07 0.0198521

0.0294965 0.00247189 -7.73775e-08
0.00247189 0.0218361 9.85956e-08
-7.73775e-08 9.85956e-08 0.0202828

0.0298751 -0.00327133 -1.7718e-08
-0.00327133 0.0245157 -1.41048e-07
-1.7718e-08 -1.41048e-07 0.0230503

0.0344797 0.00257762 6.29936e-08
0.00257762 0.0382059 -4.40628e-08
6.29936e-08 -4.40628e-08 0.0352734

0.0286921 0.00383906 3.264e-08
0.00383906 0.025782 7.12266e-08
3.264e-08 7.12266e-08 0.0231189

0.0349308 -0.00291568 8.06861e-08
-0.00291568 0.0374344 -2.03021e-07
8.06861e-08 -2.03021e-07 0.0351918

0.0255822 -0.00545602 -1.73517e-07
-0.00545602 0.0229042 1.99927e-07
-1.73517e-07 1.99927e-07 0.015821

0.0373486 0.000745992 2.11382e-07
0.000745992 0.0414153 1.8164e-07
2.11382e-07 1.8164e-07 0.0359237

0.0231697 -0.000693311 -3.5968e-08
-0.000693311 0.0313163 -1.22312e-07
-3.5968e-08 -1.22312e-07 0.0231049

0.0410315 0.00137974 1.58661e-07
0.00137974 0.0377087 -5.14663e-08
1.58661e-07 -5.14663e-08 0.0359018

0.0276783 0.00280531 5.5914e-08
0.00280531 0.0327527 -1.15423e-07
5.5914e-08 -1.15423e-07 0.0302338

0.036142 0.000784928 -3.48802e-09
0.000784928 0.0281345 8.25452e-08
-3.48802e-09 8.25452e-08 0.0336759

0.0362573 0.00153431 -1.74892e-08
0.00153431 0.0316956 -5.55964e-08
-1.74892e-08 -5.55964e-08 0.0342234

0.0286398 0.00405739 1.97004e-07
0.00405739 0.019899 3.73094e-07
1.97004e-07 3.73094e-07 0.0137605

0.0309752 -0.000783891 1.14502e-08
-0.000783891 0.0370876 7.8568e-08
1.14502e-08 7.8568e-08 0.0338843

0.0315576 0.00124379 2.05486e-07
0.00124379 0.0364232 -1.84484e-07
2.05486e-07 -1.84484e-07 0.0342622

0.0285514 -0.00037525 -5.68906e-08
-0.00037525 0.0369587 1.15084e-07
-5.68906e-08 1.15084e-07 0.0326734

0.0296055 0.00307094 -2.3711e-09
0.00307094 0.0347943 -3.23227e-08
-2.3711e-09 -3.23227e-08 0.0337117

0.0347225 0.00112211 1.29993e-08
0.00112211 0.0278414 -3.29656e-08
1.29993e-08 -3.29656e-08 0.0322114

0.0291902 -0.00369926 -9.80842e-08
-0.00369926 0.0310239 4.33741e-08
-9.80842e-08 4.33741e-08 0.0299123

0.0350577 -0.000237164 1.66427e-07
-0.000237164 0.0275829 -1.19595e-07
1.66427e-07 -1.19595e-07 0.033396

0.0344544 -0.00254791 9.29535e-08
-0.00254791 0.0381361 -7.56469e-10
9.29535e-08 -7.56469e-10 0.0352635

0.035013 0.00284954 1.90781e-08
0.00284954 0.0375718 -4.41636e-08
1.90781e-08 -4.41636e-08 0.0352433

0.0218906 -0.00213207 1.07137e-07
-0.00213207 0.0299251 -1.61685e-08
1.07137e-07 -1.61685e-08 0.0208533

0.0347043 -0.00369119 6.09696e-09
-0.00369119 0.0319604 1.14726e-07
6.09696e-09 1.14726e-07 0.0330817

0.0292948 -0.00329746 -3.46843e-08
-0.00329746 0.0321158 1.55331e-07
-3.46843e-08 1.55331e-07 0.0304361

0.026782 -0.00401734 1.32314e-07
-0.00401734 0.0176067 -1.47662e-07
1.32314e-07 -1.47662e-07 0.0127271

0.0324064 0.000418581 -2.05197e-07
0.000418581 0.0381079 -9.43972e-08
-2.05197e-07 -9.43972e-08 0.0344084

0.0345399 0.00381744 -1.10728e-08
0.00381744 0.0309443 -5.09312e-08
-1.10728e-08 -5.09312e-08 0.032663

0.0283792 0.00258183 4.16613e-08
0.00258183 0.0341326 3.0693e-08
4.16613e-08 3.0693e-08 0.0322166

0.0315451 0.00103787 6.59327e-08
0.00103787 0.0228459 8.13766e-09
6.59327e-08 8.13766e-09 0.0240715

0.0270998 -0.00435914 1.79073e-07
-0.00435914 0.0237388 7.67361e-08
1.79073e-07 7.67361e-08 0.0183252

0.0362621 -0.00140254 8.12992e-08
-0.00140254 0.038745 -1.82329e-07
8.12992e-08 -1.82329e-07 0.0354037

0.0315588 0.0031711 -1.38455e-07
0.0031711 0.0344044 1.04977e-07
-1.38455e-07 1.04977e-07 0.034093

0.0273042 -0.00415662 2.26161e-08
-0.00415662 0.0221768 1.52993e-07
2.26161e-08 1.52993e-07 0.0184131

0.030361 0.0013912 -3.05351e-08
0.0013912 0.0228325 1.00077e-08
-3.05351e-08 1.00077e-08 0.0209565

0.0186036 -0.00269726 2.24281e-07
-0.00269726 0.0289311 3.34403e-07
2.24281e-07 3.34403e-07 0.0158945

0.0272025 0.00188918 -1.71143e-07
0.00188918 0.0343233 -1.35654e-08
-1.71143e-07 -1.35654e-08 0.0306573

0.0353844 0.00305722 -1.71657e-07
0.00305722 0.0308227 -9.76533e-08
-1.71657e-07 -9.76533e-08 0.0327564

0.0226498 0.00538645 1.52822e-08
0.00538645 0.0240906 -2.76034e-07
1.52822e-08 -2.76034e-07 0.0162

0.0459481 0.00223777 8.85037e-07
0.00223777 0.0417519 -3.84222e-07
8.85037e-07 -3.84222e-07 0.0366413

0.0230834 -0.000534354 1.3396e-07
-0.000534354 0.0313574 3.99018e-08
1.3396e-07 3.99018e-08 0.0230748

0.0463635 -0.00225481 -4.98883e-07
-0.00225481 0.0412952 -2.04217e-07
-4.98883e-07 -2.04217e-07 0.0365964

0.0370677 -0.00362425 -4.86191e-08
-0.00362425 0.0334935 2.06441e-08
-4.86191e-08 2.06441e-08 0.0346235

0.0351401 0.00361936 -1.556e-07
0.00361936 0.0300065 -1.56841e-07
-1.556e-07 -1.56841e-07 0.0324591

0.0299647 -0.00315937 -9.12698e-08
-0.00315937 0.0246928 8.01116e-08
-9.12698e-08 8.01116e-08 0.0232882

0.0230144 0.00403043 -1.08754e-09
0.00403043 0.0277818 2.46527e-07
-1.08754e-09 2.46527e-07 0.020384

0.0210957 -0.00137878 -1.44374e-07
-0.00137878 0.0298981 1.48316e-07
-1.44374e-07 1.48316e-07 0.0182532

0.0287488 0.00288913 6.12879e-08
0.00288913 0.0342304 3.41994e-08
6.12879e-08 3.41994e-08 0.0327025

0.0370145 0.00223607 2.53049e-08
0.00223607 0.0334545 -8.00143e-08
2.53049e-08 -8.00143e-08 0.0343868

0.028151 0.0019885 2.16232e-08
0.0019885 0.0340628 -7.20789e-08
2.16232e-08 -7.20789e-08 0.0308682

0.0318858 0.00207328 4.8115e-08
0.00207328 0.0252564 -1.99623e-08
4.8115e-08 -1.99623e-08 0.0256199

0.0239097 -0.0027748 1.32398e-07
-0.0027748 0.0297677 -1.35329e-08
1.32398e-07 -1.35329e-08 0.0215635

0.0279011 -0.00376419 5.43482e-08
-0.00376419 0.0218171 -2.29971e-07
5.43482e-08 -2.29971e-07 0.0180776

0.0293344 -0.00323226 6.43116e-08
-0.00323226 0.032633 -9.39811e-08
6.43116e-08 -9.39811e-08 0.0324056

0.0306292 0.00361517 8.84234e-08
0.00361517 0.0322314 1.35915e-07
8.84234e-08 1.35915e-07 0.0323734

0.0287109 0.00304835 -2.59191e-07
0.00304835 0.0340301 -2.83651e-08
-2.59191e-07 -2.83651e-08 0.0326329

0.0292094 0.00172548 8.62781e-08
0.00172548 0.0376197 -2.48455e-07
8.62781e-08 -2.48455e-07 0.0338487

0.0344802 0.00123251 -2.87367e-08
0.00123251 0.0275264 7.75217e-08
-2.87367e-08 7.75217e-08 0.0306774

0.0199623 -0.00060527 1.04543e-07
-0.00060527 0.0296633 -1.26752e-08
1.04543e-07 -1.26752e-08 0.0181056

0.0298005 -0.004863 -6.4852e-08
-0.004863 0.0330519 -4.58311e-08
-6.4852e-08 -4.58311e-08 0.0337443

0.0290839 0.00360038 -1.56853e-07
0.00360038 0.0313623 -1.31077e-07
-1.56853e-07 -1.31077e-07 0.0302667

0.0181069 0.000282939 -7.06102e-09
0.000282939 0.0293134 1.18079e-07
-7.06102e-09 1.18079e-07 0.01688

0.027846 0.00442426 -1.34643e-07
0.00442426 0.0209699 1.12569e-07
-1.34643e-07 1.12569e-07 0.0174563

0.0291937 -0.00302052 7.22836e-08
-0.00302052 0.0327061 1.41506e-07
7.22836e-08 1.41506e-07 0.032188

0.0352456 0.000759551 -1.60594e-08
0.000759551 0.0273414 2.19941e-08
-1.60594e-08 2.19941e-08 0.0325554

0.0294299 0.00352061 6.31522e-08
0.00352061 0.0252035 2.80016e-08
6.31522e-08 2.80016e-08 0.0231133

0.039638 0.00171 1.93149e-07
0.00171 0.0390406 1.09867e-07
1.93149e-07 1.09867e-07 0.0359422

0.0283776 0.00312385 -1.44228e-07
0.00312385 0.0224033 7.31432e-08
-1.44228e-07 7.31432e-08 0.0182881

0.0394908 -0.00175076 3.84024e-08
-0.00175076 0.0390667 8.3579e-08
3.84024e-08 8.3579e-08 0.0359074

0.023263 0.000103496 1.75177e-07
0.000103496 0.0315207 -9.50169e-08
1.75177e-07 -9.50169e-08 0.0231217

0.032762 -0.000288492 1.22087e-07
-0.000288492 0.0246621 5.25235e-08
1.22087e-07 5.25235e-08 0.0269686

0.0380567 -0.00212898 -1.27316e-07
-0.00212898 0.0304664 -4.31755e-08
-1.27316e-07 -4.31755e-08 0.0347956

0.029241 0.00320593 -6.36834e-09
0.00320593 0.0332807 -1.12982e-07
-6.36834e-09 -1.12982e-07 0.0333455

0.0289531 -0.00177277 -1.16122e-07
-0.00177277 0.0366118 -1.82535e-07
-1.16122e-07 -1.82535e-07 0.0335021

0.0365858 -0.00108482 6.50752e-08
-0.00108482 0.0264793 3.9543e-08
6.50752e-08 3.9543e-08 0.0338626

0.0311826 -0.00292557 2.527e-08
-0.00292557 0.0383079 -2.02498e-07
2.527e-08 -2.02498e-07 0.034846

0.0381668 -0.000885287 -2.17348e-07
-0.000885287 0.0387327 3.82864e-08
-2.17348e-07 3.82864e-08 0.0358375

0.0301827 -0.00394013 1.26126e-07
-0.00394013 0.0327133 1.4137e-07
1.26126e-07 1.4137e-07 0.0327659

0.0213345 0.0014696 1.42885e-07
0.0014696 0.0296161 2.03884e-07
1.42885e-07 2.03884e-07 0.0182972

0.0293906 -0.00364607 9.33802e-08
-0.00364607 0.0253515 1.14202e-07
9.33802e-08 1.14202e-07 0.023184

0.0328613 -0.00181696 3.51127e-08
-0.00181696 0.03972 -1.62574e-07
3.51127e-08 -1.62574e-07 0.0352432

0.0350941 7.66124e-05 2.27459e-09
7.66124e-05 0.0272248 2.35904e-08
2.27459e-09 2.35904e-08 0.0332538

0.0308207 -0.00282898 -1.36546e-07
-0.00282898 0.034894 -1.48451e-07
-1.36546e-07 -1.48451e-07 0.0340865

0.0295372 0.00338852 1.50683e-07
0.00338852 0.0328746 1.3742e-07
1.50683e-07 1.3742e-07 0.0333285

0.0264626 -0.00406371 7.64719e-08
-0.00406371 0.0272642 -1.79451e-07
7.64719e-08 -1.79451e-07 0.0215863

0.0371738 -0.00095796 2.58236e-07
-0.00095796 0.0416113 -9.588e-08
2.58236e-07 -9.588e-08 0.0358886

0.0227128 -0.00423806 2.38879e-08
-0.00423806 0.0272458 -1.45862e-07
2.38879e-08 -1.45862e-07 0.0168789

0.0341857 -0.00252508 5.94456e-08
-0.00252508 0.0286088 1.09453e-07
5.94456e-08 1.09453e-07 0.0310468

0.0364279 0.00029016 -1.90278e-08
0.00029016 0.02944 2.91475e-08
-1.90278e-08 2.91475e-08 0.0341961

0.0396421 0.00239631 1.56397e-07
0.00239631 0.0391147 -1.97045e-07
1.56397e-07 -1.97045e-07 0.0358696

0.0238581 0.00260966 7.59613e-08
0.00260966 0.0301542 1.05266e-07
7.59613e-08 1.05266e-07 0.0218007

0.0334335 0.00358156 5.46525e-08
0.00358156 0.0307177 -7.84548e-10
5.46525e-08 -7.84548e-10 0.0317696

0.0316457 -0.00319471 -9.43995e-08
-0.00319471 0.0265542 4.88751e-08
-9.43995e-08 4.88751e-08 0.0269376

0.0289316 -0.00234109 -3.03143e-08
-0.00234109 0.0342377 4.30874e-09
-3.03143e-08 4.30874e-09 0.0326083

0.0262467 0.00450201 1.46328e-08
0.00450201 0.0245597 -1.47038e-07
1.46328e-08 -1.47038e-07 0.0180827

0.0284253 -0.00286682 1.11159e-07
-0.00286682 0.0340351 8.2714e-08
1.11159e-07 8.2714e-08 0.0324515

0.0331517 0.00405914 1.0775e-07
0.00405914 0.030467 -1.65556e-07
1.0775e-07 -1.65556e-07 0.0315447

0.0333375 -0.0033119 1.03891e-07
-0.0033119 0.0283593 7.03986e-09
1.03891e-07 7.03986e-09 0.0300483

0.0291635 -0.00329551 -1.27711e-07
-0.00329551 0.0319907 -2.61907e-07
-1.27711e-07 -2.61907e-07 0.0304398

0.0314579 -0.0024296 3.1304e-08
-0.0024296 0.0247209 -1.34442e-07
3.1304e-08 -1.34442e-07 0.0251584

0.0329585 -0.00246703 6.14685e-08
-0.00246703 0.0267118 6.79238e-08
6.14685e-08 6.79238e-08 0.0285989

0.0294942 -0.00334227 1.83528e-07
-0.00334227 0.0329532 3.14823e-08
1.83528e-07 3.14823e-08 0.0334099

0.0261364 0.00463439 2.22379e-07
0.00463439 0.0255433 -5.72031e-08
2.22379e-07 -5.72031e-08 0.0210942

0.0281525 0.00201678 1.64439e-07
0.00201678 0.0343388 4.55431e-08
1.64439e-07 4.55431e-08 0.0311119

0.0308892 0.00348137 -4.60232e-08
0.00348137 0.032258 -1.18839e-08
-4.60232e-08 -1.18839e-08 0.0326027

0.0291599 0.00334821 -1.8812e-07
0.00334821 0.0331945 1.27377e-07
-1.8812e-07 1.27377e-07 0.033263

0.0289867 0.00152321 -1.25674e-07
0.00152321 0.0354737 1.69952e-07
-1.25674e-07 1.69952e-07 0.0326981

0.0310556 -0.00106191 9.51603e-08
-0.00106191 0.0231433 -1.13877e-08
9.51603e-08 -1.13877e-08 0.0220799

0.0238859 0.00240608 -2.27677e-07
0.00240608 0.0304134 -4.24865e-08
-2.27677e-07 -4.24865e-08 0.0221149

0.029216 -0.00320401 2.12055e-08
-0.00320401 0.0326392 -6.93858e-08
2.12055e-08 -6.93858e-08 0.031621

0.02899 0.0033573 5.56804e-08
0.0033573 0.0309354 1.06976e-07
5.56804e-08 1.06976e-07 0.0285705

0.0266149 -0.00459183 1.4902e-07
-0.00459183 0.0252328 1.17897e-07
1.4902e-07 1.17897e-07 0.0212585

0.0262802 0.00489409 -1.86339e-08
0.00489409 0.0209479 -1.5762e-08
-1.86339e-08 -1.5762e-08 0.0167638

0.0235047 -0.00428722 1.66591e-08
-0.00428722 0.0274669 -3.8952e-08
1.66591e-08 -3.8952e-08 0.0206282

0.0266741 -0.0040281 8.13187e-08
-0.0040281 0.0274849 -3.57708e-08
8.13187e-08 -3.57708e-08 0.0220519

0.035368 -0.000906446 -9.34072e-08
-0.000906446 0.0273932 1.13473e-08
-9.34072e-08 1.13473e-08 0.0326577

0.0260475 0.00392203 2.12138e-07
0.00392203 0.028095 2.91993e-08
2.12138e-07 2.91993e-08 0.0221045

0.030791 0.00171688 1.27182e-07
0.00171688 0.0233623 7.42444e-08
1.27182e-07 7.42444e-08 0.0220276

0.0214327 0.00172222 8.12253e-08
0.00172222 0.0302436 1.51574e-08
8.12253e-08 1.51574e-08 0.0211346

0.0242649 -0.00288967 -2.52191e-08
-0.00288967 0.0299545 -1.29795e-07
-2.52191e-08 -1.29795e-07 0.0220882

0.0313483 -0.000131255 1.63796e-07
-0.000131255 0.0392763 -1.25823e-07
1.63796e-07 -1.25823e-07 0.0346736

0.0230604 0.000294632 -9.05308e-09
0.000294632 0.0314638 3.07329e-08
-9.05308e-09 3.07329e-08 0.0230644

0.0227791 0.00400207 -2.52803e-07
0.00400207 0.0281301 -8.98219e-09
-2.52803e-07 -8.98219e-09 0.02064

0.0288914 0.00158561 4.57596e-08
0.00158561 0.0358361 1.83578e-07
4.57596e-08 1.83578e-07 0.0328966

0.0293188 -0.00358052 -1.75714e-07
-0.00358052 0.0251319 -6.37109e-08
-1.75714e-07 -6.37109e-08 0.0232419

0.0369797 0.00273313 2.54938e-08
0.00273313 0.029726 -8.4864e-08
2.54938e-08 -8.4864e-08 0.0338046

0.0371785 0.00348355 5.9547e-08
0.00348355 0.0334253 2.49657e-08
5.9547e-08 2.49657e-08 0.0346551

0.0345478 -0.00244655 -2.97552e-08
-0.00244655 0.0285327 -7.44903e-09
-2.97552e-08 -7.44903e-09 0.0313819

0.0390591 -0.000265833 -1.20179e-07
-0.000265833 0.0339271 -2.94856e-08
-1.20179e-07 -2.94856e-08 0.035211

0.0314823 -0.00418786 -3.97621e-08
-0.00418786 0.0317851 1.27603e-08
-3.97621e-08 1.27603e-08 0.0321594

0.0294651 0.00300806 9.70903e-08
0.00300806 0.0223293 1.15695e-07
9.70903e-08 1.15695e-07 0.0210686

0.0302332 0.00397289 1.18254e-08
0.00397289 0.0326667 -1.18205e-07
1.18254e-08 -1.18205e-07 0.0327231

0.0302807 0.0038469 9.44652e-08
0.0038469 0.0326109 1.24507e-07
9.44652e-08 1.24507e-07 0.0326779

0.0262471 0.00396218 6.74249e-08
0.00396218 0.0277706 2.4972e-07
6.74249e-08 2.4972e-07 0.021867

0.0344534 0.00357673 -2.75168e-08
0.00357673 0.0317826 -2.804e-08
-2.75168e-08 -2.804e-08 0.0328345

0.0302516 0.00045245 8.98966e-08
0.00045245 0.0204302 -3.84849e-09
8.98966e-08 -3.84849e-09 0.0205753

0.0331894 0.00420081 3.99928e-08
0.00420081 0.0323762 -3.52338e-09
3.99928e-08 -3.52338e-09 0.0334869

0.0305036 -0.00165451 1.42595e-07
-0.00165451 0.0366194 -1.70537e-07
1.42595e-07 -1.70537e-07 0.0336658

0.0373636 0.00323268 6.13209e-08
0.00323268 0.0334624 -8.61484e-08
6.13209e-08 -8.61484e-08 0.0346671

0.0307405 -0.00389618 -6.01666e-08
-0.00389618 0.0322768 -1.21136e-07
-6.01666e-08 -1.21136e-07 0.0326834

0.0293767 -0.000644868 3.9974e-08
-0.000644868 0.036906 1.23463e-07
3.9974e-08 1.23463e-07 0.0328509

0.0288157 -0.00315283 -1.80122e-07
-0.00315283 0.022142 -1.19712e-07
-1.80122e-07 -1.19712e-07 0.0187609

0.0290056 0.00384509 8.94171e-08
0.00384509 0.0255803 -5.40351e-08
8.94171e-08 -5.40351e-08 0.0230753

0.0217034 0.0018912 -4.63035e-08
0.0018912 0.0300644 9.66675e-08
-4.63035e-08 9.66675e-08 0.021086

0.0349935 -0.000161394 1.19951e-07
-0.000161394 0.0273929 1.13088e-08
1.19951e-07 1.13088e-08 0.0333048

0.0344235 1.53282e-07 -5.81327e-08
1.53282e-07 0.0272778 -5.39533e-08
-5.81327e-08 -5.39533e-08 0.0320444

0.0291691 0.00304009 2.03463e-09
0.00304009 0.0326837 1.28486e-07
2.03463e-09 1.28486e-07 0.0321359

0.0314531 0.00316627 5.73601e-08
0.00316627 0.0342534 2.75975e-08
5.73601e-08 2.75975e-08 0.0340613

0.0291722 -0.00320425 4.80993e-08
-0.00320425 0.0332422 -8.28173e-08
4.80993e-08 -8.28173e-08 0.0333821

0.0287766 -8.5776e-05 6.77596e-09
-8.5776e-05 0.0367078 3.14159e-08
6.77596e-09 3.14159e-08 0.0325287

0.0294676 0.00337567 -8.13469e-08
0.00337567 0.0330784 -1.45168e-07
-8.13469e-08 -1.45168e-07 0.0333579

0.0328631 -0.00134662 -6.31959e-08
-0.00134662 0.0253646 1.19038e-07
-6.31959e-08 1.19038e-07 0.0278319

0.0263577 -0.00425496 -1.60749e-07
-0.00425496 0.0281828 2.12434e-07
-1.60749e-07 2.12434e-07 0.0242702

0.0363009 -0.000331695 -7.1287e-08
-0.000331695 0.0293864 -1.37201e-07
-7.1287e-08 -1.37201e-07 0.034031

0.0267838 -0.00444606 1.41544e-07
-0.00444606 0.025193 -7.42362e-08
1.41544e-07 -7.42362e-08 0.0209514

0.0309027 0.00250731 -1.02285e-07
0.00250731 0.0350664 3.21637e-09
-1.02285e-07 3.21637e-09 0.0340709

0.035117 -0.00349687 -7.2659e-08
-0.00349687 0.0303913 5.56286e-08
-7.2659e-08 5.56286e-08 0.0326179

0.0305054 -0.00124998 1.41748e-07
-0.00124998 0.0229807 -9.21619e-09
1.41748e-07 -9.21619e-09 0.0214806

0.0371501 -0.00307705 -6.5785e-08
-0.00307705 0.0316561 1.27898e-07
-6.5785e-08 1.27898e-07 0.0339909

0.0349728 0.000322074 2.70092e-08
0.000322074 0.0275581 5.88651e-08
2.70092e-08 5.88651e-08 0.0334331

0.0358463 -0.0030885 4.55391e-09
-0.0030885 0.0332606 1.23893e-07
4.55391e-09 1.23893e-07 0.0341465

0.0349321 -0.00341086 9.5396e-08
-0.00341086 0.0295979 7.73326e-08
9.5396e-08 7.73326e-08 0.0321811

0.034913 -0.00113361 -1.23723e-07
-0.00113361 0.0278531 -3.78666e-08
-1.23723e-07 -3.78666e-08 0.0323446

0.0314928 -0.00306229 -1.44522e-07
-0.00306229 0.0344517 -5.33266e-08
-1.44522e-07 -5.33266e-08 0.0341496

0.0292385 -0.0040714 8.96815e-08
-0.0040714 0.0269026 1.20074e-07
8.96815e-08 1.20074e-07 0.0253489

0.0349962 -0.003244 7.73126e-08
-0.003244 0.0299182 6.03683e-09
7.73126e-08 6.03683e-09 0.0321983

0.0314659 0.00140936 1.01223e-07
0.00140936 0.0233294 7.30892e-08
1.01223e-07 7.30892e-08 0.0244863

0.0336681 0.00348447 2.34277e-08
0.00348447 0.0334466 2.21419e-08
2.34277e-08 2.21419e-08 0.0336531

0.0298957 -0.00496706 -9.51565e-08
-0.00496706 0.0330819 4.25873e-08
-9.51565e-08 4.25873e-08 0.0338603

0.0300467 0.00492026 5.30589e-09
0.00492026 0.0329438 -1.48977e-07
5.30589e-09 -1.48977e-07 0.0338272

0.0276917 -0.00374167 4.35835e-08
-0.00374167 0.0348104 -1.11432e-07
4.35835e-08 -1.11432e-07 0.0337698

0.0279294 0.00354697 -6.59019e-08
0.00354697 0.0348385 -3.50654e-08
-6.59019e-08 -3.50654e-08 0.0337347

0.036433 -0.00115369 7.19982e-08
-0.00115369 0.0263455 9.70508e-08
7.19982e-08 9.70508e-08 0.033761

0.0362022 0.00124735 1.50973e-08
0.00124735 0.0265669 5.39153e-08
1.50973e-08 5.39153e-08 0.0337238

0.0350382 -0.00130702 -9.53835e-10
-0.00130702 0.0284711 -3.12698e-08
-9.53835e-10 -3.12698e-08 0.032579

0.0344389 0.00425888 -1.80918e-08
0.00425888 0.0342924 2.62334e-08
-1.80918e-08 2.62334e-08 0.0348154

0.0343148 -0.00435662 1.48599e-07
-0.00435662 0.0342843 -8.46699e-08
1.48599e-07 -8.46699e-08 0.0348038

0.0305242 0.00209353 -7.49916e-08
0.00209353 0.0381683 -5.07261e-08
-7.49916e-08 -5.07261e-08 0.0348526

0.0306672 -0.00205956 -4.9235e-08
-0.00205956 0.0380977 6.11643e-09
-4.9235e-08 6.11643e-09 0.0348399

0.0395043 -0.000529088 4.26747e-08
-0.000529088 0.032852 7.27522e-08
4.26747e-08 7.27522e-08 0.0352607

0.0397067 0.000513554 1.17962e-07
0.000513554 0.0326246 -7.79919e-08
1.17962e-07 -7.79919e-08 0.0353059

0.0239676 0.00127602 -1.12766e-09
0.00127602 0.0320069 4.53938e-08
-1.12766e-09 4.53938e-08 0.025187

0.0311655 -0.00326576 -2.07705e-08
-0.00326576 0.0322441 -1.02474e-07
-2.07705e-08 -1.02474e-07 0.032805

0.0277836 -0.00478573 1.19306e-07
-0.00478573 0.0333156 -8.44596e-08
1.19306e-07 -8.44596e-08 0.0334584

0.0333625 -0.000610431 -6.86591e-08
-0.000610431 0.026406 1.09505e-07
-6.86591e-08 1.09505e-07 0.0284513

0.0381904 -0.0022516 3.16601e-08
-0.0022516 0.0307975 5.39744e-08
3.16601e-08 5.39744e-08 0.0348957

0.0382383 0.00218369 1.26734e-08
0.00218369 0.0309107 7.91648e-08
1.26734e-08 7.91648e-08 0.0349278

0.0360873 1.56272e-05 1.47132e-07
1.56272e-05 0.0251296 -1.54521e-07
1.47132e-07 -1.54521e-07 0.0334735

0.0242435 0.00302945 -8.8887e-08
0.00302945 0.0304011 -1.96226e-07
-8.8887e-08 -1.96226e-07 0.0242797

0.0276778 0.00475624 1.48129e-07
0.00475624 0.0333159 1.41576e-07
1.48129e-07 1.41576e-07 0.0333963

0.028678 -0.00307573 -2.20527e-09
-0.00307573 0.0342645 3.79703e-09
-2.20527e-09 3.79703e-09 0.0327555

0.031089 0.00303607 -1.10981e-07
0.00303607 0.0251494 1.91177e-08
-1.10981e-07 1.91177e-08 0.0254699

0.0372306 0.00316567 -3.01565e-08
0.00316567 0.0315436 -2.85435e-08
-3.01565e-08 -2.85435e-08 0.0340788

0.02923 -0.00406773 -1.66213e-07
-0.00406773 0.0269384 -7.97576e-08
-1.66213e-07 -7.97576e-08 0.0253241

0.0364046 -0.000453739 5.39428e-08
-0.000453739 0.0296947 1.74442e-08
5.39428e-08 1.74442e-08 0.0341341

0.0273481 -0.00449461 -6.67349e-09
-0.00449461 0.0333984 6.90532e-08
-6.67349e-09 6.90532e-08 0.033445

0.0240404 0.00107916 2.34902e-07
0.00107916 0.032248 2.66641e-08
2.34902e-07 2.66641e-08 0.0255087

0.0242323 0.00282703 -1.11004e-07
0.00282703 0.0307048 1.93329e-07
-1.11004e-07 1.93329e-07 0.0245476

0.0267953 0.00459493 7.13956e-08
0.00459493 0.0240441 -2.75035e-07
7.13956e-08 -2.75035e-07 0.0182155

0.0298542 0.000199975 2.66859e-08
0.000199975 0.0200903 1.63675e-07
2.66859e-08 1.63675e-07 0.0193645

0.031912 -0.00302402 -8.55128e-08
-0.00302402 0.0341657 -7.37448e-08
-8.55128e-08 -7.37448e-08 0.0340387

0.0229209 0.00400017 -2.3574e-07
0.00400017 0.0276629 2.04756e-08
-2.3574e-07 2.04756e-08 0.017655

0.0292132 0.00310096 -1.62396e-07
0.00310096 0.0327669 -1.21128e-07
-1.62396e-07 -1.21128e-07 0.0310155

0.0315985 -0.000694586 3.9606e-08
-0.000694586 0.0231624 -1.28911e-08
3.9606e-08 -1.28911e-08 0.0244875

0.0327649 0.00146471 4.98677e-08
0.00146471 0.0253494 -2.01351e-08
4.98677e-08 -2.01351e-08 0.027616

0.0359818 5.62387e-05 6.7873e-08
5.62387e-05 0.0249627 -8.26442e-08
6.7873e-08 -8.26442e-08 0.0333895

0.0279697 -0.00380532 9.2267e-09
-0.00380532 0.0349521 -1.52578e-07
9.2267e-09 -1.52578e-07 0.0338192

0.0393159 -0.000843888 -3.14845e-07
-0.000843888 0.0416043 2.14224e-07
-3.14845e-07 2.14224e-07 0.0361927

0.0298716 0.00493858 -1.92997e-09
0.00493858 0.0329602 1.3325e-07
-1.92997e-09 1.3325e-07 0.0337823

0.0302914 0.000214467 -3.2669e-08
0.000214467 0.0203988 -1.18524e-08
-3.2669e-08 -1.18524e-08 0.017278

0.0266766 -0.00425105 -3.79863e-09
-0.00425105 0.0281361 8.9793e-08
-3.79863e-09 8.9793e-08 0.0244401

0.0277499 0.00481557 -9.9063e-08
0.00481557 0.0333187 -1.14082e-07
-9.9063e-08 -1.14082e-07 0.0334586

0.0279479 -0.00145851 -1.81548e-08
-0.00145851 0.0350887 1.97938e-07
-1.81548e-08 1.97938e-07 0.0314534

0.0244676 -0.0033057 7.12104e-08
-0.0033057 0.0300188 8.65053e-08
7.12104e-08 8.65053e-08 0.0242197

0.0279944 0.00377954 -7.39191e-08
0.00377954 0.0349136 1.37709e-09
-7.39191e-08 1.37709e-09 0.03379

0.0313651 -0.00340984 -6.96675e-08
-0.00340984 0.0270116 1.04679e-07
-6.96675e-08 1.04679e-07 0.0269943

0.0402813 0.00140918 -3.68553e-08
0.00140918 0.0406188 3.41428e-07
-3.68553e-08 3.41428e-07 0.0361731

0.0258838 0.00400331 2.22709e-07
0.00400331 0.028958 4.79426e-08
2.22709e-07 4.79426e-08 0.0245137

0.0366811 0.00110285 -7.04046e-09
0.00110285 0.0263559 1.07848e-08
-7.04046e-09 1.07848e-08 0.033901

0.0333453 0.00398431 -1.07057e-07
0.00398431 0.0321189 1.57306e-07
-1.07057e-07 1.57306e-07 0.0333188

0.0292315 0.00306766 -1.99256e-07
0.00306766 0.0326091 -1.24988e-07
-1.99256e-07 -1.24988e-07 0.032161

0.0343679 -0.00431049 -4.94052e-10
-0.00431049 0.0345082 -5.67167e-08
-4.94052e-10 -5.67167e-08 0.0348879

0.0354932 -0.00306388 -8.84062e-08
-0.00306388 0.030593 2.35467e-08
-8.84062e-08 2.35467e-08 0.0327536

0.0333689 0.00138752 -4.99429e-08
0.00138752 0.0395798 -1.2002e-07
-4.99429e-08 -1.2002e-07 0.0350055

0.0292003 -0.00307943 -6.03164e-08
-0.00307943 0.0328773 3.52787e-07
-6.03164e-08 3.52787e-07 0.0313866

0.029268 -0.00123234 -1.34629e-07
-0.00123234 0.0192889 1.15176e-07
-1.34629e-07 1.15176e-07 0.0164139

0.0287816 -0.00183252 -1.23311e-07
-0.00183252 0.0184158 -2.00462e-07
-1.23311e-07 -2.00462e-07 0.0161988

0.0385321 0.00220257 -4.25393e-08
0.00220257 0.0332416 1.07502e-07
-4.25393e-08 1.07502e-07 0.0347659

0.0280592 0.0029456 1.58436e-07
0.0029456 0.0323392 -9.25896e-08
1.58436e-07 -9.25896e-08 0.0295214

0.0320707 0.00383463 -1.18868e-07
0.00383463 0.030964 -5.97869e-08
-1.18868e-07 -5.97869e-08 0.0314577

0.0320537 8.9936e-05 4.03444e-08
8.9936e-05 0.0245796 6.24587e-08
4.03444e-08 6.24587e-08 0.0248909

0.0302405 0.000866115 -1.71678e-08
0.000866115 0.0385844 -3.68628e-08
-1.71678e-08 -3.68628e-08 0.0340994

0.0354056 0.0021914 8.44012e-08
0.0021914 0.0293263 1.1631e-07
8.44012e-08 1.1631e-07 0.0328616

0.0248142 -0.00333941 -1.18705e-07
-0.00333941 0.03001 1.68982e-08
-1.18705e-07 1.68982e-08 0.0244728

0.0286536 -0.000337577 1.13699e-07
-0.000337577 0.0366607 4.16597e-08
1.13699e-07 4.16597e-08 0.0323991

0.0252181 0.0017404 -2.36245e-07
0.0017404 0.0320336 3.83614e-08
-2.36245e-07 3.83614e-08 0.025687

0.0332841 -0.00391009 1.34445e-08
-0.00391009 0.0304999 2.95913e-08
1.34445e-08 2.95913e-08 0.0315957

0.0290682 -0.00389653 -1.22749e-08
-0.00389653 0.0282036 2.17662e-07
-1.22749e-08 2.17662e-07 0.0257166

0.0261522 0.00409926 -9.69858e-08
0.00409926 0.0285498 -4.01297e-08
-9.69858e-08 -4.01297e-08 0.024321

0.0452886 -0.0020171 -3.91268e-07
-0.0020171 0.0396074 -6.17658e-08
-3.91268e-07 -6.17658e-08 0.0363697

0.0316697 0.000256461 2.73041e-08
0.000256461 0.0393297 -1.10595e-07
2.73041e-08 -1.10595e-07 0.0347722

0.0306199 0.00265089 1.21757e-07
0.00265089 0.0384457 1.17322e-07
1.21757e-07 1.17322e-07 0.0349608

0.0387681 0.00209467 -1.94037e-08
0.00209467 0.030225 -5.75754e-08
-1.94037e-08 -5.75754e-08 0.0349456

0.0313746 -0.00345076 8.29005e-08
-0.00345076 0.0321442 9.9274e-08
8.29005e-08 9.9274e-08 0.032576

0.0318217 0.0023364 -3.57264e-09
0.0023364 0.0256232 -1.38814e-07
-3.57264e-09 -1.38814e-07 0.0258826

0.034996 -0.000708478 -1.05114e-07
-0.000708478 0.041578 -1.28625e-08
-1.05114e-07 -1.28625e-08 0.0357306

0.035792 -0.00251856 -8.11607e-08
-0.00251856 0.0295536 -1.36724e-07
-8.11607e-08 -1.36724e-07 0.0332613

0.0333012 -0.00203986 3.69448e-08
-0.00203986 0.0266558 5.20738e-09
3.69448e-08 5.20738e-09 0.0286786

0.0252552 0.00151113 -3.18449e-09
0.00151113 0.0322784 1.78429e-08
-3.18449e-09 1.78429e-08 0.025953

0.0268077 -0.00334505 -2.33785e-07
-0.00334505 0.0300131 7.57709e-08
-2.33785e-07 7.57709e-08 0.0251902

0.0364804 -0.0033606 -2.62403e-08
-0.0033606 0.0352901 5.10161e-08
-2.62403e-08 5.10161e-08 0.0347454

0.028479 0.00415286 2.14889e-08
0.00415286 0.0277192 5.02525e-08
2.14889e-08 5.02525e-08 0.0254707

0.0372466 -0.00334529 -1.95307e-08
-0.00334529 0.0333249 7.77642e-08
-1.95307e-08 7.77642e-08 0.0346147

0.0322102 0.000337903 9.15939e-08
0.000337903 0.0248654 8.80666e-08
9.15939e-08 8.80666e-08 0.0254405

0.0191629 -0.00368967 -1.4373e-07
-0.00368967 0.0275292 1.48652e-07
-1.4373e-07 1.48652e-07 0.0163127

0.0292132 -0.00380409 7.93217e-08
-0.00380409 0.0281957 9.73414e-08
7.93217e-08 9.73414e-08 0.0258107

0.0230482 0.00412793 -1.03834e-07
0.00412793 0.0280233 6.0781e-08
-1.03834e-07 6.0781e-08 0.0175941

0.0296939 -0.00155941 -1.1346e-08
-0.00155941 0.0375366 8.40526e-08
-1.1346e-08 8.40526e-08 0.0336517

0.0243628 -0.001794 -1.86451e-07
-0.001794 0.0318763 1.09078e-07
-1.86451e-07 1.09078e-07 0.0254508

0.0424388 -0.00323404 -2.69367e-07
-0.00323404 0.0423769 1.21254e-07
-2.69367e-07 1.21254e-07 0.036378

0.0263394 0.00309153 1.31244e-07
0.00309153 0.030705 1.93569e-07
1.31244e-07 1.93569e-07 0.0254807

0.0334801 -0.00432324 -8.81325e-08
-0.00432324 0.0326626 8.84215e-08
-8.81325e-08 8.84215e-08 0.0335695

0.0240832 -0.00155088 7.66961e-08
-0.00155088 0.0318907 1.39181e-07
7.66961e-08 1.39181e-07 0.0251796

0.0362257 -0.00253863 -3.13625e-08
-0.00253863 0.0295143 1.37388e-08
-3.13625e-08 1.37388e-08 0.0335225

0.0266764 0.00310505 -2.77343e-10
0.00310505 0.0303981 -1.97838e-07
-2.77343e-10 -1.97838e-07 0.025316

0.0343466 -0.000653804 -7.23949e-08
-0.000653804 0.0272798 -5.06695e-08
-7.23949e-08 -5.06695e-08 0.0305808

0.0188922 -0.00387191 6.67019e-08
-0.00387191 0.0298045 -3.35392e-07
6.67019e-08 -3.35392e-07 0.0129626

0.0280022 0.00275483 1.75318e-07
0.00275483 0.0326321 3.0845e-08
1.75318e-07 3.0845e-08 0.0305767

0.0314409 -0.00251276 -6.12795e-08
-0.00251276 0.0247247 8.10425e-08
-6.12795e-08 8.10425e-08 0.0254086

0.0391205 -0.00286915 2.77511e-07
-0.00286915 0.0322238 1.00111e-07
2.77511e-07 1.00111e-07 0.0349396

0.0287559 0.0041245 1.20415e-07
0.0041245 0.0273028 -6.58634e-10
1.20415e-07 -6.58634e-10 0.0252581

0.0313646 -0.00391966 3.98e-08
-0.00391966 0.0285447 -5.98018e-08
3.98e-08 -5.98018e-08 0.0287337

0.0354115 0.00276387 -1.47332e-07
0.00276387 0.0308584 -1.61479e-07
-1.47332e-07 -1.61479e-07 0.033042

0.0297759 -0.00370346 -1.35002e-07
-0.00370346 0.0329406 -4.24458e-08
-1.35002e-07 -4.24458e-08 0.0333452

0.0270576 -0.00341072 -3.54133e-08
-0.00341072 0.0299858 2.33155e-08
-3.54133e-08 2.33155e-08 0.0253998

0.0284438 0.00377154 2.66962e-08
0.00377154 0.0289429 4.24714e-08
2.66962e-08 4.24714e-08 0.0258897

0.0313744 0.00341378 -1.17168e-07
0.00341378 0.0269019 4.61837e-08
-1.17168e-07 4.61837e-08 0.0269685

0.0365385 -0.00194441 -9.23886e-09
-0.00194441 0.0306278 6.06978e-08
-9.23886e-09 6.06978e-08 0.0336382

0.0255361 -0.00216354 -6.86758e-08
-0.00216354 0.031805 1.19137e-07
-6.86758e-08 1.19137e-07 0.0258561

0.0347027 -0.00231432 -4.14657e-08
-0.00231432 0.0283369 -3.39665e-08
-4.14657e-08 -3.39665e-08 0.0314586

0.0341887 0.0022235 -1.1825e-07
0.0022235 0.0274345 6.25411e-08
-1.1825e-07 6.25411e-08 0.0306064

0.0336468 -0.00124534 6.75617e-08
-0.00124534 0.039302 -1.24728e-07
6.75617e-08 -1.24728e-07 0.0349297

0.0320753 -0.00174688 -4.11121e-08
-0.00174688 0.0253327 1.19728e-07
-4.11121e-08 1.19728e-07 0.0258735

0.025004 7.97167e-05 6.53934e-08
7.97167e-05 0.0331543 -6.28903e-08
6.53934e-08 -6.28903e-08 0.0268636

0.0332501 0.00242888 4.94816e-08
0.00242888 0.027196 -2.08806e-08
4.94816e-08 -2.08806e-08 0.0289246

0.0311204 0.00359926 -1.68677e-07
0.00359926 0.0272952 -9.69695e-08
-1.68677e-07 -9.69695e-08 0.027125

0.0252976 -0.00204149 1.00395e-07
-0.00204149 0.0318674 1.39784e-07
1.00395e-07 1.39784e-07 0.0256134

0.0252033 -0.00015465 2.32497e-07
-0.00015465 0.0332951 3.09595e-08
2.32497e-07 3.09595e-08 0.0271464

0.0354154 0.00385843 -2.57148e-08
0.00385843 0.0329976 1.06077e-07
-2.57148e-08 1.06077e-07 0.0338978

0.0275881 -0.00143088 7.49056e-08
-0.00143088 0.0353447 -6.15459e-08
7.49056e-08 -6.15459e-08 0.0314445

0.0312369 -0.00348418 1.99033e-08
-0.00348418 0.0269797 -7.28289e-08
1.99033e-08 -7.28289e-08 0.0270121

0.0312996 0.00277295 -4.29558e-08
0.00277295 0.0249242 1.73041e-07
-4.29558e-08 1.73041e-07 0.0252484

0.0345852 0.00311856 -1.35613e-07
0.00311856 0.0293889 3.07478e-08
-1.35613e-07 3.07478e-08 0.0317982

0.0279937 0.000716938 -1.64723e-07
0.000716938 0.0360422 -2.43674e-08
-1.64723e-07 -2.43674e-08 0.0318206

0.0287188 0.00378173 1.4695e-07
0.00378173 0.0285619 -4.52288e-08
1.4695e-07 -4.52288e-08 0.0257302

0.0367928 0.00305755 1.01205e-08
0.00305755 0.0361272 1.1216e-07
1.01205e-08 1.1216e-07 0.0349093

0.0226819 -0.00754599 9.39767e-08
-0.00754599 0.018689 1.19446e-07
9.39767e-08 1.19446e-07 0.010846

0.0332936 -0.0032878 7.20187e-08
-0.0032878 0.0286348 -5.72622e-08
7.20187e-08 -5.72622e-08 0.0301264

0.0207284 0.000913398 -1.14896e-07
0.000913398 0.0300338 -4.03243e-08
-1.14896e-07 -4.03243e-08 0.018348

0.031303 -0.00378215 1.09846e-07
-0.00378215 0.0292336 6.54137e-08
1.09846e-07 6.54137e-08 0.0290339

0.00153967 -0.0065192 2.74054e-08
-0.0065192 0.02757 -1.20071e-07
2.74054e-08 -1.20071e-07 0.00290856

0.00147005 0.00636874 -3.40579e-08
0.00636874 0.027588 -1.49217e-07
-3.40579e-08 -1.49217e-07 0.00300155

0.0119853 0.0145058 -1.21178e-07
0.0145058 0.0175336 -1.51953e-07
-1.21178e-07 -1.51953e-07 0.00277143

0.0121667 -0.0144965 -1.39286e-07
-0.0144965 0.017225 1.74659e-07
-1.39286e-07 1.74659e-07 0.00280404

0.0293426 -0.000164103 1.71359e-07
-0.000164103 0 0
1.71359e-07 0 0.0029529

0.0235937 -0.0112833 -4.73124e-08
-0.0112833 0.00539579 2.27844e-08
-4.73124e-08 2.27844e-08 0.0029786

0.0236357 0.0113496 1.85162e-07
0.0113496 0.00544988 8.91692e-08
1.85162e-07 8.91692e-08 0.00303973

0.0369138 0.00191136 5.04358e-08
0.00191136 0.0302446 -1.04761e-07
5.04358e-08 -1.04761e-07 0.0338803

0.0387068 0.00340964 -1.57274e-08
0.00340964 0.0366191 1.4999e-07
-1.57274e-08 1.4999e-07 0.0355807

0.0344183 0.000872382 3.29322e-08
0.000872382 0.0274595 8.33787e-08
3.29322e-08 8.33787e-08 0.0316905

0.0328757 0.00285061 1.1582e-08
0.00285061 0.0268919 4.7397e-08
1.1582e-08 4.7397e-08 0.0286489

0.025703 0.00231354 -1.88212e-07
0.00231354 0.0323699 1.36376e-07
-1.88212e-07 1.36376e-07 0.0276381

0.0307157 0.0037695 -2.59307e-07
0.0037695 0.0276786 3.72606e-08
-2.59307e-07 3.72606e-08 0.0271201

0.0333084 -0.00390344 1.11719e-08
-0.00390344 0.0304685 2.63193e-08
1.11719e-08 2.63193e-08 0.0316326

0.0309765 0.00365485 -8.89736e-08
0.00365485 0.0272894 -3.53851e-09
-8.89736e-08 -3.53851e-09 0.0269278

0.0249894 -0.000371436 -3.26129e-08
-0.000371436 0.0331254 -6.60324e-08
-3.26129e-08 -6.60324e-08 0.0268458

0.0385499 -0.00348459 -1.32856e-07
-0.00348459 0.0368821 3.09335e-08
-1.32856e-07 3.09335e-08 0.0355864

0.0251779 -0.000635784 -2.45097e-07
-0.000635784 0.0332137 -9.55494e-09
-2.45097e-07 -9.55494e-09 0.0271053

0.0360204 0.00304762 5.05263e-08
0.00304762 0.0330135 -9.75088e-08
5.05263e-08 -9.75088e-08 0.0341006

0.0296258 0.00347626 -3.39921e-08
0.00347626 0.0248486 1.72162e-07
-3.39921e-08 1.72162e-07 0.0230251

0.0304991 -0.00171396 7.81961e-08
-0.00171396 0.037515 -2.21782e-07
7.81961e-08 -2.21782e-07 0.0347392

0.0339234 0.00180464 2.95466e-08
0.00180464 0.0271842 -2.10965e-08
2.95466e-08 -2.10965e-08 0.0303233

0.0312044 -0.00392086 -8.30047e-08
-0.00392086 0.0285339 9.94879e-08
-8.30047e-08 9.94879e-08 0.0286172

0.0315868 -0.0032218 2.47779e-08
-0.0032218 0.0266942 -6.34544e-08
2.47779e-08 -6.34544e-08 0.0270504

0.0384815 -0.00214161 -8.05602e-08
-0.00214161 0.0334195 -3.87432e-08
-8.05602e-08 -3.87432e-08 0.0347475

0.0326844 0.00366425 2.16367e-07
0.00366425 0.0292347 -9.19762e-08
2.16367e-07 -9.19762e-08 0.0301578

0.0326482 0.00313798 2.21325e-07
0.00313798 0.0272552 -8.12703e-08
2.21325e-07 -8.12703e-08 0.0287907

0.0269577 -0.000365321 1.98706e-07
-0.000365321 0.0349906 7.37111e-08
1.98706e-07 7.37111e-08 0.0301708

0.0259022 0.000765756 2.3009e-07
0.000765756 0.0340069 2.50007e-08
2.3009e-07 2.50007e-08 0.0288258

0.0327815 0.000345374 -5.26204e-08
0.000345374 0.0248642 7.94551e-08
-5.26204e-08 7.94551e-08 0.0274465

0.0313906 -0.000944992 -2.79926e-09
-0.000944992 0.0230061 -1.56856e-08
-2.79926e-09 -1.56856e-08 0.0238946

0.0308839 0.00398559 -1.65803e-07
0.00398559 0.0288089 -1.4379e-07
-1.65803e-07 -1.4379e-07 0.028627

0.0331211 -0.00343184 4.37095e-08
-0.00343184 0.0285434 1.00877e-07
4.37095e-08 1.00877e-07 0.0299722

0.0364153 -0.00282362 2.72477e-08
-0.00282362 0.0327353 2.1306e-07
2.72477e-08 2.1306e-07 0.0341469

0.0292093 -0.0041282 1.00939e-07
-0.0041282 0.0291953 6.47166e-08
1.00939e-07 6.47166e-08 0.0277566

0.0269747 -0.0036208 -3.54263e-08
-0.0036208 0.0304683 -2.56282e-07
-3.54263e-08 -2.56282e-07 0.0272162

0.0283295 0.00389989 4.34154e-09
0.00389989 0.0299041 -1.96679e-09
4.34154e-09 -1.96679e-09 0.0277548

0.0259039 -0.00124911 -8.84389e-08
-0.00124911 0.0336175 2.19031e-08
-8.84389e-08 2.19031e-08 0.0285188

0.0266572 -0.000202268 -1.11174e-07
-0.000202268 0.0349164 -1.97851e-08
-1.11174e-07 -1.97851e-08 0.0299227

0.027765 0.000752797 1.52635e-07
0.000752797 0.0360417 -2.67656e-08
1.52635e-07 -2.67656e-08 0.0316611

0.0262499 -0.0027497 1.27034e-07
-0.0027497 0.0319662 -1.72661e-07
1.27034e-07 -1.72661e-07 0.0277134

0.0345857 0.00317595 -6.17186e-08
0.00317595 0.0291711 -1.08391e-07
-6.17186e-08 -1.08391e-07 0.0316373

0.0339126 -0.00126108 -5.7127e-08
-0.00126108 0.0269331 -1.29116e-08
-5.7127e-08 -1.29116e-08 0.0302047

0.0257929 0.000974338 1.02727e-07
0.000974338 0.033833 3.51455e-09
1.02727e-07 3.51455e-09 0.0285448

0.0278267 -0.00127016 -6.61532e-08
-0.00127016 0.0354003 -9.03307e-08
-6.61532e-08 -9.03307e-08 0.0313689

0.0272958 -0.0021371 6.0079e-08
-0.0021371 0.0336604 -9.30668e-08
6.0079e-08 -9.30668e-08 0.0302286

0.0327806 -0.00107727 1.23628e-07
-0.00107727 0.0253225 -7.48386e-08
1.23628e-07 -7.48386e-08 0.0272571

0.0333181 -0.004271 -1.81481e-07
-0.004271 0.0323837 1.49019e-07
-1.81481e-07 1.49019e-07 0.0335321

0.0264913 0.00121996 -1.05397e-07
0.00121996 0.033839 8.96531e-10
-1.05397e-07 8.96531e-10 0.0288189

0.0398124 -0.00243201 3.27533e-07
-0.00243201 0.0352207 3.86137e-08
3.27533e-07 3.86137e-08 0.0354637

0.0188905 0.00316502 -1.67467e-07
0.00316502 0.0278786 5.4692e-08
-1.67467e-07 5.4692e-08 0.0162745

0.0338186 -0.00352282 -2.52165e-07
-0.00352282 0.0334975 3.65015e-08
-2.52165e-07 3.65015e-08 0.033729

0.0353468 -0.00399947 -4.02773e-08
-0.00399947 0.033049 -3.42925e-08
-4.02773e-08 -3.42925e-08 0.0339068

0.0266885 -9.05165e-05 1.13961e-07
-9.05165e-05 0.0349215 -1.46215e-08
1.13961e-07 -1.46215e-08 0.0299309

0.0332464 -0.00217652 8.41564e-08
-0.00217652 0.0271558 -1.82152e-07
8.41564e-08 -1.82152e-07 0.0289056

0.0293503 0.00168493 -2.64311e-08
0.00168493 0.0358229 1.87805e-07
-2.64311e-08 1.87805e-07 0.0328826

0.0132085 -0.000379192 -3.37683e-07
-0.000379192 0.0283648 -2.28913e-07
-3.37683e-07 -2.28913e-07 0.0111529

0.0271163 0.0018686 -1.43557e-07
0.0018686 0.0340648 -7.07205e-08
-1.43557e-07 -7.07205e-08 0.0303091

0.0311124 -0.00385897 -1.79876e-07
-0.00385897 0.0291573 -9.57725e-08
-1.79876e-07 -9.57725e-08 0.0288092

0.0186214 0.00320492 -1.81657e-07
0.00320492 0.0301423 1.40097e-08
-1.81657e-07 1.40097e-08 0.0131281

0.0426028 0.00351785 -2.20471e-07
0.00351785 0.0418503 -4.24688e-07
-2.20471e-07 -4.24688e-07 0.0364827

0.0432057 -0.003748 2.8289e-07
-0.003748 0.0414183 -2.35128e-07
2.8289e-07 -2.35128e-07 0.0364652

0.0310682 -0.00399123 1.36834e-07
-0.00399123 0.030474 2.32448e-08
1.36834e-07 2.32448e-08 0.0304639

0.0289249 -0.00406464 1.75109e-07
-0.00406464 0.0291537 -9.24188e-08
1.75109e-07 -9.24188e-08 0.0275971

0.0330543 0.00272734 1.18372e-07
0.00272734 0.0275313 8.3132e-08
1.18372e-07 8.3132e-08 0.0290782

0.0327829 0.00196033 1.80838e-09
0.00196033 0.0255936 -1.38868e-07
1.80838e-09 -1.38868e-07 0.0278254

0.0464016 0.00041905 -5.02492e-07
0.00041905 0.0463556 -7.01153e-07
-5.02492e-07 -7.01153e-07 0.0366969

0.0469183 -0.000952074 8.72933e-07
-0.000952074 0.0457683 -3.12594e-07
8.72933e-07 -3.12594e-07 0.036768

0.0348027 0.000638366 -6.92522e-08
0.000638366 0.0275759 1.72245e-07
-6.92522e-08 1.72245e-07 0.0322194

0.0277544 0.00088227 -1.87421e-07
0.00088227 0.0355741 3.57493e-09
-1.87421e-07 3.57493e-09 0.0313514

0.0276102 0.000882886 1.30209e-07
0.000882886 0.0355742 1.26476e-08
1.30209e-07 1.26476e-08 0.0312476

0.0234611 0.00740065 1.88889e-07
0.00740065 0.0183034 -2.51772e-07
1.88889e-07 -2.51772e-07 0.0109026

0.0272496 -0.00367598 2.41032e-08
-0.00367598 0.0303502 -6.52235e-08
2.41032e-08 -6.52235e-08 0.027322

0.0365698 0.00239162 -5.33186e-08
0.00239162 0.0295789 2.80014e-08
-5.33186e-08 2.80014e-08 0.0337871

0.0332771 0.00124761 -8.29005e-08
0.00124761 0.0265066 2.40155e-08
-8.29005e-08 2.40155e-08 0.0284344

0.0291552 -0.00349291 9.12534e-08
-0.00349291 0.0304745 -2.4597e-07
9.12534e-08 -2.4597e-07 0.0281759

0.0328139 -0.00264806 1.63886e-07
-0.00264806 0.0267304 -5.89975e-08
1.63886e-07 -5.89975e-08 0.0285894

0.022462 0.0076136 2.80409e-07
0.0076136 0.0185919 2.94673e-07
2.80409e-07 2.94673e-07 0.010905

0.033148 0.00410249 -4.82117e-09
0.00410249 0.0326406 -8.10421e-08
-4.82117e-09 -8.10421e-08 0.0331842

0.0258926 -0.00257869 7.09048e-08
-0.00257869 0.0320271 1.88765e-07
7.09048e-08 1.88765e-07 0.02751

0.0324854 0.00378607 1.07325e-08
0.00378607 0.0292706 1.87159e-07
1.07325e-08 1.87159e-07 0.0301495

0.0268184 -0.0005437 7.0676e-08
-0.0005437 0.0349555 6.06228e-08
7.0676e-08 6.06228e-08 0.0301406

0.0269923 0.00256367 5.65426e-08
0.00256367 0.0324517 -1.78049e-07
5.65426e-08 -1.78049e-07 0.028289

0.0305291 0.00399144 -1.94825e-07
0.00399144 0.0293257 1.67798e-07
-1.94825e-07 1.67798e-07 0.0287777

0.0276113 -0.00293746 -4.11204e-08
-0.00293746 0.0318567 -2.02592e-07
-4.11204e-08 -2.02592e-07 0.0282516

0.0294588 -0.00357626 2.50927e-08
-0.00357626 0.0303538 -6.52221e-08
2.50927e-08 -6.52221e-08 0.0283075

0.0181391 0.00142566 -8.12933e-09
0.00142566 0.0280388 3.92267e-08
-8.12933e-09 3.92267e-08 0.0131288

0.0234759 -0.00429444 -1.03657e-07
-0.00429444 0.0275588 1.47762e-07
-1.03657e-07 1.47762e-07 0.017725

0.0262078 -0.00152617 -7.2308e-08
-0.00152617 0.0336268 -2.61198e-07
-7.2308e-08 -2.61198e-07 0.0287544

0.0330263 0.00347506 1.06454e-07
0.00347506 0.0288804 -1.6722e-07
1.06454e-07 -1.6722e-07 0.0300715

0.0303243 0.00385779 -4.18605e-08
0.00385779 0.0298894 -5.08858e-09
-4.18605e-08 -5.08858e-09 0.0289928

0.0274168 -0.00280102 2.01915e-07
-0.00280102 0.0319868 1.98389e-07
2.01915e-07 1.98389e-07 0.0281416

0.0265571 -0.00154094 -1.65181e-08
-0.00154094 0.033586 2.55878e-08
-1.65181e-08 2.55878e-08 0.0287489

0.0309593 0.00371869 -2.34718e-07
0.00371869 0.0295663 -8.61596e-09
-2.34718e-07 -8.61596e-09 0.0289437

0.0267618 -0.00181612 1.0662e-07
-0.00181612 0.0334772 -2.22943e-07
1.0662e-07 -2.22943e-07 0.0289568

0.0191676 0.00355491 2.75715e-07
0.00355491 0.0276102 7.80658e-08
2.75715e-07 7.80658e-08 0.0162937

0.0308757 -0.00053459 8.27328e-08
-0.00053459 0.0388216 5.37743e-08
8.27328e-08 5.37743e-08 0.0342968

0.028659 0.00404835 1.43613e-07
0.00404835 0.0295213 -5.08634e-08
1.43613e-07 -5.08634e-08 0.027717

0.0355829 0.00197529 1.36634e-07
0.00197529 0.0295054 1.6579e-08
1.36634e-07 1.6579e-08 0.0328452

0.0362616 -0.00211513 6.95618e-08
-0.00211513 0.0297577 7.57551e-08
6.95618e-08 7.57551e-08 0.0332203

0.028513 -0.00309613 -1.45755e-07
-0.00309613 0.0185704 6.19828e-08
-1.45755e-07 6.19828e-08 0.0157313

0.0283559 -0.00279057 1.64317e-07
-0.00279057 0.0327786 2.72734e-07
1.64317e-07 2.72734e-07 0.0305742

0.0291939 0.00350105 -1.31564e-07
0.00350105 0.0316029 -5.70772e-08
-1.31564e-07 -5.70772e-08 0.03049

0.0349623 -0.00290727 1.16074e-07
-0.00290727 0.0376773 1.61157e-07
1.16074e-07 1.61157e-07 0.0352384

0.0394611 0.0018849 2.70445e-07
0.0018849 0.0446087 -7.50728e-08
2.70445e-07 -7.50728e-08 0.036435

0.0449441 0.00129023 2.17728e-07
0.00129023 0.0391178 -1.97232e-07
2.17728e-07 -1.97232e-07 0.0364169

0.0355622 0.00434527 -1.78811e-08
0.00434527 0.0351368 -1.47235e-07
-1.78811e-08 -1.47235e-07 0.0350056

0.026574 0.00338839 3.58319e-09
0.00338839 0.031009 -3.856e-08
3.58319e-09 -3.856e-08 0.0272582

0.033042 0.00349731 1.71375e-08
0.00349731 0.0286693 5.73364e-08
1.71375e-08 5.73364e-08 0.0300526

0.0220617 0.00576493 -1.47572e-07
0.00576493 0.0242397 -1.17399e-07
-1.47572e-07 -1.17399e-07 0.0160738

0.0386193 -0.001512 2.08889e-07
-0.001512 0.0444332 -9.95217e-08
2.08889e-07 -9.95217e-08 0.0363642

0.0460479 -0.000464143 4.32628e-08
-0.000464143 0.0454387 1.37523e-08
4.32628e-08 1.37523e-08 0.036693

0.0451798 -3.08504e-05 1.61972e-07
-3.08504e-05 0.0463011 1.69689e-07
1.61972e-07 1.69689e-07 0.036675

0.0176422 -0.0067955 1.44781e-07
-0.0067955 0.0231102 -1.78217e-07
1.44781e-07 -1.78217e-07 0.0107394

0.0392941 -0.00155602 -2.00606e-07
-0.00155602 0.0387159 1.60598e-07
-2.00606e-07 1.60598e-07 0.0358557

0.0383978 0.00117609 -2.92757e-07
0.00117609 0.0415189 -2.2363e-07
-2.92757e-07 -2.2363e-07 0.0361271

0.0331778 -0.00343601 4.59444e-08
-0.00343601 0.0282221 1.06034e-07
4.59444e-08 1.06034e-07 0.029906

0.0318466 0.000140246 -2.86748e-08
0.000140246 0.0386744 6.51056e-08
-2.86748e-08 6.51056e-08 0.0344528

0.0285794 -0.00266049 7.89559e-08
-0.00266049 0.033383 -3.91433e-08
7.89559e-08 -3.91433e-08 0.0315919

0.035665 0.000831831 -1.77624e-07
0.000831831 0.0273804 9.10564e-08
-1.77624e-07 9.10564e-08 0.0330027

0.0288787 0.00204446 -1.09536e-07
0.00204446 0.0368189 -5.43664e-09
-1.09536e-07 -5.43664e-09 0.0336722

0.0298716 0.000946551 9.89913e-08
0.000946551 0.0373906 1.54839e-08
9.89913e-08 1.54839e-08 0.033366

0.0344044 0.00268529 4.39194e-08
0.00268529 0.0288539 5.39947e-08
4.39194e-08 5.39947e-08 0.0312288

0.0132801 -0.000409326 1.71403e-07
-0.000409326 0.0281253 1.52741e-07
1.71403e-07 1.52741e-07 0.0112024

0.0309676 -0.00362633 -1.70281e-07
-0.00362633 0.0309181 2.26007e-08
-1.70281e-07 2.26007e-08 0.0306121

0.0329311 -0.00344361 4.69291e-09
-0.00344361 0.0320237 4.96156e-08
4.69291e-09 4.96156e-08 0.0325818

0.0335737 -0.00415904 -1.30686e-07
-0.00415904 0.0325372 -7.56517e-08
-1.30686e-07 -7.56517e-08 0.0337382

0.0265643 0.00414904 -2.15705e-07
0.00414904 0.0176928 1.37548e-07
-2.15705e-07 1.37548e-07 0.0126063

0.0388293 -0.00269648 3.71362e-07
-0.00269648 0.039577 -4.23104e-08
3.71362e-07 -4.23104e-08 0.0359605

0.0230847 0.00692136 6.26892e-08
0.00692136 0.0255041 1.63048e-07
6.26892e-08 1.63048e-07 0.0126106

0.0308773 -0.00281757 1.8407e-07
-0.00281757 0.0348104 -1.1145e-07
1.8407e-07 -1.1145e-07 0.0339588

0.035415 0.00193659 -5.18947e-08
0.00193659 0.0284684 -3.74968e-08
-5.18947e-08 -3.74968e-08 0.0323472

0.0318242 -0.00189355 4.57679e-08
-0.00189355 0.024953 -9.55639e-08
4.57679e-08 -9.55639e-08 0.0253978

0.0292952 0.00315944 -1.42607e-07
0.00315944 0.0327345 -2.509e-08
-1.42607e-07 -2.509e-08 0.0312823

0.0344398 0.00268896 5.8753e-08
0.00268896 0.028637 1.87858e-08
5.8753e-08 1.87858e-08 0.0312235

0.0325207 0.00149854 -1.89272e-07
0.00149854 0.0403757 1.91698e-07
-1.89272e-07 1.91698e-07 0.0353388

0.0319435 -0.0041548 1.67103e-07
-0.0041548 0.0312041 -1.55444e-07
1.67103e-07 -1.55444e-07 0.0318133

0.0396778 0.00265508 1.64813e-07
0.00265508 0.0332005 -9.7923e-09
1.64813e-07 -9.7923e-09 0.0353183

0.0279741 -0.00241892 1.20607e-07
-0.00241892 0.0335539 -8.34928e-08
1.20607e-07 -8.34928e-08 0.0304732

0.0293534 0.000558622 -8.22208e-09
0.000558622 0.0373143 4.13339e-09
-8.22208e-09 4.13339e-09 0.0332552

0.0419449 0.00133731 1.7956e-07
0.00133731 0.0371017 1.24766e-07
1.7956e-07 1.24766e-07 0.0361184

0.0420989 -0.00114846 2.63276e-09
-0.00114846 0.0373275 4.4971e-08
2.63276e-09 4.4971e-08 0.0361003

0.0283858 0.00236928 -1.25238e-07
0.00236928 0.018183 1.24404e-07
-1.25238e-07 1.24404e-07 0.0159513

0.0350289 0.00106148 -1.06942e-07
0.00106148 0.0285688 -3.44057e-08
-1.06942e-07 -3.44057e-08 0.0330617

0.0128679 0.000923552 1.86954e-07
0.000923552 0.0316288 2.7504e-08
1.86954e-07 2.7504e-08 0.00612229

0.0131635 -0.00138828 -3.28723e-07
-0.00138828 0.0321346 1.12398e-07
-3.28723e-07 1.12398e-07 0.0061126

0.0152698 0.00715479 -1.99007e-07
0.00715479 0.0284553 1.21378e-07
-1.99007e-07 1.21378e-07 0.00598472

0.034767 -0.00382153 -1.45505e-07
-0.00382153 0.0312707 -1.63624e-07
-1.45505e-07 -1.63624e-07 0.0329417

0.015582 -0.00619503 -1.72037e-07
-0.00619503 0.0261552 2.33654e-07
-1.72037e-07 2.33654e-07 0.010473

0.0155139 -0.00708732 -1.36732e-07
-0.00708732 0.0274257 1.85865e-07
-1.36732e-07 1.85865e-07 0.00591448

0.0284291 0.00342608 3.11786e-08
0.00342608 0.0310093 -3.84876e-08
3.11786e-08 -3.84876e-08 0.0281553

0.0251952 0.00932655 -1.21758e-07
0.00932655 0.0190222 -1.52392e-07
-1.21758e-07 -1.52392e-07 0.00593438

0.0365397 0.0017315 -1.91721e-07
0.0017315 0.0385542 1.89945e-07
-1.91721e-07 1.89945e-07 0.0354775

0.0395367 2.54629e-05 -6.49824e-08
2.54629e-05 0.0355414 9.13076e-08
-6.49824e-08 9.13076e-08 0.0354582

0.0261093 -0.0092451 3.04197e-09
-0.0092451 0.0188139 2.05115e-07
3.04197e-09 2.05115e-07 0.00588855

0.0276924 -0.00306563 2.35277e-07
-0.00306563 0.0320983 1.43128e-07
2.35277e-07 1.43128e-07 0.0296256

0.0262575 0.00441862 -1.47586e-07
0.00441862 0.0201597 -1.2484e-07
-1.47586e-07 -1.2484e-07 0.0130459

0.0172806 0.00797368 3.13215e-08
0.00797368 0.027151 -1.30258e-07
3.13215e-08 -1.30258e-07 0.00598844

0.0181977 0.00275543 2.27191e-07
0.00275543 0.0275924 -1.42132e-10
2.27191e-07 -1.42132e-10 0.0128513

0.0173054 -0.00827697 -1.24906e-08
-0.00827697 0.0271543 -1.08087e-07
-1.24906e-08 -1.08087e-07 0.0058143

0.0179344 -0.00157115 3.12672e-07
-0.00157115 0.0280082 7.60547e-08
3.12672e-07 7.60547e-08 0.0126917

0.0370517 0.000922802 1.79796e-07
0.000922802 0.0413024 -3.57721e-08
1.79796e-07 -3.57721e-08 0.0358123

0.0221333 -0.00585579 1.57776e-07
-0.00585579 0.0236669 3.9858e-07
1.57776e-07 3.9858e-07 0.0151603

0.0157014 0.00598681 1.61708e-07
0.00598681 0.0259046 1.49021e-07
1.61708e-07 1.49021e-07 0.0107512

0.0302108 0.0047304 -3.22552e-08
0.0047304 0.0143504 -3.53602e-07
-3.22552e-08 -3.53602e-07 0.00611643

0.0329412 -0.00384968 6.27831e-08
-0.00384968 0.0301268 -8.90857e-08
6.27831e-08 -8.90857e-08 0.031054

0.030891 0.00169387 -1.64151e-08
0.00169387 0.0368455 -9.45715e-09
-1.64151e-08 -9.45715e-09 0.0339529

0.0260923 -0.00484456 9.39122e-08
-0.00484456 0.0191989 -2.68035e-07
9.39122e-08 -2.68035e-07 0.0126962

0.0330035 -0.00378619 1.01661e-07
-0.00378619 0.0300777 3.08891e-09
1.01661e-07 3.08891e-09 0.0311303

0.0300212 -0.00452031 2.18081e-08
-0.00452031 0.0130545 2.59939e-07
2.18081e-08 2.59939e-07 0.00603787

0.0324762 -0.00372789 1.28386e-07
-0.00372789 0.0313101 -2.12303e-07
1.28386e-07 -2.12303e-07 0.0319821

0.0280936 -0.00331162 -9.00856e-09
-0.00331162 0.0320071 -2.45125e-07
-9.00856e-09 -2.45125e-07 0.0296281

0.0234452 0.00874426 1.73999e-07
0.00874426 0.0204845 -2.61866e-07
1.73999e-07 -2.61866e-07 0.00602673

0.0182011 -0.00292111 -3.51498e-07
-0.00292111 0.0268691 -1.93357e-07
-3.51498e-07 -1.93357e-07 0.0122711

0.0233163 -0.00901991 -3.9245e-08
-0.00901991 0.0201536 -1.33849e-07
-3.9245e-08 -1.33849e-07 0.00588455

0.0170837 0.00640892 -2.23715e-07
0.00640892 0.0235681 9.15264e-08
-2.23715e-07 9.15264e-08 0.0108321

0.0308292 -0.00396054 -1.99399e-07
-0.00396054 0.030163 -6.57809e-08
-1.99399e-07 -6.57809e-08 0.0300882

0.0389199 -0.00195876 2.86658e-07
-0.00195876 0.0369425 -4.91689e-10
2.86658e-07 -4.91689e-10 0.0355018

0.045541 0.00150633 1.8009e-07
0.00150633 0.0449538 3.75348e-07
1.8009e-07 3.75348e-07 0.0366212

0.0435652 -0.000711288 -4.05197e-07
-0.000711288 0.0462317 -2.21728e-08
-4.05197e-07 -2.21728e-08 0.0365869

0.0286181 0.0017157 -9.86648e-08
0.0017157 0.0355692 1.75489e-07
-9.86648e-08 1.75489e-07 0.0323923

0.0453363 -0.00144771 -9.70566e-08
-0.00144771 0.0449806 -4.34158e-07
-9.70566e-08 -4.34158e-07 0.0366389

0.0438085 0.000567791 -1.03183e-07
0.000567791 0.0465063 1.66273e-07
-1.03183e-07 1.66273e-07 0.03662

0.04668 0.000990908 5.8443e-07
0.000990908 0.0433772 2.29205e-07
5.8443e-07 2.29205e-07 0.0365951

0.0397514 -0.00163922 -2.95511e-07
-0.00163922 0.0460747 -2.15578e-07
-2.95511e-07 -2.15578e-07 0.0364849

0.0190555 -0.00388774 -4.12492e-07
-0.00388774 0.0272332 -7.08341e-08
-4.12492e-07 -7.08341e-08 0.0154726

0.0421424 -0.00175035 -2.65231e-07
-0.00175035 0.0367273 1.10873e-07
-2.65231e-07 1.10873e-07 0.036007

0.035967 -0.00457316 1.49429e-07
-0.00457316 0.0351522 2.91753e-08
1.49429e-07 2.91753e-08 0.0349705

0.0397547 -0.0024218 -1.77985e-07
-0.0024218 0.0360655 -6.33383e-08
-1.77985e-07 -6.33383e-08 0.0355695

0.035188 0.0020435 -8.97125e-08
0.0020435 0.0285516 9.32954e-09
-8.97125e-08 9.32954e-09 0.0322346

0.0396934 0.00133729 -3.47161e-07
0.00133729 0.047226 -1.10355e-07
-3.47161e-07 -1.10355e-07 0.0365508

0.0464969 0.00259357 -2.9946e-08
0.00259357 0.0404189 3.44672e-07
-2.9946e-08 3.44672e-07 0.036532

0.0400883 0.00150571 1.11381e-07
0.00150571 0.0366755 -1.98485e-07
1.11381e-07 -1.98485e-07 0.0356175

0.0279168 -0.00192017 -9.21457e-08
-0.00192017 0.0125256 2.73237e-07
-9.21457e-08 2.73237e-07 0.0106255

0.0283219 0.003268 4.29958e-08
0.003268 0.0315532 1.05612e-08
4.29958e-08 1.05612e-08 0.0294133

0.0231901 -0.00773676 1.20319e-07
-0.00773676 0.0181814 -2.62214e-07
1.20319e-07 -2.62214e-07 0.0102904

0.0228327 -0.00731636 2.74562e-07
-0.00731636 0.0257709 2.88827e-07
2.74562e-07 2.88827e-07 0.0119556

0.0290249 -0.00464748 -6.62486e-09
-0.00464748 0.0191299 3.5996e-08
-6.62486e-09 3.5996e-08 0.0126162

0.037576 -0.000660433 2.72332e-07
-0.000660433 0.0449128 -4.86091e-07
2.72332e-07 -4.86091e-07 0.036296

0.0375737 0.000358538 1.92889e-07
0.000358538 0.0447912 3.7732e-07
1.92889e-07 3.7732e-07 0.0362762

0.042606 -0.0032742 -3.22632e-07
-0.0032742 0.0394518 2.20137e-07
-3.22632e-07 2.20137e-07 0.03623

0.043 -0.00294424 2.85651e-07
-0.00294424 0.0391699 -8.64673e-08
2.85651e-07 -8.64673e-08 0.036237

0.0425026 0.00350389 2.32628e-08
0.00350389 0.0399739 -1.47062e-07
2.32628e-08 -1.47062e-07 0.0362748

0.0443975 0.000417078 4.99202e-07
0.000417078 0.0450837 3.998e-07
4.99202e-07 3.998e-07 0.0366381

0.0426093 -0.00274447 1.87422e-07
-0.00274447 0.0395089 -1.22848e-07
1.87422e-07 -1.22848e-07 0.0362916

0.0426031 -0.00251179 2.87747e-07
-0.00251179 0.0442661 -2.59496e-07
2.87747e-07 -2.59496e-07 0.0365657

0.0451177 0.000331357 1.86238e-07
0.000331357 0.0454668 2.69479e-07
1.86238e-07 2.69479e-07 0.0366564

0.0436371 -0.00278259 8.46519e-08
-0.00278259 0.0389181 5.765e-08
8.46519e-08 5.765e-08 0.0363322

0.0435128 0.00283846 4.43421e-08
0.00283846 0.0390706 2.52228e-08
4.43421e-08 2.52228e-08 0.0363703

0.0451938 -0.000470622 -6.16208e-08
-0.000470622 0.0455821 2.29724e-07
-6.16208e-08 2.29724e-07 0.0367051

0.0452261 -0.000424834 -5.94018e-07
-0.000424834 0.0443626 7.7997e-07
-5.94018e-07 7.7997e-07 0.0367234

0.0428008 0.00163784 -2.55303e-07
0.00163784 0.0442484 2.13386e-07
-2.55303e-07 2.13386e-07 0.0366095

0.0411178 0.00361828 1.73667e-07
0.00361828 0.0405173 -1.14018e-07
1.73667e-07 -1.14018e-07 0.0363241

SCALARS pressure float
LOOKUP_TABLE default
-60.0604
19.3099
5.80622
21.2915
15.8792
5.8902
-58.6834
7.78547
-3.80259
15.1262
-24.4363
7.61963
5.59434
12.2814
23.3367
5.54127
18.5221
13.21
-0.68997
6.75979
-0.902423
33.1264
5.80394
5.79985
6.60501
14.9053
-38.3902
6.67474
-15.2419
30.6205
5.17863
-15.6567
-42.0619
27.3229
20.7764
27.3558
31.8786
19.8066
4.86194
-42.6052
-17.4072
31.8994
31.9875
5.99578
-21.8068
-15.9754
-1.0497
-3.40328
6.54781
-16.2178
-18.919
-15.345
20.7548
-15.3723
20.3082
-33.1518
21.1268
-15.4594
21.1366
7.04804
21.7659
16.1192
-45.567
12.7907
16.3625
10.9069
21.5752
13.8306
5.77654
21.8186
20.8109
20.7815
-17.6909
11.6023
3.97635
-31.6141
14.357
10.9981
14.1487
-8.71817
-28.9467
14.9772
20.1642
-22.039
-23.4301
-28.0947
7.10082
9.63416
-22.2176
37.7332
-15.5081
38.4356
18.3043
10.7636
-15.1657
-15.8725
-30.2234
14.755
14.366
4.60102
-10.7647
-21.9398
-25.1031
16.2151
14.1029
14.9632
18.6986
3.77719
-24.5598
26.513
7.22075
-21.4105
-24.6137
14.8405
15.0796
-16.145
20.1622
-29.1152
20.6258
-16.7287
-2.90211
23.8328
21.7286
16.034
26.6795
22.6316
21.783
15.71
-29.783
-16.0982
24.0903
21.619
20.9901
22.0672
-22.0142
23.5836
-33.8403
5.4657
21.7549
23.627
-21.9371
6.6784
-5.96453
15.0859
-30.4096
15.6258
7.83585
2.41014
5.18019
-9.39274
-0.455376
22.6429
-15.4541
5.29323
15.2065
21.5622
11.51
-21.1134
-21.2639
10.7931
-2.84055
-15.197
-21.2221
-15.1649
-20.9866
15.2812
-20.6359
-21.2017
-15.2073
-21.0639
19.0039
-15.9402
-14.824
12.0661
-14.4837
18.8039
19.053
7.47531
18.0475
11.7755
-16.2486
15.2897
14.9625
-21.5287
10.4283
-14.2208
16.0497
14.597
17.0817
14.8366
10.3456
-26.9779
-16.0815
-15.9577
21.9085
14.5285
14.6273
20.9235
22.4884
9.50459
21.7353
-0.381927
-8.16898
20.7797
-17.8386
19.9464
10.3661
-21.5178
15.7222
22.5274
14.7316
9.39571
14.1925
21.0564
-7.8309
8.82957
-7.90676
14.6497
26.9274
26.5811
27.9602
26.3883
26.7241
26.2908
13.8282
23.4292
24.0283
23.9726
23.3989
21.1921
21.8566
-8.26104
15.9355
28.1911
-3.18667
23.575
23.2042
27.8344
-8.49182
28.0964
15.3461
-7.5797
17.4928
-8.25601
20.2281
29.6126
-7.48408
-8.09897
-29.5939
-18.1894
19.5281
-31.9879
5.73647
-7.79215
-1.18689
28.2492
26.6401
30.4212
26.7608
-34.8038
-8.17787
28.3373
8.07534
-8.29343
26.4458
-6.29337
30.4661
-7.95228
27.0468
14.5671
14.7897
23.844
10.0493
18.0206
8.11938
-29.8625
-24.5553
16.8068
1.76212
8.18197
-13.6078
17.4365
11.7015
-8.09973
9.45403
-10.822
7.51919
-10.7532
-8.48302
33.2578
19.1512
25.0872
25.3115
13.8313
-10.403
26.4269
14.6861
-1.65677
-10.2724
-12.563
17.5064
-7.48336
17.5744
-12.04
-21.3523
-10.6068
-34.684
15.5639
-7.76113
34.4355
-11.5766
16.8729
-8.40701
15.9738
-12.7571
4.29115
-51.1241
8.52445
-7.7448
21.3335
-8.15036
-0.120445
10.7167
21.1259
-12.0594
-10.1992
-6.06635
14.3194
-10.1785
6.89
6.38841
16.3052
-10.4181
-6.32852
-1.70022
-5.65854
-11.0771
-5.84279
15.3066
7.81004
-5.55412
-8.95878
7.8073
7.69611
-10.6731
16.3091
-27.2185
2.29527
-28.4831
-0.955496
-8.88719
-8.10539
-11.7884
-10.952
-9.89015
-7.78506
-7.90844
16.6392
24.7756
12.1186
-0.28928
-0.82269
-5.67269
7.30714
-6.31885
-6.31613
24.9213
-5.7281
14.1185
-15.9076
24.3239
5.97073
-0.388853
-5.64199
16.275
2.47925
0.201397
2.45024
0.458301
-0.738387
-9.92881
-0.093228
2.11542
15.0692
-1.2859
-1.40476
-0.996451
-0.3863
1.96745
8.05282
-1.1912
8.08026
5.58575
-0.433333
7.03744
5.49279
-3.87447
16.4777
-1.90143
23.0602
-21.9753
15.0454
15.6834
2.04182
-1.99558
12.5448
-26.5109
5.79486
-1.65592
-50.4883
30.4929
30.6296
5.8275
-1.14197
-1.04482
-0.847265
33.4106
33.2852
13.0967
6.08384
6.66462
-28.9674
-1.27701
16.5343
-3.18084
-4.34636
-0.0146106
-25.2757
14.3051
-1.27781
2.86399
2.69538
-2.72126
-0.0470481
-3.20756
-4.03179
-37.9871
-33.6859
-0.125756
1.87653
-0.532014
-3.74234
-1.9346
-1.87583
-0.922239
-21.9091
17.2498
-0.766864
12.567
14.1853
-26.7666
6.28848
7.1393
18.4777
36.4213
36.4537
22.6382
-1.75343
2.60189
-20.9315
36.1202
32.7521
32.819
-24.8131
21.7727
30.5188
2.60141
15.7241
10.3736
17.1658
17.7273
12.507
5.68355
-25.4023
4.26208
10.411
16.2449
-31.7141
28.3062
-52.7157
18.6863
10.3007
-10.626
7.41933
5.45911
24.4732
9.41319
24.4062
4.10721
12.401
30.6364
29.4622
-22.9921
17.4372
-70.2394
-74.3862
-67.1833
11.6498
-31.2649
-63.6165
-3.80162
-69.9449
16.4624
16.4061
-73.7614
5.21492
-39.7344
-70.7455
-37.7602
-71.8821
-39.456
21.1343
-23.9624
-29.0485
-70.6293
4.83338
15.7586
-36.1941
6.05571
-63.624
9.83796
3.88433
-67.9078
-37.628
-66.4173
-23.7596
5.03163
20.5242
35.3638
36.7193
11.8141
36.843
36.8963
36.4848
36.3983
-24.481
28.2451
20.6691
21.9787
11.5369
36.0542
36.0856
18.1186
-23.9445
3.24904
-30.5311
-56.6024
-50.4788
36.1378
35.8186
35.3754
35.4455
36.1537
35.5916
33.1049
37.3644
35.3928
36.0006
35.6329
34.1895
34.326
35.85
35.3048
