# vtk DataFile Version 3.0
vtk output at time 110
ASCII
DATASET UNSTRUCTURED_GRID
POINTS 626 float
-3.68058e-05 0.000978749 0 3.68058e-05 0.000978749 0 -0.000829194 0.00052125 0 
-0.0008235 0.0005 0 -0.000866 0.0004575 0 -0.000866 -0.0004575 0 
-0.0008235 -0.0005 0 -0.000829194 -0.00052125 0 -3.68058e-05 -0.000978749 0 
3.68058e-05 -0.000978749 0 0.000829194 -0.00052125 0 0.000866 -0.0004575 0 
0.000866 0.0004575 0 0.000829194 0.00052125 0 8.5e-05 0 0 
-3.68058e-05 0.000978749 -0.001 3.68058e-05 0.000978749 -0.001 -0.000829194 0.00052125 -0.001 
-0.0008235 0.0005 -0.001 -0.000866 0.0004575 -0.001 -0.000866 -0.0004575 -0.001 
-0.0008235 -0.0005 -0.001 -0.000829194 -0.00052125 -0.001 -3.68058e-05 -0.000978749 -0.001 
3.68058e-05 -0.000978749 -0.001 0.000829194 -0.00052125 -0.001 0.000866 -0.0004575 -0.001 
0.000866 0.0004575 -0.001 0.000829194 0.00052125 -0.001 8.5e-05 0 -0.001 
8.46223e-17 0.0009575 0 -0.000715996 0.000586607 0 -0.000602797 0.000651965 0 
-0.000489599 0.000717321 0 -0.000376401 0.000782678 0 -0.000263202 0.000848036 0 
-0.000150004 0.000913393 0 -0.000835948 0.000469948 0 -0.000866 -0.000326786 0 
-0.000866 -0.000196071 0 -0.000866 -6.53571e-05 0 -0.000866 6.53571e-05 0 
-0.000866 0.000196071 0 -0.000866 0.000326786 0 -0.000835948 -0.000469948 0 
-0.000150004 -0.000913393 0 -0.000263202 -0.000848036 0 -0.000376401 -0.000782678 0 
-0.000489599 -0.000717321 0 -0.000602797 -0.000651965 0 -0.000715996 -0.000586607 0 
8.47648e-17 -0.0009575 0 0.000715996 -0.000586607 0 0.000602797 -0.000651965 0 
0.000489599 -0.000717321 0 0.000376401 -0.000782678 0 0.000263202 -0.000848036 0 
0.000150004 -0.000913393 0 0.000829194 -0.00047875 0 0.000866 0.000326786 0 
0.000866 0.000196071 0 0.000866 6.53571e-05 0 0.000866 -6.53571e-05 0 
0.000866 -0.000196071 0 0.000866 -0.000326786 0 0.000829194 0.00047875 0 
0.000150004 0.000913393 0 0.000263202 0.000848036 0 0.000376401 0.000782678 0 
0.000489599 0.000717321 0 0.000602797 0.000651965 0 0.000715996 0.000586607 0 
5.29966e-05 6.64557e-05 0 -1.89143e-05 8.28689e-05 0 -7.65824e-05 3.68801e-05 0 
-7.65824e-05 -3.68801e-05 0 -1.89143e-05 -8.28689e-05 0 5.29966e-05 -6.64557e-05 0 
8.46223e-17 0.0009575 -0.001 -0.000715996 0.000586607 -0.001 -0.000602797 0.000651965 -0.001 
-0.000489599 0.000717321 -0.001 -0.000376401 0.000782678 -0.001 -0.000263202 0.000848036 -0.001 
-0.000150004 0.000913393 -0.001 -0.000835948 0.000469948 -0.001 -0.000866 -0.000326786 -0.001 
-0.000866 -0.000196071 -0.001 -0.000866 -6.53571e-05 -0.001 -0.000866 6.53571e-05 -0.001 
-0.000866 0.000196071 -0.001 -0.000866 0.000326786 -0.001 -0.000835948 -0.000469948 -0.001 
-0.000150004 -0.000913393 -0.001 -0.000263202 -0.000848036 -0.001 -0.000376401 -0.000782678 -0.001 
-0.000489599 -0.000717321 -0.001 -0.000602797 -0.000651965 -0.001 -0.000715996 -0.000586607 -0.001 
8.47648e-17 -0.0009575 -0.001 0.000715996 -0.000586607 -0.001 0.000602797 -0.000651965 -0.001 
0.000489599 -0.000717321 -0.001 0.000376401 -0.000782678 -0.001 0.000263202 -0.000848036 -0.001 
0.000150004 -0.000913393 -0.001 0.000829194 -0.00047875 -0.001 0.000866 0.000326786 -0.001 
0.000866 0.000196071 -0.001 0.000866 6.53571e-05 -0.001 0.000866 -6.53571e-05 -0.001 
0.000866 -0.000196071 -0.001 0.000866 -0.000326786 -0.001 0.000829194 0.00047875 -0.001 
0.000150004 0.000913393 -0.001 0.000263202 0.000848036 -0.001 0.000376401 0.000782678 -0.001 
0.000489599 0.000717321 -0.001 0.000602797 0.000651965 -0.001 0.000715996 0.000586607 -0.001 
5.29966e-05 6.64557e-05 -0.001 -1.89143e-05 8.28689e-05 -0.001 -7.65824e-05 3.68801e-05 -0.001 
-7.65824e-05 -3.68801e-05 -0.001 -1.89143e-05 -8.28689e-05 -0.001 5.29966e-05 -6.64557e-05 -0.001 
0.000131234 6.38474e-05 0 0.00012964 -6.2443e-05 0 3.13827e-05 0.0001394 0 
3.12554e-05 -0.000136939 0 -0.000140461 8.25467e-19 0 -8.90565e-05 -0.000102707 0 
-9.04142e-05 0.000102872 0 -0.000765769 -0.00025965 0 -0.000756873 0.000262774 0 
-0.00015609 0.000787505 0 -0.000155807 -0.00079355 0 0.000605069 0.000528035 0 
0.000608694 -0.00052497 0 0.000744069 0.000116929 0 -0.000494418 0.000596218 0 
-0.000483866 -0.000584648 0 0.000269496 0.000702219 0 0.000263201 -0.000717324 0 
0.000754429 -0.000127825 0 -0.000748858 5.84659e-07 0 -0.000747838 0.000373886 0 
-0.0006542 0.000324842 0 -0.000645137 0.000210123 0 -0.000550884 0.000274171 0 
-0.000538857 0.000163195 0 -0.00045062 0.000224461 0 -0.000438393 0.000123907 0 
-0.000354088 0.000181668 0 -0.000363908 0.000282171 0 -0.000270361 0.000239477 0 
-0.000279138 0.000337653 0 -0.000188888 0.000294791 0 -0.000196448 0.000393271 0 
-0.000104767 0.000348259 0 -0.000113332 0.000449012 0 -2.01066e-05 0.000403223 0 
-2.89189e-05 0.000507105 0 6.9524e-05 0.000461596 0 -0.000213644 0.000490203 0 
7.33757e-05 0.000357726 0 0.000163331 0.00041299 0 0.000163359 0.000313022 0 
0.000248077 0.000366368 0 0.000250914 0.000265758 0 0.000335709 0.000322266 0 
0.000340555 0.000218148 0 0.000427299 0.000276717 0 0.000431508 0.000173093 0 
0.000328731 0.000425633 0 0.00034586 0.000114823 0 0.000435362 7.05241e-05 0 
0.000350892 1.5455e-05 0 0.000441547 -3.11896e-05 0 0.000353547 -8.47783e-05 0 
0.000445767 -0.000132964 0 0.000356135 -0.000186358 0 0.000449094 -0.000234674 0 
0.000359978 -0.000287876 0 0.00026856 -0.000240545 0 0.000271895 -0.000341045 0 
0.000181792 -0.00029305 0 0.00018533 -0.000392851 0 9.75701e-05 -0.00034483 0 
9.98764e-05 -0.000444884 0 8.75116e-06 -0.000396343 0 1.20916e-05 -0.000500496 0 
-7.83929e-05 -0.000449843 0 -8.1471e-05 -0.000347249 0 -0.000171566 -0.000403733 0 
-0.000169889 -0.000298891 0 -0.000259867 -0.000354132 0 -0.000257696 -0.000249137 0 
-0.00034313 -0.000299896 0 -0.000344514 -0.000199127 0 -0.000434309 -0.000250039 0 
-0.000169832 -0.000505815 0 -0.000435227 -0.000146227 0 0.000280331 -0.000442424 0 
-0.000340889 8.76793e-05 0 -0.000515252 4.06198e-05 0 6.50491e-05 0.000568253 0 
0.00053278 1.74743e-05 0 0.000522071 0.000229831 0 -0.00037162 0.000391659 0 
-0.000255272 -0.000150439 0 -0.000442893 -0.000350705 0 0.000450067 -0.000332559 0 
0.000545175 -0.000276306 0 -0.000527797 -0.000197598 0 0.000105306 -0.000551033 0 
1.45836e-05 -0.000609147 0 0.00017145 0.000214453 0 0.000515525 0.000341711 0 
0.000636086 0.000290368 0 -0.000558657 0.000404468 0 -4.01232e-05 0.000616718 0 
6.60192e-05 0.000696422 0 -0.000101806 0.0002546 0 0.000271142 -3.88908e-05 0 
0.000179455 -0.00018534 0 -8.79553e-05 -0.000254307 0 -0.000749267 -0.000373451 0 
-0.000655941 -0.000323397 0 0.000709746 0.000466718 0 0.000698426 -0.000473086 0 
-5.25801e-05 -0.00084886 0 -4.93005e-05 0.000848038 0 0.000617396 -0.000413362 0 
0.000702056 -0.000369817 0 0.000131459 -0.000679171 0 2.48171e-05 -0.000715924 0 
-0.000664217 -0.00042729 0 -0.000528828 -8.80444e-05 0 -0.000611101 -0.000136672 0 
-0.000426972 -4.45841e-05 0 0.000800669 0.000378216 0 0.000821144 -0.000415062 0 
7.2799e-05 0.00088254 0 6.81831e-05 -0.00087503 0 0.000104963 -0.000788946 0 
-7.40696e-05 -0.000660054 0 0.000126061 0.000809943 0 0.000764361 0.000295682 0 
0.000166862 0.000630623 0 0.000516462 -0.00046707 0 -0.000563585 -0.000389606 0 
-0.000622598 -1.40238e-05 0 0.000629891 0.000171529 0 2.5614e-06 -0.000299794 0 
8.6901e-05 -0.00024329 0 0.000272045 -0.000136982 0 -0.00075148 0.000138321 0 
0.000209366 -0.000599589 0 0.000324913 -0.000630055 0 0.000614044 0.00041245 0 
0.00049651 -0.000573327 0 0.000394822 -0.000507321 0 -0.000173714 -0.000206698 0 
0.000264897 5.63722e-05 0 0.000247997 0.000152811 0 -4.63327e-05 -0.000920208 0 
9.18688e-05 0.000258626 0 -5.54111e-06 0.000290558 0 -0.000184219 0.000201484 0 
-0.000263559 0.000142267 0 -0.000256427 5.13624e-05 0 -0.000336894 -2.06179e-06 0 
-0.000228499 -4.2388e-05 0 -0.00017589 0.000106626 0 -0.000769947 -0.000133367 0 
0.000767591 -0.000500293 0 -5.05874e-05 0.000737978 0 0.000754456 -3.51771e-06 0 
0.00064691 -6.15298e-05 0 0.000630483 -0.00018134 0 0.000749187 -0.000265543 0 
-0.000760805 -0.000462521 0 0.000638155 6.09315e-05 0 -4.46661e-05 0.000922995 0 
-2.37945e-05 0.000207237 0 0.000776979 0.000500181 0 -0.000605691 0.000527596 0 
-0.000377914 -0.000653727 0 -0.000372325 -0.000526022 0 -0.000275829 -0.000589621 0 
-0.000254285 -0.000710579 0 -0.000379307 0.000656222 0 -0.000379818 0.00052718 0 
-0.000266817 0.000721555 0 -0.000150544 0.000668174 0 0.000381963 0.00065079 0 
0.000493113 0.000590432 0 0.000505439 0.000463708 0 -0.000269094 0.000596608 0 
0.000385815 0.000532045 0 0.000283599 0.0005899 0 -0.000176405 -0.000108505 0 
-0.000278769 -0.000475415 0 0.000185395 2.33014e-06 0 0.000186773 0.000517571 0 
0.000540032 -8.68444e-05 0 -0.000600694 -0.000514877 0 -0.00063703 8.98033e-05 0 
-0.000459677 0.000335729 0 -0.000338836 -0.000100751 0 -0.000457327 0.000432721 0 
-8.72007e-06 -0.000210238 0 0.000156073 0.000129496 0 -7.70692e-05 -0.000555049 0 
0.00036091 -0.000389728 0 0.000531628 0.000120564 0 -0.000285451 0.000435562 0 
0.000192719 -0.000494604 0 0.00041642 0.00039368 0 -0.000135943 0.000554637 0 
-0.000170665 -0.000610079 0 -0.000666304 0.000434981 0 -0.000758736 0.000479231 0 
-0.000470189 -0.000458901 0 0.000203433 -8.59809e-05 0 0.000101846 0.000170114 0 
-0.00035513 -0.00040726 0 0.000100184 -0.000165831 0 2.96286e-05 0.00081537 0 
0.000720946 0.000381836 0 -0.000539809 -0.000292001 0 0.00052211 -0.000182426 0 
-6.41339e-05 -0.000753908 0 0.000638039 -0.000299861 0 -0.000605136 -0.000230182 0 
-3.41638e-05 -0.000145561 0 -0.000104037 0.000172396 0 -0.000808575 -0.00042774 0 
-0.000807207 -0.000465052 0 -0.00080817 0.000429771 0 -0.000806589 0.000469738 0 
-9.50634e-05 -0.000178909 0 0.000247777 0.000445058 0 1.48293e-05 -0.000814201 0 
-4.11555e-05 0.000140955 0 0.000276104 -0.000536845 0 0.000765969 -0.000436638 0 
0.000780871 -0.000362769 0 0.000424176 -0.000642018 0 0.00053413 -0.000368009 0 
-0.000416333 4.17911e-05 0 -0.000133891 -6.23822e-05 0 4.2574e-05 0.000206312 0 
0.000141163 -0.000121542 0 0.000707423 0.000212137 0 0.000172327 0.000723882 0 
7.72652e-06 -0.00090254 0 -0.000134435 5.66935e-05 0 -0.000188826 3.70894e-05 0 
0.000197119 8.09714e-05 0 1.27801e-05 0.000917296 0 0.000800767 0.00044758 0 
-0.000686682 0.000507104 0 9.35831e-05 0.000110457 0 -0.000696793 -0.000509595 0 
-0.00068446 -8.52012e-05 0 -0.000691033 -0.000201242 0 5.24052e-05 -0.000189075 0 
-0.000151818 -0.000701092 0 -0.000296988 0.000518087 0 9.31023e-05 -0.000108117 0 
0.00044261 -0.000416726 0 0.000197044 -0.000784423 0 -0.000516861 0.000504567 0 
0.000298997 0.000502377 0 0.000131234 6.38474e-05 -0.001 0.00012964 -6.2443e-05 -0.001 
3.13827e-05 0.0001394 -0.001 3.12554e-05 -0.000136939 -0.001 -0.000140461 8.25467e-19 -0.001 
-8.90565e-05 -0.000102707 -0.001 -9.04142e-05 0.000102872 -0.001 -0.000765769 -0.00025965 -0.001 
-0.000756873 0.000262774 -0.001 -0.00015609 0.000787505 -0.001 -0.000155807 -0.00079355 -0.001 
0.000605069 0.000528035 -0.001 0.000608694 -0.00052497 -0.001 0.000744069 0.000116929 -0.001 
-0.000494418 0.000596218 -0.001 -0.000483866 -0.000584648 -0.001 0.000269496 0.000702219 -0.001 
0.000263201 -0.000717324 -0.001 0.000754429 -0.000127825 -0.001 -0.000748858 5.84659e-07 -0.001 
-0.000747838 0.000373886 -0.001 -0.0006542 0.000324842 -0.001 -0.000645137 0.000210123 -0.001 
-0.000550884 0.000274171 -0.001 -0.000538857 0.000163195 -0.001 -0.00045062 0.000224461 -0.001 
-0.000438393 0.000123907 -0.001 -0.000354088 0.000181668 -0.001 -0.000363908 0.000282171 -0.001 
-0.000270361 0.000239477 -0.001 -0.000279138 0.000337653 -0.001 -0.000188888 0.000294791 -0.001 
-0.000196448 0.000393271 -0.001 -0.000104767 0.000348259 -0.001 -0.000113332 0.000449012 -0.001 
-2.01066e-05 0.000403223 -0.001 -2.89189e-05 0.000507105 -0.001 6.9524e-05 0.000461596 -0.001 
-0.000213644 0.000490203 -0.001 7.33757e-05 0.000357726 -0.001 0.000163331 0.00041299 -0.001 
0.000163359 0.000313022 -0.001 0.000248077 0.000366368 -0.001 0.000250914 0.000265758 -0.001 
0.000335709 0.000322266 -0.001 0.000340555 0.000218148 -0.001 0.000427299 0.000276717 -0.001 
0.000431508 0.000173093 -0.001 0.000328731 0.000425633 -0.001 0.00034586 0.000114823 -0.001 
0.000435362 7.05241e-05 -0.001 0.000350892 1.5455e-05 -0.001 0.000441547 -3.11896e-05 -0.001 
0.000353547 -8.47783e-05 -0.001 0.000445767 -0.000132964 -0.001 0.000356135 -0.000186358 -0.001 
0.000449094 -0.000234674 -0.001 0.000359978 -0.000287876 -0.001 0.00026856 -0.000240545 -0.001 
0.000271895 -0.000341045 -0.001 0.000181792 -0.00029305 -0.001 0.00018533 -0.000392851 -0.001 
9.75701e-05 -0.00034483 -0.001 9.98764e-05 -0.000444884 -0.001 8.75116e-06 -0.000396343 -0.001 
1.20916e-05 -0.000500496 -0.001 -7.83929e-05 -0.000449843 -0.001 -8.1471e-05 -0.000347249 -0.001 
-0.000171566 -0.000403733 -0.001 -0.000169889 -0.000298891 -0.001 -0.000259867 -0.000354132 -0.001 
-0.000257696 -0.000249137 -0.001 -0.00034313 -0.000299896 -0.001 -0.000344514 -0.000199127 -0.001 
-0.000434309 -0.000250039 -0.001 -0.000169832 -0.000505815 -0.001 -0.000435227 -0.000146227 -0.001 
0.000280331 -0.000442424 -0.001 -0.000340889 8.76793e-05 -0.001 -0.000515252 4.06198e-05 -0.001 
6.50491e-05 0.000568253 -0.001 0.00053278 1.74743e-05 -0.001 0.000522071 0.000229831 -0.001 
-0.00037162 0.000391659 -0.001 -0.000255272 -0.000150439 -0.001 -0.000442893 -0.000350705 -0.001 
0.000450067 -0.000332559 -0.001 0.000545175 -0.000276306 -0.001 -0.000527797 -0.000197598 -0.001 
0.000105306 -0.000551033 -0.001 1.45836e-05 -0.000609147 -0.001 0.00017145 0.000214453 -0.001 
0.000515525 0.000341711 -0.001 0.000636086 0.000290368 -0.001 -0.000558657 0.000404468 -0.001 
-4.01232e-05 0.000616718 -0.001 6.60192e-05 0.000696422 -0.001 -0.000101806 0.0002546 -0.001 
0.000271142 -3.88908e-05 -0.001 0.000179455 -0.00018534 -0.001 -8.79553e-05 -0.000254307 -0.001 
-0.000749267 -0.000373451 -0.001 -0.000655941 -0.000323397 -0.001 0.000709746 0.000466718 -0.001 
0.000698426 -0.000473086 -0.001 -5.25801e-05 -0.00084886 -0.001 -4.93005e-05 0.000848038 -0.001 
0.000617396 -0.000413362 -0.001 0.000702056 -0.000369817 -0.001 0.000131459 -0.000679171 -0.001 
2.48171e-05 -0.000715924 -0.001 -0.000664217 -0.00042729 -0.001 -0.000528828 -8.80444e-05 -0.001 
-0.000611101 -0.000136672 -0.001 -0.000426972 -4.45841e-05 -0.001 0.000800669 0.000378216 -0.001 
0.000821144 -0.000415062 -0.001 7.2799e-05 0.00088254 -0.001 6.81831e-05 -0.00087503 -0.001 
0.000104963 -0.000788946 -0.001 -7.40696e-05 -0.000660054 -0.001 0.000126061 0.000809943 -0.001 
0.000764361 0.000295682 -0.001 0.000166862 0.000630623 -0.001 0.000516462 -0.00046707 -0.001 
-0.000563585 -0.000389606 -0.001 -0.000622598 -1.40238e-05 -0.001 0.000629891 0.000171529 -0.001 
2.5614e-06 -0.000299794 -0.001 8.6901e-05 -0.00024329 -0.001 0.000272045 -0.000136982 -0.001 
-0.00075148 0.000138321 -0.001 0.000209366 -0.000599589 -0.001 0.000324913 -0.000630055 -0.001 
0.000614044 0.00041245 -0.001 0.00049651 -0.000573327 -0.001 0.000394822 -0.000507321 -0.001 
-0.000173714 -0.000206698 -0.001 0.000264897 5.63722e-05 -0.001 0.000247997 0.000152811 -0.001 
-4.63327e-05 -0.000920208 -0.001 9.18688e-05 0.000258626 -0.001 -5.54111e-06 0.000290558 -0.001 
-0.000184219 0.000201484 -0.001 -0.000263559 0.000142267 -0.001 -0.000256427 5.13624e-05 -0.001 
-0.000336894 -2.06179e-06 -0.001 -0.000228499 -4.2388e-05 -0.001 -0.00017589 0.000106626 -0.001 
-0.000769947 -0.000133367 -0.001 0.000767591 -0.000500293 -0.001 -5.05874e-05 0.000737978 -0.001 
0.000754456 -3.51771e-06 -0.001 0.00064691 -6.15298e-05 -0.001 0.000630483 -0.00018134 -0.001 
0.000749187 -0.000265543 -0.001 -0.000760805 -0.000462521 -0.001 0.000638155 6.09315e-05 -0.001 
-4.46661e-05 0.000922995 -0.001 -2.37945e-05 0.000207237 -0.001 0.000776979 0.000500181 -0.001 
-0.000605691 0.000527596 -0.001 -0.000377914 -0.000653727 -0.001 -0.000372325 -0.000526022 -0.001 
-0.000275829 -0.000589621 -0.001 -0.000254285 -0.000710579 -0.001 -0.000379307 0.000656222 -0.001 
-0.000379818 0.00052718 -0.001 -0.000266817 0.000721555 -0.001 -0.000150544 0.000668174 -0.001 
0.000381963 0.00065079 -0.001 0.000493113 0.000590432 -0.001 0.000505439 0.000463708 -0.001 
-0.000269094 0.000596608 -0.001 0.000385815 0.000532045 -0.001 0.000283599 0.0005899 -0.001 
-0.000176405 -0.000108505 -0.001 -0.000278769 -0.000475415 -0.001 0.000185395 2.33014e-06 -0.001 
0.000186773 0.000517571 -0.001 0.000540032 -8.68444e-05 -0.001 -0.000600694 -0.000514877 -0.001 
-0.00063703 8.98033e-05 -0.001 -0.000459677 0.000335729 -0.001 -0.000338836 -0.000100751 -0.001 
-0.000457327 0.000432721 -0.001 -8.72007e-06 -0.000210238 -0.001 0.000156073 0.000129496 -0.001 
-7.70692e-05 -0.000555049 -0.001 0.00036091 -0.000389728 -0.001 0.000531628 0.000120564 -0.001 
-0.000285451 0.000435562 -0.001 0.000192719 -0.000494604 -0.001 0.00041642 0.00039368 -0.001 
-0.000135943 0.000554637 -0.001 -0.000170665 -0.000610079 -0.001 -0.000666304 0.000434981 -0.001 
-0.000758736 0.000479231 -0.001 -0.000470189 -0.000458901 -0.001 0.000203433 -8.59809e-05 -0.001 
0.000101846 0.000170114 -0.001 -0.00035513 -0.00040726 -0.001 0.000100184 -0.000165831 -0.001 
2.96286e-05 0.00081537 -0.001 0.000720946 0.000381836 -0.001 -0.000539809 -0.000292001 -0.001 
0.00052211 -0.000182426 -0.001 -6.41339e-05 -0.000753908 -0.001 0.000638039 -0.000299861 -0.001 
-0.000605136 -0.000230182 -0.001 -3.41638e-05 -0.000145561 -0.001 -0.000104037 0.000172396 -0.001 
-0.000808575 -0.00042774 -0.001 -0.000807207 -0.000465052 -0.001 -0.00080817 0.000429771 -0.001 
-0.000806589 0.000469738 -0.001 -9.50634e-05 -0.000178909 -0.001 0.000247777 0.000445058 -0.001 
1.48293e-05 -0.000814201 -0.001 -4.11555e-05 0.000140955 -0.001 0.000276104 -0.000536845 -0.001 
0.000765969 -0.000436638 -0.001 0.000780871 -0.000362769 -0.001 0.000424176 -0.000642018 -0.001 
0.00053413 -0.000368009 -0.001 -0.000416333 4.17911e-05 -0.001 -0.000133891 -6.23822e-05 -0.001 
4.2574e-05 0.000206312 -0.001 0.000141163 -0.000121542 -0.001 0.000707423 0.000212137 -0.001 
0.000172327 0.000723882 -0.001 7.72652e-06 -0.00090254 -0.001 -0.000134435 5.66935e-05 -0.001 
-0.000188826 3.70894e-05 -0.001 0.000197119 8.09714e-05 -0.001 1.27801e-05 0.000917296 -0.001 
0.000800767 0.00044758 -0.001 -0.000686682 0.000507104 -0.001 9.35831e-05 0.000110457 -0.001 
-0.000696793 -0.000509595 -0.001 -0.00068446 -8.52012e-05 -0.001 -0.000691033 -0.000201242 -0.001 
5.24052e-05 -0.000189075 -0.001 -0.000151818 -0.000701092 -0.001 -0.000296988 0.000518087 -0.001 
9.31023e-05 -0.000108117 -0.001 0.00044261 -0.000416726 -0.001 0.000197044 -0.000784423 -0.001 
-0.000516861 0.000504567 -0.001 0.000298997 0.000502377 -0.001 

CELLS 563 3941
6 14 304 127 29 554 377 
6 143 259 55 393 509 103 
6 300 319 174 550 569 424 
6 259 349 55 509 599 103 
6 50 365 307 98 615 557 
6 299 320 164 549 570 414 
6 126 304 14 376 554 29 
6 298 319 300 548 569 550 
6 205 240 238 455 490 488 
6 257 308 145 507 558 395 
6 130 352 273 380 602 523 
6 295 320 299 545 570 549 
6 324 327 289 574 577 539 
6 235 258 143 485 508 393 
6 50 307 49 98 557 97 
6 207 283 279 457 533 529 
6 143 373 235 393 623 485 
6 145 308 252 395 558 502 
6 194 303 196 444 553 446 
6 279 306 207 529 556 457 
6 206 305 163 456 555 413 
6 51 357 9 99 607 24 
6 238 252 205 488 502 455 
6 293 317 209 543 567 459 
6 207 316 283 457 566 533 
6 142 301 249 392 551 499 
6 273 359 130 523 609 380 
6 211 327 324 461 577 574 
6 169 265 217 419 515 467 
6 7 365 50 22 615 98 
6 283 316 253 533 566 503 
6 159 268 223 409 518 473 
6 274 337 132 524 587 382 
6 232 361 329 482 611 579 
6 231 266 45 481 516 93 
6 229 362 330 479 612 580 
6 9 244 57 24 494 105 
6 230 276 52 480 526 100 
6 209 311 293 459 561 543 
6 131 342 302 381 592 552 
6 270 271 204 520 521 454 
6 66 243 1 114 493 16 
6 59 241 12 107 491 27 
6 280 306 279 530 556 529 
6 269 337 274 519 587 524 
6 179 256 224 429 506 474 
6 163 305 166 413 555 416 
6 201 303 194 451 553 444 
6 280 332 306 530 582 556 
6 186 255 225 436 505 475 
6 210 310 273 460 560 523 
6 153 270 204 403 520 454 
6 136 231 45 386 481 93 
6 171 265 169 421 515 419 
6 138 230 52 388 480 100 
6 225 354 325 475 604 575 
6 36 284 232 84 534 482 
6 161 268 159 411 518 409 
6 71 286 229 119 536 479 
6 290 303 201 540 553 451 
6 139 355 60 389 605 108 
6 60 355 248 108 605 498 
6 273 352 302 523 602 552 
6 235 373 245 485 623 495 
6 67 356 247 115 606 497 
6 221 295 277 471 545 527 
6 142 356 67 392 606 115 
6 139 283 253 389 533 503 
6 203 315 262 453 565 512 
6 41 257 145 89 507 395 
6 36 232 135 84 482 385 
6 71 229 137 119 479 387 
6 254 255 188 504 505 438 
6 233 350 334 483 600 584 
6 262 346 203 512 596 453 
6 304 325 127 554 575 377 
6 222 329 247 472 579 497 
6 218 298 260 468 548 510 
6 290 321 291 540 571 541 
6 272 310 240 522 560 490 
6 269 274 270 519 524 520 
6 244 245 57 494 495 105 
6 49 307 141 97 557 391 
6 225 325 256 475 575 506 
6 273 310 272 523 560 522 
6 312 368 255 562 618 505 
6 249 305 206 499 555 456 
6 228 331 251 478 581 501 
6 302 342 263 552 592 513 
6 338 339 44 588 589 92 
6 190 254 188 440 504 438 
6 37 341 340 85 591 590 
6 138 233 230 388 483 480 
6 228 335 331 478 585 581 
6 181 256 179 431 506 429 
6 195 263 226 445 513 476 
6 268 285 223 518 535 473 
6 290 291 288 540 541 538 
6 219 330 248 469 580 498 
6 201 321 290 451 571 540 
6 240 310 202 490 560 452 
6 188 255 186 438 505 436 
6 270 274 271 520 524 521 
6 262 349 259 512 599 509 
6 141 324 289 391 574 539 
6 296 301 142 546 551 392 
6 247 356 222 497 606 472 
6 239 252 238 489 502 488 
6 254 312 255 504 562 505 
6 54 261 53 102 511 101 
6 289 327 303 539 577 553 
6 268 353 285 518 603 535 
6 273 302 210 523 552 460 
6 292 299 293 542 549 543 
6 278 283 139 528 533 389 
6 175 265 171 425 515 421 
6 227 338 38 477 588 86 
6 264 360 265 514 610 515 
6 43 340 146 91 590 396 
6 165 268 161 415 518 411 
6 205 351 240 455 601 490 
6 64 281 63 112 531 111 
6 288 291 47 538 541 95 
6 135 295 294 385 545 544 
6 42 257 41 90 507 89 
6 245 373 57 495 623 105 
6 31 363 323 79 613 573 
6 292 293 140 542 543 390 
6 267 353 268 517 603 518 
6 155 270 153 405 520 403 
6 244 344 245 494 594 495 
6 61 278 139 109 528 389 
6 135 294 35 385 544 83 
6 69 297 296 117 547 546 
6 186 225 184 436 475 434 
6 329 361 243 579 611 493 
6 255 328 225 505 578 475 
6 213 332 280 463 582 530 
6 39 275 133 87 525 383 
6 330 362 241 580 612 491 
6 195 226 193 445 476 443 
6 211 324 251 461 574 501 
6 151 153 152 401 403 402 
6 295 299 294 545 549 544 
6 265 313 217 515 563 467 
6 258 259 143 508 509 393 
6 251 331 211 501 581 461 
6 149 151 150 399 401 400 
6 293 370 317 543 620 567 
6 153 204 152 403 454 402 
6 151 152 150 401 402 400 
6 33 292 140 81 542 390 
6 210 263 197 460 513 447 
6 301 305 249 551 555 499 
6 298 300 297 548 550 547 
6 68 296 142 116 546 392 
6 321 369 291 571 619 541 
6 179 224 177 429 474 427 
6 167 267 165 417 517 415 
6 259 346 262 509 596 512 
6 303 327 196 553 577 446 
6 269 270 155 519 520 405 
6 265 360 313 515 610 563 
6 223 269 157 473 519 407 
6 157 269 155 407 519 405 
6 144 279 278 394 529 528 
6 169 217 167 419 467 417 
6 177 264 175 427 514 425 
6 267 268 165 517 518 415 
6 159 223 157 409 473 407 
6 232 277 135 482 527 385 
6 193 254 190 443 504 440 
6 217 267 167 467 517 417 
6 249 356 142 499 606 392 
6 184 256 181 434 506 431 
6 248 355 219 498 605 469 
6 229 260 137 479 510 387 
6 149 150 148 399 400 398 
6 64 348 281 112 598 531 
6 311 374 293 561 624 543 
6 264 265 175 514 515 425 
6 297 300 296 547 550 546 
6 141 289 288 391 539 538 
6 197 263 195 447 513 445 
6 218 260 219 468 510 469 
6 224 264 177 474 514 427 
6 137 298 297 387 548 547 
6 277 295 135 527 545 385 
6 133 228 227 383 478 477 
6 261 349 262 511 599 512 
6 221 277 222 471 527 472 
6 256 325 224 506 575 474 
6 199 210 197 449 460 447 
6 226 254 193 476 504 443 
6 144 278 62 394 528 110 
6 279 283 278 529 533 528 
6 289 290 288 539 540 538 
6 137 297 70 387 547 118 
6 34 294 292 82 544 542 
6 235 236 216 485 486 466 
6 141 288 48 391 538 96 
6 178 306 180 428 556 430 
6 185 186 184 435 436 434 
6 63 281 144 111 531 394 
6 225 256 184 475 506 434 
6 46 291 136 94 541 386 
6 147 149 148 397 399 398 
6 271 272 204 521 522 454 
6 233 334 234 483 584 484 
6 145 275 40 395 525 88 
6 220 322 287 470 572 537 
6 280 334 213 530 584 463 
6 144 280 279 394 530 529 
6 140 287 32 390 537 80 
6 154 155 153 404 405 403 
6 334 350 213 584 600 463 
6 176 177 175 426 427 425 
6 260 298 137 510 548 387 
6 33 140 32 81 390 80 
6 49 141 48 97 391 96 
6 56 143 55 104 393 103 
6 68 142 67 116 392 115 
6 63 144 62 111 394 110 
6 61 139 60 109 389 108 
6 148 308 257 398 558 507 
6 71 137 70 119 387 118 
6 53 138 52 101 388 100 
6 46 136 45 94 386 93 
6 36 135 35 84 385 83 
6 43 146 134 91 396 384 
6 133 227 38 383 477 86 
6 192 193 190 442 443 440 
6 293 374 140 543 624 390 
6 34 292 33 82 542 81 
6 207 306 178 457 556 428 
6 43 134 42 91 384 90 
6 39 133 38 87 383 86 
6 41 145 40 89 395 88 
6 194 195 193 444 445 443 
6 69 296 68 117 546 116 
6 294 299 292 544 549 542 
6 173 175 171 423 425 421 
6 260 330 219 510 580 469 
6 183 184 181 433 434 431 
6 134 257 42 384 507 90 
6 55 349 54 103 599 102 
6 163 165 161 413 415 411 
6 166 167 165 416 417 415 
6 210 302 263 460 552 513 
6 271 273 272 521 523 522 
6 53 261 138 101 511 388 
6 217 326 267 467 576 517 
6 289 303 290 539 553 540 
6 178 179 177 428 429 427 
6 238 240 202 488 490 452 
6 62 278 61 110 528 109 
6 35 294 34 83 544 82 
6 284 361 232 534 611 482 
6 70 297 69 118 547 117 
6 224 304 264 474 554 514 
6 156 157 155 406 407 405 
6 48 288 47 96 538 95 
6 221 320 295 471 570 545 
6 187 188 186 437 438 436 
6 47 291 46 95 541 94 
6 151 154 153 401 404 403 
6 286 362 229 536 612 479 
6 168 169 167 418 419 417 
6 40 275 39 88 525 87 
6 307 324 141 557 574 391 
6 300 301 296 550 551 546 
6 32 287 31 80 537 79 
6 147 220 149 397 470 399 
6 333 344 231 583 594 481 
6 299 370 293 549 620 543 
6 271 359 273 521 609 523 
6 224 325 304 474 575 554 
6 228 237 227 478 487 477 
6 305 375 343 555 625 593 
6 218 319 298 468 569 548 
6 240 351 272 490 601 522 
6 277 329 222 527 579 472 
6 253 355 139 503 605 389 
6 158 159 157 408 409 407 
6 236 246 216 486 496 466 
6 192 194 193 442 444 443 
6 220 309 149 470 559 399 
6 183 185 184 433 435 434 
6 196 197 195 446 447 445 
6 276 347 58 526 597 106 
6 136 333 231 386 583 481 
6 67 247 66 115 497 114 
6 60 248 59 108 498 107 
6 261 262 250 511 512 500 
6 173 176 175 423 426 425 
6 344 357 231 594 607 481 
6 144 281 280 394 531 530 
6 152 205 150 402 455 400 
6 163 166 165 413 416 415 
6 185 187 186 435 437 436 
6 233 234 230 483 484 480 
6 170 171 169 420 421 419 
6 146 147 134 396 397 384 
6 176 178 177 426 428 427 
6 285 337 223 535 587 473 
6 154 156 155 404 406 405 
6 263 342 226 513 592 476 
6 235 245 236 485 495 486 
6 160 161 159 410 411 409 
6 58 347 242 106 597 492 
6 166 168 167 416 418 417 
6 287 374 220 537 624 470 
6 189 190 188 439 440 438 
6 148 257 134 398 507 384 
6 194 196 195 444 446 445 
6 252 308 205 502 558 455 
6 285 345 337 535 595 587 
6 301 375 305 551 625 555 
6 180 181 179 430 431 429 
6 281 348 234 531 598 484 
6 198 199 197 448 449 447 
6 151 309 154 401 559 404 
6 228 367 335 478 617 585 
6 54 349 261 102 599 511 
6 156 158 157 406 408 407 
6 168 170 169 418 420 419 
6 200 202 199 450 452 449 
6 147 148 134 397 398 384 
6 158 160 159 408 410 409 
6 150 308 148 400 558 398 
6 253 316 208 503 566 458 
6 232 329 277 482 579 527 
6 178 180 179 428 430 429 
6 191 192 190 441 442 440 
6 214 238 202 464 488 452 
6 172 173 171 422 423 421 
6 187 189 188 437 439 438 
6 162 163 161 412 413 411 
6 228 251 237 478 501 487 
6 215 258 235 465 508 485 
6 182 183 181 432 433 431 
6 202 310 199 452 560 449 
6 219 253 208 469 503 458 
6 222 249 206 472 499 456 
6 196 198 197 446 448 447 
6 229 330 260 479 580 510 
6 132 358 274 382 608 524 
6 149 309 151 399 559 401 
6 226 312 254 476 562 504 
6 154 309 209 404 559 459 
6 77 129 76 125 379 124 
6 73 128 72 121 378 120 
6 76 131 75 124 381 123 
6 74 132 73 122 382 121 
6 75 130 74 123 380 122 
6 14 127 77 29 377 125 
6 72 126 14 120 376 29 
6 133 367 228 383 617 478 
6 237 282 227 487 532 477 
6 239 366 252 489 616 502 
6 200 214 202 450 464 452 
6 192 201 194 442 451 444 
6 170 172 171 420 422 421 
6 220 311 309 470 561 559 
6 198 200 199 448 450 449 
6 189 191 190 439 441 440 
6 146 323 322 396 573 572 
6 160 162 161 410 412 411 
6 251 307 237 501 557 487 
6 199 310 210 449 560 460 
6 57 373 56 105 623 104 
6 214 239 238 464 489 488 
6 182 212 183 432 462 433 
6 180 182 181 430 432 431 
6 146 322 147 396 572 397 
6 172 218 208 422 468 458 
6 172 208 173 422 458 423 
6 162 221 206 412 471 456 
6 162 206 163 412 456 413 
6 176 207 178 426 457 428 
6 272 351 204 522 601 454 
6 198 211 200 448 461 450 
6 182 213 212 432 463 462 
6 234 334 281 484 584 531 
6 154 209 156 404 459 406 
6 185 203 187 435 453 437 
6 168 174 170 418 424 420 
6 189 215 191 439 465 441 
6 215 216 191 465 466 441 
6 221 222 206 471 472 456 
6 158 164 160 408 414 410 
6 218 219 208 468 469 458 
6 205 308 150 455 558 400 
6 191 314 192 441 564 442 
6 215 235 216 465 485 466 
6 215 318 258 465 568 508 
6 152 351 205 402 601 455 
6 138 261 250 388 511 500 
6 192 314 201 442 564 451 
6 234 347 230 484 597 480 
6 226 342 312 476 592 562 
6 138 250 233 388 500 483 
6 147 322 220 397 572 470 
6 216 314 191 466 564 441 
6 306 332 180 556 582 430 
6 222 356 249 472 606 499 
6 128 345 285 378 595 535 
6 314 321 201 564 571 451 
6 212 315 183 462 565 433 
6 312 342 336 562 592 586 
6 282 339 338 532 589 588 
6 340 341 323 590 591 573 
6 309 311 209 559 561 459 
6 183 315 185 433 565 435 
6 208 316 173 458 566 423 
6 173 316 176 423 566 426 
6 3 341 37 18 591 85 
6 44 339 6 92 589 21 
6 252 366 145 502 616 395 
6 246 321 314 496 571 564 
6 246 314 216 496 564 466 
6 126 364 313 376 614 563 
6 156 317 158 406 567 408 
6 275 367 133 525 617 383 
6 176 316 207 426 566 457 
6 185 315 203 435 565 453 
6 180 332 182 430 582 432 
6 302 352 131 552 602 381 
6 251 324 307 501 574 557 
6 187 318 189 437 568 439 
6 172 319 218 422 569 468 
6 162 320 221 412 570 471 
6 305 343 166 555 593 416 
6 170 319 172 420 569 422 
6 158 317 164 408 567 414 
6 209 317 156 459 567 406 
6 285 353 128 535 603 378 
6 223 337 269 473 587 519 
6 160 320 162 410 570 412 
6 211 331 200 461 581 450 
6 174 319 170 424 569 420 
6 203 318 187 453 568 437 
6 189 318 215 439 568 465 
6 198 327 211 448 577 461 
6 164 320 160 414 570 410 
6 326 353 267 576 603 517 
6 236 344 333 486 594 583 
6 196 327 198 446 577 448 
6 219 355 253 469 605 503 
6 281 334 280 531 584 530 
6 274 359 271 524 609 521 
6 164 370 299 414 620 549 
6 174 375 300 424 625 550 
6 287 363 31 537 613 79 
6 243 361 1 493 611 16 
6 241 362 12 491 612 27 
6 307 365 237 557 615 487 
6 166 343 168 416 593 418 
6 200 331 214 450 581 464 
6 313 326 217 563 576 467 
6 9 357 244 24 607 494 
6 1 361 30 16 611 78 
6 12 362 65 27 612 113 
6 337 345 132 587 595 382 
6 242 348 64 492 598 112 
6 231 357 266 481 607 516 
6 182 332 213 432 582 463 
6 245 344 236 495 594 486 
6 258 346 259 508 596 509 
6 145 366 275 395 616 525 
6 291 369 136 541 619 386 
6 236 333 246 486 583 496 
6 331 335 214 581 585 464 
6 312 336 129 562 586 379 
6 315 372 262 565 622 512 
6 220 374 311 470 624 561 
6 140 374 287 390 624 537 
6 126 360 304 376 610 554 
6 230 347 276 480 597 526 
6 313 364 326 563 614 576 
6 56 373 143 104 623 393 
6 239 367 366 489 617 616 
6 204 351 152 454 601 402 
6 300 375 301 550 625 551 
6 214 335 239 464 585 489 
6 247 329 243 497 579 493 
6 262 372 250 512 622 500 
6 248 330 241 498 580 491 
6 318 346 258 568 596 508 
6 333 369 246 583 619 496 
6 282 338 227 532 588 477 
6 146 340 323 396 590 573 
6 304 360 264 554 610 514 
6 366 367 275 616 617 525 
6 129 336 76 379 586 124 
6 73 345 128 121 595 378 
6 76 336 131 124 586 381 
6 250 350 233 500 600 483 
6 129 371 328 379 621 578 
6 132 345 73 382 595 121 
6 168 343 174 418 593 424 
6 131 352 75 381 602 123 
6 66 247 243 114 497 493 
6 59 248 241 107 498 491 
6 74 358 132 122 608 382 
6 203 346 318 453 596 568 
6 313 360 126 563 610 376 
6 128 364 72 378 614 120 
6 128 353 326 378 603 576 
6 77 371 129 125 621 379 
6 129 368 312 379 618 562 
6 244 357 344 494 607 594 
6 328 354 225 578 604 475 
6 326 364 128 576 614 378 
6 75 352 130 123 602 380 
6 350 372 212 600 622 462 
6 136 369 333 386 619 583 
6 325 354 127 575 604 377 
6 213 350 212 463 600 462 
6 130 358 74 380 608 122 
6 250 372 350 500 622 600 
6 317 370 164 567 620 414 
6 72 364 126 120 614 376 
6 328 368 129 578 618 379 
6 127 371 77 377 621 125 
6 336 342 131 586 592 381 
6 212 372 315 462 622 565 
6 234 348 347 484 598 597 
6 8 266 51 23 516 99 
6 10 276 58 25 526 106 
6 246 369 321 496 619 571 
6 30 284 0 78 534 15 
6 65 286 13 113 536 28 
6 58 242 11 106 492 26 
6 266 357 51 516 607 99 
6 255 368 328 505 618 578 
6 347 348 242 597 598 492 
6 322 363 287 572 613 537 
6 323 363 322 573 613 572 
6 335 367 239 585 617 489 
6 30 361 284 78 611 534 
6 65 362 286 113 612 536 
6 237 365 282 487 615 532 
6 130 359 358 380 609 608 
6 343 375 174 593 625 424 
6 354 371 127 604 621 377 
6 328 371 354 578 621 604 
6 358 359 274 608 609 524 
6 0 284 36 15 534 84 
6 45 266 8 93 516 23 
6 52 276 10 100 526 25 
6 11 242 64 26 492 112 
6 13 286 71 28 536 119 
6 2 323 3 17 573 18 
6 31 323 2 79 573 17 
6 323 341 3 573 591 18 
6 37 340 4 85 590 19 
6 4 340 43 19 590 91 
6 38 338 5 86 588 20 
6 5 338 44 20 588 92 
6 6 282 7 21 532 22 
6 6 339 282 21 589 532 
6 282 365 7 532 615 22 

CELL_TYPES 563
13
13
13
13
13
13
13
13
13
13
13
13
13
13
13
13
13
13
13
13
13
13
13
13
13
13
13
13
13
13
13
13
13
13
13
13
13
13
13
13
13
13
13
13
13
13
13
13
13
13
13
13
13
13
13
13
13
13
13
13
13
13
13
13
13
13
13
13
13
13
13
13
13
13
13
13
13
13
13
13
13
13
13
13
13
13
13
13
13
13
13
13
13
13
13
13
13
13
13
13
13
13
13
13
13
13
13
13
13
13
13
13
13
13
13
13
13
13
13
13
13
13
13
13
13
13
13
13
13
13
13
13
13
13
13
13
13
13
13
13
13
13
13
13
13
13
13
13
13
13
13
13
13
13
13
13
13
13
13
13
13
13
13
13
13
13
13
13
13
13
13
13
13
13
13
13
13
13
13
13
13
13
13
13
13
13
13
13
13
13
13
13
13
13
13
13
13
13
13
13
13
13
13
13
13
13
13
13
13
13
13
13
13
13
13
13
13
13
13
13
13
13
13
13
13
13
13
13
13
13
13
13
13
13
13
13
13
13
13
13
13
13
13
13
13
13
13
13
13
13
13
13
13
13
13
13
13
13
13
13
13
13
13
13
13
13
13
13
13
13
13
13
13
13
13
13
13
13
13
13
13
13
13
13
13
13
13
13
13
13
13
13
13
13
13
13
13
13
13
13
13
13
13
13
13
13
13
13
13
13
13
13
13
13
13
13
13
13
13
13
13
13
13
13
13
13
13
13
13
13
13
13
13
13
13
13
13
13
13
13
13
13
13
13
13
13
13
13
13
13
13
13
13
13
13
13
13
13
13
13
13
13
13
13
13
13
13
13
13
13
13
13
13
13
13
13
13
13
13
13
13
13
13
13
13
13
13
13
13
13
13
13
13
13
13
13
13
13
13
13
13
13
13
13
13
13
13
13
13
13
13
13
13
13
13
13
13
13
13
13
13
13
13
13
13
13
13
13
13
13
13
13
13
13
13
13
13
13
13
13
13
13
13
13
13
13
13
13
13
13
13
13
13
13
13
13
13
13
13
13
13
13
13
13
13
13
13
13
13
13
13
13
13
13
13
13
13
13
13
13
13
13
13
13
13
13
13
13
13
13
13
13
13
13
13
13
13
13
13
13
13
13
13
13
13
13
13
13
13
13
13
13
13
13
13
13
13
13
13
13
13
13
13
13
13
13
13
13
13
13
13
13
13
13
13
13
13
13
13
13
13
13
13
13
13
13
13
13
13
13
13
13
13
13
13
13
13
13
13
13
13
13
13

POINT_DATA 626
VECTORS displacement float
-1.74394e-06 3.09566e-05 1.8056e-05
1.73564e-06 3.09757e-05 1.81011e-05
-2.59882e-05 1.69939e-05 1.80881e-05
-2.58428e-05 1.60341e-05 1.80526e-05
-2.77225e-05 1.39739e-05 1.80701e-05
-2.77155e-05 -1.40202e-05 1.80955e-05
-2.5814e-05 -1.60722e-05 1.81069e-05
-2.59844e-05 -1.7012e-05 1.8168e-05
-1.6774e-06 -3.09604e-05 1.80524e-05
1.75544e-06 -3.09619e-05 1.81029e-05
2.59455e-05 -1.69818e-05 1.80445e-05
2.77189e-05 -1.39378e-05 1.80444e-05
2.76743e-05 1.39905e-05 1.80927e-05
2.59169e-05 1.69941e-05 1.8047e-05
0 0 0
-1.74394e-06 3.09566e-05 -1.8056e-05
1.73564e-06 3.09757e-05 -1.81011e-05
-2.59882e-05 1.69939e-05 -1.80881e-05
-2.58428e-05 1.60341e-05 -1.80526e-05
-2.77225e-05 1.39739e-05 -1.80701e-05
-2.77155e-05 -1.40202e-05 -1.80955e-05
-2.5814e-05 -1.60722e-05 -1.81069e-05
-2.59844e-05 -1.7012e-05 -1.8168e-05
-1.6774e-06 -3.09604e-05 -1.80524e-05
1.75544e-06 -3.09619e-05 -1.81029e-05
2.59455e-05 -1.69818e-05 -1.80445e-05
2.77189e-05 -1.39378e-05 -1.80444e-05
2.76743e-05 1.39905e-05 -1.80927e-05
2.59169e-05 1.69941e-05 -1.8047e-05
0 0 0
2.4885e-08 3.01565e-05 1.80352e-05
-2.11424e-05 1.87137e-05 1.75508e-05
-1.72341e-05 1.98354e-05 1.6922e-05
-1.40082e-05 2.1056e-05 1.65562e-05
-1.12078e-05 2.26669e-05 1.65501e-05
-8.52465e-06 2.4835e-05 1.69026e-05
-5.56801e-06 2.76239e-05 1.75385e-05
-2.64517e-05 1.46802e-05 1.80345e-05
-2.67708e-05 -9.01246e-06 1.75785e-05
-2.58084e-05 -5.03607e-06 1.69272e-05
-2.52567e-05 -1.63641e-06 1.65727e-05
-2.52597e-05 1.60805e-06 1.65756e-05
-2.58006e-05 5.02346e-06 1.69254e-05
-2.6757e-05 8.98554e-06 1.7565e-05
-2.64386e-05 -1.47265e-05 1.80632e-05
-5.54127e-06 -2.76384e-05 1.75308e-05
-8.47717e-06 -2.4844e-05 1.69019e-05
-1.1171e-05 -2.26863e-05 1.65574e-05
-1.39719e-05 -2.10891e-05 1.65608e-05
-1.72165e-05 -1.98707e-05 1.69379e-05
-2.1136e-05 -1.87505e-05 1.75633e-05
8.98276e-08 -3.01412e-05 1.80304e-05
2.11258e-05 -1.86261e-05 1.75126e-05
1.72463e-05 -1.97638e-05 1.68741e-05
1.40352e-05 -2.1013e-05 1.65129e-05
1.1226e-05 -2.2595e-05 1.65474e-05
8.5818e-06 -2.47822e-05 1.68754e-05
5.65488e-06 -2.76287e-05 1.75361e-05
2.61264e-05 -1.50607e-05 1.80294e-05
2.67188e-05 8.93934e-06 1.75026e-05
2.57242e-05 5.05019e-06 1.69096e-05
2.52088e-05 1.62353e-06 1.65245e-05
2.52059e-05 -1.59963e-06 1.65228e-05
2.57528e-05 -4.99798e-06 1.68895e-05
2.67009e-05 -8.91809e-06 1.75108e-05
2.61095e-05 1.50619e-05 1.80264e-05
5.63333e-06 2.762e-05 1.75107e-05
8.50918e-06 2.48089e-05 1.69124e-05
1.1218e-05 2.26431e-05 1.65306e-05
1.40058e-05 2.1024e-05 1.6526e-05
1.72233e-05 1.9795e-05 1.68863e-05
2.11168e-05 1.86357e-05 1.75265e-05
0 0 0
0 0 0
0 0 0
0 0 0
0 0 0
0 0 0
2.4885e-08 3.01565e-05 -1.80352e-05
-2.11424e-05 1.87137e-05 -1.75508e-05
-1.72341e-05 1.98354e-05 -1.6922e-05
-1.40082e-05 2.1056e-05 -1.65562e-05
-1.12078e-05 2.26669e-05 -1.65501e-05
-8.52465e-06 2.4835e-05 -1.69026e-05
-5.56801e-06 2.76239e-05 -1.75385e-05
-2.64517e-05 1.46802e-05 -1.80345e-05
-2.67708e-05 -9.01246e-06 -1.75785e-05
-2.58084e-05 -5.03607e-06 -1.69272e-05
-2.52567e-05 -1.63641e-06 -1.65727e-05
-2.52597e-05 1.60805e-06 -1.65756e-05
-2.58006e-05 5.02346e-06 -1.69254e-05
-2.6757e-05 8.98554e-06 -1.7565e-05
-2.64386e-05 -1.47265e-05 -1.80632e-05
-5.54127e-06 -2.76384e-05 -1.75308e-05
-8.47717e-06 -2.4844e-05 -1.69019e-05
-1.1171e-05 -2.26863e-05 -1.65574e-05
-1.39719e-05 -2.10891e-05 -1.65608e-05
-1.72165e-05 -1.98707e-05 -1.69379e-05
-2.1136e-05 -1.87505e-05 -1.75633e-05
8.98276e-08 -3.01412e-05 -1.80304e-05
2.11258e-05 -1.86261e-05 -1.75126e-05
1.72463e-05 -1.97638e-05 -1.68741e-05
1.40352e-05 -2.1013e-05 -1.65129e-05
1.1226e-05 -2.2595e-05 -1.65474e-05
8.5818e-06 -2.47822e-05 -1.68754e-05
5.65488e-06 -2.76287e-05 -1.75361e-05
2.61264e-05 -1.50607e-05 -1.80294e-05
2.67188e-05 8.93934e-06 -1.75026e-05
2.57242e-05 5.05019e-06 -1.69096e-05
2.52088e-05 1.62353e-06 -1.65245e-05
2.52059e-05 -1.59963e-06 -1.65228e-05
2.57528e-05 -4.99798e-06 -1.68895e-05
2.67009e-05 -8.91809e-06 -1.75108e-05
2.61095e-05 1.50619e-05 -1.80264e-05
5.63333e-06 2.762e-05 -1.75107e-05
8.50918e-06 2.48089e-05 -1.69124e-05
1.1218e-05 2.26431e-05 -1.65306e-05
1.40058e-05 2.1024e-05 -1.6526e-05
1.72233e-05 1.9795e-05 -1.68863e-05
2.11168e-05 1.86357e-05 -1.75265e-05
0 0 0
0 0 0
0 0 0
0 0 0
0 0 0
0 0 0
1.7938e-06 8.58801e-07 4.55264e-06
1.73793e-06 -8.25167e-07 4.46119e-06
4.31981e-07 1.84974e-06 4.4955e-06
4.36126e-07 -1.78074e-06 4.35646e-06
-1.8476e-06 2.09649e-08 4.42274e-06
-1.12316e-06 -1.30896e-06 4.15135e-06
-1.15928e-06 1.30688e-06 4.20014e-06
-2.25149e-05 -7.28836e-06 1.70011e-05
-2.21982e-05 7.37225e-06 1.69698e-05
-4.86077e-06 2.29004e-05 1.69382e-05
-4.85828e-06 -2.31336e-05 1.69651e-05
1.74227e-05 1.56367e-05 1.6931e-05
1.75703e-05 -1.55377e-05 1.69403e-05
2.10753e-05 3.16419e-06 1.63256e-05
-1.39544e-05 1.71527e-05 1.64796e-05
-1.35924e-05 -1.67427e-05 1.64112e-05
7.76848e-06 1.98213e-05 1.63324e-05
7.68548e-06 -2.03117e-05 1.64037e-05
2.14742e-05 -3.44408e-06 1.64014e-05
-2.11046e-05 6.58816e-09 1.62479e-05
-2.24221e-05 1.10006e-05 1.74547e-05
-1.87525e-05 9.25548e-06 1.66282e-05
-1.79843e-05 5.79596e-06 1.60375e-05
-1.49852e-05 7.44897e-06 1.54875e-05
-1.42257e-05 4.30809e-06 1.48308e-05
-1.15336e-05 5.74438e-06 1.40958e-05
-1.0859e-05 3.069e-06 1.33746e-05
-8.40119e-06 4.30523e-06 1.24053e-05
-9.05958e-06 7.014e-06 1.34574e-05
-6.20462e-06 5.48896e-06 1.16899e-05
-6.82889e-06 8.25014e-06 1.3081e-05
-4.28175e-06 6.67546e-06 1.14514e-05
-4.80042e-06 9.61075e-06 1.30949e-05
-2.40107e-06 7.99401e-06 1.17239e-05
-2.8131e-06 1.11682e-05 1.3476e-05
-4.75453e-07 9.5961e-06 1.2502e-05
-7.38421e-07 1.2998e-05 1.41428e-05
1.73123e-06 1.15188e-05 1.3536e-05
-5.53517e-06 1.27015e-05 1.4438e-05
1.68522e-06 8.22466e-06 1.17485e-05
4.00452e-06 1.01218e-05 1.3152e-05
3.70566e-06 7.09854e-06 1.14791e-05
6.06792e-06 8.96744e-06 1.31144e-05
5.7673e-06 6.1073e-06 1.17365e-05
8.3588e-06 8.02101e-06 1.34931e-05
8.10633e-06 5.19571e-06 1.25013e-05
1.09549e-05 7.09767e-06 1.4148e-05
1.07469e-05 4.32317e-06 1.35001e-05
8.53127e-06 1.10384e-05 1.44619e-05
7.93835e-06 2.64396e-06 1.17283e-05
1.06469e-05 1.73735e-06 1.31051e-05
7.94934e-06 3.5879e-07 1.14565e-05
1.08073e-05 -7.59178e-07 1.31252e-05
8.11232e-06 -1.93796e-06 1.171e-05
1.10992e-05 -3.31314e-06 1.3485e-05
8.47045e-06 -4.42436e-06 1.2445e-05
1.15047e-05 -6.0034e-06 1.41105e-05
8.95634e-06 -7.13872e-06 1.34291e-05
6.14803e-06 -5.49487e-06 1.16422e-05
6.64507e-06 -8.30158e-06 1.30193e-05
4.10554e-06 -6.58906e-06 1.13118e-05
4.52374e-06 -9.55169e-06 1.29893e-05
2.24248e-06 -7.85894e-06 1.15983e-05
2.48505e-06 -1.10028e-05 1.3352e-05
2.25308e-07 -9.37448e-06 1.23546e-05
3.30039e-07 -1.27709e-05 1.40349e-05
-1.9156e-06 -1.11517e-05 1.33781e-05
-1.84122e-06 -7.92228e-06 1.15831e-05
-4.16826e-06 -9.8757e-06 1.30861e-05
-3.81426e-06 -6.73106e-06 1.1318e-05
-6.34617e-06 -8.66277e-06 1.31004e-05
-5.89179e-06 -5.69849e-06 1.16293e-05
-8.50046e-06 -7.43644e-06 1.33807e-05
-8.16824e-06 -4.72846e-06 1.24096e-05
-1.10966e-05 -6.40332e-06 1.4071e-05
-4.37204e-06 -1.31243e-05 1.44348e-05
-1.08098e-05 -3.651e-06 1.34403e-05
7.22676e-06 -1.13738e-05 1.42741e-05
-7.74235e-06 1.98285e-06 1.14939e-05
-1.32173e-05 1.03515e-06 1.42121e-05
1.72927e-06 1.50841e-05 1.49534e-05
1.37693e-05 4.6228e-07 1.4389e-05
1.38444e-05 6.10064e-06 1.49329e-05
-9.69492e-06 1.01972e-05 1.45337e-05
-5.41645e-06 -3.19792e-06 1.0183e-05
-1.17146e-05 -9.29815e-06 1.48904e-05
1.18834e-05 -8.76099e-06 1.47883e-05
1.47831e-05 -7.47427e-06 1.54045e-05
-1.3961e-05 -5.24436e-06 1.48629e-05
2.79606e-06 -1.45174e-05 1.47974e-05
4.24593e-07 -1.65009e-05 1.5399e-05
3.51872e-06 4.3973e-06 9.58195e-06
1.40118e-05 9.29988e-06 1.54928e-05
1.79323e-05 8.14568e-06 1.63018e-05
-1.56768e-05 1.13963e-05 1.62347e-05
-1.09418e-06 1.67706e-05 1.54965e-05
1.90701e-06 1.96233e-05 1.63122e-05
-2.09204e-06 5.2205e-06 9.59845e-06
5.55439e-06 -7.84667e-07 9.595e-06
3.58624e-06 -3.68386e-06 9.08279e-06
-1.77978e-06 -5.17899e-06 9.45045e-06
-2.24706e-05 -1.10117e-05 1.74754e-05
-1.87998e-05 -9.24222e-06 1.66522e-05
2.11496e-05 1.41659e-05 1.75067e-05
2.07555e-05 -1.43187e-05 1.74367e-05
-1.7647e-06 -2.54486e-05 1.7512e-05
-1.68222e-06 2.54126e-05 1.75167e-05
1.77145e-05 -1.19079e-05 1.66884e-05
2.06474e-05 -1.0752e-05 1.71171e-05
3.77595e-06 -1.89868e-05 1.61406e-05
7.68581e-07 -2.03475e-05 1.64841e-05
-1.94067e-05 -1.26516e-05 1.71443e-05
-1.37323e-05 -2.30713e-06 1.44731e-05
-1.65942e-05 -3.70177e-06 1.54788e-05
-1.03767e-05 -1.09648e-06 1.29532e-05
2.4454e-05 1.10738e-05 1.76527e-05
2.54995e-05 -1.24043e-05 1.78492e-05
2.64935e-06 2.67281e-05 1.76616e-05
2.5211e-06 -2.64157e-05 1.76304e-05
3.33968e-06 -2.30338e-05 1.70303e-05
-2.05407e-06 -1.83215e-05 1.59521e-05
4.05932e-06 2.37933e-05 1.71315e-05
2.2616e-05 8.38003e-06 1.71204e-05
4.61399e-06 1.73149e-05 1.57285e-05
1.44283e-05 -1.31206e-05 1.61386e-05
-1.5789e-05 -1.09857e-05 1.62158e-05
-1.68013e-05 -3.81464e-07 1.53786e-05
1.73074e-05 4.68791e-06 1.57269e-05
6.55259e-08 -6.38783e-06 1.02683e-05
1.74185e-06 -4.84884e-06 9.09329e-06
5.85093e-06 -2.93575e-06 1.03791e-05
-2.1446e-05 3.75087e-06 1.64601e-05
5.72985e-06 -1.62759e-05 1.5509e-05
9.08425e-06 -1.75006e-05 1.59988e-05
1.75736e-05 1.18827e-05 1.66735e-05
1.39955e-05 -1.63836e-05 1.64025e-05
1.07409e-05 -1.37902e-05 1.55513e-05
-3.54825e-06 -4.22052e-06 9.5016e-06
5.39954e-06 1.13859e-06 9.49989e-06
5.21847e-06 3.22313e-06 1.00481e-05
-1.74984e-06 -2.83566e-05 1.78779e-05
1.89221e-06 5.29931e-06 9.58529e-06
-1.13834e-07 6.10549e-06 1.00396e-05
-3.78522e-06 4.12806e-06 9.57925e-06
-5.62313e-06 3.03443e-06 1.02862e-05
-5.16587e-06 1.04075e-06 9.21442e-06
-7.52786e-06 -6.17444e-08 1.11734e-05
-4.3347e-06 -8.10338e-07 8.38259e-06
-3.10881e-06 1.87247e-06 7.3747e-06
-2.2083e-05 -3.60812e-06 1.6517e-05
2.3408e-05 -1.56891e-05 1.78371e-05
-1.50731e-06 2.11696e-05 1.66832e-05
2.12635e-05 -8.4528e-08 1.6227e-05
1.76236e-05 -1.64695e-06 1.55827e-05
1.73492e-05 -4.94211e-06 1.57719e-05
2.18933e-05 -7.45179e-06 1.69148e-05
-2.31839e-05 -1.42556e-05 1.78337e-05
1.73261e-05 1.64902e-06 1.55098e-05
-1.73405e-06 2.84751e-05 1.78951e-05
-4.22103e-07 3.68369e-06 7.49595e-06
2.37737e-05 1.57434e-05 1.78856e-05
-1.74988e-05 1.56435e-05 1.69761e-05
-1.06271e-05 -1.84677e-05 1.62563e-05
-1.01004e-05 -1.43436e-05 1.55729e-05
-7.50842e-06 -1.60962e-05 1.56233e-05
-7.32272e-06 -2.01222e-05 1.63965e-05
-1.07054e-05 1.85368e-05 1.6268e-05
-1.03482e-05 1.43853e-05 1.56206e-05
-7.77327e-06 2.04942e-05 1.64455e-05
-4.25334e-06 1.86113e-05 1.60542e-05
1.07606e-05 1.8347e-05 1.62274e-05
1.38929e-05 1.69363e-05 1.64322e-05
1.40432e-05 1.2974e-05 1.60525e-05
-7.36221e-06 1.62897e-05 1.56398e-05
1.05261e-05 1.45483e-05 1.56465e-05
7.74942e-06 1.60937e-05 1.56152e-05
-3.11669e-06 -1.8989e-06 7.39383e-06
-7.25828e-06 -1.24231e-05 1.46264e-05
3.00887e-06 4.03631e-08 6.60155e-06
4.873e-06 1.35239e-05 1.46193e-05
1.40772e-05 -2.26059e-06 1.45717e-05
-1.72912e-05 -1.52179e-05 1.69467e-05
-1.7368e-05 2.42052e-06 1.55991e-05
-1.22058e-05 8.9127e-06 1.49447e-05
-7.70627e-06 -2.29271e-06 1.15557e-05
-1.24509e-05 1.18136e-05 1.55412e-05
-1.42747e-07 -3.7545e-06 7.55485e-06
2.73043e-06 2.27224e-06 7.25257e-06
-2.00404e-06 -1.46518e-05 1.48093e-05
9.36591e-06 -1.00691e-05 1.43906e-05
1.3862e-05 3.15809e-06 1.45673e-05
-7.34069e-06 1.12004e-05 1.42615e-05
4.99766e-06 -1.27759e-05 1.43705e-05
1.10328e-05 1.04314e-05 1.49209e-05
-3.59676e-06 1.46866e-05 1.49093e-05
-4.63587e-06 -1.66183e-05 1.55501e-05
-1.95087e-05 1.28935e-05 1.71624e-05
-2.31287e-05 1.48593e-05 1.78445e-05
-1.29061e-05 -1.26872e-05 1.58138e-05
3.76109e-06 -1.58624e-06 7.90766e-06
1.76452e-06 2.9225e-06 7.08506e-06
-9.2313e-06 -1.06104e-05 1.4533e-05
1.72787e-06 -2.82337e-06 6.93168e-06
9.94781e-07 2.41188e-05 1.73096e-05
2.13697e-05 1.11948e-05 1.72998e-05
-1.46659e-05 -7.95408e-06 1.54866e-05
1.37093e-05 -4.78675e-06 1.46919e-05
-1.91003e-06 -2.17648e-05 1.68039e-05
1.8062e-05 -8.41981e-06 1.6342e-05
-1.66804e-05 -6.32913e-06 1.57837e-05
-4.32931e-07 -1.92245e-06 4.7989e-06
-1.80551e-06 2.99566e-06 7.17782e-06
-2.50539e-05 -1.29828e-05 1.79233e-05
-2.51291e-05 -1.45084e-05 1.80031e-05
-2.50471e-05 1.30347e-05 1.79071e-05
-2.51199e-05 1.46511e-05 1.79832e-05
-1.64858e-06 -3.12508e-06 7.21056e-06
6.32851e-06 1.13694e-05 1.40778e-05
5.33734e-07 -2.40881e-05 1.73034e-05
-5.22814e-07 1.80967e-06 4.64542e-06
7.40813e-06 -1.4345e-05 1.51537e-05
2.33047e-05 -1.32104e-05 1.77299e-05
2.36346e-05 -1.05385e-05 1.7492e-05
1.19895e-05 -1.82126e-05 1.62946e-05
1.47314e-05 -1.01475e-05 1.57969e-05
-1.0028e-05 1.00133e-06 1.27558e-05
-1.74013e-06 -8.15958e-07 4.72387e-06
7.69122e-07 3.70864e-06 7.57383e-06
2.34325e-06 -1.99731e-06 6.55588e-06
2.01583e-05 5.89839e-06 1.64549e-05
5.07049e-06 2.05978e-05 1.64973e-05
3.42121e-07 -2.76822e-05 1.78551e-05
-1.73135e-06 7.0916e-07 4.60673e-06
-3.21175e-06 6.23094e-07 6.82476e-06
3.57749e-06 1.47553e-06 7.63732e-06
4.99233e-07 2.8326e-05 1.79283e-05
2.47622e-05 1.37352e-05 1.79195e-05
-2.03301e-05 1.5537e-05 1.74302e-05
1.17879e-06 1.36457e-06 4.46025e-06
-2.06414e-05 -1.57296e-05 1.75288e-05
-1.90006e-05 -2.32241e-06 1.59475e-05
-1.95609e-05 -5.58552e-06 1.63335e-05
9.0575e-07 -3.248e-06 7.00674e-06
-4.36639e-06 -1.97911e-05 1.63231e-05
-7.93801e-06 1.38357e-05 1.51024e-05
1.16583e-06 -1.30427e-06 4.33968e-06
1.19355e-05 -1.12294e-05 1.52935e-05
6.13351e-06 -2.26981e-05 1.68218e-05
-1.45235e-05 1.43566e-05 1.63249e-05
7.9298e-06 1.33225e-05 1.49493e-05
1.7938e-06 8.58801e-07 -4.55264e-06
1.73793e-06 -8.25167e-07 -4.46119e-06
4.31981e-07 1.84974e-06 -4.4955e-06
4.36126e-07 -1.78074e-06 -4.35646e-06
-1.8476e-06 2.09649e-08 -4.42274e-06
-1.12316e-06 -1.30896e-06 -4.15135e-06
-1.15928e-06 1.30688e-06 -4.20014e-06
-2.25149e-05 -7.28836e-06 -1.70011e-05
-2.21982e-05 7.37225e-06 -1.69698e-05
-4.86077e-06 2.29004e-05 -1.69382e-05
-4.85828e-06 -2.31336e-05 -1.69651e-05
1.74227e-05 1.56367e-05 -1.6931e-05
1.75703e-05 -1.55377e-05 -1.69403e-05
2.10753e-05 3.16419e-06 -1.63256e-05
-1.39544e-05 1.71527e-05 -1.64796e-05
-1.35924e-05 -1.67427e-05 -1.64112e-05
7.76848e-06 1.98213e-05 -1.63324e-05
7.68548e-06 -2.03117e-05 -1.64037e-05
2.14742e-05 -3.44408e-06 -1.64014e-05
-2.11046e-05 6.58816e-09 -1.62479e-05
-2.24221e-05 1.10006e-05 -1.74547e-05
-1.87525e-05 9.25548e-06 -1.66282e-05
-1.79843e-05 5.79596e-06 -1.60375e-05
-1.49852e-05 7.44897e-06 -1.54875e-05
-1.42257e-05 4.30809e-06 -1.48308e-05
-1.15336e-05 5.74438e-06 -1.40958e-05
-1.0859e-05 3.069e-06 -1.33746e-05
-8.40119e-06 4.30523e-06 -1.24053e-05
-9.05958e-06 7.014e-06 -1.34574e-05
-6.20462e-06 5.48896e-06 -1.16899e-05
-6.82889e-06 8.25014e-06 -1.3081e-05
-4.28175e-06 6.67546e-06 -1.14514e-05
-4.80042e-06 9.61075e-06 -1.30949e-05
-2.40107e-06 7.99401e-06 -1.17239e-05
-2.8131e-06 1.11682e-05 -1.3476e-05
-4.75453e-07 9.5961e-06 -1.2502e-05
-7.38421e-07 1.2998e-05 -1.41428e-05
1.73123e-06 1.15188e-05 -1.3536e-05
-5.53517e-06 1.27015e-05 -1.4438e-05
1.68522e-06 8.22466e-06 -1.17485e-05
4.00452e-06 1.01218e-05 -1.3152e-05
3.70566e-06 7.09854e-06 -1.14791e-05
6.06792e-06 8.96744e-06 -1.31144e-05
5.7673e-06 6.1073e-06 -1.17365e-05
8.3588e-06 8.02101e-06 -1.34931e-05
8.10633e-06 5.19571e-06 -1.25013e-05
1.09549e-05 7.09767e-06 -1.4148e-05
1.07469e-05 4.32317e-06 -1.35001e-05
8.53127e-06 1.10384e-05 -1.44619e-05
7.93835e-06 2.64396e-06 -1.17283e-05
1.06469e-05 1.73735e-06 -1.31051e-05
7.94934e-06 3.5879e-07 -1.14565e-05
1.08073e-05 -7.59178e-07 -1.31252e-05
8.11232e-06 -1.93796e-06 -1.171e-05
1.10992e-05 -3.31314e-06 -1.3485e-05
8.47045e-06 -4.42436e-06 -1.2445e-05
1.15047e-05 -6.0034e-06 -1.41105e-05
8.95634e-06 -7.13872e-06 -1.34291e-05
6.14803e-06 -5.49487e-06 -1.16422e-05
6.64507e-06 -8.30158e-06 -1.30193e-05
4.10554e-06 -6.58906e-06 -1.13118e-05
4.52374e-06 -9.55169e-06 -1.29893e-05
2.24248e-06 -7.85894e-06 -1.15983e-05
2.48505e-06 -1.10028e-05 -1.3352e-05
2.25308e-07 -9.37448e-06 -1.23546e-05
3.30039e-07 -1.27709e-05 -1.40349e-05
-1.9156e-06 -1.11517e-05 -1.33781e-05
-1.84122e-06 -7.92228e-06 -1.15831e-05
-4.16826e-06 -9.8757e-06 -1.30861e-05
-3.81426e-06 -6.73106e-06 -1.1318e-05
-6.34617e-06 -8.66277e-06 -1.31004e-05
-5.89179e-06 -5.69849e-06 -1.16293e-05
-8.50046e-06 -7.43644e-06 -1.33807e-05
-8.16824e-06 -4.72846e-06 -1.24096e-05
-1.10966e-05 -6.40332e-06 -1.4071e-05
-4.37204e-06 -1.31243e-05 -1.44348e-05
-1.08098e-05 -3.651e-06 -1.34403e-05
7.22676e-06 -1.13738e-05 -1.42741e-05
-7.74235e-06 1.98285e-06 -1.14939e-05
-1.32173e-05 1.03515e-06 -1.42121e-05
1.72927e-06 1.50841e-05 -1.49534e-05
1.37693e-05 4.6228e-07 -1.4389e-05
1.38444e-05 6.10064e-06 -1.49329e-05
-9.69492e-06 1.01972e-05 -1.45337e-05
-5.41645e-06 -3.19792e-06 -1.0183e-05
-1.17146e-05 -9.29815e-06 -1.48904e-05
1.18834e-05 -8.76099e-06 -1.47883e-05
1.47831e-05 -7.47427e-06 -1.54045e-05
-1.3961e-05 -5.24436e-06 -1.48629e-05
2.79606e-06 -1.45174e-05 -1.47974e-05
4.24593e-07 -1.65009e-05 -1.5399e-05
3.51872e-06 4.3973e-06 -9.58195e-06
1.40118e-05 9.29988e-06 -1.54928e-05
1.79323e-05 8.14568e-06 -1.63018e-05
-1.56768e-05 1.13963e-05 -1.62347e-05
-1.09418e-06 1.67706e-05 -1.54965e-05
1.90701e-06 1.96233e-05 -1.63122e-05
-2.09204e-06 5.2205e-06 -9.59845e-06
5.55439e-06 -7.84667e-07 -9.595e-06
3.58624e-06 -3.68386e-06 -9.08279e-06
-1.77978e-06 -5.17899e-06 -9.45045e-06
-2.24706e-05 -1.10117e-05 -1.74754e-05
-1.87998e-05 -9.24222e-06 -1.66522e-05
2.11496e-05 1.41659e-05 -1.75067e-05
2.07555e-05 -1.43187e-05 -1.74367e-05
-1.7647e-06 -2.54486e-05 -1.7512e-05
-1.68222e-06 2.54126e-05 -1.75167e-05
1.77145e-05 -1.19079e-05 -1.66884e-05
2.06474e-05 -1.0752e-05 -1.71171e-05
3.77595e-06 -1.89868e-05 -1.61406e-05
7.68581e-07 -2.03475e-05 -1.64841e-05
-1.94067e-05 -1.26516e-05 -1.71443e-05
-1.37323e-05 -2.30713e-06 -1.44731e-05
-1.65942e-05 -3.70177e-06 -1.54788e-05
-1.03767e-05 -1.09648e-06 -1.29532e-05
2.4454e-05 1.10738e-05 -1.76527e-05
2.54995e-05 -1.24043e-05 -1.78492e-05
2.64935e-06 2.67281e-05 -1.76616e-05
2.5211e-06 -2.64157e-05 -1.76304e-05
3.33968e-06 -2.30338e-05 -1.70303e-05
-2.05407e-06 -1.83215e-05 -1.59521e-05
4.05932e-06 2.37933e-05 -1.71315e-05
2.2616e-05 8.38003e-06 -1.71204e-05
4.61399e-06 1.73149e-05 -1.57285e-05
1.44283e-05 -1.31206e-05 -1.61386e-05
-1.5789e-05 -1.09857e-05 -1.62158e-05
-1.68013e-05 -3.81464e-07 -1.53786e-05
1.73074e-05 4.68791e-06 -1.57269e-05
6.55259e-08 -6.38783e-06 -1.02683e-05
1.74185e-06 -4.84884e-06 -9.09329e-06
5.85093e-06 -2.93575e-06 -1.03791e-05
-2.1446e-05 3.75087e-06 -1.64601e-05
5.72985e-06 -1.62759e-05 -1.5509e-05
9.08425e-06 -1.75006e-05 -1.59988e-05
1.75736e-05 1.18827e-05 -1.66735e-05
1.39955e-05 -1.63836e-05 -1.64025e-05
1.07409e-05 -1.37902e-05 -1.55513e-05
-3.54825e-06 -4.22052e-06 -9.5016e-06
5.39954e-06 1.13859e-06 -9.49989e-06
5.21847e-06 3.22313e-06 -1.00481e-05
-1.74984e-06 -2.83566e-05 -1.78779e-05
1.89221e-06 5.29931e-06 -9.58529e-06
-1.13834e-07 6.10549e-06 -1.00396e-05
-3.78522e-06 4.12806e-06 -9.57925e-06
-5.62313e-06 3.03443e-06 -1.02862e-05
-5.16587e-06 1.04075e-06 -9.21442e-06
-7.52786e-06 -6.17444e-08 -1.11734e-05
-4.3347e-06 -8.10338e-07 -8.38259e-06
-3.10881e-06 1.87247e-06 -7.3747e-06
-2.2083e-05 -3.60812e-06 -1.6517e-05
2.3408e-05 -1.56891e-05 -1.78371e-05
-1.50731e-06 2.11696e-05 -1.66832e-05
2.12635e-05 -8.4528e-08 -1.6227e-05
1.76236e-05 -1.64695e-06 -1.55827e-05
1.73492e-05 -4.94211e-06 -1.57719e-05
2.18933e-05 -7.45179e-06 -1.69148e-05
-2.31839e-05 -1.42556e-05 -1.78337e-05
1.73261e-05 1.64902e-06 -1.55098e-05
-1.73405e-06 2.84751e-05 -1.78951e-05
-4.22103e-07 3.68369e-06 -7.49595e-06
2.37737e-05 1.57434e-05 -1.78856e-05
-1.74988e-05 1.56435e-05 -1.69761e-05
-1.06271e-05 -1.84677e-05 -1.62563e-05
-1.01004e-05 -1.43436e-05 -1.55729e-05
-7.50842e-06 -1.60962e-05 -1.56233e-05
-7.32272e-06 -2.01222e-05 -1.63965e-05
-1.07054e-05 1.85368e-05 -1.6268e-05
-1.03482e-05 1.43853e-05 -1.56206e-05
-7.77327e-06 2.04942e-05 -1.64455e-05
-4.25334e-06 1.86113e-05 -1.60542e-05
1.07606e-05 1.8347e-05 -1.62274e-05
1.38929e-05 1.69363e-05 -1.64322e-05
1.40432e-05 1.2974e-05 -1.60525e-05
-7.36221e-06 1.62897e-05 -1.56398e-05
1.05261e-05 1.45483e-05 -1.56465e-05
7.74942e-06 1.60937e-05 -1.56152e-05
-3.11669e-06 -1.8989e-06 -7.39383e-06
-7.25828e-06 -1.24231e-05 -1.46264e-05
3.00887e-06 4.03631e-08 -6.60155e-06
4.873e-06 1.35239e-05 -1.46193e-05
1.40772e-05 -2.26059e-06 -1.45717e-05
-1.72912e-05 -1.52179e-05 -1.69467e-05
-1.7368e-05 2.42052e-06 -1.55991e-05
-1.22058e-05 8.9127e-06 -1.49447e-05
-7.70627e-06 -2.29271e-06 -1.15557e-05
-1.24509e-05 1.18136e-05 -1.55412e-05
-1.42747e-07 -3.7545e-06 -7.55485e-06
2.73043e-06 2.27224e-06 -7.25257e-06
-2.00404e-06 -1.46518e-05 -1.48093e-05
9.36591e-06 -1.00691e-05 -1.43906e-05
1.3862e-05 3.15809e-06 -1.45673e-05
-7.34069e-06 1.12004e-05 -1.42615e-05
4.99766e-06 -1.27759e-05 -1.43705e-05
1.10328e-05 1.04314e-05 -1.49209e-05
-3.59676e-06 1.46866e-05 -1.49093e-05
-4.63587e-06 -1.66183e-05 -1.55501e-05
-1.95087e-05 1.28935e-05 -1.71624e-05
-2.31287e-05 1.48593e-05 -1.78445e-05
-1.29061e-05 -1.26872e-05 -1.58138e-05
3.76109e-06 -1.58624e-06 -7.90766e-06
1.76452e-06 2.9225e-06 -7.08506e-06
-9.2313e-06 -1.06104e-05 -1.4533e-05
1.72787e-06 -2.82337e-06 -6.93168e-06
9.94781e-07 2.41188e-05 -1.73096e-05
2.13697e-05 1.11948e-05 -1.72998e-05
-1.46659e-05 -7.95408e-06 -1.54866e-05
1.37093e-05 -4.78675e-06 -1.46919e-05
-1.91003e-06 -2.17648e-05 -1.68039e-05
1.8062e-05 -8.41981e-06 -1.6342e-05
-1.66804e-05 -6.32913e-06 -1.57837e-05
-4.32931e-07 -1.92245e-06 -4.7989e-06
-1.80551e-06 2.99566e-06 -7.17782e-06
-2.50539e-05 -1.29828e-05 -1.79233e-05
-2.51291e-05 -1.45084e-05 -1.80031e-05
-2.50471e-05 1.30347e-05 -1.79071e-05
-2.51199e-05 1.46511e-05 -1.79832e-05
-1.64858e-06 -3.12508e-06 -7.21056e-06
6.32851e-06 1.13694e-05 -1.40778e-05
5.33734e-07 -2.40881e-05 -1.73034e-05
-5.22814e-07 1.80967e-06 -4.64542e-06
7.40813e-06 -1.4345e-05 -1.51537e-05
2.33047e-05 -1.32104e-05 -1.77299e-05
2.36346e-05 -1.05385e-05 -1.7492e-05
1.19895e-05 -1.82126e-05 -1.62946e-05
1.47314e-05 -1.01475e-05 -1.57969e-05
-1.0028e-05 1.00133e-06 -1.27558e-05
-1.74013e-06 -8.15958e-07 -4.72387e-06
7.69122e-07 3.70864e-06 -7.57383e-06
2.34325e-06 -1.99731e-06 -6.55588e-06
2.01583e-05 5.89839e-06 -1.64549e-05
5.07049e-06 2.05978e-05 -1.64973e-05
3.42121e-07 -2.76822e-05 -1.78551e-05
-1.73135e-06 7.0916e-07 -4.60673e-06
-3.21175e-06 6.23094e-07 -6.82476e-06
3.57749e-06 1.47553e-06 -7.63732e-06
4.99233e-07 2.8326e-05 -1.79283e-05
2.47622e-05 1.37352e-05 -1.79195e-05
-2.03301e-05 1.5537e-05 -1.74302e-05
1.17879e-06 1.36457e-06 -4.46025e-06
-2.06414e-05 -1.57296e-05 -1.75288e-05
-1.90006e-05 -2.32241e-06 -1.59475e-05
-1.95609e-05 -5.58552e-06 -1.63335e-05
9.0575e-07 -3.248e-06 -7.00674e-06
-4.36639e-06 -1.97911e-05 -1.63231e-05
-7.93801e-06 1.38357e-05 -1.51024e-05
1.16583e-06 -1.30427e-06 -4.33968e-06
1.19355e-05 -1.12294e-05 -1.52935e-05
6.13351e-06 -2.26981e-05 -1.68218e-05
-1.45235e-05 1.43566e-05 -1.63249e-05
7.9298e-06 1.33225e-05 -1.49493e-05
SCALARS effective_fluid_pressure_TPM float
LOOKUP_TABLE default
665
665
665
665
665
665
665
665
665
665
665
665
665
665
133
665
665
665
665
665
665
665
665
665
665
665
665
665
665
133
665
560.344
520.698
502.843
502.614
519.825
559.965
665
562.01
520.793
503.285
503.395
520.725
561.632
665
559.632
519.696
502.788
503.005
521.194
561.648
665
558.888
519.04
501.576
502.272
518.89
559.477
665
558.528
519.98
501.909
501.84
519.413
557.968
665
558.684
519.994
502.081
501.943
519.401
559.691
133
133
133
133
133
133
665
560.344
520.698
502.843
502.614
519.825
559.965
665
562.01
520.793
503.285
503.395
520.725
561.632
665
559.632
519.696
502.788
503.005
521.194
561.648
665
558.888
519.04
501.576
502.272
518.89
559.477
665
558.528
519.98
501.909
501.84
519.413
557.968
665
558.684
519.994
502.081
501.943
519.401
559.691
133
133
133
133
133
133
228.27
226.34
227.054
224.122
225.537
219.858
220.875
529.196
528.206
526.585
527.964
526.612
527.665
498.738
503.584
501.623
498.979
501.495
501.277
494.36
562.525
519.01
495.061
480.768
461.389
443.308
425.076
402.148
427.3
385.292
417.768
379.639
417.931
385.977
427.417
404.326
444.412
429.106
450.289
386.587
419.331
380.234
418.343
386.217
427.79
404.254
444.522
428.19
450.886
386.061
418.194
379.65
418.55
385.585
427.626
402.947
443.585
426.481
384.078
416.167
376.333
415.374
383.05
424.448
400.873
441.734
425.255
382.786
417.807
376.598
418.125
383.872
425.295
402.24
442.706
450.679
426.755
446.038
380.759
444.704
465.318
448.771
464.791
453.44
350.931
463.533
461.065
478.471
462.8
460.671
478.375
337.304
480.847
505.877
503.637
480.913
506.184
337.717
337.528
326.191
334.442
563.401
519.686
567.601
562.388
567.918
567.771
521.834
542.742
498.651
513.76
542.087
451.482
477.599
414.685
579.539
611.041
579.692
576.054
534.578
494.5
538.251
537.948
485.059
498.137
503.354
473.162
485.107
352.776
326.441
355.205
503.466
477.739
488.382
520.903
502.049
477.936
335.567
335.431
347.727
613.458
337.405
347.598
337.291
353.232
329.214
373.285
310.683
288.809
504.732
608.394
521.124
493.744
478.349
486.376
526.518
600.355
476.586
615.911
291.418
615.809
528.746
494.555
478.256
479.43
501.336
494.862
479.457
502.531
495.194
493.766
502.283
495.268
479.904
480.07
479.072
289.315
454.612
271.961
455.02
453.648
527.027
479.493
465.242
382.128
480.527
292.691
286.102
461.498
449.653
453.997
445.874
448.708
463.623
463.28
479.972
543.482
601.716
487.512
300.324
282.481
453.033
279.182
552.262
552.022
480.793
458.037
526.249
508.203
488.608
233.743
284.578
614.518
636.328
615.152
636.685
285.3
441.359
553.102
230.498
467.572
590.28
566.053
495.835
490.067
410.062
232.132
293.117
271.144
507.913
509.21
607.827
229.676
276.995
294.452
618.889
618.802
558.535
226.534
562.547
488.332
503.413
280.866
504.083
466.398
224.019
473.604
519.597
502.998
462.464
228.27
226.34
227.054
224.122
225.537
219.858
220.875
529.196
528.206
526.585
527.964
526.612
527.665
498.738
503.584
501.623
498.979
501.495
501.277
494.36
562.525
519.01
495.061
480.768
461.389
443.308
425.076
402.148
427.3
385.292
417.768
379.639
417.931
385.977
427.417
404.326
444.412
429.106
450.289
386.587
419.331
380.234
418.343
386.217
427.79
404.254
444.522
428.19
450.886
386.061
418.194
379.65
418.55
385.585
427.626
402.947
443.585
426.481
384.078
416.167
376.333
415.374
383.05
424.448
400.873
441.734
425.255
382.786
417.807
376.598
418.125
383.872
425.295
402.24
442.706
450.679
426.755
446.038
380.759
444.704
465.318
448.771
464.791
453.44
350.931
463.533
461.065
478.471
462.8
460.671
478.375
337.304
480.847
505.877
503.637
480.913
506.184
337.717
337.528
326.191
334.442
563.401
519.686
567.601
562.388
567.918
567.771
521.834
542.742
498.651
513.76
542.087
451.482
477.599
414.685
579.539
611.041
579.692
576.054
534.578
494.5
538.251
537.948
485.059
498.137
503.354
473.162
485.107
352.776
326.441
355.205
503.466
477.739
488.382
520.903
502.049
477.936
335.567
335.431
347.727
613.458
337.405
347.598
337.291
353.232
329.214
373.285
310.683
288.809
504.732
608.394
521.124
493.744
478.349
486.376
526.518
600.355
476.586
615.911
291.418
615.809
528.746
494.555
478.256
479.43
501.336
494.862
479.457
502.531
495.194
493.766
502.283
495.268
479.904
480.07
479.072
289.315
454.612
271.961
455.02
453.648
527.027
479.493
465.242
382.128
480.527
292.691
286.102
461.498
449.653
453.997
445.874
448.708
463.623
463.28
479.972
543.482
601.716
487.512
300.324
282.481
453.033
279.182
552.262
552.022
480.793
458.037
526.249
508.203
488.608
233.743
284.578
614.518
636.328
615.152
636.685
285.3
441.359
553.102
230.498
467.572
590.28
566.053
495.835
490.067
410.062
232.132
293.117
271.144
507.913
509.21
607.827
229.676
276.995
294.452
618.889
618.802
558.535
226.534
562.547
488.332
503.413
280.866
504.083
466.398
224.019
473.604
519.597
502.998
462.464

CELL_DATA 563
TENSORS stress float
164.625 -24.9215 7.05806e-13
-24.9215 28.1528 8.88178e-13
7.05806e-13 8.88178e-13 -12.6004

-40.3398 -21.3208 1.63632e-12
-21.3208 -7.35491 -1.92794e-12
1.63632e-12 -1.92794e-12 -10.2343

-9.94245 28.0459 -9.86825e-12
28.0459 -1.11164 -1.03206e-12
-9.86825e-12 -1.03206e-12 -6.3634

-40.4275 -29.8424 -3.20706e-12
-29.8424 -12.8457 -3.05844e-12
-3.20706e-12 -3.05844e-12 -10.6006

-22.691 19.9308 -4.14987e-12
19.9308 -1.92656 2.57572e-14
-4.14987e-12 2.57572e-14 -23.0199

-27.1432 -18.0763 -1.95503e-12
-18.0763 15.888 -6.32383e-12
-1.95503e-12 -6.32383e-12 -6.4142

161.276 26.4858 9.42653e-13
26.4858 28.0294 -1.33108e-12
9.42653e-13 -1.33108e-12 -13.2594

-5.96314 29.9595 2.91796e-12
29.9595 -10.1133 -3.93759e-14
2.91796e-12 -3.93759e-14 -7.279

34.6329 5.48362 1.71241e-12
5.48362 -19.099 -8.81554e-13
1.71241e-12 -8.81554e-13 -4.12518

11.8601 -7.47765 -1.16677e-12
-7.47765 -48.2884 6.55402e-13
-1.16677e-12 6.55402e-13 -8.94954

104.205 16.3105 -9.56864e-13
16.3105 -8.44392 7.55011e-12
-9.56864e-13 7.55011e-12 -22.4535

-34.6402 -13.4542 5.43269e-13
-13.4542 18.9656 2.74447e-12
5.43269e-13 2.74447e-12 -7.18328

-6.02784 27.8351 -9.23706e-14
27.8351 -4.59226 2.75927e-13
-9.23706e-14 2.75927e-13 -6.162

-35.5545 -14.3411 3.62072e-12
-14.3411 7.84507 3.50298e-12
3.62072e-12 3.50298e-12 -9.13378

-23.6537 33.3089 1.99929e-12
33.3089 -24.9926 -2.86072e-13
1.99929e-12 -2.86072e-13 -21.3642

21.3115 0.561091 5.77375e-12
0.561091 -32.3417 -9.02741e-13
5.77375e-12 -9.02741e-13 -5.59266

-48.9603 -17.9688 -1.81355e-13
-17.9688 6.34229 -4.82311e-12
-1.81355e-13 -4.82311e-12 -12.9478

11.6603 -2.66519 -1.38378e-12
-2.66519 -43.2524 -2.73515e-12
-1.38378e-12 -2.73515e-12 -8.03662

-11.3534 26.6769 -5.00903e-12
26.6769 19.5172 2.03807e-12
-5.00903e-12 2.03807e-12 -6.0927

21.7659 -4.19608 1.40865e-12
-4.19608 -35.2993 -5.23226e-12
1.40865e-12 -5.23226e-12 -6.74458

-24.4831 8.66976 -1.08106e-12
8.66976 32.1286 -5.61329e-13
-1.08106e-12 -5.61329e-13 -4.93723

-11.8084 6.28593 -3.71342e-13
6.28593 -11.97 -2.91352e-12
-3.71342e-13 -2.91352e-12 -75.6041

22.7439 1.87612 -3.08494e-13
1.87612 -33.4739 -4.21367e-13
-3.08494e-13 -4.21367e-13 -6.68055

-12.3907 -27.7179 -3.53495e-13
-27.7179 1.59838 -2.11742e-12
-3.53495e-13 -2.11742e-12 -6.60594

21.3048 6.84997 7.83966e-13
6.84997 -34.3088 1.70619e-12
7.83966e-13 1.70619e-12 -6.80977

-37.9082 19.1138 -9.70705e-13
19.1138 2.6537 4.28753e-12
-9.70705e-13 4.28753e-12 -9.46041

106.613 4.1819 -2.71901e-12
4.1819 20.6039 2.80931e-12
-2.71901e-12 2.80931e-12 -12.0484

-5.30367 30.7483 1.91787e-12
30.7483 -7.27469 -6.44551e-12
1.91787e-12 -6.44551e-12 -7.44459

27.8905 37.0791 7.62649e-13
37.0791 26.4696 -7.8515e-13
7.62649e-13 -7.8515e-13 -8.63436

-9.4392 10.3236 3.50386e-12
10.3236 -32.9249 -7.69015e-14
3.50386e-12 -7.69015e-14 -49.4998

19.8312 14.2174 3.19389e-12
14.2174 -29.3623 -5.62513e-14
3.19389e-12 -5.62513e-14 -6.00375

-4.21366 -17.7827 1.74113e-12
-17.7827 59.6622 1.8711e-12
1.74113e-12 1.8711e-12 -8.47826

66.2892 -42.106 -1.7053e-12
-42.106 71.1448 -7.00595e-12
-1.7053e-12 -7.00595e-12 -11.2507

-48.2077 5.98538 5.97331e-12
5.98538 7.26903 -2.56506e-12
5.97331e-12 -2.56506e-12 -41.0313

-26.2903 -4.83858 -6.48296e-12
-4.83858 1.75657 -8.45575e-12
-6.48296e-12 -8.45575e-12 -37.7965

-1.46783 21.0273 -2.62101e-12
21.0273 -39.5037 4.43719e-12
-2.62101e-12 4.43719e-12 -41.0971

-43.9707 5.06542 1.51064e-12
5.06542 0.514025 -3.94262e-12
1.51064e-12 -3.94262e-12 -52.1815

-2.76137 -9.1709 -3.56456e-13
-9.1709 -20.7679 -8.84959e-13
-3.56456e-13 -8.84959e-13 -35.8914

-3.97612 -28.0002 -2.134e-12
-28.0002 -4.61137 -1.65853e-12
-2.134e-12 -1.65853e-12 -5.99736

65.603 41.5252 1.71714e-12
41.5252 73.1728 -1.35714e-12
1.71714e-12 -1.35714e-12 -10.9624

60.1597 -17.9513 1.77399e-12
-17.9513 0.11407 2.52183e-12
1.77399e-12 2.52183e-12 -8.05208

-41.7987 -3.70427 2.81863e-12
-3.70427 -1.18567 6.33686e-12
2.81863e-12 6.33686e-12 -52.7162

-14.5911 19.5524 1.82795e-12
19.5524 -28.5494 -1.82994e-12
1.82795e-12 -1.82994e-12 -52.8244

18.1418 -12.2737 8.58572e-14
-12.2737 -29.9023 1.26728e-12
8.58572e-14 1.26728e-12 -6.2259

38.1755 -43.3041 -4.1626e-12
-43.3041 41.804 -6.88042e-13
-4.1626e-12 -6.88042e-13 -14.5599

58.1481 -18.0656 1.75978e-12
-18.0656 -2.30602 -1.77162e-12
1.75978e-12 -1.77162e-12 -7.91585

-21.4464 17.0876 -2.5849e-12
17.0876 30.3282 2.10025e-12
-2.5849e-12 2.10025e-12 -5.73154

-11.3757 19.3412 2.70421e-12
19.3412 25.5112 -7.16701e-12
2.70421e-12 -7.16701e-12 -3.92478

20.791 -16.3023 -1.93978e-12
-16.3023 -33.1185 1.7546e-12
-1.93978e-12 1.7546e-12 -7.31474

12.6141 -34.1896 -9.91207e-13
-34.1896 46.4384 -4.87551e-12
-9.91207e-13 -4.87551e-12 -10.3992

62.3648 19.1842 -1.68872e-12
19.1842 2.80783 -7.27122e-13
-1.68872e-12 -7.27122e-13 -8.41581

46.5162 -25.2914 1.18779e-12
-25.2914 5.13164 3.63916e-12
1.18779e-12 3.63916e-12 -5.61247

-31.8969 19.4838 -7.25568e-12
19.4838 -4.28473 -2.38328e-13
-7.25568e-12 -2.38328e-13 -26.0833

37.0405 29.6529 -2.06057e-13
29.6529 14.5116 -1.68991e-12
-2.06057e-13 -1.68991e-12 -5.43486

-27.448 -21.8127 -1.49332e-12
-21.8127 -8.23083 2.92803e-13
-1.49332e-12 2.92803e-13 -25.2459

64.8734 -42.7159 -8.28967e-14
-42.7159 44.083 4.0797e-12
-8.28967e-14 4.0797e-12 -9.50233

-27.7484 5.45752 -2.06353e-12
5.45752 2.669 -2.80398e-12
-2.06353e-12 -2.80398e-12 -38.302

-5.56135 -5.33051 2.67608e-12
-5.33051 57.3919 -3.13941e-12
2.67608e-12 -3.13941e-12 -5.45191

-0.201999 10.3847 -2.00018e-12
10.3847 -24.8454 -1.41558e-13
-2.00018e-12 -1.41558e-13 -38.3636

-26.489 21.415 3.31113e-12
21.415 12.2192 2.67697e-12
3.31113e-12 2.67697e-12 -6.87296

4.72547 5.75477 -2.0773e-12
5.75477 -56.0403 -2.31222e-12
-2.0773e-12 -2.31222e-12 -13.9825

0.540564 11.459 -6.41265e-13
11.459 -34.0578 -4.44977e-12
-6.41265e-13 -4.44977e-12 -14.8403

106.352 31.8226 -3.37508e-12
31.8226 37.8353 -7.65018e-13
-3.37508e-12 -7.65018e-13 -7.48884

-35.4933 -6.03614 6.74349e-12
-6.03614 10.6013 -3.46153e-12
6.74349e-12 -3.46153e-12 -13.4797

-35.3607 9.52055 -1.47319e-12
9.52055 1.23399 6.37416e-13
-1.47319e-12 6.37416e-13 -14.9606

-42.5901 -2.88155 -1.9467e-12
-2.88155 21.1106 -6.05086e-12
-1.9467e-12 -6.05086e-12 -11.2405

-44.9091 23.4013 4.48723e-12
23.4013 -5.89264 -3.20988e-12
4.48723e-12 -3.20988e-12 -13.9234

9.97095 8.46421 -4.34615e-13
8.46421 -42.3811 1.62655e-12
-4.34615e-13 1.62655e-12 -9.08065

-12.3371 -28.242 3.32475e-12
-28.242 1.6859 -5.5896e-13
3.32475e-12 -5.5896e-13 -6.67714

1.3088 -1.71153 1.20363e-12
-1.71153 -55.4574 -2.01491e-12
1.20363e-12 -2.01491e-12 -11.3064

-31.8864 -19.2598 -8.92471e-13
-19.2598 -4.59399 -2.67016e-12
-8.92471e-13 -2.67016e-12 -25.9526

-27.9734 21.3078 7.96104e-13
21.3078 -8.36053 -9.69507e-13
7.96104e-13 -9.69507e-13 -26.011

-0.654719 -16.5855 1.59976e-12
-16.5855 61.6782 1.05397e-13
1.59976e-12 1.05397e-13 -7.9509

-0.650397 -27.9371 1.58155e-12
-27.9371 -21.3635 1.17269e-12
1.58155e-12 1.17269e-12 -12.7923

-14.0954 -25.1367 3.57936e-12
-25.1367 7.40634 1.82906e-12
3.57936e-12 1.82906e-12 -5.23901

91.6866 -31.7138 4.44326e-12
-31.7138 19.4863 4.8832e-12
4.44326e-12 4.8832e-12 -16.3324

-33.7081 3.22309 -1.14131e-13
3.22309 9.20029 2.72967e-13
-1.14131e-13 2.72967e-13 -18.5629

2.75067 28.9451 1.71714e-12
28.9451 -24.4259 -1.87672e-12
1.71714e-12 -1.87672e-12 -11.3182

-38.4365 19.665 2.52657e-12
19.665 5.22934 -2.48098e-12
2.52657e-12 -2.48098e-12 -9.23793

50.1938 8.00048 -2.50111e-12
8.00048 -16.9688 1.19223e-12
-2.50111e-12 1.19223e-12 -7.06972

60.0359 -33.9394 -1.74438e-12
-33.9394 33.7881 -1.83794e-12
-1.74438e-12 -1.83794e-12 -6.98469

-18.9626 -10.5869 5.06232e-12
-10.5869 -0.540535 4.59484e-13
5.06232e-12 4.59484e-13 -25.4286

-33.9257 23.9002 -8.32223e-13
23.9002 -12.0248 -1.64539e-12
-8.32223e-13 -1.64539e-12 -14.5415

58.1606 -32.3876 -1.83912e-12
-32.3876 18.091 1.05397e-12
-1.83912e-12 1.05397e-12 -10.1351

66.8648 10.7924 -1.7278e-12
10.7924 8.51128 -2.48734e-12
-1.7278e-12 -2.48734e-12 -5.08608

7.67308 -21.2084 1.15078e-12
-21.2084 88.4725 -1.53004e-12
1.15078e-12 -1.53004e-12 -11.8627

-33.9901 14.4266 2.20431e-12
14.4266 20.2383 5.20473e-13
2.20431e-12 5.20473e-13 -7.54942

8.47458 23.1448 1.63721e-12
23.1448 -26.0757 -1.23368e-12
1.63721e-12 -1.23368e-12 -11.3006

34.8707 42.2034 4.81156e-12
42.2034 46.2026 -5.70803e-13
4.81156e-12 -5.70803e-13 -14.4213

-4.39435 16.5053 -1.28854e-11
16.5053 -35.5367 -2.57986e-12
-1.28854e-11 -2.57986e-12 -73.2719

-5.98354 -4.10889 2.49785e-12
-4.10889 57.9524 1.98241e-12
2.49785e-12 1.98241e-12 -5.44411

-1.8193 -16.6305 5.7323e-12
-16.6305 -39.3961 1.13524e-12
5.7323e-12 1.13524e-12 -74.095

-3.33061 -27.3347 1.24641e-12
-27.3347 -30.0292 -2.7652e-13
1.24641e-12 -2.7652e-13 -21.5531

8.96636 27.4253 4.86011e-12
27.4253 -29.9974 -2.25745e-12
4.86011e-12 -2.25745e-12 -11.259

45.7139 -24.4134 -3.00678e-12
-24.4134 5.02197 -6.09882e-14
-3.00678e-12 -6.09882e-14 -5.23855

10.0937 31.3271 -2.16123e-13
31.3271 47.1662 5.21894e-12
-2.16123e-13 5.21894e-12 -9.6424

14.2715 -10.7063 9.09495e-13
-10.7063 82.8457 -8.8581e-13
9.09495e-13 -8.8581e-13 -6.44794

-38.6339 21.9714 7.91959e-14
21.9714 2.94112 -4.04684e-12
7.91959e-14 -4.04684e-12 -8.5716

1.19323 16.7952 -3.38692e-13
16.7952 -25.7239 -2.18196e-12
-3.38692e-13 -2.18196e-12 -18.5671

-26.5406 15.1554 4.03588e-12
15.1554 18.4495 4.03884e-12
4.03588e-12 4.03884e-12 -5.7109

43.6613 15.9555 3.09086e-12
15.9555 -7.28869 -8.27338e-13
3.09086e-12 -8.27338e-13 -4.07795

12.5756 -21.4751 -1.45069e-13
-21.4751 57.9597 1.42109e-14
-1.45069e-13 1.42109e-14 -4.71591

66.0016 -29.394 -1.15345e-12
-29.394 18.6433 1.85925e-12
-1.15345e-12 1.85925e-12 -9.33635

-32.3826 -24.5743 -2.7045e-13
-24.5743 -7.28271 2.54582e-12
-2.7045e-13 2.54582e-12 -8.97918

-22.6687 27.4526 1.30769e-12
27.4526 -10.3521 -4.95308e-13
1.30769e-12 -4.95308e-13 -9.2867

-38.352 23.1883 -4.45007e-12
23.1883 1.99069 2.62427e-12
-4.45007e-12 2.62427e-12 -8.52752

-51.5541 13.1687 -2.59895e-12
13.1687 11.9258 2.05643e-12
-2.59895e-12 2.05643e-12 -16.4671

23.4854 9.37274 7.52583e-13
9.37274 -29.4914 -8.84182e-13
7.52583e-13 -8.84182e-13 -5.32451

3.76658 -4.66553 4.19901e-12
-4.66553 79.4448 7.12911e-13
4.19901e-12 7.12911e-13 -9.53253

-44.9385 -36.8317 1.21651e-12
-36.8317 -19.8284 -3.85395e-13
1.21651e-12 -3.85395e-13 -14.7721

-16.0825 27.4678 -1.75504e-12
27.4678 1.33955 -4.78432e-13
-1.75504e-12 -4.78432e-13 -6.91799

-5.01796 2.17046 3.58624e-12
2.17046 82.6809 4.493e-12
3.58624e-12 4.493e-12 -13.4321

69.0509 34.6143 -4.92643e-12
34.6143 15.4963 5.97448e-13
-4.92643e-12 5.97448e-13 -10.7069

-31.3542 -22.9753 -1.0969e-13
-22.9753 -4.63334 -1.09542e-12
-1.0969e-13 -1.09542e-12 -8.53288

11.7431 5.73294 1.65675e-12
5.73294 -48.3372 2.47957e-12
1.65675e-12 2.47957e-12 -8.64392

43.068 27.2072 1.5703e-12
27.2072 10.4504 -4.29997e-12
1.5703e-12 -4.29997e-12 -5.08319

-9.4125 12.7447 1.04583e-12
12.7447 -14.0406 6.47097e-12
1.04583e-12 6.47097e-12 -37.0347

70.3401 24.3333 -1.6603e-12
24.3333 23.8051 -1.68103e-12
-1.6603e-12 -1.68103e-12 -6.80043

-10.5835 -13.0542 -2.27951e-12
-13.0542 -13.9224 9.63377e-13
-2.27951e-12 9.63377e-13 -37.3724

-4.38296 0.778673 -8.43029e-13
0.778673 59.4022 -2.60059e-12
-8.43029e-13 -2.60059e-12 -4.83302

38.359 -2.23558 2.30334e-12
-2.23558 -23.816 3.4663e-12
2.30334e-12 3.4663e-12 -5.83557

3.59305 -15.7664 2.18507e-12
-15.7664 -53.9686 3.00204e-13
2.18507e-12 3.00204e-13 -21.1234

-42.2783 24.3883 2.61488e-12
24.3883 -11.737 3.49498e-13
2.61488e-12 3.49498e-13 -11.17

-46.8128 -13.5354 -4.74974e-12
-13.5354 11.0666 -2.52302e-12
-4.74974e-12 -2.52302e-12 -12.3554

5.80961 -7.99942 -4.82577e-14
-7.99942 -70.965 2.05302e-12
-4.82577e-14 2.05302e-12 -14.8833

-49.5385 -22.282 7.49267e-12
-22.282 3.74709 8.43769e-13
7.49267e-12 8.43769e-13 -22.1034

-17.4584 -6.59842 -3.92693e-12
-6.59842 -13.1154 -3.19559e-13
-3.92693e-12 -3.19559e-13 -34.7764

-28.7306 -29.9085 -1.45661e-12
-29.9085 -9.4001 -1.25944e-12
-1.45661e-12 -1.25944e-12 -8.99858

15.6927 11.4549 2.21334e-12
11.4549 80.187 2.01084e-12
2.21334e-12 2.01084e-12 -6.53159

42.2921 -28.1498 -9.03573e-13
-28.1498 11.0493 -1.40687e-12
-9.03573e-13 -1.40687e-12 -5.04647

-47.1702 -13.7706 2.04207e-13
-13.7706 4.19629 2.36581e-12
2.04207e-13 2.36581e-12 -29.2977

2.96447 0.504978 5.09518e-13
0.504978 -56.8131 1.59591e-12
5.09518e-13 1.59591e-12 -11.0078

-39.3378 -21.524 -2.62116e-12
-21.524 -8.85673 -2.69651e-12
-2.62116e-12 -2.69651e-12 -14.7754

-40.1955 25.6982 1.57874e-12
25.6982 -14.6921 -1.03018e-12
1.57874e-12 -1.03018e-12 -11.3134

32.2614 -31.4681 -4.53208e-12
-31.4681 38.4311 -1.67451e-12
-4.53208e-12 -1.67451e-12 -4.65008

-31.4681 -7.08275 -1.75734e-12
-7.08275 1.70165 -2.20683e-12
-1.75734e-12 -2.20683e-12 -40.9858

36.6318 -33.0803 -1.00779e-12
-33.0803 72.0329 -3.6593e-12
-1.00779e-12 -3.6593e-12 -7.14516

16.6131 -19.1811 1.58096e-12
-19.1811 -25.8732 -4.80801e-13
1.58096e-12 -4.80801e-13 -7.13596

1.5023 1.97137 -1.10489e-12
1.97137 -51.3916 -6.22909e-13
-1.10489e-12 -6.22909e-13 -15.3753

-12.8729 17.8742 1.58451e-12
17.8742 -16.9561 1.66089e-13
1.58451e-12 1.66089e-13 -41.0534

10.7114 20.1853 2.79539e-12
20.1853 59.4583 2.64677e-12
2.79539e-12 2.64677e-12 -4.35861

4.31705 27.2124 -4.82932e-12
27.2124 -16.2249 -5.58368e-12
-4.82932e-12 -5.58368e-12 -8.12654

30.9055 -24.5139 -2.44071e-12
-24.5139 -8.13576 9.74036e-13
-2.44071e-12 9.74036e-13 -4.87522

-37.7903 -17.8393 -3.75829e-13
-17.8393 2.4007 2.7495e-12
-3.75829e-13 2.7495e-12 -9.86707

55.5174 35.072 2.19913e-12
35.072 42.3477 1.78465e-12
2.19913e-12 1.78465e-12 -6.63714

-40.0167 -21.8315 -1.56882e-12
-21.8315 2.53666 1.61826e-12
-1.56882e-12 1.61826e-12 -9.39659

2.96562 30.852 -6.68384e-12
30.852 -17.3913 -4.52971e-13
-6.68384e-12 -4.52971e-13 -9.08074

18.5374 -25.2457 1.74675e-12
-25.2457 -19.4214 8.58276e-13
1.74675e-12 8.58276e-13 -6.34538

-15.6561 -25.1284 3.26642e-12
-25.1284 5.89517 4.40951e-12
3.26642e-12 4.40951e-12 -5.77865

42.7206 -18.6902 -4.71208e-12
-18.6902 -9.16961 2.404e-12
-4.71208e-12 2.404e-12 -5.37198

27.4326 -18.8515 1.81781e-12
-18.8515 -20.3725 7.40149e-15
1.81781e-12 7.40149e-15 -5.69289

-41.3942 -25.3376 1.42109e-13
-25.3376 -14.9645 7.32303e-13
1.42109e-13 7.32303e-13 -11.5695

29.7817 35.9736 2.10794e-13
35.9736 25.2273 6.987e-14
2.10794e-13 6.987e-14 -8.64646

-28.5208 15.3782 -9.96536e-13
15.3782 18.5189 -1.12503e-13
-9.96536e-13 -1.12503e-13 -5.87685

-23.1095 26.4237 2.38624e-12
26.4237 -12.5483 7.32155e-13
2.38624e-12 7.32155e-13 -9.96067

-42.0979 25.4736 -6.56201e-12
25.4736 -11.5926 7.99065e-13
-6.56201e-12 7.99065e-13 -10.9953

-37.2905 11.6226 -1.05847e-12
11.6226 11.8441 -1.668e-12
-1.05847e-12 -1.668e-12 -9.08275

64.3978 -8.22791 2.87296e-12
-8.22791 3.19503 -3.47485e-12
2.87296e-12 -3.47485e-12 -4.25283

8.73198 18.6086 -3.44554e-12
18.6086 59.224 -1.63662e-12
-3.44554e-12 -1.63662e-12 -4.16428

-25.6173 -24.382 3.00944e-12
-24.382 0.457925 -2.04725e-12
3.00944e-12 -2.04725e-12 -7.21867

-1.14376 25.6685 -9.166e-13
25.6685 13.7521 1.38556e-12
-9.166e-13 1.38556e-12 -4.08575

32.3796 -35.6334 4.38286e-12
-35.6334 21.6999 1.0143e-12
4.38286e-12 1.0143e-12 -8.48823

59.5408 38.3209 4.36984e-12
38.3209 17.8479 -1.34885e-12
4.36984e-12 -1.34885e-12 -13.7232

12.1237 -33.3149 -3.17849e-12
-33.3149 42.9158 1.0291e-12
-3.17849e-12 1.0291e-12 -9.54475

30.552 -31.1632 9.17784e-13
-31.1632 36.815 -6.3712e-13
9.17784e-13 -6.3712e-13 -4.40739

11.7689 -6.83861 -2.08722e-12
-6.83861 -48.8391 3.80806e-12
-2.08722e-12 3.80806e-12 -8.7727

25.2745 30.3452 -1.72662e-12
30.3452 41.091 -1.7657e-12
-1.72662e-12 -1.7657e-12 -4.45792

62.6867 13.2961 -1.37608e-12
13.2961 5.22582 9.74865e-12
-1.37608e-12 9.74865e-12 -4.30738

-7.02945 13.3804 7.0773e-13
13.3804 61.3486 8.05282e-14
7.0773e-13 8.05282e-14 -8.69708

11.7281 -22.343 -6.13968e-12
-22.343 55.7668 9.39101e-13
-6.13968e-12 9.39101e-13 -4.30337

-47.2601 -1.09236 -9.0683e-13
-1.09236 12.4089 -1.77636e-13
-9.0683e-13 -1.77636e-13 -22.1607

-5.92263 2.24691 3.78601e-12
2.24691 59.0084 -6.59621e-13
3.78601e-12 -6.59621e-13 -5.26479

6.26667 31.0928 -3.88371e-12
31.0928 47.8681 -2.57927e-12
-3.88371e-12 -2.57927e-12 -9.66255

-39.7266 12.1087 5.31534e-12
12.1087 12.8442 -2.45729e-13
5.31534e-12 -2.45729e-13 -9.31511

40.7401 -27.6507 -1.19608e-13
-27.6507 8.35577 -3.42837e-13
-1.19608e-13 -3.42837e-13 -5.64433

7.53851 20.5571 2.15235e-13
20.5571 -47.4673 -5.50019e-12
2.15235e-13 -5.50019e-12 -16.4825

-3.42222 26.2704 1.15878e-12
26.2704 -31.4858 7.66202e-13
1.15878e-12 7.66202e-13 -22.2512

15.7771 -18.5692 1.77458e-12
-18.5692 -30.0164 -2.95467e-13
1.77458e-12 -2.95467e-13 -8.18555

4.42767 -1.80316 -1.32561e-12
-1.80316 -34.1329 -2.62753e-12
-1.32561e-12 -2.62753e-12 -24.4373

-14.3414 -31.8131 3.60364e-12
-31.8131 -11.9321 -1.65645e-12
3.60364e-12 -1.65645e-12 -9.05208

56.2221 23.3304 3.17376e-12
23.3304 0.813992 -1.93208e-12
3.17376e-12 -1.93208e-12 -8.29003

-27.829 30.1625 3.15303e-12
30.1625 -9.2367 1.84475e-12
3.15303e-12 1.84475e-12 -8.80284

-27.0046 29.2064 -1.70974e-12
29.2064 -9.20196 3.02839e-12
-1.70974e-12 3.02839e-12 -8.68014

28.629 30.6644 -1.30266e-13
30.6644 40.4077 4.44326e-12
-1.30266e-13 4.44326e-12 -4.45087

0.343047 27.0862 -1.41753e-12
27.0862 -19.8486 1.66563e-12
-1.41753e-12 1.66563e-12 -11.7785

64.5131 3.52555 -5.37644e-12
3.52555 -11.8299 -1.06659e-12
-5.37644e-12 -1.06659e-12 -10.0204

-14.9007 31.8172 3.07635e-12
31.8172 -20.799 1.74024e-12
3.07635e-12 1.74024e-12 -12.449

-37.9469 -12.5993 -4.41232e-12
-12.5993 8.18027 -3.2235e-12
-4.41232e-12 -3.2235e-12 -14.0239

-0.474691 24.2775 1.03473e-12
24.2775 -30.0001 1.27187e-12
1.03473e-12 1.27187e-12 -20.7704

-23.7285 -29.5793 2.42384e-12
-29.5793 -11.9351 2.01824e-12
2.42384e-12 2.01824e-12 -8.84573

-38.1514 -4.89748 2.98498e-12
-4.89748 18.8469 -4.84886e-12
2.98498e-12 -4.84886e-12 -11.7316

69.9501 -24.5591 -3.57166e-12
-24.5591 18.0283 -1.77576e-12
-3.57166e-12 -1.77576e-12 -7.04543

39.9839 29.6965 4.31063e-12
29.6965 13.4782 1.81781e-12
4.31063e-12 1.81781e-12 -5.21733

-4.29946 14.6982 -7.05362e-13
14.6982 60.5758 1.72188e-12
-7.05362e-13 1.72188e-12 -8.40295

1.61126 -1.13922 -9.84398e-14
-1.13922 -56.1244 3.64753e-12
-9.84398e-14 3.64753e-12 -11.2116

9.61415 0.00217194 2.19676e-13
0.00217194 -44.7575 -1.03982e-12
2.19676e-13 -1.03982e-12 -8.441

-31.0813 23.1254 -8.8655e-13
23.1254 -4.33807 3.82686e-12
-8.8655e-13 3.82686e-12 -8.46143

-34.762 23.8715 1.69553e-12
23.8715 -13.1938 1.86982e-12
1.69553e-12 1.86982e-12 -14.8142

-43.3797 -24.3809 2.50929e-13
-24.3809 -12.6138 7.81597e-14
2.50929e-13 7.81597e-14 -11.4711

-39.0619 -0.673446 -2.88569e-12
-0.673446 21.0463 3.69541e-12
-2.88569e-12 3.69541e-12 -10.4973

-40.8072 25.591 -1.94778e-12
25.591 -13.2233 4.89201e-12
-1.94778e-12 4.89201e-12 -11.1748

32.323 -10.309 3.1856e-12
-10.309 -25.1586 3.54413e-12
3.1856e-12 3.54413e-12 -6.01743

8.70488 -32.8374 -3.25073e-12
-32.8374 22.7977 7.22977e-13
-3.25073e-12 7.22977e-13 -6.99486

2.39646 -2.30193 2.20979e-12
-2.30193 -49.9613 -7.69755e-15
2.20979e-12 -7.69755e-15 -14.7739

36.7471 -34.5124 5.4996e-12
-34.5124 24.4799 6.60213e-13
5.4996e-12 6.60213e-13 -7.71108

-38.2952 19.0859 -2.31074e-13
19.0859 -7.09317 1.56142e-12
-2.31074e-13 1.56142e-12 -14.4506

7.87051 -26.4793 -1.32043e-13
-26.4793 -27.9971 1.26536e-12
-1.32043e-13 1.26536e-12 -10.9708

63.9523 -9.69143 -1.35477e-12
-9.69143 5.67516 -3.30758e-12
-1.35477e-12 -3.30758e-12 -5.07417

6.03911 -23.1928 -2.17426e-12
-23.1928 -35.469 1.64224e-12
-2.17426e-12 1.64224e-12 -17.7362

0.141463 2.35842 1.29215e-12
2.35842 -56.1749 -5.73911e-13
1.29215e-12 -5.73911e-13 -11.5484

-4.06263 -23.3227 8.39033e-13
-23.3227 -23.4121 2.33339e-12
8.39033e-13 2.33339e-12 -16.72

11.0381 -25.8602 1.5478e-12
-25.8602 -29.4885 -9.13936e-13
1.5478e-12 -9.13936e-13 -9.73579

10.2009 -8.54708 -2.46795e-12
-8.54708 -43.4931 3.44406e-12
-2.46795e-12 3.44406e-12 -9.2842

-35.4174 -23.0687 2.45433e-13
-23.0687 -12.6472 -4.44996e-12
2.45433e-13 -4.44996e-12 -15.1042

23.6644 -31.3454 2.7119e-13
-31.3454 5.71035 9.95352e-13
2.7119e-13 9.95352e-13 -5.88115

11.059 -24.5891 -2.41762e-12
-24.5891 -27.4967 6.86029e-12
-2.41762e-12 6.86029e-12 -10.0501

46.646 10.8657 -9.69536e-12
10.8657 -16.1221 5.36549e-12
-9.69536e-12 5.36549e-12 -6.80277

-14.1864 26.3414 5.41167e-12
26.3414 -15.6421 -1.79678e-12
5.41167e-12 -1.79678e-12 -14.1201

-45.2504 -37.6112 2.38802e-12
-37.6112 -20.6116 1.21606e-13
2.38802e-12 1.21606e-13 -14.9205

-43.7073 37.2636 -2.45463e-12
37.2636 -21.2653 2.92692e-12
-2.45463e-12 2.92692e-12 -14.7709

-61.1824 -28.5724 2.29446e-12
-28.5724 -7.49724 2.07597e-12
2.29446e-12 2.07597e-12 -15.201

-58.4137 27.0633 -1.00793e-12
27.0633 -6.27182 -8.14164e-13
-1.00793e-12 -8.14164e-13 -14.4796

5.60024 -8.52699 3.43858e-12
-8.52699 -71.0615 -1.97042e-12
3.43858e-12 -1.97042e-12 -14.7112

4.39719 9.27295 -3.58084e-13
9.27295 -68.8304 1.16115e-12
-3.58084e-13 1.16115e-12 -14.4392

9.02376 -9.84707 -4.1626e-13
-9.84707 -40.893 -1.30547e-12
-4.1626e-13 -1.30547e-12 -9.61444

-24.3353 32.114 -2.49874e-12
32.114 -24.8083 8.35202e-13
-2.49874e-12 8.35202e-13 -21.1444

-25.5225 -32.8519 -2.72967e-13
-32.8519 -25.0945 -1.42824e-12
-2.72967e-13 -1.42824e-12 -21.4686

-53.9165 16.068 4.32498e-12
16.068 3.40041 -3.86506e-12
4.32498e-12 -3.86506e-12 -21.402

-52.4177 -15.8006 -1.94955e-12
-15.8006 3.29582 -3.09619e-12
-1.94955e-12 -3.09619e-12 -21.0753

6.11063 -3.74938 -6.04257e-13
-3.74938 -43.9241 -1.98715e-12
-6.04257e-13 -1.98715e-12 -25.763

6.91662 3.61209 -1.83586e-12
3.61209 -46.3473 1.23753e-12
-1.83586e-12 1.23753e-12 -26.1393

-15.6304 9.83803 3.38107e-12
9.83803 46.2653 5.56592e-14
3.38107e-12 5.56592e-14 -5.85092

-22.9201 -24.7757 7.63241e-13
-24.7757 -14.5532 5.20724e-12
7.63241e-13 5.20724e-12 -10.3323

-56.6018 -36.3862 -2.19573e-12
-36.3862 -14.5323 2.34479e-13
-2.19573e-12 2.34479e-13 -13.4392

33.3601 -4.66463 -1.59872e-12
-4.66463 -19.851 -2.91611e-12
-1.59872e-12 -2.91611e-12 -3.9482

3.43278 -16.693 9.78773e-13
-16.693 -52.6263 -8.71895e-13
9.78773e-13 -8.71895e-13 -21.5318

3.67393 16.174 3.0694e-12
16.174 -51.882 -3.59446e-12
3.0694e-12 -3.59446e-12 -21.405

6.55532 0.121863 1.43737e-12
0.121863 -76.7525 2.37728e-13
1.43737e-12 2.37728e-13 -13.306

-7.57337 23.3782 3.32919e-12
23.3782 39.9378 2.69414e-12
3.32919e-12 2.69414e-12 -6.88818

-56.8874 36.1702 7.66794e-14
36.1702 -14.011 6.89522e-13
7.66794e-14 6.89522e-13 -13.3908

-39.7953 -23.3963 -1.85807e-12
-23.3963 2.56119 3.62081e-12
-1.85807e-12 3.62081e-12 -8.80346

37.1184 23.3555 -1.88531e-12
23.3555 -8.61681 -5.14551e-12
-1.88531e-12 -5.14551e-12 -5.7616

4.73383 23.8589 -1.58333e-12
23.8589 -38.2264 3.75522e-12
-1.58333e-12 3.75522e-12 -18.9857

24.0136 -31.3173 -2.14939e-12
-31.3173 6.40636 5.01762e-12
-2.14939e-12 5.01762e-12 -5.6511

2.43044 -3.23203 -1.1123e-12
-3.23203 -48.3704 1.22361e-12
-1.1123e-12 1.22361e-12 -14.7439

-60.4553 -34.16 -3.40217e-12
-34.16 -14.3498 -3.62717e-12
-3.40217e-12 -3.62717e-12 -14.0328

-17.4574 8.32091 1.8216e-12
8.32091 45.6945 9.43838e-13
1.8216e-12 9.43838e-13 -5.78402

-9.47284 21.8143 -4.33253e-12
21.8143 40.4273 4.38168e-14
-4.33253e-12 4.38168e-14 -6.6567

58.6081 35.78 -4.11878e-12
35.78 37.0898 -4.22536e-12
-4.11878e-12 -4.22536e-12 -6.91684

70.4903 1.57896 -4.48234e-12
1.57896 -5.5464 -2.85105e-13
-4.48234e-12 -2.85105e-13 -10.3757

-30.7592 -22.8052 7.62649e-13
-22.8052 -13.3576 -2.10282e-12
7.62649e-13 -2.10282e-12 -14.4672

32.8427 31.1874 -7.92255e-13
31.1874 69.7999 1.42109e-14
-7.92255e-13 1.42109e-14 -6.68007

-19.3787 23.6117 -6.75341e-12
23.6117 7.68663 3.13231e-13
-6.75341e-12 3.13231e-13 -5.51634

47.6403 -5.35019 1.01252e-12
-5.35019 -17.4383 -4.34793e-12
1.01252e-12 -4.34793e-12 -6.82472

33.2209 11.2173 5.44749e-14
11.2173 -23.6419 -1.79797e-12
5.44749e-14 -1.79797e-12 -6.01717

6.25386 0.429879 -2.27773e-12
0.429879 -77.5496 -1.0462e-12
-2.27773e-12 -1.0462e-12 -13.4517

-58.9335 -29.03 1.59354e-13
-29.03 -6.28837 -4.41454e-12
1.59354e-13 -4.41454e-12 -14.6986

-28.3313 -6.31791 5.68212e-13
-6.31791 -11.355 1.54661e-12
5.68212e-13 1.54661e-12 -51.5796

-44.6968 37.4099 4.86722e-13
37.4099 -20.8107 3.01537e-13
4.86722e-13 3.01537e-13 -14.775

93.7989 1.66344 -1.39266e-12
1.66344 16.6549 1.83105e-12
-1.39266e-12 1.83105e-12 -6.04357

10.0348 -32.791 -1.38556e-12
-32.791 21.3108 2.89546e-13
-1.38556e-12 2.89546e-13 -6.81114

-56.9342 36.6116 2.76697e-12
36.6116 -14.5708 7.09359e-13
2.76697e-12 7.09359e-13 -13.507

-35.0832 -11.1344 1.36078e-12
-11.1344 19.1774 1.87169e-12
1.36078e-12 1.87169e-12 -8.31914

-5.48107 -25.5178 1.60612e-12
-25.5178 37.3521 2.53664e-12
1.60612e-12 2.53664e-12 -6.98995

-58.4501 28.829 -2.46025e-13
28.829 -6.27175 2.15916e-12
-2.46025e-13 2.15916e-12 -14.6157

28.4965 -26.1448 -5.92119e-16
-26.1448 -4.91529 4.43023e-12
-5.92119e-16 4.43023e-12 -4.7002

-21.1669 10.4841 -4.58655e-12
10.4841 -18.5585 -4.35948e-12
-4.58655e-12 -4.35948e-12 -51.6751

3.43041 30.8758 6.21725e-14
30.8758 27.1632 5.87382e-13
6.21725e-14 5.87382e-13 -6.73594

6.13991 8.1261 3.58469e-12
8.1261 -72.2949 4.25141e-13
3.58469e-12 4.25141e-13 -14.9857

-11.547 30.1912 3.19744e-14
30.1912 -20.6031 -3.16784e-13
3.19744e-14 -3.16784e-13 -11.5508

-30.8 23.3334 -1.92942e-12
23.3334 -5.10055 -1.51464e-12
-1.92942e-12 -1.51464e-12 -8.46743

-25.8633 -32.4866 2.83033e-13
-32.4866 -24.1112 -3.80901e-12
2.83033e-13 -3.80901e-12 -21.558

9.20433 -23.1919 1.66385e-13
-23.1919 -27.924 2.11653e-12
1.66385e-13 2.11653e-12 -11.4273

-37.6621 10.4691 6.14693e-13
10.4691 8.92901 5.76961e-12
6.14693e-13 5.76961e-12 -25.3289

-23.043 -23.4353 3.72532e-12
-23.4353 4.95195 -2.48275e-12
3.72532e-12 -2.48275e-12 -6.26608

88.8114 -9.70907 7.17411e-12
-9.70907 10.8063 4.55806e-12
7.17411e-12 4.55806e-12 -10.0314

84.0514 -14.2787 -3.58587e-12
-14.2787 2.81096 2.71487e-12
-3.58587e-12 2.71487e-12 -13.1975

5.8865 16.531 4.83613e-12
16.531 -33.9323 6.34159e-13
4.83613e-12 6.34159e-13 -22.3747

-16.4245 22.5041 1.7885e-12
22.5041 16.2278 1.29911e-12
1.7885e-12 1.29911e-12 -5.08855

-3.91356 29.1653 4.54747e-12
29.1653 -12.2323 -2.07508e-12
4.54747e-12 -2.07508e-12 -8.39896

50.9963 0.688728 8.52651e-13
0.688728 -6.53552 -1.58989e-12
8.52651e-13 -1.58989e-12 -3.63708

-48.1424 6.57039 2.94542e-12
6.57039 14.7855 2.47624e-12
2.94542e-12 2.47624e-12 -18.9524

10.1157 16.5407 2.85697e-12
16.5407 -36.0817 -5.86198e-14
2.85697e-12 -5.86198e-14 -9.13768

-4.50709 -25.7643 -8.23045e-13
-25.7643 35.557 1.12503e-13
-8.23045e-13 1.12503e-13 -6.74994

-39.1945 -2.57184 4.22902e-12
-2.57184 21.5045 4.35444e-12
4.22902e-12 4.35444e-12 -10.6713

-7.99415 13.3669 6.52811e-13
13.3669 44.4078 6.83305e-13
6.52811e-13 6.83305e-13 -3.94712

3.73404 -29.7151 1.3903e-12
-29.7151 -17.3677 2.11919e-12
1.3903e-12 2.11919e-12 -8.92296

21.4256 -29.951 -4.37457e-12
-29.951 14.7554 -9.96536e-13
-4.37457e-12 -9.96536e-13 -3.92069

6.8789 31.6268 -1.92024e-12
31.6268 25.402 2.26071e-12
-1.92024e-12 2.26071e-12 -6.83106

2.78439 -15.0192 3.81325e-13
-15.0192 -39.2619 -2.19654e-12
3.81325e-13 -2.19654e-12 -63.2987

-46.1593 2.04204 -4.73754e-12
2.04204 11.4609 7.31089e-12
-4.73754e-12 7.31089e-12 -22.7553

-55.4415 20.2986 -1.28386e-12
20.2986 3.09414 4.53326e-12
-1.28386e-12 4.53326e-12 -22.9148

5.9151 15.4376 9.80845e-13
15.4376 -58.8153 -8.53243e-13
9.80845e-13 -8.53243e-13 -23.0348

-18.923 -26.1903 1.1197e-12
-26.1903 -12.9148 3.18501e-12
1.1197e-12 3.18501e-12 -9.65516

41.3484 17.9592 -6.12488e-12
17.9592 -6.27444 4.14631e-12
-6.12488e-12 4.14631e-12 -3.86424

-44.6812 -5.29276 4.90381e-12
-5.29276 4.53849 2.79421e-12
4.90381e-12 2.79421e-12 -39.1391

7.4995 -18.9878 -9.03277e-13
-18.9878 -39.8957 -7.41037e-13
-9.03277e-13 -7.41037e-13 -11.6615

30.2921 -15.6001 2.48039e-12
-15.6001 -20.5126 8.43325e-13
2.48039e-12 8.43325e-13 -4.80814

-9.64201 11.6047 -3.89141e-12
11.6047 44.3217 -7.44886e-13
-3.89141e-12 -7.44886e-13 -3.86191

8.33215 -25.7374 2.98842e-12
-25.7374 32.9932 4.43852e-12
2.98842e-12 4.43852e-12 -3.63574

-10.2437 -25.2739 5.39124e-13
-25.2739 -19.1024 -1.38497e-12
5.39124e-13 -1.38497e-12 -23.1732

17.0043 31.9633 3.44495e-12
31.9633 11.1959 3.31468e-12
3.44495e-12 3.31468e-12 -5.74931

-1.06895 -25.134 -2.22548e-12
-25.134 -30.7637 -1.07144e-12
-2.22548e-12 -1.07144e-12 -20.8906

48.0682 2.59763 1.73846e-12
2.59763 -8.41348 -4.39567e-12
1.73846e-12 -4.39567e-12 -3.53435

6.55159 -28.9338 -2.62072e-12
-28.9338 72.0568 1.85689e-12
-2.62072e-12 1.85689e-12 -14.5523

21.7913 -29.2344 -1.32871e-12
-29.2344 13.9628 -6.12251e-13
-1.32871e-12 -6.12251e-13 -3.93307

35.3528 32.1626 -1.58569e-12
32.1626 74.1403 3.69719e-12
-1.58569e-12 3.69719e-12 -5.44222

-45.2854 -11.8762 -1.39666e-13
-11.8762 13.9215 -6.14027e-13
-1.39666e-13 -6.14027e-13 -15.3273

-14.4248 -13.823 -2.61628e-12
-13.823 43.3847 6.10119e-12
-2.61628e-12 6.10119e-12 -5.67561

-19.2396 -23.9851 3.45057e-13
-23.9851 -19.8294 -8.57995e-12
3.45057e-13 -8.57995e-12 -64.2403

2.43588 23.7737 -1.62418e-12
23.7737 36.0084 -1.71596e-12
-1.62418e-12 -1.71596e-12 -3.71382

-15.1831 -32.7264 -5.4093e-12
-32.7264 -21.1207 -1.85748e-12
-5.4093e-12 -1.85748e-12 -14.3142

-14.5695 -11.9645 -1.19756e-13
-11.9645 45.5331 3.50179e-12
-1.19756e-13 3.50179e-12 -5.74176

7.83526 -19.1166 -5.02206e-12
-19.1166 -43.1228 3.4639e-13
-5.02206e-12 3.4639e-13 -12.6335

6.54373 23.88 -5.43032e-12
23.88 35.1729 2.61006e-12
-5.43032e-12 2.61006e-12 -3.44473

23.1743 -4.97574 1.8711e-13
-4.97574 -30.6795 -2.81286e-12
1.8711e-13 -2.81286e-12 -5.36726

36.9729 -30.3453 9.17784e-13
-30.3453 122.637 3.06954e-12
9.17784e-13 3.06954e-12 -6.2405

-26.8728 21.0158 6.34752e-13
21.0158 8.43387 -1.93623e-12
6.34752e-13 -1.93623e-12 -7.13316

40.3404 -19.3255 -1.07292e-12
-19.3255 -11.3763 -9.79957e-14
-1.07292e-12 -9.79957e-14 -5.72882

6.52649 -21.4456 4.65613e-12
-21.4456 -45.5571 -2.81553e-12
4.65613e-12 -2.81553e-12 -24.97

20.7048 31.7577 2.47506e-12
31.7577 9.55594 3.75107e-12
2.47506e-12 3.75107e-12 -5.80884

13.9183 -29.9745 -2.48098e-13
-29.9745 -7.60859 -1.4954e-12
-2.48098e-13 -1.4954e-12 -5.94722

6.75532 20.886 -3.90621e-12
20.886 -27.7946 6.77976e-13
-3.90621e-12 6.77976e-13 -11.1103

-38.2749 -28.0763 4.53252e-12
-28.0763 -14.0386 -1.66837e-12
4.53252e-12 -1.66837e-12 -11.0634

8.64463 -26.2284 4.83761e-13
-26.2284 31.172 1.99307e-12
4.83761e-13 1.99307e-12 -3.63781

15.3304 28.9845 7.10957e-12
28.9845 19.1537 7.43701e-13
7.10957e-12 7.43701e-13 -3.88568

28.6411 26.194 5.10643e-12
26.194 -5.63633 8.42881e-13
5.10643e-12 8.42881e-13 -4.80483

7.91389 -14.6115 -3.57137e-12
-14.6115 -36.8793 2.33561e-12
-3.57137e-12 2.33561e-12 -13.9923

-6.84465 -16.6197 2.13488e-12
-16.6197 41.343 7.93676e-12
2.13488e-12 7.93676e-12 -3.96213

17.4408 -17.5689 1.39799e-12
-17.5689 -31.0021 -1.26639e-12
1.39799e-12 -1.26639e-12 -7.10777

19.8417 16.9099 1.77458e-12
16.9099 -31.6683 3.04468e-12
1.77458e-12 3.04468e-12 -7.33735

-33.6813 -9.3852 3.20629e-12
-9.3852 8.75647 1.62241e-13
3.20629e-12 1.62241e-13 -23.9907

43.4341 -13.4314 -1.79886e-12
-13.4314 -8.37232 1.59073e-12
-1.79886e-12 1.59073e-12 -3.80684

-19.3828 0.594274 2.02919e-12
0.594274 43.1475 3.93404e-12
2.02919e-12 3.93404e-12 -4.77826

28.0569 18.5564 1.52175e-13
18.5564 -18.2027 9.4739e-13
1.52175e-13 9.4739e-13 -4.75256

25.5289 27.6068 1.50635e-12
27.6068 -3.77838 4.42106e-12
1.50635e-12 4.42106e-12 -4.77398

-6.71848 -15.6881 -4.84945e-13
-15.6881 43.8009 7.80413e-13
-4.84945e-13 7.80413e-13 -3.85061

-19.9108 -1.20226 2.45826e-12
-1.20226 42.13 9.28443e-13
2.45826e-12 9.28443e-13 -4.68984

-5.47331 29.1347 1.36957e-12
29.1347 -23.6488 5.93007e-13
1.36957e-12 5.93007e-13 -16.7972

-37.2765 -10.923 4.89105e-12
-10.923 21.6798 2.85638e-12
4.89105e-12 2.85638e-12 -7.83248

27.1437 -26.7182 3.27383e-12
-26.7182 -5.53338 -1.0066e-14
3.27383e-12 -1.0066e-14 -4.94702

40.721 21.3351 2.86822e-12
21.3351 -8.37363 1.81188e-12
2.86822e-12 1.81188e-12 -5.47027

12.3781 23.6662 6.21133e-13
23.6662 -27.1299 -3.33274e-12
6.21133e-13 -3.33274e-12 -8.66912

-37.7993 5.47167 3.69038e-13
5.47167 23.3115 8.63309e-13
3.69038e-13 8.63309e-13 -8.59956

18.5924 29.069 5.11117e-12
29.069 17.3774 8.40809e-13
5.11117e-12 8.40809e-13 -3.94974

-9.98779 22.964 -2.39808e-13
22.964 -14.9155 2.75957e-12
-2.39808e-13 2.75957e-12 -24.024

68.324 -59.6972 1.75267e-12
-59.6972 36.339 8.13335e-12
1.75267e-12 8.13335e-12 -23.0095

17.5303 -25.0501 1.86517e-13
-25.0501 -17.9948 -2.31844e-12
1.86517e-13 -2.31844e-12 -6.42031

10.057 7.07067 -2.95171e-13
7.07067 82.5577 2.70717e-12
-2.95171e-13 2.70717e-12 -7.1662

11.9193 -28.892 -1.22628e-12
-28.892 -3.88322 -7.28306e-13
-1.22628e-12 -7.28306e-13 -5.16859

-66.943 -52.7047 -2.4869e-14
-52.7047 143.266 -4.73695e-12
-2.4869e-14 -4.73695e-12 -49.665

-68.3865 51.4553 9.14232e-13
51.4553 142.553 -6.43752e-12
9.14232e-13 -6.43752e-12 -49.8541

19.5773 117.162 -6.70989e-12
117.162 64.1396 -7.31859e-12
-6.70989e-12 -7.31859e-12 -48.3554

20.5362 -117.105 2.74269e-12
-117.105 61.0363 -1.36898e-12
2.74269e-12 -1.36898e-12 -48.7202

157.76 -1.36349 -9.42653e-13
-1.36349 -79.1861 7.54778e-14
-9.42653e-13 7.54778e-14 -48.9072

110.34 -91.1319 -1.42109e-14
-91.1319 -36.6861 1.7953e-12
-1.42109e-14 1.7953e-12 -50.3019

110.393 91.6598 -3.31587e-13
91.6598 -36.4963 9.4739e-13
-3.31587e-13 9.4739e-13 -50.1747

7.84574 14.3315 -1.18246e-12
14.3315 -42.6826 1.77636e-13
-1.18246e-12 1.77636e-13 -15.08

-11.7896 25.5354 1.49184e-12
25.5354 -27.4051 1.66741e-12
1.49184e-12 1.66741e-12 -35.1332

12.4382 6.60671 1.65497e-12
6.60671 -40.5374 -2.29143e-12
1.65497e-12 -2.29143e-12 -8.25537

26.2551 21.7868 4.59484e-13
21.7868 -19.5323 4.40803e-12
4.59484e-13 4.40803e-12 -5.8538

-21.2345 17.7465 -4.53356e-12
17.7465 29.8693 -5.36697e-12
-4.53356e-12 -5.36697e-12 -6.16546

22.5302 28.9017 3.90266e-12
28.9017 -0.777547 7.41333e-13
3.90266e-12 7.41333e-13 -4.73363

4.0541 -29.6653 4.92643e-13
-29.6653 -17.4679 1.61471e-12
4.92643e-13 1.61471e-12 -8.50667

25.9954 28.0309 3.05474e-12
28.0309 -2.30399 5.35394e-12
3.05474e-12 5.35394e-12 -4.734

-19.3514 -2.84178 1.62848e-12
-2.84178 43.0735 2.93099e-12
1.62848e-12 2.93099e-12 -4.77283

-13.4099 -26.0963 1.02733e-13
-26.0963 -25.8388 2.11979e-13
1.02733e-13 2.11979e-13 -35.5162

-19.8464 -4.86316 -4.76804e-12
-4.86316 41.7784 -3.62377e-13
-4.76804e-12 -3.62377e-13 -4.74672

-1.82775 23.0176 3.93818e-12
23.0176 -24.3775 -8.92175e-13
3.93818e-12 -8.92175e-13 -16.1501

44.9851 26.874 -1.12976e-12
26.874 8.10953 1.50398e-12
-1.12976e-12 1.50398e-12 -5.3714

-52.5054 -13.2163 -8.02188e-12
-13.2163 0.149788 5.01614e-12
-8.02188e-12 5.01614e-12 -20.6166

20.2808 13.7292 -5.18045e-12
13.7292 -31.1458 1.26565e-12
-5.18045e-12 1.26565e-12 -7.04596

13.7001 -29.9905 1.88116e-12
-29.9905 -6.69423 5.82142e-12
1.88116e-12 5.82142e-12 -5.83816

29.6319 -24.716 1.66859e-12
-24.716 -7.87698 -5.84037e-12
1.66859e-12 -5.84037e-12 -4.82799

5.76343 -16.0763 1.52796e-12
-16.0763 -32.3343 -1.22006e-12
1.52796e-12 -1.22006e-12 -22.2541

12.6274 27.9311 -2.29387e-12
27.9311 -13.6418 -5.73763e-13
-2.29387e-12 -5.73763e-13 -6.42229

23.309 23.9799 1.15996e-12
23.9799 -17.9467 1.8332e-12
1.15996e-12 1.8332e-12 -5.96531

-31.0811 -2.79279 -1.6972e-12
-2.79279 30.1326 2.90849e-12
-1.6972e-12 2.90849e-12 -6.40117

-28.634 5.87373 1.35259e-12
5.87373 33.3225 -2.74625e-12
1.35259e-12 -2.74625e-12 -6.06228

34.5503 2.647 -9.56272e-13
2.647 -26.1887 -4.28935e-12
-9.56272e-13 -4.28935e-12 -6.14526

50.6548 -7.29057 -1.47911e-12
-7.29057 -14.0864 -3.38396e-12
-1.47911e-12 -3.38396e-12 -6.78135

11.0402 30.4877 3.55686e-12
30.4877 -4.79024 5.33854e-12
3.55686e-12 5.33854e-12 -5.96915

17.467 -26.1578 -6.98108e-13
-26.1578 -17.4577 7.82012e-12
-6.98108e-13 7.82012e-12 -6.35444

-0.0836184 -21.2547 -5.67191e-12
-21.2547 -27.9576 3.54502e-12
-5.67191e-12 3.54502e-12 -17.1663

4.93725 -31.6371 -3.55567e-12
-31.6371 4.8597 -2.52065e-12
-3.55567e-12 -2.52065e-12 -5.9381

-8.23044 -27.7889 -6.21725e-14
-27.7889 18.5787 -2.6373e-12
-6.21725e-14 -2.6373e-12 -6.13279

-1.65272 29.8906 4.40714e-12
29.8906 10.4464 -9.14232e-13
4.40714e-12 -9.14232e-13 -5.80319

-26.0211 -9.57885 2.41636e-12
-9.57885 32.9711 -6.97516e-13
2.41636e-12 -6.97516e-13 -5.78997

-31.3268 -1.54535 -1.05974e-12
-1.54535 31.6516 -5.83533e-12
-1.05974e-12 -5.83533e-12 -6.22604

-38.9191 5.74773 -2.60253e-12
5.74773 23.9467 2.47683e-12
-2.60253e-12 2.47683e-12 -9.18504

-17.2221 -21.0916 2.66661e-12
-21.0916 26.5717 3.06185e-12
2.66661e-12 3.06185e-12 -5.77484

13.0709 24.1131 -1.82965e-12
24.1131 -28.1037 1.16973e-12
-1.82965e-12 1.16973e-12 -9.20691

21.5556 -9.59065 1.28608e-12
-9.59065 -31.7108 -8.98985e-13
1.28608e-12 -8.98985e-13 -6.60087

-27.1581 7.46589 1.99857e-12
7.46589 34.3359 4.98564e-13
1.99857e-12 4.98564e-13 -5.87668

-35.2396 -9.70141 -4.50584e-12
-9.70141 22.314 -3.9672e-14
-4.50584e-12 -3.9672e-14 -8.1857

-29.1597 -16.3322 5.99816e-13
-16.3322 19.3471 -4.97202e-12
5.99816e-13 -4.97202e-12 -6.6645

36.97 -8.24008 1.58096e-12
-8.24008 -20.2414 -9.0535e-13
1.58096e-12 -9.0535e-13 -5.10423

-14.8106 -32.3468 -7.16464e-13
-32.3468 -21.6277 4.93353e-12
-7.16464e-13 4.93353e-12 -12.9942

-22.8279 9.32218 -7.1186e-12
9.32218 33.3246 -1.80123e-12
-7.1186e-12 -1.80123e-12 -4.79143

-0.751863 -18.2131 -1.24671e-12
-18.2131 -35.1561 -2.27551e-12
-1.24671e-12 -2.27551e-12 -33.2733

4.93093 24.8257 -4.6807e-12
24.8257 75.3138 2.98665e-12
-4.6807e-12 2.98665e-12 -14.3197

-14.142 -26.6272 -4.35948e-12
-26.6272 -16.3522 7.56432e-13
-4.35948e-12 7.56432e-13 -14.6415

-6.35721 -30.203 -1.84919e-12
-30.203 -23.6046 1.21414e-12
-1.84919e-12 1.21414e-12 -17.088

-31.2748 -0.700939 2.87459e-12
-0.700939 31.5014 -6.19712e-12
2.87459e-12 -6.19712e-12 -6.3509

28.4889 -16.6239 4.51491e-12
-16.6239 -18.0606 3.8766e-12
4.51491e-12 3.8766e-12 -4.44064

-37.8079 12.8419 -1.41774e-12
12.8419 11.1652 -1.78701e-12
-1.41774e-12 -1.78701e-12 -10.9907

-8.86144 -3.18121 -3.1916e-12
-3.18121 111.063 1.73846e-12
-3.1916e-12 1.73846e-12 -22.6705

-31.6068 14.2749 6.77532e-13
14.2749 21.3506 1.95103e-12
6.77532e-13 1.95103e-12 -7.12714

12.4208 -29.4923 -3.87956e-12
-29.4923 -2.52124 -3.51837e-12
-3.87956e-12 -3.51837e-12 -4.93085

33.6344 25.108 -7.24458e-12
25.108 124.041 -2.56269e-12
-7.24458e-12 -2.56269e-12 -6.21294

-13.5009 26.0949 -6.27957e-12
26.0949 -19.0965 -3.6892e-12
-6.27957e-12 -3.6892e-12 -58.8838

-9.55186 -27.8039 1.04481e-11
-27.8039 -22.8053 1.83113e-12
1.04481e-11 1.83113e-12 -59.534

-2.86755 -30.4216 -1.81662e-12
-30.4216 -7.32366 2.04725e-12
-1.81662e-12 2.04725e-12 -7.29003

3.85836 -31.1638 -2.54256e-12
-31.1638 5.63406 -4.56642e-12
-2.54256e-12 -4.56642e-12 -6.06534

25.1529 20.8293 -6.5666e-13
20.8293 -17.0379 1.99159e-12
-6.5666e-13 1.99159e-12 -4.97951

31.8063 15.0078 -8.44362e-13
15.0078 -23.3057 5.36341e-12
-8.44362e-13 5.36341e-12 -5.95764

-9.48654 3.08156 6.82928e-12
3.08156 -9.8291 4.60713e-12
6.82928e-12 4.60713e-12 -80.9197

-5.54751 -6.99721 -1.69647e-11
-6.99721 -14.0392 1.83512e-11
-1.69647e-11 1.83512e-11 -80.2725

11.7489 4.82419 -1.65379e-12
4.82419 -43.2081 2.1864e-13
-1.65379e-12 2.1864e-13 -7.83012

-35.0599 6.73198 -1.94837e-12
6.73198 24.3756 2.74329e-12
-1.94837e-12 2.74329e-12 -7.56626

-36.1145 6.73642 4.17681e-12
6.73642 24.4329 2.82204e-12
4.17681e-12 2.82204e-12 -8.31126

74.5943 58.6403 -7.13859e-12
58.6403 34.1773 2.57216e-12
-7.13859e-12 2.57216e-12 -21.8716

-6.92303 -28.2032 -7.08174e-13
-28.2032 16.8749 -8.98837e-13
-7.08174e-13 -8.98837e-13 -6.11969

8.17171 17.9741 -2.78148e-12
17.9741 -44.8764 -1.63839e-12
-2.78148e-12 -1.63839e-12 -12.8979

32.7048 9.54053 -1.66385e-12
9.54053 -19.0842 2.67949e-12
-1.66385e-12 2.67949e-12 -4.07719

3.38597 -26.7263 -7.6561e-13
-26.7263 13.4838 -1.84327e-12
-7.6561e-13 -1.84327e-12 -3.82978

26.2381 -20.2398 -4.41721e-13
-20.2398 -20.3271 -8.60497e-12
-4.41721e-13 -8.60497e-12 -5.86608

65.3981 60.2382 6.99174e-12
60.2382 34.2934 -8.81784e-12
6.99174e-12 -8.81784e-12 -23.8666

-13.2432 31.07 1.06581e-14
31.07 -16.8839 7.93735e-13
1.06581e-14 7.93735e-13 -12.7874

-18.6086 -19.7885 -3.56219e-12
-19.7885 28.4157 2.19262e-12
-3.56219e-12 2.19262e-12 -5.97251

11.1733 28.8602 3.09501e-12
28.8602 -13.3254 -4.74287e-12
3.09501e-12 -4.74287e-12 -6.43877

-31.8732 -4.14559 5.4845e-13
-4.14559 30.1486 1.76215e-12
5.4845e-13 1.76215e-12 -6.36049

-14.5997 19.6115 1.69701e-12
19.6115 27.1861 2.14702e-12
1.69701e-12 2.14702e-12 -4.42159

7.47812 30.522 -3.98496e-12
30.522 -1.67252 -5.0715e-12
-3.98496e-12 -5.0715e-12 -5.66334

-9.34783 -22.4759 5.3421e-12
-22.4759 23.1498 5.09755e-12
5.3421e-12 5.09755e-12 -4.17833

4.58884 -27.3556 -2.11268e-12
-27.3556 11.4487 1.45069e-13
-2.11268e-12 1.45069e-13 -3.94129

24.2737 11.2582 4.38286e-12
11.2582 102.089 5.44986e-12
4.38286e-12 5.44986e-12 -12.404

37.4686 -33.4603 -8.50283e-13
-33.4603 69.2915 3.82272e-12
-8.50283e-13 3.82272e-12 -5.70369

-25.3398 -11.6917 -3.43658e-12
-11.6917 31.3694 -8.19907e-12
-3.43658e-12 -8.19907e-12 -5.65125

16.096 26.4871 -3.00441e-12
26.4871 -15.5045 4.47109e-12
-3.00441e-12 4.47109e-12 -6.22001

4.95418 29.4809 -5.53394e-12
29.4809 1.63571 -3.56396e-12
-5.53394e-12 -3.56396e-12 -4.9928

-9.85762 -21.4365 -9.76996e-15
-21.4365 25.1217 2.30808e-12
-9.76996e-15 2.30808e-12 -4.03609

-21.6385 -11.7839 -1.44299e-12
-11.7839 32.0834 -1.09246e-12
-1.44299e-12 -1.09246e-12 -4.64002

10.4618 28.4125 3.93996e-12
28.4125 -0.157756 -3.09797e-12
3.93996e-12 -3.09797e-12 -4.67563

-21.8505 -13.8795 -3.77239e-12
-13.8795 29.4683 -4.97735e-12
-3.77239e-12 -4.97735e-12 -4.85001

6.95761 27.8585 2.69473e-12
27.8585 73.0919 -3.3656e-12
2.69473e-12 -3.3656e-12 -14.3229

-45.8327 -4.04047 -3.55965e-12
-4.04047 14.0477 -1.77162e-12
-3.55965e-12 -1.77162e-12 -19.9643

0.874942 31.0312 1.8486e-12
31.0312 7.51898 -3.43133e-12
1.8486e-12 -3.43133e-12 -6.09213

9.71877 14.9025 1.94807e-12
14.9025 -36.4317 -2.59022e-12
1.94807e-12 -2.59022e-12 -10.9872

9.92754 -15.9289 -2.7498e-12
-15.9289 -39.4122 -1.7204e-12
-2.7498e-12 -1.7204e-12 -13.0705

85.6219 -24.2074 3.55508e-12
-24.2074 7.63506 -9.61838e-12
3.55508e-12 -9.61838e-12 -12.9583

-23.2099 -21.269 3.25636e-12
-21.269 10.5137 -4.62623e-12
3.25636e-12 -4.62623e-12 -6.1682

-16.6035 26.7007 -4.47227e-12
26.7007 1.77751 -2.27433e-12
-4.47227e-12 -2.27433e-12 -6.59075

-26.1997 -21.7275 -1.44211e-12
-21.7275 -5.36801 3.24663e-12
-1.44211e-12 3.24663e-12 -23.8654

-41.5926 14.1039 -6.51775e-13
14.1039 -3.55927 2.22015e-12
-6.51775e-13 2.22015e-12 -64.1149

-0.894077 9.4452 1.11925e-12
9.4452 -44.2537 -1.06907e-12
1.11925e-12 -1.06907e-12 -64.2163

-20.3831 32.7043 8.46434e-13
32.7043 -23.2038 -3.50875e-12
8.46434e-13 -3.50875e-12 -24.328

-11.4142 26.0036 1.90425e-12
26.0036 22.6044 2.15531e-13
1.90425e-12 2.15531e-13 -5.92876

16.0386 26.6635 -2.51295e-12
26.6635 -17.2906 -3.49853e-12
-2.51295e-12 -3.49853e-12 -6.55256

30.4303 45.1914 -2.49045e-12
45.1914 47.559 -9.13047e-13
-2.49045e-12 -9.13047e-13 -15.1957

-44.8841 -11.3414 -7.97806e-12
-11.3414 -1.80758 -1.53033e-12
-7.97806e-12 -1.53033e-12 -61.6717

-8.29797 -3.43169 -3.78161e-12
-3.43169 -12.751 8.3995e-12
-3.78161e-12 8.3995e-12 -77.2107

-14.6872 -0.208949 1.49895e-12
-0.208949 -6.41846 7.46647e-12
1.49895e-12 7.46647e-12 -77.3549

27.6684 -53.8079 -2.17544e-12
-53.8079 71.1572 -8.28967e-13
-2.17544e-12 -8.28967e-13 -24.3883

-11.6887 -11.599 -3.96305e-12
-11.599 -16.2056 3.45679e-12
-3.96305e-12 3.45679e-12 -37.4251

-32.6092 8.81154 1.33893e-12
8.81154 -9.41679 -5.59552e-12
1.33893e-12 -5.59552e-12 -49.5324

18.2562 -26.2014 -2.68467e-12
-26.2014 -19.55 -3.28508e-12
-2.68467e-12 -3.28508e-12 -6.50935

-39.4315 1.01012 4.94123e-13
1.01012 11.9806 4.6955e-13
4.94123e-13 4.6955e-13 -19.7211

-30.2054 -20.2696 -2.48305e-12
-20.2696 6.30467 -6.0935e-12
-2.48305e-12 -6.0935e-12 -7.21902

10.5361 6.25554 -2.21038e-12
6.25554 -52.3909 4.65628e-13
-2.21038e-12 4.65628e-13 -9.64211

-49.8133 15.5962 -2.51094e-12
15.5962 10.1644 -2.00847e-12
-2.51094e-12 -2.00847e-12 -13.5324

-40.2864 7.19108 -1.13935e-12
7.19108 16.5414 -5.28348e-12
-1.13935e-12 -5.28348e-12 -13.7752

16.4047 20.3947 1.46313e-12
20.3947 -25.8441 -2.16123e-14
1.46313e-12 -2.16123e-14 -7.61016

-9.10055 -3.11391 3.41727e-12
-3.11391 108.406 1.7053e-13
3.41727e-12 1.7053e-13 -23.1009

-3.32205 -27.6263 1.19075e-12
-27.6263 -3.63038 6.03961e-14
1.19075e-12 6.03961e-14 -5.83281

-7.33598 -26.1183 2.6823e-12
-26.1183 -14.0834 -3.68624e-12
2.6823e-12 -3.68624e-12 -9.81268

-14.1994 -31.4837 -3.50446e-12
-31.4837 -21.778 7.66927e-12
-3.50446e-12 7.66927e-12 -12.757

90.7371 32.7532 1.23161e-13
32.7532 20.9082 3.55271e-15
1.23161e-13 3.55271e-15 -16.5051

-23.1143 -20.1156 2.5994e-13
-20.1156 -17.3857 -2.39594e-12
2.5994e-13 -2.39594e-12 -44.4202

72.6367 54.3274 -7.00121e-12
54.3274 91.6486 -4.47168e-12
-7.00121e-12 -4.47168e-12 -6.14085

-36.2169 -21.4388 -5.89721e-12
-21.4388 -6.79682 -8.19789e-13
-5.89721e-12 -8.19789e-13 -13.0445

15.034 14.6506 1.18187e-12
14.6506 -37.7541 -3.10566e-13
1.18187e-12 -3.10566e-13 -8.18115

44.5755 -14.5741 -5.60145e-13
-14.5741 -8.27569 9.87654e-13
-5.60145e-13 9.87654e-13 -4.42123

-21.2328 24.0483 -1.21621e-12
24.0483 4.95511 -3.42304e-12
-1.21621e-12 -3.42304e-12 -5.97928

17.3734 20.4291 -1.53951e-12
20.4291 -26.7956 5.19318e-12
-1.53951e-12 5.19318e-12 -6.95405

-51.1388 11.3992 1.34455e-12
11.3992 7.70964 -2.43805e-12
1.34455e-12 -2.43805e-12 -29.991

-7.28873 -31.5818 1.21503e-12
-31.5818 -12.8282 -8.4673e-13
1.21503e-12 -8.4673e-13 -8.12164

2.79518 19.8122 2.98842e-12
19.8122 -46.0315 -6.42449e-13
2.98842e-12 -6.42449e-13 -29.9829

-24.6739 -18.4451 -5.61862e-12
-18.4451 17.8363 -5.22782e-12
-5.61862e-12 -5.22782e-12 -5.483

-42.3424 4.28395 2.90557e-13
4.28395 17.8693 -5.52151e-12
2.90557e-13 -5.52151e-12 -12.7293

-4.09802 9.9277 1.49244e-12
9.9277 -40.2725 4.72363e-13
1.49244e-12 4.72363e-13 -47.5406

-2.68846 -8.51449 -7.3482e-13
-8.51449 -38.3038 5.05773e-12
-7.3482e-13 5.05773e-12 -47.3963

81.7306 18.5144 -1.92557e-12
18.5144 1.69845 1.03917e-12
-1.92557e-12 1.03917e-12 -14.4538

3.89507 7.96575 -2.5698e-12
7.96575 -45.1854 -1.89093e-12
-2.5698e-12 -1.89093e-12 -11.0204

35.8776 7.7415 7.06339e-12
7.7415 184.589 1.87583e-12
7.06339e-12 1.87583e-12 -9.75259

40.1514 -11.3863 9.58641e-13
-11.3863 190.387 -6.30488e-12
9.58641e-13 -6.30488e-12 -7.38423

53.7715 56.4105 -4.52379e-12
56.4105 159.269 3.66166e-12
-4.52379e-12 3.66166e-12 -11.4953

1.70751 -28.9517 -2.8096e-12
-28.9517 -24.6919 -2.85934e-12
-2.8096e-12 -2.85934e-12 -11.9643

16.0516 -49.1953 -5.41078e-12
-49.1953 99.4286 9.71075e-14
-5.41078e-12 9.71075e-14 -21.6878

54.5195 -55.9531 -2.67401e-12
-55.9531 149.986 -7.19543e-12
-2.67401e-12 -7.19543e-12 -13.6603

-2.16805 26.223 3.51423e-12
26.223 17.5727 -7.33635e-13
3.51423e-12 -7.33635e-13 -3.99887

134.951 73.8486 8.79652e-12
73.8486 85.0333 -1.15368e-11
8.79652e-12 -1.15368e-11 -10.1543

-18.7222 13.0463 6.80315e-12
13.0463 -3.89882 1.49421e-12
6.80315e-12 1.49421e-12 -26.7666

3.74066 0.0415755 5.43506e-12
0.0415755 -26.1895 -1.25529e-13
5.43506e-12 -1.25529e-13 -26.7699

144.11 -73.1339 9.37916e-13
-73.1339 85.3608 9.73444e-13
9.37916e-13 9.73444e-13 -8.19139

-21.3966 -23.4263 6.55772e-13
-23.4263 12.2476 2.8552e-12
6.55772e-13 2.8552e-12 -6.49435

89.3546 34.7327 3.64982e-12
34.7327 41.3933 9.10679e-13
3.64982e-12 9.10679e-13 -11.547

72.1953 63.4952 1.12882e-11
63.4952 149.706 1.7953e-12
1.12882e-11 1.7953e-12 -9.66891

26.1665 21.6324 8.10848e-12
21.6324 100.143 6.56778e-12
8.10848e-12 6.56778e-12 -13.0305

73.8823 -65.9242 -4.48826e-12
-65.9242 151.157 -3.53377e-12
-4.48826e-12 -3.53377e-12 -9.39731

25.771 -12.3823 -2.82204e-12
-12.3823 105.022 6.87805e-12
-2.82204e-12 6.87805e-12 -12.4273

-28.664 6.83962 -8.35724e-12
6.83962 3.10776 2.47979e-12
-8.35724e-12 2.47979e-12 -37.8476

37.7457 -45.9798 1.7207e-12
-45.9798 49.6733 -1.71122e-12
1.7207e-12 -1.71122e-12 -15.5328

14.446 47.5365 8.17006e-12
47.5365 94.8886 -2.0132e-13
8.17006e-12 -2.0132e-13 -22.1912

173.353 37.9142 -1.88057e-12
37.9142 48.048 8.12032e-12
-1.88057e-12 8.12032e-12 -9.51762

7.01953 -29.2879 2.7196e-12
-29.2879 -14.3602 -5.23877e-12
2.7196e-12 -5.23877e-12 -7.15853

-38.4198 12.8962 1.63336e-12
12.8962 6.43568 4.0649e-12
1.63336e-12 4.0649e-12 -15.2912

88.513 -38.1163 5.21065e-14
-38.1163 34.1658 2.79243e-12
5.21065e-14 2.79243e-12 -14.0987

6.04106 -28.8041 6.47186e-13
-28.8041 -16.1747 3.58883e-12
6.47186e-13 3.58883e-12 -8.03236

169.219 -36.346 4.55221e-12
-36.346 34.9345 -6.95444e-12
4.55221e-12 -6.95444e-12 -13.2857

-5.72619 -28.3194 2.16834e-12
-28.3194 -14.475 -4.07674e-12
2.16834e-12 -4.07674e-12 -9.31171

-17.7939 -25.2975 3.65249e-12
-25.2975 12.0797 1.27957e-12
3.65249e-12 1.27957e-12 -5.93748

118.886 69.465 1.42109e-13
69.465 96.2286 1.34695e-11
1.42109e-13 1.34695e-11 -11.3957

29.4154 -22.9351 -2.8102e-12
-22.9351 97.8053 2.85875e-12
-2.8102e-12 2.85875e-12 -14.3389

117.969 -71.6972 7.91071e-13
-71.6972 93.6899 7.17174e-12
7.91071e-13 7.17174e-12 -12.4117

22.2672 50.7421 -1.12976e-11
50.7421 73.7861 -1.80004e-12
-1.12976e-11 -1.80004e-12 -24.7764

-1.53807 -30.2148 -2.70598e-13
-30.2148 -6.55475 -4.44563e-12
-2.70598e-13 -4.44563e-12 -7.00083

-7.04328 -14.641 3.37893e-12
-14.641 -21.9204 7.02075e-12
3.37893e-12 7.02075e-12 -32.6098

-11.8915 11.0906 -2.09048e-12
11.0906 -16.4262 -1.63321e-12
-2.09048e-12 -1.63321e-12 -77.7772

-26.1634 -5.16037 5.18652e-12
-5.16037 -6.38713 -3.20873e-13
5.18652e-12 -3.20873e-13 -77.6111

-38.9446 13.084 1.96313e-12
13.084 13.7443 -3.16784e-13
1.96313e-12 -3.16784e-13 -10.2411

-14.4794 -10.6649 1.8297e-11
-10.6649 -17.3135 5.84495e-12
1.8297e-11 5.84495e-12 -78.7397

-25.8971 4.09231 3.22409e-13
4.09231 -5.91356 1.27329e-11
3.22409e-13 1.27329e-11 -78.8819

-3.63233 7.43141 -6.78731e-12
7.43141 -27.8563 -9.83732e-12
-6.78731e-12 -9.83732e-12 -77.9694

-43.9699 -12.1126 1.92809e-14
-12.1126 2.916 -7.81893e-13
1.92809e-14 -7.81893e-13 -68.144

11.9733 -30.4736 1.64195e-12
-30.4736 76.1701 -6.06803e-12
1.64195e-12 -6.06803e-12 -14.7015

0.520578 -12.9721 -9.43778e-12
-12.9721 -39.9879 4.38967e-12
-9.43778e-12 4.38967e-12 -45.2695

-16.3485 -34.4161 2.1864e-12
-34.4161 -22.0702 -1.90011e-12
2.1864e-12 -1.90011e-12 -23.5887

-2.42167 -18.1775 -1.97353e-12
-18.1775 -29.8934 5.67694e-13
-1.97353e-12 5.67694e-13 -33.6219

12.7374 15.4605 2.50466e-13
15.4605 -37.7192 7.58327e-12
2.50466e-13 7.58327e-12 -9.6277

-46.9025 9.86247 6.2006e-13
9.86247 8.87602 1.57505e-11
6.2006e-13 1.57505e-11 -70.1392

3.46142 19.2252 -2.7911e-12
19.2252 -41.4664 -2.26108e-12
-2.7911e-12 -2.26108e-12 -70.255

1.47081 11.3082 3.13912e-12
11.3082 -23.9639 -7.00566e-12
3.13912e-12 -7.00566e-12 -31.8634

109.403 -15.3412 -6.39252e-12
-15.3412 -12.5356 -5.18578e-12
-6.39252e-12 -5.18578e-12 -25.036

-14.3237 24.9667 6.06359e-12
24.9667 10.3857 1.62833e-13
6.06359e-12 1.62833e-13 -5.80792

76.6146 -61.3605 8.47914e-13
-61.3605 37.3702 -2.57453e-12
8.47914e-13 -2.57453e-12 -22.3937

76.1207 -57.4623 1.62477e-12
-57.4623 99.2371 3.28744e-12
1.62477e-12 3.28744e-12 -5.55338

118.207 -36.5475 -2.224e-12
-36.5475 40.6042 -4.29642e-12
-2.224e-12 -4.29642e-12 -7.3771

-51.1072 -5.15868 1.41442e-12
-5.15868 3.33941 6.51538e-12
1.41442e-12 6.51538e-12 -60.6484

-50.4713 2.89138 -8.34592e-13
2.89138 3.13368 -4.30337e-12
-8.34592e-13 -4.30337e-12 -60.1211

-11.9751 -24.4528 2.88658e-12
-24.4528 -34.9983 -4.20819e-12
2.88658e-12 -4.20819e-12 -59.1555

-8.99088 -21.7568 4.4517e-12
-21.7568 -37.8836 -3.05237e-13
4.4517e-12 -3.05237e-13 -59.465

-14.7016 26.1321 -1.56882e-12
26.1321 -33.0229 1.02851e-12
-1.56882e-12 1.02851e-12 -60.7395

-18.1537 3.097 1.57547e-11
3.097 -13.1625 1.66489e-11
1.57547e-11 1.66489e-11 -75.4622

-9.94467 -20.5062 -4.08858e-12
-20.5062 -32.6462 6.65172e-13
-4.08858e-12 6.65172e-13 -56.7263

-26.6434 -18.5662 6.81618e-12
-18.5662 -14.1955 -7.37247e-12
6.81618e-12 -7.37247e-12 -71.2576

-15.4747 2.4327 9.91281e-12
2.4327 -12.8513 -6.82032e-12
9.91281e-12 -6.82032e-12 -77.8561

-6.02696 -20.523 3.84004e-12
-20.523 -41.4821 -3.07014e-12
3.84004e-12 -3.07014e-12 -60.4957

-6.75615 20.9525 -2.06427e-12
20.9525 -40.1385 3.18619e-12
-2.06427e-12 3.18619e-12 -60.007

-14.3122 -3.45659 5.5825e-12
-3.45659 -11.3892 -1.93737e-11
5.5825e-12 -1.93737e-11 -76.8707

-11.2617 -3.11447 -1.4958e-11
-3.11447 -17.6858 3.1443e-12
-1.4958e-11 3.1443e-12 -74.0342

-24.1991 12.1093 -6.51612e-12
12.1093 -13.4003 9.22373e-12
-6.51612e-12 9.22373e-12 -69.954

-22.0798 26.9266 4.04773e-12
26.9266 -26.2652 -5.09764e-12
4.04773e-12 -5.09764e-12 -57.572

VECTORS fluid_flux_TPM float
-8.72494e-05 3.10397e-05 1.10073e-20
3.56069e-06 6.88473e-06 7.30022e-21
-1.27914e-05 -1.02288e-05 -4.42015e-21
-4.17186e-06 4.25538e-06 1.71928e-20
2.27149e-05 -6.31531e-06 -4.86638e-21
2.75851e-06 -1.59086e-05 9.05861e-22
-8.58248e-05 -3.11044e-05 -9.69368e-21
-1.38967e-05 -1.04701e-05 3.30115e-21
2.21288e-05 9.45819e-07 -2.57676e-22
1.13876e-05 -3.90932e-06 1.4079e-21
5.46183e-05 1.2488e-05 -8.34066e-21
2.34766e-06 -1.71995e-05 1.69899e-20
1.36158e-05 1.12573e-05 3.32784e-21
2.66296e-06 1.3789e-05 4.00016e-20
2.05875e-05 -2.9476e-06 -9.88346e-21
-1.63376e-05 -2.72981e-07 1.63376e-21
2.75443e-06 1.41033e-05 6.23702e-21
1.0185e-05 -2.39264e-06 1.29921e-20
9.90182e-06 1.72282e-05 7.69614e-21
-1.48532e-05 1.88608e-06 -2.1252e-22
-3.60227e-06 -2.13109e-05 5.60758e-23
3.41224e-05 5.94375e-05 3.50492e-20
1.57025e-05 1.63183e-06 3.83812e-22
1.1231e-05 -1.12851e-05 5.44939e-21
-1.50833e-05 -3.33348e-06 1.01254e-20
-6.77406e-07 -1.11344e-05 -1.67101e-20
6.29246e-05 -4.91009e-06 -5.93565e-21
1.40706e-05 1.02522e-05 7.16863e-21
-2.51581e-05 -2.06499e-05 7.08131e-21
4.9137e-05 -1.28183e-05 -2.73148e-21
-1.65879e-05 -6.04031e-06 5.53305e-21
5.53914e-06 -3.20477e-05 5.23929e-21
4.76711e-05 -4.80639e-05 -2.45229e-21
-4.92504e-06 -4.12622e-05 -3.47548e-20
-2.96837e-05 3.70183e-05 2.70638e-20
-3.82608e-05 -1.64009e-05 -2.71273e-21
3.27141e-05 4.32307e-05 3.00348e-20
-4.47565e-05 -8.72895e-06 -7.02456e-22
1.43794e-05 -1.10856e-05 -1.66467e-21
4.64865e-05 5.01327e-05 9.60546e-21
3.21407e-05 -1.40269e-05 1.1727e-20
3.36519e-05 -4.23584e-05 -7.15347e-21
-1.99034e-05 -5.03962e-05 1.95539e-22
-1.59035e-05 6.35901e-06 -1.9605e-20
3.05364e-05 -2.93246e-05 -8.05719e-21
-3.03434e-05 1.09943e-05 3.65496e-21
-4.05158e-06 -2.03779e-05 2.17156e-21
7.88896e-06 2.0219e-05 2.0466e-20
-1.63483e-05 5.92998e-06 -2.58987e-20
-1.78261e-05 2.87363e-05 1.3295e-20
3.24203e-05 1.52963e-05 -1.83063e-20
2.93757e-05 -1.00788e-05 7.24716e-21
-1.5672e-05 1.57661e-05 1.79943e-20
-2.35499e-05 -2.0698e-05 8.59592e-21
-2.11476e-05 -5.13432e-06 1.43463e-20
-4.48081e-05 2.70864e-05 1.46559e-20
-2.93827e-05 -3.80371e-05 2.82842e-22
6.36593e-06 -3.06393e-05 -5.50394e-21
-4.77255e-05 6.48531e-06 8.85271e-21
6.07642e-06 1.37021e-05 5.72921e-21
-5.57892e-06 -8.17654e-06 -5.87139e-21
-6.58605e-06 -1.79504e-05 -1.22115e-20
5.71658e-05 2.48691e-05 2.71181e-21
9.24642e-06 1.81512e-05 7.60654e-22
1.23013e-05 -1.44506e-05 -2.11469e-20
-1.64117e-06 -2.07606e-05 2.40954e-21
4.62291e-06 -8.80896e-06 -2.75801e-20
-1.00945e-05 -5.56706e-06 1.8972e-21
-1.06068e-05 1.1934e-05 -3.50822e-21
2.55919e-06 -4.09418e-06 -9.41936e-22
-1.50493e-05 -1.58494e-05 -2.49456e-20
-2.13732e-05 5.16795e-06 -4.75695e-21
-3.55804e-06 3.44951e-05 1.1185e-20
-1.78789e-05 1.07151e-05 -1.0897e-20
-9.07434e-06 1.46205e-05 1.6668e-21
-6.03793e-05 7.69539e-06 1.01742e-20
7.82117e-06 -2.169e-05 -2.00037e-20
-1.88876e-05 -8.90362e-06 2.68573e-21
1.93453e-06 1.16286e-05 1.18301e-20
2.63113e-05 5.09164e-06 -6.54349e-21
3.41826e-05 -2.89865e-05 -4.36586e-21
2.21552e-05 2.05643e-05 3.39102e-20
1.19132e-05 -2.82346e-06 -1.05841e-20
-3.21667e-05 2.4077e-05 4.99949e-21
3.79194e-05 4.84777e-06 1.02339e-20
-4.98252e-06 4.94346e-05 8.22185e-22
-1.74175e-06 -1.68639e-05 2.60174e-21
1.81311e-05 9.9586e-06 8.73901e-21
2.93293e-05 3.02977e-05 9.26163e-22
5.50467e-05 3.80285e-05 3.45306e-21
-5.33335e-06 3.07852e-05 -1.53674e-21
5.92033e-05 -3.55266e-05 -2.87552e-21
-2.71356e-05 5.34333e-06 1.88052e-21
1.78464e-05 1.10062e-05 1.24567e-20
-2.96531e-05 9.90737e-06 4.25219e-21
1.66598e-05 2.85325e-05 1.73613e-20
1.01731e-05 -4.44045e-05 -2.32375e-21
1.91627e-06 1.16254e-05 8.59139e-21
-1.48066e-05 -1.76272e-05 6.58261e-21
3.07116e-06 1.74817e-05 1.62466e-20
2.64174e-05 5.25957e-06 -1.53309e-21
-1.54494e-05 3.32246e-05 7.39691e-21
4.05685e-05 -1.33384e-05 -4.84062e-21
-3.77454e-06 7.45805e-06 6.17578e-21
9.95684e-06 5.90165e-06 1.17689e-21
-2.28146e-06 -1.13291e-05 -3.27389e-21
3.22199e-06 -1.92596e-05 -1.29457e-20
1.74763e-05 3.89363e-06 -7.14073e-21
-7.94015e-06 4.09891e-05 9.89014e-21
-9.8095e-06 2.48047e-07 3.36513e-21
9.32228e-06 1.18905e-05 3.20233e-21
-2.17785e-06 -4.17307e-05 1.03164e-20
4.20398e-05 1.28701e-05 3.27903e-21
4.42436e-06 -7.45615e-06 -2.74121e-21
-1.11496e-05 -3.55506e-06 -7.01189e-21
-2.93375e-05 -1.24911e-05 1.0371e-20
1.58101e-05 4.11637e-05 -1.42214e-21
-4.35027e-05 -1.55802e-05 -1.07175e-20
1.60249e-05 -4.11402e-05 1.13481e-20
-3.70117e-06 -3.1933e-05 6.61899e-21
2.18476e-05 6.52432e-07 1.90654e-20
-7.17434e-06 1.8404e-05 4.301e-21
-1.6118e-06 3.97113e-06 9.94926e-21
-3.6874e-06 -1.65453e-05 -1.6021e-20
5.23206e-06 -8.3054e-06 2.03635e-21
9.36326e-06 1.58699e-05 1.45801e-20
3.31144e-05 1.06567e-05 3.43128e-20
8.61893e-06 -7.46099e-06 -2.14225e-20
-8.27406e-06 -4.51782e-05 -9.7631e-21
2.55623e-05 -1.88273e-05 3.20144e-21
4.97994e-06 2.77823e-05 1.99637e-20
-2.81746e-06 -2.84274e-06 -7.13893e-21
-8.62965e-06 -8.32913e-06 -3.82805e-21
-4.77854e-06 4.41216e-08 -9.58425e-21
-2.28818e-05 2.86058e-05 -4.76604e-21
1.87706e-05 -3.73899e-05 -2.83623e-20
-2.65905e-05 4.27318e-05 1.05077e-20
-1.63783e-05 9.53909e-06 -2.57281e-20
2.52895e-06 1.22037e-05 2.30829e-21
-2.29959e-05 -3.50033e-05 3.32571e-21
1.39418e-05 3.34793e-05 2.09796e-22
1.75147e-05 9.3729e-06 1.4712e-20
2.28205e-05 -8.526e-06 1.10009e-20
-1.25364e-06 -1.12698e-05 5.26355e-21
-3.39253e-05 -3.15708e-05 -1.61687e-20
-2.75254e-06 1.13078e-05 8.46346e-21
1.72535e-05 1.01757e-05 1.99409e-20
1.88949e-05 -8.82429e-06 2.25192e-21
8.24647e-06 -1.43505e-05 -3.95811e-21
2.43665e-05 -1.07996e-05 1.48911e-20
1.9017e-05 -9.00138e-06 2.51721e-20
4.64248e-06 2.059e-07 -1.06999e-20
2.57508e-05 2.0229e-05 5.91686e-21
-2.74267e-06 -1.70366e-05 -6.80575e-21
-1.04839e-05 -4.45877e-06 -3.67952e-21
1.12632e-06 -3.89162e-06 -5.3927e-21
-3.15626e-06 1.58532e-05 1.79718e-21
-3.48973e-05 2.76923e-06 8.44829e-21
-1.21262e-05 -3.32714e-05 8.11056e-21
-7.88213e-06 9.78288e-06 -2.67632e-21
1.35706e-05 1.66468e-05 1.24452e-20
2.6579e-05 -1.8752e-05 6.67278e-22
-3.68069e-05 -2.0359e-05 -5.83349e-21
1.741e-05 -2.75183e-05 -6.62262e-21
2.28129e-05 -2.72271e-05 1.69499e-20
-1.09486e-05 3.78642e-06 2.27191e-21
-1.98367e-05 -2.88517e-05 -1.18595e-20
-3.48937e-05 -5.79373e-06 -1.80707e-20
-3.85377e-06 -3.17552e-05 1.17931e-21
1.54538e-05 -3.17115e-05 2.34452e-20
-9.10968e-06 -2.62097e-05 -1.23324e-20
4.58313e-06 3.14178e-05 3.3057e-21
-1.57585e-05 -2.85334e-05 -1.15715e-20
2.93999e-06 -1.62986e-05 -1.87692e-20
-2.47491e-05 1.82672e-05 1.78691e-20
-1.50367e-05 -1.21159e-05 -2.52036e-20
-2.73635e-05 -5.17447e-06 -2.25251e-21
1.56742e-05 -9.18515e-06 9.71279e-21
-4.30859e-06 2.39619e-05 -5.93565e-21
1.22374e-05 -9.32812e-06 -1.10658e-20
-2.95976e-05 -1.31695e-05 2.08789e-21
-8.8351e-06 -7.46105e-06 -2.06464e-20
9.08568e-06 7.54379e-06 2.70132e-20
2.14353e-05 2.8712e-05 5.45393e-21
-1.75157e-05 -1.08135e-05 1.00081e-20
-3.25192e-05 -7.51356e-07 4.57783e-22
-1.63431e-05 -5.01816e-06 -1.05441e-20
-4.57988e-06 -1.65897e-05 -1.82051e-21
1.76916e-05 2.12475e-05 -3.80475e-22
-1.09616e-05 5.8771e-06 5.59043e-22
6.36335e-07 -2.05634e-05 1.33874e-20
-4.19566e-05 1.08553e-05 1.22703e-20
2.48704e-05 2.02543e-05 6.48409e-21
3.79615e-06 3.27983e-05 6.48924e-21
-2.43293e-06 3.79871e-06 4.25036e-21
-9.0545e-06 2.51308e-07 -7.25443e-21
4.35684e-06 7.76314e-06 1.48229e-20
-1.16985e-05 3.40279e-06 -4.6172e-21
-2.07416e-06 -3.7864e-06 9.51028e-22
1.66048e-06 2.07681e-05 1.6788e-20
4.47419e-06 4.49862e-07 6.91882e-21
-1.95459e-05 4.75857e-06 -2.12973e-21
-1.73052e-05 1.93658e-05 8.51286e-21
-3.10867e-06 1.15828e-05 6.29642e-21
-2.92286e-05 1.84018e-05 6.99613e-21
-9.34705e-06 8.98286e-06 2.10393e-20
1.73181e-05 -1.16184e-05 1.05199e-21
3.66187e-05 -3.56608e-06 5.83865e-21
-2.11491e-05 1.13018e-05 -5.8147e-21
2.23389e-06 4.50002e-06 -4.14093e-21
2.1784e-05 -4.3466e-06 2.08217e-20
-1.72858e-05 1.0357e-05 -1.76797e-20
-9.87572e-06 5.54125e-06 -8.04569e-21
1.18361e-05 3.7442e-06 -1.62723e-20
2.18886e-05 -1.34765e-05 3.69923e-21
-1.73869e-05 9.96011e-06 -6.60414e-21
-2.5047e-05 -5.3052e-06 -3.57036e-21
-1.67684e-05 -4.36423e-06 -1.41074e-20
9.88016e-06 6.26052e-09 -1.08845e-20
1.01779e-05 1.95422e-07 1.32713e-20
4.39254e-06 8.32049e-06 -5.29598e-22
4.8315e-06 -8.80128e-06 -1.239e-20
-5.01235e-06 8.42319e-06 7.02734e-21
-5.26877e-06 -8.66104e-06 -5.16411e-21
9.91495e-06 -7.41094e-06 6.39649e-23
-2.03355e-05 3.23619e-06 1.84015e-20
-2.00678e-05 -3.28503e-06 -6.36403e-21
-1.28398e-05 1.58828e-05 2.09187e-20
-1.29197e-05 -1.59371e-05 -1.33793e-20
7.48922e-06 -1.98516e-05 1.68757e-20
7.20886e-06 1.97717e-05 6.49894e-21
1.55851e-06 2.58953e-05 -1.61677e-21
1.12449e-05 -3.13806e-06 -2.14215e-21
2.36087e-06 -3.86804e-06 -6.79694e-21
-2.14199e-05 1.42226e-06 -5.59095e-21
7.68021e-06 -1.95207e-05 6.87456e-21
7.2763e-06 1.96693e-05 6.12395e-22
4.77068e-06 -5.27328e-08 -5.45636e-21
8.97184e-06 2.44128e-05 1.31058e-20
-2.24315e-06 -4.01793e-06 -1.64879e-20
2.3187e-06 -1.13214e-05 4.59962e-21
-2.24393e-05 -1.21564e-05 5.96567e-21
-2.13664e-05 -1.14991e-05 2.9704e-21
-2.19012e-05 1.3634e-05 -2.17763e-21
3.25251e-06 -1.22923e-05 1.47205e-20
-1.56591e-06 3.3833e-06 9.98292e-21
-5.8747e-07 -2.55789e-05 4.55868e-21
-7.7231e-06 -2.44323e-05 -4.28038e-21
3.27164e-05 3.03739e-05 8.51585e-22
3.54666e-05 -1.81586e-06 -1.04243e-20
-1.27159e-05 -3.63353e-06 1.28336e-20
-2.29011e-05 -4.14018e-05 -1.29297e-20
8.30738e-06 1.3753e-05 9.93168e-21
-2.52453e-05 3.03448e-06 1.47865e-20
2.00726e-05 5.78855e-06 2.17855e-21
-4.53482e-06 -3.27493e-08 -2.78124e-21
-4.66689e-06 -8.41585e-06 -3.04682e-22
-7.0755e-06 -3.93474e-05 -2.51481e-20
-9.71192e-06 -8.39663e-08 1.07593e-20
-4.86927e-05 -1.8164e-06 -1.30491e-20
1.73152e-05 -1.91123e-05 1.70342e-20
2.43027e-06 4.00054e-06 1.24037e-20
-1.20629e-07 -1.75201e-05 1.39004e-20
-9.82196e-06 2.40928e-05 1.30943e-20
-4.37362e-06 8.63056e-06 6.37265e-22
2.05638e-05 -1.3611e-05 1.70548e-20
-3.76726e-05 -1.35564e-05 -4.34556e-21
-1.52713e-05 -2.03733e-05 -1.66819e-20
4.97886e-06 8.39209e-06 -2.41789e-20
1.66371e-05 5.16242e-06 1.2705e-20
-4.76556e-06 -7.34095e-06 -1.79001e-20
1.98035e-05 3.54847e-06 9.07404e-21
1.81949e-05 -9.82921e-06 3.09323e-23
-3.48912e-07 2.71822e-05 2.26394e-20
8.32328e-06 -1.36715e-05 -1.67641e-20
4.88205e-05 2.20135e-06 -2.14215e-21
-4.23715e-05 1.14575e-05 1.00987e-20
2.28675e-05 1.156e-05 -1.46604e-20
-6.45501e-06 -1.71849e-05 -3.66709e-21
-1.53549e-05 -8.62096e-06 -2.47444e-21
2.87966e-05 -2.10607e-07 5.31236e-21
-6.92159e-07 -2.42627e-05 -1.19671e-20
-1.26214e-05 -1.08775e-05 -7.49968e-21
1.02272e-05 -2.3507e-05 9.89231e-22
-4.96714e-07 2.05618e-05 7.87623e-21
7.92026e-06 2.60759e-05 -1.18832e-22
1.72733e-05 -9.88732e-06 8.49529e-21
-1.89538e-05 1.93047e-05 2.56689e-21
1.6533e-05 2.00356e-05 1.07745e-21
-6.22498e-05 1.60269e-05 1.4939e-20
-1.01122e-05 2.60242e-05 1.63287e-20
1.25229e-05 -1.5253e-05 -3.01967e-20
-7.03123e-06 -1.84034e-05 5.75163e-21
-1.18572e-05 4.50709e-06 -2.41022e-20
-2.59014e-05 -7.048e-06 -9.76463e-21
-6.38805e-06 3.88698e-05 2.22729e-20
-1.26097e-05 1.19061e-05 5.25111e-21
2.0783e-05 -4.47695e-06 1.2079e-20
-6.8745e-06 -2.58021e-05 6.8982e-21
-1.48733e-05 2.38984e-05 6.8776e-21
-2.17956e-05 1.25686e-05 -1.47935e-20
-2.05758e-05 -1.50601e-05 4.39281e-22
1.80341e-05 -2.06613e-05 7.32991e-21
-2.75392e-05 -1.4567e-06 -5.82621e-21
1.23712e-05 -4.08227e-05 7.93533e-21
1.93922e-05 -1.89189e-05 -7.83133e-21
2.47403e-05 4.3095e-05 8.08934e-21
1.97177e-06 1.98726e-05 1.82278e-20
2.96211e-06 -2.5429e-05 3.07412e-22
-4.16491e-05 4.69763e-05 6.8509e-21
-1.2706e-05 -2.44191e-05 -1.01545e-20
1.63719e-05 -6.42247e-06 3.5722e-21
-2.41153e-06 2.57802e-05 1.71091e-20
1.28869e-05 -1.183e-05 -3.25235e-21
1.38849e-05 2.43204e-05 4.08667e-21
1.72351e-05 -1.40091e-06 1.11965e-20
2.21272e-05 -6.3236e-05 1.25243e-20
-5.87787e-06 -1.28632e-05 -3.36878e-21
-2.31915e-05 1.00903e-05 1.50127e-21
-2.0026e-05 1.87247e-05 8.03841e-21
2.1619e-05 1.45721e-05 2.17051e-20
1.86784e-05 -1.07599e-05 1.39892e-20
1.49565e-05 1.25973e-05 -4.27432e-21
-5.42975e-06 4.55515e-08 1.87659e-20
1.54084e-05 -2.30943e-05 1.27542e-21
-1.69955e-05 -2.04155e-05 -8.20455e-21
2.25688e-05 9.77667e-06 -5.87259e-21
1.28105e-05 -1.19934e-05 3.08653e-21
9.55695e-06 -2.48594e-05 -2.71089e-21
1.66643e-05 -6.93499e-06 1.50552e-21
-1.58103e-05 -7.54696e-06 -5.57277e-21
1.29728e-06 -2.6311e-05 -1.71206e-20
-2.61149e-05 4.47448e-06 1.93389e-21
2.39122e-06 2.45503e-05 1.03325e-20
2.05912e-05 6.62947e-06 -1.89808e-20
-2.17272e-05 -1.07052e-05 -1.01575e-20
-8.97989e-06 2.5618e-05 1.85403e-20
-1.49577e-06 -2.41954e-05 -3.36818e-22
1.94724e-05 1.1841e-05 -1.99437e-20
-1.76947e-06 1.80903e-05 1.37267e-20
-2.0145e-05 1.37069e-05 2.56871e-21
2.35182e-05 1.14187e-05 -7.64004e-21
-1.71205e-05 -9.98873e-06 -9.6188e-21
9.51745e-08 -1.98409e-05 -4.46198e-21
1.83881e-05 1.99905e-05 -7.96291e-21
-2.21607e-05 -1.43081e-05 -9.44569e-21
4.83665e-05 -3.39926e-05 -4.26851e-22
1.79027e-05 -1.08259e-05 1.47544e-20
9.00496e-06 4.3101e-05 2.55629e-21
1.70396e-05 -1.3683e-05 2.26634e-20
-1.98798e-05 8.70644e-05 9.31473e-21
-1.97699e-05 -8.65786e-05 1.73592e-21
5.72038e-05 7.17401e-05 3.68496e-21
5.69415e-05 -7.14136e-05 -1.40141e-20
9.06765e-05 -1.40564e-10 -1.39519e-20
-7.82266e-05 3.76539e-05 5.79135e-21
-7.74809e-05 -3.72976e-05 1.97348e-20
1.22379e-05 1.18225e-05 8.74622e-22
2.93777e-05 2.18996e-05 7.05771e-22
1.1452e-05 3.33392e-06 -1.36727e-22
1.8862e-05 9.75473e-06 -3.61401e-21
4.99097e-06 2.01769e-05 -2.83518e-21
-1.88382e-05 -1.49855e-05 1.98027e-21
1.70437e-05 -1.02176e-05 3.18567e-21
1.98593e-05 1.45542e-05 3.48155e-21
-3.16793e-06 2.43722e-05 2.08245e-21
2.94505e-05 -1.99995e-05 2.62547e-20
3.79527e-06 -2.37479e-05 5.38724e-22
2.19682e-05 5.22879e-06 -1.67765e-20
2.9906e-05 1.10297e-05 -1.02391e-20
1.42136e-05 1.41486e-05 1.84039e-20
1.58886e-05 6.59591e-06 -1.17519e-20
-1.85051e-05 1.09404e-05 6.21759e-21
-2.25709e-05 9.03977e-06 -1.00772e-21
2.29373e-05 -1.12673e-05 1.77658e-20
-1.82741e-05 -1.00014e-05 -3.01952e-21
-1.85608e-05 -1.05861e-05 -1.05956e-20
-3.43915e-07 -2.07749e-05 9.91135e-21
-8.61014e-08 -2.1168e-05 8.45373e-21
-2.0134e-05 -1.00582e-06 -1.44861e-20
2.67082e-05 -4.02052e-06 1.23358e-20
1.81183e-05 1.1346e-05 8.11239e-21
-1.78704e-05 1.09489e-05 -1.5341e-20
-1.53667e-05 1.66294e-05 -7.90168e-21
1.60277e-05 -1.37579e-05 -5.53638e-21
-1.10272e-05 1.74695e-05 5.33054e-21
-1.42298e-05 -1.48948e-05 8.4225e-21
-1.15557e-06 2.1218e-05 2.942e-20
-1.28807e-06 2.09755e-05 1.04795e-20
8.98098e-08 -1.98409e-05 7.5409e-21
6.11302e-06 -1.97442e-05 -3.63615e-21
-1.71469e-05 -9.93898e-06 -2.09044e-20
1.55922e-05 -5.49218e-06 1.01912e-20
6.63465e-07 2.14853e-05 9.67247e-21
3.01e-07 1.8514e-05 2.68787e-21
-2.34652e-06 1.68632e-05 1.82038e-20
2.19164e-05 -5.52933e-06 1.00614e-20
-1.65471e-05 5.37999e-06 2.54022e-21
4.15899e-06 2.1525e-05 2.13213e-20
-3.25698e-05 1.29238e-05 -7.47786e-21
9.76707e-06 4.17462e-05 -5.41997e-21
-1.70595e-05 4.56977e-06 1.75338e-20
1.96914e-05 -1.16342e-05 8.64809e-21
9.46172e-07 2.1027e-05 1.56266e-20
-2.04886e-05 6.70184e-06 -1.58507e-20
2.445e-06 -1.62683e-05 -2.261e-20
1.82046e-06 -5.80334e-05 3.96418e-21
2.00724e-06 1.74925e-05 2.10278e-20
-1.69681e-05 1.40277e-05 2.24978e-21
1.78608e-05 6.39947e-05 3.61494e-21
4.57856e-05 3.77203e-05 1.79243e-20
5.20836e-05 -3.52683e-05 8.90213e-21
1.48208e-05 -1.01708e-05 -3.996e-21
-1.57912e-05 1.40427e-05 -5.03617e-21
-2.02242e-05 -7.92359e-06 1.22448e-21
-1.96528e-05 -6.82492e-06 -5.59247e-21
5.92885e-05 -2.46208e-05 -1.55966e-20
5.74544e-05 2.38795e-05 1.72146e-20
1.08985e-05 3.81886e-06 1.54247e-20
7.66965e-07 1.95865e-05 1.67323e-20
7.84394e-08 1.95678e-05 1.20965e-21
-4.84005e-05 -3.69332e-05 -7.85196e-21
1.14294e-05 -1.71782e-05 1.76087e-20
1.17376e-05 1.24692e-05 -1.95541e-20
-2.1426e-05 -3.39699e-06 -2.07121e-21
-1.40501e-05 1.72085e-05 -6.94249e-22
-1.88955e-05 9.17118e-06 -6.76391e-21
4.76609e-05 3.37064e-05 -1.12262e-21
1.58123e-05 7.06423e-06 -2.04151e-20
-5.56874e-06 2.00378e-05 1.5841e-20
-1.69843e-05 -1.17536e-05 6.41889e-21
1.857e-06 -2.05505e-05 1.23834e-20
-8.95299e-06 -1.92745e-05 1.20992e-21
-1.72555e-05 -1.17779e-05 1.00632e-20
1.05835e-05 -1.89428e-05 -4.7339e-21
1.41277e-05 -1.69956e-05 1.58297e-20
-2.44094e-06 -6.14605e-05 1.91782e-21
2.61901e-05 -4.11409e-05 4.45653e-21
1.74821e-06 -2.07933e-05 7.72402e-21
1.79654e-05 1.13596e-05 1.98182e-20
-1.44817e-05 -1.49109e-05 -2.24161e-21
-9.84471e-06 1.97175e-05 2.78344e-20
-5.04125e-06 2.10146e-05 1.99122e-20
1.66335e-05 1.4249e-05 1.22339e-20
6.06133e-06 -1.98688e-05 -2.57477e-21
-1.34112e-05 -4.03734e-05 -4.51714e-21
-1.98909e-06 2.50498e-05 2.93178e-20
1.47974e-05 1.44605e-05 3.89272e-22
-1.29632e-05 -1.02206e-05 -7.93079e-21
-1.35201e-05 1.06122e-05 4.16486e-21
4.43595e-05 -1.89202e-05 -5.95869e-21
7.56594e-06 -1.34052e-05 -2.98737e-21
-8.32026e-06 -1.26318e-05 -1.01336e-20
2.13385e-05 6.36589e-06 1.17307e-20
1.09985e-05 -5.0681e-05 -2.47682e-20
-3.84659e-05 -3.49161e-05 -1.15536e-21
2.33155e-05 6.20971e-06 -2.95036e-20
-9.33171e-06 -1.82881e-05 -5.02435e-21
1.87127e-05 9.48634e-06 2.08001e-20
-2.85752e-05 -3.2564e-05 -1.76032e-20
9.69187e-06 5.00657e-05 4.83208e-20
3.43471e-05 -5.98823e-05 -1.4357e-20
-3.47503e-05 -5.97991e-05 2.91433e-21
2.78194e-05 -5.20416e-05 6.68297e-21
-1.27029e-05 4.36497e-05 5.64503e-22
-6.27842e-06 3.89921e-05 3.65741e-20
-1.87378e-05 8.9493e-06 -9.99474e-21
5.9795e-06 2.42513e-05 1.64522e-20
-2.39244e-06 1.26589e-05 1.54902e-20
1.0124e-05 3.23435e-06 -7.43511e-21
-3.18964e-06 1.62116e-05 7.29082e-21
-2.47507e-07 2.09996e-05 2.3866e-20
1.66669e-05 9.75424e-06 1.3311e-20
1.71148e-06 5.77462e-05 -2.41136e-21
-1.47228e-05 1.07368e-05 5.94778e-21
1.59554e-05 -6.24894e-06 -4.87426e-21
1.68782e-05 -4.51065e-06 -1.23118e-20
-6.06863e-05 -8.77234e-06 2.81367e-21
-3.46187e-05 1.67478e-05 1.89476e-21
-4.35311e-05 -5.25667e-05 -3.0177e-21
8.65981e-06 8.34884e-06 1.69963e-20
1.42152e-05 7.29528e-06 -1.15245e-20
2.68148e-05 -4.19742e-06 1.62875e-20
-8.10741e-06 -1.32478e-05 -2.22253e-20
1.7223e-05 8.43177e-06 9.82256e-22
7.33813e-06 -3.00459e-05 -2.76638e-20
-1.37188e-05 1.02089e-05 -6.38525e-21
-2.23828e-05 -2.14304e-05 -1.59501e-20
-5.83813e-06 1.63039e-05 2.07683e-20
-3.27218e-06 2.06863e-05 1.511e-20
3.38625e-05 2.13044e-05 -8.2491e-21
3.61268e-05 -1.92901e-05 5.01163e-21
-4.20866e-05 -1.16276e-05 7.5276e-22
7.63704e-06 7.68861e-06 -5.75105e-22
-4.05945e-06 0.000101399 2.49929e-21
8.62726e-07 -0.000104507 -6.92033e-21
5.24745e-05 8.76777e-05 1.6886e-20
-1.91101e-05 8.4611e-06 -5.20846e-22
-2.63859e-05 5.65714e-05 -5.11286e-21
5.30532e-05 -8.46713e-05 4.23703e-21
-1.17249e-05 -1.82893e-05 1.783e-20
7.8029e-05 6.75223e-05 -2.72424e-21
2.40026e-05 -1.79835e-05 -6.3134e-21
-3.60875e-06 -2.98333e-05 -9.2544e-21
8.18091e-05 -6.58742e-05 1.33838e-20
-6.7471e-06 1.45238e-05 4.53565e-21
-5.38528e-05 -3.48376e-05 7.74767e-21
-4.30291e-05 -9.31657e-05 1.3127e-21
-2.41213e-05 -5.78261e-05 1.26647e-20
-4.39909e-05 9.41729e-05 4.41286e-21
-1.00968e-05 6.4108e-05 3.6689e-21
1.56386e-05 3.7122e-05 3.22564e-20
-2.79656e-05 3.72549e-05 -8.08904e-21
-2.52819e-05 -5.52046e-05 7.80921e-21
0.000100403 1.73233e-05 3.48791e-21
-1.69337e-05 1.07711e-05 -7.81164e-21
-5.91451e-06 1.63391e-05 9.60305e-21
-5.07774e-05 3.76546e-05 1.40183e-21
-1.72827e-05 9.94786e-06 -1.1807e-20
9.92392e-05 -1.52688e-05 2.29678e-21
-1.53659e-05 7.80163e-06 -1.0009e-20
7.19534e-06 -1.45003e-05 1.7626e-21
-7.79984e-05 -6.09718e-05 9.30139e-21
-2.58882e-05 5.77389e-05 7.53673e-22
-7.91515e-05 6.03988e-05 8.04538e-21
2.45498e-05 5.19694e-05 -6.27944e-21
-1.4773e-05 1.05864e-05 -1.91539e-21
-2.05375e-05 2.44857e-05 1.32868e-20
-2.85432e-05 4.98363e-05 2.21495e-20
-5.67971e-05 2.08089e-07 7.1868e-21
-9.44411e-07 1.63021e-05 3.63102e-21
-2.88603e-05 -5.04251e-05 -3.48091e-20
-5.82199e-05 -2.19937e-07 4.24522e-21
-2.836e-05 4.87143e-05 1.77564e-21
-1.51959e-05 6.62907e-05 2.0972e-20
-1.78711e-05 4.12761e-05 5.5658e-21
-3.39128e-05 2.71474e-05 -2.11548e-21
2.43919e-05 -6.05916e-06 1.58913e-20
3.80168e-05 -2.19609e-06 1.53383e-20
1.34873e-05 8.20333e-06 -3.76833e-21
-1.0473e-05 -7.4015e-05 -1.31404e-20
-6.94746e-05 -2.79846e-05 -4.47258e-21
3.7146e-05 7.32978e-07 -6.1327e-21
5.83877e-05 -1.08961e-05 -3.87868e-21
-1.05876e-05 -1.35021e-05 -4.66575e-22
-5.08474e-05 3.76405e-05 6.92549e-21
-4.61507e-05 5.40207e-05 4.77817e-21
6.23857e-05 -2.22405e-05 -2.13245e-21
-2.81878e-05 -5.05158e-05 -2.95185e-20
-2.87878e-05 4.9798e-05 1.99309e-20
-5.72757e-05 -1.17161e-06 -7.76406e-21
-2.65832e-05 5.06166e-05 2.60481e-21
-5.79747e-05 -8.17299e-07 1.59607e-20
6.61006e-05 1.73989e-05 -1.70566e-20
5.64011e-05 1.29303e-06 1.34548e-20
5.0919e-05 -2.92847e-05 8.50376e-22
2.49195e-05 -5.94491e-05 -1.05319e-20
2.99296e-05 -4.88749e-05 -5.96354e-21
2.91782e-05 4.86988e-05 8.89183e-21
2.43541e-05 5.81109e-05 -1.30436e-20
7.58304e-05 -2.00451e-05 -3.71707e-21
4.62835e-05 2.9074e-05 1.58674e-20
4.66415e-05 1.37505e-05 -1.24719e-20
TENSORS solid_stress_TPM float
375.059 -24.9215 7.05806e-13
-24.9215 238.586 8.88178e-13
7.05806e-13 8.88178e-13 197.833

457.043 -21.3208 1.63632e-12
-21.3208 490.028 -1.92794e-12
1.63632e-12 -1.92794e-12 487.149

454.917 28.0459 -9.86825e-12
28.0459 463.748 -1.03206e-12
-9.86825e-12 -1.03206e-12 458.496

455.069 -29.8424 -3.20706e-12
-29.8424 482.651 -3.05844e-12
-3.20706e-12 -3.05844e-12 484.896

527.717 19.9308 -4.14987e-12
19.9308 548.481 2.57572e-14
-4.14987e-12 2.57572e-14 527.388

437.348 -18.0763 -1.95503e-12
-18.0763 480.379 -6.32383e-12
-1.95503e-12 -6.32383e-12 458.077

372.353 26.4858 9.42653e-13
26.4858 239.106 -1.33108e-12
9.42653e-13 -1.33108e-12 197.817

473.69 29.9595 2.91796e-12
29.9595 469.54 -3.93759e-14
2.91796e-12 -3.93759e-14 472.375

471.59 5.48362 1.71241e-12
5.48362 417.858 -8.81554e-13
1.71241e-12 -8.81554e-13 432.832

504.3 -7.47765 -1.16677e-12
-7.47765 444.151 6.55402e-13
-1.16677e-12 6.55402e-13 483.49

360.322 16.3105 -9.56864e-13
16.3105 247.674 7.55011e-12
-9.56864e-13 7.55011e-12 233.664

444.819 -13.4542 5.43269e-13
-13.4542 498.425 2.74447e-12
5.43269e-13 2.74447e-12 472.276

466.906 27.8351 -9.23706e-14
27.8351 468.341 2.75927e-13
-9.23706e-14 2.75927e-13 466.771

457.074 -14.3411 3.62072e-12
-14.3411 500.473 3.50298e-12
3.62072e-12 3.50298e-12 483.494

512.969 33.3089 1.99929e-12
33.3089 511.63 -2.86072e-13
1.99929e-12 -2.86072e-13 515.259

489.214 0.561091 5.77375e-12
0.561091 435.56 -9.02741e-13
5.77375e-12 -9.02741e-13 462.31

457.621 -17.9688 -1.81355e-13
-17.9688 512.923 -4.82311e-12
-1.81355e-13 -4.82311e-12 493.633

493.998 -2.66519 -1.38378e-12
-2.66519 439.086 -2.73515e-12
-1.38378e-12 -2.73515e-12 474.301

418.828 26.6769 -5.00903e-12
26.6769 449.698 2.03807e-12
-5.00903e-12 2.03807e-12 424.089

482.022 -4.19608 1.40865e-12
-4.19608 424.957 -5.23226e-12
1.40865e-12 -5.23226e-12 453.512

425.331 8.66976 -1.08106e-12
8.66976 481.943 -5.61329e-13
-1.08106e-12 -5.61329e-13 444.877

634.134 6.28593 -3.71342e-13
6.28593 633.972 -2.91352e-12
-3.71342e-13 -2.91352e-12 570.338

479.193 1.87612 -3.08494e-13
1.87612 422.975 -4.21367e-13
-3.08494e-13 -4.21367e-13 449.769

447.2 -27.7179 -3.53495e-13
-27.7179 461.189 -2.11742e-12
-3.53495e-13 -2.11742e-12 452.984

481.089 6.84997 7.83966e-13
6.84997 425.476 1.70619e-12
7.83966e-13 1.70619e-12 452.975

449.795 19.1138 -9.70705e-13
19.1138 490.357 4.28753e-12
-9.70705e-13 4.28753e-12 478.243

377.685 4.1819 -2.71901e-12
4.1819 291.676 2.80931e-12
-2.71901e-12 2.80931e-12 259.023

462.722 30.7483 1.91787e-12
30.7483 460.751 -6.44551e-12
1.91787e-12 -6.44551e-12 460.581

384.973 37.0791 7.62649e-13
37.0791 383.552 -7.8515e-13
7.62649e-13 -7.8515e-13 348.448

586.959 10.3236 3.50386e-12
10.3236 563.474 -7.69015e-14
3.50386e-12 -7.69015e-14 546.899

491.728 14.2174 3.19389e-12
14.2174 442.534 -5.62513e-14
3.19389e-12 -5.62513e-14 465.893

352.884 -17.7827 1.74113e-12
-17.7827 416.76 1.8711e-12
1.74113e-12 1.8711e-12 348.619

331.043 -42.106 -1.7053e-12
-42.106 335.899 -7.00595e-12
-1.7053e-12 -7.00595e-12 253.503

531.433 5.98538 5.97331e-12
5.98538 586.91 -2.56506e-12
5.97331e-12 -2.56506e-12 538.609

554.045 -4.83858 -6.48296e-12
-4.83858 582.092 -8.45575e-12
-6.48296e-12 -8.45575e-12 542.539

578.007 21.0273 -2.62101e-12
21.0273 539.971 4.43719e-12
-2.62101e-12 4.43719e-12 538.378

556.206 5.06542 1.51064e-12
5.06542 600.691 -3.94262e-12
1.51064e-12 -3.94262e-12 547.995

573.795 -9.1709 -3.56456e-13
-9.1709 555.789 -8.84959e-13
-3.56456e-13 -8.84959e-13 540.665

467.165 -28.0002 -2.134e-12
-28.0002 466.53 -1.65853e-12
-2.134e-12 -1.65853e-12 465.144

330.427 41.5252 1.71714e-12
41.5252 337.997 -1.35714e-12
1.71714e-12 -1.35714e-12 253.862

414.561 -17.9513 1.77399e-12
-17.9513 354.516 2.52183e-12
1.77399e-12 2.52183e-12 346.349

559.327 -3.70427 2.81863e-12
-3.70427 599.94 6.33686e-12
2.81863e-12 6.33686e-12 548.409

586.431 19.5524 1.82795e-12
19.5524 572.473 -1.82994e-12
1.82795e-12 -1.82994e-12 548.198

490.933 -12.2737 8.58572e-14
-12.2737 442.889 1.26728e-12
8.58572e-14 1.26728e-12 466.565

341.735 -43.3041 -4.1626e-12
-43.3041 345.363 -6.88042e-13
-4.1626e-12 -6.88042e-13 289

417.587 -18.0656 1.75978e-12
-18.0656 357.133 -1.77162e-12
1.75978e-12 -1.77162e-12 351.523

413.039 17.0876 -2.5849e-12
17.0876 464.814 2.10025e-12
-2.5849e-12 2.10025e-12 428.754

429.657 19.3412 2.70421e-12
19.3412 466.544 -7.16701e-12
2.70421e-12 -7.16701e-12 437.108

486.811 -16.3023 -1.93978e-12
-16.3023 432.902 1.7546e-12
-1.93978e-12 1.7546e-12 458.705

355.602 -34.1896 -9.91207e-13
-34.1896 389.427 -4.87551e-12
-9.91207e-13 -4.87551e-12 332.589

410.279 19.1842 -1.68872e-12
19.1842 350.722 -7.27122e-13
-1.68872e-12 -7.27122e-13 339.498

425.229 -25.2914 1.18779e-12
-25.2914 383.844 3.63916e-12
1.18779e-12 3.63916e-12 373.1

519.941 19.4838 -7.25568e-12
19.4838 547.553 -2.38328e-13
-7.25568e-12 -2.38328e-13 525.755

416.44 29.6529 -2.06057e-13
29.6529 393.911 -1.68991e-12
-2.06057e-13 -1.68991e-12 373.964

522.199 -21.8127 -1.49332e-12
-21.8127 541.416 2.92803e-13
-1.49332e-12 2.92803e-13 524.401

364.093 -42.7159 -8.28967e-14
-42.7159 343.303 4.0797e-12
-8.28967e-14 4.0797e-12 289.717

553.467 5.45752 -2.06353e-12
5.45752 583.885 -2.80398e-12
-2.06353e-12 -2.80398e-12 542.914

373.739 -5.33051 2.67608e-12
-5.33051 436.692 -3.13941e-12
2.67608e-12 -3.13941e-12 373.849

580.832 10.3847 -2.00018e-12
10.3847 556.188 -1.41558e-13
-2.00018e-12 -1.41558e-13 542.67

435.085 21.415 3.31113e-12
21.415 473.793 2.67697e-12
3.31113e-12 2.67697e-12 454.701

513.602 5.75477 -2.0773e-12
5.75477 452.837 -2.31222e-12
-2.0773e-12 -2.31222e-12 494.895

522.487 11.459 -6.41265e-13
11.459 487.889 -4.44977e-12
-6.41265e-13 -4.44977e-12 507.107

383.729 31.8226 -3.37508e-12
31.8226 315.212 -7.65018e-13
-3.37508e-12 -7.65018e-13 269.888

482.115 -6.03614 6.74349e-12
-6.03614 528.21 -3.46153e-12
6.74349e-12 -3.46153e-12 504.129

487.124 9.52055 -1.47319e-12
9.52055 523.719 6.37416e-13
-1.47319e-12 6.37416e-13 507.525

456.487 -2.88155 -1.9467e-12
-2.88155 520.188 -6.05086e-12
-1.9467e-12 -6.05086e-12 487.837

464.485 23.4013 4.48723e-12
23.4013 503.502 -3.20988e-12
4.48723e-12 -3.20988e-12 495.471

496.781 8.46421 -4.34615e-13
8.46421 444.429 1.62655e-12
-4.34615e-13 1.62655e-12 477.73

445.538 -28.242 3.32475e-12
-28.242 459.561 -5.5896e-13
3.32475e-12 -5.5896e-13 451.198

501.716 -1.71153 1.20363e-12
-1.71153 444.949 -2.01491e-12
1.20363e-12 -2.01491e-12 489.1

519.554 -19.2598 -8.92471e-13
-19.2598 546.846 -2.67016e-12
-8.92471e-13 -2.67016e-12 525.488

523.328 21.3078 7.96104e-13
21.3078 542.941 -9.69507e-13
7.96104e-13 -9.69507e-13 525.29

353.434 -16.5855 1.59976e-12
-16.5855 415.767 1.05397e-13
1.59976e-12 1.05397e-13 346.138

506.051 -27.9371 1.58155e-12
-27.9371 485.338 1.17269e-12
1.58155e-12 1.17269e-12 493.909

449.753 -25.1367 3.57936e-12
-25.1367 471.255 1.82906e-12
3.57936e-12 1.82906e-12 458.61

357.895 -31.7138 4.44326e-12
-31.7138 285.695 4.8832e-12
4.44326e-12 4.8832e-12 249.876

498.524 3.22309 -1.14131e-13
3.22309 541.433 2.72967e-13
-1.14131e-13 2.72967e-13 513.669

501.757 28.9451 1.71714e-12
28.9451 474.58 -1.87672e-12
1.71714e-12 -1.87672e-12 487.688

448.476 19.665 2.52657e-12
19.665 492.142 -2.48098e-12
2.52657e-12 -2.48098e-12 477.675

440.227 8.00048 -2.50111e-12
8.00048 373.064 1.19223e-12
-2.50111e-12 1.19223e-12 382.963

386.48 -33.9394 -1.74438e-12
-33.9394 360.232 -1.83794e-12
-1.74438e-12 -1.83794e-12 319.459

537.74 -10.5869 5.06232e-12
-10.5869 556.162 4.59484e-13
5.06232e-12 4.59484e-13 531.274

482.689 23.9002 -8.32223e-13
23.9002 504.59 -1.64539e-12
-8.32223e-13 -1.64539e-12 502.073

385.4 -32.3876 -1.83912e-12
-32.3876 345.331 1.05397e-12
-1.83912e-12 1.05397e-12 317.105

422.23 10.7924 -1.7278e-12
10.7924 363.877 -2.48734e-12
-1.7278e-12 -2.48734e-12 350.279

307.672 -21.2084 1.15078e-12
-21.2084 388.472 -1.53004e-12
1.15078e-12 -1.53004e-12 288.137

434.475 14.4266 2.20431e-12
14.4266 488.704 5.20473e-13
2.20431e-12 5.20473e-13 460.916

509.752 23.1448 1.63721e-12
23.1448 475.202 -1.23368e-12
1.63721e-12 -1.23368e-12 489.977

338.265 42.2034 4.81156e-12
42.2034 349.597 -5.70803e-13
4.81156e-12 -5.70803e-13 288.973

634.221 16.5053 -1.28854e-11
16.5053 603.079 -2.57986e-12
-1.28854e-11 -2.57986e-12 565.344

372.916 -4.10889 2.49785e-12
-4.10889 436.852 1.98241e-12
2.49785e-12 1.98241e-12 373.455

637.126 -16.6305 5.7323e-12
-16.6305 599.549 1.13524e-12
5.7323e-12 1.13524e-12 564.851

533.965 -27.3347 1.24641e-12
-27.3347 507.266 -2.7652e-13
1.24641e-12 -2.7652e-13 515.742

505.328 27.4253 4.86011e-12
27.4253 466.365 -2.25745e-12
4.86011e-12 -2.25745e-12 485.103

426.96 -24.4134 -3.00678e-12
-24.4134 386.268 -6.09882e-14
-3.00678e-12 -6.09882e-14 376.007

358.963 31.3271 -2.16123e-13
31.3271 396.035 5.21894e-12
-2.16123e-13 5.21894e-12 339.226

339.849 -10.7063 9.09495e-13
-10.7063 408.423 -8.8581e-13
9.09495e-13 -8.8581e-13 319.13

453.14 21.9714 7.91959e-14
21.9714 494.715 -4.04684e-12
7.91959e-14 -4.04684e-12 483.202

533.142 16.7952 -3.38692e-13
16.7952 506.225 -2.18196e-12
-3.38692e-13 -2.18196e-12 513.382

443.487 15.1554 4.03588e-12
15.1554 488.477 4.03884e-12
4.03588e-12 4.03884e-12 464.316

451.517 15.9555 3.09086e-12
15.9555 400.567 -8.27338e-13
3.09086e-12 -8.27338e-13 403.778

374.517 -21.4751 -1.45069e-13
-21.4751 419.901 1.42109e-14
-1.45069e-13 1.42109e-14 357.225

389.753 -29.394 -1.15345e-12
-29.394 342.395 1.85925e-12
-1.15345e-12 1.85925e-12 314.415

455.002 -24.5743 -2.7045e-13
-24.5743 480.102 2.54582e-12
-2.7045e-13 2.54582e-12 478.405

466.461 27.4526 1.30769e-12
27.4526 478.778 -4.95308e-13
1.30769e-12 -4.95308e-13 479.843

452.254 23.1883 -4.45007e-12
23.1883 492.596 2.62427e-12
-4.45007e-12 2.62427e-12 482.078

466.328 13.1687 -2.59895e-12
13.1687 529.808 2.05643e-12
-2.59895e-12 2.05643e-12 501.415

490.9 9.37274 7.52583e-13
9.37274 437.923 -8.84182e-13
7.52583e-13 -8.84182e-13 462.09

327.736 -4.66553 4.19901e-12
-4.66553 403.414 7.12911e-13
4.19901e-12 7.12911e-13 314.436

462.617 -36.8317 1.21651e-12
-36.8317 487.727 -3.85395e-13
1.21651e-12 -3.85395e-13 492.783

445.884 27.4678 -1.75504e-12
27.4678 463.306 -4.78432e-13
-1.75504e-12 -4.78432e-13 455.049

305.693 2.17046 3.58624e-12
2.17046 393.392 4.493e-12
3.58624e-12 4.493e-12 297.279

386.027 34.6143 -4.92643e-12
34.6143 332.473 5.97448e-13
-4.92643e-12 5.97448e-13 306.269

453.387 -22.9753 -1.0969e-13
-22.9753 480.107 -1.09542e-12
-1.0969e-13 -1.09542e-12 476.208

501.433 5.73294 1.65675e-12
5.73294 441.352 2.47957e-12
1.65675e-12 2.47957e-12 481.046

422.415 27.2072 1.5703e-12
27.2072 389.798 -4.29997e-12
1.5703e-12 -4.29997e-12 374.264

570.564 12.7447 1.04583e-12
12.7447 565.936 6.47097e-12
1.04583e-12 6.47097e-12 542.942

396.21 24.3333 -1.6603e-12
24.3333 349.675 -1.68103e-12
-1.6603e-12 -1.68103e-12 319.069

569.186 -13.0542 -2.27951e-12
-13.0542 565.847 9.63377e-13
-2.27951e-12 9.63377e-13 542.397

375.121 0.778673 -8.43029e-13
0.778673 438.906 -2.60059e-12
-8.43029e-13 -2.60059e-12 374.671

461.509 -2.23558 2.30334e-12
-2.23558 399.334 3.4663e-12
2.30334e-12 3.4663e-12 417.315

538.226 -15.7664 2.18507e-12
-15.7664 480.664 3.00204e-13
2.18507e-12 3.00204e-13 513.51

457.281 24.3883 2.61488e-12
24.3883 487.823 3.49498e-13
2.61488e-12 3.49498e-13 488.39

461.291 -13.5354 -4.74974e-12
-13.5354 519.17 -2.52302e-12
-4.74974e-12 -2.52302e-12 495.748

515.005 -7.99942 -4.82577e-14
-7.99942 438.23 2.05302e-12
-4.82577e-14 2.05302e-12 494.312

488.345 -22.282 7.49267e-12
-22.282 541.631 8.43769e-13
7.49267e-12 8.43769e-13 515.78

556.073 -6.59842 -3.92693e-12
-6.59842 560.416 -3.19559e-13
-3.92693e-12 -3.19559e-13 538.755

463.904 -29.9085 -1.45661e-12
-29.9085 483.234 -1.25944e-12
-1.45661e-12 -1.25944e-12 483.636

341.733 11.4549 2.21334e-12
11.4549 406.227 2.01084e-12
2.21334e-12 2.01084e-12 319.508

422.516 -28.1498 -9.03573e-13
-28.1498 391.273 -1.40687e-12
-9.03573e-13 -1.40687e-12 375.177

507.408 -13.7706 2.04207e-13
-13.7706 558.774 2.36581e-12
2.04207e-13 2.36581e-12 525.28

501.095 0.504978 5.09518e-13
0.504978 441.317 1.59591e-12
5.09518e-13 1.59591e-12 487.122

476.976 -21.524 -2.62116e-12
-21.524 507.457 -2.69651e-12
-2.62116e-12 -2.69651e-12 501.538

459.135 25.6982 1.57874e-12
25.6982 484.639 -1.03018e-12
1.57874e-12 -1.03018e-12 488.017

394.462 -31.4681 -4.53208e-12
-31.4681 400.632 -1.67451e-12
-4.53208e-12 -1.67451e-12 357.55

552.146 -7.08275 -1.75734e-12
-7.08275 585.316 -2.20683e-12
-1.75734e-12 -2.20683e-12 542.628

347.236 -33.0803 -1.00779e-12
-33.0803 382.637 -3.6593e-12
-1.00779e-12 -3.6593e-12 303.459

490.908 -19.1811 1.58096e-12
-19.1811 448.421 -4.80801e-13
1.58096e-12 -4.80801e-13 467.159

519.742 1.97137 -1.10489e-12
1.97137 466.849 -6.22909e-13
-1.10489e-12 -6.22909e-13 502.865

570.581 17.8742 1.58451e-12
17.8742 566.498 1.66089e-13
1.58451e-12 1.66089e-13 542.401

375.32 20.1853 2.79539e-12
20.1853 424.067 2.64677e-12
2.79539e-12 2.64677e-12 360.25

489.117 27.2124 -4.82932e-12
27.2124 468.575 -5.58368e-12
-4.82932e-12 -5.58368e-12 476.673

454.416 -24.5139 -2.44071e-12
-24.5139 415.375 9.74036e-13
-2.44071e-12 9.74036e-13 418.635

454.753 -17.8393 -3.75829e-13
-17.8393 494.944 2.7495e-12
-3.75829e-13 2.7495e-12 482.676

379.228 35.072 2.19913e-12
35.072 366.059 1.78465e-12
2.19913e-12 1.78465e-12 317.074

449.189 -21.8315 -1.56882e-12
-21.8315 491.742 1.61826e-12
-1.56882e-12 1.61826e-12 479.809

485.525 30.852 -6.68384e-12
30.852 465.168 -4.52971e-13
-6.68384e-12 -4.52971e-13 473.479

480.359 -25.2457 1.74675e-12
-25.2457 442.4 8.58276e-13
1.74675e-12 8.58276e-13 455.476

448.254 -25.1284 3.26642e-12
-25.1284 469.805 4.40951e-12
3.26642e-12 4.40951e-12 458.131

445.381 -18.6902 -4.71208e-12
-18.6902 393.491 2.404e-12
-4.71208e-12 2.404e-12 397.289

470.69 -18.8515 1.81781e-12
-18.8515 422.885 7.40149e-15
1.81781e-12 7.40149e-15 437.565

459.035 -25.3376 1.42109e-13
-25.3376 485.465 7.32303e-13
1.42109e-13 7.32303e-13 488.86

386.571 35.9736 2.10794e-13
35.9736 382.017 6.987e-14
2.10794e-13 6.987e-14 348.143

444.529 15.3782 -9.96536e-13
15.3782 491.569 -1.12503e-13
-9.96536e-13 -1.12503e-13 467.173

469.431 26.4237 2.38624e-12
26.4237 479.992 7.32155e-13
2.38624e-12 7.32155e-13 482.58

456.178 25.4736 -6.56201e-12
25.4736 486.683 7.99065e-13
-6.56201e-12 7.99065e-13 487.28

457.84 11.6226 -1.05847e-12
11.6226 506.974 -1.668e-12
-1.05847e-12 -1.668e-12 486.048

431.985 -8.22791 2.87296e-12
-8.22791 370.783 -3.47485e-12
2.87296e-12 -3.47485e-12 363.335

376.807 18.6086 -3.44554e-12
18.6086 427.299 -1.63662e-12
-3.44554e-12 -1.63662e-12 363.911

452.346 -24.382 3.00944e-12
-24.382 478.421 -2.04725e-12
3.00944e-12 -2.04725e-12 470.745

440.779 25.6685 -9.166e-13
25.6685 455.675 1.38556e-12
-9.166e-13 1.38556e-12 437.837

390.985 -35.6334 4.38286e-12
-35.6334 380.305 1.0143e-12
4.38286e-12 1.0143e-12 350.117

368.968 38.3209 4.36984e-12
38.3209 327.275 -1.34885e-12
4.36984e-12 -1.34885e-12 295.704

363.673 -33.3149 -3.17849e-12
-33.3149 394.465 1.0291e-12
-3.17849e-12 1.0291e-12 342.004

397.959 -31.1632 9.17784e-13
-31.1632 404.222 -6.3712e-13
9.17784e-13 -6.3712e-13 363

502.892 -6.83861 -2.08722e-12
-6.83861 442.284 3.80806e-12
-2.08722e-12 3.80806e-12 482.351

393.193 30.3452 -1.72662e-12
30.3452 409.009 -1.7657e-12
-1.72662e-12 -1.7657e-12 363.46

429.734 13.2961 -1.37608e-12
13.2961 372.273 9.74865e-12
-1.37608e-12 9.74865e-12 362.74

350.167 13.3804 7.0773e-13
13.3804 418.545 8.05282e-14
7.0773e-13 8.05282e-14 348.5

379.506 -22.343 -6.13968e-12
-22.343 423.544 9.39101e-13
-6.13968e-12 9.39101e-13 363.474

491.233 -1.09236 -9.0683e-13
-1.09236 550.902 -1.77636e-13
-9.0683e-13 -1.77636e-13 516.333

372.889 2.24691 3.78601e-12
2.24691 437.82 -6.59621e-13
3.78601e-12 -6.59621e-13 373.547

357.914 31.0928 -3.88371e-12
31.0928 399.516 -2.57927e-12
-3.88371e-12 -2.57927e-12 341.985

458.023 12.1087 5.31534e-12
12.1087 510.594 -2.45729e-13
5.31534e-12 -2.45729e-13 488.434

421.484 -27.6507 -1.19608e-13
-27.6507 389.099 -3.42837e-13
-1.19608e-13 -3.42837e-13 375.099

524.785 20.5571 2.15235e-13
20.5571 469.779 -5.50019e-12
2.15235e-13 -5.50019e-12 500.764

534.95 26.2704 1.15878e-12
26.2704 506.886 7.66202e-13
1.15878e-12 7.66202e-13 516.121

494.849 -18.5692 1.77458e-12
-18.5692 449.056 -2.95467e-13
1.77458e-12 -2.95467e-13 470.887

554.607 -1.80316 -1.32561e-12
-1.80316 516.047 -2.62753e-12
-1.32561e-12 -2.62753e-12 525.742

473.319 -31.8131 3.60364e-12
-31.8131 475.729 -1.65645e-12
3.60364e-12 -1.65645e-12 478.609

412.628 23.3304 3.17376e-12
23.3304 357.22 -1.93208e-12
3.17376e-12 -1.93208e-12 348.116

464.211 30.1625 3.15303e-12
30.1625 482.803 1.84475e-12
3.15303e-12 1.84475e-12 483.237

464.473 29.2064 -1.70974e-12
29.2064 482.276 3.02839e-12
-1.70974e-12 3.02839e-12 482.798

393.974 30.6644 -1.30266e-13
30.6644 405.753 4.44326e-12
-1.30266e-13 4.44326e-12 360.895

502.886 27.0862 -1.41753e-12
27.0862 482.694 1.66563e-12
-1.41753e-12 1.66563e-12 490.764

415.383 3.52555 -5.37644e-12
3.52555 339.04 -1.06659e-12
-5.37644e-12 -1.06659e-12 340.849

493.154 31.8172 3.07635e-12
31.8172 487.255 1.74024e-12
3.07635e-12 1.74024e-12 495.605

476.354 -12.5993 -4.41232e-12
-12.5993 522.481 -3.2235e-12
-4.41232e-12 -3.2235e-12 500.277

536.953 24.2775 1.03473e-12
24.2775 507.427 1.27187e-12
1.03473e-12 1.27187e-12 516.657

468.212 -29.5793 2.42384e-12
-29.5793 480.005 2.01824e-12
2.42384e-12 2.01824e-12 483.094

464.589 -4.89748 2.98498e-12
-4.89748 521.587 -4.84886e-12
2.98498e-12 -4.84886e-12 491.009

400.969 -24.5591 -3.57166e-12
-24.5591 349.047 -1.77576e-12
-3.57166e-12 -1.77576e-12 323.974

418.998 29.6965 4.31063e-12
29.6965 392.492 1.81781e-12
4.31063e-12 1.81781e-12 373.797

352.368 14.6982 -7.05362e-13
14.6982 417.244 1.72188e-12
-7.05362e-13 1.72188e-12 348.265

500.565 -1.13922 -9.84398e-14
-1.13922 442.829 3.64753e-12
-9.84398e-14 3.64753e-12 487.742

492.507 0.00217194 2.19676e-13
0.00217194 438.136 -1.03982e-12
2.19676e-13 -1.03982e-12 474.452

452.999 23.1254 -8.8655e-13
23.1254 479.743 3.82686e-12
-8.8655e-13 3.82686e-12 475.619

481.337 23.8715 1.69553e-12
23.8715 502.905 1.86982e-12
1.69553e-12 1.86982e-12 501.285

456.623 -24.3809 2.50929e-13
-24.3809 487.388 7.81597e-14
2.50929e-13 7.81597e-14 488.531

457.867 -0.673446 -2.88569e-12
-0.673446 517.975 3.69541e-12
-2.88569e-12 3.69541e-12 486.431

458.921 25.591 -1.94778e-12
25.591 486.504 4.89201e-12
-1.94778e-12 4.89201e-12 488.553

465.598 -10.309 3.1856e-12
-10.309 408.116 3.54413e-12
3.1856e-12 3.54413e-12 427.258

400.897 -32.8374 -3.25073e-12
-32.8374 414.99 7.22977e-13
-3.25073e-12 7.22977e-13 385.198

518.132 -2.30193 2.20979e-12
-2.30193 465.775 -7.69755e-15
2.20979e-12 -7.69755e-15 500.962

391.905 -34.5124 5.4996e-12
-34.5124 379.638 6.60213e-13
5.4996e-12 6.60213e-13 347.447

478.037 19.0859 -2.31074e-13
19.0859 509.239 1.56142e-12
-2.31074e-13 1.56142e-12 501.881

506.15 -26.4793 -1.32043e-13
-26.4793 470.282 1.26536e-12
-1.32043e-13 1.26536e-12 487.309

425.038 -9.69143 -1.35477e-12
-9.69143 366.761 -3.30758e-12
-1.35477e-12 -3.30758e-12 356.012

530.299 -23.1928 -2.17426e-12
-23.1928 488.791 1.64224e-12
-2.17426e-12 1.64224e-12 506.523

500.934 2.35842 1.29215e-12
2.35842 444.617 -5.73911e-13
1.29215e-12 -5.73911e-13 489.244

521.226 -23.3227 8.39033e-13
-23.3227 501.876 2.33339e-12
8.39033e-13 2.33339e-12 508.568

502.055 -25.8602 1.5478e-12
-25.8602 461.528 -9.13936e-13
1.5478e-12 -9.13936e-13 481.281

498.868 -8.54708 -2.46795e-12
-8.54708 445.174 3.44406e-12
-2.46795e-12 3.44406e-12 479.383

482.259 -23.0687 2.45433e-13
-23.0687 505.029 -4.44996e-12
2.45433e-13 -4.44996e-12 502.572

428.578 -31.3454 2.7119e-13
-31.3454 410.624 9.95352e-13
2.7119e-13 9.95352e-13 399.032

503.306 -24.5891 -2.41762e-12
-24.5891 464.75 6.86029e-12
-2.41762e-12 6.86029e-12 482.197

441.281 10.8657 -9.69536e-12
10.8657 378.513 5.36549e-12
-9.69536e-12 5.36549e-12 387.832

500.074 26.3414 5.41167e-12
26.3414 498.619 -1.79678e-12
5.41167e-12 -1.79678e-12 500.141

463.791 -37.6112 2.38802e-12
-37.6112 488.43 1.21606e-13
2.38802e-12 1.21606e-13 494.121

464.9 37.2636 -2.45463e-12
37.2636 487.342 2.92692e-12
-2.45463e-12 2.92692e-12 493.836

446.37 -28.5724 2.29446e-12
-28.5724 500.055 2.07597e-12
2.29446e-12 2.07597e-12 492.351

448.604 27.0633 -1.00793e-12
27.0633 500.746 -8.14164e-13
-1.00793e-12 -8.14164e-13 492.538

513.11 -8.52699 3.43858e-12
-8.52699 436.448 -1.97042e-12
3.43858e-12 -1.97042e-12 492.799

511.273 9.27295 -3.58084e-13
9.27295 438.045 1.16115e-12
-3.58084e-13 1.16115e-12 492.436

501.697 -9.84707 -4.1626e-13
-9.84707 451.78 -1.30547e-12
-4.1626e-13 -1.30547e-12 483.059

510.899 32.114 -2.49874e-12
32.114 510.426 8.35202e-13
-2.49874e-12 8.35202e-13 514.09

509.675 -32.8519 -2.72967e-13
-32.8519 510.103 -1.42824e-12
-2.72967e-13 -1.42824e-12 513.729

481.847 16.068 4.32498e-12
16.068 539.164 -3.86506e-12
4.32498e-12 -3.86506e-12 514.362

483.041 -15.8006 -1.94955e-12
-15.8006 538.754 -3.09619e-12
-1.94955e-12 -3.09619e-12 514.383

556.898 -3.74938 -6.04257e-13
-3.74938 506.864 -1.98715e-12
-6.04257e-13 -1.98715e-12 525.025

558.452 3.61209 -1.83586e-12
3.61209 505.188 1.23753e-12
-1.83586e-12 1.23753e-12 525.396

387.341 9.83803 3.38107e-12
9.83803 449.237 5.56592e-14
3.38107e-12 5.56592e-14 397.121

472.426 -24.7757 7.63241e-13
-24.7757 480.793 5.20724e-12
7.63241e-13 5.20724e-12 485.014

443.504 -36.3862 -2.19573e-12
-36.3862 485.574 2.34479e-13
-2.19573e-12 2.34479e-13 486.667

473.683 -4.66463 -1.59872e-12
-4.66463 420.472 -2.91611e-12
-1.59872e-12 -2.91611e-12 436.375

540.287 -16.693 9.78773e-13
-16.693 484.228 -8.71895e-13
9.78773e-13 -8.71895e-13 515.323

541.007 16.174 3.0694e-12
16.174 485.451 -3.59446e-12
3.0694e-12 -3.59446e-12 515.928

506.902 0.121863 1.43737e-12
0.121863 423.594 2.37728e-13
1.43737e-12 2.37728e-13 487.041

384.824 23.3782 3.32919e-12
23.3782 432.335 2.69414e-12
3.32919e-12 2.69414e-12 385.509

442.376 36.1702 7.66794e-14
36.1702 485.252 6.89522e-13
7.66794e-14 6.89522e-13 485.873

452.637 -23.3963 -1.85807e-12
-23.3963 494.993 3.62081e-12
-1.85807e-12 3.62081e-12 483.629

443.287 23.3555 -1.88531e-12
23.3555 397.552 -5.14551e-12
-1.88531e-12 -5.14551e-12 400.407

531.001 23.8589 -1.58333e-12
23.8589 488.041 3.75522e-12
-1.58333e-12 3.75522e-12 507.282

428.516 -31.3173 -2.14939e-12
-31.3173 410.909 5.01762e-12
-2.14939e-12 5.01762e-12 398.851

519.896 -3.23203 -1.1123e-12
-3.23203 469.095 1.22361e-12
-1.1123e-12 1.22361e-12 502.722

439.439 -34.16 -3.40217e-12
-34.16 485.545 -3.62717e-12
-3.40217e-12 -3.62717e-12 485.862

389.215 8.32091 1.8216e-12
8.32091 452.367 9.43838e-13
1.8216e-12 9.43838e-13 400.889

385.911 21.8143 -4.33253e-12
21.8143 435.811 4.38168e-14
-4.33253e-12 4.38168e-14 388.727

383.879 35.78 -4.11878e-12
35.78 362.361 -4.22536e-12
-4.11878e-12 -4.22536e-12 318.354

408.218 1.57896 -4.48234e-12
1.57896 332.181 -2.85105e-13
-4.48234e-12 -2.85105e-13 327.352

485.492 -22.8052 7.62649e-13
-22.8052 502.894 -2.10282e-12
7.62649e-13 -2.10282e-12 501.784

351.906 31.1874 -7.92255e-13
31.1874 388.863 1.42109e-14
-7.92255e-13 1.42109e-14 312.383

451.387 23.6117 -6.75341e-12
23.6117 478.453 3.13231e-13
-6.75341e-12 3.13231e-13 465.25

442.235 -5.35019 1.01252e-12
-5.35019 377.157 -4.34793e-12
1.01252e-12 -4.34793e-12 387.77

464.195 11.2173 5.44749e-14
11.2173 407.332 -1.79797e-12
5.44749e-14 -1.79797e-12 424.957

505.418 0.429879 -2.27773e-12
0.429879 421.615 -1.0462e-12
-2.27773e-12 -1.0462e-12 485.712

449.39 -29.03 1.59354e-13
-29.03 502.035 -4.41454e-12
1.59354e-13 -4.41454e-12 493.625

572.526 -6.31791 5.68212e-13
-6.31791 589.502 1.54661e-12
5.68212e-13 1.54661e-12 549.277

463.179 37.4099 4.86722e-13
37.4099 487.065 3.01537e-13
4.86722e-13 3.01537e-13 493.101

408.772 1.66344 -1.39266e-12
1.66344 331.628 1.83105e-12
-1.39266e-12 1.83105e-12 308.93

404.268 -32.791 -1.38556e-12
-32.791 415.544 2.89546e-13
-1.38556e-12 2.89546e-13 387.422

443.182 36.6116 2.76697e-12
36.6116 485.545 7.09359e-13
2.76697e-12 7.09359e-13 486.609

444.713 -11.1344 1.36078e-12
-11.1344 498.973 1.87169e-12
1.36078e-12 1.87169e-12 471.477

386.105 -25.5178 1.60612e-12
-25.5178 428.938 2.53664e-12
1.60612e-12 2.53664e-12 384.596

449.49 28.829 -2.46025e-13
28.829 501.668 2.15916e-12
-2.46025e-13 2.15916e-12 493.324

452.748 -26.1448 -5.92119e-16
-26.1448 419.337 4.43023e-12
-5.92119e-16 4.43023e-12 419.552

579.57 10.4841 -4.58655e-12
10.4841 582.179 -4.35948e-12
-4.58655e-12 -4.35948e-12 549.062

398.361 30.8758 6.21725e-14
30.8758 422.094 5.87382e-13
6.21725e-14 5.87382e-13 388.195

515.743 8.1261 3.58469e-12
8.1261 437.308 4.25141e-13
3.58469e-12 4.25141e-13 494.618

493.84 30.1912 3.19744e-14
30.1912 484.784 -3.16784e-13
3.19744e-14 -3.16784e-13 493.836

453.503 23.3334 -1.92942e-12
23.3334 479.202 -1.51464e-12
-1.92942e-12 -1.51464e-12 475.835

510.733 -32.4866 2.83033e-13
-32.4866 512.485 -3.80901e-12
2.83033e-13 -3.80901e-12 515.038

510.343 -23.1919 1.66385e-13
-23.1919 473.214 2.11653e-12
1.66385e-13 2.11653e-12 489.711

511.428 10.4691 6.14693e-13
10.4691 558.019 5.76961e-12
6.14693e-13 5.76961e-12 523.761

452.21 -23.4353 3.72532e-12
-23.4353 480.205 -2.48275e-12
3.72532e-12 -2.48275e-12 468.987

394.442 -9.70907 7.17411e-12
-9.70907 316.437 4.55806e-12
7.17411e-12 4.55806e-12 295.599

387.322 -14.2787 -3.58587e-12
-14.2787 306.082 2.71487e-12
-3.58587e-12 2.71487e-12 290.073

547.611 16.531 4.83613e-12
16.531 507.792 6.34159e-13
4.83613e-12 6.34159e-13 519.35

436.523 22.5041 1.7885e-12
22.5041 469.176 1.29911e-12
1.7885e-12 1.29911e-12 447.859

475.999 29.1653 4.54747e-12
29.1653 467.68 -2.07508e-12
4.54747e-12 -2.07508e-12 471.514

450.34 0.688728 8.52651e-13
0.688728 392.808 -1.58989e-12
8.52651e-13 -1.58989e-12 395.707

478.381 6.57039 2.94542e-12
6.57039 541.309 2.47624e-12
2.94542e-12 2.47624e-12 507.571

507.368 16.5407 2.85697e-12
16.5407 461.171 -5.86198e-14
2.85697e-12 -5.86198e-14 488.115

390.009 -25.7643 -8.23045e-13
-25.7643 430.073 1.12503e-13
-8.23045e-13 1.12503e-13 387.766

456.351 -2.57184 4.22902e-12
-2.57184 517.05 4.35444e-12
4.22902e-12 4.35444e-12 484.874

400.622 13.3669 6.52811e-13
13.3669 453.024 6.83305e-13
6.52811e-13 6.83305e-13 404.669

486.949 -29.7151 1.3903e-12
-29.7151 465.848 2.11919e-12
1.3903e-12 2.11919e-12 474.292

430.334 -29.951 -4.37457e-12
-29.951 423.664 -9.96536e-13
-4.37457e-12 -9.96536e-13 404.988

399.744 31.6268 -1.92024e-12
31.6268 418.267 2.26071e-12
-1.92024e-12 2.26071e-12 386.034

624.009 -15.0192 3.81325e-13
-15.0192 581.963 -2.19654e-12
3.81325e-13 -2.19654e-12 557.926

494.551 2.04204 -4.73754e-12
2.04204 552.171 7.31089e-12
-4.73754e-12 7.31089e-12 517.955

483.535 20.2986 -1.28386e-12
20.2986 542.071 4.53326e-12
-1.28386e-12 4.53326e-12 516.062

544.734 15.4376 9.80845e-13
15.4376 480.003 -8.53243e-13
9.80845e-13 -8.53243e-13 515.784

473.784 -26.1903 1.1197e-12
-26.1903 479.793 3.18501e-12
1.1197e-12 3.18501e-12 483.052

452.164 17.9592 -6.12488e-12
17.9592 404.541 4.14631e-12
-6.12488e-12 4.14631e-12 406.951

531.601 -5.29276 4.90381e-12
-5.29276 580.821 2.79421e-12
4.90381e-12 2.79421e-12 537.143

512.223 -18.9878 -9.03277e-13
-18.9878 464.828 -7.41037e-13
-9.03277e-13 -7.41037e-13 493.062

474.015 -15.6001 2.48039e-12
-15.6001 423.21 8.43325e-13
2.48039e-12 8.43325e-13 438.914

402.033 11.6047 -3.89141e-12
11.6047 455.996 -7.44886e-13
-3.89141e-12 -7.44886e-13 407.813

410.957 -25.7374 2.98842e-12
-25.7374 435.618 4.43852e-12
2.98842e-12 4.43852e-12 398.989

532.077 -25.2739 5.39124e-13
-25.2739 523.219 -1.38497e-12
5.39124e-13 -1.38497e-12 519.148

423.091 31.9633 3.44495e-12
31.9633 417.283 3.31468e-12
3.44495e-12 3.31468e-12 400.338

535.511 -25.134 -2.22548e-12
-25.134 505.817 -1.07144e-12
-2.22548e-12 -1.07144e-12 515.69

453.533 2.59763 1.73846e-12
2.59763 397.051 -4.39567e-12
1.73846e-12 -4.39567e-12 401.93

311.122 -28.9338 -2.62072e-12
-28.9338 376.628 1.85689e-12
-2.62072e-12 1.85689e-12 290.019

431.911 -29.2344 -1.32871e-12
-29.2344 424.083 -6.12251e-13
-1.32871e-12 -6.12251e-13 406.187

353.789 32.1626 -1.58569e-12
32.1626 392.577 3.69719e-12
-1.58569e-12 3.69719e-12 312.994

470.377 -11.8762 -1.39666e-13
-11.8762 529.584 -6.14027e-13
-1.39666e-13 -6.14027e-13 500.336

391.482 -13.823 -2.61628e-12
-13.823 449.291 6.10119e-12
-2.61628e-12 6.10119e-12 400.231

602.867 -23.9851 3.45057e-13
-23.9851 602.278 -8.57995e-12
3.45057e-13 -8.57995e-12 557.867

408.405 23.7737 -1.62418e-12
23.7737 441.977 -1.71596e-12
-1.62418e-12 -1.71596e-12 402.255

496.611 -32.7264 -5.4093e-12
-32.7264 490.673 -1.85748e-12
-5.4093e-12 -1.85748e-12 497.48

388.221 -11.9645 -1.19756e-13
-11.9645 448.323 3.50179e-12
-1.19756e-13 3.50179e-12 397.048

516.746 -19.1166 -5.02206e-12
-19.1166 465.788 3.4639e-13
-5.02206e-12 3.4639e-13 496.277

410.72 23.88 -5.43032e-12
23.88 439.349 2.61006e-12
-5.43032e-12 2.61006e-12 400.732

488.96 -4.97574 1.8711e-13
-4.97574 435.107 -2.81286e-12
1.8711e-13 -2.81286e-12 460.419

305.804 -30.3453 9.17784e-13
-30.3453 391.469 3.06954e-12
9.17784e-13 3.06954e-12 262.591

438.646 21.0158 6.34752e-13
21.0158 473.952 -1.93623e-12
6.34752e-13 -1.93623e-12 458.385

445.727 -19.3255 -1.07292e-12
-19.3255 394.01 -9.79957e-14
-1.07292e-12 -9.79957e-14 399.657

551.631 -21.4456 4.65613e-12
-21.4456 499.547 -2.81553e-12
4.65613e-12 -2.81553e-12 520.134

424.507 31.7577 2.47506e-12
31.7577 413.358 3.75107e-12
2.47506e-12 3.75107e-12 397.993

459.202 -29.9745 -2.48098e-13
-29.9745 437.675 -1.4954e-12
-2.48098e-13 -1.4954e-12 439.336

510.657 20.886 -3.90621e-12
20.886 476.108 6.77976e-13
-3.90621e-12 6.77976e-13 492.792

461.545 -28.0763 4.53252e-12
-28.0763 485.781 -1.66837e-12
4.53252e-12 -1.66837e-12 488.757

413.757 -26.2284 4.83761e-13
-26.2284 436.284 1.99307e-12
4.83761e-13 1.99307e-12 401.475

426.114 28.9845 7.10957e-12
28.9845 429.937 7.43701e-13
7.10957e-12 7.43701e-13 406.897

452.542 26.194 5.10643e-12
26.194 418.264 8.42881e-13
5.10643e-12 8.42881e-13 419.096

522.006 -14.6115 -3.57137e-12
-14.6115 477.213 2.33561e-12
-3.57137e-12 2.33561e-12 500.1

403.597 -16.6197 2.13488e-12
-16.6197 451.785 7.93676e-12
2.13488e-12 7.93676e-12 406.48

496.088 -17.5689 1.39799e-12
-17.5689 447.645 -1.26639e-12
1.39799e-12 -1.26639e-12 471.54

487.807 16.9099 1.77458e-12
16.9099 436.297 3.04468e-12
1.77458e-12 3.04468e-12 460.628

513.371 -9.3852 3.20629e-12
-9.3852 555.809 1.62241e-13
3.20629e-12 1.62241e-13 523.062

454.021 -13.4314 -1.79886e-12
-13.4314 402.215 1.59073e-12
-1.79886e-12 1.59073e-12 406.78

403.238 0.594274 2.02919e-12
0.594274 465.768 3.93404e-12
2.02919e-12 3.93404e-12 417.843

475.069 18.5564 1.52175e-13
18.5564 428.81 9.4739e-13
1.52175e-13 9.4739e-13 442.26

451.184 27.6068 1.50635e-12
27.6068 421.877 4.42106e-12
1.50635e-12 4.42106e-12 420.881

400.905 -15.6881 -4.84945e-13
-15.6881 451.425 7.80413e-13
-4.84945e-13 7.80413e-13 403.773

406.037 -1.20226 2.45826e-12
-1.20226 468.078 9.28443e-13
2.45826e-12 9.28443e-13 421.258

516.235 29.1347 1.36957e-12
29.1347 498.06 5.93007e-13
1.36957e-12 5.93007e-13 504.911

441.744 -10.923 4.89105e-12
-10.923 500.7 2.85638e-12
4.89105e-12 2.85638e-12 471.188

451.482 -26.7182 3.27383e-12
-26.7182 418.804 -1.0066e-14
3.27383e-12 -1.0066e-14 419.391

444.429 21.3351 2.86822e-12
21.3351 395.334 1.81188e-12
2.86822e-12 1.81188e-12 398.238

497.637 23.6662 6.21133e-13
23.6662 458.129 -3.33274e-12
6.21133e-13 -3.33274e-12 476.589

447.721 5.47167 3.69038e-13
5.47167 508.832 8.63309e-13
3.69038e-13 8.63309e-13 476.921

427.69 29.069 5.11117e-12
29.069 426.475 8.40809e-13
5.11117e-12 8.40809e-13 405.147

536.854 22.964 -2.39808e-13
22.964 531.926 2.75957e-12
-2.39808e-13 2.75957e-12 522.818

314.777 -59.6972 1.75267e-12
-59.6972 282.792 8.13335e-12
1.75267e-12 8.13335e-12 223.443

480.636 -25.0501 1.86517e-13
-25.0501 445.111 -2.31844e-12
1.86517e-13 -2.31844e-12 456.685

336.693 7.07067 -2.95171e-13
7.07067 409.194 2.70717e-12
-2.95171e-13 2.70717e-12 319.47

460.58 -28.892 -1.22628e-12
-28.892 444.777 -7.28306e-13
-1.22628e-12 -7.28306e-13 443.492

96.4308 -52.7047 -2.4869e-14
-52.7047 306.64 -4.73695e-12
-2.4869e-14 -4.73695e-12 113.709

95.9647 51.4553 9.14232e-13
51.4553 306.904 -6.43752e-12
9.14232e-13 -6.43752e-12 114.497

181.53 117.162 -6.70989e-12
117.162 226.092 -7.31859e-12
-6.70989e-12 -7.31859e-12 113.597

182.828 -117.105 2.74269e-12
-117.105 223.328 -1.36898e-12
2.74269e-12 -1.36898e-12 113.571

321.606 -1.36349 -9.42653e-13
-1.36349 84.6596 7.54778e-14
-9.42653e-13 7.54778e-14 114.939

274.453 -91.1319 -1.42109e-14
-91.1319 127.427 1.7953e-12
-1.42109e-14 1.7953e-12 113.812

275.149 91.6598 -3.31587e-13
91.6598 128.26 9.4739e-13
-3.31587e-13 9.4739e-13 114.582

525.277 14.3315 -1.18246e-12
14.3315 474.749 1.77636e-13
-1.18246e-12 1.77636e-13 502.351

556.825 25.5354 1.49184e-12
25.5354 541.209 1.66741e-12
1.49184e-12 1.66741e-12 533.481

492.136 6.60671 1.65497e-12
6.60671 439.16 -2.29143e-12
1.65497e-12 -2.29143e-12 471.443

470.342 21.7868 4.59484e-13
21.7868 424.555 4.40803e-12
4.59484e-13 4.40803e-12 438.233

410.013 17.7465 -4.53356e-12
17.7465 461.116 -5.36697e-12
-4.53356e-12 -5.36697e-12 425.082

448.052 28.9017 3.90266e-12
28.9017 424.745 7.41333e-13
3.90266e-12 7.41333e-13 420.788

487.189 -29.6653 4.92643e-13
-29.6653 465.667 1.61471e-12
4.92643e-13 1.61471e-12 474.629

449.409 28.0309 3.05474e-12
28.0309 421.11 5.35394e-12
3.05474e-12 5.35394e-12 418.68

403 -2.84178 1.62848e-12
-2.84178 465.425 2.93099e-12
1.62848e-12 2.93099e-12 417.579

555.831 -26.0963 1.02733e-13
-26.0963 543.402 2.11979e-13
1.02733e-13 2.11979e-13 533.725

405.538 -4.86316 -4.76804e-12
-4.86316 467.163 -3.62377e-13
-4.76804e-12 -3.62377e-13 420.638

522.328 23.0176 3.93818e-12
23.0176 499.778 -8.92175e-13
3.93818e-12 -8.92175e-13 508.006

423.418 26.874 -1.12976e-12
26.874 386.543 1.50398e-12
-1.12976e-12 1.50398e-12 373.062

480.149 -13.2163 -8.02188e-12
-13.2163 532.804 5.01614e-12
-8.02188e-12 5.01614e-12 512.038

484.241 13.7292 -5.18045e-12
13.7292 432.815 1.26565e-12
-5.18045e-12 1.26565e-12 456.915

457.41 -29.9905 1.88116e-12
-29.9905 437.016 5.82142e-12
1.88116e-12 5.82142e-12 437.872

454.351 -24.716 1.66859e-12
-24.716 416.842 -5.84037e-12
1.66859e-12 -5.84037e-12 419.891

547.436 -16.0763 1.52796e-12
-16.0763 509.338 -1.22006e-12
1.52796e-12 -1.22006e-12 519.418

476.014 27.9311 -2.29387e-12
27.9311 449.745 -5.73763e-13
-2.29387e-12 -5.73763e-13 456.965

469.143 23.9799 1.15996e-12
23.9799 427.888 1.8332e-12
1.15996e-12 1.8332e-12 439.869

432.466 -2.79279 -1.6972e-12
-2.79279 493.68 2.90849e-12
-1.6972e-12 2.90849e-12 457.146

417.645 5.87373 1.35259e-12
5.87373 479.601 -2.74625e-12
1.35259e-12 -2.74625e-12 440.216

463.056 2.647 -9.56272e-13
2.647 402.317 -4.28935e-12
-9.56272e-13 -4.28935e-12 422.36

438.69 -7.29057 -1.47911e-12
-7.29057 373.949 -3.38396e-12
-1.47911e-12 -3.38396e-12 381.254

454.885 30.4877 3.55686e-12
30.4877 439.055 5.33854e-12
3.55686e-12 5.33854e-12 437.876

478.507 -26.1578 -6.98108e-13
-26.1578 443.582 7.82012e-12
-6.98108e-13 7.82012e-12 454.686

525.738 -21.2547 -5.67191e-12
-21.2547 497.864 3.54502e-12
-5.67191e-12 3.54502e-12 508.655

437.773 -31.6371 -3.55567e-12
-31.6371 437.696 -2.52065e-12
-3.55567e-12 -2.52065e-12 426.898

417.629 -27.7889 -6.21725e-14
-27.7889 444.438 -2.6373e-12
-6.21725e-14 -2.6373e-12 419.727

430.687 29.8906 4.40714e-12
29.8906 442.786 -9.14232e-13
4.40714e-12 -9.14232e-13 426.536

416.263 -9.57885 2.41636e-12
-9.57885 475.255 -6.97516e-13
2.41636e-12 -6.97516e-13 436.494

428.933 -1.54535 -1.05974e-12
-1.54535 491.912 -5.83533e-12
-1.05974e-12 -5.83533e-12 454.034

445.219 5.74773 -2.60253e-12
5.74773 508.085 2.47683e-12
-2.60253e-12 2.47683e-12 474.953

414.657 -21.0916 2.66661e-12
-21.0916 458.451 3.06185e-12
2.66661e-12 3.06185e-12 426.104

496.91 24.1131 -1.82965e-12
24.1131 455.735 1.16973e-12
-1.82965e-12 1.16973e-12 474.632

483.417 -9.59065 1.28608e-12
-9.59065 430.151 -8.98985e-13
1.28608e-12 -8.98985e-13 455.261

415.671 7.46589 1.99857e-12
7.46589 477.165 4.98564e-13
1.99857e-12 4.98564e-13 436.952

443.993 -9.70141 -4.50584e-12
-9.70141 501.546 -3.9672e-14
-4.50584e-12 -3.9672e-14 471.047

433.213 -16.3322 5.99816e-13
-16.3322 481.72 -4.97202e-12
5.99816e-13 -4.97202e-12 455.708

463.584 -8.24008 1.58096e-12
-8.24008 406.372 -9.0535e-13
1.58096e-12 -9.0535e-13 421.51

494.473 -32.3468 -7.16464e-13
-32.3468 487.656 4.93353e-12
-7.16464e-13 4.93353e-12 496.289

422.983 9.32218 -7.1186e-12
9.32218 479.135 -1.80123e-12
-7.1186e-12 -1.80123e-12 441.019

564.385 -18.2131 -1.24671e-12
-18.2131 529.98 -2.27551e-12
-1.24671e-12 -2.27551e-12 531.863

309.075 24.8257 -4.6807e-12
24.8257 379.458 2.98665e-12
-4.6807e-12 2.98665e-12 289.824

501.737 -26.6272 -4.35948e-12
-26.6272 499.526 7.56432e-13
-4.35948e-12 7.56432e-13 501.237

515.686 -30.203 -1.84919e-12
-30.203 498.438 1.21414e-12
-1.84919e-12 1.21414e-12 504.955

429.261 -0.700939 2.87459e-12
-0.700939 492.037 -6.19712e-12
2.87459e-12 -6.19712e-12 454.185

474.926 -16.6239 4.51491e-12
-16.6239 428.376 3.8766e-12
4.51491e-12 3.8766e-12 441.996

462.343 12.8419 -1.41774e-12
12.8419 511.316 -1.78701e-12
-1.41774e-12 -1.78701e-12 489.16

240.795 -3.18121 -3.1916e-12
-3.18121 360.719 1.73846e-12
-3.1916e-12 1.73846e-12 226.986

432.443 14.2749 6.77532e-13
14.2749 485.4 1.95103e-12
6.77532e-13 1.95103e-12 456.923

458.154 -29.4923 -3.87956e-12
-29.4923 443.212 -3.51837e-12
-3.87956e-12 -3.51837e-12 440.802

304.212 25.108 -7.24458e-12
25.108 394.619 -2.56269e-12
-7.24458e-12 -2.56269e-12 264.365

603.566 26.0949 -6.27957e-12
26.0949 597.971 -3.6892e-12
-6.27957e-12 -3.6892e-12 558.183

608.299 -27.8039 1.04481e-11
-27.8039 595.046 1.83113e-12
1.04481e-11 1.83113e-12 558.317

463.535 -30.4216 -1.81662e-12
-30.4216 459.079 2.04725e-12
-1.81662e-12 2.04725e-12 459.113

434.625 -31.1638 -2.54256e-12
-31.1638 436.401 -4.56642e-12
-2.54256e-12 -4.56642e-12 424.702

474.146 20.8293 -6.5666e-13
20.8293 431.955 1.99159e-12
-6.5666e-13 1.99159e-12 444.013

465.267 15.0078 -8.44362e-13
15.0078 410.155 5.36341e-12
-8.44362e-13 5.36341e-12 427.503

646.075 3.08156 6.82928e-12
3.08156 645.733 4.60713e-12
6.82928e-12 4.60713e-12 574.642

649.895 -6.99721 -1.69647e-11
-6.99721 641.404 1.83512e-11
-1.69647e-11 1.83512e-11 575.17

497.034 4.82419 -1.65379e-12
4.82419 442.077 2.1864e-13
-1.65379e-12 2.1864e-13 477.455

443.597 6.73198 -1.94837e-12
6.73198 503.032 2.74329e-12
-1.94837e-12 2.74329e-12 471.09

442.01 6.73642 4.17681e-12
6.73642 502.558 2.82204e-12
4.17681e-12 2.82204e-12 469.813

321.563 58.6403 -7.13859e-12
58.6403 281.146 2.57216e-12
-7.13859e-12 2.57216e-12 225.097

420.268 -28.2032 -7.08174e-13
-28.2032 444.066 -8.98837e-13
-7.08174e-13 -8.98837e-13 421.071

520.618 17.9741 -2.78148e-12
17.9741 467.57 -1.63839e-12
-2.78148e-12 -1.63839e-12 499.549

473.025 9.54053 -1.66385e-12
9.54053 421.237 2.67949e-12
-1.66385e-12 2.67949e-12 436.243

440.672 -26.7263 -7.6561e-13
-26.7263 450.77 -1.84327e-12
-7.6561e-13 -1.84327e-12 433.456

469.321 -20.2398 -4.41721e-13
-20.2398 422.755 -8.60497e-12
-4.41721e-13 -8.60497e-12 437.216

312.5 60.2382 6.99174e-12
60.2382 281.395 -8.81784e-12
6.99174e-12 -8.81784e-12 223.235

492.721 31.07 1.06581e-14
31.07 489.08 7.93735e-13
1.06581e-14 7.93735e-13 493.177

410.901 -19.7885 -3.56219e-12
-19.7885 457.926 2.19262e-12
-3.56219e-12 2.19262e-12 423.538

474.171 28.8602 3.09501e-12
28.8602 449.672 -4.74287e-12
3.09501e-12 -4.74287e-12 456.559

430.995 -4.14559 5.4845e-13
-4.14559 493.017 1.76215e-12
5.4845e-13 1.76215e-12 456.508

423.97 19.6115 1.69701e-12
19.6115 465.756 2.14702e-12
1.69701e-12 2.14702e-12 434.148

452.79 30.522 -3.98496e-12
30.522 443.639 -5.0715e-12
-3.98496e-12 -5.0715e-12 439.648

428.684 -22.4759 5.3421e-12
-22.4759 461.181 5.09755e-12
5.3421e-12 5.09755e-12 433.853

443.616 -27.3556 -2.11268e-12
-27.3556 450.476 1.45069e-13
-2.11268e-12 1.45069e-13 435.086

294.803 11.2582 4.38286e-12
11.2582 372.619 5.44986e-12
4.38286e-12 5.44986e-12 258.125

357.331 -33.4603 -8.50283e-13
-33.4603 389.154 3.82272e-12
-8.50283e-13 3.82272e-12 314.158

419.696 -11.6917 -3.43658e-12
-11.6917 476.406 -8.19907e-12
-3.43658e-12 -8.19907e-12 439.385

478.44 26.4871 -3.00441e-12
26.4871 446.839 4.47109e-12
-3.00441e-12 4.47109e-12 456.124

452.387 29.4809 -5.53394e-12
29.4809 449.069 -3.56396e-12
-5.53394e-12 -3.56396e-12 442.44

426.849 -21.4365 -9.76996e-15
-21.4365 461.828 2.30808e-12
-9.76996e-15 2.30808e-12 432.671

422.97 -11.7839 -1.44299e-12
-11.7839 476.692 -1.09246e-12
-1.44299e-12 -1.09246e-12 439.969

457.749 28.4125 3.93996e-12
28.4125 447.129 -3.09797e-12
3.93996e-12 -3.09797e-12 442.611

425.145 -13.8795 -3.77239e-12
-13.8795 476.464 -4.97735e-12
-3.77239e-12 -4.97735e-12 442.146

311.292 27.8585 2.69473e-12
27.8585 377.426 -3.3656e-12
2.69473e-12 -3.3656e-12 290.011

485.204 -4.04047 -3.55965e-12
-4.04047 545.085 -1.77162e-12
-3.55965e-12 -1.77162e-12 511.073

433.026 31.0312 1.8486e-12
31.0312 439.67 -3.43133e-12
1.8486e-12 -3.43133e-12 426.059

509.351 14.9025 1.94807e-12
14.9025 463.201 -2.59022e-12
1.94807e-12 -2.59022e-12 488.645

516.96 -15.9289 -2.7498e-12
-15.9289 467.62 -1.7204e-12
-2.7498e-12 -1.7204e-12 493.962

383.961 -24.2074 3.55508e-12
-24.2074 305.974 -9.61838e-12
3.55508e-12 -9.61838e-12 285.381

442.32 -21.269 3.25636e-12
-21.269 476.044 -4.62623e-12
3.25636e-12 -4.62623e-12 459.362

447.87 26.7007 -4.47227e-12
26.7007 466.251 -2.27433e-12
-4.47227e-12 -2.27433e-12 457.883

523.009 -21.7275 -1.44211e-12
-21.7275 543.841 3.24663e-12
-1.44211e-12 3.24663e-12 525.343

579.601 14.1039 -6.51775e-13
14.1039 617.634 2.22015e-12
-6.51775e-13 2.22015e-12 557.079

620.22 9.4452 1.11925e-12
9.4452 576.86 -1.06907e-12
1.11925e-12 -1.06907e-12 556.897

523.504 32.7043 8.46434e-13
32.7043 520.683 -3.50875e-12
8.46434e-13 -3.50875e-12 519.559

414.93 26.0036 1.90425e-12
26.0036 448.949 2.15531e-13
1.90425e-12 2.15531e-13 420.416

478.138 26.6635 -2.51295e-12
26.6635 444.809 -3.49853e-12
-2.51295e-12 -3.49853e-12 455.547

332.393 45.1914 -2.49045e-12
45.1914 349.521 -9.13047e-13
-2.49045e-12 -9.13047e-13 286.767

571.409 -11.3414 -7.97806e-12
-11.3414 614.486 -1.53033e-12
-7.97806e-12 -1.53033e-12 554.622

641.332 -3.43169 -3.78161e-12
-3.43169 636.879 8.3995e-12
-3.78161e-12 8.3995e-12 572.419

634.913 -0.208949 1.49895e-12
-0.208949 643.182 7.46647e-12
1.49895e-12 7.46647e-12 572.246

272.986 -53.8079 -2.17544e-12
-53.8079 316.474 -8.28967e-13
-2.17544e-12 -8.28967e-13 220.929

566.665 -11.599 -3.96305e-12
-11.599 562.148 3.45679e-12
-3.96305e-12 3.45679e-12 540.929

563.792 8.81154 1.33893e-12
8.81154 586.984 -5.59552e-12
1.33893e-12 -5.59552e-12 546.869

478.287 -26.2014 -2.68467e-12
-26.2014 440.481 -3.28508e-12
-2.68467e-12 -3.28508e-12 453.521

494.382 1.01012 4.94123e-13
1.01012 545.794 4.6955e-13
4.94123e-13 4.6955e-13 514.092

447.692 -20.2696 -2.48305e-12
-20.2696 484.202 -6.0935e-12
-2.48305e-12 -6.0935e-12 470.678

506.344 6.25554 -2.21038e-12
6.25554 443.417 4.65628e-13
-2.21038e-12 4.65628e-13 486.166

461.314 15.5962 -2.51094e-12
15.5962 521.292 -2.00847e-12
-2.51094e-12 -2.00847e-12 497.595

471.217 7.19108 -1.13935e-12
7.19108 528.044 -5.28348e-12
-1.13935e-12 -5.28348e-12 497.728

493.805 20.3947 1.46313e-12
20.3947 451.556 -2.16123e-14
1.46313e-12 -2.16123e-14 469.79

241.084 -3.11391 3.41727e-12
-3.11391 358.591 1.7053e-13
3.41727e-12 1.7053e-13 227.084

463.742 -27.6263 1.19075e-12
-27.6263 463.434 6.03961e-14
1.19075e-12 6.03961e-14 461.231

488.385 -26.1183 2.6823e-12
-26.1183 481.637 -3.68624e-12
2.6823e-12 -3.68624e-12 485.908

497.577 -31.4837 -3.50446e-12
-31.4837 489.998 7.66927e-12
-3.50446e-12 7.66927e-12 499.019

355.631 32.7532 1.23161e-13
32.7532 285.802 3.55271e-15
1.23161e-13 3.55271e-15 248.389

563.906 -20.1156 2.5994e-13
-20.1156 569.635 -2.39594e-12
2.5994e-13 -2.39594e-12 542.6

337.676 54.3274 -7.00121e-12
54.3274 356.688 -4.47168e-12
-7.00121e-12 -4.47168e-12 258.898

477.11 -21.4388 -5.89721e-12
-21.4388 506.53 -8.19789e-13
-5.89721e-12 -8.19789e-13 500.283

504.816 14.6506 1.18187e-12
14.6506 452.027 -3.10566e-13
1.18187e-12 -3.10566e-13 481.6

449.874 -14.5741 -5.60145e-13
-14.5741 397.023 9.87654e-13
-5.60145e-13 9.87654e-13 400.878

452.636 24.0483 -1.21621e-12
24.0483 478.824 -3.42304e-12
-1.21621e-12 -3.42304e-12 467.889

493.709 20.4291 -1.53951e-12
20.4291 449.54 5.19318e-12
-1.53951e-12 5.19318e-12 469.382

505.596 11.3992 1.34455e-12
11.3992 564.445 -2.43805e-12
1.34455e-12 -2.43805e-12 526.744

475.937 -31.5818 1.21503e-12
-31.5818 470.398 -8.4673e-13
1.21503e-12 -8.4673e-13 475.104

559.298 19.8122 2.98842e-12
19.8122 510.471 -6.42449e-13
2.98842e-12 -6.42449e-13 526.52

439.999 -18.4451 -5.61862e-12
-18.4451 482.509 -5.22782e-12
-5.61862e-12 -5.22782e-12 459.19

465.935 4.28395 2.90557e-13
4.28395 526.147 -5.52151e-12
2.90557e-13 -5.52151e-12 495.548

588.66 9.9277 1.49244e-12
9.9277 552.486 4.72363e-13
1.49244e-12 4.72363e-13 545.217

590.443 -8.51449 -7.3482e-13
-8.51449 554.827 5.05773e-12
-7.3482e-13 5.05773e-12 545.735

382.345 18.5144 -1.92557e-12
18.5144 302.313 1.03917e-12
-1.92557e-12 1.03917e-12 286.16

502.721 7.96575 -2.5698e-12
7.96575 453.64 -1.89093e-12
-2.5698e-12 -1.89093e-12 487.805

232.832 7.7415 7.06339e-12
7.7415 381.544 1.87583e-12
7.06339e-12 1.87583e-12 187.202

237.002 -11.3863 9.58641e-13
-11.3863 387.237 -6.30488e-12
9.58641e-13 -6.30488e-12 189.466

249.305 56.4105 -4.52379e-12
56.4105 354.803 3.66166e-12
-4.52379e-12 3.66166e-12 184.038

505.053 -28.9517 -2.8096e-12
-28.9517 478.654 -2.85934e-12
-2.8096e-12 -2.85934e-12 491.382

258.493 -49.1953 -5.41078e-12
-49.1953 341.87 9.71075e-14
-5.41078e-12 9.71075e-14 220.753

249.31 -55.9531 -2.67401e-12
-55.9531 344.777 -7.19543e-12
-2.67401e-12 -7.19543e-12 181.131

434.695 26.223 3.51423e-12
26.223 454.435 -7.33635e-13
3.51423e-12 -7.33635e-13 432.864

329.948 73.8486 8.79652e-12
73.8486 280.03 -1.15368e-11
8.79652e-12 -1.15368e-11 184.843

540.154 13.0463 6.80315e-12
13.0463 554.977 1.49421e-12
6.80315e-12 1.49421e-12 532.109

562.412 0.0415755 5.43506e-12
0.0415755 532.482 -1.25529e-13
5.43506e-12 -1.25529e-13 531.902

338.627 -73.1339 9.37916e-13
-73.1339 279.878 9.73444e-13
9.37916e-13 9.73444e-13 186.325

432.709 -23.4263 6.55772e-13
-23.4263 466.353 2.8552e-12
6.55772e-13 2.8552e-12 447.612

358.962 34.7327 3.64982e-12
34.7327 311.001 9.10679e-13
3.64982e-12 9.10679e-13 258.061

267.725 63.4952 1.12882e-11
63.4952 345.235 1.7953e-12
1.12882e-11 1.7953e-12 185.86

293.717 21.6324 8.10848e-12
21.6324 367.693 6.56778e-12
8.10848e-12 6.56778e-12 254.52

267.596 -65.9242 -4.48826e-12
-65.9242 344.87 -3.53377e-12
-4.48826e-12 -3.53377e-12 184.316

291.664 -12.3823 -2.82204e-12
-12.3823 370.915 6.87805e-12
-2.82204e-12 6.87805e-12 253.466

550.33 6.83962 -8.35724e-12
6.83962 582.102 2.47979e-12
-8.35724e-12 2.47979e-12 541.147

329.918 -45.9798 1.7207e-12
-45.9798 341.846 -1.71122e-12
1.7207e-12 -1.71122e-12 276.64

259.802 47.5365 8.17006e-12
47.5365 340.245 -2.0132e-13
8.17006e-12 -2.0132e-13 223.165

370.243 37.9142 -1.88057e-12
37.9142 244.938 8.12032e-12
-1.88057e-12 8.12032e-12 187.372

481.931 -29.2879 2.7196e-12
-29.2879 460.552 -5.23877e-12
2.7196e-12 -5.23877e-12 467.753

481.012 12.8962 1.63336e-12
12.8962 525.867 4.0649e-12
1.63336e-12 4.0649e-12 504.141

354.449 -38.1163 5.21065e-14
-38.1163 300.102 2.79243e-12
5.21065e-14 2.79243e-12 251.837

482.575 -28.8041 6.47186e-13
-28.8041 460.359 3.58883e-12
6.47186e-13 3.58883e-12 468.502

365.29 -36.346 4.55221e-12
-36.346 231.005 -6.95444e-12
4.55221e-12 -6.95444e-12 182.785

481.543 -28.3194 2.16834e-12
-28.3194 472.794 -4.07674e-12
2.16834e-12 -4.07674e-12 477.957

436.393 -25.2975 3.65249e-12
-25.2975 466.267 1.27957e-12
3.65249e-12 1.27957e-12 448.25

314.821 69.465 1.42109e-13
69.465 292.163 1.34695e-11
1.42109e-13 1.34695e-11 184.539

290.806 -22.9351 -2.8102e-12
-22.9351 359.195 2.85875e-12
-2.8102e-12 2.85875e-12 247.051

312.422 -71.6972 7.91071e-13
-71.6972 288.143 7.17174e-12
7.91071e-13 7.17174e-12 182.041

268.568 50.7421 -1.12976e-11
50.7421 320.086 -1.80004e-12
-1.12976e-11 -1.80004e-12 221.524

459.902 -30.2148 -2.70598e-13
-30.2148 454.886 -4.44563e-12
-2.70598e-13 -4.44563e-12 454.44

559.315 -14.641 3.37893e-12
-14.641 544.438 7.02075e-12
3.37893e-12 7.02075e-12 533.748

635.928 11.0906 -2.09048e-12
11.0906 631.393 -1.63321e-12
-2.09048e-12 -1.63321e-12 570.042

619.968 -5.16037 5.18652e-12
-5.16037 639.744 -3.20873e-13
5.18652e-12 -3.20873e-13 568.52

453.907 13.084 1.96313e-12
13.084 506.596 -3.16784e-13
1.96313e-12 -3.16784e-13 482.611

634.158 -10.6649 1.8297e-11
-10.6649 631.323 5.84495e-12
1.8297e-11 5.84495e-12 569.897

622.706 4.09231 3.22409e-13
4.09231 642.69 1.27329e-11
3.22409e-13 1.27329e-11 569.721

643.381 7.43141 -6.78731e-12
7.43141 619.157 -9.83732e-12
-6.78731e-12 -9.83732e-12 569.044

584.792 -12.1126 1.92809e-14
-12.1126 631.678 -7.81893e-13
1.92809e-14 -7.81893e-13 560.618

307.47 -30.4736 1.64195e-12
-30.4736 371.667 -6.06803e-12
1.64195e-12 -6.06803e-12 280.795

589.645 -12.9721 -9.43778e-12
-12.9721 549.137 4.38967e-12
-9.43778e-12 4.38967e-12 543.855

527.239 -34.4161 2.1864e-12
-34.4161 521.518 -1.90011e-12
2.1864e-12 -1.90011e-12 519.999

565.489 -18.1775 -1.97353e-12
-18.1775 538.018 5.67694e-13
-1.97353e-12 5.67694e-13 534.289

502.611 15.4605 2.50466e-13
15.4605 452.154 7.58327e-12
2.50466e-13 7.58327e-12 480.246

586.364 9.86247 6.2006e-13
9.86247 642.143 1.57505e-11
6.2006e-13 1.57505e-11 563.127

636.665 19.2252 -2.7911e-12
19.2252 591.737 -2.26108e-12
-2.7911e-12 -2.26108e-12 562.949

569.8 11.3082 3.13912e-12
11.3082 544.366 -7.00566e-12
3.13912e-12 -7.00566e-12 536.466

353.472 -15.3412 -6.39252e-12
-15.3412 231.534 -5.18578e-12
-6.39252e-12 -5.18578e-12 219.033

437.246 24.9667 6.06359e-12
24.9667 461.955 1.62833e-13
6.06359e-12 1.62833e-13 445.762

317.116 -61.3605 8.47914e-13
-61.3605 277.871 -2.57453e-12
8.47914e-13 -2.57453e-12 218.108

334.236 -57.4623 1.62477e-12
-57.4623 357.352 3.28744e-12
1.62477e-12 3.28744e-12 252.562

383.366 -36.5475 -2.224e-12
-36.5475 305.764 -4.29642e-12
-2.224e-12 -4.29642e-12 257.783

562.518 -5.15868 1.41442e-12
-5.15868 616.965 6.51538e-12
1.41442e-12 6.51538e-12 552.977

562.225 2.89138 -8.34592e-13
2.89138 615.83 -4.30337e-12
-8.34592e-13 -4.30337e-12 552.575

598.786 -24.4528 2.88658e-12
-24.4528 575.763 -4.20819e-12
2.88658e-12 -4.20819e-12 551.605

602.345 -21.7568 4.4517e-12
-21.7568 573.453 -3.05237e-13
4.4517e-12 -3.05237e-13 551.871

598.798 26.1321 -1.56882e-12
26.1321 580.477 1.02851e-12
-1.56882e-12 1.02851e-12 552.76

625.752 3.097 1.57547e-11
3.097 630.743 1.66489e-11
1.57547e-11 1.66489e-11 568.443

599.076 -20.5062 -4.08858e-12
-20.5062 576.374 6.65172e-13
-4.08858e-12 6.65172e-13 552.294

607.824 -18.5662 6.81618e-12
-18.5662 620.272 -7.37247e-12
6.81618e-12 -7.37247e-12 563.209

632.909 2.4327 9.91281e-12
2.4327 635.533 -6.82032e-12
9.91281e-12 -6.82032e-12 570.528

607.901 -20.523 3.84004e-12
-20.523 572.446 -3.07014e-12
3.84004e-12 -3.07014e-12 553.432

607.087 20.9525 -2.06427e-12
20.9525 573.704 3.18619e-12
-2.06427e-12 3.18619e-12 553.836

633.86 -3.45659 5.5825e-12
-3.45659 636.783 -1.93737e-11
5.5825e-12 -1.93737e-11 571.302

632.19 -3.11447 -1.4958e-11
-3.11447 625.766 3.1443e-12
-1.4958e-11 3.1443e-12 569.417

609.695 12.1093 -6.51612e-12
12.1093 620.494 9.22373e-12
-6.51612e-12 9.22373e-12 563.94

587.221 26.9266 4.04773e-12
26.9266 583.036 -5.09764e-12
4.04773e-12 -5.09764e-12 551.729

FIELD solute_concentration_TPM 2
S_ext 1 563 float
0.832137
0.831983
0.831998
0.831984
0.831967
0.831998
0.832136
0.831992
0.832011
0.831987
0.832104
0.831992
0.831995
0.831986
0.831971
0.831997
0.831981
0.831991
0.832014
0.832
0.832005
0.831938
0.832002
0.832001
0.832
0.831988
0.832096
0.831997
0.832052
0.831953
0.831995
0.832051
0.8321
0.831958
0.831957
0.831957
0.83195
0.831958
0.831996
0.832099
0.832052
0.831949
0.831949
0.831995
0.832079
0.832051
0.832012
0.832009
0.831998
0.832059
0.832055
0.832039
0.831965
0.83204
0.831966
0.832083
0.831957
0.832039
0.831956
0.831999
0.83198
0.831975
0.832092
0.831977
0.831975
0.831984
0.831979
0.831988
0.832001
0.831983
0.831966
0.831966
0.832052
0.831982
0.831998
0.832102
0.831972
0.831984
0.831988
0.832033
0.832066
0.831964
0.831978
0.832068
0.832051
0.832081
0.831997
0.831984
0.832078
0.831944
0.832039
0.831945
0.831971
0.831986
0.832039
0.832054
0.832067
0.831986
0.831972
0.831996
0.832025
0.832049
0.832068
0.831988
0.831988
0.831986
0.831977
0.831997
0.832068
0.83198
0.831999
0.832076
0.832071
0.831989
0.831987
0.83204
0.831959
0.832069
0.831959
0.832039
0.832017
0.831971
0.831983
0.83198
0.83198
0.83197
0.831961
0.831986
0.832068
0.832039
0.831965
0.831983
0.831977
0.831983
0.832049
0.831956
0.832076
0.831994
0.831977
0.831956
0.832046
0.83199
0.832017
0.831986
0.83207
0.831987
0.831992
0.832
0.831998
0.832027
0.832008
0.831983
0.83205
0.831994
0.831986
0.831983
0.831985
0.832046
0.832046
0.831992
0.832008
0.83205
0.832078
0.832053
0.832045
0.831986
0.832046
0.832047
0.832051
0.832045
0.83197
0.832039
0.832054
0.831984
0.832039
0.831977
0.83197
0.831993
0.831966
0.831989
0.832052
0.831986
0.831986
0.832046
0.831983
0.832055
0.83198
0.831979
0.831972
0.831986
0.831983
0.832066
0.832039
0.832051
0.831983
0.83199
0.831989
0.831977
0.831983
0.831985
0.831983
0.832013
0.832033
0.831977
0.832053
0.831977
0.831986
0.832048
0.831975
0.831983
0.831976
0.831988
0.831988
0.831978
0.832026
0.831987
0.832032
0.831978
0.83198
0.83198
0.83198
0.83198
0.83198
0.83198
0.831987
0.831971
0.831971
0.83197
0.831971
0.831968
0.831967
0.832027
0.831986
0.831983
0.83201
0.831972
0.831971
0.831983
0.832032
0.831982
0.831986
0.832026
0.831975
0.832027
0.831978
0.831982
0.832026
0.832031
0.832067
0.83206
0.831977
0.832072
0.831995
0.832032
0.832014
0.831983
0.83198
0.831951
0.83198
0.832075
0.832032
0.831982
0.831992
0.832033
0.83198
0.832017
0.831951
0.832032
0.83198
0.831982
0.831989
0.831972
0.831985
0.831967
0.831993
0.832077
0.832082
0.831971
0.832003
0.831992
0.832029
0.831975
0.831984
0.832031
0.831986
0.832024
0.831992
0.832025
0.832032
0.831946
0.831969
0.83197
0.83197
0.831986
0.832024
0.831958
0.831982
0.832008
0.832023
0.832028
0.831969
0.832026
0.831973
0.832027
0.832079
0.832024
0.832071
0.831978
0.832026
0.831945
0.832026
0.83198
0.832027
0.831981
0.832026
0.831998
0.832098
0.831998
0.832027
0.831968
0.832027
0.832008
0.831983
0.831982
0.832026
0.832024
0.832017
0.83198
0.832024
0.831993
0.831997
0.831968
0.832024
0.832018
0.832006
0.832017
0.832025
0.832016
0.831977
0.831992
0.832017
0.832027
0.83199
0.83199
0.832024
0.831968
0.832109
0.832
0.832067
0.832006
0.832159
0.832159
0.832157
0.832157
0.832155
0.832163
0.832163
0.831978
0.831962
0.831992
0.832008
0.832013
0.832017
0.831991
0.832017
0.832018
0.831963
0.832017
0.831976
0.832039
0.831971
0.831999
0.832008
0.832017
0.831971
0.831999
0.832007
0.831999
0.832007
0.832015
0.832034
0.832008
0.832
0.831975
0.832013
0.832016
0.832013
0.832008
0.832
0.83199
0.832013
0.831991
0.832
0.832008
0.831992
0.831999
0.832016
0.83198
0.832007
0.831962
0.832078
0.831978
0.831977
0.832
0.832007
0.831984
0.832109
0.831998
0.832007
0.832097
0.831949
0.831949
0.831998
0.832014
0.832006
0.832013
0.83194
0.831939
0.831989
0.831992
0.831993
0.832113
0.832015
0.83198
0.83201
0.832011
0.832008
0.832109
0.831982
0.832014
0.831999
0.831999
0.83201
0.832007
0.83201
0.83201
0.832098
0.83207
0.832007
0.832
0.832006
0.832011
0.832007
0.832006
0.832006
0.83208
0.831973
0.832013
0.831984
0.831981
0.832081
0.831998
0.831998
0.831968
0.831944
0.831944
0.831969
0.832016
0.832
0.832082
0.831945
0.831937
0.831937
0.832111
0.831958
0.831952
0.832001
0.831972
0.831992
0.831985
0.831979
0.83198
0.831994
0.832109
0.831997
0.831986
0.83198
0.832103
0.831955
0.832102
0.831978
0.831988
0.832026
0.831994
0.831994
0.831964
0.83199
0.831964
0.831998
0.831981
0.831955
0.831956
0.832083
0.831984
0.832138
0.832139
0.832138
0.831983
0.832114
0.832139
0.832011
0.832138
0.831963
0.831963
0.832138
0.832003
0.832101
0.832142
0.8321
0.832142
0.8321
0.831957
0.832087
0.832113
0.832136
0.831994
0.831976
0.832102
0.831994
0.832137
0.831989
0.832003
0.832143
0.832103
0.832143
0.83211
0.832
0.831961
0.831936
0.831937
0.831986
0.831937
0.831936
0.831937
0.831943
0.832084
0.831954
0.83197
0.831963
0.831988
0.831943
0.831942
0.831962
0.83211
0.832004
0.832116
0.832106
0.832099
0.831946
0.831946
0.831947
0.831947
0.831945
0.83194
0.83195
0.831944
0.831941
0.831949
0.831948
0.83194
0.831939
0.831943
0.831949
P_ext 1 563 float
0.0129178
0.0129146
0.012915
0.0129146
0.0129134
0.012915
0.0129177
0.0129148
0.0129154
0.0129146
0.0129172
0.0129148
0.0129149
0.0129146
0.0129137
0.012915
0.0129143
0.0129148
0.0129155
0.0129151
0.0129152
0.0129113
0.0129151
0.0129151
0.0129151
0.0129147
0.0129171
0.0129149
0.0129163
0.0129124
0.0129149
0.0129163
0.0129171
0.0129128
0.0129127
0.0129128
0.0129123
0.0129128
0.0129149
0.0129171
0.0129163
0.0129123
0.0129123
0.0129149
0.0129168
0.0129163
0.0129154
0.0129153
0.012915
0.0129164
0.0129163
0.012916
0.0129134
0.0129161
0.0129134
0.0129169
0.0129127
0.012916
0.0129127
0.0129151
0.0129143
0.012914
0.012917
0.0129141
0.012914
0.0129144
0.0129143
0.0129147
0.0129151
0.0129145
0.0129134
0.0129134
0.0129163
0.0129143
0.012915
0.0129172
0.0129138
0.0129144
0.0129147
0.0129159
0.0129166
0.0129133
0.0129141
0.0129166
0.0129163
0.0129168
0.0129149
0.0129143
0.0129168
0.0129114
0.012916
0.0129114
0.0129137
0.0129144
0.012916
0.0129163
0.0129166
0.0129146
0.0129138
0.0129149
0.0129157
0.0129162
0.0129166
0.0129147
0.0129146
0.0129147
0.0129141
0.012915
0.0129166
0.0129144
0.012915
0.0129167
0.0129166
0.0129147
0.0129147
0.0129161
0.0129127
0.0129166
0.0129127
0.012916
0.0129155
0.0129138
0.0129145
0.0129143
0.0129143
0.0129137
0.0129129
0.0129146
0.0129166
0.012916
0.0129133
0.0129146
0.0129142
0.0129145
0.0129162
0.0129127
0.0129168
0.0129149
0.0129141
0.0129127
0.0129162
0.0129146
0.0129155
0.0129146
0.0129166
0.0129147
0.0129147
0.012915
0.012915
0.0129158
0.0129153
0.0129145
0.0129163
0.0129149
0.0129146
0.0129145
0.0129145
0.0129162
0.0129162
0.0129149
0.0129153
0.0129162
0.0129168
0.0129163
0.0129161
0.0129147
0.0129162
0.0129162
0.0129163
0.0129162
0.0129136
0.012916
0.0129163
0.0129145
0.012916
0.0129141
0.0129137
0.0129147
0.0129134
0.0129146
0.0129163
0.0129146
0.0129146
0.0129162
0.0129144
0.0129164
0.0129143
0.0129141
0.0129137
0.0129146
0.0129143
0.0129166
0.012916
0.0129163
0.0129145
0.0129148
0.0129147
0.0129142
0.0129145
0.0129144
0.0129145
0.0129154
0.0129159
0.0129142
0.0129163
0.0129141
0.0129144
0.0129162
0.0129139
0.0129145
0.0129139
0.0129146
0.0129147
0.0129141
0.0129157
0.0129145
0.0129159
0.0129142
0.0129143
0.0129143
0.0129144
0.0129144
0.0129144
0.0129144
0.0129146
0.0129138
0.0129138
0.0129137
0.0129137
0.0129134
0.0129134
0.0129158
0.0129145
0.0129145
0.0129154
0.0129137
0.0129137
0.0129145
0.0129159
0.0129145
0.0129146
0.0129158
0.0129139
0.0129158
0.0129141
0.0129145
0.0129157
0.0129159
0.0129166
0.0129164
0.0129142
0.0129167
0.0129149
0.0129159
0.0129154
0.0129146
0.0129143
0.0129123
0.0129144
0.0129167
0.0129159
0.0129145
0.0129148
0.0129159
0.0129143
0.0129155
0.0129123
0.0129159
0.0129143
0.0129143
0.0129148
0.0129137
0.0129144
0.0129134
0.0129149
0.0129167
0.0129168
0.0129136
0.0129152
0.0129148
0.0129158
0.0129139
0.0129145
0.0129159
0.0129145
0.0129157
0.0129147
0.0129157
0.0129159
0.0129118
0.0129136
0.0129137
0.0129137
0.0129146
0.0129157
0.0129128
0.0129144
0.0129153
0.0129157
0.0129158
0.0129136
0.0129158
0.0129137
0.0129158
0.0129168
0.0129157
0.0129166
0.0129141
0.0129157
0.0129118
0.0129158
0.0129142
0.0129158
0.0129143
0.0129158
0.012915
0.0129171
0.012915
0.0129158
0.0129135
0.0129157
0.0129152
0.0129143
0.0129145
0.0129157
0.0129157
0.0129155
0.0129141
0.0129157
0.0129148
0.012915
0.0129135
0.0129157
0.0129155
0.0129152
0.0129155
0.0129157
0.0129155
0.012914
0.0129148
0.0129155
0.0129157
0.0129147
0.0129147
0.0129157
0.0129135
0.0129173
0.012915
0.0129166
0.0129152
0.0129181
0.0129181
0.0129181
0.0129181
0.012918
0.0129182
0.0129182
0.0129141
0.012913
0.0129148
0.0129152
0.0129154
0.0129155
0.0129147
0.0129155
0.0129155
0.012913
0.0129155
0.0129139
0.012916
0.0129138
0.012915
0.0129153
0.0129155
0.0129136
0.012915
0.0129153
0.012915
0.0129152
0.0129155
0.0129159
0.0129152
0.012915
0.0129139
0.0129154
0.0129155
0.0129155
0.0129153
0.012915
0.0129147
0.0129154
0.0129147
0.012915
0.0129153
0.0129148
0.012915
0.0129155
0.0129143
0.0129152
0.0129131
0.0129168
0.0129141
0.012914
0.012915
0.0129153
0.0129144
0.0129173
0.012915
0.0129153
0.0129171
0.0129119
0.0129119
0.0129149
0.0129155
0.0129152
0.0129154
0.012911
0.012911
0.0129147
0.0129148
0.0129148
0.0129174
0.0129155
0.0129142
0.0129154
0.0129154
0.0129153
0.0129173
0.0129143
0.0129155
0.012915
0.012915
0.0129154
0.0129153
0.0129154
0.0129153
0.0129171
0.0129166
0.0129153
0.012915
0.0129153
0.0129154
0.0129153
0.0129152
0.0129152
0.0129168
0.0129138
0.0129154
0.0129144
0.0129143
0.0129168
0.012915
0.012915
0.0129134
0.0129118
0.0129118
0.0129135
0.0129155
0.012915
0.0129168
0.0129119
0.0129112
0.0129112
0.0129173
0.0129128
0.0129124
0.0129151
0.0129137
0.0129148
0.0129145
0.0129142
0.0129142
0.0129148
0.0129173
0.012915
0.0129145
0.0129142
0.0129172
0.0129126
0.0129172
0.0129142
0.0129146
0.0129157
0.0129149
0.0129148
0.0129133
0.0129147
0.0129133
0.012915
0.0129142
0.0129124
0.0129124
0.0129169
0.0129145
0.0129178
0.0129178
0.0129178
0.0129144
0.0129174
0.0129178
0.0129154
0.0129178
0.0129132
0.0129132
0.0129178
0.0129152
0.0129172
0.0129178
0.0129172
0.0129178
0.0129172
0.0129128
0.0129169
0.0129174
0.0129177
0.0129148
0.012914
0.0129172
0.0129148
0.0129177
0.0129146
0.0129152
0.0129179
0.0129172
0.0129179
0.0129173
0.0129151
0.0129131
0.0129112
0.0129113
0.0129145
0.0129112
0.0129112
0.0129113
0.0129117
0.0129169
0.0129126
0.0129135
0.012913
0.0129146
0.0129116
0.0129116
0.012913
0.0129173
0.0129152
0.0129174
0.0129173
0.0129171
0.012912
0.012912
0.0129121
0.0129121
0.012912
0.0129113
0.0129121
0.0129115
0.0129112
0.012912
0.012912
0.0129112
0.0129113
0.0129115
0.0129121
FIELD solute_flux_TPM 2
S_ext 3 563 float
-4.5514e-05 1.5194e-05 1.85673e-18
2.33504e-06 4.18786e-06 -8.29987e-19
-7.56473e-06 -5.89728e-06 8.25069e-19
-2.50263e-06 2.54487e-06 5.15059e-19
1.49826e-05 -4.34685e-06 -2.22491e-18
1.55996e-06 -9.37516e-06 -4.97723e-19
-4.48203e-05 -1.5379e-05 -1.85366e-18
-8.49586e-06 -6.0909e-06 2.00513e-18
1.28364e-05 5.85094e-07 -1.6507e-18
6.92554e-06 -2.58952e-06 1.42707e-21
3.04251e-05 7.07616e-06 -1.86147e-18
1.2261e-06 -1.03923e-05 2.8478e-18
8.31616e-06 6.52502e-06 -3.31355e-19
1.82971e-06 8.37417e-06 6.22534e-18
1.35847e-05 -2.09092e-06 -2.38059e-18
-9.50746e-06 -1.54944e-07 1.94158e-21
1.97365e-06 8.86348e-06 -4.9849e-19
6.07705e-06 -1.51134e-06 2.84294e-18
5.72006e-06 9.94413e-06 1.7457e-19
-8.64565e-06 1.11885e-06 1.67411e-19
-1.96166e-06 -1.2444e-05 1.15677e-18
2.86179e-05 4.03907e-05 4.42956e-18
9.24012e-06 9.65886e-07 -6.61512e-19
6.69176e-06 -6.58486e-06 -1.61854e-19
-8.76591e-06 -2.0002e-06 1.66475e-18
-2.36122e-07 -6.7188e-06 -1.68162e-18
3.49025e-05 -2.71062e-06 -1.24981e-18
8.5222e-06 6.09176e-06 5.05325e-19
-1.39961e-05 -1.14023e-05 2.09349e-18
3.23072e-05 -8.61142e-06 -4.67159e-18
-9.73462e-06 -3.77473e-06 1.50445e-18
3.02947e-06 -1.79694e-05 1.64174e-19
2.61801e-05 -2.66629e-05 -1.09816e-18
-3.46736e-06 -2.74986e-05 -4.50227e-18
-1.95252e-05 2.42109e-05 4.33479e-18
-2.55486e-05 -1.07338e-05 6.85789e-19
2.14815e-05 2.80427e-05 3.13961e-18
-2.94186e-05 -5.82839e-06 2.75768e-18
8.77837e-06 -6.43818e-06 -1.50106e-18
2.55818e-05 2.7783e-05 2.0365e-18
1.80937e-05 -7.87557e-06 9.74518e-19
2.18879e-05 -2.69967e-05 -1.39123e-18
-1.24432e-05 -3.24307e-05 3.4608e-19
-9.29363e-06 3.95825e-06 -2.51473e-18
1.68486e-05 -1.64687e-05 -2.68354e-18
-1.67924e-05 5.9584e-06 3.04111e-21
-2.33396e-06 -1.1715e-05 1.15333e-18
4.52768e-06 1.16725e-05 2.32817e-18
-9.6716e-06 3.60837e-06 -3.67292e-18
-1.00458e-05 1.58253e-05 1.60473e-18
1.82411e-05 8.53781e-06 -3.86058e-18
1.65896e-05 -5.80403e-06 -6.41181e-19
-1.03214e-05 1.02376e-05 2.23431e-18
-1.31584e-05 -1.13736e-05 2.11282e-18
-1.38084e-05 -3.45417e-06 3.93509e-18
-2.44666e-05 1.46062e-05 3.32371e-18
-1.9333e-05 -2.49217e-05 1.38065e-18
3.43368e-06 -1.71806e-05 -2.26586e-18
-3.12588e-05 4.32457e-06 1.04165e-18
3.52123e-06 8.06256e-06 -3.25289e-19
-3.40425e-06 -5.32664e-06 -6.75985e-19
-4.04358e-06 -1.16075e-05 -2.20708e-18
3.15453e-05 1.37229e-05 4.75528e-19
6.15345e-06 1.14524e-05 -1.68898e-18
8.08663e-06 -9.19286e-06 -2.04609e-18
-1.2458e-06 -1.29251e-05 1.51115e-18
3.1271e-06 -5.55771e-06 -3.71581e-18
-5.98374e-06 -3.499e-06 1.00161e-18
-6.26196e-06 6.89393e-06 -8.28643e-19
1.50232e-06 -2.70271e-06 3.33533e-19
-9.89201e-06 -1.02941e-05 -3.77451e-18
-1.39305e-05 3.46556e-06 -1.71008e-18
-2.16009e-06 1.91145e-05 1.29324e-18
-1.11451e-05 6.73112e-06 -6.81526e-19
-5.34986e-06 8.47008e-06 1.65024e-19
-3.25528e-05 4.08797e-06 1.40609e-18
5.2233e-06 -1.38348e-05 -2.73482e-18
-1.18542e-05 -5.30476e-06 6.75797e-19
1.02184e-06 7.04666e-06 -3.22838e-19
1.50052e-05 2.86386e-06 -2.27276e-18
1.90287e-05 -1.61609e-05 -2.23808e-18
1.46622e-05 1.33597e-05 4.82625e-18
7.75075e-06 -2.00944e-06 -2.02977e-18
-1.7716e-05 1.29651e-05 8.00848e-19
2.12379e-05 2.74503e-06 1.29033e-18
-3.03974e-06 2.70594e-05 -1.58383e-19
-9.658e-07 -1.0052e-05 2.16302e-18
1.14158e-05 6.09584e-06 2.02359e-18
1.62037e-05 1.69506e-05 6.32468e-19
4.24872e-05 2.64202e-05 -1.5743e-18
-2.9969e-06 1.72638e-05 -8.1256e-19
4.43859e-05 -2.49441e-05 -5.28021e-19
-1.76597e-05 3.25494e-06 1.02021e-18
1.11671e-05 7.04787e-06 2.522e-18
-1.64743e-05 5.54247e-06 2.54395e-21
9.25261e-06 1.60232e-05 2.73384e-18
5.46518e-06 -2.44952e-05 -1.27772e-18
1.05047e-06 7.04746e-06 6.52212e-21
-9.30664e-06 -1.14084e-05 1.36542e-18
1.66768e-06 1.03713e-05 8.45399e-19
1.5096e-05 3.08268e-06 -1.47271e-18
-8.60378e-06 1.83796e-05 6.47761e-19
2.25751e-05 -7.55098e-06 -1.90844e-18
-2.27693e-06 4.37457e-06 -3.29288e-19
6.20206e-06 3.43534e-06 2.15299e-21
-1.2276e-06 -6.83637e-06 1.50035e-18
2.25575e-06 -1.2292e-05 -1.19128e-18
1.03729e-05 2.43305e-06 -1.66862e-18
-4.51963e-06 2.26896e-05 1.1217e-18
-6.32015e-06 6.74447e-09 -3.3283e-19
5.57804e-06 6.94486e-06 -1.62941e-19
-1.47453e-06 -2.31041e-05 1.11651e-18
2.33954e-05 7.30271e-06 4.80092e-19
2.67289e-06 -4.38968e-06 -1.33668e-18
-6.62951e-06 -2.26403e-06 -8.39642e-19
-1.62566e-05 -6.97617e-06 1.62505e-18
1.05109e-05 2.76239e-05 -3.4536e-19
-2.36133e-05 -8.43914e-06 -1.59753e-18
1.06576e-05 -2.76983e-05 1.38895e-18
-2.05238e-06 -1.78807e-05 1.13727e-18
1.26224e-05 3.2943e-07 2.30929e-18
-4.60315e-06 1.20961e-05 5.11258e-19
-1.09009e-06 2.40294e-06 3.42964e-19
-2.56775e-06 -1.03988e-05 -3.2079e-18
3.28788e-06 -5.51636e-06 5.04179e-19
6.2065e-06 1.02805e-05 3.50019e-19
2.21659e-05 7.31716e-06 2.60864e-18
5.4387e-06 -4.38795e-06 -4.69737e-18
-4.65128e-06 -2.47918e-05 -2.55736e-18
1.44859e-05 -1.06118e-05 -1.61422e-18
3.29815e-06 1.81584e-05 2.23487e-18
-1.64258e-06 -1.83734e-06 -5.64575e-21
-5.64744e-06 -5.27365e-06 -1.18145e-18
-2.99708e-06 1.67385e-07 -8.43971e-19
-1.27205e-05 1.56742e-05 -1.28816e-18
1.29212e-05 -2.48005e-05 -3.81944e-18
-1.46908e-05 2.32454e-05 1.59197e-18
-9.67512e-06 5.7545e-06 -3.35397e-18
1.5282e-06 8.02135e-06 1.1816e-18
-1.49903e-05 -2.35694e-05 1.03843e-18
7.7068e-06 1.86966e-05 -6.40669e-19
1.08936e-05 5.46509e-06 2.68906e-18
1.31865e-05 -5.06115e-06 1.74505e-19
-9.23338e-07 -6.8472e-06 3.40666e-19
-1.85516e-05 -1.70557e-05 -2.39926e-18
-1.4811e-06 6.86496e-06 -6.60767e-19
1.06239e-05 6.31205e-06 3.52149e-18
1.12826e-05 -5.47198e-06 -9.94568e-19
4.94997e-06 -8.36322e-06 -1.83107e-18
1.3961e-05 -6.15562e-06 1.31702e-18
1.11808e-05 -5.29633e-06 2.82604e-18
3.0047e-06 3.04418e-07 -2.34942e-18
1.44284e-05 1.14241e-05 8.06032e-19
-1.42569e-06 -1.01216e-05 4.9265e-19
-6.46612e-06 -2.52171e-06 1.0001e-18
8.20745e-07 -2.36537e-06 4.9691e-19
-2.19897e-06 9.70631e-06 -2.34679e-18
-1.91862e-05 1.53744e-06 8.17872e-19
-6.75049e-06 -1.84194e-05 1.4587e-18
-4.67134e-06 5.73187e-06 -2.16538e-18
7.92043e-06 9.56934e-06 1.33583e-18
1.48941e-05 -1.06311e-05 -1.44351e-18
-2.02232e-05 -1.09895e-05 -7.91921e-19
9.68059e-06 -1.54839e-05 -2.40602e-18
1.27869e-05 -1.52502e-05 1.6303e-18
-6.53487e-06 2.44852e-06 1.33788e-18
-1.10321e-05 -1.58644e-05 -1.78574e-18
-1.91638e-05 -3.21698e-06 -3.72173e-18
-2.31774e-06 -1.76648e-05 1.61289e-19
8.56186e-06 -1.77258e-05 3.24911e-18
-6.09117e-06 -1.69559e-05 -1.19945e-18
2.44255e-06 1.76097e-05 8.19167e-19
-8.88062e-06 -1.57638e-05 -1.76813e-18
2.11602e-06 -1.00617e-05 -2.19622e-18
-1.38433e-05 1.00352e-05 3.25254e-18
-9.47755e-06 -7.86813e-06 -5.07779e-18
-1.77778e-05 -3.14475e-06 -1.02109e-18
9.52946e-06 -5.65711e-06 6.76383e-19
-2.7222e-06 1.56958e-05 -2.053e-18
7.71709e-06 -5.5668e-06 -3.34971e-18
-1.6393e-05 -7.17047e-06 8.02913e-19
-5.45075e-06 -4.37184e-06 -2.18935e-18
5.67873e-06 4.41871e-06 4.0334e-18
1.20132e-05 1.60603e-05 6.53174e-19
-1.07809e-05 -6.78715e-06 2.02273e-18
-1.79387e-05 -4.38303e-07 -4.83533e-19
-1.04007e-05 -2.89181e-06 -1.5205e-18
-3.00316e-06 -1.04106e-05 3.35504e-19
1.14749e-05 1.4087e-05 3.38512e-19
-6.7909e-06 3.37699e-06 -8.3483e-19
5.20075e-07 -1.27651e-05 3.37427e-18
-2.28914e-05 5.90856e-06 1.76465e-18
1.40947e-05 1.13824e-05 1.6446e-19
2.06558e-06 1.83668e-05 8.11874e-19
-1.40474e-06 2.45558e-06 1.6751e-18
-5.30797e-06 1.46842e-07 -6.7128e-19
2.62516e-06 4.56566e-06 1.18015e-18
-7.51569e-06 2.33321e-06 -1.72278e-19
-1.36727e-06 -2.28594e-06 6.36034e-22
1.23698e-06 1.28537e-05 1.35838e-18
2.87996e-06 1.13943e-07 6.74811e-19
-1.11873e-05 2.73175e-06 -3.31872e-19
-9.79617e-06 1.08441e-05 9.80346e-19
-1.8671e-06 7.51137e-06 1.6877e-18
-1.6207e-05 1.015e-05 1.13269e-18
-6.12596e-06 5.6874e-06 1.86959e-18
1.07869e-05 -7.53876e-06 -6.68508e-19
2.05368e-05 -2.06552e-06 1.62715e-19
-1.35641e-05 7.15726e-06 -3.43004e-19
1.2976e-06 2.91434e-06 1.64052e-19
1.41673e-05 -2.55579e-06 6.94192e-19
-1.05695e-05 6.56745e-06 -1.85644e-18
-5.89664e-06 3.49499e-06 -1.00857e-18
7.76627e-06 2.6237e-06 -5.0669e-18
1.25252e-05 -7.78777e-06 -9.75992e-19
-1.07021e-05 6.03526e-06 -3.41548e-19
-1.4046e-05 -2.95665e-06 -1.46366e-18
-1.05785e-05 -2.60008e-06 -3.38393e-18
6.49339e-06 1.71607e-07 -3.35887e-18
6.63783e-06 -5.41517e-08 2.18849e-18
2.96226e-06 5.27016e-06 -3.6803e-18
3.23161e-06 -5.55887e-06 -3.45161e-19
-3.09647e-06 5.48916e-06 2.34983e-18
-3.23014e-06 -5.60727e-06 -3.39481e-19
6.01313e-06 -4.755e-06 3.34975e-19
-1.3285e-05 2.21845e-06 2.21754e-18
-1.31337e-05 -2.25907e-06 -1.36107e-18
-8.47453e-06 1.03357e-05 2.55896e-18
-8.51843e-06 -1.0372e-05 -1.87506e-18
4.85572e-06 -1.32265e-05 1.89041e-18
4.67852e-06 1.31188e-05 1.02847e-18
8.89406e-07 1.47342e-05 -4.88238e-19
7.08886e-06 -1.66689e-06 -1.67476e-18
1.52522e-06 -2.3411e-06 -1.5067e-18
-1.22109e-05 8.69838e-07 -1.65589e-18
4.99806e-06 -1.30154e-05 1.7522e-19
4.73788e-06 1.30605e-05 -1.69064e-19
2.95398e-06 -5.42173e-08 -1.71717e-19
5.06009e-06 1.38563e-05 1.79455e-18
-1.36638e-06 -2.44927e-06 -2.34869e-18
1.31078e-06 -6.87986e-06 1.70815e-19
-1.27001e-05 -6.7816e-06 6.59745e-19
-1.3725e-05 -7.3014e-06 1.01806e-18
-1.23859e-05 7.70471e-06 -6.47852e-19
1.98989e-06 -8.11031e-06 2.37075e-18
-9.73024e-07 2.03402e-06 -1.58138e-19
-4.27652e-07 -1.45179e-05 8.19128e-19
-4.42567e-06 -1.37377e-05 -3.30558e-19
1.82117e-05 1.69005e-05 6.39355e-19
1.99434e-05 -1.01401e-06 -2.87931e-18
-8.18294e-06 -2.49732e-06 1.5258e-18
-1.26329e-05 -2.25262e-05 -3.03698e-18
4.94351e-06 8.08146e-06 3.4086e-19
-1.41495e-05 1.67012e-06 1.95872e-18
1.16783e-05 3.35758e-06 -1.1512e-18
-2.76063e-06 -1.16243e-08 8.31525e-19
-3.07724e-06 -5.33882e-06 1.66997e-19
-5.41689e-06 -2.57113e-05 -3.13892e-18
-6.24427e-06 8.32301e-08 1.85074e-18
-2.62709e-05 -9.84381e-07 -2.7186e-18
9.83618e-06 -1.09047e-05 1.80395e-18
1.55244e-06 2.42431e-06 1.511e-18
-1.27735e-07 -1.05684e-05 3.18031e-18
-5.61537e-06 1.3515e-05 1.31044e-18
-2.90789e-06 5.46906e-06 -1.50558e-18
1.19606e-05 -7.81691e-06 1.3266e-18
-2.49734e-05 -8.14348e-06 -5.23381e-19
-8.63551e-06 -1.14255e-05 -2.44818e-18
3.14115e-06 5.52822e-06 -3.8723e-18
1.06776e-05 2.92964e-06 1.68832e-18
-2.81346e-06 -4.29899e-06 -8.47259e-19
1.3132e-05 2.4885e-06 -1.17756e-18
1.15019e-05 -6.06796e-06 -1.17712e-18
-2.10702e-07 1.76121e-05 2.57779e-18
4.97644e-06 -8.06202e-06 -4.17623e-18
2.71406e-05 1.12303e-06 -9.51455e-19
-2.30696e-05 5.99438e-06 1.27249e-18
1.50208e-05 7.43329e-06 -2.39561e-18
-3.71203e-06 -9.93213e-06 9.89751e-19
-9.27018e-06 -5.1093e-06 6.65366e-19
1.63666e-05 -1.30897e-07 -4.83164e-19
-5.01069e-07 -1.55802e-05 -6.8645e-19
-7.61258e-06 -6.94126e-06 -1.01298e-18
5.78479e-06 -1.33558e-05 -4.81037e-19
-4.33076e-07 1.26963e-05 -8.32627e-19
4.40816e-06 1.48121e-05 -9.8385e-19
1.06207e-05 -6.13746e-06 -3.23755e-19
-1.07736e-05 1.07663e-05 3.31164e-19
9.3718e-06 1.13999e-05 -6.49194e-19
-4.31851e-05 1.02827e-05 5.24391e-18
-6.75065e-06 1.68547e-05 1.88397e-18
8.28532e-06 -9.92703e-06 -4.09429e-18
-4.49719e-06 -1.20636e-05 1.53124e-18
-7.3399e-06 2.53363e-06 -3.86728e-18
-1.45329e-05 -4.0415e-06 -1.31608e-18
-4.46964e-06 2.58194e-05 2.25368e-18
-7.69772e-06 7.71385e-06 1.68565e-18
1.21601e-05 -2.77811e-06 6.69081e-19
-3.8358e-06 -1.46182e-05 1.80542e-18
-8.39858e-06 1.33677e-05 3.32381e-19
-1.40429e-05 8.13101e-06 -1.71456e-18
-1.1618e-05 -8.50112e-06 6.51926e-19
1.17075e-05 -1.37656e-05 8.54971e-19
-1.53805e-05 -8.25267e-07 -1.47621e-18
6.66915e-06 -2.27396e-05 9.49636e-19
1.11467e-05 -1.07433e-05 -2.78722e-18
1.36029e-05 2.38603e-05 1.43803e-18
1.31529e-06 1.26045e-05 1.70149e-18
1.69176e-06 -1.4473e-05 -3.24913e-19
-2.80681e-05 3.29955e-05 2.79612e-18
-7.15333e-06 -1.36939e-05 -8.23913e-19
1.06127e-05 -3.93474e-06 -1.51191e-18
-1.45408e-06 1.45816e-05 2.13001e-18
8.0689e-06 -7.82225e-06 -8.42349e-19
7.8647e-06 1.37624e-05 -3.23518e-19
1.01842e-05 -9.36041e-07 1.83816e-18
1.18411e-05 -3.46299e-05 1.43042e-18
-3.38878e-06 -7.53009e-06 9.91983e-19
-1.31043e-05 5.6183e-06 4.88184e-19
-1.30132e-05 1.22814e-05 1.02594e-18
1.23438e-05 8.36338e-06 2.95316e-18
1.10129e-05 -6.40893e-06 8.38123e-19
9.24106e-06 8.09605e-06 -1.73835e-19
-3.46831e-06 -1.25008e-07 2.52447e-18
8.7527e-06 -1.30825e-05 -8.1628e-19
-9.64843e-06 -1.14115e-05 -4.98105e-19
1.30363e-05 5.7343e-06 -2.4652e-18
8.09237e-06 -7.7517e-06 -5.03212e-19
5.35578e-06 -1.41381e-05 -9.82666e-19
1.00494e-05 -4.47473e-06 -3.31296e-19
-9.355e-06 -4.52851e-06 -1.00154e-18
9.18833e-07 -1.7003e-05 -1.38103e-18
-1.46576e-05 2.5889e-06 3.29239e-19
1.26199e-06 1.408e-05 1.1568e-18
1.20671e-05 4.03141e-06 -4.48029e-18
-1.23699e-05 -6.17017e-06 -1.65225e-18
-5.0407e-06 1.44726e-05 2.78821e-18
-7.99995e-07 -1.3903e-05 1.65066e-19
1.25171e-05 7.65841e-06 -2.72358e-18
-8.19539e-07 1.09575e-05 1.34284e-18
-1.1563e-05 7.71258e-06 6.58315e-19
1.35066e-05 6.49646e-06 -1.63713e-18
-1.02803e-05 -6.28591e-06 -1.67865e-18
3.16306e-07 -1.20993e-05 -6.42292e-21
1.05494e-05 1.13321e-05 -2.78428e-18
-1.42567e-05 -9.28329e-06 -1.8842e-18
2.67414e-05 -1.91166e-05 -6.19687e-19
1.08157e-05 -6.40801e-06 1.34267e-18
4.79857e-06 2.38204e-05 1.54106e-21
1.01529e-05 -7.92538e-06 2.33378e-18
-1.23663e-05 4.78077e-05 1.18416e-18
-1.24292e-05 -4.7355e-05 4.43126e-19
3.11383e-05 4.06615e-05 8.92447e-19
3.0766e-05 -4.06516e-05 -2.82668e-18
5.0818e-05 -2.59244e-08 -2.81332e-18
-4.37148e-05 1.77355e-05 8.92378e-19
-4.30084e-05 -1.79192e-05 3.70634e-18
7.7723e-06 7.67314e-06 1.0125e-18
1.95075e-05 1.45898e-05 -3.43622e-19
6.84083e-06 2.10423e-06 -3.72746e-22
1.11484e-05 5.70966e-06 -1.98378e-18
2.85558e-06 1.1673e-05 -1.64513e-18
-1.08374e-05 -8.44117e-06 6.59176e-19
1.06565e-05 -6.08558e-06 -1.33388e-18
1.15652e-05 8.32941e-06 -8.19439e-19
-1.74558e-06 1.39844e-05 -8.18409e-19
1.96119e-05 -1.33885e-05 1.56603e-18
2.0654e-06 -1.36622e-05 1.25159e-21
1.42363e-05 3.087e-06 -2.89154e-18
1.6863e-05 6.31654e-06 -2.59731e-18
9.36882e-06 9.16748e-06 3.54933e-19
9.45801e-06 4.00749e-06 -2.9953e-18
-1.0758e-05 6.38291e-06 1.81908e-18
-1.28483e-05 5.23742e-06 3.28104e-19
1.50773e-05 -7.2852e-06 1.71815e-18
-1.07601e-05 -5.99559e-06 -5.01017e-19
-1.083e-05 -6.09802e-06 -1.82619e-18
-1.05592e-07 -1.23448e-05 2.49842e-18
-1.0377e-07 -1.23786e-05 2.48433e-18
-1.14694e-05 -5.87474e-07 -2.63986e-18
1.5222e-05 -2.30081e-06 8.20706e-19
1.06623e-05 6.69578e-06 5.04698e-19
-1.06276e-05 6.36848e-06 -2.33658e-18
-9.63627e-06 1.0771e-05 -1.0225e-18
9.35386e-06 -8.00731e-06 -2.46979e-18
-6.34809e-06 9.94086e-06 8.24669e-19
-8.18079e-06 -8.49848e-06 2.63747e-18
-7.03717e-07 1.23242e-05 3.65356e-18
-6.13241e-07 1.24543e-05 6.74729e-19
-4.07693e-09 -1.20995e-05 2.67851e-18
3.51901e-06 -1.13967e-05 -1.48245e-18
-1.04529e-05 -5.96649e-06 -3.52433e-18
9.22608e-06 -3.34358e-06 1.00615e-18
4.15526e-07 1.25498e-05 6.68372e-19
2.03811e-07 1.11653e-05 -6.65958e-19
-1.32199e-06 9.9195e-06 1.84043e-18
1.26521e-05 -3.21271e-06 9.19367e-21
-1.058e-05 3.13267e-06 1.16509e-21
2.27974e-06 1.25617e-05 2.99523e-18
-2.14695e-05 8.3613e-06 -1.2063e-18
5.24092e-06 2.32288e-05 -1.57738e-18
-1.08187e-05 2.73541e-06 4.23067e-18
1.27349e-05 -7.56855e-06 -1.00767e-18
4.39327e-07 1.24781e-05 1.50841e-18
-1.17784e-05 4.0037e-06 -2.49193e-18
1.66617e-06 -1.00315e-05 -3.03877e-18
5.34734e-07 -3.20181e-05 6.1909e-19
1.12702e-06 1.03884e-05 2.00904e-18
-9.9517e-06 7.987e-06 4.97528e-19
9.54917e-06 3.50803e-05 1.63246e-19
3.14287e-05 2.60797e-05 1.75773e-18
3.60521e-05 -2.46639e-05 7.31174e-21
8.96902e-06 -6.06385e-06 -2.33014e-18
-9.11435e-06 8.0203e-06 -9.93313e-19
-1.16722e-05 -4.73267e-06 9.09306e-22
-1.12736e-05 -3.91697e-06 -9.88578e-19
4.4445e-05 -1.22219e-05 -1.60261e-18
4.53267e-05 9.5354e-06 -1.04541e-18
6.52099e-06 2.37903e-06 2.68433e-18
2.46959e-07 1.18459e-05 1.17897e-18
7.51062e-08 1.18431e-05 -2.16716e-18
-2.66453e-05 -1.95251e-05 -1.55327e-18
6.61115e-06 -9.89797e-06 2.47258e-18
7.37966e-06 8.19056e-06 -2.70926e-18
-1.22242e-05 -2.03763e-06 -9.89815e-19
-8.13495e-06 9.75927e-06 1.64576e-19
-1.09601e-05 5.29238e-06 -5.62763e-21
2.64123e-05 1.89389e-05 1.55203e-19
1.00606e-05 4.34947e-06 -3.88517e-18
-3.21812e-06 1.14774e-05 1.65693e-18
-1.01644e-05 -6.80733e-06 2.66288e-18
9.50753e-07 -1.22388e-05 2.33434e-18
-5.07668e-06 -1.10852e-05 1.48118e-18
-1.00162e-05 -6.80908e-06 2.97992e-18
6.09737e-06 -1.09174e-05 -1.98512e-18
8.30607e-06 -9.75698e-06 1.33361e-18
-1.61524e-06 -3.35213e-05 3.11196e-19
1.43922e-05 -2.27939e-05 -3.15948e-19
1.01784e-06 -1.21252e-05 1.65919e-18
1.08461e-05 6.65913e-06 2.84154e-18
-8.51317e-06 -8.49872e-06 9.88269e-19
-5.61778e-06 1.12776e-05 4.3081e-18
-2.79826e-06 1.22065e-05 1.83215e-18
9.88138e-06 8.19937e-06 1.33478e-18
3.41062e-06 -1.16067e-05 -8.26064e-19
-7.71275e-06 -2.21038e-05 -1.58242e-18
-1.38952e-06 1.61134e-05 3.24587e-18
8.61974e-06 8.37074e-06 -9.88834e-19
-7.8861e-06 -6.41099e-06 -8.46554e-19
-8.40339e-06 6.70416e-06 2.3588e-18
2.47226e-05 -1.05891e-05 -1.58071e-18
4.43185e-06 -7.87861e-06 -1.82693e-18
-4.9349e-06 -7.31354e-06 -5.04899e-19
1.41478e-05 4.3923e-06 -1.69602e-18
8.80142e-06 -3.17426e-05 -4.20052e-18
-2.30952e-05 -2.34708e-05 3.47967e-19
1.54003e-05 3.94173e-06 -6.82592e-18
-5.35346e-06 -1.04218e-05 -1.66375e-19
1.11862e-05 5.81171e-06 3.0047e-18
-1.58988e-05 -1.76852e-05 -3.31835e-18
7.13063e-06 3.22599e-05 7.51638e-18
3.13345e-05 -4.04975e-05 -2.30385e-18
-1.94075e-05 -4.73734e-05 -1.739e-19
1.49396e-05 -2.91513e-05 1.60066e-19
-8.30596e-06 2.8771e-05 -1.20548e-18
-4.77006e-06 2.54382e-05 5.73786e-18
-1.10389e-05 5.42772e-06 -5.07315e-19
4.04411e-06 1.55611e-05 3.52649e-19
-1.31857e-06 7.48787e-06 1.01254e-18
6.18714e-06 2.12988e-06 -1.51147e-18
-2.24862e-06 1.02437e-05 -8.35424e-19
-1.29778e-07 1.32071e-05 2.54918e-18
1.01299e-05 5.93732e-06 1.68013e-18
4.87228e-07 3.18664e-05 -1.08136e-18
-8.78302e-06 6.14482e-06 1.00329e-18
9.98446e-06 -3.67351e-06 -2.68562e-18
1.09632e-05 -2.60844e-06 -3.71408e-18
-3.26601e-05 -4.73055e-06 -3.1453e-21
-2.27759e-05 1.08513e-05 2.76031e-18
-2.36849e-05 -2.80957e-05 -7.85041e-19
5.64446e-06 5.27833e-06 1.46665e-20
8.65122e-06 4.71424e-06 -2.3509e-18
1.53021e-05 -2.50886e-06 1.48346e-18
-4.77042e-06 -7.75773e-06 -2.18208e-18
1.03938e-05 5.31347e-06 -1.65327e-19
4.87685e-06 -1.96813e-05 -4.12058e-18
-8.46773e-06 5.9749e-06 -6.74125e-19
-1.46016e-05 -1.40567e-05 -2.57394e-18
-3.30516e-06 9.59575e-06 2.6747e-18
-2.29091e-06 1.29884e-05 1.02232e-18
2.27727e-05 1.41264e-05 -1.90694e-18
2.42905e-05 -1.28634e-05 -8.59497e-19
-2.29353e-05 -6.16381e-06 -1.6254e-19
4.60711e-06 4.95486e-06 1.6619e-19
-2.62327e-06 5.54981e-05 2.78142e-21
2.38462e-08 -5.70048e-05 -1.24017e-18
2.81034e-05 4.80935e-05 3.08275e-18
-1.20589e-05 5.07001e-06 1.00816e-18
-1.5112e-05 3.05316e-05 -1.53964e-18
2.82784e-05 -4.64201e-05 4.6517e-19
-6.75968e-06 -1.03988e-05 4.30076e-18
4.30095e-05 3.73974e-05 -4.63031e-19
1.58632e-05 -1.17047e-05 -1.20573e-18
-2.22195e-06 -1.95758e-05 -1.37768e-18
4.50606e-05 -3.65686e-05 1.85934e-18
-3.91871e-06 8.42602e-06 -1.62261e-19
-2.89807e-05 -1.84024e-05 1.1026e-18
-2.3765e-05 -4.96353e-05 1.38007e-19
-1.34815e-05 -3.15554e-05 2.0404e-18
-2.44322e-05 5.04461e-05 4.79372e-19
-5.78737e-06 3.50448e-05 -1.29805e-22
1.06959e-05 2.45964e-05 5.37178e-18
-1.56112e-05 2.00536e-05 -1.1057e-18
-1.44638e-05 -2.97309e-05 1.23857e-18
5.53136e-05 9.71565e-06 3.09344e-19
-1.02887e-05 6.2853e-06 -8.41074e-19
-3.91062e-06 1.03086e-05 6.84395e-19
-2.74918e-05 1.97804e-05 4.63506e-19
-1.04049e-05 6.00939e-06 -1.34516e-18
5.47695e-05 -8.66598e-06 -3.79321e-21
-9.39629e-06 4.60816e-06 -8.44065e-19
4.23968e-06 -8.47708e-06 -4.95199e-19
-4.25112e-05 -3.24117e-05 1.37984e-18
-1.45244e-05 3.15701e-05 -6.13607e-19
-4.35212e-05 3.21812e-05 1.54376e-18
1.32211e-05 2.90428e-05 -1.3918e-18
-8.7858e-06 6.16931e-06 -1.657e-19
-1.333e-05 1.61712e-05 2.24322e-18
-2.41573e-05 3.03751e-05 3.89041e-18
-3.79002e-05 -4.8706e-06 3.87328e-18
-7.01248e-07 1.00139e-05 -1.16912e-18
-2.55817e-05 -3.05027e-05 -4.0754e-18
-3.92202e-05 6.91031e-06 3.55314e-19
-1.49514e-05 3.46507e-05 1.35638e-21
-1.15175e-05 4.60373e-05 4.73338e-18
-1.01637e-05 2.25975e-05 6.33374e-19
-2.22298e-05 1.79224e-05 -2.31421e-21
1.6196e-05 -3.89527e-06 -4.96087e-19
2.54476e-05 -1.25169e-06 -8.45918e-19
8.2798e-06 5.17992e-06 -6.70781e-19
-8.09268e-06 -5.29923e-05 -1.41059e-18
-4.99498e-05 -1.94725e-05 -1.0536e-18
2.4774e-05 1.98509e-07 -3.09885e-18
3.25078e-05 -6.27841e-06 -1.23158e-18
-6.13234e-06 -7.78176e-06 4.9541e-19
-2.81603e-05 1.98295e-05 1.23918e-18
-2.52397e-05 2.89348e-05 9.48314e-19
3.43638e-05 -1.2377e-05 -1.41841e-18
-1.86571e-05 -3.15807e-05 -2.28155e-18
-1.89886e-05 3.13335e-05 4.53175e-18
-3.6811e-05 -1.32206e-06 5.14329e-19
-1.67243e-05 3.29492e-05 -1.90699e-18
-3.67026e-05 3.98532e-07 2.2719e-18
4.57428e-05 1.63676e-05 -3.88e-18
3.68437e-05 1.38086e-06 7.04947e-19
3.4685e-05 -1.77634e-05 1.74973e-19
1.01536e-05 -4.87927e-05 -2.6491e-18
1.82954e-05 -3.19107e-05 -2.26334e-18
1.81705e-05 3.19053e-05 7.19818e-21
9.94411e-06 4.76767e-05 -4.76537e-18
4.99424e-05 -1.40869e-05 -4.22167e-18
3.19878e-05 1.58413e-05 -3.37076e-19
3.06856e-05 8.37566e-06 -4.52004e-18
P_ext 3 563 float
-6.93328e-07 2.34393e-07 -4.49758e-21
6.36388e-10 2.56302e-08 -6.26194e-20
-6.37952e-08 -6.00033e-08 1.03175e-20
-2.01804e-08 1.8624e-08 -4.41453e-20
1.75445e-08 3.52089e-10 -6.20528e-23
2.10033e-08 -8.52177e-08 -3.10777e-20
-6.8263e-07 -2.3723e-07 1.65846e-20
-4.99943e-08 -5.67396e-08 2.66738e-21
1.39178e-07 2.46173e-09 -2.57764e-20
5.07847e-08 -4.7571e-09 2.22377e-23
4.51312e-07 1.058e-07 -2.4196e-20
2.47794e-08 -7.24931e-08 5.41605e-21
5.67466e-08 6.75781e-08 -1.81698e-20
-5.86918e-09 5.29083e-08 1.87935e-20
1.58556e-08 5.90782e-09 -6.63385e-20
-8.89453e-08 -1.45597e-09 -1.81551e-20
-1.11361e-08 3.48485e-08 -2.87709e-20
5.36136e-08 -8.08445e-09 -1.28764e-20
6.16043e-08 1.09873e-07 3.60528e-20
-8.26333e-08 8.3303e-09 1.81109e-20
-3.10362e-08 -1.17042e-07 -7.78041e-21
1.03547e-09 1.37313e-10 -2.29863e-21
9.15259e-08 7.4494e-09 2.58514e-20
5.82587e-08 -6.728e-08 -2.53703e-21
-8.44129e-08 -1.35862e-08 2.86e-20
-1.59255e-08 -4.61736e-08 3.3691e-20
5.18789e-07 -4.24409e-08 7.41359e-21
6.34658e-08 5.35204e-08 -4.6657e-20
-1.89752e-07 -1.50723e-07 5.1091e-21
1.11118e-08 2.10361e-09 -5.41627e-21
-8.47431e-08 -1.50745e-08 -1.29712e-20
3.70794e-08 -2.41319e-07 6.0264e-20
3.89853e-07 -3.99261e-07 -2.53459e-21
8.18529e-10 -1.82497e-08 -3.27221e-20
-4.90123e-09 1.40327e-08 2.99974e-20
-1.52379e-08 -1.00294e-08 1.07082e-20
1.99313e-09 1.00841e-08 8.42263e-20
-1.53943e-08 2.62857e-09 7.27086e-20
6.12838e-08 -6.66788e-08 -2.8629e-20
3.80424e-07 4.16088e-07 2.46082e-20
2.42911e-07 -1.1006e-07 3.02694e-20
3.72121e-09 -9.23674e-09 3.23816e-20
-6.08544e-09 -8.06533e-09 2.70535e-21
-8.41857e-08 1.72754e-08 3.09386e-20
2.41061e-07 -2.36736e-07 -1.73099e-20
-2.24552e-07 8.08275e-08 -1.99965e-20
-2.83599e-08 -1.23727e-07 -2.30726e-20
5.11582e-08 1.2427e-07 2.09185e-20
-8.0752e-08 2.11053e-08 1.00258e-20
-1.39099e-07 2.16341e-07 2.00926e-20
2.46547e-07 1.20748e-07 -1.52742e-20
2.1404e-07 -7.03938e-08 5.31959e-20
-6.27722e-09 1.493e-08 -2.42718e-21
-1.67499e-07 -1.50311e-07 -4.82884e-21
-1.63751e-08 2.16987e-09 5.88177e-20
-3.59407e-07 2.11063e-07 1.2491e-20
-4.54972e-09 -1.39743e-08 -2.96552e-20
4.76991e-08 -2.21193e-07 4.7921e-20
-1.42366e-08 -3.11188e-09 2.8009e-21
3.7399e-08 7.4982e-08 2.59223e-20
-1.9944e-08 -6.02251e-09 -3.94155e-20
-2.10534e-08 -1.97399e-08 -3.18495e-20
4.67724e-07 2.05919e-07 2.57234e-21
-4.31464e-10 4.07547e-08 2.3755e-20
6.26865e-09 -2.71845e-08 -5.55813e-21
1.06032e-08 -6.05251e-08 2.10325e-20
-4.23022e-09 -1.98044e-08 -4.75687e-20
-4.84649e-08 -1.2299e-08 -7.82168e-20
-5.64286e-08 6.90483e-08 -6.8651e-23
1.51327e-08 -5.47916e-09 -3.92096e-20
-6.1908e-09 -1.53612e-08 -5.36519e-20
-1.61958e-08 -2.38057e-09 -1.8719e-20
-2.79926e-08 2.59341e-07 1.01568e-20
-4.97445e-08 2.51219e-08 -1.06704e-20
-4.82989e-08 8.2614e-08 -4.66951e-20
-4.86446e-07 5.71757e-08 3.90304e-20
4.27493e-12 -3.84193e-08 -5.06856e-20
-4.67304e-08 -3.91747e-08 6.03746e-20
1.97011e-08 4.80428e-08 2.62597e-20
1.86317e-07 3.7251e-08 -2.03258e-20
2.67125e-07 -2.32426e-07 -2.25519e-20
7.28285e-09 1.78631e-08 8.07622e-20
1.80104e-08 5.61628e-09 -2.11851e-20
-2.48908e-07 1.84154e-07 3.23946e-20
2.90498e-07 3.53155e-08 7.63553e-21
-4.40454e-08 3.93848e-07 -4.93033e-21
-1.52614e-08 -7.88303e-08 -1.55444e-20
5.34992e-08 3.76863e-08 -5.11281e-21
2.3187e-07 2.44526e-07 2.51539e-21
4.18988e-09 1.83399e-09 -5.43347e-21
-4.46784e-08 2.22444e-07 -1.26961e-20
3.78354e-09 -2.00048e-09 3.0077e-20
-2.67541e-08 1.82695e-08 5.04502e-20
5.78297e-08 2.35226e-08 4.4698e-20
-2.14188e-07 6.6208e-08 -1.00424e-20
1.24338e-07 2.18488e-07 3.2675e-20
7.73587e-08 -3.49282e-07 5.73222e-20
1.81705e-08 4.76097e-08 -2.50126e-21
-3.28328e-08 -1.9518e-08 1.33629e-20
2.72443e-08 8.70995e-08 4.70174e-20
1.81192e-07 3.08277e-08 -3.31839e-20
-1.20325e-07 2.48571e-07 -1.74365e-20
3.19909e-07 -1.04556e-07 2.47594e-21
-1.77329e-08 3.87158e-08 -4.42288e-20
3.39652e-08 3.45233e-08 -1.56302e-20
-2.02093e-08 -4.65856e-08 7.56518e-20
-8.14598e-09 -3.54662e-08 -5.41901e-21
9.40034e-08 1.12592e-08 -2.60937e-20
-6.86452e-08 3.21074e-07 -2.71126e-20
-1.58303e-08 9.79091e-09 -1.04162e-20
4.68849e-08 6.9499e-08 1.81836e-20
-2.32138e-08 -3.29513e-07 4.21323e-20
3.33325e-07 1.00082e-07 -2.47643e-20
2.26667e-08 -4.006e-08 5.16871e-21
-5.17461e-08 -5.90737e-09 -1.31355e-20
-2.13121e-07 -8.55318e-08 -1.76544e-20
1.05097e-08 1.12287e-08 2.68468e-21
-3.38631e-07 -1.18424e-07 -5.02963e-21
1.06704e-08 -1.11995e-08 9.71783e-20
-3.29259e-08 -2.31451e-07 2.2809e-20
1.42804e-07 5.4205e-09 -1.00059e-20
-1.27028e-08 1.07994e-08 7.99351e-21
3.42267e-09 1.55844e-08 4.71517e-20
9.56822e-09 -4.17817e-08 -2.64847e-20
1.6578e-08 -7.72772e-09 -7.81643e-21
2.75023e-10 1.67619e-08 3.46374e-20
1.44562e-08 -1.81052e-09 7.03228e-20
2.70339e-08 -3.99119e-08 -1.8565e-20
-6.93388e-08 -3.53629e-07 2.97547e-20
1.83107e-07 -1.40966e-07 1.0202e-20
5.71284e-10 2.22506e-08 5.09284e-20
-1.54299e-08 -2.77852e-09 -2.09836e-20
-4.99281e-09 -1.72331e-08 -2.89814e-20
-1.27122e-08 -8.98939e-09 5.09482e-21
-1.71205e-07 2.13941e-07 2.26109e-20
-1.96358e-10 -1.69289e-08 -4.88865e-20
-2.1421e-07 3.36337e-07 1.00956e-20
-8.04094e-08 3.69674e-08 7.49002e-21
1.13007e-08 1.2155e-08 5.30328e-21
-1.45741e-08 -8.5234e-09 5.93556e-20
1.04415e-07 2.52006e-07 -1.01137e-20
6.0165e-08 5.3649e-08 -1.02648e-20
1.46169e-07 -4.81983e-08 7.86578e-21
8.23516e-09 -4.49425e-08 1.57639e-20
-2.65383e-07 -2.44545e-07 -2.65744e-21
-2.55744e-08 4.41606e-08 -1.81574e-20
6.63516e-08 3.53944e-08 -1.02108e-20
9.70616e-08 -3.34054e-08 6.22996e-20
4.19141e-08 -8.3745e-08 2.06744e-20
1.66259e-07 -7.66694e-08 4.85977e-20
1.10578e-07 -5.21944e-08 8.025e-20
1.10956e-08 -9.21918e-09 2.59986e-20
1.92909e-07 1.5259e-07 1.26411e-20
-2.79153e-08 -8.06719e-08 7.71004e-21
-3.42465e-08 -2.93225e-08 -3.40104e-20
-5.61501e-09 -1.46994e-08 4.17155e-20
7.71407e-09 5.75406e-08 -1.04693e-20
-2.58002e-07 1.84955e-08 2.64599e-21
-9.4257e-08 -2.46284e-07 2.65421e-21
-4.0557e-08 5.16967e-08 -1.48975e-23
7.97692e-08 1.06323e-07 2.85576e-20
1.98558e-07 -1.4083e-07 3.26277e-20
-2.90343e-07 -1.55233e-07 1.9671e-20
1.29134e-07 -2.10226e-07 -1.75726e-20
1.68133e-07 -2.06825e-07 2.09982e-22
-4.94696e-08 4.88626e-09 -5.19056e-21
-1.47603e-07 -2.13593e-07 -2.79782e-20
-2.58374e-07 -4.04911e-08 -1.78632e-20
-3.07961e-08 -2.35802e-07 3.01123e-20
1.14937e-07 -2.37568e-07 5.32418e-20
2.41558e-09 -3.25892e-08 -8.12709e-21
3.41537e-08 2.27449e-07 -2.51732e-20
-1.21695e-07 -2.12885e-07 -3.26582e-20
-1.14281e-08 -5.21566e-08 -2.90674e-20
-1.7588e-07 1.31675e-07 -1.4933e-20
-3.44077e-08 -1.12533e-08 -1.87754e-20
-2.67811e-08 -1.84276e-08 3.71367e-20
7.0133e-08 -3.59596e-08 5.7476e-20
-9.62642e-09 1.36191e-08 2.59205e-21
3.7257e-08 -4.7061e-08 -3.40521e-20
-2.18887e-07 -9.73455e-08 -2.49408e-21
-2.89523e-08 -3.90137e-08 -2.89955e-20
3.02555e-08 4.13905e-08 2.12446e-20
1.58262e-07 2.18469e-07 -1.50841e-20
-5.59419e-08 -2.57911e-08 3.16535e-20
-2.43498e-07 -5.47756e-09 -1.00538e-20
-3.11418e-08 -2.89198e-08 -2.11308e-20
-1.75984e-09 -4.18444e-08 3.94927e-20
3.0512e-08 1.53676e-08 1.32572e-20
-3.52047e-08 3.47244e-08 -7.08089e-24
-5.88632e-09 -6.16163e-08 2.90736e-20
-3.25074e-07 8.00688e-08 2.02969e-22
1.78144e-07 1.51984e-07 -2.00689e-20
2.38009e-08 2.47558e-07 1.75748e-20
-1.43431e-08 4.91558e-09 1.05e-20
-4.7846e-08 1.48677e-09 -3.39069e-20
2.19625e-08 4.19394e-08 5.41024e-21
-1.73532e-08 -4.28247e-09 -4.74013e-20
2.06855e-09 -1.48204e-08 2.61327e-21
-9.58092e-09 6.52252e-08 2.11999e-20
1.05877e-08 1.11812e-08 -3.64919e-20
-1.20898e-07 2.67218e-08 1.79636e-20
-1.22654e-07 1.33825e-07 6.09478e-20
-1.32257e-08 1.22405e-08 1.32348e-20
-2.21946e-07 1.33941e-07 -2.74111e-20
-5.664e-09 1.88709e-08 1.86822e-20
5.98184e-08 -2.1411e-08 6.81952e-20
2.782e-07 -2.55926e-08 7.64947e-21
-3.48036e-08 2.20208e-08 -6.40076e-23
1.40929e-08 6.47932e-09 -1.83423e-20
3.62155e-08 -2.26875e-08 -7.66914e-21
-6.21948e-08 2.07102e-08 -2.87238e-21
-4.52735e-08 1.18509e-08 2.50757e-21
1.58831e-08 -4.66592e-09 -8.17899e-20
1.4734e-07 -8.96056e-08 5.1143e-21
-5.79272e-08 3.69353e-08 3.13406e-20
-1.73237e-07 -3.61244e-08 -1.77911e-20
-3.67532e-08 -1.93678e-08 -1.59838e-20
1.40436e-08 -9.35422e-09 -2.89232e-20
1.556e-08 1.09642e-08 -4.16984e-20
-3.96016e-09 1.77049e-08 -4.9671e-20
-1.6216e-09 -1.99773e-08 -3.41725e-20
-1.62225e-08 8.26603e-09 -4.17587e-20
-1.81561e-08 -9.27454e-09 5.15538e-21
4.54926e-08 -1.71746e-08 7.84012e-21
-1.66042e-08 -4.59426e-09 -1.5643e-20
-1.6568e-08 4.42568e-09 -8.24858e-23
-4.06007e-09 1.6476e-08 -1.82526e-20
-4.4109e-09 -1.68373e-08 -5.31271e-20
1.09541e-08 -1.22493e-08 9.88323e-20
1.05299e-08 1.17215e-08 3.4729e-20
6.36676e-09 1.75841e-07 -2.50055e-21
3.40711e-08 -2.81357e-08 5.18042e-21
7.95256e-09 -1.50047e-08 1.03301e-20
-1.32574e-07 4.89606e-09 3.60523e-20
1.25742e-08 -1.19e-08 9.54418e-20
1.17404e-08 1.20845e-08 -2.70113e-24
1.80202e-08 -3.92869e-10 -2.61413e-20
6.08751e-08 1.72331e-07 -4.93685e-21
-9.11976e-09 -1.49097e-08 2.58387e-20
1.97265e-08 -4.51243e-08 1.05092e-20
-1.47984e-07 -8.18779e-08 2.56315e-20
-3.24643e-08 -2.10714e-08 1.59069e-20
-1.4853e-07 8.80862e-08 -2.58811e-21
1.31568e-08 -1.34589e-08 6.33758e-20
-6.30968e-09 1.40205e-08 -1.01462e-19
-3.4733e-09 -1.70269e-07 2.2974e-20
-5.57529e-08 -1.68655e-07 -3.81199e-20
2.55697e-07 2.43368e-07 -1.2435e-20
2.73497e-07 -1.55339e-08 1.23218e-20
-1.93442e-08 4.23389e-09 4.22748e-20
-1.82928e-07 -3.23255e-07 -3.2516e-20
4.35675e-08 7.47085e-08 1.05459e-20
-1.75278e-07 2.06443e-08 1.64113e-22
1.25795e-07 3.51752e-08 -1.53926e-20
-1.71769e-08 -6.94861e-11 2.6023e-20
3.92489e-10 -1.78407e-08 -3.40043e-20
-1.54648e-09 -1.21728e-08 -7.61168e-20
-1.52043e-08 -9.06997e-09 -5.09953e-21
-3.79284e-07 -1.43726e-08 3.20845e-20
1.19157e-07 -1.34771e-07 3.07081e-20
8.09176e-09 1.57034e-08 -1.54869e-20
4.14439e-09 -7.51797e-08 8.00386e-21
-7.10812e-08 1.68328e-07 -1.50898e-20
1.47435e-09 1.88784e-08 -5.22862e-21
1.27114e-07 -9.09677e-08 -4.90797e-21
-1.11319e-08 -4.87829e-09 1.61731e-20
-1.08128e-07 -1.40529e-07 -9.15577e-20
1.48819e-08 7.54775e-09 1.27784e-20
3.51929e-08 3.4067e-08 -2.08366e-20
-2.50705e-08 -3.90526e-08 -2.31757e-22
1.5378e-08 -5.00454e-09 -1.3117e-20
5.21766e-08 -3.64332e-08 2.62435e-20
-3.09152e-09 2.90622e-08 -1.83729e-20
4.29485e-08 -7.23929e-08 -3.4046e-20
3.92658e-07 1.97852e-08 9.86796e-21
-3.32665e-07 8.80148e-08 2.72588e-20
2.77865e-08 1.93597e-08 1.57717e-20
-4.1179e-08 -9.91268e-08 -3.10718e-20
-6.25578e-08 -4.08193e-08 -5.22625e-21
2.03801e-07 -2.04953e-09 2.29879e-20
1.73574e-09 -3.88182e-08 -5.43821e-21
-5.08872e-08 -1.79392e-08 -4.72586e-20
6.94547e-08 -1.65954e-07 2.54155e-21
5.53433e-09 6.67737e-08 -7.32942e-20
5.70025e-08 1.76767e-07 -5.6274e-20
6.83511e-08 -3.60214e-08 1.57874e-20
-1.24786e-07 1.32828e-07 7.71625e-21
1.1476e-07 1.41812e-07 -4.06125e-20
-7.18814e-09 3.20681e-09 1.01004e-19
1.20268e-09 3.07459e-08 -1.83787e-20
2.28564e-09 -1.39364e-08 -6.66135e-20
-1.10486e-08 -9.12597e-09 7.23353e-23
-3.80658e-08 3.02055e-08 -3.69093e-20
-1.74839e-07 -4.1417e-08 -7.78273e-21
6.03234e-10 1.96049e-08 4.32692e-20
-4.5685e-08 1.36071e-08 2.36729e-20
1.23842e-07 -1.79455e-08 2.84912e-20
-5.29813e-08 -1.71537e-07 5.23697e-21
-1.04343e-07 1.6617e-07 2.55473e-20
-2.94001e-08 1.35915e-08 -2.41421e-20
-1.39838e-07 -9.894e-08 -3.30983e-20
3.16044e-08 -1.48024e-08 4.7861e-20
-1.89606e-07 -9.28318e-09 -1.54026e-20
9.28706e-08 -3.27722e-07 2.22966e-20
1.26808e-07 -1.33175e-07 -3.58866e-20
1.94006e-07 3.43978e-07 -1.72331e-20
-1.83101e-09 4.14913e-08 5.55636e-20
1.66399e-08 -1.72732e-07 2.03713e-20
-6.71365e-09 4.06884e-09 4.91265e-20
-8.99021e-08 -1.67749e-07 -6.39638e-20
3.01054e-08 -2.5799e-08 -1.30928e-20
-1.73455e-08 1.74727e-07 -7.43354e-21
4.20636e-08 -1.23185e-08 2.09681e-20
9.58157e-08 1.7076e-07 2.55943e-20
9.59191e-08 -2.23439e-09 2.08767e-20
1.75262e-07 -5.17139e-07 2.4737e-20
-3.71049e-08 -6.90624e-08 3.10621e-20
-1.54789e-07 6.74456e-08 -5.11816e-21
-2.16532e-08 1.06135e-08 2.93271e-20
1.46946e-07 9.84072e-08 2.32085e-20
1.04698e-07 -5.78016e-08 2.36458e-22
5.531e-08 2.42792e-08 -7.97569e-21
-1.13018e-08 9.57114e-09 -1.02066e-20
1.05053e-07 -1.62298e-07 2.57051e-21
-1.11993e-07 -1.39762e-07 -3.84099e-20
1.44484e-07 5.6985e-08 7.61922e-21
3.67149e-08 -2.26766e-08 6.59192e-20
6.75565e-08 -1.67903e-07 -1.02631e-20
7.93356e-08 -1.50217e-08 2.60713e-20
-7.69972e-08 -3.07091e-08 -3.64534e-20
-3.34028e-09 -3.12019e-08 7.75282e-21
-1.76587e-07 2.45154e-08 3.83911e-20
1.85529e-08 1.54891e-07 3.08777e-20
1.20766e-07 2.81705e-08 -3.3818e-20
-1.37209e-07 -6.14064e-08 -2.66951e-21
-6.74865e-08 1.73021e-07 -4.57573e-20
-1.54286e-08 -1.509e-07 -7.69982e-21
3.9837e-08 1.94432e-08 2.87969e-20
-2.59017e-08 7.29334e-08 6.79377e-20
-1.23383e-07 8.84963e-08 2.61401e-21
1.58486e-07 7.99449e-08 -6.37383e-20
-7.20948e-08 -2.26283e-08 -2.10325e-20
-1.75018e-08 -7.42313e-08 1.55854e-20
1.21104e-07 1.40787e-07 -3.07276e-20
-2.84062e-08 -1.28894e-08 1.85733e-20
3.98576e-07 -2.86569e-07 3.37015e-20
8.42833e-08 -5.89765e-08 2.09786e-20
6.8902e-08 3.3766e-07 -5.00825e-21
8.88856e-08 -8.54705e-08 -1.00264e-20
-1.92477e-07 7.33015e-07 3.25695e-20
-1.93591e-07 -7.25876e-07 -4.55563e-21
4.75643e-07 6.25189e-07 2.31103e-20
4.69748e-07 -6.25019e-07 -2.10439e-20
7.78583e-07 -3.07817e-10 -9.40935e-21
-6.71183e-07 2.70053e-07 4.40696e-20
-6.60056e-07 -2.72986e-07 -1.34567e-20
3.20201e-08 1.73497e-08 2.63637e-21
2.05235e-08 9.97337e-09 -1.07218e-20
5.97252e-08 8.03287e-09 -2.86144e-20
1.05465e-07 5.6365e-08 -2.62831e-21
3.12886e-08 1.24639e-07 -4.10959e-20
-1.13084e-07 -9.71625e-08 1.03182e-20
5.68998e-08 -5.2478e-08 -3.12616e-20
1.21509e-07 9.75263e-08 -1.02264e-20
-2.81126e-08 1.53414e-07 7.76864e-21
1.99026e-08 -9.78387e-09 7.00217e-20
2.86032e-08 -1.47218e-07 -1.79768e-20
3.73039e-08 2.51776e-08 -2.667e-20
2.19247e-07 7.67991e-08 -5.06658e-20
4.87329e-09 1.5742e-08 1.61177e-20
8.4678e-08 2.7707e-08 -5.20169e-20
-1.0482e-07 5.79777e-08 -3.86529e-20
-1.43542e-07 4.96484e-08 -3.5944e-20
2.8367e-08 -1.94344e-08 2.4167e-20
-9.16075e-08 -4.23839e-08 3.10967e-20
-1.00669e-07 -5.96288e-08 -2.59155e-20
-8.83061e-09 -1.01037e-07 2.71402e-21
3.96599e-10 -1.16066e-07 -7.61187e-21
-1.27819e-07 -5.52391e-09 -7.90269e-21
1.89766e-07 -2.94656e-08 4.57613e-20
1.02324e-07 6.30628e-08 -1.27844e-20
-8.46558e-08 5.77536e-08 -2.87304e-20
-3.8141e-08 1.86499e-08 -1.05609e-22
9.55144e-08 -8.55904e-08 -3.60144e-20
-7.17763e-08 1.11753e-07 -4.34874e-20
-8.84085e-08 -9.31274e-08 1.55263e-20
-8.38137e-09 1.21705e-07 3.90072e-20
-1.82184e-08 1.02696e-07 -4.39588e-20
2.99781e-09 -7.45311e-08 -5.10825e-21
3.84763e-08 -1.24364e-07 -1.54613e-20
-6.28483e-08 -4.03326e-08 4.94186e-21
8.71125e-08 -2.48368e-08 2.08619e-20
2.08011e-10 1.21554e-07 -4.88461e-20
-2.6375e-09 7.76318e-08 -1.5611e-20
-1.95273e-08 8.73477e-08 4.68765e-20
1.43014e-07 -3.51957e-08 1.04187e-20
-2.99847e-08 2.86653e-08 7.90974e-21
3.24145e-08 1.21649e-07 -7.45966e-21
-1.95444e-08 1.23336e-08 2.66898e-20
7.22776e-08 3.35169e-07 -2.46569e-20
-3.53734e-08 1.9112e-08 3.18431e-20
3.75327e-08 -1.9541e-08 2.65241e-20
1.08112e-08 1.03351e-07 -2.83128e-20
-1.21234e-07 2.87868e-08 3.0857e-20
-3.74424e-09 -5.25111e-08 -2.74333e-22
5.02485e-09 -4.78265e-07 4.67587e-23
1.45123e-08 8.76163e-08 1.32573e-20
-9.05617e-08 8.61652e-08 -2.83909e-20
1.40774e-07 5.23594e-07 -1.46557e-20
6.72064e-09 4.43403e-09 -4.33417e-20
5.80598e-09 -4.22835e-09 6.54903e-20
6.81609e-08 -5.31654e-08 -4.41984e-20
-9.67996e-08 8.66697e-08 1.01802e-20
-1.16169e-07 -3.43037e-08 5.94901e-20
-1.19394e-07 -3.92097e-08 -7.78042e-21
-2.43305e-09 1.50556e-09 7.15551e-20
-1.69406e-09 -8.47794e-10 1.95412e-20
5.57464e-08 1.13177e-08 8.03446e-21
1.77029e-08 8.13488e-08 -2.06575e-20
-2.047e-09 8.08867e-08 -5.22356e-21
-4.0057e-07 -2.91004e-07 4.76776e-21
7.10333e-08 -1.11733e-07 -2.28559e-20
3.58998e-08 1.28994e-08 -2.12801e-20
-1.31772e-07 -1.41683e-08 4.12832e-20
-8.33179e-08 1.1008e-07 1.54167e-20
-1.07557e-07 5.05712e-08 -7.81156e-21
3.93297e-07 2.82563e-07 7.23458e-21
3.88266e-08 2.55434e-08 -8.43349e-20
-3.82476e-08 1.24813e-07 -5.10399e-20
-7.53509e-08 -6.4553e-08 5.45641e-20
1.87538e-08 -9.82855e-08 -3.35795e-20
-6.10054e-08 -1.16051e-07 -3.35054e-20
-9.77354e-08 -6.69911e-08 2.59017e-20
6.69918e-08 -1.1881e-07 -7.83798e-21
8.03511e-08 -1.10442e-07 4.91774e-20
-2.54952e-08 -4.9902e-07 4.88034e-20
2.05126e-07 -3.28111e-07 5.07596e-21
9.78986e-09 -1.19344e-07 -1.53509e-20
8.41361e-08 6.40618e-08 8.02547e-21
-7.55912e-08 -9.17718e-08 5.14193e-21
-6.55792e-08 1.22248e-07 2.35261e-20
-4.0296e-08 1.19804e-07 4.41351e-20
8.77419e-08 9.08769e-08 -1.53408e-20
4.30277e-08 -1.12056e-07 -3.35992e-20
-1.11345e-07 -3.17464e-07 1.4648e-20
2.50479e-09 3.8483e-08 2.68535e-20
8.88487e-08 9.1433e-08 -8.44952e-24
-4.78642e-08 -2.35494e-08 -4.2066e-20
-3.97639e-08 2.16883e-08 4.7338e-20
3.5648e-07 -1.56171e-07 -7.40554e-21
4.42266e-08 -7.30924e-08 -5.20574e-21
-4.1975e-08 -7.18152e-08 1.54518e-20
1.58766e-08 -1.38249e-09 -5.19668e-21
1.32893e-09 -6.00117e-09 2.41839e-20
-4.45776e-09 -4.36064e-09 -1.90625e-20
1.95665e-08 1.28561e-08 -4.02283e-20
-6.15214e-08 -1.16127e-07 -3.33862e-20
9.46252e-08 3.79401e-08 4.69249e-20
-2.30537e-07 -2.53445e-07 -7.54159e-21
8.31158e-10 7.38855e-09 7.66943e-20
8.72109e-10 1.39785e-09 -5.80254e-20
1.72793e-09 -1.94027e-10 2.48318e-20
2.21255e-07 -4.36973e-07 1.93494e-20
-9.17158e-09 1.07878e-08 -2.69137e-20
-2.09011e-09 1.30666e-08 6.80385e-20
-9.51482e-08 3.38119e-08 -2.08659e-20
-3.29922e-09 3.8596e-08 1.99915e-22
-2.09148e-08 6.19722e-08 4.96467e-20
4.30785e-08 1.82276e-09 7.73382e-21
9.73738e-09 3.7225e-08 3.42734e-20
-2.5456e-09 5.14776e-08 -2.3378e-20
7.38372e-08 4.0166e-08 8.01673e-21
5.2844e-09 4.76037e-07 -9.63538e-21
-6.87033e-08 6.50244e-08 4.94269e-20
5.14854e-08 -3.46408e-08 -2.62366e-20
2.96985e-08 -2.71615e-08 -6.06402e-20
-4.88215e-07 -6.70304e-08 6.08249e-20
-1.38566e-08 5.50998e-09 5.929e-20
-3.55447e-07 -4.20458e-07 1.96494e-20
6.41642e-09 1.72505e-08 -4.44789e-20
6.22564e-08 1.20844e-08 -1.58214e-20
1.85503e-07 -2.40692e-08 4.35405e-20
-4.23814e-08 -6.96399e-08 3.3538e-20
8.10217e-08 2.32217e-08 -2.08042e-20
3.9847e-10 -2.0587e-08 -2.70305e-20
-4.56775e-08 5.28744e-08 -1.57403e-20
-1.74578e-08 -1.10813e-08 1.04617e-20
-4.12063e-08 8.36852e-08 1.3282e-20
7.46366e-09 5.278e-08 2.8032e-21
1.20822e-08 8.84601e-09 -2.7095e-20
1.19877e-08 -8.49698e-09 8.37623e-20
-3.30924e-07 -9.01468e-08 1.22789e-20
3.64051e-08 1.35619e-08 7.82787e-21
-4.38756e-08 8.49654e-07 1.438e-20
-3.03439e-09 -8.72916e-07 -1.69944e-20
4.29654e-07 7.3557e-07 7.37303e-21
-4.44947e-08 3.53195e-08 5.2309e-21
-2.27712e-07 4.58207e-07 5.05225e-20
4.32131e-07 -7.09982e-07 2.37089e-21
-7.13854e-08 -1.1554e-07 -7.49792e-21
6.56241e-07 5.74973e-07 -4.84522e-21
7.6753e-09 -1.36199e-08 7.94877e-21
-8.00326e-09 -1.37997e-08 -1.61722e-20
6.87882e-07 -5.62163e-07 3.14372e-20
-4.21088e-08 8.27985e-08 2.6382e-21
-4.32066e-07 -2.75171e-07 4.41591e-20
-3.64395e-07 -7.5944e-07 1.67721e-20
-2.04078e-07 -4.69474e-07 4.16715e-20
-3.74607e-07 7.72082e-07 2.89444e-20
-8.85203e-08 5.23197e-07 2.92205e-20
-6.25022e-10 1.8249e-08 1.92789e-20
-2.27266e-07 2.92591e-07 -3.43653e-20
-2.17635e-07 -4.45374e-07 7.31517e-21
8.46146e-07 1.47682e-07 -2.64615e-20
-6.60586e-08 5.61757e-08 -4.95514e-20
-1.53634e-09 3.70752e-08 -3.15114e-20
-4.09283e-07 2.96295e-07 -2.44525e-20
-7.32658e-08 3.91005e-08 -2.61792e-20
8.37833e-07 -1.31366e-07 -9.47752e-21
-5.59064e-08 3.75409e-08 -1.84118e-20
4.07469e-08 -8.42757e-08 -1.54757e-20
-6.51991e-07 -4.95222e-07 3.59397e-20
-2.19846e-07 4.71048e-07 4.93568e-21
-6.67797e-07 4.9159e-07 5.51586e-20
1.95123e-07 4.35342e-07 -2.65268e-20
-7.17373e-08 5.7032e-08 -5.20641e-21
-1.98676e-08 1.12439e-08 6.18539e-20
-1.07752e-09 -1.8092e-09 2.50403e-20
3.49398e-10 -1.51555e-09 7.1511e-20
5.46251e-09 5.72409e-08 -3.92035e-20
-1.58903e-09 1.81029e-09 -1.96894e-20
9.15397e-10 2.17618e-09 -3.56853e-20
1.49825e-09 -6.78718e-10 4.67433e-20
-8.49464e-10 6.76373e-09 -7.91939e-21
-1.50123e-07 3.27529e-07 7.38373e-21
-1.12649e-08 8.05762e-09 1.61458e-20
1.93889e-08 -1.22446e-08 -5.11592e-21
1.9011e-08 -1.10222e-08 1.6284e-20
5.48722e-08 2.13981e-08 -5.75348e-20
-5.01777e-10 -5.7882e-09 -1.11061e-20
-5.16065e-09 -2.63271e-09 -2.79202e-21
1.89975e-08 1.1085e-08 -5.64922e-20
4.8524e-07 -9.35442e-08 -3.36626e-20
-6.27965e-08 -8.00409e-08 -7.75695e-21
-4.24816e-07 2.96201e-07 4.81646e-20
-3.80291e-07 4.33741e-07 3.19059e-20
5.12614e-07 -1.8513e-07 1.96012e-20
-2.41275e-09 -7.13042e-09 -5.46577e-20
-2.65525e-09 7.32554e-09 4.09498e-20
-8.02792e-09 1.41917e-09 3.78546e-20
-5.30275e-09 5.34395e-09 5.42839e-20
-7.27402e-09 -1.58581e-09 -2.51888e-21
1.29456e-09 1.7502e-09 -5.71616e-21
7.8031e-09 -1.95642e-09 5.71378e-20
3.25804e-09 -2.32681e-09 4.64854e-20
-2.37235e-09 -1.63769e-09 3.28653e-20
5.02101e-09 -5.11163e-09 6.77819e-20
5.04922e-09 5.26446e-09 -5.33376e-21
-2.38695e-09 1.43109e-09 -2.924e-21
2.49216e-09 -5.6437e-10 -2.47671e-20
4.16988e-09 2.33121e-09 -1.34652e-20
9.10595e-09 3.28988e-09 -5.16329e-20
SCALARS rr_necrosis float
LOOKUP_TABLE default
0
0
0
0
0
0
0
0
0
0
0
0
0
0
0
0
0
0
0
0
0
0
0
0
0
0
0
0
0
0
0
0
0
0
0
0
0
0
0
0
0
0
0
0
0
0
0
0
0
0
0
0
0
0
0
0
0
0
0
0
0
0
0
0
0
0
0
0
0
0
0
0
0
0
0
0
0
0
0
0
0
0
0
0
0
0
0
0
0
0
0
0
0
0
0
0
0
0
0
0
0
0
0
0
0
0
0
0
0
0
0
0
0
0
0
0
0
0
0
0
0
0
0
0
0
0
0
0
0
0
0
0
0
0
0
0
0
0
0
0
0
0
0
0
0
0
0
0
0
0
0
0
0
0
0
0
0
0
0
0
0
0
0
0
0
0
0
0
0
0
0
0
0
0
0
0
0
0
0
0
0
0
0
0
0
0
0
0
0
0
0
0
0
0
0
0
0
0
0
0
0
0
0
0
0
0
0
0
0
0
0
0
0
0
0
0
0
0
0
0
0
0
0
0
0
0
0
0
0
0
0
0
0
0
0
0
0
0
0
0
0
0
0
0
0
0
0
0
0
0
0
0
0
0
0
0
0
0
0
0
0
0
0
0
0
0
0
0
0
0
0
0
0
0
0
0
0
0
0
0
0
0
0
0
0
0
0
0
0
0
0
0
0
0
0
0
0
0
0
0
0
0
0
0
0
0
0
0
0
0
0
0
0
0
0
0
0
0
0
0
0
0
0
0
0
0
0
0
0
0
0
0
0
0
0
0
0
0
0
0
0
0
0
0
0
0
0
0
0
0
0
0
0
0
0
0
0
0
0
0
0
0
0
0
0
0
0
0
0
0
0
0
0
0
0
0
0
0
0
0
0
0
0
0
0
0
0
0
0
0
0
0
0
0
0
0
0
0
0
0
0
0
0
0
0
0
0
0
0
0
0
0
0
0
0
0
0
0
0
0
0
0
0
0
0
0
0
0
0
0
0
0
0
0
0
0
0
0
0
0
0
0
0
0
0
0
0
0
0
0
0
0
0
0
0
0
0
0
0
0
0
0
0
0
0
0
0
0
0
0
0
0
0
0
0
0
0
0
0
0
0
0
0
0
0
0
0
0
0
0
0
0
0
0
0
0
0
0
0
0
0
0
0
0
0
0
0
0
0
0
0
0
0
0
0
0
0
0
0
0
0
0
0
0
0
0
0
0
0
0
0
0
0
0
0
0
0
0
0
0
0
0
0
0
0
0
0
0
0
0
0
0
0
0
0
0
0
0
0
0
0
0
0
SCALARS rr_protein float
LOOKUP_TABLE default
1
1
1
1
1
1
1
1
1
1
1
1
1
1
1
1
1
1
1
1
1
1
1
1
1
1
1
1
1
1
1
1
1
1
1
1
1
1
1
1
1
1
1
1
1
1
1
1
1
1
1
1
1
1
1
1
1
1
1
1
1
1
1
1
1
1
1
1
1
1
1
1
1
1
1
1
1
1
1
1
1
1
1
1
1
1
1
1
1
1
1
1
1
1
1
1
1
1
1
1
1
1
1
1
1
1
1
1
1
1
1
1
1
1
1
1
1
1
1
1
1
1
1
1
1
1
1
1
1
1
1
1
1
1
1
1
1
1
1
1
1
1
1
1
1
1
1
1
1
1
1
1
1
1
1
1
1
1
1
1
1
1
1
1
1
1
1
1
1
1
1
1
1
1
1
1
1
1
1
1
1
1
1
1
1
1
1
1
1
1
1
1
1
1
1
1
1
1
1
1
1
1
1
1
1
1
1
1
1
1
1
1
1
1
1
1
1
1
1
1
1
1
1
1
1
1
1
1
1
1
1
1
1
1
1
1
1
1
1
1
1
1
1
1
1
1
1
1
1
1
1
1
1
1
1
1
1
1
1
1
1
1
1
1
1
1
1
1
1
1
1
1
1
1
1
1
1
1
1
1
1
1
1
1
1
1
1
1
1
1
1
1
1
1
1
1
1
1
1
1
1
1
1
1
1
1
1
1
1
1
1
1
1
1
1
1
1
1
1
1
1
1
1
1
1
1
1
1
1
1
1
1
1
1
1
1
1
1
1
1
1
1
1
1
1
1
1
1
1
1
1
1
1
1
1
1
1
1
1
1
1
1
1
1
1
1
1
1
1
1
1
1
1
1
1
1
1
1
1
1
1
1
1
1
1
1
1
1
1
1
1
1
1
1
1
1
1
1
1
1
1
1
1
1
1
1
1
1
1
1
1
1
1
1
1
1
1
1
1
1
1
1
1
1
1
1
1
1
1
1
1
1
1
1
1
1
1
1
1
1
1
1
1
1
1
1
1
1
1
1
1
1
1
1
1
1
1
1
1
1
1
1
1
1
1
1
1
1
1
1
1
1
1
1
1
1
1
1
1
1
1
1
1
1
1
1
1
1
1
1
1
1
1
1
1
1
1
1
1
1
1
1
1
1
1
1
1
1
1
1
1
1
1
1
1
1
1
1
1
1
1
1
1
1
1
1
1
1
1
1
1
1
1
1
1
1
1
1
1
1
1
1
1
1
1
1
1
1
1
1
1
1
1
1
1
1
1
1
1
1
1
1
1
SCALARS rr_(S_ext) float
LOOKUP_TABLE default
0.822282
0.82275
0.822711
0.82274
0.822886
0.82271
0.82228
0.822741
0.822673
0.822751
0.822287
0.822741
0.822731
0.822758
0.822833
0.822719
0.822774
0.822732
0.822648
0.822698
0.822695
0.82306
0.822692
0.822699
0.822697
0.82274
0.822368
0.822717
0.822516
0.822954
0.82273
0.822516
0.822363
0.822924
0.822942
0.822923
0.822958
0.822936
0.822729
0.822365
0.822514
0.82296
0.822959
0.82273
0.822402
0.822524
0.822659
0.822681
0.822712
0.822484
0.822503
0.822567
0.822875
0.82257
0.822872
0.822427
0.822943
0.822569
0.822942
0.8227
0.822771
0.822817
0.822406
0.822816
0.822818
0.822778
0.822772
0.822741
0.822695
0.822751
0.822875
0.822874
0.822515
0.822794
0.822714
0.822339
0.822847
0.822778
0.82274
0.822575
0.82248
0.822902
0.822794
0.822463
0.822534
0.822412
0.822716
0.822788
0.822402
0.823036
0.822569
0.823036
0.822848
0.822773
0.822574
0.822496
0.822482
0.822749
0.822846
0.822727
0.822624
0.822547
0.822462
0.822735
0.822746
0.822746
0.822801
0.822723
0.822461
0.822754
0.822701
0.822419
0.822443
0.822733
0.822744
0.822572
0.822945
0.822481
0.822944
0.822574
0.822638
0.822827
0.822748
0.822785
0.822759
0.822837
0.822926
0.822749
0.822482
0.822573
0.822873
0.822745
0.822791
0.822747
0.822548
0.822943
0.822456
0.822735
0.822794
0.822942
0.822552
0.822757
0.822648
0.822751
0.822479
0.822741
0.822748
0.822715
0.822711
0.822608
0.822679
0.822748
0.822514
0.822732
0.82275
0.822746
0.822766
0.822559
0.82256
0.822728
0.822682
0.822518
0.822417
0.822501
0.822556
0.822746
0.822558
0.822558
0.822516
0.822558
0.822849
0.822569
0.822501
0.822771
0.822571
0.822799
0.822848
0.822741
0.822879
0.822749
0.822518
0.822748
0.822748
0.822553
0.822788
0.822498
0.822785
0.822804
0.822853
0.822749
0.822789
0.822487
0.82257
0.822516
0.822746
0.822729
0.822732
0.82279
0.822748
0.822777
0.822749
0.822655
0.82258
0.82279
0.822519
0.822793
0.822779
0.822542
0.822825
0.82275
0.822831
0.822763
0.822744
0.822795
0.822609
0.822768
0.822585
0.822804
0.822757
0.822757
0.82275
0.822753
0.822754
0.822753
0.822755
0.822829
0.822827
0.822829
0.82283
0.822874
0.822873
0.822605
0.822756
0.822732
0.822679
0.822834
0.822836
0.822734
0.82258
0.82273
0.822749
0.822612
0.822824
0.822609
0.822797
0.822727
0.822612
0.822587
0.822479
0.822476
0.822794
0.822472
0.822725
0.822585
0.822652
0.822729
0.822756
0.822964
0.822754
0.822471
0.822584
0.822731
0.822741
0.822578
0.822755
0.82265
0.822964
0.822586
0.822758
0.822783
0.822732
0.822833
0.822787
0.822876
0.822729
0.82243
0.822412
0.822864
0.822695
0.822741
0.822612
0.822825
0.822771
0.822585
0.822774
0.822626
0.822751
0.822627
0.822581
0.823005
0.822854
0.822833
0.822832
0.822754
0.822631
0.822918
0.822781
0.822683
0.822632
0.822617
0.822862
0.822611
0.82285
0.822623
0.822403
0.822629
0.822477
0.822804
0.822611
0.823004
0.822622
0.822793
0.822605
0.822788
0.822621
0.822718
0.822402
0.822705
0.82261
0.822858
0.822607
0.822683
0.822791
0.82275
0.822621
0.82263
0.822649
0.822805
0.822628
0.822742
0.822717
0.822877
0.82263
0.822646
0.822691
0.822652
0.822624
0.822653
0.822821
0.822739
0.822649
0.822609
0.822754
0.822755
0.822626
0.822876
0.822271
0.822718
0.822479
0.822693
0.821982
0.821983
0.821985
0.821984
0.821983
0.821985
0.821988
0.822807
0.822906
0.822729
0.82268
0.822651
0.822652
0.822751
0.822648
0.822646
0.822908
0.822651
0.822829
0.822568
0.82282
0.822709
0.82268
0.82265
0.822866
0.822718
0.822683
0.822718
0.822683
0.822645
0.822574
0.822679
0.822713
0.82283
0.822656
0.82264
0.822654
0.822676
0.822712
0.822751
0.822654
0.82275
0.822706
0.822677
0.822742
0.822706
0.822649
0.822786
0.822688
0.822901
0.822404
0.822806
0.822821
0.822712
0.82269
0.822776
0.822278
0.82271
0.822688
0.822404
0.823004
0.823006
0.822716
0.822651
0.822694
0.822657
0.823086
0.823085
0.822739
0.822743
0.82274
0.822281
0.822643
0.822795
0.822679
0.822675
0.822677
0.822266
0.822786
0.822648
0.822716
0.822716
0.822674
0.822682
0.822674
0.822679
0.822368
0.822478
0.822682
0.822717
0.822689
0.822672
0.822686
0.822692
0.822688
0.822406
0.822836
0.822653
0.822775
0.822788
0.822403
0.822712
0.822707
0.822877
0.822994
0.822994
0.822853
0.822642
0.822715
0.822397
0.822984
0.823069
0.823069
0.822261
0.822935
0.822954
0.82271
0.822847
0.822729
0.822753
0.822787
0.822803
0.822742
0.822276
0.822721
0.822772
0.822794
0.822336
0.822938
0.822399
0.822789
0.822758
0.822617
0.822728
0.82274
0.822877
0.822744
0.822877
0.822715
0.822796
0.822947
0.822952
0.822401
0.82276
0.822272
0.822285
0.822258
0.822786
0.822275
0.822245
0.822673
0.822264
0.822903
0.822903
0.822274
0.822688
0.822373
0.822272
0.82236
0.82227
0.82236
0.822938
0.822381
0.822276
0.822271
0.822738
0.822813
0.822352
0.822739
0.822247
0.822753
0.822692
0.822266
0.822343
0.822257
0.82226
0.822706
0.82291
0.823058
0.823051
0.822761
0.823057
0.823056
0.823054
0.823014
0.822391
0.822943
0.822858
0.822912
0.822755
0.823025
0.823025
0.822923
0.822254
0.822687
0.822269
0.822393
0.82239
0.822977
0.822976
0.822973
0.822975
0.822977
0.823051
0.822978
0.823027
0.823063
0.822982
0.822982
0.823066
0.823052
0.823028
0.822972
SCALARS rr_(P_ext) float
LOOKUP_TABLE default
0.0136821
0.0136112
0.0136174
0.0136124
0.0135934
0.0136176
0.0136823
0.0136133
0.0136234
0.0136115
0.0136775
0.0136133
0.0136148
0.0136105
0.0135999
0.0136164
0.013608
0.0136141
0.0136265
0.0136192
0.0136202
0.0135691
0.0136201
0.0136191
0.0136193
0.0136129
0.0136676
0.0136166
0.0136459
0.0135834
0.013615
0.0136457
0.0136686
0.0135876
0.0135855
0.0135877
0.0135826
0.0135864
0.0136151
0.0136684
0.0136461
0.0135823
0.0135824
0.013615
0.0136618
0.0136449
0.013625
0.0136222
0.0136173
0.0136503
0.0136477
0.0136387
0.0135943
0.0136385
0.0135949
0.0136597
0.0135853
0.0136385
0.0135854
0.0136188
0.0136083
0.0136024
0.0136631
0.0136028
0.0136023
0.013608
0.013608
0.0136129
0.0136197
0.013611
0.0135945
0.0135945
0.0136461
0.0136058
0.0136172
0.0136716
0.0135986
0.0136081
0.0136129
0.0136371
0.0136517
0.0135911
0.0136053
0.0136537
0.0136438
0.013661
0.0136167
0.0136069
0.0136617
0.0135725
0.0136386
0.0135726
0.0135982
0.0136088
0.0136379
0.0136484
0.0136516
0.0136116
0.0135987
0.0136154
0.0136306
0.0136422
0.0136539
0.0136134
0.0136122
0.013612
0.0136044
0.013616
0.013654
0.0136101
0.0136188
0.0136595
0.0136563
0.0136138
0.0136124
0.0136383
0.0135854
0.0136519
0.0135856
0.013638
0.0136281
0.0136007
0.0136112
0.0136068
0.0136096
0.0135993
0.0135879
0.0136116
0.0136516
0.0136379
0.0135945
0.0136117
0.0136056
0.0136114
0.0136421
0.0135853
0.0136555
0.0136143
0.0136052
0.0135854
0.0136413
0.0136113
0.013627
0.0136114
0.0136522
0.0136127
0.0136123
0.0136173
0.0136175
0.0136327
0.0136224
0.0136112
0.0136459
0.0136147
0.0136115
0.0136116
0.0136095
0.0136406
0.0136403
0.0136148
0.0136221
0.0136454
0.0136601
0.0136477
0.0136406
0.013612
0.0136406
0.0136407
0.0136459
0.0136405
0.013598
0.0136385
0.0136478
0.0136089
0.0136383
0.0136047
0.0135981
0.0136134
0.0135941
0.013612
0.0136458
0.0136117
0.0136117
0.0136411
0.0136068
0.0136483
0.0136068
0.0136043
0.0135978
0.0136116
0.0136067
0.0136509
0.0136383
0.0136458
0.0136115
0.0136144
0.013614
0.0136057
0.0136113
0.0136083
0.0136112
0.0136257
0.0136366
0.0136058
0.0136457
0.0136053
0.0136081
0.0136425
0.0136015
0.0136111
0.0136009
0.0136102
0.0136124
0.0136052
0.0136325
0.0136096
0.0136358
0.0136044
0.0136098
0.0136098
0.0136106
0.0136103
0.0136102
0.0136103
0.013611
0.0136004
0.0136006
0.0136004
0.0136003
0.0135948
0.0135948
0.013633
0.0136108
0.013613
0.0136225
0.0135999
0.0135996
0.0136128
0.0136364
0.0136133
0.0136116
0.0136322
0.0136014
0.0136325
0.013605
0.0136136
0.013632
0.0136355
0.0136519
0.0136514
0.0136052
0.0136533
0.0136155
0.0136359
0.0136261
0.0136134
0.0136099
0.0135819
0.0136101
0.0136538
0.0136359
0.0136131
0.0136133
0.0136367
0.01361
0.0136267
0.013582
0.0136357
0.0136096
0.0136072
0.013614
0.0136001
0.0136071
0.0135944
0.0136148
0.0136585
0.0136611
0.0135963
0.01362
0.0136133
0.0136325
0.0136013
0.0136089
0.0136358
0.0136087
0.0136304
0.013612
0.0136303
0.0136362
0.0135766
0.0135974
0.0135997
0.0135998
0.013611
0.0136298
0.0135884
0.0136074
0.0136219
0.0136295
0.0136318
0.0135964
0.0136322
0.0135982
0.013631
0.0136616
0.0136299
0.0136526
0.0136042
0.0136322
0.0135766
0.013631
0.0136058
0.013633
0.0136065
0.0136312
0.0136167
0.0136642
0.0136181
0.0136324
0.0135966
0.0136327
0.0136218
0.0136065
0.013611
0.0136311
0.0136299
0.0136269
0.0136043
0.01363
0.0136133
0.0136166
0.0135945
0.0136299
0.0136272
0.0136208
0.0136265
0.0136306
0.0136263
0.0136022
0.0136135
0.0136269
0.0136325
0.0136115
0.0136114
0.0136302
0.0135946
0.01368
0.0136169
0.0136518
0.0136205
0.0137176
0.0137175
0.0137171
0.0137173
0.013717
0.0137178
0.0137175
0.0136039
0.0135903
0.0136146
0.0136222
0.0136261
0.0136265
0.013612
0.0136269
0.0136273
0.0135901
0.0136265
0.0136011
0.0136386
0.0136015
0.0136177
0.0136223
0.0136268
0.0135962
0.0136169
0.0136218
0.0136168
0.0136217
0.0136271
0.0136373
0.0136223
0.0136175
0.0136008
0.0136255
0.0136277
0.0136258
0.0136227
0.0136177
0.0136119
0.0136258
0.013612
0.0136183
0.0136225
0.0136132
0.0136181
0.0136267
0.0136065
0.0136211
0.0135909
0.0136616
0.013604
0.0136022
0.0136176
0.0136209
0.0136082
0.0136791
0.0136177
0.0136213
0.0136638
0.013577
0.0135768
0.0136169
0.0136262
0.0136204
0.0136254
0.0135663
0.0135663
0.0136131
0.0136131
0.0136134
0.0136793
0.0136273
0.0136055
0.0136225
0.0136231
0.0136226
0.0136804
0.0136069
0.0136266
0.0136171
0.0136171
0.0136232
0.0136219
0.0136232
0.0136226
0.013668
0.0136524
0.0136219
0.013617
0.0136211
0.0136235
0.0136215
0.0136207
0.0136211
0.0136615
0.0135998
0.0136259
0.0136084
0.0136065
0.013662
0.0136174
0.013618
0.0135945
0.0135774
0.0135775
0.0135974
0.0136275
0.0136173
0.0136627
0.0135789
0.0135679
0.0135679
0.0136812
0.0135864
0.0135833
0.013618
0.0135985
0.0136147
0.013611
0.0136063
0.0136046
0.0136133
0.0136793
0.0136163
0.013609
0.0136057
0.0136721
0.0135856
0.0136651
0.0136059
0.0136108
0.0136315
0.0136151
0.0136136
0.0135939
0.0136127
0.013594
0.013617
0.0136056
0.0135845
0.013584
0.0136625
0.0136101
0.0136835
0.0136822
0.013685
0.0136069
0.0136801
0.0136865
0.0136234
0.0136843
0.0135909
0.013591
0.0136832
0.0136207
0.0136678
0.0136839
0.0136691
0.0136841
0.0136691
0.013586
0.0136651
0.0136798
0.0136833
0.0136139
0.0136031
0.0136702
0.0136138
0.013686
0.0136115
0.0136202
0.0136846
0.0136713
0.0136857
0.0136812
0.0136183
0.0135898
0.0135691
0.01357
0.0136103
0.0135693
0.0135693
0.0135697
0.0135751
0.0136637
0.0135849
0.0135969
0.0135897
0.0136112
0.0135737
0.0135737
0.0135884
0.013682
0.0136209
0.0136811
0.0136662
0.0136657
0.0135797
0.0135799
0.0135803
0.0135802
0.0135797
0.0135703
0.0135802
0.0135737
0.0135689
0.0135795
0.0135795
0.0135687
0.0135701
0.0135734
0.0135807
SCALARS rr_(S) float
LOOKUP_TABLE default
0.740877
0.741131
0.74111
0.741125
0.741214
0.74111
0.740875
0.741127
0.741089
0.741133
0.740873
0.741127
0.741122
0.741137
0.741182
0.741115
0.741146
0.741122
0.741074
0.741103
0.741102
0.74132
0.741099
0.741104
0.741102
0.741126
0.74092
0.741114
0.741001
0.741256
0.741121
0.741001
0.740918
0.741237
0.741247
0.741236
0.741257
0.741244
0.741121
0.740919
0.741
0.741258
0.741258
0.741121
0.740937
0.741006
0.741081
0.741094
0.741111
0.740983
0.740994
0.74103
0.741207
0.741032
0.741205
0.740953
0.741248
0.741031
0.741248
0.741104
0.741144
0.741172
0.740943
0.741172
0.741173
0.74115
0.741145
0.741127
0.741101
0.741132
0.741207
0.741206
0.741001
0.741159
0.741112
0.740904
0.74119
0.741149
0.741126
0.741034
0.740982
0.741223
0.741158
0.740973
0.741012
0.740944
0.741113
0.741156
0.740938
0.741306
0.741031
0.741306
0.741191
0.741147
0.741034
0.74099
0.740984
0.741132
0.74119
0.741119
0.741062
0.741019
0.740972
0.741123
0.74113
0.741129
0.741163
0.741118
0.740971
0.741134
0.741104
0.740947
0.740961
0.741122
0.741128
0.741033
0.74125
0.740983
0.741249
0.741034
0.741069
0.741178
0.741131
0.741153
0.741137
0.741184
0.741238
0.741132
0.740984
0.741034
0.741206
0.741129
0.741156
0.74113
0.74102
0.741248
0.74097
0.741124
0.741158
0.741248
0.741022
0.741137
0.741075
0.741133
0.740983
0.741127
0.741132
0.741113
0.74111
0.741053
0.741092
0.741131
0.741
0.741122
0.741132
0.741129
0.741142
0.741026
0.741027
0.741119
0.741094
0.741002
0.740946
0.740993
0.741025
0.74113
0.741026
0.741026
0.741001
0.741025
0.741192
0.741031
0.740993
0.741145
0.741032
0.741162
0.741191
0.741128
0.741209
0.741132
0.741003
0.741131
0.741131
0.741023
0.741155
0.740991
0.741153
0.741165
0.741194
0.741132
0.741156
0.740987
0.741032
0.741001
0.741129
0.74112
0.741121
0.741156
0.74113
0.741149
0.741131
0.741079
0.741036
0.741156
0.741003
0.741158
0.74115
0.741017
0.741177
0.741132
0.741181
0.741141
0.741129
0.741159
0.741053
0.741144
0.74104
0.741164
0.741136
0.741136
0.741131
0.741133
0.741134
0.741133
0.741136
0.741179
0.741178
0.741179
0.74118
0.741207
0.741206
0.741051
0.741136
0.741121
0.741093
0.741183
0.741184
0.741122
0.741037
0.741119
0.741132
0.741055
0.741177
0.741053
0.74116
0.741117
0.741055
0.741041
0.740982
0.740979
0.741158
0.740979
0.741118
0.741039
0.741077
0.741119
0.741135
0.741261
0.741134
0.740979
0.741039
0.74112
0.741127
0.741036
0.741135
0.741077
0.741261
0.74104
0.741137
0.741152
0.741121
0.741182
0.741155
0.741208
0.741121
0.740954
0.740944
0.741201
0.741101
0.741127
0.741055
0.741177
0.741145
0.741039
0.741147
0.741063
0.741134
0.741064
0.741037
0.741286
0.741194
0.741182
0.741181
0.741135
0.741066
0.741233
0.74115
0.741095
0.741066
0.741058
0.741199
0.741054
0.741193
0.741061
0.740938
0.741065
0.740981
0.741165
0.741054
0.741285
0.741061
0.741158
0.741051
0.741155
0.74106
0.741114
0.740941
0.741106
0.741054
0.741197
0.741052
0.741095
0.741157
0.741132
0.74106
0.741065
0.741076
0.741166
0.741064
0.741128
0.741114
0.741208
0.741065
0.741074
0.741099
0.741078
0.741062
0.741078
0.741175
0.741126
0.741076
0.741053
0.741135
0.741136
0.741063
0.741208
0.740864
0.741115
0.740982
0.741101
0.740699
0.7407
0.7407
0.740699
0.740699
0.740702
0.740703
0.741166
0.741226
0.74112
0.741093
0.741076
0.741077
0.741134
0.741075
0.741074
0.741228
0.741077
0.74118
0.741031
0.741174
0.741109
0.741093
0.741076
0.741202
0.741115
0.741095
0.741115
0.741095
0.741073
0.741033
0.741092
0.741112
0.74118
0.74108
0.74107
0.741078
0.74109
0.741111
0.741134
0.741078
0.741133
0.741107
0.741091
0.741128
0.741107
0.741075
0.741154
0.741098
0.741223
0.740939
0.741166
0.741175
0.741111
0.741099
0.741148
0.740869
0.741109
0.741098
0.740942
0.741286
0.741288
0.741113
0.741076
0.741101
0.74108
0.741337
0.741336
0.741126
0.741129
0.741127
0.740871
0.741072
0.741159
0.741093
0.74109
0.741091
0.740861
0.741154
0.741075
0.741113
0.741113
0.741089
0.741094
0.74109
0.741092
0.740921
0.740982
0.741094
0.741114
0.741098
0.741089
0.741096
0.7411
0.741098
0.74094
0.741184
0.741077
0.741147
0.741155
0.740938
0.741111
0.741107
0.741209
0.741279
0.741279
0.741194
0.741071
0.741113
0.740935
0.741273
0.741325
0.741325
0.740858
0.741243
0.741255
0.74111
0.74119
0.74112
0.741134
0.741154
0.741164
0.741129
0.740867
0.741116
0.741146
0.741159
0.740903
0.741245
0.740941
0.741155
0.741138
0.741058
0.741119
0.741127
0.741208
0.741129
0.741208
0.741113
0.74116
0.741251
0.741254
0.740938
0.741138
0.740871
0.740879
0.740862
0.741154
0.740867
0.740855
0.741089
0.740866
0.741224
0.741224
0.740872
0.741097
0.740924
0.740872
0.740916
0.74087
0.740916
0.741245
0.740927
0.740868
0.74087
0.741126
0.74117
0.740912
0.741127
0.740855
0.741135
0.741099
0.740868
0.740907
0.740862
0.740858
0.741107
0.741229
0.741318
0.741314
0.741139
0.741317
0.741317
0.741316
0.741292
0.740932
0.741248
0.741197
0.74123
0.741136
0.741299
0.741298
0.741236
0.740854
0.741097
0.740864
0.740937
0.740934
0.741269
0.741268
0.741266
0.741267
0.741268
0.741315
0.74127
0.7413
0.741323
0.741272
0.741272
0.741324
0.741315
0.7413
0.741267
SCALARS rr_(P) float
LOOKUP_TABLE default
0.0158202
0.0157804
0.0157839
0.015781
0.0157703
0.015784
0.0158203
0.0157816
0.0157873
0.0157805
0.0158174
0.0157816
0.0157824
0.01578
0.0157739
0.0157834
0.0157785
0.015782
0.015789
0.0157849
0.0157855
0.0157563
0.0157854
0.0157849
0.015785
0.0157814
0.015812
0.0157835
0.0157999
0.0157645
0.0157826
0.0157998
0.0158126
0.0157669
0.0157658
0.0157669
0.015764
0.0157663
0.0157826
0.0158125
0.0158
0.0157638
0.0157639
0.0157826
0.0158087
0.0157993
0.0157882
0.0157866
0.0157838
0.0158023
0.0158009
0.0157959
0.0157708
0.0157958
0.0157711
0.0158076
0.0157657
0.0157958
0.0157657
0.0157847
0.0157787
0.0157754
0.0158095
0.0157756
0.0157753
0.0157786
0.0157785
0.0157813
0.0157852
0.0157802
0.0157709
0.0157709
0.0158
0.0157774
0.0157838
0.0158143
0.0157733
0.0157787
0.0157814
0.0157949
0.0158032
0.015769
0.015777
0.0158043
0.0157988
0.0158083
0.0157835
0.015778
0.0158087
0.0157582
0.0157958
0.0157583
0.015773
0.0157791
0.0157955
0.0158013
0.0158031
0.0157806
0.0157733
0.0157828
0.0157914
0.0157978
0.0158043
0.0157816
0.0157809
0.0157809
0.0157765
0.0157831
0.0158044
0.0157797
0.0157847
0.0158075
0.0158057
0.0157819
0.0157811
0.0157957
0.0157657
0.0158033
0.0157658
0.0157955
0.0157899
0.0157744
0.0157804
0.0157779
0.0157794
0.0157736
0.0157671
0.0157806
0.0158031
0.0157955
0.0157708
0.0157806
0.0157772
0.0157805
0.0157978
0.0157656
0.0158053
0.0157822
0.015777
0.0157657
0.0157973
0.0157805
0.0157893
0.0157805
0.0158035
0.0157812
0.015781
0.0157839
0.015784
0.0157925
0.0157867
0.0157804
0.0157999
0.0157824
0.0157805
0.0157806
0.0157794
0.015797
0.0157968
0.0157824
0.0157866
0.0157996
0.0158078
0.0158009
0.015797
0.0157808
0.015797
0.0157971
0.0157999
0.0157969
0.0157729
0.0157958
0.015801
0.0157791
0.0157957
0.0157767
0.0157729
0.0157816
0.0157707
0.0157808
0.0157999
0.0157807
0.0157807
0.0157973
0.0157779
0.0158012
0.0157779
0.0157765
0.0157728
0.0157806
0.0157779
0.0158027
0.0157957
0.0157998
0.0157805
0.0157822
0.015782
0.0157772
0.0157804
0.0157788
0.0157803
0.0157886
0.0157947
0.0157773
0.0157998
0.015777
0.0157787
0.015798
0.0157749
0.0157803
0.0157745
0.0157798
0.0157811
0.015777
0.0157924
0.0157795
0.0157943
0.0157765
0.0157795
0.0157795
0.0157799
0.0157798
0.0157798
0.0157798
0.0157803
0.0157742
0.0157743
0.0157742
0.0157741
0.015771
0.015771
0.0157927
0.0157801
0.0157813
0.0157868
0.0157739
0.0157738
0.0157812
0.0157945
0.0157815
0.0157806
0.0157922
0.0157748
0.0157924
0.0157769
0.0157816
0.0157921
0.0157941
0.0158033
0.0158029
0.015777
0.0158041
0.0157829
0.0157943
0.0157888
0.0157815
0.0157796
0.0157637
0.0157797
0.0158044
0.0157943
0.0157814
0.0157816
0.0157948
0.0157796
0.0157891
0.0157637
0.0157942
0.0157794
0.0157781
0.015782
0.015774
0.0157781
0.0157708
0.0157825
0.0158069
0.0158084
0.0157719
0.0157854
0.0157816
0.0157924
0.0157748
0.0157791
0.0157942
0.015779
0.0157912
0.0157809
0.0157912
0.0157945
0.0157606
0.0157725
0.0157738
0.0157739
0.0157803
0.0157909
0.0157673
0.0157783
0.0157864
0.0157908
0.015792
0.015772
0.0157923
0.015773
0.0157916
0.0158086
0.015791
0.0158037
0.0157764
0.0157922
0.0157606
0.0157916
0.0157773
0.0157927
0.0157777
0.0157917
0.0157835
0.0158102
0.0157843
0.0157924
0.0157721
0.0157925
0.0157864
0.0157777
0.0157802
0.0157916
0.015791
0.0157892
0.0157765
0.015791
0.0157816
0.0157835
0.0157709
0.015791
0.0157895
0.0157858
0.015789
0.0157914
0.0157889
0.0157753
0.0157817
0.0157893
0.0157924
0.0157806
0.0157805
0.0157912
0.015771
0.0158188
0.0157836
0.0158032
0.0157857
0.0158397
0.0158396
0.0158394
0.0158394
0.0158393
0.0158398
0.0158396
0.0157763
0.0157684
0.0157823
0.0157866
0.0157888
0.0157891
0.0157809
0.0157893
0.0157895
0.0157683
0.0157891
0.0157746
0.0157958
0.0157748
0.0157841
0.0157867
0.0157892
0.0157719
0.0157836
0.0157864
0.0157836
0.0157863
0.0157894
0.0157951
0.0157867
0.015784
0.0157745
0.0157885
0.0157897
0.0157886
0.0157869
0.0157841
0.0157808
0.0157887
0.0157809
0.0157844
0.0157868
0.0157815
0.0157843
0.0157891
0.0157777
0.015786
0.0157688
0.0158086
0.0157763
0.0157753
0.015784
0.0157859
0.0157787
0.0158184
0.015784
0.0157861
0.01581
0.0157609
0.0157607
0.0157836
0.0157889
0.0157856
0.0157885
0.0157547
0.0157547
0.0157815
0.0157815
0.0157817
0.0158185
0.0157895
0.0157772
0.0157868
0.0157872
0.0157869
0.0158191
0.0157779
0.0157891
0.0157838
0.0157837
0.0157872
0.0157864
0.0157872
0.0157869
0.0158122
0.0158036
0.0157865
0.0157837
0.015786
0.0157874
0.0157863
0.0157858
0.015786
0.0158086
0.0157739
0.0157887
0.0157788
0.0157777
0.0158089
0.0157839
0.0157842
0.0157709
0.015761
0.0157611
0.0157725
0.0157896
0.0157838
0.0158093
0.0157618
0.0157556
0.0157557
0.0158195
0.0157663
0.0157644
0.0157842
0.0157732
0.0157824
0.0157803
0.0157776
0.0157766
0.0157816
0.0158184
0.0157833
0.0157791
0.0157772
0.0158145
0.0157658
0.0158107
0.0157774
0.0157802
0.0157918
0.0157826
0.0157818
0.0157705
0.0157812
0.0157705
0.0157837
0.0157772
0.0157651
0.0157649
0.0158092
0.0157798
0.015821
0.0158202
0.0158218
0.015778
0.0158189
0.0158226
0.0157874
0.0158214
0.0157689
0.0157689
0.0158208
0.0157858
0.0158122
0.0158212
0.0158129
0.0158213
0.0158129
0.015766
0.0158106
0.0158188
0.0158208
0.015782
0.0157758
0.0158135
0.0157819
0.0158223
0.0157806
0.0157855
0.0158216
0.0158141
0.0158222
0.0158195
0.0157844
0.0157682
0.0157563
0.0157568
0.0157799
0.0157564
0.0157564
0.0157566
0.0157597
0.0158098
0.0157654
0.0157722
0.0157681
0.0157804
0.0157589
0.015759
0.0157674
0.0158199
0.0157859
0.0158195
0.0158114
0.015811
0.0157623
0.0157624
0.0157627
0.0157626
0.0157624
0.015757
0.0157626
0.0157589
0.0157562
0.0157622
0.0157622
0.0157561
0.0157569
0.0157588
0.0157629
SCALARS rr_(T) float
LOOKUP_TABLE default
0.0400761
0.0401025
0.0400999
0.0401017
0.0401129
0.0400999
0.040076
0.0401018
0.0400975
0.0401024
0.0400769
0.0401018
0.0401011
0.0401031
0.0401089
0.0401002
0.0401044
0.0401013
0.0400962
0.0400991
0.0400989
0.0401278
0.0400988
0.0400993
0.0400991
0.0401019
0.0400809
0.0401005
0.0400888
0.0401189
0.040101
0.0400889
0.0400806
0.0401165
0.0401175
0.0401164
0.0401193
0.0401169
0.040101
0.0400807
0.0400888
0.0401195
0.0401195
0.040101
0.0400828
0.0400892
0.0400968
0.040098
0.0401001
0.0400871
0.0400882
0.0400916
0.0401123
0.0400916
0.0401119
0.0400839
0.0401176
0.0400917
0.0401175
0.0400993
0.0401042
0.0401074
0.0400828
0.0401073
0.0401074
0.0401047
0.0401043
0.0401019
0.040099
0.0401026
0.0401122
0.0401121
0.0400887
0.0401059
0.0400999
0.0400793
0.0401098
0.0401046
0.0401019
0.0400921
0.0400868
0.040114
0.0401059
0.0400859
0.0400897
0.0400832
0.0401004
0.0401054
0.0400829
0.0401259
0.0400916
0.0401259
0.04011
0.0401044
0.0400918
0.0400878
0.0400868
0.0401023
0.0401097
0.0401008
0.0400947
0.0400903
0.0400859
0.0401014
0.0401023
0.040102
0.0401066
0.0401006
0.0400858
0.040103
0.0400994
0.0400837
0.040085
0.0401014
0.0401019
0.0400917
0.0401176
0.0400867
0.0401175
0.0400918
0.0400956
0.0401084
0.0401024
0.040105
0.0401033
0.0401094
0.0401161
0.0401023
0.0400868
0.0400919
0.0401123
0.0401022
0.0401056
0.0401023
0.0400903
0.0401177
0.0400854
0.0401015
0.0401059
0.0401176
0.0400906
0.040103
0.0400962
0.0401027
0.0400866
0.0401019
0.0401027
0.0401003
0.0400998
0.0400939
0.040098
0.0401025
0.0400888
0.0401011
0.0401026
0.0401022
0.0401036
0.0400909
0.040091
0.0401009
0.040098
0.040089
0.0400835
0.0400881
0.0400909
0.0401021
0.0400909
0.0400908
0.0400888
0.0400909
0.0401101
0.0400916
0.040088
0.0401039
0.0400917
0.0401064
0.0401101
0.0401021
0.0401123
0.0401026
0.0400889
0.0401022
0.0401022
0.0400907
0.0401054
0.0400879
0.040105
0.0401066
0.0401103
0.0401023
0.0401054
0.0400871
0.0400917
0.0400888
0.0401023
0.0401011
0.0401013
0.0401056
0.0401024
0.0401045
0.0401025
0.0400966
0.0400923
0.0401055
0.0400889
0.0401058
0.0401047
0.0400902
0.0401083
0.0401026
0.0401085
0.0401036
0.0401022
0.0401059
0.040094
0.0401039
0.0400926
0.0401066
0.0401032
0.0401032
0.0401027
0.0401029
0.0401029
0.0401028
0.040103
0.0401086
0.0401085
0.0401086
0.0401086
0.0401121
0.0401121
0.0400937
0.040103
0.0401013
0.0400978
0.0401089
0.0401091
0.0401015
0.0400924
0.0401011
0.0401023
0.040094
0.0401083
0.0400939
0.040106
0.040101
0.0400941
0.0400927
0.0400867
0.0400867
0.0401058
0.0400863
0.0401006
0.0400925
0.0400965
0.0401011
0.0401031
0.0401198
0.0401029
0.0400861
0.0400926
0.0401013
0.040102
0.0400922
0.040103
0.0400963
0.0401198
0.0400926
0.0401033
0.0401049
0.0401012
0.0401088
0.0401053
0.0401123
0.040101
0.0400842
0.0400832
0.0401113
0.0400988
0.040102
0.040094
0.0401084
0.0401039
0.0400926
0.0401044
0.0400948
0.0401028
0.0400948
0.0400925
0.0401232
0.0401105
0.040109
0.040109
0.0401029
0.040095
0.040116
0.0401047
0.0400982
0.0400951
0.0400942
0.0401111
0.040094
0.0401101
0.0400945
0.0400829
0.040095
0.0400865
0.0401068
0.040094
0.0401232
0.0400945
0.0401059
0.0400937
0.0401053
0.0400944
0.0401002
0.0400825
0.0400996
0.0400939
0.040111
0.0400939
0.0400983
0.0401055
0.0401026
0.0400945
0.0400949
0.0400962
0.0401067
0.0400949
0.0401019
0.0401005
0.0401122
0.0400949
0.040096
0.0400987
0.0400963
0.0400946
0.0400964
0.040108
0.0401018
0.0400961
0.040094
0.0401029
0.0401029
0.0400948
0.0401121
0.040076
0.0401005
0.0400867
0.0400988
0.040061
0.0400611
0.0400612
0.0400612
0.0400612
0.0400611
0.0400612
0.0401069
0.0401149
0.0401012
0.0400982
0.0400964
0.0400963
0.0401027
0.0400962
0.040096
0.040115
0.0400963
0.0401084
0.0400916
0.0401079
0.0401
0.0400981
0.0400962
0.0401113
0.0401004
0.0400983
0.0401005
0.0400983
0.0400959
0.040092
0.0400981
0.0401002
0.0401085
0.0400967
0.0400957
0.0400965
0.0400979
0.0401001
0.0401028
0.0400965
0.0401027
0.0400997
0.040098
0.0401021
0.0400997
0.0400962
0.0401052
0.0400985
0.0401144
0.0400829
0.0401068
0.040108
0.0401001
0.0400985
0.0401045
0.0400763
0.0401
0.0400985
0.0400826
0.040123
0.0401232
0.0401004
0.0400964
0.0400988
0.0400967
0.0401297
0.0401297
0.0401017
0.0401021
0.0401021
0.0400764
0.0400959
0.0401057
0.0400978
0.0400976
0.0400979
0.0400758
0.0401053
0.0400962
0.0401003
0.0401003
0.0400975
0.0400982
0.0400975
0.0400978
0.0400808
0.0400866
0.0400982
0.0401005
0.0400985
0.0400974
0.0400983
0.0400987
0.0400985
0.040083
0.0401092
0.0400965
0.0401044
0.0401054
0.0400828
0.0400999
0.0400996
0.0401122
0.0401227
0.0401226
0.0401106
0.0400958
0.0401003
0.0400825
0.0401218
0.0401285
0.0401285
0.0400755
0.0401169
0.040119
0.0400999
0.0401099
0.040101
0.0401026
0.0401053
0.0401066
0.0401021
0.0400762
0.0401005
0.0401041
0.0401057
0.0400792
0.0401176
0.0400823
0.0401054
0.040103
0.0400944
0.0401008
0.0401019
0.0401127
0.0401022
0.0401126
0.0401001
0.0401059
0.0401184
0.0401187
0.0400826
0.0401033
0.0400757
0.0400763
0.040075
0.0401052
0.0400761
0.0400744
0.0400974
0.0400753
0.0401142
0.0401141
0.0400758
0.0400985
0.0400809
0.0400756
0.0400804
0.0400755
0.0400804
0.0401172
0.0400816
0.0400762
0.0400757
0.0401017
0.0401073
0.0400799
0.0401019
0.0400745
0.0401029
0.0400988
0.0400753
0.0400795
0.0400748
0.0400755
0.0400997
0.040115
0.0401277
0.0401272
0.0401035
0.0401276
0.0401276
0.0401274
0.0401241
0.0400822
0.0401181
0.0401109
0.0401152
0.0401031
0.0401251
0.040125
0.0401158
0.0400752
0.0400984
0.0400757
0.0400819
0.0400819
0.0401212
0.0401211
0.0401208
0.0401209
0.0401212
0.040127
0.040121
0.0401252
0.040128
0.0401214
0.0401215
0.0401281
0.0401271
0.0401252
0.0401208
SCALARS rr_tsim float
LOOKUP_TABLE default
110
110
110
110
110
110
110
110
110
110
110
110
110
110
110
110
110
110
110
110
110
110
110
110
110
110
110
110
110
110
110
110
110
110
110
110
110
110
110
110
110
110
110
110
110
110
110
110
110
110
110
110
110
110
110
110
110
110
110
110
110
110
110
110
110
110
110
110
110
110
110
110
110
110
110
110
110
110
110
110
110
110
110
110
110
110
110
110
110
110
110
110
110
110
110
110
110
110
110
110
110
110
110
110
110
110
110
110
110
110
110
110
110
110
110
110
110
110
110
110
110
110
110
110
110
110
110
110
110
110
110
110
110
110
110
110
110
110
110
110
110
110
110
110
110
110
110
110
110
110
110
110
110
110
110
110
110
110
110
110
110
110
110
110
110
110
110
110
110
110
110
110
110
110
110
110
110
110
110
110
110
110
110
110
110
110
110
110
110
110
110
110
110
110
110
110
110
110
110
110
110
110
110
110
110
110
110
110
110
110
110
110
110
110
110
110
110
110
110
110
110
110
110
110
110
110
110
110
110
110
110
110
110
110
110
110
110
110
110
110
110
110
110
110
110
110
110
110
110
110
110
110
110
110
110
110
110
110
110
110
110
110
110
110
110
110
110
110
110
110
110
110
110
110
110
110
110
110
110
110
110
110
110
110
110
110
110
110
110
110
110
110
110
110
110
110
110
110
110
110
110
110
110
110
110
110
110
110
110
110
110
110
110
110
110
110
110
110
110
110
110
110
110
110
110
110
110
110
110
110
110
110
110
110
110
110
110
110
110
110
110
110
110
110
110
110
110
110
110
110
110
110
110
110
110
110
110
110
110
110
110
110
110
110
110
110
110
110
110
110
110
110
110
110
110
110
110
110
110
110
110
110
110
110
110
110
110
110
110
110
110
110
110
110
110
110
110
110
110
110
110
110
110
110
110
110
110
110
110
110
110
110
110
110
110
110
110
110
110
110
110
110
110
110
110
110
110
110
110
110
110
110
110
110
110
110
110
110
110
110
110
110
110
110
110
110
110
110
110
110
110
110
110
110
110
110
110
110
110
110
110
110
110
110
110
110
110
110
110
110
110
110
110
110
110
110
110
110
110
110
110
110
110
110
110
110
110
110
110
110
110
110
110
110
110
110
110
110
110
110
110
110
110
110
110
110
110
110
110
110
110
110
110
110
110
110
110
110
110
110
110
110
110
110
110
110
110
110
110
110
110
110
110
110
110
110
110
110
110
110
110
110
110
110
110
110
110
110
110
110
110
110
110
110
110
110
110
110
110
110
110
110
110
SCALARS rr_Vext float
LOOKUP_TABLE default
0.181361
0.449134
0.356057
0.468121
0.250497
0.377837
0.179277
0.4651
0.395116
0.504578
0.165391
0.46652
0.409836
0.435024
0.516146
0.424875
0.369052
0.414194
0.36554
0.360536
0.405119
0.0765112
0.41508
0.383024
0.347114
0.403481
0.155012
0.352843
0.267418
0.339251
0.361978
0.276491
0.171523
0.252905
0.249251
0.253456
0.330131
0.249494
0.361549
0.192839
0.224726
0.291054
0.291064
0.397281
0.216889
0.244125
0.34462
0.350192
0.330087
0.303767
0.31286
0.245242
0.401525
0.315214
0.369421
0.157756
0.266182
0.317523
0.266154
0.393194
0.47094
0.464882
0.153278
0.327649
0.445323
0.417383
0.455665
0.391914
0.357994
0.515569
0.435562
0.430798
0.27766
0.338752
0.353981
0.176429
0.372683
0.413486
0.395179
0.271139
0.240495
0.283511
0.527544
0.240255
0.327767
0.119294
0.40759
0.344617
0.22971
0.0374832
0.273099
0.0407611
0.316363
0.299319
0.258665
0.232988
0.220913
0.442941
0.372918
0.351864
0.293542
0.277775
0.230482
0.418586
0.426148
0.383841
0.340634
0.340856
0.244633
0.512531
0.326034
0.164041
0.22006
0.45789
0.429729
0.304489
0.308635
0.183512
0.32004
0.303373
0.266992
0.502659
0.511823
0.44205
0.484537
0.384959
0.220818
0.478222
0.200082
0.262285
0.227507
0.456406
0.449033
0.44826
0.288943
0.18754
0.190642
0.327447
0.404477
0.187462
0.241547
0.387298
0.287976
0.472769
0.22328
0.385199
0.349739
0.336135
0.214794
0.269552
0.304306
0.440637
0.248031
0.39742
0.462
0.469254
0.307863
0.249013
0.247662
0.401145
0.33386
0.246122
0.160079
0.239709
0.240472
0.430966
0.252354
0.255106
0.274625
0.245944
0.386351
0.258189
0.226063
0.297721
0.272817
0.340313
0.382125
0.361141
0.313983
0.360853
0.266572
0.418256
0.448863
0.241619
0.442309
0.239444
0.436805
0.402745
0.378973
0.379424
0.446236
0.200778
0.266934
0.246021
0.44742
0.439031
0.407209
0.447904
0.452963
0.381873
0.46658
0.307723
0.274116
0.512742
0.285553
0.465964
0.369969
0.226659
0.286347
0.461735
0.389042
0.350315
0.450066
0.445265
0.278865
0.284227
0.267548
0.395461
0.433429
0.498103
0.4781
0.520383
0.471569
0.515299
0.432065
0.457211
0.46066
0.434363
0.456366
0.422926
0.416642
0.282417
0.389419
0.454306
0.312128
0.470282
0.432164
0.492671
0.288252
0.468288
0.448688
0.284506
0.406921
0.282475
0.455248
0.411299
0.296261
0.277684
0.235557
0.271102
0.455783
0.197505
0.347028
0.276533
0.31391
0.468683
0.455559
0.14779
0.457115
0.236435
0.26177
0.466281
0.379035
0.264591
0.522194
0.291237
0.147781
0.26773
0.406408
0.508933
0.382698
0.457764
0.425164
0.226619
0.216736
0.175982
0.201431
0.30814
0.229081
0.371989
0.227529
0.4064
0.287629
0.268107
0.32396
0.293528
0.39853
0.281493
0.287602
0.136372
0.303577
0.437818
0.438066
0.391533
0.281122
0.192361
0.545889
0.360496
0.298324
0.274297
0.284981
0.282735
0.358849
0.278097
0.192062
0.274798
0.183499
0.351074
0.279582
0.127092
0.263727
0.321344
0.279321
0.443679
0.290716
0.381476
0.138317
0.305669
0.28702
0.261629
0.269323
0.321999
0.308729
0.321053
0.266569
0.271169
0.293866
0.403609
0.276101
0.399031
0.358795
0.290801
0.28648
0.290129
0.32338
0.289919
0.270123
0.308536
0.333035
0.387875
0.290175
0.286359
0.425152
0.419257
0.276218
0.29084
0.11737
0.342071
0.227682
0.319687
0.126305
0.131124
0.117234
0.11913
0.126412
0.133077
0.137187
0.365826
0.275207
0.269669
0.30554
0.296213
0.292414
0.314716
0.285999
0.292393
0.310827
0.29132
0.368795
0.261069
0.37884
0.289109
0.277584
0.291602
0.32277
0.329
0.304702
0.351056
0.326037
0.300396
0.213979
0.303866
0.298868
0.328286
0.305315
0.288525
0.275041
0.304069
0.319098
0.43617
0.283312
0.424009
0.438668
0.298871
0.422872
0.322482
0.255683
0.3568
0.307324
0.229508
0.185273
0.353355
0.377145
0.313439
0.259548
0.317019
0.138206
0.30987
0.289519
0.140571
0.0597491
0.0653759
0.268657
0.2833
0.331363
0.316593
0.031131
0.0325288
0.318186
0.321548
0.304248
0.103725
0.264732
0.315909
0.315648
0.272081
0.240286
0.107865
0.464475
0.284951
0.352167
0.357679
0.255168
0.323451
0.24948
0.275485
0.129741
0.199384
0.323812
0.327756
0.280331
0.293569
0.303664
0.320511
0.306415
0.143963
0.275783
0.301359
0.29089
0.437495
0.14386
0.233736
0.240577
0.234526
0.155626
0.15563
0.267703
0.208511
0.301879
0.153858
0.185527
0.0614171
0.0614145
0.112311
0.199636
0.134973
0.257005
0.284542
0.297812
0.337007
0.307423
0.285236
0.22222
0.127173
0.278055
0.290586
0.282443
0.144131
0.147646
0.10463
0.281953
0.285976
0.224185
0.258255
0.238717
0.223794
0.292916
0.22376
0.257208
0.251391
0.158048
0.195242
0.16531
0.310651
0.112707
0.118919
0.11594
0.294538
0.107691
0.104734
0.20092
0.097933
0.243158
0.243512
0.10066
0.25545
0.113724
0.11099
0.127156
0.105859
0.105724
0.174207
0.126242
0.112776
0.106278
0.235814
0.272663
0.118745
0.260321
0.0960776
0.264793
0.208176
0.100552
0.0864362
0.0948705
0.126462
0.225555
0.192182
0.082443
0.0914078
0.253861
0.0775864
0.0775831
0.0878722
0.0979628
0.0995864
0.127335
0.207535
0.193797
0.253772
0.0775248
0.0775215
0.229255
0.0843475
0.178717
0.0765198
0.0783424
0.103272
0.198597
0.205598
0.218908
0.200661
0.198582
0.0438927
0.320384
0.0557541
0.0543421
0.25901
0.257241
0.0563348
0.0390574
0.0548048
0.238562
SCALARS rr_Vli float
LOOKUP_TABLE default
0.396488
0.903304
0.721408
0.94291
0.493006
0.76567
0.392035
0.937677
0.806273
1.01512
0.359837
0.940549
0.827708
0.87416
1.02413
0.859735
0.7394
0.835921
0.748802
0.732058
0.823486
0.146196
0.843744
0.777632
0.704893
0.813146
0.33335
0.714262
0.560611
0.659804
0.73123
0.579531
0.369273
0.494394
0.485906
0.495509
0.64146
0.486898
0.730487
0.415066
0.471213
0.565332
0.565392
0.80252
0.463325
0.51115
0.704666
0.713577
0.668686
0.640146
0.657318
0.509712
0.791286
0.654958
0.728503
0.336095
0.51881
0.65976
0.518793
0.798052
0.943871
0.925036
0.327841
0.652222
0.886016
0.836201
0.913006
0.789779
0.727294
1.03671
0.858511
0.849157
0.582213
0.676856
0.716974
0.381184
0.738163
0.828445
0.796427
0.562483
0.507626
0.556451
1.05351
0.508335
0.685388
0.25458
0.825081
0.689491
0.490663
0.0719436
0.567532
0.0782463
0.626354
0.600263
0.537112
0.489904
0.466219
0.891221
0.738711
0.711154
0.604221
0.579676
0.487752
0.844116
0.858087
0.77272
0.679551
0.689384
0.517762
1.02965
0.661682
0.34948
0.467061
0.923828
0.865442
0.632495
0.601615
0.387413
0.624004
0.629995
0.547963
0.998318
1.02948
0.884284
0.972864
0.763257
0.431752
0.962243
0.422255
0.54465
0.448455
0.918486
0.897116
0.901829
0.602903
0.365539
0.404184
0.660936
0.807738
0.365416
0.503541
0.778939
0.590245
0.951067
0.471534
0.77607
0.704327
0.680959
0.43525
0.556272
0.620251
0.886314
0.519985
0.802503
0.929448
0.944269
0.617858
0.51866
0.515716
0.810203
0.680211
0.515662
0.34124
0.503641
0.500931
0.867521
0.525648
0.531446
0.575699
0.512239
0.764772
0.536477
0.475017
0.59703
0.566762
0.679105
0.756456
0.728163
0.618515
0.726378
0.558763
0.841642
0.903311
0.503625
0.884788
0.503411
0.873813
0.803289
0.74992
0.763395
0.892547
0.423346
0.554573
0.515694
0.900216
0.886307
0.821717
0.89491
0.911203
0.765276
0.938423
0.629678
0.568296
1.02454
0.598475
0.930558
0.741283
0.473243
0.569202
0.928581
0.772733
0.70361
0.906442
0.889143
0.575333
0.570475
0.554203
0.788787
0.870384
1.00029
0.961023
1.04559
0.947459
1.0354
0.868718
0.907703
0.914775
0.86235
0.905938
0.833935
0.821521
0.583008
0.7828
0.915914
0.636243
0.933127
0.857215
0.993032
0.597479
0.944376
0.902762
0.58674
0.808807
0.582778
0.908862
0.829732
0.610885
0.574985
0.497308
0.572065
0.910108
0.417616
0.701486
0.572849
0.642717
0.945264
0.914974
0.286928
0.918301
0.5002
0.542262
0.940108
0.764206
0.548652
1.04888
0.59668
0.286929
0.554504
0.815984
1.01857
0.77224
0.908472
0.850829
0.446603
0.437756
0.374436
0.429885
0.608687
0.465563
0.749997
0.469388
0.807674
0.576821
0.555344
0.649552
0.603999
0.802283
0.579183
0.596024
0.26302
0.600446
0.868516
0.869135
0.787214
0.578067
0.37639
1.09286
0.734305
0.613263
0.56537
0.562961
0.583127
0.710464
0.572681
0.410198
0.565171
0.387694
0.70013
0.576603
0.24515
0.543081
0.642118
0.576623
0.887247
0.598802
0.772179
0.296224
0.619808
0.592066
0.517043
0.555821
0.655884
0.617319
0.645554
0.549014
0.557651
0.602201
0.804991
0.567874
0.804512
0.726248
0.573158
0.589132
0.59478
0.657847
0.593799
0.555998
0.631812
0.662551
0.782186
0.594655
0.590814
0.855293
0.843314
0.568304
0.573281
0.256089
0.692606
0.48063
0.650108
0.287607
0.298551
0.266804
0.271172
0.287683
0.303057
0.312312
0.729348
0.539726
0.544569
0.622608
0.606505
0.598937
0.633524
0.586135
0.599488
0.609473
0.596716
0.732663
0.542549
0.753112
0.586008
0.565703
0.597469
0.63747
0.666117
0.620596
0.710721
0.664002
0.615747
0.444042
0.619302
0.605576
0.652008
0.624641
0.591872
0.562876
0.620022
0.646726
0.877923
0.579862
0.853554
0.889745
0.609282
0.852435
0.653934
0.523844
0.713548
0.625429
0.450403
0.395667
0.704473
0.750318
0.635205
0.528053
0.635257
0.301237
0.628026
0.589269
0.300914
0.115299
0.126127
0.544008
0.580101
0.673741
0.647666
0.0592775
0.061939
0.641401
0.648092
0.613486
0.226114
0.542808
0.631016
0.643422
0.555018
0.489881
0.23547
0.929289
0.583737
0.713237
0.724388
0.520586
0.658853
0.508993
0.561651
0.279103
0.421179
0.659637
0.663713
0.570438
0.599128
0.618261
0.651897
0.623527
0.307429
0.5471
0.616836
0.583019
0.874908
0.307369
0.473537
0.487757
0.462243
0.300516
0.300536
0.529557
0.427595
0.61154
0.329007
0.358877
0.117176
0.117176
0.245399
0.389621
0.262495
0.521055
0.563543
0.601416
0.677652
0.614661
0.569073
0.448039
0.277252
0.562551
0.582804
0.564251
0.311558
0.287926
0.224285
0.563456
0.574854
0.461945
0.521751
0.481457
0.440839
0.590099
0.440801
0.520826
0.502151
0.307813
0.380029
0.353395
0.623987
0.246786
0.259981
0.254335
0.589287
0.234982
0.230139
0.410012
0.214645
0.477123
0.477845
0.220335
0.519614
0.244575
0.243123
0.273903
0.231959
0.22774
0.339831
0.270699
0.245998
0.232678
0.475752
0.543006
0.256117
0.525111
0.211012
0.532693
0.423222
0.220455
0.186664
0.208256
0.27632
0.45747
0.37661
0.157552
0.174883
0.50999
0.148307
0.148306
0.168049
0.188629
0.213207
0.248114
0.410276
0.379763
0.510344
0.149005
0.149004
0.448514
0.184462
0.363612
0.16715
0.168151
0.221555
0.384551
0.398197
0.424216
0.38878
0.384541
0.0840104
0.620734
0.107164
0.103829
0.501446
0.497967
0.107596
0.0747331
0.105301
0.462544
SCALARS rr_S_ext' float
LOOKUP_TABLE default
-0.00130368
-0.00297684
-0.00237697
-0.00310723
-0.0016256
-0.00252279
-0.00128903
-0.00308995
-0.0026561
-0.00334532
-0.00118329
-0.00309941
-0.00272744
-0.00288088
-0.00337616
-0.00283284
-0.00243693
-0.00275454
-0.00246651
-0.00241192
-0.00271308
-0.000482395
-0.00277981
-0.00256208
-0.00232241
-0.00267959
-0.00109658
-0.00235347
-0.00184548
-0.00217618
-0.00240952
-0.00190777
-0.00121471
-0.00163043
-0.00160256
-0.0016341
-0.00211572
-0.00160579
-0.00240706
-0.00136536
-0.00155117
-0.00186465
-0.00186484
-0.00264443
-0.00152441
-0.00168272
-0.00232125
-0.00235082
-0.00220326
-0.00210699
-0.00216369
-0.00167832
-0.00260902
-0.00215659
-0.00240198
-0.0011059
-0.00171109
-0.0021724
-0.00171103
-0.00262937
-0.0031108
-0.0030493
-0.00107863
-0.00214998
-0.00292068
-0.00275599
-0.00300909
-0.0026026
-0.00239619
-0.0034165
-0.00283067
-0.00279982
-0.00191658
-0.00223097
-0.00236238
-0.00125376
-0.00243358
-0.00273043
-0.00262449
-0.00185216
-0.00167074
-0.00183493
-0.00347248
-0.00167296
-0.00225639
-0.000837638
-0.00271862
-0.00227254
-0.00161436
-0.000237361
-0.00186871
-0.000258155
-0.00206498
-0.00197832
-0.00176859
-0.00161258
-0.00153447
-0.002937
-0.00243538
-0.00234333
-0.00199003
-0.00190849
-0.00160521
-0.0027816
-0.00282775
-0.00254645
-0.00223992
-0.00227156
-0.00170397
-0.0033933
-0.00218008
-0.00114993
-0.00153699
-0.00304423
-0.00285198
-0.00208264
-0.00198418
-0.00127509
-0.00205801
-0.00207442
-0.00180487
-0.003291
-0.00339264
-0.00291457
-0.00320618
-0.00251622
-0.00142385
-0.00317104
-0.00138977
-0.0017934
-0.00147863
-0.00302682
-0.00295694
-0.00297195
-0.00198496
-0.00120558
-0.00133013
-0.00217794
-0.00266237
-0.00120517
-0.00165787
-0.00256702
-0.00194421
-0.00313423
-0.00155194
-0.00255743
-0.00232105
-0.0022437
-0.0014341
-0.00183197
-0.00204335
-0.00292083
-0.00171173
-0.0026444
-0.00306298
-0.00311179
-0.00203627
-0.00170769
-0.00169801
-0.00266975
-0.00224091
-0.00169753
-0.00112281
-0.00165783
-0.00164931
-0.00285886
-0.0017307
-0.00174978
-0.00189514
-0.00168655
-0.00252132
-0.00176646
-0.00156361
-0.00196767
-0.00186619
-0.00223844
-0.00249391
-0.00239953
-0.00203939
-0.00239374
-0.0018394
-0.0027736
-0.00297682
-0.00165815
-0.00291625
-0.00165705
-0.00288006
-0.00264781
-0.00247238
-0.00251575
-0.00294183
-0.0013934
-0.00182605
-0.00169761
-0.00296663
-0.00292055
-0.00270774
-0.00294967
-0.00300284
-0.00252222
-0.00309256
-0.00207419
-0.00187134
-0.00337694
-0.00197014
-0.00306721
-0.00244315
-0.00155805
-0.00187637
-0.00306013
-0.00254736
-0.00231885
-0.00298709
-0.0029307
-0.00189476
-0.00188012
-0.00182498
-0.00260001
-0.00286844
-0.00329655
-0.00316706
-0.0034458
-0.00312241
-0.0034122
-0.00286289
-0.00299231
-0.0030156
-0.00284279
-0.0029865
-0.0027496
-0.00270867
-0.00192001
-0.00257976
-0.00301818
-0.00209604
-0.00307616
-0.00282593
-0.00327232
-0.00196745
-0.00311194
-0.00297503
-0.00193235
-0.00266623
-0.00191928
-0.00299572
-0.00273414
-0.00201187
-0.00189343
-0.00163678
-0.00188283
-0.00299981
-0.00137444
-0.00231147
-0.00188638
-0.0021171
-0.00311486
-0.00301538
-0.000946396
-0.00302632
-0.00164621
-0.00178565
-0.00309789
-0.0025183
-0.00180665
-0.00345668
-0.00196543
-0.000946397
-0.00182597
-0.00268916
-0.00335712
-0.00254471
-0.00299487
-0.00280429
-0.00147254
-0.00144248
-0.0012321
-0.00141444
-0.00200685
-0.00153386
-0.00247148
-0.00154586
-0.0026625
-0.00190107
-0.00182873
-0.00214078
-0.00198932
-0.00264388
-0.00190759
-0.00196266
-0.000867676
-0.00197961
-0.00286318
-0.00286521
-0.0025943
-0.00190394
-0.00124124
-0.00360196
-0.00241913
-0.00201988
-0.00186201
-0.00185609
-0.00192045
-0.00234227
-0.00188613
-0.00134962
-0.00186146
-0.00127598
-0.00230779
-0.00189896
-0.000808721
-0.00178864
-0.00211645
-0.00189898
-0.00292436
-0.00197215
-0.00254432
-0.000974573
-0.00204216
-0.00194988
-0.00170467
-0.00183048
-0.00216077
-0.00203469
-0.00212743
-0.00180818
-0.0018367
-0.0019836
-0.00265343
-0.00187036
-0.00265112
-0.00239298
-0.00188982
-0.00194039
-0.00195914
-0.00216732
-0.00195596
-0.00183121
-0.00208118
-0.00218405
-0.00257754
-0.00195875
-0.00194574
-0.00281863
-0.00277916
-0.00187176
-0.00189022
-0.000842057
-0.00228211
-0.00158189
-0.00214184
-0.000944469
-0.000980411
-0.000876167
-0.000890507
-0.000944732
-0.000995208
-0.00102561
-0.00240411
-0.00177979
-0.00179445
-0.00205113
-0.00199782
-0.00197288
-0.00208775
-0.00193068
-0.00197464
-0.00200979
-0.00196556
-0.00241526
-0.00178644
-0.0024826
-0.00193081
-0.00186365
-0.00196803
-0.00210176
-0.00219484
-0.00204453
-0.00234181
-0.00218753
-0.00202821
-0.00146215
-0.00204022
-0.00199532
-0.00214939
-0.0020576
-0.00194953
-0.00185413
-0.00204257
-0.00213088
-0.00289316
-0.00191008
-0.00281285
-0.00293154
-0.0020072
-0.00280906
-0.0021546
-0.00172551
-0.00235185
-0.0020605
-0.00148522
-0.00130182
-0.00232212
-0.00247336
-0.00209293
-0.0017397
-0.0020937
-0.000990544
-0.00206926
-0.00194136
-0.000990015
-0.000380355
-0.000416077
-0.00179248
-0.00191085
-0.00221972
-0.00213346
-0.000195611
-0.000204394
-0.00211362
-0.00213569
-0.00202163
-0.000743521
-0.00178794
-0.00207988
-0.00211969
-0.00182842
-0.00161385
-0.000774248
-0.00306289
-0.0019228
-0.00235008
-0.00238682
-0.00171498
-0.00217056
-0.00167678
-0.00185029
-0.000918119
-0.0013862
-0.00217313
-0.0021869
-0.00187933
-0.0019737
-0.00203686
-0.00214773
-0.00205423
-0.0010115
-0.0018036
-0.00203187
-0.00192152
-0.00288369
-0.00101129
-0.00156026
-0.00160708
-0.0015241
-0.000991337
-0.000991403
-0.00174588
-0.00140844
-0.00201497
-0.00108246
-0.00118381
-0.000386654
-0.000386652
-0.000806875
-0.00128497
-0.000865771
-0.0017168
-0.00185789
-0.00198177
-0.00223321
-0.00202592
-0.00187578
-0.00147643
-0.000911667
-0.00185362
-0.00192078
-0.00185982
-0.00102474
-0.000949586
-0.000737879
-0.00185717
-0.00189447
-0.00152139
-0.00171925
-0.00158654
-0.00145354
-0.0019446
-0.00145341
-0.0017161
-0.00165514
-0.0010152
-0.0012534
-0.00116271
-0.00205642
-0.000811411
-0.000854835
-0.000836181
-0.00194227
-0.000772659
-0.000756593
-0.0013507
-0.000705711
-0.00157335
-0.00157573
-0.000724448
-0.0017119
-0.000804549
-0.00079936
-0.000900979
-0.000762646
-0.000749131
-0.00112077
-0.000890548
-0.000808887
-0.000765026
-0.00156773
-0.00178993
-0.000842444
-0.00173039
-0.000693722
-0.00175549
-0.00139435
-0.000724811
-0.000613969
-0.000684675
-0.000908541
-0.00150728
-0.00124193
-0.000519862
-0.000577031
-0.00168073
-0.000489354
-0.000489349
-0.000554487
-0.00062229
-0.000701441
-0.000818304
-0.00135265
-0.00125233
-0.00168185
-0.000491591
-0.000491587
-0.00147911
-0.000606496
-0.00119794
-0.000549598
-0.000553184
-0.000728874
-0.00126846
-0.00131347
-0.00139928
-0.0012824
-0.00126843
-0.000277192
-0.00204751
-0.000353549
-0.000342598
-0.00165406
-0.00164259
-0.000355033
-0.000246584
-0.000347408
-0.00152568
SCALARS rr_P_ext' float
LOOKUP_TABLE default
0.000133415
0.000308438
0.000246022
0.00032188
0.000168949
0.000261109
0.00013191
0.000320045
0.000274631
0.000346602
0.000121189
0.000321025
0.000282427
0.000298531
0.000350489
0.000293259
0.000252636
0.000285264
0.000254887
0.000249563
0.000280679
5.0342e-05
0.000287583
0.000265104
0.000240297
0.000277558
0.000112507
0.000243622
0.000190066
0.000226552
0.000249497
0.000196486
0.000124606
0.000169614
0.000166777
0.000169994
0.000220287
0.000167089
0.000249237
0.000140064
0.000159751
0.000194155
0.000194173
0.000273823
0.00015656
0.000173334
0.000239938
0.000243116
0.000228048
0.000216831
0.000222767
0.000173069
0.000271109
0.000222397
0.000249571
0.000113623
0.000178077
0.000224028
0.000178069
0.000272079
0.000322479
0.000316426
0.000110755
0.00022309
0.000303084
0.000285712
0.000311949
0.000269585
0.000247916
0.000354004
0.000294133
0.000290926
0.000197382
0.000231371
0.000244523
0.000128542
0.000252697
0.000283059
0.00027185
0.000191049
0.000171895
0.000190778
0.000360157
0.000172063
0.000232472
8.60397e-05
0.000281421
0.000235638
0.000165801
2.47558e-05
0.000192706
2.69239e-05
0.000214436
0.000205063
0.000182402
0.000166006
0.000157878
0.000304291
0.00025288
0.000242627
0.000205503
0.000196686
0.00016509
0.000288099
0.000292941
0.000263807
0.000232353
0.000235172
0.000175244
0.000351649
0.00022559
0.000118148
0.000158005
0.000315278
0.000295443
0.00021478
0.000206496
0.000131184
0.000214171
0.000213942
0.000186463
0.000341602
0.000351517
0.000302218
0.000332285
0.000261243
0.000148119
0.000328539
0.000142991
0.000184961
0.000153643
0.00031359
0.000306668
0.000307919
0.000204572
0.000125467
0.00013676
0.000225544
0.000276136
0.000125424
0.000170885
0.000265974
0.000200896
0.000324734
0.000159659
0.000264916
0.000240444
0.000232233
0.00014843
0.000189111
0.00021131
0.000302632
0.000176291
0.000273834
0.00031735
0.000322397
0.000211047
0.000176042
0.00017505
0.000276451
0.000231753
0.000174845
0.000115351
0.000170684
0.000170021
0.000296176
0.000178412
0.000180376
0.000195182
0.000173864
0.000261832
0.000182165
0.000160981
0.00020396
0.000192456
0.00023219
0.000258982
0.000248531
0.000211929
0.00024799
0.000189444
0.000287358
0.000308409
0.000170917
0.000302391
0.000170587
0.000298638
0.000274672
0.000256762
0.000260649
0.000305048
0.000143383
0.000188315
0.000174841
0.000307363
0.000302443
0.000280422
0.000305911
0.000311124
0.000261466
0.000320429
0.000214378
0.000193045
0.00035022
0.000202912
0.000318122
0.000253277
0.000160559
0.000194739
0.000317074
0.000264408
0.000240307
0.000309437
0.000303969
0.0001956
0.000194859
0.000188286
0.000269712
0.000297275
0.000341642
0.000328178
0.000357082
0.000323571
0.000353599
0.000296644
0.000310615
0.000313023
0.000295095
0.000310016
0.000285695
0.000281444
0.000198189
0.000267315
0.000312617
0.000216755
0.000319346
0.000293382
0.000338952
0.000202965
0.000322316
0.000308233
0.000199491
0.000276719
0.000198131
0.000310722
0.000283172
0.000207706
0.000195359
0.000168395
0.000193726
0.000311138
0.000141372
0.000239322
0.000194619
0.000218795
0.000322614
0.000312496
9.85486e-05
0.00031362
0.000169312
0.000184227
0.000320872
0.000260834
0.000186366
0.000358226
0.000203101
9.85478e-05
0.000188392
0.000278703
0.000348083
0.000263538
0.000310897
0.000290766
0.000153014
0.000149367
0.000126614
0.000145286
0.000208466
0.000158689
0.000255985
0.000159583
0.000276337
0.000197054
0.000188674
0.000221908
0.000205439
0.000273901
0.000197001
0.000202477
9.04339e-05
0.0002056
0.000297245
0.000297449
0.000268813
0.000196642
0.00012911
0.000373452
0.000250194
0.000208625
0.000192244
0.000192804
0.000198261
0.000243232
0.000194761
0.000138614
0.000192249
0.000131261
0.000239404
0.000196044
8.42882e-05
0.000184695
0.000219494
0.000196018
0.000303247
0.000203636
0.000263379
0.000100051
0.000211345
0.000201294
0.000177066
0.000188956
0.000223475
0.000210994
0.000220437
0.000186708
0.000189694
0.000204972
0.000275256
0.000193167
0.000274592
0.000247714
0.00019637
0.000200403
0.000202433
0.000224193
0.000202131
0.000189102
0.000215077
0.000226646
0.000266962
0.000202403
0.000200862
0.000292032
0.000287949
0.000193302
0.00019641
8.62025e-05
0.000236227
0.000162751
0.000221569
9.6042e-05
9.96984e-05
8.91045e-05
9.056e-05
9.6078e-05
0.000101199
0.000104297
0.000249407
0.000185069
0.000185819
0.000212122
0.000206467
0.000203878
0.000216288
0.000199501
0.000204031
0.000208991
0.000203121
0.000250689
0.000184222
0.000257657
0.000199833
0.000192731
0.000203367
0.000218331
0.000227194
0.000211454
0.00024241
0.000226247
0.000209573
0.000150812
0.00021099
0.000206518
0.000223102
0.00021267
0.00020142
0.00019163
0.000211217
0.000220542
0.000299733
0.00019741
0.000291406
0.000303375
0.000207566
0.000290957
0.000222979
0.000178308
0.000243877
0.000213131
0.000154423
0.000133705
0.000240901
0.000256669
0.000216616
0.000179956
0.000217046
0.000101419
0.000214165
0.000200804
0.000101643
3.96397e-05
4.3364e-05
0.000185542
0.000197476
0.000229629
0.000220512
2.04234e-05
2.13404e-05
0.000218926
0.000221215
0.000209388
7.61252e-05
0.000184738
0.000215713
0.000219201
0.00018906
0.000166888
7.92546e-05
0.000317591
0.000198699
0.000243253
0.000247056
0.000177327
0.000224485
0.000173378
0.000191338
9.41922e-05
0.000142603
0.00022475
0.000226367
0.000194394
0.000204069
0.000210671
0.000222172
0.000212485
0.000103888
0.000187241
0.000209995
0.000199191
0.000299028
0.000103859
0.000161493
0.000166321
0.00015837
0.000103306
0.000103312
0.000181323
0.000145523
0.00020856
0.000111153
0.000123334
4.0359e-05
4.03586e-05
8.25828e-05
0.000133705
9.01316e-05
0.000177676
0.000192921
0.000205215
0.000231396
0.000210088
0.000194576
0.000152922
9.33401e-05
0.000191894
0.000199096
0.000192885
0.000105053
9.88195e-05
7.57407e-05
0.000192602
0.000196305
0.000157084
0.000178019
0.000164319
0.000151051
0.000201436
0.000151036
0.000177635
0.00017166
0.000105667
0.000130471
0.000119399
0.00021311
8.30178e-05
8.74815e-05
8.55279e-05
0.000201393
7.90971e-05
7.73673e-05
0.000139656
7.21927e-05
0.000163588
0.000163834
7.41242e-05
0.000177086
8.25441e-05
8.17795e-05
9.24153e-05
7.80196e-05
7.68398e-05
0.000116628
9.1409e-05
8.28099e-05
7.82738e-05
0.000162363
0.00018572
8.6394e-05
0.000179213
7.09439e-05
0.000181883
0.000144248
7.41426e-05
6.29517e-05
7.00237e-05
9.29883e-05
0.000155984
0.000129153
5.42512e-05
6.0208e-05
0.000174172
5.1066e-05
5.10652e-05
5.7859e-05
6.48735e-05
7.20154e-05
8.51671e-05
0.000140495
0.000130235
0.000174263
5.12609e-05
5.12602e-05
0.000153854
6.2066e-05
0.000123915
5.62528e-05
5.67713e-05
7.48077e-05
0.000132135
0.000136819
0.000145745
0.000133575
0.00013213
2.89209e-05
0.00021327
3.68665e-05
3.57535e-05
0.000172306
0.000171114
3.70531e-05
2.57284e-05
3.62279e-05
0.000158901
SCALARS rr_S' float
LOOKUP_TABLE default
0.0011064
0.00252734
0.00201799
0.00263802
0.00138026
0.00214179
0.00109397
0.00262335
0.00225489
0.00284018
0.00100426
0.00263138
0.00231556
0.00244588
0.00286652
0.00240503
0.00206899
0.00233858
0.00209391
0.00204764
0.00230331
0.000409637
0.00235995
0.00217512
0.00197165
0.00227495
0.000930713
0.00199804
0.00156653
0.00184783
0.00204565
0.0016194
0.00103098
0.00138439
0.00136075
0.00138751
0.0017965
0.00136349
0.00204356
0.00115883
0.00131671
0.00158331
0.00158348
0.00224509
0.00129387
0.00142837
0.0019706
0.00199574
0.00187051
0.00178847
0.00183662
0.00142469
0.00221525
0.00183069
0.00203945
0.000938673
0.0014529
0.00184411
0.00145285
0.00223225
0.00264111
0.00258898
0.000915504
0.00182541
0.00247977
0.00233988
0.00255476
0.00220959
0.00203428
0.00290061
0.00240344
0.00237725
0.00162688
0.00189415
0.00200561
0.0010641
0.00206624
0.00231817
0.00222818
0.00157228
0.00141816
0.00155801
0.00294822
0.00142003
0.00191535
0.000710967
0.00230805
0.00192943
0.00137022
0.000201557
0.00158631
0.000219214
0.00175328
0.00167962
0.00150132
0.00136881
0.00130249
0.00249351
0.00206777
0.00198945
0.00168937
0.00162005
0.00136252
0.00236156
0.00240075
0.00216193
0.00190176
0.00192851
0.00144635
0.00288092
0.00185082
0.000976044
0.00130459
0.00258452
0.00242132
0.00176792
0.00168479
0.00108232
0.00174747
0.00176094
0.0015322
0.0027942
0.00288035
0.00247453
0.00272206
0.0021364
0.00120899
0.00269221
0.00117967
0.00152239
0.00125546
0.00256977
0.00251052
0.00252318
0.00168497
0.00102367
0.00112902
0.00184904
0.00226042
0.00102332
0.00140731
0.0021794
0.0016505
0.00266096
0.00131732
0.00217125
0.00197056
0.00190485
0.00121751
0.00155517
0.0017347
0.00247978
0.001453
0.00224507
0.00260047
0.0026419
0.00172882
0.00144961
0.00144139
0.00226658
0.00190243
0.00144095
0.000953015
0.00140723
0.00140005
0.00242717
0.00146914
0.00148534
0.00160869
0.00143167
0.00214075
0.00149951
0.00132725
0.00167058
0.00158418
0.0019005
0.00211747
0.00203718
0.0017316
0.00203228
0.00156137
0.00235479
0.00252732
0.00140755
0.00247595
0.00140656
0.00244523
0.00224807
0.0020992
0.00213587
0.00249767
0.00118275
0.0015501
0.00144101
0.00251866
0.00247951
0.00229884
0.00250434
0.00254941
0.0021414
0.00262559
0.00176086
0.00158856
0.0028671
0.00167235
0.00260414
0.00207427
0.00132257
0.00159312
0.00259805
0.00216283
0.00196872
0.00253602
0.00248824
0.00160847
0.00159624
0.00154921
0.00220749
0.00243532
0.00279879
0.00268884
0.0029255
0.00265093
0.00289697
0.0024306
0.00254061
0.00256038
0.00241366
0.00253567
0.00233461
0.00229985
0.0016299
0.00219022
0.0025624
0.00177944
0.00261181
0.00239936
0.00277817
0.00167014
0.00264201
0.0025258
0.00164039
0.00226374
0.0016293
0.00254344
0.00232125
0.0017079
0.00160732
0.00138933
0.00159819
0.00254692
0.00116664
0.0019624
0.00160133
0.00179728
0.00264449
0.00256007
0.000803605
0.00256936
0.00139732
0.00151582
0.00263008
0.00213802
0.00153364
0.00293474
0.00166852
0.000803606
0.00155006
0.00228312
0.00285026
0.00216043
0.00254278
0.00238089
0.00125029
0.00122464
0.00104579
0.00120054
0.00170394
0.0013022
0.00209827
0.00131229
0.00226058
0.00161403
0.0015524
0.00181755
0.00168877
0.00224465
0.00161939
0.00166608
0.000736782
0.00168081
0.00243098
0.0024327
0.00220257
0.0016163
0.00105393
0.00305813
0.00205373
0.00171472
0.00158068
0.00157594
0.00163029
0.00198872
0.00160117
0.00114552
0.00158023
0.00108308
0.00195938
0.00161205
0.00068672
0.00151841
0.00179692
0.00161206
0.00248284
0.00167418
0.00216007
0.000827182
0.00173373
0.00165527
0.00144737
0.00155391
0.0018344
0.0017275
0.00180619
0.00153499
0.00155921
0.00168395
0.00225284
0.00158778
0.00225079
0.00203158
0.00160459
0.00164723
0.00166318
0.00183997
0.00166048
0.00155454
0.00176679
0.00185434
0.00218831
0.00166285
0.00165175
0.00239302
0.00235951
0.00158897
0.00160493
0.000714641
0.00193746
0.00134274
0.00181834
0.000801385
0.000831882
0.000743432
0.000755599
0.000801609
0.000844436
0.000870235
0.00204116
0.0015112
0.00152346
0.00174131
0.00169602
0.00167485
0.00177249
0.00163902
0.00167634
0.00170649
0.00166864
0.00205066
0.00151648
0.00210783
0.00163921
0.00158216
0.00167073
0.00178453
0.00186337
0.00173571
0.00198814
0.00185711
0.00172181
0.00124119
0.00173205
0.00169397
0.00182493
0.00174678
0.00165501
0.00157404
0.00173404
0.00180906
0.00245629
0.00162154
0.0023881
0.00248879
0.00170402
0.00238487
0.00182919
0.00146484
0.00199677
0.00174928
0.00126108
0.00110495
0.00197156
0.00209998
0.00177684
0.00147694
0.00177758
0.000840664
0.00175675
0.00164814
0.00084029
0.000322975
0.000353309
0.00152177
0.00162219
0.00188446
0.00181118
0.00016611
0.000173568
0.00179445
0.00181319
0.00171635
0.000631018
0.00151783
0.00176587
0.00179951
0.00155223
0.00137008
0.000657091
0.00260046
0.00163233
0.00199516
0.00202635
0.00145593
0.00184271
0.0014235
0.00157081
0.000779248
0.00117663
0.00184489
0.00185663
0.00159547
0.00167557
0.0017292
0.00182334
0.00174396
0.000858536
0.00153135
0.00172493
0.0016314
0.00244832
0.000858353
0.00132462
0.00136437
0.00129407
0.000841783
0.000841839
0.00148236
0.00119567
0.00171066
0.000918754
0.00100521
0.000328339
0.000328338
0.000684778
0.00109107
0.000735139
0.00145751
0.00157745
0.0016825
0.001896
0.00172005
0.00159259
0.00125348
0.000773721
0.00157369
0.00163077
0.00157903
0.00086972
0.0008063
0.000626282
0.00157678
0.00160841
0.00129153
0.00145962
0.00134696
0.00123416
0.00165096
0.00123405
0.00145693
0.00140525
0.000862019
0.00106428
0.00098687
0.00174591
0.000688623
0.000725482
0.000709638
0.00164903
0.000655744
0.000642089
0.00114668
0.000598915
0.00133591
0.00133793
0.000614821
0.00145333
0.000682858
0.000678395
0.000764696
0.000647235
0.000635817
0.000951655
0.000755859
0.000686492
0.000649258
0.00133099
0.00151972
0.000715011
0.00146909
0.000588734
0.00149041
0.00118375
0.000615125
0.000521093
0.000581059
0.000771059
0.00127964
0.00105451
0.000441453
0.000489998
0.00142695
0.000415546
0.000415542
0.000470855
0.000528416
0.000595357
0.00069483
0.00114848
0.00106334
0.00142789
0.000417436
0.000417433
0.00125591
0.000514718
0.001017
0.000466434
0.000469518
0.000618636
0.00107709
0.0011153
0.00118816
0.00108892
0.00107706
0.000235383
0.0017386
0.000300218
0.000290925
0.00140451
0.00139477
0.000301485
0.000209391
0.000295004
0.0012955
SCALARS rr_P' float
LOOKUP_TABLE default
6.38573e-05
0.000141062
0.00011296
0.000147327
7.63901e-05
0.000119898
6.31465e-05
0.000146559
0.000126576
0.000158542
5.78475e-05
0.000147008
0.000129453
0.000136468
0.00015915
0.000134556
0.000115306
0.000130704
0.000117719
0.000114717
0.000129096
2.24152e-05
0.000132272
0.000121853
0.000110465
0.000127077
5.33553e-05
0.000111804
8.88849e-05
0.000101801
0.000114374
9.18787e-05
5.91302e-05
7.64195e-05
7.50338e-05
7.65938e-05
9.89369e-05
7.52156e-05
0.000114265
6.64569e-05
7.47167e-05
8.71842e-05
8.71957e-05
0.000125523
7.39745e-05
8.10061e-05
0.000110707
0.000111965
0.000104698
0.000101691
0.000104302
8.05589e-05
0.000122665
0.000103504
0.00011296
5.36076e-05
8.01091e-05
0.000104263
8.01086e-05
0.00012504
0.000147211
0.000143899
5.23679e-05
0.000101475
0.000137823
0.0001304
0.000142383
0.000123422
0.000113993
0.000161884
0.000133095
0.000131647
9.23177e-05
0.00010545
0.000112252
6.11186e-05
0.000114638
0.000129194
0.000124465
8.88379e-05
8.06879e-05
8.6136e-05
0.000164098
8.08721e-05
0.000108567
4.06311e-05
0.000129151
0.00010747
7.83364e-05
1.10481e-05
8.96927e-05
1.20166e-05
9.72594e-05
9.3641e-05
8.48605e-05
7.77606e-05
7.4102e-05
0.000139196
0.000114728
0.000111254
9.51572e-05
9.17538e-05
7.7603e-05
0.000131947
0.000134059
0.000120712
0.000105809
0.000107876
8.23815e-05
0.000160727
0.00010367
5.57418e-05
7.43918e-05
0.000144433
0.000135216
9.99441e-05
9.28984e-05
6.15838e-05
9.63643e-05
9.95384e-05
8.62047e-05
0.000155192
0.000160771
0.000137823
0.000151831
0.000118578
6.67416e-05
0.000150291
6.7114e-05
8.60526e-05
6.95253e-05
0.000143464
0.000139759
0.000140848
9.54256e-05
5.6443e-05
6.43513e-05
0.000103349
0.000125814
5.64255e-05
7.96717e-05
0.000121642
9.28114e-05
0.000148534
7.49657e-05
0.00012127
0.000110042
0.000106621
6.81553e-05
8.76884e-05
9.73316e-05
0.000138414
8.24443e-05
0.000125504
0.00014516
0.000147487
9.64119e-05
8.2038e-05
8.15648e-05
0.000126718
0.000106725
8.17403e-05
5.44396e-05
7.99178e-05
7.92372e-05
0.000135517
8.3145e-05
8.4066e-05
9.12758e-05
8.10206e-05
0.000118745
8.47807e-05
7.53785e-05
9.31352e-05
8.95603e-05
0.000105751
0.000117456
0.000113816
9.58686e-05
0.000113469
8.85876e-05
0.000131458
0.000141095
7.9681e-05
0.000137902
7.99005e-05
0.000136193
0.000125066
0.000116425
0.00011923
0.000139105
6.72654e-05
8.76361e-05
8.17595e-05
0.0001406
0.000138597
0.000128477
0.000139418
0.000142306
0.000119353
0.000146548
9.89524e-05
8.9735e-05
0.000159619
9.48793e-05
0.000144947
0.000115603
7.49208e-05
8.85127e-05
0.000145005
0.000120128
0.000109824
0.000141624
0.000138492
9.06839e-05
8.90213e-05
8.74822e-05
0.00012281
0.000135845
0.000156122
0.000150044
0.000163224
0.000147902
0.000161634
0.000135647
0.000141086
0.000142198
0.000134037
0.000140807
0.000129303
0.000127377
9.19137e-05
0.000122221
0.000143156
9.98442e-05
0.000145008
0.000133196
0.000155196
9.43358e-05
0.00014762
0.000140998
9.24687e-05
0.000125768
9.18574e-05
0.000141551
0.000129715
9.62681e-05
9.07501e-05
7.90541e-05
9.09203e-05
0.000141755
6.64241e-05
0.000109748
9.04275e-05
0.000101023
0.000147764
0.000142813
4.42421e-05
0.000143344
7.95754e-05
8.55987e-05
0.00014694
0.000119448
8.66393e-05
0.000163718
9.3809e-05
4.42432e-05
8.75252e-05
0.000127346
0.00015878
0.00012074
0.000141187
0.000132628
6.92329e-05
6.84666e-05
5.96939e-05
6.86111e-05
9.4439e-05
7.298e-05
0.000117227
7.39832e-05
0.000125586
8.99844e-05
8.76611e-05
0.000101323
9.51113e-05
0.00012533
9.12006e-05
9.40997e-05
4.04607e-05
9.32034e-05
0.000134956
0.00013506
0.00012292
9.10045e-05
5.81986e-05
0.00017038
0.000115202
9.65352e-05
8.9083e-05
8.73458e-05
9.19017e-05
0.00011032
9.02048e-05
6.5487e-05
8.89805e-05
6.16465e-05
0.000109
9.08721e-05
3.77131e-05
8.55418e-05
0.00010004
9.09077e-05
0.000138268
9.43268e-05
0.000120868
4.73404e-05
9.70785e-05
9.33163e-05
8.02331e-05
8.76184e-05
0.000102899
9.61996e-05
0.000100803
8.6481e-05
8.77934e-05
9.46848e-05
0.00012533
8.94075e-05
0.000125747
0.000113677
8.88555e-05
9.27493e-05
9.35317e-05
0.000103158
9.33459e-05
8.75619e-05
9.93148e-05
0.000103059
0.000122267
9.34995e-05
9.31252e-05
0.000133578
0.0001317
8.9486e-05
8.88773e-05
4.12133e-05
0.000108423
7.63998e-05
0.000101932
4.70428e-05
4.88311e-05
4.36308e-05
4.43485e-05
4.70446e-05
4.95719e-05
5.10792e-05
0.000113537
8.35227e-05
8.51668e-05
9.76923e-05
9.53322e-05
9.41552e-05
9.8965e-05
9.21619e-05
9.42758e-05
9.43099e-05
9.38071e-05
0.000113908
8.57453e-05
0.000117114
9.17719e-05
8.87671e-05
9.39357e-05
9.88983e-05
0.000104275
9.73595e-05
0.000111255
0.000104166
9.68239e-05
7.01395e-05
9.71796e-05
9.48246e-05
0.000101358
9.81543e-05
9.30962e-05
8.84586e-05
9.73102e-05
0.000101277
0.000137139
9.11314e-05
0.000133338
0.000139372
9.56165e-05
0.00013323
0.000102426
8.23582e-05
0.000111201
9.80888e-05
6.97169e-05
6.31653e-05
0.000109664
0.000116712
9.94701e-05
8.28083e-05
9.90718e-05
4.84603e-05
9.83486e-05
9.2422e-05
4.80816e-05
1.77398e-05
1.94042e-05
8.51636e-05
9.11842e-05
0.000105631
0.00010177
9.07743e-06
9.48499e-06
0.000100246
0.000101287
9.58935e-05
3.63772e-05
8.5364e-05
9.82967e-05
0.000100971
8.71211e-05
7.68804e-05
3.79024e-05
0.000144846
9.17704e-05
0.000111664
0.000113409
8.17202e-05
0.000103365
7.99009e-05
8.81444e-05
4.46785e-05
6.69665e-05
0.000103491
0.000103905
8.94609e-05
9.40609e-05
9.69806e-05
0.000102219
9.77875e-05
4.90779e-05
8.5014e-05
9.69444e-05
9.09319e-05
0.000136347
4.90778e-05
7.41452e-05
7.63923e-05
7.16606e-05
4.62482e-05
4.62521e-05
8.22031e-05
6.72489e-05
9.57506e-05
5.25492e-05
5.52638e-05
1.79562e-05
1.79564e-05
3.95142e-05
6.01896e-05
4.04996e-05
8.16069e-05
8.7517e-05
9.40582e-05
0.000105816
9.57825e-05
8.86098e-05
7.00301e-05
4.46055e-05
8.80389e-05
9.09207e-05
8.79011e-05
4.99642e-05
4.44664e-05
3.5856e-05
8.77874e-05
8.97537e-05
7.27788e-05
8.16117e-05
7.52623e-05
6.8328e-05
9.22073e-05
6.83237e-05
8.15347e-05
7.82233e-05
4.75157e-05
5.86512e-05
5.64386e-05
9.7398e-05
3.97702e-05
4.18718e-05
4.10151e-05
9.18507e-05
3.78173e-05
3.71367e-05
6.43684e-05
3.46031e-05
7.38494e-05
7.39627e-05
3.5503e-05
8.1479e-05
3.91472e-05
3.91858e-05
4.38676e-05
3.73909e-05
3.64745e-05
5.24889e-05
4.32805e-05
3.95854e-05
3.74947e-05
7.4379e-05
8.44956e-05
4.10393e-05
8.20911e-05
3.40439e-05
8.31948e-05
6.63509e-05
3.55442e-05
2.99243e-05
3.35928e-05
4.44931e-05
7.16584e-05
5.82646e-05
2.41575e-05
2.68257e-05
7.96088e-05
2.2742e-05
2.2742e-05
2.57736e-05
2.89999e-05
3.40685e-05
3.8307e-05
6.36727e-05
5.87517e-05
7.96942e-05
2.28933e-05
2.28934e-05
6.93476e-05
2.9712e-05
5.70216e-05
2.69117e-05
2.68949e-05
3.54301e-05
5.92387e-05
6.13458e-05
6.53674e-05
5.99031e-05
5.92384e-05
1.28884e-05
9.56421e-05
1.64649e-05
1.5919e-05
7.72415e-05
7.67026e-05
1.64944e-05
1.14639e-05
1.61767e-05
7.12868e-05
SCALARS rr_T' float
LOOKUP_TABLE default
0.00019482
0.000443911
0.000354518
0.000463373
0.000242288
0.00037627
0.000192633
0.000460802
0.000396218
0.000498863
0.000176811
0.000462214
0.000406759
0.00042959
0.000503301
0.000422496
0.000363366
0.000410795
0.000367973
0.000359751
0.00040468
7.18522e-05
0.000414635
0.000382146
0.000346401
0.000399604
0.0001638
0.000351007
0.000275483
0.000324268
0.000359347
0.00028478
0.000181452
0.000242974
0.000238804
0.000243521
0.000315253
0.00023929
0.000358982
0.000203954
0.000231553
0.000277839
0.000277869
0.000394381
0.000227669
0.000251179
0.000346285
0.000350667
0.000328609
0.000314563
0.000323003
0.000250475
0.000388877
0.00032185
0.000358022
0.000165152
0.000254974
0.000324209
0.000254966
0.000392181
0.00046385
0.000454601
0.000161095
0.000320529
0.000435425
0.000410938
0.000448682
0.000388121
0.000357409
0.000509473
0.000421915
0.000417318
0.000286098
0.000332633
0.000352339
0.000187303
0.000362767
0.000407127
0.000391388
0.000276408
0.000249444
0.00027347
0.000517736
0.000249791
0.0003368
0.000125096
0.000405466
0.000338841
0.000241102
3.53585e-05
0.000278888
3.84561e-05
0.000307819
0.00029499
0.00026394
0.000240736
0.000229097
0.000437973
0.000363036
0.000349481
0.000296922
0.000284854
0.000239676
0.000414823
0.00042169
0.000379738
0.000333957
0.000338782
0.000254423
0.000506005
0.000325166
0.000171729
0.000229508
0.000453995
0.000425304
0.000310812
0.00029567
0.000190372
0.000306673
0.000309583
0.000269277
0.000490616
0.000505919
0.000434569
0.000478096
0.000375098
0.000212188
0.000472876
0.000207493
0.000267644
0.000220393
0.000451372
0.000440876
0.000443186
0.000296268
0.000179648
0.000198612
0.000324803
0.000396952
0.000179587
0.000247442
0.000382796
0.000290056
0.000467384
0.000231708
0.000381384
0.000346128
0.000334641
0.000213893
0.000273358
0.000304804
0.000435562
0.000255519
0.000394373
0.00045676
0.000464042
0.000303636
0.000254871
0.000253425
0.000398156
0.00033427
0.000253395
0.00016768
0.000247487
0.000246159
0.000426326
0.000258305
0.000261155
0.000282897
0.000251716
0.000375844
0.000263627
0.000233421
0.000293401
0.00027851
0.000333738
0.000371757
0.000357841
0.000303969
0.000356964
0.000274575
0.000413609
0.000443915
0.000247483
0.000434817
0.000247374
0.000429423
0.000394767
0.000368546
0.000375156
0.000438631
0.00020803
0.00027252
0.00025341
0.000442393
0.000435556
0.000403815
0.000439792
0.000447793
0.000376083
0.00046117
0.000309435
0.000279264
0.000503498
0.000294089
0.000457311
0.000364293
0.000232552
0.00027973
0.000456333
0.000379754
0.000345777
0.000445453
0.000436959
0.000282725
0.000280351
0.00027234
0.000387641
0.000427734
0.000491575
0.000472276
0.000513836
0.000465611
0.000508826
0.000426916
0.000446084
0.000449559
0.000423796
0.000445217
0.000409837
0.000403736
0.000286496
0.000384693
0.000450106
0.000312663
0.000458579
0.000421273
0.000488004
0.000293605
0.000464092
0.000443645
0.00028833
0.000397482
0.000286383
0.000446649
0.000407753
0.000300195
0.000282552
0.000244373
0.000281108
0.000447261
0.000205213
0.00034473
0.000281502
0.000315842
0.000464529
0.000449647
0.000141015
0.000451282
0.000245794
0.000266471
0.000461995
0.000375554
0.000269611
0.000515455
0.000293218
0.000141015
0.000272487
0.000401
0.00050056
0.0003795
0.000446463
0.000418128
0.000219483
0.000215125
0.000183992
0.000211238
0.000299138
0.000228788
0.000368571
0.000230662
0.000396925
0.00028347
0.0002729
0.000319212
0.000296813
0.000394267
0.000284618
0.00029289
0.000129266
0.000295087
0.000426826
0.000427131
0.000386862
0.00028407
0.000184979
0.00053707
0.000360853
0.000301366
0.00027783
0.000276666
0.000286555
0.000349155
0.000281423
0.000201564
0.000277733
0.00019051
0.000344071
0.000283349
0.000120484
0.000266877
0.000315561
0.000283359
0.000436026
0.000294259
0.000379469
0.000145559
0.000304589
0.000290948
0.0002541
0.000273136
0.000322315
0.000303373
0.000317245
0.000269792
0.000274038
0.000295931
0.000395604
0.000279061
0.000395361
0.000356897
0.000281679
0.000289508
0.000292285
0.000323281
0.000291803
0.000273225
0.000310483
0.000325605
0.000384389
0.000292223
0.000290332
0.000420318
0.000414431
0.000279272
0.000281739
0.000125832
0.000340365
0.000236178
0.000319478
0.000141307
0.000146684
0.000131086
0.000133232
0.000141344
0.000148898
0.000153445
0.000358431
0.000265251
0.000267617
0.000305963
0.000298047
0.000294328
0.000311334
0.000288036
0.000294598
0.000299528
0.000293236
0.000360062
0.000266611
0.00037011
0.000287979
0.000277998
0.000293606
0.000313284
0.000327348
0.000304974
0.000349267
0.000326305
0.000302588
0.000218205
0.000304338
0.000297596
0.000320425
0.000306959
0.000290855
0.000276607
0.000304691
0.000317817
0.000431439
0.000284954
0.000419463
0.000437243
0.000299413
0.000418912
0.000321359
0.000257426
0.000350663
0.00030735
0.000221352
0.000194423
0.000346206
0.000368738
0.000312156
0.000259497
0.000312187
0.000148017
0.000308628
0.00028958
0.000147864
5.66658e-05
6.19874e-05
0.00026734
0.000285071
0.000331092
0.000318275
2.91338e-05
3.04419e-05
0.000315203
0.000318492
0.000301485
0.000111104
0.000266744
0.000310105
0.000316191
0.000272747
0.000240738
0.000115701
0.000456687
0.000286858
0.000350503
0.000355983
0.000255827
0.000323774
0.000250129
0.000276007
0.000137145
0.000206964
0.000324159
0.000326166
0.000280326
0.000294424
0.000303827
0.000320357
0.000306415
0.000151065
0.000268869
0.000303124
0.000286516
0.000429962
0.000151035
0.000232708
0.000239696
0.000227169
0.000147694
0.000147704
0.000260249
0.000210127
0.000300527
0.000161668
0.000176376
5.75898e-05
5.75895e-05
0.00012058
0.000191483
0.000129006
0.000256059
0.000276951
0.000295552
0.000333019
0.000302067
0.000279665
0.00022018
0.000136231
0.000276452
0.00028641
0.000277294
0.000153091
0.000141504
0.00011021
0.000276903
0.000282502
0.000227006
0.000256403
0.000236602
0.00021665
0.000289992
0.000216631
0.000255947
0.000246776
0.000151278
0.00018677
0.000173652
0.000306647
0.000121262
0.000127746
0.00012497
0.000289597
0.000115461
0.000113081
0.000201488
0.000105469
0.000234484
0.000234839
0.000108265
0.00025535
0.000120179
0.000119462
0.000134589
0.000113976
0.000111906
0.000167013
0.000133015
0.000120874
0.00011433
0.000233799
0.000266855
0.000125849
0.000258055
0.000103683
0.000261782
0.000207981
0.000108324
9.17216e-05
0.000102329
0.000135773
0.000224812
0.000185087
7.74333e-05
8.5951e-05
0.000250626
7.28898e-05
7.28891e-05
8.25922e-05
9.27057e-05
0.000104765
0.000121938
0.000201629
0.000186637
0.000250799
7.32317e-05
7.32312e-05
0.000220425
9.06373e-05
0.000178687
8.2131e-05
8.26262e-05
0.000108868
0.000188993
0.0001957
0.000208487
0.000191072
0.000188988
4.12892e-05
0.000305069
5.2668e-05
5.10297e-05
0.000246444
0.000244734
5.28813e-05
3.67296e-05
5.17527e-05
0.000227324
SCALARS rr_uec(SIM,_S_ext) float
LOOKUP_TABLE default
0.0153827
0.0350304
0.0279774
0.0365666
0.0191164
0.029694
0.01521
0.0363637
0.0312697
0.0393667
0.0139607
0.036475
0.0320993
0.0338999
0.0397128
0.0333417
0.0286734
0.0324178
0.0290415
0.0283908
0.0319366
0.00566786
0.0327224
0.0301582
0.0273373
0.0315343
0.0129321
0.0277001
0.0217455
0.0255824
0.0283578
0.0224793
0.0143258
0.0191696
0.0188402
0.0192128
0.0248711
0.0188787
0.028329
0.0161022
0.0182778
0.0219194
0.0219217
0.0311225
0.0179738
0.0198268
0.0273295
0.0276745
0.0259327
0.0248313
0.0254969
0.0197702
0.0306826
0.0254037
0.0282483
0.0130378
0.0201159
0.02559
0.0201153
0.0309501
0.0366028
0.0358708
0.0127179
0.0252917
0.0343577
0.0324272
0.0354058
0.0306281
0.0282061
0.040204
0.0332894
0.0329266
0.0225834
0.0262475
0.0278054
0.0147882
0.0286235
0.0321264
0.0308859
0.0218169
0.0196909
0.0215762
0.0408538
0.0197187
0.0265849
0.00987584
0.0319979
0.0267377
0.0190343
0.00278924
0.0220128
0.00303359
0.0242879
0.0232778
0.0208328
0.0190032
0.0180847
0.0345618
0.0286448
0.0275793
0.0234346
0.0224843
0.0189203
0.0327355
0.033277
0.0299664
0.0263519
0.0267352
0.0200844
0.0399301
0.0256614
0.0135572
0.018118
0.0358268
0.0335623
0.0245325
0.0233265
0.0150278
0.0241946
0.0244354
0.0212524
0.0387122
0.0399236
0.0342916
0.0377276
0.0295969
0.0167407
0.0373161
0.0163793
0.0211252
0.0173892
0.0356193
0.034789
0.0349733
0.0233852
0.0141731
0.0156787
0.0256316
0.031323
0.0141683
0.0195311
0.0302073
0.0228921
0.0368826
0.0182909
0.0300965
0.027314
0.0264086
0.0168797
0.0215753
0.0240551
0.0343715
0.0201696
0.0311218
0.0360442
0.0366191
0.0239603
0.0201174
0.0200032
0.0314205
0.0263804
0.0200019
0.0132375
0.0195359
0.0194298
0.0336428
0.0203885
0.0206134
0.0223307
0.0198684
0.0296553
0.0208083
0.0184256
0.0231525
0.0219829
0.0263346
0.0293328
0.0282386
0.0239832
0.0281691
0.0216737
0.0326391
0.0350307
0.0195343
0.0343111
0.0195271
0.0338856
0.0311501
0.0290792
0.0296046
0.0346119
0.0164216
0.0215101
0.0200032
0.0349107
0.0343719
0.0318669
0.0347035
0.0353367
0.0296768
0.0363923
0.0244213
0.0220422
0.0397305
0.0232141
0.0360858
0.0287463
0.0183561
0.0220722
0.0360106
0.0299645
0.0272858
0.0351522
0.0344797
0.0223145
0.0221228
0.0214955
0.0305878
0.0337535
0.0387913
0.0372687
0.0405482
0.0367425
0.0401528
0.0336889
0.0351983
0.0354726
0.0334397
0.0351298
0.0323364
0.0318551
0.0226123
0.030357
0.03552
0.0246753
0.036184
0.0332403
0.0385106
0.0231741
0.0366238
0.0350093
0.0227569
0.0313635
0.0226033
0.0352443
0.0321779
0.0236933
0.0223015
0.0192907
0.0221906
0.0352927
0.0161995
0.0272045
0.0222187
0.024927
0.0366583
0.0354827
0.0111249
0.0356118
0.019403
0.0210324
0.0364583
0.0296364
0.0212803
0.0406758
0.0231416
0.0111249
0.0215071
0.0316438
0.039499
0.0299482
0.035228
0.0329942
0.0173173
0.0169766
0.0145251
0.0166764
0.0236025
0.0180556
0.0290853
0.0182054
0.0313196
0.0223688
0.0215397
0.0251892
0.023426
0.0311127
0.0224635
0.0231176
0.0101975
0.0232832
0.0336786
0.0337027
0.0305282
0.0224201
0.0145942
0.0423801
0.0284783
0.0237851
0.021928
0.0218295
0.0226168
0.0275494
0.0222114
0.0159128
0.02192
0.0150387
0.0271498
0.0223638
0.0095047
0.0210634
0.0249005
0.0223647
0.0344064
0.0232245
0.0299462
0.0114914
0.0240373
0.0229635
0.020049
0.0215578
0.025437
0.0239388
0.0250347
0.0212935
0.0216283
0.0233557
0.0312161
0.0220248
0.0311994
0.0281649
0.0222245
0.0228493
0.023068
0.0255129
0.0230298
0.0215643
0.0245041
0.0256922
0.0303337
0.0230631
0.022915
0.0331684
0.0327038
0.0220416
0.0222293
0.00993569
0.0268603
0.0186437
0.0252127
0.0111616
0.0115863
0.0103542
0.0105238
0.0111645
0.0117611
0.0121203
0.0282828
0.0209276
0.021119
0.0241465
0.0235226
0.0232291
0.0245682
0.0227327
0.0232506
0.023632
0.023143
0.0284107
0.0210438
0.0292039
0.0227264
0.0219396
0.0231722
0.0247185
0.025833
0.0240684
0.0275628
0.0257518
0.0238812
0.0172229
0.0240183
0.0234852
0.0252831
0.0242259
0.0229553
0.0218304
0.0240463
0.0250811
0.0340461
0.0224892
0.033101
0.034506
0.0236297
0.0330579
0.0253608
0.0203167
0.0276706
0.0242557
0.0174643
0.0153491
0.0273182
0.0290956
0.0246343
0.0204792
0.0246348
0.0116873
0.0243559
0.0228534
0.0116733
0.00447024
0.00489003
0.0210974
0.0224986
0.0261292
0.0251189
0.00229807
0.00240125
0.0248739
0.0251333
0.0237914
0.00877264
0.0210524
0.0244699
0.0249537
0.0215253
0.018999
0.00913578
0.0360369
0.0226397
0.0276604
0.0280929
0.0201899
0.0255521
0.0197403
0.0217824
0.0108276
0.0163376
0.0255825
0.0257398
0.022123
0.0232361
0.0239778
0.0252821
0.024182
0.0119261
0.0212149
0.0239232
0.0226091
0.0339279
0.0119238
0.0183645
0.0189161
0.0179237
0.0116514
0.0116522
0.0205343
0.0165839
0.0237165
0.0127632
0.0139143
0.00454276
0.00454274
0.00952105
0.015107
0.0101777
0.0202074
0.0218523
0.0233235
0.0262794
0.0238359
0.0220677
0.0173752
0.0107567
0.0218164
0.0226008
0.0218809
0.012087
0.0111638
0.00870072
0.0218501
0.0222928
0.0179166
0.0202341
0.0186712
0.0170938
0.0228843
0.0170923
0.0201984
0.0194727
0.0119348
0.0147348
0.0137093
0.0241981
0.00957477
0.0100866
0.00986776
0.0228519
0.00911675
0.00892911
0.0159015
0.00832782
0.0185003
0.0185283
0.00854849
0.020152
0.00948807
0.00943264
0.0106259
0.0089995
0.00883508
0.0131764
0.0105014
0.00954412
0.00902742
0.01845
0.0210567
0.00993603
0.0203642
0.00818701
0.0206579
0.0164136
0.00855322
0.00724166
0.00807997
0.0107207
0.0177415
0.0146028
0.00610813
0.00678008
0.0197773
0.00574973
0.00574968
0.00651511
0.00731326
0.00827101
0.00962019
0.015909
0.014725
0.0197912
0.00577694
0.0057769
0.0173906
0.00715686
0.0141018
0.00648505
0.00652314
0.00859488
0.0149098
0.0154389
0.0164477
0.0150738
0.0149094
0.00325702
0.024067
0.00415474
0.00402532
0.019442
0.0193071
0.00417137
0.00289734
0.00408253
0.0179338
SCALARS rr_uec(PEX,_P_ext) float
LOOKUP_TABLE default
-0.0626514
-0.142775
-0.114022
-0.149034
-0.0779289
-0.121018
-0.0619478
-0.148207
-0.127432
-0.160449
-0.0568609
-0.148661
-0.130824
-0.138169
-0.161879
-0.135886
-0.11687
-0.132123
-0.118348
-0.115704
-0.130154
-0.0231112
-0.133356
-0.122908
-0.111411
-0.128524
-0.0526775
-0.112893
-0.0885977
-0.104299
-0.115575
-0.0915878
-0.0583541
-0.0781502
-0.0768091
-0.0783263
-0.101399
-0.0769656
-0.115458
-0.0655905
-0.0744693
-0.0893653
-0.0893747
-0.126843
-0.0732183
-0.0807813
-0.111373
-0.112782
-0.105689
-0.101165
-0.10388
-0.0805559
-0.125077
-0.103511
-0.115153
-0.0531129
-0.0820103
-0.10427
-0.0820076
-0.126135
-0.149188
-0.146215
-0.0518079
-0.103092
-0.140047
-0.13217
-0.14431
-0.12483
-0.114951
-0.163862
-0.135703
-0.134225
-0.0920116
-0.106985
-0.113321
-0.0602355
-0.116678
-0.130944
-0.125881
-0.0888965
-0.0802222
-0.0879584
-0.16652
-0.0803336
-0.108318
-0.0402309
-0.130408
-0.108982
-0.0775386
-0.011373
-0.0896939
-0.0123693
-0.0990053
-0.0948774
-0.0848864
-0.0774226
-0.0736786
-0.140865
-0.116765
-0.112402
-0.0954952
-0.091612
-0.0770808
-0.133419
-0.135627
-0.122134
-0.107411
-0.108961
-0.0818233
-0.162746
-0.104581
-0.0552281
-0.0738104
-0.146017
-0.13679
-0.099961
-0.0950997
-0.0612244
-0.0986387
-0.0995659
-0.0866047
-0.157799
-0.162718
-0.139771
-0.15377
-0.120645
-0.0682481
-0.15209
-0.0667307
-0.0860777
-0.0708866
-0.145174
-0.1418
-0.142542
-0.0952827
-0.0577822
-0.0638739
-0.104465
-0.127673
-0.0577627
-0.0795798
-0.123118
-0.0932876
-0.150324
-0.0745183
-0.122664
-0.111324
-0.107629
-0.0687932
-0.0879162
-0.0980317
-0.140089
-0.0821772
-0.126841
-0.146907
-0.149249
-0.0976582
-0.0819694
-0.0815043
-0.128058
-0.107509
-0.0814942
-0.0539259
-0.0795937
-0.0791675
-0.137119
-0.0830738
-0.0839901
-0.0909822
-0.0809547
-0.120885
-0.0847859
-0.0750701
-0.0943664
-0.0895723
-0.107341
-0.11957
-0.115091
-0.0977678
-0.11481
-0.0883056
-0.133028
-0.142776
-0.0795931
-0.139851
-0.0795572
-0.138116
-0.12697
-0.118537
-0.120661
-0.141077
-0.0669034
-0.0876459
-0.081499
-0.142287
-0.140087
-0.129878
-0.141451
-0.144023
-0.12096
-0.148326
-0.0995205
-0.0898153
-0.161941
-0.0945816
-0.147086
-0.117167
-0.0747912
-0.0899704
-0.14677
-0.122142
-0.111212
-0.14327
-0.14054
-0.0909288
-0.0901689
-0.0875883
-0.124678
-0.137572
-0.158105
-0.151898
-0.165265
-0.149754
-0.163654
-0.137308
-0.143476
-0.144594
-0.136307
-0.143197
-0.131819
-0.129856
-0.0921417
-0.123728
-0.144767
-0.100559
-0.147495
-0.135496
-0.156956
-0.0944277
-0.149265
-0.142689
-0.0927318
-0.127843
-0.0921055
-0.143657
-0.131145
-0.0965478
-0.0908728
-0.0785916
-0.0904059
-0.143853
-0.0659973
-0.110874
-0.0905352
-0.101581
-0.149406
-0.14462
-0.0453564
-0.145146
-0.079048
-0.0857011
-0.148591
-0.120788
-0.0867108
-0.165786
-0.0943047
-0.0453565
-0.0876359
-0.128974
-0.160995
-0.122058
-0.143598
-0.134483
-0.0705939
-0.06919
-0.0591722
-0.0679342
-0.0962135
-0.0735837
-0.118542
-0.0741847
-0.127664
-0.0911722
-0.0877686
-0.102668
-0.0954603
-0.126807
-0.0915381
-0.0941977
-0.041578
-0.0949105
-0.137282
-0.13738
-0.124426
-0.0913619
-0.0594967
-0.172738
-0.116058
-0.0969246
-0.0893546
-0.0889858
-0.0921609
-0.1123
-0.0905102
-0.0648229
-0.0893237
-0.0612686
-0.110664
-0.0911297
-0.0387531
-0.085832
-0.101494
-0.0911327
-0.140239
-0.0946385
-0.122047
-0.0468113
-0.0979633
-0.0935735
-0.0817276
-0.087845
-0.103664
-0.0975742
-0.102035
-0.0867698
-0.0881352
-0.0951773
-0.127239
-0.089751
-0.127159
-0.114787
-0.0905982
-0.0931107
-0.0940043
-0.103975
-0.0938495
-0.0878737
-0.0998575
-0.104725
-0.12363
-0.0939847
-0.0933755
-0.135186
-0.133293
-0.0898188
-0.0906176
-0.0404664
-0.10947
-0.0759559
-0.102751
-0.0454404
-0.0471695
-0.0421537
-0.0428438
-0.0454525
-0.0478814
-0.0493437
-0.115283
-0.085315
-0.0860727
-0.0984044
-0.0958578
-0.0946616
-0.100133
-0.0926381
-0.0947483
-0.09634
-0.0943106
-0.115808
-0.0857455
-0.11904
-0.0926212
-0.0894103
-0.0944295
-0.100763
-0.105283
-0.0980866
-0.112333
-0.104947
-0.0973181
-0.0701777
-0.0978817
-0.0957141
-0.103059
-0.0987244
-0.0935446
-0.0889623
-0.0979954
-0.102218
-0.138763
-0.0916469
-0.134911
-0.140628
-0.0962979
-0.134733
-0.103357
-0.0827931
-0.112784
-0.0988507
-0.0711955
-0.0625266
-0.111351
-0.118598
-0.100397
-0.0834601
-0.100409
-0.0476008
-0.0992623
-0.0931354
-0.0475525
-0.0182263
-0.019938
-0.0859832
-0.0916847
-0.106487
-0.102364
-0.0093709
-0.00979164
-0.101378
-0.102436
-0.0969659
-0.03573
-0.0857902
-0.0997396
-0.101694
-0.0877214
-0.0774265
-0.0372083
-0.146884
-0.0922592
-0.112731
-0.114493
-0.0822793
-0.104133
-0.080447
-0.0887699
-0.0441051
-0.0665605
-0.104257
-0.104903
-0.0901591
-0.0946929
-0.0977175
-0.103034
-0.0985501
-0.0485825
-0.0864775
-0.0974907
-0.0921521
-0.138289
-0.0485729
-0.0748448
-0.0770921
-0.073066
-0.0475052
-0.0475084
-0.0837053
-0.0675809
-0.0966569
-0.0519922
-0.0567305
-0.0185238
-0.0185237
-0.0387771
-0.0615887
-0.041494
-0.0823549
-0.089077
-0.0950576
-0.107109
-0.0971542
-0.0899491
-0.0708158
-0.0438107
-0.0889141
-0.0921179
-0.0891866
-0.049233
-0.0455135
-0.0354429
-0.0890607
-0.0908606
-0.0730088
-0.082466
-0.0760976
-0.0696829
-0.0932695
-0.0696768
-0.0823191
-0.0793708
-0.0486573
-0.060073
-0.0558462
-0.0986267
-0.038996
-0.0410811
-0.0401885
-0.0931433
-0.0371312
-0.036365
-0.0648029
-0.0339171
-0.0754192
-0.0755332
-0.0348163
-0.0821265
-0.0386489
-0.0384171
-0.0432831
-0.0366529
-0.0359883
-0.0537183
-0.0427775
-0.0388719
-0.0367667
-0.0751959
-0.0858293
-0.0404724
-0.0829975
-0.0333428
-0.0841965
-0.0668915
-0.0348351
-0.0294971
-0.0329073
-0.0436631
-0.0723051
-0.0595312
-0.0249064
-0.0276461
-0.0806085
-0.023445
-0.0234447
-0.0265657
-0.0298185
-0.0336924
-0.0392205
-0.0648511
-0.0600296
-0.0806642
-0.0235548
-0.0235546
-0.0708975
-0.029148
-0.0574699
-0.0264124
-0.0265722
-0.0350114
-0.0607887
-0.0629458
-0.0670587
-0.0614572
-0.0607872
-0.0132806
-0.0981237
-0.0169405
-0.0164136
-0.0792673
-0.0787174
-0.0170092
-0.011814
-0.0166461
-0.0731174
SCALARS cell_type float
LOOKUP_TABLE default
0
0
0
0
0
0
0
0
0
0
0
0
0
0
0
0
0
0
0
0
0
1
0
0
0
0
0
0
0
0
0
0
0
0
0
0
0
0
0
0
0
0
0
0
0
0
0
0
0
0
0
0
0
0
0
0
0
0
0
0
0
0
0
0
0
0
0
0
0
0
0
0
0
0
0
0
0
0
0
0
0
0
0
0
0
0
0
0
0
0
0
0
0
0
0
0
0
0
0
0
0
0
0
0
0
0
0
0
0
0
0
0
0
0
0
0
0
0
0
0
0
0
0
0
0
0
0
0
0
0
0
0
0
0
0
0
0
0
0
0
0
0
0
0
0
0
0
0
0
0
0
0
0
0
0
0
0
0
0
0
0
0
0
0
0
0
0
0
0
0
0
0
0
0
0
0
0
0
0
0
0
0
0
0
0
0
0
0
0
0
0
0
0
0
0
0
0
0
0
0
0
0
0
0
0
0
0
0
0
0
0
0
0
0
0
0
0
0
0
0
0
0
0
0
0
0
0
0
0
0
0
0
0
0
0
0
0
0
0
0
0
0
0
0
0
0
0
0
0
0
0
0
0
0
0
0
0
0
0
0
0
0
0
0
0
0
0
0
0
0
0
0
0
0
0
0
0
0
0
0
0
0
0
0
0
0
0
0
0
0
0
0
0
0
0
0
0
0
0
0
0
0
0
0
0
0
0
0
0
0
0
0
0
0
0
0
0
0
0
0
0
0
0
0
0
0
0
0
0
0
0
0
0
0
0
0
0
0
0
0
0
0
0
0
0
0
0
0
0
0
2
2
2
2
2
2
2
0
0
0
0
0
0
0
0
0
0
0
0
0
0
0
0
0
0
0
0
0
0
0
0
0
0
0
0
0
0
0
0
0
0
0
0
0
0
0
0
0
0
0
0
0
0
0
0
0
0
0
0
0
0
0
0
0
0
0
1
1
0
0
0
0
0
0
0
0
0
0
0
0
0
0
0
0
0
0
0
0
0
0
0
0
0
0
0
0
0
0
0
0
0
0
0
0
0
0
0
0
0
0
0
1
1
0
0
0
0
0
0
0
0
0
0
0
0
0
0
0
0
0
0
0
0
0
0
0
0
0
0
0
0
0
0
0
0
0
0
0
0
0
0
0
0
0
0
0
0
0
0
0
0
0
0
0
0
0
0
0
0
0
0
0
0
0
0
0
0
0
1
1
0
0
0
0
0
0
0
0
0
0
0
0
0
0
0
0
0
0
0
0
0
0
0
0
0
0
0
0
0
0
0
0
0
TENSORS Lagrange_strain float
0.03057 -0.00319844 -1.9302e-08
-0.00319844 0.0133898 -1.51355e-07
-1.9302e-08 -1.51355e-07 0.00740235

0.0291951 -0.00280096 1.32464e-07
-0.00280096 0.0335561 5.69944e-08
1.32464e-07 5.69944e-08 0.0331657

0.0300235 0.00367943 2.94045e-07
0.00367943 0.0311721 -2.12832e-08
2.94045e-07 -2.12832e-08 0.0304701

0.0291644 -0.00392481 -2.35136e-07
-0.00392481 0.0328013 -6.7018e-08
-2.35136e-07 -6.7018e-08 0.0330906

0.0353691 0.00266915 -4.98186e-08
0.00266915 0.0380864 7.35198e-08
-4.98186e-08 7.35198e-08 0.0352943

0.0277374 -0.00236741 -1.57502e-07
-0.00236741 0.0333863 9.17987e-08
-1.57502e-07 9.17987e-08 0.0304411

0.0302639 0.00339423 -2.20206e-08
0.00339423 0.0134954 -3.42818e-08
-2.20206e-08 -3.42818e-08 0.00746379

0.0317572 0.00393976 -8.3423e-08
0.00393976 0.0312024 -1.04865e-07
-8.3423e-08 -1.04865e-07 0.0315629

0.0332442 0.00071549 9.21685e-08
0.00071549 0.0262234 -2.24394e-08
9.21685e-08 -2.24394e-08 0.0281442

0.0354697 -0.000991084 -3.83369e-08
-0.000991084 0.0275535 -1.09782e-07
-3.83369e-08 -1.09782e-07 0.0327233

0.0280634 0.0020514 -4.52733e-09
0.0020514 0.0138097 1.39646e-07
-4.52733e-09 1.39646e-07 0.0117544

0.0279555 -0.00176579 -1.29395e-07
-0.00176579 0.035009 1.81585e-07
-1.29395e-07 1.81585e-07 0.0315514

0.0311235 0.00365737 -1.00474e-07
0.00365737 0.0313025 -1.25546e-07
-1.00474e-07 -1.25546e-07 0.0310817

0.0290714 -0.00188015 -2.63103e-08
-0.00188015 0.0348017 1.9859e-08
-2.63103e-08 1.9859e-08 0.0325487

0.0346335 0.00441802 6.26873e-08
0.00441802 0.0343645 -1.07322e-07
6.26873e-08 -1.07322e-07 0.0348868

0.0343308 7.32079e-05 -1.46275e-08
7.32079e-05 0.0272882 -5.07837e-08
-1.46275e-08 -5.07837e-08 0.0307806

0.0286952 -0.00235383 -1.86532e-08
-0.00235383 0.0360157 4.63928e-08
-1.86532e-08 4.63928e-08 0.0334523

0.0345757 -0.000353034 -8.73169e-08
-0.000353034 0.0273585 -4.82795e-08
-8.73169e-08 -4.82795e-08 0.0319793

0.0269221 0.00347844 -1.34011e-07
0.00347844 0.0309476 1.71094e-07
-1.34011e-07 1.71094e-07 0.0275787

0.0338874 -0.000550517 1.0479e-07
-0.000550517 0.0264114 1.21746e-07
1.0479e-07 1.21746e-07 0.0301364

0.0266241 0.00113528 7.45145e-08
0.00113528 0.0340361 -5.64603e-09
7.45145e-08 -5.64603e-09 0.0291521

0.045295 0.000853171 1.53739e-07
0.000853171 0.0452654 2.44118e-07
1.53739e-07 2.44118e-07 0.03664

0.0336782 0.000247487 -7.60985e-08
0.000247487 0.0263173 -4.70374e-09
-7.60985e-08 -4.70374e-09 0.0298073

0.029312 -0.00363246 4.68106e-08
-0.00363246 0.0311382 -1.02543e-07
4.68106e-08 -1.02543e-07 0.0300489

0.0337828 0.000900413 -4.65717e-08
0.000900413 0.0264984 2.67313e-08
-4.65717e-08 2.67313e-08 0.0300834

0.0285483 0.00250775 4.84266e-08
0.00250775 0.0338963 -2.52918e-07
4.84266e-08 -2.52918e-07 0.0322892

0.0286319 0.000526684 -1.53434e-13
0.000526684 0.0176909 1.30424e-07
-1.53434e-13 1.30424e-07 0.0131723

0.0309165 0.00403467 -1.87726e-07
0.00403467 0.0306486 6.90087e-08
-1.87726e-07 6.90087e-08 0.0306129

0.0259266 0.00477691 -2.652e-07
0.00477691 0.025735 1.71235e-08
-2.652e-07 1.71235e-08 0.0211297

0.0415299 0.00136991 -1.14595e-07
0.00136991 0.0383513 8.97198e-08
-1.14595e-07 8.97198e-08 0.0361371

0.0344134 0.00187118 -7.91304e-08
0.00187118 0.0279545 -3.1336e-08
-7.91304e-08 -3.1336e-08 0.0310022

0.0217613 -0.00228809 -1.43842e-07
-0.00228809 0.0299948 9.45901e-08
-1.43842e-07 9.45901e-08 0.0211265

0.022865 -0.0053529 -1.02686e-07
-0.0053529 0.0234747 2.29265e-08
-1.02686e-07 2.29265e-08 0.0125799

0.0348341 0.000800842 -2.06263e-07
0.000800842 0.0422566 1.64498e-07
-2.06263e-07 1.64498e-07 0.0357882

0.0374547 -0.000661619 -7.86959e-08
-0.000661619 0.0412043 1.84465e-07
-7.86959e-08 1.84465e-07 0.0359028

0.0410764 0.00281314 -4.80841e-08
0.00281314 0.0359877 1.15661e-07
-4.80841e-08 1.15661e-07 0.0357684

0.0372553 0.000704787 -1.08952e-07
0.000704787 0.0432161 2.46345e-07
-1.08952e-07 2.46345e-07 0.0361435

0.0402619 -0.00121882 2.08437e-08
-0.00121882 0.0378315 5.29875e-08
2.08437e-08 5.29875e-08 0.0358101

0.0312177 -0.00367818 8.59177e-08
-0.00367818 0.0311256 -1.00265e-07
8.59177e-08 -1.00265e-07 0.0309277

0.0227489 0.00527945 1.26455e-07
0.00527945 0.0237106 -1.58004e-07
1.26455e-07 -1.58004e-07 0.012582

0.0297632 -0.00231599 -7.73698e-08
-0.00231599 0.0220325 3.73293e-08
-7.73698e-08 3.73293e-08 0.0208764

0.0376207 -0.000522705 1.57993e-07
-0.000522705 0.0430654 2.30414e-07
1.57993e-07 2.30414e-07 0.0361462

0.0412419 0.002634 1.97797e-07
0.002634 0.0394162 -1.3329e-07
1.97797e-07 -1.3329e-07 0.0361287

0.0343038 -0.00161726 1.53557e-07
-0.00161726 0.0279966 -8.3642e-08
1.53557e-07 -8.3642e-08 0.0310862

0.0231072 -0.00552623 -4.49391e-08
-0.00552623 0.0235644 -4.04791e-08
-4.49391e-08 -4.04791e-08 0.0162172

0.0299455 -0.00233256 1.19052e-07
-0.00233256 0.0221567 2.18855e-07
1.19052e-07 2.18855e-07 0.0213458

0.0258956 0.00222754 3.4947e-08
0.00222754 0.0326566 7.7059e-08
3.4947e-08 7.7059e-08 0.0279174

0.027553 0.00252899 5.93224e-08
0.00252899 0.0323764 -1.1807e-07
5.93224e-08 -1.1807e-07 0.028493

0.0341776 -0.00214119 5.15194e-08
-0.00214119 0.0271093 -1.81179e-07
5.15194e-08 -1.81179e-07 0.0304743

0.0229042 -0.00439278 -1.06936e-08
-0.00439278 0.0272509 -9.49411e-08
-1.06936e-08 -9.49411e-08 0.0198519

0.0294961 0.00247181 1.82231e-07
0.00247181 0.0218357 -1.69654e-07
1.82231e-07 -1.69654e-07 0.0202825

0.0298748 -0.00327128 6.47234e-08
-0.00327128 0.0245152 -1.6411e-07
6.47234e-08 -1.6411e-07 0.0230499

0.0344794 0.0025777 9.25107e-08
0.0025777 0.0382049 -7.40423e-08
9.25107e-08 -7.40423e-08 0.035273

0.0286918 0.00383896 -2.78774e-08
0.00383896 0.0257816 1.10154e-08
-2.78774e-08 1.10154e-08 0.0231186

0.0349308 -0.00291584 -2.15814e-08
-0.00291584 0.0374339 4.63925e-08
-2.15814e-08 4.63925e-08 0.0351914

0.025582 -0.00545598 2.35676e-07
-0.00545598 0.022904 1.52316e-07
2.35676e-07 1.52316e-07 0.0158208

0.0373483 0.000745723 -1.14215e-08
0.000745723 0.0414145 -1.68879e-07
-1.14215e-08 -1.68879e-07 0.0359233

0.0231693 -0.000693229 -1.7648e-07
-0.000693229 0.031316 3.91118e-08
-1.7648e-07 3.91118e-08 0.0231046

0.0410305 0.00137993 -2.56288e-07
0.00137993 0.0377089 -3.37629e-08
-2.56288e-07 -3.37629e-08 0.0359014

0.0276779 0.00280515 6.42778e-08
0.00280515 0.0327517 -1.00857e-07
6.42778e-08 -1.00857e-07 0.0302334

0.0361416 0.000784773 1.6757e-09
0.000784773 0.0281339 1.04271e-07
1.6757e-09 1.04271e-07 0.0336754

0.0362569 0.00153404 -1.09842e-08
0.00153404 0.0316955 -2.06456e-08
-1.09842e-08 -2.06456e-08 0.0342229

0.0286393 0.00405728 -1.14483e-09
0.00405728 0.0198987 1.55967e-07
-1.14483e-09 1.55967e-07 0.0137603

0.0309748 -0.000783931 -1.26695e-08
-0.000783931 0.037087 5.01448e-08
-1.26695e-08 5.01448e-08 0.0338838

0.0315572 0.00124367 9.08876e-08
0.00124367 0.036423 1.41715e-07
9.08876e-08 1.41715e-07 0.0342618

0.0285511 -0.00037525 -1.58913e-07
-0.00037525 0.0369587 -1.22095e-07
-1.58913e-07 -1.22095e-07 0.0326729

0.029605 0.00307125 2.32655e-08
0.00307125 0.0347935 1.91104e-07
2.32655e-08 1.91104e-07 0.0337113

0.034722 0.00112212 1.29455e-08
0.00112212 0.0278409 -2.44854e-08
1.29455e-08 -2.44854e-08 0.0322109

0.0291897 -0.0036992 2.04892e-07
-0.0036992 0.0310239 1.48664e-07
2.04892e-07 1.48664e-07 0.0299118

0.0350574 -0.000236971 1.65945e-07
-0.000236971 0.0275824 -1.05964e-07
1.65945e-07 -1.05964e-07 0.0333955

0.034454 -0.00254796 1.16298e-07
-0.00254796 0.0381361 2.80153e-08
1.16298e-07 2.80153e-08 0.035263

0.035013 0.00284947 6.04633e-08
0.00284947 0.0375721 -5.02454e-08
6.04633e-08 -5.02454e-08 0.0352428

0.0218902 -0.00213199 -2.29719e-07
-0.00213199 0.0299245 5.12834e-08
-2.29719e-07 5.12834e-08 0.020853

0.0347036 -0.00369103 2.56007e-08
-0.00369103 0.0319601 9.8768e-08
2.56007e-08 9.8768e-08 0.0330812

0.0292943 -0.00329762 3.68027e-08
-0.00329762 0.0321152 -1.47985e-07
3.68027e-08 -1.47985e-07 0.0304357

0.0267816 -0.00401732 -5.32727e-08
-0.00401732 0.0176065 -1.22993e-07
-5.32727e-08 -1.22993e-07 0.0127269

0.032406 0.00041856 9.47049e-08
0.00041856 0.0381073 3.68787e-08
9.47049e-08 3.68787e-08 0.034408

0.0345395 0.0038177 1.40211e-08
0.0038177 0.0309438 -5.27038e-08
1.40211e-08 -5.27038e-08 0.0326625

0.0283786 0.00258143 4.93408e-08
0.00258143 0.034132 2.43033e-08
4.93408e-08 2.43033e-08 0.0322161

0.0315447 0.00103787 -2.01656e-07
0.00103787 0.0228456 2.75553e-08
-2.01656e-07 2.75553e-08 0.0240711

0.0270993 -0.00435906 -7.02015e-08
-0.00435906 0.0237385 -4.27717e-08
-7.02015e-08 -4.27717e-08 0.0183249

0.0362617 -0.00140302 -2.63733e-07
-0.00140302 0.0387447 -8.4109e-08
-2.63733e-07 -8.4109e-08 0.0354033

0.0315583 0.00317109 -3.89779e-08
0.00317109 0.0344035 -1.05683e-07
-3.89779e-08 -1.05683e-07 0.0340926

0.0273037 -0.00415649 -7.38246e-08
-0.00415649 0.0221766 2.2753e-07
-7.38246e-08 2.2753e-07 0.0184128

0.0303605 0.00139119 8.09552e-08
0.00139119 0.0228322 2.19243e-08
8.09552e-08 2.19243e-08 0.0209562

0.0186033 -0.00269729 2.09919e-07
-0.00269729 0.0289307 4.85016e-07
2.09919e-07 4.85016e-07 0.0158943

0.0272021 0.00188902 8.95824e-08
0.00188902 0.0343227 3.02807e-08
8.95824e-08 3.02807e-08 0.0306569

0.0353844 0.00305717 8.64164e-08
0.00305717 0.0308221 -1.70137e-07
8.64164e-08 -1.70137e-07 0.032756

0.0226495 0.0053864 1.05772e-07
0.0053864 0.0240903 -1.82971e-07
1.05772e-07 -1.82971e-07 0.0161998

0.0459502 0.0022384 -3.06335e-07
0.0022384 0.0417511 3.54932e-07
-3.06335e-07 3.54932e-07 0.0366409

0.0230831 -0.000534344 -2.07203e-07
-0.000534344 0.0313568 9.99269e-08
-2.07203e-07 9.99269e-08 0.0230744

0.0463635 -0.00225608 5.3333e-07
-0.00225608 0.0412952 5.329e-07
5.3333e-07 5.329e-07 0.036596

0.0370677 -0.00362444 -4.71681e-09
-0.00362444 0.033493 1.72208e-08
-4.71681e-09 1.72208e-08 0.034623

0.0351401 0.00361929 2.98331e-08
0.00361929 0.0300061 3.91176e-08
2.98331e-08 3.91176e-08 0.0324587

0.0299642 -0.00315918 1.86274e-07
-0.00315918 0.0246923 1.14661e-07
1.86274e-07 1.14661e-07 0.0232878

0.023014 0.00403015 -1.3557e-07
0.00403015 0.0277811 -5.91819e-10
-1.3557e-07 -5.91819e-10 0.0203837

0.0210954 -0.00137866 -1.12769e-07
-0.00137866 0.0298975 1.22025e-08
-1.12769e-07 1.22025e-08 0.018253

0.0287483 0.00288923 6.98067e-08
0.00288923 0.0342299 2.79556e-08
6.98067e-08 2.79556e-08 0.032702

0.037014 0.00223631 4.57377e-08
0.00223631 0.0334538 -4.24333e-08
4.57377e-08 -4.24333e-08 0.0343863

0.0281505 0.00198823 3.27029e-08
0.00198823 0.0340623 -6.09321e-08
3.27029e-08 -6.09321e-08 0.0308677

0.0318853 0.00207314 -2.10127e-07
0.00207314 0.0252561 1.47705e-08
-2.10127e-07 1.47705e-08 0.0256195

0.0239094 -0.00277458 8.33243e-08
-0.00277458 0.0297672 8.42277e-08
8.33243e-08 8.42277e-08 0.0215632

0.0279007 -0.00376402 -3.63641e-08
-0.00376402 0.0218168 4.04297e-08
-3.63641e-08 4.04297e-08 0.0180773

0.0293339 -0.00323195 -2.18374e-07
-0.00323195 0.0326322 7.08583e-08
-2.18374e-07 7.08583e-08 0.0324052

0.0306287 0.00361514 8.18811e-08
0.00361514 0.0322311 1.40358e-07
8.18811e-08 1.40358e-07 0.0323729

0.0287103 0.00304818 -1.12405e-07
0.00304818 0.0340295 -2.73196e-07
-1.12405e-07 -2.73196e-07 0.0326325

0.0292089 0.00172527 -5.5279e-09
0.00172527 0.0376195 8.98472e-08
-5.5279e-09 8.98472e-08 0.0338483

0.0344802 0.00123245 -1.63652e-08
0.00123245 0.0275259 7.10417e-08
-1.63652e-08 7.10417e-08 0.030677

0.019962 -0.000605327 -3.83724e-08
-0.000605327 0.029663 -2.33558e-07
-3.83724e-08 -2.33558e-07 0.0181053

0.0298 -0.00486286 -4.11762e-08
-0.00486286 0.0330514 -4.37045e-08
-4.11762e-08 -4.37045e-08 0.0337438

0.0290833 0.0036001 -1.51376e-07
0.0036001 0.0313619 -1.18068e-07
-1.51376e-07 -1.18068e-07 0.0302662

0.0181067 0.000282822 -1.2328e-08
0.000282822 0.029313 -9.78488e-09
-1.2328e-08 -9.78488e-09 0.0168797

0.0278455 0.00442416 -2.71891e-07
0.00442416 0.0209696 -5.67932e-08
-2.71891e-07 -5.67932e-08 0.017456

0.0291933 -0.00302052 7.68543e-08
-0.00302052 0.0327056 1.34217e-07
7.68543e-08 1.34217e-07 0.0321875

0.0352448 0.000759778 -1.5762e-08
0.000759778 0.027341 2.98127e-08
-1.5762e-08 2.98127e-08 0.0325549

0.0294296 0.00352054 -1.93985e-08
0.00352054 0.025203 -9.95875e-10
-1.93985e-08 -9.95875e-10 0.023113

0.039638 0.00170993 -1.57838e-07
0.00170993 0.0390402 -1.22427e-07
-1.57838e-07 -1.22427e-07 0.0359418

0.0283772 0.0031236 7.02419e-08
0.0031236 0.022403 -2.20532e-07
7.02419e-08 -2.20532e-07 0.0182878

0.0394901 -0.00175059 -1.61443e-07
-0.00175059 0.0390661 -6.47732e-08
-1.61443e-07 -6.47732e-08 0.035907

0.0232627 0.000103431 -4.21742e-08
0.000103431 0.0315204 5.64761e-08
-4.21742e-08 5.64761e-08 0.0231214

0.0327611 -0.000288415 1.66892e-07
-0.000288415 0.0246618 5.51121e-08
1.66892e-07 5.51121e-08 0.0269682

0.0380564 -0.0021292 1.3993e-07
-0.0021292 0.0304659 -8.63509e-08
1.3993e-07 -8.63509e-08 0.0347952

0.0292405 0.00320606 1.72255e-09
0.00320606 0.0332803 -1.20172e-07
1.72255e-09 -1.20172e-07 0.033345

0.0289525 -0.00177264 -9.90675e-08
-0.00177264 0.0366113 -1.54187e-07
-9.90675e-08 -1.54187e-07 0.0335017

0.0365858 -0.00108484 5.95393e-08
-0.00108484 0.0264788 6.11119e-08
5.95393e-08 6.11119e-08 0.0338621

0.0311822 -0.00292561 -1.05843e-08
-0.00292561 0.0383079 7.50727e-09
-1.05843e-08 7.50727e-09 0.0348456

0.0381668 -0.000885287 2.27142e-07
-0.000885287 0.0387327 -1.64943e-07
2.27142e-07 -1.64943e-07 0.0358371

0.030182 -0.00393989 1.13581e-07
-0.00393989 0.0327129 1.34144e-07
1.13581e-07 1.34144e-07 0.0327654

0.0213341 0.00146967 1.1585e-07
0.00146967 0.0296159 6.34166e-08
1.1585e-07 6.34166e-08 0.0182969

0.0293902 -0.00364601 2.44464e-08
-0.00364601 0.0253511 -2.56692e-07
2.44464e-08 -2.56692e-07 0.0231836

0.032861 -0.00181691 2.70504e-08
-0.00181691 0.0397192 -2.08319e-07
2.70504e-08 -2.08319e-07 0.0352428

0.0350933 7.67927e-05 1.70033e-09
7.67927e-05 0.0272243 3.1339e-08
1.70033e-09 3.1339e-08 0.0332533

0.0308203 -0.0028291 -1.13259e-07
-0.0028291 0.034894 -1.30537e-07
-1.13259e-07 -1.30537e-07 0.0340861

0.0295367 0.00338852 1.59472e-07
0.00338852 0.0328737 1.3026e-07
1.59472e-07 1.3026e-07 0.0333281

0.0264621 -0.00406361 1.17519e-08
-0.00406361 0.0272635 -9.46119e-08
1.17519e-08 -9.46119e-08 0.021586

0.0371736 -0.000958484 -1.15692e-07
-0.000958484 0.0416111 1.79488e-07
-1.15692e-07 1.79488e-07 0.0358882

0.0227125 -0.00423806 -6.05559e-08
-0.00423806 0.0272456 -1.49838e-08
-6.05559e-08 -1.49838e-08 0.0168786

0.0341851 -0.00252475 4.8686e-08
-0.00252475 0.0286084 1.04314e-07
4.8686e-08 1.04314e-07 0.0310464

0.0364279 0.000290083 -2.1572e-08
0.000290083 0.0294395 -4.43594e-09
-2.1572e-08 -4.43594e-09 0.0341957

0.0396421 0.00239648 -1.76626e-07
0.00239648 0.0391138 2.71731e-07
-1.76626e-07 2.71731e-07 0.0358692

0.0238577 0.00260942 -6.42805e-08
0.00260942 0.0301535 -1.31942e-07
-6.42805e-08 -1.31942e-07 0.0218003

0.0334331 0.00358144 4.31518e-08
0.00358144 0.0307172 1.07858e-08
4.31518e-08 1.07858e-08 0.0317691

0.0316452 -0.00319461 -5.23651e-08
-0.00319461 0.0265538 4.00586e-08
-5.23651e-08 4.00586e-08 0.0269372

0.0289311 -0.00234094 -2.4601e-08
-0.00234094 0.0342372 7.96094e-09
-2.4601e-08 7.96094e-09 0.0326079

0.0262461 0.00450194 -1.81513e-07
0.00450194 0.0245594 1.20032e-07
-1.81513e-07 1.20032e-07 0.0180823

0.0284248 -0.00286688 1.01922e-07
-0.00286688 0.0340345 7.84907e-08
1.01922e-07 7.84907e-08 0.0324511

0.0331512 0.00405918 1.02679e-07
0.00405918 0.0304664 -1.73928e-07
1.02679e-07 -1.73928e-07 0.0315442

0.0333368 -0.00331188 1.19801e-07
-0.00331188 0.028359 1.08736e-08
1.19801e-07 1.08736e-08 0.0300478

0.0291632 -0.00329557 -1.27054e-07
-0.00329557 0.03199 -2.8168e-07
-1.27054e-07 -2.8168e-07 0.0304394

0.0314576 -0.00242964 8.57769e-08
-0.00242964 0.0247204 -1.61502e-07
8.57769e-08 -1.61502e-07 0.0251579

0.0329577 -0.00246687 8.75029e-08
-0.00246687 0.0267113 5.71398e-08
8.75029e-08 5.71398e-08 0.0285985

0.0294936 -0.00334212 1.73054e-07
-0.00334212 0.0329527 2.02636e-08
1.73054e-07 2.02636e-08 0.0334094

0.0261357 0.00463429 -6.23816e-08
0.00463429 0.0255431 8.58794e-09
-6.23816e-08 8.58794e-09 0.0210938

0.0281521 0.00201692 1.50835e-07
0.00201692 0.0343383 4.10744e-08
1.50835e-07 4.10744e-08 0.0311115

0.0308889 0.00348118 -3.38866e-08
0.00348118 0.0322577 -1.81107e-08
-3.38866e-08 -1.81107e-08 0.0326023

0.0291594 0.00334821 7.75246e-08
0.00334821 0.033194 1.42142e-07
7.75246e-08 1.42142e-07 0.0332626

0.0289862 0.0015229 -1.10784e-07
0.0015229 0.0354729 1.57564e-07
-1.10784e-07 1.57564e-07 0.0326976

0.0310548 -0.00106191 -5.48189e-09
-0.00106191 0.023143 -4.78116e-09
-5.48189e-09 -4.78116e-09 0.0220795

0.0238855 0.00240591 1.02052e-07
0.00240591 0.0304127 -7.00497e-08
1.02052e-07 -7.00497e-08 0.0221146

0.0292155 -0.00320421 1.5497e-08
-0.00320421 0.032639 -6.23137e-08
1.5497e-08 -6.23137e-08 0.0316206

0.0289895 0.00335712 7.74909e-08
0.00335712 0.0309352 1.38273e-07
7.74909e-08 1.38273e-07 0.0285701

0.0266145 -0.00459177 8.56219e-08
-0.00459177 0.0252323 -2.51935e-07
8.56219e-08 -2.51935e-07 0.0212581

0.0262796 0.00489396 -1.31189e-07
0.00489396 0.0209475 -7.76246e-08
-1.31189e-07 -7.76246e-08 0.0167635

0.0235044 -0.0042873 6.51667e-08
-0.0042873 0.0274666 -1.18583e-07
6.51667e-08 -1.18583e-07 0.0206279

0.0266737 -0.00402801 1.46304e-07
-0.00402801 0.0274846 -1.14689e-07
1.46304e-07 -1.14689e-07 0.0220516

0.0353675 -0.00090645 -9.3698e-08
-0.00090645 0.0273927 3.79574e-09
-9.3698e-08 3.79574e-09 0.0326572

0.0260471 0.00392194 -2.0111e-07
0.00392194 0.0280944 -8.25089e-08
-2.0111e-07 -8.25089e-08 0.0221041

0.0307903 0.00171684 -1.21321e-07
0.00171684 0.023362 -2.49301e-07
-1.21321e-07 -2.49301e-07 0.0220272

0.0214324 0.00172228 7.04518e-08
0.00172228 0.030243 -7.58628e-08
7.04518e-08 -7.58628e-08 0.0211344

0.0242646 -0.00288971 1.68317e-07
-0.00288971 0.0299542 1.04551e-07
1.68317e-07 1.04551e-07 0.0220878

0.0313479 -0.000131131 2.57106e-08
-0.000131131 0.0392757 1.87698e-07
2.57106e-08 1.87698e-07 0.0346732

0.02306 0.000294628 5.07167e-09
0.000294628 0.0314631 1.13535e-07
5.07167e-09 1.13535e-07 0.023064

0.0227788 0.0040018 9.30213e-08
0.0040018 0.0281295 -5.82723e-08
9.30213e-08 -5.82723e-08 0.0206396

0.0288909 0.00158586 -4.5665e-08
0.00158586 0.0358354 -1.18141e-07
-4.5665e-08 -1.18141e-07 0.0328962

0.0293181 -0.00358046 1.04997e-07
-0.00358046 0.0251314 -2.37475e-08
1.04997e-07 -2.37475e-08 0.0232416

0.0369793 0.00273293 4.64318e-08
0.00273293 0.0297258 -5.97649e-08
4.64318e-08 -5.97649e-08 0.0338042

0.0371781 0.00348312 1.04114e-07
0.00348312 0.0334253 2.4358e-08
1.04114e-07 2.4358e-08 0.0346546

0.0345472 -0.00244652 -2.64593e-08
-0.00244652 0.0285323 -4.97965e-09
-2.64593e-08 -4.97965e-09 0.0313814

0.0390587 -0.000266052 2.02032e-07
-0.000266052 0.0339272 3.19644e-08
2.02032e-07 3.19644e-08 0.0352107

0.0314816 -0.00418785 -5.3704e-08
-0.00418785 0.0317844 1.42671e-08
-5.3704e-08 1.42671e-08 0.0321589

0.0294646 0.00300784 -1.17599e-07
0.00300784 0.022329 -2.54073e-07
-1.17599e-07 -2.54073e-07 0.0210683

0.0302327 0.00397301 2.25367e-08
0.00397301 0.0326662 -1.2181e-07
2.25367e-08 -1.2181e-07 0.0327227

0.0302802 0.00384703 8.62034e-08
0.00384703 0.0326105 1.32219e-07
8.62034e-08 1.32219e-07 0.0326774

0.0262463 0.00396224 -5.93864e-08
0.00396224 0.0277699 2.57571e-09
-5.93864e-08 2.57571e-09 0.0218666

0.0344531 0.00357696 -1.62025e-08
0.00357696 0.0317821 -1.0616e-08
-1.62025e-08 -1.0616e-08 0.032834

0.0302509 0.000452415 -5.17692e-09
0.000452415 0.0204299 -5.2102e-09
-5.17692e-09 -5.2102e-09 0.0205749

0.0331885 0.00420075 6.66772e-08
0.00420075 0.032376 -8.34125e-09
6.66772e-08 -8.34125e-09 0.0334865

0.0305033 -0.00165435 -1.35529e-07
-0.00165435 0.0366189 -1.55905e-07
-1.35529e-07 -1.55905e-07 0.0336654

0.0373624 0.00323265 -9.59096e-08
0.00323265 0.0334622 1.22455e-07
-9.59096e-08 1.22455e-07 0.0346668

0.03074 -0.00389612 1.16457e-07
-0.00389612 0.0322759 1.43857e-07
1.16457e-07 1.43857e-07 0.0326829

0.0293763 -0.000644869 -5.64718e-08
-0.000644869 0.036906 -1.13273e-07
-5.64718e-08 -1.13273e-07 0.0328505

0.0288153 -0.00315264 -8.21332e-08
-0.00315264 0.0221417 2.16462e-07
-8.21332e-08 2.16462e-07 0.0187606

0.0290054 0.00384481 1.51931e-07
0.00384481 0.0255802 3.33653e-09
1.51931e-07 3.33653e-09 0.0230749

0.0217031 0.00189115 1.35641e-07
0.00189115 0.0300638 -1.17907e-07
1.35641e-07 -1.17907e-07 0.0210857

0.034993 -0.000161364 1.19972e-07
-0.000161364 0.0273924 3.75261e-09
1.19972e-07 3.75261e-09 0.0333043

0.0344227 3.70885e-07 -6.23325e-08
3.70885e-07 0.0272773 -5.42536e-08
-6.23325e-08 -5.42536e-08 0.0320439

0.0291685 0.00304025 2.01588e-09
0.00304025 0.0326832 1.35834e-07
2.01588e-09 1.35834e-07 0.0321354

0.0314526 0.00316639 8.06425e-08
0.00316639 0.0342529 1.66472e-08
8.06425e-08 1.66472e-08 0.0340608

0.0291716 -0.00320437 5.86083e-08
-0.00320437 0.0332417 -7.93446e-08
5.86083e-08 -7.93446e-08 0.0333817

0.0287762 -8.56868e-05 -5.86527e-09
-8.56868e-05 0.0367073 1.70187e-08
-5.86527e-09 1.70187e-08 0.0325283

0.029467 0.00337567 -8.97915e-08
0.00337567 0.0330775 -1.37723e-07
-8.97915e-08 -1.37723e-07 0.0333574

0.0328624 -0.00134663 -9.5646e-08
-0.00134663 0.0253641 1.24578e-07
-9.5646e-08 1.24578e-07 0.0278314

0.0263573 -0.00425504 -2.68531e-08
-0.00425504 0.0281825 -3.10081e-08
-2.68531e-08 -3.10081e-08 0.0242698

0.0363003 -0.000331618 6.14903e-08
-0.000331618 0.0293857 4.54351e-08
6.14903e-08 4.54351e-08 0.0340306

0.0267833 -0.00444594 5.66491e-08
-0.00444594 0.0251926 -2.2076e-08
5.66491e-08 -2.2076e-08 0.0209511

0.0309021 0.00250687 -7.70096e-08
0.00250687 0.035066 -1.20999e-08
-7.70096e-08 -1.20999e-08 0.0340704

0.0351164 -0.00349684 -8.3764e-08
-0.00349684 0.0303909 7.92988e-08
-8.3764e-08 7.92988e-08 0.0326174

0.0305047 -0.00124998 3.62795e-08
-0.00124998 0.0229804 3.01766e-07
3.62795e-08 3.01766e-07 0.0214803

0.0371501 -0.00307717 -3.42409e-08
-0.00307717 0.0316559 1.0974e-07
-3.42409e-08 1.0974e-07 0.0339905

0.0349725 0.000321835 2.47075e-08
0.000321835 0.0275577 4.87079e-08
2.47075e-08 4.87079e-08 0.0334326

0.0358456 -0.00308854 -1.11105e-07
-0.00308854 0.0332602 -1.45508e-07
-1.11105e-07 -1.45508e-07 0.034146

0.0349316 -0.00341052 1.00563e-07
-0.00341052 0.0295974 5.787e-08
1.00563e-07 5.787e-08 0.0321807

0.0349122 -0.00113381 -1.24152e-07
-0.00113381 0.0278526 -4.56406e-08
-1.24152e-07 -4.56406e-08 0.0323441

0.0314928 -0.00306241 -4.64095e-08
-0.00306241 0.0344512 1.71147e-07
-4.64095e-08 1.71147e-07 0.0341492

0.0292382 -0.00407136 -1.94423e-07
-0.00407136 0.0269022 5.98499e-08
-1.94423e-07 5.98499e-08 0.0253485

0.0349955 -0.00324385 8.71172e-08
-0.00324385 0.0299178 4.85598e-09
8.71172e-08 4.85598e-09 0.0321979

0.0314656 0.00140936 -1.13061e-07
0.00140936 0.0233291 -2.49455e-07
-1.13061e-07 -2.49455e-07 0.0244859

0.0336673 0.00348432 4.83785e-08
0.00348432 0.0334466 2.00148e-08
4.83785e-08 2.00148e-08 0.0336526

0.0298957 -0.00496719 -1.18018e-07
-0.00496719 0.0330814 3.18566e-08
-1.18018e-07 3.18566e-08 0.0338599

0.0300462 0.00492027 -1.90533e-08
0.00492027 0.0329429 -1.40842e-07
-1.90533e-08 -1.40842e-07 0.0338268

0.0276911 -0.00374154 2.6981e-08
-0.00374154 0.0348099 -1.2581e-07
2.6981e-08 -1.2581e-07 0.0337694

0.027929 0.00354709 4.02022e-08
0.00354709 0.0348377 1.9184e-07
4.02022e-08 1.9184e-07 0.0337342

0.0364325 -0.00115362 7.98622e-08
-0.00115362 0.0263449 7.5484e-08
7.98622e-08 7.5484e-08 0.0337605

0.0362014 0.00124751 2.03656e-08
0.00124751 0.0265662 7.54813e-08
2.03656e-08 7.54813e-08 0.0337233

0.0350373 -0.00130675 -1.77071e-09
-0.00130675 0.0284706 -2.35235e-08
-1.77071e-09 -2.35235e-08 0.0325785

0.0344389 0.00425901 2.5655e-08
0.00425901 0.0342919 1.56502e-08
2.5655e-08 1.56502e-08 0.034815

0.0343148 -0.00435675 -8.2186e-08
-0.00435675 0.0342838 -5.91414e-08
-8.2186e-08 -5.91414e-08 0.0348034

0.0305236 0.00209327 -4.23472e-08
0.00209327 0.0381672 -8.05417e-08
-4.23472e-08 -8.05417e-08 0.0348522

0.0306669 -0.00205961 -1.99712e-08
-0.00205961 0.0380977 3.45902e-08
-1.99712e-08 3.45902e-08 0.0348395

0.039504 -0.000529423 -1.27129e-07
-0.000529423 0.0328518 -1.50576e-07
-1.27129e-07 -1.50576e-07 0.0352603

0.0397067 0.000513499 -5.76275e-08
0.000513499 0.0326243 1.28087e-07
-5.76275e-08 1.28087e-07 0.0353055

0.0239672 0.00127602 1.28857e-09
0.00127602 0.0320063 1.06794e-07
1.28857e-09 1.06794e-07 0.0251866

0.0311648 -0.00326561 -3.32875e-08
-0.00326561 0.0322434 -1.09652e-07
-3.32875e-08 -1.09652e-07 0.0328045

0.0277831 -0.00478559 1.17132e-07
-0.00478559 0.0333151 -8.06952e-08
1.17132e-07 -8.06952e-08 0.0334579

0.0333619 -0.000610441 -1.05717e-07
-0.000610441 0.0264056 1.06929e-07
-1.05717e-07 1.06929e-07 0.0284508

0.0381904 -0.0022517 1.81973e-08
-0.0022517 0.0307971 9.71539e-08
1.81973e-08 9.71539e-08 0.0348952

0.0382383 0.00218365 4.05419e-09
0.00218365 0.0309103 3.5984e-08
4.05419e-09 3.5984e-08 0.0349274

0.0360868 1.56126e-05 1.39112e-07
1.56126e-05 0.0251291 -1.54521e-07
1.39112e-07 -1.54521e-07 0.033473

0.0242431 0.00302937 8.85023e-08
0.00302937 0.0304008 1.47375e-07
8.85023e-08 1.47375e-07 0.0242793

0.0276772 0.0047562 1.50237e-07
0.0047562 0.0333154 1.45226e-07
1.50237e-07 1.45226e-07 0.0333958

0.0286775 -0.00307585 8.24195e-09
-0.00307585 0.0342641 7.36348e-09
8.24195e-09 7.36348e-09 0.032755

0.0310883 0.00303609 1.78818e-07
0.00303609 0.0251489 9.1801e-09
1.78818e-07 9.1801e-09 0.0254696

0.0372302 0.0031658 6.94716e-09
0.0031658 0.0315431 -6.44525e-09
6.94716e-09 -6.44525e-09 0.0340784

0.0292295 -0.00406792 1.14783e-07
-0.00406792 0.0269383 -3.92737e-08
1.14783e-07 -3.92737e-08 0.0253237

0.0364046 -0.000453761 5.07884e-08
-0.000453761 0.0296941 4.3744e-08
5.07884e-08 4.3744e-08 0.0341336

0.0273476 -0.00449481 1.51982e-07
-0.00449481 0.0333981 -1.98551e-07
1.51982e-07 -1.98551e-07 0.0334446

0.02404 0.00107897 -8.88986e-08
0.00107897 0.0322474 -3.92033e-08
-8.88986e-08 -3.92033e-08 0.0255083

0.0242318 0.00282695 5.50053e-08
0.00282695 0.0307045 -1.65389e-07
5.50053e-08 -1.65389e-07 0.0245472

0.0267948 0.00459491 -2.00368e-07
0.00459491 0.0240438 -1.91725e-07
-2.00368e-07 -1.91725e-07 0.0182152

0.0298536 0.000199877 1.31389e-07
0.000199877 0.02009 1.57789e-07
1.31389e-07 1.57789e-07 0.0193642

0.0319114 -0.0030239 -5.35501e-08
-0.0030239 0.0341652 -6.04259e-08
-5.35501e-08 -6.04259e-08 0.0340382

0.0229207 0.00400001 9.00149e-08
0.00400001 0.0276626 -6.30401e-08
9.00149e-08 -6.30401e-08 0.0176547

0.0292126 0.00310091 -1.57707e-07
0.00310091 0.0327659 -1.06645e-07
-1.57707e-07 -1.06645e-07 0.031015

0.0315978 -0.000694593 -2.58627e-08
-0.000694593 0.0231621 -5.33161e-09
-2.58627e-08 -5.33161e-09 0.0244871

0.0327642 0.00146455 8.65315e-08
0.00146455 0.0253491 -9.32498e-09
8.65315e-08 -9.32498e-09 0.0276155

0.0359812 5.62404e-05 7.20838e-08
5.62404e-05 0.0249621 -8.26441e-08
7.20838e-08 -8.26441e-08 0.033389

0.027969 -0.00380543 2.78659e-08
-0.00380543 0.0349521 -1.34536e-07
2.78659e-08 -1.34536e-07 0.0338187

0.0393157 -0.000843423 1.78815e-07
-0.000843423 0.0416035 -1.80684e-07
1.78815e-07 -1.80684e-07 0.0361923

0.029871 0.00493883 1.90339e-08
0.00493883 0.0329593 1.26425e-07
1.90339e-08 1.26425e-07 0.0337818

0.0302912 0.000214463 1.73038e-07
0.000214463 0.0203985 6.48809e-09
1.73038e-07 6.48809e-09 0.0172777

0.0266763 -0.00425097 3.88619e-08
-0.00425097 0.0281358 4.37966e-08
3.88619e-08 4.37966e-08 0.0244398

0.0277493 0.00481542 -9.91201e-08
0.00481542 0.0333182 -1.21367e-07
-9.91201e-08 -1.21367e-07 0.0334581

0.0279476 -0.0014586 -1.01451e-08
-0.0014586 0.0350881 1.96903e-07
-1.01451e-08 1.96903e-07 0.031453

0.0244673 -0.00330554 2.25201e-07
-0.00330554 0.0300185 -1.45982e-07
2.25201e-07 -1.45982e-07 0.0242194

0.0279939 0.00377968 -6.15237e-08
0.00377968 0.0349131 -1.31001e-08
-6.15237e-08 -1.31001e-08 0.0337896

0.0313645 -0.00340989 -3.67095e-08
-0.00340989 0.0270111 7.53826e-08
-3.67095e-08 7.53826e-08 0.0269938

0.040281 0.00140861 -1.32048e-07
0.00140861 0.0406194 -2.83523e-07
-1.32048e-07 -2.83523e-07 0.0361727

0.0258834 0.00400331 -1.63162e-07
0.00400331 0.0289574 -1.15437e-08
-1.63162e-07 -1.15437e-08 0.0245133

0.0366811 0.00110278 -1.74206e-08
0.00110278 0.0263554 -1.07848e-08
-1.74206e-08 -1.07848e-08 0.0339005

0.0333447 0.0039844 1.06429e-07
0.0039844 0.0321187 1.3782e-07
1.06429e-07 1.3782e-07 0.0333184

0.0292309 0.00306751 -2.01534e-07
0.00306751 0.0326085 -1.29012e-07
-2.01534e-07 -1.29012e-07 0.0321605

0.0343669 -0.00431088 8.57146e-08
-0.00431088 0.0345078 1.6819e-07
8.57146e-08 1.6819e-07 0.0348876

0.0354926 -0.00306387 -1.09988e-07
-0.00306387 0.0305925 2.58618e-08
-1.09988e-07 2.58618e-08 0.0327531

0.0333685 0.00138771 -5.46379e-08
0.00138771 0.0395792 -1.65177e-07
-5.46379e-08 -1.65177e-07 0.035005

0.0291999 -0.00307941 -5.79081e-08
-0.00307941 0.0328766 3.48946e-07
-5.79081e-08 3.48946e-07 0.0313862

0.0292676 -0.00123238 1.57131e-08
-0.00123238 0.0192887 1.22991e-07
1.57131e-08 1.22991e-07 0.0164137

0.0287814 -0.00183254 1.28257e-07
-0.00183254 0.0184155 -8.6295e-08
1.28257e-07 -8.6295e-08 0.0161986

0.038531 0.0022024 8.50787e-08
0.0022024 0.0332413 -2.15004e-07
8.50787e-08 -2.15004e-07 0.0347655

0.0280588 0.00294547 1.47052e-07
0.00294547 0.0323383 -1.15074e-07
1.47052e-07 -1.15074e-07 0.0295209

0.0320703 0.00383472 -1.16029e-07
0.00383472 0.0309635 -6.33952e-08
-1.16029e-07 -6.33952e-08 0.0314572

0.0320533 8.99619e-05 -2.38302e-07
8.99619e-05 0.0245793 1.04872e-07
-2.38302e-07 1.04872e-07 0.0248905

0.0302401 0.000866 -1.49345e-08
0.000866 0.0385838 3.33359e-09
-1.49345e-08 3.33359e-09 0.0340991

0.035405 0.00219131 9.09214e-08
0.00219131 0.0293258 1.38543e-07
9.09214e-08 1.38543e-07 0.0328611

0.0248138 -0.00333926 2.45854e-07
-0.00333926 0.0300094 -1.65956e-08
2.45854e-07 -1.65956e-08 0.0244725

0.0286532 -0.000337747 1.20874e-07
-0.000337747 0.0366601 2.91633e-08
1.20874e-07 2.91633e-08 0.0323986

0.0252178 0.00174042 1.12072e-07
0.00174042 0.032033 1.10168e-07
1.12072e-07 1.10168e-07 0.0256865

0.0332834 -0.00391011 1.11096e-08
-0.00391011 0.0304994 3.30507e-08
1.11096e-08 3.30507e-08 0.0315952

0.0290678 -0.00389661 1.21643e-07
-0.00389661 0.0282033 -2.61216e-08
1.21643e-07 -2.61216e-08 0.0257162

0.0261517 0.00409951 -5.65567e-08
0.00409951 0.028549 7.82194e-09
-5.65567e-08 7.82194e-09 0.0243206

0.0452876 -0.00201711 1.29177e-07
-0.00201711 0.0396074 -6.33007e-08
1.29177e-07 -6.33007e-08 0.0363693

0.0316693 0.000256629 5.04903e-08
0.000256629 0.0393291 -1.52351e-07
5.04903e-08 -1.52351e-07 0.0347718

0.0306195 0.00265086 8.935e-08
0.00265086 0.0384452 1.47557e-07
8.935e-08 1.47557e-07 0.0349603

0.0387682 0.00209444 -4.85093e-09
0.00209444 0.0302246 -1.43938e-08
-4.85093e-09 -1.43938e-08 0.0349452

0.0313741 -0.00345053 -6.88751e-08
-0.00345053 0.0321438 -1.4166e-07
-6.88751e-08 -1.4166e-07 0.0325756

0.0318212 0.00233623 8.39993e-08
0.00233623 0.0256228 1.48657e-07
8.39993e-08 1.48657e-07 0.0258822

0.0349957 -0.000708297 -1.08529e-07
-0.000708297 0.0415773 -6.05445e-08
-1.08529e-07 -6.05445e-08 0.0357301

0.035791 -0.00251852 -1.67344e-07
-0.00251852 0.029553 5.41113e-08
-1.67344e-07 5.41113e-08 0.0332608

0.0333002 -0.00203989 6.80494e-08
-0.00203989 0.0266554 7.38263e-09
6.80494e-08 7.38263e-09 0.0286782

0.0252548 0.0015111 -2.40469e-08
0.0015111 0.0322778 -3.68136e-08
-2.40469e-08 -3.68136e-08 0.0259527

0.0268074 -0.00334506 -9.42121e-08
-0.00334506 0.0300128 -1.57447e-07
-9.42121e-08 -1.57447e-07 0.0251898

0.0364804 -0.00336071 5.93066e-09
-0.00336071 0.0352898 3.16693e-08
5.93066e-09 3.16693e-08 0.0347449

0.0284785 0.00415263 -2.49071e-08
0.00415263 0.0277189 1.67507e-08
-2.49071e-08 1.67507e-08 0.0254703

0.0372463 -0.00334546 1.31141e-07
-0.00334546 0.0333247 -1.7148e-07
1.31141e-07 -1.7148e-07 0.0346143

0.0322096 0.000338042 -1.34651e-07
0.000338042 0.024865 -2.16722e-07
-1.34651e-07 -2.16722e-07 0.0254401

0.0191626 -0.00368956 -1.07095e-07
-0.00368956 0.0275285 2.11757e-08
-1.07095e-07 2.11757e-08 0.0163124

0.0292128 -0.00380401 -2.12061e-07
-0.00380401 0.0281954 2.14175e-08
-2.12061e-07 2.14175e-08 0.0258103

0.0230479 0.00412786 -2.72936e-08
0.00412786 0.028023 1.93795e-07
-2.72936e-08 1.93795e-07 0.0175938

0.0296935 -0.00155935 -1.76964e-08
-0.00155935 0.037536 5.13479e-08
-1.76964e-08 5.13479e-08 0.0336512

0.0243624 -0.00179379 -1.16599e-09
-0.00179379 0.0318758 -2.31445e-07
-1.16599e-09 -2.31445e-07 0.0254504

0.0424385 -0.00323358 2.78528e-07
-0.00323358 0.0423769 1.60927e-07
2.78528e-07 1.60927e-07 0.0363776

0.026339 0.00309145 -6.63314e-08
0.00309145 0.0307047 -1.6557e-07
-6.63314e-08 -1.6557e-07 0.0254803

0.0334801 -0.00432331 1.87536e-07
-0.00432331 0.032662 -3.13738e-08
1.87536e-07 -3.13738e-08 0.0335691

0.0240828 -0.00155096 -9.02565e-08
-0.00155096 0.0318904 -1.02229e-07
-9.02565e-08 -1.02229e-07 0.0251792

0.0362252 -0.00253858 -4.4403e-08
-0.00253858 0.0295137 3.9595e-08
-4.4403e-08 3.9595e-08 0.033522

0.026676 0.00310497 -1.44663e-07
0.00310497 0.0303978 1.51251e-07
-1.44663e-07 1.51251e-07 0.0253156

0.0343466 -0.000653813 -5.62e-08
-0.000653813 0.0272794 -4.39065e-08
-5.62e-08 -4.39065e-08 0.0305803

0.018892 -0.00387194 -8.54219e-08
-0.00387194 0.0298043 -2.8007e-08
-8.54219e-08 -2.8007e-08 0.0129624

0.0280018 0.00275479 1.65652e-07
0.00275479 0.0326321 2.1116e-08
1.65652e-07 2.1116e-08 0.0305762

0.0314404 -0.00251257 -1.13298e-07
-0.00251257 0.0247243 1.07252e-07
-1.13298e-07 1.07252e-07 0.0254082

0.0391205 -0.00286945 -6.08462e-08
-0.00286945 0.0322238 -5.36935e-08
-6.08462e-08 -5.36935e-08 0.0349392

0.0287559 0.00412428 1.70321e-07
0.00412428 0.0273023 3.47171e-08
1.70321e-07 3.47171e-08 0.0252576

0.031364 -0.00391968 6.05494e-08
-0.00391968 0.0285442 -7.07211e-08
6.05494e-08 -7.07211e-08 0.0287333

0.0354109 0.00276404 -6.27376e-08
0.00276404 0.0308579 8.96018e-08
-6.27376e-08 8.96018e-08 0.0330415

0.0297754 -0.00370368 3.10753e-07
-0.00370368 0.0329402 -6.05788e-08
3.10753e-07 -6.05788e-08 0.0333447

0.0270574 -0.00341055 1.26361e-09
-0.00341055 0.0299852 -3.54041e-08
1.26361e-09 -3.54041e-08 0.0253995

0.0284431 0.00377155 -8.94812e-09
0.00377155 0.0289423 -7.20539e-09
-8.94812e-09 -7.20539e-09 0.0258894

0.0313737 0.00341381 -7.17798e-08
0.00341381 0.0269015 5.78276e-08
-7.17798e-08 5.78276e-08 0.0269681

0.0365379 -0.00194432 -2.34154e-08
-0.00194432 0.0306274 8.41488e-08
-2.34154e-08 8.41488e-08 0.0336378

0.0255356 -0.0021635 1.46838e-07
-0.0021635 0.0318044 -2.18953e-07
1.46838e-07 -2.18953e-07 0.0258557

0.0347024 -0.00231406 -3.56459e-08
-0.00231406 0.0283364 -2.57812e-08
-3.56459e-08 -2.57812e-08 0.0314581

0.0341884 0.00222313 7.70221e-09
0.00222313 0.0274339 -1.98685e-07
7.70221e-09 -1.98685e-07 0.030606

0.0336464 -0.00124549 -1.95352e-07
-0.00124549 0.0393015 1.90327e-07
-1.95352e-07 1.90327e-07 0.0349293

0.0320746 -0.00174686 -1.04639e-07
-0.00174686 0.0253322 1.23967e-07
-1.04639e-07 1.23967e-07 0.0258731

0.0250036 7.96374e-05 7.64593e-08
7.96374e-05 0.033154 -1.54754e-08
7.64593e-08 -1.54754e-08 0.0268632

0.0332498 0.00242909 7.697e-08
0.00242909 0.0271957 -2.48911e-08
7.697e-08 -2.48911e-08 0.0289241

0.0311197 0.00359927 1.24597e-07
0.00359927 0.0272946 -1.00828e-07
1.24597e-07 -1.00828e-07 0.0271246

0.0252972 -0.0020414 2.53865e-07
-0.0020414 0.0318671 -9.4338e-08
2.53865e-07 -9.4338e-08 0.025613

0.0252029 -0.000154602 -8.91901e-08
-0.000154602 0.033294 -3.90293e-08
-8.91901e-08 -3.90293e-08 0.027146

0.035415 0.00385821 5.62428e-08
0.00385821 0.0329973 -2.12538e-07
5.62428e-08 -2.12538e-07 0.0338973

0.0275877 -0.00143099 5.99667e-08
-0.00143099 0.0353442 -6.45949e-08
5.99667e-08 -6.45949e-08 0.0314441

0.0312364 -0.0034843 -1.29175e-08
-0.0034843 0.0269796 -4.41787e-08
-1.29175e-08 -4.41787e-08 0.0270117

0.0312989 0.002773 -1.59368e-07
0.002773 0.0249238 -9.26653e-08
-1.59368e-07 -9.26653e-08 0.025248

0.0345849 0.00311831 1.32861e-07
0.00311831 0.0293887 3.25379e-08
1.32861e-07 3.25379e-08 0.0317978

0.0279932 0.000716787 1.18889e-07
0.000716787 0.0360418 -1.73661e-08
1.18889e-07 -1.73661e-08 0.0318202

0.0287186 0.00378177 1.89401e-07
0.00378177 0.028561 2.74653e-09
1.89401e-07 2.74653e-09 0.0257297

0.0367922 0.00305746 4.54274e-08
0.00305746 0.0361268 1.27901e-07
4.54274e-08 1.27901e-07 0.0349089

0.0226816 -0.00754591 -8.90755e-08
-0.00754591 0.0186888 3.28784e-07
-8.90755e-08 3.28784e-07 0.0108459

0.033293 -0.00328781 8.00959e-08
-0.00328781 0.0286343 -6.92296e-08
8.00959e-08 -6.92296e-08 0.030126

0.0207281 0.000913488 8.47787e-08
0.000913488 0.0300335 -2.18098e-07
8.47787e-08 -2.18098e-07 0.0183477

0.0313025 -0.00378195 1.22888e-07
-0.00378195 0.0292334 4.06987e-08
1.22888e-07 4.06987e-08 0.0290335

0.00153964 -0.00651911 -3.05829e-08
-0.00651911 0.0275698 1.33992e-07
-3.05829e-08 1.33992e-07 0.00290854

0.00147003 0.00636866 6.50544e-09
0.00636866 0.0275876 2.85022e-08
6.50544e-09 2.85022e-08 0.00300149

0.0119852 0.0145057 4.55918e-08
0.0145057 0.0175334 5.71703e-08
4.55918e-08 5.71703e-08 0.0027714

0.0121666 -0.0144963 2.7149e-08
-0.0144963 0.0172248 -3.40437e-08
2.7149e-08 -3.40437e-08 0.00280402

0.0293421 -0.0001641 -2.14199e-08
-0.0001641 0 0
-2.14199e-08 0 0.00295284

0.0235935 -0.0112832 1.14465e-07
-0.0112832 0.00539575 -5.51236e-08
1.14465e-07 -5.51236e-08 0.00297853

0.0236355 0.0113495 -4.14762e-08
0.0113495 0.00544984 -1.99739e-08
-4.14762e-08 -1.99739e-08 0.0030397

0.0369128 0.00191146 -1.25226e-07
0.00191146 0.0302441 7.17355e-08
-1.25226e-07 7.17355e-08 0.0338798

0.0387066 0.00341006 7.47348e-08
0.00341006 0.0366187 -2.3161e-07
7.47348e-08 -2.3161e-07 0.0355803

0.0344175 0.000872404 4.0874e-08
0.000872404 0.0274589 7.64763e-08
4.0874e-08 7.64763e-08 0.0316901

0.0328757 0.00285056 3.04965e-08
0.00285056 0.0268914 5.88248e-08
3.04965e-08 5.88248e-08 0.0286484

0.0257026 0.00231355 -1.23363e-09
0.00231355 0.0323696 -1.19002e-07
-1.23363e-09 -1.19002e-07 0.0276377

0.0307152 0.00376927 4.3054e-08
0.00376927 0.0276783 1.99419e-08
4.3054e-08 1.99419e-08 0.0271198

0.0333081 -0.00390324 -9.09658e-11
-0.00390324 0.0304681 1.69231e-08
-9.09658e-11 1.69231e-08 0.0316321

0.0309758 0.00365489 -5.69344e-08
0.00365489 0.027289 3.16469e-08
-5.69344e-08 3.16469e-08 0.0269274

0.024989 -0.000371511 -4.61968e-08
-0.000371511 0.0331251 -1.94089e-08
-4.61968e-08 -1.94089e-08 0.0268453

0.0385495 -0.00348449 1.72185e-07
-0.00348449 0.0368821 9.37634e-08
1.72185e-07 9.37634e-08 0.035586

0.0251775 -0.000635733 1.01464e-07
-0.000635733 0.0332125 -2.28551e-08
1.01464e-07 -2.28551e-08 0.0271049

0.03602 0.00304745 -8.78979e-08
0.00304745 0.0330135 1.72361e-07
-8.78979e-08 1.72361e-07 0.0341002

0.0296255 0.00347623 2.16001e-07
0.00347623 0.0248482 -1.14113e-07
2.16001e-07 -1.14113e-07 0.0230247

0.0304985 -0.00171396 2.07842e-07
-0.00171396 0.037515 -7.21611e-08
2.07842e-07 -7.21611e-08 0.0347388

0.0339231 0.00180479 4.05507e-08
0.00180479 0.0271839 -2.52678e-08
4.05507e-08 -2.52678e-08 0.0303228

0.0312037 -0.00392068 -1.0574e-07
-0.00392068 0.0285333 1.11204e-07
-1.0574e-07 1.11204e-07 0.0286167

0.0315865 -0.0032218 -1.76932e-08
-0.0032218 0.0266939 -5.33678e-08
-1.76932e-08 -5.33678e-08 0.0270499

0.0384815 -0.00214159 2.29734e-07
-0.00214159 0.0334189 1.67088e-08
2.29734e-07 1.67088e-08 0.0347471

0.0326837 0.00366421 1.80801e-08
0.00366421 0.0292343 1.6638e-07
1.80801e-08 1.6638e-07 0.0301574

0.0326475 0.0031379 -1.19009e-07
0.0031379 0.0272546 -1.1089e-07
-1.19009e-07 -1.1089e-07 0.0287903

0.0269573 -0.000365147 -1.068e-07
-0.000365147 0.03499 3.39392e-08
-1.068e-07 3.39392e-08 0.0301704

0.0259018 0.000765961 -7.68042e-08
0.000765961 0.0340064 -1.19921e-08
-7.68042e-08 -1.19921e-08 0.0288254

0.0327808 0.000345483 6.08373e-08
0.000345483 0.0248638 -2.05233e-07
6.08373e-08 -2.05233e-07 0.0274461

0.0313902 -0.000944995 -1.33107e-07
-0.000944995 0.0230057 2.94921e-07
-1.33107e-07 2.94921e-07 0.0238942

0.0308832 0.00398562 -1.46273e-07
0.00398562 0.0288083 -1.3152e-07
-1.46273e-07 -1.3152e-07 0.0286265

0.0331204 -0.00343182 3.91253e-08
-0.00343182 0.0285428 1.12788e-07
3.91253e-08 1.12788e-07 0.0299717

0.0364148 -0.00282382 -1.62557e-07
-0.00282382 0.0327353 -7.6612e-09
-1.62557e-07 -7.6612e-09 0.0341465

0.0292088 -0.00412799 -2.09688e-07
-0.00412799 0.029195 1.72325e-08
-2.09688e-07 1.72325e-08 0.0277562

0.0269744 -0.00362066 -2.24484e-07
-0.00362066 0.0304677 5.96224e-08
-2.24484e-07 5.96224e-08 0.0272157

0.0283288 0.00389989 -1.96467e-08
0.00389989 0.0299036 -2.84451e-08
-1.96467e-08 -2.84451e-08 0.0277544

0.0259035 -0.00124899 -9.05301e-08
-0.00124899 0.0336167 5.04254e-08
-9.05301e-08 5.04254e-08 0.0285183

0.0266568 -0.000202094 -1.23059e-07
-0.000202094 0.0349158 -9.28568e-09
-1.23059e-07 -9.28568e-09 0.0299223

0.0277646 0.000752975 -1.29747e-07
0.000752975 0.0360412 -1.54818e-08
-1.29747e-07 -1.54818e-08 0.0316607

0.0262494 -0.00274981 -4.47731e-08
-0.00274981 0.0319658 6.67623e-08
-4.47731e-08 6.67623e-08 0.027713

0.0345851 0.00317598 6.03395e-08
0.00317598 0.0291707 1.69082e-07
6.03395e-08 1.69082e-07 0.0316369

0.0339126 -0.0012611 -4.42062e-08
-0.0012611 0.0269326 -1.42437e-08
-4.42062e-08 -1.42437e-08 0.0302042

0.0257925 0.000974138 1.00896e-07
0.000974138 0.0338324 2.79341e-08
1.00896e-07 2.79341e-08 0.0285444

0.0278263 -0.00127001 -7.0723e-08
-0.00127001 0.0353999 -9.12634e-08
-7.0723e-08 -9.12634e-08 0.0313685

0.0272953 -0.00213728 5.22426e-08
-0.00213728 0.0336598 -8.09276e-08
5.22426e-08 -8.09276e-08 0.0302282

0.0327797 -0.00107737 1.68603e-07
-0.00107737 0.0253222 -8.55041e-08
1.68603e-07 -8.55041e-08 0.0272566

0.0333176 -0.00427087 -1.39942e-08
-0.00427087 0.0323834 -1.52103e-07
-1.39942e-08 -1.52103e-07 0.0335317

0.0264909 0.0012201 -8.97961e-08
0.0012201 0.0338385 2.55417e-08
-8.97961e-08 2.55417e-08 0.0288185

0.0398124 -0.00243193 -8.14652e-08
-0.00243193 0.0352204 3.47629e-08
-8.14652e-08 3.47629e-08 0.0354633

0.0188902 0.00316506 -1.38275e-07
0.00316506 0.0278785 1.83082e-07
-1.38275e-07 1.83082e-07 0.0162742

0.033818 -0.0035228 8.7779e-08
-0.0035228 0.0334969 9.99425e-09
8.7779e-08 9.99425e-09 0.0337286

0.0353463 -0.00399943 -7.45868e-08
-0.00399943 0.0330484 -1.67305e-08
-7.45868e-08 -1.67305e-08 0.0339063

0.026688 -9.06833e-05 1.20407e-07
-9.06833e-05 0.0349209 -3.70161e-09
1.20407e-07 -3.70161e-09 0.0299304

0.033246 -0.00217682 5.40158e-08
-0.00217682 0.0271554 -1.81394e-07
5.40158e-08 -1.81394e-07 0.0289051

0.0293498 0.00168474 4.96228e-08
0.00168474 0.0358222 -1.23723e-07
4.96228e-08 -1.23723e-07 0.0328822

0.0132083 -0.000379188 8.24459e-08
-0.000379188 0.0283646 -7.18864e-08
8.24459e-08 -7.18864e-08 0.0111528

0.027116 0.00186884 -1.35109e-07
0.00186884 0.0340642 -5.95586e-08
-1.35109e-07 -5.95586e-08 0.0303087

0.0311119 -0.00385871 -1.95975e-07
-0.00385871 0.0291564 -7.06658e-08
-1.95975e-07 -7.06658e-08 0.0288088

0.0186212 0.00320491 -1.26515e-07
0.00320491 0.0301419 2.1377e-07
-1.26515e-07 2.1377e-07 0.0131279

0.0426015 0.00351752 3.54925e-07
0.00351752 0.0418494 3.7912e-07
3.54925e-07 3.7912e-07 0.0364824

0.0432072 -0.00374847 -5.37383e-07
-0.00374847 0.0414183 5.75204e-07
-5.37383e-07 5.75204e-07 0.0364648

0.0310676 -0.00399096 1.40364e-07
-0.00399096 0.0304737 1.35008e-08
1.40364e-07 1.35008e-08 0.0304634

0.0289244 -0.00406439 1.46781e-07
-0.00406439 0.0291529 -6.74529e-08
1.46781e-07 -6.74529e-08 0.0275966

0.033054 0.00272698 -6.04992e-08
0.00272698 0.0275307 -2.04363e-07
-6.04992e-08 -2.04363e-07 0.0290778

0.0327827 0.00196016 1.25623e-07
0.00196016 0.0255932 1.50489e-07
1.25623e-07 1.50489e-07 0.027825

0.0464016 0.000418534 5.28665e-07
0.000418534 0.046356 -1.24916e-07
5.28665e-07 -1.24916e-07 0.0366965

0.0469203 -0.000951172 -2.79591e-07
-0.000951172 0.0457687 1.97759e-07
-2.79591e-07 1.97759e-07 0.0367677

0.0348022 0.000638171 -6.24994e-08
0.000638171 0.0275754 1.66376e-07
-6.24994e-08 1.66376e-07 0.0322189

0.0277541 0.000882468 -1.72644e-07
0.000882468 0.0355735 3.99707e-09
-1.72644e-07 3.99707e-09 0.0313509

0.0276098 0.000882743 1.30209e-07
0.000882743 0.0355736 1.26476e-08
1.30209e-07 1.26476e-08 0.0312471

0.0234609 0.00740049 -1.12747e-07
0.00740049 0.0183031 1.40688e-07
-1.12747e-07 1.40688e-07 0.0109024

0.0272494 -0.00367581 -1.52335e-07
-0.00367581 0.0303496 1.92896e-07
-1.52335e-07 1.92896e-07 0.0273217

0.036569 0.00239159 -6.45786e-08
0.00239159 0.0295784 -5.85757e-09
-6.45786e-08 -5.85757e-09 0.0337867

0.0332765 0.00124787 1.88727e-07
0.00124787 0.0265062 2.93181e-08
1.88727e-07 2.93181e-08 0.028434

0.0291547 -0.0034926 2.37443e-07
-0.0034926 0.0304739 9.81334e-08
2.37443e-07 9.81334e-08 0.0281755

0.0328139 -0.00264806 1.40207e-07
-0.00264806 0.0267301 -4.82795e-08
1.40207e-07 -4.82795e-08 0.0285889

0.0224616 0.00761338 1.124e-07
0.00761338 0.0185917 5.08755e-08
1.124e-07 5.08755e-08 0.0109049

0.0331474 0.00410246 1.1778e-07
0.00410246 0.0326406 1.11307e-07
1.1778e-07 1.11307e-07 0.0331838

0.0258921 -0.00257855 5.86215e-08
-0.00257855 0.0320268 2.26892e-07
5.86215e-08 2.26892e-07 0.0275095

0.0324848 0.00378596 1.01822e-08
0.00378596 0.0292703 1.77099e-07
1.01822e-08 1.77099e-07 0.0301491

0.0268181 -0.000543816 8.27426e-08
-0.000543816 0.034955 5.33124e-08
8.27426e-08 5.33124e-08 0.0301401

0.026992 0.00256361 3.03567e-07
0.00256361 0.0324508 1.68779e-08
3.03567e-07 1.68779e-08 0.0282886

0.0305287 0.00399136 1.26532e-07
0.00399136 0.0293255 1.87693e-07
1.26532e-07 1.87693e-07 0.0287772

0.0276109 -0.00293738 -2.27903e-07
-0.00293738 0.0318564 3.43129e-08
-2.27903e-07 3.43129e-08 0.0282512

0.0294583 -0.00357614 -1.05342e-07
-0.00357614 0.0303532 1.96115e-07
-1.05342e-07 1.96115e-07 0.0283071

0.0181389 0.00142553 -1.42508e-08
0.00142553 0.0280384 -1.50806e-07
-1.42508e-08 -1.50806e-07 0.0131286

0.0234754 -0.00429434 -2.34306e-08
-0.00429434 0.0275581 1.89304e-08
-2.34306e-08 1.89304e-08 0.0177247

0.0262075 -0.00152635 6.95312e-08
-0.00152635 0.0336261 2.3739e-08
6.95312e-08 2.3739e-08 0.028754

0.0330257 0.00347506 1.14491e-07
0.00347506 0.0288798 -1.53952e-07
1.14491e-07 -1.53952e-07 0.030071

0.030324 0.00385785 2.98838e-07
0.00385785 0.0298888 -6.97563e-09
2.98838e-07 -6.97563e-09 0.0289924

0.0274164 -0.00280087 -1.45073e-07
-0.00280087 0.0319865 2.12233e-07
-1.45073e-07 2.12233e-07 0.0281412

0.0265565 -0.00154098 -3.44128e-08
-0.00154098 0.0335851 5.33079e-08
-3.44128e-08 5.33079e-08 0.0287484

0.0309588 0.00371857 -2.21491e-07
0.00371857 0.0295657 1.60443e-08
-2.21491e-07 1.60443e-08 0.0289433

0.0267613 -0.0018163 -7.52504e-08
-0.0018163 0.0334766 -7.25214e-09
-7.52504e-08 -7.25214e-09 0.0289564

0.0191672 0.00355501 2.32545e-07
0.00355501 0.0276099 -4.68776e-08
2.32545e-07 -4.68776e-08 0.0162934

0.0308752 -0.000534459 8.32407e-08
-0.000534459 0.0388209 1.54566e-08
8.32407e-08 1.54566e-08 0.0342964

0.0286585 0.00404824 1.69925e-07
0.00404824 0.0295208 -2.76962e-08
1.69925e-07 -2.76962e-08 0.0277166

0.0355823 0.00197502 1.468e-07
0.00197502 0.0295052 3.18501e-08
1.468e-07 3.18501e-08 0.0328447

0.0362609 -0.00211482 -1.77195e-07
-0.00211482 0.0297572 4.02127e-08
-1.77195e-07 4.02127e-08 0.0332199

0.0285127 -0.00309596 -9.86056e-09
-0.00309596 0.0185701 1.83429e-09
-9.86056e-09 1.83429e-09 0.015731

0.0283556 -0.00279031 1.75984e-07
-0.00279031 0.0327777 2.65606e-07
1.75984e-07 2.65606e-07 0.0305737

0.0291932 0.00350122 -2.51985e-07
0.00350122 0.0316022 2.71632e-07
-2.51985e-07 2.71632e-07 0.0304896

0.034961 -0.00290787 -1.7096e-07
-0.00290787 0.0376771 -3.11589e-07
-1.7096e-07 -3.11589e-07 0.035238

0.039461 0.00188456 -1.53844e-07
0.00188456 0.044609 1.13799e-07
-1.53844e-07 1.13799e-07 0.0364346

0.0449441 0.00129029 -2.94088e-07
0.00129029 0.0391169 2.72035e-07
-2.94088e-07 2.72035e-07 0.0364166

0.0355622 0.00434527 -4.2554e-08
0.00434527 0.0351368 2.05447e-07
-4.2554e-08 2.05447e-07 0.0350053

0.0265736 0.00338829 1.93335e-07
0.00338829 0.0310086 3.06359e-07
1.93335e-07 3.06359e-07 0.0272578

0.0330416 0.00349696 3.01225e-08
0.00349696 0.0286688 5.81641e-08
3.01225e-08 5.81641e-08 0.0300521

0.0220614 0.00576475 -6.38021e-09
0.00576475 0.0242394 8.8164e-08
-6.38021e-09 8.8164e-08 0.0160735

0.0386191 -0.00151191 4.09601e-08
-0.00151191 0.0444325 2.01037e-07
4.09601e-08 2.01037e-07 0.0363638

0.0460479 -0.000464108 2.61134e-08
-0.000464108 0.0454387 4.34565e-08
2.61134e-08 4.34565e-08 0.0366926

0.0451801 -3.20696e-05 -1.84065e-07
-3.20696e-05 0.0463023 -4.51831e-07
-1.84065e-07 -4.51831e-07 0.0366746

0.017642 -0.00679552 -5.5185e-08
-0.00679552 0.0231099 3.21567e-08
-5.5185e-08 3.21567e-08 0.0107393

0.0392936 -0.001556 2.63185e-07
-0.001556 0.0387157 -1.12403e-07
2.63185e-07 -1.12403e-07 0.0358553

0.0383976 0.0011767 1.25489e-07
0.0011767 0.041519 2.02384e-07
1.25489e-07 2.02384e-07 0.0361267

0.0331774 -0.00343568 3.38295e-08
-0.00343568 0.0282216 1.00565e-07
3.38295e-08 1.00565e-07 0.0299055

0.0318462 0.000140325 -3.91131e-08
0.000140325 0.0386737 2.78948e-08
-3.91131e-08 2.78948e-08 0.0344524

0.0285789 -0.00266046 7.26174e-08
-0.00266046 0.033383 -3.24013e-08
7.26174e-08 -3.24013e-08 0.0315914

0.0356645 0.000831638 -1.7715e-07
0.000831638 0.02738 8.04664e-08
-1.7715e-07 8.04664e-08 0.0330022

0.0288781 0.00204417 -9.33645e-08
0.00204417 0.036819 -3.15412e-08
-9.33645e-08 -3.15412e-08 0.0336717

0.0298712 0.000946528 9.61029e-08
0.000946528 0.0373906 -1.48478e-08
9.61029e-08 -1.48478e-08 0.0333656

0.0344039 0.00268491 4.60162e-08
0.00268491 0.0288534 5.62105e-08
4.60162e-08 5.62105e-08 0.0312284

0.0132799 -0.000409413 -2.53473e-07
-0.000409413 0.0281248 1.6333e-07
-2.53473e-07 1.6333e-07 0.0112022

0.0309669 -0.0036263 -1.7324e-07
-0.0036263 0.0309181 3.96742e-08
-1.7324e-07 3.96742e-08 0.0306117

0.0329308 -0.00344344 -9.55343e-09
-0.00344344 0.032023 5.08753e-08
-9.55343e-09 5.08753e-08 0.0325814

0.0335737 -0.00415912 1.55275e-07
-0.00415912 0.0325365 -1.55931e-07
1.55275e-07 -1.55931e-07 0.0337378

0.0265638 0.00414904 6.28815e-08
0.00414904 0.0176926 4.03929e-08
6.28815e-08 4.03929e-08 0.0126062

0.0388293 -0.00269648 -2.64507e-08
-0.00269648 0.039577 -6.72414e-08
-2.64507e-08 -6.72414e-08 0.0359601

0.0230845 0.00692123 -7.06277e-08
0.00692123 0.0255038 2.0641e-09
-7.06277e-08 2.0641e-09 0.0126104

0.0308766 -0.00281779 1.56036e-07
-0.00281779 0.0348099 -1.25831e-07
1.56036e-07 -1.25831e-07 0.0339584

0.0354142 0.0019367 -5.05059e-08
0.0019367 0.0284679 -5.375e-08
-5.05059e-08 -5.375e-08 0.0323468

0.0318239 -0.00189359 1.08094e-07
-0.00189359 0.0249526 -1.01528e-07
1.08094e-07 -1.01528e-07 0.0253974

0.0292946 0.00315938 -1.47657e-07
0.00315938 0.0327345 -3.40123e-08
-1.47657e-07 -3.40123e-08 0.0312818

0.0344391 0.00268881 6.58173e-08
0.00268881 0.0286367 9.21112e-09
6.58173e-08 9.21112e-09 0.031223

0.0325204 0.00149859 9.51809e-08
0.00149859 0.0403748 4.39058e-08
9.51809e-08 4.39058e-08 0.0353385

0.031943 -0.00415469 -1.19374e-07
-0.00415469 0.0312039 1.12013e-08
-1.19374e-07 1.12013e-08 0.0318128

0.0396779 0.00265562 -1.96334e-07
0.00265562 0.0332 -1.64478e-07
-1.96334e-07 -1.64478e-07 0.0353179

0.0279737 -0.00241871 1.09655e-07
-0.00241871 0.0335534 -7.18444e-08
1.09655e-07 -7.18444e-08 0.0304728

0.029353 0.000558603 6.7864e-09
0.000558603 0.0373143 -2.43006e-08
6.7864e-09 -2.43006e-08 0.0332548

0.0419442 0.00133759 -7.56716e-08
0.00133759 0.0371014 -2.12237e-07
-7.56716e-08 -2.12237e-07 0.036118

0.0420984 -0.00114793 -3.4368e-08
-0.00114793 0.0373275 7.24324e-08
-3.4368e-08 7.24324e-08 0.0360999

0.0283856 0.00236926 1.59438e-07
0.00236926 0.0181828 2.61603e-08
1.59438e-07 2.61603e-08 0.0159511

0.0350282 0.0010615 -1.03196e-07
0.0010615 0.0285683 -5.08033e-08
-1.03196e-07 -5.08033e-08 0.0330612

0.0128677 0.000923434 -2.24773e-07
0.000923434 0.0316284 -4.56719e-08
-2.24773e-07 -4.56719e-08 0.0061222

0.0131633 -0.00138826 8.27311e-08
-0.00138826 0.0321341 -3.92115e-08
8.27311e-08 -3.92115e-08 0.00611252

0.0152697 0.0071547 9.7009e-08
0.0071547 0.0284548 -1.23931e-07
9.7009e-08 -1.23931e-07 0.00598463

0.0347663 -0.00382146 3.31255e-08
-0.00382146 0.03127 1.12577e-07
3.31255e-08 1.12577e-07 0.0329413

0.0155818 -0.00619486 -2.81487e-08
-0.00619486 0.0261547 -7.51068e-08
-2.81487e-08 -7.51068e-08 0.0104729

0.0155137 -0.00708725 1.89927e-08
-0.00708725 0.0274252 -6.36031e-08
1.89927e-08 -6.36031e-08 0.00591444

0.0284284 0.00342604 -2.64588e-07
0.00342604 0.0310089 3.04873e-07
-2.64588e-07 3.04873e-07 0.028155

0.025195 0.00932643 1.0739e-07
0.00932643 0.019022 4.56662e-08
1.0739e-07 4.56662e-08 0.00593434

0.0365394 0.00173173 2.01267e-07
0.00173173 0.0385535 1.21736e-07
2.01267e-07 1.21736e-07 0.0354771

0.0395365 2.56079e-05 7.80175e-08
2.56079e-05 0.0355413 -2.85204e-07
7.80175e-08 -2.85204e-07 0.0354578

0.0261089 -0.00924497 2.42967e-07
-0.00924497 0.0188137 1.10701e-08
2.42967e-07 1.10701e-08 0.0058885

0.0276921 -0.00306542 7.02657e-08
-0.00306542 0.0320976 -1.49371e-07
7.02657e-08 -1.49371e-07 0.0296252

0.0262571 0.00441857 5.31016e-08
0.00441857 0.0201593 7.81425e-08
5.31016e-08 7.81425e-08 0.0130457

0.0172803 0.00797365 1.18889e-07
0.00797365 0.0271506 6.1881e-08
1.18889e-07 6.1881e-08 0.00598831

0.0181975 0.00275553 1.51318e-07
0.00275553 0.0275919 -1.78456e-07
1.51318e-07 -1.78456e-07 0.0128511

0.0173052 -0.00827682 -1.41402e-07
-0.00827682 0.0271541 1.68535e-07
-1.41402e-07 1.68535e-07 0.00581426

0.0179342 -0.00157118 4.53627e-07
-0.00157118 0.0280076 -2.22268e-07
4.53627e-07 -2.22268e-07 0.0126916

0.0370514 0.000922956 1.7012e-07
0.000922956 0.0413017 -8.29543e-08
1.7012e-07 -8.29543e-08 0.0358119

0.022133 -0.00585579 -6.34797e-08
-0.00585579 0.0236666 -2.72487e-08
-6.34797e-08 -2.72487e-08 0.0151601

0.0157012 0.00598682 8.16691e-08
0.00598682 0.0259043 -1.90158e-08
8.16691e-08 -1.90158e-08 0.010751

0.0302104 0.00473043 6.2783e-08
0.00473043 0.0143502 1.4596e-07
6.2783e-08 1.4596e-07 0.00611634

0.0329407 -0.00384955 6.88656e-08
-0.00384955 0.0301264 -8.12722e-08
6.88656e-08 -8.12722e-08 0.0310535

0.0308907 0.00169388 6.93246e-12
0.00169388 0.0368455 -3.55792e-08
6.93246e-12 -3.55792e-08 0.0339524

0.026092 -0.00484442 1.06274e-07
-0.00484442 0.0191985 3.7719e-07
1.06274e-07 3.7719e-07 0.0126961

0.0330028 -0.00378622 1.04314e-07
-0.00378622 0.0300774 2.76939e-09
1.04314e-07 2.76939e-09 0.0311298

0.0300207 -0.00452022 1.42146e-07
-0.00452022 0.0130543 -2.83417e-07
1.42146e-07 -2.83417e-07 0.00603778

0.0324759 -0.00372786 -4.13083e-08
-0.00372786 0.0313095 1.25746e-07
-4.13083e-08 1.25746e-07 0.0319817

0.0280933 -0.0033114 -1.24754e-09
-0.0033114 0.0320065 -2.6389e-07
-1.24754e-09 -2.6389e-07 0.0296277

0.0234451 0.00874412 -3.41615e-08
0.00874412 0.0204842 2.03061e-07
-3.41615e-08 2.03061e-07 0.00602664

0.0182009 -0.002921 -2.01084e-07
-0.002921 0.0268686 -4.87696e-07
-2.01084e-07 -4.87696e-07 0.012271

0.0233161 -0.00901977 9.13463e-08
-0.00901977 0.0201534 3.92612e-07
9.13463e-08 3.92612e-07 0.00588446

0.0170836 0.00640881 7.47161e-08
0.00640881 0.0235678 -1.53672e-07
7.47161e-08 -1.53672e-07 0.0108319

0.0308286 -0.00396039 -2.05072e-07
-0.00396039 0.0301626 -5.69336e-08
-2.05072e-07 -5.69336e-08 0.0300878

0.0389199 -0.00195874 -6.97901e-08
-0.00195874 0.0369421 4.59339e-08
-6.97901e-08 4.59339e-08 0.0355014

0.0455411 0.00150547 -2.91639e-07
0.00150547 0.0449514 -2.48647e-07
-2.91639e-07 -2.48647e-07 0.0366208

0.0435647 -0.000712003 1.14814e-07
-0.000712003 0.0462316 -2.21678e-08
1.14814e-07 -2.21678e-08 0.0365865

0.0286177 0.00171582 -9.13049e-08
0.00171582 0.0355686 1.61546e-07
-9.13049e-08 1.61546e-07 0.0323919

0.0453363 -0.00144658 2.09707e-07
-0.00144658 0.0449791 9.71828e-08
2.09707e-07 9.71828e-08 0.0366386

0.0438085 0.000567791 -7.61152e-08
0.000567791 0.0465063 1.66272e-07
-7.61152e-08 1.66272e-07 0.0366197

0.0466795 0.000991355 -1.75022e-07
0.000991355 0.0433772 1.03624e-07
-1.75022e-07 1.03624e-07 0.0365947

0.0397512 -0.00163884 1.09911e-07
-0.00163884 0.0460757 2.50242e-07
1.09911e-07 2.50242e-07 0.0364846

0.0190552 -0.00388767 -4.66279e-07
-0.00388767 0.027233 5.46283e-08
-4.66279e-07 5.46283e-08 0.0154724

0.0421424 -0.00175026 3.57047e-07
-0.00175026 0.0367268 -4.01606e-08
3.57047e-07 -4.01606e-08 0.0360066

0.0359654 -0.00457336 -2.33075e-07
-0.00457336 0.0351524 -6.58519e-08
-2.33075e-07 -6.58519e-08 0.0349701

0.0397544 -0.00242149 1.47207e-07
-0.00242149 0.0360659 4.15911e-08
1.47207e-07 4.15911e-08 0.0355691

0.0351872 0.00204351 -9.31677e-08
0.00204351 0.0285513 -9.25717e-10
-9.31677e-08 -9.25717e-10 0.0322341

0.0396932 0.00133783 2.06817e-07
0.00133783 0.0472264 1.00894e-07
2.06817e-07 1.00894e-07 0.0365504

0.0464963 0.00259301 -2.90082e-07
0.00259301 0.0404196 -3.55064e-07
-2.90082e-07 -3.55064e-07 0.0365316

0.0400883 0.00150571 -9.18373e-08
0.00150571 0.0366755 2.25061e-07
-9.18373e-08 2.25061e-07 0.0356171

0.0279168 -0.00192017 -2.83358e-07
-0.00192017 0.0125254 -2.39404e-07
-2.83358e-07 -2.39404e-07 0.0106254

0.0283212 0.00326796 -2.75216e-07
0.00326796 0.0315524 2.62256e-07
-2.75216e-07 2.62256e-07 0.0294129

0.0231898 -0.00773655 1.12647e-07
-0.00773655 0.0181811 3.77595e-07
1.12647e-07 3.77595e-07 0.0102903

0.0228325 -0.00731622 -1.33203e-08
-0.00731622 0.0257704 -7.33911e-08
-1.33203e-08 -7.33911e-08 0.0119555

0.0290248 -0.00464733 -3.96983e-07
-0.00464733 0.0191295 7.3848e-08
-3.96983e-07 7.3848e-08 0.0126161

0.0375756 -0.000660756 -3.88761e-08
-0.000660756 0.0449118 1.32188e-07
-3.88761e-08 1.32188e-07 0.0362956

0.0375733 0.000358244 -1.05204e-07
0.000358244 0.044789 -2.18243e-07
-1.05204e-07 -2.18243e-07 0.0362758

0.042606 -0.0032743 1.20154e-07
-0.0032743 0.0394512 -6.35069e-09
1.20154e-07 -6.35069e-09 0.0362297

0.0429986 -0.00294423 -1.7071e-07
-0.00294423 0.0391699 1.08084e-07
-1.7071e-07 1.08084e-07 0.0362366

0.0425024 0.00350417 -5.32313e-08
0.00350417 0.0399739 1.09568e-07
-5.32313e-08 1.09568e-07 0.0362745

0.0443985 0.000416723 -1.84392e-08
0.000416723 0.0450806 3.05433e-07
-1.84392e-08 3.05433e-07 0.0366378

0.04261 -0.00274426 -1.97995e-07
-0.00274426 0.0395087 4.24647e-09
-1.97995e-07 4.24647e-09 0.0362912

0.0426042 -0.00251128 -3.06005e-07
-0.00251128 0.0442674 -5.913e-07
-3.06005e-07 -5.913e-07 0.0365653

0.0451182 0.000331042 1.665e-07
0.000331042 0.0454679 2.79285e-07
1.665e-07 2.79285e-07 0.0366561

0.043638 -0.00278294 -3.30737e-08
-0.00278294 0.0389176 -1.36919e-07
-3.30737e-08 -1.36919e-07 0.0363318

0.0435137 0.00283876 3.20752e-08
0.00283876 0.0390704 -1.4413e-08
3.20752e-08 -1.4413e-08 0.0363699

0.0451943 -0.000470053 -8.49124e-08
-0.000470053 0.0455821 2.11342e-07
-8.49124e-08 2.11342e-07 0.0367047

0.0452281 -0.000426541 9.59766e-07
-0.000426541 0.0443626 -1.07752e-06
9.59766e-07 -1.07752e-06 0.036723

0.0427993 0.00163868 3.81678e-07
0.00163868 0.0442496 -1.10541e-07
3.81678e-07 -1.10541e-07 0.0366091

0.0411174 0.00361801 -1.22837e-07
0.00361801 0.0405173 1.83138e-07
-1.22837e-07 1.83138e-07 0.0363238

SCALARS pressure float
LOOKUP_TABLE default
-60.0591
19.3097
5.80583
21.2913
15.8791
5.88981
-58.6822
7.78515
-3.80291
15.1259
-24.4357
7.6193
5.59403
12.2811
23.3369
5.54095
18.5219
13.2096
-0.690372
6.75934
-0.902758
33.1275
5.8035
5.79943
6.60457
14.905
-38.3895
6.67432
-15.2419
30.6213
5.17831
-15.6567
-42.0611
27.3233
20.7768
27.3562
31.8794
19.8069
4.86162
-42.6044
-17.4072
31.9002
31.9883
5.99547
-21.8065
-15.9754
-1.05008
-3.40358
6.54739
-16.2178
-18.9189
-15.3451
20.755
-15.3724
20.3082
-33.1514
21.1271
-15.4595
21.137
7.0476
21.7658
16.1192
-45.5663
12.7906
16.3624
10.9067
21.5751
13.8303
5.77611
21.8183
20.811
20.7816
-17.6909
11.6021
3.97601
-31.6135
14.3569
10.9978
14.1484
-8.71843
-28.9464
14.9773
20.164
-22.0388
-23.43
-28.0943
7.1004
9.63391
-22.2173
37.7343
-15.5083
38.4368
18.3043
10.7633
-15.1658
-15.8725
-30.2231
14.7548
14.3659
4.6007
-10.7649
-21.9398
-25.1029
16.2148
14.1025
14.963
18.6984
3.77685
-24.5596
26.513
7.22031
-21.4103
-24.6135
14.8401
15.0794
-16.1451
20.1626
-29.1149
20.6261
-16.7287
-2.90248
23.833
21.7284
16.0339
26.6796
22.6316
21.7834
15.7098
-29.7827
-16.0983
24.0905
21.6188
20.99
22.067
-22.0141
23.5841
-33.8398
5.46538
21.7549
23.6275
-21.937
6.67813
-5.96484
15.0855
-30.4093
15.6255
7.83548
2.40978
5.17985
-9.39299
-0.455745
22.6428
-15.4542
5.29292
15.2061
21.562
11.5097
-21.1133
-21.2639
10.7927
-2.84086
-15.1971
-21.2218
-15.1649
-20.9865
15.281
-20.6359
-21.2017
-15.2074
-21.0638
19.004
-15.9403
-14.8241
12.0658
-14.4839
18.8038
19.053
7.47495
18.0475
11.7752
-16.2487
15.2895
14.9622
-21.5286
10.428
-14.2209
16.0496
14.5968
17.0817
14.8364
10.3453
-26.9777
-16.0816
-15.9578
21.9083
14.5281
14.6269
20.9233
22.4882
9.50432
21.7351
-0.382321
-8.16924
20.7796
-17.8386
19.9463
10.3658
-21.5177
15.722
22.5273
14.7316
9.3954
14.1921
21.0563
-7.83118
8.82928
-7.90704
14.6495
26.9275
26.5812
27.9602
26.3884
26.7241
26.2908
13.8279
23.4294
24.0285
23.9727
23.3991
21.1921
21.8567
-8.26131
15.9352
28.1911
-3.18697
23.5751
23.2044
27.8344
-8.49208
28.0964
15.3459
-7.57999
17.4927
-8.25628
20.228
29.6126
-7.48436
-8.09924
-29.5937
-18.1894
19.528
-31.9875
5.73615
-7.79243
-1.18728
28.2492
26.6401
30.422
26.7608
-34.8034
-8.17814
28.3374
8.07498
-8.2937
26.4458
-6.29366
30.4669
-7.95255
27.0469
14.567
14.7893
23.8442
10.049
18.0207
8.11903
-29.8621
-24.555
16.8068
1.76174
8.18161
-13.6079
17.4364
11.7012
-8.1
9.45375
-10.8222
7.51886
-10.7534
-8.48328
33.2587
19.1512
25.0874
25.3117
13.831
-10.4032
26.4273
14.6859
-1.65712
-10.2726
-12.5632
17.5064
-7.48364
17.5744
-12.0401
-21.352
-10.607
-34.6836
15.5637
-7.76141
34.4364
-11.5768
16.8727
-8.40728
15.9737
-12.7573
4.29084
-51.1232
8.52403
-7.74508
21.3335
-8.15063
-0.120824
10.7165
21.1256
-12.0596
-10.1995
-6.06665
14.3192
-10.1787
6.88968
6.38799
16.3052
-10.4183
-6.32881
-1.70056
-5.65885
-11.0773
-5.84309
15.3064
7.80972
-5.55443
-8.95904
7.807
7.69581
-10.6734
16.3091
-27.2178
2.29491
-28.4828
-0.95583
-8.88598
-8.10419
-11.7872
-10.9508
-9.88894
-7.78386
-7.90723
16.639
24.776
12.1182
-0.28966
-0.823089
-5.673
7.30682
-6.31915
-6.31643
24.9216
-5.72841
14.1184
-15.9077
24.3241
5.97032
-0.389231
-5.6423
16.275
2.4789
0.201015
2.44989
0.457913
-0.738786
-9.92905
-0.0936147
2.11506
15.0692
-1.28629
-1.40515
-0.996838
-0.386674
1.96709
8.05248
-1.19159
8.07992
5.58535
-0.433711
7.03709
5.49238
-3.8748
16.4775
-1.90176
23.0604
-21.975
15.0452
15.6833
2.04146
-1.99591
12.5445
-26.5103
5.79444
-1.65625
-50.4875
30.4937
30.6304
5.82708
-1.14236
-1.04515
-0.847659
33.4118
33.2864
13.0964
6.08352
6.66426
-28.9667
-1.2774
16.5342
-3.18115
-4.34666
-0.0149926
-25.275
14.3048
-1.2782
2.86362
2.69501
-2.7216
-0.0474224
-3.20789
-4.03209
-37.9864
-33.6855
-0.126131
1.87619
-0.532361
-3.74265
-1.93494
-1.87615
-0.922585
-21.9089
17.2498
-0.767264
12.5667
14.1851
-26.7662
6.28812
7.1389
18.4777
36.4222
36.4547
22.6383
-1.75382
2.60152
-20.9312
36.1211
32.7532
32.8202
-24.8124
21.7731
30.5195
2.60103
15.724
10.3732
17.1656
17.7271
12.5067
5.68319
-25.4016
4.26175
10.4107
16.2448
-31.7134
28.3067
-52.7148
18.6861
10.3004
-10.6262
7.419
5.45877
24.4734
9.41285
24.4064
4.10687
12.4008
30.637
29.4628
-22.9917
17.4369
-70.2379
-74.3846
-67.1819
11.6496
-31.2641
-63.6151
-3.80193
-69.9434
16.4625
16.4062
-73.7598
5.21448
-39.7336
-70.744
-37.7595
-71.8805
-39.4552
21.1346
-23.9621
-29.0478
-70.6278
4.83305
15.7585
-36.1934
6.05535
-63.6226
9.83763
3.8839
-67.9064
-37.6273
-66.4158
-23.759
5.03122
20.5245
35.365
36.7205
11.8138
36.8442
36.8975
36.486
36.3993
-24.4806
28.2456
20.6691
21.979
11.5365
36.0552
36.0867
18.1188
-23.9438
3.24864
-30.5304
-56.6015
-50.4779
36.1387
35.8195
35.3763
35.4465
36.1547
35.5928
33.1057
37.3655
35.3941
36.0016
35.6339
34.1907
34.3272
35.8511
35.3056
