# vtk DataFile Version 3.0
vtk output at time 90
ASCII
DATASET UNSTRUCTURED_GRID
POINTS 626 float
-3.68058e-05 0.000978749 0 3.68058e-05 0.000978749 0 -0.000829194 0.00052125 0 
-0.0008235 0.0005 0 -0.000866 0.0004575 0 -0.000866 -0.0004575 0 
-0.0008235 -0.0005 0 -0.000829194 -0.00052125 0 -3.68058e-05 -0.000978749 0 
3.68058e-05 -0.000978749 0 0.000829194 -0.00052125 0 0.000866 -0.0004575 0 
0.000866 0.0004575 0 0.000829194 0.00052125 0 8.5e-05 0 0 
-3.68058e-05 0.000978749 -0.001 3.68058e-05 0.000978749 -0.001 -0.000829194 0.00052125 -0.001 
-0.0008235 0.0005 -0.001 -0.000866 0.0004575 -0.001 -0.000866 -0.0004575 -0.001 
-0.0008235 -0.0005 -0.001 -0.000829194 -0.00052125 -0.001 -3.68058e-05 -0.000978749 -0.001 
3.68058e-05 -0.000978749 -0.001 0.000829194 -0.00052125 -0.001 0.000866 -0.0004575 -0.001 
0.000866 0.0004575 -0.001 0.000829194 0.00052125 -0.001 8.5e-05 0 -0.001 
8.46223e-17 0.0009575 0 -0.000715996 0.000586607 0 -0.000602797 0.000651965 0 
-0.000489599 0.000717321 0 -0.000376401 0.000782678 0 -0.000263202 0.000848036 0 
-0.000150004 0.000913393 0 -0.000835948 0.000469948 0 -0.000866 -0.000326786 0 
-0.000866 -0.000196071 0 -0.000866 -6.53571e-05 0 -0.000866 6.53571e-05 0 
-0.000866 0.000196071 0 -0.000866 0.000326786 0 -0.000835948 -0.000469948 0 
-0.000150004 -0.000913393 0 -0.000263202 -0.000848036 0 -0.000376401 -0.000782678 0 
-0.000489599 -0.000717321 0 -0.000602797 -0.000651965 0 -0.000715996 -0.000586607 0 
8.47648e-17 -0.0009575 0 0.000715996 -0.000586607 0 0.000602797 -0.000651965 0 
0.000489599 -0.000717321 0 0.000376401 -0.000782678 0 0.000263202 -0.000848036 0 
0.000150004 -0.000913393 0 0.000829194 -0.00047875 0 0.000866 0.000326786 0 
0.000866 0.000196071 0 0.000866 6.53571e-05 0 0.000866 -6.53571e-05 0 
0.000866 -0.000196071 0 0.000866 -0.000326786 0 0.000829194 0.00047875 0 
0.000150004 0.000913393 0 0.000263202 0.000848036 0 0.000376401 0.000782678 0 
0.000489599 0.000717321 0 0.000602797 0.000651965 0 0.000715996 0.000586607 0 
5.29966e-05 6.64557e-05 0 -1.89143e-05 8.28689e-05 0 -7.65824e-05 3.68801e-05 0 
-7.65824e-05 -3.68801e-05 0 -1.89143e-05 -8.28689e-05 0 5.29966e-05 -6.64557e-05 0 
8.46223e-17 0.0009575 -0.001 -0.000715996 0.000586607 -0.001 -0.000602797 0.000651965 -0.001 
-0.000489599 0.000717321 -0.001 -0.000376401 0.000782678 -0.001 -0.000263202 0.000848036 -0.001 
-0.000150004 0.000913393 -0.001 -0.000835948 0.000469948 -0.001 -0.000866 -0.000326786 -0.001 
-0.000866 -0.000196071 -0.001 -0.000866 -6.53571e-05 -0.001 -0.000866 6.53571e-05 -0.001 
-0.000866 0.000196071 -0.001 -0.000866 0.000326786 -0.001 -0.000835948 -0.000469948 -0.001 
-0.000150004 -0.000913393 -0.001 -0.000263202 -0.000848036 -0.001 -0.000376401 -0.000782678 -0.001 
-0.000489599 -0.000717321 -0.001 -0.000602797 -0.000651965 -0.001 -0.000715996 -0.000586607 -0.001 
8.47648e-17 -0.0009575 -0.001 0.000715996 -0.000586607 -0.001 0.000602797 -0.000651965 -0.001 
0.000489599 -0.000717321 -0.001 0.000376401 -0.000782678 -0.001 0.000263202 -0.000848036 -0.001 
0.000150004 -0.000913393 -0.001 0.000829194 -0.00047875 -0.001 0.000866 0.000326786 -0.001 
0.000866 0.000196071 -0.001 0.000866 6.53571e-05 -0.001 0.000866 -6.53571e-05 -0.001 
0.000866 -0.000196071 -0.001 0.000866 -0.000326786 -0.001 0.000829194 0.00047875 -0.001 
0.000150004 0.000913393 -0.001 0.000263202 0.000848036 -0.001 0.000376401 0.000782678 -0.001 
0.000489599 0.000717321 -0.001 0.000602797 0.000651965 -0.001 0.000715996 0.000586607 -0.001 
5.29966e-05 6.64557e-05 -0.001 -1.89143e-05 8.28689e-05 -0.001 -7.65824e-05 3.68801e-05 -0.001 
-7.65824e-05 -3.68801e-05 -0.001 -1.89143e-05 -8.28689e-05 -0.001 5.29966e-05 -6.64557e-05 -0.001 
0.000131234 6.38474e-05 0 0.00012964 -6.2443e-05 0 3.13827e-05 0.0001394 0 
3.12554e-05 -0.000136939 0 -0.000140461 8.25467e-19 0 -8.90565e-05 -0.000102707 0 
-9.04142e-05 0.000102872 0 -0.000765769 -0.00025965 0 -0.000756873 0.000262774 0 
-0.00015609 0.000787505 0 -0.000155807 -0.00079355 0 0.000605069 0.000528035 0 
0.000608694 -0.00052497 0 0.000744069 0.000116929 0 -0.000494418 0.000596218 0 
-0.000483866 -0.000584648 0 0.000269496 0.000702219 0 0.000263201 -0.000717324 0 
0.000754429 -0.000127825 0 -0.000748858 5.84659e-07 0 -0.000747838 0.000373886 0 
-0.0006542 0.000324842 0 -0.000645137 0.000210123 0 -0.000550884 0.000274171 0 
-0.000538857 0.000163195 0 -0.00045062 0.000224461 0 -0.000438393 0.000123907 0 
-0.000354088 0.000181668 0 -0.000363908 0.000282171 0 -0.000270361 0.000239477 0 
-0.000279138 0.000337653 0 -0.000188888 0.000294791 0 -0.000196448 0.000393271 0 
-0.000104767 0.000348259 0 -0.000113332 0.000449012 0 -2.01066e-05 0.000403223 0 
-2.89189e-05 0.000507105 0 6.9524e-05 0.000461596 0 -0.000213644 0.000490203 0 
7.33757e-05 0.000357726 0 0.000163331 0.00041299 0 0.000163359 0.000313022 0 
0.000248077 0.000366368 0 0.000250914 0.000265758 0 0.000335709 0.000322266 0 
0.000340555 0.000218148 0 0.000427299 0.000276717 0 0.000431508 0.000173093 0 
0.000328731 0.000425633 0 0.00034586 0.000114823 0 0.000435362 7.05241e-05 0 
0.000350892 1.5455e-05 0 0.000441547 -3.11896e-05 0 0.000353547 -8.47783e-05 0 
0.000445767 -0.000132964 0 0.000356135 -0.000186358 0 0.000449094 -0.000234674 0 
0.000359978 -0.000287876 0 0.00026856 -0.000240545 0 0.000271895 -0.000341045 0 
0.000181792 -0.00029305 0 0.00018533 -0.000392851 0 9.75701e-05 -0.00034483 0 
9.98764e-05 -0.000444884 0 8.75116e-06 -0.000396343 0 1.20916e-05 -0.000500496 0 
-7.83929e-05 -0.000449843 0 -8.1471e-05 -0.000347249 0 -0.000171566 -0.000403733 0 
-0.000169889 -0.000298891 0 -0.000259867 -0.000354132 0 -0.000257696 -0.000249137 0 
-0.00034313 -0.000299896 0 -0.000344514 -0.000199127 0 -0.000434309 -0.000250039 0 
-0.000169832 -0.000505815 0 -0.000435227 -0.000146227 0 0.000280331 -0.000442424 0 
-0.000340889 8.76793e-05 0 -0.000515252 4.06198e-05 0 6.50491e-05 0.000568253 0 
0.00053278 1.74743e-05 0 0.000522071 0.000229831 0 -0.00037162 0.000391659 0 
-0.000255272 -0.000150439 0 -0.000442893 -0.000350705 0 0.000450067 -0.000332559 0 
0.000545175 -0.000276306 0 -0.000527797 -0.000197598 0 0.000105306 -0.000551033 0 
1.45836e-05 -0.000609147 0 0.00017145 0.000214453 0 0.000515525 0.000341711 0 
0.000636086 0.000290368 0 -0.000558657 0.000404468 0 -4.01232e-05 0.000616718 0 
6.60192e-05 0.000696422 0 -0.000101806 0.0002546 0 0.000271142 -3.88908e-05 0 
0.000179455 -0.00018534 0 -8.79553e-05 -0.000254307 0 -0.000749267 -0.000373451 0 
-0.000655941 -0.000323397 0 0.000709746 0.000466718 0 0.000698426 -0.000473086 0 
-5.25801e-05 -0.00084886 0 -4.93005e-05 0.000848038 0 0.000617396 -0.000413362 0 
0.000702056 -0.000369817 0 0.000131459 -0.000679171 0 2.48171e-05 -0.000715924 0 
-0.000664217 -0.00042729 0 -0.000528828 -8.80444e-05 0 -0.000611101 -0.000136672 0 
-0.000426972 -4.45841e-05 0 0.000800669 0.000378216 0 0.000821144 -0.000415062 0 
7.2799e-05 0.00088254 0 6.81831e-05 -0.00087503 0 0.000104963 -0.000788946 0 
-7.40696e-05 -0.000660054 0 0.000126061 0.000809943 0 0.000764361 0.000295682 0 
0.000166862 0.000630623 0 0.000516462 -0.00046707 0 -0.000563585 -0.000389606 0 
-0.000622598 -1.40238e-05 0 0.000629891 0.000171529 0 2.5614e-06 -0.000299794 0 
8.6901e-05 -0.00024329 0 0.000272045 -0.000136982 0 -0.00075148 0.000138321 0 
0.000209366 -0.000599589 0 0.000324913 -0.000630055 0 0.000614044 0.00041245 0 
0.00049651 -0.000573327 0 0.000394822 -0.000507321 0 -0.000173714 -0.000206698 0 
0.000264897 5.63722e-05 0 0.000247997 0.000152811 0 -4.63327e-05 -0.000920208 0 
9.18688e-05 0.000258626 0 -5.54111e-06 0.000290558 0 -0.000184219 0.000201484 0 
-0.000263559 0.000142267 0 -0.000256427 5.13624e-05 0 -0.000336894 -2.06179e-06 0 
-0.000228499 -4.2388e-05 0 -0.00017589 0.000106626 0 -0.000769947 -0.000133367 0 
0.000767591 -0.000500293 0 -5.05874e-05 0.000737978 0 0.000754456 -3.51771e-06 0 
0.00064691 -6.15298e-05 0 0.000630483 -0.00018134 0 0.000749187 -0.000265543 0 
-0.000760805 -0.000462521 0 0.000638155 6.09315e-05 0 -4.46661e-05 0.000922995 0 
-2.37945e-05 0.000207237 0 0.000776979 0.000500181 0 -0.000605691 0.000527596 0 
-0.000377914 -0.000653727 0 -0.000372325 -0.000526022 0 -0.000275829 -0.000589621 0 
-0.000254285 -0.000710579 0 -0.000379307 0.000656222 0 -0.000379818 0.00052718 0 
-0.000266817 0.000721555 0 -0.000150544 0.000668174 0 0.000381963 0.00065079 0 
0.000493113 0.000590432 0 0.000505439 0.000463708 0 -0.000269094 0.000596608 0 
0.000385815 0.000532045 0 0.000283599 0.0005899 0 -0.000176405 -0.000108505 0 
-0.000278769 -0.000475415 0 0.000185395 2.33014e-06 0 0.000186773 0.000517571 0 
0.000540032 -8.68444e-05 0 -0.000600694 -0.000514877 0 -0.00063703 8.98033e-05 0 
-0.000459677 0.000335729 0 -0.000338836 -0.000100751 0 -0.000457327 0.000432721 0 
-8.72007e-06 -0.000210238 0 0.000156073 0.000129496 0 -7.70692e-05 -0.000555049 0 
0.00036091 -0.000389728 0 0.000531628 0.000120564 0 -0.000285451 0.000435562 0 
0.000192719 -0.000494604 0 0.00041642 0.00039368 0 -0.000135943 0.000554637 0 
-0.000170665 -0.000610079 0 -0.000666304 0.000434981 0 -0.000758736 0.000479231 0 
-0.000470189 -0.000458901 0 0.000203433 -8.59809e-05 0 0.000101846 0.000170114 0 
-0.00035513 -0.00040726 0 0.000100184 -0.000165831 0 2.96286e-05 0.00081537 0 
0.000720946 0.000381836 0 -0.000539809 -0.000292001 0 0.00052211 -0.000182426 0 
-6.41339e-05 -0.000753908 0 0.000638039 -0.000299861 0 -0.000605136 -0.000230182 0 
-3.41638e-05 -0.000145561 0 -0.000104037 0.000172396 0 -0.000808575 -0.00042774 0 
-0.000807207 -0.000465052 0 -0.00080817 0.000429771 0 -0.000806589 0.000469738 0 
-9.50634e-05 -0.000178909 0 0.000247777 0.000445058 0 1.48293e-05 -0.000814201 0 
-4.11555e-05 0.000140955 0 0.000276104 -0.000536845 0 0.000765969 -0.000436638 0 
0.000780871 -0.000362769 0 0.000424176 -0.000642018 0 0.00053413 -0.000368009 0 
-0.000416333 4.17911e-05 0 -0.000133891 -6.23822e-05 0 4.2574e-05 0.000206312 0 
0.000141163 -0.000121542 0 0.000707423 0.000212137 0 0.000172327 0.000723882 0 
7.72652e-06 -0.00090254 0 -0.000134435 5.66935e-05 0 -0.000188826 3.70894e-05 0 
0.000197119 8.09714e-05 0 1.27801e-05 0.000917296 0 0.000800767 0.00044758 0 
-0.000686682 0.000507104 0 9.35831e-05 0.000110457 0 -0.000696793 -0.000509595 0 
-0.00068446 -8.52012e-05 0 -0.000691033 -0.000201242 0 5.24052e-05 -0.000189075 0 
-0.000151818 -0.000701092 0 -0.000296988 0.000518087 0 9.31023e-05 -0.000108117 0 
0.00044261 -0.000416726 0 0.000197044 -0.000784423 0 -0.000516861 0.000504567 0 
0.000298997 0.000502377 0 0.000131234 6.38474e-05 -0.001 0.00012964 -6.2443e-05 -0.001 
3.13827e-05 0.0001394 -0.001 3.12554e-05 -0.000136939 -0.001 -0.000140461 8.25467e-19 -0.001 
-8.90565e-05 -0.000102707 -0.001 -9.04142e-05 0.000102872 -0.001 -0.000765769 -0.00025965 -0.001 
-0.000756873 0.000262774 -0.001 -0.00015609 0.000787505 -0.001 -0.000155807 -0.00079355 -0.001 
0.000605069 0.000528035 -0.001 0.000608694 -0.00052497 -0.001 0.000744069 0.000116929 -0.001 
-0.000494418 0.000596218 -0.001 -0.000483866 -0.000584648 -0.001 0.000269496 0.000702219 -0.001 
0.000263201 -0.000717324 -0.001 0.000754429 -0.000127825 -0.001 -0.000748858 5.84659e-07 -0.001 
-0.000747838 0.000373886 -0.001 -0.0006542 0.000324842 -0.001 -0.000645137 0.000210123 -0.001 
-0.000550884 0.000274171 -0.001 -0.000538857 0.000163195 -0.001 -0.00045062 0.000224461 -0.001 
-0.000438393 0.000123907 -0.001 -0.000354088 0.000181668 -0.001 -0.000363908 0.000282171 -0.001 
-0.000270361 0.000239477 -0.001 -0.000279138 0.000337653 -0.001 -0.000188888 0.000294791 -0.001 
-0.000196448 0.000393271 -0.001 -0.000104767 0.000348259 -0.001 -0.000113332 0.000449012 -0.001 
-2.01066e-05 0.000403223 -0.001 -2.89189e-05 0.000507105 -0.001 6.9524e-05 0.000461596 -0.001 
-0.000213644 0.000490203 -0.001 7.33757e-05 0.000357726 -0.001 0.000163331 0.00041299 -0.001 
0.000163359 0.000313022 -0.001 0.000248077 0.000366368 -0.001 0.000250914 0.000265758 -0.001 
0.000335709 0.000322266 -0.001 0.000340555 0.000218148 -0.001 0.000427299 0.000276717 -0.001 
0.000431508 0.000173093 -0.001 0.000328731 0.000425633 -0.001 0.00034586 0.000114823 -0.001 
0.000435362 7.05241e-05 -0.001 0.000350892 1.5455e-05 -0.001 0.000441547 -3.11896e-05 -0.001 
0.000353547 -8.47783e-05 -0.001 0.000445767 -0.000132964 -0.001 0.000356135 -0.000186358 -0.001 
0.000449094 -0.000234674 -0.001 0.000359978 -0.000287876 -0.001 0.00026856 -0.000240545 -0.001 
0.000271895 -0.000341045 -0.001 0.000181792 -0.00029305 -0.001 0.00018533 -0.000392851 -0.001 
9.75701e-05 -0.00034483 -0.001 9.98764e-05 -0.000444884 -0.001 8.75116e-06 -0.000396343 -0.001 
1.20916e-05 -0.000500496 -0.001 -7.83929e-05 -0.000449843 -0.001 -8.1471e-05 -0.000347249 -0.001 
-0.000171566 -0.000403733 -0.001 -0.000169889 -0.000298891 -0.001 -0.000259867 -0.000354132 -0.001 
-0.000257696 -0.000249137 -0.001 -0.00034313 -0.000299896 -0.001 -0.000344514 -0.000199127 -0.001 
-0.000434309 -0.000250039 -0.001 -0.000169832 -0.000505815 -0.001 -0.000435227 -0.000146227 -0.001 
0.000280331 -0.000442424 -0.001 -0.000340889 8.76793e-05 -0.001 -0.000515252 4.06198e-05 -0.001 
6.50491e-05 0.000568253 -0.001 0.00053278 1.74743e-05 -0.001 0.000522071 0.000229831 -0.001 
-0.00037162 0.000391659 -0.001 -0.000255272 -0.000150439 -0.001 -0.000442893 -0.000350705 -0.001 
0.000450067 -0.000332559 -0.001 0.000545175 -0.000276306 -0.001 -0.000527797 -0.000197598 -0.001 
0.000105306 -0.000551033 -0.001 1.45836e-05 -0.000609147 -0.001 0.00017145 0.000214453 -0.001 
0.000515525 0.000341711 -0.001 0.000636086 0.000290368 -0.001 -0.000558657 0.000404468 -0.001 
-4.01232e-05 0.000616718 -0.001 6.60192e-05 0.000696422 -0.001 -0.000101806 0.0002546 -0.001 
0.000271142 -3.88908e-05 -0.001 0.000179455 -0.00018534 -0.001 -8.79553e-05 -0.000254307 -0.001 
-0.000749267 -0.000373451 -0.001 -0.000655941 -0.000323397 -0.001 0.000709746 0.000466718 -0.001 
0.000698426 -0.000473086 -0.001 -5.25801e-05 -0.00084886 -0.001 -4.93005e-05 0.000848038 -0.001 
0.000617396 -0.000413362 -0.001 0.000702056 -0.000369817 -0.001 0.000131459 -0.000679171 -0.001 
2.48171e-05 -0.000715924 -0.001 -0.000664217 -0.00042729 -0.001 -0.000528828 -8.80444e-05 -0.001 
-0.000611101 -0.000136672 -0.001 -0.000426972 -4.45841e-05 -0.001 0.000800669 0.000378216 -0.001 
0.000821144 -0.000415062 -0.001 7.2799e-05 0.00088254 -0.001 6.81831e-05 -0.00087503 -0.001 
0.000104963 -0.000788946 -0.001 -7.40696e-05 -0.000660054 -0.001 0.000126061 0.000809943 -0.001 
0.000764361 0.000295682 -0.001 0.000166862 0.000630623 -0.001 0.000516462 -0.00046707 -0.001 
-0.000563585 -0.000389606 -0.001 -0.000622598 -1.40238e-05 -0.001 0.000629891 0.000171529 -0.001 
2.5614e-06 -0.000299794 -0.001 8.6901e-05 -0.00024329 -0.001 0.000272045 -0.000136982 -0.001 
-0.00075148 0.000138321 -0.001 0.000209366 -0.000599589 -0.001 0.000324913 -0.000630055 -0.001 
0.000614044 0.00041245 -0.001 0.00049651 -0.000573327 -0.001 0.000394822 -0.000507321 -0.001 
-0.000173714 -0.000206698 -0.001 0.000264897 5.63722e-05 -0.001 0.000247997 0.000152811 -0.001 
-4.63327e-05 -0.000920208 -0.001 9.18688e-05 0.000258626 -0.001 -5.54111e-06 0.000290558 -0.001 
-0.000184219 0.000201484 -0.001 -0.000263559 0.000142267 -0.001 -0.000256427 5.13624e-05 -0.001 
-0.000336894 -2.06179e-06 -0.001 -0.000228499 -4.2388e-05 -0.001 -0.00017589 0.000106626 -0.001 
-0.000769947 -0.000133367 -0.001 0.000767591 -0.000500293 -0.001 -5.05874e-05 0.000737978 -0.001 
0.000754456 -3.51771e-06 -0.001 0.00064691 -6.15298e-05 -0.001 0.000630483 -0.00018134 -0.001 
0.000749187 -0.000265543 -0.001 -0.000760805 -0.000462521 -0.001 0.000638155 6.09315e-05 -0.001 
-4.46661e-05 0.000922995 -0.001 -2.37945e-05 0.000207237 -0.001 0.000776979 0.000500181 -0.001 
-0.000605691 0.000527596 -0.001 -0.000377914 -0.000653727 -0.001 -0.000372325 -0.000526022 -0.001 
-0.000275829 -0.000589621 -0.001 -0.000254285 -0.000710579 -0.001 -0.000379307 0.000656222 -0.001 
-0.000379818 0.00052718 -0.001 -0.000266817 0.000721555 -0.001 -0.000150544 0.000668174 -0.001 
0.000381963 0.00065079 -0.001 0.000493113 0.000590432 -0.001 0.000505439 0.000463708 -0.001 
-0.000269094 0.000596608 -0.001 0.000385815 0.000532045 -0.001 0.000283599 0.0005899 -0.001 
-0.000176405 -0.000108505 -0.001 -0.000278769 -0.000475415 -0.001 0.000185395 2.33014e-06 -0.001 
0.000186773 0.000517571 -0.001 0.000540032 -8.68444e-05 -0.001 -0.000600694 -0.000514877 -0.001 
-0.00063703 8.98033e-05 -0.001 -0.000459677 0.000335729 -0.001 -0.000338836 -0.000100751 -0.001 
-0.000457327 0.000432721 -0.001 -8.72007e-06 -0.000210238 -0.001 0.000156073 0.000129496 -0.001 
-7.70692e-05 -0.000555049 -0.001 0.00036091 -0.000389728 -0.001 0.000531628 0.000120564 -0.001 
-0.000285451 0.000435562 -0.001 0.000192719 -0.000494604 -0.001 0.00041642 0.00039368 -0.001 
-0.000135943 0.000554637 -0.001 -0.000170665 -0.000610079 -0.001 -0.000666304 0.000434981 -0.001 
-0.000758736 0.000479231 -0.001 -0.000470189 -0.000458901 -0.001 0.000203433 -8.59809e-05 -0.001 
0.000101846 0.000170114 -0.001 -0.00035513 -0.00040726 -0.001 0.000100184 -0.000165831 -0.001 
2.96286e-05 0.00081537 -0.001 0.000720946 0.000381836 -0.001 -0.000539809 -0.000292001 -0.001 
0.00052211 -0.000182426 -0.001 -6.41339e-05 -0.000753908 -0.001 0.000638039 -0.000299861 -0.001 
-0.000605136 -0.000230182 -0.001 -3.41638e-05 -0.000145561 -0.001 -0.000104037 0.000172396 -0.001 
-0.000808575 -0.00042774 -0.001 -0.000807207 -0.000465052 -0.001 -0.00080817 0.000429771 -0.001 
-0.000806589 0.000469738 -0.001 -9.50634e-05 -0.000178909 -0.001 0.000247777 0.000445058 -0.001 
1.48293e-05 -0.000814201 -0.001 -4.11555e-05 0.000140955 -0.001 0.000276104 -0.000536845 -0.001 
0.000765969 -0.000436638 -0.001 0.000780871 -0.000362769 -0.001 0.000424176 -0.000642018 -0.001 
0.00053413 -0.000368009 -0.001 -0.000416333 4.17911e-05 -0.001 -0.000133891 -6.23822e-05 -0.001 
4.2574e-05 0.000206312 -0.001 0.000141163 -0.000121542 -0.001 0.000707423 0.000212137 -0.001 
0.000172327 0.000723882 -0.001 7.72652e-06 -0.00090254 -0.001 -0.000134435 5.66935e-05 -0.001 
-0.000188826 3.70894e-05 -0.001 0.000197119 8.09714e-05 -0.001 1.27801e-05 0.000917296 -0.001 
0.000800767 0.00044758 -0.001 -0.000686682 0.000507104 -0.001 9.35831e-05 0.000110457 -0.001 
-0.000696793 -0.000509595 -0.001 -0.00068446 -8.52012e-05 -0.001 -0.000691033 -0.000201242 -0.001 
5.24052e-05 -0.000189075 -0.001 -0.000151818 -0.000701092 -0.001 -0.000296988 0.000518087 -0.001 
9.31023e-05 -0.000108117 -0.001 0.00044261 -0.000416726 -0.001 0.000197044 -0.000784423 -0.001 
-0.000516861 0.000504567 -0.001 0.000298997 0.000502377 -0.001 

CELLS 563 3941
6 14 304 127 29 554 377 
6 143 259 55 393 509 103 
6 300 319 174 550 569 424 
6 259 349 55 509 599 103 
6 50 365 307 98 615 557 
6 299 320 164 549 570 414 
6 126 304 14 376 554 29 
6 298 319 300 548 569 550 
6 205 240 238 455 490 488 
6 257 308 145 507 558 395 
6 130 352 273 380 602 523 
6 295 320 299 545 570 549 
6 324 327 289 574 577 539 
6 235 258 143 485 508 393 
6 50 307 49 98 557 97 
6 207 283 279 457 533 529 
6 143 373 235 393 623 485 
6 145 308 252 395 558 502 
6 194 303 196 444 553 446 
6 279 306 207 529 556 457 
6 206 305 163 456 555 413 
6 51 357 9 99 607 24 
6 238 252 205 488 502 455 
6 293 317 209 543 567 459 
6 207 316 283 457 566 533 
6 142 301 249 392 551 499 
6 273 359 130 523 609 380 
6 211 327 324 461 577 574 
6 169 265 217 419 515 467 
6 7 365 50 22 615 98 
6 283 316 253 533 566 503 
6 159 268 223 409 518 473 
6 274 337 132 524 587 382 
6 232 361 329 482 611 579 
6 231 266 45 481 516 93 
6 229 362 330 479 612 580 
6 9 244 57 24 494 105 
6 230 276 52 480 526 100 
6 209 311 293 459 561 543 
6 131 342 302 381 592 552 
6 270 271 204 520 521 454 
6 66 243 1 114 493 16 
6 59 241 12 107 491 27 
6 280 306 279 530 556 529 
6 269 337 274 519 587 524 
6 179 256 224 429 506 474 
6 163 305 166 413 555 416 
6 201 303 194 451 553 444 
6 280 332 306 530 582 556 
6 186 255 225 436 505 475 
6 210 310 273 460 560 523 
6 153 270 204 403 520 454 
6 136 231 45 386 481 93 
6 171 265 169 421 515 419 
6 138 230 52 388 480 100 
6 225 354 325 475 604 575 
6 36 284 232 84 534 482 
6 161 268 159 411 518 409 
6 71 286 229 119 536 479 
6 290 303 201 540 553 451 
6 139 355 60 389 605 108 
6 60 355 248 108 605 498 
6 273 352 302 523 602 552 
6 235 373 245 485 623 495 
6 67 356 247 115 606 497 
6 221 295 277 471 545 527 
6 142 356 67 392 606 115 
6 139 283 253 389 533 503 
6 203 315 262 453 565 512 
6 41 257 145 89 507 395 
6 36 232 135 84 482 385 
6 71 229 137 119 479 387 
6 254 255 188 504 505 438 
6 233 350 334 483 600 584 
6 262 346 203 512 596 453 
6 304 325 127 554 575 377 
6 222 329 247 472 579 497 
6 218 298 260 468 548 510 
6 290 321 291 540 571 541 
6 272 310 240 522 560 490 
6 269 274 270 519 524 520 
6 244 245 57 494 495 105 
6 49 307 141 97 557 391 
6 225 325 256 475 575 506 
6 273 310 272 523 560 522 
6 312 368 255 562 618 505 
6 249 305 206 499 555 456 
6 228 331 251 478 581 501 
6 302 342 263 552 592 513 
6 338 339 44 588 589 92 
6 190 254 188 440 504 438 
6 37 341 340 85 591 590 
6 138 233 230 388 483 480 
6 228 335 331 478 585 581 
6 181 256 179 431 506 429 
6 195 263 226 445 513 476 
6 268 285 223 518 535 473 
6 290 291 288 540 541 538 
6 219 330 248 469 580 498 
6 201 321 290 451 571 540 
6 240 310 202 490 560 452 
6 188 255 186 438 505 436 
6 270 274 271 520 524 521 
6 262 349 259 512 599 509 
6 141 324 289 391 574 539 
6 296 301 142 546 551 392 
6 247 356 222 497 606 472 
6 239 252 238 489 502 488 
6 254 312 255 504 562 505 
6 54 261 53 102 511 101 
6 289 327 303 539 577 553 
6 268 353 285 518 603 535 
6 273 302 210 523 552 460 
6 292 299 293 542 549 543 
6 278 283 139 528 533 389 
6 175 265 171 425 515 421 
6 227 338 38 477 588 86 
6 264 360 265 514 610 515 
6 43 340 146 91 590 396 
6 165 268 161 415 518 411 
6 205 351 240 455 601 490 
6 64 281 63 112 531 111 
6 288 291 47 538 541 95 
6 135 295 294 385 545 544 
6 42 257 41 90 507 89 
6 245 373 57 495 623 105 
6 31 363 323 79 613 573 
6 292 293 140 542 543 390 
6 267 353 268 517 603 518 
6 155 270 153 405 520 403 
6 244 344 245 494 594 495 
6 61 278 139 109 528 389 
6 135 294 35 385 544 83 
6 69 297 296 117 547 546 
6 186 225 184 436 475 434 
6 329 361 243 579 611 493 
6 255 328 225 505 578 475 
6 213 332 280 463 582 530 
6 39 275 133 87 525 383 
6 330 362 241 580 612 491 
6 195 226 193 445 476 443 
6 211 324 251 461 574 501 
6 151 153 152 401 403 402 
6 295 299 294 545 549 544 
6 265 313 217 515 563 467 
6 258 259 143 508 509 393 
6 251 331 211 501 581 461 
6 149 151 150 399 401 400 
6 293 370 317 543 620 567 
6 153 204 152 403 454 402 
6 151 152 150 401 402 400 
6 33 292 140 81 542 390 
6 210 263 197 460 513 447 
6 301 305 249 551 555 499 
6 298 300 297 548 550 547 
6 68 296 142 116 546 392 
6 321 369 291 571 619 541 
6 179 224 177 429 474 427 
6 167 267 165 417 517 415 
6 259 346 262 509 596 512 
6 303 327 196 553 577 446 
6 269 270 155 519 520 405 
6 265 360 313 515 610 563 
6 223 269 157 473 519 407 
6 157 269 155 407 519 405 
6 144 279 278 394 529 528 
6 169 217 167 419 467 417 
6 177 264 175 427 514 425 
6 267 268 165 517 518 415 
6 159 223 157 409 473 407 
6 232 277 135 482 527 385 
6 193 254 190 443 504 440 
6 217 267 167 467 517 417 
6 249 356 142 499 606 392 
6 184 256 181 434 506 431 
6 248 355 219 498 605 469 
6 229 260 137 479 510 387 
6 149 150 148 399 400 398 
6 64 348 281 112 598 531 
6 311 374 293 561 624 543 
6 264 265 175 514 515 425 
6 297 300 296 547 550 546 
6 141 289 288 391 539 538 
6 197 263 195 447 513 445 
6 218 260 219 468 510 469 
6 224 264 177 474 514 427 
6 137 298 297 387 548 547 
6 277 295 135 527 545 385 
6 133 228 227 383 478 477 
6 261 349 262 511 599 512 
6 221 277 222 471 527 472 
6 256 325 224 506 575 474 
6 199 210 197 449 460 447 
6 226 254 193 476 504 443 
6 144 278 62 394 528 110 
6 279 283 278 529 533 528 
6 289 290 288 539 540 538 
6 137 297 70 387 547 118 
6 34 294 292 82 544 542 
6 235 236 216 485 486 466 
6 141 288 48 391 538 96 
6 178 306 180 428 556 430 
6 185 186 184 435 436 434 
6 63 281 144 111 531 394 
6 225 256 184 475 506 434 
6 46 291 136 94 541 386 
6 147 149 148 397 399 398 
6 271 272 204 521 522 454 
6 233 334 234 483 584 484 
6 145 275 40 395 525 88 
6 220 322 287 470 572 537 
6 280 334 213 530 584 463 
6 144 280 279 394 530 529 
6 140 287 32 390 537 80 
6 154 155 153 404 405 403 
6 334 350 213 584 600 463 
6 176 177 175 426 427 425 
6 260 298 137 510 548 387 
6 33 140 32 81 390 80 
6 49 141 48 97 391 96 
6 56 143 55 104 393 103 
6 68 142 67 116 392 115 
6 63 144 62 111 394 110 
6 61 139 60 109 389 108 
6 148 308 257 398 558 507 
6 71 137 70 119 387 118 
6 53 138 52 101 388 100 
6 46 136 45 94 386 93 
6 36 135 35 84 385 83 
6 43 146 134 91 396 384 
6 133 227 38 383 477 86 
6 192 193 190 442 443 440 
6 293 374 140 543 624 390 
6 34 292 33 82 542 81 
6 207 306 178 457 556 428 
6 43 134 42 91 384 90 
6 39 133 38 87 383 86 
6 41 145 40 89 395 88 
6 194 195 193 444 445 443 
6 69 296 68 117 546 116 
6 294 299 292 544 549 542 
6 173 175 171 423 425 421 
6 260 330 219 510 580 469 
6 183 184 181 433 434 431 
6 134 257 42 384 507 90 
6 55 349 54 103 599 102 
6 163 165 161 413 415 411 
6 166 167 165 416 417 415 
6 210 302 263 460 552 513 
6 271 273 272 521 523 522 
6 53 261 138 101 511 388 
6 217 326 267 467 576 517 
6 289 303 290 539 553 540 
6 178 179 177 428 429 427 
6 238 240 202 488 490 452 
6 62 278 61 110 528 109 
6 35 294 34 83 544 82 
6 284 361 232 534 611 482 
6 70 297 69 118 547 117 
6 224 304 264 474 554 514 
6 156 157 155 406 407 405 
6 48 288 47 96 538 95 
6 221 320 295 471 570 545 
6 187 188 186 437 438 436 
6 47 291 46 95 541 94 
6 151 154 153 401 404 403 
6 286 362 229 536 612 479 
6 168 169 167 418 419 417 
6 40 275 39 88 525 87 
6 307 324 141 557 574 391 
6 300 301 296 550 551 546 
6 32 287 31 80 537 79 
6 147 220 149 397 470 399 
6 333 344 231 583 594 481 
6 299 370 293 549 620 543 
6 271 359 273 521 609 523 
6 224 325 304 474 575 554 
6 228 237 227 478 487 477 
6 305 375 343 555 625 593 
6 218 319 298 468 569 548 
6 240 351 272 490 601 522 
6 277 329 222 527 579 472 
6 253 355 139 503 605 389 
6 158 159 157 408 409 407 
6 236 246 216 486 496 466 
6 192 194 193 442 444 443 
6 220 309 149 470 559 399 
6 183 185 184 433 435 434 
6 196 197 195 446 447 445 
6 276 347 58 526 597 106 
6 136 333 231 386 583 481 
6 67 247 66 115 497 114 
6 60 248 59 108 498 107 
6 261 262 250 511 512 500 
6 173 176 175 423 426 425 
6 344 357 231 594 607 481 
6 144 281 280 394 531 530 
6 152 205 150 402 455 400 
6 163 166 165 413 416 415 
6 185 187 186 435 437 436 
6 233 234 230 483 484 480 
6 170 171 169 420 421 419 
6 146 147 134 396 397 384 
6 176 178 177 426 428 427 
6 285 337 223 535 587 473 
6 154 156 155 404 406 405 
6 263 342 226 513 592 476 
6 235 245 236 485 495 486 
6 160 161 159 410 411 409 
6 58 347 242 106 597 492 
6 166 168 167 416 418 417 
6 287 374 220 537 624 470 
6 189 190 188 439 440 438 
6 148 257 134 398 507 384 
6 194 196 195 444 446 445 
6 252 308 205 502 558 455 
6 285 345 337 535 595 587 
6 301 375 305 551 625 555 
6 180 181 179 430 431 429 
6 281 348 234 531 598 484 
6 198 199 197 448 449 447 
6 151 309 154 401 559 404 
6 228 367 335 478 617 585 
6 54 349 261 102 599 511 
6 156 158 157 406 408 407 
6 168 170 169 418 420 419 
6 200 202 199 450 452 449 
6 147 148 134 397 398 384 
6 158 160 159 408 410 409 
6 150 308 148 400 558 398 
6 253 316 208 503 566 458 
6 232 329 277 482 579 527 
6 178 180 179 428 430 429 
6 191 192 190 441 442 440 
6 214 238 202 464 488 452 
6 172 173 171 422 423 421 
6 187 189 188 437 439 438 
6 162 163 161 412 413 411 
6 228 251 237 478 501 487 
6 215 258 235 465 508 485 
6 182 183 181 432 433 431 
6 202 310 199 452 560 449 
6 219 253 208 469 503 458 
6 222 249 206 472 499 456 
6 196 198 197 446 448 447 
6 229 330 260 479 580 510 
6 132 358 274 382 608 524 
6 149 309 151 399 559 401 
6 226 312 254 476 562 504 
6 154 309 209 404 559 459 
6 77 129 76 125 379 124 
6 73 128 72 121 378 120 
6 76 131 75 124 381 123 
6 74 132 73 122 382 121 
6 75 130 74 123 380 122 
6 14 127 77 29 377 125 
6 72 126 14 120 376 29 
6 133 367 228 383 617 478 
6 237 282 227 487 532 477 
6 239 366 252 489 616 502 
6 200 214 202 450 464 452 
6 192 201 194 442 451 444 
6 170 172 171 420 422 421 
6 220 311 309 470 561 559 
6 198 200 199 448 450 449 
6 189 191 190 439 441 440 
6 146 323 322 396 573 572 
6 160 162 161 410 412 411 
6 251 307 237 501 557 487 
6 199 310 210 449 560 460 
6 57 373 56 105 623 104 
6 214 239 238 464 489 488 
6 182 212 183 432 462 433 
6 180 182 181 430 432 431 
6 146 322 147 396 572 397 
6 172 218 208 422 468 458 
6 172 208 173 422 458 423 
6 162 221 206 412 471 456 
6 162 206 163 412 456 413 
6 176 207 178 426 457 428 
6 272 351 204 522 601 454 
6 198 211 200 448 461 450 
6 182 213 212 432 463 462 
6 234 334 281 484 584 531 
6 154 209 156 404 459 406 
6 185 203 187 435 453 437 
6 168 174 170 418 424 420 
6 189 215 191 439 465 441 
6 215 216 191 465 466 441 
6 221 222 206 471 472 456 
6 158 164 160 408 414 410 
6 218 219 208 468 469 458 
6 205 308 150 455 558 400 
6 191 314 192 441 564 442 
6 215 235 216 465 485 466 
6 215 318 258 465 568 508 
6 152 351 205 402 601 455 
6 138 261 250 388 511 500 
6 192 314 201 442 564 451 
6 234 347 230 484 597 480 
6 226 342 312 476 592 562 
6 138 250 233 388 500 483 
6 147 322 220 397 572 470 
6 216 314 191 466 564 441 
6 306 332 180 556 582 430 
6 222 356 249 472 606 499 
6 128 345 285 378 595 535 
6 314 321 201 564 571 451 
6 212 315 183 462 565 433 
6 312 342 336 562 592 586 
6 282 339 338 532 589 588 
6 340 341 323 590 591 573 
6 309 311 209 559 561 459 
6 183 315 185 433 565 435 
6 208 316 173 458 566 423 
6 173 316 176 423 566 426 
6 3 341 37 18 591 85 
6 44 339 6 92 589 21 
6 252 366 145 502 616 395 
6 246 321 314 496 571 564 
6 246 314 216 496 564 466 
6 126 364 313 376 614 563 
6 156 317 158 406 567 408 
6 275 367 133 525 617 383 
6 176 316 207 426 566 457 
6 185 315 203 435 565 453 
6 180 332 182 430 582 432 
6 302 352 131 552 602 381 
6 251 324 307 501 574 557 
6 187 318 189 437 568 439 
6 172 319 218 422 569 468 
6 162 320 221 412 570 471 
6 305 343 166 555 593 416 
6 170 319 172 420 569 422 
6 158 317 164 408 567 414 
6 209 317 156 459 567 406 
6 285 353 128 535 603 378 
6 223 337 269 473 587 519 
6 160 320 162 410 570 412 
6 211 331 200 461 581 450 
6 174 319 170 424 569 420 
6 203 318 187 453 568 437 
6 189 318 215 439 568 465 
6 198 327 211 448 577 461 
6 164 320 160 414 570 410 
6 326 353 267 576 603 517 
6 236 344 333 486 594 583 
6 196 327 198 446 577 448 
6 219 355 253 469 605 503 
6 281 334 280 531 584 530 
6 274 359 271 524 609 521 
6 164 370 299 414 620 549 
6 174 375 300 424 625 550 
6 287 363 31 537 613 79 
6 243 361 1 493 611 16 
6 241 362 12 491 612 27 
6 307 365 237 557 615 487 
6 166 343 168 416 593 418 
6 200 331 214 450 581 464 
6 313 326 217 563 576 467 
6 9 357 244 24 607 494 
6 1 361 30 16 611 78 
6 12 362 65 27 612 113 
6 337 345 132 587 595 382 
6 242 348 64 492 598 112 
6 231 357 266 481 607 516 
6 182 332 213 432 582 463 
6 245 344 236 495 594 486 
6 258 346 259 508 596 509 
6 145 366 275 395 616 525 
6 291 369 136 541 619 386 
6 236 333 246 486 583 496 
6 331 335 214 581 585 464 
6 312 336 129 562 586 379 
6 315 372 262 565 622 512 
6 220 374 311 470 624 561 
6 140 374 287 390 624 537 
6 126 360 304 376 610 554 
6 230 347 276 480 597 526 
6 313 364 326 563 614 576 
6 56 373 143 104 623 393 
6 239 367 366 489 617 616 
6 204 351 152 454 601 402 
6 300 375 301 550 625 551 
6 214 335 239 464 585 489 
6 247 329 243 497 579 493 
6 262 372 250 512 622 500 
6 248 330 241 498 580 491 
6 318 346 258 568 596 508 
6 333 369 246 583 619 496 
6 282 338 227 532 588 477 
6 146 340 323 396 590 573 
6 304 360 264 554 610 514 
6 366 367 275 616 617 525 
6 129 336 76 379 586 124 
6 73 345 128 121 595 378 
6 76 336 131 124 586 381 
6 250 350 233 500 600 483 
6 129 371 328 379 621 578 
6 132 345 73 382 595 121 
6 168 343 174 418 593 424 
6 131 352 75 381 602 123 
6 66 247 243 114 497 493 
6 59 248 241 107 498 491 
6 74 358 132 122 608 382 
6 203 346 318 453 596 568 
6 313 360 126 563 610 376 
6 128 364 72 378 614 120 
6 128 353 326 378 603 576 
6 77 371 129 125 621 379 
6 129 368 312 379 618 562 
6 244 357 344 494 607 594 
6 328 354 225 578 604 475 
6 326 364 128 576 614 378 
6 75 352 130 123 602 380 
6 350 372 212 600 622 462 
6 136 369 333 386 619 583 
6 325 354 127 575 604 377 
6 213 350 212 463 600 462 
6 130 358 74 380 608 122 
6 250 372 350 500 622 600 
6 317 370 164 567 620 414 
6 72 364 126 120 614 376 
6 328 368 129 578 618 379 
6 127 371 77 377 621 125 
6 336 342 131 586 592 381 
6 212 372 315 462 622 565 
6 234 348 347 484 598 597 
6 8 266 51 23 516 99 
6 10 276 58 25 526 106 
6 246 369 321 496 619 571 
6 30 284 0 78 534 15 
6 65 286 13 113 536 28 
6 58 242 11 106 492 26 
6 266 357 51 516 607 99 
6 255 368 328 505 618 578 
6 347 348 242 597 598 492 
6 322 363 287 572 613 537 
6 323 363 322 573 613 572 
6 335 367 239 585 617 489 
6 30 361 284 78 611 534 
6 65 362 286 113 612 536 
6 237 365 282 487 615 532 
6 130 359 358 380 609 608 
6 343 375 174 593 625 424 
6 354 371 127 604 621 377 
6 328 371 354 578 621 604 
6 358 359 274 608 609 524 
6 0 284 36 15 534 84 
6 45 266 8 93 516 23 
6 52 276 10 100 526 25 
6 11 242 64 26 492 112 
6 13 286 71 28 536 119 
6 2 323 3 17 573 18 
6 31 323 2 79 573 17 
6 323 341 3 573 591 18 
6 37 340 4 85 590 19 
6 4 340 43 19 590 91 
6 38 338 5 86 588 20 
6 5 338 44 20 588 92 
6 6 282 7 21 532 22 
6 6 339 282 21 589 532 
6 282 365 7 532 615 22 

CELL_TYPES 563
13
13
13
13
13
13
13
13
13
13
13
13
13
13
13
13
13
13
13
13
13
13
13
13
13
13
13
13
13
13
13
13
13
13
13
13
13
13
13
13
13
13
13
13
13
13
13
13
13
13
13
13
13
13
13
13
13
13
13
13
13
13
13
13
13
13
13
13
13
13
13
13
13
13
13
13
13
13
13
13
13
13
13
13
13
13
13
13
13
13
13
13
13
13
13
13
13
13
13
13
13
13
13
13
13
13
13
13
13
13
13
13
13
13
13
13
13
13
13
13
13
13
13
13
13
13
13
13
13
13
13
13
13
13
13
13
13
13
13
13
13
13
13
13
13
13
13
13
13
13
13
13
13
13
13
13
13
13
13
13
13
13
13
13
13
13
13
13
13
13
13
13
13
13
13
13
13
13
13
13
13
13
13
13
13
13
13
13
13
13
13
13
13
13
13
13
13
13
13
13
13
13
13
13
13
13
13
13
13
13
13
13
13
13
13
13
13
13
13
13
13
13
13
13
13
13
13
13
13
13
13
13
13
13
13
13
13
13
13
13
13
13
13
13
13
13
13
13
13
13
13
13
13
13
13
13
13
13
13
13
13
13
13
13
13
13
13
13
13
13
13
13
13
13
13
13
13
13
13
13
13
13
13
13
13
13
13
13
13
13
13
13
13
13
13
13
13
13
13
13
13
13
13
13
13
13
13
13
13
13
13
13
13
13
13
13
13
13
13
13
13
13
13
13
13
13
13
13
13
13
13
13
13
13
13
13
13
13
13
13
13
13
13
13
13
13
13
13
13
13
13
13
13
13
13
13
13
13
13
13
13
13
13
13
13
13
13
13
13
13
13
13
13
13
13
13
13
13
13
13
13
13
13
13
13
13
13
13
13
13
13
13
13
13
13
13
13
13
13
13
13
13
13
13
13
13
13
13
13
13
13
13
13
13
13
13
13
13
13
13
13
13
13
13
13
13
13
13
13
13
13
13
13
13
13
13
13
13
13
13
13
13
13
13
13
13
13
13
13
13
13
13
13
13
13
13
13
13
13
13
13
13
13
13
13
13
13
13
13
13
13
13
13
13
13
13
13
13
13
13
13
13
13
13
13
13
13
13
13
13
13
13
13
13
13
13
13
13
13
13
13
13
13
13
13
13
13
13
13
13
13
13
13
13
13
13
13
13
13
13
13
13
13
13
13
13
13
13
13
13
13
13
13
13
13
13
13
13
13
13
13
13
13
13
13
13
13
13
13
13
13
13
13
13
13
13
13
13
13
13
13
13
13

POINT_DATA 626
VECTORS displacement float
-1.74393e-06 3.09574e-05 1.80564e-05
1.73563e-06 3.09765e-05 1.81015e-05
-2.59889e-05 1.69943e-05 1.80884e-05
-2.58435e-05 1.60345e-05 1.8053e-05
-2.77232e-05 1.39743e-05 1.80704e-05
-2.77162e-05 -1.40206e-05 1.80959e-05
-2.58147e-05 -1.60726e-05 1.81072e-05
-2.59851e-05 -1.70124e-05 1.81684e-05
-1.67739e-06 -3.09612e-05 1.80528e-05
1.75543e-06 -3.09627e-05 1.81033e-05
2.59462e-05 -1.69822e-05 1.80449e-05
2.77196e-05 -1.39382e-05 1.80447e-05
2.7675e-05 1.39909e-05 1.8093e-05
2.59176e-05 1.69945e-05 1.80474e-05
0 0 0
-1.74393e-06 3.09574e-05 -1.80564e-05
1.73563e-06 3.09765e-05 -1.81015e-05
-2.59889e-05 1.69943e-05 -1.80884e-05
-2.58435e-05 1.60345e-05 -1.8053e-05
-2.77232e-05 1.39743e-05 -1.80704e-05
-2.77162e-05 -1.40206e-05 -1.80959e-05
-2.58147e-05 -1.60726e-05 -1.81072e-05
-2.59851e-05 -1.70124e-05 -1.81684e-05
-1.67739e-06 -3.09612e-05 -1.80528e-05
1.75543e-06 -3.09627e-05 -1.81033e-05
2.59462e-05 -1.69822e-05 -1.80449e-05
2.77196e-05 -1.39382e-05 -1.80447e-05
2.7675e-05 1.39909e-05 -1.8093e-05
2.59176e-05 1.69945e-05 -1.80474e-05
0 0 0
2.48816e-08 3.01573e-05 1.80356e-05
-2.11431e-05 1.87142e-05 1.75513e-05
-1.72347e-05 1.9836e-05 1.69225e-05
-1.40087e-05 2.10567e-05 1.65567e-05
-1.12082e-05 2.26676e-05 1.65506e-05
-8.52487e-06 2.48358e-05 1.6903e-05
-5.5681e-06 2.76248e-05 1.7539e-05
-2.64524e-05 1.46806e-05 1.80349e-05
-2.67715e-05 -9.01281e-06 1.75789e-05
-2.58092e-05 -5.0363e-06 1.69276e-05
-2.52575e-05 -1.63649e-06 1.65732e-05
-2.52605e-05 1.60812e-06 1.65761e-05
-2.58015e-05 5.02368e-06 1.69258e-05
-2.67577e-05 8.98589e-06 1.75654e-05
-2.64393e-05 -1.47269e-05 1.80636e-05
-5.54135e-06 -2.76392e-05 1.75312e-05
-8.47739e-06 -2.48449e-05 1.69023e-05
-1.11714e-05 -2.26871e-05 1.65579e-05
-1.39724e-05 -2.10897e-05 1.65613e-05
-1.72171e-05 -1.98713e-05 1.69383e-05
-2.11367e-05 -1.87509e-05 1.75637e-05
8.9823e-08 -3.0142e-05 1.80307e-05
2.11265e-05 -1.86266e-05 1.7513e-05
1.72469e-05 -1.97644e-05 1.68745e-05
1.40357e-05 -2.10137e-05 1.65133e-05
1.12263e-05 -2.25958e-05 1.65479e-05
8.58201e-06 -2.47831e-05 1.68758e-05
5.65495e-06 -2.76295e-05 1.75365e-05
2.61271e-05 -1.50611e-05 1.80297e-05
2.67196e-05 8.9397e-06 1.7503e-05
2.5725e-05 5.05042e-06 1.69101e-05
2.52096e-05 1.62361e-06 1.65249e-05
2.52067e-05 -1.59971e-06 1.65232e-05
2.57537e-05 -4.9982e-06 1.689e-05
2.67017e-05 -8.91844e-06 1.75112e-05
2.61102e-05 1.50623e-05 1.80268e-05
5.63341e-06 2.76209e-05 1.75111e-05
8.50939e-06 2.48098e-05 1.69129e-05
1.12184e-05 2.26438e-05 1.65311e-05
1.40063e-05 2.10247e-05 1.65265e-05
1.72239e-05 1.97956e-05 1.68868e-05
2.11175e-05 1.86362e-05 1.75269e-05
0 0 0
0 0 0
0 0 0
0 0 0
0 0 0
0 0 0
2.48816e-08 3.01573e-05 -1.80356e-05
-2.11431e-05 1.87142e-05 -1.75513e-05
-1.72347e-05 1.9836e-05 -1.69225e-05
-1.40087e-05 2.10567e-05 -1.65567e-05
-1.12082e-05 2.26676e-05 -1.65506e-05
-8.52487e-06 2.48358e-05 -1.6903e-05
-5.5681e-06 2.76248e-05 -1.7539e-05
-2.64524e-05 1.46806e-05 -1.80349e-05
-2.67715e-05 -9.01281e-06 -1.75789e-05
-2.58092e-05 -5.0363e-06 -1.69276e-05
-2.52575e-05 -1.63649e-06 -1.65732e-05
-2.52605e-05 1.60812e-06 -1.65761e-05
-2.58015e-05 5.02368e-06 -1.69258e-05
-2.67577e-05 8.98589e-06 -1.75654e-05
-2.64393e-05 -1.47269e-05 -1.80636e-05
-5.54135e-06 -2.76392e-05 -1.75312e-05
-8.47739e-06 -2.48449e-05 -1.69023e-05
-1.11714e-05 -2.26871e-05 -1.65579e-05
-1.39724e-05 -2.10897e-05 -1.65613e-05
-1.72171e-05 -1.98713e-05 -1.69383e-05
-2.11367e-05 -1.87509e-05 -1.75637e-05
8.9823e-08 -3.0142e-05 -1.80307e-05
2.11265e-05 -1.86266e-05 -1.7513e-05
1.72469e-05 -1.97644e-05 -1.68745e-05
1.40357e-05 -2.10137e-05 -1.65133e-05
1.12263e-05 -2.25958e-05 -1.65479e-05
8.58201e-06 -2.47831e-05 -1.68758e-05
5.65495e-06 -2.76295e-05 -1.75365e-05
2.61271e-05 -1.50611e-05 -1.80297e-05
2.67196e-05 8.9397e-06 -1.7503e-05
2.5725e-05 5.05042e-06 -1.69101e-05
2.52096e-05 1.62361e-06 -1.65249e-05
2.52067e-05 -1.59971e-06 -1.65232e-05
2.57537e-05 -4.9982e-06 -1.689e-05
2.67017e-05 -8.91844e-06 -1.75112e-05
2.61102e-05 1.50623e-05 -1.80268e-05
5.63341e-06 2.76209e-05 -1.75111e-05
8.50939e-06 2.48098e-05 -1.69129e-05
1.12184e-05 2.26438e-05 -1.65311e-05
1.40063e-05 2.10247e-05 -1.65265e-05
1.72239e-05 1.97956e-05 -1.68868e-05
2.11175e-05 1.86362e-05 -1.75269e-05
0 0 0
0 0 0
0 0 0
0 0 0
0 0 0
0 0 0
1.79384e-06 8.58823e-07 4.55279e-06
1.73797e-06 -8.25188e-07 4.46133e-06
4.31992e-07 1.84979e-06 4.49565e-06
4.36136e-07 -1.78079e-06 4.3566e-06
-1.84765e-06 2.09656e-08 4.42289e-06
-1.12319e-06 -1.30899e-06 4.15149e-06
-1.15931e-06 1.30691e-06 4.20028e-06
-2.25156e-05 -7.28862e-06 1.70015e-05
-2.21989e-05 7.37251e-06 1.69702e-05
-4.8609e-06 2.29012e-05 1.69386e-05
-4.85841e-06 -2.31343e-05 1.69655e-05
1.74233e-05 1.56372e-05 1.69314e-05
1.75709e-05 -1.55382e-05 1.69407e-05
2.10761e-05 3.16432e-06 1.63261e-05
-1.39549e-05 1.71533e-05 1.64801e-05
-1.35929e-05 -1.67432e-05 1.64116e-05
7.76873e-06 1.98219e-05 1.63329e-05
7.68572e-06 -2.03124e-05 1.64042e-05
2.14749e-05 -3.44421e-06 1.64019e-05
-2.11053e-05 6.58818e-09 1.62484e-05
-2.24228e-05 1.1001e-05 1.74551e-05
-1.87531e-05 9.25578e-06 1.66287e-05
-1.79849e-05 5.79616e-06 1.6038e-05
-1.49857e-05 7.44922e-06 1.5488e-05
-1.42262e-05 4.30824e-06 1.48313e-05
-1.1534e-05 5.74457e-06 1.40963e-05
-1.08593e-05 3.0691e-06 1.33751e-05
-8.40147e-06 4.30537e-06 1.24057e-05
-9.05988e-06 7.01423e-06 1.34579e-05
-6.20482e-06 5.48914e-06 1.16903e-05
-6.82911e-06 8.25042e-06 1.30814e-05
-4.28189e-06 6.67567e-06 1.14518e-05
-4.80058e-06 9.61106e-06 1.30954e-05
-2.40115e-06 7.99427e-06 1.17243e-05
-2.81319e-06 1.11686e-05 1.34764e-05
-4.75469e-07 9.59642e-06 1.25024e-05
-7.38446e-07 1.29985e-05 1.41433e-05
1.73128e-06 1.15191e-05 1.35365e-05
-5.53536e-06 1.27019e-05 1.44385e-05
1.68527e-06 8.22493e-06 1.17489e-05
4.00465e-06 1.01221e-05 1.31524e-05
3.70578e-06 7.09877e-06 1.14795e-05
6.06812e-06 8.96774e-06 1.31148e-05
5.76749e-06 6.1075e-06 1.17369e-05
8.35908e-06 8.02128e-06 1.34935e-05
8.1066e-06 5.19588e-06 1.25018e-05
1.09553e-05 7.0979e-06 1.41485e-05
1.07472e-05 4.32331e-06 1.35006e-05
8.53156e-06 1.10388e-05 1.44624e-05
7.93861e-06 2.64405e-06 1.17287e-05
1.06473e-05 1.73741e-06 1.31055e-05
7.9496e-06 3.58802e-07 1.14569e-05
1.08077e-05 -7.59203e-07 1.31256e-05
8.11258e-06 -1.93803e-06 1.17104e-05
1.10996e-05 -3.31325e-06 1.34854e-05
8.47073e-06 -4.4245e-06 1.24455e-05
1.15051e-05 -6.0036e-06 1.41109e-05
8.95664e-06 -7.13896e-06 1.34296e-05
6.14823e-06 -5.49505e-06 1.16426e-05
6.64529e-06 -8.30185e-06 1.30197e-05
4.10567e-06 -6.58927e-06 1.13122e-05
4.52389e-06 -9.55201e-06 1.29898e-05
2.24255e-06 -7.8592e-06 1.15987e-05
2.48513e-06 -1.10032e-05 1.33525e-05
2.25314e-07 -9.37479e-06 1.2355e-05
3.30048e-07 -1.27713e-05 1.40354e-05
-1.91567e-06 -1.1152e-05 1.33785e-05
-1.84128e-06 -7.92253e-06 1.15835e-05
-4.1684e-06 -9.87603e-06 1.30865e-05
-3.81438e-06 -6.73127e-06 1.13184e-05
-6.34638e-06 -8.66306e-06 1.31008e-05
-5.89198e-06 -5.69867e-06 1.16297e-05
-8.50074e-06 -7.43669e-06 1.33812e-05
-8.16851e-06 -4.72861e-06 1.241e-05
-1.1097e-05 -6.40354e-06 1.40715e-05
-4.37219e-06 -1.31248e-05 1.44353e-05
-1.08101e-05 -3.65112e-06 1.34407e-05
7.227e-06 -1.13741e-05 1.42746e-05
-7.7426e-06 1.98291e-06 1.14943e-05
-1.32177e-05 1.03518e-06 1.42125e-05
1.72932e-06 1.50846e-05 1.49539e-05
1.37697e-05 4.62296e-07 1.43894e-05
1.38449e-05 6.10085e-06 1.49334e-05
-9.69525e-06 1.01975e-05 1.45342e-05
-5.41662e-06 -3.19801e-06 1.01834e-05
-1.1715e-05 -9.29846e-06 1.48909e-05
1.18838e-05 -8.76128e-06 1.47888e-05
1.47836e-05 -7.47451e-06 1.5405e-05
-1.39614e-05 -5.24453e-06 1.48633e-05
2.79615e-06 -1.45179e-05 1.47979e-05
4.24605e-07 -1.65014e-05 1.53994e-05
3.51883e-06 4.39743e-06 9.58228e-06
1.40123e-05 9.30019e-06 1.54933e-05
1.79329e-05 8.14595e-06 1.63022e-05
-1.56773e-05 1.13967e-05 1.62352e-05
-1.09422e-06 1.67711e-05 1.5497e-05
1.90706e-06 1.9624e-05 1.63126e-05
-2.09211e-06 5.22066e-06 9.59878e-06
5.55456e-06 -7.84691e-07 9.59533e-06
3.58635e-06 -3.68397e-06 9.0831e-06
-1.77984e-06 -5.17915e-06 9.45077e-06
-2.24712e-05 -1.10121e-05 1.74758e-05
-1.88004e-05 -9.24252e-06 1.66527e-05
2.11502e-05 1.41663e-05 1.75071e-05
2.07561e-05 -1.43191e-05 1.74371e-05
-1.76473e-06 -2.54494e-05 1.75124e-05
-1.68225e-06 2.54134e-05 1.75171e-05
1.77151e-05 -1.19083e-05 1.66888e-05
2.06481e-05 -1.07523e-05 1.71176e-05
3.77606e-06 -1.89874e-05 1.61411e-05
7.686e-07 -2.03482e-05 1.64845e-05
-1.94073e-05 -1.26519e-05 1.71447e-05
-1.37328e-05 -2.30721e-06 1.44736e-05
-1.65947e-05 -3.70189e-06 1.54793e-05
-1.03771e-05 -1.09652e-06 1.29536e-05
2.44547e-05 1.10741e-05 1.76531e-05
2.55002e-05 -1.24047e-05 1.78496e-05
2.64939e-06 2.67289e-05 1.7662e-05
2.52113e-06 -2.64165e-05 1.76309e-05
3.33976e-06 -2.30346e-05 1.70307e-05
-2.05413e-06 -1.83221e-05 1.59526e-05
4.05941e-06 2.37941e-05 1.7132e-05
2.26167e-05 8.38033e-06 1.71209e-05
4.61414e-06 1.73154e-05 1.5729e-05
1.44287e-05 -1.3121e-05 1.61391e-05
-1.57896e-05 -1.0986e-05 1.62162e-05
-1.68018e-05 -3.81478e-07 1.53791e-05
1.7308e-05 4.68807e-06 1.57274e-05
6.55274e-08 -6.38802e-06 1.02687e-05
1.7419e-06 -4.84899e-06 9.0936e-06
5.85112e-06 -2.93584e-06 1.03794e-05
-2.14467e-05 3.75102e-06 1.64606e-05
5.73004e-06 -1.62765e-05 1.55094e-05
9.08456e-06 -1.75012e-05 1.59993e-05
1.75742e-05 1.1883e-05 1.66739e-05
1.39959e-05 -1.63842e-05 1.6403e-05
1.07413e-05 -1.37906e-05 1.55518e-05
-3.54836e-06 -4.22065e-06 9.50193e-06
5.3997e-06 1.13862e-06 9.50021e-06
5.21863e-06 3.22323e-06 1.00485e-05
-1.74986e-06 -2.83574e-05 1.78783e-05
1.89226e-06 5.29947e-06 9.58562e-06
-1.13838e-07 6.10568e-06 1.004e-05
-3.78533e-06 4.12819e-06 9.57957e-06
-5.6233e-06 3.03452e-06 1.02865e-05
-5.16602e-06 1.04079e-06 9.21473e-06
-7.5281e-06 -6.17465e-08 1.11738e-05
-4.33482e-06 -8.10361e-07 8.38287e-06
-3.1089e-06 1.87252e-06 7.37495e-06
-2.20837e-05 -3.60826e-06 1.65175e-05
2.34087e-05 -1.56895e-05 1.78375e-05
-1.50735e-06 2.11703e-05 1.66836e-05
2.12642e-05 -8.45313e-08 1.62275e-05
1.76242e-05 -1.64701e-06 1.55832e-05
1.73498e-05 -4.94228e-06 1.57724e-05
2.1894e-05 -7.45205e-06 1.69152e-05
-2.31846e-05 -1.4256e-05 1.78341e-05
1.73267e-05 1.64908e-06 1.55103e-05
-1.73407e-06 2.84759e-05 1.78955e-05
-4.22115e-07 3.68379e-06 7.49621e-06
2.37744e-05 1.57438e-05 1.7886e-05
-1.74994e-05 1.56439e-05 1.69765e-05
-1.06275e-05 -1.84683e-05 1.62568e-05
-1.01008e-05 -1.4344e-05 1.55734e-05
-7.50868e-06 -1.60968e-05 1.56238e-05
-7.32296e-06 -2.01229e-05 1.6397e-05
-1.07057e-05 1.85375e-05 1.62685e-05
-1.03486e-05 1.43858e-05 1.56211e-05
-7.77351e-06 2.04949e-05 1.6446e-05
-4.25347e-06 1.86119e-05 1.60547e-05
1.0761e-05 1.83477e-05 1.62279e-05
1.38934e-05 1.69369e-05 1.64327e-05
1.40436e-05 1.29744e-05 1.6053e-05
-7.36246e-06 1.62903e-05 1.56402e-05
1.05264e-05 1.45488e-05 1.56469e-05
7.74968e-06 1.60943e-05 1.56157e-05
-3.11678e-06 -1.89896e-06 7.39408e-06
-7.25853e-06 -1.24235e-05 1.46269e-05
3.00895e-06 4.03643e-08 6.60178e-06
4.87316e-06 1.35244e-05 1.46198e-05
1.40777e-05 -2.26066e-06 1.45722e-05
-1.72918e-05 -1.52184e-05 1.69471e-05
-1.73686e-05 2.42061e-06 1.55996e-05
-1.22062e-05 8.913e-06 1.49452e-05
-7.70652e-06 -2.29278e-06 1.15561e-05
-1.24513e-05 1.1814e-05 1.55417e-05
-1.42751e-07 -3.75461e-06 7.5551e-06
2.73051e-06 2.27231e-06 7.25282e-06
-2.00411e-06 -1.46522e-05 1.48097e-05
9.36622e-06 -1.00695e-05 1.43911e-05
1.38624e-05 3.1582e-06 1.45678e-05
-7.34094e-06 1.12007e-05 1.4262e-05
4.99782e-06 -1.27764e-05 1.4371e-05
1.10332e-05 1.04318e-05 1.49214e-05
-3.59688e-06 1.46871e-05 1.49097e-05
-4.63602e-06 -1.66189e-05 1.55506e-05
-1.95093e-05 1.28939e-05 1.71629e-05
-2.31294e-05 1.48597e-05 1.78449e-05
-1.29065e-05 -1.26876e-05 1.58143e-05
3.76119e-06 -1.58629e-06 7.90793e-06
1.76457e-06 2.92258e-06 7.0853e-06
-9.23161e-06 -1.06108e-05 1.45335e-05
1.72792e-06 -2.82344e-06 6.93192e-06
9.948e-07 2.41196e-05 1.731e-05
2.13704e-05 1.11951e-05 1.73002e-05
-1.46664e-05 -7.95435e-06 1.54871e-05
1.37097e-05 -4.78691e-06 1.46924e-05
-1.91008e-06 -2.17655e-05 1.68044e-05
1.80625e-05 -8.42009e-06 1.63424e-05
-1.66809e-05 -6.32935e-06 1.57842e-05
-4.32942e-07 -1.9225e-06 4.79906e-06
-1.80556e-06 2.99575e-06 7.17806e-06
-2.50546e-05 -1.29832e-05 1.79237e-05
-2.51298e-05 -1.45088e-05 1.80035e-05
-2.50478e-05 1.30351e-05 1.79075e-05
-2.51206e-05 1.46515e-05 1.79836e-05
-1.64862e-06 -3.12517e-06 7.2108e-06
6.32873e-06 1.13698e-05 1.40783e-05
5.33742e-07 -2.40888e-05 1.73038e-05
-5.22828e-07 1.80971e-06 4.64557e-06
7.40838e-06 -1.43455e-05 1.51542e-05
2.33054e-05 -1.32108e-05 1.77303e-05
2.36353e-05 -1.05388e-05 1.74924e-05
1.19899e-05 -1.82132e-05 1.62951e-05
1.47319e-05 -1.01479e-05 1.57973e-05
-1.00283e-05 1.00137e-06 1.27562e-05
-1.74018e-06 -8.15979e-07 4.72403e-06
7.69144e-07 3.70874e-06 7.57409e-06
2.34331e-06 -1.99736e-06 6.5561e-06
2.0159e-05 5.8986e-06 1.64554e-05
5.07064e-06 2.05985e-05 1.64978e-05
3.42123e-07 -2.7683e-05 1.78555e-05
-1.73139e-06 7.09178e-07 4.60688e-06
-3.21184e-06 6.23111e-07 6.82499e-06
3.57759e-06 1.47557e-06 7.63758e-06
4.99236e-07 2.83268e-05 1.79287e-05
2.47629e-05 1.37356e-05 1.79199e-05
-2.03307e-05 1.55375e-05 1.74306e-05
1.17882e-06 1.3646e-06 4.4604e-06
-2.0642e-05 -1.573e-05 1.75292e-05
-1.90013e-05 -2.32249e-06 1.5948e-05
-1.95615e-05 -5.58571e-06 1.6334e-05
9.05775e-07 -3.24809e-06 7.00697e-06
-4.36652e-06 -1.97917e-05 1.63236e-05
-7.93828e-06 1.38361e-05 1.51029e-05
1.16586e-06 -1.30431e-06 4.33982e-06
1.19359e-05 -1.12297e-05 1.5294e-05
6.13367e-06 -2.26988e-05 1.68222e-05
-1.4524e-05 1.43571e-05 1.63254e-05
7.93007e-06 1.33229e-05 1.49498e-05
1.79384e-06 8.58823e-07 -4.55279e-06
1.73797e-06 -8.25188e-07 -4.46133e-06
4.31992e-07 1.84979e-06 -4.49565e-06
4.36136e-07 -1.78079e-06 -4.3566e-06
-1.84765e-06 2.09656e-08 -4.42289e-06
-1.12319e-06 -1.30899e-06 -4.15149e-06
-1.15931e-06 1.30691e-06 -4.20028e-06
-2.25156e-05 -7.28862e-06 -1.70015e-05
-2.21989e-05 7.37251e-06 -1.69702e-05
-4.8609e-06 2.29012e-05 -1.69386e-05
-4.85841e-06 -2.31343e-05 -1.69655e-05
1.74233e-05 1.56372e-05 -1.69314e-05
1.75709e-05 -1.55382e-05 -1.69407e-05
2.10761e-05 3.16432e-06 -1.63261e-05
-1.39549e-05 1.71533e-05 -1.64801e-05
-1.35929e-05 -1.67432e-05 -1.64116e-05
7.76873e-06 1.98219e-05 -1.63329e-05
7.68572e-06 -2.03124e-05 -1.64042e-05
2.14749e-05 -3.44421e-06 -1.64019e-05
-2.11053e-05 6.58818e-09 -1.62484e-05
-2.24228e-05 1.1001e-05 -1.74551e-05
-1.87531e-05 9.25578e-06 -1.66287e-05
-1.79849e-05 5.79616e-06 -1.6038e-05
-1.49857e-05 7.44922e-06 -1.5488e-05
-1.42262e-05 4.30824e-06 -1.48313e-05
-1.1534e-05 5.74457e-06 -1.40963e-05
-1.08593e-05 3.0691e-06 -1.33751e-05
-8.40147e-06 4.30537e-06 -1.24057e-05
-9.05988e-06 7.01423e-06 -1.34579e-05
-6.20482e-06 5.48914e-06 -1.16903e-05
-6.82911e-06 8.25042e-06 -1.30814e-05
-4.28189e-06 6.67567e-06 -1.14518e-05
-4.80058e-06 9.61106e-06 -1.30954e-05
-2.40115e-06 7.99427e-06 -1.17243e-05
-2.81319e-06 1.11686e-05 -1.34764e-05
-4.75469e-07 9.59642e-06 -1.25024e-05
-7.38446e-07 1.29985e-05 -1.41433e-05
1.73128e-06 1.15191e-05 -1.35365e-05
-5.53536e-06 1.27019e-05 -1.44385e-05
1.68527e-06 8.22493e-06 -1.17489e-05
4.00465e-06 1.01221e-05 -1.31524e-05
3.70578e-06 7.09877e-06 -1.14795e-05
6.06812e-06 8.96774e-06 -1.31148e-05
5.76749e-06 6.1075e-06 -1.17369e-05
8.35908e-06 8.02128e-06 -1.34935e-05
8.1066e-06 5.19588e-06 -1.25018e-05
1.09553e-05 7.0979e-06 -1.41485e-05
1.07472e-05 4.32331e-06 -1.35006e-05
8.53156e-06 1.10388e-05 -1.44624e-05
7.93861e-06 2.64405e-06 -1.17287e-05
1.06473e-05 1.73741e-06 -1.31055e-05
7.9496e-06 3.58802e-07 -1.14569e-05
1.08077e-05 -7.59203e-07 -1.31256e-05
8.11258e-06 -1.93803e-06 -1.17104e-05
1.10996e-05 -3.31325e-06 -1.34854e-05
8.47073e-06 -4.4245e-06 -1.24455e-05
1.15051e-05 -6.0036e-06 -1.41109e-05
8.95664e-06 -7.13896e-06 -1.34296e-05
6.14823e-06 -5.49505e-06 -1.16426e-05
6.64529e-06 -8.30185e-06 -1.30197e-05
4.10567e-06 -6.58927e-06 -1.13122e-05
4.52389e-06 -9.55201e-06 -1.29898e-05
2.24255e-06 -7.8592e-06 -1.15987e-05
2.48513e-06 -1.10032e-05 -1.33525e-05
2.25314e-07 -9.37479e-06 -1.2355e-05
3.30048e-07 -1.27713e-05 -1.40354e-05
-1.91567e-06 -1.1152e-05 -1.33785e-05
-1.84128e-06 -7.92253e-06 -1.15835e-05
-4.1684e-06 -9.87603e-06 -1.30865e-05
-3.81438e-06 -6.73127e-06 -1.13184e-05
-6.34638e-06 -8.66306e-06 -1.31008e-05
-5.89198e-06 -5.69867e-06 -1.16297e-05
-8.50074e-06 -7.43669e-06 -1.33812e-05
-8.16851e-06 -4.72861e-06 -1.241e-05
-1.1097e-05 -6.40354e-06 -1.40715e-05
-4.37219e-06 -1.31248e-05 -1.44353e-05
-1.08101e-05 -3.65112e-06 -1.34407e-05
7.227e-06 -1.13741e-05 -1.42746e-05
-7.7426e-06 1.98291e-06 -1.14943e-05
-1.32177e-05 1.03518e-06 -1.42125e-05
1.72932e-06 1.50846e-05 -1.49539e-05
1.37697e-05 4.62296e-07 -1.43894e-05
1.38449e-05 6.10085e-06 -1.49334e-05
-9.69525e-06 1.01975e-05 -1.45342e-05
-5.41662e-06 -3.19801e-06 -1.01834e-05
-1.1715e-05 -9.29846e-06 -1.48909e-05
1.18838e-05 -8.76128e-06 -1.47888e-05
1.47836e-05 -7.47451e-06 -1.5405e-05
-1.39614e-05 -5.24453e-06 -1.48633e-05
2.79615e-06 -1.45179e-05 -1.47979e-05
4.24605e-07 -1.65014e-05 -1.53994e-05
3.51883e-06 4.39743e-06 -9.58228e-06
1.40123e-05 9.30019e-06 -1.54933e-05
1.79329e-05 8.14595e-06 -1.63022e-05
-1.56773e-05 1.13967e-05 -1.62352e-05
-1.09422e-06 1.67711e-05 -1.5497e-05
1.90706e-06 1.9624e-05 -1.63126e-05
-2.09211e-06 5.22066e-06 -9.59878e-06
5.55456e-06 -7.84691e-07 -9.59533e-06
3.58635e-06 -3.68397e-06 -9.0831e-06
-1.77984e-06 -5.17915e-06 -9.45077e-06
-2.24712e-05 -1.10121e-05 -1.74758e-05
-1.88004e-05 -9.24252e-06 -1.66527e-05
2.11502e-05 1.41663e-05 -1.75071e-05
2.07561e-05 -1.43191e-05 -1.74371e-05
-1.76473e-06 -2.54494e-05 -1.75124e-05
-1.68225e-06 2.54134e-05 -1.75171e-05
1.77151e-05 -1.19083e-05 -1.66888e-05
2.06481e-05 -1.07523e-05 -1.71176e-05
3.77606e-06 -1.89874e-05 -1.61411e-05
7.686e-07 -2.03482e-05 -1.64845e-05
-1.94073e-05 -1.26519e-05 -1.71447e-05
-1.37328e-05 -2.30721e-06 -1.44736e-05
-1.65947e-05 -3.70189e-06 -1.54793e-05
-1.03771e-05 -1.09652e-06 -1.29536e-05
2.44547e-05 1.10741e-05 -1.76531e-05
2.55002e-05 -1.24047e-05 -1.78496e-05
2.64939e-06 2.67289e-05 -1.7662e-05
2.52113e-06 -2.64165e-05 -1.76309e-05
3.33976e-06 -2.30346e-05 -1.70307e-05
-2.05413e-06 -1.83221e-05 -1.59526e-05
4.05941e-06 2.37941e-05 -1.7132e-05
2.26167e-05 8.38033e-06 -1.71209e-05
4.61414e-06 1.73154e-05 -1.5729e-05
1.44287e-05 -1.3121e-05 -1.61391e-05
-1.57896e-05 -1.0986e-05 -1.62162e-05
-1.68018e-05 -3.81478e-07 -1.53791e-05
1.7308e-05 4.68807e-06 -1.57274e-05
6.55274e-08 -6.38802e-06 -1.02687e-05
1.7419e-06 -4.84899e-06 -9.0936e-06
5.85112e-06 -2.93584e-06 -1.03794e-05
-2.14467e-05 3.75102e-06 -1.64606e-05
5.73004e-06 -1.62765e-05 -1.55094e-05
9.08456e-06 -1.75012e-05 -1.59993e-05
1.75742e-05 1.1883e-05 -1.66739e-05
1.39959e-05 -1.63842e-05 -1.6403e-05
1.07413e-05 -1.37906e-05 -1.55518e-05
-3.54836e-06 -4.22065e-06 -9.50193e-06
5.3997e-06 1.13862e-06 -9.50021e-06
5.21863e-06 3.22323e-06 -1.00485e-05
-1.74986e-06 -2.83574e-05 -1.78783e-05
1.89226e-06 5.29947e-06 -9.58562e-06
-1.13838e-07 6.10568e-06 -1.004e-05
-3.78533e-06 4.12819e-06 -9.57957e-06
-5.6233e-06 3.03452e-06 -1.02865e-05
-5.16602e-06 1.04079e-06 -9.21473e-06
-7.5281e-06 -6.17465e-08 -1.11738e-05
-4.33482e-06 -8.10361e-07 -8.38287e-06
-3.1089e-06 1.87252e-06 -7.37495e-06
-2.20837e-05 -3.60826e-06 -1.65175e-05
2.34087e-05 -1.56895e-05 -1.78375e-05
-1.50735e-06 2.11703e-05 -1.66836e-05
2.12642e-05 -8.45313e-08 -1.62275e-05
1.76242e-05 -1.64701e-06 -1.55832e-05
1.73498e-05 -4.94228e-06 -1.57724e-05
2.1894e-05 -7.45205e-06 -1.69152e-05
-2.31846e-05 -1.4256e-05 -1.78341e-05
1.73267e-05 1.64908e-06 -1.55103e-05
-1.73407e-06 2.84759e-05 -1.78955e-05
-4.22115e-07 3.68379e-06 -7.49621e-06
2.37744e-05 1.57438e-05 -1.7886e-05
-1.74994e-05 1.56439e-05 -1.69765e-05
-1.06275e-05 -1.84683e-05 -1.62568e-05
-1.01008e-05 -1.4344e-05 -1.55734e-05
-7.50868e-06 -1.60968e-05 -1.56238e-05
-7.32296e-06 -2.01229e-05 -1.6397e-05
-1.07057e-05 1.85375e-05 -1.62685e-05
-1.03486e-05 1.43858e-05 -1.56211e-05
-7.77351e-06 2.04949e-05 -1.6446e-05
-4.25347e-06 1.86119e-05 -1.60547e-05
1.0761e-05 1.83477e-05 -1.62279e-05
1.38934e-05 1.69369e-05 -1.64327e-05
1.40436e-05 1.29744e-05 -1.6053e-05
-7.36246e-06 1.62903e-05 -1.56402e-05
1.05264e-05 1.45488e-05 -1.56469e-05
7.74968e-06 1.60943e-05 -1.56157e-05
-3.11678e-06 -1.89896e-06 -7.39408e-06
-7.25853e-06 -1.24235e-05 -1.46269e-05
3.00895e-06 4.03643e-08 -6.60178e-06
4.87316e-06 1.35244e-05 -1.46198e-05
1.40777e-05 -2.26066e-06 -1.45722e-05
-1.72918e-05 -1.52184e-05 -1.69471e-05
-1.73686e-05 2.42061e-06 -1.55996e-05
-1.22062e-05 8.913e-06 -1.49452e-05
-7.70652e-06 -2.29278e-06 -1.15561e-05
-1.24513e-05 1.1814e-05 -1.55417e-05
-1.42751e-07 -3.75461e-06 -7.5551e-06
2.73051e-06 2.27231e-06 -7.25282e-06
-2.00411e-06 -1.46522e-05 -1.48097e-05
9.36622e-06 -1.00695e-05 -1.43911e-05
1.38624e-05 3.1582e-06 -1.45678e-05
-7.34094e-06 1.12007e-05 -1.4262e-05
4.99782e-06 -1.27764e-05 -1.4371e-05
1.10332e-05 1.04318e-05 -1.49214e-05
-3.59688e-06 1.46871e-05 -1.49097e-05
-4.63602e-06 -1.66189e-05 -1.55506e-05
-1.95093e-05 1.28939e-05 -1.71629e-05
-2.31294e-05 1.48597e-05 -1.78449e-05
-1.29065e-05 -1.26876e-05 -1.58143e-05
3.76119e-06 -1.58629e-06 -7.90793e-06
1.76457e-06 2.92258e-06 -7.0853e-06
-9.23161e-06 -1.06108e-05 -1.45335e-05
1.72792e-06 -2.82344e-06 -6.93192e-06
9.948e-07 2.41196e-05 -1.731e-05
2.13704e-05 1.11951e-05 -1.73002e-05
-1.46664e-05 -7.95435e-06 -1.54871e-05
1.37097e-05 -4.78691e-06 -1.46924e-05
-1.91008e-06 -2.17655e-05 -1.68044e-05
1.80625e-05 -8.42009e-06 -1.63424e-05
-1.66809e-05 -6.32935e-06 -1.57842e-05
-4.32942e-07 -1.9225e-06 -4.79906e-06
-1.80556e-06 2.99575e-06 -7.17806e-06
-2.50546e-05 -1.29832e-05 -1.79237e-05
-2.51298e-05 -1.45088e-05 -1.80035e-05
-2.50478e-05 1.30351e-05 -1.79075e-05
-2.51206e-05 1.46515e-05 -1.79836e-05
-1.64862e-06 -3.12517e-06 -7.2108e-06
6.32873e-06 1.13698e-05 -1.40783e-05
5.33742e-07 -2.40888e-05 -1.73038e-05
-5.22828e-07 1.80971e-06 -4.64557e-06
7.40838e-06 -1.43455e-05 -1.51542e-05
2.33054e-05 -1.32108e-05 -1.77303e-05
2.36353e-05 -1.05388e-05 -1.74924e-05
1.19899e-05 -1.82132e-05 -1.62951e-05
1.47319e-05 -1.01479e-05 -1.57973e-05
-1.00283e-05 1.00137e-06 -1.27562e-05
-1.74018e-06 -8.15979e-07 -4.72403e-06
7.69144e-07 3.70874e-06 -7.57409e-06
2.34331e-06 -1.99736e-06 -6.5561e-06
2.0159e-05 5.8986e-06 -1.64554e-05
5.07064e-06 2.05985e-05 -1.64978e-05
3.42123e-07 -2.7683e-05 -1.78555e-05
-1.73139e-06 7.09178e-07 -4.60688e-06
-3.21184e-06 6.23111e-07 -6.82499e-06
3.57759e-06 1.47557e-06 -7.63758e-06
4.99236e-07 2.83268e-05 -1.79287e-05
2.47629e-05 1.37356e-05 -1.79199e-05
-2.03307e-05 1.55375e-05 -1.74306e-05
1.17882e-06 1.3646e-06 -4.4604e-06
-2.0642e-05 -1.573e-05 -1.75292e-05
-1.90013e-05 -2.32249e-06 -1.5948e-05
-1.95615e-05 -5.58571e-06 -1.6334e-05
9.05775e-07 -3.24809e-06 -7.00697e-06
-4.36652e-06 -1.97917e-05 -1.63236e-05
-7.93828e-06 1.38361e-05 -1.51029e-05
1.16586e-06 -1.30431e-06 -4.33982e-06
1.19359e-05 -1.12297e-05 -1.5294e-05
6.13367e-06 -2.26988e-05 -1.68222e-05
-1.4524e-05 1.43571e-05 -1.63254e-05
7.93007e-06 1.33229e-05 -1.49498e-05
SCALARS effective_fluid_pressure_TPM float
LOOKUP_TABLE default
665
665
665
665
665
665
665
665
665
665
665
665
665
665
133
665
665
665
665
665
665
665
665
665
665
665
665
665
665
133
665
560.354
520.712
502.858
502.628
519.838
559.975
665
562.02
520.806
503.3
503.41
520.738
561.642
665
559.641
519.709
502.803
503.02
521.207
561.658
665
558.898
519.054
501.591
502.287
518.903
559.486
665
558.538
519.993
501.923
501.855
519.426
557.978
665
558.694
520.007
502.096
501.958
519.414
559.7
133
133
133
133
133
133
665
560.354
520.712
502.858
502.628
519.838
559.975
665
562.02
520.806
503.3
503.41
520.738
561.642
665
559.641
519.709
502.803
503.02
521.207
561.658
665
558.898
519.054
501.591
502.287
518.903
559.486
665
558.538
519.993
501.923
501.855
519.426
557.978
665
558.694
520.007
502.096
501.958
519.414
559.7
133
133
133
133
133
133
228.275
226.345
227.059
224.127
225.542
219.863
220.88
529.208
528.218
526.597
527.976
526.625
527.678
498.753
503.599
501.637
498.994
501.51
501.291
494.375
562.534
519.023
495.075
480.782
461.403
443.322
425.09
402.161
427.315
385.305
417.782
379.651
417.945
385.99
427.431
404.34
444.426
429.12
450.304
386.6
419.345
380.247
418.357
386.23
427.804
404.268
444.537
428.204
450.901
386.074
418.209
379.663
418.565
385.598
427.641
402.961
443.599
426.496
384.091
416.181
376.346
415.388
383.063
424.462
400.887
441.748
425.269
382.799
417.821
376.611
418.139
383.885
425.309
402.254
442.721
450.694
426.769
446.053
380.771
444.718
465.332
448.786
464.806
453.455
350.942
463.548
461.079
478.485
462.815
460.685
478.39
337.315
480.861
505.891
503.65
480.927
506.197
337.728
337.539
326.201
334.453
563.41
519.698
567.61
562.397
567.927
567.78
521.846
542.753
498.665
513.773
542.098
451.497
477.614
414.699
579.547
611.046
579.7
576.062
534.59
494.514
538.263
537.959
485.074
498.151
503.367
473.177
485.121
352.787
326.451
355.217
503.48
477.753
488.397
520.915
502.063
477.952
335.578
335.442
347.739
613.463
337.416
347.61
337.302
353.243
329.225
373.297
310.693
288.817
504.746
608.4
521.137
493.759
478.364
486.39
526.531
600.361
476.601
615.915
291.426
615.814
528.759
494.57
478.271
479.445
501.351
494.877
479.472
502.546
495.208
493.781
502.298
495.282
479.919
480.085
479.087
289.324
454.627
271.968
455.034
453.663
527.04
479.507
465.256
382.141
480.542
292.7
286.111
461.512
449.667
454.011
445.889
448.723
463.638
463.295
479.987
543.492
601.722
487.526
300.333
282.489
453.047
279.19
552.272
552.032
480.807
458.051
526.261
508.217
488.622
233.748
284.587
614.523
636.331
615.156
636.688
285.308
441.374
553.112
230.504
467.587
590.287
566.062
495.85
490.081
410.076
232.138
293.126
271.152
507.927
509.224
607.833
229.681
277.003
294.461
618.893
618.806
558.545
226.54
562.557
488.347
503.427
280.875
504.097
466.413
224.024
473.618
519.61
503.012
462.479
228.275
226.345
227.059
224.127
225.542
219.863
220.88
529.208
528.218
526.597
527.976
526.625
527.678
498.753
503.599
501.637
498.994
501.51
501.291
494.375
562.534
519.023
495.075
480.782
461.403
443.322
425.09
402.161
427.315
385.305
417.782
379.651
417.945
385.99
427.431
404.34
444.426
429.12
450.304
386.6
419.345
380.247
418.357
386.23
427.804
404.268
444.537
428.204
450.901
386.074
418.209
379.663
418.565
385.598
427.641
402.961
443.599
426.496
384.091
416.181
376.346
415.388
383.063
424.462
400.887
441.748
425.269
382.799
417.821
376.611
418.139
383.885
425.309
402.254
442.721
450.694
426.769
446.053
380.771
444.718
465.332
448.786
464.806
453.455
350.942
463.548
461.079
478.485
462.815
460.685
478.39
337.315
480.861
505.891
503.65
480.927
506.197
337.728
337.539
326.201
334.453
563.41
519.698
567.61
562.397
567.927
567.78
521.846
542.753
498.665
513.773
542.098
451.497
477.614
414.699
579.547
611.046
579.7
576.062
534.59
494.514
538.263
537.959
485.074
498.151
503.367
473.177
485.121
352.787
326.451
355.217
503.48
477.753
488.397
520.915
502.063
477.952
335.578
335.442
347.739
613.463
337.416
347.61
337.302
353.243
329.225
373.297
310.693
288.817
504.746
608.4
521.137
493.759
478.364
486.39
526.531
600.361
476.601
615.915
291.426
615.814
528.759
494.57
478.271
479.445
501.351
494.877
479.472
502.546
495.208
493.781
502.298
495.282
479.919
480.085
479.087
289.324
454.627
271.968
455.034
453.663
527.04
479.507
465.256
382.141
480.542
292.7
286.111
461.512
449.667
454.011
445.889
448.723
463.638
463.295
479.987
543.492
601.722
487.526
300.333
282.489
453.047
279.19
552.272
552.032
480.807
458.051
526.261
508.217
488.622
233.748
284.587
614.523
636.331
615.156
636.688
285.308
441.374
553.112
230.504
467.587
590.287
566.062
495.85
490.081
410.076
232.138
293.126
271.152
507.927
509.224
607.833
229.681
277.003
294.461
618.893
618.806
558.545
226.54
562.557
488.347
503.427
280.875
504.097
466.413
224.024
473.618
519.61
503.012
462.479

CELL_DATA 563
TENSORS stress float
164.63 -24.9219 -4.59958e-12
-24.9219 28.1544 3.60837e-12
-4.59958e-12 3.60837e-12 -12.599

-40.3403 -21.3211 -2.67046e-13
-21.3211 -7.35499 1.04627e-12
-2.67046e-13 1.04627e-12 -10.2353

-9.94333 28.0468 -3.68949e-12
28.0468 -1.1121 1.48444e-12
-3.68949e-12 1.48444e-12 -6.36458

-40.4278 -29.8424 2.83329e-13
-29.8424 -12.8457 1.0707e-12
2.83329e-13 1.0707e-12 -10.6016

-22.6904 19.9308 7.25701e-12
19.9308 -1.92799 -5.4999e-12
7.25701e-12 -5.4999e-12 -23.0193

-27.1446 -18.0769 7.68274e-14
-18.0769 15.888 1.47852e-12
7.68274e-14 1.47852e-12 -6.41539

161.282 26.4862 -3.42008e-12
26.4862 28.031 5.39776e-12
-3.42008e-12 5.39776e-12 -13.258

-5.96377 29.9601 1.44477e-12
29.9601 -10.1138 1.27779e-12
1.44477e-12 1.27779e-12 -7.28003

34.6336 5.48379 -4.48826e-13
5.48379 -19.1006 3.04201e-12
-4.48826e-13 3.04201e-12 -4.12634

11.8601 -7.47768 7.80413e-13
-7.47768 -48.2889 -1.7466e-12
7.80413e-13 -1.7466e-12 -8.9505

104.208 16.3112 2.78533e-12
16.3112 -8.44408 -1.92735e-12
2.78533e-12 -1.92735e-12 -22.4532

-34.6412 -13.4546 -3.46996e-12
-13.4546 18.9655 -3.02869e-12
-3.46996e-12 -3.02869e-12 -7.18431

-6.02851 27.8358 -3.16606e-12
27.8358 -4.59254 -1.11674e-12
-3.16606e-12 -1.11674e-12 -6.16307

-35.5555 -14.3415 -2.01352e-12
-14.3415 7.84511 -1.75504e-12
-2.01352e-12 -1.75504e-12 -9.13471

-23.6538 33.3081 -1.15404e-12
33.3081 -24.992 8.08099e-13
-1.15404e-12 8.08099e-13 -21.3639

21.3118 0.561132 2.11979e-13
0.561132 -32.3429 2.26238e-12
2.11979e-13 2.26238e-12 -5.5938

-48.9606 -17.9687 -1.05782e-12
-17.9687 6.34206 -1.12532e-12
-1.05782e-12 -1.12532e-12 -12.9484

11.6603 -2.66519 -1.59843e-12
-2.66519 -43.2538 1.38563e-12
-1.59843e-12 1.38563e-12 -8.03779

-11.3547 26.678 -3.2981e-13
26.678 19.5171 6.03961e-14
-3.2981e-13 6.03961e-14 -6.09395

21.766 -4.19626 -1.09542e-12
-4.19626 -35.3011 -8.34814e-13
-1.09542e-12 -8.34814e-13 -6.74585

-24.4845 8.67018 3.07606e-13
8.67018 32.129 -2.49104e-12
3.07606e-13 -2.49104e-12 -4.93836

-11.8083 6.28533 1.18089e-11
6.28533 -11.9686 -2.98102e-12
1.18089e-11 -2.98102e-12 -75.5983

22.7441 1.87617 3.17435e-12
1.87617 -33.4757 9.55384e-13
3.17435e-12 9.55384e-13 -6.68181

-12.3917 -27.7189 -8.3548e-13
-27.7189 1.59791 -2.52065e-12
-8.3548e-13 -2.52065e-12 -6.60717

21.305 6.85019 1.24937e-13
6.85019 -34.3106 -1.9571e-12
1.24937e-13 -1.9571e-12 -6.81102

-37.9093 19.1142 5.88122e-13
19.1142 2.6536 -5.98928e-13
5.88122e-13 -5.98928e-13 -9.46146

106.617 4.18209 -1.76925e-12
4.18209 20.6044 3.20336e-13
-1.76925e-12 3.20336e-13 -12.048

-5.30435 30.7492 -1.54484e-12
30.7492 -7.2756 3.29751e-12
-1.54484e-12 3.29751e-12 -7.44574

27.8907 37.0808 1.01844e-12
37.0808 26.4698 1.41753e-12
1.01844e-12 1.41753e-12 -8.63519

-9.43923 10.3236 -3.36146e-12
10.3236 -32.923 -3.81558e-12
-3.36146e-12 -3.81558e-12 -49.4965

19.8313 14.2176 4.2224e-12
14.2176 -29.3635 4.52927e-12
4.2224e-12 4.52927e-12 -6.00483

-4.21489 -17.7835 -1.6532e-12
-17.7835 59.6639 6.31791e-12
-1.6532e-12 6.31791e-12 -8.47908

66.2915 -42.1075 -3.50061e-12
-42.1075 71.1472 7.1528e-12
-3.50061e-12 7.1528e-12 -11.2503

-48.2069 5.9849 3.05672e-12
5.9849 7.26883 -1.22243e-12
3.05672e-12 -1.22243e-12 -41.029

-26.29 -4.83785 5.71602e-12
-4.83785 1.75652 -6.76644e-12
5.71602e-12 -6.76644e-12 -37.7944

-1.46819 21.0271 -2.94194e-12
21.0271 -39.5027 3.63531e-12
-2.94194e-12 3.63531e-12 -41.0948

-43.9689 5.0647 -2.65491e-12
5.0647 0.513955 -2.94994e-12
-2.65491e-12 -2.94994e-12 -52.1781

-2.76182 -9.17123 -3.53465e-12
-9.17123 -20.7673 -3.61923e-12
-3.53465e-12 -3.61923e-12 -35.8894

-3.97682 -28.001 -3.14178e-12
-28.001 -4.61169 -1.9984e-12
-3.14178e-12 -1.9984e-12 -5.99845

65.6052 41.5267 -2.59111e-12
41.5267 73.1753 5.40012e-12
-2.59111e-12 5.40012e-12 -10.9619

60.1614 -17.9521 -7.06043e-12
-17.9521 0.11302 -8.32519e-13
-7.06043e-12 -8.32519e-13 -8.05284

-41.797 -3.70366 -8.5502e-13
-3.70366 -1.18568 6.51331e-13
-8.5502e-13 6.51331e-13 -52.7127

-14.5902 19.5514 1.28142e-12
19.5514 -28.5486 1.08269e-12
1.28142e-12 1.08269e-12 -52.8209

18.1421 -12.2738 -5.91527e-13
-12.2738 -29.9035 -3.73183e-13
-5.91527e-13 -3.73183e-13 -6.22697

38.1764 -43.3059 8.61415e-12
-43.3059 41.8051 -1.84623e-12
8.61415e-12 -1.84623e-12 -14.5602

58.1498 -18.0664 -7.08174e-13
-18.0664 -2.3072 -5.32907e-15
-7.08174e-13 -5.32907e-15 -7.91667

-21.4481 17.0883 1.08698e-12
17.0883 30.3286 1.13391e-12
1.08698e-12 1.13391e-12 -5.73275

-11.3768 19.342 8.28967e-14
19.342 25.5115 -1.03502e-12
8.28967e-14 -1.03502e-12 -3.92594

20.791 -16.3028 1.54958e-12
-16.3028 -33.12 -8.52355e-13
1.54958e-12 -8.52355e-13 -7.3159

12.6137 -34.1912 -3.58232e-13
-34.1912 46.4396 -2.93928e-12
-3.58232e-13 -2.93928e-12 -10.3999

62.3666 19.185 -1.337e-12
19.185 2.80696 -1.09009e-12
-1.337e-12 -1.09009e-12 -8.4165

46.5172 -25.2925 -4.91577e-12
-25.2925 5.13078 -4.35178e-12
-4.91577e-12 -4.35178e-12 -5.61338

-31.8973 19.4831 3.19744e-14
19.4831 -4.28446 5.47769e-12
3.19744e-14 5.47769e-12 -26.0825

37.0411 29.6543 -4.72629e-12
29.6543 14.5112 2.84928e-12
-4.72629e-12 2.84928e-12 -5.43577

-27.4474 -21.8126 -1.07618e-12
-21.8126 -8.23169 -2.38071e-12
-1.07618e-12 -2.38071e-12 -25.2451

64.8752 -42.7176 1.68162e-13
-42.7176 44.0842 4.06194e-12
1.68162e-13 4.06194e-12 -9.50241

-27.7481 5.45677 -1.40939e-12
5.45677 2.66889 4.05631e-12
-1.40939e-12 4.05631e-12 -38.2998

-5.56265 -5.33078 -5.12153e-12
-5.33078 57.3934 -1.82254e-12
-5.12153e-12 -1.82254e-12 -5.45282

-0.202634 10.3848 5.79981e-12
10.3848 -24.8445 1.23827e-13
5.79981e-12 1.23827e-13 -38.3614

-26.4905 21.4158 -6.60213e-14
21.4158 12.219 -3.54442e-12
-6.60213e-14 -3.54442e-12 -6.8742

4.72514 5.75508 -2.65092e-12
5.75508 -56.0404 2.27522e-13
-2.65092e-12 2.27522e-13 -13.9831

0.540834 11.459 5.65474e-14
11.459 -34.0582 -6.60213e-13
5.65474e-14 -6.60213e-13 -14.8405

106.356 31.8237 -1.80004e-13
31.8237 37.8362 1.64846e-12
-1.80004e-13 1.64846e-12 -7.48855

-35.4938 -6.03648 -1.09764e-12
-6.03648 10.6014 -1.37076e-12
-1.09764e-12 -1.37076e-12 -13.4801

-35.361 9.52084 1.64165e-13
9.52084 1.23412 2.15472e-12
1.64165e-13 2.15472e-12 -14.9608

-42.591 -2.88181 4.53348e-12
-2.88181 21.1104 1.12384e-12
4.53348e-12 1.12384e-12 -11.2412

-44.9096 23.4011 1.12584e-12
23.4011 -5.89265 1.0143e-12
1.12584e-12 1.0143e-12 -13.9241

9.97093 8.46446 -1.35447e-12
8.46446 -42.3823 2.37884e-12
-1.35447e-12 2.37884e-12 -9.08171

-12.3381 -28.243 7.01365e-12
-28.243 1.68539 6.32324e-12
7.01365e-12 6.32324e-12 -6.67837

1.30878 -1.71163 -1.23161e-13
-1.71163 -55.4579 -3.2192e-12
-1.23161e-13 -3.2192e-12 -11.3073

-31.8868 -19.2591 5.15292e-13
-19.2591 -4.59368 2.68644e-12
5.15292e-13 2.68644e-12 -25.9518

-27.9727 21.3078 -2.8629e-13
21.3078 -8.36135 9.08121e-13
-2.8629e-13 9.08121e-13 -26.0102

-0.655786 -16.5863 2.76579e-12
-16.5863 61.68 2.47743e-12
2.76579e-12 2.47743e-12 -7.95166

-0.650494 -27.9375 3.64745e-12
-27.9375 -21.3645 -4.30767e-13
3.64745e-12 -4.30767e-13 -12.7928

-14.0962 -25.1374 1.34085e-12
-25.1374 7.40617 -9.34364e-13
1.34085e-12 -9.34364e-13 -5.24017

91.6898 -31.715 4.67537e-12
-31.715 19.4869 -2.83447e-12
4.67537e-12 -2.83447e-12 -16.3321

-33.7089 3.22325 -4.49278e-12
3.22325 9.20061 6.36528e-13
-4.49278e-12 6.36528e-13 -18.5627

2.75013 28.9456 1.12799e-12
28.9456 -24.4264 4.83317e-12
1.12799e-12 4.83317e-12 -11.3188

-38.4376 19.6653 -4.12144e-12
19.6653 5.22921 -2.20446e-12
-4.12144e-12 -2.20446e-12 -9.23899

50.1951 8.00083 1.74675e-12
8.00083 -16.9706 3.33097e-12
1.74675e-12 3.33097e-12 -7.07081

60.0376 -33.9409 -7.73307e-13
-33.9409 33.7886 -2.16123e-12
-7.73307e-13 -2.16123e-12 -6.98506

-18.9635 -10.5866 -2.72375e-12
-10.5866 -0.540117 1.80271e-12
-2.72375e-12 1.80271e-12 -25.4277

-33.9256 23.9005 -2.69029e-12
23.9005 -12.0254 1.8631e-12
-2.69029e-12 1.8631e-12 -14.542

58.1622 -32.389 -6.82476e-12
-32.389 18.0909 3.3206e-12
-6.82476e-12 3.3206e-12 -10.1356

66.8668 10.7928 -1.40569e-12
10.7928 8.5106 3.35776e-12
-1.40569e-12 3.35776e-12 -5.08673

7.67274 -21.2093 2.28499e-12
-21.2093 88.4755 1.23634e-12
2.28499e-12 1.23634e-12 -11.8628

-33.9917 14.4269 -6.92039e-14
14.4269 20.2383 -7.50807e-13
-6.92039e-14 -7.50807e-13 -7.55057

8.47425 23.1455 -1.29733e-12
23.1455 -26.0763 -1.93179e-12
-1.29733e-12 -1.93179e-12 -11.3012

34.8715 42.2053 -4.84353e-12
42.2053 46.2038 -3.74811e-12
-4.84353e-12 -3.74811e-12 -14.4217

-4.39432 16.5046 5.21294e-12
16.5046 -35.5349 -7.50511e-13
5.21294e-12 -7.50511e-13 -73.2664

-5.98487 -4.1091 -3.35199e-12
-4.1091 57.9539 1.95873e-12
-3.35199e-12 1.95873e-12 -5.44503

-1.81947 -16.63 1.59139e-12
-16.63 -39.394 9.36629e-12
1.59139e-12 9.36629e-12 -74.0895

-3.33103 -27.3347 2.46914e-12
-27.3347 -30.029 3.03757e-12
2.46914e-12 3.03757e-12 -21.5527

8.96609 27.4256 -1.98774e-12
27.4256 -29.9983 2.18729e-12
-1.98774e-12 2.18729e-12 -11.2597

45.715 -24.4145 2.02978e-12
-24.4145 5.02112 -8.4821e-13
2.02978e-12 -8.4821e-13 -5.23947

10.0932 31.3285 -2.56388e-12
31.3285 47.1673 8.75152e-13
-2.56388e-12 8.75152e-13 -9.64317

14.2711 -10.7068 1.06226e-12
-10.7068 82.8483 1.44477e-13
1.06226e-12 1.44477e-13 -6.4483

-38.6342 21.9716 -9.03573e-13
21.9716 2.94097 -2.20416e-12
-9.03573e-13 -2.20416e-12 -8.57257

1.19342 16.7956 -3.19152e-13
16.7956 -25.7245 -1.5179e-12
-3.19152e-13 -1.5179e-12 -18.5669

-26.5417 15.156 -3.54738e-12
15.156 18.4495 4.403e-12
-3.54738e-12 4.403e-12 -5.712

43.6623 15.9561 3.28034e-13
15.9561 -7.29003 -4.52571e-12
3.28034e-13 -4.52571e-12 -4.07902

12.575 -21.4761 1.86103e-12
-21.4761 57.9613 4.69906e-12
1.86103e-12 4.69906e-12 -4.71663

66.0035 -29.3953 -3.90799e-13
-29.3953 18.6433 -2.78177e-12
-3.90799e-13 -2.78177e-12 -9.33677

-32.3831 -24.5747 1.6079e-12
-24.5747 -7.28309 -1.80744e-12
1.6079e-12 -1.80744e-12 -8.98027

-22.6693 27.4532 1.75504e-12
27.4532 -10.3528 2.74003e-12
1.75504e-12 2.74003e-12 -9.28776

-38.3523 23.1885 -3.57788e-12
23.1885 1.99055 -3.55271e-15
-3.57788e-12 -3.55271e-15 -8.52851

-51.5543 13.1686 2.05499e-12
13.1686 11.9254 -1.32398e-12
2.05499e-12 -1.32398e-12 -16.4674

23.4856 9.37291 1.40332e-13
9.37291 -29.4928 -2.06916e-12
1.40332e-13 -2.06916e-12 -5.32565

3.76583 -4.66571 9.63377e-13
-4.66571 79.4474 1.03976e-12
9.63377e-13 1.03976e-12 -9.53298

-44.938 -36.8311 1.46253e-12
-36.8311 -19.8282 1.72573e-12
1.46253e-12 1.72573e-12 -14.7727

-16.0836 27.4687 -4.17858e-12
27.4687 1.33901 -3.30225e-12
-4.17858e-12 -3.30225e-12 -6.91925

-5.01894 2.17052 -7.19573e-13
2.17052 82.6838 -4.53563e-12
-7.19573e-13 -4.53563e-12 -13.4325

69.053 34.6158 -2.66454e-12
34.6158 15.4962 -6.77384e-13
-2.66454e-12 -6.77384e-13 -10.7072

-31.3551 -22.9759 -1.19031e-12
-22.9759 -4.63366 6.61693e-13
-1.19031e-12 6.61693e-13 -8.53403

11.7431 5.73293 8.71303e-13
5.73293 -48.3377 1.98064e-13
8.71303e-13 1.98064e-13 -8.64489

43.0689 27.2084 6.65542e-13
27.2084 10.4498 -3.31883e-12
6.65542e-13 -3.31883e-12 -5.08409

-9.41171 12.7444 -2.228e-12
12.7444 -14.0411 1.32013e-12
-2.228e-12 1.32013e-12 -37.0326

70.3423 24.3344 4.23957e-13
24.3344 23.8052 3.56989e-12
4.23957e-13 3.56989e-12 -6.80079

-10.5827 -13.0539 2.08145e-12
-13.0539 -13.923 -3.97016e-12
2.08145e-12 -3.97016e-12 -37.3703

-4.3842 0.778724 4.07866e-12
0.778724 59.4038 2.78296e-13
4.07866e-12 2.78296e-13 -4.83391

38.3597 -2.23567 1.87583e-12
-2.23567 -23.8179 1.69394e-12
1.87583e-12 1.69394e-12 -5.83678

3.59282 -15.7659 3.5875e-12
-15.7659 -53.9676 -6.61989e-13
3.5875e-12 -6.61989e-13 -21.1231

-42.2787 24.3884 1.84272e-12
24.3884 -11.737 3.75803e-12
1.84272e-12 3.75803e-12 -11.171

-46.8129 -13.5355 -2.31387e-12
-13.5355 11.0663 2.0132e-12
-2.31387e-12 2.0132e-12 -12.356

5.80941 -7.99922 -2.84173e-12
-7.99922 -70.9641 6.69687e-13
-2.84173e-12 6.69687e-13 -14.8838

-49.5383 -22.2813 -7.8623e-12
-22.2813 3.7466 -2.93395e-12
-7.8623e-12 -2.93395e-12 -22.1031

-17.4581 -6.59908 1.54454e-12
-6.59908 -13.1153 -4.57356e-12
1.54454e-12 -4.57356e-12 -34.7746

-28.7309 -29.9087 1.96761e-12
-29.9087 -9.40018 4.6955e-13
1.96761e-12 4.6955e-13 -8.99953

15.6924 11.4554 3.66551e-12
11.4554 80.1895 3.21876e-12
3.66551e-12 3.21876e-12 -6.53195

42.2929 -28.1511 2.89901e-12
-28.1511 11.0488 1.01134e-12
2.89901e-12 1.01134e-12 -5.04737

-47.1701 -13.77 1.93297e-12
-13.77 4.19634 -5.55704e-13
1.93297e-12 -5.55704e-13 -29.2966

2.96433 0.505169 2.69266e-12
0.505169 -56.8135 3.67639e-12
2.69266e-12 3.67639e-12 -11.0088

-39.3383 -21.5238 -7.588e-13
-21.5238 -8.85654 3.43903e-12
-7.588e-13 3.43903e-12 -14.7759

-40.1957 25.6985 1.23398e-12
25.6985 -14.6923 3.95539e-12
1.23398e-12 3.95539e-12 -11.3143

32.2617 -31.4696 -1.62004e-12
-31.4696 38.4318 -3.35139e-12
-1.62004e-12 -3.35139e-12 -4.6508

-31.4679 -7.08196 5.1729e-13
-7.08196 1.70211 -3.23859e-12
5.1729e-13 -3.23859e-12 -40.9834

36.6325 -33.0817 -1.70175e-12
-33.0817 72.0351 2.02742e-12
-1.70175e-12 2.02742e-12 -7.14533

16.6132 -19.1817 1.79057e-12
-19.1817 -25.8745 1.92498e-12
1.79057e-12 1.92498e-12 -7.13696

1.5022 1.97175 -5.62839e-12
1.97175 -51.3916 2.72552e-12
-5.62839e-12 2.72552e-12 -15.3757

-12.8718 17.874 6.03428e-12
17.874 -16.9565 -1.55431e-12
6.03428e-12 -1.55431e-12 -41.051

10.7108 20.1862 3.14948e-12
20.1862 59.4599 6.12606e-12
3.14948e-12 6.12606e-12 -4.35935

4.31658 27.2131 2.05643e-12
27.2131 -16.2253 -9.94464e-13
2.05643e-12 -9.94464e-13 -8.12741

30.9059 -24.5149 -3.8843e-13
-24.5149 -8.13703 -8.48506e-13
-3.8843e-13 -8.48506e-13 -4.87635

-37.7913 -17.8396 -1.92637e-12
-17.8396 2.40064 -2.8028e-12
-1.92637e-12 -2.8028e-12 -9.86805

55.5189 35.0735 -3.98378e-12
35.0735 42.3486 -9.21337e-13
-3.98378e-12 -9.21337e-13 -6.63746

-40.0174 -21.8316 2.25775e-12
-21.8316 2.53659 6.21725e-13
2.25775e-12 6.21725e-13 -9.39758

2.96528 30.8526 2.65269e-12
30.8526 -17.3924 -4.89446e-12
2.65269e-12 -4.89446e-12 -9.08168

18.5374 -25.2463 4.89682e-13
-25.2463 -19.4227 1.01844e-13
4.89682e-13 1.01844e-13 -6.34646

-15.6569 -25.1292 3.99976e-12
-25.1292 5.895 8.43769e-13
3.99976e-12 8.43769e-13 -5.77982

42.7215 -18.691 2.46203e-12
-18.691 -9.17102 -3.6587e-12
2.46203e-12 -3.6587e-12 -5.37306

27.4329 -18.8522 -1.54129e-12
-18.8522 -20.374 3.18797e-12
-1.54129e-12 3.18797e-12 -5.69406

-41.3944 -25.3378 -6.33863e-13
-25.3378 -14.9647 4.62334e-12
-6.33863e-13 4.62334e-12 -11.5704

29.782 35.9752 2.18729e-12
35.9752 25.2275 1.56675e-12
2.18729e-12 1.56675e-12 -8.64728

-28.5218 15.3787 2.59052e-13
15.3787 18.5189 1.63425e-13
2.59052e-13 1.63425e-13 -5.87793

-23.11 26.4243 -2.01942e-12
26.4243 -12.5488 -3.7188e-12
-2.01942e-12 -3.7188e-12 -9.96165

-42.0985 25.4736 -4.79315e-12
25.4736 -11.5926 1.0707e-12
-4.79315e-12 1.0707e-12 -10.9963

-37.2913 11.623 8.28185e-13
11.623 11.8441 -7.17056e-12
8.28185e-13 -7.17056e-12 -9.08361

64.3997 -8.22828 3.67232e-12
-8.22828 3.19407 6.24774e-12
3.67232e-12 6.24774e-12 -4.2536

8.73129 18.6095 -3.30758e-12
18.6095 59.2256 7.66202e-13
-3.30758e-12 7.66202e-13 -4.16505

-25.6183 -24.3825 5.01525e-13
-24.3825 0.457739 -1.42345e-12
5.01525e-13 -1.42345e-12 -7.21983

-1.14455 25.6695 -9.42653e-13
25.6695 13.752 2.91145e-12
-9.42653e-13 2.91145e-12 -4.08691

32.3801 -35.6351 -5.66658e-12
-35.6351 21.6998 4.36451e-12
-5.66658e-12 4.36451e-12 -8.48906

59.5426 38.3226 1.05279e-12
38.3226 17.848 -2.27966e-12
1.05279e-12 -2.27966e-12 -13.7235

12.1233 -33.3165 9.4739e-14
-33.3165 42.9167 2.65743e-12
9.4739e-14 2.65743e-12 -9.54555

30.5522 -31.1646 -3.34666e-12
-31.1646 36.8157 2.56861e-12
-3.34666e-12 2.56861e-12 -4.40816

11.7689 -6.83859 2.02297e-12
-6.83859 -48.8395 -3.86631e-12
2.02297e-12 -3.86631e-12 -8.77366

25.2745 30.3466 6.28949e-12
30.3466 41.0918 -1.58333e-12
6.28949e-12 -1.58333e-12 -4.45869

62.6884 13.2967 5.64289e-12
13.2967 5.22496 -3.35139e-12
5.64289e-12 -3.35139e-12 -4.30814

-7.03083 13.381 1.48637e-12
13.381 61.3504 1.10253e-12
1.48637e-12 1.10253e-12 -8.69791

11.7275 -22.344 9.79957e-13
-22.344 55.7683 4.87906e-12
9.79957e-13 4.87906e-12 -4.30414

-47.26 -1.09265 2.48253e-12
-1.09265 12.4087 -3.7866e-12
2.48253e-12 -3.7866e-12 -22.1603

-5.92396 2.24704 -2.45996e-12
2.24704 59.01 2.14347e-13
-2.45996e-12 2.14347e-13 -5.2657

6.26594 31.0943 2.09018e-13
31.0943 47.8693 9.6397e-13
2.09018e-13 9.6397e-13 -9.66335

-39.7271 12.109 1.50793e-12
12.109 12.844 4.05601e-13
1.50793e-12 4.05601e-13 -9.31592

40.7409 -27.652 1.91254e-12
-27.652 8.35512 -1.30621e-12
1.91254e-12 -1.30621e-12 -5.64527

7.53799 20.5571 2.76223e-13
20.5571 -47.4675 -7.1528e-13
2.76223e-13 -7.1528e-13 -16.4828

-3.42261 26.2704 4.04595e-12
26.2704 -31.4855 2.4567e-12
4.04595e-12 2.4567e-12 -22.2507

15.7769 -18.5697 7.62057e-13
-18.5697 -30.0176 2.83625e-12
7.62057e-13 2.83625e-12 -8.18655

4.42732 -1.80385 3.65811e-12
-1.80385 -34.1329 -5.06587e-12
3.65811e-12 -5.06587e-12 -24.4366

-14.342 -31.8135 -1.4723e-12
-31.8135 -11.9328 4.395e-12
-1.4723e-12 4.395e-12 -9.05308

56.2237 23.3315 -1.02437e-12
23.3315 0.812953 -7.34227e-14
-1.02437e-12 -7.34227e-14 -8.29084

-27.8293 30.1627 -2.42769e-12
30.1627 -9.2368 -2.51562e-12
-2.42769e-12 -2.51562e-12 -8.8038

-27.005 29.2066 5.92119e-12
29.2066 -9.20202 -1.21088e-13
5.92119e-12 -1.21088e-13 -8.68111

28.6292 30.6658 5.22486e-12
30.6658 40.4085 3.27442e-12
5.22486e-12 3.27442e-12 -4.45162

0.34303 27.0866 1.33049e-12
27.0866 -19.8496 -1.70649e-12
1.33049e-12 -1.70649e-12 -11.7791

64.515 3.52571 7.06161e-12
3.52571 -11.8315 9.34031e-13
7.06161e-12 9.34031e-13 -10.0212

-14.9011 31.8173 1.93919e-12
31.8173 -20.799 -2.79747e-12
1.93919e-12 -2.79747e-12 -12.4496

-37.9479 -12.5992 2.55684e-12
-12.5992 8.18035 8.8581e-13
2.55684e-12 8.8581e-13 -14.0243

-0.474574 24.2773 3.89407e-12
24.2773 -30.0005 -2.39571e-12
3.89407e-12 -2.39571e-12 -20.77

-23.7288 -29.5795 6.90707e-13
-29.5795 -11.9351 -9.17192e-13
6.90707e-13 -9.17192e-13 -8.84667

-38.1525 -4.89727 -8.66122e-13
-4.89727 18.847 1.02377e-12
-8.66122e-13 1.02377e-12 -11.7321

69.9523 -24.5602 -6.40673e-12
-24.5602 18.0282 -1.77044e-12
-6.40673e-12 -1.77044e-12 -7.04587

39.9846 29.6979 3.95654e-12
29.6979 13.4778 2.44427e-12
3.95654e-12 2.44427e-12 -5.21823

-4.3007 14.6989 -1.65986e-12
14.6989 60.5775 7.59097e-13
-1.65986e-12 7.59097e-13 -8.40376

1.6112 -1.13934 -9.98757e-13
-1.13934 -56.1248 -8.4414e-13
-9.98757e-13 -8.4414e-13 -11.2126

9.61415 0.00215214 1.72691e-12
0.00215214 -44.7588 2.02124e-12
1.72691e-12 2.02124e-12 -8.44217

-31.0823 23.1259 -2.26397e-12
23.1259 -4.33841 7.18536e-13
-2.26397e-12 7.18536e-13 -8.46259

-34.7618 23.8717 2.66986e-12
23.8717 -13.1942 -1.2878e-12
2.66986e-12 -1.2878e-12 -14.8147

-43.38 -24.381 -1.54871e-12
-24.381 -12.6138 -3.14534e-12
-1.54871e-12 -3.14534e-12 -11.472

-39.063 -0.673684 4.71919e-13
-0.673684 21.0463 3.60778e-12
4.71919e-13 3.60778e-12 -10.498

-40.8074 25.5912 1.24138e-12
25.5912 -13.2236 -4.85412e-12
1.24138e-12 -4.85412e-12 -11.1757

32.3235 -10.3094 -2.60532e-13
-10.3094 -25.1605 5.32537e-12
-2.60532e-13 5.32537e-12 -6.01866

8.70422 -32.8389 -3.48758e-12
-32.8389 22.7977 9.23706e-14
-3.48758e-12 9.23706e-14 -6.99595

2.39632 -2.30236 -8.1742e-13
-2.30236 -49.9616 4.99778e-12
-8.1742e-13 4.99778e-12 -14.7743

36.7477 -34.5139 7.57912e-14
-34.5139 24.48 -2.69059e-12
7.57912e-14 -2.69059e-12 -7.71184

-38.2956 19.0858 1.53936e-12
19.0858 -7.093 3.09353e-12
1.53936e-12 3.09353e-12 -14.4511

7.87043 -26.4795 -5.0863e-13
-26.4795 -27.9981 2.19143e-12
-5.0863e-13 2.19143e-12 -10.9715

63.9541 -9.69188 -3.1631e-12
-9.69188 5.67431 -1.05101e-13
-3.1631e-12 -1.05101e-13 -5.0749

6.03854 -23.1931 -8.73435e-12
-23.1931 -35.4693 2.92359e-12
-8.73435e-12 2.92359e-12 -17.7363

0.141498 2.35848 -2.96341e-12
2.35848 -56.1752 -5.91971e-13
-2.96341e-12 -5.91971e-13 -11.5493

-4.06283 -23.3232 -1.7278e-12
-23.3232 -23.4123 -1.86207e-12
-1.7278e-12 -1.86207e-12 -16.72

11.0379 -25.8605 6.341e-12
-25.8605 -29.4895 -3.26702e-12
6.341e-12 -3.26702e-12 -9.73662

10.2007 -8.54742 2.80546e-12
-8.54742 -43.4943 -2.97022e-12
2.80546e-12 -2.97022e-12 -9.28526

-35.4172 -23.0689 2.11505e-12
-23.0689 -12.6476 1.07174e-12
2.11505e-12 1.07174e-12 -15.1046

23.6644 -31.3468 -2.25005e-14
-31.3468 5.70959 9.50943e-13
-2.25005e-14 9.50943e-13 -5.88226

11.0587 -24.5898 1.18601e-12
-24.5898 -27.4975 -1.55106e-12
1.18601e-12 -1.55106e-12 -10.0508

46.6471 10.8662 4.39589e-12
10.8662 -16.1239 -4.22506e-12
4.39589e-12 -4.22506e-12 -6.80388

-14.1865 26.3418 1.39355e-12
26.3418 -15.643 1.25455e-12
1.39355e-12 1.25455e-12 -14.1205

-45.2499 -37.6106 1.47734e-12
-37.6106 -20.6113 5.76424e-12
1.47734e-12 5.76424e-12 -14.921

-43.7069 37.2631 9.18969e-13
37.2631 -21.2649 -4.07356e-12
9.18969e-13 -4.07356e-12 -14.7714

-61.1815 -28.572 1.2027e-12
-28.572 -7.49731 1.06493e-12
1.2027e-12 1.06493e-12 -15.2015

-58.4129 27.0631 -2.64973e-14
27.0631 -6.27187 -7.25642e-13
-2.64973e-14 -7.25642e-13 -14.4802

5.6001 -8.52677 -2.19839e-12
-8.52677 -71.0606 2.32407e-13
-2.19839e-12 2.32407e-13 -14.7117

4.39712 9.27272 -1.13835e-12
9.27272 -68.8296 -2.2767e-12
-1.13835e-12 -2.2767e-12 -14.4397

9.02369 -9.8474 1.89093e-12
-9.8474 -40.8941 -6.04405e-13
1.89093e-12 -6.04405e-13 -9.61542

-24.3353 32.1133 9.9476e-14
32.1133 -24.8077 -1.91931e-12
9.9476e-14 -1.91931e-12 -21.1442

-25.5223 -32.8511 1.60938e-12
-32.8511 -25.0939 -4.31331e-13
1.60938e-12 -4.31331e-13 -21.4683

-53.9153 16.0678 2.11535e-12
16.0678 3.39993 3.70163e-12
2.11535e-12 3.70163e-12 -21.4017

-52.4166 -15.8004 -1.86888e-12
-15.8004 3.29538 7.42517e-13
-1.86888e-12 7.42517e-13 -21.0751

6.11007 -3.74999 -2.29002e-12
-3.74999 -43.9237 1.72159e-12
-2.29002e-12 1.72159e-12 -25.7622

6.916 3.61268 -1.20378e-12
3.61268 -46.3468 1.2245e-12
-1.20378e-12 1.2245e-12 -26.1385

-15.6321 9.83845 -4.22988e-12
9.83845 46.2663 5.29354e-13
-4.22988e-12 5.29354e-13 -5.85202

-22.9207 -24.7762 -8.92323e-13
-24.7762 -14.5536 7.48734e-13
-8.92323e-13 7.48734e-13 -10.3332

-56.6012 -36.3858 -5.23337e-12
-36.3858 -14.5322 -2.02668e-12
-5.23337e-12 -2.02668e-12 -13.4399

33.3608 -4.66476 -3.58942e-12
-4.66476 -19.8525 1.25788e-12
-3.58942e-12 1.25788e-12 -3.94936

3.43256 -16.6924 -2.84972e-12
-16.6924 -52.6255 1.77014e-12
-2.84972e-12 1.77014e-12 -21.5315

3.67372 16.1734 -1.37638e-12
16.1734 -51.8812 2.28439e-12
-1.37638e-12 2.28439e-12 -21.4047

6.55517 0.121856 -8.94988e-13
0.121856 -76.7516 -1.00836e-12
-8.94988e-13 -1.00836e-12 -13.3068

-7.57475 23.3793 9.53904e-13
23.3793 39.9386 2.23347e-12
9.53904e-13 2.23347e-12 -6.88927

-56.8868 36.1698 1.62655e-12
36.1698 -14.0109 1.31362e-12
1.62655e-12 1.31362e-12 -13.3916

-39.7956 -23.3965 -2.74107e-12
-23.3965 2.56106 -2.24798e-12
-2.74107e-12 -2.24798e-12 -8.80442

37.119 23.3565 9.04758e-13
23.3565 -8.61816 -2.40341e-12
9.04758e-13 -2.40341e-12 -5.76272

4.7333 23.8592 -3.55271e-13
23.8592 -38.2265 -1.94481e-12
-3.55271e-13 -1.94481e-12 -18.9857

24.0136 -31.3186 9.6397e-13
-31.3186 6.40565 -1.7355e-12
9.6397e-13 -1.7355e-12 -5.6522

2.43032 -3.2324 -2.24339e-12
-3.2324 -48.3707 -6.83305e-13
-2.24339e-12 -6.83305e-13 -14.7443

-60.4544 -34.1596 -2.94897e-12
-34.1596 -14.3498 7.90331e-13
-2.94897e-12 7.90331e-13 -14.0335

-17.4591 8.32126 2.80973e-12
8.32126 45.6955 2.79006e-12
2.80973e-12 2.79006e-12 -5.78513

-9.4743 21.8153 -2.42858e-12
21.8153 40.4281 2.8398e-12
-2.42858e-12 2.8398e-12 -6.6578

58.6097 35.7815 -4.14483e-13
35.7815 37.0904 -3.73982e-12
-4.14483e-13 -3.73982e-12 -6.91721

70.4925 1.57904 -3.52311e-12
1.57904 -5.54764 -1.26003e-12
-3.52311e-12 -1.26003e-12 -10.3764

-30.7591 -22.8055 1.78524e-13
-22.8055 -13.358 -8.21732e-13
1.78524e-13 -8.21732e-13 -14.4677

32.8432 31.1888 -1.95044e-12
31.1888 69.802 5.26749e-12
-1.95044e-12 5.26749e-12 -6.68035

-19.3796 23.6123 -2.66305e-12
23.6123 7.68652 -3.79607e-12
-2.66305e-12 -3.79607e-12 -5.51748

47.6415 -5.35042 -8.04098e-13
-5.35042 -17.4401 5.35616e-12
-8.04098e-13 5.35616e-12 -6.82582

33.2215 11.2178 6.70279e-13
11.2178 -23.6438 -7.11372e-12
6.70279e-13 -7.11372e-12 -6.0184

6.25372 0.42987 7.84262e-13
0.42987 -77.5487 2.39465e-12
7.84262e-13 2.39465e-12 -13.4525

-58.9326 -29.0297 2.96674e-12
-29.0297 -6.28847 1.16263e-12
2.96674e-12 1.16263e-12 -14.6991

-28.331 -6.31754 -4.39108e-12
-6.31754 -11.3539 -1.25618e-12
-4.39108e-12 -1.25618e-12 -51.5762

-44.6964 37.4093 -5.27282e-13
37.4093 -20.8104 3.71651e-12
-5.27282e-13 3.71651e-12 -14.7755

93.8019 1.6635 2.20505e-12
1.6635 16.6548 7.38668e-14
2.20505e-12 7.38668e-14 -6.04377

10.0342 -32.7925 -2.01913e-13
-32.7925 21.3107 7.94032e-13
-2.01913e-13 7.94032e-13 -6.81224

-56.9336 36.6112 -1.95755e-12
36.6112 -14.5707 4.02167e-12
-1.95755e-12 4.02167e-12 -13.5078

-35.0847 -11.1346 8.57925e-13
-11.1346 19.1775 -1.15522e-12
8.57925e-13 -1.15522e-12 -8.32014

-5.48237 -25.519 4.0649e-12
-25.519 37.3528 8.15348e-12
4.0649e-12 8.15348e-12 -6.99104

-58.4493 28.8287 2.7595e-12
28.8287 -6.27185 4.93946e-12
2.7595e-12 4.93946e-12 -14.6162

28.4967 -26.1459 2.31282e-12
-26.1459 -4.9163 8.52059e-13
2.31282e-12 8.52059e-13 -4.70132

-21.1657 10.4843 -1.04805e-12
10.4843 -18.5584 6.32161e-12
-1.04805e-12 6.32161e-12 -51.6717

3.42951 30.8773 5.48894e-12
30.8773 27.1634 2.05347e-12
5.48894e-12 2.05347e-12 -6.73705

6.13967 8.12588 -1.95903e-12
8.12588 -72.2938 9.63082e-13
-1.95903e-12 9.63082e-13 -14.9862

-11.5475 30.1914 -5.01229e-13
30.1914 -20.603 3.08109e-12
-5.01229e-13 3.08109e-12 -11.5514

-30.8008 23.3339 -3.18812e-12
23.3339 -5.10085 -5.28407e-12
-3.18812e-12 -5.28407e-12 -8.46857

-25.8632 -32.4858 9.42653e-13
-32.4858 -24.1106 1.11191e-12
9.42653e-13 1.11191e-12 -21.5576

9.20394 -23.1926 4.28694e-13
-23.1926 -27.9247 -2.09817e-12
4.28694e-13 -2.09817e-12 -11.4279

-37.6626 10.4685 2.35745e-12
10.4685 8.92905 4.7559e-12
2.35745e-12 4.7559e-12 -25.3281

-23.0439 -23.4359 3.75611e-12
-23.4359 4.95177 -5.18696e-13
3.75611e-12 -5.18696e-13 -6.26723

88.8144 -9.70953 5.48539e-12
-9.70953 10.806 3.36953e-12
5.48539e-12 3.36953e-12 -10.0316

84.0543 -14.2792 2.42769e-12
-14.2792 2.81034 -4.35207e-12
2.42769e-12 -4.35207e-12 -13.1978

5.88599 16.5315 1.46549e-12
16.5315 -33.9323 1.15966e-12
1.46549e-12 1.15966e-12 -22.3742

-16.4257 22.5049 -6.56364e-13
22.5049 16.2278 9.29627e-14
-6.56364e-13 9.29627e-14 -5.08976

-3.914 29.1661 -2.71309e-12
29.1661 -12.2332 5.66599e-12
-2.71309e-12 5.66599e-12 -8.39996

50.9977 0.688749 9.88839e-13
0.688749 -6.53688 -1.1266e-13
9.88839e-13 -1.1266e-13 -3.63808

-48.1429 6.57011 -3.54555e-12
6.57011 14.7853 2.56387e-13
-3.54555e-12 2.56387e-13 -18.9523

10.1157 16.5406 -2.29091e-12
16.5406 -36.0824 -4.162e-12
-2.29091e-12 -4.162e-12 -9.1385

-4.50833 -25.7655 6.2812e-12
-25.7655 35.5576 -4.36865e-12
6.2812e-12 -4.36865e-12 -6.75104

-39.1956 -2.57164 -3.16066e-12
-2.57164 21.5046 3.32001e-12
-3.16066e-12 3.32001e-12 -10.672

-7.99543 13.3676 9.93576e-13
13.3676 44.4088 -9.80549e-13
9.93576e-13 -9.80549e-13 -3.94818

3.73381 -29.7157 -2.07301e-12
-29.7157 -17.3687 -9.96832e-13
-2.07301e-12 -9.96832e-13 -8.92386

21.4254 -29.9523 6.31791e-13
-29.9523 14.7552 8.65086e-13
6.31791e-13 8.65086e-13 -3.92174

6.87816 31.6282 -1.75978e-12
31.6282 25.4021 5.50078e-13
-1.75978e-12 5.50078e-13 -6.83215

2.78397 -15.0189 7.22918e-12
-15.0189 -39.2599 4.37006e-12
7.22918e-12 4.37006e-12 -63.2942

-46.1591 2.0423 1.44188e-12
2.0423 11.4607 -1.73313e-12
1.44188e-12 -1.73313e-12 -22.7548

-55.4403 20.298 1.04376e-12
20.298 3.09356 2.46085e-12
1.04376e-12 2.46085e-12 -22.9144

5.9145 15.4371 6.75016e-13
15.4371 -58.8141 7.96992e-13
6.75016e-13 7.96992e-13 -23.0344

-18.9236 -26.191 -7.69755e-14
-26.191 -12.9153 -1.21799e-12
-7.69755e-14 -1.21799e-12 -9.65611

41.3493 17.9599 1.02318e-12
17.9599 -6.2757 -2.0289e-12
1.02318e-12 -2.0289e-12 -3.8653

-44.6806 -5.2923 1.56616e-12
-5.2923 4.53854 5.62306e-12
1.56616e-12 5.62306e-12 -39.137

7.49958 -18.9877 2.28262e-13
-18.9877 -39.8962 3.5391e-12
2.28262e-13 3.5391e-12 -11.6621

30.2925 -15.6006 3.5835e-12
-15.6006 -20.5141 -4.22329e-13
3.5835e-12 -4.22329e-13 -4.80931

-9.64334 11.6053 1.07854e-12
11.6053 44.3226 2.22637e-12
1.07854e-12 2.22637e-12 -3.86298

8.3315 -25.7386 2.24295e-12
-25.7386 32.9937 3.64035e-12
2.24295e-12 3.64035e-12 -3.63677

-10.2433 -25.274 -2.75217e-12
-25.274 -19.1032 -1.71182e-12
-2.75217e-12 -1.71182e-12 -23.1726

17.0041 31.9647 -2.61598e-12
31.9647 11.1954 6.33567e-13
-2.61598e-12 6.33567e-13 -5.75042

-1.06884 -25.1338 3.01092e-12
-25.1338 -30.7641 1.28845e-12
3.01092e-12 1.28845e-12 -20.8903

48.0695 2.59773 9.2489e-13
2.59773 -8.41487 8.57832e-14
9.2489e-13 8.57832e-14 -3.53539

6.55123 -28.9351 -3.35139e-12
-28.9351 72.0592 -6.30725e-12
-3.35139e-12 -6.30725e-12 -14.5526

21.7912 -29.2356 -2.79066e-12
-29.2356 13.9626 9.68707e-13
-2.79066e-12 9.68707e-13 -3.93413

35.3534 32.164 -2.61835e-12
32.164 74.1426 -8.14282e-12
-2.61835e-12 -8.14282e-12 -5.44244

-45.2862 -11.8759 1.49525e-12
-11.8759 13.9213 -2.17071e-12
1.49525e-12 -2.17071e-12 -15.3276

-14.4264 -13.8236 -5.2102e-12
-13.8236 43.3856 9.71075e-13
-5.2102e-12 9.71075e-13 -5.67673

-19.2383 -23.984 -3.08583e-12
-23.984 -19.829 -3.21891e-12
-3.08583e-12 -3.21891e-12 -64.2357

2.43501 23.7748 2.825e-12
23.7748 36.009 2.78651e-12
2.825e-12 2.78651e-12 -3.71487

-15.1833 -32.7265 2.84336e-12
-32.7265 -21.1214 3.41949e-13
2.84336e-12 3.41949e-13 -14.3147

-14.5712 -11.9651 -1.09616e-12
-11.9651 45.5342 -8.52651e-14
-1.09616e-12 -8.52651e-14 -5.74286

7.83515 -19.1165 7.6709e-13
-19.1165 -43.1231 -1.04835e-12
7.6709e-13 -1.04835e-12 -12.634

6.54302 23.8811 5.79092e-13
23.8811 35.1735 1.61885e-12
5.79092e-13 1.61885e-12 -3.44575

23.1746 -4.97584 3.66226e-12
-4.97584 -30.6807 -2.33147e-15
3.66226e-12 -2.33147e-15 -5.3684

36.9738 -30.3463 -3.39166e-12
-30.3463 122.641 -4.718e-12
-3.39166e-12 -4.718e-12 -6.24004

-26.8741 21.0165 -1.95666e-12
21.0165 8.43373 -5.28762e-13
-1.95666e-12 -5.28762e-13 -7.13439

40.3412 -19.3263 2.91086e-12
-19.3263 -11.3778 -1.70027e-12
2.91086e-12 -1.70027e-12 -5.72993

6.52578 -21.4455 2.34242e-12
-21.4455 -45.5567 -1.13924e-12
2.34242e-12 -1.13924e-12 -24.9694

20.7047 31.7591 9.01205e-13
31.7591 9.55537 3.91983e-12
9.01205e-13 3.91983e-12 -5.80994

13.9181 -29.9755 -6.9574e-13
-29.9755 -7.60968 -9.30219e-13
-6.9574e-13 -9.30219e-13 -5.94838

6.75548 20.8863 1.57148e-12
20.8863 -27.7955 -2.44249e-12
1.57148e-12 -2.44249e-12 -11.1109

-38.2752 -28.0764 -3.36708e-12
-28.0764 -14.0389 2.12482e-12
-3.36708e-12 2.12482e-12 -11.0643

8.64399 -26.2296 -2.35249e-12
-26.2296 31.1724 -4.45273e-12
-2.35249e-12 -4.45273e-12 -3.63885

15.3301 28.9857 -5.49842e-12
28.9857 19.1536 3.6818e-12
-5.49842e-12 3.6818e-12 -3.88675

28.6414 26.195 -2.58045e-12
26.195 -5.6375 4.77011e-12
-2.58045e-12 4.77011e-12 -4.80596

7.91358 -14.612 3.49409e-12
-14.612 -36.8799 -3.51127e-13
3.49409e-12 -3.51127e-13 -13.9927

-6.84587 -16.6205 6.58673e-12
-16.6205 41.3438 -3.45916e-12
6.58673e-12 -3.45916e-12 -3.9632

17.4409 -17.5691 1.76451e-13
-17.5691 -31.0032 1.47497e-12
1.76451e-13 1.47497e-12 -7.10879

19.8416 16.9105 6.57489e-12
16.9105 -31.6698 3.15215e-12
6.57489e-12 3.15215e-12 -7.33849

-33.682 -9.38463 1.51575e-12
-9.38463 8.75663 -4.16674e-12
1.51575e-12 -4.16674e-12 -23.99

43.435 -13.4319 3.64745e-12
-13.4319 -8.37367 1.98345e-12
3.64745e-12 1.98345e-12 -3.80791

-19.3845 0.594362 3.10596e-12
0.594362 43.1484 -2.42295e-12
3.10596e-12 -2.42295e-12 -4.77938

28.0573 18.5569 2.59703e-12
18.5569 -18.2041 -5.91823e-13
2.59703e-12 -5.91823e-13 -4.7537

25.5291 27.6079 7.1303e-12
27.6079 -3.77944 -3.06037e-12
7.1303e-12 -3.06037e-12 -4.7751

-6.71972 -15.6889 5.1014e-12
-15.6889 43.8018 -8.17124e-14
5.1014e-12 -8.17124e-14 -3.85166

-19.9125 -1.20225 6.47075e-12
-1.20225 42.1308 -1.63306e-12
6.47075e-12 -1.63306e-12 -4.69097

-5.47334 29.1348 -2.3744e-13
29.1348 -23.6496 3.01981e-13
-2.3744e-13 3.01981e-13 -16.7974

-37.2775 -10.9234 -6.07958e-13
-10.9234 21.6798 -1.12266e-12
-6.07958e-13 -1.12266e-12 -7.83348

27.1439 -26.7193 -2.76105e-12
-26.7193 -5.53441 -2.47802e-12
-2.76105e-12 -2.47802e-12 -4.94815

40.7218 21.336 -1.47082e-12
21.336 -8.37498 -1.06641e-12
-1.47082e-12 -1.06641e-12 -5.47136

12.3781 23.6666 8.5502e-13
23.6666 -27.131 -1.64905e-12
8.5502e-13 -1.64905e-12 -8.67

-37.8004 5.47199 -1.47586e-13
5.47199 23.3115 -5.50671e-14
-1.47586e-13 -5.50671e-14 -8.60043

18.5922 29.0702 5.43151e-12
29.0702 17.3773 -1.06463e-12
5.43151e-12 -1.06463e-12 -3.9508

-9.98734 22.9641 -1.04805e-12
22.9641 -14.9164 4.42653e-12
-1.04805e-12 4.42653e-12 -24.0233

68.3267 -59.6992 -1.71478e-12
-59.6992 36.3404 -3.68061e-12
-1.71478e-12 -3.68061e-12 -23.0091

17.5301 -25.051 2.50348e-12
-25.051 -17.9958 -2.86793e-12
2.50348e-12 -2.86793e-12 -6.42138

10.0566 7.07096 -6.98967e-12
7.07096 82.5603 1.89715e-12
-6.98967e-12 1.89715e-12 -7.16659

11.9189 -28.8931 3.02928e-12
-28.8931 -3.88389 -3.15895e-12
3.02928e-12 -3.15895e-12 -5.16971

-66.9424 -52.7059 3.61548e-12
-52.7059 143.272 -2.89428e-12
3.61548e-12 -2.89428e-12 -49.6635

-68.3859 51.4565 8.28967e-14
51.4565 142.559 -9.09495e-13
8.28967e-14 -9.09495e-13 -49.8526

19.58 117.165 -3.80377e-12
117.165 64.1435 1.42109e-14
-3.80377e-12 1.42109e-14 -48.3538

20.539 -117.108 9.49759e-13
-117.108 61.04 -1.38319e-12
9.49759e-13 -1.38319e-12 -48.7186

157.766 -1.36353 1.89478e-12
-1.36353 -79.1858 -1.40906e-14
1.89478e-12 -1.40906e-14 -48.9057

110.344 -91.1341 -3.5764e-12
-91.1341 -36.6847 1.87583e-12
-3.5764e-12 1.87583e-12 -50.3004

110.398 91.6621 -1.27898e-12
91.6621 -36.4949 -2.69059e-12
-1.27898e-12 -2.69059e-12 -50.1732

7.84529 14.332 8.18604e-13
14.332 -42.683 -2.43983e-12
8.18604e-13 -2.43983e-12 -15.0804

-11.7891 25.535 3.84137e-12
25.535 -27.4052 1.68162e-13
3.84137e-12 1.68162e-13 -35.1315

12.4383 6.60696 -2.83092e-12
6.60696 -40.5388 -1.71448e-12
-2.83092e-12 -1.71448e-12 -8.25651

26.2553 21.7876 2.07597e-12
21.7876 -19.5338 2.367e-12
2.07597e-12 2.367e-12 -5.85497

-21.2362 17.7472 -3.50668e-12
17.7472 29.8696 -1.82373e-12
-3.50668e-12 -1.82373e-12 -6.16669

22.5301 28.9028 3.14593e-12
28.9028 -0.778355 -7.79229e-13
3.14593e-12 -7.79229e-13 -4.73476

4.05358 -29.6659 1.45543e-12
-29.6659 -17.4685 1.33523e-13
1.45543e-12 1.33523e-13 -8.50758

25.9955 28.0321 -1.43411e-12
28.0321 -2.30489 3.93996e-12
-1.43411e-12 3.93996e-12 -4.73513

-19.353 -2.84197 -3.36649e-12
-2.84197 43.0743 -9.73444e-13
-3.36649e-12 -9.73444e-13 -4.77395

-13.4094 -26.0959 1.75326e-12
-26.0959 -25.839 1.57104e-12
1.75326e-12 1.57104e-12 -35.5144

-19.848 -4.86345 -1.72247e-12
-4.86345 41.7791 -1.69701e-12
-1.72247e-12 -1.69701e-12 -4.74786

-1.82806 23.0181 1.55846e-12
23.0181 -24.3776 -9.77588e-13
1.55846e-12 -9.77588e-13 -16.1501

44.986 26.8752 2.3815e-12
26.8752 8.10882 -3.5764e-13
2.3815e-12 -3.5764e-13 -5.3723

-52.5042 -13.2164 -8.54132e-14
-13.2164 0.14957 -3.54827e-12
-8.54132e-14 -3.54827e-12 -20.6163

20.2809 13.7296 5.05077e-13
13.7296 -31.1474 8.11499e-13
5.05077e-13 8.11499e-13 -7.04713

13.6998 -29.9915 3.92575e-12
-29.9915 -6.69528 -8.93211e-13
3.92575e-12 -8.93211e-13 -5.83933

29.6322 -24.7169 -5.77908e-13
-24.7169 -7.87821 -4.90274e-13
-5.77908e-13 -4.90274e-13 -4.82911

5.76295 -16.0768 3.33245e-12
-16.0768 -32.3343 1.22746e-12
3.33245e-12 1.22746e-12 -22.2536

12.6273 27.9319 -7.57912e-13
27.9319 -13.643 -5.23285e-12
-7.57912e-13 -5.23285e-12 -6.42335

23.309 23.9807 1.27306e-13
23.9807 -17.9481 -1.63602e-12
1.27306e-13 -1.63602e-12 -5.96647

-31.0827 -2.79274 1.77036e-12
-2.79274 30.133 3.23534e-12
1.77036e-12 3.23534e-12 -6.40223

-28.6358 5.87387 7.94576e-12
5.87387 33.323 -1.24523e-12
7.94576e-12 -1.24523e-12 -6.06345

34.5509 2.64711 -7.85742e-13
2.64711 -26.1906 -8.18086e-13
-7.85742e-13 -8.18086e-13 -6.1465

50.6561 -7.29091 4.23128e-12
-7.29091 -14.0881 7.74492e-13
4.23128e-12 7.74492e-13 -6.7824

11.0399 30.4888 -3.9897e-12
30.4888 -4.79124 -3.05356e-12
-3.9897e-12 -3.05356e-12 -5.97033

17.4668 -26.1587 -1.7728e-12
-26.1587 -17.4588 -2.41881e-12
-1.7728e-12 -2.41881e-12 -6.35551

-0.083331 -21.2549 -4.44741e-12
-21.2549 -27.9582 1.70175e-12
-4.44741e-12 1.70175e-12 -17.1663

4.9366 -31.6383 1.17772e-12
-31.6383 4.85906 2.16123e-13
1.17772e-12 2.16123e-13 -5.93932

-8.23168 -27.79 -5.86198e-14
-27.79 18.5786 3.51127e-12
-5.86198e-14 3.51127e-12 -6.13403

-1.65364 29.8918 -2.19498e-12
29.8918 10.4461 7.40445e-12
-2.19498e-12 7.40445e-12 -5.80441

-26.0228 -9.57919 -2.73133e-12
-9.57919 32.9716 -1.05456e-12
-2.73133e-12 -1.05456e-12 -5.79114

-31.3284 -1.54554 -2.35908e-12
-1.54554 31.6519 -6.80937e-14
-2.35908e-12 -6.80937e-14 -6.22713

-38.9205 5.74766 -4.71919e-13
5.74766 23.9468 -1.24227e-12
-4.71919e-13 -1.24227e-12 -9.18593

-17.2236 -21.0925 2.5917e-12
-21.0925 26.572 4.117e-12
2.5917e-12 4.117e-12 -5.77607

13.0705 24.1138 2.0736e-12
24.1138 -28.1047 -3.9968e-12
2.0736e-12 -3.9968e-12 -9.2078

21.5558 -9.59097 2.08485e-12
-9.59097 -31.7125 -7.51547e-13
2.08485e-12 -7.51547e-13 -6.60207

-27.1598 7.46612 4.68701e-12
7.46612 34.3364 2.59348e-13
4.68701e-12 2.59348e-13 -5.87785

-35.2411 -9.70153 -3.74248e-12
-9.70153 22.3142 2.32111e-13
-3.74248e-12 2.32111e-13 -8.18667

-29.1613 -16.3328 3.99029e-12
-16.3328 19.3472 1.02851e-12
3.99029e-12 1.02851e-12 -6.66569

36.9707 -8.2404 2.72019e-12
-8.2404 -20.2431 1.75859e-13
2.72019e-12 1.75859e-13 -5.10541

-14.811 -32.3468 -2.66039e-12
-32.3468 -21.6278 -6.76792e-13
-2.66039e-12 -6.76792e-13 -12.9947

-22.8293 9.32265 -2.77733e-12
9.32265 33.325 -8.42585e-13
-2.77733e-12 -8.42585e-13 -4.79256

-0.752167 -18.2133 2.45493e-12
-18.2133 -35.1556 -8.88326e-13
2.45493e-12 -8.88326e-13 -33.2718

4.93047 24.8268 1.84978e-12
24.8268 75.3163 -3.77772e-12
1.84978e-12 -3.77772e-12 -14.3201

-14.1421 -26.6276 -9.66042e-13
-26.6276 -16.353 2.45848e-12
-9.66042e-13 2.45848e-12 -14.6419

-6.35727 -30.2031 -1.13213e-12
-30.2031 -23.6054 -1.48444e-12
-1.13213e-12 -1.48444e-12 -17.0882

-31.2764 -0.700819 3.32149e-12
-0.700819 31.5017 -3.17139e-12
3.32149e-12 -3.17139e-12 -6.35197

28.4894 -16.6244 -1.56615e-12
-16.6244 -18.062 7.14391e-13
-1.56615e-12 7.14391e-13 -4.44178

-37.8091 12.842 9.51702e-13
12.842 11.1652 -6.75608e-13
9.51702e-13 -6.75608e-13 -10.9915

-8.86154 -3.18145 -3.88008e-12
-3.18145 111.067 -3.83219e-12
-3.88008e-12 -3.83219e-12 -22.6701

-31.6084 14.2753 2.82885e-13
14.2753 21.3507 3.64212e-12
2.82885e-13 3.64212e-12 -7.12831

12.4204 -29.4933 6.60213e-13
-29.4933 -2.52189 -5.16328e-12
6.60213e-13 -5.16328e-12 -4.93198

33.6352 25.1089 2.77349e-12
25.1089 124.045 -7.55544e-13
2.77349e-12 -7.55544e-13 -6.2125

-13.5002 26.0939 -5.26172e-12
26.0939 -19.0962 -8.26228e-12
-5.26172e-12 -8.26228e-12 -58.8797

-9.55156 -27.8028 -8.22897e-13
-27.8028 -22.8048 1.25739e-11
-8.22897e-13 1.25739e-11 -59.5299

-2.8682 -30.4225 2.52302e-12
-30.4225 -7.32458 1.10016e-12
2.52302e-12 1.10016e-12 -7.29117

3.85765 -31.165 1.86814e-12
-31.165 5.63346 -4.33253e-12
1.86814e-12 -4.33253e-12 -6.06656

25.1532 20.8299 -3.26613e-12
20.8299 -17.0393 3.28715e-12
-3.26613e-12 3.28715e-12 -4.98063

31.8068 15.0084 -2.06827e-12
15.0084 -23.3075 -3.39551e-12
-2.06827e-12 -3.39551e-12 -5.95886

-9.48579 3.08089 2.25138e-12
3.08089 -9.8286 -5.96745e-12
2.25138e-12 -5.96745e-12 -80.9133

-5.547 -6.99622 -3.93019e-13
-6.99622 -14.0384 -1.45484e-12
-3.93019e-13 -1.45484e-12 -80.2662

11.749 4.82415 -1.47615e-12
4.82415 -43.2091 -1.33982e-12
-1.47615e-12 -1.33982e-12 -7.8312

-35.0611 6.73233 5.52765e-12
6.73233 24.3757 -5.52684e-12
5.52765e-12 -5.52684e-12 -7.56723

-36.116 6.73646 2.4202e-12
6.73646 24.4331 -1.73787e-12
2.4202e-12 -1.73787e-12 -8.31223

74.5969 58.6424 -5.21302e-12
58.6424 34.1789 5.33618e-12
-5.21302e-12 5.33618e-12 -21.8712

-6.92421 -28.2045 -4.0418e-12
-28.2045 16.8748 -2.55499e-12
-4.0418e-12 -2.55499e-12 -6.12093

8.17159 17.974 -4.12796e-12
17.974 -44.8766 2.22104e-12
-4.12796e-12 2.22104e-12 -12.8984

32.7054 9.54081 -6.27646e-13
9.54081 -19.0857 -2.55899e-12
-6.27646e-13 -2.55899e-12 -4.07835

3.38528 -26.7273 6.67792e-12
-26.7273 13.4837 -9.62193e-13
6.67792e-12 -9.62193e-13 -3.83093

26.2383 -20.2406 -1.43115e-12
-20.2406 -20.3286 5.15143e-14
-1.43115e-12 5.15143e-14 -5.86726

65.4008 60.2404 -2.71901e-12
60.2404 34.2948 4.38286e-12
-2.71901e-12 4.38286e-12 -23.8662

-13.2435 31.0703 5.24913e-13
31.0703 -16.8848 -2.24739e-12
5.24913e-13 -2.24739e-12 -12.788

-18.6102 -19.7893 1.86784e-12
-19.7893 28.416 -2.05288e-12
1.86784e-12 -2.05288e-12 -5.97373

11.1729 28.8611 -2.88066e-12
28.8611 -13.3263 -2.27729e-12
-2.88066e-12 -2.27729e-12 -6.43985

-31.8746 -4.14585 -3.30476e-13
-4.14585 30.1488 2.49874e-12
-3.30476e-13 2.49874e-12 -6.36157

-14.601 19.6123 -2.21808e-12
19.6123 27.1864 -4.17799e-12
-2.21808e-12 -4.17799e-12 -4.42276

7.47768 30.5231 1.46017e-12
30.5231 -1.67333 -3.50534e-13
1.46017e-12 -3.50534e-13 -5.66451

-9.34894 -22.4768 -2.9298e-12
-22.4768 23.15 -9.57456e-13
-2.9298e-12 -9.57456e-13 -4.17951

4.58819 -27.3566 -1.29911e-12
-27.3566 11.4486 -7.34228e-13
-1.29911e-12 -7.34228e-13 -3.94243

24.2744 11.2586 -6.26269e-12
11.2586 102.093 -1.18424e-13
-6.26269e-12 -1.18424e-13 -12.4037

37.4693 -33.4617 4.62919e-12
-33.4617 69.2936 -5.81224e-12
4.62919e-12 -5.81224e-12 -5.70394

-25.3415 -11.6922 -1.70123e-12
-11.6922 31.3699 -4.10635e-12
-1.70123e-12 -4.10635e-12 -5.65243

16.0957 26.488 2.31519e-12
26.488 -15.5054 -1.03325e-12
2.31519e-12 -1.03325e-12 -6.22107

4.95357 29.4819 -1.1422e-12
29.4819 1.63523 5.3646e-12
-1.1422e-12 5.3646e-12 -4.99396

-9.85874 -21.4374 -1.64076e-12
-21.4374 25.1219 -2.71427e-12
-1.64076e-12 -2.71427e-12 -4.03726

-21.6399 -11.7844 1.19194e-12
-11.7844 32.0838 -1.83794e-12
1.19194e-12 -1.83794e-12 -4.64117

10.4614 28.4135 -6.01593e-12
28.4135 -0.158264 -2.21216e-12
-6.01593e-12 -2.21216e-12 -4.67675

-21.8519 -13.8801 1.3447e-12
-13.8801 29.4686 1.41398e-12
1.3447e-12 1.41398e-12 -4.85117

6.95723 27.8598 3.30817e-12
27.8598 73.0944 5.41907e-12
3.30817e-12 5.41907e-12 -14.3232

-45.8331 -4.04019 -1.92505e-12
-4.04019 14.0476 7.83966e-13
-1.92505e-12 7.83966e-13 -19.9642

0.874113 31.0324 -1.23338e-12
31.0324 7.51845 -4.51728e-12
-1.23338e-12 -4.51728e-12 -6.09336

9.7186 14.9029 -2.25597e-12
14.9029 -36.4327 -1.70027e-12
-2.25597e-12 -1.70027e-12 -10.9879

9.92712 -15.9293 -4.77337e-12
-15.9293 -39.4129 -2.45966e-12
-4.77337e-12 -2.45966e-12 -13.0711

85.6249 -24.2084 3.61193e-12
-24.2084 7.63476 -9.43245e-12
3.61193e-12 -9.43245e-12 -12.9585

-23.211 -21.2697 -3.09264e-12
-21.2697 10.5137 -2.91086e-12
-3.09264e-12 -2.91086e-12 -6.16938

-16.6044 26.7015 -1.02614e-12
26.7015 1.77711 -1.25766e-12
-1.02614e-12 -1.25766e-12 -6.59196

-26.1992 -21.7274 2.21304e-12
-21.7274 -5.36908 7.00181e-13
2.21304e-12 7.00181e-13 -23.8648

-41.5911 14.103 3.5015e-12
14.103 -3.55898 5.21124e-12
3.5015e-12 5.21124e-12 -64.1103

-0.894306 9.44516 5.15084e-12
9.44516 -44.2517 -7.9717e-12
5.15084e-12 -7.9717e-12 -64.2117

-20.3827 32.704 2.28972e-12
32.704 -23.2042 -1.67881e-12
2.28972e-12 -1.67881e-12 -24.3275

-11.4156 26.0047 -3.33748e-12
26.0047 22.6045 3.6593e-13
-3.33748e-12 3.6593e-13 -5.93

16.0386 26.6642 3.81917e-12
26.6642 -17.2919 2.30542e-12
3.81917e-12 2.30542e-12 -6.55364

30.431 45.1933 4.73577e-12
45.1933 47.5604 -2.62546e-12
4.73577e-12 -2.62546e-12 -15.196

-44.8825 -11.3407 7.60666e-12
-11.3407 -1.80742 -3.43518e-12
7.60666e-12 -3.43518e-12 -61.6674

-8.2979 -3.43127 1.67574e-11
-3.43127 -12.7496 5.82334e-12
1.67574e-11 5.82334e-12 -77.2047

-14.6858 -0.208579 2.45744e-12
-0.208579 -6.41842 2.07253e-11
2.45744e-12 2.07253e-11 -77.3489

27.6696 -53.8098 -4.16852e-13
-53.8098 71.1601 8.09071e-12
-4.16852e-13 8.09071e-12 -24.3879

-11.6878 -11.5986 -2.18832e-12
-11.5986 -16.206 6.8295e-12
-2.18832e-12 6.8295e-12 -37.423

-32.6088 8.81103 -7.97155e-12
8.81103 -9.41587 -3.87927e-12
-7.97155e-12 -3.87927e-12 -49.5293

18.2562 -26.2021 2.91145e-12
-26.2021 -19.5513 -2.90168e-12
2.91145e-12 -2.90168e-12 -6.51045

-39.4321 1.00979 -2.18192e-12
1.00979 11.9807 -2.15413e-12
-2.18192e-12 -2.15413e-12 -19.7209

-30.2065 -20.2702 1.72914e-12
-20.2702 6.3045 1.77636e-13
1.72914e-12 1.77636e-13 -7.22017

10.5359 6.25561 1.85037e-12
6.25561 -52.3912 -1.40332e-12
1.85037e-12 -1.40332e-12 -9.64305

-49.8135 15.5962 -4.13197e-13
15.5962 10.1641 1.51849e-12
-4.13197e-13 1.51849e-12 -13.533

-40.2874 7.19091 -5.59008e-12
7.19091 16.5414 1.5774e-12
-5.59008e-12 1.5774e-12 -13.7757

16.4046 20.3954 -9.53312e-13
20.3954 -25.8453 2.58786e-12
-9.53312e-13 2.58786e-12 -7.61115

-9.10069 -3.11391 5.42929e-12
-3.11391 108.41 5.51855e-13
5.42929e-12 5.51855e-13 -23.1005

-3.32276 -27.6271 -3.75403e-12
-27.6271 -3.63074 3.73094e-12
-3.75403e-12 3.73094e-12 -5.83393

-7.33635 -26.119 2.78888e-13
-26.119 -14.084 1.31894e-12
2.78888e-13 1.31894e-12 -9.81345

-14.1998 -31.4837 2.60799e-12
-31.4837 -21.778 -2.24265e-13
2.60799e-12 -2.24265e-13 -12.7575

90.7404 32.7544 -4.1922e-12
32.7544 20.9089 5.32937e-12
-4.1922e-12 5.32937e-12 -16.5048

-23.1132 -20.1153 1.51138e-12
-20.1153 -17.386 1.81588e-12
1.51138e-12 1.81588e-12 -44.4176

72.6389 54.3291 -4.65405e-12
54.3291 91.6515 -6.24804e-12
-4.65405e-12 -6.24804e-12 -6.14032

-36.2176 -21.4386 4.05898e-13
-21.4386 -6.79683 1.9688e-13
4.05898e-13 1.9688e-13 -13.0452

15.0341 14.6507 1.20437e-12
14.6507 -37.755 2.4339e-12
1.20437e-12 2.4339e-12 -8.18209

44.5765 -14.5747 5.77908e-12
-14.5747 -8.27709 2.55336e-12
5.77908e-12 2.55336e-12 -4.42229

-21.2336 24.0489 -4.83169e-13
24.0489 4.95493 -2.05465e-13
-4.83169e-13 -2.05465e-13 -5.98042

17.3734 20.4294 1.16055e-13
20.4294 -26.7968 -7.95216e-13
1.16055e-13 -7.95216e-13 -6.95507

-51.1384 11.3987 -1.2094e-12
11.3987 7.70935 -3.55271e-15
-1.2094e-12 -3.55271e-15 -29.9899

-7.28936 -31.5824 8.46138e-13
-31.5824 -12.8287 1.91995e-12
8.46138e-13 1.91995e-12 -8.12265

2.79465 19.8121 2.39394e-12
19.8121 -46.0309 1.18868e-12
2.39394e-12 1.18868e-12 -29.9818

-24.675 -18.4457 9.92983e-13
-18.4457 17.8364 1.98656e-12
9.92983e-13 1.98656e-12 -5.48415

-42.343 4.28421 -1.49853e-12
4.28421 17.8692 -9.95352e-13
-1.49853e-12 -9.95352e-13 -12.7298

-4.09801 9.92803 -1.97768e-12
9.92803 -40.2713 1.89715e-12
-1.97768e-12 1.89715e-12 -47.5377

-2.68852 -8.51487 4.92465e-12
-8.51487 -38.3027 4.01397e-12
4.92465e-12 4.01397e-12 -47.3933

81.7335 18.5152 -9.97128e-13
18.5152 1.69783 8.74382e-12
-9.97128e-13 8.74382e-12 -14.4541

3.8951 7.96601 -3.54679e-13
7.96601 -45.1862 4.58478e-12
-3.54679e-13 4.58478e-12 -11.0213

35.8798 7.74185 3.62421e-12
7.74185 184.595 1.89004e-12
3.62421e-12 1.89004e-12 -9.75087

40.1537 -11.3867 -4.41003e-12
-11.3867 190.393 3.6285e-12
-4.41003e-12 3.6285e-12 -7.38244

53.774 56.4118 1.84741e-12
56.4118 159.275 3.69956e-12
1.84741e-12 3.69956e-12 -11.4936

1.70699 -28.9522 2.61657e-12
-28.9522 -24.6923 -1.84593e-12
2.61657e-12 -1.84593e-12 -11.9648

16.0525 -49.197 -3.03402e-12
-49.197 99.4321 9.97128e-13
-3.03402e-12 9.97128e-13 -21.6873

54.522 -55.9544 8.73968e-13
-55.9544 149.991 6.27646e-12
8.73968e-13 6.27646e-12 -13.6586

-2.16893 26.2241 1.758e-12
26.2241 17.5727 -1.3897e-12
1.758e-12 -1.3897e-12 -4.00004

134.956 73.8504 -2.68585e-12
73.8504 85.0365 2.7048e-12
-2.68585e-12 2.7048e-12 -10.1525

-18.723 13.0459 -2.88806e-12
13.0459 -3.89834 9.86174e-13
-2.88806e-12 9.86174e-13 -26.7656

3.7405 0.0423231 1.49732e-12
0.0423231 -26.1897 1.03828e-12
1.49732e-12 1.03828e-12 -26.7688

144.115 -73.1357 -3.22113e-13
-73.1357 85.364 -2.7048e-12
-3.22113e-13 -2.7048e-12 -8.18957

-21.3981 -23.4272 -4.49033e-12
-23.4272 12.2474 -4.47464e-12
-4.49033e-12 -4.47464e-12 -6.49563

89.3577 34.734 1.97768e-12
34.734 41.3946 4.47642e-12
1.97768e-12 4.47642e-12 -11.5466

72.1984 63.4968 8.71362e-12
63.4968 149.71 6.39962e-12
8.71362e-12 6.39962e-12 -9.66715

26.1672 21.6333 -2.49637e-12
21.6333 100.146 -3.82272e-12
-2.49637e-12 -3.82272e-12 -13.0301

73.8856 -65.9259 -7.67386e-13
-65.9259 151.161 -1.66741e-12
-7.67386e-13 -1.66741e-12 -9.39551

25.7718 -12.3827 -5.26335e-12
-12.3827 105.026 4.35563e-12
-5.26335e-12 4.35563e-12 -12.4269

-28.6641 6.83889 2.87851e-12
6.83889 3.10809 6.21133e-13
2.87851e-12 6.21133e-13 -37.8455

37.7468 -45.9817 -1.59991e-12
-45.9817 49.6748 6.75016e-14
-1.59991e-12 6.75016e-14 -15.5329

14.4469 47.5382 1.76451e-13
47.5382 94.892 -5.48776e-12
1.76451e-13 -5.48776e-12 -22.1907

173.359 37.9153 -5.4096e-12
37.9153 48.0505 -4.52142e-12
-5.4096e-12 -4.52142e-12 -9.51589

7.01906 -29.2887 3.35909e-12
-29.2887 -14.3608 -7.8663e-13
3.35909e-12 -7.8663e-13 -7.15951

-38.4207 12.8961 3.1856e-12
12.8961 6.43581 7.7837e-12
3.1856e-12 7.7837e-12 -15.2915

88.5162 -38.1177 2.93217e-12
-38.1177 34.1669 -1.64372e-12
2.93217e-12 -1.64372e-12 -14.0983

6.04078 -28.8048 3.25665e-14
-28.8048 -16.1758 2.35071e-12
3.25665e-14 2.35071e-12 -8.03334

169.224 -36.3471 1.86162e-12
-36.3471 34.9366 9.41469e-14
1.86162e-12 9.41469e-14 -13.284

-5.72659 -28.3201 -6.51331e-15
-28.3201 -14.4758 2.07863e-12
-6.51331e-15 2.07863e-12 -9.31261

-17.7952 -25.2984 -1.51464e-12
-25.2984 12.0794 9.8351e-13
-1.51464e-12 9.8351e-13 -5.93874

118.89 69.4668 1.93268e-12
69.4668 96.2323 1.26524e-11
1.93268e-12 1.26524e-11 -11.394

29.4164 -22.936 -2.62309e-12
-22.936 97.8088 -8.79889e-12
-2.62309e-12 -8.79889e-12 -14.3385

117.973 -71.699 1.98952e-13
-71.699 93.6936 -3.46982e-12
1.98952e-13 -3.46982e-12 -12.41

22.2682 50.7438 4.10575e-12
50.7438 73.789 3.57166e-12
4.10575e-12 3.57166e-12 -24.776

-1.53874 -30.2158 -6.12133e-12
-30.2158 -6.55559 1.52145e-12
-6.12133e-12 1.52145e-12 -7.00199

-7.04264 -14.6412 2.83033e-12
-14.6412 -21.9207 9.47686e-13
2.83033e-12 9.47686e-13 -32.6083

-11.8913 11.0899 -8.8709e-12
11.0899 -16.4246 1.33375e-13
-8.8709e-12 1.33375e-13 -77.7712

-26.1615 -5.1605 4.09998e-12
-5.1605 -6.38705 1.01689e-11
4.09998e-12 1.01689e-11 -77.6051

-38.9458 13.0841 3.74351e-12
13.0841 13.7442 -7.10247e-12
3.74351e-12 -7.10247e-12 -10.2419

-14.479 -10.6642 -3.73205e-12
-10.6642 -17.3119 -1.85037e-12
-3.73205e-12 -1.85037e-12 -78.7336

-25.8952 4.09251 2.09551e-12
4.09251 -5.91345 2.46936e-12
2.09551e-12 2.46936e-12 -78.8757

-3.63183 7.4305 5.85398e-12
7.4305 -27.8548 -8.74012e-12
5.85398e-12 -8.74012e-12 -77.9633

-43.9681 -12.1118 -5.40512e-12
-12.1118 2.91589 3.66329e-12
-5.40512e-12 3.66329e-12 -68.139

11.9732 -30.4749 -4.39471e-12
-30.4749 76.1727 -7.08174e-13
-4.39471e-12 -7.08174e-13 -14.7017

0.520137 -12.9721 -7.21379e-12
-12.9721 -39.9869 5.71336e-12
-7.21379e-12 5.71336e-12 -45.2668

-16.3484 -34.4156 3.4488e-12
-34.4156 -22.0707 -3.201e-12
3.4488e-12 -3.201e-12 -23.5882

-2.42204 -18.1778 -7.65018e-13
-18.1778 -29.8928 -5.68952e-12
-7.65018e-13 -5.68952e-12 -33.6203

12.7372 15.4609 2.85283e-12
15.4609 -37.7203 -1.75622e-12
2.85283e-12 -1.75622e-12 -9.62865

-46.9005 9.86187 -1.21958e-12
9.86187 8.87547 2.82914e-12
-1.21958e-12 2.82914e-12 -70.134

3.46099 19.2243 1.56971e-12
19.2243 -41.4645 1.55334e-11
1.56971e-12 1.55334e-11 -70.2498

1.47029 11.3089 3.61459e-12
11.3089 -23.9635 3.33185e-12
3.61459e-12 3.33185e-12 -31.8618

109.407 -15.3419 -1.7503e-12
-15.3419 -12.5357 -6.30725e-12
-1.7503e-12 -6.30725e-12 -25.0356

-14.3248 24.9677 3.40735e-12
24.9677 10.3855 -1.16233e-12
3.40735e-12 -1.16233e-12 -5.80917

76.6174 -61.3626 2.87533e-12
-61.3626 37.3719 -2.57927e-12
2.87533e-12 -2.57927e-12 -22.3932

76.123 -57.4641 1.87583e-12
-57.4641 99.2403 -1.66741e-12
1.87583e-12 -1.66741e-12 -5.55272

118.21 -36.5487 -1.75741e-12
-36.5487 40.6054 -3.64508e-12
-1.75741e-12 -3.64508e-12 -7.37661

-51.1047 -5.15859 1.42819e-12
-5.15859 3.33895 3.73316e-12
1.42819e-12 3.73316e-12 -60.6441

-50.4688 2.89143 4.83761e-12
2.89143 3.13322 1.33819e-12
4.83761e-12 1.33819e-12 -60.1169

-11.9749 -24.4517 -9.37324e-13
-24.4517 -34.9965 -2.94305e-12
-9.37324e-13 -2.94305e-12 -59.1514

-8.99053 -21.7555 1.57542e-11
-21.7555 -37.882 -1.16914e-12
1.57542e-11 -1.16914e-12 -59.4609

-14.7012 26.1308 -1.29171e-12
26.1308 -33.0213 -1.51782e-12
-1.29171e-12 -1.51782e-12 -60.7353

-18.1523 3.09616 8.88208e-12
3.09616 -13.1618 9.31884e-12
8.88208e-12 9.31884e-12 -75.4563

-9.94453 -20.5053 -3.79844e-12
-20.5053 -32.6446 -2.51932e-12
-3.79844e-12 -2.51932e-12 -56.7224

-26.6416 -18.5655 2.99257e-12
-18.5655 -14.1954 8.4488e-13
2.99257e-12 8.4488e-13 -71.2523

-15.4733 2.43208 -6.34633e-12
2.43208 -12.8509 2.87799e-12
-6.34633e-12 2.87799e-12 -77.85

-6.02677 -20.5219 -1.01515e-11
-20.5219 -41.4803 -2.10794e-13
-1.01515e-11 -2.10794e-13 -60.4915

-6.75592 20.9514 2.95689e-12
20.9514 -40.1368 4.01249e-12
2.95689e-12 4.01249e-12 -60.0028

-14.3108 -3.45592 2.48246e-13
-3.45592 -11.3888 7.10158e-12
2.48246e-13 7.10158e-12 -76.8648

-11.2608 -3.11354 1.47666e-11
-3.11354 -17.6846 -2.67923e-11
1.47666e-11 -2.67923e-11 -74.0285

-24.1974 12.1092 -5.69914e-12
12.1092 -13.4001 2.09225e-12
-5.69914e-12 2.09225e-12 -69.9488

-22.0788 26.9256 -3.45709e-12
26.9256 -26.2646 -5.69618e-12
-3.45709e-12 -5.69618e-12 -57.5681

VECTORS fluid_flux_TPM float
-8.72631e-05 3.10449e-05 -8.04129e-21
3.56123e-06 6.88575e-06 2.1408e-21
-1.27933e-05 -1.02303e-05 -2.52025e-20
-4.17246e-06 4.25601e-06 -1.29026e-21
2.27182e-05 -6.31625e-06 -1.06764e-20
2.75893e-06 -1.59109e-05 -4.12032e-21
-8.58383e-05 -3.11095e-05 1.01251e-22
-1.38987e-05 -1.04717e-05 -1.25051e-20
2.2132e-05 9.45959e-07 1.50056e-20
1.13893e-05 -3.90989e-06 2.31025e-21
5.46264e-05 1.24898e-05 3.28768e-21
2.34803e-06 -1.7202e-05 -8.21364e-21
1.36178e-05 1.1259e-05 -9.63458e-22
2.66337e-06 1.3791e-05 8.73798e-21
2.05905e-05 -2.94804e-06 -8.52984e-21
-1.634e-05 -2.73019e-07 -1.89995e-21
2.75485e-06 1.41054e-05 1.03917e-20
1.01865e-05 -2.39299e-06 -1.0366e-20
9.9033e-06 1.72307e-05 2.12167e-20
-1.48554e-05 1.88636e-06 -1.14859e-20
-3.60279e-06 -2.1314e-05 -6.65811e-21
3.41275e-05 5.94463e-05 3.69759e-20
1.57048e-05 1.63207e-06 -1.31108e-20
1.12326e-05 -1.12867e-05 -7.68073e-22
-1.50855e-05 -3.33398e-06 1.29466e-20
-6.77494e-07 -1.11361e-05 -5.00571e-21
6.29339e-05 -4.9108e-06 3.04605e-21
1.40727e-05 1.02537e-05 1.74562e-21
-2.51618e-05 -2.0653e-05 -1.42474e-20
4.91442e-05 -1.28202e-05 1.11922e-20
-1.65904e-05 -6.04121e-06 -1.45019e-20
5.54003e-06 -3.20525e-05 6.74543e-22
4.76782e-05 -4.80709e-05 -9.64305e-21
-4.92576e-06 -4.12683e-05 4.02621e-22
-2.96881e-05 3.70237e-05 1.12369e-21
-3.82665e-05 -1.64033e-05 2.25614e-21
3.2719e-05 4.3237e-05 1.20588e-20
-4.47631e-05 -8.73025e-06 1.34709e-21
1.43816e-05 -1.10872e-05 -8.70734e-21
4.64934e-05 5.014e-05 7.33931e-21
3.21455e-05 -1.40289e-05 -9.81783e-21
3.36569e-05 -4.23647e-05 5.95884e-22
-1.99064e-05 -5.04037e-05 -2.96327e-20
-1.59059e-05 6.35996e-06 -1.40764e-20
3.0541e-05 -2.93288e-05 -8.23016e-21
-3.0348e-05 1.0996e-05 -1.45542e-20
-4.05215e-06 -2.0381e-05 -2.11089e-20
7.89015e-06 2.0222e-05 1.28822e-20
-1.63508e-05 5.93087e-06 -1.77862e-20
-1.78287e-05 2.87406e-05 8.40129e-21
3.24251e-05 1.52986e-05 1.53339e-20
2.93801e-05 -1.00802e-05 1.78382e-21
-1.56743e-05 1.57684e-05 9.1965e-21
-2.35534e-05 -2.07012e-05 6.19743e-21
-2.11507e-05 -5.13508e-06 -2.05122e-21
-4.48148e-05 2.70905e-05 6.14803e-21
-2.93871e-05 -3.80427e-05 -5.12497e-21
6.36693e-06 -3.06438e-05 -9.05006e-21
-4.77326e-05 6.48628e-06 -3.60039e-21
6.07734e-06 1.37042e-05 1.45954e-20
-5.57974e-06 -8.17774e-06 -2.95878e-20
-6.58702e-06 -1.79531e-05 -3.29363e-20
5.71742e-05 2.48727e-05 2.54755e-20
9.2478e-06 1.81539e-05 1.94862e-20
1.23031e-05 -1.44527e-05 -8.21197e-21
-1.64139e-06 -2.07636e-05 -4.83472e-21
4.6236e-06 -8.81026e-06 -7.29975e-21
-1.0096e-05 -5.56788e-06 -1.23264e-20
-1.06083e-05 1.19358e-05 1.83402e-20
2.55957e-06 -4.09478e-06 -1.01419e-20
-1.50515e-05 -1.58517e-05 -1.14291e-20
-2.13764e-05 5.16871e-06 -1.72881e-21
-3.55851e-06 3.45002e-05 6.53653e-21
-1.78815e-05 1.07167e-05 -1.32985e-20
-9.07567e-06 1.46226e-05 1.20903e-21
-6.03885e-05 7.69661e-06 -8.90401e-22
7.82233e-06 -2.16932e-05 6.09619e-21
-1.88904e-05 -8.90495e-06 -6.13774e-22
1.93483e-06 1.16303e-05 8.07328e-21
2.63152e-05 5.09239e-06 8.47103e-21
3.41877e-05 -2.89907e-05 3.44819e-21
2.21585e-05 2.05673e-05 5.53975e-21
1.19149e-05 -2.82388e-06 -1.12041e-20
-3.21715e-05 2.40807e-05 -1.90554e-21
3.7925e-05 4.84848e-06 7.64248e-21
-4.98315e-06 4.9442e-05 4.06725e-21
-1.74199e-06 -1.68664e-05 -2.85748e-21
1.81338e-05 9.96006e-06 -1.06984e-20
2.93337e-05 3.03022e-05 7.27247e-21
5.50548e-05 3.80341e-05 -3.15282e-20
-5.3341e-06 3.07897e-05 -6.09103e-21
5.92121e-05 -3.55318e-05 -3.07642e-20
-2.71396e-05 5.34412e-06 -5.23536e-21
1.7849e-05 1.10078e-05 5.76497e-21
-2.96575e-05 9.90888e-06 -9.36461e-21
1.66623e-05 2.85367e-05 7.72373e-21
1.01747e-05 -4.44111e-05 -3.38059e-21
1.91657e-06 1.16271e-05 1.2019e-21
-1.48088e-05 -1.76298e-05 -2.06516e-20
3.07163e-06 1.74842e-05 8.35993e-21
2.64213e-05 5.26034e-06 1.42716e-21
-1.54517e-05 3.32296e-05 1.26572e-21
4.05745e-05 -1.33403e-05 -1.03106e-21
-3.77508e-06 7.45917e-06 3.472e-21
9.95832e-06 5.90252e-06 3.80168e-22
-2.28179e-06 -1.13308e-05 -1.35863e-20
3.22247e-06 -1.92624e-05 -3.28964e-21
1.74789e-05 3.8942e-06 -1.54079e-20
-7.94124e-06 4.09952e-05 9.23014e-21
-9.81093e-06 2.48092e-07 -1.42333e-20
9.32367e-06 1.18922e-05 1.22715e-20
-2.17805e-06 -4.17369e-05 9.38416e-21
4.2046e-05 1.2872e-05 1.9426e-20
4.42503e-06 -7.45724e-06 -1.43761e-20
-1.11513e-05 -3.55558e-06 -1.74688e-20
-2.93419e-05 -1.2493e-05 1.4395e-20
1.58124e-05 4.11698e-05 -1.82645e-20
-4.35093e-05 -1.55826e-05 -1.82233e-21
1.60273e-05 -4.11463e-05 -1.11719e-20
-3.70168e-06 -3.19377e-05 1.57798e-21
2.18508e-05 6.52531e-07 7.59048e-21
-7.1754e-06 1.84067e-05 -1.09685e-20
-1.61203e-06 3.97171e-06 -4.65827e-21
-3.68793e-06 -1.65478e-05 -3.36983e-21
5.23283e-06 -8.30661e-06 -2.05664e-20
9.36465e-06 1.58722e-05 9.57395e-21
3.31193e-05 1.06583e-05 -1.33339e-20
8.62021e-06 -7.46209e-06 -1.43047e-20
-8.27523e-06 -4.5185e-05 1.93692e-20
2.55661e-05 -1.88301e-05 4.17503e-21
4.98069e-06 2.77864e-05 1.77544e-20
-2.81788e-06 -2.84316e-06 -3.87881e-20
-8.63091e-06 -8.33035e-06 -6.56411e-21
-4.77924e-06 4.41204e-08 -1.05924e-20
-2.28852e-05 2.86101e-05 2.73283e-20
1.87734e-05 -3.73954e-05 2.54857e-21
-2.65945e-05 4.27382e-05 1.54206e-20
-1.63807e-05 9.54051e-06 -1.3848e-20
2.52932e-06 1.22055e-05 -1.26768e-20
-2.29993e-05 -3.50084e-05 -1.39519e-20
1.39439e-05 3.34843e-05 7.97809e-21
1.75173e-05 9.37427e-06 -6.08982e-21
2.28239e-05 -8.52724e-06 1.22039e-20
-1.25381e-06 -1.12715e-05 -1.60983e-20
-3.39303e-05 -3.15756e-05 1.69924e-22
-2.75293e-06 1.13095e-05 1.06684e-20
1.72561e-05 1.01772e-05 -8.11677e-21
1.88977e-05 -8.82558e-06 1.40994e-20
8.2477e-06 -1.43526e-05 -1.19054e-20
2.43701e-05 -1.08011e-05 -1.9786e-21
1.90198e-05 -9.0027e-06 -1.22857e-21
4.64317e-06 2.05936e-07 -2.04403e-20
2.57547e-05 2.0232e-05 1.64346e-20
-2.74306e-06 -1.70392e-05 7.48049e-22
-1.04854e-05 -4.45944e-06 -1.36653e-20
1.1265e-06 -3.8922e-06 -2.51963e-20
-3.15671e-06 1.58555e-05 -8.43493e-21
-3.49026e-05 2.76966e-06 -1.00917e-20
-1.21279e-05 -3.32764e-05 9.06386e-21
-7.88329e-06 9.78434e-06 1.11501e-20
1.35726e-05 1.66493e-05 1.95135e-20
2.6583e-05 -1.87547e-05 -2.65072e-21
-3.68124e-05 -2.03622e-05 -8.43919e-21
1.74126e-05 -2.75223e-05 -6.2458e-21
2.28163e-05 -2.72311e-05 -8.53211e-21
-1.09503e-05 3.78698e-06 -2.3195e-20
-1.98397e-05 -2.88561e-05 -2.15504e-21
-3.48989e-05 -5.7946e-06 7.60214e-21
-3.85427e-06 -3.176e-05 1.47282e-20
1.54561e-05 -3.17162e-05 -1.05156e-20
-9.11101e-06 -2.62136e-05 2.25722e-21
4.58386e-06 3.14224e-05 8.99004e-21
-1.57607e-05 -2.85377e-05 -6.60286e-22
2.94043e-06 -1.6301e-05 -2.63769e-21
-2.47528e-05 1.827e-05 -9.98594e-21
-1.50389e-05 -1.21177e-05 -2.66132e-20
-2.73675e-05 -5.17524e-06 -1.15086e-20
1.56766e-05 -9.1865e-06 5.38845e-21
-4.30922e-06 2.39655e-05 -1.50544e-20
1.22392e-05 -9.32949e-06 -1.42822e-20
-2.96021e-05 -1.31716e-05 4.50365e-21
-8.8364e-06 -7.46216e-06 -1.40444e-20
9.08703e-06 7.54489e-06 1.69422e-20
2.14385e-05 2.87162e-05 2.23488e-20
-1.75183e-05 -1.08151e-05 -4.66708e-21
-3.25241e-05 -7.51464e-07 1.91441e-22
-1.63455e-05 -5.01891e-06 -5.65025e-21
-4.58054e-06 -1.65922e-05 -1.11546e-20
1.76942e-05 2.12507e-05 -3.58236e-21
-1.09632e-05 5.87798e-06 1.05274e-21
6.36444e-07 -2.05664e-05 3.93083e-21
-4.19629e-05 1.0857e-05 -4.28644e-21
2.4874e-05 2.02572e-05 1.25695e-20
3.79677e-06 3.28032e-05 -1.13308e-20
-2.43329e-06 3.79927e-06 -1.86615e-20
-9.05584e-06 2.51348e-07 -9.34416e-21
4.35749e-06 7.76428e-06 -3.56612e-21
-1.17002e-05 3.40329e-06 -2.21417e-21
-2.07445e-06 -3.78695e-06 -9.69096e-21
1.66074e-06 2.07712e-05 2.41775e-20
4.47486e-06 4.49924e-07 -7.6746e-22
-1.95488e-05 4.75929e-06 -1.22133e-20
-1.73078e-05 1.93687e-05 2.57894e-20
-3.10912e-06 1.15845e-05 -3.96283e-21
-2.9233e-05 1.84046e-05 2.23979e-20
-9.34841e-06 8.98418e-06 1.66278e-20
1.73206e-05 -1.16201e-05 1.27314e-21
3.66242e-05 -3.5666e-06 -8.13387e-22
-2.11522e-05 1.13035e-05 -6.39436e-21
2.23422e-06 4.50068e-06 -2.25497e-21
2.17872e-05 -4.34723e-06 -1.06102e-20
-1.72883e-05 1.03585e-05 -1.38759e-20
-9.87718e-06 5.54208e-06 -1.66415e-20
1.18379e-05 3.74476e-06 -1.54606e-20
2.18919e-05 -1.34784e-05 -2.3136e-21
-1.73895e-05 9.9616e-06 -1.58904e-20
-2.50508e-05 -5.306e-06 -3.00635e-21
-1.67708e-05 -4.36488e-06 1.49762e-21
9.88162e-06 6.26802e-09 -8.5444e-21
1.01794e-05 1.95446e-07 -1.2432e-20
4.3932e-06 8.32172e-06 2.03777e-20
4.83222e-06 -8.80258e-06 -1.29739e-20
-5.01308e-06 8.42443e-06 -2.33908e-20
-5.26955e-06 -8.66232e-06 -2.71081e-20
9.91641e-06 -7.41203e-06 -1.04299e-20
-2.03385e-05 3.23667e-06 -1.66741e-21
-2.00708e-05 -3.28551e-06 -1.53862e-20
-1.28417e-05 1.58851e-05 -1.00604e-20
-1.29215e-05 -1.59394e-05 -1.67119e-20
7.49032e-06 -1.98545e-05 -4.73028e-21
7.20991e-06 1.97746e-05 -5.19868e-21
1.55878e-06 2.58992e-05 7.22214e-21
1.12466e-05 -3.13852e-06 -2.15926e-20
2.36123e-06 -3.8686e-06 -1.90538e-20
-2.14231e-05 1.42248e-06 2.08136e-21
7.68133e-06 -1.95236e-05 -1.16747e-20
7.27736e-06 1.96722e-05 2.56338e-21
4.77139e-06 -5.27398e-08 6.78755e-22
8.97321e-06 2.44164e-05 1.06514e-20
-2.24347e-06 -4.01853e-06 -8.28034e-21
2.31906e-06 -1.13231e-05 -3.48063e-21
-2.24427e-05 -1.21583e-05 1.10229e-20
-2.13696e-05 -1.15008e-05 -1.03264e-20
-2.19044e-05 1.3636e-05 1.95987e-22
3.25298e-06 -1.22941e-05 -1.00796e-20
-1.56612e-06 3.3838e-06 1.1848e-20
-5.87517e-07 -2.55827e-05 1.30269e-21
-7.72421e-06 -2.44359e-05 -9.86573e-21
3.27212e-05 3.03783e-05 1.39107e-20
3.54718e-05 -1.81613e-06 1.28098e-20
-1.27177e-05 -3.63406e-06 -2.34852e-20
-2.29045e-05 -4.1408e-05 1.16338e-20
8.30862e-06 1.37551e-05 1.17329e-20
-2.52491e-05 3.03494e-06 -6.24126e-21
2.00756e-05 5.7894e-06 -5.48725e-23
-4.53549e-06 -3.27522e-08 -1.51079e-20
-4.66757e-06 -8.41708e-06 -1.89911e-20
-7.07654e-06 -3.93532e-05 -8.1495e-21
-9.71334e-06 -8.39859e-08 -4.57308e-21
-4.87001e-05 -1.81667e-06 -1.32075e-20
1.73178e-05 -1.91151e-05 -8.32096e-21
2.43064e-06 4.00112e-06 -1.38638e-21
-1.20627e-07 -1.75227e-05 -4.89111e-21
-9.82338e-06 2.40964e-05 1.25842e-20
-4.37426e-06 8.63182e-06 -1.38919e-20
2.05668e-05 -1.3613e-05 1.20387e-20
-3.76782e-05 -1.35584e-05 -6.98234e-21
-1.52735e-05 -2.03763e-05 -2.2307e-20
4.97959e-06 8.39332e-06 -7.69995e-21
1.66396e-05 5.16317e-06 -4.94234e-21
-4.76625e-06 -7.34204e-06 -4.48048e-21
1.98065e-05 3.549e-06 -1.31091e-20
1.81976e-05 -9.83065e-06 -1.18947e-20
-3.48952e-07 2.71862e-05 6.1635e-21
8.32453e-06 -1.36735e-05 -8.79587e-21
4.88277e-05 2.20168e-06 5.145e-21
-4.23779e-05 1.14593e-05 -2.02426e-20
2.28709e-05 1.15617e-05 -1.49295e-21
-6.45595e-06 -1.71874e-05 -1.14252e-20
-1.53571e-05 -8.62225e-06 3.96055e-22
2.88009e-05 -2.10636e-07 1.52892e-20
-6.92246e-07 -2.42662e-05 1.05095e-20
-1.26233e-05 -1.08791e-05 -3.1485e-20
1.02288e-05 -2.35105e-05 -1.62948e-20
-4.9677e-07 2.05649e-05 2.03684e-20
7.92146e-06 2.60797e-05 -1.82625e-21
1.72759e-05 -9.88877e-06 -1.02119e-20
-1.89566e-05 1.93076e-05 1.19165e-20
1.65354e-05 2.00385e-05 1.81253e-20
-6.2259e-05 1.60292e-05 2.96354e-20
-1.01137e-05 2.6028e-05 1.55783e-20
1.25248e-05 -1.52552e-05 -1.17376e-20
-7.03227e-06 -1.84062e-05 -3.67029e-20
-1.18589e-05 4.50777e-06 -1.10669e-20
-2.59053e-05 -7.04905e-06 -4.55021e-21
-6.38898e-06 3.88755e-05 2.51652e-20
-1.26116e-05 1.19079e-05 -1.59228e-20
2.07861e-05 -4.47761e-06 -5.05921e-21
-6.8755e-06 -2.5806e-05 -6.90123e-21
-1.48755e-05 2.39019e-05 1.2308e-20
-2.17988e-05 1.25705e-05 -1.61391e-21
-2.05789e-05 -1.50624e-05 -1.23852e-20
1.80368e-05 -2.06644e-05 -9.39977e-21
-2.75433e-05 -1.45691e-06 3.06941e-22
1.23732e-05 -4.08287e-05 1.87886e-21
1.93951e-05 -1.89216e-05 8.42145e-21
2.4744e-05 4.31013e-05 5.69419e-21
1.97207e-06 1.98755e-05 2.16331e-20
2.96258e-06 -2.54327e-05 1.22845e-20
-4.16552e-05 4.69832e-05 1.05168e-20
-1.27078e-05 -2.44228e-05 -2.72519e-20
1.63743e-05 -6.42341e-06 -9.56681e-21
-2.41185e-06 2.5784e-05 1.58263e-20
1.28888e-05 -1.18318e-05 -8.76601e-21
1.38869e-05 2.4324e-05 2.31022e-20
1.72377e-05 -1.40112e-06 -7.60398e-21
2.21306e-05 -6.32453e-05 2.72575e-21
-5.87873e-06 -1.28651e-05 -1.13355e-20
-2.3195e-05 1.00918e-05 -1.747e-20
-2.0029e-05 1.87275e-05 -1.32999e-21
2.16222e-05 1.45742e-05 1.70329e-20
1.86811e-05 -1.07615e-05 2.51119e-20
1.49587e-05 1.25991e-05 -8.37721e-21
-5.43054e-06 4.55668e-08 -1.29785e-21
1.54107e-05 -2.30977e-05 -1.24204e-20
-1.6998e-05 -2.04186e-05 -8.35159e-21
2.25721e-05 9.77811e-06 1.85296e-20
1.28124e-05 -1.19951e-05 -8.09737e-21
9.55839e-06 -2.4863e-05 -3.70847e-21
1.66667e-05 -6.936e-06 -1.46304e-20
-1.58126e-05 -7.54808e-06 -1.3002e-20
1.29748e-06 -2.63149e-05 -1.48837e-21
-2.61188e-05 4.47516e-06 -7.76648e-21
2.3916e-06 2.4554e-05 1.43577e-20
2.05943e-05 6.63045e-06 1.75956e-21
-2.17304e-05 -1.07068e-05 -2.7529e-21
-8.9812e-06 2.56218e-05 -1.82989e-21
-1.49596e-06 -2.4199e-05 -1.75517e-20
1.94753e-05 1.18428e-05 -1.28134e-21
-1.76971e-06 1.8093e-05 1.51093e-20
-2.0148e-05 1.3709e-05 -2.37019e-20
2.35216e-05 1.14204e-05 4.90476e-21
-1.71231e-05 -9.99021e-06 -1.5673e-20
9.52025e-08 -1.98439e-05 -1.37788e-21
1.83909e-05 1.99934e-05 1.71711e-20
-2.2164e-05 -1.43102e-05 -3.36877e-21
4.83737e-05 -3.39975e-05 -1.42195e-20
1.79053e-05 -1.08275e-05 1.08979e-20
9.00636e-06 4.31074e-05 9.48814e-21
1.70421e-05 -1.3685e-05 -3.82305e-21
-1.98822e-05 8.70775e-05 -1.10917e-20
-1.97722e-05 -8.65918e-05 8.42873e-21
5.72126e-05 7.17505e-05 -8.11586e-21
5.69503e-05 -7.14239e-05 -2.31451e-21
9.06898e-05 -1.33964e-10 1.45125e-21
-7.82381e-05 3.76606e-05 6.91745e-21
-7.74924e-05 -3.73042e-05 -7.01477e-21
1.22397e-05 1.18243e-05 -5.3348e-21
2.9382e-05 2.19028e-05 -7.09801e-21
1.14536e-05 3.33441e-06 -1.32982e-20
1.88648e-05 9.75616e-06 1.77639e-20
4.99174e-06 2.01798e-05 8.88622e-21
-1.8841e-05 -1.49877e-05 -1.18539e-20
1.70462e-05 -1.02191e-05 3.33072e-21
1.98622e-05 1.45563e-05 3.72029e-21
-3.16837e-06 2.43758e-05 2.0109e-21
2.94549e-05 -2.00025e-05 -1.5476e-20
3.79587e-06 -2.37514e-05 -3.65511e-21
2.19715e-05 5.22956e-06 1.25534e-20
2.99104e-05 1.10313e-05 -6.46906e-21
1.42157e-05 1.41507e-05 9.4201e-21
1.58909e-05 6.59688e-06 -6.9111e-21
-1.85078e-05 1.0942e-05 -2.57625e-20
-2.25742e-05 9.04113e-06 -2.58468e-20
2.29407e-05 -1.12689e-05 -2.02787e-21
-1.82768e-05 -1.00029e-05 -4.0124e-21
-1.85635e-05 -1.05877e-05 -1.8272e-20
-3.43946e-07 -2.07779e-05 -7.41829e-21
-8.60872e-08 -2.11712e-05 -1.42049e-20
-2.0137e-05 -1.00597e-06 -7.32583e-21
2.67121e-05 -4.0211e-06 3.59038e-21
1.8121e-05 1.13477e-05 -2.23098e-21
-1.7873e-05 1.09505e-05 -2.26531e-20
-1.5369e-05 1.66318e-05 -1.1007e-20
1.603e-05 -1.376e-05 -2.49035e-21
-1.10289e-05 1.74721e-05 -1.61314e-21
-1.42319e-05 -1.48971e-05 -1.6241e-20
-1.15572e-06 2.12212e-05 1.33762e-20
-1.28824e-06 2.09786e-05 1.93283e-20
8.98428e-08 -1.98438e-05 -3.22325e-21
6.11395e-06 -1.97471e-05 -2.87537e-21
-1.71494e-05 -9.94046e-06 -1.24296e-20
1.55945e-05 -5.49298e-06 6.60928e-21
6.63588e-07 2.14885e-05 2.28944e-20
3.01062e-07 1.85167e-05 1.50201e-20
-2.34685e-06 1.68657e-05 2.51796e-20
2.19197e-05 -5.53014e-06 -2.62223e-21
-1.65495e-05 5.3808e-06 -2.92342e-21
4.15963e-06 2.15282e-05 2.56894e-20
-3.25746e-05 1.29257e-05 -2.50111e-21
9.76862e-06 4.17524e-05 1.98984e-20
-1.7062e-05 4.57045e-06 3.53019e-21
1.96943e-05 -1.16359e-05 -5.12439e-21
9.46334e-07 2.10301e-05 2.76016e-20
-2.04916e-05 6.70284e-06 -5.26902e-21
2.44538e-06 -1.62707e-05 1.05665e-20
1.82096e-06 -5.8042e-05 -8.65201e-21
2.00755e-06 1.74951e-05 2.3479e-20
-1.69706e-05 1.40298e-05 -1.91462e-20
1.78636e-05 6.40042e-05 1.40702e-20
4.57924e-05 3.77259e-05 -5.19989e-21
5.20913e-05 -3.52735e-05 -4.00835e-20
1.4823e-05 -1.01723e-05 -6.37949e-21
-1.57935e-05 1.40449e-05 1.03384e-20
-2.02273e-05 -7.92477e-06 7.83421e-21
-1.96557e-05 -6.82594e-06 -2.47851e-22
5.92972e-05 -2.46245e-05 -2.56755e-20
5.74629e-05 2.3883e-05 -2.36261e-20
1.09001e-05 3.81942e-06 -1.17983e-20
7.67098e-07 1.95894e-05 6.98038e-21
7.84693e-08 1.95707e-05 2.8882e-20
-4.84077e-05 -3.6939e-05 -8.78113e-22
1.14311e-05 -1.71807e-05 1.34746e-22
1.17393e-05 1.2471e-05 -1.00527e-20
-2.14292e-05 -3.3975e-06 1.52101e-20
-1.40522e-05 1.72111e-05 7.59366e-21
-1.88983e-05 9.17256e-06 -2.30419e-20
4.7668e-05 3.37113e-05 -4.46545e-21
1.58146e-05 7.06526e-06 -6.6152e-21
-5.56954e-06 2.00408e-05 2.19128e-21
-1.69868e-05 -1.17554e-05 -1.72035e-20
1.8573e-06 -2.05535e-05 -1.24892e-20
-8.95431e-06 -1.92773e-05 -1.71297e-20
-1.72581e-05 -1.17797e-05 -2.1443e-20
1.05851e-05 -1.89456e-05 -2.49202e-21
1.41298e-05 -1.69981e-05 -2.54022e-21
-2.44118e-06 -6.14698e-05 1.78388e-20
2.6194e-05 -4.11469e-05 6.4671e-21
1.7485e-06 -2.07964e-05 -1.62014e-20
1.7968e-05 1.13613e-05 2.7638e-21
-1.44839e-05 -1.49132e-05 -6.75014e-21
-9.84615e-06 1.97205e-05 -7.88258e-21
-5.04198e-06 2.10177e-05 2.03345e-20
1.66359e-05 1.42511e-05 9.28684e-21
6.06226e-06 -1.98718e-05 -5.40801e-21
-1.34131e-05 -4.03795e-05 1.45464e-20
-1.98937e-06 2.50535e-05 1.64837e-20
1.47996e-05 1.44626e-05 1.72569e-20
-1.29651e-05 -1.02221e-05 -8.2602e-21
-1.35221e-05 1.06138e-05 -7.87411e-21
4.4366e-05 -1.89229e-05 -8.88909e-21
7.56707e-06 -1.34072e-05 -1.39565e-20
-8.32148e-06 -1.26337e-05 -1.22173e-20
2.13417e-05 6.36684e-06 3.08197e-21
1.10001e-05 -5.06885e-05 6.88427e-21
-3.84716e-05 -3.49213e-05 3.82002e-21
2.3319e-05 6.21062e-06 -5.48092e-21
-9.33307e-06 -1.82908e-05 -3.10659e-20
1.87154e-05 9.48773e-06 4.61992e-21
-2.85794e-05 -3.2569e-05 -5.17835e-21
9.69331e-06 5.00731e-05 3.03744e-20
3.43522e-05 -5.98911e-05 1.05268e-20
-3.47554e-05 -5.98079e-05 9.65397e-21
2.78237e-05 -5.20492e-05 7.7263e-21
-1.27047e-05 4.36561e-05 -8.62664e-22
-6.27934e-06 3.89979e-05 2.40062e-20
-1.87406e-05 8.95064e-06 -1.17481e-20
5.9804e-06 2.42549e-05 1.05918e-20
-2.39278e-06 1.26607e-05 1.38418e-20
1.01255e-05 3.23483e-06 -1.14557e-20
-3.19009e-06 1.6214e-05 9.61138e-21
-2.4753e-07 2.10027e-05 3.63451e-21
1.66693e-05 9.75567e-06 4.42544e-21
1.71195e-06 5.77548e-05 1.08259e-20
-1.4725e-05 1.07384e-05 -5.53077e-21
1.59578e-05 -6.24986e-06 -1.23214e-20
1.68807e-05 -4.5113e-06 -1.66916e-20
-6.06955e-05 -8.7737e-06 4.69385e-24
-3.46238e-05 1.67503e-05 8.04689e-21
-4.35376e-05 -5.25747e-05 1.04669e-20
8.6611e-06 8.35007e-06 8.17136e-21
1.42173e-05 7.29635e-06 -2.37711e-20
2.68188e-05 -4.19803e-06 -6.21427e-21
-8.1086e-06 -1.32498e-05 -5.72483e-21
1.72256e-05 8.433e-06 -6.91641e-21
7.33922e-06 -3.00503e-05 1.13849e-20
-1.37208e-05 1.02104e-05 -1.27283e-21
-2.23861e-05 -2.14335e-05 -2.27104e-20
-5.83898e-06 1.63063e-05 -1.81336e-21
-3.27265e-06 2.06893e-05 1.24822e-20
3.38675e-05 2.13075e-05 -1.53889e-20
3.61321e-05 -1.92929e-05 -2.46355e-20
-4.2093e-05 -1.16294e-05 -1.46814e-20
7.63816e-06 7.68974e-06 -2.17363e-20
-4.05982e-06 0.000101414 -2.7456e-21
8.63085e-07 -0.000104522 8.86768e-23
5.24825e-05 8.76907e-05 -1.14141e-20
-1.91129e-05 8.46236e-06 -2.30329e-20
-2.63897e-05 5.658e-05 6.07088e-22
5.30613e-05 -8.46839e-05 -8.4404e-21
-1.17266e-05 -1.8292e-05 -1.30723e-20
7.80405e-05 6.75321e-05 -5.42634e-21
2.40061e-05 -1.79862e-05 -1.51975e-20
-3.60927e-06 -2.98377e-05 -1.79051e-20
8.18211e-05 -6.58837e-05 1.82808e-21
-6.74808e-06 1.4526e-05 -3.68636e-22
-5.3861e-05 -3.4843e-05 -5.76391e-21
-4.30354e-05 -9.318e-05 7.05722e-21
-2.41248e-05 -5.78348e-05 4.14275e-21
-4.39973e-05 9.41872e-05 -7.97625e-21
-1.00981e-05 6.41176e-05 1.15912e-20
1.56409e-05 3.71275e-05 3.30149e-20
-2.79697e-05 3.72606e-05 1.97142e-20
-2.52855e-05 -5.5213e-05 7.92366e-21
0.000100417 1.73258e-05 -3.502e-21
-1.69362e-05 1.07727e-05 -2.24601e-20
-5.91537e-06 1.63415e-05 1.85215e-20
-5.07851e-05 3.76605e-05 -6.18531e-21
-1.72852e-05 9.94934e-06 -2.57617e-20
9.92538e-05 -1.5271e-05 -1.81247e-21
-1.53682e-05 7.8028e-06 -8.73403e-21
7.19642e-06 -1.45024e-05 -1.82747e-24
-7.801e-05 -6.09812e-05 1.74797e-20
-2.58919e-05 5.77476e-05 6.08391e-21
-7.91631e-05 6.04081e-05 -1.34309e-20
2.45536e-05 5.1977e-05 1.48079e-20
-1.47752e-05 1.0588e-05 -1.70592e-20
-2.05405e-05 2.44893e-05 3.10788e-21
-2.85474e-05 4.98437e-05 4.61023e-21
-5.68054e-05 2.08127e-07 1.57362e-20
-9.44534e-07 1.63045e-05 1.48078e-20
-2.88645e-05 -5.04326e-05 -2.14225e-20
-5.82285e-05 -2.19987e-07 8.08767e-21
-2.83642e-05 4.87215e-05 1.15895e-20
-1.51981e-05 6.63005e-05 2.62456e-20
-1.78736e-05 4.12823e-05 1.58152e-20
-3.39178e-05 2.71515e-05 9.07402e-21
2.43955e-05 -6.06004e-06 -8.10237e-21
3.80224e-05 -2.1964e-06 -1.13867e-20
1.34893e-05 8.20453e-06 -4.601e-21
-1.04746e-05 -7.40259e-05 -1.38464e-20
-6.94849e-05 -2.79887e-05 1.12348e-20
3.71514e-05 7.33076e-07 1.17138e-20
5.83963e-05 -1.08976e-05 -2.2978e-20
-1.05891e-05 -1.35041e-05 -1.95485e-20
-5.08549e-05 3.76464e-05 1.35196e-21
-4.61575e-05 5.40289e-05 1.98649e-21
6.23949e-05 -2.22437e-05 -1.23903e-20
-2.8192e-05 -5.05232e-05 -2.41849e-20
-2.8792e-05 4.98053e-05 9.22212e-21
-5.72841e-05 -1.17179e-06 -8.32946e-21
-2.65871e-05 5.06241e-05 1.63768e-21
-5.79832e-05 -8.17414e-07 -8.77873e-21
6.61103e-05 1.74015e-05 -2.97721e-20
5.64094e-05 1.29323e-06 -2.27116e-20
5.09265e-05 -2.9289e-05 -2.43466e-20
2.49232e-05 -5.94578e-05 -3.38298e-20
2.9934e-05 -4.88821e-05 -4.39592e-20
2.91825e-05 4.8706e-05 -8.12164e-21
2.43577e-05 5.81194e-05 -1.42712e-20
7.58416e-05 -2.00481e-05 2.28892e-20
4.62903e-05 2.90783e-05 -1.16746e-20
4.66484e-05 1.37526e-05 -2.71832e-21
TENSORS solid_stress_TPM float
375.068 -24.9219 -4.59958e-12
-24.9219 238.592 3.60837e-12
-4.59958e-12 3.60837e-12 197.839

457.058 -21.3211 -2.67046e-13
-21.3211 490.043 1.04627e-12
-2.67046e-13 1.04627e-12 487.163

454.931 28.0468 -3.68949e-12
28.0468 463.762 1.48444e-12
-3.68949e-12 1.48444e-12 458.51

455.084 -29.8424 2.83329e-13
-29.8424 482.666 1.0707e-12
2.83329e-13 1.0707e-12 484.91

527.728 19.9308 7.25701e-12
19.9308 548.49 -5.4999e-12
7.25701e-12 -5.4999e-12 527.399

437.361 -18.0769 7.68274e-14
-18.0769 480.394 1.47852e-12
7.68274e-14 1.47852e-12 458.091

372.363 26.4862 -3.42008e-12
26.4862 239.112 5.39776e-12
-3.42008e-12 5.39776e-12 197.823

473.704 29.9601 1.44477e-12
29.9601 469.554 1.27779e-12
1.44477e-12 1.27779e-12 472.388

471.605 5.48379 -4.48826e-13
5.48379 417.871 3.04201e-12
-4.48826e-13 3.04201e-12 432.845

504.314 -7.47768 7.80413e-13
-7.47768 444.165 -1.7466e-12
7.80413e-13 -1.7466e-12 483.504

360.333 16.3112 2.78533e-12
16.3112 247.68 -1.92735e-12
2.78533e-12 -1.92735e-12 233.671

444.833 -13.4546 -3.46996e-12
-13.4546 498.44 -3.02869e-12
-3.46996e-12 -3.02869e-12 472.29

466.92 27.8358 -3.16606e-12
27.8358 468.356 -1.11674e-12
-3.16606e-12 -1.11674e-12 466.785

457.087 -14.3415 -2.01352e-12
-14.3415 500.488 -1.75504e-12
-2.01352e-12 -1.75504e-12 483.508

512.981 33.3081 -1.15404e-12
33.3081 511.643 8.08099e-13
-1.15404e-12 8.08099e-13 515.271

489.229 0.561132 2.11979e-13
0.561132 435.574 2.26238e-12
2.11979e-13 2.26238e-12 462.323

457.634 -17.9687 -1.05782e-12
-17.9687 512.937 -1.12532e-12
-1.05782e-12 -1.12532e-12 493.646

494.013 -2.66519 -1.59843e-12
-2.66519 439.099 1.38563e-12
-1.59843e-12 1.38563e-12 474.315

418.841 26.678 -3.2981e-13
26.678 449.713 6.03961e-14
-3.2981e-13 6.03961e-14 424.102

482.037 -4.19626 -1.09542e-12
-4.19626 424.97 -8.34814e-13
-1.09542e-12 -8.34814e-13 453.525

425.345 8.67018 3.07606e-13
8.67018 481.958 -2.49104e-12
3.07606e-13 -2.49104e-12 444.891

634.136 6.28533 1.18089e-11
6.28533 633.976 -2.98102e-12
1.18089e-11 -2.98102e-12 570.346

479.208 1.87617 3.17435e-12
1.87617 422.988 9.55384e-13
3.17435e-12 9.55384e-13 449.782

447.213 -27.7189 -8.3548e-13
-27.7189 461.203 -2.52065e-12
-8.3548e-13 -2.52065e-12 452.998

481.105 6.85019 1.24937e-13
6.85019 425.489 -1.9571e-12
1.24937e-13 -1.9571e-12 452.989

449.809 19.1142 5.88122e-13
19.1142 490.372 -5.98928e-13
5.88122e-13 -5.98928e-13 478.257

377.696 4.18209 -1.76925e-12
4.18209 291.684 3.20336e-13
-1.76925e-12 3.20336e-13 259.031

462.736 30.7492 -1.54484e-12
30.7492 460.765 3.29751e-12
-1.54484e-12 3.29751e-12 460.595

384.985 37.0808 1.01844e-12
37.0808 383.564 1.41753e-12
1.01844e-12 1.41753e-12 348.459

586.966 10.3236 -3.36146e-12
10.3236 563.482 -3.81558e-12
-3.36146e-12 -3.81558e-12 546.908

491.743 14.2176 4.2224e-12
14.2176 442.548 4.52927e-12
4.2224e-12 4.52927e-12 465.906

352.894 -17.7835 -1.6532e-12
-17.7835 416.773 6.31791e-12
-1.6532e-12 6.31791e-12 348.63

331.053 -42.1075 -3.50061e-12
-42.1075 335.908 7.1528e-12
-3.50061e-12 7.1528e-12 253.511

531.442 5.9849 3.05672e-12
5.9849 586.917 -1.22243e-12
3.05672e-12 -1.22243e-12 538.62

554.054 -4.83785 5.71602e-12
-4.83785 582.1 -6.76644e-12
5.71602e-12 -6.76644e-12 542.549

578.014 21.0271 -2.94194e-12
21.0271 539.98 3.63531e-12
-2.94194e-12 3.63531e-12 538.388

556.214 5.0647 -2.65491e-12
5.0647 600.697 -2.94994e-12
-2.65491e-12 -2.94994e-12 548.005

573.803 -9.17123 -3.53465e-12
-9.17123 555.798 -3.61923e-12
-3.53465e-12 -3.61923e-12 540.675

467.179 -28.001 -3.14178e-12
-28.001 466.544 -1.9984e-12
-3.14178e-12 -1.9984e-12 465.158

330.437 41.5267 -2.59111e-12
41.5267 338.007 5.40012e-12
-2.59111e-12 5.40012e-12 253.87

414.575 -17.9521 -7.06043e-12
-17.9521 354.526 -8.32519e-13
-7.06043e-12 -8.32519e-13 346.36

559.334 -3.70366 -8.5502e-13
-3.70366 599.946 6.51331e-13
-8.5502e-13 6.51331e-13 548.419

586.438 19.5514 1.28142e-12
19.5514 572.48 1.08269e-12
1.28142e-12 1.08269e-12 548.208

490.948 -12.2738 -5.91527e-13
-12.2738 442.902 -3.73183e-13
-5.91527e-13 -3.73183e-13 466.579

341.745 -43.3059 8.61415e-12
-43.3059 345.374 -1.84623e-12
8.61415e-12 -1.84623e-12 289.009

417.601 -18.0664 -7.08174e-13
-18.0664 357.144 -5.32907e-15
-7.08174e-13 -5.32907e-15 351.535

413.052 17.0883 1.08698e-12
17.0883 464.829 1.13391e-12
1.08698e-12 1.13391e-12 428.767

429.671 19.342 8.28967e-14
19.342 466.559 -1.03502e-12
8.28967e-14 -1.03502e-12 437.121

486.826 -16.3028 1.54958e-12
-16.3028 432.915 -8.52355e-13
1.54958e-12 -8.52355e-13 458.719

355.613 -34.1912 -3.58232e-13
-34.1912 389.439 -2.93928e-12
-3.58232e-13 -2.93928e-12 332.6

410.292 19.185 -1.337e-12
19.185 350.732 -1.09009e-12
-1.337e-12 -1.09009e-12 339.509

425.243 -25.2925 -4.91577e-12
-25.2925 383.856 -4.35178e-12
-4.91577e-12 -4.35178e-12 373.112

519.951 19.4831 3.19744e-14
19.4831 547.564 5.47769e-12
3.19744e-14 5.47769e-12 525.766

416.453 29.6543 -4.72629e-12
29.6543 393.923 2.84928e-12
-4.72629e-12 2.84928e-12 373.976

522.21 -21.8126 -1.07618e-12
-21.8126 541.426 -2.38071e-12
-1.07618e-12 -2.38071e-12 524.412

364.104 -42.7176 1.68162e-13
-42.7176 343.313 4.06194e-12
1.68162e-13 4.06194e-12 289.726

553.475 5.45677 -1.40939e-12
5.45677 583.892 4.05631e-12
-1.40939e-12 4.05631e-12 542.924

373.751 -5.33078 -5.12153e-12
-5.33078 436.707 -1.82254e-12
-5.12153e-12 -1.82254e-12 373.861

580.839 10.3848 5.79981e-12
10.3848 556.197 1.23827e-13
5.79981e-12 1.23827e-13 542.68

435.098 21.4158 -6.60213e-14
21.4158 473.808 -3.54442e-12
-6.60213e-14 -3.54442e-12 454.715

513.616 5.75508 -2.65092e-12
5.75508 452.85 2.27522e-13
-2.65092e-12 2.27522e-13 494.908

522.501 11.459 5.65474e-14
11.459 487.902 -6.60213e-13
5.65474e-14 -6.60213e-13 507.119

383.741 31.8237 -1.80004e-13
31.8237 315.221 1.64846e-12
-1.80004e-13 1.64846e-12 269.896

482.128 -6.03648 -1.09764e-12
-6.03648 528.223 -1.37076e-12
-1.09764e-12 -1.37076e-12 504.141

487.137 9.52084 1.64165e-13
9.52084 523.732 2.15472e-12
1.64165e-13 2.15472e-12 507.537

456.5 -2.88181 4.53348e-12
-2.88181 520.201 1.12384e-12
4.53348e-12 1.12384e-12 487.85

464.499 23.4011 1.12584e-12
23.4011 503.516 1.0143e-12
1.12584e-12 1.0143e-12 495.484

496.796 8.46446 -1.35447e-12
8.46446 444.443 2.37884e-12
-1.35447e-12 2.37884e-12 477.743

445.552 -28.243 7.01365e-12
-28.243 459.576 6.32324e-12
7.01365e-12 6.32324e-12 451.212

501.73 -1.71163 -1.23161e-13
-1.71163 444.964 -3.2192e-12
-1.23161e-13 -3.2192e-12 489.114

519.564 -19.2591 5.15292e-13
-19.2591 546.857 2.68644e-12
5.15292e-13 2.68644e-12 525.499

523.339 21.3078 -2.8629e-13
21.3078 542.95 9.08121e-13
-2.8629e-13 9.08121e-13 525.301

353.445 -16.5863 2.76579e-12
-16.5863 415.78 2.47743e-12
2.76579e-12 2.47743e-12 346.149

506.064 -27.9375 3.64745e-12
-27.9375 485.35 -4.30767e-13
3.64745e-12 -4.30767e-13 493.922

449.767 -25.1374 1.34085e-12
-25.1374 471.27 -9.34364e-13
1.34085e-12 -9.34364e-13 458.623

357.905 -31.715 4.67537e-12
-31.715 285.702 -2.83447e-12
4.67537e-12 -2.83447e-12 249.883

498.535 3.22325 -4.49278e-12
3.22325 541.445 6.36528e-13
-4.49278e-12 6.36528e-13 513.681

501.77 28.9456 1.12799e-12
28.9456 474.593 4.83317e-12
1.12799e-12 4.83317e-12 487.701

448.49 19.6653 -4.12144e-12
19.6653 492.157 -2.20446e-12
-4.12144e-12 -2.20446e-12 477.689

440.241 8.00083 1.74675e-12
8.00083 373.075 3.33097e-12
1.74675e-12 3.33097e-12 382.975

386.492 -33.9409 -7.73307e-13
-33.9409 360.243 -2.16123e-12
-7.73307e-13 -2.16123e-12 319.469

537.749 -10.5866 -2.72375e-12
-10.5866 556.172 1.80271e-12
-2.72375e-12 1.80271e-12 531.285

482.702 23.9005 -2.69029e-12
23.9005 504.602 1.8631e-12
-2.69029e-12 1.8631e-12 502.086

385.413 -32.389 -6.82476e-12
-32.389 345.341 3.3206e-12
-6.82476e-12 3.3206e-12 317.115

422.244 10.7928 -1.40569e-12
10.7928 363.888 3.35776e-12
-1.40569e-12 3.35776e-12 350.29

307.681 -21.2093 2.28499e-12
-21.2093 388.484 1.23634e-12
2.28499e-12 1.23634e-12 288.146

434.488 14.4269 -6.92039e-14
14.4269 488.718 -7.50807e-13
-6.92039e-14 -7.50807e-13 460.93

509.765 23.1455 -1.29733e-12
23.1455 475.214 -1.93179e-12
-1.29733e-12 -1.93179e-12 489.989

338.275 42.2053 -4.84353e-12
42.2053 349.607 -3.74811e-12
-4.84353e-12 -3.74811e-12 288.982

634.224 16.5046 5.21294e-12
16.5046 603.083 -7.50511e-13
5.21294e-12 -7.50511e-13 565.351

372.927 -4.1091 -3.35199e-12
-4.1091 436.866 1.95873e-12
-3.35199e-12 1.95873e-12 373.467

637.129 -16.63 1.59139e-12
-16.63 599.554 9.36629e-12
1.59139e-12 9.36629e-12 564.859

533.976 -27.3347 2.46914e-12
-27.3347 507.278 3.03757e-12
2.46914e-12 3.03757e-12 515.754

505.342 27.4256 -1.98774e-12
27.4256 466.377 2.18729e-12
-1.98774e-12 2.18729e-12 485.116

426.974 -24.4145 2.02978e-12
-24.4145 386.28 -8.4821e-13
2.02978e-12 -8.4821e-13 376.019

358.974 31.3285 -2.56388e-12
31.3285 396.048 8.75152e-13
-2.56388e-12 8.75152e-13 339.237

339.859 -10.7068 1.06226e-12
-10.7068 408.436 1.44477e-13
1.06226e-12 1.44477e-13 319.14

453.155 21.9716 -9.03573e-13
21.9716 494.73 -2.20416e-12
-9.03573e-13 -2.20416e-12 483.216

533.154 16.7956 -3.19152e-13
16.7956 506.236 -1.5179e-12
-3.19152e-13 -1.5179e-12 513.394

443.5 15.156 -3.54738e-12
15.156 488.492 4.403e-12
-3.54738e-12 4.403e-12 464.33

451.532 15.9561 3.28034e-13
15.9561 400.58 -4.52571e-12
3.28034e-13 -4.52571e-12 403.791

374.528 -21.4761 1.86103e-12
-21.4761 419.915 4.69906e-12
1.86103e-12 4.69906e-12 357.237

389.765 -29.3953 -3.90799e-13
-29.3953 342.405 -2.78177e-12
-3.90799e-13 -2.78177e-12 314.425

455.017 -24.5747 1.6079e-12
-24.5747 480.117 -1.80744e-12
1.6079e-12 -1.80744e-12 478.419

466.475 27.4532 1.75504e-12
27.4532 478.792 2.74003e-12
1.75504e-12 2.74003e-12 479.857

452.268 23.1885 -3.57788e-12
23.1885 492.611 -3.55271e-15
-3.57788e-12 -3.55271e-15 482.092

466.34 13.1686 2.05499e-12
13.1686 529.82 -1.32398e-12
2.05499e-12 -1.32398e-12 501.427

490.915 9.37291 1.40332e-13
9.37291 437.936 -2.06916e-12
1.40332e-13 -2.06916e-12 462.104

327.745 -4.66571 9.63377e-13
-4.66571 403.427 1.03976e-12
9.63377e-13 1.03976e-12 314.446

462.631 -36.8311 1.46253e-12
-36.8311 487.741 1.72573e-12
1.46253e-12 1.72573e-12 492.797

445.898 27.4687 -4.17858e-12
27.4687 463.321 -3.30225e-12
-4.17858e-12 -3.30225e-12 455.063

305.702 2.17052 -7.19573e-13
2.17052 393.405 -4.53563e-12
-7.19573e-13 -4.53563e-12 297.288

386.039 34.6158 -2.66454e-12
34.6158 332.483 -6.77384e-13
-2.66454e-12 -6.77384e-13 306.279

453.401 -22.9759 -1.19031e-12
-22.9759 480.122 6.61693e-13
-1.19031e-12 6.61693e-13 476.222

501.448 5.73293 8.71303e-13
5.73293 441.367 1.98064e-13
8.71303e-13 1.98064e-13 481.059

422.429 27.2084 6.65542e-13
27.2084 389.81 -3.31883e-12
6.65542e-13 -3.31883e-12 374.276

570.573 12.7444 -2.228e-12
12.7444 565.943 1.32013e-12
-2.228e-12 1.32013e-12 542.952

396.223 24.3344 4.23957e-13
24.3344 349.685 3.56989e-12
4.23957e-13 3.56989e-12 319.079

569.195 -13.0539 2.08145e-12
-13.0539 565.855 -3.97016e-12
2.08145e-12 -3.97016e-12 542.407

375.132 0.778724 4.07866e-12
0.778724 438.92 2.78296e-13
4.07866e-12 2.78296e-13 374.683

461.524 -2.23567 1.87583e-12
-2.23567 399.347 1.69394e-12
1.87583e-12 1.69394e-12 417.328

538.238 -15.7659 3.5875e-12
-15.7659 480.677 -6.61989e-13
3.5875e-12 -6.61989e-13 513.522

457.296 24.3884 1.84272e-12
24.3884 487.838 3.75803e-12
1.84272e-12 3.75803e-12 488.404

461.304 -13.5355 -2.31387e-12
-13.5355 519.184 2.0132e-12
-2.31387e-12 2.0132e-12 495.761

515.019 -7.99922 -2.84173e-12
-7.99922 438.245 6.69687e-13
-2.84173e-12 6.69687e-13 494.326

488.357 -22.2813 -7.8623e-12
-22.2813 541.642 -2.93395e-12
-7.8623e-12 -2.93395e-12 515.792

556.082 -6.59908 1.54454e-12
-6.59908 560.425 -4.57356e-12
1.54454e-12 -4.57356e-12 538.766

463.918 -29.9087 1.96761e-12
-29.9087 483.249 4.6955e-13
1.96761e-12 4.6955e-13 483.649

341.743 11.4554 3.66551e-12
11.4554 406.24 3.21876e-12
3.66551e-12 3.21876e-12 319.519

422.53 -28.1511 2.89901e-12
-28.1511 391.285 1.01134e-12
2.89901e-12 1.01134e-12 375.189

507.418 -13.77 1.93297e-12
-13.77 558.784 -5.55704e-13
1.93297e-12 -5.55704e-13 525.291

501.109 0.505169 2.69266e-12
0.505169 441.332 3.67639e-12
2.69266e-12 3.67639e-12 487.136

476.989 -21.5238 -7.588e-13
-21.5238 507.471 3.43903e-12
-7.588e-13 3.43903e-12 501.551

459.15 25.6985 1.23398e-12
25.6985 484.653 3.95539e-12
1.23398e-12 3.95539e-12 488.031

394.474 -31.4696 -1.62004e-12
-31.4696 400.644 -3.35139e-12
-1.62004e-12 -3.35139e-12 357.562

552.154 -7.08196 5.1729e-13
-7.08196 585.324 -3.23859e-12
5.1729e-13 -3.23859e-12 542.638

347.247 -33.0817 -1.70175e-12
-33.0817 382.649 2.02742e-12
-1.70175e-12 2.02742e-12 303.469

490.922 -19.1817 1.79057e-12
-19.1817 448.434 1.92498e-12
1.79057e-12 1.92498e-12 467.172

519.756 1.97175 -5.62839e-12
1.97175 466.862 2.72552e-12
-5.62839e-12 2.72552e-12 502.878

570.59 17.874 6.03428e-12
17.874 566.505 -1.55431e-12
6.03428e-12 -1.55431e-12 542.411

375.332 20.1862 3.14948e-12
20.1862 424.081 6.12606e-12
3.14948e-12 6.12606e-12 360.262

489.13 27.2131 2.05643e-12
27.2131 468.588 -9.94464e-13
2.05643e-12 -9.94464e-13 476.686

454.43 -24.5149 -3.8843e-13
-24.5149 415.387 -8.48506e-13
-3.8843e-13 -8.48506e-13 418.648

454.766 -17.8396 -1.92637e-12
-17.8396 494.958 -2.8028e-12
-1.92637e-12 -2.8028e-12 482.69

379.24 35.0735 -3.98378e-12
35.0735 366.07 -9.21337e-13
-3.98378e-12 -9.21337e-13 317.084

449.203 -21.8316 2.25775e-12
-21.8316 491.757 6.21725e-13
2.25775e-12 6.21725e-13 479.822

485.539 30.8526 2.65269e-12
30.8526 465.181 -4.89446e-12
2.65269e-12 -4.89446e-12 473.492

480.373 -25.2463 4.89682e-13
-25.2463 442.413 1.01844e-13
4.89682e-13 1.01844e-13 455.489

448.268 -25.1292 3.99976e-12
-25.1292 469.82 8.43769e-13
3.99976e-12 8.43769e-13 458.145

445.396 -18.691 2.46203e-12
-18.691 393.503 -3.6587e-12
2.46203e-12 -3.6587e-12 397.301

470.705 -18.8522 -1.54129e-12
-18.8522 422.898 3.18797e-12
-1.54129e-12 3.18797e-12 437.578

459.05 -25.3378 -6.33863e-13
-25.3378 485.48 4.62334e-12
-6.33863e-13 4.62334e-12 488.874

386.584 35.9752 2.18729e-12
35.9752 382.029 1.56675e-12
2.18729e-12 1.56675e-12 348.154

444.543 15.3787 2.59052e-13
15.3787 491.584 1.63425e-13
2.59052e-13 1.63425e-13 467.187

469.445 26.4243 -2.01942e-12
26.4243 480.006 -3.7188e-12
-2.01942e-12 -3.7188e-12 482.593

456.192 25.4736 -4.79315e-12
25.4736 486.698 1.0707e-12
-4.79315e-12 1.0707e-12 487.294

457.853 11.623 8.28185e-13
11.623 506.989 -7.17056e-12
8.28185e-13 -7.17056e-12 486.061

432 -8.22828 3.67232e-12
-8.22828 370.794 6.24774e-12
3.67232e-12 6.24774e-12 363.346

376.819 18.6095 -3.30758e-12
18.6095 427.313 7.66202e-13
-3.30758e-12 7.66202e-13 363.922

452.36 -24.3825 5.01525e-13
-24.3825 478.436 -1.42345e-12
5.01525e-13 -1.42345e-12 470.759

440.793 25.6695 -9.42653e-13
25.6695 455.69 2.91145e-12
-9.42653e-13 2.91145e-12 437.851

390.997 -35.6351 -5.66658e-12
-35.6351 380.317 4.36451e-12
-5.66658e-12 4.36451e-12 350.128

368.979 38.3226 1.05279e-12
38.3226 327.285 -2.27966e-12
1.05279e-12 -2.27966e-12 295.713

363.684 -33.3165 9.4739e-14
-33.3165 394.477 2.65743e-12
9.4739e-14 2.65743e-12 342.015

397.972 -31.1646 -3.34666e-12
-31.1646 404.235 2.56861e-12
-3.34666e-12 2.56861e-12 363.012

502.907 -6.83859 2.02297e-12
-6.83859 442.299 -3.86631e-12
2.02297e-12 -3.86631e-12 482.365

393.205 30.3466 6.28949e-12
30.3466 409.022 -1.58333e-12
6.28949e-12 -1.58333e-12 363.472

429.748 13.2967 5.64289e-12
13.2967 372.285 -3.35139e-12
5.64289e-12 -3.35139e-12 362.751

350.178 13.381 1.48637e-12
13.381 418.559 1.10253e-12
1.48637e-12 1.10253e-12 348.511

379.517 -22.344 9.79957e-13
-22.344 423.558 4.87906e-12
9.79957e-13 4.87906e-12 363.486

491.245 -1.09265 2.48253e-12
-1.09265 550.913 -3.7866e-12
2.48253e-12 -3.7866e-12 516.344

372.901 2.24704 -2.45996e-12
2.24704 437.834 2.14347e-13
-2.45996e-12 2.14347e-13 373.559

357.925 31.0943 2.09018e-13
31.0943 399.528 9.6397e-13
2.09018e-13 9.6397e-13 341.996

458.037 12.109 1.50793e-12
12.109 510.608 4.05601e-13
1.50793e-12 4.05601e-13 488.448

421.497 -27.652 1.91254e-12
-27.652 389.111 -1.30621e-12
1.91254e-12 -1.30621e-12 375.111

524.797 20.5571 2.76223e-13
20.5571 469.791 -7.1528e-13
2.76223e-13 -7.1528e-13 500.776

534.961 26.2704 4.04595e-12
26.2704 506.898 2.4567e-12
4.04595e-12 2.4567e-12 516.133

494.864 -18.5697 7.62057e-13
-18.5697 449.069 2.83625e-12
7.62057e-13 2.83625e-12 470.9

554.617 -1.80385 3.65811e-12
-1.80385 516.057 -5.06587e-12
3.65811e-12 -5.06587e-12 525.753

473.333 -31.8135 -1.4723e-12
-31.8135 475.743 4.395e-12
-1.4723e-12 4.395e-12 478.622

412.642 23.3315 -1.02437e-12
23.3315 357.231 -7.34227e-14
-1.02437e-12 -7.34227e-14 348.127

464.225 30.1627 -2.42769e-12
30.1627 482.818 -2.51562e-12
-2.42769e-12 -2.51562e-12 483.251

464.488 29.2066 5.92119e-12
29.2066 482.291 -1.21088e-13
5.92119e-12 -1.21088e-13 482.812

393.987 30.6658 5.22486e-12
30.6658 405.766 3.27442e-12
5.22486e-12 3.27442e-12 360.906

502.899 27.0866 1.33049e-12
27.0866 482.706 -1.70649e-12
1.33049e-12 -1.70649e-12 490.777

415.396 3.52571 7.06161e-12
3.52571 339.05 9.34031e-13
7.06161e-12 9.34031e-13 340.86

493.167 31.8173 1.93919e-12
31.8173 487.269 -2.79747e-12
1.93919e-12 -2.79747e-12 495.618

476.366 -12.5992 2.55684e-12
-12.5992 522.494 8.8581e-13
2.55684e-12 8.8581e-13 500.29

536.964 24.2773 3.89407e-12
24.2773 507.438 -2.39571e-12
3.89407e-12 -2.39571e-12 516.669

468.226 -29.5795 6.90707e-13
-29.5795 480.02 -9.17192e-13
6.90707e-13 -9.17192e-13 483.108

464.601 -4.89727 -8.66122e-13
-4.89727 521.601 1.02377e-12
-8.66122e-13 1.02377e-12 491.022

400.982 -24.5602 -6.40673e-12
-24.5602 349.058 -1.77044e-12
-6.40673e-12 -1.77044e-12 323.984

419.011 29.6979 3.95654e-12
29.6979 392.505 2.44427e-12
3.95654e-12 2.44427e-12 373.809

352.379 14.6989 -1.65986e-12
14.6989 417.257 7.59097e-13
-1.65986e-12 7.59097e-13 348.276

500.58 -1.13934 -9.98757e-13
-1.13934 442.844 -8.4414e-13
-9.98757e-13 -8.4414e-13 487.756

492.522 0.00215214 1.72691e-12
0.00215214 438.149 2.02124e-12
1.72691e-12 2.02124e-12 474.466

453.013 23.1259 -2.26397e-12
23.1259 479.757 7.18536e-13
-2.26397e-12 7.18536e-13 475.633

481.35 23.8717 2.66986e-12
23.8717 502.918 -1.2878e-12
2.66986e-12 -1.2878e-12 501.298

456.637 -24.381 -1.54871e-12
-24.381 487.403 -3.14534e-12
-1.54871e-12 -3.14534e-12 488.545

457.879 -0.673684 4.71919e-13
-0.673684 517.989 3.60778e-12
4.71919e-13 3.60778e-12 486.444

458.935 25.5912 1.24138e-12
25.5912 486.519 -4.85412e-12
1.24138e-12 -4.85412e-12 488.567

465.613 -10.3094 -2.60532e-13
-10.3094 408.129 5.32537e-12
-2.60532e-13 5.32537e-12 427.271

400.91 -32.8389 -3.48758e-12
-32.8389 415.004 9.23706e-14
-3.48758e-12 9.23706e-14 385.21

518.146 -2.30236 -8.1742e-13
-2.30236 465.788 4.99778e-12
-8.1742e-13 4.99778e-12 500.975

391.917 -34.5139 7.57912e-14
-34.5139 379.65 -2.69059e-12
7.57912e-14 -2.69059e-12 347.458

478.05 19.0858 1.53936e-12
19.0858 509.252 3.09353e-12
1.53936e-12 3.09353e-12 501.894

506.164 -26.4795 -5.0863e-13
-26.4795 470.295 2.19143e-12
-5.0863e-13 2.19143e-12 487.322

425.052 -9.69188 -3.1631e-12
-9.69188 366.772 -1.05101e-13
-3.1631e-12 -1.05101e-13 356.023

530.31 -23.1931 -8.73435e-12
-23.1931 488.802 2.92359e-12
-8.73435e-12 2.92359e-12 506.535

500.948 2.35848 -2.96341e-12
2.35848 444.632 -5.91971e-13
-2.96341e-12 -5.91971e-13 489.258

521.238 -23.3232 -1.7278e-12
-23.3232 501.888 -1.86207e-12
-1.7278e-12 -1.86207e-12 508.58

502.069 -25.8605 6.341e-12
-25.8605 461.541 -3.26702e-12
6.341e-12 -3.26702e-12 481.294

498.883 -8.54742 2.80546e-12
-8.54742 445.188 -2.97022e-12
2.80546e-12 -2.97022e-12 479.397

482.272 -23.0689 2.11505e-12
-23.0689 505.042 1.07174e-12
2.11505e-12 1.07174e-12 502.585

428.591 -31.3468 -2.25005e-14
-31.3468 410.637 9.50943e-13
-2.25005e-14 9.50943e-13 399.045

503.32 -24.5898 1.18601e-12
-24.5898 464.763 -1.55106e-12
1.18601e-12 -1.55106e-12 482.21

441.296 10.8662 4.39589e-12
10.8662 378.525 -4.22506e-12
4.39589e-12 -4.22506e-12 387.845

500.087 26.3418 1.39355e-12
26.3418 498.631 1.25455e-12
1.39355e-12 1.25455e-12 500.153

463.806 -37.6106 1.47734e-12
-37.6106 488.445 5.76424e-12
1.47734e-12 5.76424e-12 494.135

464.914 37.2631 9.18969e-13
37.2631 487.356 -4.07356e-12
9.18969e-13 -4.07356e-12 493.85

446.385 -28.572 1.2027e-12
-28.572 500.069 1.06493e-12
1.2027e-12 1.06493e-12 492.365

448.619 27.0631 -2.64973e-14
27.0631 500.76 -7.25642e-13
-2.64973e-14 -7.25642e-13 492.552

513.124 -8.52677 -2.19839e-12
-8.52677 436.464 2.32407e-13
-2.19839e-12 2.32407e-13 492.813

511.287 9.27272 -1.13835e-12
9.27272 438.06 -2.2767e-12
-1.13835e-12 -2.2767e-12 492.45

501.711 -9.8474 1.89093e-12
-9.8474 451.793 -6.04405e-13
1.89093e-12 -6.04405e-13 483.072

510.911 32.1133 9.9476e-14
32.1133 510.439 -1.91931e-12
9.9476e-14 -1.91931e-12 514.102

509.687 -32.8511 1.60938e-12
-32.8511 510.116 -4.31331e-13
1.60938e-12 -4.31331e-13 513.741

481.86 16.0678 2.11535e-12
16.0678 539.176 3.70163e-12
2.11535e-12 3.70163e-12 514.374

483.054 -15.8004 -1.86888e-12
-15.8004 538.766 7.42517e-13
-1.86888e-12 7.42517e-13 514.395

556.908 -3.74999 -2.29002e-12
-3.74999 506.874 1.72159e-12
-2.29002e-12 1.72159e-12 525.036

558.462 3.61268 -1.20378e-12
3.61268 505.199 1.2245e-12
-1.20378e-12 1.2245e-12 525.408

387.353 9.83845 -4.22988e-12
9.83845 449.251 5.29354e-13
-4.22988e-12 5.29354e-13 397.133

472.44 -24.7762 -8.92323e-13
-24.7762 480.807 7.48734e-13
-8.92323e-13 7.48734e-13 485.028

443.52 -36.3858 -5.23337e-12
-36.3858 485.589 -2.02668e-12
-5.23337e-12 -2.02668e-12 486.681

473.699 -4.66476 -3.58942e-12
-4.66476 420.485 1.25788e-12
-3.58942e-12 1.25788e-12 436.389

540.299 -16.6924 -2.84972e-12
-16.6924 484.241 1.77014e-12
-2.84972e-12 1.77014e-12 515.335

541.018 16.1734 -1.37638e-12
16.1734 485.464 2.28439e-12
-1.37638e-12 2.28439e-12 515.94

506.917 0.121856 -8.94988e-13
0.121856 423.61 -1.00836e-12
-8.94988e-13 -1.00836e-12 487.055

384.836 23.3793 9.53904e-13
23.3793 432.349 2.23347e-12
9.53904e-13 2.23347e-12 385.521

442.392 36.1698 1.62655e-12
36.1698 485.267 1.31362e-12
1.62655e-12 1.31362e-12 485.887

452.652 -23.3965 -2.74107e-12
-23.3965 495.008 -2.24798e-12
-2.74107e-12 -2.24798e-12 483.643

443.301 23.3565 9.04758e-13
23.3565 397.564 -2.40341e-12
9.04758e-13 -2.40341e-12 400.419

531.013 23.8592 -3.55271e-13
23.8592 488.053 -1.94481e-12
-3.55271e-13 -1.94481e-12 507.294

428.529 -31.3186 9.6397e-13
-31.3186 410.922 -1.7355e-12
9.6397e-13 -1.7355e-12 398.864

519.909 -3.2324 -2.24339e-12
-3.2324 469.108 -6.83305e-13
-2.24339e-12 -6.83305e-13 502.734

439.455 -34.1596 -2.94897e-12
-34.1596 485.56 7.90331e-13
-2.94897e-12 7.90331e-13 485.876

389.227 8.32126 2.80973e-12
8.32126 452.382 2.79006e-12
2.80973e-12 2.79006e-12 400.901

385.923 21.8153 -2.42858e-12
21.8153 435.825 2.8398e-12
-2.42858e-12 2.8398e-12 388.739

383.891 35.7815 -4.14483e-13
35.7815 362.372 -3.73982e-12
-4.14483e-13 -3.73982e-12 318.364

408.231 1.57904 -3.52311e-12
1.57904 332.191 -1.26003e-12
-3.52311e-12 -1.26003e-12 327.362

485.506 -22.8055 1.78524e-13
-22.8055 502.907 -8.21732e-13
1.78524e-13 -8.21732e-13 501.797

351.917 31.1888 -1.95044e-12
31.1888 388.875 5.26749e-12
-1.95044e-12 5.26749e-12 312.393

451.402 23.6123 -2.66305e-12
23.6123 478.468 -3.79607e-12
-2.66305e-12 -3.79607e-12 465.264

442.25 -5.35042 -8.04098e-13
-5.35042 377.168 5.35616e-12
-8.04098e-13 5.35616e-12 387.783

464.21 11.2178 6.70279e-13
11.2178 407.345 -7.11372e-12
6.70279e-13 -7.11372e-12 424.97

505.433 0.42987 7.84262e-13
0.42987 421.63 2.39465e-12
7.84262e-13 2.39465e-12 485.727

449.405 -29.0297 2.96674e-12
-29.0297 502.049 1.16263e-12
2.96674e-12 1.16263e-12 493.638

572.532 -6.31754 -4.39108e-12
-6.31754 589.509 -1.25618e-12
-4.39108e-12 -1.25618e-12 549.287

463.194 37.4093 -5.27282e-13
37.4093 487.079 3.71651e-12
-5.27282e-13 3.71651e-12 493.114

408.785 1.6635 2.20505e-12
1.6635 331.638 7.38668e-14
2.20505e-12 7.38668e-14 308.939

404.28 -32.7925 -2.01913e-13
-32.7925 415.557 7.94032e-13
-2.01913e-13 7.94032e-13 387.434

443.198 36.6112 -1.95755e-12
36.6112 485.56 4.02167e-12
-1.95755e-12 4.02167e-12 486.623

444.726 -11.1346 8.57925e-13
-11.1346 498.988 -1.15522e-12
8.57925e-13 -1.15522e-12 471.49

386.117 -25.519 4.0649e-12
-25.519 428.952 8.15348e-12
4.0649e-12 8.15348e-12 384.608

449.505 28.8287 2.7595e-12
28.8287 501.682 4.93946e-12
2.7595e-12 4.93946e-12 493.338

452.763 -26.1459 2.31282e-12
-26.1459 419.35 8.52059e-13
2.31282e-12 8.52059e-13 419.565

579.578 10.4843 -1.04805e-12
10.4843 582.185 6.32161e-12
-1.04805e-12 6.32161e-12 549.072

398.374 30.8773 5.48894e-12
30.8773 422.108 2.05347e-12
5.48894e-12 2.05347e-12 388.207

515.757 8.12588 -1.95903e-12
8.12588 437.324 9.63082e-13
-1.95903e-12 9.63082e-13 494.631

493.854 30.1914 -5.01229e-13
30.1914 484.798 3.08109e-12
-5.01229e-13 3.08109e-12 493.85

453.517 23.3339 -3.18812e-12
23.3339 479.217 -5.28407e-12
-3.18812e-12 -5.28407e-12 475.849

510.745 -32.4858 9.42653e-13
-32.4858 512.497 1.11191e-12
9.42653e-13 1.11191e-12 515.05

510.356 -23.1926 4.28694e-13
-23.1926 473.227 -2.09817e-12
4.28694e-13 -2.09817e-12 489.724

511.437 10.4685 2.35745e-12
10.4685 558.029 4.7559e-12
2.35745e-12 4.7559e-12 523.772

452.224 -23.4359 3.75611e-12
-23.4359 480.22 -5.18696e-13
3.75611e-12 -5.18696e-13 469.001

394.455 -9.70953 5.48539e-12
-9.70953 316.446 3.36953e-12
5.48539e-12 3.36953e-12 295.609

387.335 -14.2792 2.42769e-12
-14.2792 306.091 -4.35207e-12
2.42769e-12 -4.35207e-12 290.082

547.621 16.5315 1.46549e-12
16.5315 507.803 1.15966e-12
1.46549e-12 1.15966e-12 519.361

436.537 22.5049 -6.56364e-13
22.5049 469.19 9.29627e-14
-6.56364e-13 9.29627e-14 447.873

476.013 29.1661 -2.71309e-12
29.1661 467.694 5.66599e-12
-2.71309e-12 5.66599e-12 471.527

450.355 0.688749 9.88839e-13
0.688749 392.821 -1.1266e-13
9.88839e-13 -1.1266e-13 395.719

478.393 6.57011 -3.54555e-12
6.57011 541.321 2.56387e-13
-3.54555e-12 2.56387e-13 507.583

507.383 16.5406 -2.29091e-12
16.5406 461.184 -4.162e-12
-2.29091e-12 -4.162e-12 488.128

390.021 -25.7655 6.2812e-12
-25.7655 430.087 -4.36865e-12
6.2812e-12 -4.36865e-12 387.778

456.363 -2.57164 -3.16066e-12
-2.57164 517.063 3.32001e-12
-3.16066e-12 3.32001e-12 484.887

400.635 13.3676 9.93576e-13
13.3676 453.039 -9.80549e-13
9.93576e-13 -9.80549e-13 404.682

486.963 -29.7157 -2.07301e-12
-29.7157 465.861 -9.96832e-13
-2.07301e-12 -9.96832e-13 474.305

430.348 -29.9523 6.31791e-13
-29.9523 423.678 8.65086e-13
6.31791e-13 8.65086e-13 405.001

399.756 31.6282 -1.75978e-12
31.6282 418.28 5.50078e-13
-1.75978e-12 5.50078e-13 386.046

624.013 -15.0189 7.22918e-12
-15.0189 581.969 4.37006e-12
7.22918e-12 4.37006e-12 557.935

494.562 2.0423 1.44188e-12
2.0423 552.182 -1.73313e-12
1.44188e-12 -1.73313e-12 517.966

483.548 20.298 1.04376e-12
20.298 542.082 2.46085e-12
1.04376e-12 2.46085e-12 516.074

544.745 15.4371 6.75016e-13
15.4371 480.016 7.96992e-13
6.75016e-13 7.96992e-13 515.796

473.798 -26.191 -7.69755e-14
-26.191 479.807 -1.21799e-12
-7.69755e-14 -1.21799e-12 483.066

452.178 17.9599 1.02318e-12
17.9599 404.553 -2.0289e-12
1.02318e-12 -2.0289e-12 406.964

531.61 -5.2923 1.56616e-12
-5.2923 580.829 5.62306e-12
1.56616e-12 5.62306e-12 537.154

512.237 -18.9877 2.28262e-13
-18.9877 464.841 3.5391e-12
2.28262e-13 3.5391e-12 493.075

474.03 -15.6006 3.5835e-12
-15.6006 423.223 -4.22329e-13
3.5835e-12 -4.22329e-13 438.928

402.045 11.6053 1.07854e-12
11.6053 456.011 2.22637e-12
1.07854e-12 2.22637e-12 407.825

410.97 -25.7386 2.24295e-12
-25.7386 435.632 3.64035e-12
2.24295e-12 3.64035e-12 399.002

532.089 -25.274 -2.75217e-12
-25.274 523.229 -1.71182e-12
-2.75217e-12 -1.71182e-12 519.159

423.105 31.9647 -2.61598e-12
31.9647 417.296 6.33567e-13
-2.61598e-12 6.33567e-13 400.35

535.523 -25.1338 3.01092e-12
-25.1338 505.828 1.28845e-12
3.01092e-12 1.28845e-12 515.702

453.548 2.59773 9.2489e-13
2.59773 397.064 8.57832e-14
9.2489e-13 8.57832e-14 401.943

311.132 -28.9351 -3.35139e-12
-28.9351 376.639 -6.30725e-12
-3.35139e-12 -6.30725e-12 290.028

431.925 -29.2356 -2.79066e-12
-29.2356 424.096 9.68707e-13
-2.79066e-12 9.68707e-13 406.2

353.8 32.164 -2.61835e-12
32.164 392.589 -8.14282e-12
-2.61835e-12 -8.14282e-12 313.004

470.389 -11.8759 1.49525e-12
-11.8759 529.597 -2.17071e-12
1.49525e-12 -2.17071e-12 500.348

391.494 -13.8236 -5.2102e-12
-13.8236 449.306 9.71075e-13
-5.2102e-12 9.71075e-13 400.244

602.873 -23.984 -3.08583e-12
-23.984 602.282 -3.21891e-12
-3.08583e-12 -3.21891e-12 557.875

408.418 23.7748 2.825e-12
23.7748 441.992 2.78651e-12
2.825e-12 2.78651e-12 402.268

496.624 -32.7265 2.84336e-12
-32.7265 490.686 3.41949e-13
2.84336e-12 3.41949e-13 497.492

388.233 -11.9651 -1.09616e-12
-11.9651 448.338 -8.52651e-14
-1.09616e-12 -8.52651e-14 397.061

516.759 -19.1165 7.6709e-13
-19.1165 465.801 -1.04835e-12
7.6709e-13 -1.04835e-12 496.29

410.733 23.8811 5.79092e-13
23.8811 439.364 1.61885e-12
5.79092e-13 1.61885e-12 400.744

488.975 -4.97584 3.66226e-12
-4.97584 435.12 -2.33147e-15
3.66226e-12 -2.33147e-15 460.433

305.813 -30.3463 -3.39166e-12
-30.3463 391.48 -4.718e-12
-3.39166e-12 -4.718e-12 262.599

438.659 21.0165 -1.95666e-12
21.0165 473.967 -5.28762e-13
-1.95666e-12 -5.28762e-13 458.399

445.741 -19.3263 2.91086e-12
-19.3263 394.022 -1.70027e-12
2.91086e-12 -1.70027e-12 399.67

551.641 -21.4455 2.34242e-12
-21.4455 499.558 -1.13924e-12
2.34242e-12 -1.13924e-12 520.146

424.521 31.7591 9.01205e-13
31.7591 413.371 3.91983e-12
9.01205e-13 3.91983e-12 398.006

459.216 -29.9755 -6.9574e-13
-29.9755 437.688 -9.30219e-13
-6.9574e-13 -9.30219e-13 439.349

510.671 20.8863 1.57148e-12
20.8863 476.12 -2.44249e-12
1.57148e-12 -2.44249e-12 492.805

461.56 -28.0764 -3.36708e-12
-28.0764 485.796 2.12482e-12
-3.36708e-12 2.12482e-12 488.771

413.77 -26.2296 -2.35249e-12
-26.2296 436.299 -4.45273e-12
-2.35249e-12 -4.45273e-12 401.487

426.127 28.9857 -5.49842e-12
28.9857 429.951 3.6818e-12
-5.49842e-12 3.6818e-12 406.91

452.556 26.195 -2.58045e-12
26.195 418.277 4.77011e-12
-2.58045e-12 4.77011e-12 419.109

522.019 -14.612 3.49409e-12
-14.612 477.225 -3.51127e-13
3.49409e-12 -3.51127e-13 500.112

403.61 -16.6205 6.58673e-12
-16.6205 451.799 -3.45916e-12
6.58673e-12 -3.45916e-12 406.492

496.103 -17.5691 1.76451e-13
-17.5691 447.659 1.47497e-12
1.76451e-13 1.47497e-12 471.553

487.821 16.9105 6.57489e-12
16.9105 436.31 3.15215e-12
6.57489e-12 3.15215e-12 460.641

513.381 -9.38463 1.51575e-12
-9.38463 555.82 -4.16674e-12
1.51575e-12 -4.16674e-12 523.073

454.036 -13.4319 3.64745e-12
-13.4319 402.227 1.98345e-12
3.64745e-12 1.98345e-12 406.793

403.25 0.594362 3.10596e-12
0.594362 465.783 -2.42295e-12
3.10596e-12 -2.42295e-12 417.855

475.084 18.5569 2.59703e-12
18.5569 428.823 -5.91823e-13
2.59703e-12 -5.91823e-13 442.273

451.199 27.6079 7.1303e-12
27.6079 421.89 -3.06037e-12
7.1303e-12 -3.06037e-12 420.894

400.918 -15.6889 5.1014e-12
-15.6889 451.439 -8.17124e-14
5.1014e-12 -8.17124e-14 403.786

406.05 -1.20225 6.47075e-12
-1.20225 468.093 -1.63306e-12
6.47075e-12 -1.63306e-12 421.271

516.248 29.1348 -2.3744e-13
29.1348 498.071 3.01981e-13
-2.3744e-13 3.01981e-13 504.924

441.757 -10.9234 -6.07958e-13
-10.9234 500.714 -1.12266e-12
-6.07958e-13 -1.12266e-12 471.201

451.496 -26.7193 -2.76105e-12
-26.7193 418.818 -2.47802e-12
-2.76105e-12 -2.47802e-12 419.404

444.443 21.336 -1.47082e-12
21.336 395.346 -1.06641e-12
-1.47082e-12 -1.06641e-12 398.25

497.651 23.6666 8.5502e-13
23.6666 458.142 -1.64905e-12
8.5502e-13 -1.64905e-12 476.603

447.734 5.47199 -1.47586e-13
5.47199 508.846 -5.50671e-14
-1.47586e-13 -5.50671e-14 476.934

427.703 29.0702 5.43151e-12
29.0702 426.488 -1.06463e-12
5.43151e-12 -1.06463e-12 405.16

536.865 22.9641 -1.04805e-12
22.9641 531.936 4.42653e-12
-1.04805e-12 4.42653e-12 522.829

314.786 -59.6992 -1.71478e-12
-59.6992 282.8 -3.68061e-12
-1.71478e-12 -3.68061e-12 223.45

480.65 -25.051 2.50348e-12
-25.051 445.124 -2.86793e-12
2.50348e-12 -2.86793e-12 456.699

336.703 7.07096 -6.98967e-12
7.07096 409.207 1.89715e-12
-6.98967e-12 1.89715e-12 319.48

460.594 -28.8931 3.02928e-12
-28.8931 444.791 -3.15895e-12
3.02928e-12 -3.15895e-12 443.505

96.4332 -52.7059 3.61548e-12
-52.7059 306.647 -2.89428e-12
3.61548e-12 -2.89428e-12 113.712

95.9671 51.4565 8.28967e-14
51.4565 306.912 -9.09495e-13
8.28967e-14 -9.09495e-13 114.5

181.534 117.165 -3.80377e-12
117.165 226.098 1.42109e-14
-3.80377e-12 1.42109e-14 113.601

182.832 -117.108 9.49759e-13
-117.108 223.333 -1.38319e-12
9.49759e-13 -1.38319e-12 113.575

321.614 -1.36353 1.89478e-12
-1.36353 84.6616 -1.40906e-14
1.89478e-12 -1.40906e-14 114.942

274.46 -91.1341 -3.5764e-12
-91.1341 127.43 1.87583e-12
-3.5764e-12 1.87583e-12 113.815

275.156 91.6621 -1.27898e-12
91.6621 128.263 -2.69059e-12
-1.27898e-12 -2.69059e-12 114.585

525.29 14.332 8.18604e-13
14.332 474.761 -2.43983e-12
8.18604e-13 -2.43983e-12 502.364

556.834 25.535 3.84137e-12
25.535 541.218 1.68162e-13
3.84137e-12 1.68162e-13 533.491

492.151 6.60696 -2.83092e-12
6.60696 439.174 -1.71448e-12
-2.83092e-12 -1.71448e-12 471.456

470.357 21.7876 2.07597e-12
21.7876 424.568 2.367e-12
2.07597e-12 2.367e-12 438.247

410.025 17.7472 -3.50668e-12
17.7472 461.131 -1.82373e-12
-3.50668e-12 -1.82373e-12 425.095

448.066 28.9028 3.14593e-12
28.9028 424.758 -7.79229e-13
3.14593e-12 -7.79229e-13 420.801

487.203 -29.6659 1.45543e-12
-29.6659 465.681 1.33523e-13
1.45543e-12 1.33523e-13 474.642

449.423 28.0321 -1.43411e-12
28.0321 421.123 3.93996e-12
-1.43411e-12 3.93996e-12 418.693

403.013 -2.84197 -3.36649e-12
-2.84197 465.44 -9.73444e-13
-3.36649e-12 -9.73444e-13 417.592

555.84 -26.0959 1.75326e-12
-26.0959 543.411 1.57104e-12
1.75326e-12 1.57104e-12 533.735

405.551 -4.86345 -1.72247e-12
-4.86345 467.178 -1.69701e-12
-1.72247e-12 -1.69701e-12 420.651

522.34 23.0181 1.55846e-12
23.0181 499.79 -9.77588e-13
1.55846e-12 -9.77588e-13 508.018

423.432 26.8752 2.3815e-12
26.8752 386.555 -3.5764e-13
2.3815e-12 -3.5764e-13 373.073

480.162 -13.2164 -8.54132e-14
-13.2164 532.816 -3.54827e-12
-8.54132e-14 -3.54827e-12 512.05

484.256 13.7296 5.05077e-13
13.7296 432.828 8.11499e-13
5.05077e-13 8.11499e-13 456.928

457.425 -29.9915 3.92575e-12
-29.9915 437.029 -8.93211e-13
3.92575e-12 -8.93211e-13 437.885

454.366 -24.7169 -5.77908e-13
-24.7169 416.855 -4.90274e-13
-5.77908e-13 -4.90274e-13 419.905

547.446 -16.0768 3.33245e-12
-16.0768 509.349 1.22746e-12
3.33245e-12 1.22746e-12 519.43

476.029 27.9319 -7.57912e-13
27.9319 449.758 -5.23285e-12
-7.57912e-13 -5.23285e-12 456.978

469.158 23.9807 1.27306e-13
23.9807 427.901 -1.63602e-12
1.27306e-13 -1.63602e-12 439.882

432.479 -2.79274 1.77036e-12
-2.79274 493.695 3.23534e-12
1.77036e-12 3.23534e-12 457.16

417.657 5.87387 7.94576e-12
5.87387 479.616 -1.24523e-12
7.94576e-12 -1.24523e-12 440.229

463.071 2.64711 -7.85742e-13
2.64711 402.329 -8.18086e-13
-7.85742e-13 -8.18086e-13 422.373

438.704 -7.29091 4.23128e-12
-7.29091 373.96 7.74492e-13
4.23128e-12 7.74492e-13 381.266

454.899 30.4888 -3.9897e-12
30.4888 439.068 -3.05356e-12
-3.9897e-12 -3.05356e-12 437.889

478.521 -26.1587 -1.7728e-12
-26.1587 443.596 -2.41881e-12
-1.7728e-12 -2.41881e-12 454.699

525.75 -21.2549 -4.44741e-12
-21.2549 497.875 1.70175e-12
-4.44741e-12 1.70175e-12 508.667

437.787 -31.6383 1.17772e-12
-31.6383 437.709 2.16123e-13
1.17772e-12 2.16123e-13 426.911

417.642 -27.79 -5.86198e-14
-27.79 444.453 3.51127e-12
-5.86198e-14 3.51127e-12 419.74

430.7 29.8918 -2.19498e-12
29.8918 442.8 7.40445e-12
-2.19498e-12 7.40445e-12 426.55

416.276 -9.57919 -2.73133e-12
-9.57919 475.27 -1.05456e-12
-2.73133e-12 -1.05456e-12 436.507

428.946 -1.54554 -2.35908e-12
-1.54554 491.926 -6.80937e-14
-2.35908e-12 -6.80937e-14 454.047

445.232 5.74766 -4.71919e-13
5.74766 508.099 -1.24227e-12
-4.71919e-13 -1.24227e-12 474.966

414.67 -21.0925 2.5917e-12
-21.0925 458.466 4.117e-12
2.5917e-12 4.117e-12 426.117

496.923 24.1138 2.0736e-12
24.1138 455.748 -3.9968e-12
2.0736e-12 -3.9968e-12 474.645

483.432 -9.59097 2.08485e-12
-9.59097 430.164 -7.51547e-13
2.08485e-12 -7.51547e-13 455.274

415.684 7.46612 4.68701e-12
7.46612 477.18 2.59348e-13
4.68701e-12 2.59348e-13 436.966

444.006 -9.70153 -3.74248e-12
-9.70153 501.561 2.32111e-13
-3.74248e-12 2.32111e-13 471.06

433.226 -16.3328 3.99029e-12
-16.3328 481.735 1.02851e-12
3.99029e-12 1.02851e-12 455.722

463.599 -8.2404 2.72019e-12
-8.2404 406.385 1.75859e-13
2.72019e-12 1.75859e-13 421.523

494.486 -32.3468 -2.66039e-12
-32.3468 487.669 -6.76792e-13
-2.66039e-12 -6.76792e-13 496.303

422.996 9.32265 -2.77733e-12
9.32265 479.15 -8.42585e-13
-2.77733e-12 -8.42585e-13 441.033

564.393 -18.2133 2.45493e-12
-18.2133 529.99 -8.88326e-13
2.45493e-12 -8.88326e-13 531.874

309.084 24.8268 1.84978e-12
24.8268 379.47 -3.77772e-12
1.84978e-12 -3.77772e-12 289.833

501.749 -26.6276 -9.66042e-13
-26.6276 499.539 2.45848e-12
-9.66042e-13 2.45848e-12 501.25

515.698 -30.2031 -1.13213e-12
-30.2031 498.45 -1.48444e-12
-1.13213e-12 -1.48444e-12 504.967

429.274 -0.700819 3.32149e-12
-0.700819 492.052 -3.17139e-12
3.32149e-12 -3.17139e-12 454.198

474.941 -16.6244 -1.56615e-12
-16.6244 428.39 7.14391e-13
-1.56615e-12 7.14391e-13 442.01

462.356 12.842 9.51702e-13
12.842 511.33 -6.75608e-13
9.51702e-13 -6.75608e-13 489.173

240.801 -3.18145 -3.88008e-12
-3.18145 360.73 -3.83219e-12
-3.88008e-12 -3.83219e-12 226.993

432.456 14.2753 2.82885e-13
14.2753 485.415 3.64212e-12
2.82885e-13 3.64212e-12 456.936

458.168 -29.4933 6.60213e-13
-29.4933 443.226 -5.16328e-12
6.60213e-13 -5.16328e-12 440.815

304.221 25.1089 2.77349e-12
25.1089 394.63 -7.55544e-13
2.77349e-12 -7.55544e-13 264.373

603.571 26.0939 -5.26172e-12
26.0939 597.975 -8.26228e-12
-5.26172e-12 -8.26228e-12 558.192

608.304 -27.8028 -8.22897e-13
-27.8028 595.051 1.25739e-11
-8.22897e-13 1.25739e-11 558.326

463.549 -30.4225 2.52302e-12
-30.4225 459.093 1.10016e-12
2.52302e-12 1.10016e-12 459.126

434.639 -31.165 1.86814e-12
-31.165 436.415 -4.33253e-12
1.86814e-12 -4.33253e-12 424.715

474.16 20.8299 -3.26613e-12
20.8299 431.968 3.28715e-12
-3.26613e-12 3.28715e-12 444.027

465.282 15.0084 -2.06827e-12
15.0084 410.167 -3.39551e-12
-2.06827e-12 -3.39551e-12 427.516

646.077 3.08089 2.25138e-12
3.08089 645.734 -5.96745e-12
2.25138e-12 -5.96745e-12 574.649

649.897 -6.99622 -3.93019e-13
-6.99622 641.405 -1.45484e-12
-3.93019e-13 -1.45484e-12 575.177

497.049 4.82415 -1.47615e-12
4.82415 442.091 -1.33982e-12
-1.47615e-12 -1.33982e-12 477.468

443.61 6.73233 5.52765e-12
6.73233 503.047 -5.52684e-12
5.52765e-12 -5.52684e-12 471.104

442.023 6.73646 2.4202e-12
6.73646 502.572 -1.73787e-12
2.4202e-12 -1.73787e-12 469.827

321.572 58.6424 -5.21302e-12
58.6424 281.154 5.33618e-12
-5.21302e-12 5.33618e-12 225.104

420.281 -28.2045 -4.0418e-12
-28.2045 444.08 -2.55499e-12
-4.0418e-12 -2.55499e-12 421.084

520.632 17.974 -4.12796e-12
17.974 467.584 2.22104e-12
-4.12796e-12 2.22104e-12 499.562

473.041 9.54081 -6.27646e-13
9.54081 421.25 -2.55899e-12
-6.27646e-13 -2.55899e-12 436.257

440.686 -26.7273 6.67792e-12
-26.7273 450.784 -9.62193e-13
6.67792e-12 -9.62193e-13 433.469

469.335 -20.2406 -1.43115e-12
-20.2406 422.768 5.15143e-14
-1.43115e-12 5.15143e-14 437.23

312.509 60.2404 -2.71901e-12
60.2404 281.403 4.38286e-12
-2.71901e-12 4.38286e-12 223.242

492.734 31.0703 5.24913e-13
31.0703 489.093 -2.24739e-12
5.24913e-13 -2.24739e-12 493.19

410.914 -19.7893 1.86784e-12
-19.7893 457.94 -2.05288e-12
1.86784e-12 -2.05288e-12 423.551

474.185 28.8611 -2.88066e-12
28.8611 449.686 -2.27729e-12
-2.88066e-12 -2.27729e-12 456.572

431.008 -4.14585 -3.30476e-13
-4.14585 493.032 2.49874e-12
-3.30476e-13 2.49874e-12 456.521

423.984 19.6123 -2.21808e-12
19.6123 465.771 -4.17799e-12
-2.21808e-12 -4.17799e-12 434.162

452.804 30.5231 1.46017e-12
30.5231 443.653 -3.50534e-13
1.46017e-12 -3.50534e-13 439.662

428.697 -22.4768 -2.9298e-12
-22.4768 461.196 -9.57456e-13
-2.9298e-12 -9.57456e-13 433.867

443.63 -27.3566 -1.29911e-12
-27.3566 450.49 -7.34228e-13
-1.29911e-12 -7.34228e-13 435.099

294.811 11.2586 -6.26269e-12
11.2586 372.63 -1.18424e-13
-6.26269e-12 -1.18424e-13 258.133

357.342 -33.4617 4.62919e-12
-33.4617 389.166 -5.81224e-12
4.62919e-12 -5.81224e-12 314.168

419.709 -11.6922 -1.70123e-12
-11.6922 476.421 -4.10635e-12
-1.70123e-12 -4.10635e-12 439.398

478.454 26.488 2.31519e-12
26.488 446.853 -1.03325e-12
2.31519e-12 -1.03325e-12 456.137

452.401 29.4819 -1.1422e-12
29.4819 449.083 5.3646e-12
-1.1422e-12 5.3646e-12 442.454

426.863 -21.4374 -1.64076e-12
-21.4374 461.843 -2.71427e-12
-1.64076e-12 -2.71427e-12 432.684

422.984 -11.7844 1.19194e-12
-11.7844 476.707 -1.83794e-12
1.19194e-12 -1.83794e-12 439.982

457.763 28.4135 -6.01593e-12
28.4135 447.143 -2.21216e-12
-6.01593e-12 -2.21216e-12 442.625

425.158 -13.8801 1.3447e-12
-13.8801 476.479 1.41398e-12
1.3447e-12 1.41398e-12 442.159

311.301 27.8598 3.30817e-12
27.8598 377.438 5.41907e-12
3.30817e-12 5.41907e-12 290.021

485.216 -4.04019 -1.92505e-12
-4.04019 545.096 7.83966e-13
-1.92505e-12 7.83966e-13 511.084

433.039 31.0324 -1.23338e-12
31.0324 439.684 -4.51728e-12
-1.23338e-12 -4.51728e-12 426.072

509.365 14.9029 -2.25597e-12
14.9029 463.214 -1.70027e-12
-2.25597e-12 -1.70027e-12 488.658

516.973 -15.9293 -4.77337e-12
-15.9293 467.633 -2.45966e-12
-4.77337e-12 -2.45966e-12 493.975

383.973 -24.2084 3.61193e-12
-24.2084 305.983 -9.43245e-12
3.61193e-12 -9.43245e-12 285.39

442.334 -21.2697 -3.09264e-12
-21.2697 476.059 -2.91086e-12
-3.09264e-12 -2.91086e-12 459.376

447.884 26.7015 -1.02614e-12
26.7015 466.265 -1.25766e-12
-1.02614e-12 -1.25766e-12 457.896

523.02 -21.7274 2.21304e-12
-21.7274 543.85 7.00181e-13
2.21304e-12 7.00181e-13 525.354

579.607 14.103 3.5015e-12
14.103 617.639 5.21124e-12
3.5015e-12 5.21124e-12 557.087

620.223 9.44516 5.15084e-12
9.44516 576.866 -7.9717e-12
5.15084e-12 -7.9717e-12 556.906

523.515 32.704 2.28972e-12
32.704 520.694 -1.67881e-12
2.28972e-12 -1.67881e-12 519.57

414.943 26.0047 -3.33748e-12
26.0047 448.963 3.6593e-13
-3.33748e-12 3.6593e-13 420.429

478.153 26.6642 3.81917e-12
26.6642 444.822 2.30542e-12
3.81917e-12 2.30542e-12 455.56

332.403 45.1933 4.73577e-12
45.1933 349.532 -2.62546e-12
4.73577e-12 -2.62546e-12 286.776

571.416 -11.3407 7.60666e-12
-11.3407 614.491 -3.43518e-12
7.60666e-12 -3.43518e-12 554.631

641.333 -3.43127 1.67574e-11
-3.43127 636.881 5.82334e-12
1.67574e-11 5.82334e-12 572.426

634.916 -0.208579 2.45744e-12
-0.208579 643.184 2.07253e-11
2.45744e-12 2.07253e-11 572.253

272.993 -53.8098 -4.16852e-13
-53.8098 316.483 8.09071e-12
-4.16852e-13 8.09071e-12 220.935

566.674 -11.5986 -2.18832e-12
-11.5986 562.156 6.8295e-12
-2.18832e-12 6.8295e-12 540.939

563.799 8.81103 -7.97155e-12
8.81103 586.992 -3.87927e-12
-7.97155e-12 -3.87927e-12 546.878

478.301 -26.2021 2.91145e-12
-26.2021 440.494 -2.90168e-12
2.91145e-12 -2.90168e-12 453.535

494.393 1.00979 -2.18192e-12
1.00979 545.806 -2.15413e-12
-2.18192e-12 -2.15413e-12 514.104

447.706 -20.2702 1.72914e-12
-20.2702 484.217 1.77636e-13
1.72914e-12 1.77636e-13 470.692

506.359 6.25561 1.85037e-12
6.25561 443.431 -1.40332e-12
1.85037e-12 -1.40332e-12 486.18

461.328 15.5962 -4.13197e-13
15.5962 521.305 1.51849e-12
-4.13197e-13 1.51849e-12 497.608

471.229 7.19091 -5.59008e-12
7.19091 528.057 1.5774e-12
-5.59008e-12 1.5774e-12 497.74

493.819 20.3954 -9.53312e-13
20.3954 451.569 2.58786e-12
-9.53312e-13 2.58786e-12 469.803

241.091 -3.11391 5.42929e-12
-3.11391 358.602 5.51855e-13
5.42929e-12 5.51855e-13 227.091

463.756 -27.6271 -3.75403e-12
-27.6271 463.448 3.73094e-12
-3.75403e-12 3.73094e-12 461.245

488.398 -26.119 2.78888e-13
-26.119 481.651 1.31894e-12
2.78888e-13 1.31894e-12 485.921

497.59 -31.4837 2.60799e-12
-31.4837 490.012 -2.24265e-13
2.60799e-12 -2.24265e-13 499.032

355.642 32.7544 -4.1922e-12
32.7544 285.81 5.32937e-12
-4.1922e-12 5.32937e-12 248.397

563.915 -20.1153 1.51138e-12
-20.1153 569.642 1.81588e-12
1.51138e-12 1.81588e-12 542.61

337.685 54.3291 -4.65405e-12
54.3291 356.698 -6.24804e-12
-4.65405e-12 -6.24804e-12 258.906

477.123 -21.4386 4.05898e-13
-21.4386 506.544 1.9688e-13
4.05898e-13 1.9688e-13 500.296

504.83 14.6507 1.20437e-12
14.6507 452.041 2.4339e-12
1.20437e-12 2.4339e-12 481.614

449.889 -14.5747 5.77908e-12
-14.5747 397.035 2.55336e-12
5.77908e-12 2.55336e-12 400.89

452.65 24.0489 -4.83169e-13
24.0489 478.839 -2.05465e-13
-4.83169e-13 -2.05465e-13 467.903

493.724 20.4294 1.16055e-13
20.4294 449.553 -7.95216e-13
1.16055e-13 -7.95216e-13 469.395

505.607 11.3987 -1.2094e-12
11.3987 564.454 -3.55271e-15
-1.2094e-12 -3.55271e-15 526.755

475.951 -31.5824 8.46138e-13
-31.5824 470.412 1.91995e-12
8.46138e-13 1.91995e-12 475.118

559.307 19.8121 2.39394e-12
19.8121 510.482 1.18868e-12
2.39394e-12 1.18868e-12 526.531

440.013 -18.4457 9.92983e-13
-18.4457 482.524 1.98656e-12
9.92983e-13 1.98656e-12 459.204

465.948 4.28421 -1.49853e-12
4.28421 526.16 -9.95352e-13
-1.49853e-12 -9.95352e-13 495.561

588.667 9.92803 -1.97768e-12
9.92803 552.493 1.89715e-12
-1.97768e-12 1.89715e-12 545.227

590.449 -8.51487 4.92465e-12
-8.51487 554.835 4.01397e-12
4.92465e-12 4.01397e-12 545.744

382.357 18.5152 -9.97128e-13
18.5152 302.321 8.74382e-12
-9.97128e-13 8.74382e-12 286.169

502.735 7.96601 -3.54679e-13
7.96601 453.654 4.58478e-12
-3.54679e-13 4.58478e-12 487.819

232.838 7.74185 3.62421e-12
7.74185 381.553 1.89004e-12
3.62421e-12 1.89004e-12 187.207

237.008 -11.3867 -4.41003e-12
-11.3867 387.247 3.6285e-12
-4.41003e-12 3.6285e-12 189.472

249.311 56.4118 1.84741e-12
56.4118 354.812 3.69956e-12
1.84741e-12 3.69956e-12 184.044

505.066 -28.9522 2.61657e-12
-28.9522 478.667 -1.84593e-12
2.61657e-12 -1.84593e-12 491.394

258.5 -49.197 -3.03402e-12
-49.197 341.879 9.97128e-13
-3.03402e-12 9.97128e-13 220.76

249.316 -55.9544 8.73968e-13
-55.9544 344.786 6.27646e-12
8.73968e-13 6.27646e-12 181.136

434.708 26.2241 1.758e-12
26.2241 454.45 -1.3897e-12
1.758e-12 -1.3897e-12 432.877

329.956 73.8504 -2.68585e-12
73.8504 280.037 2.7048e-12
-2.68585e-12 2.7048e-12 184.848

540.163 13.0459 -2.88806e-12
13.0459 554.987 9.86174e-13
-2.88806e-12 9.86174e-13 532.12

562.422 0.0423231 1.49732e-12
0.0423231 532.492 1.03828e-12
1.49732e-12 1.03828e-12 531.913

338.635 -73.1357 -3.22113e-13
-73.1357 279.884 -2.7048e-12
-3.22113e-13 -2.7048e-12 186.331

432.723 -23.4272 -4.49033e-12
-23.4272 466.368 -4.47464e-12
-4.49033e-12 -4.47464e-12 447.625

358.973 34.734 1.97768e-12
34.734 311.01 4.47642e-12
1.97768e-12 4.47642e-12 258.069

267.731 63.4968 8.71362e-12
63.4968 345.243 6.39962e-12
8.71362e-12 6.39962e-12 185.866

293.725 21.6333 -2.49637e-12
21.6333 367.704 -3.82272e-12
-2.49637e-12 -3.82272e-12 254.528

267.603 -65.9259 -7.67386e-13
-65.9259 344.878 -1.66741e-12
-7.67386e-13 -1.66741e-12 184.321

291.672 -12.3827 -5.26335e-12
-12.3827 370.926 4.35563e-12
-5.26335e-12 4.35563e-12 253.473

550.338 6.83889 2.87851e-12
6.83889 582.11 6.21133e-13
2.87851e-12 6.21133e-13 541.157

329.928 -45.9817 -1.59991e-12
-45.9817 341.856 6.75016e-14
-1.59991e-12 6.75016e-14 276.648

259.809 47.5382 1.76451e-13
47.5382 340.255 -5.48776e-12
1.76451e-13 -5.48776e-12 223.172

370.252 37.9153 -5.4096e-12
37.9153 244.944 -4.52142e-12
-5.4096e-12 -4.52142e-12 187.377

481.945 -29.2887 3.35909e-12
-29.2887 460.565 -7.8663e-13
3.35909e-12 -7.8663e-13 467.767

481.024 12.8961 3.1856e-12
12.8961 525.88 7.7837e-12
3.1856e-12 7.7837e-12 504.153

354.46 -38.1177 2.93217e-12
-38.1177 300.11 -1.64372e-12
2.93217e-12 -1.64372e-12 251.845

482.589 -28.8048 3.25665e-14
-28.8048 460.373 2.35071e-12
3.25665e-14 2.35071e-12 468.515

365.299 -36.3471 1.86162e-12
-36.3471 231.011 9.41469e-14
1.86162e-12 9.41469e-14 182.79

481.557 -28.3201 -6.51331e-15
-28.3201 472.808 2.07863e-12
-6.51331e-15 2.07863e-12 477.971

436.407 -25.2984 -1.51464e-12
-25.2984 466.282 9.8351e-13
-1.51464e-12 9.8351e-13 448.263

314.829 69.4668 1.93268e-12
69.4668 292.171 1.26524e-11
1.93268e-12 1.26524e-11 184.544

290.814 -22.936 -2.62309e-12
-22.936 359.206 -8.79889e-12
-2.62309e-12 -8.79889e-12 247.059

312.43 -71.699 1.98952e-13
-71.699 288.15 -3.46982e-12
1.98952e-13 -3.46982e-12 182.047

268.575 50.7438 4.10575e-12
50.7438 320.096 3.57166e-12
4.10575e-12 3.57166e-12 221.531

459.916 -30.2158 -6.12133e-12
-30.2158 454.899 1.52145e-12
-6.12133e-12 1.52145e-12 454.453

559.324 -14.6412 2.83033e-12
-14.6412 544.446 9.47686e-13
2.83033e-12 9.47686e-13 533.759

635.93 11.0899 -8.8709e-12
11.0899 631.396 1.33375e-13
-8.8709e-12 1.33375e-13 570.05

619.972 -5.1605 4.09998e-12
-5.1605 639.746 1.01689e-11
4.09998e-12 1.01689e-11 568.528

453.92 13.0841 3.74351e-12
13.0841 506.61 -7.10247e-12
3.74351e-12 -7.10247e-12 482.624

634.159 -10.6642 -3.73205e-12
-10.6642 631.327 -1.85037e-12
-3.73205e-12 -1.85037e-12 569.905

622.709 4.09251 2.09551e-12
4.09251 642.691 2.46936e-12
2.09551e-12 2.46936e-12 569.729

643.384 7.4305 5.85398e-12
7.4305 619.161 -8.74012e-12
5.85398e-12 -8.74012e-12 569.052

584.797 -12.1118 -5.40512e-12
-12.1118 631.681 3.66329e-12
-5.40512e-12 3.66329e-12 560.626

307.479 -30.4749 -4.39471e-12
-30.4749 371.678 -7.08174e-13
-4.39471e-12 -7.08174e-13 280.804

589.652 -12.9721 -7.21379e-12
-12.9721 549.145 5.71336e-12
-7.21379e-12 5.71336e-12 543.865

527.25 -34.4156 3.4488e-12
-34.4156 521.528 -3.201e-12
3.4488e-12 -3.201e-12 520.01

565.498 -18.1778 -7.65018e-13
-18.1778 538.027 -5.68952e-12
-7.65018e-13 -5.68952e-12 534.299

502.625 15.4609 2.85283e-12
15.4609 452.167 -1.75622e-12
2.85283e-12 -1.75622e-12 480.259

586.369 9.86187 -1.21958e-12
9.86187 642.145 2.82914e-12
-1.21958e-12 2.82914e-12 563.135

636.668 19.2243 1.56971e-12
19.2243 591.742 1.55334e-11
1.56971e-12 1.55334e-11 562.957

569.809 11.3089 3.61459e-12
11.3089 544.375 3.33185e-12
3.61459e-12 3.33185e-12 536.477

353.483 -15.3419 -1.7503e-12
-15.3419 231.54 -6.30725e-12
-1.7503e-12 -6.30725e-12 219.04

437.26 24.9677 3.40735e-12
24.9677 461.97 -1.16233e-12
3.40735e-12 -1.16233e-12 445.776

317.125 -61.3626 2.87533e-12
-61.3626 277.879 -2.57927e-12
2.87533e-12 -2.57927e-12 218.114

334.245 -57.4641 1.87583e-12
-57.4641 357.362 -1.66741e-12
1.87583e-12 -1.66741e-12 252.57

383.377 -36.5487 -1.75741e-12
-36.5487 305.772 -3.64508e-12
-1.75741e-12 -3.64508e-12 257.79

562.525 -5.15859 1.42819e-12
-5.15859 616.969 3.73316e-12
1.42819e-12 3.73316e-12 552.986

562.232 2.89143 4.83761e-12
2.89143 615.835 1.33819e-12
4.83761e-12 1.33819e-12 552.584

598.791 -24.4517 -9.37324e-13
-24.4517 575.769 -2.94305e-12
-9.37324e-13 -2.94305e-12 551.614

602.351 -21.7555 1.57542e-11
-21.7555 573.459 -1.16914e-12
1.57542e-11 -1.16914e-12 551.88

598.804 26.1308 -1.29171e-12
26.1308 580.484 -1.51782e-12
-1.29171e-12 -1.51782e-12 552.769

625.755 3.09616 8.88208e-12
3.09616 630.746 9.31884e-12
8.88208e-12 9.31884e-12 568.451

599.081 -20.5053 -3.79844e-12
-20.5053 576.381 -2.51932e-12
-3.79844e-12 -2.51932e-12 552.303

607.828 -18.5655 2.99257e-12
-18.5655 620.274 8.4488e-13
2.99257e-12 8.4488e-13 563.218

632.912 2.43208 -6.34633e-12
2.43208 635.535 2.87799e-12
-6.34633e-12 2.87799e-12 570.536

607.906 -20.5219 -1.01515e-11
-20.5219 572.453 -2.10794e-13
-1.01515e-11 -2.10794e-13 553.441

607.092 20.9514 2.95689e-12
20.9514 573.711 4.01249e-12
2.95689e-12 4.01249e-12 553.845

633.863 -3.45592 2.48246e-13
-3.45592 636.785 7.10158e-12
2.48246e-13 7.10158e-12 571.309

632.193 -3.11354 1.47666e-11
-3.11354 625.769 -2.67923e-11
1.47666e-11 -2.67923e-11 569.425

609.7 12.1092 -5.69914e-12
12.1092 620.497 2.09225e-12
-5.69914e-12 2.09225e-12 563.949

587.227 26.9256 -3.45709e-12
26.9256 583.041 -5.69618e-12
-3.45709e-12 -5.69618e-12 551.738

FIELD solute_concentration_TPM 2
S_ext 1 563 float
0.780848
0.780707
0.78072
0.780708
0.780696
0.780721
0.780848
0.780715
0.780732
0.780711
0.780818
0.780715
0.780717
0.78071
0.780699
0.780719
0.780706
0.780714
0.780734
0.780722
0.780727
0.780675
0.780724
0.780723
0.780722
0.780711
0.78081
0.78072
0.780769
0.780686
0.780718
0.780768
0.780814
0.780689
0.780688
0.780689
0.780683
0.780689
0.780719
0.780813
0.780769
0.780683
0.780682
0.780717
0.780794
0.780768
0.780733
0.78073
0.78072
0.780776
0.780772
0.780758
0.780694
0.780758
0.780695
0.780798
0.780688
0.780758
0.780688
0.780721
0.780705
0.780701
0.780807
0.780703
0.780701
0.780709
0.780705
0.780712
0.780723
0.780708
0.780695
0.780694
0.78077
0.780707
0.78072
0.780816
0.7807
0.780709
0.780712
0.780752
0.780783
0.780693
0.780703
0.780784
0.780769
0.780797
0.780719
0.780709
0.780794
0.780681
0.780758
0.780681
0.780698
0.780711
0.780758
0.780772
0.780784
0.78071
0.7807
0.780718
0.780744
0.780766
0.780784
0.780711
0.780711
0.78071
0.780703
0.78072
0.780784
0.780705
0.780721
0.780791
0.780787
0.780713
0.78071
0.780759
0.78069
0.780785
0.780691
0.780758
0.780738
0.780698
0.780707
0.780706
0.780705
0.780697
0.780692
0.78071
0.780784
0.780757
0.780694
0.780707
0.780703
0.780707
0.780766
0.780688
0.780792
0.780717
0.780703
0.780688
0.780764
0.780714
0.780738
0.78071
0.780786
0.780711
0.780715
0.780723
0.780721
0.780747
0.78073
0.780707
0.780768
0.780717
0.78071
0.780707
0.780709
0.780764
0.780763
0.780715
0.780729
0.780767
0.780793
0.780771
0.780763
0.78071
0.780764
0.780765
0.780769
0.780763
0.780698
0.780758
0.780771
0.780708
0.780758
0.780703
0.780698
0.780716
0.780695
0.780713
0.78077
0.78071
0.78071
0.780764
0.780708
0.780772
0.780705
0.780704
0.780699
0.78071
0.780708
0.780782
0.780757
0.780768
0.780707
0.780713
0.780712
0.780703
0.780707
0.78071
0.780707
0.780734
0.780752
0.780703
0.78077
0.780703
0.78071
0.780766
0.780702
0.780707
0.780703
0.780712
0.780711
0.780703
0.780746
0.780711
0.780751
0.780704
0.780705
0.780705
0.780704
0.780705
0.780705
0.780705
0.780711
0.780698
0.780698
0.780698
0.780698
0.780697
0.780696
0.780747
0.78071
0.780707
0.78073
0.780699
0.780699
0.780707
0.780751
0.780707
0.78071
0.780746
0.780701
0.780747
0.780704
0.780706
0.780745
0.78075
0.780783
0.780777
0.780703
0.780788
0.780718
0.780751
0.780734
0.780707
0.780705
0.780684
0.780704
0.780791
0.780751
0.780707
0.780715
0.780752
0.780704
0.780738
0.780684
0.780751
0.780705
0.780707
0.780712
0.780699
0.78071
0.780695
0.780716
0.780793
0.780797
0.780699
0.780725
0.780715
0.780748
0.780701
0.780709
0.78075
0.78071
0.780744
0.780715
0.780744
0.780751
0.780681
0.780697
0.780697
0.780697
0.78071
0.780744
0.780689
0.780707
0.780729
0.780743
0.780747
0.780697
0.780746
0.7807
0.780746
0.780794
0.780744
0.780787
0.780704
0.780745
0.78068
0.780746
0.780706
0.780747
0.780706
0.780746
0.78072
0.780812
0.78072
0.780746
0.780696
0.780746
0.780729
0.780708
0.780707
0.780746
0.780744
0.780738
0.780706
0.780743
0.780716
0.78072
0.780696
0.780744
0.780738
0.780728
0.780737
0.780745
0.780737
0.780704
0.780715
0.780738
0.780746
0.780714
0.780713
0.780744
0.780696
0.780823
0.780722
0.780783
0.780728
0.780869
0.780869
0.780867
0.780868
0.780865
0.780873
0.780873
0.780704
0.780693
0.780715
0.780729
0.780734
0.780737
0.780715
0.780738
0.780738
0.780693
0.780737
0.780703
0.780758
0.780698
0.780721
0.780729
0.780738
0.780699
0.780722
0.780729
0.780722
0.780728
0.780736
0.780753
0.780729
0.780723
0.780701
0.780734
0.780736
0.780734
0.78073
0.780723
0.780714
0.780734
0.780714
0.780722
0.780729
0.780715
0.780721
0.780736
0.780705
0.780728
0.780692
0.780794
0.780704
0.780704
0.780722
0.780728
0.780708
0.780823
0.780721
0.780728
0.780811
0.780683
0.780684
0.780721
0.780735
0.780727
0.780734
0.780678
0.780677
0.780713
0.780716
0.780716
0.780826
0.780736
0.780705
0.780731
0.780732
0.78073
0.780822
0.780707
0.780735
0.780722
0.780722
0.780731
0.780729
0.780731
0.780731
0.780812
0.780786
0.780729
0.780722
0.780728
0.780732
0.780729
0.780728
0.780728
0.780795
0.7807
0.780734
0.780708
0.780706
0.780796
0.78072
0.78072
0.780697
0.780679
0.780678
0.780698
0.780736
0.780722
0.780797
0.78068
0.780674
0.780674
0.780824
0.780689
0.780685
0.780723
0.780699
0.780715
0.780709
0.780704
0.780705
0.780717
0.780822
0.780719
0.780711
0.780705
0.780817
0.780687
0.780816
0.780703
0.780712
0.780746
0.780716
0.780717
0.780693
0.780714
0.780693
0.78072
0.780706
0.780688
0.780688
0.780798
0.780709
0.78085
0.780851
0.78085
0.780708
0.780827
0.780851
0.780732
0.780849
0.780693
0.780693
0.78085
0.780724
0.780815
0.780853
0.780814
0.780854
0.780814
0.780689
0.780802
0.780826
0.780848
0.780717
0.780702
0.780816
0.780717
0.780849
0.780713
0.780725
0.780854
0.780817
0.780854
0.780823
0.780722
0.780691
0.780674
0.780674
0.780711
0.780674
0.780674
0.780674
0.780679
0.780799
0.780686
0.780698
0.780693
0.780712
0.780679
0.780678
0.780692
0.780824
0.780725
0.780829
0.78082
0.780813
0.78068
0.78068
0.780681
0.780681
0.780679
0.780677
0.780684
0.78068
0.780678
0.780683
0.780683
0.780678
0.780676
0.780679
0.780683
P_ext 1 563 float
0.0109229
0.0109202
0.0109206
0.0109203
0.0109192
0.0109206
0.0109229
0.0109204
0.0109209
0.0109203
0.0109225
0.0109204
0.0109205
0.0109202
0.0109195
0.0109206
0.01092
0.0109204
0.010921
0.0109207
0.0109208
0.0109174
0.0109207
0.0109207
0.0109207
0.0109203
0.0109224
0.0109205
0.0109217
0.0109184
0.0109205
0.0109217
0.0109224
0.0109187
0.0109187
0.0109187
0.0109183
0.0109188
0.0109205
0.0109224
0.0109217
0.0109183
0.0109183
0.0109205
0.0109221
0.0109217
0.0109209
0.0109209
0.0109206
0.0109218
0.0109217
0.0109215
0.0109192
0.0109215
0.0109193
0.0109222
0.0109187
0.0109215
0.0109187
0.0109206
0.01092
0.0109198
0.0109223
0.0109198
0.0109198
0.0109201
0.01092
0.0109203
0.0109207
0.0109202
0.0109192
0.0109192
0.0109217
0.01092
0.0109206
0.0109225
0.0109196
0.0109201
0.0109203
0.0109214
0.0109219
0.0109191
0.0109199
0.010922
0.0109217
0.0109222
0.0109205
0.01092
0.0109221
0.0109176
0.0109215
0.0109176
0.0109195
0.0109201
0.0109215
0.0109217
0.0109219
0.0109203
0.0109196
0.0109205
0.0109212
0.0109216
0.0109219
0.0109204
0.0109203
0.0109203
0.0109198
0.0109206
0.010922
0.0109201
0.0109206
0.0109221
0.010922
0.0109204
0.0109203
0.0109215
0.0109187
0.010922
0.0109187
0.0109215
0.010921
0.0109196
0.0109202
0.01092
0.01092
0.0109195
0.0109188
0.0109203
0.0109219
0.0109214
0.0109192
0.0109202
0.0109199
0.0109202
0.0109216
0.0109186
0.0109221
0.0109205
0.0109198
0.0109186
0.0109216
0.0109203
0.010921
0.0109202
0.010922
0.0109203
0.0109203
0.0109206
0.0109206
0.0109212
0.0109208
0.0109202
0.0109217
0.0109205
0.0109203
0.0109202
0.0109202
0.0109216
0.0109216
0.0109205
0.0109209
0.0109216
0.0109221
0.0109217
0.0109216
0.0109203
0.0109216
0.0109216
0.0109217
0.0109216
0.0109194
0.0109215
0.0109217
0.0109202
0.0109215
0.0109198
0.0109195
0.0109204
0.0109193
0.0109203
0.0109217
0.0109203
0.0109203
0.0109216
0.0109201
0.0109218
0.01092
0.0109199
0.0109195
0.0109203
0.01092
0.0109219
0.0109215
0.0109217
0.0109202
0.0109204
0.0109204
0.0109199
0.0109202
0.0109201
0.0109202
0.010921
0.0109214
0.0109199
0.0109217
0.0109199
0.0109201
0.0109216
0.0109197
0.0109202
0.0109197
0.0109202
0.0109203
0.0109198
0.0109212
0.0109202
0.0109214
0.0109199
0.01092
0.01092
0.0109201
0.0109201
0.0109201
0.0109201
0.0109202
0.0109195
0.0109195
0.0109195
0.0109195
0.0109192
0.0109192
0.0109212
0.0109202
0.0109202
0.0109209
0.0109195
0.0109195
0.0109202
0.0109213
0.0109202
0.0109203
0.0109212
0.0109197
0.0109213
0.0109198
0.0109202
0.0109212
0.0109213
0.0109219
0.0109218
0.0109199
0.010922
0.0109205
0.0109214
0.010921
0.0109202
0.01092
0.0109183
0.0109201
0.0109221
0.0109213
0.0109202
0.0109204
0.0109214
0.01092
0.010921
0.0109183
0.0109213
0.01092
0.01092
0.0109204
0.0109195
0.01092
0.0109193
0.0109205
0.0109221
0.0109222
0.0109194
0.0109208
0.0109204
0.0109213
0.0109196
0.0109202
0.0109213
0.0109201
0.0109212
0.0109203
0.0109212
0.0109213
0.0109179
0.0109194
0.0109195
0.0109195
0.0109203
0.0109212
0.0109188
0.0109201
0.0109208
0.0109212
0.0109213
0.0109194
0.0109212
0.0109195
0.0109213
0.0109221
0.0109212
0.010922
0.0109198
0.0109212
0.0109179
0.0109212
0.0109199
0.0109213
0.01092
0.0109212
0.0109206
0.0109224
0.0109206
0.0109213
0.0109193
0.0109212
0.0109208
0.01092
0.0109202
0.0109212
0.0109212
0.010921
0.0109199
0.0109212
0.0109204
0.0109206
0.0109193
0.0109212
0.0109211
0.0109208
0.010921
0.0109212
0.010921
0.0109197
0.0109204
0.0109211
0.0109212
0.0109203
0.0109203
0.0109212
0.0109193
0.0109226
0.0109206
0.0109219
0.0109208
0.0109232
0.0109232
0.0109232
0.0109232
0.0109232
0.0109233
0.0109233
0.0109198
0.0109189
0.0109204
0.0109208
0.010921
0.010921
0.0109203
0.010921
0.0109211
0.0109189
0.010921
0.0109197
0.0109215
0.0109196
0.0109206
0.0109208
0.0109211
0.0109194
0.0109206
0.0109208
0.0109206
0.0109208
0.010921
0.0109214
0.0109208
0.0109206
0.0109197
0.0109209
0.010921
0.010921
0.0109208
0.0109206
0.0109203
0.010921
0.0109203
0.0109206
0.0109208
0.0109204
0.0109206
0.010921
0.01092
0.0109208
0.010919
0.0109221
0.0109199
0.0109197
0.0109206
0.0109208
0.0109201
0.0109226
0.0109206
0.0109208
0.0109224
0.010918
0.010918
0.0109206
0.010921
0.0109208
0.010921
0.0109173
0.0109173
0.0109204
0.0109204
0.0109204
0.0109226
0.010921
0.0109199
0.0109209
0.0109209
0.0109209
0.0109225
0.01092
0.010921
0.0109206
0.0109206
0.0109209
0.0109208
0.0109209
0.0109209
0.0109224
0.010922
0.0109208
0.0109206
0.0109208
0.0109209
0.0109208
0.0109208
0.0109208
0.0109221
0.0109196
0.010921
0.0109201
0.01092
0.0109221
0.0109206
0.0109206
0.0109193
0.0109179
0.0109179
0.0109193
0.010921
0.0109206
0.0109222
0.010918
0.0109174
0.0109174
0.0109226
0.0109187
0.0109184
0.0109206
0.0109195
0.0109205
0.0109202
0.0109199
0.0109199
0.0109204
0.0109225
0.0109206
0.0109202
0.0109199
0.0109225
0.0109186
0.0109225
0.0109199
0.0109203
0.0109212
0.0109205
0.0109204
0.0109191
0.0109204
0.0109191
0.0109206
0.01092
0.0109184
0.0109184
0.0109222
0.0109201
0.010923
0.010923
0.010923
0.01092
0.0109226
0.010923
0.0109209
0.0109229
0.0109191
0.0109191
0.0109229
0.0109207
0.0109224
0.010923
0.0109224
0.010923
0.0109224
0.0109187
0.0109222
0.0109226
0.0109229
0.0109205
0.0109198
0.0109225
0.0109204
0.0109229
0.0109203
0.0109207
0.010923
0.0109225
0.010923
0.0109226
0.0109206
0.010919
0.0109174
0.0109174
0.0109202
0.0109174
0.0109174
0.0109174
0.0109178
0.0109222
0.0109185
0.0109194
0.0109189
0.0109202
0.0109177
0.0109177
0.0109189
0.0109226
0.0109208
0.0109227
0.0109225
0.0109224
0.0109181
0.0109181
0.0109181
0.0109181
0.0109181
0.0109175
0.0109181
0.0109177
0.0109174
0.010918
0.010918
0.0109174
0.0109175
0.0109177
0.0109181
FIELD solute_flux_TPM 2
S_ext 3 563 float
-4.27043e-05 1.42436e-05 -1.23121e-18
2.33222e-06 4.08343e-06 -5.83192e-19
-7.30514e-06 -5.65325e-06 -1.01495e-18
-2.42051e-06 2.46905e-06 -7.51987e-19
1.49105e-05 -4.34811e-06 -5.20114e-19
1.47459e-06 -9.02848e-06 2.43432e-19
-4.20539e-05 -1.44171e-05 6.20238e-19
-8.29219e-06 -5.86004e-06 1.07456e-18
1.22707e-05 5.75047e-07 3.38863e-18
6.71878e-06 -2.57e-06 2.67753e-18
2.85963e-05 6.6477e-06 -6.18781e-19
1.12539e-06 -1.00972e-05 -8.40282e-19
8.08506e-06 6.25016e-06 1.25177e-21
1.85334e-06 8.15862e-06 -6.63247e-19
1.35197e-05 -2.11476e-06 -5.12979e-19
-9.14562e-06 -1.4902e-07 1.24411e-18
2.01868e-06 8.72131e-06 2.59551e-19
5.8589e-06 -1.47838e-06 -9.13335e-20
5.46967e-06 9.49763e-06 1.49007e-18
-8.30958e-06 1.08494e-06 -9.31735e-20
-1.8356e-06 -1.1968e-05 -1.7098e-19
2.86139e-05 4.03892e-05 3.19681e-18
8.86792e-06 9.35564e-07 -7.56257e-19
6.45472e-06 -6.31128e-06 4.95845e-19
-8.42261e-06 -1.94487e-06 2.65884e-18
-1.71505e-07 -6.53077e-06 -1.70603e-19
3.27996e-05 -2.53858e-06 3.15835e-19
8.26384e-06 5.87406e-06 2.73188e-21
-1.32262e-05 -1.07907e-05 -2.49742e-18
3.22616e-05 -8.61989e-06 2.08426e-18
-9.38979e-06 -3.71319e-06 -1.01053e-18
2.87897e-06 -1.69902e-05 -1.59005e-19
2.45998e-05 -2.50446e-05 -1.72595e-18
-3.47083e-06 -2.74239e-05 -2.23607e-18
-1.9505e-05 2.41535e-05 -9.48678e-19
-2.54863e-05 -1.06927e-05 1.63582e-18
2.14731e-05 2.80015e-05 -1.37487e-18
-2.93555e-05 -5.83909e-06 2.32817e-18
8.52883e-06 -6.16699e-06 -1.4201e-18
2.40398e-05 2.60965e-05 7.84903e-19
1.71081e-05 -7.42904e-06 -1.4493e-18
2.18724e-05 -2.6959e-05 -1.64497e-18
-1.24185e-05 -3.23975e-05 -3.39902e-18
-8.9511e-06 3.88775e-06 -6.78663e-19
1.58712e-05 -1.55089e-05 -1.50488e-18
-1.58812e-05 5.63041e-06 -1.69858e-18
-2.21875e-06 -1.12121e-05 -2.89252e-18
4.31972e-06 1.11673e-05 1.74302e-19
-9.34304e-06 3.52237e-06 -6.78793e-19
-9.48157e-06 1.49477e-05 1.28254e-18
1.72408e-05 8.04797e-06 1.45408e-18
1.57207e-05 -5.51822e-06 1.64307e-19
-1.02956e-05 1.01763e-05 1.20154e-18
-1.24785e-05 -1.07634e-05 2.34932e-18
-1.37412e-05 -3.463e-06 1.36311e-18
-2.30093e-05 1.37504e-05 6.38577e-19
-1.93143e-05 -2.48645e-05 -4.14531e-18
3.24006e-06 -1.62827e-05 -1.62589e-18
-3.12005e-05 4.3372e-06 4.27879e-19
3.36915e-06 7.75757e-06 6.72553e-19
-3.323e-06 -5.30175e-06 -1.02953e-18
-3.95774e-06 -1.15266e-05 -2.22314e-18
2.96488e-05 1.28879e-05 3.47601e-18
6.15486e-06 1.1286e-05 2.1286e-18
8.06069e-06 -9.0818e-06 -1.61275e-18
-1.28884e-06 -1.26784e-05 -2.56361e-19
3.14401e-06 -5.47683e-06 -1.01255e-18
-5.78649e-06 -3.44873e-06 4.06609e-19
-6.03244e-06 6.61314e-06 2.24743e-18
1.44076e-06 -2.68024e-06 9.1138e-19
-9.86654e-06 -1.0231e-05 -5.21365e-18
-1.3864e-05 3.47527e-06 1.02208e-18
-2.04652e-06 1.80623e-05 5.67153e-19
-1.09422e-05 6.62864e-06 -5.144e-19
-5.15338e-06 8.13402e-06 -1.41007e-18
-3.05813e-05 3.85627e-06 6.19627e-19
5.22308e-06 -1.36779e-05 7.68869e-19
-1.16636e-05 -5.14525e-06 1.92906e-18
9.41777e-07 6.85104e-06 1.73596e-19
1.42487e-05 2.71263e-06 2.50375e-19
1.79452e-05 -1.52181e-05 7.21775e-19
1.46322e-05 1.32864e-05 -1.7948e-18
7.67699e-06 -2.03212e-06 -1.44102e-18
-1.67064e-05 1.22182e-05 -1.58251e-19
2.00591e-05 2.6017e-06 -8.09792e-20
-2.86119e-06 2.54626e-05 6.34116e-19
-9.03839e-07 -9.73113e-06 3.29143e-19
1.11977e-05 5.94227e-06 -1.60464e-18
1.52636e-05 1.59592e-05 1.61451e-19
4.24701e-05 2.64124e-05 -3.87948e-18
-2.81562e-06 1.63608e-05 -1.38038e-18
4.43705e-05 -2.49355e-05 -3.09e-18
-1.75503e-05 3.18049e-06 7.61296e-19
1.09315e-05 6.95187e-06 1.67976e-18
-1.56048e-05 5.27363e-06 -8.21959e-19
8.74814e-06 1.51368e-05 5.19303e-21
5.15138e-06 -2.30784e-05 -4.02844e-19
9.76601e-07 6.85357e-06 -1.65702e-19
-9.1726e-06 -1.13285e-05 -9.50319e-19
1.55694e-06 1.00168e-05 -7.43313e-19
1.436e-05 2.9574e-06 -7.33042e-19
-8.11552e-06 1.73708e-05 -3.20725e-19
2.12776e-05 -7.12693e-06 -3.15216e-19
-2.20477e-06 4.21704e-06 -5.8085e-19
6.0636e-06 3.29494e-06 8.31858e-20
-1.14547e-06 -6.64664e-06 -6.77556e-19
2.28866e-06 -1.21472e-05 -7.60996e-19
9.99045e-06 2.38712e-06 -2.60986e-19
-4.24126e-06 2.13874e-05 1.82823e-18
-6.25541e-06 -3.3e-08 -1.43366e-18
5.38725e-06 6.66225e-06 9.20838e-19
-1.3804e-06 -2.1768e-05 9.52376e-19
2.20436e-05 6.89687e-06 2.07398e-18
2.58064e-06 -4.22671e-06 -1.67843e-18
-6.41887e-06 -2.23985e-06 1.53007e-19
-1.53915e-05 -6.62889e-06 3.81705e-18
1.04679e-05 2.75778e-05 -1.22229e-18
-2.22398e-05 -7.95878e-06 7.1489e-19
1.06139e-05 -2.76523e-05 -9.55837e-20
-1.9188e-06 -1.69411e-05 -2.41588e-19
1.20421e-05 3.07417e-07 1.479e-18
-4.55133e-06 1.20516e-05 -6.01356e-19
-1.10389e-06 2.33948e-06 -6.72457e-19
-2.60645e-06 -1.02284e-05 -2.54271e-19
3.22034e-06 -5.48458e-06 -1.18883e-18
6.20497e-06 1.02118e-05 -5.8696e-19
2.21065e-05 7.32454e-06 -1.559e-18
5.32846e-06 -4.22555e-06 -1.51772e-18
-4.37008e-06 -2.33574e-05 2.5649e-18
1.37425e-05 -1.00396e-05 6.50534e-19
3.29557e-06 1.80674e-05 1.72003e-18
-1.57981e-06 -1.82589e-06 -2.70419e-18
-5.62679e-06 -5.20324e-06 -2.53065e-18
-2.94522e-06 2.03863e-07 -5.93589e-19
-1.20257e-05 1.4806e-05 4.93805e-18
1.29221e-05 -2.4731e-05 -1.46399e-18
-1.38222e-05 2.18814e-05 2.46831e-18
-9.34788e-06 5.60392e-06 -9.63024e-21
1.48213e-06 7.97142e-06 7.48255e-19
-1.49305e-05 -2.35344e-05 -8.74448e-19
7.28301e-06 1.76738e-05 4.83828e-21
1.06484e-05 5.2468e-06 -9.23267e-19
1.25925e-05 -4.86522e-06 2.55284e-18
-9.56688e-07 -6.66415e-06 -2.35219e-18
-1.74752e-05 -1.60638e-05 2.72651e-21
-1.37719e-06 6.6851e-06 1.72734e-19
1.03537e-05 6.1679e-06 -1.51002e-18
1.08877e-05 -5.33594e-06 2.9995e-18
4.77942e-06 -8.02262e-06 -1.42214e-18
1.32857e-05 -5.84426e-06 -1.65099e-19
1.07312e-05 -5.0841e-06 -1.65972e-19
2.95938e-06 3.41804e-07 -2.18993e-18
1.36456e-05 1.08049e-05 1.53515e-18
-1.31229e-06 -9.79326e-06 1.25194e-18
-6.32653e-06 -2.40245e-06 -4.28392e-19
8.4344e-07 -2.30549e-06 -3.69659e-18
-2.23015e-06 9.47186e-06 -2.68722e-18
-1.81391e-05 1.46235e-06 -9.78979e-19
-6.36798e-06 -1.74198e-05 1.2133e-18
-4.50632e-06 5.52153e-06 1.76598e-19
7.59606e-06 9.13716e-06 1.58393e-18
1.40884e-05 -1.00596e-05 -4.00943e-19
-1.9046e-05 -1.03601e-05 -1.11055e-18
9.15663e-06 -1.4631e-05 -8.07701e-19
1.21045e-05 -1.44108e-05 -8.96141e-19
-6.33348e-06 2.42846e-06 -7.69106e-19
-1.0433e-05 -1.49975e-05 -4.03164e-19
-1.81152e-05 -3.05261e-06 2.42966e-18
-2.1928e-06 -1.67079e-05 2.34017e-18
8.09535e-06 -1.67616e-05 -1.46114e-18
-6.10084e-06 -1.68227e-05 -1.10252e-18
2.30391e-06 1.66863e-05 1.54578e-18
-8.38691e-06 -1.49001e-05 -8.03328e-19
2.16224e-06 -9.84907e-06 1.66936e-19
-1.31293e-05 9.50069e-06 -1.14101e-18
-9.33726e-06 -7.82193e-06 -1.53904e-18
-1.76683e-05 -3.06967e-06 -1.53882e-18
9.24396e-06 -5.51063e-06 9.20188e-19
-2.6827e-06 1.56398e-05 -6.08496e-19
7.56519e-06 -5.37533e-06 -2.43215e-18
-1.55048e-05 -6.77547e-06 1.61101e-18
-5.33275e-06 -4.21308e-06 -5.12546e-19
5.55539e-06 4.25031e-06 3.02106e-18
1.13708e-05 1.51737e-05 2.35558e-18
-1.05529e-05 -6.68196e-06 1.33974e-18
-1.69508e-05 -4.16071e-07 8.82338e-19
-1.02735e-05 -2.77415e-06 1.34046e-18
-2.99582e-06 -1.02399e-05 -2.37037e-18
1.13504e-05 1.4024e-05 1.27192e-18
-6.6474e-06 3.23572e-06 -2.51009e-19
5.43996e-07 -1.25139e-05 9.26887e-19
-2.15729e-05 5.58374e-06 -5.61902e-19
1.33715e-05 1.07655e-05 6.57621e-19
1.96895e-06 1.73623e-05 -2.25636e-18
-1.3464e-06 2.4354e-06 4.03366e-19
-5.11331e-06 1.40793e-07 8.24813e-19
2.53576e-06 4.39504e-06 -9.18723e-19
-7.44466e-06 2.35049e-06 3.35215e-19
-1.37556e-06 -2.22559e-06 -8.43152e-19
1.27581e-06 1.25878e-05 1.61333e-18
2.83671e-06 6.85647e-08 -2.51272e-19
-1.06959e-05 2.6231e-06 1.53992e-19
-9.29818e-06 1.03007e-05 4.88756e-18
-1.8132e-06 7.4611e-06 1.59521e-18
-1.53064e-05 9.60651e-06 4.43086e-18
-6.10257e-06 5.61031e-06 3.63387e-18
1.05432e-05 -7.45132e-06 8.50439e-20
1.94078e-05 -1.96164e-06 -4.83576e-19
-1.3422e-05 7.06734e-06 4.19242e-19
1.24028e-06 2.88777e-06 3.51017e-18
1.40194e-05 -2.46338e-06 -1.78575e-18
-1.03161e-05 6.48287e-06 -9.44147e-20
-5.71236e-06 3.44653e-06 -6.7942e-19
7.70117e-06 2.64252e-06 -1.78013e-18
1.19268e-05 -7.4238e-06 -3.25631e-19
-1.04661e-05 5.88478e-06 -6.81976e-19
-1.33425e-05 -2.80995e-06 1.21576e-18
-1.04285e-05 -2.52121e-06 1.85654e-18
6.43588e-06 2.0955e-07 -5.09224e-19
6.57415e-06 -9.86408e-08 -2.355e-18
2.97808e-06 5.19788e-06 2.77722e-18
3.23792e-06 -5.47733e-06 -2.18553e-18
-3.03039e-06 5.45517e-06 -7.71127e-19
-3.15618e-06 -5.56917e-06 -5.23922e-19
5.82792e-06 -4.68485e-06 -4.26658e-19
-1.32169e-05 2.23697e-06 6.7562e-19
-1.30657e-05 -2.2769e-06 -1.53609e-18
-8.45759e-06 1.02683e-05 -1.44788e-18
-8.50007e-06 -1.03031e-05 -6.11248e-18
4.81083e-06 -1.31761e-05 -2.83374e-21
4.63536e-06 1.30706e-05 1.53008e-18
8.63477e-07 1.402e-05 2.53908e-19
6.94991e-06 -1.5525e-06 -3.1132e-18
1.4928e-06 -2.28e-06 -1.34958e-18
-1.16719e-05 8.49888e-07 2.55852e-18
4.94677e-06 -1.29664e-05 -1.02596e-18
4.69e-06 1.30108e-05 3.56243e-18
2.88059e-06 -5.26262e-08 3.75451e-18
4.81287e-06 1.31566e-05 9.28379e-21
-1.32927e-06 -2.38853e-06 -3.40209e-19
1.23057e-06 -6.69608e-06 -3.36379e-19
-1.2099e-05 -6.44904e-06 3.83854e-18
-1.35925e-05 -7.21534e-06 -3.46707e-19
-1.17826e-05 7.34689e-06 1.05796e-18
1.93626e-06 -8.05508e-06 -5.97962e-19
-9.4735e-07 1.97693e-06 2.00967e-18
-4.13545e-07 -1.38263e-05 7.36538e-19
-4.19931e-06 -1.30528e-05 -1.14501e-18
1.71745e-05 1.59134e-05 1.12551e-18
1.8834e-05 -9.51029e-07 1.44468e-18
-8.10378e-06 -2.5144e-06 -3.21851e-18
-1.1891e-05 -2.12151e-05 1.59994e-18
4.76621e-06 7.77751e-06 7.57573e-19
-1.34377e-05 1.5863e-06 -4.93352e-21
1.1167e-05 3.21461e-06 1.03673e-21
-2.69067e-06 -1.13416e-08 1.57228e-18
-3.07861e-06 -5.266e-06 -3.28092e-18
-5.41042e-06 -2.56612e-05 -3.47126e-18
-6.18208e-06 1.20041e-07 -1.00841e-18
-2.47326e-05 -9.26083e-07 -1.5236e-18
9.3523e-06 -1.03574e-05 -6.55166e-19
1.51944e-06 2.36037e-06 3.32695e-19
-1.44533e-07 -1.02623e-05 3.29987e-19
-5.32679e-06 1.28315e-05 1.71385e-18
-2.91366e-06 5.39201e-06 -2.10441e-18
1.1444e-05 -7.4473e-06 2.55643e-18
-2.49275e-05 -8.12352e-06 -2.65574e-19
-8.19647e-06 -1.08548e-05 -3.50771e-18
3.08051e-06 5.49716e-06 2.00507e-18
1.05339e-05 2.79106e-06 -4.24555e-19
-2.71147e-06 -4.14009e-06 1.16388e-18
1.30689e-05 2.50867e-06 -1.53522e-18
1.12892e-05 -5.91951e-06 -1.9435e-18
-1.97994e-07 1.74932e-05 -5.92526e-19
4.80165e-06 -7.76746e-06 -8.3965e-19
2.55484e-05 1.04279e-06 8.74945e-19
-2.17208e-05 5.6375e-06 -3.09411e-18
1.49072e-05 7.35413e-06 1.53086e-18
-3.54464e-06 -9.529e-06 5.70091e-19
-9.01543e-06 -4.94318e-06 3.58689e-18
1.55389e-05 -1.22587e-07 2.37942e-18
-5.08203e-07 -1.54217e-05 2.03738e-18
-7.40534e-06 -6.86786e-06 -1.95452e-18
5.50272e-06 -1.2682e-05 -2.12375e-18
-4.5559e-07 1.24242e-05 1.3567e-18
4.17663e-06 1.4094e-05 -2.20986e-18
1.03423e-05 -5.99077e-06 -2.2651e-18
-1.02667e-05 1.02267e-05 3.11597e-18
8.90579e-06 1.08241e-05 1.55605e-18
-4.31556e-05 1.02694e-05 5.4288e-18
-6.75536e-06 1.67291e-05 1.0326e-18
8.27557e-06 -9.86991e-06 -2.72176e-18
-4.45211e-06 -1.20259e-05 -2.40254e-18
-7.18473e-06 2.41078e-06 -2.0157e-18
-1.38227e-05 -3.87317e-06 8.93892e-19
-4.47221e-06 2.57392e-05 2.42722e-18
-7.51162e-06 7.65805e-06 -2.64829e-19
1.16566e-05 -2.70505e-06 -6.66487e-19
-3.62067e-06 -1.39213e-05 -1.23373e-18
-7.97482e-06 1.26928e-05 2.53941e-18
-1.39227e-05 8.07549e-06 1.19121e-18
-1.10501e-05 -8.09922e-06 -5.82616e-19
1.15785e-05 -1.37049e-05 -9.4244e-19
-1.46103e-05 -7.87548e-07 1.63315e-18
6.2926e-06 -2.14109e-05 4.72639e-19
1.06315e-05 -1.02024e-05 2.04803e-18
1.28159e-05 2.24651e-05 8.83488e-20
1.32255e-06 1.24352e-05 1.70381e-18
1.62411e-06 -1.37714e-05 2.13216e-18
-2.80404e-05 3.29787e-05 2.10022e-18
-6.78821e-06 -1.30125e-05 -3.94101e-18
1.04897e-05 -3.82974e-06 -1.9426e-18
-1.38366e-06 1.38719e-05 1.80418e-18
7.8975e-06 -7.7717e-06 -5.96111e-19
7.4755e-06 1.30688e-05 2.14092e-18
9.79404e-06 -9.26889e-07 -1.72217e-19
1.11305e-05 -3.25332e-05 4.72954e-19
-3.23794e-06 -7.24915e-06 -2.58689e-19
-1.24756e-05 5.34435e-06 -1.64499e-18
-1.29248e-05 1.22377e-05 1.10393e-18
1.1747e-05 7.96367e-06 1.55944e-18
1.05872e-05 -6.17388e-06 4.31638e-18
9.0157e-06 7.99687e-06 3.30373e-19
-3.42213e-06 -1.63852e-07 -3.35475e-19
8.32597e-06 -1.24233e-05 -1.31741e-18
-9.19346e-06 -1.08437e-05 7.25717e-20
1.24491e-05 5.50266e-06 2.55888e-18
7.94265e-06 -7.65903e-06 -1.18714e-18
5.08137e-06 -1.3456e-05 2.41477e-19
9.7265e-06 -4.41337e-06 -2.26459e-18
-9.04171e-06 -4.40344e-06 -7.59e-19
9.3253e-07 -1.68754e-05 -1.79315e-18
-1.39403e-05 2.48925e-06 3.22629e-19
1.18662e-06 1.34506e-05 1.2427e-18
1.1576e-05 3.91673e-06 7.4467e-19
-1.18123e-05 -5.92055e-06 1.72179e-18
-4.76666e-06 1.37698e-05 -1.55558e-18
-7.37379e-07 -1.32897e-05 -2.47984e-18
1.23545e-05 7.57905e-06 1.09918e-18
-7.14353e-07 1.06605e-05 5.95984e-19
-1.10616e-05 7.35298e-06 -3.05652e-18
1.28628e-05 6.17177e-06 -5.63512e-19
-9.98678e-06 -6.19354e-06 -4.30034e-19
3.87331e-07 -1.17969e-05 8.29109e-20
1.00574e-05 1.07602e-05 2.30095e-18
-1.41405e-05 -9.23061e-06 -3.42439e-19
2.51266e-05 -1.79552e-05 -2.32238e-18
1.04727e-05 -6.1681e-06 2.16775e-18
4.51907e-06 2.24508e-05 1.75875e-18
9.79137e-06 -7.57791e-06 -9.12398e-19
-1.15871e-05 4.48406e-05 -2.37421e-18
-1.16455e-05 -4.44168e-05 1.19461e-18
2.9213e-05 3.81305e-05 -1.19712e-18
2.88646e-05 -3.81213e-05 -1.50469e-19
4.76662e-05 -2.47321e-08 -1.5909e-19
-4.0998e-05 1.66428e-05 1.18013e-18
-4.03366e-05 -1.68146e-05 -1.33952e-18
7.6417e-06 7.60212e-06 6.70696e-19
1.94236e-05 1.45491e-05 6.79712e-19
6.59781e-06 2.07142e-06 4.05207e-19
1.07196e-05 5.48047e-06 2.65397e-18
2.7284e-06 1.11664e-05 -8.16236e-19
-1.03778e-05 -8.04634e-06 3.19912e-19
1.04246e-05 -5.87204e-06 -8.17003e-20
1.10713e-05 7.93315e-06 -1.65343e-19
-1.63146e-06 1.33609e-05 -7.35836e-19
1.95304e-05 -1.33486e-05 -6.98707e-19
1.9492e-06 -1.30639e-05 2.43687e-19
1.40839e-05 2.98443e-06 3.48242e-18
1.5973e-05 6.00473e-06 -2.75491e-18
9.34853e-06 9.10307e-06 -1.26161e-18
9.11353e-06 3.89467e-06 7.67718e-20
-1.03318e-05 6.14712e-06 -2.99282e-18
-1.2265e-05 5.03557e-06 -3.22288e-18
1.49614e-05 -7.20575e-06 5.94292e-19
-1.03874e-05 -5.82306e-06 1.40964e-18
-1.04206e-05 -5.85554e-06 -2.07995e-18
-6.9752e-08 -1.19336e-05 -5.04007e-19
-1.05403e-07 -1.19066e-05 -1.91291e-18
-1.095e-05 -5.65009e-07 5.69632e-19
1.44515e-05 -2.18119e-06 4.09276e-19
1.02462e-05 6.43936e-06 -6.62228e-19
-1.02831e-05 6.13352e-06 -2.25609e-18
-9.48068e-06 1.06947e-05 -3.46889e-19
8.96558e-06 -7.65945e-06 -1.65876e-19
-6.05646e-06 9.48674e-06 1.62929e-19
-7.82148e-06 -8.11999e-06 -9.45353e-20
-6.69693e-07 1.18294e-05 4.23199e-19
-5.39274e-07 1.20364e-05 1.34504e-18
-1.63131e-08 -1.17959e-05 4.17249e-19
3.36263e-06 -1.08912e-05 6.55515e-19
-1.01969e-05 -5.80222e-06 -9.38286e-20
8.87176e-06 -3.24248e-06 1.66185e-18
4.14626e-07 1.20556e-05 2.32879e-18
2.14436e-07 1.08492e-05 6.77801e-19
-1.24269e-06 9.56414e-06 2.42316e-18
1.2071e-05 -3.06968e-06 1.61303e-19
-1.04575e-05 3.01603e-06 -1.69797e-19
2.14801e-06 1.20671e-05 2.33368e-18
-2.13895e-05 8.31078e-06 3.41306e-19
4.94786e-06 2.18699e-05 2.85092e-18
-1.06742e-05 2.65757e-06 1.94283e-18
1.25817e-05 -7.48882e-06 -7.63197e-19
3.95375e-07 1.20576e-05 2.67794e-18
-1.12854e-05 3.88652e-06 1.3171e-18
1.68118e-06 -9.81743e-06 2.02211e-18
5.14657e-07 -3.00803e-05 -1.86195e-18
1.06802e-06 1.0032e-05 1.84209e-18
-9.58339e-06 7.6367e-06 -2.32754e-18
8.97834e-06 3.29573e-05 1.90033e-18
3.14009e-05 2.60615e-05 4.31624e-19
3.60281e-05 -2.46466e-05 -3.60491e-18
8.69158e-06 -5.8476e-06 -1.41742e-18
-8.72093e-06 7.66805e-06 2.22753e-18
-1.11998e-05 -4.59304e-06 2.48625e-18
-1.07883e-05 -3.75756e-06 1.64196e-18
4.44542e-05 -1.22274e-05 -3.1993e-18
4.53329e-05 9.53808e-06 -3.46283e-18
6.29411e-06 2.33285e-06 6.57257e-19
1.75036e-07 1.15146e-05 -1.24784e-18
8.34182e-08 1.15138e-05 2.77371e-18
-2.5022e-05 -1.83462e-05 -4.66205e-19
6.32245e-06 -9.44395e-06 1.23049e-18
7.23336e-06 8.13761e-06 6.65307e-19
-1.16885e-05 -1.97995e-06 4.21989e-18
-7.79623e-06 9.31184e-06 1.4093e-18
-1.05228e-05 5.08672e-06 -1.8323e-18
2.4819e-05 1.77938e-05 -1.3882e-18
9.90212e-06 4.24548e-06 -7.62636e-19
-3.06274e-06 1.09701e-05 -2.44084e-19
-9.85775e-06 -6.54475e-06 6.92641e-20
8.74538e-07 -1.18389e-05 -7.57494e-19
-4.82878e-06 -1.06134e-05 -1.57768e-18
-9.61881e-06 -6.53669e-06 -9.2493e-19
5.82504e-06 -1.04345e-05 5.76389e-19
7.97933e-06 -9.30809e-06 -7.68354e-22
-1.51189e-06 -3.14986e-05 2.8338e-18
1.35602e-05 -2.14631e-05 1.27777e-18
9.78028e-07 -1.164e-05 -1.66223e-18
1.05037e-05 6.39855e-06 2.51186e-19
-8.2057e-06 -8.12561e-06 2.22524e-18
-5.35128e-06 1.07806e-05 -1.57139e-18
-2.63457e-06 1.17193e-05 2.32782e-18
9.52446e-06 7.82994e-06 9.17062e-19
3.23573e-06 -1.1151e-05 2.43909e-19
-7.26137e-06 -2.08167e-05 1.58972e-18
-1.39974e-06 1.59562e-05 1.11519e-18
8.25856e-06 7.99916e-06 1.90314e-18
-7.69113e-06 -6.31481e-06 1.75574e-18
-8.24132e-06 6.61552e-06 8.35593e-19
2.32773e-05 -9.95592e-06 -1.4229e-18
4.25194e-06 -7.58128e-06 -1.67007e-18
-4.76413e-06 -7.02144e-06 1.23203e-18
1.40826e-05 4.39788e-06 8.80165e-20
8.79543e-06 -3.17177e-05 -2.55731e-19
-2.30769e-05 -2.34523e-05 9.60732e-19
1.53201e-05 3.88938e-06 7.60529e-19
-5.10349e-06 -9.94989e-06 -3.95769e-18
1.08012e-05 5.65723e-06 6.66716e-19
-1.49642e-05 -1.66577e-05 -1.26225e-18
7.12677e-06 3.22294e-05 2.19661e-18
3.13311e-05 -4.05022e-05 -2.56251e-19
-1.94136e-05 -4.73723e-05 1.85812e-18
1.4043e-05 -2.7381e-05 1.23807e-18
-8.26848e-06 2.87268e-05 9.46936e-19
-4.76135e-06 2.53846e-05 2.09396e-18
-1.06518e-05 5.29003e-06 7.44619e-20
4.05741e-06 1.54034e-05 9.37924e-20
-1.23361e-06 7.23564e-06 -7.27762e-20
6.01172e-06 2.12229e-06 1.07843e-18
-2.28801e-06 1.00919e-05 5.96101e-19
-1.19393e-07 1.29972e-05 -1.68252e-18
9.82935e-06 5.77374e-06 1.67127e-18
4.66065e-07 2.99376e-05 1.3976e-18
-8.50339e-06 5.88037e-06 -1.75093e-18
9.77456e-06 -3.53257e-06 -2.10567e-18
1.08418e-05 -2.49797e-06 -2.79057e-18
-3.06815e-05 -4.45889e-06 6.22145e-19
-2.2719e-05 1.08289e-05 2.16183e-18
-2.22437e-05 -2.63909e-05 1.41166e-18
5.61794e-06 5.20783e-06 -7.5173e-19
8.39772e-06 4.66478e-06 -1.94248e-18
1.45486e-05 -2.41103e-06 -7.36584e-19
-4.59798e-06 -7.47436e-06 1.32701e-18
1.0064e-05 5.21875e-06 2.4387e-19
4.87495e-06 -1.95971e-05 6.92075e-19
-8.28159e-06 5.75975e-06 -5.01238e-19
-1.45304e-05 -1.40112e-05 -1.89516e-18
-3.13767e-06 9.25525e-06 -2.15964e-18
-2.32115e-06 1.27732e-05 4.29645e-19
2.27232e-05 1.409e-05 -7.02934e-19
2.42413e-05 -1.28284e-05 -1.57448e-18
-2.15938e-05 -5.79831e-06 -1.26661e-18
4.4589e-06 4.89938e-06 -8.53975e-19
-2.44508e-06 5.20547e-05 -1.23525e-18
3.64577e-08 -5.34668e-05 -1.55569e-19
2.63618e-05 4.51127e-05 -2.15343e-18
-1.18774e-05 4.92619e-06 -2.70714e-18
-1.41897e-05 2.86748e-05 3.73441e-21
2.6527e-05 -4.35432e-05 -1.23524e-18
-6.4695e-06 -9.92918e-06 4.04397e-19
4.03502e-05 3.50667e-05 -1.07594e-18
1.58317e-05 -1.16487e-05 -4.55439e-18
-2.18906e-06 -1.95191e-05 3.28429e-19
4.22728e-05 -3.42897e-05 4.61476e-19
-3.74754e-06 8.08931e-06 -1.57036e-18
-2.72294e-05 -1.7287e-05 -9.48619e-19
-2.22885e-05 -4.65574e-05 7.75527e-19
-1.26544e-05 -2.96526e-05 1.65538e-19
-2.29143e-05 4.73169e-05 -1.53879e-18
-5.4286e-06 3.29242e-05 2.35102e-18
1.06984e-05 2.45215e-05 2.3537e-18
-1.46899e-05 1.88675e-05 3.15998e-18
-1.35823e-05 -2.79262e-05 6.21853e-19
5.18841e-05 9.11745e-06 -1.38822e-18
-1.00197e-05 6.05672e-06 -2.60161e-18
-3.90417e-06 1.01573e-05 2.37952e-18
-2.5833e-05 1.85795e-05 -1.25851e-18
-1.01066e-05 5.85017e-06 -2.6862e-18
5.1374e-05 -8.13401e-06 -6.21637e-19
-9.16852e-06 4.45536e-06 -4.25318e-19
4.07396e-06 -8.13438e-06 9.92887e-19
-3.98688e-05 -3.0405e-05 2.93306e-18
-1.36334e-05 2.9661e-05 4.72656e-19
-4.08148e-05 3.01893e-05 -2.46356e-18
1.24304e-05 2.72792e-05 1.70262e-18
-8.4939e-06 5.93734e-06 -2.99823e-18
-1.32486e-05 1.61251e-05 1.46177e-18
-2.41527e-05 3.03814e-05 -1.7241e-19
-3.79007e-05 -4.8647e-06 3.26427e-18
-7.23365e-07 9.78066e-06 6.80919e-19
-2.55751e-05 -3.05091e-05 -4.85501e-18
-3.9223e-05 6.90184e-06 1.67773e-18
-1.49568e-05 3.46527e-05 2.82296e-18
-1.1514e-05 4.60095e-05 1.33027e-18
-9.55507e-06 2.12697e-05 2.60443e-18
-2.21838e-05 1.78892e-05 1.56067e-18
1.61165e-05 -3.84544e-06 -1.36673e-18
2.53698e-05 -1.20664e-06 -1.03845e-18
8.05635e-06 5.09259e-06 1.58522e-18
-8.09044e-06 -5.29685e-05 -3.42272e-18
-4.99285e-05 -1.94619e-05 1.84606e-18
2.46961e-05 1.53104e-07 2.75999e-18
3.05418e-05 -5.89975e-06 -4.32164e-18
-5.87702e-06 -7.4563e-06 -5.10771e-19
-2.64389e-05 1.86297e-05 -1.20128e-21
-2.36978e-05 2.71761e-05 6.08388e-21
3.22853e-05 -1.16265e-05 -2.51313e-18
-1.86467e-05 -3.15517e-05 -6.96654e-18
-1.89772e-05 3.13037e-05 1.80717e-19
-3.67781e-05 -1.32736e-06 2.53798e-19
-1.67031e-05 3.2927e-05 1.65063e-18
-3.66728e-05 4.0447e-07 -1.6573e-18
4.57368e-05 1.6361e-05 -4.06468e-18
3.68116e-05 1.38844e-06 -3.05638e-18
3.46712e-05 -1.7754e-05 -1.41882e-18
1.01624e-05 -4.87856e-05 -2.93067e-18
1.82752e-05 -3.18895e-05 -4.89858e-18
1.81502e-05 3.18834e-05 7.7531e-19
9.95297e-06 4.76704e-05 -7.15349e-19
4.99315e-05 -1.40854e-05 1.07211e-18
3.19701e-05 1.58317e-05 -2.63518e-18
3.0648e-05 8.36259e-06 -1.47775e-18
P_ext 3 563 float
-5.84418e-07 1.97558e-07 8.2052e-21
5.27944e-10 2.15845e-08 -1.69638e-20
-5.37371e-08 -5.05471e-08 -1.97129e-20
-1.69987e-08 1.5686e-08 2.08513e-20
1.47534e-08 3.02882e-10 -3.35155e-20
1.76948e-08 -7.17847e-08 3.36491e-20
-5.75402e-07 -1.9995e-07 1.67264e-20
-4.21038e-08 -4.77946e-08 -3.27006e-20
1.17255e-07 2.07251e-09 2.20379e-20
4.27736e-08 -4.00115e-09 -1.9552e-20
3.80422e-07 8.919e-08 1.07671e-20
2.08767e-08 -6.10571e-08 -2.7108e-21
4.7793e-08 5.69278e-08 -5.18948e-21
-4.95273e-09 4.45577e-08 6.62551e-21
1.33371e-08 4.98321e-09 -4.24654e-20
-7.49246e-08 -1.22643e-09 2.33332e-20
-9.39026e-09 2.93412e-08 -6.44718e-21
4.51606e-08 -6.80771e-09 9.0161e-21
5.1901e-08 9.25699e-08 9.25809e-20
-6.96106e-08 7.0163e-09 3.71253e-21
-2.61509e-08 -9.85965e-08 -1.55913e-20
8.77441e-10 8.54544e-11 2.92823e-20
7.71033e-08 6.27462e-09 3.47705e-20
4.90742e-08 -5.6679e-08 2.71603e-20
-7.11101e-08 -1.14424e-08 1.30488e-20
-1.3421e-08 -3.88887e-08 -3.00466e-20
4.37278e-07 -3.57733e-08 -6.10223e-21
5.34555e-08 4.50847e-08 5.22401e-21
-1.59911e-07 -1.27018e-07 -2.3983e-20
9.34871e-09 1.77522e-09 -1.60767e-20
-7.13823e-08 -1.26908e-08 -3.91955e-20
3.12457e-08 -2.03368e-07 1.25539e-20
3.28602e-07 -3.36534e-07 2.4357e-20
6.84984e-10 -1.53583e-08 -1.07481e-20
-4.12071e-09 1.18085e-08 3.90912e-20
-1.28254e-08 -8.43758e-09 3.7641e-20
1.66751e-09 8.48944e-09 -4.17888e-20
-1.2952e-08 2.21436e-09 -1.32724e-21
5.16156e-08 -5.61704e-08 -1.43723e-20
3.20655e-07 3.50716e-07 -4.63112e-20
2.04709e-07 -9.27544e-08 -3.14474e-20
3.12104e-09 -7.77694e-09 4.07049e-21
-5.12958e-09 -6.78072e-09 -7.74332e-20
-7.09136e-08 1.45447e-08 1.15704e-20
2.03177e-07 -1.99533e-07 6.05345e-21
-1.89235e-07 6.81154e-08 1.11365e-20
-2.38953e-08 -1.04238e-07 -6.31898e-20
4.30993e-08 1.04694e-07 7.36236e-20
-6.80213e-08 1.77735e-08 -1.18587e-20
-1.1723e-07 1.82325e-07 -1.48597e-20
2.07777e-07 1.01763e-07 2.39728e-20
1.80365e-07 -5.93173e-08 1.01625e-20
-5.27797e-09 1.25579e-08 4.00931e-20
-1.41146e-07 -1.26664e-07 -3.72783e-21
-1.37723e-08 1.82803e-09 -2.66621e-20
-3.02922e-07 1.77891e-07 -1.1753e-21
-3.82462e-09 -1.17595e-08 -2.43201e-20
4.01954e-08 -1.86392e-07 -1.17976e-22
-1.19779e-08 -2.62246e-09 4.3107e-20
3.15056e-08 6.31642e-08 -1.20046e-21
-1.67961e-08 -5.05975e-09 -5.40597e-20
-1.77284e-08 -1.66077e-08 -1.48948e-20
3.94219e-07 1.73558e-07 1.50007e-20
-3.75611e-10 3.43113e-08 1.99875e-22
5.2653e-09 -2.28835e-08 -7.27318e-20
8.9352e-09 -5.09679e-08 -9.21881e-21
-3.57381e-09 -1.6672e-08 -3.80944e-20
-4.08224e-08 -1.03523e-08 -4.96937e-20
-4.7535e-08 5.81675e-08 5.19394e-20
1.27473e-08 -4.60917e-09 6.42011e-21
-5.20504e-09 -1.29212e-08 1.2087e-21
-1.36214e-08 -2.00484e-09 1.46436e-20
-2.35905e-08 2.18556e-07 6.27762e-20
-4.18871e-08 2.11522e-08 -2.5123e-20
-4.06858e-08 6.95926e-08 3.11547e-20
-4.10028e-07 4.81928e-08 -3.15937e-20
-3.56594e-12 -3.23409e-08 -3.04284e-20
-3.93479e-08 -3.29946e-08 1.96943e-20
1.65983e-08 4.04634e-08 -1.55501e-20
1.56998e-07 3.13902e-08 -1.51e-20
2.25129e-07 -1.95888e-07 5.00585e-21
6.12143e-09 1.50263e-08 -4.01129e-20
1.51546e-08 4.73683e-09 -1.32837e-20
-2.09779e-07 1.55205e-07 -1.86342e-20
2.44812e-07 2.97605e-08 1.26204e-20
-3.71246e-08 3.31953e-07 4.98378e-21
-1.286e-08 -6.63995e-08 -1.43398e-20
4.50502e-08 3.17373e-08 -2.73909e-21
1.9543e-07 2.06098e-07 -1.83431e-20
3.52669e-09 1.53122e-09 -5.78411e-20
-3.76527e-08 1.87446e-07 5.68244e-20
3.18418e-09 -1.67268e-09 -5.78241e-20
-2.2517e-08 1.53856e-08 -4.51762e-20
4.87007e-08 1.98042e-08 5.96774e-23
-1.8049e-07 5.57887e-08 -1.40369e-20
1.04785e-07 1.84132e-07 2.7557e-20
6.51962e-08 -2.94371e-07 -1.24763e-20
1.53078e-08 4.00975e-08 -4.04474e-20
-2.76415e-08 -1.64245e-08 3.16251e-20
2.29529e-08 7.33661e-08 -2.20273e-20
1.52669e-07 2.59727e-08 -3.18992e-20
-1.01402e-07 2.09474e-07 -7.47292e-21
2.6962e-07 -8.81193e-08 2.42626e-21
-1.49371e-08 3.26117e-08 3.26201e-20
2.86013e-08 2.90828e-08 -3.65307e-20
-1.70267e-08 -3.92348e-08 -4.97366e-20
-6.86984e-09 -2.98584e-08 -7.11688e-20
7.91841e-08 9.48003e-09 -6.12011e-20
-5.78566e-08 2.70601e-07 -1.48122e-20
-1.33233e-08 8.25049e-09 7.68906e-21
3.94922e-08 5.85477e-08 1.56485e-20
-1.95662e-08 -2.77725e-07 1.48726e-20
2.8093e-07 8.43504e-08 3.36635e-20
1.90922e-08 -3.3745e-08 3.10974e-20
-4.35847e-08 -4.97079e-09 -2.49857e-20
-1.79592e-07 -7.20726e-08 1.65932e-20
8.84417e-09 9.44417e-09 -5.59059e-21
-2.85397e-07 -9.98052e-08 -3.2341e-20
8.97985e-09 -9.42028e-09 -2.97814e-20
-2.77491e-08 -1.95036e-07 2.28122e-20
1.20317e-07 4.56754e-09 2.44295e-20
-1.06956e-08 9.0766e-09 -1.07045e-20
2.88715e-09 1.31257e-08 -1.44157e-20
8.06769e-09 -3.51804e-08 -3.02507e-20
1.39613e-08 -6.4977e-09 -2.90159e-20
2.17565e-10 1.41039e-08 1.15271e-22
1.21584e-08 -1.52503e-09 -4.98769e-20
2.27635e-08 -3.36194e-08 -2.23593e-20
-5.84401e-08 -2.98035e-07 3.0145e-20
1.54296e-07 -1.1879e-07 -3.6615e-20
4.72595e-10 1.87258e-08 -1.18109e-20
-1.29976e-08 -2.33545e-09 -5.26471e-20
-4.19434e-09 -1.45064e-08 1.04418e-20
-1.07036e-08 -7.57552e-09 -3.01586e-20
-1.44277e-07 1.80291e-07 1.91897e-20
-1.65262e-10 -1.42399e-08 1.75613e-20
-1.80541e-07 2.8347e-07 2.36809e-20
-6.77301e-08 3.11336e-08 1.54668e-20
9.51615e-09 1.02226e-08 2.49238e-21
-1.22588e-08 -7.17007e-09 7.93018e-21
8.79911e-08 2.12368e-07 1.07523e-22
5.06671e-08 4.51912e-08 1.23606e-21
1.23151e-07 -4.06057e-08 3.86034e-20
6.94211e-09 -3.78508e-08 -2.36873e-20
-2.23663e-07 -2.06101e-07 -2.86388e-20
-2.15477e-08 3.71922e-08 3.66134e-20
5.58811e-08 2.98097e-08 -3.99404e-21
8.17605e-08 -2.81349e-08 1.96204e-20
3.53055e-08 -7.05472e-08 3.73299e-21
1.40088e-07 -6.46033e-08 1.39418e-20
9.31553e-08 -4.3971e-08 3.99798e-20
9.34025e-09 -7.77007e-09 -1.851e-20
1.6257e-07 1.28592e-07 5.52795e-20
-2.35206e-08 -6.79493e-08 -1.17044e-20
-2.88388e-08 -2.47015e-08 1.16098e-20
-4.73507e-09 -1.23793e-08 -3.94468e-20
6.50508e-09 4.84581e-08 -1.8416e-20
-2.17418e-07 1.55853e-08 -1.81156e-22
-7.94324e-08 -2.07542e-07 -6.21854e-21
-3.4163e-08 4.35465e-08 3.91475e-20
6.72001e-08 8.95752e-08 4.66552e-20
1.6733e-07 -1.18681e-07 -3.8894e-20
-2.44713e-07 -1.30836e-07 -4.19417e-20
1.08826e-07 -1.77168e-07 -1.21711e-22
1.41684e-07 -1.74293e-07 -3.41491e-20
-4.16665e-08 4.10982e-09 -4.59247e-20
-1.24385e-07 -1.79994e-07 1.38116e-20
-2.17732e-07 -3.41205e-08 1.02079e-20
-2.59535e-08 -1.98717e-07 2.90264e-20
9.68569e-08 -2.00198e-07 -3.03875e-20
2.04043e-09 -2.74339e-08 -1.72302e-20
2.87805e-08 1.91664e-07 5.11943e-21
-1.0256e-07 -1.79408e-07 -2.50406e-20
-9.63605e-09 -4.39209e-08 -6.42221e-20
-1.48208e-07 1.10959e-07 -7.735e-21
-2.8973e-08 -9.46492e-09 -1.21572e-20
-2.25407e-08 -1.55189e-08 6.49476e-21
5.90712e-08 -3.02849e-08 1.5684e-20
-8.09793e-09 1.14524e-08 -1.48204e-20
3.13723e-08 -3.9642e-08 1.42247e-20
-1.84463e-07 -8.20361e-08 1.3859e-20
-2.43809e-08 -3.28619e-08 1.55103e-20
2.54772e-08 3.48653e-08 -4.03008e-20
1.33366e-07 1.84106e-07 5.18719e-20
-4.71088e-08 -2.17164e-08 -1.71565e-20
-2.05208e-07 -4.61584e-09 2.37539e-20
-2.62155e-08 -2.43606e-08 6.50944e-21
-1.47626e-09 -3.52313e-08 -3.70358e-20
2.56884e-08 1.29293e-08 -1.38116e-21
-2.96456e-08 2.92506e-08 1.17615e-20
-4.95957e-09 -5.1886e-08 5.2715e-21
-2.73968e-07 6.74789e-08 1.23916e-20
1.50115e-07 1.28075e-07 4.82236e-20
2.0055e-08 2.08626e-07 -7.64248e-21
-1.20824e-08 4.13443e-09 3.24436e-20
-4.03033e-08 1.25239e-09 -5.31981e-21
1.84987e-08 3.53283e-08 -5.99437e-20
-1.46027e-08 -3.61248e-09 2.2339e-20
1.7469e-09 -1.24821e-08 1.55733e-20
-8.07584e-09 5.49267e-08 -2.46599e-20
8.91244e-09 9.42241e-09 -9.14969e-21
-1.01856e-07 2.25119e-08 -5.2674e-21
-1.03354e-07 1.12765e-07 -6.03727e-21
-1.11376e-08 1.02948e-08 1.17818e-20
-1.87043e-07 1.12875e-07 2.65568e-20
-4.75926e-09 1.58854e-08 -1.13914e-21
5.03764e-08 -1.80243e-08 1.96887e-20
2.34444e-07 -2.15664e-08 1.75748e-20
-2.92999e-08 1.8538e-08 -5.29388e-20
1.18717e-08 5.45088e-09 2.61088e-20
3.04849e-08 -1.91075e-08 -4.7743e-20
-5.23799e-08 1.74341e-08 -5.40543e-21
-3.81335e-08 9.97457e-09 -1.48688e-21
1.33628e-08 -3.93625e-09 -1.46287e-20
1.24147e-07 -7.55002e-08 -3.83333e-21
-4.87835e-08 3.11054e-08 -8.02009e-21
-1.45974e-07 -3.04391e-08 -1.14942e-20
-3.09414e-08 -1.6312e-08 2.1109e-20
1.18167e-08 -7.8836e-09 2.0831e-20
1.30941e-08 9.23995e-09 -9.29722e-21
-3.34597e-09 1.49052e-08 1.19949e-20
-1.37601e-09 -1.68187e-08 -6.03e-20
-1.36622e-08 6.9506e-09 1.15194e-20
-1.52908e-08 -7.79983e-09 -3.43022e-20
3.83169e-08 -1.44578e-08 1.19106e-21
-1.39678e-08 -3.87606e-09 -1.3279e-23
-1.3937e-08 3.73399e-09 -5.30875e-20
-3.40573e-09 1.38657e-08 3.03434e-20
-3.70129e-09 -1.41699e-08 7.75495e-21
9.21676e-09 -1.03001e-08 -8.05407e-21
8.85936e-09 9.85554e-09 -6.97929e-23
5.36171e-09 1.48164e-07 1.34116e-21
2.86885e-08 -2.37034e-08 -3.16069e-20
6.69648e-09 -1.26376e-08 -4.1186e-21
-1.1169e-07 4.12312e-09 -1.67125e-20
1.05875e-08 -1.00044e-08 -4.11179e-21
9.88556e-09 1.01593e-08 1.98967e-20
1.51766e-08 -3.31193e-10 -2.59728e-21
5.12937e-08 1.45213e-07 5.08444e-20
-7.6816e-09 -1.25566e-08 7.72989e-21
1.66183e-08 -3.8004e-08 -2.64766e-21
-1.24688e-07 -6.89896e-08 -1.16108e-21
-2.73305e-08 -1.77383e-08 5.17336e-21
-1.25151e-07 7.42189e-08 6.35727e-21
1.10792e-08 -1.1321e-08 -2.11659e-20
-5.31495e-09 1.18085e-08 2.35709e-20
-2.92655e-09 -1.43466e-07 -1.78093e-20
-4.69801e-08 -1.42113e-07 -4.70771e-20
2.15497e-07 2.0511e-07 5.73966e-20
2.30497e-07 -1.30928e-08 3.92655e-21
-1.62791e-08 3.57156e-09 -5.0267e-20
-1.54173e-07 -2.72438e-07 1.62654e-20
3.66976e-08 6.29314e-08 4.01167e-21
-1.47694e-07 1.73956e-08 -1.27583e-20
1.05982e-07 2.96349e-08 -4.36428e-20
-1.44666e-08 -5.85271e-11 3.63183e-20
3.38522e-10 -1.50201e-08 -8.05286e-21
-1.29675e-09 -1.02352e-08 -4.74642e-20
-1.27961e-08 -7.64324e-09 9.10465e-21
-3.19662e-07 -1.21132e-08 -3.84964e-21
1.00403e-07 -1.13562e-07 -4.32237e-20
6.81365e-09 1.32262e-08 -3.38932e-20
3.49298e-09 -6.33205e-08 -1.43899e-20
-5.98969e-08 1.41839e-07 4.95827e-20
1.24962e-09 1.58941e-08 -8.00101e-21
1.07094e-07 -7.66445e-08 2.07218e-20
-9.35773e-09 -4.10536e-09 3.37604e-20
-9.11125e-08 -1.18413e-07 -7.25266e-20
1.25327e-08 6.34561e-09 2.47859e-20
2.96267e-08 2.86975e-08 3.85881e-21
-2.11186e-08 -3.28958e-08 -7.85346e-21
1.29335e-08 -4.2225e-09 -3.45766e-20
4.3936e-08 -3.06825e-08 -1.85015e-20
-2.60002e-09 2.44588e-08 6.74094e-21
3.6176e-08 -6.09797e-08 6.3921e-21
3.30944e-07 1.66759e-08 -2.37599e-21
-2.80386e-07 7.41821e-08 -7.62728e-21
2.33891e-08 1.62946e-08 -4.39209e-20
-3.46925e-08 -8.3506e-08 -2.72698e-20
-5.26879e-08 -3.43826e-08 6.5285e-21
1.71725e-07 -1.72746e-09 1.95116e-22
1.45967e-09 -3.26791e-08 5.39178e-21
-4.28582e-08 -1.50968e-08 -5.92933e-20
5.8523e-08 -1.39838e-07 -1.79419e-20
4.66197e-09 5.6232e-08 -1.55336e-20
4.80299e-08 1.4894e-07 1.5284e-20
5.75657e-08 -3.0338e-08 -5.36412e-20
-1.05141e-07 1.11919e-07 1.80072e-20
9.66997e-08 1.19496e-07 1.79709e-20
-6.04383e-09 2.69326e-09 -6.49347e-21
1.0195e-09 2.58817e-08 3.60261e-20
1.90946e-09 -1.17252e-08 -5.57541e-20
-9.30238e-09 -7.66722e-09 -4.80816e-20
-3.20545e-08 2.54452e-08 9.03076e-21
-1.47315e-07 -3.48939e-08 -1.79276e-20
5.04729e-10 1.64988e-08 2.31099e-20
-3.84751e-08 1.14468e-08 -5.42531e-21
1.0433e-07 -1.51146e-08 -4.34611e-23
-4.46442e-08 -1.44531e-07 -1.54373e-20
-8.79205e-08 1.40015e-07 1.16522e-20
-2.47458e-08 1.1441e-08 -3.05972e-20
-1.17827e-07 -8.33643e-08 -2.81849e-20
2.66083e-08 -1.24539e-08 -4.09227e-21
-1.59761e-07 -7.82149e-09 -4.46848e-20
7.82741e-08 -2.76221e-07 2.33957e-20
1.06843e-07 -1.12213e-07 -3.95391e-20
1.63507e-07 2.89905e-07 1.13102e-20
-1.54881e-09 3.49321e-08 1.47171e-20
1.40182e-08 -1.45542e-07 -2.41591e-21
-5.64326e-09 3.42122e-09 -2.71319e-20
-7.57523e-08 -1.41343e-07 -8.57809e-20
2.53413e-08 -2.17306e-08 -2.24539e-20
-1.46161e-08 1.47225e-07 3.96281e-20
3.54235e-08 -1.03616e-08 -7.97618e-21
8.07329e-08 1.43883e-07 3.46996e-20
8.07997e-08 -1.88e-09 1.54596e-20
1.47718e-07 -4.35871e-07 5.15325e-20
-3.12596e-08 -5.81763e-08 -2.73491e-20
-1.30424e-07 5.68291e-08 2.14601e-20
-1.82291e-08 8.92413e-09 -1.86359e-20
1.23816e-07 8.29169e-08 3.45499e-20
8.81998e-08 -4.86933e-08 4.28514e-20
4.65795e-08 2.04382e-08 9.10816e-21
-9.51354e-09 8.06558e-09 2.8738e-20
8.85154e-08 -1.36752e-07 -2.31073e-20
-9.43618e-08 -1.1776e-07 -4.61188e-20
1.21731e-07 4.80087e-08 5.27548e-20
3.09155e-08 -1.90877e-08 2.75878e-20
5.69222e-08 -1.4147e-07 -2.6925e-20
6.6824e-08 -1.26453e-08 -2.88394e-20
-6.48579e-08 -2.58633e-08 -4.04041e-20
-2.81038e-09 -2.62603e-08 -4.02375e-21
-1.48788e-07 2.06535e-08 -1.02864e-20
1.5632e-08 1.30499e-07 -1.13695e-20
1.01737e-07 2.37274e-08 -2.06461e-20
-1.15601e-07 -5.1733e-08 -3.20962e-20
-5.68667e-08 1.45784e-07 3.57075e-20
-1.30022e-08 -1.27135e-07 2.33743e-21
3.35384e-08 1.63692e-08 2.5094e-20
-2.18254e-08 6.14267e-08 5.8778e-20
-1.03952e-07 7.4561e-08 -1.43669e-20
1.33538e-07 6.73623e-08 3.69987e-20
-6.07219e-08 -1.90502e-08 -1.58351e-20
-1.47492e-08 -6.25169e-08 -4.44499e-20
1.02037e-07 1.18626e-07 3.4673e-20
-2.39065e-08 -1.08494e-08 2.12999e-20
3.35979e-07 -2.41552e-07 -3.74196e-21
7.09931e-08 -4.96807e-08 1.82875e-20
5.80692e-08 2.84576e-07 2.25784e-20
7.48753e-08 -7.20061e-08 -4.78505e-20
-1.62272e-07 6.17981e-07 -1.33766e-21
-1.6321e-07 -6.11963e-07 5.82035e-21
4.00999e-07 5.27068e-07 -5.89644e-21
3.9603e-07 -5.26924e-07 1.16809e-21
6.56392e-07 -2.61298e-10 3.23739e-20
-5.65852e-07 2.27681e-07 5.18378e-20
-5.56472e-07 -2.30153e-07 1.94674e-20
2.6961e-08 1.45999e-08 1.8397e-20
1.72715e-08 8.3965e-09 -2.41934e-20
5.03087e-08 6.76204e-09 8.97064e-21
8.88463e-08 4.7484e-08 3.89222e-20
2.636e-08 1.05009e-07 3.99014e-20
-9.52731e-08 -8.1862e-08 -6.30144e-20
4.7917e-08 -4.42041e-08 2.74188e-20
1.02371e-07 8.21705e-08 6.02801e-20
-2.369e-08 1.29254e-07 7.72402e-21
1.67478e-08 -8.23643e-09 -5.37734e-20
2.41001e-08 -1.24032e-07 -3.20897e-20
3.14013e-08 2.1204e-08 1.6622e-22
1.84754e-07 6.47143e-08 1.89251e-20
4.08871e-09 1.32478e-08 1.20003e-20
7.13301e-08 2.33359e-08 8.9917e-21
-8.83045e-08 4.8841e-08 -3.76936e-20
-1.20938e-07 4.18265e-08 1.38199e-20
2.38769e-08 -1.63582e-08 7.94936e-21
-7.71654e-08 -3.56989e-08 -2.8577e-20
-8.48056e-08 -5.02327e-08 -7.92537e-21
-7.44181e-09 -8.51072e-08 2.71727e-20
3.3343e-10 -9.77759e-08 2.17675e-20
-1.0769e-07 -4.65341e-09 -5.26074e-20
1.59905e-07 -2.48297e-08 7.63855e-21
8.62008e-08 5.31262e-08 2.51758e-21
-7.13087e-08 4.86496e-08 -5.41923e-21
-3.21144e-08 1.56942e-08 -3.98066e-20
8.04683e-08 -7.21102e-08 -2.69916e-20
-6.04746e-08 9.41549e-08 -1.28223e-20
-7.44845e-08 -7.84598e-08 -9.17151e-21
-7.06268e-09 1.0253e-07 2.59291e-20
-1.5352e-08 8.65054e-08 2.87639e-20
2.52389e-09 -6.27701e-08 -1.04913e-20
3.24158e-08 -1.04777e-07 8.98263e-21
-5.29312e-08 -3.39682e-08 -3.01821e-20
7.33828e-08 -2.09196e-08 1.2996e-20
1.73014e-10 1.02402e-07 5.43388e-21
-2.22535e-09 6.53848e-08 2.2309e-20
-1.6454e-08 7.3578e-08 7.28524e-20
1.20492e-07 -2.96532e-08 3.71632e-20
-2.52408e-08 2.41461e-08 1.31022e-20
2.73096e-08 1.02481e-07 6.61418e-20
-1.64472e-08 1.03781e-08 -5.37571e-21
6.09173e-08 2.82497e-07 -2.56021e-20
-2.97789e-08 1.60963e-08 -3.02876e-20
3.15974e-08 -1.64525e-08 -2.91134e-20
9.10809e-09 8.70571e-08 2.87207e-21
-1.02133e-07 2.42467e-08 2.05988e-20
-3.16158e-09 -4.42192e-08 -1.56146e-20
4.24242e-09 -4.03146e-07 2.159e-20
1.2226e-08 7.38036e-08 3.78256e-20
-7.629e-08 7.25907e-08 -6.66266e-21
1.1865e-07 4.41312e-07 -2.29871e-21
5.64716e-09 3.72933e-09 -3.27368e-20
4.87837e-09 -3.55614e-09 -6.85329e-20
5.74112e-08 -4.47859e-08 -1.82397e-20
-8.15541e-08 7.30192e-08 1.42581e-20
-9.78643e-08 -2.88933e-08 -6.37694e-21
-1.00589e-07 -3.30324e-08 -1.41429e-20
-2.073e-09 1.28613e-09 -2.0977e-20
-1.44891e-09 -7.38212e-10 -6.51134e-20
4.69559e-08 9.52906e-09 7.68809e-21
1.49156e-08 6.85157e-08 -7.77818e-21
-1.72512e-09 6.81267e-08 -8.80527e-21
-3.37647e-07 -2.45305e-07 -1.0864e-20
5.98454e-08 -9.41387e-08 -8.95405e-21
3.02321e-08 1.08496e-08 1.30185e-20
-1.11014e-07 -1.19334e-08 1.8227e-20
-7.01927e-08 9.27409e-08 1.03807e-20
-9.06104e-08 4.26022e-08 -1.18556e-20
3.31531e-07 2.38176e-07 -8.48844e-21
3.26888e-08 2.15144e-08 1.96177e-20
-3.22262e-08 1.05155e-07 2.05406e-20
-6.34682e-08 -5.43783e-08 -1.70449e-20
1.58003e-08 -8.27888e-08 -3.12792e-20
-5.13989e-08 -9.77688e-08 -3.87721e-20
-8.23357e-08 -5.64356e-08 -6.85863e-20
5.6439e-08 -1.00096e-07 4.12042e-20
6.76901e-08 -9.30466e-08 -7.7302e-21
-2.149e-08 -4.20618e-07 2.53841e-22
1.72878e-07 -2.76531e-07 4.9898e-21
8.24672e-09 -1.0054e-07 -2.34069e-20
7.08691e-08 5.3965e-08 1.28895e-21
-6.36776e-08 -7.73139e-08 6.37283e-21
-5.52519e-08 1.02992e-07 -2.68931e-21
-3.39527e-08 1.00926e-07 2.60318e-20
7.39121e-08 7.65614e-08 1.30031e-20
3.62507e-08 -9.43984e-08 -6.51363e-21
-9.38491e-08 -2.67573e-07 1.98709e-20
2.10916e-09 3.23961e-08 1.07884e-20
7.48526e-08 7.70332e-08 2.7109e-20
-4.03105e-08 -1.98243e-08 -6.62861e-21
-3.34852e-08 1.82557e-08 7.808e-21
3.00459e-07 -1.3163e-07 -1.72694e-20
3.72557e-08 -6.15714e-08 2.05894e-20
-3.5358e-08 -6.04967e-08 -7.94007e-21
1.33508e-08 -1.16649e-09 5.37346e-21
1.10036e-09 -5.03979e-09 2.18461e-20
-3.75117e-09 -3.64933e-09 -5.30242e-20
1.64614e-08 1.08279e-08 2.59333e-21
-5.18347e-08 -9.78395e-08 -8.23434e-20
7.97075e-08 3.19551e-08 3.89293e-20
-1.9431e-07 -2.13617e-07 2.4407e-21
6.84368e-10 6.20999e-09 -1.32641e-20
7.39999e-10 1.20722e-09 -2.63944e-21
1.48412e-09 -1.53464e-10 1.11197e-20
1.865e-07 -3.6835e-07 5.17413e-20
-7.72025e-09 9.07476e-09 1.74822e-20
-1.75377e-09 1.09906e-08 1.5115e-20
-8.01497e-08 2.84772e-08 1.154e-20
-2.7838e-09 3.24899e-08 -2.77291e-20
-1.76223e-08 5.21994e-08 6.64964e-20
3.62822e-08 1.52928e-09 2.33819e-20
8.20999e-09 3.13422e-08 -1.17352e-20
-2.14357e-09 4.33438e-08 -3.02605e-20
6.21908e-08 3.38284e-08 1.43934e-20
4.46045e-09 4.0127e-07 1.34024e-20
-5.78691e-08 5.47768e-08 1.2283e-21
4.3354e-08 -2.91798e-08 -6.67965e-21
2.49977e-08 -2.28808e-08 -2.64872e-20
-4.1152e-07 -5.64992e-08 -4.00925e-20
-1.16553e-08 4.64184e-09 2.97306e-20
-2.99589e-07 -3.54382e-07 -1.08966e-20
5.39043e-09 1.45202e-08 4.03814e-21
5.24351e-08 1.01692e-08 -1.59397e-20
1.56303e-07 -2.02781e-08 5.01687e-21
-3.56999e-08 -5.86601e-08 -9.17078e-21
6.82441e-08 1.95526e-08 5.12514e-21
3.25927e-10 -1.73265e-08 1.48085e-20
-3.84664e-08 4.45382e-08 3.88059e-21
-1.46974e-08 -9.31887e-09 -8.25196e-21
-3.47158e-08 7.04917e-08 1.6857e-20
6.29166e-09 4.44423e-08 2.76466e-21
1.01655e-08 7.43854e-09 -3.5246e-20
1.00848e-08 -7.14465e-09 -2.45714e-20
-2.78922e-07 -7.59795e-08 -5.17399e-20
3.06628e-08 1.14133e-08 1.54539e-20
-3.69743e-08 7.16186e-07 -3.64301e-21
-2.55016e-09 -7.35787e-07 3.48335e-20
3.62154e-07 6.20034e-07 -3.84125e-20
-3.74636e-08 2.97471e-08 -2.91256e-20
-1.91956e-07 3.86234e-07 -3.54826e-21
3.64245e-07 -5.98471e-07 1.42525e-20
-6.01407e-08 -9.73405e-08 -9.15225e-21
5.53163e-07 4.84642e-07 4.78931e-21
6.45303e-09 -1.14536e-08 -4.70344e-20
-6.73103e-09 -1.16045e-08 -5.50978e-20
5.79827e-07 -4.73841e-07 4.3276e-20
-3.54758e-08 6.97509e-08 3.10079e-20
-3.64181e-07 -2.31937e-07 -2.57446e-20
-3.07164e-07 -6.40137e-07 1.32235e-20
-1.72018e-07 -3.95717e-07 1.23487e-20
-3.15771e-07 6.50793e-07 -1.93308e-20
-7.46145e-08 4.40999e-07 9.89982e-21
-5.27208e-10 1.53514e-08 1.38329e-20
-1.91557e-07 2.46615e-07 1.0015e-20
-1.83462e-07 -3.75416e-07 3.98311e-20
7.13223e-07 1.24493e-07 -3.66595e-21
-5.56363e-08 4.73189e-08 -2.49894e-20
-1.28744e-09 3.12133e-08 -2.61903e-20
-3.44983e-07 2.49746e-07 -1.11006e-20
-6.17088e-08 3.29315e-08 -1.07277e-20
7.06227e-07 -1.10743e-07 2.25102e-20
-4.70825e-08 3.16206e-08 -4.00589e-21
3.43249e-08 -7.0996e-08 1.54939e-20
-5.4957e-07 -4.17439e-07 3.79807e-21
-1.8531e-07 3.97049e-07 1.95404e-20
-5.62897e-07 4.1438e-07 -3.01604e-20
1.64472e-07 3.66974e-07 -8.32963e-21
-6.04273e-08 4.8043e-08 -1.70349e-20
-1.67185e-08 9.45823e-09 -1.20202e-20
-9.02234e-10 -1.55541e-09 1.93036e-20
3.25067e-10 -1.28463e-09 1.80294e-20
4.60489e-09 4.82057e-08 1.06302e-20
-1.3342e-09 1.55564e-09 -1.07448e-19
8.00153e-10 1.84458e-09 4.81981e-20
1.28439e-09 -5.95867e-10 -9.49587e-21
-7.13912e-10 5.68891e-09 2.21178e-20
-1.26534e-07 2.76061e-07 3.69991e-20
-9.48336e-09 6.77153e-09 8.19916e-21
1.63118e-08 -1.03136e-08 -3.72982e-20
1.59964e-08 -9.27812e-09 -9.51033e-21
4.62148e-08 1.80154e-08 9.09721e-21
-4.16396e-10 -4.86811e-09 -4.66304e-20
-4.33719e-09 -2.21962e-09 8.35113e-20
1.5984e-08 9.3278e-09 1.75923e-20
4.09029e-07 -7.88627e-08 -2.17182e-22
-5.29028e-08 -6.74293e-08 -5.5748e-20
-3.58088e-07 2.49687e-07 -1.08016e-20
-3.2053e-07 3.65579e-07 6.15105e-21
4.32058e-07 -1.5604e-07 4.82335e-21
-2.01399e-09 -6.00754e-09 -4.098e-20
-2.21879e-09 6.17238e-09 6.38696e-20
-6.75461e-09 1.21109e-09 -2.99189e-20
-4.47785e-09 4.48578e-09 5.44512e-21
-6.1189e-09 -1.35266e-09 4.06064e-20
1.06707e-09 1.48927e-09 -1.26862e-20
6.56208e-09 -1.66053e-09 -4.09297e-20
2.72639e-09 -1.96223e-09 -3.30704e-20
-2.02427e-09 -1.36762e-09 -4.71278e-20
4.23529e-09 -4.29031e-09 -9.00466e-20
4.25923e-09 4.41884e-09 6.69632e-21
-2.03677e-09 1.1915e-09 3.8367e-20
2.07619e-09 -4.98238e-10 -4.09416e-20
3.48949e-09 1.9598e-09 -4.6627e-20
7.65219e-09 2.7814e-09 -3.93344e-20
SCALARS rr_necrosis float
LOOKUP_TABLE default
0
0
0
0
0
0
0
0
0
0
0
0
0
0
0
0
0
0
0
0
0
0
0
0
0
0
0
0
0
0
0
0
0
0
0
0
0
0
0
0
0
0
0
0
0
0
0
0
0
0
0
0
0
0
0
0
0
0
0
0
0
0
0
0
0
0
0
0
0
0
0
0
0
0
0
0
0
0
0
0
0
0
0
0
0
0
0
0
0
0
0
0
0
0
0
0
0
0
0
0
0
0
0
0
0
0
0
0
0
0
0
0
0
0
0
0
0
0
0
0
0
0
0
0
0
0
0
0
0
0
0
0
0
0
0
0
0
0
0
0
0
0
0
0
0
0
0
0
0
0
0
0
0
0
0
0
0
0
0
0
0
0
0
0
0
0
0
0
0
0
0
0
0
0
0
0
0
0
0
0
0
0
0
0
0
0
0
0
0
0
0
0
0
0
0
0
0
0
0
0
0
0
0
0
0
0
0
0
0
0
0
0
0
0
0
0
0
0
0
0
0
0
0
0
0
0
0
0
0
0
0
0
0
0
0
0
0
0
0
0
0
0
0
0
0
0
0
0
0
0
0
0
0
0
0
0
0
0
0
0
0
0
0
0
0
0
0
0
0
0
0
0
0
0
0
0
0
0
0
0
0
0
0
0
0
0
0
0
0
0
0
0
0
0
0
0
0
0
0
0
0
0
0
0
0
0
0
0
0
0
0
0
0
0
0
0
0
0
0
0
0
0
0
0
0
0
0
0
0
0
0
0
0
0
0
0
0
0
0
0
0
0
0
0
0
0
0
0
0
0
0
0
0
0
0
0
0
0
0
0
0
0
0
0
0
0
0
0
0
0
0
0
0
0
0
0
0
0
0
0
0
0
0
0
0
0
0
0
0
0
0
0
0
0
0
0
0
0
0
0
0
0
0
0
0
0
0
0
0
0
0
0
0
0
0
0
0
0
0
0
0
0
0
0
0
0
0
0
0
0
0
0
0
0
0
0
0
0
0
0
0
0
0
0
0
0
0
0
0
0
0
0
0
0
0
0
0
0
0
0
0
0
0
0
0
0
0
0
0
0
0
0
0
0
0
0
0
0
0
0
0
0
0
0
0
0
0
0
0
0
0
0
0
0
0
0
0
0
0
0
0
0
0
0
0
0
0
0
0
0
0
0
0
0
0
0
0
0
0
0
0
0
0
0
0
0
0
0
0
0
0
0
0
0
0
0
0
0
0
0
0
0
0
0
0
0
0
0
0
0
0
0
0
0
0
0
0
0
0
0
0
0
0
SCALARS rr_protein float
LOOKUP_TABLE default
1
1
1
1
1
1
1
1
1
1
1
1
1
1
1
1
1
1
1
1
1
1
1
1
1
1
1
1
1
1
1
1
1
1
1
1
1
1
1
1
1
1
1
1
1
1
1
1
1
1
1
1
1
1
1
1
1
1
1
1
1
1
1
1
1
1
1
1
1
1
1
1
1
1
1
1
1
1
1
1
1
1
1
1
1
1
1
1
1
1
1
1
1
1
1
1
1
1
1
1
1
1
1
1
1
1
1
1
1
1
1
1
1
1
1
1
1
1
1
1
1
1
1
1
1
1
1
1
1
1
1
1
1
1
1
1
1
1
1
1
1
1
1
1
1
1
1
1
1
1
1
1
1
1
1
1
1
1
1
1
1
1
1
1
1
1
1
1
1
1
1
1
1
1
1
1
1
1
1
1
1
1
1
1
1
1
1
1
1
1
1
1
1
1
1
1
1
1
1
1
1
1
1
1
1
1
1
1
1
1
1
1
1
1
1
1
1
1
1
1
1
1
1
1
1
1
1
1
1
1
1
1
1
1
1
1
1
1
1
1
1
1
1
1
1
1
1
1
1
1
1
1
1
1
1
1
1
1
1
1
1
1
1
1
1
1
1
1
1
1
1
1
1
1
1
1
1
1
1
1
1
1
1
1
1
1
1
1
1
1
1
1
1
1
1
1
1
1
1
1
1
1
1
1
1
1
1
1
1
1
1
1
1
1
1
1
1
1
1
1
1
1
1
1
1
1
1
1
1
1
1
1
1
1
1
1
1
1
1
1
1
1
1
1
1
1
1
1
1
1
1
1
1
1
1
1
1
1
1
1
1
1
1
1
1
1
1
1
1
1
1
1
1
1
1
1
1
1
1
1
1
1
1
1
1
1
1
1
1
1
1
1
1
1
1
1
1
1
1
1
1
1
1
1
1
1
1
1
1
1
1
1
1
1
1
1
1
1
1
1
1
1
1
1
1
1
1
1
1
1
1
1
1
1
1
1
1
1
1
1
1
1
1
1
1
1
1
1
1
1
1
1
1
1
1
1
1
1
1
1
1
1
1
1
1
1
1
1
1
1
1
1
1
1
1
1
1
1
1
1
1
1
1
1
1
1
1
1
1
1
1
1
1
1
1
1
1
1
1
1
1
1
1
1
1
1
1
1
1
1
1
1
1
1
1
1
1
1
1
1
1
1
1
1
1
1
1
1
1
1
1
1
1
1
1
1
1
1
1
1
1
1
1
1
1
1
1
1
1
1
1
1
1
1
1
1
1
1
1
1
1
1
1
SCALARS rr_(S_ext) float
LOOKUP_TABLE default
0.768283
0.768918
0.768865
0.768905
0.769098
0.768864
0.76828
0.768904
0.768812
0.768919
0.768299
0.768904
0.768891
0.768929
0.76903
0.768875
0.768951
0.768894
0.76878
0.768848
0.768842
0.769331
0.768839
0.768849
0.768847
0.768904
0.768403
0.768872
0.768602
0.769191
0.768889
0.768603
0.768396
0.76915
0.769173
0.769149
0.769197
0.769164
0.768888
0.768398
0.7686
0.769199
0.769198
0.768889
0.768451
0.768613
0.768795
0.768823
0.768867
0.76856
0.768585
0.768671
0.769085
0.768674
0.76908
0.76848
0.769174
0.768673
0.769174
0.76885
0.768947
0.769007
0.768451
0.769005
0.769008
0.768955
0.768949
0.768905
0.768843
0.76892
0.769084
0.769083
0.768601
0.768976
0.768868
0.768365
0.769046
0.768954
0.768904
0.768682
0.768552
0.769119
0.768977
0.768531
0.768625
0.768463
0.768872
0.768967
0.768451
0.769299
0.768672
0.769299
0.769048
0.768947
0.768679
0.768577
0.768555
0.768917
0.769045
0.768885
0.768746
0.768641
0.768529
0.768898
0.768912
0.768912
0.768986
0.76888
0.768529
0.768926
0.768851
0.768474
0.768505
0.768895
0.768909
0.768677
0.769176
0.768553
0.769174
0.768678
0.768766
0.769021
0.768917
0.768964
0.768932
0.769035
0.769151
0.768917
0.768555
0.768678
0.769082
0.768913
0.768973
0.768915
0.768643
0.769174
0.76852
0.768896
0.768977
0.769173
0.768649
0.768925
0.768778
0.768919
0.76855
0.768906
0.768914
0.768869
0.768865
0.768725
0.768821
0.768917
0.768601
0.768892
0.768918
0.768913
0.768939
0.768657
0.768659
0.768888
0.768824
0.768606
0.76847
0.768583
0.768655
0.768913
0.768656
0.768656
0.768602
0.768657
0.76905
0.768673
0.768583
0.768945
0.768675
0.768984
0.769049
0.768905
0.769089
0.768916
0.768604
0.768916
0.768916
0.76865
0.768967
0.768579
0.768964
0.768989
0.769054
0.768917
0.768968
0.768562
0.768674
0.768602
0.768915
0.76889
0.768894
0.768972
0.768916
0.768952
0.768918
0.768789
0.768688
0.768972
0.768606
0.768976
0.768955
0.768637
0.769017
0.768919
0.769024
0.768935
0.76891
0.768978
0.768727
0.768941
0.768695
0.768989
0.76893
0.768929
0.768921
0.768924
0.768925
0.768924
0.768925
0.769024
0.769022
0.769024
0.769025
0.769082
0.769082
0.768722
0.768925
0.768897
0.768821
0.76903
0.769033
0.768899
0.768689
0.768894
0.768917
0.76873
0.769017
0.768727
0.76898
0.76889
0.768731
0.768698
0.76855
0.768549
0.768978
0.768541
0.768883
0.768695
0.768785
0.768893
0.768928
0.769204
0.768926
0.768539
0.768694
0.768896
0.768904
0.768686
0.768927
0.768782
0.769204
0.768696
0.768931
0.768961
0.768894
0.769028
0.768965
0.769086
0.768889
0.768487
0.768462
0.769069
0.768842
0.768904
0.768729
0.769018
0.768945
0.768695
0.768948
0.768749
0.768918
0.76875
0.768691
0.769258
0.769056
0.76903
0.769029
0.768924
0.768755
0.769142
0.768958
0.768826
0.768757
0.768736
0.769067
0.768729
0.76905
0.768744
0.768453
0.768753
0.768547
0.76899
0.768729
0.769257
0.768743
0.768975
0.768722
0.768968
0.768741
0.768874
0.768445
0.768857
0.768728
0.769062
0.768724
0.768826
0.768971
0.76892
0.768742
0.768754
0.76878
0.768991
0.768752
0.768905
0.768873
0.769085
0.768754
0.768777
0.768836
0.768784
0.768746
0.768785
0.769011
0.768902
0.76878
0.768727
0.768922
0.768923
0.76875
0.769085
0.768277
0.768873
0.768551
0.768839
0.767901
0.767902
0.767905
0.767903
0.767903
0.767903
0.767907
0.768993
0.769126
0.76889
0.768823
0.768784
0.768784
0.768918
0.768779
0.768776
0.769128
0.768783
0.769023
0.768672
0.769013
0.768862
0.768822
0.768781
0.769071
0.768873
0.768826
0.768873
0.768827
0.768775
0.768681
0.768821
0.768867
0.769024
0.768791
0.768769
0.768788
0.768817
0.768865
0.768918
0.768787
0.768917
0.768857
0.768819
0.768906
0.768858
0.76878
0.768966
0.768833
0.769119
0.768453
0.768992
0.769011
0.768865
0.768836
0.768952
0.768287
0.768863
0.768832
0.768448
0.769256
0.769258
0.768871
0.768784
0.76884
0.768791
0.769364
0.769363
0.768903
0.768907
0.768904
0.768289
0.768773
0.768977
0.768821
0.768815
0.768818
0.768271
0.768965
0.76878
0.76887
0.76887
0.768813
0.768825
0.768813
0.76882
0.768402
0.768548
0.768825
0.768872
0.768834
0.768811
0.768829
0.768838
0.768833
0.768455
0.769032
0.768787
0.76895
0.768968
0.768451
0.768866
0.768859
0.769086
0.769246
0.769245
0.769055
0.768772
0.768869
0.768444
0.769232
0.769344
0.769343
0.768264
0.769164
0.76919
0.768862
0.769046
0.768889
0.768922
0.768968
0.768988
0.768906
0.768284
0.768877
0.768946
0.768976
0.768361
0.769169
0.76844
0.768971
0.768928
0.768738
0.768887
0.768903
0.769088
0.76891
0.769087
0.76887
0.768978
0.769181
0.769187
0.768448
0.768931
0.768269
0.768285
0.768251
0.768965
0.768281
0.768236
0.768812
0.768259
0.769121
0.76912
0.768272
0.768834
0.768407
0.768269
0.768391
0.768266
0.768391
0.769168
0.768422
0.768283
0.768269
0.7689
0.769001
0.768381
0.768901
0.768238
0.768921
0.768839
0.768261
0.76837
0.768249
0.768263
0.768858
0.769131
0.769329
0.76932
0.768932
0.769327
0.769327
0.769324
0.76927
0.768435
0.769175
0.769061
0.769133
0.768924
0.769285
0.769285
0.769147
0.768255
0.768833
0.768272
0.768431
0.768429
0.769223
0.769221
0.769217
0.769219
0.769222
0.76932
0.769222
0.769287
0.769335
0.769228
0.769228
0.769338
0.769321
0.769289
0.769215
SCALARS rr_(P_ext) float
LOOKUP_TABLE default
0.0115693
0.0115069
0.0115124
0.011508
0.0114912
0.0115125
0.0115695
0.0115088
0.0115176
0.0115071
0.0115653
0.0115087
0.01151
0.0115063
0.011497
0.0115115
0.0115041
0.0115094
0.0115204
0.0115139
0.0115148
0.0114698
0.0115147
0.0115138
0.011514
0.0115084
0.0115566
0.0115117
0.0115374
0.0114824
0.0115102
0.0115373
0.0115575
0.0114861
0.0114843
0.0114862
0.0114817
0.0114851
0.0115103
0.0115573
0.0115376
0.0114815
0.0114815
0.0115102
0.0115515
0.0115366
0.0115191
0.0115166
0.0115122
0.0115413
0.0115391
0.0115311
0.0114921
0.0115309
0.0114926
0.0115496
0.0114841
0.0115309
0.0114842
0.0115136
0.0115043
0.0114992
0.0115526
0.0114995
0.0114991
0.0115041
0.0115041
0.0115084
0.0115143
0.0115067
0.0114922
0.0114922
0.0115376
0.0115022
0.0115122
0.0115601
0.0114958
0.0115042
0.0115084
0.0115296
0.0115426
0.0114892
0.0115017
0.0115443
0.0115356
0.0115508
0.0115117
0.0115031
0.0115514
0.0114729
0.011531
0.011473
0.0114955
0.0115048
0.0115304
0.0115396
0.0115425
0.0115072
0.0114959
0.0115106
0.011524
0.0115341
0.0115445
0.0115089
0.0115078
0.0115076
0.0115009
0.0115111
0.0115446
0.011506
0.0115135
0.0115494
0.0115466
0.0115092
0.0115079
0.0115307
0.0114842
0.0115427
0.0114844
0.0115305
0.0115218
0.0114977
0.0115069
0.011503
0.0115055
0.0114964
0.0114864
0.0115072
0.0115425
0.0115304
0.0114922
0.0115073
0.011502
0.0115071
0.0115341
0.0114841
0.0115459
0.0115096
0.0115017
0.0114842
0.0115333
0.011507
0.0115208
0.0115071
0.011543
0.0115082
0.0115079
0.0115123
0.0115125
0.0115258
0.0115167
0.0115069
0.0115374
0.0115099
0.0115071
0.0115072
0.0115054
0.0115327
0.0115325
0.01151
0.0115165
0.011537
0.0115499
0.0115391
0.0115328
0.0115076
0.0115328
0.0115329
0.0115374
0.0115327
0.0114953
0.0115309
0.0115392
0.0115048
0.0115308
0.0115012
0.0114953
0.0115088
0.0114918
0.0115076
0.0115374
0.0115073
0.0115074
0.0115332
0.011503
0.0115396
0.011503
0.0115009
0.0114951
0.0115072
0.0115029
0.0115418
0.0115308
0.0115373
0.0115072
0.0115097
0.0115093
0.0115021
0.011507
0.0115043
0.0115069
0.0115196
0.0115292
0.0115021
0.0115373
0.0115017
0.0115042
0.0115345
0.0114984
0.0115068
0.0114978
0.011506
0.011508
0.0115016
0.0115256
0.0115055
0.0115286
0.0115009
0.0115056
0.0115057
0.0115063
0.0115061
0.011506
0.0115061
0.0115067
0.0114974
0.0114975
0.0114974
0.0114973
0.0114925
0.0114924
0.0115261
0.0115065
0.0115085
0.0115169
0.0114969
0.0114967
0.0115083
0.011529
0.0115087
0.0115072
0.0115254
0.0114983
0.0115256
0.0115015
0.011509
0.0115252
0.0115283
0.0115427
0.0115423
0.0115016
0.0115439
0.0115107
0.0115286
0.01152
0.0115088
0.0115058
0.0114812
0.0115059
0.0115444
0.0115286
0.0115085
0.0115088
0.0115293
0.0115058
0.0115205
0.0114812
0.0115285
0.0115055
0.0115033
0.0115093
0.0114971
0.0115033
0.0114921
0.0115101
0.0115485
0.0115508
0.0114938
0.0115146
0.0115088
0.0115256
0.0114982
0.0115049
0.0115285
0.0115047
0.0115237
0.0115076
0.0115237
0.0115289
0.0114764
0.0114947
0.0114968
0.0114969
0.0115067
0.0115233
0.0114868
0.0115036
0.0115163
0.011523
0.011525
0.0114938
0.0115254
0.0114954
0.0115243
0.0115513
0.0115234
0.0115433
0.0115007
0.0115254
0.0114765
0.0115243
0.0115021
0.0115261
0.0115027
0.0115245
0.0115117
0.0115536
0.0115129
0.0115255
0.0114941
0.0115258
0.0115162
0.0115027
0.0115067
0.0115244
0.0115233
0.0115207
0.0115008
0.0115234
0.0115088
0.0115116
0.0114922
0.0115233
0.011521
0.0115153
0.0115203
0.011524
0.0115202
0.011499
0.0115089
0.0115207
0.0115256
0.0115072
0.0115071
0.0115236
0.0114923
0.0115675
0.0115119
0.0115427
0.0115151
0.0116006
0.0116005
0.0116002
0.0116003
0.0116001
0.0116007
0.0116005
0.0115005
0.0114885
0.0115099
0.0115165
0.01152
0.0115204
0.0115076
0.0115207
0.0115211
0.0114883
0.0115204
0.011498
0.011531
0.0114983
0.0115126
0.0115166
0.0115206
0.0114937
0.0115119
0.0115162
0.0115118
0.0115161
0.0115209
0.0115299
0.0115167
0.0115124
0.0114978
0.0115195
0.0115214
0.0115197
0.011517
0.0115126
0.0115075
0.0115198
0.0115076
0.0115131
0.0115169
0.0115086
0.011513
0.0115205
0.0115028
0.0115156
0.011489
0.0115512
0.0115005
0.011499
0.0115125
0.0115154
0.0115043
0.0115667
0.0115126
0.0115157
0.0115532
0.0114768
0.0114767
0.0115119
0.0115201
0.011515
0.0115194
0.0114674
0.0114674
0.0115086
0.0115085
0.0115088
0.0115669
0.0115211
0.0115019
0.0115169
0.0115174
0.0115169
0.0115679
0.0115031
0.0115204
0.0115121
0.0115121
0.0115175
0.0115163
0.0115175
0.011517
0.0115569
0.0115432
0.0115163
0.011512
0.0115156
0.0115177
0.011516
0.0115152
0.0115156
0.0115512
0.0114969
0.0115198
0.0115044
0.0115028
0.0115516
0.0115123
0.0115128
0.0114922
0.0114772
0.0114773
0.0114947
0.0115212
0.0115122
0.0115522
0.0114785
0.0114688
0.0114688
0.0115686
0.0114851
0.0114824
0.0115128
0.0114957
0.0115099
0.0115067
0.0115026
0.0115011
0.0115088
0.0115669
0.0115113
0.0115049
0.011502
0.0115605
0.0114844
0.0115543
0.0115022
0.0115066
0.0115247
0.0115103
0.011509
0.0114917
0.0115082
0.0114917
0.011512
0.0115019
0.0114834
0.011483
0.0115521
0.0115059
0.0115705
0.0115694
0.0115719
0.0115031
0.0115676
0.0115732
0.0115177
0.0115712
0.011489
0.0114891
0.0115703
0.0115152
0.0115567
0.0115709
0.0115579
0.0115711
0.0115579
0.0114847
0.0115543
0.0115673
0.0115704
0.0115093
0.0114997
0.0115589
0.0115091
0.0115728
0.0115071
0.0115148
0.0115716
0.0115598
0.0115725
0.0115686
0.0115131
0.011488
0.0114699
0.0114707
0.0115061
0.01147
0.0114701
0.0114704
0.0114752
0.0115532
0.0114838
0.0114943
0.011488
0.0115069
0.0114739
0.011474
0.0114869
0.0115692
0.0115154
0.0115684
0.0115553
0.0115549
0.0114792
0.0114793
0.0114798
0.0114796
0.0114792
0.011471
0.0114796
0.0114739
0.0114697
0.0114791
0.011479
0.0114695
0.0114708
0.0114737
0.0114801
SCALARS rr_(S) float
LOOKUP_TABLE default
0.672807
0.673155
0.673125
0.673147
0.673262
0.673125
0.672806
0.673147
0.673096
0.673156
0.672811
0.673148
0.67314
0.673161
0.673221
0.673131
0.673174
0.673141
0.673077
0.673115
0.673113
0.673402
0.673111
0.673116
0.673115
0.673147
0.672871
0.67313
0.672979
0.673318
0.673139
0.67298
0.672867
0.673293
0.673306
0.673293
0.673321
0.673301
0.673139
0.672868
0.672978
0.673322
0.673322
0.673139
0.672895
0.672985
0.673086
0.673102
0.673126
0.672956
0.67297
0.673017
0.673254
0.673019
0.673251
0.672913
0.673307
0.673019
0.673307
0.673117
0.673172
0.673207
0.672898
0.673206
0.673208
0.673177
0.673173
0.673148
0.673113
0.673156
0.673253
0.673253
0.672979
0.67319
0.673127
0.672849
0.673231
0.673177
0.673147
0.673023
0.672952
0.673274
0.67319
0.67294
0.672993
0.672903
0.673129
0.673185
0.672896
0.673384
0.673018
0.673384
0.673232
0.673173
0.673022
0.672965
0.672954
0.673154
0.67323
0.673137
0.673059
0.673002
0.672939
0.673143
0.673152
0.673152
0.673195
0.673134
0.672939
0.673159
0.673117
0.672908
0.672926
0.673142
0.67315
0.673021
0.673309
0.672953
0.673308
0.673022
0.67307
0.673216
0.673154
0.673182
0.673163
0.673224
0.673294
0.673155
0.672954
0.673022
0.673253
0.673152
0.673187
0.673153
0.673002
0.673308
0.672935
0.673143
0.67319
0.673307
0.673006
0.67316
0.673077
0.673156
0.672952
0.673148
0.673154
0.673128
0.673125
0.673047
0.673101
0.673154
0.672978
0.673141
0.673155
0.673152
0.673168
0.67301
0.673011
0.673138
0.673103
0.672981
0.672906
0.672968
0.673009
0.673152
0.67301
0.67301
0.672979
0.67301
0.673233
0.673019
0.672968
0.673171
0.67302
0.673194
0.673233
0.673149
0.673256
0.673155
0.67298
0.673154
0.673154
0.673006
0.673184
0.672966
0.673182
0.673197
0.673236
0.673154
0.673185
0.672958
0.673019
0.672979
0.673153
0.673139
0.673141
0.673187
0.673154
0.673176
0.673155
0.673083
0.673026
0.673186
0.672981
0.673189
0.673178
0.672999
0.673213
0.673156
0.673218
0.673165
0.67315
0.673191
0.673048
0.673169
0.67303
0.673197
0.673162
0.673162
0.673156
0.673159
0.673159
0.673158
0.673159
0.673218
0.673216
0.673218
0.673218
0.673253
0.673253
0.673045
0.67316
0.673142
0.673101
0.673222
0.673223
0.673144
0.673027
0.67314
0.673155
0.67305
0.673214
0.673048
0.673192
0.673138
0.67305
0.673032
0.672952
0.67295
0.67319
0.672947
0.673135
0.67303
0.67308
0.67314
0.673161
0.673326
0.673159
0.672946
0.67303
0.673142
0.673148
0.673025
0.67316
0.673079
0.673325
0.673031
0.673163
0.673181
0.673141
0.673221
0.673184
0.673255
0.673139
0.672916
0.672903
0.673245
0.673112
0.673148
0.67305
0.673214
0.673171
0.67303
0.673174
0.67306
0.673156
0.673061
0.673028
0.673358
0.673237
0.673221
0.67322
0.673158
0.673064
0.673289
0.673179
0.673104
0.673065
0.673054
0.673243
0.67305
0.673234
0.673058
0.672896
0.673063
0.67295
0.673198
0.67305
0.673357
0.673058
0.673189
0.673045
0.673185
0.673057
0.67313
0.672895
0.673121
0.673049
0.673241
0.673047
0.673104
0.673187
0.673156
0.673057
0.673063
0.673078
0.673199
0.673063
0.673149
0.67313
0.673254
0.673064
0.673076
0.67311
0.67308
0.673059
0.673081
0.673211
0.673146
0.673078
0.673048
0.673158
0.673159
0.673061
0.673254
0.672799
0.673131
0.672952
0.673111
0.672588
0.672589
0.67259
0.672589
0.672589
0.672591
0.672593
0.6732
0.673279
0.673139
0.673102
0.67308
0.67308
0.673156
0.673078
0.673075
0.67328
0.67308
0.673217
0.673018
0.673211
0.673124
0.673101
0.673079
0.673246
0.67313
0.673104
0.67313
0.673104
0.673075
0.673022
0.673101
0.673127
0.673217
0.673084
0.673071
0.673082
0.673098
0.673125
0.673156
0.673082
0.673155
0.673121
0.6731
0.673149
0.673121
0.673078
0.673184
0.673108
0.673274
0.672897
0.673199
0.673211
0.673126
0.673109
0.673175
0.672805
0.673124
0.673107
0.672897
0.673357
0.673359
0.673129
0.67308
0.673112
0.673084
0.673423
0.673422
0.673147
0.67315
0.673148
0.672807
0.673074
0.67319
0.673101
0.673097
0.673099
0.672796
0.673183
0.673077
0.673129
0.673129
0.673096
0.673103
0.673097
0.6731
0.67287
0.672951
0.673103
0.67313
0.673108
0.673095
0.673105
0.67311
0.673108
0.672898
0.673223
0.673081
0.673174
0.673185
0.672896
0.673125
0.673122
0.673255
0.673351
0.67335
0.673237
0.673073
0.673128
0.672892
0.673343
0.673409
0.673409
0.672792
0.673301
0.673317
0.673124
0.673231
0.673138
0.673158
0.673184
0.673196
0.673149
0.672803
0.673132
0.673172
0.673189
0.672847
0.673304
0.672893
0.673186
0.673161
0.673054
0.673137
0.673147
0.673256
0.673151
0.673256
0.673128
0.673191
0.673313
0.673316
0.672894
0.673163
0.6728
0.672809
0.67279
0.673183
0.672802
0.672781
0.673096
0.672794
0.673275
0.673275
0.672802
0.673107
0.672874
0.6728
0.672864
0.672799
0.672864
0.673304
0.67288
0.672803
0.672799
0.673146
0.673204
0.672859
0.673146
0.672782
0.673158
0.67311
0.672796
0.672852
0.672789
0.672791
0.673121
0.673282
0.673401
0.673395
0.673163
0.6734
0.673399
0.673398
0.673366
0.672887
0.673308
0.673241
0.673284
0.673159
0.673375
0.673375
0.673291
0.672787
0.673107
0.672798
0.672888
0.672886
0.673337
0.673336
0.673333
0.673335
0.673336
0.673396
0.673337
0.673377
0.673405
0.673341
0.673341
0.673407
0.673396
0.673377
0.673333
SCALARS rr_(P) float
LOOKUP_TABLE default
0.0134631
0.013429
0.0134321
0.0134296
0.0134204
0.0134321
0.0134632
0.0134301
0.0134349
0.0134291
0.0134608
0.0134301
0.0134308
0.0134287
0.0134235
0.0134316
0.0134274
0.0134304
0.0134364
0.0134329
0.0134334
0.0134085
0.0134333
0.0134328
0.0134329
0.0134298
0.0134561
0.0134317
0.0134457
0.0134154
0.0134309
0.0134456
0.0134566
0.0134175
0.0134165
0.0134176
0.0134151
0.013417
0.0134309
0.0134565
0.0134458
0.0134149
0.013415
0.0134309
0.0134533
0.0134452
0.0134357
0.0134344
0.013432
0.0134478
0.0134466
0.0134423
0.0134208
0.0134422
0.0134211
0.0134523
0.0134165
0.0134422
0.0134165
0.0134327
0.0134276
0.0134248
0.013454
0.013425
0.0134247
0.0134275
0.0134275
0.0134298
0.0134331
0.0134289
0.0134209
0.0134209
0.0134458
0.0134264
0.013432
0.013458
0.0134229
0.0134275
0.0134298
0.0134415
0.0134485
0.0134193
0.0134261
0.0134495
0.0134447
0.013453
0.0134317
0.013427
0.0134532
0.0134102
0.0134422
0.0134102
0.0134227
0.0134279
0.0134419
0.0134469
0.0134485
0.0134292
0.013423
0.0134311
0.0134384
0.013444
0.0134495
0.0134301
0.0134295
0.0134294
0.0134257
0.0134314
0.0134496
0.0134284
0.0134327
0.0134522
0.0134507
0.0134303
0.0134296
0.0134421
0.0134165
0.0134486
0.0134166
0.013442
0.0134372
0.0134239
0.013429
0.0134269
0.0134282
0.0134232
0.0134177
0.0134292
0.0134485
0.0134419
0.0134209
0.0134292
0.0134263
0.0134291
0.0134439
0.0134164
0.0134504
0.0134305
0.0134261
0.0134165
0.0134435
0.0134291
0.0134367
0.0134291
0.0134488
0.0134297
0.0134296
0.013432
0.0134321
0.0134394
0.0134344
0.013429
0.0134457
0.0134307
0.0134291
0.0134292
0.0134282
0.0134432
0.0134431
0.0134308
0.0134343
0.0134454
0.0134525
0.0134466
0.0134432
0.0134294
0.0134432
0.0134433
0.0134457
0.0134432
0.0134226
0.0134422
0.0134466
0.0134279
0.0134421
0.0134258
0.0134226
0.0134301
0.0134207
0.0134294
0.0134457
0.0134293
0.0134293
0.0134435
0.0134269
0.0134469
0.0134269
0.0134257
0.0134225
0.0134292
0.0134269
0.0134481
0.0134421
0.0134457
0.0134291
0.0134305
0.0134304
0.0134263
0.013429
0.0134276
0.013429
0.013436
0.0134412
0.0134264
0.0134456
0.0134261
0.0134275
0.0134441
0.0134243
0.0134289
0.013424
0.0134285
0.0134296
0.0134261
0.0134393
0.0134283
0.0134409
0.0134257
0.0134283
0.0134283
0.0134286
0.0134285
0.0134285
0.0134285
0.0134289
0.0134237
0.0134238
0.0134237
0.0134237
0.013421
0.013421
0.0134395
0.0134288
0.0134298
0.0134345
0.0134235
0.0134234
0.0134297
0.0134411
0.01343
0.0134292
0.0134392
0.0134243
0.0134393
0.013426
0.0134301
0.0134391
0.0134407
0.0134486
0.0134483
0.0134261
0.0134493
0.0134311
0.0134409
0.0134362
0.01343
0.0134283
0.0134148
0.0134284
0.0134495
0.0134409
0.0134299
0.0134301
0.0134413
0.0134284
0.0134365
0.0134148
0.0134408
0.0134282
0.0134271
0.0134304
0.0134236
0.0134271
0.0134209
0.0134308
0.0134517
0.013453
0.0134218
0.0134333
0.0134301
0.0134393
0.0134242
0.0134279
0.0134409
0.0134278
0.0134383
0.0134294
0.0134383
0.0134411
0.0134121
0.0134223
0.0134234
0.0134235
0.0134289
0.013438
0.0134179
0.0134272
0.0134342
0.0134379
0.013439
0.0134218
0.0134392
0.0134227
0.0134386
0.0134532
0.0134381
0.013449
0.0134256
0.0134391
0.0134122
0.0134386
0.0134264
0.0134395
0.0134267
0.0134387
0.0134317
0.0134546
0.0134323
0.0134393
0.0134219
0.0134394
0.0134342
0.0134267
0.0134289
0.0134386
0.0134381
0.0134366
0.0134257
0.0134381
0.0134301
0.0134316
0.0134209
0.0134381
0.0134368
0.0134337
0.0134364
0.0134384
0.0134363
0.0134246
0.0134302
0.0134366
0.0134393
0.0134292
0.0134291
0.0134382
0.013421
0.013462
0.0134318
0.0134486
0.0134335
0.0134798
0.0134797
0.0134795
0.0134796
0.0134795
0.0134799
0.0134797
0.0134255
0.0134188
0.0134307
0.0134343
0.0134362
0.0134364
0.0134294
0.0134366
0.0134368
0.0134187
0.0134364
0.0134241
0.0134422
0.0134243
0.0134322
0.0134344
0.0134366
0.0134217
0.0134318
0.0134342
0.0134317
0.0134341
0.0134367
0.0134416
0.0134344
0.0134321
0.013424
0.0134359
0.013437
0.0134361
0.0134346
0.0134322
0.0134294
0.0134361
0.0134294
0.0134324
0.0134345
0.01343
0.0134324
0.0134365
0.0134268
0.0134338
0.0134191
0.0134532
0.0134255
0.0134246
0.0134321
0.0134338
0.0134276
0.0134616
0.0134321
0.0134339
0.0134544
0.0134124
0.0134123
0.0134318
0.0134363
0.0134335
0.0134359
0.0134072
0.0134072
0.01343
0.0134299
0.0134301
0.0134617
0.0134368
0.0134263
0.0134345
0.0134348
0.0134345
0.0134622
0.0134269
0.0134364
0.0134319
0.0134319
0.0134349
0.0134342
0.0134349
0.0134346
0.0134563
0.0134489
0.0134342
0.0134318
0.0134338
0.013435
0.013434
0.0134336
0.0134338
0.0134532
0.0134235
0.0134361
0.0134277
0.0134268
0.0134534
0.013432
0.0134323
0.0134209
0.0134125
0.0134126
0.0134223
0.0134369
0.013432
0.0134537
0.0134132
0.0134079
0.013408
0.0134625
0.013417
0.0134154
0.0134323
0.0134229
0.0134307
0.0134289
0.0134266
0.0134258
0.0134301
0.0134616
0.0134315
0.0134279
0.0134263
0.0134582
0.0134165
0.013455
0.0134264
0.0134289
0.0134388
0.0134309
0.0134302
0.0134206
0.0134297
0.0134206
0.0134318
0.0134263
0.013416
0.0134158
0.0134536
0.0134285
0.0134638
0.0134632
0.0134645
0.013427
0.0134621
0.0134652
0.013435
0.0134641
0.0134192
0.0134192
0.0134636
0.0134336
0.0134562
0.013464
0.0134568
0.0134641
0.0134568
0.0134168
0.0134549
0.0134619
0.0134637
0.0134304
0.0134251
0.0134574
0.0134303
0.0134649
0.0134292
0.0134334
0.0134643
0.0134579
0.0134648
0.0134625
0.0134324
0.0134186
0.0134085
0.013409
0.0134286
0.0134086
0.0134086
0.0134088
0.0134114
0.0134542
0.0134162
0.0134221
0.0134186
0.013429
0.0134107
0.0134108
0.013418
0.0134629
0.0134337
0.0134625
0.0134555
0.0134552
0.0134136
0.0134137
0.013414
0.0134139
0.0134137
0.0134091
0.0134139
0.0134107
0.0134085
0.0134136
0.0134135
0.0134083
0.013409
0.0134106
0.0134141
SCALARS rr_(T) float
LOOKUP_TABLE default
0.0304172
0.0304419
0.0304395
0.0304412
0.0304518
0.0304395
0.0304171
0.0304413
0.0304372
0.0304418
0.030418
0.0304413
0.0304406
0.0304425
0.030448
0.0304397
0.0304437
0.0304408
0.030436
0.0304387
0.0304385
0.0304661
0.0304385
0.0304389
0.0304387
0.0304413
0.0304217
0.03044
0.0304291
0.0304576
0.0304405
0.0304291
0.0304214
0.0304553
0.0304562
0.0304552
0.030458
0.0304557
0.0304405
0.0304215
0.030429
0.0304582
0.0304581
0.0304405
0.0304235
0.0304294
0.0304366
0.0304376
0.0304397
0.0304275
0.0304285
0.0304317
0.0304512
0.0304317
0.0304509
0.0304245
0.0304563
0.0304317
0.0304563
0.0304389
0.0304436
0.0304465
0.0304235
0.0304464
0.0304466
0.030444
0.0304437
0.0304414
0.0304386
0.030442
0.0304511
0.0304511
0.030429
0.0304451
0.0304395
0.0304202
0.0304488
0.030444
0.0304414
0.0304322
0.0304272
0.0304529
0.0304451
0.0304264
0.0304299
0.0304239
0.03044
0.0304446
0.0304235
0.0304643
0.0304317
0.0304643
0.0304491
0.0304438
0.0304319
0.0304282
0.0304272
0.0304417
0.0304488
0.0304403
0.0304346
0.0304304
0.0304264
0.0304409
0.0304418
0.0304415
0.0304458
0.0304401
0.0304263
0.0304424
0.030439
0.0304243
0.0304255
0.0304408
0.0304413
0.0304318
0.0304563
0.0304271
0.0304562
0.0304319
0.0304354
0.0304475
0.0304419
0.0304443
0.0304427
0.0304485
0.0304549
0.0304417
0.0304272
0.0304319
0.0304513
0.0304416
0.0304449
0.0304417
0.0304305
0.0304564
0.0304259
0.030441
0.0304451
0.0304564
0.0304308
0.0304424
0.0304359
0.0304421
0.030427
0.0304413
0.0304421
0.0304398
0.0304394
0.0304338
0.0304377
0.0304419
0.0304291
0.0304406
0.030442
0.0304417
0.030443
0.030431
0.0304311
0.0304404
0.0304377
0.0304293
0.0304241
0.0304284
0.030431
0.0304415
0.030431
0.0304309
0.0304291
0.030431
0.0304492
0.0304317
0.0304284
0.0304432
0.0304318
0.0304457
0.0304492
0.0304415
0.0304513
0.030442
0.0304291
0.0304416
0.0304417
0.0304308
0.0304446
0.0304282
0.0304443
0.0304458
0.0304494
0.0304417
0.0304447
0.0304274
0.0304318
0.0304291
0.0304417
0.0304406
0.0304408
0.0304448
0.0304418
0.0304439
0.0304419
0.0304363
0.0304323
0.0304448
0.0304291
0.030445
0.030444
0.0304303
0.0304474
0.030442
0.0304476
0.0304429
0.0304416
0.0304451
0.0304339
0.0304433
0.0304326
0.0304458
0.0304426
0.0304425
0.0304421
0.0304423
0.0304423
0.0304422
0.0304424
0.0304477
0.0304476
0.0304477
0.0304477
0.0304511
0.0304511
0.0304337
0.0304424
0.0304408
0.0304374
0.030448
0.0304482
0.0304409
0.0304324
0.0304406
0.0304417
0.030434
0.0304475
0.0304338
0.0304453
0.0304405
0.030434
0.0304327
0.0304271
0.0304272
0.0304451
0.0304267
0.0304401
0.0304325
0.0304362
0.0304406
0.0304425
0.0304585
0.0304423
0.0304265
0.0304326
0.0304408
0.0304415
0.0304323
0.0304424
0.0304361
0.0304584
0.0304326
0.0304426
0.0304442
0.0304407
0.0304479
0.0304446
0.0304513
0.0304404
0.0304248
0.0304238
0.0304503
0.0304384
0.0304415
0.0304339
0.0304476
0.0304432
0.0304326
0.0304437
0.0304346
0.0304422
0.0304346
0.0304325
0.0304617
0.0304495
0.0304482
0.0304481
0.0304423
0.0304348
0.0304548
0.030444
0.0304378
0.0304349
0.0304341
0.0304502
0.0304339
0.0304492
0.0304343
0.0304236
0.0304348
0.0304269
0.030446
0.0304339
0.0304617
0.0304343
0.0304451
0.0304336
0.0304446
0.0304343
0.0304398
0.0304232
0.0304392
0.0304339
0.03045
0.0304338
0.030438
0.0304447
0.030442
0.0304343
0.0304348
0.030436
0.0304459
0.0304348
0.0304414
0.03044
0.0304512
0.0304348
0.0304358
0.0304383
0.0304361
0.0304345
0.0304362
0.0304471
0.0304413
0.0304359
0.0304339
0.0304423
0.0304423
0.0304347
0.0304511
0.0304171
0.03044
0.0304271
0.0304385
0.0304032
0.0304033
0.0304034
0.0304034
0.0304034
0.0304032
0.0304034
0.0304461
0.0304538
0.0304407
0.0304378
0.0304362
0.0304361
0.0304421
0.030436
0.0304358
0.0304539
0.0304361
0.0304476
0.0304317
0.030447
0.0304395
0.0304377
0.030436
0.0304503
0.03044
0.0304379
0.03044
0.030438
0.0304357
0.0304321
0.0304378
0.0304397
0.0304476
0.0304365
0.0304355
0.0304363
0.0304375
0.0304396
0.0304422
0.0304363
0.0304422
0.0304392
0.0304376
0.0304416
0.0304393
0.030436
0.0304445
0.0304381
0.0304533
0.0304236
0.030446
0.0304471
0.0304397
0.0304381
0.0304438
0.0304175
0.0304396
0.0304381
0.0304233
0.0304615
0.0304617
0.03044
0.0304361
0.0304384
0.0304364
0.030468
0.0304679
0.0304411
0.0304415
0.0304415
0.0304175
0.0304357
0.030445
0.0304375
0.0304372
0.0304376
0.030417
0.0304446
0.030436
0.0304398
0.0304399
0.0304372
0.0304379
0.0304372
0.0304375
0.0304216
0.030427
0.0304378
0.03044
0.0304381
0.0304371
0.0304379
0.0304383
0.0304381
0.0304236
0.0304483
0.0304363
0.0304437
0.0304447
0.0304235
0.0304394
0.0304392
0.0304512
0.0304612
0.0304612
0.0304497
0.0304356
0.0304399
0.0304232
0.0304604
0.0304668
0.0304667
0.0304167
0.0304557
0.0304577
0.0304395
0.0304489
0.0304405
0.030442
0.0304446
0.0304458
0.0304416
0.0304174
0.03044
0.0304435
0.0304449
0.0304201
0.0304564
0.030423
0.0304447
0.0304424
0.0304342
0.0304403
0.0304413
0.0304516
0.0304416
0.0304516
0.0304396
0.0304451
0.0304571
0.0304574
0.0304233
0.0304427
0.0304168
0.0304174
0.0304162
0.0304445
0.0304172
0.0304156
0.0304371
0.0304165
0.0304531
0.030453
0.0304169
0.0304382
0.0304217
0.0304167
0.0304212
0.0304166
0.0304212
0.030456
0.0304224
0.0304173
0.0304168
0.0304412
0.0304464
0.0304208
0.0304414
0.0304157
0.0304423
0.0304384
0.0304164
0.0304204
0.030416
0.0304166
0.0304393
0.0304538
0.0304661
0.0304655
0.0304428
0.030466
0.0304659
0.0304657
0.0304626
0.0304229
0.0304568
0.0304499
0.030454
0.0304425
0.0304635
0.0304635
0.0304546
0.0304164
0.0304381
0.0304169
0.0304226
0.0304227
0.0304598
0.0304597
0.0304594
0.0304595
0.0304598
0.0304654
0.0304596
0.0304636
0.0304663
0.03046
0.0304601
0.0304664
0.0304654
0.0304637
0.0304594
SCALARS rr_tsim float
LOOKUP_TABLE default
90
90
90
90
90
90
90
90
90
90
90
90
90
90
90
90
90
90
90
90
90
90
90
90
90
90
90
90
90
90
90
90
90
90
90
90
90
90
90
90
90
90
90
90
90
90
90
90
90
90
90
90
90
90
90
90
90
90
90
90
90
90
90
90
90
90
90
90
90
90
90
90
90
90
90
90
90
90
90
90
90
90
90
90
90
90
90
90
90
90
90
90
90
90
90
90
90
90
90
90
90
90
90
90
90
90
90
90
90
90
90
90
90
90
90
90
90
90
90
90
90
90
90
90
90
90
90
90
90
90
90
90
90
90
90
90
90
90
90
90
90
90
90
90
90
90
90
90
90
90
90
90
90
90
90
90
90
90
90
90
90
90
90
90
90
90
90
90
90
90
90
90
90
90
90
90
90
90
90
90
90
90
90
90
90
90
90
90
90
90
90
90
90
90
90
90
90
90
90
90
90
90
90
90
90
90
90
90
90
90
90
90
90
90
90
90
90
90
90
90
90
90
90
90
90
90
90
90
90
90
90
90
90
90
90
90
90
90
90
90
90
90
90
90
90
90
90
90
90
90
90
90
90
90
90
90
90
90
90
90
90
90
90
90
90
90
90
90
90
90
90
90
90
90
90
90
90
90
90
90
90
90
90
90
90
90
90
90
90
90
90
90
90
90
90
90
90
90
90
90
90
90
90
90
90
90
90
90
90
90
90
90
90
90
90
90
90
90
90
90
90
90
90
90
90
90
90
90
90
90
90
90
90
90
90
90
90
90
90
90
90
90
90
90
90
90
90
90
90
90
90
90
90
90
90
90
90
90
90
90
90
90
90
90
90
90
90
90
90
90
90
90
90
90
90
90
90
90
90
90
90
90
90
90
90
90
90
90
90
90
90
90
90
90
90
90
90
90
90
90
90
90
90
90
90
90
90
90
90
90
90
90
90
90
90
90
90
90
90
90
90
90
90
90
90
90
90
90
90
90
90
90
90
90
90
90
90
90
90
90
90
90
90
90
90
90
90
90
90
90
90
90
90
90
90
90
90
90
90
90
90
90
90
90
90
90
90
90
90
90
90
90
90
90
90
90
90
90
90
90
90
90
90
90
90
90
90
90
90
90
90
90
90
90
90
90
90
90
90
90
90
90
90
90
90
90
90
90
90
90
90
90
90
90
90
90
90
90
90
90
90
90
90
90
90
90
90
90
90
90
90
90
90
90
90
90
90
90
90
90
90
90
90
90
90
90
90
90
90
90
90
90
90
90
90
90
90
90
90
90
90
90
90
SCALARS rr_Vext float
LOOKUP_TABLE default
0.181362
0.449138
0.35606
0.468125
0.250498
0.37784
0.179277
0.465104
0.395119
0.504582
0.165392
0.466524
0.409839
0.435027
0.51615
0.424879
0.369055
0.414198
0.365543
0.360539
0.405122
0.0765114
0.415083
0.383027
0.347117
0.403485
0.155013
0.352846
0.26742
0.339253
0.361981
0.276493
0.171524
0.252906
0.249252
0.253457
0.330132
0.249495
0.361552
0.19284
0.224727
0.291055
0.291065
0.397285
0.21689
0.244127
0.344623
0.350195
0.33009
0.303769
0.312862
0.245243
0.401528
0.315216
0.369423
0.157757
0.266184
0.317526
0.266155
0.393198
0.470944
0.464886
0.153279
0.327651
0.445327
0.417387
0.455669
0.391918
0.357997
0.515574
0.435565
0.430801
0.277662
0.338754
0.353984
0.17643
0.372686
0.413489
0.395182
0.271141
0.240497
0.283513
0.527548
0.240256
0.32777
0.119294
0.407593
0.344619
0.229711
0.0374833
0.273101
0.0407612
0.316366
0.299321
0.258667
0.232989
0.220914
0.442945
0.372921
0.351867
0.293544
0.277777
0.230484
0.41859
0.426151
0.383845
0.340636
0.340859
0.244635
0.512535
0.326037
0.164042
0.220062
0.457894
0.429733
0.304491
0.308637
0.183513
0.320041
0.303375
0.266994
0.502663
0.511827
0.442053
0.484541
0.384962
0.22082
0.478226
0.200084
0.262287
0.227508
0.45641
0.449037
0.448264
0.288945
0.187541
0.190643
0.32745
0.40448
0.187463
0.241549
0.387302
0.287978
0.472773
0.223281
0.385202
0.349742
0.336138
0.214796
0.269554
0.304308
0.440641
0.248033
0.397423
0.462004
0.469258
0.307865
0.249015
0.247664
0.401149
0.333863
0.246124
0.16008
0.23971
0.240474
0.43097
0.252356
0.255108
0.274627
0.245946
0.386354
0.258191
0.226065
0.297723
0.272819
0.340316
0.382128
0.361144
0.313985
0.360856
0.266574
0.41826
0.448867
0.241621
0.442313
0.239446
0.436808
0.402749
0.378975
0.379427
0.44624
0.200779
0.266936
0.246023
0.447424
0.439035
0.407212
0.447907
0.452967
0.381876
0.466584
0.307725
0.274118
0.512746
0.285555
0.465967
0.369972
0.226661
0.286349
0.46174
0.389045
0.350318
0.45007
0.445269
0.278867
0.28423
0.267551
0.395464
0.433433
0.498108
0.478104
0.520387
0.471573
0.515303
0.432069
0.457214
0.460663
0.434366
0.456369
0.422929
0.416645
0.282419
0.389423
0.45431
0.31213
0.470285
0.432167
0.492676
0.288254
0.468292
0.448692
0.284508
0.406924
0.282477
0.455251
0.411303
0.296264
0.277686
0.235558
0.271104
0.455786
0.197506
0.347031
0.276536
0.313913
0.468687
0.455563
0.147791
0.457119
0.236437
0.261772
0.466286
0.379038
0.264593
0.522198
0.29124
0.147782
0.267732
0.406412
0.508937
0.382702
0.457767
0.425168
0.22662
0.216738
0.175983
0.201433
0.308142
0.229083
0.371992
0.227531
0.406403
0.287631
0.268109
0.323962
0.293531
0.398533
0.281495
0.287604
0.136372
0.303579
0.437822
0.438069
0.391537
0.281124
0.192362
0.545894
0.360499
0.298326
0.274299
0.284983
0.282737
0.358852
0.2781
0.192063
0.2748
0.1835
0.351077
0.279585
0.127093
0.263729
0.321346
0.279323
0.443682
0.290719
0.38148
0.138317
0.305671
0.287022
0.26163
0.269326
0.322001
0.308731
0.321056
0.266572
0.271172
0.293868
0.403612
0.276103
0.399034
0.358798
0.290803
0.286482
0.290131
0.323382
0.289921
0.270125
0.308538
0.333038
0.387878
0.290178
0.286361
0.425155
0.419261
0.27622
0.290842
0.117371
0.342073
0.227684
0.31969
0.126305
0.131124
0.117234
0.11913
0.126412
0.133078
0.137187
0.365828
0.275208
0.269671
0.305543
0.296216
0.292416
0.314719
0.286002
0.292395
0.310829
0.291323
0.368797
0.26107
0.378843
0.289112
0.277587
0.291604
0.322773
0.329003
0.304705
0.351059
0.32604
0.300398
0.213981
0.303868
0.298871
0.328289
0.305317
0.288527
0.275044
0.304072
0.319101
0.436173
0.283314
0.424013
0.438672
0.298873
0.422875
0.322484
0.255685
0.356803
0.307326
0.229509
0.185274
0.353358
0.377148
0.313441
0.25955
0.317021
0.138206
0.309873
0.289521
0.140572
0.0597494
0.0653762
0.268659
0.283302
0.331366
0.316595
0.0311311
0.0325289
0.318189
0.321551
0.30425
0.103725
0.264734
0.315912
0.315651
0.272083
0.240288
0.107865
0.464478
0.284953
0.35217
0.357682
0.25517
0.323454
0.249482
0.275488
0.129741
0.199386
0.323814
0.327759
0.280333
0.293571
0.303666
0.320514
0.306418
0.143964
0.275785
0.301361
0.290892
0.437499
0.14386
0.233738
0.240579
0.234528
0.155627
0.155631
0.267705
0.208513
0.301881
0.153859
0.185528
0.0614172
0.0614147
0.112312
0.199637
0.134973
0.257007
0.284544
0.297815
0.33701
0.307426
0.285239
0.222222
0.127173
0.278057
0.290588
0.282445
0.144132
0.147647
0.104631
0.281955
0.285978
0.224186
0.258257
0.238719
0.223795
0.292919
0.223762
0.257211
0.251393
0.158049
0.195243
0.165311
0.310654
0.112708
0.11892
0.115941
0.294541
0.107692
0.104734
0.200922
0.0979333
0.243159
0.243514
0.100661
0.255452
0.113724
0.11099
0.127157
0.105859
0.105725
0.174208
0.126243
0.112776
0.106279
0.235816
0.272665
0.118746
0.260323
0.0960779
0.264795
0.208178
0.100552
0.0864366
0.0948708
0.126462
0.225557
0.192183
0.0824432
0.091408
0.253863
0.0775866
0.0775833
0.0878724
0.0979631
0.099587
0.127336
0.207537
0.193798
0.253775
0.0775251
0.0775217
0.229256
0.0843479
0.178719
0.0765202
0.0783428
0.103273
0.198598
0.205599
0.218909
0.200662
0.198583
0.0438928
0.320385
0.0557543
0.0543422
0.259011
0.257242
0.056335
0.0390575
0.054805
0.238563
SCALARS rr_Vli float
LOOKUP_TABLE default
0.396488
0.903307
0.72141
0.942913
0.493007
0.765672
0.392036
0.93768
0.806275
1.01513
0.359837
0.940552
0.82771
0.874163
1.02413
0.859737
0.739402
0.835924
0.748804
0.732061
0.823488
0.146196
0.843746
0.777634
0.704895
0.813148
0.333351
0.714264
0.560613
0.659805
0.731232
0.579533
0.369274
0.494395
0.485907
0.49551
0.641461
0.486899
0.730489
0.415067
0.471214
0.565333
0.565393
0.802522
0.463326
0.511152
0.704668
0.713579
0.668688
0.640147
0.65732
0.509713
0.791287
0.654959
0.728504
0.336096
0.518811
0.659762
0.518794
0.798054
0.943873
0.925039
0.327842
0.652224
0.886018
0.836203
0.913009
0.789782
0.727297
1.03672
0.858513
0.849159
0.582215
0.676858
0.716976
0.381184
0.738165
0.828447
0.796429
0.562485
0.507627
0.556452
1.05352
0.508336
0.68539
0.254581
0.825083
0.689493
0.490664
0.0719437
0.567533
0.0782464
0.626355
0.600265
0.537113
0.489906
0.46622
0.891223
0.738713
0.711156
0.604223
0.579678
0.487753
0.844119
0.85809
0.772722
0.679553
0.689386
0.517763
1.02966
0.661684
0.349481
0.467062
0.92383
0.865445
0.632497
0.601617
0.387414
0.624005
0.629997
0.547965
0.998321
1.02948
0.884287
0.972867
0.763259
0.431753
0.962246
0.422256
0.544651
0.448456
0.918489
0.897119
0.901832
0.602904
0.36554
0.404184
0.660938
0.80774
0.365416
0.503542
0.778941
0.590246
0.951069
0.471535
0.776073
0.704329
0.680961
0.435251
0.556273
0.620253
0.886316
0.519986
0.802505
0.929451
0.944272
0.617859
0.518661
0.515718
0.810205
0.680213
0.515664
0.341241
0.503642
0.500932
0.867523
0.525649
0.531447
0.575701
0.51224
0.764774
0.536478
0.475019
0.597031
0.566764
0.679107
0.756458
0.728166
0.618516
0.72638
0.558764
0.841645
0.903314
0.503626
0.884791
0.503412
0.873815
0.803291
0.749922
0.763397
0.89255
0.423347
0.554575
0.515695
0.900219
0.886309
0.82172
0.894913
0.911206
0.765278
0.938426
0.62968
0.568297
1.02455
0.598476
0.930561
0.741285
0.473244
0.569203
0.928583
0.772735
0.703612
0.906444
0.889146
0.575334
0.570477
0.554205
0.78879
0.870386
1.00029
0.961026
1.0456
0.947461
1.0354
0.868721
0.907705
0.914778
0.862352
0.90594
0.833937
0.821523
0.583009
0.782802
0.915917
0.636245
0.93313
0.857217
0.993035
0.597481
0.944379
0.902764
0.586741
0.808809
0.58278
0.908864
0.829735
0.610886
0.574986
0.497309
0.572066
0.910111
0.417617
0.701489
0.572851
0.642719
0.945267
0.914977
0.286929
0.918304
0.500201
0.542264
0.940111
0.764208
0.548654
1.04889
0.596682
0.286929
0.554505
0.815986
1.01857
0.772242
0.908474
0.850831
0.446604
0.437757
0.374437
0.429886
0.608689
0.465564
0.75
0.469389
0.807676
0.576823
0.555345
0.649553
0.604001
0.802285
0.579184
0.596026
0.263021
0.600448
0.868518
0.869138
0.787217
0.578068
0.37639
1.09286
0.734307
0.613265
0.565372
0.562963
0.583129
0.710466
0.572682
0.410199
0.565172
0.387694
0.700132
0.576605
0.24515
0.543082
0.64212
0.576625
0.887249
0.598803
0.772182
0.296224
0.61981
0.592068
0.517045
0.555822
0.655886
0.61732
0.645556
0.549016
0.557653
0.602203
0.804994
0.567876
0.804514
0.72625
0.573159
0.589134
0.594782
0.657849
0.593801
0.556
0.631814
0.662553
0.782188
0.594657
0.590815
0.855296
0.843316
0.568306
0.573282
0.256089
0.692608
0.480631
0.65011
0.287607
0.298551
0.266804
0.271172
0.287683
0.303057
0.312312
0.72935
0.539727
0.544571
0.62261
0.606507
0.598939
0.633526
0.586137
0.59949
0.609474
0.596718
0.732665
0.54255
0.753114
0.58601
0.565705
0.597471
0.637472
0.666119
0.620598
0.710723
0.664004
0.615748
0.444044
0.619303
0.605578
0.65201
0.624643
0.591874
0.562877
0.620024
0.646728
0.877926
0.579863
0.853557
0.889748
0.609283
0.852437
0.653936
0.523846
0.71355
0.625431
0.450404
0.395668
0.704475
0.75032
0.635207
0.528054
0.635259
0.301238
0.628028
0.589271
0.300914
0.115299
0.126127
0.54401
0.580103
0.673743
0.647668
0.0592776
0.061939
0.641403
0.648094
0.613488
0.226114
0.54281
0.631018
0.643423
0.55502
0.489883
0.235471
0.929292
0.583739
0.713239
0.72439
0.520588
0.658855
0.508995
0.561653
0.279103
0.42118
0.659639
0.663715
0.570439
0.59913
0.618263
0.651899
0.623529
0.30743
0.547102
0.616838
0.583021
0.87491
0.30737
0.473538
0.487759
0.462244
0.300517
0.300537
0.529558
0.427597
0.611542
0.329008
0.358878
0.117177
0.117176
0.2454
0.389622
0.262496
0.521056
0.563544
0.601418
0.677654
0.614663
0.569075
0.448041
0.277252
0.562552
0.582806
0.564253
0.311559
0.287926
0.224285
0.563457
0.574856
0.461947
0.521753
0.481458
0.44084
0.5901
0.440802
0.520827
0.502152
0.307813
0.38003
0.353396
0.623988
0.246787
0.259981
0.254335
0.589289
0.234982
0.230139
0.410013
0.214645
0.477124
0.477846
0.220335
0.519616
0.244576
0.243123
0.273903
0.231959
0.22774
0.339832
0.270699
0.245998
0.232679
0.475754
0.543007
0.256118
0.525113
0.211013
0.532695
0.423223
0.220455
0.186664
0.208256
0.27632
0.457472
0.376611
0.157552
0.174883
0.509991
0.148308
0.148306
0.168049
0.188629
0.213207
0.248115
0.410277
0.379764
0.510346
0.149005
0.149004
0.448515
0.184463
0.363613
0.16715
0.168151
0.221555
0.384551
0.398197
0.424216
0.388781
0.384542
0.0840105
0.620735
0.107164
0.103829
0.501447
0.497968
0.107596
0.0747332
0.105301
0.462545
SCALARS rr_S_ext' float
LOOKUP_TABLE default
-0.00162515
-0.00371183
-0.00296379
-0.00387441
-0.00202708
-0.00314561
-0.00160689
-0.00385285
-0.00331176
-0.00417129
-0.00147511
-0.00386464
-0.00340082
-0.00359218
-0.0042099
-0.00353222
-0.00303865
-0.00343462
-0.00307534
-0.00300735
-0.00338285
-0.00060158
-0.00346604
-0.00319458
-0.00289574
-0.00334117
-0.00136705
-0.0029345
-0.00230085
-0.00271373
-0.00300441
-0.00237851
-0.00151432
-0.00203314
-0.0019984
-0.00203772
-0.00263834
-0.00200242
-0.00300133
-0.00170212
-0.00193393
-0.00232525
-0.00232549
-0.00329731
-0.00190045
-0.00209794
-0.00289424
-0.00293114
-0.0027472
-0.00262685
-0.00269757
-0.0020925
-0.00325337
-0.0026888
-0.00299519
-0.00137872
-0.00213374
-0.00270851
-0.00213366
-0.00327849
-0.0038789
-0.0038023
-0.0013447
-0.00268089
-0.00364191
-0.00343649
-0.00375209
-0.00324517
-0.00298773
-0.00426005
-0.00352976
-0.00349129
-0.0023895
-0.00278185
-0.0029456
-0.00156298
-0.00303456
-0.00340461
-0.00327247
-0.00230926
-0.00208296
-0.00228812
-0.00432993
-0.00208571
-0.00281318
-0.00104427
-0.00338979
-0.00283368
-0.0020126
-0.000296003
-0.00232988
-0.000321933
-0.00257493
-0.0024668
-0.00220505
-0.00201047
-0.00191307
-0.00366215
-0.0030368
-0.00292187
-0.0024812
-0.00237944
-0.00200124
-0.00346836
-0.00352592
-0.00317517
-0.00279303
-0.00283237
-0.00212437
-0.00423113
-0.00271827
-0.00143361
-0.00191617
-0.00379584
-0.00355613
-0.00259661
-0.00247429
-0.00158969
-0.00256635
-0.00258637
-0.00225037
-0.0041037
-0.0042303
-0.00363424
-0.00399782
-0.0031376
-0.00177553
-0.00395398
-0.00173267
-0.00223599
-0.0018438
-0.00377415
-0.00368709
-0.00370573
-0.00247479
-0.00150336
-0.00165828
-0.00271565
-0.00331979
-0.00150285
-0.00206699
-0.00320082
-0.00242411
-0.00390808
-0.00193484
-0.00318886
-0.00289411
-0.00279762
-0.00178815
-0.00228412
-0.00254776
-0.00364199
-0.00213411
-0.00329728
-0.00381924
-0.0038801
-0.00253905
-0.00212911
-0.00211704
-0.00332888
-0.00279409
-0.00211641
-0.00139979
-0.00206689
-0.00205632
-0.00356472
-0.00215779
-0.00218159
-0.00236278
-0.00210275
-0.00314398
-0.0022024
-0.00194942
-0.00245352
-0.00232674
-0.00279118
-0.00310979
-0.00299195
-0.00254307
-0.00298475
-0.00229328
-0.00345841
-0.00371181
-0.00206734
-0.00363633
-0.00206591
-0.00359121
-0.00330164
-0.00308296
-0.0031369
-0.00366823
-0.0017372
-0.0022767
-0.00211651
-0.0036991
-0.00364161
-0.00337627
-0.00367802
-0.00374425
-0.00314499
-0.00385613
-0.00258619
-0.00233317
-0.0042108
-0.00245627
-0.00382458
-0.0030464
-0.00194252
-0.00233973
-0.00381569
-0.00317642
-0.00289139
-0.00372459
-0.00365438
-0.00236241
-0.00234434
-0.00227538
-0.00324204
-0.00357668
-0.00411051
-0.00394903
-0.0042966
-0.00389336
-0.0042547
-0.00356976
-0.00373125
-0.0037603
-0.00354482
-0.00372401
-0.00342867
-0.00337763
-0.00239388
-0.00321671
-0.00376335
-0.00261345
-0.00383582
-0.0035238
-0.00408024
-0.002453
-0.00388027
-0.00370957
-0.00240928
-0.00332463
-0.00239299
-0.00373544
-0.00340918
-0.00250843
-0.00236072
-0.00204061
-0.00234738
-0.00374055
-0.00171354
-0.00288214
-0.00235193
-0.00263969
-0.00388391
-0.0037599
-0.00118017
-0.00377355
-0.00205236
-0.00222634
-0.00386275
-0.00314005
-0.00225251
-0.00431017
-0.00245057
-0.00118018
-0.00227662
-0.00335315
-0.00418606
-0.00317298
-0.00373445
-0.00349672
-0.00183621
-0.00179861
-0.00153605
-0.00176336
-0.00250247
-0.00191252
-0.00308168
-0.00192739
-0.00331999
-0.00237047
-0.00228006
-0.00266937
-0.00248032
-0.00329665
-0.00237842
-0.00244704
-0.00108203
-0.00246849
-0.00357024
-0.00357277
-0.00323484
-0.00237388
-0.00154782
-0.00449135
-0.00301631
-0.00251844
-0.00232158
-0.00231447
-0.00239444
-0.00292071
-0.00235166
-0.00168255
-0.0023209
-0.0015908
-0.00287765
-0.00236765
-0.00100851
-0.00223011
-0.00263906
-0.00236767
-0.00364645
-0.00245891
-0.00317246
-0.00121497
-0.00254631
-0.00243113
-0.00212566
-0.00228227
-0.00269417
-0.0025371
-0.00265271
-0.00225447
-0.00229004
-0.00247323
-0.00330864
-0.00233201
-0.00330567
-0.00298375
-0.00235654
-0.00241932
-0.00244273
-0.00270235
-0.00243877
-0.00228319
-0.0025949
-0.00272338
-0.00321392
-0.00244224
-0.00242597
-0.00351455
-0.00346534
-0.00233375
-0.00235705
-0.00104971
-0.00284552
-0.00197218
-0.00267058
-0.00117722
-0.00122202
-0.00109209
-0.00110996
-0.00117755
-0.00124046
-0.00127836
-0.00299776
-0.00221937
-0.00223748
-0.00255746
-0.00249096
-0.00245987
-0.00260321
-0.00240724
-0.00246205
-0.00250618
-0.00245074
-0.00301169
-0.00222731
-0.00309566
-0.00240748
-0.00232371
-0.00245381
-0.00262082
-0.0027367
-0.00254924
-0.00291995
-0.00272754
-0.00252884
-0.00182299
-0.00254386
-0.00248791
-0.00268018
-0.00256551
-0.00243073
-0.00231181
-0.00254679
-0.00265695
-0.00360748
-0.00238156
-0.00350734
-0.00365525
-0.00250269
-0.0035026
-0.00268651
-0.00215143
-0.00293257
-0.00256915
-0.00185204
-0.00162295
-0.00289553
-0.00308414
-0.00260962
-0.00216917
-0.00261067
-0.00123482
-0.00258011
-0.00242061
-0.00123422
-0.000474317
-0.000518864
-0.002235
-0.00238252
-0.00276768
-0.00266009
-0.000243943
-0.000254896
-0.00263547
-0.00266298
-0.00252075
-0.000926876
-0.00222926
-0.00259346
-0.00264294
-0.00227976
-0.00201224
-0.000965176
-0.00381919
-0.00239742
-0.00293026
-0.00297607
-0.00213832
-0.00270637
-0.0020907
-0.00230704
-0.00114458
-0.00172821
-0.00270959
-0.0027268
-0.00234326
-0.00246091
-0.00253967
-0.00267792
-0.00256134
-0.00126102
-0.002249
-0.00253341
-0.00239598
-0.00359574
-0.00126076
-0.00194545
-0.00200383
-0.00190051
-0.00123623
-0.00123632
-0.00217704
-0.00175609
-0.00251242
-0.00134947
-0.00147625
-0.000482187
-0.000482184
-0.00100585
-0.00160236
-0.00107963
-0.00214063
-0.0023167
-0.00247105
-0.00278461
-0.00252617
-0.00233896
-0.00184096
-0.00113649
-0.00231125
-0.00239505
-0.00231905
-0.00127747
-0.00118414
-0.00091989
-0.00231576
-0.00236223
-0.0018969
-0.00214371
-0.00197825
-0.00181253
-0.00242472
-0.00181237
-0.00213977
-0.00206383
-0.00126597
-0.001563
-0.00144952
-0.00256416
-0.00101149
-0.00106563
-0.00104236
-0.00242186
-0.000963197
-0.000943147
-0.00168413
-0.000879726
-0.00196194
-0.00196491
-0.000903086
-0.0021345
-0.001003
-0.000996469
-0.0011232
-0.0009507
-0.000933904
-0.00139761
-0.00111022
-0.00100836
-0.000953671
-0.00195479
-0.00223193
-0.00105023
-0.00215761
-0.000864775
-0.00218893
-0.00173857
-0.000903535
-0.000765398
-0.000853499
-0.00113258
-0.00187939
-0.00154867
-0.000648304
-0.000719596
-0.00209571
-0.000610258
-0.000610252
-0.000691483
-0.000776023
-0.000874468
-0.00102043
-0.00168671
-0.00156164
-0.00209711
-0.000613039
-0.000613034
-0.00184444
-0.000756053
-0.00149366
-0.000685127
-0.000689633
-0.000908661
-0.00158181
-0.00163793
-0.00174493
-0.00159918
-0.00158177
-0.000345676
-0.0025533
-0.000440894
-0.000427243
-0.00206266
-0.00204835
-0.000442751
-0.000307506
-0.000433236
-0.00190256
SCALARS rr_P_ext' float
LOOKUP_TABLE default
0.000119177
0.00027563
0.000219845
0.00028764
0.000150994
0.000233327
0.000117833
0.000285999
0.000245401
0.000309734
0.000108258
0.000286874
0.00025238
0.000266778
0.000313229
0.000262058
0.000225767
0.000254916
0.000227755
0.000223007
0.000250811
4.49989e-05
0.00025698
0.000236895
0.000214727
0.000248032
0.000100507
0.000217701
0.000169815
0.000202487
0.000222953
0.000175552
0.000111315
0.000151594
0.00014906
0.000151933
0.000196889
0.000149337
0.000222721
0.000125125
0.00014273
0.000173532
0.000173548
0.000244691
0.000139867
0.000154867
0.000214399
0.000217242
0.000203784
0.000193724
0.00019903
0.000154636
0.000242295
0.00019871
0.000223046
0.000101509
0.000159159
0.000200167
0.000159152
0.000243128
0.000288182
0.000282782
9.89451e-05
0.00019937
0.000270859
0.000255326
0.000278772
0.000240907
0.000221535
0.00031635
0.000262872
0.000260006
0.000176351
0.000206767
0.000218506
0.00011483
0.000225834
0.000252955
0.000242931
0.000170702
0.000153576
0.000170505
0.000321859
0.000153723
0.000207706
7.6866e-05
0.000251478
0.000210579
0.000148122
2.21278e-05
0.000172181
2.40657e-05
0.000191641
0.000183253
0.000162975
0.000148317
0.000141053
0.000271923
0.000225997
0.000216813
0.000183623
0.000175734
0.000147494
0.00025745
0.000261779
0.000235745
0.000207646
0.000210151
0.000156565
0.000314246
0.000201585
0.000105552
0.000141162
0.000281738
0.000264015
0.000191905
0.000184559
0.000117203
0.000191419
0.000191156
0.000166613
0.000305284
0.000314126
0.000270078
0.000296943
0.000233471
0.000132382
0.000293591
0.000127752
0.000165261
0.000137314
0.000280233
0.000274057
0.000275165
0.000182779
0.000112139
0.000122182
0.000201549
0.000246773
0.000112099
0.000152682
0.000237682
0.000179511
0.000290192
0.000142643
0.000236735
0.000214867
0.000207524
0.000132637
0.000168974
0.000188821
0.000270441
0.000157508
0.000244702
0.000283593
0.000288103
0.0001886
0.00015729
0.000156404
0.00024704
0.000207089
0.000156216
0.000103052
0.000152497
0.00015191
0.000264671
0.000159408
0.000161162
0.000174387
0.000155345
0.000233999
0.000162763
0.000143828
0.000182267
0.000171958
0.0002075
0.000231452
0.000222092
0.000189405
0.000221611
0.000169259
0.000256791
0.000275603
0.000152711
0.000270233
0.00015241
0.000266879
0.000245465
0.000229468
0.000232923
0.000272608
0.000128103
0.000168258
0.000156212
0.000274669
0.000270267
0.00025059
0.00027338
0.00027803
0.000233658
0.000286345
0.000191559
0.000172486
0.000312977
0.000181293
0.000284293
0.00022634
0.000143455
0.000174035
0.000283347
0.000236297
0.000214747
0.00027652
0.000271645
0.000174773
0.000174134
0.000168234
0.000241032
0.000265656
0.000305305
0.000293271
0.000319101
0.000289155
0.000315988
0.000265091
0.000277593
0.000279744
0.000263723
0.000277058
0.00025533
0.000251531
0.000177086
0.000238882
0.000279362
0.000193686
0.000285396
0.000262193
0.000302895
0.00018135
0.000288028
0.000275446
0.00017825
0.000247299
0.000177035
0.000277681
0.000253048
0.000185591
0.000174554
0.000150448
0.00017308
0.000278052
0.000126304
0.00021386
0.000173893
0.000195506
0.000288294
0.000279258
8.80814e-05
0.000280262
0.000151266
0.000164608
0.000286738
0.000233087
0.000166518
0.000320124
0.000181481
8.80806e-05
0.00016833
0.00024906
0.000311065
0.000235502
0.000277846
0.000259843
0.000136752
0.000133476
0.000113116
0.000129795
0.000186308
0.000141802
0.000228753
0.000142591
0.000246958
0.000176096
0.000168582
0.000198307
0.000183566
0.000244766
0.000176027
0.000180914
8.08313e-05
0.000183745
0.000265645
0.000265828
0.00024022
0.000175706
0.000115392
0.000333736
0.000223568
0.000186414
0.000171775
0.000172311
0.000177151
0.000217376
0.000174024
0.000123834
0.000171781
0.000117271
0.000213948
0.00017517
7.53382e-05
0.00016503
0.000196153
0.000175146
0.000270999
0.000181955
0.000235356
8.93816e-05
0.000188857
0.000179861
0.000158245
0.000168836
0.000199692
0.000188556
0.00019699
0.000166829
0.000169498
0.000183153
0.000245987
0.000172601
0.000245381
0.000221358
0.0001755
0.000179067
0.000180883
0.000200335
0.000180614
0.000168969
0.000192183
0.000202549
0.000238562
0.000180857
0.000179475
0.000260969
0.00025732
0.000172722
0.000175535
7.70043e-05
0.000211093
0.000145406
0.00019799
8.57744e-05
8.904e-05
7.95788e-05
8.08787e-05
8.58069e-05
9.03805e-05
9.31466e-05
0.000222887
0.000165403
0.00016605
0.000189547
0.000184489
0.000182176
0.000193281
0.000178264
0.000182312
0.000186784
0.000181499
0.000224036
0.000164601
0.000230264
0.00017857
0.000172219
0.000181719
0.000195124
0.000203021
0.000188951
0.000216618
0.000202169
0.000187264
0.000134751
0.000188535
0.000184544
0.000199383
0.000190033
0.000179979
0.000171233
0.000188738
0.000197076
0.000267849
0.000176397
0.000260409
0.000271094
0.000185476
0.000260005
0.000199253
0.000159328
0.000217942
0.000190449
0.000138014
0.000119449
0.000215285
0.000229379
0.000193568
0.000160805
0.000193963
9.05978e-05
0.000191377
0.000179434
9.08043e-05
3.54305e-05
3.87594e-05
0.000165801
0.000176455
0.000205193
0.00019704
1.82562e-05
1.90758e-05
0.000195637
0.000197682
0.000187113
6.80025e-05
0.000165073
0.000192774
0.000195872
0.000168938
0.000149127
7.07976e-05
0.000283816
0.000177548
0.000217371
0.00022077
0.000158454
0.000200595
0.000154925
0.000170974
8.4146e-05
0.000127404
0.000200831
0.000202282
0.000173707
0.00018235
0.000188251
0.000198529
0.000189873
9.28114e-05
0.000167335
0.000187643
0.000178006
0.000267228
9.27845e-05
0.00014431
0.000148624
0.000141538
9.23362e-05
9.23417e-05
0.000162049
0.000130032
0.000186369
9.9301e-05
0.000110236
3.60758e-05
3.60753e-05
7.37702e-05
0.0001195
8.05577e-05
0.000158771
0.000172413
0.000183383
0.000206783
0.000187746
0.000173886
0.000136654
8.33806e-05
0.000171477
0.00017792
0.000172373
9.3847e-05
8.83215e-05
6.76636e-05
0.00017212
0.000175425
0.000140359
0.00015908
0.000146838
0.000134997
0.000180008
0.000134984
0.000158735
0.000153405
9.44427e-05
0.000116611
0.000106667
0.000190443
7.41578e-05
7.81456e-05
7.63993e-05
0.000179975
7.0657e-05
6.91088e-05
0.000124793
6.44876e-05
0.000146204
0.000146424
6.62134e-05
0.000158241
7.37404e-05
7.30515e-05
8.25581e-05
6.96927e-05
6.86439e-05
0.000104238
8.16609e-05
7.39738e-05
6.99201e-05
0.00014509
0.000165973
7.71788e-05
0.000160148
6.33714e-05
0.000162536
0.000128898
6.62293e-05
5.62366e-05
6.25497e-05
8.30652e-05
0.000139387
0.00011543
4.84931e-05
5.38173e-05
0.000155647
4.56458e-05
4.56451e-05
5.17177e-05
5.79856e-05
6.4336e-05
7.61198e-05
0.000125561
0.000116397
0.000155727
4.58187e-05
4.58181e-05
0.000137507
5.54424e-05
0.000110728
5.02501e-05
5.07168e-05
6.68299e-05
0.000118102
0.000122288
0.000130267
0.000119389
0.000118098
2.58511e-05
0.00019062
3.29526e-05
3.19588e-05
0.000154008
0.000152942
3.31204e-05
2.29975e-05
3.23818e-05
0.000142024
SCALARS rr_S' float
LOOKUP_TABLE default
0.00143561
0.0032799
0.00261884
0.00342354
0.00179133
0.0027795
0.00141947
0.00340448
0.00292624
0.00368589
0.00130308
0.00341491
0.00300504
0.00317419
0.00372018
0.00312113
0.00268509
0.00303491
0.00271731
0.00265731
0.0029891
0.000531663
0.00306261
0.00282275
0.00255869
0.00295235
0.00120768
0.00259296
0.00203282
0.0023982
0.00265476
0.00210143
0.00133778
0.00179671
0.00176603
0.00180076
0.00233159
0.00176958
0.00265204
0.00150369
0.00170864
0.0020549
0.00205511
0.00291358
0.00167894
0.00185355
0.0025573
0.00258994
0.00242746
0.00232079
0.0023833
0.00184879
0.00287498
0.00237565
0.00264682
0.00121804
0.00188563
0.00239306
0.00188557
0.0028969
0.00342757
0.00335996
0.00118796
0.00236901
0.00321824
0.00303664
0.00331551
0.00286753
0.00263997
0.00376433
0.00311922
0.00308523
0.00211113
0.00245819
0.00260278
0.00138075
0.00268158
0.00300847
0.00289165
0.00204032
0.00184026
0.00202203
0.00382616
0.00184268
0.00248549
0.000922558
0.00299527
0.00250398
0.00177802
0.000261597
0.00205853
0.000284513
0.00227542
0.00217977
0.00194824
0.00177624
0.00169017
0.003236
0.00268356
0.00258183
0.0021923
0.00210229
0.00176805
0.00306474
0.00311561
0.00280568
0.00246808
0.00250274
0.00187683
0.00373878
0.00240189
0.00126653
0.00169287
0.00335409
0.00314231
0.0022942
0.00218659
0.00140446
0.00226794
0.00228515
0.00198837
0.00362631
0.00373803
0.0032114
0.00353263
0.00277262
0.00156907
0.00349387
0.00153079
0.00197558
0.00162936
0.00333496
0.00325811
0.00327451
0.00218653
0.00132856
0.00146504
0.00239961
0.00293355
0.00132811
0.00182623
0.00282836
0.00214189
0.00345331
0.0017094
0.00281777
0.00255732
0.00247201
0.00158003
0.00201815
0.00225118
0.00321819
0.00188549
0.00291355
0.00337481
0.00342858
0.00224361
0.00188113
0.00187046
0.00294147
0.00246885
0.00186986
0.00123665
0.00182609
0.00181681
0.0031499
0.00190647
0.00192749
0.00208753
0.00185784
0.00277828
0.00194589
0.00172231
0.00216804
0.00205576
0.00246644
0.00274806
0.00264377
0.00224729
0.00263742
0.00202613
0.00305597
0.00327987
0.00182654
0.00321325
0.00182522
0.00317337
0.00291752
0.00272435
0.00277187
0.00324143
0.00153479
0.00201154
0.00186995
0.00326864
0.00321781
0.00298335
0.0032501
0.00330855
0.00277906
0.00340741
0.00228511
0.00206146
0.00372089
0.00217013
0.00337961
0.00269194
0.00171626
0.00206754
0.00337167
0.00280691
0.00255494
0.00329116
0.00322921
0.00208732
0.00207155
0.0020104
0.00286486
0.00316049
0.0036322
0.0034895
0.00379663
0.00344031
0.00375961
0.00315436
0.0032972
0.00332286
0.00313245
0.0032908
0.00302989
0.00298478
0.00211513
0.0028424
0.0033254
0.00230923
0.00338961
0.00311389
0.00360541
0.00216733
0.0034287
0.0032779
0.00212874
0.00293787
0.00211434
0.00330085
0.00301243
0.00221635
0.0020858
0.00180285
0.00207387
0.00330536
0.00151387
0.00254672
0.00207803
0.00233238
0.00343192
0.00332239
0.00104296
0.00333445
0.00181321
0.00196707
0.00341323
0.00277464
0.00199019
0.00380862
0.00216527
0.00104296
0.00201149
0.00296297
0.00369901
0.00280372
0.00330003
0.00308987
0.00162265
0.00158929
0.00135704
0.00155783
0.0022114
0.00168991
0.00272305
0.00170296
0.00293377
0.00209465
0.00201453
0.00235877
0.00219153
0.00291303
0.00210149
0.00216206
0.000956244
0.00218136
0.00315493
0.00315716
0.00285842
0.00209749
0.00136783
0.00396878
0.0026652
0.00222521
0.00205126
0.00204527
0.00211563
0.00258097
0.00207784
0.00148644
0.00205067
0.00140544
0.00254286
0.00209196
0.00089127
0.00197045
0.00233201
0.00209196
0.00322219
0.0021726
0.00280324
0.00107335
0.00224995
0.00214805
0.00187841
0.00201651
0.00238056
0.00224192
0.00234403
0.00199196
0.0020234
0.00218529
0.00292371
0.00206048
0.00292098
0.00263649
0.00208246
0.00213763
0.00215834
0.0023878
0.00215485
0.00201734
0.0022928
0.00240656
0.0028399
0.00215791
0.00214348
0.00310558
0.00306209
0.00206202
0.00208291
0.000927284
0.00251434
0.00174239
0.00235973
0.00103974
0.00107931
0.000964554
0.000980339
0.00104004
0.0010956
0.00112907
0.002649
0.00196127
0.00197709
0.00225976
0.00220096
0.00217349
0.00230028
0.00212698
0.00217541
0.00221473
0.00216542
0.00266135
0.0019679
0.00273554
0.00212728
0.00205322
0.00216814
0.00231598
0.00241819
0.0022525
0.00258011
0.00241004
0.00223442
0.00161068
0.00224774
0.00219835
0.00236839
0.00226684
0.00214773
0.00204267
0.00225033
0.00234771
0.00318769
0.00210431
0.00309919
0.00322981
0.00221136
0.00309499
0.00237383
0.00190096
0.00259137
0.0022701
0.00163666
0.00143379
0.00255866
0.00272535
0.00230589
0.00191668
0.0023069
0.00109081
0.00227982
0.00213885
0.00109036
0.000419178
0.000458547
0.00197488
0.00210515
0.00244553
0.00235041
0.000215594
0.000225273
0.00232877
0.00235309
0.00222741
0.000818779
0.00196972
0.00229173
0.00233529
0.00201438
0.001778
0.000852608
0.00337482
0.00211831
0.00258922
0.0026297
0.0018894
0.00239134
0.00184733
0.00203849
0.00101114
0.00152684
0.00239418
0.00240944
0.00207051
0.00217444
0.00224405
0.00236621
0.0022632
0.00111404
0.00198738
0.00223848
0.00211719
0.00317738
0.00111381
0.00171903
0.00177061
0.00167947
0.00109252
0.00109259
0.00192381
0.00155164
0.00222001
0.00119218
0.00130462
0.000426148
0.000426146
0.000888531
0.00141604
0.000954099
0.00189148
0.00204722
0.00218348
0.00246058
0.00223226
0.00206684
0.00162672
0.00100394
0.00204226
0.00211637
0.00204924
0.00112853
0.00104645
0.000812662
0.00204633
0.00208735
0.00167602
0.00189423
0.00174803
0.00160172
0.00214256
0.00160158
0.00189073
0.00182372
0.00111877
0.00138127
0.00128057
0.00226579
0.000893514
0.000941343
0.000920778
0.00214007
0.000850861
0.000833129
0.00148808
0.000777113
0.00173378
0.0017364
0.000797753
0.00188605
0.000886069
0.000880242
0.000992258
0.000839811
0.000825026
0.0012351
0.000980801
0.000890758
0.000842437
0.00172731
0.00197228
0.000927785
0.00190652
0.0007639
0.00193421
0.0015362
0.000798145
0.000676159
0.000753942
0.00100049
0.00166064
0.00136858
0.000572956
0.00063596
0.00185185
0.000539332
0.000539326
0.000611115
0.000685815
0.000772537
0.00090178
0.00149051
0.00138003
0.00185308
0.00054178
0.000541775
0.00162996
0.00066787
0.0013198
0.00060522
0.000609243
0.000802739
0.00139791
0.0014475
0.00154206
0.00141326
0.00139787
0.000305499
0.00225645
0.000389645
0.000377588
0.00182286
0.00181021
0.000391294
0.000271766
0.000382878
0.00168136
SCALARS rr_P' float
LOOKUP_TABLE default
7.03683e-05
0.0001563
0.000125102
0.000163226
8.47607e-05
0.000132784
6.95838e-05
0.000162366
0.000140117
0.000175665
6.37659e-05
0.000162863
0.000143398
0.000151219
0.000176496
0.000149033
0.000127794
0.00014479
0.00013028
0.000127031
0.000142943
2.49181e-05
0.000146459
0.000134934
0.000122321
0.000140786
5.88608e-05
0.00012383
9.82208e-05
0.000113041
0.000126693
0.00010153
6.52267e-05
8.483e-05
8.33066e-05
8.50231e-05
0.000109868
8.35028e-05
0.000126571
7.331e-05
8.25633e-05
9.68191e-05
9.68315e-05
0.000139044
8.16433e-05
8.95217e-05
0.000122534
0.000123955
0.000115954
0.000112334
0.000115241
8.90704e-05
0.000136095
0.000114442
0.000125321
5.91756e-05
8.89426e-05
0.000115281
8.89416e-05
0.000138465
0.00016315
0.000159554
5.77921e-05
0.000112511
0.000152818
0.000144523
0.000157803
0.000136738
0.000126224
0.000179374
0.000147665
0.000146058
0.000102013
0.000116891
0.000124321
6.7404e-05
0.000127148
0.000143186
0.000137892
9.82362e-05
8.91229e-05
9.55914e-05
0.000181908
8.93124e-05
0.00011999
4.48463e-05
0.000143042
0.00011912
8.6458e-05
1.22782e-05
9.91702e-05
1.33544e-05
0.000107875
0.000103776
9.38323e-05
8.59111e-05
8.18494e-05
0.000154229
0.000127247
0.000123233
0.000105278
0.000101421
8.5701e-05
0.000146175
0.000148529
0.000133743
0.000117301
0.000119485
9.09774e-05
0.000178103
0.000114802
6.15315e-05
8.21389e-05
0.000160002
0.00014981
0.000110508
0.000103141
6.8021e-05
0.000106988
0.000110061
9.53912e-05
0.000172097
0.000178138
0.000152765
0.000168251
0.000131509
7.40861e-05
0.000166522
7.41308e-05
9.51501e-05
7.71359e-05
0.000158956
0.000154923
0.000156059
0.000105481
6.26667e-05
7.10579e-05
0.000114486
0.00013947
6.26471e-05
8.80723e-05
0.000134782
0.000102711
0.000164577
8.27997e-05
0.000134355
0.000121919
0.000118083
7.54811e-05
9.69983e-05
0.000107752
0.000153365
9.11036e-05
0.000139025
0.000160838
0.000163414
0.000106842
9.06932e-05
9.01716e-05
0.000140368
0.000118154
9.03293e-05
6.00917e-05
8.82989e-05
8.75961e-05
0.000150148
9.19166e-05
9.29341e-05
0.000100863
8.95688e-05
0.000131707
9.374e-05
8.32832e-05
0.000103216
9.9026e-05
0.000117234
0.000130278
0.000126091
0.000106367
0.000125719
9.78931e-05
0.000145654
0.00015633
8.80833e-05
0.000152852
8.82761e-05
0.000150957
0.000138651
0.000129137
0.000132107
0.000154187
7.43024e-05
9.6898e-05
9.03477e-05
0.000155784
0.000153531
0.000142325
0.000154545
0.000157677
0.000132277
0.000162378
0.000109519
9.92323e-05
0.000176936
0.000104847
0.000160679
0.000128122
8.2812e-05
9.81486e-05
0.00016067
0.000133213
0.000121699
0.000156909
0.000153523
0.000100314
9.8651e-05
9.67465e-05
0.00013615
0.000150534
0.000173004
0.000166259
0.000180868
0.00016389
0.000179105
0.000150303
0.000156458
0.000157688
0.000148641
0.000156149
0.000143454
0.000141317
0.00010167
0.000135429
0.000158595
0.000110533
0.000160813
0.000147717
0.000171936
0.000104322
0.000163538
0.000156225
0.000102291
0.00013946
0.000101612
0.000156917
0.000143699
0.000106495
0.000100363
8.73171e-05
0.000100427
0.000157142
7.33596e-05
0.000121563
0.000100003
0.000111806
0.000163696
0.000158254
4.91329e-05
0.00015884
8.78809e-05
9.46633e-05
0.000162787
0.00013233
9.58078e-05
0.000181419
0.000103818
4.91339e-05
9.6795e-05
0.000141119
0.000175988
0.000133754
0.000156574
0.000147002
7.68126e-05
7.58419e-05
6.58996e-05
7.57288e-05
0.000104763
8.08089e-05
0.000129869
8.18398e-05
0.00013926
9.97237e-05
9.69446e-05
0.000112291
0.000105229
0.00013886
0.000100903
0.000104062
4.49522e-05
0.000103383
0.000149668
0.000149781
0.000136201
0.00010069
6.45999e-05
0.000188841
0.000127542
0.000106811
9.85488e-05
9.68937e-05
0.000101663
0.000122361
9.97958e-05
7.2277e-05
9.84494e-05
6.80867e-05
0.000120841
0.000100524
4.18993e-05
9.46371e-05
0.000110893
0.000100557
0.000153262
0.000104355
0.000133869
5.22394e-05
0.000107508
0.000103227
8.90011e-05
9.69206e-05
0.00011392
0.000106632
0.000111694
9.56752e-05
9.71367e-05
0.000104785
0.000138944
9.89216e-05
0.000139309
0.000125905
9.85829e-05
0.00010262
0.000103507
0.000114217
0.000103307
9.68748e-05
0.000109914
0.000114273
0.000135452
0.000103474
0.000103014
0.000148005
0.000145926
9.90063e-05
9.86065e-05
4.54211e-05
0.000120083
8.4386e-05
0.000112862
5.17001e-05
5.36658e-05
4.79521e-05
4.87402e-05
5.17041e-05
5.44793e-05
5.61371e-05
0.000125873
9.26959e-05
9.43421e-05
0.000108154
0.000105508
0.000104203
0.000109649
0.000101993
0.000104329
0.000104669
0.000103817
0.000126313
9.48055e-05
0.000129862
0.000101634
9.82718e-05
0.000103957
0.000109711
0.00011549
0.000107788
0.00012322
0.000115325
0.000107151
7.75581e-05
0.000107585
0.000105017
0.000112399
0.000108637
0.00010302
9.79035e-05
0.000107726
0.000112161
0.000151945
0.000100861
0.000147733
0.000154343
0.000105852
0.0001476
0.00011343
9.11452e-05
0.000123259
0.000108602
7.73704e-05
6.97149e-05
0.00012158
0.000129411
0.000110161
9.16851e-05
0.0001098
5.34118e-05
0.000108918
0.000102327
5.3059e-05
1.97085e-05
2.15578e-05
9.43218e-05
0.000100917
0.000116959
0.000112639
1.00931e-05
1.05463e-05
0.000111059
0.000112213
0.000106235
4.00937e-05
9.44669e-05
0.000108964
0.000111781
9.64437e-05
8.51102e-05
4.17708e-05
0.000160547
0.000101562
0.00012367
0.000125603
9.0464e-05
0.000114437
8.84499e-05
9.75799e-05
4.92876e-05
7.39633e-05
0.000114575
0.000115079
9.90497e-05
0.000104123
0.000107371
0.000113178
0.000108269
5.41669e-05
9.42813e-05
0.000107294
0.000100778
0.000151132
5.4165e-05
8.21158e-05
8.46005e-05
7.95055e-05
5.13784e-05
5.13825e-05
9.11807e-05
7.44193e-05
0.000106044
5.7993e-05
6.13872e-05
1.99631e-05
1.99632e-05
4.35445e-05
6.68209e-05
4.49717e-05
9.03754e-05
9.70675e-05
0.000104191
0.000117248
0.00010617
9.82331e-05
7.75826e-05
4.91624e-05
9.75118e-05
0.000100761
9.7439e-05
5.51006e-05
4.9368e-05
3.95642e-05
9.7311e-05
9.94528e-05
8.05137e-05
9.04014e-05
8.33774e-05
7.58109e-05
0.000102157
7.58057e-05
9.03026e-05
8.67118e-05
5.27577e-05
6.51242e-05
6.22865e-05
0.000107928
4.38206e-05
4.61411e-05
4.51868e-05
0.000101807
4.16783e-05
4.09097e-05
7.12545e-05
3.81249e-05
8.19575e-05
8.20829e-05
3.91197e-05
9.02144e-05
4.31864e-05
4.31757e-05
4.83888e-05
4.11971e-05
4.02337e-05
5.82736e-05
4.77555e-05
4.36278e-05
4.13138e-05
8.23972e-05
9.3683e-05
4.52649e-05
9.09416e-05
3.75037e-05
9.21804e-05
7.3467e-05
3.91609e-05
3.30027e-05
3.7008e-05
4.90313e-05
7.9356e-05
6.46669e-05
2.68547e-05
2.98186e-05
8.8215e-05
2.52808e-05
2.52808e-05
2.86499e-05
3.22225e-05
3.75949e-05
4.25318e-05
7.06295e-05
6.52076e-05
8.83037e-05
2.54403e-05
2.54403e-05
7.6976e-05
3.27407e-05
6.3134e-05
2.96571e-05
2.96738e-05
3.90921e-05
6.57983e-05
6.81378e-05
7.2602e-05
6.65337e-05
6.57977e-05
1.4326e-05
0.000106229
1.82966e-05
1.76965e-05
8.57955e-05
8.51976e-05
1.83367e-05
1.27428e-05
1.79768e-05
7.91738e-05
SCALARS rr_T' float
LOOKUP_TABLE default
0.000187651
0.00042761
0.000341497
0.000446357
0.000233396
0.00036245
0.000185543
0.00044388
0.000381663
0.000480544
0.000170305
0.00044524
0.000391821
0.000413816
0.000484826
0.000406979
0.000350024
0.000395709
0.000354454
0.000346537
0.000389815
6.92173e-05
0.000399404
0.00036811
0.000333677
0.000384929
0.000157775
0.000338115
0.000265356
0.000312372
0.00034615
0.000274311
0.000174777
0.000234058
0.000230042
0.000234586
0.000303687
0.00023051
0.000345798
0.000196451
0.000223041
0.000267646
0.000267675
0.000379897
0.000219295
0.000241945
0.000333564
0.000337785
0.00031654
0.000302998
0.000311129
0.000241269
0.000374605
0.000310021
0.000344882
0.000159078
0.000245619
0.000312294
0.000245611
0.000377777
0.000446818
0.000437912
0.00015517
0.000308761
0.00041944
0.00039585
0.000432208
0.000373868
0.000344281
0.000490765
0.00040643
0.000402001
0.000275581
0.00032042
0.000339399
0.000180412
0.000349451
0.000392178
0.000377014
0.000266249
0.000240272
0.000263434
0.000498728
0.000240606
0.000324419
0.000120495
0.000390574
0.0003264
0.000232235
3.40617e-05
0.000268638
3.70457e-05
0.00029652
0.000284158
0.000254239
0.000231886
0.000220673
0.00042189
0.00034971
0.000336645
0.000286012
0.000274384
0.000230863
0.000399589
0.000406204
0.000365793
0.000321697
0.00032634
0.000245068
0.000487424
0.000313223
0.000165413
0.000221068
0.000437322
0.000409686
0.000299389
0.000284822
0.000183372
0.000295421
0.000298205
0.000259384
0.000472606
0.000487341
0.000418613
0.000460541
0.000361329
0.000204402
0.000455511
0.000199864
0.000257807
0.000212304
0.000434797
0.000424689
0.000426912
0.000285378
0.000173056
0.000191308
0.000312875
0.000382379
0.000172998
0.000238347
0.000368739
0.000279399
0.000450221
0.000223189
0.000367378
0.000333417
0.00032235
0.000206037
0.000263313
0.000293607
0.000419567
0.000246126
0.000379889
0.000439987
0.000447002
0.000292487
0.000245504
0.00024411
0.000383533
0.000321991
0.00024408
0.000161513
0.000238388
0.000237112
0.00041067
0.000248811
0.000251556
0.000272498
0.000242464
0.000362049
0.000253938
0.00022484
0.000282627
0.000268274
0.000321485
0.000358112
0.0003447
0.000292813
0.000343856
0.000264481
0.00039842
0.000427613
0.000238386
0.000418853
0.000238279
0.000413656
0.000380274
0.000355018
0.000361379
0.000422526
0.000200381
0.000262504
0.000244095
0.000426148
0.00041956
0.000388985
0.000423645
0.000431349
0.000362274
0.000444235
0.000298067
0.000269001
0.000485012
0.000283278
0.000440521
0.000350917
0.000224004
0.000269461
0.000439576
0.000365814
0.00033308
0.000429094
0.000420916
0.000272336
0.000270056
0.000262331
0.000373409
0.000412028
0.000473524
0.000454934
0.000494968
0.000448513
0.000490142
0.000411239
0.000429709
0.000433057
0.000408239
0.000428873
0.000394795
0.000388918
0.000275968
0.000370567
0.000433577
0.000301177
0.000441746
0.000405809
0.000470083
0.000282815
0.000447049
0.000427353
0.000277736
0.00038289
0.00027586
0.000430251
0.000392779
0.000289165
0.000272168
0.000235388
0.000270772
0.00043084
0.000197668
0.000332069
0.000271157
0.000304238
0.00044747
0.000433136
0.000135841
0.000434711
0.000236756
0.000256679
0.000445029
0.000361762
0.000259703
0.000496527
0.000282446
0.000135842
0.000262473
0.000386276
0.000482181
0.000365563
0.000430074
0.000402776
0.000211428
0.000207225
0.000177226
0.000203469
0.000288159
0.000220385
0.000355036
0.000222187
0.000382354
0.000273061
0.000262871
0.000307491
0.000285907
0.000379789
0.00027416
0.000282126
0.000124525
0.000284256
0.000411159
0.000411452
0.000372656
0.000273632
0.000178191
0.00051735
0.000347598
0.000290293
0.000267621
0.000266511
0.000276026
0.000336339
0.000271082
0.00019415
0.000267528
0.000183505
0.00033144
0.000272937
0.000116064
0.000257071
0.000303975
0.000272946
0.000420017
0.000283446
0.000365532
0.000140205
0.000293401
0.000280257
0.000244773
0.000263099
0.000310476
0.000292235
0.000305596
0.000259879
0.000263969
0.000285059
0.000381081
0.000268808
0.000380842
0.000343789
0.00027134
0.00027887
0.000281546
0.000311406
0.000281082
0.000263185
0.000299076
0.000313652
0.000370273
0.000281487
0.000279664
0.000404884
0.000399213
0.000269011
0.000271399
0.000121202
0.000327864
0.000227494
0.000307743
0.000136101
0.00014128
0.000126256
0.000128324
0.000136137
0.000143412
0.000147792
0.000345272
0.000255517
0.000257788
0.000294724
0.000287097
0.000283515
0.000299901
0.000277454
0.000283774
0.000288537
0.000282463
0.000346845
0.000256812
0.000356524
0.000277402
0.000267786
0.00028282
0.000301785
0.000315325
0.000293772
0.000336439
0.000314318
0.000291471
0.000210186
0.000293158
0.000286665
0.000308662
0.000295682
0.000280169
0.000266445
0.000293499
0.000306144
0.000415596
0.000274485
0.00040406
0.000421183
0.000288415
0.000403528
0.000309556
0.000247968
0.000337789
0.00029606
0.000213229
0.000187273
0.000333496
0.000355201
0.000300691
0.000249965
0.000300725
0.00014257
0.000297292
0.000278943
0.000142425
5.45872e-05
5.97137e-05
0.000257521
0.000274598
0.00031893
0.000306582
2.80656e-05
2.93257e-05
0.000303628
0.000306796
0.000290414
0.000107016
0.000256944
0.00029872
0.000304576
0.000262728
0.000231894
0.000111443
0.000439919
0.000276319
0.00033763
0.000342909
0.000246429
0.000311881
0.000240941
0.000265868
0.0001321
0.000199354
0.000312252
0.000314187
0.000270029
0.000283608
0.000292666
0.00030859
0.00029516
0.000145509
0.000258999
0.000291987
0.000275996
0.000414175
0.00014548
0.000224161
0.000230892
0.000218832
0.000142276
0.000142286
0.000250696
0.000202407
0.000289489
0.000155721
0.000169906
5.5478e-05
5.54777e-05
0.000116142
0.000184457
0.000124273
0.000246654
0.000266785
0.000284698
0.00032079
0.000290976
0.000269397
0.000212094
0.000131218
0.000266299
0.000275894
0.000267114
0.000147459
0.000136312
0.000106156
0.000266736
0.000272128
0.000218664
0.000246986
0.000227913
0.000208699
0.000279343
0.000208681
0.000246547
0.000237716
0.000145728
0.000179917
0.000167265
0.000295387
0.000116799
0.000123044
0.000120371
0.000278964
0.000111212
0.000108919
0.000194086
0.000101587
0.000225879
0.000226221
0.00010428
0.00024597
0.000115758
0.000115065
0.000129638
0.000109781
0.000107789
0.000160885
0.000128123
0.000116426
0.000110122
0.000225212
0.000257058
0.00012122
0.000248578
9.98668e-05
0.000252169
0.000200341
0.000104337
8.83472e-05
9.85625e-05
0.000130776
0.000216555
0.000178295
7.45937e-05
8.2799e-05
0.000241423
7.02168e-05
7.02161e-05
7.95634e-05
8.93054e-05
0.000100912
0.000117464
0.000194228
0.000179788
0.00024159
7.05459e-05
7.05453e-05
0.000212337
8.73016e-05
0.000172123
7.91085e-05
7.95869e-05
0.000104863
0.00018206
0.000188521
0.000200839
0.000184062
0.000182056
3.9775e-05
0.000293878
5.07363e-05
4.91584e-05
0.000237404
0.000235756
5.09422e-05
3.53826e-05
4.98546e-05
0.000218985
SCALARS rr_uec(SIM,_S_ext) float
LOOKUP_TABLE default
0.0161845
0.0368491
0.0294305
0.0384653
0.0201079
0.0312362
0.0160028
0.0382519
0.0328944
0.0414106
0.0146882
0.038369
0.0337662
0.0356599
0.0417734
0.0350733
0.0301619
0.0341012
0.0305506
0.0298655
0.0335956
0.00596142
0.0344222
0.0317247
0.0287573
0.0331717
0.0136056
0.0291387
0.0228767
0.0269085
0.0298305
0.0236487
0.0150719
0.0201635
0.0198169
0.020209
0.0261602
0.0198575
0.0298002
0.0169409
0.0192286
0.0230555
0.023058
0.0327387
0.0189096
0.0208581
0.0287495
0.0291122
0.0272796
0.0261233
0.0268234
0.0207982
0.0322741
0.0267247
0.0297135
0.0137166
0.0211588
0.0269207
0.0211581
0.0325577
0.0385029
0.0377323
0.0133801
0.0266043
0.0361406
0.0341105
0.0372438
0.0322185
0.0296713
0.0422914
0.0350161
0.0346345
0.0237582
0.0276099
0.0292495
0.0155585
0.0301086
0.0337941
0.0324897
0.0229512
0.0207155
0.0226951
0.0429742
0.0207449
0.0279677
0.01039
0.0336597
0.0281256
0.0200253
0.00293373
0.0231574
0.00319074
0.025548
0.0244862
0.021916
0.0199918
0.0190257
0.0363563
0.030131
0.0290116
0.0246527
0.0236537
0.019905
0.0344354
0.0350048
0.0315223
0.0277195
0.0281236
0.0211296
0.0420032
0.0269943
0.0142629
0.019061
0.0376872
0.0353049
0.0258081
0.0245358
0.0158098
0.0254489
0.025706
0.0223569
0.0407209
0.0419965
0.0360716
0.0396862
0.0311325
0.0176087
0.0392536
0.0172316
0.0222236
0.0182911
0.0374687
0.0365947
0.0367891
0.0246014
0.0149079
0.0164947
0.0269626
0.0329487
0.0149029
0.0205468
0.0317756
0.0240817
0.0387975
0.0192427
0.0316592
0.0287322
0.0277802
0.0177564
0.0226968
0.0253048
0.0361561
0.0212188
0.0327379
0.0379157
0.0385204
0.0252042
0.0211636
0.0210434
0.0330522
0.0277509
0.0210424
0.0139267
0.0205523
0.0204402
0.0353896
0.0214488
0.0216854
0.0234923
0.0209016
0.0311938
0.0218903
0.0193842
0.0243544
0.023126
0.0277014
0.0308546
0.0297049
0.0252272
0.0296317
0.0228012
0.0343338
0.0368495
0.0205502
0.0360921
0.020543
0.0356445
0.0327668
0.0305879
0.0311418
0.0364085
0.017276
0.0226286
0.0210437
0.0367233
0.0361568
0.0335217
0.0365048
0.0371714
0.0312174
0.0382818
0.0256903
0.0231882
0.0417927
0.0244216
0.0379587
0.0302386
0.0193108
0.0232176
0.0378802
0.0315193
0.0287024
0.0369775
0.0362693
0.0234745
0.0232713
0.0226131
0.0321753
0.0355058
0.0408052
0.0392036
0.0426533
0.0386501
0.0422374
0.035438
0.0370247
0.0373132
0.0351748
0.0369526
0.0340137
0.0335074
0.0237877
0.0319331
0.0373644
0.0259572
0.0380615
0.034965
0.0405103
0.024379
0.0385256
0.0368271
0.0239398
0.032991
0.0237782
0.0370735
0.0338488
0.0249249
0.0234609
0.0202945
0.0233453
0.0371245
0.0170426
0.0286173
0.0233739
0.0262223
0.0385618
0.0373248
0.0117015
0.0374606
0.0204127
0.0221258
0.0383514
0.0311753
0.0223868
0.0427875
0.0243441
0.0117015
0.0226253
0.0332866
0.0415493
0.0315033
0.0370559
0.0347069
0.0182155
0.0178582
0.0152812
0.0175446
0.0248269
0.0189935
0.0305956
0.0191517
0.0329447
0.0235301
0.0226596
0.0264968
0.0246436
0.0327281
0.023631
0.0243196
0.0107259
0.0244911
0.035426
0.0354514
0.0321132
0.0235854
0.0153509
0.04458
0.0299578
0.0250213
0.0230678
0.0229619
0.0237924
0.0289787
0.0233659
0.0167413
0.0230592
0.0158213
0.0285589
0.0235262
0.00999719
0.0221582
0.0261929
0.0235272
0.0361923
0.0244317
0.0315015
0.0120898
0.0252858
0.0241572
0.0210891
0.0226784
0.0267584
0.0251814
0.0263345
0.0224003
0.0227524
0.0245694
0.0328362
0.0231696
0.0328195
0.0296277
0.0233773
0.0240368
0.0242667
0.0268382
0.0242265
0.0226851
0.0257774
0.0270254
0.0319088
0.0242616
0.0241061
0.0348905
0.0344018
0.0231872
0.0233824
0.0104535
0.0282553
0.0196139
0.0265224
0.0117445
0.0121914
0.0108949
0.0110733
0.0117476
0.0123754
0.0127532
0.0297506
0.0220129
0.0222157
0.0254009
0.0247449
0.0244362
0.0258438
0.023914
0.0244588
0.0248575
0.0243456
0.0298849
0.022138
0.0307194
0.0239068
0.0230794
0.0243763
0.0260008
0.0271746
0.0253188
0.0289943
0.0270896
0.0251222
0.0181185
0.0252661
0.024705
0.0265951
0.0254847
0.0241483
0.0229648
0.0252956
0.0263838
0.0358138
0.0236578
0.0348197
0.0362982
0.0248573
0.0347744
0.026678
0.0213725
0.0291069
0.0255158
0.0183699
0.0161482
0.028736
0.0306054
0.0259138
0.021543
0.0259136
0.0122963
0.0256209
0.0240406
0.0122812
0.00470187
0.00514342
0.0221932
0.0236677
0.0274866
0.0264241
0.00241707
0.0025256
0.0261655
0.0264384
0.0250268
0.00922982
0.0221464
0.02574
0.0262501
0.0226436
0.0199861
0.00961192
0.0379074
0.0238161
0.029097
0.0295519
0.0212389
0.0268796
0.0207659
0.0229141
0.0113915
0.0171878
0.0269116
0.0270766
0.0232722
0.0244433
0.0252234
0.0265955
0.0254382
0.012547
0.0223157
0.0251664
0.0237828
0.035689
0.0125446
0.0193184
0.0198986
0.0188535
0.0122552
0.012256
0.0215996
0.0174458
0.0249482
0.0134278
0.0146353
0.00477803
0.00477801
0.0100173
0.0158902
0.0107052
0.021257
0.0229861
0.0245347
0.0276438
0.0250731
0.023213
0.0182774
0.0113173
0.0229495
0.0237741
0.0230166
0.0127167
0.0117426
0.0091538
0.0229842
0.0234502
0.0188479
0.0212848
0.0196407
0.0179804
0.0240725
0.0179789
0.0212475
0.0204834
0.0125535
0.0154986
0.0144231
0.0254544
0.0100739
0.0106123
0.0103822
0.0240381
0.00959189
0.00939462
0.0167277
0.00876193
0.0194597
0.0194891
0.00899408
0.0211988
0.00998222
0.00992433
0.0111794
0.00946862
0.00929525
0.0138595
0.0110483
0.0100415
0.00949798
0.0194081
0.0221494
0.0104536
0.0214216
0.00861382
0.0217305
0.0172662
0.00899909
0.00761888
0.0085012
0.0112795
0.0186631
0.01536
0.00642449
0.00713126
0.0208041
0.00604753
0.00604748
0.00685256
0.00769217
0.00870169
0.0101189
0.0167343
0.0154886
0.0208187
0.00607622
0.00607618
0.0182924
0.00752989
0.0148344
0.00682305
0.00686285
0.00904246
0.0156825
0.016239
0.0173002
0.015855
0.0156821
0.00342572
0.0253143
0.00436999
0.0042338
0.0204495
0.0203076
0.00438741
0.00304741
0.00429403
0.0188633
SCALARS rr_uec(PEX,_P_ext) float
LOOKUP_TABLE default
-0.0631578
-0.143925
-0.114941
-0.150234
-0.0785559
-0.121993
-0.0624485
-0.1494
-0.128459
-0.161741
-0.0573204
-0.149858
-0.131878
-0.139281
-0.163182
-0.13698
-0.117811
-0.133187
-0.119301
-0.116637
-0.131203
-0.0232969
-0.134431
-0.123898
-0.112308
-0.129559
-0.053103
-0.113802
-0.0893125
-0.105137
-0.116506
-0.0923267
-0.0588254
-0.0787787
-0.0774267
-0.0789562
-0.102214
-0.0775845
-0.116388
-0.0661203
-0.0750701
-0.0900837
-0.0900932
-0.127865
-0.0738095
-0.081433
-0.11227
-0.113691
-0.10654
-0.101982
-0.104718
-0.0812056
-0.126084
-0.104346
-0.11608
-0.0535417
-0.0826698
-0.105111
-0.0826671
-0.127151
-0.15039
-0.147391
-0.0522262
-0.103922
-0.141174
-0.133234
-0.145472
-0.125836
-0.115877
-0.165181
-0.136795
-0.135305
-0.0927539
-0.107846
-0.114234
-0.0607221
-0.117617
-0.131998
-0.126895
-0.0896134
-0.0808696
-0.0886659
-0.167861
-0.080982
-0.109192
-0.0405558
-0.131459
-0.109859
-0.0781646
-0.0114643
-0.0904172
-0.0124687
-0.0998021
-0.0956414
-0.0855709
-0.0780473
-0.0742732
-0.141999
-0.117705
-0.113307
-0.096265
-0.0923509
-0.0777029
-0.134493
-0.13672
-0.123118
-0.108276
-0.109839
-0.0824837
-0.164057
-0.105424
-0.055674
-0.0744062
-0.147193
-0.137892
-0.100767
-0.0958644
-0.0617185
-0.0994318
-0.100369
-0.0873027
-0.159069
-0.164029
-0.140896
-0.155008
-0.121616
-0.0687969
-0.153315
-0.0672692
-0.0867719
-0.0714569
-0.146343
-0.142941
-0.14369
-0.0960513
-0.0582468
-0.0643894
-0.105307
-0.1287
-0.0582272
-0.0802217
-0.124109
-0.0940394
-0.151535
-0.0751197
-0.123652
-0.112221
-0.108496
-0.0693474
-0.088625
-0.0988217
-0.141217
-0.0828402
-0.127862
-0.14809
-0.150451
-0.0984446
-0.0826305
-0.0821616
-0.129089
-0.108375
-0.0821517
-0.0543613
-0.0802359
-0.079806
-0.138223
-0.0837438
-0.0846676
-0.0917162
-0.0816077
-0.121857
-0.0854697
-0.0756758
-0.0951262
-0.0902947
-0.108205
-0.120532
-0.116018
-0.0985544
-0.115734
-0.089018
-0.1341
-0.143925
-0.0802351
-0.140977
-0.0801991
-0.139228
-0.127992
-0.119491
-0.121633
-0.142213
-0.0674433
-0.0883528
-0.0821565
-0.143432
-0.141215
-0.130924
-0.14259
-0.145183
-0.121934
-0.14952
-0.100323
-0.0905396
-0.163245
-0.0953446
-0.14827
-0.118111
-0.0753945
-0.0906946
-0.147952
-0.123125
-0.112108
-0.144424
-0.141671
-0.0916619
-0.090895
-0.0882946
-0.125681
-0.13868
-0.159378
-0.153121
-0.166596
-0.15096
-0.164971
-0.138414
-0.144631
-0.145757
-0.137404
-0.144349
-0.132879
-0.130901
-0.0928846
-0.124725
-0.145933
-0.10137
-0.148682
-0.136586
-0.15822
-0.0951891
-0.150468
-0.143838
-0.0934794
-0.128872
-0.0928481
-0.144813
-0.132201
-0.0973262
-0.0916055
-0.0792258
-0.0911354
-0.145012
-0.0665299
-0.111767
-0.0912652
-0.1024
-0.150609
-0.145785
-0.0457211
-0.146315
-0.079686
-0.0863921
-0.149788
-0.121761
-0.08741
-0.167121
-0.0950648
-0.0457211
-0.0883425
-0.130012
-0.162292
-0.123041
-0.144753
-0.135565
-0.0711618
-0.0697474
-0.0596499
-0.0684827
-0.0969877
-0.0741765
-0.119497
-0.0747828
-0.128692
-0.0919064
-0.0884763
-0.103495
-0.0962298
-0.127828
-0.092276
-0.0949573
-0.0419122
-0.0956743
-0.138387
-0.138486
-0.125428
-0.0920983
-0.0599752
-0.174129
-0.116994
-0.0977059
-0.090075
-0.0897018
-0.0929039
-0.113204
-0.0912399
-0.0653463
-0.0900437
-0.0617631
-0.111555
-0.0918644
-0.0390645
-0.086524
-0.102311
-0.0918674
-0.141368
-0.0954014
-0.12303
-0.0471893
-0.0987525
-0.0943279
-0.0823852
-0.0885532
-0.104499
-0.0983597
-0.102857
-0.0874693
-0.0888457
-0.0959444
-0.128263
-0.0904745
-0.128183
-0.115712
-0.0913271
-0.0938613
-0.094762
-0.104812
-0.0946059
-0.0885821
-0.100662
-0.105568
-0.124626
-0.0947422
-0.0941284
-0.136275
-0.134366
-0.0905428
-0.0913467
-0.0407935
-0.110352
-0.0765689
-0.103579
-0.0458083
-0.0475514
-0.042495
-0.0431907
-0.0458205
-0.0482691
-0.0497432
-0.116211
-0.0860012
-0.086766
-0.0991973
-0.0966303
-0.0954245
-0.10094
-0.0933847
-0.095512
-0.0971149
-0.0950707
-0.11674
-0.086437
-0.119998
-0.0933673
-0.0901308
-0.0951906
-0.101574
-0.106131
-0.0988769
-0.113238
-0.105793
-0.0981025
-0.0707436
-0.0986705
-0.0964852
-0.103889
-0.0995201
-0.0942986
-0.0896793
-0.0987851
-0.103041
-0.13988
-0.0923855
-0.135998
-0.141761
-0.0970739
-0.135819
-0.10419
-0.0834604
-0.113692
-0.0996472
-0.0717682
-0.0630314
-0.112247
-0.119553
-0.101206
-0.0841325
-0.101217
-0.0479855
-0.100062
-0.0938859
-0.0479364
-0.0183728
-0.0200982
-0.0866758
-0.0924236
-0.107345
-0.103189
-0.00944617
-0.00987029
-0.102195
-0.103261
-0.0977468
-0.0360187
-0.0864816
-0.100543
-0.102513
-0.0884283
-0.0780504
-0.037509
-0.148067
-0.0930028
-0.113639
-0.115415
-0.0829423
-0.104972
-0.0810953
-0.0894852
-0.0444613
-0.0670976
-0.105097
-0.105748
-0.0908855
-0.095456
-0.0985049
-0.103864
-0.0993441
-0.0489747
-0.0871735
-0.0982764
-0.0928941
-0.139402
-0.0489651
-0.0754477
-0.0777132
-0.0736539
-0.047887
-0.0478902
-0.0843788
-0.0681256
-0.0974355
-0.052412
-0.0571865
-0.0186726
-0.0186725
-0.0390905
-0.062084
-0.0418276
-0.0830184
-0.0897938
-0.0958233
-0.107971
-0.0979364
-0.0906732
-0.0713862
-0.0441647
-0.0896304
-0.0928597
-0.0899046
-0.0496307
-0.0458795
-0.0357291
-0.0897777
-0.0915923
-0.0735973
-0.0831302
-0.0767105
-0.0702435
-0.0940207
-0.0702373
-0.0829822
-0.0800098
-0.0490485
-0.060556
-0.0562972
-0.0994209
-0.0393112
-0.0414131
-0.0405133
-0.0938932
-0.0374312
-0.036659
-0.0653251
-0.0341912
-0.0760258
-0.0761408
-0.0350977
-0.0827882
-0.038961
-0.0387276
-0.0436327
-0.0369491
-0.036279
-0.0541503
-0.0431229
-0.039186
-0.0370639
-0.0758015
-0.0865202
-0.0407993
-0.083666
-0.0336124
-0.0848746
-0.0674305
-0.0351167
-0.0297353
-0.0331733
-0.044016
-0.0728876
-0.06001
-0.0251065
-0.0278682
-0.0812576
-0.0236333
-0.0236331
-0.0267791
-0.0300581
-0.0339644
-0.0395358
-0.0653729
-0.0605124
-0.0813138
-0.0237441
-0.0237439
-0.0714677
-0.0293836
-0.057933
-0.0266259
-0.0267867
-0.0352941
-0.0612774
-0.0634518
-0.0675977
-0.0619512
-0.0612758
-0.0133873
-0.0989125
-0.0170766
-0.0165455
-0.0799045
-0.0793501
-0.0171459
-0.0119089
-0.0167799
-0.0737052
SCALARS cell_type float
LOOKUP_TABLE default
0
0
0
0
0
0
0
0
0
0
0
0
0
0
0
0
0
0
0
0
0
1
0
0
0
0
0
0
0
0
0
0
0
0
0
0
0
0
0
0
0
0
0
0
0
0
0
0
0
0
0
0
0
0
0
0
0
0
0
0
0
0
0
0
0
0
0
0
0
0
0
0
0
0
0
0
0
0
0
0
0
0
0
0
0
0
0
0
0
0
0
0
0
0
0
0
0
0
0
0
0
0
0
0
0
0
0
0
0
0
0
0
0
0
0
0
0
0
0
0
0
0
0
0
0
0
0
0
0
0
0
0
0
0
0
0
0
0
0
0
0
0
0
0
0
0
0
0
0
0
0
0
0
0
0
0
0
0
0
0
0
0
0
0
0
0
0
0
0
0
0
0
0
0
0
0
0
0
0
0
0
0
0
0
0
0
0
0
0
0
0
0
0
0
0
0
0
0
0
0
0
0
0
0
0
0
0
0
0
0
0
0
0
0
0
0
0
0
0
0
0
0
0
0
0
0
0
0
0
0
0
0
0
0
0
0
0
0
0
0
0
0
0
0
0
0
0
0
0
0
0
0
0
0
0
0
0
0
0
0
0
0
0
0
0
0
0
0
0
0
0
0
0
0
0
0
0
0
0
0
0
0
0
0
0
0
0
0
0
0
0
0
0
0
0
0
0
0
0
0
0
0
0
0
0
0
0
0
0
0
0
0
0
0
0
0
0
0
0
0
0
0
0
0
0
0
0
0
0
0
0
0
0
0
0
0
0
0
0
0
0
0
0
0
0
0
0
0
0
0
2
2
2
2
2
2
2
0
0
0
0
0
0
0
0
0
0
0
0
0
0
0
0
0
0
0
0
0
0
0
0
0
0
0
0
0
0
0
0
0
0
0
0
0
0
0
0
0
0
0
0
0
0
0
0
0
0
0
0
0
0
0
0
0
0
0
1
1
0
0
0
0
0
0
0
0
0
0
0
0
0
0
0
0
0
0
0
0
0
0
0
0
0
0
0
0
0
0
0
0
0
0
0
0
0
0
0
0
0
0
0
1
1
0
0
0
0
0
0
0
0
0
0
0
0
0
0
0
0
0
0
0
0
0
0
0
0
0
0
0
0
0
0
0
0
0
0
0
0
0
0
0
0
0
0
0
0
0
0
0
0
0
0
0
0
0
0
0
0
0
0
0
0
0
0
0
0
0
1
1
0
0
0
0
0
0
0
0
0
0
0
0
0
0
0
0
0
0
0
0
0
0
0
0
0
0
0
0
0
0
0
0
0
TENSORS Lagrange_strain float
0.0305709 -0.00319848 -5.41052e-08
-0.00319848 0.0133902 1.68571e-07
-5.41052e-08 1.68571e-07 0.00740263

0.0291963 -0.00280077 1.70398e-08
-0.00280077 0.0335573 -1.78858e-07
1.70398e-08 -1.78858e-07 0.0331667

0.0300246 0.00367954 2.23908e-08
0.00367954 0.031173 1.64059e-07
2.23908e-08 1.64059e-07 0.0304711

0.0291653 -0.00392468 6.06356e-08
-0.00392468 0.0328025 -1.64138e-07
6.06356e-08 -1.64138e-07 0.0330916

0.0353697 0.0026692 -2.67503e-07
0.0026692 0.0380881 1.2169e-07
-2.67503e-07 1.2169e-07 0.0352951

0.0277383 -0.00236734 -9.28361e-09
-0.00236734 0.0333881 -7.96705e-08
-9.28361e-09 -7.96705e-08 0.0304421

0.0302648 0.00339427 -5.3044e-08
0.00339427 0.0134958 1.22722e-07
-5.3044e-08 1.22722e-07 0.00746403

0.0317581 0.00394 3.68467e-08
0.00394 0.0312034 1.67421e-07
3.68467e-08 1.67421e-07 0.0315639

0.0332458 0.000715451 5.71257e-09
0.000715451 0.0262243 -1.87652e-08
5.71257e-09 -1.87652e-08 0.0281451

0.0354708 -0.000991106 5.5628e-08
-0.000991106 0.0275546 8.28481e-08
5.5628e-08 8.28481e-08 0.0327243

0.0280643 0.00205136 -5.01499e-08
0.00205136 0.0138101 9.05926e-08
-5.01499e-08 9.05926e-08 0.0117548

0.0279563 -0.00176587 8.09612e-08
-0.00176587 0.03501 2.06574e-07
8.09612e-08 2.06574e-07 0.0315524

0.0311245 0.00365748 -2.16499e-07
0.00365748 0.031304 1.10272e-07
-2.16499e-07 1.10272e-07 0.0310827

0.0290723 -0.00188022 -3.4282e-10
-0.00188022 0.0348026 3.57189e-08
-3.4282e-10 3.57189e-08 0.0325497

0.0346346 0.00441801 -1.11682e-07
0.00441801 0.0343654 -1.28664e-07
-1.11682e-07 -1.28664e-07 0.0348877

0.0343319 7.32501e-05 1.77652e-08
7.32501e-05 0.0272891 -4.84678e-08
1.77652e-08 -4.84678e-08 0.0307816

0.0286962 -0.00235382 1.5335e-08
-0.00235382 0.0360167 8.98854e-08
1.5335e-08 8.98854e-08 0.0334533

0.0345771 -0.000353226 1.38698e-07
-0.000353226 0.0273595 -2.13799e-08
1.38698e-07 -2.13799e-08 0.0319803

0.026923 0.00347859 1.38509e-07
0.00347859 0.0309486 5.3518e-08
1.38509e-07 5.3518e-08 0.0275796

0.0338885 -0.000550512 1.35484e-07
-0.000550512 0.0264123 1.21636e-07
1.35484e-07 1.21636e-07 0.0301374

0.026625 0.00113532 -1.32899e-08
0.00113532 0.0340375 -2.39605e-07
-1.32899e-08 -2.39605e-07 0.0291531

0.045295 0.000853232 1.50264e-07
0.000853232 0.0452654 3.04611e-07
1.50264e-07 3.04611e-07 0.0366407

0.0336788 0.000247459 -1.16941e-07
0.000247459 0.0263183 -5.85131e-09
-1.16941e-07 -5.85131e-09 0.0298083

0.0293127 -0.00363271 2.88067e-08
-0.00363271 0.0311395 -7.2538e-08
2.88067e-08 -7.2538e-08 0.0300499

0.033784 0.000900448 -1.15342e-08
0.000900448 0.0264992 2.25809e-08
-1.15342e-08 2.25809e-08 0.0300844

0.0285493 0.0025076 -9.93589e-08
0.0025076 0.0338974 -8.29805e-09
-9.93589e-08 -8.29805e-09 0.0322902

0.0286326 0.0005268 2.16989e-08
0.0005268 0.0176913 -5.86535e-08
2.16989e-08 -5.86535e-08 0.0131728

0.0309174 0.004035 -5.1282e-08
0.004035 0.0306497 -2.57671e-07
-5.1282e-08 -2.57671e-07 0.0306139

0.0259276 0.00477708 -1.07964e-07
0.00477708 0.0257359 1.44597e-07
-1.07964e-07 1.44597e-07 0.0211304

0.0415303 0.00137019 -2.31349e-08
0.00137019 0.0383529 6.07997e-08
-2.31349e-08 6.07997e-08 0.0361379

0.0344143 0.00187104 -5.24825e-08
0.00187104 0.0279556 -5.05314e-08
-5.24825e-08 -5.05314e-08 0.0310032

0.021762 -0.00228818 -5.70265e-08
-0.00228818 0.0299957 -2.16305e-08
-5.70265e-08 -2.16305e-08 0.0211273

0.0228657 -0.00535312 -8.83669e-08
-0.00535312 0.0234752 -1.89706e-08
-8.83669e-08 -1.89706e-08 0.0125803

0.0348348 0.000800521 6.10662e-08
0.000800521 0.0422571 -1.83881e-07
6.10662e-08 -1.83881e-07 0.0357891

0.0374554 -0.000661427 1.1829e-07
-0.000661427 0.0412044 -1.34809e-07
1.1829e-07 -1.34809e-07 0.0359037

0.0410771 0.00281327 -1.3387e-07
0.00281327 0.0359885 7.66139e-08
-1.3387e-07 7.66139e-08 0.0357693

0.0372559 0.000704916 1.65018e-07
0.000704916 0.0432161 -4.08412e-08
1.65018e-07 -4.08412e-08 0.0361444

0.0402626 -0.00121881 -8.23571e-08
-0.00121881 0.0378326 3.28681e-08
-8.23571e-08 3.28681e-08 0.0358109

0.031219 -0.0036781 8.43801e-08
-0.0036781 0.031127 -6.92379e-08
8.43801e-08 -6.92379e-08 0.0309286

0.0227496 0.00527967 1.32387e-07
0.00527967 0.0237114 -1.2826e-07
1.32387e-07 -1.2826e-07 0.0125824

0.0297646 -0.00231614 8.40873e-08
-0.00231614 0.0220333 1.57219e-07
8.40873e-08 1.57219e-07 0.0208771

0.0376213 -0.000522487 -1.31898e-09
-0.000522487 0.0430657 -2.2564e-07
-1.31898e-09 -2.2564e-07 0.0361471

0.0412424 0.00263418 -9.52373e-08
0.00263418 0.0394167 7.20489e-09
-9.52373e-08 7.20489e-09 0.0361296

0.034305 -0.00161739 1.19207e-07
-0.00161739 0.0279977 1.90981e-07
1.19207e-07 1.90981e-07 0.0310872

0.023108 -0.00552659 1.52797e-08
-0.00552659 0.0235651 -1.32614e-07
1.52797e-08 -1.32614e-07 0.0162178

0.0299468 -0.00233274 -5.66297e-08
-0.00233274 0.0221574 1.46229e-07
-5.66297e-08 1.46229e-07 0.0213466

0.0258965 0.00222764 -7.71235e-08
0.00222764 0.032658 -1.05583e-07
-7.71235e-08 -1.05583e-07 0.0279183

0.0275539 0.00252919 1.0587e-07
0.00252919 0.0323773 1.02556e-07
1.0587e-07 1.02556e-07 0.0284939

0.0341787 -0.00214137 -2.06253e-07
-0.00214137 0.0271102 -1.20594e-07
-2.06253e-07 -1.20594e-07 0.0304753

0.0229049 -0.00439306 -6.40679e-08
-0.00439306 0.0272521 -5.69492e-09
-6.40679e-08 -5.69492e-09 0.0198525

0.0294972 0.00247192 1.23377e-07
0.00247192 0.0218365 -3.05704e-08
1.23377e-07 -3.05704e-08 0.0202831

0.0298758 -0.00327127 2.4141e-07
-0.00327127 0.0245161 -6.50683e-08
2.4141e-07 -6.50683e-08 0.0230507

0.03448 0.00257741 3.31163e-08
0.00257741 0.0382064 -6.24859e-09
3.31163e-08 -6.24859e-09 0.0352739

0.0286928 0.00383903 1.05151e-07
0.00383903 0.0257825 1.39365e-07
1.05151e-07 1.39365e-07 0.0231193

0.0349317 -0.00291601 2.01992e-07
-0.00291601 0.0374349 7.68512e-08
2.01992e-07 7.68512e-08 0.0351922

0.0255828 -0.00545614 -3.63818e-07
-0.00545614 0.0229046 -1.09772e-07
-3.63818e-07 -1.09772e-07 0.0158213

0.0373489 0.000745743 1.75536e-07
0.000745743 0.0414153 1.33609e-07
1.75536e-07 1.33609e-07 0.0359241

0.0231701 -0.000693311 -6.1132e-08
-0.000693311 0.0313168 -2.85457e-08
-6.1132e-08 -2.85457e-08 0.0231054

0.0410312 0.00138004 9.9143e-08
0.00138004 0.0377094 -4.44369e-08
9.9143e-08 -4.44369e-08 0.0359023

0.0276788 0.00280552 4.16317e-08
0.00280552 0.0327533 -1.28092e-07
4.16317e-08 -1.28092e-07 0.0302343

0.0361428 0.000784821 -6.60927e-09
0.000784821 0.0281349 5.17364e-08
-6.60927e-09 5.17364e-08 0.0336764

0.036258 0.00153415 -2.17548e-08
0.00153415 0.0316964 -9.77e-08
-2.17548e-08 -9.77e-08 0.0342239

0.0286402 0.0040574 -9.05453e-09
0.0040574 0.0198993 2.85687e-07
-9.05453e-09 2.85687e-07 0.0137607

0.0309756 -0.000783896 4.5686e-08
-0.000783896 0.0370882 1.0883e-07
4.5686e-08 1.0883e-07 0.0338848

0.0315581 0.00124387 1.52441e-07
0.00124387 0.036424 9.28742e-08
1.52441e-07 9.28742e-08 0.0342628

0.0285519 -0.000375286 -6.81666e-08
-0.000375286 0.0369596 9.08868e-08
-6.81666e-08 9.08868e-08 0.0326739

0.0296059 0.00307105 6.82652e-08
0.00307105 0.0347951 1.54382e-07
6.82652e-08 1.54382e-07 0.0337122

0.0347233 0.0011219 1.9472e-08
0.0011219 0.027842 -4.52083e-08
1.9472e-08 -4.52083e-08 0.0322119

0.0291906 -0.00369945 2.23258e-07
-0.00369945 0.0310248 1.16139e-07
2.23258e-07 1.16139e-07 0.0299128

0.0350584 -0.000236981 2.54735e-08
-0.000236981 0.0275835 8.23259e-08
2.54735e-08 8.23259e-08 0.0333965

0.0344548 -0.00254795 6.49056e-08
-0.00254795 0.0381365 -3.6776e-08
6.49056e-08 -3.6776e-08 0.0352639

0.0350138 0.00284957 -2.66687e-08
0.00284957 0.0375726 -3.78545e-08
-2.66687e-08 -3.78545e-08 0.0352437

0.0218909 -0.00213211 -6.4704e-08
-0.00213211 0.0299257 1.41758e-07
-6.4704e-08 1.41758e-07 0.0208536

0.034705 -0.00369112 -2.05878e-08
-0.00369112 0.0319609 1.27853e-07
-2.05878e-08 1.27853e-07 0.0330822

0.0292954 -0.00329777 5.21441e-08
-0.00329777 0.0321162 -1.85876e-07
5.21441e-08 -1.85876e-07 0.0304367

0.0267824 -0.0040174 3.68116e-08
-0.0040174 0.017607 9.09508e-08
3.68116e-08 9.09508e-08 0.0127274

0.0324067 0.000418874 -1.82883e-07
0.000418874 0.0381081 -1.31048e-07
-1.82883e-07 -1.31048e-07 0.0344089

0.0345407 0.0038177 -4.06641e-08
0.0038177 0.0309448 -4.95304e-08
-4.06641e-08 -4.95304e-08 0.0326635

0.0283797 0.00258181 2.93603e-08
0.00258181 0.0341331 3.62596e-08
2.93603e-08 3.62596e-08 0.0322171

0.0315456 0.00103802 -1.2279e-08
0.00103802 0.0228464 -6.83462e-09
-1.2279e-08 -6.83462e-09 0.024072

0.0271002 -0.00435928 -7.30201e-08
-0.00435928 0.0237393 -1.4064e-07
-7.30201e-08 -1.4064e-07 0.0183256

0.0362623 -0.00140275 1.17026e-07
-0.00140275 0.0387453 -1.4293e-07
1.17026e-07 -1.4293e-07 0.0354042

0.0315593 0.00317109 1.85756e-08
0.00317109 0.0344044 -1.30565e-07
1.85756e-08 -1.30565e-07 0.0340936

0.0273046 -0.00415669 -5.33049e-08
-0.00415669 0.0221772 -1.852e-07
-5.33049e-08 -1.852e-07 0.0184135

0.0303615 0.00139138 1.12176e-07
0.00139138 0.0228329 -9.26237e-09
1.12176e-07 -9.26237e-09 0.0209569

0.0186039 -0.00269732 2.43064e-07
-0.00269732 0.0289319 1.54654e-07
2.43064e-07 1.54654e-07 0.0158948

0.027203 0.00188901 1.01828e-07
0.00188901 0.0343238 3.65812e-08
1.01828e-07 3.65812e-08 0.0306578

0.035385 0.0030572 1.24119e-07
0.0030572 0.0308233 -1.60084e-07
1.24119e-07 -1.60084e-07 0.0327569

0.0226502 0.00538664 1.77188e-07
0.00538664 0.0240911 -7.74909e-08
1.77188e-07 -7.74909e-08 0.0162004

0.0459481 0.00223836 -1.27085e-07
0.00223836 0.0417511 -4.087e-07
-1.27085e-07 -4.087e-07 0.0366417

0.0230838 -0.000534443 -1.85667e-08
-0.000534443 0.0313577 2.39684e-07
-1.85667e-08 2.39684e-07 0.0230752

0.0463635 -0.00225608 -4.66885e-07
-0.00225608 0.0412952 -2.17271e-07
-4.66885e-07 -2.17271e-07 0.0365968

0.0370684 -0.00362436 2.47721e-07
-0.00362436 0.0334938 -2.4632e-09
2.47721e-07 -2.4632e-09 0.0346239

0.0351405 0.0036196 5.96663e-08
0.0036196 0.0300073 7.82353e-08
5.96663e-08 7.82353e-08 0.0324597

0.0299655 -0.00315941 1.87007e-09
-0.00315941 0.0246932 5.50055e-08
1.87007e-09 5.50055e-08 0.0232886

0.0230147 0.00403049 -2.41187e-07
0.00403049 0.0277823 -1.81096e-07
-2.41187e-07 -1.81096e-07 0.0203844

0.0210961 -0.00137876 -3.56749e-08
-0.00137876 0.0298988 -7.83109e-08
-3.56749e-08 -7.83109e-08 0.0182536

0.0287492 0.00288891 5.2769e-08
0.00288891 0.0342308 4.04432e-08
5.2769e-08 4.04432e-08 0.032703

0.037015 0.0022363 4.87204e-09
0.0022363 0.0334546 -1.17595e-07
4.87204e-09 -1.17595e-07 0.0343873

0.0281516 0.00198862 6.09479e-09
0.00198862 0.0340634 -8.31901e-08
6.09479e-09 -8.31901e-08 0.0308687

0.0318863 0.00207343 -2.42213e-08
0.00207343 0.0252569 -2.55559e-08
-2.42213e-08 -2.55559e-08 0.0256204

0.0239102 -0.00277482 1.77502e-08
-0.00277482 0.0297683 1.50523e-07
1.77502e-08 1.50523e-07 0.0215639

0.0279017 -0.00376425 4.67191e-08
-0.00376425 0.0218175 1.53882e-07
4.67191e-08 1.53882e-07 0.0180779

0.0293348 -0.00323191 9.58993e-08
-0.00323191 0.0326331 1.28895e-07
9.58993e-08 1.28895e-07 0.0324062

0.0306297 0.00361501 -1.84057e-07
0.00361501 0.0322319 1.58089e-07
-1.84057e-07 1.58089e-07 0.0323739

0.0287116 0.00304811 3.30192e-08
0.00304811 0.0340306 8.32462e-09
3.30192e-08 8.32462e-09 0.0326335

0.0292099 0.00172535 -2.23702e-07
0.00172535 0.0376203 -1.09339e-07
-2.23702e-07 -1.09339e-07 0.0338492

0.0344809 0.00123251 -4.97599e-08
0.00123251 0.0275268 7.93709e-08
-4.97599e-08 7.93709e-08 0.0306779

0.0199626 -0.000605307 1.35616e-07
-0.000605307 0.029664 -1.57367e-07
1.35616e-07 -1.57367e-07 0.0181059

0.0298008 -0.00486292 6.02824e-08
-0.00486292 0.0330527 1.47201e-07
6.02824e-08 1.47201e-07 0.0337448

0.0290846 0.00360039 3.78951e-08
0.00360039 0.0313633 7.33785e-08
3.78951e-08 7.33785e-08 0.0302672

0.0181073 0.000282939 -2.93252e-09
0.000282939 0.0293142 -8.53697e-08
-2.93252e-09 -8.53697e-08 0.0168803

0.0278466 0.00442434 -2.83747e-07
0.00442434 0.0209703 7.03067e-08
-2.83747e-07 7.03067e-08 0.0174566

0.0291945 -0.00302066 -5.55916e-08
-0.00302066 0.0327065 -8.70369e-08
-5.55916e-08 -8.70369e-08 0.0321886

0.0352459 0.000759838 -1.21189e-08
0.000759838 0.027342 1.45409e-08
-1.21189e-08 1.45409e-08 0.0325559

0.0294306 0.00352066 1.56543e-07
0.00352066 0.0252039 6.6559e-08
1.56543e-07 6.6559e-08 0.0231138

0.0396383 0.00170988 2.14866e-07
0.00170988 0.039041 1.64193e-07
2.14866e-07 1.64193e-07 0.0359427

0.0283781 0.00312389 -1.03537e-07
0.00312389 0.0224037 -2.00576e-07
-1.03537e-07 -2.00576e-07 0.0182884

0.0394912 -0.00175073 5.43984e-08
-0.00175073 0.0390669 3.34537e-08
5.43984e-08 3.34537e-08 0.0359079

0.0232634 0.000103459 1.91052e-07
0.000103459 0.0315212 4.05673e-09
1.91052e-07 4.05673e-09 0.0231222

0.0327626 -0.000288532 7.2555e-08
-0.000288532 0.0246625 5.05172e-08
7.2555e-08 5.05172e-08 0.0269691

0.0380572 -0.00212899 1.14618e-07
-0.00212899 0.0304668 3.59796e-09
1.14618e-07 3.59796e-09 0.0347962

0.0292415 0.0032059 -1.78272e-08
0.0032059 0.0332817 -1.13117e-07
-1.78272e-08 -1.13117e-07 0.033346

0.0289537 -0.00177264 1.24609e-07
-0.00177264 0.0366123 -1.94964e-07
1.24609e-07 -1.94964e-07 0.0335027

0.0365868 -0.00108487 6.87983e-08
-0.00108487 0.0264799 1.43793e-08
6.87983e-08 1.43793e-08 0.0338631

0.0311831 -0.00292544 5.91231e-08
-0.00292544 0.0383084 -1.6379e-07
5.91231e-08 -1.6379e-07 0.0348465

0.0381668 -0.000885417 -1.63882e-07
-0.000885417 0.0387334 5.20787e-08
-1.63882e-07 5.20787e-08 0.035838

0.0301834 -0.00394 -3.43315e-09
-0.00394 0.0327138 -8.72908e-08
-3.43315e-09 -8.72908e-08 0.0327664

0.0213348 0.00146955 3.05245e-08
0.00146955 0.0296168 -6.63763e-08
3.05245e-08 -6.63763e-08 0.0182975

0.0293911 -0.00364622 2.19165e-07
-0.00364622 0.0253518 -1.16259e-07
2.19165e-07 -1.16259e-07 0.0231844

0.0328617 -0.00181693 5.32951e-08
-0.00181693 0.03972 -1.15686e-07
5.32951e-08 -1.15686e-07 0.0352437

0.0350944 7.69021e-05 2.84885e-09
7.69021e-05 0.0272253 1.58419e-08
2.84885e-09 1.58419e-08 0.0332543

0.0308212 -0.00282889 -3.18924e-08
-0.00282889 0.0348949 6.7798e-08
-3.18924e-08 6.7798e-08 0.0340871

0.0295378 0.00338889 1.12928e-08
0.00338889 0.0328751 -9.59215e-08
1.12928e-08 -9.59215e-08 0.0333291

0.0264632 -0.00406394 -1.32751e-08
-0.00406394 0.0272647 -4.60014e-09
-1.32751e-08 -4.60014e-09 0.0215867

0.0371741 -0.000957791 2.83461e-07
-0.000957791 0.0416119 -1.47137e-07
2.83461e-07 -1.47137e-07 0.0358891

0.0227131 -0.00423811 1.21235e-07
-0.00423811 0.0272464 -3.01337e-07
1.21235e-07 -3.01337e-07 0.0168792

0.0341863 -0.00252501 -2.08011e-07
-0.00252501 0.0286091 4.37448e-08
-2.08011e-07 4.37448e-08 0.0310474

0.0364288 0.000290053 -1.64835e-08
0.000290053 0.0294406 6.27309e-08
-1.64835e-08 6.27309e-08 0.0341966

0.0396429 0.0023965 1.19428e-07
0.0023965 0.0391147 -2.30929e-07
1.19428e-07 -2.30929e-07 0.0358701

0.0238585 0.00260968 -3.2251e-07
0.00260968 0.0301548 -3.24973e-08
-3.2251e-07 -3.24973e-08 0.0218011

0.0334342 0.00358165 -1.05861e-07
0.00358165 0.0307182 -2.44196e-07
-1.05861e-07 -2.44196e-07 0.0317701

0.0316464 -0.00319473 -1.47038e-07
-0.00319473 0.0265546 6.10448e-08
-1.47038e-07 6.10448e-08 0.0269381

0.0289322 -0.00234111 2.10453e-07
-0.00234111 0.0342381 -7.59144e-09
2.10453e-07 -7.59144e-09 0.0326089

0.0262472 0.00450209 -2.01986e-07
0.00450209 0.0245601 2.70237e-08
-2.01986e-07 2.70237e-08 0.018083

0.028426 -0.00286665 -1.73969e-07
-0.00286665 0.0340357 -4.36752e-08
-1.73969e-07 -4.36752e-08 0.0324521

0.0331525 0.00405907 -1.54887e-07
0.00405907 0.0304676 -9.19721e-08
-1.54887e-07 -9.19721e-08 0.0315452

0.0333384 -0.00331182 8.8238e-08
-0.00331182 0.0283598 -9.85135e-10
8.8238e-08 -9.85135e-10 0.0300488

0.0291643 -0.00329581 -1.33794e-07
-0.00329581 0.031991 -2.40055e-07
-1.33794e-07 -2.40055e-07 0.0304403

0.0314586 -0.0024296 -3.38326e-08
-0.0024296 0.0247213 -1.03922e-07
-3.38326e-08 -1.03922e-07 0.0251588

0.0329595 -0.00246696 3.00137e-08
-0.00246696 0.0267122 8.26987e-08
3.00137e-08 8.26987e-08 0.0285994

0.0294947 -0.0033419 -7.4776e-08
-0.0033419 0.0329537 4.95169e-08
-7.4776e-08 4.95169e-08 0.0334105

0.0261368 0.00463451 -1.58943e-08
0.00463451 0.0255439 1.79129e-07
-1.58943e-08 1.79129e-07 0.0210946

0.0281531 0.00201687 -9.57308e-08
0.00201687 0.0343393 1.79599e-09
-9.57308e-08 1.79599e-09 0.0311125

0.0308897 0.0034813 -6.00739e-08
0.0034813 0.0322585 -2.13969e-09
-6.00739e-08 -2.13969e-09 0.0326033

0.0291607 0.00334817 9.12353e-08
0.00334817 0.0331954 1.35598e-07
9.12353e-08 1.35598e-07 0.0332635

0.0289872 0.00152315 -1.45058e-07
0.00152315 0.0354743 1.8141e-07
-1.45058e-07 1.8141e-07 0.0326986

0.0310563 -0.00106192 -1.54634e-07
-0.00106192 0.0231437 -2.95933e-08
-1.54634e-07 -2.95933e-08 0.0220803

0.0238863 0.0024061 -1.8542e-07
0.0024061 0.030414 6.85599e-08
-1.8542e-07 6.85599e-08 0.0221153

0.0292165 -0.0032044 -4.62301e-08
-0.0032044 0.0326401 2.09716e-07
-4.62301e-08 2.09716e-07 0.0316216

0.0289907 0.0033572 3.4714e-08
0.0033572 0.0309362 6.97649e-08
3.4714e-08 6.97649e-08 0.028571

0.0266155 -0.00459198 -7.64628e-08
-0.00459198 0.0252331 -1.36702e-07
-7.64628e-08 -1.36702e-07 0.0212589

0.0262806 0.00489417 -1.52998e-07
0.00489417 0.0209482 -1.65144e-07
-1.52998e-07 -1.65144e-07 0.0167641

0.0235051 -0.00428735 -4.23386e-08
-0.00428735 0.0274674 5.25866e-08
-4.23386e-08 5.25866e-08 0.0206286

0.0266747 -0.00402815 8.15827e-09
-0.00402815 0.0274854 5.51882e-08
8.15827e-09 5.51882e-08 0.0220524

0.0353688 -0.000906716 -9.07886e-08
-0.000906716 0.0273938 2.26742e-08
-9.07886e-08 2.26742e-08 0.0326582

0.0260479 0.00392217 1.0752e-07
0.00392217 0.0280955 -1.89176e-07
1.0752e-07 -1.89176e-07 0.0221049

0.0307917 0.00171693 -1.11873e-07
0.00171693 0.0233628 7.14899e-08
-1.11873e-07 7.14899e-08 0.022028

0.021433 0.00172219 9.18296e-08
0.00172219 0.0302442 1.202e-07
9.18296e-08 1.202e-07 0.0211351

0.0242653 -0.00288973 -7.6985e-08
-0.00288973 0.0299552 -2.22798e-08
-7.6985e-08 -2.22798e-08 0.0220886

0.0313488 -0.000131242 1.41853e-07
-0.000131242 0.0392763 -1.72566e-07
1.41853e-07 -1.72566e-07 0.0346741

0.0230607 0.000294717 1.4649e-07
0.000294717 0.0314641 2.50263e-07
1.4649e-07 2.50263e-07 0.0230648

0.0227795 0.00400212 1.63618e-08
0.00400212 0.0281306 -1.96381e-07
1.63618e-08 -1.96381e-07 0.0206404

0.0288918 0.00158567 1.48664e-10
0.00158567 0.0358367 -1.5103e-07
1.48664e-10 -1.5103e-07 0.0328971

0.0293193 -0.00358064 -1.02258e-07
-0.00358064 0.0251326 -1.22332e-07
-1.02258e-07 -1.22332e-07 0.0232424

0.0369802 0.00273307 4.79561e-09
0.00273307 0.0297268 -1.15751e-07
4.79561e-09 -1.15751e-07 0.0338051

0.0371788 0.00348309 7.77699e-09
0.00348309 0.0334261 2.09457e-08
7.77699e-09 2.09457e-08 0.0346555

0.0345478 -0.0024466 -3.03773e-08
-0.0024466 0.0285331 -1.3853e-08
-3.03773e-08 -1.3853e-08 0.0313824

0.0390593 -0.000266065 -2.00375e-08
-0.000266065 0.0339277 -2.53323e-07
-2.00375e-08 -2.53323e-07 0.0352115

0.031483 -0.00418783 -2.37565e-08
-0.00418783 0.0317858 1.94934e-08
-2.37565e-08 1.94934e-08 0.0321599

0.0294658 0.00300816 6.37849e-08
0.00300816 0.0223297 -1.71744e-07
6.37849e-08 -1.71744e-07 0.021069

0.0302335 0.00397304 1.11414e-09
0.00397304 0.0326672 -1.14599e-07
1.11414e-09 -1.14599e-07 0.0327236

0.0302813 0.00384688 -4.40519e-08
0.00384688 0.0326109 -1.08336e-07
-4.40519e-08 -1.08336e-07 0.0326784

0.0262474 0.00396233 1.5795e-07
0.00396233 0.027771 -1.64782e-07
1.5795e-07 -1.64782e-07 0.0218674

0.0344541 0.00357702 -4.54934e-08
0.00357702 0.0317831 -4.28216e-08
-4.54934e-08 -4.28216e-08 0.032835

0.0302523 0.000452472 -1.57552e-07
0.000452472 0.0204305 -2.49408e-08
-1.57552e-07 -2.49408e-08 0.0205757

0.0331897 0.00420073 2.18429e-09
0.00420073 0.0323767 3.91919e-09
2.18429e-09 3.91919e-09 0.0334874

0.0305041 -0.00165438 1.31259e-07
-0.00165438 0.0366199 -1.94686e-07
1.31259e-07 -1.94686e-07 0.0336663

0.0373636 0.00323269 -2.07028e-07
0.00323269 0.033463 -8.37389e-08
-2.07028e-07 -8.37389e-08 0.0346677

0.0307408 -0.00389614 9.24245e-08
-0.00389614 0.0322768 1.28166e-07
9.24245e-08 1.28166e-07 0.0326839

0.0293772 -0.000644949 4.38941e-08
-0.000644949 0.036907 1.00573e-07
4.38941e-08 1.00573e-07 0.0328514

0.0288162 -0.00315286 1.9453e-07
-0.00315286 0.0221424 1.48177e-07
1.9453e-07 1.48177e-07 0.0187612

0.0290063 0.00384508 -1.54496e-07
0.00384508 0.025581 1.82874e-07
-1.54496e-07 1.82874e-07 0.0230757

0.0217038 0.00189121 2.81813e-07
0.00189121 0.0300651 9.6715e-09
2.81813e-07 9.6715e-09 0.0210864

0.0349943 -0.000161633 -1.47411e-07
-0.000161633 0.0273935 2.27e-08
-1.47411e-07 2.27e-08 0.0333053

0.0344238 4.07792e-07 -4.9733e-08
4.07792e-07 0.0272783 -5.33528e-08
-4.9733e-08 -5.33528e-08 0.0320449

0.0291694 0.00304008 1.51494e-07
0.00304008 0.0326837 -1.16837e-07
1.51494e-07 -1.16837e-07 0.0321364

0.0314536 0.00316641 2.34894e-08
0.00316641 0.0342539 4.21461e-08
2.34894e-08 4.21461e-08 0.0340618

0.0291726 -0.00320428 -1.02335e-07
-0.00320428 0.0332427 1.54633e-07
-1.02335e-07 1.54633e-07 0.0333827

0.0287771 -8.56814e-05 2.07446e-08
-8.56814e-05 0.0367089 5.47307e-08
2.07446e-08 5.47307e-08 0.0325292

0.0294684 0.00337602 7.07641e-08
0.00337602 0.0330788 6.77436e-08
7.07641e-08 6.77436e-08 0.0333584

0.0328634 -0.0013466 -2.2358e-08
-0.0013466 0.025365 1.11549e-07
-2.2358e-08 1.11549e-07 0.0278324

0.0263582 -0.00425513 -1.10609e-07
-0.00425513 0.0281834 1.56181e-07
-1.10609e-07 1.56181e-07 0.0242706

0.0363011 -0.000331515 5.29278e-08
-0.000331515 0.0293869 1.07187e-07
5.29278e-08 1.07187e-07 0.0340316

0.0267843 -0.00444632 -8.6371e-08
-0.00444632 0.0251937 -1.22591e-07
-8.6371e-08 -1.22591e-07 0.0209518

0.0309033 0.00250718 -1.29354e-07
0.00250718 0.0350669 2.20682e-08
-1.29354e-07 2.20682e-08 0.0340714

0.035117 -0.00349692 -6.1554e-08
-0.00349692 0.0303917 3.19584e-08
-6.1554e-08 3.19584e-08 0.0326184

0.030506 -0.00125015 1.68174e-08
-0.00125015 0.0229811 7.48508e-10
1.68174e-08 7.48508e-10 0.0214811

0.0371509 -0.00307728 -1.01104e-07
-0.00307728 0.0316567 1.42603e-07
-1.01104e-07 1.42603e-07 0.0339914

0.0349733 0.000322033 -1.20217e-07
0.000322033 0.0275587 -1.28347e-07
-1.20217e-07 -1.28347e-07 0.0334337

0.0358467 -0.00308854 4.49816e-08
-0.00308854 0.0332614 1.27884e-07
4.49816e-08 1.27884e-07 0.0341469

0.0349323 -0.0034107 1.56627e-08
-0.0034107 0.0295984 -1.57337e-07
1.56627e-08 -1.57337e-07 0.0321817

0.0349138 -0.00113396 2.14353e-08
-0.00113396 0.0278536 2.04631e-07
2.14353e-08 2.04631e-07 0.0323451

0.0314934 -0.0030623 -1.15411e-07
-0.0030623 0.0344517 -3.88869e-08
-1.15411e-07 -3.88869e-08 0.0341501

0.0292391 -0.00407159 3.28896e-08
-0.00407159 0.026903 1.53948e-07
3.28896e-08 1.53948e-07 0.0253494

0.0349963 -0.00324372 5.77033e-08
-0.00324372 0.0299191 8.39852e-09
5.77033e-08 8.39852e-09 0.0321988

0.0314666 0.00140941 1.72702e-07
0.00140941 0.0233299 8.60834e-08
1.72702e-07 8.60834e-08 0.0244867

0.0336685 0.00348427 -8.00472e-09
0.00348427 0.0334474 1.97012e-08
-8.00472e-09 1.97012e-08 0.0336536

0.0298965 -0.00496671 -7.00017e-08
-0.00496671 0.0330823 4.93466e-08
-7.00017e-08 4.93466e-08 0.0338608

0.0300469 0.00492035 -9.77956e-08
0.00492035 0.0329443 7.50583e-08
-9.77956e-08 7.50583e-08 0.0338278

0.0276922 -0.00374154 6.64121e-08
-0.00374154 0.0348108 -9.34586e-08
6.64121e-08 -9.34586e-08 0.0337703

0.0279302 0.00354696 7.69006e-08
0.00354696 0.0348393 1.54758e-07
7.69006e-08 1.54758e-07 0.0337352

0.0364333 -0.00115347 -7.63956e-08
-0.00115347 0.0263462 -1.0424e-07
-7.63956e-08 -1.0424e-07 0.0337616

0.0362024 0.00124761 8.30879e-09
0.00124761 0.0265674 2.87548e-08
8.30879e-09 2.87548e-08 0.0337243

0.0350384 -0.00130677 6.79908e-10
-0.00130677 0.0284716 -4.67626e-08
6.79908e-10 -4.67626e-08 0.0325795

0.03444 0.00425877 -6.80226e-08
0.00425877 0.0342929 4.04984e-08
-6.80226e-08 4.04984e-08 0.0348159

0.0343159 -0.00435679 9.98162e-08
-0.00435679 0.0342848 -1.00922e-07
9.98162e-08 -1.00922e-07 0.0348043

0.0305248 0.00209336 -1.11523e-07
0.00209336 0.0381688 -1.32495e-08
-1.11523e-07 -1.32495e-08 0.0348531

0.0306677 -0.00205959 -8.68832e-08
-0.00205959 0.0380982 -2.94241e-08
-8.68832e-08 -2.94241e-08 0.0348404

0.0395048 -0.000529297 5.77486e-08
-0.000529297 0.0328523 2.49463e-08
5.77486e-08 2.49463e-08 0.0352612

0.0397073 0.000513706 1.35508e-07
0.000513706 0.0326252 -3.41011e-08
1.35508e-07 -3.41011e-08 0.0353064

0.023968 0.00127622 -8.0541e-10
0.00127622 0.0320075 -2.04666e-08
-8.0541e-10 -2.04666e-08 0.0251875

0.0311662 -0.00326567 -5.56449e-09
-0.00326567 0.0322446 -9.08317e-08
-5.56449e-09 -9.08317e-08 0.0328055

0.027784 -0.00478549 -1.76209e-08
-0.00478549 0.0333161 1.52697e-07
-1.76209e-08 1.52697e-07 0.033459

0.0333628 -0.000610407 -2.30369e-08
-0.000610407 0.0264065 1.10437e-07
-2.30369e-08 1.10437e-07 0.0284518

0.0381913 -0.00225144 4.52116e-08
-0.00225144 0.0307982 3.5983e-09
4.52116e-08 3.5983e-09 0.0348962

0.0382392 0.00218356 2.58578e-08
0.00218356 0.0309113 1.29543e-07
2.58578e-08 1.29543e-07 0.0349283

0.0360878 1.561e-05 -1.0549e-07
1.561e-05 0.0251302 -1.54521e-07
-1.0549e-07 -1.54521e-07 0.033474

0.0242439 0.00302951 -2.93179e-07
0.00302951 0.0304017 2.24547e-08
-2.93179e-07 2.24547e-08 0.0242801

0.0276786 0.00475626 -1.26159e-07
0.00475626 0.0333168 1.26446e-07
-1.26159e-07 1.26446e-07 0.0333968

0.0286787 -0.003076 -1.04472e-08
-0.003076 0.034265 -3.56646e-09
-1.04472e-08 -3.56646e-09 0.0327561

0.0310896 0.00303618 -5.43358e-08
0.00303618 0.0251497 5.58646e-08
-5.43358e-08 5.58646e-08 0.0254704

0.0372308 0.00316586 -7.07338e-08
0.00316586 0.0315441 -4.74192e-08
-7.07338e-08 -4.74192e-08 0.0340793

0.0292305 -0.00406784 -1.076e-07
-0.00406784 0.0269392 -1.14271e-07
-1.076e-07 -1.14271e-07 0.0253245

0.0364057 -0.000453762 5.51502e-08
-0.000453762 0.0296953 -1.27166e-08
5.51502e-08 -1.27166e-08 0.0341346

0.0273493 -0.00449502 -1.85924e-07
-0.00449502 0.0333995 -8.04424e-08
-1.85924e-07 -8.04424e-08 0.0334456

0.0240408 0.00107915 2.34146e-07
0.00107915 0.0322486 9.1717e-08
2.34146e-07 9.1717e-08 0.0255091

0.0242327 0.00282709 -8.92207e-08
0.00282709 0.0307054 2.63225e-07
-8.92207e-08 2.63225e-07 0.024548

0.0267958 0.00459508 -1.99762e-07
0.00459508 0.0240446 -8.79836e-08
-1.99762e-07 -8.79836e-08 0.0182159

0.0298546 0.000199969 8.01919e-08
0.000199969 0.0200906 -9.47586e-08
8.01919e-08 -9.47586e-08 0.0193649

0.0319125 -0.00302387 -1.15848e-07
-0.00302387 0.0341662 -9.084e-08
-1.15848e-07 -9.084e-08 0.0340392

0.0229213 0.00400024 4.51324e-08
0.00400024 0.0276634 -1.439e-07
4.51324e-08 -1.439e-07 0.0176553

0.0292137 0.00310128 1.45535e-07
0.00310128 0.0327675 -1.25513e-07
1.45535e-07 -1.25513e-07 0.031016

0.0315992 -0.0006946 1.11676e-07
-0.0006946 0.0231628 -2.2599e-08
1.11676e-07 -2.2599e-08 0.024488

0.0327654 0.00146485 9.81278e-09
0.00146485 0.02535 -2.8372e-08
9.81278e-09 -2.8372e-08 0.0276164

0.0359826 5.60234e-05 -7.83343e-08
5.60234e-05 0.0249633 1.47322e-07
-7.83343e-08 1.47322e-07 0.03339

0.0279701 -0.00380522 -1.4899e-07
-0.00380522 0.0349531 7.11273e-08
-1.4899e-07 7.11273e-08 0.0338197

0.0393162 -0.000843846 -3.27949e-07
-0.000843846 0.0416043 1.64774e-07
-3.27949e-07 1.64774e-07 0.0361932

0.0298718 0.00493896 9.95841e-08
0.00493896 0.0329607 -9.35176e-08
9.95841e-08 -9.35176e-08 0.0337828

0.030292 0.000214491 1.45939e-07
0.000214491 0.0203991 -4.99915e-09
1.45939e-07 -4.99915e-09 0.0172783

0.0266773 -0.0042512 -5.25319e-08
-0.0042512 0.0281367 1.44734e-07
-5.25319e-08 1.44734e-07 0.0244406

0.0277509 0.00481558 1.72494e-07
0.00481558 0.0333196 -1.10896e-07
1.72494e-07 -1.10896e-07 0.0334591

0.0279484 -0.00145864 -2.02017e-08
-0.00145864 0.0350892 1.93545e-07
-2.02017e-08 1.93545e-07 0.0314539

0.0244681 -0.00330568 1.01196e-07
-0.00330568 0.0300191 1.52514e-08
1.01196e-07 1.52514e-08 0.0242202

0.0279949 0.00377964 -9.64149e-08
0.00377964 0.034914 1.99277e-08
-9.64149e-08 1.99277e-08 0.0337905

0.0313656 -0.00341002 -1.12035e-07
-0.00341002 0.027012 1.40025e-07
-1.12035e-07 1.40025e-07 0.0269948

0.0402817 0.00140877 -8.25938e-08
0.00140877 0.0406194 3.20744e-07
-8.25938e-08 3.20744e-07 0.0361736

0.0258843 0.00400355 2.67935e-07
0.00400355 0.0289583 1.07085e-07
2.67935e-07 1.07085e-07 0.0245142

0.0366817 0.00110292 -1.35391e-09
0.00110292 0.0263567 3.95444e-08
-1.35391e-09 3.95444e-08 0.0339015

0.0333458 0.00398442 1.68093e-07
0.00398442 0.0321194 1.19909e-07
1.68093e-07 1.19909e-07 0.0333193

0.0292321 0.00306752 1.06934e-07
0.00306752 0.0326096 -1.11107e-07
1.06934e-07 -1.11107e-07 0.0321616

0.0343679 -0.00431049 4.96157e-08
-0.00431049 0.0345082 -4.2755e-08
4.96157e-08 -4.2755e-08 0.0348884

0.0354932 -0.00306386 -6.86449e-08
-0.00306386 0.0305937 1.75204e-08
-6.86449e-08 1.75204e-08 0.0327541

0.0333693 0.0013876 -6.07798e-08
0.0013876 0.0395811 -7.1798e-08
-6.07798e-08 -7.1798e-08 0.035006

0.029201 -0.00307968 -1.07916e-07
-0.00307968 0.0328783 -3.45677e-09
-1.07916e-07 -3.45677e-09 0.0313872

0.0292685 -0.0012324 8.82445e-08
-0.0012324 0.0192892 -9.20222e-08
8.82445e-08 -9.20222e-08 0.0164143

0.0287821 -0.00183257 2.08947e-07
-0.00183257 0.018416 1.26391e-07
2.08947e-07 1.26391e-07 0.0161992

0.0385324 0.00220236 -1.74442e-07
0.00220236 0.0332419 -1.44539e-07
-1.74442e-07 -1.44539e-07 0.0347664

0.0280597 0.00294566 -1.30381e-07
0.00294566 0.0323397 -3.16207e-07
-1.30381e-07 -3.16207e-07 0.0295219

0.0320713 0.00383488 1.92304e-07
0.00383488 0.0309645 -3.02168e-08
1.92304e-07 -3.02168e-08 0.0314582

0.0320544 8.98873e-05 -4.62152e-08
8.98873e-05 0.0245801 6.50293e-08
-4.62152e-08 6.50293e-08 0.0248914

0.030241 0.000865813 -2.09816e-08
0.000865813 0.0385842 -8.1494e-08
-2.09816e-08 -8.1494e-08 0.0340999

0.0354065 0.00219126 8.21794e-08
0.00219126 0.0293267 8.58703e-08
8.21794e-08 8.58703e-08 0.0328621

0.0248146 -0.00333949 -1.4586e-07
-0.00333949 0.0300106 8.57532e-08
-1.4586e-07 8.57532e-08 0.0244733

0.0286541 -0.000337874 1.06756e-07
-0.000337874 0.0366617 6.29677e-08
1.06756e-07 6.29677e-08 0.0323996

0.0252185 0.00174043 -2.6173e-07
0.00174043 0.0320342 -2.83047e-08
-2.6173e-07 -2.83047e-08 0.0256874

0.0332847 -0.00391014 2.05852e-08
-0.00391014 0.0305006 2.282e-08
2.05852e-08 2.282e-08 0.0315962

0.0290688 -0.00389653 3.50204e-08
-0.00389653 0.0282042 1.61234e-07
3.50204e-08 1.61234e-07 0.025717

0.0261527 0.00409948 1.91862e-07
0.00409948 0.0285501 -1.05976e-07
1.91862e-07 -1.05976e-07 0.0243214

0.0452876 -0.0020172 5.82926e-08
-0.0020172 0.0396079 -3.55104e-08
5.82926e-08 -3.55104e-08 0.0363701

0.03167 0.000256474 2.08319e-09
0.000256474 0.039331 -6.41349e-08
2.08319e-09 -6.41349e-08 0.0347727

0.0306204 0.00265097 1.55514e-07
0.00265097 0.0384462 8.22276e-08
1.55514e-07 8.22276e-08 0.0349613

0.0387689 0.00209448 -3.17541e-08
0.00209448 0.0302257 -1.07954e-07
-3.17541e-08 -1.07954e-07 0.0349461

0.0313749 -0.00345062 -9.65504e-08
-0.00345062 0.0321447 -1.62965e-07
-9.65504e-08 -1.62965e-07 0.0325766

0.0318224 0.00233645 6.85283e-08
0.00233645 0.0256237 -1.24738e-07
6.85283e-08 -1.24738e-07 0.0258831

0.0349963 -0.000708007 6.66337e-08
-0.000708007 0.0415779 -3.1974e-07
6.66337e-08 -3.1974e-07 0.035731

0.0357923 -0.00251841 6.38148e-08
-0.00251841 0.0295542 1.06694e-07
6.38148e-08 1.06694e-07 0.0332618

0.033302 -0.00204002 -9.03399e-10
-0.00204002 0.0266563 3.64087e-09
-9.03399e-10 3.64087e-09 0.0286791

0.0252557 0.00151113 2.10738e-08
0.00151113 0.032279 8.38509e-08
2.10738e-08 8.38509e-08 0.0259535

0.0268081 -0.00334537 -1.91366e-07
-0.00334537 0.0300134 4.89089e-09
-1.91366e-07 4.89089e-09 0.0251907

0.0364811 -0.00336069 8.6217e-08
-0.00336069 0.0352904 -2.21622e-07
8.6217e-08 -2.21622e-07 0.0347458

0.0284797 0.00415287 -7.89483e-08
0.00415287 0.0277197 -2.074e-07
-7.89483e-08 -2.074e-07 0.0254712

0.0372472 -0.0033454 1.00655e-08
-0.0033454 0.0333252 2.88056e-08
1.00655e-08 2.88056e-08 0.0346152

0.0322108 0.000337943 1.70003e-07
0.000337943 0.0248659 9.05426e-08
1.70003e-07 9.05426e-08 0.025441

0.0191632 -0.00368975 -3.03146e-08
-0.00368975 0.0275297 -6.94453e-08
-3.03146e-08 -6.94453e-08 0.016313

0.0292137 -0.00380424 3.22146e-08
-0.00380424 0.0281963 1.52505e-07
3.22146e-08 1.52505e-07 0.0258111

0.0230486 0.00412808 3.71123e-08
0.00412808 0.0280239 3.19529e-07
3.71123e-08 3.19529e-07 0.0175945

0.0296944 -0.00155919 -1.79936e-09
-0.00155919 0.0375371 1.20266e-07
-1.79936e-09 1.20266e-07 0.0336522

0.0243632 -0.00179403 -1.9381e-07
-0.00179403 0.0318769 1.75543e-07
-1.9381e-07 1.75543e-07 0.0254513

0.0424385 -0.00323367 -1.25665e-07
-0.00323367 0.0423774 -3.11698e-07
-1.25665e-07 -3.11698e-07 0.0363784

0.02634 0.00309159 1.69732e-07
0.00309159 0.0307056 2.63531e-07
1.69732e-07 2.63531e-07 0.0254811

0.0334807 -0.00432364 -5.6208e-08
-0.00432364 0.0326631 8.91708e-08
-5.6208e-08 8.91708e-08 0.03357

0.0240836 -0.00155108 8.04389e-08
-0.00155108 0.0318913 6.9396e-08
8.04389e-08 6.9396e-08 0.0251801

0.0362263 -0.00253868 -2.01377e-08
-0.00253868 0.0295149 -1.59706e-08
-2.01377e-08 -1.59706e-08 0.033523

0.026677 0.00310511 1.17151e-07
0.00310511 0.0303986 1.59101e-08
1.17151e-07 1.59101e-08 0.0253164

0.0343474 -0.000654061 -9.27725e-08
-0.000654061 0.0272803 -5.35021e-08
-9.27725e-08 -5.35021e-08 0.0305813

0.0188925 -0.00387195 -1.26823e-08
-0.00387195 0.029805 -1.09601e-07
-1.26823e-08 -1.09601e-07 0.0129628

0.0280027 0.00275492 -8.86836e-08
0.00275492 0.0326328 -7.57432e-09
-8.86836e-08 -7.57432e-09 0.0305772

0.0314416 -0.0025128 -1.57619e-09
-0.0025128 0.0247252 5.50289e-08
-1.57619e-09 5.50289e-08 0.0254091

0.0391213 -0.00286936 2.70797e-07
-0.00286936 0.0322244 -1.58484e-07
2.70797e-07 -1.58484e-07 0.0349401

0.0287566 0.0041245 -1.12061e-07
0.0041245 0.0273034 2.57481e-07
-1.12061e-07 2.57481e-07 0.0252585

0.0313651 -0.00391982 1.39349e-08
-0.00391982 0.0285451 -4.92989e-08
1.39349e-08 -4.92989e-08 0.0287342

0.0354123 0.0027641 -4.69659e-08
0.0027641 0.0308591 1.36414e-07
-4.69659e-08 1.36414e-07 0.0330425

0.0297767 -0.00370411 7.52151e-08
-0.00370411 0.0329415 1.46428e-07
7.52151e-08 1.46428e-07 0.0333458

0.0270584 -0.00341079 -7.81451e-08
-0.00341079 0.0299864 9.10373e-08
-7.81451e-08 9.10373e-08 0.0254003

0.0284443 0.00377178 -2.78432e-07
0.00377178 0.0289432 9.18124e-08
-2.78432e-07 9.18124e-08 0.0258902

0.0313749 0.00341368 1.65887e-07
0.00341368 0.0269024 3.2946e-08
1.65887e-07 3.2946e-08 0.026969

0.0365391 -0.0019445 4.93767e-09
-0.0019445 0.0306281 3.72467e-08
4.93767e-09 3.72467e-08 0.0336387

0.0255366 -0.00216357 -9.79881e-08
-0.00216357 0.0318056 1.83762e-07
-9.79881e-08 1.83762e-07 0.0258566

0.034703 -0.00231411 -4.62855e-08
-0.00231411 0.0283374 -4.98776e-08
-4.62855e-08 -4.98776e-08 0.0314591

0.034189 0.00222328 2.57911e-08
0.00222328 0.0274349 -2.0139e-07
2.57911e-08 -2.0139e-07 0.0306069

0.0336472 -0.00124571 6.59896e-08
-0.00124571 0.039302 -1.7172e-07
6.59896e-08 -1.7172e-07 0.0349302

0.032076 -0.00174692 2.89451e-08
-0.00174692 0.0253332 1.13468e-07
2.89451e-08 1.13468e-07 0.025874

0.0250045 7.97931e-05 5.70259e-08
7.97931e-05 0.0331552 -1.14701e-07
5.70259e-08 -1.14701e-07 0.0268641

0.0332508 0.00242917 1.42975e-08
0.00242917 0.0271966 -2.12119e-08
1.42975e-08 -2.12119e-08 0.0289251

0.0311209 0.00359921 -1.2255e-07
0.00359921 0.0272955 -8.15782e-08
-1.2255e-07 -8.15782e-08 0.0271255

0.0252982 -0.00204135 1.31607e-07
-0.00204135 0.031868 7.06033e-08
1.31607e-07 7.06033e-08 0.0256138

0.0252038 -0.000154669 2.4009e-07
-0.000154669 0.0332957 8.32935e-08
2.4009e-07 8.32935e-08 0.0271469

0.0354156 0.00385808 1.18862e-07
0.00385808 0.0329979 -1.67773e-07
1.18862e-07 -1.67773e-07 0.0338983

0.0275886 -0.00143125 9.32778e-08
-0.00143125 0.0353455 -5.59668e-08
9.32778e-08 -5.59668e-08 0.0314451

0.0312374 -0.00348429 5.93129e-08
-0.00348429 0.0269805 -1.08128e-07
5.93129e-08 -1.08128e-07 0.0270126

0.0313002 0.00277298 4.54412e-08
0.00277298 0.0249247 -1.73184e-07
4.54412e-08 -1.73184e-07 0.0252488

0.0345857 0.00311861 1.33219e-07
0.00311861 0.0293894 -2.99829e-09
1.33219e-07 -2.99829e-09 0.0317988

0.0279941 0.000716792 3.34238e-09
0.000716792 0.0360427 1.9757e-07
3.34238e-09 1.9757e-07 0.0318211

0.0287193 0.00378196 1.02888e-07
0.00378196 0.0285622 -1.04274e-07
1.02888e-07 -1.04274e-07 0.0257306

0.0367928 0.00305746 -3.14084e-08
0.00305746 0.0361275 9.00569e-08
-3.14084e-08 9.00569e-08 0.0349098

0.0226823 -0.00754619 -7.67388e-08
-0.00754619 0.0186894 2.4237e-07
-7.67388e-08 2.4237e-07 0.0108463

0.0332944 -0.00328788 6.63748e-08
-0.00328788 0.0286352 -4.50967e-08
6.63748e-08 -4.50967e-08 0.0301269

0.0207287 0.000913407 2.01278e-07
0.000913407 0.0300345 -1.49137e-07
2.01278e-07 -1.49137e-07 0.0183484

0.0313036 -0.00378205 9.29629e-08
-0.00378205 0.0292345 9.19944e-08
9.29629e-08 9.19944e-08 0.0290344

0.00153968 -0.00651928 -6.75206e-09
-0.00651928 0.0275704 2.95827e-08
-6.75206e-09 2.95827e-08 0.00290862

0.00147007 0.00636884 3.29099e-08
0.00636884 0.0275885 1.44188e-07
3.29099e-08 1.44188e-07 0.00300158

0.0119855 0.0145061 -7.1987e-09
0.0145061 0.0175338 -9.02689e-09
-7.1987e-09 -9.02689e-09 0.00277149

0.0121669 -0.0144967 -2.95098e-08
-0.0144967 0.0172253 3.70041e-08
-2.95098e-08 3.70041e-08 0.0028041

0.029343 -0.000164106 -1.33874e-07
-0.000164106 0 0
-1.33874e-07 0 0.00295293

0.0235941 -0.0112835 -1.72461e-07
-0.0112835 0.00539589 8.30529e-08
-1.72461e-07 8.30529e-08 0.00297866

0.0236361 0.0113498 6.96208e-08
0.0113498 0.00544998 3.35276e-08
6.96208e-08 3.35276e-08 0.00303979

0.0369138 0.00191141 -8.54811e-08
0.00191141 0.0302453 1.25467e-07
-8.54811e-08 1.25467e-07 0.0338808

0.0387079 0.00340991 2.83931e-08
0.00340991 0.0366191 1.75978e-07
2.83931e-08 1.75978e-07 0.0355812

0.0344192 0.000872475 2.89613e-08
0.000872475 0.0274599 8.683e-08
2.89613e-08 8.683e-08 0.0316911

0.0328768 0.00285051 -1.48983e-08
0.00285051 0.0268923 3.13981e-08
-1.48983e-08 3.13981e-08 0.0286494

0.0257034 0.00231352 -2.0004e-07
0.00231352 0.0323705 9.72779e-08
-2.0004e-07 9.72779e-08 0.0276386

0.030716 0.00376949 -3.86455e-08
0.00376949 0.0276792 -2.05844e-07
-3.86455e-08 -2.05844e-07 0.0271207

0.033309 -0.00390354 2.77724e-08
-0.00390354 0.0304691 3.31689e-08
2.77724e-08 3.31689e-08 0.0316331

0.0309768 0.00365485 3.71776e-08
0.00365485 0.02729 2.59942e-07
3.71776e-08 2.59942e-07 0.0269283

0.0249898 -0.000371539 -1.88521e-08
-0.000371539 0.0331262 -1.17132e-07
-1.88521e-08 -1.17132e-07 0.0268462

0.0385499 -0.00348462 -8.43219e-08
-0.00348462 0.0368827 4.68027e-09
-8.43219e-08 4.68027e-09 0.0355868

0.0251784 -0.000635803 -2.60415e-07
-0.000635803 0.0332142 4.08335e-08
-2.60415e-07 4.08335e-08 0.0271058

0.0360204 0.00304747 -9.65499e-09
0.00304747 0.0330143 1.75446e-07
-9.65499e-09 1.75446e-07 0.0341011

0.0296265 0.00347629 3.93733e-08
0.00347629 0.0248491 -1.72472e-07
3.93733e-08 -1.72472e-07 0.0230254

0.0304998 -0.00171403 1.14537e-07
-0.00171403 0.0375156 -1.83987e-07
1.14537e-07 -1.83987e-07 0.0347397

0.0339238 0.00180485 9.73328e-09
0.00180485 0.0271847 -2.1283e-08
9.73328e-09 -2.1283e-08 0.0303238

0.0312047 -0.00392075 -5.62443e-08
-0.00392075 0.0285343 8.54236e-08
-5.62443e-08 8.54236e-08 0.0286177

0.0315875 -0.00322184 7.62542e-08
-0.00322184 0.0266946 -7.55416e-08
7.62542e-08 -7.55416e-08 0.0270509

0.0384819 -0.00214188 -3.61782e-08
-0.00214188 0.03342 -5.94849e-08
-3.61782e-08 -5.94849e-08 0.034748

0.032685 0.00366436 4.24549e-08
0.00366436 0.0292354 1.65713e-07
4.24549e-08 1.65713e-07 0.0301583

0.0326487 0.00313784 -7.90204e-08
0.00313784 0.0272555 -7.9931e-08
-7.90204e-08 -7.9931e-08 0.0287913

0.0269582 -0.00036519 -9.51675e-08
-0.00036519 0.0349911 5.43523e-08
-9.51675e-08 5.43523e-08 0.0301713

0.0259027 0.00076581 9.32376e-08
0.00076581 0.0340078 -2.35062e-07
9.32376e-08 -2.35062e-07 0.0288263

0.0327819 0.00034538 -6.80665e-09
0.00034538 0.0248647 7.99449e-08
-6.80665e-09 7.99449e-08 0.027447

0.0313912 -0.000945154 -8.41018e-08
-0.000945154 0.0230065 -3.74319e-09
-8.41018e-08 -3.74319e-09 0.023895

0.0308843 0.00398572 -3.6137e-08
0.00398572 0.0288095 1.26172e-07
-3.6137e-08 1.26172e-07 0.0286275

0.033122 -0.00343182 5.21469e-08
-0.00343182 0.0285439 8.66117e-08
5.21469e-08 8.66117e-08 0.0299727

0.0364159 -0.00282387 -1.9839e-07
-0.00282387 0.032736 5.36104e-08
-1.9839e-07 5.36104e-08 0.0341474

0.0292096 -0.00412828 7.30487e-08
-0.00412828 0.0291961 9.04883e-08
7.30487e-08 9.04883e-08 0.0277571

0.0269752 -0.00362118 -1.78532e-07
-0.00362118 0.0304686 -1.71599e-08
-1.78532e-07 -1.71599e-08 0.0272167

0.0283299 0.00390005 -3.21345e-07
0.00390005 0.0299047 7.68428e-09
-3.21345e-07 7.68428e-09 0.0277553

0.0259044 -0.00124906 -8.62243e-08
-0.00124906 0.0336178 -1.10174e-08
-8.62243e-08 -1.10174e-08 0.0285193

0.0266577 -0.000202114 -9.91105e-08
-0.000202114 0.0349169 -3.45892e-08
-9.91105e-08 -3.45892e-08 0.0299232

0.0277655 0.000752903 -2.92386e-08
0.000752903 0.0360422 1.97787e-07
-2.92386e-08 1.97787e-07 0.0316616

0.0262504 -0.00274976 1.13595e-07
-0.00274976 0.0319668 -1.31668e-07
1.13595e-07 -1.31668e-07 0.0277139

0.0345862 0.00317599 4.3469e-08
0.00317599 0.0291717 1.66e-07
4.3469e-08 1.66e-07 0.0316378

0.0339134 -0.0012613 -7.54657e-08
-0.0012613 0.0269335 -1.07128e-08
-7.54657e-08 -1.07128e-08 0.0302052

0.0257934 0.000974416 1.06004e-07
0.000974416 0.0338338 -2.7553e-08
1.06004e-07 -2.7553e-08 0.0285453

0.0278272 -0.00127011 -6.49046e-08
-0.00127011 0.0354013 -8.82467e-08
-6.49046e-08 -8.82467e-08 0.0313694

0.0272962 -0.00213747 6.80977e-08
-0.00213747 0.0336614 -1.09638e-07
6.80977e-08 -1.09638e-07 0.0302291

0.0327812 -0.00107737 7.39481e-08
-0.00107737 0.025323 -6.54372e-08
7.39481e-08 -6.54372e-08 0.0272576

0.0333187 -0.00427089 -8.3563e-08
-0.00427089 0.0323842 -1.65566e-07
-8.3563e-08 -1.65566e-07 0.0335326

0.0264918 0.00121987 -1.22024e-07
0.00121987 0.0338399 -3.04295e-08
-1.22024e-07 -3.04295e-08 0.0288194

0.0398133 -0.00243188 -1.46225e-08
-0.00243188 0.035221 -2.18224e-07
-1.46225e-08 -2.18224e-07 0.0354641

0.0188907 0.00316511 -5.45867e-08
0.00316511 0.0278792 3.10481e-07
-5.45867e-08 3.10481e-07 0.0162748

0.0338192 -0.00352277 2.95029e-08
-0.00352277 0.0334977 1.45384e-08
2.95029e-08 1.45384e-08 0.0337295

0.0353472 -0.00399964 -7.21593e-09
-0.00399964 0.0330495 -5.62582e-08
-7.21593e-09 -5.62582e-08 0.0339073

0.026689 -9.03495e-05 1.07527e-07
-9.03495e-05 0.034922 -2.985e-08
1.07527e-07 -2.985e-08 0.0299314

0.033247 -0.00217691 1.21173e-07
-0.00217691 0.0271563 -1.81753e-07
1.21173e-07 -1.81753e-07 0.0289061

0.0293507 0.00168484 -2.15976e-07
0.00168484 0.0358235 -1.38364e-07
-2.15976e-07 -1.38364e-07 0.0328832

0.0132087 -0.000379213 5.90541e-08
-0.000379213 0.0283652 -1.28191e-07
5.90541e-08 -1.28191e-07 0.0111531

0.0271168 0.0018685 -1.49492e-07
0.0018685 0.0340654 -8.19025e-08
-1.49492e-07 -8.19025e-08 0.0303096

0.0311128 -0.0038589 -1.60851e-07
-0.0038589 0.0291576 -1.25444e-07
-1.60851e-07 -1.25444e-07 0.0288097

0.0186216 0.003205 -2.44238e-07
0.003205 0.0301431 -2.13607e-07
-2.44238e-07 -2.13607e-07 0.0131284

0.0426015 0.00351785 -1.80633e-07
0.00351785 0.0418494 -4.10604e-07
-1.80633e-07 -4.10604e-07 0.0364832

0.0432072 -0.00374847 3.0509e-07
-0.00374847 0.0414183 -2.47792e-07
3.0509e-07 -2.47792e-07 0.0364656

0.0310689 -0.00399109 1.32161e-07
-0.00399109 0.0304746 3.06019e-08
1.32161e-07 3.06019e-08 0.0304644

0.0289256 -0.00406455 2.0619e-07
-0.00406455 0.029154 -1.21946e-07
2.0619e-07 -1.21946e-07 0.0275976

0.033055 0.00272705 -1.64131e-09
0.00272705 0.0275317 -2.03496e-07
-1.64131e-09 -2.03496e-07 0.0290787

0.0327838 0.00196033 3.88472e-08
0.00196033 0.0255941 -1.26088e-07
3.88472e-08 -1.26088e-07 0.0278259

0.0464016 0.000418534 -4.63321e-07
0.000418534 0.046356 2.85979e-07
-4.63321e-07 2.85979e-07 0.0366973

0.046918 -0.000950634 -2.36146e-07
-0.000950634 0.0457687 2.31433e-07
-2.36146e-07 2.31433e-07 0.0367684

0.0348037 0.000638375 1.40082e-07
0.000638375 0.0275764 -9.69226e-09
1.40082e-07 -9.69226e-09 0.03222

0.0277549 0.000882279 -2.01027e-07
0.000882279 0.0355741 5.41849e-09
-2.01027e-07 5.41849e-09 0.0313519

0.0276107 0.000882894 1.3415e-07
0.000882894 0.0355742 1.49922e-08
1.3415e-07 1.49922e-08 0.0312481

0.0234614 0.00740082 3.61889e-07
0.00740082 0.0183038 -1.19421e-07
3.61889e-07 -1.19421e-07 0.0109028

0.0272503 -0.00367599 6.73023e-10
-0.00367599 0.0303508 -2.61907e-08
6.73023e-10 -2.61907e-08 0.0273225

0.0365701 0.00239145 -3.59302e-08
0.00239145 0.0295795 6.20632e-08
-3.59302e-08 6.20632e-08 0.0337876

0.0332778 0.00124789 -3.8274e-08
0.00124789 0.0265071 2.22467e-08
-3.8274e-08 2.22467e-08 0.0284349

0.0291558 -0.00349296 2.84731e-07
-0.00349296 0.0304748 2.13892e-08
2.84731e-07 2.13892e-08 0.0281764

0.0328151 -0.0026481 1.923e-07
-0.0026481 0.0267309 -7.18592e-08
1.923e-07 -7.18592e-08 0.0285899

0.0224623 0.00761372 1.12177e-07
0.00761372 0.0185922 1.73171e-07
1.12177e-07 1.73171e-07 0.0109052

0.0331485 0.0041025 1.66717e-07
0.0041025 0.0326413 1.2305e-07
1.66717e-07 1.2305e-07 0.0331848

0.0258931 -0.0025786 8.45265e-08
-0.0025786 0.032028 1.48441e-07
8.45265e-08 1.48441e-07 0.0275105

0.0324859 0.00378627 1.89862e-07
0.00378627 0.0292714 -3.43851e-08
1.89862e-07 -3.43851e-08 0.0301501

0.026819 -0.000543863 5.96031e-08
-0.000543863 0.0349561 7.01706e-08
5.96031e-08 7.01706e-08 0.0301411

0.0269929 0.00256376 7.82449e-08
0.00256376 0.0324522 -1.40452e-07
7.82449e-08 -1.40452e-07 0.0282895

0.0305295 0.00399162 3.98168e-08
0.00399162 0.0293265 -4.8274e-08
3.98168e-08 -4.8274e-08 0.0287782

0.027612 -0.0029375 -6.44821e-08
-0.0029375 0.0318573 -1.63337e-07
-6.44821e-08 -1.63337e-07 0.0282521

0.0294591 -0.0035764 5.07464e-09
-0.0035764 0.0303544 -2.59314e-08
5.07464e-09 -2.59314e-08 0.028308

0.0181394 0.00142569 -4.24651e-09
0.00142569 0.0280393 -1.80019e-07
-4.24651e-09 -1.80019e-07 0.013129

0.0234762 -0.00429458 3.75854e-08
-0.00429458 0.0275594 -7.13838e-08
3.75854e-08 -7.13838e-08 0.0177253

0.0262083 -0.00152632 -7.39979e-08
-0.00152632 0.0336276 -2.30568e-07
-7.39979e-08 -2.30568e-07 0.0287549

0.0330273 0.00347519 -2.31824e-08
0.00347519 0.028881 1.25235e-07
-2.31824e-08 1.25235e-07 0.030072

0.030325 0.00385793 -2.72927e-08
0.00385793 0.0298899 2.75705e-08
-2.72927e-08 2.75705e-08 0.0289934

0.0274175 -0.00280108 -9.91848e-08
-0.00280108 0.0319876 1.35185e-07
-9.91848e-08 1.35185e-07 0.0281421

0.0265575 -0.00154105 1.54015e-09
-0.00154105 0.0335862 -6.52941e-09
1.54015e-09 -6.52941e-09 0.0287494

0.0309598 0.00371889 6.62941e-08
0.00371889 0.0295666 -7.49349e-08
6.62941e-08 -7.49349e-08 0.0289443

0.0267623 -0.00181615 8.73468e-08
-0.00181615 0.0334781 -1.96071e-07
8.73468e-08 -1.96071e-07 0.0289573

0.0191678 0.00355496 1.0545e-07
0.00355496 0.0276107 -1.36905e-07
1.0545e-07 -1.36905e-07 0.016294

0.0308761 -0.000534939 7.243e-08
-0.000534939 0.0388216 1.02654e-07
7.243e-08 1.02654e-07 0.0342973

0.0286595 0.00404855 1.18567e-07
0.00404855 0.0295216 -8.06994e-08
1.18567e-07 -8.06994e-08 0.0277175

0.0355837 0.00197524 1.28595e-07
0.00197524 0.0295059 -2.75334e-09
1.28595e-07 -2.75334e-09 0.0328457

0.036262 -0.00211494 -1.30181e-07
-0.00211494 0.0297582 -1.66789e-07
-1.30181e-07 -1.66789e-07 0.0332209

0.0285135 -0.00309611 1.18041e-07
-0.00309611 0.0185707 4.94402e-08
1.18041e-07 4.94402e-08 0.0157316

0.0283565 -0.00279037 3.7748e-08
-0.00279037 0.0327793 -5.51709e-08
3.7748e-08 -5.51709e-08 0.0305748

0.0291945 0.00350111 1.8067e-07
0.00350111 0.0316033 7.9155e-08
1.8067e-07 7.9155e-08 0.0304906

0.0349623 -0.00290702 1.65266e-07
-0.00290702 0.0376783 1.73377e-07
1.65266e-07 1.73377e-07 0.0352389

0.0394614 0.00188504 3.04382e-07
0.00188504 0.0446095 -1.11335e-07
3.04382e-07 -1.11335e-07 0.0364354

0.0449441 0.00129046 1.94004e-07
0.00129046 0.0391177 -2.31151e-07
1.94004e-07 -2.31151e-07 0.0364174

0.0355629 0.00434521 -2.75044e-07
0.00434521 0.0351374 -1.68741e-08
-2.75044e-07 -1.68741e-08 0.0350062

0.0265745 0.00338843 2.48485e-08
0.00338843 0.0310098 9.47247e-11
2.48485e-08 9.47247e-11 0.0272587

0.0330432 0.00349729 2.07466e-09
0.00349729 0.0286697 6.1733e-08
2.07466e-09 6.1733e-08 0.0300531

0.022062 0.0057651 -4.56655e-08
0.0057651 0.02424 -1.25132e-09
-4.56655e-08 -1.25132e-09 0.0160741

0.0386195 -0.00151177 -3.48094e-07
-0.00151177 0.0444325 1.14388e-07
-3.48094e-07 1.14388e-07 0.0363646

0.0460479 -0.000464561 2.73479e-08
-0.000464561 0.0454399 -3.02525e-09
2.73479e-08 -3.02525e-09 0.0366935

0.0451801 -3.17982e-05 1.36438e-07
-3.17982e-05 0.0463018 1.47633e-07
1.36438e-07 1.47633e-07 0.0366754

0.0176424 -0.00679562 4.56757e-08
-0.00679562 0.0231105 7.29717e-09
4.56757e-08 7.29717e-09 0.0107397

0.0392941 -0.00155589 -2.194e-07
-0.00155589 0.0387161 2.18145e-07
-2.194e-07 2.18145e-07 0.0358562

0.038398 0.00117659 2.40905e-07
0.00117659 0.041519 -1.24103e-07
2.40905e-07 -1.24103e-07 0.0361275

0.0331788 -0.00343589 6.23033e-08
-0.00343589 0.0282224 1.10054e-07
6.23033e-08 1.10054e-07 0.0299065

0.031847 0.000140251 -1.02579e-08
0.000140251 0.0386744 1.11074e-07
-1.02579e-08 1.11074e-07 0.0344533

0.0285801 -0.00266028 -1.16766e-07
-0.00266028 0.0333845 1.72774e-07
-1.16766e-07 1.72774e-07 0.0315924

0.0356657 0.00083179 -3.55447e-08
0.00083179 0.027381 -1.41618e-07
-3.55447e-08 -1.41618e-07 0.0330033

0.0288792 0.00204434 -1.30311e-07
0.00204434 0.0368196 2.08666e-08
-1.30311e-07 2.08666e-08 0.0336727

0.0298721 0.000946079 9.68279e-08
0.000946079 0.0373911 4.52809e-08
9.68279e-08 4.52809e-08 0.0333665

0.0344044 0.00268518 3.96122e-08
0.00268518 0.0288544 5.70254e-08
3.96122e-08 5.70254e-08 0.0312293

0.0132802 -0.000409471 1.65049e-07
-0.000409471 0.0281259 -5.23747e-08
1.65049e-07 -5.23747e-08 0.0112026

0.0309679 -0.00362643 -1.64881e-07
-0.00362643 0.0309191 4.23923e-09
-1.64881e-07 4.23923e-09 0.0306126

0.0329318 -0.0034438 2.12222e-08
-0.0034438 0.032024 5.67799e-08
2.12222e-08 5.67799e-08 0.0325823

0.0335743 -0.00415936 -9.70965e-08
-0.00415936 0.0325379 -6.84981e-08
-9.70965e-08 -6.84981e-08 0.0337387

0.0265647 0.00414917 -4.70589e-10
0.00414917 0.0176931 1.69865e-07
-4.70589e-10 1.69865e-07 0.0126066

0.0388302 -0.00269637 -1.1096e-07
-0.00269637 0.0395775 -3.98097e-08
-1.1096e-07 -3.98097e-08 0.0359609

0.023085 0.00692153 2.1888e-07
0.00692153 0.0255044 3.51736e-07
2.1888e-07 3.51736e-07 0.0126109

0.0308778 -0.0028178 2.01354e-07
-0.0028178 0.0348109 -9.34734e-08
2.01354e-07 -9.34734e-08 0.0339593

0.0354158 0.00193664 -4.71316e-08
0.00193664 0.0284689 -2.1592e-08
-4.71316e-08 -2.1592e-08 0.0323478

0.0318248 -0.00189369 -2.98352e-08
-0.00189369 0.0249535 -9.31664e-08
-2.98352e-08 -9.31664e-08 0.0253983

0.0292959 0.00315939 1.93496e-07
0.00315939 0.0327351 4.2077e-08
1.93496e-07 4.2077e-08 0.0312829

0.0344398 0.00268886 4.96321e-08
0.00268886 0.0286375 3.3242e-08
4.96321e-08 3.3242e-08 0.031224

0.0325211 0.00149883 -1.67629e-07
0.00149883 0.0403762 1.42761e-07
-1.67629e-07 1.42761e-07 0.0353393

0.0319438 -0.00415478 -1.4896e-07
-0.00415478 0.031205 -4.25268e-09
-1.4896e-07 -4.25268e-09 0.0318138

0.0396786 0.00265547 1.27303e-07
0.00265547 0.0332007 -5.60031e-08
1.27303e-07 -5.60031e-08 0.0353187

0.0279748 -0.00241862 1.38262e-07
-0.00241862 0.0335552 -9.85397e-08
1.38262e-07 -9.85397e-08 0.0304737

0.0293539 0.000558816 -2.32306e-08
0.000558816 0.0373149 3.25674e-08
-2.32306e-08 3.25674e-08 0.0332557

0.0419442 0.00133799 2.27688e-07
0.00133799 0.0371016 1.50251e-07
2.27688e-07 1.50251e-07 0.0361189

0.0420989 -0.00114845 3.96335e-08
-0.00114845 0.0373281 1.75096e-08
3.96335e-08 1.75096e-08 0.0361007

0.0283863 0.00236932 2.95568e-08
0.00236932 0.0181833 1.65942e-07
2.95568e-08 1.65942e-07 0.0159516

0.0350297 0.00106149 -1.05015e-07
0.00106149 0.0285693 -1.83294e-08
-1.05015e-07 -1.83294e-08 0.0330622

0.012868 0.000923433 1.3599e-07
0.000923433 0.0316291 1.62142e-07
1.3599e-07 1.62142e-07 0.00612242

0.0131637 -0.0013883 6.40047e-08
-0.0013883 0.0321351 1.17057e-07
6.40047e-08 1.17057e-07 0.0061127

0.0152701 0.00715486 -6.97904e-08
0.00715486 0.0284555 2.12171e-07
-6.97904e-08 2.12171e-07 0.00598485

0.0347676 -0.00382152 -2.57579e-08
-0.00382152 0.0312709 1.1834e-07
-2.57579e-08 1.1834e-07 0.0329423

0.0155822 -0.00619515 -7.81587e-08
-0.00619515 0.0261558 3.22064e-08
-7.81587e-08 3.22064e-08 0.0104732

0.0155141 -0.00708745 -1.57898e-08
-0.00708745 0.0274261 8.64859e-08
-1.57898e-08 8.64859e-08 0.00591461

0.0284295 0.00342618 -3.14936e-07
0.00342618 0.03101 -1.20057e-09
-3.14936e-07 -1.20057e-09 0.0281559

0.0251956 0.00932671 -4.50572e-08
0.00932671 0.0190224 -1.88536e-09
-4.50572e-08 -1.88536e-09 0.00593451

0.03654 0.00173176 -1.52834e-07
0.00173176 0.0385546 1.5365e-07
-1.52834e-07 1.5365e-07 0.035478

0.0395371 2.58421e-05 -7.49051e-08
2.58421e-05 0.0355417 3.29523e-08
-7.49051e-08 3.29523e-08 0.0354586

0.0261095 -0.0092452 1.07554e-07
-0.0092452 0.0188142 6.58649e-08
1.07554e-07 6.58649e-08 0.00588868

0.0276931 -0.00306557 9.30137e-08
-0.00306557 0.0320986 -1.87566e-07
9.30137e-08 -1.87566e-07 0.0296261

0.026258 0.00441871 4.34066e-08
0.00441871 0.0201601 1.11831e-09
4.34066e-08 1.11831e-09 0.0130461

0.0172809 0.00797382 -3.66564e-07
0.00797382 0.0271514 2.62194e-08
-3.66564e-07 2.62194e-08 0.00598853

0.018198 0.00275547 7.08487e-08
0.00275547 0.0275928 -1.9253e-07
7.08487e-08 -1.9253e-07 0.0128515

0.0173057 -0.00827701 -8.84245e-08
-0.00827701 0.0271547 5.48547e-08
-8.84245e-08 5.48547e-08 0.00581443

0.0179347 -0.00157114 3.48429e-07
-0.00157114 0.0280086 -1.52331e-07
3.48429e-07 -1.52331e-07 0.012692

0.037052 0.000922804 -1.58627e-07
0.000922804 0.0413024 -3.01652e-07
-1.58627e-07 -3.01652e-07 0.0358127

0.0221336 -0.00585598 2.60215e-07
-0.00585598 0.0236673 2.64714e-07
2.60215e-07 2.64714e-07 0.0151606

0.0157016 0.00598688 -1.90792e-07
0.00598688 0.0259049 4.07784e-07
-1.90792e-07 4.07784e-07 0.0107514

0.0302113 0.00473046 -8.43778e-08
0.00473046 0.0143505 8.64586e-08
-8.43778e-08 8.64586e-08 0.00611652

0.0329416 -0.0038499 5.82559e-08
-0.0038499 0.0301275 -9.9821e-08
5.82559e-08 -9.9821e-08 0.0310545

0.0308914 0.00169397 -3.28372e-08
0.00169397 0.0368461 1.66649e-08
-3.28372e-08 1.66649e-08 0.0339533

0.0260928 -0.00484453 -1.4738e-07
-0.00484453 0.0191991 -4.86497e-07
-1.4738e-07 -4.86497e-07 0.0126965

0.0330041 -0.00378605 1.01661e-07
-0.00378605 0.0300787 3.08891e-09
1.01661e-07 3.08891e-09 0.0311308

0.0300215 -0.00452024 3.35926e-09
-0.00452024 0.0130547 -2.38406e-07
3.35926e-09 -2.38406e-07 0.00603796

0.0324766 -0.00372801 -6.11752e-08
-0.00372801 0.0313105 1.24554e-07
-6.11752e-08 1.24554e-07 0.0319826

0.0280942 -0.00331152 -1.87199e-08
-0.00331152 0.0320075 -2.23798e-07
-1.87199e-08 -2.23798e-07 0.0296286

0.0234456 0.00874444 5.6568e-08
0.00874444 0.0204848 -3.64087e-07
5.6568e-08 -3.64087e-07 0.00602686

0.0182015 -0.0029212 -2.58888e-07
-0.0029212 0.0268693 -3.98579e-07
-2.58888e-07 -3.98579e-07 0.0122714

0.0233167 -0.00902001 -1.67486e-07
-0.00902001 0.0201538 -2.12444e-08
-1.67486e-07 -2.12444e-08 0.00588468

0.0170841 0.00640906 -3.09342e-07
0.00640906 0.0235685 -9.32381e-08
-3.09342e-07 -9.32381e-08 0.0108323

0.0308296 -0.00396062 -1.91835e-07
-0.00396062 0.0301637 -7.75774e-08
-1.91835e-07 -7.75774e-08 0.0300887

0.0389207 -0.00195884 2.53353e-07
-0.00195884 0.0369425 3.80819e-08
2.53353e-07 3.80819e-08 0.0355023

0.045541 0.00150527 -3.09668e-07
0.00150527 0.0449514 -1.95249e-07
-3.09668e-07 -1.95249e-07 0.0366216

0.0435647 -0.000711749 4.97597e-08
-0.000711749 0.0462302 -1.1084e-08
4.97597e-08 -1.1084e-08 0.0365873

0.0286186 0.00171587 -1.06025e-07
0.00171587 0.0355699 1.89432e-07
-1.06025e-07 1.89432e-07 0.0323928

0.0453363 -0.00144635 -5.67576e-07
-0.00144635 0.0449791 1.47616e-07
-5.67576e-07 1.47616e-07 0.0366394

0.0438085 0.000567791 -1.3025e-07
0.000567791 0.0465063 1.66273e-07
-1.3025e-07 1.66273e-07 0.0366205

0.0466795 0.000991228 5.18464e-08
0.000991228 0.0433777 -2.8932e-07
5.18464e-08 -2.8932e-07 0.0365955

0.0397516 -0.0016388 9.84917e-08
-0.0016388 0.0460757 3.11843e-07
9.84917e-08 3.11843e-07 0.0364853

0.0190558 -0.00388793 -3.46842e-07
-0.00388793 0.0272338 -2.20685e-07
-3.46842e-07 -2.20685e-07 0.0154729

0.0421424 -0.00175035 -3.06555e-07
-0.00175035 0.0367273 1.51079e-07
-3.06555e-07 1.51079e-07 0.0360074

0.035967 -0.00457286 2.02833e-07
-0.00457286 0.0351528 2.46979e-08
2.02833e-07 2.46979e-08 0.034971

0.0397547 -0.00242187 -1.18164e-07
-0.00242187 0.0360659 -6.60134e-08
-1.18164e-07 -6.60134e-08 0.03557

0.0351887 0.00204361 -8.45298e-08
0.00204361 0.0285521 2.47124e-08
-8.45298e-08 2.47124e-08 0.0322351

0.0396936 0.00133736 -3.56829e-07
0.00133736 0.0472276 -1.25145e-07
-3.56829e-07 -1.25145e-07 0.0365512

0.0464963 0.00259301 -6.31799e-08
0.00259301 0.0404196 3.29644e-07
-6.31799e-08 3.29644e-07 0.0365324

0.0400894 0.00150577 1.61838e-07
0.00150577 0.036676 -1.89864e-07
1.61838e-07 -1.89864e-07 0.035618

0.0279176 -0.0019201 -1.08056e-07
-0.0019201 0.0125257 -2.2764e-07
-1.08056e-07 -2.2764e-07 0.0106257

0.0283223 0.00326814 -3.44892e-07
0.00326814 0.0315537 -1.2448e-07
-3.44892e-07 -1.2448e-07 0.0294139

0.0231904 -0.00773685 3.02312e-07
-0.00773685 0.0181816 -3.97746e-07
3.02312e-07 -3.97746e-07 0.0102906

0.022833 -0.00731656 4.40898e-07
-0.00731656 0.0257713 9.59614e-08
4.40898e-07 9.59614e-08 0.0119559

0.0290257 -0.00464751 -2.31663e-07
-0.00464751 0.0191302 1.14277e-07
-2.31663e-07 1.14277e-07 0.0126165

0.0375763 -0.000660564 1.83985e-07
-0.000660564 0.0449118 4.16388e-08
1.83985e-07 4.16388e-08 0.0362964

0.037574 0.000358403 1.1895e-07
0.000358403 0.0447891 -1.2545e-07
1.1895e-07 -1.2545e-07 0.0362766

0.042606 -0.00327369 3.98421e-08
-0.00327369 0.0394519 -4.01843e-08
3.98421e-08 -4.01843e-08 0.0362305

0.0429991 -0.00294412 2.87968e-07
-0.00294412 0.0391703 -3.96309e-08
2.87968e-07 -3.96309e-08 0.0362375

0.0425024 0.00350406 -1.32027e-08
0.00350406 0.0399744 -1.23749e-07
-1.32027e-08 -1.23749e-07 0.0362753

0.0443985 0.000416723 1.3934e-08
0.000416723 0.0450806 2.47599e-07
1.3934e-08 2.47599e-07 0.0366385

0.04261 -0.00274413 -1.14381e-07
-0.00274413 0.0395091 3.23697e-08
-1.14381e-07 3.23697e-08 0.036292

0.0426042 -0.00251128 1.33112e-07
-0.00251128 0.0442674 6.19215e-07
1.33112e-07 6.19215e-07 0.0365661

0.0451182 0.000331042 2.09753e-07
0.000331042 0.0454679 2.50558e-07
2.09753e-07 2.50558e-07 0.0366568

0.0436382 -0.00278259 9.47695e-08
-0.00278259 0.0389181 1.08094e-08
9.47695e-08 1.08094e-08 0.0363327

0.0435139 0.00283841 -3.58874e-07
0.00283841 0.0390709 -1.62146e-07
-3.58874e-07 -1.62146e-07 0.0363708

0.0451954 -0.000471136 -2.83941e-07
-0.000471136 0.0455821 -3.07004e-07
-2.83941e-07 -3.07004e-07 0.0367055

0.0452281 -0.000426253 4.53937e-07
-0.000426253 0.0443625 -8.97634e-07
4.53937e-07 -8.97634e-07 0.0367238

0.0427993 0.00163902 -2.15142e-07
0.00163902 0.0442493 2.21623e-07
-2.15142e-07 2.21623e-07 0.0366099

0.0411179 0.00361769 1.63646e-08
0.00361769 0.0405179 -3.87952e-07
1.63646e-08 -3.87952e-07 0.0363246

SCALARS pressure float
LOOKUP_TABLE default
-60.0619
19.3102
5.80667
21.2917
15.8793
5.89066
-58.6849
7.78585
-3.80222
15.1264
-24.4371
7.62001
5.59471
12.2817
23.3366
5.54164
18.5223
13.2104
-0.689503
6.76031
-0.902034
33.1251
5.80445
5.80033
6.60552
14.9057
-38.391
6.67523
-15.2418
30.6196
5.179
-15.6566
-42.0628
27.3224
20.776
27.3553
31.8777
19.8062
4.86232
-42.6062
-17.4072
31.8985
31.9866
5.99613
-21.8071
-15.9753
-1.04925
-3.40292
6.5483
-16.2178
-18.919
-15.3449
20.7547
-15.3722
20.3081
-33.1524
21.1263
-15.4593
21.1362
7.04854
21.7661
16.1193
-45.5678
12.7908
16.3626
10.9072
21.5754
13.831
5.77703
21.8188
20.8108
20.7814
-17.6909
11.6026
3.97673
-31.6149
14.357
10.9984
14.1491
-8.71788
-28.947
14.9771
20.1643
-22.0392
-23.4302
-28.0951
7.10131
9.63445
-22.2179
37.7319
-15.508
38.4343
18.3043
10.764
-15.1655
-15.8724
-30.2237
14.7553
14.366
4.6014
-10.7644
-21.9399
-25.1033
16.2155
14.1033
14.9634
18.6988
3.77759
-24.5601
26.513
7.22127
-21.4108
-24.614
14.8409
15.0798
-16.1449
20.1618
-29.1156
20.6253
-16.7286
-2.90169
23.8327
21.7289
16.0342
26.6795
22.6316
21.7826
15.7102
-29.7833
-16.0981
24.0901
21.6193
20.9903
22.0674
-22.0142
23.5831
-33.8408
5.46608
21.7551
23.6264
-21.9371
6.67872
-5.96417
15.0862
-30.41
15.6261
7.83628
2.41056
5.18059
-9.39246
-0.454946
22.6432
-15.454
5.29359
15.2068
21.5625
11.5103
-21.1134
-21.264
10.7935
-2.84019
-15.1969
-21.2223
-15.1648
-20.9866
15.2814
-20.6359
-21.2018
-15.2072
-21.0639
19.0039
-15.9401
-14.824
12.0663
-14.4836
18.8041
19.0529
7.47573
18.0474
11.7759
-16.2486
15.29
14.9627
-21.5287
10.4286
-14.2208
16.0499
14.5973
17.0817
14.8369
10.3459
-26.9782
-16.0814
-15.9577
21.9087
14.529
14.6278
20.9236
22.4886
9.5049
21.7356
-0.381467
-8.16867
20.7799
-17.8386
19.9466
10.3664
-21.5178
15.7223
22.5277
14.7317
9.39608
14.1929
21.0565
-7.83057
8.8299
-7.90644
14.65
26.9274
26.5811
27.9601
26.3883
26.7241
26.2907
13.8286
23.4291
24.0282
23.9724
23.3987
21.192
21.8564
-8.26072
15.9358
28.1911
-3.18631
23.5748
23.2041
27.8344
-8.49152
28.0964
15.3463
-7.57936
17.493
-8.25569
20.2282
29.6126
-7.48374
-8.09865
-29.5943
-18.1895
19.5283
-31.9883
5.73684
-7.79184
-1.18643
28.2492
26.6401
30.4204
26.7607
-34.8043
-8.17755
28.3373
8.07577
-8.29313
26.4458
-6.29302
30.4653
-7.95196
27.0468
14.5673
14.7901
23.8438
10.0496
18.0205
8.11978
-29.8629
-24.5556
16.8068
1.76255
8.18239
-13.6076
17.4366
11.7017
-8.09942
9.45434
-10.8217
7.51959
-10.753
-8.48272
33.2567
19.1511
25.0871
25.3113
13.8317
-10.4028
26.4264
14.6862
-1.65637
-10.2721
-12.5628
17.5064
-7.48303
17.5744
-12.0397
-21.3526
-10.6065
-34.6845
15.5642
-7.7608
34.4343
-11.5764
16.8731
-8.4067
15.974
-12.7569
4.29152
-51.125
8.52493
-7.74448
21.3334
-8.15004
-0.120005
10.717
21.1261
-12.0592
-10.199
-6.066
14.3197
-10.1782
6.89037
6.38889
16.3051
-10.4178
-6.32817
-1.69983
-5.65819
-11.0768
-5.84244
15.3068
7.81042
-5.55376
-8.95848
7.80765
7.69645
-10.6729
16.309
-27.2194
2.29569
-28.4834
-0.955107
-8.88859
-8.10677
-11.7899
-10.9534
-9.89157
-7.78646
-7.90984
16.6394
24.7753
12.119
-0.288838
-0.822225
-5.67233
7.30751
-6.3185
-6.31578
24.9209
-5.72774
14.1186
-15.9075
24.3237
5.9712
-0.388413
-5.64164
16.275
2.47966
0.201843
2.45065
0.458751
-0.737924
-9.92855
-0.0927784
2.11583
15.0693
-1.28545
-1.4043
-0.996002
-0.385865
1.96786
8.05322
-1.19075
8.08066
5.58622
-0.432893
7.03785
5.49326
-3.87408
16.4778
-1.90105
23.0599
-21.9756
15.0457
15.6836
2.04223
-1.99521
12.5451
-26.5117
5.79534
-1.65553
-50.4892
30.492
30.6287
5.82798
-1.14152
-1.04443
-0.846807
33.4092
33.2839
13.0971
6.08421
6.66504
-28.9682
-1.27655
16.5345
-3.18047
-4.34602
-0.014166
-25.2764
14.3054
-1.27736
2.86441
2.6958
-2.72088
-0.0466127
-3.20718
-4.03144
-37.9879
-33.6863
-0.125321
1.87693
-0.531611
-3.74198
-1.93422
-1.87546
-0.921836
-21.9095
17.2499
-0.7664
12.5673
14.1856
-26.7671
6.2889
7.13976
18.4777
36.4201
36.4526
22.6381
-1.75298
2.60232
-20.9318
36.1191
32.7507
32.8177
-24.8139
21.7723
30.518
2.60184
15.7241
10.374
17.1661
17.7275
12.5072
5.68396
-25.4031
4.26248
10.4113
16.2451
-31.7148
28.3056
-52.7167
18.6865
10.301
-10.6257
7.41971
5.4595
24.473
9.41359
24.406
4.10761
12.4012
30.6357
29.4615
-22.9924
17.4375
-70.2412
-74.388
-67.1851
11.6501
-31.2658
-63.6182
-3.80125
-69.9467
16.4623
16.406
-73.7632
5.21544
-39.7353
-70.7473
-37.7611
-71.8838
-39.4569
21.1338
-23.9629
-29.0494
-70.6311
4.83376
15.7588
-36.1949
6.05613
-63.6257
9.83834
3.88483
-67.9095
-37.6289
-66.419
-23.7604
5.03211
20.5239
35.3624
36.7179
11.8145
36.8415
36.8948
36.4833
36.3971
-24.4814
28.2445
20.6691
21.9784
11.5373
36.053
36.0844
18.1184
-23.9453
3.24951
-30.5321
-56.6035
-50.4797
36.1366
35.8175
35.3743
35.4445
36.1526
35.5901
33.1039
37.3631
35.3914
35.9995
35.6319
34.1881
34.3246
35.8488
35.3038
