# vtk DataFile Version 3.0
vtk output at time 130
ASCII
DATASET UNSTRUCTURED_GRID
POINTS 626 float
-3.68058e-05 0.000978749 0 3.68058e-05 0.000978749 0 -0.000829194 0.00052125 0 
-0.0008235 0.0005 0 -0.000866 0.0004575 0 -0.000866 -0.0004575 0 
-0.0008235 -0.0005 0 -0.000829194 -0.00052125 0 -3.68058e-05 -0.000978749 0 
3.68058e-05 -0.000978749 0 0.000829194 -0.00052125 0 0.000866 -0.0004575 0 
0.000866 0.0004575 0 0.000829194 0.00052125 0 8.5e-05 0 0 
-3.68058e-05 0.000978749 -0.001 3.68058e-05 0.000978749 -0.001 -0.000829194 0.00052125 -0.001 
-0.0008235 0.0005 -0.001 -0.000866 0.0004575 -0.001 -0.000866 -0.0004575 -0.001 
-0.0008235 -0.0005 -0.001 -0.000829194 -0.00052125 -0.001 -3.68058e-05 -0.000978749 -0.001 
3.68058e-05 -0.000978749 -0.001 0.000829194 -0.00052125 -0.001 0.000866 -0.0004575 -0.001 
0.000866 0.0004575 -0.001 0.000829194 0.00052125 -0.001 8.5e-05 0 -0.001 
8.46223e-17 0.0009575 0 -0.000715996 0.000586607 0 -0.000602797 0.000651965 0 
-0.000489599 0.000717321 0 -0.000376401 0.000782678 0 -0.000263202 0.000848036 0 
-0.000150004 0.000913393 0 -0.000835948 0.000469948 0 -0.000866 -0.000326786 0 
-0.000866 -0.000196071 0 -0.000866 -6.53571e-05 0 -0.000866 6.53571e-05 0 
-0.000866 0.000196071 0 -0.000866 0.000326786 0 -0.000835948 -0.000469948 0 
-0.000150004 -0.000913393 0 -0.000263202 -0.000848036 0 -0.000376401 -0.000782678 0 
-0.000489599 -0.000717321 0 -0.000602797 -0.000651965 0 -0.000715996 -0.000586607 0 
8.47648e-17 -0.0009575 0 0.000715996 -0.000586607 0 0.000602797 -0.000651965 0 
0.000489599 -0.000717321 0 0.000376401 -0.000782678 0 0.000263202 -0.000848036 0 
0.000150004 -0.000913393 0 0.000829194 -0.00047875 0 0.000866 0.000326786 0 
0.000866 0.000196071 0 0.000866 6.53571e-05 0 0.000866 -6.53571e-05 0 
0.000866 -0.000196071 0 0.000866 -0.000326786 0 0.000829194 0.00047875 0 
0.000150004 0.000913393 0 0.000263202 0.000848036 0 0.000376401 0.000782678 0 
0.000489599 0.000717321 0 0.000602797 0.000651965 0 0.000715996 0.000586607 0 
5.29966e-05 6.64557e-05 0 -1.89143e-05 8.28689e-05 0 -7.65824e-05 3.68801e-05 0 
-7.65824e-05 -3.68801e-05 0 -1.89143e-05 -8.28689e-05 0 5.29966e-05 -6.64557e-05 0 
8.46223e-17 0.0009575 -0.001 -0.000715996 0.000586607 -0.001 -0.000602797 0.000651965 -0.001 
-0.000489599 0.000717321 -0.001 -0.000376401 0.000782678 -0.001 -0.000263202 0.000848036 -0.001 
-0.000150004 0.000913393 -0.001 -0.000835948 0.000469948 -0.001 -0.000866 -0.000326786 -0.001 
-0.000866 -0.000196071 -0.001 -0.000866 -6.53571e-05 -0.001 -0.000866 6.53571e-05 -0.001 
-0.000866 0.000196071 -0.001 -0.000866 0.000326786 -0.001 -0.000835948 -0.000469948 -0.001 
-0.000150004 -0.000913393 -0.001 -0.000263202 -0.000848036 -0.001 -0.000376401 -0.000782678 -0.001 
-0.000489599 -0.000717321 -0.001 -0.000602797 -0.000651965 -0.001 -0.000715996 -0.000586607 -0.001 
8.47648e-17 -0.0009575 -0.001 0.000715996 -0.000586607 -0.001 0.000602797 -0.000651965 -0.001 
0.000489599 -0.000717321 -0.001 0.000376401 -0.000782678 -0.001 0.000263202 -0.000848036 -0.001 
0.000150004 -0.000913393 -0.001 0.000829194 -0.00047875 -0.001 0.000866 0.000326786 -0.001 
0.000866 0.000196071 -0.001 0.000866 6.53571e-05 -0.001 0.000866 -6.53571e-05 -0.001 
0.000866 -0.000196071 -0.001 0.000866 -0.000326786 -0.001 0.000829194 0.00047875 -0.001 
0.000150004 0.000913393 -0.001 0.000263202 0.000848036 -0.001 0.000376401 0.000782678 -0.001 
0.000489599 0.000717321 -0.001 0.000602797 0.000651965 -0.001 0.000715996 0.000586607 -0.001 
5.29966e-05 6.64557e-05 -0.001 -1.89143e-05 8.28689e-05 -0.001 -7.65824e-05 3.68801e-05 -0.001 
-7.65824e-05 -3.68801e-05 -0.001 -1.89143e-05 -8.28689e-05 -0.001 5.29966e-05 -6.64557e-05 -0.001 
0.000131234 6.38474e-05 0 0.00012964 -6.2443e-05 0 3.13827e-05 0.0001394 0 
3.12554e-05 -0.000136939 0 -0.000140461 8.25467e-19 0 -8.90565e-05 -0.000102707 0 
-9.04142e-05 0.000102872 0 -0.000765769 -0.00025965 0 -0.000756873 0.000262774 0 
-0.00015609 0.000787505 0 -0.000155807 -0.00079355 0 0.000605069 0.000528035 0 
0.000608694 -0.00052497 0 0.000744069 0.000116929 0 -0.000494418 0.000596218 0 
-0.000483866 -0.000584648 0 0.000269496 0.000702219 0 0.000263201 -0.000717324 0 
0.000754429 -0.000127825 0 -0.000748858 5.84659e-07 0 -0.000747838 0.000373886 0 
-0.0006542 0.000324842 0 -0.000645137 0.000210123 0 -0.000550884 0.000274171 0 
-0.000538857 0.000163195 0 -0.00045062 0.000224461 0 -0.000438393 0.000123907 0 
-0.000354088 0.000181668 0 -0.000363908 0.000282171 0 -0.000270361 0.000239477 0 
-0.000279138 0.000337653 0 -0.000188888 0.000294791 0 -0.000196448 0.000393271 0 
-0.000104767 0.000348259 0 -0.000113332 0.000449012 0 -2.01066e-05 0.000403223 0 
-2.89189e-05 0.000507105 0 6.9524e-05 0.000461596 0 -0.000213644 0.000490203 0 
7.33757e-05 0.000357726 0 0.000163331 0.00041299 0 0.000163359 0.000313022 0 
0.000248077 0.000366368 0 0.000250914 0.000265758 0 0.000335709 0.000322266 0 
0.000340555 0.000218148 0 0.000427299 0.000276717 0 0.000431508 0.000173093 0 
0.000328731 0.000425633 0 0.00034586 0.000114823 0 0.000435362 7.05241e-05 0 
0.000350892 1.5455e-05 0 0.000441547 -3.11896e-05 0 0.000353547 -8.47783e-05 0 
0.000445767 -0.000132964 0 0.000356135 -0.000186358 0 0.000449094 -0.000234674 0 
0.000359978 -0.000287876 0 0.00026856 -0.000240545 0 0.000271895 -0.000341045 0 
0.000181792 -0.00029305 0 0.00018533 -0.000392851 0 9.75701e-05 -0.00034483 0 
9.98764e-05 -0.000444884 0 8.75116e-06 -0.000396343 0 1.20916e-05 -0.000500496 0 
-7.83929e-05 -0.000449843 0 -8.1471e-05 -0.000347249 0 -0.000171566 -0.000403733 0 
-0.000169889 -0.000298891 0 -0.000259867 -0.000354132 0 -0.000257696 -0.000249137 0 
-0.00034313 -0.000299896 0 -0.000344514 -0.000199127 0 -0.000434309 -0.000250039 0 
-0.000169832 -0.000505815 0 -0.000435227 -0.000146227 0 0.000280331 -0.000442424 0 
-0.000340889 8.76793e-05 0 -0.000515252 4.06198e-05 0 6.50491e-05 0.000568253 0 
0.00053278 1.74743e-05 0 0.000522071 0.000229831 0 -0.00037162 0.000391659 0 
-0.000255272 -0.000150439 0 -0.000442893 -0.000350705 0 0.000450067 -0.000332559 0 
0.000545175 -0.000276306 0 -0.000527797 -0.000197598 0 0.000105306 -0.000551033 0 
1.45836e-05 -0.000609147 0 0.00017145 0.000214453 0 0.000515525 0.000341711 0 
0.000636086 0.000290368 0 -0.000558657 0.000404468 0 -4.01232e-05 0.000616718 0 
6.60192e-05 0.000696422 0 -0.000101806 0.0002546 0 0.000271142 -3.88908e-05 0 
0.000179455 -0.00018534 0 -8.79553e-05 -0.000254307 0 -0.000749267 -0.000373451 0 
-0.000655941 -0.000323397 0 0.000709746 0.000466718 0 0.000698426 -0.000473086 0 
-5.25801e-05 -0.00084886 0 -4.93005e-05 0.000848038 0 0.000617396 -0.000413362 0 
0.000702056 -0.000369817 0 0.000131459 -0.000679171 0 2.48171e-05 -0.000715924 0 
-0.000664217 -0.00042729 0 -0.000528828 -8.80444e-05 0 -0.000611101 -0.000136672 0 
-0.000426972 -4.45841e-05 0 0.000800669 0.000378216 0 0.000821144 -0.000415062 0 
7.2799e-05 0.00088254 0 6.81831e-05 -0.00087503 0 0.000104963 -0.000788946 0 
-7.40696e-05 -0.000660054 0 0.000126061 0.000809943 0 0.000764361 0.000295682 0 
0.000166862 0.000630623 0 0.000516462 -0.00046707 0 -0.000563585 -0.000389606 0 
-0.000622598 -1.40238e-05 0 0.000629891 0.000171529 0 2.5614e-06 -0.000299794 0 
8.6901e-05 -0.00024329 0 0.000272045 -0.000136982 0 -0.00075148 0.000138321 0 
0.000209366 -0.000599589 0 0.000324913 -0.000630055 0 0.000614044 0.00041245 0 
0.00049651 -0.000573327 0 0.000394822 -0.000507321 0 -0.000173714 -0.000206698 0 
0.000264897 5.63722e-05 0 0.000247997 0.000152811 0 -4.63327e-05 -0.000920208 0 
9.18688e-05 0.000258626 0 -5.54111e-06 0.000290558 0 -0.000184219 0.000201484 0 
-0.000263559 0.000142267 0 -0.000256427 5.13624e-05 0 -0.000336894 -2.06179e-06 0 
-0.000228499 -4.2388e-05 0 -0.00017589 0.000106626 0 -0.000769947 -0.000133367 0 
0.000767591 -0.000500293 0 -5.05874e-05 0.000737978 0 0.000754456 -3.51771e-06 0 
0.00064691 -6.15298e-05 0 0.000630483 -0.00018134 0 0.000749187 -0.000265543 0 
-0.000760805 -0.000462521 0 0.000638155 6.09315e-05 0 -4.46661e-05 0.000922995 0 
-2.37945e-05 0.000207237 0 0.000776979 0.000500181 0 -0.000605691 0.000527596 0 
-0.000377914 -0.000653727 0 -0.000372325 -0.000526022 0 -0.000275829 -0.000589621 0 
-0.000254285 -0.000710579 0 -0.000379307 0.000656222 0 -0.000379818 0.00052718 0 
-0.000266817 0.000721555 0 -0.000150544 0.000668174 0 0.000381963 0.00065079 0 
0.000493113 0.000590432 0 0.000505439 0.000463708 0 -0.000269094 0.000596608 0 
0.000385815 0.000532045 0 0.000283599 0.0005899 0 -0.000176405 -0.000108505 0 
-0.000278769 -0.000475415 0 0.000185395 2.33014e-06 0 0.000186773 0.000517571 0 
0.000540032 -8.68444e-05 0 -0.000600694 -0.000514877 0 -0.00063703 8.98033e-05 0 
-0.000459677 0.000335729 0 -0.000338836 -0.000100751 0 -0.000457327 0.000432721 0 
-8.72007e-06 -0.000210238 0 0.000156073 0.000129496 0 -7.70692e-05 -0.000555049 0 
0.00036091 -0.000389728 0 0.000531628 0.000120564 0 -0.000285451 0.000435562 0 
0.000192719 -0.000494604 0 0.00041642 0.00039368 0 -0.000135943 0.000554637 0 
-0.000170665 -0.000610079 0 -0.000666304 0.000434981 0 -0.000758736 0.000479231 0 
-0.000470189 -0.000458901 0 0.000203433 -8.59809e-05 0 0.000101846 0.000170114 0 
-0.00035513 -0.00040726 0 0.000100184 -0.000165831 0 2.96286e-05 0.00081537 0 
0.000720946 0.000381836 0 -0.000539809 -0.000292001 0 0.00052211 -0.000182426 0 
-6.41339e-05 -0.000753908 0 0.000638039 -0.000299861 0 -0.000605136 -0.000230182 0 
-3.41638e-05 -0.000145561 0 -0.000104037 0.000172396 0 -0.000808575 -0.00042774 0 
-0.000807207 -0.000465052 0 -0.00080817 0.000429771 0 -0.000806589 0.000469738 0 
-9.50634e-05 -0.000178909 0 0.000247777 0.000445058 0 1.48293e-05 -0.000814201 0 
-4.11555e-05 0.000140955 0 0.000276104 -0.000536845 0 0.000765969 -0.000436638 0 
0.000780871 -0.000362769 0 0.000424176 -0.000642018 0 0.00053413 -0.000368009 0 
-0.000416333 4.17911e-05 0 -0.000133891 -6.23822e-05 0 4.2574e-05 0.000206312 0 
0.000141163 -0.000121542 0 0.000707423 0.000212137 0 0.000172327 0.000723882 0 
7.72652e-06 -0.00090254 0 -0.000134435 5.66935e-05 0 -0.000188826 3.70894e-05 0 
0.000197119 8.09714e-05 0 1.27801e-05 0.000917296 0 0.000800767 0.00044758 0 
-0.000686682 0.000507104 0 9.35831e-05 0.000110457 0 -0.000696793 -0.000509595 0 
-0.00068446 -8.52012e-05 0 -0.000691033 -0.000201242 0 5.24052e-05 -0.000189075 0 
-0.000151818 -0.000701092 0 -0.000296988 0.000518087 0 9.31023e-05 -0.000108117 0 
0.00044261 -0.000416726 0 0.000197044 -0.000784423 0 -0.000516861 0.000504567 0 
0.000298997 0.000502377 0 0.000131234 6.38474e-05 -0.001 0.00012964 -6.2443e-05 -0.001 
3.13827e-05 0.0001394 -0.001 3.12554e-05 -0.000136939 -0.001 -0.000140461 8.25467e-19 -0.001 
-8.90565e-05 -0.000102707 -0.001 -9.04142e-05 0.000102872 -0.001 -0.000765769 -0.00025965 -0.001 
-0.000756873 0.000262774 -0.001 -0.00015609 0.000787505 -0.001 -0.000155807 -0.00079355 -0.001 
0.000605069 0.000528035 -0.001 0.000608694 -0.00052497 -0.001 0.000744069 0.000116929 -0.001 
-0.000494418 0.000596218 -0.001 -0.000483866 -0.000584648 -0.001 0.000269496 0.000702219 -0.001 
0.000263201 -0.000717324 -0.001 0.000754429 -0.000127825 -0.001 -0.000748858 5.84659e-07 -0.001 
-0.000747838 0.000373886 -0.001 -0.0006542 0.000324842 -0.001 -0.000645137 0.000210123 -0.001 
-0.000550884 0.000274171 -0.001 -0.000538857 0.000163195 -0.001 -0.00045062 0.000224461 -0.001 
-0.000438393 0.000123907 -0.001 -0.000354088 0.000181668 -0.001 -0.000363908 0.000282171 -0.001 
-0.000270361 0.000239477 -0.001 -0.000279138 0.000337653 -0.001 -0.000188888 0.000294791 -0.001 
-0.000196448 0.000393271 -0.001 -0.000104767 0.000348259 -0.001 -0.000113332 0.000449012 -0.001 
-2.01066e-05 0.000403223 -0.001 -2.89189e-05 0.000507105 -0.001 6.9524e-05 0.000461596 -0.001 
-0.000213644 0.000490203 -0.001 7.33757e-05 0.000357726 -0.001 0.000163331 0.00041299 -0.001 
0.000163359 0.000313022 -0.001 0.000248077 0.000366368 -0.001 0.000250914 0.000265758 -0.001 
0.000335709 0.000322266 -0.001 0.000340555 0.000218148 -0.001 0.000427299 0.000276717 -0.001 
0.000431508 0.000173093 -0.001 0.000328731 0.000425633 -0.001 0.00034586 0.000114823 -0.001 
0.000435362 7.05241e-05 -0.001 0.000350892 1.5455e-05 -0.001 0.000441547 -3.11896e-05 -0.001 
0.000353547 -8.47783e-05 -0.001 0.000445767 -0.000132964 -0.001 0.000356135 -0.000186358 -0.001 
0.000449094 -0.000234674 -0.001 0.000359978 -0.000287876 -0.001 0.00026856 -0.000240545 -0.001 
0.000271895 -0.000341045 -0.001 0.000181792 -0.00029305 -0.001 0.00018533 -0.000392851 -0.001 
9.75701e-05 -0.00034483 -0.001 9.98764e-05 -0.000444884 -0.001 8.75116e-06 -0.000396343 -0.001 
1.20916e-05 -0.000500496 -0.001 -7.83929e-05 -0.000449843 -0.001 -8.1471e-05 -0.000347249 -0.001 
-0.000171566 -0.000403733 -0.001 -0.000169889 -0.000298891 -0.001 -0.000259867 -0.000354132 -0.001 
-0.000257696 -0.000249137 -0.001 -0.00034313 -0.000299896 -0.001 -0.000344514 -0.000199127 -0.001 
-0.000434309 -0.000250039 -0.001 -0.000169832 -0.000505815 -0.001 -0.000435227 -0.000146227 -0.001 
0.000280331 -0.000442424 -0.001 -0.000340889 8.76793e-05 -0.001 -0.000515252 4.06198e-05 -0.001 
6.50491e-05 0.000568253 -0.001 0.00053278 1.74743e-05 -0.001 0.000522071 0.000229831 -0.001 
-0.00037162 0.000391659 -0.001 -0.000255272 -0.000150439 -0.001 -0.000442893 -0.000350705 -0.001 
0.000450067 -0.000332559 -0.001 0.000545175 -0.000276306 -0.001 -0.000527797 -0.000197598 -0.001 
0.000105306 -0.000551033 -0.001 1.45836e-05 -0.000609147 -0.001 0.00017145 0.000214453 -0.001 
0.000515525 0.000341711 -0.001 0.000636086 0.000290368 -0.001 -0.000558657 0.000404468 -0.001 
-4.01232e-05 0.000616718 -0.001 6.60192e-05 0.000696422 -0.001 -0.000101806 0.0002546 -0.001 
0.000271142 -3.88908e-05 -0.001 0.000179455 -0.00018534 -0.001 -8.79553e-05 -0.000254307 -0.001 
-0.000749267 -0.000373451 -0.001 -0.000655941 -0.000323397 -0.001 0.000709746 0.000466718 -0.001 
0.000698426 -0.000473086 -0.001 -5.25801e-05 -0.00084886 -0.001 -4.93005e-05 0.000848038 -0.001 
0.000617396 -0.000413362 -0.001 0.000702056 -0.000369817 -0.001 0.000131459 -0.000679171 -0.001 
2.48171e-05 -0.000715924 -0.001 -0.000664217 -0.00042729 -0.001 -0.000528828 -8.80444e-05 -0.001 
-0.000611101 -0.000136672 -0.001 -0.000426972 -4.45841e-05 -0.001 0.000800669 0.000378216 -0.001 
0.000821144 -0.000415062 -0.001 7.2799e-05 0.00088254 -0.001 6.81831e-05 -0.00087503 -0.001 
0.000104963 -0.000788946 -0.001 -7.40696e-05 -0.000660054 -0.001 0.000126061 0.000809943 -0.001 
0.000764361 0.000295682 -0.001 0.000166862 0.000630623 -0.001 0.000516462 -0.00046707 -0.001 
-0.000563585 -0.000389606 -0.001 -0.000622598 -1.40238e-05 -0.001 0.000629891 0.000171529 -0.001 
2.5614e-06 -0.000299794 -0.001 8.6901e-05 -0.00024329 -0.001 0.000272045 -0.000136982 -0.001 
-0.00075148 0.000138321 -0.001 0.000209366 -0.000599589 -0.001 0.000324913 -0.000630055 -0.001 
0.000614044 0.00041245 -0.001 0.00049651 -0.000573327 -0.001 0.000394822 -0.000507321 -0.001 
-0.000173714 -0.000206698 -0.001 0.000264897 5.63722e-05 -0.001 0.000247997 0.000152811 -0.001 
-4.63327e-05 -0.000920208 -0.001 9.18688e-05 0.000258626 -0.001 -5.54111e-06 0.000290558 -0.001 
-0.000184219 0.000201484 -0.001 -0.000263559 0.000142267 -0.001 -0.000256427 5.13624e-05 -0.001 
-0.000336894 -2.06179e-06 -0.001 -0.000228499 -4.2388e-05 -0.001 -0.00017589 0.000106626 -0.001 
-0.000769947 -0.000133367 -0.001 0.000767591 -0.000500293 -0.001 -5.05874e-05 0.000737978 -0.001 
0.000754456 -3.51771e-06 -0.001 0.00064691 -6.15298e-05 -0.001 0.000630483 -0.00018134 -0.001 
0.000749187 -0.000265543 -0.001 -0.000760805 -0.000462521 -0.001 0.000638155 6.09315e-05 -0.001 
-4.46661e-05 0.000922995 -0.001 -2.37945e-05 0.000207237 -0.001 0.000776979 0.000500181 -0.001 
-0.000605691 0.000527596 -0.001 -0.000377914 -0.000653727 -0.001 -0.000372325 -0.000526022 -0.001 
-0.000275829 -0.000589621 -0.001 -0.000254285 -0.000710579 -0.001 -0.000379307 0.000656222 -0.001 
-0.000379818 0.00052718 -0.001 -0.000266817 0.000721555 -0.001 -0.000150544 0.000668174 -0.001 
0.000381963 0.00065079 -0.001 0.000493113 0.000590432 -0.001 0.000505439 0.000463708 -0.001 
-0.000269094 0.000596608 -0.001 0.000385815 0.000532045 -0.001 0.000283599 0.0005899 -0.001 
-0.000176405 -0.000108505 -0.001 -0.000278769 -0.000475415 -0.001 0.000185395 2.33014e-06 -0.001 
0.000186773 0.000517571 -0.001 0.000540032 -8.68444e-05 -0.001 -0.000600694 -0.000514877 -0.001 
-0.00063703 8.98033e-05 -0.001 -0.000459677 0.000335729 -0.001 -0.000338836 -0.000100751 -0.001 
-0.000457327 0.000432721 -0.001 -8.72007e-06 -0.000210238 -0.001 0.000156073 0.000129496 -0.001 
-7.70692e-05 -0.000555049 -0.001 0.00036091 -0.000389728 -0.001 0.000531628 0.000120564 -0.001 
-0.000285451 0.000435562 -0.001 0.000192719 -0.000494604 -0.001 0.00041642 0.00039368 -0.001 
-0.000135943 0.000554637 -0.001 -0.000170665 -0.000610079 -0.001 -0.000666304 0.000434981 -0.001 
-0.000758736 0.000479231 -0.001 -0.000470189 -0.000458901 -0.001 0.000203433 -8.59809e-05 -0.001 
0.000101846 0.000170114 -0.001 -0.00035513 -0.00040726 -0.001 0.000100184 -0.000165831 -0.001 
2.96286e-05 0.00081537 -0.001 0.000720946 0.000381836 -0.001 -0.000539809 -0.000292001 -0.001 
0.00052211 -0.000182426 -0.001 -6.41339e-05 -0.000753908 -0.001 0.000638039 -0.000299861 -0.001 
-0.000605136 -0.000230182 -0.001 -3.41638e-05 -0.000145561 -0.001 -0.000104037 0.000172396 -0.001 
-0.000808575 -0.00042774 -0.001 -0.000807207 -0.000465052 -0.001 -0.00080817 0.000429771 -0.001 
-0.000806589 0.000469738 -0.001 -9.50634e-05 -0.000178909 -0.001 0.000247777 0.000445058 -0.001 
1.48293e-05 -0.000814201 -0.001 -4.11555e-05 0.000140955 -0.001 0.000276104 -0.000536845 -0.001 
0.000765969 -0.000436638 -0.001 0.000780871 -0.000362769 -0.001 0.000424176 -0.000642018 -0.001 
0.00053413 -0.000368009 -0.001 -0.000416333 4.17911e-05 -0.001 -0.000133891 -6.23822e-05 -0.001 
4.2574e-05 0.000206312 -0.001 0.000141163 -0.000121542 -0.001 0.000707423 0.000212137 -0.001 
0.000172327 0.000723882 -0.001 7.72652e-06 -0.00090254 -0.001 -0.000134435 5.66935e-05 -0.001 
-0.000188826 3.70894e-05 -0.001 0.000197119 8.09714e-05 -0.001 1.27801e-05 0.000917296 -0.001 
0.000800767 0.00044758 -0.001 -0.000686682 0.000507104 -0.001 9.35831e-05 0.000110457 -0.001 
-0.000696793 -0.000509595 -0.001 -0.00068446 -8.52012e-05 -0.001 -0.000691033 -0.000201242 -0.001 
5.24052e-05 -0.000189075 -0.001 -0.000151818 -0.000701092 -0.001 -0.000296988 0.000518087 -0.001 
9.31023e-05 -0.000108117 -0.001 0.00044261 -0.000416726 -0.001 0.000197044 -0.000784423 -0.001 
-0.000516861 0.000504567 -0.001 0.000298997 0.000502377 -0.001 

CELLS 563 3941
6 14 304 127 29 554 377 
6 143 259 55 393 509 103 
6 300 319 174 550 569 424 
6 259 349 55 509 599 103 
6 50 365 307 98 615 557 
6 299 320 164 549 570 414 
6 126 304 14 376 554 29 
6 298 319 300 548 569 550 
6 205 240 238 455 490 488 
6 257 308 145 507 558 395 
6 130 352 273 380 602 523 
6 295 320 299 545 570 549 
6 324 327 289 574 577 539 
6 235 258 143 485 508 393 
6 50 307 49 98 557 97 
6 207 283 279 457 533 529 
6 143 373 235 393 623 485 
6 145 308 252 395 558 502 
6 194 303 196 444 553 446 
6 279 306 207 529 556 457 
6 206 305 163 456 555 413 
6 51 357 9 99 607 24 
6 238 252 205 488 502 455 
6 293 317 209 543 567 459 
6 207 316 283 457 566 533 
6 142 301 249 392 551 499 
6 273 359 130 523 609 380 
6 211 327 324 461 577 574 
6 169 265 217 419 515 467 
6 7 365 50 22 615 98 
6 283 316 253 533 566 503 
6 159 268 223 409 518 473 
6 274 337 132 524 587 382 
6 232 361 329 482 611 579 
6 231 266 45 481 516 93 
6 229 362 330 479 612 580 
6 9 244 57 24 494 105 
6 230 276 52 480 526 100 
6 209 311 293 459 561 543 
6 131 342 302 381 592 552 
6 270 271 204 520 521 454 
6 66 243 1 114 493 16 
6 59 241 12 107 491 27 
6 280 306 279 530 556 529 
6 269 337 274 519 587 524 
6 179 256 224 429 506 474 
6 163 305 166 413 555 416 
6 201 303 194 451 553 444 
6 280 332 306 530 582 556 
6 186 255 225 436 505 475 
6 210 310 273 460 560 523 
6 153 270 204 403 520 454 
6 136 231 45 386 481 93 
6 171 265 169 421 515 419 
6 138 230 52 388 480 100 
6 225 354 325 475 604 575 
6 36 284 232 84 534 482 
6 161 268 159 411 518 409 
6 71 286 229 119 536 479 
6 290 303 201 540 553 451 
6 139 355 60 389 605 108 
6 60 355 248 108 605 498 
6 273 352 302 523 602 552 
6 235 373 245 485 623 495 
6 67 356 247 115 606 497 
6 221 295 277 471 545 527 
6 142 356 67 392 606 115 
6 139 283 253 389 533 503 
6 203 315 262 453 565 512 
6 41 257 145 89 507 395 
6 36 232 135 84 482 385 
6 71 229 137 119 479 387 
6 254 255 188 504 505 438 
6 233 350 334 483 600 584 
6 262 346 203 512 596 453 
6 304 325 127 554 575 377 
6 222 329 247 472 579 497 
6 218 298 260 468 548 510 
6 290 321 291 540 571 541 
6 272 310 240 522 560 490 
6 269 274 270 519 524 520 
6 244 245 57 494 495 105 
6 49 307 141 97 557 391 
6 225 325 256 475 575 506 
6 273 310 272 523 560 522 
6 312 368 255 562 618 505 
6 249 305 206 499 555 456 
6 228 331 251 478 581 501 
6 302 342 263 552 592 513 
6 338 339 44 588 589 92 
6 190 254 188 440 504 438 
6 37 341 340 85 591 590 
6 138 233 230 388 483 480 
6 228 335 331 478 585 581 
6 181 256 179 431 506 429 
6 195 263 226 445 513 476 
6 268 285 223 518 535 473 
6 290 291 288 540 541 538 
6 219 330 248 469 580 498 
6 201 321 290 451 571 540 
6 240 310 202 490 560 452 
6 188 255 186 438 505 436 
6 270 274 271 520 524 521 
6 262 349 259 512 599 509 
6 141 324 289 391 574 539 
6 296 301 142 546 551 392 
6 247 356 222 497 606 472 
6 239 252 238 489 502 488 
6 254 312 255 504 562 505 
6 54 261 53 102 511 101 
6 289 327 303 539 577 553 
6 268 353 285 518 603 535 
6 273 302 210 523 552 460 
6 292 299 293 542 549 543 
6 278 283 139 528 533 389 
6 175 265 171 425 515 421 
6 227 338 38 477 588 86 
6 264 360 265 514 610 515 
6 43 340 146 91 590 396 
6 165 268 161 415 518 411 
6 205 351 240 455 601 490 
6 64 281 63 112 531 111 
6 288 291 47 538 541 95 
6 135 295 294 385 545 544 
6 42 257 41 90 507 89 
6 245 373 57 495 623 105 
6 31 363 323 79 613 573 
6 292 293 140 542 543 390 
6 267 353 268 517 603 518 
6 155 270 153 405 520 403 
6 244 344 245 494 594 495 
6 61 278 139 109 528 389 
6 135 294 35 385 544 83 
6 69 297 296 117 547 546 
6 186 225 184 436 475 434 
6 329 361 243 579 611 493 
6 255 328 225 505 578 475 
6 213 332 280 463 582 530 
6 39 275 133 87 525 383 
6 330 362 241 580 612 491 
6 195 226 193 445 476 443 
6 211 324 251 461 574 501 
6 151 153 152 401 403 402 
6 295 299 294 545 549 544 
6 265 313 217 515 563 467 
6 258 259 143 508 509 393 
6 251 331 211 501 581 461 
6 149 151 150 399 401 400 
6 293 370 317 543 620 567 
6 153 204 152 403 454 402 
6 151 152 150 401 402 400 
6 33 292 140 81 542 390 
6 210 263 197 460 513 447 
6 301 305 249 551 555 499 
6 298 300 297 548 550 547 
6 68 296 142 116 546 392 
6 321 369 291 571 619 541 
6 179 224 177 429 474 427 
6 167 267 165 417 517 415 
6 259 346 262 509 596 512 
6 303 327 196 553 577 446 
6 269 270 155 519 520 405 
6 265 360 313 515 610 563 
6 223 269 157 473 519 407 
6 157 269 155 407 519 405 
6 144 279 278 394 529 528 
6 169 217 167 419 467 417 
6 177 264 175 427 514 425 
6 267 268 165 517 518 415 
6 159 223 157 409 473 407 
6 232 277 135 482 527 385 
6 193 254 190 443 504 440 
6 217 267 167 467 517 417 
6 249 356 142 499 606 392 
6 184 256 181 434 506 431 
6 248 355 219 498 605 469 
6 229 260 137 479 510 387 
6 149 150 148 399 400 398 
6 64 348 281 112 598 531 
6 311 374 293 561 624 543 
6 264 265 175 514 515 425 
6 297 300 296 547 550 546 
6 141 289 288 391 539 538 
6 197 263 195 447 513 445 
6 218 260 219 468 510 469 
6 224 264 177 474 514 427 
6 137 298 297 387 548 547 
6 277 295 135 527 545 385 
6 133 228 227 383 478 477 
6 261 349 262 511 599 512 
6 221 277 222 471 527 472 
6 256 325 224 506 575 474 
6 199 210 197 449 460 447 
6 226 254 193 476 504 443 
6 144 278 62 394 528 110 
6 279 283 278 529 533 528 
6 289 290 288 539 540 538 
6 137 297 70 387 547 118 
6 34 294 292 82 544 542 
6 235 236 216 485 486 466 
6 141 288 48 391 538 96 
6 178 306 180 428 556 430 
6 185 186 184 435 436 434 
6 63 281 144 111 531 394 
6 225 256 184 475 506 434 
6 46 291 136 94 541 386 
6 147 149 148 397 399 398 
6 271 272 204 521 522 454 
6 233 334 234 483 584 484 
6 145 275 40 395 525 88 
6 220 322 287 470 572 537 
6 280 334 213 530 584 463 
6 144 280 279 394 530 529 
6 140 287 32 390 537 80 
6 154 155 153 404 405 403 
6 334 350 213 584 600 463 
6 176 177 175 426 427 425 
6 260 298 137 510 548 387 
6 33 140 32 81 390 80 
6 49 141 48 97 391 96 
6 56 143 55 104 393 103 
6 68 142 67 116 392 115 
6 63 144 62 111 394 110 
6 61 139 60 109 389 108 
6 148 308 257 398 558 507 
6 71 137 70 119 387 118 
6 53 138 52 101 388 100 
6 46 136 45 94 386 93 
6 36 135 35 84 385 83 
6 43 146 134 91 396 384 
6 133 227 38 383 477 86 
6 192 193 190 442 443 440 
6 293 374 140 543 624 390 
6 34 292 33 82 542 81 
6 207 306 178 457 556 428 
6 43 134 42 91 384 90 
6 39 133 38 87 383 86 
6 41 145 40 89 395 88 
6 194 195 193 444 445 443 
6 69 296 68 117 546 116 
6 294 299 292 544 549 542 
6 173 175 171 423 425 421 
6 260 330 219 510 580 469 
6 183 184 181 433 434 431 
6 134 257 42 384 507 90 
6 55 349 54 103 599 102 
6 163 165 161 413 415 411 
6 166 167 165 416 417 415 
6 210 302 263 460 552 513 
6 271 273 272 521 523 522 
6 53 261 138 101 511 388 
6 217 326 267 467 576 517 
6 289 303 290 539 553 540 
6 178 179 177 428 429 427 
6 238 240 202 488 490 452 
6 62 278 61 110 528 109 
6 35 294 34 83 544 82 
6 284 361 232 534 611 482 
6 70 297 69 118 547 117 
6 224 304 264 474 554 514 
6 156 157 155 406 407 405 
6 48 288 47 96 538 95 
6 221 320 295 471 570 545 
6 187 188 186 437 438 436 
6 47 291 46 95 541 94 
6 151 154 153 401 404 403 
6 286 362 229 536 612 479 
6 168 169 167 418 419 417 
6 40 275 39 88 525 87 
6 307 324 141 557 574 391 
6 300 301 296 550 551 546 
6 32 287 31 80 537 79 
6 147 220 149 397 470 399 
6 333 344 231 583 594 481 
6 299 370 293 549 620 543 
6 271 359 273 521 609 523 
6 224 325 304 474 575 554 
6 228 237 227 478 487 477 
6 305 375 343 555 625 593 
6 218 319 298 468 569 548 
6 240 351 272 490 601 522 
6 277 329 222 527 579 472 
6 253 355 139 503 605 389 
6 158 159 157 408 409 407 
6 236 246 216 486 496 466 
6 192 194 193 442 444 443 
6 220 309 149 470 559 399 
6 183 185 184 433 435 434 
6 196 197 195 446 447 445 
6 276 347 58 526 597 106 
6 136 333 231 386 583 481 
6 67 247 66 115 497 114 
6 60 248 59 108 498 107 
6 261 262 250 511 512 500 
6 173 176 175 423 426 425 
6 344 357 231 594 607 481 
6 144 281 280 394 531 530 
6 152 205 150 402 455 400 
6 163 166 165 413 416 415 
6 185 187 186 435 437 436 
6 233 234 230 483 484 480 
6 170 171 169 420 421 419 
6 146 147 134 396 397 384 
6 176 178 177 426 428 427 
6 285 337 223 535 587 473 
6 154 156 155 404 406 405 
6 263 342 226 513 592 476 
6 235 245 236 485 495 486 
6 160 161 159 410 411 409 
6 58 347 242 106 597 492 
6 166 168 167 416 418 417 
6 287 374 220 537 624 470 
6 189 190 188 439 440 438 
6 148 257 134 398 507 384 
6 194 196 195 444 446 445 
6 252 308 205 502 558 455 
6 285 345 337 535 595 587 
6 301 375 305 551 625 555 
6 180 181 179 430 431 429 
6 281 348 234 531 598 484 
6 198 199 197 448 449 447 
6 151 309 154 401 559 404 
6 228 367 335 478 617 585 
6 54 349 261 102 599 511 
6 156 158 157 406 408 407 
6 168 170 169 418 420 419 
6 200 202 199 450 452 449 
6 147 148 134 397 398 384 
6 158 160 159 408 410 409 
6 150 308 148 400 558 398 
6 253 316 208 503 566 458 
6 232 329 277 482 579 527 
6 178 180 179 428 430 429 
6 191 192 190 441 442 440 
6 214 238 202 464 488 452 
6 172 173 171 422 423 421 
6 187 189 188 437 439 438 
6 162 163 161 412 413 411 
6 228 251 237 478 501 487 
6 215 258 235 465 508 485 
6 182 183 181 432 433 431 
6 202 310 199 452 560 449 
6 219 253 208 469 503 458 
6 222 249 206 472 499 456 
6 196 198 197 446 448 447 
6 229 330 260 479 580 510 
6 132 358 274 382 608 524 
6 149 309 151 399 559 401 
6 226 312 254 476 562 504 
6 154 309 209 404 559 459 
6 77 129 76 125 379 124 
6 73 128 72 121 378 120 
6 76 131 75 124 381 123 
6 74 132 73 122 382 121 
6 75 130 74 123 380 122 
6 14 127 77 29 377 125 
6 72 126 14 120 376 29 
6 133 367 228 383 617 478 
6 237 282 227 487 532 477 
6 239 366 252 489 616 502 
6 200 214 202 450 464 452 
6 192 201 194 442 451 444 
6 170 172 171 420 422 421 
6 220 311 309 470 561 559 
6 198 200 199 448 450 449 
6 189 191 190 439 441 440 
6 146 323 322 396 573 572 
6 160 162 161 410 412 411 
6 251 307 237 501 557 487 
6 199 310 210 449 560 460 
6 57 373 56 105 623 104 
6 214 239 238 464 489 488 
6 182 212 183 432 462 433 
6 180 182 181 430 432 431 
6 146 322 147 396 572 397 
6 172 218 208 422 468 458 
6 172 208 173 422 458 423 
6 162 221 206 412 471 456 
6 162 206 163 412 456 413 
6 176 207 178 426 457 428 
6 272 351 204 522 601 454 
6 198 211 200 448 461 450 
6 182 213 212 432 463 462 
6 234 334 281 484 584 531 
6 154 209 156 404 459 406 
6 185 203 187 435 453 437 
6 168 174 170 418 424 420 
6 189 215 191 439 465 441 
6 215 216 191 465 466 441 
6 221 222 206 471 472 456 
6 158 164 160 408 414 410 
6 218 219 208 468 469 458 
6 205 308 150 455 558 400 
6 191 314 192 441 564 442 
6 215 235 216 465 485 466 
6 215 318 258 465 568 508 
6 152 351 205 402 601 455 
6 138 261 250 388 511 500 
6 192 314 201 442 564 451 
6 234 347 230 484 597 480 
6 226 342 312 476 592 562 
6 138 250 233 388 500 483 
6 147 322 220 397 572 470 
6 216 314 191 466 564 441 
6 306 332 180 556 582 430 
6 222 356 249 472 606 499 
6 128 345 285 378 595 535 
6 314 321 201 564 571 451 
6 212 315 183 462 565 433 
6 312 342 336 562 592 586 
6 282 339 338 532 589 588 
6 340 341 323 590 591 573 
6 309 311 209 559 561 459 
6 183 315 185 433 565 435 
6 208 316 173 458 566 423 
6 173 316 176 423 566 426 
6 3 341 37 18 591 85 
6 44 339 6 92 589 21 
6 252 366 145 502 616 395 
6 246 321 314 496 571 564 
6 246 314 216 496 564 466 
6 126 364 313 376 614 563 
6 156 317 158 406 567 408 
6 275 367 133 525 617 383 
6 176 316 207 426 566 457 
6 185 315 203 435 565 453 
6 180 332 182 430 582 432 
6 302 352 131 552 602 381 
6 251 324 307 501 574 557 
6 187 318 189 437 568 439 
6 172 319 218 422 569 468 
6 162 320 221 412 570 471 
6 305 343 166 555 593 416 
6 170 319 172 420 569 422 
6 158 317 164 408 567 414 
6 209 317 156 459 567 406 
6 285 353 128 535 603 378 
6 223 337 269 473 587 519 
6 160 320 162 410 570 412 
6 211 331 200 461 581 450 
6 174 319 170 424 569 420 
6 203 318 187 453 568 437 
6 189 318 215 439 568 465 
6 198 327 211 448 577 461 
6 164 320 160 414 570 410 
6 326 353 267 576 603 517 
6 236 344 333 486 594 583 
6 196 327 198 446 577 448 
6 219 355 253 469 605 503 
6 281 334 280 531 584 530 
6 274 359 271 524 609 521 
6 164 370 299 414 620 549 
6 174 375 300 424 625 550 
6 287 363 31 537 613 79 
6 243 361 1 493 611 16 
6 241 362 12 491 612 27 
6 307 365 237 557 615 487 
6 166 343 168 416 593 418 
6 200 331 214 450 581 464 
6 313 326 217 563 576 467 
6 9 357 244 24 607 494 
6 1 361 30 16 611 78 
6 12 362 65 27 612 113 
6 337 345 132 587 595 382 
6 242 348 64 492 598 112 
6 231 357 266 481 607 516 
6 182 332 213 432 582 463 
6 245 344 236 495 594 486 
6 258 346 259 508 596 509 
6 145 366 275 395 616 525 
6 291 369 136 541 619 386 
6 236 333 246 486 583 496 
6 331 335 214 581 585 464 
6 312 336 129 562 586 379 
6 315 372 262 565 622 512 
6 220 374 311 470 624 561 
6 140 374 287 390 624 537 
6 126 360 304 376 610 554 
6 230 347 276 480 597 526 
6 313 364 326 563 614 576 
6 56 373 143 104 623 393 
6 239 367 366 489 617 616 
6 204 351 152 454 601 402 
6 300 375 301 550 625 551 
6 214 335 239 464 585 489 
6 247 329 243 497 579 493 
6 262 372 250 512 622 500 
6 248 330 241 498 580 491 
6 318 346 258 568 596 508 
6 333 369 246 583 619 496 
6 282 338 227 532 588 477 
6 146 340 323 396 590 573 
6 304 360 264 554 610 514 
6 366 367 275 616 617 525 
6 129 336 76 379 586 124 
6 73 345 128 121 595 378 
6 76 336 131 124 586 381 
6 250 350 233 500 600 483 
6 129 371 328 379 621 578 
6 132 345 73 382 595 121 
6 168 343 174 418 593 424 
6 131 352 75 381 602 123 
6 66 247 243 114 497 493 
6 59 248 241 107 498 491 
6 74 358 132 122 608 382 
6 203 346 318 453 596 568 
6 313 360 126 563 610 376 
6 128 364 72 378 614 120 
6 128 353 326 378 603 576 
6 77 371 129 125 621 379 
6 129 368 312 379 618 562 
6 244 357 344 494 607 594 
6 328 354 225 578 604 475 
6 326 364 128 576 614 378 
6 75 352 130 123 602 380 
6 350 372 212 600 622 462 
6 136 369 333 386 619 583 
6 325 354 127 575 604 377 
6 213 350 212 463 600 462 
6 130 358 74 380 608 122 
6 250 372 350 500 622 600 
6 317 370 164 567 620 414 
6 72 364 126 120 614 376 
6 328 368 129 578 618 379 
6 127 371 77 377 621 125 
6 336 342 131 586 592 381 
6 212 372 315 462 622 565 
6 234 348 347 484 598 597 
6 8 266 51 23 516 99 
6 10 276 58 25 526 106 
6 246 369 321 496 619 571 
6 30 284 0 78 534 15 
6 65 286 13 113 536 28 
6 58 242 11 106 492 26 
6 266 357 51 516 607 99 
6 255 368 328 505 618 578 
6 347 348 242 597 598 492 
6 322 363 287 572 613 537 
6 323 363 322 573 613 572 
6 335 367 239 585 617 489 
6 30 361 284 78 611 534 
6 65 362 286 113 612 536 
6 237 365 282 487 615 532 
6 130 359 358 380 609 608 
6 343 375 174 593 625 424 
6 354 371 127 604 621 377 
6 328 371 354 578 621 604 
6 358 359 274 608 609 524 
6 0 284 36 15 534 84 
6 45 266 8 93 516 23 
6 52 276 10 100 526 25 
6 11 242 64 26 492 112 
6 13 286 71 28 536 119 
6 2 323 3 17 573 18 
6 31 323 2 79 573 17 
6 323 341 3 573 591 18 
6 37 340 4 85 590 19 
6 4 340 43 19 590 91 
6 38 338 5 86 588 20 
6 5 338 44 20 588 92 
6 6 282 7 21 532 22 
6 6 339 282 21 589 532 
6 282 365 7 532 615 22 

CELL_TYPES 563
13
13
13
13
13
13
13
13
13
13
13
13
13
13
13
13
13
13
13
13
13
13
13
13
13
13
13
13
13
13
13
13
13
13
13
13
13
13
13
13
13
13
13
13
13
13
13
13
13
13
13
13
13
13
13
13
13
13
13
13
13
13
13
13
13
13
13
13
13
13
13
13
13
13
13
13
13
13
13
13
13
13
13
13
13
13
13
13
13
13
13
13
13
13
13
13
13
13
13
13
13
13
13
13
13
13
13
13
13
13
13
13
13
13
13
13
13
13
13
13
13
13
13
13
13
13
13
13
13
13
13
13
13
13
13
13
13
13
13
13
13
13
13
13
13
13
13
13
13
13
13
13
13
13
13
13
13
13
13
13
13
13
13
13
13
13
13
13
13
13
13
13
13
13
13
13
13
13
13
13
13
13
13
13
13
13
13
13
13
13
13
13
13
13
13
13
13
13
13
13
13
13
13
13
13
13
13
13
13
13
13
13
13
13
13
13
13
13
13
13
13
13
13
13
13
13
13
13
13
13
13
13
13
13
13
13
13
13
13
13
13
13
13
13
13
13
13
13
13
13
13
13
13
13
13
13
13
13
13
13
13
13
13
13
13
13
13
13
13
13
13
13
13
13
13
13
13
13
13
13
13
13
13
13
13
13
13
13
13
13
13
13
13
13
13
13
13
13
13
13
13
13
13
13
13
13
13
13
13
13
13
13
13
13
13
13
13
13
13
13
13
13
13
13
13
13
13
13
13
13
13
13
13
13
13
13
13
13
13
13
13
13
13
13
13
13
13
13
13
13
13
13
13
13
13
13
13
13
13
13
13
13
13
13
13
13
13
13
13
13
13
13
13
13
13
13
13
13
13
13
13
13
13
13
13
13
13
13
13
13
13
13
13
13
13
13
13
13
13
13
13
13
13
13
13
13
13
13
13
13
13
13
13
13
13
13
13
13
13
13
13
13
13
13
13
13
13
13
13
13
13
13
13
13
13
13
13
13
13
13
13
13
13
13
13
13
13
13
13
13
13
13
13
13
13
13
13
13
13
13
13
13
13
13
13
13
13
13
13
13
13
13
13
13
13
13
13
13
13
13
13
13
13
13
13
13
13
13
13
13
13
13
13
13
13
13
13
13
13
13
13
13
13
13
13
13
13
13
13
13
13
13
13
13
13
13
13
13
13
13
13
13
13
13
13
13
13
13
13
13
13
13
13
13
13
13
13
13
13
13
13
13
13
13
13
13
13
13
13
13
13
13
13
13
13
13
13
13
13
13
13
13
13

POINT_DATA 626
VECTORS displacement float
-1.74394e-06 3.0956e-05 1.80557e-05
1.73564e-06 3.0975e-05 1.81008e-05
-2.59877e-05 1.69936e-05 1.80878e-05
-2.58423e-05 1.60338e-05 1.80524e-05
-2.7722e-05 1.39736e-05 1.80698e-05
-2.7715e-05 -1.40199e-05 1.80952e-05
-2.58134e-05 -1.60719e-05 1.81066e-05
-2.59839e-05 -1.70117e-05 1.81678e-05
-1.6774e-06 -3.09597e-05 1.80521e-05
1.75544e-06 -3.09613e-05 1.81026e-05
2.5945e-05 -1.69815e-05 1.80442e-05
2.77184e-05 -1.39375e-05 1.80441e-05
2.76738e-05 1.39902e-05 1.80924e-05
2.59163e-05 1.69938e-05 1.80468e-05
0 0 0
-1.74394e-06 3.0956e-05 -1.80557e-05
1.73564e-06 3.0975e-05 -1.81008e-05
-2.59877e-05 1.69936e-05 -1.80878e-05
-2.58423e-05 1.60338e-05 -1.80524e-05
-2.7722e-05 1.39736e-05 -1.80698e-05
-2.7715e-05 -1.40199e-05 -1.80952e-05
-2.58134e-05 -1.60719e-05 -1.81066e-05
-2.59839e-05 -1.70117e-05 -1.81678e-05
-1.6774e-06 -3.09597e-05 -1.80521e-05
1.75544e-06 -3.09613e-05 -1.81026e-05
2.5945e-05 -1.69815e-05 -1.80442e-05
2.77184e-05 -1.39375e-05 -1.80441e-05
2.76738e-05 1.39902e-05 -1.80924e-05
2.59163e-05 1.69938e-05 -1.80468e-05
0 0 0
2.48876e-08 3.01559e-05 1.80349e-05
-2.11419e-05 1.87133e-05 1.75505e-05
-1.72337e-05 1.98349e-05 1.69217e-05
-1.40079e-05 2.10555e-05 1.65559e-05
-1.12075e-05 2.26663e-05 1.65497e-05
-8.52449e-06 2.48344e-05 1.69022e-05
-5.56795e-06 2.76233e-05 1.75382e-05
-2.64512e-05 1.46799e-05 1.80342e-05
-2.67702e-05 -9.0122e-06 1.75782e-05
-2.58078e-05 -5.0359e-06 1.69268e-05
-2.52561e-05 -1.63635e-06 1.65723e-05
-2.5259e-05 1.60799e-06 1.65753e-05
-2.58e-05 5.02329e-06 1.6925e-05
-2.67564e-05 8.98528e-06 1.75647e-05
-2.64381e-05 -1.47262e-05 1.8063e-05
-5.54121e-06 -2.76378e-05 1.75304e-05
-8.47701e-06 -2.48434e-05 1.69015e-05
-1.11707e-05 -2.26857e-05 1.65571e-05
-1.39715e-05 -2.10886e-05 1.65605e-05
-1.72161e-05 -1.98703e-05 1.69375e-05
-2.11355e-05 -1.87501e-05 1.7563e-05
8.9831e-08 -3.01406e-05 1.80301e-05
2.11253e-05 -1.86258e-05 1.75122e-05
1.72458e-05 -1.97633e-05 1.68737e-05
1.40348e-05 -2.10125e-05 1.65125e-05
1.12257e-05 -2.25944e-05 1.6547e-05
8.58164e-06 -2.47816e-05 1.6875e-05
5.65482e-06 -2.7628e-05 1.75358e-05
2.61259e-05 -1.50604e-05 1.80291e-05
2.67183e-05 8.93908e-06 1.75023e-05
2.57236e-05 5.05002e-06 1.69092e-05
2.52082e-05 1.62347e-06 1.65241e-05
2.52053e-05 -1.59958e-06 1.65224e-05
2.57522e-05 -4.99781e-06 1.68892e-05
2.67003e-05 -8.91783e-06 1.75105e-05
2.61089e-05 1.50616e-05 1.80261e-05
5.63328e-06 2.76194e-05 1.75103e-05
8.50902e-06 2.48083e-05 1.69121e-05
1.12177e-05 2.26425e-05 1.65303e-05
1.40054e-05 2.10235e-05 1.65256e-05
1.72228e-05 1.97946e-05 1.68859e-05
2.11163e-05 1.86354e-05 1.75262e-05
0 0 0
0 0 0
0 0 0
0 0 0
0 0 0
0 0 0
2.48876e-08 3.01559e-05 -1.80349e-05
-2.11419e-05 1.87133e-05 -1.75505e-05
-1.72337e-05 1.98349e-05 -1.69217e-05
-1.40079e-05 2.10555e-05 -1.65559e-05
-1.12075e-05 2.26663e-05 -1.65497e-05
-8.52449e-06 2.48344e-05 -1.69022e-05
-5.56795e-06 2.76233e-05 -1.75382e-05
-2.64512e-05 1.46799e-05 -1.80342e-05
-2.67702e-05 -9.0122e-06 -1.75782e-05
-2.58078e-05 -5.0359e-06 -1.69268e-05
-2.52561e-05 -1.63635e-06 -1.65723e-05
-2.5259e-05 1.60799e-06 -1.65753e-05
-2.58e-05 5.02329e-06 -1.6925e-05
-2.67564e-05 8.98528e-06 -1.75647e-05
-2.64381e-05 -1.47262e-05 -1.8063e-05
-5.54121e-06 -2.76378e-05 -1.75304e-05
-8.47701e-06 -2.48434e-05 -1.69015e-05
-1.11707e-05 -2.26857e-05 -1.65571e-05
-1.39715e-05 -2.10886e-05 -1.65605e-05
-1.72161e-05 -1.98703e-05 -1.69375e-05
-2.11355e-05 -1.87501e-05 -1.7563e-05
8.9831e-08 -3.01406e-05 -1.80301e-05
2.11253e-05 -1.86258e-05 -1.75122e-05
1.72458e-05 -1.97633e-05 -1.68737e-05
1.40348e-05 -2.10125e-05 -1.65125e-05
1.12257e-05 -2.25944e-05 -1.6547e-05
8.58164e-06 -2.47816e-05 -1.6875e-05
5.65482e-06 -2.7628e-05 -1.75358e-05
2.61259e-05 -1.50604e-05 -1.80291e-05
2.67183e-05 8.93908e-06 -1.75023e-05
2.57236e-05 5.05002e-06 -1.69092e-05
2.52082e-05 1.62347e-06 -1.65241e-05
2.52053e-05 -1.59958e-06 -1.65224e-05
2.57522e-05 -4.99781e-06 -1.68892e-05
2.67003e-05 -8.91783e-06 -1.75105e-05
2.61089e-05 1.50616e-05 -1.80261e-05
5.63328e-06 2.76194e-05 -1.75103e-05
8.50902e-06 2.48083e-05 -1.69121e-05
1.12177e-05 2.26425e-05 -1.65303e-05
1.40054e-05 2.10235e-05 -1.65256e-05
1.72228e-05 1.97946e-05 -1.68859e-05
2.11163e-05 1.86354e-05 -1.75262e-05
0 0 0
0 0 0
0 0 0
0 0 0
0 0 0
0 0 0
1.79376e-06 8.58786e-07 4.55253e-06
1.7379e-06 -8.25152e-07 4.46108e-06
4.31973e-07 1.84971e-06 4.49539e-06
4.36118e-07 -1.78071e-06 4.35635e-06
-1.84757e-06 2.09644e-08 4.42263e-06
-1.12314e-06 -1.30893e-06 4.15125e-06
-1.15926e-06 1.30686e-06 4.20004e-06
-2.25144e-05 -7.28816e-06 1.70008e-05
-2.21977e-05 7.37205e-06 1.69694e-05
-4.86068e-06 2.28999e-05 1.69378e-05
-4.85819e-06 -2.3133e-05 1.69647e-05
1.74223e-05 1.56364e-05 1.69307e-05
1.75699e-05 -1.55373e-05 1.69399e-05
2.10748e-05 3.1641e-06 1.63253e-05
-1.3954e-05 1.71523e-05 1.64792e-05
-1.3592e-05 -1.67423e-05 1.64108e-05
7.7683e-06 1.98208e-05 1.63321e-05
7.68531e-06 -2.03112e-05 1.64034e-05
2.14736e-05 -3.44398e-06 1.6401e-05
-2.1104e-05 6.58814e-09 1.62475e-05
-2.24216e-05 1.10004e-05 1.74544e-05
-1.8752e-05 9.25525e-06 1.66279e-05
-1.79839e-05 5.79581e-06 1.60371e-05
-1.49849e-05 7.44879e-06 1.54872e-05
-1.42253e-05 4.30799e-06 1.48305e-05
-1.15333e-05 5.74424e-06 1.40955e-05
-1.08587e-05 3.06892e-06 1.33743e-05
-8.40099e-06 4.30513e-06 1.2405e-05
-9.05935e-06 7.01383e-06 1.34571e-05
-6.20447e-06 5.48883e-06 1.16896e-05
-6.82872e-06 8.24994e-06 1.30806e-05
-4.28165e-06 6.6753e-06 1.14511e-05
-4.8003e-06 9.61051e-06 1.30946e-05
-2.40101e-06 7.99382e-06 1.17236e-05
-2.81302e-06 1.11679e-05 1.34756e-05
-4.7544e-07 9.59587e-06 1.25016e-05
-7.38401e-07 1.29977e-05 1.41425e-05
1.73118e-06 1.15185e-05 1.35357e-05
-5.53503e-06 1.27012e-05 1.44377e-05
1.68518e-06 8.22446e-06 1.17482e-05
4.00442e-06 1.01215e-05 1.31516e-05
3.70557e-06 7.09837e-06 1.14789e-05
6.06777e-06 8.96722e-06 1.3114e-05
5.76716e-06 6.10715e-06 1.17362e-05
8.35859e-06 8.02081e-06 1.34927e-05
8.10614e-06 5.19558e-06 1.2501e-05
1.09547e-05 7.09749e-06 1.41477e-05
1.07466e-05 4.32306e-06 1.34998e-05
8.53105e-06 1.10382e-05 1.44615e-05
7.93816e-06 2.6439e-06 1.1728e-05
1.06467e-05 1.73731e-06 1.31047e-05
7.94915e-06 3.58782e-07 1.14562e-05
1.08071e-05 -7.59159e-07 1.31248e-05
8.11213e-06 -1.93792e-06 1.17097e-05
1.10989e-05 -3.31306e-06 1.34846e-05
8.47024e-06 -4.42425e-06 1.24447e-05
1.15044e-05 -6.00325e-06 1.41101e-05
8.95612e-06 -7.13855e-06 1.34288e-05
6.14789e-06 -5.49474e-06 1.16419e-05
6.6449e-06 -8.30137e-06 1.3019e-05
4.10545e-06 -6.5889e-06 1.13115e-05
4.52363e-06 -9.55145e-06 1.2989e-05
2.24243e-06 -7.85875e-06 1.1598e-05
2.48499e-06 -1.10026e-05 1.33517e-05
2.25303e-07 -9.37425e-06 1.23543e-05
3.30031e-07 -1.27706e-05 1.40346e-05
-1.91556e-06 -1.11514e-05 1.33777e-05
-1.84118e-06 -7.92209e-06 1.15828e-05
-4.16816e-06 -9.87546e-06 1.30858e-05
-3.81417e-06 -6.7309e-06 1.13177e-05
-6.34601e-06 -8.66256e-06 1.31e-05
-5.89165e-06 -5.69835e-06 1.1629e-05
-8.50025e-06 -7.43626e-06 1.33804e-05
-8.16804e-06 -4.72834e-06 1.24093e-05
-1.10963e-05 -6.40317e-06 1.40707e-05
-4.37193e-06 -1.3124e-05 1.44344e-05
-1.08095e-05 -3.65091e-06 1.344e-05
7.22658e-06 -1.13735e-05 1.42737e-05
-7.74217e-06 1.9828e-06 1.14936e-05
-1.3217e-05 1.03512e-06 1.42117e-05
1.72923e-06 1.50838e-05 1.4953e-05
1.37689e-05 4.62268e-07 1.43886e-05
1.3844e-05 6.10049e-06 1.49325e-05
-9.69468e-06 1.01969e-05 1.45333e-05
-5.41633e-06 -3.19784e-06 1.01827e-05
-1.17143e-05 -9.29792e-06 1.489e-05
1.18831e-05 -8.76077e-06 1.4788e-05
1.47827e-05 -7.47408e-06 1.54042e-05
-1.39606e-05 -5.24423e-06 1.48625e-05
2.796e-06 -1.45171e-05 1.4797e-05
4.24585e-07 -1.65005e-05 1.53986e-05
3.51864e-06 4.3972e-06 9.58171e-06
1.40115e-05 9.29965e-06 1.54924e-05
1.79319e-05 8.14548e-06 1.63014e-05
-1.56764e-05 1.1396e-05 1.62343e-05
-1.09416e-06 1.67702e-05 1.54962e-05
1.90697e-06 1.96228e-05 1.63118e-05
-2.09199e-06 5.22038e-06 9.5982e-06
5.55427e-06 -7.8465e-07 9.59475e-06
3.58616e-06 -3.68378e-06 9.08256e-06
-1.77974e-06 -5.17888e-06 9.45021e-06
-2.24701e-05 -1.10115e-05 1.74751e-05
-1.87993e-05 -9.242e-06 1.66519e-05
2.11491e-05 1.41656e-05 1.75064e-05
2.0755e-05 -1.43184e-05 1.74364e-05
-1.76467e-06 -2.5448e-05 1.75117e-05
-1.6822e-06 2.5412e-05 1.75164e-05
1.77141e-05 -1.19076e-05 1.6688e-05
2.0647e-05 -1.07517e-05 1.71168e-05
3.77587e-06 -1.89863e-05 1.61403e-05
7.68567e-07 -2.03471e-05 1.64837e-05
-1.94063e-05 -1.26513e-05 1.7144e-05
-1.3732e-05 -2.30707e-06 1.44727e-05
-1.65938e-05 -3.70167e-06 1.54784e-05
-1.03765e-05 -1.09645e-06 1.29529e-05
2.44534e-05 1.10735e-05 1.76524e-05
2.54989e-05 -1.2404e-05 1.78489e-05
2.64932e-06 2.67275e-05 1.76613e-05
2.52107e-06 -2.64151e-05 1.76301e-05
3.33962e-06 -2.30333e-05 1.70299e-05
-2.05402e-06 -1.8321e-05 1.59518e-05
4.05925e-06 2.37928e-05 1.71312e-05
2.26155e-05 8.37981e-06 1.71201e-05
4.61388e-06 1.73144e-05 1.57282e-05
1.44279e-05 -1.31203e-05 1.61383e-05
-1.57887e-05 -1.09854e-05 1.62154e-05
-1.68008e-05 -3.81454e-07 1.53782e-05
1.7307e-05 4.68778e-06 1.57265e-05
6.55248e-08 -6.38768e-06 1.02681e-05
1.74181e-06 -4.84873e-06 9.09306e-06
5.8508e-06 -2.93568e-06 1.03788e-05
-2.14455e-05 3.75077e-06 1.64597e-05
5.72971e-06 -1.62755e-05 1.55086e-05
9.08402e-06 -1.75001e-05 1.59984e-05
1.75732e-05 1.18824e-05 1.66731e-05
1.39951e-05 -1.63832e-05 1.64021e-05
1.07407e-05 -1.37898e-05 1.5551e-05
-3.54817e-06 -4.22043e-06 9.50136e-06
5.39942e-06 1.13856e-06 9.49964e-06
5.21834e-06 3.22306e-06 1.00479e-05
-1.74982e-06 -2.8356e-05 1.78776e-05
1.89216e-06 5.29919e-06 9.58505e-06
-1.13831e-07 6.10535e-06 1.00394e-05
-3.78513e-06 4.12797e-06 9.579e-06
-5.623e-06 3.03436e-06 1.02859e-05
-5.16575e-06 1.04073e-06 9.21418e-06
-7.52768e-06 -6.17429e-08 1.11731e-05
-4.3346e-06 -8.1032e-07 8.38237e-06
-3.10875e-06 1.87243e-06 7.37452e-06
-2.20825e-05 -3.60801e-06 1.65167e-05
2.34075e-05 -1.56887e-05 1.78368e-05
-1.50728e-06 2.11691e-05 1.66829e-05
2.1263e-05 -8.45256e-08 1.62266e-05
1.76232e-05 -1.64691e-06 1.55823e-05
1.73488e-05 -4.94198e-06 1.57715e-05
2.18928e-05 -7.45159e-06 1.69144e-05
-2.31834e-05 -1.42553e-05 1.78334e-05
1.73257e-05 1.64898e-06 1.55094e-05
-1.73403e-06 2.84745e-05 1.78948e-05
-4.22094e-07 3.68361e-06 7.49576e-06
2.37732e-05 1.57431e-05 1.78853e-05
-1.74984e-05 1.56431e-05 1.69758e-05
-1.06269e-05 -1.84672e-05 1.6256e-05
-1.01002e-05 -1.43432e-05 1.55726e-05
-7.50823e-06 -1.60958e-05 1.56229e-05
-7.32255e-06 -2.01217e-05 1.63962e-05
-1.07051e-05 1.85364e-05 1.62677e-05
-1.0348e-05 1.4385e-05 1.56202e-05
-7.77309e-06 2.04937e-05 1.64451e-05
-4.25324e-06 1.86108e-05 1.60538e-05
1.07604e-05 1.83466e-05 1.62271e-05
1.38925e-05 1.69359e-05 1.64319e-05
1.40428e-05 1.29737e-05 1.60521e-05
-7.36203e-06 1.62893e-05 1.56394e-05
1.05258e-05 1.45479e-05 1.56461e-05
7.74922e-06 1.60933e-05 1.56148e-05
-3.11663e-06 -1.89886e-06 7.39364e-06
-7.2581e-06 -1.24228e-05 1.4626e-05
3.00881e-06 4.03623e-08 6.60139e-06
4.87288e-06 1.35236e-05 1.46189e-05
1.40769e-05 -2.26053e-06 1.45713e-05
-1.72908e-05 -1.52176e-05 1.69463e-05
-1.73675e-05 2.42046e-06 1.55987e-05
-1.22055e-05 8.91248e-06 1.49443e-05
-7.70608e-06 -2.29265e-06 1.15554e-05
-1.24506e-05 1.18134e-05 1.55409e-05
-1.42743e-07 -3.75442e-06 7.55466e-06
2.73037e-06 2.2722e-06 7.25239e-06
-2.00399e-06 -1.46514e-05 1.48089e-05
9.36568e-06 -1.00689e-05 1.43903e-05
1.38616e-05 3.15801e-06 1.4567e-05
-7.3405e-06 1.12001e-05 1.42611e-05
4.99753e-06 -1.27756e-05 1.43701e-05
1.10326e-05 1.04312e-05 1.49205e-05
-3.59667e-06 1.46862e-05 1.49089e-05
-4.63576e-06 -1.66179e-05 1.55497e-05
-1.95082e-05 1.28932e-05 1.71621e-05
-2.31282e-05 1.48589e-05 1.78442e-05
-1.29058e-05 -1.26869e-05 1.58134e-05
3.761e-06 -1.58621e-06 7.90746e-06
1.76449e-06 2.92244e-06 7.08489e-06
-9.23107e-06 -1.06101e-05 1.45327e-05
1.72783e-06 -2.82331e-06 6.93151e-06
9.94767e-07 2.41183e-05 1.73093e-05
2.13692e-05 1.11945e-05 1.72995e-05
-1.46655e-05 -7.95389e-06 1.54862e-05
1.37089e-05 -4.78663e-06 1.46915e-05
-1.90999e-06 -2.17643e-05 1.68036e-05
1.80615e-05 -8.4196e-06 1.63416e-05
-1.668e-05 -6.32897e-06 1.57833e-05
-4.32922e-07 -1.92242e-06 4.79878e-06
-1.80547e-06 2.9956e-06 7.17764e-06
-2.50534e-05 -1.29826e-05 1.7923e-05
-2.51286e-05 -1.45081e-05 1.80029e-05
-2.50465e-05 1.30345e-05 1.79068e-05
-2.51194e-05 1.46508e-05 1.79829e-05
-1.64854e-06 -3.12501e-06 7.21038e-06
6.32836e-06 1.13691e-05 1.40775e-05
5.33727e-07 -2.40875e-05 1.73031e-05
-5.22804e-07 1.80963e-06 4.64531e-06
7.40794e-06 -1.43446e-05 1.51533e-05
2.33042e-05 -1.32101e-05 1.77296e-05
2.36341e-05 -1.05382e-05 1.74916e-05
1.19892e-05 -1.82121e-05 1.62942e-05
1.47311e-05 -1.01473e-05 1.57965e-05
-1.00277e-05 1.00131e-06 1.27555e-05
-1.7401e-06 -8.15943e-07 4.72376e-06
7.69106e-07 3.70856e-06 7.57364e-06
2.3432e-06 -1.99727e-06 6.55571e-06
2.01578e-05 5.89823e-06 1.64545e-05
5.07038e-06 2.05973e-05 1.64969e-05
3.4212e-07 -2.76816e-05 1.78548e-05
-1.73131e-06 7.09147e-07 4.60662e-06
-3.21168e-06 6.23081e-07 6.82459e-06
3.57741e-06 1.47549e-06 7.63712e-06
4.99231e-07 2.83254e-05 1.7928e-05
2.47617e-05 1.37349e-05 1.79192e-05
-2.03296e-05 1.55367e-05 1.74299e-05
1.17877e-06 1.36454e-06 4.46014e-06
-2.06409e-05 -1.57293e-05 1.75284e-05
-1.90001e-05 -2.32235e-06 1.59471e-05
-1.95604e-05 -5.58537e-06 1.63332e-05
9.05731e-07 -3.24793e-06 7.00656e-06
-4.36629e-06 -1.97906e-05 1.63228e-05
-7.93781e-06 1.38353e-05 1.5102e-05
1.16581e-06 -1.30425e-06 4.33957e-06
1.19352e-05 -1.12291e-05 1.52931e-05
6.13339e-06 -2.26975e-05 1.68214e-05
-1.45231e-05 1.43563e-05 1.63246e-05
7.9296e-06 1.33221e-05 1.49489e-05
1.79376e-06 8.58786e-07 -4.55253e-06
1.7379e-06 -8.25152e-07 -4.46108e-06
4.31973e-07 1.84971e-06 -4.49539e-06
4.36118e-07 -1.78071e-06 -4.35635e-06
-1.84757e-06 2.09644e-08 -4.42263e-06
-1.12314e-06 -1.30893e-06 -4.15125e-06
-1.15926e-06 1.30686e-06 -4.20004e-06
-2.25144e-05 -7.28816e-06 -1.70008e-05
-2.21977e-05 7.37205e-06 -1.69694e-05
-4.86068e-06 2.28999e-05 -1.69378e-05
-4.85819e-06 -2.3133e-05 -1.69647e-05
1.74223e-05 1.56364e-05 -1.69307e-05
1.75699e-05 -1.55373e-05 -1.69399e-05
2.10748e-05 3.1641e-06 -1.63253e-05
-1.3954e-05 1.71523e-05 -1.64792e-05
-1.3592e-05 -1.67423e-05 -1.64108e-05
7.7683e-06 1.98208e-05 -1.63321e-05
7.68531e-06 -2.03112e-05 -1.64034e-05
2.14736e-05 -3.44398e-06 -1.6401e-05
-2.1104e-05 6.58814e-09 -1.62475e-05
-2.24216e-05 1.10004e-05 -1.74544e-05
-1.8752e-05 9.25525e-06 -1.66279e-05
-1.79839e-05 5.79581e-06 -1.60371e-05
-1.49849e-05 7.44879e-06 -1.54872e-05
-1.42253e-05 4.30799e-06 -1.48305e-05
-1.15333e-05 5.74424e-06 -1.40955e-05
-1.08587e-05 3.06892e-06 -1.33743e-05
-8.40099e-06 4.30513e-06 -1.2405e-05
-9.05935e-06 7.01383e-06 -1.34571e-05
-6.20447e-06 5.48883e-06 -1.16896e-05
-6.82872e-06 8.24994e-06 -1.30806e-05
-4.28165e-06 6.6753e-06 -1.14511e-05
-4.8003e-06 9.61051e-06 -1.30946e-05
-2.40101e-06 7.99382e-06 -1.17236e-05
-2.81302e-06 1.11679e-05 -1.34756e-05
-4.7544e-07 9.59587e-06 -1.25016e-05
-7.38401e-07 1.29977e-05 -1.41425e-05
1.73118e-06 1.15185e-05 -1.35357e-05
-5.53503e-06 1.27012e-05 -1.44377e-05
1.68518e-06 8.22446e-06 -1.17482e-05
4.00442e-06 1.01215e-05 -1.31516e-05
3.70557e-06 7.09837e-06 -1.14789e-05
6.06777e-06 8.96722e-06 -1.3114e-05
5.76716e-06 6.10715e-06 -1.17362e-05
8.35859e-06 8.02081e-06 -1.34927e-05
8.10614e-06 5.19558e-06 -1.2501e-05
1.09547e-05 7.09749e-06 -1.41477e-05
1.07466e-05 4.32306e-06 -1.34998e-05
8.53105e-06 1.10382e-05 -1.44615e-05
7.93816e-06 2.6439e-06 -1.1728e-05
1.06467e-05 1.73731e-06 -1.31047e-05
7.94915e-06 3.58782e-07 -1.14562e-05
1.08071e-05 -7.59159e-07 -1.31248e-05
8.11213e-06 -1.93792e-06 -1.17097e-05
1.10989e-05 -3.31306e-06 -1.34846e-05
8.47024e-06 -4.42425e-06 -1.24447e-05
1.15044e-05 -6.00325e-06 -1.41101e-05
8.95612e-06 -7.13855e-06 -1.34288e-05
6.14789e-06 -5.49474e-06 -1.16419e-05
6.6449e-06 -8.30137e-06 -1.3019e-05
4.10545e-06 -6.5889e-06 -1.13115e-05
4.52363e-06 -9.55145e-06 -1.2989e-05
2.24243e-06 -7.85875e-06 -1.1598e-05
2.48499e-06 -1.10026e-05 -1.33517e-05
2.25303e-07 -9.37425e-06 -1.23543e-05
3.30031e-07 -1.27706e-05 -1.40346e-05
-1.91556e-06 -1.11514e-05 -1.33777e-05
-1.84118e-06 -7.92209e-06 -1.15828e-05
-4.16816e-06 -9.87546e-06 -1.30858e-05
-3.81417e-06 -6.7309e-06 -1.13177e-05
-6.34601e-06 -8.66256e-06 -1.31e-05
-5.89165e-06 -5.69835e-06 -1.1629e-05
-8.50025e-06 -7.43626e-06 -1.33804e-05
-8.16804e-06 -4.72834e-06 -1.24093e-05
-1.10963e-05 -6.40317e-06 -1.40707e-05
-4.37193e-06 -1.3124e-05 -1.44344e-05
-1.08095e-05 -3.65091e-06 -1.344e-05
7.22658e-06 -1.13735e-05 -1.42737e-05
-7.74217e-06 1.9828e-06 -1.14936e-05
-1.3217e-05 1.03512e-06 -1.42117e-05
1.72923e-06 1.50838e-05 -1.4953e-05
1.37689e-05 4.62268e-07 -1.43886e-05
1.3844e-05 6.10049e-06 -1.49325e-05
-9.69468e-06 1.01969e-05 -1.45333e-05
-5.41633e-06 -3.19784e-06 -1.01827e-05
-1.17143e-05 -9.29792e-06 -1.489e-05
1.18831e-05 -8.76077e-06 -1.4788e-05
1.47827e-05 -7.47408e-06 -1.54042e-05
-1.39606e-05 -5.24423e-06 -1.48625e-05
2.796e-06 -1.45171e-05 -1.4797e-05
4.24585e-07 -1.65005e-05 -1.53986e-05
3.51864e-06 4.3972e-06 -9.58171e-06
1.40115e-05 9.29965e-06 -1.54924e-05
1.79319e-05 8.14548e-06 -1.63014e-05
-1.56764e-05 1.1396e-05 -1.62343e-05
-1.09416e-06 1.67702e-05 -1.54962e-05
1.90697e-06 1.96228e-05 -1.63118e-05
-2.09199e-06 5.22038e-06 -9.5982e-06
5.55427e-06 -7.8465e-07 -9.59475e-06
3.58616e-06 -3.68378e-06 -9.08256e-06
-1.77974e-06 -5.17888e-06 -9.45021e-06
-2.24701e-05 -1.10115e-05 -1.74751e-05
-1.87993e-05 -9.242e-06 -1.66519e-05
2.11491e-05 1.41656e-05 -1.75064e-05
2.0755e-05 -1.43184e-05 -1.74364e-05
-1.76467e-06 -2.5448e-05 -1.75117e-05
-1.6822e-06 2.5412e-05 -1.75164e-05
1.77141e-05 -1.19076e-05 -1.6688e-05
2.0647e-05 -1.07517e-05 -1.71168e-05
3.77587e-06 -1.89863e-05 -1.61403e-05
7.68567e-07 -2.03471e-05 -1.64837e-05
-1.94063e-05 -1.26513e-05 -1.7144e-05
-1.3732e-05 -2.30707e-06 -1.44727e-05
-1.65938e-05 -3.70167e-06 -1.54784e-05
-1.03765e-05 -1.09645e-06 -1.29529e-05
2.44534e-05 1.10735e-05 -1.76524e-05
2.54989e-05 -1.2404e-05 -1.78489e-05
2.64932e-06 2.67275e-05 -1.76613e-05
2.52107e-06 -2.64151e-05 -1.76301e-05
3.33962e-06 -2.30333e-05 -1.70299e-05
-2.05402e-06 -1.8321e-05 -1.59518e-05
4.05925e-06 2.37928e-05 -1.71312e-05
2.26155e-05 8.37981e-06 -1.71201e-05
4.61388e-06 1.73144e-05 -1.57282e-05
1.44279e-05 -1.31203e-05 -1.61383e-05
-1.57887e-05 -1.09854e-05 -1.62154e-05
-1.68008e-05 -3.81454e-07 -1.53782e-05
1.7307e-05 4.68778e-06 -1.57265e-05
6.55248e-08 -6.38768e-06 -1.02681e-05
1.74181e-06 -4.84873e-06 -9.09306e-06
5.8508e-06 -2.93568e-06 -1.03788e-05
-2.14455e-05 3.75077e-06 -1.64597e-05
5.72971e-06 -1.62755e-05 -1.55086e-05
9.08402e-06 -1.75001e-05 -1.59984e-05
1.75732e-05 1.18824e-05 -1.66731e-05
1.39951e-05 -1.63832e-05 -1.64021e-05
1.07407e-05 -1.37898e-05 -1.5551e-05
-3.54817e-06 -4.22043e-06 -9.50136e-06
5.39942e-06 1.13856e-06 -9.49964e-06
5.21834e-06 3.22306e-06 -1.00479e-05
-1.74982e-06 -2.8356e-05 -1.78776e-05
1.89216e-06 5.29919e-06 -9.58505e-06
-1.13831e-07 6.10535e-06 -1.00394e-05
-3.78513e-06 4.12797e-06 -9.579e-06
-5.623e-06 3.03436e-06 -1.02859e-05
-5.16575e-06 1.04073e-06 -9.21418e-06
-7.52768e-06 -6.17429e-08 -1.11731e-05
-4.3346e-06 -8.1032e-07 -8.38237e-06
-3.10875e-06 1.87243e-06 -7.37452e-06
-2.20825e-05 -3.60801e-06 -1.65167e-05
2.34075e-05 -1.56887e-05 -1.78368e-05
-1.50728e-06 2.11691e-05 -1.66829e-05
2.1263e-05 -8.45256e-08 -1.62266e-05
1.76232e-05 -1.64691e-06 -1.55823e-05
1.73488e-05 -4.94198e-06 -1.57715e-05
2.18928e-05 -7.45159e-06 -1.69144e-05
-2.31834e-05 -1.42553e-05 -1.78334e-05
1.73257e-05 1.64898e-06 -1.55094e-05
-1.73403e-06 2.84745e-05 -1.78948e-05
-4.22094e-07 3.68361e-06 -7.49576e-06
2.37732e-05 1.57431e-05 -1.78853e-05
-1.74984e-05 1.56431e-05 -1.69758e-05
-1.06269e-05 -1.84672e-05 -1.6256e-05
-1.01002e-05 -1.43432e-05 -1.55726e-05
-7.50823e-06 -1.60958e-05 -1.56229e-05
-7.32255e-06 -2.01217e-05 -1.63962e-05
-1.07051e-05 1.85364e-05 -1.62677e-05
-1.0348e-05 1.4385e-05 -1.56202e-05
-7.77309e-06 2.04937e-05 -1.64451e-05
-4.25324e-06 1.86108e-05 -1.60538e-05
1.07604e-05 1.83466e-05 -1.62271e-05
1.38925e-05 1.69359e-05 -1.64319e-05
1.40428e-05 1.29737e-05 -1.60521e-05
-7.36203e-06 1.62893e-05 -1.56394e-05
1.05258e-05 1.45479e-05 -1.56461e-05
7.74922e-06 1.60933e-05 -1.56148e-05
-3.11663e-06 -1.89886e-06 -7.39364e-06
-7.2581e-06 -1.24228e-05 -1.4626e-05
3.00881e-06 4.03623e-08 -6.60139e-06
4.87288e-06 1.35236e-05 -1.46189e-05
1.40769e-05 -2.26053e-06 -1.45713e-05
-1.72908e-05 -1.52176e-05 -1.69463e-05
-1.73675e-05 2.42046e-06 -1.55987e-05
-1.22055e-05 8.91248e-06 -1.49443e-05
-7.70608e-06 -2.29265e-06 -1.15554e-05
-1.24506e-05 1.18134e-05 -1.55409e-05
-1.42743e-07 -3.75442e-06 -7.55466e-06
2.73037e-06 2.2722e-06 -7.25239e-06
-2.00399e-06 -1.46514e-05 -1.48089e-05
9.36568e-06 -1.00689e-05 -1.43903e-05
1.38616e-05 3.15801e-06 -1.4567e-05
-7.3405e-06 1.12001e-05 -1.42611e-05
4.99753e-06 -1.27756e-05 -1.43701e-05
1.10326e-05 1.04312e-05 -1.49205e-05
-3.59667e-06 1.46862e-05 -1.49089e-05
-4.63576e-06 -1.66179e-05 -1.55497e-05
-1.95082e-05 1.28932e-05 -1.71621e-05
-2.31282e-05 1.48589e-05 -1.78442e-05
-1.29058e-05 -1.26869e-05 -1.58134e-05
3.761e-06 -1.58621e-06 -7.90746e-06
1.76449e-06 2.92244e-06 -7.08489e-06
-9.23107e-06 -1.06101e-05 -1.45327e-05
1.72783e-06 -2.82331e-06 -6.93151e-06
9.94767e-07 2.41183e-05 -1.73093e-05
2.13692e-05 1.11945e-05 -1.72995e-05
-1.46655e-05 -7.95389e-06 -1.54862e-05
1.37089e-05 -4.78663e-06 -1.46915e-05
-1.90999e-06 -2.17643e-05 -1.68036e-05
1.80615e-05 -8.4196e-06 -1.63416e-05
-1.668e-05 -6.32897e-06 -1.57833e-05
-4.32922e-07 -1.92242e-06 -4.79878e-06
-1.80547e-06 2.9956e-06 -7.17764e-06
-2.50534e-05 -1.29826e-05 -1.7923e-05
-2.51286e-05 -1.45081e-05 -1.80029e-05
-2.50465e-05 1.30345e-05 -1.79068e-05
-2.51194e-05 1.46508e-05 -1.79829e-05
-1.64854e-06 -3.12501e-06 -7.21038e-06
6.32836e-06 1.13691e-05 -1.40775e-05
5.33727e-07 -2.40875e-05 -1.73031e-05
-5.22804e-07 1.80963e-06 -4.64531e-06
7.40794e-06 -1.43446e-05 -1.51533e-05
2.33042e-05 -1.32101e-05 -1.77296e-05
2.36341e-05 -1.05382e-05 -1.74916e-05
1.19892e-05 -1.82121e-05 -1.62942e-05
1.47311e-05 -1.01473e-05 -1.57965e-05
-1.00277e-05 1.00131e-06 -1.27555e-05
-1.7401e-06 -8.15943e-07 -4.72376e-06
7.69106e-07 3.70856e-06 -7.57364e-06
2.3432e-06 -1.99727e-06 -6.55571e-06
2.01578e-05 5.89823e-06 -1.64545e-05
5.07038e-06 2.05973e-05 -1.64969e-05
3.4212e-07 -2.76816e-05 -1.78548e-05
-1.73131e-06 7.09147e-07 -4.60662e-06
-3.21168e-06 6.23081e-07 -6.82459e-06
3.57741e-06 1.47549e-06 -7.63712e-06
4.99231e-07 2.83254e-05 -1.7928e-05
2.47617e-05 1.37349e-05 -1.79192e-05
-2.03296e-05 1.55367e-05 -1.74299e-05
1.17877e-06 1.36454e-06 -4.46014e-06
-2.06409e-05 -1.57293e-05 -1.75284e-05
-1.90001e-05 -2.32235e-06 -1.59471e-05
-1.95604e-05 -5.58537e-06 -1.63332e-05
9.05731e-07 -3.24793e-06 -7.00656e-06
-4.36629e-06 -1.97906e-05 -1.63228e-05
-7.93781e-06 1.38353e-05 -1.5102e-05
1.16581e-06 -1.30425e-06 -4.33957e-06
1.19352e-05 -1.12291e-05 -1.52931e-05
6.13339e-06 -2.26975e-05 -1.68214e-05
-1.45231e-05 1.43563e-05 -1.63246e-05
7.9296e-06 1.33221e-05 -1.49489e-05
SCALARS effective_fluid_pressure_TPM float
LOOKUP_TABLE default
665
665
665
665
665
665
665
665
665
665
665
665
665
665
133
665
665
665
665
665
665
665
665
665
665
665
665
665
665
133
665
560.337
520.688
502.832
502.603
519.815
559.957
665
562.003
520.783
503.274
503.384
520.715
561.625
665
559.624
519.686
502.777
502.994
521.184
561.641
665
558.881
519.03
501.565
502.261
518.88
559.469
665
558.521
519.97
501.897
501.829
519.403
557.96
665
558.677
519.984
502.07
501.932
519.391
559.683
133
133
133
133
133
133
665
560.337
520.688
502.832
502.603
519.815
559.957
665
562.003
520.783
503.274
503.384
520.715
561.625
665
559.624
519.686
502.777
502.994
521.184
561.641
665
558.881
519.03
501.565
502.261
518.88
559.469
665
558.521
519.97
501.897
501.829
519.403
557.96
665
558.677
519.984
502.07
501.932
519.391
559.683
133
133
133
133
133
133
228.266
226.336
227.05
224.118
225.533
219.855
220.871
529.187
528.196
526.576
527.955
526.603
527.656
498.727
503.573
501.612
498.968
501.484
501.266
494.349
562.518
519.001
495.05
480.757
461.378
443.297
425.065
402.138
427.29
385.283
417.757
379.629
417.921
385.967
427.406
404.316
444.401
429.095
450.278
386.577
419.32
380.224
418.332
386.207
427.779
404.244
444.511
428.179
450.875
386.051
418.184
379.64
418.54
385.575
427.616
402.937
443.574
426.471
384.068
416.156
376.324
415.363
383.04
424.437
400.863
441.723
425.245
382.777
417.796
376.588
418.114
383.862
425.285
402.23
442.696
450.668
426.744
446.027
380.749
444.693
465.307
448.76
464.781
453.429
350.922
463.522
461.054
478.46
462.79
460.66
478.365
337.296
480.837
505.868
503.627
480.903
506.174
337.708
337.52
326.183
334.434
563.394
519.676
567.594
562.381
567.911
567.765
521.824
542.734
498.64
513.75
542.078
451.471
477.588
414.675
579.533
611.037
579.686
576.047
534.569
494.49
538.243
537.939
485.048
498.126
503.344
473.151
485.096
352.767
326.433
355.196
503.455
477.728
488.371
520.894
502.038
477.925
335.559
335.422
347.719
613.454
337.397
347.59
337.283
353.223
329.206
373.275
310.676
288.802
504.721
608.39
521.115
493.733
478.338
486.365
526.509
600.351
476.575
615.907
291.411
615.806
528.737
494.544
478.245
479.419
501.325
494.85
479.446
502.521
495.184
493.755
502.272
495.257
479.893
480.059
479.061
289.309
454.601
271.955
455.008
453.637
527.018
479.481
465.231
382.119
480.517
292.684
286.096
461.487
449.642
453.986
445.863
448.697
463.612
463.269
479.961
543.473
601.712
487.501
300.317
282.475
453.022
279.176
552.255
552.014
480.782
458.026
526.24
508.194
488.598
233.739
284.572
614.514
636.326
615.148
636.683
285.294
441.348
553.095
230.494
467.56
590.275
566.046
495.824
490.056
410.052
232.128
293.11
271.139
507.903
509.2
607.823
229.672
276.989
294.445
618.886
618.799
558.528
226.53
562.54
488.321
503.402
280.86
504.073
466.387
224.015
473.593
519.587
502.988
462.453
228.266
226.336
227.05
224.118
225.533
219.855
220.871
529.187
528.196
526.576
527.955
526.603
527.656
498.727
503.573
501.612
498.968
501.484
501.266
494.349
562.518
519.001
495.05
480.757
461.378
443.297
425.065
402.138
427.29
385.283
417.757
379.629
417.921
385.967
427.406
404.316
444.401
429.095
450.278
386.577
419.32
380.224
418.332
386.207
427.779
404.244
444.511
428.179
450.875
386.051
418.184
379.64
418.54
385.575
427.616
402.937
443.574
426.471
384.068
416.156
376.324
415.363
383.04
424.437
400.863
441.723
425.245
382.777
417.796
376.588
418.114
383.862
425.285
402.23
442.696
450.668
426.744
446.027
380.749
444.693
465.307
448.76
464.781
453.429
350.922
463.522
461.054
478.46
462.79
460.66
478.365
337.296
480.837
505.868
503.627
480.903
506.174
337.708
337.52
326.183
334.434
563.394
519.676
567.594
562.381
567.911
567.765
521.824
542.734
498.64
513.75
542.078
451.471
477.588
414.675
579.533
611.037
579.686
576.047
534.569
494.49
538.243
537.939
485.048
498.126
503.344
473.151
485.096
352.767
326.433
355.196
503.455
477.728
488.371
520.894
502.038
477.925
335.559
335.422
347.719
613.454
337.397
347.59
337.283
353.223
329.206
373.275
310.676
288.802
504.721
608.39
521.115
493.733
478.338
486.365
526.509
600.351
476.575
615.907
291.411
615.806
528.737
494.544
478.245
479.419
501.325
494.85
479.446
502.521
495.184
493.755
502.272
495.257
479.893
480.059
479.061
289.309
454.601
271.955
455.008
453.637
527.018
479.481
465.231
382.119
480.517
292.684
286.096
461.487
449.642
453.986
445.863
448.697
463.612
463.269
479.961
543.473
601.712
487.501
300.317
282.475
453.022
279.176
552.255
552.014
480.782
458.026
526.24
508.194
488.598
233.739
284.572
614.514
636.326
615.148
636.683
285.294
441.348
553.095
230.494
467.56
590.275
566.046
495.824
490.056
410.052
232.128
293.11
271.139
507.903
509.2
607.823
229.672
276.989
294.445
618.886
618.799
558.528
226.53
562.54
488.321
503.402
280.86
504.073
466.387
224.015
473.593
519.587
502.988
462.453

CELL_DATA 563
TENSORS stress float
164.621 -24.9212 1.13687e-13
-24.9212 28.1516 1.87346e-12
1.13687e-13 1.87346e-12 -12.6015

-40.3395 -21.3207 -4.45525e-12
-21.3207 -7.35485 2.09196e-12
-4.45525e-12 2.09196e-12 -10.2336

-9.94179 28.0452 -5.90343e-13
28.0452 -1.11129 -3.9216e-12
-5.90343e-13 -3.9216e-12 -6.36252

-40.4273 -29.8425 6.56438e-12
-29.8425 -12.8458 2.97155e-12
6.56438e-12 2.97155e-12 -10.5999

-22.6913 19.9308 2.38713e-12
19.9308 -1.9255 5.18104e-14
2.38713e-12 5.18104e-14 -23.0203

-27.1422 -18.0758 -7.07878e-13
-18.0758 15.888 1.73195e-12
-7.07878e-13 1.73195e-12 -6.41331

161.272 26.4854 1.90425e-12
26.4854 28.0282 -2.57098e-12
1.90425e-12 -2.57098e-12 -13.2604

-5.96267 29.9591 1.44359e-12
29.9591 -10.113 -4.358e-13
1.44359e-12 -4.358e-13 -7.27823

34.6324 5.48349 3.91272e-12
5.48349 -19.0979 2.66454e-14
3.91272e-12 2.66454e-14 -4.12431

11.8602 -7.47763 5.55496e-12
-7.47763 -48.2881 2.23466e-12
5.55496e-12 2.23466e-12 -8.94883

104.202 16.31 -3.59535e-12
16.31 -8.44381 2.66454e-13
-3.59535e-12 2.66454e-13 -22.4537

-34.6395 -13.4539 3.60748e-13
-13.4539 18.9656 -4.22122e-12
3.60748e-13 -4.22122e-12 -7.18251

-6.02734 27.8346 6.41857e-13
27.8346 -4.59205 9.00021e-13
6.41857e-13 9.00021e-13 -6.1612

-35.5537 -14.3408 -1.91606e-13
-14.3408 7.84505 3.04586e-12
-1.91606e-13 3.04586e-12 -9.1331

-23.6537 33.3095 3.57344e-12
33.3095 -24.993 -6.21142e-13
3.57344e-12 -6.21142e-13 -21.3645

21.3113 0.56106 -1.6905e-12
0.56106 -32.3408 -9.67236e-13
-1.6905e-12 -9.67236e-13 -5.59181

-48.9601 -17.9689 -5.75364e-13
-17.9689 6.34246 -2.22429e-12
-5.75364e-13 -2.22429e-12 -12.9473

11.6602 -2.6652 2.58134e-12
-2.6652 -43.2514 3.09471e-12
2.58134e-12 3.09471e-12 -8.03575

-11.3524 26.676 2.58756e-13
26.676 19.5172 -1.08299e-12
2.58756e-13 -1.08299e-12 -6.09177

21.7658 -4.19594 -1.25944e-12
-4.19594 -35.298 2.25227e-13
-1.25944e-12 2.25227e-13 -6.74364

-24.482 8.66945 1.9047e-12
8.66945 32.1283 -4.06549e-12
1.9047e-12 -4.06549e-12 -4.93639

-11.8085 6.28638 5.46525e-12
6.28638 -11.971 4.76167e-12
5.46525e-12 4.76167e-12 -75.6085

22.7437 1.87608 -4.06904e-12
1.87608 -33.4725 2.26478e-12
-4.06904e-12 2.26478e-12 -6.67961

-12.39 -27.7171 5.02472e-12
-27.7171 1.59873 2.55203e-13
5.02472e-12 2.55203e-13 -6.60503

21.3047 6.84981 -4.47464e-12
6.84981 -34.3075 6.04553e-13
-4.47464e-12 6.04553e-13 -6.80884

-37.9074 19.1136 1.85e-12
19.1136 2.65376 -1.37668e-13
1.85e-12 -1.37668e-13 -9.45963

106.61 4.18175 -9.82917e-12
4.18175 20.6035 9.51239e-13
-9.82917e-12 9.51239e-13 -12.0486

-5.30316 30.7476 -8.52059e-13
30.7476 -7.27402 4.93679e-12
-8.52059e-13 4.93679e-12 -7.44373

27.8904 37.0778 -1.73609e-12
37.0778 26.4695 -2.82796e-12
-1.73609e-12 -2.82796e-12 -8.63375

-9.43917 10.3236 -5.44749e-14
10.3236 -32.9262 -9.19598e-13
-5.44749e-14 -9.19598e-13 -49.5022

19.831 14.2173 7.69755e-13
14.2173 -29.3615 5.49294e-12
7.69755e-13 5.49294e-12 -6.00294

-4.21274 -17.782 -1.5777e-12
-17.782 59.6609 -9.78181e-13
-1.5777e-12 -9.78181e-13 -8.47764

66.2875 -42.1048 -1.73609e-12
-42.1048 71.143 -2.69533e-12
-1.73609e-12 -2.69533e-12 -11.2511

-48.2083 5.98573 -1.2074e-12
5.98573 7.26917 -6.66134e-13
-1.2074e-12 -6.66134e-13 -41.033

-26.2906 -4.83912 3.37004e-12
-4.83912 1.75661 -7.37987e-12
3.37004e-12 -7.37987e-12 -37.7981

-1.46756 21.0275 -1.16825e-12
21.0275 -39.5044 1.04733e-11
-1.16825e-12 1.04733e-11 -41.0988

-43.9721 5.06595 -3.82094e-12
5.06595 0.514076 2.68911e-12
-3.82094e-12 2.68911e-12 -52.1841

-2.76103 -9.17065 4.3574e-12
-9.17065 -20.7684 7.77036e-13
4.3574e-12 7.77036e-13 -35.8929

-3.9756 -27.9997 -1.49984e-12
-27.9997 -4.61113 2.77112e-13
-1.49984e-12 2.77112e-13 -5.99655

65.6013 41.524 2.61006e-12
41.524 73.1709 6.18409e-12
2.61006e-12 6.18409e-12 -10.9628

60.1584 -17.9507 9.02389e-13
-17.9507 0.114852 -9.13639e-13
9.02389e-13 -9.13639e-13 -8.05151

-41.8 -3.70473 2.51503e-13
-3.70473 -1.18567 -2.99257e-12
2.51503e-13 -2.99257e-12 -52.7188

-14.5919 19.5532 -2.2932e-12
19.5532 -28.55 3.41416e-12
-2.2932e-12 3.41416e-12 -52.827

18.1416 -12.2736 -2.71664e-12
-12.2736 -29.9014 2.52879e-12
-2.71664e-12 2.52879e-12 -6.2251

38.1748 -43.3027 1.48503e-12
-43.3027 41.8032 -2.72375e-14
1.48503e-12 -2.72375e-14 -14.5596

58.1469 -18.065 -4.56761e-12
-18.065 -2.30513 -7.46662e-13
-4.56761e-12 -7.46662e-13 -7.91523

-21.4452 17.0871 -7.54212e-13
17.0871 30.3279 1.22865e-12
-7.54212e-13 1.22865e-12 -5.73063

-11.3748 19.3406 1.22391e-12
19.3406 25.511 -4.36332e-12
1.22391e-12 -4.36332e-12 -3.92392

20.791 -16.302 -5.6873e-12
-16.302 -33.1173 -4.9285e-12
-5.6873e-12 -4.9285e-12 -7.31388

12.6144 -34.1884 4.20997e-13
-34.1884 46.4376 -1.20437e-12
4.20997e-13 -1.20437e-12 -10.3987

62.3634 19.1835 -3.04349e-13
19.1835 2.80848 4.84649e-12
-3.04349e-13 4.84649e-12 -8.41529

46.5154 -25.2906 -3.01744e-12
-25.2906 5.13228 3.55804e-12
-3.01744e-12 3.55804e-12 -5.61178

-31.8965 19.4843 -1.66815e-12
19.4843 -4.28493 -8.55612e-14
-1.66815e-12 -8.55612e-14 -26.0839

37.0401 29.6519 2.6219e-12
29.6519 14.5118 -2.08071e-12
2.6219e-12 -2.08071e-12 -5.43419

-27.4485 -21.8127 -2.9224e-12
-21.8127 -8.23018 8.05698e-13
-2.9224e-12 8.05698e-13 -25.2464

64.872 -42.7146 1.76215e-12
-42.7146 44.0822 7.24043e-12
1.76215e-12 7.24043e-12 -9.50227

-27.7487 5.45808 -3.62125e-12
5.45808 2.66908 -9.96151e-12
-3.62125e-12 -9.96151e-12 -38.3036

-5.56038 -5.33031 2.27966e-13
-5.33031 57.3908 2.36019e-12
2.27966e-13 2.36019e-12 -5.45123

-0.201526 10.3846 2.63641e-12
10.3846 -24.8461 -2.21089e-12
2.63641e-12 -2.21089e-12 -38.3652

-26.4879 21.4145 8.48803e-13
21.4145 12.2193 4.53385e-12
8.48803e-13 4.53385e-12 -6.87203

4.72572 5.75454 1.85363e-12
5.75454 -56.0402 4.65317e-12
1.85363e-12 4.65317e-12 -13.982

0.540362 11.459 4.64843e-12
11.459 -34.0575 -3.36827e-12
4.64843e-12 -3.36827e-12 -14.8401

106.35 31.8218 -2.46558e-12
31.8218 37.8346 9.50943e-13
-2.46558e-12 9.50943e-13 -7.48906

-35.4928 -6.03588 -2.68778e-12
-6.03588 10.6013 -2.23703e-12
-2.68778e-12 -2.23703e-12 -13.4795

-35.3605 9.52033 6.2769e-12
9.52033 1.23389 -6.37416e-12
6.2769e-12 -6.37416e-12 -14.9604

-42.5894 -2.88135 9.24631e-13
-2.88135 21.1107 -1.77636e-12
9.24631e-13 -1.77636e-12 -11.24

-44.9088 23.4015 -1.48252e-13
23.4015 -5.89263 -7.79229e-13
-1.48252e-13 -7.79229e-13 -13.923

9.97098 8.46402 -3.74278e-12
8.46402 -42.3803 5.90846e-12
-3.74278e-12 5.90846e-12 -9.07987

-12.3364 -28.2413 6.09231e-12
-28.2413 1.68628 8.79297e-13
6.09231e-12 8.79297e-13 -6.67622

1.30882 -1.71145 2.71339e-13
-1.71145 -55.4571 8.7678e-13
2.71339e-13 8.7678e-13 -11.3057

-31.8861 -19.2603 1.7691e-12
-19.2603 -4.59422 2.22015e-12
1.7691e-12 2.22015e-12 -25.9532

-27.9739 21.3078 -4.39352e-13
21.3078 -8.35992 -1.42721e-12
-4.39352e-13 -1.42721e-12 -26.0116

-0.653924 -16.5849 1.52471e-14
-16.5849 61.6769 -3.88075e-12
1.52471e-14 -3.88075e-12 -7.95034

-0.650325 -27.9368 2.79599e-12
-27.9368 -21.3628 -2.85993e-13
2.79599e-12 -2.85993e-13 -12.7919

-14.0948 -25.1361 3.07399e-12
-25.1361 7.40646 3.60186e-12
3.07399e-12 3.60186e-12 -5.23814

91.6841 -31.7129 2.75691e-12
-31.7129 19.4859 -1.65172e-12
2.75691e-12 -1.65172e-12 -16.3326

-33.7076 3.22297 -2.22444e-12
3.22297 9.20004 -2.53427e-12
-2.22444e-12 -2.53427e-12 -18.563

2.75107 28.9448 1.07943e-12
28.9448 -24.4256 1.65201e-12
1.07943e-12 1.65201e-12 -11.3177

-38.4356 19.6648 4.55354e-12
19.6648 5.22944 -4.0344e-12
4.55354e-12 -4.0344e-12 -9.23713

50.1929 8.00021 -3.59771e-12
8.00021 -16.9674 -1.5478e-12
-3.59771e-12 -1.5478e-12 -7.06892

60.0346 -33.9383 5.43447e-12
-33.9383 33.7877 6.64357e-13
5.43447e-12 6.64357e-13 -6.98441

-18.9619 -10.587 -2.27936e-12
-10.587 -0.540847 3.4032e-12
-2.27936e-12 3.4032e-12 -25.4293

-33.9258 23.9 2.07034e-12
23.9 -12.0244 1.27849e-12
2.07034e-12 1.27849e-12 -14.5411

58.1593 -32.3865 1.01489e-12
-32.3865 18.0911 1.70412e-12
1.01489e-12 1.70412e-12 -10.1347

66.8633 10.792 3.49232e-12
10.792 8.51179 -2.64218e-12
3.49232e-12 -2.64218e-12 -5.0856

7.67334 -21.2077 4.78403e-12
-21.2077 88.4702 1.00637e-11
4.78403e-12 1.00637e-11 -11.8625

-33.9889 14.4263 2.2727e-12
14.4263 20.2383 -5.71987e-13
2.2727e-12 -5.71987e-13 -7.54856

8.47482 23.1443 -1.66326e-12
23.1443 -26.0752 5.041e-12
-1.66326e-12 5.041e-12 -11.3002

34.8702 42.2021 -2.62782e-12
42.2021 46.2016 -2.65269e-12
-2.62782e-12 -2.65269e-12 -14.4211

-4.39437 16.5057 1.04664e-11
16.5057 -35.538 9.33609e-12
1.04664e-11 9.33609e-12 -73.276

-5.98255 -4.10874 1.81514e-12
-4.10874 57.9513 1.78109e-12
1.81514e-12 1.78109e-12 -5.44343

-1.81918 -16.631 -5.20931e-12
-16.631 -39.3976 -4.99008e-13
-5.20931e-12 -4.99008e-13 -74.0991

-3.33031 -27.3348 -1.93327e-12
-27.3348 -30.0294 6.19046e-12
-1.93327e-12 6.19046e-12 -21.5534

8.96656 27.4251 2.15887e-12
27.4251 -29.9967 -2.04607e-12
2.15887e-12 -2.04607e-12 -11.2584

45.7131 -24.4126 -7.63123e-12
-24.4126 5.0226 -3.30432e-12
-7.63123e-12 -3.30432e-12 -5.23786

10.0942 31.326 1.83971e-12
31.326 47.1653 -1.36187e-13
1.83971e-12 -1.36187e-13 -9.64182

14.2717 -10.706 2.82322e-12
-10.706 82.8437 -7.10306e-12
2.82322e-12 -7.10306e-12 -6.44768

-38.6336 21.9712 4.13936e-12
21.9712 2.94124 -5.00696e-12
4.13936e-12 -5.00696e-12 -8.57088

1.19309 16.7949 6.31199e-13
16.7949 -25.7234 -2.35278e-12
6.31199e-13 -2.35278e-12 -18.5672

-26.5399 15.155 3.38648e-12
15.155 18.4494 2.54552e-12
3.38648e-12 2.54552e-12 -5.71008

43.6606 15.955 -5.55408e-13
15.955 -7.2877 -7.9492e-14
-5.55408e-13 -7.9492e-14 -4.07716

12.5759 -21.4744 9.61601e-13
-21.4744 57.9585 -5.23315e-12
9.61601e-13 -5.23315e-12 -4.71537

66.0001 -29.3931 5.1467e-12
-29.3931 18.6434 8.10019e-13
5.1467e-12 8.10019e-13 -9.33603

-32.3822 -24.5739 3.45753e-12
-24.5739 -7.28242 -1.39178e-12
3.45753e-12 -1.39178e-12 -8.97837

-22.6682 27.4522 -1.83853e-12
27.4522 -10.3516 -3.47426e-12
-1.83853e-12 -3.47426e-12 -9.28591

-38.3518 23.1881 -1.46609e-12
23.1881 1.99079 -3.80436e-13
-1.46609e-12 -3.80436e-13 -8.52679

-51.5539 13.1688 -1.62823e-12
13.1688 11.9261 -2.825e-12
-1.62823e-12 -2.825e-12 -16.4668

23.4852 9.3726 -1.15759e-12
9.3726 -29.4904 3.09841e-12
-1.15759e-12 3.09841e-12 -5.32366

3.76713 -4.66539 1.73165e-12
-4.66539 79.4429 1.5324e-12
1.73165e-12 1.5324e-12 -9.5322

-44.9389 -36.8321 -4.88498e-14
-36.8321 -19.8285 -9.69447e-13
-4.88498e-14 -9.69447e-13 -14.7717

-16.0817 27.4671 -6.7472e-13
27.4671 1.33995 1.02969e-12
-6.7472e-13 1.02969e-12 -6.91705

-5.01723 2.17042 -4.26355e-12
2.17042 82.6788 -6.05382e-12
-4.26355e-12 -6.05382e-12 -13.4318

69.0493 34.6132 -4.41721e-12
34.6132 15.4964 4.45096e-12
-4.41721e-12 4.45096e-12 -10.7066

-31.3536 -22.9749 5.7776e-13
-22.9749 -4.6331 -2.19084e-14
5.7776e-13 -2.19084e-14 -8.53202

11.743 5.73294 3.23859e-12
5.73294 -48.3369 -1.03909e-12
3.23859e-12 -1.03909e-12 -8.64319

43.0673 27.2063 2.54611e-13
27.2063 10.4508 1.40332e-13
2.54611e-13 1.40332e-13 -5.08253

-9.41309 12.7449 -1.03517e-12
12.7449 -14.0402 1.0069e-12
-1.03517e-12 1.0069e-12 -37.0363

70.3385 24.3325 1.82373e-12
24.3325 23.805 1.90662e-12
1.82373e-12 1.90662e-12 -6.80016

-10.5841 -13.0544 3.28478e-12
-13.0544 -13.922 1.4726e-12
3.28478e-12 1.4726e-12 -37.374

-4.38203 0.778635 3.6775e-12
0.778635 59.401 3.06007e-12
3.6775e-12 3.06007e-12 -4.83236

38.3584 -2.2355 -4.01457e-13
-2.2355 -23.8145 2.56202e-12
-4.01457e-13 2.56202e-12 -5.83466

3.59323 -15.7668 -4.28842e-13
-15.7668 -53.9692 1.81188e-13
-4.28842e-13 1.81188e-13 -21.1236

-42.2779 24.3883 3.56625e-12
24.3883 -11.737 -1.02659e-12
3.56625e-12 -1.02659e-12 -11.1693

-46.8127 -13.5353 -6.25333e-13
-13.5353 11.0668 2.25775e-12
-6.25333e-13 2.25775e-12 -12.3549

5.80975 -7.99956 -3.98644e-13
-7.99956 -70.9657 -7.84262e-13
-3.98644e-13 -7.84262e-13 -14.8829

-49.5386 -22.2826 -1.12887e-12
-22.2826 3.74746 4.31803e-12
-1.12887e-12 4.31803e-12 -22.1036

-17.4586 -6.59792 -1.1872e-13
-6.59792 -13.1155 -3.17794e-12
-1.1872e-13 -3.17794e-12 -34.7777

-28.7304 -29.9084 -1.07203e-12
-29.9084 -9.40004 -8.41105e-13
-1.07203e-12 -8.41105e-13 -8.99787

15.6929 11.4545 -3.70666e-13
11.4545 80.1851 -1.41161e-12
-3.70666e-13 -1.41161e-12 -6.53133

42.2915 -28.1489 -2.52598e-12
-28.1489 11.0498 5.04308e-12
-2.52598e-12 5.04308e-12 -5.04579

-47.1703 -13.771 2.74321e-12
-13.771 4.19625 6.87154e-13
2.74321e-12 6.87154e-13 -29.2985

2.96457 0.504836 -2.25982e-12
0.504836 -56.8128 -3.76144e-12
-2.25982e-12 -3.76144e-12 -11.0071

-39.3375 -21.5241 -2.10942e-13
-21.5241 -8.85687 9.42357e-13
-2.10942e-13 9.42357e-13 -14.7751

-40.1953 25.6981 2.62916e-12
25.6981 -14.6919 3.51774e-12
2.62916e-12 3.51774e-12 -11.3127

32.2611 -31.4671 -6.13554e-12
-31.4671 38.4306 -8.96468e-13
-6.13554e-12 -8.96468e-13 -4.64955

-31.4683 -7.08334 5.63039e-12
-7.08334 1.7013 -1.40125e-12
5.63039e-12 -1.40125e-12 -40.9877

36.6312 -33.0793 1.74557e-12
-33.0793 72.0313 3.20692e-12
1.74557e-12 3.20692e-12 -7.14503

16.6129 -19.1807 -6.67851e-12
-19.1807 -25.8723 4.89534e-12
-6.67851e-12 4.89534e-12 -7.13521

1.50238 1.97109 4.83776e-12
1.97109 -51.3915 3.70844e-12
4.83776e-12 3.70844e-12 -15.375

-12.8737 17.8745 8.85425e-12
17.8745 -16.9558 9.15712e-13
8.85425e-12 9.15712e-13 -41.0552

10.7119 20.1846 -1.31628e-12
20.1846 59.4571 3.57048e-12
-1.31628e-12 3.57048e-12 -4.35806

4.3174 27.2119 3.80614e-12
27.2119 -16.2245 1.47201e-12
3.80614e-12 1.47201e-12 -8.1259

30.9052 -24.5133 1.62596e-12
-24.5133 -8.13482 1.69938e-12
1.62596e-12 1.69938e-12 -4.87438

-37.7895 -17.8391 -1.97211e-12
-17.8391 2.40074 -2.51651e-14
-1.97211e-12 -2.51651e-14 -9.86633

55.5163 35.0709 2.60532e-13
35.0709 42.347 8.72783e-13
2.60532e-13 8.72783e-13 -6.63689

-40.0162 -21.8313 1.73787e-12
-21.8313 2.53671 9.47094e-13
1.73787e-12 9.47094e-13 -9.39585

2.96587 30.8515 3.16251e-12
30.8515 -17.3905 5.12242e-12
3.16251e-12 5.12242e-12 -9.08005

18.5374 -25.2452 -2.78237e-12
-25.2452 -19.4204 -9.33476e-13
-2.78237e-12 -9.33476e-13 -6.34457

-15.6554 -25.1278 5.31723e-13
-25.1278 5.89529 -2.82737e-12
5.31723e-13 -2.82737e-12 -5.77778

42.7199 -18.6896 -9.21337e-13
-18.6896 -9.16856 -5.48894e-13
-9.21337e-13 -5.48894e-13 -5.37118

27.4324 -18.8509 -5.37289e-12
-18.8509 -20.3713 1.3148e-12
-5.37289e-12 1.3148e-12 -5.69202

-41.3941 -25.3374 -1.95059e-12
-25.3374 -14.9644 1.46646e-12
-1.95059e-12 1.46646e-12 -11.5688

29.7814 35.9723 4.84353e-13
35.9723 25.2272 -9.04758e-13
4.84353e-13 -9.04758e-13 -8.64585

-28.5201 15.3778 -4.19664e-13
15.3778 18.5189 -1.71892e-12
-4.19664e-13 -1.71892e-12 -5.87605

-23.1091 26.4233 3.68801e-12
26.4233 -12.5479 -1.80567e-12
3.68801e-12 -1.80567e-12 -9.95995

-42.0976 25.4736 -4.00688e-12
25.4736 -11.5926 -1.5099e-13
-4.00688e-12 -1.5099e-13 -10.9946

-37.29 11.6223 -1.71035e-12
11.6223 11.8441 1.62181e-12
-1.71035e-12 1.62181e-12 -9.08212

64.3964 -8.22764 -4.46813e-12
-8.22764 3.19575 2.11831e-13
-4.46813e-12 2.11831e-13 -4.25225

8.73248 18.608 1.06404e-12
18.608 59.2228 3.21876e-12
1.06404e-12 3.21876e-12 -4.16371

-25.6166 -24.3815 1.56556e-12
-24.3815 0.458063 -8.71599e-13
1.56556e-12 -8.71599e-13 -7.2178

-1.14317 25.6677 -3.86891e-12
25.6677 13.7522 -1.5028e-12
-3.86891e-12 -1.5028e-12 -4.08489

32.3793 -35.6322 2.18137e-12
-35.6322 21.6999 7.09181e-12
2.18137e-12 7.09181e-12 -8.4876

59.5394 38.3196 1.82136e-12
38.3196 17.8478 -9.41469e-13
1.82136e-12 -9.41469e-13 -13.7229

12.1241 -33.3138 -3.83338e-12
-33.3138 42.915 2.36848e-14
-3.83338e-12 2.36848e-14 -9.54415

30.5517 -31.1621 -6.03961e-12
-31.1621 36.8146 1.52767e-13
-6.03961e-12 1.52767e-13 -4.40682

11.7689 -6.83862 2.12482e-12
-6.83862 -48.8388 3.84566e-12
2.12482e-12 3.84566e-12 -8.77199

25.2745 30.3442 -2.62309e-12
30.3442 41.0904 8.58572e-13
-2.62309e-12 8.58572e-13 -4.45734

62.6853 13.2957 -2.49637e-12
13.2957 5.22646 2.05702e-12
-2.49637e-12 2.05702e-12 -4.30682

-7.02843 13.3799 4.54362e-12
13.3799 61.3473 4.37457e-12
4.54362e-12 4.37457e-12 -8.69645

11.7285 -22.3422 2.41585e-13
-22.3422 55.7658 -1.157e-12
2.41585e-13 -1.157e-12 -4.30279

-47.2602 -1.09215 1.26484e-12
-1.09215 12.4091 1.93149e-12
1.26484e-12 1.93149e-12 -22.1611

-5.92164 2.24682 1.36454e-12
2.24682 59.0072 7.81597e-14
1.36454e-12 7.81597e-14 -5.26412

6.26722 31.0918 -1.64609e-12
31.0918 47.8673 2.75691e-12
-1.64609e-12 2.75691e-12 -9.66195

-39.7263 12.1085 2.94739e-12
12.1085 12.8444 1.533e-12
2.94739e-12 1.533e-12 -9.3145

40.7396 -27.6498 9.4739e-15
-27.6498 8.35626 7.41866e-12
9.4739e-15 7.41866e-12 -5.64364

7.53889 20.557 -2.64796e-12
20.557 -47.4672 6.42745e-13
-2.64796e-12 6.42745e-13 -16.4823

-3.42193 26.2704 -1.7882e-12
26.2704 -31.486 -1.57992e-12
-1.7882e-12 -1.57992e-12 -22.2515

15.7771 -18.5687 7.39557e-13
-18.5687 -30.0154 -2.67638e-13
7.39557e-13 -2.67638e-13 -8.18481

4.42794 -1.80265 -2.48246e-12
-1.80265 -34.1329 -2.79983e-12
-2.48246e-12 -2.79983e-12 -24.4379

-14.3409 -31.8127 -1.15996e-12
-31.8127 -11.9316 2.54197e-12
-1.15996e-12 2.54197e-12 -9.05134

56.221 23.3296 7.89887e-13
23.3296 0.814767 3.65811e-12
7.89887e-13 3.65811e-12 -8.28942

-27.8287 30.1624 9.71963e-13
30.1624 -9.23662 2.6897e-12
9.71963e-13 2.6897e-12 -8.80213

-27.0044 29.2062 -1.87139e-12
29.2062 -9.20191 4.13329e-12
-1.87139e-12 4.13329e-12 -8.67942

28.6289 30.6633 2.22992e-12
30.6633 40.4072 -3.54087e-12
2.22992e-12 -3.54087e-12 -4.45031

0.343061 27.0858 1.71537e-12
27.0858 -19.8479 2.2465e-12
1.71537e-12 2.2465e-12 -11.7781

64.5116 3.52543 -1.64964e-12
3.52543 -11.8288 -6.16559e-12
-1.64964e-12 -6.16559e-12 -10.0198

-14.9004 31.8172 2.41348e-12
31.8172 -20.7989 1.31746e-13
2.41348e-12 1.31746e-13 -12.4486

-37.9461 -12.5994 -2.29009e-12
-12.5994 8.18021 -1.62833e-13
-2.29009e-12 -1.62833e-13 -14.0236

-0.474778 24.2777 4.00302e-12
24.2777 -29.9998 -2.02475e-12
4.00302e-12 -2.02475e-12 -20.7706

-23.7282 -29.5791 -1.05841e-12
-29.5791 -11.935 -4.34704e-12
-1.05841e-12 -4.34704e-12 -8.84503

-38.1505 -4.89763 2.4449e-12
-4.89763 18.8468 -3.14356e-12
2.4449e-12 -3.14356e-12 -11.7311

69.9485 -24.5583 2.50348e-12
-24.5583 18.0284 -2.53012e-12
2.50348e-12 -2.53012e-12 -7.0451

39.9833 29.6955 7.11727e-13
29.6955 13.4785 1.80952e-12
7.11727e-13 1.80952e-12 -5.21666

-4.29854 14.6977 -1.75859e-12
14.6977 60.5745 6.17106e-12
-1.75859e-12 6.17106e-12 -8.40234

1.6113 -1.13914 -2.12778e-12
-1.13914 -56.1241 2.15413e-12
-2.12778e-12 2.15413e-12 -11.2109

9.61414 0.0021867 2.92832e-12
0.0021867 -44.7565 4.44117e-13
2.92832e-12 4.44117e-13 -8.44013

-31.0806 23.125 -1.44003e-12
23.125 -4.33782 3.08908e-12
-1.44003e-12 3.08908e-12 -8.46056

-34.7621 23.8714 -1.21236e-12
23.8714 -13.1934 -3.72384e-12
-1.21236e-12 -3.72384e-12 -14.8139

-43.3794 -24.3809 -2.75742e-13
-24.3809 -12.6138 8.98689e-13
-2.75742e-13 8.98689e-13 -11.4704

-39.0612 -0.673268 -1.72543e-12
-0.673268 21.0463 1.66089e-12
-1.72543e-12 1.66089e-12 -10.4968

-40.8071 25.5908 -5.12435e-12
25.5908 -13.2231 6.76348e-13
-5.12435e-12 6.76348e-13 -11.1741

32.3226 -10.3087 -2.82914e-12
-10.3087 -25.1572 -4.17074e-12
-2.82914e-12 -4.17074e-12 -6.01651

8.70537 -32.8363 -3.48048e-12
-32.8363 22.7977 -8.50283e-13
-3.48048e-12 -8.50283e-13 -6.99405

2.39656 -2.30161 -2.36907e-12
-2.30161 -49.9612 9.00021e-14
-2.36907e-12 9.00021e-14 -14.7735

36.7467 -34.5112 4.47879e-12
-34.5112 24.4798 5.36697e-12
4.47879e-12 5.36697e-12 -7.71051

-38.2948 19.086 -6.55772e-13
19.086 -7.0933 -1.84297e-12
-6.55772e-13 -1.84297e-12 -14.4503

7.87057 -26.4792 -2.62368e-12
-26.4792 -27.9964 9.54496e-13
-2.62368e-12 9.54496e-13 -10.9703

63.9509 -9.6911 1.40451e-12
-9.6911 5.67579 4.27806e-14
1.40451e-12 4.27806e-14 -5.07363

6.03955 -23.1926 -5.96027e-12
-23.1926 -35.4688 1.64668e-12
-5.96027e-12 1.64668e-12 -17.7362

0.141437 2.35838 6.94852e-13
2.35838 -56.1746 -5.58731e-12
6.94852e-13 -5.58731e-12 -11.5478

-4.06248 -23.3224 -3.97253e-12
-23.3224 -23.412 -1.30695e-12
-3.97253e-12 -1.30695e-12 -16.72

11.0383 -25.86 -1.56615e-12
-25.86 -29.4878 -2.98043e-12
-1.56615e-12 -2.98043e-12 -9.73517

10.201 -8.54682 7.14391e-13
-8.54682 -43.4922 2.67534e-12
7.14391e-13 2.67534e-12 -9.28341

-35.4176 -23.0685 2.94875e-12
-23.0685 -12.6468 9.91614e-14
2.94875e-12 9.91614e-14 -15.1039

23.6643 -31.3444 5.72816e-12
-31.3444 5.71092 -2.45256e-12
5.72816e-12 -2.45256e-12 -5.88032

11.0592 -24.5886 -2.4265e-12
-24.5886 -27.4962 -1.34766e-12
-2.4265e-12 -1.34766e-12 -10.0495

46.6452 10.8654 2.1565e-12
10.8654 -16.1208 1.12029e-12
2.1565e-12 1.12029e-12 -6.80195

-14.1863 26.3411 2.449e-12
26.3411 -15.6415 -4.29138e-13
2.449e-12 -4.29138e-13 -14.1198

-45.2507 -37.6116 2.56032e-12
-37.6116 -20.6118 3.02343e-12
2.56032e-12 3.02343e-12 -14.9201

-43.7076 37.264 3.74278e-12
37.264 -21.2655 3.34991e-13
3.74278e-12 3.34991e-13 -14.7705

-61.1831 -28.5726 -7.58282e-13
-28.5726 -7.49719 -2.79835e-12
-7.58282e-13 -2.79835e-12 -15.2006

-58.4143 27.0635 -1.31643e-12
27.0635 -6.27179 -3.193e-12
-1.31643e-12 -3.193e-12 -14.4792

5.60034 -8.52716 -5.0034e-14
-8.52716 -71.0621 -1.06848e-12
-5.0034e-14 -1.06848e-12 -14.7108

4.39724 9.27313 3.07902e-13
9.27313 -68.831 4.84857e-12
3.07902e-13 4.84857e-12 -14.4388

9.02382 -9.84683 3.05741e-12
-9.84683 -40.8922 -3.02662e-12
3.05741e-12 -3.02662e-12 -9.61372

-24.3354 32.1146 4.67182e-13
32.1146 -24.8088 -3.08659e-12
4.67182e-13 -3.08659e-12 -21.1447

-25.5226 -32.8525 -1.04716e-12
-32.8525 -25.0949 -1.87608e-12
-1.04716e-12 -1.87608e-12 -21.4688

-53.9174 16.0681 -2.74418e-12
16.0681 3.40076 -5.59256e-13
-2.74418e-12 -5.59256e-13 -21.4022

-52.4185 -15.8007 -1.6193e-12
-15.8007 3.29615 1.33819e-12
-1.6193e-12 1.33819e-12 -21.0756

6.11105 -3.74893 3.30106e-12
-3.74893 -43.9244 9.17192e-13
3.30106e-12 9.17192e-13 -25.7635

6.91708 3.61165 -3.31986e-12
3.61165 -46.3477 -9.38213e-13
-3.31986e-12 -9.38213e-13 -26.1398

-15.6292 9.83771 3.56056e-12
9.83771 46.2645 -5.83592e-12
3.56056e-12 -5.83592e-12 -5.8501

-22.9197 -24.7753 -4.92939e-13
-24.7753 -14.553 9.86914e-13
-4.92939e-13 9.86914e-13 -10.3317

-56.6023 -36.3866 -3.31106e-12
-36.3866 -14.5324 2.16612e-12
-3.31106e-12 2.16612e-12 -13.4386

33.3596 -4.66454 -1.63306e-12
-4.66454 -19.8499 9.87506e-13
-1.63306e-12 9.87506e-13 -3.94734

3.43294 -16.6934 1.51286e-12
-16.6934 -52.627 5.65474e-13
1.51286e-12 5.65474e-13 -21.532

3.67409 16.1744 -2.49904e-12
16.1744 -51.8827 -4.42787e-12
-2.49904e-12 -4.42787e-12 -21.4053

6.55543 0.121868 -2.64055e-12
0.121868 -76.7531 3.98127e-13
-2.64055e-12 3.98127e-13 -13.3055

-7.57234 23.3774 -2.69148e-12
23.3774 39.9372 2.6823e-12
-2.69148e-12 2.6823e-12 -6.88737

-56.8879 36.1706 4.86951e-12
36.1706 -14.0111 1.81632e-13
4.86951e-12 1.81632e-13 -13.3903

-39.7951 -23.3961 6.70427e-13
-23.3961 2.56128 8.65678e-13
6.70427e-13 8.65678e-13 -8.80275

37.1179 23.3548 3.58824e-13
23.3548 -8.61581 1.14575e-12
3.58824e-13 1.14575e-12 -5.76077

4.73421 23.8587 -5.99284e-12
23.8587 -38.2262 1.0821e-12
-5.99284e-12 1.0821e-12 -18.9857

24.0135 -31.3163 3.53613e-12
-31.3163 6.40689 7.18832e-12
3.53613e-12 7.18832e-12 -5.65028

2.43053 -3.23175 -4.42609e-13
-3.23175 -48.3703 2.57009e-12
-4.42609e-13 2.57009e-12 -14.7435

-60.4559 -34.1602 -8.27042e-13
-34.1602 -14.3498 4.20878e-12
-8.27042e-13 4.20878e-12 -14.0323

-17.4561 8.32065 1.04744e-12
8.32065 45.6938 1.57504e-12
1.04744e-12 1.57504e-12 -5.78318

-9.47176 21.8136 2.68911e-12
21.8136 40.4267 -1.06108e-12
2.68911e-12 -1.06108e-12 -6.65588

58.6068 35.7789 1.86517e-12
35.7789 37.0893 -7.87518e-13
1.86517e-12 -7.87518e-13 -6.91657

70.4886 1.57891 9.65154e-13
1.57891 -5.54547 -1.50487e-12
9.65154e-13 -1.50487e-12 -10.3753

-30.7593 -22.805 -9.25186e-13
-22.805 -13.3573 -9.56383e-13
-9.25186e-13 -9.56383e-13 -14.4669

32.8423 31.1865 -1.23753e-12
31.1865 69.7984 5.38591e-12
-1.23753e-12 5.38591e-12 -6.67987

-19.3781 23.6112 -6.39488e-14
23.6112 7.68671 3.97726e-12
-6.39488e-14 3.97726e-12 -5.51549

47.6394 -5.35001 -1.04687e-12
-5.35001 -17.4369 1.95636e-12
-1.04687e-12 1.95636e-12 -6.82389

33.2205 11.217 4.15135e-12
11.217 -23.6406 -1.82106e-12
4.15135e-12 -1.82106e-12 -6.01626

6.25397 0.429886 -4.09761e-12
0.429886 -77.5503 -3.37115e-13
-4.09761e-12 -3.37115e-13 -13.4512

-58.9341 -29.0303 -6.93667e-13
-29.0303 -6.2883 4.67478e-13
-6.93667e-13 4.67478e-13 -14.6982

-28.3315 -6.31818 2.90745e-12
-6.31818 -11.3559 -5.00933e-12
2.90745e-12 -5.00933e-12 -51.5821

-44.6972 37.4103 -5.92119e-12
37.4103 -20.8109 4.27106e-12
-5.92119e-12 4.27106e-12 -14.7746

93.7966 1.6634 -7.36596e-13
1.6634 16.655 -1.54077e-12
-7.36596e-13 -1.54077e-12 -6.04342

10.0352 -32.7899 -3.83752e-12
-32.7899 21.3108 -8.84034e-12
-3.83752e-12 -8.84034e-12 -6.81032

-56.9347 36.612 -2.89198e-12
36.612 -14.5709 -2.46321e-12
-2.89198e-12 -2.46321e-12 -13.5065

-35.0821 -11.1342 -1.88026e-12
-11.1342 19.1773 -3.06422e-12
-1.88026e-12 -3.06422e-12 -8.31839

-5.4801 -25.5169 -1.76629e-12
-25.5169 37.3516 4.55103e-12
-1.76629e-12 4.55103e-12 -6.98913

-58.4506 28.8293 2.84854e-12
28.8293 -6.27167 -1.94304e-12
2.84854e-12 -1.94304e-12 -14.6152

28.4963 -26.144 2.29268e-12
-26.144 -4.91453 -1.42109e-14
2.29268e-12 -1.42109e-14 -4.69937

-21.1679 10.4839 -7.90479e-13
10.4839 -18.5587 -3.77054e-12
-7.90479e-13 -3.77054e-12 -51.6777

3.43107 30.8748 -1.61945e-12
30.8748 27.163 4.68603e-12
-1.61945e-12 4.68603e-12 -6.73512

6.14008 8.12626 4.35059e-12
8.12626 -72.2956 1.72307e-12
4.35059e-12 1.72307e-12 -14.9853

-11.5467 30.191 1.38141e-12
30.191 -20.6031 -1.45217e-12
1.38141e-12 -1.45217e-12 -11.5504

-30.7993 23.333 -5.05684e-12
23.333 -5.10032 2.01113e-12
-5.05684e-12 2.01113e-12 -8.46657

-25.8634 -32.4872 6.14619e-13
-32.4872 -24.1116 -7.82541e-13
6.14619e-13 -7.82541e-13 -21.5582

9.20463 -23.1915 -9.81141e-13
-23.1915 -27.9235 -7.40741e-13
-9.81141e-13 -7.40741e-13 -11.4269

-37.6618 10.4695 -3.12528e-13
10.4695 8.92899 2.80664e-13
-3.12528e-13 2.80664e-13 -25.3295

-23.0423 -23.4349 -1.34825e-12
-23.4349 4.95209 1.71714e-12
-1.34825e-12 1.71714e-12 -6.26522

88.8092 -9.70872 3.64272e-12
-9.70872 10.8066 -3.50956e-12
3.64272e-12 -3.50956e-12 -10.0312

84.0493 -14.2783 -1.69346e-12
-14.2783 2.81141 -1.61471e-12
-1.69346e-12 -1.61471e-12 -13.1973

5.88689 16.5306 -2.62664e-12
16.5306 -33.9323 6.98434e-12
-2.62664e-12 6.98434e-12 -22.375

-16.4237 22.5034 -1.11466e-12
22.5034 16.2279 3.87423e-12
-1.11466e-12 3.87423e-12 -5.08765

-3.91323 29.1647 4.36984e-13
29.1647 -12.2316 1.7352e-12
4.36984e-13 1.7352e-12 -8.39822

50.9953 0.688712 7.73307e-13
0.688712 -6.53451 -2.90407e-12
7.73307e-13 -2.90407e-12 -3.63634

-48.142 6.57059 3.79951e-12
6.57059 14.7857 -4.88498e-13
3.79951e-12 -4.88498e-13 -18.9524

10.1157 16.5407 -3.15777e-12
16.5407 -36.0812 1.0516e-12
-3.15777e-12 1.0516e-12 -9.13707

-4.50617 -25.7634 -1.11555e-12
-25.7634 35.5566 8.65678e-13
-1.11555e-12 8.65678e-13 -6.74912

-39.1936 -2.57198 2.58669e-12
-2.57198 21.5044 3.87956e-12
2.58669e-12 3.87956e-12 -10.6707

-7.9932 13.3665 8.00249e-13
13.3665 44.4071 -6.26107e-12
8.00249e-13 -6.26107e-12 -3.94634

3.73421 -29.7146 4.11463e-12
-29.7146 -17.3669 -2.82796e-12
4.11463e-12 -2.82796e-12 -8.92229

21.4256 -29.95 -1.29023e-12
-29.95 14.7556 -1.54365e-12
-1.29023e-12 -1.54365e-12 -3.9199

6.87945 31.6257 -5.50671e-14
31.6257 25.4019 4.93235e-13
-5.50671e-14 4.93235e-13 -6.83025

2.7847 -15.0194 -9.49759e-13
-15.0194 -39.2633 4.0931e-12
-9.49759e-13 4.0931e-12 -63.3021

-46.1594 2.04185 3.83767e-13
2.04185 11.461 1.54898e-12
3.83767e-13 1.54898e-12 -22.7557

-55.4424 20.2989 4.38923e-12
20.2989 3.09456 -2.53782e-12
4.38923e-12 -2.53782e-12 -22.9151

5.91555 15.438 1.00394e-12
15.438 -58.8162 -4.35178e-12
1.00394e-12 -4.35178e-12 -23.0351

-18.9226 -26.1899 -9.7374e-13
-26.1899 -12.9144 2.30808e-12
-9.7374e-13 2.30808e-12 -9.65446

41.3478 17.9586 2.41466e-12
17.9586 -6.27351 -1.55224e-12
2.41466e-12 -1.55224e-12 -3.86345

-44.6816 -5.2931 4.39535e-12
-5.2931 4.53844 -2.46351e-12
4.39535e-12 -2.46351e-12 -39.1407

7.49944 -18.9879 1.33493e-12
-18.9879 -39.8953 -6.8597e-13
1.33493e-12 -6.8597e-13 -11.6611

30.2918 -15.5998 6.03961e-14
-15.5998 -20.5115 3.84078e-12
6.03961e-14 3.84078e-12 -4.80727

-9.64102 11.6043 -2.96592e-12
11.6043 44.321 -1.73254e-12
-2.96592e-12 -1.73254e-12 -3.86112

8.33264 -25.7365 1.7503e-12
-25.7365 32.9928 2.70006e-12
1.7503e-12 2.70006e-12 -3.63498

-10.2439 -25.2739 -4.2452e-12
-25.2739 -19.1018 2.19306e-12
-4.2452e-12 2.19306e-12 -23.1736

17.0045 31.9622 4.28931e-12
31.9622 11.1963 -5.81461e-13
4.28931e-12 -5.81461e-13 -5.74847

-1.06903 -25.1342 1.75238e-12
-25.1342 -30.7635 1.91906e-12
1.75238e-12 1.91906e-12 -20.8908

48.0674 2.59756 2.81138e-12
2.59756 -8.41245 1.56408e-12
2.81138e-12 1.56408e-12 -3.53358

6.55186 -28.9329 2.35782e-12
-28.9329 72.055 7.34228e-13
2.35782e-12 7.34228e-13 -14.5521

21.7913 -29.2334 -2.04281e-13
-29.2334 13.963 -2.49519e-12
-2.04281e-13 -2.49519e-12 -3.93229

35.3524 32.1616 -4.02641e-14
32.1616 74.1386 -7.15043e-12
-4.02641e-14 -7.15043e-12 -5.44206

-45.2848 -11.8764 -5.18104e-16
-11.8764 13.9217 -4.39293e-12
-5.18104e-16 -4.39293e-12 -15.327

-14.4236 -13.8225 6.83749e-13
-13.8225 43.384 -2.13163e-14
6.83749e-13 -2.13163e-14 -5.67478

-19.2406 -23.9859 -3.00944e-13
-23.9859 -19.8297 -3.57966e-12
-3.00944e-13 -3.57966e-12 -64.2437

2.43653 23.7729 -2.09136e-12
23.7729 36.0079 -9.4739e-15
-2.09136e-12 -9.4739e-15 -3.71304

-15.1829 -32.7264 2.20091e-12
-32.7264 -21.1203 1.70649e-12
2.20091e-12 1.70649e-12 -14.3139

-14.5683 -11.9641 1.82062e-12
-11.9641 45.5324 8.56204e-13
1.82062e-12 8.56204e-13 -5.74094

7.83535 -19.1167 1.48385e-12
-19.1167 -43.1225 1.56171e-12
1.48385e-12 1.56171e-12 -12.6331

6.54426 23.8792 2.16183e-12
23.8792 35.1724 2.7877e-12
2.16183e-12 2.7877e-12 -3.44396

23.174 -4.97567 -3.0275e-12
-4.97567 -30.6786 2.19391e-12
-3.0275e-12 2.19391e-12 -5.36641

36.9721 -30.3446 -4.34615e-12
-30.3446 122.634 1.08713e-12
-4.34615e-12 1.08713e-12 -6.24085

-26.8718 21.0153 -8.58276e-13
21.0153 8.43397 1.33286e-12
-8.58276e-13 1.33286e-12 -7.13225

40.3398 -19.3249 8.83441e-13
-19.3249 -11.3752 -3.30935e-12
8.83441e-13 -3.30935e-12 -5.72799

6.52702 -21.4457 3.25843e-12
-21.4457 -45.5574 -2.8176e-12
3.25843e-12 -2.8176e-12 -24.9705

20.7049 31.7567 1.89004e-12
31.7567 9.55637 -3.77357e-12
1.89004e-12 -3.77357e-12 -5.80801

13.9184 -29.9737 -8.88178e-13
-29.9737 -7.60778 4.49329e-12
-8.88178e-13 4.49329e-12 -5.94636

6.7552 20.8858 -4.09036e-12
20.8858 -27.7939 -1.05545e-12
-4.09036e-12 -1.05545e-12 -11.1099

-38.2747 -28.0762 -4.56642e-12
-28.0762 -14.0384 1.16781e-12
-4.56642e-12 1.16781e-12 -11.0627

8.6451 -26.2275 -1.99544e-13
-26.2275 31.1716 -1.82373e-12
-1.99544e-13 -1.82373e-12 -3.63704

15.3307 28.9835 -1.15345e-12
28.9835 19.1537 5.21302e-12
-1.15345e-12 5.21302e-12 -3.88488

28.6409 26.1933 -1.65675e-12
26.1933 -5.63547 -1.12266e-12
-1.65675e-12 -1.12266e-12 -4.80399

7.91413 -14.6111 9.99201e-13
-14.6111 -36.8788 2.59999e-12
9.99201e-13 2.59999e-12 -13.992

-6.84373 -16.6191 6.11067e-13
-16.6191 41.3424 1.35358e-12
6.11067e-13 1.35358e-12 -3.96132

17.4408 -17.5687 1.02437e-12
-17.5687 -31.0013 -2.90952e-12
1.02437e-12 -2.90952e-12 -7.10701

19.8417 16.9095 5.34683e-13
16.9095 -31.6672 -2.08722e-13
5.34683e-13 -2.08722e-13 -7.3365

-33.6808 -9.38562 -1.51582e-12
-9.38562 8.75635 7.58504e-13
-1.51582e-12 7.58504e-13 -23.9913

43.4333 -13.431 5.35868e-12
-13.431 -8.37132 -3.94174e-12
5.35868e-12 -3.94174e-12 -3.80605

-19.3816 0.594208 -3.89511e-12
0.594208 43.1469 1.23516e-12
-3.89511e-12 1.23516e-12 -4.77743

28.0566 18.556 1.32161e-12
18.556 -18.2016 -2.71398e-12
1.32161e-12 -2.71398e-12 -4.75171

25.5287 27.606 -4.72748e-12
27.606 -3.77758 -2.4869e-14
-4.72748e-12 -2.4869e-14 -4.77314

-6.71756 -15.6875 5.23729e-13
-15.6875 43.8002 -2.55795e-12
5.23729e-13 -2.55795e-12 -3.84982

-19.9096 -1.20227 3.46478e-12
-1.20227 42.1294 -2.67282e-12
3.46478e-12 -2.67282e-12 -4.689

-5.47328 29.1346 2.36255e-13
29.1346 -23.6482 5.05877e-12
2.36255e-13 5.05877e-12 -16.7971

-37.2757 -10.9228 1.3977e-12
-10.9228 21.6798 6.53699e-13
1.3977e-12 6.53699e-13 -7.83174

27.1436 -26.7174 4.15431e-12
-26.7174 -5.53262 3.80377e-12
4.15431e-12 3.80377e-12 -4.94618

40.7204 21.3344 1.77754e-12
21.3344 -8.37263 -9.01205e-13
1.77754e-12 -9.01205e-13 -5.46946

12.3781 23.666 -2.2015e-12
23.666 -27.1291 -3.1101e-12
-2.2015e-12 -3.1101e-12 -8.66847

-37.7985 5.47143 -2.77482e-13
5.47143 23.3114 2.20327e-12
-2.77482e-13 2.20327e-12 -8.59891

18.5926 29.068 -4.8832e-12
29.068 17.3775 2.13163e-13
-4.8832e-12 2.13163e-13 -3.94895

-9.98813 22.964 -3.57699e-12
22.964 -14.9148 4.62238e-12
-3.57699e-12 4.62238e-12 -24.0245

68.3219 -59.6957 7.57912e-14
-59.6957 36.3379 -3.64153e-12
7.57912e-14 -3.64153e-12 -23.0098

17.5305 -25.0494 1.35891e-12
-25.0494 -17.994 5.24381e-12
1.35891e-12 5.24381e-12 -6.41952

10.0574 7.07046 -4.04269e-12
7.07046 82.5557 1.05871e-12
-4.04269e-12 1.05871e-12 -7.16591

11.9196 -28.8913 -2.98842e-12
-28.8913 -3.88273 -1.578e-12
-2.98842e-12 -1.578e-12 -5.16775

-66.9435 -52.7037 -1.42109e-14
-52.7037 143.262 -1.98952e-12
-1.42109e-14 -1.98952e-12 -49.6661

-68.3869 51.4543 -1.78346e-12
51.4543 142.549 -4.61853e-12
-1.78346e-12 -4.61853e-12 -49.8552

19.5752 117.16 -3.95535e-12
117.16 64.1368 -6.31909e-12
-3.95535e-12 -6.31909e-12 -48.3566

20.5341 -117.103 9.42653e-13
-117.103 61.0335 -4.358e-13
9.42653e-13 -4.358e-13 -48.7213

157.756 -1.36346 3.27323e-12
-1.36346 -79.1864 4.25505e-14
3.27323e-12 4.25505e-14 -48.9083

110.336 -91.1303 -1.80004e-12
-91.1303 -36.6871 9.90023e-13
-1.80004e-12 9.90023e-13 -50.303

110.389 91.6582 -1.25056e-12
91.6582 -36.4973 -2.66927e-12
-1.25056e-12 -2.66927e-12 -50.1758

7.84608 14.3312 2.51266e-12
14.3312 -42.6823 7.12911e-13
2.51266e-12 7.12911e-13 -15.0797

-11.79 25.5357 -4.15401e-12
25.5357 -27.405 -2.58756e-13
-4.15401e-12 -2.58756e-13 -35.1345

12.4382 6.60653 2.08959e-12
6.60653 -40.5364 2.66772e-12
2.08959e-12 2.66772e-12 -8.25451

26.255 21.7862 2.16893e-12
21.7862 -19.5313 -7.98176e-13
2.16893e-12 -7.98176e-13 -5.85293

-21.2333 17.7459 3.6963e-13
17.7459 29.869 -4.44859e-12
3.6963e-13 -4.44859e-12 -6.16454

22.5302 28.9008 6.65542e-13
28.9008 -0.776945 -7.81005e-13
6.65542e-13 -7.81005e-13 -4.73278

4.05449 -29.6648 6.90411e-13
-29.6648 -17.4674 -8.26598e-13
6.90411e-13 -8.26598e-13 -8.506

25.9954 28.0301 2.90138e-14
28.0301 -2.30332 -2.43953e-12
2.90138e-14 -2.43953e-12 -4.73316

-19.3501 -2.84164 4.94863e-13
-2.84164 43.0729 9.54496e-13
4.94863e-13 9.54496e-13 -4.77199

-13.4104 -26.0966 1.88679e-12
-26.0966 -25.8387 -1.30947e-12
1.88679e-12 -1.30947e-12 -35.5175

-19.8452 -4.86296 1.53152e-12
-4.86296 41.7778 -8.65678e-13
1.53152e-12 -8.65678e-13 -4.74587

-1.82752 23.0172 3.94055e-12
23.0172 -24.3774 -3.5835e-12
3.94055e-12 -3.5835e-12 -16.15

44.9844 26.8731 9.03573e-13
26.8731 8.11006 3.33422e-12
9.03573e-13 3.33422e-12 -5.37072

-52.5063 -13.2163 6.35166e-12
-13.2163 0.14995 2.74743e-13
6.35166e-12 2.74743e-13 -20.6168

20.2807 13.7288 -5.99224e-13
13.7288 -31.1446 -1.61678e-12
-5.99224e-13 -1.61678e-12 -7.04508

13.7003 -29.9897 4.63037e-13
-29.9897 -6.69344 5.68493e-12
4.63037e-13 5.68493e-12 -5.8373

29.6316 -24.7153 2.67875e-12
-24.7153 -7.87606 -1.03354e-12
2.67875e-12 -1.03354e-12 -4.82714

5.76379 -16.0758 -1.11614e-12
-16.0758 -32.3342 8.98837e-13
-1.11614e-12 8.98837e-13 -22.2545

12.6275 27.9305 -5.0111e-12
27.9305 -13.641 -2.65713e-12
-5.0111e-12 -2.65713e-12 -6.4215

23.309 23.9792 -1.03502e-12
23.9792 -17.9457 1.09838e-12
-1.03502e-12 1.09838e-12 -5.96444

-31.0799 -2.79283 -2.40149e-12
-2.79283 30.1324 2.26367e-12
-2.40149e-12 2.26367e-12 -6.40037

-28.6327 5.87363 1.59402e-13
5.87363 33.3222 -3.13349e-12
1.59402e-13 -3.13349e-12 -6.06141

34.5498 2.64692 -3.33363e-13
2.64692 -26.1872 1.0509e-12
-3.33363e-13 1.0509e-12 -6.14433

50.6539 -7.29033 -4.04536e-12
-7.29033 -14.0851 -8.7644e-12
-4.04536e-12 -8.7644e-12 -6.78056

11.0405 30.4869 2.44841e-12
30.4869 -4.78949 -3.27797e-12
2.44841e-12 -3.27797e-12 -5.96828

17.4671 -26.1572 -3.49942e-13
-26.1572 -17.4569 3.83131e-12
-3.49942e-13 3.83131e-12 -6.35364

-0.0838325 -21.2546 -9.46798e-13
-21.2546 -27.9571 -1.75415e-12
-9.46798e-13 -1.75415e-12 -17.1663

4.93774 -31.6362 1.03088e-12
-31.6362 4.86019 -1.77813e-12
1.03088e-12 -1.77813e-12 -5.9372

-8.22952 -27.788 8.26598e-13
-27.788 18.5787 9.78181e-13
8.26598e-13 9.78181e-13 -6.13187

-1.65203 29.8897 1.83557e-13
29.8897 10.4467 8.91731e-13
1.83557e-13 8.91731e-13 -5.80227

-26.0198 -9.5786 -2.66324e-12
-9.5786 32.9707 1.87702e-12
-2.66324e-12 1.87702e-12 -5.78909

-31.3257 -1.5452 -9.04758e-13
-1.5452 31.6514 -1.61648e-12
-9.04758e-13 -1.61648e-12 -6.22524

-38.9181 5.74778 -1.03034e-12
5.74778 23.9467 1.94629e-12
-1.03034e-12 1.94629e-12 -9.18437

-17.221 -21.0909 -1.61856e-12
-21.0909 26.5715 3.15955e-12
-1.61856e-12 3.15955e-12 -5.77393

13.0711 24.1126 2.03689e-13
24.1126 -28.103 -3.08553e-12
2.03689e-13 -3.08553e-12 -9.20624

21.5555 -9.59041 -4.61438e-12
-9.59041 -31.7096 -4.18036e-13
-4.61438e-12 -4.18036e-13 -6.59997

-27.1568 7.46573 2.61656e-12
7.46573 34.3356 3.89792e-12
2.61656e-12 3.89792e-12 -5.87581

-35.2385 -9.70133 -3.58462e-12
-9.70133 22.3139 -6.96332e-13
-3.58462e-12 -6.96332e-13 -8.18497

-29.1585 -16.3318 -1.79501e-12
-16.3318 19.347 -2.55559e-12
-1.79501e-12 -2.55559e-12 -6.66362

36.9694 -8.23985 5.51381e-12
-8.23985 -20.24 -3.79311e-12
5.51381e-12 -3.79311e-12 -5.10335

-14.8103 -32.3468 -2.25242e-12
-32.3468 -21.6276 2.79599e-12
-2.25242e-12 2.79599e-12 -12.9938

-22.8268 9.32183 -2.04281e-14
9.32183 33.3243 2.94875e-12
-2.04281e-14 2.94875e-12 -4.79058

-0.751637 -18.213 7.07789e-12
-18.213 -35.1565 -5.9656e-13
7.07789e-12 -5.9656e-13 -33.2745

4.93127 24.8249 -2.77704e-12
24.8249 75.3119 -4.22062e-12
-2.77704e-12 -4.22062e-12 -14.3195

-14.1419 -26.627 -4.23069e-12
-26.627 -16.3516 4.40492e-12
-4.23069e-12 4.40492e-12 -14.6412

-6.35716 -30.203 -3.96897e-12
-30.203 -23.6039 -8.15052e-13
-3.96897e-12 -8.15052e-13 -17.0879

-31.2737 -0.701028 1.68821e-12
-0.701028 31.5011 -1.21148e-12
1.68821e-12 -1.21148e-12 -6.3501

28.4886 -16.6236 -1.3749e-12
-16.6236 -18.0596 -6.06596e-12
-1.3749e-12 -6.06596e-12 -4.4398

-37.8071 12.8419 -6.9698e-13
12.8419 11.1652 2.31578e-12
-6.9698e-13 2.31578e-12 -10.9902

-8.86136 -3.18104 2.94875e-13
-3.18104 111.06 8.12387e-13
2.94875e-13 8.12387e-13 -22.6708

-31.6056 14.2746 -5.69315e-12
14.2746 21.3506 -7.14095e-13
-5.69315e-12 -7.14095e-13 -7.12628

12.4211 -29.4915 -4.21529e-12
-29.4915 -2.52076 -2.32525e-12
-4.21529e-12 -2.32525e-12 -4.93

33.6337 25.1074 -1.86162e-12
25.1074 124.038 -1.70293e-12
-1.86162e-12 -1.70293e-12 -6.21326

-13.5013 26.0957 -5.53291e-12
26.0957 -19.0967 8.30654e-12
-5.53291e-12 8.30654e-12 -58.8868

-9.55209 -27.8048 6.2057e-12
-27.8048 -22.8057 -8.27042e-13
6.2057e-12 -8.27042e-13 -59.5371

-2.86707 -30.421 -1.51405e-12
-30.421 -7.32298 -8.19404e-12
-1.51405e-12 -8.19404e-12 -7.28918

3.85889 -31.1628 4.73695e-14
-31.1628 5.6345 -1.29911e-12
4.73695e-14 -1.29911e-12 -6.06443

25.1527 20.8288 2.77289e-12
20.8288 -17.0369 8.92323e-13
2.77289e-12 8.92323e-13 -4.97867

31.806 15.0073 -1.17536e-12
15.0073 -23.3044 -3.30402e-12
-1.17536e-12 -3.30402e-12 -5.95673

-9.48711 3.08206 -3.91664e-12
3.08206 -9.82948 1.6569e-11
-3.91664e-12 1.6569e-11 -80.9245

-5.5479 -6.99794 9.62386e-12
-6.99794 -14.0399 -3.81665e-12
9.62386e-12 -3.81665e-12 -80.2772

11.7488 4.82422 4.64221e-12
4.82422 -43.2074 4.34808e-12
4.64221e-12 4.34808e-12 -7.82931

-35.059 6.73173 1.18838e-12
6.73173 24.3755 -3.45916e-12
1.18838e-12 -3.45916e-12 -7.56555

-36.1134 6.7364 2.48437e-12
6.7364 24.4329 -8.43769e-13
2.48437e-12 -8.43769e-13 -8.31053

74.5923 58.6388 -7.1149e-12
58.6388 34.1762 4.39589e-12
-7.1149e-12 4.39589e-12 -21.872

-6.92215 -28.2023 1.15108e-12
-28.2023 16.875 6.59324e-12
1.15108e-12 6.59324e-12 -6.11877

8.17179 17.9742 3.83397e-12
17.9742 -44.8762 2.04222e-12
3.83397e-12 2.04222e-12 -12.8975

32.7044 9.54033 -3.98022e-12
9.54033 -19.0831 1.18424e-13
-3.98022e-12 1.18424e-13 -4.07632

3.38649 -26.7255 -2.55203e-13
-26.7255 13.4839 -7.31859e-13
-2.55203e-13 -7.31859e-13 -3.82893

26.238 -20.2393 2.93099e-13
-20.2393 -20.326 -6.4689e-13
2.93099e-13 -6.4689e-13 -5.8652

65.3961 60.2367 3.43666e-12
60.2367 34.2924 -6.14264e-12
3.43666e-12 -6.14264e-12 -23.8669

-13.243 31.0697 5.08926e-13
31.0697 -16.8832 -4.62208e-12
5.08926e-13 -4.62208e-12 -12.7869

-18.6074 -19.7879 -1.7509e-12
-19.7879 28.4155 4.44089e-13
-1.7509e-12 4.44089e-13 -5.97159

11.1736 28.8596 6.24685e-13
28.8596 -13.3248 -3.29633e-12
6.24685e-13 -3.29633e-12 -6.43796

-31.872 -4.14539 -1.4649e-12
-4.14539 30.1484 -1.03266e-12
-1.4649e-12 -1.03266e-12 -6.35968

-14.5988 19.6109 -5.16594e-12
19.6109 27.1859 2.0138e-12
-5.16594e-12 2.0138e-12 -4.42071

7.47845 30.5212 -2.03511e-12
30.5212 -1.67191 -1.31391e-12
-2.03511e-12 -1.31391e-12 -5.66247

-9.34701 -22.4752 -2.88362e-12
-22.4752 23.1497 2.62427e-12
-2.88362e-12 2.62427e-12 -4.17745

4.58932 -27.3548 3.20988e-12
-27.3548 11.4488 3.24067e-12
3.20988e-12 3.24067e-12 -3.94044

24.2733 11.2579 -2.88628e-12
11.2579 102.087 2.6148e-12
-2.88628e-12 2.6148e-12 -12.4043

37.4681 -33.4592 -3.39166e-12
-33.4592 69.29 -2.71901e-12
-3.39166e-12 -2.71901e-12 -5.70351

-25.3385 -11.6914 -3.28152e-12
-11.6914 31.3691 1.99603e-12
-3.28152e-12 1.99603e-12 -5.65038

16.0961 26.4864 -4.87906e-13
26.4864 -15.5038 -3.21106e-12
-4.87906e-13 -3.21106e-12 -6.21922

4.95464 29.4801 -1.99248e-12
29.4801 1.63606 -2.75927e-12
-1.99248e-12 -2.75927e-12 -4.99194

-9.8568 -21.4358 6.77976e-14
-21.4358 25.1215 -3.52725e-12
6.77976e-14 -3.52725e-12 -4.03522

-21.6375 -11.7835 -7.75676e-14
-11.7835 32.083 2.69177e-12
-7.75676e-14 2.69177e-12 -4.63916

10.4622 28.4117 -2.66454e-12
28.4117 -0.157377 2.33058e-12
-2.66454e-12 2.33058e-12 -4.67479

-21.8495 -13.879 -1.22273e-13
-13.879 29.4681 2.93158e-12
-1.22273e-13 2.93158e-12 -4.84914

6.9579 27.8576 -1.69701e-12
27.8576 73.0901 1.00423e-12
-1.69701e-12 1.00423e-12 -14.3226

-45.8324 -4.04067 -3.24679e-12
-4.04067 14.0477 4.85538e-13
-3.24679e-12 4.85538e-13 -19.9645

0.875559 31.0302 -4.82399e-12
31.0302 7.51937 1.98419e-12
-4.82399e-12 1.98419e-12 -6.09121

9.7189 14.9022 -2.51295e-12
14.9022 -36.431 -2.46233e-12
-2.51295e-12 -2.46233e-12 -10.9866

9.92786 -15.9285 -3.93167e-13
-15.9285 -39.4118 -2.97717e-12
-3.93167e-13 -2.97717e-12 -13.0701

85.6197 -24.2067 2.71664e-12
-24.2067 7.63528 -1.34766e-12
2.71664e-12 -1.34766e-12 -12.9582

-23.2091 -21.2686 9.4739e-13
-21.2686 10.5138 -1.06937e-12
9.4739e-13 -1.06937e-12 -6.16732

-16.6028 26.7 -4.16289e-12
26.7 1.77781 9.91207e-13
-4.16289e-12 9.91207e-13 -6.58985

-26.2002 -21.7276 -5.54519e-13
-21.7276 -5.36721 -3.38692e-13
-5.54519e-13 -3.38692e-13 -23.8658

-41.5937 14.1046 4.13447e-13
14.1046 -3.55948 -1.60139e-12
4.13447e-13 -1.60139e-12 -64.1182

-0.893906 9.44524 1.08269e-12
9.44524 -44.2552 -1.67214e-12
1.08269e-12 -1.67214e-12 -64.2197

-20.3834 32.7046 1.88087e-12
32.7046 -23.2034 -1.02303e-12
1.88087e-12 -1.02303e-12 -24.3284

-11.4132 26.0028 -7.31267e-13
26.0028 22.6044 -4.35148e-12
-7.31267e-13 -4.35148e-12 -5.92784

16.0387 26.663 1.89774e-12
26.663 -17.2897 -1.56171e-12
1.89774e-12 -1.56171e-12 -6.55175

30.4298 45.19 1.47911e-12
45.19 47.5579 6.30844e-12
1.47911e-12 6.30844e-12 -15.1955

-44.8853 -11.342 -4.8536e-12
-11.342 -1.8077 3.00589e-12
-4.8536e-12 3.00589e-12 -61.6749

-8.29803 -3.432 -8.15479e-12
-3.432 -12.752 6.97028e-12
-8.15479e-12 6.97028e-12 -77.2152

-14.6883 -0.209224 -9.57752e-13
-0.209224 -6.41849 1.01652e-11
-9.57752e-13 1.01652e-11 -77.3594

27.6676 -53.8065 -3.55271e-12
-53.8065 71.155 -8.88178e-13
-3.55271e-12 -8.88178e-13 -24.3887

-11.6893 -11.5992 -3.45072e-12
-11.5992 -16.2053 9.04758e-13
-3.45072e-12 9.04758e-13 -37.4267

-32.6095 8.81191 8.60941e-13
8.81191 -9.41747 -5.86553e-12
8.60941e-13 -5.86553e-12 -49.5348

18.2562 -26.2009 3.30402e-13
-26.2009 -19.549 3.37241e-12
3.30402e-13 3.37241e-12 -6.50853

-39.4311 1.01036 3.58528e-13
1.01036 11.9805 -6.16988e-13
3.58528e-13 -6.16988e-13 -19.7213

-30.2046 -20.2691 -5.46526e-13
-20.2691 6.30479 -2.60414e-12
-5.46526e-13 -2.60414e-12 -7.21815

10.5362 6.25549 -3.38574e-12
6.25549 -52.3906 -2.66424e-12
-3.38574e-12 -2.66424e-12 -9.6414

-49.8131 15.5962 -2.20226e-12
15.5962 10.1647 2.46529e-12
-2.20226e-12 2.46529e-12 -13.532

-40.2857 7.19122 5.28522e-13
7.19122 16.5414 -3.62377e-12
5.28522e-13 -3.62377e-12 -13.7749

16.4048 20.3942 -3.94943e-13
20.3942 -25.8432 -3.24244e-12
-3.94943e-13 -3.24244e-12 -7.60942

-9.10045 -3.11391 -9.32809e-13
-3.11391 108.403 5.53039e-12
-9.32809e-13 5.53039e-12 -23.1012

-3.32151 -27.6256 4.20049e-12
-27.6256 -3.63012 -6.43633e-13
4.20049e-12 -6.43633e-13 -5.83199

-7.33571 -26.1178 1.47319e-12
-26.1178 -14.083 1.16943e-13
1.47319e-12 1.16943e-13 -9.8121

-14.1991 -31.4837 -4.11523e-13
-31.4837 -21.7779 8.75004e-13
-4.11523e-13 8.75004e-13 -12.7566

90.7347 32.7522 4.74406e-12
32.7522 20.9078 -4.35533e-12
4.74406e-12 -4.35533e-12 -16.5053

-23.1151 -20.1158 8.57329e-12
-20.1158 -17.3855 1.8087e-12
8.57329e-12 1.8087e-12 -44.4222

72.635 54.326 -7.96045e-12
54.326 91.6465 -3.5835e-12
-7.96045e-12 -3.5835e-12 -6.14125

-36.2164 -21.439 -2.59126e-12
-21.439 -6.79682 -3.5314e-12
-2.59126e-12 -3.5314e-12 -13.0441

15.034 14.6506 -2.02682e-12
14.6506 -37.7534 -3.982e-12
-2.02682e-12 -3.982e-12 -8.18045

44.5748 -14.5737 -7.88702e-13
-14.5737 -8.27465 -4.30767e-14
-7.88702e-13 -4.30767e-14 -4.42044

-21.2322 24.0479 -5.84451e-12
24.0479 4.95523 2.86526e-12
-5.84451e-12 2.86526e-12 -5.97843

17.3733 20.4288 8.95284e-13
20.4288 -26.7947 -3.38662e-12
8.95284e-13 -3.38662e-12 -6.95329

-51.1391 11.3995 -1.97301e-12
11.3995 7.70986 5.11591e-13
-1.97301e-12 5.11591e-13 -29.9918

-7.28825 -31.5814 -1.85837e-12
-31.5814 -12.8278 4.11641e-12
-1.85837e-12 4.11641e-12 -8.12089

2.79558 19.8122 8.84004e-12
19.8122 -46.032 1.88383e-12
8.84004e-12 1.88383e-12 -29.9837

-24.6731 -18.4447 -1.73787e-13
-18.4447 17.8363 1.848e-12
-1.73787e-13 1.848e-12 -5.48214

-42.3418 4.28375 -1.76803e-12
4.28375 17.8693 -4.06786e-12
-1.76803e-12 -4.06786e-12 -12.729

-4.09803 9.92746 -5.76961e-12
9.92746 -40.2733 -2.90612e-12
-5.76961e-12 -2.90612e-12 -47.5428

-2.68841 -8.5142 9.83806e-13
-8.5142 -38.3047 -2.76786e-12
9.83806e-13 -2.76786e-12 -47.3985

81.7285 18.5139 1.72425e-12
18.5139 1.69891 -2.06117e-12
1.72425e-12 -2.06117e-12 -14.4536

3.89504 7.96556 -5.55289e-12
7.96556 -45.1848 -4.31581e-12
-5.55289e-12 -4.31581e-12 -11.0198

35.876 7.74123 8.66418e-13
7.74123 184.584 -3.55745e-12
8.66418e-13 -3.55745e-12 -9.75388

40.1498 -11.386 2.46099e-14
-11.386 190.382 -6.76437e-12
2.46099e-14 -6.76437e-12 -7.38557

53.7697 56.4095 -4.51431e-12
56.4095 159.265 -6.30015e-13
-4.51431e-12 -6.30015e-13 -11.4966

1.70789 -28.9514 3.74634e-12
-28.9514 -24.6916 -1.90692e-12
3.74634e-12 -1.90692e-12 -11.9638

16.0509 -49.1939 2.24176e-12
-49.1939 99.4259 9.9476e-13
2.24176e-12 9.9476e-13 -21.6882

54.5176 -55.9521 -1.83083e-12
-55.9521 149.982 -5.34802e-12
-1.83083e-12 -5.34802e-12 -13.6616

-2.16738 26.2222 2.64677e-13
26.2222 17.5727 -4.51668e-12
2.64677e-13 -4.51668e-12 -3.998

134.948 73.8473 6.18646e-12
73.8473 85.0309 -6.16277e-12
6.18646e-12 -6.16277e-12 -10.1556

-18.7216 13.0465 -5.53838e-12
13.0465 -3.89918 2.6746e-12
-5.53838e-12 2.6746e-12 -26.7674

3.74078 0.0410186 5.12627e-13
0.0410186 -26.1894 4.2751e-12
5.12627e-13 4.2751e-12 -26.7706

144.106 -73.1326 -4.03115e-12
-73.1326 85.3584 -8.10019e-13
-4.03115e-12 -8.10019e-13 -8.19274

-21.3956 -23.4257 -2.63759e-12
-23.4257 12.2477 8.2423e-13
-2.63759e-12 8.2423e-13 -6.4934

89.3522 34.7317 6.3333e-12
34.7317 41.3924 3.66877e-12
6.3333e-12 3.66877e-12 -11.5473

72.1929 63.494 5.42381e-13
63.494 149.702 -9.4739e-15
5.42381e-13 -9.4739e-15 -9.67021

26.1659 21.6318 9.4739e-14
21.6318 100.14 1.97057e-12
9.4739e-14 1.97057e-12 -13.0308

73.8799 -65.9229 -1.74794e-12
-65.9229 151.153 -1.73372e-12
-1.74794e-12 -1.73372e-12 -9.39866

25.7704 -12.382 9.76404e-12
-12.382 105.019 -3.82746e-12
9.76404e-12 -3.82746e-12 -12.4276

-28.664 6.84016 -1.53374e-12
6.84016 3.10751 -4.50603e-12
-1.53374e-12 -4.50603e-12 -37.8492

37.7449 -45.9784 -4.3805e-12
-45.9784 49.6721 -7.34228e-13
-4.3805e-12 -7.34228e-13 -15.5327

14.4454 47.5352 2.73559e-12
47.5352 94.886 -5.8904e-12
2.73559e-12 -5.8904e-12 -22.1915

173.349 37.9134 2.24532e-12
37.9134 48.0462 2.79954e-12
2.24532e-12 2.79954e-12 -9.51891

7.01988 -29.2873 -6.71463e-13
-29.2873 -14.3597 -6.70486e-12
-6.71463e-13 -6.70486e-12 -7.15779

-38.4192 12.8964 2.73389e-12
12.8964 6.43559 7.59097e-13
2.73389e-12 7.59097e-13 -15.291

88.5107 -38.1152 2.77349e-12
-38.1152 34.1649 -1.64372e-12
2.77349e-12 -1.64372e-12 -14.0989

6.04126 -28.8036 1.98952e-12
-28.8036 -16.1739 -2.04074e-12
1.98952e-12 -2.04074e-12 -8.03163

169.215 -36.3453 -4.73695e-15
-36.3453 34.9329 7.31445e-12
-4.73695e-15 7.31445e-12 -13.2869

-5.72589 -28.3189 -5.09222e-12
-28.3189 -14.4744 -1.9987e-12
-5.09222e-12 -1.9987e-12 -9.31104

-17.7929 -25.2968 1.91462e-12
-25.2968 12.0798 -5.29946e-12
1.91462e-12 -5.29946e-12 -5.93653

118.883 69.4637 -1.72899e-12
69.4637 96.2258 1.65793e-14
-1.72899e-12 1.65793e-14 -11.3969

29.4147 -22.9344 4.51195e-13
-22.9344 97.8027 1.42109e-13
4.51195e-13 1.42109e-13 -14.3392

117.966 -71.6958 1.88531e-12
-71.6958 93.6872 9.45022e-13
1.88531e-12 9.45022e-13 -12.413

22.2665 50.7407 -4.47168e-12
50.7407 73.7838 4.55221e-12
-4.47168e-12 4.55221e-12 -24.7767

-1.53756 -30.2141 2.62605e-12
-30.2141 -6.55412 -6.44788e-12
2.62605e-12 -6.44788e-12 -6.99997

-7.04375 -14.6408 6.0257e-12
-14.6408 -21.9201 -6.19356e-13
6.0257e-12 -6.19356e-13 -32.611

-11.8916 11.0911 -1.00195e-11
11.0911 -16.4274 4.56316e-12
-1.00195e-11 4.56316e-12 -77.7817

-26.1648 -5.16028 3.11899e-13
-5.16028 -6.38719 -9.10932e-12
3.11899e-13 -9.10932e-12 -77.6155

-38.9436 13.0839 2.30667e-13
13.0839 13.7443 -1.36187e-14
2.30667e-13 -1.36187e-14 -10.2404

-14.4797 -10.6654 7.28802e-12
-10.6654 -17.3147 4.94997e-12
7.28802e-12 4.94997e-12 -78.7443

-25.8986 4.09217 3.5089e-12
4.09217 -5.91363 6.98689e-12
3.5089e-12 6.98689e-12 -78.8864

-3.63271 7.43209 -7.1941e-12
7.43209 -27.8574 -4.13447e-12
-7.1941e-12 -4.13447e-12 -77.9739

-43.9713 -12.1133 -4.56872e-12
-12.1133 2.91608 5.57436e-12
-4.56872e-12 5.57436e-12 -68.1477

11.9734 -30.4727 -6.21666e-12
-30.4727 76.1681 2.84928e-12
-6.21666e-12 2.84928e-12 -14.7013

0.520906 -12.9721 -6.49851e-13
-12.9721 -39.9886 -2.40223e-12
-6.49851e-13 -2.40223e-12 -45.2715

-16.3486 -34.4165 2.95171e-13
-34.4165 -22.0698 -3.87394e-13
2.95171e-13 -3.87394e-13 -23.589

-2.4214 -18.1774 5.78737e-12
-18.1774 -29.8939 -1.22657e-12
5.78737e-12 -1.22657e-12 -33.6232

12.7377 15.4602 -5.48717e-12
15.4602 -37.7184 7.82485e-13
-5.48717e-12 7.82485e-13 -9.62699

-46.9041 9.86292 6.43445e-12
9.86292 8.87644 1.00086e-11
6.43445e-12 1.00086e-11 -70.143

3.46173 19.2258 3.79548e-12
19.2258 -41.4678 4.80919e-12
3.79548e-12 4.80919e-12 -70.2588

1.47119 11.3077 -1.28194e-12
11.3077 -23.9642 -1.42079e-12
-1.28194e-12 -1.42079e-12 -31.8645

109.4 -15.3407 -9.23706e-13
-15.3407 -12.5356 5.42736e-12
-9.23706e-13 5.42736e-12 -25.0363

-14.3228 24.966 2.02505e-12
24.966 10.3858 2.95586e-12
2.02505e-12 2.95586e-12 -5.807

76.6126 -61.3589 1.85215e-12
-61.3589 37.3689 -7.05095e-12
1.85215e-12 -7.05095e-12 -22.3941

76.1189 -57.4609 1.42109e-14
-57.4609 99.2348 -2.38269e-12
1.42109e-14 -2.38269e-12 -5.55388

118.204 -36.5466 2.28558e-12
-36.5466 40.6033 -2.66098e-12
2.28558e-12 -2.66098e-12 -7.37746

-51.109 -5.15875 -4.58182e-12
-5.15875 3.33975 7.77097e-12
-4.58182e-12 7.77097e-12 -60.6515

-50.4731 2.89135 3.59934e-12
2.89135 3.13402 -3.36472e-13
3.59934e-12 -3.36472e-13 -60.1242

-11.9752 -24.4537 -7.4607e-13
-24.4537 -34.9996 3.15089e-12
-7.4607e-13 3.15089e-12 -59.1585

-8.99115 -21.7577 -7.82074e-12
-21.7577 -37.8848 -6.26166e-13
-7.82074e-12 -6.26166e-13 -59.468

-14.7019 26.1331 1.75563e-13
26.1331 -33.0242 -1.29526e-14
1.75563e-13 -1.29526e-14 -60.7427

-18.1547 3.09763 4.31107e-12
3.09763 -13.163 -4.98231e-13
4.31107e-12 -4.98231e-13 -75.4665

-9.94477 -20.5069 -3.72058e-12
-20.5069 -32.6474 1.3766e-12
-3.72058e-12 1.3766e-12 -56.7292

-26.6447 -18.5667 3.42437e-12
-18.5667 -14.1956 1.82911e-11
3.42437e-12 1.82911e-11 -71.2615

-15.4758 2.43316 8.43029e-13
2.43316 -12.8517 -3.49291e-12
8.43029e-13 -3.49291e-12 -77.8606

-6.02711 -20.5239 -3.30499e-12
-20.5239 -41.4834 9.91503e-13
-3.30499e-12 9.91503e-13 -60.4988

-6.75632 20.9534 2.7481e-12
20.9534 -40.1398 9.40877e-13
2.7481e-12 9.40877e-13 -60.0101

-14.3133 -3.45708 -6.07455e-12
-3.45708 -11.3894 1.35366e-11
-6.07455e-12 1.35366e-11 -76.8752

-11.2623 -3.11517 5.05018e-12
-3.11517 -17.6867 -7.42739e-12
5.05018e-12 -7.42739e-12 -74.0385

-24.2004 12.1094 6.73106e-12
12.1094 -13.4004 8.24489e-12
6.73106e-12 8.24489e-12 -69.9578

-22.0805 26.9274 -3.8014e-13
26.9274 -26.2656 4.99189e-13
-3.8014e-13 4.99189e-13 -57.5748

VECTORS fluid_flux_TPM float
-8.72392e-05 3.10359e-05 -7.65823e-21
3.56029e-06 6.88396e-06 -2.10384e-20
-1.279e-05 -1.02276e-05 -6.13546e-21
-4.17141e-06 4.2549e-06 -3.44943e-21
2.27124e-05 -6.3146e-06 -1.58998e-20
2.75819e-06 -1.59068e-05 -1.42281e-20
-8.58148e-05 -3.11006e-05 7.46573e-21
-1.38952e-05 -1.04689e-05 -1.80156e-20
2.21263e-05 9.45715e-07 -1.52067e-21
1.13864e-05 -3.90889e-06 2.17469e-20
5.46123e-05 1.24866e-05 -5.46635e-21
2.34739e-06 -1.71976e-05 -2.89311e-21
1.36143e-05 1.12561e-05 4.32161e-21
2.66266e-06 1.37874e-05 -1.05729e-20
2.05852e-05 -2.94727e-06 -1.97663e-21
-1.63357e-05 -2.72952e-07 1.7917e-21
2.75412e-06 1.41017e-05 -1.81614e-20
1.01839e-05 -2.39238e-06 1.18598e-20
9.90071e-06 1.72263e-05 2.1455e-21
-1.48516e-05 1.88586e-06 1.90039e-20
-3.60189e-06 -2.13085e-05 1.53672e-21
3.41187e-05 5.94309e-05 1.27084e-20
1.57008e-05 1.63165e-06 4.80425e-21
1.12297e-05 -1.12838e-05 7.4348e-21
-1.50816e-05 -3.33311e-06 5.83136e-21
-6.77341e-07 -1.11332e-05 -2.96345e-21
6.29177e-05 -4.90956e-06 -1.77133e-20
1.4069e-05 1.0251e-05 7.56942e-21
-2.51553e-05 -2.06476e-05 -1.11261e-20
4.91315e-05 -1.28169e-05 1.17755e-20
-1.65861e-05 -6.03964e-06 -1.88317e-20
5.53848e-06 -3.20442e-05 -2.3944e-21
4.76658e-05 -4.80586e-05 -5.66554e-21
-4.9245e-06 -4.12576e-05 7.73051e-22
-2.96805e-05 3.70142e-05 4.08e-21
-3.82566e-05 -1.6399e-05 1.28726e-21
3.27105e-05 4.32259e-05 1.11261e-21
-4.47515e-05 -8.72799e-06 -7.14348e-21
1.43778e-05 -1.10844e-05 1.5237e-21
4.64813e-05 5.01272e-05 1.13141e-21
3.21372e-05 -1.40254e-05 3.70831e-21
3.36482e-05 -4.23537e-05 1.83899e-21
-1.99012e-05 -5.03907e-05 2.95088e-20
-1.59017e-05 6.3583e-06 -1.42397e-21
3.0533e-05 -2.93214e-05 1.99876e-21
-3.034e-05 1.0993e-05 -5.06437e-21
-4.05115e-06 -2.03757e-05 3.79985e-21
7.88808e-06 2.02167e-05 1.12995e-20
-1.63465e-05 5.92932e-06 -1.46783e-20
-1.78242e-05 2.87331e-05 -2.73516e-21
3.24167e-05 1.52946e-05 1.14899e-20
2.93725e-05 -1.00777e-05 -8.43646e-21
-1.56703e-05 1.57644e-05 -5.82712e-21
-2.35473e-05 -2.06957e-05 -1.00723e-20
-2.11453e-05 -5.13376e-06 7.07576e-22
-4.48031e-05 2.70833e-05 8.14845e-21
-2.93795e-05 -3.80329e-05 -1.18783e-20
6.36519e-06 -3.06359e-05 -8.80997e-21
-4.77203e-05 6.48459e-06 -7.62155e-21
6.07574e-06 1.37006e-05 1.63205e-20
-5.57831e-06 -8.17564e-06 9.12221e-21
-6.58532e-06 -1.79485e-05 2.21725e-20
5.71595e-05 2.48664e-05 4.77303e-21
9.2454e-06 1.81492e-05 4.74451e-21
1.22999e-05 -1.4449e-05 -1.92058e-20
-1.641e-06 -2.07583e-05 -4.36225e-21
4.62239e-06 -8.80798e-06 -2.83521e-21
-1.00933e-05 -5.56644e-06 -1.30294e-20
-1.06056e-05 1.19327e-05 -1.37146e-20
2.55891e-06 -4.09373e-06 1.1178e-20
-1.50476e-05 -1.58476e-05 -1.36036e-20
-2.13709e-05 5.16738e-06 5.75072e-21
-3.5577e-06 3.44912e-05 -1.57586e-21
-1.78769e-05 1.07139e-05 2.2904e-21
-9.07335e-06 1.46188e-05 -2.21256e-20
-6.03725e-05 7.69447e-06 3.18717e-21
7.82029e-06 -2.16877e-05 -3.32595e-22
-1.88855e-05 -8.90263e-06 -3.61897e-20
1.9343e-06 1.16273e-05 -1.00472e-20
2.63084e-05 5.09109e-06 -7.19318e-21
3.41788e-05 -2.89833e-05 9.45176e-21
2.21527e-05 2.0562e-05 -1.17352e-20
1.19118e-05 -2.82314e-06 1.0729e-21
-3.21631e-05 2.40743e-05 -6.51812e-22
3.79152e-05 4.84724e-06 9.77797e-21
-4.98205e-06 4.94291e-05 2.49838e-21
-1.74157e-06 -1.6862e-05 -2.25967e-20
1.81291e-05 9.9575e-06 -1.75086e-20
2.9326e-05 3.02944e-05 -1.42178e-20
5.50406e-05 3.80244e-05 -7.49968e-21
-5.3328e-06 3.07818e-05 5.28142e-21
5.91968e-05 -3.55227e-05 -1.40753e-20
-2.71326e-05 5.34273e-06 -7.10801e-21
1.78444e-05 1.1005e-05 1.96906e-21
-2.96498e-05 9.90625e-06 -9.39933e-21
1.66579e-05 2.85294e-05 4.77183e-22
1.01719e-05 -4.43995e-05 -9.84891e-21
1.91605e-06 1.16242e-05 1.06374e-20
-1.4805e-05 -1.76252e-05 7.05616e-21
3.07081e-06 1.74797e-05 -6.07603e-21
2.64145e-05 5.25899e-06 -4.09999e-21
-1.54477e-05 3.32209e-05 -1.27741e-20
4.0564e-05 -1.33369e-05 -2.54567e-21
-3.77413e-06 7.45722e-06 6.69113e-21
9.95574e-06 5.90101e-06 1.45822e-20
-2.28122e-06 -1.13278e-05 -4.12306e-21
3.22162e-06 -1.92575e-05 -1.1978e-20
1.74744e-05 3.8932e-06 2.33858e-20
-7.93933e-06 4.09845e-05 5.02555e-21
-9.80843e-06 2.48014e-07 4.13575e-21
9.32124e-06 1.18892e-05 4.98099e-21
-2.1777e-06 -4.17261e-05 -2.26473e-20
4.20352e-05 1.28687e-05 3.95175e-21
4.42386e-06 -7.45533e-06 4.99159e-21
-1.11484e-05 -3.55467e-06 -1.38398e-20
-2.93342e-05 -1.24897e-05 -5.52981e-22
1.58083e-05 4.11592e-05 -7.03582e-21
-4.34978e-05 -1.55785e-05 -1.32898e-20
1.60232e-05 -4.11357e-05 1.22242e-20
-3.70079e-06 -3.19294e-05 -2.74911e-21
2.18452e-05 6.52359e-07 -4.97099e-21
-7.17355e-06 1.84019e-05 9.87526e-21
-1.61163e-06 3.9707e-06 -5.28053e-21
-3.687e-06 -1.65435e-05 2.98828e-21
5.23149e-06 -8.30449e-06 1.33414e-20
9.36222e-06 1.58681e-05 -5.92687e-21
3.31107e-05 1.06555e-05 8.67749e-21
8.61798e-06 -7.46018e-06 2.43471e-21
-8.27319e-06 -4.51732e-05 -7.30445e-21
2.55595e-05 -1.88252e-05 -9.89771e-21
4.97938e-06 2.77793e-05 -1.15385e-20
-2.81715e-06 -2.84243e-06 -1.089e-20
-8.62871e-06 -8.32822e-06 -6.78362e-21
-4.77802e-06 4.41224e-08 -2.84172e-20
-2.28793e-05 2.86025e-05 -1.17325e-20
1.87685e-05 -3.73858e-05 -7.14014e-21
-2.65876e-05 4.2727e-05 1.14838e-21
-1.63765e-05 9.53803e-06 -1.16694e-20
2.52867e-06 1.22024e-05 4.36952e-21
-2.29934e-05 -3.49994e-05 -1.57127e-20
1.39402e-05 3.34756e-05 1.69924e-21
1.75127e-05 9.37187e-06 -2.70179e-21
2.2818e-05 -8.52507e-06 3.03801e-21
-1.25352e-06 -1.12686e-05 -4.07515e-21
-3.39215e-05 -3.15673e-05 -1.0595e-20
-2.75224e-06 1.13066e-05 -2.10287e-20
1.72516e-05 1.01746e-05 -7.13012e-21
1.88928e-05 -8.82333e-06 1.54602e-20
8.24555e-06 -1.43489e-05 1.98812e-20
2.43638e-05 -1.07984e-05 -6.12998e-21
1.90149e-05 -9.00039e-06 6.89366e-21
4.64196e-06 2.05872e-07 1.90079e-22
2.5748e-05 2.02268e-05 -9.43144e-21
-2.74238e-06 -1.70348e-05 -2.16108e-20
-1.04827e-05 -4.45827e-06 -1.55527e-20
1.12619e-06 -3.89119e-06 -2.37742e-20
-3.15592e-06 1.58514e-05 -1.51652e-20
-3.48934e-05 2.76892e-06 1.42404e-23
-1.21249e-05 -3.32677e-05 -1.32531e-20
-7.88127e-06 9.78179e-06 -5.98357e-21
1.35691e-05 1.6645e-05 4.75241e-21
2.65761e-05 -1.87499e-05 4.8664e-21
-3.68028e-05 -2.03567e-05 -2.02487e-20
1.7408e-05 -2.75153e-05 8.05296e-21
2.28104e-05 -2.72241e-05 6.23791e-21
-1.09474e-05 3.786e-06 5.01117e-22
-1.98345e-05 -2.88485e-05 -1.93149e-20
-3.48898e-05 -5.79307e-06 -5.86805e-21
-3.85339e-06 -3.17517e-05 -1.33217e-20
1.54521e-05 -3.1708e-05 1.34711e-20
-9.10868e-06 -2.62068e-05 -4.48958e-21
4.58259e-06 3.14143e-05 1.69772e-21
-1.57567e-05 -2.85302e-05 -6.1497e-21
2.93966e-06 -1.62968e-05 -7.85986e-21
-2.47463e-05 1.82651e-05 -2.48977e-20
-1.5035e-05 -1.21145e-05 1.20744e-20
-2.73605e-05 -5.1739e-06 3.65282e-21
1.56725e-05 -9.18415e-06 -2.26403e-21
-4.30812e-06 2.39593e-05 1.63196e-20
1.2236e-05 -9.3271e-06 1.5391e-20
-2.95943e-05 -1.3168e-05 -6.88795e-22
-8.83414e-06 -7.46022e-06 -1.44595e-20
9.08467e-06 7.54296e-06 1.86568e-21
2.14329e-05 2.87088e-05 1.39792e-20
-1.75138e-05 -1.08123e-05 -1.64236e-20
-3.25155e-05 -7.51276e-07 -1.5137e-21
-1.63413e-05 -5.01759e-06 -2.78029e-22
-4.57939e-06 -1.65879e-05 -7.89623e-21
1.76897e-05 2.12452e-05 -5.3184e-21
-1.09604e-05 5.87644e-06 8.08478e-21
6.36254e-07 -2.05611e-05 -8.47589e-21
-4.19518e-05 1.08541e-05 -8.97458e-21
2.48676e-05 2.0252e-05 -1.90709e-20
3.79569e-06 3.27947e-05 -1.61587e-21
-2.43266e-06 3.79829e-06 -2.32997e-20
-9.05349e-06 2.51278e-07 -2.82292e-20
4.35635e-06 7.76229e-06 1.1402e-20
-1.16973e-05 3.40242e-06 -1.8948e-21
-2.07394e-06 -3.78599e-06 -7.07859e-21
1.66029e-06 2.07658e-05 -3.58008e-21
4.47369e-06 4.49816e-07 3.96418e-21
-1.95437e-05 4.75803e-06 -7.04009e-21
-1.73033e-05 1.93636e-05 -1.37616e-20
-3.10833e-06 1.15815e-05 8.71414e-21
-2.92254e-05 1.83997e-05 -1.76202e-20
-9.34602e-06 8.98188e-06 -1.25052e-20
1.73162e-05 -1.16171e-05 8.62958e-21
3.66147e-05 -3.5657e-06 -3.31024e-21
-2.11468e-05 1.13006e-05 6.12119e-21
2.23365e-06 4.49953e-06 -7.86438e-21
2.17816e-05 -4.34613e-06 -1.23306e-20
-1.72839e-05 1.03558e-05 -3.47609e-21
-9.87463e-06 5.54064e-06 -8.28914e-21
1.18348e-05 3.74378e-06 2.22456e-20
2.18862e-05 -1.3475e-05 -5.39754e-21
-1.7385e-05 9.959e-06 7.69824e-21
-2.50442e-05 -5.3046e-06 -1.03476e-20
-1.67665e-05 -4.36374e-06 -1.88496e-20
9.87907e-06 6.25486e-09 4.5026e-21
1.01768e-05 1.95404e-07 5.66308e-22
4.39205e-06 8.31957e-06 -1.15833e-20
4.83096e-06 -8.80031e-06 -1.81632e-20
-5.01179e-06 8.42226e-06 -1.1017e-20
-5.26819e-06 -8.66009e-06 -1.36551e-20
9.91385e-06 -7.41013e-06 -2.19521e-21
-2.03333e-05 3.23584e-06 1.84353e-21
-2.00656e-05 -3.28467e-06 8.30002e-21
-1.28384e-05 1.5881e-05 -1.36606e-20
-1.29182e-05 -1.59353e-05 -1.38273e-20
7.4884e-06 -1.98494e-05 8.06874e-21
7.20807e-06 1.97695e-05 6.1454e-22
1.55831e-06 2.58925e-05 -1.02706e-20
1.12437e-05 -3.13772e-06 5.97112e-21
2.3606e-06 -3.86762e-06 -3.60433e-21
-2.14175e-05 1.4221e-06 7.57547e-21
7.67937e-06 -1.95186e-05 9.06948e-21
7.2755e-06 1.96672e-05 4.89219e-21
4.77016e-06 -5.27276e-08 -2.4889e-22
8.97082e-06 2.44101e-05 1.56181e-20
-2.24291e-06 -4.01749e-06 -2.0745e-20
2.31844e-06 -1.13202e-05 -1.22088e-20
-2.24368e-05 -1.21551e-05 -1.50451e-20
-2.13641e-05 -1.14978e-05 -2.0021e-20
-2.18987e-05 1.36324e-05 -1.97106e-20
3.25215e-06 -1.2291e-05 1.48463e-20
-1.56574e-06 3.38292e-06 5.8947e-21
-5.87434e-07 -2.5576e-05 -7.0883e-21
-7.72227e-06 -2.44295e-05 -7.99658e-21
3.27128e-05 3.03706e-05 5.36298e-21
3.54627e-05 -1.81567e-06 -2.12245e-21
-1.27145e-05 -3.63314e-06 7.51332e-21
-2.28986e-05 -4.13971e-05 1.28008e-20
8.30646e-06 1.37515e-05 6.8021e-21
-2.52425e-05 3.03413e-06 -7.64036e-21
2.00704e-05 5.78792e-06 1.15087e-20
-4.53432e-06 -3.2747e-08 -2.53549e-20
-4.66639e-06 -8.41493e-06 -6.20396e-21
-7.07473e-06 -3.9343e-05 -7.48059e-21
-9.71086e-06 -8.39518e-08 -1.93904e-20
-4.86872e-05 -1.81619e-06 -7.40843e-21
1.73133e-05 -1.91102e-05 -3.89021e-21
2.43e-06 4.0001e-06 8.30155e-21
-1.2063e-07 -1.75182e-05 -2.10145e-20
-9.8209e-06 2.40901e-05 -1.84979e-20
-4.37315e-06 8.62961e-06 -1.58807e-20
2.05615e-05 -1.36095e-05 -4.03784e-21
-3.76685e-05 -1.35549e-05 3.43186e-22
-1.52696e-05 -2.0371e-05 -1.23624e-20
4.97832e-06 8.39117e-06 4.90005e-21
1.66353e-05 5.16185e-06 7.41389e-21
-4.76504e-06 -7.34013e-06 -2.91881e-20
1.98014e-05 3.54808e-06 2.44426e-20
1.81929e-05 -9.82814e-06 -2.86915e-21
-3.48882e-07 2.71792e-05 -1.05925e-21
8.32236e-06 -1.367e-05 3.01561e-20
4.88151e-05 2.20111e-06 -2.36771e-21
-4.23667e-05 1.14562e-05 -1.28936e-20
2.2865e-05 1.15587e-05 -4.80503e-22
-6.45431e-06 -1.7183e-05 -8.53015e-21
-1.53532e-05 -8.62e-06 -2.9654e-20
2.87935e-05 -2.10585e-07 -6.68477e-21
-6.92094e-07 -2.426e-05 -1.33332e-20
-1.262e-05 -1.08763e-05 -7.95868e-21
1.0226e-05 -2.35044e-05 -8.07025e-22
-4.96672e-07 2.05596e-05 -3.20961e-21
7.91936e-06 2.6073e-05 -5.17229e-21
1.72714e-05 -9.88624e-06 -5.89048e-21
-1.89517e-05 1.93025e-05 -1.40474e-20
1.65311e-05 2.00334e-05 3.08289e-21
-6.22429e-05 1.60251e-05 1.97602e-20
-1.01111e-05 2.60213e-05 -1.33235e-20
1.25215e-05 -1.52513e-05 -6.05723e-21
-7.03046e-06 -1.84014e-05 -6.05388e-21
-1.18559e-05 4.50658e-06 5.70645e-21
-2.58985e-05 -7.04721e-06 7.75792e-22
-6.38735e-06 3.88655e-05 -3.95323e-22
-1.26083e-05 1.19048e-05 2.16973e-21
2.07807e-05 -4.47646e-06 6.70994e-21
-6.87376e-06 -2.57993e-05 -2.03698e-21
-1.48717e-05 2.38957e-05 -1.43876e-20
-2.17932e-05 1.25672e-05 5.28475e-21
-2.05735e-05 -1.50584e-05 -2.18242e-20
1.80321e-05 -2.06591e-05 1.99828e-20
-2.75361e-05 -1.45653e-06 -2.79184e-21
1.23698e-05 -4.08182e-05 4.45378e-21
1.93901e-05 -1.89168e-05 -1.53726e-20
2.47375e-05 4.30902e-05 7.60003e-21
1.97154e-06 1.98704e-05 -5.05044e-21
2.96175e-06 -2.54262e-05 1.32724e-21
-4.16445e-05 4.69711e-05 1.73277e-20
-1.27046e-05 -2.44164e-05 -1.61406e-21
1.637e-05 -6.42177e-06 -8.48891e-21
-2.41129e-06 2.57773e-05 -1.49845e-20
1.28855e-05 -1.18288e-05 1.30483e-21
1.38833e-05 2.43177e-05 5.53366e-21
1.72332e-05 -1.40076e-06 -3.55703e-21
2.21247e-05 -6.3229e-05 -1.34917e-20
-5.87724e-06 -1.28617e-05 -1.31546e-20
-2.31889e-05 1.00891e-05 -1.99825e-20
-2.00238e-05 1.87226e-05 1.68502e-20
2.16166e-05 1.45705e-05 1.03985e-21
1.86763e-05 -1.07588e-05 3.19234e-22
1.49549e-05 1.25959e-05 2.1451e-20
-5.42916e-06 4.55401e-08 -4.53248e-22
1.54067e-05 -2.30917e-05 -1.77048e-21
-1.69936e-05 -2.04132e-05 -1.47465e-20
2.25663e-05 9.7756e-06 -1.86919e-20
1.28091e-05 -1.19921e-05 -1.40335e-21
9.55587e-06 -2.48566e-05 3.52367e-21
1.66624e-05 -6.93423e-06 -2.11275e-21
-1.58085e-05 -7.54612e-06 -8.25002e-21
1.29712e-06 -2.63081e-05 -2.86418e-20
-2.61119e-05 4.47398e-06 -1.56588e-20
2.39093e-06 2.45476e-05 4.71147e-21
2.0589e-05 6.62875e-06 3.00952e-21
-2.17248e-05 -1.0704e-05 -1.91116e-21
-8.97892e-06 2.56151e-05 -5.67495e-21
-1.49562e-06 -2.41928e-05 5.87076e-21
1.94702e-05 1.18397e-05 2.68999e-21
-1.76928e-06 1.80883e-05 -2.59091e-20
-2.01428e-05 1.37054e-05 -1.35863e-20
2.35156e-05 1.14174e-05 1.9629e-20
-1.71187e-05 -9.98762e-06 -1.23722e-21
9.51535e-08 -1.98387e-05 -2.34128e-20
1.83861e-05 1.99883e-05 -1.4879e-20
-2.21583e-05 -1.43065e-05 -8.03931e-21
4.83611e-05 -3.39889e-05 -7.51059e-21
1.79007e-05 -1.08247e-05 6.19941e-21
9.00391e-06 4.30962e-05 -6.39076e-22
1.70377e-05 -1.36815e-05 -4.93279e-21
-1.9878e-05 8.70546e-05 8.27275e-21
-1.97681e-05 -8.65688e-05 -2.25815e-20
5.71973e-05 7.17324e-05 -8.61472e-21
5.69349e-05 -7.1406e-05 -1.84497e-20
9.06666e-05 -1.45497e-10 -3.81229e-21
-7.8218e-05 3.76488e-05 -6.16242e-21
-7.74723e-05 -3.72927e-05 -7.53576e-21
1.22365e-05 1.18212e-05 5.57945e-21
2.93744e-05 2.18972e-05 1.58686e-20
1.14507e-05 3.33356e-06 1.08303e-20
1.88599e-05 9.75366e-06 -8.07387e-21
4.9904e-06 2.01746e-05 1.12959e-20
-1.88361e-05 -1.49838e-05 -1.46935e-20
1.70418e-05 -1.02165e-05 -8.71898e-22
1.98571e-05 1.45526e-05 1.75624e-21
-3.1676e-06 2.43695e-05 -1.34147e-20
2.94473e-05 -1.99973e-05 -1.22578e-20
3.79483e-06 -2.37452e-05 5.68113e-22
2.19658e-05 5.22822e-06 7.00311e-21
2.99027e-05 1.10284e-05 -3.41029e-21
1.4212e-05 1.4147e-05 -1.12899e-21
1.58868e-05 6.59519e-06 8.47958e-22
-1.8503e-05 1.09391e-05 -4.14519e-21
-2.25684e-05 9.03876e-06 -8.34947e-21
2.29348e-05 -1.12661e-05 -8.99579e-21
-1.82721e-05 -1.00003e-05 -2.78247e-20
-1.85587e-05 -1.05849e-05 -5.37572e-21
-3.43892e-07 -2.07726e-05 -2.24445e-20
-8.6112e-08 -2.11657e-05 -4.45047e-21
-2.01318e-05 -1.00571e-06 -1.11707e-20
2.67052e-05 -4.02008e-06 -6.5629e-21
1.81163e-05 1.13448e-05 6.36676e-21
-1.78684e-05 1.09477e-05 1.19385e-21
-1.5365e-05 1.66275e-05 2.13619e-20
1.60259e-05 -1.37564e-05 -2.79293e-20
-1.1026e-05 1.74675e-05 -2.08397e-21
-1.42282e-05 -1.48932e-05 -3.20264e-21
-1.15547e-06 2.12157e-05 -7.44725e-21
-1.28794e-06 2.09732e-05 -5.95871e-21
8.97853e-08 -1.98387e-05 -2.40064e-20
6.11233e-06 -1.9742e-05 5.98658e-21
-1.7145e-05 -9.93787e-06 -9.73341e-21
1.55905e-05 -5.49158e-06 7.44148e-21
6.63374e-07 2.14829e-05 -1.29673e-20
3.00953e-07 1.85119e-05 -2.41341e-22
-2.34627e-06 1.68614e-05 -1.09527e-20
2.1914e-05 -5.52873e-06 8.29124e-21
-1.65453e-05 5.37939e-06 -6.01722e-21
4.15851e-06 2.15227e-05 7.77888e-21
-3.25662e-05 1.29224e-05 -2.20795e-21
9.76592e-06 4.17416e-05 -1.05347e-20
-1.70576e-05 4.56926e-06 -2.59267e-21
1.96892e-05 -1.16329e-05 -9.07856e-21
9.4605e-07 2.10246e-05 -1.30497e-20
-2.04863e-05 6.70109e-06 -1.18134e-20
2.44472e-06 -1.62665e-05 -2.43754e-20
1.82008e-06 -5.8027e-05 -2.08723e-20
2.007e-06 1.74906e-05 -1.99089e-21
-1.69662e-05 1.40261e-05 -2.02499e-20
1.78588e-05 6.39876e-05 -2.6348e-21
4.57806e-05 3.77161e-05 -3.12471e-21
5.20779e-05 -3.52644e-05 -1.68929e-20
1.48192e-05 -1.01696e-05 7.53182e-21
-1.57894e-05 1.40412e-05 -6.12545e-21
-2.0222e-05 -7.92271e-06 -1.25919e-20
-1.96506e-05 -6.82416e-06 -1.69187e-20
5.92819e-05 -2.46181e-05 -1.1024e-20
5.74481e-05 2.38769e-05 -8.44621e-22
1.08973e-05 3.81844e-06 -1.20654e-22
7.66867e-07 1.95843e-05 -5.1632e-21
7.8417e-08 1.95656e-05 4.3989e-21
-4.83952e-05 -3.69288e-05 -2.13213e-20
1.14281e-05 -1.71763e-05 -2.58085e-21
1.17363e-05 1.24678e-05 2.02644e-20
-2.14237e-05 -3.39662e-06 -7.43481e-21
-1.40486e-05 1.72066e-05 -8.29884e-21
-1.88934e-05 9.17015e-06 -1.34284e-20
4.76556e-05 3.37027e-05 -9.10524e-21
1.58105e-05 7.06345e-06 -1.80741e-20
-5.56814e-06 2.00356e-05 -1.3422e-20
-1.69824e-05 -1.17523e-05 -2.40367e-20
1.85678e-06 -2.05482e-05 -1.71585e-20
-8.95202e-06 -1.92723e-05 -9.86953e-21
-1.72536e-05 -1.17766e-05 -2.28795e-20
1.05824e-05 -1.89407e-05 1.0183e-20
1.41262e-05 -1.69937e-05 -3.12229e-21
-2.44076e-06 -6.14536e-05 -1.5854e-20
2.61872e-05 -4.11364e-05 1.11759e-20
1.748e-06 -2.0791e-05 -6.20397e-21
1.79634e-05 1.13584e-05 7.45897e-23
-1.44801e-05 -1.49093e-05 -7.61035e-21
-9.84363e-06 1.97153e-05 -1.80644e-20
-5.04071e-06 2.10123e-05 -1.13811e-20
1.66316e-05 1.42475e-05 -7.79132e-21
6.06065e-06 -1.98666e-05 -5.32509e-21
-1.34098e-05 -4.03688e-05 -8.60388e-22
-1.98888e-06 2.50471e-05 -1.0783e-20
1.47958e-05 1.44589e-05 -1.01424e-20
-1.29617e-05 -1.02194e-05 -1.22145e-21
-1.35186e-05 1.0611e-05 1.44336e-21
4.43546e-05 -1.89181e-05 4.36573e-23
7.56509e-06 -1.34037e-05 6.86454e-21
-8.31935e-06 -1.26304e-05 -2.31114e-20
2.13362e-05 6.36518e-06 3.13867e-21
1.09973e-05 -5.06754e-05 -7.67011e-22
-3.84617e-05 -3.49123e-05 4.41106e-21
2.3313e-05 6.20903e-06 -5.35236e-21
-9.33069e-06 -1.82861e-05 -1.82981e-20
1.87106e-05 9.4853e-06 -1.70245e-20
-2.8572e-05 -3.25603e-05 -9.31746e-21
9.69079e-06 5.00602e-05 -1.56309e-20
3.43433e-05 -5.98757e-05 2.04059e-21
-3.47464e-05 -5.97925e-05 -1.44649e-20
2.78162e-05 -5.20359e-05 -4.92521e-21
-1.27015e-05 4.36449e-05 5.63521e-21
-6.27773e-06 3.89878e-05 2.09526e-20
-1.87357e-05 8.9483e-06 -1.64051e-20
5.97883e-06 2.42487e-05 -4.65632e-21
-2.39219e-06 1.26574e-05 -1.09634e-20
1.01229e-05 3.234e-06 6.88396e-21
-3.1893e-06 1.62098e-05 -6.51501e-21
-2.47491e-07 2.09973e-05 2.88794e-21
1.6665e-05 9.75317e-06 -4.68661e-21
1.71113e-06 5.77397e-05 3.47001e-21
-1.47212e-05 1.07356e-05 -9.58941e-21
1.59537e-05 -6.24826e-06 -1.47347e-20
1.68764e-05 -4.51016e-06 1.30303e-20
-6.06794e-05 -8.77132e-06 -1.45431e-20
-3.46149e-05 1.67459e-05 1.8602e-21
-4.35263e-05 -5.25607e-05 -1.81135e-20
8.65885e-06 8.34791e-06 -1.79792e-20
1.42137e-05 7.29448e-06 5.06376e-21
2.68119e-05 -4.19696e-06 -4.17458e-22
-8.10652e-06 -1.32464e-05 -1.25768e-20
1.72212e-05 8.43084e-06 -9.34049e-21
7.33731e-06 -3.00426e-05 -1.27514e-20
-1.37173e-05 1.02077e-05 -1.90813e-21
-2.23803e-05 -2.1428e-05 9.2623e-21
-5.8375e-06 1.63021e-05 -1.88393e-20
-3.27183e-06 2.0684e-05 -3.8902e-21
3.38588e-05 2.13021e-05 1.14511e-20
3.61228e-05 -1.9288e-05 -1.21199e-20
-4.20818e-05 -1.16262e-05 -5.1153e-21
7.6362e-06 7.68777e-06 1.44124e-20
-4.05916e-06 0.000101388 -3.81775e-21
8.62458e-07 -0.000104495 -1.16721e-20
5.24686e-05 8.7668e-05 7.62153e-22
-1.9108e-05 8.46016e-06 -1.81283e-20
-2.63831e-05 5.65649e-05 1.13583e-20
5.30471e-05 -8.4662e-05 -1.39983e-20
-1.17236e-05 -1.82872e-05 -1.71561e-20
7.80204e-05 6.7515e-05 9.30412e-21
2.39999e-05 -1.79815e-05 -4.40317e-21
-3.60836e-06 -2.983e-05 4.96599e-22
8.18001e-05 -6.58671e-05 3.97661e-21
-6.74637e-06 1.45222e-05 -1.4605e-20
-5.38467e-05 -3.48335e-05 -1.85473e-20
-4.30244e-05 -9.31551e-05 -1.78752e-20
-2.41187e-05 -5.78196e-05 -1.06268e-20
-4.39862e-05 9.41622e-05 6.29096e-21
-1.00957e-05 6.41009e-05 6.59378e-22
1.56369e-05 3.7118e-05 -5.55519e-21
-2.79626e-05 3.72506e-05 1.6715e-20
-2.52793e-05 -5.51983e-05 -9.657e-21
0.000100392 1.73214e-05 7.02887e-21
-1.69319e-05 1.07699e-05 -1.47775e-20
-5.91386e-06 1.63373e-05 -9.78612e-22
-5.07716e-05 3.76502e-05 5.66099e-21
-1.72808e-05 9.94675e-06 -2.60221e-20
9.92284e-05 -1.52672e-05 9.8768e-21
-1.53642e-05 7.80076e-06 -1.94633e-21
7.19453e-06 -1.44987e-05 -1.4176e-21
-7.79898e-05 -6.09648e-05 -3.41151e-21
-2.58854e-05 5.77325e-05 -5.55277e-21
-7.91428e-05 6.03919e-05 -2.48959e-21
2.45469e-05 5.19637e-05 1.49675e-20
-1.47714e-05 1.05852e-05 -6.53018e-21
-2.05352e-05 2.4483e-05 1.96238e-21
-2.85401e-05 4.98309e-05 -9.38231e-21
-5.67908e-05 2.0806e-07 4.01872e-20
-9.4432e-07 1.63003e-05 -1.27029e-20
-2.88571e-05 -5.04196e-05 -4.62205e-21
-5.82135e-05 -2.199e-07 -7.59244e-21
-2.83569e-05 4.87089e-05 3.75766e-20
-1.51942e-05 6.62834e-05 -6.88365e-21
-1.78692e-05 4.12715e-05 -1.42821e-21
-3.39091e-05 2.71444e-05 5.47606e-21
2.43892e-05 -6.0585e-06 2.7297e-21
3.80126e-05 -2.19586e-06 -6.24216e-21
1.34858e-05 8.20243e-06 8.66536e-21
-1.04719e-05 -7.40069e-05 -6.23945e-21
-6.9467e-05 -2.79815e-05 6.30795e-21
3.71419e-05 7.32905e-07 1.34696e-20
5.83813e-05 -1.08949e-05 -1.68875e-20
-1.05864e-05 -1.35006e-05 -7.85015e-21
-5.08419e-05 3.7636e-05 1.82441e-20
-4.61456e-05 5.40145e-05 1.50485e-20
6.23788e-05 -2.22381e-05 5.85047e-21
-2.81847e-05 -5.05102e-05 -1.71532e-21
-2.87846e-05 4.97925e-05 4.82639e-21
-5.72693e-05 -1.17148e-06 2.43271e-20
-2.65802e-05 5.0611e-05 3.4672e-20
-5.79683e-05 -8.17213e-07 -5.93837e-21
6.60933e-05 1.7397e-05 -1.82475e-20
5.63949e-05 1.29287e-06 -1.20393e-20
5.09134e-05 -2.92815e-05 -1.45456e-20
2.49167e-05 -5.94426e-05 -3.15959e-21
2.99263e-05 -4.88695e-05 -8.86514e-21
2.9175e-05 4.86934e-05 -6.43041e-21
2.43514e-05 5.81045e-05 4.38831e-21
7.58221e-05 -2.00428e-05 -4.56536e-21
4.62784e-05 2.90708e-05 1.30058e-20
4.66364e-05 1.3749e-05 2.28829e-21
TENSORS solid_stress_TPM float
375.051 -24.9212 1.13687e-13
-24.9212 238.582 1.87346e-12
1.13687e-13 1.87346e-12 197.829

457.033 -21.3207 -4.45525e-12
-21.3207 490.017 2.09196e-12
-4.45525e-12 2.09196e-12 487.138

454.907 28.0452 -5.90343e-13
28.0452 463.737 -3.9216e-12
-5.90343e-13 -3.9216e-12 458.486

455.058 -29.8425 6.56438e-12
-29.8425 482.639 2.97155e-12
6.56438e-12 2.97155e-12 484.885

527.708 19.9308 2.38713e-12
19.9308 548.474 5.18104e-14
2.38713e-12 5.18104e-14 527.38

437.338 -18.0758 -7.07878e-13
-18.0758 480.368 1.73195e-12
-7.07878e-13 1.73195e-12 458.067

372.346 26.4854 1.90425e-12
26.4854 239.102 -2.57098e-12
1.90425e-12 -2.57098e-12 197.813

473.68 29.9591 1.44359e-12
29.9591 469.53 -4.358e-13
1.44359e-12 -4.358e-13 472.364

471.578 5.48349 3.91272e-12
5.48349 417.848 2.66454e-14
3.91272e-12 2.66454e-14 432.822

504.289 -7.47763 5.55496e-12
-7.47763 444.14 2.23466e-12
5.55496e-12 2.23466e-12 483.48

360.314 16.31 -3.59535e-12
16.31 247.669 2.66454e-13
-3.59535e-12 2.66454e-13 233.659

444.809 -13.4539 3.60748e-13
-13.4539 498.414 -4.22122e-12
3.60748e-13 -4.22122e-12 472.266

466.895 27.8346 6.41857e-13
27.8346 468.33 9.00021e-13
6.41857e-13 9.00021e-13 466.761

457.064 -14.3408 -1.91606e-13
-14.3408 500.462 3.04586e-12
-1.91606e-13 3.04586e-12 483.484

512.961 33.3095 3.57344e-12
33.3095 511.621 -6.21142e-13
3.57344e-12 -6.21142e-13 515.25

489.202 0.56106 -1.6905e-12
0.56106 435.55 -9.67236e-13
-1.6905e-12 -9.67236e-13 462.299

457.61 -17.9689 -5.75364e-13
-17.9689 512.913 -2.22429e-12
-5.75364e-13 -2.22429e-12 493.623

493.987 -2.6652 2.58134e-12
-2.6652 439.076 3.09471e-12
2.58134e-12 3.09471e-12 474.291

418.818 26.676 2.58756e-13
26.676 449.688 -1.08299e-12
2.58756e-13 -1.08299e-12 424.079

482.011 -4.19594 -1.25944e-12
-4.19594 424.947 2.25227e-13
-1.25944e-12 2.25227e-13 453.501

425.322 8.66945 1.9047e-12
8.66945 481.932 -4.06549e-12
1.9047e-12 -4.06549e-12 444.867

634.133 6.28638 5.46525e-12
6.28638 633.97 4.76167e-12
5.46525e-12 4.76167e-12 570.333

479.182 1.87608 -4.06904e-12
1.87608 422.966 2.26478e-12
-4.06904e-12 2.26478e-12 449.758

447.189 -27.7171 5.02472e-12
-27.7171 461.178 2.55203e-13
5.02472e-12 2.55203e-13 452.974

481.078 6.84981 -4.47464e-12
6.84981 425.466 6.04553e-13
-4.47464e-12 6.04553e-13 452.965

449.785 19.1136 1.85e-12
19.1136 490.346 -1.37668e-13
1.85e-12 -1.37668e-13 478.233

377.676 4.18175 -9.82917e-12
4.18175 291.67 9.51239e-13
-9.82917e-12 9.51239e-13 259.018

462.712 30.7476 -8.52059e-13
30.7476 460.741 4.93679e-12
-8.52059e-13 4.93679e-12 460.571

384.964 37.0778 -1.73609e-12
37.0778 383.543 -2.82796e-12
-1.73609e-12 -2.82796e-12 348.44

586.955 10.3236 -5.44749e-14
10.3236 563.468 -9.19598e-13
-5.44749e-14 -9.19598e-13 546.892

491.716 14.2173 7.69755e-13
14.2173 442.524 5.49294e-12
7.69755e-13 5.49294e-12 465.883

352.876 -17.782 -1.5777e-12
-17.782 416.749 -9.78181e-13
-1.5777e-12 -9.78181e-13 348.611

331.036 -42.1048 -1.73609e-12
-42.1048 335.891 -2.69533e-12
-1.73609e-12 -2.69533e-12 253.497

531.427 5.98573 -1.2074e-12
5.98573 586.904 -6.66134e-13
-1.2074e-12 -6.66134e-13 538.602

554.039 -4.83912 3.37004e-12
-4.83912 582.087 -7.37987e-12
3.37004e-12 -7.37987e-12 542.532

578.001 21.0275 -1.16825e-12
21.0275 539.965 1.04733e-11
-1.16825e-12 1.04733e-11 538.37

556.2 5.06595 -3.82094e-12
5.06595 600.686 2.68911e-12
-3.82094e-12 2.68911e-12 547.988

573.79 -9.17065 4.3574e-12
-9.17065 555.782 7.77036e-13
4.3574e-12 7.77036e-13 540.658

467.155 -27.9997 -1.49984e-12
-27.9997 466.519 2.77112e-13
-1.49984e-12 2.77112e-13 465.134

330.42 41.524 2.61006e-12
41.524 337.99 6.18409e-12
2.61006e-12 6.18409e-12 253.856

414.551 -17.9507 9.02389e-13
-17.9507 354.508 -9.13639e-13
9.02389e-13 -9.13639e-13 346.341

559.321 -3.70473 2.51503e-13
-3.70473 599.935 -2.99257e-12
2.51503e-13 -2.99257e-12 548.402

586.426 19.5532 -2.2932e-12
19.5532 572.468 3.41416e-12
-2.2932e-12 3.41416e-12 548.191

490.922 -12.2736 -2.71664e-12
-12.2736 442.879 2.52879e-12
-2.71664e-12 2.52879e-12 466.555

341.727 -43.3027 1.48503e-12
-43.3027 345.356 -2.72375e-14
1.48503e-12 -2.72375e-14 288.993

417.577 -18.065 -4.56761e-12
-18.065 357.125 -7.46662e-13
-4.56761e-12 -7.46662e-13 351.515

413.03 17.0871 -7.54212e-13
17.0871 464.803 1.22865e-12
-7.54212e-13 1.22865e-12 428.744

429.647 19.3406 1.22391e-12
19.3406 466.533 -4.36332e-12
1.22391e-12 -4.36332e-12 437.098

486.8 -16.302 -5.6873e-12
-16.302 432.892 -4.9285e-12
-5.6873e-12 -4.9285e-12 458.695

355.594 -34.1884 4.20997e-13
-34.1884 389.417 -1.20437e-12
4.20997e-13 -1.20437e-12 332.581

410.269 19.1835 -3.04349e-13
19.1835 350.714 4.84649e-12
-3.04349e-13 4.84649e-12 339.49

425.219 -25.2906 -3.01744e-12
-25.2906 383.835 3.55804e-12
-3.01744e-12 3.55804e-12 373.091

519.934 19.4843 -1.66815e-12
19.4843 547.545 -8.55612e-14
-1.66815e-12 -8.55612e-14 525.746

416.43 29.6519 2.6219e-12
29.6519 393.902 -2.08071e-12
2.6219e-12 -2.08071e-12 373.956

522.191 -21.8127 -2.9224e-12
-21.8127 541.409 8.05698e-13
-2.9224e-12 8.05698e-13 524.393

364.085 -42.7146 1.76215e-12
-42.7146 343.295 7.24043e-12
1.76215e-12 7.24043e-12 289.71

553.461 5.45808 -3.62125e-12
5.45808 583.879 -9.96151e-12
-3.62125e-12 -9.96151e-12 542.906

373.731 -5.33031 2.27966e-13
-5.33031 436.682 2.36019e-12
2.27966e-13 2.36019e-12 373.84

580.826 10.3846 2.63641e-12
10.3846 556.182 -2.21089e-12
2.63641e-12 -2.21089e-12 542.663

435.075 21.4145 8.48803e-13
21.4145 473.782 4.53385e-12
8.48803e-13 4.53385e-12 454.691

513.592 5.75454 1.85363e-12
5.75454 452.826 4.65317e-12
1.85363e-12 4.65317e-12 494.885

522.478 11.459 4.64843e-12
11.459 487.88 -3.36827e-12
4.64843e-12 -3.36827e-12 507.097

383.721 31.8218 -2.46558e-12
31.8218 315.206 9.50943e-13
-2.46558e-12 9.50943e-13 269.882

482.106 -6.03588 -2.68778e-12
-6.03588 528.2 -2.23703e-12
-2.68778e-12 -2.23703e-12 504.119

487.115 9.52033 6.2769e-12
9.52033 523.709 -6.37416e-12
6.2769e-12 -6.37416e-12 507.515

456.478 -2.88135 9.24631e-13
-2.88135 520.178 -1.77636e-12
9.24631e-13 -1.77636e-12 487.827

464.475 23.4015 -1.48252e-13
23.4015 503.491 -7.79229e-13
-1.48252e-13 -7.79229e-13 495.461

496.77 8.46402 -3.74278e-12
8.46402 444.419 5.90846e-12
-3.74278e-12 5.90846e-12 477.719

445.528 -28.2413 6.09231e-12
-28.2413 459.551 8.79297e-13
6.09231e-12 8.79297e-13 451.188

501.705 -1.71145 2.71339e-13
-1.71145 444.939 8.7678e-13
2.71339e-13 8.7678e-13 489.09

519.547 -19.2603 1.7691e-12
-19.2603 546.838 2.22015e-12
1.7691e-12 2.22015e-12 525.479

523.32 21.3078 -4.39352e-13
21.3078 542.934 -1.42721e-12
-4.39352e-13 -1.42721e-12 525.282

353.426 -16.5849 1.52471e-14
-16.5849 415.757 -3.88075e-12
1.52471e-14 -3.88075e-12 346.13

506.041 -27.9368 2.79599e-12
-27.9368 485.329 -2.85993e-13
2.79599e-12 -2.85993e-13 493.9

449.743 -25.1361 3.07399e-12
-25.1361 471.244 3.60186e-12
3.07399e-12 3.60186e-12 458.599

357.887 -31.7129 2.75691e-12
-31.7129 285.689 -1.65172e-12
2.75691e-12 -1.65172e-12 249.87

498.516 3.22297 -2.22444e-12
3.22297 541.424 -2.53427e-12
-2.22444e-12 -2.53427e-12 513.661

501.747 28.9448 1.07943e-12
28.9448 474.57 1.65201e-12
1.07943e-12 1.65201e-12 487.678

448.466 19.6648 4.55354e-12
19.6648 492.131 -4.0344e-12
4.55354e-12 -4.0344e-12 477.665

440.216 8.00021 -3.59771e-12
8.00021 373.055 -1.5478e-12
-3.59771e-12 -1.5478e-12 382.954

386.471 -33.9383 5.43447e-12
-33.9383 360.224 6.64357e-13
5.43447e-12 6.64357e-13 319.452

537.733 -10.587 -2.27936e-12
-10.587 556.154 3.4032e-12
-2.27936e-12 3.4032e-12 531.266

482.679 23.9 2.07034e-12
23.9 504.58 1.27849e-12
2.07034e-12 1.27849e-12 502.063

385.391 -32.3865 1.01489e-12
-32.3865 345.323 1.70412e-12
1.01489e-12 1.70412e-12 317.097

422.22 10.792 3.49232e-12
10.792 363.868 -2.64218e-12
3.49232e-12 -2.64218e-12 350.271

307.666 -21.2077 4.78403e-12
-21.2077 388.463 1.00637e-11
4.78403e-12 1.00637e-11 288.13

434.466 14.4263 2.2727e-12
14.4263 488.693 -5.71987e-13
2.2727e-12 -5.71987e-13 460.906

509.742 23.1443 -1.66326e-12
23.1443 475.192 5.041e-12
-1.66326e-12 5.041e-12 489.967

338.257 42.2021 -2.62782e-12
42.2021 349.589 -2.65269e-12
-2.62782e-12 -2.65269e-12 288.966

634.219 16.5057 1.04664e-11
16.5057 603.076 9.33609e-12
1.04664e-11 9.33609e-12 565.338

372.907 -4.10874 1.81514e-12
-4.10874 436.841 1.78109e-12
1.81514e-12 1.78109e-12 373.447

637.125 -16.631 -5.20931e-12
-16.631 599.546 -4.99008e-13
-5.20931e-12 -4.99008e-13 564.845

533.957 -27.3348 -1.93327e-12
-27.3348 507.258 6.19046e-12
-1.93327e-12 6.19046e-12 515.734

505.319 27.4251 2.15887e-12
27.4251 466.355 -2.04607e-12
2.15887e-12 -2.04607e-12 485.094

426.949 -24.4126 -7.63123e-12
-24.4126 386.259 -3.30432e-12
-7.63123e-12 -3.30432e-12 375.998

358.954 31.326 1.83971e-12
31.326 396.026 -1.36187e-13
1.83971e-12 -1.36187e-13 339.218

339.842 -10.706 2.82322e-12
-10.706 408.414 -7.10306e-12
2.82322e-12 -7.10306e-12 319.122

453.129 21.9712 4.13936e-12
21.9712 494.704 -5.00696e-12
4.13936e-12 -5.00696e-12 483.192

533.133 16.7949 6.31199e-13
16.7949 506.217 -2.35278e-12
6.31199e-13 -2.35278e-12 513.373

443.476 15.155 3.38648e-12
15.155 488.466 2.54552e-12
3.38648e-12 2.54552e-12 464.306

451.506 15.955 -5.55408e-13
15.955 400.558 -7.9492e-14
-5.55408e-13 -7.9492e-14 403.769

374.508 -21.4744 9.61601e-13
-21.4744 419.891 -5.23315e-12
9.61601e-13 -5.23315e-12 357.217

389.744 -29.3931 5.1467e-12
-29.3931 342.387 8.10019e-13
5.1467e-12 8.10019e-13 314.408

454.991 -24.5739 3.45753e-12
-24.5739 480.091 -1.39178e-12
3.45753e-12 -1.39178e-12 478.395

466.451 27.4522 -1.83853e-12
27.4522 478.768 -3.47426e-12
-1.83853e-12 -3.47426e-12 479.833

452.243 23.1881 -1.46609e-12
23.1881 492.585 -3.80436e-13
-1.46609e-12 -3.80436e-13 482.068

466.318 13.1688 -1.62823e-12
13.1688 529.798 -2.825e-12
-1.62823e-12 -2.825e-12 501.405

490.889 9.3726 -1.15759e-12
9.3726 437.913 3.09841e-12
-1.15759e-12 3.09841e-12 462.08

327.728 -4.66539 1.73165e-12
-4.66539 403.404 1.5324e-12
1.73165e-12 1.5324e-12 314.429

462.606 -36.8321 -4.88498e-14
-36.8321 487.716 -9.69447e-13
-4.88498e-14 -9.69447e-13 492.773

445.874 27.4671 -6.7472e-13
27.4671 463.296 1.02969e-12
-6.7472e-13 1.02969e-12 455.039

305.687 2.17042 -4.26355e-12
2.17042 393.383 -6.05382e-12
-4.26355e-12 -6.05382e-12 297.272

386.018 34.6132 -4.41721e-12
34.6132 332.465 4.45096e-12
-4.41721e-12 4.45096e-12 306.262

453.376 -22.9749 5.7776e-13
-22.9749 480.096 -2.19084e-14
5.7776e-13 -2.19084e-14 476.198

501.421 5.73294 3.23859e-12
5.73294 441.341 -1.03909e-12
3.23859e-12 -1.03909e-12 481.035

422.405 27.2063 2.54611e-13
27.2063 389.789 1.40332e-13
2.54611e-13 1.40332e-13 374.255

570.557 12.7449 -1.03517e-12
12.7449 565.93 1.0069e-12
-1.03517e-12 1.0069e-12 542.934

396.201 24.3325 1.82373e-12
24.3325 349.667 1.90662e-12
1.82373e-12 1.90662e-12 319.062

569.18 -13.0544 3.28478e-12
-13.0544 565.842 1.4726e-12
3.28478e-12 1.4726e-12 542.39

375.112 0.778635 3.6775e-12
0.778635 438.895 3.06007e-12
3.6775e-12 3.06007e-12 374.662

461.498 -2.2355 -4.01457e-13
-2.2355 399.325 2.56202e-12
-4.01457e-13 2.56202e-12 417.305

538.217 -15.7668 -4.28842e-13
-15.7668 480.655 1.81188e-13
-4.28842e-13 1.81188e-13 513.5

457.271 24.3883 3.56625e-12
24.3883 487.812 -1.02659e-12
3.56625e-12 -1.02659e-12 488.379

461.281 -13.5353 -6.25333e-13
-13.5353 519.16 2.25775e-12
-6.25333e-13 2.25775e-12 495.738

514.995 -7.99956 -3.98644e-13
-7.99956 438.219 -7.84262e-13
-3.98644e-13 -7.84262e-13 494.302

488.337 -22.2826 -1.12887e-12
-22.2826 541.623 4.31803e-12
-1.12887e-12 4.31803e-12 515.772

556.067 -6.59792 -1.1872e-13
-6.59792 560.41 -3.17794e-12
-1.1872e-13 -3.17794e-12 538.748

463.893 -29.9084 -1.07203e-12
-29.9084 483.223 -8.41105e-13
-1.07203e-12 -8.41105e-13 483.625

341.725 11.4545 -3.70666e-13
11.4545 406.217 -1.41161e-12
-3.70666e-13 -1.41161e-12 319.501

422.506 -28.1489 -2.52598e-12
-28.1489 391.264 5.04308e-12
-2.52598e-12 5.04308e-12 375.169

507.4 -13.771 2.74321e-12
-13.771 558.767 6.87154e-13
2.74321e-12 6.87154e-13 525.272

501.084 0.504836 -2.25982e-12
0.504836 441.306 -3.76144e-12
-2.25982e-12 -3.76144e-12 487.112

476.966 -21.5241 -2.10942e-13
-21.5241 507.447 9.42357e-13
-2.10942e-13 9.42357e-13 501.529

459.124 25.6981 2.62916e-12
25.6981 484.628 3.51774e-12
2.62916e-12 3.51774e-12 488.007

394.453 -31.4671 -6.13554e-12
-31.4671 400.622 -8.96468e-13
-6.13554e-12 -8.96468e-13 357.542

552.14 -7.08334 5.63039e-12
-7.08334 585.31 -1.40125e-12
5.63039e-12 -1.40125e-12 542.621

347.229 -33.0793 1.74557e-12
-33.0793 382.629 3.20692e-12
1.74557e-12 3.20692e-12 303.452

490.897 -19.1807 -6.67851e-12
-19.1807 448.411 4.89534e-12
-6.67851e-12 4.89534e-12 467.149

519.733 1.97109 4.83776e-12
1.97109 466.839 3.70844e-12
4.83776e-12 3.70844e-12 502.855

570.575 17.8745 8.85425e-12
17.8745 566.493 9.15712e-13
8.85425e-12 9.15712e-13 542.393

375.311 20.1846 -1.31628e-12
20.1846 424.057 3.57048e-12
-1.31628e-12 3.57048e-12 360.241

489.106 27.2119 3.80614e-12
27.2119 468.564 1.47201e-12
3.80614e-12 1.47201e-12 476.663

454.405 -24.5133 1.62596e-12
-24.5133 415.365 1.69938e-12
1.62596e-12 1.69938e-12 418.626

454.743 -17.8391 -1.97211e-12
-17.8391 494.933 -2.51651e-14
-1.97211e-12 -2.51651e-14 482.666

379.22 35.0709 2.60532e-13
35.0709 366.05 8.72783e-13
2.60532e-13 8.72783e-13 317.066

449.178 -21.8313 1.73787e-12
-21.8313 491.731 9.47094e-13
1.73787e-12 9.47094e-13 479.798

485.515 30.8515 3.16251e-12
30.8515 465.159 5.12242e-12
3.16251e-12 5.12242e-12 473.469

480.348 -25.2452 -2.78237e-12
-25.2452 442.39 -9.33476e-13
-2.78237e-12 -9.33476e-13 455.466

448.243 -25.1278 5.31723e-13
-25.1278 469.794 -2.82737e-12
5.31723e-13 -2.82737e-12 458.121

445.37 -18.6896 -9.21337e-13
-18.6896 393.482 -5.48894e-13
-9.21337e-13 -5.48894e-13 397.279

470.679 -18.8509 -5.37289e-12
-18.8509 422.875 1.3148e-12
-5.37289e-12 1.3148e-12 437.555

459.024 -25.3374 -1.95059e-12
-25.3374 485.454 1.46646e-12
-1.95059e-12 1.46646e-12 488.85

386.562 35.9723 4.84353e-13
35.9723 382.008 -9.04758e-13
4.84353e-13 -9.04758e-13 348.135

444.519 15.3778 -4.19664e-13
15.3778 491.558 -1.71892e-12
-4.19664e-13 -1.71892e-12 467.163

469.42 26.4233 3.68801e-12
26.4233 479.982 -1.80567e-12
3.68801e-12 -1.80567e-12 482.569

456.167 25.4736 -4.00688e-12
25.4736 486.672 -1.5099e-13
-4.00688e-12 -1.5099e-13 487.27

457.83 11.6223 -1.71035e-12
11.6223 506.964 1.62181e-12
-1.71035e-12 1.62181e-12 486.038

431.975 -8.22764 -4.46813e-12
-8.22764 370.774 2.11831e-13
-4.46813e-12 2.11831e-13 363.326

376.798 18.608 1.06404e-12
18.608 427.289 3.21876e-12
1.06404e-12 3.21876e-12 363.902

452.336 -24.3815 1.56556e-12
-24.3815 478.41 -8.71599e-13
1.56556e-12 -8.71599e-13 470.734

440.769 25.6677 -3.86891e-12
25.6677 455.664 -1.5028e-12
-3.86891e-12 -1.5028e-12 437.827

390.975 -35.6322 2.18137e-12
-35.6322 380.296 7.09181e-12
2.18137e-12 7.09181e-12 350.109

368.959 38.3196 1.82136e-12
38.3196 327.268 -9.41469e-13
1.82136e-12 -9.41469e-13 295.697

363.664 -33.3138 -3.83338e-12
-33.3138 394.455 2.36848e-14
-3.83338e-12 2.36848e-14 341.996

397.95 -31.1621 -6.03961e-12
-31.1621 404.213 1.52767e-13
-6.03961e-12 1.52767e-13 362.991

502.881 -6.83862 2.12482e-12
-6.83862 442.273 3.84566e-12
2.12482e-12 3.84566e-12 482.34

393.183 30.3442 -2.62309e-12
30.3442 408.999 8.58572e-13
-2.62309e-12 8.58572e-13 363.451

429.723 13.2957 -2.49637e-12
13.2957 372.264 2.05702e-12
-2.49637e-12 2.05702e-12 362.731

350.159 13.3799 4.54362e-12
13.3799 418.535 4.37457e-12
4.54362e-12 4.37457e-12 348.491

379.497 -22.3422 2.41585e-13
-22.3422 423.534 -1.157e-12
2.41585e-13 -1.157e-12 363.465

491.225 -1.09215 1.26484e-12
-1.09215 550.894 1.93149e-12
1.26484e-12 1.93149e-12 516.324

372.881 2.24682 1.36454e-12
2.24682 437.809 7.81597e-14
1.36454e-12 7.81597e-14 373.538

357.906 31.0918 -1.64609e-12
31.0918 399.506 2.75691e-12
-1.64609e-12 2.75691e-12 341.977

458.013 12.1085 2.94739e-12
12.1085 510.583 1.533e-12
2.94739e-12 1.533e-12 488.424

421.473 -27.6498 9.4739e-15
-27.6498 389.09 7.41866e-12
9.4739e-15 7.41866e-12 375.09

524.775 20.557 -2.64796e-12
20.557 469.769 6.42745e-13
-2.64796e-12 6.42745e-13 500.754

534.942 26.2704 -1.7882e-12
26.2704 506.878 -1.57992e-12
-1.7882e-12 -1.57992e-12 516.112

494.839 -18.5687 7.39557e-13
-18.5687 449.046 -2.67638e-13
7.39557e-13 -2.67638e-13 470.877

554.6 -1.80265 -2.48246e-12
-1.80265 516.039 -2.79983e-12
-2.48246e-12 -2.79983e-12 525.734

473.309 -31.8127 -1.15996e-12
-31.8127 475.718 2.54197e-12
-1.15996e-12 2.54197e-12 478.599

412.618 23.3296 7.89887e-13
23.3296 357.212 3.65811e-12
7.89887e-13 3.65811e-12 348.108

464.2 30.1624 9.71963e-13
30.1624 482.792 2.6897e-12
9.71963e-13 2.6897e-12 483.227

464.463 29.2062 -1.87139e-12
29.2062 482.265 4.13329e-12
-1.87139e-12 4.13329e-12 482.788

393.965 30.6633 2.22992e-12
30.6633 405.743 -3.54087e-12
2.22992e-12 -3.54087e-12 360.886

502.876 27.0858 1.71537e-12
27.0858 482.685 2.2465e-12
1.71537e-12 2.2465e-12 490.755

415.372 3.52543 -1.64964e-12
3.52543 339.032 -6.16559e-12
-1.64964e-12 -6.16559e-12 340.841

493.144 31.8172 2.41348e-12
31.8172 487.245 1.31746e-13
2.41348e-12 1.31746e-13 495.596

476.345 -12.5994 -2.29009e-12
-12.5994 522.472 -1.62833e-13
-2.29009e-12 -1.62833e-13 500.268

536.944 24.2777 4.00302e-12
24.2777 507.419 -2.02475e-12
4.00302e-12 -2.02475e-12 516.648

468.201 -29.5791 -1.05841e-12
-29.5791 479.994 -4.34704e-12
-1.05841e-12 -4.34704e-12 483.084

464.58 -4.89763 2.4449e-12
-4.89763 521.577 -3.14356e-12
2.4449e-12 -3.14356e-12 490.999

400.96 -24.5583 2.50348e-12
-24.5583 349.039 -2.53012e-12
2.50348e-12 -2.53012e-12 323.966

418.988 29.6955 7.11727e-13
29.6955 392.483 1.80952e-12
7.11727e-13 1.80952e-12 373.788

352.36 14.6977 -1.75859e-12
14.6977 417.234 6.17106e-12
-1.75859e-12 6.17106e-12 348.257

500.554 -1.13914 -2.12778e-12
-1.13914 442.818 2.15413e-12
-2.12778e-12 2.15413e-12 487.732

492.496 0.0021867 2.92832e-12
0.0021867 438.125 4.44117e-13
2.92832e-12 4.44117e-13 474.442

452.989 23.125 -1.44003e-12
23.125 479.732 3.08908e-12
-1.44003e-12 3.08908e-12 475.609

481.327 23.8714 -1.21236e-12
23.8714 502.895 -3.72384e-12
-1.21236e-12 -3.72384e-12 501.275

456.612 -24.3809 -2.75742e-13
-24.3809 487.377 8.98689e-13
-2.75742e-13 8.98689e-13 488.521

457.857 -0.673268 -1.72543e-12
-0.673268 517.965 1.66089e-12
-1.72543e-12 1.66089e-12 486.422

458.91 25.5908 -5.12435e-12
25.5908 486.494 6.76348e-13
-5.12435e-12 6.76348e-13 488.543

465.587 -10.3087 -2.82914e-12
-10.3087 408.107 -4.17074e-12
-2.82914e-12 -4.17074e-12 427.248

400.888 -32.8363 -3.48048e-12
-32.8363 414.98 -8.50283e-13
-3.48048e-12 -8.50283e-13 385.189

518.122 -2.30161 -2.36907e-12
-2.30161 465.765 9.00021e-14
-2.36907e-12 9.00021e-14 500.952

391.896 -34.5112 4.47879e-12
-34.5112 379.629 5.36697e-12
4.47879e-12 5.36697e-12 347.439

478.027 19.086 -6.55772e-13
19.086 509.229 -1.84297e-12
-6.55772e-13 -1.84297e-12 501.872

506.14 -26.4792 -2.62368e-12
-26.4792 470.273 9.54496e-13
-2.62368e-12 9.54496e-13 487.299

425.028 -9.6911 1.40451e-12
-9.6911 366.753 4.27806e-14
1.40451e-12 4.27806e-14 356.003

530.29 -23.1926 -5.96027e-12
-23.1926 488.782 1.64668e-12
-5.96027e-12 1.64668e-12 506.514

500.923 2.35838 6.94852e-13
2.35838 444.607 -5.58731e-12
6.94852e-13 -5.58731e-12 489.234

521.217 -23.3224 -3.97253e-12
-23.3224 501.867 -1.30695e-12
-3.97253e-12 -1.30695e-12 508.559

502.045 -25.86 -1.56615e-12
-25.86 461.519 -2.98043e-12
-1.56615e-12 -2.98043e-12 481.271

498.857 -8.54682 7.14391e-13
-8.54682 445.164 2.67534e-12
7.14391e-13 2.67534e-12 479.373

482.249 -23.0685 2.94875e-12
-23.0685 505.02 9.91614e-14
2.94875e-12 9.91614e-14 502.562

428.568 -31.3444 5.72816e-12
-31.3444 410.614 -2.45256e-12
5.72816e-12 -2.45256e-12 399.023

503.296 -24.5886 -2.4265e-12
-24.5886 464.741 -1.34766e-12
-2.4265e-12 -1.34766e-12 482.187

441.27 10.8654 2.1565e-12
10.8654 378.504 1.12029e-12
2.1565e-12 1.12029e-12 387.823

500.065 26.3411 2.449e-12
26.3411 498.61 -4.29138e-13
2.449e-12 -4.29138e-13 500.131

463.78 -37.6116 2.56032e-12
-37.6116 488.419 3.02343e-12
2.56032e-12 3.02343e-12 494.111

464.889 37.264 3.74278e-12
37.264 487.331 3.34991e-13
3.74278e-12 3.34991e-13 493.826

446.359 -28.5726 -7.58282e-13
-28.5726 500.044 -2.79835e-12
-7.58282e-13 -2.79835e-12 492.341

448.593 27.0635 -1.31643e-12
27.0635 500.736 -3.193e-12
-1.31643e-12 -3.193e-12 492.528

513.1 -8.52716 -5.0034e-14
-8.52716 436.437 -1.06848e-12
-5.0034e-14 -1.06848e-12 492.789

511.262 9.27313 3.07902e-13
9.27313 438.034 4.84857e-12
3.07902e-13 4.84857e-12 492.426

501.686 -9.84683 3.05741e-12
-9.84683 451.77 -3.02662e-12
3.05741e-12 -3.02662e-12 483.049

510.89 32.1146 4.67182e-13
32.1146 510.417 -3.08659e-12
4.67182e-13 -3.08659e-12 514.081

509.666 -32.8525 -1.04716e-12
-32.8525 510.094 -1.87608e-12
-1.04716e-12 -1.87608e-12 513.72

481.837 16.0681 -2.74418e-12
16.0681 539.156 -5.59256e-13
-2.74418e-12 -5.59256e-13 514.353

483.031 -15.8007 -1.6193e-12
-15.8007 538.745 1.33819e-12
-1.6193e-12 1.33819e-12 514.374

556.891 -3.74893 3.30106e-12
-3.74893 506.856 9.17192e-13
3.30106e-12 9.17192e-13 525.016

558.445 3.61165 -3.31986e-12
3.61165 505.18 -9.38213e-13
-3.31986e-12 -9.38213e-13 525.388

387.332 9.83771 3.56056e-12
9.83771 449.226 -5.83592e-12
3.56056e-12 -5.83592e-12 397.111

472.416 -24.7753 -4.92939e-13
-24.7753 480.783 9.86914e-13
-4.92939e-13 9.86914e-13 485.004

443.493 -36.3866 -3.31106e-12
-36.3866 485.563 2.16612e-12
-3.31106e-12 2.16612e-12 486.656

473.672 -4.66454 -1.63306e-12
-4.66454 420.462 9.87506e-13
-1.63306e-12 9.87506e-13 436.365

540.279 -16.6934 1.51286e-12
-16.6934 484.219 5.65474e-13
1.51286e-12 5.65474e-13 515.314

540.998 16.1744 -2.49904e-12
16.1744 485.442 -4.42787e-12
-2.49904e-12 -4.42787e-12 515.919

506.891 0.121868 -2.64055e-12
0.121868 423.583 3.98127e-13
-2.64055e-12 3.98127e-13 487.03

384.815 23.3774 -2.69148e-12
23.3774 432.324 2.6823e-12
-2.69148e-12 2.6823e-12 385.5

442.364 36.1706 4.86951e-12
36.1706 485.241 1.81632e-13
4.86951e-12 1.81632e-13 485.862

452.626 -23.3961 6.70427e-13
-23.3961 494.982 8.65678e-13
6.70427e-13 8.65678e-13 483.618

443.276 23.3548 3.58824e-13
23.3548 397.542 1.14575e-12
3.58824e-13 1.14575e-12 400.397

530.993 23.8587 -5.99284e-12
23.8587 488.032 1.0821e-12
-5.99284e-12 1.0821e-12 507.273

428.506 -31.3163 3.53613e-12
-31.3163 410.899 7.18832e-12
3.53613e-12 7.18832e-12 398.842

519.886 -3.23175 -4.42609e-13
-3.23175 469.085 2.57009e-12
-4.42609e-13 2.57009e-12 502.712

439.427 -34.1602 -8.27042e-13
-34.1602 485.534 4.20878e-12
-8.27042e-13 4.20878e-12 485.851

389.207 8.32065 1.04744e-12
8.32065 452.356 1.57504e-12
1.04744e-12 1.57504e-12 400.879

385.902 21.8136 2.68911e-12
21.8136 435.8 -1.06108e-12
2.68911e-12 -1.06108e-12 388.718

383.87 35.7789 1.86517e-12
35.7789 362.352 -7.87518e-13
1.86517e-12 -7.87518e-13 318.347

408.208 1.57891 9.65154e-13
1.57891 332.174 -1.50487e-12
9.65154e-13 -1.50487e-12 327.344

485.482 -22.805 -9.25186e-13
-22.805 502.884 -9.56383e-13
-9.25186e-13 -9.56383e-13 501.774

351.898 31.1865 -1.23753e-12
31.1865 388.854 5.38591e-12
-1.23753e-12 5.38591e-12 312.376

451.377 23.6112 -6.39488e-14
23.6112 478.442 3.97726e-12
-6.39488e-14 3.97726e-12 465.239

442.224 -5.35001 -1.04687e-12
-5.35001 377.148 1.95636e-12
-1.04687e-12 1.95636e-12 387.761

464.184 11.217 4.15135e-12
11.217 407.323 -1.82106e-12
4.15135e-12 -1.82106e-12 424.947

505.407 0.429886 -4.09761e-12
0.429886 421.603 -3.37115e-13
-4.09761e-12 -3.37115e-13 485.702

449.379 -29.0303 -6.93667e-13
-29.0303 502.024 4.67478e-13
-6.93667e-13 4.67478e-13 493.615

572.521 -6.31818 2.90745e-12
-6.31818 589.497 -5.00933e-12
2.90745e-12 -5.00933e-12 549.27

463.168 37.4103 -5.92119e-12
37.4103 487.054 4.27106e-12
-5.92119e-12 4.27106e-12 493.09

408.762 1.6634 -7.36596e-13
1.6634 331.621 -1.54077e-12
-7.36596e-13 -1.54077e-12 308.922

404.258 -32.7899 -3.83752e-12
-32.7899 415.534 -8.84034e-12
-3.83752e-12 -8.84034e-12 387.413

443.17 36.612 -2.89198e-12
36.612 485.534 -2.46321e-12
-2.89198e-12 -2.46321e-12 486.599

444.703 -11.1342 -1.88026e-12
-11.1342 498.963 -3.06422e-12
-1.88026e-12 -3.06422e-12 471.467

386.096 -25.5169 -1.76629e-12
-25.5169 428.927 4.55103e-12
-1.76629e-12 4.55103e-12 384.587

449.479 28.8293 2.84854e-12
28.8293 501.658 -1.94304e-12
2.84854e-12 -1.94304e-12 493.314

452.738 -26.144 2.29268e-12
-26.144 419.327 -1.42109e-14
2.29268e-12 -1.42109e-14 419.542

579.565 10.4839 -7.90479e-13
10.4839 582.174 -3.77054e-12
-7.90479e-13 -3.77054e-12 549.055

398.352 30.8748 -1.61945e-12
30.8748 422.084 4.68603e-12
-1.61945e-12 4.68603e-12 388.186

515.733 8.12626 4.35059e-12
8.12626 437.297 1.72307e-12
4.35059e-12 1.72307e-12 494.607

493.83 30.191 1.38141e-12
30.191 484.774 -1.45217e-12
1.38141e-12 -1.45217e-12 493.827

453.492 23.333 -5.05684e-12
23.333 479.191 2.01113e-12
-5.05684e-12 2.01113e-12 475.825

510.724 -32.4872 6.14619e-13
-32.4872 512.476 -7.82541e-13
6.14619e-13 -7.82541e-13 515.029

510.333 -23.1915 -9.81141e-13
-23.1915 473.205 -7.40741e-13
-9.81141e-13 -7.40741e-13 489.701

511.42 10.4695 -3.12528e-13
10.4695 558.011 2.80664e-13
-3.12528e-13 2.80664e-13 523.753

452.199 -23.4349 -1.34825e-12
-23.4349 480.194 1.71714e-12
-1.34825e-12 1.71714e-12 468.976

394.433 -9.70872 3.64272e-12
-9.70872 316.43 -3.50956e-12
3.64272e-12 -3.50956e-12 295.593

387.313 -14.2783 -1.69346e-12
-14.2783 306.075 -1.61471e-12
-1.69346e-12 -1.61471e-12 290.067

547.603 16.5306 -2.62664e-12
16.5306 507.784 6.98434e-12
-2.62664e-12 6.98434e-12 519.341

436.513 22.5034 -1.11466e-12
22.5034 469.164 3.87423e-12
-1.11466e-12 3.87423e-12 447.849

475.989 29.1647 4.36984e-13
29.1647 467.67 1.7352e-12
4.36984e-13 1.7352e-12 471.504

450.329 0.688712 7.73307e-13
0.688712 392.799 -2.90407e-12
7.73307e-13 -2.90407e-12 395.698

478.372 6.57059 3.79951e-12
6.57059 541.3 -4.88498e-13
3.79951e-12 -4.88498e-13 507.562

507.358 16.5407 -3.15777e-12
16.5407 461.161 1.0516e-12
-3.15777e-12 1.0516e-12 488.105

389.999 -25.7634 -1.11555e-12
-25.7634 430.062 8.65678e-13
-1.11555e-12 8.65678e-13 387.757

456.342 -2.57198 2.58669e-12
-2.57198 517.04 3.87956e-12
2.58669e-12 3.87956e-12 484.864

400.613 13.3665 8.00249e-13
13.3665 453.013 -6.26107e-12
8.00249e-13 -6.26107e-12 404.66

486.939 -29.7146 4.11463e-12
-29.7146 465.838 -2.82796e-12
4.11463e-12 -2.82796e-12 474.283

430.324 -29.95 -1.29023e-12
-29.95 423.654 -1.54365e-12
-1.29023e-12 -1.54365e-12 404.978

399.734 31.6257 -5.50671e-14
31.6257 418.257 4.93235e-13
-5.50671e-14 4.93235e-13 386.025

624.006 -15.0194 -9.49759e-13
-15.0194 581.958 4.0931e-12
-9.49759e-13 4.0931e-12 557.92

494.543 2.04185 3.83767e-13
2.04185 552.163 1.54898e-12
3.83767e-13 1.54898e-12 517.946

483.525 20.2989 4.38923e-12
20.2989 542.062 -2.53782e-12
4.38923e-12 -2.53782e-12 516.053

544.726 15.438 1.00394e-12
15.438 479.994 -4.35178e-12
1.00394e-12 -4.35178e-12 515.775

473.774 -26.1899 -9.7374e-13
-26.1899 479.782 2.30808e-12
-9.7374e-13 2.30808e-12 483.042

452.153 17.9586 2.41466e-12
17.9586 404.531 -1.55224e-12
2.41466e-12 -1.55224e-12 406.941

531.595 -5.2931 4.39535e-12
-5.2931 580.815 -2.46351e-12
4.39535e-12 -2.46351e-12 537.136

512.213 -18.9879 1.33493e-12
-18.9879 464.818 -6.8597e-13
1.33493e-12 -6.8597e-13 493.052

474.004 -15.5998 6.03961e-14
-15.5998 423.2 3.84078e-12
6.03961e-14 3.84078e-12 438.905

402.023 11.6043 -2.96592e-12
11.6043 455.985 -1.73254e-12
-2.96592e-12 -1.73254e-12 407.803

410.947 -25.7365 1.7503e-12
-25.7365 435.607 2.70006e-12
1.7503e-12 2.70006e-12 398.979

532.069 -25.2739 -4.2452e-12
-25.2739 523.211 2.19306e-12
-4.2452e-12 2.19306e-12 519.139

423.081 31.9622 4.28931e-12
31.9622 417.273 -5.81461e-13
4.28931e-12 -5.81461e-13 400.328

535.503 -25.1342 1.75238e-12
-25.1342 505.808 1.91906e-12
1.75238e-12 1.91906e-12 515.681

453.522 2.59756 2.81138e-12
2.59756 397.042 1.56408e-12
2.81138e-12 1.56408e-12 401.921

311.116 -28.9329 2.35782e-12
-28.9329 376.619 7.34228e-13
2.35782e-12 7.34228e-13 290.012

431.901 -29.2334 -2.04281e-13
-29.2334 424.073 -2.49519e-12
-2.04281e-13 -2.49519e-12 406.178

353.781 32.1616 -4.02641e-14
32.1616 392.567 -7.15043e-12
-4.02641e-14 -7.15043e-12 312.987

470.368 -11.8764 -5.18104e-16
-11.8764 529.575 -4.39293e-12
-5.18104e-16 -4.39293e-12 500.326

391.473 -13.8225 6.83749e-13
-13.8225 449.28 -2.13163e-14
6.83749e-13 -2.13163e-14 400.222

602.863 -23.9859 -3.00944e-13
-23.9859 602.274 -3.57966e-12
-3.00944e-13 -3.57966e-12 557.86

408.395 23.7729 -2.09136e-12
23.7729 441.967 -9.4739e-15
-2.09136e-12 -9.4739e-15 402.246

496.601 -32.7264 2.20091e-12
-32.7264 490.664 1.70649e-12
2.20091e-12 1.70649e-12 497.47

388.212 -11.9641 1.82062e-12
-11.9641 448.312 8.56204e-13
1.82062e-12 8.56204e-13 397.039

516.736 -19.1167 1.48385e-12
-19.1167 465.778 1.56171e-12
1.48385e-12 1.56171e-12 496.268

410.711 23.8792 2.16183e-12
23.8792 439.339 2.7877e-12
2.16183e-12 2.7877e-12 400.722

488.949 -4.97567 -3.0275e-12
-4.97567 435.096 2.19391e-12
-3.0275e-12 2.19391e-12 460.409

305.798 -30.3446 -4.34615e-12
-30.3446 391.46 1.08713e-12
-4.34615e-12 1.08713e-12 262.585

438.636 21.0153 -8.58276e-13
21.0153 473.941 1.33286e-12
-8.58276e-13 1.33286e-12 458.375

445.716 -19.3249 8.83441e-13
-19.3249 394.001 -3.30935e-12
8.83441e-13 -3.30935e-12 399.648

551.623 -21.4457 3.25843e-12
-21.4457 499.539 -2.8176e-12
3.25843e-12 -2.8176e-12 520.126

424.497 31.7567 1.89004e-12
31.7567 413.349 -3.77357e-12
1.89004e-12 -3.77357e-12 397.984

459.191 -29.9737 -8.88178e-13
-29.9737 437.665 4.49329e-12
-8.88178e-13 4.49329e-12 439.326

510.647 20.8858 -4.09036e-12
20.8858 476.098 -1.05545e-12
-4.09036e-12 -1.05545e-12 492.782

461.534 -28.0762 -4.56642e-12
-28.0762 485.771 1.16781e-12
-4.56642e-12 1.16781e-12 488.746

413.747 -26.2275 -1.99544e-13
-26.2275 436.274 -1.82373e-12
-1.99544e-13 -1.82373e-12 401.465

426.103 28.9835 -1.15345e-12
28.9835 429.926 5.21302e-12
-1.15345e-12 5.21302e-12 406.888

452.531 26.1933 -1.65675e-12
26.1933 418.255 -1.12266e-12
-1.65675e-12 -1.12266e-12 419.086

521.997 -14.6111 9.99201e-13
-14.6111 477.204 2.59999e-12
9.99201e-13 2.59999e-12 500.091

403.588 -16.6191 6.11067e-13
-16.6191 451.774 1.35358e-12
6.11067e-13 1.35358e-12 406.47

496.077 -17.5687 1.02437e-12
-17.5687 447.635 -2.90952e-12
1.02437e-12 -2.90952e-12 471.53

487.796 16.9095 5.34683e-13
16.9095 436.287 -2.08722e-13
5.34683e-13 -2.08722e-13 460.617

513.364 -9.38562 -1.51582e-12
-9.38562 555.801 7.58504e-13
-1.51582e-12 7.58504e-13 523.053

454.01 -13.431 5.35868e-12
-13.431 402.205 -3.94174e-12
5.35868e-12 -3.94174e-12 406.771

403.229 0.594208 -3.89511e-12
0.594208 465.757 1.23516e-12
-3.89511e-12 1.23516e-12 417.833

475.058 18.556 1.32161e-12
18.556 428.8 -2.71398e-12
1.32161e-12 -2.71398e-12 442.25

451.174 27.606 -4.72748e-12
27.606 421.867 -2.4869e-14
-4.72748e-12 -2.4869e-14 420.872

400.896 -15.6875 5.23729e-13
-15.6875 451.414 -2.55795e-12
5.23729e-13 -2.55795e-12 403.764

406.028 -1.20227 3.46478e-12
-1.20227 468.067 -2.67282e-12
3.46478e-12 -2.67282e-12 421.248

516.226 29.1346 2.36255e-13
29.1346 498.051 5.05877e-12
2.36255e-13 5.05877e-12 504.902

441.734 -10.9228 1.3977e-12
-10.9228 500.689 6.53699e-13
1.3977e-12 6.53699e-13 471.178

451.471 -26.7174 4.15431e-12
-26.7174 418.795 3.80377e-12
4.15431e-12 3.80377e-12 419.381

444.418 21.3344 1.77754e-12
21.3344 395.325 -9.01205e-13
1.77754e-12 -9.01205e-13 398.228

497.626 23.666 -2.2015e-12
23.666 458.119 -3.1101e-12
-2.2015e-12 -3.1101e-12 476.579

447.711 5.47143 -2.77482e-13
5.47143 508.821 2.20327e-12
-2.77482e-13 2.20327e-12 476.911

427.679 29.068 -4.8832e-12
29.068 426.464 2.13163e-13
-4.8832e-12 2.13163e-13 405.138

536.846 22.964 -3.57699e-12
22.964 531.919 4.62238e-12
-3.57699e-12 4.62238e-12 522.809

314.77 -59.6957 7.57912e-14
-59.6957 282.786 -3.64153e-12
7.57912e-14 -3.64153e-12 223.438

480.625 -25.0494 1.35891e-12
-25.0494 445.101 5.24381e-12
1.35891e-12 5.24381e-12 456.675

336.686 7.07046 -4.04269e-12
7.07046 409.184 1.05871e-12
-4.04269e-12 1.05871e-12 319.462

460.569 -28.8913 -2.98842e-12
-28.8913 444.767 -1.578e-12
-2.98842e-12 -1.578e-12 443.482

96.4291 -52.7037 -1.42109e-14
-52.7037 306.634 -1.98952e-12
-1.42109e-14 -1.98952e-12 113.707

95.963 51.4543 -1.78346e-12
51.4543 306.899 -4.61853e-12
-1.78346e-12 -4.61853e-12 114.495

181.527 117.16 -3.95535e-12
117.16 226.088 -6.31909e-12
-3.95535e-12 -6.31909e-12 113.595

182.824 -117.103 9.42653e-13
-117.103 223.324 -4.358e-13
9.42653e-13 -4.358e-13 113.569

321.6 -1.36346 3.27323e-12
-1.36346 84.6581 4.25505e-14
3.27323e-12 4.25505e-14 114.936

274.448 -91.1303 -1.80004e-12
-91.1303 127.425 9.90023e-13
-1.80004e-12 9.90023e-13 113.809

275.144 91.6582 -1.25056e-12
91.6582 128.258 -2.66927e-12
-1.25056e-12 -2.66927e-12 114.58

525.268 14.3312 2.51266e-12
14.3312 474.74 7.12911e-13
2.51266e-12 7.12911e-13 502.342

556.818 25.5357 -4.15401e-12
25.5357 541.203 -2.58756e-13
-4.15401e-12 -2.58756e-13 533.473

492.125 6.60653 2.08959e-12
6.60653 439.15 2.66772e-12
2.08959e-12 2.66772e-12 471.432

470.332 21.7862 2.16893e-12
21.7862 424.545 -7.98176e-13
2.16893e-12 -7.98176e-13 438.224

410.003 17.7459 3.6963e-13
17.7459 461.105 -4.44859e-12
3.6963e-13 -4.44859e-12 425.072

448.042 28.9008 6.65542e-13
28.9008 424.735 -7.81005e-13
6.65542e-13 -7.81005e-13 420.779

487.179 -29.6648 6.90411e-13
-29.6648 465.657 -8.26598e-13
6.90411e-13 -8.26598e-13 474.619

449.399 28.0301 2.90138e-14
28.0301 421.1 -2.43953e-12
2.90138e-14 -2.43953e-12 418.67

402.991 -2.84164 4.94863e-13
-2.84164 465.414 9.54496e-13
4.94863e-13 9.54496e-13 417.569

555.824 -26.0966 1.88679e-12
-26.0966 543.396 -1.30947e-12
1.88679e-12 -1.30947e-12 533.717

405.529 -4.86296 1.53152e-12
-4.86296 467.152 -8.65678e-13
1.53152e-12 -8.65678e-13 420.628

522.319 23.0172 3.94055e-12
23.0172 499.769 -3.5835e-12
3.94055e-12 -3.5835e-12 507.997

423.408 26.8731 9.03573e-13
26.8731 386.534 3.33422e-12
9.03573e-13 3.33422e-12 373.053

480.139 -13.2163 6.35166e-12
-13.2163 532.795 2.74743e-13
6.35166e-12 2.74743e-13 512.029

484.23 13.7288 -5.99224e-13
13.7288 432.805 -1.61678e-12
-5.99224e-13 -1.61678e-12 456.905

457.4 -29.9897 4.63037e-13
-29.9897 437.006 5.68493e-12
4.63037e-13 5.68493e-12 437.862

454.34 -24.7153 2.67875e-12
-24.7153 416.833 -1.03354e-12
2.67875e-12 -1.03354e-12 419.882

547.428 -16.0758 -1.11614e-12
-16.0758 509.33 8.98837e-13
-1.11614e-12 8.98837e-13 519.41

476.004 27.9305 -5.0111e-12
27.9305 449.735 -2.65713e-12
-5.0111e-12 -2.65713e-12 456.955

469.133 23.9792 -1.03502e-12
23.9792 427.878 1.09838e-12
-1.03502e-12 1.09838e-12 439.859

432.457 -2.79283 -2.40149e-12
-2.79283 493.669 2.26367e-12
-2.40149e-12 2.26367e-12 457.136

417.635 5.87363 1.59402e-13
5.87363 479.59 -3.13349e-12
1.59402e-13 -3.13349e-12 440.206

463.044 2.64692 -3.33363e-13
2.64692 402.307 1.0509e-12
-3.33363e-13 1.0509e-12 422.35

438.679 -7.29033 -4.04536e-12
-7.29033 373.94 -8.7644e-12
-4.04536e-12 -8.7644e-12 381.245

454.875 30.4869 2.44841e-12
30.4869 439.045 -3.27797e-12
2.44841e-12 -3.27797e-12 437.866

478.497 -26.1572 -3.49942e-13
-26.1572 443.573 3.83131e-12
-3.49942e-13 3.83131e-12 454.676

525.728 -21.2546 -9.46798e-13
-21.2546 497.855 -1.75415e-12
-9.46798e-13 -1.75415e-12 508.646

437.763 -31.6362 1.03088e-12
-31.6362 437.685 -1.77813e-12
1.03088e-12 -1.77813e-12 426.888

417.619 -27.788 8.26598e-13
-27.788 444.427 9.78181e-13
8.26598e-13 9.78181e-13 419.717

430.677 29.8897 1.83557e-13
29.8897 442.775 8.91731e-13
1.83557e-13 8.91731e-13 426.526

416.254 -9.5786 -2.66324e-12
-9.5786 475.244 1.87702e-12
-2.66324e-12 1.87702e-12 436.484

428.924 -1.5452 -9.04758e-13
-1.5452 491.901 -1.61648e-12
-9.04758e-13 -1.61648e-12 454.024

445.21 5.74778 -1.03034e-12
5.74778 508.075 1.94629e-12
-1.03034e-12 1.94629e-12 474.944

414.647 -21.0909 -1.61856e-12
-21.0909 458.44 3.15955e-12
-1.61856e-12 3.15955e-12 426.094

496.899 24.1126 2.03689e-13
24.1126 455.725 -3.08553e-12
2.03689e-13 -3.08553e-12 474.622

483.406 -9.59041 -4.61438e-12
-9.59041 430.141 -4.18036e-13
-4.61438e-12 -4.18036e-13 455.251

415.661 7.46573 2.61656e-12
7.46573 477.154 3.89792e-12
2.61656e-12 3.89792e-12 436.942

443.983 -9.70133 -3.58462e-12
-9.70133 501.536 -6.96332e-13
-3.58462e-12 -6.96332e-13 471.037

433.203 -16.3318 -1.79501e-12
-16.3318 481.709 -2.55559e-12
-1.79501e-12 -2.55559e-12 455.698

463.573 -8.23985 5.51381e-12
-8.23985 406.363 -3.79311e-12
5.51381e-12 -3.79311e-12 421.5

494.463 -32.3468 -2.25242e-12
-32.3468 487.646 2.79599e-12
-2.25242e-12 2.79599e-12 496.28

422.973 9.32183 -2.04281e-14
9.32183 479.124 2.94875e-12
-2.04281e-14 2.94875e-12 441.009

564.378 -18.213 7.07789e-12
-18.213 529.973 -5.9656e-13
7.07789e-12 -5.9656e-13 531.855

309.068 24.8249 -2.77704e-12
24.8249 379.449 -4.22062e-12
-2.77704e-12 -4.22062e-12 289.818

501.727 -26.627 -4.23069e-12
-26.627 499.517 4.40492e-12
-4.23069e-12 4.40492e-12 501.228

515.677 -30.203 -3.96897e-12
-30.203 498.43 -8.15052e-13
-3.96897e-12 -8.15052e-13 504.946

429.251 -0.701028 1.68821e-12
-0.701028 492.026 -1.21148e-12
1.68821e-12 -1.21148e-12 454.175

474.915 -16.6236 -1.3749e-12
-16.6236 428.367 -6.06596e-12
-1.3749e-12 -6.06596e-12 441.986

462.334 12.8419 -6.9698e-13
12.8419 511.306 2.31578e-12
-6.9698e-13 2.31578e-12 489.151

240.79 -3.18104 2.94875e-13
-3.18104 360.711 8.12387e-13
2.94875e-13 8.12387e-13 226.981

432.433 14.2746 -5.69315e-12
14.2746 485.389 -7.14095e-13
-5.69315e-12 -7.14095e-13 456.913

458.143 -29.4915 -4.21529e-12
-29.4915 443.201 -2.32525e-12
-4.21529e-12 -2.32525e-12 440.792

304.206 25.1074 -1.86162e-12
25.1074 394.61 -1.70293e-12
-1.86162e-12 -1.70293e-12 264.359

603.562 26.0957 -5.53291e-12
26.0957 597.967 8.30654e-12
-5.53291e-12 8.30654e-12 558.177

608.296 -27.8048 6.2057e-12
-27.8048 595.042 -8.27042e-13
6.2057e-12 -8.27042e-13 558.311

463.525 -30.421 -1.51405e-12
-30.421 459.069 -8.19404e-12
-1.51405e-12 -8.19404e-12 459.103

434.615 -31.1628 4.73695e-14
-31.1628 436.391 -1.29911e-12
4.73695e-14 -1.29911e-12 424.692

474.134 20.8288 2.77289e-12
20.8288 431.945 8.92323e-13
2.77289e-12 8.92323e-13 444.003

465.256 15.0073 -1.17536e-12
15.0073 410.145 -3.30402e-12
-1.17536e-12 -3.30402e-12 427.493

646.074 3.08206 -3.91664e-12
3.08206 645.732 1.6569e-11
-3.91664e-12 1.6569e-11 574.637

649.894 -6.99794 9.62386e-12
-6.99794 641.402 -3.81665e-12
9.62386e-12 -3.81665e-12 575.165

497.022 4.82422 4.64221e-12
4.82422 442.066 4.34808e-12
4.64221e-12 4.34808e-12 477.444

443.587 6.73173 1.18838e-12
6.73173 503.022 -3.45916e-12
1.18838e-12 -3.45916e-12 471.081

442.001 6.7364 2.48437e-12
6.7364 502.547 -8.43769e-13
2.48437e-12 -8.43769e-13 469.803

321.556 58.6388 -7.1149e-12
58.6388 281.14 4.39589e-12
-7.1149e-12 4.39589e-12 225.092

420.258 -28.2023 1.15108e-12
-28.2023 444.055 6.59324e-12
1.15108e-12 6.59324e-12 421.062

520.608 17.9742 3.83397e-12
17.9742 467.56 2.04222e-12
3.83397e-12 2.04222e-12 499.539

473.014 9.54033 -3.98022e-12
9.54033 421.227 1.18424e-13
-3.98022e-12 1.18424e-13 436.233

440.661 -26.7255 -2.55203e-13
-26.7255 450.759 -7.31859e-13
-2.55203e-13 -7.31859e-13 433.446

469.31 -20.2393 2.93099e-13
-20.2393 422.746 -6.4689e-13
2.93099e-13 -6.4689e-13 437.206

312.493 60.2367 3.43666e-12
60.2367 281.389 -6.14264e-12
3.43666e-12 -6.14264e-12 223.23

492.711 31.0697 5.08926e-13
31.0697 489.071 -4.62208e-12
5.08926e-13 -4.62208e-12 493.167

410.892 -19.7879 -1.7509e-12
-19.7879 457.915 4.44089e-13
-1.7509e-12 4.44089e-13 423.528

474.16 28.8596 6.24685e-13
28.8596 449.662 -3.29633e-12
6.24685e-13 -3.29633e-12 456.549

430.986 -4.14539 -1.4649e-12
-4.14539 493.006 -1.03266e-12
-1.4649e-12 -1.03266e-12 456.498

423.96 19.6109 -5.16594e-12
19.6109 465.745 2.0138e-12
-5.16594e-12 2.0138e-12 434.138

452.779 30.5212 -2.03511e-12
30.5212 443.629 -1.31391e-12
-2.03511e-12 -1.31391e-12 439.639

428.674 -22.4752 -2.88362e-12
-22.4752 461.17 2.62427e-12
-2.88362e-12 2.62427e-12 433.843

443.606 -27.3548 3.20988e-12
-27.3548 450.465 3.24067e-12
3.20988e-12 3.24067e-12 435.076

294.797 11.2579 -2.88628e-12
11.2579 372.611 2.6148e-12
-2.88628e-12 2.6148e-12 258.12

357.323 -33.4592 -3.39166e-12
-33.4592 389.145 -2.71901e-12
-3.39166e-12 -2.71901e-12 314.151

419.687 -11.6914 -3.28152e-12
-11.6914 476.395 1.99603e-12
-3.28152e-12 1.99603e-12 439.375

478.429 26.4864 -4.87906e-13
26.4864 446.829 -3.21106e-12
-4.87906e-13 -3.21106e-12 456.114

452.377 29.4801 -1.99248e-12
29.4801 449.058 -2.75927e-12
-1.99248e-12 -2.75927e-12 442.43

426.839 -21.4358 6.77976e-14
-21.4358 461.817 -3.52725e-12
6.77976e-14 -3.52725e-12 432.661

422.961 -11.7835 -7.75676e-14
-11.7835 476.681 2.69177e-12
-7.75676e-14 2.69177e-12 439.959

457.738 28.4117 -2.66454e-12
28.4117 447.119 2.33058e-12
-2.66454e-12 2.33058e-12 442.601

425.135 -13.879 -1.22273e-13
-13.879 476.453 2.93158e-12
-1.22273e-13 2.93158e-12 442.136

311.285 27.8576 -1.69701e-12
27.8576 377.417 1.00423e-12
-1.69701e-12 1.00423e-12 290.005

485.196 -4.04067 -3.24679e-12
-4.04067 545.076 4.85538e-13
-3.24679e-12 4.85538e-13 511.064

433.016 31.0302 -4.82399e-12
31.0302 439.66 1.98419e-12
-4.82399e-12 1.98419e-12 426.049

509.341 14.9022 -2.51295e-12
14.9022 463.191 -2.46233e-12
-2.51295e-12 -2.46233e-12 488.635

516.95 -15.9285 -3.93167e-13
-15.9285 467.611 -2.97717e-12
-3.93167e-13 -2.97717e-12 493.953

383.952 -24.2067 2.71664e-12
-24.2067 305.968 -1.34766e-12
2.71664e-12 -1.34766e-12 285.374

442.31 -21.2686 9.4739e-13
-21.2686 476.033 -1.06937e-12
9.4739e-13 -1.06937e-12 459.352

447.859 26.7 -4.16289e-12
26.7 466.24 9.91207e-13
-4.16289e-12 9.91207e-13 457.872

523 -21.7276 -5.54519e-13
-21.7276 543.833 -3.38692e-13
-5.54519e-13 -3.38692e-13 525.335

579.597 14.1046 4.13447e-13
14.1046 617.631 -1.60139e-12
4.13447e-13 -1.60139e-12 557.072

620.217 9.44524 1.08269e-12
9.44524 576.855 -1.67214e-12
1.08269e-12 -1.67214e-12 556.891

523.496 32.7046 1.88087e-12
32.7046 520.675 -1.02303e-12
1.88087e-12 -1.02303e-12 519.551

414.92 26.0028 -7.31267e-13
26.0028 448.938 -4.35148e-12
-7.31267e-13 -4.35148e-12 420.406

478.128 26.663 1.89774e-12
26.663 444.799 -1.56171e-12
1.89774e-12 -1.56171e-12 455.537

332.385 45.19 1.47911e-12
45.19 349.513 6.30844e-12
1.47911e-12 6.30844e-12 286.76

571.405 -11.342 -4.8536e-12
-11.342 614.483 3.00589e-12
-4.8536e-12 3.00589e-12 554.615

641.331 -3.432 -8.15479e-12
-3.432 636.876 6.97028e-12
-8.15479e-12 6.97028e-12 572.413

634.911 -0.209224 -9.57752e-13
-0.209224 643.181 1.01652e-11
-9.57752e-13 1.01652e-11 572.24

272.98 -53.8065 -3.55271e-12
-53.8065 316.467 -8.88178e-13
-3.55271e-12 -8.88178e-13 220.924

566.659 -11.5992 -3.45072e-12
-11.5992 562.143 9.04758e-13
-3.45072e-12 9.04758e-13 540.921

563.787 8.81191 8.60941e-13
8.81191 586.979 -5.86553e-12
8.60941e-13 -5.86553e-12 546.862

478.276 -26.2009 3.30402e-13
-26.2009 440.471 3.37241e-12
3.30402e-13 3.37241e-12 453.511

494.374 1.01036 3.58528e-13
1.01036 545.785 -6.16988e-13
3.58528e-13 -6.16988e-13 514.083

447.682 -20.2691 -5.46526e-13
-20.2691 484.191 -2.60414e-12
-5.46526e-13 -2.60414e-12 470.668

506.333 6.25549 -3.38574e-12
6.25549 443.406 -2.66424e-12
-3.38574e-12 -2.66424e-12 486.156

461.304 15.5962 -2.20226e-12
15.5962 521.282 2.46529e-12
-2.20226e-12 2.46529e-12 497.585

471.208 7.19122 5.28522e-13
7.19122 528.035 -3.62377e-12
5.28522e-13 -3.62377e-12 497.718

493.794 20.3942 -3.94943e-13
20.3942 451.547 -3.24244e-12
-3.94943e-13 -3.24244e-12 469.78

241.08 -3.11391 -9.32809e-13
-3.11391 358.583 5.53039e-12
-9.32809e-13 5.53039e-12 227.079

463.732 -27.6256 4.20049e-12
-27.6256 463.423 -6.43633e-13
4.20049e-12 -6.43633e-13 461.221

488.375 -26.1178 1.47319e-12
-26.1178 481.628 1.16943e-13
1.47319e-12 1.16943e-13 485.898

497.567 -31.4837 -4.11523e-13
-31.4837 489.988 8.75004e-13
-4.11523e-13 8.75004e-13 499.01

355.623 32.7522 4.74406e-12
32.7522 285.796 -4.35533e-12
4.74406e-12 -4.35533e-12 248.383

563.9 -20.1158 8.57329e-12
-20.1158 569.63 1.8087e-12
8.57329e-12 1.8087e-12 542.593

337.669 54.326 -7.96045e-12
54.326 356.68 -3.5835e-12
-7.96045e-12 -3.5835e-12 258.892

477.101 -21.439 -2.59126e-12
-21.439 506.52 -3.5314e-12
-2.59126e-12 -3.5314e-12 500.273

504.805 14.6506 -2.02682e-12
14.6506 452.017 -3.982e-12
-2.02682e-12 -3.982e-12 481.59

449.863 -14.5737 -7.88702e-13
-14.5737 397.014 -4.30767e-14
-7.88702e-13 -4.30767e-14 400.868

452.625 24.0479 -5.84451e-12
24.0479 478.813 2.86526e-12
-5.84451e-12 2.86526e-12 467.879

493.699 20.4288 8.95284e-13
20.4288 449.53 -3.38662e-12
8.95284e-13 -3.38662e-12 469.372

505.589 11.3995 -1.97301e-12
11.3995 564.438 5.11591e-13
-1.97301e-12 5.11591e-13 526.736

475.927 -31.5814 -1.85837e-12
-31.5814 470.387 4.11641e-12
-1.85837e-12 4.11641e-12 475.094

559.291 19.8122 8.84004e-12
19.8122 510.464 1.88383e-12
8.84004e-12 1.88383e-12 526.512

439.989 -18.4447 -1.73787e-13
-18.4447 482.498 1.848e-12
-1.73787e-13 1.848e-12 459.18

465.926 4.28375 -1.76803e-12
4.28375 526.137 -4.06786e-12
-1.76803e-12 -4.06786e-12 495.539

588.655 9.92746 -5.76961e-12
9.92746 552.48 -2.90612e-12
-5.76961e-12 -2.90612e-12 545.21

590.438 -8.5142 9.83806e-13
-8.5142 554.822 -2.76786e-12
9.83806e-13 -2.76786e-12 545.728

382.336 18.5139 1.72425e-12
18.5139 302.306 -2.06117e-12
1.72425e-12 -2.06117e-12 286.154

502.71 7.96556 -5.55289e-12
7.96556 453.63 -4.31581e-12
-5.55289e-12 -4.31581e-12 487.795

232.828 7.74123 8.66418e-13
7.74123 381.536 -3.55745e-12
8.66418e-13 -3.55745e-12 187.198

236.998 -11.386 2.46099e-14
-11.386 387.23 -6.76437e-12
2.46099e-14 -6.76437e-12 189.462

249.301 56.4095 -4.51431e-12
56.4095 354.796 -6.30015e-13
-4.51431e-12 -6.30015e-13 184.035

505.044 -28.9514 3.74634e-12
-28.9514 478.644 -1.90692e-12
3.74634e-12 -1.90692e-12 491.372

258.487 -49.1939 2.24176e-12
-49.1939 341.862 9.9476e-13
2.24176e-12 9.9476e-13 220.748

249.306 -55.9521 -1.83083e-12
-55.9521 344.771 -5.34802e-12
-1.83083e-12 -5.34802e-12 181.127

434.684 26.2222 2.64677e-13
26.2222 454.424 -4.51668e-12
2.64677e-13 -4.51668e-12 432.854

329.942 73.8473 6.18646e-12
73.8473 280.025 -6.16277e-12
6.18646e-12 -6.16277e-12 184.839

540.147 13.0465 -5.53838e-12
13.0465 554.969 2.6746e-12
-5.53838e-12 2.6746e-12 532.101

562.405 0.0410186 5.12627e-13
0.0410186 532.475 4.2751e-12
5.12627e-13 4.2751e-12 531.894

338.621 -73.1326 -4.03115e-12
-73.1326 279.873 -8.10019e-13
-4.03115e-12 -8.10019e-13 186.321

432.699 -23.4257 -2.63759e-12
-23.4257 466.342 8.2423e-13
-2.63759e-12 8.2423e-13 447.601

358.954 34.7317 6.3333e-12
34.7317 310.995 3.66877e-12
6.3333e-12 3.66877e-12 258.055

267.72 63.494 5.42381e-13
63.494 345.229 -9.4739e-15
5.42381e-13 -9.4739e-15 185.856

293.711 21.6318 9.4739e-14
21.6318 367.685 1.97057e-12
9.4739e-14 1.97057e-12 254.514

267.591 -65.9229 -1.74794e-12
-65.9229 344.864 -1.73372e-12
-1.74794e-12 -1.73372e-12 184.312

291.658 -12.382 9.76404e-12
-12.382 370.907 -3.82746e-12
9.76404e-12 -3.82746e-12 253.46

550.325 6.84016 -1.53374e-12
6.84016 582.096 -4.50603e-12
-1.53374e-12 -4.50603e-12 541.139

329.911 -45.9784 -4.3805e-12
-45.9784 341.838 -7.34228e-13
-4.3805e-12 -7.34228e-13 276.633

259.797 47.5352 2.73559e-12
47.5352 340.238 -5.8904e-12
2.73559e-12 -5.8904e-12 223.16

370.236 37.9134 2.24532e-12
37.9134 244.933 2.79954e-12
2.24532e-12 2.79954e-12 187.368

481.921 -29.2873 -6.71463e-13
-29.2873 460.541 -6.70486e-12
-6.71463e-13 -6.70486e-12 467.743

481.003 12.8964 2.73389e-12
12.8964 525.858 7.59097e-13
2.73389e-12 7.59097e-13 504.131

354.441 -38.1152 2.77349e-12
-38.1152 300.095 -1.64372e-12
2.77349e-12 -1.64372e-12 251.832

482.565 -28.8036 1.98952e-12
-28.8036 460.35 -2.04074e-12
1.98952e-12 -2.04074e-12 468.492

365.283 -36.3453 -4.73695e-15
-36.3453 231.001 7.31445e-12
-4.73695e-15 7.31445e-12 182.781

481.533 -28.3189 -5.09222e-12
-28.3189 472.784 -1.9987e-12
-5.09222e-12 -1.9987e-12 477.948

436.383 -25.2968 1.91462e-12
-25.2968 466.256 -5.29946e-12
1.91462e-12 -5.29946e-12 448.24

314.815 69.4637 -1.72899e-12
69.4637 292.158 1.65793e-14
-1.72899e-12 1.65793e-14 184.535

290.799 -22.9344 4.51195e-13
-22.9344 359.187 1.42109e-13
4.51195e-13 1.42109e-13 247.046

312.417 -71.6958 1.88531e-12
-71.6958 288.138 9.45022e-13
1.88531e-12 9.45022e-13 182.038

268.562 50.7407 -4.47168e-12
50.7407 320.079 4.55221e-12
-4.47168e-12 4.55221e-12 221.519

459.892 -30.2141 2.62605e-12
-30.2141 454.875 -6.44788e-12
2.62605e-12 -6.44788e-12 454.43

559.308 -14.6408 6.0257e-12
-14.6408 544.431 -6.19356e-13
6.0257e-12 -6.19356e-13 533.74

635.926 11.0911 -1.00195e-11
11.0911 631.391 4.56316e-12
-1.00195e-11 4.56316e-12 570.036

619.965 -5.16028 3.11899e-13
-5.16028 639.743 -9.10932e-12
3.11899e-13 -9.10932e-12 568.515

453.898 13.0839 2.30667e-13
13.0839 506.586 -1.36187e-14
2.30667e-13 -1.36187e-14 482.601

634.156 -10.6654 7.28802e-12
-10.6654 631.321 4.94997e-12
7.28802e-12 4.94997e-12 569.891

622.703 4.09217 3.5089e-12
4.09217 642.688 6.98689e-12
3.5089e-12 6.98689e-12 569.716

643.38 7.43209 -7.1941e-12
7.43209 619.155 -4.13447e-12
-7.1941e-12 -4.13447e-12 569.039

584.788 -12.1133 -4.56872e-12
-12.1133 631.675 5.57436e-12
-4.56872e-12 5.57436e-12 560.612

307.463 -30.4727 -6.21666e-12
-30.4727 371.658 2.84928e-12
-6.21666e-12 2.84928e-12 280.788

589.64 -12.9721 -6.49851e-13
-12.9721 549.131 -2.40223e-12
-6.49851e-13 -2.40223e-12 543.848

527.231 -34.4165 2.95171e-13
-34.4165 521.51 -3.87394e-13
2.95171e-13 -3.87394e-13 519.99

565.483 -18.1774 5.78737e-12
-18.1774 538.011 -1.22657e-12
5.78737e-12 -1.22657e-12 534.281

502.6 15.4602 -5.48717e-12
15.4602 452.144 7.82485e-13
-5.48717e-12 7.82485e-13 480.236

586.36 9.86292 6.43445e-12
9.86292 642.141 1.00086e-11
6.43445e-12 1.00086e-11 563.121

636.663 19.2258 3.79548e-12
19.2258 591.734 4.80919e-12
3.79548e-12 4.80919e-12 562.943

569.794 11.3077 -1.28194e-12
11.3077 544.359 -1.42079e-12
-1.28194e-12 -1.42079e-12 536.459

353.465 -15.3407 -9.23706e-13
-15.3407 231.529 5.42736e-12
-9.23706e-13 5.42736e-12 219.028

437.236 24.966 2.02505e-12
24.966 461.945 2.95586e-12
2.02505e-12 2.95586e-12 445.752

317.109 -61.3589 1.85215e-12
-61.3589 277.866 -7.05095e-12
1.85215e-12 -7.05095e-12 218.103

334.229 -57.4609 1.42109e-14
-57.4609 357.345 -2.38269e-12
1.42109e-14 -2.38269e-12 252.556

383.358 -36.5466 2.28558e-12
-36.5466 305.758 -2.66098e-12
2.28558e-12 -2.66098e-12 257.777

562.513 -5.15875 -4.58182e-12
-5.15875 616.961 7.77097e-12
-4.58182e-12 7.77097e-12 552.97

562.22 2.89135 3.59934e-12
2.89135 615.827 -3.36472e-13
3.59934e-12 -3.36472e-13 552.569

598.782 -24.4537 -7.4607e-13
-24.4537 575.757 3.15089e-12
-7.4607e-13 3.15089e-12 551.599

602.341 -21.7577 -7.82074e-12
-21.7577 573.448 -6.26166e-13
-7.82074e-12 -6.26166e-13 551.865

598.795 26.1331 1.75563e-13
26.1331 580.472 -1.29526e-14
1.75563e-13 -1.29526e-14 552.754

625.749 3.09763 4.31107e-12
3.09763 630.741 -4.98231e-13
4.31107e-12 -4.98231e-13 568.437

599.072 -20.5069 -3.72058e-12
-20.5069 576.369 1.3766e-12
-3.72058e-12 1.3766e-12 552.287

607.82 -18.5667 3.42437e-12
-18.5667 620.269 1.82911e-11
3.42437e-12 1.82911e-11 563.203

632.907 2.43316 8.43029e-13
2.43316 635.531 -3.49291e-12
8.43029e-13 -3.49291e-12 570.522

607.897 -20.5239 -3.30499e-12
-20.5239 572.441 9.91503e-13
-3.30499e-12 9.91503e-13 553.426

607.083 20.9534 2.7481e-12
20.9534 573.699 9.40877e-13
2.7481e-12 9.40877e-13 553.829

633.858 -3.45708 -6.07455e-12
-3.45708 636.782 1.35366e-11
-6.07455e-12 1.35366e-11 571.296

632.188 -3.11517 5.05018e-12
-3.11517 625.764 -7.42739e-12
5.05018e-12 -7.42739e-12 569.412

609.692 12.1094 6.73106e-12
12.1094 620.492 8.24489e-12
6.73106e-12 8.24489e-12 563.935

587.216 26.9274 -3.8014e-13
26.9274 583.031 4.99189e-13
-3.8014e-13 4.99189e-13 551.722

FIELD solute_concentration_TPM 2
S_ext 1 563 float
0.870302
0.87014
0.870156
0.870141
0.87012
0.870156
0.870302
0.870149
0.87017
0.870143
0.870268
0.870149
0.870152
0.870143
0.870125
0.870155
0.870137
0.870148
0.870173
0.870158
0.870164
0.870085
0.87016
0.870159
0.870159
0.870145
0.870259
0.870155
0.870213
0.870103
0.870153
0.870212
0.870264
0.870109
0.870108
0.870109
0.8701
0.87011
0.870153
0.870263
0.870213
0.870099
0.870099
0.870152
0.870242
0.870212
0.870171
0.870168
0.870156
0.870221
0.870217
0.8702
0.870119
0.870201
0.87012
0.870247
0.870108
0.8702
0.870108
0.870157
0.870136
0.870131
0.870256
0.870132
0.87013
0.870141
0.870135
0.870146
0.870159
0.87014
0.870119
0.870119
0.870214
0.870138
0.870156
0.870267
0.870127
0.870141
0.870145
0.870194
0.870229
0.870117
0.870133
0.87023
0.870213
0.870245
0.870155
0.87014
0.870242
0.870092
0.8702
0.870092
0.870125
0.870143
0.8702
0.870216
0.87023
0.870143
0.870127
0.870153
0.870185
0.87021
0.87023
0.870145
0.870145
0.870143
0.870132
0.870155
0.870231
0.870136
0.870157
0.870239
0.870234
0.870146
0.870144
0.870201
0.87011
0.870232
0.870111
0.8702
0.870177
0.870126
0.870139
0.870136
0.870136
0.870124
0.870113
0.870143
0.87023
0.870199
0.870118
0.87014
0.870133
0.870139
0.87021
0.870107
0.870239
0.870152
0.870133
0.870107
0.870208
0.870147
0.870177
0.870143
0.870233
0.870144
0.870149
0.870158
0.870157
0.870188
0.870167
0.870139
0.870212
0.870152
0.870143
0.87014
0.870142
0.870208
0.870207
0.870149
0.870167
0.870211
0.870241
0.870215
0.870206
0.870143
0.870207
0.870208
0.870213
0.870206
0.870124
0.8702
0.870216
0.870141
0.8702
0.870133
0.870124
0.87015
0.87012
0.870146
0.870214
0.870143
0.870143
0.870207
0.870139
0.870217
0.870136
0.870134
0.870126
0.870143
0.870139
0.870229
0.8702
0.870212
0.87014
0.870147
0.870146
0.870133
0.870139
0.870141
0.870139
0.870172
0.870194
0.870133
0.870214
0.870132
0.870142
0.87021
0.87013
0.870139
0.870131
0.870144
0.870145
0.870133
0.870187
0.870144
0.870193
0.870134
0.870136
0.870136
0.870136
0.870136
0.870136
0.870136
0.870144
0.870125
0.870125
0.870125
0.870125
0.870121
0.87012
0.870187
0.870142
0.870139
0.870169
0.870126
0.870126
0.87014
0.870193
0.870139
0.870143
0.870187
0.870129
0.870187
0.870133
0.870139
0.870186
0.870192
0.870229
0.870222
0.870133
0.870235
0.870153
0.870193
0.870173
0.870139
0.870136
0.870101
0.870136
0.870238
0.870192
0.870139
0.870149
0.870194
0.870136
0.870177
0.870101
0.870192
0.870136
0.870138
0.870146
0.870126
0.870141
0.87012
0.870151
0.87024
0.870245
0.870124
0.870162
0.870149
0.870189
0.870129
0.870141
0.870192
0.870142
0.870184
0.870149
0.870185
0.870193
0.870094
0.870123
0.870124
0.870124
0.870143
0.870184
0.87011
0.870138
0.870167
0.870183
0.870188
0.870123
0.870187
0.870127
0.870187
0.870242
0.870184
0.870233
0.870133
0.870186
0.870094
0.870186
0.870136
0.870188
0.870137
0.870187
0.870156
0.870262
0.870156
0.870187
0.870122
0.870187
0.870166
0.870139
0.870139
0.870186
0.870184
0.870177
0.870135
0.870184
0.87015
0.870155
0.870121
0.870184
0.870177
0.870165
0.870176
0.870185
0.870176
0.870132
0.870149
0.870177
0.870187
0.870147
0.870147
0.870184
0.870121
0.870274
0.870158
0.870229
0.870165
0.870325
0.870326
0.870323
0.870324
0.870321
0.87033
0.87033
0.870134
0.870114
0.870149
0.870167
0.870173
0.870176
0.870149
0.870177
0.870177
0.870115
0.870176
0.870131
0.8702
0.870126
0.870157
0.870167
0.870177
0.870125
0.870157
0.870166
0.870157
0.870165
0.870175
0.870195
0.870167
0.870159
0.87013
0.870172
0.870176
0.870173
0.870167
0.870158
0.870147
0.870173
0.870148
0.870158
0.870167
0.870149
0.870157
0.870175
0.870136
0.870165
0.870114
0.870242
0.870133
0.870132
0.870158
0.870166
0.87014
0.870274
0.870156
0.870166
0.870261
0.870097
0.870098
0.870156
0.870173
0.870164
0.870172
0.870086
0.870085
0.870147
0.87015
0.87015
0.870278
0.870175
0.870135
0.870169
0.87017
0.870167
0.870273
0.870138
0.870174
0.870157
0.870157
0.870169
0.870166
0.870169
0.870169
0.870262
0.870233
0.870166
0.870158
0.870165
0.87017
0.870166
0.870165
0.870165
0.870243
0.870127
0.870172
0.87014
0.870137
0.870244
0.870156
0.870156
0.870122
0.870092
0.870092
0.870123
0.870176
0.870158
0.870245
0.870094
0.870084
0.870083
0.870275
0.870109
0.870102
0.870159
0.870126
0.870149
0.870142
0.870135
0.870135
0.870151
0.870273
0.870155
0.870143
0.870136
0.870268
0.870106
0.870267
0.870134
0.870145
0.870186
0.870151
0.870151
0.870117
0.870147
0.870117
0.870156
0.870136
0.870106
0.870106
0.870246
0.870141
0.870304
0.870305
0.870304
0.870139
0.870279
0.870305
0.87017
0.870303
0.870116
0.870116
0.870304
0.870161
0.870265
0.870308
0.870264
0.870308
0.870264
0.870109
0.87025
0.870278
0.870302
0.870152
0.870132
0.870267
0.870151
0.870303
0.870146
0.870161
0.870309
0.870267
0.870309
0.870274
0.870158
0.870114
0.870083
0.870084
0.870143
0.870084
0.870083
0.870084
0.870092
0.870248
0.870105
0.870124
0.870115
0.870145
0.870091
0.87009
0.870114
0.870275
0.870163
0.870281
0.87027
0.870263
0.870095
0.870095
0.870096
0.870096
0.870095
0.870088
0.8701
0.870092
0.870088
0.870098
0.870097
0.870087
0.870086
0.870091
0.870099
P_ext 1 563 float
0.014524
0.0145204
0.0145209
0.0145204
0.0145191
0.0145209
0.014524
0.0145206
0.0145213
0.0145204
0.0145233
0.0145206
0.0145207
0.0145204
0.0145194
0.0145209
0.0145201
0.0145206
0.0145214
0.014521
0.0145211
0.0145167
0.014521
0.014521
0.014521
0.0145205
0.0145232
0.0145208
0.0145223
0.0145179
0.0145208
0.0145223
0.0145233
0.0145183
0.0145183
0.0145184
0.0145178
0.0145184
0.0145208
0.0145233
0.0145223
0.0145178
0.0145178
0.0145208
0.0145229
0.0145223
0.0145213
0.0145212
0.0145209
0.0145225
0.0145224
0.014522
0.014519
0.0145221
0.0145191
0.014523
0.0145183
0.014522
0.0145183
0.0145209
0.0145201
0.0145198
0.0145231
0.0145199
0.0145198
0.0145202
0.0145201
0.0145205
0.014521
0.0145203
0.0145191
0.0145191
0.0145223
0.0145201
0.0145209
0.0145233
0.0145195
0.0145202
0.0145205
0.0145219
0.0145226
0.0145189
0.0145199
0.0145227
0.0145223
0.0145229
0.0145208
0.0145201
0.0145229
0.0145169
0.014522
0.0145169
0.0145194
0.0145202
0.014522
0.0145224
0.0145226
0.0145205
0.0145195
0.0145208
0.0145217
0.0145223
0.0145226
0.0145206
0.0145205
0.0145205
0.0145198
0.0145208
0.0145227
0.0145202
0.0145209
0.0145228
0.0145227
0.0145206
0.0145205
0.0145221
0.0145183
0.0145227
0.0145183
0.014522
0.0145215
0.0145195
0.0145203
0.0145201
0.0145201
0.0145194
0.0145185
0.0145204
0.0145227
0.014522
0.014519
0.0145204
0.0145199
0.0145203
0.0145223
0.0145183
0.0145228
0.0145207
0.0145199
0.0145183
0.0145222
0.0145205
0.0145214
0.0145204
0.0145227
0.0145205
0.0145205
0.0145209
0.0145209
0.0145217
0.0145212
0.0145203
0.0145223
0.0145208
0.0145204
0.0145204
0.0145203
0.0145222
0.0145222
0.0145207
0.0145212
0.0145223
0.0145229
0.0145223
0.0145222
0.0145205
0.0145222
0.0145222
0.0145223
0.0145222
0.0145194
0.014522
0.0145224
0.0145203
0.014522
0.0145199
0.0145194
0.0145206
0.0145191
0.0145205
0.0145223
0.0145205
0.0145205
0.0145222
0.0145202
0.0145224
0.0145201
0.0145199
0.0145194
0.0145205
0.0145201
0.0145226
0.014522
0.0145223
0.0145204
0.0145206
0.0145206
0.0145199
0.0145203
0.0145203
0.0145203
0.0145214
0.0145219
0.01452
0.0145223
0.0145199
0.0145202
0.0145222
0.0145197
0.0145203
0.0145196
0.0145204
0.0145205
0.0145199
0.0145217
0.0145204
0.0145219
0.0145199
0.0145201
0.0145201
0.0145202
0.0145202
0.0145202
0.0145202
0.0145204
0.0145195
0.0145195
0.0145195
0.0145195
0.0145191
0.014519
0.0145217
0.0145203
0.0145203
0.0145213
0.0145194
0.0145194
0.0145203
0.0145219
0.0145204
0.0145204
0.0145217
0.0145196
0.0145217
0.0145199
0.0145203
0.0145217
0.0145219
0.0145226
0.0145225
0.0145199
0.0145227
0.0145208
0.0145219
0.0145214
0.0145204
0.0145201
0.0145178
0.0145202
0.0145228
0.0145218
0.0145203
0.0145206
0.0145219
0.0145201
0.0145214
0.0145178
0.0145219
0.0145201
0.0145201
0.0145206
0.0145194
0.0145201
0.0145191
0.0145207
0.0145228
0.0145229
0.0145192
0.0145211
0.0145206
0.0145218
0.0145196
0.0145203
0.0145218
0.0145203
0.0145217
0.0145205
0.0145217
0.0145219
0.0145173
0.0145193
0.0145194
0.0145194
0.0145204
0.0145217
0.0145184
0.0145202
0.0145212
0.0145216
0.0145218
0.0145193
0.0145217
0.0145194
0.0145218
0.0145229
0.0145216
0.0145227
0.0145199
0.0145217
0.0145173
0.0145217
0.01452
0.0145218
0.01452
0.0145217
0.0145209
0.0145232
0.0145209
0.0145217
0.0145192
0.0145217
0.0145211
0.0145201
0.0145203
0.0145217
0.0145217
0.0145214
0.0145199
0.0145216
0.0145206
0.0145208
0.0145191
0.0145217
0.0145215
0.0145211
0.0145215
0.0145217
0.0145214
0.0145197
0.0145206
0.0145215
0.0145217
0.0145205
0.0145205
0.0145216
0.0145192
0.0145235
0.0145208
0.0145226
0.0145211
0.0145244
0.0145244
0.0145243
0.0145243
0.0145243
0.0145244
0.0145244
0.0145198
0.0145186
0.0145206
0.0145211
0.0145214
0.0145215
0.0145205
0.0145214
0.0145215
0.0145186
0.0145214
0.0145197
0.014522
0.0145195
0.0145209
0.0145212
0.0145215
0.0145193
0.0145209
0.0145212
0.0145209
0.0145211
0.0145214
0.0145219
0.0145212
0.0145209
0.0145197
0.0145213
0.0145215
0.0145214
0.0145212
0.0145209
0.0145205
0.0145214
0.0145205
0.0145209
0.0145212
0.0145206
0.0145209
0.0145214
0.0145201
0.0145211
0.0145187
0.0145229
0.0145199
0.0145197
0.0145209
0.0145212
0.0145202
0.0145235
0.0145209
0.0145212
0.0145232
0.0145174
0.0145174
0.0145208
0.0145214
0.0145211
0.0145214
0.0145164
0.0145164
0.0145206
0.0145206
0.0145206
0.0145235
0.0145214
0.01452
0.0145213
0.0145213
0.0145212
0.0145234
0.0145201
0.0145214
0.0145209
0.0145209
0.0145213
0.0145212
0.0145213
0.0145213
0.0145232
0.0145227
0.0145212
0.0145209
0.0145212
0.0145213
0.0145212
0.0145211
0.0145211
0.0145229
0.0145195
0.0145213
0.0145203
0.0145201
0.0145229
0.0145209
0.0145209
0.0145191
0.0145173
0.0145173
0.0145192
0.0145215
0.0145209
0.0145229
0.0145174
0.0145166
0.0145166
0.0145235
0.0145184
0.0145179
0.0145209
0.0145195
0.0145207
0.0145204
0.01452
0.0145199
0.0145206
0.0145234
0.0145209
0.0145203
0.01452
0.0145234
0.0145182
0.0145233
0.01452
0.0145204
0.0145217
0.0145208
0.0145206
0.0145189
0.0145206
0.0145189
0.0145209
0.01452
0.014518
0.014518
0.014523
0.0145203
0.014524
0.014524
0.014524
0.0145201
0.0145236
0.014524
0.0145213
0.014524
0.0145189
0.0145189
0.014524
0.0145211
0.0145233
0.0145241
0.0145233
0.0145241
0.0145233
0.0145184
0.014523
0.0145235
0.0145239
0.0145207
0.0145198
0.0145233
0.0145207
0.014524
0.0145205
0.0145211
0.0145241
0.0145233
0.0145241
0.0145235
0.0145209
0.0145187
0.0145166
0.0145167
0.0145204
0.0145166
0.0145166
0.0145167
0.0145171
0.014523
0.0145181
0.0145192
0.0145186
0.0145204
0.014517
0.014517
0.0145186
0.0145235
0.0145211
0.0145236
0.0145234
0.0145233
0.0145175
0.0145175
0.0145176
0.0145176
0.0145175
0.0145167
0.0145176
0.014517
0.0145166
0.0145175
0.0145175
0.0145166
0.0145167
0.014517
0.0145176
FIELD solute_flux_TPM 2
S_ext 3 563 float
-4.76026e-05 1.59005e-05 -1.54864e-18
2.33713e-06 4.26545e-06 -1.69051e-18
-7.75763e-06 -6.07863e-06 4.92017e-19
-2.56366e-06 2.60122e-06 2.16764e-18
1.50362e-05 -4.34591e-06 -1.89421e-18
1.6234e-06 -9.63279e-06 -1.33955e-18
-4.68766e-05 -1.60941e-05 1.23323e-18
-8.6472e-06 -6.26245e-06 -1.51727e-18
1.32569e-05 5.92558e-07 -1.65547e-19
7.07919e-06 -2.60403e-06 3.19416e-18
3.17845e-05 7.39465e-06 -1.85976e-18
1.30094e-06 -1.06117e-05 8.30644e-19
8.48789e-06 6.72928e-06 6.67998e-19
1.81214e-06 8.53434e-06 -5.11731e-19
1.36331e-05 -2.07319e-06 -2.81824e-21
-9.77636e-06 -1.59346e-07 6.64801e-19
1.94018e-06 8.96911e-06 -1.86198e-18
6.23917e-06 -1.53583e-06 1.51064e-18
5.90614e-06 1.0276e-05 5.09684e-21
-8.8954e-06 1.14406e-06 4.15739e-18
-2.05535e-06 -1.27978e-05 2.15044e-18
2.86209e-05 4.03918e-05 1.41946e-18
9.51671e-06 9.88418e-07 8.32838e-19
6.8679e-06 -6.78817e-06 1.83096e-18
-9.02103e-06 -2.04132e-06 1.49441e-18
-2.8415e-07 -6.85852e-06 2.00094e-18
3.64657e-05 -2.83851e-06 -4.23143e-18
8.71419e-06 6.25354e-06 6.71818e-19
-1.45684e-05 -1.18568e-05 -3.2983e-19
3.2341e-05 -8.60511e-06 3.46905e-18
-9.99086e-06 -3.82045e-06 -3.17879e-18
3.14133e-06 -1.86971e-05 3.16486e-19
2.73547e-05 -2.78659e-05 -3.18502e-19
-3.46478e-06 -2.7554e-05 2.40877e-18
-1.95402e-05 2.42536e-05 -3.41034e-19
-2.55949e-05 -1.07643e-05 -2.06397e-18
2.14878e-05 2.80733e-05 6.93857e-22
-2.94654e-05 -5.82043e-06 5.11239e-19
8.9638e-06 -6.63972e-06 3.36328e-19
2.6728e-05 2.90367e-05 4.70652e-19
1.88263e-05 -8.20747e-06 6.43106e-19
2.18995e-05 -2.70247e-05 1.21393e-18
-1.24615e-05 -3.24554e-05 4.18059e-18
-9.54818e-06 4.01063e-06 6.62558e-19
1.7575e-05 -1.71821e-05 7.86332e-19
-1.74696e-05 6.20218e-06 6.40472e-19
-2.41958e-06 -1.20888e-05 2.80056e-18
4.68224e-06 1.2048e-05 2.48232e-18
-9.91575e-06 3.67227e-06 -2.00692e-18
-1.04652e-05 1.64776e-05 1.58353e-19
1.89846e-05 8.90189e-06 1.45225e-18
1.72354e-05 -6.01644e-06 -1.3037e-18
-1.03406e-05 1.02831e-05 -1.71128e-18
-1.36638e-05 -1.18271e-05 -6.58089e-19
-1.38584e-05 -3.44761e-06 1.36504e-18
-2.55499e-05 1.52423e-05 1.89718e-18
-1.93469e-05 -2.49642e-05 -3.55587e-19
3.57758e-06 -1.7848e-05 -6.51176e-19
-3.13021e-05 4.31518e-06 -1.55945e-18
3.63425e-06 8.2892e-06 4.32217e-18
-3.46463e-06 -5.34511e-06 2.19008e-18
-4.10736e-06 -1.16676e-05 3.39988e-18
3.2955e-05 1.43435e-05 3.18554e-19
6.15239e-06 1.1576e-05 3.04498e-18
8.10589e-06 -9.27537e-06 -1.70657e-18
-1.21381e-06 -1.31084e-05 1.00414e-18
3.11452e-06 -5.6178e-06 1.00421e-18
-6.13031e-06 -3.53635e-06 -1.51515e-18
-6.43253e-06 7.1026e-06 -1.00862e-18
1.54806e-06 -2.7194e-06 1.6827e-18
-9.91093e-06 -1.03409e-05 -1.20528e-18
-1.39799e-05 3.45835e-06 1.36979e-18
-2.24451e-06 1.98967e-05 7.95637e-19
-1.12958e-05 6.80726e-06 1.51811e-18
-5.49587e-06 8.71981e-06 -2.50999e-18
-3.40182e-05 4.2602e-06 6.25549e-19
5.22345e-06 -1.39514e-05 2.71767e-18
-1.19958e-05 -5.4233e-06 -5.73766e-18
1.08134e-06 7.19203e-06 -1.00864e-18
1.55674e-05 2.97626e-06 -2.10892e-18
1.98341e-05 -1.68616e-05 1.91891e-18
1.46845e-05 1.34141e-05 -5.24833e-19
7.80554e-06 -1.99258e-06 5.06342e-19
-1.84663e-05 1.35202e-05 7.943e-19
2.2114e-05 2.85156e-06 8.05244e-19
-3.17246e-06 2.82464e-05 4.73805e-19
-1.01185e-06 -1.02904e-05 -1.51412e-18
1.15779e-05 6.20995e-06 -4.55195e-18
1.69024e-05 1.76875e-05 -2.52245e-18
4.25e-05 2.64261e-05 -1.05787e-18
-3.13165e-06 1.79349e-05 1.94794e-18
4.43974e-05 -2.49504e-05 6.88569e-19
-1.7741e-05 3.31025e-06 1.64404e-19
1.13422e-05 7.11919e-06 -8.36439e-19
-1.71205e-05 5.74228e-06 4.79571e-19
9.62756e-06 1.6682e-05 -1.61647e-19
5.69842e-06 -2.55482e-05 -8.05106e-19
1.10537e-06 7.19155e-06 2.68368e-18
-9.40622e-06 -1.14677e-05 -1.63969e-19
1.74998e-06 1.06347e-05 -5.95254e-21
1.5643e-05 3.17579e-06 -1.79791e-18
-8.96669e-06 1.91294e-05 -1.30116e-18
2.35395e-05 -7.86616e-06 -3.24067e-19
-2.33055e-06 4.49164e-06 3.00742e-18
6.30494e-06 3.53968e-06 3.01895e-18
-1.28863e-06 -6.97736e-06 2.50186e-18
2.23128e-06 -1.23996e-05 -9.82931e-21
1.06571e-05 2.46717e-06 3.17954e-18
-4.72655e-06 2.36575e-05 1.91064e-18
-6.36824e-06 3.62837e-08 2.51502e-18
5.71982e-06 7.15488e-06 1.32928e-18
-1.54449e-06 -2.40972e-05 -3.49324e-18
2.44002e-05 7.60437e-06 6.3511e-19
2.74144e-06 -4.5108e-06 2.33809e-18
-6.78604e-06 -2.282e-06 -1.18006e-18
-1.68996e-05 -7.23427e-06 9.70498e-19
1.05429e-05 2.76582e-05 -3.45655e-18
-2.46342e-05 -8.79618e-06 -1.6043e-18
1.069e-05 -2.77324e-05 1.90821e-18
-2.15167e-06 -1.85791e-05 8.11269e-19
1.30536e-05 3.45792e-07 -8.25925e-19
-4.64165e-06 1.21292e-05 3.5654e-18
-1.07982e-06 2.4501e-06 1.6173e-19
-2.53898e-06 -1.05255e-05 2.02017e-18
3.33807e-06 -5.53996e-06 2.69148e-18
6.20762e-06 1.03315e-05 -6.30371e-21
2.221e-05 7.31167e-06 -1.64444e-19
5.5206e-06 -4.50863e-06 1.17213e-18
-4.8603e-06 -2.58579e-05 -3.19313e-19
1.50384e-05 -1.10371e-05 -1.95129e-18
3.30005e-06 1.82261e-05 -3.51462e-19
-1.68923e-06 -1.84584e-06 -3.43906e-19
-5.66276e-06 -5.32596e-06 -5.75706e-21
-3.03561e-06 1.40273e-07 -1.0279e-18
-1.32369e-05 1.63195e-05 -6.55441e-19
1.29206e-05 -2.48521e-05 1.65834e-19
-1.53365e-05 2.42592e-05 1.26917e-18
-9.9183e-06 5.8664e-06 -1.17591e-18
1.56243e-06 8.05843e-06 -1.00636e-18
-1.50348e-05 -2.35953e-05 -5.53554e-18
8.02178e-06 1.94568e-05 -3.19799e-19
1.10758e-05 5.62731e-06 -1.34041e-18
1.36279e-05 -5.20676e-06 6.59969e-19
-8.98547e-07 -6.98322e-06 8.30345e-19
-1.93517e-05 -1.7793e-05 -6.38653e-19
-1.55832e-06 6.99861e-06 -2.18934e-18
1.08248e-05 6.41916e-06 -2.01096e-18
1.15761e-05 -5.57306e-06 2.33844e-18
5.07671e-06 -8.61634e-06 4.33091e-18
1.44629e-05 -6.38702e-06 -1.14637e-18
1.15149e-05 -5.45405e-06 9.9559e-19
3.03837e-06 2.76629e-07 6.69123e-19
1.50102e-05 1.18843e-05 -2.0971e-18
-1.50998e-06 -1.03656e-05 -1.01675e-18
-6.56984e-06 -2.61033e-06 -6.82125e-19
8.03873e-07 -2.40987e-06 -2.02625e-18
-2.17579e-06 9.88051e-06 -2.02316e-18
-1.99645e-05 1.59324e-06 9.70935e-19
-7.0348e-06 -1.91624e-05 -8.18761e-19
-4.79397e-06 5.88817e-06 9.9518e-19
8.16149e-06 9.89053e-06 8.30285e-19
1.5493e-05 -1.10558e-05 8.06501e-19
-2.10982e-05 -1.14573e-05 -2.69747e-18
1.007e-05 -1.61179e-05 1.60811e-18
1.32941e-05 -1.58741e-05 9.69984e-19
-6.68453e-06 2.46342e-06 1.67199e-18
-1.14773e-05 -1.65088e-05 -2.43945e-18
-1.99432e-05 -3.33915e-06 -9.74524e-19
-2.4106e-06 -1.83759e-05 -1.29266e-18
8.9086e-06 -1.84425e-05 2.9182e-18
-6.08398e-06 -1.70547e-05 8.44295e-19
2.5456e-06 1.82959e-05 9.7231e-19
-9.24759e-06 -1.64058e-05 1.56835e-19
2.08166e-06 -1.02196e-05 1.16647e-18
-1.4374e-05 1.04325e-05 -2.61234e-18
-9.58178e-06 -7.90244e-06 1.1907e-18
-1.78592e-05 -3.20055e-06 1.36202e-18
9.74162e-06 -5.76595e-06 -8.363e-19
-2.75155e-06 1.57374e-05 4.28251e-18
7.82996e-06 -5.70909e-06 3.35523e-18
-1.70531e-05 -7.46405e-06 4.84528e-19
-5.53843e-06 -4.48983e-06 3.2212e-19
5.77038e-06 4.54386e-06 1.67402e-19
1.24906e-05 1.67193e-05 2.26614e-18
-1.09503e-05 -6.8653e-06 -2.36586e-18
-1.8673e-05 -4.54827e-07 1.60583e-19
-1.04952e-05 -2.97925e-06 3.19476e-18
-3.00861e-06 -1.05375e-05 -6.12753e-21
1.15674e-05 1.41338e-05 -3.06496e-18
-6.89753e-06 3.48196e-06 2.68278e-18
5.02296e-07 -1.29518e-05 6.64335e-19
-2.38715e-05 6.14998e-06 -8.12146e-19
1.46323e-05 1.1841e-05 -3.8996e-18
2.1374e-06 1.91134e-05 -3.24422e-19
-1.4481e-06 2.47056e-06 -2.02575e-18
-5.45262e-06 1.51337e-07 -4.35575e-18
2.69159e-06 4.69245e-06 2.67552e-18
-7.56846e-06 2.32037e-06 2.69203e-18
-1.36111e-06 -2.33079e-06 -3.40548e-19
1.20811e-06 1.30512e-05 1.0039e-18
2.9121e-06 1.47671e-07 6.72363e-19
-1.15525e-05 2.81248e-06 -5.01712e-19
-1.01663e-05 1.12479e-05 -5.00104e-19
-1.90716e-06 7.5487e-06 3.37372e-18
-1.68763e-05 1.0554e-05 -1.62004e-18
-6.14332e-06 5.74467e-06 -1.52643e-18
1.0968e-05 -7.60373e-06 1.51666e-18
2.13759e-05 -2.14272e-06 -1.61576e-18
-1.36697e-05 7.22407e-06 1.86544e-18
1.3402e-06 2.93407e-06 -2.34865e-18
1.42773e-05 -2.62446e-06 -2.21087e-18
-1.07577e-05 6.6303e-06 5.00615e-19
-6.03357e-06 3.53098e-06 3.27055e-19
7.81462e-06 2.60971e-06 4.06123e-18
1.297e-05 -8.05827e-06 -1.14492e-18
-1.08775e-05 6.14708e-06 2.85651e-18
-1.45688e-05 -3.06568e-06 -1.6337e-18
-1.069e-05 -2.65869e-06 -1.535e-18
6.53611e-06 1.43405e-07 1.00835e-18
6.68513e-06 -2.10847e-08 5.03496e-19
2.95048e-06 5.32386e-06 -9.4584e-21
3.2269e-06 -5.61946e-06 -2.1911e-18
-3.14558e-06 5.5144e-06 4.92993e-19
-3.28509e-06 -5.63556e-06 -1.51873e-18
6.15076e-06 -4.80712e-06 -1.34074e-18
-1.33356e-05 2.20468e-06 2.03465e-18
-1.31842e-05 -2.24581e-06 3.05538e-18
-8.48709e-06 1.03858e-05 -2.55283e-18
-8.53205e-06 -1.04232e-05 -1.19773e-18
4.88906e-06 -1.32639e-05 -6.74717e-19
4.71058e-06 1.31546e-05 -2.89931e-18
9.08671e-07 1.5265e-05 -1.47163e-18
7.1921e-06 -1.75189e-06 1.67821e-18
1.54931e-06 -2.3865e-06 1.64039e-19
-1.26114e-05 8.84662e-07 2.15003e-18
5.03617e-06 -1.30518e-05 6.85628e-19
4.77346e-06 1.30975e-05 -1.69211e-18
3.00852e-06 -5.54002e-08 -1.00146e-18
5.24383e-06 1.43764e-05 2.28661e-18
-1.39397e-06 -2.49439e-06 -6.85444e-19
1.37039e-06 -7.01643e-06 -3.46359e-19
-1.31468e-05 -7.02877e-06 -1.80683e-18
-1.38235e-05 -7.36534e-06 -4.58541e-18
-1.28342e-05 7.97065e-06 -1.32493e-18
2.02975e-06 -8.15133e-06 1.86751e-18
-9.92103e-07 2.07644e-06 4.00558e-18
-4.38136e-07 -1.50319e-05 1.60303e-19
-4.5939e-06 -1.42467e-05 4.76674e-19
1.89826e-05 1.76342e-05 9.60048e-19
2.0768e-05 -1.06083e-06 -9.66752e-19
-8.24175e-06 -2.48462e-06 2.19568e-18
-1.31843e-05 -2.35007e-05 3.51222e-18
5.07527e-06 8.30734e-06 1.50432e-18
-1.46784e-05 1.73243e-06 -6.57005e-19
1.20583e-05 3.46383e-06 1.32264e-18
-2.81261e-06 -1.18343e-08 -2.3567e-18
-3.07621e-06 -5.39292e-06 -6.75527e-19
-5.4217e-06 -2.57485e-05 -3.53528e-19
-6.29047e-06 5.58711e-08 -1.70536e-20
-2.74143e-05 -1.02771e-06 -1.12613e-18
1.01958e-05 -1.13114e-05 -4.93844e-19
1.57695e-06 2.47182e-06 2.34291e-18
-1.15249e-07 -1.07958e-05 -1.85439e-18
-5.82985e-06 1.40229e-05 -1.31317e-18
-2.90359e-06 5.5263e-06 -1.18587e-18
1.23446e-05 -8.09161e-06 -1.15048e-18
-2.50075e-05 -8.15831e-06 -3.46749e-19
-8.96182e-06 -1.18496e-05 -1.14876e-18
3.18621e-06 5.55128e-06 1.72163e-19
1.07844e-05 3.03262e-06 8.45489e-19
-2.88926e-06 -4.41706e-06 -2.19209e-18
1.31789e-05 2.47351e-06 3.07129e-18
1.166e-05 -6.17827e-06 -6.75468e-19
-2.20141e-07 1.77004e-05 -6.81134e-19
5.10633e-06 -8.28091e-06 7.01895e-18
2.83241e-05 1.18268e-06 -6.31794e-19
-2.40721e-05 6.25964e-06 -2.21479e-18
1.51051e-05 7.4921e-06 -1.53371e-18
-3.83643e-06 -1.02317e-05 -1.72579e-19
-9.45949e-06 -5.23274e-06 -3.8623e-18
1.69818e-05 -1.37074e-07 -1.80288e-18
-4.9577e-07 -1.5698e-05 1.56795e-19
-7.76657e-06 -6.99579e-06 -1.01172e-18
5.99442e-06 -1.38566e-05 2.1557e-22
-4.16345e-07 1.28985e-05 1.62059e-19
4.58024e-06 1.53457e-05 -1.14591e-18
1.08275e-05 -6.24646e-06 -1.51042e-18
-1.11504e-05 1.11672e-05 -5.03016e-19
9.71815e-06 1.18279e-05 -4.82485e-19
-4.32071e-05 1.02926e-05 5.59769e-18
-6.74714e-06 1.6948e-05 -3.07185e-18
8.29255e-06 -9.96945e-06 -1.75176e-19
-4.53069e-06 -1.20916e-05 -1.86995e-18
-7.4552e-06 2.62492e-06 2.3483e-18
-1.50607e-05 -4.16659e-06 8.16699e-19
-4.46774e-06 2.5879e-05 -5.15858e-19
-7.83601e-06 7.75529e-06 2.18599e-18
1.25343e-05 -2.83241e-06 1.49103e-18
-3.99569e-06 -1.51361e-05 1.63442e-18
-8.71353e-06 1.38693e-05 -8.29218e-19
-1.41322e-05 8.17226e-06 2.3879e-18
-1.20402e-05 -8.79982e-06 -2.30224e-18
1.18033e-05 -1.38107e-05 3.07515e-18
-1.59528e-05 -8.533e-07 -1.65896e-19
6.94904e-06 -2.37272e-05 1.73897e-18
1.15296e-05 -1.11454e-05 -2.30025e-18
1.41878e-05 2.48973e-05 1.12118e-18
1.30988e-06 1.27303e-05 1.34497e-18
1.74203e-06 -1.49944e-05 1.79565e-18
-2.80887e-05 3.30079e-05 4.37488e-18
-7.4247e-06 -1.42003e-05 1.30256e-18
1.07041e-05 -4.01277e-06 -1.18487e-18
-1.50642e-06 1.5109e-05 -1.15358e-18
8.19626e-06 -7.85979e-06 -6.68978e-19
8.15395e-06 1.42778e-05 6.58644e-19
1.04742e-05 -9.4284e-07 -6.66225e-19
1.23694e-05 -3.61885e-05 -1.73697e-18
-3.50089e-06 -7.73886e-06 -3.43699e-19
-1.35715e-05 5.8219e-06 -1.32179e-18
-1.30789e-05 1.23138e-05 4.09998e-18
1.27874e-05 8.66044e-06 3.21897e-19
1.13294e-05 -6.58361e-06 -1.65578e-19
9.40852e-06 8.16973e-06 2.70919e-18
-3.50261e-06 -9.6138e-08 2.00676e-18
9.06985e-06 -1.35724e-05 -5.51124e-21
-9.98657e-06 -1.18334e-05 -1.48597e-18
1.34726e-05 5.90644e-06 -4.28109e-18
8.20361e-06 -7.82055e-06 -5.06476e-19
5.55972e-06 -1.4645e-05 1.63795e-18
1.02894e-05 -4.52031e-06 -8.38318e-19
-9.58781e-06 -4.62145e-06 -6.71453e-19
9.08658e-07 -1.70978e-05 -4.12025e-18
-1.51907e-05 2.66296e-06 -1.48263e-18
1.31801e-06 1.45478e-05 2.13483e-18
1.2432e-05 4.11662e-06 2.38524e-21
-1.27843e-05 -6.35568e-06 9.82782e-19
-5.24437e-06 1.4995e-05 1.14191e-18
-8.46537e-07 -1.43588e-05 2.79593e-18
1.2638e-05 7.71738e-06 -6.73212e-19
-8.97716e-07 1.11782e-05 -2.35756e-18
-1.19357e-05 7.97984e-06 -1.20278e-20
1.3985e-05 6.73777e-06 3.60158e-18
-1.04985e-05 -6.35455e-06 3.32473e-19
2.63515e-07 -1.2324e-05 -1.85942e-18
1.09151e-05 1.17571e-05 -3.60929e-18
-1.43431e-05 -9.32242e-06 -2.56448e-18
2.79417e-05 -1.99799e-05 -1.55247e-18
1.10706e-05 -6.5863e-06 1.16782e-18
5.00632e-06 2.48384e-05 4.80344e-19
1.04216e-05 -8.18361e-06 -6.67388e-19
-1.29456e-05 5.00133e-05 1.77252e-18
-1.30119e-05 -4.95391e-05 -3.87382e-18
3.25695e-05 4.25429e-05 -1.4889e-18
3.21793e-05 -4.25326e-05 -3.42162e-18
5.31609e-05 -2.68133e-08 -1.05312e-18
-4.57344e-05 1.85478e-05 -1.03723e-18
-4.49945e-05 -1.87404e-05 -1.47602e-18
7.86934e-06 7.7259e-06 -8.383e-19
1.95699e-05 1.462e-05 8.70565e-19
7.02142e-06 2.12861e-06 1.17515e-18
1.14671e-05 5.87999e-06 -1.98736e-18
2.9501e-06 1.20494e-05 3.1321e-18
-1.1179e-05 -8.7346e-06 -1.16262e-18
1.08288e-05 -6.24427e-06 -5.03695e-19
1.19322e-05 8.62392e-06 -3.28951e-19
-1.8304e-06 1.44477e-05 -8.30196e-19
1.96724e-05 -1.34182e-05 -2.5837e-18
2.15176e-06 -1.41069e-05 2.1327e-18
1.43496e-05 3.16322e-06 1.77195e-19
1.75245e-05 6.54829e-06 -8.15641e-19
9.38388e-06 9.21533e-06 1.01266e-18
9.714e-06 4.09133e-06 -6.6463e-19
-1.10747e-05 6.55813e-06 1.64567e-18
-1.32818e-05 5.38743e-06 6.4641e-19
1.51635e-05 -7.34422e-06 -2.22065e-18
-1.10371e-05 -6.1238e-06 -3.51347e-18
-1.11343e-05 -6.27822e-06 -6.9401e-21
-1.32231e-07 -1.26503e-05 -1.34777e-18
-1.02558e-07 -1.27294e-05 1.15124e-18
-1.18555e-05 -6.04169e-07 -1.65036e-18
1.57947e-05 -2.38972e-06 -1.95161e-18
1.09715e-05 6.88635e-06 5.00391e-19
-1.08836e-05 6.54309e-06 2.15937e-18
-9.75187e-06 1.08277e-05 5.43725e-18
9.64241e-06 -8.26583e-06 -4.79305e-18
-6.56484e-06 1.02783e-05 2.12979e-18
-8.44783e-06 -8.77977e-06 4.88088e-19
-7.29005e-07 1.2692e-05 8.184e-19
-6.68217e-07 1.27648e-05 9.92368e-19
5.01424e-09 -1.23251e-05 -1.85706e-18
3.63523e-06 -1.17723e-05 1.81419e-18
-1.06431e-05 -6.08856e-06 -8.4183e-19
9.4894e-06 -3.41872e-06 1.33339e-18
4.16191e-07 1.29171e-05 -1.49829e-18
1.95911e-07 1.14002e-05 2.66959e-18
-1.38093e-06 1.01836e-05 4.88075e-19
1.30841e-05 -3.31901e-06 2.30553e-18
-1.0671e-05 3.21934e-06 3.31529e-19
2.37764e-06 1.29294e-05 2.98511e-18
-2.15289e-05 8.39882e-06 3.40113e-19
5.45875e-06 2.42388e-05 -2.20881e-18
-1.0926e-05 2.79325e-06 8.42746e-19
1.28488e-05 -7.62779e-06 -2.37351e-18
4.71991e-07 1.27906e-05 -6.73447e-19
-1.21447e-05 4.09077e-06 -1.16721e-18
1.655e-06 -1.01905e-05 -1.69833e-18
5.49653e-07 -3.34586e-05 -3.25951e-18
1.17086e-06 1.06534e-05 9.89927e-19
-1.02254e-05 8.24734e-06 -1.83534e-18
9.97347e-06 3.66583e-05 -3.23199e-19
3.14493e-05 2.60933e-05 -1.04853e-18
3.60699e-05 -2.46768e-05 -1.06073e-18
9.17519e-06 -6.22456e-06 1.00282e-18
-9.40673e-06 8.28208e-06 9.82341e-19
-1.20232e-05 -4.83644e-06 -1.82903e-18
-1.16343e-05 -4.03544e-06 -2.48182e-18
4.44382e-05 -1.22177e-05 1.58e-18
4.5322e-05 9.53339e-06 5.29121e-19
6.68958e-06 2.41334e-06 -6.66398e-19
3.00411e-07 1.2092e-05 -1.71631e-19
6.8927e-08 1.20879e-05 2.50455e-18
-2.78519e-05 -2.04013e-05 -3.41317e-18
6.82571e-06 -1.02354e-05 3.26263e-19
7.48837e-06 8.22989e-06 1.86911e-18
-1.26223e-05 -2.0805e-06 -5.00395e-19
-8.38667e-06 1.00918e-05 8.16645e-19
-1.12851e-05 5.44521e-06 -1.33396e-18
2.75967e-05 1.97901e-05 -1.85825e-18
1.01783e-05 4.42674e-06 -3.54446e-18
-3.33359e-06 1.18544e-05 -1.73621e-19
-1.03923e-05 -7.00247e-06 -2.84177e-18
1.00739e-06 -1.25361e-05 -5.11561e-19
-5.26092e-06 -1.14358e-05 -3.35488e-19
-1.03116e-05 -7.01152e-06 -2.82833e-18
6.29975e-06 -1.12763e-05 2.15267e-18
8.54889e-06 -1.00906e-05 -1.64852e-19
-1.69206e-06 -3.50248e-05 -2.05011e-18
1.50106e-05 -2.37831e-05 2.24221e-18
1.04743e-06 -1.24859e-05 6.52435e-19
1.11006e-05 6.85278e-06 -1.32932e-18
-8.74165e-06 -8.77599e-06 -7.50984e-21
-5.81584e-06 1.16469e-05 -1.33186e-18
-2.91992e-06 1.25685e-05 -1.76679e-19
1.01466e-05 8.47392e-06 -1.65975e-18
3.54059e-06 -1.19453e-05 1.59678e-19
-8.04826e-06 -2.30605e-05 6.28287e-19
-1.38193e-06 1.62301e-05 -2.04489e-18
8.88815e-06 8.6469e-06 -2.47151e-18
-8.03098e-06 -6.48245e-06 -8.81437e-22
-8.52382e-06 6.77001e-06 1.01235e-18
2.57969e-05 -1.10597e-05 -1.59528e-19
4.56554e-06 -8.09956e-06 2.49632e-18
-5.0618e-06 -7.5306e-06 -3.00264e-18
1.41963e-05 4.38816e-06 -8.49551e-19
8.80585e-06 -3.17611e-05 5.22452e-19
-2.31088e-05 -2.34845e-05 -1.21567e-18
1.54599e-05 3.98063e-06 -2.04505e-18
-5.53923e-06 -1.07725e-05 -1.82088e-18
1.14723e-05 5.92649e-06 -3.66707e-18
-1.65936e-05 -1.84489e-05 -7.93331e-19
7.13348e-06 3.22825e-05 -2.79566e-18
3.1337e-05 -4.04939e-05 1.76479e-18
-1.94029e-05 -4.73742e-05 -3.53821e-18
1.56061e-05 -3.04671e-05 -4.58196e-19
-8.33381e-06 2.88039e-05 2.07271e-18
-4.77653e-06 2.54781e-05 2.95766e-18
-1.13265e-05 5.53003e-06 -2.16771e-18
4.03423e-06 1.56782e-05 8.45397e-19
-1.38171e-06 7.6753e-06 8.24693e-19
6.31749e-06 2.13551e-06 1.73341e-19
-2.21934e-06 1.03566e-05 -3.42689e-19
-1.37494e-07 1.33632e-05 5.08583e-19
1.03533e-05 6.05888e-06 -1.50593e-18
5.02957e-07 3.33001e-05 1.23727e-18
-8.99081e-06 6.34136e-06 4.88361e-19
1.01404e-05 -3.77825e-06 -2.69697e-18
1.10533e-05 -2.69054e-06 3.04257e-18
-3.41308e-05 -4.93247e-06 -2.5083e-18
-2.28181e-05 1.0868e-05 1.89871e-18
-2.47562e-05 -2.93629e-05 -2.68038e-18
5.66415e-06 5.33071e-06 -1.69899e-18
8.83959e-06 4.75098e-06 1.71284e-19
1.58621e-05 -2.58156e-06 3.14861e-24
-4.89856e-06 -7.96831e-06 -1.01497e-20
1.06389e-05 5.38384e-06 -2.50937e-18
4.87825e-06 -1.97438e-05 -6.9397e-19
-8.60604e-06 6.13477e-06 1.16642e-18
-1.46546e-05 -1.40905e-05 -8.45375e-19
-3.42964e-06 9.84878e-06 -1.34317e-18
-2.26844e-06 1.31483e-05 -1.18305e-18
2.28095e-05 1.41534e-05 8.73189e-19
2.4327e-05 -1.28893e-05 -1.39305e-18
-2.39325e-05 -6.4355e-06 -4.69595e-19
4.71724e-06 4.99608e-06 1.51897e-18
-2.75573e-06 5.80578e-05 -1.57197e-19
1.44676e-08 -5.96347e-05 -2.16364e-18
2.93979e-05 5.03092e-05 3.0845e-19
-1.21938e-05 5.17689e-06 -1.69587e-18
-1.57977e-05 3.19118e-05 3.24755e-18
2.95804e-05 -4.85585e-05 -2.61657e-18
-6.97533e-06 -1.07478e-05 -2.32458e-18
4.49863e-05 3.91299e-05 1.53581e-18
1.58867e-05 -1.17463e-05 3.38507e-19
-2.24638e-06 -1.9618e-05 -1.88445e-18
4.71329e-05 -3.82626e-05 6.16737e-19
-4.04592e-06 8.67625e-06 -3.43047e-19
-3.02825e-05 -1.92315e-05 -2.98226e-18
-2.48626e-05 -5.19233e-05 -2.9418e-18
-1.40963e-05 -3.29699e-05 -1.56791e-18
-2.55605e-05 5.27721e-05 1.84594e-18
-6.05406e-06 3.6621e-05 6.21822e-19
1.0694e-05 2.4652e-05 -1.03839e-18
-1.62959e-05 2.09353e-05 3.78143e-18
-1.5119e-05 -3.10724e-05 -1.08583e-18
5.78628e-05 1.01603e-05 9.16364e-19
-1.04886e-05 6.45517e-06 -1.01113e-18
-3.9154e-06 1.04211e-05 -5.07726e-19
-2.87248e-05 2.0673e-05 1.40859e-18
-1.06265e-05 6.1277e-06 -3.52619e-18
5.72934e-05 -9.06143e-06 1.22598e-18
-9.56553e-06 4.7217e-06 1.0031e-18
4.36284e-06 -8.73176e-06 4.94504e-19
-4.44754e-05 -3.39033e-05 -6.17006e-19
-1.51867e-05 3.29891e-05 -1.60925e-19
-4.5533e-05 3.36619e-05 -1.61829e-19
1.38089e-05 3.03538e-05 2.78247e-18
-9.00271e-06 6.3417e-06 4.91431e-19
-1.33904e-05 1.62055e-05 1.03098e-18
-2.41606e-05 3.03703e-05 -4.93584e-18
-3.78999e-05 -4.875e-06 9.17649e-18
-6.84808e-07 1.01872e-05 -1.68393e-18
-2.55865e-05 -3.04979e-05 -7.07915e-19
-3.92181e-05 6.91663e-06 -3.17334e-18
-1.49474e-05 3.46492e-05 7.59467e-18
-1.15201e-05 4.60579e-05 -1.92752e-18
-1.0616e-05 2.35844e-05 1.56941e-19
-2.2264e-05 1.79471e-05 1.55803e-18
1.6255e-05 -3.93231e-06 1.73044e-19
2.55054e-05 -1.28516e-06 -8.644e-19
8.44584e-06 5.24481e-06 8.43576e-19
-8.09433e-06 -5.30099e-05 1.04458e-18
-4.99656e-05 -1.94804e-05 1.80327e-19
2.48318e-05 2.3224e-07 1.73137e-18
3.39691e-05 -6.55989e-06 -3.7084e-18
-6.32208e-06 -8.02362e-06 -6.68128e-19
-2.944e-05 2.07214e-05 3.71052e-18
-2.63859e-05 3.0242e-05 3.30749e-18
3.59087e-05 -1.29349e-05 9.46039e-19
-1.86648e-05 -3.16022e-05 1.04044e-18
-1.8997e-05 3.13556e-05 -1.03801e-18
-3.68354e-05 -1.3181e-06 6.61777e-18
-1.67401e-05 3.29657e-05 7.14661e-18
-3.67248e-05 3.94099e-07 -2.61114e-18
4.57472e-05 1.63726e-05 -3.67155e-19
3.68675e-05 1.37521e-06 -2.61452e-18
3.46952e-05 -1.77704e-05 5.12102e-19
1.0147e-05 -4.87979e-05 1.22923e-18
1.83105e-05 -3.19265e-05 -1.05014e-18
1.81857e-05 3.19215e-05 -2.61102e-18
9.93749e-06 4.76813e-05 1.79854e-19
4.99504e-05 -1.40881e-05 -1.79983e-19
3.20009e-05 1.58484e-05 1.41191e-18
3.07135e-05 8.38538e-06 3.49209e-19
P_ext 3 563 float
-7.81074e-07 2.6407e-07 1.19006e-20
7.24098e-10 2.88905e-08 -2.1209e-20
-7.19002e-08 -6.76232e-08 -1.57113e-20
-2.27444e-08 2.09915e-08 -5.27141e-21
1.97946e-08 3.9148e-10 -9.10234e-20
2.36692e-08 -9.60422e-08 -4.167e-20
-7.6902e-07 -2.67266e-07 7.70416e-20
-5.6353e-08 -6.39477e-08 -1.32777e-20
1.56843e-07 2.77541e-09 -2.06473e-20
5.72405e-08 -5.36651e-09 1.33965e-20
5.08426e-07 1.19183e-07 2.33642e-21
2.7924e-08 -8.17087e-08 2.58825e-21
6.39619e-08 7.61601e-08 -2.33736e-20
-6.60732e-09 5.96378e-08 5.47376e-20
1.78859e-08 6.65262e-09 -2.12199e-20
-1.00243e-07 -1.64093e-09 3.63886e-20
-1.25426e-08 3.92868e-08 -5.50226e-21
6.04252e-08 -9.11336e-09 -3.10588e-20
6.94231e-08 1.23816e-07 2.31262e-20
-9.31271e-08 9.38917e-09 4.42622e-20
-3.49725e-08 -1.31905e-07 2.32345e-20
1.16266e-09 1.8019e-10 1.94467e-20
1.03148e-07 8.39608e-09 -2.31777e-20
6.56598e-08 -7.58224e-08 5.18488e-20
-9.51324e-08 -1.53138e-08 4.92581e-20
-1.79434e-08 -5.20442e-08 3.38528e-20
5.84461e-07 -4.78129e-08 -4.41588e-20
7.15325e-08 6.0318e-08 -3.10195e-20
-2.13795e-07 -1.69823e-07 -3.03014e-20
1.2533e-08 2.36809e-09 -4.84673e-20
-9.55095e-08 -1.69956e-08 7.50332e-21
4.17798e-08 -2.71898e-07 -1.5025e-20
4.39202e-07 -4.498e-07 2.9084e-20
9.26292e-10 -2.05803e-08 5.9137e-20
-5.53055e-09 1.58255e-08 -5.92454e-20
-1.71825e-08 -1.13125e-08 -5.91233e-20
2.256e-09 1.13694e-08 3.78854e-20
-1.73631e-08 2.96232e-09 2.58104e-21
6.90749e-08 -7.51465e-08 -4.68004e-20
4.28579e-07 4.68756e-07 1.46185e-20
2.73691e-07 -1.24004e-07 -1.99681e-20
4.20539e-09 -1.04133e-08 5.42884e-21
-6.8556e-09 -9.10107e-09 5.45322e-20
-9.48807e-08 1.94761e-08 1.8162e-20
2.71584e-07 -2.6671e-07 4.1874e-20
-2.53007e-07 9.10699e-08 -2.26453e-20
-3.19573e-08 -1.39431e-07 -5.08345e-21
5.76519e-08 1.40045e-07 3.10798e-20
-9.10107e-08 2.37903e-08 3.86739e-20
-1.5672e-07 2.43749e-07 4.48781e-20
2.77784e-07 1.36044e-07 -9.93464e-21
2.41173e-07 -7.93187e-08 -5.58083e-20
-7.08285e-09 1.68421e-08 -1.3414e-20
-1.88733e-07 -1.69365e-07 3.02409e-20
-1.84734e-08 2.44529e-09 -5.30699e-21
-4.04916e-07 2.37788e-07 6.42341e-20
-5.13438e-09 -1.57596e-08 7.91211e-21
5.37451e-08 -2.49233e-07 -1.53013e-20
-1.60573e-08 -3.5062e-09 -3.24578e-20
4.21479e-08 8.4505e-08 3.64868e-20
-2.24808e-08 -6.79885e-09 -2.60913e-20
-2.3733e-08 -2.22647e-08 3.46606e-20
5.26947e-07 2.31993e-07 -4.82115e-21
-4.7597e-10 4.59476e-08 2.64595e-20
7.07779e-09 -3.06509e-08 2.3782e-21
1.19472e-08 -6.82271e-08 -1.31675e-20
-4.75874e-09 -2.2329e-08 -2.10243e-20
-5.46235e-08 -1.3868e-08 1.54364e-20
-6.35951e-08 7.78161e-08 -5.41537e-21
1.70548e-08 -6.18047e-09 -1.29004e-20
-6.98556e-09 -1.73281e-08 2.11495e-20
-1.82711e-08 -2.68334e-09 2.73963e-21
-3.15395e-08 2.92201e-07 -3.4169e-23
-5.60766e-08 2.83211e-08 2.89599e-20
-5.44336e-08 9.31068e-08 -5.50249e-21
-5.48015e-07 6.44131e-08 3.17028e-20
1.08948e-11 -4.33182e-08 5.0404e-20
-5.268e-08 -4.41548e-08 1.78412e-20
2.22012e-08 5.41507e-08 -2.36179e-20
2.0994e-07 4.19732e-08 -2.79596e-20
3.00962e-07 -2.61865e-07 1.25201e-20
8.21931e-09 2.01499e-08 7.86511e-21
2.03123e-08 6.32472e-09 -1.3126e-20
-2.80434e-07 2.07478e-07 5.96106e-20
3.27309e-07 3.97913e-08 2.62303e-21
-4.96214e-08 4.43716e-07 2.21301e-20
-1.71963e-08 -8.88474e-08 1.00716e-20
6.03082e-08 4.24805e-08 -8.69036e-20
2.61229e-07 2.75487e-07 1.46207e-20
4.72442e-09 2.07848e-09 -4.93945e-20
-5.03392e-08 2.50642e-07 7.68195e-21
4.26666e-09 -2.2651e-09 -1.1156e-20
-3.01693e-08 2.05936e-08 1.58452e-20
6.51865e-08 2.65194e-08 -6.54726e-20
-2.4134e-07 7.46034e-08 5.00015e-21
1.40092e-07 2.4617e-07 2.00214e-20
8.71582e-08 -3.93524e-07 -3.25108e-20
2.04773e-08 5.36635e-08 2.10727e-20
-3.70166e-08 -2.20115e-08 3.98883e-20
3.07022e-08 9.81663e-08 5.13597e-21
2.04174e-07 3.47399e-08 -4.08485e-20
-1.35571e-07 2.80073e-07 -1.52493e-20
3.60428e-07 -1.17798e-07 1.23193e-20
-1.99858e-08 4.36347e-08 7.90242e-21
3.82879e-08 3.89074e-08 -1.02096e-20
-2.27737e-08 -5.25092e-08 -2.09361e-20
-9.174e-09 -3.99857e-08 4.72333e-20
1.05945e-07 1.26931e-08 2.89038e-20
-7.73375e-08 3.61739e-07 -1.23789e-20
-1.7851e-08 1.10321e-08 5.28367e-21
5.28422e-08 7.83235e-08 5.23951e-21
-2.61526e-08 -3.71239e-07 -1.27146e-20
3.75539e-07 1.12757e-07 -2.39203e-21
2.55471e-08 -4.51487e-08 2.35348e-20
-5.8323e-08 -6.66231e-09 -2.88995e-20
-2.40137e-07 -9.63766e-08 3.03965e-20
1.18522e-08 1.26674e-08 -4.32389e-20
-3.81523e-07 -1.33424e-07 1.22669e-20
1.20331e-08 -1.26338e-08 -2.67691e-20
-3.70969e-08 -2.60792e-07 1.51385e-23
1.60923e-07 6.10777e-09 -4.36418e-20
-1.43204e-08 1.21885e-08 1.1127e-19
3.85403e-09 1.75658e-08 5.14422e-21
1.07771e-08 -4.71017e-08 2.66524e-21
1.86867e-08 -8.71938e-09 -2.41406e-21
3.2189e-10 1.89044e-08 3.70033e-20
1.63086e-08 -2.04055e-09 1.89497e-20
3.04754e-08 -4.49825e-08 -3.39469e-20
-7.81199e-08 -3.98422e-07 1.48591e-20
2.06321e-07 -1.58835e-07 -5.58159e-20
6.51146e-10 2.50917e-08 -5.34859e-20
-1.73899e-08 -3.13576e-09 1.81198e-20
-5.6367e-09 -1.94307e-08 2.09634e-20
-1.43311e-08 -1.01286e-08 -7.09337e-20
-1.92902e-07 2.41054e-07 -5.30071e-21
-2.21374e-10 -1.90966e-08 4.30349e-20
-2.41337e-07 3.78932e-07 4.97052e-21
-9.06267e-08 4.16686e-08 -1.76285e-22
1.27388e-08 1.37128e-08 -1.83562e-20
-1.64406e-08 -9.61437e-09 -2.44843e-20
1.17649e-07 2.83945e-07 3.28565e-20
6.78191e-08 6.04646e-08 -5.22828e-20
1.64717e-07 -5.43163e-08 2.64601e-21
9.2769e-09 -5.06574e-08 -1.57474e-20
-2.98997e-07 -2.7552e-07 3.47161e-20
-2.88191e-08 4.97762e-08 -1.07316e-20
7.47893e-08 3.98949e-08 -1.83952e-20
1.09392e-07 -3.76526e-08 2.10157e-20
4.72395e-08 -9.438e-08 2.87896e-20
1.87346e-07 -8.63916e-08 -5.10211e-20
1.24616e-07 -5.88208e-08 1.81373e-20
1.25103e-08 -1.03867e-08 2.875e-20
2.17354e-07 1.71925e-07 9.87163e-21
-3.14563e-08 -9.09243e-08 -2.11235e-20
-3.86045e-08 -3.30462e-08 -2.85069e-21
-6.32387e-09 -1.65691e-08 -3.16732e-20
8.688e-09 6.48599e-08 2.39216e-21
-2.90702e-07 2.08404e-08 2.52697e-21
-1.06202e-07 -2.775e-07 -2.54545e-20
-4.57094e-08 5.82643e-08 7.71198e-21
8.98973e-08 1.19818e-07 3.1022e-20
2.23719e-07 -1.58676e-07 -9.94409e-21
-3.27108e-07 -1.74889e-07 4.66151e-20
1.45497e-07 -2.36861e-07 -2.74342e-20
1.89443e-07 -2.33037e-07 -2.01343e-20
-5.57577e-08 5.51217e-09 4.43759e-20
-1.6631e-07 -2.40664e-07 -3.81293e-20
-2.91121e-07 -4.56242e-08 -1.32987e-22
-3.46978e-08 -2.65682e-07 -1.51743e-20
1.29505e-07 -2.67677e-07 2.73273e-21
2.71762e-09 -3.67443e-08 2.9141e-20
3.84831e-08 2.56282e-07 -5.04777e-21
-1.37113e-07 -2.39859e-07 -1.2615e-20
-1.28718e-08 -5.87936e-08 5.112e-21
-1.98177e-07 1.48366e-07 -2.57012e-20
-3.87874e-08 -1.26951e-08 5.28588e-20
-3.01989e-08 -2.07716e-08 5.579e-20
7.90471e-08 -4.05327e-08 3.12335e-20
-1.08585e-08 1.53658e-08 4.02548e-20
4.19994e-08 -5.30394e-08 -1.02282e-20
-2.46624e-07 -1.09681e-07 -4.98567e-21
-3.26362e-08 -4.39709e-08 1.28478e-20
3.41063e-08 4.66487e-08 -5.20343e-21
1.78322e-07 2.46156e-07 5.31171e-20
-6.30603e-08 -2.9075e-08 -2.65024e-20
-2.74349e-07 -6.17189e-09 7.46628e-21
-3.51121e-08 -3.25936e-08 -1.3147e-20
-1.98861e-09 -4.7174e-08 -1.59043e-20
3.43995e-08 1.73331e-08 -8.2418e-20
-3.96846e-08 3.91353e-08 1.05703e-20
-6.63306e-09 -6.94578e-08 1.56538e-20
-3.66251e-07 9.02127e-08 1.71767e-20
2.00729e-07 1.71249e-07 1.99838e-20
2.68191e-08 2.78927e-07 -5.04933e-21
-1.61647e-08 5.5453e-09 2.27971e-21
-5.39241e-08 1.67564e-09 -8.24044e-21
2.47538e-08 4.72668e-08 -1.54894e-20
-1.95701e-08 -4.82215e-09 -1.57927e-20
2.32755e-09 -1.67047e-08 -2.71616e-21
-1.07935e-08 7.35245e-08 -1.31431e-20
1.19379e-08 1.25982e-08 5.54072e-23
-1.36241e-07 3.01141e-08 -5.66134e-20
-1.38205e-07 1.50794e-07 -2.30205e-20
-1.49084e-08 1.3809e-08 1.36361e-22
-2.50068e-07 1.50915e-07 2.22431e-20
-6.39356e-09 2.1277e-08 6.03489e-20
6.74275e-08 -2.41406e-08 1.32419e-20
3.13456e-07 -2.88366e-08 3.77225e-20
-3.92393e-08 2.48278e-08 3.9743e-20
1.58828e-08 7.30835e-09 -2.73756e-21
4.08343e-08 -2.55724e-08 -2.39751e-20
-7.01042e-08 2.33506e-08 -1.57417e-20
-5.10272e-08 1.33633e-08 -5.35677e-21
1.79146e-08 -5.25365e-09 5.59022e-21
1.66029e-07 -1.00971e-07 -6.11863e-20
-6.52959e-08 4.16335e-08 -7.73739e-21
-1.95204e-07 -4.07053e-08 -2.54944e-20
-4.14371e-08 -2.18304e-08 4.18635e-20
1.58386e-08 -1.05391e-08 4.1925e-20
1.75477e-08 1.23535e-08 -2.09278e-20
-4.45468e-09 1.99614e-08 3.12195e-20
-1.81909e-09 -2.2523e-08 -2.46834e-22
-1.82858e-08 9.32653e-09 1.03029e-20
-2.04652e-08 -1.04634e-08 1.54893e-20
5.12751e-08 -1.93643e-08 -4.45037e-20
-1.87295e-08 -5.17275e-09 -7.92063e-21
-1.8689e-08 4.98281e-09 -1.57515e-20
-4.58795e-09 1.85799e-08 3.15639e-20
-4.9833e-09 -1.89873e-08 -2.66837e-20
1.23544e-08 -1.38208e-08 -2.53809e-21
1.18765e-08 1.3226e-08 -8.79391e-20
7.17669e-09 1.98143e-07 3.55177e-20
3.84089e-08 -3.17072e-08 1.05368e-20
8.96483e-09 -1.69122e-08 2.86233e-20
-1.49402e-07 5.51895e-09 1.04085e-20
1.41753e-08 -1.34283e-08 2.1309e-20
1.32352e-08 1.36367e-08 -2.90808e-20
2.03118e-08 -4.42558e-10 -2.60673e-21
6.85954e-08 1.94182e-07 6.87351e-20
-1.02787e-08 -1.68059e-08 -4.19975e-20
2.2231e-08 -5.08623e-08 -2.89289e-20
-1.66754e-07 -9.22627e-08 -7.88862e-21
-3.66018e-08 -2.37578e-08 1.02861e-20
-1.67368e-07 9.926e-08 -1.04601e-20
1.48311e-08 -1.51822e-08 -3.40029e-20
-7.11127e-09 1.5803e-08 2.09308e-20
-3.91387e-09 -1.91867e-07 -1.28964e-20
-6.28215e-08 -1.90042e-07 -2.80965e-20
2.88086e-07 2.74194e-07 3.97781e-20
3.08143e-07 -1.75008e-08 -1.74845e-20
-2.18148e-08 4.76738e-09 -2.52639e-21
-2.06097e-07 -3.64198e-07 3.00576e-20
4.91035e-08 8.41988e-08 2.35104e-20
-1.97503e-07 2.32619e-08 -1.37821e-22
1.41759e-07 3.96394e-08 -3.57644e-20
-1.9361e-08 -7.83177e-11 3.61106e-20
4.35648e-10 -2.0114e-08 -1.05672e-20
-1.74794e-09 -1.3735e-08 4.58873e-20
-1.71453e-08 -1.02195e-08 -3.16723e-20
-4.27322e-07 -1.61931e-08 7.25967e-21
1.34267e-07 -1.5186e-07 -3.55425e-20
9.12179e-09 1.76996e-08 2.87991e-20
4.66922e-09 -8.47365e-08 -1.33293e-20
-8.00928e-08 1.89671e-07 -6.61495e-20
1.65513e-09 2.12835e-08 2.39176e-21
1.43245e-07 -1.02509e-07 -2.31173e-20
-1.25624e-08 -5.50129e-09 -2.16539e-20
-1.21837e-07 -1.58349e-07 -4.58464e-20
1.67751e-08 8.51695e-09 7.92931e-21
3.96789e-08 3.83938e-08 -3.39925e-20
-2.82551e-08 -4.40139e-08 -1.60218e-20
1.73487e-08 -5.63444e-09 2.4177e-20
5.88177e-08 -4.10676e-08 -4.71182e-23
-3.48773e-09 3.27726e-08 -4.80045e-20
4.8406e-08 -8.15899e-08 3.94601e-20
4.4238e-07 2.22904e-08 -2.47106e-20
-3.74787e-07 9.91597e-08 3.91325e-20
3.13308e-08 2.18302e-08 -7.71696e-20
-4.64058e-08 -1.11714e-07 1.79941e-20
-7.05114e-08 -4.60061e-08 1.2591e-20
2.29646e-07 -2.30902e-09 -2.56248e-20
1.95828e-09 -4.3766e-08 -1.07746e-20
-5.73574e-08 -2.02302e-08 2.08447e-20
7.82631e-08 -1.86997e-07 -5.08093e-21
6.23727e-09 7.52689e-08 1.3038e-20
6.42323e-08 1.99189e-07 3.31576e-20
7.70426e-08 -4.06013e-08 3.64366e-20
-1.40616e-07 1.49676e-07 -8.19328e-20
1.29313e-07 1.59793e-07 7.86628e-20
-8.11072e-09 3.62094e-09 5.4778e-20
1.35e-09 3.46664e-08 -2.14415e-20
2.58941e-09 -1.57188e-08 -2.12834e-20
-1.24559e-08 -1.03023e-08 7.86726e-21
-4.29102e-08 3.40413e-08 -2.34587e-20
-1.97016e-07 -4.66732e-08 3.32114e-20
6.82715e-10 2.21086e-08 -4.29784e-20
-5.14953e-08 1.53486e-08 -7.8274e-21
1.39564e-07 -2.02268e-08 -2.82927e-20
-5.96988e-08 -1.93298e-07 -2.81102e-20
-1.17575e-07 1.87244e-07 3.03532e-20
-3.31514e-08 1.53248e-08 5.32917e-20
-1.57573e-07 -1.1149e-07 -1.05214e-20
3.5631e-08 -1.66956e-08 -2.62486e-20
-2.13654e-07 -1.0461e-08 7.56027e-21
1.04631e-07 -3.69217e-07 3.19982e-20
1.42896e-07 -1.50066e-07 -1.15195e-19
2.1858e-07 3.87545e-07 6.22514e-20
-2.05817e-09 4.67775e-08 3.41765e-20
1.87525e-08 -1.9464e-07 -3.05583e-20
-7.57666e-09 4.59099e-09 2.20468e-20
-1.01303e-07 -1.89025e-07 -5.52845e-23
3.3945e-08 -2.90774e-08 -5.53514e-20
-1.95447e-08 1.96888e-07 -3.84381e-20
4.74146e-08 -1.3896e-08 -1.04708e-20
1.07969e-07 1.92417e-07 3.32499e-20
1.08103e-07 -2.52005e-09 -1.30209e-20
1.97455e-07 -5.82615e-07 3.66273e-20
-4.1815e-08 -7.78346e-08 2.39386e-21
-1.74422e-07 7.6e-08 -1.81621e-20
-2.44129e-08 1.19756e-08 5.60802e-20
1.65584e-07 1.10889e-07 1.52581e-20
1.17992e-07 -6.5141e-08 -2.84105e-20
6.23456e-08 2.7375e-08 -7.55063e-21
-1.2743e-08 1.07842e-08 2.61451e-21
1.18378e-07 -1.82881e-07 -1.02421e-20
-1.262e-07 -1.57489e-07 -2.49143e-22
1.62817e-07 6.4218e-08 -4.12787e-20
4.13887e-08 -2.55691e-08 -2.37124e-20
7.61252e-08 -1.89201e-07 -5.87105e-20
8.94179e-08 -1.6937e-08 -2.63764e-21
-8.67794e-08 -3.46141e-08 -1.30781e-20
-3.76739e-09 -3.51848e-08 3.15789e-20
-1.98986e-07 2.76272e-08 5.35064e-20
2.09064e-08 1.74545e-07 4.87447e-20
1.36099e-07 3.17508e-08 7.82489e-21
-1.5462e-07 -6.92011e-08 4.10008e-20
-7.60435e-08 1.94967e-07 -2.81348e-20
-1.73837e-08 -1.7005e-07 2.67734e-21
4.49133e-08 2.19207e-08 -8.18351e-20
-2.91862e-08 8.2206e-08 -4.72382e-20
-1.39041e-07 9.97251e-08 -4.37462e-20
1.78588e-07 9.00834e-08 -1.24358e-20
-8.12596e-08 -2.5512e-08 -2.60098e-21
-1.97196e-08 -8.36714e-08 4.14821e-20
1.36468e-07 1.58643e-07 -7.91463e-21
-3.2033e-08 -1.45337e-08 -3.74565e-20
4.49009e-07 -3.22838e-07 -4.92632e-21
9.49928e-08 -6.64672e-08 3.38257e-20
7.76302e-08 3.8043e-07 4.98619e-21
1.00175e-07 -9.63199e-08 -3.87652e-20
-2.16813e-07 8.25692e-07 8.31789e-20
-2.18068e-07 -8.17649e-07 -1.89365e-20
5.35779e-07 7.04239e-07 3.00542e-20
5.29137e-07 -7.04048e-07 3.64499e-20
8.77025e-07 -3.45244e-10 1.37995e-20
-7.56041e-07 3.04188e-07 2.77598e-20
-7.43508e-07 -3.07493e-07 4.14639e-20
3.60972e-08 1.95661e-08 -6.31785e-20
2.31447e-08 1.12443e-08 -6.67696e-20
6.73133e-08 9.0571e-09 2.09902e-20
1.18856e-07 6.35213e-08 -5.17223e-20
3.526e-08 1.40457e-07 5.1474e-20
-1.27436e-07 -1.09491e-07 5.36382e-20
6.41389e-08 -5.91452e-08 -1.05022e-20
1.36929e-07 1.099e-07 1.27923e-20
-3.1676e-08 1.72881e-07 -5.91511e-20
2.24456e-08 -1.10311e-08 -2.86497e-21
3.22317e-08 -1.65901e-07 -1.54067e-20
4.20611e-08 2.83797e-08 -1.04588e-20
2.4704e-07 8.65365e-08 -2.78681e-20
5.5062e-09 1.77524e-08 4.22653e-20
9.5434e-08 3.12294e-08 -7.77878e-21
-1.18128e-07 6.53402e-08 -4.39217e-20
-1.61755e-07 5.59513e-08 -2.32308e-20
3.1986e-08 -2.19138e-08 -1.34422e-20
-1.03245e-07 -4.7771e-08 -3.05482e-21
-1.13452e-07 -6.72002e-08 2.05491e-20
-9.9496e-09 -1.13874e-07 -2.63009e-20
4.47514e-10 -1.30804e-07 3.0884e-20
-1.44039e-07 -6.22536e-09 -1.81244e-20
2.13826e-07 -3.32009e-08 -4.5706e-20
1.15317e-07 7.10697e-08 -1.79667e-20
-9.54113e-08 6.50898e-08 -1.55391e-20
-4.29979e-08 2.10323e-08 6.11608e-20
1.07638e-07 -9.64524e-08 -6.72117e-20
-8.08829e-08 1.25934e-07 -4.61703e-20
-9.96282e-08 -1.04946e-07 4.10457e-20
-9.4439e-09 1.37157e-07 -3.36011e-20
-2.05279e-08 1.15743e-07 1.28875e-20
3.37974e-09 -8.40088e-08 1.53478e-20
4.33598e-08 -1.40146e-07 -5.38132e-20
-7.08401e-08 -4.54614e-08 -2.62252e-20
9.81761e-08 -2.79934e-08 -3.61593e-20
2.36299e-10 1.36987e-07 2.81475e-20
-2.96949e-09 8.7501e-08 -6.25189e-20
-2.20037e-08 9.84435e-08 -4.16282e-20
1.61161e-07 -3.96616e-08 -3.82988e-20
-3.38081e-08 3.2307e-08 -2.1091e-20
3.65278e-08 1.37095e-07 3.88413e-20
-2.20409e-08 1.39098e-08 2.4069e-20
8.14306e-08 3.77606e-07 4.17015e-20
-3.98822e-08 2.15422e-08 -2.65526e-23
4.23162e-08 -2.20302e-08 5.15787e-21
1.21836e-08 1.16481e-07 -2.79733e-21
-1.36626e-07 3.24453e-08 2.41235e-21
-4.21346e-09 -5.91935e-08 3.3728e-20
5.65488e-09 -5.38786e-07 -1.94963e-20
1.63545e-08 9.8747e-08 -7.80913e-21
-1.02062e-07 9.71035e-08 -4.93618e-20
1.586e-07 5.89888e-07 5.62657e-20
7.58623e-09 5.00214e-09 -8.44657e-20
6.55398e-09 -4.77029e-09 -1.6593e-20
7.68234e-08 -5.99178e-08 2.08929e-20
-1.09084e-07 9.7669e-08 -5.39593e-20
-1.30919e-07 -3.86635e-08 -1.82459e-20
-1.34547e-07 -4.41873e-08 -2.84606e-20
-2.72235e-09 1.68176e-09 -8.43987e-21
-1.89082e-09 -9.35264e-10 -1.26964e-19
6.283e-08 1.27592e-08 -4.69182e-20
1.99488e-08 9.16903e-08 2.51156e-21
-2.30634e-09 9.11693e-08 -5.1643e-21
-4.51264e-07 -3.27822e-07 2.09578e-21
8.00483e-08 -1.2591e-07 -5.38644e-20
4.04673e-08 1.45518e-08 -1.28633e-20
-1.48498e-07 -1.59693e-08 -4.13284e-20
-9.38941e-08 1.24051e-07 -1.55976e-20
-1.21212e-07 5.69926e-08 -5.36185e-21
4.4306e-07 3.18325e-07 9.61283e-21
4.37732e-08 2.87901e-08 -5.80458e-20
-4.30994e-08 1.40653e-07 -2.32451e-20
-8.49264e-08 -7.27519e-08 2.55833e-20
2.11337e-08 -1.10773e-07 -4.69639e-20
-6.87461e-08 -1.30783e-07 2.43814e-21
-1.10144e-07 -7.54967e-08 3.83604e-20
7.54951e-08 -1.3389e-07 6.45809e-20
9.05534e-08 -1.24458e-07 -2.83463e-20
-2.87221e-08 -5.62188e-07 -7.63293e-21
2.31108e-07 -3.69669e-07 5.48607e-20
1.10333e-08 -1.34496e-07 -1.31334e-22
9.48271e-08 7.21978e-08 5.20301e-21
-8.51913e-08 -1.03422e-07 4.3768e-20
-7.39007e-08 1.37765e-07 -2.59819e-20
-4.54071e-08 1.35015e-07 -5.439e-20
9.88861e-08 1.02412e-07 -3.10944e-20
4.84885e-08 -1.26284e-07 2.83287e-20
-1.25442e-07 -3.5766e-07 4.99905e-21
2.82361e-09 4.33888e-08 -6.3749e-20
1.00127e-07 1.03036e-07 -1.81473e-20
-5.39515e-08 -2.65516e-08 3.93167e-20
-4.48238e-08 2.44548e-08 2.3692e-20
4.01616e-07 -1.75944e-07 -1.9676e-20
4.98438e-08 -8.23761e-08 -1.28737e-20
-4.7307e-08 -8.09357e-08 2.56203e-20
1.79128e-08 -1.55644e-09 -5.06102e-20
1.51382e-09 -6.77647e-09 -5.44626e-21
-5.02731e-09 -4.93473e-09 2.72789e-20
2.20695e-08 1.44906e-08 -3.99215e-20
-6.93267e-08 -1.30864e-07 -3.35731e-20
1.06646e-07 4.2763e-08 -3.13579e-20
-2.59726e-07 -2.85534e-07 -1.98108e-20
9.5003e-10 8.33881e-09 -1.92464e-20
9.78402e-10 1.55041e-09 4.13512e-20
1.92339e-09 -2.27095e-10 8.05008e-21
2.49257e-07 -4.9226e-07 3.84457e-20
-1.03413e-08 1.21687e-08 8.73725e-23
-2.3614e-09 1.47401e-08 -5.10347e-20
-1.07234e-07 3.81109e-08 7.58552e-21
-3.71435e-09 4.35174e-08 -3.98617e-20
-2.35678e-08 6.98475e-08 -4.95742e-20
4.85553e-08 2.05949e-09 -2.50514e-21
1.09679e-08 4.1966e-08 -1.58816e-20
-2.86959e-09 5.80328e-08 -2.63115e-20
8.32224e-08 4.52732e-08 -3.92055e-20
5.94792e-09 5.36275e-07 6.39835e-23
-7.74338e-08 7.32818e-08 -1.83548e-20
5.80384e-08 -3.90414e-08 -6.05031e-20
3.34872e-08 -3.06108e-08 -7.70695e-21
-5.50006e-07 -7.55152e-08 1.19423e-20
-1.56312e-08 6.20956e-09 3.2356e-20
-4.00451e-07 -4.73695e-07 4.72829e-21
7.24376e-09 1.9451e-08 -2.89846e-21
7.01709e-08 1.36281e-08 -2.3453e-20
2.09031e-07 -2.7124e-08 -5.35953e-20
-4.77655e-08 -7.84877e-08 -1.31971e-20
9.13183e-08 2.61787e-08 -4.70642e-20
4.57312e-10 -2.3215e-08 6.1166e-20
-5.14887e-08 5.9592e-08 -2.61273e-20
-1.96826e-08 -1.25021e-08 2.14689e-20
-4.64361e-08 9.43168e-08 -5.73341e-20
8.40788e-09 5.94993e-08 -4.21666e-20
1.36273e-08 9.98069e-09 -7.537e-20
1.35217e-08 -9.58722e-09 -2.71645e-20
-3.72823e-07 -1.01561e-07 1.71599e-20
4.10325e-08 1.52937e-08 -2.07176e-20
-4.94363e-08 9.57186e-07 4.31008e-20
-3.4249e-09 -9.83398e-07 2.19298e-21
4.84037e-07 8.28655e-07 8.14544e-20
-5.01611e-08 3.981e-08 -3.44195e-20
-2.56519e-07 5.16195e-07 9.73038e-21
4.86825e-07 -7.99822e-07 2.12199e-20
-8.04462e-08 -1.30204e-07 -1.56991e-20
7.39288e-07 6.47751e-07 2.64862e-20
8.66075e-09 -1.53663e-08 -1.07727e-20
-9.02884e-09 -1.55696e-08 3.74998e-20
7.7494e-07 -6.33322e-07 2.44392e-21
-4.74536e-08 9.33124e-08 -3.8967e-20
-4.86759e-07 -3.10004e-07 1.69297e-20
-4.10505e-07 -8.5556e-07 -1.22921e-20
-2.29908e-07 -5.289e-07 -2.5902e-21
-4.22009e-07 8.69802e-07 3.61086e-20
-9.9724e-08 5.89422e-07 2.68933e-20
-7.03776e-10 2.05849e-08 -8.67832e-23
-2.56036e-07 3.29634e-07 7.13396e-20
-2.45167e-07 -5.01737e-07 -1.93804e-20
9.53239e-07 1.66364e-07 -2.30654e-21
-7.44575e-08 6.33127e-08 -3.14598e-20
-1.73718e-09 4.17995e-08 -2.0106e-23
-4.61088e-07 3.33798e-07 -2.3209e-21
-8.2579e-08 4.40717e-08 -1.85971e-20
9.43866e-07 -1.47982e-07 -2.37714e-20
-6.30173e-08 4.23117e-08 -3.13588e-20
4.59218e-08 -9.49765e-08 -1.03491e-20
-7.34509e-07 -5.57889e-07 3.1095e-20
-2.4767e-07 5.30667e-07 4.8573e-20
-7.52313e-07 5.53796e-07 -2.61321e-21
2.19817e-07 4.90423e-07 6.51211e-20
-8.08511e-08 6.42755e-08 -8.30289e-23
-2.24058e-08 1.26833e-08 3.48872e-20
-1.21898e-09 -2.0126e-09 -5.51289e-20
3.67895e-10 -1.70137e-09 8.57358e-20
6.15346e-09 6.45221e-08 -4.46716e-20
-1.79455e-09 2.0144e-09 2.74254e-20
1.00722e-09 2.44301e-09 -1.10593e-22
1.66979e-09 -7.44604e-10 8.84799e-20
-9.58769e-10 7.63021e-09 -7.10543e-20
-1.69128e-07 3.68995e-07 -2.20607e-20
-1.27008e-08 9.0946e-09 8.17305e-21
2.18693e-08 -1.38007e-08 -2.12134e-20
2.1441e-08 -1.24278e-08 -1.62003e-20
6.18487e-08 2.41243e-08 -3.38549e-20
-5.70811e-10 -6.52995e-09 -1.37581e-20
-5.82462e-09 -2.96553e-09 8.29077e-21
2.14266e-08 1.25014e-08 -5.89052e-20
5.4664e-07 -1.05372e-07 -5.79831e-20
-7.07687e-08 -9.02034e-08 5.07543e-21
-4.78577e-07 3.33676e-07 2.68874e-21
-4.2844e-07 4.88658e-07 5.90404e-20
5.77518e-07 -2.08568e-07 -3.40944e-20
-2.73479e-09 -8.03528e-09 -1.63109e-20
-3.00765e-09 8.2548e-09 -2.16274e-20
-9.05435e-09 1.58627e-09 4.37526e-20
-5.96711e-09 6.03613e-09 7.37367e-20
-8.20521e-09 -1.77308e-09 1.07708e-20
1.47875e-09 1.95996e-09 -1.67403e-20
8.80363e-09 -2.1944e-09 1.06731e-20
3.68713e-09 -2.62052e-09 -8.41737e-21
-2.65194e-09 -1.85577e-09 -2.75559e-20
5.65399e-09 -5.7741e-09 -5.54662e-21
5.68564e-09 5.94652e-09 -6.2535e-20
-2.66821e-09 1.62469e-09 -3.57056e-20
2.82823e-09 -6.16877e-10 -1.07174e-19
4.71902e-09 2.63063e-09 -8.73288e-20
1.02781e-08 3.69927e-09 -8.67008e-20
SCALARS rr_necrosis float
LOOKUP_TABLE default
0
0
0
0
0
0
0
0
0
0
0
0
0
0
0
0
0
0
0
0
0
0
0
0
0
0
0
0
0
0
0
0
0
0
0
0
0
0
0
0
0
0
0
0
0
0
0
0
0
0
0
0
0
0
0
0
0
0
0
0
0
0
0
0
0
0
0
0
0
0
0
0
0
0
0
0
0
0
0
0
0
0
0
0
0
0
0
0
0
0
0
0
0
0
0
0
0
0
0
0
0
0
0
0
0
0
0
0
0
0
0
0
0
0
0
0
0
0
0
0
0
0
0
0
0
0
0
0
0
0
0
0
0
0
0
0
0
0
0
0
0
0
0
0
0
0
0
0
0
0
0
0
0
0
0
0
0
0
0
0
0
0
0
0
0
0
0
0
0
0
0
0
0
0
0
0
0
0
0
0
0
0
0
0
0
0
0
0
0
0
0
0
0
0
0
0
0
0
0
0
0
0
0
0
0
0
0
0
0
0
0
0
0
0
0
0
0
0
0
0
0
0
0
0
0
0
0
0
0
0
0
0
0
0
0
0
0
0
0
0
0
0
0
0
0
0
0
0
0
0
0
0
0
0
0
0
0
0
0
0
0
0
0
0
0
0
0
0
0
0
0
0
0
0
0
0
0
0
0
0
0
0
0
0
0
0
0
0
0
0
0
0
0
0
0
0
0
0
0
0
0
0
0
0
0
0
0
0
0
0
0
0
0
0
0
0
0
0
0
0
0
0
0
0
0
0
0
0
0
0
0
0
0
0
0
0
0
0
0
0
0
0
0
0
0
0
0
0
0
0
0
0
0
0
0
0
0
0
0
0
0
0
0
0
0
0
0
0
0
0
0
0
0
0
0
0
0
0
0
0
0
0
0
0
0
0
0
0
0
0
0
0
0
0
0
0
0
0
0
0
0
0
0
0
0
0
0
0
0
0
0
0
0
0
0
0
0
0
0
0
0
0
0
0
0
0
0
0
0
0
0
0
0
0
0
0
0
0
0
0
0
0
0
0
0
0
0
0
0
0
0
0
0
0
0
0
0
0
0
0
0
0
0
0
0
0
0
0
0
0
0
0
0
0
0
0
0
0
0
0
0
0
0
0
0
0
0
0
0
0
0
0
0
0
0
0
0
0
0
0
0
0
0
0
0
0
0
0
0
0
0
0
0
0
0
0
0
0
0
0
0
0
0
0
0
0
0
0
0
0
0
0
0
0
0
0
0
0
0
0
0
0
0
0
0
0
0
0
0
0
0
0
0
0
0
0
0
0
0
0
0
0
0
SCALARS rr_protein float
LOOKUP_TABLE default
1
1
1
1
1
1
1
1
1
1
1
1
1
1
1
1
1
1
1
1
1
1
1
1
1
1
1
1
1
1
1
1
1
1
1
1
1
1
1
1
1
1
1
1
1
1
1
1
1
1
1
1
1
1
1
1
1
1
1
1
1
1
1
1
1
1
1
1
1
1
1
1
1
1
1
1
1
1
1
1
1
1
1
1
1
1
1
1
1
1
1
1
1
1
1
1
1
1
1
1
1
1
1
1
1
1
1
1
1
1
1
1
1
1
1
1
1
1
1
1
1
1
1
1
1
1
1
1
1
1
1
1
1
1
1
1
1
1
1
1
1
1
1
1
1
1
1
1
1
1
1
1
1
1
1
1
1
1
1
1
1
1
1
1
1
1
1
1
1
1
1
1
1
1
1
1
1
1
1
1
1
1
1
1
1
1
1
1
1
1
1
1
1
1
1
1
1
1
1
1
1
1
1
1
1
1
1
1
1
1
1
1
1
1
1
1
1
1
1
1
1
1
1
1
1
1
1
1
1
1
1
1
1
1
1
1
1
1
1
1
1
1
1
1
1
1
1
1
1
1
1
1
1
1
1
1
1
1
1
1
1
1
1
1
1
1
1
1
1
1
1
1
1
1
1
1
1
1
1
1
1
1
1
1
1
1
1
1
1
1
1
1
1
1
1
1
1
1
1
1
1
1
1
1
1
1
1
1
1
1
1
1
1
1
1
1
1
1
1
1
1
1
1
1
1
1
1
1
1
1
1
1
1
1
1
1
1
1
1
1
1
1
1
1
1
1
1
1
1
1
1
1
1
1
1
1
1
1
1
1
1
1
1
1
1
1
1
1
1
1
1
1
1
1
1
1
1
1
1
1
1
1
1
1
1
1
1
1
1
1
1
1
1
1
1
1
1
1
1
1
1
1
1
1
1
1
1
1
1
1
1
1
1
1
1
1
1
1
1
1
1
1
1
1
1
1
1
1
1
1
1
1
1
1
1
1
1
1
1
1
1
1
1
1
1
1
1
1
1
1
1
1
1
1
1
1
1
1
1
1
1
1
1
1
1
1
1
1
1
1
1
1
1
1
1
1
1
1
1
1
1
1
1
1
1
1
1
1
1
1
1
1
1
1
1
1
1
1
1
1
1
1
1
1
1
1
1
1
1
1
1
1
1
1
1
1
1
1
1
1
1
1
1
1
1
1
1
1
1
1
1
1
1
1
1
1
1
1
1
1
1
1
1
1
1
1
1
1
1
1
1
1
1
1
1
1
1
1
1
1
1
1
1
SCALARS rr_(S_ext) float
LOOKUP_TABLE default
0.862458
0.862798
0.862771
0.86279
0.862902
0.86277
0.862456
0.862793
0.862743
0.8628
0.862454
0.862793
0.862786
0.862806
0.862861
0.862777
0.862817
0.862786
0.862724
0.862761
0.86276
0.863031
0.862756
0.862762
0.862761
0.862791
0.862518
0.862775
0.862627
0.862952
0.862785
0.862627
0.862515
0.862929
0.862943
0.862928
0.862954
0.862939
0.862785
0.862516
0.862625
0.862955
0.862954
0.862785
0.862541
0.862633
0.862733
0.862749
0.862772
0.862603
0.862617
0.862665
0.862893
0.862668
0.86289
0.862562
0.862944
0.862667
0.862943
0.862762
0.862814
0.86285
0.862547
0.862849
0.86285
0.862821
0.862815
0.862792
0.862759
0.862799
0.862892
0.862892
0.862626
0.862833
0.862773
0.862496
0.862872
0.862821
0.862791
0.86267
0.862601
0.862914
0.862832
0.862588
0.862641
0.86255
0.862775
0.862828
0.862541
0.863013
0.862666
0.863013
0.862873
0.862817
0.862671
0.862612
0.862603
0.862798
0.862872
0.862783
0.862707
0.862651
0.862587
0.862787
0.862796
0.862796
0.862837
0.86278
0.862587
0.8628
0.862763
0.862554
0.862572
0.862786
0.862794
0.86267
0.862946
0.862603
0.862945
0.86267
0.862717
0.862856
0.862796
0.862825
0.862804
0.862864
0.862931
0.862798
0.862603
0.86267
0.862891
0.862794
0.862829
0.862795
0.862652
0.862943
0.862584
0.862789
0.862831
0.862943
0.862655
0.862805
0.862725
0.862799
0.862601
0.862792
0.862799
0.862774
0.862771
0.862695
0.862747
0.862797
0.862625
0.862787
0.862799
0.862795
0.862812
0.86266
0.862661
0.862783
0.86275
0.862628
0.862553
0.862615
0.862658
0.862796
0.862659
0.862659
0.862626
0.862659
0.862873
0.862667
0.862616
0.862815
0.862668
0.862836
0.862873
0.862794
0.862896
0.862799
0.862628
0.862798
0.862797
0.862655
0.862828
0.862613
0.862825
0.86284
0.862877
0.862798
0.862829
0.862607
0.862667
0.862626
0.862795
0.862783
0.862785
0.862828
0.862796
0.86282
0.862797
0.86273
0.862674
0.862828
0.862629
0.862831
0.862822
0.862647
0.862855
0.862798
0.86286
0.86281
0.862795
0.862832
0.862695
0.862814
0.862678
0.86284
0.862803
0.862802
0.862797
0.8628
0.8628
0.8628
0.862803
0.862857
0.862856
0.862857
0.862858
0.862892
0.862891
0.862693
0.862803
0.862783
0.862748
0.862862
0.862863
0.862785
0.862674
0.862782
0.862798
0.862698
0.862855
0.862696
0.862834
0.862779
0.862698
0.862679
0.8626
0.862596
0.862832
0.862596
0.862781
0.862678
0.862727
0.862781
0.862802
0.862959
0.8628
0.862596
0.862677
0.862783
0.862793
0.862673
0.862801
0.862727
0.862958
0.862678
0.862804
0.862824
0.862785
0.86286
0.862828
0.862894
0.862784
0.862563
0.86255
0.862885
0.862759
0.862793
0.862698
0.862855
0.862815
0.862677
0.862818
0.862709
0.862801
0.86271
0.862675
0.862989
0.862877
0.86286
0.86286
0.862802
0.862713
0.862924
0.862822
0.862751
0.862713
0.862702
0.862884
0.862697
0.862875
0.862707
0.862542
0.862711
0.8626
0.86284
0.862697
0.862988
0.862706
0.862831
0.862693
0.862828
0.862705
0.862776
0.862546
0.862766
0.862697
0.86288
0.862694
0.86275
0.86283
0.862798
0.862705
0.862712
0.862725
0.862841
0.862711
0.862794
0.862776
0.862894
0.862712
0.862724
0.862757
0.862728
0.862708
0.862729
0.862852
0.862792
0.862725
0.862696
0.862803
0.862804
0.862709
0.862894
0.862442
0.862777
0.862601
0.862758
0.86222
0.862221
0.862222
0.862221
0.86222
0.862224
0.862226
0.862842
0.862916
0.862784
0.862748
0.862726
0.862728
0.862801
0.862725
0.862723
0.862917
0.862727
0.862859
0.862666
0.862851
0.86277
0.862748
0.862726
0.862887
0.862777
0.862751
0.862777
0.862751
0.862722
0.862669
0.862747
0.862773
0.862859
0.862731
0.862718
0.862729
0.862745
0.862772
0.862801
0.862728
0.8628
0.862767
0.862746
0.862794
0.862767
0.862725
0.862826
0.862755
0.862912
0.862543
0.862842
0.862853
0.862772
0.862757
0.862819
0.862448
0.86277
0.862754
0.862547
0.862989
0.862991
0.862774
0.862727
0.862759
0.862731
0.863052
0.86305
0.862791
0.862795
0.862793
0.862452
0.86272
0.862833
0.862748
0.862745
0.862746
0.862438
0.862826
0.862724
0.862775
0.862775
0.862744
0.86275
0.862744
0.862748
0.862518
0.8626
0.86275
0.862776
0.862755
0.862743
0.862753
0.862757
0.862755
0.862544
0.862864
0.862728
0.862818
0.862828
0.862542
0.862771
0.862767
0.862895
0.862981
0.86298
0.862876
0.86272
0.862774
0.862538
0.862973
0.863038
0.863038
0.862434
0.862938
0.862951
0.86277
0.862872
0.862784
0.862801
0.862827
0.862839
0.862794
0.862446
0.862779
0.862817
0.862832
0.862494
0.862939
0.862544
0.862828
0.862806
0.862702
0.862783
0.862793
0.862894
0.862796
0.862893
0.862774
0.862834
0.862946
0.86295
0.862541
0.862806
0.86245
0.86246
0.862438
0.862827
0.862447
0.862429
0.862743
0.862443
0.862915
0.862914
0.862451
0.862753
0.862522
0.862451
0.862512
0.862449
0.862512
0.86294
0.862526
0.862447
0.862449
0.862792
0.862846
0.862506
0.862792
0.862429
0.862802
0.862757
0.862446
0.862499
0.862439
0.862434
0.862767
0.86292
0.863029
0.863024
0.862807
0.863028
0.863027
0.863026
0.862995
0.862533
0.862943
0.86288
0.862921
0.862803
0.863005
0.863004
0.862929
0.862428
0.862753
0.862442
0.86254
0.862536
0.862968
0.862966
0.862965
0.862966
0.862967
0.863024
0.862969
0.863006
0.863034
0.862971
0.862972
0.863036
0.863025
0.863006
0.862964
SCALARS rr_(P_ext) float
LOOKUP_TABLE default
0.0153831
0.0153054
0.0153123
0.0153068
0.0152859
0.0153124
0.0153833
0.0153078
0.0153188
0.0153058
0.015378
0.0153078
0.0153094
0.0153047
0.0152931
0.0153111
0.0153019
0.0153086
0.0153222
0.0153142
0.0153153
0.0152593
0.0153152
0.0153141
0.0153143
0.0153073
0.0153672
0.0153114
0.0153434
0.0152749
0.0153096
0.0153432
0.0153683
0.0152796
0.0152773
0.0152797
0.0152741
0.0152783
0.0153097
0.0153681
0.0153436
0.0152738
0.0152739
0.0153096
0.0153608
0.0153423
0.0153206
0.0153175
0.0153121
0.0153482
0.0153454
0.0153355
0.015287
0.0153353
0.0152876
0.0153585
0.0152771
0.0153353
0.0152772
0.0153138
0.0153022
0.0152958
0.0153622
0.0152962
0.0152957
0.015302
0.015302
0.0153073
0.0153147
0.0153052
0.0152871
0.0152872
0.0153436
0.0152996
0.015312
0.0153716
0.0152917
0.0153021
0.0153073
0.0153337
0.0153498
0.0152835
0.015299
0.015352
0.0153412
0.01536
0.0153114
0.0153008
0.0153607
0.0152631
0.0153354
0.0152632
0.0152912
0.0153029
0.0153347
0.0153462
0.0153497
0.0153059
0.0152918
0.01531
0.0153267
0.0153393
0.0153521
0.0153079
0.0153065
0.0153064
0.015298
0.0153107
0.0153523
0.0153043
0.0153137
0.0153583
0.0153548
0.0153083
0.0153067
0.0153351
0.0152772
0.01535
0.0152774
0.0153348
0.0153239
0.0152939
0.0153055
0.0153006
0.0153037
0.0152924
0.0152799
0.0153059
0.0153497
0.0153347
0.0152871
0.015306
0.0152994
0.0153057
0.0153392
0.0152771
0.015354
0.0153088
0.0152989
0.0152771
0.0153383
0.0153056
0.0153228
0.0153057
0.0153504
0.0153071
0.0153067
0.0153121
0.0153124
0.015329
0.0153177
0.0153055
0.0153434
0.0153092
0.0153057
0.0153059
0.0153036
0.0153376
0.0153374
0.0153094
0.0153174
0.0153428
0.0153589
0.0153454
0.0153377
0.0153063
0.0153376
0.0153378
0.0153434
0.0153375
0.015291
0.0153353
0.0153455
0.0153029
0.0153351
0.0152983
0.0152911
0.0153078
0.0152867
0.0153063
0.0153433
0.015306
0.015306
0.0153382
0.0153006
0.0153461
0.0153006
0.0152979
0.0152907
0.0153059
0.0153005
0.0153489
0.0153352
0.0153433
0.0153058
0.0153089
0.0153085
0.0152994
0.0153056
0.0153023
0.0153054
0.0153213
0.0153332
0.0152995
0.0153432
0.015299
0.0153021
0.0153397
0.0152949
0.0153053
0.0152942
0.0153043
0.0153068
0.0152989
0.0153287
0.0153037
0.0153324
0.015298
0.0153039
0.0153039
0.0153048
0.0153044
0.0153044
0.0153045
0.0153052
0.0152936
0.0152938
0.0152936
0.0152935
0.0152875
0.0152874
0.0153293
0.015305
0.0153075
0.0153179
0.0152931
0.0152928
0.0153072
0.015333
0.0153077
0.0153059
0.0153284
0.0152947
0.0153288
0.0152987
0.015308
0.0153283
0.0153321
0.01535
0.0153494
0.0152989
0.0153515
0.0153102
0.0153325
0.0153218
0.0153078
0.015304
0.0152734
0.0153043
0.015352
0.0153324
0.0153075
0.0153078
0.0153334
0.0153041
0.0153224
0.0152735
0.0153323
0.0153037
0.015301
0.0153085
0.0152932
0.015301
0.015287
0.0153094
0.0153572
0.01536
0.0152892
0.0153151
0.0153078
0.0153287
0.0152946
0.015303
0.0153324
0.0153027
0.0153264
0.0153064
0.0153264
0.0153328
0.0152675
0.0152903
0.0152928
0.015293
0.0153052
0.0153258
0.0152804
0.0153013
0.0153171
0.0153255
0.015328
0.0152892
0.0153285
0.0152912
0.0153272
0.0153606
0.0153259
0.0153508
0.0152978
0.0153284
0.0152676
0.0153271
0.0152995
0.0153293
0.0153003
0.0153273
0.0153114
0.0153635
0.015313
0.0153286
0.0152895
0.015329
0.0153171
0.0153003
0.0153052
0.0153272
0.0153259
0.0153226
0.0152979
0.015326
0.0153078
0.0153114
0.0152872
0.0153259
0.015323
0.015316
0.0153222
0.0153267
0.015322
0.0152956
0.015308
0.0153227
0.0153288
0.0153058
0.0153057
0.0153263
0.0152873
0.0153807
0.0153116
0.0153499
0.0153156
0.0154219
0.0154218
0.0154213
0.0154215
0.0154212
0.015422
0.0154217
0.0152975
0.0152825
0.0153092
0.0153174
0.0153218
0.0153222
0.0153063
0.0153227
0.0153231
0.0152823
0.0153222
0.0152943
0.0153354
0.0152948
0.0153126
0.0153176
0.0153225
0.015289
0.0153117
0.015317
0.0153116
0.0153169
0.0153228
0.015334
0.0153176
0.0153123
0.0152941
0.0153211
0.0153235
0.0153214
0.0153181
0.0153126
0.0153062
0.0153215
0.0153064
0.0153132
0.0153179
0.0153076
0.015313
0.0153224
0.0153003
0.0153163
0.0152832
0.0153606
0.0152975
0.0152956
0.0153125
0.0153161
0.0153022
0.0153798
0.0153125
0.0153165
0.0153631
0.015268
0.0152678
0.0153117
0.0153219
0.0153155
0.015321
0.0152562
0.0152562
0.0153076
0.0153075
0.0153079
0.01538
0.0153231
0.0152992
0.0153179
0.0153185
0.0153179
0.0153812
0.0153007
0.0153223
0.0153119
0.0153119
0.0153186
0.0153171
0.0153186
0.015318
0.0153676
0.0153506
0.0153172
0.0153118
0.0153162
0.0153189
0.0153167
0.0153158
0.0153162
0.0153605
0.015293
0.0153215
0.0153024
0.0153003
0.015361
0.0153122
0.0153129
0.0152872
0.0152685
0.0152685
0.0152903
0.0153232
0.0153121
0.0153618
0.01527
0.015258
0.015258
0.0153821
0.0152783
0.0152749
0.0153129
0.0152915
0.0153093
0.0153053
0.0153001
0.0152982
0.0153078
0.01538
0.015311
0.015303
0.0152994
0.0153721
0.0152774
0.0153644
0.0152997
0.0153051
0.0153276
0.0153097
0.0153081
0.0152865
0.0153071
0.0152866
0.0153118
0.0152993
0.0152762
0.0152757
0.0153616
0.0153043
0.0153845
0.0153831
0.0153862
0.0153008
0.0153809
0.0153878
0.0153189
0.0153854
0.0152832
0.0152833
0.0153842
0.0153158
0.0153673
0.015385
0.0153688
0.0153853
0.0153688
0.0152779
0.0153644
0.0153805
0.0153844
0.0153084
0.0152965
0.01537
0.0153082
0.0153873
0.0153058
0.0153153
0.0153858
0.0153712
0.015387
0.015382
0.0153132
0.015282
0.0152593
0.0152603
0.0153045
0.0152595
0.0152596
0.01526
0.0152659
0.0153629
0.0152767
0.0152898
0.0152819
0.0153054
0.0152644
0.0152644
0.0152805
0.0153829
0.0153161
0.0153819
0.0153656
0.0153651
0.0152709
0.0152711
0.0152716
0.0152715
0.015271
0.0152607
0.0152715
0.0152643
0.0152592
0.0152708
0.0152707
0.0152589
0.0152604
0.0152641
0.0152721
SCALARS rr_(S) float
LOOKUP_TABLE default
0.793378
0.793556
0.793542
0.793551
0.793618
0.793541
0.793376
0.793554
0.793527
0.793557
0.793368
0.793554
0.79355
0.793561
0.793593
0.793545
0.793567
0.793549
0.793516
0.793536
0.793536
0.793695
0.793533
0.793537
0.793536
0.793552
0.793405
0.793544
0.793463
0.793648
0.79355
0.793463
0.793405
0.793634
0.793643
0.793633
0.793648
0.79364
0.79355
0.793405
0.793463
0.793649
0.793649
0.79355
0.793416
0.793467
0.793521
0.793531
0.793542
0.79345
0.793458
0.793485
0.793612
0.793486
0.793611
0.79343
0.793643
0.793486
0.793643
0.793536
0.793565
0.793587
0.793423
0.793587
0.793587
0.79357
0.793566
0.793553
0.793535
0.793556
0.793612
0.793612
0.793463
0.793578
0.793543
0.793393
0.793601
0.79357
0.793552
0.793486
0.793451
0.793625
0.793576
0.793443
0.793472
0.793422
0.793544
0.793575
0.793416
0.793686
0.793485
0.793686
0.793601
0.793568
0.793488
0.793455
0.793452
0.793556
0.7936
0.793549
0.793508
0.793478
0.793442
0.79355
0.793555
0.793555
0.793579
0.793548
0.793442
0.793557
0.793537
0.793424
0.793434
0.793549
0.793554
0.793488
0.793645
0.793452
0.793645
0.793488
0.793512
0.79359
0.793555
0.793572
0.793559
0.793595
0.793636
0.793557
0.793452
0.793487
0.793611
0.793553
0.793574
0.793554
0.793478
0.793643
0.793443
0.793552
0.793576
0.793643
0.79348
0.793562
0.793517
0.793557
0.793452
0.793553
0.793558
0.793544
0.793542
0.7935
0.793529
0.793555
0.793462
0.793551
0.793557
0.793553
0.793565
0.793483
0.793483
0.793548
0.793531
0.793464
0.793423
0.793457
0.793481
0.793555
0.793482
0.793483
0.793463
0.793482
0.793601
0.793486
0.793457
0.793567
0.793486
0.793578
0.793601
0.793555
0.793615
0.793557
0.793465
0.793556
0.793556
0.79348
0.793575
0.793456
0.793572
0.793581
0.793603
0.793556
0.793575
0.793454
0.793486
0.793463
0.793554
0.793548
0.793549
0.793574
0.793554
0.79357
0.793555
0.793519
0.793489
0.793574
0.793465
0.793575
0.793571
0.793475
0.79359
0.793556
0.793594
0.793564
0.793554
0.793576
0.793501
0.793566
0.793491
0.793581
0.793558
0.793558
0.793554
0.793556
0.793556
0.793556
0.79356
0.793591
0.79359
0.793591
0.793591
0.793613
0.793612
0.793499
0.793559
0.793546
0.79353
0.793594
0.793595
0.793548
0.793489
0.793545
0.793557
0.793502
0.79359
0.793501
0.793577
0.793544
0.793502
0.793492
0.79345
0.793446
0.793576
0.793449
0.793548
0.793491
0.793517
0.793545
0.793558
0.793652
0.793557
0.79345
0.79349
0.793546
0.793554
0.793488
0.793557
0.793518
0.793652
0.793491
0.793559
0.793572
0.793549
0.793593
0.793575
0.793613
0.793549
0.79343
0.793422
0.793609
0.793535
0.793554
0.793503
0.79359
0.793567
0.79349
0.793569
0.793508
0.793559
0.793509
0.793489
0.79367
0.793603
0.793593
0.793592
0.793559
0.793511
0.793631
0.793571
0.793531
0.793511
0.793505
0.793607
0.793502
0.793602
0.793508
0.793417
0.79351
0.793451
0.793581
0.793502
0.79367
0.793507
0.793576
0.793499
0.793574
0.793507
0.793545
0.793423
0.793538
0.793502
0.793605
0.7935
0.793531
0.793576
0.793556
0.793507
0.79351
0.793517
0.793582
0.79351
0.793555
0.793544
0.793614
0.793511
0.793516
0.793535
0.793519
0.793508
0.793519
0.793589
0.793553
0.793517
0.793501
0.79356
0.793561
0.793509
0.793613
0.793361
0.793546
0.79345
0.793535
0.793234
0.793235
0.793235
0.793234
0.793233
0.793238
0.793239
0.793582
0.793627
0.793548
0.79353
0.793517
0.793519
0.79356
0.793517
0.793516
0.793628
0.793518
0.793593
0.793485
0.793587
0.793541
0.79353
0.793518
0.79361
0.793546
0.793531
0.793546
0.793531
0.793515
0.793486
0.793529
0.793544
0.793593
0.79352
0.793513
0.793519
0.793528
0.793543
0.793559
0.793518
0.793559
0.79354
0.793528
0.793555
0.79354
0.793517
0.793573
0.793533
0.793624
0.793417
0.793582
0.793589
0.793543
0.793535
0.793569
0.793365
0.793541
0.793533
0.793424
0.793671
0.793672
0.793544
0.793517
0.793536
0.79352
0.79371
0.793708
0.793553
0.793556
0.793554
0.793368
0.793514
0.793577
0.79353
0.793528
0.793528
0.793359
0.793573
0.793516
0.793545
0.793545
0.793527
0.793531
0.793527
0.79353
0.793406
0.793451
0.79353
0.793545
0.793533
0.793527
0.793532
0.793535
0.793533
0.793418
0.793595
0.793518
0.793568
0.793574
0.793417
0.793542
0.793539
0.793614
0.793665
0.793664
0.793603
0.793514
0.793544
0.793415
0.79366
0.7937
0.793699
0.793357
0.793639
0.793647
0.793542
0.7936
0.793548
0.793558
0.793573
0.793581
0.793556
0.793364
0.793546
0.793568
0.793577
0.793392
0.79364
0.793424
0.793574
0.793562
0.793505
0.793548
0.793555
0.793613
0.793556
0.793613
0.793544
0.793578
0.793645
0.793648
0.793417
0.793561
0.793373
0.79338
0.793366
0.793574
0.793365
0.79336
0.793527
0.793369
0.793626
0.793625
0.793374
0.793531
0.79341
0.793375
0.793403
0.793374
0.793403
0.793641
0.793409
0.793366
0.793372
0.793554
0.793585
0.7934
0.793554
0.79336
0.793559
0.793534
0.793372
0.793396
0.793367
0.793356
0.79354
0.793629
0.793694
0.793691
0.793562
0.793693
0.793693
0.793692
0.793674
0.793413
0.793642
0.793605
0.79363
0.79356
0.79368
0.793679
0.793635
0.793353
0.793532
0.793363
0.793422
0.793417
0.793657
0.793656
0.793655
0.793656
0.793656
0.793692
0.793659
0.793681
0.793698
0.79366
0.79366
0.793699
0.793692
0.793681
0.793656
SCALARS rr_(P) float
LOOKUP_TABLE default
0.0177169
0.0176725
0.0176765
0.0176733
0.0176613
0.0176766
0.017717
0.0176739
0.0176802
0.0176727
0.0177138
0.0176739
0.0176748
0.0176721
0.0176653
0.0176759
0.0176705
0.0176744
0.0176822
0.0176776
0.0176782
0.0176457
0.0176781
0.0176775
0.0176777
0.0176736
0.0177078
0.017676
0.0176943
0.0176548
0.017675
0.0176942
0.0177084
0.0176575
0.0176562
0.0176575
0.0176542
0.0176568
0.017675
0.0177083
0.0176944
0.0176541
0.0176541
0.017675
0.0177041
0.0176937
0.0176813
0.0176795
0.0176764
0.017697
0.0176954
0.0176898
0.0176618
0.0176897
0.0176622
0.0177029
0.0176561
0.0176897
0.0176562
0.0176774
0.0176706
0.017667
0.017705
0.0176672
0.0176669
0.0176706
0.0176705
0.0176736
0.0176779
0.0176723
0.0176619
0.017662
0.0176944
0.0176692
0.0176764
0.0177102
0.0176646
0.0176706
0.0176736
0.0176887
0.0176979
0.0176599
0.0176688
0.0176992
0.017693
0.0177037
0.017676
0.0176699
0.0177041
0.0176478
0.0176897
0.0176479
0.0176643
0.0176711
0.0176894
0.0176958
0.0176979
0.0176728
0.0176647
0.0176752
0.0176848
0.017692
0.0176992
0.0176739
0.0176732
0.0176731
0.0176682
0.0176756
0.0176993
0.0176718
0.0176773
0.0177027
0.0177007
0.0176742
0.0176733
0.0176896
0.0176562
0.0176981
0.0176563
0.0176894
0.0176832
0.0176658
0.0176725
0.0176697
0.0176715
0.0176649
0.0176577
0.0176728
0.0176979
0.0176893
0.0176619
0.0176728
0.017669
0.0176726
0.0176919
0.0176561
0.0177003
0.0176745
0.0176687
0.0176561
0.0176914
0.0176726
0.0176825
0.0176727
0.0176983
0.0176735
0.0176733
0.0176764
0.0176766
0.0176861
0.0176796
0.0176725
0.0176942
0.0176748
0.0176727
0.0176728
0.0176715
0.017691
0.0176909
0.0176748
0.0176794
0.0176939
0.0177031
0.0176954
0.017691
0.017673
0.017691
0.0176911
0.0176942
0.0176909
0.0176642
0.0176897
0.0176955
0.0176711
0.0176896
0.0176684
0.0176642
0.0176739
0.0176617
0.017673
0.0176942
0.0176729
0.0176729
0.0176913
0.0176698
0.0176958
0.0176698
0.0176682
0.017664
0.0176728
0.0176697
0.0176974
0.0176896
0.0176942
0.0176727
0.0176745
0.0176743
0.017669
0.0176726
0.0176707
0.0176725
0.0176817
0.0176884
0.0176691
0.0176942
0.0176688
0.0176706
0.0176922
0.0176664
0.0176724
0.017666
0.0176719
0.0176733
0.0176687
0.0176859
0.0176716
0.017688
0.0176682
0.0176715
0.0176716
0.017672
0.0176719
0.0176718
0.0176719
0.0176724
0.0176656
0.0176658
0.0176656
0.0176656
0.0176621
0.0176621
0.0176862
0.0176723
0.0176736
0.0176797
0.0176653
0.0176652
0.0176735
0.0176883
0.0176738
0.0176728
0.0176857
0.0176663
0.0176859
0.0176686
0.0176739
0.0176856
0.0176878
0.017698
0.0176976
0.0176687
0.0176989
0.0176753
0.017688
0.0176819
0.0176738
0.0176716
0.0176539
0.0176718
0.0176993
0.017688
0.0176736
0.0176739
0.0176885
0.0176717
0.0176823
0.0176539
0.0176879
0.0176714
0.01767
0.0176743
0.0176654
0.01767
0.0176619
0.0176749
0.0177021
0.0177037
0.0176631
0.0176781
0.0176739
0.0176859
0.0176663
0.0176711
0.017688
0.017671
0.0176846
0.0176731
0.0176846
0.0176882
0.0176504
0.0176637
0.0176652
0.0176653
0.0176724
0.0176843
0.017658
0.0176702
0.0176793
0.0176841
0.0176855
0.0176631
0.0176858
0.0176643
0.0176851
0.017704
0.0176843
0.0176985
0.0176681
0.0176857
0.0176505
0.017685
0.0176691
0.0176862
0.0176695
0.0176851
0.017676
0.0177058
0.0176769
0.0176859
0.0176633
0.0176861
0.0176792
0.0176696
0.0176724
0.0176851
0.0176843
0.0176824
0.0176682
0.0176844
0.0176739
0.017676
0.017662
0.0176843
0.0176826
0.0176786
0.0176822
0.0176848
0.0176821
0.0176668
0.017674
0.0176825
0.0176859
0.0176728
0.0176727
0.0176845
0.017662
0.0177153
0.0176761
0.017698
0.0176784
0.0177385
0.0177385
0.0177382
0.0177383
0.0177381
0.0177386
0.0177385
0.0176679
0.0176592
0.0176747
0.0176794
0.0176819
0.0176822
0.0176731
0.0176825
0.0176827
0.0176591
0.0176822
0.0176661
0.0176897
0.0176663
0.0176767
0.0176795
0.0176824
0.017663
0.0176762
0.0176792
0.0176761
0.0176792
0.0176825
0.0176889
0.0176795
0.0176765
0.017666
0.0176815
0.0176829
0.0176817
0.0176798
0.0176767
0.017673
0.0176818
0.0176731
0.017677
0.0176797
0.0176738
0.0176769
0.0176823
0.0176696
0.0176788
0.0176596
0.017704
0.017668
0.0176668
0.0176766
0.0176787
0.0176707
0.0177148
0.0176766
0.0176789
0.0177055
0.0176507
0.0176506
0.0176761
0.017682
0.0176784
0.0176815
0.0176439
0.0176439
0.0176738
0.0176738
0.017674
0.017715
0.0176827
0.0176689
0.0176797
0.0176801
0.0176797
0.0177156
0.0176698
0.0176822
0.0176763
0.0176763
0.0176802
0.0176793
0.0176802
0.0176798
0.017708
0.0176984
0.0176793
0.0176762
0.0176788
0.0176803
0.0176791
0.0176785
0.0176788
0.017704
0.0176653
0.0176818
0.0176708
0.0176696
0.0177042
0.0176764
0.0176768
0.017662
0.0176509
0.017651
0.0176637
0.0176828
0.0176764
0.0177047
0.0176518
0.0176449
0.0176449
0.0177161
0.0176568
0.0176547
0.0176768
0.0176645
0.0176748
0.0176724
0.0176694
0.0176684
0.0176739
0.0177149
0.0176758
0.0176711
0.017669
0.0177105
0.0176562
0.0177063
0.0176692
0.0176723
0.0176853
0.017675
0.0176741
0.0176615
0.0176735
0.0176616
0.0176762
0.017669
0.0176555
0.0176552
0.0177046
0.0176718
0.0177177
0.0177169
0.0177186
0.0176699
0.0177155
0.0177195
0.0176803
0.0177182
0.0176597
0.0176597
0.0177175
0.0176785
0.0177079
0.017718
0.0177087
0.0177181
0.0177087
0.0176565
0.0177062
0.0177153
0.0177176
0.0176743
0.0176674
0.0177094
0.0176742
0.0177192
0.0176727
0.0176782
0.0177184
0.01771
0.0177191
0.0177161
0.017677
0.0176589
0.0176457
0.0176462
0.017672
0.0176458
0.0176458
0.017646
0.0176495
0.0177053
0.0176558
0.0176634
0.0176589
0.0176725
0.0176486
0.0176486
0.0176581
0.0177165
0.0176787
0.0177161
0.017707
0.0177066
0.0176524
0.0176525
0.0176528
0.0176527
0.0176524
0.0176464
0.0176527
0.0176485
0.0176456
0.0176523
0.0176522
0.0176454
0.0176463
0.0176484
0.017653
SCALARS rr_(T) float
LOOKUP_TABLE default
0.0500336
0.0500611
0.0500585
0.0500603
0.0500718
0.0500584
0.0500335
0.0500604
0.050056
0.0500611
0.0500344
0.0500604
0.0500597
0.0500617
0.0500677
0.0500588
0.0500631
0.0500599
0.0500546
0.0500576
0.0500574
0.0500871
0.0500573
0.0500578
0.0500576
0.0500605
0.0500386
0.050059
0.0500468
0.050078
0.0500596
0.0500469
0.0500383
0.0500755
0.0500765
0.0500754
0.0500784
0.0500759
0.0500596
0.0500384
0.0500468
0.0500786
0.0500785
0.0500595
0.0500406
0.0500473
0.0500552
0.0500564
0.0500587
0.0500451
0.0500462
0.0500498
0.0500712
0.0500498
0.0500708
0.0500417
0.0500766
0.0500498
0.0500766
0.0500578
0.0500629
0.0500661
0.0500406
0.050066
0.0500662
0.0500634
0.050063
0.0500605
0.0500575
0.0500612
0.0500711
0.050071
0.0500468
0.0500646
0.0500585
0.050037
0.0500686
0.0500633
0.0500605
0.0500503
0.0500447
0.050073
0.0500646
0.0500438
0.0500478
0.050041
0.050059
0.0500641
0.0500406
0.0500852
0.0500498
0.0500852
0.0500689
0.0500631
0.05005
0.0500458
0.0500448
0.0500609
0.0500685
0.0500594
0.050053
0.0500484
0.0500438
0.05006
0.0500609
0.0500606
0.0500653
0.0500592
0.0500438
0.0500616
0.0500579
0.0500415
0.0500428
0.0500599
0.0500605
0.0500499
0.0500767
0.0500447
0.0500766
0.05005
0.050054
0.0500672
0.0500611
0.0500637
0.0500619
0.0500682
0.0500752
0.0500609
0.0500448
0.0500501
0.0500712
0.0500608
0.0500643
0.0500609
0.0500485
0.0500767
0.0500433
0.0500601
0.0500646
0.0500767
0.0500488
0.0500616
0.0500545
0.0500613
0.0500446
0.0500605
0.0500613
0.0500588
0.0500583
0.0500521
0.0500565
0.0500611
0.0500468
0.0500597
0.0500612
0.0500608
0.0500623
0.0500491
0.0500491
0.0500595
0.0500565
0.0500471
0.0500413
0.0500461
0.050049
0.0500607
0.050049
0.050049
0.0500469
0.0500491
0.050069
0.0500498
0.0500461
0.0500625
0.0500499
0.0500652
0.0500689
0.0500607
0.0500712
0.0500612
0.0500469
0.0500608
0.0500608
0.0500488
0.0500641
0.0500459
0.0500637
0.0500653
0.0500692
0.0500609
0.0500641
0.0500451
0.0500499
0.0500469
0.0500609
0.0500596
0.0500599
0.0500643
0.050061
0.0500632
0.0500611
0.0500549
0.0500505
0.0500642
0.050047
0.0500645
0.0500634
0.0500483
0.0500671
0.0500612
0.0500673
0.0500622
0.0500608
0.0500646
0.0500522
0.0500626
0.0500508
0.0500653
0.0500618
0.0500618
0.0500613
0.0500615
0.0500615
0.0500614
0.0500616
0.0500673
0.0500672
0.0500674
0.0500674
0.050071
0.050071
0.050052
0.0500616
0.0500599
0.0500562
0.0500677
0.0500679
0.05006
0.0500506
0.0500597
0.0500609
0.0500523
0.0500671
0.0500522
0.0500647
0.0500596
0.0500524
0.0500509
0.0500447
0.0500447
0.0500645
0.0500442
0.0500592
0.0500508
0.0500548
0.0500597
0.0500617
0.0500789
0.0500616
0.0500441
0.0500508
0.0500598
0.0500606
0.0500504
0.0500617
0.0500547
0.0500789
0.0500508
0.0500619
0.0500636
0.0500598
0.0500676
0.050064
0.0500712
0.0500595
0.0500421
0.050041
0.0500701
0.0500573
0.0500606
0.0500522
0.0500672
0.0500625
0.0500508
0.050063
0.0500531
0.0500614
0.0500531
0.0500507
0.0500824
0.0500693
0.0500678
0.0500678
0.0500615
0.0500533
0.050075
0.0500633
0.0500567
0.0500534
0.0500525
0.05007
0.0500523
0.050069
0.0500528
0.0500407
0.0500533
0.0500445
0.0500655
0.0500523
0.0500823
0.0500528
0.0500646
0.050052
0.050064
0.0500527
0.0500588
0.0500403
0.0500581
0.0500522
0.0500699
0.0500521
0.0500568
0.0500642
0.0500612
0.0500528
0.0500533
0.0500546
0.0500654
0.0500532
0.0500605
0.050059
0.0500711
0.0500533
0.0500544
0.0500572
0.0500547
0.050053
0.0500548
0.0500667
0.0500604
0.0500545
0.0500522
0.0500615
0.0500616
0.0500531
0.050071
0.0500334
0.0500591
0.0500447
0.0500573
0.0500177
0.0500178
0.050018
0.0500179
0.0500179
0.0500178
0.0500179
0.0500656
0.0500739
0.0500597
0.0500566
0.0500548
0.0500547
0.0500614
0.0500546
0.0500544
0.050074
0.0500547
0.0500672
0.0500498
0.0500666
0.0500585
0.0500565
0.0500546
0.0500702
0.050059
0.0500567
0.050059
0.0500568
0.0500543
0.0500502
0.0500566
0.0500587
0.0500673
0.0500551
0.050054
0.0500549
0.0500563
0.0500586
0.0500614
0.0500549
0.0500614
0.0500582
0.0500564
0.0500607
0.0500582
0.0500546
0.0500639
0.050057
0.0500734
0.0500407
0.0500655
0.0500668
0.0500586
0.050057
0.0500632
0.0500338
0.0500585
0.0500569
0.0500404
0.0500822
0.0500824
0.050059
0.0500547
0.0500573
0.0500551
0.0500891
0.050089
0.0500603
0.0500607
0.0500607
0.0500339
0.0500543
0.0500644
0.0500563
0.050056
0.0500563
0.0500332
0.050064
0.0500546
0.0500588
0.0500589
0.050056
0.0500567
0.050056
0.0500563
0.0500385
0.0500445
0.0500566
0.050059
0.0500569
0.0500558
0.0500568
0.0500572
0.050057
0.0500407
0.050068
0.0500549
0.050063
0.0500641
0.0500406
0.0500584
0.0500581
0.0500711
0.0500818
0.0500818
0.0500695
0.0500542
0.0500589
0.0500403
0.0500809
0.0500878
0.0500878
0.0500329
0.0500759
0.0500781
0.0500585
0.0500687
0.0500596
0.0500613
0.050064
0.0500653
0.0500607
0.0500337
0.050059
0.0500628
0.0500644
0.0500368
0.0500767
0.0500401
0.0500641
0.0500616
0.0500527
0.0500594
0.0500605
0.0500715
0.0500607
0.0500715
0.0500586
0.0500646
0.0500775
0.0500778
0.0500404
0.0500619
0.0500332
0.0500338
0.0500324
0.0500639
0.0500335
0.0500318
0.0500559
0.0500328
0.0500732
0.0500731
0.0500333
0.050057
0.0500387
0.0500331
0.0500381
0.050033
0.0500381
0.0500763
0.0500394
0.0500336
0.0500332
0.0500603
0.050066
0.0500376
0.0500605
0.0500319
0.0500615
0.0500572
0.0500327
0.0500372
0.0500323
0.0500329
0.0500582
0.0500739
0.050087
0.0500865
0.0500621
0.0500869
0.0500869
0.0500867
0.0500833
0.0500399
0.0500771
0.0500698
0.0500742
0.0500617
0.0500843
0.0500843
0.0500748
0.0500326
0.0500569
0.0500332
0.0500397
0.0500397
0.0500803
0.0500802
0.0500799
0.05008
0.0500803
0.0500863
0.0500801
0.0500844
0.0500873
0.0500806
0.0500806
0.0500875
0.0500864
0.0500845
0.0500799
SCALARS rr_tsim float
LOOKUP_TABLE default
130
130
130
130
130
130
130
130
130
130
130
130
130
130
130
130
130
130
130
130
130
130
130
130
130
130
130
130
130
130
130
130
130
130
130
130
130
130
130
130
130
130
130
130
130
130
130
130
130
130
130
130
130
130
130
130
130
130
130
130
130
130
130
130
130
130
130
130
130
130
130
130
130
130
130
130
130
130
130
130
130
130
130
130
130
130
130
130
130
130
130
130
130
130
130
130
130
130
130
130
130
130
130
130
130
130
130
130
130
130
130
130
130
130
130
130
130
130
130
130
130
130
130
130
130
130
130
130
130
130
130
130
130
130
130
130
130
130
130
130
130
130
130
130
130
130
130
130
130
130
130
130
130
130
130
130
130
130
130
130
130
130
130
130
130
130
130
130
130
130
130
130
130
130
130
130
130
130
130
130
130
130
130
130
130
130
130
130
130
130
130
130
130
130
130
130
130
130
130
130
130
130
130
130
130
130
130
130
130
130
130
130
130
130
130
130
130
130
130
130
130
130
130
130
130
130
130
130
130
130
130
130
130
130
130
130
130
130
130
130
130
130
130
130
130
130
130
130
130
130
130
130
130
130
130
130
130
130
130
130
130
130
130
130
130
130
130
130
130
130
130
130
130
130
130
130
130
130
130
130
130
130
130
130
130
130
130
130
130
130
130
130
130
130
130
130
130
130
130
130
130
130
130
130
130
130
130
130
130
130
130
130
130
130
130
130
130
130
130
130
130
130
130
130
130
130
130
130
130
130
130
130
130
130
130
130
130
130
130
130
130
130
130
130
130
130
130
130
130
130
130
130
130
130
130
130
130
130
130
130
130
130
130
130
130
130
130
130
130
130
130
130
130
130
130
130
130
130
130
130
130
130
130
130
130
130
130
130
130
130
130
130
130
130
130
130
130
130
130
130
130
130
130
130
130
130
130
130
130
130
130
130
130
130
130
130
130
130
130
130
130
130
130
130
130
130
130
130
130
130
130
130
130
130
130
130
130
130
130
130
130
130
130
130
130
130
130
130
130
130
130
130
130
130
130
130
130
130
130
130
130
130
130
130
130
130
130
130
130
130
130
130
130
130
130
130
130
130
130
130
130
130
130
130
130
130
130
130
130
130
130
130
130
130
130
130
130
130
130
130
130
130
130
130
130
130
130
130
130
130
130
130
130
130
130
130
130
130
130
130
130
130
130
130
130
130
130
130
130
130
130
130
130
130
130
130
130
130
130
130
130
130
130
130
130
130
130
130
130
130
130
130
130
130
130
130
130
130
130
130
130
130
130
SCALARS rr_Vext float
LOOKUP_TABLE default
0.18136
0.449131
0.356055
0.468118
0.250495
0.377835
0.179276
0.465097
0.395114
0.504575
0.165391
0.466517
0.409833
0.435021
0.516143
0.424872
0.36905
0.414191
0.365538
0.360534
0.405116
0.0765111
0.415077
0.383021
0.347112
0.403479
0.155012
0.35284
0.267417
0.33925
0.361976
0.276489
0.171522
0.252904
0.24925
0.253455
0.330129
0.249493
0.361546
0.192838
0.224724
0.291053
0.291063
0.397279
0.216888
0.244124
0.344618
0.35019
0.330085
0.303765
0.312858
0.24524
0.401523
0.315212
0.369419
0.157756
0.266181
0.317521
0.266153
0.393192
0.470937
0.46488
0.153277
0.327647
0.445321
0.417381
0.455662
0.391912
0.357992
0.515566
0.43556
0.430796
0.277658
0.33875
0.353978
0.176428
0.372681
0.413484
0.395176
0.271137
0.240494
0.28351
0.52754
0.240254
0.327765
0.119293
0.407587
0.344615
0.229709
0.0374831
0.273097
0.040761
0.316362
0.299317
0.258663
0.232986
0.220911
0.442938
0.372916
0.351862
0.29354
0.277774
0.230481
0.418583
0.426145
0.383839
0.340632
0.340854
0.244632
0.512528
0.326032
0.164041
0.220059
0.457887
0.429726
0.304487
0.308634
0.183511
0.320038
0.303371
0.26699
0.502656
0.511819
0.442047
0.484534
0.384957
0.220817
0.478218
0.200081
0.262283
0.227506
0.456403
0.449031
0.448257
0.288942
0.187539
0.190641
0.327445
0.404475
0.187461
0.241545
0.387296
0.287974
0.472766
0.223279
0.385196
0.349737
0.336133
0.214793
0.26955
0.304304
0.440634
0.24803
0.397418
0.461997
0.469251
0.307861
0.249012
0.24766
0.401143
0.333858
0.246121
0.160078
0.239708
0.24047
0.430963
0.252352
0.255104
0.274624
0.245943
0.386349
0.258187
0.226062
0.297719
0.272816
0.340311
0.382123
0.361139
0.313981
0.360851
0.266571
0.418253
0.44886
0.241618
0.442307
0.239443
0.436802
0.402743
0.378971
0.379421
0.446234
0.200777
0.266932
0.24602
0.447417
0.439028
0.407206
0.447901
0.45296
0.381871
0.466577
0.307721
0.274114
0.512739
0.285551
0.465961
0.369967
0.226658
0.286346
0.461733
0.38904
0.350313
0.450063
0.445263
0.278863
0.284226
0.267547
0.395459
0.433426
0.4981
0.478097
0.520379
0.471566
0.515296
0.432062
0.457208
0.460657
0.434361
0.456363
0.422924
0.41664
0.282415
0.389417
0.454303
0.312126
0.470279
0.432162
0.492668
0.288251
0.468285
0.448685
0.284505
0.406919
0.282473
0.455245
0.411297
0.29626
0.277682
0.235556
0.271101
0.45578
0.197504
0.347026
0.276532
0.313908
0.46868
0.455556
0.14779
0.457112
0.236434
0.261768
0.466278
0.379033
0.264589
0.522191
0.291235
0.147781
0.267728
0.406406
0.50893
0.382696
0.457761
0.425162
0.226618
0.216735
0.175981
0.20143
0.308138
0.229079
0.371987
0.227528
0.406398
0.287627
0.268105
0.323958
0.293527
0.398528
0.281491
0.287601
0.136371
0.303575
0.437816
0.438064
0.391531
0.28112
0.19236
0.545886
0.360494
0.298322
0.274295
0.284979
0.282733
0.358847
0.278096
0.192061
0.274796
0.183498
0.351072
0.279581
0.127092
0.263726
0.321342
0.279319
0.443676
0.290714
0.381474
0.138316
0.305667
0.287018
0.261627
0.269322
0.321997
0.308727
0.321051
0.266568
0.271168
0.293864
0.403607
0.2761
0.399029
0.358793
0.2908
0.286478
0.290127
0.323378
0.289917
0.270121
0.308534
0.333034
0.387872
0.290173
0.286358
0.425149
0.419255
0.276216
0.290839
0.11737
0.342068
0.227681
0.319685
0.126305
0.131124
0.117234
0.11913
0.126412
0.133077
0.137187
0.365823
0.275206
0.269667
0.305539
0.296211
0.292412
0.314714
0.285998
0.292391
0.310826
0.291318
0.368793
0.261067
0.378838
0.289107
0.277583
0.2916
0.322769
0.328998
0.3047
0.351054
0.326035
0.300394
0.213978
0.303864
0.298866
0.328285
0.305313
0.288523
0.27504
0.304068
0.319096
0.436167
0.28331
0.424007
0.438666
0.298869
0.422869
0.32248
0.255681
0.356798
0.307322
0.229507
0.185272
0.353353
0.377143
0.313437
0.259546
0.317017
0.138205
0.309868
0.289517
0.14057
0.059749
0.0653758
0.268655
0.283298
0.331361
0.316591
0.031131
0.0325287
0.318184
0.321546
0.304246
0.103725
0.26473
0.315907
0.315646
0.272079
0.240285
0.107864
0.464472
0.284949
0.352165
0.357676
0.255166
0.323449
0.249479
0.275484
0.12974
0.199383
0.32381
0.327754
0.280329
0.293567
0.303662
0.320509
0.306413
0.143962
0.275782
0.301357
0.290888
0.437493
0.143859
0.233735
0.240575
0.234525
0.155626
0.15563
0.267702
0.20851
0.301877
0.153857
0.185527
0.0614169
0.0614144
0.112311
0.199635
0.134972
0.257003
0.284541
0.29781
0.337005
0.307421
0.285235
0.222219
0.127172
0.278053
0.290584
0.282441
0.144131
0.147646
0.10463
0.281951
0.285974
0.224183
0.258253
0.238715
0.223793
0.292915
0.223759
0.257207
0.251389
0.158048
0.195242
0.16531
0.310649
0.112707
0.118919
0.11594
0.294537
0.107691
0.104733
0.200919
0.0979327
0.243157
0.243511
0.10066
0.255448
0.113723
0.110989
0.127156
0.105859
0.105724
0.174206
0.126242
0.112775
0.106278
0.235813
0.272661
0.118745
0.260319
0.0960773
0.264791
0.208175
0.100552
0.0864358
0.0948702
0.126461
0.225554
0.192181
0.0824428
0.0914076
0.253859
0.0775862
0.0775829
0.087872
0.0979625
0.0995859
0.127335
0.207534
0.193796
0.253771
0.0775246
0.0775213
0.229254
0.0843472
0.178716
0.0765196
0.0783421
0.103272
0.198597
0.205597
0.218908
0.200661
0.198581
0.0438926
0.320383
0.055754
0.054342
0.25901
0.25724
0.0563347
0.0390573
0.0548047
0.238561
SCALARS rr_Vli float
LOOKUP_TABLE default
0.396488
0.903302
0.721407
0.942908
0.493005
0.765668
0.392035
0.937675
0.806271
1.01512
0.359836
0.940547
0.827706
0.874158
1.02413
0.859733
0.739398
0.835919
0.7488
0.732057
0.823484
0.146196
0.843742
0.77763
0.704891
0.813144
0.33335
0.71426
0.56061
0.659803
0.731229
0.57953
0.369273
0.494394
0.485906
0.495508
0.641459
0.486897
0.730485
0.415066
0.471212
0.565331
0.565391
0.802518
0.463324
0.511149
0.704665
0.713575
0.668684
0.640145
0.657317
0.509711
0.791284
0.654957
0.728501
0.336095
0.518809
0.659759
0.518793
0.79805
0.943869
0.925034
0.327841
0.652221
0.886014
0.836199
0.913004
0.789777
0.727293
1.03671
0.85851
0.849155
0.582212
0.676855
0.716972
0.381183
0.738162
0.828443
0.796425
0.562482
0.507625
0.55645
1.05351
0.508334
0.685387
0.25458
0.825079
0.68949
0.490662
0.0719436
0.567531
0.0782463
0.626353
0.600262
0.53711
0.489904
0.466218
0.891218
0.73871
0.711152
0.60422
0.579675
0.487751
0.844114
0.858085
0.772718
0.679549
0.689383
0.517761
1.02965
0.661681
0.349479
0.467061
0.923826
0.86544
0.632494
0.601615
0.387412
0.624003
0.629994
0.547962
0.998316
1.02948
0.884282
0.972861
0.763256
0.431751
0.962241
0.422254
0.544649
0.448454
0.918484
0.897114
0.901827
0.602902
0.365538
0.404183
0.660935
0.807736
0.365415
0.50354
0.778937
0.590244
0.951064
0.471533
0.776069
0.704326
0.680958
0.435249
0.55627
0.62025
0.886312
0.519984
0.802501
0.929446
0.944267
0.617856
0.518659
0.515715
0.810201
0.680209
0.515661
0.34124
0.50364
0.50093
0.867519
0.525647
0.531445
0.575698
0.512238
0.764771
0.536476
0.475017
0.597028
0.566761
0.679103
0.756455
0.728162
0.618514
0.726376
0.558762
0.84164
0.903309
0.503624
0.884786
0.50341
0.873811
0.803287
0.749919
0.763393
0.892546
0.423346
0.554572
0.515693
0.900214
0.886305
0.821715
0.894908
0.911201
0.765274
0.938421
0.629677
0.568295
1.02454
0.598474
0.930556
0.741281
0.473242
0.569201
0.928578
0.772731
0.703609
0.90644
0.889141
0.575332
0.570474
0.554202
0.788786
0.870382
1.00029
0.961021
1.04559
0.947456
1.03539
0.868716
0.907701
0.914773
0.862348
0.905936
0.833933
0.821519
0.583007
0.782798
0.915912
0.636241
0.933125
0.857214
0.993029
0.597478
0.944374
0.90276
0.586739
0.808805
0.582777
0.90886
0.82973
0.610883
0.574983
0.497307
0.572064
0.910106
0.417616
0.701485
0.572848
0.642715
0.945262
0.914972
0.286928
0.918299
0.500199
0.542261
0.940106
0.764205
0.548651
1.04888
0.596679
0.286928
0.554503
0.815982
1.01856
0.772238
0.90847
0.850827
0.446602
0.437755
0.374436
0.429885
0.608686
0.465562
0.749996
0.469387
0.807672
0.57682
0.555343
0.64955
0.603998
0.802281
0.579181
0.596023
0.26302
0.600445
0.868514
0.869134
0.787213
0.578065
0.376389
1.09286
0.734304
0.613262
0.565369
0.56296
0.583126
0.710463
0.57268
0.410198
0.56517
0.387693
0.700129
0.576602
0.24515
0.54308
0.642117
0.576622
0.887245
0.5988
0.772178
0.296223
0.619806
0.592065
0.517043
0.55582
0.655882
0.617317
0.645553
0.549013
0.55765
0.6022
0.80499
0.567873
0.80451
0.726246
0.573157
0.589131
0.594779
0.657846
0.593798
0.555997
0.631811
0.66255
0.782184
0.594654
0.590813
0.855292
0.843312
0.568303
0.57328
0.256088
0.692605
0.480629
0.650107
0.287607
0.298551
0.266804
0.271172
0.287683
0.303057
0.312312
0.729347
0.539725
0.544568
0.622607
0.606504
0.598936
0.633523
0.586134
0.599487
0.609472
0.596715
0.732662
0.542548
0.753111
0.586007
0.565702
0.597468
0.637469
0.666116
0.620595
0.710719
0.664
0.615745
0.444042
0.6193
0.605575
0.652007
0.62464
0.591871
0.562874
0.620021
0.646724
0.877922
0.57986
0.853552
0.889743
0.60928
0.852433
0.653932
0.523843
0.713547
0.625428
0.450403
0.395667
0.704472
0.750317
0.635204
0.528051
0.635256
0.301237
0.628024
0.589268
0.300913
0.115299
0.126126
0.544007
0.5801
0.67374
0.647665
0.0592775
0.061939
0.6414
0.64809
0.613485
0.226114
0.542807
0.631015
0.64342
0.555017
0.48988
0.23547
0.929288
0.583736
0.713236
0.724387
0.520585
0.658851
0.508992
0.56165
0.279102
0.421178
0.659635
0.663712
0.570436
0.599127
0.618259
0.651896
0.623526
0.307429
0.547099
0.616835
0.583018
0.874906
0.307369
0.473536
0.487756
0.462242
0.300516
0.300536
0.529556
0.427595
0.611539
0.329007
0.358877
0.117176
0.117176
0.245399
0.389621
0.262495
0.521053
0.563542
0.601415
0.67765
0.61466
0.569072
0.448038
0.277251
0.562549
0.582803
0.56425
0.311558
0.287925
0.224285
0.563455
0.574853
0.461944
0.52175
0.481456
0.440838
0.590097
0.4408
0.520825
0.50215
0.307812
0.380028
0.353395
0.623985
0.246786
0.25998
0.254334
0.589286
0.234982
0.230139
0.410011
0.214645
0.477123
0.477844
0.220335
0.519613
0.244575
0.243123
0.273902
0.231958
0.22774
0.339831
0.270698
0.245997
0.232678
0.475751
0.543005
0.256117
0.52511
0.211012
0.532692
0.423221
0.220455
0.186664
0.208255
0.27632
0.457469
0.376609
0.157552
0.174883
0.509989
0.148307
0.148306
0.168049
0.188629
0.213206
0.248114
0.410275
0.379762
0.510343
0.149005
0.149003
0.448513
0.184462
0.363612
0.167149
0.168151
0.221554
0.38455
0.398196
0.424215
0.38878
0.384541
0.0840104
0.620733
0.107163
0.103829
0.501446
0.497967
0.107596
0.074733
0.105301
0.462544
SCALARS rr_S_ext' float
LOOKUP_TABLE default
-0.00105873
-0.00241715
-0.00193009
-0.00252303
-0.00131992
-0.0020485
-0.00104683
-0.00250901
-0.00215677
-0.00271635
-0.000960955
-0.00251669
-0.00221466
-0.00233923
-0.00274133
-0.00230025
-0.00197874
-0.00223666
-0.00200284
-0.00195848
-0.00220303
-0.000391665
-0.0022572
-0.0020804
-0.0018858
-0.00217579
-0.000890513
-0.00191101
-0.00149861
-0.00176693
-0.00195651
-0.00154919
-0.000986452
-0.00132382
-0.00130119
-0.0013268
-0.00171784
-0.00130381
-0.00195451
-0.00110879
-0.00125963
-0.00151398
-0.00151414
-0.00214726
-0.00123793
-0.00136644
-0.00188488
-0.00190888
-0.00178904
-0.00171099
-0.00175702
-0.00136285
-0.00211842
-0.00175122
-0.00195031
-0.000898073
-0.0013893
-0.00176406
-0.00138926
-0.00213505
-0.00252591
-0.00247594
-0.000875929
-0.00174572
-0.00237151
-0.00223781
-0.00244332
-0.00211328
-0.00194571
-0.00277414
-0.00229838
-0.00227334
-0.00155635
-0.00181149
-0.00191824
-0.00101817
-0.00197598
-0.00221705
-0.00213106
-0.00150401
-0.00135674
-0.00148987
-0.00281957
-0.00135855
-0.00183229
-0.000680223
-0.0022075
-0.00184525
-0.00131098
-0.000192719
-0.00151745
-0.000209602
-0.00167669
-0.00160636
-0.00143615
-0.00130949
-0.00124608
-0.0023848
-0.00197744
-0.00190277
-0.00161594
-0.00154977
-0.00130353
-0.00225863
-0.0022961
-0.00206768
-0.00181876
-0.00184449
-0.00138373
-0.0027553
-0.00177022
-0.000933828
-0.00124814
-0.00247189
-0.00231577
-0.00169117
-0.00161104
-0.00103545
-0.00167099
-0.0016845
-0.00146558
-0.00267218
-0.00275477
-0.00236656
-0.00260336
-0.00204308
-0.00115609
-0.00257484
-0.00112857
-0.0014563
-0.00120058
-0.00245773
-0.00240097
-0.00241318
-0.00161187
-0.000978861
-0.00108015
-0.00176846
-0.00216178
-0.00097853
-0.00134625
-0.00208438
-0.00157872
-0.00254495
-0.00126026
-0.0020766
-0.00188466
-0.00182188
-0.00116448
-0.0014876
-0.00165921
-0.00237167
-0.00139001
-0.00214723
-0.0024871
-0.00252673
-0.00165342
-0.00138671
-0.00137885
-0.00216781
-0.00181963
-0.00137847
-0.000911798
-0.00134624
-0.0013393
-0.00232136
-0.00140539
-0.00142089
-0.00153895
-0.00136954
-0.00204722
-0.00143442
-0.00126973
-0.00159771
-0.00151541
-0.00181756
-0.00202496
-0.00194839
-0.0016559
-0.00194368
-0.00149368
-0.00225213
-0.00241714
-0.00134648
-0.00236793
-0.00134561
-0.00233854
-0.00214995
-0.00200749
-0.00204275
-0.0023887
-0.00113152
-0.00148281
-0.00137854
-0.00240886
-0.00237146
-0.00219866
-0.00239506
-0.00243826
-0.00204799
-0.00251111
-0.00168427
-0.00151958
-0.002742
-0.00159984
-0.0024905
-0.00198379
-0.0012652
-0.00152356
-0.00248478
-0.00206838
-0.00188287
-0.00242548
-0.00237966
-0.00153859
-0.00152662
-0.00148193
-0.00211114
-0.00232912
-0.00267675
-0.0025716
-0.00279794
-0.00253534
-0.00277065
-0.00232463
-0.00242966
-0.00244857
-0.00230826
-0.00242494
-0.00223257
-0.00219933
-0.00155909
-0.00209472
-0.00245072
-0.00170199
-0.00249774
-0.00229456
-0.00265708
-0.00159762
-0.00252686
-0.00241568
-0.00156911
-0.0021649
-0.0015585
-0.00243245
-0.00222009
-0.00163369
-0.00153752
-0.00132916
-0.00152897
-0.00243577
-0.00111612
-0.0018769
-0.00153179
-0.00171911
-0.00252923
-0.00244843
-0.000768416
-0.00245732
-0.00133682
-0.00145
-0.00251545
-0.00204483
-0.00146705
-0.00280677
-0.00159595
-0.000768416
-0.00148274
-0.00218355
-0.00272591
-0.00206628
-0.00243173
-0.00227702
-0.00119564
-0.00117128
-0.00100055
-0.00114863
-0.00162948
-0.0012455
-0.00200682
-0.00125527
-0.00216187
-0.00154363
-0.00148498
-0.00173827
-0.00161536
-0.0021468
-0.001549
-0.00159374
-0.000704493
-0.00160737
-0.0023248
-0.00232645
-0.00210653
-0.00154604
-0.00100782
-0.00292471
-0.00196434
-0.00164018
-0.00151199
-0.00150707
-0.00155945
-0.00190184
-0.00153158
-0.001096
-0.00151153
-0.00103617
-0.00187386
-0.001542
-0.000656625
-0.00145241
-0.00171851
-0.00154202
-0.00237451
-0.00160142
-0.00206597
-0.00079143
-0.00165823
-0.00158335
-0.00138413
-0.00148639
-0.00175456
-0.00165212
-0.00172744
-0.00146827
-0.00149143
-0.00161071
-0.00215451
-0.00151876
-0.00215268
-0.00194308
-0.00153445
-0.00157563
-0.00159085
-0.00175987
-0.00158826
-0.00148698
-0.00168994
-0.00177338
-0.00209293
-0.00159053
-0.00157999
-0.00228869
-0.00225664
-0.0015199
-0.00153478
-0.000683842
-0.00185306
-0.00128459
-0.00173918
-0.000767076
-0.000796267
-0.000711602
-0.000723249
-0.000767288
-0.000808284
-0.000832977
-0.00195207
-0.0014451
-0.00145708
-0.00166552
-0.00162225
-0.00160201
-0.00169522
-0.00156774
-0.00160344
-0.00163185
-0.00159606
-0.00196111
-0.00145065
-0.0020158
-0.00156781
-0.0015133
-0.00159807
-0.00170655
-0.0017822
-0.00166016
-0.00190154
-0.00177628
-0.00164693
-0.00118731
-0.00165667
-0.00162019
-0.00174524
-0.0016708
-0.00158304
-0.00150558
-0.00165858
-0.00173027
-0.00234921
-0.001551
-0.00228399
-0.0023804
-0.00162986
-0.00228092
-0.00174953
-0.00140114
-0.00190965
-0.00167313
-0.00120593
-0.00105717
-0.0018855
-0.0020083
-0.00169945
-0.00141264
-0.00170004
-0.000804427
-0.00168023
-0.00157639
-0.00080397
-0.000308822
-0.000337826
-0.00145548
-0.00155163
-0.00180241
-0.00173239
-0.000158819
-0.00016595
-0.00171624
-0.00173415
-0.00164154
-0.000603818
-0.00145183
-0.00168882
-0.00172119
-0.00148468
-0.00131046
-0.000628773
-0.002487
-0.00156134
-0.00190825
-0.00193808
-0.00139257
-0.0017625
-0.00136156
-0.00150245
-0.000745592
-0.00112567
-0.00176459
-0.00177575
-0.00152602
-0.00160266
-0.00165393
-0.00174396
-0.00166804
-0.000821415
-0.00146446
-0.0016499
-0.00156024
-0.00234149
-0.000821244
-0.00126692
-0.00130495
-0.00123751
-0.000804898
-0.000804952
-0.00141759
-0.00114367
-0.00163615
-0.000879037
-0.000961174
-0.000313931
-0.00031393
-0.000655271
-0.00104332
-0.000702955
-0.00139403
-0.00150854
-0.00160918
-0.00181334
-0.001645
-0.00152308
-0.00119885
-0.000740371
-0.00150513
-0.00155964
-0.00151013
-0.000832183
-0.000771011
-0.000599218
-0.00150798
-0.00153828
-0.0012354
-0.00139601
-0.00128826
-0.00118021
-0.00157899
-0.00118011
-0.00139346
-0.00134393
-0.000824286
-0.00101769
-0.000944207
-0.00166978
-0.000658959
-0.000694222
-0.000679077
-0.00157708
-0.000627483
-0.000614444
-0.00109678
-0.000573119
-0.00127748
-0.00127941
-0.000588334
-0.00139006
-0.000653363
-0.000649173
-0.000731674
-0.000619356
-0.00060836
-0.000910005
-0.000723197
-0.000656903
-0.000621289
-0.00127298
-0.00145337
-0.000684141
-0.00140506
-0.000563385
-0.00142543
-0.00113221
-0.000588631
-0.000498599
-0.000556037
-0.000737835
-0.00122391
-0.00100839
-0.000422085
-0.000468503
-0.00136473
-0.000397316
-0.000397312
-0.000450199
-0.000505254
-0.000569625
-0.000664417
-0.0010983
-0.00101683
-0.00136564
-0.000399135
-0.000399132
-0.00120096
-0.000492543
-0.000972727
-0.000446334
-0.000449231
-0.000591906
-0.00102991
-0.00106645
-0.00113612
-0.00104123
-0.00102988
-0.000225058
-0.00166245
-0.000287056
-0.000278161
-0.00134299
-0.00133367
-0.000288257
-0.000200206
-0.00028207
-0.00123876
SCALARS rr_P_ext' float
LOOKUP_TABLE default
0.000144646
0.000334313
0.000266667
0.000348884
0.00018311
0.00028302
0.000143014
0.000346896
0.000297683
0.000375679
0.000131388
0.000347958
0.000306124
0.000323574
0.000379875
0.000317867
0.000273826
0.000309198
0.000276285
0.000270507
0.000304235
5.45562e-05
0.000311719
0.000287352
0.000260463
0.000300844
0.00012197
0.000264065
0.000206037
0.00024553
0.000270431
0.000212997
0.000135087
0.000183826
0.00018075
0.000184238
0.00023874
0.000181088
0.000270149
0.000151845
0.000173175
0.000210418
0.000210438
0.000296798
0.000169726
0.000187899
0.00026008
0.000263522
0.000247185
0.000235056
0.000241488
0.000187607
0.000293833
0.000241079
0.00027049
0.000123178
0.000192996
0.000242846
0.000192987
0.000294912
0.000349528
0.000342959
0.000120069
0.000241797
0.000328498
0.000309677
0.000338114
0.000292202
0.000268722
0.000383701
0.000318787
0.000315312
0.000213968
0.000250776
0.000265042
0.000139356
0.000273882
0.000306801
0.000294658
0.000207097
0.000186344
0.000206766
0.000390362
0.000186527
0.000252005
9.32751e-05
0.000305035
0.000255401
0.000179744
2.68285e-05
0.000208894
2.91781e-05
0.000232413
0.000222264
0.000197723
0.000179957
0.000171149
0.000329818
0.00027408
0.000262985
0.000222759
0.000213211
0.000178968
0.00031227
0.000317517
0.000285939
0.000251839
0.000254905
0.000189976
0.000381146
0.000244522
0.000128083
0.000171289
0.00034173
0.000320229
0.000232822
0.000223796
0.000142211
0.000232115
0.000231913
0.000202118
0.000370243
0.000381006
0.000327565
0.000360158
0.000283146
0.00016053
0.0003561
0.00015501
0.000200497
0.000166521
0.000339898
0.000332387
0.00033375
0.000221759
0.000135979
0.000148258
0.000244468
0.000299294
0.000135932
0.000185241
0.000288286
0.000217762
0.000351976
0.00017308
0.000287141
0.000260616
0.000251721
0.000160886
0.000204992
0.000229046
0.000328019
0.000191105
0.00029681
0.000343973
0.000349444
0.00022875
0.000190831
0.000189756
0.000299647
0.000251205
0.000189537
0.00012505
0.000185029
0.000184304
0.000321023
0.0001934
0.000195529
0.000211584
0.00018847
0.000283783
0.000197468
0.00017451
0.000221068
0.000208622
0.000251662
0.000280694
0.000269382
0.000229692
0.000268795
0.000205363
0.000311465
0.000334282
0.000185276
0.000327753
0.000184923
0.000323685
0.000297706
0.000278287
0.000282515
0.000330633
0.000155435
0.000204133
0.000189533
0.000333148
0.000327818
0.00030395
0.000331567
0.000337224
0.000283397
0.000347309
0.000232375
0.000209259
0.000379591
0.000219963
0.000344801
0.000274521
0.000174049
0.000211068
0.000343672
0.000286577
0.000260465
0.000335397
0.000329461
0.000212026
0.000211205
0.0002041
0.00029233
0.000322211
0.0003703
0.000355708
0.000387036
0.000350714
0.00038326
0.000321529
0.000336658
0.000339268
0.000319837
0.000336009
0.000309642
0.000305034
0.000214832
0.00028974
0.000338845
0.000234949
0.00034612
0.000317979
0.000367389
0.000220013
0.000349357
0.000334091
0.000216244
0.000299921
0.00021477
0.00033678
0.000306929
0.000225149
0.000211767
0.00018255
0.000210009
0.000337231
0.000153256
0.000259403
0.000210965
0.000237163
0.00034968
0.000338709
0.000106804
0.000339928
0.000183545
0.000199701
0.000347792
0.000282718
0.00020202
0.000388276
0.000220152
0.000106803
0.000204215
0.000302081
0.000377277
0.000285649
0.000336964
0.000315153
0.00016584
0.0001619
0.000137261
0.000157504
0.000225941
0.000172007
0.000277461
0.000172984
0.000299507
0.000213583
0.000204521
0.000240522
0.000222689
0.00029688
0.000213542
0.000219484
9.80071e-05
0.000222835
0.000322166
0.000322388
0.000291363
0.000213153
0.000139929
0.000404775
0.000271194
0.000226142
0.000208388
0.000208967
0.00021491
0.000263623
0.000211115
0.000150271
0.000208391
0.000142295
0.000259481
0.000212507
9.13467e-05
0.000200204
0.000237903
0.000212479
0.000328681
0.000220736
0.00028548
0.000108465
0.00022908
0.000218198
0.000191909
0.000204824
0.000242231
0.00022869
0.000238929
0.000202386
0.000205622
0.00022218
0.000298338
0.000209386
0.00029763
0.0002685
0.00021283
0.00021723
0.000219428
0.000243009
0.0002191
0.000204981
0.000233133
0.000245651
0.00028936
0.000219395
0.00021773
0.000316531
0.000312105
0.000209533
0.000212873
9.34582e-05
0.00025605
0.000176431
0.000240164
0.000104141
0.000108106
9.66182e-05
9.81966e-05
0.00010418
0.000109733
0.000113092
0.000270322
0.000200578
0.00020141
0.000229927
0.0002238
0.000220994
0.000234433
0.00021625
0.00022116
0.000226504
0.000220173
0.000271708
0.000199697
0.000279261
0.000216602
0.000208908
0.00022044
0.000236632
0.000246258
0.000229202
0.000262751
0.000245236
0.000227168
0.00016348
0.000228699
0.000223848
0.000241808
0.000230523
0.000218331
0.000207718
0.000228946
0.000239049
0.000324878
0.000213982
0.000315853
0.000328834
0.000224989
0.000315367
0.000241691
0.000193278
0.000264331
0.000231019
0.000167364
0.000144949
0.000261103
0.000278191
0.000234794
0.000195059
0.000235252
0.000109955
0.000232136
0.000217657
0.000110191
4.29593e-05
4.69955e-05
0.000201111
0.000214054
0.000248901
0.000239023
2.21328e-05
2.31265e-05
0.000237293
0.000239774
0.000226955
8.25325e-05
0.000200248
0.000233804
0.000237599
0.000204929
0.000180896
8.59257e-05
0.000344228
0.00021538
0.000263665
0.000267788
0.000192212
0.000243327
0.000187931
0.000207398
0.000102115
0.00015459
0.000243614
0.000245362
0.000210709
0.000221199
0.000228353
0.000240818
0.000230319
0.000112625
0.000202939
0.000227624
0.000215899
0.000324108
0.000112593
0.000175044
0.000180278
0.000171644
0.000111958
0.000111964
0.000196523
0.000157741
0.000226061
0.000120501
0.000133663
4.37373e-05
4.37368e-05
8.95343e-05
0.000144907
9.76821e-05
0.000192586
0.000209095
0.000222434
0.000250808
0.000227708
0.000210894
0.000165752
0.000101196
0.000207996
0.000215796
0.000209061
0.000113891
0.000107099
8.2111e-05
0.000208755
0.000212773
0.000170275
0.000192956
0.000178105
0.000163711
0.000218336
0.000163695
0.000192541
0.000186056
0.00011452
0.000141401
0.00012944
0.000230987
9.00066e-05
9.48456e-05
9.27286e-05
0.000218284
8.57548e-05
8.38815e-05
0.000151379
7.82704e-05
0.000177297
0.000177564
8.03642e-05
0.000191948
8.94871e-05
8.86642e-05
0.000100189
8.45878e-05
8.33032e-05
0.000126399
9.9097e-05
8.978e-05
8.48632e-05
0.000175986
0.000201293
9.36616e-05
0.000194249
7.69171e-05
0.000197142
0.000156355
8.03846e-05
6.82475e-05
7.59193e-05
0.000100816
0.000169074
0.000139976
5.87926e-05
6.52483e-05
0.000188783
5.53408e-05
5.53399e-05
6.27026e-05
7.03058e-05
7.80723e-05
9.23023e-05
0.000152273
0.000141149
0.000188882
5.5553e-05
5.55522e-05
0.000166746
6.72906e-05
0.000134315
6.09879e-05
6.15464e-05
8.10997e-05
0.000143202
0.000148278
0.000157953
0.000144763
0.000143197
3.1342e-05
0.000231133
3.99533e-05
3.87464e-05
0.000186738
0.000185445
4.01547e-05
2.78822e-05
3.92612e-05
0.00017221
SCALARS rr_S' float
LOOKUP_TABLE default
0.000856055
0.00195536
0.00156129
0.002041
0.00106787
0.00165707
0.000846433
0.00202964
0.00174459
0.0021974
0.000777015
0.00203586
0.00179152
0.00189233
0.00221776
0.00186074
0.00160074
0.00180932
0.00162004
0.00158424
0.00178204
0.000316921
0.00182587
0.00168286
0.00152544
0.0017601
0.000720109
0.00154586
0.00121203
0.00142961
0.00158269
0.00125294
0.000797684
0.00107107
0.00105277
0.00107348
0.0013899
0.00105489
0.00158107
0.000896611
0.00101874
0.00122496
0.00122509
0.00173699
0.00100109
0.00110514
0.00152464
0.00154409
0.00144719
0.00138375
0.001421
0.00110228
0.00171388
0.0014164
0.00157787
0.000726264
0.00112407
0.00142678
0.00112403
0.00172707
0.00204338
0.00200304
0.000708339
0.00141228
0.00191855
0.00181032
0.00197657
0.00170953
0.0015739
0.00224415
0.00185948
0.00183922
0.00125872
0.00146547
0.00155171
0.000823315
0.0015986
0.00179353
0.00172391
0.00121647
0.00109724
0.00120539
0.00228098
0.00109869
0.00148192
0.000550085
0.00178571
0.00149277
0.00106016
0.000155938
0.00122733
0.000169598
0.00135647
0.00129949
0.00116157
0.00105906
0.00100775
0.00192919
0.00159979
0.00153921
0.00130705
0.00125343
0.00105419
0.0018271
0.00185742
0.00167265
0.00147135
0.00149207
0.00111905
0.00222892
0.00143195
0.000755177
0.00100938
0.00199961
0.00187334
0.00136784
0.00130347
0.000837401
0.00135197
0.00136244
0.00118546
0.00216181
0.00222848
0.00191449
0.00210601
0.00165288
0.00093536
0.00208292
0.000912719
0.00117787
0.000971317
0.00198818
0.00194234
0.00195214
0.00130366
0.000791981
0.000873532
0.00143058
0.00174884
0.000791713
0.00108884
0.00168617
0.00127698
0.00205874
0.00101922
0.00167986
0.00152459
0.00147376
0.000941975
0.00120323
0.00134212
0.00191856
0.00112419
0.00173698
0.00201194
0.002044
0.00133755
0.00112157
0.00111521
0.00175362
0.00147189
0.00111487
0.00073736
0.00108878
0.00108322
0.00187786
0.00113667
0.00114921
0.00124465
0.00110768
0.00165625
0.00116017
0.0010269
0.0012925
0.00122568
0.00147038
0.00163824
0.00157613
0.00133969
0.00157234
0.00120804
0.00182186
0.00195535
0.00108903
0.0019156
0.00108826
0.00189182
0.00173929
0.0016241
0.00165249
0.0019324
0.000915105
0.00119931
0.00111492
0.00194865
0.00191836
0.00177858
0.00193756
0.00197244
0.00165676
0.00203137
0.00136237
0.00122907
0.00221822
0.0012939
0.00201477
0.00160483
0.00102327
0.00123256
0.00201007
0.00167333
0.00152316
0.00196208
0.0019251
0.00124447
0.00123498
0.00119862
0.00170789
0.00188416
0.00216537
0.00208031
0.00226341
0.00205098
0.00224134
0.00188052
0.00196561
0.00198091
0.0018674
0.00196179
0.00180623
0.00177934
0.00126105
0.00169454
0.00198249
0.00137673
0.0020207
0.00185633
0.00214942
0.00129219
0.00204408
0.00195417
0.00126916
0.00175141
0.00126058
0.00196781
0.00179591
0.0013214
0.00124358
0.00107493
0.00123653
0.0019705
0.00090264
0.00151828
0.00123895
0.00139055
0.002046
0.00198068
0.000621725
0.00198787
0.00108112
0.00117279
0.00203485
0.00165415
0.00118658
0.00227055
0.00129092
0.000621725
0.00119928
0.0017664
0.00220519
0.00167149
0.00196729
0.00184205
0.000967321
0.00094749
0.000809141
0.000928875
0.0013183
0.00100749
0.0016234
0.00101531
0.00174896
0.00124875
0.00120109
0.00140621
0.00130659
0.00173665
0.00125291
0.00128905
0.000570023
0.0013004
0.00188079
0.00188212
0.00170409
0.00125052
0.000815398
0.00236602
0.00158895
0.00132667
0.00122297
0.00121927
0.00126135
0.00153863
0.00123882
0.000886307
0.00122261
0.000837986
0.00151593
0.00124723
0.000531292
0.00117478
0.00139024
0.00124724
0.00192093
0.00129531
0.00167122
0.000640004
0.00134137
0.00128068
0.0011198
0.00120225
0.00141926
0.00133653
0.00139742
0.00118761
0.00120635
0.00130286
0.00174298
0.00122846
0.0017414
0.00157181
0.00124143
0.00127446
0.00128679
0.00142356
0.00128471
0.00120274
0.00136695
0.00143467
0.00169306
0.00128654
0.00127796
0.00185144
0.00182551
0.00122938
0.0012417
0.000552935
0.00149899
0.00103889
0.00140683
0.000620067
0.000643664
0.000575227
0.000584641
0.000620241
0.000653379
0.00067334
0.00157921
0.00116917
0.00117868
0.00134724
0.0013122
0.00129582
0.00137135
0.0012681
0.00129697
0.00132027
0.00129101
0.00158655
0.0011733
0.00163078
0.00126824
0.0012241
0.00129263
0.00138065
0.00144166
0.00134291
0.0015382
0.00143683
0.00133215
0.000960311
0.00134007
0.00131061
0.00141191
0.00135147
0.00128047
0.00121783
0.00134161
0.00139965
0.00190039
0.00125457
0.00184764
0.00192554
0.00131838
0.00184514
0.00141522
0.00113334
0.00154486
0.0013534
0.000975663
0.000854913
0.00152535
0.00162471
0.00137472
0.00114269
0.00137528
0.000650442
0.00135917
0.00127515
0.000650146
0.000249875
0.000273343
0.00117738
0.00125507
0.00145798
0.00140129
0.000128513
0.000134283
0.00138834
0.00140284
0.00132791
0.000488234
0.00117434
0.00136622
0.00139227
0.00120095
0.00106002
0.000508407
0.00201192
0.00126292
0.00154363
0.00156776
0.00112644
0.00142568
0.00110135
0.00121532
0.000602918
0.000910368
0.00142738
0.00143645
0.0012344
0.00129638
0.00133787
0.0014107
0.00134928
0.000664261
0.00118477
0.00133456
0.00126218
0.00189422
0.00066412
0.00102484
0.00105559
0.00100119
0.000651259
0.000651303
0.00114686
0.000925079
0.00132352
0.000710853
0.000777698
0.000254024
0.000254022
0.00052983
0.000844131
0.000568755
0.00112766
0.00122044
0.00130172
0.00146691
0.00133077
0.00123216
0.000969799
0.000598646
0.00121754
0.0012617
0.00122166
0.00067292
0.000623811
0.000484565
0.00121993
0.0012444
0.00099925
0.00112928
0.00104212
0.00095484
0.00127732
0.000954756
0.00112721
0.00108722
0.000666918
0.0008234
0.000763556
0.00135078
0.000532807
0.000561325
0.000549067
0.00127582
0.000507366
0.000496803
0.000887175
0.000463397
0.00103356
0.00103512
0.000475704
0.00112443
0.000528339
0.000524893
0.000591659
0.000500784
0.000491943
0.000736268
0.00058482
0.000531155
0.000502349
0.00102977
0.00117577
0.000553218
0.00113661
0.000455521
0.00115311
0.000915855
0.000475939
0.00040318
0.000449582
0.000596588
0.000990039
0.000815847
0.000341536
0.000379093
0.00110401
0.000321493
0.00032149
0.000364283
0.000408817
0.000460637
0.000537569
0.000888555
0.000822676
0.00110474
0.000322956
0.000322953
0.000971661
0.000398251
0.000786842
0.000360892
0.000363274
0.000478649
0.00083331
0.000862875
0.000919244
0.000842462
0.000833288
0.000182107
0.0013451
0.000232268
0.000225078
0.00108662
0.00107909
0.000233248
0.000161998
0.000228234
0.00100228
SCALARS rr_P' float
LOOKUP_TABLE default
5.80306e-05
0.000127476
0.000102131
0.000133151
6.89336e-05
0.000108405
5.73857e-05
0.000132465
0.000114496
0.000143275
5.25524e-05
0.000132871
0.000117018
0.000123318
0.000143693
0.000121646
0.000104174
0.000118143
0.000106512
0.000103734
0.000116745
2.01878e-05
0.000119617
0.000110187
9.98903e-05
0.000114854
4.84338e-05
0.00010108
8.05471e-05
9.17916e-05
0.000103389
8.32591e-05
5.36804e-05
6.89293e-05
6.7667e-05
6.90869e-05
8.92039e-05
6.78357e-05
0.000103291
6.03309e-05
6.77089e-05
7.86055e-05
7.86163e-05
0.000113467
6.71199e-05
7.34013e-05
0.000100155
0.00010127
9.46601e-05
9.21842e-05
9.45323e-05
7.29601e-05
0.000110701
9.37392e-05
0.000101947
4.86314e-05
7.2243e-05
9.44266e-05
7.22429e-05
0.000113066
0.000133002
0.000129948
4.75196e-05
9.16387e-05
0.00012446
0.000117811
0.000128638
0.00011155
0.000103084
0.000146291
0.000120115
0.000118809
8.36591e-05
9.52523e-05
0.000101489
5.54988e-05
0.000103492
0.000116722
0.000112493
8.04481e-05
7.31524e-05
7.7714e-05
0.000148224
7.33312e-05
9.83664e-05
3.68637e-05
0.000116763
9.70857e-05
7.10772e-05
9.95314e-06
8.12316e-05
1.08257e-05
8.78006e-05
8.46062e-05
7.68511e-05
7.04805e-05
6.71809e-05
0.000125794
0.000103574
0.000100572
8.61257e-05
8.31215e-05
7.03679e-05
0.00011926
0.000121157
0.000109093
9.55671e-05
9.75225e-05
7.47014e-05
0.000145237
9.37423e-05
5.05675e-05
6.74692e-05
0.00013055
0.000122204
9.05134e-05
8.37771e-05
5.58331e-05
8.69042e-05
9.01442e-05
7.80076e-05
0.000140128
0.000145288
0.000124505
0.000137193
0.000107056
6.02007e-05
0.000135821
6.08455e-05
7.79309e-05
6.27454e-05
0.000129653
0.000126243
0.000127285
8.64471e-05
5.09008e-05
5.83588e-05
9.34174e-05
0.000113644
5.08854e-05
7.2171e-05
0.000109926
8.39786e-05
0.000134231
6.79669e-05
0.000109603
9.94529e-05
9.6399e-05
6.16221e-05
7.93794e-05
8.8036e-05
0.000125084
7.47108e-05
0.000113447
0.000131182
0.000133287
8.71141e-05
7.43102e-05
7.38804e-05
0.000114546
9.65294e-05
7.40698e-05
4.93881e-05
7.24319e-05
7.17739e-05
0.000122473
7.53133e-05
7.61482e-05
8.27135e-05
7.33885e-05
0.000107195
7.67822e-05
6.83183e-05
8.41489e-05
8.11099e-05
9.5516e-05
0.000106032
0.000102872
8.6516e-05
0.000102546
8.02769e-05
0.000118801
0.000127511
7.21788e-05
0.000124575
7.24194e-05
0.000123032
0.000112959
0.000105098
0.00010775
0.000125662
6.09791e-05
7.93676e-05
7.40895e-05
0.000127062
0.00012528
0.000116129
0.000125935
0.000128603
0.000107832
0.000132434
8.95253e-05
8.1257e-05
0.000144183
8.59777e-05
0.000130926
0.000104443
6.78745e-05
7.99258e-05
0.000131039
0.000108469
9.92382e-05
0.000127996
0.000125094
8.20896e-05
8.04367e-05
7.92125e-05
0.000110921
0.000122749
0.000141072
0.000135588
0.000147495
0.000133648
0.000146057
0.00012258
0.000127388
0.000128394
0.000121024
0.000127135
0.000116696
0.000114958
8.32061e-05
0.000110446
0.000129389
9.0309e-05
0.000130925
0.000120257
0.000140269
8.5422e-05
0.000133426
0.000127422
8.3703e-05
0.000113566
8.31518e-05
0.000127855
0.000117246
8.71413e-05
8.21695e-05
7.16722e-05
8.24277e-05
0.000128042
6.02278e-05
9.92112e-05
8.18797e-05
9.14021e-05
0.000133558
0.000129047
3.98876e-05
0.000129528
7.21548e-05
7.75073e-05
0.00013281
0.000107961
7.84547e-05
0.000147938
8.48789e-05
3.98887e-05
7.92507e-05
0.000115069
0.000143441
0.000109135
0.000127476
0.000119814
6.24805e-05
6.189e-05
5.4148e-05
6.22494e-05
8.52416e-05
6.59972e-05
0.000105954
6.69713e-05
0.000113401
8.13024e-05
7.93744e-05
9.15458e-05
8.60823e-05
0.000113266
8.25423e-05
8.52072e-05
3.64624e-05
8.41335e-05
0.000121847
0.000121942
0.000111079
8.23615e-05
5.24976e-05
0.000153923
0.000104195
8.73653e-05
8.06352e-05
7.88394e-05
8.31901e-05
9.95906e-05
8.16456e-05
5.9418e-05
8.05307e-05
5.58929e-05
9.84465e-05
8.22579e-05
3.39866e-05
7.74251e-05
9.03661e-05
8.22955e-05
0.000124904
8.53779e-05
0.000109274
4.29613e-05
8.77767e-05
8.44716e-05
7.24214e-05
7.93163e-05
9.30672e-05
8.6901e-05
9.10929e-05
7.82759e-05
7.94558e-05
8.56727e-05
0.000113197
8.09174e-05
0.000113655
0.000102773
8.019e-05
8.3941e-05
8.46316e-05
9.32941e-05
8.44582e-05
7.92511e-05
8.98576e-05
9.3066e-05
0.000110511
8.46003e-05
8.42997e-05
0.000120715
0.000119017
8.09903e-05
8.021e-05
3.74479e-05
9.80249e-05
6.92652e-05
9.21826e-05
4.28675e-05
4.44968e-05
3.97568e-05
4.04113e-05
4.28675e-05
4.51724e-05
4.65449e-05
0.000102543
7.53524e-05
7.69852e-05
8.83607e-05
8.62536e-05
8.51907e-05
8.94389e-05
8.33904e-05
8.53055e-05
8.50833e-05
8.4876e-05
0.000102853
7.76567e-05
0.000105752
8.29764e-05
8.02886e-05
8.49939e-05
8.92655e-05
9.42744e-05
8.80568e-05
0.000100584
9.42125e-05
8.76097e-05
6.35169e-05
8.78979e-05
8.57345e-05
9.15197e-05
8.88022e-05
8.42411e-05
8.00319e-05
8.8019e-05
9.15699e-05
0.000123937
8.24507e-05
0.000120504
0.000126021
8.64857e-05
0.000120417
9.26118e-05
7.45182e-05
0.000100454
8.87116e-05
6.28998e-05
5.73112e-05
9.90448e-05
0.000105395
8.99357e-05
7.48906e-05
8.95083e-05
4.40297e-05
8.89222e-05
8.35873e-05
4.36326e-05
1.59874e-05
1.7487e-05
7.69963e-05
8.2501e-05
9.55271e-05
9.20728e-05
8.1735e-06
8.54048e-06
9.06049e-05
9.1545e-05
8.66729e-05
3.30516e-05
7.7242e-05
8.87892e-05
9.13282e-05
7.88049e-05
6.9539e-05
3.44407e-05
0.00013085
8.30338e-05
0.000100956
0.000102534
7.39201e-05
9.34892e-05
7.22746e-05
7.97275e-05
4.05585e-05
6.07156e-05
9.36035e-05
9.3941e-05
8.0908e-05
8.50848e-05
8.7712e-05
9.24434e-05
8.84386e-05
4.45292e-05
7.67562e-05
8.77104e-05
8.21553e-05
0.000123169
4.45307e-05
6.70369e-05
6.9072e-05
6.4672e-05
4.16814e-05
4.1685e-05
7.42043e-05
6.0851e-05
8.65705e-05
4.76831e-05
4.98124e-05
1.61702e-05
1.61704e-05
3.59073e-05
5.42842e-05
3.65176e-05
7.37868e-05
7.90074e-05
8.50226e-05
9.56233e-05
8.65237e-05
8.00329e-05
6.32959e-05
4.0528e-05
7.95913e-05
8.21489e-05
7.93998e-05
4.53715e-05
4.01016e-05
3.25413e-05
7.92989e-05
8.11066e-05
6.58759e-05
7.37738e-05
6.80264e-05
6.16621e-05
8.3336e-05
6.16584e-05
7.37154e-05
7.06573e-05
4.28479e-05
5.28875e-05
5.12113e-05
8.80101e-05
3.61451e-05
3.80512e-05
3.72811e-05
8.29756e-05
3.43622e-05
3.37597e-05
5.82255e-05
3.14511e-05
6.66276e-05
6.67301e-05
3.22661e-05
7.36874e-05
3.55365e-05
3.56149e-05
3.9826e-05
3.39843e-05
3.31141e-05
4.73376e-05
3.92805e-05
3.5968e-05
3.40767e-05
6.72295e-05
7.63077e-05
3.72615e-05
7.41995e-05
3.0947e-05
7.51836e-05
6.00038e-05
3.23071e-05
2.71719e-05
3.0536e-05
4.04318e-05
6.47933e-05
5.25624e-05
2.17571e-05
2.41619e-05
7.19362e-05
2.04826e-05
2.04827e-05
2.32137e-05
2.61313e-05
3.09162e-05
3.45449e-05
5.74746e-05
5.30017e-05
7.20184e-05
2.06263e-05
2.06265e-05
6.25538e-05
2.70015e-05
5.15695e-05
2.44548e-05
2.44107e-05
3.21565e-05
5.33988e-05
5.5299e-05
5.89265e-05
5.39998e-05
5.33987e-05
1.16089e-05
8.62168e-05
1.48345e-05
1.4337e-05
6.96261e-05
6.91399e-05
1.48549e-05
1.03256e-05
1.45745e-05
6.42648e-05
SCALARS rr_T' float
LOOKUP_TABLE default
0.000199671
0.000454939
0.000363327
0.000474884
0.000248304
0.000385618
0.000197428
0.00047225
0.000406065
0.000511255
0.000181212
0.000473697
0.000416864
0.000440262
0.000515799
0.000432994
0.000372392
0.000421001
0.000377119
0.00036869
0.000414736
7.36347e-05
0.000424937
0.000391642
0.000355008
0.000409531
0.000167877
0.000359728
0.000282334
0.000332317
0.000368275
0.000291862
0.000185968
0.000249005
0.000244731
0.000249566
0.000323077
0.00024523
0.000367901
0.000209029
0.000237311
0.000284735
0.000284765
0.000404179
0.000233333
0.000257425
0.000354891
0.000359381
0.000336774
0.000322387
0.000331036
0.000256702
0.000398532
0.000329852
0.000366911
0.000169261
0.000261303
0.00033227
0.000261295
0.000401926
0.000475372
0.00046589
0.000165104
0.000328489
0.000446238
0.000421146
0.000459827
0.000397763
0.00036629
0.000522129
0.00043239
0.000427679
0.000293213
0.000340894
0.000361094
0.000191965
0.000371775
0.000417239
0.000401111
0.00028328
0.000255648
0.000280259
0.000530595
0.000256004
0.000345175
0.000128209
0.00041554
0.000347258
0.000247101
3.62357e-05
0.000285822
3.94102e-05
0.000315462
0.000302317
0.000270502
0.000246724
0.000234795
0.000448853
0.000372051
0.000358163
0.000304302
0.000291937
0.000245638
0.000425128
0.000432166
0.000389171
0.000342252
0.000347199
0.000260751
0.000518574
0.000333246
0.000176001
0.000235217
0.000465274
0.00043587
0.000318539
0.000303009
0.000195107
0.000314285
0.00031728
0.00027597
0.000502799
0.000518486
0.000445363
0.000489972
0.000384413
0.000217455
0.000484623
0.000212654
0.000274298
0.000225865
0.000462585
0.000451826
0.000454195
0.000303635
0.000184107
0.000203552
0.000332872
0.000406811
0.000184045
0.000253594
0.000392305
0.000297265
0.000478994
0.000237472
0.000390858
0.000354727
0.000342956
0.000219207
0.000280153
0.000312379
0.000446381
0.000261873
0.00040417
0.000468106
0.00047557
0.000311178
0.000261209
0.000259726
0.000408048
0.000342577
0.000259697
0.000171851
0.000253642
0.00025228
0.000436917
0.000264728
0.000267648
0.000289932
0.000257975
0.000385177
0.000270182
0.000239226
0.000300689
0.000285434
0.000342027
0.000380988
0.000366731
0.000311516
0.000365832
0.000281403
0.000423883
0.000454942
0.000253636
0.000445617
0.000253526
0.000440089
0.000404572
0.000377697
0.000384475
0.000449525
0.000213204
0.000279296
0.000259712
0.000453383
0.000446377
0.000413847
0.000450715
0.000458916
0.000385425
0.000472626
0.000317125
0.000286207
0.000516004
0.000301403
0.000468669
0.000373341
0.000238335
0.000286676
0.000467669
0.000389185
0.000354367
0.000456519
0.000447811
0.000289753
0.000287315
0.00027911
0.000397268
0.000438359
0.000503785
0.000484008
0.0005266
0.000477177
0.000521465
0.000437521
0.000457161
0.000460723
0.00043432
0.000456273
0.000420013
0.00041376
0.000293618
0.000394249
0.000461288
0.000320433
0.000469967
0.000431734
0.000500127
0.000300905
0.000475622
0.000454666
0.000295498
0.000407352
0.000293502
0.000457742
0.000417883
0.000307658
0.000289576
0.000250452
0.0002881
0.00045837
0.000210318
0.000353294
0.000288501
0.000323691
0.000476069
0.000460816
0.000144514
0.000462492
0.000251908
0.000273096
0.000473472
0.000384883
0.000276314
0.000528259
0.000300506
0.000144515
0.000279261
0.000410961
0.000512993
0.000388928
0.000457549
0.000428514
0.000224932
0.00022047
0.00018857
0.000216494
0.000306566
0.000234473
0.000377727
0.000236396
0.000406782
0.000290511
0.000279684
0.000327141
0.000304191
0.000404061
0.000291693
0.000300172
0.000132474
0.000302414
0.000437425
0.000437737
0.000396472
0.000291131
0.000189571
0.00055041
0.00036982
0.000308857
0.000284736
0.000283536
0.000293678
0.000357825
0.000288418
0.000206579
0.000284636
0.000195248
0.000352617
0.000290393
0.000123473
0.00027351
0.000323398
0.000290402
0.000446855
0.000301573
0.000388897
0.000149181
0.000312157
0.00029818
0.000260409
0.000279926
0.000330325
0.000310908
0.000325126
0.000276499
0.000280849
0.000303286
0.00040543
0.000285998
0.000405183
0.000365765
0.000288672
0.000296704
0.000299549
0.000331314
0.000299055
0.000280016
0.0003182
0.000333691
0.000393939
0.000299486
0.000297549
0.00043076
0.000424726
0.000286214
0.000288734
0.000128965
0.000348822
0.000242052
0.000327417
0.000144829
0.00015034
0.000134353
0.000136553
0.000144867
0.000152609
0.00015727
0.000367332
0.000271836
0.000274265
0.000313566
0.000305454
0.000301643
0.000319068
0.000295195
0.00030192
0.000306964
0.000300524
0.000369004
0.00027324
0.000379302
0.000295134
0.000284906
0.000300904
0.000321062
0.000335481
0.000312553
0.000357945
0.000334413
0.000310108
0.00022363
0.0003119
0.00030499
0.000328382
0.000314588
0.000298084
0.000283481
0.000312263
0.000325714
0.000442157
0.000292036
0.000429883
0.000448107
0.000306854
0.000429319
0.000329344
0.000263823
0.000359373
0.000314987
0.000226848
0.000199261
0.000354804
0.000377895
0.000319912
0.000265945
0.000319942
0.000151702
0.000316296
0.000296776
0.000151543
5.80719e-05
6.35255e-05
0.000273982
0.000292156
0.000339319
0.000326184
2.98565e-05
3.1197e-05
0.000323034
0.000326404
0.000308975
0.00011387
0.000273374
0.000317807
0.000324048
0.000279525
0.00024672
0.000118581
0.00046803
0.000293987
0.000359212
0.000364828
0.000262184
0.00033182
0.000256345
0.000282866
0.000140557
0.000212112
0.000332215
0.00033427
0.000287291
0.00030174
0.000311377
0.000328318
0.000314029
0.000154824
0.000275546
0.000310657
0.000293633
0.000440641
0.000154793
0.00023849
0.000245651
0.00023281
0.000151359
0.000151369
0.000266711
0.000215349
0.000307994
0.00016569
0.000180753
5.90184e-05
5.90181e-05
0.000123581
0.000196236
0.000132208
0.000262422
0.000283828
0.000302895
0.000341292
0.000309569
0.000286611
0.00022565
0.000139623
0.000283321
0.000293524
0.000284181
0.000156901
0.000145016
0.000112952
0.00028378
0.000289519
0.000232648
0.000262773
0.00024248
0.000222029
0.000297196
0.00022201
0.000262307
0.000252905
0.000155033
0.000191405
0.000177972
0.000314264
0.000124281
0.000130926
0.000128082
0.00029679
0.000118336
0.000115897
0.000206495
0.000108094
0.000240305
0.000240669
0.00011096
0.000261695
0.000123169
0.000122436
0.000137938
0.000116814
0.000114691
0.000171159
0.000136325
0.000123883
0.000117176
0.000239607
0.000273482
0.000128981
0.000264466
0.000106265
0.000268285
0.000213149
0.000111021
9.40043e-05
0.000104877
0.000139153
0.000230398
0.000189681
7.93543e-05
8.80833e-05
0.000256851
7.4698e-05
7.46973e-05
8.46412e-05
9.50059e-05
0.000107372
0.000124965
0.000206635
0.00019127
0.00025703
7.50487e-05
7.50482e-05
0.000225897
9.28938e-05
0.000183127
8.41757e-05
8.46823e-05
0.000111577
0.000193683
0.000200556
0.000213661
0.000195813
0.000193678
4.23135e-05
0.00031264
5.39748e-05
5.22956e-05
0.00025256
0.000250807
5.41932e-05
3.76408e-05
5.30367e-05
0.000232966
SCALARS rr_uec(SIM,_S_ext) float
LOOKUP_TABLE default
0.014835
0.0337876
0.0269845
0.0352693
0.0184389
0.0286402
0.0146685
0.0350735
0.0301597
0.0379701
0.0134637
0.0351809
0.0309603
0.0326973
0.0383048
0.0321585
0.0276564
0.0312675
0.0280104
0.0273832
0.0308031
0.00546724
0.031561
0.0290878
0.026367
0.0304155
0.012472
0.0267171
0.0209726
0.0246762
0.0273516
0.0216804
0.013816
0.0184904
0.0181727
0.0185321
0.0239901
0.0182098
0.0273238
0.0155293
0.0176282
0.0211429
0.0211452
0.0300182
0.0173345
0.0191222
0.0263592
0.0266921
0.0250124
0.0239486
0.0245907
0.0190678
0.0295951
0.0245013
0.027247
0.0125742
0.0194033
0.0246809
0.0194026
0.0298517
0.0353045
0.0345989
0.0122655
0.0243949
0.0331394
0.031277
0.03415
0.0295414
0.027205
0.0387777
0.0321094
0.0317595
0.0217808
0.0253166
0.0268186
0.0142619
0.0276088
0.0309869
0.0297901
0.0210418
0.0189909
0.0208116
0.0394049
0.0190176
0.0256402
0.00952459
0.0308624
0.0257893
0.0183573
0.00269049
0.0212308
0.00292619
0.0234268
0.0224521
0.0200927
0.0183277
0.0174418
0.0333356
0.0276293
0.0266007
0.0226024
0.0216854
0.0182476
0.031574
0.0320964
0.0289032
0.0254173
0.0257865
0.0193703
0.0385136
0.0247507
0.013075
0.0174738
0.0345556
0.0323715
0.0236609
0.0225001
0.0144936
0.0233374
0.0235674
0.0204978
0.0373396
0.0385073
0.0330754
0.0363892
0.0285475
0.0161475
0.0359922
0.015797
0.0203747
0.0167728
0.0343556
0.0335552
0.0337325
0.0225543
0.013671
0.0151212
0.0247222
0.0302121
0.0136664
0.0188371
0.0291356
0.0220793
0.0355741
0.0176406
0.0290287
0.026345
0.0254715
0.0162807
0.020809
0.0232012
0.0331521
0.0194528
0.0300175
0.0347655
0.03532
0.0231103
0.0194026
0.0192925
0.0303056
0.025444
0.0192911
0.0127668
0.0188416
0.0187394
0.0324492
0.0196641
0.019881
0.0215371
0.0191625
0.0286039
0.020069
0.0177707
0.0223312
0.0212019
0.0254007
0.0282929
0.0272367
0.0231332
0.0271698
0.0209035
0.0314812
0.0337879
0.0188403
0.0330941
0.018833
0.0326837
0.0300454
0.0280484
0.0285544
0.0333843
0.0158378
0.020746
0.0192923
0.0336722
0.0331523
0.0307363
0.0334727
0.0340831
0.0286242
0.0351012
0.0235543
0.0212592
0.0383215
0.0223891
0.034806
0.0277267
0.0177038
0.0212896
0.0347331
0.028902
0.0263179
0.0339051
0.0332569
0.021522
0.021338
0.020732
0.0295031
0.0325561
0.0374152
0.0359466
0.0391097
0.0354391
0.0387284
0.0324938
0.0339503
0.0342149
0.032254
0.0338843
0.0311902
0.030726
0.0218092
0.0292801
0.0342597
0.0237994
0.0349011
0.0320618
0.0371442
0.0223509
0.0353244
0.0337673
0.0219487
0.0302514
0.0218005
0.0339944
0.0310362
0.0228519
0.0215093
0.0186049
0.0214017
0.0340411
0.0156236
0.0262391
0.0214295
0.024042
0.0353576
0.034224
0.0107308
0.0343485
0.0187131
0.0202853
0.0351647
0.0285849
0.0205244
0.0392328
0.0223199
0.0107309
0.0207432
0.0305213
0.038098
0.0288855
0.033979
0.0318239
0.0167035
0.0163742
0.0140086
0.0160833
0.0227658
0.0174147
0.0280534
0.0175588
0.030209
0.0215754
0.0207746
0.0242957
0.0225941
0.0300089
0.0216658
0.0222965
0.00983643
0.0224578
0.0324845
0.0325077
0.0294452
0.021624
0.014077
0.0408769
0.0274675
0.0229405
0.0211492
0.0210556
0.0218136
0.0265727
0.0214226
0.0153468
0.0211416
0.0145041
0.026187
0.0215695
0.00916813
0.0203153
0.0240174
0.0215704
0.0331861
0.0223998
0.0288835
0.0110827
0.0231842
0.022148
0.0193383
0.0207922
0.0245341
0.0230898
0.0241466
0.0205373
0.0208603
0.0225265
0.0301091
0.0212427
0.0300925
0.0271655
0.0214368
0.0220379
0.0222489
0.0246074
0.0222121
0.0207985
0.0236341
0.0247811
0.0292574
0.0222442
0.0221011
0.0319916
0.0315435
0.0212588
0.0214414
0.00958198
0.0259071
0.017981
0.0243178
0.0107635
0.011173
0.0099849
0.0101484
0.0107663
0.0113416
0.011688
0.0272798
0.020186
0.0203696
0.0232894
0.0226875
0.0224044
0.0236966
0.0219255
0.0224251
0.0227945
0.0223213
0.0274034
0.0202962
0.0281684
0.0219199
0.0211608
0.0223495
0.0238423
0.0249163
0.0232141
0.0265847
0.0248377
0.0230333
0.0166111
0.0231657
0.0226518
0.0243867
0.0233658
0.0221403
0.0210554
0.0231927
0.024191
0.0328382
0.0216908
0.0319267
0.0332814
0.0227909
0.031885
0.0244607
0.0195954
0.0266892
0.0233948
0.0168454
0.0148032
0.0263494
0.0280639
0.0237601
0.0197523
0.023761
0.0112712
0.0234916
0.0220422
0.0112581
0.00431194
0.00471687
0.0203488
0.0216998
0.0252018
0.0242271
0.00221674
0.00231627
0.0239914
0.0242416
0.0229472
0.00846035
0.0203049
0.0236021
0.0240679
0.0207612
0.0183246
0.00881054
0.0347587
0.0218358
0.0266788
0.0270959
0.0194732
0.0246451
0.0190396
0.0210092
0.0104424
0.0157568
0.0246744
0.0248263
0.0213378
0.0224112
0.0231267
0.0243848
0.0233236
0.0115019
0.0204628
0.0230739
0.0218071
0.0327246
0.0114997
0.0177128
0.0182448
0.0172884
0.0112388
0.0112396
0.0198064
0.0159951
0.0228748
0.0123093
0.0134215
0.00438197
0.00438195
0.00918208
0.0145717
0.00981715
0.0194903
0.0210776
0.0224959
0.0253471
0.0229905
0.0212851
0.0167587
0.0103738
0.0210423
0.0217991
0.0211049
0.0116569
0.0107683
0.00839121
0.0210752
0.021502
0.0172803
0.0195161
0.0180087
0.0164879
0.0220724
0.0164865
0.0194816
0.0187821
0.011512
0.0142128
0.0132217
0.0233397
0.00923385
0.00972744
0.00951638
0.0220414
0.00879219
0.00861113
0.0153371
0.00803129
0.0178447
0.0178717
0.00824412
0.0194367
0.00915051
0.00909678
0.0102479
0.00867906
0.00852072
0.0127096
0.0101278
0.00920435
0.00870599
0.0177954
0.02031
0.00958248
0.0196416
0.00789547
0.019925
0.015831
0.00824866
0.00698397
0.00779225
0.010339
0.0171119
0.0140853
0.00589192
0.00654008
0.0190757
0.00554621
0.00554616
0.00628449
0.00705431
0.00797681
0.00927937
0.015345
0.0142032
0.0190891
0.0055724
0.00557236
0.0167744
0.00690204
0.0136013
0.00625417
0.00629108
0.00828912
0.0143817
0.0148921
0.0158652
0.0145399
0.0143814
0.00314172
0.0232146
0.00400764
0.00388284
0.0187534
0.0186233
0.00402372
0.00279478
0.00393799
0.0172986
SCALARS rr_uec(PEX,_P_ext) float
LOOKUP_TABLE default
-0.0622496
-0.141862
-0.113293
-0.148082
-0.0774314
-0.120244
-0.0615505
-0.147259
-0.126617
-0.159423
-0.0564964
-0.14771
-0.129988
-0.137286
-0.160845
-0.135017
-0.116123
-0.131278
-0.117591
-0.114965
-0.129322
-0.0229639
-0.132504
-0.122122
-0.110698
-0.127702
-0.0523399
-0.112171
-0.0880305
-0.103633
-0.114837
-0.0910015
-0.0579801
-0.0776514
-0.0763189
-0.0778264
-0.100752
-0.0764744
-0.11472
-0.0651701
-0.0739926
-0.0887951
-0.0888044
-0.126032
-0.0727492
-0.0802641
-0.11066
-0.112061
-0.105013
-0.100518
-0.103215
-0.0800403
-0.124279
-0.102848
-0.114418
-0.0527727
-0.081487
-0.103603
-0.0814843
-0.125329
-0.148235
-0.145281
-0.0514759
-0.102434
-0.139152
-0.131326
-0.143388
-0.124033
-0.114216
-0.162814
-0.134837
-0.133368
-0.0914225
-0.106301
-0.112597
-0.0598494
-0.115933
-0.130107
-0.125077
-0.0883277
-0.0797085
-0.0873969
-0.165457
-0.0798191
-0.107625
-0.0399732
-0.129575
-0.108285
-0.0770418
-0.0113004
-0.0891199
-0.0122904
-0.098373
-0.0942712
-0.0843431
-0.0769269
-0.0732068
-0.139964
-0.116019
-0.111683
-0.0948843
-0.0910256
-0.0765872
-0.132566
-0.13476
-0.121354
-0.106725
-0.108264
-0.0812993
-0.161706
-0.103913
-0.0548743
-0.0733376
-0.145084
-0.135916
-0.0993213
-0.0944927
-0.0608324
-0.0980092
-0.0989287
-0.0860507
-0.156791
-0.161678
-0.138878
-0.152787
-0.119874
-0.0678125
-0.151118
-0.0663033
-0.0855269
-0.070434
-0.144246
-0.140894
-0.141631
-0.0946728
-0.0574134
-0.0634648
-0.103798
-0.126857
-0.0573941
-0.0790705
-0.122331
-0.0926909
-0.149363
-0.0740411
-0.12188
-0.110613
-0.106941
-0.0683534
-0.0873537
-0.0974049
-0.139194
-0.0816511
-0.12603
-0.145968
-0.148295
-0.0970341
-0.0814448
-0.0809826
-0.127239
-0.106821
-0.0809725
-0.0535804
-0.0790841
-0.0786608
-0.136242
-0.0825421
-0.0834525
-0.0903997
-0.0804366
-0.120113
-0.0842433
-0.0745894
-0.0937634
-0.0889991
-0.106655
-0.118807
-0.114356
-0.0971436
-0.114076
-0.0877403
-0.132178
-0.141863
-0.0790837
-0.138957
-0.0790478
-0.137233
-0.126159
-0.11778
-0.11989
-0.140176
-0.066475
-0.087085
-0.0809773
-0.141377
-0.139191
-0.129048
-0.140547
-0.143103
-0.120187
-0.147378
-0.098884
-0.0892406
-0.160906
-0.0939761
-0.146146
-0.116419
-0.0743124
-0.0893957
-0.145832
-0.121361
-0.110501
-0.142354
-0.139642
-0.0903471
-0.0895927
-0.0870279
-0.123881
-0.136693
-0.157095
-0.150927
-0.164209
-0.148797
-0.162608
-0.136431
-0.14256
-0.14367
-0.135437
-0.142282
-0.130977
-0.129027
-0.0915521
-0.122938
-0.143842
-0.0999161
-0.146553
-0.134631
-0.155953
-0.0938234
-0.148311
-0.141777
-0.0921385
-0.127027
-0.0915163
-0.142739
-0.130307
-0.0959301
-0.0902913
-0.0780883
-0.0898269
-0.142934
-0.0655746
-0.110165
-0.0899559
-0.100931
-0.148451
-0.143696
-0.045067
-0.144218
-0.0785417
-0.0851527
-0.147641
-0.120016
-0.0861559
-0.164726
-0.0937015
-0.0450671
-0.0870751
-0.12815
-0.159967
-0.121277
-0.142681
-0.133623
-0.0701431
-0.0687477
-0.0587931
-0.0674989
-0.0955991
-0.0731132
-0.117785
-0.0737101
-0.126849
-0.0905896
-0.087207
-0.102012
-0.0948496
-0.125997
-0.0909525
-0.0935949
-0.0413128
-0.0943044
-0.136405
-0.136503
-0.123631
-0.0907774
-0.0591169
-0.171634
-0.115316
-0.0963046
-0.0887829
-0.0884175
-0.0915712
-0.111583
-0.0899312
-0.0644076
-0.0887523
-0.0608762
-0.109957
-0.0905467
-0.0385059
-0.0852829
-0.100846
-0.0905496
-0.139343
-0.094033
-0.121267
-0.0465113
-0.0973369
-0.0929748
-0.0812057
-0.0872829
-0.103001
-0.0969507
-0.101383
-0.0862146
-0.0875714
-0.0945685
-0.126426
-0.0891768
-0.126346
-0.114053
-0.0900197
-0.0925151
-0.093403
-0.10331
-0.0932492
-0.0873116
-0.0992188
-0.104056
-0.12284
-0.0933836
-0.0927781
-0.134322
-0.132441
-0.0892442
-0.090039
-0.0402069
-0.10877
-0.0754695
-0.102094
-0.0451485
-0.0468665
-0.0418829
-0.0425686
-0.0451605
-0.0475738
-0.0490267
-0.114546
-0.0847704
-0.0855225
-0.0977751
-0.0952447
-0.0940561
-0.0994935
-0.0920455
-0.0941423
-0.095725
-0.0937074
-0.115068
-0.0851968
-0.11828
-0.092029
-0.0888386
-0.0938255
-0.10012
-0.10461
-0.0974593
-0.111615
-0.104276
-0.0966956
-0.0697286
-0.0972558
-0.0951022
-0.102401
-0.098093
-0.0929462
-0.0883933
-0.0973688
-0.101564
-0.137876
-0.0910608
-0.134049
-0.139729
-0.0956821
-0.133872
-0.102696
-0.0822636
-0.112064
-0.0982186
-0.070741
-0.062126
-0.11064
-0.117841
-0.0997553
-0.0829264
-0.0997672
-0.0472956
-0.0986277
-0.0925399
-0.0472478
-0.01811
-0.0198108
-0.0854335
-0.0910982
-0.105806
-0.101709
-0.00931117
-0.00972923
-0.10073
-0.101781
-0.0963461
-0.0355009
-0.0852414
-0.0991023
-0.101044
-0.0871604
-0.0769314
-0.0369697
-0.145946
-0.0916691
-0.11201
-0.113761
-0.0817531
-0.103467
-0.0799325
-0.0882022
-0.0438224
-0.0661342
-0.10359
-0.104232
-0.0895826
-0.0940873
-0.0970926
-0.102375
-0.0979199
-0.0482712
-0.0859252
-0.0968672
-0.0915632
-0.137405
-0.0482617
-0.0743663
-0.0765993
-0.0725995
-0.0472022
-0.0472053
-0.0831707
-0.0671486
-0.0960389
-0.0516591
-0.0563686
-0.0184057
-0.0184056
-0.0385285
-0.0611956
-0.0412292
-0.0818284
-0.0885081
-0.09445
-0.106424
-0.0965334
-0.0893744
-0.0703632
-0.0435297
-0.0883457
-0.0915292
-0.0886167
-0.0489174
-0.045223
-0.0352158
-0.0884917
-0.0902799
-0.0725417
-0.0819388
-0.0756112
-0.069238
-0.0926734
-0.0692319
-0.0817928
-0.0788637
-0.0483468
-0.0596896
-0.0554884
-0.0979964
-0.0387459
-0.0408176
-0.0399307
-0.0925481
-0.036893
-0.0361318
-0.0643885
-0.0336995
-0.0749377
-0.0750511
-0.034593
-0.0816013
-0.0384012
-0.0381707
-0.0430057
-0.0364178
-0.0357577
-0.0533755
-0.0425033
-0.0386226
-0.0365309
-0.0747152
-0.085281
-0.040213
-0.082467
-0.033129
-0.0836584
-0.0664638
-0.0346117
-0.029308
-0.0326962
-0.0433831
-0.0718428
-0.0591512
-0.0247476
-0.0274698
-0.0800933
-0.0232955
-0.0232953
-0.0263964
-0.0296283
-0.0334765
-0.0389702
-0.0644369
-0.0596464
-0.0801487
-0.0234046
-0.0234044
-0.0704449
-0.0289611
-0.0571024
-0.026243
-0.0264019
-0.034787
-0.0604009
-0.0625442
-0.0666309
-0.0610651
-0.0603994
-0.0131959
-0.0974977
-0.0168325
-0.016309
-0.0787616
-0.0782152
-0.0169008
-0.0117387
-0.01654
-0.072651
SCALARS cell_type float
LOOKUP_TABLE default
0
0
0
0
0
0
0
0
0
0
0
0
0
0
0
0
0
0
0
0
0
1
0
0
0
0
0
0
0
0
0
0
0
0
0
0
0
0
0
0
0
0
0
0
0
0
0
0
0
0
0
0
0
0
0
0
0
0
0
0
0
0
0
0
0
0
0
0
0
0
0
0
0
0
0
0
0
0
0
0
0
0
0
0
0
0
0
0
0
0
0
0
0
0
0
0
0
0
0
0
0
0
0
0
0
0
0
0
0
0
0
0
0
0
0
0
0
0
0
0
0
0
0
0
0
0
0
0
0
0
0
0
0
0
0
0
0
0
0
0
0
0
0
0
0
0
0
0
0
0
0
0
0
0
0
0
0
0
0
0
0
0
0
0
0
0
0
0
0
0
0
0
0
0
0
0
0
0
0
0
0
0
0
0
0
0
0
0
0
0
0
0
0
0
0
0
0
0
0
0
0
0
0
0
0
0
0
0
0
0
0
0
0
0
0
0
0
0
0
0
0
0
0
0
0
0
0
0
0
0
0
0
0
0
0
0
0
0
0
0
0
0
0
0
0
0
0
0
0
0
0
0
0
0
0
0
0
0
0
0
0
0
0
0
0
0
0
0
0
0
0
0
0
0
0
0
0
0
0
0
0
0
0
0
0
0
0
0
0
0
0
0
0
0
0
0
0
0
0
0
0
0
0
0
0
0
0
0
0
0
0
0
0
0
0
0
0
0
0
0
0
0
0
0
0
0
0
0
0
0
0
0
0
0
0
0
0
0
0
0
0
0
0
0
0
0
0
0
0
0
2
2
2
2
2
2
2
0
0
0
0
0
0
0
0
0
0
0
0
0
0
0
0
0
0
0
0
0
0
0
0
0
0
0
0
0
0
0
0
0
0
0
0
0
0
0
0
0
0
0
0
0
0
0
0
0
0
0
0
0
0
0
0
0
0
0
1
1
0
0
0
0
0
0
0
0
0
0
0
0
0
0
0
0
0
0
0
0
0
0
0
0
0
0
0
0
0
0
0
0
0
0
0
0
0
0
0
0
0
0
0
1
1
0
0
0
0
0
0
0
0
0
0
0
0
0
0
0
0
0
0
0
0
0
0
0
0
0
0
0
0
0
0
0
0
0
0
0
0
0
0
0
0
0
0
0
0
0
0
0
0
0
0
0
0
0
0
0
0
0
0
0
0
0
0
0
0
0
1
1
0
0
0
0
0
0
0
0
0
0
0
0
0
0
0
0
0
0
0
0
0
0
0
0
0
0
0
0
0
0
0
0
0
TENSORS Lagrange_strain float
0.0305694 -0.0031983 1.47359e-07
-0.0031983 0.0133896 -5.78864e-08
1.47359e-07 -5.78864e-08 0.00740214

0.0291944 -0.00280084 1.14803e-07
-0.00280084 0.0335553 4.79596e-08
1.14803e-07 4.79596e-08 0.033165

0.0300228 0.00367913 -9.03059e-08
0.00367913 0.0311709 -1.23225e-07
-9.03059e-08 -1.23225e-07 0.0304693

0.0291635 -0.00392481 8.49844e-08
-0.00392481 0.0328005 3.78995e-08
8.49844e-08 3.78995e-08 0.0330898

0.0353684 0.00266884 -1.21938e-07
0.00266884 0.0380864 9.76126e-08
-1.21938e-07 9.76126e-08 0.0352936

0.0277367 -0.00236716 -1.42595e-07
-0.00236716 0.0333859 6.65526e-08
-1.42595e-07 6.65526e-08 0.0304404

0.0302633 0.00339409 1.49325e-07
0.00339409 0.0134952 -1.42214e-07
1.49325e-07 -1.42214e-07 0.00746357

0.0317564 0.00393988 -6.7583e-08
0.00393988 0.0312015 -1.18305e-07
-6.7583e-08 -1.18305e-07 0.0315621

0.0332439 0.000715501 1.56223e-07
0.000715501 0.0262227 -2.73822e-08
1.56223e-07 -2.73822e-08 0.0281435

0.0354692 -0.000991086 -4.07804e-08
-0.000991086 0.0275528 -9.6197e-08
-4.07804e-08 -9.6197e-08 0.0327225

0.0280627 0.00205131 -5.20628e-08
0.00205131 0.0138095 1.67827e-07
-5.20628e-08 1.67827e-07 0.0117541

0.0279546 -0.00176578 -1.04861e-07
-0.00176578 0.0350079 1.86805e-07
-1.04861e-07 1.86805e-07 0.0315507

0.0311228 0.00365733 -1.06252e-07
0.00365733 0.0313017 -9.90584e-08
-1.06252e-07 -9.90584e-08 0.031081

0.0290707 -0.00188001 -4.6841e-08
-0.00188001 0.0348008 1.04713e-08
-4.6841e-08 1.04713e-08 0.032548

0.0346328 0.00441808 -5.74772e-09
0.00441808 0.0343636 -8.9117e-08
-5.74772e-09 -8.9117e-08 0.0348861

0.0343291 7.31486e-05 -3.99147e-08
7.31486e-05 0.0272874 -4.87656e-08
-3.99147e-08 -4.87656e-08 0.0307799

0.0286945 -0.00235365 -4.67138e-08
-0.00235365 0.0360153 1.10565e-08
-4.67138e-08 1.10565e-08 0.0334516

0.0345753 -0.00035307 -8.30098e-08
-0.00035307 0.0273578 -4.3163e-08
-8.30098e-08 -4.3163e-08 0.0319786

0.0269212 0.00347844 -1.05165e-07
0.00347844 0.0309466 2.22446e-07
-1.05165e-07 2.22446e-07 0.027578

0.0338862 -0.000550258 7.84055e-08
-0.000550258 0.0264107 1.22156e-07
7.84055e-08 1.22156e-07 0.0301357

0.0266233 0.00113515 5.18214e-08
0.00113515 0.0340355 -4.16877e-08
5.18214e-08 -4.16877e-08 0.0291514

0.0452949 0.000853132 -1.54841e-07
0.000853132 0.0452654 -3.12539e-07
-1.54841e-07 -3.12539e-07 0.0366394

0.0336765 0.000247581 -4.02111e-08
0.000247581 0.0263167 -6.6715e-09
-4.02111e-08 -6.6715e-09 0.0298066

0.0293112 -0.0036322 5.96175e-08
-0.0036322 0.0311375 -1.2768e-07
5.96175e-08 -1.2768e-07 0.0300482

0.0337814 0.000900085 -7.08985e-08
0.000900085 0.0264978 2.64595e-08
-7.08985e-08 2.64595e-08 0.0300827

0.0285475 0.00250763 1.33724e-07
0.00250763 0.0338952 3.76772e-08
1.33724e-07 3.76772e-08 0.0322884

0.0286311 0.000526774 1.05853e-07
0.000526774 0.0176905 -1.60076e-07
1.05853e-07 -1.60076e-07 0.013172

0.0309158 0.00403462 -1.86317e-07
0.00403462 0.0306481 7.94777e-08
-1.86317e-07 7.94777e-08 0.0306121

0.025926 0.00477672 -2.73871e-09
0.00477672 0.0257343 -8.62479e-08
-2.73871e-09 -8.62479e-08 0.0211291

0.0415295 0.0013698 5.21285e-08
0.0013698 0.0383512 5.42618e-08
5.21285e-08 5.42618e-08 0.0361365

0.0344122 0.00187109 -9.448e-08
0.00187109 0.0279539 -1.55337e-08
-9.448e-08 -1.55337e-08 0.0310015

0.0217607 -0.00228803 1.86038e-07
-0.00228803 0.0299938 -4.61656e-08
1.86038e-07 -4.61656e-08 0.021126

0.0228643 -0.00535273 1.51982e-07
-0.00535273 0.023474 2.10247e-07
1.51982e-07 2.10247e-07 0.0125796

0.0348336 0.000800711 7.29676e-08
0.000800711 0.042256 -1.10306e-08
7.29676e-08 -1.10306e-08 0.0357876

0.0374543 -0.000661853 -6.07422e-08
-0.000661853 0.0412043 -3.0225e-07
-6.07422e-08 -3.0225e-07 0.0359022

0.0410759 0.00281342 -6.03341e-08
0.00281342 0.0359874 -2.1315e-07
-6.03341e-08 -2.1315e-07 0.0357678

0.0372548 0.000705062 4.80546e-08
0.000705062 0.0432159 -1.55281e-07
4.80546e-08 -1.55281e-07 0.0361429

0.0402619 -0.00121864 1.00565e-07
-0.00121864 0.0378312 6.53262e-08
1.00565e-07 6.53262e-08 0.0358094

0.0312171 -0.00367807 8.71991e-08
-0.00367807 0.031125 -1.2612e-07
8.71991e-08 -1.2612e-07 0.0309269

0.0227485 0.00527935 1.59834e-08
0.00527935 0.02371 1.16564e-07
1.59834e-08 1.16564e-07 0.0125817

0.0297625 -0.00231601 6.94035e-08
-0.00231601 0.022032 -3.02956e-08
6.94035e-08 -3.02956e-08 0.0208759

0.0376202 -0.000522599 -1.2665e-07
-0.000522599 0.0430654 -1.25693e-07
-1.2665e-07 -1.25693e-07 0.0361456

0.0412413 0.00263437 -7.13648e-08
0.00263437 0.039416 1.65712e-07
-7.13648e-08 1.65712e-07 0.0361281

0.0343027 -0.00161716 1.31151e-07
-0.00161716 0.0279959 -1.00129e-07
1.31151e-07 -1.00129e-07 0.0310855

0.0231066 -0.00552618 2.20887e-07
-0.00552618 0.0235638 1.36301e-07
2.20887e-07 1.36301e-07 0.0162168

0.0299448 -0.00233252 -1.89976e-07
-0.00233252 0.0221561 -3.25195e-08
-1.89976e-07 -3.25195e-08 0.0213453

0.0258949 0.00222742 2.13709e-08
0.00222742 0.0326557 2.20178e-08
2.13709e-08 2.20178e-08 0.0279167

0.027552 0.00252899 8.55128e-08
0.00252899 0.0323755 -6.26658e-08
8.55128e-08 -6.26658e-08 0.0284922

0.0341765 -0.00214101 3.8627e-08
-0.00214101 0.0271086 -1.88563e-07
3.8627e-08 -1.88563e-07 0.0304736

0.0229036 -0.00439271 7.55461e-08
-0.00439271 0.0272503 -2.28676e-07
7.55461e-08 -2.28676e-07 0.0198513

0.0294953 0.00247171 2.47743e-08
0.00247171 0.0218353 -1.9018e-08
2.47743e-08 -1.9018e-08 0.0202819

0.0298739 -0.00327116 -1.1841e-08
-0.00327116 0.0245146 8.49369e-08
-1.1841e-08 8.49369e-08 0.0230493

0.0344788 0.00257774 -1.67018e-07
0.00257774 0.0382044 -1.41575e-07
-1.67018e-07 -1.41575e-07 0.0352723

0.028691 0.00383882 -1.27209e-07
0.00383882 0.0257809 -8.31986e-08
-1.27209e-07 -8.31986e-08 0.0231179

0.0349296 -0.00291602 4.09807e-08
-0.00291602 0.0374336 5.60754e-08
4.09807e-08 5.60754e-08 0.0351907

0.0255814 -0.00545567 -3.37357e-07
-0.00545567 0.0229034 7.44379e-08
-3.37357e-07 7.44379e-08 0.0158204

0.0373478 0.000745926 -9.48831e-11
0.000745926 0.0414144 2.9521e-07
-9.48831e-11 2.9521e-07 0.0359226

0.0231687 -0.00069323 1.83899e-07
-0.00069323 0.0313149 -5.05382e-08
1.83899e-07 -5.05382e-08 0.0231039

0.0410308 0.00137947 2.81709e-07
0.00137947 0.0377079 -7.35879e-08
2.81709e-07 -7.35879e-08 0.0359009

0.027677 0.0028053 8.02889e-08
0.0028053 0.0327509 -8.19924e-08
8.02889e-08 -8.19924e-08 0.0302326

0.0361409 0.000784583 8.40004e-09
0.000784583 0.0281331 1.41401e-07
8.40004e-09 1.41401e-07 0.0336747

0.0362562 0.00153424 -1.81317e-09
0.00153424 0.0316947 4.06199e-08
-1.81317e-09 4.06199e-08 0.0342222

0.0286386 0.00405719 -9.15235e-08
0.00405719 0.0198983 -1.80796e-08
-9.15235e-08 -1.80796e-08 0.0137599

0.0309739 -0.000783956 -5.14312e-08
-0.000783956 0.0370865 8.13326e-09
-5.14312e-08 8.13326e-09 0.0338831

0.0315566 0.0012435 4.22417e-08
0.0012435 0.0364228 1.81108e-07
4.22417e-08 1.81108e-07 0.0342611

0.0285504 -0.000375221 -1.3757e-07
-0.000375221 0.0369577 -8.54162e-08
-1.3757e-07 -8.54162e-08 0.0326722

0.0296043 0.00307129 2.65086e-07
0.00307129 0.034793 1.78849e-08
2.65086e-07 1.78849e-08 0.0337105

0.0347214 0.00112204 8.57649e-09
0.00112204 0.0278402 -7.8434e-09
8.57649e-09 -7.8434e-09 0.0322102

0.029189 -0.00369921 1.93352e-07
-0.00369921 0.0310228 1.75194e-07
1.93352e-07 1.75194e-07 0.0299111

0.0350564 -0.000236935 -8.98269e-08
-0.000236935 0.0275816 -9.71905e-08
-8.98269e-08 -9.71905e-08 0.0333947

0.0344535 -0.00254814 -1.31642e-07
-0.00254814 0.0381351 9.23281e-08
-1.31642e-07 9.23281e-08 0.0352624

0.0350121 0.00284923 -1.55585e-07
0.00284923 0.0375711 -5.07567e-08
-1.55585e-07 -5.07567e-08 0.0352422

0.0218897 -0.00213197 -6.22119e-08
-0.00213197 0.0299239 -5.91031e-08
-6.22119e-08 -5.91031e-08 0.0208524

0.034703 -0.00369084 5.33158e-08
-0.00369084 0.0319593 7.71794e-08
5.33158e-08 7.71794e-08 0.0330805

0.0292936 -0.00329752 2.59514e-08
-0.00329752 0.0321146 -1.20216e-07
2.59514e-08 -1.20216e-07 0.0304349

0.0267811 -0.00401712 -2.36029e-07
-0.00401712 0.0176061 2.72484e-07
-2.36029e-07 2.72484e-07 0.0127266

0.0324054 0.000418891 6.83355e-08
0.000418891 0.0381065 8.80981e-08
6.83355e-08 8.80981e-08 0.0344073

0.034539 0.00381755 5.26068e-08
0.00381755 0.0309433 -5.33609e-08
5.26068e-08 -5.33609e-08 0.0326618

0.028378 0.00258133 6.62632e-08
0.00258133 0.0341315 1.95598e-08
6.62632e-08 1.95598e-08 0.0322154

0.0315437 0.00103786 -9.55148e-08
0.00103786 0.0228451 4.90542e-08
-9.55148e-08 4.90542e-08 0.0240705

0.0270988 -0.0043589 -1.20393e-07
-0.0043589 0.023738 1.06575e-07
-1.20393e-07 1.06575e-07 0.0183245

0.0362611 -0.00140295 1.30513e-07
-0.00140295 0.0387439 2.07672e-08
1.30513e-07 2.07672e-08 0.0354027

0.0315576 0.00317087 -8.46434e-08
0.00317087 0.0344026 -8.78403e-08
-8.46434e-08 -8.78403e-08 0.0340919

0.0273029 -0.00415633 3.10317e-07
-0.00415633 0.022176 -8.1876e-08
3.10317e-07 -8.1876e-08 0.0184124

0.0303596 0.00139117 -1.02615e-08
0.00139117 0.0228316 4.72363e-08
-1.02615e-08 4.72363e-08 0.0209556

0.0186029 -0.00269707 -5.86475e-08
-0.00269707 0.02893 3.29745e-08
-5.86475e-08 3.29745e-08 0.0158939

0.0272014 0.00188897 7.75519e-08
0.00188897 0.0343221 1.9874e-08
7.75519e-08 1.9874e-08 0.0306561

0.0353835 0.00305697 6.03033e-08
0.00305697 0.0308212 -1.78203e-07
6.03033e-08 -1.78203e-07 0.0327553

0.022649 0.00538624 -1.21695e-07
0.00538624 0.0240898 -4.21566e-08
-1.21695e-07 -4.21566e-08 0.0161994

0.0459502 0.0022384 8.63143e-07
0.0022384 0.0417511 -4.48155e-07
8.63143e-07 -4.48155e-07 0.0366403

0.0230825 -0.000534403 -6.47821e-08
-0.000534403 0.0313558 -6.43716e-08
-6.47821e-08 -6.43716e-08 0.0230738

0.0463635 -0.00225609 4.96095e-07
-0.00225609 0.0412944 -1.84655e-07
4.96095e-07 -1.84655e-07 0.0365954

0.0370663 -0.0036244 6.66243e-08
-0.0036244 0.0334925 1.16579e-08
6.66243e-08 1.16579e-08 0.0346223

0.0351391 0.00361916 9.4288e-09
0.00361916 0.0300057 9.96398e-09
9.4288e-09 9.96398e-09 0.032458

0.0299635 -0.00315916 -1.16886e-07
-0.00315916 0.0246918 -1.47242e-07
-1.16886e-07 -1.47242e-07 0.0232872

0.0230135 0.00403013 -5.84573e-08
0.00403013 0.0277805 1.33441e-07
-5.84573e-08 1.33441e-07 0.0203832

0.0210949 -0.00137862 1.28512e-07
-0.00137862 0.0298966 1.06592e-07
1.28512e-07 1.06592e-07 0.0182525

0.0287475 0.00288903 7.83256e-08
0.00288903 0.0342294 2.17118e-08
7.83256e-08 2.17118e-08 0.0327013

0.0370131 0.00223597 7.67191e-08
0.00223597 0.0334534 5.92029e-09
7.67191e-08 5.92029e-09 0.0343856

0.0281499 0.0019881 5.31165e-08
0.0019881 0.0340617 -4.76129e-08
5.31165e-08 -4.76129e-08 0.030867

0.0318843 0.00207312 -1.10988e-07
0.00207312 0.0252554 2.50681e-08
-1.10988e-07 2.50681e-08 0.0256188

0.0239088 -0.00277457 1.78006e-07
-0.00277457 0.0297666 -3.38981e-08
1.78006e-07 -3.38981e-08 0.0215626

0.0279002 -0.00376394 -1.84042e-07
-0.00376394 0.0218162 -5.00835e-08
-1.84042e-07 -5.00835e-08 0.0180769

0.0293329 -0.00323199 7.00287e-08
-0.00323199 0.0326313 -8.57676e-08
7.00287e-08 -8.57676e-08 0.0324044

0.030628 0.00361504 6.67163e-08
0.00361504 0.0322302 1.53202e-07
6.67163e-08 1.53202e-07 0.0323722

0.0287096 0.00304829 5.70867e-09
0.00304829 0.0340284 2.16105e-08
5.70867e-09 2.16105e-08 0.0326316

0.0292083 0.00172504 -3.20318e-08
0.00172504 0.0376192 1.41118e-07
-3.20318e-08 1.41118e-07 0.0338476

0.0344785 0.00123262 1.10755e-08
0.00123262 0.0275252 5.83347e-08
1.10755e-08 5.83347e-08 0.0306762

0.0199615 -0.000605241 -8.08632e-08
-0.000605241 0.0296622 -3.08621e-08
-8.08632e-08 -3.08621e-08 0.0181049

0.0297989 -0.00486286 -3.90618e-09
-0.00486286 0.0330506 -2.91787e-08
-3.90618e-09 -2.91787e-08 0.0337431

0.0290828 0.00360006 -1.41979e-07
0.00360006 0.0313611 -9.37978e-08
-1.41979e-07 -9.37978e-08 0.0302655

0.0181063 0.000282825 -2.07008e-08
0.000282825 0.0293121 1.39102e-07
-2.07008e-08 1.39102e-07 0.0168793

0.0278448 0.004424 -6.47597e-08
0.004424 0.0209691 3.20179e-09
-6.47597e-08 3.20179e-09 0.0174556

0.0291928 -0.0030205 7.48919e-08
-0.0030205 0.0327047 1.30589e-07
7.48919e-08 1.30589e-07 0.0321868

0.0352443 0.000759727 -1.94051e-08
0.000759727 0.0273401 4.50844e-08
-1.94051e-08 4.50844e-08 0.0325542

0.0294287 0.00352045 -1.50303e-07
0.00352045 0.0252025 -5.04825e-08
-1.50303e-07 -5.04825e-08 0.0231123

0.0396373 0.00170966 -2.71408e-08
0.00170966 0.0390398 1.94422e-07
-2.71408e-08 1.94422e-07 0.0359412

0.0283765 0.00312353 -2.61665e-08
0.00312353 0.0224025 3.1421e-08
-2.61665e-08 3.1421e-08 0.0182873

0.0394898 -0.00175078 -6.20382e-09
-0.00175078 0.0390661 1.95484e-07
-6.20382e-09 1.95484e-07 0.0359064

0.023262 0.000103501 -6.5145e-08
0.000103501 0.0315194 -8.27361e-08
-6.5145e-08 -8.27361e-08 0.0231207

0.0327608 -0.000288392 -5.83993e-08
-0.000288392 0.0246611 -2.4954e-07
-5.83993e-08 -2.4954e-07 0.0269675

0.0380554 -0.00212903 2.13689e-08
-0.00212903 0.0304651 7.9155e-08
2.13689e-08 7.9155e-08 0.0347945

0.0292398 0.00320584 1.31814e-08
0.00320584 0.0332793 -1.20037e-07
1.31814e-08 -1.20037e-07 0.0333443

0.0289519 -0.0017725 -6.59358e-08
-0.0017725 0.0366108 -1.1722e-07
-6.59358e-08 -1.1722e-07 0.0335009

0.0365847 -0.00108474 -6.93632e-08
-0.00108474 0.0264779 -1.29413e-07
-6.93632e-08 -1.29413e-07 0.0338613

0.0311814 -0.00292573 -4.89086e-08
-0.00292573 0.038307 -4.41569e-08
-4.89086e-08 -4.41569e-08 0.0348449

0.0381665 -0.000885191 1.62241e-07
-0.000885191 0.0387318 -1.82952e-07
1.62241e-07 -1.82952e-07 0.0358365

0.0301812 -0.00393991 9.91355e-08
-0.00393991 0.0327119 1.30564e-07
9.91355e-08 1.30564e-07 0.0327646

0.0213336 0.00146967 -1.58341e-07
0.00146967 0.029615 6.06995e-08
-1.58341e-07 6.06995e-08 0.0182964

0.0293894 -0.00364589 -6.96806e-08
-0.00364589 0.0253503 -4.79427e-08
-6.96806e-08 -4.79427e-08 0.023183

0.0328604 -0.0018169 -1.07375e-07
-0.0018169 0.0397184 1.22395e-07
-1.07375e-07 1.22395e-07 0.0352421

0.0350923 7.6726e-05 5.51808e-10
7.6726e-05 0.0272235 4.68361e-08
5.51808e-10 4.68361e-08 0.0332526

0.0308196 -0.0028288 -7.28839e-08
-0.0028288 0.034893 -1.05679e-07
-7.28839e-08 -1.05679e-07 0.0340853

0.0295359 0.00338852 -1.04049e-07
0.00338852 0.0328727 1.11859e-07
-1.04049e-07 1.11859e-07 0.0333273

0.0264616 -0.00406355 6.91058e-08
-0.00406355 0.0272629 -2.292e-07
6.91058e-08 -2.292e-07 0.0215854

0.0371731 -0.000958111 2.2809e-07
-0.000958111 0.0416106 1.46092e-08
2.2809e-07 1.46092e-08 0.0358876

0.0227119 -0.00423787 -1.9174e-07
-0.00423787 0.0272448 1.98523e-07
-1.9174e-07 1.98523e-07 0.0168782

0.034184 -0.00252481 3.57445e-08
-0.00252481 0.0286075 1.01134e-07
3.57445e-08 1.01134e-07 0.0310457

0.0364266 0.000290022 -2.1771e-08
0.000290022 0.0294387 -4.91081e-08
-2.1771e-08 -4.91081e-08 0.0341949

0.0396421 0.00239629 -1.46643e-07
0.00239629 0.0391138 -1.08387e-07
-1.46643e-07 -1.08387e-07 0.0358686

0.0238572 0.00260939 5.54359e-10
0.00260939 0.0301529 2.50303e-08
5.54359e-10 2.50303e-08 0.0217998

0.0334321 0.00358138 2.03167e-08
0.00358138 0.0307166 2.73828e-08
2.03167e-08 2.73828e-08 0.0317684

0.0316444 -0.00319444 1.85442e-08
-0.00319444 0.026553 2.54681e-08
1.85442e-08 2.54681e-08 0.0269365

0.0289304 -0.00234102 -3.45805e-09
-0.00234102 0.0342362 1.88446e-08
-3.45805e-09 1.88446e-08 0.0326071

0.0262455 0.00450173 2.33257e-07
0.00450173 0.0245587 2.07057e-07
2.33257e-07 2.07057e-07 0.0180819

0.0284242 -0.00286669 8.34499e-08
-0.00286669 0.0340336 7.00441e-08
8.34499e-08 7.00441e-08 0.0324503

0.0331503 0.004059 8.8748e-08
0.004059 0.0304655 -1.84946e-07
8.8748e-08 -1.84946e-07 0.0315435

0.0333362 -0.00331184 1.41751e-07
-0.00331184 0.028358 1.74715e-08
1.41751e-07 1.74715e-08 0.0300471

0.0291625 -0.0032955 2.88995e-07
-0.0032955 0.0319889 1.08509e-07
2.88995e-07 1.08509e-07 0.0304386

0.0314568 -0.0024295 -2.14561e-08
-0.0024295 0.0247198 8.37609e-08
-2.14561e-08 8.37609e-08 0.0251573

0.0329569 -0.00246676 1.26821e-07
-0.00246676 0.0267106 3.86712e-08
1.26821e-07 3.86712e-08 0.0285978

0.0294928 -0.00334211 1.6258e-07
-0.00334211 0.0329517 9.04491e-09
1.6258e-07 9.04491e-09 0.0334087

0.0261353 0.00463412 5.61978e-08
0.00463412 0.0255424 1.021e-07
5.61978e-08 1.021e-07 0.0210933

0.0281512 0.00201688 1.30642e-07
0.00201688 0.0343377 2.92268e-08
1.30642e-07 2.92268e-08 0.0311107

0.0308881 0.00348138 -1.79219e-08
0.00348138 0.0322568 -3.13724e-08
-1.79219e-08 -3.13724e-08 0.0326015

0.0291586 0.00334825 -4.41046e-08
0.00334825 0.0331931 -8.73198e-08
-4.41046e-08 -8.73198e-08 0.0332617

0.0289854 0.00152325 -8.19424e-08
0.00152325 0.0354717 1.42907e-07
-8.19424e-08 1.42907e-07 0.0326969

0.0310543 -0.00106173 -1.68012e-07
-0.00106173 0.0231424 7.14028e-09
-1.68012e-07 7.14028e-09 0.0220789

0.023885 0.00240579 -1.59141e-07
0.00240579 0.0304118 3.82952e-08
-1.59141e-07 3.82952e-08 0.022114

0.0292147 -0.00320409 8.68151e-09
-0.00320409 0.0326378 -5.07907e-08
8.68151e-09 -5.07907e-08 0.0316198

0.0289889 0.003357 1.1054e-07
0.003357 0.0309342 1.89022e-07
1.1054e-07 1.89022e-07 0.0285693

0.026614 -0.00459145 -8.44008e-09
-0.00459145 0.0252316 -4.35783e-08
-8.44008e-09 -4.35783e-08 0.0212576

0.026279 0.00489374 3.43922e-07
0.00489374 0.0209471 -2.307e-07
3.43922e-07 -2.307e-07 0.0167631

0.0235039 -0.00428721 -5.2451e-08
-0.00428721 0.0274659 5.95404e-08
-5.2451e-08 5.95404e-08 0.0206273

0.0266731 -0.00402773 3.91069e-08
-0.00402773 0.027484 6.42068e-08
3.91069e-08 6.42068e-08 0.022051

0.0353669 -0.000906425 -9.22427e-08
-0.000906425 0.0273919 -1.50837e-08
-9.22427e-08 -1.50837e-08 0.0326565

0.0260464 0.00392187 6.44234e-08
0.00392187 0.0280936 -1.90356e-07
6.44234e-08 -1.90356e-07 0.0221035

0.0307895 0.00171662 -1.38417e-07
0.00171662 0.0233614 3.27368e-08
-1.38417e-07 3.27368e-08 0.0220266

0.0214318 0.00172224 -1.66653e-07
0.00172224 0.0302421 3.68296e-08
-1.66653e-07 3.68296e-08 0.0211338

0.024264 -0.00288973 -1.05627e-07
-0.00288973 0.0299533 -5.54348e-08
-1.05627e-07 -5.54348e-08 0.0220873

0.0313472 -0.000131289 -6.76015e-08
-0.000131289 0.0392752 -2.05729e-08
-6.76015e-08 -2.05729e-08 0.0346725

0.0230595 0.000294715 1.98407e-07
0.000294715 0.0314622 -4.74979e-08
1.98407e-07 -4.74979e-08 0.0230634

0.0227782 0.00400166 1.77307e-08
0.00400166 0.0281287 -1.93915e-07
1.77307e-08 -1.93915e-07 0.0206391

0.0288902 0.00158574 2.36485e-07
0.00158574 0.0358341 -1.09503e-07
2.36485e-07 -1.09503e-07 0.0328954

0.0293174 -0.0035804 3.78689e-09
-0.0035804 0.025131 5.82675e-08
3.78689e-09 5.82675e-08 0.0232409

0.0369783 0.00273316 7.74791e-08
0.00273316 0.0297251 -1.34352e-08
7.74791e-08 -1.34352e-08 0.0338035

0.0371775 0.00348324 -1.21791e-07
0.00348324 0.0334248 6.81618e-09
-1.21791e-07 6.81618e-09 0.034654

0.034546 -0.00244658 -2.45003e-08
-0.00244658 0.0285314 -5.42971e-10
-2.45003e-08 -5.42971e-10 0.0313807

0.0390578 -0.000265708 -9.16043e-08
-0.000265708 0.0339264 -1.36312e-07
-9.16043e-08 -1.36312e-07 0.03521

0.0314809 -0.00418766 -7.66806e-08
-0.00418766 0.0317836 8.28751e-09
-7.66806e-08 8.28751e-09 0.0321582

0.0294637 0.00300768 -1.24935e-07
0.00300768 0.0223285 1.42095e-08
-1.24935e-07 1.42095e-08 0.0210677

0.0302318 0.00397313 -9.99148e-08
0.00397313 0.0326657 1.193e-07
-9.99148e-08 1.193e-07 0.0327219

0.0302793 0.00384702 7.56118e-08
0.00384702 0.0326095 1.36358e-07
7.56118e-08 1.36358e-07 0.0326767

0.0262459 0.00396204 3.83135e-08
0.00396204 0.0277693 1.37649e-07
3.83135e-08 1.37649e-07 0.0218661

0.0344525 0.00357688 7.7662e-09
0.00357688 0.0317813 9.09279e-09
7.7662e-09 9.09279e-09 0.0328333

0.0302503 0.000452539 -1.57534e-07
0.000452539 0.0204294 -7.89169e-09
-1.57534e-07 -7.89169e-09 0.0205744

0.033188 0.00420072 1.1561e-07
0.00420072 0.032375 -1.84085e-08
1.1561e-07 -1.84085e-08 0.0334857

0.0305026 -0.00165449 -1.13973e-07
-0.00165449 0.0366184 -1.1947e-07
-1.13973e-07 -1.1947e-07 0.0336647

0.0373621 0.00323273 -1.35193e-07
0.00323273 0.0334616 5.47755e-08
-1.35193e-07 5.47755e-08 0.0346661

0.0307391 -0.00389609 -3.33921e-08
-0.00389609 0.0322751 -1.08332e-07
-3.33921e-08 -1.08332e-07 0.0326822

0.0293757 -0.000644799 -6.44288e-08
-0.000644799 0.036905 -7.91167e-08
-6.44288e-08 -7.91167e-08 0.0328498

0.0288144 -0.00315258 3.50888e-07
-0.00315258 0.0221411 -2.74629e-08
3.50888e-07 -2.74629e-08 0.0187601

0.0290044 0.00384477 -8.11037e-08
0.00384477 0.0255795 1.05669e-07
-8.11037e-08 1.05669e-07 0.0230743

0.0217026 0.00189113 1.51199e-07
0.00189113 0.0300631 3.55232e-08
1.51199e-07 3.55232e-08 0.0210851

0.0349919 -0.000161334 1.1792e-07
-0.000161334 0.0273916 -1.51375e-08
1.1792e-07 -1.51375e-08 0.0333035

0.0344222 3.51527e-07 -7.27216e-08
3.51527e-07 0.0272765 -5.11658e-08
-7.27216e-08 -5.11658e-08 0.0320432

0.0291676 0.00304027 4.36921e-09
0.00304027 0.0326823 1.39404e-07
4.36921e-09 1.39404e-07 0.0321347

0.0314517 0.00316614 1.22966e-07
0.00316614 0.0342519 -5.33104e-09
1.22966e-07 -5.33104e-09 0.0340601

0.0291708 -0.00320435 7.13037e-08
-0.00320435 0.0332408 -7.96363e-08
7.13037e-08 -7.96363e-08 0.0333809

0.0287755 -8.55954e-05 -2.54213e-08
-8.55954e-05 0.0367067 -1.5622e-08
-2.54213e-08 -1.5622e-08 0.0325275

0.0294662 0.00337582 -9.8236e-08
0.00337582 0.033077 -1.30277e-07
-9.8236e-08 -1.30277e-07 0.0333567

0.0328615 -0.00134664 -1.5083e-07
-0.00134664 0.0253634 1.36063e-07
-1.5083e-07 1.36063e-07 0.0278307

0.0263566 -0.00425481 -9.72532e-08
-0.00425481 0.0281816 4.5423e-08
-9.72532e-08 4.5423e-08 0.0242691

0.0362996 -0.000331721 6.58264e-08
-0.000331721 0.0293852 4.31941e-09
6.58264e-08 4.31941e-09 0.0340299

0.0267827 -0.00444589 2.42032e-07
-0.00444589 0.0251921 5.0121e-08
2.42032e-07 5.0121e-08 0.0209505

0.0309016 0.00250722 -3.73026e-08
0.00250722 0.0350651 -3.86099e-08
-3.73026e-08 -3.86099e-08 0.0340697

0.0351152 -0.00349693 -1.02784e-07
-0.00349693 0.0303902 1.14617e-07
-1.02784e-07 1.14617e-07 0.0326167

0.030504 -0.00124997 6.14012e-08
-0.00124997 0.0229798 -4.90174e-08
6.14012e-08 -4.90174e-08 0.0214797

0.0371493 -0.00307707 2.41484e-08
-0.00307707 0.0316551 8.25583e-08
2.41484e-08 8.25583e-08 0.0339897

0.0349713 0.000321884 3.11371e-08
0.000321884 0.0275569 3.0163e-08
3.11371e-08 3.0163e-08 0.0334319

0.0358452 -0.00308834 -1.68691e-07
-0.00308834 0.0332595 -1.48419e-07
-1.68691e-07 -1.48419e-07 0.0341453

0.0349308 -0.00341088 1.13959e-07
-0.00341088 0.0295968 3.10154e-08
1.13959e-07 3.10154e-08 0.0321799

0.0349117 -0.00113373 -1.23213e-07
-0.00113373 0.0278519 -6.53513e-08
-1.23213e-07 -6.53513e-08 0.0323434

0.0314917 -0.00306252 -8.79335e-08
-0.00306252 0.0344507 1.49437e-07
-8.79335e-08 1.49437e-07 0.0341484

0.0292373 -0.00407126 -1.14485e-07
-0.00407126 0.0269014 1.66423e-08
-1.14485e-07 1.66423e-08 0.0253478

0.0349949 -0.00324385 1.05467e-07
-0.00324385 0.0299175 -2.4701e-09
1.05467e-07 -2.4701e-09 0.0321971

0.0314647 0.00140917 -6.25063e-08
0.00140917 0.0233285 3.66747e-08
-6.25063e-08 3.66747e-08 0.0244853

0.0336667 0.00348417 8.87915e-08
0.00348417 0.0334461 2.31529e-08
8.87915e-08 2.31529e-08 0.0336519

0.0298947 -0.00496741 -1.53626e-07
-0.00496741 0.0330804 2.16331e-08
-1.53626e-07 2.16331e-08 0.0338591

0.0300451 0.00492016 -5.9612e-08
0.00492016 0.0329425 -1.32006e-07
-5.9612e-08 -1.32006e-07 0.033826

0.0276902 -0.00374165 1.94042e-12
-0.00374165 0.034809 -1.50973e-07
1.94042e-12 -1.50973e-07 0.0337686

0.027928 0.00354705 -1.11113e-07
0.00354705 0.0348372 1.64868e-09
-1.11113e-07 1.64868e-09 0.0337334

0.0364317 -0.00115382 8.73538e-08
-0.00115382 0.0263441 3.95392e-08
8.73538e-08 3.95392e-08 0.0337598

0.0362004 0.00124749 2.78616e-08
0.00124749 0.0265654 1.11425e-07
2.78616e-08 1.11425e-07 0.0337226

0.0350367 -0.00130675 4.8704e-16
-0.00130675 0.0284699 8.01997e-16
4.8704e-16 8.01997e-16 0.0325778

0.0344381 0.00425874 -1.76596e-07
0.00425874 0.034291 -1.08265e-08
-1.76596e-07 -1.08265e-08 0.0348143

0.034314 -0.00435676 -1.42544e-08
-0.00435676 0.0342829 -4.00752e-08
-1.42544e-08 -4.00752e-08 0.0348027

0.030523 0.00209357 1.0506e-08
0.00209357 0.0381668 -1.32926e-07
1.0506e-08 -1.32926e-07 0.0348515

0.030666 -0.00205948 3.44458e-08
-0.00205948 0.0380967 8.42643e-08
3.44458e-08 8.42643e-08 0.0348388

0.0395035 -0.000529235 1.15942e-07
-0.000529235 0.0328509 -1.11057e-07
1.15942e-07 -1.11057e-07 0.0352596

0.0397064 0.000513629 -7.96673e-08
0.000513629 0.0326238 6.28715e-08
-7.96673e-08 6.28715e-08 0.0353048

0.0239666 0.00127607 1.78178e-07
0.00127607 0.0320054 -8.55095e-08
1.78178e-07 -8.55095e-08 0.025186

0.0311641 -0.00326547 -5.4752e-08
-0.00326547 0.0322427 -1.24884e-07
-5.4752e-08 -1.24884e-07 0.0328038

0.0277823 -0.00478556 1.12927e-07
-0.00478556 0.0333142 -8.05985e-08
1.12927e-07 -8.05985e-08 0.0334572

0.0333613 -0.000610162 -1.68633e-07
-0.000610162 0.0264049 1.04796e-07
-1.68633e-07 1.04796e-07 0.0284501

0.0381896 -0.00225172 1.40921e-07
-0.00225172 0.0307964 -6.83675e-08
1.40921e-07 -6.83675e-08 0.0348946

0.0382377 0.00218408 -1.34397e-08
0.00218408 0.0309095 -3.5984e-08
-1.34397e-08 -3.5984e-08 0.0349266

0.0360858 1.56148e-05 5.63816e-09
1.56148e-05 0.0251282 7.54636e-08
5.63816e-09 7.54636e-08 0.0334722

0.0242426 0.00302916 -3.23169e-08
0.00302916 0.0303997 -3.50153e-08
-3.23169e-08 -3.50153e-08 0.0242787

0.0276763 0.00475618 1.74656e-08
0.00475618 0.0333145 -8.47336e-08
1.74656e-08 -8.47336e-08 0.033395

0.0286768 -0.00307595 1.42786e-08
-0.00307595 0.0342631 1.8524e-08
1.42786e-08 1.8524e-08 0.0327543

0.0310876 0.00303595 9.91779e-08
0.00303595 0.0251484 -3.7771e-08
9.91779e-08 -3.7771e-08 0.0254689

0.037229 0.00316573 6.25955e-08
0.00316573 0.0315424 1.90013e-08
6.25955e-08 1.90013e-08 0.0340777

0.0292287 -0.00406765 3.48412e-08
-0.00406765 0.0269376 8.20644e-09
3.48412e-08 8.20644e-09 0.025323

0.0364035 -0.000453604 4.25325e-08
-0.000453604 0.0296935 9.24824e-08
4.25325e-08 9.24824e-08 0.0341329

0.0273468 -0.0044948 -6.67348e-09
-0.0044948 0.0333972 6.90531e-08
-6.67348e-09 6.90531e-08 0.0334438

0.0240394 0.00107907 -8.87933e-08
0.00107907 0.0322466 -1.3121e-07
-8.87933e-08 -1.3121e-07 0.0255076

0.0242313 0.00282682 -1.60085e-07
0.00282682 0.0307036 3.72295e-08
-1.60085e-07 3.72295e-08 0.0245466

0.0267942 0.00459465 -4.18123e-08
0.00459465 0.0240433 -4.00427e-08
-4.18123e-08 -4.00427e-08 0.0182148

0.0298528 0.000199915 -7.46948e-09
0.000199915 0.0200896 5.46268e-08
-7.46948e-09 5.46268e-08 0.0193637

0.0319107 -0.00302371 -1.20184e-08
-0.00302371 0.0341643 -4.01498e-08
-1.20184e-08 -4.01498e-08 0.0340375

0.02292 0.00399988 1.73589e-07
0.00399988 0.027662 8.75264e-08
1.73589e-07 8.75264e-08 0.0176542

0.0292118 0.00310108 -1.45326e-07
0.00310108 0.0327651 -8.78611e-08
-1.45326e-07 -8.78611e-08 0.0310143

0.031597 -0.000694458 2.06592e-07
-0.000694458 0.0231615 1.7088e-08
2.06592e-07 1.7088e-08 0.0244865

0.0327639 0.00146457 1.42543e-07
0.00146457 0.0253484 4.50983e-09
1.42543e-07 4.50983e-09 0.0276148

0.0359802 5.62443e-05 8.05052e-08
5.62443e-05 0.0249612 -8.26441e-08
8.05052e-08 -8.26441e-08 0.0333883

0.0279682 -0.0038054 5.48049e-08
-0.0038054 0.0349512 -1.09301e-07
5.48049e-08 -1.09301e-07 0.0338179

0.0393155 -0.000844039 -2.88637e-07
-0.000844039 0.0416035 3.13124e-07
-2.88637e-07 3.13124e-07 0.0361918

0.0298699 0.0049388 5.46978e-08
0.0049388 0.0329583 1.16304e-07
5.46978e-08 1.16304e-07 0.0337811

0.0302903 0.000214592 -7.12019e-08
0.000214592 0.020398 -2.23995e-09
-7.12019e-08 -2.23995e-09 0.0172772

0.0266756 -0.00425065 1.05472e-07
-0.00425065 0.0281352 -3.32655e-08
1.05472e-07 -3.32655e-08 0.0244391

0.0277486 0.00481568 -1.03298e-07
0.00481568 0.0333173 -1.21416e-07
-1.03298e-07 -1.21416e-07 0.0334574

0.0279469 -0.00145862 -4.60514e-09
-0.00145862 0.0350871 1.9968e-07
-4.60514e-09 1.9968e-07 0.0314522

0.0244667 -0.00330536 6.82497e-09
-0.00330536 0.0300173 2.45186e-07
6.82497e-09 2.45186e-07 0.0242187

0.027993 0.00377958 -3.48308e-08
0.00377958 0.0349123 -3.87595e-08
-3.48308e-08 -3.87595e-08 0.0337888

0.0313636 -0.00340971 2.04979e-08
-0.00340971 0.0270104 2.98742e-08
2.04979e-08 2.98742e-08 0.0269931

0.0402805 0.00140894 6.18959e-08
0.00140894 0.0406181 3.6818e-07
6.18959e-08 3.6818e-07 0.0361721

0.0258827 0.00400323 1.23212e-07
0.00400323 0.0289565 -8.21696e-08
1.23212e-07 -8.21696e-08 0.0245127

0.0366798 0.00110273 -2.33058e-08
0.00110273 0.0263546 -4.67343e-08
-2.33058e-08 -4.67343e-08 0.0338998

0.0333441 0.00398428 5.98647e-08
0.00398428 0.0321177 1.5409e-07
5.98647e-08 1.5409e-07 0.0333176

0.0292303 0.00306735 -5.56218e-08
0.00306735 0.032608 1.20672e-07
-5.56218e-08 1.20672e-07 0.0321598

0.0343663 -0.00431073 1.89733e-08
-0.00431073 0.0345073 1.47052e-07
1.89733e-08 1.47052e-07 0.0348869

0.0354917 -0.00306363 -1.4197e-07
-0.00306363 0.0305921 3.47616e-08
-1.4197e-07 3.47616e-08 0.0327524

0.033368 0.00138747 2.23715e-07
0.00138747 0.0395785 1.21348e-07
2.23715e-07 1.21348e-07 0.0350044

0.0291992 -0.00307932 2.5935e-07
-0.00307932 0.0328758 -1.63778e-07
2.5935e-07 -1.63778e-07 0.0313854

0.0292669 -0.0012323 -2.06085e-07
-0.0012323 0.0192882 -4.70262e-09
-2.06085e-07 -4.70262e-09 0.0164133

0.0287804 -0.00183245 9.38505e-08
-0.00183245 0.0184151 3.40945e-07
9.38505e-08 3.40945e-07 0.0161982

0.038531 0.00220231 -1.35909e-07
0.00220231 0.0332405 5.60919e-08
-1.35909e-07 5.60919e-08 0.0347648

0.0280581 0.0029452 1.29483e-07
0.0029452 0.0323373 -1.52443e-07
1.29483e-07 -1.52443e-07 0.0295202

0.0320694 0.0038347 -1.08246e-07
0.0038347 0.030963 -6.65946e-08
-1.08246e-07 -6.65946e-08 0.0314565

0.0320523 9.00232e-05 5.1536e-08
9.00232e-05 0.0245786 -2.62574e-07
5.1536e-08 -2.62574e-07 0.0248899

0.0302395 0.00086613 -1.38465e-08
0.00086613 0.0385829 6.29361e-08
-1.38465e-08 6.29361e-08 0.0340984

0.0354043 0.0021911 9.6033e-08
0.0021911 0.029325 1.75026e-07
9.6033e-08 1.75026e-07 0.0328604

0.0248132 -0.00333927 -5.43632e-08
-0.00333927 0.0300084 -1.36594e-07
-5.43632e-08 -1.36594e-07 0.0244719

0.0286525 -0.000337917 1.27583e-07
-0.000337917 0.0366595 -9.56333e-10
1.27583e-07 -9.56333e-10 0.0323979

0.0252172 0.00174015 2.5971e-09
0.00174015 0.0320322 -9.08205e-08
2.5971e-09 -9.08205e-08 0.0256859

0.0332828 -0.00390975 1.63403e-09
-0.00390975 0.030499 4.32813e-08
1.63403e-09 4.32813e-08 0.0315945

0.029067 -0.00389638 5.68026e-08
-0.00389638 0.0282024 5.06026e-08
5.68026e-08 5.06026e-08 0.0257155

0.0261511 0.00409907 -1.48611e-07
0.00409907 0.0285484 -1.92077e-07
-1.48611e-07 -1.92077e-07 0.02432

0.0452876 -0.00201743 -3.05227e-07
-0.00201743 0.0396065 -8.91698e-08
-3.05227e-07 -8.91698e-08 0.0363687

0.0316686 0.00025646 -4.35335e-08
0.00025646 0.0393284 8.88088e-08
-4.35335e-08 8.88088e-08 0.0347711

0.0306188 0.00265085 1.24614e-07
0.00265085 0.0384447 -1.15233e-07
1.24614e-07 -1.15233e-07 0.0349597

0.0387674 0.00209465 -2.14457e-07
0.00209465 0.0302238 -1.76324e-07
-2.14457e-07 -1.76324e-07 0.0349445

0.0313733 -0.00345043 -4.88665e-08
-0.00345043 0.032143 -1.32166e-07
-4.88665e-08 -1.32166e-07 0.0325749

0.0318205 0.00233616 -1.57954e-08
0.00233616 0.0256221 1.31266e-07
-1.57954e-08 1.31266e-07 0.0258816

0.0349952 -0.000708599 1.90049e-07
-0.000708599 0.0415767 1.87203e-07
1.90049e-07 1.87203e-07 0.0357295

0.0357907 -0.00251874 -1.57086e-07
-0.00251874 0.0295524 1.27997e-08
-1.57086e-07 1.27997e-08 0.0332601

0.0332995 -0.00203969 1.16771e-07
-0.00203969 0.0266547 1.29506e-08
1.16771e-07 1.29506e-08 0.0286775

0.0252542 0.00151102 -5.7469e-08
0.00151102 0.0322769 -1.30103e-07
-5.7469e-08 -1.30103e-07 0.025952

0.0268066 -0.00334505 9.21334e-09
-0.00334505 0.0300116 2.45497e-07
9.21334e-09 2.45497e-07 0.0251892

0.0364794 -0.00336042 6.31161e-08
-0.00336042 0.0352892 6.88923e-09
6.31161e-08 6.88923e-09 0.0347442

0.0284778 0.00415255 -1.02386e-07
0.00415255 0.027718 -3.61078e-08
-1.02386e-07 -3.61078e-08 0.0254696

0.0372457 -0.00334549 9.3473e-08
-0.00334549 0.0333239 -1.09169e-07
9.3473e-08 -1.09169e-07 0.0346136

0.0322086 0.000338005 9.36096e-08
0.000338005 0.0248644 -2.02843e-07
9.36096e-08 -2.02843e-07 0.0254394

0.0191622 -0.00368934 -4.56358e-08
-0.00368934 0.0275279 -1.80053e-07
-4.56358e-08 -1.80053e-07 0.016312

0.029212 -0.00380387 -1.4767e-07
-0.00380387 0.0281948 -5.59514e-08
-1.4767e-07 -5.59514e-08 0.0258096

0.0230473 0.00412779 -1.34988e-07
0.00412779 0.0280224 -5.05527e-09
-1.34988e-07 -5.05527e-09 0.0175934

0.0296928 -0.0015593 -3.20269e-08
-0.0015593 0.0375354 3.45062e-09
-3.20269e-08 3.45062e-09 0.0336505

0.0243618 -0.00179381 1.60587e-07
-0.00179381 0.0318749 -1.41107e-08
1.60587e-07 -1.41107e-08 0.0254498

0.0424385 -0.00323358 -2.09271e-07
-0.00323358 0.0423769 5.48969e-08
-2.09271e-07 5.48969e-08 0.036377

0.0263384 0.0030913 4.80366e-08
0.0030913 0.0307038 3.73208e-08
4.80366e-08 3.73208e-08 0.0254796

0.0334787 -0.00432343 1.40198e-07
-0.00432343 0.0326612 -3.03803e-08
1.40198e-07 -3.03803e-08 0.0335684

0.0240822 -0.00155092 -9.83058e-08
-0.00155092 0.0318892 -6.92401e-09
-9.83058e-08 -6.92401e-09 0.0251785

0.0362246 -0.00253859 -5.94244e-08
-0.00253859 0.0295131 8.80121e-08
-5.94244e-08 8.80121e-08 0.0335213

0.0266751 0.00310492 -2.47381e-07
0.00310492 0.0303966 -3.1611e-08
-2.47381e-07 -3.1611e-08 0.0253149

0.034345 -0.000653902 -2.57407e-08
-0.000653902 0.0272786 -3.51607e-08
-2.57407e-08 -3.51607e-08 0.0305796

0.0188916 -0.00387174 -1.92871e-07
-0.00387174 0.0298035 1.59966e-07
-1.92871e-07 1.59966e-07 0.0129621

0.0280011 0.00275468 1.50597e-07
0.00275468 0.0326314 2.41037e-09
1.50597e-07 2.41037e-09 0.0305754

0.0314398 -0.0025125 -2.53201e-08
-0.0025125 0.0247238 -1.45201e-07
-2.53201e-08 -1.45201e-07 0.0254075

0.0391197 -0.00286923 -1.97465e-08
-0.00286923 0.0322229 -1.12868e-07
-1.97465e-08 -1.12868e-07 0.0349385

0.0287547 0.00412412 -9.64052e-08
0.00412412 0.0273017 7.96195e-08
-9.64052e-08 7.96195e-08 0.025257

0.0313632 -0.00391957 9.80682e-08
-0.00391957 0.0285437 -8.65794e-08
9.80682e-08 -8.65794e-08 0.0287326

0.0354096 0.00276409 -7.42079e-08
0.00276409 0.0308574 5.55569e-08
-7.42079e-08 5.55569e-08 0.0330408

0.0297746 -0.00370368 -1.13656e-07
-0.00370368 0.0329394 -2.39002e-08
-1.13656e-07 -2.39002e-08 0.033344

0.0270566 -0.00341038 6.06465e-08
-0.00341038 0.0299843 -1.27882e-07
6.06465e-08 -1.27882e-07 0.0253988

0.0284424 0.00377149 -6.80718e-08
0.00377149 0.0289414 -8.76743e-08
-6.80718e-08 -8.76743e-08 0.0258887

0.0313729 0.00341353 -1.69505e-09
0.00341353 0.0269008 8.09324e-08
-1.69505e-09 8.09324e-08 0.0269674

0.0365374 -0.00194439 -4.46801e-08
-0.00194439 0.0306266 1.19325e-07
-4.46801e-08 1.19325e-07 0.0336371

0.025535 -0.00216351 -9.58449e-10
-0.00216351 0.0318035 -2.78537e-08
-9.58449e-10 -2.78537e-08 0.0258551

0.0347012 -0.00231404 -2.50062e-08
-0.00231404 0.0283357 -1.68479e-09
-2.50062e-08 -1.68479e-09 0.0314574

0.0341872 0.00222306 -1.37403e-07
0.00222306 0.0274331 6.72968e-08
-1.37403e-07 6.72968e-08 0.0306052

0.0336459 -0.00124563 6.82961e-08
-0.00124563 0.0393009 -2.21671e-08
6.82961e-08 -2.21671e-08 0.0349287

0.032074 -0.00174685 1.27558e-07
-0.00174685 0.0253315 1.47342e-07
1.27558e-07 1.47342e-07 0.0258724

0.025003 7.98139e-05 8.97211e-08
7.98139e-05 0.0331528 5.89012e-08
8.97211e-08 5.89012e-08 0.0268625

0.0332491 0.00242884 1.2472e-07
0.00242884 0.027195 -2.44415e-08
1.2472e-07 -2.44415e-08 0.0289234

0.0311189 0.00359896 5.78557e-08
0.00359896 0.027294 -1.21562e-07
5.78557e-08 -1.21562e-07 0.0271239

0.0252966 -0.00204118 -1.31718e-07
-0.00204118 0.0318659 -7.69609e-09
-1.31718e-07 -7.69609e-09 0.0256123

0.0252023 -0.000154663 -1.02965e-07
-0.000154663 0.0332936 -1.09867e-07
-1.02965e-07 -1.09867e-07 0.0271453

0.0354144 0.00385825 2.0876e-07
0.00385825 0.0329964 2.86022e-08
2.0876e-07 2.86022e-08 0.0338967

0.0275871 -0.00143108 3.6615e-08
-0.00143108 0.0353436 -7.11904e-08
3.6615e-08 -7.11904e-08 0.0314434

0.0312356 -0.00348403 -7.06278e-08
-0.00348403 0.0269789 4.22426e-09
-7.06278e-08 4.22426e-09 0.027011

0.0312981 0.00277277 -7.66243e-08
0.00277277 0.0249232 -4.76937e-08
-7.66243e-08 -4.76937e-08 0.0252473

0.0345841 0.00311859 -1.33935e-07
0.00311859 0.0293879 7.40706e-08
-1.33935e-07 7.40706e-08 0.031797

0.0279926 0.000716781 9.13694e-08
0.000716781 0.0360408 -2.52113e-09
9.13694e-08 -2.52113e-09 0.0318195

0.0287175 0.00378149 6.78103e-08
0.00378149 0.0285605 -1.96813e-07
6.78103e-08 -1.96813e-07 0.0257291

0.0367913 0.00305784 -1.57542e-09
0.00305784 0.0361265 -2.05233e-07
-1.57542e-09 -2.05233e-07 0.0349082

0.0226809 -0.00754566 1.49683e-07
-0.00754566 0.0186884 1.63394e-07
1.49683e-07 1.63394e-07 0.0108457

0.0332925 -0.00328752 8.97783e-08
-0.00328752 0.0286338 -8.73787e-08
8.97783e-08 -8.73787e-08 0.0301252

0.0207276 0.000913429 1.3089e-07
0.000913429 0.0300326 -4.19216e-09
1.3089e-07 -4.19216e-09 0.0183473

0.0313015 -0.00378205 1.47563e-07
-0.00378205 0.0292325 1.85012e-09
1.47563e-07 1.85012e-09 0.0290328

0.00153962 -0.006519 -2.18449e-08
-0.006519 0.0275693 9.57088e-08
-2.18449e-08 9.57088e-08 0.00290846

0.00147001 0.00636855 1.14802e-08
0.00636855 0.0275871 5.0298e-08
1.14802e-08 5.0298e-08 0.00300141

0.011985 0.0145054 5.99892e-09
0.0145054 0.017533 7.52241e-09
5.99892e-09 7.52241e-09 0.00277133

0.0121664 -0.0144961 -9.44312e-09
-0.0144961 0.0172245 1.18413e-08
-9.44312e-09 1.18413e-08 0.00280394

0.0293416 -0.000164096 -5.35497e-08
-0.000164096 0 0
-5.35497e-08 0 0.00295276

0.0235929 -0.011283 1.35832e-07
-0.011283 0.00539565 -6.54134e-08
1.35832e-07 -6.54134e-08 0.00297846

0.0236349 0.0113492 -2.81446e-08
0.0113492 0.00544974 -1.35537e-08
-2.81446e-08 -1.35537e-08 0.00303963

0.0369125 0.00191149 -1.46662e-07
0.00191149 0.0302435 3.48034e-08
-1.46662e-07 3.48034e-08 0.0338791

0.0387062 0.00340971 -1.18357e-07
0.00340971 0.0366181 8.40245e-08
-1.18357e-07 8.40245e-08 0.0355797

0.0344169 0.000872546 4.99151e-08
0.000872546 0.0274582 6.203e-08
4.99151e-08 6.203e-08 0.0316893

0.0328749 0.00285045 6.58121e-08
0.00285045 0.0268907 8.16581e-08
6.58121e-08 8.16581e-08 0.0286477

0.025702 0.00231332 1.60603e-08
0.00231332 0.0323688 -6.37938e-08
1.60603e-08 -6.37938e-08 0.027637

0.0307142 0.00376919 -2.93465e-09
0.00376919 0.0276775 -3.15281e-08
-2.93465e-09 -3.15281e-08 0.0271191

0.0333069 -0.0039034 -2.46524e-08
-0.0039034 0.0304672 5.43196e-09
-2.46524e-08 5.43196e-09 0.0316314

0.030975 0.00365456 -1.76231e-09
0.00365456 0.0272884 8.10481e-08
-1.76231e-09 8.10481e-08 0.0269267

0.0249884 -0.000371489 -6.60537e-08
-0.000371489 0.0331239 5.39043e-08
-6.60537e-08 5.39043e-08 0.0268446

0.0385492 -0.00348486 1.1208e-07
-0.00348486 0.0368818 1.27755e-07
1.1208e-07 1.27755e-07 0.0355853

0.0251769 -0.000635631 1.23246e-07
-0.000635631 0.0332122 -9.06734e-08
1.23246e-07 -9.06734e-08 0.0271042

0.0360193 0.00304753 1.91591e-07
0.00304753 0.0330128 7.45592e-08
1.91591e-07 7.45592e-08 0.0340995

0.0296246 0.00347601 5.08011e-09
0.00347601 0.0248476 -5.22987e-08
5.08011e-09 -5.22987e-08 0.0230241

0.0304979 -0.0017138 1.50593e-07
-0.0017138 0.0375139 -1.16916e-07
1.50593e-07 -1.16916e-07 0.0347381

0.033922 0.00180453 6.03639e-08
0.00180453 0.0271832 -2.50813e-08
6.03639e-08 -2.50813e-08 0.0303221

0.0312029 -0.00392048 -1.42932e-07
-0.00392048 0.0285328 1.25164e-07
-1.42932e-07 1.25164e-07 0.028616

0.0315856 -0.00322153 -9.10755e-08
-0.00322153 0.0266932 -3.51118e-08
-9.10755e-08 -3.51118e-08 0.0270492

0.0384808 -0.00214161 1.74111e-07
-0.00214161 0.0334184 4.47548e-08
1.74111e-07 4.47548e-08 0.0347464

0.0326831 0.0036641 1.85425e-07
0.0036641 0.0292336 -8.96008e-08
1.85425e-07 -8.96008e-08 0.0301566

0.0326467 0.00313767 1.71504e-07
0.00313767 0.027254 -1.17141e-07
1.71504e-07 -1.17141e-07 0.0287896

0.0269566 -0.000365105 -1.15064e-07
-0.000365105 0.034989 1.60065e-08
-1.15064e-07 1.60065e-08 0.0301697

0.0259011 0.000765813 -7.39629e-08
0.000765813 0.0340058 -4.69516e-08
-7.39629e-08 -4.69516e-08 0.0288247

0.0327804 0.000345466 -1.14548e-09
0.000345466 0.0248632 -2.09002e-07
-1.14548e-09 -2.09002e-07 0.0274454

0.031389 -0.000944988 1.71888e-07
-0.000944988 0.0230052 -4.42195e-08
1.71888e-07 -4.42195e-08 0.0238936

0.0308826 0.00398549 -1.08405e-07
0.00398549 0.0288077 -1.13847e-07
-1.08405e-07 -1.13847e-07 0.0286258

0.0331199 -0.00343153 2.8241e-08
-0.00343153 0.0285423 1.27029e-07
2.8241e-08 1.27029e-07 0.029971

0.0364142 -0.00282367 -1.33255e-07
-0.00282367 0.0327345 -6.14727e-08
-1.33255e-07 -6.14727e-08 0.0341457

0.0292081 -0.00412793 -1.71154e-07
-0.00412793 0.0291942 -2.05908e-08
-1.71154e-07 -2.05908e-08 0.0277555

0.0269736 -0.00362077 7.02406e-08
-0.00362077 0.0304668 1.44027e-07
7.02406e-08 1.44027e-07 0.0272151

0.0283281 0.00389989 9.05422e-08
0.00389989 0.029903 2.27582e-07
9.05422e-08 2.27582e-07 0.0277537

0.0259029 -0.00124896 -9.17633e-08
-0.00124896 0.0336155 9.44072e-08
-9.17633e-08 9.44072e-08 0.0285176

0.0266562 -0.000201922 -1.37843e-07
-0.000201922 0.0349153 9.76484e-09
-1.37843e-07 9.76484e-09 0.0299216

0.0277639 0.000753047 -1.23026e-07
0.000753047 0.0360403 -8.98157e-10
-1.23026e-07 -8.98157e-10 0.03166

0.0262487 -0.00274967 -2.62469e-08
-0.00274967 0.0319646 9.80281e-09
-2.62469e-08 9.80281e-09 0.0277123

0.0345846 0.00317594 -3.99439e-08
0.00317594 0.02917 -1.02926e-07
-3.99439e-08 -1.02926e-07 0.0316361

0.0339112 -0.00126095 -1.66917e-08
-0.00126095 0.026932 -1.27653e-08
-1.66917e-08 -1.27653e-08 0.0302035

0.0257919 0.000974393 9.7329e-08
0.000974393 0.0338315 7.23302e-08
9.7329e-08 7.23302e-08 0.0285436

0.0278256 -0.00126986 -7.19716e-08
-0.00126986 0.0353995 -9.33475e-08
-7.19716e-08 -9.33475e-08 0.0313677

0.0272947 -0.0021374 4.0488e-08
-0.0021374 0.0336591 -6.27189e-08
4.0488e-08 -6.27189e-08 0.0302274

0.0327794 -0.0010774 -6.34922e-08
-0.0010774 0.0253216 1.79139e-07
-6.34922e-08 1.79139e-07 0.027256

0.033317 -0.00427091 3.44584e-08
-0.00427091 0.0323826 -1.47938e-07
3.44584e-08 -1.47938e-07 0.033531

0.0264903 0.00121986 -6.60441e-08
0.00121986 0.0338376 7.02931e-08
-6.60441e-08 7.02931e-08 0.0288178

0.0398121 -0.0024317 -5.01322e-09
-0.0024317 0.0352198 9.29028e-09
-5.01322e-09 9.29028e-09 0.0354626

0.0188898 0.00316488 1.1786e-07
0.00316488 0.0278778 1.87721e-08
1.1786e-07 1.87721e-08 0.0162738

0.0338173 -0.00352278 1.31486e-07
-0.00352278 0.0334964 6.58617e-09
1.31486e-07 6.58617e-09 0.0337279

0.0353457 -0.0039994 -1.23174e-07
-0.0039994 0.0330479 1.2062e-08
-1.23174e-07 1.2062e-08 0.0339056

0.0266874 -9.05194e-05 1.32008e-07
-9.05194e-05 0.0349204 1.59542e-08
1.32008e-07 1.59542e-08 0.0299297

0.0332449 -0.00217673 4.66025e-09
-0.00217673 0.0271548 -1.81926e-07
4.66025e-09 -1.81926e-07 0.0289044

0.0293492 0.00168464 2.95695e-08
0.00168464 0.035821 -9.73777e-08
2.95695e-08 -9.73777e-08 0.0328815

0.0132081 -0.000379176 1.00028e-07
-0.000379176 0.0283639 8.30553e-08
1.00028e-07 8.30553e-08 0.0111525

0.0271153 0.00186862 -1.27987e-07
0.00186862 0.0340637 -4.61402e-08
-1.27987e-07 -4.61402e-08 0.0303079

0.0311109 -0.00385869 -2.20854e-07
-0.00385869 0.0291558 -3.18647e-08
-2.20854e-07 -3.18647e-08 0.0288081

0.0186207 0.00320471 1.66829e-07
0.00320471 0.0301411 1.54663e-07
1.66829e-07 1.54663e-07 0.0131276

0.0426015 0.00351785 -2.98084e-07
0.00351785 0.0418494 -4.90655e-07
-2.98084e-07 -4.90655e-07 0.0364818

0.043206 -0.00374836 1.91735e-07
-0.00374836 0.0414175 -1.7259e-07
1.91735e-07 -1.7259e-07 0.0364642

0.0310668 -0.00399115 1.48152e-07
-0.00399115 0.0304728 1.23899e-09
1.48152e-07 1.23899e-09 0.0304627

0.0289237 -0.00406439 1.04919e-07
-0.00406439 0.0291523 -2.88518e-08
1.04919e-07 -2.88518e-08 0.0275959

0.0330531 0.00272695 4.60006e-08
0.00272695 0.0275299 8.32237e-08
4.60006e-08 8.32237e-08 0.029077

0.0327818 0.00196018 7.30838e-08
0.00196018 0.0255925 1.34849e-07
7.30838e-08 1.34849e-07 0.0278243

0.0464016 0.000418534 4.96665e-07
0.000418534 0.046356 -1.11661e-07
4.96665e-07 -1.11661e-07 0.036696

0.0469203 -0.000951172 8.49789e-07
-0.000951172 0.0457687 -3.69215e-07
8.49789e-07 -3.69215e-07 0.0367671

0.0348018 0.000638354 -5.9816e-08
0.000638354 0.0275746 1.57453e-07
-5.9816e-08 1.57453e-07 0.0322182

0.0277534 0.000882472 -1.52703e-07
0.000882472 0.0355724 -4.36217e-09
-1.52703e-07 -4.36217e-09 0.0313502

0.0276091 0.000882723 1.24849e-07
0.000882723 0.0355725 3.56648e-09
1.24849e-07 3.56648e-09 0.0312464

0.0234603 0.00740043 -3.53362e-07
0.00740043 0.0183027 -4.13516e-08
-3.53362e-07 -4.13516e-08 0.0109022

0.0272487 -0.00367581 -1.18143e-07
-0.00367581 0.030349 1.37862e-07
-1.18143e-07 1.37862e-07 0.0273209

0.036569 0.00239151 -7.95919e-08
0.00239151 0.0295776 -5.10028e-08
-7.95919e-08 -5.10028e-08 0.033786

0.0332759 0.00124758 1.28373e-07
0.00124758 0.0265056 2.86437e-08
1.28373e-07 2.86437e-08 0.0284333

0.029154 -0.00349271 2.05772e-07
-0.00349271 0.030473 1.55431e-07
2.05772e-07 1.55431e-07 0.0281748

0.0328129 -0.00264797 1.03843e-07
-0.00264797 0.0267294 -2.87823e-08
1.03843e-07 -2.87823e-08 0.0285882

0.0224612 0.00761322 3.24477e-08
0.00761322 0.0185913 -1.32065e-07
3.24477e-08 -1.32065e-07 0.0109046

0.0331466 0.00410249 7.98053e-08
0.00410249 0.0326399 1.07561e-07
7.98053e-08 1.07561e-07 0.0331831

0.0258916 -0.00257841 -1.24172e-07
-0.00257841 0.0320259 -2.0493e-08
-1.24172e-07 -2.0493e-08 0.0275089

0.032484 0.003786 6.8746e-09
0.003786 0.0292696 1.52771e-07
6.8746e-09 1.52771e-07 0.0301484

0.0268173 -0.000543774 1.00001e-07
-0.000543774 0.0349539 3.7989e-08
1.00001e-07 3.7989e-08 0.0301394

0.0269915 0.00256351 2.70207e-07
0.00256351 0.0324499 -3.37491e-08
2.70207e-07 -3.37491e-08 0.0282879

0.0305278 0.00399141 9.26081e-08
0.00399141 0.0293247 1.60548e-07
9.26081e-08 1.60548e-07 0.0287765

0.0276104 -0.00293742 -1.93225e-07
-0.00293742 0.0318551 -1.9812e-08
-1.93225e-07 -1.9812e-08 0.0282504

0.0294576 -0.00357601 -7.70815e-08
-0.00357601 0.0303526 1.40646e-07
-7.70815e-08 1.40646e-07 0.0283064

0.0181384 0.00142548 -2.27939e-08
0.00142548 0.0280377 -1.68423e-08
-2.27939e-08 -1.68423e-08 0.0131282

0.0234749 -0.00429424 1.048e-07
-0.00429424 0.0275576 -1.84383e-07
1.048e-07 -1.84383e-07 0.0177242

0.0262067 -0.00152611 7.43597e-08
-0.00152611 0.0336256 -1.95011e-08
7.43597e-08 -1.95011e-08 0.0287533

0.0330251 0.00347521 1.19655e-07
0.00347521 0.0288792 -1.33461e-07
1.19655e-07 -1.33461e-07 0.0300703

0.0303233 0.00385771 3.63504e-08
0.00385771 0.0298882 2.24183e-07
3.63504e-08 2.24183e-07 0.0289917

0.0274157 -0.0028009 -1.13413e-08
-0.0028009 0.0319856 -1.23064e-08
-1.13413e-08 -1.23064e-08 0.0281405

0.0265559 -0.00154094 -6.19429e-08
-0.00154094 0.033584 9.59542e-08
-6.19429e-08 9.59542e-08 0.0287477

0.0309581 0.00371851 -1.97657e-07
0.00371851 0.0295649 6.1301e-08
-1.97657e-07 6.1301e-08 0.0289425

0.0267606 -0.00181603 -4.91773e-08
-0.00181603 0.0334761 -4.5953e-08
-4.91773e-08 -4.5953e-08 0.0289557

0.0191668 0.00355478 -1.48057e-07
0.00355478 0.0276094 5.11805e-08
-1.48057e-07 5.11805e-08 0.016293

0.0308746 -0.000534685 9.44245e-08
-0.000534685 0.0388203 -4.78623e-08
9.44245e-08 -4.78623e-08 0.0342957

0.0286579 0.00404819 2.06833e-07
0.00404819 0.02952 1.60437e-08
2.06833e-07 1.60437e-08 0.0277159

0.0355813 0.0019752 1.5681e-07
0.0019752 0.0295044 5.89802e-08
1.5681e-07 5.89802e-08 0.032844

0.0362606 -0.00211513 -1.56366e-07
-0.00211513 0.0297566 1.38049e-08
-1.56366e-07 1.38049e-08 0.0332192

0.028512 -0.00309588 -2.08006e-07
-0.00309588 0.0185697 -1.44399e-08
-2.08006e-07 -1.44399e-08 0.0157307

0.028355 -0.0027903 -2.42445e-07
-0.0027903 0.032777 1.45366e-08
-2.42445e-07 1.45366e-08 0.030573

0.0291925 0.00350097 -1.36267e-07
0.00350097 0.031601 -9.85723e-08
-1.36267e-07 -9.85723e-08 0.0304888

0.0349608 -0.00290743 -2.36092e-07
-0.00290743 0.0376764 -3.29686e-07
-2.36092e-07 -3.29686e-07 0.0352373

0.0394607 0.00188535 2.22607e-07
0.00188535 0.0446095 4.94691e-09
2.22607e-07 4.94691e-09 0.036434

0.0449441 0.00129029 2.62076e-07
0.00129029 0.0391169 -1.09017e-07
2.62076e-07 -1.09017e-07 0.0364159

0.0355616 0.00434536 -1.3624e-07
0.00434536 0.0351361 -1.63257e-07
-1.3624e-07 -1.63257e-07 0.0350046

0.0265731 0.00338825 1.6338e-07
0.00338825 0.0310079 2.46901e-07
1.6338e-07 2.46901e-07 0.0272571

0.033041 0.0034971 4.72632e-08
0.0034971 0.0286683 4.85434e-08
4.72632e-08 4.85434e-08 0.0300514

0.0220608 0.00576463 7.96999e-08
0.00576463 0.0242386 2.34367e-07
7.96999e-08 2.34367e-07 0.0160731

0.0386188 -0.001512 1.64625e-07
-0.001512 0.0444325 -1.90575e-07
1.64625e-07 -1.90575e-07 0.0363632

0.046048 -0.000464402 3.05953e-08
-0.000464402 0.0454399 8.00369e-08
3.05953e-08 8.00369e-08 0.0366921

0.0451801 -3.20696e-05 2.1571e-07
-3.20696e-05 0.0463023 1.96254e-07
2.1571e-07 1.96254e-07 0.036674

0.0176417 -0.0067952 -2.01979e-07
-0.0067952 0.0231092 1.40566e-07
-2.01979e-07 1.40566e-07 0.010739

0.0392931 -0.00155611 -1.67189e-07
-0.00155611 0.0387153 4.22916e-08
-1.67189e-07 4.22916e-08 0.0358547

0.0383972 0.00117677 -2.61302e-07
0.00117677 0.041519 -3.19873e-07
-2.61302e-07 -3.19873e-07 0.0361261

0.0331767 -0.00343573 1.47442e-08
-0.00343573 0.0282207 9.58757e-08
1.47442e-08 9.58757e-08 0.0299048

0.0318456 0.000140404 -6.41288e-08
0.000140404 0.0386731 -3.17543e-08
-6.41288e-08 -3.17543e-08 0.0344516

0.0285783 -0.00266036 5.84017e-08
-0.00266036 0.0333818 -2.47538e-08
5.84017e-08 -2.47538e-08 0.0315907

0.0356637 0.0008317 -1.84394e-07
0.0008317 0.0273792 6.40814e-08
-1.84394e-07 6.40814e-08 0.0330015

0.0288774 0.00204451 -6.2438e-08
0.00204451 0.0368183 -6.84451e-08
-6.2438e-08 -6.84451e-08 0.033671

0.0298706 0.000946381 9.73035e-08
0.000946381 0.0373899 -5.47553e-08
9.73035e-08 -5.47553e-08 0.0333649

0.0344031 0.00268486 4.61298e-08
0.00268486 0.0288529 4.87481e-08
4.61298e-08 4.87481e-08 0.0312277

0.0132796 -0.000409378 -1.86544e-07
-0.000409378 0.0281241 1.54812e-08
-1.86544e-07 1.54812e-08 0.0112019

0.0309662 -0.00362626 -1.78172e-07
-0.00362626 0.0309171 6.81302e-08
-1.78172e-07 6.81302e-08 0.0306109

0.0329296 -0.00344352 -3.5087e-08
-0.00344352 0.0320221 4.2782e-08
-3.5087e-08 4.2782e-08 0.0325806

0.0335724 -0.00415904 1.05515e-07
-0.00415904 0.0325359 -1.64251e-07
1.05515e-07 -1.64251e-07 0.0337371

0.0265634 0.00414886 2.27372e-07
0.00414886 0.0176922 -7.4882e-08
2.27372e-07 -7.4882e-08 0.0126058

0.0388293 -0.00269644 4.33079e-08
-0.00269644 0.0395761 -8.02563e-08
4.33079e-08 -8.02563e-08 0.0359595

0.0230839 0.00692113 -2.88199e-07
0.00692113 0.0255031 -2.57234e-07
-2.88199e-07 -2.57234e-07 0.0126101

0.0308762 -0.00281744 1.17631e-07
-0.00281744 0.034809 -1.50998e-07
1.17631e-07 -1.50998e-07 0.0339576

0.0354131 0.00193638 -5.11514e-08
0.00193638 0.0284672 -8.20189e-08
-5.11514e-08 -8.20189e-08 0.032346

0.0318229 -0.00189368 2.24156e-08
-0.00189368 0.0249521 2.0187e-07
2.24156e-08 2.0187e-07 0.0253968

0.0292939 0.0031591 -1.52664e-07
0.0031591 0.0327337 -5.09607e-08
-1.52664e-07 -5.09607e-08 0.0312811

0.0344383 0.00268876 7.10927e-08
0.00268876 0.0286359 -1.0503e-08
7.10927e-08 -1.0503e-08 0.0312223

0.0325197 0.00149896 6.99692e-08
0.00149896 0.0403744 1.16151e-07
6.99692e-08 1.16151e-07 0.0353378

0.0319422 -0.0041546 -1.01724e-07
-0.0041546 0.0312029 2.77753e-08
-1.01724e-07 2.77753e-08 0.0318121

0.0396779 0.00265542 -1.46489e-07
0.00265542 0.0331994 -1.0659e-07
-1.46489e-07 -1.0659e-07 0.0353172

0.027973 -0.00241885 8.71207e-08
-0.00241885 0.0335528 -5.53404e-08
8.71207e-08 -5.53404e-08 0.030472

0.0293523 0.000558437 3.25183e-08
0.000558437 0.0373136 -6.1607e-08
3.25183e-08 -6.1607e-08 0.0332541

0.0419438 0.00133734 9.97739e-08
0.00133734 0.0371007 5.58016e-08
9.97739e-08 5.58016e-08 0.0361174

0.0420978 -0.00114839 -8.81059e-08
-0.00114839 0.0373272 1.07102e-07
-8.81059e-08 1.07102e-07 0.0360993

0.0283849 0.00236922 -4.97191e-08
0.00236922 0.0181823 -3.37062e-08
-4.97191e-08 -3.37062e-08 0.0159506

0.0350278 0.00106123 -1.03732e-07
0.00106123 0.0285676 -7.90974e-08
-1.03732e-07 -7.90974e-08 0.0330605

0.0128675 0.000923434 -1.77244e-07
0.000923434 0.0316279 -4.81107e-08
-1.77244e-07 -4.81107e-08 0.00612205

0.0131631 -0.00138821 9.72101e-08
-0.00138821 0.0321336 -2.57908e-08
9.72101e-08 -2.57908e-08 0.00611237

0.0152694 0.00715452 3.64578e-08
0.00715452 0.0284544 -1.00081e-07
3.64578e-08 -1.00081e-07 0.00598448

0.0347656 -0.00382129 7.38052e-08
-0.00382129 0.0312691 1.148e-07
7.38052e-08 1.148e-07 0.0329406

0.0155815 -0.00619467 6.30932e-08
-0.00619467 0.0261541 -2.78868e-07
6.30932e-08 -2.78868e-07 0.0104726

0.0155136 -0.00708709 -3.40698e-08
-0.00708709 0.0274247 -7.60458e-08
-3.40698e-08 -7.60458e-08 0.00591428

0.0284276 0.00342613 7.65337e-08
0.00342613 0.0310081 2.46779e-07
7.65337e-08 2.46779e-07 0.0281542

0.0251945 0.00932626 1.35251e-07
0.00932626 0.0190216 -1.69436e-08
1.35251e-07 -1.69436e-08 0.00593419

0.0365389 0.00173199 -1.56724e-07
0.00173199 0.0385529 -5.01606e-08
-1.56724e-07 -5.01606e-08 0.0354765

0.0395358 2.5717e-05 -2.49831e-07
2.5717e-05 0.0355406 -6.11502e-08
-2.49831e-07 -6.11502e-08 0.0354571

0.0261084 -0.00924486 2.5001e-07
-0.00924486 0.0188133 6.62652e-08
2.5001e-07 6.62652e-08 0.00588835

0.0276914 -0.00306556 5.35839e-08
-0.00306556 0.032097 -1.21362e-07
5.35839e-08 -1.21362e-07 0.0296244

0.0262567 0.00441842 2.81249e-07
0.00441842 0.020159 -2.81833e-07
2.81249e-07 -2.81833e-07 0.0130454

0.01728 0.00797343 1.32023e-07
0.00797343 0.0271501 8.61546e-08
1.32023e-07 8.61546e-08 0.00598816

0.0181971 0.00275529 -1.73593e-07
0.00275529 0.0275913 8.38524e-09
-1.73593e-07 8.38524e-09 0.0128508

0.0173049 -0.00827667 -1.26295e-07
-0.00827667 0.0271536 1.28184e-07
-1.26295e-07 1.28184e-07 0.00581411

0.0179338 -0.00157102 -2.11746e-08
-0.00157102 0.0280069 -7.48327e-08
-2.11746e-08 -7.48327e-08 0.0126913

0.0370511 0.000923094 -1.48216e-08
0.000923094 0.041301 2.03691e-07
-1.48216e-08 2.03691e-07 0.0358113

0.0221324 -0.00585566 -2.01914e-07
-0.00585566 0.0236658 1.55556e-07
-2.01914e-07 1.55556e-07 0.0151597

0.0157008 0.00598655 -4.28909e-08
0.00598655 0.0259036 -2.90671e-07
-4.28909e-08 -2.90671e-07 0.0107508

0.0302099 0.00473033 4.8754e-08
0.00473033 0.0143499 1.77486e-07
4.8754e-08 1.77486e-07 0.00611619

0.0329402 -0.00384968 7.72117e-08
-0.00384968 0.0301257 -6.80911e-08
7.72117e-08 -6.80911e-08 0.0310528

0.03089 0.0016937 2.6132e-08
0.0016937 0.0368448 -7.22853e-08
2.6132e-08 -7.22853e-08 0.0339517

0.0260914 -0.00484423 -3.12549e-07
-0.00484423 0.0191983 3.2563e-08
-3.12549e-07 3.2563e-08 0.0126957

0.0330025 -0.00378609 1.04916e-07
-0.00378609 0.030077 -2.41401e-09
1.04916e-07 -2.41401e-09 0.0311291

0.0300202 -0.00452014 1.22701e-07
-0.00452014 0.0130541 -3.05559e-07
1.22701e-07 -3.05559e-07 0.00603763

0.0324752 -0.0037277 -2.98893e-08
-0.0037277 0.0313086 1.33179e-07
-2.98893e-08 1.33179e-07 0.0319809

0.0280926 -0.00331145 -2.35325e-07
-0.00331145 0.0320053 3.51571e-08
-2.35325e-07 3.51571e-08 0.0296269

0.0234445 0.00874403 -2.02206e-08
0.00874403 0.0204837 2.26591e-07
-2.02206e-08 2.26591e-07 0.00602649

0.0182005 -0.00292093 1.83798e-07
-0.00292093 0.0268678 8.34537e-09
1.83798e-07 8.34537e-09 0.0122707

0.0233155 -0.00901968 1.13968e-07
-0.00901968 0.020153 3.59492e-07
1.13968e-07 3.59492e-07 0.00588431

0.0170832 0.00640851 1.94964e-07
0.00640851 0.0235672 1.02254e-07
1.94964e-07 1.02254e-07 0.0108316

0.0308278 -0.00396047 -2.14527e-07
-0.00396047 0.0301619 -4.2188e-08
-2.14527e-07 -4.2188e-08 0.0300871

0.0389191 -0.00195865 -2.86635e-08
-0.00195865 0.0369417 -1.33302e-08
-2.86635e-08 -1.33302e-08 0.0355007

0.0455411 0.00150563 2.1086e-07
0.00150563 0.0449514 2.99881e-07
2.1086e-07 2.99881e-07 0.0366202

0.0435647 -0.000712243 -3.24848e-07
-0.000712243 0.0462302 -3.32564e-08
-3.24848e-07 -3.32564e-08 0.036586

0.028617 0.0017158 -7.60511e-08
0.0017158 0.0355673 1.44081e-07
-7.60511e-08 1.44081e-07 0.0323911

0.0453363 -0.00144672 -6.8292e-08
-0.00144672 0.0449791 -3.62164e-07
-6.8292e-08 -3.62164e-07 0.036638

0.0438073 0.000568377 -3.54756e-08
0.000568377 0.0465063 1.77357e-07
-3.54756e-08 1.77357e-07 0.0366191

0.0466795 0.000991739 -1.39212e-07
0.000991739 0.0433773 6.37688e-08
-1.39212e-07 6.37688e-08 0.0365942

0.039751 -0.00163886 -2.69086e-07
-0.00163886 0.0460757 -2.9643e-07
-2.69086e-07 -2.9643e-07 0.036484

0.0190547 -0.00388754 1.17801e-07
-0.00388754 0.0272322 1.45215e-07
1.17801e-07 1.45215e-07 0.015472

0.0421424 -0.00175017 -1.95699e-07
-0.00175017 0.0367264 2.03584e-08
-1.95699e-07 2.03584e-08 0.036006

0.0359654 -0.00457326 -3.04279e-07
-0.00457326 0.0351516 -5.9882e-08
-3.04279e-07 -5.9882e-08 0.0349694

0.0397544 -0.00242172 7.33333e-08
-0.00242172 0.0360649 4.68215e-08
7.33333e-08 4.68215e-08 0.0355684

0.0351858 0.00204341 -1.00078e-07
0.00204341 0.0285505 -2.14362e-08
-1.00078e-07 -2.14362e-08 0.0322334

0.039693 0.0013374 -3.23024e-07
0.0013374 0.0472276 -3.23804e-08
-3.23024e-07 -3.23804e-08 0.0365498

0.0464955 0.00259382 3.85729e-08
0.00259382 0.0404188 3.57747e-07
3.85729e-08 3.57747e-07 0.036531

0.0400875 0.00150583 -9.87512e-09
0.00150583 0.0366748 -2.13396e-07
-9.87512e-09 -2.13396e-07 0.0356165

0.027916 -0.00192005 2.50352e-09
-0.00192005 0.0125252 -2.94106e-07
2.50352e-09 -2.94106e-07 0.0106251

0.0283204 0.00326784 7.0207e-09
0.00326784 0.0315513 -4.30096e-08
7.0207e-09 -4.30096e-08 0.0294122

0.0231891 -0.00773644 3.61168e-07
-0.00773644 0.0181808 1.63697e-07
3.61168e-07 1.63697e-07 0.01029

0.0228317 -0.00731615 2.44145e-07
-0.00731615 0.0257697 -2.57067e-07
2.44145e-07 -2.57067e-07 0.0119552

0.0290239 -0.00464715 -9.069e-08
-0.00464715 0.0191292 -3.61026e-08
-9.069e-08 -3.61026e-08 0.0126158

0.0375752 -0.000660567 6.14979e-08
-0.000660567 0.0449117 -3.80343e-07
6.14979e-08 -3.80343e-07 0.036295

0.0375729 0.000358074 -2.36841e-08
0.000358074 0.0447889 2.61626e-07
-2.36841e-08 2.61626e-07 0.0362752

0.042606 -0.0032743 -2.24987e-07
-0.0032743 0.0394512 2.59978e-07
-2.24987e-07 2.59978e-07 0.0362291

0.0429982 -0.00294435 -1.61982e-07
-0.00294435 0.0391694 3.96308e-08
-1.61982e-07 3.96308e-08 0.0362361

0.0425017 0.00350414 1.13658e-07
0.00350414 0.039974 -1.92262e-07
1.13658e-07 -1.92262e-07 0.0362738

0.0443985 0.000418148 4.35176e-07
0.000418148 0.0450806 4.26983e-07
4.35176e-07 4.26983e-07 0.0366372

0.0426089 -0.00274403 8.8776e-08
-0.00274403 0.0395078 -1.5376e-07
8.8776e-08 -1.5376e-07 0.0362906

0.0426031 -0.00251159 2.11291e-07
-0.00251159 0.0442674 -2.71088e-07
2.11291e-07 -2.71088e-07 0.0365647

0.0451182 0.000331162 -3.90678e-07
0.000331162 0.0454673 -7.97794e-07
-3.90678e-07 -7.97794e-07 0.0366554

0.0436378 -0.00278296 6.61446e-08
-0.00278296 0.0389174 1.54934e-07
6.61446e-08 1.54934e-07 0.0363312

0.0435137 0.00283861 -9.66997e-08
0.00283861 0.0390699 1.5494e-07
-9.66997e-08 1.5494e-07 0.0363693

0.0451943 -0.000470453 -1.11849e-07
-0.000470453 0.0455826 1.84161e-07
-1.11849e-07 1.84161e-07 0.0367041

0.0452281 -0.000426253 -6.78783e-07
-0.000426253 0.0443625 7.5834e-07
-6.78783e-07 7.5834e-07 0.0367224

0.0427993 0.00163902 -3.34871e-07
0.00163902 0.0442493 1.8308e-07
-3.34871e-07 1.8308e-07 0.0366085

0.0411169 0.00361853 6.65616e-08
0.00361853 0.0405173 -1.09588e-07
6.65616e-08 -1.09588e-07 0.0363232

SCALARS pressure float
LOOKUP_TABLE default
-60.057
19.3093
5.8052
21.291
15.8791
5.88917
-58.6801
7.78462
-3.80342
15.1256
-24.4347
7.61878
5.59353
12.2806
23.3371
5.54044
18.5217
13.209
-0.691019
6.75862
-0.903299
33.1293
5.8028
5.79876
6.60386
14.9044
-38.3883
6.67364
-15.242
30.6225
5.17779
-15.6568
-42.0598
27.324
20.7774
27.3569
31.8807
19.8074
4.8611
-42.6031
-17.4073
31.9015
31.9896
5.99497
-21.8061
-15.9755
-1.05069
-3.40408
6.54672
-16.2178
-18.9189
-15.3453
20.7551
-15.3726
20.3084
-33.1506
21.1278
-15.4597
21.1376
7.0469
21.7655
16.1191
-45.5652
12.7903
16.3623
10.9063
21.5748
13.8297
5.77543
21.818
20.8112
20.7818
-17.6909
11.6017
3.97548
-31.6125
14.3569
10.9974
14.1478
-8.71884
-28.946
14.9774
20.1638
-22.0386
-23.4298
-28.0937
7.09972
9.63352
-22.2169
37.7361
-15.5084
38.4386
18.3043
10.7629
-15.166
-15.8726
-30.2226
14.7544
14.3659
4.60018
-10.7652
-21.9397
-25.1025
16.2143
14.1019
14.9626
18.6982
3.7763
-24.5593
26.513
7.21959
-21.4099
-24.6131
14.8396
15.079
-16.1452
20.1632
-29.1145
20.6267
-16.7289
-2.90307
23.8332
21.7281
16.0336
26.6796
22.6316
21.7839
15.7094
-29.7822
-16.0985
24.0908
21.6184
20.9898
22.0666
-22.014
23.5849
-33.8392
5.46486
21.7547
23.6282
-21.937
6.67768
-5.96533
15.085
-30.4088
15.6251
7.83488
2.4092
5.1793
-9.39338
-0.456342
22.6424
-15.4543
5.29242
15.2056
21.5616
11.5093
-21.1133
-21.2639
10.7921
-2.84136
-15.1972
-21.2214
-15.165
-20.9865
15.2806
-20.6358
-21.2017
-15.2075
-21.0638
19.0041
-15.9405
-14.8242
12.0655
-14.4841
18.8035
19.0531
7.47437
18.0476
11.7746
-16.2488
15.2892
14.9619
-21.5286
10.4276
-14.221
16.0493
14.5965
17.0817
14.8361
10.3449
-26.9773
-16.0817
-15.9579
21.9079
14.5275
14.6263
20.9232
22.4879
9.50388
21.7347
-0.382958
-8.16967
20.7794
-17.8387
19.9461
10.3654
-21.5177
15.7218
22.527
14.7315
9.39489
14.1915
21.0561
-7.83164
8.82883
-7.90748
14.6492
26.9275
26.5812
27.9603
26.3884
26.7242
26.2908
13.8274
23.4296
24.0288
23.973
23.3993
21.1923
21.8568
-8.26175
15.9348
28.1911
-3.18746
23.5754
23.2046
27.8344
-8.4925
28.0964
15.3455
-7.58045
17.4926
-8.25672
20.2278
29.6127
-7.48483
-8.09968
-29.5932
-18.1893
19.5278
-31.987
5.73564
-7.79287
-1.18791
28.2492
26.6402
30.4232
26.7609
-34.8027
-8.17857
28.3374
8.07439
-8.29412
26.4459
-6.29413
30.4681
-7.95299
27.0469
14.5667
14.7887
23.8444
10.0486
18.0208
8.11848
-29.8615
-24.5545
16.8068
1.76114
8.18103
-13.6082
17.4362
11.7008
-8.10044
9.4533
-10.8225
7.51831
-10.7538
-8.4837
33.2602
19.1514
25.0876
25.3119
13.8305
-10.4036
26.4279
14.6856
-1.65768
-10.2729
-12.5635
17.5065
-7.4841
17.5744
-12.0404
-21.3516
-10.6074
-34.683
15.5634
-7.76186
34.438
-11.5771
16.8723
-8.40771
15.9734
-12.7576
4.29033
-51.1219
8.52336
-7.74553
21.3336
-8.15108
-0.121434
10.7162
21.1252
-12.0599
-10.1998
-6.06714
14.3189
-10.1791
6.88916
6.38732
16.3053
-10.4187
-6.32929
-1.7011
-5.65934
-11.0776
-5.84358
15.3062
7.8092
-5.55492
-8.95945
7.80651
7.69534
-10.6737
16.3092
-27.2167
2.29434
-28.4824
-0.956369
-8.88404
-8.10227
-11.7852
-10.9488
-9.88697
-7.78192
-7.90529
16.6387
24.7765
12.1176
-0.290273
-0.823732
-5.67349
7.30631
-6.31963
-6.31692
24.9222
-5.72891
14.1183
-15.9079
24.3244
5.96965
-0.38984
-5.64279
16.275
2.47832
0.200398
2.44931
0.45729
-0.739429
-9.92941
-0.0942378
2.11449
15.0691
-1.28691
-1.40578
-0.997461
-0.387278
1.96652
8.05193
-1.19221
8.07937
5.58469
-0.43432
7.03652
5.49173
-3.87533
16.4773
-1.90229
23.0609
-21.9746
15.0449
15.683
2.04088
-1.99642
12.544
-26.5092
5.79377
-1.65679
-50.4862
30.4949
30.6316
5.82641
-1.14299
-1.04569
-0.848296
33.4137
33.2883
13.096
6.08301
6.66368
-28.9655
-1.27804
16.534
-3.18166
-4.34714
-0.0156089
-25.2739
14.3044
-1.27883
2.86304
2.69443
-2.72213
-0.0480261
-3.20841
-4.03258
-37.9853
-33.6849
-0.126733
1.87563
-0.53292
-3.74316
-1.93547
-1.87666
-0.923144
-21.9085
17.2497
-0.767908
12.5663
14.1847
-26.7656
6.28754
7.13827
18.4777
36.4238
36.4563
22.6384
-1.75444
2.60092
-20.9307
36.1226
32.7551
32.8221
-24.8113
21.7738
30.5206
2.60043
15.724
10.3726
17.1653
17.7268
12.5064
5.68263
-25.4006
4.26121
10.4103
16.2445
-31.7124
28.3076
-52.7134
18.6858
10.3
-10.6266
7.41848
5.45823
24.4737
9.4123
24.4067
4.10632
12.4005
30.6381
29.4638
-22.9913
17.4365
-70.2355
-74.3822
-67.1795
11.6492
-31.2629
-63.6127
-3.80244
-69.941
16.4627
16.4064
-73.7573
5.21376
-39.7325
-70.7416
-37.7583
-71.878
-39.454
21.1352
-23.9614
-29.0466
-70.6254
4.83252
15.7582
-36.1922
6.05477
-63.6203
9.8371
3.88321
-67.904
-37.6261
-66.4135
-23.7579
5.03055
20.525
35.3669
36.7225
11.8132
36.8462
36.8996
36.488
36.4009
-24.4801
28.2464
20.6691
21.9795
11.5359
36.0569
36.0883
18.1192
-23.9427
3.24799
-30.5291
-56.5999
-50.4766
36.1403
35.8211
35.3778
35.448
36.1562
35.5947
33.1071
37.3673
35.396
36.0031
35.6354
34.1926
34.3292
35.8529
35.307
