# vtk DataFile Version 3.0
vtk output at time 310
ASCII
DATASET UNSTRUCTURED_GRID
POINTS 626 float
-3.68058e-05 0.000978749 0 3.68058e-05 0.000978749 0 -0.000829194 0.00052125 0 
-0.0008235 0.0005 0 -0.000866 0.0004575 0 -0.000866 -0.0004575 0 
-0.0008235 -0.0005 0 -0.000829194 -0.00052125 0 -3.68058e-05 -0.000978749 0 
3.68058e-05 -0.000978749 0 0.000829194 -0.00052125 0 0.000866 -0.0004575 0 
0.000866 0.0004575 0 0.000829194 0.00052125 0 8.5e-05 0 0 
-3.68058e-05 0.000978749 -0.001 3.68058e-05 0.000978749 -0.001 -0.000829194 0.00052125 -0.001 
-0.0008235 0.0005 -0.001 -0.000866 0.0004575 -0.001 -0.000866 -0.0004575 -0.001 
-0.0008235 -0.0005 -0.001 -0.000829194 -0.00052125 -0.001 -3.68058e-05 -0.000978749 -0.001 
3.68058e-05 -0.000978749 -0.001 0.000829194 -0.00052125 -0.001 0.000866 -0.0004575 -0.001 
0.000866 0.0004575 -0.001 0.000829194 0.00052125 -0.001 8.5e-05 0 -0.001 
8.46223e-17 0.0009575 0 -0.000715996 0.000586607 0 -0.000602797 0.000651965 0 
-0.000489599 0.000717321 0 -0.000376401 0.000782678 0 -0.000263202 0.000848036 0 
-0.000150004 0.000913393 0 -0.000835948 0.000469948 0 -0.000866 -0.000326786 0 
-0.000866 -0.000196071 0 -0.000866 -6.53571e-05 0 -0.000866 6.53571e-05 0 
-0.000866 0.000196071 0 -0.000866 0.000326786 0 -0.000835948 -0.000469948 0 
-0.000150004 -0.000913393 0 -0.000263202 -0.000848036 0 -0.000376401 -0.000782678 0 
-0.000489599 -0.000717321 0 -0.000602797 -0.000651965 0 -0.000715996 -0.000586607 0 
8.47648e-17 -0.0009575 0 0.000715996 -0.000586607 0 0.000602797 -0.000651965 0 
0.000489599 -0.000717321 0 0.000376401 -0.000782678 0 0.000263202 -0.000848036 0 
0.000150004 -0.000913393 0 0.000829194 -0.00047875 0 0.000866 0.000326786 0 
0.000866 0.000196071 0 0.000866 6.53571e-05 0 0.000866 -6.53571e-05 0 
0.000866 -0.000196071 0 0.000866 -0.000326786 0 0.000829194 0.00047875 0 
0.000150004 0.000913393 0 0.000263202 0.000848036 0 0.000376401 0.000782678 0 
0.000489599 0.000717321 0 0.000602797 0.000651965 0 0.000715996 0.000586607 0 
5.29966e-05 6.64557e-05 0 -1.89143e-05 8.28689e-05 0 -7.65824e-05 3.68801e-05 0 
-7.65824e-05 -3.68801e-05 0 -1.89143e-05 -8.28689e-05 0 5.29966e-05 -6.64557e-05 0 
8.46223e-17 0.0009575 -0.001 -0.000715996 0.000586607 -0.001 -0.000602797 0.000651965 -0.001 
-0.000489599 0.000717321 -0.001 -0.000376401 0.000782678 -0.001 -0.000263202 0.000848036 -0.001 
-0.000150004 0.000913393 -0.001 -0.000835948 0.000469948 -0.001 -0.000866 -0.000326786 -0.001 
-0.000866 -0.000196071 -0.001 -0.000866 -6.53571e-05 -0.001 -0.000866 6.53571e-05 -0.001 
-0.000866 0.000196071 -0.001 -0.000866 0.000326786 -0.001 -0.000835948 -0.000469948 -0.001 
-0.000150004 -0.000913393 -0.001 -0.000263202 -0.000848036 -0.001 -0.000376401 -0.000782678 -0.001 
-0.000489599 -0.000717321 -0.001 -0.000602797 -0.000651965 -0.001 -0.000715996 -0.000586607 -0.001 
8.47648e-17 -0.0009575 -0.001 0.000715996 -0.000586607 -0.001 0.000602797 -0.000651965 -0.001 
0.000489599 -0.000717321 -0.001 0.000376401 -0.000782678 -0.001 0.000263202 -0.000848036 -0.001 
0.000150004 -0.000913393 -0.001 0.000829194 -0.00047875 -0.001 0.000866 0.000326786 -0.001 
0.000866 0.000196071 -0.001 0.000866 6.53571e-05 -0.001 0.000866 -6.53571e-05 -0.001 
0.000866 -0.000196071 -0.001 0.000866 -0.000326786 -0.001 0.000829194 0.00047875 -0.001 
0.000150004 0.000913393 -0.001 0.000263202 0.000848036 -0.001 0.000376401 0.000782678 -0.001 
0.000489599 0.000717321 -0.001 0.000602797 0.000651965 -0.001 0.000715996 0.000586607 -0.001 
5.29966e-05 6.64557e-05 -0.001 -1.89143e-05 8.28689e-05 -0.001 -7.65824e-05 3.68801e-05 -0.001 
-7.65824e-05 -3.68801e-05 -0.001 -1.89143e-05 -8.28689e-05 -0.001 5.29966e-05 -6.64557e-05 -0.001 
0.000131234 6.38474e-05 0 0.00012964 -6.2443e-05 0 3.13827e-05 0.0001394 0 
3.12554e-05 -0.000136939 0 -0.000140461 8.25467e-19 0 -8.90565e-05 -0.000102707 0 
-9.04142e-05 0.000102872 0 -0.000765769 -0.00025965 0 -0.000756873 0.000262774 0 
-0.00015609 0.000787505 0 -0.000155807 -0.00079355 0 0.000605069 0.000528035 0 
0.000608694 -0.00052497 0 0.000744069 0.000116929 0 -0.000494418 0.000596218 0 
-0.000483866 -0.000584648 0 0.000269496 0.000702219 0 0.000263201 -0.000717324 0 
0.000754429 -0.000127825 0 -0.000748858 5.84659e-07 0 -0.000747838 0.000373886 0 
-0.0006542 0.000324842 0 -0.000645137 0.000210123 0 -0.000550884 0.000274171 0 
-0.000538857 0.000163195 0 -0.00045062 0.000224461 0 -0.000438393 0.000123907 0 
-0.000354088 0.000181668 0 -0.000363908 0.000282171 0 -0.000270361 0.000239477 0 
-0.000279138 0.000337653 0 -0.000188888 0.000294791 0 -0.000196448 0.000393271 0 
-0.000104767 0.000348259 0 -0.000113332 0.000449012 0 -2.01066e-05 0.000403223 0 
-2.89189e-05 0.000507105 0 6.9524e-05 0.000461596 0 -0.000213644 0.000490203 0 
7.33757e-05 0.000357726 0 0.000163331 0.00041299 0 0.000163359 0.000313022 0 
0.000248077 0.000366368 0 0.000250914 0.000265758 0 0.000335709 0.000322266 0 
0.000340555 0.000218148 0 0.000427299 0.000276717 0 0.000431508 0.000173093 0 
0.000328731 0.000425633 0 0.00034586 0.000114823 0 0.000435362 7.05241e-05 0 
0.000350892 1.5455e-05 0 0.000441547 -3.11896e-05 0 0.000353547 -8.47783e-05 0 
0.000445767 -0.000132964 0 0.000356135 -0.000186358 0 0.000449094 -0.000234674 0 
0.000359978 -0.000287876 0 0.00026856 -0.000240545 0 0.000271895 -0.000341045 0 
0.000181792 -0.00029305 0 0.00018533 -0.000392851 0 9.75701e-05 -0.00034483 0 
9.98764e-05 -0.000444884 0 8.75116e-06 -0.000396343 0 1.20916e-05 -0.000500496 0 
-7.83929e-05 -0.000449843 0 -8.1471e-05 -0.000347249 0 -0.000171566 -0.000403733 0 
-0.000169889 -0.000298891 0 -0.000259867 -0.000354132 0 -0.000257696 -0.000249137 0 
-0.00034313 -0.000299896 0 -0.000344514 -0.000199127 0 -0.000434309 -0.000250039 0 
-0.000169832 -0.000505815 0 -0.000435227 -0.000146227 0 0.000280331 -0.000442424 0 
-0.000340889 8.76793e-05 0 -0.000515252 4.06198e-05 0 6.50491e-05 0.000568253 0 
0.00053278 1.74743e-05 0 0.000522071 0.000229831 0 -0.00037162 0.000391659 0 
-0.000255272 -0.000150439 0 -0.000442893 -0.000350705 0 0.000450067 -0.000332559 0 
0.000545175 -0.000276306 0 -0.000527797 -0.000197598 0 0.000105306 -0.000551033 0 
1.45836e-05 -0.000609147 0 0.00017145 0.000214453 0 0.000515525 0.000341711 0 
0.000636086 0.000290368 0 -0.000558657 0.000404468 0 -4.01232e-05 0.000616718 0 
6.60192e-05 0.000696422 0 -0.000101806 0.0002546 0 0.000271142 -3.88908e-05 0 
0.000179455 -0.00018534 0 -8.79553e-05 -0.000254307 0 -0.000749267 -0.000373451 0 
-0.000655941 -0.000323397 0 0.000709746 0.000466718 0 0.000698426 -0.000473086 0 
-5.25801e-05 -0.00084886 0 -4.93005e-05 0.000848038 0 0.000617396 -0.000413362 0 
0.000702056 -0.000369817 0 0.000131459 -0.000679171 0 2.48171e-05 -0.000715924 0 
-0.000664217 -0.00042729 0 -0.000528828 -8.80444e-05 0 -0.000611101 -0.000136672 0 
-0.000426972 -4.45841e-05 0 0.000800669 0.000378216 0 0.000821144 -0.000415062 0 
7.2799e-05 0.00088254 0 6.81831e-05 -0.00087503 0 0.000104963 -0.000788946 0 
-7.40696e-05 -0.000660054 0 0.000126061 0.000809943 0 0.000764361 0.000295682 0 
0.000166862 0.000630623 0 0.000516462 -0.00046707 0 -0.000563585 -0.000389606 0 
-0.000622598 -1.40238e-05 0 0.000629891 0.000171529 0 2.5614e-06 -0.000299794 0 
8.6901e-05 -0.00024329 0 0.000272045 -0.000136982 0 -0.00075148 0.000138321 0 
0.000209366 -0.000599589 0 0.000324913 -0.000630055 0 0.000614044 0.00041245 0 
0.00049651 -0.000573327 0 0.000394822 -0.000507321 0 -0.000173714 -0.000206698 0 
0.000264897 5.63722e-05 0 0.000247997 0.000152811 0 -4.63327e-05 -0.000920208 0 
9.18688e-05 0.000258626 0 -5.54111e-06 0.000290558 0 -0.000184219 0.000201484 0 
-0.000263559 0.000142267 0 -0.000256427 5.13624e-05 0 -0.000336894 -2.06179e-06 0 
-0.000228499 -4.2388e-05 0 -0.00017589 0.000106626 0 -0.000769947 -0.000133367 0 
0.000767591 -0.000500293 0 -5.05874e-05 0.000737978 0 0.000754456 -3.51771e-06 0 
0.00064691 -6.15298e-05 0 0.000630483 -0.00018134 0 0.000749187 -0.000265543 0 
-0.000760805 -0.000462521 0 0.000638155 6.09315e-05 0 -4.46661e-05 0.000922995 0 
-2.37945e-05 0.000207237 0 0.000776979 0.000500181 0 -0.000605691 0.000527596 0 
-0.000377914 -0.000653727 0 -0.000372325 -0.000526022 0 -0.000275829 -0.000589621 0 
-0.000254285 -0.000710579 0 -0.000379307 0.000656222 0 -0.000379818 0.00052718 0 
-0.000266817 0.000721555 0 -0.000150544 0.000668174 0 0.000381963 0.00065079 0 
0.000493113 0.000590432 0 0.000505439 0.000463708 0 -0.000269094 0.000596608 0 
0.000385815 0.000532045 0 0.000283599 0.0005899 0 -0.000176405 -0.000108505 0 
-0.000278769 -0.000475415 0 0.000185395 2.33014e-06 0 0.000186773 0.000517571 0 
0.000540032 -8.68444e-05 0 -0.000600694 -0.000514877 0 -0.00063703 8.98033e-05 0 
-0.000459677 0.000335729 0 -0.000338836 -0.000100751 0 -0.000457327 0.000432721 0 
-8.72007e-06 -0.000210238 0 0.000156073 0.000129496 0 -7.70692e-05 -0.000555049 0 
0.00036091 -0.000389728 0 0.000531628 0.000120564 0 -0.000285451 0.000435562 0 
0.000192719 -0.000494604 0 0.00041642 0.00039368 0 -0.000135943 0.000554637 0 
-0.000170665 -0.000610079 0 -0.000666304 0.000434981 0 -0.000758736 0.000479231 0 
-0.000470189 -0.000458901 0 0.000203433 -8.59809e-05 0 0.000101846 0.000170114 0 
-0.00035513 -0.00040726 0 0.000100184 -0.000165831 0 2.96286e-05 0.00081537 0 
0.000720946 0.000381836 0 -0.000539809 -0.000292001 0 0.00052211 -0.000182426 0 
-6.41339e-05 -0.000753908 0 0.000638039 -0.000299861 0 -0.000605136 -0.000230182 0 
-3.41638e-05 -0.000145561 0 -0.000104037 0.000172396 0 -0.000808575 -0.00042774 0 
-0.000807207 -0.000465052 0 -0.00080817 0.000429771 0 -0.000806589 0.000469738 0 
-9.50634e-05 -0.000178909 0 0.000247777 0.000445058 0 1.48293e-05 -0.000814201 0 
-4.11555e-05 0.000140955 0 0.000276104 -0.000536845 0 0.000765969 -0.000436638 0 
0.000780871 -0.000362769 0 0.000424176 -0.000642018 0 0.00053413 -0.000368009 0 
-0.000416333 4.17911e-05 0 -0.000133891 -6.23822e-05 0 4.2574e-05 0.000206312 0 
0.000141163 -0.000121542 0 0.000707423 0.000212137 0 0.000172327 0.000723882 0 
7.72652e-06 -0.00090254 0 -0.000134435 5.66935e-05 0 -0.000188826 3.70894e-05 0 
0.000197119 8.09714e-05 0 1.27801e-05 0.000917296 0 0.000800767 0.00044758 0 
-0.000686682 0.000507104 0 9.35831e-05 0.000110457 0 -0.000696793 -0.000509595 0 
-0.00068446 -8.52012e-05 0 -0.000691033 -0.000201242 0 5.24052e-05 -0.000189075 0 
-0.000151818 -0.000701092 0 -0.000296988 0.000518087 0 9.31023e-05 -0.000108117 0 
0.00044261 -0.000416726 0 0.000197044 -0.000784423 0 -0.000516861 0.000504567 0 
0.000298997 0.000502377 0 0.000131234 6.38474e-05 -0.001 0.00012964 -6.2443e-05 -0.001 
3.13827e-05 0.0001394 -0.001 3.12554e-05 -0.000136939 -0.001 -0.000140461 8.25467e-19 -0.001 
-8.90565e-05 -0.000102707 -0.001 -9.04142e-05 0.000102872 -0.001 -0.000765769 -0.00025965 -0.001 
-0.000756873 0.000262774 -0.001 -0.00015609 0.000787505 -0.001 -0.000155807 -0.00079355 -0.001 
0.000605069 0.000528035 -0.001 0.000608694 -0.00052497 -0.001 0.000744069 0.000116929 -0.001 
-0.000494418 0.000596218 -0.001 -0.000483866 -0.000584648 -0.001 0.000269496 0.000702219 -0.001 
0.000263201 -0.000717324 -0.001 0.000754429 -0.000127825 -0.001 -0.000748858 5.84659e-07 -0.001 
-0.000747838 0.000373886 -0.001 -0.0006542 0.000324842 -0.001 -0.000645137 0.000210123 -0.001 
-0.000550884 0.000274171 -0.001 -0.000538857 0.000163195 -0.001 -0.00045062 0.000224461 -0.001 
-0.000438393 0.000123907 -0.001 -0.000354088 0.000181668 -0.001 -0.000363908 0.000282171 -0.001 
-0.000270361 0.000239477 -0.001 -0.000279138 0.000337653 -0.001 -0.000188888 0.000294791 -0.001 
-0.000196448 0.000393271 -0.001 -0.000104767 0.000348259 -0.001 -0.000113332 0.000449012 -0.001 
-2.01066e-05 0.000403223 -0.001 -2.89189e-05 0.000507105 -0.001 6.9524e-05 0.000461596 -0.001 
-0.000213644 0.000490203 -0.001 7.33757e-05 0.000357726 -0.001 0.000163331 0.00041299 -0.001 
0.000163359 0.000313022 -0.001 0.000248077 0.000366368 -0.001 0.000250914 0.000265758 -0.001 
0.000335709 0.000322266 -0.001 0.000340555 0.000218148 -0.001 0.000427299 0.000276717 -0.001 
0.000431508 0.000173093 -0.001 0.000328731 0.000425633 -0.001 0.00034586 0.000114823 -0.001 
0.000435362 7.05241e-05 -0.001 0.000350892 1.5455e-05 -0.001 0.000441547 -3.11896e-05 -0.001 
0.000353547 -8.47783e-05 -0.001 0.000445767 -0.000132964 -0.001 0.000356135 -0.000186358 -0.001 
0.000449094 -0.000234674 -0.001 0.000359978 -0.000287876 -0.001 0.00026856 -0.000240545 -0.001 
0.000271895 -0.000341045 -0.001 0.000181792 -0.00029305 -0.001 0.00018533 -0.000392851 -0.001 
9.75701e-05 -0.00034483 -0.001 9.98764e-05 -0.000444884 -0.001 8.75116e-06 -0.000396343 -0.001 
1.20916e-05 -0.000500496 -0.001 -7.83929e-05 -0.000449843 -0.001 -8.1471e-05 -0.000347249 -0.001 
-0.000171566 -0.000403733 -0.001 -0.000169889 -0.000298891 -0.001 -0.000259867 -0.000354132 -0.001 
-0.000257696 -0.000249137 -0.001 -0.00034313 -0.000299896 -0.001 -0.000344514 -0.000199127 -0.001 
-0.000434309 -0.000250039 -0.001 -0.000169832 -0.000505815 -0.001 -0.000435227 -0.000146227 -0.001 
0.000280331 -0.000442424 -0.001 -0.000340889 8.76793e-05 -0.001 -0.000515252 4.06198e-05 -0.001 
6.50491e-05 0.000568253 -0.001 0.00053278 1.74743e-05 -0.001 0.000522071 0.000229831 -0.001 
-0.00037162 0.000391659 -0.001 -0.000255272 -0.000150439 -0.001 -0.000442893 -0.000350705 -0.001 
0.000450067 -0.000332559 -0.001 0.000545175 -0.000276306 -0.001 -0.000527797 -0.000197598 -0.001 
0.000105306 -0.000551033 -0.001 1.45836e-05 -0.000609147 -0.001 0.00017145 0.000214453 -0.001 
0.000515525 0.000341711 -0.001 0.000636086 0.000290368 -0.001 -0.000558657 0.000404468 -0.001 
-4.01232e-05 0.000616718 -0.001 6.60192e-05 0.000696422 -0.001 -0.000101806 0.0002546 -0.001 
0.000271142 -3.88908e-05 -0.001 0.000179455 -0.00018534 -0.001 -8.79553e-05 -0.000254307 -0.001 
-0.000749267 -0.000373451 -0.001 -0.000655941 -0.000323397 -0.001 0.000709746 0.000466718 -0.001 
0.000698426 -0.000473086 -0.001 -5.25801e-05 -0.00084886 -0.001 -4.93005e-05 0.000848038 -0.001 
0.000617396 -0.000413362 -0.001 0.000702056 -0.000369817 -0.001 0.000131459 -0.000679171 -0.001 
2.48171e-05 -0.000715924 -0.001 -0.000664217 -0.00042729 -0.001 -0.000528828 -8.80444e-05 -0.001 
-0.000611101 -0.000136672 -0.001 -0.000426972 -4.45841e-05 -0.001 0.000800669 0.000378216 -0.001 
0.000821144 -0.000415062 -0.001 7.2799e-05 0.00088254 -0.001 6.81831e-05 -0.00087503 -0.001 
0.000104963 -0.000788946 -0.001 -7.40696e-05 -0.000660054 -0.001 0.000126061 0.000809943 -0.001 
0.000764361 0.000295682 -0.001 0.000166862 0.000630623 -0.001 0.000516462 -0.00046707 -0.001 
-0.000563585 -0.000389606 -0.001 -0.000622598 -1.40238e-05 -0.001 0.000629891 0.000171529 -0.001 
2.5614e-06 -0.000299794 -0.001 8.6901e-05 -0.00024329 -0.001 0.000272045 -0.000136982 -0.001 
-0.00075148 0.000138321 -0.001 0.000209366 -0.000599589 -0.001 0.000324913 -0.000630055 -0.001 
0.000614044 0.00041245 -0.001 0.00049651 -0.000573327 -0.001 0.000394822 -0.000507321 -0.001 
-0.000173714 -0.000206698 -0.001 0.000264897 5.63722e-05 -0.001 0.000247997 0.000152811 -0.001 
-4.63327e-05 -0.000920208 -0.001 9.18688e-05 0.000258626 -0.001 -5.54111e-06 0.000290558 -0.001 
-0.000184219 0.000201484 -0.001 -0.000263559 0.000142267 -0.001 -0.000256427 5.13624e-05 -0.001 
-0.000336894 -2.06179e-06 -0.001 -0.000228499 -4.2388e-05 -0.001 -0.00017589 0.000106626 -0.001 
-0.000769947 -0.000133367 -0.001 0.000767591 -0.000500293 -0.001 -5.05874e-05 0.000737978 -0.001 
0.000754456 -3.51771e-06 -0.001 0.00064691 -6.15298e-05 -0.001 0.000630483 -0.00018134 -0.001 
0.000749187 -0.000265543 -0.001 -0.000760805 -0.000462521 -0.001 0.000638155 6.09315e-05 -0.001 
-4.46661e-05 0.000922995 -0.001 -2.37945e-05 0.000207237 -0.001 0.000776979 0.000500181 -0.001 
-0.000605691 0.000527596 -0.001 -0.000377914 -0.000653727 -0.001 -0.000372325 -0.000526022 -0.001 
-0.000275829 -0.000589621 -0.001 -0.000254285 -0.000710579 -0.001 -0.000379307 0.000656222 -0.001 
-0.000379818 0.00052718 -0.001 -0.000266817 0.000721555 -0.001 -0.000150544 0.000668174 -0.001 
0.000381963 0.00065079 -0.001 0.000493113 0.000590432 -0.001 0.000505439 0.000463708 -0.001 
-0.000269094 0.000596608 -0.001 0.000385815 0.000532045 -0.001 0.000283599 0.0005899 -0.001 
-0.000176405 -0.000108505 -0.001 -0.000278769 -0.000475415 -0.001 0.000185395 2.33014e-06 -0.001 
0.000186773 0.000517571 -0.001 0.000540032 -8.68444e-05 -0.001 -0.000600694 -0.000514877 -0.001 
-0.00063703 8.98033e-05 -0.001 -0.000459677 0.000335729 -0.001 -0.000338836 -0.000100751 -0.001 
-0.000457327 0.000432721 -0.001 -8.72007e-06 -0.000210238 -0.001 0.000156073 0.000129496 -0.001 
-7.70692e-05 -0.000555049 -0.001 0.00036091 -0.000389728 -0.001 0.000531628 0.000120564 -0.001 
-0.000285451 0.000435562 -0.001 0.000192719 -0.000494604 -0.001 0.00041642 0.00039368 -0.001 
-0.000135943 0.000554637 -0.001 -0.000170665 -0.000610079 -0.001 -0.000666304 0.000434981 -0.001 
-0.000758736 0.000479231 -0.001 -0.000470189 -0.000458901 -0.001 0.000203433 -8.59809e-05 -0.001 
0.000101846 0.000170114 -0.001 -0.00035513 -0.00040726 -0.001 0.000100184 -0.000165831 -0.001 
2.96286e-05 0.00081537 -0.001 0.000720946 0.000381836 -0.001 -0.000539809 -0.000292001 -0.001 
0.00052211 -0.000182426 -0.001 -6.41339e-05 -0.000753908 -0.001 0.000638039 -0.000299861 -0.001 
-0.000605136 -0.000230182 -0.001 -3.41638e-05 -0.000145561 -0.001 -0.000104037 0.000172396 -0.001 
-0.000808575 -0.00042774 -0.001 -0.000807207 -0.000465052 -0.001 -0.00080817 0.000429771 -0.001 
-0.000806589 0.000469738 -0.001 -9.50634e-05 -0.000178909 -0.001 0.000247777 0.000445058 -0.001 
1.48293e-05 -0.000814201 -0.001 -4.11555e-05 0.000140955 -0.001 0.000276104 -0.000536845 -0.001 
0.000765969 -0.000436638 -0.001 0.000780871 -0.000362769 -0.001 0.000424176 -0.000642018 -0.001 
0.00053413 -0.000368009 -0.001 -0.000416333 4.17911e-05 -0.001 -0.000133891 -6.23822e-05 -0.001 
4.2574e-05 0.000206312 -0.001 0.000141163 -0.000121542 -0.001 0.000707423 0.000212137 -0.001 
0.000172327 0.000723882 -0.001 7.72652e-06 -0.00090254 -0.001 -0.000134435 5.66935e-05 -0.001 
-0.000188826 3.70894e-05 -0.001 0.000197119 8.09714e-05 -0.001 1.27801e-05 0.000917296 -0.001 
0.000800767 0.00044758 -0.001 -0.000686682 0.000507104 -0.001 9.35831e-05 0.000110457 -0.001 
-0.000696793 -0.000509595 -0.001 -0.00068446 -8.52012e-05 -0.001 -0.000691033 -0.000201242 -0.001 
5.24052e-05 -0.000189075 -0.001 -0.000151818 -0.000701092 -0.001 -0.000296988 0.000518087 -0.001 
9.31023e-05 -0.000108117 -0.001 0.00044261 -0.000416726 -0.001 0.000197044 -0.000784423 -0.001 
-0.000516861 0.000504567 -0.001 0.000298997 0.000502377 -0.001 

CELLS 563 3941
6 14 304 127 29 554 377 
6 143 259 55 393 509 103 
6 300 319 174 550 569 424 
6 259 349 55 509 599 103 
6 50 365 307 98 615 557 
6 299 320 164 549 570 414 
6 126 304 14 376 554 29 
6 298 319 300 548 569 550 
6 205 240 238 455 490 488 
6 257 308 145 507 558 395 
6 130 352 273 380 602 523 
6 295 320 299 545 570 549 
6 324 327 289 574 577 539 
6 235 258 143 485 508 393 
6 50 307 49 98 557 97 
6 207 283 279 457 533 529 
6 143 373 235 393 623 485 
6 145 308 252 395 558 502 
6 194 303 196 444 553 446 
6 279 306 207 529 556 457 
6 206 305 163 456 555 413 
6 51 357 9 99 607 24 
6 238 252 205 488 502 455 
6 293 317 209 543 567 459 
6 207 316 283 457 566 533 
6 142 301 249 392 551 499 
6 273 359 130 523 609 380 
6 211 327 324 461 577 574 
6 169 265 217 419 515 467 
6 7 365 50 22 615 98 
6 283 316 253 533 566 503 
6 159 268 223 409 518 473 
6 274 337 132 524 587 382 
6 232 361 329 482 611 579 
6 231 266 45 481 516 93 
6 229 362 330 479 612 580 
6 9 244 57 24 494 105 
6 230 276 52 480 526 100 
6 209 311 293 459 561 543 
6 131 342 302 381 592 552 
6 270 271 204 520 521 454 
6 66 243 1 114 493 16 
6 59 241 12 107 491 27 
6 280 306 279 530 556 529 
6 269 337 274 519 587 524 
6 179 256 224 429 506 474 
6 163 305 166 413 555 416 
6 201 303 194 451 553 444 
6 280 332 306 530 582 556 
6 186 255 225 436 505 475 
6 210 310 273 460 560 523 
6 153 270 204 403 520 454 
6 136 231 45 386 481 93 
6 171 265 169 421 515 419 
6 138 230 52 388 480 100 
6 225 354 325 475 604 575 
6 36 284 232 84 534 482 
6 161 268 159 411 518 409 
6 71 286 229 119 536 479 
6 290 303 201 540 553 451 
6 139 355 60 389 605 108 
6 60 355 248 108 605 498 
6 273 352 302 523 602 552 
6 235 373 245 485 623 495 
6 67 356 247 115 606 497 
6 221 295 277 471 545 527 
6 142 356 67 392 606 115 
6 139 283 253 389 533 503 
6 203 315 262 453 565 512 
6 41 257 145 89 507 395 
6 36 232 135 84 482 385 
6 71 229 137 119 479 387 
6 254 255 188 504 505 438 
6 233 350 334 483 600 584 
6 262 346 203 512 596 453 
6 304 325 127 554 575 377 
6 222 329 247 472 579 497 
6 218 298 260 468 548 510 
6 290 321 291 540 571 541 
6 272 310 240 522 560 490 
6 269 274 270 519 524 520 
6 244 245 57 494 495 105 
6 49 307 141 97 557 391 
6 225 325 256 475 575 506 
6 273 310 272 523 560 522 
6 312 368 255 562 618 505 
6 249 305 206 499 555 456 
6 228 331 251 478 581 501 
6 302 342 263 552 592 513 
6 338 339 44 588 589 92 
6 190 254 188 440 504 438 
6 37 341 340 85 591 590 
6 138 233 230 388 483 480 
6 228 335 331 478 585 581 
6 181 256 179 431 506 429 
6 195 263 226 445 513 476 
6 268 285 223 518 535 473 
6 290 291 288 540 541 538 
6 219 330 248 469 580 498 
6 201 321 290 451 571 540 
6 240 310 202 490 560 452 
6 188 255 186 438 505 436 
6 270 274 271 520 524 521 
6 262 349 259 512 599 509 
6 141 324 289 391 574 539 
6 296 301 142 546 551 392 
6 247 356 222 497 606 472 
6 239 252 238 489 502 488 
6 254 312 255 504 562 505 
6 54 261 53 102 511 101 
6 289 327 303 539 577 553 
6 268 353 285 518 603 535 
6 273 302 210 523 552 460 
6 292 299 293 542 549 543 
6 278 283 139 528 533 389 
6 175 265 171 425 515 421 
6 227 338 38 477 588 86 
6 264 360 265 514 610 515 
6 43 340 146 91 590 396 
6 165 268 161 415 518 411 
6 205 351 240 455 601 490 
6 64 281 63 112 531 111 
6 288 291 47 538 541 95 
6 135 295 294 385 545 544 
6 42 257 41 90 507 89 
6 245 373 57 495 623 105 
6 31 363 323 79 613 573 
6 292 293 140 542 543 390 
6 267 353 268 517 603 518 
6 155 270 153 405 520 403 
6 244 344 245 494 594 495 
6 61 278 139 109 528 389 
6 135 294 35 385 544 83 
6 69 297 296 117 547 546 
6 186 225 184 436 475 434 
6 329 361 243 579 611 493 
6 255 328 225 505 578 475 
6 213 332 280 463 582 530 
6 39 275 133 87 525 383 
6 330 362 241 580 612 491 
6 195 226 193 445 476 443 
6 211 324 251 461 574 501 
6 151 153 152 401 403 402 
6 295 299 294 545 549 544 
6 265 313 217 515 563 467 
6 258 259 143 508 509 393 
6 251 331 211 501 581 461 
6 149 151 150 399 401 400 
6 293 370 317 543 620 567 
6 153 204 152 403 454 402 
6 151 152 150 401 402 400 
6 33 292 140 81 542 390 
6 210 263 197 460 513 447 
6 301 305 249 551 555 499 
6 298 300 297 548 550 547 
6 68 296 142 116 546 392 
6 321 369 291 571 619 541 
6 179 224 177 429 474 427 
6 167 267 165 417 517 415 
6 259 346 262 509 596 512 
6 303 327 196 553 577 446 
6 269 270 155 519 520 405 
6 265 360 313 515 610 563 
6 223 269 157 473 519 407 
6 157 269 155 407 519 405 
6 144 279 278 394 529 528 
6 169 217 167 419 467 417 
6 177 264 175 427 514 425 
6 267 268 165 517 518 415 
6 159 223 157 409 473 407 
6 232 277 135 482 527 385 
6 193 254 190 443 504 440 
6 217 267 167 467 517 417 
6 249 356 142 499 606 392 
6 184 256 181 434 506 431 
6 248 355 219 498 605 469 
6 229 260 137 479 510 387 
6 149 150 148 399 400 398 
6 64 348 281 112 598 531 
6 311 374 293 561 624 543 
6 264 265 175 514 515 425 
6 297 300 296 547 550 546 
6 141 289 288 391 539 538 
6 197 263 195 447 513 445 
6 218 260 219 468 510 469 
6 224 264 177 474 514 427 
6 137 298 297 387 548 547 
6 277 295 135 527 545 385 
6 133 228 227 383 478 477 
6 261 349 262 511 599 512 
6 221 277 222 471 527 472 
6 256 325 224 506 575 474 
6 199 210 197 449 460 447 
6 226 254 193 476 504 443 
6 144 278 62 394 528 110 
6 279 283 278 529 533 528 
6 289 290 288 539 540 538 
6 137 297 70 387 547 118 
6 34 294 292 82 544 542 
6 235 236 216 485 486 466 
6 141 288 48 391 538 96 
6 178 306 180 428 556 430 
6 185 186 184 435 436 434 
6 63 281 144 111 531 394 
6 225 256 184 475 506 434 
6 46 291 136 94 541 386 
6 147 149 148 397 399 398 
6 271 272 204 521 522 454 
6 233 334 234 483 584 484 
6 145 275 40 395 525 88 
6 220 322 287 470 572 537 
6 280 334 213 530 584 463 
6 144 280 279 394 530 529 
6 140 287 32 390 537 80 
6 154 155 153 404 405 403 
6 334 350 213 584 600 463 
6 176 177 175 426 427 425 
6 260 298 137 510 548 387 
6 33 140 32 81 390 80 
6 49 141 48 97 391 96 
6 56 143 55 104 393 103 
6 68 142 67 116 392 115 
6 63 144 62 111 394 110 
6 61 139 60 109 389 108 
6 148 308 257 398 558 507 
6 71 137 70 119 387 118 
6 53 138 52 101 388 100 
6 46 136 45 94 386 93 
6 36 135 35 84 385 83 
6 43 146 134 91 396 384 
6 133 227 38 383 477 86 
6 192 193 190 442 443 440 
6 293 374 140 543 624 390 
6 34 292 33 82 542 81 
6 207 306 178 457 556 428 
6 43 134 42 91 384 90 
6 39 133 38 87 383 86 
6 41 145 40 89 395 88 
6 194 195 193 444 445 443 
6 69 296 68 117 546 116 
6 294 299 292 544 549 542 
6 173 175 171 423 425 421 
6 260 330 219 510 580 469 
6 183 184 181 433 434 431 
6 134 257 42 384 507 90 
6 55 349 54 103 599 102 
6 163 165 161 413 415 411 
6 166 167 165 416 417 415 
6 210 302 263 460 552 513 
6 271 273 272 521 523 522 
6 53 261 138 101 511 388 
6 217 326 267 467 576 517 
6 289 303 290 539 553 540 
6 178 179 177 428 429 427 
6 238 240 202 488 490 452 
6 62 278 61 110 528 109 
6 35 294 34 83 544 82 
6 284 361 232 534 611 482 
6 70 297 69 118 547 117 
6 224 304 264 474 554 514 
6 156 157 155 406 407 405 
6 48 288 47 96 538 95 
6 221 320 295 471 570 545 
6 187 188 186 437 438 436 
6 47 291 46 95 541 94 
6 151 154 153 401 404 403 
6 286 362 229 536 612 479 
6 168 169 167 418 419 417 
6 40 275 39 88 525 87 
6 307 324 141 557 574 391 
6 300 301 296 550 551 546 
6 32 287 31 80 537 79 
6 147 220 149 397 470 399 
6 333 344 231 583 594 481 
6 299 370 293 549 620 543 
6 271 359 273 521 609 523 
6 224 325 304 474 575 554 
6 228 237 227 478 487 477 
6 305 375 343 555 625 593 
6 218 319 298 468 569 548 
6 240 351 272 490 601 522 
6 277 329 222 527 579 472 
6 253 355 139 503 605 389 
6 158 159 157 408 409 407 
6 236 246 216 486 496 466 
6 192 194 193 442 444 443 
6 220 309 149 470 559 399 
6 183 185 184 433 435 434 
6 196 197 195 446 447 445 
6 276 347 58 526 597 106 
6 136 333 231 386 583 481 
6 67 247 66 115 497 114 
6 60 248 59 108 498 107 
6 261 262 250 511 512 500 
6 173 176 175 423 426 425 
6 344 357 231 594 607 481 
6 144 281 280 394 531 530 
6 152 205 150 402 455 400 
6 163 166 165 413 416 415 
6 185 187 186 435 437 436 
6 233 234 230 483 484 480 
6 170 171 169 420 421 419 
6 146 147 134 396 397 384 
6 176 178 177 426 428 427 
6 285 337 223 535 587 473 
6 154 156 155 404 406 405 
6 263 342 226 513 592 476 
6 235 245 236 485 495 486 
6 160 161 159 410 411 409 
6 58 347 242 106 597 492 
6 166 168 167 416 418 417 
6 287 374 220 537 624 470 
6 189 190 188 439 440 438 
6 148 257 134 398 507 384 
6 194 196 195 444 446 445 
6 252 308 205 502 558 455 
6 285 345 337 535 595 587 
6 301 375 305 551 625 555 
6 180 181 179 430 431 429 
6 281 348 234 531 598 484 
6 198 199 197 448 449 447 
6 151 309 154 401 559 404 
6 228 367 335 478 617 585 
6 54 349 261 102 599 511 
6 156 158 157 406 408 407 
6 168 170 169 418 420 419 
6 200 202 199 450 452 449 
6 147 148 134 397 398 384 
6 158 160 159 408 410 409 
6 150 308 148 400 558 398 
6 253 316 208 503 566 458 
6 232 329 277 482 579 527 
6 178 180 179 428 430 429 
6 191 192 190 441 442 440 
6 214 238 202 464 488 452 
6 172 173 171 422 423 421 
6 187 189 188 437 439 438 
6 162 163 161 412 413 411 
6 228 251 237 478 501 487 
6 215 258 235 465 508 485 
6 182 183 181 432 433 431 
6 202 310 199 452 560 449 
6 219 253 208 469 503 458 
6 222 249 206 472 499 456 
6 196 198 197 446 448 447 
6 229 330 260 479 580 510 
6 132 358 274 382 608 524 
6 149 309 151 399 559 401 
6 226 312 254 476 562 504 
6 154 309 209 404 559 459 
6 77 129 76 125 379 124 
6 73 128 72 121 378 120 
6 76 131 75 124 381 123 
6 74 132 73 122 382 121 
6 75 130 74 123 380 122 
6 14 127 77 29 377 125 
6 72 126 14 120 376 29 
6 133 367 228 383 617 478 
6 237 282 227 487 532 477 
6 239 366 252 489 616 502 
6 200 214 202 450 464 452 
6 192 201 194 442 451 444 
6 170 172 171 420 422 421 
6 220 311 309 470 561 559 
6 198 200 199 448 450 449 
6 189 191 190 439 441 440 
6 146 323 322 396 573 572 
6 160 162 161 410 412 411 
6 251 307 237 501 557 487 
6 199 310 210 449 560 460 
6 57 373 56 105 623 104 
6 214 239 238 464 489 488 
6 182 212 183 432 462 433 
6 180 182 181 430 432 431 
6 146 322 147 396 572 397 
6 172 218 208 422 468 458 
6 172 208 173 422 458 423 
6 162 221 206 412 471 456 
6 162 206 163 412 456 413 
6 176 207 178 426 457 428 
6 272 351 204 522 601 454 
6 198 211 200 448 461 450 
6 182 213 212 432 463 462 
6 234 334 281 484 584 531 
6 154 209 156 404 459 406 
6 185 203 187 435 453 437 
6 168 174 170 418 424 420 
6 189 215 191 439 465 441 
6 215 216 191 465 466 441 
6 221 222 206 471 472 456 
6 158 164 160 408 414 410 
6 218 219 208 468 469 458 
6 205 308 150 455 558 400 
6 191 314 192 441 564 442 
6 215 235 216 465 485 466 
6 215 318 258 465 568 508 
6 152 351 205 402 601 455 
6 138 261 250 388 511 500 
6 192 314 201 442 564 451 
6 234 347 230 484 597 480 
6 226 342 312 476 592 562 
6 138 250 233 388 500 483 
6 147 322 220 397 572 470 
6 216 314 191 466 564 441 
6 306 332 180 556 582 430 
6 222 356 249 472 606 499 
6 128 345 285 378 595 535 
6 314 321 201 564 571 451 
6 212 315 183 462 565 433 
6 312 342 336 562 592 586 
6 282 339 338 532 589 588 
6 340 341 323 590 591 573 
6 309 311 209 559 561 459 
6 183 315 185 433 565 435 
6 208 316 173 458 566 423 
6 173 316 176 423 566 426 
6 3 341 37 18 591 85 
6 44 339 6 92 589 21 
6 252 366 145 502 616 395 
6 246 321 314 496 571 564 
6 246 314 216 496 564 466 
6 126 364 313 376 614 563 
6 156 317 158 406 567 408 
6 275 367 133 525 617 383 
6 176 316 207 426 566 457 
6 185 315 203 435 565 453 
6 180 332 182 430 582 432 
6 302 352 131 552 602 381 
6 251 324 307 501 574 557 
6 187 318 189 437 568 439 
6 172 319 218 422 569 468 
6 162 320 221 412 570 471 
6 305 343 166 555 593 416 
6 170 319 172 420 569 422 
6 158 317 164 408 567 414 
6 209 317 156 459 567 406 
6 285 353 128 535 603 378 
6 223 337 269 473 587 519 
6 160 320 162 410 570 412 
6 211 331 200 461 581 450 
6 174 319 170 424 569 420 
6 203 318 187 453 568 437 
6 189 318 215 439 568 465 
6 198 327 211 448 577 461 
6 164 320 160 414 570 410 
6 326 353 267 576 603 517 
6 236 344 333 486 594 583 
6 196 327 198 446 577 448 
6 219 355 253 469 605 503 
6 281 334 280 531 584 530 
6 274 359 271 524 609 521 
6 164 370 299 414 620 549 
6 174 375 300 424 625 550 
6 287 363 31 537 613 79 
6 243 361 1 493 611 16 
6 241 362 12 491 612 27 
6 307 365 237 557 615 487 
6 166 343 168 416 593 418 
6 200 331 214 450 581 464 
6 313 326 217 563 576 467 
6 9 357 244 24 607 494 
6 1 361 30 16 611 78 
6 12 362 65 27 612 113 
6 337 345 132 587 595 382 
6 242 348 64 492 598 112 
6 231 357 266 481 607 516 
6 182 332 213 432 582 463 
6 245 344 236 495 594 486 
6 258 346 259 508 596 509 
6 145 366 275 395 616 525 
6 291 369 136 541 619 386 
6 236 333 246 486 583 496 
6 331 335 214 581 585 464 
6 312 336 129 562 586 379 
6 315 372 262 565 622 512 
6 220 374 311 470 624 561 
6 140 374 287 390 624 537 
6 126 360 304 376 610 554 
6 230 347 276 480 597 526 
6 313 364 326 563 614 576 
6 56 373 143 104 623 393 
6 239 367 366 489 617 616 
6 204 351 152 454 601 402 
6 300 375 301 550 625 551 
6 214 335 239 464 585 489 
6 247 329 243 497 579 493 
6 262 372 250 512 622 500 
6 248 330 241 498 580 491 
6 318 346 258 568 596 508 
6 333 369 246 583 619 496 
6 282 338 227 532 588 477 
6 146 340 323 396 590 573 
6 304 360 264 554 610 514 
6 366 367 275 616 617 525 
6 129 336 76 379 586 124 
6 73 345 128 121 595 378 
6 76 336 131 124 586 381 
6 250 350 233 500 600 483 
6 129 371 328 379 621 578 
6 132 345 73 382 595 121 
6 168 343 174 418 593 424 
6 131 352 75 381 602 123 
6 66 247 243 114 497 493 
6 59 248 241 107 498 491 
6 74 358 132 122 608 382 
6 203 346 318 453 596 568 
6 313 360 126 563 610 376 
6 128 364 72 378 614 120 
6 128 353 326 378 603 576 
6 77 371 129 125 621 379 
6 129 368 312 379 618 562 
6 244 357 344 494 607 594 
6 328 354 225 578 604 475 
6 326 364 128 576 614 378 
6 75 352 130 123 602 380 
6 350 372 212 600 622 462 
6 136 369 333 386 619 583 
6 325 354 127 575 604 377 
6 213 350 212 463 600 462 
6 130 358 74 380 608 122 
6 250 372 350 500 622 600 
6 317 370 164 567 620 414 
6 72 364 126 120 614 376 
6 328 368 129 578 618 379 
6 127 371 77 377 621 125 
6 336 342 131 586 592 381 
6 212 372 315 462 622 565 
6 234 348 347 484 598 597 
6 8 266 51 23 516 99 
6 10 276 58 25 526 106 
6 246 369 321 496 619 571 
6 30 284 0 78 534 15 
6 65 286 13 113 536 28 
6 58 242 11 106 492 26 
6 266 357 51 516 607 99 
6 255 368 328 505 618 578 
6 347 348 242 597 598 492 
6 322 363 287 572 613 537 
6 323 363 322 573 613 572 
6 335 367 239 585 617 489 
6 30 361 284 78 611 534 
6 65 362 286 113 612 536 
6 237 365 282 487 615 532 
6 130 359 358 380 609 608 
6 343 375 174 593 625 424 
6 354 371 127 604 621 377 
6 328 371 354 578 621 604 
6 358 359 274 608 609 524 
6 0 284 36 15 534 84 
6 45 266 8 93 516 23 
6 52 276 10 100 526 25 
6 11 242 64 26 492 112 
6 13 286 71 28 536 119 
6 2 323 3 17 573 18 
6 31 323 2 79 573 17 
6 323 341 3 573 591 18 
6 37 340 4 85 590 19 
6 4 340 43 19 590 91 
6 38 338 5 86 588 20 
6 5 338 44 20 588 92 
6 6 282 7 21 532 22 
6 6 339 282 21 589 532 
6 282 365 7 532 615 22 

CELL_TYPES 563
13
13
13
13
13
13
13
13
13
13
13
13
13
13
13
13
13
13
13
13
13
13
13
13
13
13
13
13
13
13
13
13
13
13
13
13
13
13
13
13
13
13
13
13
13
13
13
13
13
13
13
13
13
13
13
13
13
13
13
13
13
13
13
13
13
13
13
13
13
13
13
13
13
13
13
13
13
13
13
13
13
13
13
13
13
13
13
13
13
13
13
13
13
13
13
13
13
13
13
13
13
13
13
13
13
13
13
13
13
13
13
13
13
13
13
13
13
13
13
13
13
13
13
13
13
13
13
13
13
13
13
13
13
13
13
13
13
13
13
13
13
13
13
13
13
13
13
13
13
13
13
13
13
13
13
13
13
13
13
13
13
13
13
13
13
13
13
13
13
13
13
13
13
13
13
13
13
13
13
13
13
13
13
13
13
13
13
13
13
13
13
13
13
13
13
13
13
13
13
13
13
13
13
13
13
13
13
13
13
13
13
13
13
13
13
13
13
13
13
13
13
13
13
13
13
13
13
13
13
13
13
13
13
13
13
13
13
13
13
13
13
13
13
13
13
13
13
13
13
13
13
13
13
13
13
13
13
13
13
13
13
13
13
13
13
13
13
13
13
13
13
13
13
13
13
13
13
13
13
13
13
13
13
13
13
13
13
13
13
13
13
13
13
13
13
13
13
13
13
13
13
13
13
13
13
13
13
13
13
13
13
13
13
13
13
13
13
13
13
13
13
13
13
13
13
13
13
13
13
13
13
13
13
13
13
13
13
13
13
13
13
13
13
13
13
13
13
13
13
13
13
13
13
13
13
13
13
13
13
13
13
13
13
13
13
13
13
13
13
13
13
13
13
13
13
13
13
13
13
13
13
13
13
13
13
13
13
13
13
13
13
13
13
13
13
13
13
13
13
13
13
13
13
13
13
13
13
13
13
13
13
13
13
13
13
13
13
13
13
13
13
13
13
13
13
13
13
13
13
13
13
13
13
13
13
13
13
13
13
13
13
13
13
13
13
13
13
13
13
13
13
13
13
13
13
13
13
13
13
13
13
13
13
13
13
13
13
13
13
13
13
13
13
13
13
13
13
13
13
13
13
13
13
13
13
13
13
13
13
13
13
13
13
13
13
13
13
13
13
13
13
13
13
13
13
13
13
13
13
13
13
13
13
13
13
13
13
13
13
13
13
13
13
13
13
13
13
13
13
13
13
13
13
13
13
13
13
13
13
13
13
13
13
13
13
13
13
13
13
13
13
13
13
13
13
13
13
13
13
13
13
13
13

POINT_DATA 626
VECTORS displacement float
-1.74395e-06 3.09542e-05 1.80549e-05
1.73566e-06 3.09732e-05 1.81e-05
-2.59861e-05 1.69927e-05 1.80869e-05
-2.58407e-05 1.60329e-05 1.80515e-05
-2.77205e-05 1.39727e-05 1.80689e-05
-2.77134e-05 -1.4019e-05 1.80944e-05
-2.58119e-05 -1.60711e-05 1.81057e-05
-2.59823e-05 -1.70108e-05 1.81669e-05
-1.67741e-06 -3.09579e-05 1.80513e-05
1.75545e-06 -3.09594e-05 1.81018e-05
2.59434e-05 -1.69806e-05 1.80434e-05
2.77168e-05 -1.39366e-05 1.80432e-05
2.76723e-05 1.39893e-05 1.80915e-05
2.59148e-05 1.69929e-05 1.80459e-05
0 0 0
-1.74395e-06 3.09542e-05 -1.80549e-05
1.73566e-06 3.09732e-05 -1.81e-05
-2.59861e-05 1.69927e-05 -1.80869e-05
-2.58407e-05 1.60329e-05 -1.80515e-05
-2.77205e-05 1.39727e-05 -1.80689e-05
-2.77134e-05 -1.4019e-05 -1.80944e-05
-2.58119e-05 -1.60711e-05 -1.81057e-05
-2.59823e-05 -1.70108e-05 -1.81669e-05
-1.67741e-06 -3.09579e-05 -1.80513e-05
1.75545e-06 -3.09594e-05 -1.81018e-05
2.59434e-05 -1.69806e-05 -1.80434e-05
2.77168e-05 -1.39366e-05 -1.80432e-05
2.76723e-05 1.39893e-05 -1.80915e-05
2.59148e-05 1.69929e-05 -1.80459e-05
0 0 0
2.48953e-08 3.01541e-05 1.80341e-05
-2.11404e-05 1.87123e-05 1.75496e-05
-1.72323e-05 1.98336e-05 1.69207e-05
-1.40068e-05 2.1054e-05 1.65548e-05
-1.12068e-05 2.26646e-05 1.65486e-05
-8.52402e-06 2.48326e-05 1.69012e-05
-5.56777e-06 2.76215e-05 1.75373e-05
-2.64496e-05 1.4679e-05 1.80334e-05
-2.67685e-05 -9.01142e-06 1.75773e-05
-2.5806e-05 -5.0354e-06 1.69258e-05
-2.52542e-05 -1.63618e-06 1.65712e-05
-2.52572e-05 1.60782e-06 1.65742e-05
-2.57982e-05 5.0228e-06 1.6924e-05
-2.67547e-05 8.98451e-06 1.75638e-05
-2.64365e-05 -1.47254e-05 1.80621e-05
-5.54103e-06 -2.76359e-05 1.75295e-05
-8.47653e-06 -2.48416e-05 1.69005e-05
-1.117e-05 -2.2684e-05 1.6556e-05
-1.39704e-05 -2.1087e-05 1.65594e-05
-1.72148e-05 -1.9869e-05 1.69365e-05
-2.1134e-05 -1.8749e-05 1.75621e-05
8.98412e-08 -3.01389e-05 1.80292e-05
2.11238e-05 -1.86247e-05 1.75113e-05
1.72445e-05 -1.9762e-05 1.68727e-05
1.40337e-05 -2.1011e-05 1.65114e-05
1.1225e-05 -2.25927e-05 1.6546e-05
8.58118e-06 -2.47798e-05 1.6874e-05
5.65465e-06 -2.76262e-05 1.75348e-05
2.61243e-05 -1.50596e-05 1.80282e-05
2.67166e-05 8.93829e-06 1.75014e-05
2.57218e-05 5.04952e-06 1.69082e-05
2.52063e-05 1.6233e-06 1.6523e-05
2.52034e-05 -1.59941e-06 1.65213e-05
2.57504e-05 -4.99731e-06 1.68882e-05
2.66986e-05 -8.91705e-06 1.75095e-05
2.61074e-05 1.50607e-05 1.80253e-05
5.63311e-06 2.76175e-05 1.75094e-05
8.50855e-06 2.48065e-05 1.6911e-05
1.1217e-05 2.26408e-05 1.65292e-05
1.40043e-05 2.10219e-05 1.65246e-05
1.72215e-05 1.97933e-05 1.68849e-05
2.11148e-05 1.86343e-05 1.75252e-05
0 0 0
0 0 0
0 0 0
0 0 0
0 0 0
0 0 0
2.48953e-08 3.01541e-05 -1.80341e-05
-2.11404e-05 1.87123e-05 -1.75496e-05
-1.72323e-05 1.98336e-05 -1.69207e-05
-1.40068e-05 2.1054e-05 -1.65548e-05
-1.12068e-05 2.26646e-05 -1.65486e-05
-8.52402e-06 2.48326e-05 -1.69012e-05
-5.56777e-06 2.76215e-05 -1.75373e-05
-2.64496e-05 1.4679e-05 -1.80334e-05
-2.67685e-05 -9.01142e-06 -1.75773e-05
-2.5806e-05 -5.0354e-06 -1.69258e-05
-2.52542e-05 -1.63618e-06 -1.65712e-05
-2.52572e-05 1.60782e-06 -1.65742e-05
-2.57982e-05 5.0228e-06 -1.6924e-05
-2.67547e-05 8.98451e-06 -1.75638e-05
-2.64365e-05 -1.47254e-05 -1.80621e-05
-5.54103e-06 -2.76359e-05 -1.75295e-05
-8.47653e-06 -2.48416e-05 -1.69005e-05
-1.117e-05 -2.2684e-05 -1.6556e-05
-1.39704e-05 -2.1087e-05 -1.65594e-05
-1.72148e-05 -1.9869e-05 -1.69365e-05
-2.1134e-05 -1.8749e-05 -1.75621e-05
8.98412e-08 -3.01389e-05 -1.80292e-05
2.11238e-05 -1.86247e-05 -1.75113e-05
1.72445e-05 -1.9762e-05 -1.68727e-05
1.40337e-05 -2.1011e-05 -1.65114e-05
1.1225e-05 -2.25927e-05 -1.6546e-05
8.58118e-06 -2.47798e-05 -1.6874e-05
5.65465e-06 -2.76262e-05 -1.75348e-05
2.61243e-05 -1.50596e-05 -1.80282e-05
2.67166e-05 8.93829e-06 -1.75014e-05
2.57218e-05 5.04952e-06 -1.69082e-05
2.52063e-05 1.6233e-06 -1.6523e-05
2.52034e-05 -1.59941e-06 -1.65213e-05
2.57504e-05 -4.99731e-06 -1.68882e-05
2.66986e-05 -8.91705e-06 -1.75095e-05
2.61074e-05 1.50607e-05 -1.80253e-05
5.63311e-06 2.76175e-05 -1.75094e-05
8.50855e-06 2.48065e-05 -1.6911e-05
1.1217e-05 2.26408e-05 -1.65292e-05
1.40043e-05 2.10219e-05 -1.65246e-05
1.72215e-05 1.97933e-05 -1.68849e-05
2.11148e-05 1.86343e-05 -1.75252e-05
0 0 0
0 0 0
0 0 0
0 0 0
0 0 0
0 0 0
1.79366e-06 8.58738e-07 4.5522e-06
1.7378e-06 -8.25107e-07 4.46075e-06
4.3195e-07 1.84961e-06 4.49506e-06
4.36094e-07 -1.78061e-06 4.35604e-06
-1.84747e-06 2.09629e-08 4.42231e-06
-1.12308e-06 -1.30886e-06 4.15095e-06
-1.1592e-06 1.30679e-06 4.19973e-06
-2.25128e-05 -7.28758e-06 1.69998e-05
-2.21962e-05 7.37147e-06 1.69684e-05
-4.8604e-06 2.28982e-05 1.69368e-05
-4.85791e-06 -2.31314e-05 1.69637e-05
1.7421e-05 1.56353e-05 1.69297e-05
1.75686e-05 -1.55363e-05 1.69389e-05
2.10733e-05 3.16384e-06 1.63242e-05
-1.39529e-05 1.71511e-05 1.64782e-05
-1.3591e-05 -1.67411e-05 1.64097e-05
7.76776e-06 1.98193e-05 1.6331e-05
7.68478e-06 -2.03097e-05 1.64023e-05
2.1472e-05 -3.44368e-06 1.64e-05
-2.11025e-05 6.58808e-09 1.62464e-05
-2.24201e-05 1.09996e-05 1.74534e-05
-1.87507e-05 9.25459e-06 1.66269e-05
-1.79825e-05 5.79538e-06 1.60361e-05
-1.49838e-05 7.44824e-06 1.54861e-05
-1.42243e-05 4.30766e-06 1.48294e-05
-1.15325e-05 5.74381e-06 1.40945e-05
-1.08579e-05 3.0687e-06 1.33733e-05
-8.40038e-06 4.30482e-06 1.24041e-05
-9.05869e-06 7.01332e-06 1.34561e-05
-6.20403e-06 5.48844e-06 1.16887e-05
-6.82822e-06 8.24934e-06 1.30797e-05
-4.28134e-06 6.67483e-06 1.14502e-05
-4.79995e-06 9.6098e-06 1.30936e-05
-2.40084e-06 7.99325e-06 1.17227e-05
-2.81281e-06 1.11671e-05 1.34746e-05
-4.75404e-07 9.59517e-06 1.25007e-05
-7.38344e-07 1.29967e-05 1.41414e-05
1.73106e-06 1.15176e-05 1.35347e-05
-5.53462e-06 1.27002e-05 1.44366e-05
1.68506e-06 8.22388e-06 1.17473e-05
4.00413e-06 1.01208e-05 1.31507e-05
3.70531e-06 7.09786e-06 1.1478e-05
6.06733e-06 8.96656e-06 1.31131e-05
5.76675e-06 6.10672e-06 1.17353e-05
8.35798e-06 8.02022e-06 1.34917e-05
8.10555e-06 5.1952e-06 1.25001e-05
1.09539e-05 7.09696e-06 1.41467e-05
1.07458e-05 4.32274e-06 1.34988e-05
8.53042e-06 1.10373e-05 1.44605e-05
7.9376e-06 2.64371e-06 1.17271e-05
1.06459e-05 1.73718e-06 1.31037e-05
7.94859e-06 3.58756e-07 1.14553e-05
1.08063e-05 -7.59103e-07 1.31238e-05
8.11155e-06 -1.93778e-06 1.17088e-05
1.10981e-05 -3.31281e-06 1.34836e-05
8.46963e-06 -4.42393e-06 1.24438e-05
1.15036e-05 -6.00281e-06 1.41091e-05
8.95546e-06 -7.13802e-06 1.34278e-05
6.14745e-06 -5.49435e-06 1.1641e-05
6.64442e-06 -8.30076e-06 1.3018e-05
4.10516e-06 -6.58843e-06 1.13107e-05
4.5233e-06 -9.55075e-06 1.2988e-05
2.24227e-06 -7.85819e-06 1.15971e-05
2.48481e-06 -1.10018e-05 1.33507e-05
2.25289e-07 -9.37358e-06 1.23533e-05
3.3001e-07 -1.27697e-05 1.40336e-05
-1.91541e-06 -1.11506e-05 1.33767e-05
-1.84105e-06 -7.92153e-06 1.15819e-05
-4.16785e-06 -9.87474e-06 1.30848e-05
-3.8139e-06 -6.73042e-06 1.13169e-05
-6.34555e-06 -8.66192e-06 1.3099e-05
-5.89123e-06 -5.69795e-06 1.16282e-05
-8.49962e-06 -7.43571e-06 1.33794e-05
-8.16745e-06 -4.728e-06 1.24084e-05
-1.10955e-05 -6.4027e-06 1.40696e-05
-4.3716e-06 -1.3123e-05 1.44334e-05
-1.08087e-05 -3.65064e-06 1.3439e-05
7.22604e-06 -1.13726e-05 1.42727e-05
-7.74162e-06 1.98266e-06 1.14927e-05
-1.3216e-05 1.03505e-06 1.42107e-05
1.7291e-06 1.50826e-05 1.4952e-05
1.37679e-05 4.62232e-07 1.43875e-05
1.3843e-05 6.10004e-06 1.49315e-05
-9.69395e-06 1.01962e-05 1.45323e-05
-5.41596e-06 -3.19762e-06 1.0182e-05
-1.17135e-05 -9.29724e-06 1.4889e-05
1.18823e-05 -8.76012e-06 1.47869e-05
1.47816e-05 -7.47353e-06 1.54031e-05
-1.39596e-05 -5.24384e-06 1.48615e-05
2.79579e-06 -1.4516e-05 1.4796e-05
4.24559e-07 -1.64992e-05 1.53976e-05
3.5184e-06 4.3969e-06 9.58098e-06
1.40104e-05 9.29896e-06 1.54914e-05
1.79306e-05 8.14488e-06 1.63004e-05
-1.56753e-05 1.13952e-05 1.62333e-05
-1.09408e-06 1.67689e-05 1.54951e-05
1.90685e-06 1.96214e-05 1.63108e-05
-2.09185e-06 5.22003e-06 9.59748e-06
5.55389e-06 -7.84597e-07 9.59402e-06
3.58592e-06 -3.68353e-06 9.08187e-06
-1.77962e-06 -5.17853e-06 9.44949e-06
-2.24686e-05 -1.10107e-05 1.74742e-05
-1.8798e-05 -9.24133e-06 1.66509e-05
2.11477e-05 1.41647e-05 1.75055e-05
2.07536e-05 -1.43175e-05 1.74354e-05
-1.7646e-06 -2.54463e-05 1.75108e-05
-1.68213e-06 2.54103e-05 1.75155e-05
1.77128e-05 -1.19068e-05 1.6687e-05
2.06455e-05 -1.0751e-05 1.71158e-05
3.77561e-06 -1.89849e-05 1.61392e-05
7.68526e-07 -2.03456e-05 1.64827e-05
-1.94049e-05 -1.26504e-05 1.7143e-05
-1.3731e-05 -2.3069e-06 1.44717e-05
-1.65925e-05 -3.70139e-06 1.54774e-05
-1.03757e-05 -1.09637e-06 1.29519e-05
2.44519e-05 1.10727e-05 1.76515e-05
2.54974e-05 -1.24031e-05 1.7848e-05
2.64924e-06 2.67257e-05 1.76604e-05
2.52099e-06 -2.64134e-05 1.76292e-05
3.33944e-06 -2.30317e-05 1.70289e-05
-2.05387e-06 -1.83197e-05 1.59507e-05
4.05904e-06 2.37911e-05 1.71302e-05
2.26139e-05 8.37916e-06 1.71191e-05
4.61356e-06 1.73131e-05 1.57271e-05
1.44268e-05 -1.31193e-05 1.61372e-05
-1.57875e-05 -1.09846e-05 1.62144e-05
-1.67996e-05 -3.81423e-07 1.53771e-05
1.73057e-05 4.68742e-06 1.57255e-05
6.55214e-08 -6.38724e-06 1.02673e-05
1.74169e-06 -4.84841e-06 9.09237e-06
5.8504e-06 -2.93548e-06 1.0378e-05
-2.14439e-05 3.75046e-06 1.64586e-05
5.7293e-06 -1.62743e-05 1.55075e-05
9.08335e-06 -1.74988e-05 1.59973e-05
1.7572e-05 1.18815e-05 1.66721e-05
1.3994e-05 -1.6382e-05 1.6401e-05
1.07398e-05 -1.37888e-05 1.55499e-05
-3.54793e-06 -4.22015e-06 9.50064e-06
5.39906e-06 1.13848e-06 9.49892e-06
5.21799e-06 3.22284e-06 1.00471e-05
-1.74978e-06 -2.83542e-05 1.78767e-05
1.89204e-06 5.29883e-06 9.58432e-06
-1.13822e-07 6.10493e-06 1.00386e-05
-3.78488e-06 4.12769e-06 9.57827e-06
-5.62261e-06 3.03415e-06 1.02851e-05
-5.16541e-06 1.04066e-06 9.21348e-06
-7.52715e-06 -6.17384e-08 1.11722e-05
-4.33432e-06 -8.10269e-07 8.38174e-06
-3.10855e-06 1.87232e-06 7.37397e-06
-2.20809e-05 -3.6077e-06 1.65156e-05
2.34059e-05 -1.56878e-05 1.7836e-05
-1.50718e-06 2.11676e-05 1.66819e-05
2.12614e-05 -8.45183e-08 1.62255e-05
1.76218e-05 -1.64678e-06 1.55812e-05
1.73475e-05 -4.9416e-06 1.57705e-05
2.18913e-05 -7.45101e-06 1.69134e-05
-2.31819e-05 -1.42544e-05 1.78325e-05
1.73244e-05 1.64885e-06 1.55083e-05
-1.73399e-06 2.84728e-05 1.7894e-05
-4.22067e-07 3.68338e-06 7.4952e-06
2.37717e-05 1.57422e-05 1.78844e-05
-1.74971e-05 1.56421e-05 1.69748e-05
-1.06261e-05 -1.84659e-05 1.62549e-05
-1.00994e-05 -1.43421e-05 1.55715e-05
-7.50767e-06 -1.60946e-05 1.56218e-05
-7.32204e-06 -2.01202e-05 1.63951e-05
-1.07043e-05 1.8535e-05 1.62666e-05
-1.03472e-05 1.43839e-05 1.56191e-05
-7.77255e-06 2.04921e-05 1.6444e-05
-4.25294e-06 1.86094e-05 1.60528e-05
1.07596e-05 1.83452e-05 1.6226e-05
1.38915e-05 1.69347e-05 1.64308e-05
1.40418e-05 1.29727e-05 1.60511e-05
-7.36148e-06 1.62881e-05 1.56383e-05
1.0525e-05 1.45468e-05 1.5645e-05
7.74865e-06 1.60921e-05 1.56137e-05
-3.11643e-06 -1.89875e-06 7.39309e-06
-7.25755e-06 -1.24218e-05 1.4625e-05
3.00863e-06 4.03598e-08 6.6009e-06
4.87252e-06 1.35226e-05 1.46179e-05
1.40758e-05 -2.26036e-06 1.45703e-05
-1.72895e-05 -1.52165e-05 1.69453e-05
-1.73663e-05 2.42027e-06 1.55976e-05
-1.22045e-05 8.91183e-06 1.49433e-05
-7.70554e-06 -2.29249e-06 1.15545e-05
-1.24496e-05 1.18125e-05 1.55398e-05
-1.42734e-07 -3.75419e-06 7.55409e-06
2.7302e-06 2.27206e-06 7.25184e-06
-2.00384e-06 -1.46503e-05 1.48079e-05
9.36498e-06 -1.00681e-05 1.43892e-05
1.38606e-05 3.15778e-06 1.45659e-05
-7.33995e-06 1.11992e-05 1.42601e-05
4.99716e-06 -1.27746e-05 1.43691e-05
1.10317e-05 1.04304e-05 1.49195e-05
-3.5964e-06 1.46851e-05 1.49079e-05
-4.63542e-06 -1.66167e-05 1.55487e-05
-1.95069e-05 1.28923e-05 1.71612e-05
-2.31267e-05 1.4858e-05 1.78433e-05
-1.29048e-05 -1.2686e-05 1.58124e-05
3.76077e-06 -1.58611e-06 7.90686e-06
1.76438e-06 2.92226e-06 7.08436e-06
-9.23038e-06 -1.06094e-05 1.45316e-05
1.72773e-06 -2.82313e-06 6.93099e-06
9.94726e-07 2.41166e-05 1.73084e-05
2.13678e-05 1.11937e-05 1.72985e-05
-1.46645e-05 -7.95331e-06 1.54852e-05
1.37079e-05 -4.78627e-06 1.46905e-05
-1.90987e-06 -2.17627e-05 1.68026e-05
1.80602e-05 -8.41898e-06 1.63406e-05
-1.66788e-05 -6.3285e-06 1.57823e-05
-4.32897e-07 -1.92231e-06 4.79843e-06
-1.80535e-06 2.99542e-06 7.1771e-06
-2.50518e-05 -1.29817e-05 1.79222e-05
-2.5127e-05 -1.45072e-05 1.8002e-05
-2.5045e-05 1.30336e-05 1.79059e-05
-2.51179e-05 1.46499e-05 1.79821e-05
-1.64844e-06 -3.12482e-06 7.20984e-06
6.32789e-06 1.13683e-05 1.40764e-05
5.33709e-07 -2.40859e-05 1.73021e-05
-5.22774e-07 1.80953e-06 4.64497e-06
7.40739e-06 -1.43435e-05 1.51522e-05
2.33027e-05 -1.32092e-05 1.77287e-05
2.36325e-05 -1.05375e-05 1.74907e-05
1.19883e-05 -1.82108e-05 1.62931e-05
1.473e-05 -1.01466e-05 1.57955e-05
-1.0027e-05 1.00124e-06 1.27545e-05
-1.74e-06 -8.15897e-07 4.72341e-06
7.69058e-07 3.70832e-06 7.57307e-06
2.34306e-06 -1.99715e-06 6.55523e-06
2.01564e-05 5.89777e-06 1.64535e-05
5.07005e-06 2.05958e-05 1.64959e-05
3.42117e-07 -2.76798e-05 1.78539e-05
-1.73122e-06 7.09107e-07 4.60628e-06
-3.21148e-06 6.23043e-07 6.82408e-06
3.57719e-06 1.4754e-06 7.63655e-06
4.99225e-07 2.83236e-05 1.79272e-05
2.47602e-05 1.3734e-05 1.79183e-05
-2.03282e-05 1.55357e-05 1.74289e-05
1.1787e-06 1.36446e-06 4.45981e-06
-2.06394e-05 -1.57283e-05 1.75275e-05
-1.89987e-05 -2.32216e-06 1.5946e-05
-1.9559e-05 -5.58494e-06 1.63321e-05
9.05676e-07 -3.24773e-06 7.00604e-06
-4.36599e-06 -1.97891e-05 1.63217e-05
-7.93721e-06 1.38343e-05 1.5101e-05
1.16574e-06 -1.30417e-06 4.33925e-06
1.19343e-05 -1.12283e-05 1.52921e-05
6.13303e-06 -2.26959e-05 1.68204e-05
-1.4522e-05 1.43553e-05 1.63235e-05
7.92901e-06 1.33211e-05 1.49479e-05
1.79366e-06 8.58738e-07 -4.5522e-06
1.7378e-06 -8.25107e-07 -4.46075e-06
4.3195e-07 1.84961e-06 -4.49506e-06
4.36094e-07 -1.78061e-06 -4.35604e-06
-1.84747e-06 2.09629e-08 -4.42231e-06
-1.12308e-06 -1.30886e-06 -4.15095e-06
-1.1592e-06 1.30679e-06 -4.19973e-06
-2.25128e-05 -7.28758e-06 -1.69998e-05
-2.21962e-05 7.37147e-06 -1.69684e-05
-4.8604e-06 2.28982e-05 -1.69368e-05
-4.85791e-06 -2.31314e-05 -1.69637e-05
1.7421e-05 1.56353e-05 -1.69297e-05
1.75686e-05 -1.55363e-05 -1.69389e-05
2.10733e-05 3.16384e-06 -1.63242e-05
-1.39529e-05 1.71511e-05 -1.64782e-05
-1.3591e-05 -1.67411e-05 -1.64097e-05
7.76776e-06 1.98193e-05 -1.6331e-05
7.68478e-06 -2.03097e-05 -1.64023e-05
2.1472e-05 -3.44368e-06 -1.64e-05
-2.11025e-05 6.58808e-09 -1.62464e-05
-2.24201e-05 1.09996e-05 -1.74534e-05
-1.87507e-05 9.25459e-06 -1.66269e-05
-1.79825e-05 5.79538e-06 -1.60361e-05
-1.49838e-05 7.44824e-06 -1.54861e-05
-1.42243e-05 4.30766e-06 -1.48294e-05
-1.15325e-05 5.74381e-06 -1.40945e-05
-1.08579e-05 3.0687e-06 -1.33733e-05
-8.40038e-06 4.30482e-06 -1.24041e-05
-9.05869e-06 7.01332e-06 -1.34561e-05
-6.20403e-06 5.48844e-06 -1.16887e-05
-6.82822e-06 8.24934e-06 -1.30797e-05
-4.28134e-06 6.67483e-06 -1.14502e-05
-4.79995e-06 9.6098e-06 -1.30936e-05
-2.40084e-06 7.99325e-06 -1.17227e-05
-2.81281e-06 1.11671e-05 -1.34746e-05
-4.75404e-07 9.59517e-06 -1.25007e-05
-7.38344e-07 1.29967e-05 -1.41414e-05
1.73106e-06 1.15176e-05 -1.35347e-05
-5.53462e-06 1.27002e-05 -1.44366e-05
1.68506e-06 8.22388e-06 -1.17473e-05
4.00413e-06 1.01208e-05 -1.31507e-05
3.70531e-06 7.09786e-06 -1.1478e-05
6.06733e-06 8.96656e-06 -1.31131e-05
5.76675e-06 6.10672e-06 -1.17353e-05
8.35798e-06 8.02022e-06 -1.34917e-05
8.10555e-06 5.1952e-06 -1.25001e-05
1.09539e-05 7.09696e-06 -1.41467e-05
1.07458e-05 4.32274e-06 -1.34988e-05
8.53042e-06 1.10373e-05 -1.44605e-05
7.9376e-06 2.64371e-06 -1.17271e-05
1.06459e-05 1.73718e-06 -1.31037e-05
7.94859e-06 3.58756e-07 -1.14553e-05
1.08063e-05 -7.59103e-07 -1.31238e-05
8.11155e-06 -1.93778e-06 -1.17088e-05
1.10981e-05 -3.31281e-06 -1.34836e-05
8.46963e-06 -4.42393e-06 -1.24438e-05
1.15036e-05 -6.00281e-06 -1.41091e-05
8.95546e-06 -7.13802e-06 -1.34278e-05
6.14745e-06 -5.49435e-06 -1.1641e-05
6.64442e-06 -8.30076e-06 -1.3018e-05
4.10516e-06 -6.58843e-06 -1.13107e-05
4.5233e-06 -9.55075e-06 -1.2988e-05
2.24227e-06 -7.85819e-06 -1.15971e-05
2.48481e-06 -1.10018e-05 -1.33507e-05
2.25289e-07 -9.37358e-06 -1.23533e-05
3.3001e-07 -1.27697e-05 -1.40336e-05
-1.91541e-06 -1.11506e-05 -1.33767e-05
-1.84105e-06 -7.92153e-06 -1.15819e-05
-4.16785e-06 -9.87474e-06 -1.30848e-05
-3.8139e-06 -6.73042e-06 -1.13169e-05
-6.34555e-06 -8.66192e-06 -1.3099e-05
-5.89123e-06 -5.69795e-06 -1.16282e-05
-8.49962e-06 -7.43571e-06 -1.33794e-05
-8.16745e-06 -4.728e-06 -1.24084e-05
-1.10955e-05 -6.4027e-06 -1.40696e-05
-4.3716e-06 -1.3123e-05 -1.44334e-05
-1.08087e-05 -3.65064e-06 -1.3439e-05
7.22604e-06 -1.13726e-05 -1.42727e-05
-7.74162e-06 1.98266e-06 -1.14927e-05
-1.3216e-05 1.03505e-06 -1.42107e-05
1.7291e-06 1.50826e-05 -1.4952e-05
1.37679e-05 4.62232e-07 -1.43875e-05
1.3843e-05 6.10004e-06 -1.49315e-05
-9.69395e-06 1.01962e-05 -1.45323e-05
-5.41596e-06 -3.19762e-06 -1.0182e-05
-1.17135e-05 -9.29724e-06 -1.4889e-05
1.18823e-05 -8.76012e-06 -1.47869e-05
1.47816e-05 -7.47353e-06 -1.54031e-05
-1.39596e-05 -5.24384e-06 -1.48615e-05
2.79579e-06 -1.4516e-05 -1.4796e-05
4.24559e-07 -1.64992e-05 -1.53976e-05
3.5184e-06 4.3969e-06 -9.58098e-06
1.40104e-05 9.29896e-06 -1.54914e-05
1.79306e-05 8.14488e-06 -1.63004e-05
-1.56753e-05 1.13952e-05 -1.62333e-05
-1.09408e-06 1.67689e-05 -1.54951e-05
1.90685e-06 1.96214e-05 -1.63108e-05
-2.09185e-06 5.22003e-06 -9.59748e-06
5.55389e-06 -7.84597e-07 -9.59402e-06
3.58592e-06 -3.68353e-06 -9.08187e-06
-1.77962e-06 -5.17853e-06 -9.44949e-06
-2.24686e-05 -1.10107e-05 -1.74742e-05
-1.8798e-05 -9.24133e-06 -1.66509e-05
2.11477e-05 1.41647e-05 -1.75055e-05
2.07536e-05 -1.43175e-05 -1.74354e-05
-1.7646e-06 -2.54463e-05 -1.75108e-05
-1.68213e-06 2.54103e-05 -1.75155e-05
1.77128e-05 -1.19068e-05 -1.6687e-05
2.06455e-05 -1.0751e-05 -1.71158e-05
3.77561e-06 -1.89849e-05 -1.61392e-05
7.68526e-07 -2.03456e-05 -1.64827e-05
-1.94049e-05 -1.26504e-05 -1.7143e-05
-1.3731e-05 -2.3069e-06 -1.44717e-05
-1.65925e-05 -3.70139e-06 -1.54774e-05
-1.03757e-05 -1.09637e-06 -1.29519e-05
2.44519e-05 1.10727e-05 -1.76515e-05
2.54974e-05 -1.24031e-05 -1.7848e-05
2.64924e-06 2.67257e-05 -1.76604e-05
2.52099e-06 -2.64134e-05 -1.76292e-05
3.33944e-06 -2.30317e-05 -1.70289e-05
-2.05387e-06 -1.83197e-05 -1.59507e-05
4.05904e-06 2.37911e-05 -1.71302e-05
2.26139e-05 8.37916e-06 -1.71191e-05
4.61356e-06 1.73131e-05 -1.57271e-05
1.44268e-05 -1.31193e-05 -1.61372e-05
-1.57875e-05 -1.09846e-05 -1.62144e-05
-1.67996e-05 -3.81423e-07 -1.53771e-05
1.73057e-05 4.68742e-06 -1.57255e-05
6.55214e-08 -6.38724e-06 -1.02673e-05
1.74169e-06 -4.84841e-06 -9.09237e-06
5.8504e-06 -2.93548e-06 -1.0378e-05
-2.14439e-05 3.75046e-06 -1.64586e-05
5.7293e-06 -1.62743e-05 -1.55075e-05
9.08335e-06 -1.74988e-05 -1.59973e-05
1.7572e-05 1.18815e-05 -1.66721e-05
1.3994e-05 -1.6382e-05 -1.6401e-05
1.07398e-05 -1.37888e-05 -1.55499e-05
-3.54793e-06 -4.22015e-06 -9.50064e-06
5.39906e-06 1.13848e-06 -9.49892e-06
5.21799e-06 3.22284e-06 -1.00471e-05
-1.74978e-06 -2.83542e-05 -1.78767e-05
1.89204e-06 5.29883e-06 -9.58432e-06
-1.13822e-07 6.10493e-06 -1.00386e-05
-3.78488e-06 4.12769e-06 -9.57827e-06
-5.62261e-06 3.03415e-06 -1.02851e-05
-5.16541e-06 1.04066e-06 -9.21348e-06
-7.52715e-06 -6.17384e-08 -1.11722e-05
-4.33432e-06 -8.10269e-07 -8.38174e-06
-3.10855e-06 1.87232e-06 -7.37397e-06
-2.20809e-05 -3.6077e-06 -1.65156e-05
2.34059e-05 -1.56878e-05 -1.7836e-05
-1.50718e-06 2.11676e-05 -1.66819e-05
2.12614e-05 -8.45183e-08 -1.62255e-05
1.76218e-05 -1.64678e-06 -1.55812e-05
1.73475e-05 -4.9416e-06 -1.57705e-05
2.18913e-05 -7.45101e-06 -1.69134e-05
-2.31819e-05 -1.42544e-05 -1.78325e-05
1.73244e-05 1.64885e-06 -1.55083e-05
-1.73399e-06 2.84728e-05 -1.7894e-05
-4.22067e-07 3.68338e-06 -7.4952e-06
2.37717e-05 1.57422e-05 -1.78844e-05
-1.74971e-05 1.56421e-05 -1.69748e-05
-1.06261e-05 -1.84659e-05 -1.62549e-05
-1.00994e-05 -1.43421e-05 -1.55715e-05
-7.50767e-06 -1.60946e-05 -1.56218e-05
-7.32204e-06 -2.01202e-05 -1.63951e-05
-1.07043e-05 1.8535e-05 -1.62666e-05
-1.03472e-05 1.43839e-05 -1.56191e-05
-7.77255e-06 2.04921e-05 -1.6444e-05
-4.25294e-06 1.86094e-05 -1.60528e-05
1.07596e-05 1.83452e-05 -1.6226e-05
1.38915e-05 1.69347e-05 -1.64308e-05
1.40418e-05 1.29727e-05 -1.60511e-05
-7.36148e-06 1.62881e-05 -1.56383e-05
1.0525e-05 1.45468e-05 -1.5645e-05
7.74865e-06 1.60921e-05 -1.56137e-05
-3.11643e-06 -1.89875e-06 -7.39309e-06
-7.25755e-06 -1.24218e-05 -1.4625e-05
3.00863e-06 4.03598e-08 -6.6009e-06
4.87252e-06 1.35226e-05 -1.46179e-05
1.40758e-05 -2.26036e-06 -1.45703e-05
-1.72895e-05 -1.52165e-05 -1.69453e-05
-1.73663e-05 2.42027e-06 -1.55976e-05
-1.22045e-05 8.91183e-06 -1.49433e-05
-7.70554e-06 -2.29249e-06 -1.15545e-05
-1.24496e-05 1.18125e-05 -1.55398e-05
-1.42734e-07 -3.75419e-06 -7.55409e-06
2.7302e-06 2.27206e-06 -7.25184e-06
-2.00384e-06 -1.46503e-05 -1.48079e-05
9.36498e-06 -1.00681e-05 -1.43892e-05
1.38606e-05 3.15778e-06 -1.45659e-05
-7.33995e-06 1.11992e-05 -1.42601e-05
4.99716e-06 -1.27746e-05 -1.43691e-05
1.10317e-05 1.04304e-05 -1.49195e-05
-3.5964e-06 1.46851e-05 -1.49079e-05
-4.63542e-06 -1.66167e-05 -1.55487e-05
-1.95069e-05 1.28923e-05 -1.71612e-05
-2.31267e-05 1.4858e-05 -1.78433e-05
-1.29048e-05 -1.2686e-05 -1.58124e-05
3.76077e-06 -1.58611e-06 -7.90686e-06
1.76438e-06 2.92226e-06 -7.08436e-06
-9.23038e-06 -1.06094e-05 -1.45316e-05
1.72773e-06 -2.82313e-06 -6.93099e-06
9.94726e-07 2.41166e-05 -1.73084e-05
2.13678e-05 1.11937e-05 -1.72985e-05
-1.46645e-05 -7.95331e-06 -1.54852e-05
1.37079e-05 -4.78627e-06 -1.46905e-05
-1.90987e-06 -2.17627e-05 -1.68026e-05
1.80602e-05 -8.41898e-06 -1.63406e-05
-1.66788e-05 -6.3285e-06 -1.57823e-05
-4.32897e-07 -1.92231e-06 -4.79843e-06
-1.80535e-06 2.99542e-06 -7.1771e-06
-2.50518e-05 -1.29817e-05 -1.79222e-05
-2.5127e-05 -1.45072e-05 -1.8002e-05
-2.5045e-05 1.30336e-05 -1.79059e-05
-2.51179e-05 1.46499e-05 -1.79821e-05
-1.64844e-06 -3.12482e-06 -7.20984e-06
6.32789e-06 1.13683e-05 -1.40764e-05
5.33709e-07 -2.40859e-05 -1.73021e-05
-5.22774e-07 1.80953e-06 -4.64497e-06
7.40739e-06 -1.43435e-05 -1.51522e-05
2.33027e-05 -1.32092e-05 -1.77287e-05
2.36325e-05 -1.05375e-05 -1.74907e-05
1.19883e-05 -1.82108e-05 -1.62931e-05
1.473e-05 -1.01466e-05 -1.57955e-05
-1.0027e-05 1.00124e-06 -1.27545e-05
-1.74e-06 -8.15897e-07 -4.72341e-06
7.69058e-07 3.70832e-06 -7.57307e-06
2.34306e-06 -1.99715e-06 -6.55523e-06
2.01564e-05 5.89777e-06 -1.64535e-05
5.07005e-06 2.05958e-05 -1.64959e-05
3.42117e-07 -2.76798e-05 -1.78539e-05
-1.73122e-06 7.09107e-07 -4.60628e-06
-3.21148e-06 6.23043e-07 -6.82408e-06
3.57719e-06 1.4754e-06 -7.63655e-06
4.99225e-07 2.83236e-05 -1.79272e-05
2.47602e-05 1.3734e-05 -1.79183e-05
-2.03282e-05 1.55357e-05 -1.74289e-05
1.1787e-06 1.36446e-06 -4.45981e-06
-2.06394e-05 -1.57283e-05 -1.75275e-05
-1.89987e-05 -2.32216e-06 -1.5946e-05
-1.9559e-05 -5.58494e-06 -1.63321e-05
9.05676e-07 -3.24773e-06 -7.00604e-06
-4.36599e-06 -1.97891e-05 -1.63217e-05
-7.93721e-06 1.38343e-05 -1.5101e-05
1.16574e-06 -1.30417e-06 -4.33925e-06
1.19343e-05 -1.12283e-05 -1.52921e-05
6.13303e-06 -2.26959e-05 -1.68204e-05
-1.4522e-05 1.43553e-05 -1.63235e-05
7.92901e-06 1.33211e-05 -1.49479e-05
SCALARS effective_fluid_pressure_TPM float
LOOKUP_TABLE default
665
665
665
665
665
665
665
665
665
665
665
665
665
665
133
665
665
665
665
665
665
665
665
665
665
665
665
665
665
133
665
560.315
520.659
502.799
502.57
519.785
559.936
665
561.982
520.754
503.242
503.351
520.686
561.604
665
559.603
519.656
502.744
502.962
521.154
561.62
665
558.859
519
501.532
502.228
518.85
559.447
665
558.499
519.94
501.865
501.796
519.373
557.938
665
558.655
519.954
502.037
501.899
519.361
559.662
133
133
133
133
133
133
665
560.315
520.659
502.799
502.57
519.785
559.936
665
561.982
520.754
503.242
503.351
520.686
561.604
665
559.603
519.656
502.744
502.962
521.154
561.62
665
558.859
519
501.532
502.228
518.85
559.447
665
558.499
519.94
501.865
501.796
519.373
557.938
665
558.655
519.954
502.037
501.899
519.361
559.662
133
133
133
133
133
133
228.254
226.325
227.038
224.107
225.522
219.844
220.86
529.159
528.169
526.548
527.927
526.575
527.629
498.695
503.542
501.58
498.936
501.452
501.234
494.315
562.498
518.973
495.019
480.726
461.345
443.265
425.034
402.108
427.258
385.254
417.726
379.6
417.889
385.938
427.374
404.285
444.369
429.064
450.245
386.548
419.289
380.195
418.301
386.178
427.748
404.213
444.479
428.148
450.842
386.022
418.152
379.612
418.508
385.546
427.584
402.907
443.542
426.439
384.039
416.125
376.295
415.332
383.011
424.405
400.833
441.691
425.213
382.748
417.765
376.56
418.083
383.833
425.253
402.2
442.664
450.636
426.713
445.994
380.72
444.66
465.275
448.727
464.748
453.397
350.896
463.49
461.022
478.429
462.758
460.628
478.333
337.271
480.805
505.838
503.597
480.871
506.144
337.684
337.495
326.159
334.41
563.374
519.649
567.575
562.36
567.892
567.745
521.797
542.709
498.61
513.722
542.054
451.438
477.556
414.644
579.516
611.026
579.669
576.029
534.543
494.46
538.217
537.914
485.016
498.096
503.314
473.117
485.064
352.741
326.41
355.17
503.423
477.695
488.337
520.866
502.006
477.892
335.535
335.398
347.693
613.444
337.372
347.564
337.259
353.197
329.183
373.247
310.655
288.783
504.689
608.379
521.087
493.699
478.305
486.333
526.481
600.338
476.542
615.897
291.392
615.796
528.71
494.511
478.212
479.386
501.293
494.817
479.412
502.489
495.152
493.722
502.24
495.226
479.859
480.025
479.027
289.289
454.568
271.938
454.976
453.604
526.991
479.449
465.199
382.09
480.485
292.665
286.077
461.455
449.609
453.953
445.831
448.665
463.58
463.237
479.929
543.449
601.699
487.469
300.296
282.457
452.989
279.158
552.232
551.991
480.751
457.993
526.213
508.165
488.566
233.726
284.554
614.504
636.32
615.138
636.677
285.275
441.316
553.072
230.482
467.527
590.26
566.026
495.791
490.026
410.021
232.116
293.091
271.122
507.873
509.17
607.812
229.66
276.971
294.425
618.876
618.789
558.506
226.519
562.519
488.289
503.372
280.842
504.042
466.354
224.004
473.561
519.558
502.957
462.42
228.254
226.325
227.038
224.107
225.522
219.844
220.86
529.159
528.169
526.548
527.927
526.575
527.629
498.695
503.542
501.58
498.936
501.452
501.234
494.315
562.498
518.973
495.019
480.726
461.345
443.265
425.034
402.108
427.258
385.254
417.726
379.6
417.889
385.938
427.374
404.285
444.369
429.064
450.245
386.548
419.289
380.195
418.301
386.178
427.748
404.213
444.479
428.148
450.842
386.022
418.152
379.612
418.508
385.546
427.584
402.907
443.542
426.439
384.039
416.125
376.295
415.332
383.011
424.405
400.833
441.691
425.213
382.748
417.765
376.56
418.083
383.833
425.253
402.2
442.664
450.636
426.713
445.994
380.72
444.66
465.275
448.727
464.748
453.397
350.896
463.49
461.022
478.429
462.758
460.628
478.333
337.271
480.805
505.838
503.597
480.871
506.144
337.684
337.495
326.159
334.41
563.374
519.649
567.575
562.36
567.892
567.745
521.797
542.709
498.61
513.722
542.054
451.438
477.556
414.644
579.516
611.026
579.669
576.029
534.543
494.46
538.217
537.914
485.016
498.096
503.314
473.117
485.064
352.741
326.41
355.17
503.423
477.695
488.337
520.866
502.006
477.892
335.535
335.398
347.693
613.444
337.372
347.564
337.259
353.197
329.183
373.247
310.655
288.783
504.689
608.379
521.087
493.699
478.305
486.333
526.481
600.338
476.542
615.897
291.392
615.796
528.71
494.511
478.212
479.386
501.293
494.817
479.412
502.489
495.152
493.722
502.24
495.226
479.859
480.025
479.027
289.289
454.568
271.938
454.976
453.604
526.991
479.449
465.199
382.09
480.485
292.665
286.077
461.455
449.609
453.953
445.831
448.665
463.58
463.237
479.929
543.449
601.699
487.469
300.296
282.457
452.989
279.158
552.232
551.991
480.751
457.993
526.213
508.165
488.566
233.726
284.554
614.504
636.32
615.138
636.677
285.275
441.316
553.072
230.482
467.527
590.26
566.026
495.791
490.026
410.021
232.116
293.091
271.122
507.873
509.17
607.812
229.66
276.971
294.425
618.876
618.789
558.506
226.519
562.519
488.289
503.372
280.842
504.042
466.354
224.004
473.561
519.558
502.957
462.42

CELL_DATA 563
TENSORS stress float
164.609 -24.9203 -2.99375e-12
-24.9203 28.1481 4.46576e-12
-2.99375e-12 4.46576e-12 -12.6046

-40.3384 -21.3202 -6.06937e-12
-21.3202 -7.35469 1.36454e-12
-6.06937e-12 1.36454e-12 -10.2315

-9.93982 28.0431 8.28966e-15
28.0431 -1.11027 4.02641e-14
8.28966e-15 4.02641e-14 -6.3599

-40.4267 -29.8427 -2.49815e-12
-29.8427 -12.8459 -7.18092e-13
-2.49815e-12 -7.18092e-13 -10.5978

-22.6925 19.9309 -3.76943e-12
19.9309 -1.92236 4.03758e-12
-3.76943e-12 4.03758e-12 -23.0216

-27.1391 -18.0743 1.54055e-12
-18.0743 15.8879 2.20505e-12
1.54055e-12 2.20505e-12 -6.41067

161.261 26.4844 -7.53175e-13
26.4844 28.0247 2.23939e-12
-7.53175e-13 2.23939e-12 -13.2635

-5.96128 29.9578 3.58528e-12
29.9578 -10.112 -4.51491e-13
3.58528e-12 -4.51491e-13 -7.27596

34.631 5.4831 -3.53021e-12
5.4831 -19.0945 -7.80783e-13
-3.53021e-12 -7.80783e-13 -4.12173

11.8603 -7.47756 -2.84424e-12
-7.47756 -48.287 3.21165e-12
-2.84424e-12 3.21165e-12 -8.94672

104.193 16.3084 8.66862e-13
16.3084 -8.44346 1.58155e-12
8.66862e-13 1.58155e-12 -22.4544

-34.6372 -13.4531 2.31711e-12
-13.4531 18.9658 -1.36602e-12
2.31711e-12 -1.36602e-12 -7.18022

-6.02585 27.833 2.4419e-12
27.833 -4.59142 1.69761e-12
2.4419e-12 1.69761e-12 -6.15882

-35.5515 -14.34 1.21658e-12
-14.34 7.84497 4.08562e-13
1.21658e-12 4.08562e-13 -9.13105

-23.6537 33.3114 -1.65793e-14
33.3114 -24.9942 3.11287e-12
-1.65793e-14 3.11287e-12 -21.3651

21.3107 0.560967 -3.44021e-12
0.560967 -32.3381 -1.84562e-12
-3.44021e-12 -1.84562e-12 -5.58928

-48.9595 -17.9692 2.67357e-12
-17.9692 6.34297 2.94017e-12
2.67357e-12 2.94017e-12 -12.9459

11.6601 -2.6652 3.25162e-12
-2.6652 -43.2484 -2.4809e-12
3.25162e-12 -2.4809e-12 -8.03317

-11.3495 26.6735 2.72819e-12
26.6735 19.5173 -6.27646e-13
2.72819e-12 -6.27646e-13 -6.08901

21.7655 -4.19554 -3.46982e-13
-4.19554 -35.2941 3.28611e-12
-3.46982e-13 3.28611e-12 -6.74084

-24.4788 8.66852 -1.97176e-13
8.66852 32.1274 -6.95148e-13
-1.97176e-13 -6.95148e-13 -4.93389

-11.8087 6.28771 -1.81887e-11
6.28771 -11.974 -4.95159e-13
-1.81887e-11 -4.95159e-13 -75.6215

22.7431 1.87597 -4.76004e-12
1.87597 -33.4684 -2.51458e-12
-4.76004e-12 -2.51458e-12 -6.67682

-12.3878 -27.715 -1.57208e-13
-27.715 1.59977 2.05998e-12
-1.57208e-13 2.05998e-12 -6.60232

21.3043 6.84934 -2.85993e-12
6.84934 -34.3035 -7.72049e-12
-2.85993e-12 -7.72049e-12 -6.80607

-37.9049 19.1128 2.24709e-13
19.1128 2.65397 1.6452e-12
2.24709e-13 1.6452e-12 -9.45731

106.602 4.18133 8.57388e-13
4.18133 20.6025 5.71099e-13
8.57388e-13 5.71099e-13 -12.0494

-5.30164 30.7457 2.77941e-12
30.7457 -7.27202 2.68467e-12
2.77941e-12 2.68467e-12 -7.44118

27.8899 37.074 9.46206e-13
37.074 26.4691 -1.23042e-12
9.46206e-13 -1.23042e-12 -8.63192

-9.4391 10.3235 3.08879e-12
10.3235 -32.9304 2.40008e-12
3.08879e-12 2.40008e-12 -49.5093

19.8306 14.2168 -5.88566e-13
14.2168 -29.3588 6.96036e-13
-5.88566e-13 6.96036e-13 -6.00055

-4.21001 -17.7802 -2.8777e-13
-17.7802 59.6572 -9.58048e-13
-2.8777e-13 -9.58048e-13 -8.47582

66.2825 -42.1013 -4.4551e-12
-42.1013 71.1376 2.78059e-12
-4.4551e-12 2.78059e-12 -11.2521

-48.2101 5.98679 -1.55439e-12
5.98679 7.2696 -6.13642e-12
-1.55439e-12 -6.13642e-12 -41.038

-26.2912 -4.84073 -1.3302e-12
-4.84073 1.75672 -1.69583e-12
-1.3302e-12 -1.69583e-12 -37.8029

-1.46677 21.0279 -2.98458e-12
21.0279 -39.5065 -6.00527e-12
-2.98458e-12 -6.00527e-12 -41.1038

-43.9761 5.06754 -3.55671e-12
5.06754 0.51423 4.47227e-12
-3.55671e-12 4.47227e-12 -52.1917

-2.76003 -9.16993 3.56633e-12
-9.16993 -20.7699 1.75108e-12
3.56633e-12 1.75108e-12 -35.8972

-3.97406 -27.998 -1.52648e-12
-27.998 -4.61043 -3.81917e-13
-1.52648e-12 -3.81917e-13 -5.99415

65.5963 41.5206 -3.50534e-12
41.5206 73.1653 -4.13773e-12
-3.50534e-12 -4.13773e-12 -10.9639

60.1546 -17.9489 -3.73745e-12
-17.9489 0.117175 5.18163e-12
-3.73745e-12 5.18163e-12 -8.04981

-41.8039 -3.7061 -4.2566e-12
-3.7061 -1.18565 4.93087e-13
-4.2566e-12 4.93087e-13 -52.7266

-14.594 19.5556 6.00964e-12
19.5556 -28.5517 -1.26684e-12
6.00964e-12 -1.26684e-12 -52.8347

18.1409 -12.2732 7.63833e-13
-12.2732 -29.8987 -8.80481e-13
7.63833e-13 -8.80481e-13 -6.22274

38.1728 -43.2986 -1.0066e-12
-43.2986 41.8007 -1.66859e-12
-1.0066e-12 -1.66859e-12 -14.5589

58.1433 -18.0632 -4.68958e-13
-18.0632 -2.3025 -9.91207e-13
-4.68958e-13 -9.91207e-13 -7.91339

-21.4415 17.0855 1.94333e-12
17.0855 30.327 -6.26462e-13
1.94333e-12 -6.26462e-13 -5.72794

-11.3724 19.3388 1.1496e-12
19.3388 25.5104 -2.13933e-12
1.1496e-12 -2.13933e-12 -3.92137

20.7911 -16.3009 1.94215e-12
-16.3009 -33.1139 -1.33967e-13
1.94215e-12 -1.33967e-13 -7.31131

12.6153 -34.185 2.64559e-12
-34.185 46.435 4.33431e-13
2.64559e-12 4.33431e-13 -10.3971

62.3594 19.1816 -2.79362e-12
19.1816 2.81042 -2.13281e-12
-2.79362e-12 -2.13281e-12 -8.41376

46.5131 -25.2881 1.98005e-12
-25.2881 5.13419 -3.36886e-12
1.98005e-12 -3.36886e-12 -5.60974

-31.8956 19.4858 2.01898e-12
19.4858 -4.28554 -5.06558e-13
2.01898e-12 -5.06558e-13 -26.0857

37.0388 29.6489 1.95399e-13
29.6489 14.5126 -1.76096e-12
1.95399e-13 -1.76096e-12 -5.43217

-27.45 -21.8128 3.22527e-12
-21.8128 -8.22827 1.10655e-12
3.22527e-12 1.10655e-12 -25.248

64.8679 -42.7107 -1.75267e-12
-42.7107 44.0796 -2.66335e-12
-1.75267e-12 -2.66335e-12 -9.50208

-27.7496 5.45974 -3.6704e-12
5.45974 2.66933 -4.18066e-12
-3.6704e-12 -4.18066e-12 -38.3085

-5.55751 -5.32971 -1.57296e-12
-5.32971 57.3874 2.63375e-12
-1.57296e-12 2.63375e-12 -5.44921

-0.200123 10.3842 4.27036e-12
10.3842 -24.8481 1.69577e-12
4.27036e-12 1.69577e-12 -38.3701

-26.4848 21.4128 2.43687e-12
21.4128 12.2195 -8.92915e-13
2.43687e-12 -8.92915e-13 -6.86927

4.72647 5.75386 5.4549e-13
5.75386 -56.04 -5.00785e-13
5.4549e-13 -5.00785e-13 -13.9806

0.539764 11.4589 1.897e-12
11.4589 -34.0565 -5.89158e-14
1.897e-12 -5.89158e-14 -14.8396

106.343 31.8195 2.224e-12
31.8195 37.8325 -7.02135e-12
2.224e-12 -7.02135e-12 -7.48971

-35.4916 -6.03512 4.41321e-12
-6.03512 10.6012 -1.35358e-12
4.41321e-12 -1.35358e-12 -13.4788

-35.3599 9.51969 1.68339e-12
9.51969 1.23361 1.53566e-12
1.68339e-12 1.53566e-12 -14.9599

-42.5874 -2.88077 -3.61274e-12
-2.88077 21.1109 4.24964e-12
-3.61274e-12 4.24964e-12 -11.2386

-44.9077 23.402 5.85369e-12
23.402 -5.89261 -3.73627e-12
5.85369e-12 -3.73627e-12 -13.9215

9.97104 8.46347 2.78799e-12
8.46347 -42.3776 -1.01682e-12
2.78799e-12 -1.01682e-12 -9.07753

-12.3341 -28.2391 4.12529e-12
-28.2391 1.68742 6.987e-13
4.12529e-12 6.987e-13 -6.67348

1.30886 -1.71122 4.59277e-12
-1.71122 -55.4561 1.47845e-12
4.59277e-12 1.47845e-12 -11.3037

-31.8851 -19.2618 -3.28315e-12
-19.2618 -4.59491 5.69322e-13
-3.28315e-12 5.69322e-13 -25.955

-27.9754 21.3078 1.88442e-12
21.3078 -8.35811 -5.6644e-13
1.88442e-12 -5.6644e-13 -26.0134

-0.651562 -16.5832 -4.32173e-12
-16.5832 61.673 1.75978e-12
-4.32173e-12 1.75978e-12 -7.94866

-0.65011 -27.936 4.45806e-12
-27.936 -21.3607 7.84854e-13
4.45806e-12 7.84854e-13 -12.7908

-14.0929 -25.1344 -2.62013e-13
-25.1344 7.40683 -3.57995e-12
-2.62013e-13 -3.57995e-12 -5.23558

91.6768 -31.7102 5.39776e-12
-31.7102 19.4846 -1.39148e-14
5.39776e-12 -1.39148e-14 -16.3332

-33.7059 3.2226 -3.46915e-12
3.2226 9.19932 -2.07064e-12
-3.46915e-12 -2.07064e-12 -18.5635

2.75226 28.9438 -3.20159e-12
28.9438 -24.4245 4.6807e-13
-3.20159e-12 4.6807e-13 -11.3162

-38.4331 19.6641 1.98419e-12
19.6641 5.22975 -4.38464e-13
1.98419e-12 -4.38464e-13 -9.23478

50.19 7.99942 -1.97531e-12
7.99942 -16.9633 -3.20396e-12
-1.97531e-12 -3.20396e-12 -7.06653

60.0308 -33.9351 -1.71004e-12
-33.9351 33.7866 -2.74033e-12
-1.71004e-12 -2.74033e-12 -6.98357

-18.9599 -10.5875 -8.88208e-12
-10.5875 -0.541772 -1.13924e-12
-8.88208e-12 -1.13924e-12 -25.4314

-33.9261 23.8995 -7.86926e-13
23.8995 -12.023 1.48281e-12
-7.86926e-13 1.48281e-12 -14.54

58.1556 -32.3833 -2.51058e-12
-32.3833 18.0913 -7.7686e-13
-2.51058e-12 -7.7686e-13 -10.1336

66.8589 10.7909 -1.97176e-12
10.7909 8.51331 -2.57735e-12
-1.97176e-12 -2.57735e-12 -5.08417

7.67412 -21.2057 -3.93197e-12
-21.2057 88.4635 -2.60295e-12
-3.93197e-12 -2.60295e-12 -11.8622

-33.9853 14.4255 3.9635e-13
14.4255 20.2383 1.66326e-12
3.9635e-13 1.66326e-12 -7.54602

8.47553 23.1428 4.39352e-12
23.1428 -26.0737 -1.67895e-12
4.39352e-12 -1.67895e-12 -11.2989

34.8684 42.1981 5.8975e-13
42.1981 46.1988 2.72612e-12
5.8975e-13 2.72612e-12 -14.4204

-4.39443 16.5071 -4.96692e-12
16.5071 -35.542 1.61888e-11
-4.96692e-12 1.61888e-11 -73.2881

-5.9796 -4.10829 -1.62744e-12
-4.10829 57.9479 7.34228e-12
-1.62744e-12 7.34228e-12 -5.4414

-1.8188 -16.6323 6.2362e-12
-16.6323 -39.4021 1.32232e-11
6.2362e-12 1.32232e-11 -74.1114

-3.32939 -27.3349 5.94428e-12
-27.3349 -30.0298 1.59591e-12
5.94428e-12 1.59591e-12 -21.5542

8.96717 27.4245 1.23871e-12
27.4245 -29.9946 3.66048e-12
1.23871e-12 3.66048e-12 -11.2569

45.7108 -24.4102 -2.39216e-12
-24.4102 5.02449 5.14492e-12
-2.39216e-12 5.14492e-12 -5.23582

10.0954 31.3228 -1.68991e-12
31.3228 47.1628 -3.77772e-12
-1.68991e-12 -3.77772e-12 -9.6401

14.2724 -10.705 1.79412e-13
-10.705 82.8379 -3.7114e-12
1.79412e-13 -3.7114e-12 -6.44688

-38.6329 21.9706 9.79513e-13
21.9706 2.94157 -3.58528e-13
9.79513e-13 -3.58528e-13 -8.56873

1.19267 16.794 1.31066e-12
16.794 -25.722 3.64627e-12
1.31066e-12 3.64627e-12 -18.5676

-26.5376 15.1537 1.10948e-12
15.1537 18.4493 -1.37016e-12
1.10948e-12 -1.37016e-12 -5.70765

43.6584 15.9536 2.45137e-12
15.9536 -7.28473 3.65633e-14
2.45137e-12 3.65633e-14 -4.07481

12.5771 -21.4722 9.29627e-14
-21.4722 57.955 -9.9476e-14
9.29627e-14 -9.9476e-14 -4.71378

65.9957 -29.3902 2.77112e-12
-29.3902 18.6435 2.65269e-12
2.77112e-12 2.65269e-12 -9.3351

-32.381 -24.5729 -3.59061e-12
-24.5729 -7.28158 1.76303e-12
-3.59061e-12 1.76303e-12 -8.97597

-22.6668 27.4508 -5.62513e-13
27.4508 -10.35 -2.29772e-12
-5.62513e-13 -2.29772e-12 -9.28357

-38.3511 23.1875 -8.36072e-13
23.1875 1.99108 -1.3974e-12
-8.36072e-13 -1.3974e-12 -8.52462

-51.5532 13.1692 -1.99076e-12
13.1692 11.927 6.31199e-13
-1.99076e-12 6.31199e-13 -16.4662

23.4846 9.37221 3.40705e-12
9.37221 -29.4874 3.0355e-12
3.40705e-12 3.0355e-12 -5.32114

3.76879 -4.665 -6.108e-12
-4.665 79.4372 1.8782e-12
-6.108e-12 1.8782e-12 -9.53122

-44.9399 -36.8333 -2.02416e-12
-36.8333 -19.8289 1.50805e-12
-2.02416e-12 1.50805e-12 -14.7705

-16.0793 27.465 -1.26358e-12
27.465 1.34114 -7.33635e-13
-1.26358e-12 -7.33635e-13 -6.91427

-5.01506 2.1703 5.4264e-12
2.1703 82.6725 -3.72088e-12
5.4264e-12 -3.72088e-12 -13.431

69.0447 34.6098 -4.9738e-13
34.6098 15.4966 -6.09172e-12
-4.9738e-13 -6.09172e-12 -10.7057

-31.3516 -22.9737 -1.50531e-12
-22.9737 -4.63238 -1.71863e-12
-1.50531e-12 -1.71863e-12 -8.52947

11.7429 5.73296 2.20801e-12
5.73296 -48.3358 3.80007e-12
2.20801e-12 3.80007e-12 -8.64102

43.0653 27.2036 -2.3069e-12
27.2036 10.4521 4.33846e-12
-2.3069e-12 4.33846e-12 -5.08055

-9.41483 12.7455 2.10661e-12
12.7455 -14.039 -3.27531e-12
2.10661e-12 -3.27531e-12 -37.0409

70.3338 24.3301 1.01371e-12
24.3301 23.8048 -8.68046e-13
1.01371e-12 -8.68046e-13 -6.79936

-10.586 -13.0551 -9.18969e-13
-13.0551 -13.9209 2.23051e-12
-9.18969e-13 2.23051e-12 -37.3787

-4.37927 0.778523 -3.0953e-13
0.778523 59.3974 3.59298e-12
-3.0953e-13 3.59298e-12 -4.83041

38.3566 -2.23528 2.72493e-12
-2.23528 -23.8102 9.72814e-13
2.72493e-12 9.72814e-13 -5.83197

3.59374 -15.768 6.02185e-13
-15.768 -53.9712 3.41623e-12
6.02185e-13 3.41623e-12 -21.1242

-42.2769 24.3881 2.30429e-12
24.3881 -11.7369 1.87213e-12
2.30429e-12 1.87213e-12 -11.1673

-46.8123 -13.535 -1.22184e-12
-13.535 11.0674 1.98774e-12
-1.22184e-12 1.98774e-12 -12.3537

5.81018 -8 1.70649e-12
-8 -70.9677 1.6945e-12
1.70649e-12 1.6945e-12 -14.8817

-49.5391 -22.2841 -6.69094e-13
-22.2841 3.74856 3.95239e-13
-6.69094e-13 3.95239e-13 -22.1042

-17.4593 -6.59646 -3.04497e-12
-6.59646 -13.1158 -3.74811e-13
-3.04497e-12 -3.74811e-13 -34.7817

-28.7296 -29.9081 -2.42828e-12
-29.9081 -9.39985 -9.68114e-14
-2.42828e-12 -9.68114e-14 -8.99576

15.6934 11.4535 1.48119e-12
11.4535 80.1794 -4.91696e-12
1.48119e-12 -4.91696e-12 -6.53054

42.2896 -28.146 3.5314e-12
-28.146 11.0509 -5.30479e-12
3.5314e-12 -5.30479e-12 -5.0438

-47.1705 -13.7722 7.32355e-12
-13.7722 4.19614 -8.12624e-12
7.32355e-12 -8.12624e-12 -29.3008

2.96487 0.504415 -6.67762e-13
0.504415 -56.8118 3.4334e-12
-6.67762e-13 3.4334e-12 -11.0049

-39.3364 -21.5245 2.2539e-12
-21.5245 -8.8573 -4.70202e-12
2.2539e-12 -4.70202e-12 -14.7741

-40.1949 25.6977 2.13089e-12
25.6977 -14.6915 2.12534e-13
2.13089e-12 2.12534e-13 -11.3106

32.2603 -31.4639 -1.58569e-12
-31.4639 38.4291 3.72916e-12
-1.58569e-12 3.72916e-12 -4.64796

-31.4688 -7.08508 1.77214e-12
-7.08508 1.70027 -1.38556e-12
1.77214e-12 -1.38556e-12 -40.993

36.6296 -33.0762 3.58587e-12
-33.0762 72.0265 -8.43177e-13
3.58587e-12 -8.43177e-13 -7.14465

16.6126 -19.1795 2.00314e-12
-19.1795 -25.8695 1.69583e-12
2.00314e-12 1.69583e-12 -7.133

1.50259 1.97025 1.88723e-12
1.97025 -51.3914 6.92779e-13
1.88723e-12 6.92779e-13 -15.3741

-12.8761 17.8751 -7.69725e-12
17.8751 -16.9549 2.58223e-12
-7.69725e-12 2.58223e-12 -41.0606

10.7132 20.1825 -2.16656e-12
20.1825 59.4535 -3.49705e-12
-2.16656e-12 -3.49705e-12 -4.35642

4.31844 27.2103 -2.21393e-12
27.2103 -16.2236 1.29792e-12
-2.21393e-12 1.29792e-12 -8.12399

30.9043 -24.5112 -2.52006e-12
-24.5112 -8.13201 2.02031e-12
-2.52006e-12 2.02031e-12 -4.87187

-37.7871 -17.8384 -4.42294e-13
-17.8384 2.40087 2.36966e-12
-4.42294e-13 2.36966e-12 -9.86416

55.5131 35.0676 1.86754e-12
35.0676 42.345 1.85096e-12
1.86754e-12 1.85096e-12 -6.63617

-40.0148 -21.831 -3.89525e-12
-21.831 2.53687 6.6495e-13
-3.89525e-12 6.6495e-13 -9.39367

2.96663 30.8502 5.8975e-13
30.8502 -17.388 6.82121e-13
5.8975e-13 6.82121e-13 -9.07798

18.5373 -25.2438 -4.6955e-13
-25.2438 -19.4175 1.9309e-12
-4.6955e-13 1.9309e-12 -6.34218

-15.6535 -25.1261 1.59073e-12
-25.1261 5.89566 4.10812e-12
1.59073e-12 4.10812e-12 -5.77521

42.7179 -18.6878 6.11067e-13
-18.6878 -9.16545 -6.70101e-12
6.11067e-13 -6.70101e-12 -5.3688

27.4318 -18.8493 -2.5769e-12
-18.8493 -20.368 1.94511e-12
-2.5769e-12 1.94511e-12 -5.68943

-41.3938 -25.3369 -2.88362e-13
-25.3369 -14.964 -4.97528e-12
-2.88362e-13 -4.97528e-12 -11.5668

29.7807 35.9687 -4.448e-12
35.9687 25.2269 2.64203e-12
-4.448e-12 2.64203e-12 -8.64404

-28.5179 15.3766 -1.88294e-13
15.3766 18.5188 1.28608e-12
-1.88294e-13 1.28608e-12 -5.87366

-23.1078 26.422 1.28875e-12
26.422 -12.5466 -7.56432e-13
1.28875e-12 -7.56432e-13 -9.95779

-42.0964 25.4736 -1.92812e-12
25.4736 -11.5925 4.10042e-14
-1.92812e-12 4.10042e-14 -10.9925

-37.2882 11.6214 3.68663e-13
11.6214 11.8441 1.93564e-12
3.68663e-13 1.93564e-12 -9.08023

64.3923 -8.22684 -1.52056e-12
-8.22684 3.19788 -3.55434e-12
-1.52056e-12 -3.55434e-12 -4.25054

8.73399 18.606 -6.53699e-13
18.606 59.2193 -2.06413e-12
-6.53699e-13 -2.06413e-12 -4.16202

-25.6143 -24.3803 -8.92323e-13
-24.3803 0.458474 8.94692e-13
-8.92323e-13 8.94692e-13 -7.21523

-1.14142 25.6655 -1.9155e-12
25.6655 13.7523 1.77813e-12
-1.9155e-12 1.77813e-12 -4.08232

32.3784 -35.6286 2.61717e-12
-35.6286 21.7 -4.33727e-12
2.61717e-12 -4.33727e-12 -8.48575

59.5355 38.3158 4.55932e-12
38.3158 17.8476 -4.72511e-13
4.55932e-12 -4.72511e-13 -13.7221

12.1252 -33.3103 -3.06777e-12
-33.3103 42.9129 1.85096e-12
-3.06777e-12 1.85096e-12 -9.54238

30.5511 -31.1589 1.86754e-12
-31.1589 36.8132 6.12251e-13
1.86754e-12 6.12251e-13 -4.40512

11.7688 -6.83865 -1.85985e-12
-6.83865 -48.8378 8.0469e-13
-1.85985e-12 8.0469e-13 -8.76986

25.2743 30.3411 1.83675e-12
30.3411 41.0886 -7.99361e-13
1.83675e-12 -7.99361e-13 -4.45562

62.6813 13.2944 -2.9831e-12
13.2944 5.22836 9.23706e-13
-2.9831e-12 9.23706e-13 -4.30513

-7.02539 13.3785 4.5793e-12
13.3785 61.3434 -2.60532e-12
4.5793e-12 -2.60532e-12 -8.69461

11.7297 -22.3399 -4.29997e-12
-22.3399 55.7625 -4.18036e-13
-4.29997e-12 -4.18036e-13 -4.30109

-47.2605 -1.09151 -1.52478e-12
-1.09151 12.4096 -2.84809e-13
-1.52478e-12 -2.84809e-13 -22.162

-5.91871 2.24656 1.62537e-13
2.24656 59.0037 6.13317e-12
1.62537e-13 6.13317e-12 -5.26212

6.26885 31.0886 -3.73568e-12
31.0886 47.8646 2.59348e-13
-3.73568e-12 2.59348e-13 -9.66017

-39.7252 12.1077 2.61957e-12
12.1077 12.8448 -6.39607e-12
2.61957e-12 -6.39607e-12 -9.3127

40.7379 -27.647 -5.17394e-12
-27.647 8.3577 -1.87346e-12
-5.17394e-12 -1.87346e-12 -5.64157

7.54004 20.5569 1.07884e-12
20.5569 -47.4668 2.95467e-13
1.07884e-12 2.95467e-13 -16.4816

-3.42107 26.2704 2.82085e-12
26.2704 -31.4866 -2.44545e-13
2.82085e-12 -2.44545e-13 -22.2525

15.7774 -18.5674 1.97176e-12
-18.5674 -30.0127 3.52903e-13
1.97176e-12 3.52903e-13 -8.1826

4.42872 -1.80113 -4.35207e-14
-1.80113 -34.133 -2.35871e-12
-4.35207e-14 -2.35871e-12 -24.4395

-14.3395 -31.8116 -1.82225e-12
-31.8116 -11.9302 3.76973e-12
-1.82225e-12 3.76973e-12 -9.04913

56.2176 23.3273 -3.41061e-12
23.3273 0.817068 1.24759e-12
-3.41061e-12 1.24759e-12 -8.28763

-27.828 30.162 -1.59872e-13
30.162 -9.2364 1.17358e-12
-1.59872e-13 1.17358e-12 -8.80001

-27.0035 29.2058 6.15804e-14
29.2058 -9.20177 4.83524e-12
6.15804e-14 4.83524e-12 -8.67729

28.6284 30.6602 -3.95417e-12
30.6602 40.4055 -5.44631e-12
-3.95417e-12 -5.44631e-12 -4.44864

0.3431 27.0849 -2.2086e-12
27.0849 -19.8456 -1.14101e-12
-2.2086e-12 -1.14101e-12 -11.7768

64.5072 3.52508 -6.96924e-12
3.52508 -11.8253 9.73074e-13
-6.96924e-12 9.73074e-13 -10.018

-14.8997 31.8172 -5.2669e-13
31.8172 -20.7987 1.37668e-13
-5.2669e-13 1.37668e-13 -12.4473

-37.9439 -12.5997 -1.67577e-12
-12.5997 8.18003 1.48444e-12
-1.67577e-12 1.48444e-12 -14.0226

-0.475037 24.2782 -5.1464e-12
24.2782 -29.999 -3.25488e-12
-5.1464e-12 -3.25488e-12 -20.7714

-23.7273 -29.5787 4.08592e-12
-29.5787 -11.9349 -1.95991e-13
4.08592e-12 -1.95991e-13 -8.84294

-38.148 -4.89808 3.59485e-12
-4.89808 18.8466 2.44545e-12
3.59485e-12 2.44545e-12 -11.7299

69.9438 -24.5558 -1.07055e-12
-24.5558 18.0288 2.55203e-12
-1.07055e-12 2.55203e-12 -7.04413

39.9818 29.6925 3.55508e-12
29.6925 13.4795 8.88178e-13
3.55508e-12 8.88178e-13 -5.21467

-4.29581 14.6962 2.7421e-12
14.6962 60.5707 6.80937e-13
2.7421e-12 6.80937e-13 -8.40054

1.61143 -1.13888 2.17707e-12
-1.13888 -56.1232 2.46358e-12
2.17707e-12 2.46358e-12 -11.2089

9.61413 0.0022305 -7.26234e-13
0.0022305 -44.7536 -5.13404e-13
-7.26234e-13 -5.13404e-13 -8.43754

-31.0785 23.1237 6.48962e-13
23.1237 -4.33707 2.56358e-12
6.48962e-13 2.56358e-12 -8.45799

-34.7625 23.8709 -1.24937e-13
23.8709 -13.1924 3.07387e-12
-1.24937e-13 3.07387e-12 -14.8129

-43.3786 -24.3807 3.02595e-12
-24.3807 -12.6139 1.67126e-13
3.02595e-12 1.67126e-13 -11.4683

-39.0589 -0.672742 2.34433e-12
-0.672742 21.0464 -8.32519e-13
2.34433e-12 -8.32519e-13 -10.4952

-40.8066 25.5903 -2.93691e-13
25.5903 -13.2224 2.14125e-13
-2.93691e-13 2.14125e-13 -11.172

32.3215 -10.3078 -2.50585e-12
-10.3078 -25.1531 2.3741e-12
-2.50585e-12 2.3741e-12 -6.01379

8.70683 -32.8329 -2.03867e-12
-32.8329 22.7976 -2.88007e-12
-2.03867e-12 -2.88007e-12 -6.99163

2.39685 -2.30067 1.83054e-12
-2.30067 -49.9606 -2.70302e-13
1.83054e-12 -2.70302e-13 -14.7725

36.7454 -34.5077 -1.65793e-12
-34.5077 24.4796 -1.15463e-12
-1.65793e-12 -1.15463e-12 -7.70883

-38.2938 19.0861 2.83033e-13
19.0861 -7.09368 -6.29126e-13
2.83033e-13 -6.29126e-13 -14.4493

7.87075 -26.4787 6.03961e-13
-26.4787 -27.9943 4.44237e-12
6.03961e-13 4.44237e-12 -10.9688

63.9468 -9.69011 -4.68958e-12
-9.69011 5.67766 9.41469e-14
-4.68958e-12 9.41469e-14 -5.07202

6.04083 -23.1919 7.09062e-12
-23.1919 -35.4681 6.52515e-13
7.09062e-12 6.52515e-13 -17.736

0.14136 2.35826 -1.91417e-12
2.35826 -56.174 -2.06124e-12
-1.91417e-12 -2.06124e-12 -11.5458

-4.06203 -23.3214 5.00518e-12
-23.3214 -23.4116 1.74557e-12
5.00518e-12 1.74557e-12 -16.7199

11.0388 -25.8594 2.99612e-13
-25.8594 -29.4856 9.61897e-13
2.99612e-13 9.61897e-13 -9.73335

10.2014 -8.54606 -1.33848e-12
-8.54606 -43.4897 9.49907e-13
-1.33848e-12 9.49907e-13 -9.28108

-35.4182 -23.0681 3.15599e-12
-23.0681 -12.6458 1.48459e-12
3.15599e-12 1.48459e-12 -15.1029

23.6643 -31.3415 -1.39503e-12
-31.3415 5.7126 2.75572e-12
-1.39503e-12 2.75572e-12 -5.87786

11.0599 -24.5871 6.28238e-13
-24.5871 -27.4944 2.7874e-12
6.28238e-13 2.7874e-12 -10.0479

46.6427 10.8643 1.93268e-12
10.8643 -16.1168 1.75711e-12
1.93268e-12 1.75711e-12 -6.7995

-14.1861 26.3402 -1.61352e-12
26.3402 -15.6397 -1.00808e-12
-1.61352e-12 -1.00808e-12 -14.1188

-45.2518 -37.613 1.36187e-13
-37.613 -20.6124 -4.10975e-12
1.36187e-13 -4.10975e-12 -14.9189

-43.7086 37.2653 -4.63629e-13
37.2653 -21.2662 1.94963e-12
-4.63629e-13 1.94963e-12 -14.7693

-61.1852 -28.5734 -2.72142e-12
-28.5734 -7.49704 -8.8729e-13
-2.72142e-12 -8.8729e-13 -15.1994

-58.4161 27.0642 1.50184e-12
27.0642 -6.27167 -3.52222e-12
1.50184e-12 -3.52222e-12 -14.478

5.60066 -8.52765 1.82387e-12
-8.52765 -71.0641 -6.5888e-13
1.82387e-12 -6.5888e-13 -14.7096

4.39739 9.27366 -1.40821e-12
9.27366 -68.8328 2.72449e-12
-1.40821e-12 2.72449e-12 -14.4375

9.02397 -9.84612 -4.86722e-13
-9.84612 -40.8898 -1.92735e-13
-4.86722e-13 -1.92735e-13 -9.61157

-24.3355 32.1162 2.07242e-14
32.1162 -24.8101 2.93105e-12
2.07242e-14 2.93105e-12 -21.1453

-25.5229 -32.8543 2.83418e-12
-32.8543 -25.0961 2.16068e-13
2.83418e-12 2.16068e-13 -21.4695

-53.92 16.0685 1.00364e-12
16.0685 3.40181 -1.28223e-12
1.00364e-12 -1.28223e-12 -21.4029

-52.4209 -15.801 3.26731e-12
-15.801 3.29713 9.52127e-13
3.26731e-12 9.52127e-13 -21.0762

6.11229 -3.74758 1.99189e-12
-3.74758 -43.9253 -4.55043e-12
1.99189e-12 -4.55043e-12 -25.7652

6.91845 3.61035 5.75244e-13
3.61035 -46.3488 2.64973e-13
5.75244e-13 2.64973e-13 -26.1416

-15.6255 9.83677 -6.00838e-12
9.83677 46.2623 5.69618e-13
-6.00838e-12 5.69618e-13 -5.84766

-22.9185 -24.774 -1.8859e-13
-24.774 -14.5522 4.89046e-12
-1.8859e-13 4.89046e-12 -10.3296

-56.6037 -36.3876 2.44493e-12
-36.3876 -14.5327 2.58475e-12
2.44493e-12 2.58475e-12 -13.437

33.3582 -4.66426 -2.62546e-12
-4.66426 -19.8467 4.09587e-12
-2.62546e-12 4.09587e-12 -3.94478

3.43342 -16.6948 3.56382e-12
-16.6948 -52.6289 -2.20446e-12
3.56382e-12 -2.20446e-12 -21.5328

3.67456 16.1757 2.7763e-12
16.1757 -51.8846 1.58392e-13
2.7763e-12 1.58392e-13 -21.406

6.55576 0.121882 -2.00284e-13
0.121882 -76.755 -3.71718e-12
-2.00284e-13 -3.71718e-12 -13.3038

-7.56929 23.375 3.53584e-12
23.375 39.9355 3.79667e-12
3.53584e-12 3.79667e-12 -6.88495

-56.8894 36.1716 2.62249e-12
36.1716 -14.0113 4.64073e-13
2.62249e-12 4.64073e-13 -13.3886

-39.7946 -23.3957 5.23433e-13
-23.3957 2.56157 6.31613e-12
5.23433e-13 6.31613e-12 -8.80064

37.1166 23.3525 -1.45306e-12
23.3525 -8.61283 5.16032e-12
-1.45306e-12 5.16032e-12 -5.7583

4.73536 23.8582 3.88016e-12
23.8582 -38.2259 1.17358e-12
3.88016e-12 1.17358e-12 -18.9858

24.0134 -31.3133 -3.86772e-12
-31.3133 6.40847 -5.55112e-12
-3.86772e-12 -5.55112e-12 -5.64784

2.4308 -3.23092 7.61169e-13
-3.23092 -48.3698 1.49125e-12
7.61169e-13 1.49125e-12 -14.7425

-60.4579 -34.161 3.2323e-12
-34.161 -14.3498 3.64153e-14
3.2323e-12 3.64153e-14 -14.0307

-17.4523 8.31989 -2.46327e-12
8.31989 45.6916 1.7207e-12
-2.46327e-12 1.7207e-12 -5.7807

-9.46853 21.8114 2.79658e-12
21.8114 40.4249 4.37339e-12
2.79658e-12 4.37339e-12 -6.65344

58.6033 35.7755 -2.14584e-12
35.7755 37.0879 1.87939e-12
-2.14584e-12 1.87939e-12 -6.91576

70.4836 1.57874 -2.97717e-12
1.57874 -5.54272 4.89238e-14
-2.97717e-12 4.89238e-14 -10.3738

-30.7595 -22.8045 -2.84632e-12
-22.8045 -13.3563 3.76088e-13
-2.84632e-12 3.76088e-13 -14.4659

32.8412 31.1836 5.96856e-13
31.1836 69.7939 -8.36072e-13
5.96856e-13 -8.36072e-13 -6.67926

-19.3763 23.6098 7.6709e-13
23.6098 7.68694 5.26986e-13
7.6709e-13 5.26986e-13 -5.51297

47.6368 -5.3495 -1.157e-12
-5.3495 -17.4329 -2.70702e-12
-1.157e-12 -2.70702e-12 -6.82144

33.2194 11.216 -1.54365e-12
11.216 -23.6365 -1.75001e-12
-1.54365e-12 -1.75001e-12 -6.01355

6.25428 0.429905 -2.70746e-13
0.429905 -77.5523 5.28001e-13
-2.70746e-13 5.28001e-13 -13.4495

-58.9359 -29.0311 7.64574e-13
-29.0311 -6.28808 -3.90947e-12
7.64574e-13 -3.90947e-12 -14.6969

-28.332 -6.31898 -3.888e-13
-6.31898 -11.3585 -5.15558e-12
-3.888e-13 -5.15558e-12 -51.5897

-44.6982 37.4116 1.56408e-12
37.4116 -20.8115 1.51024e-12
1.56408e-12 1.51024e-12 -14.7734

93.7899 1.66327 6.60805e-13
1.66327 16.6554 -8.61607e-13
6.60805e-13 -8.61607e-13 -6.04299

10.0366 -32.7866 -2.73973e-12
-32.7866 21.3109 5.45934e-12
-2.73973e-12 5.45934e-12 -6.80789

-56.9362 36.6131 1.55076e-12
36.6131 -14.5712 5.83237e-14
1.55076e-12 5.83237e-14 -13.5048

-35.0788 -11.1338 -3.32567e-12
-11.1338 19.1771 5.04485e-13
-3.32567e-12 5.04485e-13 -8.31617

-5.47723 -25.5143 -2.60325e-12
-25.5143 37.3501 3.53495e-12
-2.60325e-12 3.53495e-12 -6.98672

-58.4524 28.8301 1.32431e-12
28.8301 -6.27146 9.06238e-13
1.32431e-12 9.06238e-13 -14.614

28.4958 -26.1416 -1.67984e-12
-26.1416 -4.91229 9.40877e-13
-1.67984e-12 9.40877e-13 -4.6969

-21.1706 10.4834 8.89363e-13
10.4834 -18.559 -3.23541e-12
8.89363e-13 -3.23541e-12 -51.6852

3.43305 30.8717 4.58241e-12
30.8717 27.1625 2.63848e-12
4.58241e-12 2.63848e-12 -6.73267

6.1406 8.12674 1.52234e-12
8.12674 -72.2979 2.44545e-12
1.52234e-12 2.44545e-12 -14.9841

-11.5456 30.1906 -1.76599e-12
30.1906 -20.6032 -7.34524e-13
-1.76599e-12 -7.34524e-13 -11.549

-30.7974 23.3318 -3.05267e-12
23.3318 -5.09965 2.92359e-12
-3.05267e-12 2.92359e-12 -8.46404

-25.8637 -32.4889 -2.12867e-13
-32.4889 -24.1128 7.18758e-13
-2.12867e-13 7.18758e-13 -21.5589

9.2055 -23.1901 3.74219e-13
-23.1901 -27.9221 3.48758e-13
3.74219e-13 3.48758e-13 -11.4255

-37.6608 10.4707 -5.25683e-12
10.4707 8.92891 3.85943e-12
-5.25683e-12 3.85943e-12 -25.3312

-23.0403 -23.4337 3.78423e-12
-23.4337 4.9525 -1.42109e-13
3.78423e-12 -1.42109e-13 -6.26268

88.8027 -9.7077 1.12029e-12
-9.7077 10.8073 -1.70952e-12
1.12029e-12 -1.70952e-12 -10.0308

84.0429 -14.2771 -3.46034e-12
-14.2771 2.81278 -4.43438e-12
-3.46034e-12 -4.43438e-12 -13.1967

5.88804 16.5294 -4.6357e-12
16.5294 -33.9324 -4.69136e-12
-4.6357e-12 -4.69136e-12 -22.3761

-16.4211 22.5015 -2.83714e-12
22.5015 16.228 -3.23652e-12
-2.83714e-12 -3.23652e-12 -5.08497

-3.91226 29.163 2.1565e-12
29.163 -12.2296 -5.0034e-14
2.1565e-12 -5.0034e-14 -8.39602

50.9924 0.688665 -3.62258e-12
0.688665 -6.53152 1.42006e-12
-3.62258e-12 1.42006e-12 -3.63412

-48.141 6.57121 1.78203e-12
6.57121 14.7862 -1.97945e-12
1.78203e-12 -1.97945e-12 -18.9524

10.1157 16.5408 5.49131e-12
16.5408 -36.0795 -1.435e-12
5.49131e-12 -1.435e-12 -9.13525

-4.50343 -25.7608 -3.42896e-12
-25.7608 35.5553 1.6532e-12
-3.42896e-12 1.6532e-12 -6.74668

-39.191 -2.57242 2.36799e-12
-2.57242 21.5042 5.8679e-13
2.36799e-12 5.8679e-13 -10.6692

-7.99036 13.365 2.224e-12
13.365 44.4051 5.70803e-13
2.224e-12 5.70803e-13 -3.944

3.73472 -29.7131 -1.19904e-12
-29.7131 -17.3645 -5.38828e-14
-1.19904e-12 -5.38828e-14 -8.92029

21.4259 -29.9471 4.12115e-12
-29.9471 14.7561 -2.14939e-12
4.12115e-12 -2.14939e-12 -3.91757

6.88108 31.6225 -1.65201e-12
31.6225 25.4016 4.73221e-12
-1.65201e-12 4.73221e-12 -6.82783

2.78561 -15.0202 -7.64189e-12
-15.0202 -39.2675 -4.34475e-12
-7.64189e-12 -4.34475e-12 -63.3121

-46.1597 2.04127 -1.17484e-12
2.04127 11.4615 -1.51464e-12
-1.17484e-12 -1.51464e-12 -22.7568

-55.4449 20.3001 -7.4681e-13
20.3001 3.09584 -5.38236e-13
-7.4681e-13 -5.38236e-13 -22.916

5.91687 15.4391 3.11188e-12
15.4391 -58.8188 -3.21817e-13
3.11188e-12 -3.21817e-13 -23.036

-18.9214 -26.1886 3.32149e-12
-26.1886 -12.9133 2.05939e-12
3.32149e-12 2.05939e-12 -9.65237

41.3458 17.9571 -5.81461e-13
17.9571 -6.27072 -2.51147e-12
-5.81461e-13 -2.51147e-12 -3.8611

-44.6827 -5.29411 1.28738e-12
-5.29411 4.53832 -4.44e-12
1.28738e-12 -4.44e-12 -39.1453

7.49926 -18.9882 -3.29633e-12
-18.9882 -39.8942 2.27966e-14
-3.29633e-12 2.27966e-14 -11.6597

30.2908 -15.5987 3.99029e-12
-15.5987 -20.5081 3.66196e-12
3.99029e-12 3.66196e-12 -4.80468

-9.63808 11.6031 1.01548e-12
11.6031 44.3189 1.06345e-12
1.01548e-12 1.06345e-12 -3.85876

8.33408 -25.7339 4.50958e-12
-25.7339 32.9917 4.20641e-12
4.50958e-12 4.20641e-12 -3.63272

-10.2447 -25.2738 7.9717e-12
-25.2738 -19.1001 7.28306e-13
7.9717e-12 7.28306e-13 -23.1748

17.0051 31.9591 6.39725e-12
31.9591 11.1973 -1.80833e-12
6.39725e-12 -1.80833e-12 -5.746

-1.06928 -25.1347 2.65269e-12
-25.1347 -30.7627 -4.49626e-12
2.65269e-12 -4.49626e-12 -20.8916

48.0647 2.59734 5.30302e-12
2.59734 -8.40938 -3.23238e-12
5.30302e-12 -3.23238e-12 -3.53128

6.55266 -28.9302 8.23045e-14
-28.9302 72.0497 -8.28967e-14
8.23045e-14 -8.28967e-14 -14.5513

21.7915 -29.2306 1.74438e-12
-29.2306 13.9636 4.52379e-12
1.74438e-12 4.52379e-12 -3.92995

35.351 32.1586 2.32703e-12
32.1586 74.1336 -9.07126e-13
2.32703e-12 -9.07126e-13 -5.44157

-45.2831 -11.8769 3.6392e-12
-11.8769 13.9222 2.33887e-12
3.6392e-12 2.33887e-12 -15.3262

-14.4201 -13.8212 -7.16612e-13
-13.8212 43.382 1.51701e-12
-7.16612e-13 1.51701e-12 -5.67231

-19.2436 -23.9882 -2.60754e-12
-23.9882 -19.8305 9.54999e-12
-2.60754e-12 9.54999e-12 -64.2539

2.43847 23.7705 3.76055e-12
23.7705 36.0065 1.81307e-12
3.76055e-12 1.81307e-12 -3.71073

-15.1823 -32.7263 -3.32771e-12
-32.7263 -21.1189 -2.50111e-12
-3.32771e-12 -2.50111e-12 -14.3127

-14.5647 -11.963 1.388e-12
-11.963 45.5302 2.30453e-12
1.388e-12 2.30453e-12 -5.73851

7.83562 -19.1169 -3.07902e-14
-19.1169 -43.1218 2.27078e-13
-3.07902e-14 2.27078e-13 -12.6318

6.54583 23.8768 3.11158e-12
23.8768 35.1711 4.38879e-12
3.11158e-12 4.38879e-12 -3.4417

23.1733 -4.97546 -1.81307e-12
-4.97546 -30.6758 -4.00828e-13
-1.81307e-12 -4.00828e-13 -5.3639

36.9699 -30.3424 3.31587e-14
-30.3424 122.626 -6.47068e-12
3.31587e-14 -6.47068e-12 -6.24189

-26.8689 21.0139 -2.29861e-12
21.0139 8.43429 3.34133e-12
-2.29861e-12 3.34133e-12 -7.12953

40.3381 -19.323 1.03029e-13
-19.323 -11.372 4.19724e-12
1.03029e-13 4.19724e-12 -5.72553

6.5286 -21.4459 -6.99796e-12
-21.4459 -45.5582 1.80892e-13
-6.99796e-12 1.80892e-13 -24.9719

20.7051 31.7536 2.59348e-12
31.7536 9.55764 2.8321e-12
2.59348e-12 2.8321e-12 -5.80557

13.9189 -29.9714 2.63671e-12
-29.9714 -7.60537 -2.93987e-13
2.63671e-12 -2.93987e-13 -5.9438

6.75484 20.8852 1.93564e-12
20.8852 -27.7919 5.58368e-12
1.93564e-12 5.58368e-12 -11.1085

-38.274 -28.0758 1.803e-12
-28.0758 -14.0377 -9.89505e-13
1.803e-12 -9.89505e-13 -11.0606

8.64651 -26.2249 -3.41534e-12
-26.2249 31.1707 -8.59757e-13
-3.41534e-12 -8.59757e-13 -3.63474

15.3315 28.9807 3.03757e-13
28.9807 19.1538 7.80294e-12
3.03757e-13 7.80294e-12 -3.88251

28.6402 26.191 -1.07055e-12
26.191 -5.6329 -1.22628e-12
-1.07055e-12 -1.22628e-12 -4.80149

7.91481 -14.6099 7.15576e-13
-14.6099 -36.8774 1.32812e-12
7.15576e-13 1.32812e-12 -13.991

-6.84102 -16.6174 2.09314e-13
-16.6174 41.3406 3.47811e-12
2.09314e-13 3.47811e-12 -3.95894

17.4406 -17.5682 1.65853e-12
-17.5682 -30.9988 1.77636e-13
1.65853e-12 1.77636e-13 -7.10475

19.8419 16.9083 9.42061e-13
16.9083 -31.6639 1.16263e-12
9.42061e-13 1.16263e-12 -7.33398

-33.6794 -9.38687 -1.40873e-12
-9.38687 8.75599 4.74287e-13
-1.40873e-12 4.74287e-13 -23.9928

43.4311 -13.4299 -6.2883e-13
-13.4299 -8.36834 3.43488e-12
-6.2883e-13 3.43488e-12 -3.80369

-19.3779 0.594013 5.62957e-13
0.594013 43.145 -2.02386e-12
5.62957e-13 -2.02386e-12 -4.77495

28.0558 18.5548 -2.13222e-12
18.5548 -18.1984 3.19152e-12
-2.13222e-12 3.19152e-12 -4.74918

25.5283 27.6036 -6.57726e-12
27.6036 -3.77522 -2.69414e-14
-6.57726e-12 -2.69414e-14 -4.77064

-6.71482 -15.6859 -2.51088e-12
-15.6859 43.7982 -2.47506e-13
-2.51088e-12 -2.47506e-13 -3.84748

-19.906 -1.20229 1.05412e-12
-1.20229 42.1275 -6.07632e-12
1.05412e-12 -6.07632e-12 -4.68651

-5.4732 29.1343 5.15143e-14
29.1343 -23.6464 -3.58824e-12
5.15143e-14 -3.58824e-12 -16.7967

-37.2733 -10.922 4.08266e-13
-10.922 21.6799 4.02641e-13
4.08266e-13 4.02641e-13 -7.82954

27.1432 -26.715 -1.69761e-12
-26.715 -5.53035 -7.18596e-12
-1.69761e-12 -7.18596e-12 -4.94369

40.7188 21.3323 3.69364e-12
21.3323 -8.36965 1.72366e-12
3.69364e-12 1.72366e-12 -5.46704

12.378 23.6652 -6.44818e-13
23.6652 -27.1267 1.64165e-12
-6.44818e-13 1.64165e-12 -8.66654

-37.7961 5.47072 -1.55431e-15
5.47072 23.3113 1.50813e-12
-1.55431e-15 1.50813e-12 -8.59698

18.5931 29.0652 3.65041e-12
29.0652 17.3778 5.37822e-12
3.65041e-12 5.37822e-12 -3.9466

-9.98913 22.9638 1.75978e-12
22.9638 -14.9128 -2.44945e-12
1.75978e-12 -2.44945e-12 -24.0261

68.3158 -59.6912 -8.07887e-12
-59.6912 36.3348 -5.32433e-12
-8.07887e-12 -5.32433e-12 -23.0107

17.5309 -25.0475 3.46745e-12
-25.0475 -17.9916 1.03502e-12
3.46745e-12 1.03502e-12 -6.41716

10.0585 7.06982 2.7122e-12
7.06982 82.5498 1.71714e-12
2.7122e-12 1.71714e-12 -7.16505

11.9204 -28.889 3.96128e-13
-28.889 -3.88126 -3.40113e-12
3.96128e-13 -3.40113e-12 -5.16527

-66.9449 -52.7009 -1.80123e-12
-52.7009 143.249 -5.68434e-14
-1.80123e-12 -5.68434e-14 -49.6694

-68.3882 51.4516 -8.50283e-13
51.4516 142.536 -2.77585e-12
-8.50283e-13 -2.77585e-12 -49.8585

19.5691 117.154 -2.88717e-12
117.154 64.1284 1.80952e-12
-2.88717e-12 1.80952e-12 -48.36

20.528 -117.097 2.72612e-12
-117.097 61.0253 -2.31163e-12
2.72612e-12 -2.31163e-12 -48.7247

157.742 -1.36336 -2.23584e-12
-1.36336 -79.1871 5.42332e-14
-2.23584e-12 5.42332e-14 -48.9117

110.325 -91.1254 -9.04758e-13
-91.1254 -36.6901 2.71664e-12
-9.04758e-13 2.71664e-12 -50.3062

110.378 91.6532 2.41111e-12
91.6532 -36.5004 -8.43177e-13
2.41111e-12 -8.43177e-13 -50.1791

7.84708 14.3302 -1.82106e-12
14.3302 -42.6814 5.84214e-12
-1.82106e-12 5.84214e-12 -15.0789

-11.791 25.5366 -1.80981e-12
25.5366 -27.4047 -4.23217e-13
-1.80981e-12 -4.23217e-13 -35.1382

12.4381 6.60599 6.97457e-12
6.60599 -40.5333 3.47929e-12
6.97457e-12 3.47929e-12 -8.25198

26.2547 21.7844 9.92983e-13
21.7844 -19.5281 -1.68813e-12
9.92983e-13 -1.68813e-12 -5.85034

-21.2295 17.7443 -2.46514e-12
17.7443 29.8683 -1.23812e-12
-2.46514e-12 -1.23812e-12 -6.16182

22.5303 28.8982 -6.1231e-12
28.8982 -0.775158 -2.63493e-13
-6.1231e-12 -2.63493e-13 -4.73027

4.05564 -29.6633 -3.31113e-12
-29.6633 -17.4661 -2.33384e-12
-3.31113e-12 -2.33384e-12 -8.504

25.9952 28.0275 -1.59754e-12
28.0275 -2.30134 3.52488e-12
-1.59754e-12 3.52488e-12 -4.73067

-19.3465 -2.84122 2.71072e-12
-2.84122 43.071 -2.40045e-12
2.71072e-12 -2.40045e-12 -4.76949

-13.4116 -26.0974 1.25677e-12
-26.0974 -25.8384 2.46484e-12
1.25677e-12 2.46484e-12 -35.5213

-19.8416 -4.86234 -1.12621e-12
-4.86234 41.7761 -2.98073e-12
-1.12621e-12 -2.98073e-12 -4.74335

-1.82683 23.0161 2.46914e-12
23.0161 -24.377 -1.04065e-13
2.46914e-12 -1.04065e-13 -16.1498

44.9823 26.8704 3.14415e-12
26.8704 8.11164 3.90266e-12
3.14415e-12 3.90266e-12 -5.36871

-52.5089 -13.2161 1.41709e-12
-13.2161 0.150431 3.26554e-13
1.41709e-12 3.26554e-13 -20.6173

20.2805 13.7278 2.12926e-12
13.7278 -31.141 3.17731e-12
2.12926e-12 3.17731e-12 -7.04249

13.7008 -29.9874 -5.14433e-12
-29.9874 -6.69111 9.14824e-14
-5.14433e-12 9.14824e-14 -5.83473

29.6307 -24.7133 9.31995e-13
-24.7133 -7.87333 -3.12964e-12
9.31995e-13 -3.12964e-12 -4.82465

5.76487 -16.0746 5.17157e-12
-16.0746 -32.3342 -4.38079e-12
5.17157e-12 -4.38079e-12 -22.2556

12.6277 27.9287 -6.03961e-13
27.9287 -13.6384 1.57711e-12
-6.03961e-13 1.57711e-12 -6.41915

23.309 23.9773 1.94215e-12
23.9773 -17.9428 8.03801e-13
1.94215e-12 8.03801e-13 -5.96187

-31.0764 -2.79294 9.94131e-13
-2.79294 30.1316 -1.03029e-12
9.94131e-13 -1.03029e-12 -6.39802

-28.6288 5.87332 5.76306e-13
5.87332 33.3213 6.00409e-13
5.76306e-13 6.00409e-13 -6.05883

34.5484 2.64669 3.73035e-14
2.64669 -26.1828 -1.0277e-12
3.73035e-14 -1.0277e-12 -6.14157

50.651 -7.28959 -1.05279e-12
-7.28959 -14.0813 3.65737e-12
-1.05279e-12 3.65737e-12 -6.77823

11.0412 30.4845 6.90411e-13
30.4845 -4.78729 3.57285e-12
6.90411e-13 3.57285e-12 -5.96568

17.4675 -26.1552 -2.59763e-12
-26.1552 -17.4546 -1.90248e-12
-2.59763e-12 -1.90248e-12 -6.35127

-0.0844683 -21.2543 -7.964e-13
-21.2543 -27.9558 -6.43574e-12
-7.964e-13 -6.43574e-12 -17.1664

4.93919 -31.6334 4.31063e-12
-31.6334 4.86163 -2.61421e-12
4.31063e-12 -2.61421e-12 -5.93452

-8.22677 -27.7853 -7.92847e-13
-27.7853 18.5789 2.14229e-12
-7.92847e-13 2.14229e-12 -6.12913

-1.64999 29.8869 -1.82787e-12
29.8869 10.4475 -2.78651e-12
-1.82787e-12 -2.78651e-12 -5.79956

-26.016 -9.57785 3.9635e-14
-9.57785 32.9697 7.79821e-13
3.9635e-14 7.79821e-13 -5.7865

-31.3223 -1.54477 -1.60005e-12
-1.54477 31.6507 3.07902e-12
-1.60005e-12 3.07902e-12 -6.22284

-38.915 5.74794 3.15638e-12
5.74794 23.9465 2.50407e-12
3.15638e-12 2.50407e-12 -9.18239

-17.2176 -21.0889 1.89863e-12
-21.0889 26.571 3.37745e-12
1.89863e-12 3.37745e-12 -5.77121

13.0719 24.1111 -3.31587e-14
24.1111 -28.1008 1.12029e-12
-3.31587e-14 1.12029e-12 -9.20427

21.555 -9.5897 -6.94556e-13
-9.5897 -31.7059 2.34746e-12
-6.94556e-13 2.34746e-12 -6.59732

-27.1529 7.46523 5.81683e-12
7.46523 34.3345 2.46854e-12
5.81683e-12 2.46854e-12 -5.87323

-35.2352 -9.70107 2.66077e-12
-9.70107 22.3135 7.09359e-13
2.66077e-12 7.09359e-13 -8.18282

-29.1551 -16.3306 -2.58889e-12
-16.3306 19.3468 -3.82923e-12
-2.58889e-12 -3.82923e-12 -6.66099

36.9677 -8.23915 2.65032e-12
-8.23915 -20.2362 1.64313e-13
2.65032e-12 1.64313e-13 -5.10074

-14.8096 -32.3468 -2.32111e-12
-32.3468 -21.6274 3.84344e-12
-2.32111e-12 3.84344e-12 -12.9926

-22.8236 9.3208 -3.20529e-12
9.3208 33.3233 1.90189e-12
-3.20529e-12 1.90189e-12 -4.78807

-0.750965 -18.2126 -5.88389e-12
-18.2126 -35.1576 2.54004e-12
-5.88389e-12 2.54004e-12 -33.2778

4.93227 24.8226 5.37348e-12
24.8226 75.3063 2.06057e-12
5.37348e-12 2.06057e-12 -14.3188

-14.1417 -26.6261 -4.74672e-12
-26.6261 -16.3499 9.64414e-13
-4.74672e-12 9.64414e-13 -14.6404

-6.35704 -30.2028 2.50585e-12
-30.2028 -23.6021 -5.59168e-12
2.50585e-12 -5.59168e-12 -17.0876

-31.2702 -0.701292 2.36944e-12
-0.701292 31.5004 3.61548e-12
2.36944e-12 3.61548e-12 -6.34771

28.4876 -16.6225 2.14347e-12
-16.6225 -18.0565 3.39018e-12
2.14347e-12 3.39018e-12 -4.43728

-37.8045 12.8416 -5.28227e-12
12.8416 11.1651 -2.65506e-12
-5.28227e-12 -2.65506e-12 -10.9885

-8.86113 -3.18052 -5.04271e-12
-3.18052 111.051 -3.67114e-12
-5.04271e-12 -3.67114e-12 -22.6716

-31.602 14.2736 -4.90156e-12
14.2736 21.3504 -9.10679e-13
-4.90156e-12 -9.10679e-13 -7.1237

12.422 -29.4891 -9.00021e-14
-29.4891 -2.51933 1.51168e-12
-9.00021e-14 1.51168e-12 -4.9275

33.6319 25.1056 4.5155e-12
25.1056 124.029 -8.97415e-12
4.5155e-12 -8.97415e-12 -6.21423

-13.5027 26.098 2.49401e-12
26.098 -19.0973 1.26172e-11
2.49401e-12 1.26172e-11 -58.8959

-9.55277 -27.8074 -6.28993e-12
-27.8074 -22.8069 1.4055e-11
-6.28993e-12 1.4055e-11 -59.5463

-2.86563 -30.419 -2.46144e-12
-30.419 -7.32096 -1.92202e-12
-2.46144e-12 -1.92202e-12 -7.28665

3.86047 -31.1601 -1.59221e-12
-31.1601 5.63582 -2.94579e-12
-1.59221e-12 -2.94579e-12 -6.06174

25.152 20.8274 4.77129e-12
20.8274 -17.034 1.15138e-12
4.77129e-12 1.15138e-12 -4.97618

31.8051 15.006 -6.75608e-13
15.006 -23.3005 -4.50336e-12
-6.75608e-13 -4.50336e-12 -5.95403

-9.48878 3.08355 5.79914e-12
3.08355 -9.83059 -7.22622e-12
5.79914e-12 -7.22622e-12 -80.9385

-5.54904 -7.00012 5.68138e-12
-7.00012 -14.0418 -1.51235e-11
5.68138e-12 -1.51235e-11 -80.2912

11.7485 4.8243 9.31403e-13
4.8243 -43.2052 5.67531e-12
9.31403e-13 5.67531e-12 -7.82691

-35.0563 6.73097 -4.56716e-12
6.73097 24.3753 -7.79229e-13
-4.56716e-12 -7.79229e-13 -7.56342

-36.1101 6.73632 3.61827e-12
6.73632 24.4326 6.59621e-13
3.61827e-12 6.59621e-13 -8.30839

74.5864 58.6341 -1.79767e-12
58.6341 34.1726 -7.18122e-12
-1.79767e-12 -7.18122e-12 -21.873

-6.91955 -28.1997 -6.762e-13
-28.1997 16.8753 -4.03884e-12
-6.762e-13 -4.03884e-12 -6.11602

8.17205 17.9745 1.54484e-12
17.9745 -44.8757 1.56112e-12
1.54484e-12 1.56112e-12 -12.8964

32.703 9.53972 -3.95417e-12
9.53972 -19.0798 -5.40767e-12
-3.95417e-12 -5.40767e-12 -4.07376

3.38802 -26.7232 2.89842e-12
-26.7232 13.4841 -3.17376e-13
2.89842e-12 -3.17376e-13 -3.8264

26.2375 -20.2376 -4.32247e-14
-20.2376 -20.3226 -3.7419e-12
-4.32247e-14 -3.7419e-12 -5.8626

65.3902 60.232 -4.50484e-12
60.232 34.2894 1.75859e-12
-4.50484e-12 1.75859e-12 -23.8678

-13.2424 31.0691 -2.08781e-12
31.0691 -16.8812 -1.61974e-12
-2.08781e-12 -1.61974e-12 -12.7855

-18.6038 -19.786 -4.29849e-12
-19.786 28.4148 1.06581e-13
-4.29849e-12 1.06581e-13 -5.96887

11.1745 28.8576 7.51991e-14
28.8576 -13.3229 9.88839e-14
7.51991e-14 9.88839e-14 -6.43557

-31.8687 -4.14481 -4.12122e-12
-4.14481 30.1479 -6.46002e-13
-4.12122e-12 -6.46002e-13 -6.35728

-14.596 19.6091 3.88667e-12
19.6091 27.1853 -3.30166e-12
3.88667e-12 -3.30166e-12 -4.4181

7.47943 30.5187 -6.32383e-12
30.5187 -1.6701 2.29209e-12
-6.32383e-12 2.29209e-12 -5.65988

-9.34456 -22.4731 2.40282e-12
-22.4731 23.1493 -1.03502e-12
2.40282e-12 -1.03502e-12 -4.17485

4.59077 -27.3525 5.63638e-12
-27.3525 11.4492 -5.96619e-12
5.63638e-12 -5.96619e-12 -3.93791

24.2718 11.2569 5.06469e-12
11.2569 102.079 7.13148e-12
5.06469e-12 7.13148e-12 -12.405

37.4666 -33.4561 -8.23045e-13
-33.4561 69.2855 -5.63934e-12
-8.23045e-13 -5.63934e-12 -5.70296

-25.3348 -11.6905 1.80152e-13
-11.6905 31.3682 -1.43885e-12
1.80152e-13 -1.43885e-12 -5.64778

16.0966 26.4845 8.7752e-13
26.4845 -15.5017 4.65938e-12
8.7752e-13 4.65938e-12 -6.21688

4.95599 29.4779 2.89487e-12
29.4779 1.63711 -1.93386e-12
2.89487e-12 -1.93386e-12 -4.98937

-9.85434 -21.4338 1.46135e-12
-21.4338 25.1209 -2.00255e-12
1.46135e-12 -2.00255e-12 -4.03264

-21.6343 -11.7823 -3.93878e-12
-11.7823 32.0821 -5.32907e-14
-3.93878e-12 -5.32907e-14 -4.63662

10.4631 28.4094 -1.78524e-12
28.4094 -0.156253 -2.21097e-12
-1.78524e-12 -2.21097e-12 -4.67231

-21.8464 -13.8778 1.1342e-12
-13.8778 29.4674 -1.42109e-13
1.1342e-12 -1.42109e-13 -4.84656

6.95874 27.8549 -4.75175e-12
27.8549 73.0848 -8.47914e-13
-4.75175e-12 -8.47914e-13 -14.3219

-45.8316 -4.04128 -4.81398e-12
-4.04128 14.0479 4.01812e-12
-4.81398e-12 4.01812e-12 -19.9649

0.877393 31.0274 -5.17157e-12
31.0274 7.52055 -8.23045e-13
-5.17157e-12 -8.23045e-13 -6.08848

9.71927 14.9012 1.61885e-12
14.9012 -36.4289 2.13459e-13
1.61885e-12 2.13459e-13 -10.985

9.9288 -15.9275 1.24315e-12
-15.9275 -39.4103 1.40036e-12
1.24315e-12 1.40036e-12 -13.0688

85.6131 -24.2045 8.81073e-13
-24.2045 7.63594 -1.96465e-12
8.81073e-13 -1.96465e-12 -12.9578

-23.2066 -21.2672 -2.95142e-12
-21.2672 10.5139 -3.84877e-13
-2.95142e-12 -3.84877e-13 -6.16471

-16.6006 26.6982 -7.01661e-14
26.6982 1.77869 2.08781e-12
-7.01661e-14 2.08781e-12 -6.58716

-26.2014 -21.7279 -2.37025e-12
-21.7279 -5.36485 3.07191e-12
-2.37025e-12 3.07191e-12 -23.8672

-41.5969 14.1067 4.37043e-12
14.1067 -3.56012 3.1708e-12
4.37043e-12 3.1708e-12 -64.1283

-0.8934 9.44534 3.27723e-12
9.44534 -44.2596 9.59233e-13
3.27723e-12 9.59233e-13 -64.2297

-20.3842 32.7055 -1.20111e-12
32.7055 -23.2024 -1.37979e-12
-1.20111e-12 -1.37979e-12 -24.3296

-11.4102 26.0003 -7.13799e-13
26.0003 22.6042 1.79234e-12
-7.13799e-13 1.79234e-12 -5.9251

16.0388 26.6614 2.02623e-12
26.6614 -17.2869 -1.63366e-12
2.02623e-12 -1.63366e-12 -6.54935

30.4283 45.1858 -1.20555e-12
45.1858 47.5547 -1.67214e-12
-1.20555e-12 -1.67214e-12 -15.1949

-44.8888 -11.3437 -3.67928e-12
-11.3437 -1.80807 7.22356e-12
-3.67928e-12 7.22356e-12 -61.6844

-8.29818 -3.43294 -1.69825e-11
-3.43294 -12.7552 1.31086e-11
-1.69825e-11 1.31086e-11 -77.2286

-14.6915 -0.210041 3.19004e-13
-0.210041 -6.41857 1.35299e-13
3.19004e-13 1.35299e-13 -77.3728

27.665 -53.8024 1.74794e-12
-53.8024 71.1485 2.68822e-12
1.74794e-12 2.68822e-12 -24.3896

-11.6913 -11.6 -1.89596e-12
-11.6 -16.2045 -3.09412e-12
-1.89596e-12 -3.09412e-12 -37.4313

-32.6104 8.81303 5.59375e-12
8.81303 -9.4195 -2.02593e-12
5.59375e-12 -2.02593e-12 -49.5418

18.2563 -26.1995 -7.51991e-13
-26.1995 -19.5461 -4.44977e-13
-7.51991e-13 -4.44977e-13 -6.5061

-39.43 1.01107 -9.8499e-13
1.01107 11.9802 4.35385e-12
-9.8499e-13 4.35385e-12 -19.7219

-30.2022 -20.2678 -1.70101e-12
-20.2678 6.30516 -2.11979e-13
-1.70101e-12 -2.11979e-13 -7.2156

10.5366 6.25533 -1.68843e-12
6.25533 -52.3898 9.52497e-13
-1.68843e-12 9.52497e-13 -9.63931

-49.8126 15.5963 1.93378e-13
15.5963 10.1654 3.37537e-12
1.93378e-13 3.37537e-12 -13.5309

-40.2834 7.19161 -2.13268e-12
7.19161 16.5415 -8.49868e-12
-2.13268e-12 -8.49868e-12 -13.774

16.405 20.3927 -7.51991e-13
20.3927 -25.8405 1.0966e-12
-7.51991e-13 1.0966e-12 -7.60723

-9.10015 -3.1139 -3.5012e-12
-3.1139 108.394 -6.7691e-12
-3.5012e-12 -6.7691e-12 -23.102

-3.31993 -27.6236 -2.01261e-12
-27.6236 -3.62934 2.07952e-12
-2.01261e-12 2.07952e-12 -5.82953

-7.33489 -26.1163 -4.04832e-12
-26.1163 -14.0817 -7.70051e-13
-4.04832e-12 -7.70051e-13 -9.81037

-14.1982 -31.4837 1.28727e-12
-31.4837 -21.7779 5.93747e-12
1.28727e-12 5.93747e-12 -12.7554

90.7274 32.7495 -3.5764e-13
32.7495 20.9063 -8.92915e-13
-3.5764e-13 -8.92915e-13 -16.506

-23.1175 -20.1165 -4.66382e-12
-20.1165 -17.385 -5.75207e-12
-4.66382e-12 -5.75207e-12 -44.428

72.6301 54.3221 -7.89176e-12
54.3221 91.6403 1.80715e-12
-7.89176e-12 1.80715e-12 -6.14242

-36.2149 -21.4396 1.55905e-12
-21.4396 -6.79682 -8.6479e-13
1.55905e-12 -8.6479e-13 -13.0427

15.0339 14.6504 -9.68707e-13
14.6504 -37.7515 -4.81097e-12
-9.68707e-13 -4.81097e-12 -8.17838

44.5725 -14.5724 -4.95011e-13
-14.5724 -8.27155 1.10711e-12
-4.95011e-13 1.10711e-12 -4.41808

-21.2305 24.0467 3.36235e-12
24.0467 4.95561 1.62773e-12
3.36235e-12 1.62773e-12 -5.97591

17.3732 20.4279 -4.3799e-12
20.4279 -26.7921 -5.15617e-12
-4.3799e-12 -5.15617e-12 -6.95104

-51.14 11.4006 -3.75981e-12
11.4006 7.7105 -1.76748e-13
-3.75981e-12 -1.76748e-13 -29.9943

-7.28684 -31.5801 4.63866e-12
-31.5801 -12.8265 -4.99423e-12
4.63866e-12 -4.99423e-12 -8.11865

2.79675 19.8124 -4.46665e-12
19.8124 -46.0334 3.02898e-12
-4.46665e-12 3.02898e-12 -29.9862

-24.6707 -18.4434 3.0879e-12
-18.4434 17.8362 -2.39275e-12
3.0879e-12 -2.39275e-12 -5.4796

-42.3403 4.28316 1.10837e-12
4.28316 17.8694 -4.68366e-12
1.10837e-12 -4.68366e-12 -12.7279

-4.09805 9.92674 -4.08473e-12
9.92674 -40.276 -2.11135e-12
-4.08473e-12 -2.11135e-12 -47.5492

-2.68827 -8.51336 -4.09036e-12
-8.51336 -38.3072 3.59638e-12
-4.09036e-12 3.59638e-12 -47.405

81.7222 18.5123 -3.51482e-12
18.5123 1.70029 3.99088e-12
-3.51482e-12 3.99088e-12 -14.453

3.89495 7.965 1.64106e-12
7.965 -45.1829 -1.63839e-12
1.64106e-12 -1.63839e-12 -11.0179

35.8713 7.74044 -4.41336e-12
7.74044 184.571 9.66338e-13
-4.41336e-12 9.66338e-13 -9.7577

40.1448 -11.3851 -5.32311e-12
-11.3851 190.369 -1.35003e-12
-5.32311e-12 -1.35003e-12 -7.38954

53.7642 56.4066 4.52616e-12
56.4066 159.253 -1.35477e-12
4.52616e-12 -1.35477e-12 -11.5004

1.70904 -28.9504 -6.85082e-13
-28.9504 -24.6907 -6.26728e-12
-6.85082e-13 -6.26728e-12 -11.9625

16.0487 -49.1901 1.32161e-12
-49.1901 99.418 6.30962e-12
1.32161e-12 6.30962e-12 -21.6894

54.512 -55.9491 1.70767e-12
-55.9491 149.971 5.4096e-12
1.70767e-12 5.4096e-12 -13.6653

-2.16542 26.2199 -7.62472e-12
26.2199 17.5727 6.85082e-13
-7.62472e-12 6.85082e-13 -3.99541

134.937 73.8433 1.9232e-12
73.8433 85.0238 5.42381e-12
1.9232e-12 5.42381e-12 -10.1595

-18.7197 13.0473 -1.72603e-12
13.0473 -3.90024 1.95903e-12
-1.72603e-12 1.95903e-12 -26.7697

3.74112 0.0393658 5.79255e-12
0.0393658 -26.1889 -6.1835e-12
5.79255e-12 -6.1835e-12 -26.7729

144.095 -73.1288 -9.04284e-12
-73.1288 85.3512 -1.7053e-12
-9.04284e-12 -1.7053e-12 -8.19677

-21.3925 -23.4238 1.85866e-12
-23.4238 12.2481 -4.8163e-12
1.85866e-12 -4.8163e-12 -6.49058

89.3453 34.7288 9.82917e-13
34.7288 41.3895 -4.41721e-12
9.82917e-13 -4.41721e-12 -11.5481

72.186 63.4904 4.14246e-12
63.4904 149.691 5.68434e-14
4.14246e-12 5.68434e-14 -9.6741

26.1642 21.63 4.52379e-12
21.63 100.132 6.72884e-12
4.52379e-12 6.72884e-12 -13.0316

73.8728 -65.9192 5.4096e-12
-65.9192 151.142 9.56864e-13
5.4096e-12 9.56864e-13 -9.40265

25.7687 -12.381 -5.28407e-12
-12.381 105.011 1.63425e-13
-5.28407e-12 1.63425e-13 -12.4286

-28.6639 6.84177 2.6706e-12
6.84177 3.10677 -8.9555e-12
2.6706e-12 -8.9555e-12 -37.8539

37.7424 -45.9743 8.08479e-12
-45.9743 49.6688 2.55322e-12
8.08479e-12 2.55322e-12 -15.5324

14.4435 47.5314 4.56405e-12
47.5314 94.8785 -7.43701e-13
4.56405e-12 -7.43701e-13 -22.1925

173.337 37.911 -3.18797e-12
37.911 48.0407 4.49655e-12
-3.18797e-12 4.49655e-12 -9.52274

7.02092 -29.2855 2.72375e-14
-29.2855 -14.3582 2.7045e-12
2.72375e-14 2.7045e-12 -7.15562

-38.4173 12.8967 3.58158e-13
12.8967 6.43531 2.58786e-12
3.58158e-13 2.58786e-12 -15.2903

88.5036 -38.112 4.57116e-13
-38.112 34.1625 -2.61006e-12
4.57116e-13 -2.61006e-12 -14.0998

6.04188 -28.802 -4.5078e-12
-28.802 -16.1715 1.26092e-12
-4.5078e-12 1.26092e-12 -8.02947

169.203 -36.3429 -5.43802e-12
-36.3429 34.9282 1.12029e-12
-5.43802e-12 1.12029e-12 -13.2906

-5.72499 -28.3173 3.67647e-12
-28.3173 -14.4726 -7.05628e-12
3.67647e-12 -7.05628e-12 -9.30905

-17.7901 -25.2947 -6.30607e-13
-25.2947 12.0804 4.64221e-13
-6.30607e-13 4.64221e-13 -5.93374

118.874 69.4598 1.88531e-12
69.4598 96.2175 -8.76336e-13
1.88531e-12 -8.76336e-13 -11.4007

29.4126 -22.9325 -8.44362e-13
-22.9325 97.7949 -6.16751e-12
-8.44362e-13 -6.16751e-12 -14.3402

117.957 -71.6918 9.90023e-13
-71.6918 93.6789 -6.30962e-12
9.90023e-13 -6.30962e-12 -12.4167

22.2643 50.7368 2.79125e-12
50.7368 73.7773 -2.74743e-12
2.79125e-12 -2.74743e-12 -24.7776

-1.53607 -30.2119 -1.67451e-12
-30.2119 -6.55225 5.21094e-12
-1.67451e-12 5.21094e-12 -6.9974

-7.04515 -14.6403 -4.69728e-12
-14.6403 -21.9194 2.58726e-12
-4.69728e-12 2.58726e-12 -32.6146

-11.892 11.0926 1.07572e-11
11.0926 -16.4308 1.0155e-11
1.07572e-11 1.0155e-11 -77.795

-26.169 -5.16 -2.20964e-12
-5.16 -6.38737 -1.34477e-11
-2.20964e-12 -1.34477e-11 -77.6288

-38.9408 13.0836 6.3242e-13
13.0836 13.7444 8.24822e-13
6.3242e-13 8.24822e-13 -10.2385

-14.4805 -10.667 1.11966e-11
-10.667 -17.3183 1.50309e-12
1.11966e-11 1.50309e-12 -78.7578

-25.9028 4.09174 -8.06466e-13
4.09174 -5.91387 1.04574e-11
-8.06466e-13 1.04574e-11 -78.9

-3.63382 7.43409 3.23001e-12
7.43409 -27.8606 4.24638e-12
3.23001e-12 4.24638e-12 -77.9872

-43.9753 -12.1152 2.66735e-12
-12.1152 2.91632 -6.22672e-12
2.66735e-12 -6.22672e-12 -68.1586

11.9737 -30.4698 -2.61835e-12
-30.4698 76.1624 -8.95284e-13
-2.61835e-12 -8.95284e-13 -14.7009

0.521879 -12.9721 1.16055e-13
-12.9721 -39.9907 -1.23516e-12
1.16055e-13 -1.23516e-12 -45.2774

-16.3488 -34.4177 -4.41958e-12
-34.4177 -22.0685 3.01033e-12
-4.41958e-12 3.01033e-12 -23.5901

-2.42059 -18.1768 -1.09838e-12
-18.1768 -29.8953 2.83773e-12
-1.09838e-12 2.83773e-12 -33.6268

12.7383 15.4592 -8.81665e-13
15.4592 -37.716 -4.27924e-12
-8.81665e-13 -4.27924e-12 -9.62489

-46.9086 9.86425 -7.14614e-13
9.86425 8.87766 1.82738e-11
-7.14614e-13 1.82738e-11 -70.1544

3.46266 19.2276 1.41931e-12
19.2276 -41.4721 4.13688e-12
1.41931e-12 4.13688e-12 -70.2703

1.47233 11.3063 4.58182e-12
11.3063 -23.9651 -1.07455e-12
4.58182e-12 -1.07455e-12 -31.868

109.391 -15.3392 2.72612e-12
-15.3392 -12.5355 -7.70347e-13
2.72612e-12 -7.70347e-13 -25.0372

-14.3201 24.9639 -1.04237e-11
24.9639 10.3862 -5.10229e-12
-1.04237e-11 -5.10229e-12 -5.80425

76.6064 -61.3543 1.79057e-12
-61.3543 37.365 -7.10069e-12
1.79057e-12 -7.10069e-12 -22.3953

76.1137 -57.4569 1.74794e-12
-57.4569 99.2278 6.8449e-13
1.74794e-12 6.8449e-13 -5.55535

118.196 -36.5438 8.08835e-12
-36.5438 40.6007 9.50943e-13
8.08835e-12 9.50943e-13 -7.37853

-51.1145 -5.15896 -6.66711e-12
-5.15896 3.34076 3.84048e-12
-6.66711e-12 3.84048e-12 -60.6608

-50.4784 2.89123 2.08293e-12
2.89123 3.13502 6.8073e-12
2.08293e-12 6.8073e-12 -60.1334

-11.9756 -24.4563 1.07174e-13
-24.4563 -35.0035 -7.3445e-13
1.07174e-13 -7.3445e-13 -59.1675

-8.99194 -21.7606 -6.60442e-12
-21.7606 -37.8882 -1.27572e-12
-6.60442e-12 -1.27572e-12 -59.4771

-14.7027 26.136 -1.36928e-12
26.136 -33.0279 -2.09655e-12
-1.36928e-12 -2.09655e-12 -60.752

-18.1577 3.09949 5.46985e-12
3.09949 -13.1646 1.35315e-11
5.46985e-12 1.35315e-11 -75.4794

-9.94507 -20.5089 -6.717e-12
-20.5089 -32.6509 1.33908e-12
-6.717e-12 1.33908e-12 -56.7378

-26.6485 -18.5683 -2.61524e-12
-18.5683 -14.1959 -1.58512e-11
-2.61524e-12 -1.58512e-11 -71.2732

-15.4791 2.43454 1.42718e-11
2.43454 -12.8527 9.40877e-12
1.42718e-11 9.40877e-12 -77.874

-6.02754 -20.5263 4.08007e-12
-20.5263 -41.4873 1.7503e-12
4.08007e-12 1.7503e-12 -60.5081

-6.75683 20.9559 5.26623e-12
20.9559 -40.1436 1.202e-13
5.26623e-12 1.202e-13 -60.0193

-14.3163 -3.45856 -1.87702e-13
-3.45856 -11.3902 7.25553e-12
-1.87702e-13 7.25553e-12 -76.8884

-11.2642 -3.11725 -2.11573e-11
-3.11725 -17.6894 1.41333e-11
-2.11573e-11 1.41333e-11 -74.0512

-24.2042 12.1098 8.3736e-12
12.1098 -13.4007 -5.31434e-12
8.3736e-12 -5.31434e-12 -69.9693

-22.0826 26.9297 3.91509e-12
26.9297 -26.267 8.43945e-13
3.91509e-12 8.43945e-13 -57.5834

VECTORS fluid_flux_TPM float
-8.72088e-05 3.10245e-05 -2.01937e-21
3.55909e-06 6.88169e-06 -2.6245e-21
-1.27858e-05 -1.02242e-05 -7.11498e-21
-4.17006e-06 4.25349e-06 1.38489e-20
2.27049e-05 -6.31251e-06 1.66416e-20
2.75724e-06 -1.59016e-05 -1.35314e-20
-8.57848e-05 -3.10892e-05 2.23221e-21
-1.38906e-05 -1.04655e-05 -2.63053e-20
2.21191e-05 9.45404e-07 -9.37679e-22
1.13826e-05 -3.90762e-06 6.60324e-21
5.45944e-05 1.24826e-05 1.2494e-20
2.34657e-06 -1.7192e-05 -1.54759e-20
1.36098e-05 1.12524e-05 -7.27291e-21
2.66175e-06 1.37829e-05 -2.41595e-20
2.05785e-05 -2.94629e-06 -2.62086e-21
-1.63303e-05 -2.72866e-07 -2.07047e-20
2.75319e-06 1.40971e-05 -2.07213e-21
1.01805e-05 -2.3916e-06 2.09729e-20
9.89741e-06 1.72206e-05 1.36812e-20
-1.48467e-05 1.88523e-06 -2.69838e-20
-3.60075e-06 -2.13015e-05 -8.30702e-21
3.41074e-05 5.94114e-05 -1.51919e-20
1.56956e-05 1.63111e-06 1.63927e-20
1.1226e-05 -1.12801e-05 -1.85394e-20
-1.50766e-05 -3.33201e-06 -2.2212e-20
-6.77147e-07 -1.11295e-05 -1.24359e-21
6.28971e-05 -4.90798e-06 3.44577e-21
1.40644e-05 1.02477e-05 -4.79787e-21
-2.5147e-05 -2.06406e-05 1.16927e-20
4.91154e-05 -1.28126e-05 1.57503e-20
-1.65806e-05 -6.03766e-06 -1.64164e-20
5.53652e-06 -3.20337e-05 -3.93569e-21
4.765e-05 -4.8043e-05 7.3772e-21
-4.92291e-06 -4.12441e-05 4.41091e-22
-2.96707e-05 3.70021e-05 -1.11381e-21
-3.82441e-05 -1.63936e-05 -4.25595e-20
3.26997e-05 4.32117e-05 -1.83078e-20
-4.47368e-05 -8.7251e-06 -5.52063e-21
1.43731e-05 -1.10808e-05 -6.08907e-21
4.64659e-05 5.01108e-05 1.32786e-21
3.21266e-05 -1.40208e-05 9.12738e-21
3.36371e-05 -4.23398e-05 -2.30175e-20
-1.98947e-05 -5.03741e-05 -3.67202e-20
-1.58965e-05 6.3562e-06 -2.16742e-20
3.05228e-05 -2.93118e-05 3.65677e-21
-3.03299e-05 1.09893e-05 2.98011e-21
-4.04987e-06 -2.03689e-05 -1.25083e-20
7.88545e-06 2.02101e-05 2.94664e-20
-1.63411e-05 5.92735e-06 -1.06321e-21
-1.78184e-05 2.87234e-05 1.74811e-20
3.24061e-05 1.52897e-05 -3.06788e-22
2.93628e-05 -1.00744e-05 -2.55961e-21
-1.56652e-05 1.57593e-05 -2.64116e-21
-2.35395e-05 -2.06887e-05 1.97524e-20
-2.11383e-05 -5.13207e-06 -3.17898e-20
-4.47883e-05 2.70741e-05 1.48836e-20
-2.93698e-05 -3.80205e-05 -6.85152e-21
6.36298e-06 -3.06257e-05 2.69755e-21
-4.77046e-05 6.48244e-06 -2.06986e-20
6.0737e-06 1.36962e-05 1.7971e-20
-5.57648e-06 -8.17296e-06 -5.60221e-21
-6.58316e-06 -1.79426e-05 -1.26711e-20
5.71408e-05 2.48583e-05 1.15511e-22
9.24233e-06 1.81433e-05 -1.78394e-20
1.22959e-05 -1.44442e-05 -8.59836e-21
-1.64051e-06 -2.07515e-05 -1.35333e-20
4.62085e-06 -8.80509e-06 4.17366e-21
-1.009e-05 -5.56461e-06 -1.45686e-20
-1.06021e-05 1.19287e-05 -2.78811e-20
2.55807e-06 -4.0924e-06 3.70621e-21
-1.50427e-05 -1.58425e-05 -1.87225e-20
-2.13639e-05 5.16568e-06 -1.75769e-20
-3.55666e-06 3.44797e-05 1.75866e-21
-1.7871e-05 1.07104e-05 -1.20954e-20
-9.07039e-06 1.4614e-05 -3.29018e-20
-6.03521e-05 7.69176e-06 1.38577e-21
7.8177e-06 -2.16805e-05 -6.34645e-21
-1.88793e-05 -8.89967e-06 -3.58341e-20
1.93363e-06 1.16235e-05 1.33396e-20
2.62998e-05 5.08942e-06 4.75788e-21
3.41676e-05 -2.89739e-05 -1.55251e-20
2.21454e-05 2.05553e-05 -1.39498e-20
1.19079e-05 -2.8222e-06 7.21592e-21
-3.21524e-05 2.40661e-05 8.76904e-21
3.79028e-05 4.84565e-06 5.45829e-23
-4.98064e-06 4.94126e-05 1.57291e-20
-1.74104e-06 -1.68564e-05 1.12844e-20
1.81231e-05 9.95425e-06 -3.97903e-21
2.93162e-05 3.02845e-05 1.20448e-21
5.50225e-05 3.80119e-05 -7.50052e-22
-5.33114e-06 3.07716e-05 7.041e-21
5.91774e-05 -3.5511e-05 -2.67073e-20
-2.71237e-05 5.34096e-06 -1.24134e-20
1.78386e-05 1.10014e-05 4.1188e-21
-2.96399e-05 9.90291e-06 2.50838e-21
1.66523e-05 2.85201e-05 1.03167e-21
1.01684e-05 -4.43849e-05 9.37445e-21
1.9154e-06 1.16204e-05 7.45796e-22
-1.48002e-05 -1.76194e-05 -2.2697e-20
3.06977e-06 1.7474e-05 1.94289e-20
2.64058e-05 5.25727e-06 -2.0994e-21
-1.54427e-05 3.32099e-05 6.44255e-21
4.05506e-05 -1.33326e-05 -5.3781e-22
-3.77292e-06 7.45475e-06 -1.29263e-20
9.95245e-06 5.89908e-06 1.0739e-20
-2.28049e-06 -1.13241e-05 -1.01257e-20
3.22053e-06 -1.92511e-05 -7.42967e-21
1.74687e-05 3.89193e-06 3.16316e-20
-7.9369e-06 4.0971e-05 -1.63951e-21
-9.80524e-06 2.47915e-07 2.11276e-21
9.31815e-06 1.18853e-05 -3.11258e-21
-2.17726e-06 -4.17123e-05 6.05086e-21
4.20213e-05 1.28645e-05 1.90297e-21
4.42238e-06 -7.4529e-06 -2.44817e-20
-1.11447e-05 -3.5535e-06 -8.39284e-21
-2.93245e-05 -1.24855e-05 2.48304e-20
1.58032e-05 4.11457e-05 -9.23409e-21
-4.34832e-05 -1.55732e-05 2.64438e-20
1.60179e-05 -4.11222e-05 2.00625e-20
-3.69966e-06 -3.19189e-05 1.53862e-20
2.1838e-05 6.5214e-07 2.18106e-20
-7.17121e-06 1.83959e-05 -1.98255e-20
-1.61113e-06 3.96941e-06 2.84612e-21
-3.68583e-06 -1.65381e-05 -2.25185e-20
5.22978e-06 -8.30178e-06 4.44775e-21
9.35912e-06 1.58629e-05 -6.48227e-21
3.30999e-05 1.0652e-05 7.78828e-22
8.61513e-06 -7.45774e-06 1.51503e-20
-8.2706e-06 -4.51581e-05 1.14217e-20
2.55511e-05 -1.88191e-05 -1.90651e-20
4.97772e-06 2.77701e-05 -9.0534e-21
-2.81622e-06 -2.8415e-06 6.70866e-22
-8.62591e-06 -8.32551e-06 -1.55472e-20
-4.77648e-06 4.41242e-08 -1.50727e-20
-2.28717e-05 2.85929e-05 -1.52067e-21
1.87623e-05 -3.73735e-05 -2.27755e-20
-2.65789e-05 4.27126e-05 -9.86951e-21
-1.63711e-05 9.53486e-06 1.43304e-21
2.52785e-06 1.21984e-05 4.38458e-20
-2.29858e-05 -3.49879e-05 -3.24838e-20
1.39355e-05 3.34646e-05 8.19606e-21
1.7507e-05 9.36881e-06 5.84836e-21
2.28105e-05 -8.52229e-06 -2.36016e-20
-1.25314e-06 -1.12649e-05 -1.04628e-20
-3.39102e-05 -3.15566e-05 2.69838e-20
-2.75136e-06 1.13028e-05 -9.08372e-21
1.72459e-05 1.01713e-05 1.91176e-21
1.88866e-05 -8.82045e-06 -1.65794e-20
8.24281e-06 -1.43442e-05 -1.90096e-20
2.43558e-05 -1.07949e-05 -5.0686e-21
1.90087e-05 -8.99746e-06 -1.8408e-21
4.64042e-06 2.05791e-07 -9.09615e-21
2.57395e-05 2.02202e-05 -1.36271e-21
-2.7415e-06 -1.70291e-05 -6.8973e-21
-1.04793e-05 -4.45679e-06 -1.48005e-20
1.12579e-06 -3.88989e-06 5.12619e-21
-3.15492e-06 1.58462e-05 1.12147e-20
-3.48817e-05 2.76797e-06 6.28915e-21
-1.21209e-05 -3.32567e-05 1.24992e-20
-7.87871e-06 9.77855e-06 -2.76146e-20
1.35646e-05 1.66395e-05 -2.57982e-22
2.65673e-05 -1.87438e-05 -7.26018e-21
-3.67905e-05 -2.03497e-05 2.18512e-20
1.74022e-05 -2.75063e-05 -1.0428e-20
2.28028e-05 -2.72152e-05 -8.2767e-21
-1.09438e-05 3.78475e-06 -1.60162e-20
-1.9828e-05 -2.88388e-05 -5.39421e-21
-3.48781e-05 -5.79113e-06 3.12335e-20
-3.85227e-06 -3.17411e-05 1.39698e-20
1.54469e-05 -3.16976e-05 -2.59084e-20
-9.10572e-06 -2.61983e-05 -2.92587e-20
4.58098e-06 3.14039e-05 1.09988e-21
-1.57516e-05 -2.85206e-05 -1.12131e-20
2.93867e-06 -1.62915e-05 6.69446e-21
-2.47381e-05 1.8259e-05 8.46437e-22
-1.50301e-05 -1.21105e-05 -2.1971e-20
-2.73515e-05 -5.17219e-06 -3.02846e-20
1.56674e-05 -9.18115e-06 -2.09826e-20
-4.30673e-06 2.39514e-05 -2.85063e-20
1.2232e-05 -9.32406e-06 6.60581e-22
-2.95845e-05 -1.31636e-05 2.94976e-20
-8.83126e-06 -7.45774e-06 -1.03289e-21
9.08167e-06 7.5405e-06 1.80383e-21
2.14258e-05 2.86994e-05 -3.11531e-21
-1.75081e-05 -1.08088e-05 -2.46931e-20
-3.25046e-05 -7.51037e-07 1.02182e-20
-1.6336e-05 -5.01593e-06 -3.73232e-20
-4.57792e-06 -1.65825e-05 -1.88147e-20
1.76839e-05 2.12382e-05 9.73642e-21
-1.09568e-05 5.87449e-06 4.01996e-21
6.36012e-07 -2.05544e-05 -1.11904e-20
-4.19378e-05 1.08504e-05 1.94404e-20
2.48594e-05 2.02454e-05 5.63857e-21
3.79431e-06 3.27839e-05 9.38905e-22
-2.43186e-06 3.79703e-06 -2.30815e-20
-9.05051e-06 2.5119e-07 -1.69636e-20
4.35489e-06 7.75975e-06 1.93147e-21
-1.16934e-05 3.40131e-06 -2.05227e-20
-2.07329e-06 -3.78476e-06 -1.70039e-20
1.65971e-06 2.0759e-05 -7.36591e-23
4.47221e-06 4.4968e-07 1.72701e-20
-1.95373e-05 4.75643e-06 -4.41348e-21
-1.72977e-05 1.93572e-05 -4.32222e-21
-3.10731e-06 1.15777e-05 -2.20607e-20
-2.92157e-05 1.83935e-05 -2.50565e-21
-9.34298e-06 8.97896e-06 3.50061e-20
1.73105e-05 -1.16133e-05 -2.56264e-21
3.66027e-05 -3.56455e-06 1.31037e-20
-2.11398e-05 1.12969e-05 -2.07016e-20
2.23291e-06 4.49806e-06 1.78012e-20
2.17744e-05 -4.34472e-06 -8.58865e-21
-1.72782e-05 1.03524e-05 -7.41299e-21
-9.87138e-06 5.53881e-06 -1.94004e-20
1.18309e-05 3.74254e-06 2.93402e-21
2.1879e-05 -1.34706e-05 -1.93416e-20
-1.73793e-05 9.9557e-06 -6.64507e-21
-2.50359e-05 -5.30282e-06 5.28688e-21
-1.6761e-05 -4.3623e-06 -5.29052e-22
9.87582e-06 6.23765e-09 -1.67832e-21
1.01735e-05 1.95353e-07 2.84781e-20
4.39059e-06 8.31683e-06 1.4946e-21
4.82936e-06 -8.79741e-06 1.28157e-20
-5.01015e-06 8.41949e-06 -3.00388e-20
-5.26646e-06 -8.65725e-06 1.1609e-20
9.9106e-06 -7.40771e-06 -1.50883e-21
-2.03267e-05 3.23478e-06 -2.5525e-20
-2.00591e-05 -3.2836e-06 1.12566e-21
-1.28342e-05 1.58758e-05 2.66779e-20
-1.2914e-05 -1.59301e-05 -5.68676e-21
7.48596e-06 -1.98429e-05 6.5899e-21
7.20572e-06 1.9763e-05 1.47277e-21
1.55772e-06 2.58839e-05 2.3025e-20
1.124e-05 -3.13671e-06 -5.42271e-21
2.3598e-06 -3.86637e-06 -1.33811e-20
-2.14104e-05 1.42162e-06 -3.3098e-20
7.67686e-06 -1.95122e-05 1.63239e-20
7.27313e-06 1.96607e-05 1.0793e-20
4.7686e-06 -5.2712e-08 1.40599e-20
8.96779e-06 2.44021e-05 2.06064e-20
-2.24219e-06 -4.01615e-06 -9.79798e-21
2.31765e-06 -1.13165e-05 -9.07645e-21
-2.24294e-05 -1.2151e-05 1.2142e-20
-2.1357e-05 -1.1494e-05 -1.6085e-20
-2.18915e-05 1.36279e-05 -2.19352e-20
3.25109e-06 -1.2287e-05 3.6004e-21
-1.56526e-06 3.38179e-06 1.00126e-20
-5.87328e-07 -2.55676e-05 -1.156e-20
-7.7198e-06 -2.44214e-05 5.32902e-21
3.2702e-05 3.03607e-05 1.22224e-20
3.5451e-05 -1.81508e-06 1.59816e-20
-1.27103e-05 -3.63195e-06 -1.65376e-20
-2.28911e-05 -4.13832e-05 1.38052e-20
8.3037e-06 1.3747e-05 1.41927e-20
-2.52341e-05 3.03309e-06 2.13598e-20
2.00638e-05 5.78602e-06 3.72256e-21
-4.53283e-06 -3.27404e-08 -3.05147e-20
-4.66489e-06 -8.41219e-06 4.40436e-21
-7.07243e-06 -3.93301e-05 -3.44983e-20
-9.7077e-06 -8.39089e-08 -2.7363e-20
-4.86708e-05 -1.81559e-06 9.3017e-21
1.73075e-05 -1.9104e-05 -2.24569e-20
2.42918e-06 3.9988e-06 1.12489e-20
-1.20633e-07 -1.75124e-05 2.33648e-21
-9.81775e-06 2.40821e-05 -6.68144e-21
-4.37175e-06 8.6268e-06 2.75901e-20
2.05547e-05 -1.3605e-05 -3.0592e-20
-3.76561e-05 -1.35504e-05 -3.10249e-20
-1.52646e-05 -2.03642e-05 4.46955e-21
4.97669e-06 8.38843e-06 1.82742e-20
1.66298e-05 5.16017e-06 -3.96539e-21
-4.7635e-06 -7.33769e-06 -1.40184e-21
1.97949e-05 3.54689e-06 4.65115e-21
1.81869e-05 -9.82493e-06 -2.23817e-20
-3.48793e-07 2.71703e-05 -1.39407e-20
8.31959e-06 -1.36655e-05 -5.15957e-21
4.87991e-05 2.20037e-06 -2.25245e-22
-4.23525e-05 1.14521e-05 -6.95759e-22
2.28575e-05 1.15549e-05 -2.0363e-20
-6.45222e-06 -1.71773e-05 -7.18592e-21
-1.53481e-05 -8.61714e-06 -3.98577e-20
2.8784e-05 -2.10521e-07 4.98282e-21
-6.91899e-07 -2.4252e-05 -1.20722e-21
-1.26159e-05 -1.08727e-05 -2.12446e-20
1.02226e-05 -2.34967e-05 -2.03833e-20
-4.96547e-07 2.05528e-05 1.10576e-20
7.91669e-06 2.60644e-05 1.46004e-20
1.72657e-05 -9.88301e-06 -1.94183e-20
-1.89455e-05 1.9296e-05 4.37102e-21
1.65256e-05 2.00268e-05 2.4999e-21
-6.22224e-05 1.60198e-05 -3.13587e-20
-1.01078e-05 2.60128e-05 8.21305e-21
1.25174e-05 -1.52463e-05 -1.93619e-20
-7.02817e-06 -1.83954e-05 -2.72121e-20
-1.1852e-05 4.50508e-06 -1.53986e-20
-2.58899e-05 -7.04485e-06 4.81212e-21
-6.38527e-06 3.88527e-05 -1.09861e-20
-1.26042e-05 1.19009e-05 -1.71037e-20
2.07739e-05 -4.47501e-06 -1.63909e-20
-6.87155e-06 -2.57907e-05 3.27053e-21
-1.48668e-05 2.38877e-05 -1.23057e-20
-2.1786e-05 1.25631e-05 -1.70797e-20
-2.05667e-05 -1.50534e-05 -5.29204e-21
1.80262e-05 -2.06523e-05 1.67944e-20
-2.7527e-05 -1.45605e-06 4.07179e-21
1.23655e-05 -4.08048e-05 -1.22827e-20
1.93837e-05 -1.89106e-05 -1.5381e-20
2.47293e-05 4.30761e-05 -2.78153e-21
1.97086e-06 1.98638e-05 -1.87513e-20
2.9607e-06 -2.54178e-05 -1.58667e-20
-4.16308e-05 4.69556e-05 -8.49195e-21
-1.27004e-05 -2.44083e-05 -6.13181e-21
1.63647e-05 -6.41968e-06 -4.49472e-21
-2.41058e-06 2.57688e-05 1.15424e-20
1.28813e-05 -1.18249e-05 1.37091e-20
1.38787e-05 2.43097e-05 2.14101e-20
1.72276e-05 -1.40031e-06 2.03114e-20
2.21171e-05 -6.32081e-05 -4.38163e-21
-5.87533e-06 -1.28575e-05 6.43284e-21
-2.31812e-05 1.00857e-05 -8.1142e-21
-2.00173e-05 1.87165e-05 -1.60905e-20
2.16094e-05 1.45657e-05 1.18516e-20
1.86701e-05 -1.07552e-05 -1.82651e-20
1.495e-05 1.25918e-05 5.07801e-21
-5.42741e-06 4.55069e-08 6.83879e-21
1.54015e-05 -2.30842e-05 -1.91548e-20
-1.6988e-05 -2.04064e-05 -9.58242e-21
2.25588e-05 9.77241e-06 -9.12251e-21
1.28049e-05 -1.19881e-05 -2.22007e-21
9.55265e-06 -2.48484e-05 -1.79455e-20
1.6657e-05 -6.93197e-06 1.15864e-20
-1.58033e-05 -7.54362e-06 -9.00553e-21
1.29667e-06 -2.62995e-05 -2.02826e-20
-2.61033e-05 4.47248e-06 9.03126e-22
2.39008e-06 2.45395e-05 1.15139e-20
2.05822e-05 6.62658e-06 -2.37981e-22
-2.17176e-05 -1.07004e-05 -1.05137e-20
-8.97602e-06 2.56066e-05 1.47156e-21
-1.49519e-06 -2.41848e-05 1.23357e-21
1.94638e-05 1.18358e-05 -3.97479e-21
-1.76873e-06 1.80824e-05 5.16683e-21
-2.01361e-05 1.37008e-05 -1.23615e-20
2.35078e-05 1.14137e-05 5.50729e-21
-1.7113e-05 -9.98433e-06 -4.66331e-21
9.50903e-08 -1.98322e-05 2.81336e-21
1.838e-05 1.99817e-05 1.19677e-20
-2.2151e-05 -1.43018e-05 -6.77029e-21
4.8345e-05 -3.3978e-05 6.63233e-21
1.78948e-05 -1.08212e-05 -3.52019e-20
9.00078e-06 4.3082e-05 -3.08803e-21
1.70321e-05 -1.3677e-05 -8.25942e-21
-1.98726e-05 8.70254e-05 7.67009e-22
-1.97628e-05 -8.65397e-05 -6.36312e-21
5.71778e-05 7.17094e-05 2.41167e-21
5.69153e-05 -7.13832e-05 7.79011e-21
9.06369e-05 -1.60207e-10 4.74513e-21
-7.81924e-05 3.76339e-05 2.82186e-21
-7.74467e-05 -3.72782e-05 -3.63767e-21
1.22325e-05 1.18174e-05 -6.42618e-21
2.93648e-05 2.189e-05 -1.21157e-20
1.14469e-05 3.33247e-06 2.49368e-20
1.88537e-05 9.75048e-06 -8.40977e-22
4.9887e-06 2.0168e-05 1.18049e-20
-1.88299e-05 -1.49788e-05 -1.2106e-20
1.70362e-05 -1.02132e-05 -2.41653e-21
1.98505e-05 1.45478e-05 5.07801e-21
-3.16662e-06 2.43615e-05 2.44754e-20
2.94376e-05 -1.99908e-05 1.97114e-20
3.79351e-06 -2.37374e-05 -1.05574e-20
2.19586e-05 5.22652e-06 -2.02268e-20
2.98928e-05 1.10249e-05 3.38302e-21
1.42073e-05 1.41424e-05 1.35345e-20
1.58816e-05 6.59304e-06 9.04734e-21
-1.84969e-05 1.09355e-05 -2.06319e-20
-2.25609e-05 9.03574e-06 -2.81307e-21
2.29272e-05 -1.12624e-05 8.98336e-21
-1.82661e-05 -9.99702e-06 -3.92113e-20
-1.85526e-05 -1.05814e-05 -9.56091e-21
-3.43823e-07 -2.07657e-05 1.76599e-20
-8.61432e-08 -2.11587e-05 -1.30897e-20
-2.01251e-05 -1.00538e-06 -7.57821e-21
2.66965e-05 -4.01878e-06 -3.79136e-21
1.81103e-05 1.13411e-05 1.10243e-20
-1.78625e-05 1.0944e-05 -2.22353e-20
-1.536e-05 1.66221e-05 -3.85689e-21
1.60206e-05 -1.37519e-05 -2.73085e-20
-1.10225e-05 1.74617e-05 -6.76754e-21
-1.42236e-05 -1.48882e-05 8.75054e-21
-1.15514e-06 2.12087e-05 7.41268e-21
-1.28756e-06 2.09663e-05 2.04703e-20
8.97123e-08 -1.98322e-05 3.88595e-21
6.11026e-06 -1.97355e-05 -1.90727e-20
-1.71394e-05 -9.93458e-06 -2.66203e-20
1.55854e-05 -5.48979e-06 -6.56471e-21
6.63101e-07 2.14759e-05 5.98781e-21
3.00814e-07 1.85058e-05 2.21701e-20
-2.34554e-06 1.68558e-05 -6.91064e-21
2.19068e-05 -5.52693e-06 -9.55846e-21
-1.65399e-05 5.3776e-06 -8.10722e-21
4.15709e-06 2.15156e-05 1.34212e-21
-3.25556e-05 1.29181e-05 -3.32347e-20
9.76248e-06 4.17279e-05 2.94858e-21
-1.7052e-05 4.56775e-06 -8.92577e-21
1.96828e-05 -1.16291e-05 -1.13077e-20
9.45689e-07 2.10177e-05 2.09017e-20
-2.04795e-05 6.69886e-06 -9.16497e-21
2.44389e-06 -1.62611e-05 1.55128e-21
1.81897e-06 -5.80078e-05 7.94533e-21
2.0063e-06 1.74848e-05 7.41389e-21
-1.69607e-05 1.40214e-05 1.49337e-21
1.78526e-05 6.39666e-05 1.12423e-20
4.57656e-05 3.77038e-05 -7.11844e-22
5.20608e-05 -3.52528e-05 -1.52786e-20
1.48143e-05 -1.01663e-05 4.40183e-22
-1.57842e-05 1.40365e-05 -1.11449e-20
-2.02153e-05 -7.92008e-06 -2.0861e-21
-1.96441e-05 -6.82188e-06 -3.95631e-21
5.92625e-05 -2.461e-05 -1.97864e-20
5.74292e-05 2.38691e-05 4.35706e-21
1.08937e-05 3.81719e-06 1.79631e-20
7.66573e-07 1.95779e-05 7.76557e-21
7.83505e-08 1.95592e-05 -2.26755e-22
-4.83793e-05 -3.69159e-05 2.64269e-21
1.14243e-05 -1.71707e-05 -4.15519e-21
1.17324e-05 1.24637e-05 2.2701e-21
-2.14166e-05 -3.39549e-06 -2.45627e-20
-1.4044e-05 1.72009e-05 -3.39632e-23
-1.88872e-05 9.16709e-06 -1.02653e-21
4.76399e-05 3.36919e-05 1.05786e-20
1.58053e-05 7.06115e-06 2.54507e-21
-5.56637e-06 2.00289e-05 -9.4366e-21
-1.69769e-05 -1.17484e-05 -2.68534e-20
1.85611e-06 -2.05414e-05 -1.20311e-20
-8.9491e-06 -1.92659e-05 7.8856e-21
-1.7248e-05 -1.17727e-05 -1.49727e-20
1.05788e-05 -1.89345e-05 -1.5894e-20
1.41215e-05 -1.69882e-05 -2.25306e-20
-2.44023e-06 -6.14331e-05 -6.4604e-22
2.61784e-05 -4.11229e-05 -2.51475e-21
1.74737e-06 -2.07842e-05 -1.63642e-20
1.79575e-05 1.13547e-05 8.00749e-21
-1.44754e-05 -1.49043e-05 4.56747e-21
-9.84042e-06 1.97088e-05 -1.25771e-20
-5.03909e-06 2.10053e-05 2.4958e-20
1.66261e-05 1.42428e-05 1.22662e-21
6.0586e-06 -1.98601e-05 -1.66692e-20
-1.34056e-05 -4.03553e-05 1.72767e-20
-1.98825e-06 2.50388e-05 5.44151e-21
1.47909e-05 1.44542e-05 2.33923e-21
-1.29575e-05 -1.02161e-05 -2.51215e-20
-1.35141e-05 1.06075e-05 -2.51563e-20
4.434e-05 -1.8912e-05 -4.02602e-21
7.56256e-06 -1.33993e-05 -2.77232e-20
-8.31664e-06 -1.26262e-05 -1.44379e-20
2.13292e-05 6.36307e-06 1.1308e-21
1.09936e-05 -5.06588e-05 -3.01718e-20
-3.8449e-05 -3.49008e-05 -1.4749e-20
2.33053e-05 6.20701e-06 -7.54941e-21
-9.32766e-06 -1.828e-05 -6.43225e-21
1.87045e-05 9.4822e-06 -6.69963e-21
-2.85627e-05 -3.25492e-05 1.82432e-20
9.68758e-06 5.00438e-05 5.4694e-21
3.4332e-05 -5.9856e-05 -2.53179e-20
-3.4735e-05 -5.97729e-05 -3.21839e-20
2.78067e-05 -5.2019e-05 -1.06208e-20
-1.26973e-05 4.36305e-05 -9.72646e-21
-6.27569e-06 3.8975e-05 1.80445e-21
-1.87296e-05 8.94533e-06 -2.3274e-21
5.97684e-06 2.42407e-05 -1.85194e-20
-2.39143e-06 1.26533e-05 -2.13761e-20
1.01196e-05 3.23294e-06 2.78484e-20
-3.18828e-06 1.62045e-05 1.95878e-20
-2.47441e-07 2.09904e-05 7.08558e-21
1.66596e-05 9.74998e-06 9.48117e-21
1.71009e-06 5.77206e-05 1.17113e-21
-1.47163e-05 1.0732e-05 -2.75913e-20
1.59484e-05 -6.24623e-06 -9.59517e-21
1.68708e-05 -4.50869e-06 -7.92897e-21
-6.06588e-05 -8.7683e-06 -2.99951e-21
-3.46036e-05 1.67404e-05 -2.28037e-20
-4.35119e-05 -5.25429e-05 -4.90641e-21
8.65598e-06 8.34517e-06 -4.87853e-21
1.4209e-05 7.29209e-06 6.42982e-21
2.68031e-05 -4.1956e-06 -1.57644e-21
-8.10388e-06 -1.3242e-05 -2.47625e-21
1.72155e-05 8.42809e-06 -6.56078e-21
7.33487e-06 -3.00327e-05 1.14217e-20
-1.37128e-05 1.02043e-05 -1.25543e-20
-2.2373e-05 -2.1421e-05 -3.03747e-20
-5.83561e-06 1.62967e-05 -1.46077e-20
-3.27079e-06 2.06772e-05 1.27378e-20
3.38476e-05 2.12951e-05 2.48352e-21
3.61109e-05 -1.92817e-05 9.88923e-21
-4.20677e-05 -1.16222e-05 2.25767e-21
7.63369e-06 7.68525e-06 1.36852e-20
-4.05832e-06 0.000101355 1.33241e-21
8.61662e-07 -0.000104461 -1.09812e-20
5.24509e-05 8.76392e-05 -4.05755e-21
-1.91017e-05 8.45735e-06 -7.29959e-21
-2.63748e-05 5.65458e-05 1.101e-20
5.30291e-05 -8.46341e-05 -1.2414e-20
-1.17197e-05 -1.82811e-05 1.0451e-20
7.79949e-05 6.74933e-05 4.34708e-21
2.3992e-05 -1.79756e-05 -7.14105e-21
-3.6072e-06 -2.98202e-05 -2.735e-20
8.17733e-05 -6.5846e-05 -4.31918e-21
-6.74419e-06 1.45174e-05 -9.11829e-21
-5.38284e-05 -3.48215e-05 2.86339e-21
-4.30104e-05 -9.31235e-05 -2.44399e-20
-2.4111e-05 -5.78003e-05 1.54917e-21
-4.3972e-05 9.41305e-05 5.47848e-21
-1.00926e-05 6.40795e-05 1.59907e-20
1.56317e-05 3.71058e-05 2.89159e-21
-2.79535e-05 3.72379e-05 4.49593e-21
-2.52713e-05 -5.51795e-05 -1.25446e-20
0.000100359 1.73158e-05 -6.04505e-22
-1.69263e-05 1.07663e-05 -8.9667e-21
-5.91195e-06 1.63319e-05 2.64869e-20
-5.07546e-05 3.7637e-05 9.26865e-21
-1.72751e-05 9.94345e-06 -9.31334e-22
9.9196e-05 -1.52623e-05 1.50597e-20
-1.53592e-05 7.79817e-06 -4.30615e-21
7.19212e-06 -1.44939e-05 -2.1595e-20
-7.79641e-05 -6.09439e-05 -7.49723e-22
-2.58772e-05 5.77132e-05 3.32241e-20
-7.9117e-05 6.03713e-05 -3.09227e-21
2.45385e-05 5.19468e-05 8.4398e-21
-1.47666e-05 1.05817e-05 -1.40377e-20
-2.05285e-05 2.44749e-05 -2.01738e-20
-2.85307e-05 4.98145e-05 5.84018e-21
-5.67721e-05 2.07975e-07 -2.17799e-20
-9.44046e-07 1.6295e-05 2.049e-20
-2.88477e-05 -5.0403e-05 -2.05142e-20
-5.81944e-05 -2.19788e-07 -2.05248e-20
-2.83476e-05 4.86929e-05 -2.58105e-20
-1.51893e-05 6.62616e-05 1.14945e-20
-1.78636e-05 4.12577e-05 1.26026e-20
-3.38979e-05 2.71355e-05 -1.1074e-20
2.43812e-05 -6.05653e-06 2.56416e-21
3.80001e-05 -2.19516e-06 -8.5638e-21
1.34814e-05 8.19975e-06 3.91689e-21
-1.04684e-05 -7.39825e-05 -2.48722e-20
-6.94441e-05 -2.79723e-05 -1.77833e-20
3.71297e-05 7.32687e-07 -4.96068e-21
5.83621e-05 -1.08914e-05 1.06702e-20
-1.0583e-05 -1.34961e-05 4.57413e-21
-5.08253e-05 3.76228e-05 -5.18623e-21
-4.61304e-05 5.39963e-05 1.47386e-20
6.23584e-05 -2.22309e-05 2.01607e-20
-2.81755e-05 -5.04936e-05 -1.29815e-20
-2.87751e-05 4.97761e-05 1.10764e-20
-5.72505e-05 -1.17108e-06 -1.13502e-20
-2.65715e-05 5.05943e-05 -1.76478e-20
-5.79492e-05 -8.16957e-07 5.00828e-21
6.60716e-05 1.73913e-05 -1.9093e-20
5.63763e-05 1.29241e-06 -9.22408e-21
5.08966e-05 -2.92719e-05 -3.39378e-20
2.49085e-05 -5.94231e-05 -1.24398e-20
2.99165e-05 -4.88534e-05 4.35949e-22
2.91654e-05 4.86774e-05 -1.73896e-21
2.43434e-05 5.80854e-05 -1.00466e-20
7.57972e-05 -2.00362e-05 1.83048e-20
4.62632e-05 2.90613e-05 9.5821e-21
4.66211e-05 1.37445e-05 7.23806e-21
TENSORS solid_stress_TPM float
375.03 -24.9203 -2.99375e-12
-24.9203 238.569 4.46576e-12
-2.99375e-12 4.46576e-12 197.816

457.001 -21.3202 -6.06937e-12
-21.3202 489.985 1.36454e-12
-6.06937e-12 1.36454e-12 487.108

454.876 28.0431 8.28966e-15
28.0431 463.705 4.02641e-14
8.28966e-15 4.02641e-14 458.456

455.025 -29.8427 -2.49815e-12
-29.8427 482.606 -7.18092e-13
-2.49815e-12 -7.18092e-13 484.854

527.684 19.9309 -3.76943e-12
19.9309 548.454 4.03758e-12
-3.76943e-12 4.03758e-12 527.355

437.308 -18.0743 1.54055e-12
-18.0743 480.335 2.20505e-12
1.54055e-12 2.20505e-12 458.037

372.325 26.4844 -7.53175e-13
26.4844 239.089 2.23939e-12
-7.53175e-13 2.23939e-12 197.801

473.649 29.9578 3.58528e-12
29.9578 469.498 -4.51491e-13
3.58528e-12 -4.51491e-13 472.334

471.545 5.4831 -3.53021e-12
5.4831 417.819 -7.80783e-13
-3.53021e-12 -7.80783e-13 432.792

504.256 -7.47756 -2.84424e-12
-7.47756 444.109 3.21165e-12
-2.84424e-12 3.21165e-12 483.449

360.29 16.3084 8.66862e-13
16.3084 247.654 1.58155e-12
8.66862e-13 1.58155e-12 233.643

444.779 -13.4531 2.31711e-12
-13.4531 498.382 -1.36602e-12
2.31711e-12 -1.36602e-12 472.236

466.864 27.833 2.4419e-12
27.833 468.299 1.69761e-12
2.4419e-12 1.69761e-12 466.731

457.034 -14.34 1.21658e-12
-14.34 500.43 4.08562e-13
1.21658e-12 4.08562e-13 483.454

512.935 33.3114 -1.65793e-14
33.3114 511.594 3.11287e-12
-1.65793e-14 3.11287e-12 515.223

489.168 0.560967 -3.44021e-12
0.560967 435.52 -1.84562e-12
-3.44021e-12 -1.84562e-12 462.268

457.58 -17.9692 2.67357e-12
-17.9692 512.883 2.94017e-12
2.67357e-12 2.94017e-12 493.594

493.954 -2.6652 3.25162e-12
-2.6652 439.045 -2.4809e-12
3.25162e-12 -2.4809e-12 474.261

418.789 26.6735 2.72819e-12
26.6735 449.656 -6.27646e-13
2.72819e-12 -6.27646e-13 424.05

481.977 -4.19554 -3.46982e-13
-4.19554 424.918 3.28611e-12
-3.46982e-13 3.28611e-12 453.471

425.293 8.66852 -1.97176e-13
8.66852 481.899 -6.95148e-13
-1.97176e-13 -6.95148e-13 444.838

634.128 6.28771 -1.81887e-11
6.28771 633.963 -4.95159e-13
-1.81887e-11 -4.95159e-13 570.316

479.148 1.87597 -4.76004e-12
1.87597 422.937 -2.51458e-12
-4.76004e-12 -2.51458e-12 449.728

447.159 -27.715 -1.57208e-13
-27.715 461.146 2.05998e-12
-1.57208e-13 2.05998e-12 452.944

481.045 6.84934 -2.85993e-12
6.84934 425.437 -7.72049e-12
-2.85993e-12 -7.72049e-12 452.934

449.755 19.1128 2.24709e-13
19.1128 490.314 1.6452e-12
2.24709e-13 1.6452e-12 478.202

377.651 4.18133 8.57388e-13
4.18133 291.652 5.71099e-13
8.57388e-13 5.71099e-13 259

462.681 30.7457 2.77941e-12
30.7457 460.711 2.68467e-12
2.77941e-12 2.68467e-12 460.542

384.937 37.074 9.46206e-13
37.074 383.516 -1.23042e-12
9.46206e-13 -1.23042e-12 348.415

586.941 10.3235 3.08879e-12
10.3235 563.449 2.40008e-12
3.08879e-12 2.40008e-12 546.87

491.683 14.2168 -5.88566e-13
14.2168 442.494 6.96036e-13
-5.88566e-13 6.96036e-13 465.852

352.852 -17.7802 -2.8777e-13
-17.7802 416.719 -9.58048e-13
-2.8777e-13 -9.58048e-13 348.586

331.015 -42.1013 -4.4551e-12
-42.1013 335.87 2.78059e-12
-4.4551e-12 2.78059e-12 253.48

531.408 5.98679 -1.55439e-12
5.98679 586.887 -6.13642e-12
-1.55439e-12 -6.13642e-12 538.58

554.022 -4.84073 -1.3302e-12
-4.84073 582.069 -1.69583e-12
-1.3302e-12 -1.69583e-12 542.51

577.985 21.0279 -2.98458e-12
21.0279 539.945 -6.00527e-12
-2.98458e-12 -6.00527e-12 538.348

556.183 5.06754 -3.55671e-12
5.06754 600.673 4.47227e-12
-3.55671e-12 4.47227e-12 547.967

573.773 -9.16993 3.56633e-12
-9.16993 555.763 1.75108e-12
3.56633e-12 1.75108e-12 540.635

467.124 -27.998 -1.52648e-12
-27.998 466.487 -3.81917e-13
-1.52648e-12 -3.81917e-13 465.104

330.399 41.5206 -3.50534e-12
41.5206 337.968 -4.13773e-12
-3.50534e-12 -4.13773e-12 253.839

414.521 -17.9489 -3.73745e-12
-17.9489 354.484 5.18163e-12
-3.73745e-12 5.18163e-12 346.317

559.304 -3.7061 -4.2566e-12
-3.7061 599.922 4.93087e-13
-4.2566e-12 4.93087e-13 548.381

586.411 19.5556 6.00964e-12
19.5556 572.453 -1.26684e-12
6.00964e-12 -1.26684e-12 548.17

490.888 -12.2732 7.63833e-13
-12.2732 442.849 -8.80481e-13
7.63833e-13 -8.80481e-13 466.524

341.705 -43.2986 -1.0066e-12
-43.2986 345.333 -1.66859e-12
-1.0066e-12 -1.66859e-12 288.973

417.547 -18.0632 -4.68958e-13
-18.0632 357.101 -9.91207e-13
-4.68958e-13 -9.91207e-13 351.49

413.001 17.0855 1.94333e-12
17.0855 464.77 -6.26462e-13
1.94333e-12 -6.26462e-13 428.715

429.617 19.3388 1.1496e-12
19.3388 466.5 -2.13933e-12
1.1496e-12 -2.13933e-12 437.068

486.768 -16.3009 1.94215e-12
-16.3009 432.863 -1.33967e-13
1.94215e-12 -1.33967e-13 458.665

355.57 -34.185 2.64559e-12
-34.185 389.39 4.33431e-13
2.64559e-12 4.33431e-13 332.558

410.24 19.1816 -2.79362e-12
19.1816 350.691 -2.13281e-12
-2.79362e-12 -2.13281e-12 339.466

425.188 -25.2881 1.98005e-12
-25.2881 383.809 -3.36886e-12
1.98005e-12 -3.36886e-12 373.065

519.912 19.4858 2.01898e-12
19.4858 547.522 -5.06558e-13
2.01898e-12 -5.06558e-13 525.721

416.4 29.6489 1.95399e-13
29.6489 393.874 -1.76096e-12
1.95399e-13 -1.76096e-12 373.929

522.166 -21.8128 3.22527e-12
-21.8128 541.388 1.10655e-12
3.22527e-12 1.10655e-12 524.368

364.06 -42.7107 -1.75267e-12
-42.7107 343.272 -2.66335e-12
-1.75267e-12 -2.66335e-12 289.69

553.443 5.45974 -3.6704e-12
5.45974 583.862 -4.18066e-12
-3.6704e-12 -4.18066e-12 542.884

373.705 -5.32971 -1.57296e-12
-5.32971 436.65 2.63375e-12
-1.57296e-12 2.63375e-12 373.814

580.811 10.3842 4.27036e-12
10.3842 556.163 1.69577e-12
4.27036e-12 1.69577e-12 542.641

435.045 21.4128 2.43687e-12
21.4128 473.749 -8.92915e-13
2.43687e-12 -8.92915e-13 454.661

513.562 5.75386 5.4549e-13
5.75386 452.796 -5.00785e-13
5.4549e-13 -5.00785e-13 494.855

522.449 11.4589 1.897e-12
11.4589 487.852 -5.89158e-14
1.897e-12 -5.89158e-14 507.069

383.696 31.8195 2.224e-12
31.8195 315.186 -7.02135e-12
2.224e-12 -7.02135e-12 269.864

482.079 -6.03512 4.41321e-12
-6.03512 528.172 -1.35358e-12
4.41321e-12 -1.35358e-12 504.092

487.087 9.51969 1.68339e-12
9.51969 523.681 1.53566e-12
1.68339e-12 1.53566e-12 507.487

456.45 -2.88077 -3.61274e-12
-2.88077 520.148 4.24964e-12
-3.61274e-12 4.24964e-12 487.798

464.446 23.402 5.85369e-12
23.402 503.461 -3.73627e-12
5.85369e-12 -3.73627e-12 495.432

496.738 8.46347 2.78799e-12
8.46347 444.389 -1.01682e-12
2.78799e-12 -1.01682e-12 477.689

445.497 -28.2391 4.12529e-12
-28.2391 459.519 6.987e-13
4.12529e-12 6.987e-13 451.158

501.672 -1.71122 4.59277e-12
-1.71122 444.907 1.47845e-12
4.59277e-12 1.47845e-12 489.06

519.524 -19.2618 -3.28315e-12
-19.2618 546.815 5.69322e-13
-3.28315e-12 5.69322e-13 525.455

523.295 21.3078 1.88442e-12
21.3078 542.912 -5.6644e-13
1.88442e-12 -5.6644e-13 525.257

353.402 -16.5832 -4.32173e-12
-16.5832 415.727 1.75978e-12
-4.32173e-12 1.75978e-12 346.105

506.012 -27.936 4.45806e-12
-27.936 485.302 7.84854e-13
4.45806e-12 7.84854e-13 493.872

449.711 -25.1344 -2.62013e-13
-25.1344 471.211 -3.57995e-12
-2.62013e-13 -3.57995e-12 458.569

357.863 -31.7102 5.39776e-12
-31.7102 285.671 -1.39148e-14
5.39776e-12 -1.39148e-14 249.853

498.492 3.2226 -3.46915e-12
3.2226 541.397 -2.07064e-12
-3.46915e-12 -2.07064e-12 513.634

501.718 28.9438 -3.20159e-12
28.9438 474.541 4.6807e-13
-3.20159e-12 4.6807e-13 487.65

448.436 19.6641 1.98419e-12
19.6641 492.099 -4.38464e-13
1.98419e-12 -4.38464e-13 477.635

440.184 7.99942 -1.97531e-12
7.99942 373.03 -3.20396e-12
-1.97531e-12 -3.20396e-12 382.927

386.444 -33.9351 -1.71004e-12
-33.9351 360.199 -2.74033e-12
-1.71004e-12 -2.74033e-12 319.429

537.714 -10.5875 -8.88208e-12
-10.5875 556.132 -1.13924e-12
-8.88208e-12 -1.13924e-12 531.242

482.649 23.8995 -7.86926e-13
23.8995 504.552 1.48281e-12
-7.86926e-13 1.48281e-12 502.035

385.364 -32.3833 -2.51058e-12
-32.3833 345.3 -7.7686e-13
-2.51058e-12 -7.7686e-13 317.075

422.19 10.7909 -1.97176e-12
10.7909 363.844 -2.57735e-12
-1.97176e-12 -2.57735e-12 350.247

307.646 -21.2057 -3.93197e-12
-21.2057 388.436 -2.60295e-12
-3.93197e-12 -2.60295e-12 288.11

434.437 14.4255 3.9635e-13
14.4255 488.661 1.66326e-12
3.9635e-13 1.66326e-12 460.876

509.713 23.1428 4.39352e-12
23.1428 475.164 -1.67895e-12
4.39352e-12 -1.67895e-12 489.939

338.235 42.1981 5.8975e-13
42.1981 349.565 2.72612e-12
5.8975e-13 2.72612e-12 288.946

634.214 16.5071 -4.96692e-12
16.5071 603.066 1.61888e-11
-4.96692e-12 1.61888e-11 565.32

372.882 -4.10829 -1.62744e-12
-4.10829 436.81 7.34228e-12
-1.62744e-12 7.34228e-12 373.42

637.12 -16.6323 6.2362e-12
-16.6323 599.536 1.32232e-11
6.2362e-12 1.32232e-11 564.827

533.933 -27.3349 5.94428e-12
-27.3349 507.232 1.59591e-12
5.94428e-12 1.59591e-12 515.708

505.289 27.4245 1.23871e-12
27.4245 466.327 3.66048e-12
1.23871e-12 3.66048e-12 485.065

426.918 -24.4102 -2.39216e-12
-24.4102 386.232 5.14492e-12
-2.39216e-12 5.14492e-12 375.972

358.93 31.3228 -1.68991e-12
31.3228 395.998 -3.77772e-12
-1.68991e-12 -3.77772e-12 339.195

339.819 -10.705 1.79412e-13
-10.705 408.385 -3.7114e-12
1.79412e-13 -3.7114e-12 319.1

453.097 21.9706 9.79513e-13
21.9706 494.672 -3.58528e-13
9.79513e-13 -3.58528e-13 483.161

533.107 16.794 1.31066e-12
16.794 506.192 3.64627e-12
1.31066e-12 3.64627e-12 513.347

443.446 15.1537 1.10948e-12
15.1537 488.433 -1.37016e-12
1.10948e-12 -1.37016e-12 464.276

451.474 15.9536 2.45137e-12
15.9536 400.531 3.65633e-14
2.45137e-12 3.65633e-14 403.741

374.482 -21.4722 9.29627e-14
-21.4722 419.86 -9.9476e-14
9.29627e-14 -9.9476e-14 357.192

389.717 -29.3902 2.77112e-12
-29.3902 342.364 2.65269e-12
2.77112e-12 2.65269e-12 314.386

454.959 -24.5729 -3.59061e-12
-24.5729 480.058 1.76303e-12
-3.59061e-12 1.76303e-12 478.364

466.42 27.4508 -5.62513e-13
27.4508 478.737 -2.29772e-12
-5.62513e-13 -2.29772e-12 479.803

452.21 23.1875 -8.36072e-13
23.1875 492.553 -1.3974e-12
-8.36072e-13 -1.3974e-12 482.037

466.291 13.1692 -1.99076e-12
13.1692 529.771 6.31199e-13
-1.99076e-12 6.31199e-13 501.378

490.855 9.37221 3.40705e-12
9.37221 437.883 3.0355e-12
3.40705e-12 3.0355e-12 462.049

327.707 -4.665 -6.108e-12
-4.665 403.375 1.8782e-12
-6.108e-12 1.8782e-12 314.407

462.573 -36.8333 -2.02416e-12
-36.8333 487.684 1.50805e-12
-2.02416e-12 1.50805e-12 492.742

445.844 27.465 -1.26358e-12
27.465 463.264 -7.33635e-13
-1.26358e-12 -7.33635e-13 455.009

305.667 2.1703 5.4264e-12
2.1703 393.355 -3.72088e-12
5.4264e-12 -3.72088e-12 297.251

385.991 34.6098 -4.9738e-13
34.6098 332.443 -6.09172e-12
-4.9738e-13 -6.09172e-12 306.241

453.345 -22.9737 -1.50531e-12
-22.9737 480.064 -1.71863e-12
-1.50531e-12 -1.71863e-12 476.167

501.388 5.73296 2.20801e-12
5.73296 441.309 3.80007e-12
2.20801e-12 3.80007e-12 481.004

422.375 27.2036 -2.3069e-12
27.2036 389.762 4.33846e-12
-2.3069e-12 4.33846e-12 374.229

570.538 12.7455 2.10661e-12
12.7455 565.914 -3.27531e-12
2.10661e-12 -3.27531e-12 542.912

396.173 24.3301 1.01371e-12
24.3301 349.644 -8.68046e-13
1.01371e-12 -8.68046e-13 319.039

569.161 -13.0551 -9.18969e-13
-13.0551 565.826 2.23051e-12
-9.18969e-13 2.23051e-12 542.368

375.087 0.778523 -3.0953e-13
0.778523 438.863 3.59298e-12
-3.0953e-13 3.59298e-12 374.635

461.465 -2.23528 2.72493e-12
-2.23528 399.298 9.72814e-13
2.72493e-12 9.72814e-13 417.276

538.191 -15.768 6.02185e-13
-15.768 480.626 3.41623e-12
6.02185e-13 3.41623e-12 513.473

457.239 24.3881 2.30429e-12
24.3881 487.779 1.87213e-12
2.30429e-12 1.87213e-12 488.349

461.251 -13.535 -1.22184e-12
-13.535 519.13 1.98774e-12
-1.22184e-12 1.98774e-12 495.709

514.964 -8 1.70649e-12
-8 438.186 1.6945e-12
1.70649e-12 1.6945e-12 494.272

488.311 -22.2841 -6.69094e-13
-22.2841 541.598 3.95239e-13
-6.69094e-13 3.95239e-13 515.745

556.048 -6.59646 -3.04497e-12
-6.59646 560.391 -3.74811e-13
-3.04497e-12 -3.74811e-13 538.725

463.861 -29.9081 -2.42828e-12
-29.9081 483.19 -9.68114e-14
-2.42828e-12 -9.68114e-14 483.595

341.703 11.4535 1.48119e-12
11.4535 406.188 -4.91696e-12
1.48119e-12 -4.91696e-12 319.479

422.476 -28.146 3.5314e-12
-28.146 391.237 -5.30479e-12
3.5314e-12 -5.30479e-12 375.142

507.378 -13.7722 7.32355e-12
-13.7722 558.745 -8.12624e-12
7.32355e-12 -8.12624e-12 525.248

501.051 0.504415 -6.67762e-13
0.504415 441.274 3.4334e-12
-6.67762e-13 3.4334e-12 487.081

476.938 -21.5245 2.2539e-12
-21.5245 507.417 -4.70202e-12
2.2539e-12 -4.70202e-12 501.5

459.092 25.6977 2.13089e-12
25.6977 484.595 2.12534e-13
2.13089e-12 2.12534e-13 487.976

394.425 -31.4639 -1.58569e-12
-31.4639 400.594 3.72916e-12
-1.58569e-12 3.72916e-12 357.517

552.124 -7.08508 1.77214e-12
-7.08508 585.293 -1.38556e-12
1.77214e-12 -1.38556e-12 542.599

347.205 -33.0762 3.58587e-12
-33.0762 382.602 -8.43177e-13
3.58587e-12 -8.43177e-13 303.431

490.864 -19.1795 2.00314e-12
-19.1795 448.382 1.69583e-12
2.00314e-12 1.69583e-12 467.119

519.703 1.97025 1.88723e-12
1.97025 466.809 6.92779e-13
1.88723e-12 6.92779e-13 502.827

570.556 17.8751 -7.69725e-12
17.8751 566.477 2.58223e-12
-7.69725e-12 2.58223e-12 542.372

375.286 20.1825 -2.16656e-12
20.1825 424.026 -3.49705e-12
-2.16656e-12 -3.49705e-12 360.216

489.076 27.2103 -2.21393e-12
27.2103 468.534 1.29792e-12
-2.21393e-12 1.29792e-12 476.634

454.373 -24.5112 -2.52006e-12
-24.5112 415.337 2.02031e-12
-2.52006e-12 2.02031e-12 418.597

454.713 -17.8384 -4.42294e-13
-17.8384 494.901 2.36966e-12
-4.42294e-13 2.36966e-12 482.636

379.193 35.0676 1.86754e-12
35.0676 366.025 1.85096e-12
1.86754e-12 1.85096e-12 317.044

449.147 -21.831 -3.89525e-12
-21.831 491.698 6.6495e-13
-3.89525e-12 6.6495e-13 479.768

485.485 30.8502 5.8975e-13
30.8502 465.13 6.82121e-13
5.8975e-13 6.82121e-13 473.44

480.316 -25.2438 -4.6955e-13
-25.2438 442.361 1.9309e-12
-4.6955e-13 1.9309e-12 455.437

448.212 -25.1261 1.59073e-12
-25.1261 469.761 4.10812e-12
1.59073e-12 4.10812e-12 458.09

445.338 -18.6878 6.11067e-13
-18.6878 393.455 -6.70101e-12
6.11067e-13 -6.70101e-12 397.252

470.647 -18.8493 -2.5769e-12
-18.8493 422.847 1.94511e-12
-2.5769e-12 1.94511e-12 437.525

458.992 -25.3369 -2.88362e-13
-25.3369 485.422 -4.97528e-12
-2.88362e-13 -4.97528e-12 488.819

386.535 35.9687 -4.448e-12
35.9687 381.982 2.64203e-12
-4.448e-12 2.64203e-12 348.111

444.488 15.3766 -1.88294e-13
15.3766 491.525 1.28608e-12
-1.88294e-13 1.28608e-12 467.133

469.389 26.422 1.28875e-12
26.422 479.951 -7.56432e-13
1.28875e-12 -7.56432e-13 482.539

456.135 25.4736 -1.92812e-12
25.4736 486.639 4.10042e-14
-1.92812e-12 4.10042e-14 487.239

457.8 11.6214 3.68663e-13
11.6214 506.932 1.93564e-12
3.68663e-13 1.93564e-12 486.008

431.943 -8.22684 -1.52056e-12
-8.22684 370.749 -3.55434e-12
-1.52056e-12 -3.55434e-12 363.3

376.772 18.606 -6.53699e-13
18.606 427.258 -2.06413e-12
-6.53699e-13 -2.06413e-12 363.876

452.305 -24.3803 -8.92323e-13
-24.3803 478.377 8.94692e-13
-8.92323e-13 8.94692e-13 470.704

440.738 25.6655 -1.9155e-12
25.6655 455.632 1.77813e-12
-1.9155e-12 1.77813e-12 437.798

390.948 -35.6286 2.61717e-12
-35.6286 380.27 -4.33727e-12
2.61717e-12 -4.33727e-12 350.084

368.934 38.3158 4.55932e-12
38.3158 327.246 -4.72511e-13
4.55932e-12 -4.72511e-13 295.676

363.639 -33.3103 -3.06777e-12
-33.3103 394.427 1.85096e-12
-3.06777e-12 1.85096e-12 341.972

397.922 -31.1589 1.86754e-12
-31.1589 404.184 6.12251e-13
1.86754e-12 6.12251e-13 362.966

502.848 -6.83865 -1.85985e-12
-6.83865 442.241 8.0469e-13
-1.85985e-12 8.0469e-13 482.309

393.156 30.3411 1.83675e-12
30.3411 408.97 -7.99361e-13
1.83675e-12 -7.99361e-13 363.426

429.692 13.2944 -2.9831e-12
13.2944 372.239 9.23706e-13
-2.9831e-12 9.23706e-13 362.706

350.136 13.3785 4.5793e-12
13.3785 418.505 -2.60532e-12
4.5793e-12 -2.60532e-12 348.467

379.471 -22.3399 -4.29997e-12
-22.3399 423.503 -4.18036e-13
-4.29997e-12 -4.18036e-13 363.44

491.2 -1.09151 -1.52478e-12
-1.09151 550.87 -2.84809e-13
-1.52478e-12 -2.84809e-13 516.298

372.855 2.24656 1.62537e-13
2.24656 437.778 6.13317e-12
1.62537e-13 6.13317e-12 373.512

357.882 31.0886 -3.73568e-12
31.0886 399.477 2.59348e-13
-3.73568e-12 2.59348e-13 341.953

457.982 12.1077 2.61957e-12
12.1077 510.552 -6.39607e-12
2.61957e-12 -6.39607e-12 488.395

421.443 -27.647 -5.17394e-12
-27.647 389.063 -1.87346e-12
-5.17394e-12 -1.87346e-12 375.064

524.748 20.5569 1.07884e-12
20.5569 469.741 2.95467e-13
1.07884e-12 2.95467e-13 500.727

534.918 26.2704 2.82085e-12
26.2704 506.852 -2.44545e-13
2.82085e-12 -2.44545e-13 516.086

494.808 -18.5674 1.97176e-12
-18.5674 449.017 3.52903e-13
1.97176e-12 3.52903e-13 470.848

554.577 -1.80113 -4.35207e-14
-1.80113 516.016 -2.35871e-12
-4.35207e-14 -2.35871e-12 525.709

473.279 -31.8116 -1.82225e-12
-31.8116 475.688 3.76973e-12
-1.82225e-12 3.76973e-12 478.569

412.589 23.3273 -3.41061e-12
23.3273 357.188 1.24759e-12
-3.41061e-12 1.24759e-12 348.084

464.168 30.162 -1.59872e-13
30.162 482.759 1.17358e-12
-1.59872e-13 1.17358e-12 483.196

464.431 29.2058 6.15804e-14
29.2058 482.232 4.83524e-12
6.15804e-14 4.83524e-12 482.757

393.938 30.6602 -3.95417e-12
30.6602 405.715 -5.44631e-12
-3.95417e-12 -5.44631e-12 360.861

502.846 27.0849 -2.2086e-12
27.0849 482.658 -1.14101e-12
-2.2086e-12 -1.14101e-12 490.726

415.342 3.52508 -6.96924e-12
3.52508 339.01 9.73074e-13
-6.96924e-12 9.73074e-13 340.817

493.114 31.8172 -5.2669e-13
31.8172 487.215 1.37668e-13
-5.2669e-13 1.37668e-13 495.567

476.319 -12.5997 -1.67577e-12
-12.5997 522.443 1.48444e-12
-1.67577e-12 1.48444e-12 500.24

536.919 24.2782 -5.1464e-12
24.2782 507.395 -3.25488e-12
-5.1464e-12 -3.25488e-12 516.623

468.169 -29.5787 4.08592e-12
-29.5787 479.961 -1.95991e-13
4.08592e-12 -1.95991e-13 483.053

464.553 -4.89808 3.59485e-12
-4.89808 521.548 2.44545e-12
3.59485e-12 2.44545e-12 490.971

400.931 -24.5558 -1.07055e-12
-24.5558 349.016 2.55203e-12
-1.07055e-12 2.55203e-12 323.943

418.958 29.6925 3.55508e-12
29.6925 392.456 8.88178e-13
3.55508e-12 8.88178e-13 373.762

352.337 14.6962 2.7421e-12
14.6962 417.203 6.80937e-13
2.7421e-12 6.80937e-13 348.232

500.521 -1.13888 2.17707e-12
-1.13888 442.786 2.46358e-12
2.17707e-12 2.46358e-12 487.701

492.463 0.0022305 -7.26234e-13
0.0022305 438.095 -5.13404e-13
-7.26234e-13 -5.13404e-13 474.411

452.958 23.1237 6.48962e-13
23.1237 479.699 2.56358e-12
6.48962e-13 2.56358e-12 475.578

481.296 23.8709 -1.24937e-13
23.8709 502.867 3.07387e-12
-1.24937e-13 3.07387e-12 501.246

456.58 -24.3807 3.02595e-12
-24.3807 487.345 1.67126e-13
3.02595e-12 1.67126e-13 488.49

457.829 -0.672742 2.34433e-12
-0.672742 517.935 -8.32519e-13
2.34433e-12 -8.32519e-13 486.393

458.878 25.5903 -2.93691e-13
25.5903 486.462 2.14125e-13
-2.93691e-13 2.14125e-13 488.512

465.554 -10.3078 -2.50585e-12
-10.3078 408.079 2.3741e-12
-2.50585e-12 2.3741e-12 427.218

400.86 -32.8329 -2.03867e-12
-32.8329 414.951 -2.88007e-12
-2.03867e-12 -2.88007e-12 385.161

518.093 -2.30067 1.83054e-12
-2.30067 465.736 -2.70302e-13
1.83054e-12 -2.70302e-13 500.924

391.868 -34.5077 -1.65793e-12
-34.5077 379.602 -1.15463e-12
-1.65793e-12 -1.15463e-12 347.414

477.998 19.0861 2.83033e-13
19.0861 509.199 -6.29126e-13
2.83033e-13 -6.29126e-13 501.843

506.11 -26.4787 6.03961e-13
-26.4787 470.245 4.44237e-12
6.03961e-13 4.44237e-12 487.271

424.997 -9.69011 -4.68958e-12
-9.69011 366.728 9.41469e-14
-4.68958e-12 9.41469e-14 355.978

530.265 -23.1919 7.09062e-12
-23.1919 488.756 6.52515e-13
7.09062e-12 6.52515e-13 506.488

500.89 2.35826 -1.91417e-12
2.35826 444.575 -2.06124e-12
-1.91417e-12 -2.06124e-12 489.203

521.19 -23.3214 5.00518e-12
-23.3214 501.841 1.74557e-12
5.00518e-12 1.74557e-12 508.532

502.014 -25.8594 2.99612e-13
-25.8594 461.49 9.61897e-13
2.99612e-13 9.61897e-13 481.242

498.825 -8.54606 -1.33848e-12
-8.54606 445.134 9.49907e-13
-1.33848e-12 9.49907e-13 479.343

482.219 -23.0681 3.15599e-12
-23.0681 504.991 1.48459e-12
3.15599e-12 1.48459e-12 502.534

428.537 -31.3415 -1.39503e-12
-31.3415 410.586 2.75572e-12
-1.39503e-12 2.75572e-12 398.995

503.266 -24.5871 6.28238e-13
-24.5871 464.712 2.7874e-12
6.28238e-13 2.7874e-12 482.158

441.238 10.8643 1.93268e-12
10.8643 378.479 1.75711e-12
1.93268e-12 1.75711e-12 387.796

500.036 26.3402 -1.61352e-12
26.3402 498.583 -1.00808e-12
-1.61352e-12 -1.00808e-12 500.104

463.748 -37.613 1.36187e-13
-37.613 488.387 -4.10975e-12
1.36187e-13 -4.10975e-12 494.081

464.857 37.2653 -4.63629e-13
37.2653 487.299 1.94963e-12
-4.63629e-13 1.94963e-12 493.796

446.325 -28.5734 -2.72142e-12
-28.5734 500.013 -8.8729e-13
-2.72142e-12 -8.8729e-13 492.311

448.56 27.0642 1.50184e-12
27.0642 500.704 -3.52222e-12
1.50184e-12 -3.52222e-12 492.498

513.068 -8.52765 1.82387e-12
-8.52765 436.404 -6.5888e-13
1.82387e-12 -6.5888e-13 492.758

511.231 9.27366 -1.40821e-12
9.27366 438 2.72449e-12
-1.40821e-12 2.72449e-12 492.396

501.654 -9.84612 -4.86722e-13
-9.84612 451.741 -1.92735e-13
-4.86722e-13 -1.92735e-13 483.019

510.864 32.1162 2.07242e-14
32.1162 510.389 2.93105e-12
2.07242e-14 2.93105e-12 514.054

509.64 -32.8543 2.83418e-12
-32.8543 510.067 2.16068e-13
2.83418e-12 2.16068e-13 513.693

481.809 16.0685 1.00364e-12
16.0685 539.13 -1.28223e-12
1.00364e-12 -1.28223e-12 514.326

483.002 -15.801 3.26731e-12
-15.801 538.72 9.52127e-13
3.26731e-12 9.52127e-13 514.347

556.869 -3.74758 1.99189e-12
-3.74758 506.832 -4.55043e-12
1.99189e-12 -4.55043e-12 524.992

558.423 3.61035 5.75244e-13
3.61035 505.156 2.64973e-13
5.75244e-13 2.64973e-13 525.363

387.306 9.83677 -6.00838e-12
9.83677 449.194 5.69618e-13
-6.00838e-12 5.69618e-13 397.084

472.385 -24.774 -1.8859e-13
-24.774 480.752 4.89046e-12
-1.8859e-13 4.89046e-12 484.974

443.458 -36.3876 2.44493e-12
-36.3876 485.529 2.58475e-12
2.44493e-12 2.58475e-12 486.625

473.638 -4.66426 -2.62546e-12
-4.66426 420.433 4.09587e-12
-2.62546e-12 4.09587e-12 436.335

540.253 -16.6948 3.56382e-12
-16.6948 484.191 -2.20446e-12
3.56382e-12 -2.20446e-12 515.287

540.973 16.1757 2.7763e-12
16.1757 485.414 1.58392e-13
2.7763e-12 1.58392e-13 515.892

506.859 0.121882 -2.00284e-13
0.121882 423.548 -3.71718e-12
-2.00284e-13 -3.71718e-12 486.999

384.788 23.375 3.53584e-12
23.375 432.293 3.79667e-12
3.53584e-12 3.79667e-12 385.473

442.33 36.1716 2.62249e-12
36.1716 485.208 4.64073e-13
2.62249e-12 4.64073e-13 485.831

452.594 -23.3957 5.23433e-13
-23.3957 494.95 6.31613e-12
5.23433e-13 6.31613e-12 483.588

443.244 23.3525 -1.45306e-12
23.3525 397.515 5.16032e-12
-1.45306e-12 5.16032e-12 400.37

530.967 23.8582 3.88016e-12
23.8582 488.006 1.17358e-12
3.88016e-12 1.17358e-12 507.246

428.475 -31.3133 -3.86772e-12
-31.3133 410.87 -5.55112e-12
-3.86772e-12 -5.55112e-12 398.814

519.857 -3.23092 7.61169e-13
-3.23092 469.056 1.49125e-12
7.61169e-13 1.49125e-12 502.684

439.392 -34.161 3.2323e-12
-34.161 485.501 3.64153e-14
3.2323e-12 3.64153e-14 485.82

389.18 8.31989 -2.46327e-12
8.31989 452.324 1.7207e-12
-2.46327e-12 1.7207e-12 400.852

385.875 21.8114 2.79658e-12
21.8114 435.769 4.37339e-12
2.79658e-12 4.37339e-12 388.691

383.843 35.7755 -2.14584e-12
35.7755 362.328 1.87939e-12
-2.14584e-12 1.87939e-12 318.324

408.179 1.57874 -2.97717e-12
1.57874 332.152 4.89238e-14
-2.97717e-12 4.89238e-14 327.321

485.452 -22.8045 -2.84632e-12
-22.8045 502.855 3.76088e-13
-2.84632e-12 3.76088e-13 501.746

351.874 31.1836 5.96856e-13
31.1836 388.827 -8.36072e-13
5.96856e-13 -8.36072e-13 312.354

451.345 23.6098 7.6709e-13
23.6098 478.409 5.26986e-13
7.6709e-13 5.26986e-13 465.209

442.192 -5.3495 -1.157e-12
-5.3495 377.122 -2.70702e-12
-1.157e-12 -2.70702e-12 387.734

464.151 11.216 -1.54365e-12
11.216 407.295 -1.75001e-12
-1.54365e-12 -1.75001e-12 424.918

505.374 0.429905 -2.70746e-13
0.429905 421.568 5.28001e-13
-2.70746e-13 5.28001e-13 485.67

449.345 -29.0311 7.64574e-13
-29.0311 501.993 -3.90947e-12
7.64574e-13 -3.90947e-12 493.584

572.508 -6.31898 -3.888e-13
-6.31898 589.481 -5.15558e-12
-3.888e-13 -5.15558e-12 549.25

463.135 37.4116 1.56408e-12
37.4116 487.022 1.51024e-12
1.56408e-12 1.51024e-12 493.06

408.734 1.66327 6.60805e-13
1.66327 331.599 -8.61607e-13
6.60805e-13 -8.61607e-13 308.901

404.23 -32.7866 -2.73973e-12
-32.7866 415.504 5.45934e-12
-2.73973e-12 5.45934e-12 387.385

443.136 36.6131 1.55076e-12
36.6131 485.501 5.83237e-14
1.55076e-12 5.83237e-14 486.567

444.675 -11.1338 -3.32567e-12
-11.1338 498.931 5.04485e-13
-3.32567e-12 5.04485e-13 471.437

386.069 -25.5143 -2.60325e-12
-25.5143 428.896 3.53495e-12
-2.60325e-12 3.53495e-12 384.56

449.445 28.8301 1.32431e-12
28.8301 501.626 9.06238e-13
1.32431e-12 9.06238e-13 493.284

452.706 -26.1416 -1.67984e-12
-26.1416 419.298 9.40877e-13
-1.67984e-12 9.40877e-13 419.513

579.549 10.4834 8.89363e-13
10.4834 582.161 -3.23541e-12
8.89363e-13 -3.23541e-12 549.035

398.324 30.8717 4.58241e-12
30.8717 422.054 2.63848e-12
4.58241e-12 2.63848e-12 388.159

515.702 8.12674 1.52234e-12
8.12674 437.264 2.44545e-12
1.52234e-12 2.44545e-12 494.577

493.801 30.1906 -1.76599e-12
30.1906 484.743 -7.34524e-13
-1.76599e-12 -7.34524e-13 493.798

453.461 23.3318 -3.05267e-12
23.3318 479.158 2.92359e-12
-3.05267e-12 2.92359e-12 475.794

510.698 -32.4889 -2.12867e-13
-32.4889 512.449 7.18758e-13
-2.12867e-13 7.18758e-13 515.003

510.304 -23.1901 3.74219e-13
-23.1901 473.177 3.48758e-13
3.74219e-13 3.48758e-13 489.673

511.398 10.4707 -5.25683e-12
10.4707 557.988 3.85943e-12
-5.25683e-12 3.85943e-12 523.728

452.168 -23.4337 3.78423e-12
-23.4337 480.161 -1.42109e-13
3.78423e-12 -1.42109e-13 468.946

394.406 -9.7077 1.12029e-12
-9.7077 316.41 -1.70952e-12
1.12029e-12 -1.70952e-12 295.572

387.286 -14.2771 -3.46034e-12
-14.2771 306.056 -4.43438e-12
-3.46034e-12 -4.43438e-12 290.046

547.58 16.5294 -4.6357e-12
16.5294 507.76 -4.69136e-12
-4.6357e-12 -4.69136e-12 519.316

436.483 22.5015 -2.83714e-12
22.5015 469.132 -3.23652e-12
-2.83714e-12 -3.23652e-12 447.819

475.958 29.163 2.1565e-12
29.163 467.641 -5.0034e-14
2.1565e-12 -5.0034e-14 471.474

450.296 0.688665 -3.62258e-12
0.688665 392.772 1.42006e-12
-3.62258e-12 1.42006e-12 395.67

478.347 6.57121 1.78203e-12
6.57121 541.274 -1.97945e-12
1.78203e-12 -1.97945e-12 507.536

507.326 16.5408 5.49131e-12
16.5408 461.131 -1.435e-12
5.49131e-12 -1.435e-12 488.075

389.973 -25.7608 -3.42896e-12
-25.7608 430.031 1.6532e-12
-3.42896e-12 1.6532e-12 387.729

456.314 -2.57242 2.36799e-12
-2.57242 517.009 5.8679e-13
2.36799e-12 5.8679e-13 484.836

400.585 13.365 2.224e-12
13.365 452.98 5.70803e-13
2.224e-12 5.70803e-13 404.631

486.909 -29.7131 -1.19904e-12
-29.7131 465.809 -5.38828e-14
-1.19904e-12 -5.38828e-14 474.254

430.294 -29.9471 4.12115e-12
-29.9471 423.624 -2.14939e-12
4.12115e-12 -2.14939e-12 404.95

399.706 31.6225 -1.65201e-12
31.6225 418.227 4.73221e-12
-1.65201e-12 4.73221e-12 385.997

623.998 -15.0202 -7.64189e-12
-15.0202 581.945 -4.34475e-12
-7.64189e-12 -4.34475e-12 557.901

494.518 2.04127 -1.17484e-12
2.04127 552.139 -1.51464e-12
-1.17484e-12 -1.51464e-12 517.92

483.497 20.3001 -7.4681e-13
20.3001 542.038 -5.38236e-13
-7.4681e-13 -5.38236e-13 516.026

544.701 15.4391 3.11188e-12
15.4391 479.966 -3.21817e-13
3.11188e-12 -3.21817e-13 515.748

473.743 -26.1886 3.32149e-12
-26.1886 479.751 2.05939e-12
3.32149e-12 2.05939e-12 483.012

452.12 17.9571 -5.81461e-13
17.9571 404.503 -2.51147e-12
-5.81461e-13 -2.51147e-12 406.913

531.576 -5.29411 1.28738e-12
-5.29411 580.797 -4.44e-12
1.28738e-12 -4.44e-12 537.113

512.182 -18.9882 -3.29633e-12
-18.9882 464.789 2.27966e-14
-3.29633e-12 2.27966e-14 493.023

473.97 -15.5987 3.99029e-12
-15.5987 423.171 3.66196e-12
3.99029e-12 3.66196e-12 438.875

401.995 11.6031 1.01548e-12
11.6031 455.952 1.06345e-12
1.01548e-12 1.06345e-12 407.775

410.918 -25.7339 4.50958e-12
-25.7339 435.576 4.20641e-12
4.50958e-12 4.20641e-12 398.951

532.044 -25.2738 7.9717e-12
-25.2738 523.189 7.28306e-13
7.9717e-12 7.28306e-13 519.114

423.051 31.9591 6.39725e-12
31.9591 417.244 -1.80833e-12
6.39725e-12 -1.80833e-12 400.3

535.477 -25.1347 2.65269e-12
-25.1347 505.784 -4.49626e-12
2.65269e-12 -4.49626e-12 515.655

453.489 2.59734 5.30302e-12
2.59734 397.015 -3.23238e-12
5.30302e-12 -3.23238e-12 401.893

311.096 -28.9302 8.23045e-14
-28.9302 376.593 -8.28967e-14
8.23045e-14 -8.28967e-14 289.992

431.871 -29.2306 1.74438e-12
-29.2306 424.043 4.52379e-12
1.74438e-12 4.52379e-12 406.149

353.757 32.1586 2.32703e-12
32.1586 392.54 -9.07126e-13
2.32703e-12 -9.07126e-13 312.965

470.342 -11.8769 3.6392e-12
-11.8769 529.547 2.33887e-12
3.6392e-12 2.33887e-12 500.299

391.446 -13.8212 -7.16612e-13
-13.8212 449.248 1.51701e-12
-7.16612e-13 1.51701e-12 400.194

602.852 -23.9882 -2.60754e-12
-23.9882 602.265 9.54999e-12
-2.60754e-12 9.54999e-12 557.841

408.367 23.7705 3.76055e-12
23.7705 441.935 1.81307e-12
3.76055e-12 1.81307e-12 402.218

496.573 -32.7263 -3.32771e-12
-32.7263 490.636 -2.50111e-12
-3.32771e-12 -2.50111e-12 497.442

388.185 -11.963 1.388e-12
-11.963 448.28 2.30453e-12
1.388e-12 2.30453e-12 397.011

516.706 -19.1169 -3.07902e-14
-19.1169 465.749 2.27078e-13
-3.07902e-14 2.27078e-13 496.239

410.682 23.8768 3.11158e-12
23.8768 439.307 4.38879e-12
3.11158e-12 4.38879e-12 400.694

488.915 -4.97546 -1.81307e-12
-4.97546 435.066 -4.00828e-13
-1.81307e-12 -4.00828e-13 460.378

305.779 -30.3424 3.31587e-14
-30.3424 391.435 -6.47068e-12
3.31587e-14 -6.47068e-12 262.567

438.605 21.0139 -2.29861e-12
21.0139 473.908 3.34133e-12
-2.29861e-12 3.34133e-12 458.345

445.684 -19.323 1.03029e-13
-19.323 393.974 4.19724e-12
1.03029e-13 4.19724e-12 399.62

551.601 -21.4459 -6.99796e-12
-21.4459 499.514 1.80892e-13
-6.99796e-12 1.80892e-13 520.1

424.467 31.7536 2.59348e-12
31.7536 413.32 2.8321e-12
2.59348e-12 2.8321e-12 397.957

459.16 -29.9714 2.63671e-12
-29.9714 437.635 -2.93987e-13
2.63671e-12 -2.93987e-13 439.297

510.617 20.8852 1.93564e-12
20.8852 476.07 5.58368e-12
1.93564e-12 5.58368e-12 492.754

461.502 -28.0758 1.803e-12
-28.0758 485.739 -9.89505e-13
1.803e-12 -9.89505e-13 488.716

413.718 -26.2249 -3.41534e-12
-26.2249 436.243 -8.59757e-13
-3.41534e-12 -8.59757e-13 401.437

426.073 28.9807 3.03757e-13
28.9807 429.896 7.80294e-12
3.03757e-13 7.80294e-12 406.859

452.499 26.191 -1.07055e-12
26.191 418.226 -1.22628e-12
-1.07055e-12 -1.22628e-12 419.057

521.969 -14.6099 7.15576e-13
-14.6099 477.176 1.32812e-12
7.15576e-13 1.32812e-12 500.063

403.56 -16.6174 2.09314e-13
-16.6174 451.741 3.47811e-12
2.09314e-13 3.47811e-12 406.442

496.045 -17.5682 1.65853e-12
-17.5682 447.606 1.77636e-13
1.65853e-12 1.77636e-13 471.5

487.764 16.9083 9.42061e-13
16.9083 436.258 1.16263e-12
9.42061e-13 1.16263e-12 460.588

513.342 -9.38687 -1.40873e-12
-9.38687 555.778 4.74287e-13
-1.40873e-12 4.74287e-13 523.029

453.977 -13.4299 -6.2883e-13
-13.4299 402.178 3.43488e-12
-6.2883e-13 3.43488e-12 406.742

403.201 0.594013 5.62957e-13
0.594013 465.724 -2.02386e-12
5.62957e-13 -2.02386e-12 417.804

475.025 18.5548 -2.13222e-12
18.5548 428.771 3.19152e-12
-2.13222e-12 3.19152e-12 442.22

451.142 27.6036 -6.57726e-12
27.6036 421.838 -2.69414e-14
-6.57726e-12 -2.69414e-14 420.843

400.868 -15.6859 -2.51088e-12
-15.6859 451.381 -2.47506e-13
-2.51088e-12 -2.47506e-13 403.735

406 -1.20229 1.05412e-12
-1.20229 468.034 -6.07632e-12
1.05412e-12 -6.07632e-12 421.219

516.199 29.1343 5.15143e-14
29.1343 498.026 -3.58824e-12
5.15143e-14 -3.58824e-12 504.876

441.704 -10.922 4.08266e-13
-10.922 500.657 4.02641e-13
4.08266e-13 4.02641e-13 471.148

451.439 -26.715 -1.69761e-12
-26.715 418.766 -7.18596e-12
-1.69761e-12 -7.18596e-12 419.352

444.386 21.3323 3.69364e-12
21.3323 395.298 1.72366e-12
3.69364e-12 1.72366e-12 398.201

497.595 23.6652 -6.44818e-13
23.6652 458.09 1.64165e-12
-6.44818e-13 1.64165e-12 476.55

447.682 5.47072 -1.55431e-15
5.47072 508.79 1.50813e-12
-1.55431e-15 1.50813e-12 476.882

427.649 29.0652 3.65041e-12
29.0652 426.434 5.37822e-12
3.65041e-12 5.37822e-12 405.11

536.822 22.9638 1.75978e-12
22.9638 531.898 -2.44945e-12
1.75978e-12 -2.44945e-12 522.785

314.75 -59.6912 -8.07887e-12
-59.6912 282.769 -5.32433e-12
-8.07887e-12 -5.32433e-12 223.424

480.594 -25.0475 3.46745e-12
-25.0475 445.072 1.03502e-12
3.46745e-12 1.03502e-12 456.646

336.663 7.06982 2.7122e-12
7.06982 409.155 1.71714e-12
2.7122e-12 1.71714e-12 319.44

460.538 -28.889 3.96128e-13
-28.889 444.737 -3.40113e-12
3.96128e-13 -3.40113e-12 443.453

96.4239 -52.7009 -1.80123e-12
-52.7009 306.618 -5.68434e-14
-1.80123e-12 -5.68434e-14 113.699

95.9578 51.4516 -8.50283e-13
51.4516 306.882 -2.77585e-12
-8.50283e-13 -2.77585e-12 114.488

181.517 117.154 -2.88717e-12
117.154 226.076 1.80952e-12
-2.88717e-12 1.80952e-12 113.588

182.815 -117.097 2.72612e-12
-117.097 223.312 -2.31163e-12
2.72612e-12 -2.31163e-12 113.562

321.583 -1.36336 -2.23584e-12
-1.36336 84.6535 5.42332e-14
-2.23584e-12 5.42332e-14 114.929

274.433 -91.1254 -9.04758e-13
-91.1254 127.418 2.71664e-12
-9.04758e-13 2.71664e-12 113.802

275.129 91.6532 2.41111e-12
91.6532 128.251 -8.43177e-13
2.41111e-12 -8.43177e-13 114.572

525.24 14.3302 -1.82106e-12
14.3302 474.712 5.84214e-12
-1.82106e-12 5.84214e-12 502.315

556.797 25.5366 -1.80981e-12
25.5366 541.184 -4.23217e-13
-1.80981e-12 -4.23217e-13 533.45

492.092 6.60599 6.97457e-12
6.60599 439.121 3.47929e-12
6.97457e-12 3.47929e-12 471.402

470.299 21.7844 9.92983e-13
21.7844 424.517 -1.68813e-12
9.92983e-13 -1.68813e-12 438.194

409.975 17.7443 -2.46514e-12
17.7443 461.073 -1.23812e-12
-2.46514e-12 -1.23812e-12 425.043

448.01 28.8982 -6.1231e-12
28.8982 424.705 -2.63493e-13
-6.1231e-12 -2.63493e-13 420.75

487.149 -29.6633 -3.31113e-12
-29.6633 465.628 -2.33384e-12
-3.31113e-12 -2.33384e-12 474.59

449.368 28.0275 -1.59754e-12
28.0275 421.071 3.52488e-12
-1.59754e-12 3.52488e-12 418.642

402.963 -2.84122 2.71072e-12
-2.84122 465.381 -2.40045e-12
2.71072e-12 -2.40045e-12 417.54

555.804 -26.0974 1.25677e-12
-26.0974 543.377 2.46484e-12
1.25677e-12 2.46484e-12 533.694

405.501 -4.86234 -1.12621e-12
-4.86234 467.119 -2.98073e-12
-1.12621e-12 -2.98073e-12 420.6

522.293 23.0161 2.46914e-12
23.0161 499.743 -1.04065e-13
2.46914e-12 -1.04065e-13 507.97

423.378 26.8704 3.14415e-12
26.8704 386.507 3.90266e-12
3.14415e-12 3.90266e-12 373.027

480.11 -13.2161 1.41709e-12
-13.2161 532.769 3.26554e-13
1.41709e-12 3.26554e-13 512.001

484.198 13.7278 2.12926e-12
13.7278 432.776 3.17731e-12
2.12926e-12 3.17731e-12 456.875

457.368 -29.9874 -5.14433e-12
-29.9874 436.977 9.14824e-14
-5.14433e-12 9.14824e-14 437.833

454.308 -24.7133 9.31995e-13
-24.7133 416.804 -3.12964e-12
9.31995e-13 -3.12964e-12 419.853

547.405 -16.0746 5.17157e-12
-16.0746 509.306 -4.38079e-12
5.17157e-12 -4.38079e-12 519.385

475.972 27.9287 -6.03961e-13
27.9287 449.706 1.57711e-12
-6.03961e-13 1.57711e-12 456.925

469.101 23.9773 1.94215e-12
23.9773 427.849 8.03801e-13
1.94215e-12 8.03801e-13 439.83

432.429 -2.79294 9.94131e-13
-2.79294 493.637 -1.03029e-12
9.94131e-13 -1.03029e-12 457.107

417.607 5.87332 5.76306e-13
5.87332 479.557 6.00409e-13
5.76306e-13 6.00409e-13 440.177

463.011 2.64669 3.73035e-14
2.64669 402.28 -1.0277e-12
3.73035e-14 -1.0277e-12 422.321

438.647 -7.28959 -1.05279e-12
-7.28959 373.915 3.65737e-12
-1.05279e-12 3.65737e-12 381.218

454.844 30.4845 6.90411e-13
30.4845 439.015 3.57285e-12
6.90411e-13 3.57285e-12 437.837

478.465 -26.1552 -2.59763e-12
-26.1552 443.543 -1.90248e-12
-2.59763e-12 -1.90248e-12 454.646

525.701 -21.2543 -7.964e-13
-21.2543 497.829 -6.43574e-12
-7.964e-13 -6.43574e-12 508.619

437.733 -31.6334 4.31063e-12
-31.6334 437.655 -2.61421e-12
4.31063e-12 -2.61421e-12 426.859

417.59 -27.7853 -7.92847e-13
-27.7853 444.396 2.14229e-12
-7.92847e-13 2.14229e-12 419.688

430.647 29.8869 -1.82787e-12
29.8869 442.744 -2.78651e-12
-1.82787e-12 -2.78651e-12 426.497

416.225 -9.57785 3.9635e-14
-9.57785 475.211 7.79821e-13
3.9635e-14 7.79821e-13 436.455

428.895 -1.54477 -1.60005e-12
-1.54477 491.868 3.07902e-12
-1.60005e-12 3.07902e-12 453.995

445.182 5.74794 3.15638e-12
5.74794 508.043 2.50407e-12
3.15638e-12 2.50407e-12 474.915

414.619 -21.0889 1.89863e-12
-21.0889 458.407 3.37745e-12
1.89863e-12 3.37745e-12 426.065

496.869 24.1111 -3.31587e-14
24.1111 455.696 1.12029e-12
-3.31587e-14 1.12029e-12 474.593

483.373 -9.5897 -6.94556e-13
-9.5897 430.112 2.34746e-12
-6.94556e-13 2.34746e-12 455.221

415.633 7.46523 5.81683e-12
7.46523 477.121 2.46854e-12
5.81683e-12 2.46854e-12 436.913

443.955 -9.70107 2.66077e-12
-9.70107 501.504 7.09359e-13
2.66077e-12 7.09359e-13 471.007

433.174 -16.3306 -2.58889e-12
-16.3306 481.676 -3.82923e-12
-2.58889e-12 -3.82923e-12 455.668

463.539 -8.23915 2.65032e-12
-8.23915 406.335 1.64313e-13
2.65032e-12 1.64313e-13 421.471

494.434 -32.3468 -2.32111e-12
-32.3468 487.616 3.84344e-12
-2.32111e-12 3.84344e-12 496.251

422.944 9.3208 -3.20529e-12
9.3208 479.091 1.90189e-12
-3.20529e-12 1.90189e-12 440.98

564.359 -18.2126 -5.88389e-12
-18.2126 529.952 2.54004e-12
-5.88389e-12 2.54004e-12 531.832

309.049 24.8226 5.37348e-12
24.8226 379.423 2.06057e-12
5.37348e-12 2.06057e-12 289.798

501.699 -26.6261 -4.74672e-12
-26.6261 499.491 9.64414e-13
-4.74672e-12 9.64414e-13 501.2

515.65 -30.2028 2.50585e-12
-30.2028 498.405 -5.59168e-12
2.50585e-12 -5.59168e-12 504.919

429.223 -0.701292 2.36944e-12
-0.701292 491.994 3.61548e-12
2.36944e-12 3.61548e-12 454.145

474.881 -16.6225 2.14347e-12
-16.6225 428.337 3.39018e-12
2.14347e-12 3.39018e-12 441.956

462.306 12.8416 -5.28227e-12
12.8416 511.275 -2.65506e-12
-5.28227e-12 -2.65506e-12 489.122

240.776 -3.18052 -5.04271e-12
-3.18052 360.688 -3.67114e-12
-5.04271e-12 -3.67114e-12 226.966

432.404 14.2736 -4.90156e-12
14.2736 485.357 -9.10679e-13
-4.90156e-12 -9.10679e-13 456.883

458.112 -29.4891 -9.00021e-14
-29.4891 443.171 1.51168e-12
-9.00021e-14 1.51168e-12 440.763

304.187 25.1056 4.5155e-12
25.1056 394.585 -8.97415e-12
4.5155e-12 -8.97415e-12 264.341

603.551 26.098 2.49401e-12
26.098 597.957 1.26172e-11
2.49401e-12 1.26172e-11 558.158

608.285 -27.8074 -6.28993e-12
-27.8074 595.031 1.4055e-11
-6.28993e-12 1.4055e-11 558.292

463.494 -30.419 -2.46144e-12
-30.419 459.039 -1.92202e-12
-2.46144e-12 -1.92202e-12 459.073

434.585 -31.1601 -1.59221e-12
-31.1601 436.36 -2.94579e-12
-1.59221e-12 -2.94579e-12 424.663

474.102 20.8274 4.77129e-12
20.8274 431.916 1.15138e-12
4.77129e-12 1.15138e-12 443.973

465.223 15.006 -6.75608e-13
15.006 410.117 -4.50336e-12
-6.75608e-13 -4.50336e-12 427.464

646.07 3.08355 5.79914e-12
3.08355 645.728 -7.22622e-12
5.79914e-12 -7.22622e-12 574.62

649.891 -7.00012 5.68138e-12
-7.00012 641.398 -1.51235e-11
5.68138e-12 -1.51235e-11 575.149

496.989 4.8243 9.31403e-13
4.8243 442.035 5.67531e-12
9.31403e-13 5.67531e-12 477.414

443.558 6.73097 -4.56716e-12
6.73097 502.99 -7.79229e-13
-4.56716e-12 -7.79229e-13 471.051

441.973 6.73632 3.61827e-12
6.73632 502.515 6.59621e-13
3.61827e-12 6.59621e-13 469.774

321.536 58.6341 -1.79767e-12
58.6341 281.123 -7.18122e-12
-1.79767e-12 -7.18122e-12 225.077

420.229 -28.1997 -6.762e-13
-28.1997 444.024 -4.03884e-12
-6.762e-13 -4.03884e-12 421.033

520.579 17.9745 1.54484e-12
17.9745 467.531 1.56112e-12
1.54484e-12 1.56112e-12 499.51

472.98 9.53972 -3.95417e-12
9.53972 421.198 -5.40767e-12
-3.95417e-12 -5.40767e-12 436.204

440.631 -26.7232 2.89842e-12
-26.7232 450.727 -3.17376e-13
2.89842e-12 -3.17376e-13 433.416

469.277 -20.2376 -4.32247e-14
-20.2376 422.717 -3.7419e-12
-4.32247e-14 -3.7419e-12 437.177

312.473 60.232 -4.50484e-12
60.232 281.372 1.75859e-12
-4.50484e-12 1.75859e-12 223.215

492.682 31.0691 -2.08781e-12
31.0691 489.043 -1.61974e-12
-2.08781e-12 -1.61974e-12 493.139

410.864 -19.786 -4.29849e-12
-19.786 457.882 1.06581e-13
-4.29849e-12 1.06581e-13 423.499

474.129 28.8576 7.51991e-14
28.8576 449.632 9.88839e-14
7.51991e-14 9.88839e-14 456.519

430.957 -4.14481 -4.12122e-12
-4.14481 492.974 -6.46002e-13
-4.12122e-12 -6.46002e-13 456.468

423.931 19.6091 3.88667e-12
19.6091 465.712 -3.30166e-12
3.88667e-12 -3.30166e-12 434.109

452.748 30.5187 -6.32383e-12
30.5187 443.599 2.29209e-12
-6.32383e-12 2.29209e-12 439.609

428.644 -22.4731 2.40282e-12
-22.4731 461.138 -1.03502e-12
2.40282e-12 -1.03502e-12 433.814

443.575 -27.3525 5.63638e-12
-27.3525 450.434 -5.96619e-12
5.63638e-12 -5.96619e-12 435.046

294.779 11.2569 5.06469e-12
11.2569 372.586 7.13148e-12
5.06469e-12 7.13148e-12 258.102

357.299 -33.4561 -8.23045e-13
-33.4561 389.117 -5.63934e-12
-8.23045e-13 -5.63934e-12 314.129

419.659 -11.6905 1.80152e-13
-11.6905 476.362 -1.43885e-12
1.80152e-13 -1.43885e-12 439.346

478.398 26.4845 8.7752e-13
26.4845 446.8 4.65938e-12
8.7752e-13 4.65938e-12 456.085

452.346 29.4779 2.89487e-12
29.4779 449.027 -1.93386e-12
2.89487e-12 -1.93386e-12 442.4

426.809 -21.4338 1.46135e-12
-21.4338 461.784 -2.00255e-12
1.46135e-12 -2.00255e-12 432.631

422.932 -11.7823 -3.93878e-12
-11.7823 476.648 -5.32907e-14
-3.93878e-12 -5.32907e-14 439.929

457.707 28.4094 -1.78524e-12
28.4094 447.088 -2.21097e-12
-1.78524e-12 -2.21097e-12 442.572

425.106 -13.8778 1.1342e-12
-13.8778 476.42 -1.42109e-13
1.1342e-12 -1.42109e-13 442.106

311.265 27.8549 -4.75175e-12
27.8549 377.391 -8.47914e-13
-4.75175e-12 -8.47914e-13 289.985

485.171 -4.04128 -4.81398e-12
-4.04128 545.05 4.01812e-12
-4.81398e-12 4.01812e-12 511.038

432.986 31.0274 -5.17157e-12
31.0274 439.629 -8.23045e-13
-5.17157e-12 -8.23045e-13 426.02

509.311 14.9012 1.61885e-12
14.9012 463.163 2.13459e-13
1.61885e-12 2.13459e-13 488.606

516.922 -15.9275 1.24315e-12
-15.9275 467.583 1.40036e-12
1.24315e-12 1.40036e-12 493.924

383.926 -24.2045 8.81073e-13
-24.2045 305.948 -1.96465e-12
8.81073e-13 -1.96465e-12 285.355

442.28 -21.2672 -2.95142e-12
-21.2672 476 -3.84877e-13
-2.95142e-12 -3.84877e-13 459.321

447.828 26.6982 -7.01661e-14
26.6982 466.208 2.08781e-12
-7.01661e-14 2.08781e-12 457.842

522.976 -21.7279 -2.37025e-12
-21.7279 543.812 3.07191e-12
-2.37025e-12 3.07191e-12 525.31

579.585 14.1067 4.37043e-12
14.1067 617.622 3.1708e-12
4.37043e-12 3.1708e-12 557.053

620.208 9.44534 3.27723e-12
9.44534 576.842 9.59233e-13
3.27723e-12 9.59233e-13 556.872

523.471 32.7055 -1.20111e-12
32.7055 520.652 -1.37979e-12
-1.20111e-12 -1.37979e-12 519.525

414.892 26.0003 -7.13799e-13
26.0003 448.906 1.79234e-12
-7.13799e-13 1.79234e-12 420.377

478.096 26.6614 2.02623e-12
26.6614 444.771 -1.63366e-12
2.02623e-12 -1.63366e-12 455.508

332.363 45.1858 -1.20555e-12
45.1858 349.49 -1.67214e-12
-1.20555e-12 -1.67214e-12 286.74

571.392 -11.3437 -3.67928e-12
-11.3437 614.472 7.22356e-12
-3.67928e-12 7.22356e-12 554.596

641.327 -3.43294 -1.69825e-11
-3.43294 636.87 1.31086e-11
-1.69825e-11 1.31086e-11 572.397

634.905 -0.210041 3.19004e-13
-0.210041 643.178 1.35299e-13
3.19004e-13 1.35299e-13 572.224

272.964 -53.8024 1.74794e-12
-53.8024 316.447 2.68822e-12
1.74794e-12 2.68822e-12 220.909

566.639 -11.6 -1.89596e-12
-11.6 562.126 -3.09412e-12
-1.89596e-12 -3.09412e-12 540.899

563.772 8.81303 5.59375e-12
8.81303 586.963 -2.02593e-12
5.59375e-12 -2.02593e-12 546.841

478.244 -26.1995 -7.51991e-13
-26.1995 440.442 -4.44977e-13
-7.51991e-13 -4.44977e-13 453.482

494.349 1.01107 -9.8499e-13
1.01107 545.759 4.35385e-12
-9.8499e-13 4.35385e-12 514.057

447.651 -20.2678 -1.70101e-12
-20.2678 484.158 -2.11979e-13
-1.70101e-12 -2.11979e-13 470.637

506.301 6.25533 -1.68843e-12
6.25533 443.375 9.52497e-13
-1.68843e-12 9.52497e-13 486.125

461.275 15.5963 1.93378e-13
15.5963 521.253 3.37537e-12
1.93378e-13 3.37537e-12 497.557

471.181 7.19161 -2.13268e-12
7.19161 528.006 -8.49868e-12
-2.13268e-12 -8.49868e-12 497.691

493.763 20.3927 -7.51991e-13
20.3927 451.518 1.0966e-12
-7.51991e-13 1.0966e-12 469.751

241.066 -3.1139 -3.5012e-12
-3.1139 358.56 -6.7691e-12
-3.5012e-12 -6.7691e-12 227.064

463.701 -27.6236 -2.01261e-12
-27.6236 463.391 2.07952e-12
-2.01261e-12 2.07952e-12 461.191

488.345 -26.1163 -4.04832e-12
-26.1163 481.598 -7.70051e-13
-4.04832e-12 -7.70051e-13 485.869

497.538 -31.4837 1.28727e-12
-31.4837 489.958 5.93747e-12
1.28727e-12 5.93747e-12 498.981

355.6 32.7495 -3.5764e-13
32.7495 285.779 -8.92915e-13
-3.5764e-13 -8.92915e-13 248.366

563.882 -20.1165 -4.66382e-12
-20.1165 569.614 -5.75207e-12
-4.66382e-12 -5.75207e-12 542.571

337.648 54.3221 -7.89176e-12
54.3221 356.658 1.80715e-12
-7.89176e-12 1.80715e-12 258.875

477.072 -21.4396 1.55905e-12
-21.4396 506.49 -8.6479e-13
1.55905e-12 -8.6479e-13 500.244

504.773 14.6504 -9.68707e-13
14.6504 451.987 -4.81097e-12
-9.68707e-13 -4.81097e-12 481.56

449.831 -14.5724 -4.95011e-13
-14.5724 396.987 1.10711e-12
-4.95011e-13 1.10711e-12 400.84

452.594 24.0467 3.36235e-12
24.0467 478.78 1.62773e-12
3.36235e-12 1.62773e-12 467.848

493.667 20.4279 -4.3799e-12
20.4279 449.501 -5.15617e-12
-4.3799e-12 -5.15617e-12 469.342

505.566 11.4006 -3.75981e-12
11.4006 564.417 -1.76748e-13
-3.75981e-12 -1.76748e-13 526.712

475.896 -31.5801 4.63866e-12
-31.5801 470.356 -4.99423e-12
4.63866e-12 -4.99423e-12 475.064

559.271 19.8124 -4.46665e-12
19.8124 510.44 3.02898e-12
-4.46665e-12 3.02898e-12 526.488

439.958 -18.4434 3.0879e-12
-18.4434 482.465 -2.39275e-12
3.0879e-12 -2.39275e-12 459.149

465.898 4.28316 1.10837e-12
4.28316 526.108 -4.68366e-12
1.10837e-12 -4.68366e-12 495.51

588.64 9.92674 -4.08473e-12
9.92674 552.462 -2.11135e-12
-4.08473e-12 -2.11135e-12 545.189

590.423 -8.51336 -4.09036e-12
-8.51336 554.804 3.59638e-12
-4.09036e-12 3.59638e-12 545.707

382.309 18.5123 -3.51482e-12
18.5123 302.287 3.99088e-12
-3.51482e-12 3.99088e-12 286.134

502.678 7.965 1.64106e-12
7.965 453.6 -1.63839e-12
1.64106e-12 -1.63839e-12 487.765

232.816 7.74044 -4.41336e-12
7.74044 381.516 9.66338e-13
-4.41336e-12 9.66338e-13 187.187

236.985 -11.3851 -5.32311e-12
-11.3851 387.209 -1.35003e-12
-5.32311e-12 -1.35003e-12 189.451

249.288 56.4066 4.52616e-12
56.4066 354.777 -1.35477e-12
4.52616e-12 -1.35477e-12 184.023

505.015 -28.9504 -6.85082e-13
-28.9504 478.615 -6.26728e-12
-6.85082e-13 -6.26728e-12 491.344

258.472 -49.1901 1.32161e-12
-49.1901 341.841 6.30962e-12
1.32161e-12 6.30962e-12 220.734

249.293 -55.9491 1.70767e-12
-55.9491 344.752 5.4096e-12
1.70767e-12 5.4096e-12 181.116

434.654 26.2199 -7.62472e-12
26.2199 454.392 6.85082e-13
-7.62472e-12 6.85082e-13 432.824

329.924 73.8433 1.9232e-12
73.8433 280.01 5.42381e-12
1.9232e-12 5.42381e-12 184.827

540.127 13.0473 -1.72603e-12
13.0473 554.947 1.95903e-12
-1.72603e-12 1.95903e-12 532.077

562.384 0.0393658 5.79255e-12
0.0393658 532.454 -6.1835e-12
5.79255e-12 -6.1835e-12 531.87

338.602 -73.1288 -9.04284e-12
-73.1288 279.858 -1.7053e-12
-9.04284e-12 -1.7053e-12 186.31

432.669 -23.4238 1.85866e-12
-23.4238 466.31 -4.8163e-12
1.85866e-12 -4.8163e-12 447.571

358.931 34.7288 9.82917e-13
34.7288 310.975 -4.41721e-12
9.82917e-13 -4.41721e-12 258.037

267.705 63.4904 4.14246e-12
63.4904 345.21 5.68434e-14
4.14246e-12 5.68434e-14 185.845

293.693 21.63 4.52379e-12
21.63 367.66 6.72884e-12
4.52379e-12 6.72884e-12 254.497

267.576 -65.9192 5.4096e-12
-65.9192 344.846 9.56864e-13
5.4096e-12 9.56864e-13 184.301

291.64 -12.381 -5.28407e-12
-12.381 370.882 1.63425e-13
-5.28407e-12 1.63425e-13 253.443

550.307 6.84177 2.6706e-12
6.84177 582.078 -8.9555e-12
2.6706e-12 -8.9555e-12 541.117

329.889 -45.9743 8.08479e-12
-45.9743 341.815 2.55322e-12
8.08479e-12 2.55322e-12 276.614

259.781 47.5314 4.56405e-12
47.5314 340.216 -7.43701e-13
4.56405e-12 -7.43701e-13 223.145

370.216 37.911 -3.18797e-12
37.911 244.92 4.49655e-12
-3.18797e-12 4.49655e-12 187.357

481.89 -29.2855 2.72375e-14
-29.2855 460.511 2.7045e-12
2.72375e-14 2.7045e-12 467.714

480.977 12.8967 3.58158e-13
12.8967 525.829 2.58786e-12
3.58158e-13 2.58786e-12 504.104

354.418 -38.112 4.57116e-13
-38.112 300.077 -2.61006e-12
4.57116e-13 -2.61006e-12 251.814

482.534 -28.802 -4.5078e-12
-28.802 460.321 1.26092e-12
-4.5078e-12 1.26092e-12 468.463

365.264 -36.3429 -5.43802e-12
-36.3429 230.989 1.12029e-12
-5.43802e-12 1.12029e-12 182.77

481.502 -28.3173 3.67647e-12
-28.3173 472.755 -7.05628e-12
3.67647e-12 -7.05628e-12 477.918

436.353 -25.2947 -6.30607e-13
-25.2947 466.224 4.64221e-13
-6.30607e-13 4.64221e-13 448.209

314.798 69.4598 1.88531e-12
69.4598 292.142 -8.76336e-13
1.88531e-12 -8.76336e-13 184.524

290.782 -22.9325 -8.44362e-13
-22.9325 359.164 -6.16751e-12
-8.44362e-13 -6.16751e-12 247.029

312.4 -71.6918 9.90023e-13
-71.6918 288.122 -6.30962e-12
9.90023e-13 -6.30962e-12 182.026

268.546 50.7368 2.79125e-12
50.7368 320.059 -2.74743e-12
2.79125e-12 -2.74743e-12 221.504

459.861 -30.2119 -1.67451e-12
-30.2119 454.845 5.21094e-12
-1.67451e-12 5.21094e-12 454.4

559.286 -14.6403 -4.69728e-12
-14.6403 544.412 2.58726e-12
-4.69728e-12 2.58726e-12 533.717

635.923 11.0926 1.07572e-11
11.0926 631.384 1.0155e-11
1.07572e-11 1.0155e-11 570.02

619.957 -5.16 -2.20964e-12
-5.16 639.739 -1.34477e-11
-2.20964e-12 -1.34477e-11 568.497

453.869 13.0836 6.3242e-13
13.0836 506.555 8.24822e-13
6.3242e-13 8.24822e-13 482.572

634.152 -10.667 1.11966e-11
-10.667 631.314 1.50309e-12
1.11966e-11 1.50309e-12 569.875

622.696 4.09174 -8.06466e-13
4.09174 642.685 1.04574e-11
-8.06466e-13 1.04574e-11 569.699

643.375 7.43409 3.23001e-12
7.43409 619.148 4.24638e-12
3.23001e-12 4.24638e-12 569.022

584.776 -12.1152 2.66735e-12
-12.1152 631.668 -6.22672e-12
2.66735e-12 -6.22672e-12 560.593

307.444 -30.4698 -2.61835e-12
-30.4698 371.632 -8.95284e-13
-2.61835e-12 -8.95284e-13 280.769

589.626 -12.9721 1.16055e-13
-12.9721 549.113 -1.23516e-12
1.16055e-13 -1.23516e-12 543.827

527.206 -34.4177 -4.41958e-12
-34.4177 521.487 3.01033e-12
-4.41958e-12 3.01033e-12 519.965

565.464 -18.1768 -1.09838e-12
-18.1768 537.99 2.83773e-12
-1.09838e-12 2.83773e-12 534.258

502.57 15.4592 -8.81665e-13
15.4592 452.115 -4.27924e-12
-8.81665e-13 -4.27924e-12 480.207

586.349 9.86425 -7.14614e-13
9.86425 642.135 1.82738e-11
-7.14614e-13 1.82738e-11 563.103

636.658 19.2276 1.41931e-12
19.2276 591.723 4.13688e-12
1.41931e-12 4.13688e-12 562.925

569.776 11.3063 4.58182e-12
11.3063 544.339 -1.07455e-12
4.58182e-12 -1.07455e-12 536.436

353.442 -15.3392 2.72612e-12
-15.3392 231.516 -7.70347e-13
2.72612e-12 -7.70347e-13 219.014

437.206 24.9639 -1.04237e-11
24.9639 461.912 -5.10229e-12
-1.04237e-11 -5.10229e-12 445.722

317.09 -61.3543 1.79057e-12
-61.3543 277.849 -7.10069e-12
1.79057e-12 -7.10069e-12 218.088

334.208 -57.4569 1.74794e-12
-57.4569 357.322 6.8449e-13
1.74794e-12 6.8449e-13 252.539

383.334 -36.5438 8.08835e-12
-36.5438 305.739 9.50943e-13
8.08835e-12 9.50943e-13 257.76

562.497 -5.15896 -6.66711e-12
-5.15896 616.952 3.84048e-12
-6.66711e-12 3.84048e-12 552.95

562.204 2.89123 2.08293e-12
2.89123 615.817 6.8073e-12
2.08293e-12 6.8073e-12 552.549

598.77 -24.4563 1.07174e-13
-24.4563 575.742 -7.3445e-13
1.07174e-13 -7.3445e-13 551.578

602.33 -21.7606 -6.60442e-12
-21.7606 573.433 -1.27572e-12
-6.60442e-12 -1.27572e-12 551.844

598.783 26.136 -1.36928e-12
26.136 580.458 -2.09655e-12
-1.36928e-12 -2.09655e-12 552.734

625.742 3.09949 5.46985e-12
3.09949 630.735 1.35315e-11
5.46985e-12 1.35315e-11 568.42

599.06 -20.5089 -6.717e-12
-20.5089 576.354 1.33908e-12
-6.717e-12 1.33908e-12 552.267

607.81 -18.5683 -2.61524e-12
-18.5683 620.263 -1.58512e-11
-2.61524e-12 -1.58512e-11 563.186

632.9 2.43454 1.42718e-11
2.43454 635.527 9.40877e-12
1.42718e-11 9.40877e-12 570.505

607.886 -20.5263 4.08007e-12
-20.5263 572.427 1.7503e-12
4.08007e-12 1.7503e-12 553.406

607.072 20.9559 5.26623e-12
20.9559 573.685 1.202e-13
5.26623e-12 1.202e-13 553.809

633.852 -3.45856 -1.87702e-13
-3.45856 636.778 7.25553e-12
-1.87702e-13 7.25553e-12 571.28

632.182 -3.11725 -2.11573e-11
-3.11725 625.756 1.41333e-11
-2.11573e-11 1.41333e-11 569.395

609.682 12.1098 8.3736e-12
12.1098 620.485 -5.31434e-12
8.3736e-12 -5.31434e-12 563.917

587.203 26.9297 3.91509e-12
26.9297 583.019 8.43945e-13
3.91509e-12 8.43945e-13 551.702

FIELD solute_concentration_TPM 2
S_ext 1 563 float
0.983406
0.983216
0.983236
0.983217
0.983187
0.983236
0.983405
0.983227
0.983253
0.98322
0.983367
0.983227
0.983231
0.983219
0.983194
0.983235
0.983211
0.983226
0.983257
0.983239
0.983245
0.983132
0.983241
0.983239
0.98324
0.983222
0.983357
0.983234
0.983305
0.98316
0.983232
0.983303
0.983362
0.983169
0.983168
0.983169
0.983157
0.983171
0.983233
0.983362
0.983304
0.983156
0.983156
0.983232
0.983337
0.983303
0.983255
0.98325
0.983236
0.983313
0.983308
0.983289
0.983185
0.98329
0.983186
0.983343
0.983168
0.983289
0.983168
0.983238
0.98321
0.983202
0.983353
0.983204
0.983202
0.983216
0.983209
0.983223
0.98324
0.983215
0.983185
0.983185
0.983305
0.983211
0.983237
0.983366
0.983196
0.983216
0.983222
0.983282
0.983322
0.983182
0.983206
0.983324
0.983303
0.98334
0.983234
0.983215
0.983337
0.983141
0.983289
0.983141
0.983193
0.983218
0.983289
0.983308
0.983323
0.98322
0.983197
0.983233
0.983271
0.983301
0.983324
0.983222
0.983221
0.983221
0.983205
0.983235
0.983325
0.98321
0.983238
0.983333
0.983328
0.983224
0.983221
0.98329
0.983171
0.983325
0.983171
0.983289
0.983261
0.983195
0.983215
0.98321
0.98321
0.983193
0.983175
0.98322
0.983324
0.983288
0.983183
0.983216
0.983205
0.983215
0.983301
0.983167
0.983334
0.983231
0.983205
0.983167
0.983298
0.983224
0.983261
0.98322
0.983326
0.983221
0.983226
0.983238
0.983237
0.983274
0.983249
0.983215
0.983303
0.983231
0.98322
0.983216
0.983218
0.983298
0.983297
0.983228
0.98325
0.983302
0.983336
0.983306
0.983296
0.98322
0.983297
0.983298
0.983304
0.983296
0.983193
0.983289
0.983308
0.983216
0.983289
0.983205
0.983193
0.983228
0.983186
0.983223
0.983305
0.98322
0.98322
0.983297
0.983214
0.983309
0.98321
0.983207
0.983194
0.98322
0.983214
0.983322
0.983289
0.983303
0.983216
0.983225
0.983224
0.983205
0.983215
0.983217
0.983215
0.983256
0.983282
0.983206
0.983306
0.983205
0.983217
0.9833
0.983201
0.983215
0.983201
0.983221
0.983222
0.983205
0.983273
0.98322
0.983281
0.983207
0.98321
0.98321
0.98321
0.983211
0.983211
0.983211
0.98322
0.983194
0.983195
0.983194
0.983194
0.983187
0.983186
0.983274
0.983218
0.983215
0.983252
0.983195
0.983194
0.983215
0.98328
0.983215
0.98322
0.983273
0.9832
0.983274
0.983206
0.983215
0.983272
0.983279
0.983323
0.983314
0.983205
0.983329
0.983232
0.983281
0.983257
0.983216
0.98321
0.983157
0.98321
0.983333
0.983279
0.983215
0.983227
0.983282
0.98321
0.983261
0.983157
0.98328
0.98321
0.983212
0.983224
0.983195
0.983215
0.983186
0.98323
0.983335
0.983341
0.983192
0.983244
0.983227
0.983276
0.9832
0.983217
0.983279
0.983218
0.98327
0.983226
0.983271
0.98328
0.983147
0.983191
0.983192
0.983192
0.983219
0.98327
0.983171
0.983213
0.983249
0.983269
0.983275
0.983191
0.983273
0.983195
0.983274
0.983337
0.98327
0.983327
0.983206
0.983272
0.983147
0.983273
0.983209
0.983274
0.983211
0.983273
0.983236
0.98336
0.983236
0.983274
0.983189
0.983273
0.983248
0.983213
0.983215
0.983273
0.98327
0.983261
0.983208
0.98327
0.983228
0.983235
0.983188
0.98327
0.983262
0.983247
0.983261
0.983271
0.98326
0.983203
0.983227
0.983262
0.983273
0.983224
0.983224
0.98327
0.983188
0.983373
0.983238
0.983323
0.983246
0.983432
0.983432
0.983429
0.98343
0.983427
0.983437
0.983437
0.983205
0.983177
0.983227
0.983249
0.983256
0.983261
0.983226
0.983261
0.983262
0.983177
0.98326
0.983202
0.983289
0.983196
0.983237
0.983249
0.983261
0.983192
0.983238
0.983248
0.983237
0.983248
0.983259
0.983283
0.983249
0.983239
0.9832
0.983256
0.98326
0.983256
0.98325
0.983239
0.983225
0.983256
0.983225
0.983238
0.983249
0.983227
0.983238
0.983259
0.98321
0.983247
0.983178
0.983337
0.983206
0.983203
0.983239
0.983248
0.983215
0.983373
0.983236
0.983248
0.983359
0.983151
0.983151
0.983235
0.983257
0.983246
0.983256
0.983132
0.983131
0.983224
0.983228
0.983228
0.983378
0.983259
0.983208
0.983252
0.983253
0.98325
0.983373
0.983212
0.983258
0.983238
0.983237
0.983252
0.983249
0.983252
0.983252
0.98336
0.983327
0.983248
0.983238
0.983247
0.983253
0.983248
0.983247
0.983247
0.983338
0.983197
0.983256
0.983216
0.983211
0.98334
0.983236
0.983236
0.983188
0.983145
0.983145
0.98319
0.98326
0.983238
0.983341
0.983148
0.983131
0.98313
0.983375
0.98317
0.983159
0.98324
0.983195
0.983228
0.983218
0.983208
0.983208
0.983229
0.983373
0.983235
0.983218
0.983209
0.983367
0.983165
0.983365
0.983207
0.983221
0.983272
0.983231
0.983229
0.983182
0.983225
0.983182
0.983236
0.98321
0.983164
0.983164
0.983342
0.983216
0.983408
0.983409
0.983408
0.983213
0.983379
0.983409
0.983254
0.983407
0.983181
0.983181
0.983407
0.983243
0.983363
0.983412
0.983362
0.983412
0.983363
0.983169
0.983347
0.983378
0.983405
0.98323
0.983203
0.983365
0.983229
0.983406
0.983223
0.983243
0.983413
0.983366
0.983413
0.983374
0.983238
0.983177
0.983131
0.983132
0.983219
0.983131
0.983131
0.983132
0.983143
0.983344
0.983164
0.983191
0.983178
0.983221
0.983141
0.983141
0.983177
0.983374
0.983244
0.983382
0.983369
0.983361
0.983149
0.983149
0.983151
0.983151
0.983149
0.983135
0.983154
0.983142
0.983135
0.983151
0.983151
0.983134
0.983134
0.983141
0.983154
P_ext 1 563 float
0.0197997
0.0197949
0.0197956
0.0197949
0.0197931
0.0197955
0.0197997
0.0197952
0.0197961
0.0197949
0.0197989
0.0197952
0.0197953
0.0197949
0.0197936
0.0197955
0.0197945
0.0197952
0.0197962
0.0197957
0.0197958
0.0197898
0.0197957
0.0197956
0.0197957
0.0197951
0.0197987
0.0197954
0.0197975
0.0197915
0.0197954
0.0197975
0.0197988
0.0197921
0.0197921
0.0197921
0.0197914
0.0197922
0.0197954
0.0197988
0.0197975
0.0197914
0.0197914
0.0197954
0.0197982
0.0197975
0.0197962
0.019796
0.0197955
0.0197977
0.0197976
0.0197971
0.019793
0.0197971
0.0197931
0.0197984
0.0197921
0.0197971
0.0197921
0.0197956
0.0197945
0.0197941
0.0197986
0.0197941
0.019794
0.0197946
0.0197945
0.0197951
0.0197957
0.0197947
0.0197931
0.0197931
0.0197975
0.0197944
0.0197956
0.0197989
0.0197937
0.0197947
0.019795
0.0197969
0.0197979
0.0197929
0.0197942
0.019798
0.0197974
0.0197983
0.0197954
0.0197945
0.0197982
0.0197901
0.0197971
0.0197901
0.0197935
0.0197947
0.0197971
0.0197976
0.0197979
0.019795
0.0197937
0.0197954
0.0197966
0.0197974
0.0197979
0.0197951
0.019795
0.019795
0.0197941
0.0197955
0.019798
0.0197946
0.0197956
0.0197982
0.019798
0.0197951
0.0197951
0.0197971
0.0197921
0.019798
0.0197921
0.0197971
0.0197963
0.0197937
0.0197948
0.0197945
0.0197945
0.0197935
0.0197923
0.0197949
0.0197979
0.0197971
0.0197929
0.0197949
0.0197942
0.0197948
0.0197974
0.019792
0.0197982
0.0197953
0.0197942
0.019792
0.0197973
0.019795
0.0197963
0.0197949
0.019798
0.019795
0.019795
0.0197955
0.0197956
0.0197967
0.0197959
0.0197948
0.0197974
0.0197954
0.0197949
0.0197948
0.0197948
0.0197973
0.0197973
0.0197953
0.019796
0.0197974
0.0197982
0.0197975
0.0197973
0.019795
0.0197973
0.0197974
0.0197975
0.0197973
0.0197935
0.0197971
0.0197976
0.0197948
0.0197971
0.0197942
0.0197935
0.0197951
0.0197931
0.019795
0.0197975
0.019795
0.019795
0.0197973
0.0197945
0.0197976
0.0197945
0.0197942
0.0197935
0.019795
0.0197945
0.0197979
0.0197971
0.0197975
0.0197948
0.0197952
0.0197951
0.0197943
0.0197948
0.0197947
0.0197948
0.0197962
0.0197969
0.0197943
0.0197975
0.0197942
0.0197946
0.0197974
0.0197939
0.0197947
0.0197939
0.0197949
0.019795
0.0197942
0.0197966
0.0197948
0.0197969
0.0197942
0.0197945
0.0197945
0.0197946
0.0197946
0.0197946
0.0197946
0.0197949
0.0197936
0.0197936
0.0197936
0.0197936
0.0197931
0.019793
0.0197967
0.0197948
0.0197948
0.0197961
0.0197935
0.0197935
0.0197948
0.0197969
0.0197948
0.0197949
0.0197967
0.0197939
0.0197967
0.0197942
0.0197948
0.0197967
0.0197969
0.0197979
0.0197977
0.0197943
0.0197981
0.0197954
0.0197969
0.0197962
0.0197949
0.0197945
0.0197914
0.0197946
0.0197982
0.0197968
0.0197948
0.0197952
0.0197969
0.0197945
0.0197963
0.0197914
0.0197969
0.0197945
0.0197945
0.0197952
0.0197936
0.0197945
0.0197931
0.0197953
0.0197982
0.0197983
0.0197933
0.0197958
0.0197952
0.0197967
0.0197938
0.0197948
0.0197969
0.0197947
0.0197966
0.019795
0.0197966
0.0197969
0.0197907
0.0197934
0.0197935
0.0197935
0.0197949
0.0197966
0.0197922
0.0197946
0.0197959
0.0197966
0.0197967
0.0197933
0.0197967
0.0197935
0.0197967
0.0197982
0.0197966
0.019798
0.0197942
0.0197967
0.0197907
0.0197967
0.0197943
0.0197967
0.0197944
0.0197967
0.0197955
0.0197987
0.0197956
0.0197967
0.0197933
0.0197967
0.0197959
0.0197945
0.0197948
0.0197967
0.0197966
0.0197963
0.0197942
0.0197966
0.0197952
0.0197955
0.0197932
0.0197966
0.0197963
0.0197959
0.0197963
0.0197966
0.0197963
0.0197939
0.0197952
0.0197964
0.0197967
0.019795
0.019795
0.0197966
0.0197932
0.019799
0.0197955
0.0197979
0.0197958
0.0198002
0.0198002
0.0198002
0.0198002
0.0198001
0.0198003
0.0198003
0.0197941
0.0197924
0.0197952
0.0197959
0.0197962
0.0197963
0.019795
0.0197963
0.0197964
0.0197924
0.0197963
0.0197939
0.0197971
0.0197937
0.0197955
0.019796
0.0197963
0.0197933
0.0197955
0.0197959
0.0197955
0.0197959
0.0197963
0.0197969
0.0197959
0.0197956
0.0197939
0.0197962
0.0197963
0.0197962
0.019796
0.0197956
0.019795
0.0197962
0.019795
0.0197956
0.019796
0.0197952
0.0197956
0.0197963
0.0197944
0.0197959
0.0197926
0.0197982
0.0197942
0.0197939
0.0197956
0.0197959
0.0197947
0.019799
0.0197955
0.0197959
0.0197987
0.0197908
0.0197908
0.0197955
0.0197962
0.0197959
0.0197962
0.0197895
0.0197895
0.0197951
0.0197952
0.0197952
0.0197991
0.0197963
0.0197943
0.0197961
0.0197961
0.019796
0.019799
0.0197944
0.0197963
0.0197956
0.0197955
0.0197961
0.0197959
0.0197961
0.019796
0.0197987
0.019798
0.0197959
0.0197955
0.0197959
0.0197961
0.019796
0.0197959
0.0197959
0.0197983
0.0197937
0.0197962
0.0197947
0.0197945
0.0197983
0.0197955
0.0197956
0.0197931
0.0197907
0.0197907
0.0197933
0.0197963
0.0197955
0.0197983
0.0197908
0.0197897
0.0197897
0.0197991
0.0197922
0.0197915
0.0197956
0.0197936
0.0197953
0.0197948
0.0197944
0.0197943
0.0197952
0.019799
0.0197955
0.0197947
0.0197943
0.0197989
0.0197919
0.0197989
0.0197943
0.0197949
0.0197966
0.0197954
0.0197952
0.0197929
0.0197951
0.0197929
0.0197956
0.0197944
0.0197916
0.0197916
0.0197984
0.0197947
0.0197997
0.0197998
0.0197997
0.0197945
0.0197992
0.0197998
0.0197961
0.0197997
0.0197928
0.0197928
0.0197997
0.0197958
0.0197988
0.0197998
0.0197988
0.0197998
0.0197988
0.0197921
0.0197985
0.0197991
0.0197997
0.0197953
0.0197941
0.0197989
0.0197952
0.0197997
0.019795
0.0197958
0.0197999
0.0197989
0.0197999
0.019799
0.0197956
0.0197926
0.0197898
0.0197898
0.0197948
0.0197897
0.0197898
0.0197898
0.0197904
0.0197984
0.0197918
0.0197933
0.0197925
0.0197949
0.0197903
0.0197903
0.0197925
0.019799
0.0197959
0.0197992
0.019799
0.0197988
0.0197909
0.019791
0.0197911
0.019791
0.019791
0.0197899
0.0197911
0.0197902
0.0197897
0.0197909
0.0197909
0.0197897
0.0197899
0.0197902
0.0197911
FIELD solute_flux_TPM 2
S_ext 3 563 float
-5.37808e-05 1.79902e-05 -9.38695e-19
2.34323e-06 4.49485e-06 4.99332e-19
-8.32801e-06 -6.61485e-06 -1.73944e-19
-2.74409e-06 2.7678e-06 2.85183e-18
1.51944e-05 -4.34309e-06 4.63108e-18
1.811e-06 -1.03945e-05 -2.00287e-18
-5.29593e-05 -1.82091e-05 -1.45424e-19
-9.09462e-06 -6.76969e-06 -3.19364e-18
1.45002e-05 6.14618e-07 -1.15494e-18
7.53346e-06 -2.64687e-06 -1.16317e-18
3.58055e-05 8.33679e-06 1.70844e-18
1.52225e-06 -1.12602e-05 -2.01819e-18
8.9956e-06 7.33326e-06 -2.17148e-18
1.76014e-06 9.00784e-06 -4.70789e-18
1.37758e-05 -2.02073e-06 -1.71846e-19
-1.05714e-05 -1.72364e-07 6.44214e-19
1.84113e-06 9.28135e-06 3.35275e-19
6.7185e-06 -1.60823e-06 2.02047e-18
6.4564e-06 1.12572e-05 1.1616e-18
-9.63388e-06 1.21857e-06 -1.85003e-18
-2.33244e-06 -1.38438e-05 -6.65085e-19
2.86298e-05 4.03949e-05 -3.88794e-18
1.03346e-05 1.05504e-06 2.17108e-18
7.38872e-06 -7.38934e-06 -2.00559e-18
-9.77539e-06 -2.16288e-06 -6.83941e-19
-4.262e-07 -7.27159e-06 5.01169e-19
4.10895e-05 -3.21681e-06 -1.55528e-19
9.28182e-06 6.7319e-06 -2.32872e-18
-1.62609e-05 -1.32013e-05 2.41967e-18
3.24409e-05 -8.58645e-06 2.43654e-18
-1.07485e-05 -3.95559e-06 1.65022e-18
3.47213e-06 -2.08497e-05 -5.4188e-21
3.08292e-05 -3.14242e-05 1.25594e-18
-3.4572e-06 -2.77179e-05 1.54876e-18
-1.95844e-05 2.43797e-05 -2.58936e-18
-2.57317e-05 -1.08546e-05 -6.40837e-18
2.15062e-05 2.81637e-05 -2.78797e-18
-2.96039e-05 -5.79691e-06 -1.783e-19
9.51204e-06 -7.23565e-06 8.28361e-19
3.01184e-05 3.2745e-05 -3.11803e-19
2.0993e-05 -9.18912e-06 8.1186e-19
2.19335e-05 -2.71075e-05 -2.79288e-18
-1.25157e-05 -3.25282e-05 -4.36328e-18
-1.03008e-05 4.16544e-06 -8.53293e-19
1.97238e-05 -1.92923e-05 9.49584e-19
-1.94727e-05 6.92319e-06 -1.56156e-19
-2.67278e-06 -1.3194e-05 -1.4917e-18
5.13926e-06 1.31582e-05 3.99012e-18
-1.06377e-05 3.86119e-06 1.65966e-18
-1.17056e-05 1.84069e-05 2.56978e-18
2.11836e-05 9.97878e-06 -1.76847e-18
1.91453e-05 -6.64465e-06 -9.74147e-19
-1.03972e-05 1.04176e-05 -2.2204e-18
-1.51585e-05 -1.31683e-05 3.41696e-18
-1.40059e-05 -3.4282e-06 -5.83053e-18
-2.8754e-05 1.71238e-05 2.37417e-18
-1.9388e-05 -2.50898e-05 -6.97571e-19
4.00319e-06 -1.98218e-05 8.08541e-19
-3.14302e-05 4.2874e-06 -3.12612e-18
3.96845e-06 8.95935e-06 1.50691e-18
-3.64313e-06 -5.39966e-06 3.51887e-18
-4.29591e-06 -1.18452e-05 2.69206e-18
3.71248e-05 1.61794e-05 -6.3061e-19
6.14916e-06 1.19413e-05 -2.89005e-18
8.16271e-06 -9.51922e-06 -3.46202e-19
-1.11921e-06 -1.36503e-05 -1.0195e-18
3.07725e-06 -5.79539e-06 1.68217e-18
-6.56367e-06 -3.64671e-06 2.15588e-18
-6.93687e-06 7.71961e-06 -4.33124e-18
1.68333e-06 -2.76871e-06 -2.00394e-18
-9.9668e-06 -1.04792e-05 -3.77287e-18
-1.41258e-05 3.43701e-06 -6.993e-19
-2.49418e-06 2.22099e-05 -1.60639e-19
-1.17413e-05 7.03233e-06 -1.02108e-18
-5.9276e-06 9.45823e-06 -5.1788e-18
-3.83529e-05 4.76961e-06 -1.55208e-19
5.22385e-06 -1.42961e-05 -7.41295e-21
-1.24144e-05 -5.77373e-06 -3.3914e-18
1.25729e-06 7.62181e-06 1.01386e-18
1.72302e-05 3.30868e-06 -8.07216e-19
2.22162e-05 -1.89342e-05 -2.72649e-18
1.47503e-05 1.3575e-05 -8.69424e-19
7.96743e-06 -1.94267e-06 1.01788e-18
-2.06857e-05 1.51622e-05 6.48904e-19
2.47054e-05 3.16662e-06 -1.44633e-18
-3.56504e-06 3.17572e-05 2.06377e-18
-1.14805e-06 -1.09952e-05 3.33475e-18
1.2057e-05 6.5473e-06 -1.51803e-18
1.89693e-05 1.98672e-05 -7.87758e-19
4.25375e-05 2.64433e-05 2.80275e-18
-3.5302e-06 1.99199e-05 6.5804e-19
4.44314e-05 -2.4969e-05 -1.77845e-18
-1.79812e-05 3.47379e-06 -1.0326e-18
1.18598e-05 7.33001e-06 3.40117e-19
-1.90318e-05 6.33319e-06 3.25343e-19
1.07365e-05 1.86307e-05 -4.74247e-19
6.38829e-06 -2.86629e-05 2.08255e-18
1.26771e-06 7.61752e-06 -1.16796e-18
-9.70058e-06 -1.16431e-05 -3.60266e-19
1.99334e-06 1.14135e-05 2.51471e-18
1.72607e-05 3.45112e-06 -1.96088e-18
-1.00401e-05 2.1347e-05 8.15513e-19
2.63921e-05 -8.79842e-06 -4.76255e-19
-2.48909e-06 4.83777e-06 -2.18045e-18
6.60907e-06 3.84821e-06 1.34654e-18
-1.46913e-06 -7.39416e-06 -1.3451e-18
2.15888e-06 -1.27175e-05 8.35582e-19
1.14975e-05 2.56805e-06 5.35399e-18
-5.3386e-06 2.65204e-05 -1.27041e-18
-6.51036e-06 1.23644e-07 -5.00899e-19
6.13901e-06 7.77591e-06 -1.99196e-18
-1.75147e-06 -2.70346e-05 9.49066e-19
2.73722e-05 8.4966e-06 -4.73872e-19
2.94412e-06 -4.8689e-06 -3.35744e-18
-7.24883e-06 -2.33509e-06 2.99774e-18
-1.88013e-05 -7.99759e-06 3.90769e-18
1.06373e-05 2.77593e-05 -8.71361e-19
-2.76538e-05 -9.8522e-06 4.643e-18
1.07859e-05 -2.78332e-05 3.1255e-18
-2.44537e-06 -2.06444e-05 2.76765e-18
1.43289e-05 3.94184e-07 2.47898e-18
-4.75546e-06 1.22268e-05 1.16525e-18
-1.04945e-06 2.58953e-06 -3.31667e-19
-2.45386e-06 -1.08997e-05 -3.55371e-18
3.48644e-06 -5.60966e-06 -1.67037e-18
6.21083e-06 1.04822e-05 1.64475e-19
2.23402e-05 7.29543e-06 3.44682e-19
5.76272e-06 -4.86546e-06 3.69124e-18
-5.47857e-06 -2.90113e-05 2.56037e-18
1.66725e-05 -1.2295e-05 -3.90662e-18
3.30562e-06 1.84259e-05 -1.37308e-18
-1.82715e-06 -1.87095e-06 4.51331e-18
-5.708e-06 -5.48056e-06 -2.37226e-18
-3.1495e-06 6.00881e-08 -1.01798e-18
-1.47643e-05 1.82281e-05 -8.01827e-19
1.29188e-05 -2.50046e-05 -3.47357e-18
-1.72464e-05 2.7258e-05 -2.86841e-18
-1.06373e-05 6.1972e-06 2.33591e-18
1.66363e-06 8.16795e-06 8.12673e-18
-1.51661e-05 -2.3672e-05 -4.69197e-18
8.95336e-06 2.17051e-05 8.15531e-19
1.16143e-05 6.10695e-06 -3.27424e-19
1.49334e-05 -5.63733e-06 -5.2744e-18
-8.25217e-07 -7.38534e-06 -6.79364e-19
-2.17181e-05 -1.99736e-05 4.32219e-18
-1.7867e-06 7.39373e-06 -1.00988e-18
1.14185e-05 6.73582e-06 -4.99302e-19
1.24438e-05 -5.87191e-06 -4.49673e-18
5.45145e-06 -9.36479e-06 -2.17736e-18
1.59471e-05 -7.0714e-06 -1.79855e-18
1.25029e-05 -5.92042e-06 -1.48991e-18
3.13788e-06 1.94433e-07 -1.01221e-18
1.6731e-05 1.32454e-05 -1.44601e-18
-1.75922e-06 -1.10871e-05 -3.39632e-19
-6.87647e-06 -2.87237e-06 -6.84279e-19
7.53947e-07 -2.54142e-06 2.34489e-18
-2.10721e-06 1.03955e-05 1.18542e-18
-2.22664e-05 1.75828e-06 3.2834e-19
-7.87569e-06 -2.13598e-05 2.59273e-18
-5.15657e-06 6.35034e-06 -4.52223e-18
8.87428e-06 1.08403e-05 -1.31995e-18
1.72642e-05 -1.23121e-05 -1.29075e-18
-2.36864e-05 -1.2841e-05 3.49484e-18
1.12218e-05 -1.79929e-05 -9.67286e-19
1.47943e-05 -1.77194e-05 -9.79272e-19
-7.127e-06 2.50742e-06 1.15381e-18
-1.27942e-05 -1.84144e-05 -8.1581e-19
-2.22484e-05 -3.70046e-06 6.16732e-18
-2.68527e-06 -2.04793e-05 3.06164e-18
9.9341e-06 -2.05621e-05 -3.73795e-18
-6.06267e-06 -1.7347e-05 -4.78783e-18
2.85036e-06 2.03255e-05 -1.60432e-19
-1.0333e-05 -1.83046e-05 -2.25143e-18
1.97999e-06 -1.06866e-05 2.69014e-18
-1.59435e-05 1.16074e-05 2.96589e-21
-9.88992e-06 -8.0038e-06 -1.87368e-19
-1.80996e-05 -3.36548e-06 -2.9163e-18
1.03689e-05 -6.08775e-06 -5.52515e-18
-2.83824e-06 1.58602e-05 -1.05205e-18
8.16361e-06 -6.1298e-06 1.84022e-18
-1.90056e-05 -8.33237e-06 5.00966e-18
-5.79763e-06 -4.83866e-06 1.33613e-18
6.0413e-06 4.91389e-06 -1.65628e-19
1.39027e-05 1.86684e-05 -1.78447e-18
-1.14512e-05 -7.09632e-06 -6.94693e-19
-2.08447e-05 -5.03695e-07 1.60763e-18
-1.07745e-05 -3.23779e-06 -4.07021e-18
-3.02468e-06 -1.09124e-05 -2.37956e-18
1.18409e-05 1.4272e-05 2.3877e-18
-7.21273e-06 3.79236e-06 8.40021e-19
4.49713e-07 -1.35035e-05 -3.47952e-19
-2.67703e-05 6.86403e-06 2.88818e-18
1.6222e-05 1.31971e-05 -3.19507e-19
2.34978e-06 2.13216e-05 -3.17253e-19
-1.57629e-06 2.51483e-06 -3.56767e-19
-5.88033e-06 1.6463e-07 1.81756e-18
2.88799e-06 5.06735e-06 -4.97833e-19
-7.72439e-06 2.28235e-06 -1.92936e-20
-1.34286e-06 -2.46339e-06 -2.19026e-18
1.12272e-06 1.36351e-05 -1.17501e-18
3.00707e-06 2.47424e-07 2.35777e-18
-1.26323e-05 3.05123e-06 3.24017e-19
-1.12609e-05 1.24423e-05 -4.9249e-19
-2.02557e-06 7.65898e-06 6.51769e-19
-1.8856e-05 1.17487e-05 -1.1206e-18
-6.19458e-06 5.91395e-06 4.9188e-18
1.15034e-05 -7.79573e-06 -1.84771e-18
2.38578e-05 -2.37106e-06 1.13681e-18
-1.39817e-05 7.42154e-06 -1.8836e-18
1.46616e-06 2.99236e-06 1.35533e-18
1.46022e-05 -2.82749e-06 -8.53206e-19
-1.13143e-05 6.81602e-06 6.64111e-19
-6.43844e-06 3.63735e-06 8.17222e-19
7.95748e-06 2.5683e-06 1.18266e-18
1.42854e-05 -8.85823e-06 -3.44735e-18
-1.13959e-05 6.47766e-06 3.29676e-19
-1.61149e-05 -3.38811e-06 1.62737e-18
-1.10195e-05 -2.83197e-06 3.54119e-18
6.66232e-06 5.99905e-08 -1.23921e-21
6.8249e-06 7.6716e-08 4.04752e-18
2.9156e-06 5.48258e-06 5.03761e-19
3.21293e-06 -5.79853e-06 3.19176e-18
-3.29075e-06 5.58893e-06 -6.98861e-19
-3.44756e-06 -5.71913e-06 6.87435e-18
6.55765e-06 -4.96116e-06 -2.00745e-18
-1.3485e-05 2.16393e-06 -7.03074e-19
-1.33333e-05 -2.20656e-06 -8.45496e-19
-8.52415e-06 1.05338e-05 3.58241e-18
-8.57224e-06 -1.05744e-05 -1.02231e-18
4.98758e-06 -1.33744e-05 6.98297e-21
4.80531e-06 1.32604e-05 5.1326e-19
9.65612e-07 1.68347e-05 3.43963e-18
7.49728e-06 -2.00325e-06 4.95552e-19
1.62052e-06 -2.52072e-06 -2.18242e-18
-1.37958e-05 9.28482e-07 -4.65614e-18
5.14881e-06 -1.31592e-05 1.37109e-18
4.87863e-06 1.32066e-05 2.55379e-18
3.16976e-06 -5.88993e-08 5.14597e-19
5.78719e-06 1.59144e-05 2.94253e-18
-1.47552e-06 -2.62781e-06 -5.09226e-19
1.54665e-06 -7.42018e-06 -1.01005e-18
-1.4468e-05 -7.75972e-06 2.12795e-18
-1.41145e-05 -7.55432e-06 4.93021e-19
-1.41601e-05 8.75707e-06 -4.10036e-18
2.14756e-06 -8.27251e-06 -1.84898e-18
-1.04852e-06 2.20185e-06 1.51089e-18
-4.69143e-07 -1.65521e-05 -1.96608e-18
-5.09146e-06 -1.57521e-05 2.11446e-18
2.12629e-05 1.98045e-05 1.4421e-18
2.32069e-05 -1.19932e-06 1.76739e-18
-8.41552e-06 -2.44703e-06 -3.7228e-18
-1.48155e-05 -2.63831e-05 2.24242e-18
5.46484e-06 8.9752e-06 1.67574e-18
-1.62428e-05 1.91667e-06 3.91573e-18
1.31818e-05 3.77804e-06 -3.26749e-19
-2.96629e-06 -1.24556e-08 -1.53105e-18
-3.07313e-06 -5.55284e-06 2.1814e-18
-5.43587e-06 -2.58584e-05 -5.40438e-18
-6.42698e-06 -2.50428e-08 -1.70088e-18
-3.07962e-05 -1.15588e-06 1.12395e-18
1.12594e-05 -1.25142e-05 -3.26801e-18
1.64941e-06 2.61228e-06 1.01201e-18
-7.83257e-08 -1.14683e-05 8.3447e-19
-6.46418e-06 1.55252e-05 -8.15001e-19
-2.89082e-06 5.69549e-06 4.21205e-18
1.348e-05 -8.90396e-06 -5.77626e-18
-2.51081e-05 -8.20213e-06 -4.88179e-18
-9.92684e-06 -1.31039e-05 9.74985e-19
3.31941e-06 5.6194e-06 2.02851e-18
1.10999e-05 3.33713e-06 -3.40687e-19
-3.11336e-06 -4.76618e-06 1.6519e-19
1.33175e-05 2.42913e-06 5.12108e-19
1.21272e-05 -6.50437e-06 -4.8947e-18
-2.48028e-07 1.79614e-05 -4.79248e-18
5.49037e-06 -8.92813e-06 4.94954e-19
3.18248e-05 1.35914e-06 -7.88513e-19
-2.70374e-05 7.04427e-06 -4.72231e-19
1.53544e-05 7.6659e-06 -3.08513e-18
-4.20428e-06 -1.11175e-05 4.85476e-19
-1.00192e-05 -5.59772e-06 -4.87297e-18
1.8801e-05 -1.55345e-07 -3.17352e-19
-4.8012e-07 -1.60461e-05 1.69069e-18
-8.22185e-06 -7.15691e-06 9.83619e-19
6.61437e-06 -1.53378e-05 -2.7813e-18
-3.66875e-07 1.34962e-05 5.12461e-19
5.08912e-06 1.69239e-05 8.32002e-19
1.14391e-05 -6.56872e-06 -4.19732e-18
-1.22646e-05 1.23531e-05 9.85251e-19
1.07424e-05 1.30935e-05 -8.07935e-19
-4.3272e-05 1.03217e-05 -3.34419e-18
-6.73672e-06 1.72238e-05 -1.18031e-18
8.31382e-06 -1.00948e-05 -2.05324e-18
-4.6297e-06 -1.21742e-05 -1.38445e-18
-7.79605e-06 2.89486e-06 -3.02565e-18
-1.66218e-05 -4.53652e-06 1.96765e-18
-4.46214e-06 2.60551e-05 -3.44852e-18
-8.24484e-06 7.87773e-06 8.22612e-19
1.36408e-05 -2.99293e-06 -4.47615e-18
-4.46857e-06 -1.66678e-05 1.3131e-18
-9.64495e-06 1.53527e-05 -2.13545e-18
-1.43961e-05 8.29418e-06 -6.9746e-19
-1.32885e-05 -9.68314e-06 -9.80414e-19
1.20866e-05 -1.39438e-05 2.56457e-18
-1.76455e-05 -9.362e-07 2.12734e-18
7.77687e-06 -2.66485e-05 -2.3764e-18
1.26619e-05 -1.23343e-05 -2.79544e-18
1.59178e-05 2.79646e-05 -1.43466e-18
1.29385e-06 1.31022e-05 -3.89983e-18
1.89066e-06 -1.65365e-05 -2.4607e-18
-2.81494e-05 3.30446e-05 -8.73019e-21
-8.22723e-06 -1.56979e-05 -8.23405e-19
1.09741e-05 -4.24347e-06 -5.08495e-19
-1.66122e-06 1.66688e-05 1.96967e-18
8.57277e-06 -7.9707e-06 1.35785e-18
9.00938e-06 1.58022e-05 2.47296e-18
1.13316e-05 -9.62924e-07 2.67855e-18
1.39319e-05 -4.07987e-05 -1.25563e-18
-3.83238e-06 -8.35617e-06 2.16328e-18
-1.49534e-05 6.42401e-06 -1.47537e-18
-1.3273e-05 1.24095e-05 8.3433e-19
1.40993e-05 9.53895e-06 6.64901e-19
1.2265e-05 -7.10013e-06 -2.99086e-18
9.90358e-06 8.38751e-06 5.09379e-19
-3.604e-06 -1.07542e-08 1.01048e-18
1.00078e-05 -1.50213e-05 -2.46877e-18
-1.09865e-05 -1.30812e-05 -1.80592e-18
1.4763e-05 6.41549e-06 -2.30728e-18
8.53244e-06 -8.02403e-06 -1.35033e-18
6.16284e-06 -1.61441e-05 -2.30579e-18
1.09989e-05 -4.65504e-06 9.79054e-21
-1.02762e-05 -4.89623e-06 2.31657e-18
8.78588e-07 -1.7378e-05 -2.57895e-18
-1.67673e-05 2.88196e-06 3.26909e-19
1.48366e-06 1.59311e-05 1.32563e-18
1.35111e-05 4.36856e-06 -3.31012e-19
-1.40097e-05 -6.90424e-06 -1.81734e-18
-5.84673e-06 1.65397e-05 2.3241e-21
-9.84198e-07 -1.57066e-05 3.31383e-19
1.29951e-05 7.89165e-06 -3.42132e-19
-1.12892e-06 1.18307e-05 8.37417e-19
-1.30377e-05 8.77015e-06 -1.65622e-18
1.53999e-05 7.45142e-06 4.27282e-21
-1.11434e-05 -6.5574e-06 3.17049e-18
1.07375e-07 -1.29882e-05 1.84191e-18
1.19965e-05 1.30139e-05 5.02942e-19
-1.45982e-05 -9.43807e-06 1.52865e-18
3.14923e-05 -2.25336e-05 1.23016e-18
1.18242e-05 -7.11347e-06 -7.51081e-18
5.62078e-06 2.78494e-05 -9.53927e-19
1.12161e-05 -8.94721e-06 -5.03055e-19
-1.46593e-05 5.65382e-05 -1.36576e-19
-1.47356e-05 -5.60003e-05 -1.32838e-18
3.68033e-05 4.81089e-05 4.43018e-19
3.63605e-05 -4.80971e-05 1.3347e-18
6.0092e-05 -2.9455e-08 7.45503e-19
-5.17089e-05 2.09508e-05 1.61559e-19
-5.08699e-05 -2.11696e-05 -7.48646e-19
8.15619e-06 7.88179e-06 -1.35566e-18
1.97543e-05 1.47094e-05 -1.55461e-18
7.55539e-06 2.20066e-06 4.35582e-18
1.24095e-05 6.38365e-06 -3.29891e-19
3.22957e-06 1.31627e-05 1.32501e-18
-1.21891e-05 -9.60233e-06 -1.98228e-18
1.13381e-05 -6.71347e-06 8.30995e-19
1.30175e-05 9.49483e-06 -1.61767e-19
-2.08128e-06 1.58178e-05 4.12236e-18
1.98513e-05 -1.35059e-05 4.30728e-18
2.40715e-06 -1.54218e-05 -1.65342e-18
1.46842e-05 3.38856e-06 -3.57721e-18
1.94809e-05 7.23368e-06 -6.42541e-19
9.42829e-06 9.35672e-06 3.56708e-18
1.04709e-05 4.33919e-06 1.16936e-18
-1.20113e-05 7.07624e-06 -2.16422e-18
-1.45637e-05 5.83099e-06 -1.65508e-19
1.54181e-05 -7.51865e-06 2.22218e-18
-1.18561e-05 -6.50286e-06 -4.69053e-18
-1.20338e-05 -6.81107e-06 -1.76776e-19
-2.11026e-07 -1.35537e-05 4.50072e-18
-9.89796e-08 -1.37666e-05 -1.16457e-18
-1.2997e-05 -6.53532e-07 -1.05461e-20
1.74882e-05 -2.65266e-06 -2.27115e-18
1.18859e-05 7.44984e-06 8.33766e-19
-1.16404e-05 7.05937e-06 -2.51185e-18
-1.00936e-05 1.09952e-05 2.53632e-18
1.04957e-05 -9.0303e-06 -3.80459e-18
-7.20579e-06 1.12764e-05 -6.61952e-19
-9.23748e-06 -9.61156e-06 1.81735e-18
-8.03795e-07 1.37794e-05 9.96014e-19
-8.30813e-07 1.36829e-05 3.50413e-18
3.18856e-08 -1.2992e-05 2.67715e-18
3.9789e-06 -1.28831e-05 -2.3197e-18
-1.12054e-05 -6.44945e-06 -1.69504e-18
1.0268e-05 -3.64086e-06 -2.98973e-18
4.18133e-07 1.40033e-05 1.71872e-19
1.72525e-07 1.20946e-05 3.85641e-18
-1.55523e-06 1.09644e-05 -5.05585e-19
1.43613e-05 -3.63336e-06 -3.29311e-18
-1.094e-05 3.4756e-06 -1.85726e-18
2.66714e-06 1.40164e-05 -6.57848e-19
-2.17045e-05 8.50969e-06 -3.45965e-18
6.10301e-06 2.72265e-05 -3.09709e-19
-1.12432e-05 2.96425e-06 -1.69633e-18
1.31853e-05 -7.8029e-06 -1.36169e-18
5.68578e-07 1.37146e-05 3.00784e-18
-1.32279e-05 4.34821e-06 -5.08046e-19
1.62193e-06 -1.06607e-05 2.1843e-18
5.93766e-07 -3.77196e-05 1.39018e-18
1.30049e-06 1.14366e-05 8.36357e-19
-1.10348e-05 9.01716e-06 1.98386e-18
1.12285e-05 4.1326e-05 1.42775e-18
3.15102e-05 2.61332e-05 1.56823e-18
3.61225e-05 -2.47149e-05 -1.51027e-20
9.78476e-06 -6.69974e-06 1.49525e-18
-1.02713e-05 9.05618e-06 -1.48983e-18
-1.30613e-05 -5.14323e-06 2.14652e-18
-1.27007e-05 -4.38576e-06 1.14772e-18
4.44179e-05 -1.22054e-05 -1.25586e-18
4.53082e-05 9.52728e-06 3.18359e-18
7.18805e-06 2.51475e-06 2.35347e-18
4.5848e-07 1.28197e-05 1.73052e-19
5.06452e-08 1.28114e-05 -1.49878e-18
-3.14212e-05 -2.29933e-05 1.6013e-19
7.46016e-06 -1.12332e-05 1.14504e-18
7.80974e-06 8.34607e-06 -3.33937e-19
-1.37995e-05 -2.20722e-06 -1.83822e-18
-9.13103e-06 1.10751e-05 9.89799e-19
-1.22461e-05 5.89713e-06 1.15499e-18
3.11002e-05 2.2308e-05 1.55039e-18
1.05263e-05 4.6552e-06 5.0792e-19
-3.67508e-06 1.29691e-05 -1.48443e-18
-1.10662e-05 -7.57946e-06 -3.0156e-18
1.17489e-06 -1.34148e-05 -2.33604e-18
-5.80576e-06 -1.24726e-05 2.97829e-18
-1.11849e-05 -7.61009e-06 -1.83177e-18
6.89822e-06 -1.23377e-05 -1.3342e-18
9.26689e-06 -1.10771e-05 -2.49393e-18
-1.91933e-06 -3.94721e-05 -4.74305e-19
1.68398e-05 -2.67089e-05 -1.66452e-19
1.13491e-06 -1.35523e-05 -2.81947e-18
1.18529e-05 7.42537e-06 8.37235e-19
-9.41726e-06 -9.59591e-06 1.49416e-18
-6.40155e-06 1.27389e-05 -2.31969e-18
-3.27969e-06 1.36391e-05 4.97811e-18
1.09309e-05 9.2858e-06 -1.32104e-18
3.92492e-06 -1.29467e-05 -2.32948e-18
-9.04068e-06 -2.58903e-05 2.85635e-18
-1.3595e-06 1.65752e-05 -6.74125e-19
9.68187e-06 9.46352e-06 -1.31666e-18
-8.45931e-06 -6.69364e-06 -2.62444e-20
-8.87983e-06 6.96461e-06 -1.87466e-18
2.89745e-05 -1.24519e-05 -1.1026e-18
4.96084e-06 -8.75289e-06 -3.5117e-18
-5.43702e-06 -8.17244e-06 -2.00406e-18
1.43395e-05 4.37587e-06 6.83922e-19
8.81883e-06 -3.18156e-05 -4.38386e-18
-2.31488e-05 -2.35248e-05 -1.75624e-18
1.56359e-05 4.09564e-06 3.33252e-19
-6.08859e-06 -1.18096e-05 -1.68237e-19
1.23182e-05 6.26586e-06 -1.33636e-18
-1.86484e-05 -2.07079e-05 3.00744e-18
7.14181e-06 3.23493e-05 -5.17597e-19
3.13444e-05 -4.04832e-05 -3.55031e-18
-1.93892e-05 -4.73766e-05 -6.72968e-18
1.75775e-05 -3.43597e-05 -2.62763e-18
-8.41612e-06 2.89009e-05 2.23104e-18
-4.79561e-06 2.55958e-05 -1.03574e-18
-1.2177e-05 5.83251e-06 8.2518e-19
4.00495e-06 1.60244e-05 -3.75557e-18
-1.56844e-06 8.22946e-06 -3.01765e-18
6.70286e-06 2.15213e-06 3.70801e-18
-2.1327e-06 1.06901e-05 2.03788e-18
-1.60311e-07 1.38244e-05 -6.67598e-19
1.10137e-05 6.41827e-06 1.51124e-18
5.49465e-07 3.75411e-05 -6.17242e-19
-9.6052e-06 6.92247e-06 -4.01955e-18
1.06015e-05 -4.08794e-06 -9.46088e-21
1.13198e-05 -2.93329e-06 -5.12694e-19
-3.84812e-05 -5.52972e-06 -7.76563e-19
-2.29429e-05 1.09172e-05 -1.74668e-18
-2.79249e-05 -3.31112e-05 -1.24759e-18
5.72227e-06 5.4855e-06 1.6358e-19
9.3965e-06 4.85955e-06 6.76054e-19
1.75182e-05 -2.79654e-06 -1.62903e-18
-5.27746e-06 -8.59094e-06 3.30063e-19
1.13635e-05 5.59188e-06 -1.34008e-18
4.88233e-06 -1.99286e-05 2.57157e-18
-9.01492e-06 6.60749e-06 -2.34825e-18
-1.48111e-05 -1.41904e-05 -3.10351e-18
-3.79773e-06 1.05969e-05 -2.17474e-18
-2.20196e-06 1.36211e-05 -4.9054e-19
2.29181e-05 1.42332e-05 1.03777e-18
2.44348e-05 -1.2966e-05 1.73894e-18
-2.68821e-05 -7.2391e-06 3.1411e-19
5.04286e-06 5.11788e-06 1.52021e-18
-3.14758e-06 6.56296e-05 -1.53966e-19
-1.32958e-08 -6.74142e-05 -2.00658e-18
3.32273e-05 5.68636e-05 -1.08042e-18
-1.25924e-05 5.49287e-06 -1.35155e-18
-1.78259e-05 3.59944e-05 1.70331e-18
3.34315e-05 -5.48845e-05 -2.61701e-18
-7.61303e-06 -1.17799e-05 2.64784e-18
5.0834e-05 4.42548e-05 4.6083e-19
1.59559e-05 -1.18691e-05 -6.62306e-21
-2.31855e-06 -1.97424e-05 -1.22724e-18
5.3263e-05 -4.32735e-05 -1.07764e-18
-4.42208e-06 9.41614e-06 -5.06681e-19
-3.41332e-05 -2.16839e-05 1.59923e-19
-2.81093e-05 -5.86912e-05 -4.47891e-18
-1.5915e-05 -3.71537e-05 1.52234e-19
-2.88982e-05 5.96528e-05 9.31811e-19
-6.84296e-06 4.12837e-05 2.0383e-18
1.06884e-05 2.48163e-05 -1.68867e-19
-1.83214e-05 2.35431e-05 3.14238e-19
-1.70574e-05 -3.50406e-05 -2.47724e-18
6.54038e-05 1.14757e-05 -6.14954e-19
-1.10796e-05 6.95741e-06 -1.00798e-18
-3.9295e-06 1.07535e-05 2.72708e-18
-3.23722e-05 2.33134e-05 1.56266e-18
-1.12819e-05 6.47749e-06 1.33355e-18
6.47597e-05 -1.02313e-05 2.15398e-18
-1.00659e-05 5.05741e-06 -6.73262e-19
4.727e-06 -9.48484e-06 -2.66837e-18
-5.02858e-05 -3.83157e-05 -3.10005e-19
-1.71458e-05 3.71867e-05 5.32047e-18
-5.14841e-05 3.80417e-05 -7.65798e-19
1.55474e-05 3.42318e-05 9.28432e-19
-9.64407e-06 6.85143e-06 -1.00957e-18
-1.3569e-05 1.63067e-05 -1.2214e-18
-2.41706e-05 3.03561e-05 -1.92971e-18
-3.78986e-05 -4.88803e-06 -3.53733e-18
-6.3618e-07 1.06995e-05 2.1965e-18
-2.5601e-05 -3.04837e-05 -4.59444e-18
-3.92117e-05 6.93535e-06 -4.24272e-18
-1.49354e-05 3.46445e-05 -2.66329e-18
-1.15278e-05 4.61189e-05 -3.37992e-19
-1.19541e-05 2.65037e-05 1.42554e-18
-2.2365e-05 1.802e-05 5.0682e-19
1.64295e-05 -4.04181e-06 1.1934e-18
2.56763e-05 -1.38408e-06 -8.66969e-19
8.93674e-06 5.4366e-06 1.74074e-19
-8.09919e-06 -5.30621e-05 -2.29954e-18
-5.00123e-05 -1.95039e-05 -3.16728e-18
2.50026e-05 3.31916e-07 -8.63445e-19
3.82921e-05 -7.39258e-06 1.70242e-18
-6.88316e-06 -8.73879e-06 2.31632e-18
-3.32252e-05 2.33596e-05 -1.08058e-18
-2.97761e-05 3.41086e-05 2.20544e-18
4.04786e-05 -1.45852e-05 3.6246e-18
-1.86874e-05 -3.16658e-05 -3.31342e-18
-1.90217e-05 3.14209e-05 -1.03061e-18
-3.69076e-05 -1.30631e-06 -1.39991e-18
-1.67869e-05 3.30143e-05 -1.58025e-18
-3.67903e-05 3.80891e-07 8.74627e-19
4.57602e-05 1.63873e-05 -3.00571e-18
3.69378e-05 1.35843e-06 -1.74513e-18
3.47254e-05 -1.7791e-05 -4.05806e-18
1.01274e-05 -4.88132e-05 -1.77243e-18
1.8355e-05 -3.19731e-05 3.49071e-19
1.82304e-05 3.19695e-05 6.93406e-19
9.91778e-06 4.7695e-05 -5.38466e-19
4.99741e-05 -1.40917e-05 2.83117e-18
3.20395e-05 1.58695e-05 3.68523e-18
3.07959e-05 8.41419e-06 5.28708e-19
P_ext 3 563 float
-1.06944e-06 3.61604e-07 -1.2318e-20
1.01349e-09 3.96081e-08 -3.40091e-20
-9.85421e-08 -9.26696e-08 -1.31119e-20
-3.11722e-08 2.8774e-08 2.86548e-21
2.71943e-08 5.20098e-10 3.00999e-21
3.24318e-08 -1.31623e-07 -1.58138e-20
-1.05294e-06 -3.65979e-07 -6.48521e-20
-7.72556e-08 -8.7641e-08 8.02565e-20
2.14907e-07 3.80666e-09 -1.28551e-20
7.84615e-08 -7.3705e-09 -3.90428e-20
6.96128e-07 1.63162e-07 4.36231e-20
3.826e-08 -1.12002e-07 -6.28578e-20
8.76801e-08 1.0437e-07 -7.81801e-20
-9.03248e-09 8.17595e-08 -1.33882e-19
2.45621e-08 9.09992e-09 -5.56406e-20
-1.37381e-07 -2.24893e-09 7.49367e-20
-1.71643e-08 5.38779e-08 -1.12797e-19
8.28155e-08 -1.24958e-08 -3.08316e-20
9.51226e-08 1.69643e-07 9.2535e-20
-1.2762e-07 1.28699e-08 -1.86299e-20
-4.79105e-08 -1.80761e-07 7.63688e-21
1.58018e-09 3.24804e-10 -8.54803e-21
1.41348e-07 1.15079e-08 -1.00158e-20
8.99876e-08 -1.03901e-07 4.88242e-20
-1.30367e-07 -2.09928e-08 4.35064e-20
-2.45757e-08 -7.1342e-08 2.60621e-20
8.00292e-07 -6.54677e-08 3.43306e-20
9.80487e-08 8.2662e-08 -1.56398e-20
-2.92818e-07 -2.32597e-07 -3.23374e-20
1.72063e-08 3.23694e-09 -5.10382e-20
-1.309e-07 -2.33114e-08 -2.62933e-20
5.72286e-08 -3.72399e-07 -5.11199e-21
6.01386e-07 -6.15894e-07 1.48311e-20
1.28102e-09 -2.82429e-08 1.37095e-19
-7.60036e-09 2.17203e-08 5.35902e-21
-2.35759e-08 -1.55315e-08 -6.53817e-20
3.12166e-09 1.55951e-08 -5.71795e-20
-2.38369e-08 4.05927e-09 2.68128e-20
9.46857e-08 -1.0298e-07 -4.42838e-20
5.86839e-07 6.41851e-07 4.88145e-21
3.74854e-07 -1.69832e-07 -2.35096e-21
5.79875e-09 -1.42813e-08 7.53181e-20
-9.38683e-09 -1.25075e-08 1.28154e-20
-1.30036e-07 2.67108e-08 2.81769e-20
3.71898e-07 -3.65221e-07 -1.95811e-20
-3.4653e-07 1.24733e-07 2.02321e-20
-4.37815e-08 -1.9105e-07 -3.88019e-20
7.89965e-08 1.91895e-07 1.08809e-20
-1.24732e-07 3.26167e-08 4.40299e-20
-2.14632e-07 3.33827e-07 7.51988e-20
3.80451e-07 1.86317e-07 1.49508e-20
3.30353e-07 -1.08653e-07 -4.31305e-20
-9.73239e-09 2.313e-08 7.46046e-20
-2.58524e-07 -2.31988e-07 1.54471e-20
-2.53733e-08 3.35053e-09 -1.12918e-20
-5.54484e-07 3.25624e-07 -1.94509e-20
-7.05739e-09 -2.16296e-08 8.61152e-20
7.36164e-08 -3.41394e-07 1.01964e-20
-2.20443e-08 -4.80215e-09 -9.47554e-20
5.77574e-08 1.15807e-07 3.65829e-20
-3.082e-08 -9.35258e-09 1.30138e-20
-3.25418e-08 -3.05667e-08 2.08709e-20
7.21583e-07 3.17684e-07 2.25668e-21
-6.20591e-10 6.30195e-08 -5.31384e-20
9.73957e-09 -4.20473e-08 -2.65799e-20
1.63642e-08 -9.35463e-08 -2.67887e-22
-6.49462e-09 -3.0629e-08 6.03989e-20
-7.48673e-08 -1.90265e-08 -8.12586e-21
-8.71517e-08 1.06636e-07 6.41374e-20
2.3373e-08 -8.48658e-09 2.35781e-20
-9.5994e-09 -2.3796e-08 3.96348e-20
-2.50956e-08 -3.67854e-09 -1.01647e-19
-4.31971e-08 4.00203e-07 5.76307e-20
-7.6893e-08 3.88384e-08 3.91793e-20
-7.45988e-08 1.27597e-07 9.77006e-21
-7.50357e-07 8.81984e-08 -1.69211e-20
3.36434e-11 -5.94243e-08 4.76199e-20
-7.22389e-08 -6.05254e-08 2.03084e-20
3.04189e-08 7.42284e-08 -7.56809e-21
2.87586e-07 5.7494e-08 -4.95497e-21
4.1217e-07 -3.5862e-07 -2.52899e-20
1.12994e-08 2.76695e-08 -5.91659e-20
2.78811e-08 8.65259e-09 -7.88146e-20
-3.84047e-07 2.84134e-07 2.23931e-20
4.48293e-07 5.4502e-08 -7.53866e-20
-6.79475e-08 6.07608e-07 9.15064e-20
-2.35559e-08 -1.21775e-07 4.70022e-20
8.26918e-08 5.82402e-08 -5.52738e-20
3.57717e-07 3.7724e-07 -2.7093e-20
6.48189e-09 2.88384e-09 -5.49432e-21
-6.89442e-08 3.43323e-07 5.31991e-20
5.85509e-09 -3.13648e-09 -3.06405e-20
-4.1398e-08 2.82335e-08 5.03105e-21
8.93703e-08 3.63714e-08 5.33556e-21
-3.30581e-07 1.02197e-07 -2.01923e-20
1.91871e-07 3.37148e-07 4.26683e-20
1.19365e-07 -5.3893e-07 1.0112e-20
2.80594e-08 7.35634e-08 -2.08853e-20
-5.07711e-08 -3.021e-08 2.20279e-21
4.20681e-08 1.34544e-07 -2.22363e-21
2.79714e-07 4.75986e-08 -1.27423e-20
-1.85682e-07 3.83609e-07 1.03286e-19
4.93597e-07 -1.61322e-07 9.88489e-21
-2.73914e-08 5.98035e-08 1.53628e-20
5.24981e-08 5.33178e-08 -3.37486e-20
-3.12027e-08 -7.19816e-08 3.11562e-20
-1.25521e-08 -5.48441e-08 2.51076e-21
1.45198e-07 1.74069e-08 1.62414e-20
-1.05905e-07 4.95391e-07 8.44388e-20
-2.44947e-08 1.51115e-08 -7.8038e-21
7.24242e-08 1.0733e-07 -2.86315e-20
-3.58114e-08 -5.08372e-07 5.18588e-20
5.1428e-07 1.54414e-07 -2.44655e-21
3.50154e-08 -6.18756e-08 -2.6512e-20
-7.99419e-08 -9.14455e-09 1.25092e-19
-3.28929e-07 -1.32021e-07 -9.59331e-21
1.62662e-08 1.73984e-08 1.32862e-20
-5.22488e-07 -1.82726e-07 -4.42922e-20
1.65134e-08 -1.73504e-08 2.46611e-20
-5.08056e-08 -3.57228e-07 6.10475e-20
2.20479e-07 8.36664e-09 6.95869e-20
-1.96383e-08 1.67574e-08 5.51744e-20
5.27136e-09 2.40792e-08 -2.08424e-20
1.47494e-08 -6.45909e-08 -5.71927e-21
2.56188e-08 -1.19807e-08 -2.34613e-20
4.77831e-10 2.5949e-08 1.57565e-20
2.24e-08 -2.79657e-09 -4.02927e-20
4.17889e-08 -6.16502e-08 1.30841e-19
-1.0698e-07 -5.45636e-07 -4.20209e-20
2.8262e-07 -2.17564e-07 -5.86407e-20
9.14772e-10 3.4433e-08 -4.01723e-20
-2.38324e-08 -4.31074e-09 6.52962e-20
-7.75482e-09 -2.66559e-08 -3.97818e-20
-1.96529e-08 -1.38727e-08 4.91461e-21
-2.64212e-07 3.30165e-07 -2.5166e-20
-3.0352e-10 -2.62248e-08 3.72866e-20
-3.30491e-07 5.18923e-07 -1.758e-20
-1.24212e-07 5.71224e-08 -3.38073e-20
1.74665e-08 1.88357e-08 4.03377e-20
-2.25781e-08 -1.32019e-08 -4.64738e-20
1.61144e-07 3.88915e-07 -3.26526e-20
9.29805e-08 8.28676e-08 1.84391e-20
2.2568e-07 -7.4426e-08 -6.96663e-20
1.27004e-08 -6.94435e-08 -8.3775e-20
-4.09471e-07 -3.77321e-07 3.77309e-20
-3.94837e-08 6.82358e-08 -1.84544e-20
1.02526e-07 5.4689e-08 1.56684e-20
1.49921e-07 -5.16141e-08 1.00481e-20
6.47445e-08 -1.29337e-07 5.15362e-20
2.56654e-07 -1.18347e-07 -7.89808e-20
1.70762e-07 -8.06016e-08 4.42643e-24
1.71615e-08 -1.42239e-08 -2.10835e-20
2.97696e-07 2.35474e-07 1.75123e-20
-4.30951e-08 -1.24625e-07 2.42801e-21
-5.29306e-08 -4.52859e-08 -4.21058e-20
-8.65326e-09 -2.27152e-08 1.17609e-19
1.18884e-08 8.89205e-08 -6.26178e-20
-3.98176e-07 2.85473e-08 3.29118e-20
-1.45459e-07 -3.80096e-07 -7.79568e-20
-6.26458e-08 7.98526e-08 -7.33949e-20
1.23188e-07 1.64174e-07 3.35011e-20
3.06416e-07 -2.1733e-07 3.99924e-20
-4.47935e-07 -2.39491e-07 -3.64766e-20
1.99275e-07 -3.24402e-07 4.23684e-20
2.59486e-07 -3.19188e-07 -1.28126e-20
-7.64275e-08 7.57042e-09 9.88818e-20
-2.27796e-07 -3.2964e-07 -1.78247e-20
-3.98748e-07 -6.24951e-08 -1.92453e-21
-4.75218e-08 -3.63889e-07 -9.74691e-21
1.77385e-07 -3.66639e-07 -5.53134e-21
3.70958e-09 -5.04046e-08 4.45363e-20
5.27124e-08 3.51049e-07 -7.58696e-20
-1.87787e-07 -3.28511e-07 -6.28136e-20
-1.7616e-08 -8.06116e-08 4.73253e-20
-2.7146e-07 2.03227e-07 -5.05712e-20
-5.31854e-08 -1.74361e-08 2.06445e-20
-4.14359e-08 -2.8477e-08 -7.22648e-20
1.08349e-07 -5.55654e-08 -1.08605e-20
-1.49099e-08 2.11102e-08 -2.46022e-20
5.75895e-08 -7.26906e-08 -2.34782e-20
-3.37784e-07 -1.50222e-07 -1.89168e-21
-4.47466e-08 -6.02659e-08 2.34815e-20
4.67654e-08 6.39325e-08 -7.82814e-20
2.44251e-07 3.37154e-07 -1.52363e-20
-8.6461e-08 -3.98705e-08 -5.041e-20
-3.75744e-07 -8.45396e-09 -3.22485e-20
-4.81653e-08 -4.46698e-08 -8.47951e-20
-2.74146e-09 -6.46952e-08 -2.97976e-21
4.71799e-08 2.37961e-08 -3.16961e-20
-5.44118e-08 5.3634e-08 4.18432e-20
-9.0875e-09 -9.52357e-08 2.08035e-20
-5.01581e-07 1.23552e-07 7.90115e-21
2.74958e-07 2.34566e-07 2.27981e-20
3.67393e-08 3.82025e-07 -5.76273e-20
-2.21525e-08 7.61606e-09 8.57225e-20
-7.39031e-08 2.29646e-09 8.5569e-20
3.39291e-08 6.47781e-08 -1.29735e-20
-2.68594e-08 -6.59535e-09 -3.98451e-20
3.17828e-09 -2.28989e-08 -5.25886e-20
-1.47788e-08 1.00807e-07 -2.88311e-20
1.63769e-08 1.72558e-08 -2.57927e-20
-1.86674e-07 4.12645e-08 -7.71063e-20
-1.89317e-07 2.06567e-07 -2.79987e-20
-2.04401e-08 1.8967e-08 2.06088e-20
-3.42494e-07 2.067e-07 2.5449e-21
-8.79333e-09 2.91877e-08 7.69974e-20
9.24406e-08 -3.31143e-08 1.82742e-20
4.29329e-07 -3.94986e-08 5.30091e-20
-5.3822e-08 3.40561e-08 -1.36605e-20
2.17661e-08 1.00344e-08 3.69366e-20
5.60192e-08 -3.50556e-08 -1.60382e-20
-9.61043e-08 3.20314e-08 4.17349e-20
-6.99404e-08 1.83355e-08 1.78931e-20
2.45947e-08 -7.18474e-09 5.33669e-21
2.27454e-07 -1.38328e-07 -4.37696e-20
-8.95188e-08 5.70774e-08 4.43767e-20
-2.67404e-07 -5.57617e-08 -1.76349e-20
-5.68359e-08 -2.99252e-08 6.06048e-20
2.17407e-08 -1.44334e-08 4.18434e-20
2.40831e-08 1.69197e-08 5.56725e-22
-6.07881e-09 2.73797e-08 -8.88657e-20
-2.46689e-09 -3.08921e-08 7.61012e-20
-2.50684e-08 1.28142e-08 9.8727e-21
-2.80557e-08 -1.4373e-08 2.3791e-20
7.02832e-08 -2.65632e-08 -8.62548e-20
-2.5718e-08 -7.07343e-09 -6.13966e-20
-2.56634e-08 6.8133e-09 8.73401e-20
-6.32512e-09 2.54976e-08 5.87511e-20
-6.86686e-09 -2.60564e-08 5.1822e-21
1.69589e-08 -1.89887e-08 -2.91736e-20
1.63042e-08 1.81735e-08 5.34749e-21
9.83906e-09 2.71444e-07 1.31403e-20
5.26692e-08 -4.34465e-08 2.47502e-21
1.22925e-08 -2.31826e-08 -4.71994e-20
-2.04715e-07 7.56657e-09 -3.93528e-20
1.9439e-08 -1.84548e-08 5.59317e-20
1.81494e-08 1.87419e-08 2.40606e-20
2.78447e-08 -6.05859e-10 8.63169e-20
9.39702e-08 2.65999e-07 3.84791e-20
-1.40882e-08 -2.30394e-08 8.57942e-20
3.04634e-08 -6.97244e-08 -4.97427e-20
-2.2845e-07 -1.26396e-07 4.85989e-20
-5.02043e-08 -3.25897e-08 -2.94635e-21
-2.29283e-07 1.35986e-07 -5.14165e-20
2.0335e-08 -2.08493e-08 3.16719e-20
-9.74617e-09 2.16623e-08 8.01773e-21
-5.36206e-09 -2.62853e-07 -2.82723e-20
-8.60544e-08 -2.60336e-07 -8.11954e-20
3.94537e-07 3.75505e-07 -1.96343e-20
4.22011e-07 -2.39648e-08 6.99931e-20
-2.9938e-08 6.52027e-09 4.93947e-21
-2.82241e-07 -4.98759e-07 1.77224e-20
6.73008e-08 1.15394e-07 2.88767e-20
-2.70553e-07 3.18654e-08 1.11947e-19
1.94233e-07 5.43129e-08 -3.33337e-20
-2.65408e-08 -1.07353e-10 8.79733e-20
5.76375e-10 -2.75874e-08 -3.13184e-20
-2.41095e-09 -1.88722e-08 3.71902e-20
-2.35272e-08 -1.39977e-08 -6.85433e-20
-5.85201e-07 -2.21762e-08 -1.97235e-20
1.83931e-07 -2.08026e-07 -4.35517e-20
1.25079e-08 2.42616e-08 1.32696e-20
6.39408e-09 -1.16151e-07 4.95571e-20
-1.09712e-07 2.59821e-07 2.26877e-20
2.24825e-09 2.91905e-08 8.37746e-21
1.96269e-07 -1.40443e-07 -1.16017e-19
-1.7267e-08 -7.54968e-09 -1.00766e-19
-1.66898e-07 -2.1692e-07 -9.37502e-20
2.29985e-08 1.17045e-08 2.65365e-20
5.44272e-08 5.26162e-08 -1.05164e-19
-3.87228e-08 -6.0322e-08 3.12548e-20
2.38291e-08 -7.70402e-09 1.59752e-20
8.06493e-08 -5.63022e-08 1.26792e-20
-4.79064e-09 4.49719e-08 4.24078e-20
6.63454e-08 -1.11821e-07 -7.89325e-21
6.05797e-07 3.05237e-08 6.17573e-20
-5.13218e-07 1.35788e-07 -3.70215e-20
4.29834e-08 2.99526e-08 -2.16774e-20
-6.35858e-08 -1.53089e-07 -3.8949e-20
-9.66566e-08 -6.30558e-08 -1.11806e-20
3.14594e-07 -3.16184e-09 -1.51391e-20
2.69007e-09 -6.00325e-08 4.7558e-20
-7.86262e-08 -2.77628e-08 -1.09227e-20
1.07214e-07 -2.56159e-07 -4.35417e-20
8.54781e-09 1.03195e-07 4.73971e-20
8.79951e-08 2.72885e-07 6.16028e-20
1.05613e-07 -5.56565e-08 -4.00473e-22
-1.92644e-07 2.05051e-07 4.60534e-20
1.77143e-07 2.18892e-07 6.09355e-20
-1.11448e-08 4.98319e-09 4.82841e-21
1.83329e-09 4.75556e-08 1.03815e-19
3.59011e-09 -2.15797e-08 -5.86495e-20
-1.70824e-08 -1.41717e-08 -4.29389e-20
-5.88355e-08 4.66498e-08 1.01612e-19
-2.6991e-07 -6.39498e-08 7.78333e-21
9.4433e-10 3.03403e-08 1.58872e-20
-7.05949e-08 2.10749e-08 7.54377e-21
1.91242e-07 -2.77257e-08 -1.58797e-20
-8.17779e-08 -2.64821e-07 7.15517e-20
-1.61067e-07 2.56511e-07 -1.8077e-20
-4.54848e-08 2.10232e-08 4.96888e-21
-2.15866e-07 -1.52741e-07 -1.03049e-20
4.88684e-08 -2.29206e-08 2.98999e-21
-2.92695e-07 -1.43322e-08 -2.41053e-21
1.43282e-07 -5.0559e-07 -7.62835e-21
1.95773e-07 -2.05583e-07 -2.84279e-20
2.99343e-07 5.30733e-07 6.20319e-20
-2.80401e-09 6.41562e-08 -6.36104e-20
2.56965e-08 -2.66648e-07 4.301e-20
-1.0415e-08 6.30817e-09 2.43448e-20
-1.38777e-07 -2.58957e-07 -4.09933e-20
4.65688e-08 -3.98541e-08 -1.58627e-20
-2.67732e-08 2.69725e-07 -7.38812e-21
6.50052e-08 -1.90833e-08 3.1824e-20
1.47914e-07 2.63598e-07 1.63817e-19
1.4815e-07 -3.45936e-09 1.59554e-20
2.7039e-07 -7.97805e-07 -5.6327e-20
-5.72969e-08 -1.06669e-07 -6.46987e-20
-2.38951e-07 1.04116e-07 1.25605e-20
-3.34856e-08 1.64549e-08 2.35998e-20
2.26842e-07 1.51913e-07 -2.21184e-21
1.6169e-07 -8.92659e-08 -7.25407e-20
8.54735e-08 3.75529e-08 -2.61912e-20
-1.74814e-08 1.47712e-08 -2.59941e-20
1.62175e-07 -2.50535e-07 -5.39834e-20
-1.72896e-07 -2.15757e-07 -1.03788e-20
2.23078e-07 8.79923e-08 -8.47456e-20
5.6753e-08 -3.50791e-08 -5.00825e-20
1.04289e-07 -2.59205e-07 1.4984e-20
1.22559e-07 -2.32339e-08 6.7984e-20
-1.18934e-07 -4.74506e-08 7.61791e-21
-5.17177e-09 -4.828e-08 8.75758e-20
-2.72608e-07 3.78556e-08 -1.27838e-20
2.86419e-08 2.39146e-07 -2.2819e-21
1.86499e-07 4.352e-08 -4.39526e-20
-2.11848e-07 -9.48216e-08 -4.1286e-20
-1.04168e-07 2.67102e-07 6.13754e-20
-2.38095e-08 -2.32992e-07 2.31095e-20
6.16021e-08 3.00656e-08 -7.9917e-21
-3.99815e-08 1.12687e-07 -1.29376e-20
-1.90505e-07 1.36633e-07 -5.40054e-20
2.4466e-07 1.23407e-07 -2.5343e-20
-1.11386e-07 -3.49925e-08 -4.70743e-20
-2.70089e-08 -1.14703e-07 -3.12415e-20
1.86966e-07 2.17332e-07 5.65629e-20
-4.39573e-08 -1.99396e-08 3.18503e-20
6.14752e-07 -4.42036e-07 2.18939e-20
1.30196e-07 -9.10894e-08 -3.96364e-20
1.06316e-07 5.20997e-07 3.97391e-20
1.37285e-07 -1.31982e-07 -8.28353e-20
-2.96788e-07 1.13025e-06 7.00483e-21
-2.98508e-07 -1.11924e-06 -4.68124e-21
7.33404e-07 9.64024e-07 -4.62669e-20
7.24307e-07 -9.63765e-07 8.08777e-20
1.20054e-06 -4.68126e-10 5.54908e-20
-1.03491e-06 4.16364e-07 2.77919e-20
-1.01775e-06 -4.20892e-07 -5.35638e-20
4.95004e-08 2.68537e-08 -1.33111e-20
3.17629e-08 1.54226e-08 1.04624e-20
9.22559e-08 1.24244e-08 3.95489e-20
1.62872e-07 8.70438e-08 2.58449e-20
4.83137e-08 1.92449e-07 9.00518e-20
-1.74609e-07 -1.50014e-07 2.02893e-20
8.79359e-08 -8.10611e-08 -2.87844e-20
1.87615e-07 1.50569e-07 -3.07173e-20
-4.33881e-08 2.36866e-07 5.94401e-20
3.08067e-08 -1.51315e-08 2.98989e-20
4.41578e-08 -2.27308e-07 -2.07217e-20
5.77014e-08 3.89059e-08 -5.06776e-20
3.38387e-07 1.18541e-07 -3.27375e-20
7.58889e-09 2.43626e-08 -4.20045e-20
1.30789e-07 4.28081e-08 7.94825e-21
-1.6187e-07 8.95405e-08 -9.06708e-20
-2.21622e-07 7.66685e-08 -1.28494e-20
4.38844e-08 -3.00653e-08 1.08223e-20
-1.41499e-07 -6.54789e-08 -4.23156e-20
-1.55469e-07 -9.20872e-08 -3.37609e-20
-1.36274e-08 -1.56071e-07 5.22598e-20
6.14882e-10 -1.79248e-07 -2.8467e-21
-1.9735e-07 -8.53103e-09 1.77632e-20
2.92905e-07 -4.5478e-08 -8.10536e-20
1.58022e-07 9.73884e-08 -3.07674e-20
-1.30765e-07 8.92042e-08 -9.38304e-20
-5.89646e-08 2.88654e-08 6.87197e-20
1.47489e-07 -1.32155e-07 -1.49439e-19
-1.10815e-07 1.72543e-07 2.4483e-21
-1.36506e-07 -1.43794e-07 1.42329e-22
-1.29362e-08 1.87946e-07 2.84917e-20
-2.81188e-08 1.58628e-07 6.77343e-20
4.6353e-09 -1.15164e-07 1.57087e-20
5.94114e-08 -1.92022e-07 4.0754e-20
-9.71108e-08 -6.23207e-08 -1.08917e-20
1.34542e-07 -3.83696e-08 -4.67204e-20
3.29503e-10 1.87714e-07 3.87482e-20
-4.06031e-09 1.19943e-07 -7.44893e-21
-3.01431e-08 1.34916e-07 2.43692e-21
2.20808e-07 -5.43407e-08 -1.30062e-20
-4.63782e-08 4.42774e-08 3.66363e-20
5.00479e-08 1.87866e-07 -2.58558e-21
-3.02493e-08 1.90924e-08 -5.95541e-20
1.11512e-07 5.17078e-07 9.35012e-20
-5.47057e-08 2.95307e-08 2.61359e-20
5.80423e-08 -3.02134e-08 1.29993e-20
1.66944e-08 1.59639e-07 3.04154e-21
-1.87218e-07 4.44715e-08 5.40486e-20
-5.75481e-09 -8.11606e-08 -3.9332e-20
7.72352e-09 -7.37685e-07 -1.43987e-20
2.24099e-08 1.35334e-07 -3.35627e-20
-1.39863e-07 1.33057e-07 -1.54725e-20
2.17185e-07 8.07764e-07 9.60882e-20
1.04333e-08 6.87036e-09 -1.08987e-20
9.01431e-09 -6.55245e-09 -5.75008e-20
1.05298e-07 -8.2113e-08 -3.11401e-20
-1.49462e-07 1.33823e-07 -1.55967e-20
-1.79402e-07 -5.2995e-08 1.80598e-20
-1.84355e-07 -6.05484e-08 3.58394e-20
-3.6705e-09 2.25881e-09 3.8247e-20
-2.53495e-09 -1.21992e-09 1.11226e-20
8.61148e-08 1.74981e-08 2.12137e-20
2.73305e-08 1.25685e-07 1.8423e-20
-3.15874e-09 1.2497e-07 1.04634e-20
-6.1787e-07 -4.48821e-07 -3.60422e-20
1.0968e-07 -1.72509e-07 -5.18178e-21
5.54821e-08 1.99856e-08 -1.04634e-20
-2.03476e-07 -2.18894e-08 -3.04285e-21
-1.28657e-07 1.69973e-07 4.1241e-20
-1.66096e-07 7.80997e-08 -5.14748e-21
6.06602e-07 4.35854e-07 3.86699e-20
6.00354e-08 3.94626e-08 -6.56407e-20
-5.90465e-08 1.92716e-07 -1.81693e-20
-1.16402e-07 -9.9702e-08 2.79738e-20
2.8956e-08 -1.51821e-07 -2.35792e-20
-9.41889e-08 -1.79205e-07 2.84811e-20
-1.50933e-07 -1.03454e-07 7.19459e-20
1.03445e-07 -1.83457e-07 2.3174e-21
1.24088e-07 -1.70529e-07 -5.70992e-20
-3.93278e-08 -7.69786e-07 -2.68168e-20
3.16501e-07 -5.06253e-07 4.72087e-20
1.51206e-08 -1.84302e-07 -5.44884e-21
1.29969e-07 9.89412e-08 -7.68881e-21
-1.16747e-07 -1.41715e-07 4.66458e-20
-1.01252e-07 1.88768e-07 2.54958e-20
-6.22067e-08 1.85015e-07 6.49647e-20
1.35517e-07 1.40328e-07 -1.5454e-20
6.64375e-08 -1.73053e-07 2.03487e-20
-1.71771e-07 -4.89767e-07 5.94618e-20
3.87162e-09 5.95172e-08 -2.90324e-20
1.37196e-07 1.41174e-07 2.05516e-20
-7.39619e-08 -3.64218e-08 -5.29433e-20
-6.14573e-08 3.35504e-08 -2.94453e-20
5.49958e-07 -2.40927e-07 8.85516e-20
6.83078e-08 -1.12892e-07 -4.72707e-20
-6.48338e-08 -1.10915e-07 -4.17268e-20
2.4609e-08 -2.12793e-09 -3.72992e-20
2.1239e-09 -9.3269e-09 1.10989e-19
-6.90001e-09 -6.82477e-09 -4.92706e-20
3.02999e-08 1.98634e-08 -4.79525e-20
-9.49817e-08 -1.79299e-07 -3.34372e-20
1.4616e-07 5.8617e-08 -7.01566e-20
-3.55653e-07 -3.90996e-07 4.477e-22
1.34272e-09 1.14642e-08 -9.49795e-20
1.32719e-09 2.04826e-09 9.86578e-20
2.56245e-09 -3.37046e-10 -1.21818e-19
3.41284e-07 -6.73957e-07 1.6651e-20
-1.41871e-08 1.67098e-08 2.40408e-20
-3.25403e-09 2.02433e-08 -3.23834e-20
-1.46962e-07 5.22425e-08 -7.5228e-20
-5.07826e-09 5.96971e-08 -5.07727e-20
-3.22879e-08 9.57342e-08 -3.68285e-20
6.65585e-08 2.83851e-09 7.10881e-20
1.50114e-08 5.75521e-08 3.98313e-20
-3.93468e-09 7.95826e-08 2.12189e-20
1.14073e-07 6.20616e-08 -4.98573e-21
8.12672e-09 7.34241e-07 5.54938e-20
-1.06132e-07 1.00424e-07 5.40209e-20
7.95805e-08 -5.35065e-08 -1.1023e-19
4.59437e-08 -4.1949e-08 -4.75095e-20
-7.5308e-07 -1.034e-07 -5.35691e-20
-2.14666e-08 8.50915e-09 2.23968e-21
-5.48358e-07 -6.48658e-07 9.71115e-21
9.96525e-09 2.66857e-08 -4.21472e-20
9.61872e-08 1.87037e-08 -7.70605e-21
2.86361e-07 -3.71649e-08 -7.13536e-20
-6.54633e-08 -1.07571e-07 -2.36227e-23
1.25165e-07 3.58997e-08 -1.06906e-19
6.52006e-10 -3.18556e-08 1.25612e-19
-7.05919e-08 8.16729e-08 9.62664e-20
-2.69967e-08 -1.71745e-08 -2.1933e-20
-6.36264e-08 1.29264e-07 -4.17937e-20
1.15109e-08 8.15886e-08 -1.02592e-20
1.87075e-08 1.37122e-08 -2.15288e-20
1.85657e-08 -1.31726e-08 -2.14096e-20
-5.10522e-07 -1.39075e-07 -7.28367e-21
5.62435e-08 2.09877e-08 2.38136e-20
-6.77135e-08 1.31059e-06 -1.19994e-20
-4.71032e-09 -1.34649e-06 -4.83786e-20
6.62766e-07 1.13457e-06 4.69385e-21
-6.87893e-08 5.45711e-08 9.96466e-20
-3.51192e-07 7.06767e-07 -1.66107e-20
6.66573e-07 -1.09508e-06 -5.78337e-20
-1.10228e-07 -1.78405e-07 -1.78027e-20
1.01222e-06 8.86935e-07 3.1378e-20
1.19018e-08 -2.11094e-08 4.54002e-20
-1.24013e-08 -2.13899e-08 -8.58153e-21
1.06105e-06 -8.67188e-07 5.99041e-20
-6.50217e-08 1.27871e-07 -3.37611e-20
-6.66508e-07 -4.2448e-07 -8.54657e-20
-5.62042e-07 -1.17145e-06 -4.62066e-20
-3.14797e-07 -7.24199e-07 9.81228e-21
-5.77793e-07 1.19095e-06 4.59632e-20
-1.36545e-07 8.07069e-07 3.43968e-20
-9.62464e-10 2.82656e-08 -4.84163e-20
-3.50589e-07 4.51374e-07 -4.4041e-20
-3.35648e-07 -6.8697e-07 -5.56373e-20
1.3052e-06 2.27762e-07 1.46099e-20
-1.02066e-07 8.67725e-08 3.89237e-20
-2.39834e-09 5.7331e-08 3.2183e-20
-6.31344e-07 4.5705e-07 1.2296e-20
-1.13193e-07 6.04131e-08 -2.08489e-20
1.29234e-06 -2.02585e-07 1.08039e-19
-8.63928e-08 5.79937e-08 1.25306e-19
6.29316e-08 -1.3015e-07 9.92972e-21
-1.0057e-06 -7.6384e-07 -7.93157e-20
-3.39116e-07 7.26605e-07 6.14954e-20
-1.03007e-06 7.5823e-07 4.65046e-21
3.00974e-07 6.71444e-07 8.91512e-20
-1.10809e-07 8.80848e-08 -7.27927e-20
-3.07515e-08 1.74167e-08 2.10388e-20
-1.68468e-09 -2.67738e-09 4.41135e-20
4.24939e-10 -2.31122e-09 1.6055e-20
8.42412e-09 8.84575e-08 2.92063e-20
-2.47072e-09 2.68162e-09 2.3519e-21
1.30549e-09 3.31875e-09 -5.90328e-21
2.23097e-09 -9.58226e-10 -2.52425e-20
-1.31831e-09 1.04796e-08 -4.61659e-20
-2.31589e-07 5.05276e-07 2.48508e-20
-1.74215e-08 1.25053e-08 3.21451e-20
3.00254e-08 -1.89158e-08 2.66479e-20
2.94311e-08 -1.70489e-08 -1.08991e-20
8.47821e-08 3.30869e-08 3.14313e-20
-7.9853e-10 -8.96917e-09 3.77835e-20
-8.00844e-09 -4.05932e-09 -7.4171e-20
2.94138e-08 1.71583e-08 2.40812e-20
7.48429e-07 -1.44243e-07 3.86362e-20
-9.69733e-08 -1.23607e-07 -3.09167e-20
-6.55261e-07 4.56832e-07 -1.69156e-20
-5.86684e-07 6.69144e-07 -1.44834e-20
7.90826e-07 -2.85597e-07 1.05703e-19
-3.79573e-09 -1.10097e-08 2.14206e-20
-4.16831e-09 1.13093e-08 1.10828e-20
-1.24294e-08 2.1336e-09 -3.00751e-20
-8.14964e-09 8.31349e-09 3.2183e-20
-1.12674e-08 -2.38657e-09 5.4394e-20
2.0871e-09 2.6477e-09 1.33518e-20
1.2094e-08 -2.97509e-09 -3.81625e-20
5.09984e-09 -3.58572e-09 -6.90233e-20
-3.56784e-09 -2.57415e-09 -5.80034e-20
7.73402e-09 -7.95376e-09 -8.14185e-20
7.77692e-09 8.19058e-09 8.68347e-20
-3.5896e-09 2.26283e-09 3.55636e-20
3.93578e-09 -7.86746e-10 -4.63244e-20
6.52693e-09 3.61535e-09 8.49678e-20
1.41336e-08 5.04374e-09 -6.76252e-20
SCALARS rr_necrosis float
LOOKUP_TABLE default
0
0
0
0
0
0
0
0
0
0
0
0
0
0
0
0
0
0
0
0
0
0
0
0
0
0
0
0
0
0
0
0
0
0
0
0
0
0
0
0
0
0
0
0
0
0
0
0
0
0
0
0
0
0
0
0
0
0
0
0
0
0
0
0
0
0
0
0
0
0
0
0
0
0
0
0
0
0
0
0
0
0
0
0
0
0
0
0
0
0
0
0
0
0
0
0
0
0
0
0
0
0
0
0
0
0
0
0
0
0
0
0
0
0
0
0
0
0
0
0
0
0
0
0
0
0
0
0
0
0
0
0
0
0
0
0
0
0
0
0
0
0
0
0
0
0
0
0
0
0
0
0
0
0
0
0
0
0
0
0
0
0
0
0
0
0
0
0
0
0
0
0
0
0
0
0
0
0
0
0
0
0
0
0
0
0
0
0
0
0
0
0
0
0
0
0
0
0
0
0
0
0
0
0
0
0
0
0
0
0
0
0
0
0
0
0
0
0
0
0
0
0
0
0
0
0
0
0
0
0
0
0
0
0
0
0
0
0
0
0
0
0
0
0
0
0
0
0
0
0
0
0
0
0
0
0
0
0
0
0
0
0
0
0
0
0
0
0
0
0
0
0
0
0
0
0
0
0
0
0
0
0
0
0
0
0
0
0
0
0
0
0
0
0
0
0
0
0
0
0
0
0
0
0
0
0
0
0
0
0
0
0
0
0
0
0
0
0
0
0
0
0
0
0
0
0
0
0
0
0
0
0
0
0
0
0
0
0
0
0
0
0
0
0
0
0
0
0
0
0
0
0
0
0
0
0
0
0
0
0
0
0
0
0
0
0
0
0
0
0
0
0
0
0
0
0
0
0
0
0
0
0
0
0
0
0
0
0
0
0
0
0
0
0
0
0
0
0
0
0
0
0
0
0
0
0
0
0
0
0
0
0
0
0
0
0
0
0
0
0
0
0
0
0
0
0
0
0
0
0
0
0
0
0
0
0
0
0
0
0
0
0
0
0
0
0
0
0
0
0
0
0
0
0
0
0
0
0
0
0
0
0
0
0
0
0
0
0
0
0
0
0
0
0
0
0
0
0
0
0
0
0
0
0
0
0
0
0
0
0
0
0
0
0
0
0
0
0
0
0
0
0
0
0
0
0
0
0
0
0
0
0
0
0
0
0
0
0
0
0
0
0
0
0
0
0
0
0
0
0
0
0
0
0
0
0
0
0
0
0
0
0
0
0
0
0
0
0
0
0
0
0
0
0
0
0
0
0
0
0
0
0
0
SCALARS rr_protein float
LOOKUP_TABLE default
1
1
1
1
1
1
1
1
1
1
1
1
1
1
1
1
1
1
1
1
1
1
1
1
1
1
1
1
1
1
1
1
1
1
1
1
1
1
1
1
1
1
1
1
1
1
1
1
1
1
1
1
1
1
1
1
1
1
1
1
1
1
1
1
1
1
1
1
1
1
1
1
1
1
1
1
1
1
1
1
1
1
1
1
1
1
1
1
1
1
1
1
1
1
1
1
1
1
1
1
1
1
1
1
1
1
1
1
1
1
1
1
1
1
1
1
1
1
1
1
1
1
1
1
1
1
1
1
1
1
1
1
1
1
1
1
1
1
1
1
1
1
1
1
1
1
1
1
1
1
1
1
1
1
1
1
1
1
1
1
1
1
1
1
1
1
1
1
1
1
1
1
1
1
1
1
1
1
1
1
1
1
1
1
1
1
1
1
1
1
1
1
1
1
1
1
1
1
1
1
1
1
1
1
1
1
1
1
1
1
1
1
1
1
1
1
1
1
1
1
1
1
1
1
1
1
1
1
1
1
1
1
1
1
1
1
1
1
1
1
1
1
1
1
1
1
1
1
1
1
1
1
1
1
1
1
1
1
1
1
1
1
1
1
1
1
1
1
1
1
1
1
1
1
1
1
1
1
1
1
1
1
1
1
1
1
1
1
1
1
1
1
1
1
1
1
1
1
1
1
1
1
1
1
1
1
1
1
1
1
1
1
1
1
1
1
1
1
1
1
1
1
1
1
1
1
1
1
1
1
1
1
1
1
1
1
1
1
1
1
1
1
1
1
1
1
1
1
1
1
1
1
1
1
1
1
1
1
1
1
1
1
1
1
1
1
1
1
1
1
1
1
1
1
1
1
1
1
1
1
1
1
1
1
1
1
1
1
1
1
1
1
1
1
1
1
1
1
1
1
1
1
1
1
1
1
1
1
1
1
1
1
1
1
1
1
1
1
1
1
1
1
1
1
1
1
1
1
1
1
1
1
1
1
1
1
1
1
1
1
1
1
1
1
1
1
1
1
1
1
1
1
1
1
1
1
1
1
1
1
1
1
1
1
1
1
1
1
1
1
1
1
1
1
1
1
1
1
1
1
1
1
1
1
1
1
1
1
1
1
1
1
1
1
1
1
1
1
1
1
1
1
1
1
1
1
1
1
1
1
1
1
1
1
1
1
1
1
1
1
1
1
1
1
1
1
1
1
1
1
1
1
1
1
1
1
1
1
1
1
1
1
1
1
1
1
1
1
1
1
1
1
1
1
1
1
1
1
1
1
1
1
1
SCALARS rr_(S_ext) float
LOOKUP_TABLE default
0.981485
0.981437
0.981445
0.981435
0.981442
0.981444
0.981484
0.981444
0.98145
0.98144
0.981454
0.981444
0.981445
0.981441
0.981436
0.981445
0.981437
0.981441
0.981447
0.981444
0.981448
0.981434
0.981444
0.981444
0.981444
0.981439
0.981465
0.981444
0.981456
0.981434
0.981445
0.981455
0.981468
0.981435
0.981439
0.981435
0.981432
0.981439
0.981445
0.981468
0.981455
0.981432
0.981432
0.981445
0.981456
0.981457
0.981448
0.981449
0.981444
0.981456
0.981456
0.981455
0.981438
0.981457
0.981438
0.981466
0.981439
0.981456
0.981439
0.981443
0.981436
0.98144
0.98147
0.981441
0.98144
0.981442
0.981436
0.98144
0.981444
0.981436
0.981438
0.981438
0.981456
0.981442
0.981446
0.981465
0.981441
0.981442
0.98144
0.981451
0.981462
0.981441
0.981437
0.98146
0.981459
0.981461
0.981444
0.981444
0.981456
0.981435
0.981456
0.981436
0.981439
0.981443
0.981457
0.981454
0.981464
0.981439
0.981441
0.981445
0.981453
0.98146
0.981459
0.981438
0.98144
0.981439
0.981438
0.981446
0.98146
0.981433
0.981443
0.981457
0.981458
0.981439
0.981439
0.981457
0.981441
0.981465
0.981441
0.981457
0.981448
0.981436
0.981435
0.981439
0.981433
0.981436
0.98144
0.981439
0.981464
0.981456
0.981436
0.981436
0.981437
0.981435
0.98146
0.981438
0.981466
0.981445
0.981437
0.981438
0.981459
0.981445
0.981451
0.981439
0.981465
0.981439
0.981444
0.981447
0.981445
0.981452
0.981448
0.981435
0.981454
0.981445
0.981439
0.981435
0.981441
0.981461
0.98146
0.981442
0.981449
0.981454
0.981459
0.981454
0.981458
0.981439
0.98146
0.981461
0.981455
0.981459
0.981439
0.981456
0.981455
0.981441
0.981456
0.981438
0.981439
0.981444
0.98144
0.981442
0.981457
0.981439
0.981439
0.981458
0.981443
0.981456
0.981439
0.98144
0.981441
0.981439
0.981443
0.981464
0.981455
0.981455
0.981435
0.98144
0.981439
0.981437
0.981435
0.981443
0.981435
0.981448
0.981452
0.981437
0.981458
0.981437
0.981443
0.981458
0.98144
0.981435
0.981442
0.981443
0.98144
0.981437
0.981451
0.981444
0.981452
0.981441
0.981433
0.981433
0.981431
0.981433
0.981433
0.981433
0.981441
0.981436
0.981435
0.981435
0.981436
0.981439
0.981439
0.981451
0.981439
0.981432
0.98145
0.981437
0.981437
0.981432
0.981451
0.981431
0.981439
0.981452
0.981439
0.981452
0.981438
0.98143
0.981451
0.981452
0.981462
0.981455
0.981437
0.981466
0.981444
0.981452
0.981448
0.981431
0.981433
0.981434
0.981432
0.981469
0.981451
0.981431
0.981443
0.981452
0.981432
0.981451
0.981434
0.981452
0.981433
0.98144
0.981439
0.981437
0.981444
0.981439
0.981443
0.981461
0.981461
0.981441
0.981447
0.981444
0.981454
0.981439
0.981442
0.981451
0.981443
0.981453
0.981445
0.981454
0.981451
0.981434
0.981438
0.981435
0.981435
0.98144
0.981454
0.981435
0.98144
0.981449
0.981454
0.981455
0.98144
0.981452
0.981441
0.981455
0.981456
0.981453
0.981465
0.98144
0.981451
0.981433
0.981454
0.98144
0.981452
0.98144
0.981454
0.981446
0.981475
0.981443
0.981452
0.981438
0.981451
0.981448
0.981443
0.981436
0.981454
0.981454
0.98145
0.981442
0.981453
0.981445
0.981445
0.981441
0.981454
0.981451
0.981449
0.981451
0.981454
0.981451
0.981441
0.981443
0.981451
0.981452
0.981444
0.981444
0.981453
0.981441
0.981456
0.981447
0.981462
0.981448
0.981437
0.981438
0.981436
0.981436
0.981434
0.981442
0.981442
0.98144
0.981438
0.981441
0.981448
0.981447
0.981451
0.981445
0.981451
0.981451
0.981438
0.981451
0.981442
0.981455
0.981435
0.981444
0.981448
0.981451
0.981442
0.981447
0.981448
0.981447
0.981447
0.981448
0.981452
0.981447
0.981447
0.981441
0.981448
0.981448
0.981448
0.981448
0.981447
0.981444
0.981448
0.981444
0.981445
0.981448
0.981444
0.981444
0.981449
0.981439
0.981448
0.981437
0.981457
0.98144
0.981441
0.981447
0.981449
0.981441
0.981458
0.981444
0.981449
0.981474
0.981437
0.981438
0.981445
0.981448
0.981449
0.981448
0.981439
0.981438
0.981441
0.981444
0.981444
0.981462
0.981448
0.98144
0.98145
0.98145
0.981448
0.981454
0.981441
0.981448
0.981447
0.981446
0.981449
0.981448
0.981449
0.98145
0.981467
0.981465
0.981448
0.981447
0.981448
0.98145
0.981449
0.981449
0.981448
0.981458
0.981439
0.981447
0.981441
0.981441
0.981459
0.981444
0.981444
0.981441
0.98143
0.98143
0.981437
0.981448
0.981446
0.981458
0.98143
0.981435
0.981434
0.981455
0.981439
0.981434
0.981447
0.98144
0.981442
0.981439
0.981438
0.981441
0.981445
0.981456
0.981446
0.981443
0.98144
0.981465
0.981435
0.981479
0.981438
0.981443
0.981453
0.981444
0.981445
0.981436
0.981443
0.981436
0.981445
0.981441
0.981435
0.981437
0.98146
0.981439
0.981484
0.981487
0.981481
0.981442
0.981461
0.981479
0.98145
0.981481
0.981441
0.981441
0.981484
0.981444
0.981471
0.981487
0.981467
0.981487
0.981467
0.981439
0.981459
0.981461
0.981482
0.981446
0.98144
0.981468
0.981445
0.981477
0.981443
0.981445
0.981487
0.981466
0.981485
0.981454
0.981445
0.981439
0.981432
0.981432
0.981441
0.981432
0.981431
0.981432
0.981432
0.981459
0.981435
0.981439
0.98144
0.981442
0.981433
0.981433
0.981441
0.981453
0.981446
0.981462
0.98148
0.981473
0.98143
0.98143
0.98143
0.981431
0.98143
0.981434
0.981434
0.981434
0.981436
0.981433
0.981432
0.981436
0.981434
0.981434
0.981432
SCALARS rr_(P_ext) float
LOOKUP_TABLE default
0.0209685
0.0208695
0.0208782
0.0208712
0.0208445
0.0208784
0.0209688
0.0208724
0.0208865
0.0208698
0.020962
0.0208724
0.0208745
0.0208685
0.0208536
0.0208768
0.020865
0.0208735
0.0208909
0.0208807
0.020882
0.0208104
0.0208819
0.0208805
0.0208808
0.0208719
0.0209482
0.0208771
0.0209179
0.0208304
0.0208748
0.0209177
0.0209496
0.0208364
0.0208334
0.0208365
0.0208293
0.0208347
0.0208749
0.0209494
0.0209181
0.0208289
0.020829
0.0208747
0.0209401
0.0209165
0.0208888
0.0208849
0.020878
0.0209241
0.0209205
0.0209078
0.0208458
0.0209076
0.0208466
0.0209372
0.0208332
0.0209076
0.0208333
0.0208801
0.0208653
0.0208572
0.0209419
0.0208577
0.020857
0.020865
0.020865
0.0208718
0.0208813
0.0208691
0.020846
0.0208461
0.0209182
0.020862
0.0208779
0.0209539
0.0208518
0.0208651
0.0208719
0.0209056
0.0209261
0.0208414
0.0208612
0.0209289
0.020915
0.020939
0.0208771
0.0208635
0.02094
0.0208152
0.0209077
0.0208154
0.0208512
0.0208662
0.0209068
0.0209214
0.0209259
0.02087
0.020852
0.0208753
0.0208966
0.0209127
0.020929
0.0208726
0.0208709
0.0208706
0.02086
0.0208761
0.0209292
0.0208679
0.02088
0.0209369
0.0209325
0.0208732
0.0208711
0.0209073
0.0208333
0.0209264
0.0208336
0.0209069
0.0208931
0.0208547
0.0208695
0.0208632
0.0208672
0.0208528
0.0208368
0.02087
0.0209259
0.0209068
0.020846
0.0208701
0.0208617
0.0208698
0.0209126
0.0208331
0.0209314
0.0208738
0.0208611
0.0208333
0.0209115
0.0208696
0.0208916
0.0208698
0.0209268
0.0208715
0.0208711
0.020878
0.0208783
0.0208995
0.0208851
0.0208695
0.0209179
0.0208743
0.0208698
0.02087
0.0208671
0.0209105
0.0209102
0.0208745
0.0208847
0.0209172
0.0209377
0.0209205
0.0209106
0.0208706
0.0209106
0.0209107
0.0209179
0.0209104
0.020851
0.0209076
0.0209206
0.0208662
0.0209074
0.0208603
0.0208511
0.0208725
0.0208455
0.0208705
0.0209178
0.0208701
0.0208702
0.0209113
0.0208633
0.0209213
0.0208633
0.0208598
0.0208506
0.02087
0.0208632
0.0209249
0.0209074
0.0209178
0.0208699
0.0208739
0.0208734
0.0208618
0.0208696
0.0208654
0.0208694
0.0208897
0.0209049
0.0208619
0.0209177
0.0208612
0.0208651
0.0209132
0.0208559
0.0208693
0.020855
0.020868
0.0208712
0.0208611
0.0208992
0.0208672
0.0209039
0.0208599
0.0208674
0.0208675
0.0208685
0.0208681
0.0208681
0.0208682
0.0208691
0.0208543
0.0208546
0.0208543
0.0208542
0.0208465
0.0208464
0.0208999
0.0208689
0.020872
0.0208853
0.0208536
0.0208532
0.0208717
0.0209046
0.0208724
0.02087
0.0208988
0.0208558
0.0208992
0.0208608
0.0208727
0.0208986
0.0209035
0.0209263
0.0209256
0.0208611
0.0209282
0.0208755
0.020904
0.0208903
0.0208725
0.0208676
0.0208284
0.0208679
0.0209289
0.0209039
0.0208721
0.0208724
0.0209051
0.0208677
0.0208911
0.0208285
0.0209037
0.0208672
0.0208638
0.0208734
0.0208538
0.0208637
0.0208459
0.0208745
0.0209355
0.0209391
0.0208486
0.0208818
0.0208724
0.0208992
0.0208556
0.0208663
0.0209038
0.020866
0.0208962
0.0208706
0.0208962
0.0209044
0.0208209
0.0208501
0.0208533
0.0208535
0.0208692
0.0208955
0.0208375
0.0208642
0.0208844
0.0208951
0.0208982
0.0208487
0.0208989
0.0208512
0.0208972
0.0209399
0.0208956
0.0209273
0.0208596
0.0208988
0.020821
0.0208971
0.0208619
0.0208999
0.0208628
0.0208974
0.0208771
0.0209435
0.020879
0.0208991
0.0208491
0.0208996
0.0208843
0.0208628
0.0208691
0.0208973
0.0208956
0.0208914
0.0208598
0.0208957
0.0208724
0.020877
0.0208461
0.0208956
0.0208919
0.0208829
0.0208908
0.0208966
0.0208906
0.0208568
0.0208727
0.0208915
0.0208992
0.0208699
0.0208697
0.0208961
0.0208462
0.0209655
0.0208774
0.0209262
0.0208825
0.0210179
0.0210178
0.0210172
0.0210174
0.0210171
0.0210181
0.0210177
0.0208593
0.0208401
0.0208742
0.0208848
0.0208903
0.0208909
0.0208706
0.0208915
0.020892
0.0208399
0.0208909
0.0208553
0.0209077
0.0208558
0.0208786
0.020885
0.0208912
0.0208484
0.0208774
0.0208843
0.0208773
0.0208842
0.0208917
0.020906
0.020885
0.0208783
0.020855
0.0208894
0.0208926
0.0208898
0.0208856
0.0208785
0.0208705
0.0208899
0.0208706
0.0208794
0.0208853
0.0208722
0.0208791
0.0208911
0.0208629
0.0208834
0.020841
0.0209398
0.0208594
0.0208568
0.0208784
0.0208831
0.0208653
0.0209643
0.0208785
0.0208835
0.020943
0.0208215
0.0208213
0.0208774
0.0208905
0.0208823
0.0208894
0.0208064
0.0208064
0.0208722
0.0208721
0.0208726
0.0209645
0.020892
0.0208615
0.0208853
0.0208862
0.0208854
0.0209661
0.0208634
0.020891
0.0208777
0.0208777
0.0208863
0.0208844
0.0208863
0.0208855
0.0209487
0.0209271
0.0208845
0.0208775
0.0208833
0.0208867
0.0208839
0.0208827
0.0208833
0.0209398
0.0208535
0.0208899
0.0208655
0.0208629
0.0209404
0.0208781
0.0208789
0.0208461
0.0208221
0.0208222
0.0208501
0.0208922
0.020878
0.0209414
0.0208241
0.0208087
0.0208087
0.0209672
0.0208347
0.0208304
0.0208789
0.0208517
0.0208743
0.0208692
0.0208626
0.0208602
0.0208724
0.0209645
0.0208765
0.0208663
0.0208617
0.0209545
0.0208336
0.0209447
0.0208621
0.020869
0.0208978
0.0208749
0.0208729
0.0208452
0.0208715
0.0208453
0.0208775
0.0208616
0.020832
0.0208314
0.0209411
0.0208679
0.0209704
0.0209686
0.0209726
0.0208635
0.0209657
0.0209746
0.0208866
0.0209715
0.020841
0.0208411
0.02097
0.0208827
0.0209484
0.0209709
0.0209503
0.0209713
0.0209503
0.0208342
0.0209447
0.0209653
0.0209702
0.0208733
0.0208581
0.0209519
0.020873
0.0209739
0.0208699
0.0208821
0.020972
0.0209533
0.0209735
0.0209672
0.0208794
0.0208394
0.0208104
0.0208117
0.0208682
0.0208107
0.0208107
0.0208112
0.0208189
0.0209428
0.0208326
0.0208494
0.0208393
0.0208694
0.0208169
0.0208169
0.0208376
0.0209682
0.020883
0.020967
0.0209463
0.0209456
0.0208252
0.0208255
0.0208262
0.020826
0.0208253
0.0208122
0.020826
0.0208168
0.0208102
0.020825
0.0208249
0.0208098
0.0208119
0.0208165
0.0208267
SCALARS rr_(S) float
LOOKUP_TABLE default
0.958957
0.958857
0.958869
0.958856
0.958849
0.958869
0.958956
0.958865
0.958878
0.95886
0.958924
0.958865
0.958867
0.95886
0.958848
0.958869
0.958855
0.958863
0.958878
0.95887
0.958875
0.958824
0.958871
0.95887
0.95887
0.958861
0.958926
0.958868
0.958901
0.958835
0.958868
0.9589
0.95893
0.958839
0.95884
0.958839
0.958832
0.958842
0.958868
0.95893
0.958901
0.958831
0.958831
0.958867
0.958914
0.958901
0.958878
0.958877
0.958869
0.958905
0.958903
0.958895
0.958846
0.958896
0.958847
0.958922
0.95884
0.958896
0.95884
0.958869
0.958854
0.958853
0.958928
0.958855
0.958853
0.95886
0.958854
0.958861
0.95887
0.958856
0.958846
0.958846
0.958902
0.958858
0.95887
0.95893
0.958852
0.95886
0.958861
0.95889
0.958911
0.958847
0.958853
0.958911
0.958903
0.958918
0.958868
0.95886
0.958914
0.958828
0.958895
0.958828
0.95885
0.958861
0.958896
0.958902
0.958913
0.95886
0.958852
0.958868
0.958887
0.958902
0.95891
0.95886
0.958861
0.95886
0.958853
0.958869
0.958911
0.958852
0.958869
0.958913
0.958911
0.958861
0.95886
0.958897
0.958842
0.958915
0.958843
0.958896
0.958881
0.958848
0.958855
0.958856
0.958853
0.958848
0.958843
0.95886
0.958913
0.958895
0.958844
0.958856
0.958853
0.958856
0.958903
0.958839
0.958919
0.958867
0.958853
0.958839
0.958901
0.958864
0.958882
0.95886
0.958915
0.95886
0.958865
0.958871
0.958869
0.958888
0.958876
0.958856
0.9589
0.958867
0.95886
0.958856
0.95886
0.958902
0.958901
0.958864
0.958877
0.958899
0.958915
0.958901
0.9589
0.95886
0.958901
0.958902
0.958901
0.9589
0.958849
0.958896
0.958902
0.95886
0.958896
0.958853
0.958849
0.958866
0.958847
0.958862
0.958902
0.95886
0.95886
0.9589
0.95886
0.958903
0.958856
0.958855
0.958851
0.95886
0.958859
0.958912
0.958895
0.9589
0.958856
0.958862
0.958861
0.958853
0.958855
0.958861
0.958856
0.958879
0.95889
0.958853
0.958903
0.958853
0.958861
0.958901
0.958853
0.958856
0.958854
0.958862
0.958861
0.958853
0.958887
0.958862
0.95889
0.958856
0.958852
0.958852
0.958852
0.958852
0.958852
0.958853
0.958861
0.958848
0.958848
0.958847
0.958848
0.958848
0.958847
0.958887
0.958859
0.958853
0.958878
0.958849
0.958849
0.958854
0.958889
0.958853
0.95886
0.958887
0.958852
0.958888
0.958854
0.958852
0.958887
0.958889
0.958912
0.958905
0.958853
0.958916
0.958867
0.95889
0.958878
0.958853
0.958852
0.958833
0.958852
0.95892
0.958889
0.958853
0.958865
0.95889
0.958852
0.958882
0.958833
0.95889
0.958852
0.958857
0.958861
0.958849
0.958861
0.958847
0.958866
0.958916
0.958918
0.95885
0.958873
0.958865
0.95889
0.958852
0.95886
0.958889
0.958861
0.958887
0.958865
0.958888
0.958889
0.958829
0.958848
0.958847
0.958847
0.95886
0.958887
0.958839
0.958857
0.958876
0.958887
0.958889
0.958849
0.958887
0.958851
0.958889
0.958914
0.958887
0.958916
0.958855
0.958887
0.958829
0.958889
0.958856
0.958888
0.958857
0.958888
0.958869
0.958934
0.958868
0.958888
0.958847
0.958887
0.958875
0.958859
0.958856
0.958888
0.958887
0.958882
0.958857
0.958886
0.958866
0.958868
0.958848
0.958887
0.958882
0.958875
0.958882
0.958888
0.958882
0.958854
0.958865
0.958882
0.958887
0.958864
0.958864
0.958887
0.958848
0.958927
0.958871
0.958912
0.958875
0.958939
0.958939
0.958937
0.958937
0.958935
0.958943
0.958944
0.958855
0.958843
0.958864
0.958875
0.958878
0.958882
0.958865
0.958882
0.958882
0.958843
0.958882
0.958854
0.958895
0.958848
0.958869
0.958876
0.958882
0.958851
0.958871
0.958875
0.95887
0.958875
0.95888
0.958891
0.958875
0.958871
0.958853
0.958878
0.95888
0.958879
0.958876
0.958871
0.958864
0.958878
0.958864
0.95887
0.958876
0.958865
0.958869
0.95888
0.958856
0.958875
0.958843
0.958914
0.958855
0.958855
0.958871
0.958876
0.958859
0.958929
0.958869
0.958876
0.958933
0.958832
0.958833
0.958869
0.958879
0.958875
0.958879
0.958827
0.958826
0.958862
0.958866
0.958865
0.958933
0.958879
0.958856
0.958878
0.958879
0.958876
0.958926
0.958858
0.958879
0.958871
0.95887
0.958878
0.958876
0.958878
0.958878
0.958929
0.958915
0.958875
0.958871
0.958875
0.958878
0.958876
0.958875
0.958875
0.958916
0.958851
0.958878
0.958859
0.958857
0.958916
0.958869
0.958869
0.958849
0.958826
0.958826
0.958848
0.95888
0.958871
0.958916
0.958828
0.958824
0.958823
0.958928
0.958841
0.958834
0.958871
0.958851
0.958864
0.958858
0.958855
0.958857
0.958866
0.958928
0.958869
0.958861
0.958856
0.95893
0.958837
0.958938
0.958854
0.958862
0.958887
0.958866
0.958867
0.958844
0.958864
0.958844
0.958869
0.958857
0.958836
0.958837
0.958918
0.958858
0.958957
0.958959
0.958955
0.958859
0.958933
0.958954
0.958879
0.958955
0.958846
0.958846
0.958957
0.958871
0.958932
0.958961
0.95893
0.958961
0.95893
0.95884
0.95892
0.958932
0.958955
0.958867
0.958854
0.958931
0.958867
0.958952
0.958863
0.958872
0.958961
0.958931
0.958959
0.958927
0.95887
0.958843
0.958822
0.958822
0.95886
0.958822
0.958822
0.958823
0.958827
0.958918
0.958836
0.958849
0.958844
0.958862
0.958827
0.958826
0.958845
0.958926
0.958873
0.958935
0.95894
0.958933
0.958827
0.958828
0.958829
0.958829
0.958827
0.958825
0.958832
0.958828
0.958826
0.95883
0.95883
0.958826
0.958824
0.958827
0.958831
SCALARS rr_(P) float
LOOKUP_TABLE default
0.0239479
0.023889
0.0238943
0.02389
0.023874
0.0238944
0.023948
0.0238909
0.0238993
0.0238892
0.0239437
0.0238908
0.0238921
0.0238885
0.0238794
0.0238935
0.0238863
0.0238914
0.0239018
0.0238958
0.0238966
0.0238531
0.0238965
0.0238956
0.0238958
0.0238905
0.0239357
0.0238936
0.0239179
0.0238653
0.0238923
0.0239177
0.0239366
0.0238689
0.0238673
0.023869
0.0238646
0.023868
0.0238924
0.0239364
0.023918
0.0238644
0.0238644
0.0238923
0.0239309
0.023917
0.0239006
0.0238983
0.0238941
0.0239214
0.0239193
0.0239119
0.0238747
0.0239118
0.0238752
0.0239293
0.0238671
0.0239118
0.0238672
0.0238954
0.0238865
0.0238816
0.0239321
0.023882
0.0238815
0.0238864
0.0238863
0.0238904
0.0238961
0.0238888
0.0238749
0.0238749
0.023918
0.0238845
0.0238941
0.023939
0.0238784
0.0238864
0.0238905
0.0239105
0.0239227
0.0238721
0.023884
0.0239243
0.0239162
0.0239303
0.0238936
0.0238855
0.0239308
0.023856
0.0239119
0.0238561
0.023878
0.023887
0.0239114
0.0239199
0.0239226
0.0238894
0.0238785
0.0238926
0.0239053
0.0239148
0.0239244
0.0238909
0.0238898
0.0238897
0.0238833
0.0238931
0.0239245
0.023888
0.0238954
0.023929
0.0239264
0.0238912
0.02389
0.0239116
0.0238672
0.0239229
0.0238674
0.0239114
0.0239031
0.0238801
0.023889
0.0238853
0.0238876
0.0238789
0.0238692
0.0238894
0.0239226
0.0239113
0.0238748
0.0238894
0.0238843
0.0238891
0.0239148
0.023867
0.0239259
0.0238917
0.0238839
0.0238671
0.0239141
0.0238891
0.0239023
0.0238892
0.0239232
0.0238902
0.02389
0.0238942
0.0238944
0.023907
0.0238984
0.023889
0.0239178
0.023892
0.0238892
0.0238893
0.0238876
0.0239136
0.0239134
0.0238921
0.0238982
0.0239174
0.0239295
0.0239193
0.0239136
0.0238897
0.0239136
0.0239137
0.0239178
0.0239135
0.0238778
0.0239118
0.0239194
0.0238871
0.0239117
0.0238835
0.0238779
0.0238908
0.0238746
0.0238897
0.0239178
0.0238894
0.0238895
0.023914
0.0238854
0.0239198
0.0238853
0.0238832
0.0238777
0.0238893
0.0238853
0.023922
0.0239117
0.0239177
0.0238892
0.0238917
0.0238913
0.0238843
0.023889
0.0238866
0.0238889
0.0239011
0.0239102
0.0238844
0.0239177
0.023884
0.0238864
0.0239151
0.0238809
0.0238888
0.0238803
0.0238882
0.02389
0.0238839
0.0239068
0.0238877
0.0239096
0.0238833
0.0238877
0.0238877
0.0238883
0.0238881
0.0238881
0.0238881
0.0238888
0.0238798
0.02388
0.0238798
0.0238797
0.0238751
0.0238751
0.0239072
0.0238886
0.0238904
0.0238986
0.0238794
0.0238792
0.0238902
0.02391
0.0238906
0.0238893
0.0239066
0.0238807
0.0239068
0.0238838
0.0238908
0.0239064
0.0239093
0.0239228
0.0239223
0.023884
0.023924
0.0238927
0.0239096
0.0239015
0.0238907
0.0238878
0.0238641
0.023888
0.0239245
0.0239096
0.0238904
0.0238908
0.0239103
0.0238879
0.023902
0.0238641
0.0239095
0.0238875
0.0238856
0.0238914
0.0238795
0.0238856
0.0238748
0.0238921
0.0239282
0.0239303
0.0238764
0.0238965
0.0238908
0.0239068
0.0238806
0.0238872
0.0239095
0.023887
0.0239051
0.0238897
0.023905
0.0239098
0.0238595
0.0238773
0.0238792
0.0238793
0.0238889
0.0239046
0.0238696
0.0238859
0.023898
0.0239044
0.0239063
0.0238765
0.0239066
0.023878
0.0239057
0.0239307
0.0239047
0.0239234
0.0238831
0.0239066
0.0238595
0.0239056
0.0238844
0.0239072
0.023885
0.0239058
0.0238936
0.0239331
0.0238948
0.0239067
0.0238767
0.023907
0.0238979
0.023885
0.0238888
0.0239057
0.0239047
0.0239021
0.0238832
0.0239047
0.0238908
0.0238936
0.0238749
0.0239047
0.0239024
0.0238971
0.0239018
0.0239053
0.0239017
0.0238814
0.023891
0.0239022
0.0239068
0.0238893
0.0238892
0.023905
0.023875
0.0239458
0.0238938
0.0239228
0.0238969
0.0239765
0.0239764
0.023976
0.0239762
0.023976
0.0239767
0.0239764
0.0238829
0.0238712
0.0238919
0.0238982
0.0239015
0.0239019
0.0238897
0.0239022
0.0239025
0.0238711
0.0239019
0.0238805
0.0239119
0.0238807
0.0238945
0.0238983
0.0239021
0.0238763
0.0238938
0.0238979
0.0238938
0.0238978
0.0239023
0.0239108
0.0238983
0.0238944
0.0238803
0.023901
0.0239028
0.0239012
0.0238987
0.0238945
0.0238897
0.0239013
0.0238898
0.023895
0.0238985
0.0238907
0.0238948
0.023902
0.0238851
0.0238974
0.0238718
0.0239307
0.0238829
0.0238814
0.0238944
0.0238973
0.0238865
0.0239451
0.0238944
0.0238975
0.0239328
0.0238599
0.0238598
0.0238938
0.0239016
0.0238968
0.023901
0.0238508
0.0238508
0.0238907
0.0238906
0.0238909
0.0239453
0.0239025
0.0238842
0.0238986
0.0238991
0.0238986
0.0239461
0.0238854
0.0239019
0.023894
0.023894
0.0238992
0.023898
0.0238992
0.0238987
0.023936
0.0239233
0.023898
0.0238939
0.0238973
0.0238994
0.0238977
0.023897
0.0238973
0.0239307
0.0238794
0.0239013
0.0238867
0.0238851
0.0239311
0.0238942
0.0238947
0.0238749
0.0238602
0.0238602
0.0238773
0.0239026
0.0238941
0.0239316
0.0238614
0.0238521
0.0238522
0.0239468
0.023868
0.0238653
0.0238947
0.0238783
0.023892
0.0238888
0.0238849
0.0238835
0.0238908
0.0239452
0.0238933
0.0238872
0.0238843
0.0239394
0.0238672
0.0239338
0.0238845
0.0238887
0.023906
0.0238923
0.0238911
0.0238743
0.0238903
0.0238744
0.0238939
0.0238843
0.0238662
0.0238659
0.0239315
0.0238881
0.0239489
0.0239479
0.0239502
0.0238855
0.023946
0.0239514
0.0238994
0.0239496
0.0238719
0.023872
0.0239487
0.023897
0.0239359
0.0239493
0.023937
0.0239495
0.023937
0.0238677
0.0239336
0.0239457
0.0239488
0.0238914
0.0238822
0.0239379
0.0238912
0.0239509
0.0238893
0.0238966
0.0239499
0.0239387
0.0239508
0.0239468
0.023895
0.0238709
0.0238532
0.0238539
0.0238883
0.0238533
0.0238533
0.0238536
0.0238582
0.0239325
0.0238667
0.0238769
0.0238708
0.023889
0.023857
0.0238571
0.0238698
0.0239474
0.0238972
0.0239468
0.0239348
0.0239342
0.0238621
0.0238622
0.0238627
0.0238625
0.0238621
0.0238542
0.0238626
0.023857
0.023853
0.023862
0.0238619
0.0238528
0.023854
0.0238568
0.023863
SCALARS rr_(T) float
LOOKUP_TABLE default
0.144168
0.144195
0.144193
0.144194
0.144206
0.144192
0.144168
0.144195
0.14419
0.144195
0.144168
0.144195
0.144194
0.144196
0.144202
0.144193
0.144197
0.144194
0.144189
0.144192
0.144192
0.144221
0.144191
0.144192
0.144192
0.144194
0.144172
0.144193
0.144181
0.144212
0.144194
0.144181
0.144172
0.14421
0.144211
0.144209
0.144212
0.14421
0.144194
0.144172
0.144181
0.144213
0.144212
0.144194
0.144174
0.144181
0.144189
0.144191
0.144193
0.144179
0.14418
0.144184
0.144205
0.144184
0.144205
0.144176
0.144211
0.144184
0.144211
0.144192
0.144197
0.1442
0.144175
0.1442
0.1442
0.144197
0.144197
0.144194
0.144191
0.144195
0.144205
0.144205
0.144181
0.144199
0.144193
0.144171
0.144203
0.144197
0.144194
0.144184
0.144179
0.144207
0.144199
0.144178
0.144182
0.144175
0.144193
0.144198
0.144174
0.144219
0.144184
0.144219
0.144203
0.144197
0.144184
0.14418
0.144179
0.144195
0.144203
0.144194
0.144187
0.144183
0.144178
0.144194
0.144195
0.144195
0.144199
0.144193
0.144178
0.144195
0.144192
0.144175
0.144177
0.144194
0.144194
0.144184
0.144211
0.144179
0.144211
0.144184
0.144188
0.144201
0.144195
0.144198
0.144196
0.144202
0.144209
0.144195
0.144179
0.144184
0.144205
0.144195
0.144198
0.144195
0.144183
0.144211
0.144177
0.144194
0.144199
0.144211
0.144183
0.144196
0.144189
0.144195
0.144179
0.144194
0.144195
0.144193
0.144192
0.144186
0.144191
0.144195
0.144181
0.144194
0.144195
0.144195
0.144196
0.144183
0.144183
0.144194
0.144191
0.144181
0.144175
0.14418
0.144183
0.144195
0.144183
0.144183
0.144181
0.144183
0.144203
0.144184
0.14418
0.144197
0.144184
0.144199
0.144203
0.144195
0.144205
0.144195
0.144181
0.144195
0.144195
0.144183
0.144198
0.14418
0.144198
0.144199
0.144203
0.144195
0.144198
0.144179
0.144184
0.144181
0.144195
0.144194
0.144194
0.144198
0.144195
0.144197
0.144195
0.144189
0.144184
0.144198
0.144181
0.144198
0.144198
0.144182
0.144201
0.144195
0.144201
0.144196
0.144195
0.144199
0.144186
0.144197
0.144185
0.144199
0.144196
0.144196
0.144195
0.144195
0.144195
0.144195
0.144196
0.144201
0.144201
0.144201
0.144201
0.144205
0.144205
0.144186
0.144196
0.144194
0.14419
0.144202
0.144202
0.144194
0.144185
0.144193
0.144195
0.144186
0.144201
0.144186
0.144199
0.144193
0.144186
0.144185
0.144179
0.144178
0.144199
0.144178
0.144193
0.144185
0.144189
0.144193
0.144196
0.144213
0.144195
0.144178
0.144185
0.144194
0.144195
0.144184
0.144195
0.144189
0.144213
0.144185
0.144196
0.144198
0.144194
0.144202
0.144198
0.144205
0.144194
0.144176
0.144175
0.144204
0.144191
0.144195
0.144186
0.144201
0.144197
0.144185
0.144197
0.144187
0.144196
0.144187
0.144185
0.144216
0.144203
0.144202
0.144202
0.144195
0.144187
0.144209
0.144197
0.144191
0.144188
0.144187
0.144204
0.144186
0.144203
0.144187
0.144174
0.144187
0.144179
0.1442
0.144186
0.144216
0.144187
0.144199
0.144186
0.144198
0.144187
0.144193
0.144175
0.144192
0.144186
0.144204
0.144186
0.144191
0.144198
0.144195
0.144187
0.144187
0.144189
0.1442
0.144187
0.144195
0.144193
0.144205
0.144187
0.144188
0.144191
0.144189
0.144187
0.144189
0.144201
0.144194
0.144189
0.144186
0.144196
0.144196
0.144187
0.144205
0.144167
0.144193
0.144179
0.144191
0.14415
0.14415
0.14415
0.14415
0.14415
0.14415
0.14415
0.1442
0.144208
0.144194
0.144191
0.144189
0.144189
0.144195
0.144189
0.144188
0.144208
0.144189
0.144201
0.144184
0.144201
0.144193
0.144191
0.144189
0.144204
0.144193
0.144191
0.144193
0.144191
0.144188
0.144184
0.144191
0.144193
0.144201
0.144189
0.144188
0.144189
0.14419
0.144193
0.144196
0.144189
0.144195
0.144192
0.14419
0.144195
0.144192
0.144189
0.144198
0.144191
0.144207
0.144174
0.1442
0.144201
0.144193
0.144191
0.144197
0.144167
0.144193
0.144191
0.144175
0.144216
0.144217
0.144193
0.144189
0.144191
0.144189
0.144223
0.144223
0.144194
0.144195
0.144195
0.144167
0.144188
0.144199
0.14419
0.14419
0.14419
0.144166
0.144198
0.144189
0.144193
0.144193
0.14419
0.144191
0.14419
0.14419
0.144172
0.144179
0.144191
0.144193
0.144191
0.14419
0.144191
0.144191
0.144191
0.144174
0.144202
0.144189
0.144197
0.144198
0.144174
0.144192
0.144192
0.144205
0.144216
0.144216
0.144204
0.144188
0.144193
0.144174
0.144215
0.144222
0.144222
0.144166
0.14421
0.144212
0.144193
0.144203
0.144194
0.144195
0.144198
0.144199
0.144195
0.144167
0.144193
0.144197
0.144198
0.144171
0.144211
0.144174
0.144198
0.144196
0.144187
0.144193
0.144195
0.144206
0.144195
0.144206
0.144193
0.144199
0.144212
0.144212
0.144174
0.144196
0.144167
0.144168
0.144166
0.144198
0.144167
0.144166
0.14419
0.144167
0.144207
0.144207
0.144167
0.144191
0.144173
0.144167
0.144172
0.144167
0.144172
0.14421
0.144173
0.144167
0.144167
0.144194
0.1442
0.144171
0.144195
0.144166
0.144196
0.144191
0.144167
0.144171
0.144166
0.144166
0.144192
0.144208
0.144221
0.144221
0.144196
0.144221
0.144221
0.144221
0.144217
0.144174
0.144211
0.144204
0.144208
0.144196
0.144218
0.144218
0.144209
0.144166
0.144191
0.144167
0.144174
0.144174
0.144214
0.144214
0.144214
0.144214
0.144214
0.14422
0.144214
0.144218
0.144221
0.144215
0.144215
0.144222
0.14422
0.144219
0.144214
SCALARS rr_tsim float
LOOKUP_TABLE default
310
310
310
310
310
310
310
310
310
310
310
310
310
310
310
310
310
310
310
310
310
310
310
310
310
310
310
310
310
310
310
310
310
310
310
310
310
310
310
310
310
310
310
310
310
310
310
310
310
310
310
310
310
310
310
310
310
310
310
310
310
310
310
310
310
310
310
310
310
310
310
310
310
310
310
310
310
310
310
310
310
310
310
310
310
310
310
310
310
310
310
310
310
310
310
310
310
310
310
310
310
310
310
310
310
310
310
310
310
310
310
310
310
310
310
310
310
310
310
310
310
310
310
310
310
310
310
310
310
310
310
310
310
310
310
310
310
310
310
310
310
310
310
310
310
310
310
310
310
310
310
310
310
310
310
310
310
310
310
310
310
310
310
310
310
310
310
310
310
310
310
310
310
310
310
310
310
310
310
310
310
310
310
310
310
310
310
310
310
310
310
310
310
310
310
310
310
310
310
310
310
310
310
310
310
310
310
310
310
310
310
310
310
310
310
310
310
310
310
310
310
310
310
310
310
310
310
310
310
310
310
310
310
310
310
310
310
310
310
310
310
310
310
310
310
310
310
310
310
310
310
310
310
310
310
310
310
310
310
310
310
310
310
310
310
310
310
310
310
310
310
310
310
310
310
310
310
310
310
310
310
310
310
310
310
310
310
310
310
310
310
310
310
310
310
310
310
310
310
310
310
310
310
310
310
310
310
310
310
310
310
310
310
310
310
310
310
310
310
310
310
310
310
310
310
310
310
310
310
310
310
310
310
310
310
310
310
310
310
310
310
310
310
310
310
310
310
310
310
310
310
310
310
310
310
310
310
310
310
310
310
310
310
310
310
310
310
310
310
310
310
310
310
310
310
310
310
310
310
310
310
310
310
310
310
310
310
310
310
310
310
310
310
310
310
310
310
310
310
310
310
310
310
310
310
310
310
310
310
310
310
310
310
310
310
310
310
310
310
310
310
310
310
310
310
310
310
310
310
310
310
310
310
310
310
310
310
310
310
310
310
310
310
310
310
310
310
310
310
310
310
310
310
310
310
310
310
310
310
310
310
310
310
310
310
310
310
310
310
310
310
310
310
310
310
310
310
310
310
310
310
310
310
310
310
310
310
310
310
310
310
310
310
310
310
310
310
310
310
310
310
310
310
310
310
310
310
310
310
310
310
310
310
310
310
310
310
310
310
310
310
310
310
310
310
310
310
310
310
310
310
310
310
310
310
310
310
310
310
310
310
310
310
310
310
310
310
310
310
310
310
310
310
310
310
310
310
310
310
310
310
310
310
SCALARS rr_Vext float
LOOKUP_TABLE default
0.181359
0.449123
0.356048
0.468109
0.250492
0.377828
0.179274
0.465089
0.395106
0.504565
0.165389
0.466508
0.409826
0.435013
0.516135
0.424864
0.369043
0.414184
0.365531
0.360527
0.405109
0.0765106
0.415069
0.383014
0.347105
0.403471
0.15501
0.352834
0.267413
0.339246
0.361969
0.276485
0.17152
0.252901
0.249247
0.253452
0.330126
0.24949
0.36154
0.192836
0.224721
0.29105
0.29106
0.397271
0.216885
0.24412
0.344612
0.350183
0.330079
0.303761
0.312853
0.245236
0.401517
0.315206
0.369414
0.157754
0.266178
0.317516
0.26615
0.393185
0.470929
0.464872
0.153275
0.327641
0.445313
0.417374
0.455654
0.391905
0.357985
0.515556
0.435554
0.43079
0.277654
0.338744
0.353972
0.176426
0.372675
0.413477
0.395169
0.271132
0.24049
0.283506
0.527531
0.24025
0.32776
0.119291
0.40758
0.344609
0.229706
0.0374828
0.273092
0.0407607
0.316357
0.299312
0.258659
0.232983
0.220908
0.44293
0.37291
0.351855
0.293535
0.277769
0.230478
0.418575
0.426137
0.383831
0.340626
0.340847
0.244628
0.512518
0.326026
0.164038
0.220056
0.457878
0.429718
0.304482
0.30863
0.183508
0.320035
0.303366
0.266986
0.502648
0.511809
0.442039
0.484525
0.384951
0.220815
0.478209
0.200078
0.262279
0.227503
0.456394
0.449023
0.448248
0.288937
0.187537
0.190638
0.327439
0.404468
0.187459
0.241541
0.387289
0.287969
0.472757
0.223275
0.385189
0.349731
0.336127
0.214789
0.269545
0.304298
0.440625
0.248026
0.39741
0.461989
0.469242
0.307855
0.249008
0.247656
0.401135
0.333852
0.246117
0.160076
0.239704
0.240466
0.430955
0.252348
0.2551
0.27462
0.245939
0.386343
0.258183
0.226058
0.297713
0.272811
0.340306
0.382117
0.361132
0.313977
0.360844
0.266567
0.418245
0.448851
0.241614
0.442299
0.239439
0.436794
0.402736
0.378965
0.379414
0.446226
0.200774
0.266928
0.246016
0.447409
0.43902
0.407198
0.447893
0.452951
0.381864
0.466568
0.307715
0.27411
0.51273
0.285547
0.465953
0.36996
0.226654
0.286341
0.461724
0.389034
0.350307
0.450055
0.445255
0.278858
0.284221
0.267542
0.395452
0.433418
0.498091
0.478088
0.520369
0.471557
0.515286
0.432054
0.457201
0.46065
0.434354
0.456356
0.422918
0.416634
0.282411
0.38941
0.454294
0.31212
0.470271
0.432155
0.492658
0.288246
0.468275
0.448676
0.2845
0.406912
0.282469
0.455237
0.411288
0.296254
0.277677
0.235552
0.271097
0.455772
0.197501
0.34702
0.276527
0.313903
0.46867
0.455547
0.147788
0.457103
0.23643
0.261764
0.466269
0.379026
0.264585
0.522181
0.29123
0.147779
0.267723
0.406398
0.508921
0.382689
0.457754
0.425154
0.226614
0.216731
0.175978
0.201428
0.308134
0.229075
0.37198
0.227524
0.406391
0.287622
0.268101
0.323952
0.293521
0.398521
0.281486
0.287596
0.13637
0.303571
0.437809
0.438057
0.391524
0.281115
0.192358
0.545876
0.360487
0.298317
0.274291
0.284975
0.282729
0.358842
0.278091
0.192059
0.274791
0.183495
0.351066
0.279576
0.127091
0.263721
0.321337
0.279314
0.443668
0.290709
0.381467
0.138314
0.305661
0.287013
0.261624
0.269317
0.321991
0.308722
0.321045
0.266563
0.271163
0.293858
0.4036
0.276095
0.399021
0.358786
0.290796
0.286473
0.290122
0.323372
0.289911
0.270116
0.308528
0.333028
0.387865
0.290168
0.286353
0.425142
0.419247
0.276211
0.290834
0.117368
0.342062
0.227678
0.319679
0.126304
0.131123
0.117233
0.119129
0.126411
0.133076
0.137186
0.365817
0.275202
0.269662
0.305533
0.296206
0.292407
0.314708
0.285993
0.292386
0.310822
0.291313
0.368787
0.261063
0.378832
0.289102
0.277578
0.291595
0.322764
0.328992
0.304695
0.351048
0.326029
0.300388
0.213975
0.303859
0.298861
0.328279
0.305307
0.288518
0.275035
0.304062
0.31909
0.436159
0.283305
0.423999
0.438657
0.298863
0.422861
0.322474
0.255677
0.356792
0.307316
0.229504
0.18527
0.353347
0.377137
0.313431
0.259542
0.317011
0.138204
0.309863
0.289512
0.140569
0.0597485
0.0653752
0.26865
0.283293
0.331355
0.316585
0.0311308
0.0325286
0.318178
0.321541
0.304241
0.103723
0.264725
0.315902
0.31564
0.272074
0.24028
0.107863
0.464464
0.284944
0.352159
0.35767
0.255161
0.323444
0.249474
0.275479
0.129739
0.19938
0.323804
0.327748
0.280324
0.293562
0.303656
0.320503
0.306407
0.14396
0.275778
0.301351
0.290883
0.437485
0.143857
0.23373
0.240571
0.234522
0.155624
0.155628
0.267698
0.208506
0.301872
0.153855
0.185525
0.0614166
0.0614141
0.112309
0.199632
0.134971
0.256999
0.284536
0.297805
0.336998
0.307416
0.28523
0.222215
0.127171
0.278048
0.290579
0.282436
0.144129
0.147644
0.104628
0.281946
0.285969
0.224179
0.258248
0.238711
0.22379
0.292909
0.223756
0.257202
0.251385
0.158046
0.19524
0.165307
0.310644
0.112706
0.118918
0.115939
0.294532
0.10769
0.104732
0.200915
0.0979318
0.243154
0.243508
0.100659
0.255443
0.113722
0.110988
0.127154
0.105858
0.105723
0.174204
0.12624
0.112774
0.106277
0.235809
0.272657
0.118743
0.260315
0.0960765
0.264786
0.208171
0.100551
0.0864348
0.0948694
0.12646
0.22555
0.192179
0.0824424
0.0914071
0.253855
0.0775858
0.0775825
0.0878715
0.0979618
0.0995846
0.127333
0.207531
0.193793
0.253766
0.0775241
0.0775208
0.229251
0.0843464
0.178713
0.0765188
0.0783411
0.103271
0.198595
0.205595
0.218906
0.200659
0.198579
0.0438923
0.32038
0.0557536
0.0543417
0.259007
0.257238
0.0563344
0.0390571
0.0548043
0.238559
SCALARS rr_Vli float
LOOKUP_TABLE default
0.396486
0.903296
0.721402
0.942901
0.493002
0.765663
0.392034
0.937669
0.806266
1.01511
0.359835
0.940541
0.8277
0.874153
1.02412
0.859727
0.739393
0.835914
0.748795
0.732052
0.823479
0.146196
0.843736
0.777625
0.704886
0.813139
0.333348
0.714256
0.560607
0.6598
0.731224
0.579527
0.369271
0.494392
0.485904
0.495506
0.641456
0.486895
0.730481
0.415064
0.47121
0.565329
0.565389
0.802513
0.463322
0.511147
0.70466
0.71357
0.66868
0.640141
0.657314
0.509708
0.79128
0.654953
0.728498
0.336093
0.518807
0.659755
0.51879
0.798045
0.943862
0.925028
0.327839
0.652217
0.886009
0.836194
0.912998
0.789772
0.727288
1.0367
0.858505
0.849151
0.582209
0.676851
0.716967
0.381182
0.738158
0.828438
0.79642
0.562479
0.507623
0.556447
1.0535
0.508331
0.685383
0.254579
0.825074
0.689486
0.49066
0.0719434
0.567528
0.0782461
0.626349
0.600258
0.537107
0.489901
0.466216
0.891212
0.738706
0.711147
0.604216
0.579672
0.487749
0.844109
0.85808
0.772713
0.679545
0.689378
0.517758
1.02965
0.661676
0.349478
0.467059
0.923819
0.865434
0.632491
0.601612
0.38741
0.624001
0.62999
0.547959
0.99831
1.02947
0.884277
0.972855
0.763252
0.43175
0.962235
0.422252
0.544645
0.448452
0.918478
0.897109
0.901821
0.602898
0.365537
0.404181
0.66093
0.807731
0.365414
0.503537
0.778933
0.59024
0.951058
0.471531
0.776063
0.704321
0.680953
0.435246
0.556267
0.620246
0.886306
0.519981
0.802495
0.92944
0.94426
0.617852
0.518656
0.515712
0.810195
0.680205
0.515659
0.341238
0.503638
0.500927
0.867513
0.525644
0.531442
0.575695
0.512235
0.764767
0.536473
0.475014
0.597024
0.566758
0.6791
0.756451
0.728157
0.618511
0.726372
0.558759
0.841634
0.903303
0.503621
0.884781
0.503408
0.873806
0.803282
0.749914
0.763388
0.89254
0.423344
0.554569
0.51569
0.900208
0.886299
0.82171
0.894903
0.911194
0.76527
0.938415
0.629673
0.568291
1.02453
0.59847
0.930551
0.741277
0.47324
0.569198
0.928572
0.772727
0.703604
0.906434
0.889136
0.575328
0.57047
0.554199
0.788781
0.870376
1.00028
0.961014
1.04558
0.94745
1.03539
0.868711
0.907696
0.914768
0.862343
0.905931
0.833929
0.821515
0.583003
0.782793
0.915906
0.636237
0.93312
0.857209
0.993022
0.597475
0.944367
0.902754
0.586735
0.8088
0.582773
0.908854
0.829724
0.61088
0.57498
0.497305
0.572061
0.9101
0.417614
0.70148
0.572845
0.642711
0.945255
0.914966
0.286927
0.918293
0.500196
0.542258
0.940099
0.7642
0.548648
1.04887
0.596675
0.286927
0.5545
0.815976
1.01856
0.772233
0.908465
0.850822
0.4466
0.437752
0.374434
0.429883
0.608683
0.465559
0.749991
0.469384
0.807668
0.576816
0.55534
0.649546
0.603995
0.802276
0.579178
0.596019
0.263019
0.600442
0.868509
0.869129
0.787207
0.578062
0.376387
1.09285
0.734299
0.613258
0.565366
0.562957
0.583123
0.710459
0.572676
0.410196
0.565166
0.387691
0.700125
0.576599
0.245149
0.543076
0.642113
0.576619
0.887239
0.598797
0.772173
0.296222
0.619802
0.592061
0.51704
0.555816
0.655878
0.617314
0.645549
0.54901
0.557647
0.602196
0.804985
0.56787
0.804505
0.726242
0.573154
0.589127
0.594775
0.657842
0.593794
0.555994
0.631807
0.662546
0.782179
0.594651
0.590809
0.855286
0.843307
0.568299
0.573277
0.256088
0.692601
0.480627
0.650103
0.287606
0.29855
0.266803
0.271172
0.287682
0.303056
0.312311
0.729343
0.539723
0.544565
0.622603
0.6065
0.598932
0.633519
0.58613
0.599483
0.609469
0.596711
0.732658
0.542545
0.753106
0.586003
0.565698
0.597464
0.637466
0.666112
0.620591
0.710715
0.663996
0.615741
0.444039
0.619296
0.605571
0.652003
0.624636
0.591868
0.562871
0.620017
0.64672
0.877916
0.579857
0.853547
0.889738
0.609276
0.852428
0.653928
0.52384
0.713542
0.625424
0.450401
0.395665
0.704467
0.750312
0.6352
0.528048
0.635252
0.301236
0.62802
0.589264
0.300912
0.115298
0.126126
0.544003
0.580096
0.673736
0.647661
0.0592774
0.0619388
0.641395
0.648086
0.613481
0.226113
0.542804
0.631011
0.643416
0.555014
0.489877
0.235469
0.929282
0.583732
0.713231
0.724382
0.520582
0.658847
0.508989
0.561646
0.279101
0.421176
0.659631
0.663707
0.570433
0.599123
0.618255
0.651892
0.623522
0.307427
0.547096
0.616831
0.583014
0.8749
0.307367
0.473533
0.487753
0.46224
0.300515
0.300535
0.529553
0.427592
0.611535
0.329005
0.358876
0.117176
0.117176
0.245398
0.389619
0.262494
0.52105
0.563539
0.601411
0.677645
0.614656
0.569069
0.448036
0.27725
0.562546
0.582799
0.564247
0.311556
0.287924
0.224284
0.563451
0.574849
0.461942
0.521746
0.481453
0.440836
0.590093
0.440798
0.520821
0.502147
0.307811
0.380027
0.353393
0.623981
0.246785
0.25998
0.254334
0.589282
0.234981
0.230138
0.410009
0.214644
0.47712
0.477842
0.220334
0.51961
0.244574
0.243122
0.273901
0.231958
0.227739
0.339829
0.270697
0.245996
0.232677
0.475748
0.543001
0.256116
0.525107
0.211012
0.532688
0.423219
0.220454
0.186663
0.208255
0.276319
0.457466
0.376607
0.157552
0.174883
0.509986
0.148307
0.148306
0.168048
0.188628
0.213205
0.248113
0.410273
0.379761
0.51034
0.149004
0.149003
0.448511
0.184462
0.363609
0.167149
0.16815
0.221553
0.384549
0.398195
0.424214
0.388778
0.384539
0.0840102
0.620731
0.107163
0.103829
0.501444
0.497965
0.107596
0.0747329
0.105301
0.462542
SCALARS rr_S_ext' float
LOOKUP_TABLE default
-0.000305
-0.000696512
-0.000556149
-0.00072702
-0.000380366
-0.000590268
-0.000301573
-0.000722973
-0.000621452
-0.000782727
-0.00027684
-0.000725187
-0.000638153
-0.000674059
-0.000789964
-0.000662811
-0.00057019
-0.000644496
-0.000577092
-0.000564326
-0.000634787
-0.00011288
-0.0006504
-0.000599458
-0.000543382
-0.00062696
-0.000256553
-0.000550652
-0.000431776
-0.000509211
-0.000563767
-0.00044635
-0.000284192
-0.000381504
-0.000374983
-0.000382363
-0.000495065
-0.000375738
-0.000563191
-0.000319436
-0.00036292
-0.000436315
-0.000436361
-0.000618731
-0.000356652
-0.000393696
-0.000543105
-0.000550026
-0.000515506
-0.000492958
-0.000506226
-0.00039267
-0.000610473
-0.000504569
-0.000562027
-0.000258738
-0.000400377
-0.000508268
-0.000400363
-0.000615204
-0.00072786
-0.000713478
-0.000252355
-0.000503053
-0.000683383
-0.000644842
-0.000704064
-0.000608945
-0.000560645
-0.000799384
-0.000662334
-0.000655117
-0.000448411
-0.000522
-0.000552735
-0.000293327
-0.000569415
-0.00063886
-0.000614069
-0.000433346
-0.000390892
-0.000429348
-0.000812491
-0.00039141
-0.000527917
-0.000195974
-0.000636087
-0.000531726
-0.000377697
-5.55423e-05
-0.000437215
-6.04079e-05
-0.00048317
-0.000462884
-0.00041379
-0.000377285
-0.000359009
-0.000687188
-0.000569836
-0.000548281
-0.000465605
-0.000446519
-0.000375559
-0.000650828
-0.000661627
-0.000595808
-0.000524098
-0.000531487
-0.000398665
-0.000793958
-0.000510081
-0.00026904
-0.000359597
-0.000712277
-0.000667295
-0.000487269
-0.000464279
-0.000298323
-0.000481554
-0.000485346
-0.000422286
-0.000770036
-0.0007938
-0.000681947
-0.000750178
-0.000588753
-0.000333165
-0.00074195
-0.000325155
-0.000419596
-0.000345978
-0.000708206
-0.000691865
-0.000695368
-0.000464412
-0.000282094
-0.000311198
-0.000509583
-0.000622943
-0.000281998
-0.000387884
-0.000600622
-0.000454888
-0.000733337
-0.000363095
-0.000598378
-0.00054307
-0.000524968
-0.000335542
-0.000428624
-0.000478086
-0.000683407
-0.000400485
-0.000618724
-0.000716667
-0.000728087
-0.000476442
-0.000399541
-0.000397276
-0.000624655
-0.00052431
-0.000397163
-0.000262692
-0.000387873
-0.000385882
-0.000668906
-0.000404923
-0.000409389
-0.000443397
-0.000394595
-0.000589949
-0.000413293
-0.000365828
-0.000460391
-0.000436627
-0.00052375
-0.000583533
-0.000561431
-0.000477188
-0.000560078
-0.000430355
-0.000648958
-0.000696507
-0.00038795
-0.000682339
-0.000387689
-0.000673872
-0.000619535
-0.000578497
-0.000588627
-0.000688325
-0.000326004
-0.000427235
-0.000397182
-0.000694123
-0.000683338
-0.000633546
-0.000690163
-0.000702597
-0.000590144
-0.000723589
-0.000485301
-0.000437832
-0.000790136
-0.000460942
-0.000717665
-0.000571644
-0.000364529
-0.000439036
-0.000716002
-0.000596036
-0.000542557
-0.000698907
-0.000685726
-0.000443314
-0.000439904
-0.000426986
-0.000608351
-0.000671152
-0.000771323
-0.000741024
-0.000806243
-0.000730575
-0.000798381
-0.000669851
-0.000700148
-0.000705599
-0.000665165
-0.000698789
-0.000643367
-0.00063379
-0.000449221
-0.000603604
-0.000706184
-0.000490413
-0.00071977
-0.000661221
-0.000765648
-0.000460318
-0.000728123
-0.000696088
-0.000452109
-0.000623849
-0.000449052
-0.000700938
-0.000639725
-0.000470716
-0.000443001
-0.000382945
-0.000440514
-0.000701896
-0.000321566
-0.000540825
-0.000441351
-0.000495341
-0.000728806
-0.000705533
-0.00022145
-0.000708094
-0.00038515
-0.000417784
-0.000724836
-0.000589221
-0.000422696
-0.000808789
-0.000459853
-0.00022145
-0.000427219
-0.000629207
-0.000785494
-0.000595399
-0.000700748
-0.000656143
-0.000344553
-0.000337504
-0.000288263
-0.000330923
-0.000469571
-0.000358883
-0.000578266
-0.000361682
-0.000622977
-0.000444808
-0.000427864
-0.000500896
-0.000465438
-0.000618605
-0.000446316
-0.000459199
-0.000203033
-0.000463197
-0.000669936
-0.000670411
-0.000607006
-0.000445464
-0.000290437
-0.000842781
-0.000566009
-0.00047259
-0.000435651
-0.000434295
-0.000449325
-0.000548053
-0.000441296
-0.000315759
-0.000435523
-0.000298532
-0.000539976
-0.000444298
-0.000189238
-0.000418486
-0.000495207
-0.000444302
-0.000684238
-0.00046142
-0.000595305
-0.00022801
-0.000477812
-0.000456211
-0.000398867
-0.000428276
-0.000505561
-0.000476075
-0.000497771
-0.000423057
-0.00042973
-0.000464105
-0.000620849
-0.000437606
-0.000620298
-0.000559895
-0.000442189
-0.00045399
-0.000458381
-0.000507093
-0.000457637
-0.000428446
-0.000486936
-0.000511027
-0.000603081
-0.00045829
-0.000455243
-0.000659492
-0.000650257
-0.000437933
-0.000442283
-0.000197005
-0.000533955
-0.000370103
-0.000501132
-0.000220959
-0.000229367
-0.00020498
-0.000208335
-0.000221021
-0.000232829
-0.000239941
-0.000562515
-0.000416449
-0.000419857
-0.000479907
-0.000467432
-0.000461596
-0.000488484
-0.000451722
-0.000462008
-0.000470268
-0.000459884
-0.000565126
-0.000417968
-0.000580885
-0.00045176
-0.000436043
-0.000460461
-0.000491778
-0.000513535
-0.000478363
-0.000547922
-0.000511821
-0.00047454
-0.000342094
-0.000477356
-0.000466852
-0.000502918
-0.00048142
-0.000456131
-0.000433813
-0.000477905
-0.000498571
-0.000676931
-0.000446903
-0.000658139
-0.000685903
-0.000469629
-0.000657251
-0.000504119
-0.000403719
-0.000550283
-0.000482099
-0.000347523
-0.000304574
-0.00054333
-0.000578721
-0.000489691
-0.000407042
-0.00048988
-0.000231745
-0.000484154
-0.000454225
-0.000231623
-8.90014e-05
-9.73603e-05
-0.000419394
-0.000447082
-0.000519353
-0.000499168
-4.57734e-05
-4.78285e-05
-0.000494537
-0.000499699
-0.000473012
-0.000173951
-0.000418325
-0.00048665
-0.000495946
-0.000427797
-0.000377596
-0.000181141
-0.000716653
-0.000449879
-0.000549857
-0.000558453
-0.000401256
-0.00050785
-0.00039232
-0.000432916
-0.000214802
-0.000324318
-0.000508453
-0.000511679
-0.000439711
-0.00046179
-0.000476568
-0.000502509
-0.000480634
-0.000236652
-0.000422011
-0.000475398
-0.000449594
-0.000674723
-0.000236602
-0.00036506
-0.000376015
-0.000356618
-0.000231969
-0.000231985
-0.000408509
-0.000329533
-0.000471452
-0.000253252
-0.000277006
-9.04775e-05
-9.0477e-05
-0.000188774
-0.000300669
-0.000202584
-0.000401685
-0.000434714
-0.000463685
-0.000522521
-0.000474024
-0.000438894
-0.000345449
-0.000213291
-0.0004337
-0.00044942
-0.000435159
-0.000239745
-0.000222194
-0.000172633
-0.000434541
-0.000443262
-0.000355958
-0.00040226
-0.000371212
-0.000340109
-0.00045499
-0.000340078
-0.000401522
-0.000387268
-0.000237549
-0.000293286
-0.000272027
-0.000481155
-0.000189833
-0.000199992
-0.000195628
-0.00045445
-0.000180768
-0.000177008
-0.000316026
-0.000165104
-0.000368142
-0.000368699
-0.000169487
-0.000400538
-0.000188231
-0.000187013
-0.000210791
-0.000178424
-0.000175265
-0.000262249
-0.000208352
-0.000189244
-0.000178981
-0.000366811
-0.000418809
-0.000197096
-0.000404869
-0.000162299
-0.000410744
-0.00032624
-0.000169572
-0.000143643
-0.000160182
-0.000212559
-0.000352664
-0.000290596
-0.000121648
-0.000135025
-0.000393252
-0.000114509
-0.000114508
-0.00012975
-0.000145614
-0.000164109
-0.000191476
-0.0003165
-0.00029303
-0.000393515
-0.000115031
-0.00011503
-0.000346094
-0.000141894
-0.000280284
-0.000128582
-0.000129422
-0.000170526
-0.000296814
-0.000307345
-0.000327423
-0.000300074
-0.000296806
-6.4863e-05
-0.000479106
-8.27299e-05
-8.01681e-05
-0.000387042
-0.000384358
-8.30779e-05
-5.77005e-05
-8.1293e-05
-0.000357002
SCALARS rr_P_ext' float
LOOKUP_TABLE default
0.00018065
0.000417239
0.000332834
0.000435429
0.00022849
0.000353245
0.000178613
0.000432952
0.000371567
0.000468866
0.000164085
0.000434278
0.000382071
0.000403833
0.000474049
0.000396734
0.000341737
0.000385905
0.000344869
0.000337632
0.000379734
6.80603e-05
0.000389074
0.000358658
0.000325097
0.000375474
0.000152308
0.000329583
0.000257229
0.000306349
0.000337524
0.000265918
0.000168689
0.00022937
0.000225527
0.000229885
0.000297874
0.000225951
0.000337172
0.000189615
0.000216202
0.000262537
0.000262562
0.000370432
0.000211929
0.000234582
0.000324636
0.000328924
0.000308517
0.00029347
0.000301493
0.000234206
0.000366657
0.000300958
0.000337531
0.000153803
0.000240807
0.000303164
0.000240796
0.000368092
0.000436215
0.000427992
0.000149927
0.000301749
0.000409946
0.00038648
0.000421969
0.000364689
0.000335406
0.000478876
0.000397796
0.000393459
0.000267131
0.000312964
0.000330805
0.000174025
0.000341775
0.000382891
0.000367753
0.000258532
0.000232656
0.000258003
0.000487162
0.000232889
0.000314614
0.000116467
0.000380719
0.00031874
0.000224437
3.34703e-05
0.000260779
3.64018e-05
0.000290025
0.000277389
0.000246833
0.000224675
0.000213684
0.000411631
0.000342023
0.000328231
0.000278066
0.000266177
0.000223452
0.000389736
0.00039628
0.000356869
0.000314286
0.000318149
0.000237195
0.000475684
0.000305198
0.000159928
0.000213869
0.000426507
0.000399666
0.00029065
0.000279237
0.000177555
0.000289617
0.000289514
0.000252294
0.000462033
0.000475513
0.000408799
0.000449487
0.000353338
0.000200302
0.000444432
0.000193534
0.000250295
0.000207792
0.000424211
0.000414813
0.000416537
0.000276848
0.000169665
0.000185111
0.000305117
0.000373512
0.000169606
0.000231257
0.000359796
0.00027182
0.000439285
0.000216096
0.000358371
0.000325264
0.000314179
0.000200806
0.000255893
0.000285892
0.000409384
0.000238587
0.000370446
0.000429296
0.000436124
0.000285487
0.000238235
0.000236892
0.000373987
0.00031355
0.000236628
0.000156142
0.000231005
0.000230087
0.000400656
0.000241442
0.000244101
0.000264154
0.000235287
0.000354128
0.000246515
0.000217872
0.000275897
0.000260439
0.000314066
0.000350274
0.000336209
0.000286618
0.000335471
0.000256387
0.000388725
0.000417202
0.000231301
0.000409034
0.000230875
0.000403957
0.000371526
0.000347269
0.000352593
0.000412628
0.000194063
0.000254836
0.000236624
0.000415786
0.000409146
0.000379355
0.000413789
0.000420873
0.000353683
0.000433458
0.000290056
0.00026123
0.000473723
0.000274614
0.000430304
0.000342605
0.000217287
0.000263398
0.000428919
0.000357626
0.000325069
0.000418597
0.000411158
0.000264673
0.00026359
0.000254788
0.000364817
0.000402129
0.000462146
0.000443938
0.000483034
0.000437704
0.000478323
0.000401283
0.000420121
0.000423378
0.000399129
0.00041931
0.000386385
0.000380635
0.000268178
0.000361608
0.000422902
0.00029326
0.000431926
0.000396808
0.000458526
0.000274654
0.000436024
0.000416963
0.000269938
0.00037428
0.000268099
0.000420292
0.000383071
0.000281053
0.000264358
0.000227919
0.000262202
0.000420856
0.000191348
0.000323761
0.000263358
0.000296034
0.000436427
0.000422719
0.000133257
0.000424242
0.000229166
0.000249296
0.000434069
0.000352853
0.000252193
0.000484581
0.000274802
0.000133256
0.000254932
0.000377006
0.000470841
0.000356514
0.0004205
0.00039331
0.000206941
0.000202066
0.000171385
0.000196666
0.000281944
0.000214691
0.000346293
0.000215937
0.000373763
0.000266556
0.000255313
0.000300176
0.000277978
0.000370523
0.000266561
0.000273993
0.000122276
0.000278071
0.000402033
0.00040231
0.000363635
0.000266073
0.000174598
0.00050516
0.000338498
0.000282286
0.00026013
0.000260762
0.000268273
0.000328972
0.000263533
0.000187635
0.00026013
0.000177661
0.000323822
0.000265273
0.000113966
0.000249912
0.000296898
0.000265241
0.00041019
0.000275543
0.000356312
0.000135439
0.000285923
0.000272378
0.000239478
0.000255684
0.000302348
0.000285402
0.000298194
0.000252636
0.000256673
0.000277334
0.000372315
0.000261372
0.000371464
0.000335119
0.000265578
0.000271163
0.000273899
0.000303316
0.000273488
0.000255875
0.000291005
0.000306556
0.000361143
0.000273858
0.000271794
0.000395048
0.000389523
0.000261556
0.000265632
0.000116719
0.00031958
0.00022028
0.000299764
0.000130109
0.000135062
0.000120709
0.000122681
0.000130156
0.000137096
0.000141291
0.00033735
0.000250278
0.000251378
0.000286991
0.000279354
0.000275853
0.000292587
0.000269932
0.000276062
0.000282629
0.000274828
0.000339071
0.000249298
0.000348498
0.000270347
0.000260756
0.000275162
0.000295285
0.000307359
0.000286086
0.000327944
0.000306098
0.00028356
0.000204083
0.000285459
0.00027939
0.000301757
0.000287744
0.000272532
0.000259279
0.000285768
0.000298364
0.000405466
0.000267099
0.000394204
0.000410429
0.000280828
0.000393602
0.000301663
0.000241256
0.000329883
0.000288351
0.000208837
0.000180991
0.000325845
0.000347165
0.000293052
0.000243467
0.000293597
0.000137321
0.000289736
0.000271674
0.000137594
5.35971e-05
5.86326e-05
0.000251011
0.000267189
0.000310669
0.000298354
2.76105e-05
2.88502e-05
0.000296159
0.000299255
0.000283257
0.000103073
0.000249959
0.000291782
0.000296569
0.000255792
0.000225792
0.000107312
0.000429594
0.000268845
0.000329086
0.000334232
0.000239918
0.000303716
0.000234574
0.000258872
0.000127515
0.000193011
0.000304074
0.000306242
0.000263001
0.0002761
0.000285025
0.000300581
0.000287478
0.000140629
0.00025325
0.000284127
0.000269445
0.000404484
0.000140589
0.000218477
0.000225011
0.000214185
0.000139682
0.00013969
0.000245237
0.0001969
0.000282152
0.000150465
0.000166765
5.45628e-05
5.45623e-05
0.00011182
0.000180807
0.000121878
0.000240373
0.000260928
0.000277618
0.00031302
0.000284176
0.000263189
0.000206871
0.000126382
0.000259602
0.000269318
0.000260904
0.000142227
0.00013363
0.000102532
0.000260523
0.00026555
0.000212554
0.000240828
0.000222289
0.000204284
0.000272498
0.000204265
0.000240314
0.000232194
0.000142888
0.000176427
0.000161627
0.00028828
0.000112412
0.000118454
0.000115813
0.000272418
0.000107098
0.000104765
0.000188951
9.77551e-05
0.000221231
0.000221564
0.000100369
0.000239583
0.000111745
0.000110736
0.000125111
0.000105645
0.000104025
0.000157713
0.000123742
0.000112125
0.000105988
0.000219644
0.000251203
0.000116961
0.000242439
9.60666e-05
0.000246043
0.000195156
0.000100396
8.52261e-05
9.482e-05
0.000125909
0.000211027
0.00017466
7.33455e-05
8.13998e-05
0.000235608
6.90392e-05
6.90383e-05
7.82237e-05
8.77136e-05
9.74868e-05
0.000115168
0.000190017
0.000176123
0.000235734
6.9307e-05
6.93061e-05
0.00020806
8.40402e-05
0.000167648
7.6168e-05
7.68534e-05
0.000101269
0.000178667
0.000185001
0.000197072
0.000180616
0.000178661
3.91005e-05
0.000288376
4.98451e-05
4.83371e-05
0.000232985
0.000231372
5.00939e-05
3.47842e-05
4.89815e-05
0.000214861
SCALARS rr_S' float
LOOKUP_TABLE default
8.78286e-05
0.000201757
0.00016102
0.000210572
0.000110339
0.000170896
8.68397e-05
0.00020939
0.00017984
0.000226727
7.97458e-05
0.000210031
0.000184802
0.000195266
0.000229033
0.000191918
0.000165208
0.000186647
0.000166957
0.000163363
0.000183747
3.28069e-05
0.000188266
0.000173534
0.000157299
0.000181586
7.39668e-05
0.000159438
0.000124715
0.000147827
0.000163259
0.000128925
8.19286e-05
0.000110716
0.000108844
0.000110965
0.000143729
0.000109056
0.00016309
9.20908e-05
0.000104824
0.000126675
0.000126688
0.000179176
0.000102876
0.000113726
0.000157145
0.000159186
0.000149254
0.000142333
0.000146196
0.000113488
0.000177074
0.000145832
0.000163015
7.46478e-05
0.000116217
0.000146901
0.000116212
0.000178096
0.000210887
0.00020682
7.27857e-05
0.00014582
0.000198098
0.00018684
0.000203996
0.000176369
0.000162291
0.000231558
0.000192114
0.000190021
0.000129517
0.000151274
0.000160035
8.45398e-05
0.000165111
0.000185106
0.000177852
0.00012526
0.000112851
0.000124571
0.000235464
0.000112981
0.000152512
5.65328e-05
0.000184175
0.000154079
0.000108947
1.61378e-05
0.000126364
1.75513e-05
0.000140106
0.000134109
0.0001196
0.000108952
0.000103648
0.000199051
0.000165232
0.000158768
0.000134659
0.000129015
0.000108404
0.00018849
0.000191638
0.000172576
0.000151897
0.000153898
0.000115072
0.00023
0.000147664
7.76195e-05
0.000103774
0.000206281
0.000193277
0.000140835
0.000134765
8.61252e-05
0.000139777
0.000140282
0.000122155
0.000223241
0.000229936
0.00019761
0.000217325
0.000170705
9.66873e-05
0.000214913
9.38738e-05
0.000121278
0.000100352
0.000205136
0.0002005
0.000201421
0.000134187
8.18826e-05
8.9815e-05
0.000147576
0.000180532
8.18545e-05
0.000112082
0.000173982
0.000131598
0.000212422
0.000104822
0.000173311
0.000157297
0.000151993
9.71473e-05
0.000123941
0.000138362
0.000197959
0.000115676
0.000179178
0.000207592
0.000210896
0.000138031
0.000115457
0.000114805
0.000180892
0.000151744
0.000114721
7.57851e-05
0.000112015
0.000111509
0.00019375
0.000117012
0.000118302
0.000128071
0.000114028
0.000171071
0.000119451
0.000105648
0.000133388
0.000126197
0.000151793
0.00016921
0.000162602
0.000138417
0.000162228
0.000124305
0.000187976
0.000201748
0.000112102
0.000197725
0.000111957
0.00019527
0.000179561
0.000167754
0.000170503
0.000199461
9.41249e-05
0.000123482
0.000114723
0.000201059
0.000197892
0.000183477
0.000200006
0.000203516
0.000170988
0.0002096
0.000140412
0.000126563
0.000228977
0.000133141
0.000207983
0.00016563
0.000105321
0.000127275
0.000207403
0.000172797
0.000157177
0.000202433
0.000198728
0.000128191
0.000127445
0.000123435
0.000176319
0.000194429
0.000223448
0.000214657
0.000233556
0.000211637
0.000231278
0.000194039
0.000202985
0.000204562
0.000192843
0.000202592
0.000186608
0.00018383
0.000129894
0.000174851
0.000204523
0.000141929
0.000208682
0.000191711
0.000221748
0.000133065
0.000210873
0.000201629
0.000130739
0.000180852
0.000129851
0.00020314
0.000185267
0.00013612
0.000128068
0.000110555
0.000127178
0.000203415
9.28249e-05
0.000156608
0.000127587
0.000143311
0.00021107
0.000204387
6.42956e-05
0.000205126
0.000111176
0.000120775
0.000209924
0.000170652
0.000122186
0.000234298
0.000133038
6.42954e-05
0.000123504
0.00018228
0.000227608
0.00017243
0.000203164
0.000190129
9.99411e-05
9.77368e-05
8.31736e-05
9.54612e-05
0.000136183
0.000103885
0.000167479
0.000104587
0.000180601
0.000128872
0.000123689
0.000145125
0.000134614
0.00017918
0.000129084
0.000132743
5.89732e-05
0.000134323
0.000194236
0.000194372
0.000175835
0.000128843
8.42829e-05
0.000244203
0.000163815
0.000136692
0.000125984
0.000125952
0.000129933
0.00015892
0.000127625
9.10816e-05
0.000125966
8.61807e-05
0.000156503
0.000128479
5.49658e-05
0.000121028
0.000143508
0.000128472
0.000198278
0.000133443
0.000172367
6.5758e-05
0.000138331
0.000131922
0.000115674
0.00012384
0.00014632
0.000137958
0.000144191
0.000122349
0.000124292
0.000134266
0.000179942
0.000126568
0.000179652
0.000162115
0.000128261
0.000131309
0.000132607
0.000146777
0.0001324
0.000123912
0.000140878
0.000148136
0.000174663
0.000132584
0.00013164
0.000191032
0.000188359
0.00012666
0.000128287
5.67368e-05
0.000154601
0.000106848
0.000145055
6.3426e-05
6.58402e-05
5.88417e-05
5.98038e-05
6.34464e-05
6.6833e-05
6.88766e-05
0.000163038
0.000120833
0.000121586
0.000138891
0.000135236
0.000133545
0.000141491
0.000130683
0.000133655
0.00013645
0.00013305
0.000163834
0.000120801
0.000168394
0.000130792
0.000126196
0.000133214
0.000142625
0.000148689
0.00013845
0.000158647
0.000148134
0.000137283
9.88816e-05
0.000138151
0.000135166
0.000145802
0.000139291
0.00013195
0.000125514
0.000138306
0.000144347
0.000196077
0.0001293
0.000190632
0.000198572
0.000135913
0.000190357
0.000145947
0.000116798
0.00015946
0.000139539
0.00010083
8.78558e-05
0.000157479
0.000167759
0.000141776
0.000117817
0.000141938
6.6747e-05
0.000140172
0.00013147
6.68022e-05
2.58506e-05
2.82789e-05
0.00012143
0.000129348
0.000150331
0.000144427
1.33062e-05
1.39036e-05
0.00014323
0.000144727
0.000136994
5.01011e-05
0.000121017
0.000141032
0.000143531
0.000123802
0.000109278
5.21658e-05
0.000207665
0.000130154
0.000159203
0.000161692
0.00011612
0.000146983
0.000113533
0.000125288
6.19279e-05
9.36259e-05
0.000147156
0.00014815
0.000127271
0.000133635
0.000137933
0.000145452
0.000139115
6.82636e-05
0.000122355
0.000137544
0.000130264
0.000195521
6.82466e-05
0.000105695
0.000108861
0.00010344
6.73726e-05
6.73769e-05
0.000118462
9.53296e-05
0.000136499
7.30447e-05
8.04439e-05
2.62984e-05
2.62982e-05
5.43604e-05
8.72672e-05
5.88114e-05
0.000116294
0.000126052
0.000134279
0.00015136
0.000137364
0.000127203
0.00010005
6.14308e-05
0.00012558
0.000130208
0.000126109
6.90945e-05
6.44934e-05
4.97842e-05
0.000125927
0.000128404
0.00010294
0.000116488
0.000107509
9.86542e-05
0.000131782
9.86452e-05
0.000116256
0.000112231
6.89556e-05
8.51382e-05
7.84619e-05
0.000139387
5.46582e-05
5.75903e-05
5.63187e-05
0.000131687
5.20608e-05
5.09517e-05
9.14534e-05
4.75344e-05
0.000106814
0.000106975
4.88014e-05
0.000115935
5.42689e-05
5.38449e-05
6.07659e-05
5.13706e-05
5.05246e-05
7.61185e-05
6.00825e-05
5.45031e-05
5.15341e-05
0.000106232
0.000121396
5.68126e-05
0.000117255
4.67194e-05
0.000118978
9.44332e-05
4.882e-05
4.14008e-05
4.61122e-05
6.12097e-05
0.000102098
8.43214e-05
3.53546e-05
3.92396e-05
0.000113922
3.32793e-05
3.32789e-05
3.77076e-05
4.22996e-05
4.73295e-05
5.55801e-05
9.17848e-05
8.50274e-05
0.00011399
3.34194e-05
3.34191e-05
0.000100436
4.08578e-05
8.11267e-05
3.70282e-05
3.73194e-05
4.91735e-05
8.61908e-05
8.92474e-05
9.50744e-05
8.71342e-05
8.61882e-05
1.88493e-05
0.000139121
2.4035e-05
2.32996e-05
0.000112393
0.000111614
2.41459e-05
1.67682e-05
2.36181e-05
0.00010366
SCALARS rr_P' float
LOOKUP_TABLE default
3.65218e-05
7.75157e-05
6.2295e-05
8.10177e-05
4.15375e-05
6.61268e-05
3.61198e-05
8.06304e-05
7.00453e-05
8.7134e-05
3.30096e-05
8.08782e-05
7.128e-05
7.49594e-05
8.68827e-05
7.4159e-05
6.32446e-05
7.19442e-05
6.52655e-05
6.33302e-05
7.1306e-05
1.20133e-05
7.30607e-05
6.72663e-05
6.09865e-05
6.98999e-05
3.0279e-05
6.16315e-05
4.98325e-05
5.50349e-05
6.29845e-05
5.15068e-05
3.35743e-05
4.1417e-05
4.06108e-05
4.15129e-05
5.3462e-05
4.07304e-05
6.29295e-05
3.77301e-05
4.18936e-05
4.71031e-05
4.7111e-05
6.9123e-05
4.18479e-05
4.53882e-05
6.1324e-05
6.19169e-05
5.77346e-05
5.71549e-05
5.8538e-05
4.49762e-05
6.67428e-05
5.77787e-05
6.14819e-05
3.02871e-05
4.33535e-05
5.82026e-05
4.33548e-05
6.90159e-05
8.07584e-05
7.86651e-05
2.96422e-05
5.54836e-05
7.53396e-05
7.15224e-05
7.80995e-05
6.78872e-05
6.29472e-05
8.89492e-05
7.24237e-05
7.16371e-05
5.17627e-05
5.77623e-05
6.18955e-05
3.47615e-05
6.25289e-05
7.08627e-05
6.84637e-05
4.95539e-05
4.53851e-05
4.67741e-05
8.98649e-05
4.55408e-05
6.07913e-05
2.29742e-05
7.11934e-05
5.8907e-05
4.43133e-05
5.9342e-06
5.00723e-05
6.45486e-06
5.3039e-05
5.13853e-05
4.73566e-05
4.36588e-05
4.16775e-05
7.65059e-05
6.25812e-05
6.12811e-05
5.28796e-05
5.13269e-05
4.3704e-05
7.26008e-05
7.37094e-05
6.63633e-05
5.79153e-05
5.94402e-05
4.63977e-05
8.82744e-05
5.72184e-05
3.14928e-05
4.19541e-05
7.94896e-05
7.43517e-05
5.57839e-05
5.02774e-05
3.46422e-05
5.21596e-05
5.55497e-05
4.78371e-05
8.47613e-05
8.83506e-05
7.55384e-05
8.33655e-05
6.47103e-05
3.61751e-05
8.26055e-05
3.7747e-05
4.80228e-05
3.78336e-05
7.88591e-05
7.65522e-05
7.74098e-05
5.33775e-05
3.05463e-05
3.62727e-05
5.68904e-05
6.88994e-05
3.0538e-05
4.45455e-05
6.68437e-05
5.14702e-05
8.16311e-05
4.21769e-05
6.6696e-05
6.05085e-05
5.8796e-05
3.75886e-05
4.87897e-05
5.3832e-05
7.60649e-05
4.62224e-05
6.90999e-05
7.97788e-05
8.10673e-05
5.29249e-05
4.58489e-05
4.5579e-05
6.97757e-05
5.90154e-05
4.5814e-05
3.07657e-05
4.4853e-05
4.42863e-05
7.45002e-05
4.64689e-05
4.69864e-05
5.11721e-05
4.52792e-05
6.47496e-05
4.7327e-05
4.23074e-05
5.11065e-05
4.99905e-05
5.78912e-05
6.40491e-05
6.262e-05
5.21522e-05
6.23787e-05
4.96626e-05
7.22564e-05
7.75566e-05
4.45477e-05
7.55805e-05
4.48572e-05
7.46455e-05
6.84485e-05
6.34745e-05
6.5531e-05
7.62364e-05
3.78161e-05
4.89179e-05
4.58351e-05
7.72769e-05
7.62996e-05
7.0714e-05
7.63677e-05
7.8208e-05
6.54718e-05
8.05317e-05
5.48321e-05
5.00389e-05
8.74363e-05
5.31866e-05
7.93783e-05
6.34091e-05
4.19207e-05
4.83633e-05
7.96799e-05
6.56131e-05
6.03106e-05
7.78771e-05
7.58398e-05
5.04498e-05
4.887e-05
4.87625e-05
6.72149e-05
7.45937e-05
8.57294e-05
8.24296e-05
8.96526e-05
8.12344e-05
8.87797e-05
7.45293e-05
7.70425e-05
7.76588e-05
7.31935e-05
7.68863e-05
7.03741e-05
6.93248e-05
5.11485e-05
6.71455e-05
7.87587e-05
5.52236e-05
7.91626e-05
7.27025e-05
8.53732e-05
5.25992e-05
8.1226e-05
7.74951e-05
5.14328e-05
6.87165e-05
5.11024e-05
7.75061e-05
7.1386e-05
5.3542e-05
5.05751e-05
4.44706e-05
5.11337e-05
7.76253e-05
3.73934e-05
6.04558e-05
5.04056e-05
5.59953e-05
8.13091e-05
7.84262e-05
2.38973e-05
7.8726e-05
4.48082e-05
4.77139e-05
8.08427e-05
6.57168e-05
4.8317e-05
8.99097e-05
5.2013e-05
2.38986e-05
4.87833e-05
6.99215e-05
8.70446e-05
6.64548e-05
7.70841e-05
7.27041e-05
3.76702e-05
3.77008e-05
3.37048e-05
3.87958e-05
5.14439e-05
4.03067e-05
6.44948e-05
4.11573e-05
6.86133e-05
4.93787e-05
4.88616e-05
5.55955e-05
5.28459e-05
6.89018e-05
5.06709e-05
5.2463e-05
2.17843e-05
5.08028e-05
7.3667e-05
7.37287e-05
6.75362e-05
5.0547e-05
3.15561e-05
9.34174e-05
6.36958e-05
5.36116e-05
4.95363e-05
4.75809e-05
5.11192e-05
6.0161e-05
5.0138e-05
3.70425e-05
4.94275e-05
3.46906e-05
5.96513e-05
5.05456e-05
2.0306e-05
4.75459e-05
5.48009e-05
5.0589e-05
7.57701e-05
5.24349e-05
6.66258e-05
2.68129e-05
5.35575e-05
5.19103e-05
4.37152e-05
4.87517e-05
5.6893e-05
5.27141e-05
5.53863e-05
4.80714e-05
4.87656e-05
5.25043e-05
6.85922e-05
4.96656e-05
6.91822e-05
6.26612e-05
4.83498e-05
5.15182e-05
5.18748e-05
5.7001e-05
5.17486e-05
4.86581e-05
5.50526e-05
5.63339e-05
6.72745e-05
5.18477e-05
5.18087e-05
7.34122e-05
7.23752e-05
4.97173e-05
4.83635e-05
2.35492e-05
5.9774e-05
4.29752e-05
5.63136e-05
2.74243e-05
2.84655e-05
2.54286e-05
2.58493e-05
2.74179e-05
2.88999e-05
2.97741e-05
6.21262e-05
4.53379e-05
4.68927e-05
5.40248e-05
5.2842e-05
5.21984e-05
5.44061e-05
5.11075e-05
5.22903e-05
5.11888e-05
5.20063e-05
6.22213e-05
4.78693e-05
6.39932e-05
5.06207e-05
4.90916e-05
5.20849e-05
5.38682e-05
5.74861e-05
5.38279e-05
6.13316e-05
5.75891e-05
5.36974e-05
3.91297e-05
5.37457e-05
5.22955e-05
5.53588e-05
5.43853e-05
5.16493e-05
4.90202e-05
5.38307e-05
5.58607e-05
7.53884e-05
5.05039e-05
7.33036e-05
7.69014e-05
5.28879e-05
7.32928e-05
5.65089e-05
4.56643e-05
6.0939e-05
5.42099e-05
3.78561e-05
3.57279e-05
6.00064e-05
6.37973e-05
5.4862e-05
4.57587e-05
5.43445e-05
2.76766e-05
5.42456e-05
5.10812e-05
2.72268e-05
9.55368e-06
1.04488e-05
4.69528e-05
5.05443e-05
5.83526e-05
5.63865e-05
4.85664e-06
5.07469e-06
5.51475e-05
5.57165e-05
5.27607e-05
2.0777e-05
4.73488e-05
5.3836e-05
5.58469e-05
4.82036e-05
4.25258e-05
2.16627e-05
7.93936e-05
5.088e-05
6.15682e-05
6.253e-05
4.52182e-05
5.71512e-05
4.4212e-05
4.87567e-05
2.53592e-05
3.7681e-05
5.72229e-05
5.7287e-05
4.94392e-05
5.20549e-05
5.36092e-05
5.6477e-05
5.40412e-05
2.7759e-05
4.64061e-05
5.3727e-05
4.98845e-05
7.47183e-05
2.77659e-05
4.08881e-05
4.21425e-05
3.89935e-05
2.4915e-05
2.49176e-05
4.48096e-05
3.73035e-05
5.28006e-05
2.97417e-05
2.97972e-05
9.6163e-06
9.61655e-06
2.25935e-05
3.25946e-05
2.18943e-05
4.50187e-05
4.77339e-05
5.17887e-05
5.81415e-05
5.24837e-05
4.85025e-05
3.85287e-05
2.54777e-05
4.85176e-05
4.98948e-05
4.81458e-05
2.8424e-05
2.40707e-05
2.03171e-05
4.80912e-05
4.93082e-05
4.04644e-05
4.49447e-05
4.14139e-05
3.71699e-05
5.07101e-05
3.71686e-05
4.4952e-05
4.28422e-05
2.57052e-05
3.17202e-05
3.19386e-05
5.34885e-05
2.27624e-05
2.39476e-05
2.34955e-05
5.03452e-05
2.16092e-05
2.12907e-05
3.56211e-05
1.98142e-05
4.00971e-05
4.01596e-05
2.03169e-05
4.502e-05
2.22165e-05
2.24322e-05
2.49144e-05
2.14079e-05
2.07157e-05
2.84178e-05
2.45279e-05
2.2616e-05
2.14588e-05
4.0934e-05
4.62099e-05
2.33224e-05
4.51749e-05
1.95129e-05
4.57225e-05
3.66515e-05
2.03561e-05
1.70158e-05
1.92497e-05
2.54404e-05
3.9538e-05
3.16152e-05
1.29479e-05
1.4386e-05
4.37221e-05
1.21907e-05
1.21909e-05
1.3819e-05
1.56011e-05
1.92929e-05
2.07282e-05
3.46978e-05
3.18791e-05
4.37912e-05
1.23049e-05
1.23052e-05
3.75984e-05
1.69958e-05
3.15098e-05
1.53856e-05
1.52488e-05
2.00836e-05
3.19564e-05
3.30967e-05
3.52762e-05
3.23242e-05
3.1957e-05
6.91315e-06
5.1609e-05
8.84986e-06
8.53137e-06
4.16646e-05
4.13717e-05
8.83817e-06
6.14815e-06
8.69342e-06
3.84805e-05
SCALARS rr_T' float
LOOKUP_TABLE default
0.000209777
0.000477905
0.000381673
0.000498859
0.000260831
0.00040509
0.000207421
0.000496093
0.000426574
0.000537065
0.000190383
0.000497612
0.000437912
0.000462487
0.000541828
0.000454857
0.000391189
0.000442257
0.000396168
0.000387308
0.00043568
7.73462e-05
0.000446397
0.000411419
0.000372935
0.000430207
0.000176369
0.000377892
0.000296605
0.000349076
0.000386869
0.000306615
0.000195376
0.000261565
0.000257074
0.000262154
0.00033937
0.000257599
0.000386476
0.000219604
0.000249307
0.000299094
0.000299126
0.000424586
0.000245135
0.000270437
0.000372817
0.000377531
0.000353779
0.000338686
0.000347771
0.000269675
0.000418639
0.000346521
0.000385423
0.000177821
0.000274482
0.000349061
0.000274473
0.000422222
0.000499367
0.000489402
0.000173455
0.000345067
0.000468758
0.000442404
0.000483038
0.000417844
0.000384787
0.000548488
0.000454205
0.000449256
0.000308035
0.0003581
0.000379327
0.000201678
0.000390535
0.000438301
0.000421361
0.000297594
0.000268573
0.000294397
0.000557375
0.000268948
0.000362622
0.000134693
0.000436522
0.000364785
0.000259599
3.80624e-05
0.000300266
4.13969e-05
0.00033138
0.000317578
0.000284171
0.000259196
0.000246666
0.000471513
0.000390825
0.000376247
0.000319676
0.000306692
0.000258058
0.000446592
0.000453983
0.000408818
0.000359525
0.00036473
0.000273936
0.000544752
0.000350074
0.000184902
0.000247112
0.000488765
0.000457875
0.000334636
0.000318291
0.000204972
0.000330136
0.000333313
0.000289911
0.000528172
0.000544661
0.000467842
0.000514706
0.00040381
0.000228423
0.000509089
0.000223405
0.000288159
0.00023726
0.000485938
0.000474631
0.000477125
0.000318981
0.000193392
0.000213845
0.000349679
0.000427344
0.000193327
0.000266411
0.00041211
0.000312281
0.000503175
0.000249478
0.000410591
0.000372635
0.000360273
0.000230276
0.000294307
0.000328155
0.000468916
0.000275111
0.000424577
0.000491738
0.000499578
0.000326886
0.00027441
0.000272852
0.00042865
0.000359878
0.000272824
0.000180543
0.000266464
0.00026503
0.000458974
0.000278107
0.000281175
0.000304588
0.000271012
0.000404612
0.000283835
0.00025132
0.000315867
0.000299859
0.000359289
0.000400212
0.000385246
0.000327233
0.000384301
0.000295628
0.000445283
0.000477909
0.000266455
0.00046811
0.000266342
0.000462303
0.000424991
0.000396755
0.000403885
0.000472215
0.000223983
0.00029341
0.00027284
0.000476272
0.000468914
0.000434742
0.000473464
0.000482084
0.00040488
0.000496485
0.000333143
0.000300669
0.000542048
0.000316638
0.000492324
0.000392186
0.000250381
0.000301144
0.000491278
0.000408824
0.000372256
0.000479566
0.000470413
0.000304392
0.000301818
0.000293213
0.000417319
0.000460488
0.000529217
0.000508441
0.000553184
0.000501265
0.000547789
0.000459608
0.000480231
0.000483973
0.000456236
0.000479297
0.000441203
0.000434635
0.000308453
0.000414151
0.000484576
0.000336616
0.000493682
0.00045352
0.000525376
0.000316109
0.000499634
0.000477619
0.000310427
0.00042791
0.000308331
0.000480845
0.00043898
0.000323201
0.000304208
0.000263114
0.000302666
0.000481504
0.000220952
0.000371133
0.000303079
0.000340041
0.000500104
0.000484079
0.000151802
0.000485839
0.000264645
0.000286895
0.000497376
0.000404315
0.000290277
0.000554925
0.000315685
0.000151802
0.000293372
0.000431706
0.000538886
0.000408565
0.000480638
0.000450143
0.000236281
0.000231602
0.000198106
0.000227444
0.000322034
0.000246314
0.000396798
0.00024834
0.00042731
0.000305176
0.000293817
0.000343655
0.000319558
0.00042446
0.000306429
0.000315339
0.000139153
0.000317673
0.000459499
0.000459826
0.000416487
0.000305838
0.000199133
0.000578192
0.000388498
0.000324459
0.000299121
0.000297842
0.000308516
0.00037588
0.000302989
0.000217027
0.000299015
0.00020512
0.000370413
0.000305064
0.000129699
0.000287328
0.000339721
0.000305075
0.00046941
0.000316809
0.000408534
0.000156727
0.000327919
0.000313245
0.000273548
0.000294069
0.000347007
0.000326601
0.000341539
0.000290467
0.000295037
0.000318606
0.000425892
0.000300446
0.00042564
0.000384233
0.000303236
0.000311693
0.00031468
0.000348046
0.000314161
0.000294162
0.000334272
0.000350531
0.000413828
0.000314614
0.000312582
0.000452506
0.000446168
0.000300673
0.000303301
0.000135492
0.000366435
0.00025429
0.000343951
0.000152169
0.00015796
0.000141163
0.000143474
0.000152209
0.000160344
0.000165241
0.000385872
0.000285548
0.000288113
0.000329402
0.000320883
0.000316879
0.000335176
0.000310106
0.000317171
0.000322448
0.000315704
0.000387625
0.000287048
0.000398443
0.000310037
0.000299295
0.000316103
0.000337262
0.000352421
0.000328338
0.000376019
0.000351302
0.000325773
0.00023493
0.000327653
0.00032039
0.000344954
0.000330478
0.000313142
0.0002978
0.000328034
0.000342161
0.000464479
0.000306787
0.000451586
0.000470735
0.000322351
0.000450994
0.000345974
0.00027715
0.000377512
0.000330895
0.000238291
0.000209339
0.000372711
0.000396966
0.000336066
0.000279376
0.000336092
0.000159379
0.000332267
0.000311764
0.000159208
6.09998e-05
6.67284e-05
0.000287816
0.000306914
0.000356455
0.00034266
3.13613e-05
3.27693e-05
0.000339343
0.000342883
0.000324575
0.000119633
0.000287183
0.000333848
0.000340414
0.000293643
0.000259181
0.000124583
0.000491654
0.000308837
0.00037735
0.00038325
0.000275426
0.000348578
0.000269292
0.000297152
0.000147668
0.000222837
0.000348993
0.000351149
0.0003018
0.00031698
0.000327102
0.000344898
0.000329888
0.000162654
0.00028945
0.000326349
0.000308455
0.000462882
0.000162623
0.000250532
0.000258056
0.000244555
0.000158991
0.000159001
0.000280168
0.000226228
0.000323546
0.000174071
0.000189867
6.19931e-05
6.19928e-05
0.000129837
0.000206133
0.000138876
0.000275673
0.00029815
0.000318188
0.000358521
0.000325195
0.000301076
0.000237042
0.000146689
0.000297627
0.000308341
0.000298525
0.00016484
0.00015233
0.000118666
0.000298104
0.000304135
0.000244402
0.000276041
0.000254722
0.000233231
0.000312201
0.000233211
0.000275551
0.00026567
0.000162851
0.000201058
0.000186974
0.000330129
0.000130572
0.000137553
0.000134565
0.000311771
0.000124325
0.000121764
0.000216925
0.000113566
0.000252428
0.00025281
0.000116577
0.000274911
0.0001294
0.000128634
0.000144917
0.000122727
0.000120493
0.000179791
0.000143221
0.000130153
0.000123107
0.000251704
0.000287284
0.000135507
0.000277819
0.000111644
0.000281829
0.000223913
0.00011664
9.87606e-05
0.000110186
0.000146196
0.000242032
0.00019925
8.33541e-05
9.25233e-05
0.000269818
7.84632e-05
7.84624e-05
8.89076e-05
9.97958e-05
0.000112803
0.000131267
0.000217062
0.000200918
0.000270005
7.88322e-05
7.88316e-05
0.000237291
9.75958e-05
0.000192375
8.84362e-05
8.8966e-05
0.000117221
0.00020345
0.000210669
0.000224435
0.000205687
0.000203445
4.44464e-05
0.000328405
5.66958e-05
5.49315e-05
0.000265295
0.000263454
5.69247e-05
3.95381e-05
5.57105e-05
0.000244713
SCALARS rr_uec(SIM,_S_ext) float
LOOKUP_TABLE default
0.0134138
0.0305611
0.024407
0.0319011
0.0166796
0.0259045
0.0132631
0.0317239
0.027278
0.0343442
0.0121741
0.0318211
0.0280033
0.029575
0.034649
0.0290869
0.0250158
0.0282813
0.0253337
0.0247673
0.0278604
0.00494624
0.0285459
0.0263092
0.0238482
0.0275108
0.0112779
0.0241652
0.0189667
0.022323
0.0247393
0.0196068
0.0124932
0.0167267
0.0164395
0.0167644
0.0217024
0.016473
0.0247141
0.0140425
0.0159422
0.0191268
0.0191288
0.0271512
0.0156753
0.0172933
0.0238405
0.0241419
0.0226232
0.0216575
0.0222385
0.0172447
0.0267713
0.0221586
0.0246472
0.0113707
0.0175527
0.0223211
0.0175522
0.027
0.0319336
0.0312963
0.0110915
0.0220663
0.0299762
0.0282907
0.0308894
0.0267202
0.0246061
0.0350748
0.0290457
0.0287292
0.0196975
0.0228997
0.0242569
0.0128962
0.0249739
0.0280283
0.0269451
0.0190301
0.017174
0.0188262
0.0356431
0.017198
0.0231881
0.00861297
0.0279145
0.0233272
0.0166002
0.00243406
0.0192008
0.00264729
0.0211912
0.0203084
0.0181716
0.0165745
0.0157731
0.0301523
0.0249925
0.02406
0.0204421
0.0196116
0.0165017
0.0285586
0.0290313
0.0261431
0.022991
0.0233235
0.0175169
0.034836
0.0223863
0.0118237
0.0158017
0.0312554
0.0292801
0.0213986
0.0203542
0.0131069
0.0211117
0.0213141
0.0185389
0.0337758
0.0348301
0.0299176
0.0329146
0.025823
0.0146073
0.0325551
0.0142857
0.0184267
0.0151725
0.0310748
0.0303518
0.0305113
0.0203974
0.0123672
0.0136743
0.022361
0.0273279
0.012363
0.0170358
0.0263534
0.0199693
0.032177
0.0159529
0.0262564
0.0238291
0.0230385
0.0147255
0.0188199
0.0209845
0.0299863
0.0175922
0.0271506
0.0314456
0.0319471
0.0209037
0.0175473
0.0174477
0.0274112
0.0230131
0.017446
0.0115449
0.0170393
0.0169475
0.0293504
0.0177837
0.0179799
0.0194772
0.0173301
0.0258742
0.0181502
0.0160709
0.020199
0.0191748
0.0229759
0.0255929
0.0246355
0.020926
0.0245752
0.0189041
0.0284749
0.0305613
0.0170387
0.0299346
0.0170315
0.0295633
0.0271773
0.0253717
0.0258276
0.0301971
0.0143226
0.0187624
0.017447
0.0304567
0.029986
0.0278008
0.0302772
0.0308284
0.0258912
0.0317493
0.0213035
0.0192267
0.034663
0.0202477
0.0314832
0.0250794
0.0160108
0.0192576
0.0314163
0.0261435
0.0238049
0.0306672
0.030082
0.0194648
0.0193006
0.0187499
0.0266867
0.0294474
0.0338426
0.032514
0.0353752
0.0320551
0.0350303
0.0293909
0.03071
0.0309493
0.0291756
0.0306503
0.0282142
0.0277942
0.0197245
0.0264841
0.0309879
0.0215255
0.0315702
0.0290019
0.033597
0.0202141
0.0319508
0.0305427
0.0198507
0.027364
0.0197167
0.0307491
0.0280722
0.0206676
0.019453
0.0168249
0.0193542
0.0307913
0.0141288
0.023733
0.0193808
0.0217446
0.0319809
0.0309561
0.00970759
0.0310686
0.0169227
0.018346
0.0318064
0.025855
0.0185621
0.0354866
0.020187
0.00970761
0.0187601
0.0276069
0.0344607
0.0261268
0.030736
0.0287856
0.0151097
0.0148103
0.0126679
0.0145439
0.0205934
0.0157511
0.0253742
0.0158804
0.0273257
0.0195153
0.0187885
0.0219759
0.0204346
0.0271432
0.019595
0.0201648
0.00889872
0.0203147
0.0293843
0.0294052
0.0266334
0.0195572
0.0127343
0.0369742
0.0248432
0.020748
0.0191277
0.0190464
0.0197285
0.0240368
0.019375
0.0138779
0.019121
0.0131164
0.0236872
0.0195078
0.00829413
0.0183736
0.0217245
0.0195085
0.0300178
0.0202588
0.0261247
0.0100218
0.0209696
0.0200309
0.0174929
0.0188047
0.0221901
0.0208854
0.0218408
0.0185743
0.0188666
0.0203738
0.0272349
0.0192124
0.0272186
0.0245707
0.0193914
0.0199316
0.0201228
0.0222565
0.0200895
0.0188106
0.0213756
0.0224158
0.0264633
0.0201185
0.0199886
0.0289367
0.0285314
0.019227
0.0193956
0.00866406
0.0234325
0.0162607
0.0219947
0.00973057
0.0101008
0.00902674
0.00917454
0.00973316
0.0102532
0.0105664
0.0246757
0.0182604
0.0184241
0.0210643
0.0205195
0.0202634
0.0214336
0.0198303
0.020282
0.0206201
0.0201883
0.0247878
0.0183556
0.0254798
0.0198261
0.019139
0.0202137
0.0215672
0.0225363
0.0209962
0.0240454
0.0224647
0.0208321
0.015023
0.0209524
0.0204881
0.0220591
0.0211331
0.0200244
0.0190434
0.0209768
0.0218803
0.0297023
0.0196181
0.0288778
0.0301022
0.0206134
0.0288399
0.0221242
0.0177228
0.0241412
0.0211597
0.0152384
0.0133863
0.0238341
0.0253852
0.0214905
0.0178652
0.0214923
0.0101915
0.0212476
0.0199363
0.0101804
0.00390087
0.00426721
0.0184051
0.0196262
0.0227942
0.0219121
0.00200552
0.00209557
0.0217002
0.0219265
0.0207557
0.0076499
0.0183645
0.0213489
0.0217684
0.0187775
0.0165738
0.0079665
0.0314402
0.0197492
0.0241305
0.0245078
0.0176126
0.0222905
0.0172204
0.0190019
0.00944258
0.0142493
0.022317
0.022455
0.0192992
0.0202699
0.0209172
0.0220552
0.0210954
0.010401
0.0185098
0.020869
0.019725
0.0296003
0.010399
0.0160209
0.016502
0.0156389
0.0101674
0.010168
0.0179163
0.0144665
0.0206899
0.011131
0.0121419
0.00396442
0.0039644
0.00830242
0.0131819
0.00888096
0.0176285
0.0190661
0.0203474
0.0229267
0.0207956
0.0192532
0.0151582
0.00938005
0.0190324
0.0197177
0.0190901
0.0105406
0.00974133
0.00758792
0.0190632
0.0194487
0.0156286
0.0176521
0.0162888
0.0149148
0.0199645
0.0149135
0.0176208
0.016989
0.0104142
0.0128574
0.0119561
0.0211111
0.00834915
0.00879551
0.00860454
0.0199371
0.00794993
0.00778598
0.0138716
0.00726178
0.0161423
0.0161667
0.00745426
0.0175798
0.00827442
0.0082252
0.00926665
0.00784749
0.00770488
0.0114974
0.0091583
0.00832262
0.00787187
0.0160958
0.0183713
0.00866493
0.0177658
0.00713891
0.0180223
0.0143186
0.00745831
0.0063152
0.00704559
0.00934854
0.0154773
0.0127417
0.00533045
0.00591681
0.0172542
0.00501768
0.00501763
0.00568559
0.00638187
0.00721323
0.0083944
0.0138807
0.0128484
0.0172662
0.00504126
0.00504122
0.0151744
0.00624079
0.0123019
0.00565502
0.00568881
0.00749558
0.0130105
0.0134722
0.0143525
0.0131536
0.0130102
0.00284231
0.0210012
0.00362565
0.00351282
0.0169654
0.0168477
0.00364029
0.00252844
0.00356264
0.0156492
SCALARS rr_uec(PEX,_P_ext) float
LOOKUP_TABLE default
-0.0609656
-0.138946
-0.110963
-0.145037
-0.075841
-0.117771
-0.0602809
-0.144231
-0.124013
-0.156146
-0.0553313
-0.144673
-0.127315
-0.134463
-0.15754
-0.13224
-0.113736
-0.128579
-0.115171
-0.1126
-0.126662
-0.0224929
-0.129778
-0.11961
-0.108422
-0.125077
-0.0512611
-0.109864
-0.0862177
-0.101506
-0.112475
-0.0891275
-0.0567849
-0.076057
-0.0747521
-0.0762284
-0.098684
-0.0749043
-0.112361
-0.0638268
-0.0724689
-0.0869724
-0.0869816
-0.123441
-0.0712501
-0.0786114
-0.108384
-0.109756
-0.102854
-0.0984473
-0.10109
-0.0783927
-0.121726
-0.100731
-0.112068
-0.0516853
-0.0798141
-0.10147
-0.0798114
-0.122751
-0.145188
-0.142295
-0.0504151
-0.100329
-0.136293
-0.128626
-0.140441
-0.121482
-0.111867
-0.159467
-0.132067
-0.130628
-0.0895399
-0.104117
-0.110281
-0.0586155
-0.113551
-0.127433
-0.122505
-0.0865095
-0.0780667
-0.0856021
-0.162056
-0.0781749
-0.105409
-0.0391495
-0.12691
-0.10606
-0.0754542
-0.0110686
-0.0872853
-0.0120383
-0.0963521
-0.0923334
-0.082607
-0.0753426
-0.0716989
-0.137087
-0.113636
-0.109387
-0.0929318
-0.0891515
-0.0750095
-0.12984
-0.13199
-0.118859
-0.104532
-0.106038
-0.0796245
-0.158382
-0.101776
-0.0537436
-0.0718267
-0.142101
-0.133121
-0.0972767
-0.0925528
-0.0595793
-0.095997
-0.0968923
-0.0842802
-0.153569
-0.158354
-0.136023
-0.149647
-0.117411
-0.0664201
-0.148012
-0.0649376
-0.0837663
-0.0689873
-0.141281
-0.137998
-0.138719
-0.0927236
-0.0562347
-0.0621573
-0.101663
-0.12425
-0.0562158
-0.0774426
-0.119816
-0.0907838
-0.146292
-0.072516
-0.119374
-0.108339
-0.104742
-0.0669477
-0.085556
-0.0954013
-0.136332
-0.0799697
-0.123438
-0.142967
-0.145247
-0.0950394
-0.079768
-0.0793154
-0.124623
-0.104624
-0.0793051
-0.0524764
-0.0774554
-0.0770414
-0.133441
-0.0808428
-0.0817345
-0.0885382
-0.0787806
-0.117645
-0.0825091
-0.0730533
-0.0918359
-0.087167
-0.104463
-0.116366
-0.112005
-0.0951483
-0.111731
-0.0859335
-0.129461
-0.138946
-0.0774555
-0.136101
-0.0774198
-0.134413
-0.123566
-0.115361
-0.117425
-0.137295
-0.0651058
-0.0852924
-0.0793098
-0.138471
-0.136329
-0.126394
-0.137659
-0.140161
-0.117716
-0.144348
-0.0968497
-0.0874037
-0.157599
-0.0920409
-0.143142
-0.114026
-0.0727824
-0.0875589
-0.142834
-0.118868
-0.10823
-0.139428
-0.136772
-0.0884878
-0.087751
-0.0852366
-0.121335
-0.133883
-0.153865
-0.147825
-0.160833
-0.145738
-0.159265
-0.133626
-0.13963
-0.140718
-0.132654
-0.139359
-0.128287
-0.126377
-0.089668
-0.12041
-0.140884
-0.0978609
-0.143542
-0.131865
-0.152746
-0.0918922
-0.145262
-0.138862
-0.0902424
-0.124417
-0.0896329
-0.139805
-0.127627
-0.093956
-0.0884329
-0.0764799
-0.0879767
-0.139997
-0.0642238
-0.1079
-0.0881043
-0.0988549
-0.145398
-0.140742
-0.044142
-0.141253
-0.0769238
-0.0834
-0.144606
-0.117549
-0.0843825
-0.16134
-0.0917737
-0.0441421
-0.0852829
-0.125515
-0.156679
-0.118784
-0.139749
-0.130877
-0.0687024
-0.0673341
-0.0575817
-0.066108
-0.0936353
-0.0716094
-0.115363
-0.0721932
-0.124243
-0.0887274
-0.085412
-0.0999151
-0.0928978
-0.123406
-0.0890809
-0.0916684
-0.0404651
-0.0923671
-0.133603
-0.133698
-0.121089
-0.0889095
-0.0579031
-0.168106
-0.112944
-0.0943229
-0.0869559
-0.0866013
-0.0896868
-0.109291
-0.0880805
-0.0630803
-0.086926
-0.0596223
-0.107698
-0.0886833
-0.0377158
-0.083528
-0.0987731
-0.0886861
-0.136479
-0.092098
-0.118773
-0.0455527
-0.0953352
-0.0910615
-0.0795375
-0.0854867
-0.100882
-0.0949581
-0.099299
-0.0844405
-0.0857695
-0.0926229
-0.123828
-0.0873418
-0.123748
-0.111708
-0.0881707
-0.0906114
-0.0914813
-0.101185
-0.0913307
-0.0855149
-0.0971775
-0.101918
-0.120314
-0.0914623
-0.0908688
-0.131561
-0.129718
-0.0874078
-0.0881896
-0.0393777
-0.106533
-0.073915
-0.0999946
-0.0442157
-0.0458982
-0.0410176
-0.0416891
-0.0442275
-0.0465909
-0.0480138
-0.112192
-0.0830296
-0.083764
-0.095764
-0.0932852
-0.092121
-0.097448
-0.0901518
-0.0922054
-0.0937593
-0.0917795
-0.112704
-0.083443
-0.115849
-0.0901365
-0.0870112
-0.0918951
-0.0980632
-0.102459
-0.0954547
-0.10932
-0.102131
-0.0947062
-0.0682933
-0.0952553
-0.0931465
-0.100297
-0.096075
-0.0910339
-0.0865748
-0.0953659
-0.0994758
-0.135041
-0.0891874
-0.131293
-0.136855
-0.093714
-0.13112
-0.100584
-0.0805711
-0.10976
-0.0961984
-0.0692883
-0.0608458
-0.108366
-0.115419
-0.0977038
-0.0812207
-0.0977165
-0.0463202
-0.0965994
-0.0906365
-0.046274
-0.0177384
-0.0194043
-0.0836766
-0.089224
-0.10363
-0.0996165
-0.00912022
-0.0095297
-0.098659
-0.0996883
-0.0943651
-0.0347687
-0.0834876
-0.0970655
-0.098965
-0.0853674
-0.0753489
-0.0362072
-0.142946
-0.0897831
-0.109707
-0.111422
-0.0800714
-0.101339
-0.0782883
-0.0863879
-0.0429191
-0.064772
-0.101459
-0.102089
-0.08774
-0.0921518
-0.0950956
-0.10027
-0.0959059
-0.0472765
-0.0841598
-0.0948743
-0.0896811
-0.134581
-0.0472672
-0.0728369
-0.075024
-0.0711083
-0.0462335
-0.0462366
-0.0814621
-0.0657671
-0.094064
-0.0505945
-0.0552118
-0.0180282
-0.0180281
-0.0377338
-0.0599392
-0.0403829
-0.0801456
-0.0866897
-0.0925079
-0.104236
-0.0945494
-0.0875377
-0.0689165
-0.042632
-0.086529
-0.0896478
-0.0867954
-0.0479089
-0.0442946
-0.03449
-0.0866729
-0.088424
-0.0710489
-0.0802539
-0.0740566
-0.0678159
-0.090768
-0.0678099
-0.0801108
-0.0772429
-0.0473543
-0.0584643
-0.0543449
-0.0959819
-0.0379466
-0.0399757
-0.039107
-0.0906459
-0.0361321
-0.0353863
-0.0630639
-0.0330044
-0.0733988
-0.0735098
-0.0338794
-0.0799229
-0.0376096
-0.0373833
-0.0421192
-0.0356666
-0.0350206
-0.0522797
-0.0416273
-0.037826
-0.0357774
-0.073179
-0.0835285
-0.039384
-0.0807714
-0.0324455
-0.0819385
-0.0650968
-0.0338977
-0.0287038
-0.0320217
-0.0424883
-0.0703653
-0.0579365
-0.02424
-0.0269063
-0.0784468
-0.0228177
-0.0228174
-0.0258549
-0.0290204
-0.0327866
-0.0381702
-0.0631132
-0.0584216
-0.078501
-0.0229244
-0.0229242
-0.0689985
-0.0283637
-0.0559279
-0.0257017
-0.0258577
-0.03407
-0.0591613
-0.0612606
-0.0652633
-0.0598118
-0.0591598
-0.0129253
-0.0954967
-0.0164871
-0.0159745
-0.0771452
-0.07661
-0.0165542
-0.0114979
-0.0162006
-0.0711599
SCALARS cell_type float
LOOKUP_TABLE default
0
0
0
0
0
0
0
0
0
0
0
0
0
0
0
0
0
0
0
0
0
1
0
0
0
0
0
0
0
0
0
0
0
0
0
0
0
0
0
0
0
0
0
0
0
0
0
0
0
0
0
0
0
0
0
0
0
0
0
0
0
0
0
0
0
0
0
0
0
0
0
0
0
0
0
0
0
0
0
0
0
0
0
0
0
0
0
0
0
0
0
0
0
0
0
0
0
0
0
0
0
0
0
0
0
0
0
0
0
0
0
0
0
0
0
0
0
0
0
0
0
0
0
0
0
0
0
0
0
0
0
0
0
0
0
0
0
0
0
0
0
0
0
0
0
0
0
0
0
0
0
0
0
0
0
0
0
0
0
0
0
0
0
0
0
0
0
0
0
0
0
0
0
0
0
0
0
0
0
0
0
0
0
0
0
0
0
0
0
0
0
0
0
0
0
0
0
0
0
0
0
0
0
0
0
0
0
0
0
0
0
0
0
0
0
0
0
0
0
0
0
0
0
0
0
0
0
0
0
0
0
0
0
0
0
0
0
0
0
0
0
0
0
0
0
0
0
0
0
0
0
0
0
0
0
0
0
0
0
0
0
0
0
0
0
0
0
0
0
0
0
0
0
0
0
0
0
0
0
0
0
0
0
0
0
0
0
0
0
0
0
0
0
0
0
0
0
0
0
0
0
0
0
0
0
0
0
0
0
0
0
0
0
0
0
0
0
0
0
0
0
0
0
0
0
0
0
0
0
0
0
0
0
0
0
0
0
0
0
0
0
0
0
0
0
0
0
0
0
0
2
2
2
2
2
2
2
0
0
0
0
0
0
0
0
0
0
0
0
0
0
0
0
0
0
0
0
0
0
0
0
0
0
0
0
0
0
0
0
0
0
0
0
0
0
0
0
0
0
0
0
0
0
0
0
0
0
0
0
0
0
0
0
0
0
0
1
1
0
0
0
0
0
0
0
0
0
0
0
0
0
0
0
0
0
0
0
0
0
0
0
0
0
0
0
0
0
0
0
0
0
0
0
0
0
0
0
0
0
0
0
1
1
0
0
0
0
0
0
0
0
0
0
0
0
0
0
0
0
0
0
0
0
0
0
0
0
0
0
0
0
0
0
0
0
0
0
0
0
0
0
0
0
0
0
0
0
0
0
0
0
0
0
0
0
0
0
0
0
0
0
0
0
0
0
0
0
0
1
1
0
0
0
0
0
0
0
0
0
0
0
0
0
0
0
0
0
0
0
0
0
0
0
0
0
0
0
0
0
0
0
0
0
TENSORS Lagrange_strain float
0.0305676 -0.00319822 7.48134e-08
-0.00319822 0.0133889 2.66237e-07
7.48134e-08 2.66237e-07 0.00740163

0.029192 -0.0028007 5.66682e-08
-0.0028007 0.0335531 1.91173e-08
5.66682e-08 1.91173e-08 0.0331628

0.0300206 0.00367898 -1.21829e-07
0.00367898 0.031169 -1.87746e-07
-1.21829e-07 -1.87746e-07 0.0304671

0.0291611 -0.00392497 8.38247e-08
-0.00392497 0.032798 2.82786e-08
8.38247e-08 2.82786e-08 0.0330876

0.0353665 0.00266898 -1.98445e-08
0.00266898 0.0380855 8.43747e-08
-1.98445e-08 8.43747e-08 0.0352916

0.0277347 -0.0023671 -1.05134e-07
-0.0023671 0.0333831 6.83965e-09
-1.05134e-07 6.83965e-09 0.0304382

0.0302615 0.00339403 8.17046e-08
0.00339403 0.0134944 -3.04636e-08
8.17046e-08 -3.04636e-08 0.00746302

0.0317539 0.0039395 -2.4495e-08
0.0039395 0.0311994 -1.66382e-07
-2.4495e-08 -1.66382e-07 0.0315599

0.033241 0.000715367 4.24324e-08
0.000715367 0.0262207 -2.66125e-09
4.24324e-08 -2.66125e-09 0.0281414

0.0354666 -0.000990993 -4.37416e-08
-0.000990993 0.0275504 -4.51349e-08
-4.37416e-08 -4.51349e-08 0.0327203

0.0280606 0.00205108 1.12048e-07
0.00205108 0.0138087 2.82826e-07
1.12048e-07 2.82826e-07 0.0117533

0.0279526 -0.00176566 -4.47811e-08
-0.00176566 0.0350058 1.98661e-07
-4.47811e-08 1.98661e-07 0.0315485

0.0311205 0.00365708 -1.17336e-07
0.00365708 0.0312995 -2.44473e-08
-1.17336e-07 -2.44473e-08 0.0310788

0.0290685 -0.00187997 -1.06988e-07
-0.00187997 0.0347983 -2.50034e-08
-1.06988e-07 -2.50034e-08 0.0325458

0.034631 0.00441842 5.44987e-08
0.00441842 0.0343619 -3.51457e-08
5.44987e-08 -3.51457e-08 0.034884

0.0343269 7.30528e-05 -1.19189e-07
7.30528e-05 0.0272852 -5.06074e-08
-1.19189e-07 -5.06074e-08 0.0307777

0.0286923 -0.0023537 -1.24968e-07
-0.0023537 0.0360132 -8.67956e-08
-1.24968e-07 -8.67956e-08 0.0334494

0.0345724 -0.000352972 -5.22724e-08
-0.000352972 0.0273557 -3.43725e-08
-5.22724e-08 -3.43725e-08 0.0319764

0.0269194 0.00347816 3.84905e-08
0.00347816 0.0309442 -1.29247e-07
3.84905e-08 -1.29247e-07 0.0275759

0.033884 -0.000550301 3.04019e-09
-0.000550301 0.0264086 1.25894e-07
3.04019e-09 1.25894e-07 0.0301335

0.0266214 0.00113507 -1.2249e-08
0.00113507 0.034033 -1.5403e-07
-1.2249e-08 -1.5403e-07 0.0291493

0.0452948 0.000850897 1.35909e-07
0.000850897 0.0452638 5.8041e-08
1.35909e-07 5.8041e-08 0.0366376

0.0336743 0.000247455 4.9712e-08
0.000247455 0.0263147 -3.42654e-09
4.9712e-08 -3.42654e-09 0.0298044

0.0293089 -0.003632 -6.83037e-09
-0.003632 0.0311353 1.34064e-08
-6.83037e-09 1.34064e-08 0.0300459

0.0337791 0.000900037 -1.52378e-07
0.000900037 0.0264957 3.00909e-08
-1.52378e-07 3.00909e-08 0.0300805

0.0285455 0.00250738 8.66989e-08
0.00250738 0.033893 5.26597e-08
8.66989e-08 5.26597e-08 0.0322862

0.0286289 0.000526711 1.48102e-07
0.000526711 0.0176894 2.08655e-07
1.48102e-07 2.08655e-07 0.013171

0.0309135 0.00403437 -1.78596e-07
0.00403437 0.0306456 1.12167e-07
-1.78596e-07 1.12167e-07 0.03061

0.0259241 0.00477616 6.6503e-08
0.00477616 0.0257324 1.50368e-07
6.6503e-08 1.50368e-07 0.0211275

0.0415287 0.00136978 8.01187e-08
0.00136978 0.0383502 5.95114e-08
8.01187e-08 5.95114e-08 0.0361346

0.0344099 0.00187095 -1.52007e-07
0.00187095 0.0279517 3.10154e-08
-1.52007e-07 3.10154e-08 0.0309993

0.0217592 -0.00228775 2.17257e-08
-0.00228775 0.0299916 1.41958e-07
2.17257e-08 1.41958e-07 0.0211244

0.0228629 -0.00535227 1.72888e-07
-0.00535227 0.0234724 -2.02883e-07
1.72888e-07 -2.02883e-07 0.0125787

0.0348322 0.000800931 8.41303e-08
0.000800931 0.0422549 2.03263e-07
8.41303e-08 2.03263e-07 0.0357857

0.037453 -0.000661752 -1.7336e-07
-0.000661752 0.0412026 -8.11644e-08
-1.7336e-07 -8.11644e-08 0.0359003

0.0410752 0.00281352 1.30794e-07
0.00281352 0.0359856 -1.15839e-07
1.30794e-07 -1.15839e-07 0.0357659

0.0372535 0.000705449 1.85038e-08
0.000705449 0.0432156 -4.64586e-08
1.85038e-08 -4.64586e-08 0.0361411

0.0402605 -0.0012189 -1.35125e-07
-0.0012189 0.03783 3.71413e-08
-1.35125e-07 3.71413e-08 0.0358076

0.0312148 -0.00367773 1.92636e-07
-0.00367773 0.0311228 2.54836e-08
1.92636e-07 2.54836e-08 0.0309247

0.022747 0.00527886 7.05136e-08
0.00527886 0.0237084 1.28882e-07
7.05136e-08 1.28882e-07 0.0125807

0.0297602 -0.00231562 -6.9982e-08
-0.00231562 0.0220305 4.81205e-08
-6.9982e-08 4.81205e-08 0.0208742

0.0376189 -0.000522793 -1.70709e-07
-0.000522793 0.0430638 -2.59643e-07
-1.70709e-07 -2.59643e-07 0.0361438

0.0412402 0.00263438 -2.20956e-07
0.00263438 0.0394148 1.40495e-07
-2.20956e-07 1.40495e-07 0.0361263

0.0343003 -0.00161695 6.65512e-08
-0.00161695 0.0279937 -1.42125e-07
6.65512e-08 -1.42125e-07 0.0310833

0.0231051 -0.00552567 2.52383e-08
-0.00552567 0.0235621 -4.16241e-08
2.52383e-08 -4.16241e-08 0.0162156

0.0299428 -0.00233224 1.19685e-07
-0.00233224 0.0221547 1.28917e-07
1.19685e-07 1.28917e-07 0.0213436

0.025893 0.00222732 -2.07087e-08
0.00222732 0.0326531 -1.361e-07
-2.07087e-08 -1.361e-07 0.0279146

0.0275502 0.0025288 -1.1102e-07
0.0025288 0.0323729 9.42915e-08
-1.1102e-07 9.42915e-08 0.0284901

0.0341743 -0.00214071 -2.23976e-09
-0.00214071 0.0271066 -2.07853e-07
-2.23976e-09 -2.07853e-07 0.0304714

0.0229019 -0.0043922 -5.75084e-09
-0.0043922 0.0272483 -9.48336e-08
-5.75084e-09 -9.48336e-08 0.0198498

0.029493 0.00247147 -1.19228e-07
0.00247147 0.0218337 -1.95847e-07
-1.19228e-07 -1.95847e-07 0.0202804

0.0298717 -0.00327078 1.8018e-08
-0.00327078 0.0245129 -7.66464e-08
1.8018e-08 -7.66464e-08 0.0230475

0.0344772 0.00257802 -1.99776e-07
0.00257802 0.0382028 -4.10826e-08
-1.99776e-07 -4.10826e-08 0.0352703

0.0286887 0.00383839 -1.4283e-07
0.00383839 0.025779 1.56063e-07
-1.4283e-07 1.56063e-07 0.0231161

0.0349278 -0.00291596 -7.41049e-08
-0.00291596 0.0374324 4.6552e-08
-7.41049e-08 4.6552e-08 0.0351887

0.0255794 -0.0054552 9.55338e-08
-0.0054552 0.0229018 2.09378e-07
9.55338e-08 2.09378e-07 0.0158191

0.0373464 0.00074613 -1.01875e-07
0.00074613 0.0414128 8.79508e-08
-1.01875e-07 8.79508e-08 0.0359208

0.0231671 -0.000693148 -3.4742e-08
-0.000693148 0.0313126 4.50503e-08
-3.4742e-08 4.50503e-08 0.0231022

0.0410292 0.00137997 4.93258e-08
0.00137997 0.0377068 -8.50355e-08
4.93258e-08 -8.50355e-08 0.035899

0.0276752 0.00280512 -7.22828e-08
0.00280512 0.0327488 2.33914e-07
-7.22828e-08 2.33914e-07 0.0302304

0.0361383 0.000784827 3.11357e-08
0.000784827 0.0281309 2.48843e-07
3.11357e-08 2.48843e-07 0.0336725

0.0362536 0.00153422 -5.65145e-09
0.00153422 0.0316928 -1.14301e-07
-5.65145e-09 -1.14301e-07 0.0342201

0.0286366 0.00405699 1.41088e-09
0.00405699 0.019897 -2.41163e-07
1.41088e-09 -2.41163e-07 0.0137589

0.030972 -0.000784007 1.48974e-07
-0.000784007 0.0370843 8.38994e-08
1.48974e-07 8.38994e-08 0.033881

0.0315545 0.00124368 -1.49116e-08
0.00124368 0.03642 -8.01625e-09
-1.49116e-08 -8.01625e-09 0.034259

0.0285484 -0.000375279 -7.47511e-08
-0.000375279 0.0369552 1.29031e-08
-7.47511e-08 1.29031e-08 0.0326701

0.0296021 0.00307127 1.33548e-07
0.00307127 0.0347905 -1.16673e-07
1.33548e-07 -1.16673e-07 0.0337084

0.0347187 0.00112184 3.99222e-09
0.00112184 0.027838 4.27192e-08
3.99222e-09 4.27192e-08 0.032208

0.0291865 -0.00369897 1.53589e-07
-0.00369897 0.0310203 2.49321e-07
1.53589e-07 2.49321e-07 0.0299089

0.0350538 -0.000236885 -8.15037e-08
-0.000236885 0.0275792 -4.58814e-08
-8.15037e-08 -4.58814e-08 0.0333925

0.0344518 -0.00254819 -1.54023e-07
-0.00254819 0.0381332 7.44652e-09
-1.54023e-07 7.44652e-09 0.0352604

0.0350102 0.00284958 3.60252e-08
0.00284958 0.03757 -8.42915e-08
3.60252e-08 -8.42915e-08 0.0352402

0.0218882 -0.00213162 -7.12482e-08
-0.00213162 0.0299213 -1.60614e-07
-7.12482e-08 -1.60614e-07 0.0208508

0.0347007 -0.00369103 1.03797e-08
-0.00369103 0.0319575 -2.2942e-07
1.03797e-08 -2.2942e-07 0.0330784

0.0292912 -0.00329724 -7.22622e-09
-0.00329724 0.032112 -3.44005e-08
-7.22622e-09 -3.44005e-08 0.0304328

0.0267791 -0.00401675 3.54915e-07
-0.00401675 0.017605 2.68629e-08
3.54915e-07 2.68629e-08 0.0127256

0.0324037 0.000418583 -2.97638e-08
0.000418583 0.0381048 -9.10588e-09
-2.97638e-08 -9.10588e-09 0.0344053

0.0345364 0.0038173 -1.12355e-07
0.0038173 0.0309408 -8.2389e-08
-1.12355e-07 -8.2389e-08 0.0326597

0.028376 0.00258126 1.10845e-07
0.00258126 0.0341285 -3.52972e-09
1.10845e-07 -3.52972e-09 0.0322132

0.0315412 0.00103768 3.17631e-08
0.00103768 0.0228434 -1.82248e-07
3.17631e-08 -1.82248e-07 0.0240686

0.0270964 -0.00435851 -1.96516e-07
-0.00435851 0.0237363 -6.11838e-08
-1.96516e-07 -6.11838e-08 0.0183231

0.0362599 -0.00140291 -2.8382e-08
-0.00140291 0.0387422 -1.46399e-07
-2.8382e-08 -1.46399e-07 0.0354007

0.0315553 0.00317091 4.74802e-08
0.00317091 0.0344009 -3.50126e-08
4.74802e-08 -3.50126e-08 0.0340897

0.0273007 -0.00415598 -1.53555e-07
-0.00415598 0.0221745 2.70071e-07
-1.53555e-07 2.70071e-07 0.0184109

0.0303573 0.00139096 -1.2852e-07
0.00139096 0.02283 -1.78553e-07
-1.2852e-07 -1.78553e-07 0.0209541

0.0186017 -0.00269685 2.07432e-08
-0.00269685 0.028928 3.22048e-07
2.07432e-08 3.22048e-07 0.0158926

0.0271994 0.0018888 5.14143e-08
0.0018888 0.0343195 -1.30492e-09
5.14143e-08 -1.30492e-09 0.030654

0.035381 0.00305649 -1.17159e-07
0.00305649 0.0308194 1.34342e-07
-1.17159e-07 1.34342e-07 0.0327532

0.0226475 0.00538565 4.22954e-08
0.00538565 0.024088 9.6447e-08
4.22954e-08 9.6447e-08 0.0161981

0.0459481 0.0022379 -3.82701e-07
0.0022379 0.0417503 2.25869e-07
-3.82701e-07 2.25869e-07 0.0366385

0.0230808 -0.00053419 2.15349e-08
-0.00053419 0.0313534 3.51029e-08
2.15349e-08 3.51029e-08 0.023072

0.0463614 -0.00225604 -6.10241e-07
-0.00225604 0.0412944 -7.0149e-08
-6.10241e-07 -7.0149e-08 0.0365937

0.0370649 -0.00362438 -6.21456e-08
-0.00362438 0.0334903 2.5912e-08
-6.21456e-08 2.5912e-08 0.0346203

0.0351365 0.00361913 -5.9666e-08
0.00361913 0.0300035 -7.8235e-08
-5.9666e-08 -7.8235e-08 0.0324559

0.0299613 -0.00315862 2.13814e-07
-0.00315862 0.02469 -1.74521e-08
2.13814e-07 -1.74521e-08 0.0232854

0.0230119 0.00402966 1.62597e-07
0.00402966 0.0277785 -1.11509e-07
1.62597e-07 -1.11509e-07 0.0203816

0.0210935 -0.00137847 1.33745e-07
-0.00137847 0.0298944 -1.58489e-07
1.33745e-07 -1.58489e-07 0.0182511

0.0287449 0.0028887 -1.48132e-07
0.0028887 0.0342263 -4.96672e-08
-1.48132e-07 -4.96672e-08 0.032699

0.0370112 0.00223576 -5.29176e-08
0.00223576 0.0334515 3.8815e-08
-5.29176e-08 3.8815e-08 0.0343836

0.0281478 0.00198809 1.11654e-07
0.00198809 0.0340594 1.35442e-09
1.11654e-07 1.35442e-09 0.0308648

0.0318819 0.00207295 1.86695e-07
0.00207295 0.0252535 6.05265e-08
1.86695e-07 6.05265e-08 0.0256169

0.023907 -0.0027743 -3.84185e-08
-0.0027743 0.029764 -1.57268e-07
-3.84185e-08 -1.57268e-07 0.021561

0.0278978 -0.00376349 -1.54802e-07
-0.00376349 0.0218147 4.13217e-08
-1.54802e-07 4.13217e-08 0.0180755

0.0293306 -0.00323205 7.26156e-08
-0.00323205 0.032629 -6.43012e-08
7.26156e-08 -6.43012e-08 0.0324022

0.0306256 0.00361462 -1.29426e-07
0.00361462 0.0322278 -4.18962e-08
-1.29426e-07 -4.18962e-08 0.03237

0.0287071 0.00304789 -3.28568e-08
0.00304789 0.0340262 3.76618e-08
-3.28568e-08 3.76618e-08 0.0326294

0.0292061 0.00172554 -2.32867e-08
0.00172554 0.0376167 -1.25186e-08
-2.32867e-08 -1.25186e-08 0.0338455

0.0344765 0.0012325 8.27015e-08
0.0012325 0.0275231 3.83101e-08
8.27015e-08 3.83101e-08 0.0306741

0.0199603 -0.00060518 -1.20587e-07
-0.00060518 0.0296598 -8.6263e-08
-1.20587e-07 -8.6263e-08 0.0181035

0.0297962 -0.00486325 1.04785e-07
-0.00486325 0.0330485 -1.7664e-09
1.04785e-07 -1.7664e-09 0.0337409

0.0290803 0.00359995 2.2796e-07
0.00359995 0.0313588 -7.44094e-08
2.2796e-07 -7.44094e-08 0.0302633

0.0181052 0.000282829 -4.86751e-08
0.000282829 0.0293099 -1.18354e-07
-4.86751e-08 -1.18354e-07 0.016878

0.0278425 0.00442359 1.77352e-08
0.00442359 0.0209677 -2.29171e-07
1.77352e-08 -2.29171e-07 0.0174542

0.0291902 -0.00302031 -3.50232e-08
-0.00302031 0.0327019 -1.19839e-07
-3.50232e-08 -1.19839e-07 0.0321846

0.0352413 0.000759802 1.06207e-07
0.000759802 0.0273378 -1.50597e-07
1.06207e-07 -1.50597e-07 0.032552

0.0294264 0.00352003 8.34763e-08
0.00352003 0.0252006 -1.64529e-07
8.34763e-08 -1.64529e-07 0.0231106

0.0396362 0.00171009 6.56534e-08
0.00171009 0.0390391 -2.19151e-07
6.56534e-08 -2.19151e-07 0.0359394

0.0283743 0.00312328 -2.04851e-07
0.00312328 0.0224009 -1.12711e-07
-2.04851e-07 -1.12711e-07 0.0182859

0.039488 -0.00175078 5.67459e-08
-0.00175078 0.0390648 2.75639e-08
5.67459e-08 2.75639e-08 0.0359045

0.0232604 0.000103411 1.45201e-07
0.000103411 0.031517 6.83145e-08
1.45201e-07 6.83145e-08 0.0231189

0.032758 -0.000288368 1.4974e-07
-0.000288368 0.0246593 1.08571e-07
1.4974e-07 1.08571e-07 0.0269655

0.0380539 -0.00212919 -6.41935e-08
-0.00212919 0.0304628 1.07938e-07
-6.41935e-08 1.07938e-07 0.0347925

0.0292374 0.00320588 -8.22636e-08
0.00320588 0.033277 9.37315e-08
-8.22636e-08 9.37315e-08 0.033342

0.0289497 -0.00177241 2.33563e-08
-0.00177241 0.0366083 -1.07235e-08
2.33563e-08 -1.07235e-08 0.0334988

0.0365824 -0.00108483 -9.70424e-08
-0.00108483 0.0264753 -2.15688e-08
-9.70424e-08 -2.15688e-08 0.0338592

0.0311795 -0.00292609 1.57122e-07
-0.00292609 0.0383051 -7.91889e-08
1.57122e-07 -7.91889e-08 0.0348429

0.0381645 -0.00088454 3.20041e-07
-0.00088454 0.0387305 -1.01083e-07
3.20041e-07 -1.01083e-07 0.0358346

0.030179 -0.00393983 -8.84903e-08
-0.00393983 0.0327091 -1.19693e-07
-8.84903e-08 -1.19693e-07 0.0327624

0.0213322 0.00146935 -1.41835e-07
0.00146935 0.0296126 -1.71684e-07
-1.41835e-07 -1.71684e-07 0.018295

0.0293871 -0.00364562 4.54792e-08
-0.00364562 0.0253485 -1.3566e-08
4.54792e-08 -1.3566e-08 0.0231812

0.0328588 -0.00181689 -1.68955e-07
-0.00181689 0.0397168 -8.63145e-08
-1.68955e-07 -8.63145e-08 0.0352402

0.03509 7.67708e-05 1.41686e-07
7.67708e-05 0.0272211 -1.47642e-07
1.41686e-07 -1.47642e-07 0.0332503

0.0308175 -0.00282883 3.52851e-08
-0.00282883 0.0348906 -3.07356e-08
3.52851e-08 -3.07356e-08 0.0340832

0.0295337 0.00338865 -6.23551e-08
0.00338865 0.0328704 7.9702e-08
-6.23551e-08 7.9702e-08 0.0333251

0.0264595 -0.004063 -7.80684e-08
-0.004063 0.0272609 -9.65604e-08
-7.80684e-08 -9.65604e-08 0.0215838

0.0371719 -0.000958393 1.55969e-07
-0.000958393 0.0416093 2.15156e-07
1.55969e-07 2.15156e-07 0.0358857

0.0227103 -0.00423745 -5.18191e-08
-0.00423745 0.0272428 -2.09588e-08
-5.18191e-08 -2.09588e-08 0.0168769

0.0341818 -0.00252468 -5.21181e-09
-0.00252468 0.0286054 8.8576e-08
-5.21181e-09 8.8576e-08 0.0310435

0.0364251 0.000289926 -1.84203e-07
0.000289926 0.0294365 4.22924e-08
-1.84203e-07 4.22924e-08 0.0341928

0.0396407 0.0023967 -3.74779e-09
0.0023967 0.0391125 4.75147e-08
-3.74779e-09 4.75147e-08 0.0358667

0.0238555 0.00260914 1.70933e-08
0.00260914 0.0301506 1.5614e-07
1.70933e-08 1.5614e-07 0.021798

0.0334297 0.00358129 2.3655e-07
0.00358129 0.0307141 7.50631e-09
2.3655e-07 7.50631e-09 0.0317663

0.0316419 -0.00319424 4.48188e-08
-0.00319424 0.0265511 2.5383e-07
4.48188e-08 2.5383e-07 0.0269345

0.0289283 -0.00234077 4.85441e-08
-0.00234077 0.0342338 4.41911e-08
4.85441e-08 4.41911e-08 0.0326049

0.0262436 0.00450135 -1.97375e-08
0.00450135 0.024557 4.30751e-08
-1.97375e-08 4.30751e-08 0.0180805

0.0284219 -0.00286654 3.02607e-08
-0.00286654 0.0340313 3.77516e-08
3.02607e-08 3.77516e-08 0.0324481

0.033148 0.00405857 2.2231e-07
0.00405857 0.0304637 5.15292e-08
2.2231e-07 5.15292e-08 0.0315414

0.0333336 -0.00331161 2.07345e-07
-0.00331161 0.0283563 4.14563e-08
2.07345e-07 4.14563e-08 0.0300449

0.0291604 -0.00329542 -5.1662e-08
-0.00329542 0.0319863 -3.27627e-08
-5.1662e-08 -3.27627e-08 0.0304364

0.0314541 -0.00242922 2.48781e-07
-0.00242922 0.0247181 -4.4398e-08
2.48781e-07 -4.4398e-08 0.0251554

0.0329545 -0.0024666 5.81656e-08
-0.0024666 0.0267087 2.55844e-07
5.81656e-08 2.55844e-07 0.0285957

0.0294905 -0.00334194 -1.43848e-07
-0.00334194 0.0329492 -1.36687e-08
-1.43848e-07 -1.36687e-08 0.0334064

0.0261331 0.00463362 -1.55267e-07
0.00463362 0.0255404 8.84798e-08
-1.55267e-07 8.84798e-08 0.0210917

0.0281492 0.00201654 6.88684e-08
0.00201654 0.034335 1.76459e-09
6.88684e-08 1.76459e-09 0.0311085

0.0308857 0.00348101 3.44526e-08
0.00348101 0.0322547 -6.33143e-08
3.44526e-08 -6.33143e-08 0.0325994

0.0291563 0.00334804 -8.26389e-08
0.00334804 0.0331908 -7.11408e-08
-8.26389e-08 -7.11408e-08 0.0332595

0.0289831 0.00152285 -3.93808e-09
0.00152285 0.0354695 9.20153e-08
-3.93808e-09 9.20153e-08 0.0326947

0.0310519 -0.00106185 8.0091e-08
-0.00106185 0.0231407 5.77528e-08
8.0091e-08 5.77528e-08 0.0220772

0.0238832 0.00240563 -7.49904e-09
0.00240563 0.0304097 2.44779e-07
-7.49904e-09 2.44779e-07 0.0221123

0.0292124 -0.00320399 -1.17648e-08
-0.00320399 0.0326353 -1.62217e-08
-1.17648e-08 -1.62217e-08 0.0316176

0.0289865 0.00335683 1.61351e-07
0.00335683 0.0309318 -1.4851e-07
1.61351e-07 -1.4851e-07 0.0285672

0.0266118 -0.00459115 -2.18953e-07
-0.00459115 0.0252298 -3.20379e-08
-2.18953e-07 -3.20379e-08 0.0212559

0.0262771 0.00489335 6.88537e-08
0.00489335 0.0209456 -3.06174e-07
6.88537e-08 -3.06174e-07 0.0167618

0.0235021 -0.00428661 -9.77594e-09
-0.00428661 0.0274636 -1.54088e-08
-9.77594e-09 -1.54088e-08 0.0206258

0.026671 -0.00402737 -2.16343e-07
-0.00402737 0.0274816 -2.57657e-08
-2.16343e-07 -2.57657e-08 0.0220494

0.0353638 -0.000906623 5.93582e-08
-0.000906623 0.0273896 1.81226e-07
5.93582e-08 1.81226e-07 0.0326542

0.0260444 0.00392139 1.3671e-07
0.00392139 0.0280914 4.1865e-08
1.3671e-07 4.1865e-08 0.0221018

0.0307871 0.00171661 8.63069e-08
0.00171661 0.0233597 -3.05167e-10
8.63069e-08 -3.05167e-10 0.0220249

0.0214304 0.00172193 -5.5e-09
0.00172193 0.0302399 2.44921e-07
-5.5e-09 2.44921e-07 0.0211322

0.0242622 -0.0028892 6.35195e-08
-0.0028892 0.029951 1.43409e-07
6.35195e-08 1.43409e-07 0.0220856

0.0313453 -0.000131194 -9.46419e-08
-0.000131194 0.0392735 -9.71649e-08
-9.46419e-08 -9.71649e-08 0.0346705

0.0230577 0.000294706 9.64658e-08
0.000294706 0.0314597 3.99064e-08
9.64658e-08 3.99064e-08 0.0230616

0.0227766 0.0040014 1.46092e-07
0.0040014 0.0281266 4.25922e-08
1.46092e-07 4.25922e-08 0.0206375

0.0288879 0.00158559 1.50735e-07
0.00158559 0.0358322 -3.90359e-08
1.50735e-07 -3.90359e-08 0.0328932

0.0293151 -0.00358004 2.22296e-07
-0.00358004 0.0251288 -2.98986e-09
2.22296e-07 -2.98986e-09 0.0232392

0.0369764 0.00273299 -4.77362e-08
0.00273299 0.029723 -8.55725e-08
-4.77362e-08 -8.55725e-08 0.0338014

0.0371757 0.00348327 9.4414e-08
0.00348327 0.0334222 1.54681e-08
9.4414e-08 1.54681e-08 0.034652

0.0345439 -0.00244631 -1.66643e-08
-0.00244631 0.0285296 1.72037e-08
-1.66643e-08 1.72037e-08 0.0313785

0.0390566 -0.00026551 -1.51848e-07
-0.00026551 0.0339245 -5.91623e-08
-1.51848e-07 -5.91623e-08 0.035208

0.0314785 -0.00418724 4.80766e-08
-0.00418724 0.0317814 1.44315e-07
4.80766e-08 1.44315e-07 0.032156

0.0294615 0.00300749 1.25708e-07
0.00300749 0.0223269 -5.49905e-08
1.25708e-07 -5.49905e-08 0.0210661

0.0302295 0.00397295 -5.28422e-08
0.00397295 0.0326627 9.71093e-08
-5.28422e-08 9.71093e-08 0.0327197

0.0302769 0.00384677 -1.17488e-07
0.00384677 0.0326067 -6.46921e-08
-1.17488e-07 -6.46921e-08 0.0326744

0.0262437 0.00396153 -4.97523e-08
0.00396153 0.0277673 -1.20486e-07
-4.97523e-08 -1.20486e-07 0.0218644

0.0344498 0.0035765 -3.69792e-08
0.0035765 0.0317796 -1.87405e-07
-3.69792e-08 -1.87405e-07 0.0328312

0.0302478 0.000452423 9.98762e-08
0.000452423 0.020428 2.8466e-08
9.98762e-08 2.8466e-08 0.0205729

0.0331857 0.00420054 -2.60087e-08
0.00420054 0.0323729 -6.92507e-08
-2.60087e-08 -6.92507e-08 0.0334836

0.0305007 -0.00165461 -5.57438e-08
-0.00165461 0.0366159 -1.44018e-08
-5.57438e-08 -1.44018e-08 0.0336626

0.03736 0.0032327 4.9914e-08
0.0032327 0.0334597 -8.36701e-08
4.9914e-08 -8.36701e-08 0.0346641

0.0307368 -0.0038958 2.54257e-08
-0.0038958 0.0322729 -7.46059e-08
2.54257e-08 -7.46059e-08 0.03268

0.0293738 -0.000645007 -8.84166e-08
-0.000645007 0.0369025 1.17271e-08
-8.84166e-08 1.17271e-08 0.0328476

0.028812 -0.0031523 -2.61442e-07
-0.0031523 0.0221397 1.2509e-07
-2.61442e-07 1.2509e-07 0.0187587

0.0290023 0.00384435 5.61055e-08
0.00384435 0.0255775 8.3448e-08
5.61055e-08 8.3448e-08 0.0230725

0.021701 0.00189092 3.01464e-08
0.00189092 0.0300609 1.56945e-07
3.01464e-08 1.56945e-07 0.0210835

0.0349895 -0.000161488 -2.57705e-08
-0.000161488 0.0273892 1.81354e-07
-2.57705e-08 1.81354e-07 0.0333013

0.034419 2.3777e-07 1.73078e-07
2.3777e-07 0.0272743 -2.97615e-08
1.73078e-07 -2.97615e-08 0.0320409

0.0291652 0.00303978 -1.39221e-07
0.00303978 0.0326795 -6.37055e-08
-1.39221e-07 -6.37055e-08 0.0321324

0.0314493 0.00316587 1.10952e-07
0.00316587 0.03425 1.7648e-07
1.10952e-07 1.7648e-07 0.034058

0.0291683 -0.00320427 1.15385e-07
-0.00320427 0.0332384 -6.20784e-08
1.15385e-07 -6.20784e-08 0.0333787

0.0287735 -8.5517e-05 -8.42283e-08
-8.5517e-05 0.0367045 -1.00372e-07
-8.42283e-08 -1.00372e-07 0.0325254

0.0294637 0.00337575 3.02931e-09
0.00337575 0.0330747 1.20231e-07
3.02931e-09 1.20231e-07 0.0333544

0.0328589 -0.00134642 -1.74618e-07
-0.00134642 0.0253616 -1.24307e-07
-1.74618e-07 -1.24307e-07 0.0278286

0.0263546 -0.00425426 -1.30033e-07
-0.00425426 0.0281795 -1.12653e-08
-1.30033e-07 -1.12653e-08 0.0242673

0.0362974 -0.000331413 7.68315e-08
-0.000331413 0.029383 -1.29189e-07
7.68315e-08 -1.29189e-07 0.0340277

0.0267805 -0.00444545 -1.51401e-08
-0.00444545 0.0251899 4.99164e-09
-1.51401e-08 4.99164e-09 0.0209489

0.0308993 0.0025071 8.18178e-08
0.0025071 0.035063 -1.1814e-07
8.18178e-08 -1.1814e-07 0.0340675

0.035113 -0.00349653 1.6382e-08
-0.00349653 0.0303881 -3.14358e-08
1.6382e-08 -3.14358e-08 0.0326146

0.0305016 -0.00124976 5.16335e-10
-0.00124976 0.0229781 2.12199e-07
5.16335e-10 2.12199e-07 0.0214781

0.037148 -0.00307708 -5.44973e-08
-0.00307708 0.0316532 -2.17815e-07
-5.44973e-08 -2.17815e-07 0.0339877

0.0349688 0.000321777 3.93928e-08
0.000321777 0.0275545 -2.72409e-08
3.93928e-08 -2.72409e-08 0.0334297

0.0358431 -0.00308815 -2.19697e-08
-0.00308815 0.0332574 -3.1296e-08
-2.19697e-08 -3.1296e-08 0.0341433

0.0349283 -0.00341063 -1.06084e-07
-0.00341063 0.0295948 1.7928e-07
-1.06084e-07 1.7928e-07 0.0321778

0.0349091 -0.00113345 -1.23991e-07
-0.00113345 0.0278497 -1.16158e-07
-1.23991e-07 -1.16158e-07 0.0323412

0.0314892 -0.00306231 5.9402e-08
-0.00306231 0.0344483 8.17616e-08
5.9402e-08 8.17616e-08 0.0341462

0.0292349 -0.00407086 1.19397e-07
-0.00407086 0.0268995 -1.20517e-07
1.19397e-07 -1.20517e-07 0.0253459

0.0349924 -0.00324366 -1.48329e-07
-0.00324366 0.0299152 1.27483e-08
-1.48329e-07 1.27483e-08 0.032195

0.0314621 0.00140916 -1.57234e-08
0.00140916 0.0233268 -5.48338e-09
-1.57234e-08 -5.48338e-09 0.0244833

0.0336644 0.00348415 -7.2353e-08
0.00348415 0.0334435 2.51077e-09
-7.2353e-08 2.51077e-09 0.0336498

0.0298922 -0.00496718 7.21591e-09
-0.00496718 0.0330779 -1.96876e-08
7.21591e-09 -1.96876e-08 0.0338569

0.0300428 0.00492037 -4.15156e-08
0.00492037 0.0329402 1.22209e-07
-4.15156e-08 1.22209e-07 0.0338238

0.0276876 -0.00374173 -8.30104e-08
-0.00374173 0.0348067 -2.22865e-07
-8.30104e-08 -2.22865e-07 0.0337664

0.0279254 0.0035471 -4.27029e-08
0.0035471 0.0348347 -1.24283e-07
-4.27029e-08 -1.24283e-07 0.0337313

0.0364292 -0.0011539 1.1404e-07
-0.0011539 0.0263416 -6.82948e-08
1.1404e-07 -6.82948e-08 0.0337576

0.0361981 0.00124758 1.99662e-07
0.00124758 0.0265629 -1.0783e-08
1.99662e-07 -1.0783e-08 0.0337204

0.035034 -0.00130667 2.05445e-10
-0.00130667 0.0284678 5.85241e-08
2.05445e-10 5.85241e-08 0.0325756

0.0344362 0.00425925 -9.96925e-08
0.00425925 0.0342891 1.72742e-07
-9.96925e-08 1.72742e-07 0.0348123

0.0343121 -0.004357 -8.57582e-08
-0.004357 0.034281 2.62018e-08
-8.57582e-08 2.62018e-08 0.0348006

0.0305205 0.00209349 3.69187e-08
0.00209349 0.0381652 -2.96086e-08
3.69187e-08 -2.96086e-08 0.0348494

0.0306638 -0.00205948 5.12899e-08
-0.00205948 0.0380948 -2.47971e-09
5.12899e-08 -2.47971e-09 0.0348367

0.0395016 -0.000528963 4.37927e-08
-0.000528963 0.0328492 5.99574e-08
4.37927e-08 5.99574e-08 0.0352577

0.039705 0.0005134 1.23995e-07
0.0005134 0.0326218 -7.29821e-08
1.23995e-07 -7.29821e-08 0.0353029

0.0239648 0.00127595 2.21173e-08
0.00127595 0.0320028 -9.70056e-08
2.21173e-08 -9.70056e-08 0.025184

0.0311617 -0.00326533 5.29437e-08
-0.00326533 0.0322407 1.15082e-07
5.29437e-08 1.15082e-07 0.0328015

0.0277795 -0.00478575 -1.67079e-07
-0.00478575 0.0333118 -5.55911e-08
-1.67079e-07 -5.55911e-08 0.033455

0.0333584 -0.000610214 -3.48928e-08
-0.000610214 0.0264028 1.23056e-07
-3.48928e-08 1.23056e-07 0.028448

0.0381874 -0.00225189 -4.41465e-08
-0.00225189 0.0307942 -8.99571e-08
-4.41465e-08 -8.99571e-08 0.0348925

0.0382362 0.00218399 -7.19403e-08
0.00218399 0.0309074 2.19502e-07
-7.19403e-08 2.19502e-07 0.0349247

0.0360832 1.56053e-05 -1.63981e-08
1.56053e-05 0.0251255 7.18699e-08
-1.63981e-08 7.18699e-08 0.03347

0.0242407 0.00302876 -8.23197e-08
0.00302876 0.0303971 -2.53326e-08
-8.23197e-08 -2.53326e-08 0.0242768

0.027674 0.00475638 2.80029e-08
0.00475638 0.0333122 -6.64828e-08
2.80029e-08 -6.64828e-08 0.0333928

0.0286741 -0.00307576 5.36691e-08
-0.00307576 0.0342607 4.41039e-08
5.36691e-08 4.41039e-08 0.0327521

0.0310851 0.00303567 -1.33335e-07
0.00303567 0.0251465 -1.76039e-07
-1.33335e-07 -1.76039e-07 0.0254669

0.0372272 0.00316545 1.53986e-07
0.00316545 0.0315406 -1.53137e-07
1.53986e-07 -1.53137e-07 0.0340756

0.0292263 -0.00406727 1.24222e-07
-0.00406727 0.0269355 1.56223e-07
1.24222e-07 1.56223e-07 0.0253211

0.0364011 -0.000453653 -9.20073e-08
-0.000453653 0.0296914 -1.15405e-08
-9.20073e-08 -1.15405e-08 0.0341308

0.0273444 -0.00449488 5.68315e-09
-0.00449488 0.0333947 5.48381e-08
5.68315e-09 5.48381e-08 0.0334416

0.0240377 0.00107885 5.86575e-08
0.00107885 0.032244 -1.10033e-07
5.86575e-08 -1.10033e-07 0.0255056

0.0242295 0.00282657 -1.06274e-07
0.00282657 0.0307012 4.6563e-08
-1.06274e-07 4.6563e-08 0.0245446

0.026792 0.00459421 -1.52733e-07
0.00459421 0.0240415 9.12871e-08
-1.52733e-07 9.12871e-08 0.0182134

0.0298506 0.000199876 1.09427e-08
0.000199876 0.0200882 1.96062e-07
1.09427e-08 1.96062e-07 0.0193622

0.0319083 -0.00302382 1.18479e-07
-0.00302382 0.0341624 1.67034e-08
1.18479e-07 1.67034e-08 0.0340354

0.0229184 0.0039996 2.96497e-08
0.0039996 0.0276596 -1.66555e-07
2.96497e-08 -1.66555e-07 0.0176529

0.0292094 0.00310084 5.93864e-08
0.00310084 0.032763 2.37476e-07
5.93864e-08 2.37476e-07 0.031012

0.0315945 -0.000694617 -9.59201e-08
-0.000694617 0.0231598 5.32194e-08
-9.59201e-08 5.32194e-08 0.0244846

0.0327609 0.00146445 9.24029e-09
0.00146445 0.0253466 7.50809e-08
9.24029e-09 7.50809e-08 0.0276128

0.035978 5.62363e-05 -4.2656e-08
5.62363e-05 0.0249585 1.50915e-07
-4.2656e-08 1.50915e-07 0.033386

0.0279655 -0.00380543 1.31401e-07
-0.00380543 0.0349488 -3.34746e-08
1.31401e-07 -3.34746e-08 0.0338158

0.0393145 -0.000843768 2.36185e-07
-0.000843768 0.0416019 6.70698e-08
2.36185e-07 6.70698e-08 0.0361899

0.0298673 0.00493887 1.61689e-07
0.00493887 0.032956 8.59403e-08
1.61689e-07 8.59403e-08 0.0337789

0.0302878 0.000214511 -8.24481e-08
0.000214511 0.0203966 1.64443e-08
-8.24481e-08 1.64443e-08 0.0172759

0.0266736 -0.00425034 -2.33105e-07
-0.00425034 0.0281328 -1.86364e-09
-2.33105e-07 -1.86364e-09 0.0244372

0.0277458 0.00481589 1.74533e-08
0.00481589 0.033315 9.49113e-08
1.74533e-08 9.49113e-08 0.0334551

0.0279449 -0.00145855 1.55079e-08
-0.00145855 0.035085 2.06396e-07
1.55079e-08 2.06396e-07 0.0314501

0.0244648 -0.00330514 -1.00279e-07
-0.00330514 0.0300149 -5.72092e-08
-1.00279e-07 -5.72092e-08 0.0242168

0.0279906 0.00377966 4.12469e-08
0.00377966 0.0349101 -1.15478e-07
4.12469e-08 -1.15478e-07 0.0337866

0.0313613 -0.00340932 -1.3212e-07
-0.00340932 0.0270085 -1.45298e-07
-1.3212e-07 -1.45298e-07 0.0269911

0.0402795 0.00140851 1.11193e-07
0.00140851 0.0406185 -2.09334e-07
1.11193e-07 -2.09334e-07 0.0361703

0.0258809 0.00400282 1.02183e-07
0.00400282 0.0289544 -2.25808e-08
1.02183e-07 -2.25808e-08 0.0245108

0.036678 0.00110304 -5.32909e-08
0.00110304 0.026352 -1.58177e-07
-5.32909e-08 -1.58177e-07 0.0338976

0.0333417 0.00398409 3.27547e-08
0.00398409 0.0321153 -5.95863e-08
3.27547e-08 -5.95863e-08 0.0333154

0.0292278 0.0030672 -6.92897e-08
0.0030672 0.032605 9.65237e-08
-6.92897e-08 9.65237e-08 0.0321576

0.0343645 -0.00431109 9.02916e-08
-0.00431109 0.0345049 8.11004e-08
9.02916e-08 8.11004e-08 0.0348848

0.0354893 -0.00306353 6.91647e-08
-0.00306353 0.0305898 7.61774e-08
6.91647e-08 7.61774e-08 0.0327503

0.0333664 0.00138753 8.32049e-08
0.00138753 0.0395772 2.18193e-07
8.32049e-08 2.18193e-07 0.0350024

0.029197 -0.00307961 -5.73422e-08
-0.00307961 0.0328736 -8.4112e-08
-5.73422e-08 -8.4112e-08 0.0313832

0.0292647 -0.0012322 1.14445e-07
-0.0012322 0.019287 2.26347e-07
1.14445e-07 2.26347e-07 0.016412

0.0287781 -0.0018323 -1.24491e-07
-0.0018323 0.0184139 -7.12078e-08
-1.24491e-07 -7.12078e-08 0.0161969

0.038529 0.0022022 3.82342e-08
0.0022022 0.0332388 -6.1892e-08
3.82342e-08 -6.1892e-08 0.0347628

0.028056 0.00294519 1.40375e-07
0.00294519 0.032335 2.05221e-07
1.40375e-07 2.05221e-07 0.0295181

0.0320672 0.00383432 -9.19463e-08
0.00383432 0.0309605 -8.06189e-08
-9.19463e-08 -8.06189e-08 0.0314543

0.0320496 9.00112e-05 -1.21199e-07
9.00112e-05 0.0245768 1.41693e-07
-1.21199e-07 1.41693e-07 0.024888

0.0302376 0.000866148 -1.04049e-07
0.000866148 0.0385813 -3.18325e-08
-1.04049e-07 -3.18325e-08 0.0340963

0.0354022 0.00219154 1.18556e-07
0.00219154 0.0293228 2.82311e-07
1.18556e-07 2.82311e-07 0.0328582

0.0248114 -0.00333871 3.60332e-08
-0.00333871 0.0300061 1.87209e-07
3.60332e-08 1.87209e-07 0.02447

0.0286506 -0.00033797 1.60603e-07
-0.00033797 0.0366572 -7.68956e-08
1.60603e-07 -7.68956e-08 0.0323957

0.0252152 0.00173991 -3.63868e-08
0.00173991 0.0320295 -9.88073e-08
-3.63868e-08 -9.88073e-08 0.0256839

0.0332806 -0.00390985 -2.19867e-08
-0.00390985 0.0304967 7.06613e-08
-2.19867e-08 7.06613e-08 0.0315924

0.0290647 -0.00389599 4.04471e-08
-0.00389599 0.0282003 -5.61735e-09
4.04471e-08 -5.61735e-09 0.0257136

0.0261491 0.00409863 4.6913e-08
0.00409863 0.0285462 5.0035e-08
4.6913e-08 5.0035e-08 0.0243181

0.0452876 -0.00201743 3.31685e-07
-0.00201743 0.0396065 -1.3953e-07
3.31685e-07 -1.3953e-07 0.0363669

0.0316667 0.000256571 -7.08375e-08
0.000256571 0.0393271 1.99404e-07
-7.08375e-08 1.99404e-07 0.034769

0.0306166 0.00265111 -2.64258e-08
0.00265111 0.038443 3.33976e-08
-2.64258e-08 3.33976e-08 0.0349577

0.0387654 0.00209472 -9.81053e-08
0.00209472 0.0302215 -2.0871e-07
-9.81053e-08 -2.0871e-07 0.0349425

0.0313709 -0.00345051 1.21561e-08
-0.00345051 0.0321402 -9.50375e-08
1.21561e-08 -9.50375e-08 0.0325727

0.0318178 0.00233601 -1.14171e-07
0.00233601 0.0256204 -2.04352e-07
-1.14171e-07 -2.04352e-07 0.0258796

0.0349938 -0.000708735 2.09668e-07
-0.000708735 0.0415753 -2.75152e-08
2.09668e-07 -2.75152e-08 0.0357276

0.0357882 -0.00251857 -1.21819e-07
-0.00251857 0.0295502 -1.21536e-07
-1.21819e-07 -1.21536e-07 0.0332579

0.0332971 -0.00203956 -5.74019e-08
-0.00203956 0.0266526 -3.96656e-08
-5.74019e-08 -3.96656e-08 0.0286754

0.0252523 0.00151091 -8.61183e-09
0.00151091 0.0322743 -1.12575e-07
-8.61183e-09 -1.12575e-07 0.02595

0.0268045 -0.00334466 -1.55687e-07
-0.00334466 0.0300092 -5.92231e-08
-1.55687e-07 -5.92231e-08 0.0251872

0.0364779 -0.0033603 -1.3155e-07
-0.0033603 0.0352875 -6.8239e-08
-1.3155e-07 -6.8239e-08 0.0347422

0.0284756 0.00415214 -1.73438e-07
0.00415214 0.027716 9.9387e-08
-1.73438e-07 9.9387e-08 0.0254677

0.0372441 -0.00334564 -2.59087e-08
-0.00334564 0.0333222 6.55866e-08
-2.59087e-08 6.55866e-08 0.0346116

0.0322062 0.000337902 -7.74968e-08
0.000337902 0.0248625 8.92429e-08
-7.74968e-08 8.92429e-08 0.0254375

0.0191609 -0.00368902 1.90562e-07
-0.00368902 0.0275259 -6.41959e-08
1.90562e-07 -6.41959e-08 0.0163108

0.0292096 -0.00380357 1.90939e-07
-0.00380357 0.0281924 3.60694e-08
1.90939e-07 3.60694e-08 0.0258076

0.0230458 0.00412729 1.33812e-07
0.00412729 0.0280202 -1.62275e-07
1.33812e-07 -1.62275e-07 0.017592

0.0296909 -0.00155931 -1.74783e-07
-0.00155931 0.0375332 1.62018e-07
-1.74783e-07 1.62018e-07 0.0336484

0.02436 -0.00179354 3.32201e-09
-0.00179354 0.0318722 -1.35983e-08
3.32201e-09 -1.35983e-08 0.0254478

0.0424378 -0.0032341 4.36768e-07
-0.0032341 0.0423769 1.82307e-08
4.36768e-07 1.82307e-08 0.0363752

0.0263365 0.00309101 5.86701e-08
0.00309101 0.0307014 4.66505e-08
5.86701e-08 4.66505e-08 0.0254776

0.0334769 -0.00432332 -7.17301e-10
-0.00432332 0.032659 -2.31653e-08
-7.17301e-10 -2.31653e-08 0.0335663

0.0240805 -0.00155064 5.0755e-08
-0.00155064 0.0318868 -1.51332e-08
5.0755e-08 -1.51332e-08 0.0251766

0.0362222 -0.00253872 4.35771e-08
-0.00253872 0.029511 -5.66047e-09
4.35771e-08 -5.66047e-09 0.0335192

0.0266732 0.0031045 9.50151e-08
0.0031045 0.0303941 -2.81949e-08
9.50151e-08 -2.81949e-08 0.025313

0.0343426 -0.000653755 5.77e-08
-0.000653755 0.0272765 -1.90501e-08
5.77e-08 -1.90501e-08 0.0305774

0.0188903 -0.00387141 1.0892e-07
-0.00387141 0.0298014 1.22614e-07
1.0892e-07 1.22614e-07 0.0129611

0.027999 0.00275447 1.06174e-07
0.00275447 0.0326286 -4.82235e-08
1.06174e-07 -4.82235e-08 0.0305733

0.0314371 -0.00251219 5.70103e-08
-0.00251219 0.024722 -2.1493e-08
5.70103e-08 -2.1493e-08 0.0254056

0.0391175 -0.00286931 8.78254e-08
-0.00286931 0.0322209 1.89447e-08
8.78254e-08 1.89447e-08 0.0349365

0.0287528 0.00412374 -2.94816e-08
0.00412374 0.0272995 -6.51598e-08
-2.94816e-08 -6.51598e-08 0.025255

0.0313608 -0.00391907 -1.24553e-07
-0.00391907 0.0285414 -1.57235e-07
-1.24553e-07 -1.57235e-07 0.0287305

0.0354074 0.00276385 -1.10053e-07
0.00276385 0.0308554 -5.08333e-08
-1.10053e-07 -5.08333e-08 0.0330387

0.0297724 -0.00370345 -5.08664e-08
-0.00370345 0.0329373 5.7031e-09
-5.08664e-08 5.7031e-09 0.0333418

0.0270546 -0.00341014 -1.50235e-07
-0.00341014 0.0299819 1.73072e-07
-1.50235e-07 1.73072e-07 0.0253969

0.0284401 0.00377111 -8.85942e-08
0.00377111 0.0289393 -2.79923e-08
-8.85942e-08 -2.79923e-08 0.0258867

0.0313704 0.0034132 3.97504e-08
0.0034132 0.0268988 -1.48052e-07
3.97504e-08 -1.48052e-07 0.0269654

0.0365354 -0.00194402 3.20032e-08
-0.00194402 0.0306245 -3.0233e-08
3.20032e-08 -3.0233e-08 0.033635

0.0255331 -0.00216306 -6.55055e-08
-0.00216306 0.0318009 -1.94544e-08
-6.55055e-08 -1.94544e-08 0.0258531

0.0346989 -0.0023141 1.59277e-09
-0.0023141 0.0283335 5.8556e-08
1.59277e-09 5.8556e-08 0.0314552

0.0341849 0.00222285 -1.74644e-07
0.00222285 0.0274311 7.47575e-08
-1.74644e-07 7.47575e-08 0.030603

0.0336443 -0.00124568 -4.04882e-08
-0.00124568 0.0392993 -9.78216e-08
-4.04882e-08 -9.78216e-08 0.0349267

0.0320711 -0.0017467 7.37573e-09
-0.0017467 0.0253298 -1.16544e-07
7.37573e-09 -1.16544e-07 0.0258704

0.0250011 7.9751e-05 -2.86774e-08
7.9751e-05 0.0331502 -1.43654e-08
-2.86774e-08 -1.43654e-08 0.0268604

0.0332462 0.00242866 -5.90525e-08
0.00242866 0.0271929 -3.47102e-08
-5.90525e-08 -3.47102e-08 0.0289213

0.0311165 0.00359878 4.10161e-09
0.00359878 0.0272919 1.01549e-07
4.10161e-09 1.01549e-07 0.0271218

0.0252947 -0.00204106 -7.89869e-08
-0.00204106 0.0318635 -1.81305e-08
-7.89869e-08 -1.81305e-08 0.0256103

0.0252004 -0.000154614 -1.2457e-09
-0.000154614 0.0332905 -1.80847e-08
-1.2457e-09 -1.80847e-08 0.0271432

0.0354125 0.00385819 -2.42027e-07
0.00385819 0.0329947 -3.95213e-08
-2.42027e-07 -3.95213e-08 0.0338946

0.0275849 -0.0014309 -3.68734e-08
-0.0014309 0.0353409 -9.35068e-08
-3.68734e-08 -9.35068e-08 0.0314412

0.0312333 -0.00348366 9.58325e-08
-0.00348366 0.0269768 1.55392e-07
9.58325e-08 1.55392e-07 0.027009

0.0312957 0.00277257 1.75241e-07
0.00277257 0.0249214 8.46422e-08
1.75241e-07 8.46422e-08 0.0252454

0.0345819 0.00311848 -1.32615e-07
0.00311848 0.0293858 1.52929e-07
-1.32615e-07 1.52929e-07 0.0317949

0.0279904 0.000716793 2.61341e-08
0.000716793 0.036038 4.00529e-08
2.61341e-08 4.00529e-08 0.0318173

0.0287156 0.00378116 -9.97958e-08
0.00378116 0.0285582 5.31362e-08
-9.97958e-08 5.31362e-08 0.0257271

0.0367895 0.00305761 1.66189e-07
0.00305761 0.0361247 -1.11062e-07
1.66189e-07 -1.11062e-07 0.0349063

0.0226795 -0.00754513 1.94342e-07
-0.00754513 0.0186872 2.92525e-07
1.94342e-07 2.92525e-07 0.0108448

0.03329 -0.00328739 1.18567e-07
-0.00328739 0.0286315 -1.37639e-07
1.18567e-07 -1.37639e-07 0.0301231

0.0207262 0.000913309 -9.00177e-08
0.000913309 0.0300303 -8.24287e-08
-9.00177e-08 -8.24287e-08 0.0183458

0.0312992 -0.00378159 4.76738e-08
-0.00378159 0.0292301 1.50752e-07
4.76738e-08 1.50752e-07 0.0290307

0.00153954 -0.00651865 5.9577e-09
-0.00651865 0.0275677 -2.61024e-08
5.9577e-09 -2.61024e-08 0.00290824

0.00146992 0.00636819 2.98485e-08
0.00636819 0.0275856 1.30775e-07
2.98485e-08 1.30775e-07 0.00300119

0.0119843 0.0145047 -1.21178e-07
0.0145047 0.0175321 -1.51953e-07
-1.21178e-07 -1.51953e-07 0.00277111

0.0121657 -0.0144953 -1.23941e-07
-0.0144953 0.0172235 1.55417e-07
-1.23941e-07 1.55417e-07 0.00280372

0.02934 -0.000164085 -1.64219e-07
-0.000164085 0 0
-1.64219e-07 0 0.00295254

0.0235917 -0.0112824 -1.7704e-07
-0.0112824 0.00539536 8.52578e-08
-1.7704e-07 8.52578e-08 0.00297827

0.0236337 0.0113486 2.37007e-08
0.0113486 0.00544942 1.14136e-08
2.37007e-08 1.14136e-08 0.0030394

0.0369102 0.00191121 1.047e-07
0.00191121 0.0302415 1.08434e-08
1.047e-07 1.08434e-08 0.033877

0.0387046 0.00341018 2.52297e-08
0.00341018 0.036617 -8.25284e-08
2.52297e-08 -8.25284e-08 0.0355778

0.0344143 0.000872302 -3.5336e-07
0.000872302 0.0274562 -2.53477e-09
-3.5336e-07 -2.53477e-09 0.0316871

0.0328721 0.00285012 4.17122e-09
0.00285012 0.0268887 -1.48603e-07
4.17122e-09 -1.48603e-07 0.0286456

0.0257 0.00231305 6.06019e-08
0.00231305 0.0323661 9.71292e-08
6.06019e-08 9.71292e-08 0.0276349

0.030712 0.00376881 -3.03748e-12
0.00376881 0.0276754 1.07628e-07
-3.03748e-12 1.07628e-07 0.027117

0.0333051 -0.00390321 -8.96969e-08
-0.00390321 0.0304651 -2.68336e-08
-8.96969e-08 -2.68336e-08 0.0316293

0.0309725 0.00365427 -7.35987e-09
0.00365427 0.0272862 -6.49588e-08
-7.35987e-09 -6.49588e-08 0.0269246

0.0249865 -0.000371352 5.26467e-08
-0.000371352 0.0331213 -1.17569e-08
5.26467e-08 -1.17569e-08 0.0268426

0.0385475 -0.00348458 1.21285e-07
-0.00348458 0.0368801 -2.3195e-08
1.21285e-07 -2.3195e-08 0.0355835

0.025175 -0.000635585 1.23802e-09
-0.000635585 0.0332091 -1.78733e-08
1.23802e-09 -1.78733e-08 0.0271021

0.0360177 0.00304729 -2.19394e-07
0.00304729 0.0330104 -1.0009e-07
-2.19394e-07 -1.0009e-07 0.0340974

0.0296223 0.00347574 5.16677e-08
0.00347574 0.0248458 9.15734e-08
5.16677e-08 9.15734e-08 0.0230223

0.0304955 -0.00171376 1.52832e-07
-0.00171376 0.0375117 -7.7622e-08
1.52832e-07 -7.7622e-08 0.034736

0.0339198 0.00180448 1.24829e-07
0.00180448 0.0271811 -3.30241e-08
1.24829e-07 -3.30241e-08 0.0303199

0.0312007 -0.0039201 8.1464e-08
-0.0039201 0.0285304 1.79941e-07
8.1464e-08 1.79941e-07 0.0286139

0.0315832 -0.00322131 2.86772e-08
-0.00322131 0.0266911 2.6185e-08
2.86772e-08 2.6185e-08 0.0270472

0.0384794 -0.00214162 7.24105e-09
-0.00214162 0.0334168 1.28893e-07
7.24105e-09 1.28893e-07 0.0347445

0.0326804 0.00366417 1.27977e-07
0.00366417 0.0292316 -9.08688e-08
1.27977e-07 -9.08688e-08 0.0301544

0.0326438 0.00313746 2.27517e-07
0.00313746 0.0272519 1.10784e-07
2.27517e-07 1.10784e-07 0.0287875

0.0269547 -0.000365026 -1.44798e-07
-0.000365026 0.0349868 -3.40247e-08
-1.44798e-07 -3.40247e-08 0.0301675

0.0258992 0.000765952 -6.50837e-08
0.000765952 0.0340033 -1.562e-07
-6.50837e-08 -1.562e-07 0.0288226

0.0327776 0.000345376 -1.88824e-08
0.000345376 0.0248613 9.29861e-08
-1.88824e-08 9.29861e-08 0.0274433

0.0313865 -0.000944849 -8.3891e-08
-0.000944849 0.0230035 2.08932e-07
-8.3891e-08 2.08932e-07 0.0238917

0.0308801 0.00398521 -3.38517e-09
0.00398521 0.0288056 -5.77727e-08
-3.38517e-09 -5.77727e-08 0.0286237

0.0331172 -0.00343129 -7.58975e-09
-0.00343129 0.0285399 1.79284e-07
-7.58975e-09 1.79284e-07 0.0299689

0.0364123 -0.00282395 1.65729e-07
-0.00282395 0.0327326 -1.63104e-08
1.65729e-07 -1.63104e-08 0.0341437

0.0292057 -0.00412763 1.13364e-07
-0.00412763 0.0291917 1.55201e-07
1.13364e-07 1.55201e-07 0.0277534

0.0269716 -0.00362044 -1.91604e-07
-0.00362044 0.0304642 1.76584e-10
-1.91604e-07 1.76584e-10 0.027213

0.0283258 0.00389933 -2.66393e-08
0.00389933 0.0299003 9.53766e-08
-2.66393e-08 9.53766e-08 0.0277515

0.0259009 -0.00124887 -9.93936e-08
-0.00124887 0.0336133 2.28354e-07
-9.93936e-08 2.28354e-07 0.0285155

0.0266541 -0.000202029 -1.90826e-07
-0.000202029 0.0349125 6.0255e-08
-1.90826e-07 6.0255e-08 0.0299194

0.027762 0.000753005 -1.10369e-07
0.000753005 0.0360375 4.10801e-08
-1.10369e-07 4.10801e-08 0.0316578

0.0262468 -0.00274936 2.93317e-08
-0.00274936 0.0319625 -1.61075e-07
2.93317e-08 -1.61075e-07 0.0277102

0.0345823 0.00317595 8.59546e-10
0.00317595 0.029168 -9.84426e-08
8.59546e-10 -9.84426e-08 0.0316339

0.0339087 -0.00126093 5.8336e-08
-0.00126093 0.0269298 -1.74182e-08
5.8336e-08 -1.74182e-08 0.0302013

0.02579 0.000974243 8.81715e-08
0.000974243 0.0338287 1.94427e-07
8.81715e-08 1.94427e-07 0.0285415

0.0278236 -0.00126997 -8.61058e-08
-0.00126997 0.0353967 -1.03549e-07
-8.61058e-08 -1.03549e-07 0.0313656

0.0272926 -0.00213713 6.16584e-09
-0.00213713 0.0336563 -1.25259e-09
6.16584e-09 -1.25259e-09 0.0302253

0.0327766 -0.00107719 1.53843e-07
-0.00107719 0.0253196 -2.34482e-07
1.53843e-07 -2.34482e-07 0.0272539

0.0333149 -0.0042712 1.80225e-07
-0.0042712 0.0323798 -1.26678e-07
1.80225e-07 -1.26678e-07 0.0335288

0.0264882 0.00121974 1.81143e-09
0.00121974 0.0338347 1.93391e-07
1.81143e-09 1.93391e-07 0.0288156

0.0398103 -0.00243164 -2.58182e-07
-0.00243164 0.0352181 -6.38365e-08
-2.58182e-07 -6.38365e-08 0.0354607

0.0188885 0.00316452 -3.65296e-08
0.00316452 0.0278756 -1.78111e-07
-3.65296e-08 -1.78111e-07 0.0162725

0.0338155 -0.00352273 2.6027e-07
-0.00352273 0.0334942 7.53879e-10
2.6027e-07 7.53879e-10 0.0337257

0.0353434 -0.00399962 2.39304e-08
-0.00399962 0.0330463 1.30626e-07
2.39304e-08 1.30626e-07 0.0339036

0.0266855 -9.06828e-05 1.65535e-07
-9.06828e-05 0.0349176 6.8429e-08
1.65535e-07 6.8429e-08 0.0299276

0.0332421 -0.00217626 -1.47455e-07
-0.00217626 0.0271527 -1.80316e-07
-1.47455e-07 -1.80316e-07 0.0289022

0.0293471 0.00168495 -1.89818e-08
0.00168495 0.035819 -2.90915e-08
-1.89818e-08 -2.90915e-08 0.0328793

0.0132073 -0.000379126 1.45038e-07
-0.000379126 0.0283619 1.12887e-07
1.45038e-07 1.12887e-07 0.0111516

0.0271132 0.00186859 -9.93597e-08
0.00186859 0.0340613 3.04022e-09
-9.93597e-08 3.04022e-09 0.0303058

0.0311087 -0.0038583 -1.08484e-07
-0.0038583 0.0291535 -2.03022e-07
-1.08484e-07 -2.03022e-07 0.028806

0.0186195 0.00320452 4.09656e-08
0.00320452 0.0301391 3.5703e-08
4.09656e-08 3.5703e-08 0.0131266

0.0426002 0.00351784 1.59173e-07
0.00351784 0.0418486 2.45699e-07
1.59173e-07 2.45699e-07 0.03648

0.043206 -0.003749 5.85387e-08
-0.003749 0.0414175 -9.66037e-08
5.85387e-08 -9.66037e-08 0.0364625

0.0310645 -0.00399078 1.64556e-07
-0.00399078 0.0304706 -3.29631e-08
1.64556e-07 -3.29631e-08 0.0304605

0.0289215 -0.00406404 1.5806e-07
-0.00406404 0.0291499 -2.00353e-07
1.5806e-07 -2.00353e-07 0.0275939

0.0330502 0.0027266 2.28176e-07
0.0027266 0.0275279 1.0986e-07
2.28176e-07 1.0986e-07 0.0290749

0.032779 0.00195996 6.6486e-08
0.00195996 0.0255907 -1.97933e-07
6.6486e-08 -1.97933e-07 0.0278222

0.0463995 0.00041896 -6.07094e-07
0.00041896 0.046356 3.76886e-07
-6.07094e-07 3.76886e-07 0.0366942

0.0469183 -0.000952155 -3.58997e-07
-0.000952155 0.0457693 8.64748e-08
-3.58997e-07 8.64748e-08 0.0367653

0.0347989 0.000638323 -7.64619e-08
0.000638323 0.0275724 -2.43348e-07
-7.64619e-08 -2.43348e-07 0.0322159

0.0277512 0.000882469 -8.9601e-08
0.000882469 0.0355701 -1.37207e-08
-8.9601e-08 -1.37207e-08 0.0313481

0.0276071 0.000882673 1.20749e-07
0.000882673 0.0355702 -7.71061e-09
1.20749e-07 -7.71061e-09 0.0312442

0.0234587 0.00739962 -3.08071e-07
0.00739962 0.0183016 2.72869e-08
-3.08071e-07 2.72869e-08 0.0109013

0.0272466 -0.00367547 -1.86407e-08
-0.00367547 0.0303465 -2.2666e-08
-1.86407e-08 -2.2666e-08 0.0273188

0.0365662 0.00239154 7.34633e-08
0.00239154 0.0295755 5.07999e-08
7.34633e-08 5.07999e-08 0.0337838

0.0332731 0.00124749 -5.26177e-08
0.00124749 0.0265035 3.11561e-08
-5.26177e-08 3.11561e-08 0.0284312

0.0291517 -0.00349253 2.89796e-07
-0.00349253 0.0304704 4.02516e-08
2.89796e-07 4.02516e-08 0.0281727

0.0328099 -0.00264764 -1.455e-08
-0.00264764 0.0267274 2.48077e-08
-1.455e-08 2.48077e-08 0.0285861

0.0224597 0.00761267 1.00995e-07
0.00761267 0.0185901 -3.32287e-07
1.00995e-07 -3.32287e-07 0.0109038

0.0331442 0.00410242 8.92858e-08
0.00410242 0.0326374 -1.9139e-07
8.92858e-08 -1.9139e-07 0.033181

0.0258895 -0.00257824 -1.81394e-07
-0.00257824 0.0320236 1.49787e-07
-1.81394e-07 1.49787e-07 0.0275068

0.0324819 0.00378577 -3.60131e-09
0.00378577 0.0292673 8.77408e-08
-3.60131e-09 8.77408e-08 0.0301462

0.0268153 -0.000543684 1.51471e-07
-0.000543684 0.0349517 -3.74047e-09
1.51471e-07 -3.74047e-09 0.0301372

0.0269891 0.00256325 -2.13823e-07
0.00256325 0.0324475 -9.28634e-08
-2.13823e-07 -9.28634e-08 0.0282858

0.0305256 0.00399091 -1.0346e-08
0.00399091 0.0293223 8.69994e-08
-1.0346e-08 8.69994e-08 0.0287744

0.0276081 -0.00293713 -9.49293e-08
-0.00293713 0.031853 -1.83204e-07
-9.49293e-08 -1.83204e-07 0.0282483

0.0294553 -0.00357567 1.05978e-08
-0.00357567 0.0303502 -2.08009e-08
1.05978e-08 -2.08009e-08 0.0283043

0.0181373 0.00142539 -4.74628e-08
0.00142539 0.0280357 -4.36983e-08
-4.74628e-08 -4.36983e-08 0.0131272

0.0234733 -0.00429388 1.87705e-08
-0.00429388 0.0275555 -5.96149e-08
1.87705e-08 -5.96149e-08 0.0177229

0.0262048 -0.00152615 8.86036e-08
-0.00152615 0.0336228 -1.44845e-07
8.86036e-08 -1.44845e-07 0.0287511

0.033023 0.00347483 1.47973e-07
0.00347483 0.0288771 -7.0758e-08
1.47973e-07 -7.0758e-08 0.0300681

0.030321 0.00385735 -1.83412e-08
0.00385735 0.0298856 9.60507e-08
-1.83412e-08 9.60507e-08 0.0289895

0.0274138 -0.0028004 -1.10984e-07
-0.0028004 0.0319833 1.54997e-07
-1.10984e-07 1.54997e-07 0.0281384

0.0265538 -0.00154084 -1.40731e-07
-0.00154084 0.0335817 2.2629e-07
-1.40731e-07 2.2629e-07 0.0287455

0.0309557 0.00371818 -1.28905e-07
0.00371818 0.0295627 1.88666e-07
-1.28905e-07 1.88666e-07 0.0289404

0.0267586 -0.00181598 3.10353e-08
-0.00181598 0.0334733 -1.572e-07
3.10353e-08 -1.572e-07 0.0289535

0.0191656 0.00355439 -1.28026e-07
0.00355439 0.027607 -1.84105e-07
-1.28026e-07 -1.84105e-07 0.0162918

0.0308728 -0.000535001 -1.63353e-08
-0.000535001 0.0388186 8.77585e-08
-1.63353e-08 8.77585e-08 0.0342936

0.0286557 0.00404771 -1.98397e-08
0.00404771 0.0295178 1.76273e-07
-1.98397e-08 1.76273e-07 0.0277138

0.0355797 0.00197512 1.95191e-07
0.00197512 0.0295023 1.35985e-07
1.95191e-07 1.35985e-07 0.0328418

0.0362583 -0.00211477 1.01064e-07
-0.00211477 0.0297546 1.92668e-07
1.01064e-07 1.92668e-07 0.0332171

0.0285099 -0.00309566 2.12532e-08
-0.00309566 0.0185685 -2.14828e-07
2.12532e-08 -2.14828e-07 0.0157295

0.0283524 -0.00279011 -1.89462e-07
-0.00279011 0.0327745 -3.70975e-08
-1.89462e-07 -3.70975e-08 0.0305708

0.0291902 0.00350089 -1.55044e-07
0.00350089 0.031599 -1.69933e-07
-1.55044e-07 -1.69933e-07 0.0304866

0.0349591 -0.00290749 -8.74771e-08
-0.00290749 0.0376745 -2.51218e-07
-8.74771e-08 -2.51218e-07 0.0352353

0.0394598 0.00188522 -1.04692e-07
0.00188522 0.0446079 -2.34998e-07
-1.04692e-07 -2.34998e-07 0.0364322

0.0449431 0.00129037 -1.08339e-07
0.00129037 0.0391156 4.7686e-08
-1.08339e-07 4.7686e-08 0.0364141

0.0355597 0.00434526 -2.21092e-08
0.00434526 0.035134 4.30424e-08
-2.21092e-08 4.30424e-08 0.0350026

0.0265709 0.00338766 -1.33719e-07
0.00338766 0.0310052 -3.03164e-07
-1.33719e-07 -3.03164e-07 0.027255

0.0330386 0.00349708 1.06475e-07
0.00349708 0.0286663 3.35695e-08
1.06475e-07 3.35695e-08 0.0300493

0.0220593 0.00576408 -1.14667e-07
0.00576408 0.024237 6.01804e-08
-1.14667e-07 6.01804e-08 0.0160719

0.0386177 -0.00151229 -6.87764e-08
-0.00151229 0.0444325 -2.00629e-08
-6.87764e-08 -2.00629e-08 0.0363614

0.046048 -0.00046349 4.04178e-07
-0.00046349 0.0454374 -4.3401e-07
4.04178e-07 -4.3401e-07 0.0366903

0.0451791 -3.19451e-05 -4.53379e-08
-3.19451e-05 0.046301 -3.66744e-07
-4.53379e-08 -3.66744e-07 0.0366723

0.0176405 -0.00679462 -7.8333e-08
-0.00679462 0.0231076 -2.51683e-07
-7.8333e-08 -2.51683e-07 0.0107382

0.039292 -0.00155625 -1.01924e-07
-0.00155625 0.038714 -1.77525e-07
-1.01924e-07 -1.77525e-07 0.0358528

0.0383962 0.00117666 1.90335e-07
0.00117666 0.0415173 -4.93322e-08
1.90335e-07 -4.93322e-08 0.0361242

0.0331738 -0.00343556 -5.19e-08
-0.00343556 0.0282187 7.70091e-08
-5.19e-08 7.70091e-08 0.0299027

0.0318439 0.000140646 -2.2349e-07
0.000140646 0.0386712 1.08824e-07
-2.2349e-07 1.08824e-07 0.0344496

0.0285761 -0.00266007 2.04626e-08
-0.00266007 0.0333794 6.54105e-10
2.04626e-08 6.54105e-10 0.0315885

0.0356609 0.00083159 1.81752e-07
0.00083159 0.0273768 -4.9645e-08
1.81752e-07 -4.9645e-08 0.0329993

0.028875 0.00204417 2.20793e-08
0.00204417 0.0368157 -1.88963e-07
2.20793e-08 -1.88963e-07 0.0336689

0.0298687 0.000946274 9.99425e-08
0.000946274 0.0373873 -1.84588e-07
9.99425e-08 -1.84588e-07 0.0333627

0.0344006 0.00268496 5.26473e-08
0.00268496 0.0288509 4.04709e-08
5.26473e-08 4.04709e-08 0.0312255

0.0132789 -0.000409385 -5.0896e-08
-0.000409385 0.0281223 -4.71574e-10
-5.0896e-08 -4.71574e-10 0.0112011

0.0309641 -0.0036259 -2.00759e-07
-0.0036259 0.0309146 1.47267e-07
-2.00759e-07 1.47267e-07 0.0306088

0.0329276 -0.00344305 -1.02683e-07
-0.00344305 0.0320197 1.94311e-08
-1.02683e-07 1.94311e-08 0.0325785

0.0335703 -0.00415935 3.62156e-08
-0.00415935 0.0325341 1.19291e-07
3.62156e-08 1.19291e-07 0.0337349

0.0265613 0.00414849 1.6679e-07
0.00414849 0.0176911 4.39307e-08
1.6679e-07 4.39307e-08 0.0126049

0.0388275 -0.00269691 -2.10052e-07
-0.00269691 0.039576 -1.5328e-07
-2.10052e-07 -1.5328e-07 0.0359577

0.0230823 0.00692052 -2.59473e-07
0.00692052 0.0255014 -1.33862e-07
-2.59473e-07 -1.33862e-07 0.0126092

0.0308739 -0.0028174 1.29762e-08
-0.0028174 0.0348067 -2.22903e-07
1.29762e-08 -2.22903e-07 0.0339555

0.0354107 0.00193629 -2.7559e-07
0.00193629 0.028465 1.08615e-07
-2.7559e-07 1.08615e-07 0.0323438

0.0318202 -0.00189338 1.81119e-07
-0.00189338 0.0249501 -2.26668e-07
1.81119e-07 -2.26668e-07 0.0253948

0.0292915 0.00315917 -1.79597e-07
0.00315917 0.032731 -9.85459e-08
-1.79597e-07 -9.85459e-08 0.0312789

0.034436 0.00268863 9.8723e-08
0.00268863 0.0286338 -6.88921e-08
9.8723e-08 -6.88921e-08 0.0312201

0.0325181 0.00149887 -1.11358e-08
0.00149887 0.0403731 3.22392e-07
-1.11358e-08 3.22392e-07 0.0353358

0.0319395 -0.00415434 -3.99558e-08
-0.00415434 0.0312007 6.24906e-08
-3.99558e-08 6.24906e-08 0.0318099

0.0396763 0.00265534 -2.99492e-09
0.00265534 0.0331976 6.40297e-08
-2.99492e-09 6.40297e-08 0.0353152

0.0279709 -0.00241841 2.01489e-08
-0.00241841 0.0335501 9.64156e-10
2.01489e-08 9.64156e-10 0.0304699

0.0293503 0.000558728 1.03275e-07
0.000558728 0.0373111 -1.84215e-07
1.03275e-07 -1.84215e-07 0.0332519

0.041943 0.00133767 -7.07776e-08
0.00133767 0.0370997 -7.0131e-08
-7.07776e-08 -7.0131e-08 0.0361155

0.0420973 -0.0011479 -2.1062e-09
-0.0011479 0.0373255 -3.59767e-08
-2.1062e-09 -3.59767e-08 0.0360975

0.0283825 0.0023689 -1.31413e-07
0.0023689 0.0181813 8.86115e-08
-1.31413e-07 8.86115e-08 0.0159494

0.0350249 0.00106114 1.04695e-07
0.00106114 0.0285654 8.71353e-08
1.04695e-07 8.71353e-08 0.0330582

0.0128668 0.000923326 -4.14534e-08
0.000923326 0.031626 -7.01944e-08
-4.14534e-08 -7.01944e-08 0.00612159

0.0131623 -0.00138812 1.42577e-07
-0.00138812 0.0321318 3.09633e-08
1.42577e-07 3.09633e-08 0.00611191

0.0152686 0.00715417 -1.52465e-07
0.00715417 0.0284526 -4.31801e-08
-1.52465e-07 -4.31801e-08 0.00598403

0.0347637 -0.00382123 1.9863e-07
-0.00382123 0.0312673 1.16233e-07
1.9863e-07 1.16233e-07 0.0329384

0.0155805 -0.0061942 -1.00979e-07
-0.0061942 0.0261525 6.52323e-08
-1.00979e-07 6.52323e-08 0.0104718

0.0155127 -0.0070867 -1.95487e-07
-0.0070867 0.0274232 -9.84776e-08
-1.95487e-07 -9.84776e-08 0.00591383

0.0284256 0.00342541 2.65301e-07
0.00342541 0.0310055 -3.019e-07
2.65301e-07 -3.019e-07 0.0281521

0.025193 0.00932577 2.0513e-07
0.00932577 0.0190206 -2.14337e-07
2.0513e-07 -2.14337e-07 0.00593373

0.0365375 0.00173189 -3.14271e-07
0.00173189 0.0385514 1.00031e-07
-3.14271e-07 1.00031e-07 0.0354745

0.039534 2.52127e-05 -2.09442e-07
2.52127e-05 0.0355393 1.54858e-07
-2.09442e-07 1.54858e-07 0.0354552

0.0261068 -0.00924433 2.52403e-07
-0.00924433 0.0188123 2.34854e-07
2.52403e-07 2.34854e-07 0.0058879

0.0276894 -0.00306493 2.02211e-09
-0.00306493 0.0320944 -3.4788e-08
2.02211e-09 -3.4788e-08 0.0296223

0.0262545 0.00441803 2.23517e-07
0.00441803 0.0201576 -1.74034e-07
2.23517e-07 -1.74034e-07 0.0130444

0.017279 0.007973 1.72642e-07
0.007973 0.0271486 1.73447e-07
1.72642e-07 1.73447e-07 0.00598771

0.0181959 0.00275511 -4.27046e-08
0.00275511 0.0275893 -4.44802e-08
-4.27046e-08 -4.44802e-08 0.0128498

0.0173039 -0.00827616 -6.88069e-08
-0.00827616 0.027152 -3.11055e-09
-6.88069e-08 -3.11055e-09 0.00581366

0.0179326 -0.00157082 1.7459e-07
-0.00157082 0.0280049 -1.23487e-07
1.7459e-07 -1.23487e-07 0.0126903

0.0370498 0.000923377 -7.57889e-08
0.000923377 0.0412996 -4.56407e-09
-7.57889e-08 -4.56407e-09 0.0358094

0.0221309 -0.005855 -1.07839e-08
-0.005855 0.0236642 1.45467e-07
-1.07839e-08 1.45467e-07 0.0151586

0.0156999 0.00598608 1.26791e-08
0.00598608 0.0259019 -1.71248e-07
1.26791e-08 -1.71248e-07 0.01075

0.0302082 0.00473002 -9.71204e-09
0.00473002 0.0143491 2.68507e-07
-9.71204e-09 2.68507e-07 0.00611573

0.0329374 -0.00384946 1.08333e-07
-0.00384946 0.0301236 -2.07344e-08
1.08333e-07 -2.07344e-08 0.0310506

0.0308881 0.00169406 9.85391e-08
0.00169406 0.0368422 -1.92311e-07
9.85391e-08 -1.92311e-07 0.0339496

0.0260895 -0.00484385 2.99074e-07
-0.00484385 0.0191969 -1.4817e-07
2.99074e-07 -1.4817e-07 0.0126948

0.0329997 -0.00378587 1.09374e-07
-0.00378587 0.0300747 -1.82837e-08
1.09374e-07 -1.82837e-08 0.031127

0.0300184 -0.00451981 4.66246e-08
-0.00451981 0.0130534 -3.66063e-07
4.66246e-08 -3.66063e-07 0.00603718

0.0324723 -0.00372745 1.84784e-08
-0.00372745 0.0313068 1.48228e-07
1.84784e-08 1.48228e-07 0.0319788

0.0280903 -0.00331094 -1.94529e-07
-0.00331094 0.0320029 -5.27159e-08
-1.94529e-07 -5.27159e-08 0.0296247

0.0234433 0.00874344 3.34524e-08
0.00874344 0.0204827 3.01847e-07
3.34524e-08 3.01847e-07 0.00602603

0.0181994 -0.00292064 -2.52978e-07
-0.00292064 0.0268659 -2.96858e-07
-2.52978e-07 -2.96858e-07 0.0122697

0.0233143 -0.00901911 -1.67916e-07
-0.00901911 0.0201517 -9.85143e-08
-1.67916e-07 -9.85143e-08 0.0058839

0.0170822 0.00640809 -1.3704e-08
0.00640809 0.0235656 1.35291e-07
-1.3704e-08 1.35291e-07 0.0108308

0.0308256 -0.00396017 -2.4578e-07
-0.00396017 0.0301597 1.06493e-08
-2.4578e-07 1.06493e-08 0.0300849

0.0389169 -0.00195857 6.7424e-08
-0.00195857 0.0369404 2.47605e-07
6.7424e-08 2.47605e-07 0.0354989

0.045541 0.00150732 2.55412e-07
0.00150732 0.0449528 1.78372e-07
2.55412e-07 1.78372e-07 0.0366185

0.0435642 -0.00071153 3.02328e-07
-0.00071153 0.0462302 -5.54192e-08
3.02328e-07 -5.54192e-08 0.0365842

0.028615 0.00171604 -3.87179e-08
0.00171604 0.0355653 8.47865e-08
-3.87179e-08 8.47865e-08 0.032389

0.0453362 -0.00144846 -4.85792e-07
-0.00144846 0.0449806 3.5578e-07
-4.85792e-07 3.5578e-07 0.0366362

0.0438079 0.000567078 9.53886e-08
0.000567078 0.0465063 1.8844e-07
9.53886e-08 1.8844e-07 0.0366173

0.0466785 0.000991583 -5.1672e-08
0.000991583 0.0433774 -4.35154e-08
-5.1672e-08 -4.35154e-08 0.0365924

0.0397501 -0.00163913 1.56238e-07
-0.00163913 0.0460735 5.51719e-08
1.56238e-07 5.51719e-08 0.0364822

0.0190537 -0.00388723 -4.19096e-07
-0.00388723 0.0272302 4.20662e-08
-4.19096e-07 4.20662e-08 0.0154708

0.0421415 -0.00175024 3.70801e-07
-0.00175024 0.0367251 1.86525e-07
3.70801e-07 1.86525e-07 0.0360041

0.0359638 -0.00457361 -1.6711e-07
-0.00457361 0.03515 6.36578e-08
-1.6711e-07 6.36578e-08 0.0349674

0.0397526 -0.00242134 2.1451e-07
-0.00242134 0.0360638 1.71541e-07
2.1451e-07 1.71541e-07 0.0355665

0.0351837 0.00204316 -1.20809e-07
0.00204316 0.0285484 -8.29675e-08
-1.20809e-07 -8.29675e-08 0.0322312

0.0396921 0.00133781 1.79467e-07
0.00133781 0.0472248 -5.05366e-07
1.79467e-07 -5.05366e-07 0.036548

0.0464963 0.00259272 -1.08732e-07
0.00259272 0.0404182 -3.08875e-07
-1.08732e-07 -3.08875e-07 0.0365292

0.0400867 0.00150546 -2.03218e-08
0.00150546 0.0366728 4.23546e-08
-2.03218e-08 4.23546e-08 0.0356146

0.027914 -0.00191985 -2.68188e-07
-0.00191985 0.0125245 -3.34235e-07
-2.68188e-07 -3.34235e-07 0.0106243

0.0283186 0.00326761 3.43767e-07
0.00326761 0.0315491 2.34395e-08
3.43767e-07 2.34395e-08 0.02941

0.0231878 -0.00773583 -2.80016e-08
-0.00773583 0.0181795 -2.11454e-07
-2.80016e-08 -2.11454e-07 0.0102892

0.0228305 -0.00731557 5.47068e-08
-0.00731557 0.0257681 8.44494e-08
5.47068e-08 8.44494e-08 0.0119543

0.0290219 -0.00464688 -3.36177e-07
-0.00464688 0.0191279 -1.477e-07
-3.36177e-07 -1.477e-07 0.0126148

0.0375738 -0.000660731 -1.21635e-07
-0.000660731 0.0449127 3.0435e-07
-1.21635e-07 3.0435e-07 0.0362931

0.0375716 0.000358452 -1.60811e-07
0.000358452 0.04479 1.10592e-07
-1.60811e-07 1.10592e-07 0.0362734

0.0426052 -0.00327434 2.54477e-07
-0.00327434 0.0394495 -1.95765e-07
2.54477e-07 -1.95765e-07 0.0362272

0.0429973 -0.00294491 -1.53659e-07
-0.00294491 0.0391685 -1.51317e-07
-1.53659e-07 -1.51317e-07 0.0362342

0.0425015 0.00350428 1.71045e-07
0.00350428 0.0399717 8.09128e-10
1.71045e-07 8.09128e-10 0.036272

0.0443965 0.00041593 -6.99805e-07
0.00041593 0.0450803 -1.22949e-06
-6.99805e-07 -1.22949e-06 0.0366354

0.0426089 -0.00274464 3.96933e-08
-0.00274464 0.0395071 1.05169e-08
3.96933e-08 1.05169e-08 0.0362888

0.0426027 -0.00251126 -9.24307e-08
-0.00251126 0.0442667 6.64406e-07
-9.24307e-08 6.64406e-07 0.036563

0.0451178 0.000332146 6.95261e-08
0.000332146 0.0454679 3.99857e-07
6.95261e-08 3.99857e-07 0.0366537

0.0436363 -0.00278338 -7.3789e-08
-0.00278338 0.0389165 1.00887e-07
-7.3789e-08 1.00887e-07 0.0363294

0.0435121 0.00283879 4.00428e-07
0.00283879 0.039069 -2.88259e-08
4.00428e-07 -2.88259e-08 0.0363675

0.0451938 -0.000471254 5.98246e-07
-0.000471254 0.0455815 -4.10304e-07
5.98246e-07 -4.10304e-07 0.0367023

0.0452258 -0.000424927 -2.17206e-07
-0.000424927 0.0443591 5.01628e-07
-2.17206e-07 5.01628e-07 0.0367207

0.0427981 0.00163844 1.81625e-07
0.00163844 0.0442493 -1.65556e-07
1.81625e-07 -1.65556e-07 0.0366067

0.041116 0.00361828 7.07395e-08
0.00361828 0.0405155 1.66228e-07
7.07395e-08 1.66228e-07 0.0363213

SCALARS pressure float
LOOKUP_TABLE default
-60.0508
19.3082
5.80333
21.2901
15.8788
5.88728
-58.674
7.78307
-3.80494
15.1245
-24.4317
7.61722
5.59203
12.2792
23.3377
5.53891
18.5208
13.2072
-0.69294
6.75648
-0.904904
33.1348
5.8007
5.79677
6.60177
14.9028
-38.3849
6.67162
-15.2423
30.6263
5.17626
-15.6571
-42.056
27.3261
20.7791
27.359
31.8845
19.809
4.85955
-42.5992
-17.4073
31.9054
31.9935
5.9935
-21.8049
-15.9758
-1.05252
-3.40555
6.54472
-16.2177
-18.9187
-15.3458
20.7556
-15.3731
20.3087
-33.1485
21.1296
-15.4602
21.1394
7.04483
21.7647
16.1188
-45.5618
12.7897
16.3621
10.905
21.574
13.828
5.7734
21.817
20.8117
20.7823
-17.6909
11.6005
3.97389
-31.6094
14.3567
10.9962
14.1461
-8.72006
-28.9446
14.9777
20.1631
-22.0378
-23.4293
-28.0918
7.09769
9.63234
-22.2156
37.7415
-15.509
38.4441
18.3045
10.7614
-15.1665
-15.8727
-30.2212
14.7534
14.3657
4.59864
-10.7663
-21.9394
-25.1014
16.2128
14.1001
14.9615
18.6975
3.77466
-24.5582
26.5131
7.21746
-21.4088
-24.6119
14.8378
15.078
-16.1456
20.1649
-29.1131
20.6285
-16.7292
-2.90482
23.8339
21.727
16.0329
26.6797
22.6316
21.7856
15.7084
-29.7808
-16.0989
24.0917
21.6173
20.9893
22.0657
-22.0138
23.5872
-33.8372
5.46331
21.7543
23.6305
-21.9367
6.67637
-5.9668
15.0835
-30.4073
15.6239
7.83312
2.40748
5.17767
-9.39455
-0.45811
22.6415
-15.4545
5.29093
15.2041
21.5605
11.5081
-21.1132
-21.2637
10.7903
-2.84286
-15.1976
-21.2203
-15.1652
-20.9864
15.2796
-20.6358
-21.2015
-15.2078
-21.0637
19.0043
-15.9409
-14.8244
12.0644
-14.4847
18.8028
19.0534
7.47264
18.0479
11.7729
-16.249
15.2881
14.9609
-21.5284
10.4265
-14.2213
16.0486
14.5955
17.0818
14.8351
10.3438
-26.9762
-16.0822
-15.9581
21.9069
14.5257
14.6245
20.9226
22.4869
9.50259
21.7337
-0.384847
-8.17094
20.7787
-17.8387
19.9456
10.3641
-21.5175
15.7211
22.5261
14.7312
9.39338
14.1898
21.0556
-7.833
8.82747
-7.9088
14.6482
26.9277
26.5814
27.9605
26.3886
26.7243
26.291
13.8258
23.4303
24.0295
23.9737
23.4
21.1927
21.8573
-8.26306
15.9334
28.1911
-3.18892
23.5761
23.2053
27.8344
-8.49376
28.0965
15.3445
-7.58183
17.4921
-8.25802
20.2272
29.6128
-7.48621
-8.10098
-29.5918
-18.189
19.5272
-31.9853
5.73411
-7.79417
-1.18977
28.2492
26.6403
30.4267
26.761
-34.8007
-8.17987
28.3374
8.07265
-8.29538
26.4459
-6.29554
30.4716
-7.9543
27.0471
14.5659
14.787
23.8452
10.0474
18.021
8.11684
-29.8598
-24.553
16.8068
1.75936
8.17929
-13.6089
17.4358
11.6997
-8.10173
9.45198
-10.8236
7.51669
-10.7548
-8.48495
33.2647
19.1517
25.0884
25.3126
13.829
-10.4047
26.4299
14.6849
-1.65934
-10.274
-12.5643
17.5066
-7.48547
17.5745
-12.0414
-21.3503
-10.6084
-34.681
15.5624
-7.7632
34.4427
-11.5781
16.8713
-8.40899
15.9727
-12.7584
4.28881
-51.1179
8.52137
-7.74687
21.3338
-8.15238
-0.123246
10.7152
21.1241
-12.0608
-10.2009
-6.0686
14.3179
-10.1802
6.88763
6.38533
16.3054
-10.4197
-6.33071
-1.70271
-5.6608
-11.0786
-5.84502
15.3054
7.80765
-5.5564
-8.96069
7.80508
7.69393
-10.6748
16.3093
-27.2133
2.29263
-28.4811
-0.957969
-8.87827
-8.09656
-11.7792
-10.9428
-9.88115
-7.77616
-7.89952
16.6377
24.7779
12.1157
-0.292093
-0.825644
-5.67497
7.3048
-6.32106
-6.31835
24.9238
-5.73039
14.1179
-15.9084
24.3253
5.96769
-0.391649
-5.64425
16.2749
2.47662
0.198567
2.44761
0.455437
-0.741336
-9.93051
-0.0960879
2.11278
15.0689
-1.28877
-1.40765
-0.999312
-0.389069
1.96481
8.05029
-1.19405
8.07773
5.58275
-0.436131
7.03484
5.48979
-3.87693
16.4765
-1.90387
23.0621
-21.9733
15.044
15.6822
2.03917
-1.99795
12.5426
-26.5059
5.79178
-1.6584
-50.4823
30.4986
30.6353
5.82442
-1.14485
-1.04728
-0.850184
33.4193
33.294
13.0945
6.08148
6.66195
-28.962
-1.27992
16.5334
-3.18316
-4.34857
-0.0174375
-25.2706
14.303
-1.28069
2.86131
2.6927
-2.72373
-0.0498182
-3.20996
-4.03401
-37.9819
-33.683
-0.128524
1.87399
-0.534579
-3.74465
-1.93707
-1.87819
-0.924801
-21.9072
17.2495
-0.769821
12.5649
14.1834
-26.7637
6.28581
7.13637
18.4778
36.4284
36.4609
22.6387
-1.7563
2.59915
-20.9294
36.1271
32.7607
32.8276
-24.808
21.7757
30.5239
2.59864
15.7239
10.3709
17.1642
17.726
12.5053
5.68093
-25.3974
4.2596
10.409
16.2439
-31.7093
28.3101
-52.7093
18.6848
10.2986
-10.6276
7.41692
5.45663
24.4746
9.41067
24.4076
4.10469
12.3996
30.6411
29.4668
-22.9898
17.4353
-70.2284
-74.3748
-67.1724
11.6481
-31.2591
-63.6058
-3.80396
-69.9338
16.4632
16.4069
-73.7499
5.21163
-39.7289
-70.7344
-37.7549
-71.8707
-39.4503
21.137
-23.9596
-29.0431
-70.6182
4.83095
15.7574
-36.1888
6.05304
-63.6135
9.83554
3.88116
-67.8969
-37.6224
-66.4064
-23.7547
5.02857
20.5264
35.3726
36.7284
11.8116
36.8522
36.9056
36.4939
36.4059
-24.4784
28.2487
20.6691
21.9809
11.5342
36.0618
36.0932
18.1202
-23.9394
3.24605
-30.5254
-56.5954
-50.4726
36.1449
35.8256
35.3822
35.4524
36.1608
35.6006
33.1113
37.3725
35.4019
36.0077
35.6399
34.1983
34.3349
35.8581
35.311
