# vtk DataFile Version 3.0
vtk output at time 360
ASCII
DATASET UNSTRUCTURED_GRID
POINTS 626 float
-3.68058e-05 0.000978749 0 3.68058e-05 0.000978749 0 -0.000829194 0.00052125 0 
-0.0008235 0.0005 0 -0.000866 0.0004575 0 -0.000866 -0.0004575 0 
-0.0008235 -0.0005 0 -0.000829194 -0.00052125 0 -3.68058e-05 -0.000978749 0 
3.68058e-05 -0.000978749 0 0.000829194 -0.00052125 0 0.000866 -0.0004575 0 
0.000866 0.0004575 0 0.000829194 0.00052125 0 8.5e-05 0 0 
-3.68058e-05 0.000978749 -0.001 3.68058e-05 0.000978749 -0.001 -0.000829194 0.00052125 -0.001 
-0.0008235 0.0005 -0.001 -0.000866 0.0004575 -0.001 -0.000866 -0.0004575 -0.001 
-0.0008235 -0.0005 -0.001 -0.000829194 -0.00052125 -0.001 -3.68058e-05 -0.000978749 -0.001 
3.68058e-05 -0.000978749 -0.001 0.000829194 -0.00052125 -0.001 0.000866 -0.0004575 -0.001 
0.000866 0.0004575 -0.001 0.000829194 0.00052125 -0.001 8.5e-05 0 -0.001 
8.46223e-17 0.0009575 0 -0.000715996 0.000586607 0 -0.000602797 0.000651965 0 
-0.000489599 0.000717321 0 -0.000376401 0.000782678 0 -0.000263202 0.000848036 0 
-0.000150004 0.000913393 0 -0.000835948 0.000469948 0 -0.000866 -0.000326786 0 
-0.000866 -0.000196071 0 -0.000866 -6.53571e-05 0 -0.000866 6.53571e-05 0 
-0.000866 0.000196071 0 -0.000866 0.000326786 0 -0.000835948 -0.000469948 0 
-0.000150004 -0.000913393 0 -0.000263202 -0.000848036 0 -0.000376401 -0.000782678 0 
-0.000489599 -0.000717321 0 -0.000602797 -0.000651965 0 -0.000715996 -0.000586607 0 
8.47648e-17 -0.0009575 0 0.000715996 -0.000586607 0 0.000602797 -0.000651965 0 
0.000489599 -0.000717321 0 0.000376401 -0.000782678 0 0.000263202 -0.000848036 0 
0.000150004 -0.000913393 0 0.000829194 -0.00047875 0 0.000866 0.000326786 0 
0.000866 0.000196071 0 0.000866 6.53571e-05 0 0.000866 -6.53571e-05 0 
0.000866 -0.000196071 0 0.000866 -0.000326786 0 0.000829194 0.00047875 0 
0.000150004 0.000913393 0 0.000263202 0.000848036 0 0.000376401 0.000782678 0 
0.000489599 0.000717321 0 0.000602797 0.000651965 0 0.000715996 0.000586607 0 
5.29966e-05 6.64557e-05 0 -1.89143e-05 8.28689e-05 0 -7.65824e-05 3.68801e-05 0 
-7.65824e-05 -3.68801e-05 0 -1.89143e-05 -8.28689e-05 0 5.29966e-05 -6.64557e-05 0 
8.46223e-17 0.0009575 -0.001 -0.000715996 0.000586607 -0.001 -0.000602797 0.000651965 -0.001 
-0.000489599 0.000717321 -0.001 -0.000376401 0.000782678 -0.001 -0.000263202 0.000848036 -0.001 
-0.000150004 0.000913393 -0.001 -0.000835948 0.000469948 -0.001 -0.000866 -0.000326786 -0.001 
-0.000866 -0.000196071 -0.001 -0.000866 -6.53571e-05 -0.001 -0.000866 6.53571e-05 -0.001 
-0.000866 0.000196071 -0.001 -0.000866 0.000326786 -0.001 -0.000835948 -0.000469948 -0.001 
-0.000150004 -0.000913393 -0.001 -0.000263202 -0.000848036 -0.001 -0.000376401 -0.000782678 -0.001 
-0.000489599 -0.000717321 -0.001 -0.000602797 -0.000651965 -0.001 -0.000715996 -0.000586607 -0.001 
8.47648e-17 -0.0009575 -0.001 0.000715996 -0.000586607 -0.001 0.000602797 -0.000651965 -0.001 
0.000489599 -0.000717321 -0.001 0.000376401 -0.000782678 -0.001 0.000263202 -0.000848036 -0.001 
0.000150004 -0.000913393 -0.001 0.000829194 -0.00047875 -0.001 0.000866 0.000326786 -0.001 
0.000866 0.000196071 -0.001 0.000866 6.53571e-05 -0.001 0.000866 -6.53571e-05 -0.001 
0.000866 -0.000196071 -0.001 0.000866 -0.000326786 -0.001 0.000829194 0.00047875 -0.001 
0.000150004 0.000913393 -0.001 0.000263202 0.000848036 -0.001 0.000376401 0.000782678 -0.001 
0.000489599 0.000717321 -0.001 0.000602797 0.000651965 -0.001 0.000715996 0.000586607 -0.001 
5.29966e-05 6.64557e-05 -0.001 -1.89143e-05 8.28689e-05 -0.001 -7.65824e-05 3.68801e-05 -0.001 
-7.65824e-05 -3.68801e-05 -0.001 -1.89143e-05 -8.28689e-05 -0.001 5.29966e-05 -6.64557e-05 -0.001 
0.000131234 6.38474e-05 0 0.00012964 -6.2443e-05 0 3.13827e-05 0.0001394 0 
3.12554e-05 -0.000136939 0 -0.000140461 8.25467e-19 0 -8.90565e-05 -0.000102707 0 
-9.04142e-05 0.000102872 0 -0.000765769 -0.00025965 0 -0.000756873 0.000262774 0 
-0.00015609 0.000787505 0 -0.000155807 -0.00079355 0 0.000605069 0.000528035 0 
0.000608694 -0.00052497 0 0.000744069 0.000116929 0 -0.000494418 0.000596218 0 
-0.000483866 -0.000584648 0 0.000269496 0.000702219 0 0.000263201 -0.000717324 0 
0.000754429 -0.000127825 0 -0.000748858 5.84659e-07 0 -0.000747838 0.000373886 0 
-0.0006542 0.000324842 0 -0.000645137 0.000210123 0 -0.000550884 0.000274171 0 
-0.000538857 0.000163195 0 -0.00045062 0.000224461 0 -0.000438393 0.000123907 0 
-0.000354088 0.000181668 0 -0.000363908 0.000282171 0 -0.000270361 0.000239477 0 
-0.000279138 0.000337653 0 -0.000188888 0.000294791 0 -0.000196448 0.000393271 0 
-0.000104767 0.000348259 0 -0.000113332 0.000449012 0 -2.01066e-05 0.000403223 0 
-2.89189e-05 0.000507105 0 6.9524e-05 0.000461596 0 -0.000213644 0.000490203 0 
7.33757e-05 0.000357726 0 0.000163331 0.00041299 0 0.000163359 0.000313022 0 
0.000248077 0.000366368 0 0.000250914 0.000265758 0 0.000335709 0.000322266 0 
0.000340555 0.000218148 0 0.000427299 0.000276717 0 0.000431508 0.000173093 0 
0.000328731 0.000425633 0 0.00034586 0.000114823 0 0.000435362 7.05241e-05 0 
0.000350892 1.5455e-05 0 0.000441547 -3.11896e-05 0 0.000353547 -8.47783e-05 0 
0.000445767 -0.000132964 0 0.000356135 -0.000186358 0 0.000449094 -0.000234674 0 
0.000359978 -0.000287876 0 0.00026856 -0.000240545 0 0.000271895 -0.000341045 0 
0.000181792 -0.00029305 0 0.00018533 -0.000392851 0 9.75701e-05 -0.00034483 0 
9.98764e-05 -0.000444884 0 8.75116e-06 -0.000396343 0 1.20916e-05 -0.000500496 0 
-7.83929e-05 -0.000449843 0 -8.1471e-05 -0.000347249 0 -0.000171566 -0.000403733 0 
-0.000169889 -0.000298891 0 -0.000259867 -0.000354132 0 -0.000257696 -0.000249137 0 
-0.00034313 -0.000299896 0 -0.000344514 -0.000199127 0 -0.000434309 -0.000250039 0 
-0.000169832 -0.000505815 0 -0.000435227 -0.000146227 0 0.000280331 -0.000442424 0 
-0.000340889 8.76793e-05 0 -0.000515252 4.06198e-05 0 6.50491e-05 0.000568253 0 
0.00053278 1.74743e-05 0 0.000522071 0.000229831 0 -0.00037162 0.000391659 0 
-0.000255272 -0.000150439 0 -0.000442893 -0.000350705 0 0.000450067 -0.000332559 0 
0.000545175 -0.000276306 0 -0.000527797 -0.000197598 0 0.000105306 -0.000551033 0 
1.45836e-05 -0.000609147 0 0.00017145 0.000214453 0 0.000515525 0.000341711 0 
0.000636086 0.000290368 0 -0.000558657 0.000404468 0 -4.01232e-05 0.000616718 0 
6.60192e-05 0.000696422 0 -0.000101806 0.0002546 0 0.000271142 -3.88908e-05 0 
0.000179455 -0.00018534 0 -8.79553e-05 -0.000254307 0 -0.000749267 -0.000373451 0 
-0.000655941 -0.000323397 0 0.000709746 0.000466718 0 0.000698426 -0.000473086 0 
-5.25801e-05 -0.00084886 0 -4.93005e-05 0.000848038 0 0.000617396 -0.000413362 0 
0.000702056 -0.000369817 0 0.000131459 -0.000679171 0 2.48171e-05 -0.000715924 0 
-0.000664217 -0.00042729 0 -0.000528828 -8.80444e-05 0 -0.000611101 -0.000136672 0 
-0.000426972 -4.45841e-05 0 0.000800669 0.000378216 0 0.000821144 -0.000415062 0 
7.2799e-05 0.00088254 0 6.81831e-05 -0.00087503 0 0.000104963 -0.000788946 0 
-7.40696e-05 -0.000660054 0 0.000126061 0.000809943 0 0.000764361 0.000295682 0 
0.000166862 0.000630623 0 0.000516462 -0.00046707 0 -0.000563585 -0.000389606 0 
-0.000622598 -1.40238e-05 0 0.000629891 0.000171529 0 2.5614e-06 -0.000299794 0 
8.6901e-05 -0.00024329 0 0.000272045 -0.000136982 0 -0.00075148 0.000138321 0 
0.000209366 -0.000599589 0 0.000324913 -0.000630055 0 0.000614044 0.00041245 0 
0.00049651 -0.000573327 0 0.000394822 -0.000507321 0 -0.000173714 -0.000206698 0 
0.000264897 5.63722e-05 0 0.000247997 0.000152811 0 -4.63327e-05 -0.000920208 0 
9.18688e-05 0.000258626 0 -5.54111e-06 0.000290558 0 -0.000184219 0.000201484 0 
-0.000263559 0.000142267 0 -0.000256427 5.13624e-05 0 -0.000336894 -2.06179e-06 0 
-0.000228499 -4.2388e-05 0 -0.00017589 0.000106626 0 -0.000769947 -0.000133367 0 
0.000767591 -0.000500293 0 -5.05874e-05 0.000737978 0 0.000754456 -3.51771e-06 0 
0.00064691 -6.15298e-05 0 0.000630483 -0.00018134 0 0.000749187 -0.000265543 0 
-0.000760805 -0.000462521 0 0.000638155 6.09315e-05 0 -4.46661e-05 0.000922995 0 
-2.37945e-05 0.000207237 0 0.000776979 0.000500181 0 -0.000605691 0.000527596 0 
-0.000377914 -0.000653727 0 -0.000372325 -0.000526022 0 -0.000275829 -0.000589621 0 
-0.000254285 -0.000710579 0 -0.000379307 0.000656222 0 -0.000379818 0.00052718 0 
-0.000266817 0.000721555 0 -0.000150544 0.000668174 0 0.000381963 0.00065079 0 
0.000493113 0.000590432 0 0.000505439 0.000463708 0 -0.000269094 0.000596608 0 
0.000385815 0.000532045 0 0.000283599 0.0005899 0 -0.000176405 -0.000108505 0 
-0.000278769 -0.000475415 0 0.000185395 2.33014e-06 0 0.000186773 0.000517571 0 
0.000540032 -8.68444e-05 0 -0.000600694 -0.000514877 0 -0.00063703 8.98033e-05 0 
-0.000459677 0.000335729 0 -0.000338836 -0.000100751 0 -0.000457327 0.000432721 0 
-8.72007e-06 -0.000210238 0 0.000156073 0.000129496 0 -7.70692e-05 -0.000555049 0 
0.00036091 -0.000389728 0 0.000531628 0.000120564 0 -0.000285451 0.000435562 0 
0.000192719 -0.000494604 0 0.00041642 0.00039368 0 -0.000135943 0.000554637 0 
-0.000170665 -0.000610079 0 -0.000666304 0.000434981 0 -0.000758736 0.000479231 0 
-0.000470189 -0.000458901 0 0.000203433 -8.59809e-05 0 0.000101846 0.000170114 0 
-0.00035513 -0.00040726 0 0.000100184 -0.000165831 0 2.96286e-05 0.00081537 0 
0.000720946 0.000381836 0 -0.000539809 -0.000292001 0 0.00052211 -0.000182426 0 
-6.41339e-05 -0.000753908 0 0.000638039 -0.000299861 0 -0.000605136 -0.000230182 0 
-3.41638e-05 -0.000145561 0 -0.000104037 0.000172396 0 -0.000808575 -0.00042774 0 
-0.000807207 -0.000465052 0 -0.00080817 0.000429771 0 -0.000806589 0.000469738 0 
-9.50634e-05 -0.000178909 0 0.000247777 0.000445058 0 1.48293e-05 -0.000814201 0 
-4.11555e-05 0.000140955 0 0.000276104 -0.000536845 0 0.000765969 -0.000436638 0 
0.000780871 -0.000362769 0 0.000424176 -0.000642018 0 0.00053413 -0.000368009 0 
-0.000416333 4.17911e-05 0 -0.000133891 -6.23822e-05 0 4.2574e-05 0.000206312 0 
0.000141163 -0.000121542 0 0.000707423 0.000212137 0 0.000172327 0.000723882 0 
7.72652e-06 -0.00090254 0 -0.000134435 5.66935e-05 0 -0.000188826 3.70894e-05 0 
0.000197119 8.09714e-05 0 1.27801e-05 0.000917296 0 0.000800767 0.00044758 0 
-0.000686682 0.000507104 0 9.35831e-05 0.000110457 0 -0.000696793 -0.000509595 0 
-0.00068446 -8.52012e-05 0 -0.000691033 -0.000201242 0 5.24052e-05 -0.000189075 0 
-0.000151818 -0.000701092 0 -0.000296988 0.000518087 0 9.31023e-05 -0.000108117 0 
0.00044261 -0.000416726 0 0.000197044 -0.000784423 0 -0.000516861 0.000504567 0 
0.000298997 0.000502377 0 0.000131234 6.38474e-05 -0.001 0.00012964 -6.2443e-05 -0.001 
3.13827e-05 0.0001394 -0.001 3.12554e-05 -0.000136939 -0.001 -0.000140461 8.25467e-19 -0.001 
-8.90565e-05 -0.000102707 -0.001 -9.04142e-05 0.000102872 -0.001 -0.000765769 -0.00025965 -0.001 
-0.000756873 0.000262774 -0.001 -0.00015609 0.000787505 -0.001 -0.000155807 -0.00079355 -0.001 
0.000605069 0.000528035 -0.001 0.000608694 -0.00052497 -0.001 0.000744069 0.000116929 -0.001 
-0.000494418 0.000596218 -0.001 -0.000483866 -0.000584648 -0.001 0.000269496 0.000702219 -0.001 
0.000263201 -0.000717324 -0.001 0.000754429 -0.000127825 -0.001 -0.000748858 5.84659e-07 -0.001 
-0.000747838 0.000373886 -0.001 -0.0006542 0.000324842 -0.001 -0.000645137 0.000210123 -0.001 
-0.000550884 0.000274171 -0.001 -0.000538857 0.000163195 -0.001 -0.00045062 0.000224461 -0.001 
-0.000438393 0.000123907 -0.001 -0.000354088 0.000181668 -0.001 -0.000363908 0.000282171 -0.001 
-0.000270361 0.000239477 -0.001 -0.000279138 0.000337653 -0.001 -0.000188888 0.000294791 -0.001 
-0.000196448 0.000393271 -0.001 -0.000104767 0.000348259 -0.001 -0.000113332 0.000449012 -0.001 
-2.01066e-05 0.000403223 -0.001 -2.89189e-05 0.000507105 -0.001 6.9524e-05 0.000461596 -0.001 
-0.000213644 0.000490203 -0.001 7.33757e-05 0.000357726 -0.001 0.000163331 0.00041299 -0.001 
0.000163359 0.000313022 -0.001 0.000248077 0.000366368 -0.001 0.000250914 0.000265758 -0.001 
0.000335709 0.000322266 -0.001 0.000340555 0.000218148 -0.001 0.000427299 0.000276717 -0.001 
0.000431508 0.000173093 -0.001 0.000328731 0.000425633 -0.001 0.00034586 0.000114823 -0.001 
0.000435362 7.05241e-05 -0.001 0.000350892 1.5455e-05 -0.001 0.000441547 -3.11896e-05 -0.001 
0.000353547 -8.47783e-05 -0.001 0.000445767 -0.000132964 -0.001 0.000356135 -0.000186358 -0.001 
0.000449094 -0.000234674 -0.001 0.000359978 -0.000287876 -0.001 0.00026856 -0.000240545 -0.001 
0.000271895 -0.000341045 -0.001 0.000181792 -0.00029305 -0.001 0.00018533 -0.000392851 -0.001 
9.75701e-05 -0.00034483 -0.001 9.98764e-05 -0.000444884 -0.001 8.75116e-06 -0.000396343 -0.001 
1.20916e-05 -0.000500496 -0.001 -7.83929e-05 -0.000449843 -0.001 -8.1471e-05 -0.000347249 -0.001 
-0.000171566 -0.000403733 -0.001 -0.000169889 -0.000298891 -0.001 -0.000259867 -0.000354132 -0.001 
-0.000257696 -0.000249137 -0.001 -0.00034313 -0.000299896 -0.001 -0.000344514 -0.000199127 -0.001 
-0.000434309 -0.000250039 -0.001 -0.000169832 -0.000505815 -0.001 -0.000435227 -0.000146227 -0.001 
0.000280331 -0.000442424 -0.001 -0.000340889 8.76793e-05 -0.001 -0.000515252 4.06198e-05 -0.001 
6.50491e-05 0.000568253 -0.001 0.00053278 1.74743e-05 -0.001 0.000522071 0.000229831 -0.001 
-0.00037162 0.000391659 -0.001 -0.000255272 -0.000150439 -0.001 -0.000442893 -0.000350705 -0.001 
0.000450067 -0.000332559 -0.001 0.000545175 -0.000276306 -0.001 -0.000527797 -0.000197598 -0.001 
0.000105306 -0.000551033 -0.001 1.45836e-05 -0.000609147 -0.001 0.00017145 0.000214453 -0.001 
0.000515525 0.000341711 -0.001 0.000636086 0.000290368 -0.001 -0.000558657 0.000404468 -0.001 
-4.01232e-05 0.000616718 -0.001 6.60192e-05 0.000696422 -0.001 -0.000101806 0.0002546 -0.001 
0.000271142 -3.88908e-05 -0.001 0.000179455 -0.00018534 -0.001 -8.79553e-05 -0.000254307 -0.001 
-0.000749267 -0.000373451 -0.001 -0.000655941 -0.000323397 -0.001 0.000709746 0.000466718 -0.001 
0.000698426 -0.000473086 -0.001 -5.25801e-05 -0.00084886 -0.001 -4.93005e-05 0.000848038 -0.001 
0.000617396 -0.000413362 -0.001 0.000702056 -0.000369817 -0.001 0.000131459 -0.000679171 -0.001 
2.48171e-05 -0.000715924 -0.001 -0.000664217 -0.00042729 -0.001 -0.000528828 -8.80444e-05 -0.001 
-0.000611101 -0.000136672 -0.001 -0.000426972 -4.45841e-05 -0.001 0.000800669 0.000378216 -0.001 
0.000821144 -0.000415062 -0.001 7.2799e-05 0.00088254 -0.001 6.81831e-05 -0.00087503 -0.001 
0.000104963 -0.000788946 -0.001 -7.40696e-05 -0.000660054 -0.001 0.000126061 0.000809943 -0.001 
0.000764361 0.000295682 -0.001 0.000166862 0.000630623 -0.001 0.000516462 -0.00046707 -0.001 
-0.000563585 -0.000389606 -0.001 -0.000622598 -1.40238e-05 -0.001 0.000629891 0.000171529 -0.001 
2.5614e-06 -0.000299794 -0.001 8.6901e-05 -0.00024329 -0.001 0.000272045 -0.000136982 -0.001 
-0.00075148 0.000138321 -0.001 0.000209366 -0.000599589 -0.001 0.000324913 -0.000630055 -0.001 
0.000614044 0.00041245 -0.001 0.00049651 -0.000573327 -0.001 0.000394822 -0.000507321 -0.001 
-0.000173714 -0.000206698 -0.001 0.000264897 5.63722e-05 -0.001 0.000247997 0.000152811 -0.001 
-4.63327e-05 -0.000920208 -0.001 9.18688e-05 0.000258626 -0.001 -5.54111e-06 0.000290558 -0.001 
-0.000184219 0.000201484 -0.001 -0.000263559 0.000142267 -0.001 -0.000256427 5.13624e-05 -0.001 
-0.000336894 -2.06179e-06 -0.001 -0.000228499 -4.2388e-05 -0.001 -0.00017589 0.000106626 -0.001 
-0.000769947 -0.000133367 -0.001 0.000767591 -0.000500293 -0.001 -5.05874e-05 0.000737978 -0.001 
0.000754456 -3.51771e-06 -0.001 0.00064691 -6.15298e-05 -0.001 0.000630483 -0.00018134 -0.001 
0.000749187 -0.000265543 -0.001 -0.000760805 -0.000462521 -0.001 0.000638155 6.09315e-05 -0.001 
-4.46661e-05 0.000922995 -0.001 -2.37945e-05 0.000207237 -0.001 0.000776979 0.000500181 -0.001 
-0.000605691 0.000527596 -0.001 -0.000377914 -0.000653727 -0.001 -0.000372325 -0.000526022 -0.001 
-0.000275829 -0.000589621 -0.001 -0.000254285 -0.000710579 -0.001 -0.000379307 0.000656222 -0.001 
-0.000379818 0.00052718 -0.001 -0.000266817 0.000721555 -0.001 -0.000150544 0.000668174 -0.001 
0.000381963 0.00065079 -0.001 0.000493113 0.000590432 -0.001 0.000505439 0.000463708 -0.001 
-0.000269094 0.000596608 -0.001 0.000385815 0.000532045 -0.001 0.000283599 0.0005899 -0.001 
-0.000176405 -0.000108505 -0.001 -0.000278769 -0.000475415 -0.001 0.000185395 2.33014e-06 -0.001 
0.000186773 0.000517571 -0.001 0.000540032 -8.68444e-05 -0.001 -0.000600694 -0.000514877 -0.001 
-0.00063703 8.98033e-05 -0.001 -0.000459677 0.000335729 -0.001 -0.000338836 -0.000100751 -0.001 
-0.000457327 0.000432721 -0.001 -8.72007e-06 -0.000210238 -0.001 0.000156073 0.000129496 -0.001 
-7.70692e-05 -0.000555049 -0.001 0.00036091 -0.000389728 -0.001 0.000531628 0.000120564 -0.001 
-0.000285451 0.000435562 -0.001 0.000192719 -0.000494604 -0.001 0.00041642 0.00039368 -0.001 
-0.000135943 0.000554637 -0.001 -0.000170665 -0.000610079 -0.001 -0.000666304 0.000434981 -0.001 
-0.000758736 0.000479231 -0.001 -0.000470189 -0.000458901 -0.001 0.000203433 -8.59809e-05 -0.001 
0.000101846 0.000170114 -0.001 -0.00035513 -0.00040726 -0.001 0.000100184 -0.000165831 -0.001 
2.96286e-05 0.00081537 -0.001 0.000720946 0.000381836 -0.001 -0.000539809 -0.000292001 -0.001 
0.00052211 -0.000182426 -0.001 -6.41339e-05 -0.000753908 -0.001 0.000638039 -0.000299861 -0.001 
-0.000605136 -0.000230182 -0.001 -3.41638e-05 -0.000145561 -0.001 -0.000104037 0.000172396 -0.001 
-0.000808575 -0.00042774 -0.001 -0.000807207 -0.000465052 -0.001 -0.00080817 0.000429771 -0.001 
-0.000806589 0.000469738 -0.001 -9.50634e-05 -0.000178909 -0.001 0.000247777 0.000445058 -0.001 
1.48293e-05 -0.000814201 -0.001 -4.11555e-05 0.000140955 -0.001 0.000276104 -0.000536845 -0.001 
0.000765969 -0.000436638 -0.001 0.000780871 -0.000362769 -0.001 0.000424176 -0.000642018 -0.001 
0.00053413 -0.000368009 -0.001 -0.000416333 4.17911e-05 -0.001 -0.000133891 -6.23822e-05 -0.001 
4.2574e-05 0.000206312 -0.001 0.000141163 -0.000121542 -0.001 0.000707423 0.000212137 -0.001 
0.000172327 0.000723882 -0.001 7.72652e-06 -0.00090254 -0.001 -0.000134435 5.66935e-05 -0.001 
-0.000188826 3.70894e-05 -0.001 0.000197119 8.09714e-05 -0.001 1.27801e-05 0.000917296 -0.001 
0.000800767 0.00044758 -0.001 -0.000686682 0.000507104 -0.001 9.35831e-05 0.000110457 -0.001 
-0.000696793 -0.000509595 -0.001 -0.00068446 -8.52012e-05 -0.001 -0.000691033 -0.000201242 -0.001 
5.24052e-05 -0.000189075 -0.001 -0.000151818 -0.000701092 -0.001 -0.000296988 0.000518087 -0.001 
9.31023e-05 -0.000108117 -0.001 0.00044261 -0.000416726 -0.001 0.000197044 -0.000784423 -0.001 
-0.000516861 0.000504567 -0.001 0.000298997 0.000502377 -0.001 

CELLS 563 3941
6 14 304 127 29 554 377 
6 143 259 55 393 509 103 
6 300 319 174 550 569 424 
6 259 349 55 509 599 103 
6 50 365 307 98 615 557 
6 299 320 164 549 570 414 
6 126 304 14 376 554 29 
6 298 319 300 548 569 550 
6 205 240 238 455 490 488 
6 257 308 145 507 558 395 
6 130 352 273 380 602 523 
6 295 320 299 545 570 549 
6 324 327 289 574 577 539 
6 235 258 143 485 508 393 
6 50 307 49 98 557 97 
6 207 283 279 457 533 529 
6 143 373 235 393 623 485 
6 145 308 252 395 558 502 
6 194 303 196 444 553 446 
6 279 306 207 529 556 457 
6 206 305 163 456 555 413 
6 51 357 9 99 607 24 
6 238 252 205 488 502 455 
6 293 317 209 543 567 459 
6 207 316 283 457 566 533 
6 142 301 249 392 551 499 
6 273 359 130 523 609 380 
6 211 327 324 461 577 574 
6 169 265 217 419 515 467 
6 7 365 50 22 615 98 
6 283 316 253 533 566 503 
6 159 268 223 409 518 473 
6 274 337 132 524 587 382 
6 232 361 329 482 611 579 
6 231 266 45 481 516 93 
6 229 362 330 479 612 580 
6 9 244 57 24 494 105 
6 230 276 52 480 526 100 
6 209 311 293 459 561 543 
6 131 342 302 381 592 552 
6 270 271 204 520 521 454 
6 66 243 1 114 493 16 
6 59 241 12 107 491 27 
6 280 306 279 530 556 529 
6 269 337 274 519 587 524 
6 179 256 224 429 506 474 
6 163 305 166 413 555 416 
6 201 303 194 451 553 444 
6 280 332 306 530 582 556 
6 186 255 225 436 505 475 
6 210 310 273 460 560 523 
6 153 270 204 403 520 454 
6 136 231 45 386 481 93 
6 171 265 169 421 515 419 
6 138 230 52 388 480 100 
6 225 354 325 475 604 575 
6 36 284 232 84 534 482 
6 161 268 159 411 518 409 
6 71 286 229 119 536 479 
6 290 303 201 540 553 451 
6 139 355 60 389 605 108 
6 60 355 248 108 605 498 
6 273 352 302 523 602 552 
6 235 373 245 485 623 495 
6 67 356 247 115 606 497 
6 221 295 277 471 545 527 
6 142 356 67 392 606 115 
6 139 283 253 389 533 503 
6 203 315 262 453 565 512 
6 41 257 145 89 507 395 
6 36 232 135 84 482 385 
6 71 229 137 119 479 387 
6 254 255 188 504 505 438 
6 233 350 334 483 600 584 
6 262 346 203 512 596 453 
6 304 325 127 554 575 377 
6 222 329 247 472 579 497 
6 218 298 260 468 548 510 
6 290 321 291 540 571 541 
6 272 310 240 522 560 490 
6 269 274 270 519 524 520 
6 244 245 57 494 495 105 
6 49 307 141 97 557 391 
6 225 325 256 475 575 506 
6 273 310 272 523 560 522 
6 312 368 255 562 618 505 
6 249 305 206 499 555 456 
6 228 331 251 478 581 501 
6 302 342 263 552 592 513 
6 338 339 44 588 589 92 
6 190 254 188 440 504 438 
6 37 341 340 85 591 590 
6 138 233 230 388 483 480 
6 228 335 331 478 585 581 
6 181 256 179 431 506 429 
6 195 263 226 445 513 476 
6 268 285 223 518 535 473 
6 290 291 288 540 541 538 
6 219 330 248 469 580 498 
6 201 321 290 451 571 540 
6 240 310 202 490 560 452 
6 188 255 186 438 505 436 
6 270 274 271 520 524 521 
6 262 349 259 512 599 509 
6 141 324 289 391 574 539 
6 296 301 142 546 551 392 
6 247 356 222 497 606 472 
6 239 252 238 489 502 488 
6 254 312 255 504 562 505 
6 54 261 53 102 511 101 
6 289 327 303 539 577 553 
6 268 353 285 518 603 535 
6 273 302 210 523 552 460 
6 292 299 293 542 549 543 
6 278 283 139 528 533 389 
6 175 265 171 425 515 421 
6 227 338 38 477 588 86 
6 264 360 265 514 610 515 
6 43 340 146 91 590 396 
6 165 268 161 415 518 411 
6 205 351 240 455 601 490 
6 64 281 63 112 531 111 
6 288 291 47 538 541 95 
6 135 295 294 385 545 544 
6 42 257 41 90 507 89 
6 245 373 57 495 623 105 
6 31 363 323 79 613 573 
6 292 293 140 542 543 390 
6 267 353 268 517 603 518 
6 155 270 153 405 520 403 
6 244 344 245 494 594 495 
6 61 278 139 109 528 389 
6 135 294 35 385 544 83 
6 69 297 296 117 547 546 
6 186 225 184 436 475 434 
6 329 361 243 579 611 493 
6 255 328 225 505 578 475 
6 213 332 280 463 582 530 
6 39 275 133 87 525 383 
6 330 362 241 580 612 491 
6 195 226 193 445 476 443 
6 211 324 251 461 574 501 
6 151 153 152 401 403 402 
6 295 299 294 545 549 544 
6 265 313 217 515 563 467 
6 258 259 143 508 509 393 
6 251 331 211 501 581 461 
6 149 151 150 399 401 400 
6 293 370 317 543 620 567 
6 153 204 152 403 454 402 
6 151 152 150 401 402 400 
6 33 292 140 81 542 390 
6 210 263 197 460 513 447 
6 301 305 249 551 555 499 
6 298 300 297 548 550 547 
6 68 296 142 116 546 392 
6 321 369 291 571 619 541 
6 179 224 177 429 474 427 
6 167 267 165 417 517 415 
6 259 346 262 509 596 512 
6 303 327 196 553 577 446 
6 269 270 155 519 520 405 
6 265 360 313 515 610 563 
6 223 269 157 473 519 407 
6 157 269 155 407 519 405 
6 144 279 278 394 529 528 
6 169 217 167 419 467 417 
6 177 264 175 427 514 425 
6 267 268 165 517 518 415 
6 159 223 157 409 473 407 
6 232 277 135 482 527 385 
6 193 254 190 443 504 440 
6 217 267 167 467 517 417 
6 249 356 142 499 606 392 
6 184 256 181 434 506 431 
6 248 355 219 498 605 469 
6 229 260 137 479 510 387 
6 149 150 148 399 400 398 
6 64 348 281 112 598 531 
6 311 374 293 561 624 543 
6 264 265 175 514 515 425 
6 297 300 296 547 550 546 
6 141 289 288 391 539 538 
6 197 263 195 447 513 445 
6 218 260 219 468 510 469 
6 224 264 177 474 514 427 
6 137 298 297 387 548 547 
6 277 295 135 527 545 385 
6 133 228 227 383 478 477 
6 261 349 262 511 599 512 
6 221 277 222 471 527 472 
6 256 325 224 506 575 474 
6 199 210 197 449 460 447 
6 226 254 193 476 504 443 
6 144 278 62 394 528 110 
6 279 283 278 529 533 528 
6 289 290 288 539 540 538 
6 137 297 70 387 547 118 
6 34 294 292 82 544 542 
6 235 236 216 485 486 466 
6 141 288 48 391 538 96 
6 178 306 180 428 556 430 
6 185 186 184 435 436 434 
6 63 281 144 111 531 394 
6 225 256 184 475 506 434 
6 46 291 136 94 541 386 
6 147 149 148 397 399 398 
6 271 272 204 521 522 454 
6 233 334 234 483 584 484 
6 145 275 40 395 525 88 
6 220 322 287 470 572 537 
6 280 334 213 530 584 463 
6 144 280 279 394 530 529 
6 140 287 32 390 537 80 
6 154 155 153 404 405 403 
6 334 350 213 584 600 463 
6 176 177 175 426 427 425 
6 260 298 137 510 548 387 
6 33 140 32 81 390 80 
6 49 141 48 97 391 96 
6 56 143 55 104 393 103 
6 68 142 67 116 392 115 
6 63 144 62 111 394 110 
6 61 139 60 109 389 108 
6 148 308 257 398 558 507 
6 71 137 70 119 387 118 
6 53 138 52 101 388 100 
6 46 136 45 94 386 93 
6 36 135 35 84 385 83 
6 43 146 134 91 396 384 
6 133 227 38 383 477 86 
6 192 193 190 442 443 440 
6 293 374 140 543 624 390 
6 34 292 33 82 542 81 
6 207 306 178 457 556 428 
6 43 134 42 91 384 90 
6 39 133 38 87 383 86 
6 41 145 40 89 395 88 
6 194 195 193 444 445 443 
6 69 296 68 117 546 116 
6 294 299 292 544 549 542 
6 173 175 171 423 425 421 
6 260 330 219 510 580 469 
6 183 184 181 433 434 431 
6 134 257 42 384 507 90 
6 55 349 54 103 599 102 
6 163 165 161 413 415 411 
6 166 167 165 416 417 415 
6 210 302 263 460 552 513 
6 271 273 272 521 523 522 
6 53 261 138 101 511 388 
6 217 326 267 467 576 517 
6 289 303 290 539 553 540 
6 178 179 177 428 429 427 
6 238 240 202 488 490 452 
6 62 278 61 110 528 109 
6 35 294 34 83 544 82 
6 284 361 232 534 611 482 
6 70 297 69 118 547 117 
6 224 304 264 474 554 514 
6 156 157 155 406 407 405 
6 48 288 47 96 538 95 
6 221 320 295 471 570 545 
6 187 188 186 437 438 436 
6 47 291 46 95 541 94 
6 151 154 153 401 404 403 
6 286 362 229 536 612 479 
6 168 169 167 418 419 417 
6 40 275 39 88 525 87 
6 307 324 141 557 574 391 
6 300 301 296 550 551 546 
6 32 287 31 80 537 79 
6 147 220 149 397 470 399 
6 333 344 231 583 594 481 
6 299 370 293 549 620 543 
6 271 359 273 521 609 523 
6 224 325 304 474 575 554 
6 228 237 227 478 487 477 
6 305 375 343 555 625 593 
6 218 319 298 468 569 548 
6 240 351 272 490 601 522 
6 277 329 222 527 579 472 
6 253 355 139 503 605 389 
6 158 159 157 408 409 407 
6 236 246 216 486 496 466 
6 192 194 193 442 444 443 
6 220 309 149 470 559 399 
6 183 185 184 433 435 434 
6 196 197 195 446 447 445 
6 276 347 58 526 597 106 
6 136 333 231 386 583 481 
6 67 247 66 115 497 114 
6 60 248 59 108 498 107 
6 261 262 250 511 512 500 
6 173 176 175 423 426 425 
6 344 357 231 594 607 481 
6 144 281 280 394 531 530 
6 152 205 150 402 455 400 
6 163 166 165 413 416 415 
6 185 187 186 435 437 436 
6 233 234 230 483 484 480 
6 170 171 169 420 421 419 
6 146 147 134 396 397 384 
6 176 178 177 426 428 427 
6 285 337 223 535 587 473 
6 154 156 155 404 406 405 
6 263 342 226 513 592 476 
6 235 245 236 485 495 486 
6 160 161 159 410 411 409 
6 58 347 242 106 597 492 
6 166 168 167 416 418 417 
6 287 374 220 537 624 470 
6 189 190 188 439 440 438 
6 148 257 134 398 507 384 
6 194 196 195 444 446 445 
6 252 308 205 502 558 455 
6 285 345 337 535 595 587 
6 301 375 305 551 625 555 
6 180 181 179 430 431 429 
6 281 348 234 531 598 484 
6 198 199 197 448 449 447 
6 151 309 154 401 559 404 
6 228 367 335 478 617 585 
6 54 349 261 102 599 511 
6 156 158 157 406 408 407 
6 168 170 169 418 420 419 
6 200 202 199 450 452 449 
6 147 148 134 397 398 384 
6 158 160 159 408 410 409 
6 150 308 148 400 558 398 
6 253 316 208 503 566 458 
6 232 329 277 482 579 527 
6 178 180 179 428 430 429 
6 191 192 190 441 442 440 
6 214 238 202 464 488 452 
6 172 173 171 422 423 421 
6 187 189 188 437 439 438 
6 162 163 161 412 413 411 
6 228 251 237 478 501 487 
6 215 258 235 465 508 485 
6 182 183 181 432 433 431 
6 202 310 199 452 560 449 
6 219 253 208 469 503 458 
6 222 249 206 472 499 456 
6 196 198 197 446 448 447 
6 229 330 260 479 580 510 
6 132 358 274 382 608 524 
6 149 309 151 399 559 401 
6 226 312 254 476 562 504 
6 154 309 209 404 559 459 
6 77 129 76 125 379 124 
6 73 128 72 121 378 120 
6 76 131 75 124 381 123 
6 74 132 73 122 382 121 
6 75 130 74 123 380 122 
6 14 127 77 29 377 125 
6 72 126 14 120 376 29 
6 133 367 228 383 617 478 
6 237 282 227 487 532 477 
6 239 366 252 489 616 502 
6 200 214 202 450 464 452 
6 192 201 194 442 451 444 
6 170 172 171 420 422 421 
6 220 311 309 470 561 559 
6 198 200 199 448 450 449 
6 189 191 190 439 441 440 
6 146 323 322 396 573 572 
6 160 162 161 410 412 411 
6 251 307 237 501 557 487 
6 199 310 210 449 560 460 
6 57 373 56 105 623 104 
6 214 239 238 464 489 488 
6 182 212 183 432 462 433 
6 180 182 181 430 432 431 
6 146 322 147 396 572 397 
6 172 218 208 422 468 458 
6 172 208 173 422 458 423 
6 162 221 206 412 471 456 
6 162 206 163 412 456 413 
6 176 207 178 426 457 428 
6 272 351 204 522 601 454 
6 198 211 200 448 461 450 
6 182 213 212 432 463 462 
6 234 334 281 484 584 531 
6 154 209 156 404 459 406 
6 185 203 187 435 453 437 
6 168 174 170 418 424 420 
6 189 215 191 439 465 441 
6 215 216 191 465 466 441 
6 221 222 206 471 472 456 
6 158 164 160 408 414 410 
6 218 219 208 468 469 458 
6 205 308 150 455 558 400 
6 191 314 192 441 564 442 
6 215 235 216 465 485 466 
6 215 318 258 465 568 508 
6 152 351 205 402 601 455 
6 138 261 250 388 511 500 
6 192 314 201 442 564 451 
6 234 347 230 484 597 480 
6 226 342 312 476 592 562 
6 138 250 233 388 500 483 
6 147 322 220 397 572 470 
6 216 314 191 466 564 441 
6 306 332 180 556 582 430 
6 222 356 249 472 606 499 
6 128 345 285 378 595 535 
6 314 321 201 564 571 451 
6 212 315 183 462 565 433 
6 312 342 336 562 592 586 
6 282 339 338 532 589 588 
6 340 341 323 590 591 573 
6 309 311 209 559 561 459 
6 183 315 185 433 565 435 
6 208 316 173 458 566 423 
6 173 316 176 423 566 426 
6 3 341 37 18 591 85 
6 44 339 6 92 589 21 
6 252 366 145 502 616 395 
6 246 321 314 496 571 564 
6 246 314 216 496 564 466 
6 126 364 313 376 614 563 
6 156 317 158 406 567 408 
6 275 367 133 525 617 383 
6 176 316 207 426 566 457 
6 185 315 203 435 565 453 
6 180 332 182 430 582 432 
6 302 352 131 552 602 381 
6 251 324 307 501 574 557 
6 187 318 189 437 568 439 
6 172 319 218 422 569 468 
6 162 320 221 412 570 471 
6 305 343 166 555 593 416 
6 170 319 172 420 569 422 
6 158 317 164 408 567 414 
6 209 317 156 459 567 406 
6 285 353 128 535 603 378 
6 223 337 269 473 587 519 
6 160 320 162 410 570 412 
6 211 331 200 461 581 450 
6 174 319 170 424 569 420 
6 203 318 187 453 568 437 
6 189 318 215 439 568 465 
6 198 327 211 448 577 461 
6 164 320 160 414 570 410 
6 326 353 267 576 603 517 
6 236 344 333 486 594 583 
6 196 327 198 446 577 448 
6 219 355 253 469 605 503 
6 281 334 280 531 584 530 
6 274 359 271 524 609 521 
6 164 370 299 414 620 549 
6 174 375 300 424 625 550 
6 287 363 31 537 613 79 
6 243 361 1 493 611 16 
6 241 362 12 491 612 27 
6 307 365 237 557 615 487 
6 166 343 168 416 593 418 
6 200 331 214 450 581 464 
6 313 326 217 563 576 467 
6 9 357 244 24 607 494 
6 1 361 30 16 611 78 
6 12 362 65 27 612 113 
6 337 345 132 587 595 382 
6 242 348 64 492 598 112 
6 231 357 266 481 607 516 
6 182 332 213 432 582 463 
6 245 344 236 495 594 486 
6 258 346 259 508 596 509 
6 145 366 275 395 616 525 
6 291 369 136 541 619 386 
6 236 333 246 486 583 496 
6 331 335 214 581 585 464 
6 312 336 129 562 586 379 
6 315 372 262 565 622 512 
6 220 374 311 470 624 561 
6 140 374 287 390 624 537 
6 126 360 304 376 610 554 
6 230 347 276 480 597 526 
6 313 364 326 563 614 576 
6 56 373 143 104 623 393 
6 239 367 366 489 617 616 
6 204 351 152 454 601 402 
6 300 375 301 550 625 551 
6 214 335 239 464 585 489 
6 247 329 243 497 579 493 
6 262 372 250 512 622 500 
6 248 330 241 498 580 491 
6 318 346 258 568 596 508 
6 333 369 246 583 619 496 
6 282 338 227 532 588 477 
6 146 340 323 396 590 573 
6 304 360 264 554 610 514 
6 366 367 275 616 617 525 
6 129 336 76 379 586 124 
6 73 345 128 121 595 378 
6 76 336 131 124 586 381 
6 250 350 233 500 600 483 
6 129 371 328 379 621 578 
6 132 345 73 382 595 121 
6 168 343 174 418 593 424 
6 131 352 75 381 602 123 
6 66 247 243 114 497 493 
6 59 248 241 107 498 491 
6 74 358 132 122 608 382 
6 203 346 318 453 596 568 
6 313 360 126 563 610 376 
6 128 364 72 378 614 120 
6 128 353 326 378 603 576 
6 77 371 129 125 621 379 
6 129 368 312 379 618 562 
6 244 357 344 494 607 594 
6 328 354 225 578 604 475 
6 326 364 128 576 614 378 
6 75 352 130 123 602 380 
6 350 372 212 600 622 462 
6 136 369 333 386 619 583 
6 325 354 127 575 604 377 
6 213 350 212 463 600 462 
6 130 358 74 380 608 122 
6 250 372 350 500 622 600 
6 317 370 164 567 620 414 
6 72 364 126 120 614 376 
6 328 368 129 578 618 379 
6 127 371 77 377 621 125 
6 336 342 131 586 592 381 
6 212 372 315 462 622 565 
6 234 348 347 484 598 597 
6 8 266 51 23 516 99 
6 10 276 58 25 526 106 
6 246 369 321 496 619 571 
6 30 284 0 78 534 15 
6 65 286 13 113 536 28 
6 58 242 11 106 492 26 
6 266 357 51 516 607 99 
6 255 368 328 505 618 578 
6 347 348 242 597 598 492 
6 322 363 287 572 613 537 
6 323 363 322 573 613 572 
6 335 367 239 585 617 489 
6 30 361 284 78 611 534 
6 65 362 286 113 612 536 
6 237 365 282 487 615 532 
6 130 359 358 380 609 608 
6 343 375 174 593 625 424 
6 354 371 127 604 621 377 
6 328 371 354 578 621 604 
6 358 359 274 608 609 524 
6 0 284 36 15 534 84 
6 45 266 8 93 516 23 
6 52 276 10 100 526 25 
6 11 242 64 26 492 112 
6 13 286 71 28 536 119 
6 2 323 3 17 573 18 
6 31 323 2 79 573 17 
6 323 341 3 573 591 18 
6 37 340 4 85 590 19 
6 4 340 43 19 590 91 
6 38 338 5 86 588 20 
6 5 338 44 20 588 92 
6 6 282 7 21 532 22 
6 6 339 282 21 589 532 
6 282 365 7 532 615 22 

CELL_TYPES 563
13
13
13
13
13
13
13
13
13
13
13
13
13
13
13
13
13
13
13
13
13
13
13
13
13
13
13
13
13
13
13
13
13
13
13
13
13
13
13
13
13
13
13
13
13
13
13
13
13
13
13
13
13
13
13
13
13
13
13
13
13
13
13
13
13
13
13
13
13
13
13
13
13
13
13
13
13
13
13
13
13
13
13
13
13
13
13
13
13
13
13
13
13
13
13
13
13
13
13
13
13
13
13
13
13
13
13
13
13
13
13
13
13
13
13
13
13
13
13
13
13
13
13
13
13
13
13
13
13
13
13
13
13
13
13
13
13
13
13
13
13
13
13
13
13
13
13
13
13
13
13
13
13
13
13
13
13
13
13
13
13
13
13
13
13
13
13
13
13
13
13
13
13
13
13
13
13
13
13
13
13
13
13
13
13
13
13
13
13
13
13
13
13
13
13
13
13
13
13
13
13
13
13
13
13
13
13
13
13
13
13
13
13
13
13
13
13
13
13
13
13
13
13
13
13
13
13
13
13
13
13
13
13
13
13
13
13
13
13
13
13
13
13
13
13
13
13
13
13
13
13
13
13
13
13
13
13
13
13
13
13
13
13
13
13
13
13
13
13
13
13
13
13
13
13
13
13
13
13
13
13
13
13
13
13
13
13
13
13
13
13
13
13
13
13
13
13
13
13
13
13
13
13
13
13
13
13
13
13
13
13
13
13
13
13
13
13
13
13
13
13
13
13
13
13
13
13
13
13
13
13
13
13
13
13
13
13
13
13
13
13
13
13
13
13
13
13
13
13
13
13
13
13
13
13
13
13
13
13
13
13
13
13
13
13
13
13
13
13
13
13
13
13
13
13
13
13
13
13
13
13
13
13
13
13
13
13
13
13
13
13
13
13
13
13
13
13
13
13
13
13
13
13
13
13
13
13
13
13
13
13
13
13
13
13
13
13
13
13
13
13
13
13
13
13
13
13
13
13
13
13
13
13
13
13
13
13
13
13
13
13
13
13
13
13
13
13
13
13
13
13
13
13
13
13
13
13
13
13
13
13
13
13
13
13
13
13
13
13
13
13
13
13
13
13
13
13
13
13
13
13
13
13
13
13
13
13
13
13
13
13
13
13
13
13
13
13
13
13
13
13
13
13
13
13
13
13
13
13
13
13
13
13
13
13
13
13
13
13
13
13
13
13
13
13
13
13
13
13
13
13
13
13
13
13
13
13
13
13
13
13
13
13
13
13
13
13
13
13
13
13
13
13
13
13
13
13
13
13
13
13
13
13

POINT_DATA 626
VECTORS displacement float
-1.74395e-06 3.09541e-05 1.80549e-05
1.73566e-06 3.09731e-05 1.81e-05
-2.5986e-05 1.69927e-05 1.80869e-05
-2.58406e-05 1.60328e-05 1.80515e-05
-2.77204e-05 1.39726e-05 1.80689e-05
-2.77133e-05 -1.40189e-05 1.80943e-05
-2.58118e-05 -1.6071e-05 1.81057e-05
-2.59822e-05 -1.70107e-05 1.81669e-05
-1.67741e-06 -3.09578e-05 1.80513e-05
1.75545e-06 -3.09593e-05 1.81017e-05
2.59433e-05 -1.69805e-05 1.80433e-05
2.77167e-05 -1.39365e-05 1.80432e-05
2.76722e-05 1.39892e-05 1.80915e-05
2.59147e-05 1.69928e-05 1.80459e-05
0 0 0
-1.74395e-06 3.09541e-05 -1.80549e-05
1.73566e-06 3.09731e-05 -1.81e-05
-2.5986e-05 1.69927e-05 -1.80869e-05
-2.58406e-05 1.60328e-05 -1.80515e-05
-2.77204e-05 1.39726e-05 -1.80689e-05
-2.77133e-05 -1.40189e-05 -1.80943e-05
-2.58118e-05 -1.6071e-05 -1.81057e-05
-2.59822e-05 -1.70107e-05 -1.81669e-05
-1.67741e-06 -3.09578e-05 -1.80513e-05
1.75545e-06 -3.09593e-05 -1.81017e-05
2.59433e-05 -1.69805e-05 -1.80433e-05
2.77167e-05 -1.39365e-05 -1.80432e-05
2.76722e-05 1.39892e-05 -1.80915e-05
2.59147e-05 1.69928e-05 -1.80459e-05
0 0 0
2.48957e-08 3.0154e-05 1.8034e-05
-2.11403e-05 1.87122e-05 1.75495e-05
-1.72322e-05 1.98336e-05 1.69206e-05
-1.40067e-05 2.10539e-05 1.65547e-05
-1.12067e-05 2.26645e-05 1.65486e-05
-8.52399e-06 2.48325e-05 1.69011e-05
-5.56776e-06 2.76214e-05 1.75372e-05
-2.64496e-05 1.4679e-05 1.80333e-05
-2.67684e-05 -9.01138e-06 1.75772e-05
-2.58059e-05 -5.03537e-06 1.69257e-05
-2.52541e-05 -1.63617e-06 1.65712e-05
-2.52571e-05 1.60781e-06 1.65741e-05
-2.57981e-05 5.02277e-06 1.69239e-05
-2.67546e-05 8.98447e-06 1.75637e-05
-2.64365e-05 -1.47253e-05 1.80621e-05
-5.54102e-06 -2.76358e-05 1.75295e-05
-8.47651e-06 -2.48415e-05 1.69004e-05
-1.11699e-05 -2.26839e-05 1.65559e-05
-1.39704e-05 -2.1087e-05 1.65593e-05
-1.72147e-05 -1.98689e-05 1.69364e-05
-2.11339e-05 -1.8749e-05 1.7562e-05
8.98417e-08 -3.01388e-05 1.80292e-05
2.11237e-05 -1.86246e-05 1.75113e-05
1.72444e-05 -1.97619e-05 1.68726e-05
1.40337e-05 -2.10109e-05 1.65113e-05
1.12249e-05 -2.25926e-05 1.65459e-05
8.58115e-06 -2.47797e-05 1.68739e-05
5.65464e-06 -2.76261e-05 1.75348e-05
2.61243e-05 -1.50595e-05 1.80282e-05
2.67165e-05 8.93825e-06 1.75013e-05
2.57217e-05 5.0495e-06 1.69082e-05
2.52062e-05 1.62329e-06 1.65229e-05
2.52033e-05 -1.5994e-06 1.65212e-05
2.57503e-05 -4.99729e-06 1.68881e-05
2.66985e-05 -8.91701e-06 1.75095e-05
2.61073e-05 1.50607e-05 1.80252e-05
5.6331e-06 2.76174e-05 1.75094e-05
8.50853e-06 2.48064e-05 1.6911e-05
1.12169e-05 2.26407e-05 1.65291e-05
1.40043e-05 2.10218e-05 1.65245e-05
1.72214e-05 1.97932e-05 1.68849e-05
2.11147e-05 1.86342e-05 1.75252e-05
0 0 0
0 0 0
0 0 0
0 0 0
0 0 0
0 0 0
2.48957e-08 3.0154e-05 -1.8034e-05
-2.11403e-05 1.87122e-05 -1.75495e-05
-1.72322e-05 1.98336e-05 -1.69206e-05
-1.40067e-05 2.10539e-05 -1.65547e-05
-1.12067e-05 2.26645e-05 -1.65486e-05
-8.52399e-06 2.48325e-05 -1.69011e-05
-5.56776e-06 2.76214e-05 -1.75372e-05
-2.64496e-05 1.4679e-05 -1.80333e-05
-2.67684e-05 -9.01138e-06 -1.75772e-05
-2.58059e-05 -5.03537e-06 -1.69257e-05
-2.52541e-05 -1.63617e-06 -1.65712e-05
-2.52571e-05 1.60781e-06 -1.65741e-05
-2.57981e-05 5.02277e-06 -1.69239e-05
-2.67546e-05 8.98447e-06 -1.75637e-05
-2.64365e-05 -1.47253e-05 -1.80621e-05
-5.54102e-06 -2.76358e-05 -1.75295e-05
-8.47651e-06 -2.48415e-05 -1.69004e-05
-1.11699e-05 -2.26839e-05 -1.65559e-05
-1.39704e-05 -2.1087e-05 -1.65593e-05
-1.72147e-05 -1.98689e-05 -1.69364e-05
-2.11339e-05 -1.8749e-05 -1.7562e-05
8.98417e-08 -3.01388e-05 -1.80292e-05
2.11237e-05 -1.86246e-05 -1.75113e-05
1.72444e-05 -1.97619e-05 -1.68726e-05
1.40337e-05 -2.10109e-05 -1.65113e-05
1.12249e-05 -2.25926e-05 -1.65459e-05
8.58115e-06 -2.47797e-05 -1.68739e-05
5.65464e-06 -2.76261e-05 -1.75348e-05
2.61243e-05 -1.50595e-05 -1.80282e-05
2.67165e-05 8.93825e-06 -1.75013e-05
2.57217e-05 5.0495e-06 -1.69082e-05
2.52062e-05 1.62329e-06 -1.65229e-05
2.52033e-05 -1.5994e-06 -1.65212e-05
2.57503e-05 -4.99729e-06 -1.68881e-05
2.66985e-05 -8.91701e-06 -1.75095e-05
2.61073e-05 1.50607e-05 -1.80252e-05
5.6331e-06 2.76174e-05 -1.75094e-05
8.50853e-06 2.48064e-05 -1.6911e-05
1.12169e-05 2.26407e-05 -1.65291e-05
1.40043e-05 2.10218e-05 -1.65245e-05
1.72214e-05 1.97932e-05 -1.68849e-05
2.11147e-05 1.86342e-05 -1.75252e-05
0 0 0
0 0 0
0 0 0
0 0 0
0 0 0
0 0 0
1.79366e-06 8.58736e-07 4.55218e-06
1.7378e-06 -8.25104e-07 4.46073e-06
4.31948e-07 1.8496e-06 4.49505e-06
4.36093e-07 -1.78061e-06 4.35602e-06
-1.84747e-06 2.09628e-08 4.42229e-06
-1.12307e-06 -1.30886e-06 4.15093e-06
-1.15919e-06 1.30678e-06 4.19971e-06
-2.25127e-05 -7.28755e-06 1.69997e-05
-2.21961e-05 7.37144e-06 1.69684e-05
-4.86038e-06 2.28982e-05 1.69368e-05
-4.8579e-06 -2.31313e-05 1.69637e-05
1.7421e-05 1.56352e-05 1.69296e-05
1.75685e-05 -1.55362e-05 1.69389e-05
2.10732e-05 3.16382e-06 1.63241e-05
-1.39529e-05 1.7151e-05 1.64781e-05
-1.35909e-05 -1.6741e-05 1.64097e-05
7.76773e-06 1.98192e-05 1.63309e-05
7.68475e-06 -2.03096e-05 1.64022e-05
2.1472e-05 -3.44367e-06 1.63999e-05
-2.11024e-05 6.58808e-09 1.62464e-05
-2.242e-05 1.09996e-05 1.74534e-05
-1.87506e-05 9.25455e-06 1.66268e-05
-1.79825e-05 5.79535e-06 1.6036e-05
-1.49837e-05 7.44821e-06 1.54861e-05
-1.42242e-05 4.30765e-06 1.48294e-05
-1.15324e-05 5.74379e-06 1.40944e-05
-1.08578e-05 3.06868e-06 1.33732e-05
-8.40035e-06 4.3048e-06 1.2404e-05
-9.05865e-06 7.01329e-06 1.3456e-05
-6.204e-06 5.48842e-06 1.16887e-05
-6.82819e-06 8.2493e-06 1.30796e-05
-4.28133e-06 6.6748e-06 1.14502e-05
-4.79993e-06 9.60976e-06 1.30936e-05
-2.40083e-06 7.99322e-06 1.17226e-05
-2.8128e-06 1.1167e-05 1.34746e-05
-4.75402e-07 9.59514e-06 1.25006e-05
-7.38341e-07 1.29967e-05 1.41414e-05
1.73105e-06 1.15176e-05 1.35346e-05
-5.53459e-06 1.27002e-05 1.44366e-05
1.68505e-06 8.22384e-06 1.17472e-05
4.00411e-06 1.01207e-05 1.31506e-05
3.70529e-06 7.09784e-06 1.14779e-05
6.0673e-06 8.96652e-06 1.3113e-05
5.76673e-06 6.10669e-06 1.17352e-05
8.35794e-06 8.02019e-06 1.34917e-05
8.10552e-06 5.19518e-06 1.25e-05
1.09538e-05 7.09693e-06 1.41466e-05
1.07458e-05 4.32272e-06 1.34987e-05
8.53038e-06 1.10373e-05 1.44604e-05
7.93757e-06 2.6437e-06 1.17271e-05
1.06458e-05 1.73717e-06 1.31037e-05
7.94856e-06 3.58755e-07 1.14553e-05
1.08062e-05 -7.591e-07 1.31238e-05
8.11151e-06 -1.93777e-06 1.17088e-05
1.10981e-05 -3.3128e-06 1.34836e-05
8.4696e-06 -4.42391e-06 1.24437e-05
1.15035e-05 -6.00278e-06 1.4109e-05
8.95543e-06 -7.13799e-06 1.34277e-05
6.14743e-06 -5.49433e-06 1.1641e-05
6.64439e-06 -8.30073e-06 1.30179e-05
4.10514e-06 -6.58841e-06 1.13106e-05
4.52328e-06 -9.55071e-06 1.2988e-05
2.24226e-06 -7.85816e-06 1.15971e-05
2.4848e-06 -1.10017e-05 1.33506e-05
2.25288e-07 -9.37354e-06 1.23533e-05
3.30009e-07 -1.27696e-05 1.40335e-05
-1.91541e-06 -1.11505e-05 1.33767e-05
-1.84104e-06 -7.9215e-06 1.15819e-05
-4.16783e-06 -9.8747e-06 1.30847e-05
-3.81388e-06 -6.7304e-06 1.13168e-05
-6.34552e-06 -8.66189e-06 1.3099e-05
-5.89121e-06 -5.69793e-06 1.16281e-05
-8.49959e-06 -7.43568e-06 1.33794e-05
-8.16742e-06 -4.72799e-06 1.24083e-05
-1.10955e-05 -6.40267e-06 1.40696e-05
-4.37158e-06 -1.3123e-05 1.44333e-05
-1.08087e-05 -3.65063e-06 1.34389e-05
7.22601e-06 -1.13726e-05 1.42726e-05
-7.74159e-06 1.98266e-06 1.14926e-05
-1.32159e-05 1.03504e-06 1.42106e-05
1.7291e-06 1.50826e-05 1.49519e-05
1.37678e-05 4.6223e-07 1.43875e-05
1.3843e-05 6.10001e-06 1.49314e-05
-9.69391e-06 1.01961e-05 1.45322e-05
-5.41594e-06 -3.19761e-06 1.01819e-05
-1.17134e-05 -9.2972e-06 1.48889e-05
1.18822e-05 -8.76008e-06 1.47869e-05
1.47816e-05 -7.4735e-06 1.54031e-05
-1.39595e-05 -5.24382e-06 1.48614e-05
2.79578e-06 -1.45159e-05 1.47959e-05
4.24558e-07 -1.64992e-05 1.53975e-05
3.51839e-06 4.39688e-06 9.58094e-06
1.40104e-05 9.29893e-06 1.54913e-05
1.79305e-05 8.14484e-06 1.63003e-05
-1.56752e-05 1.13952e-05 1.62333e-05
-1.09407e-06 1.67689e-05 1.54951e-05
1.90684e-06 1.96213e-05 1.63107e-05
-2.09184e-06 5.22001e-06 9.59744e-06
5.55387e-06 -7.84594e-07 9.59398e-06
3.58591e-06 -3.68352e-06 9.08183e-06
-1.77962e-06 -5.17851e-06 9.44945e-06
-2.24685e-05 -1.10107e-05 1.74741e-05
-1.87979e-05 -9.2413e-06 1.66508e-05
2.11476e-05 1.41646e-05 1.75054e-05
2.07535e-05 -1.43174e-05 1.74354e-05
-1.76459e-06 -2.54462e-05 1.75108e-05
-1.68212e-06 2.54102e-05 1.75154e-05
1.77128e-05 -1.19067e-05 1.6687e-05
2.06455e-05 -1.07509e-05 1.71158e-05
3.7756e-06 -1.89849e-05 1.61392e-05
7.68524e-07 -2.03455e-05 1.64827e-05
-1.94048e-05 -1.26504e-05 1.7143e-05
-1.37309e-05 -2.30689e-06 1.44716e-05
-1.65925e-05 -3.70137e-06 1.54773e-05
-1.03757e-05 -1.09637e-06 1.29519e-05
2.44518e-05 1.10726e-05 1.76515e-05
2.54973e-05 -1.24031e-05 1.7848e-05
2.64924e-06 2.67257e-05 1.76603e-05
2.52099e-06 -2.64133e-05 1.76292e-05
3.33943e-06 -2.30316e-05 1.70289e-05
-2.05387e-06 -1.83196e-05 1.59507e-05
4.05903e-06 2.3791e-05 1.71302e-05
2.26139e-05 8.37912e-06 1.71191e-05
4.61354e-06 1.73131e-05 1.5727e-05
1.44268e-05 -1.31193e-05 1.61371e-05
-1.57874e-05 -1.09846e-05 1.62143e-05
-1.67995e-05 -3.81421e-07 1.53771e-05
1.73057e-05 4.6874e-06 1.57254e-05
6.55213e-08 -6.38722e-06 1.02672e-05
1.74169e-06 -4.84839e-06 9.09233e-06
5.85037e-06 -2.93547e-06 1.0378e-05
-2.14438e-05 3.75044e-06 1.64586e-05
5.72927e-06 -1.62742e-05 1.55075e-05
9.08331e-06 -1.74987e-05 1.59972e-05
1.75719e-05 1.18815e-05 1.66721e-05
1.3994e-05 -1.6382e-05 1.6401e-05
1.07398e-05 -1.37887e-05 1.55498e-05
-3.54792e-06 -4.22013e-06 9.5006e-06
5.39904e-06 1.13848e-06 9.49888e-06
5.21797e-06 3.22282e-06 1.0047e-05
-1.74978e-06 -2.83541e-05 1.78767e-05
1.89203e-06 5.29881e-06 9.58428e-06
-1.13821e-07 6.10491e-06 1.00386e-05
-3.78486e-06 4.12768e-06 9.57823e-06
-5.62259e-06 3.03414e-06 1.02851e-05
-5.16539e-06 1.04066e-06 9.21345e-06
-7.52712e-06 -6.17381e-08 1.11722e-05
-4.33431e-06 -8.10266e-07 8.38171e-06
-3.10854e-06 1.87231e-06 7.37394e-06
-2.20808e-05 -3.60768e-06 1.65156e-05
2.34059e-05 -1.56878e-05 1.78359e-05
-1.50718e-06 2.11676e-05 1.66818e-05
2.12613e-05 -8.45179e-08 1.62255e-05
1.76218e-05 -1.64677e-06 1.55812e-05
1.73474e-05 -4.94158e-06 1.57704e-05
2.18912e-05 -7.45098e-06 1.69134e-05
-2.31819e-05 -1.42544e-05 1.78325e-05
1.73243e-05 1.64884e-06 1.55083e-05
-1.73399e-06 2.84727e-05 1.78939e-05
-4.22065e-07 3.68336e-06 7.49517e-06
2.37716e-05 1.57421e-05 1.78844e-05
-1.74971e-05 1.5642e-05 1.69747e-05
-1.0626e-05 -1.84658e-05 1.62548e-05
-1.00994e-05 -1.43421e-05 1.55714e-05
-7.50764e-06 -1.60946e-05 1.56218e-05
-7.32201e-06 -2.01202e-05 1.6395e-05
-1.07043e-05 1.85349e-05 1.62665e-05
-1.03471e-05 1.43838e-05 1.56191e-05
-7.77252e-06 2.04921e-05 1.6444e-05
-4.25292e-06 1.86094e-05 1.60527e-05
1.07595e-05 1.83451e-05 1.62259e-05
1.38914e-05 1.69346e-05 1.64307e-05
1.40417e-05 1.29727e-05 1.6051e-05
-7.36145e-06 1.6288e-05 1.56382e-05
1.05249e-05 1.45468e-05 1.56449e-05
7.74862e-06 1.6092e-05 1.56137e-05
-3.11642e-06 -1.89874e-06 7.39306e-06
-7.25752e-06 -1.24218e-05 1.46249e-05
3.00862e-06 4.03596e-08 6.60087e-06
4.8725e-06 1.35225e-05 1.46178e-05
1.40758e-05 -2.26035e-06 1.45702e-05
-1.72895e-05 -1.52165e-05 1.69453e-05
-1.73662e-05 2.42026e-06 1.55976e-05
-1.22045e-05 8.91179e-06 1.49432e-05
-7.70551e-06 -2.29248e-06 1.15545e-05
-1.24496e-05 1.18124e-05 1.55397e-05
-1.42733e-07 -3.75417e-06 7.55406e-06
2.73019e-06 2.27205e-06 7.25181e-06
-2.00383e-06 -1.46502e-05 1.48078e-05
9.36494e-06 -1.00681e-05 1.43892e-05
1.38605e-05 3.15776e-06 1.45658e-05
-7.33992e-06 1.11992e-05 1.426e-05
4.99714e-06 -1.27746e-05 1.4369e-05
1.10317e-05 1.04303e-05 1.49194e-05
-3.59639e-06 1.4685e-05 1.49078e-05
-4.6354e-06 -1.66166e-05 1.55486e-05
-1.95068e-05 1.28923e-05 1.71611e-05
-2.31266e-05 1.4858e-05 1.78433e-05
-1.29047e-05 -1.26859e-05 1.58123e-05
3.76075e-06 -1.5861e-06 7.90683e-06
1.76437e-06 2.92225e-06 7.08433e-06
-9.23034e-06 -1.06093e-05 1.45316e-05
1.72772e-06 -2.82312e-06 6.93096e-06
9.94724e-07 2.41166e-05 1.73083e-05
2.13677e-05 1.11937e-05 1.72985e-05
-1.46644e-05 -7.95328e-06 1.54851e-05
1.37079e-05 -4.78625e-06 1.46904e-05
-1.90986e-06 -2.17627e-05 1.68026e-05
1.80602e-05 -8.41895e-06 1.63405e-05
-1.66787e-05 -6.32848e-06 1.57822e-05
-4.32896e-07 -1.9223e-06 4.79841e-06
-1.80535e-06 2.99541e-06 7.17707e-06
-2.50517e-05 -1.29817e-05 1.79221e-05
-2.51269e-05 -1.45071e-05 1.8002e-05
-2.50449e-05 1.30336e-05 1.79059e-05
-2.51178e-05 1.46498e-05 1.7982e-05
-1.64843e-06 -3.12481e-06 7.20981e-06
6.32786e-06 1.13682e-05 1.40764e-05
5.33708e-07 -2.40858e-05 1.73021e-05
-5.22772e-07 1.80952e-06 4.64495e-06
7.40736e-06 -1.43435e-05 1.51522e-05
2.33026e-05 -1.32092e-05 1.77287e-05
2.36324e-05 -1.05374e-05 1.74907e-05
1.19882e-05 -1.82107e-05 1.62931e-05
1.47299e-05 -1.01465e-05 1.57954e-05
-1.00269e-05 1.00123e-06 1.27545e-05
-1.74e-06 -8.15894e-07 4.72339e-06
7.69056e-07 3.70831e-06 7.57304e-06
2.34305e-06 -1.99714e-06 6.5552e-06
2.01563e-05 5.89774e-06 1.64534e-05
5.07003e-06 2.05957e-05 1.64958e-05
3.42117e-07 -2.76797e-05 1.78539e-05
-1.73121e-06 7.09104e-07 4.60626e-06
-3.21147e-06 6.23041e-07 6.82405e-06
3.57718e-06 1.4754e-06 7.63652e-06
4.99225e-07 2.83235e-05 1.79271e-05
2.47601e-05 1.37339e-05 1.79183e-05
-2.03281e-05 1.55357e-05 1.74289e-05
1.1787e-06 1.36446e-06 4.4598e-06
-2.06394e-05 -1.57283e-05 1.75275e-05
-1.89986e-05 -2.32215e-06 1.5946e-05
-1.95589e-05 -5.58491e-06 1.63321e-05
9.05673e-07 -3.24772e-06 7.00601e-06
-4.36597e-06 -1.97891e-05 1.63217e-05
-7.93718e-06 1.38342e-05 1.51009e-05
1.16574e-06 -1.30417e-06 4.33924e-06
1.19343e-05 -1.12282e-05 1.5292e-05
6.13301e-06 -2.26958e-05 1.68203e-05
-1.4522e-05 1.43552e-05 1.63235e-05
7.92897e-06 1.33211e-05 1.49478e-05
1.79366e-06 8.58736e-07 -4.55218e-06
1.7378e-06 -8.25104e-07 -4.46073e-06
4.31948e-07 1.8496e-06 -4.49505e-06
4.36093e-07 -1.78061e-06 -4.35602e-06
-1.84747e-06 2.09628e-08 -4.42229e-06
-1.12307e-06 -1.30886e-06 -4.15093e-06
-1.15919e-06 1.30678e-06 -4.19971e-06
-2.25127e-05 -7.28755e-06 -1.69997e-05
-2.21961e-05 7.37144e-06 -1.69684e-05
-4.86038e-06 2.28982e-05 -1.69368e-05
-4.8579e-06 -2.31313e-05 -1.69637e-05
1.7421e-05 1.56352e-05 -1.69296e-05
1.75685e-05 -1.55362e-05 -1.69389e-05
2.10732e-05 3.16382e-06 -1.63241e-05
-1.39529e-05 1.7151e-05 -1.64781e-05
-1.35909e-05 -1.6741e-05 -1.64097e-05
7.76773e-06 1.98192e-05 -1.63309e-05
7.68475e-06 -2.03096e-05 -1.64022e-05
2.1472e-05 -3.44367e-06 -1.63999e-05
-2.11024e-05 6.58808e-09 -1.62464e-05
-2.242e-05 1.09996e-05 -1.74534e-05
-1.87506e-05 9.25455e-06 -1.66268e-05
-1.79825e-05 5.79535e-06 -1.6036e-05
-1.49837e-05 7.44821e-06 -1.54861e-05
-1.42242e-05 4.30765e-06 -1.48294e-05
-1.15324e-05 5.74379e-06 -1.40944e-05
-1.08578e-05 3.06868e-06 -1.33732e-05
-8.40035e-06 4.3048e-06 -1.2404e-05
-9.05865e-06 7.01329e-06 -1.3456e-05
-6.204e-06 5.48842e-06 -1.16887e-05
-6.82819e-06 8.2493e-06 -1.30796e-05
-4.28133e-06 6.6748e-06 -1.14502e-05
-4.79993e-06 9.60976e-06 -1.30936e-05
-2.40083e-06 7.99322e-06 -1.17226e-05
-2.8128e-06 1.1167e-05 -1.34746e-05
-4.75402e-07 9.59514e-06 -1.25006e-05
-7.38341e-07 1.29967e-05 -1.41414e-05
1.73105e-06 1.15176e-05 -1.35346e-05
-5.53459e-06 1.27002e-05 -1.44366e-05
1.68505e-06 8.22384e-06 -1.17472e-05
4.00411e-06 1.01207e-05 -1.31506e-05
3.70529e-06 7.09784e-06 -1.14779e-05
6.0673e-06 8.96652e-06 -1.3113e-05
5.76673e-06 6.10669e-06 -1.17352e-05
8.35794e-06 8.02019e-06 -1.34917e-05
8.10552e-06 5.19518e-06 -1.25e-05
1.09538e-05 7.09693e-06 -1.41466e-05
1.07458e-05 4.32272e-06 -1.34987e-05
8.53038e-06 1.10373e-05 -1.44604e-05
7.93757e-06 2.6437e-06 -1.17271e-05
1.06458e-05 1.73717e-06 -1.31037e-05
7.94856e-06 3.58755e-07 -1.14553e-05
1.08062e-05 -7.591e-07 -1.31238e-05
8.11151e-06 -1.93777e-06 -1.17088e-05
1.10981e-05 -3.3128e-06 -1.34836e-05
8.4696e-06 -4.42391e-06 -1.24437e-05
1.15035e-05 -6.00278e-06 -1.4109e-05
8.95543e-06 -7.13799e-06 -1.34277e-05
6.14743e-06 -5.49433e-06 -1.1641e-05
6.64439e-06 -8.30073e-06 -1.30179e-05
4.10514e-06 -6.58841e-06 -1.13106e-05
4.52328e-06 -9.55071e-06 -1.2988e-05
2.24226e-06 -7.85816e-06 -1.15971e-05
2.4848e-06 -1.10017e-05 -1.33506e-05
2.25288e-07 -9.37354e-06 -1.23533e-05
3.30009e-07 -1.27696e-05 -1.40335e-05
-1.91541e-06 -1.11505e-05 -1.33767e-05
-1.84104e-06 -7.9215e-06 -1.15819e-05
-4.16783e-06 -9.8747e-06 -1.30847e-05
-3.81388e-06 -6.7304e-06 -1.13168e-05
-6.34552e-06 -8.66189e-06 -1.3099e-05
-5.89121e-06 -5.69793e-06 -1.16281e-05
-8.49959e-06 -7.43568e-06 -1.33794e-05
-8.16742e-06 -4.72799e-06 -1.24083e-05
-1.10955e-05 -6.40267e-06 -1.40696e-05
-4.37158e-06 -1.3123e-05 -1.44333e-05
-1.08087e-05 -3.65063e-06 -1.34389e-05
7.22601e-06 -1.13726e-05 -1.42726e-05
-7.74159e-06 1.98266e-06 -1.14926e-05
-1.32159e-05 1.03504e-06 -1.42106e-05
1.7291e-06 1.50826e-05 -1.49519e-05
1.37678e-05 4.6223e-07 -1.43875e-05
1.3843e-05 6.10001e-06 -1.49314e-05
-9.69391e-06 1.01961e-05 -1.45322e-05
-5.41594e-06 -3.19761e-06 -1.01819e-05
-1.17134e-05 -9.2972e-06 -1.48889e-05
1.18822e-05 -8.76008e-06 -1.47869e-05
1.47816e-05 -7.4735e-06 -1.54031e-05
-1.39595e-05 -5.24382e-06 -1.48614e-05
2.79578e-06 -1.45159e-05 -1.47959e-05
4.24558e-07 -1.64992e-05 -1.53975e-05
3.51839e-06 4.39688e-06 -9.58094e-06
1.40104e-05 9.29893e-06 -1.54913e-05
1.79305e-05 8.14484e-06 -1.63003e-05
-1.56752e-05 1.13952e-05 -1.62333e-05
-1.09407e-06 1.67689e-05 -1.54951e-05
1.90684e-06 1.96213e-05 -1.63107e-05
-2.09184e-06 5.22001e-06 -9.59744e-06
5.55387e-06 -7.84594e-07 -9.59398e-06
3.58591e-06 -3.68352e-06 -9.08183e-06
-1.77962e-06 -5.17851e-06 -9.44945e-06
-2.24685e-05 -1.10107e-05 -1.74741e-05
-1.87979e-05 -9.2413e-06 -1.66508e-05
2.11476e-05 1.41646e-05 -1.75054e-05
2.07535e-05 -1.43174e-05 -1.74354e-05
-1.76459e-06 -2.54462e-05 -1.75108e-05
-1.68212e-06 2.54102e-05 -1.75154e-05
1.77128e-05 -1.19067e-05 -1.6687e-05
2.06455e-05 -1.07509e-05 -1.71158e-05
3.7756e-06 -1.89849e-05 -1.61392e-05
7.68524e-07 -2.03455e-05 -1.64827e-05
-1.94048e-05 -1.26504e-05 -1.7143e-05
-1.37309e-05 -2.30689e-06 -1.44716e-05
-1.65925e-05 -3.70137e-06 -1.54773e-05
-1.03757e-05 -1.09637e-06 -1.29519e-05
2.44518e-05 1.10726e-05 -1.76515e-05
2.54973e-05 -1.24031e-05 -1.7848e-05
2.64924e-06 2.67257e-05 -1.76603e-05
2.52099e-06 -2.64133e-05 -1.76292e-05
3.33943e-06 -2.30316e-05 -1.70289e-05
-2.05387e-06 -1.83196e-05 -1.59507e-05
4.05903e-06 2.3791e-05 -1.71302e-05
2.26139e-05 8.37912e-06 -1.71191e-05
4.61354e-06 1.73131e-05 -1.5727e-05
1.44268e-05 -1.31193e-05 -1.61371e-05
-1.57874e-05 -1.09846e-05 -1.62143e-05
-1.67995e-05 -3.81421e-07 -1.53771e-05
1.73057e-05 4.6874e-06 -1.57254e-05
6.55213e-08 -6.38722e-06 -1.02672e-05
1.74169e-06 -4.84839e-06 -9.09233e-06
5.85037e-06 -2.93547e-06 -1.0378e-05
-2.14438e-05 3.75044e-06 -1.64586e-05
5.72927e-06 -1.62742e-05 -1.55075e-05
9.08331e-06 -1.74987e-05 -1.59972e-05
1.75719e-05 1.18815e-05 -1.66721e-05
1.3994e-05 -1.6382e-05 -1.6401e-05
1.07398e-05 -1.37887e-05 -1.55498e-05
-3.54792e-06 -4.22013e-06 -9.5006e-06
5.39904e-06 1.13848e-06 -9.49888e-06
5.21797e-06 3.22282e-06 -1.0047e-05
-1.74978e-06 -2.83541e-05 -1.78767e-05
1.89203e-06 5.29881e-06 -9.58428e-06
-1.13821e-07 6.10491e-06 -1.00386e-05
-3.78486e-06 4.12768e-06 -9.57823e-06
-5.62259e-06 3.03414e-06 -1.02851e-05
-5.16539e-06 1.04066e-06 -9.21345e-06
-7.52712e-06 -6.17381e-08 -1.11722e-05
-4.33431e-06 -8.10266e-07 -8.38171e-06
-3.10854e-06 1.87231e-06 -7.37394e-06
-2.20808e-05 -3.60768e-06 -1.65156e-05
2.34059e-05 -1.56878e-05 -1.78359e-05
-1.50718e-06 2.11676e-05 -1.66818e-05
2.12613e-05 -8.45179e-08 -1.62255e-05
1.76218e-05 -1.64677e-06 -1.55812e-05
1.73474e-05 -4.94158e-06 -1.57704e-05
2.18912e-05 -7.45098e-06 -1.69134e-05
-2.31819e-05 -1.42544e-05 -1.78325e-05
1.73243e-05 1.64884e-06 -1.55083e-05
-1.73399e-06 2.84727e-05 -1.78939e-05
-4.22065e-07 3.68336e-06 -7.49517e-06
2.37716e-05 1.57421e-05 -1.78844e-05
-1.74971e-05 1.5642e-05 -1.69747e-05
-1.0626e-05 -1.84658e-05 -1.62548e-05
-1.00994e-05 -1.43421e-05 -1.55714e-05
-7.50764e-06 -1.60946e-05 -1.56218e-05
-7.32201e-06 -2.01202e-05 -1.6395e-05
-1.07043e-05 1.85349e-05 -1.62665e-05
-1.03471e-05 1.43838e-05 -1.56191e-05
-7.77252e-06 2.04921e-05 -1.6444e-05
-4.25292e-06 1.86094e-05 -1.60527e-05
1.07595e-05 1.83451e-05 -1.62259e-05
1.38914e-05 1.69346e-05 -1.64307e-05
1.40417e-05 1.29727e-05 -1.6051e-05
-7.36145e-06 1.6288e-05 -1.56382e-05
1.05249e-05 1.45468e-05 -1.56449e-05
7.74862e-06 1.6092e-05 -1.56137e-05
-3.11642e-06 -1.89874e-06 -7.39306e-06
-7.25752e-06 -1.24218e-05 -1.46249e-05
3.00862e-06 4.03596e-08 -6.60087e-06
4.8725e-06 1.35225e-05 -1.46178e-05
1.40758e-05 -2.26035e-06 -1.45702e-05
-1.72895e-05 -1.52165e-05 -1.69453e-05
-1.73662e-05 2.42026e-06 -1.55976e-05
-1.22045e-05 8.91179e-06 -1.49432e-05
-7.70551e-06 -2.29248e-06 -1.15545e-05
-1.24496e-05 1.18124e-05 -1.55397e-05
-1.42733e-07 -3.75417e-06 -7.55406e-06
2.73019e-06 2.27205e-06 -7.25181e-06
-2.00383e-06 -1.46502e-05 -1.48078e-05
9.36494e-06 -1.00681e-05 -1.43892e-05
1.38605e-05 3.15776e-06 -1.45658e-05
-7.33992e-06 1.11992e-05 -1.426e-05
4.99714e-06 -1.27746e-05 -1.4369e-05
1.10317e-05 1.04303e-05 -1.49194e-05
-3.59639e-06 1.4685e-05 -1.49078e-05
-4.6354e-06 -1.66166e-05 -1.55486e-05
-1.95068e-05 1.28923e-05 -1.71611e-05
-2.31266e-05 1.4858e-05 -1.78433e-05
-1.29047e-05 -1.26859e-05 -1.58123e-05
3.76075e-06 -1.5861e-06 -7.90683e-06
1.76437e-06 2.92225e-06 -7.08433e-06
-9.23034e-06 -1.06093e-05 -1.45316e-05
1.72772e-06 -2.82312e-06 -6.93096e-06
9.94724e-07 2.41166e-05 -1.73083e-05
2.13677e-05 1.11937e-05 -1.72985e-05
-1.46644e-05 -7.95328e-06 -1.54851e-05
1.37079e-05 -4.78625e-06 -1.46904e-05
-1.90986e-06 -2.17627e-05 -1.68026e-05
1.80602e-05 -8.41895e-06 -1.63405e-05
-1.66787e-05 -6.32848e-06 -1.57822e-05
-4.32896e-07 -1.9223e-06 -4.79841e-06
-1.80535e-06 2.99541e-06 -7.17707e-06
-2.50517e-05 -1.29817e-05 -1.79221e-05
-2.51269e-05 -1.45071e-05 -1.8002e-05
-2.50449e-05 1.30336e-05 -1.79059e-05
-2.51178e-05 1.46498e-05 -1.7982e-05
-1.64843e-06 -3.12481e-06 -7.20981e-06
6.32786e-06 1.13682e-05 -1.40764e-05
5.33708e-07 -2.40858e-05 -1.73021e-05
-5.22772e-07 1.80952e-06 -4.64495e-06
7.40736e-06 -1.43435e-05 -1.51522e-05
2.33026e-05 -1.32092e-05 -1.77287e-05
2.36324e-05 -1.05374e-05 -1.74907e-05
1.19882e-05 -1.82107e-05 -1.62931e-05
1.47299e-05 -1.01465e-05 -1.57954e-05
-1.00269e-05 1.00123e-06 -1.27545e-05
-1.74e-06 -8.15894e-07 -4.72339e-06
7.69056e-07 3.70831e-06 -7.57304e-06
2.34305e-06 -1.99714e-06 -6.5552e-06
2.01563e-05 5.89774e-06 -1.64534e-05
5.07003e-06 2.05957e-05 -1.64958e-05
3.42117e-07 -2.76797e-05 -1.78539e-05
-1.73121e-06 7.09104e-07 -4.60626e-06
-3.21147e-06 6.23041e-07 -6.82405e-06
3.57718e-06 1.4754e-06 -7.63652e-06
4.99225e-07 2.83235e-05 -1.79271e-05
2.47601e-05 1.37339e-05 -1.79183e-05
-2.03281e-05 1.55357e-05 -1.74289e-05
1.1787e-06 1.36446e-06 -4.4598e-06
-2.06394e-05 -1.57283e-05 -1.75275e-05
-1.89986e-05 -2.32215e-06 -1.5946e-05
-1.95589e-05 -5.58491e-06 -1.63321e-05
9.05673e-07 -3.24772e-06 -7.00601e-06
-4.36597e-06 -1.97891e-05 -1.63217e-05
-7.93718e-06 1.38342e-05 -1.51009e-05
1.16574e-06 -1.30417e-06 -4.33924e-06
1.19343e-05 -1.12282e-05 -1.5292e-05
6.13301e-06 -2.26958e-05 -1.68203e-05
-1.4522e-05 1.43552e-05 -1.63235e-05
7.92897e-06 1.33211e-05 -1.49478e-05
SCALARS effective_fluid_pressure_TPM float
LOOKUP_TABLE default
665
665
665
665
665
665
665
665
665
665
665
665
665
665
133
665
665
665
665
665
665
665
665
665
665
665
665
665
665
133
665
560.314
520.657
502.797
502.568
519.784
559.935
665
561.981
520.752
503.24
503.35
520.684
561.603
665
559.601
519.655
502.742
502.96
521.153
561.619
665
558.858
518.999
501.53
502.226
518.848
559.446
665
558.498
519.939
501.863
501.794
519.372
557.937
665
558.654
519.953
502.036
501.897
519.36
559.66
133
133
133
133
133
133
665
560.314
520.657
502.797
502.568
519.784
559.935
665
561.981
520.752
503.24
503.35
520.684
561.603
665
559.601
519.655
502.742
502.96
521.153
561.619
665
558.858
518.999
501.53
502.226
518.848
559.446
665
558.498
519.939
501.863
501.794
519.372
557.937
665
558.654
519.953
502.036
501.897
519.36
559.66
133
133
133
133
133
133
228.254
226.324
227.037
224.106
225.521
219.843
220.86
529.158
528.168
526.547
527.926
526.574
527.627
498.693
503.54
501.578
498.934
501.45
501.232
494.313
562.497
518.972
495.018
480.724
461.344
443.264
425.032
402.106
427.257
385.252
417.724
379.599
417.887
385.937
427.373
404.284
444.367
429.062
450.244
386.546
419.287
380.194
418.299
386.176
427.746
404.212
444.478
428.146
450.84
386.021
418.151
379.61
418.507
385.544
427.582
402.905
443.54
426.437
384.037
416.123
376.294
415.33
383.01
424.404
400.831
441.69
425.211
382.746
417.763
376.558
418.081
383.832
425.251
402.198
442.662
450.634
426.711
445.992
380.719
444.658
465.273
448.725
464.747
453.395
350.895
463.488
461.02
478.427
462.756
460.626
478.332
337.27
480.804
505.836
503.596
480.87
506.143
337.682
337.494
326.158
334.408
563.372
519.647
567.573
562.359
567.891
567.744
521.796
542.708
498.608
513.72
542.053
451.437
477.554
414.642
579.515
611.026
579.668
576.028
534.542
494.458
538.216
537.913
485.014
498.094
503.312
473.116
485.062
352.739
326.408
355.169
503.422
477.693
488.336
520.865
502.004
477.89
335.533
335.397
347.692
613.443
337.371
347.563
337.257
353.195
329.182
373.246
310.653
288.782
504.688
608.378
521.086
493.697
478.303
486.331
526.48
600.337
476.54
615.897
291.391
615.795
528.708
494.509
478.21
479.384
501.292
494.815
479.411
502.487
495.151
493.72
502.239
495.224
479.858
480.023
479.025
289.288
454.566
271.937
454.974
453.602
526.989
479.447
465.197
382.088
480.483
292.664
286.076
461.453
449.607
453.951
445.829
448.663
463.578
463.235
479.927
543.448
601.698
487.467
300.295
282.456
452.987
279.157
552.231
551.99
480.749
457.992
526.211
508.163
488.565
233.725
284.553
614.504
636.32
615.138
636.677
285.274
441.314
553.071
230.482
467.525
590.259
566.025
495.789
490.024
410.019
232.115
293.09
271.121
507.871
509.169
607.811
229.659
276.97
294.424
618.876
618.789
558.505
226.518
562.518
488.287
503.37
280.841
504.041
466.352
224.004
473.559
519.556
502.956
462.418
228.254
226.324
227.037
224.106
225.521
219.843
220.86
529.158
528.168
526.547
527.926
526.574
527.627
498.693
503.54
501.578
498.934
501.45
501.232
494.313
562.497
518.972
495.018
480.724
461.344
443.264
425.032
402.106
427.257
385.252
417.724
379.599
417.887
385.937
427.373
404.284
444.367
429.062
450.244
386.546
419.287
380.194
418.299
386.176
427.746
404.212
444.478
428.146
450.84
386.021
418.151
379.61
418.507
385.544
427.582
402.905
443.54
426.437
384.037
416.123
376.294
415.33
383.01
424.404
400.831
441.69
425.211
382.746
417.763
376.558
418.081
383.832
425.251
402.198
442.662
450.634
426.711
445.992
380.719
444.658
465.273
448.725
464.747
453.395
350.895
463.488
461.02
478.427
462.756
460.626
478.332
337.27
480.804
505.836
503.596
480.87
506.143
337.682
337.494
326.158
334.408
563.372
519.647
567.573
562.359
567.891
567.744
521.796
542.708
498.608
513.72
542.053
451.437
477.554
414.642
579.515
611.026
579.668
576.028
534.542
494.458
538.216
537.913
485.014
498.094
503.312
473.116
485.062
352.739
326.408
355.169
503.422
477.693
488.336
520.865
502.004
477.89
335.533
335.397
347.692
613.443
337.371
347.563
337.257
353.195
329.182
373.246
310.653
288.782
504.688
608.378
521.086
493.697
478.303
486.331
526.48
600.337
476.54
615.897
291.391
615.795
528.708
494.509
478.21
479.384
501.292
494.815
479.411
502.487
495.151
493.72
502.239
495.224
479.858
480.023
479.025
289.288
454.566
271.937
454.974
453.602
526.989
479.447
465.197
382.088
480.483
292.664
286.076
461.453
449.607
453.951
445.829
448.663
463.578
463.235
479.927
543.448
601.698
487.467
300.295
282.456
452.987
279.157
552.231
551.99
480.749
457.992
526.211
508.163
488.565
233.725
284.553
614.504
636.32
615.138
636.677
285.274
441.314
553.071
230.482
467.525
590.259
566.025
495.789
490.024
410.019
232.115
293.09
271.121
507.871
509.169
607.811
229.659
276.97
294.424
618.876
618.789
558.505
226.518
562.518
488.287
503.37
280.841
504.041
466.352
224.004
473.559
519.556
502.956
462.418

CELL_DATA 563
TENSORS stress float
164.608 -24.9203 -1.80478e-12
-24.9203 28.1479 -1.75149e-12
-1.80478e-12 -1.75149e-12 -12.6048

-40.3384 -21.3202 -1.64002e-12
-21.3202 -7.35468 2.84987e-12
-1.64002e-12 2.84987e-12 -10.2314

-9.93972 28.0429 5.41078e-12
28.0429 -1.11021 -2.46766e-12
5.41078e-12 -2.46766e-12 -6.35975

-40.4266 -29.8427 -2.26811e-12
-29.8427 -12.8459 2.09136e-12
-2.26811e-12 2.09136e-12 -10.5977

-22.6926 19.9309 2.1491e-12
19.9309 -1.92219 -3.85477e-12
2.1491e-12 -3.85477e-12 -23.0217

-27.1389 -18.0742 4.84116e-12
-18.0742 15.8879 5.73408e-12
4.84116e-12 5.73408e-12 -6.41053

161.26 26.4844 1.16529e-12
26.4844 28.0246 2.6823e-12
1.16529e-12 2.6823e-12 -13.2637

-5.96121 29.9577 -6.69687e-13
29.9577 -10.1119 -2.67786e-12
-6.69687e-13 -2.67786e-12 -7.27583

34.6309 5.48308 1.4578e-12
5.48308 -19.0943 -3.062e-12
1.4578e-12 -3.062e-12 -4.12159

11.8603 -7.47756 5.26986e-13
-7.47756 -48.287 -1.96125e-12
5.26986e-13 -1.96125e-12 -8.94661

104.192 16.3083 -2.6598e-12
16.3083 -8.44344 1.27898e-13
-2.6598e-12 1.27898e-13 -22.4544

-34.6371 -13.4531 3.73213e-12
-13.4531 18.9658 -5.58191e-12
3.73213e-12 -5.58191e-12 -7.18009

-6.02577 27.8329 -1.15049e-12
27.8329 -4.59139 4.49418e-13
-1.15049e-12 4.49418e-13 -6.15869

-35.5513 -14.34 -1.26641e-12
-14.34 7.84497 1.89774e-12
-1.26641e-12 1.89774e-12 -9.13094

-23.6537 33.3115 -3.63561e-13
33.3115 -24.9943 -3.00833e-13
-3.63561e-13 -3.00833e-13 -21.3652

21.3107 0.560962 1.44655e-12
0.560962 -32.338 3.72135e-12
1.44655e-12 3.72135e-12 -5.58914

-48.9594 -17.9692 -3.01414e-12
-17.9692 6.34299 -2.96385e-12
-3.01414e-12 -2.96385e-12 -12.9458

11.6601 -2.6652 -1.47467e-12
-2.6652 -43.2483 1.89745e-12
-1.47467e-12 1.89745e-12 -8.03303

-11.3493 26.6734 6.76792e-13
26.6734 19.5173 -4.88913e-12
6.76792e-13 -4.88913e-12 -6.08886

21.7655 -4.19552 -3.09797e-12
-4.19552 -35.2939 -1.58836e-13
-3.09797e-12 -1.58836e-13 -6.74069

-24.4786 8.66847 -2.81301e-12
8.66847 32.1273 3.34902e-12
-2.81301e-12 3.34902e-12 -4.93375

-11.8088 6.28778 1.37582e-11
6.28778 -11.9742 -1.70234e-13
1.37582e-11 -1.70234e-13 -75.6222

22.7431 1.87596 -1.71715e-14
1.87596 -33.4682 -4.0179e-12
-1.71715e-14 -4.0179e-12 -6.67666

-12.3876 -27.7148 -3.26465e-12
-27.7148 1.59983 -2.35663e-12
-3.26465e-12 -2.35663e-12 -6.60217

21.3043 6.84932 2.79362e-12
6.84932 -34.3033 2.51399e-12
2.79362e-12 2.51399e-12 -6.80592

-37.9048 19.1128 5.62439e-13
19.1128 2.65398 1.58303e-12
5.62439e-13 1.58303e-12 -9.45718

106.601 4.18131 -2.66454e-12
4.18131 20.6024 7.25346e-14
-2.66454e-12 7.25346e-14 -12.0494

-5.30156 30.7456 4.27865e-12
30.7456 -7.27191 4.83169e-13
4.27865e-12 4.83169e-13 -7.44104

27.8898 37.0738 -3.34074e-12
37.0738 26.469 -3.15955e-12
-3.34074e-12 -3.15955e-12 -8.63182

-9.43909 10.3235 -5.20473e-13
10.3235 -32.9306 -1.70423e-12
-5.20473e-13 -1.70423e-12 -49.5097

19.8306 14.2168 -2.78e-12
14.2168 -29.3587 -4.63955e-12
-2.78e-12 -4.63955e-12 -6.00042

-4.20986 -17.7801 -3.70844e-12
-17.7801 59.657 -3.606e-12
-3.70844e-12 -3.606e-12 -8.47572

66.2822 -42.1011 -2.54848e-12
-42.1011 71.1373 -8.2423e-13
-2.54848e-12 -8.2423e-13 -11.2522

-48.2102 5.98684 2.44265e-12
5.98684 7.26963 -3.70311e-12
2.44265e-12 -3.70311e-12 -41.0382

-26.2912 -4.84082 -4.26503e-12
-4.84082 1.75673 5.19584e-13
-4.26503e-12 5.19584e-13 -37.8031

-1.46673 21.0279 2.80872e-12
21.0279 -39.5067 -6.57518e-12
2.80872e-12 -6.57518e-12 -41.1041

-43.9763 5.06763 2.09018e-13
5.06763 0.514238 2.72848e-12
2.09018e-13 2.72848e-12 -52.1922

-2.75998 -9.16989 -1.20141e-12
-9.16989 -20.77 -1.9314e-12
-1.20141e-12 -1.9314e-12 -35.8975

-3.97398 -27.9979 3.19744e-14
-27.9979 -4.61039 1.82669e-12
3.19744e-14 1.82669e-12 -5.99402

65.596 41.5204 -9.52127e-13
41.5204 73.165 4.358e-12
-9.52127e-13 4.358e-12 -10.964

60.1544 -17.9488 1.91018e-12
-17.9488 0.117302 -1.18779e-12
1.91018e-12 -1.18779e-12 -8.04972

-41.8041 -3.70617 5.00044e-13
-3.70617 -1.18565 2.99923e-12
5.00044e-13 2.99923e-12 -52.727

-14.5941 19.5557 2.80442e-13
19.5557 -28.5518 1.26121e-12
2.80442e-13 1.26121e-12 -52.8352

18.1409 -12.2732 -1.13095e-12
-12.2732 -29.8985 -1.8634e-12
-1.13095e-12 -1.8634e-12 -6.22261

38.1727 -43.2983 -2.2536e-12
-43.2983 41.8006 -7.78044e-13
-2.2536e-12 -7.78044e-13 -14.5589

58.1431 -18.0631 4.12115e-13
-18.0631 -2.30236 -4.41543e-12
4.12115e-13 -4.41543e-12 -7.91329

-21.4413 17.0854 -6.83749e-13
17.0854 30.3269 1.70589e-12
-6.83749e-13 1.70589e-12 -5.7278

-11.3723 19.3387 -4.76656e-12
19.3387 25.5104 7.40741e-13
-4.76656e-12 7.40741e-13 -3.92123

20.7911 -16.3009 -1.06641e-12
-16.3009 -33.1138 -1.43589e-13
-1.06641e-12 -1.43589e-13 -7.31117

12.6153 -34.1848 -5.37052e-13
-34.1848 46.4349 1.36779e-12
-5.37052e-13 1.36779e-12 -10.397

62.3591 19.1815 -1.67214e-12
19.1815 2.81053 5.80691e-12
-1.67214e-12 5.80691e-12 -8.41367

46.5129 -25.2879 -4.73695e-15
-25.2879 5.13429 8.48506e-13
-4.73695e-15 8.48506e-13 -5.60963

-31.8956 19.4858 -1.63973e-12
19.4858 -4.28557 1.01608e-12
-1.63973e-12 1.01608e-12 -26.0858

37.0387 29.6488 -3.23534e-12
29.6488 14.5127 -1.83083e-12
-3.23534e-12 -1.83083e-12 -5.43206

-27.45 -21.8128 -1.2097e-12
-21.8128 -8.22817 -4.84464e-13
-1.2097e-12 -4.84464e-13 -25.2481

64.8677 -42.7105 5.23907e-12
-42.7105 44.0794 8.69231e-13
5.23907e-12 8.69231e-13 -9.50207

-27.7497 5.45983 3.07458e-13
5.45983 2.66934 1.62241e-12
3.07458e-13 1.62241e-12 -38.3087

-5.55735 -5.32968 -6.1906e-13
-5.32968 57.3872 2.43598e-12
-6.1906e-13 2.43598e-12 -5.4491

-0.200046 10.3842 2.33739e-12
10.3842 -24.8482 4.19101e-12
2.33739e-12 4.19101e-12 -38.3703

-26.4846 21.4128 -4.3648e-12
21.4128 12.2196 1.03739e-12
-4.3648e-12 1.03739e-12 -6.86911

4.72651 5.75382 -1.1573e-12
5.75382 -56.04 -3.36294e-12
-1.1573e-12 -3.36294e-12 -13.9805

0.539731 11.4589 2.19469e-12
11.4589 -34.0564 1.10785e-12
2.19469e-12 1.10785e-12 -14.8396

106.342 31.8194 -2.65506e-12
31.8194 37.8324 5.30894e-12
-2.65506e-12 5.30894e-12 -7.48974

-35.4916 -6.03508 2.551e-12
-6.03508 10.6012 -3.70844e-12
2.551e-12 -3.70844e-12 -13.4787

-35.3599 9.51965 3.9894e-13
9.51965 1.23359 -4.05098e-12
3.9894e-13 -4.05098e-12 -14.9599

-42.5873 -2.88074 8.34037e-13
-2.88074 21.1109 2.14821e-12
8.34037e-13 2.14821e-12 -11.2385

-44.9077 23.4021 -2.27207e-12
23.4021 -5.89261 3.62673e-13
-2.27207e-12 3.62673e-13 -13.9215

9.97105 8.46344 1.33404e-12
8.46344 -42.3775 -3.38736e-12
1.33404e-12 -3.38736e-12 -9.07741

-12.334 -28.2389 -1.80952e-12
-28.2389 1.68748 3.14593e-12
-1.80952e-12 3.14593e-12 -6.67333

1.30886 -1.71121 1.25159e-12
-1.71121 -55.4561 5.86346e-13
1.25159e-12 5.86346e-13 -11.3036

-31.8851 -19.2619 -3.40542e-12
-19.2619 -4.59495 -5.60441e-13
-3.40542e-12 -5.60441e-13 -25.9551

-27.9755 21.3078 5.87974e-13
21.3078 -8.35801 4.24216e-12
5.87974e-13 4.24216e-12 -26.0135

-0.651433 -16.5831 -4.01412e-12
-16.5831 61.6727 -7.92255e-13
-4.01412e-12 -7.92255e-13 -7.94857

-0.650099 -27.936 1.19549e-12
-27.936 -21.3606 -1.66741e-12
1.19549e-12 -1.66741e-12 -12.7907

-14.0928 -25.1343 -2.03186e-12
-25.1343 7.40686 1.0522e-12
-2.03186e-12 1.0522e-12 -5.23544

91.6764 -31.71 4.58774e-12
-31.71 19.4846 -2.66957e-12
4.58774e-12 -2.66957e-12 -16.3333

-33.7058 3.22258 1.00083e-12
3.22258 9.19928 -1.84031e-12
1.00083e-12 -1.84031e-12 -18.5635

2.75233 28.9437 -1.11259e-12
28.9437 -24.4245 -1.68339e-12
-1.11259e-12 -1.68339e-12 -11.3162

-38.433 19.6641 1.69006e-12
19.6641 5.22976 7.63833e-14
1.69006e-12 7.63833e-14 -9.23465

50.1899 7.99938 -2.60769e-12
7.99938 -16.9631 1.19608e-12
-2.60769e-12 1.19608e-12 -7.0664

60.0306 -33.9349 -6.75016e-13
-33.9349 33.7865 -2.07242e-13
-6.75016e-13 -2.07242e-13 -6.98353

-18.9597 -10.5875 -6.82417e-13
-10.5875 -0.541822 2.53042e-12
-6.82417e-13 2.53042e-12 -25.4315

-33.9261 23.8994 6.79456e-13
23.8994 -12.023 -2.10885e-12
6.79456e-13 -2.10885e-12 -14.54

58.1554 -32.3832 -9.33179e-13
-32.3832 18.0913 1.77162e-12
-9.33179e-13 1.77162e-12 -10.1335

66.8587 10.7909 1.82728e-12
10.7909 8.51339 -7.94772e-13
1.82728e-12 -7.94772e-13 -5.08409

7.67416 -21.2056 -2.33561e-12
-21.2056 88.4631 -5.32907e-12
-2.33561e-12 -5.32907e-12 -11.8622

-33.9851 14.4255 -2.59393e-12
14.4255 20.2383 -9.84102e-13
-2.59393e-12 -9.84102e-13 -7.54588

8.47557 23.1428 3.05e-12
23.1428 -26.0736 4.32247e-13
3.05e-12 4.32247e-13 -11.2988

34.8683 42.1979 1.79294e-12
42.1979 46.1987 7.14569e-12
1.79294e-12 7.14569e-12 -14.4204

-4.39443 16.5072 -7.177e-12
16.5072 -35.5422 1.03496e-11
-7.177e-12 1.03496e-11 -73.2887

-5.97944 -4.10827 -2.59318e-12
-4.10827 57.9477 5.09578e-12
-2.59318e-12 5.09578e-12 -5.44129

-1.81878 -16.6323 -1.4442e-11
-16.6323 -39.4024 1.22317e-12
-1.4442e-11 1.22317e-12 -74.112

-3.32934 -27.335 -1.99248e-12
-27.335 -30.0298 2.57513e-12
-1.99248e-12 2.57513e-12 -21.5543

8.9672 27.4245 4.41129e-12
27.4245 -29.9945 -2.81405e-12
4.41129e-12 -2.81405e-12 -11.2568

45.7107 -24.4101 -5.04485e-13
-24.4101 5.02459 -9.07422e-13
-5.04485e-13 -9.07422e-13 -5.23571

10.0955 31.3226 -9.61009e-13
31.3226 47.1627 -2.11031e-12
-9.61009e-13 -2.11031e-12 -9.64001

14.2724 -10.7049 -5.00755e-12
-10.7049 82.8376 -1.65793e-12
-5.00755e-12 -1.65793e-12 -6.44684

-38.6329 21.9706 -1.47008e-12
21.9706 2.94159 -1.21976e-13
-1.47008e-12 -1.21976e-13 -8.56861

1.19265 16.794 -1.07262e-12
16.794 -25.722 1.55638e-12
-1.07262e-12 1.55638e-12 -18.5676

-26.5375 15.1537 1.75534e-12
15.1537 18.4493 -2.06768e-12
1.75534e-12 -2.06768e-12 -5.70751

43.6583 15.9536 -1.00897e-12
15.9536 -7.28457 9.44282e-13
-1.00897e-12 9.44282e-13 -4.07468

12.5771 -21.4721 -2.60532e-12
-21.4721 57.9549 -6.44225e-13
-2.60532e-12 -6.44225e-13 -4.7137

65.9955 -29.39 -1.30266e-12
-29.39 18.6435 8.78112e-13
-1.30266e-12 8.78112e-13 -9.33505

-32.3809 -24.5728 -2.35219e-12
-24.5728 -7.28153 -3.41416e-12
-2.35219e-12 -3.41416e-12 -8.97584

-22.6667 27.4507 -2.64914e-12
27.4507 -10.3499 -1.76067e-12
-2.64914e-12 -1.76067e-12 -9.28344

-38.3511 23.1875 4.18021e-12
23.1875 1.9911 1.91817e-12
4.18021e-12 1.91817e-12 -8.52451

-51.5532 13.1692 -1.59445e-12
13.1692 11.9271 -3.36146e-12
-1.59445e-12 -3.36146e-12 -16.4662

23.4845 9.37219 2.12926e-12
9.37219 -29.4872 6.5592e-13
2.12926e-12 6.5592e-13 -5.321

3.76888 -4.66497 -1.89419e-12
-4.66497 79.4369 -2.36137e-12
-1.89419e-12 -2.36137e-12 -9.53117

-44.94 -36.8334 -5.69618e-13
-36.8334 -19.8289 -2.89561e-12
-5.69618e-13 -2.89561e-12 -14.7704

-16.0791 27.4649 3.71495e-12
27.4649 1.34121 2.35071e-13
3.71495e-12 2.35071e-13 -6.91412

-5.01494 2.1703 -6.79753e-12
2.1703 82.6722 -3.25902e-12
-6.79753e-12 -3.25902e-12 -13.4309

69.0444 34.6097 2.33295e-12
34.6097 15.4966 4.4776e-12
2.33295e-12 4.4776e-12 -10.7057

-31.3514 -22.9736 -1.91358e-12
-22.9736 -4.63234 -2.61302e-12
-1.91358e-12 -2.61302e-12 -8.52933

11.7429 5.73296 -7.8515e-13
5.73296 -48.3358 5.10999e-13
-7.8515e-13 5.10999e-13 -8.64091

43.0652 27.2035 -1.8486e-12
27.2035 10.4522 8.7752e-13
-1.8486e-12 8.7752e-13 -5.08045

-9.41493 12.7455 1.43071e-12
12.7455 -14.039 -3.22053e-12
1.43071e-12 -3.22053e-12 -37.0412

70.3335 24.33 3.76114e-12
24.33 23.8048 4.48056e-12
3.76114e-12 4.48056e-12 -6.79932

-10.5861 -13.0551 3.23859e-12
-13.0551 -13.9208 -2.91589e-12
3.23859e-12 -2.91589e-12 -37.379

-4.37912 0.778517 -1.9161e-12
0.778517 59.3972 4.5001e-14
-1.9161e-12 4.5001e-14 -4.8303

38.3565 -2.23527 1.71359e-12
-2.23527 -23.81 -3.46441e-12
1.71359e-12 -3.46441e-12 -5.83183

3.59377 -15.7681 3.87542e-13
-15.7681 -53.9714 -6.30311e-13
3.87542e-13 -6.30311e-13 -21.1243

-42.2769 24.3881 5.10719e-13
24.3881 -11.7369 3.0312e-12
5.10719e-13 3.0312e-12 -11.1671

-46.8123 -13.535 -1.61737e-12
-13.535 11.0674 3.06777e-12
-1.61737e-12 3.06777e-12 -12.3536

5.8102 -8.00002 2.25005e-13
-8.00002 -70.9678 -2.27492e-12
2.25005e-13 -2.27492e-12 -14.8817

-49.5391 -22.2842 2.58815e-12
-22.2842 3.74862 3.3508e-12
2.58815e-12 3.3508e-12 -22.1042

-17.4593 -6.59638 -9.17784e-15
-6.59638 -13.1158 2.38513e-12
-9.17784e-15 2.38513e-12 -34.7819

-28.7296 -29.9081 7.75676e-13
-29.9081 -9.39984 -3.76144e-12
7.75676e-13 -3.76144e-12 -8.99564

15.6935 11.4534 9.55887e-12
11.4534 80.1791 3.98378e-12
9.55887e-12 3.98378e-12 -6.5305

42.2895 -28.1459 -2.41111e-12
-28.1459 11.051 -4.01516e-12
-2.41111e-12 -4.01516e-12 -5.04369

-47.1705 -13.7723 1.8392e-12
-13.7723 4.19613 1.95162e-12
1.8392e-12 1.95162e-12 -29.3009

2.96489 0.504392 2.40178e-12
0.504392 -56.8117 1.70234e-12
2.40178e-12 1.70234e-12 -11.0048

-39.3364 -21.5246 5.23729e-13
-21.5246 -8.85732 1.84475e-12
5.23729e-13 1.84475e-12 -14.774

-40.1948 25.6976 6.90559e-13
25.6976 -14.6914 2.56132e-12
6.90559e-13 2.56132e-12 -11.3105

32.2602 -31.4637 4.43971e-12
-31.4637 38.429 9.80549e-13
4.43971e-12 9.80549e-13 -4.64787

-31.4688 -7.08518 -7.47365e-12
-7.08518 1.70022 -5.14729e-12
-7.47365e-12 -5.14729e-12 -40.9933

36.6296 -33.0761 4.31181e-12
-33.0761 72.0262 3.98378e-12
4.31181e-12 3.98378e-12 -7.14463

16.6125 -19.1794 -1.72662e-12
-19.1794 -25.8694 -2.43598e-12
-1.72662e-12 -2.43598e-12 -7.13288

1.50261 1.9702 -4.31929e-12
1.9702 -51.3914 -5.32285e-12
-4.31929e-12 -5.32285e-12 -15.3741

-12.8762 17.8751 4.37576e-13
17.8751 -16.9548 3.94351e-13
4.37576e-13 3.94351e-13 -41.0609

10.7133 20.1824 1.63958e-12
20.1824 59.4533 -1.067e-11
1.63958e-12 -1.067e-11 -4.35634

4.3185 27.2102 -3.10448e-12
27.2102 -16.2235 1.53951e-12
-3.10448e-12 1.53951e-12 -8.12389

30.9042 -24.5111 5.34683e-12
-24.5111 -8.13185 1.6683e-12
5.34683e-12 1.6683e-12 -4.87173

-37.787 -17.8384 -8.73135e-13
-17.8384 2.40088 2.72641e-12
-8.73135e-13 2.72641e-12 -9.86404

55.5129 35.0674 2.56151e-12
35.0674 42.3449 7.11727e-12
2.56151e-12 7.11727e-12 -6.63613

-40.0147 -21.831 2.60251e-12
-21.831 2.53688 1.70471e-12
2.60251e-12 1.70471e-12 -9.39355

2.96667 30.8502 -4.22891e-12
30.8502 -17.3879 1.39207e-12
-4.22891e-12 1.39207e-12 -9.07787

18.5373 -25.2437 -6.47127e-12
-25.2437 -19.4174 -1.82728e-12
-6.47127e-12 -1.82728e-12 -6.34204

-15.6534 -25.126 -6.91595e-12
-25.126 5.89568 -3.80259e-12
-6.91595e-12 -3.80259e-12 -5.77507

42.7178 -18.6877 2.53308e-12
-18.6877 -9.16528 2.60236e-12
2.53308e-12 2.60236e-12 -5.36867

27.4317 -18.8492 -4.40418e-12
-18.8492 -20.3678 -5.09222e-13
-4.40418e-12 -5.09222e-13 -5.68929

-41.3937 -25.3369 -2.11298e-12
-25.3369 -14.964 5.05903e-12
-2.11298e-12 5.05903e-12 -11.5667

29.7807 35.9685 -2.2536e-12
35.9685 25.2269 2.68822e-12
-2.2536e-12 2.68822e-12 -8.64394

-28.5178 15.3765 -5.07002e-13
15.3765 18.5188 1.25529e-12
-5.07002e-13 1.25529e-12 -5.87353

-23.1078 26.4219 -9.48575e-13
26.4219 -12.5465 -1.5404e-12
-9.48575e-13 -1.5404e-12 -9.95768

-42.0964 25.4736 2.63648e-12
25.4736 -11.5925 1.89967e-12
2.63648e-12 1.89967e-12 -10.9924

-37.2881 11.6213 -4.15457e-12
11.6213 11.8441 4.19043e-12
-4.15457e-12 4.19043e-12 -9.08013

64.3921 -8.22679 2.67046e-12
-8.22679 3.198 -4.67774e-14
2.67046e-12 -4.67774e-14 -4.25045

8.73408 18.6059 1.18957e-12
18.6059 59.2191 -4.08681e-12
1.18957e-12 -4.08681e-12 -4.16193

-25.6142 -24.3802 -2.60059e-12
-24.3802 0.458497 -7.30379e-13
-2.60059e-12 -7.30379e-13 -7.21509

-1.14132 25.6654 -1.99544e-13
25.6654 13.7523 -5.73053e-12
-1.99544e-13 -5.73053e-12 -4.08218

32.3783 -35.6284 1.49925e-12
-35.6284 21.7 -9.62193e-13
1.49925e-12 -9.62193e-13 -8.48565

59.5352 38.3156 7.3103e-12
38.3156 17.8476 -9.20153e-13
7.3103e-12 -9.20153e-13 -13.722

12.1252 -33.3102 5.01051e-12
-33.3102 42.9128 -8.73968e-13
5.01051e-12 -8.73968e-13 -9.54228

30.5511 -31.1587 1.11674e-12
-31.1587 36.8131 -2.73796e-12
1.11674e-12 -2.73796e-12 -4.40503

11.7688 -6.83865 2.9073e-12
-6.83865 -48.8378 -3.3921e-13
2.9073e-12 -3.3921e-13 -8.76975

25.2743 30.3409 1.54543e-12
30.3409 41.0885 -5.22367e-12
1.54543e-12 -5.22367e-12 -4.45553

62.6811 13.2943 -4.07378e-12
13.2943 5.22846 1.62833e-14
-4.07378e-12 1.62833e-14 -4.30504

-7.02522 13.3785 4.0498e-12
13.3785 61.3432 -1.77162e-12
4.0498e-12 -1.77162e-12 -8.6945

11.7298 -22.3397 6.39015e-12
-22.3397 55.7624 -6.82358e-12
6.39015e-12 -6.82358e-12 -4.30099

-47.2606 -1.09148 -3.13956e-12
-1.09148 12.4096 -9.54496e-13
-3.13956e-12 -9.54496e-13 -22.1621

-5.91855 2.24654 -2.60088e-12
2.24654 59.0035 3.53732e-12
-2.60088e-12 3.53732e-12 -5.26201

6.26894 31.0884 -3.18205e-12
31.0884 47.8645 -6.987e-12
-3.18205e-12 -6.987e-12 -9.66007

-39.7251 12.1077 -4.24338e-12
12.1077 12.8448 3.12047e-12
-4.24338e-12 3.12047e-12 -9.3126

40.7378 -27.6469 6.13435e-13
-27.6469 8.35778 3.08139e-12
6.13435e-13 3.08139e-12 -5.64146

7.5401 20.5569 3.87838e-13
20.5569 -47.4668 -8.91139e-14
3.87838e-13 -8.91139e-14 -16.4816

-3.42102 26.2704 -1.60464e-12
26.2704 -31.4867 2.43568e-12
-1.60464e-12 2.43568e-12 -22.2525

15.7774 -18.5673 9.26074e-13
-18.5673 -30.0125 -2.46647e-12
9.26074e-13 -2.46647e-12 -8.18248

4.42877 -1.80104 2.81656e-12
-1.80104 -34.133 -2.46825e-12
2.81656e-12 -2.46825e-12 -24.4396

-14.3394 -31.8116 2.74121e-12
-31.8116 -11.9301 -4.06934e-12
2.74121e-12 -4.06934e-12 -9.04901

56.2174 23.3272 -7.1824e-12
23.3272 0.817194 -2.24354e-12
-7.1824e-12 -2.24354e-12 -8.28753

-27.8279 30.162 -5.93303e-13
30.162 -9.23639 3.03165e-13
-5.93303e-13 3.03165e-13 -8.79989

-27.0035 29.2058 1.06611e-12
29.2058 -9.20176 -1.7657e-12
1.06611e-12 -1.7657e-12 -8.67717

28.6284 30.66 3.39876e-13
30.66 40.4054 -2.72256e-12
3.39876e-13 -2.72256e-12 -4.44855

0.343102 27.0848 6.32383e-13
27.0848 -19.8455 -4.26296e-12
6.32383e-13 -4.26296e-12 -11.7768

64.507 3.52506 8.23045e-13
3.52506 -11.8251 -1.1439e-12
8.23045e-13 -1.1439e-12 -10.0179

-14.8996 31.8172 2.01143e-12
31.8172 -20.7987 5.70507e-13
2.01143e-12 5.70507e-13 -12.4472

-37.9437 -12.5997 -2.78718e-12
-12.5997 8.18002 2.38742e-12
-2.78718e-12 2.38742e-12 -14.0226

-0.475051 24.2782 -8.55908e-13
24.2782 -29.999 -1.32043e-12
-8.55908e-13 -1.32043e-12 -20.7714

-23.7273 -29.5786 -1.49362e-12
-29.5786 -11.9349 -2.31785e-12
-1.49362e-12 -2.31785e-12 -8.84283

-38.1479 -4.8981 4.12566e-12
-4.8981 18.8465 5.59552e-13
4.12566e-12 5.59552e-13 -11.7298

69.9435 -24.5557 -4.60432e-12
-24.5557 18.0288 -2.63375e-12
-4.60432e-12 -2.63375e-12 -7.04407

39.9817 29.6924 -9.21337e-13
29.6924 13.4795 1.06581e-13
-9.21337e-13 1.06581e-13 -5.21456

-4.29566 14.6961 2.97244e-12
14.6961 60.5705 -5.43565e-12
2.97244e-12 -5.43565e-12 -8.40044

1.61143 -1.13886 -1.00246e-12
-1.13886 -56.1232 2.01394e-13
-1.00246e-12 2.01394e-13 -11.2088

9.61413 0.0022329 4.85241e-13
0.0022329 -44.7535 3.92514e-12
4.85241e-13 3.92514e-12 -8.4374

-31.0784 23.1237 -1.96361e-12
23.1237 -4.33703 -1.74438e-12
-1.96361e-12 -1.74438e-12 -8.45785

-34.7625 23.8709 2.43835e-12
23.8709 -13.1924 2.76316e-13
2.43835e-12 2.76316e-13 -14.8128

-43.3785 -24.3807 2.34549e-12
-24.3807 -12.6139 3.22646e-12
2.34549e-12 3.22646e-12 -11.4682

-39.0588 -0.672713 -5.60903e-13
-0.672713 21.0464 2.81967e-12
-5.60903e-13 2.81967e-12 -10.4952

-40.8066 25.5903 1.84193e-12
25.5903 -13.2224 2.61006e-12
1.84193e-12 2.61006e-12 -11.1719

32.3214 -10.3077 3.19034e-12
-10.3077 -25.1529 -1.92291e-13
3.19034e-12 -1.92291e-13 -6.01364

8.70691 -32.8328 3.79015e-12
-32.8328 22.7976 -1.67629e-12
3.79015e-12 -1.67629e-12 -6.9915

2.39687 -2.30062 -1.76333e-12
-2.30062 -49.9606 1.04154e-12
-1.76333e-12 1.04154e-12 -14.7724

36.7453 -34.5075 4.21115e-12
-34.5075 24.4796 3.52903e-12
4.21115e-12 3.52903e-12 -7.70874

-38.2937 19.0861 -1.95399e-14
19.0861 -7.0937 -1.53655e-13
-1.95399e-14 -1.53655e-13 -14.4492

7.87076 -26.4786 -1.578e-12
-26.4786 -27.9942 -2.81108e-12
-1.578e-12 -2.81108e-12 -10.9687

63.9466 -9.69005 4.03588e-12
-9.69005 5.67776 1.78405e-12
4.03588e-12 1.78405e-12 -5.07194

6.0409 -23.1919 -6.88634e-13
-23.1919 -35.468 -2.68704e-12
-6.88634e-13 -2.68704e-12 -17.736

0.141356 2.35826 1.36661e-12
2.35826 -56.174 2.72626e-12
1.36661e-12 2.72626e-12 -11.5457

-4.062 -23.3213 1.22509e-12
-23.3213 -23.4116 5.43565e-13
1.22509e-12 5.43565e-13 -16.7199

11.0388 -25.8594 -6.62226e-12
-25.8594 -29.4855 1.6079e-12
-6.62226e-12 1.6079e-12 -9.73325

10.2014 -8.54602 1.25204e-12
-8.54602 -43.4895 -1.06197e-12
1.25204e-12 -1.06197e-12 -9.28095

-35.4182 -23.0681 -3.30787e-12
-23.0681 -12.6457 2.94459e-12
-3.30787e-12 2.94459e-12 -15.1029

23.6642 -31.3413 -3.12402e-12
-31.3413 5.71269 -8.87586e-13
-3.12402e-12 -8.87586e-13 -5.87773

11.0599 -24.587 -6.19416e-12
-24.587 -27.4943 4.91873e-12
-6.19416e-12 4.91873e-12 -10.0478

46.6426 10.8643 -4.89682e-12
10.8643 -16.1166 -4.48708e-12
-4.89682e-12 -4.48708e-12 -6.79936

-14.1861 26.3401 8.85514e-13
26.3401 -15.6395 2.4339e-12
8.85514e-13 2.4339e-12 -14.1188

-45.2519 -37.613 -2.63226e-12
-37.613 -20.6125 2.7186e-12
-2.63226e-12 2.7186e-12 -14.9189

-43.7086 37.2653 1.50398e-12
37.2653 -21.2663 6.15212e-13
1.50398e-12 6.15212e-13 -14.7693

-61.1853 -28.5735 5.94302e-13
-28.5735 -7.49704 -2.28588e-12
5.94302e-13 -2.28588e-12 -15.1993

-58.4162 27.0642 4.28331e-12
27.0642 -6.27167 -3.81029e-13
4.28331e-12 -3.81029e-13 -14.4779

5.60068 -8.52768 5.15736e-13
-8.52768 -71.0642 1.43322e-12
5.15736e-13 1.43322e-12 -14.7095

4.3974 9.27369 3.64745e-13
9.27369 -68.8329 -9.79661e-13
3.64745e-13 -9.79661e-13 -14.4375

9.02398 -9.84608 1.7358e-12
-9.84608 -40.8896 2.48142e-12
1.7358e-12 2.48142e-12 -9.61145

-24.3355 32.1163 1.98922e-12
32.1163 -24.8102 -2.02797e-12
1.98922e-12 -2.02797e-12 -21.1453

-25.5229 -32.8544 -8.93804e-13
-32.8544 -25.0962 6.67263e-13
-8.93804e-13 6.67263e-13 -21.4695

-53.9202 16.0685 -1.80937e-12
16.0685 3.40187 1.33316e-12
-1.80937e-12 1.33316e-12 -21.4029

-52.421 -15.801 2.43361e-13
-15.801 3.29718 -2.66483e-12
2.43361e-13 -2.66483e-12 -21.0762

6.11236 -3.7475 3.50978e-13
-3.7475 -43.9253 5.36164e-12
3.50978e-13 5.36164e-12 -25.7653

6.91853 3.61027 4.41854e-12
3.61027 -46.3488 -2.89546e-13
4.41854e-12 -2.89546e-13 -26.1417

-15.6253 9.83672 -8.06466e-13
9.83672 46.2622 3.5385e-12
-8.06466e-13 3.5385e-12 -5.84753

-22.9184 -24.774 3.07517e-12
-24.774 -14.5522 6.4837e-13
3.07517e-12 6.4837e-13 -10.3295

-56.6038 -36.3876 -2.97088e-12
-36.3876 -14.5327 1.95962e-12
-2.97088e-12 1.95962e-12 -13.4369

33.3581 -4.66424 9.46206e-13
-4.66424 -19.8465 -1.73498e-12
9.46206e-13 -1.73498e-12 -3.94464

3.43345 -16.6948 -1.89952e-12
-16.6948 -52.629 1.72159e-12
-1.89952e-12 1.72159e-12 -21.5328

3.67458 16.1758 1.14397e-12
16.1758 -51.8847 3.44761e-12
1.14397e-12 3.44761e-12 -21.4061

6.55578 0.121883 2.34716e-12
0.121883 -76.7551 4.06838e-12
2.34716e-12 4.06838e-12 -13.3037

-7.56913 23.3748 2.69118e-12
23.3748 39.9354 -1.78583e-12
2.69118e-12 -1.78583e-12 -6.88482

-56.8895 36.1716 3.2235e-12
36.1716 -14.0114 1.53462e-12
3.2235e-12 1.53462e-12 -13.3885

-39.7945 -23.3957 7.90627e-13
-23.3957 2.56159 4.74643e-12
7.90627e-13 4.74643e-12 -8.80053

37.1165 23.3524 1.44003e-12
23.3524 -8.61266 3.41061e-12
1.44003e-12 3.41061e-12 -5.75816

4.73543 23.8581 3.05948e-12
23.8581 -38.2258 -3.81384e-12
3.05948e-12 -3.81384e-12 -18.9858

24.0134 -31.3131 -1.91847e-13
-31.3131 6.40855 5.16328e-12
-1.91847e-13 5.16328e-12 -5.64771

2.43081 -3.23088 -1.29319e-12
-3.23088 -48.3697 -2.62427e-12
-1.29319e-12 -2.62427e-12 -14.7425

-60.458 -34.1611 5.34424e-12
-34.1611 -14.3498 -1.25233e-12
5.34424e-12 -1.25233e-12 -14.0306

-17.4521 8.31984 -3.2563e-12
8.31984 45.6915 2.46795e-12
-3.2563e-12 2.46795e-12 -5.78057

-9.46836 21.8112 2.00758e-12
21.8112 40.4248 -1.18424e-14
2.00758e-12 -1.18424e-14 -6.6533

58.6031 35.7753 2.7877e-12
35.7753 37.0878 3.53732e-12
2.7877e-12 3.53732e-12 -6.91571

70.4833 1.57873 4.35444e-12
1.57873 -5.54257 2.72715e-12
4.35444e-12 2.72715e-12 -10.3737

-30.7595 -22.8044 -1.50931e-12
-22.8044 -13.3563 -7.84965e-13
-1.50931e-12 -7.84965e-13 -14.4659

32.8411 31.1834 8.3323e-12
31.1834 69.7936 4.50958e-12
8.3323e-12 4.50958e-12 -6.67922

-19.3762 23.6098 3.44791e-12
23.6098 7.68695 4.07378e-12
3.44791e-12 4.07378e-12 -5.51283

47.6367 -5.34947 -1.67807e-12
-5.34947 -17.4326 -1.01104e-13
-1.67807e-12 -1.01104e-13 -6.82131

33.2193 11.2159 -7.10543e-15
11.2159 -23.6363 -1.7506e-12
-7.10543e-15 -1.7506e-12 -6.0134

6.2543 0.429906 1.94866e-12
0.429906 -77.5525 1.30246e-12
1.94866e-12 1.30246e-12 -13.4494

-58.936 -29.0312 7.83003e-13
-29.0312 -6.28807 -8.63309e-13
7.83003e-13 -8.63309e-13 -14.6969

-28.332 -6.31903 2.08196e-12
-6.31903 -11.3586 3.55952e-12
2.08196e-12 3.55952e-12 -51.5901

-44.6982 37.4117 -2.11031e-12
37.4117 -20.8115 3.39499e-12
-2.11031e-12 3.39499e-12 -14.7733

93.7895 1.66327 2.64085e-12
1.66327 16.6554 5.35675e-12
2.64085e-12 5.35675e-12 -6.04296

10.0366 -32.7864 -1.1949e-12
-32.7864 21.3109 8.68638e-13
-1.1949e-12 8.68638e-13 -6.80775

-56.9363 36.6131 3.23408e-12
36.6131 -14.5712 2.085e-12
3.23408e-12 2.085e-12 -13.5048

-35.0787 -11.1338 -7.00347e-13
-11.1338 19.1771 -4.22418e-12
-7.00347e-13 -4.22418e-12 -8.31605

-5.47707 -25.5142 -2.65417e-12
-25.5142 37.35 -5.79448e-12
-2.65417e-12 -5.79448e-12 -6.98659

-58.4525 28.8301 9.70335e-13
28.8301 -6.27145 -9.79365e-13
9.70335e-13 -9.79365e-13 -14.6139

28.4958 -26.1415 3.56692e-12
-26.1415 -4.91217 -3.19093e-12
3.56692e-12 -3.19093e-12 -4.69677

-21.1708 10.4834 3.70963e-12
10.4834 -18.559 -2.31082e-12
3.70963e-12 -2.31082e-12 -51.6856

3.43316 30.8715 5.48598e-12
30.8715 27.1625 4.1247e-12
5.48598e-12 4.1247e-12 -6.73254

6.14063 8.12677 -2.83329e-12
8.12677 -72.298 -3.10478e-12
-2.83329e-12 -3.10478e-12 -14.9841

-11.5456 30.1906 2.09314e-13
30.1906 -20.6032 -1.10904e-12
2.09314e-13 -1.10904e-12 -11.5489

-30.7973 23.3317 1.4122e-12
23.3317 -5.09961 8.60645e-13
1.4122e-12 8.60645e-13 -8.46391

-25.8637 -32.489 -9.20745e-13
-32.489 -24.1129 3.02873e-12
-9.20745e-13 3.02873e-12 -21.559

9.20555 -23.19 -1.23753e-13
-23.19 -27.922 -1.82698e-12
-1.23753e-13 -1.82698e-12 -11.4254

-37.6607 10.4708 5.89898e-14
10.4708 8.9289 3.89733e-12
5.89898e-14 3.89733e-12 -25.3313

-23.0402 -23.4336 -3.99355e-12
-23.4336 4.95252 3.48876e-12
-3.99355e-12 3.48876e-12 -6.26254

88.8024 -9.70764 2.04873e-12
-9.70764 10.8074 -1.73017e-12
2.04873e-12 -1.73017e-12 -10.0307

84.0425 -14.277 1.77162e-12
-14.277 2.81285 -5.30006e-12
1.77162e-12 -5.30006e-12 -13.1967

5.8881 16.5293 -5.74651e-13
16.5293 -33.9324 3.33126e-12
-5.74651e-13 3.33126e-12 -22.3762

-16.421 22.5014 -3.47929e-12
22.5014 16.228 -8.8883e-12
-3.47929e-12 -8.8883e-12 -5.08482

-3.9122 29.1629 -1.67866e-12
29.1629 -12.2295 -4.76656e-14
-1.67866e-12 -4.76656e-14 -8.3959

50.9922 0.688663 -9.29627e-13
0.688663 -6.53136 -2.23607e-12
-9.29627e-13 -2.23607e-12 -3.634

-48.1409 6.57124 6.3663e-13
6.57124 14.7862 -1.7509e-12
6.3663e-13 -1.7509e-12 -18.9525

10.1157 16.5408 2.41466e-12
16.5408 -36.0794 -5.59019e-12
2.41466e-12 -5.59019e-12 -9.13515

-4.50328 -25.7606 2.79125e-12
-25.7606 35.5552 -2.82204e-12
2.79125e-12 -2.82204e-12 -6.74654

-39.1908 -2.57245 -3.45723e-13
-2.57245 21.5042 2.64796e-12
-3.45723e-13 2.64796e-12 -10.6691

-7.99021 13.3649 3.53998e-12
13.3649 44.4049 1.53833e-12
3.53998e-12 1.53833e-12 -3.94387

3.73475 -29.7131 -9.90023e-13
-29.7131 -17.3644 -2.98013e-12
-9.90023e-13 -2.98013e-12 -8.92018

21.4259 -29.947 -1.46668e-12
-29.947 14.7561 -3.58291e-12
-1.46668e-12 -3.58291e-12 -3.91744

6.88117 31.6223 4.38701e-12
31.6223 25.4016 -9.13639e-13
4.38701e-12 -9.13639e-13 -6.8277

2.78566 -15.0202 5.25328e-12
-15.0202 -39.2677 -3.43229e-12
5.25328e-12 -3.43229e-12 -63.3127

-46.1597 2.04124 -3.6194e-12
2.04124 11.4615 5.16209e-12
-3.6194e-12 5.16209e-12 -22.7569

-55.4451 20.3002 3.20188e-13
20.3002 3.09591 -2.48986e-12
3.20188e-13 -2.48986e-12 -22.916

5.91695 15.4391 3.84581e-13
15.4391 -58.8189 7.28898e-13
3.84581e-13 7.28898e-13 -23.0361

-18.9213 -26.1885 3.42097e-12
-26.1885 -12.9132 2.43716e-12
3.42097e-12 2.43716e-12 -9.65225

41.3457 17.957 1.01252e-12
17.957 -6.27057 4.19161e-12
1.01252e-12 4.19161e-12 -3.86097

-44.6828 -5.29417 9.52886e-13
-5.29417 4.53831 7.31445e-12
9.52886e-13 7.31445e-12 -39.1456

7.49925 -18.9882 1.97472e-13
-18.9882 -39.8942 1.10401e-12
1.97472e-13 1.10401e-12 -11.6597

30.2908 -15.5987 -1.56971e-12
-15.5987 -20.508 3.91183e-12
-1.56971e-12 3.91183e-12 -4.80454

-9.63792 11.603 -3.70903e-12
11.603 44.3188 3.56456e-12
-3.70903e-12 3.56456e-12 -3.85863

8.33415 -25.7338 5.17334e-12
-25.7338 32.9916 -4.05957e-12
5.17334e-12 -4.05957e-12 -3.63259

-10.2448 -25.2738 -1.95666e-12
-25.2738 -19.1001 -2.90878e-13
-1.95666e-12 -2.90878e-13 -23.1749

17.0051 31.959 5.57894e-12
31.959 11.1974 3.88963e-12
5.57894e-12 3.88963e-12 -5.74586

-1.0693 -25.1347 -2.58282e-12
-25.1347 -30.7627 4.15727e-12
-2.58282e-12 4.15727e-12 -20.8916

48.0646 2.59733 -7.91071e-13
2.59733 -8.40921 -5.7457e-12
-7.91071e-13 -5.7457e-12 -3.53115

6.5527 -28.93 -4.21352e-12
-28.93 72.0494 5.39539e-12
-4.21352e-12 5.39539e-12 -14.5513

21.7915 -29.2304 -2.80724e-12
-29.2304 13.9636 2.69888e-12
-2.80724e-12 2.69888e-12 -3.92982

35.351 32.1584 5.94487e-13
32.1584 74.1334 2.69296e-12
5.94487e-13 2.69296e-12 -5.44155

-45.283 -11.877 6.32642e-14
-11.877 13.9222 -1.56201e-12
6.32642e-14 -1.56201e-12 -15.3262

-14.4199 -13.8211 -7.04177e-13
-13.8211 43.3819 -1.87939e-12
-7.04177e-13 -1.87939e-12 -5.67218

-19.2438 -23.9883 6.00601e-12
-23.9883 -19.8305 3.34251e-12
6.00601e-12 3.34251e-12 -64.2545

2.43858 23.7704 5.95968e-12
23.7704 36.0064 -7.51991e-13
5.95968e-12 -7.51991e-13 -3.7106

-15.1823 -32.7263 -6.41383e-12
-32.7263 -21.1188 -1.1724e-12
-6.41383e-12 -1.1724e-12 -14.3127

-14.5645 -11.9629 -1.63099e-12
-11.9629 45.5301 -2.00255e-12
-1.63099e-12 -2.00255e-12 -5.73838

7.83563 -19.1169 3.59683e-12
-19.1169 -43.1217 -9.51535e-13
3.59683e-12 -9.51535e-13 -12.6317

6.54592 23.8766 1.43293e-12
23.8766 35.171 -8.95284e-13
1.43293e-12 -8.95284e-13 -3.44157

23.1733 -4.97545 -2.42177e-12
-4.97545 -30.6757 2.81194e-12
-2.42177e-12 2.81194e-12 -5.36376

36.9698 -30.3423 2.87888e-12
-30.3423 122.625 -4.86959e-12
2.87888e-12 -4.86959e-12 -6.24194

-26.8687 21.0138 8.48803e-13
21.0138 8.4343 5.3942e-13
8.48803e-13 5.3942e-13 -7.12938

40.338 -19.3229 -4.02286e-12
-19.3229 -11.3718 7.14391e-13
-4.02286e-12 7.14391e-13 -5.7254

6.52868 -21.4459 -2.28558e-13
-21.4459 -45.5583 -8.98244e-13
-2.28558e-13 -8.98244e-13 -24.9719

20.7051 31.7534 -2.67875e-12
31.7534 9.55771 -5.62513e-12
-2.67875e-12 -5.62513e-12 -5.80543

13.9189 -29.9713 2.56743e-12
-29.9713 -7.60524 2.83299e-12
2.56743e-12 2.83299e-12 -5.94366

6.75483 20.8852 -1.5703e-12
20.8852 -27.7918 -1.27158e-12
-1.5703e-12 -1.27158e-12 -11.1085

-38.274 -28.0758 2.06679e-12
-28.0758 -14.0377 -3.14341e-12
2.06679e-12 -3.14341e-12 -11.0605

8.64659 -26.2247 -1.9386e-12
-26.2247 31.1706 -1.73254e-12
-1.9386e-12 -1.73254e-12 -3.63461

15.3315 28.9806 -5.34091e-13
28.9806 19.1538 2.59348e-12
-5.34091e-13 2.59348e-12 -3.88238

28.6401 26.1909 -2.81849e-12
26.1909 -5.63276 2.11179e-12
-2.81849e-12 2.11179e-12 -4.80136

7.91485 -14.6098 7.57498e-12
-14.6098 -36.8773 -1.40984e-12
7.57498e-12 -1.40984e-12 -13.991

-6.84087 -16.6173 4.98268e-12
-16.6173 41.3405 2.91441e-12
4.98268e-12 2.91441e-12 -3.95881

17.4406 -17.5682 2.7723e-12
-17.5682 -30.9986 1.60272e-12
2.7723e-12 1.60272e-12 -7.10463

19.8419 16.9082 -5.23729e-12
16.9082 -31.6637 5.57776e-13
-5.23729e-12 5.57776e-13 -7.33384

-33.6794 -9.38694 1.3413e-12
-9.38694 8.75597 -1.35181e-12
1.3413e-12 -1.35181e-12 -23.9929

43.431 -13.4298 -2.60059e-12
-13.4298 -8.36818 1.57963e-12
-2.60059e-12 1.57963e-12 -3.80356

-19.3777 0.594002 7.56432e-14
0.594002 43.1449 1.70293e-12
7.56432e-14 1.70293e-12 -4.77481

28.0557 18.5547 -2.78829e-12
18.5547 -18.1983 1.05368e-12
-2.78829e-12 1.05368e-12 -4.74905

25.5282 27.6035 1.94926e-12
27.6035 -3.77509 1.12503e-14
1.94926e-12 1.12503e-14 -4.7705

-6.71467 -15.6858 4.04062e-12
-15.6858 43.798 -1.88175e-12
4.04062e-12 -1.88175e-12 -3.84736

-19.9058 -1.2023 -7.59097e-13
-1.2023 42.1274 1.5928e-12
-7.59097e-13 1.5928e-12 -4.68637

-5.4732 29.1343 1.48089e-12
29.1343 -23.6463 1.73787e-12
1.48089e-12 1.73787e-12 -16.7967

-37.2732 -10.922 -2.81257e-12
-10.922 21.6799 2.45907e-12
-2.81257e-12 2.45907e-12 -7.82942

27.1432 -26.7148 -5.67368e-12
-26.7148 -5.53023 1.6905e-12
-5.67368e-12 1.6905e-12 -4.94355

40.7187 21.3322 -5.85014e-13
21.3322 -8.36948 2.74921e-12
-5.85014e-13 2.74921e-12 -5.46691

12.378 23.6652 -3.42778e-12
23.6652 -27.1266 -3.49942e-13
-3.42778e-12 -3.49942e-13 -8.66643

-37.796 5.47068 -1.66793e-12
5.47068 23.3113 5.31131e-13
-1.66793e-12 5.31131e-13 -8.59688

18.5931 29.065 -6.00705e-12
29.065 17.3778 9.18969e-13
-6.00705e-12 9.18969e-13 -3.94647

-9.98918 22.9638 2.21985e-12
22.9638 -14.9127 -6.36469e-12
2.21985e-12 -6.36469e-12 -24.0261

68.3155 -59.6909 1.0966e-12
-59.6909 36.3347 -1.78228e-12
1.0966e-12 -1.78228e-12 -23.0108

17.5309 -25.0474 -2.08663e-12
-25.0474 -17.9915 1.6002e-12
-2.08663e-12 1.6002e-12 -6.41703

10.0586 7.06979 5.54549e-12
7.06979 82.5495 -1.75267e-12
5.54549e-12 -1.75267e-12 -7.165

11.9205 -28.8888 7.34227e-14
-28.8888 -3.88118 -2.63907e-12
7.34227e-14 -2.63907e-12 -5.16513

-66.945 -52.7008 8.97652e-13
-52.7008 143.248 -3.85114e-12
8.97652e-13 -3.85114e-12 -49.6696

-68.3883 51.4514 -8.31335e-13
51.4514 142.536 -1.85215e-12
-8.31335e-13 -1.85215e-12 -49.8587

19.5688 117.154 -2.93217e-12
117.154 64.1279 -9.75812e-13
-2.93217e-12 -9.75812e-13 -48.3602

20.5277 -117.096 -9.166e-13
-117.096 61.0248 3.20692e-12
-9.166e-13 3.20692e-12 -48.7249

157.741 -1.36335 9.80549e-13
-1.36335 -79.1872 2.20009e-14
9.80549e-13 2.20009e-14 -48.9118

110.324 -91.1251 1.85689e-12
-91.1251 -36.6903 1.35951e-12
1.85689e-12 1.35951e-12 -50.3064

110.377 91.6529 -1.25056e-12
91.6529 -36.5005 9.04758e-13
-1.25056e-12 9.04758e-13 -50.1792

7.84713 14.3302 -1.37638e-12
14.3302 -42.6814 -6.71759e-13
-1.37638e-12 -6.71759e-13 -15.0788

-11.7911 25.5366 -1.78613e-12
25.5366 -27.4046 3.25917e-12
-1.78613e-12 3.25917e-12 -35.1384

12.4381 6.60596 -5.98751e-12
6.60596 -40.5331 -2.03452e-12
-5.98751e-12 -2.03452e-12 -8.25184

26.2547 21.7843 -9.50351e-13
21.7843 -19.5279 -7.57912e-14
-9.50351e-13 -7.57912e-14 -5.8502

-21.2293 17.7442 2.39793e-12
17.7442 29.8682 1.74142e-12
2.39793e-12 1.74142e-12 -6.16167

22.5303 28.8981 2.08663e-12
28.8981 -0.77506 1.67688e-12
2.08663e-12 1.67688e-12 -4.73013

4.0557 -29.6632 2.75454e-12
-29.6632 -17.466 6.74127e-13
2.75454e-12 6.74127e-13 -8.50389

25.9952 28.0274 -5.32907e-13
28.0274 -2.30123 -4.44267e-12
-5.32907e-13 -4.44267e-12 -4.73054

-19.3463 -2.84119 9.95056e-13
-2.84119 43.0709 2.34598e-12
9.95056e-13 2.34598e-12 -4.76935

-13.4117 -26.0975 1.19046e-12
-26.0975 -25.8384 -2.97466e-12
1.19046e-12 -2.97466e-12 -35.5215

-19.8414 -4.8623 -3.3884e-13
-4.8623 41.776 2.75691e-12
-3.3884e-13 2.75691e-12 -4.74322

-1.8268 23.0161 5.04485e-12
23.0161 -24.377 -4.7636e-13
5.04485e-12 -4.7636e-13 -16.1498

44.9821 26.8703 -1.05279e-12
26.8703 8.11172 4.94952e-12
-1.05279e-12 4.94952e-12 -5.3686

-52.5091 -13.2161 -3.34458e-12
-13.2161 0.150458 1.96406e-12
-3.34458e-12 1.96406e-12 -20.6173

20.2804 13.7278 1.56734e-12
13.7278 -31.1408 1.0972e-12
1.56734e-12 1.0972e-12 -7.04235

13.7008 -29.9873 3.73035e-14
-29.9873 -6.69098 -6.6489e-12
3.73035e-14 -6.6489e-12 -5.83459

29.6307 -24.7132 -6.29422e-12
-24.7132 -7.87318 4.38168e-13
-6.29422e-12 4.38168e-13 -4.82451

5.76493 -16.0745 -1.53033e-12
-16.0745 -32.3342 2.03097e-13
-1.53033e-12 2.03097e-13 -22.2556

12.6277 27.9287 1.85274e-12
27.9287 -13.6383 -3.60156e-12
1.85274e-12 -3.60156e-12 -6.41902

23.309 23.9772 3.21284e-12
23.9772 -17.9426 1.54691e-12
3.21284e-12 1.54691e-12 -5.96173

-31.0762 -2.79295 5.36978e-14
-2.79295 30.1316 -4.00213e-12
5.36978e-14 -4.00213e-12 -6.39789

-28.6286 5.87331 -8.55817e-13
5.87331 33.3213 6.46594e-13
-8.55817e-13 6.46594e-13 -6.05869

34.5483 2.64667 -2.77112e-13
2.64667 -26.1826 -1.75933e-13
-2.77112e-13 -1.75933e-13 -6.14142

50.6509 -7.28955 2.08544e-12
-7.28955 -14.0811 -1.69716e-12
2.08544e-12 -1.69716e-12 -6.7781

11.0413 30.4843 5.64349e-12
30.4843 -4.78716 7.95216e-13
5.64349e-12 7.95216e-13 -5.96553

17.4676 -26.1551 5.23256e-12
-26.1551 -17.4545 -3.59712e-12
5.23256e-12 -3.59712e-12 -6.35115

-0.0845031 -21.2543 1.44033e-12
-21.2543 -27.9557 2.18551e-12
1.44033e-12 2.18551e-12 -17.1664

4.93927 -31.6332 6.29837e-12
-31.6332 4.86171 -8.01137e-13
6.29837e-12 -8.01137e-13 -5.93437

-8.22662 -27.7852 7.88702e-13
-27.7852 18.5789 1.1724e-12
7.88702e-13 1.1724e-12 -6.12898

-1.64988 29.8868 -2.27433e-12
29.8868 10.4475 -5.62454e-12
-2.27433e-12 -5.62454e-12 -5.79941

-26.0158 -9.57781 3.49676e-12
-9.57781 32.9696 1.00068e-13
3.49676e-12 1.00068e-13 -5.78636

-31.3221 -1.54475 3.0876e-12
-1.54475 31.6507 -9.91799e-13
3.0876e-12 -9.91799e-13 -6.22271

-38.9148 5.74795 1.87485e-12
5.74795 23.9465 -5.35276e-13
1.87485e-12 -5.35276e-13 -9.18228

-17.2174 -21.0888 3.6886e-12
-21.0888 26.5709 -3.73035e-13
3.6886e-12 -3.73035e-13 -5.77106

13.0719 24.111 -2.48749e-12
24.111 -28.1007 -3.35317e-12
-2.48749e-12 -3.35317e-12 -9.20416

21.5549 -9.58966 7.58504e-13
-9.58966 -31.7057 4.72082e-12
7.58504e-13 4.72082e-12 -6.59718

-27.1527 7.4652 -3.793e-12
7.4652 34.3345 1.87643e-12
-3.793e-12 1.87643e-12 -5.87308

-35.235 -9.70106 -1.75208e-12
-9.70106 22.3135 3.91568e-12
-1.75208e-12 3.91568e-12 -8.1827

-29.1549 -16.3305 -2.18521e-12
-16.3305 19.3467 8.32519e-13
-2.18521e-12 8.32519e-13 -6.66085

36.9676 -8.23911 2.79717e-12
-8.23911 -20.236 -1.49273e-12
2.79717e-12 -1.49273e-12 -5.10059

-14.8095 -32.3468 1.05397e-13
-32.3468 -21.6274 3.36531e-12
1.05397e-13 3.36531e-12 -12.9925

-22.8234 9.32074 7.14406e-12
9.32074 33.3232 2.14406e-12
7.14406e-12 2.14406e-12 -4.78794

-0.750929 -18.2126 -4.37783e-12
-18.2126 -35.1577 -1.89967e-12
-4.37783e-12 -1.89967e-12 -33.278

4.93233 24.8224 2.45611e-12
24.8224 75.306 4.36273e-12
2.45611e-12 4.36273e-12 -14.3188

-14.1417 -26.6261 -3.19892e-12
-26.6261 -16.3498 1.18631e-12
-3.19892e-12 1.18631e-12 -14.6404

-6.35703 -30.2028 -5.15913e-12
-30.2028 -23.602 -1.42819e-12
-5.15913e-12 -1.42819e-12 -17.0876

-31.27 -0.701306 3.60127e-12
-0.701306 31.5003 -5.26394e-12
3.60127e-12 -5.26394e-12 -6.34758

28.4876 -16.6224 2.84691e-12
-16.6224 -18.0563 -1.73432e-12
2.84691e-12 -1.73432e-12 -4.43714

-37.8044 12.8416 -2.65053e-12
12.8416 11.1651 -1.77636e-14
-2.65053e-12 -1.77636e-14 -10.9884

-8.86111 -3.18049 -7.22022e-12
-3.18049 111.05 -2.68822e-12
-7.22022e-12 -2.68822e-12 -22.6717

-31.6018 14.2736 1.49429e-12
14.2736 21.3504 -4.10635e-12
1.49429e-12 -4.10635e-12 -7.12356

12.4221 -29.489 -1.86221e-12
-29.489 -2.51926 -2.02031e-12
-1.86221e-12 -2.02031e-12 -4.92736

33.6318 25.1055 2.56861e-12
25.1055 124.029 9.71075e-13
2.56861e-12 9.71075e-13 -6.21428

-13.5027 26.0981 5.61847e-12
26.0981 -19.0974 1.8901e-11
5.61847e-12 1.8901e-11 -58.8964

-9.55281 -27.8075 3.92353e-12
-27.8075 -22.8069 -4.61734e-12
3.92353e-12 -4.61734e-12 -59.5468

-2.86555 -30.4189 -2.17544e-12
-30.4189 -7.32085 -1.12443e-12
-2.17544e-12 -1.12443e-12 -7.28651

3.86056 -31.1599 -2.90671e-12
-31.1599 5.63589 -1.85807e-12
-2.90671e-12 -1.85807e-12 -6.06159

25.152 20.8273 2.06709e-12
20.8273 -17.0338 6.24685e-13
2.06709e-12 6.24685e-13 -4.97604

31.805 15.006 1.41339e-12
15.006 -23.3003 4.98831e-12
1.41339e-12 4.98831e-12 -5.95388

-9.48887 3.08363 -9.33039e-12
3.08363 -9.83065 2.96548e-12
-9.33039e-12 2.96548e-12 -80.9393

-5.5491 -7.00024 4.23062e-12
-7.00024 -14.0419 -1.72523e-11
4.23062e-12 -1.72523e-11 -80.292

11.7485 4.82431 -1.4803e-12
4.82431 -43.2051 -3.33289e-12
-1.4803e-12 -3.33289e-12 -7.82678

-35.0562 6.73092 2.6712e-12
6.73092 24.3753 -2.70717e-12
2.6712e-12 -2.70717e-12 -7.5633

-36.1099 6.73632 2.6622e-12
6.73632 24.4326 -1.91669e-12
2.6622e-12 -1.91669e-12 -8.30827

74.586 58.6339 -7.62649e-13
58.6339 34.1724 -1.89478e-14
-7.62649e-13 -1.89478e-14 -21.8731

-6.91941 -28.1995 1.08299e-12
-28.1995 16.8753 -4.57826e-12
1.08299e-12 -4.57826e-12 -6.11587

8.17206 17.9745 -1.44477e-13
17.9745 -44.8757 -3.76499e-12
-1.44477e-13 -3.76499e-12 -12.8963

32.703 9.53969 2.22518e-12
9.53969 -19.0796 3.2605e-12
2.22518e-12 3.2605e-12 -4.07362

3.3881 -26.7231 -2.71901e-12
-26.7231 13.4841 5.21124e-12
-2.71901e-12 5.21124e-12 -3.82626

26.2375 -20.2375 4.0874e-12
-20.2375 -20.3225 1.57444e-12
4.0874e-12 1.57444e-12 -5.86245

65.3899 60.2318 -4.02641e-14
60.2318 34.2892 7.81597e-13
-4.02641e-14 7.81597e-13 -23.8678

-13.2424 31.069 -1.80685e-12
31.069 -16.881 -2.2767e-13
-1.80685e-12 -2.2767e-13 -12.7855

-18.6036 -19.7859 -2.58371e-12
-19.7859 28.4147 4.36984e-13
-2.58371e-12 4.36984e-13 -5.96872

11.1746 28.8575 -1.37135e-12
28.8575 -13.3228 5.74355e-13
-1.37135e-12 5.74355e-13 -6.43544

-31.8686 -4.14478 1.70382e-13
-4.14478 30.1479 -4.77366e-12
1.70382e-13 -4.77366e-12 -6.35715

-14.5958 19.609 3.13823e-12
19.609 27.1852 1.43589e-12
3.13823e-12 1.43589e-12 -4.41795

7.47948 30.5186 -6.40673e-13
30.5186 -1.67 -1.84149e-13
-6.40673e-13 -1.84149e-13 -5.65974

-9.34443 -22.473 -9.7522e-13
-22.473 23.1493 -1.24463e-12
-9.7522e-13 -1.24463e-12 -4.17471

4.59084 -27.3523 -1.10371e-12
-27.3523 11.4492 -6.30488e-12
-1.10371e-12 -6.30488e-12 -3.93777

24.2717 11.2569 -2.36848e-13
11.2569 102.078 2.74506e-12
-2.36848e-13 2.74506e-12 -12.405

37.4665 -33.4559 3.71614e-12
-33.4559 69.2852 5.05196e-12
3.71614e-12 5.05196e-12 -5.70293

-25.3346 -11.6904 -8.03579e-13
-11.6904 31.3681 4.2449e-12
-8.03579e-13 4.2449e-12 -5.64764

16.0967 26.4844 -6.01001e-13
26.4844 -15.5016 3.40646e-12
-6.01001e-13 3.40646e-12 -6.21675

4.95607 29.4777 6.63351e-12
29.4777 1.63717 -4.41069e-12
6.63351e-12 -4.41069e-12 -4.98923

-9.8542 -21.4337 9.17784e-15
-21.4337 25.1209 2.58638e-12
9.17784e-15 2.58638e-12 -4.0325

-21.6342 -11.7823 -3.04438e-12
-11.7823 32.0821 -1.14279e-13
-3.04438e-12 -1.14279e-13 -4.63648

10.4632 28.4093 4.66827e-12
28.4093 -0.156192 1.02141e-12
4.66827e-12 1.02141e-12 -4.67217

-21.8463 -13.8777 5.4395e-12
-13.8777 29.4674 4.56583e-12
5.4395e-12 4.56583e-12 -4.84642

6.95879 27.8547 4.7411e-12
27.8547 73.0845 2.84691e-12
4.7411e-12 2.84691e-12 -14.3219

-45.8315 -4.04131 -1.57867e-12
-4.04131 14.0479 2.70006e-13
-1.57867e-12 2.70006e-13 -19.9649

0.877494 31.0273 -8.58395e-12
31.0273 7.52061 2.61894e-12
-8.58395e-12 2.61894e-12 -6.08833

9.71929 14.9011 -7.88702e-13
14.9011 -36.4288 1.72425e-12
-7.88702e-13 1.72425e-12 -10.9849

9.92885 -15.9274 7.91663e-13
-15.9274 -39.4102 1.54247e-12
7.91663e-13 1.54247e-12 -13.0688

85.6127 -24.2043 -3.51008e-12
-24.2043 7.63597 -4.18036e-13
-3.51008e-12 -4.18036e-13 -12.9578

-23.2065 -21.2671 -2.47861e-12
-21.2671 10.5139 -1.23753e-12
-2.47861e-12 -1.23753e-12 -6.16457

-16.6005 26.6981 1.7284e-12
26.6981 1.77874 3.5391e-12
1.7284e-12 3.5391e-12 -6.58702

-26.2015 -21.7279 -3.17909e-12
-21.7279 -5.36472 -2.70424e-12
-3.17909e-12 -2.70424e-12 -23.8673

-41.5971 14.1068 -2.7051e-12
14.1068 -3.56015 3.79075e-12
-2.7051e-12 3.79075e-12 -64.1288

-0.893372 9.44534 1.81884e-12
9.44534 -44.2599 -5.77316e-13
1.81884e-12 -5.77316e-13 -64.2303

-20.3842 32.7056 2.50762e-13
32.7056 -23.2023 -1.95429e-12
2.50762e-13 -1.95429e-12 -24.3296

-11.41 26.0001 3.73538e-12
26.0001 22.6042 -1.51819e-12
3.73538e-12 -1.51819e-12 -5.92495

16.0388 26.6613 -1.54602e-12
26.6613 -17.2867 -1.92942e-12
-1.54602e-12 -1.92942e-12 -6.54922

30.4282 45.1856 3.86062e-13
45.1856 47.5545 4.50603e-12
3.86062e-13 4.50603e-12 -15.1949

-44.889 -11.3438 6.10652e-12
-11.3438 -1.80809 -8.97356e-13
6.10652e-12 -8.97356e-13 -61.6849

-8.29819 -3.43299 5.407e-12
-3.43299 -12.7553 5.85798e-12
5.407e-12 5.85798e-12 -77.2294

-14.6917 -0.210086 3.40468e-13
-0.210086 -6.41857 1.65824e-11
3.40468e-13 1.65824e-11 -77.3736

27.6648 -53.8022 2.81493e-12
-53.8022 71.1482 -6.29778e-12
2.81493e-12 -6.29778e-12 -24.3896

-11.6914 -11.6001 8.40217e-13
-11.6001 -16.2045 -4.85538e-12
8.40217e-13 -4.85538e-12 -37.4316

-32.6104 8.81309 -8.45472e-13
8.81309 -9.41961 -3.04349e-13
-8.45472e-13 -3.04349e-13 -49.5421

18.2563 -26.1994 9.59529e-12
-26.1994 -19.5459 2.54907e-13
9.59529e-12 2.54907e-13 -6.50597

-39.4299 1.01111 -5.36053e-13
1.01111 11.9802 -1.37904e-12
-5.36053e-13 -1.37904e-12 -19.7219

-30.2021 -20.2677 6.18631e-12
-20.2677 6.30518 9.8647e-13
6.18631e-12 9.8647e-13 -7.21546

10.5366 6.25532 3.7342e-12
6.25532 -52.3898 2.69607e-12
3.7342e-12 2.69607e-12 -9.6392

-49.8126 15.5963 -4.80969e-12
15.5963 10.1654 -7.98384e-12
-4.80969e-12 -7.98384e-12 -13.5308

-40.2833 7.19164 -2.96977e-12
7.19164 16.5415 3.20928e-13
-2.96977e-12 3.20928e-13 -13.774

16.405 20.3927 3.99503e-12
20.3927 -25.8404 -1.02229e-12
3.99503e-12 -1.02229e-12 -7.60711

-9.10014 -3.1139 -2.74092e-12
-3.1139 108.394 1.88057e-12
-2.74092e-12 1.88057e-12 -23.102

-3.31984 -27.6235 7.57557e-12
-27.6235 -3.62929 1.56793e-12
7.57557e-12 1.56793e-12 -5.82939

-7.33485 -26.1162 5.64881e-12
-26.1162 -14.0817 -4.83406e-12
5.64881e-12 -4.83406e-12 -9.81028

-14.1982 -31.4837 -7.65491e-12
-31.4837 -21.7779 2.73663e-12
-7.65491e-12 2.73663e-12 -12.7554

90.727 32.7493 8.73968e-13
32.7493 20.9063 3.55538e-12
8.73968e-13 3.55538e-12 -16.506

-23.1176 -20.1165 -4.60076e-13
-20.1165 -17.385 -2.7908e-12
-4.60076e-13 -2.7908e-12 -44.4283

72.6299 54.3219 -5.54223e-12
54.3219 91.6399 9.37916e-13
-5.54223e-12 9.37916e-13 -6.14248

-36.2149 -21.4396 -8.19996e-12
-21.4396 -6.79682 -2.86586e-12
-8.19996e-12 -2.86586e-12 -13.0426

15.0339 14.6504 -5.4848e-12
14.6504 -37.7514 2.19602e-12
-5.4848e-12 2.19602e-12 -8.17827

44.5724 -14.5723 1.67807e-12
-14.5723 -8.27138 -8.33851e-13
1.67807e-12 -8.33851e-13 -4.41796

-21.2304 24.0466 5.64645e-12
24.0466 4.95563 -9.82917e-13
5.64645e-12 -9.82917e-13 -5.97577

17.3732 20.4279 6.63292e-12
20.4279 -26.7919 -1.83261e-13
6.63292e-12 -1.83261e-13 -6.95092

-51.14 11.4006 -8.50061e-13
11.4006 7.71054 -3.78867e-12
-8.50061e-13 -3.78867e-12 -29.9944

-7.28677 -31.5801 1.75889e-12
-31.5801 -12.8264 6.85289e-12
1.75889e-12 6.85289e-12 -8.11853

2.79681 19.8124 -2.25538e-12
19.8124 -46.0335 2.4345e-12
-2.25538e-12 2.4345e-12 -29.9863

-24.6705 -18.4433 2.59082e-12
-18.4433 17.8362 4.69432e-12
2.59082e-12 4.69432e-12 -5.47946

-42.3403 4.28313 3.44946e-12
4.28313 17.8694 6.28357e-12
3.44946e-12 6.28357e-12 -12.7278

-4.09805 9.92671 -5.41078e-12
9.92671 -40.2761 5.9582e-13
-5.41078e-12 5.9582e-13 -47.5496

-2.68827 -8.51331 9.66634e-13
-8.51331 -38.3073 -1.12251e-12
9.66634e-13 -1.12251e-12 -47.4053

81.7218 18.5122 1.65793e-14
18.5122 1.70037 3.91509e-12
1.65793e-14 3.91509e-12 -14.453

3.89495 7.96497 4.36066e-12
7.96497 -45.1828 2.4644e-12
4.36066e-12 2.4644e-12 -11.0178

35.8711 7.74039 -2.70347e-12
7.74039 184.571 -6.39015e-12
-2.70347e-12 -6.39015e-12 -9.75791

40.1445 -11.385 -5.23059e-12
-11.385 190.368 2.34005e-12
-5.23059e-12 2.34005e-12 -7.38975

53.7639 56.4064 8.97652e-13
56.4064 159.253 -6.35699e-12
8.97652e-13 -6.35699e-12 -11.5006

1.7091 -28.9504 1.78228e-13
-28.9504 -24.6906 -1.1342e-12
1.78228e-13 -1.1342e-12 -11.9625

16.0486 -49.1898 -9.53312e-13
-49.1898 99.4176 4.54511e-12
-9.53312e-13 4.54511e-12 -21.6894

54.5117 -55.949 -8.01255e-12
-55.949 149.97 5.54697e-12
-8.01255e-12 5.54697e-12 -13.6655

-2.16531 26.2198 -4.07082e-12
26.2198 17.5727 -2.224e-12
-4.07082e-12 -2.224e-12 -3.99527

134.937 73.8431 8.95284e-13
73.8431 85.0234 -1.88057e-12
8.95284e-13 -1.88057e-12 -10.1597

-18.7196 13.0474 2.06353e-13
13.0474 -3.9003 -1.71034e-12
2.06353e-13 -1.71034e-12 -26.7698

3.74114 0.0392754 -4.08562e-14
0.0392754 -26.1889 -1.51138e-12
-4.08562e-14 -1.51138e-12 -26.7731

144.095 -73.1286 -3.57166e-12
-73.1286 85.3508 4.57353e-12
-3.57166e-12 4.57353e-12 -8.19699

-21.3923 -23.4237 -2.69799e-12
-23.4237 12.2482 -3.56752e-12
-2.69799e-12 -3.56752e-12 -6.49043

89.3449 34.7286 2.86349e-12
34.7286 41.3894 -4.42076e-12
2.86349e-12 -4.42076e-12 -11.5482

72.1856 63.4902 -3.01981e-12
63.4902 149.691 -1.75741e-12
-3.01981e-12 -1.75741e-12 -9.67431

26.1642 21.6299 -6.60805e-13
21.6299 100.132 -9.00021e-13
-6.60805e-13 -9.00021e-13 -13.0316

73.8724 -65.919 7.34227e-14
-65.919 151.141 -5.35749e-12
7.34227e-14 -5.35749e-12 -9.40287

25.7686 -12.3809 -9.88187e-12
-12.3809 105.01 6.807e-12
-9.88187e-12 6.807e-12 -12.4286

-28.6639 6.84186 1.31228e-13
6.84186 3.10673 4.20908e-12
1.31228e-13 4.20908e-12 -37.8542

37.7423 -45.974 -3.19744e-14
-45.974 49.6686 -1.79294e-12
-3.19744e-14 -1.79294e-12 -15.5324

14.4434 47.5312 -6.4541e-13
47.5312 94.8781 8.47914e-13
-6.4541e-13 8.47914e-13 -22.1926

173.336 37.9109 -3.61429e-12
37.9109 48.0404 2.62842e-12
-3.61429e-12 2.62842e-12 -9.52295

7.02098 -29.2855 -1.91728e-12
-29.2855 -14.3581 -4.43083e-12
-1.91728e-12 -4.43083e-12 -7.1555

-38.4172 12.8967 -9.32883e-13
12.8967 6.43529 -6.3262e-12
-9.32883e-13 -6.3262e-12 -15.2903

88.5032 -38.1119 4.84827e-12
-38.1119 34.1623 9.21337e-13
4.84827e-12 9.21337e-13 -14.0998

6.04191 -28.8019 1.62833e-12
-28.8019 -16.1714 2.55825e-12
1.62833e-12 2.55825e-12 -8.02935

169.202 -36.3428 -1.66741e-12
-36.3428 34.9279 4.65642e-12
-1.66741e-12 4.65642e-12 -13.2908

-5.72494 -28.3172 -1.88708e-12
-28.3172 -14.4725 1.15019e-12
-1.88708e-12 1.15019e-12 -9.30894

-17.7899 -25.2946 -2.28528e-12
-25.2946 12.0804 -4.18214e-12
-2.28528e-12 -4.18214e-12 -5.93359

118.873 69.4596 2.87059e-12
69.4596 96.217 8.8581e-13
2.87059e-12 8.8581e-13 -11.4009

29.4125 -22.9324 2.98783e-12
-22.9324 97.7945 1.16932e-11
2.98783e-12 1.16932e-11 -14.3402

117.957 -71.6916 9.80549e-13
-71.6916 93.6785 -7.15517e-12
9.80549e-13 -7.15517e-12 -12.4169

22.2642 50.7366 3.08968e-12
50.7366 73.7769 1.77399e-12
3.08968e-12 1.77399e-12 -24.7776

-1.53599 -30.2118 1.42049e-12
-30.2118 -6.55215 -1.22184e-12
1.42049e-12 -1.22184e-12 -6.99726

-7.04523 -14.6403 1.25174e-12
-14.6403 -21.9193 4.91281e-12
1.25174e-12 4.91281e-12 -32.6147

-11.892 11.0927 -3.39987e-12
11.0927 -16.431 1.89922e-12
-3.39987e-12 1.89922e-12 -77.7958

-26.1693 -5.15998 -6.63913e-13
-5.15998 -6.38738 -1.22514e-11
-6.63913e-13 -1.22514e-11 -77.6295

-38.9407 13.0836 3.85553e-12
13.0836 13.7444 6.77384e-13
3.85553e-12 6.77384e-13 -10.2384

-14.4806 -10.6671 6.09609e-12
-10.6671 -17.3185 -5.90935e-13
6.09609e-12 -5.90935e-13 -78.7586

-25.9031 4.09172 9.61734e-12
4.09172 -5.91388 1.03542e-11
9.61734e-12 1.03542e-11 -78.9007

-3.63389 7.4342 3.02839e-12
7.4342 -27.8608 1.4427e-12
3.02839e-12 1.4427e-12 -77.988

-43.9755 -12.1153 -8.35369e-13
-12.1153 2.91633 -2.56876e-12
-8.35369e-13 -2.56876e-12 -68.1592

11.9737 -30.4696 6.95858e-12
-30.4696 76.1621 1.66504e-12
6.95858e-12 1.66504e-12 -14.7009

0.521933 -12.9721 2.76845e-12
-12.9721 -39.9908 4.06638e-12
2.76845e-12 4.06638e-12 -45.2777

-16.3488 -34.4178 -3.53495e-13
-34.4178 -22.0685 1.05619e-12
-3.53495e-13 1.05619e-12 -23.5901

-2.42055 -18.1768 4.35533e-12
-18.1768 -29.8954 -1.28623e-12
4.35533e-12 -1.28623e-12 -33.627

12.7383 15.4591 -1.46964e-12
15.4591 -37.7158 3.14238e-12
-1.46964e-12 3.14238e-12 -9.62477

-46.9089 9.86432 -2.25087e-12
9.86432 8.87773 1.96983e-12
-2.25087e-12 1.96983e-12 -70.155

3.46271 19.2277 1.12991e-11
19.2277 -41.4723 2.06934e-12
1.12991e-11 2.06934e-12 -70.2709

1.4724 11.3062 -1.22805e-12
11.3062 -23.9651 7.7464e-13
-1.22805e-12 7.7464e-13 -31.8682

109.39 -15.3392 -7.65018e-13
-15.3392 -12.5355 4.9738e-14
-7.65018e-13 4.9738e-14 -25.0373

-14.32 24.9638 -3.31498e-12
24.9638 10.3862 -3.47396e-12
-3.31498e-12 -3.47396e-12 -5.8041

76.6061 -61.354 -1.25932e-11
-61.354 37.3648 -2.54374e-12
-1.25932e-11 -2.54374e-12 -22.3954

76.1134 -57.4567 -7.25938e-12
-57.4567 99.2274 5.30539e-13
-7.25938e-12 5.30539e-13 -5.55543

118.195 -36.5437 5.12538e-12
-36.5437 40.6005 -2.63967e-12
5.12538e-12 -2.63967e-12 -7.37859

-51.1148 -5.15897 2.99671e-12
-5.15897 3.34081 -3.9629e-12
2.99671e-12 -3.9629e-12 -60.6613

-50.4787 2.89123 -1.36853e-12
2.89123 3.13508 -3.07917e-12
-1.36853e-12 -3.07917e-12 -60.1339

-11.9756 -24.4565 2.03393e-12
-24.4565 -35.0038 -4.39034e-12
2.03393e-12 -4.39034e-12 -59.168

-8.99199 -21.7607 -4.91418e-12
-21.7607 -37.8884 -1.95074e-12
-4.91418e-12 -1.95074e-12 -59.4776

-14.7027 26.1362 8.74323e-12
26.1362 -33.0281 6.8426e-12
8.74323e-12 6.8426e-12 -60.7525

-18.1578 3.09959 1.87406e-12
3.09959 -13.1647 -7.2032e-12
1.87406e-12 -7.2032e-12 -75.4801

-9.94509 -20.509 -4.22299e-12
-20.509 -32.6511 4.1657e-12
-4.22299e-12 4.1657e-12 -56.7383

-26.6487 -18.5684 -3.92042e-12
-18.5684 -14.1959 8.29747e-12
-3.92042e-12 8.29747e-12 -71.2738

-15.4793 2.43461 6.02718e-12
2.43461 -12.8527 4.89135e-12
6.02718e-12 4.89135e-12 -77.8747

-6.02757 -20.5264 -2.21482e-12
-20.5264 -41.4876 -1.78465e-12
-2.21482e-12 -1.78465e-12 -60.5086

-6.75686 20.956 8.73472e-12
20.956 -40.1438 6.88338e-13
8.73472e-12 6.88338e-13 -60.0198

-14.3165 -3.45864 4.57456e-12
-3.45864 -11.3903 1.53973e-11
4.57456e-12 1.53973e-11 -76.8892

-11.2643 -3.11736 -3.73287e-12
-3.11736 -17.6895 1.36461e-11
-3.73287e-12 1.36461e-11 -74.0519

-24.2044 12.1098 1.40209e-11
12.1098 -13.4007 -1.63152e-11
1.40209e-11 -1.63152e-11 -69.97

-22.0827 26.9298 1.22983e-12
26.9298 -26.267 -2.18014e-12
1.22983e-12 -2.18014e-12 -57.5838

VECTORS fluid_flux_TPM float
-8.72071e-05 3.10238e-05 -2.01606e-22
3.55903e-06 6.88156e-06 -2.31142e-20
-1.27856e-05 -1.0224e-05 1.774e-20
-4.16999e-06 4.25341e-06 -1.20863e-20
2.27045e-05 -6.3124e-06 -2.02e-21
2.75718e-06 -1.59013e-05 6.10511e-21
-8.57832e-05 -3.10886e-05 5.62795e-21
-1.38904e-05 -1.04653e-05 1.73331e-20
2.21187e-05 9.45387e-07 1.80564e-21
1.13824e-05 -3.90755e-06 -1.62157e-20
5.45934e-05 1.24824e-05 7.35355e-21
2.34653e-06 -1.71916e-05 -1.70773e-21
1.36096e-05 1.12522e-05 2.02684e-20
2.6617e-06 1.37826e-05 -3.25268e-20
2.05781e-05 -2.94623e-06 -1.16659e-21
-1.633e-05 -2.72861e-07 -6.88032e-21
2.75313e-06 1.40968e-05 -1.98081e-20
1.01804e-05 -2.39155e-06 -1.95451e-21
9.89723e-06 1.72203e-05 -8.09116e-21
-1.48464e-05 1.8852e-06 -8.64474e-21
-3.60068e-06 -2.13011e-05 -2.37123e-20
3.41068e-05 5.94103e-05 3.7797e-20
1.56953e-05 1.63108e-06 -1.22639e-20
1.12258e-05 -1.12799e-05 -2.65572e-20
-1.50763e-05 -3.33195e-06 1.02348e-20
-6.77137e-07 -1.11293e-05 1.06074e-20
6.2896e-05 -4.9079e-06 -4.19489e-21
1.40641e-05 1.02475e-05 3.39513e-21
-2.51465e-05 -2.06402e-05 6.28248e-21
4.91145e-05 -1.28124e-05 -6.46105e-21
-1.65803e-05 -6.03755e-06 2.55871e-21
5.53641e-06 -3.20331e-05 -6.79513e-21
4.76491e-05 -4.80421e-05 7.47118e-21
-4.92282e-06 -4.12434e-05 -1.50236e-20
-2.96702e-05 3.70014e-05 -1.1852e-22
-3.82434e-05 -1.63933e-05 3.16555e-20
3.26991e-05 4.32109e-05 7.77557e-21
-4.4736e-05 -8.72494e-06 -1.43997e-20
1.43728e-05 -1.10806e-05 -1.04289e-20
4.64651e-05 5.01099e-05 6.98945e-21
3.2126e-05 -1.40206e-05 -9.41296e-21
3.36365e-05 -4.23391e-05 -1.96981e-20
-1.98944e-05 -5.03732e-05 1.0913e-20
-1.58962e-05 6.35608e-06 -1.35651e-20
3.05222e-05 -2.93113e-05 2.53773e-20
-3.03293e-05 1.09891e-05 3.01284e-21
-4.0498e-06 -2.03685e-05 -2.48355e-20
7.8853e-06 2.02097e-05 -6.70995e-21
-1.63408e-05 5.92724e-06 -2.00622e-20
-1.78181e-05 2.87229e-05 1.67342e-22
3.24055e-05 1.52894e-05 -1.149e-21
2.93623e-05 -1.00742e-05 -2.38827e-20
-1.56649e-05 1.5759e-05 1.08197e-20
-2.3539e-05 -2.06883e-05 -2.74909e-21
-2.1138e-05 -5.13198e-06 8.7384e-21
-4.47874e-05 2.70736e-05 -1.77656e-21
-2.93693e-05 -3.80198e-05 -1.38743e-20
6.36286e-06 -3.06252e-05 1.087e-20
-4.77037e-05 6.48232e-06 2.1284e-20
6.07359e-06 1.36959e-05 -3.05408e-21
-5.57637e-06 -8.17281e-06 5.28053e-21
-6.58305e-06 -1.79422e-05 9.48542e-21
5.71397e-05 2.48579e-05 1.47001e-20
9.24217e-06 1.8143e-05 -7.39933e-21
1.22956e-05 -1.4444e-05 -9.74968e-22
-1.64048e-06 -2.07511e-05 -1.56218e-20
4.62077e-06 -8.80493e-06 3.28359e-21
-1.00898e-05 -5.56451e-06 -5.11681e-21
-1.0602e-05 1.19285e-05 8.38522e-21
2.55802e-06 -4.09233e-06 -2.1337e-20
-1.50424e-05 -1.58422e-05 -6.3031e-21
-2.13635e-05 5.16558e-06 2.9544e-20
-3.55661e-06 3.44791e-05 1.02357e-20
-1.78707e-05 1.07102e-05 -2.50426e-20
-9.07023e-06 1.46137e-05 -1.31082e-20
-6.03509e-05 7.69161e-06 -1.45076e-20
7.81756e-06 -2.16802e-05 -3.7576e-20
-1.8879e-05 -8.89951e-06 1.58631e-20
1.93359e-06 1.16233e-05 7.41722e-21
2.62993e-05 5.08933e-06 -6.10361e-21
3.41669e-05 -2.89733e-05 7.74311e-21
2.2145e-05 2.05549e-05 1.16027e-20
1.19077e-05 -2.82215e-06 3.18322e-21
-3.21518e-05 2.40656e-05 1.20923e-20
3.79021e-05 4.84557e-06 1.31367e-20
-4.98057e-06 4.94117e-05 7.25169e-21
-1.74101e-06 -1.68561e-05 -2.19308e-21
1.81228e-05 9.95407e-06 3.77681e-21
2.93157e-05 3.0284e-05 -9.10858e-21
5.50215e-05 3.80112e-05 6.85576e-21
-5.33104e-06 3.0771e-05 -5.96053e-21
5.91763e-05 -3.55104e-05 -3.27445e-20
-2.71232e-05 5.34087e-06 -1.20887e-20
1.78382e-05 1.10012e-05 -3.93902e-21
-2.96394e-05 9.90273e-06 1.55642e-20
1.6652e-05 2.85195e-05 -1.62569e-20
1.01682e-05 -4.43841e-05 -1.19732e-20
1.91536e-06 1.16201e-05 5.36897e-22
-1.47999e-05 -1.76191e-05 9.15102e-21
3.06971e-06 1.74737e-05 -1.76154e-20
2.64054e-05 5.25718e-06 -3.54612e-21
-1.54424e-05 3.32093e-05 -6.0545e-21
4.05499e-05 -1.33324e-05 6.26328e-22
-3.77285e-06 7.45461e-06 -2.28116e-20
9.95227e-06 5.89898e-06 3.58583e-21
-2.28045e-06 -1.13239e-05 2.18118e-20
3.22047e-06 -1.92508e-05 -1.4068e-20
1.74684e-05 3.89186e-06 2.46987e-21
-7.93676e-06 4.09703e-05 6.2088e-22
-9.80506e-06 2.4791e-07 -1.7308e-20
9.31798e-06 1.18851e-05 -1.05301e-20
-2.17723e-06 -4.17115e-05 -6.96096e-21
4.20206e-05 1.28643e-05 5.99052e-21
4.4223e-06 -7.45277e-06 -7.06011e-21
-1.11445e-05 -3.55344e-06 -1.20735e-20
-2.93239e-05 -1.24853e-05 -3.9669e-21
1.58029e-05 4.11449e-05 4.62625e-22
-4.34824e-05 -1.55729e-05 3.3054e-21
1.60176e-05 -4.11214e-05 -2.24345e-20
-3.6996e-06 -3.19183e-05 1.38476e-20
2.18376e-05 6.52128e-07 -1.55608e-20
-7.17108e-06 1.83956e-05 -1.74335e-20
-1.6111e-06 3.96934e-06 2.52515e-20
-3.68576e-06 -1.65378e-05 -7.7871e-21
5.22969e-06 -8.30163e-06 -1.89169e-20
9.35895e-06 1.58626e-05 9.82406e-21
3.30993e-05 1.06518e-05 -1.21427e-20
8.61497e-06 -7.45761e-06 -2.1224e-20
-8.27046e-06 -4.51573e-05 1.83475e-21
2.55506e-05 -1.88188e-05 -6.99007e-21
4.97763e-06 2.77696e-05 5.03072e-21
-2.81617e-06 -2.84145e-06 1.35818e-21
-8.62576e-06 -8.32536e-06 -6.32313e-21
-4.7764e-06 4.41243e-08 2.85548e-20
-2.28713e-05 2.85924e-05 1.4958e-21
1.8762e-05 -3.73728e-05 -3.55973e-20
-2.65784e-05 4.27119e-05 1.36721e-20
-1.63708e-05 9.53469e-06 -6.33917e-21
2.52781e-06 1.21982e-05 -1.15512e-20
-2.29854e-05 -3.49873e-05 2.2255e-20
1.39353e-05 3.3464e-05 -1.1546e-20
1.75067e-05 9.36864e-06 2.69573e-21
2.28101e-05 -8.52214e-06 -1.1576e-20
-1.25312e-06 -1.12647e-05 -1.0753e-20
-3.39096e-05 -3.1556e-05 -1.03682e-20
-2.75132e-06 1.13026e-05 -2.09268e-20
1.72456e-05 1.01711e-05 -4.22279e-21
1.88863e-05 -8.82029e-06 -1.00614e-20
8.24266e-06 -1.4344e-05 -2.64038e-20
2.43554e-05 -1.07947e-05 -2.86069e-20
1.90083e-05 -8.9973e-06 -2.80291e-20
4.64033e-06 2.05787e-07 -9.10012e-21
2.5739e-05 2.02198e-05 1.9069e-21
-2.74145e-06 -1.70288e-05 -1.21378e-20
-1.04791e-05 -4.45671e-06 3.51735e-20
1.12577e-06 -3.88982e-06 -5.83923e-21
-3.15486e-06 1.58459e-05 1.95359e-21
-3.48811e-05 2.76792e-06 1.32568e-20
-1.21207e-05 -3.3256e-05 1.19271e-20
-7.87857e-06 9.77837e-06 -3.21476e-21
1.35644e-05 1.66392e-05 4.78698e-22
2.65668e-05 -1.87435e-05 -1.46929e-20
-3.67899e-05 -2.03493e-05 2.33043e-21
1.74018e-05 -2.75058e-05 -1.19569e-21
2.28024e-05 -2.72148e-05 -3.41667e-21
-1.09436e-05 3.78468e-06 2.01694e-21
-1.98276e-05 -2.88383e-05 -1.63072e-21
-3.48774e-05 -5.79102e-06 7.93074e-22
-3.85221e-06 -3.17405e-05 8.40311e-21
1.54466e-05 -3.1697e-05 -7.03554e-21
-9.10556e-06 -2.61978e-05 -2.89086e-20
4.58089e-06 3.14033e-05 -8.22728e-21
-1.57514e-05 -2.85201e-05 -5.5721e-22
2.93861e-06 -1.62912e-05 5.45636e-21
-2.47377e-05 1.82586e-05 -1.98603e-21
-1.50298e-05 -1.21103e-05 9.79009e-21
-2.7351e-05 -5.1721e-06 1.19186e-20
1.56671e-05 -9.18099e-06 -5.51366e-21
-4.30665e-06 2.3951e-05 -1.41332e-20
1.22318e-05 -9.32389e-06 -2.10314e-20
-2.95839e-05 -1.31633e-05 -3.85929e-21
-8.8311e-06 -7.45761e-06 2.89504e-20
9.08151e-06 7.54036e-06 -1.60617e-21
2.14254e-05 2.86989e-05 1.07611e-20
-1.75077e-05 -1.08086e-05 1.03049e-20
-3.2504e-05 -7.51024e-07 -1.07079e-21
-1.63357e-05 -5.01583e-06 3.34245e-20
-4.57784e-06 -1.65822e-05 -2.0631e-20
1.76836e-05 2.12379e-05 9.19801e-22
-1.09566e-05 5.87438e-06 -2.54786e-20
6.35999e-07 -2.0554e-05 -1.4651e-20
-4.1937e-05 1.08502e-05 1.95527e-22
2.4859e-05 2.02451e-05 2.43077e-21
3.79423e-06 3.27833e-05 -1.71127e-20
-2.43182e-06 3.79697e-06 2.83416e-20
-9.05034e-06 2.51186e-07 -1.93722e-22
4.35481e-06 7.75961e-06 -1.45279e-20
-1.16932e-05 3.40125e-06 2.51002e-20
-2.07326e-06 -3.7847e-06 -2.50117e-20
1.65968e-06 2.07586e-05 8.59162e-22
4.47212e-06 4.49673e-07 -1.7076e-20
-1.95369e-05 4.75635e-06 -6.86819e-21
-1.72974e-05 1.93568e-05 6.80785e-21
-3.10725e-06 1.15775e-05 -3.2272e-21
-2.92152e-05 1.83932e-05 -4.97585e-21
-9.34282e-06 8.9788e-06 1.43791e-20
1.73102e-05 -1.16131e-05 -2.91002e-20
3.6602e-05 -3.56448e-06 -4.99343e-21
-2.11394e-05 1.12967e-05 -1.27202e-20
2.23287e-06 4.49798e-06 -2.10839e-20
2.1774e-05 -4.34464e-06 -1.0873e-20
-1.72779e-05 1.03522e-05 -1.80113e-20
-9.8712e-06 5.53871e-06 6.32157e-21
1.18307e-05 3.74247e-06 -1.83482e-20
2.18786e-05 -1.34704e-05 -1.71152e-20
-1.7379e-05 9.95552e-06 -1.26323e-20
-2.50354e-05 -5.30272e-06 -7.37812e-21
-1.67607e-05 -4.36222e-06 1.95038e-20
9.87564e-06 6.2367e-09 -2.0922e-20
1.01733e-05 1.9535e-07 -1.22909e-20
4.39051e-06 8.31668e-06 -5.88319e-21
4.82927e-06 -8.79725e-06 1.04622e-20
-5.01006e-06 8.41934e-06 -3.49489e-21
-5.26636e-06 -8.65709e-06 2.6051e-21
9.91042e-06 -7.40758e-06 -3.69991e-20
-2.03263e-05 3.23472e-06 3.86323e-20
-2.00587e-05 -3.28354e-06 -6.46044e-21
-1.2834e-05 1.58755e-05 -4.84122e-21
-1.29138e-05 -1.59298e-05 -1.84354e-20
7.48583e-06 -1.98426e-05 -1.42084e-20
7.20559e-06 1.97627e-05 4.30194e-22
1.55769e-06 2.58835e-05 -1.33256e-20
1.12398e-05 -3.13665e-06 -1.69697e-20
2.35976e-06 -3.8663e-06 -2.25791e-20
-2.141e-05 1.4216e-06 -1.28123e-20
7.67672e-06 -1.95119e-05 -1.76666e-20
7.273e-06 1.96604e-05 -9.17467e-21
4.76851e-06 -5.27111e-08 -3.07533e-21
8.96763e-06 2.44016e-05 -2.29586e-20
-2.24216e-06 -4.01608e-06 2.03036e-20
2.3176e-06 -1.13163e-05 -1.83869e-20
-2.2429e-05 -1.21508e-05 -1.04473e-20
-2.13567e-05 -1.14938e-05 1.84885e-20
-2.18911e-05 1.36276e-05 1.42096e-20
3.25103e-06 -1.22868e-05 -2.46643e-20
-1.56523e-06 3.38173e-06 -1.33289e-20
-5.87323e-07 -2.55671e-05 -8.53741e-21
-7.71967e-06 -2.44209e-05 3.55491e-21
3.27014e-05 3.03601e-05 2.72234e-22
3.54504e-05 -1.81505e-06 9.92347e-21
-1.27101e-05 -3.63189e-06 -2.51766e-20
-2.28907e-05 -4.13825e-05 4.37861e-21
8.30355e-06 1.37468e-05 6.03933e-21
-2.52336e-05 3.03304e-06 -1.52886e-21
2.00635e-05 5.78592e-06 -3.65162e-21
-4.53274e-06 -3.274e-08 5.15228e-21
-4.66481e-06 -8.41204e-06 -2.26491e-20
-7.0723e-06 -3.93294e-05 -2.35098e-20
-9.70752e-06 -8.39066e-08 8.31371e-21
-4.86699e-05 -1.81555e-06 3.83442e-21
1.73072e-05 -1.91036e-05 -1.87865e-20
2.42914e-06 3.99873e-06 -7.92381e-21
-1.20633e-07 -1.75121e-05 4.25279e-21
-9.81757e-06 2.40817e-05 -6.44559e-21
-4.37167e-06 8.62665e-06 7.62066e-21
2.05544e-05 -1.36048e-05 -3.9945e-21
-3.76554e-05 -1.35502e-05 2.02647e-20
-1.52644e-05 -2.03638e-05 -9.25255e-22
4.9766e-06 8.38828e-06 -4.931e-21
1.66295e-05 5.16008e-06 5.89533e-21
-4.76342e-06 -7.33756e-06 1.42824e-20
1.97945e-05 3.54683e-06 -2.37487e-20
1.81866e-05 -9.82476e-06 -5.64069e-21
-3.48788e-07 2.71698e-05 1.34272e-21
8.31944e-06 -1.36652e-05 -2.11451e-20
4.87982e-05 2.20033e-06 1.42093e-20
-4.23517e-05 1.14519e-05 8.06083e-21
2.28571e-05 1.15547e-05 -1.3934e-20
-6.4521e-06 -1.7177e-05 -3.12765e-20
-1.53478e-05 -8.61698e-06 1.64052e-20
2.87835e-05 -2.10518e-07 -3.42759e-21
-6.91888e-07 -2.42516e-05 -3.81442e-20
-1.26156e-05 -1.08725e-05 -8.86331e-21
1.02224e-05 -2.34963e-05 -1.21399e-20
-4.9654e-07 2.05525e-05 -8.36764e-21
7.91655e-06 2.6064e-05 -4.94462e-21
1.72654e-05 -9.88284e-06 -1.33911e-20
-1.89451e-05 1.92957e-05 7.93198e-21
1.65253e-05 2.00265e-05 -3.62312e-21
-6.22213e-05 1.60195e-05 -1.22069e-20
-1.01076e-05 2.60123e-05 -4.04721e-22
1.25172e-05 -1.5246e-05 1.71303e-22
-7.02804e-06 -1.8395e-05 1.79704e-20
-1.18518e-05 4.50499e-06 -1.78785e-20
-2.58894e-05 -7.04473e-06 -1.58374e-21
-6.38516e-06 3.8852e-05 7.73252e-21
-1.2604e-05 1.19007e-05 4.32797e-21
2.07735e-05 -4.47493e-06 -2.67597e-20
-6.87143e-06 -2.57903e-05 -1.8011e-20
-1.48665e-05 2.38873e-05 -4.04392e-21
-2.17856e-05 1.25629e-05 -2.32812e-20
-2.05664e-05 -1.50531e-05 -6.32036e-21
1.80259e-05 -2.06519e-05 -2.55095e-20
-2.75265e-05 -1.45603e-06 -1.20099e-20
1.23652e-05 -4.08041e-05 1.3854e-20
1.93833e-05 -1.89103e-05 -1.87723e-20
2.47288e-05 4.30754e-05 -6.53472e-21
1.97082e-06 1.98635e-05 -1.24498e-20
2.96064e-06 -2.54174e-05 -1.99012e-20
-4.16301e-05 4.69548e-05 -7.77191e-21
-1.27002e-05 -2.44078e-05 -8.86695e-21
1.63644e-05 -6.41957e-06 -2.51181e-20
-2.41054e-06 2.57683e-05 -1.66317e-21
1.2881e-05 -1.18247e-05 -3.54333e-20
1.38784e-05 2.43093e-05 2.84368e-21
1.72273e-05 -1.40028e-06 -6.46954e-21
2.21167e-05 -6.3207e-05 -1.20993e-21
-5.87523e-06 -1.28572e-05 3.62828e-21
-2.31808e-05 1.00856e-05 2.02723e-20
-2.00169e-05 1.87161e-05 -1.15181e-20
2.1609e-05 1.45654e-05 -2.61601e-21
1.86698e-05 -1.07551e-05 -1.17655e-20
1.49497e-05 1.25915e-05 -1.04695e-20
-5.42731e-06 4.55051e-08 -2.22171e-20
1.54013e-05 -2.30838e-05 -2.22038e-20
-1.69877e-05 -2.0406e-05 1.2816e-20
2.25584e-05 9.77224e-06 -1.34572e-20
1.28047e-05 -1.19879e-05 -4.10124e-20
9.55248e-06 -2.4848e-05 -1.81014e-20
1.66567e-05 -6.93184e-06 -2.85348e-20
-1.5803e-05 -7.54348e-06 3.24053e-21
1.29665e-06 -2.6299e-05 -3.08625e-20
-2.61028e-05 4.47239e-06 7.38084e-21
2.39003e-06 2.45391e-05 -1.30764e-20
2.05818e-05 6.62646e-06 3.04164e-21
-2.17172e-05 -1.07002e-05 1.64734e-20
-8.97586e-06 2.56062e-05 -8.22606e-21
-1.49517e-06 -2.41843e-05 1.3573e-20
1.94635e-05 1.18356e-05 -7.18985e-21
-1.7687e-06 1.80821e-05 -1.02818e-20
-2.01358e-05 1.37005e-05 2.35237e-20
2.35074e-05 1.14135e-05 -7.52394e-21
-1.71127e-05 -9.98415e-06 6.15394e-21
9.50868e-08 -1.98319e-05 -6.28611e-21
1.83797e-05 1.99814e-05 2.3753e-21
-2.21506e-05 -1.43016e-05 3.79653e-21
4.83442e-05 -3.39774e-05 -1.71155e-20
1.78945e-05 -1.0821e-05 -1.84094e-20
9.00061e-06 4.30812e-05 -8.54348e-21
1.70318e-05 -1.36767e-05 3.18019e-21
-1.98723e-05 8.70238e-05 8.41283e-22
-1.97625e-05 -8.65381e-05 3.80171e-22
5.71767e-05 7.17082e-05 1.06805e-20
5.69142e-05 -7.1382e-05 -1.41457e-20
9.06353e-05 -1.61015e-10 1.92843e-21
-7.8191e-05 3.7633e-05 1.06165e-20
-7.74453e-05 -3.72774e-05 -1.29591e-20
1.22323e-05 1.18172e-05 -1.47838e-20
2.93643e-05 2.18896e-05 -8.7951e-21
1.14467e-05 3.33241e-06 -9.65458e-21
1.88534e-05 9.75031e-06 -1.75754e-20
4.98861e-06 2.01677e-05 -2.1155e-21
-1.88295e-05 -1.49785e-05 -7.85062e-23
1.70359e-05 -1.0213e-05 -1.11113e-20
1.98502e-05 1.45476e-05 -8.35612e-21
-3.16657e-06 2.43611e-05 -3.3167e-22
2.94371e-05 -1.99904e-05 -1.68729e-20
3.79343e-06 -2.3737e-05 1.64009e-20
2.19582e-05 5.22643e-06 2.63783e-21
2.98923e-05 1.10247e-05 6.86606e-21
1.4207e-05 1.41421e-05 3.63345e-21
1.58813e-05 6.59292e-06 -1.51491e-20
-1.84966e-05 1.09353e-05 3.83112e-20
-2.25605e-05 9.03557e-06 2.12697e-20
2.29268e-05 -1.12622e-05 -6.41195e-21
-1.82658e-05 -9.99684e-06 -7.35233e-21
-1.85523e-05 -1.05812e-05 2.42195e-20
-3.43819e-07 -2.07654e-05 -2.13398e-21
-8.61449e-08 -2.11583e-05 2.02089e-21
-2.01247e-05 -1.00536e-06 -1.46798e-20
2.6696e-05 -4.01871e-06 -9.95599e-22
1.811e-05 1.13409e-05 -2.18203e-20
-1.78622e-05 1.09438e-05 2.55146e-20
-1.53597e-05 1.66218e-05 -1.43457e-20
1.60203e-05 -1.37517e-05 -2.78463e-20
-1.10223e-05 1.74614e-05 3.3442e-21
-1.42233e-05 -1.48879e-05 3.33209e-21
-1.15512e-06 2.12083e-05 -4.96766e-21
-1.28754e-06 2.09659e-05 -8.50165e-21
8.97083e-08 -1.98318e-05 -1.54014e-20
6.11015e-06 -1.97352e-05 -1.74453e-20
-1.71391e-05 -9.9344e-06 1.17261e-20
1.55851e-05 -5.48969e-06 -2.15226e-20
6.63086e-07 2.14755e-05 -1.56918e-20
3.00806e-07 1.85055e-05 -1.80492e-20
-2.3455e-06 1.68555e-05 -7.23867e-21
2.19064e-05 -5.52683e-06 -4.96342e-21
-1.65396e-05 5.3775e-06 -1.63891e-20
4.15701e-06 2.15152e-05 -6.93278e-21
-3.2555e-05 1.29179e-05 -7.85107e-21
9.7623e-06 4.17272e-05 -1.03976e-20
-1.70517e-05 4.56766e-06 -1.18765e-20
1.96824e-05 -1.16289e-05 -3.8881e-21
9.45669e-07 2.10173e-05 1.14413e-21
-2.04791e-05 6.69874e-06 5.35206e-21
2.44385e-06 -1.62608e-05 -1.40192e-20
1.81891e-06 -5.80067e-05 -9.11917e-22
2.00626e-06 1.74845e-05 -1.36033e-20
-1.69603e-05 1.40212e-05 1.78006e-20
1.78523e-05 6.39654e-05 -1.01218e-20
4.57647e-05 3.77031e-05 2.05142e-20
5.20598e-05 -3.52522e-05 -3.02367e-20
1.4814e-05 -1.01661e-05 -6.10029e-21
-1.5784e-05 1.40362e-05 2.9369e-20
-2.02149e-05 -7.91994e-06 6.76754e-21
-1.96438e-05 -6.82175e-06 5.12954e-21
5.92614e-05 -2.46096e-05 -1.50346e-20
5.74282e-05 2.38686e-05 1.38513e-20
1.08935e-05 3.81712e-06 -1.41496e-20
7.66557e-07 1.95775e-05 -1.3311e-20
7.83469e-08 1.95588e-05 -9.12707e-21
-4.83784e-05 -3.69152e-05 2.96344e-21
1.14241e-05 -1.71703e-05 -4.8034e-20
1.17322e-05 1.24635e-05 -5.92384e-21
-2.14162e-05 -3.39543e-06 -1.50736e-20
-1.40437e-05 1.72005e-05 2.35246e-20
-1.88868e-05 9.16692e-06 1.95517e-20
4.7639e-05 3.36913e-05 1.55729e-20
1.5805e-05 7.06103e-06 -1.62933e-20
-5.56627e-06 2.00286e-05 -3.24144e-21
-1.69766e-05 -1.17482e-05 2.4987e-21
1.85608e-06 -2.05411e-05 1.8667e-20
-8.94894e-06 -1.92656e-05 -1.88635e-20
-1.72476e-05 -1.17725e-05 1.61168e-20
1.05786e-05 -1.89341e-05 -3.11268e-20
1.41212e-05 -1.69878e-05 -2.28529e-20
-2.4402e-06 -6.1432e-05 3.15352e-21
2.61779e-05 -4.11221e-05 3.67525e-21
1.74734e-06 -2.07838e-05 -1.27906e-21
1.79571e-05 1.13545e-05 -9.40205e-21
-1.44751e-05 -1.4904e-05 -6.46224e-21
-9.84025e-06 1.97084e-05 -5.59096e-21
-5.039e-06 2.10049e-05 -1.21066e-20
1.66258e-05 1.42426e-05 -9.09493e-21
6.05849e-06 -1.98598e-05 -5.89777e-21
-1.34054e-05 -4.03545e-05 -4.88215e-21
-1.98822e-06 2.50384e-05 1.8396e-21
1.47906e-05 1.44539e-05 -8.6007e-22
-1.29572e-05 -1.02159e-05 9.05248e-22
-1.35139e-05 1.06073e-05 -1.39359e-20
4.43392e-05 -1.89117e-05 -9.91354e-22
7.56243e-06 -1.33991e-05 -6.44541e-22
-8.31649e-06 -1.2626e-05 -4.91307e-21
2.13288e-05 6.36295e-06 -1.33762e-20
1.09934e-05 -5.06579e-05 -3.2374e-20
-3.84484e-05 -3.49001e-05 1.59707e-20
2.33049e-05 6.2069e-06 -4.3307e-21
-9.3275e-06 -1.82797e-05 -9.55392e-21
1.87041e-05 9.48203e-06 -2.12446e-20
-2.85622e-05 -3.25486e-05 2.67699e-22
9.68741e-06 5.00429e-05 2.32967e-20
3.43314e-05 -5.9855e-05 -4.94947e-21
-3.47344e-05 -5.97718e-05 1.11904e-20
2.78061e-05 -5.20181e-05 9.87467e-21
-1.26971e-05 4.36297e-05 -6.21397e-21
-6.27558e-06 3.89743e-05 2.70605e-20
-1.87292e-05 8.94517e-06 1.16151e-20
5.97673e-06 2.42403e-05 8.90394e-21
-2.39139e-06 1.2653e-05 -1.09018e-20
1.01194e-05 3.23288e-06 -8.58867e-21
-3.18823e-06 1.62042e-05 6.01024e-21
-2.47438e-07 2.09901e-05 -2.71757e-21
1.66593e-05 9.74981e-06 -1.22815e-20
1.71003e-06 5.77196e-05 8.51043e-21
-1.47161e-05 1.07318e-05 -9.45267e-21
1.59481e-05 -6.24611e-06 -2.96471e-20
1.68705e-05 -4.50861e-06 -3.02495e-20
-6.06577e-05 -8.76813e-06 -3.20535e-21
-3.46029e-05 1.67401e-05 -1.4538e-20
-4.35111e-05 -5.25419e-05 9.13799e-21
8.65582e-06 8.34502e-06 -1.98024e-20
1.42088e-05 7.29196e-06 3.41241e-21
2.68026e-05 -4.19553e-06 -1.97196e-20
-8.10373e-06 -1.32417e-05 1.54277e-20
1.72152e-05 8.42794e-06 -1.10152e-20
7.33473e-06 -3.00322e-05 -3.15152e-20
-1.37126e-05 1.02041e-05 -4.29555e-21
-2.23726e-05 -2.14206e-05 4.77181e-21
-5.83551e-06 1.62964e-05 -1.33671e-20
-3.27074e-06 2.06769e-05 -1.1673e-20
3.3847e-05 2.12947e-05 1.02242e-20
3.61103e-05 -1.92813e-05 -2.63935e-20
-4.20669e-05 -1.1622e-05 4.4362e-21
7.63356e-06 7.68511e-06 -1.26001e-20
-4.05827e-06 0.000101353 5.87957e-21
8.61618e-07 -0.000104459 1.3794e-21
5.24499e-05 8.76376e-05 -1.33422e-21
-1.91014e-05 8.4572e-06 -5.45727e-21
-2.63744e-05 5.65447e-05 8.52799e-22
5.30281e-05 -8.46325e-05 -4.49987e-21
-1.17195e-05 -1.82808e-05 -6.0557e-21
7.79935e-05 6.74921e-05 1.157e-20
2.39916e-05 -1.79753e-05 -3.12414e-20
-3.60714e-06 -2.98196e-05 1.14275e-20
8.17719e-05 -6.58448e-05 -1.12717e-20
-6.74407e-06 1.45171e-05 -5.90595e-21
-5.38274e-05 -3.48208e-05 1.53668e-20
-4.30096e-05 -9.31217e-05 -8.81571e-21
-2.41105e-05 -5.77993e-05 -1.11583e-20
-4.39712e-05 9.41287e-05 -1.05198e-21
-1.00925e-05 6.40784e-05 1.11716e-20
1.56314e-05 3.71051e-05 1.66422e-20
-2.7953e-05 3.72372e-05 2.21471e-20
-2.52709e-05 -5.51785e-05 -5.90291e-21
0.000100357 1.73155e-05 6.76239e-21
-1.6926e-05 1.07661e-05 -9.94501e-21
-5.91185e-06 1.63316e-05 -8.4686e-21
-5.07536e-05 3.76363e-05 9.12766e-21
-1.72748e-05 9.94327e-06 8.62502e-21
9.91942e-05 -1.5262e-05 -2.18106e-20
-1.53589e-05 7.79803e-06 -1.72943e-20
7.19199e-06 -1.44937e-05 -1.72367e-20
-7.79626e-05 -6.09428e-05 -3.4782e-21
-2.58767e-05 5.77122e-05 2.02644e-20
-7.91156e-05 6.03701e-05 -4.19852e-21
2.45381e-05 5.19458e-05 -6.237e-21
-1.47663e-05 1.05815e-05 -9.43569e-21
-2.05281e-05 2.44745e-05 -8.29156e-21
-2.85302e-05 4.98136e-05 1.3268e-20
-5.67711e-05 2.0797e-07 2.34322e-20
-9.44031e-07 1.62947e-05 -2.16153e-22
-2.88471e-05 -5.04021e-05 -7.63885e-21
-5.81933e-05 -2.19782e-07 -2.53233e-21
-2.83471e-05 4.8692e-05 -1.53855e-21
-1.5189e-05 6.62604e-05 2.20586e-20
-1.78633e-05 4.12569e-05 2.36329e-20
-3.38973e-05 2.7135e-05 3.34299e-21
2.43808e-05 -6.05642e-06 1.26569e-21
3.79994e-05 -2.19512e-06 -1.05132e-20
1.34812e-05 8.1996e-06 -1.79716e-21
-1.04683e-05 -7.39812e-05 -1.77454e-20
-6.94429e-05 -2.79718e-05 1.5358e-20
3.7129e-05 7.32675e-07 1.2219e-20
5.83611e-05 -1.08912e-05 6.62108e-22
-1.05828e-05 -1.34959e-05 -1.17991e-20
-5.08244e-05 3.76221e-05 2.10466e-20
-4.61296e-05 5.39953e-05 2.07774e-20
6.23572e-05 -2.22305e-05 5.01123e-22
-2.8175e-05 -5.04927e-05 -3.48339e-20
-2.87746e-05 4.97752e-05 1.39295e-20
-5.72495e-05 -1.17105e-06 1.06665e-20
-2.65711e-05 5.05934e-05 -1.48833e-20
-5.79481e-05 -8.16943e-07 2.80185e-20
6.60704e-05 1.73909e-05 1.14111e-20
5.63753e-05 1.29239e-06 -9.38927e-22
5.08957e-05 -2.92713e-05 -1.58855e-20
2.49081e-05 -5.9422e-05 -3.48839e-20
2.99159e-05 -4.88526e-05 -3.11226e-20
2.91649e-05 4.86765e-05 -3.40787e-21
2.43429e-05 5.80844e-05 5.76043e-21
7.57958e-05 -2.00358e-05 2.05955e-20
4.62623e-05 2.90608e-05 1.08175e-20
4.66202e-05 1.37443e-05 1.95814e-21
TENSORS solid_stress_TPM float
375.029 -24.9203 -1.80478e-12
-24.9203 238.568 -1.75149e-12
-1.80478e-12 -1.75149e-12 197.816

456.999 -21.3202 -1.64002e-12
-21.3202 489.983 2.84987e-12
-1.64002e-12 2.84987e-12 487.106

454.874 28.0429 5.41078e-12
28.0429 463.704 -2.46766e-12
5.41078e-12 -2.46766e-12 458.454

455.024 -29.8427 -2.26811e-12
-29.8427 482.604 2.09136e-12
-2.26811e-12 2.09136e-12 484.853

527.683 19.9309 2.1491e-12
19.9309 548.453 -3.85477e-12
2.1491e-12 -3.85477e-12 527.354

437.307 -18.0742 4.84116e-12
-18.0742 480.333 5.73408e-12
4.84116e-12 5.73408e-12 458.035

372.323 26.4844 1.16529e-12
26.4844 239.088 2.6823e-12
1.16529e-12 2.6823e-12 197.8

473.647 29.9577 -6.69687e-13
29.9577 469.497 -2.67786e-12
-6.69687e-13 -2.67786e-12 472.333

471.543 5.48308 1.4578e-12
5.48308 417.818 -3.062e-12
1.4578e-12 -3.062e-12 432.791

504.254 -7.47756 5.26986e-13
-7.47756 444.107 -1.96125e-12
5.26986e-13 -1.96125e-12 483.447

360.289 16.3083 -2.6598e-12
16.3083 247.653 1.27898e-13
-2.6598e-12 1.27898e-13 233.642

444.777 -13.4531 3.73213e-12
-13.4531 498.38 -5.58191e-12
3.73213e-12 -5.58191e-12 472.234

466.862 27.8329 -1.15049e-12
27.8329 468.297 4.49418e-13
-1.15049e-12 4.49418e-13 466.729

457.032 -14.34 -1.26641e-12
-14.34 500.429 1.89774e-12
-1.26641e-12 1.89774e-12 483.453

512.933 33.3115 -3.63561e-13
33.3115 511.593 -3.00833e-13
-3.63561e-13 -3.00833e-13 515.222

489.167 0.560962 1.44655e-12
0.560962 435.518 3.72135e-12
1.44655e-12 3.72135e-12 462.267

457.579 -17.9692 -3.01414e-12
-17.9692 512.881 -2.96385e-12
-3.01414e-12 -2.96385e-12 493.592

493.952 -2.6652 -1.47467e-12
-2.6652 439.044 1.89745e-12
-1.47467e-12 1.89745e-12 474.259

418.788 26.6734 6.76792e-13
26.6734 449.654 -4.88913e-12
6.76792e-13 -4.88913e-12 424.048

481.976 -4.19552 -3.09797e-12
-4.19552 424.916 -1.58836e-13
-3.09797e-12 -1.58836e-13 453.469

425.291 8.66847 -2.81301e-12
8.66847 481.897 3.34902e-12
-2.81301e-12 3.34902e-12 444.836

634.128 6.28778 1.37582e-11
6.28778 633.963 -1.70234e-13
1.37582e-11 -1.70234e-13 570.315

479.147 1.87596 -1.71715e-14
1.87596 422.935 -4.0179e-12
-1.71715e-14 -4.0179e-12 449.727

447.157 -27.7148 -3.26465e-12
-27.7148 461.145 -2.35663e-12
-3.26465e-12 -2.35663e-12 452.943

481.043 6.84932 2.79362e-12
6.84932 425.435 2.51399e-12
2.79362e-12 2.51399e-12 452.933

449.753 19.1128 5.62439e-13
19.1128 490.312 1.58303e-12
5.62439e-13 1.58303e-12 478.201

377.65 4.18131 -2.66454e-12
4.18131 291.651 7.25346e-14
-2.66454e-12 7.25346e-14 258.999

462.68 30.7456 4.27865e-12
30.7456 460.709 4.83169e-13
4.27865e-12 4.83169e-13 460.54

384.936 37.0738 -3.34074e-12
37.0738 383.515 -3.15955e-12
-3.34074e-12 -3.15955e-12 348.414

586.94 10.3235 -5.20473e-13
10.3235 563.448 -1.70423e-12
-5.20473e-13 -1.70423e-12 546.869

491.682 14.2168 -2.78e-12
14.2168 442.492 -4.63955e-12
-2.78e-12 -4.63955e-12 465.851

352.851 -17.7801 -3.70844e-12
-17.7801 416.718 -3.606e-12
-3.70844e-12 -3.606e-12 348.585

331.014 -42.1011 -2.54848e-12
-42.1011 335.869 -8.2423e-13
-2.54848e-12 -8.2423e-13 253.479

531.407 5.98684 2.44265e-12
5.98684 586.886 -3.70311e-12
2.44265e-12 -3.70311e-12 538.579

554.021 -4.84082 -4.26503e-12
-4.84082 582.068 5.19584e-13
-4.26503e-12 5.19584e-13 542.509

577.984 21.0279 2.80872e-12
21.0279 539.944 -6.57518e-12
2.80872e-12 -6.57518e-12 538.347

556.182 5.06763 2.09018e-13
5.06763 600.672 2.72848e-12
2.09018e-13 2.72848e-12 547.966

573.772 -9.16989 -1.20141e-12
-9.16989 555.762 -1.9314e-12
-1.20141e-12 -1.9314e-12 540.634

467.122 -27.9979 3.19744e-14
-27.9979 466.486 1.82669e-12
3.19744e-14 1.82669e-12 465.102

330.398 41.5204 -9.52127e-13
41.5204 337.967 4.358e-12
-9.52127e-13 4.358e-12 253.838

414.52 -17.9488 1.91018e-12
-17.9488 354.483 -1.18779e-12
1.91018e-12 -1.18779e-12 346.316

559.303 -3.70617 5.00044e-13
-3.70617 599.922 2.99923e-12
5.00044e-13 2.99923e-12 548.38

586.41 19.5557 2.80442e-13
19.5557 572.452 1.26121e-12
2.80442e-13 1.26121e-12 548.169

490.886 -12.2732 -1.13095e-12
-12.2732 442.847 -1.8634e-12
-1.13095e-12 -1.8634e-12 466.523

341.703 -43.2983 -2.2536e-12
-43.2983 345.331 -7.78044e-13
-2.2536e-12 -7.78044e-13 288.972

417.545 -18.0631 4.12115e-13
-18.0631 357.1 -4.41543e-12
4.12115e-13 -4.41543e-12 351.489

413 17.0854 -6.83749e-13
17.0854 464.768 1.70589e-12
-6.83749e-13 1.70589e-12 428.713

429.616 19.3387 -4.76656e-12
19.3387 466.498 7.40741e-13
-4.76656e-12 7.40741e-13 437.067

486.766 -16.3009 -1.06641e-12
-16.3009 432.861 -1.43589e-13
-1.06641e-12 -1.43589e-13 458.664

355.569 -34.1848 -5.37052e-13
-34.1848 389.388 1.36779e-12
-5.37052e-13 1.36779e-12 332.556

410.238 19.1815 -1.67214e-12
19.1815 350.689 5.80691e-12
-1.67214e-12 5.80691e-12 339.465

425.186 -25.2879 -4.73695e-15
-25.2879 383.808 8.48506e-13
-4.73695e-15 8.48506e-13 373.064

519.91 19.4858 -1.63973e-12
19.4858 547.52 1.01608e-12
-1.63973e-12 1.01608e-12 525.72

416.399 29.6488 -3.23534e-12
29.6488 393.872 -1.83083e-12
-3.23534e-12 -1.83083e-12 373.928

522.165 -21.8128 -1.2097e-12
-21.8128 541.386 -4.84464e-13
-1.2097e-12 -4.84464e-13 524.367

364.059 -42.7105 5.23907e-12
-42.7105 343.271 8.69231e-13
5.23907e-12 8.69231e-13 289.689

553.442 5.45983 3.07458e-13
5.45983 583.861 1.62241e-12
3.07458e-13 1.62241e-12 542.883

373.704 -5.32968 -6.1906e-13
-5.32968 436.648 2.43598e-12
-6.1906e-13 2.43598e-12 373.812

580.81 10.3842 2.33739e-12
10.3842 556.161 4.19101e-12
2.33739e-12 4.19101e-12 542.639

435.043 21.4128 -4.3648e-12
21.4128 473.748 1.03739e-12
-4.3648e-12 1.03739e-12 454.659

513.561 5.75382 -1.1573e-12
5.75382 452.794 -3.36294e-12
-1.1573e-12 -3.36294e-12 494.854

522.447 11.4589 2.19469e-12
11.4589 487.851 1.10785e-12
2.19469e-12 1.10785e-12 507.068

383.694 31.8194 -2.65506e-12
31.8194 315.185 5.30894e-12
-2.65506e-12 5.30894e-12 269.863

482.077 -6.03508 2.551e-12
-6.03508 528.17 -3.70844e-12
2.551e-12 -3.70844e-12 504.09

487.086 9.51965 3.9894e-13
9.51965 523.679 -4.05098e-12
3.9894e-13 -4.05098e-12 507.486

456.448 -2.88074 8.34037e-13
-2.88074 520.146 2.14821e-12
8.34037e-13 2.14821e-12 487.797

464.444 23.4021 -2.27207e-12
23.4021 503.459 3.62673e-13
-2.27207e-12 3.62673e-13 495.43

496.736 8.46344 1.33404e-12
8.46344 444.387 -3.38736e-12
1.33404e-12 -3.38736e-12 477.688

445.496 -28.2389 -1.80952e-12
-28.2389 459.517 3.14593e-12
-1.80952e-12 3.14593e-12 451.156

501.67 -1.71121 1.25159e-12
-1.71121 444.905 5.86346e-13
1.25159e-12 5.86346e-13 489.058

519.523 -19.2619 -3.40542e-12
-19.2619 546.813 -5.60441e-13
-3.40542e-12 -5.60441e-13 525.453

523.294 21.3078 5.87974e-13
21.3078 542.911 4.24216e-12
5.87974e-13 4.24216e-12 525.256

353.401 -16.5831 -4.01412e-12
-16.5831 415.725 -7.92255e-13
-4.01412e-12 -7.92255e-13 346.104

506.011 -27.936 1.19549e-12
-27.936 485.3 -1.66741e-12
1.19549e-12 -1.66741e-12 493.87

449.71 -25.1343 -2.03186e-12
-25.1343 471.209 1.0522e-12
-2.03186e-12 1.0522e-12 458.567

357.862 -31.71 4.58774e-12
-31.71 285.67 -2.66957e-12
4.58774e-12 -2.66957e-12 249.852

498.491 3.22258 1.00083e-12
3.22258 541.396 -1.84031e-12
1.00083e-12 -1.84031e-12 513.633

501.716 28.9437 -1.11259e-12
28.9437 474.54 -1.68339e-12
-1.11259e-12 -1.68339e-12 487.648

448.435 19.6641 1.69006e-12
19.6641 492.097 7.63833e-14
1.69006e-12 7.63833e-14 477.633

440.182 7.99938 -2.60769e-12
7.99938 373.029 1.19608e-12
-2.60769e-12 1.19608e-12 382.926

386.442 -33.9349 -6.75016e-13
-33.9349 360.198 -2.07242e-13
-6.75016e-13 -2.07242e-13 319.428

537.712 -10.5875 -6.82417e-13
-10.5875 556.13 2.53042e-12
-6.82417e-13 2.53042e-12 531.241

482.647 23.8994 6.79456e-13
23.8994 504.55 -2.10885e-12
6.79456e-13 -2.10885e-12 502.033

385.363 -32.3832 -9.33179e-13
-32.3832 345.299 1.77162e-12
-9.33179e-13 1.77162e-12 317.074

422.188 10.7909 1.82728e-12
10.7909 363.843 -7.94772e-13
1.82728e-12 -7.94772e-13 350.245

307.645 -21.2056 -2.33561e-12
-21.2056 388.434 -5.32907e-12
-2.33561e-12 -5.32907e-12 288.109

434.435 14.4255 -2.59393e-12
14.4255 488.659 -9.84102e-13
-2.59393e-12 -9.84102e-13 460.875

509.712 23.1428 3.05e-12
23.1428 475.163 4.32247e-13
3.05e-12 4.32247e-13 489.937

338.234 42.1979 1.79294e-12
42.1979 349.564 7.14569e-12
1.79294e-12 7.14569e-12 288.945

634.213 16.5072 -7.177e-12
16.5072 603.066 1.03496e-11
-7.177e-12 1.03496e-11 565.319

372.881 -4.10827 -2.59318e-12
-4.10827 436.808 5.09578e-12
-2.59318e-12 5.09578e-12 373.419

637.119 -16.6323 -1.4442e-11
-16.6323 599.536 1.22317e-12
-1.4442e-11 1.22317e-12 564.826

533.931 -27.335 -1.99248e-12
-27.335 507.231 2.57513e-12
-1.99248e-12 2.57513e-12 515.706

505.288 27.4245 4.41129e-12
27.4245 466.326 -2.81405e-12
4.41129e-12 -2.81405e-12 485.064

426.917 -24.4101 -5.04485e-13
-24.4101 386.231 -9.07422e-13
-5.04485e-13 -9.07422e-13 375.97

358.929 31.3226 -9.61009e-13
31.3226 395.996 -2.11031e-12
-9.61009e-13 -2.11031e-12 339.193

339.818 -10.7049 -5.00755e-12
-10.7049 408.383 -1.65793e-12
-5.00755e-12 -1.65793e-12 319.099

453.095 21.9706 -1.47008e-12
21.9706 494.67 -1.21976e-13
-1.47008e-12 -1.21976e-13 483.16

533.106 16.794 -1.07262e-12
16.794 506.191 1.55638e-12
-1.07262e-12 1.55638e-12 513.345

443.444 15.1537 1.75534e-12
15.1537 488.431 -2.06768e-12
1.75534e-12 -2.06768e-12 464.274

451.472 15.9536 -1.00897e-12
15.9536 400.529 9.44282e-13
-1.00897e-12 9.44282e-13 403.739

374.481 -21.4721 -2.60532e-12
-21.4721 419.859 -6.44225e-13
-2.60532e-12 -6.44225e-13 357.19

389.715 -29.39 -1.30266e-12
-29.39 342.363 8.78112e-13
-1.30266e-12 8.78112e-13 314.385

454.957 -24.5728 -2.35219e-12
-24.5728 480.057 -3.41416e-12
-2.35219e-12 -3.41416e-12 478.362

466.418 27.4507 -2.64914e-12
27.4507 478.735 -1.76067e-12
-2.64914e-12 -1.76067e-12 479.802

452.209 23.1875 4.18021e-12
23.1875 492.551 1.91817e-12
4.18021e-12 1.91817e-12 482.035

466.289 13.1692 -1.59445e-12
13.1692 529.769 -3.36146e-12
-1.59445e-12 -3.36146e-12 501.376

490.853 9.37219 2.12926e-12
9.37219 437.882 6.5592e-13
2.12926e-12 6.5592e-13 462.048

327.706 -4.66497 -1.89419e-12
-4.66497 403.374 -2.36137e-12
-1.89419e-12 -2.36137e-12 314.406

462.571 -36.8334 -5.69618e-13
-36.8334 487.682 -2.89561e-12
-5.69618e-13 -2.89561e-12 492.741

445.842 27.4649 3.71495e-12
27.4649 463.262 2.35071e-13
3.71495e-12 2.35071e-13 455.007

305.666 2.1703 -6.79753e-12
2.1703 393.353 -3.25902e-12
-6.79753e-12 -3.25902e-12 297.25

385.99 34.6097 2.33295e-12
34.6097 332.442 4.4776e-12
2.33295e-12 4.4776e-12 306.24

453.343 -22.9736 -1.91358e-12
-22.9736 480.062 -2.61302e-12
-1.91358e-12 -2.61302e-12 476.165

501.386 5.73296 -7.8515e-13
5.73296 441.308 5.10999e-13
-7.8515e-13 5.10999e-13 481.003

422.373 27.2035 -1.8486e-12
27.2035 389.76 8.7752e-13
-1.8486e-12 8.7752e-13 374.228

570.537 12.7455 1.43071e-12
12.7455 565.913 -3.22053e-12
1.43071e-12 -3.22053e-12 542.911

396.171 24.33 3.76114e-12
24.33 349.642 4.48056e-12
3.76114e-12 4.48056e-12 319.038

569.159 -13.0551 3.23859e-12
-13.0551 565.825 -2.91589e-12
3.23859e-12 -2.91589e-12 542.367

375.085 0.778517 -1.9161e-12
0.778517 438.861 4.5001e-14
-1.9161e-12 4.5001e-14 374.634

461.463 -2.23527 1.71359e-12
-2.23527 399.296 -3.46441e-12
1.71359e-12 -3.46441e-12 417.275

538.19 -15.7681 3.87542e-13
-15.7681 480.625 -6.30311e-13
3.87542e-13 -6.30311e-13 513.472

457.237 24.3881 5.10719e-13
24.3881 487.777 3.0312e-12
5.10719e-13 3.0312e-12 488.347

461.249 -13.535 -1.61737e-12
-13.535 519.129 3.06777e-12
-1.61737e-12 3.06777e-12 495.708

514.962 -8.00002 2.25005e-13
-8.00002 438.184 -2.27492e-12
2.25005e-13 -2.27492e-12 494.27

488.309 -22.2842 2.58815e-12
-22.2842 541.597 3.3508e-12
2.58815e-12 3.3508e-12 515.744

556.047 -6.59638 -9.17784e-15
-6.59638 560.39 2.38513e-12
-9.17784e-15 2.38513e-12 538.724

463.859 -29.9081 7.75676e-13
-29.9081 483.189 -3.76144e-12
7.75676e-13 -3.76144e-12 483.593

341.701 11.4534 9.55887e-12
11.4534 406.187 3.98378e-12
9.55887e-12 3.98378e-12 319.477

422.474 -28.1459 -2.41111e-12
-28.1459 391.236 -4.01516e-12
-2.41111e-12 -4.01516e-12 375.141

507.377 -13.7723 1.8392e-12
-13.7723 558.743 1.95162e-12
1.8392e-12 1.95162e-12 525.246

501.049 0.504392 2.40178e-12
0.504392 441.273 1.70234e-12
2.40178e-12 1.70234e-12 487.08

476.936 -21.5246 5.23729e-13
-21.5246 507.415 1.84475e-12
5.23729e-13 1.84475e-12 501.498

459.09 25.6976 6.90559e-13
25.6976 484.594 2.56132e-12
6.90559e-13 2.56132e-12 487.975

394.423 -31.4637 4.43971e-12
-31.4637 400.592 9.80549e-13
4.43971e-12 9.80549e-13 357.515

552.123 -7.08518 -7.47365e-12
-7.08518 585.292 -5.14729e-12
-7.47365e-12 -5.14729e-12 542.598

347.204 -33.0761 4.31181e-12
-33.0761 382.601 3.98378e-12
4.31181e-12 3.98378e-12 303.43

490.863 -19.1794 -1.72662e-12
-19.1794 448.381 -2.43598e-12
-1.72662e-12 -2.43598e-12 467.117

519.702 1.9702 -4.31929e-12
1.9702 466.808 -5.32285e-12
-4.31929e-12 -5.32285e-12 502.825

570.555 17.8751 4.37576e-13
17.8751 566.476 3.94351e-13
4.37576e-13 3.94351e-13 542.37

375.284 20.1824 1.63958e-12
20.1824 424.024 -1.067e-11
1.63958e-12 -1.067e-11 360.215

489.075 27.2102 -3.10448e-12
27.2102 468.533 1.53951e-12
-3.10448e-12 1.53951e-12 476.632

454.371 -24.5111 5.34683e-12
-24.5111 415.335 1.6683e-12
5.34683e-12 1.6683e-12 418.595

454.711 -17.8384 -8.73135e-13
-17.8384 494.899 2.72641e-12
-8.73135e-13 2.72641e-12 482.634

379.192 35.0674 2.56151e-12
35.0674 366.024 7.11727e-12
2.56151e-12 7.11727e-12 317.043

449.145 -21.831 2.60251e-12
-21.831 491.697 1.70471e-12
2.60251e-12 1.70471e-12 479.766

485.483 30.8502 -4.22891e-12
30.8502 465.129 1.39207e-12
-4.22891e-12 1.39207e-12 473.439

480.314 -25.2437 -6.47127e-12
-25.2437 442.36 -1.82728e-12
-6.47127e-12 -1.82728e-12 455.435

448.21 -25.126 -6.91595e-12
-25.126 469.759 -3.80259e-12
-6.91595e-12 -3.80259e-12 458.089

445.337 -18.6877 2.53308e-12
-18.6877 393.454 2.60236e-12
2.53308e-12 2.60236e-12 397.25

470.645 -18.8492 -4.40418e-12
-18.8492 422.845 -5.09222e-13
-4.40418e-12 -5.09222e-13 437.524

458.99 -25.3369 -2.11298e-12
-25.3369 485.42 5.05903e-12
-2.11298e-12 5.05903e-12 488.817

386.534 35.9685 -2.2536e-12
35.9685 381.98 2.68822e-12
-2.2536e-12 2.68822e-12 348.109

444.487 15.3765 -5.07002e-13
15.3765 491.523 1.25529e-12
-5.07002e-13 1.25529e-12 467.131

469.388 26.4219 -9.48575e-13
26.4219 479.949 -1.5404e-12
-9.48575e-13 -1.5404e-12 482.538

456.133 25.4736 2.63648e-12
25.4736 486.637 1.89967e-12
2.63648e-12 1.89967e-12 487.237

457.798 11.6213 -4.15457e-12
11.6213 506.931 4.19043e-12
-4.15457e-12 4.19043e-12 486.006

431.941 -8.22679 2.67046e-12
-8.22679 370.747 -4.67774e-14
2.67046e-12 -4.67774e-14 363.299

376.771 18.6059 1.18957e-12
18.6059 427.256 -4.08681e-12
1.18957e-12 -4.08681e-12 363.875

452.303 -24.3802 -2.60059e-12
-24.3802 478.375 -7.30379e-13
-2.60059e-12 -7.30379e-13 470.702

440.737 25.6654 -1.99544e-13
25.6654 455.63 -5.73053e-12
-1.99544e-13 -5.73053e-12 437.796

390.947 -35.6284 1.49925e-12
-35.6284 380.268 -9.62193e-13
1.49925e-12 -9.62193e-13 350.083

368.932 38.3156 7.3103e-12
38.3156 327.245 -9.20153e-13
7.3103e-12 -9.20153e-13 295.675

363.638 -33.3102 5.01051e-12
-33.3102 394.426 -8.73968e-13
5.01051e-12 -8.73968e-13 341.971

397.921 -31.1587 1.11674e-12
-31.1587 404.183 -2.73796e-12
1.11674e-12 -2.73796e-12 362.964

502.846 -6.83865 2.9073e-12
-6.83865 442.24 -3.3921e-13
2.9073e-12 -3.3921e-13 482.308

393.154 30.3409 1.54543e-12
30.3409 408.968 -5.22367e-12
1.54543e-12 -5.22367e-12 363.424

429.69 13.2943 -4.07378e-12
13.2943 372.238 1.62833e-14
-4.07378e-12 1.62833e-14 362.704

350.135 13.3785 4.0498e-12
13.3785 418.503 -1.77162e-12
4.0498e-12 -1.77162e-12 348.465

379.469 -22.3397 6.39015e-12
-22.3397 423.502 -6.82358e-12
6.39015e-12 -6.82358e-12 363.438

491.198 -1.09148 -3.13956e-12
-1.09148 550.868 -9.54496e-13
-3.13956e-12 -9.54496e-13 516.297

372.854 2.24654 -2.60088e-12
2.24654 437.776 3.53732e-12
-2.60088e-12 3.53732e-12 373.51

357.88 31.0884 -3.18205e-12
31.0884 399.476 -6.987e-12
-3.18205e-12 -6.987e-12 341.951

457.981 12.1077 -4.24338e-12
12.1077 510.551 3.12047e-12
-4.24338e-12 3.12047e-12 488.393

421.442 -27.6469 6.13435e-13
-27.6469 389.062 3.08139e-12
6.13435e-13 3.08139e-12 375.062

524.747 20.5569 3.87838e-13
20.5569 469.74 -8.91139e-14
3.87838e-13 -8.91139e-14 500.725

534.916 26.2704 -1.60464e-12
26.2704 506.851 2.43568e-12
-1.60464e-12 2.43568e-12 516.085

494.806 -18.5673 9.26074e-13
-18.5673 449.016 -2.46647e-12
9.26074e-13 -2.46647e-12 470.846

554.576 -1.80104 2.81656e-12
-1.80104 516.014 -2.46825e-12
2.81656e-12 -2.46825e-12 525.708

473.277 -31.8116 2.74121e-12
-31.8116 475.686 -4.06934e-12
2.74121e-12 -4.06934e-12 478.567

412.587 23.3272 -7.1824e-12
23.3272 357.187 -2.24354e-12
-7.1824e-12 -2.24354e-12 348.082

464.166 30.162 -5.93303e-13
30.162 482.758 3.03165e-13
-5.93303e-13 3.03165e-13 483.194

464.429 29.2058 1.06611e-12
29.2058 482.231 -1.7657e-12
1.06611e-12 -1.7657e-12 482.755

393.936 30.66 3.39876e-13
30.66 405.713 -2.72256e-12
3.39876e-13 -2.72256e-12 360.859

502.845 27.0848 6.32383e-13
27.0848 482.656 -4.26296e-12
6.32383e-13 -4.26296e-12 490.725

415.341 3.52506 8.23045e-13
3.52506 339.008 -1.1439e-12
8.23045e-13 -1.1439e-12 340.816

493.113 31.8172 2.01143e-12
31.8172 487.213 5.70507e-13
2.01143e-12 5.70507e-13 495.565

476.317 -12.5997 -2.78718e-12
-12.5997 522.441 2.38742e-12
-2.78718e-12 2.38742e-12 500.238

536.917 24.2782 -8.55908e-13
24.2782 507.394 -1.32043e-12
-8.55908e-13 -1.32043e-12 516.621

468.167 -29.5786 -1.49362e-12
-29.5786 479.96 -2.31785e-12
-1.49362e-12 -2.31785e-12 483.052

464.552 -4.8981 4.12566e-12
-4.8981 521.546 5.59552e-13
4.12566e-12 5.59552e-13 490.97

400.929 -24.5557 -4.60432e-12
-24.5557 349.015 -2.63375e-12
-4.60432e-12 -2.63375e-12 323.942

418.957 29.6924 -9.21337e-13
29.6924 392.454 1.06581e-13
-9.21337e-13 1.06581e-13 373.76

352.336 14.6961 2.97244e-12
14.6961 417.202 -5.43565e-12
2.97244e-12 -5.43565e-12 348.231

500.519 -1.13886 -1.00246e-12
-1.13886 442.785 2.01394e-13
-1.00246e-12 2.01394e-13 487.699

492.461 0.0022329 4.85241e-13
0.0022329 438.093 3.92514e-12
4.85241e-13 3.92514e-12 474.409

452.956 23.1237 -1.96361e-12
23.1237 479.697 -1.74438e-12
-1.96361e-12 -1.74438e-12 475.576

481.295 23.8709 2.43835e-12
23.8709 502.865 2.76316e-13
2.43835e-12 2.76316e-13 501.245

456.578 -24.3807 2.34549e-12
-24.3807 487.343 3.22646e-12
2.34549e-12 3.22646e-12 488.488

457.828 -0.672713 -5.60903e-13
-0.672713 517.933 2.81967e-12
-5.60903e-13 2.81967e-12 486.392

458.876 25.5903 1.84193e-12
25.5903 486.46 2.61006e-12
1.84193e-12 2.61006e-12 488.51

465.552 -10.3077 3.19034e-12
-10.3077 408.077 -1.92291e-13
3.19034e-12 -1.92291e-13 427.217

400.858 -32.8328 3.79015e-12
-32.8328 414.949 -1.67629e-12
3.79015e-12 -1.67629e-12 385.16

518.091 -2.30062 -1.76333e-12
-2.30062 465.734 1.04154e-12
-1.76333e-12 1.04154e-12 500.922

391.867 -34.5075 4.21115e-12
-34.5075 379.601 3.52903e-12
4.21115e-12 3.52903e-12 347.413

477.997 19.0861 -1.95399e-14
19.0861 509.197 -1.53655e-13
-1.95399e-14 -1.53655e-13 501.841

506.109 -26.4786 -1.578e-12
-26.4786 470.244 -2.81108e-12
-1.578e-12 -2.81108e-12 487.269

424.995 -9.69005 4.03588e-12
-9.69005 366.727 1.78405e-12
4.03588e-12 1.78405e-12 355.977

530.263 -23.1919 -6.88634e-13
-23.1919 488.754 -2.68704e-12
-6.88634e-13 -2.68704e-12 506.486

500.888 2.35826 1.36661e-12
2.35826 444.573 2.72626e-12
1.36661e-12 2.72626e-12 489.201

521.189 -23.3213 1.22509e-12
-23.3213 501.839 5.43565e-13
1.22509e-12 5.43565e-13 508.531

502.013 -25.8594 -6.62226e-12
-25.8594 461.488 1.6079e-12
-6.62226e-12 1.6079e-12 481.241

498.823 -8.54602 1.25204e-12
-8.54602 445.133 -1.06197e-12
1.25204e-12 -1.06197e-12 479.341

482.217 -23.0681 -3.30787e-12
-23.0681 504.99 2.94459e-12
-3.30787e-12 2.94459e-12 502.532

428.536 -31.3413 -3.12402e-12
-31.3413 410.584 -8.87586e-13
-3.12402e-12 -8.87586e-13 398.994

503.265 -24.587 -6.19416e-12
-24.587 464.71 4.91873e-12
-6.19416e-12 4.91873e-12 482.157

441.236 10.8643 -4.89682e-12
10.8643 378.477 -4.48708e-12
-4.89682e-12 -4.48708e-12 387.794

500.035 26.3401 8.85514e-13
26.3401 498.581 2.4339e-12
8.85514e-13 2.4339e-12 500.102

463.746 -37.613 -2.63226e-12
-37.613 488.386 2.7186e-12
-2.63226e-12 2.7186e-12 494.079

464.855 37.2653 1.50398e-12
37.2653 487.297 6.15212e-13
1.50398e-12 6.15212e-13 493.794

446.323 -28.5735 5.94302e-13
-28.5735 500.011 -2.28588e-12
5.94302e-13 -2.28588e-12 492.309

448.558 27.0642 4.28331e-12
27.0642 500.702 -3.81029e-13
4.28331e-12 -3.81029e-13 492.496

513.067 -8.52768 5.15736e-13
-8.52768 436.402 1.43322e-12
5.15736e-13 1.43322e-12 492.757

511.229 9.27369 3.64745e-13
9.27369 437.999 -9.79661e-13
3.64745e-13 -9.79661e-13 492.394

501.653 -9.84608 1.7358e-12
-9.84608 451.739 2.48142e-12
1.7358e-12 2.48142e-12 483.017

510.862 32.1163 1.98922e-12
32.1163 510.388 -2.02797e-12
1.98922e-12 -2.02797e-12 514.053

509.638 -32.8544 -8.93804e-13
-32.8544 510.065 6.67263e-13
-8.93804e-13 6.67263e-13 513.692

481.807 16.0685 -1.80937e-12
16.0685 539.129 1.33316e-12
-1.80937e-12 1.33316e-12 514.324

483.001 -15.801 2.43361e-13
-15.801 538.719 -2.66483e-12
2.43361e-13 -2.66483e-12 514.345

556.868 -3.7475 3.50978e-13
-3.7475 506.83 5.36164e-12
3.50978e-13 5.36164e-12 524.99

558.422 3.61027 4.41854e-12
3.61027 505.155 -2.89546e-13
4.41854e-12 -2.89546e-13 525.362

387.304 9.83672 -8.06466e-13
9.83672 449.192 3.5385e-12
-8.06466e-13 3.5385e-12 397.082

472.384 -24.774 3.07517e-12
-24.774 480.75 6.4837e-13
3.07517e-12 6.4837e-13 484.972

443.456 -36.3876 -2.97088e-12
-36.3876 485.527 1.95962e-12
-2.97088e-12 1.95962e-12 486.623

473.636 -4.66424 9.46206e-13
-4.66424 420.431 -1.73498e-12
9.46206e-13 -1.73498e-12 436.333

540.252 -16.6948 -1.89952e-12
-16.6948 484.189 1.72159e-12
-1.89952e-12 1.72159e-12 515.285

540.972 16.1758 1.14397e-12
16.1758 485.412 3.44761e-12
1.14397e-12 3.44761e-12 515.891

506.857 0.121883 2.34716e-12
0.121883 423.546 4.06838e-12
2.34716e-12 4.06838e-12 486.997

384.787 23.3748 2.69118e-12
23.3748 432.291 -1.78583e-12
2.69118e-12 -1.78583e-12 385.471

442.328 36.1716 3.2235e-12
36.1716 485.206 1.53462e-12
3.2235e-12 1.53462e-12 485.829

452.592 -23.3957 7.90627e-13
-23.3957 494.948 4.74643e-12
7.90627e-13 4.74643e-12 483.586

443.243 23.3524 1.44003e-12
23.3524 397.513 3.41061e-12
1.44003e-12 3.41061e-12 400.368

530.966 23.8581 3.05948e-12
23.8581 488.005 -3.81384e-12
3.05948e-12 -3.81384e-12 507.245

428.474 -31.3131 -1.91847e-13
-31.3131 410.869 5.16328e-12
-1.91847e-13 5.16328e-12 398.812

519.855 -3.23088 -1.29319e-12
-3.23088 469.055 -2.62427e-12
-1.29319e-12 -2.62427e-12 502.682

439.391 -34.1611 5.34424e-12
-34.1611 485.499 -1.25233e-12
5.34424e-12 -1.25233e-12 485.818

389.179 8.31984 -3.2563e-12
8.31984 452.322 2.46795e-12
-3.2563e-12 2.46795e-12 400.85

385.874 21.8112 2.00758e-12
21.8112 435.767 -1.18424e-14
2.00758e-12 -1.18424e-14 388.689

383.842 35.7753 2.7877e-12
35.7753 362.327 3.53732e-12
2.7877e-12 3.53732e-12 318.323

408.177 1.57873 4.35444e-12
1.57873 332.151 2.72715e-12
4.35444e-12 2.72715e-12 327.32

485.451 -22.8044 -1.50931e-12
-22.8044 502.854 -7.84965e-13
-1.50931e-12 -7.84965e-13 501.744

351.873 31.1834 8.3323e-12
31.1834 388.826 4.50958e-12
8.3323e-12 4.50958e-12 312.353

451.344 23.6098 3.44791e-12
23.6098 478.407 4.07378e-12
3.44791e-12 4.07378e-12 465.207

442.19 -5.34947 -1.67807e-12
-5.34947 377.121 -1.01104e-13
-1.67807e-12 -1.01104e-13 387.732

464.149 11.2159 -7.10543e-15
11.2159 407.294 -1.7506e-12
-7.10543e-15 -1.7506e-12 424.916

505.372 0.429906 1.94866e-12
0.429906 421.566 1.30246e-12
1.94866e-12 1.30246e-12 485.669

449.344 -29.0312 7.83003e-13
-29.0312 501.991 -8.63309e-13
7.83003e-13 -8.63309e-13 493.583

572.507 -6.31903 2.08196e-12
-6.31903 589.48 3.55952e-12
2.08196e-12 3.55952e-12 549.249

463.134 37.4117 -2.11031e-12
37.4117 487.02 3.39499e-12
-2.11031e-12 3.39499e-12 493.059

408.732 1.66327 2.64085e-12
1.66327 331.598 5.35675e-12
2.64085e-12 5.35675e-12 308.9

404.228 -32.7864 -1.1949e-12
-32.7864 415.503 8.68638e-13
-1.1949e-12 8.68638e-13 387.384

443.134 36.6131 3.23408e-12
36.6131 485.499 2.085e-12
3.23408e-12 2.085e-12 486.566

444.673 -11.1338 -7.00347e-13
-11.1338 498.929 -4.22418e-12
-7.00347e-13 -4.22418e-12 471.436

386.068 -25.5142 -2.65417e-12
-25.5142 428.895 -5.79448e-12
-2.65417e-12 -5.79448e-12 384.558

449.444 28.8301 9.70335e-13
28.8301 501.625 -9.79365e-13
9.70335e-13 -9.79365e-13 493.282

452.704 -26.1415 3.56692e-12
-26.1415 419.297 -3.19093e-12
3.56692e-12 -3.19093e-12 419.512

579.548 10.4834 3.70963e-12
10.4834 582.16 -2.31082e-12
3.70963e-12 -2.31082e-12 549.034

398.323 30.8715 5.48598e-12
30.8715 422.052 4.1247e-12
5.48598e-12 4.1247e-12 388.157

515.7 8.12677 -2.83329e-12
8.12677 437.262 -3.10478e-12
-2.83329e-12 -3.10478e-12 494.576

493.799 30.1906 2.09314e-13
30.1906 484.742 -1.10904e-12
2.09314e-13 -1.10904e-12 493.796

453.459 23.3317 1.4122e-12
23.3317 479.157 8.60645e-13
1.4122e-12 8.60645e-13 475.792

510.696 -32.489 -9.20745e-13
-32.489 512.447 3.02873e-12
-9.20745e-13 3.02873e-12 515.001

510.303 -23.19 -1.23753e-13
-23.19 473.175 -1.82698e-12
-1.23753e-13 -1.82698e-12 489.672

511.397 10.4708 5.89898e-14
10.4708 557.987 3.89733e-12
5.89898e-14 3.89733e-12 523.727

452.166 -23.4336 -3.99355e-12
-23.4336 480.159 3.48876e-12
-3.99355e-12 3.48876e-12 468.944

394.404 -9.70764 2.04873e-12
-9.70764 316.409 -1.73017e-12
2.04873e-12 -1.73017e-12 295.571

387.285 -14.277 1.77162e-12
-14.277 306.055 -5.30006e-12
1.77162e-12 -5.30006e-12 290.045

547.579 16.5293 -5.74651e-13
16.5293 507.758 3.33126e-12
-5.74651e-13 3.33126e-12 519.315

436.481 22.5014 -3.47929e-12
22.5014 469.13 -8.8883e-12
-3.47929e-12 -8.8883e-12 447.817

475.956 29.1629 -1.67866e-12
29.1629 467.639 -4.76656e-14
-1.67866e-12 -4.76656e-14 471.473

450.295 0.688663 -9.29627e-13
0.688663 392.771 -2.23607e-12
-9.29627e-13 -2.23607e-12 395.668

478.346 6.57124 6.3663e-13
6.57124 541.273 -1.7509e-12
6.3663e-13 -1.7509e-12 507.534

507.324 16.5408 2.41466e-12
16.5408 461.129 -5.59019e-12
2.41466e-12 -5.59019e-12 488.074

389.971 -25.7606 2.79125e-12
-25.7606 430.03 -2.82204e-12
2.79125e-12 -2.82204e-12 387.728

456.313 -2.57245 -3.45723e-13
-2.57245 517.008 2.64796e-12
-3.45723e-13 2.64796e-12 484.834

400.583 13.3649 3.53998e-12
13.3649 452.979 1.53833e-12
3.53998e-12 1.53833e-12 404.63

486.907 -29.7131 -9.90023e-13
-29.7131 465.808 -2.98013e-12
-9.90023e-13 -2.98013e-12 474.252

430.292 -29.947 -1.46668e-12
-29.947 423.622 -3.58291e-12
-1.46668e-12 -3.58291e-12 404.949

399.705 31.6223 4.38701e-12
31.6223 418.225 -9.13639e-13
4.38701e-12 -9.13639e-13 385.996

623.998 -15.0202 5.25328e-12
-15.0202 581.945 -3.43229e-12
5.25328e-12 -3.43229e-12 557.9

494.516 2.04124 -3.6194e-12
2.04124 552.137 5.16209e-12
-3.6194e-12 5.16209e-12 517.919

483.496 20.3002 3.20188e-13
20.3002 542.037 -2.48986e-12
3.20188e-13 -2.48986e-12 516.025

544.7 15.4391 3.84581e-13
15.4391 479.964 7.28898e-13
3.84581e-13 7.28898e-13 515.747

473.742 -26.1885 3.42097e-12
-26.1885 479.75 2.43716e-12
3.42097e-12 2.43716e-12 483.011

452.118 17.957 1.01252e-12
17.957 404.502 4.19161e-12
1.01252e-12 4.19161e-12 406.911

531.575 -5.29417 9.52886e-13
-5.29417 580.796 7.31445e-12
9.52886e-13 7.31445e-12 537.112

512.18 -18.9882 1.97472e-13
-18.9882 464.787 1.10401e-12
1.97472e-13 1.10401e-12 493.021

473.969 -15.5987 -1.56971e-12
-15.5987 423.17 3.91183e-12
-1.56971e-12 3.91183e-12 438.873

401.994 11.603 -3.70903e-12
11.603 455.951 3.56456e-12
-3.70903e-12 3.56456e-12 407.773

410.917 -25.7338 5.17334e-12
-25.7338 435.574 -4.05957e-12
5.17334e-12 -4.05957e-12 398.95

532.043 -25.2738 -1.95666e-12
-25.2738 523.188 -2.90878e-13
-1.95666e-12 -2.90878e-13 519.113

423.05 31.959 5.57894e-12
31.959 417.242 3.88963e-12
5.57894e-12 3.88963e-12 400.299

535.476 -25.1347 -2.58282e-12
-25.1347 505.783 4.15727e-12
-2.58282e-12 4.15727e-12 515.654

453.487 2.59733 -7.91071e-13
2.59733 397.013 -5.7457e-12
-7.91071e-13 -5.7457e-12 401.891

311.095 -28.93 -4.21352e-12
-28.93 376.591 5.39539e-12
-4.21352e-12 5.39539e-12 289.991

431.869 -29.2304 -2.80724e-12
-29.2304 424.041 2.69888e-12
-2.80724e-12 2.69888e-12 406.148

353.756 32.1584 5.94487e-13
32.1584 392.539 2.69296e-12
5.94487e-13 2.69296e-12 312.964

470.34 -11.877 6.32642e-14
-11.877 529.546 -1.56201e-12
6.32642e-14 -1.56201e-12 500.297

391.445 -13.8211 -7.04177e-13
-13.8211 449.246 -1.87939e-12
-7.04177e-13 -1.87939e-12 400.192

602.851 -23.9883 6.00601e-12
-23.9883 602.264 3.34251e-12
6.00601e-12 3.34251e-12 557.84

408.365 23.7704 5.95968e-12
23.7704 441.933 -7.51991e-13
5.95968e-12 -7.51991e-13 402.216

496.571 -32.7263 -6.41383e-12
-32.7263 490.634 -1.1724e-12
-6.41383e-12 -1.1724e-12 497.441

388.184 -11.9629 -1.63099e-12
-11.9629 448.278 -2.00255e-12
-1.63099e-12 -2.00255e-12 397.01

516.705 -19.1169 3.59683e-12
-19.1169 465.747 -9.51535e-13
3.59683e-12 -9.51535e-13 496.237

410.68 23.8766 1.43293e-12
23.8766 439.305 -8.95284e-13
1.43293e-12 -8.95284e-13 400.693

488.913 -4.97545 -2.42177e-12
-4.97545 435.064 2.81194e-12
-2.42177e-12 2.81194e-12 460.376

305.778 -30.3423 2.87888e-12
-30.3423 391.434 -4.86959e-12
2.87888e-12 -4.86959e-12 262.566

438.604 21.0138 8.48803e-13
21.0138 473.907 5.3942e-13
8.48803e-13 5.3942e-13 458.343

445.682 -19.3229 -4.02286e-12
-19.3229 393.972 7.14391e-13
-4.02286e-12 7.14391e-13 399.618

551.6 -21.4459 -2.28558e-13
-21.4459 499.513 -8.98244e-13
-2.28558e-13 -8.98244e-13 520.099

424.466 31.7534 -2.67875e-12
31.7534 413.318 -5.62513e-12
-2.67875e-12 -5.62513e-12 397.955

459.158 -29.9713 2.56743e-12
-29.9713 437.634 2.83299e-12
2.56743e-12 2.83299e-12 439.295

510.616 20.8852 -1.5703e-12
20.8852 476.069 -1.27158e-12
-1.5703e-12 -1.27158e-12 492.752

461.501 -28.0758 2.06679e-12
-28.0758 485.737 -3.14341e-12
2.06679e-12 -3.14341e-12 488.714

413.717 -26.2247 -1.9386e-12
-26.2247 436.241 -1.73254e-12
-1.9386e-12 -1.73254e-12 401.436

426.072 28.9806 -5.34091e-13
28.9806 429.894 2.59348e-12
-5.34091e-13 2.59348e-12 406.858

452.497 26.1909 -2.81849e-12
26.1909 418.224 2.11179e-12
-2.81849e-12 2.11179e-12 419.056

521.967 -14.6098 7.57498e-12
-14.6098 477.175 -1.40984e-12
7.57498e-12 -1.40984e-12 500.061

403.558 -16.6173 4.98268e-12
-16.6173 451.739 2.91441e-12
4.98268e-12 2.91441e-12 406.44

496.043 -17.5682 2.7723e-12
-17.5682 447.604 1.60272e-12
2.7723e-12 1.60272e-12 471.498

487.762 16.9082 -5.23729e-12
16.9082 436.256 5.57776e-13
-5.23729e-12 5.57776e-13 460.586

513.341 -9.38694 1.3413e-12
-9.38694 555.776 -1.35181e-12
1.3413e-12 -1.35181e-12 523.027

453.975 -13.4298 -2.60059e-12
-13.4298 402.176 1.57963e-12
-2.60059e-12 1.57963e-12 406.741

403.2 0.594002 7.56432e-14
0.594002 465.722 1.70293e-12
7.56432e-14 1.70293e-12 417.803

475.024 18.5547 -2.78829e-12
18.5547 428.77 1.05368e-12
-2.78829e-12 1.05368e-12 442.219

451.14 27.6035 1.94926e-12
27.6035 421.837 1.12503e-14
1.94926e-12 1.12503e-14 420.841

400.867 -15.6858 4.04062e-12
-15.6858 451.379 -1.88175e-12
4.04062e-12 -1.88175e-12 403.734

405.998 -1.2023 -7.59097e-13
-1.2023 468.032 1.5928e-12
-7.59097e-13 1.5928e-12 421.218

516.198 29.1343 1.48089e-12
29.1343 498.025 1.73787e-12
1.48089e-12 1.73787e-12 504.874

441.702 -10.922 -2.81257e-12
-10.922 500.655 2.45907e-12
-2.81257e-12 2.45907e-12 471.146

451.437 -26.7148 -5.67368e-12
-26.7148 418.764 1.6905e-12
-5.67368e-12 1.6905e-12 419.351

444.385 21.3322 -5.85014e-13
21.3322 395.296 2.74921e-12
-5.85014e-13 2.74921e-12 398.199

497.593 23.6652 -3.42778e-12
23.6652 458.088 -3.49942e-13
-3.42778e-12 -3.49942e-13 476.549

447.681 5.47068 -1.66793e-12
5.47068 508.788 5.31131e-13
-1.66793e-12 5.31131e-13 476.88

427.648 29.065 -6.00705e-12
29.065 426.433 9.18969e-13
-6.00705e-12 9.18969e-13 405.108

536.82 22.9638 2.21985e-12
22.9638 531.897 -6.36469e-12
2.21985e-12 -6.36469e-12 522.783

314.749 -59.6909 1.0966e-12
-59.6909 282.768 -1.78228e-12
1.0966e-12 -1.78228e-12 223.423

480.592 -25.0474 -2.08663e-12
-25.0474 445.07 1.6002e-12
-2.08663e-12 1.6002e-12 456.645

336.662 7.06979 5.54549e-12
7.06979 409.153 -1.75267e-12
5.54549e-12 -1.75267e-12 319.439

460.537 -28.8888 7.34227e-14
-28.8888 444.735 -2.63907e-12
7.34227e-14 -2.63907e-12 443.451

96.4237 -52.7008 8.97652e-13
-52.7008 306.617 -3.85114e-12
8.97652e-13 -3.85114e-12 113.699

95.9575 51.4514 -8.31335e-13
51.4514 306.881 -1.85215e-12
-8.31335e-13 -1.85215e-12 114.487

181.517 117.154 -2.93217e-12
117.154 226.076 -9.75812e-13
-2.93217e-12 -9.75812e-13 113.588

182.814 -117.096 -9.166e-13
-117.096 223.311 3.20692e-12
-9.166e-13 3.20692e-12 113.562

321.582 -1.36335 9.80549e-13
-1.36335 84.6533 2.20009e-14
9.80549e-13 2.20009e-14 114.929

274.432 -91.1251 1.85689e-12
-91.1251 127.418 1.35951e-12
1.85689e-12 1.35951e-12 113.802

275.129 91.6529 -1.25056e-12
91.6529 128.251 9.04758e-13
-1.25056e-12 9.04758e-13 114.572

525.239 14.3302 -1.37638e-12
14.3302 474.71 -6.71759e-13
-1.37638e-12 -6.71759e-13 502.313

556.796 25.5366 -1.78613e-12
25.5366 541.183 3.25917e-12
-1.78613e-12 3.25917e-12 533.449

492.09 6.60596 -5.98751e-12
6.60596 439.119 -2.03452e-12
-5.98751e-12 -2.03452e-12 471.4

470.298 21.7843 -9.50351e-13
21.7843 424.515 -7.57912e-14
-9.50351e-13 -7.57912e-14 438.193

409.974 17.7442 2.39793e-12
17.7442 461.071 1.74142e-12
2.39793e-12 1.74142e-12 425.041

448.009 28.8981 2.08663e-12
28.8981 424.703 1.67688e-12
2.08663e-12 1.67688e-12 420.748

487.148 -29.6632 2.75454e-12
-29.6632 465.626 6.74127e-13
2.75454e-12 6.74127e-13 474.588

449.366 28.0274 -5.32907e-13
28.0274 421.069 -4.44267e-12
-5.32907e-13 -4.44267e-12 418.64

402.962 -2.84119 9.95056e-13
-2.84119 465.379 2.34598e-12
9.95056e-13 2.34598e-12 417.539

555.803 -26.0975 1.19046e-12
-26.0975 543.376 -2.97466e-12
1.19046e-12 -2.97466e-12 533.693

405.5 -4.8623 -3.3884e-13
-4.8623 467.117 2.75691e-12
-3.3884e-13 2.75691e-12 420.598

522.291 23.0161 5.04485e-12
23.0161 499.741 -4.7636e-13
5.04485e-12 -4.7636e-13 507.968

423.376 26.8703 -1.05279e-12
26.8703 386.506 4.94952e-12
-1.05279e-12 4.94952e-12 373.025

480.108 -13.2161 -3.34458e-12
-13.2161 532.767 1.96406e-12
-3.34458e-12 1.96406e-12 512

484.196 13.7278 1.56734e-12
13.7278 432.775 1.0972e-12
1.56734e-12 1.0972e-12 456.873

457.367 -29.9873 3.73035e-14
-29.9873 436.975 -6.6489e-12
3.73035e-14 -6.6489e-12 437.831

454.307 -24.7132 -6.29422e-12
-24.7132 416.803 4.38168e-13
-6.29422e-12 4.38168e-13 419.851

547.404 -16.0745 -1.53033e-12
-16.0745 509.305 2.03097e-13
-1.53033e-12 2.03097e-13 519.383

475.97 27.9287 1.85274e-12
27.9287 449.704 -3.60156e-12
1.85274e-12 -3.60156e-12 456.924

469.099 23.9772 3.21284e-12
23.9772 427.847 1.54691e-12
3.21284e-12 1.54691e-12 439.828

432.427 -2.79295 5.36978e-14
-2.79295 493.635 -4.00213e-12
5.36978e-14 -4.00213e-12 457.105

417.605 5.87331 -8.55817e-13
5.87331 479.555 6.46594e-13
-8.55817e-13 6.46594e-13 440.175

463.009 2.64667 -2.77112e-13
2.64667 402.278 -1.75933e-13
-2.77112e-13 -1.75933e-13 422.319

438.646 -7.28955 2.08544e-12
-7.28955 373.914 -1.69716e-12
2.08544e-12 -1.69716e-12 381.217

454.842 30.4843 5.64349e-12
30.4843 439.013 7.95216e-13
5.64349e-12 7.95216e-13 437.835

478.463 -26.1551 5.23256e-12
-26.1551 443.541 -3.59712e-12
5.23256e-12 -3.59712e-12 454.645

525.699 -21.2543 1.44033e-12
-21.2543 497.828 2.18551e-12
1.44033e-12 2.18551e-12 508.617

437.731 -31.6332 6.29837e-12
-31.6332 437.654 -8.01137e-13
6.29837e-12 -8.01137e-13 426.857

417.589 -27.7852 7.88702e-13
-27.7852 444.394 1.1724e-12
7.88702e-13 1.1724e-12 419.686

430.645 29.8868 -2.27433e-12
29.8868 442.742 -5.62454e-12
-2.27433e-12 -5.62454e-12 426.496

416.224 -9.57781 3.49676e-12
-9.57781 475.209 1.00068e-13
3.49676e-12 1.00068e-13 436.453

428.894 -1.54475 3.0876e-12
-1.54475 491.866 -9.91799e-13
3.0876e-12 -9.91799e-13 453.993

445.18 5.74795 1.87485e-12
5.74795 508.042 -5.35276e-13
1.87485e-12 -5.35276e-13 474.913

414.617 -21.0888 3.6886e-12
-21.0888 458.406 -3.73035e-13
3.6886e-12 -3.73035e-13 426.064

496.867 24.111 -2.48749e-12
24.111 455.695 -3.35317e-12
-2.48749e-12 -3.35317e-12 474.591

483.371 -9.58966 7.58504e-13
-9.58966 430.11 4.72082e-12
7.58504e-13 4.72082e-12 455.219

415.632 7.4652 -3.793e-12
7.4652 477.119 1.87643e-12
-3.793e-12 1.87643e-12 436.912

443.953 -9.70106 -1.75208e-12
-9.70106 501.502 3.91568e-12
-1.75208e-12 3.91568e-12 471.006

433.172 -16.3305 -2.18521e-12
-16.3305 481.674 8.32519e-13
-2.18521e-12 8.32519e-13 455.666

463.537 -8.23911 2.79717e-12
-8.23911 406.334 -1.49273e-12
2.79717e-12 -1.49273e-12 421.469

494.432 -32.3468 1.05397e-13
-32.3468 487.614 3.36531e-12
1.05397e-13 3.36531e-12 496.249

422.943 9.32074 7.14406e-12
9.32074 479.089 2.14406e-12
7.14406e-12 2.14406e-12 440.978

564.358 -18.2126 -4.37783e-12
-18.2126 529.951 -1.89967e-12
-4.37783e-12 -1.89967e-12 531.831

309.048 24.8224 2.45611e-12
24.8224 379.421 4.36273e-12
2.45611e-12 4.36273e-12 289.797

501.697 -26.6261 -3.19892e-12
-26.6261 499.489 1.18631e-12
-3.19892e-12 1.18631e-12 501.199

515.648 -30.2028 -5.15913e-12
-30.2028 498.403 -1.42819e-12
-5.15913e-12 -1.42819e-12 504.918

429.221 -0.701306 3.60127e-12
-0.701306 491.992 -5.26394e-12
3.60127e-12 -5.26394e-12 454.144

474.88 -16.6224 2.84691e-12
-16.6224 428.336 -1.73432e-12
2.84691e-12 -1.73432e-12 441.955

462.304 12.8416 -2.65053e-12
12.8416 511.274 -1.77636e-14
-2.65053e-12 -1.77636e-14 489.12

240.775 -3.18049 -7.22022e-12
-3.18049 360.687 -2.68822e-12
-7.22022e-12 -2.68822e-12 226.965

432.403 14.2736 1.49429e-12
14.2736 485.355 -4.10635e-12
1.49429e-12 -4.10635e-12 456.881

458.11 -29.489 -1.86221e-12
-29.489 443.169 -2.02031e-12
-1.86221e-12 -2.02031e-12 440.761

304.186 25.1055 2.56861e-12
25.1055 394.583 9.71075e-13
2.56861e-12 9.71075e-13 264.34

603.551 26.0981 5.61847e-12
26.0981 597.956 1.8901e-11
5.61847e-12 1.8901e-11 558.157

608.285 -27.8075 3.92353e-12
-27.8075 595.031 -4.61734e-12
3.92353e-12 -4.61734e-12 558.291

463.493 -30.4189 -2.17544e-12
-30.4189 459.037 -1.12443e-12
-2.17544e-12 -1.12443e-12 459.072

434.583 -31.1599 -2.90671e-12
-31.1599 436.359 -1.85807e-12
-2.90671e-12 -1.85807e-12 424.661

474.1 20.8273 2.06709e-12
20.8273 431.914 6.24685e-13
2.06709e-12 6.24685e-13 443.972

465.221 15.006 1.41339e-12
15.006 410.116 4.98831e-12
1.41339e-12 4.98831e-12 427.462

646.07 3.08363 -9.33039e-12
3.08363 645.728 2.96548e-12
-9.33039e-12 2.96548e-12 574.62

649.891 -7.00024 4.23062e-12
-7.00024 641.398 -1.72523e-11
4.23062e-12 -1.72523e-11 575.148

496.987 4.82431 -1.4803e-12
4.82431 442.033 -3.33289e-12
-1.4803e-12 -3.33289e-12 477.412

443.556 6.73092 2.6712e-12
6.73092 502.988 -2.70717e-12
2.6712e-12 -2.70717e-12 471.049

441.971 6.73632 2.6622e-12
6.73632 502.513 -1.91669e-12
2.6622e-12 -1.91669e-12 469.773

321.535 58.6339 -7.62649e-13
58.6339 281.122 -1.89478e-14
-7.62649e-13 -1.89478e-14 225.076

420.227 -28.1995 1.08299e-12
-28.1995 444.022 -4.57826e-12
1.08299e-12 -4.57826e-12 421.031

520.577 17.9745 -1.44477e-13
17.9745 467.53 -3.76499e-12
-1.44477e-13 -3.76499e-12 499.509

472.979 9.53969 2.22518e-12
9.53969 421.196 3.2605e-12
2.22518e-12 3.2605e-12 436.202

440.629 -26.7231 -2.71901e-12
-26.7231 450.725 5.21124e-12
-2.71901e-12 5.21124e-12 433.415

469.275 -20.2375 4.0874e-12
-20.2375 422.715 1.57444e-12
4.0874e-12 1.57444e-12 437.175

312.472 60.2318 -4.02641e-14
60.2318 281.372 7.81597e-13
-4.02641e-14 7.81597e-13 223.215

492.681 31.069 -1.80685e-12
31.069 489.042 -2.2767e-13
-1.80685e-12 -2.2767e-13 493.138

410.862 -19.7859 -2.58371e-12
-19.7859 457.88 4.36984e-13
-2.58371e-12 4.36984e-13 423.497

474.128 28.8575 -1.37135e-12
28.8575 449.63 5.74355e-13
-1.37135e-12 5.74355e-13 456.518

430.955 -4.14478 1.70382e-13
-4.14478 492.972 -4.77366e-12
1.70382e-13 -4.77366e-12 456.467

423.929 19.609 3.13823e-12
19.609 465.71 1.43589e-12
3.13823e-12 1.43589e-12 434.107

452.747 30.5186 -6.40673e-13
30.5186 443.597 -1.84149e-13
-6.40673e-13 -1.84149e-13 439.607

428.642 -22.473 -9.7522e-13
-22.473 461.136 -1.24463e-12
-9.7522e-13 -1.24463e-12 433.812

443.573 -27.3523 -1.10371e-12
-27.3523 450.432 -6.30488e-12
-1.10371e-12 -6.30488e-12 435.045

294.778 11.2569 -2.36848e-13
11.2569 372.584 2.74506e-12
-2.36848e-13 2.74506e-12 258.101

357.297 -33.4559 3.71614e-12
-33.4559 389.116 5.05196e-12
3.71614e-12 5.05196e-12 314.128

419.657 -11.6904 -8.03579e-13
-11.6904 476.36 4.2449e-12
-8.03579e-13 4.2449e-12 439.344

478.397 26.4844 -6.01001e-13
26.4844 446.798 3.40646e-12
-6.01001e-13 3.40646e-12 456.083

452.344 29.4777 6.63351e-12
29.4777 449.025 -4.41069e-12
6.63351e-12 -4.41069e-12 442.399

426.808 -21.4337 9.17784e-15
-21.4337 461.783 2.58638e-12
9.17784e-15 2.58638e-12 432.629

422.93 -11.7823 -3.04438e-12
-11.7823 476.646 -1.14279e-13
-3.04438e-12 -1.14279e-13 439.928

457.706 28.4093 4.66827e-12
28.4093 447.086 1.02141e-12
4.66827e-12 1.02141e-12 442.57

425.104 -13.8777 5.4395e-12
-13.8777 476.418 4.56583e-12
5.4395e-12 4.56583e-12 442.104

311.264 27.8547 4.7411e-12
27.8547 377.39 2.84691e-12
4.7411e-12 2.84691e-12 289.983

485.17 -4.04131 -1.57867e-12
-4.04131 545.049 2.70006e-13
-1.57867e-12 2.70006e-13 511.036

432.984 31.0273 -8.58395e-12
31.0273 439.627 2.61894e-12
-8.58395e-12 2.61894e-12 426.018

509.309 14.9011 -7.88702e-13
14.9011 463.161 1.72425e-12
-7.88702e-13 1.72425e-12 488.605

516.92 -15.9274 7.91663e-13
-15.9274 467.581 1.54247e-12
7.91663e-13 1.54247e-12 493.923

383.924 -24.2043 -3.51008e-12
-24.2043 305.947 -4.18036e-13
-3.51008e-12 -4.18036e-13 285.354

442.278 -21.2671 -2.47861e-12
-21.2671 475.998 -1.23753e-12
-2.47861e-12 -1.23753e-12 459.32

447.827 26.6981 1.7284e-12
26.6981 466.206 3.5391e-12
1.7284e-12 3.5391e-12 457.84

522.974 -21.7279 -3.17909e-12
-21.7279 543.811 -2.70424e-12
-3.17909e-12 -2.70424e-12 525.309

579.584 14.1068 -2.7051e-12
14.1068 617.621 3.79075e-12
-2.7051e-12 3.79075e-12 557.052

620.208 9.44534 1.81884e-12
9.44534 576.841 -5.77316e-13
1.81884e-12 -5.77316e-13 556.871

523.469 32.7056 2.50762e-13
32.7056 520.651 -1.95429e-12
2.50762e-13 -1.95429e-12 519.524

414.89 26.0001 3.73538e-12
26.0001 448.904 -1.51819e-12
3.73538e-12 -1.51819e-12 420.375

478.094 26.6613 -1.54602e-12
26.6613 444.769 -1.92942e-12
-1.54602e-12 -1.92942e-12 455.506

332.362 45.1856 3.86062e-13
45.1856 349.488 4.50603e-12
3.86062e-13 4.50603e-12 286.739

571.391 -11.3438 6.10652e-12
-11.3438 614.472 -8.97356e-13
6.10652e-12 -8.97356e-13 554.595

641.327 -3.43299 5.407e-12
-3.43299 636.87 5.85798e-12
5.407e-12 5.85798e-12 572.396

634.905 -0.210086 3.40468e-13
-0.210086 643.178 1.65824e-11
3.40468e-13 1.65824e-11 572.223

272.963 -53.8022 2.81493e-12
-53.8022 316.446 -6.29778e-12
2.81493e-12 -6.29778e-12 220.908

566.638 -11.6001 8.40217e-13
-11.6001 562.125 -4.85538e-12
8.40217e-13 -4.85538e-12 540.898

563.771 8.81309 -8.45472e-13
8.81309 586.962 -3.04349e-13
-8.45472e-13 -3.04349e-13 546.84

478.243 -26.1994 9.59529e-12
-26.1994 440.44 2.54907e-13
9.59529e-12 2.54907e-13 453.48

494.348 1.01111 -5.36053e-13
1.01111 545.758 -1.37904e-12
-5.36053e-13 -1.37904e-12 514.056

447.649 -20.2677 6.18631e-12
-20.2677 484.156 9.8647e-13
6.18631e-12 9.8647e-13 470.636

506.299 6.25532 3.7342e-12
6.25532 443.373 2.69607e-12
3.7342e-12 2.69607e-12 486.123

461.273 15.5963 -4.80969e-12
15.5963 521.251 -7.98384e-12
-4.80969e-12 -7.98384e-12 497.555

471.18 7.19164 -2.96977e-12
7.19164 528.005 3.20928e-13
-2.96977e-12 3.20928e-13 497.689

493.762 20.3927 3.99503e-12
20.3927 451.516 -1.02229e-12
3.99503e-12 -1.02229e-12 469.749

241.065 -3.1139 -2.74092e-12
-3.1139 358.559 1.88057e-12
-2.74092e-12 1.88057e-12 227.063

463.699 -27.6235 7.57557e-12
-27.6235 463.389 1.56793e-12
7.57557e-12 1.56793e-12 461.189

488.343 -26.1162 5.64881e-12
-26.1162 481.596 -4.83406e-12
5.64881e-12 -4.83406e-12 485.868

497.536 -31.4837 -7.65491e-12
-31.4837 489.957 2.73663e-12
-7.65491e-12 2.73663e-12 498.979

355.599 32.7493 8.73968e-13
32.7493 285.778 3.55538e-12
8.73968e-13 3.55538e-12 248.366

563.881 -20.1165 -4.60076e-13
-20.1165 569.614 -2.7908e-12
-4.60076e-13 -2.7908e-12 542.57

337.646 54.3219 -5.54223e-12
54.3219 356.657 9.37916e-13
-5.54223e-12 9.37916e-13 258.874

477.07 -21.4396 -8.19996e-12
-21.4396 506.488 -2.86586e-12
-8.19996e-12 -2.86586e-12 500.242

504.771 14.6504 -5.4848e-12
14.6504 451.986 2.19602e-12
-5.4848e-12 2.19602e-12 481.559

449.829 -14.5723 1.67807e-12
-14.5723 396.985 -8.33851e-13
1.67807e-12 -8.33851e-13 400.839

452.592 24.0466 5.64645e-12
24.0466 478.778 -9.82917e-13
5.64645e-12 -9.82917e-13 467.846

493.665 20.4279 6.63292e-12
20.4279 449.5 -1.83261e-13
6.63292e-12 -1.83261e-13 469.341

505.565 11.4006 -8.50061e-13
11.4006 564.415 -3.78867e-12
-8.50061e-13 -3.78867e-12 526.71

475.894 -31.5801 1.75889e-12
-31.5801 470.355 6.85289e-12
1.75889e-12 6.85289e-12 475.062

559.269 19.8124 -2.25538e-12
19.8124 510.439 2.4345e-12
-2.25538e-12 2.4345e-12 526.486

439.956 -18.4433 2.59082e-12
-18.4433 482.463 4.69432e-12
2.59082e-12 4.69432e-12 459.148

465.896 4.28313 3.44946e-12
4.28313 526.106 6.28357e-12
3.44946e-12 6.28357e-12 495.509

588.64 9.92671 -5.41078e-12
9.92671 552.461 5.9582e-13
-5.41078e-12 5.9582e-13 545.188

590.423 -8.51331 9.66634e-13
-8.51331 554.803 -1.12251e-12
9.66634e-13 -1.12251e-12 545.706

382.308 18.5122 1.65793e-14
18.5122 302.286 3.91509e-12
1.65793e-14 3.91509e-12 286.133

502.676 7.96497 4.36066e-12
7.96497 453.599 2.4644e-12
4.36066e-12 2.4644e-12 487.764

232.815 7.74039 -2.70347e-12
7.74039 381.515 -6.39015e-12
-2.70347e-12 -6.39015e-12 187.186

236.984 -11.385 -5.23059e-12
-11.385 387.208 2.34005e-12
-5.23059e-12 2.34005e-12 189.45

249.287 56.4064 8.97652e-13
56.4064 354.776 -6.35699e-12
8.97652e-13 -6.35699e-12 184.022

505.014 -28.9504 1.78228e-13
-28.9504 478.614 -1.1342e-12
1.78228e-13 -1.1342e-12 491.342

258.471 -49.1898 -9.53312e-13
-49.1898 341.84 4.54511e-12
-9.53312e-13 4.54511e-12 220.733

249.292 -55.949 -8.01255e-12
-55.949 344.75 5.54697e-12
-8.01255e-12 5.54697e-12 181.115

434.652 26.2198 -4.07082e-12
26.2198 454.39 -2.224e-12
-4.07082e-12 -2.224e-12 432.822

329.923 73.8431 8.95284e-13
73.8431 280.01 -1.88057e-12
8.95284e-13 -1.88057e-12 184.827

540.126 13.0474 2.06353e-13
13.0474 554.946 -1.71034e-12
2.06353e-13 -1.71034e-12 532.076

562.383 0.0392754 -4.08562e-14
0.0392754 532.453 -1.51138e-12
-4.08562e-14 -1.51138e-12 531.869

338.601 -73.1286 -3.57166e-12
-73.1286 279.857 4.57353e-12
-3.57166e-12 4.57353e-12 186.309

432.668 -23.4237 -2.69799e-12
-23.4237 466.308 -3.56752e-12
-2.69799e-12 -3.56752e-12 447.57

358.93 34.7286 2.86349e-12
34.7286 310.974 -4.42076e-12
2.86349e-12 -4.42076e-12 258.036

267.704 63.4902 -3.01981e-12
63.4902 345.209 -1.75741e-12
-3.01981e-12 -1.75741e-12 185.844

293.692 21.6299 -6.60805e-13
21.6299 367.659 -9.00021e-13
-6.60805e-13 -9.00021e-13 254.496

267.576 -65.919 7.34227e-14
-65.919 344.845 -5.35749e-12
7.34227e-14 -5.35749e-12 184.3

291.639 -12.3809 -9.88187e-12
-12.3809 370.881 6.807e-12
-9.88187e-12 6.807e-12 253.442

550.306 6.84186 1.31228e-13
6.84186 582.077 4.20908e-12
1.31228e-13 4.20908e-12 541.116

329.888 -45.974 -3.19744e-14
-45.974 341.814 -1.79294e-12
-3.19744e-14 -1.79294e-12 276.613

259.78 47.5312 -6.4541e-13
47.5312 340.215 8.47914e-13
-6.4541e-13 8.47914e-13 223.145

370.215 37.9109 -3.61429e-12
37.9109 244.919 2.62842e-12
-3.61429e-12 2.62842e-12 187.356

481.889 -29.2855 -1.91728e-12
-29.2855 460.51 -4.43083e-12
-1.91728e-12 -4.43083e-12 467.712

480.975 12.8967 -9.32883e-13
12.8967 525.828 -6.3262e-12
-9.32883e-13 -6.3262e-12 504.102

354.417 -38.1119 4.84827e-12
-38.1119 300.076 9.21337e-13
4.84827e-12 9.21337e-13 251.814

482.532 -28.8019 1.62833e-12
-28.8019 460.319 2.55825e-12
1.62833e-12 2.55825e-12 468.461

365.262 -36.3428 -1.66741e-12
-36.3428 230.988 4.65642e-12
-1.66741e-12 4.65642e-12 182.769

481.501 -28.3172 -1.88708e-12
-28.3172 472.753 1.15019e-12
-1.88708e-12 1.15019e-12 477.917

436.351 -25.2946 -2.28528e-12
-25.2946 466.222 -4.18214e-12
-2.28528e-12 -4.18214e-12 448.208

314.797 69.4596 2.87059e-12
69.4596 292.141 8.8581e-13
2.87059e-12 8.8581e-13 184.523

290.781 -22.9324 2.98783e-12
-22.9324 359.163 1.16932e-11
2.98783e-12 1.16932e-11 247.028

312.399 -71.6916 9.80549e-13
-71.6916 288.121 -7.15517e-12
9.80549e-13 -7.15517e-12 182.026

268.545 50.7366 3.08968e-12
50.7366 320.058 1.77399e-12
3.08968e-12 1.77399e-12 221.503

459.859 -30.2118 1.42049e-12
-30.2118 454.843 -1.22184e-12
1.42049e-12 -1.22184e-12 454.398

559.285 -14.6403 1.25174e-12
-14.6403 544.411 4.91281e-12
1.25174e-12 4.91281e-12 533.716

635.922 11.0927 -3.39987e-12
11.0927 631.383 1.89922e-12
-3.39987e-12 1.89922e-12 570.019

619.957 -5.15998 -6.63913e-13
-5.15998 639.739 -1.22514e-11
-6.63913e-13 -1.22514e-11 568.497

453.868 13.0836 3.85553e-12
13.0836 506.553 6.77384e-13
3.85553e-12 6.77384e-13 482.57

634.152 -10.6671 6.09609e-12
-10.6671 631.314 -5.90935e-13
6.09609e-12 -5.90935e-13 569.874

622.695 4.09172 9.61734e-12
4.09172 642.685 1.03542e-11
9.61734e-12 1.03542e-11 569.698

643.375 7.4342 3.02839e-12
7.4342 619.148 1.4427e-12
3.02839e-12 1.4427e-12 569.021

584.776 -12.1153 -8.35369e-13
-12.1153 631.668 -2.56876e-12
-8.35369e-13 -2.56876e-12 560.592

307.443 -30.4696 6.95858e-12
-30.4696 371.631 1.66504e-12
6.95858e-12 1.66504e-12 280.768

589.625 -12.9721 2.76845e-12
-12.9721 549.112 4.06638e-12
2.76845e-12 4.06638e-12 543.825

527.205 -34.4178 -3.53495e-13
-34.4178 521.485 1.05619e-12
-3.53495e-13 1.05619e-12 519.964

565.463 -18.1768 4.35533e-12
-18.1768 537.988 -1.28623e-12
4.35533e-12 -1.28623e-12 534.257

502.568 15.4591 -1.46964e-12
15.4591 452.114 3.14238e-12
-1.46964e-12 3.14238e-12 480.205

586.349 9.86432 -2.25087e-12
9.86432 642.135 1.96983e-12
-2.25087e-12 1.96983e-12 563.102

636.657 19.2277 1.12991e-11
19.2277 591.722 2.06934e-12
1.12991e-11 2.06934e-12 562.924

569.775 11.3062 -1.22805e-12
11.3062 544.338 7.7464e-13
-1.22805e-12 7.7464e-13 536.435

353.441 -15.3392 -7.65018e-13
-15.3392 231.515 4.9738e-14
-7.65018e-13 4.9738e-14 219.013

437.204 24.9638 -3.31498e-12
24.9638 461.91 -3.47396e-12
-3.31498e-12 -3.47396e-12 445.72

317.089 -61.354 -1.25932e-11
-61.354 277.848 -2.54374e-12
-1.25932e-11 -2.54374e-12 218.087

334.207 -57.4567 -7.25938e-12
-57.4567 357.321 5.30539e-13
-7.25938e-12 5.30539e-13 252.538

383.332 -36.5437 5.12538e-12
-36.5437 305.738 -2.63967e-12
5.12538e-12 -2.63967e-12 257.759

562.496 -5.15897 2.99671e-12
-5.15897 616.951 -3.9629e-12
2.99671e-12 -3.9629e-12 552.949

562.203 2.89123 -1.36853e-12
2.89123 615.817 -3.07917e-12
-1.36853e-12 -3.07917e-12 552.548

598.77 -24.4565 2.03393e-12
-24.4565 575.742 -4.39034e-12
2.03393e-12 -4.39034e-12 551.577

602.329 -21.7607 -4.91418e-12
-21.7607 573.432 -1.95074e-12
-4.91418e-12 -1.95074e-12 551.843

598.783 26.1362 8.74323e-12
26.1362 580.457 6.8426e-12
8.74323e-12 6.8426e-12 552.733

625.742 3.09959 1.87406e-12
3.09959 630.735 -7.2032e-12
1.87406e-12 -7.2032e-12 568.419

599.059 -20.509 -4.22299e-12
-20.509 576.353 4.1657e-12
-4.22299e-12 4.1657e-12 552.266

607.81 -18.5684 -3.92042e-12
-18.5684 620.262 8.29747e-12
-3.92042e-12 8.29747e-12 563.185

632.9 2.43461 6.02718e-12
2.43461 635.526 4.89135e-12
6.02718e-12 4.89135e-12 570.505

607.886 -20.5264 -2.21482e-12
-20.5264 572.426 -1.78465e-12
-2.21482e-12 -1.78465e-12 553.405

607.071 20.956 8.73472e-12
20.956 573.684 6.88338e-13
8.73472e-12 6.88338e-13 553.808

633.851 -3.45864 4.57456e-12
-3.45864 636.778 1.53973e-11
4.57456e-12 1.53973e-11 571.279

632.181 -3.11736 -3.73287e-12
-3.11736 625.756 1.36461e-11
-3.73287e-12 1.36461e-11 569.394

609.681 12.1098 1.40209e-11
12.1098 620.485 -1.63152e-11
1.40209e-11 -1.63152e-11 563.916

587.202 26.9298 1.22983e-12
26.9298 583.018 -2.18014e-12
1.22983e-12 -2.18014e-12 551.701

FIELD solute_concentration_TPM 2
S_ext 1 563 float
0.9896
0.989409
0.989429
0.98941
0.989379
0.989429
0.989599
0.98942
0.989446
0.989413
0.98956
0.98942
0.989424
0.989412
0.989386
0.989427
0.989403
0.989419
0.98945
0.989432
0.989438
0.989323
0.989434
0.989432
0.989433
0.989415
0.989551
0.989427
0.989498
0.989352
0.989425
0.989497
0.989556
0.989361
0.98936
0.989361
0.989348
0.989363
0.989425
0.989555
0.989497
0.989347
0.989347
0.989424
0.98953
0.989497
0.989448
0.989443
0.989429
0.989506
0.989501
0.989482
0.989377
0.989484
0.989378
0.989536
0.98936
0.989483
0.98936
0.989431
0.989402
0.989395
0.989547
0.989397
0.989394
0.989408
0.989402
0.989416
0.989433
0.989408
0.989377
0.989377
0.989499
0.989404
0.98943
0.989559
0.989388
0.989408
0.989415
0.989475
0.989515
0.989374
0.989398
0.989518
0.989497
0.989534
0.989427
0.989407
0.98953
0.989332
0.989483
0.989332
0.989386
0.98941
0.989482
0.989501
0.989517
0.989412
0.989389
0.989425
0.989464
0.989494
0.989517
0.989415
0.989414
0.989413
0.989397
0.989427
0.989518
0.989403
0.98943
0.989527
0.989521
0.989417
0.989414
0.989484
0.989362
0.989519
0.989363
0.989483
0.989454
0.989387
0.989407
0.989403
0.989403
0.989385
0.989366
0.989412
0.989517
0.989481
0.989375
0.989409
0.989398
0.989408
0.989494
0.989359
0.989528
0.989424
0.989397
0.989359
0.989491
0.989417
0.989454
0.989412
0.98952
0.989414
0.989418
0.989431
0.98943
0.989467
0.989442
0.989408
0.989496
0.989424
0.989412
0.989408
0.98941
0.989491
0.98949
0.989421
0.989443
0.989495
0.98953
0.9895
0.98949
0.989413
0.989491
0.989492
0.989497
0.98949
0.989385
0.989483
0.989501
0.989409
0.989483
0.989397
0.989385
0.989421
0.989378
0.989415
0.989499
0.989412
0.989413
0.989491
0.989406
0.989502
0.989403
0.989399
0.989386
0.989412
0.989406
0.989515
0.989482
0.989497
0.989408
0.989418
0.989417
0.989398
0.989408
0.989409
0.989408
0.989449
0.989475
0.989398
0.989499
0.989397
0.989409
0.989493
0.989393
0.989407
0.989394
0.989413
0.989415
0.989398
0.989466
0.989413
0.989474
0.989399
0.989403
0.989402
0.989403
0.989403
0.989403
0.989403
0.989413
0.989387
0.989387
0.989386
0.989387
0.989379
0.989378
0.989467
0.989411
0.989408
0.989445
0.989387
0.989386
0.989408
0.989474
0.989408
0.989412
0.989466
0.989392
0.989467
0.989398
0.989407
0.989465
0.989473
0.989516
0.989508
0.989398
0.989523
0.989425
0.989474
0.98945
0.989408
0.989403
0.989349
0.989403
0.989526
0.989473
0.989407
0.98942
0.989475
0.989402
0.989454
0.989349
0.989473
0.989402
0.989405
0.989417
0.989387
0.989408
0.989378
0.989423
0.989528
0.989534
0.989384
0.989436
0.98942
0.989469
0.989392
0.989409
0.989473
0.98941
0.989464
0.989418
0.989464
0.989473
0.989338
0.989383
0.989384
0.989385
0.989412
0.989463
0.989363
0.989405
0.989442
0.989462
0.989468
0.989383
0.989466
0.989387
0.989467
0.98953
0.989463
0.989521
0.989398
0.989466
0.989338
0.989466
0.989401
0.989468
0.989403
0.989466
0.989429
0.989554
0.989429
0.989467
0.989381
0.989466
0.989441
0.989406
0.989407
0.989466
0.989463
0.989454
0.9894
0.989463
0.989421
0.989427
0.98938
0.989464
0.989455
0.98944
0.989454
0.989465
0.989453
0.989395
0.98942
0.989455
0.989466
0.989417
0.989416
0.989463
0.98938
0.989567
0.98943
0.989516
0.989439
0.989626
0.989626
0.989624
0.989624
0.989621
0.989631
0.989631
0.989398
0.989369
0.98942
0.989442
0.989449
0.989454
0.989418
0.989454
0.989455
0.989369
0.989453
0.989394
0.989482
0.989388
0.98943
0.989442
0.989455
0.989384
0.98943
0.989441
0.98943
0.989441
0.989452
0.989476
0.989442
0.989432
0.989392
0.989449
0.989453
0.98945
0.989443
0.989432
0.989417
0.989449
0.989418
0.989431
0.989442
0.98942
0.98943
0.989452
0.989402
0.98944
0.989369
0.98953
0.989398
0.989396
0.989431
0.989441
0.989407
0.989567
0.989429
0.989441
0.989552
0.989342
0.989342
0.989428
0.98945
0.989439
0.989449
0.989323
0.989322
0.989417
0.98942
0.989421
0.989572
0.989452
0.989401
0.989445
0.989446
0.989443
0.989567
0.989404
0.989451
0.98943
0.98943
0.989445
0.989441
0.989445
0.989445
0.989554
0.98952
0.989441
0.98943
0.98944
0.989446
0.989441
0.98944
0.98944
0.989532
0.989389
0.989449
0.989408
0.989404
0.989533
0.989429
0.989429
0.98938
0.989336
0.989336
0.989382
0.989453
0.989431
0.989534
0.989339
0.989322
0.989321
0.989569
0.989362
0.989351
0.989432
0.989387
0.989421
0.98941
0.989401
0.989401
0.989421
0.989566
0.989428
0.989411
0.989401
0.98956
0.989357
0.989559
0.989399
0.989414
0.989466
0.989423
0.989422
0.989374
0.989418
0.989374
0.989429
0.989402
0.989355
0.989356
0.989536
0.989409
0.989602
0.989603
0.989602
0.989406
0.989573
0.989603
0.989447
0.989601
0.989373
0.989373
0.989601
0.989435
0.989557
0.989606
0.989556
0.989606
0.989556
0.989361
0.98954
0.989572
0.989599
0.989423
0.989396
0.989559
0.989422
0.9896
0.989415
0.989435
0.989607
0.98956
0.989607
0.989568
0.989431
0.989369
0.989322
0.989323
0.989412
0.989322
0.989322
0.989323
0.989334
0.989537
0.989356
0.989383
0.98937
0.989414
0.989332
0.989332
0.989369
0.989568
0.989437
0.989576
0.989563
0.989555
0.98934
0.98934
0.989342
0.989342
0.98934
0.989326
0.989346
0.989333
0.989326
0.989343
0.989343
0.989325
0.989325
0.989332
0.989345
P_ext 1 563 float
0.0200957
0.0200908
0.0200915
0.0200909
0.020089
0.0200915
0.0200957
0.0200912
0.020092
0.0200909
0.0200949
0.0200911
0.0200913
0.0200908
0.0200895
0.0200915
0.0200904
0.0200911
0.0200922
0.0200916
0.0200918
0.0200857
0.0200916
0.0200916
0.0200916
0.020091
0.0200947
0.0200914
0.0200935
0.0200874
0.0200914
0.0200934
0.0200948
0.020088
0.020088
0.020088
0.0200873
0.0200881
0.0200913
0.0200948
0.0200934
0.0200873
0.0200873
0.0200913
0.0200942
0.0200934
0.0200921
0.020092
0.0200915
0.0200937
0.0200935
0.020093
0.020089
0.0200931
0.020089
0.0200944
0.0200879
0.0200931
0.020088
0.0200916
0.0200904
0.02009
0.0200946
0.0200901
0.02009
0.0200906
0.0200904
0.020091
0.0200917
0.0200907
0.020089
0.020089
0.0200935
0.0200904
0.0200915
0.0200949
0.0200896
0.0200906
0.020091
0.0200929
0.0200939
0.0200888
0.0200901
0.0200939
0.0200934
0.0200943
0.0200914
0.0200905
0.0200942
0.0200859
0.0200931
0.0200859
0.0200894
0.0200906
0.0200931
0.0200935
0.0200939
0.0200909
0.0200896
0.0200914
0.0200926
0.0200934
0.0200939
0.020091
0.0200909
0.020091
0.0200901
0.0200914
0.0200939
0.0200905
0.0200915
0.0200941
0.020094
0.0200911
0.020091
0.0200931
0.020088
0.020094
0.020088
0.0200931
0.0200923
0.0200896
0.0200907
0.0200904
0.0200904
0.0200894
0.0200882
0.0200909
0.0200939
0.020093
0.0200888
0.0200908
0.0200902
0.0200907
0.0200934
0.0200879
0.0200942
0.0200913
0.0200901
0.0200879
0.0200933
0.0200909
0.0200923
0.0200908
0.020094
0.020091
0.020091
0.0200915
0.0200915
0.0200926
0.0200919
0.0200907
0.0200934
0.0200913
0.0200909
0.0200908
0.0200907
0.0200933
0.0200933
0.0200912
0.0200919
0.0200934
0.0200942
0.0200935
0.0200932
0.020091
0.0200933
0.0200933
0.0200934
0.0200933
0.0200894
0.0200931
0.0200935
0.0200907
0.0200931
0.0200901
0.0200894
0.0200911
0.020089
0.0200909
0.0200935
0.0200909
0.0200909
0.0200933
0.0200905
0.0200936
0.0200904
0.0200901
0.0200894
0.0200909
0.0200904
0.0200939
0.020093
0.0200934
0.0200908
0.0200912
0.0200911
0.0200902
0.0200907
0.0200906
0.0200907
0.0200922
0.0200929
0.0200902
0.0200935
0.0200902
0.0200906
0.0200933
0.0200898
0.0200907
0.0200898
0.0200908
0.020091
0.0200901
0.0200926
0.0200908
0.0200929
0.0200902
0.0200904
0.0200904
0.0200905
0.0200905
0.0200905
0.0200905
0.0200908
0.0200896
0.0200896
0.0200895
0.0200895
0.020089
0.0200889
0.0200927
0.0200908
0.0200907
0.020092
0.0200895
0.0200894
0.0200907
0.0200928
0.0200908
0.0200909
0.0200927
0.0200898
0.0200927
0.0200901
0.0200907
0.0200926
0.0200928
0.0200939
0.0200937
0.0200902
0.020094
0.0200914
0.0200929
0.0200921
0.0200908
0.0200904
0.0200873
0.0200905
0.0200941
0.0200928
0.0200907
0.0200911
0.0200929
0.0200905
0.0200922
0.0200873
0.0200928
0.0200904
0.0200904
0.0200911
0.0200895
0.0200905
0.020089
0.0200913
0.0200942
0.0200943
0.0200892
0.0200918
0.0200911
0.0200927
0.0200897
0.0200907
0.0200928
0.0200906
0.0200926
0.0200909
0.0200926
0.0200928
0.0200866
0.0200893
0.0200894
0.0200894
0.0200908
0.0200926
0.0200881
0.0200905
0.0200919
0.0200925
0.0200927
0.0200893
0.0200927
0.0200894
0.0200927
0.0200942
0.0200925
0.020094
0.0200901
0.0200926
0.0200865
0.0200926
0.0200902
0.0200927
0.0200903
0.0200926
0.0200915
0.0200947
0.0200915
0.0200927
0.0200892
0.0200926
0.0200918
0.0200904
0.0200907
0.0200926
0.0200926
0.0200922
0.0200901
0.0200925
0.0200911
0.0200914
0.0200891
0.0200926
0.0200923
0.0200918
0.0200923
0.0200926
0.0200922
0.0200899
0.0200911
0.0200923
0.0200926
0.020091
0.0200909
0.0200925
0.0200891
0.020095
0.0200914
0.0200939
0.0200918
0.0200962
0.0200963
0.0200962
0.0200962
0.0200961
0.0200964
0.0200964
0.02009
0.0200883
0.0200911
0.0200919
0.0200922
0.0200923
0.020091
0.0200923
0.0200923
0.0200883
0.0200923
0.0200898
0.020093
0.0200896
0.0200915
0.0200919
0.0200923
0.0200892
0.0200915
0.0200919
0.0200915
0.0200918
0.0200923
0.0200929
0.0200919
0.0200915
0.0200898
0.0200921
0.0200923
0.0200922
0.0200919
0.0200915
0.020091
0.0200921
0.020091
0.0200915
0.0200919
0.0200911
0.0200915
0.0200922
0.0200904
0.0200919
0.0200885
0.0200942
0.0200901
0.0200899
0.0200915
0.0200919
0.0200906
0.020095
0.0200915
0.0200919
0.0200947
0.0200867
0.0200866
0.0200914
0.0200922
0.0200918
0.0200922
0.0200853
0.0200853
0.020091
0.0200911
0.0200911
0.0200951
0.0200922
0.0200902
0.020092
0.0200921
0.0200919
0.020095
0.0200904
0.0200922
0.0200915
0.0200915
0.020092
0.0200919
0.020092
0.020092
0.0200947
0.020094
0.0200919
0.0200914
0.0200919
0.0200921
0.0200919
0.0200918
0.0200918
0.0200943
0.0200896
0.0200921
0.0200906
0.0200904
0.0200943
0.0200915
0.0200915
0.020089
0.0200866
0.0200866
0.0200892
0.0200923
0.0200915
0.0200943
0.0200867
0.0200856
0.0200856
0.0200951
0.0200881
0.0200874
0.0200916
0.0200895
0.0200912
0.0200908
0.0200903
0.0200902
0.0200911
0.020095
0.0200915
0.0200907
0.0200903
0.0200949
0.0200878
0.0200949
0.0200903
0.0200909
0.0200926
0.0200913
0.0200912
0.0200888
0.0200911
0.0200888
0.0200915
0.0200903
0.0200875
0.0200875
0.0200944
0.0200907
0.0200958
0.0200958
0.0200958
0.0200905
0.0200952
0.0200958
0.0200921
0.0200957
0.0200887
0.0200887
0.0200957
0.0200917
0.0200948
0.0200958
0.0200948
0.0200959
0.0200948
0.020088
0.0200945
0.0200951
0.0200957
0.0200912
0.02009
0.0200949
0.0200912
0.0200957
0.0200909
0.0200917
0.0200959
0.0200949
0.0200959
0.020095
0.0200916
0.0200885
0.0200856
0.0200857
0.0200908
0.0200856
0.0200856
0.0200857
0.0200863
0.0200944
0.0200877
0.0200892
0.0200884
0.0200908
0.0200861
0.0200862
0.0200884
0.020095
0.0200918
0.0200952
0.0200949
0.0200947
0.0200868
0.0200868
0.0200869
0.0200869
0.0200868
0.0200857
0.020087
0.0200861
0.0200856
0.0200868
0.0200868
0.0200856
0.0200858
0.0200861
0.0200869
FIELD solute_flux_TPM 2
S_ext 3 563 float
-5.41186e-05 1.81045e-05 1.44954e-19
2.34357e-06 4.50739e-06 -4.87194e-18
-8.35919e-06 -6.64417e-06 1.50993e-18
-2.75395e-06 2.77691e-06 -2.01612e-18
1.52031e-05 -4.34293e-06 1.02223e-18
1.82126e-06 -1.04362e-05 2.49364e-18
-5.32919e-05 -1.83248e-05 6.09587e-19
-9.11907e-06 -6.79742e-06 1.18767e-18
1.45681e-05 6.15823e-07 1.3221e-18
7.55829e-06 -2.64921e-06 -6.83876e-19
3.60254e-05 8.38831e-06 1.70823e-18
1.53435e-06 -1.12956e-05 4.98542e-19
9.02335e-06 7.36628e-06 3.35265e-18
1.75729e-06 9.03373e-06 -6.5612e-18
1.37836e-05 -2.01786e-06 1.3549e-18
-1.06149e-05 -1.73075e-07 -8.36351e-19
1.83571e-06 9.29841e-06 -5.05612e-18
6.7447e-06 -1.61219e-06 8.33388e-19
6.48649e-06 1.13109e-05 -1.15435e-18
-9.67425e-06 1.22264e-06 -6.70545e-19
-2.34759e-06 -1.3901e-05 -5.64743e-18
2.86303e-05 4.0395e-05 7.95786e-18
1.03793e-05 1.05868e-06 -1.33434e-18
7.4172e-06 -7.4222e-06 -2.84272e-18
-9.81663e-06 -2.16953e-06 2.16428e-18
-4.33967e-07 -7.29417e-06 1.34445e-18
4.13423e-05 -3.2375e-06 -3.05245e-19
9.31285e-06 6.75805e-06 1.00064e-18
-1.63535e-05 -1.32748e-05 9.68554e-19
3.24464e-05 -8.58543e-06 -5.2394e-19
-1.07899e-05 -3.96298e-06 1.71597e-19
3.49021e-06 -2.09674e-05 -4.91866e-19
3.10192e-05 -3.16188e-05 2.19163e-18
-3.45679e-06 -2.77269e-05 -2.93925e-18
-1.95868e-05 2.43866e-05 -2.243e-18
-2.57391e-05 -1.08595e-05 5.3647e-18
2.15072e-05 2.81686e-05 7.00177e-19
-2.96114e-05 -5.79563e-06 -1.91001e-18
9.54201e-06 -7.26823e-06 -5.08861e-19
3.03038e-05 3.29478e-05 1.57173e-18
2.11115e-05 -9.2428e-06 -1.29696e-18
2.19353e-05 -2.7112e-05 -2.79038e-18
-1.25187e-05 -3.25321e-05 1.39546e-18
-1.0342e-05 4.1739e-06 -1.34588e-18
1.98413e-05 -1.94077e-05 5.69007e-18
-1.95822e-05 6.96261e-06 1.60853e-18
-2.68662e-06 -1.32545e-05 -5.28991e-18
5.16424e-06 1.32189e-05 -1.72092e-19
-1.06771e-05 3.87151e-06 -3.3406e-18
-1.17735e-05 1.85124e-05 6.34177e-19
2.13038e-05 1.00377e-05 8.03676e-19
1.92498e-05 -6.679e-06 -3.58748e-18
-1.04003e-05 1.04249e-05 1.81256e-19
-1.52402e-05 -1.32417e-05 -1.14159e-18
-1.4014e-05 -3.42714e-06 2.90828e-18
-2.89292e-05 1.72267e-05 1.10315e-18
-1.93902e-05 -2.50967e-05 -7.03603e-19
4.02646e-06 -1.99297e-05 2.60073e-18
-3.14372e-05 4.28588e-06 1.74614e-18
3.98672e-06 8.99599e-06 -2.42579e-21
-3.65289e-06 -5.40264e-06 -1.61741e-19
-4.30621e-06 -1.18549e-05 1.03037e-20
3.73528e-05 1.62798e-05 3.00544e-18
6.14898e-06 1.19613e-05 -2.20395e-18
8.16581e-06 -9.53254e-06 -1.18363e-18
-1.11404e-06 -1.36799e-05 -2.36828e-18
3.07521e-06 -5.80509e-06 -6.67664e-19
-6.58736e-06 -3.65274e-06 -1.17309e-18
-6.96444e-06 7.75334e-06 2.65656e-18
1.69073e-06 -2.77141e-06 -1.36004e-18
-9.96985e-06 -1.04868e-05 3.33745e-19
-1.41338e-05 3.43585e-06 2.9308e-18
-2.50783e-06 2.23364e-05 2.2525e-18
-1.17657e-05 7.04463e-06 -4.23484e-18
-5.9512e-06 9.4986e-06 -1.34219e-18
-3.859e-05 4.79747e-06 -1.41155e-18
5.22387e-06 -1.43149e-05 -6.82868e-18
-1.24373e-05 -5.79289e-06 1.18968e-18
1.26691e-06 7.6453e-06 1.844e-18
1.73212e-05 3.32686e-06 -4.91853e-19
2.23465e-05 -1.90476e-05 2.86982e-18
1.47539e-05 1.35838e-05 3.5268e-19
7.97627e-06 -1.93994e-06 1.68715e-18
-2.0807e-05 1.5252e-05 3.34751e-18
2.48471e-05 3.18384e-06 3.22431e-18
-3.58651e-06 3.19492e-05 1.42653e-18
-1.15549e-06 -1.10338e-05 -1.49879e-18
1.20832e-05 6.56574e-06 1.85281e-18
1.90823e-05 1.99864e-05 -9.52415e-19
4.25396e-05 2.64442e-05 1.93445e-18
-3.552e-06 2.00284e-05 -4.62556e-21
4.44333e-05 -2.497e-05 -1.08356e-18
-1.79943e-05 3.48273e-06 -1.82325e-19
1.18881e-05 7.34153e-06 3.3011e-19
-1.91363e-05 6.36549e-06 3.74248e-18
1.07972e-05 1.87372e-05 -2.89111e-18
6.42602e-06 -2.88333e-05 -1.44517e-18
1.27658e-06 7.6408e-06 1.00421e-18
-9.71667e-06 -1.16527e-05 1.02726e-18
2.00664e-06 1.1456e-05 -1.84776e-18
1.73491e-05 3.46617e-06 -1.69107e-19
-1.00987e-05 2.14682e-05 -3.30416e-19
2.65481e-05 -8.8494e-06 1.11506e-18
-2.49776e-06 4.85669e-06 -3.52504e-18
6.62569e-06 3.86507e-06 1.00513e-18
-1.479e-06 -7.41695e-06 2.36135e-18
2.15491e-06 -1.27349e-05 -3.38581e-18
1.15435e-05 2.57357e-06 1.16573e-18
-5.37207e-06 2.66769e-05 1.59693e-19
-6.51813e-06 1.2842e-07 -1.84675e-19
6.16193e-06 7.80986e-06 -2.16461e-18
-1.76279e-06 -2.71953e-05 -1.58153e-18
2.75347e-05 8.54539e-06 1.90583e-18
2.9552e-06 -4.88847e-06 1.1594e-18
-7.27413e-06 -2.33799e-06 -2.3498e-18
-1.89053e-05 -8.03933e-06 -1.13732e-18
1.06425e-05 2.77648e-05 6.90638e-19
-2.78189e-05 -9.90995e-06 4.80454e-19
1.07911e-05 -2.78387e-05 -1.05728e-18
-2.46143e-06 -2.07574e-05 2.9284e-18
1.43986e-05 3.9683e-07 -2.14749e-18
-4.76168e-06 1.22322e-05 -1.37133e-18
-1.04779e-06 2.59715e-06 4.70646e-18
-2.44921e-06 -1.09202e-05 8.3458e-19
3.49455e-06 -5.61346e-06 -1.85612e-19
6.211e-06 1.04904e-05 1.80219e-19
2.23473e-05 7.29455e-06 -1.8449e-19
5.77595e-06 -4.88497e-06 -1.87611e-19
-5.51238e-06 -2.91838e-05 4.30164e-21
1.67618e-05 -1.23638e-05 -3.3443e-19
3.30592e-06 1.84368e-05 4.88147e-21
-1.83469e-06 -1.87232e-06 1.3438e-21
-5.71047e-06 -5.48901e-06 2.01408e-18
-3.15573e-06 5.57036e-08 2.70314e-18
-1.48478e-05 1.83325e-05 1.45358e-18
1.29187e-05 -2.50129e-05 -6.9386e-18
-1.73508e-05 2.7422e-05 2.86758e-18
-1.06766e-05 6.21528e-06 -1.34081e-18
1.66916e-06 8.17393e-06 -1.05805e-20
-1.51733e-05 -2.36762e-05 4.16311e-18
9.0043e-06 2.1828e-05 -1.94486e-18
1.16438e-05 6.13317e-06 1.1768e-18
1.50047e-05 -5.66087e-06 -1.32201e-18
-8.21207e-07 -7.40732e-06 -6.79866e-19
-2.18475e-05 -2.00928e-05 -2.39949e-18
-1.79918e-06 7.41533e-06 -4.02789e-18
1.14509e-05 6.75313e-06 1.6009e-19
1.24912e-05 -5.88825e-06 -1.33937e-18
5.47194e-06 -9.40571e-06 -3.01048e-18
1.60283e-05 -7.10882e-06 -4.75245e-18
1.25569e-05 -5.94592e-06 -4.48197e-18
3.14332e-06 1.89938e-07 2.66612e-18
1.68251e-05 1.33198e-05 1.122e-18
-1.77285e-06 -1.11265e-05 -3.67468e-18
-6.89323e-06 -2.8867e-06 4.21357e-18
7.51216e-07 -2.54861e-06 -3.34892e-18
-2.10346e-06 1.04237e-05 3.38004e-19
-2.23923e-05 1.76731e-06 3.40615e-18
-7.92167e-06 -2.14799e-05 1.462e-18
-5.17639e-06 6.3756e-06 1.63154e-19
8.91325e-06 1.08923e-05 -1.64788e-19
1.73611e-05 -1.23808e-05 -1.13596e-18
-2.3828e-05 -1.29167e-05 2.30603e-21
1.12848e-05 -1.80954e-05 8.0053e-19
1.48763e-05 -1.78203e-05 6.45665e-19
-7.15119e-06 2.50982e-06 1.50628e-18
-1.28662e-05 -1.85186e-05 -4.82121e-19
-2.23745e-05 -3.72022e-06 6.46036e-19
-2.70029e-06 -2.05943e-05 1.61319e-18
9.99017e-06 -2.0678e-05 -4.94395e-19
-6.06151e-06 -1.7363e-05 -3.2562e-18
2.86703e-06 2.04365e-05 -1.30319e-18
-1.03923e-05 -1.84084e-05 -8.02185e-19
1.97442e-06 -1.07121e-05 3.41885e-19
-1.60293e-05 1.16717e-05 -5.25468e-21
-9.90676e-06 -8.00933e-06 1.19025e-18
-1.81127e-05 -3.3745e-06 5.19924e-19
1.04032e-05 -6.10534e-06 1.59852e-19
-2.84297e-06 1.58669e-05 -8.67923e-19
8.18184e-06 -6.1528e-06 -1.35875e-18
-1.91123e-05 -8.37985e-06 -3.2516e-19
-5.8118e-06 -4.85773e-06 2.86949e-18
6.05611e-06 4.93412e-06 4.99316e-19
1.39799e-05 1.8775e-05 2.10745e-18
-1.14786e-05 -7.10895e-06 1.3567e-18
-2.09634e-05 -5.06367e-07 7.93037e-19
-1.07897e-05 -3.25192e-06 3.2283e-18
-3.02556e-06 -1.09329e-05 -2.0427e-18
1.18559e-05 1.42795e-05 1.72381e-19
-7.22996e-06 3.80933e-06 -3.20098e-18
4.46837e-07 -1.35336e-05 -2.36778e-18
-2.69288e-05 6.90308e-06 1.58791e-18
1.63089e-05 1.32713e-05 8.14422e-19
2.36139e-06 2.14423e-05 -2.74826e-18
-1.5833e-06 2.51725e-06 6.21256e-18
-5.90372e-06 1.65356e-07 -1.02387e-21
2.89873e-06 5.08784e-06 -2.18173e-18
-7.73291e-06 2.28027e-06 8.66941e-19
-1.34186e-06 -2.47063e-06 -1.36326e-18
1.11805e-06 1.36671e-05 8.40874e-19
3.01226e-06 2.52878e-07 -2.69257e-18
-1.26914e-05 3.06428e-06 -1.81535e-18
-1.13208e-05 1.25076e-05 2.60302e-18
-2.03204e-06 7.665e-06 1.51028e-18
-1.89642e-05 1.18141e-05 6.40463e-19
-6.19738e-06 5.9232e-06 1.6982e-18
1.15327e-05 -7.80622e-06 -3.38724e-18
2.39935e-05 -2.38355e-06 -4.34087e-21
-1.39988e-05 7.43233e-06 -2.21227e-18
1.47305e-06 2.99554e-06 -5.22771e-19
1.46199e-05 -2.83858e-06 4.97542e-19
-1.13447e-05 6.82617e-06 -3.03114e-18
-6.46058e-06 3.64317e-06 2.67999e-18
7.96529e-06 2.56603e-06 1.15971e-18
1.43574e-05 -8.90197e-06 -2.30057e-18
-1.14243e-05 6.49572e-06 -2.02437e-18
-1.61995e-05 -3.40574e-06 -8.20641e-19
-1.10375e-05 -2.84144e-06 8.61997e-19
6.66922e-06 5.54291e-08 4.8256e-19
6.83254e-06 8.20639e-08 -1.35127e-18
2.91369e-06 5.49126e-06 -2.85054e-18
3.21216e-06 -5.80832e-06 1.77598e-19
-3.29869e-06 5.593e-06 6.65869e-19
-3.45645e-06 -5.72369e-06 -8.34111e-19
6.5799e-06 -4.96958e-06 -5.22228e-18
-1.34932e-05 2.1617e-06 3.42627e-18
-1.33415e-05 -2.20442e-06 1.62882e-19
-8.52617e-06 1.05419e-05 -2.54491e-18
-8.57444e-06 -1.05826e-05 -1.20454e-18
4.99296e-06 -1.33804e-05 -1.84056e-19
4.81049e-06 1.32662e-05 -3.39948e-19
9.68724e-07 1.69205e-05 -1.64248e-18
7.51396e-06 -2.01699e-06 3.18904e-19
1.62442e-06 -2.52806e-06 -1.89528e-19
-1.38605e-05 9.30877e-07 -2.15598e-18
5.15497e-06 -1.3165e-05 -1.58514e-20
4.88438e-06 1.32125e-05 -1.36589e-18
3.17857e-06 -5.90907e-08 3.33416e-18
5.8169e-06 1.59985e-05 -4.23967e-18
-1.47998e-06 -2.6351e-06 8.53733e-19
1.55628e-06 -7.44225e-06 -8.53978e-19
-1.45402e-05 -7.79969e-06 -1.9658e-18
-1.41304e-05 -7.56464e-06 3.5717e-18
-1.42326e-05 8.80007e-06 3.10984e-18
2.154e-06 -8.27912e-06 -1.87623e-18
-1.0516e-06 2.20871e-06 -1.34726e-18
-4.70838e-07 -1.66352e-05 -1.47733e-18
-5.11866e-06 -1.58344e-05 6.05815e-21
2.13876e-05 1.99231e-05 9.55641e-19
2.33403e-05 -1.20689e-06 2.71185e-18
-8.42502e-06 -2.44498e-06 -2.38235e-18
-1.49047e-05 -2.65408e-05 5.88214e-21
5.48613e-06 9.01171e-06 1.83451e-18
-1.63283e-05 1.92675e-06 -3.27701e-19
1.32433e-05 3.79522e-06 -3.30818e-19
-2.97469e-06 -1.24896e-08 8.39015e-19
-3.07295e-06 -5.56158e-06 -6.91717e-19
-5.43664e-06 -2.58644e-05 -3.6605e-18
-6.43444e-06 -2.94671e-08 -2.50324e-18
-3.09812e-05 -1.16289e-06 1.59009e-18
1.13175e-05 -1.258e-05 -1.96959e-18
1.65337e-06 2.61996e-06 -1.84244e-18
-7.63068e-08 -1.15051e-05 1.17339e-18
-6.49887e-06 1.56074e-05 -3.3096e-19
-2.89012e-06 5.70474e-06 6.94072e-21
1.3542e-05 -8.94838e-06 -3.29423e-19
-2.51136e-05 -8.20453e-06 2.96546e-18
-9.97961e-06 -1.31725e-05 -4.90237e-19
3.32669e-06 5.62312e-06 2.3402e-18
1.11172e-05 3.35377e-06 1.85515e-18
-3.12562e-06 -4.78527e-06 8.4724e-19
1.3325e-05 2.4267e-06 -1.93006e-19
1.21528e-05 -6.5222e-06 1.00099e-18
-2.49551e-07 1.79757e-05 -1.69895e-19
5.51137e-06 -8.96351e-06 -1.68643e-18
3.20162e-05 1.36879e-06 3.33647e-18
-2.71995e-05 7.08718e-06 2.69046e-18
1.53681e-05 7.6754e-06 -2.56755e-18
-4.22439e-06 -1.1166e-05 -7.47802e-18
-1.00498e-05 -5.61768e-06 8.50456e-19
1.89005e-05 -1.56344e-07 6.4753e-19
-4.79265e-07 -1.60651e-05 -6.12884e-18
-8.24674e-06 -7.16571e-06 -2.02158e-18
6.64827e-06 -1.54188e-05 -9.86462e-19
-3.64171e-07 1.35289e-05 -1.35048e-18
5.11695e-06 1.70102e-05 -1.66372e-19
1.14726e-05 -6.58634e-06 -1.35023e-18
-1.23255e-05 1.24179e-05 2.62187e-18
1.07984e-05 1.31627e-05 -3.27542e-19
-4.32755e-05 1.03233e-05 -1.40731e-18
-6.73615e-06 1.72388e-05 -5.12064e-19
8.31498e-06 -1.01016e-05 -1.86528e-18
-4.63511e-06 -1.21787e-05 1.03501e-18
-7.81468e-06 2.90962e-06 -1.85885e-18
-1.67071e-05 -4.55674e-06 3.25863e-19
-4.46184e-06 2.60647e-05 8.29375e-21
-8.26718e-06 7.88442e-06 1.85189e-18
1.37013e-05 -3.0017e-06 -3.49223e-18
-4.49442e-06 -1.67515e-05 -3.29175e-18
-9.69588e-06 1.54338e-05 6.49396e-19
-1.44105e-05 8.30084e-06 -3.08773e-18
-1.33568e-05 -9.73144e-06 -2.12548e-18
1.2102e-05 -1.3951e-05 -2.06523e-18
-1.77381e-05 -9.40733e-07 -1.64469e-18
7.82214e-06 -2.68083e-05 3.31774e-18
1.27239e-05 -1.23993e-05 -2.3069e-18
1.60124e-05 2.81323e-05 -3.28795e-19
1.29297e-06 1.31225e-05 -2.2039e-18
1.89879e-06 -1.66208e-05 -3.28124e-18
-2.81527e-05 3.30466e-05 -2.79732e-18
-8.27111e-06 -1.57798e-05 -1.96668e-18
1.09889e-05 -4.25608e-06 -1.70796e-18
-1.66969e-06 1.67541e-05 4.87027e-19
8.59335e-06 -7.97676e-06 -4.5754e-18
9.05615e-06 1.58856e-05 6.545e-19
1.13785e-05 -9.64022e-07 -1.74104e-19
1.40173e-05 -4.10508e-05 -1.64808e-19
-3.8505e-06 -8.38991e-06 -3.29056e-19
-1.5029e-05 6.45693e-06 4.25965e-18
-1.32836e-05 1.24147e-05 -1.20345e-18
1.4171e-05 9.58698e-06 -4.90768e-19
1.23161e-05 -7.12837e-06 -1.49618e-18
9.93064e-06 8.39941e-06 -1.525e-18
-3.60954e-06 -6.08548e-09 -2.02905e-18
1.0059e-05 -1.51005e-05 -2.4719e-18
-1.10412e-05 -1.31494e-05 1.48523e-18
1.48336e-05 6.44332e-06 -2.31382e-18
8.55042e-06 -8.03515e-06 -5.43739e-18
6.19582e-06 -1.62261e-05 -1.81084e-18
1.10377e-05 -4.6624e-06 -4.36544e-18
-1.03138e-05 -4.91125e-06 4.93686e-21
8.76945e-07 -1.73933e-05 -4.63719e-18
-1.68535e-05 2.89393e-06 1.31533e-18
1.49272e-06 1.60068e-05 -1.65478e-18
1.35701e-05 4.38234e-06 1.32364e-18
-1.40767e-05 -6.93424e-06 2.31267e-18
-5.87966e-06 1.66242e-05 -1.47871e-18
-9.91726e-07 -1.57802e-05 3.13296e-18
1.30146e-05 7.90118e-06 -1.19199e-18
-1.14156e-06 1.18663e-05 -3.44915e-19
-1.30979e-05 8.81336e-06 4.29329e-18
1.54773e-05 7.49044e-06 -1.14579e-18
-1.11786e-05 -6.56848e-06 1.01014e-18
9.88364e-08 -1.30245e-05 -1.67693e-18
1.20556e-05 1.30827e-05 -4.88655e-19
-1.46122e-05 -9.44439e-06 5.16786e-19
3.16865e-05 -2.26733e-05 -2.47871e-18
1.18654e-05 -7.14229e-06 -2.67734e-18
5.65438e-06 2.80141e-05 -9.63704e-19
1.12596e-05 -8.98896e-06 1.65967e-18
-1.47531e-05 5.68951e-05 2.24643e-21
-1.48299e-05 -5.63537e-05 -2.99912e-19
3.70349e-05 4.84133e-05 1.78797e-18
3.65892e-05 -4.84014e-05 -2.51805e-18
6.04711e-05 -2.96e-08 4.43827e-19
-5.20357e-05 2.10822e-05 2.08436e-18
-5.11913e-05 -2.13025e-05 -2.67941e-18
8.17187e-06 7.89031e-06 -2.20786e-18
1.97644e-05 1.47143e-05 -1.8946e-18
7.58458e-06 2.2046e-06 -1.00875e-18
1.24611e-05 6.41119e-06 -2.82375e-18
3.24485e-06 1.32236e-05 1.31095e-18
-1.22443e-05 -9.64977e-06 -1.64477e-18
1.13659e-05 -6.73912e-06 -8.48051e-19
1.30768e-05 9.54244e-06 -1.48449e-18
-2.095e-06 1.58927e-05 8.19625e-19
1.9861e-05 -1.35107e-05 -1.87522e-19
2.42111e-06 -1.54937e-05 3.4622e-18
1.47025e-05 3.40088e-06 1.01954e-18
1.95879e-05 7.27115e-06 1.78664e-18
9.43071e-06 9.36444e-06 -1.68681e-18
1.05123e-05 4.35274e-06 -2.6695e-18
-1.20625e-05 7.10457e-06 7.13328e-18
-1.46338e-05 5.85524e-06 3.30357e-18
1.5432e-05 -7.52818e-06 1.69738e-18
-1.19009e-05 -6.52358e-06 -2.66325e-18
-1.2083e-05 -6.84021e-06 3.49072e-18
-2.15335e-07 -1.3603e-05 -1.65913e-19
-9.87841e-08 -1.38233e-05 3.33207e-19
-1.30594e-05 -6.56231e-07 -2.63772e-18
1.75808e-05 -2.66704e-06 6.4796e-19
1.19359e-05 7.48065e-06 -4.80509e-18
-1.16818e-05 7.08759e-06 4.67083e-18
-1.01123e-05 1.10044e-05 -2.04556e-18
1.05423e-05 -9.07209e-06 -3.80587e-18
-7.24083e-06 1.13309e-05 1.31353e-18
-9.28065e-06 -9.65703e-06 -4.89296e-19
-8.07884e-07 1.38389e-05 1.60629e-19
-8.39704e-07 1.37331e-05 -8.38738e-19
3.33542e-08 -1.30284e-05 -3.36061e-18
3.99769e-06 -1.29438e-05 -2.15249e-18
-1.12362e-05 -6.46917e-06 1.51553e-18
1.03105e-05 -3.653e-06 -2.50749e-18
4.18238e-07 1.40626e-05 -1.50353e-18
1.71246e-07 1.21326e-05 -2.18657e-18
-1.56476e-06 1.10071e-05 3.26697e-19
1.44311e-05 -3.65055e-06 -3.34209e-21
-1.09547e-05 3.48961e-06 -1.53062e-18
2.68297e-06 1.40759e-05 -7.28886e-21
-2.1714e-05 8.51575e-06 6.77058e-19
6.13824e-06 2.73899e-05 -1.27776e-18
-1.12605e-05 2.97359e-06 -1.3626e-18
1.32037e-05 -7.81247e-06 1.34735e-18
5.73858e-07 1.37651e-05 2.15838e-18
-1.32872e-05 4.36229e-06 1.16062e-18
1.62012e-06 -1.06864e-05 -3.53976e-18
5.96178e-07 -3.79526e-05 -3.1599e-19
1.30757e-06 1.14795e-05 -1.50592e-18
-1.1079e-05 9.05925e-06 3.48595e-18
1.12971e-05 4.15812e-05 -1.58037e-18
3.15135e-05 2.61354e-05 4.55172e-18
3.61254e-05 -2.4717e-05 -2.12173e-18
9.81808e-06 -6.72572e-06 4.93069e-19
-1.03186e-05 9.09851e-06 6.4328e-18
-1.31181e-05 -5.16e-06 6.69273e-19
-1.2759e-05 -4.40491e-06 8.27055e-19
4.44168e-05 -1.22047e-05 1.92812e-18
4.53075e-05 9.52694e-06 2.48653e-18
7.2153e-06 2.5203e-06 -1.01624e-18
4.67123e-07 1.28595e-05 -1.68013e-18
4.96453e-08 1.2851e-05 -1.17605e-18
-3.16164e-05 -2.3135e-05 -8.27314e-22
7.49485e-06 -1.12878e-05 -6.93693e-18
7.82731e-06 8.35241e-06 1.6232e-19
-1.38638e-05 -2.21415e-06 -2.48827e-18
-9.17173e-06 1.11289e-05 5.79315e-18
-1.22986e-05 5.92184e-06 3.1524e-18
3.12918e-05 2.24457e-05 2.94105e-18
1.05453e-05 4.66769e-06 -2.20222e-18
-3.69375e-06 1.30301e-05 -1.68891e-19
-1.1103e-05 -7.61101e-06 -1.15986e-18
1.18405e-06 -1.34629e-05 4.3359e-18
-5.83555e-06 -1.25293e-05 -4.80042e-18
-1.12326e-05 -7.64281e-06 1.17068e-18
6.93094e-06 -1.23957e-05 -4.31625e-18
9.30615e-06 -1.1131e-05 -2.49888e-18
-1.93176e-06 -3.97153e-05 3.21794e-21
1.69398e-05 -2.68689e-05 1.75322e-18
1.13969e-06 -1.36106e-05 8.23419e-19
1.1894e-05 7.45668e-06 -6.74697e-19
-9.4542e-06 -9.64074e-06 -2.97806e-18
-6.43357e-06 1.27986e-05 -3.32093e-19
-3.29937e-06 1.36976e-05 -1.16777e-18
1.09738e-05 9.33019e-06 -2.65479e-18
3.94593e-06 -1.30014e-05 -1.6958e-19
-9.09495e-06 -2.6045e-05 -1.7352e-18
-1.35827e-06 1.65941e-05 3.3935e-19
9.72526e-06 9.50817e-06 -1.14944e-18
-8.48272e-06 -6.70519e-06 1.67966e-19
-8.89928e-06 6.97525e-06 -1.52584e-18
2.91483e-05 -1.2528e-05 4.76453e-19
4.98245e-06 -8.78861e-06 1.49273e-18
-5.45754e-06 -8.20753e-06 -1.99378e-18
1.43473e-05 4.3752e-06 8.40104e-19
8.81954e-06 -3.18186e-05 -6.12727e-18
-2.3151e-05 -2.3527e-05 2.80355e-18
1.56455e-05 4.10192e-06 -1.02473e-18
-6.11862e-06 -1.18663e-05 -2.46976e-18
1.23645e-05 6.28441e-06 -3.00836e-18
-1.87608e-05 -2.08314e-05 -4.73586e-19
7.14226e-06 3.2353e-05 4.7177e-18
3.13448e-05 -4.04827e-05 -7.09887e-19
-1.93885e-05 -4.73767e-05 1.77387e-18
1.76853e-05 -3.45725e-05 2.15945e-18
-8.42061e-06 2.89062e-05 1.65456e-19
-4.79665e-06 2.56022e-05 3.1409e-18
-1.22235e-05 5.84905e-06 1.67192e-18
4.00335e-06 1.60434e-05 1.70584e-18
-1.57865e-06 8.25976e-06 -1.17642e-18
6.72393e-06 2.15304e-06 4.93637e-19
-2.12796e-06 1.07084e-05 6.78525e-19
-1.61558e-07 1.38496e-05 1.66628e-19
1.10498e-05 6.43791e-06 -1.34341e-18
5.52008e-07 3.7773e-05 1.39637e-18
-9.63878e-06 6.95424e-06 -8.40842e-19
1.06267e-05 -4.10487e-06 -3.55241e-18
1.13344e-05 -2.94657e-06 -1.54507e-18
-3.87191e-05 -5.56239e-06 -1.24872e-18
-2.29497e-05 1.09199e-05 -1.22192e-18
-2.80982e-05 -3.33162e-05 1.10926e-18
5.72544e-06 5.49396e-06 -5.90939e-18
9.42695e-06 4.86548e-06 1.50981e-18
1.76087e-05 -2.8083e-06 -2.9555e-18
-5.29818e-06 -8.62498e-06 1.51473e-18
1.14031e-05 5.60325e-06 -1.84598e-18
4.88255e-06 -1.99387e-05 -6.00678e-18
-9.03727e-06 6.63333e-06 4.96329e-19
-1.48196e-05 -1.41959e-05 1.37011e-18
-3.81786e-06 1.06378e-05 -1.50701e-18
-2.19833e-06 1.36469e-05 -1.86349e-18
2.29241e-05 1.42375e-05 2.59951e-18
2.44407e-05 -1.29702e-05 -1.7548e-18
-2.70434e-05 -7.28304e-06 1.10408e-18
5.06066e-06 5.12454e-06 -6.81946e-19
-3.16901e-06 6.60437e-05 7.69772e-19
-1.48151e-08 -6.78397e-05 -1.59259e-21
3.34367e-05 5.7222e-05 -7.69139e-19
-1.26142e-05 5.51014e-06 -3.42959e-19
-1.79368e-05 3.62177e-05 4.65703e-19
3.36421e-05 -5.52304e-05 -7.72014e-19
-7.6479e-06 -1.18364e-05 -2.1497e-18
5.11538e-05 4.4535e-05 2.01195e-18
1.59597e-05 -1.18758e-05 -7.74416e-18
-2.32249e-06 -1.97492e-05 5.25368e-19
5.35982e-05 -4.35476e-05 -1.54122e-18
-4.44265e-06 9.45659e-06 -1.69504e-19
-3.43438e-05 -2.1818e-05 2.35758e-18
-2.82868e-05 -5.90614e-05 -2.15348e-18
-1.60145e-05 -3.73825e-05 -2.82657e-18
-2.90807e-05 6.00291e-05 -1.01975e-21
-6.88611e-06 4.15387e-05 2.35118e-18
1.06881e-05 2.48253e-05 2.42987e-18
-1.84321e-05 2.36857e-05 5.20093e-18
-1.71634e-05 -3.52576e-05 -2.01073e-18
6.58162e-05 1.15477e-05 1.23388e-18
-1.11119e-05 6.98486e-06 -1.84491e-18
-3.93027e-06 1.07716e-05 -6.83827e-19
-3.25716e-05 2.34578e-05 2.96698e-18
-1.13177e-05 6.49662e-06 2.00842e-18
6.5168e-05 -1.02952e-05 -3.54324e-18
-1.00932e-05 5.07576e-06 -1.68831e-18
4.74691e-06 -9.52601e-06 -1.1746e-18
-5.06036e-05 -3.8557e-05 -1.38537e-18
-1.7253e-05 3.74162e-05 3.5984e-18
-5.18095e-05 3.82813e-05 -6.13214e-19
1.56425e-05 3.44439e-05 -1.39431e-18
-9.67913e-06 6.8793e-06 -1.33686e-18
-1.35787e-05 1.63122e-05 -5.22891e-19
-2.41711e-05 3.03553e-05 2.47713e-18
-3.78985e-05 -4.88875e-06 5.12112e-18
-6.3352e-07 1.07275e-05 -5.02787e-19
-2.56018e-05 -3.04829e-05 6.96575e-19
-3.92113e-05 6.93638e-06 -8.81994e-19
-1.49348e-05 3.46443e-05 -1.23265e-18
-1.15282e-05 4.61222e-05 2.11818e-18
-1.20273e-05 2.66633e-05 4.26552e-18
-2.23705e-05 1.8024e-05 1.55657e-18
1.6439e-05 -4.04779e-06 3.06286e-18
2.56857e-05 -1.38949e-06 -1.05223e-20
8.96358e-06 5.44709e-06 -3.34335e-19
-8.09945e-06 -5.30649e-05 -2.64212e-18
-5.00149e-05 -1.95051e-05 1.93998e-18
2.50119e-05 3.37363e-07 1.73171e-18
3.85285e-05 -7.43812e-06 4.66808e-19
-6.91384e-06 -8.77789e-06 -3.48227e-18
-3.34322e-05 2.35039e-05 4.79427e-18
-2.99615e-05 3.43201e-05 4.72809e-18
4.07285e-05 -1.46754e-05 9.49759e-19
-1.86887e-05 -3.16693e-05 -4.0293e-18
-1.90231e-05 3.14245e-05 1.75085e-18
-3.69115e-05 -1.30566e-06 2.61411e-18
-1.67894e-05 3.30169e-05 -2.27202e-18
-3.67938e-05 3.80165e-07 3.67449e-18
4.57609e-05 1.63881e-05 4.40462e-18
3.69417e-05 1.3575e-06 3.1243e-18
3.47271e-05 -1.77922e-05 1.03467e-18
1.01263e-05 -4.88141e-05 -3.73093e-18
1.83575e-05 -3.19756e-05 -3.33157e-18
1.82329e-05 3.19721e-05 -6.98986e-19
9.9167e-06 4.76957e-05 8.86222e-19
4.99754e-05 -1.40919e-05 3.88752e-18
3.20416e-05 1.58707e-05 1.5856e-18
3.08004e-05 8.41577e-06 -1.72262e-19
P_ext 3 563 float
-1.08562e-06 3.67076e-07 -2.66411e-20
1.02974e-09 4.02095e-08 2.30733e-20
-1.00037e-07 -9.40749e-08 2.11004e-20
-3.16451e-08 2.92107e-08 -8.08873e-21
2.76096e-08 5.27302e-10 1.20109e-19
3.29234e-08 -1.33619e-07 5.7149e-20
-1.06887e-06 -3.71518e-07 1.92706e-20
-7.84285e-08 -8.89704e-08 -2.56995e-20
2.18165e-07 3.86453e-09 9.27418e-20
7.96523e-08 -7.48296e-09 -1.07686e-20
7.06659e-07 1.6563e-07 -4.29732e-20
3.884e-08 -1.13702e-07 5.99158e-20
8.9011e-08 1.05952e-07 9.4038e-20
-9.16854e-09 8.30007e-08 1.24054e-20
2.49368e-08 9.23722e-09 9.52945e-20
-1.39465e-07 -2.28304e-09 -1.82918e-20
-1.74237e-08 5.46967e-08 -6.8604e-20
8.40718e-08 -1.26856e-08 2.59295e-21
9.65646e-08 1.72214e-07 2.80509e-20
-1.29556e-07 1.30652e-08 2.37186e-21
-4.86365e-08 -1.83502e-07 9.9425e-21
1.6036e-09 3.32975e-10 9.70189e-20
1.43492e-07 1.16825e-08 -2.34978e-20
9.13527e-08 -1.05476e-07 -1.08819e-20
-1.32344e-07 -2.13114e-08 1.0587e-20
-2.49479e-08 -7.24248e-08 -2.84853e-20
8.12402e-07 -6.64583e-08 -6.58101e-20
9.95366e-08 8.39157e-08 3.90063e-20
-2.97252e-07 -2.3612e-07 -4.25424e-20
1.74685e-08 3.28569e-09 3.22867e-20
-1.32885e-07 -2.36658e-08 4.17426e-20
5.80954e-08 -3.78038e-07 9.92313e-21
6.10485e-07 -6.25214e-07 6.35052e-20
1.30093e-09 -2.86729e-08 -5.40626e-20
-7.71652e-09 2.20511e-08 4.58221e-20
-2.39347e-08 -1.57683e-08 2.48285e-20
3.17025e-09 1.58323e-08 -2.14707e-20
-2.42002e-08 4.12082e-09 -3.79985e-20
9.61227e-08 -1.04542e-07 5.18092e-20
5.95718e-07 6.51564e-07 5.61958e-20
3.8053e-07 -1.72404e-07 4.74287e-20
5.88819e-09 -1.44984e-08 -1.93189e-20
-9.52885e-09 -1.26986e-08 2.91199e-21
-1.32008e-07 2.71168e-08 -3.41233e-20
3.77527e-07 -3.70748e-07 1.13594e-19
-3.51778e-07 1.26622e-07 6.03147e-20
-4.44449e-08 -1.93946e-07 -3.393e-20
8.01941e-08 1.94804e-07 3.85444e-20
-1.26624e-07 3.3112e-08 -8.34407e-20
-2.17881e-07 3.38881e-07 -3.98915e-20
3.86212e-07 1.89138e-07 -3.99953e-20
3.35357e-07 -1.10298e-07 -2.57987e-20
-9.88109e-09 2.34828e-08 2.88722e-21
-2.6244e-07 -2.35502e-07 -1.54037e-20
-2.57605e-08 3.40133e-09 -5.31298e-20
-5.62876e-07 3.30552e-07 -2.96751e-20
-7.16531e-09 -2.1959e-08 -4.61074e-20
7.47314e-08 -3.46565e-07 8.37147e-20
-2.23803e-08 -4.87487e-09 -2.65395e-20
5.86332e-08 1.17563e-07 1.55333e-20
-3.12879e-08 -9.4959e-09 -5.11279e-21
-3.30361e-08 -3.10326e-08 2.13386e-20
7.32504e-07 3.22492e-07 4.20607e-20
-6.28678e-10 6.39775e-08 -3.97926e-20
9.88896e-09 -4.26868e-08 -2.11309e-20
1.66121e-08 -9.4967e-08 -5.54278e-20
-6.592e-09 -3.10947e-08 -5.49828e-20
-7.60032e-08 -1.9316e-08 -3.66262e-20
-8.84735e-08 1.08253e-07 7.96801e-21
2.37276e-08 -8.61599e-09 -2.3936e-20
-9.74609e-09 -2.4159e-08 -8.27919e-20
-2.54786e-08 -3.73438e-09 -5.27012e-20
-4.38512e-08 4.06263e-07 7.68381e-21
-7.8061e-08 3.94286e-08 -3.20613e-20
-7.57303e-08 1.29532e-07 -3.65872e-20
-7.6171e-07 8.95329e-08 -1.21704e-19
3.49357e-11 -6.03281e-08 -2.72557e-20
-7.33364e-08 -6.1444e-08 -3.90529e-20
3.088e-08 7.5355e-08 1.5816e-20
2.91942e-07 5.83648e-08 7.5377e-21
4.1841e-07 -3.64049e-07 7.72414e-20
1.14722e-08 2.80914e-08 2.16644e-22
2.83058e-08 8.7832e-09 1.15872e-19
-3.8986e-07 2.88435e-07 4.7528e-20
4.55082e-07 5.53274e-08 4.0381e-20
-6.89758e-08 6.16804e-07 4.93928e-20
-2.39127e-08 -1.23622e-07 5.70765e-20
8.39478e-08 5.91245e-08 -2.6168e-20
3.63131e-07 3.82949e-07 -2.23813e-20
6.58051e-09 2.92906e-09 -3.81923e-20
-6.99881e-08 3.48524e-07 1.25265e-20
5.94423e-09 -3.1854e-09 4.03989e-20
-4.20281e-08 2.86622e-08 -4.00631e-20
9.07274e-08 3.69242e-08 -4.45885e-20
-3.35588e-07 1.03745e-07 3.31714e-20
1.94776e-07 3.42253e-07 3.4745e-20
1.21172e-07 -5.47089e-07 -4.01085e-20
2.84848e-08 7.468e-08 -2.60856e-21
-5.15429e-08 -3.06701e-08 6.64868e-20
4.27058e-08 1.36585e-07 -5.49449e-20
2.83953e-07 4.83201e-08 1.09692e-19
-1.88493e-07 3.89418e-07 -3.29293e-20
5.01069e-07 -1.63764e-07 5.96589e-20
-2.78069e-08 6.07107e-08 -3.43203e-20
5.32955e-08 5.41264e-08 -5.21491e-20
-3.16756e-08 -7.30742e-08 8.24784e-21
-1.27416e-08 -5.56778e-08 -7.40202e-20
1.47401e-07 1.76714e-08 3.90087e-20
-1.07508e-07 5.0289e-07 7.44258e-20
-2.48675e-08 1.53403e-08 -1.86955e-20
7.3523e-08 1.08957e-07 2.56687e-20
-3.63534e-08 -5.16066e-07 -6.68587e-20
5.22064e-07 1.56751e-07 3.97601e-20
3.55467e-08 -6.28142e-08 4.15125e-20
-8.1155e-08 -9.28384e-09 -6.54897e-20
-3.33911e-07 -1.34021e-07 7.59816e-21
1.65139e-08 1.76639e-08 -8.0868e-20
-5.30397e-07 -1.85493e-07 2.75672e-20
1.67648e-08 -1.76151e-08 1.04667e-19
-5.15748e-08 -3.62639e-07 6.37099e-20
2.2382e-07 8.49338e-09 2.01826e-20
-1.99367e-08 1.70138e-08 7.57712e-21
5.35088e-09 2.44446e-08 3.44758e-20
1.49723e-08 -6.55722e-08 2.61241e-20
2.60077e-08 -1.21637e-08 4.85912e-21
4.86612e-10 2.63443e-08 2.40621e-20
2.27418e-08 -2.83899e-09 8.30757e-20
4.24238e-08 -6.25854e-08 -5.26716e-20
-1.08599e-07 -5.53896e-07 -3.98993e-20
2.86901e-07 -2.20859e-07 6.31396e-20
9.29582e-10 3.49572e-08 5.43574e-21
-2.41939e-08 -4.37668e-09 -1.04217e-20
-7.8737e-09 -2.70613e-08 1.82899e-20
-1.99515e-08 -1.40828e-08 -5.95067e-20
-2.68213e-07 3.35164e-07 2.52513e-20
-3.08127e-10 -2.66248e-08 -7.35498e-20
-3.35493e-07 5.26778e-07 -1.95404e-20
-1.26097e-07 5.79896e-08 5.09373e-21
1.77318e-08 1.91232e-08 5.04458e-21
-2.29225e-08 -1.34032e-08 -9.39135e-20
1.63584e-07 3.94805e-07 2.24731e-20
9.43923e-08 8.41247e-08 2.09922e-20
2.29101e-07 -7.55544e-08 -1.04896e-20
1.28925e-08 -7.04976e-08 -1.32773e-20
-4.1567e-07 -3.83033e-07 -1.09324e-22
-4.00821e-08 6.92716e-08 4.1292e-20
1.04082e-07 5.55191e-08 -2.71528e-21
1.52195e-07 -5.23975e-08 -2.0957e-20
6.57267e-08 -1.31299e-07 5.65273e-20
2.60543e-07 -1.2014e-07 -1.32631e-20
1.73351e-07 -8.18237e-08 -2.8927e-20
1.74225e-08 -1.44392e-08 8.07965e-20
3.02204e-07 2.3904e-07 -6.01236e-20
-4.37482e-08 -1.26516e-07 -2.36592e-20
-5.37344e-08 -4.59727e-08 2.4212e-20
-8.78395e-09 -2.306e-08 -8.63036e-20
1.20679e-08 9.02706e-08 1.05065e-20
-4.04206e-07 2.89798e-08 3.0592e-20
-1.47662e-07 -3.85852e-07 1.53696e-20
-6.35961e-08 8.10639e-08 -2.08869e-20
1.25056e-07 1.66663e-07 6.96007e-20
3.11055e-07 -2.20621e-07 -5.79841e-20
-4.54715e-07 -2.43115e-07 1.23329e-20
2.02293e-07 -3.29314e-07 4.50138e-20
2.63416e-07 -3.24022e-07 1.00502e-20
-7.75873e-08 7.68593e-09 -2.86898e-20
-2.31246e-07 -3.34632e-07 -5.29436e-20
-4.04787e-07 -6.34417e-08 -4.03549e-20
-4.82413e-08 -3.69399e-07 -1.97908e-20
1.80071e-07 -3.72192e-07 8.81937e-20
3.76523e-09 -5.11711e-08 -1.06728e-19
5.35107e-08 3.56366e-07 5.0385e-20
-1.9063e-07 -3.33485e-07 -1.99938e-20
-1.78822e-08 -8.18359e-08 -1.41378e-19
-2.75572e-07 2.06305e-07 7.3251e-20
-5.39933e-08 -1.77021e-08 6.59998e-20
-4.20664e-08 -2.89093e-08 -6.87777e-20
1.09993e-07 -5.64089e-08 5.46589e-20
-1.51372e-08 2.14326e-08 2.374e-21
5.84643e-08 -7.37933e-08 7.42921e-21
-3.42899e-07 -1.52497e-07 -8.28094e-23
-4.54261e-08 -6.11803e-08 -7.77606e-20
4.74757e-08 6.49024e-08 1.56161e-20
2.4795e-07 3.4226e-07 -9.78135e-21
-8.77741e-08 -4.04763e-08 3.95862e-20
-3.81433e-07 -8.58201e-09 -4.00375e-20
-4.88978e-08 -4.53474e-08 -3.08553e-20
-2.78372e-09 -6.56783e-08 -9.52674e-20
4.7897e-08 2.41587e-08 2.65869e-20
-5.52382e-08 5.44476e-08 5.69557e-20
-9.22522e-09 -9.66822e-08 -8.1681e-20
-5.09175e-07 1.25422e-07 1.25152e-20
2.79123e-07 2.38118e-07 3.5561e-20
3.72959e-08 3.8781e-07 1.72303e-20
-2.24885e-08 7.73227e-09 9.9813e-20
-7.50241e-08 2.33129e-09 -7.84597e-21
3.44439e-08 6.57606e-08 7.48087e-21
-2.72684e-08 -6.69483e-09 -1.3101e-19
3.226e-09 -2.32464e-08 2.56114e-20
-1.50024e-08 1.02338e-07 6.8259e-20
1.6626e-08 1.75171e-08 -2.64727e-20
-1.89504e-07 4.18902e-08 3.32579e-20
-1.92185e-07 2.09697e-07 1.1674e-19
-2.07505e-08 1.92565e-08 -1.32274e-20
-3.4768e-07 2.0983e-07 4.26293e-20
-8.92801e-09 2.96316e-08 6.87042e-20
9.38442e-08 -3.36179e-08 -1.11077e-20
4.3583e-07 -4.00969e-08 2.38489e-21
-5.46403e-08 3.45739e-08 2.61649e-20
2.20962e-08 1.01874e-08 1.52536e-20
5.68713e-08 -3.55878e-08 7.72207e-21
-9.75633e-08 3.25185e-08 1.27232e-20
-7.10017e-08 1.86145e-08 -3.1157e-20
2.49696e-08 -7.29308e-09 3.64579e-20
2.309e-07 -1.40424e-07 -2.32074e-20
-9.0878e-08 5.7944e-08 4.15995e-20
-2.71455e-07 -5.66065e-08 -7.76549e-21
-5.76999e-08 -3.03795e-08 -5.75673e-20
2.20719e-08 -1.46519e-08 -4.06782e-22
2.44498e-08 1.71759e-08 3.64099e-20
-6.16992e-09 2.7796e-08 -5.35971e-21
-2.50321e-09 -3.13617e-08 2.63993e-20
-2.5449e-08 1.30099e-08 1.03835e-20
-2.84816e-08 -1.45924e-08 2.68347e-21
7.13498e-08 -2.69671e-08 -2.9479e-20
-2.61102e-08 -7.18006e-09 -5.74483e-20
-2.60548e-08 6.916e-09 -7.95357e-20
-6.42263e-09 2.58858e-08 -5.56756e-20
-6.97258e-09 -2.64531e-08 5.78628e-20
1.72173e-08 -1.92787e-08 1.08974e-19
1.65526e-08 1.84512e-08 -2.66299e-21
9.98844e-09 2.75556e-07 5.3101e-20
5.34694e-08 -4.41052e-08 4.41033e-20
1.24792e-08 -2.35345e-08 5.68904e-20
-2.07818e-07 7.68147e-09 -2.60507e-20
1.97344e-08 -1.87369e-08 6.8528e-20
1.84251e-08 1.90284e-08 3.4252e-20
2.82674e-08 -6.1502e-10 2.07995e-20
9.53939e-08 2.70029e-07 2.9881e-20
-1.4302e-08 -2.33891e-08 -2.04362e-20
3.09253e-08 -7.07827e-08 -3.69349e-20
-2.31912e-07 -1.28311e-07 7.51459e-21
-5.09676e-08 -3.30853e-08 1.35963e-20
-2.32757e-07 1.38047e-07 2.31558e-20
2.06438e-08 -2.11673e-08 4.16327e-20
-9.89401e-09 2.19911e-08 1.5362e-20
-5.44332e-09 -2.66836e-07 3.80869e-20
-8.7358e-08 -2.6428e-07 7.11448e-20
4.0051e-07 3.81189e-07 -3.98434e-20
4.284e-07 -2.43275e-08 6.23944e-20
-3.03939e-08 6.61861e-09 -5.84006e-20
-2.86513e-07 -5.06309e-07 -4.71116e-20
6.83219e-08 1.17144e-07 5.46992e-20
-2.74652e-07 3.23481e-08 1.27005e-20
1.97177e-07 5.51362e-08 5.89541e-20
-2.69437e-08 -1.0898e-10 4.96158e-20
5.8425e-10 -2.80068e-08 1.78746e-20
-2.44817e-09 -1.91605e-08 -1.1956e-19
-2.38854e-08 -1.42097e-08 -1.17559e-19
-5.94059e-07 -2.25119e-08 5.02408e-21
1.86718e-07 -2.11178e-07 4.52357e-20
1.26979e-08 2.46298e-08 -2.36167e-20
6.49086e-09 -1.17914e-07 5.22377e-20
-1.11374e-07 2.63757e-07 -3.30091e-20
2.28151e-09 2.96342e-08 2.3673e-20
1.99244e-07 -1.42572e-07 2.0528e-20
-1.7531e-08 -7.66462e-09 -6.45365e-20
-1.69427e-07 -2.20206e-07 -5.13531e-21
2.33477e-08 1.18834e-08 -2.36505e-20
5.52548e-08 5.34142e-08 5.79452e-20
-3.93102e-08 -6.1237e-08 2.89223e-20
2.41928e-08 -7.82013e-09 4.18946e-20
8.18743e-08 -5.7157e-08 4.71118e-20
-4.86376e-09 4.56564e-08 5.6025e-20
6.7352e-08 -1.13518e-07 -1.08665e-20
6.14966e-07 3.09856e-08 7.93981e-20
-5.20986e-07 1.37843e-07 2.59007e-21
4.36373e-08 3.04084e-08 -2.68587e-20
-6.45498e-08 -1.5541e-07 -1.01506e-19
-9.81236e-08 -6.40124e-08 -1.79069e-20
3.19361e-07 -3.2097e-09 5.59349e-20
2.73113e-09 -6.09453e-08 -1.59392e-19
-7.98196e-08 -2.81855e-08 -2.1139e-20
1.08839e-07 -2.60039e-07 6.06045e-20
8.67746e-09 1.04762e-07 3.9158e-20
8.93284e-08 2.7702e-07 1.51481e-20
1.07217e-07 -5.65013e-08 2.34703e-21
-1.95563e-07 2.08158e-07 -4.97104e-21
1.79826e-07 2.22208e-07 4.80869e-20
-1.13151e-08 5.05964e-09 -4.65738e-20
1.86039e-09 4.82788e-08 5.5755e-20
3.64629e-09 -2.19085e-08 3.44306e-20
-1.7342e-08 -1.43889e-08 -2.08103e-20
-5.97291e-08 4.73572e-08 -4.47899e-20
-2.74e-07 -6.49192e-08 -2.5536e-20
9.59013e-10 3.08023e-08 4.85131e-20
-7.16666e-08 2.13963e-08 -4.18626e-20
1.94142e-07 -2.81465e-08 -4.18203e-20
-8.30167e-08 -2.68835e-07 -4.63765e-20
-1.63507e-07 2.60398e-07 -3.82666e-20
-4.61769e-08 2.13429e-08 -1.44125e-19
-2.19137e-07 -1.55056e-07 -2.55541e-20
4.96112e-08 -2.32699e-08 3.13575e-20
-2.9713e-07 -1.45494e-08 2.28161e-21
1.4545e-07 -5.13242e-07 3.95767e-20
1.9874e-07 -2.08698e-07 3.80099e-20
3.03874e-07 5.38767e-07 1.21355e-20
-2.84584e-09 6.51313e-08 -1.60861e-20
2.60861e-08 -2.70689e-07 6.32589e-20
-1.05743e-08 6.40454e-09 -1.10564e-20
-1.40879e-07 -2.62881e-07 -5.28644e-21
4.72772e-08 -4.04588e-08 -2.42043e-20
-2.71788e-08 2.73812e-07 3.55657e-20
6.59922e-08 -1.93744e-08 2.55838e-20
1.50155e-07 2.67592e-07 1.07261e-19
1.50397e-07 -3.51207e-09 -4.16277e-20
2.74483e-07 -8.09879e-07 4.17179e-20
-5.81656e-08 -1.08287e-07 -2.06587e-20
-2.42572e-07 1.05694e-07 2.84203e-20
-3.39947e-08 1.67062e-08 -3.48251e-20
2.30279e-07 1.54215e-07 3.30832e-20
1.64142e-07 -9.06196e-08 1.77805e-20
8.67713e-08 3.8124e-08 -5.4731e-21
-1.77473e-08 1.49949e-08 -4.43368e-22
1.64632e-07 -2.54331e-07 -5.55412e-21
-1.75516e-07 -2.19027e-07 5.40275e-21
2.2646e-07 8.93263e-08 5.3618e-20
5.76152e-08 -3.56127e-08 1.76311e-20
1.05869e-07 -2.63133e-07 7.11317e-20
1.24419e-07 -2.35872e-08 -3.96201e-20
-1.20738e-07 -4.81709e-08 2.34593e-20
-5.25058e-09 -4.90149e-08 -6.72596e-20
-2.76739e-07 3.84295e-08 1.16441e-22
2.9076e-08 2.42771e-07 -7.94134e-21
1.89327e-07 4.41803e-08 -7.73204e-21
-2.15059e-07 -9.62592e-08 3.62647e-20
-1.05746e-07 2.7115e-07 -1.04137e-20
-2.417e-08 -2.36524e-07 6.95365e-20
6.25385e-08 3.05226e-08 2.09613e-20
-4.05873e-08 1.14397e-07 -1.8519e-20
-1.93393e-07 1.38703e-07 5.6489e-21
2.48367e-07 1.25276e-07 -7.97779e-23
-1.13076e-07 -3.55245e-08 6.02431e-20
-2.74179e-08 -1.16445e-07 5.46855e-20
1.89799e-07 2.20625e-07 9.46473e-20
-4.46265e-08 -2.02429e-08 -6.65569e-20
6.24051e-07 -4.48724e-07 2.84909e-20
1.32172e-07 -9.24709e-08 -1.07457e-20
1.07925e-07 5.28884e-07 1.22615e-20
1.39367e-07 -1.33983e-07 1.55584e-20
-3.01275e-07 1.14734e-06 -7.63611e-20
-3.03021e-07 -1.13616e-06 3.91831e-20
7.44492e-07 9.786e-07 -5.05146e-20
7.35257e-07 -9.78337e-07 -1.3923e-20
1.21869e-06 -4.75011e-10 -9.23192e-20
-1.05056e-06 4.22658e-07 -5.2823e-20
-1.03314e-06 -4.27254e-07 -1.64342e-20
5.02525e-08 2.72626e-08 -1.34801e-20
3.22465e-08 1.5657e-08 2.39623e-20
9.36555e-08 1.26134e-08 2.58377e-20
1.65342e-07 8.83636e-08 1.00243e-19
4.90461e-08 1.95366e-07 2.55796e-20
-1.77256e-07 -1.52288e-07 4.35507e-20
8.92712e-08 -8.22909e-08 1.27871e-20
1.90459e-07 1.52851e-07 4.34015e-20
-4.40452e-08 2.40456e-07 3.07563e-20
3.12759e-08 -1.53616e-08 7.47311e-20
4.48269e-08 -2.30754e-07 1.31138e-19
5.8579e-08 3.94965e-08 4.50525e-20
3.43512e-07 1.20336e-07 3.03787e-20
7.70579e-09 2.47335e-08 2.69519e-21
1.32773e-07 4.34578e-08 -1.58344e-20
-1.64325e-07 9.08984e-08 8.51497e-21
-2.24981e-07 7.78309e-08 -7.32868e-21
4.45521e-08 -3.05227e-08 5.19344e-21
-1.43646e-07 -6.64725e-08 -2.08871e-20
-1.57827e-07 -9.34836e-08 3.40582e-20
-1.38338e-08 -1.58438e-07 -1.8151e-20
6.24271e-10 -1.81966e-07 5.68683e-20
-2.00341e-07 -8.6604e-09 -1.56356e-20
2.97343e-07 -4.61668e-08 2.53257e-20
1.60418e-07 9.88651e-08 6.40476e-20
-1.32749e-07 9.05573e-08 2.38328e-20
-5.98605e-08 2.93049e-08 1.02798e-20
1.49725e-07 -1.34158e-07 3.0256e-20
-1.12495e-07 1.75159e-07 -7.42415e-20
-1.38575e-07 -1.45973e-07 1.80739e-20
-1.31322e-08 1.90796e-07 5.05987e-21
-2.85447e-08 1.61034e-07 2.42789e-21
4.70575e-09 -1.16912e-07 -5.77826e-20
6.03121e-08 -1.94933e-07 5.10166e-20
-9.85849e-08 -6.32667e-08 3.94249e-20
1.36583e-07 -3.89518e-08 -7.55808e-20
3.34731e-10 1.9056e-07 -8.28959e-20
-4.12152e-09 1.21763e-07 -4.20741e-20
-3.05998e-08 1.36963e-07 1.79995e-20
2.24155e-07 -5.51644e-08 4.09127e-20
-4.70836e-08 4.4949e-08 -3.56415e-22
5.08065e-08 1.90715e-07 -1.05068e-20
-3.07099e-08 1.93833e-08 -1.528e-19
1.132e-07 5.24904e-07 2.18668e-20
-5.55375e-08 2.99789e-08 -8.15285e-21
5.89248e-08 -3.06726e-08 8.18063e-20
1.69475e-08 1.62061e-07 -2.5922e-20
-1.90057e-07 4.51463e-08 -7.74773e-20
-5.84129e-09 -8.23933e-08 -6.0599e-20
7.83951e-09 -7.48845e-07 -4.9475e-21
2.27496e-08 1.37387e-07 -3.91639e-20
-1.41984e-07 1.35074e-07 3.75682e-22
2.20472e-07 8.19989e-07 -4.19629e-20
1.05931e-08 6.9752e-09 -2.30806e-21
9.15239e-09 -6.65246e-09 1.27415e-19
1.06896e-07 -8.33583e-08 5.69881e-20
-1.51728e-07 1.35851e-07 1.10941e-19
-1.82122e-07 -5.37992e-08 -2.40452e-21
-1.87149e-07 -6.14664e-08 -2.0451e-20
-3.72365e-09 2.29116e-09 3.28142e-20
-2.57105e-09 -1.23585e-09 4.71977e-20
8.74213e-08 1.7764e-08 -9.67447e-20
2.77447e-08 1.27592e-07 -8.03814e-21
-3.20657e-09 1.26867e-07 -5.75073e-20
-6.27218e-07 -4.5561e-07 -1.68435e-20
1.11342e-07 -1.75124e-07 -1.63645e-20
5.63246e-08 2.02905e-08 -3.16617e-20
-2.06561e-07 -2.22216e-08 -2.83887e-21
-1.30608e-07 1.7255e-07 1.33647e-20
-1.68614e-07 7.9284e-08 -2.02961e-20
6.15778e-07 4.42449e-07 4.35864e-20
6.09479e-08 4.00615e-08 3.1218e-20
-5.99413e-08 1.95637e-07 -2.06046e-20
-1.18168e-07 -1.01214e-07 -4.662e-20
2.93949e-08 -1.54124e-07 3.66908e-20
-9.56165e-08 -1.81922e-07 -3.65132e-20
-1.53221e-07 -1.05023e-07 4.67535e-20
1.05013e-07 -1.86238e-07 7.10633e-21
1.2597e-07 -1.73114e-07 3.81895e-20
-3.99229e-08 -7.81434e-07 5.07799e-21
3.21292e-07 -5.13917e-07 1.74691e-20
1.535e-08 -1.87096e-07 1.29031e-20
1.31941e-07 1.00442e-07 7.52347e-21
-1.18518e-07 -1.43864e-07 7.22654e-20
-1.02787e-07 1.91629e-07 4.62247e-20
-6.31493e-08 1.87821e-07 -2.60483e-20
1.37573e-07 1.42456e-07 7.2151e-20
6.74446e-08 -1.75677e-07 7.73962e-20
-1.7437e-07 -4.9718e-07 -3.94669e-20
3.93043e-09 6.04222e-08 5.29981e-20
1.39276e-07 1.43314e-07 1.00108e-19
-7.50847e-08 -3.69757e-08 8.91671e-20
-6.23907e-08 3.40608e-08 -1.06932e-20
5.58281e-07 -2.44573e-07 5.92276e-20
6.93438e-08 -1.14604e-07 3.62949e-20
-6.58173e-08 -1.12597e-07 -7.78557e-20
2.49848e-08 -2.15999e-09 6.907e-20
2.15817e-09 -9.47004e-09 3.47265e-20
-7.0051e-09 -6.93087e-09 -4.32048e-20
3.07617e-08 2.01649e-08 6.10165e-20
-9.64212e-08 -1.82017e-07 -2.57879e-20
1.48377e-07 5.95066e-08 -4.19937e-20
-3.61036e-07 -3.96913e-07 -3.18879e-20
1.36478e-09 1.16396e-08 9.01227e-20
1.34675e-09 2.07613e-09 9.35495e-20
2.59825e-09 -3.43235e-10 -1.0791e-20
3.46447e-07 -6.84151e-07 4.34987e-20
-1.44029e-08 1.69647e-08 4.02653e-20
-3.30413e-09 2.05522e-08 1.5188e-19
-1.49191e-07 5.30355e-08 1.32267e-20
-5.15478e-09 6.0605e-08 6.91562e-20
-3.27771e-08 9.71867e-08 6.22449e-20
6.75687e-08 2.88224e-09 -5.37769e-21
1.52383e-08 5.84267e-08 2.72623e-21
-3.99444e-09 8.07918e-08 8.42718e-20
1.15804e-07 6.30036e-08 -6.02079e-20
8.2489e-09 7.45348e-07 1.94696e-20
-1.07742e-07 1.01947e-07 -1.68856e-22
8.07893e-08 -5.43182e-08 4.13347e-20
4.66427e-08 -4.25852e-08 1.25313e-20
-7.64474e-07 -1.04965e-07 3.63759e-20
-2.17941e-08 8.63818e-09 -1.13475e-19
-5.56657e-07 -6.58475e-07 9.83453e-21
1.0118e-08 2.70917e-08 1.27519e-20
9.7647e-08 1.89885e-08 -3.13068e-20
2.907e-07 -3.77283e-08 1.48462e-20
-6.64564e-08 -1.09203e-07 -6.98962e-20
1.27064e-07 3.64452e-08 -1.58887e-20
6.6295e-10 -3.23404e-08 -1.66483e-20
-7.16638e-08 8.29119e-08 -2.35449e-20
-2.74072e-08 -1.74367e-08 -1.06632e-19
-6.45909e-08 1.31224e-07 1.01353e-20
1.1685e-08 8.2828e-08 1.03285e-20
1.89926e-08 1.39216e-08 2.89464e-21
1.88488e-08 -1.33738e-08 1.39866e-19
-5.18248e-07 -1.4118e-07 -7.30241e-21
5.7097e-08 2.13073e-08 2.58941e-20
-6.87391e-08 1.33041e-06 5.02224e-21
-4.78252e-09 -1.36687e-06 9.63117e-21
6.72794e-07 1.15174e-06 1.20439e-20
-6.98346e-08 5.53993e-08 -2.3729e-20
-3.56504e-07 7.17459e-07 -6.99061e-20
6.76658e-07 -1.11164e-06 -4.79814e-20
-1.11899e-07 -1.8111e-07 1.27169e-20
1.02753e-06 9.00355e-07 -1.1714e-20
1.20836e-08 -2.14317e-08 -3.00766e-20
-1.25906e-08 -2.17165e-08 2.69986e-20
1.0771e-06 -8.8031e-07 -8.16914e-20
-6.60074e-08 1.2981e-07 -5.43508e-20
-6.76594e-07 -4.30903e-07 2.96837e-20
-5.70545e-07 -1.18917e-06 4.75937e-20
-3.1956e-07 -7.35157e-07 -2.46591e-20
-5.86534e-07 1.20897e-06 -6.71358e-20
-1.38611e-07 8.19281e-07 1.98311e-20
-9.76976e-10 2.86967e-08 4.07409e-20
-3.55895e-07 4.58205e-07 -6.79624e-21
-3.40725e-07 -6.97363e-07 2.62688e-20
1.32494e-06 2.31207e-07 -2.83677e-20
-1.03615e-07 8.80888e-08 -2.10117e-20
-2.43546e-09 5.82025e-08 -2.6543e-20
-6.40897e-07 4.63965e-07 -3.87032e-20
-1.1491e-07 6.133e-08 3.66105e-20
1.31189e-06 -2.05649e-07 -7.45612e-20
-8.77044e-08 5.88736e-08 -8.91453e-20
6.38861e-08 -1.32124e-07 -5.20604e-20
-1.02092e-06 -7.75395e-07 3.09819e-20
-3.44246e-07 7.37598e-07 2.79334e-21
-1.04565e-06 7.697e-07 -5.26499e-20
3.05527e-07 6.81601e-07 1.18258e-20
-1.1249e-07 8.94208e-08 -2.0901e-20
-3.12198e-08 1.76823e-08 -5.91347e-20
-1.71083e-09 -2.71462e-09 9.10117e-20
4.28082e-10 -2.34543e-09 1.14525e-20
8.55151e-09 8.98005e-08 2.87952e-20
-2.50867e-09 2.719e-09 6.30871e-20
1.32217e-09 3.36787e-09 8.19341e-21
2.26242e-09 -9.70166e-10 -8.2765e-21
-1.33849e-09 1.06394e-08 6.86622e-20
-2.35094e-07 5.12923e-07 3.97752e-20
-1.76864e-08 1.26967e-08 -1.3427e-20
3.04831e-08 -1.92028e-08 1.86403e-20
2.98795e-08 -1.73082e-08 2.66098e-20
8.60689e-08 3.35899e-08 -1.04761e-20
-8.11322e-10 -9.10606e-09 -5.81758e-21
-8.131e-09 -4.12069e-09 8.51211e-21
2.9862e-08 1.74197e-08 1.10391e-19
7.59751e-07 -1.46424e-07 1.44791e-20
-9.84437e-08 -1.25481e-07 -2.09472e-20
-6.65174e-07 4.63742e-07 1.24712e-20
-5.95562e-07 6.79271e-07 -6.85849e-21
8.02794e-07 -2.89919e-07 3.68797e-20
-3.8553e-09 -1.11766e-08 -2.51348e-20
-4.23347e-09 1.14807e-08 4.09924e-20
-1.26189e-08 2.16429e-09 6.53067e-20
-8.27209e-09 8.44131e-09 -3.55473e-20
-1.14392e-08 -2.42096e-09 1.14024e-20
2.12128e-09 2.68626e-09 1.32017e-19
1.22786e-08 -3.01888e-09 8.4076e-20
5.17915e-09 -3.63987e-09 1.0084e-19
-3.61919e-09 -2.61448e-09 2.67998e-20
7.85073e-09 -8.0761e-09 5.6378e-20
7.89426e-09 8.31654e-09 1.89359e-20
-3.64126e-09 2.29866e-09 1.38812e-20
3.99798e-09 -7.96235e-10 9.65332e-20
6.62842e-09 3.67061e-09 8.2272e-20
1.435e-08 5.11916e-09 -1.35427e-20
SCALARS rr_necrosis float
LOOKUP_TABLE default
0
0
0
0
0
0
0
0
0
0
0
0
0
0
0
0
0
0
0
0
0
0
0
0
0
0
0
0
0
0
0
0
0
0
0
0
0
0
0
0
0
0
0
0
0
0
0
0
0
0
0
0
0
0
0
0
0
0
0
0
0
0
0
0
0
0
0
0
0
0
0
0
0
0
0
0
0
0
0
0
0
0
0
0
0
0
0
0
0
0
0
0
0
0
0
0
0
0
0
0
0
0
0
0
0
0
0
0
0
0
0
0
0
0
0
0
0
0
0
0
0
0
0
0
0
0
0
0
0
0
0
0
0
0
0
0
0
0
0
0
0
0
0
0
0
0
0
0
0
0
0
0
0
0
0
0
0
0
0
0
0
0
0
0
0
0
0
0
0
0
0
0
0
0
0
0
0
0
0
0
0
0
0
0
0
0
0
0
0
0
0
0
0
0
0
0
0
0
0
0
0
0
0
0
0
0
0
0
0
0
0
0
0
0
0
0
0
0
0
0
0
0
0
0
0
0
0
0
0
0
0
0
0
0
0
0
0
0
0
0
0
0
0
0
0
0
0
0
0
0
0
0
0
0
0
0
0
0
0
0
0
0
0
0
0
0
0
0
0
0
0
0
0
0
0
0
0
0
0
0
0
0
0
0
0
0
0
0
0
0
0
0
0
0
0
0
0
0
0
0
0
0
0
0
0
0
0
0
0
0
0
0
0
0
0
0
0
0
0
0
0
0
0
0
0
0
0
0
0
0
0
0
0
0
0
0
0
0
0
0
0
0
0
0
0
0
0
0
0
0
0
0
0
0
0
0
0
0
0
0
0
0
0
0
0
0
0
0
0
0
0
0
0
0
0
0
0
0
0
0
0
0
0
0
0
0
0
0
0
0
0
0
0
0
0
0
0
0
0
0
0
0
0
0
0
0
0
0
0
0
0
0
0
0
0
0
0
0
0
0
0
0
0
0
0
0
0
0
0
0
0
0
0
0
0
0
0
0
0
0
0
0
0
0
0
0
0
0
0
0
0
0
0
0
0
0
0
0
0
0
0
0
0
0
0
0
0
0
0
0
0
0
0
0
0
0
0
0
0
0
0
0
0
0
0
0
0
0
0
0
0
0
0
0
0
0
0
0
0
0
0
0
0
0
0
0
0
0
0
0
0
0
0
0
0
0
0
0
0
0
0
0
0
0
0
0
0
0
0
0
0
0
0
0
0
0
0
0
0
0
0
0
0
0
0
0
0
0
0
0
0
0
0
0
0
0
0
0
0
0
0
0
0
SCALARS rr_protein float
LOOKUP_TABLE default
1
1
1
1
1
1
1
1
1
1
1
1
1
1
1
1
1
1
1
1
1
1
1
1
1
1
1
1
1
1
1
1
1
1
1
1
1
1
1
1
1
1
1
1
1
1
1
1
1
1
1
1
1
1
1
1
1
1
1
1
1
1
1
1
1
1
1
1
1
1
1
1
1
1
1
1
1
1
1
1
1
1
1
1
1
1
1
1
1
1
1
1
1
1
1
1
1
1
1
1
1
1
1
1
1
1
1
1
1
1
1
1
1
1
1
1
1
1
1
1
1
1
1
1
1
1
1
1
1
1
1
1
1
1
1
1
1
1
1
1
1
1
1
1
1
1
1
1
1
1
1
1
1
1
1
1
1
1
1
1
1
1
1
1
1
1
1
1
1
1
1
1
1
1
1
1
1
1
1
1
1
1
1
1
1
1
1
1
1
1
1
1
1
1
1
1
1
1
1
1
1
1
1
1
1
1
1
1
1
1
1
1
1
1
1
1
1
1
1
1
1
1
1
1
1
1
1
1
1
1
1
1
1
1
1
1
1
1
1
1
1
1
1
1
1
1
1
1
1
1
1
1
1
1
1
1
1
1
1
1
1
1
1
1
1
1
1
1
1
1
1
1
1
1
1
1
1
1
1
1
1
1
1
1
1
1
1
1
1
1
1
1
1
1
1
1
1
1
1
1
1
1
1
1
1
1
1
1
1
1
1
1
1
1
1
1
1
1
1
1
1
1
1
1
1
1
1
1
1
1
1
1
1
1
1
1
1
1
1
1
1
1
1
1
1
1
1
1
1
1
1
1
1
1
1
1
1
1
1
1
1
1
1
1
1
1
1
1
1
1
1
1
1
1
1
1
1
1
1
1
1
1
1
1
1
1
1
1
1
1
1
1
1
1
1
1
1
1
1
1
1
1
1
1
1
1
1
1
1
1
1
1
1
1
1
1
1
1
1
1
1
1
1
1
1
1
1
1
1
1
1
1
1
1
1
1
1
1
1
1
1
1
1
1
1
1
1
1
1
1
1
1
1
1
1
1
1
1
1
1
1
1
1
1
1
1
1
1
1
1
1
1
1
1
1
1
1
1
1
1
1
1
1
1
1
1
1
1
1
1
1
1
1
1
1
1
1
1
1
1
1
1
1
1
1
1
1
1
1
1
1
1
1
1
1
1
1
1
1
1
1
1
1
1
1
1
1
1
1
1
1
1
1
1
1
1
1
1
1
1
1
1
1
1
1
1
1
1
1
1
1
1
1
1
1
1
1
1
1
1
1
1
1
SCALARS rr_(S_ext) float
LOOKUP_TABLE default
0.988002
0.987932
0.987942
0.987931
0.987932
0.987942
0.988001
0.98794
0.987949
0.987935
0.98797
0.98794
0.987941
0.987936
0.987928
0.987942
0.987932
0.987937
0.987947
0.987942
0.987947
0.987916
0.987943
0.987942
0.987942
0.987935
0.987978
0.987941
0.987962
0.987921
0.987942
0.987961
0.987981
0.987924
0.987926
0.987924
0.987919
0.987927
0.987942
0.987981
0.987961
0.987918
0.987918
0.987942
0.987967
0.987963
0.987948
0.987948
0.987942
0.987963
0.987963
0.987959
0.987928
0.987961
0.987929
0.987977
0.987926
0.98796
0.987926
0.987941
0.98793
0.987933
0.987982
0.987934
0.987932
0.987937
0.98793
0.987936
0.987943
0.987931
0.987928
0.987928
0.987963
0.987936
0.987943
0.987979
0.987933
0.987937
0.987936
0.987954
0.98797
0.987931
0.987931
0.987968
0.987965
0.987972
0.987941
0.987938
0.987967
0.987919
0.98796
0.987919
0.987931
0.987938
0.98796
0.987961
0.987972
0.987935
0.987933
0.987942
0.987954
0.987965
0.987968
0.987935
0.987936
0.987935
0.987931
0.987943
0.987969
0.987928
0.987941
0.987968
0.987967
0.987936
0.987935
0.987961
0.987929
0.987973
0.987929
0.987961
0.987949
0.987928
0.987931
0.987934
0.987928
0.987928
0.987928
0.987935
0.987972
0.987959
0.987926
0.987931
0.98793
0.987931
0.987965
0.987925
0.987976
0.987942
0.987931
0.987925
0.987964
0.98794
0.987951
0.987935
0.987974
0.987935
0.98794
0.987944
0.987942
0.987954
0.987947
0.987931
0.98796
0.987942
0.987935
0.987931
0.987936
0.987965
0.987964
0.987938
0.987948
0.98796
0.98797
0.987961
0.987963
0.987935
0.987964
0.987965
0.987961
0.987963
0.98793
0.98796
0.987962
0.987936
0.98796
0.987932
0.98793
0.987941
0.98793
0.987938
0.987963
0.987935
0.987935
0.987963
0.987937
0.987963
0.987934
0.987934
0.987932
0.987935
0.987937
0.987971
0.987959
0.987961
0.987931
0.987936
0.987936
0.98793
0.987931
0.987938
0.987931
0.987948
0.987955
0.987931
0.987964
0.987931
0.987938
0.987963
0.987933
0.987931
0.987934
0.987939
0.987936
0.987931
0.987953
0.987939
0.987955
0.987934
0.987928
0.987928
0.987927
0.987928
0.987928
0.987928
0.987936
0.987928
0.987928
0.987927
0.987928
0.98793
0.987929
0.987954
0.987935
0.987928
0.987949
0.987929
0.987929
0.987928
0.987954
0.987927
0.987935
0.987954
0.987932
0.987955
0.987932
0.987926
0.987953
0.987955
0.98797
0.987963
0.987931
0.987974
0.987941
0.987955
0.987948
0.987928
0.987928
0.98792
0.987928
0.987977
0.987954
0.987927
0.98794
0.987955
0.987928
0.987951
0.98792
0.987955
0.987928
0.987935
0.987936
0.987929
0.987938
0.98793
0.98794
0.987971
0.987972
0.987932
0.987945
0.98794
0.987957
0.987932
0.987937
0.987954
0.987938
0.987955
0.98794
0.987956
0.987954
0.987919
0.98793
0.987927
0.987927
0.987936
0.987956
0.987924
0.987935
0.987947
0.987955
0.987957
0.987931
0.987954
0.987932
0.987957
0.987967
0.987954
0.987974
0.987933
0.987953
0.987918
0.987956
0.987934
0.987954
0.987934
0.987956
0.987943
0.987987
0.98794
0.987954
0.987929
0.987953
0.987947
0.987937
0.987931
0.987956
0.987955
0.987951
0.987935
0.987954
0.987941
0.987942
0.987931
0.987956
0.987951
0.987947
0.987952
0.987955
0.987951
0.987934
0.98794
0.987952
0.987954
0.98794
0.98794
0.987954
0.987931
0.987972
0.987944
0.98797
0.987947
0.987965
0.987965
0.987964
0.987964
0.987961
0.98797
0.98797
0.987933
0.987927
0.987938
0.987947
0.987948
0.987952
0.98794
0.987951
0.987951
0.987927
0.987951
0.987934
0.987959
0.987927
0.987942
0.987947
0.987952
0.987933
0.987944
0.987947
0.987944
0.987946
0.987949
0.987955
0.987946
0.987945
0.987933
0.987948
0.987949
0.987948
0.987947
0.987944
0.987939
0.987948
0.98794
0.987942
0.987947
0.98794
0.987942
0.98795
0.987933
0.987947
0.987927
0.987967
0.987934
0.987934
0.987944
0.987948
0.987936
0.987974
0.987942
0.987948
0.987986
0.987922
0.987922
0.987942
0.987948
0.987947
0.987948
0.987921
0.987919
0.987937
0.987941
0.98794
0.987978
0.987948
0.987934
0.987949
0.98795
0.987947
0.987971
0.987935
0.987948
0.987944
0.987944
0.987949
0.987947
0.987949
0.987949
0.98798
0.987973
0.987947
0.987944
0.987947
0.987949
0.987947
0.987947
0.987947
0.987969
0.987931
0.987947
0.987936
0.987935
0.98797
0.987942
0.987941
0.987931
0.987915
0.987915
0.987929
0.987949
0.987944
0.987969
0.987916
0.987917
0.987916
0.987972
0.987926
0.98792
0.987944
0.987932
0.987938
0.987934
0.987932
0.987935
0.987941
0.987973
0.987943
0.987938
0.987934
0.987979
0.987922
0.987991
0.987931
0.987938
0.987955
0.98794
0.987942
0.987926
0.987939
0.987926
0.987943
0.987935
0.987923
0.987924
0.987972
0.987934
0.988002
0.988005
0.987999
0.987936
0.987978
0.987997
0.987949
0.987999
0.98793
0.98793
0.988002
0.987943
0.987984
0.988005
0.987981
0.988005
0.987981
0.987926
0.987972
0.987977
0.987999
0.987942
0.987933
0.987981
0.987941
0.987995
0.987938
0.987944
0.988005
0.98798
0.988003
0.987971
0.987943
0.987928
0.987914
0.987914
0.987936
0.987914
0.987914
0.987915
0.987916
0.987971
0.987922
0.98793
0.987929
0.987937
0.987917
0.987917
0.98793
0.98797
0.987944
0.987979
0.987993
0.987985
0.987915
0.987915
0.987916
0.987917
0.987915
0.987917
0.98792
0.987918
0.987918
0.987918
0.987918
0.987919
0.987916
0.987917
0.987918
SCALARS rr_(P_ext) float
LOOKUP_TABLE default
0.0212818
0.0211816
0.0211904
0.0211833
0.0211563
0.0211906
0.0212821
0.0211846
0.0211988
0.021182
0.0212752
0.0211846
0.0211866
0.0211807
0.0211655
0.021189
0.021177
0.0211857
0.0212033
0.0211929
0.0211943
0.0211218
0.0211942
0.0211927
0.0211931
0.021184
0.0212613
0.0211893
0.0212307
0.0211421
0.021187
0.0212304
0.0212627
0.0211481
0.0211451
0.0211482
0.021141
0.0211464
0.0211871
0.0212624
0.0212309
0.0211406
0.0211406
0.0211869
0.0212531
0.0212292
0.0212012
0.0211972
0.0211902
0.0212368
0.0212332
0.0212204
0.0211577
0.0212202
0.0211585
0.0212501
0.0211449
0.0212201
0.021145
0.0211924
0.0211774
0.0211691
0.0212549
0.0211696
0.021169
0.0211771
0.0211771
0.021184
0.0211936
0.0211812
0.0211579
0.021158
0.0212309
0.021174
0.0211901
0.021267
0.0211637
0.0211772
0.021184
0.0212181
0.0212389
0.0211532
0.0211732
0.0212417
0.0212277
0.021252
0.0211893
0.0211756
0.021253
0.0211267
0.0212203
0.0211268
0.0211632
0.0211782
0.0212194
0.0212342
0.0212387
0.0211821
0.0211639
0.0211875
0.021209
0.0212254
0.0212419
0.0211848
0.021183
0.0211828
0.021172
0.0211884
0.0212421
0.0211801
0.0211923
0.0212499
0.0212454
0.0211853
0.0211833
0.0212199
0.021145
0.0212392
0.0211453
0.0212195
0.0212055
0.0211667
0.0211816
0.0211753
0.0211793
0.0211647
0.0211485
0.0211822
0.0212387
0.0212194
0.0211578
0.0211823
0.0211737
0.0211819
0.0212252
0.0211448
0.0212443
0.021186
0.0211731
0.0211449
0.0212241
0.0211817
0.021204
0.0211819
0.0212396
0.0211837
0.0211832
0.0211902
0.0211906
0.021212
0.0211974
0.0211816
0.0212306
0.0211865
0.021182
0.0211821
0.0211792
0.0212231
0.0212228
0.0211867
0.021197
0.0212299
0.0212506
0.0212332
0.0212232
0.0211827
0.0212232
0.0212233
0.0212306
0.021223
0.0211629
0.0212202
0.0212334
0.0211783
0.02122
0.0211723
0.021163
0.0211846
0.0211573
0.0211827
0.0212305
0.0211823
0.0211824
0.0212239
0.0211754
0.021234
0.0211753
0.0211719
0.0211625
0.0211821
0.0211752
0.0212377
0.02122
0.0212305
0.021182
0.0211861
0.0211855
0.0211738
0.0211817
0.0211775
0.0211815
0.021202
0.0212174
0.0211739
0.0212304
0.0211732
0.0211772
0.0212259
0.0211679
0.0211814
0.021167
0.0211801
0.0211833
0.0211731
0.0212117
0.0211793
0.0212164
0.0211719
0.0211795
0.0211796
0.0211807
0.0211802
0.0211802
0.0211803
0.0211813
0.0211662
0.0211665
0.0211662
0.0211661
0.0211583
0.0211583
0.0212124
0.021181
0.0211842
0.0211976
0.0211655
0.0211652
0.0211839
0.0212172
0.0211845
0.0211821
0.0212113
0.0211677
0.0212117
0.0211728
0.0211849
0.0212111
0.021216
0.0212391
0.0212384
0.0211731
0.0212411
0.0211877
0.0212165
0.0212027
0.0211846
0.0211797
0.0211401
0.02118
0.0212418
0.0212164
0.0211842
0.0211846
0.0212177
0.0211798
0.0212035
0.0211401
0.0212163
0.0211793
0.0211759
0.0211855
0.0211658
0.0211758
0.0211578
0.0211867
0.0212484
0.0212521
0.0211605
0.0211941
0.0211846
0.0212117
0.0211676
0.0211784
0.0212164
0.0211781
0.0212087
0.0211828
0.0212086
0.0212169
0.0211324
0.021162
0.0211652
0.0211654
0.0211813
0.0212079
0.0211492
0.0211763
0.0211967
0.0212076
0.0212107
0.0211606
0.0212114
0.0211631
0.0212097
0.0212528
0.0212081
0.0212401
0.0211716
0.0212113
0.0211325
0.0212096
0.0211739
0.0212124
0.0211749
0.0212099
0.0211893
0.0212566
0.0211913
0.0212116
0.0211609
0.021212
0.0211966
0.0211749
0.0211813
0.0212097
0.021208
0.0212038
0.0211718
0.0212081
0.0211846
0.0211892
0.021158
0.021208
0.0212043
0.0211952
0.0212032
0.0212091
0.021203
0.0211688
0.0211849
0.0212038
0.0212117
0.0211821
0.0211819
0.0212085
0.0211581
0.0212788
0.0211896
0.021239
0.0211947
0.0213318
0.0213317
0.0213311
0.0213313
0.021331
0.0213321
0.0213316
0.0211713
0.0211519
0.0211864
0.0211971
0.0212027
0.0212033
0.0211827
0.0212039
0.0212044
0.0211517
0.0212033
0.0211672
0.0212203
0.0211678
0.0211908
0.0211973
0.0212036
0.0211603
0.0211896
0.0211966
0.0211895
0.0211965
0.0212041
0.0212185
0.0211973
0.0211905
0.0211669
0.0212018
0.021205
0.0212022
0.0211979
0.0211908
0.0211826
0.0212023
0.0211828
0.0211916
0.0211976
0.0211844
0.0211914
0.0212035
0.021175
0.0211956
0.0211527
0.0212527
0.0211714
0.0211688
0.0211907
0.0211954
0.0211774
0.0212775
0.0211907
0.0211958
0.021256
0.0211331
0.0211328
0.0211897
0.0212028
0.0211946
0.0212018
0.0211178
0.0211178
0.0211843
0.0211843
0.0211847
0.0212778
0.0212044
0.0211735
0.0211976
0.0211985
0.0211977
0.0212794
0.0211755
0.0212033
0.02119
0.0211899
0.0211986
0.0211967
0.0211986
0.0211978
0.0212618
0.0212399
0.0211968
0.0211898
0.0211955
0.021199
0.0211962
0.021195
0.0211955
0.0212527
0.0211655
0.0212023
0.0211776
0.021175
0.0212533
0.0211903
0.0211912
0.0211579
0.0211337
0.0211337
0.021162
0.0212046
0.0211902
0.0212544
0.0211357
0.0211201
0.0211201
0.0212805
0.0211464
0.021142
0.0211912
0.0211636
0.0211865
0.0211813
0.0211746
0.0211722
0.0211846
0.0212778
0.0211888
0.0211784
0.0211737
0.0212676
0.0211453
0.0212578
0.0211741
0.0211811
0.0212103
0.0211871
0.021185
0.021157
0.0211837
0.0211571
0.0211898
0.0211736
0.0211437
0.021143
0.0212541
0.02118
0.0212837
0.0212819
0.0212859
0.0211755
0.021279
0.021288
0.0211989
0.0212849
0.0211528
0.0211529
0.0212833
0.021195
0.0212615
0.0212843
0.0212634
0.0212847
0.0212634
0.0211459
0.0212577
0.0212785
0.0212835
0.0211854
0.02117
0.021265
0.0211852
0.0212873
0.021182
0.0211944
0.0212854
0.0212665
0.0212869
0.0212805
0.0211916
0.0211512
0.0211219
0.0211231
0.0211803
0.0211221
0.0211221
0.0211227
0.0211304
0.0212558
0.0211443
0.0211613
0.0211511
0.0211815
0.0211284
0.0211284
0.0211493
0.0212815
0.0211953
0.0212803
0.0212593
0.0212586
0.0211368
0.0211371
0.0211378
0.0211376
0.0211369
0.0211236
0.0211376
0.0211283
0.0211216
0.0211366
0.0211365
0.0211212
0.0211233
0.021128
0.0211383
SCALARS rr_(S) float
LOOKUP_TABLE default
0.968482
0.968364
0.968378
0.968364
0.968352
0.968378
0.968482
0.968373
0.968389
0.968368
0.968448
0.968373
0.968376
0.968368
0.968353
0.968378
0.968362
0.968371
0.96839
0.968379
0.968385
0.96832
0.96838
0.96838
0.96838
0.968369
0.968448
0.968377
0.968418
0.968335
0.968376
0.968417
0.968452
0.96834
0.968341
0.96834
0.968332
0.968343
0.968377
0.968452
0.968417
0.968331
0.968331
0.968376
0.968434
0.968418
0.968389
0.968387
0.968378
0.968422
0.968419
0.968409
0.968349
0.968411
0.96835
0.968442
0.968341
0.96841
0.968341
0.968378
0.968361
0.968359
0.968449
0.968361
0.968358
0.968367
0.96836
0.968369
0.96838
0.968363
0.968349
0.968349
0.968418
0.968364
0.968379
0.968453
0.968356
0.968367
0.968369
0.968404
0.968429
0.968349
0.968359
0.96843
0.968419
0.968438
0.968377
0.968367
0.968434
0.968325
0.96841
0.968326
0.968354
0.968368
0.96841
0.968419
0.968431
0.968367
0.968356
0.968377
0.968399
0.968418
0.968429
0.968368
0.968368
0.968368
0.968359
0.968378
0.96843
0.968359
0.968378
0.968433
0.96843
0.96837
0.968368
0.968411
0.968343
0.968433
0.968344
0.96841
0.968393
0.968353
0.968363
0.968363
0.96836
0.968352
0.968345
0.968367
0.968431
0.968409
0.968347
0.968364
0.968359
0.968363
0.968418
0.96834
0.968438
0.968376
0.968359
0.96834
0.968416
0.968372
0.968394
0.968367
0.968433
0.968368
0.968372
0.96838
0.968379
0.968401
0.968386
0.968363
0.968416
0.968376
0.968367
0.968363
0.968367
0.968417
0.968416
0.968373
0.968387
0.968415
0.968435
0.968418
0.968415
0.968368
0.968416
0.968417
0.968417
0.968415
0.968353
0.96841
0.968419
0.968367
0.96841
0.968359
0.968353
0.968374
0.96835
0.96837
0.968419
0.968367
0.968367
0.968415
0.968366
0.96842
0.968363
0.968361
0.968355
0.968367
0.968366
0.96843
0.96841
0.968417
0.968363
0.96837
0.968369
0.968359
0.968363
0.968367
0.968363
0.96839
0.968404
0.968359
0.968419
0.968359
0.968368
0.968417
0.968358
0.968363
0.968359
0.96837
0.968369
0.968359
0.9684
0.968369
0.968404
0.968361
0.968359
0.968359
0.968359
0.96836
0.96836
0.96836
0.968368
0.968353
0.968353
0.968352
0.968353
0.968351
0.96835
0.9684
0.968367
0.968361
0.968389
0.968354
0.968353
0.968362
0.968403
0.968361
0.968367
0.9684
0.968357
0.968401
0.96836
0.96836
0.968399
0.968403
0.96843
0.968422
0.968359
0.968435
0.968376
0.968404
0.96839
0.968361
0.968359
0.968333
0.968359
0.968438
0.968403
0.968361
0.968373
0.968404
0.968359
0.968394
0.968333
0.968404
0.968359
0.968364
0.96837
0.968353
0.968367
0.96835
0.968374
0.968435
0.968439
0.968354
0.968383
0.968373
0.968403
0.968357
0.968367
0.968403
0.968368
0.968399
0.968373
0.9684
0.968403
0.968328
0.968352
0.968351
0.968351
0.968368
0.9684
0.968341
0.968364
0.968386
0.968399
0.968402
0.968353
0.9684
0.968356
0.968402
0.968434
0.968399
0.968434
0.96836
0.9684
0.968327
0.968401
0.968362
0.968401
0.968363
0.968401
0.968378
0.968455
0.968377
0.968401
0.968351
0.9684
0.968386
0.968366
0.968363
0.968401
0.968399
0.968393
0.968362
0.968399
0.968374
0.968377
0.968352
0.9684
0.968394
0.968385
0.968394
0.9684
0.968393
0.96836
0.968373
0.968394
0.9684
0.968372
0.968371
0.968399
0.968352
0.968452
0.96838
0.96843
0.968385
0.968472
0.968473
0.968471
0.968471
0.968468
0.968477
0.968477
0.96836
0.968345
0.968372
0.968386
0.96839
0.968394
0.968373
0.968394
0.968394
0.968345
0.968393
0.968359
0.96841
0.968353
0.968378
0.968387
0.968394
0.968355
0.96838
0.968386
0.968379
0.968385
0.968391
0.968405
0.968386
0.968381
0.968358
0.96839
0.968392
0.96839
0.968386
0.96838
0.968372
0.96839
0.968372
0.968379
0.968386
0.968373
0.968379
0.968392
0.968362
0.968386
0.968345
0.968434
0.968361
0.96836
0.96838
0.968386
0.968366
0.968453
0.968378
0.968386
0.968454
0.968331
0.968331
0.968378
0.96839
0.968385
0.96839
0.968323
0.968321
0.96837
0.968374
0.968374
0.968458
0.968391
0.968362
0.968389
0.968389
0.968387
0.968451
0.968364
0.968391
0.96838
0.968379
0.968388
0.968386
0.968389
0.968389
0.968451
0.968433
0.968386
0.96838
0.968385
0.968389
0.968386
0.968385
0.968385
0.968436
0.968356
0.968389
0.968366
0.968364
0.968437
0.968378
0.968378
0.968352
0.968325
0.968325
0.968351
0.968392
0.96838
0.968437
0.968326
0.96832
0.968319
0.968453
0.968342
0.968334
0.968381
0.968355
0.968373
0.968366
0.968361
0.968362
0.968375
0.968452
0.968378
0.968368
0.968362
0.968453
0.968337
0.968459
0.96836
0.96837
0.9684
0.968375
0.968375
0.968347
0.968372
0.968347
0.968378
0.968363
0.968337
0.968338
0.968439
0.968365
0.968483
0.968485
0.968481
0.968365
0.968458
0.968481
0.968389
0.968481
0.968348
0.968348
0.968483
0.968381
0.968454
0.968487
0.968452
0.968487
0.968452
0.968341
0.968441
0.968457
0.968481
0.968376
0.968359
0.968454
0.968375
0.968478
0.96837
0.968382
0.968487
0.968454
0.968486
0.968452
0.968379
0.968345
0.968318
0.968319
0.968368
0.968318
0.968318
0.968319
0.968325
0.968439
0.968337
0.968353
0.968346
0.968369
0.968324
0.968324
0.968346
0.968451
0.968383
0.96846
0.968462
0.968454
0.968327
0.968327
0.968328
0.968328
0.968327
0.968322
0.968332
0.968325
0.968322
0.968329
0.968329
0.968322
0.968321
0.968324
0.96833
SCALARS rr_(P) float
LOOKUP_TABLE default
0.0242978
0.0242382
0.0242435
0.0242392
0.0242229
0.0242436
0.024298
0.0242401
0.0242486
0.0242384
0.0242936
0.02424
0.0242413
0.0242377
0.0242284
0.0242427
0.0242354
0.0242407
0.0242512
0.024245
0.0242459
0.0242018
0.0242457
0.0242449
0.0242451
0.0242396
0.0242855
0.0242428
0.0242674
0.0242141
0.0242415
0.0242673
0.0242864
0.0242178
0.0242161
0.0242179
0.0242134
0.0242169
0.0242416
0.0242863
0.0242675
0.0242132
0.0242133
0.0242415
0.0242806
0.0242666
0.02425
0.0242476
0.0242434
0.0242711
0.0242689
0.0242614
0.0242237
0.0242613
0.0242242
0.024279
0.024216
0.0242613
0.0242161
0.0242447
0.0242356
0.0242307
0.0242818
0.024231
0.0242306
0.0242355
0.0242354
0.0242396
0.0242454
0.0242379
0.0242238
0.0242239
0.0242676
0.0242337
0.0242434
0.0242889
0.0242274
0.0242356
0.0242396
0.02426
0.0242723
0.0242211
0.0242331
0.024274
0.0242657
0.02428
0.0242429
0.0242346
0.0242806
0.0242047
0.0242614
0.0242048
0.024227
0.0242362
0.0242608
0.0242695
0.0242723
0.0242385
0.0242275
0.0242418
0.0242547
0.0242644
0.0242741
0.0242401
0.024239
0.0242389
0.0242324
0.0242423
0.0242742
0.0242372
0.0242446
0.0242787
0.0242761
0.0242404
0.0242392
0.0242611
0.0242161
0.0242725
0.0242162
0.0242609
0.0242525
0.0242291
0.0242381
0.0242344
0.0242367
0.0242279
0.0242181
0.0242385
0.0242723
0.0242608
0.0242237
0.0242385
0.0242334
0.0242383
0.0242643
0.0242159
0.0242756
0.0242409
0.024233
0.024216
0.0242636
0.0242383
0.0242516
0.0242384
0.0242728
0.0242394
0.0242392
0.0242434
0.0242436
0.0242564
0.0242477
0.0242381
0.0242674
0.0242412
0.0242384
0.0242385
0.0242368
0.0242631
0.0242629
0.0242413
0.0242475
0.0242669
0.0242792
0.0242689
0.0242631
0.0242389
0.0242631
0.0242632
0.0242674
0.024263
0.0242269
0.0242613
0.024269
0.0242362
0.0242611
0.0242326
0.0242269
0.02424
0.0242236
0.0242388
0.0242674
0.0242386
0.0242387
0.0242635
0.0242345
0.0242694
0.0242344
0.0242323
0.0242267
0.0242385
0.0242344
0.0242716
0.0242611
0.0242673
0.0242384
0.0242409
0.0242406
0.0242335
0.0242382
0.0242358
0.0242381
0.0242505
0.0242596
0.0242335
0.0242673
0.0242331
0.0242356
0.0242647
0.0242299
0.024238
0.0242294
0.0242374
0.0242392
0.024233
0.0242562
0.0242369
0.024259
0.0242324
0.0242368
0.0242368
0.0242375
0.0242373
0.0242372
0.0242373
0.024238
0.0242289
0.024229
0.0242288
0.0242288
0.0242241
0.024224
0.0242566
0.0242378
0.0242396
0.0242479
0.0242284
0.0242282
0.0242394
0.0242594
0.0242398
0.0242385
0.024256
0.0242298
0.0242563
0.0242329
0.02424
0.0242558
0.0242588
0.0242725
0.0242719
0.0242331
0.0242737
0.0242419
0.0242591
0.0242508
0.0242399
0.024237
0.0242129
0.0242371
0.0242741
0.024259
0.0242396
0.02424
0.0242597
0.024237
0.0242514
0.024213
0.0242589
0.0242367
0.0242347
0.0242406
0.0242286
0.0242347
0.0242238
0.0242413
0.0242779
0.0242801
0.0242254
0.0242457
0.02424
0.0242562
0.0242297
0.0242363
0.024259
0.0242361
0.0242545
0.0242389
0.0242544
0.0242593
0.0242083
0.0242263
0.0242282
0.0242283
0.024238
0.024254
0.0242185
0.024235
0.0242473
0.0242538
0.0242557
0.0242255
0.024256
0.024227
0.0242551
0.0242805
0.0242541
0.0242731
0.0242322
0.024256
0.0242083
0.024255
0.0242335
0.0242567
0.0242341
0.0242552
0.0242429
0.0242829
0.024244
0.0242562
0.0242257
0.0242564
0.0242472
0.0242342
0.024238
0.0242551
0.0242541
0.0242515
0.0242323
0.0242541
0.02424
0.0242428
0.0242239
0.0242541
0.0242518
0.0242464
0.0242512
0.0242547
0.024251
0.0242305
0.0242402
0.0242516
0.0242562
0.0242385
0.0242384
0.0242544
0.024224
0.0242957
0.024243
0.0242724
0.0242461
0.0243268
0.0243268
0.0243264
0.0243265
0.0243263
0.024327
0.0243268
0.024232
0.0242201
0.0242411
0.0242475
0.0242509
0.0242512
0.0242389
0.0242516
0.0242519
0.02422
0.0242512
0.0242295
0.0242613
0.0242298
0.0242437
0.0242476
0.0242515
0.0242253
0.0242431
0.0242472
0.024243
0.0242471
0.0242517
0.0242602
0.0242476
0.0242436
0.0242294
0.0242503
0.0242522
0.0242506
0.024248
0.0242438
0.0242388
0.0242506
0.0242389
0.0242442
0.0242478
0.0242399
0.0242441
0.0242513
0.0242342
0.0242467
0.0242207
0.0242804
0.024232
0.0242305
0.0242437
0.0242465
0.0242357
0.024295
0.0242437
0.0242468
0.0242825
0.0242087
0.0242085
0.024243
0.0242509
0.0242461
0.0242503
0.0241994
0.0241994
0.0242398
0.0242398
0.0242401
0.0242952
0.0242518
0.0242333
0.0242479
0.0242484
0.0242479
0.0242961
0.0242345
0.0242512
0.0242433
0.0242432
0.0242485
0.0242473
0.0242485
0.024248
0.0242859
0.024273
0.0242473
0.0242431
0.0242466
0.0242487
0.024247
0.0242463
0.0242466
0.0242804
0.0242284
0.0242506
0.0242358
0.0242342
0.0242808
0.0242435
0.024244
0.0242239
0.024209
0.024209
0.0242263
0.024252
0.0242434
0.0242814
0.0242102
0.0242008
0.0242008
0.0242967
0.0242169
0.0242141
0.024244
0.0242273
0.0242412
0.024238
0.024234
0.0242326
0.02424
0.0242952
0.0242426
0.0242363
0.0242335
0.0242893
0.0242161
0.0242836
0.0242337
0.0242379
0.0242554
0.0242416
0.0242403
0.0242233
0.0242395
0.0242233
0.0242432
0.0242334
0.0242151
0.0242147
0.0242813
0.0242372
0.0242989
0.0242979
0.0243002
0.0242346
0.0242959
0.0243014
0.0242487
0.0242996
0.0242208
0.0242209
0.0242987
0.0242463
0.0242857
0.0242993
0.0242868
0.0242995
0.0242868
0.0242166
0.0242834
0.0242957
0.0242988
0.0242406
0.0242312
0.0242878
0.0242404
0.024301
0.0242385
0.0242459
0.0242999
0.0242886
0.0243008
0.0242967
0.0242442
0.0242198
0.0242018
0.0242026
0.0242374
0.0242019
0.024202
0.0242023
0.024207
0.0242823
0.0242155
0.0242259
0.0242197
0.0242382
0.0242057
0.0242058
0.0242187
0.0242973
0.0242465
0.0242967
0.0242846
0.024284
0.0242109
0.024211
0.0242115
0.0242113
0.0242109
0.0242029
0.0242114
0.0242057
0.0242017
0.0242107
0.0242107
0.0242015
0.0242027
0.0242055
0.0242118
SCALARS rr_(T) float
LOOKUP_TABLE default
0.170609
0.170635
0.170632
0.170634
0.170646
0.170632
0.170609
0.170634
0.17063
0.170635
0.170608
0.170634
0.170634
0.170636
0.170641
0.170633
0.170637
0.170634
0.170629
0.170632
0.170632
0.17066
0.170631
0.170632
0.170632
0.170634
0.170613
0.170633
0.170621
0.170651
0.170634
0.170621
0.170613
0.170649
0.17065
0.170649
0.170652
0.17065
0.170634
0.170613
0.170621
0.170652
0.170652
0.170634
0.170615
0.170622
0.170629
0.170631
0.170633
0.170619
0.17062
0.170624
0.170645
0.170624
0.170645
0.170616
0.17065
0.170624
0.17065
0.170632
0.170637
0.17064
0.170615
0.17064
0.17064
0.170637
0.170637
0.170634
0.170631
0.170635
0.170645
0.170645
0.170621
0.170639
0.170633
0.170611
0.170642
0.170637
0.170634
0.170624
0.170619
0.170647
0.170638
0.170618
0.170622
0.170615
0.170633
0.170638
0.170615
0.170659
0.170624
0.170659
0.170643
0.170637
0.170624
0.17062
0.170619
0.170635
0.170642
0.170633
0.170627
0.170623
0.170618
0.170634
0.170635
0.170635
0.170639
0.170633
0.170618
0.170635
0.170632
0.170616
0.170617
0.170634
0.170634
0.170624
0.17065
0.170619
0.17065
0.170624
0.170628
0.170641
0.170635
0.170638
0.170636
0.170642
0.170649
0.170635
0.170619
0.170624
0.170645
0.170635
0.170638
0.170635
0.170623
0.17065
0.170618
0.170634
0.170638
0.17065
0.170623
0.170636
0.170629
0.170635
0.170619
0.170634
0.170635
0.170633
0.170632
0.170626
0.170631
0.170635
0.170621
0.170634
0.170635
0.170635
0.170636
0.170624
0.170624
0.170633
0.170631
0.170621
0.170616
0.17062
0.170623
0.170635
0.170624
0.170624
0.170621
0.170624
0.170643
0.170624
0.17062
0.170636
0.170624
0.170639
0.170643
0.170635
0.170645
0.170635
0.170621
0.170635
0.170635
0.170623
0.170638
0.17062
0.170638
0.170639
0.170643
0.170635
0.170638
0.17062
0.170624
0.170621
0.170635
0.170634
0.170634
0.170638
0.170635
0.170637
0.170635
0.170629
0.170625
0.170638
0.170621
0.170638
0.170637
0.170623
0.170641
0.170635
0.170641
0.170636
0.170635
0.170638
0.170626
0.170637
0.170625
0.170639
0.170635
0.170635
0.170635
0.170635
0.170635
0.170635
0.170636
0.170641
0.170641
0.170641
0.170641
0.170645
0.170645
0.170626
0.170635
0.170633
0.17063
0.170641
0.170642
0.170634
0.170625
0.170633
0.170635
0.170627
0.170641
0.170626
0.170639
0.170633
0.170627
0.170625
0.170619
0.170619
0.170638
0.170619
0.170633
0.170625
0.170629
0.170633
0.170635
0.170652
0.170635
0.170619
0.170625
0.170633
0.170635
0.170625
0.170635
0.170629
0.170652
0.170625
0.170636
0.170637
0.170634
0.170641
0.170638
0.170645
0.170634
0.170616
0.170615
0.170644
0.170631
0.170635
0.170627
0.170641
0.170636
0.170625
0.170637
0.170627
0.170635
0.170627
0.170625
0.170656
0.170643
0.170641
0.170641
0.170635
0.170628
0.170649
0.170637
0.170631
0.170628
0.170627
0.170644
0.170627
0.170643
0.170627
0.170615
0.170628
0.170619
0.170639
0.170627
0.170656
0.170627
0.170638
0.170626
0.170638
0.170627
0.170633
0.170615
0.170632
0.170626
0.170644
0.170626
0.170631
0.170638
0.170635
0.170627
0.170628
0.170629
0.170639
0.170628
0.170635
0.170633
0.170645
0.170628
0.170629
0.170631
0.170629
0.170627
0.170629
0.170641
0.170634
0.170629
0.170626
0.170636
0.170636
0.170627
0.170645
0.170607
0.170633
0.170619
0.170631
0.170591
0.170591
0.170591
0.170591
0.170591
0.170591
0.170591
0.170639
0.170648
0.170634
0.170631
0.170629
0.170629
0.170635
0.170629
0.170629
0.170648
0.170629
0.170641
0.170624
0.17064
0.170633
0.170631
0.170629
0.170644
0.170633
0.170631
0.170633
0.170631
0.170628
0.170624
0.170631
0.170633
0.170641
0.170629
0.170628
0.170629
0.17063
0.170633
0.170635
0.170629
0.170635
0.170632
0.170631
0.170635
0.170632
0.170629
0.170638
0.170631
0.170647
0.170615
0.170639
0.170641
0.170633
0.170631
0.170637
0.170608
0.170633
0.170631
0.170615
0.170656
0.170656
0.170633
0.170629
0.170631
0.170629
0.170663
0.170663
0.170634
0.170635
0.170635
0.170608
0.170628
0.170638
0.17063
0.17063
0.17063
0.170607
0.170638
0.170629
0.170633
0.170633
0.17063
0.170631
0.17063
0.17063
0.170613
0.170619
0.170631
0.170633
0.170631
0.17063
0.170631
0.170631
0.170631
0.170615
0.170642
0.170629
0.170637
0.170638
0.170615
0.170632
0.170632
0.170645
0.170655
0.170655
0.170643
0.170628
0.170633
0.170615
0.170654
0.170661
0.170661
0.170607
0.17065
0.170652
0.170633
0.170643
0.170634
0.170635
0.170638
0.170639
0.170635
0.170608
0.170633
0.170637
0.170638
0.170611
0.17065
0.170615
0.170638
0.170636
0.170627
0.170633
0.170635
0.170645
0.170635
0.170645
0.170633
0.170639
0.170651
0.170651
0.170615
0.170636
0.170608
0.170609
0.170607
0.170638
0.170608
0.170607
0.17063
0.170608
0.170647
0.170647
0.170608
0.170631
0.170613
0.170608
0.170613
0.170608
0.170613
0.17065
0.170614
0.170608
0.170608
0.170634
0.17064
0.170612
0.170635
0.170607
0.170635
0.170631
0.170608
0.170612
0.170607
0.170607
0.170632
0.170648
0.17066
0.17066
0.170636
0.17066
0.17066
0.17066
0.170657
0.170614
0.170651
0.170644
0.170648
0.170636
0.170658
0.170658
0.170649
0.170606
0.170631
0.170607
0.170615
0.170615
0.170654
0.170653
0.170653
0.170653
0.170654
0.17066
0.170654
0.170658
0.170661
0.170654
0.170654
0.170661
0.17066
0.170658
0.170653
SCALARS rr_tsim float
LOOKUP_TABLE default
360
360
360
360
360
360
360
360
360
360
360
360
360
360
360
360
360
360
360
360
360
360
360
360
360
360
360
360
360
360
360
360
360
360
360
360
360
360
360
360
360
360
360
360
360
360
360
360
360
360
360
360
360
360
360
360
360
360
360
360
360
360
360
360
360
360
360
360
360
360
360
360
360
360
360
360
360
360
360
360
360
360
360
360
360
360
360
360
360
360
360
360
360
360
360
360
360
360
360
360
360
360
360
360
360
360
360
360
360
360
360
360
360
360
360
360
360
360
360
360
360
360
360
360
360
360
360
360
360
360
360
360
360
360
360
360
360
360
360
360
360
360
360
360
360
360
360
360
360
360
360
360
360
360
360
360
360
360
360
360
360
360
360
360
360
360
360
360
360
360
360
360
360
360
360
360
360
360
360
360
360
360
360
360
360
360
360
360
360
360
360
360
360
360
360
360
360
360
360
360
360
360
360
360
360
360
360
360
360
360
360
360
360
360
360
360
360
360
360
360
360
360
360
360
360
360
360
360
360
360
360
360
360
360
360
360
360
360
360
360
360
360
360
360
360
360
360
360
360
360
360
360
360
360
360
360
360
360
360
360
360
360
360
360
360
360
360
360
360
360
360
360
360
360
360
360
360
360
360
360
360
360
360
360
360
360
360
360
360
360
360
360
360
360
360
360
360
360
360
360
360
360
360
360
360
360
360
360
360
360
360
360
360
360
360
360
360
360
360
360
360
360
360
360
360
360
360
360
360
360
360
360
360
360
360
360
360
360
360
360
360
360
360
360
360
360
360
360
360
360
360
360
360
360
360
360
360
360
360
360
360
360
360
360
360
360
360
360
360
360
360
360
360
360
360
360
360
360
360
360
360
360
360
360
360
360
360
360
360
360
360
360
360
360
360
360
360
360
360
360
360
360
360
360
360
360
360
360
360
360
360
360
360
360
360
360
360
360
360
360
360
360
360
360
360
360
360
360
360
360
360
360
360
360
360
360
360
360
360
360
360
360
360
360
360
360
360
360
360
360
360
360
360
360
360
360
360
360
360
360
360
360
360
360
360
360
360
360
360
360
360
360
360
360
360
360
360
360
360
360
360
360
360
360
360
360
360
360
360
360
360
360
360
360
360
360
360
360
360
360
360
360
360
360
360
360
360
360
360
360
360
360
360
360
360
360
360
360
360
360
360
360
360
360
360
360
360
360
360
360
360
360
360
360
360
360
360
360
360
360
360
360
360
360
360
360
360
360
360
360
360
360
360
360
360
360
360
360
360
360
360
360
360
SCALARS rr_Vext float
LOOKUP_TABLE default
0.181359
0.449122
0.356048
0.468108
0.250492
0.377827
0.179274
0.465088
0.395106
0.504565
0.165389
0.466508
0.409825
0.435012
0.516134
0.424864
0.369043
0.414183
0.365531
0.360526
0.405108
0.0765106
0.415069
0.383014
0.347105
0.403471
0.15501
0.352834
0.267413
0.339246
0.361969
0.276485
0.17152
0.252901
0.249247
0.253452
0.330126
0.24949
0.361539
0.192836
0.224721
0.29105
0.291059
0.397271
0.216885
0.24412
0.344612
0.350183
0.330079
0.30376
0.312853
0.245236
0.401517
0.315206
0.369414
0.157753
0.266178
0.317516
0.26615
0.393184
0.470928
0.464871
0.153275
0.327641
0.445313
0.417373
0.455654
0.391904
0.357985
0.515555
0.435554
0.43079
0.277654
0.338744
0.353971
0.176426
0.372675
0.413476
0.395169
0.271132
0.24049
0.283506
0.527531
0.24025
0.32776
0.119291
0.407579
0.344609
0.229706
0.0374828
0.273092
0.0407607
0.316357
0.299312
0.258659
0.232983
0.220908
0.442929
0.37291
0.351855
0.293535
0.277769
0.230478
0.418575
0.426137
0.383831
0.340626
0.340847
0.244628
0.512517
0.326026
0.164038
0.220056
0.457877
0.429717
0.304481
0.30863
0.183508
0.320034
0.303365
0.266985
0.502648
0.511809
0.442039
0.484524
0.384951
0.220815
0.478209
0.200078
0.262278
0.227503
0.456394
0.449022
0.448248
0.288937
0.187537
0.190638
0.327439
0.404467
0.187459
0.241541
0.387289
0.287969
0.472757
0.223275
0.385188
0.349731
0.336127
0.214789
0.269545
0.304298
0.440625
0.248026
0.39741
0.461988
0.469242
0.307855
0.249007
0.247656
0.401135
0.333852
0.246117
0.160076
0.239704
0.240466
0.430954
0.252348
0.2551
0.274619
0.245938
0.386343
0.258183
0.226058
0.297713
0.272811
0.340305
0.382117
0.361132
0.313976
0.360844
0.266566
0.418245
0.448851
0.241614
0.442299
0.239439
0.436794
0.402736
0.378965
0.379413
0.446226
0.200774
0.266927
0.246016
0.447408
0.439019
0.407198
0.447893
0.452951
0.381864
0.466568
0.307715
0.274109
0.51273
0.285547
0.465952
0.36996
0.226654
0.286341
0.461723
0.389033
0.350307
0.450054
0.445254
0.278858
0.28422
0.267542
0.395452
0.433418
0.49809
0.478087
0.520369
0.471556
0.515285
0.432054
0.4572
0.460649
0.434353
0.456356
0.422917
0.416634
0.28241
0.389409
0.454293
0.312119
0.470271
0.432155
0.492658
0.288245
0.468275
0.448676
0.284499
0.406912
0.282468
0.455237
0.411288
0.296254
0.277677
0.235552
0.271096
0.455772
0.1975
0.347019
0.276527
0.313902
0.46867
0.455547
0.147788
0.457103
0.23643
0.261764
0.466268
0.379026
0.264584
0.52218
0.29123
0.147779
0.267723
0.406397
0.50892
0.382688
0.457753
0.425154
0.226614
0.216731
0.175978
0.201428
0.308134
0.229075
0.37198
0.227524
0.406391
0.287621
0.268101
0.323952
0.293521
0.39852
0.281486
0.287595
0.13637
0.303571
0.437809
0.438057
0.391523
0.281115
0.192358
0.545876
0.360487
0.298316
0.27429
0.284975
0.282728
0.358842
0.27809
0.192059
0.274791
0.183495
0.351066
0.279576
0.127091
0.263721
0.321336
0.279314
0.443668
0.290709
0.381466
0.138314
0.305661
0.287013
0.261623
0.269317
0.32199
0.308721
0.321045
0.266563
0.271163
0.293858
0.4036
0.276094
0.399021
0.358786
0.290796
0.286473
0.290122
0.323371
0.289911
0.270116
0.308528
0.333028
0.387865
0.290168
0.286352
0.425141
0.419247
0.276211
0.290834
0.117368
0.342062
0.227677
0.319679
0.126304
0.131123
0.117233
0.119129
0.126411
0.133076
0.137186
0.365817
0.275202
0.269662
0.305533
0.296206
0.292406
0.314708
0.285992
0.292386
0.310822
0.291313
0.368786
0.261062
0.378831
0.289102
0.277577
0.291595
0.322764
0.328992
0.304694
0.351047
0.326029
0.300388
0.213974
0.303858
0.298861
0.328279
0.305307
0.288517
0.275034
0.304062
0.31909
0.436159
0.283305
0.423999
0.438657
0.298863
0.422861
0.322473
0.255676
0.356792
0.307316
0.229504
0.18527
0.353347
0.377137
0.313431
0.259541
0.317011
0.138204
0.309862
0.289511
0.140569
0.0597485
0.0653752
0.26865
0.283293
0.331355
0.316585
0.0311308
0.0325286
0.318178
0.32154
0.30424
0.103723
0.264725
0.315902
0.31564
0.272074
0.24028
0.107863
0.464464
0.284944
0.352158
0.35767
0.255161
0.323443
0.249474
0.275478
0.129739
0.19938
0.323803
0.327748
0.280323
0.293561
0.303656
0.320503
0.306407
0.14396
0.275777
0.301351
0.290882
0.437485
0.143857
0.23373
0.24057
0.234521
0.155624
0.155628
0.267698
0.208506
0.301871
0.153855
0.185525
0.0614166
0.0614141
0.112309
0.199632
0.134971
0.256999
0.284536
0.297805
0.336998
0.307416
0.28523
0.222214
0.127171
0.278048
0.290578
0.282436
0.144129
0.147644
0.104628
0.281946
0.285969
0.224179
0.258248
0.238711
0.22379
0.292909
0.223756
0.257202
0.251385
0.158046
0.19524
0.165307
0.310643
0.112706
0.118918
0.115939
0.294531
0.10769
0.104732
0.200915
0.0979318
0.243153
0.243508
0.100659
0.255443
0.113722
0.110988
0.127154
0.105858
0.105723
0.174204
0.12624
0.112774
0.106277
0.235808
0.272657
0.118743
0.260314
0.0960764
0.264786
0.208171
0.100551
0.0864347
0.0948693
0.12646
0.22555
0.192178
0.0824423
0.091407
0.253855
0.0775857
0.0775825
0.0878715
0.0979618
0.0995846
0.127333
0.207531
0.193793
0.253766
0.0775241
0.0775208
0.229251
0.0843463
0.178712
0.0765187
0.0783411
0.103271
0.198595
0.205595
0.218906
0.200659
0.198579
0.0438923
0.32038
0.0557536
0.0543417
0.259007
0.257237
0.0563344
0.0390571
0.0548043
0.238559
SCALARS rr_Vli float
LOOKUP_TABLE default
0.396486
0.903296
0.721402
0.942901
0.493002
0.765663
0.392034
0.937668
0.806265
1.01511
0.359835
0.940541
0.8277
0.874152
1.02412
0.859727
0.739393
0.835913
0.748795
0.732052
0.823479
0.146196
0.843736
0.777624
0.704886
0.813138
0.333348
0.714255
0.560607
0.6598
0.731224
0.579527
0.369271
0.494392
0.485904
0.495506
0.641456
0.486895
0.73048
0.415064
0.471209
0.565329
0.565389
0.802512
0.463322
0.511146
0.70466
0.71357
0.66868
0.640141
0.657313
0.509708
0.79128
0.654953
0.728498
0.336093
0.518807
0.659755
0.51879
0.798044
0.943862
0.925028
0.327839
0.652216
0.886008
0.836194
0.912998
0.789772
0.727288
1.0367
0.858505
0.849151
0.582209
0.676851
0.716967
0.381182
0.738158
0.828437
0.79642
0.562479
0.507622
0.556447
1.0535
0.508331
0.685383
0.254579
0.825074
0.689485
0.49066
0.0719434
0.567527
0.0782461
0.626349
0.600258
0.537107
0.489901
0.466216
0.891212
0.738706
0.711147
0.604216
0.579672
0.487749
0.844108
0.858079
0.772712
0.679545
0.689378
0.517758
1.02965
0.661676
0.349478
0.467058
0.923819
0.865434
0.63249
0.601612
0.38741
0.624001
0.62999
0.547958
0.99831
1.02947
0.884276
0.972854
0.763251
0.431749
0.962234
0.422252
0.544645
0.448452
0.918478
0.897108
0.901821
0.602898
0.365537
0.404181
0.66093
0.80773
0.365414
0.503537
0.778932
0.59024
0.951058
0.47153
0.776063
0.704321
0.680953
0.435246
0.556267
0.620246
0.886305
0.519981
0.802495
0.92944
0.94426
0.617852
0.518656
0.515712
0.810195
0.680205
0.515658
0.341238
0.503637
0.500927
0.867513
0.525644
0.531442
0.575695
0.512235
0.764766
0.536472
0.475014
0.597024
0.566757
0.679099
0.75645
0.728157
0.61851
0.726371
0.558759
0.841634
0.903302
0.503621
0.884781
0.503408
0.873805
0.803282
0.749914
0.763388
0.89254
0.423343
0.554569
0.51569
0.900208
0.886298
0.82171
0.894902
0.911194
0.765269
0.938415
0.629673
0.568291
1.02453
0.59847
0.93055
0.741276
0.47324
0.569197
0.928572
0.772726
0.703604
0.906434
0.889136
0.575328
0.57047
0.554199
0.788781
0.870376
1.00028
0.961014
1.04558
0.94745
1.03539
0.86871
0.907696
0.914768
0.862343
0.90593
0.833929
0.821515
0.583003
0.782793
0.915905
0.636237
0.93312
0.857208
0.993022
0.597475
0.944367
0.902753
0.586735
0.8088
0.582773
0.908854
0.829724
0.610879
0.57498
0.497305
0.572061
0.9101
0.417614
0.70148
0.572845
0.642711
0.945255
0.914965
0.286927
0.918292
0.500196
0.542258
0.940099
0.764199
0.548648
1.04887
0.596675
0.286927
0.554499
0.815976
1.01856
0.772232
0.908465
0.850822
0.4466
0.437752
0.374434
0.429883
0.608683
0.465559
0.749991
0.469384
0.807668
0.576816
0.555339
0.649546
0.603994
0.802276
0.579178
0.596019
0.263019
0.600442
0.868509
0.869128
0.787207
0.578062
0.376387
1.09285
0.734299
0.613258
0.565366
0.562957
0.583123
0.710459
0.572676
0.410196
0.565166
0.387691
0.700125
0.576598
0.245149
0.543076
0.642113
0.576619
0.887239
0.598797
0.772172
0.296222
0.619802
0.592061
0.51704
0.555816
0.655878
0.617313
0.645548
0.549009
0.557647
0.602196
0.804985
0.56787
0.804505
0.726241
0.573154
0.589127
0.594775
0.657842
0.593794
0.555993
0.631806
0.662546
0.782179
0.59465
0.590809
0.855286
0.843306
0.568299
0.573277
0.256088
0.6926
0.480627
0.650102
0.287606
0.29855
0.266803
0.271172
0.287682
0.303056
0.312311
0.729342
0.539723
0.544564
0.622603
0.606499
0.598932
0.633518
0.58613
0.599483
0.609469
0.596711
0.732657
0.542545
0.753106
0.586003
0.565698
0.597464
0.637466
0.666112
0.620591
0.710715
0.663996
0.615741
0.444039
0.619296
0.605571
0.652003
0.624635
0.591867
0.562871
0.620017
0.64672
0.877916
0.579856
0.853547
0.889737
0.609276
0.852427
0.653928
0.52384
0.713542
0.625424
0.450401
0.395665
0.704467
0.750312
0.6352
0.528048
0.635251
0.301236
0.62802
0.589264
0.300912
0.115298
0.126126
0.544003
0.580096
0.673735
0.647661
0.0592774
0.0619388
0.641395
0.648086
0.613481
0.226113
0.542803
0.631011
0.643416
0.555013
0.489877
0.235469
0.929282
0.583732
0.713231
0.724382
0.520582
0.658847
0.508989
0.561646
0.279101
0.421176
0.659631
0.663707
0.570432
0.599123
0.618255
0.651892
0.623522
0.307427
0.547096
0.616831
0.583014
0.8749
0.307367
0.473533
0.487753
0.46224
0.300515
0.300535
0.529553
0.427592
0.611535
0.329005
0.358876
0.117176
0.117176
0.245398
0.389619
0.262494
0.52105
0.563539
0.60141
0.677645
0.614656
0.569069
0.448035
0.27725
0.562545
0.582799
0.564246
0.311556
0.287924
0.224284
0.563451
0.574849
0.461942
0.521746
0.481453
0.440836
0.590093
0.440798
0.520821
0.502146
0.307811
0.380027
0.353393
0.623981
0.246785
0.25998
0.254334
0.589282
0.234981
0.230138
0.410009
0.214644
0.47712
0.477842
0.220334
0.51961
0.244574
0.243122
0.273901
0.231958
0.227739
0.339829
0.270697
0.245996
0.232677
0.475748
0.543001
0.256116
0.525107
0.211011
0.532688
0.423218
0.220454
0.186663
0.208255
0.276319
0.457466
0.376607
0.157552
0.174883
0.509985
0.148307
0.148306
0.168048
0.188628
0.213205
0.248113
0.410273
0.379761
0.51034
0.149004
0.149003
0.448511
0.184461
0.363609
0.167149
0.16815
0.221553
0.384549
0.398195
0.424214
0.388778
0.384539
0.0840102
0.620731
0.107163
0.103829
0.501444
0.497965
0.107596
0.0747329
0.105301
0.462542
SCALARS rr_S_ext' float
LOOKUP_TABLE default
-0.000262546
-0.00059967
-0.000478815
-0.000625935
-0.000327496
-0.00050819
-0.000259595
-0.000622448
-0.000535029
-0.000673898
-0.000238309
-0.000624355
-0.00054942
-0.00058034
-0.000680149
-0.000570647
-0.000490916
-0.000554882
-0.000496834
-0.000485853
-0.000546515
-9.71965e-05
-0.000559957
-0.0005161
-0.000467821
-0.000539786
-0.000220851
-0.000474084
-0.00037171
-0.000438443
-0.000485377
-0.000384256
-0.000244642
-0.00032848
-0.000322867
-0.00032922
-0.000426264
-0.000323517
-0.000484881
-0.000274982
-0.000312432
-0.00037568
-0.000375718
-0.000532698
-0.000307024
-0.000338928
-0.000467576
-0.000473538
-0.000443824
-0.000424376
-0.000435801
-0.00033805
-0.000525617
-0.000434384
-0.000483904
-0.000222736
-0.000344733
-0.000437569
-0.000344721
-0.000529657
-0.000626665
-0.000614291
-0.000217239
-0.000433118
-0.000588381
-0.000555189
-0.000606178
-0.000524277
-0.000482683
-0.00068824
-0.00057027
-0.000564055
-0.00038603
-0.000449428
-0.000475876
-0.000252504
-0.00049026
-0.000550038
-0.000528688
-0.000373069
-0.000336508
-0.000369671
-0.000699534
-0.000336953
-0.000454478
-0.000168705
-0.000547639
-0.0004578
-0.000325141
-4.78247e-05
-0.000376399
-5.20142e-05
-0.000416005
-0.000398528
-0.000356233
-0.000324797
-0.000309061
-0.000591642
-0.000490623
-0.000472043
-0.000400847
-0.000384405
-0.000323307
-0.000560335
-0.000569634
-0.000512967
-0.000451237
-0.000457584
-0.000343198
-0.00068357
-0.000439151
-0.000231605
-0.000309564
-0.000613239
-0.000574514
-0.00041949
-0.000399753
-0.000256818
-0.000414627
-0.000417835
-0.000363556
-0.00066299
-0.000683432
-0.000587138
-0.000645878
-0.00050691
-0.00028686
-0.00063879
-0.000279917
-0.000361231
-0.000297887
-0.000609738
-0.000595678
-0.000598685
-0.000399809
-0.000242888
-0.0002679
-0.000438728
-0.000536339
-0.000242806
-0.000333928
-0.000517112
-0.000391625
-0.000631375
-0.000312578
-0.000515179
-0.000467561
-0.00045197
-0.000288884
-0.000369008
-0.000411602
-0.000588388
-0.000344772
-0.000532692
-0.000617023
-0.000626855
-0.0004102
-0.000343963
-0.000342014
-0.000537799
-0.000451398
-0.000341912
-0.00022614
-0.000333913
-0.000332204
-0.000575901
-0.000348597
-0.000352441
-0.000381714
-0.000339705
-0.000507941
-0.000355804
-0.000314934
-0.000396382
-0.000375892
-0.000450937
-0.000502417
-0.000483368
-0.000410859
-0.000482205
-0.000370486
-0.000558728
-0.000599665
-0.000333985
-0.000587474
-0.000333754
-0.000580185
-0.000533406
-0.000498081
-0.000506785
-0.000592628
-0.000280648
-0.000367808
-0.000341928
-0.000597613
-0.000588323
-0.000545455
-0.000594213
-0.000604909
-0.000508095
-0.000622983
-0.000417809
-0.000376932
-0.000680287
-0.000396818
-0.000617891
-0.000492167
-0.00031382
-0.000378003
-0.000616451
-0.000513178
-0.000467122
-0.00060173
-0.000590393
-0.000381656
-0.000378742
-0.000367595
-0.000523776
-0.000577839
-0.000664083
-0.000637995
-0.000694147
-0.000628999
-0.000687378
-0.000576717
-0.000602818
-0.000607511
-0.000572698
-0.000601648
-0.000553938
-0.000545693
-0.00038674
-0.000519681
-0.000607996
-0.000422214
-0.000619713
-0.000569304
-0.000659192
-0.000396291
-0.000626884
-0.000599304
-0.000389228
-0.000537123
-0.000386595
-0.000603491
-0.000550776
-0.000405247
-0.000381383
-0.000329666
-0.000379227
-0.000604315
-0.000276826
-0.000465624
-0.000379962
-0.000426453
-0.000627471
-0.00060744
-0.000190675
-0.000609645
-0.000331563
-0.000359673
-0.000624054
-0.000507294
-0.000363901
-0.000696339
-0.0003959
-0.000190675
-0.000367796
-0.000541726
-0.000676288
-0.000512613
-0.000603335
-0.00056492
-0.00029666
-0.000290575
-0.000248154
-0.000284875
-0.000404298
-0.000308977
-0.000497862
-0.000311377
-0.000536373
-0.000382964
-0.000368351
-0.000431255
-0.000400705
-0.000532594
-0.000384242
-0.000395328
-0.00017482
-0.000398809
-0.000576807
-0.000577216
-0.000522609
-0.000383509
-0.00025007
-0.000725609
-0.000487299
-0.000406862
-0.000375059
-0.000373926
-0.000386831
-0.000471869
-0.000379919
-0.000271822
-0.000374951
-0.000256997
-0.000464907
-0.000382503
-0.000162941
-0.000360282
-0.00042636
-0.000382505
-0.00058911
-0.000397245
-0.000512527
-0.000196281
-0.00041137
-0.000392758
-0.000343422
-0.000368709
-0.000435257
-0.000409887
-0.000428563
-0.000364217
-0.000369963
-0.00039956
-0.000534537
-0.000376744
-0.00053405
-0.000482041
-0.000380724
-0.000390849
-0.000394632
-0.000436577
-0.000393992
-0.000368857
-0.000419216
-0.000439985
-0.000519226
-0.000394554
-0.000391925
-0.000567797
-0.000559846
-0.000377025
-0.000380805
-0.000169584
-0.000459708
-0.000318612
-0.000431445
-0.000190187
-0.000197425
-0.000176433
-0.000179321
-0.00019024
-0.000200404
-0.000206526
-0.000484313
-0.000358567
-0.000361477
-0.00041317
-0.000402425
-0.000397401
-0.000420565
-0.0003889
-0.000397754
-0.000404905
-0.000395927
-0.000486565
-0.000359829
-0.000500133
-0.000388942
-0.000375406
-0.000396423
-0.000423419
-0.000442127
-0.000411841
-0.000471733
-0.000440646
-0.000408544
-0.00029451
-0.000410973
-0.000401935
-0.000433005
-0.000414469
-0.000392695
-0.000373482
-0.000411445
-0.000429243
-0.000582811
-0.000384752
-0.000566631
-0.000590525
-0.000404321
-0.000565865
-0.00043402
-0.000347573
-0.000473778
-0.000415058
-0.00029922
-0.000262193
-0.000467795
-0.000498269
-0.000421598
-0.000350438
-0.000421771
-0.000199489
-0.000416831
-0.00039106
-0.000199391
-7.66337e-05
-8.38311e-05
-0.000361077
-0.000384906
-0.000447132
-0.000429748
-3.94138e-05
-4.11834e-05
-0.000425775
-0.00043022
-0.000407242
-0.00014974
-0.000360146
-0.000418994
-0.000426978
-0.000368305
-0.000325086
-0.000155928
-0.000617018
-0.000387313
-0.000473398
-0.000480799
-0.000345455
-0.000437227
-0.000337761
-0.000372713
-0.000184909
-0.000279196
-0.000437746
-0.000440529
-0.000378565
-0.000397571
-0.000410295
-0.000432631
-0.000413797
-0.000203722
-0.000363346
-0.000409284
-0.000387086
-0.000580918
-0.000203679
-0.000314298
-0.000323729
-0.000307048
-0.000199735
-0.000199748
-0.000351723
-0.000283703
-0.000405895
-0.000218012
-0.000238512
-7.79065e-05
-7.79061e-05
-0.000162498
-0.000258881
-0.00017443
-0.00034583
-0.000374284
-0.000399211
-0.000449871
-0.000408122
-0.000377877
-0.000297417
-0.000183604
-0.000373394
-0.000386936
-0.00037466
-0.00020638
-0.000191314
-0.00014861
-0.000374128
-0.000381632
-0.00030645
-0.000346327
-0.000319597
-0.000292834
-0.000391727
-0.000292808
-0.00034569
-0.000333428
-0.000204535
-0.000252526
-0.000234175
-0.000414258
-0.000163409
-0.000172154
-0.000168396
-0.000391268
-0.000155608
-0.000152368
-0.000272077
-0.000142122
-0.000316973
-0.000317452
-0.000145895
-0.000344839
-0.000162036
-0.000160981
-0.000181457
-0.000153587
-0.000150875
-0.000225801
-0.000179359
-0.000162904
-0.000154067
-0.000315808
-0.000360586
-0.000169667
-0.000348574
-0.000139707
-0.000353634
-0.000280874
-0.000145968
-0.000123652
-0.000137884
-0.000182973
-0.000303624
-0.000250206
-0.000104746
-0.000116264
-0.000338576
-9.8599e-05
-9.8598e-05
-0.000111722
-0.00012538
-0.000141273
-0.000164865
-0.000272504
-0.000252301
-0.000338801
-9.90474e-05
-9.90466e-05
-0.000297991
-0.000122143
-0.000241308
-0.000110684
-0.000111411
-0.000146796
-0.000255567
-0.000264634
-0.000281922
-0.000258374
-0.00025556
-5.58505e-05
-0.000412525
-7.12344e-05
-6.90293e-05
-0.000333256
-0.000330945
-7.15349e-05
-4.96833e-05
-6.99971e-05
-0.00030739
SCALARS rr_P_ext' float
LOOKUP_TABLE default
0.000182651
0.000421846
0.00033651
0.000440237
0.000231011
0.000357147
0.000180591
0.000437733
0.000375672
0.000474043
0.000165901
0.000439073
0.00038629
0.000408292
0.00047928
0.000401116
0.00034551
0.000390166
0.000348679
0.000341362
0.000383928
6.88104e-05
0.000393372
0.000362619
0.000328688
0.00037962
0.000153993
0.000333223
0.000260074
0.000309728
0.000341252
0.000268858
0.000170556
0.0002319
0.000228015
0.00023242
0.000301159
0.000228443
0.000340896
0.000191714
0.000218593
0.000265432
0.000265457
0.000374523
0.000214274
0.000237176
0.000328223
0.000332557
0.000311925
0.000296716
0.000304827
0.000236795
0.000370702
0.000304285
0.000341255
0.000155505
0.000243463
0.000306516
0.000243452
0.000372158
0.000441031
0.000432716
0.000151586
0.00030508
0.00041447
0.000390746
0.000426627
0.000368716
0.000339111
0.000484164
0.000402185
0.000397801
0.000270085
0.000316418
0.000334458
0.000175952
0.000345547
0.000387118
0.000371814
0.000261389
0.00023523
0.000260849
0.000492539
0.000235465
0.000318091
0.000117756
0.000384924
0.000322258
0.000226921
3.38393e-05
0.000263662
3.6803e-05
0.000293226
0.000280452
0.000249561
0.00022716
0.000216048
0.000416176
0.000345798
0.000331856
0.000281139
0.00026912
0.000225923
0.00039404
0.000400656
0.000360809
0.000317755
0.000321662
0.000239819
0.000480936
0.000308569
0.000161697
0.000216235
0.000431217
0.000404079
0.000293863
0.000282317
0.000179519
0.000292812
0.000292715
0.000255082
0.000467132
0.000480764
0.000413312
0.00045445
0.000357237
0.000202512
0.000449339
0.000195675
0.000253062
0.000210085
0.000428895
0.000419392
0.000421136
0.000279909
0.000171536
0.000187159
0.000308486
0.000377635
0.000171476
0.000233814
0.000363768
0.000274823
0.000444135
0.000218486
0.000362328
0.000328856
0.000317649
0.000203024
0.000258721
0.00028905
0.000413904
0.000241225
0.000374537
0.000434036
0.00044094
0.000288638
0.000240868
0.00023951
0.000378117
0.000317014
0.000239244
0.000157869
0.000233559
0.000232629
0.00040508
0.000244111
0.000246798
0.000267075
0.000237888
0.000358036
0.00024924
0.000220282
0.000278943
0.000263318
0.000317533
0.000354139
0.000339921
0.000289781
0.000339176
0.000259222
0.000393017
0.000421809
0.000233858
0.000413549
0.000233428
0.000408416
0.000375627
0.000351101
0.000356487
0.000417183
0.000196209
0.000257653
0.00023924
0.000420377
0.000413664
0.000383544
0.000418357
0.00042552
0.000357588
0.000438244
0.000293261
0.000264118
0.000478952
0.00027765
0.000435054
0.000346387
0.000219689
0.000266305
0.000433655
0.000361573
0.000328659
0.000423219
0.000415697
0.000267598
0.0002665
0.000257604
0.000368844
0.000406569
0.000467248
0.000448839
0.000488368
0.000442536
0.000483604
0.000405714
0.000424757
0.00042805
0.000403534
0.000423938
0.000390649
0.000384835
0.000271142
0.0003656
0.000427572
0.000296499
0.000436693
0.000401187
0.000463589
0.00027769
0.000440838
0.000421567
0.000272921
0.000378411
0.000271062
0.000424932
0.000387301
0.000284159
0.00026728
0.00023044
0.000265102
0.000425501
0.000193464
0.000327337
0.000266269
0.000299305
0.000441246
0.000427387
0.000134727
0.000428926
0.000231701
0.000252051
0.000438862
0.000356749
0.000254981
0.000489931
0.000277838
0.000134726
0.000257749
0.000381168
0.000476039
0.000360451
0.000425141
0.000397652
0.000209225
0.000204298
0.000173281
0.000198842
0.000285055
0.000217063
0.000350117
0.000218324
0.000377888
0.000269499
0.000258135
0.00030349
0.00028105
0.000374615
0.000269507
0.000277022
0.000123624
0.00028114
0.000406469
0.00040675
0.00036765
0.000269014
0.000176524
0.000510737
0.000342238
0.000285406
0.000263005
0.00026364
0.000271238
0.000332602
0.000266445
0.000189711
0.000263004
0.000179626
0.000327396
0.000268205
0.000115222
0.000252674
0.000300175
0.000268172
0.000414718
0.000278588
0.000360247
0.000136938
0.000289081
0.000275388
0.00024212
0.00025851
0.000305688
0.000288553
0.000301487
0.000255428
0.000259509
0.000280399
0.000376425
0.000264261
0.000375566
0.00033882
0.000268508
0.00027416
0.000276926
0.000306666
0.00027651
0.000258703
0.00029422
0.00030994
0.000365131
0.000276884
0.000274797
0.00039941
0.000393824
0.000264446
0.000268563
0.000118012
0.00032311
0.000222716
0.000303075
0.000131552
0.00013656
0.000122048
0.000124042
0.0001316
0.000138616
0.000142858
0.000341074
0.000253039
0.000254154
0.000290161
0.00028244
0.0002789
0.000295817
0.000272914
0.000279113
0.000285747
0.000277865
0.000342813
0.000252054
0.000352344
0.000273333
0.000263636
0.000278202
0.000298543
0.000310754
0.000289246
0.000331566
0.000309479
0.000286693
0.000206339
0.000288612
0.000282476
0.000305087
0.000290923
0.000275543
0.000262143
0.000288925
0.000301659
0.000409943
0.00027005
0.000398557
0.000414962
0.00028393
0.000397948
0.000304995
0.000243922
0.000333525
0.000291536
0.000211141
0.000182993
0.000329442
0.000350996
0.000296289
0.000246156
0.000296838
0.000138842
0.000292936
0.000274675
0.000139116
5.4188e-05
5.9279e-05
0.000253783
0.000270142
0.000314101
0.00030165
2.79148e-05
2.91681e-05
0.00029943
0.00030256
0.000286385
0.000104215
0.000252721
0.000295003
0.000299845
0.000258617
0.000228287
0.000108501
0.000434337
0.000271816
0.00033272
0.000337923
0.000242568
0.000307071
0.000237166
0.000261731
0.000128926
0.000195146
0.000307433
0.000309624
0.000265906
0.000279151
0.000288173
0.000303901
0.000290653
0.000142185
0.000256044
0.000287266
0.00027242
0.000408949
0.000142145
0.00022089
0.000227497
0.000216548
0.000141222
0.00014123
0.000247943
0.000199075
0.000285268
0.00015213
0.000168603
5.51642e-05
5.51636e-05
0.000113058
0.000182801
0.000123222
0.000243028
0.000263807
0.000280683
0.000316476
0.000287313
0.000266094
0.000209155
0.000127782
0.000262469
0.000272291
0.000263784
0.000143801
0.000135104
0.000103666
0.000263399
0.000268482
0.000214903
0.000243488
0.000224744
0.000206538
0.000275507
0.000206518
0.000242968
0.000234757
0.000144464
0.000178373
0.000163415
0.000291462
0.000113657
0.000119766
0.000117096
0.000275425
0.000108284
0.000105926
0.000191039
9.88379e-05
0.000223672
0.000224008
0.000101481
0.000242229
0.000112982
0.000111962
0.000126496
0.000106815
0.000105177
0.000159452
0.000125111
0.000113367
0.000107162
0.00022207
0.000253976
0.000118256
0.000245116
9.71307e-05
0.00024876
0.000197311
0.000101508
8.61696e-05
9.58704e-05
0.000127304
0.000213358
0.000176586
7.41538e-05
8.2297e-05
0.00023821
6.98002e-05
6.97992e-05
7.90858e-05
8.86806e-05
9.85656e-05
0.000116438
0.000192114
0.000178066
0.000238336
7.0071e-05
7.00701e-05
0.000210355
8.4971e-05
0.0001695
7.70115e-05
7.7704e-05
0.00010239
0.000180637
0.000187041
0.000199245
0.000182607
0.000180631
3.95315e-05
0.000291556
5.03946e-05
4.88699e-05
0.000235554
0.000233923
5.06459e-05
3.51676e-05
4.95214e-05
0.000217231
SCALARS rr_S' float
LOOKUP_TABLE default
4.46398e-05
0.000103245
8.23517e-05
0.000107744
5.65576e-05
8.74016e-05
4.41362e-05
0.000107132
9.19255e-05
0.000116021
4.05483e-05
0.000107459
9.45387e-05
9.99306e-05
0.000117325
9.81643e-05
8.45673e-05
9.54875e-05
8.53148e-05
8.35361e-05
9.39517e-05
1.68529e-05
9.62617e-05
8.8738e-05
8.04344e-05
9.29085e-05
3.76471e-05
8.15482e-05
6.36105e-05
7.58399e-05
8.35161e-05
6.57591e-05
4.16955e-05
5.67795e-05
5.5831e-05
5.69068e-05
7.37426e-05
5.59353e-05
8.34286e-05
4.68682e-05
5.34645e-05
6.49948e-05
6.50009e-05
9.16588e-05
5.239e-05
5.80114e-05
8.03122e-05
8.13775e-05
7.63352e-05
7.25658e-05
7.45534e-05
5.79251e-05
9.07552e-05
7.44354e-05
8.35453e-05
3.80235e-05
5.96137e-05
7.49808e-05
5.96111e-05
9.10727e-05
0.000107946
0.000105924
3.70628e-05
7.46796e-05
0.000101457
9.56405e-05
0.000104421
9.02401e-05
8.29845e-05
0.000118497
9.84627e-05
9.73893e-05
6.60589e-05
7.7451e-05
8.18502e-05
4.30115e-05
8.45915e-05
9.47525e-05
9.0998e-05
6.39431e-05
5.75272e-05
6.38654e-05
0.00012056
5.75821e-05
7.78045e-05
2.87922e-05
9.42008e-05
7.88789e-05
5.54824e-05
8.28727e-06
6.44977e-05
9.01306e-06
7.17829e-05
6.86433e-05
6.10493e-05
5.55569e-05
5.28365e-05
0.000101858
8.46528e-05
8.12159e-05
6.8784e-05
6.58286e-05
5.52484e-05
9.64365e-05
9.8058e-05
8.83061e-05
7.77791e-05
7.87204e-05
5.86465e-05
0.000117708
7.55115e-05
3.95372e-05
5.28762e-05
0.000105534
9.88957e-05
7.18863e-05
6.91273e-05
4.3903e-05
7.16968e-05
7.16057e-05
6.24115e-05
0.00011435
0.000117665
0.000101165
0.000111226
8.74508e-05
4.95843e-05
0.000109974
4.78542e-05
6.19055e-05
5.14324e-05
0.00010497
0.000102655
0.000103071
6.84679e-05
4.20017e-05
4.57678e-05
7.54982e-05
9.24343e-05
4.19871e-05
5.71934e-05
8.90324e-05
6.72433e-05
0.000108701
5.34324e-05
8.86767e-05
8.04858e-05
7.77361e-05
4.96844e-05
6.32963e-05
7.07306e-05
0.000101301
5.90001e-05
9.16627e-05
0.000106229
0.000107917
7.06464e-05
5.892e-05
5.85881e-05
9.2538e-05
7.75741e-05
5.85163e-05
3.86009e-05
5.71229e-05
5.69044e-05
9.91413e-05
5.97131e-05
6.03705e-05
6.53228e-05
5.81909e-05
8.76489e-05
6.09698e-05
5.38756e-05
6.82742e-05
6.4414e-05
7.77243e-05
8.6695e-05
8.31925e-05
7.09449e-05
8.30118e-05
6.34025e-05
9.61896e-05
0.000103236
5.72042e-05
0.000101224
5.70903e-05
9.99671e-05
9.19458e-05
8.59518e-05
8.7249e-05
0.000102114
4.79857e-05
6.30279e-05
5.8515e-05
0.000102885
0.000101238
9.38669e-05
0.000102402
0.000104144
8.75245e-05
0.000107258
7.17565e-05
6.46115e-05
0.000117233
6.79101e-05
0.000106489
8.47829e-05
5.37368e-05
6.51892e-05
0.000106135
8.85108e-05
8.04409e-05
0.00010358
0.000101751
6.54683e-05
6.52279e-05
6.30191e-05
9.02855e-05
9.95073e-05
0.000114358
0.000109851
0.000119527
0.00010831
0.000118361
9.92982e-05
0.000103977
0.000104783
9.87818e-05
0.000103777
9.56376e-05
9.42142e-05
6.63348e-05
8.94805e-05
0.000104641
7.25538e-05
0.0001069
9.82087e-05
0.000113456
6.79319e-05
0.000107888
0.000103177
6.67713e-05
9.26315e-05
6.63159e-05
0.000104012
9.47846e-05
6.95208e-05
6.53864e-05
5.63558e-05
6.48324e-05
0.000104151
4.7312e-05
8.01097e-05
6.51387e-05
7.32345e-05
0.000107987
0.000104602
3.29901e-05
0.000104979
5.66627e-05
6.16604e-05
0.000107404
8.73111e-05
6.23761e-05
0.00011991
6.79815e-05
3.29898e-05
6.30547e-05
9.32906e-05
0.000116518
8.82154e-05
0.000104072
9.73325e-05
5.12226e-05
4.99986e-05
4.23709e-05
4.86183e-05
6.97851e-05
5.31179e-05
8.56879e-05
5.34137e-05
9.25036e-05
6.59628e-05
6.31489e-05
7.42825e-05
6.87628e-05
9.16856e-05
6.59387e-05
6.77686e-05
3.02739e-05
6.8825e-05
9.95015e-05
9.957e-05
8.99823e-05
6.58188e-05
4.32204e-05
0.000125011
8.37465e-05
6.98297e-05
6.43462e-05
6.45423e-05
6.63594e-05
8.14225e-05
6.51888e-05
4.63847e-05
6.4348e-05
4.39284e-05
8.01398e-05
6.56172e-05
2.82164e-05
6.18195e-05
7.34743e-05
6.56083e-05
0.00010151
6.81593e-05
8.81619e-05
3.34807e-05
7.07435e-05
6.73746e-05
5.92734e-05
6.32445e-05
7.48026e-05
7.06293e-05
7.37881e-05
6.24931e-05
6.34933e-05
6.86077e-05
9.2141e-05
6.46555e-05
9.19164e-05
8.29182e-05
6.57365e-05
6.70778e-05
6.77577e-05
7.50437e-05
6.76571e-05
6.32949e-05
7.19905e-05
7.58695e-05
8.93622e-05
6.7748e-05
6.72296e-05
9.77554e-05
9.63885e-05
6.47005e-05
6.57498e-05
2.88419e-05
7.90732e-05
5.4467e-05
7.41653e-05
3.21209e-05
3.33438e-05
2.98008e-05
3.02875e-05
3.21329e-05
3.3846e-05
3.4882e-05
8.3488e-05
6.19527e-05
6.21999e-05
7.10026e-05
6.91079e-05
6.8242e-05
7.24004e-05
6.67763e-05
6.82927e-05
6.99608e-05
6.79884e-05
8.39183e-05
6.1658e-05
8.62493e-05
6.68902e-05
6.45121e-05
6.80708e-05
7.30874e-05
7.60497e-05
7.07795e-05
8.1143e-05
7.57307e-05
7.01475e-05
5.04761e-05
7.06234e-05
6.91286e-05
7.46837e-05
7.11845e-05
6.74184e-05
6.41424e-05
7.06996e-05
7.38227e-05
0.000100333
6.60767e-05
9.75455e-05
0.000101549
6.94776e-05
9.73945e-05
7.46382e-05
5.96828e-05
8.16365e-05
7.13408e-05
5.16943e-05
4.47423e-05
8.06411e-05
8.59196e-05
7.25086e-05
6.02365e-05
7.26549e-05
3.39335e-05
7.16876e-05
6.72148e-05
3.40137e-05
1.32699e-05
1.45167e-05
6.21069e-05
6.60988e-05
7.68639e-05
7.38096e-05
6.83713e-06
7.1441e-06
7.32824e-05
7.40493e-05
7.00901e-05
2.54706e-05
6.18347e-05
7.22088e-05
7.33724e-05
6.32833e-05
5.58617e-05
2.6517e-05
0.000106312
6.65079e-05
8.1425e-05
8.26981e-05
5.93558e-05
7.51412e-05
5.80338e-05
6.40457e-05
3.15187e-05
4.77241e-05
7.52295e-05
7.57728e-05
6.50693e-05
6.83071e-05
7.05176e-05
7.43672e-05
7.11249e-05
3.47647e-05
6.2679e-05
7.02891e-05
6.66782e-05
0.000100098
3.47546e-05
5.40568e-05
5.56729e-05
5.30153e-05
3.45826e-05
3.45847e-05
6.06978e-05
4.8709e-05
6.98118e-05
3.71954e-05
4.12869e-05
1.35109e-05
1.35108e-05
2.76304e-05
4.47594e-05
3.01723e-05
5.94741e-05
6.45811e-05
6.86929e-05
7.74568e-05
7.03254e-05
6.51341e-05
5.11889e-05
3.12302e-05
6.42338e-05
6.66459e-05
6.45671e-05
3.51519e-05
3.30806e-05
2.53457e-05
6.44723e-05
6.57113e-05
5.25776e-05
5.95896e-05
5.50038e-05
5.05646e-05
6.74286e-05
5.05598e-05
5.94606e-05
5.74626e-05
3.53729e-05
4.36761e-05
3.99549e-05
7.1336e-05
2.77769e-05
2.92709e-05
2.86162e-05
6.74155e-05
2.64648e-05
2.58853e-05
4.67466e-05
2.41546e-05
5.47631e-05
5.48455e-05
2.48012e-05
5.92753e-05
2.76213e-05
2.73627e-05
3.09239e-05
2.61045e-05
2.5712e-05
3.90427e-05
3.05878e-05
2.77071e-05
2.61895e-05
5.43493e-05
6.21693e-05
2.89089e-05
5.99896e-05
2.37362e-05
6.08837e-05
4.8284e-05
2.48072e-05
2.10644e-05
2.34288e-05
3.11118e-05
5.22128e-05
4.32353e-05
1.81614e-05
2.01555e-05
5.83026e-05
1.70951e-05
1.70948e-05
1.93692e-05
2.17171e-05
2.40985e-05
2.85105e-05
4.70311e-05
4.35974e-05
5.83327e-05
1.71602e-05
1.716e-05
5.15045e-05
2.07657e-05
4.14778e-05
1.88213e-05
1.89977e-05
2.50331e-05
4.42331e-05
4.5801e-05
4.87893e-05
4.47153e-05
4.42316e-05
9.68168e-06
7.13937e-05
1.23414e-05
1.1969e-05
5.76807e-05
5.72815e-05
1.24041e-05
8.61296e-06
1.21277e-05
5.31929e-05
SCALARS rr_P' float
LOOKUP_TABLE default
3.52555e-05
7.45791e-05
5.99532e-05
7.79533e-05
3.99278e-05
6.36415e-05
3.48678e-05
7.75835e-05
6.74318e-05
8.3834e-05
3.18591e-05
7.78219e-05
6.85913e-05
7.2117e-05
8.35442e-05
7.13674e-05
6.08389e-05
6.92286e-05
6.28402e-05
6.09549e-05
6.86346e-05
1.15332e-05
7.03236e-05
6.47431e-05
5.86994e-05
6.72575e-05
2.92105e-05
5.93125e-05
4.80256e-05
5.28757e-05
6.06093e-05
4.96389e-05
3.23909e-05
3.98006e-05
3.90214e-05
3.9893e-05
5.13624e-05
3.9138e-05
6.05569e-05
3.63999e-05
4.03749e-05
4.52526e-05
4.52603e-05
6.65164e-05
4.03606e-05
4.37407e-05
5.90408e-05
5.96033e-05
5.55639e-05
5.5094e-05
5.64204e-05
4.33303e-05
6.41599e-05
5.56637e-05
5.91042e-05
2.92076e-05
4.16564e-05
5.60721e-05
4.16577e-05
6.64262e-05
7.76878e-05
7.56514e-05
2.85901e-05
5.33588e-05
7.24529e-05
6.88018e-05
7.51291e-05
6.53207e-05
6.05876e-05
8.55788e-05
6.96214e-05
6.88654e-05
4.98863e-05
5.55589e-05
5.95679e-05
3.35409e-05
6.01218e-05
6.81674e-05
6.58756e-05
4.7737e-05
4.37514e-05
4.49562e-05
8.64351e-05
4.39056e-05
5.85829e-05
2.21568e-05
6.85146e-05
5.66631e-05
4.27382e-05
5.69817e-06
4.82397e-05
6.19815e-06
5.09963e-05
4.94327e-05
4.56219e-05
4.20808e-05
4.0177e-05
7.36088e-05
6.01724e-05
5.89714e-05
5.09246e-05
4.94567e-05
4.21351e-05
6.98581e-05
7.09204e-05
6.38517e-05
5.57025e-05
5.72016e-05
4.47323e-05
8.49263e-05
5.50712e-05
3.03703e-05
4.04527e-05
7.64881e-05
7.15389e-05
5.37413e-05
4.83094e-05
3.33954e-05
5.01185e-05
5.35151e-05
4.6063e-05
8.15076e-05
8.50038e-05
7.26605e-05
8.02017e-05
6.22219e-05
3.47636e-05
7.94776e-05
3.6388e-05
4.62638e-05
3.63698e-05
7.58735e-05
7.36319e-05
7.44781e-05
5.14324e-05
2.93506e-05
3.49731e-05
5.47432e-05
6.62697e-05
2.93427e-05
4.29207e-05
6.43114e-05
4.95587e-05
7.85394e-05
4.06594e-05
6.41739e-05
5.82194e-05
5.65854e-05
3.61758e-05
4.69908e-05
5.1821e-05
7.31836e-05
4.45465e-05
6.6493e-05
7.67574e-05
7.79979e-05
5.09154e-05
4.41757e-05
4.39152e-05
6.7144e-05
5.68098e-05
4.41519e-05
2.96698e-05
4.32305e-05
4.26703e-05
7.16804e-05
4.47732e-05
4.5272e-05
4.93166e-05
4.36267e-05
6.22554e-05
4.55947e-05
4.07771e-05
4.91644e-05
4.81602e-05
5.568e-05
6.1582e-05
6.0254e-05
5.01331e-05
6.00176e-05
4.78616e-05
6.95205e-05
7.46203e-05
4.29228e-05
7.2701e-05
4.32357e-05
7.18017e-05
6.58327e-05
6.10286e-05
6.30494e-05
7.33315e-05
3.64533e-05
4.71271e-05
4.4173e-05
7.43505e-05
7.34205e-05
6.80444e-05
7.34545e-05
7.52458e-05
6.29821e-05
7.74809e-05
5.27922e-05
4.82029e-05
8.41012e-05
5.12576e-05
7.63488e-05
6.09974e-05
4.03941e-05
4.65085e-05
7.6661e-05
6.30946e-05
5.80225e-05
7.49311e-05
7.29451e-05
4.85891e-05
4.70146e-05
4.69717e-05
6.46463e-05
7.17633e-05
8.24766e-05
7.9305e-05
8.62528e-05
7.81537e-05
8.54131e-05
7.17049e-05
7.40839e-05
7.46774e-05
7.03827e-05
7.39334e-05
6.76523e-05
6.66435e-05
4.92633e-05
6.46004e-05
7.57826e-05
5.31608e-05
7.61208e-05
6.9908e-05
8.21463e-05
5.06689e-05
7.81576e-05
7.45605e-05
4.95351e-05
6.60809e-05
4.92177e-05
7.45471e-05
6.86903e-05
5.15662e-05
4.8717e-05
4.28701e-05
4.92924e-05
7.46623e-05
3.60498e-05
5.81776e-05
4.85546e-05
5.39134e-05
7.82378e-05
7.54509e-05
2.2958e-05
7.574e-05
4.31991e-05
4.59617e-05
7.7788e-05
6.32337e-05
4.65446e-05
8.64989e-05
5.00805e-05
2.29593e-05
4.69915e-05
6.72679e-05
8.373e-05
6.39459e-05
7.41228e-05
6.99353e-05
3.62124e-05
3.62788e-05
3.25018e-05
3.74155e-05
4.9458e-05
3.87963e-05
6.20578e-05
3.96392e-05
6.59813e-05
4.75024e-05
4.70671e-05
5.34825e-05
5.08915e-05
6.62941e-05
4.87967e-05
5.05373e-05
2.09221e-05
4.88442e-05
7.08357e-05
7.08955e-05
6.49768e-05
4.86762e-05
3.03258e-05
8.98612e-05
6.13148e-05
5.16268e-05
4.77075e-05
4.57442e-05
4.92332e-05
5.78441e-05
4.82852e-05
3.57257e-05
4.75985e-05
3.34431e-05
5.73713e-05
4.86807e-05
1.95025e-05
4.57889e-05
5.27107e-05
4.87245e-05
7.28824e-05
5.04977e-05
6.41187e-05
2.58625e-05
5.15459e-05
4.99955e-05
4.20284e-05
4.69543e-05
5.47662e-05
5.07048e-05
5.32875e-05
4.62952e-05
4.69609e-05
5.0554e-05
6.59708e-05
4.78279e-05
6.65681e-05
6.03032e-05
4.64789e-05
4.96116e-05
4.99487e-05
5.48672e-05
4.98253e-05
4.68591e-05
5.30062e-05
5.41752e-05
6.4733e-05
4.99218e-05
4.9898e-05
7.06318e-05
6.96336e-05
4.78783e-05
4.64923e-05
2.2731e-05
5.75254e-05
4.14284e-05
5.42049e-05
2.65143e-05
2.75209e-05
2.45844e-05
2.49912e-05
2.65076e-05
2.79411e-05
2.87859e-05
5.9751e-05
4.35745e-05
4.51237e-05
5.20061e-05
5.08775e-05
5.02585e-05
5.23469e-05
4.92093e-05
5.0349e-05
4.91975e-05
5.00736e-05
5.98336e-05
4.61174e-05
6.15392e-05
4.87186e-05
4.72574e-05
5.01499e-05
5.17883e-05
5.53235e-05
5.18156e-05
5.90241e-05
5.5436e-05
5.17033e-05
3.76954e-05
5.17378e-05
5.03298e-05
5.32338e-05
5.23616e-05
4.97329e-05
4.71968e-05
5.18207e-05
5.37615e-05
7.25347e-05
4.86255e-05
7.05292e-05
7.40138e-05
5.09126e-05
7.05228e-05
5.43865e-05
4.39677e-05
5.86166e-05
5.21815e-05
3.63847e-05
3.44578e-05
5.77121e-05
6.13527e-05
5.28001e-05
4.4046e-05
5.22778e-05
2.67139e-05
5.22071e-05
4.91702e-05
2.62612e-05
9.17579e-06
1.00354e-05
4.51867e-05
4.86653e-05
5.61671e-05
5.42882e-05
4.66187e-06
4.87117e-06
5.30632e-05
5.36104e-05
5.07673e-05
2.00544e-05
4.55911e-05
5.17817e-05
5.37608e-05
4.64044e-05
4.09375e-05
2.09104e-05
7.63693e-05
4.89894e-05
5.92528e-05
6.01783e-05
4.35307e-05
5.50148e-05
4.2562e-05
4.69358e-05
2.44646e-05
3.63257e-05
5.5084e-05
5.51322e-05
4.75891e-05
5.01129e-05
5.16042e-05
5.43625e-05
5.2019e-05
2.67721e-05
4.46226e-05
5.17289e-05
4.79878e-05
7.18707e-05
2.67793e-05
3.9351e-05
4.05594e-05
3.74846e-05
2.39302e-05
2.39327e-05
4.30823e-05
3.59189e-05
5.08154e-05
2.86858e-05
2.86216e-05
9.23142e-06
9.23167e-06
2.18097e-05
3.13204e-05
2.10352e-05
4.33275e-05
4.58962e-05
4.98351e-05
5.59384e-05
5.04831e-05
4.66495e-05
3.70729e-05
2.45917e-05
4.66909e-05
4.7999e-05
4.6309e-05
2.74265e-05
2.31289e-05
1.95977e-05
4.62571e-05
4.74392e-05
3.897e-05
4.32501e-05
3.98495e-05
3.57308e-05
4.87923e-05
3.57297e-05
4.32611e-05
4.12075e-05
2.46981e-05
3.04767e-05
3.08044e-05
5.14594e-05
2.19745e-05
2.31173e-05
2.26838e-05
4.84274e-05
2.08584e-05
2.05565e-05
3.42921e-05
1.91291e-05
3.85383e-05
3.85985e-05
1.96134e-05
4.33347e-05
2.14326e-05
2.16561e-05
2.40368e-05
2.06675e-05
1.9986e-05
2.73063e-05
2.36597e-05
2.183e-05
2.07159e-05
3.93883e-05
4.44411e-05
2.2502e-05
4.34688e-05
1.88397e-05
4.39908e-05
3.52786e-05
1.96524e-05
1.64181e-05
1.85852e-05
2.45578e-05
3.80533e-05
3.03845e-05
1.24306e-05
1.38119e-05
4.20638e-05
1.17038e-05
1.1704e-05
1.32673e-05
1.49826e-05
1.86088e-05
1.99165e-05
3.33594e-05
3.06381e-05
4.2132e-05
1.18162e-05
1.18165e-05
3.61323e-05
1.64068e-05
3.03305e-05
1.48516e-05
1.47096e-05
1.9373e-05
3.06968e-05
3.17926e-05
3.38869e-05
3.1051e-05
3.06975e-05
6.63738e-06
4.95761e-05
8.49837e-06
8.19043e-06
4.00222e-05
3.97407e-05
8.48483e-06
5.90281e-06
8.34801e-06
3.69659e-05
SCALARS rr_T' float
LOOKUP_TABLE default
0.000209501
0.000477272
0.000381167
0.000498198
0.000260485
0.000404554
0.000207148
0.000495435
0.000426009
0.000536354
0.000190132
0.000496953
0.000437332
0.000461874
0.000541109
0.000454254
0.000390671
0.000441671
0.000395643
0.000386795
0.000435103
7.72435e-05
0.000445806
0.000410874
0.000372441
0.000429637
0.000176137
0.000377391
0.000296213
0.000348612
0.000386357
0.00030621
0.000195118
0.000261218
0.000256733
0.000261806
0.00033892
0.000257257
0.000385964
0.000219314
0.000248977
0.000298697
0.000298729
0.000424024
0.000244811
0.000270079
0.000372323
0.000377031
0.000353311
0.000338238
0.000347311
0.000269318
0.000418084
0.000346062
0.000384912
0.000177586
0.000274118
0.0003486
0.000274109
0.000421663
0.000498705
0.000488754
0.000173226
0.000344609
0.000468137
0.000441818
0.000482398
0.000417291
0.000384278
0.000547761
0.000453603
0.00044866
0.000307627
0.000357626
0.000378824
0.000201412
0.000390017
0.00043772
0.000420803
0.000297201
0.000268218
0.000294006
0.000556636
0.000268593
0.000362142
0.000134515
0.000435944
0.000364302
0.000259256
3.80119e-05
0.000299869
4.13419e-05
0.000330941
0.000317157
0.000283795
0.000258854
0.00024634
0.000470888
0.000390307
0.000375749
0.000319253
0.000306287
0.000257717
0.000446
0.000453382
0.000408277
0.000359049
0.000364247
0.000273574
0.00054403
0.00034961
0.000184658
0.000246785
0.000488117
0.000457268
0.000334194
0.000317869
0.000204701
0.000329698
0.000332873
0.000289527
0.000527472
0.00054394
0.000467223
0.000514024
0.000403275
0.00022812
0.000508414
0.00022311
0.000287778
0.000236946
0.000485294
0.000474002
0.000476493
0.000318559
0.000193136
0.000213562
0.000349216
0.000426778
0.000193071
0.000266058
0.000411564
0.000311867
0.000502509
0.000249148
0.000410047
0.000372142
0.000359796
0.000229971
0.000293918
0.000327721
0.000468295
0.000274747
0.000424014
0.000491086
0.000498916
0.000326453
0.000274047
0.000272491
0.000428082
0.000359401
0.000272463
0.000180304
0.000266112
0.000264679
0.000458366
0.000277739
0.000280803
0.000304185
0.000270654
0.000404076
0.00028346
0.000250988
0.000315449
0.000299462
0.000358813
0.000399682
0.000384736
0.000326799
0.000383792
0.000295237
0.000444693
0.000477276
0.000266103
0.00046749
0.00026599
0.00046169
0.000424427
0.000396229
0.00040335
0.000471589
0.000223687
0.000293022
0.00027248
0.000475641
0.000468293
0.000434166
0.000472836
0.000481445
0.000404344
0.000495828
0.000332702
0.000300272
0.00054133
0.000316219
0.000491671
0.000391667
0.00025005
0.000300745
0.000490627
0.000408282
0.000371762
0.000478931
0.000469789
0.000303989
0.000301419
0.000292826
0.000416766
0.000459877
0.000528515
0.000507768
0.000552451
0.000500601
0.000547064
0.000458999
0.000479595
0.000483331
0.000455632
0.000478662
0.000440618
0.000434059
0.000308044
0.000413603
0.000483934
0.00033617
0.000493028
0.000452919
0.00052468
0.000315691
0.000498973
0.000476986
0.000310016
0.000427342
0.000307923
0.000480208
0.000438399
0.000322774
0.000303806
0.000262767
0.000302266
0.000480866
0.00022066
0.000370641
0.000302678
0.000339591
0.000499442
0.000483437
0.000151601
0.000485195
0.000264295
0.000286516
0.000496717
0.00040378
0.000289893
0.00055419
0.000315267
0.000151601
0.000292984
0.000431134
0.000538172
0.000408023
0.000480001
0.000449547
0.000235967
0.000231295
0.000197844
0.000227143
0.000321607
0.000245988
0.000396272
0.000248011
0.000426744
0.000304771
0.000293428
0.000343199
0.000319136
0.000423898
0.000306023
0.000314922
0.000138968
0.000317252
0.000458889
0.000459217
0.000415935
0.000305433
0.000198869
0.000577426
0.000387983
0.00032403
0.000298725
0.000297447
0.000308108
0.000375382
0.000302588
0.00021674
0.00029862
0.000204849
0.000369922
0.00030466
0.000129527
0.000286948
0.000339271
0.000304671
0.000468788
0.000316389
0.000407993
0.00015652
0.000327485
0.000312831
0.000273185
0.00029368
0.000346548
0.000326168
0.000341087
0.000290083
0.000294647
0.000318184
0.000425327
0.000300048
0.000425076
0.000383724
0.000302834
0.00031128
0.000314264
0.000347585
0.000313745
0.000293773
0.00033383
0.000350067
0.000413279
0.000314198
0.000312169
0.000451907
0.000445577
0.000300275
0.000302899
0.000135313
0.00036595
0.000253954
0.000343496
0.000151969
0.000157752
0.000140977
0.000143285
0.000152009
0.000160133
0.000165023
0.00038536
0.000285169
0.000287731
0.000328966
0.000320458
0.00031646
0.000334732
0.000309696
0.000316751
0.000322021
0.000315287
0.000387111
0.000286668
0.000397915
0.000309627
0.000298899
0.000315685
0.000336814
0.000351954
0.000327903
0.000375521
0.000350837
0.000325341
0.00023462
0.000327219
0.000319966
0.000344496
0.000330041
0.000312727
0.000297406
0.0003276
0.000341708
0.000463864
0.000306381
0.000450988
0.000470111
0.000321925
0.000450397
0.000345516
0.000276783
0.000377012
0.000330457
0.000237975
0.000209063
0.000372217
0.00039644
0.000335621
0.000279006
0.000335646
0.000159169
0.000331827
0.000311351
0.000158998
6.09189e-05
6.66399e-05
0.000287435
0.000306507
0.000355983
0.000342207
3.13196e-05
3.27258e-05
0.000338893
0.000342429
0.000324145
0.000119475
0.000286803
0.000333405
0.000339963
0.000293254
0.000258837
0.000124419
0.000491002
0.000308428
0.00037685
0.000382742
0.000275061
0.000348116
0.000268936
0.000296759
0.000147473
0.000222542
0.000348531
0.000350684
0.000301401
0.00031656
0.000326669
0.000344441
0.000329452
0.000162439
0.000289067
0.000325917
0.000308046
0.000462269
0.000162408
0.000250201
0.000257714
0.000244231
0.00015878
0.00015879
0.000279797
0.000225928
0.000323117
0.000173841
0.000189615
6.19108e-05
6.19105e-05
0.000129665
0.00020586
0.000138691
0.000275308
0.000297754
0.000317767
0.000358046
0.000324764
0.000300677
0.000236728
0.000146496
0.000297232
0.000307933
0.000298129
0.000164622
0.000152128
0.000118509
0.000297709
0.000303732
0.000244079
0.000275675
0.000254385
0.000232922
0.000311787
0.000232901
0.000275187
0.000265318
0.000162635
0.000200791
0.000186727
0.000329691
0.0001304
0.000137371
0.000134388
0.000311358
0.000124161
0.000121603
0.000216637
0.000113416
0.000252093
0.000252474
0.000116423
0.000274547
0.00012923
0.000128464
0.000144726
0.000122565
0.000120334
0.000179553
0.000143032
0.000129982
0.000122945
0.000251371
0.000286904
0.000135328
0.000277451
0.000111497
0.000281456
0.000223617
0.000116487
9.86302e-05
0.00011004
0.000146003
0.000241712
0.000198985
8.32434e-05
9.24004e-05
0.00026946
7.8359e-05
7.83582e-05
8.87895e-05
9.96633e-05
0.000112654
0.000131093
0.000216774
0.000200651
0.000269648
7.87275e-05
7.87269e-05
0.000236977
9.74671e-05
0.000192121
8.83195e-05
8.88486e-05
0.000117066
0.00020318
0.00021039
0.000224137
0.000205414
0.000203175
4.43874e-05
0.000327969
5.66205e-05
5.48586e-05
0.000264943
0.000263104
5.68491e-05
3.94856e-05
5.56365e-05
0.000244388
SCALARS rr_uec(SIM,_S_ext) float
LOOKUP_TABLE default
0.0133435
0.0304014
0.0242794
0.0317344
0.0165926
0.0257691
0.0131936
0.0315581
0.0271354
0.0341647
0.0121103
0.0316548
0.027857
0.0294205
0.034468
0.0289349
0.0248851
0.0281335
0.0252012
0.0246378
0.0277148
0.00492045
0.0283967
0.0261716
0.0237236
0.027367
0.0112188
0.0240389
0.0188674
0.0222065
0.02461
0.0195042
0.0124278
0.0166394
0.0163537
0.0166769
0.0215892
0.0163871
0.024585
0.0139689
0.0158587
0.019027
0.019029
0.0270093
0.0155932
0.0172028
0.0237158
0.0240157
0.022505
0.0215441
0.0221221
0.0171544
0.0266315
0.0220427
0.0245185
0.0113112
0.0174611
0.0222043
0.0174606
0.0268589
0.0317668
0.0311329
0.0110334
0.021951
0.0298196
0.0281429
0.030728
0.0265806
0.0244775
0.0348915
0.0288941
0.0285792
0.0195944
0.0227801
0.0241301
0.0128286
0.0248435
0.0278819
0.0268043
0.0189305
0.0170841
0.0187279
0.0354569
0.017108
0.0230667
0.00856786
0.0277686
0.0232053
0.0165133
0.00242136
0.0191004
0.00263349
0.0210805
0.0202023
0.0180765
0.0164878
0.0156905
0.0299947
0.024862
0.0239343
0.0203352
0.019509
0.0164153
0.0284094
0.0288796
0.0260065
0.0228709
0.0232016
0.0174252
0.034654
0.0222693
0.0117617
0.0157189
0.0310921
0.0291271
0.0212867
0.020248
0.0130383
0.0210015
0.0212026
0.0184419
0.0335994
0.0346481
0.0297613
0.0327426
0.0256882
0.0145311
0.032385
0.0142109
0.0183303
0.0150932
0.0309124
0.0301932
0.0303518
0.0202907
0.0123026
0.0136027
0.0222442
0.0271851
0.0122985
0.0169467
0.0262157
0.0198649
0.0320089
0.0158694
0.0261192
0.0237046
0.022918
0.0146486
0.0187215
0.0208748
0.0298297
0.0175002
0.0270087
0.0312813
0.0317802
0.0207944
0.0174555
0.0173564
0.0272679
0.0228928
0.0173547
0.0114844
0.0169501
0.0168589
0.0291971
0.0176907
0.0178858
0.0193752
0.0172394
0.0257391
0.0180552
0.0159868
0.0200935
0.0190744
0.0228559
0.0254592
0.0245068
0.0208167
0.0244467
0.0188052
0.0283261
0.0304016
0.0169495
0.0297782
0.0169423
0.0294089
0.0270353
0.0252392
0.0256926
0.0300393
0.0142477
0.0186642
0.0173557
0.0302975
0.0298293
0.0276555
0.030119
0.0306673
0.0257559
0.0315834
0.0211921
0.0191261
0.0344819
0.0201417
0.0313188
0.0249484
0.015927
0.019157
0.0312522
0.0260069
0.0236805
0.030507
0.0299249
0.019363
0.0191997
0.0186518
0.0265473
0.0292936
0.0336657
0.0323442
0.0351904
0.0318876
0.0348472
0.0292373
0.0305496
0.0307877
0.0290233
0.0304902
0.0280669
0.0276491
0.0196213
0.0263457
0.030826
0.021413
0.0314053
0.0288504
0.0334214
0.0201083
0.0317839
0.0303831
0.0197469
0.0272211
0.0196135
0.0305885
0.0279254
0.0205595
0.0193513
0.0167368
0.0192529
0.0306305
0.0140548
0.0236089
0.0192794
0.0216309
0.0318138
0.0307943
0.00965694
0.0309063
0.0168341
0.01825
0.0316402
0.0257198
0.018465
0.0353012
0.0200815
0.00965696
0.018662
0.0274627
0.0342806
0.0259903
0.0305755
0.0286352
0.0150309
0.0147329
0.0126016
0.0144677
0.0204859
0.0156687
0.0252416
0.0157973
0.027183
0.0194133
0.0186903
0.0218611
0.0203278
0.0270013
0.0194925
0.0200593
0.0088523
0.0202086
0.0292308
0.0292516
0.0264943
0.019455
0.0126678
0.036781
0.0247134
0.0206395
0.0190276
0.018947
0.0196253
0.0239113
0.0192737
0.0138052
0.019021
0.0130477
0.0235635
0.0194057
0.00825086
0.0182775
0.021611
0.0194064
0.029861
0.0201528
0.0259881
0.00996925
0.02086
0.0199261
0.0174016
0.0187063
0.0220741
0.0207763
0.0217267
0.0184772
0.0187679
0.0202673
0.0270926
0.019112
0.0270763
0.0244423
0.0192902
0.0198274
0.0200175
0.0221401
0.0199845
0.0187122
0.0212638
0.0222987
0.026325
0.0200133
0.019884
0.0287854
0.0283823
0.0191264
0.0192943
0.00861864
0.02331
0.0161755
0.0218797
0.00967947
0.0100478
0.00897934
0.00912636
0.00968205
0.0101994
0.0105109
0.0245468
0.0181651
0.0183279
0.0209542
0.0204122
0.0201574
0.0213216
0.0197266
0.020176
0.0205125
0.0200827
0.0246584
0.0182596
0.0253467
0.0197224
0.019039
0.020108
0.0214546
0.0224185
0.0208865
0.0239197
0.0223473
0.0207232
0.0149444
0.0208429
0.020381
0.0219439
0.0210226
0.0199197
0.0189438
0.0208671
0.0217659
0.0295471
0.0195155
0.0287269
0.0299449
0.0205056
0.0286892
0.0220085
0.0176302
0.024015
0.0210491
0.0151588
0.0133162
0.0237096
0.0252526
0.0213782
0.0177718
0.02138
0.0101381
0.0211366
0.0198321
0.0101271
0.00388052
0.00424495
0.0183089
0.0195235
0.0226751
0.0217975
0.00199507
0.00208464
0.0215868
0.0218119
0.0206473
0.0076098
0.0182684
0.0212374
0.0216546
0.0186793
0.0164872
0.00792474
0.031276
0.0196459
0.0240044
0.0243797
0.0175205
0.022174
0.0171304
0.0189026
0.00939311
0.0141747
0.0222004
0.0223376
0.0191983
0.0201639
0.0208078
0.0219399
0.0209851
0.0103465
0.0184132
0.0207599
0.0196219
0.0294457
0.0103445
0.0159372
0.0164158
0.0155572
0.0101143
0.010115
0.0178228
0.0143909
0.0205817
0.0110727
0.0120785
0.00394375
0.00394373
0.00825889
0.0131131
0.00883462
0.0175364
0.0189665
0.0202411
0.0228069
0.0206869
0.0191526
0.015079
0.00933088
0.0189329
0.0196147
0.0189903
0.0104854
0.00969049
0.00754817
0.0189636
0.0193471
0.0155469
0.0175598
0.0162037
0.0148369
0.0198602
0.0148356
0.0175287
0.0169003
0.0103598
0.0127903
0.0118935
0.0210008
0.00830538
0.0087494
0.00855943
0.0198329
0.00790825
0.00774515
0.0137991
0.00722371
0.0160581
0.0160823
0.00741517
0.0174879
0.00823107
0.00818207
0.00921809
0.00780634
0.00766451
0.0114374
0.00911033
0.00827899
0.0078306
0.0160117
0.0182753
0.00861953
0.0176729
0.00710147
0.0179281
0.0142438
0.00741921
0.00628211
0.00700865
0.00929953
0.0153964
0.0126752
0.00530266
0.00588596
0.0171641
0.00499151
0.00499147
0.00565594
0.00634858
0.00717544
0.0083506
0.0138082
0.0127813
0.017176
0.00501497
0.00501493
0.0150952
0.00620807
0.0122376
0.00562537
0.00565901
0.00745632
0.0129426
0.0134019
0.0142776
0.0130849
0.0129423
0.00282749
0.0208916
0.00360674
0.00349451
0.0168769
0.0167598
0.00362131
0.00251525
0.00354406
0.0155676
SCALARS rr_uec(PEX,_P_ext) float
LOOKUP_TABLE default
-0.0608952
-0.138786
-0.110835
-0.14487
-0.0757537
-0.117635
-0.0602113
-0.144065
-0.12387
-0.155966
-0.0552674
-0.144507
-0.127169
-0.134308
-0.157359
-0.132088
-0.113605
-0.128431
-0.115039
-0.112471
-0.126516
-0.022467
-0.129629
-0.119472
-0.108297
-0.124933
-0.0512019
-0.109738
-0.0861183
-0.101389
-0.112346
-0.0890247
-0.0567193
-0.0759695
-0.0746661
-0.0761407
-0.0985705
-0.0748181
-0.112231
-0.063753
-0.0723853
-0.0868724
-0.0868815
-0.123299
-0.0711678
-0.0785207
-0.108259
-0.109629
-0.102735
-0.0983337
-0.100973
-0.0783023
-0.121586
-0.100615
-0.111939
-0.0516256
-0.0797222
-0.101353
-0.0797196
-0.12261
-0.145021
-0.142131
-0.0503569
-0.100213
-0.136136
-0.128478
-0.140279
-0.121342
-0.111738
-0.159283
-0.131915
-0.130478
-0.0894365
-0.103997
-0.110154
-0.0585478
-0.113421
-0.127286
-0.122364
-0.0864098
-0.0779766
-0.0855036
-0.161869
-0.0780847
-0.105287
-0.0391043
-0.126764
-0.105937
-0.075367
-0.0110559
-0.0871846
-0.0120244
-0.0962411
-0.092227
-0.0825117
-0.0752557
-0.0716161
-0.136929
-0.113505
-0.109261
-0.0928246
-0.0890486
-0.0749229
-0.12969
-0.131838
-0.118722
-0.104412
-0.105916
-0.0795326
-0.158199
-0.101658
-0.0536816
-0.0717438
-0.141937
-0.132968
-0.0971645
-0.0924463
-0.0595106
-0.0958866
-0.0967805
-0.084183
-0.153393
-0.158172
-0.135867
-0.149474
-0.117276
-0.0663437
-0.147841
-0.0648627
-0.0836697
-0.0689079
-0.141118
-0.137839
-0.138559
-0.0926167
-0.05617
-0.0620855
-0.101546
-0.124107
-0.0561511
-0.0773532
-0.119678
-0.0906792
-0.146124
-0.0724323
-0.119236
-0.108214
-0.104621
-0.0668706
-0.0854574
-0.0952913
-0.136175
-0.0798774
-0.123296
-0.142802
-0.145079
-0.09493
-0.079676
-0.0792239
-0.124479
-0.104503
-0.0792136
-0.0524158
-0.077366
-0.0769525
-0.133287
-0.0807495
-0.0816402
-0.088436
-0.0786897
-0.11751
-0.082414
-0.072969
-0.0917302
-0.0870665
-0.104343
-0.116232
-0.111876
-0.0950387
-0.111602
-0.0858344
-0.129311
-0.138786
-0.0773662
-0.135944
-0.0773305
-0.134258
-0.123424
-0.115228
-0.117289
-0.137136
-0.0650306
-0.085194
-0.0792183
-0.138311
-0.136172
-0.126249
-0.1375
-0.139999
-0.117581
-0.144182
-0.096738
-0.0873029
-0.157418
-0.0919347
-0.142978
-0.113894
-0.0726985
-0.087458
-0.142669
-0.118731
-0.108105
-0.139267
-0.136614
-0.0883858
-0.0876499
-0.0851383
-0.121196
-0.133729
-0.153688
-0.147654
-0.160648
-0.14557
-0.159081
-0.133472
-0.13947
-0.140556
-0.132501
-0.139198
-0.128139
-0.126231
-0.0895646
-0.120272
-0.140722
-0.0977481
-0.143376
-0.131713
-0.15257
-0.0917862
-0.145095
-0.138702
-0.0901383
-0.124273
-0.0895295
-0.139644
-0.12748
-0.0938476
-0.0883309
-0.0763916
-0.0878752
-0.139836
-0.0641497
-0.107776
-0.0880027
-0.0987409
-0.145231
-0.14058
-0.0440912
-0.141091
-0.076835
-0.0833038
-0.144439
-0.117413
-0.0842852
-0.161154
-0.091668
-0.0440913
-0.0851845
-0.125371
-0.156498
-0.118647
-0.139588
-0.130726
-0.0686233
-0.0672565
-0.0575153
-0.0660317
-0.0935275
-0.0715269
-0.11523
-0.0721099
-0.1241
-0.0886252
-0.0853135
-0.0998
-0.0927907
-0.123264
-0.0889782
-0.0915627
-0.0404186
-0.0922608
-0.133449
-0.133544
-0.12095
-0.088807
-0.0578365
-0.167913
-0.112814
-0.0942142
-0.0868556
-0.0865016
-0.0895833
-0.109165
-0.087979
-0.0630075
-0.0868258
-0.0595535
-0.107574
-0.0885811
-0.0376724
-0.0834316
-0.0986594
-0.0885838
-0.136322
-0.0919918
-0.118636
-0.0455001
-0.0952253
-0.0909565
-0.079446
-0.0853881
-0.100766
-0.0948487
-0.0991846
-0.0843431
-0.0856706
-0.0925161
-0.123685
-0.0872411
-0.123606
-0.111579
-0.0880692
-0.0905069
-0.0913759
-0.101068
-0.0912255
-0.0854163
-0.0970655
-0.101801
-0.120175
-0.0913568
-0.090764
-0.131409
-0.129569
-0.087307
-0.0880881
-0.0393322
-0.106411
-0.0738297
-0.0998793
-0.0441645
-0.0458451
-0.0409701
-0.0416409
-0.0441763
-0.0465369
-0.0479582
-0.112063
-0.0829341
-0.0836674
-0.0956536
-0.0931776
-0.0920148
-0.0973357
-0.0900479
-0.092099
-0.0936514
-0.0916736
-0.112574
-0.0833467
-0.115716
-0.0900326
-0.0869109
-0.0917892
-0.0979503
-0.102341
-0.0953447
-0.109194
-0.102013
-0.094597
-0.0682145
-0.0951455
-0.0930391
-0.100182
-0.0959642
-0.0909289
-0.086475
-0.095256
-0.0993611
-0.134886
-0.0890845
-0.131142
-0.136698
-0.093606
-0.130969
-0.100468
-0.0804782
-0.109634
-0.0960875
-0.0692086
-0.0607755
-0.108241
-0.115286
-0.0975912
-0.0811271
-0.0976039
-0.0462667
-0.0964881
-0.090532
-0.0462206
-0.017718
-0.019382
-0.0835802
-0.0891212
-0.10351
-0.0995016
-0.00910974
-0.00951875
-0.0985454
-0.0995734
-0.0942564
-0.0347285
-0.0833914
-0.0969537
-0.098851
-0.085269
-0.0752621
-0.0361654
-0.142782
-0.0896796
-0.10958
-0.111293
-0.0799791
-0.101222
-0.078198
-0.0862883
-0.0428695
-0.0646972
-0.101343
-0.101971
-0.0876389
-0.0920456
-0.0949859
-0.100154
-0.0957953
-0.0472219
-0.0840629
-0.0947649
-0.0895778
-0.134426
-0.0472126
-0.072753
-0.0749375
-0.0710265
-0.0461804
-0.0461835
-0.0813684
-0.0656912
-0.0939556
-0.0505361
-0.0551483
-0.0180075
-0.0180074
-0.0376902
-0.0598703
-0.0403364
-0.0800532
-0.0865899
-0.0924013
-0.104116
-0.0944405
-0.0874369
-0.0688371
-0.0425827
-0.0864293
-0.0895445
-0.0866955
-0.0478535
-0.0442436
-0.0344502
-0.0865731
-0.0883221
-0.0709669
-0.0801614
-0.0739713
-0.0677378
-0.0906634
-0.0677319
-0.0800185
-0.0771539
-0.0472998
-0.0583971
-0.0542822
-0.0958713
-0.0379028
-0.0399295
-0.0390618
-0.0905415
-0.0360904
-0.0353454
-0.0629912
-0.0329662
-0.0733143
-0.0734252
-0.0338403
-0.0798308
-0.0375662
-0.0373401
-0.0420705
-0.0356253
-0.0349801
-0.0522195
-0.0415792
-0.0377823
-0.035736
-0.0730947
-0.0834323
-0.0393385
-0.0806783
-0.032408
-0.0818441
-0.0650218
-0.0338585
-0.0286706
-0.0319846
-0.0424392
-0.0702842
-0.0578698
-0.0242121
-0.0268754
-0.0783564
-0.0227914
-0.0227912
-0.0258252
-0.028987
-0.0327487
-0.0381263
-0.0630406
-0.0583544
-0.0784105
-0.022898
-0.0228979
-0.0689191
-0.0283309
-0.0558634
-0.025672
-0.0258278
-0.0340307
-0.0590933
-0.0611902
-0.0651883
-0.059743
-0.0590918
-0.0129104
-0.0953869
-0.0164682
-0.0159561
-0.0770565
-0.0765219
-0.0165351
-0.0114847
-0.016182
-0.071078
SCALARS cell_type float
LOOKUP_TABLE default
0
0
0
0
0
0
0
0
0
0
0
0
0
0
0
0
0
0
0
0
0
1
0
0
0
0
0
0
0
0
0
0
0
0
0
0
0
0
0
0
0
0
0
0
0
0
0
0
0
0
0
0
0
0
0
0
0
0
0
0
0
0
0
0
0
0
0
0
0
0
0
0
0
0
0
0
0
0
0
0
0
0
0
0
0
0
0
0
0
0
0
0
0
0
0
0
0
0
0
0
0
0
0
0
0
0
0
0
0
0
0
0
0
0
0
0
0
0
0
0
0
0
0
0
0
0
0
0
0
0
0
0
0
0
0
0
0
0
0
0
0
0
0
0
0
0
0
0
0
0
0
0
0
0
0
0
0
0
0
0
0
0
0
0
0
0
0
0
0
0
0
0
0
0
0
0
0
0
0
0
0
0
0
0
0
0
0
0
0
0
0
0
0
0
0
0
0
0
0
0
0
0
0
0
0
0
0
0
0
0
0
0
0
0
0
0
0
0
0
0
0
0
0
0
0
0
0
0
0
0
0
0
0
0
0
0
0
0
0
0
0
0
0
0
0
0
0
0
0
0
0
0
0
0
0
0
0
0
0
0
0
0
0
0
0
0
0
0
0
0
0
0
0
0
0
0
0
0
0
0
0
0
0
0
0
0
0
0
0
0
0
0
0
0
0
0
0
0
0
0
0
0
0
0
0
0
0
0
0
0
0
0
0
0
0
0
0
0
0
0
0
0
0
0
0
0
0
0
0
0
0
0
0
0
0
0
0
0
0
0
0
0
0
0
0
0
0
0
0
0
2
2
2
2
2
2
2
0
0
0
0
0
0
0
0
0
0
0
0
0
0
0
0
0
0
0
0
0
0
0
0
0
0
0
0
0
0
0
0
0
0
0
0
0
0
0
0
0
0
0
0
0
0
0
0
0
0
0
0
0
0
0
0
0
0
0
1
1
0
0
0
0
0
0
0
0
0
0
0
0
0
0
0
0
0
0
0
0
0
0
0
0
0
0
0
0
0
0
0
0
0
0
0
0
0
0
0
0
0
0
0
1
1
0
0
0
0
0
0
0
0
0
0
0
0
0
0
0
0
0
0
0
0
0
0
0
0
0
0
0
0
0
0
0
0
0
0
0
0
0
0
0
0
0
0
0
0
0
0
0
0
0
0
0
0
0
0
0
0
0
0
0
0
0
0
0
0
0
1
1
0
0
0
0
0
0
0
0
0
0
0
0
0
0
0
0
0
0
0
0
0
0
0
0
0
0
0
0
0
0
0
0
0
TENSORS Lagrange_strain float
0.0305674 -0.00319827 1.76528e-08
-0.00319827 0.0133887 -1.70788e-07
1.76528e-08 -1.70788e-07 0.00740157

0.0291919 -0.00280082 5.66682e-08
-0.00280082 0.0335531 1.91172e-08
5.66682e-08 1.91172e-08 0.0331626

0.0300203 0.00367889 -3.79733e-08
0.00367889 0.0311687 4.23791e-08
-3.79733e-08 4.23791e-08 0.030467

0.0291611 -0.00392475 8.38247e-08
-0.00392475 0.0327982 2.82786e-08
8.38247e-08 2.82786e-08 0.0330874

0.0353665 0.00266898 -2.95046e-08
0.00266898 0.0380855 8.67835e-08
-2.95046e-08 8.67835e-08 0.0352916

0.0277344 -0.00236704 -1.0131e-07
-0.00236704 0.0333831 2.22915e-09
-1.0131e-07 2.22915e-09 0.030438

0.0302614 0.00339396 1.49401e-08
0.00339396 0.0134944 -5.38708e-08
1.49401e-08 -5.38708e-08 0.00746301

0.0317539 0.00393958 1.18481e-07
0.00393958 0.0311992 7.70378e-08
1.18481e-07 7.70378e-08 0.0315598

0.033241 0.000715367 -2.56281e-07
0.000715367 0.0262207 3.06754e-08
-2.56281e-07 3.06754e-08 0.0281413

0.035466 -0.000991021 -4.64198e-08
-0.000991021 0.0275503 -4.1778e-08
-4.64198e-08 -4.1778e-08 0.0327201

0.0280605 0.00205105 -1.62788e-07
0.00205105 0.0138087 2.59416e-07
-1.62788e-07 2.59416e-07 0.0117532

0.0279523 -0.00176576 -1.25429e-07
-0.00176576 0.0350053 -7.39465e-08
-1.25429e-07 -7.39465e-08 0.0315484

0.0311202 0.0036571 1.60809e-07
0.0036571 0.0312995 -5.87994e-08
1.60809e-07 -5.87994e-08 0.0310787

0.0290685 -0.00187992 -1.1387e-07
-0.00187992 0.0347983 -2.41639e-08
-1.1387e-07 -2.41639e-08 0.0325456

0.034631 0.00441842 4.41065e-08
0.00441842 0.0343619 -3.15553e-08
4.41065e-08 -3.15553e-08 0.0348839

0.0343264 7.30316e-05 1.52908e-07
7.30316e-05 0.0272851 -3.11535e-08
1.52908e-07 -3.11535e-08 0.0307775

0.0286922 -0.00235376 -1.33669e-07
-0.00235376 0.0360125 -9.22174e-08
-1.33669e-07 -9.22174e-08 0.0334492

0.0345719 -0.000353008 -5.22723e-08
-0.000353008 0.0273555 -3.43725e-08
-5.22723e-08 -3.43725e-08 0.0319762

0.0269192 0.0034781 4.34638e-08
0.0034781 0.030944 -1.20393e-07
4.34638e-08 -1.20393e-07 0.0275758

0.0338834 -0.000550309 6.40379e-08
-0.000550309 0.0264085 -1.59384e-07
6.40379e-08 -1.59384e-07 0.0301334

0.0266212 0.00113507 1.01966e-07
0.00113507 0.034033 1.24898e-07
1.01966e-07 1.24898e-07 0.0291491

0.0452949 0.000853007 1.47748e-07
0.000853007 0.0452654 5.63766e-08
1.47748e-07 5.63766e-08 0.0366375

0.0336743 0.000247451 5.79499e-08
0.000247451 0.0263146 -2.47672e-09
5.79499e-08 -2.47672e-09 0.0298042

0.0293086 -0.00363196 -5.97658e-09
-0.00363196 0.0311351 1.17306e-08
-5.97658e-09 1.17306e-08 0.0300459

0.0337785 0.000900034 1.25342e-07
0.000900034 0.0264955 3.54651e-08
1.25342e-07 3.54651e-08 0.0300804

0.0285454 0.00250754 -1.50431e-08
0.00250754 0.0338925 -2.27468e-07
-1.50431e-08 -2.27468e-07 0.0322861

0.0286288 0.000526644 -7.69207e-09
0.000526644 0.0176893 -6.28211e-08
-7.69207e-09 -6.28211e-08 0.013171

0.0309132 0.00403441 1.16453e-07
0.00403441 0.0306456 3.98965e-08
1.16453e-07 3.98965e-08 0.0306099

0.0259239 0.00477621 2.20317e-07
0.00477621 0.0257322 -1.33111e-07
2.20317e-07 -1.33111e-07 0.0211274

0.0415287 0.00136978 6.92096e-08
0.00136978 0.0383502 6.22315e-08
6.92096e-08 6.22315e-08 0.0361346

0.0344096 0.00187123 1.3742e-07
0.00187123 0.0279516 5.68774e-08
1.3742e-07 5.68774e-08 0.0309992

0.0217591 -0.00228775 -1.61823e-07
-0.00228775 0.0299916 -2.0587e-07
-1.61823e-07 -2.0587e-07 0.0211243

0.0228628 -0.00535223 2.11511e-07
-0.00535223 0.0234724 -2.43329e-07
2.11511e-07 -2.43329e-07 0.0125786

0.0348321 0.00080051 -4.30911e-08
0.00080051 0.0422547 -1.0411e-07
-4.30911e-08 -1.0411e-07 0.0357856

0.0374529 -0.000661757 1.27657e-07
-0.000661757 0.0412017 -6.14051e-08
1.27657e-07 -6.14051e-08 0.0359002

0.0410745 0.00281348 -1.15724e-07
0.00281348 0.0359856 2.12104e-07
-1.15724e-07 2.12104e-07 0.0357658

0.0372534 0.000705414 9.73508e-09
0.000705414 0.0432156 -5.28861e-08
9.73508e-09 -5.28861e-08 0.036141

0.0402615 -0.00121865 3.35955e-07
-0.00121865 0.0378298 1.10052e-07
3.35955e-07 1.10052e-07 0.0358075

0.0312148 -0.00367779 -1.71395e-07
-0.00367779 0.0311226 1.73449e-09
-1.71395e-07 1.73449e-09 0.0309246

0.0227469 0.00527887 1.07333e-07
0.00527887 0.0237083 1.69786e-07
1.07333e-07 1.69786e-07 0.0125807

0.0297601 -0.0023158 -4.72262e-08
-0.0023158 0.0220303 3.71413e-08
-4.72262e-08 3.71413e-08 0.0208742

0.0376188 -0.000522775 5.12681e-08
-0.000522775 0.0430638 1.46436e-07
5.12681e-08 1.46436e-07 0.0361436

0.0412407 0.00263438 6.73494e-08
0.00263438 0.0394148 -7.92535e-08
6.73494e-08 -7.92535e-08 0.0361262

0.0342999 -0.00161716 -5.7737e-10
-0.00161716 0.0279937 1.1352e-07
-5.7737e-10 1.1352e-07 0.0310831

0.023105 -0.0055256 -2.16766e-07
-0.0055256 0.0235621 2.24523e-07
-2.16766e-07 2.24523e-07 0.0162156

0.0299426 -0.00233208 -7.29139e-08
-0.00233208 0.0221546 -1.66357e-07
-7.29139e-08 -1.66357e-07 0.0213436

0.0258929 0.00222726 1.09086e-07
0.00222726 0.0326531 1.09589e-07
1.09086e-07 1.09589e-07 0.0279145

0.0275501 0.00252876 8.74931e-08
0.00252876 0.0323726 -1.86289e-07
8.74931e-08 -1.86289e-07 0.02849

0.0341743 -0.00214071 -7.55288e-09
-0.00214071 0.0271065 1.06778e-07
-7.55288e-09 1.06778e-07 0.0304713

0.0229019 -0.00439223 1.24621e-07
-0.00439223 0.0272481 2.05036e-07
1.24621e-07 2.05036e-07 0.0198497

0.0294929 0.00247142 4.76947e-08
0.00247142 0.0218336 5.68722e-08
4.76947e-08 5.68722e-08 0.0202803

0.0298713 -0.00327082 3.80548e-08
-0.00327082 0.0245128 -8.37296e-08
3.80548e-08 -8.37296e-08 0.0230475

0.0344771 0.00257771 1.09428e-07
0.00257771 0.0382028 -3.3962e-08
1.09428e-07 -3.3962e-08 0.0352702

0.0286887 0.00383835 3.03683e-08
0.00383835 0.0257788 -1.2845e-07
3.03683e-08 -1.2845e-07 0.023116

0.0349272 -0.00291609 -6.448e-08
-0.00291609 0.0374321 4.80417e-08
-6.448e-08 4.80417e-08 0.0351886

0.0255794 -0.00545511 2.58164e-07
-0.00545511 0.0229016 -1.11111e-07
2.58164e-07 -1.11111e-07 0.0158191

0.0373464 0.000745851 1.93626e-07
0.000745851 0.041412 8.22425e-08
1.93626e-07 8.22425e-08 0.0359207

0.023167 -0.000693229 -2.87447e-08
-0.000693229 0.0313123 2.3119e-08
-2.87447e-08 2.3119e-08 0.0231021

0.0410292 0.0013798 6.37035e-08
0.0013798 0.0377066 -8.5785e-08
6.37035e-08 -8.5785e-08 0.0358988

0.027675 0.00280512 1.33228e-07
0.00280512 0.0327488 -2.32238e-08
1.33228e-07 -2.32238e-08 0.0302303

0.0361383 0.000784778 1.44554e-09
0.000784778 0.0281308 -7.3462e-08
1.44554e-09 -7.3462e-08 0.0336724

0.0362536 0.00153415 -1.81234e-09
0.00153415 0.0316923 -1.05664e-07
-1.81234e-09 -1.05664e-07 0.0342201

0.0286364 0.00405689 -2.1431e-07
0.00405689 0.0198969 1.76429e-08
-2.1431e-07 1.76429e-08 0.0137588

0.0309718 -0.000783655 1.3907e-07
-0.000783655 0.0370841 7.77285e-08
1.3907e-07 7.77285e-08 0.0338809

0.0315545 0.00124338 -2.35162e-08
0.00124338 0.0364204 -1.71793e-09
-2.35162e-08 -1.71793e-09 0.0342589

0.0285483 -0.000374983 9.02964e-08
-0.000374983 0.0369552 -2.16712e-07
9.02964e-08 -2.16712e-07 0.03267

0.029602 0.00307126 -1.40801e-07
0.00307126 0.0347905 8.414e-08
-1.40801e-07 8.414e-08 0.0337082

0.0347184 0.00112208 1.83465e-09
0.00112208 0.0278379 4.68001e-08
1.83465e-09 4.68001e-08 0.0322078

0.0291865 -0.0036989 -2.23414e-08
-0.0036989 0.0310201 -5.02353e-08
-2.23414e-08 -5.02353e-08 0.0299088

0.0350538 -0.000236851 1.75691e-07
-0.000236851 0.0275791 -3.75771e-08
1.75691e-07 -3.75771e-08 0.0333924

0.0344518 -0.0025481 1.40606e-07
-0.0025481 0.0381336 6.77219e-10
1.40606e-07 6.77219e-10 0.0352603

0.0350102 0.00284965 4.47484e-08
0.00284965 0.0375697 -8.47462e-08
4.47484e-08 -8.47462e-08 0.0352401

0.0218881 -0.00213162 -7.29902e-08
-0.00213162 0.0299213 -1.33371e-07
-7.29902e-08 -1.33371e-07 0.0208507

0.0347007 -0.00369093 1.51854e-07
-0.00369093 0.0319572 9.61429e-09
1.51854e-07 9.61429e-09 0.0330783

0.0292912 -0.0032972 -1.04686e-08
-0.0032972 0.0321117 -2.92948e-08
-1.04686e-08 -2.92948e-08 0.0304326

0.0267789 -0.00401678 -1.17481e-07
-0.00401678 0.0176049 -5.5282e-08
-1.17481e-07 -5.5282e-08 0.0127256

0.0324035 0.000418895 -3.40455e-08
0.000418895 0.0381044 1.44151e-09
-3.40455e-08 1.44151e-09 0.0344051

0.0345364 0.00381716 1.56828e-08
0.00381716 0.0309408 1.7058e-07
1.56828e-08 1.7058e-07 0.0326596

0.0283759 0.00258155 1.10845e-07
0.00258155 0.0341286 -3.52972e-09
1.10845e-07 -3.52972e-09 0.032213

0.0315408 0.00103768 2.40405e-07
0.00103768 0.0228434 1.20283e-07
2.40405e-07 1.20283e-07 0.0240685

0.0270966 -0.00435848 -3.67679e-08
-0.00435848 0.0237362 2.40824e-07
-3.67679e-08 2.40824e-07 0.018323

0.0362597 -0.00140306 9.9211e-08
-0.00140306 0.0387416 1.38003e-07
9.9211e-08 1.38003e-07 0.0354006

0.0315553 0.00317091 4.15362e-08
0.00317091 0.0344009 -3.1493e-08
4.15362e-08 -3.1493e-08 0.0340896

0.0273005 -0.00415593 -2.22986e-09
-0.00415593 0.0221744 -4.83952e-08
-2.22986e-09 -4.83952e-08 0.0184108

0.0303572 0.00139096 1.20238e-08
0.00139096 0.0228299 1.24404e-07
1.20238e-08 1.24404e-07 0.0209539

0.0186017 -0.00269682 1.70017e-08
-0.00269682 0.0289274 3.60138e-07
1.70017e-08 3.60138e-07 0.0158926

0.0271992 0.00188873 4.93377e-08
0.00188873 0.0343189 -1.67065e-09
4.93377e-08 -1.67065e-09 0.0306538

0.035381 0.00305649 1.56829e-07
0.00305649 0.0308194 6.2791e-08
1.56829e-07 6.2791e-08 0.032753

0.0226474 0.00538566 6.4609e-08
0.00538566 0.0240879 1.20586e-07
6.4609e-08 1.20586e-07 0.0161981

0.0459479 0.00223924 -3.98991e-07
0.00223924 0.0417503 2.25272e-07
-3.98991e-07 2.25272e-07 0.0366385

0.0230808 -0.000534269 1.69859e-08
-0.000534269 0.031353 5.64898e-08
1.69859e-08 5.64898e-08 0.0230719

0.0463635 -0.00225609 4.00354e-07
-0.00225609 0.0412937 -1.10142e-07
4.00354e-07 -1.10142e-07 0.0365936

0.0370642 -0.00362453 -5.11701e-08
-0.00362453 0.0334904 2.50561e-08
-5.11701e-08 2.50561e-08 0.0346202

0.0351365 0.00361918 1.39934e-07
0.00361918 0.0300032 1.25104e-07
1.39934e-07 1.25104e-07 0.0324557

0.0299613 -0.00315865 -1.65371e-07
-0.00315865 0.0246899 -2.25321e-08
-1.65371e-07 -2.25321e-08 0.0232853

0.0230117 0.00402969 1.75464e-07
0.00402969 0.0277783 -8.83305e-08
1.75464e-07 -8.83305e-08 0.0203815

0.0210934 -0.00137843 -1.9316e-07
-0.00137843 0.0298942 -1.20212e-07
-1.9316e-07 -1.20212e-07 0.018251

0.0287449 0.0028887 1.20672e-07
0.0028887 0.0342263 -1.79016e-09
1.20672e-07 -1.79016e-09 0.0326989

0.0370112 0.00223598 -5.31391e-08
0.00223598 0.0334518 4.41602e-08
-5.31391e-08 4.41602e-08 0.0343836

0.0281477 0.00198832 1.12091e-07
0.00198832 0.0340588 3.59799e-09
1.12091e-07 3.59799e-09 0.0308646

0.0318816 0.00207295 2.52913e-08
0.00207295 0.0252534 -2.17649e-07
2.52913e-08 -2.17649e-07 0.0256168

0.0239069 -0.00277431 -5.16775e-08
-0.00277431 0.029764 -1.31217e-07
-5.16775e-08 -1.31217e-07 0.0215609

0.0278979 -0.00376363 -1.2197e-07
-0.00376363 0.0218146 3.11674e-08
-1.2197e-07 3.11674e-08 0.0180755

0.0293306 -0.00323165 7.26156e-08
-0.00323165 0.0326287 -6.43012e-08
7.26156e-08 -6.43012e-08 0.032402

0.0306253 0.00361463 1.51677e-07
0.00361463 0.0322278 -7.24718e-08
1.51677e-07 -7.24718e-08 0.0323699

0.0287071 0.00304804 1.20756e-07
0.00304804 0.0340257 -2.10489e-07
1.20756e-07 -2.10489e-07 0.0326293

0.0292061 0.0017252 -2.57635e-08
0.0017252 0.0376171 -2.93026e-09
-2.57635e-08 -2.93026e-09 0.0338453

0.034476 0.00123222 8.75384e-08
0.00123222 0.027523 3.49437e-08
8.75384e-08 3.49437e-08 0.0306739

0.0199602 -0.000605129 -1.2616e-07
-0.000605129 0.0296597 -5.33671e-08
-1.2616e-07 -5.33671e-08 0.0181034

0.0297962 -0.00486313 -1.66093e-07
-0.00486313 0.0330481 1.44977e-08
-1.66093e-07 1.44977e-08 0.0337407

0.0290803 0.00359995 -1.17661e-07
0.00359995 0.0313588 -1.84535e-08
-1.17661e-07 -1.84535e-08 0.0302631

0.0181051 0.000282829 -5.08745e-08
0.000282829 0.0293097 -1.51168e-07
-5.08745e-08 -1.51168e-07 0.0168779

0.0278423 0.00442351 -1.14576e-07
0.00442351 0.0209676 9.68929e-08
-1.14576e-07 9.68929e-08 0.0174542

0.0291903 -0.00302042 8.86038e-08
-0.00302042 0.0327019 1.0872e-07
8.86038e-08 1.0872e-07 0.0321844

0.0352416 0.000759561 -1.98884e-08
0.000759561 0.0273377 8.79039e-08
-1.98884e-08 8.79039e-08 0.0325518

0.0294264 0.00352002 -1.34861e-07
0.00352002 0.0252004 1.05619e-07
-1.34861e-07 1.05619e-07 0.0231105

0.0396355 0.00170982 -1.18835e-07
0.00170982 0.0390387 -3.4951e-08
-1.18835e-07 -3.4951e-08 0.0359393

0.0283738 0.00312324 -1.17733e-07
0.00312324 0.0224008 2.02608e-07
-1.17733e-07 2.02608e-07 0.0182858

0.0394884 -0.00175075 5.20505e-08
-0.00175075 0.039065 3.93434e-08
5.20505e-08 3.93434e-08 0.0359044

0.0232603 0.000103513 1.41373e-07
0.000103513 0.0315167 4.51125e-08
1.41373e-07 4.51125e-08 0.0231189

0.0327577 -0.000288522 -1.43331e-07
-0.000288522 0.0246592 1.47372e-07
-1.43331e-07 1.47372e-07 0.0269654

0.0380534 -0.00212919 7.51458e-08
-0.00212919 0.0304628 -1.33124e-07
7.51458e-08 -1.33124e-07 0.0347924

0.0292373 0.00320566 5.8236e-08
0.00320566 0.0332765 -1.37719e-07
5.8236e-08 -1.37719e-07 0.0333419

0.0289496 -0.00177268 2.9331e-08
-0.00177268 0.0366082 -6.50948e-09
2.9331e-08 -6.50948e-09 0.0334987

0.0365827 -0.00108503 1.63268e-07
-0.00108503 0.0264752 -1.7974e-08
1.63268e-07 -1.7974e-08 0.0338591

0.0311793 -0.00292578 1.35594e-07
-0.00292578 0.0383049 1.51118e-07
1.35594e-07 1.51118e-07 0.0348427

0.0381645 -0.00088454 -1.85637e-07
-0.00088454 0.0387305 9.14272e-08
-1.85637e-07 9.14272e-08 0.0358345

0.0301789 -0.00393995 4.9241e-08
-0.00393995 0.0327091 1.08935e-07
4.9241e-08 1.08935e-07 0.0327623

0.0213321 0.00146951 2.25532e-07
0.00146951 0.0296126 6.52775e-09
2.25532e-07 6.52775e-09 0.018295

0.0293869 -0.00364551 6.28837e-08
-0.00364551 0.0253483 -2.67038e-08
6.28837e-08 -2.67038e-08 0.0231811

0.0328586 -0.00181717 9.67672e-08
-0.00181717 0.0397163 1.3902e-07
9.67672e-08 1.3902e-07 0.0352401

0.0350898 7.6515e-05 -4.6053e-09
7.6515e-05 0.027221 8.92806e-08
-4.6053e-09 8.92806e-08 0.0332502

0.0308174 -0.00282896 4.16698e-08
-0.00282896 0.0348902 -2.72021e-08
4.16698e-08 -2.72021e-08 0.0340831

0.0295334 0.00338865 -6.01058e-08
0.00338865 0.0328704 7.6063e-08
-6.01058e-08 7.6063e-08 0.0333249

0.0264594 -0.00406313 7.97241e-08
-0.00406313 0.0272607 2.04399e-07
7.97241e-08 2.04399e-07 0.0215836

0.0371718 -0.000958409 -3.60921e-08
-0.000958409 0.0416093 -1.02962e-07
-3.60921e-08 -1.02962e-07 0.0358856

0.0227102 -0.0042374 2.83668e-07
-0.0042374 0.0272424 -5.01385e-08
2.83668e-07 -5.01385e-08 0.0168768

0.0341818 -0.00252468 -4.20076e-09
-0.00252468 0.0286053 -2.28169e-07
-4.20076e-09 -2.28169e-07 0.0310434

0.0364245 0.000289876 1.2233e-07
0.000289876 0.0294364 4.49911e-08
1.2233e-07 4.49911e-08 0.0341927

0.0396399 0.00239652 3.08132e-09
0.00239652 0.0391129 6.78663e-08
3.08132e-09 6.78663e-08 0.0358666

0.0238553 0.00260909 2.85726e-08
0.00260909 0.0301506 1.81933e-07
2.85726e-08 1.81933e-07 0.021798

0.0334297 0.00358129 -4.12501e-08
0.00358129 0.0307141 7.97576e-08
-4.12501e-08 7.97576e-08 0.0317662

0.0316419 -0.00319419 -8.38002e-08
-0.00319419 0.026551 -6.35802e-08
-8.38002e-08 -6.35802e-08 0.0269344

0.0289281 -0.00234114 -5.51971e-08
-0.00234114 0.0342338 -1.90566e-07
-5.51971e-08 -1.90566e-07 0.0326048

0.0262433 0.00450125 2.90753e-07
0.00450125 0.0245567 -4.44524e-08
2.90753e-07 -4.44524e-08 0.0180804

0.0284215 -0.00286657 2.68376e-08
-0.00286657 0.0340313 4.01722e-08
2.68376e-08 4.01722e-08 0.0324479

0.033148 0.00405857 -5.21489e-08
0.00405857 0.0304637 1.13582e-07
-5.21489e-08 1.13582e-07 0.0315413

0.0333333 -0.00331158 -1.02194e-07
-0.00331158 0.0283559 5.80123e-09
-1.02194e-07 5.80123e-09 0.0300448

0.02916 -0.00329546 -5.19784e-08
-0.00329546 0.0319859 -3.56447e-08
-5.19784e-08 -3.56447e-08 0.0304363

0.0314541 -0.0024292 -6.02023e-08
-0.0024292 0.024718 -9.77079e-08
-6.02023e-08 -9.77079e-08 0.0251553

0.0329542 -0.00246665 -5.61613e-08
-0.00246665 0.0267085 -6.03034e-08
-5.61613e-08 -6.03034e-08 0.0285955

0.0294902 -0.00334194 1.18659e-07
-0.00334194 0.0329492 -2.41136e-08
1.18659e-07 -2.41136e-08 0.0334063

0.0261329 0.00463357 -1.32906e-07
0.00463357 0.0255403 1.04393e-07
-1.32906e-07 1.04393e-07 0.0210916

0.0281492 0.00201678 6.45907e-08
0.00201678 0.0343345 1.01122e-09
6.45907e-08 1.01122e-09 0.0311084

0.0308857 0.00348107 3.86069e-08
0.00348107 0.0322544 -6.29102e-08
3.86069e-08 -6.29102e-08 0.0325992

0.0291562 0.00334809 1.8986e-07
0.00334809 0.0331903 -5.96477e-08
1.8986e-07 -5.96477e-08 0.0332594

0.0289831 0.00152305 1.02502e-09
0.00152305 0.0354697 8.78857e-08
1.02502e-09 8.78857e-08 0.0326945

0.0310515 -0.00106184 5.27842e-08
-0.00106184 0.0231406 5.93476e-08
5.27842e-08 5.93476e-08 0.0220772

0.0238831 0.00240554 -1.81817e-07
0.00240554 0.0304093 -1.11299e-07
-1.81817e-07 -1.11299e-07 0.0221122

0.0292124 -0.00320384 -1.40656e-08
-0.00320384 0.0326353 -1.49112e-08
-1.40656e-08 -1.49112e-08 0.0316174

0.0289865 0.00335673 -1.77801e-07
0.00335673 0.0309316 -8.60158e-08
-1.77801e-07 -8.60158e-08 0.0285671

0.0266117 -0.00459095 1.58284e-07
-0.00459095 0.0252296 -1.99712e-08
1.58284e-07 -1.99712e-08 0.0212559

0.0262768 0.00489316 3.03431e-07
0.00489316 0.0209456 -9.58416e-08
3.03431e-07 -9.58416e-08 0.0167617

0.0235021 -0.00428665 1.46985e-09
-0.00428665 0.0274634 -3.72254e-08
1.46985e-09 -3.72254e-08 0.0206256

0.0266709 -0.00402732 1.54148e-07
-0.00402732 0.0274814 -2.96364e-08
1.54148e-07 -2.96364e-08 0.0220492

0.0353641 -0.000906382 -8.75859e-08
-0.000906382 0.0273894 -6.41701e-08
-8.75859e-08 -6.41701e-08 0.0326541

0.0260442 0.00392138 1.2195e-07
0.00392138 0.0280914 1.9439e-08
1.2195e-07 1.9439e-08 0.0221018

0.0307871 0.00171661 5.74836e-08
0.00171661 0.0233596 -4.10293e-09
5.74836e-08 -4.10293e-09 0.0220248

0.0214303 0.00172203 2.11609e-07
0.00172203 0.0302396 -3.78098e-08
2.11609e-07 -3.78098e-08 0.0211321

0.0242621 -0.0028892 -7.51591e-08
-0.0028892 0.029951 -2.03315e-07
-7.51591e-08 -2.03315e-07 0.0220855

0.0313452 -0.000130926 3.70144e-08
-0.000130926 0.0392735 1.83292e-07
3.70144e-08 1.83292e-07 0.0346704

0.0230576 0.000294788 1.00676e-07
0.000294788 0.0314594 6.18547e-08
1.00676e-07 6.18547e-08 0.0230616

0.0227765 0.0040012 -2.57226e-07
0.0040012 0.0281266 -1.16991e-08
-2.57226e-07 -1.16991e-08 0.0206374

0.0288877 0.00158559 -1.62921e-07
0.00158559 0.0358322 -1.56241e-08
-1.62921e-07 -1.56241e-08 0.0328931

0.0293151 -0.00358 -1.40133e-07
-0.00358 0.025129 2.04381e-08
-1.40133e-07 2.04381e-08 0.023239

0.0369764 0.00273289 -4.82158e-08
0.00273289 0.0297226 -7.39975e-08
-4.82158e-08 -7.39975e-08 0.0338013

0.0371757 0.00348342 1.03827e-07
0.00348342 0.0334222 1.6199e-08
1.03827e-07 1.6199e-08 0.0346518

0.0345433 -0.00244644 -1.99602e-08
-0.00244644 0.0285292 1.47343e-08
-1.99602e-08 1.47343e-08 0.0313784

0.0390559 -0.00026561 1.62635e-07
-0.00026561 0.0339245 3.3643e-08
1.62635e-07 3.3643e-08 0.0352079

0.0314785 -0.00418721 1.09688e-07
-0.00418721 0.0317811 -2.29069e-07
1.09688e-07 -2.29069e-07 0.0321559

0.0294615 0.00300751 -9.50968e-08
0.00300751 0.0223268 2.07173e-07
-9.50968e-08 2.07173e-07 0.021066

0.0302294 0.00397307 -4.85435e-08
0.00397307 0.0326627 9.72487e-08
-4.85435e-08 9.72487e-08 0.0327195

0.0302766 0.00384677 2.73135e-08
0.00384677 0.0326067 1.64199e-07
2.73135e-08 1.64199e-07 0.0326743

0.0262436 0.00396148 -3.11756e-08
0.00396148 0.0277671 -9.70388e-08
-3.11756e-08 -9.70388e-08 0.0218643

0.0344495 0.00357666 8.07761e-08
0.00357666 0.0317793 7.99542e-08
8.07761e-08 7.99542e-08 0.0328311

0.0302476 0.000452262 7.3225e-08
0.000452262 0.020428 2.91543e-08
7.3225e-08 2.91543e-08 0.0205728

0.0331857 0.00420047 -1.71365e-08
0.00420047 0.0323726 -6.83877e-08
-1.71365e-08 -6.83877e-08 0.0334834

0.0305006 -0.00165432 -5.38545e-08
-0.00165432 0.0366159 -1.0377e-08
-5.38545e-08 -1.0377e-08 0.0336625

0.03736 0.00323285 -8.69276e-08
0.00323285 0.0334598 1.52682e-07
-8.69276e-08 1.52682e-07 0.034664

0.0307367 -0.00389588 3.0802e-08
-0.00389588 0.0322724 -7.34343e-08
3.0802e-08 -7.34343e-08 0.0326798

0.0293737 -0.000644997 8.35848e-08
-0.000644997 0.0369025 -2.17328e-07
8.35848e-08 -2.17328e-07 0.0328475

0.028812 -0.00315215 -8.97114e-08
-0.00315215 0.0221396 -1.661e-07
-8.97114e-08 -1.661e-07 0.0187586

0.029002 0.0038444 7.07569e-08
0.0038444 0.0255773 9.95821e-08
7.07569e-08 9.95821e-08 0.0230725

0.021701 0.00189088 3.25226e-08
0.00189088 0.0300609 1.82085e-07
3.25226e-08 1.82085e-07 0.0210834

0.0349898 -0.000161247 1.07534e-07
-0.000161247 0.0273891 -6.42506e-08
1.07534e-07 -6.42506e-08 0.0333012

0.0344195 2.5736e-07 -9.571e-08
2.5736e-07 0.0272742 -4.89787e-08
-9.571e-08 -4.89787e-08 0.0320408

0.0291652 0.00303978 1.61171e-08
0.00303978 0.0326795 1.64605e-07
1.61171e-08 1.64605e-07 0.0321323

0.0314493 0.00316587 -1.93663e-08
0.00316587 0.03425 -7.24089e-08
-1.93663e-08 -7.24089e-08 0.0340578

0.0291683 -0.00320413 -1.51217e-07
-0.00320413 0.0332379 -5.59514e-08
-1.51217e-07 -5.59514e-08 0.0333786

0.0287734 -8.56888e-05 1.8988e-07
-8.56888e-05 0.0367039 -7.8496e-08
1.8988e-07 -7.8496e-08 0.0325253

0.0294634 0.00337561 -1.42703e-07
0.00337561 0.0330743 -9.64952e-08
-1.42703e-07 -9.64952e-08 0.0333543

0.0328589 -0.00134643 1.29234e-07
-0.00134643 0.0253615 -1.07117e-07
1.29234e-07 -1.07117e-07 0.0278285

0.0263546 -0.00425448 1.95796e-07
-0.00425448 0.0281792 1.34477e-08
1.95796e-07 1.34477e-08 0.0242672

0.0362972 -0.000331593 -5.60296e-08
-0.000331593 0.0293829 8.74464e-08
-5.60296e-08 8.74464e-08 0.0340276

0.0267804 -0.00444549 -3.64059e-08
-0.00444549 0.0251901 1.69126e-08
-3.64059e-08 1.69126e-08 0.0209488

0.0308993 0.00250733 -2.66601e-08
0.00250733 0.0350625 1.04304e-07
-2.66601e-08 1.04304e-07 0.0340674

0.0351128 -0.00349698 9.01759e-09
-0.00349698 0.0303879 -2.79263e-08
9.01759e-09 -2.79263e-08 0.0326144

0.0305016 -0.00124976 -1.17778e-07
-0.00124976 0.0229781 -1.26855e-07
-1.17778e-07 -1.26855e-07 0.021478

0.0371473 -0.00307693 1.93192e-07
-0.00307693 0.0316529 2.12766e-09
1.93192e-07 2.12766e-09 0.0339876

0.0349685 0.000322023 4.15587e-08
0.000322023 0.0275543 -3.10884e-08
4.15587e-08 -3.10884e-08 0.0334295

0.0358425 -0.00308815 -3.54455e-08
-0.00308815 0.0332573 -3.26264e-08
-3.54455e-08 -3.26264e-08 0.0341432

0.0349283 -0.00341065 -1.63172e-07
-0.00341065 0.0295946 -8.56115e-08
-1.63172e-07 -8.56115e-08 0.0321777

0.0349088 -0.00113367 2.0308e-08
-0.00113367 0.0278497 1.10791e-07
2.0308e-08 1.10791e-07 0.032341

0.0314892 -0.00306231 5.31956e-08
-0.00306231 0.0344483 7.81268e-08
5.31956e-08 7.81268e-08 0.0341462

0.0292349 -0.0040709 -6.02728e-08
-0.0040709 0.0268994 1.51803e-07
-6.02728e-08 1.51803e-07 0.0253458

0.0349924 -0.00324366 -5.79325e-08
-0.00324366 0.0299152 3.29287e-07
-5.79325e-08 3.29287e-07 0.0321949

0.0314618 0.00140914 -3.29259e-08
0.00140914 0.0233268 -8.69812e-09
-3.29259e-08 -8.69812e-09 0.0244833

0.0336644 0.00348401 -6.33724e-08
0.00348401 0.0334435 3.20813e-09
-6.33724e-08 3.20813e-09 0.0336496

0.0298922 -0.00496718 2.96726e-09
-0.00496718 0.0330779 -1.95185e-08
2.96726e-09 -1.95185e-08 0.0338568

0.0300428 0.0049205 8.38898e-08
0.0049205 0.0329397 -1.06332e-07
8.38898e-08 -1.06332e-07 0.0338237

0.0276876 -0.00374187 4.56573e-08
-0.00374187 0.0348062 5.79383e-13
4.56573e-08 5.79383e-13 0.0337663

0.0279251 0.0035471 7.47037e-08
0.0035471 0.0348347 9.34429e-08
7.47037e-08 9.34429e-08 0.0337312

0.0364295 -0.00115366 -1.49483e-08
-0.00115366 0.0263414 1.54562e-07
-1.49483e-08 1.54562e-07 0.0337575

0.0361981 0.00124758 -4.39061e-08
0.00124758 0.0265628 -3.59434e-09
-4.39061e-08 -3.59434e-09 0.0337203

0.0350337 -0.00130643 -6.11424e-10
-0.00130643 0.0284678 6.62704e-08
-6.11424e-10 6.62704e-08 0.0325754

0.0344362 0.00425925 3.77085e-08
0.00425925 0.0342891 -7.14137e-08
3.77085e-08 -7.14137e-08 0.0348121

0.0343115 -0.00435712 -7.30757e-08
-0.00435712 0.0342806 3.30196e-08
-7.30757e-08 3.30196e-08 0.0348005

0.0305206 0.0020935 4.50798e-08
0.0020935 0.0381652 -3.70625e-08
4.50798e-08 -3.70625e-08 0.0348494

0.0306636 -0.0020594 5.96744e-08
-0.0020594 0.0380952 4.58705e-09
5.96744e-08 4.58705e-09 0.0348367

0.0395019 -0.000528781 3.85593e-08
-0.000528781 0.032849 7.30866e-08
3.85593e-08 7.30866e-08 0.0352575

0.0397044 0.000513359 -4.10665e-08
0.000513359 0.0326218 1.59431e-07
-4.10665e-08 1.59431e-07 0.0353028

0.0239647 0.00127604 2.1779e-08
0.00127604 0.0320025 -8.33875e-08
2.1779e-08 -8.33875e-08 0.025184

0.0311617 -0.00326533 5.29437e-08
-0.00326533 0.0322407 1.15082e-07
5.29437e-08 1.15082e-07 0.0328015

0.0277792 -0.00478588 9.78541e-08
-0.00478588 0.0333113 -6.16797e-08
9.78541e-08 -6.16797e-08 0.0334548

0.0333584 -0.000610221 1.01425e-07
-0.000610221 0.0264028 -1.56524e-07
1.01425e-07 -1.56524e-07 0.0284479

0.0381874 -0.00225189 8.4338e-08
-0.00225189 0.0307942 1.51128e-07
8.4338e-08 1.51128e-07 0.0348924

0.0382356 0.00218399 8.016e-08
0.00218399 0.0309074 -2.15903e-08
8.016e-08 -2.15903e-08 0.0349245

0.0360832 1.56217e-05 1.11042e-07
1.56217e-05 0.0251253 -1.5452e-07
1.11042e-07 -1.5452e-07 0.0334699

0.0242406 0.00302877 -7.65019e-08
0.00302877 0.0303971 -9.88032e-09
-7.65019e-08 -9.88032e-09 0.0242767

0.0276739 0.0047564 2.80029e-08
0.0047564 0.0333118 -6.64828e-08
2.80029e-08 -6.64828e-08 0.0333926

0.0286743 -0.00307588 -7.31009e-08
-0.00307588 0.0342607 -1.90266e-07
-7.31009e-08 -1.90266e-07 0.0327519

0.0310851 0.00303562 2.11085e-09
0.00303562 0.0251462 1.12904e-07
2.11085e-09 1.12904e-07 0.0254668

0.0372274 0.00316582 -6.36869e-08
0.00316582 0.0315404 5.39474e-08
-6.36869e-08 5.39474e-08 0.0340755

0.0292263 -0.00406714 -4.43135e-08
-0.00406714 0.0269354 -1.34832e-07
-4.43135e-08 -1.34832e-07 0.025321

0.0364014 -0.000453854 1.74279e-07
-0.000453854 0.0296912 3.77595e-09
1.74279e-07 3.77595e-09 0.0341306

0.0273443 -0.00449478 5.68315e-09
-0.00449478 0.033395 5.48381e-08
5.68315e-09 5.48381e-08 0.0334414

0.0240376 0.00107894 5.96019e-08
0.00107894 0.0322437 -1.23463e-07
5.96019e-08 -1.23463e-07 0.0255056

0.0242294 0.00282649 -1.1063e-07
0.00282649 0.0307009 3.25839e-08
-1.1063e-07 3.25839e-08 0.0245446

0.0267918 0.00459418 -1.24587e-07
0.00459418 0.0240414 1.15632e-07
-1.24587e-07 1.15632e-07 0.0182133

0.0298505 0.000199944 -9.43165e-08
0.000199944 0.0200882 -1.61575e-07
-9.43165e-08 -1.61575e-07 0.0193621

0.0319083 -0.00302371 -1.49818e-07
-0.00302371 0.0341619 3.65615e-08
-1.49818e-07 3.65615e-08 0.0340353

0.0229183 0.0039994 -1.87768e-07
0.0039994 0.0276598 1.12139e-07
-1.87768e-07 1.12139e-07 0.0176528

0.0292094 0.00310084 -1.1175e-07
0.00310084 0.032763 -2.95485e-08
-1.1175e-07 -2.95485e-08 0.0310119

0.0315941 -0.000694615 -1.10334e-07
-0.000694615 0.0231597 5.5161e-08
-1.10334e-07 5.5161e-08 0.0244845

0.0327609 0.00146446 -1.56322e-07
0.00146446 0.0253465 -2.0331e-07
-1.56322e-07 -2.0331e-07 0.0276126

0.0359777 5.60054e-05 9.934e-08
5.60054e-05 0.0249584 -7.90507e-08
9.934e-08 -7.90507e-08 0.0333859

0.0279655 -0.00380529 -1.32452e-07
-0.00380529 0.0349483 -2.22201e-08
-1.32452e-07 -2.22201e-08 0.0338157

0.0393145 -0.000843833 -2.84019e-07
-0.000843833 0.0416011 1.11798e-07
-2.84019e-07 1.11798e-07 0.0361898

0.0298673 0.00493887 -1.02011e-07
0.00493887 0.032956 7.49357e-08
-1.02011e-07 7.49357e-08 0.0337787

0.0302878 0.000214346 -1.21624e-07
0.000214346 0.0203966 1.63038e-08
-1.21624e-07 1.63038e-08 0.0172759

0.0266735 -0.00425034 1.23611e-07
-0.00425034 0.0281328 1.57943e-08
1.23611e-07 1.57943e-08 0.0244371

0.0277456 0.00481564 -1.18063e-07
0.00481564 0.0333145 -1.39802e-07
-1.18063e-07 -1.39802e-07 0.033455

0.0279448 -0.0014584 1.74587e-07
-0.0014584 0.0350845 -3.53578e-08
1.74587e-07 -3.53578e-08 0.0314499

0.0244647 -0.00330514 -1.05995e-07
-0.00330514 0.0300149 -4.34151e-08
-1.05995e-07 -4.34151e-08 0.0242168

0.0279902 0.00377966 -8.69631e-08
0.00377966 0.0349097 1.08189e-07
-8.69631e-08 1.08189e-07 0.0337865

0.0313613 -0.00340927 1.50487e-08
-0.00340927 0.0270083 1.59409e-07
1.50487e-08 1.59409e-07 0.026991

0.0402791 0.00140891 -1.06509e-07
0.00140891 0.0406178 2.56214e-07
-1.06509e-07 2.56214e-07 0.0361702

0.0258807 0.00400274 9.31376e-08
0.00400274 0.0289541 -3.44091e-08
9.31376e-08 -3.44091e-08 0.0245107

0.0366774 0.00110302 1.09416e-07
0.00110302 0.0263518 6.47088e-08
1.09416e-07 6.47088e-08 0.0338974

0.0333417 0.00398409 2.52051e-08
0.00398409 0.0321153 -5.87651e-08
2.52051e-08 -5.87651e-08 0.0333154

0.0292276 0.00306732 -6.92897e-08
0.00306732 0.032605 9.65237e-08
-6.92897e-08 9.65237e-08 0.0321574

0.0343645 -0.00431109 -1.89673e-07
-0.00431109 0.0345049 8.38321e-08
-1.89673e-07 8.38321e-08 0.0348847

0.0354893 -0.00306362 -5.48638e-08
-0.00306362 0.03059 -1.58183e-07
-5.48638e-08 -1.58183e-07 0.0327502

0.0333663 0.00138795 -1.83062e-07
0.00138795 0.0395773 -1.46125e-07
-1.83062e-07 -1.46125e-07 0.0350023

0.0291967 -0.00307937 -1.75987e-08
-0.00307937 0.0328736 2.77906e-07
-1.75987e-08 2.77906e-07 0.0313831

0.0292643 -0.00123219 8.30885e-08
-0.00123219 0.0192869 -1.08347e-07
8.30885e-08 -1.08347e-07 0.016412

0.0287783 -0.0018323 -1.60142e-07
-0.0018323 0.0184138 -6.4101e-08
-1.60142e-07 -6.4101e-08 0.0161969

0.0385293 0.00220198 3.02421e-08
0.00220198 0.033239 -6.57821e-08
3.02421e-08 -6.57821e-08 0.0347627

0.0280556 0.00294483 -1.64151e-07
0.00294483 0.032335 -5.74271e-08
-1.64151e-07 -5.74271e-08 0.0295179

0.0320672 0.00383432 4.32359e-08
0.00383432 0.0309605 1.72666e-07
4.32359e-08 1.72666e-07 0.0314542

0.0320495 8.98495e-05 2.50892e-07
8.98495e-05 0.0245767 9.85582e-08
2.50892e-07 9.85582e-08 0.0248879

0.0302375 0.00086606 1.85696e-07
0.00086606 0.0385808 6.86653e-08
1.85696e-07 6.86653e-08 0.0340962

0.0354016 0.00219141 -6.8543e-08
0.00219141 0.0293228 -1.00345e-07
-6.8543e-08 -1.00345e-07 0.0328581

0.0248113 -0.00333871 -1.12205e-07
-0.00333871 0.0300061 -1.45763e-07
-1.12205e-07 -1.45763e-07 0.0244699

0.0286505 -0.000337809 -1.63109e-07
-0.000337809 0.0366567 -1.12315e-07
-1.63109e-07 -1.12315e-07 0.0323956

0.0252151 0.00174 -2.95375e-08
0.00174 0.0320292 -8.49671e-08
-2.95375e-08 -8.49671e-08 0.0256838

0.0332806 -0.00390977 1.27579e-07
-0.00390977 0.0304969 -1.47131e-07
1.27579e-07 -1.47131e-07 0.0315922

0.0290645 -0.00389605 2.96153e-08
-0.00389605 0.0282 7.94244e-09
2.96153e-08 7.94244e-09 0.0257134

0.0261489 0.00409864 5.8365e-08
0.00409864 0.0285462 6.08863e-08
5.8365e-08 6.08863e-08 0.024318

0.0452866 -0.00201744 -1.40724e-07
-0.00201744 0.0396065 -1.44171e-07
-1.40724e-07 -1.44171e-07 0.0363668

0.0316666 0.000256253 6.5489e-08
0.000256253 0.039327 -1.15855e-07
6.5489e-08 -1.15855e-07 0.034769

0.0306165 0.00265098 -3.51066e-08
0.00265098 0.0384425 3.99537e-08
-3.51066e-08 3.99537e-08 0.0349575

0.0387658 0.0020951 1.33552e-07
0.0020951 0.0302215 3.23861e-08
1.33552e-07 3.23861e-08 0.0349424

0.0313706 -0.00345048 1.627e-08
-0.00345048 0.0321402 -9.58099e-08
1.627e-08 -9.58099e-08 0.0325725

0.0318176 0.00233609 1.66608e-08
0.00233609 0.0256201 9.15635e-08
1.66608e-08 9.15635e-08 0.0258795

0.0349937 -0.000708272 -2.58078e-07
-0.000708272 0.0415752 -5.63476e-10
-2.58078e-07 -5.63476e-10 0.0357276

0.0357879 -0.00251876 3.19179e-08
-0.00251876 0.0295501 8.40371e-08
3.19179e-08 8.40371e-08 0.0332578

0.0332968 -0.00203961 -4.81415e-08
-0.00203961 0.0266525 -3.97897e-08
-4.81415e-08 -3.97897e-08 0.0286752

0.0252522 0.00151083 -1.31938e-08
0.00151083 0.032274 -1.26216e-07
-1.31938e-08 -1.26216e-07 0.0259499

0.0268046 -0.00334466 1.70881e-07
-0.00334466 0.0300092 -3.36365e-08
1.70881e-07 -3.36365e-08 0.0251871

0.0364772 -0.00336036 8.58862e-08
-0.00336036 0.0352878 2.11017e-07
8.58862e-08 2.11017e-07 0.0347422

0.0284756 0.00415214 1.25462e-10
0.00415214 0.027716 -1.85809e-07
1.25462e-10 -1.85809e-07 0.0254676

0.0372438 -0.00334526 -2.91638e-08
-0.00334526 0.0333219 7.85473e-08
-2.91638e-08 7.85473e-08 0.0346114

0.0322059 0.000337894 -9.46391e-08
0.000337894 0.0248624 8.5909e-08
-9.46391e-08 8.5909e-08 0.0254374

0.0191609 -0.00368904 4.23166e-08
-0.00368904 0.0275255 2.67274e-07
4.23166e-08 2.67274e-07 0.0163107

0.0292096 -0.00380357 -1.32865e-07
-0.00380357 0.0281924 -7.12771e-09
-1.32865e-07 -7.12771e-09 0.0258075

0.0230457 0.00412736 1.52684e-07
0.00412736 0.02802 -1.28279e-07
1.52684e-07 -1.28279e-07 0.017592

0.0296908 -0.0015596 1.35961e-07
-0.0015596 0.0375333 7.84548e-08
1.35961e-07 7.84548e-08 0.0336483

0.0243599 -0.00179362 4.03481e-09
-0.00179362 0.0318719 -2.74185e-08
4.03481e-09 -2.74185e-08 0.0254477

0.0424367 -0.00323434 -8.64565e-08
-0.00323434 0.0423764 -6.26953e-08
-8.64565e-08 -6.26953e-08 0.0363751

0.0263363 0.00309093 5.09724e-08
0.00309093 0.0307011 3.26581e-08
5.09724e-08 3.26581e-08 0.0254776

0.0334769 -0.00432335 -1.13588e-08
-0.00432335 0.0326588 -2.34151e-08
-1.13588e-08 -2.34151e-08 0.0335662

0.0240804 -0.00155081 4.91913e-08
-0.00155081 0.0318868 1.13386e-09
4.91913e-08 1.13386e-09 0.0251765

0.0362225 -0.00253892 4.53927e-08
-0.00253892 0.0295109 -1.80732e-09
4.53927e-08 -1.80732e-09 0.033519

0.026673 0.00310451 1.03678e-07
0.00310451 0.0303941 -1.27728e-08
1.03678e-07 -1.27728e-08 0.0253129

0.0343426 -0.00065374 6.58511e-08
-0.00065374 0.0272764 -1.79171e-08
6.58511e-08 -1.79171e-08 0.0305772

0.0188902 -0.00387143 1.27042e-07
-0.00387143 0.0298012 7.0961e-08
1.27042e-07 7.0961e-08 0.0129611

0.0279987 0.00275462 -1.22494e-07
0.00275462 0.0326286 2.51415e-07
-1.22494e-07 2.51415e-07 0.0305731

0.0314368 -0.00251217 4.15098e-08
-0.00251217 0.0247219 -1.72988e-08
4.15098e-08 -1.72988e-08 0.0254055

0.0391182 -0.00286937 -2.76669e-07
-0.00286937 0.0322208 -1.09512e-07
-2.76669e-07 -1.09512e-07 0.0349364

0.0287526 0.00412393 -1.86989e-08
0.00412393 0.0272993 -5.5761e-08
-1.86989e-08 -5.5761e-08 0.025255

0.0313607 -0.00391894 4.08112e-08
-0.00391894 0.0285414 1.20999e-07
4.08112e-08 1.20999e-07 0.0287303

0.0354074 0.0027638 2.69788e-07
0.0027638 0.0308551 5.44395e-08
2.69788e-07 5.44395e-08 0.0330386

0.0297724 -0.00370368 -4.73087e-08
-0.00370368 0.0329369 8.79403e-09
-4.73087e-08 8.79403e-09 0.0333416

0.0270545 -0.00341014 5.29527e-08
-0.00341014 0.0299819 -1.33205e-07
5.29527e-08 -1.33205e-07 0.0253968

0.0284401 0.00377121 -9.72094e-08
0.00377121 0.028939 -3.98237e-08
-9.72094e-08 -3.98237e-08 0.0258866

0.0313706 0.0034133 -1.10955e-07
0.0034133 0.0268986 1.40677e-07
-1.10955e-07 1.40677e-07 0.0269653

0.0365357 -0.00194423 3.40075e-08
-0.00194423 0.0306244 -2.59794e-08
3.40075e-08 -2.59794e-08 0.0336348

0.025533 -0.00216314 -5.66952e-08
-0.00216314 0.0318006 -3.25916e-08
-5.66952e-08 -3.25916e-08 0.025853

0.0346985 -0.00231386 2.86601e-09
-0.00231386 0.0283335 6.64349e-08
2.86601e-09 6.64349e-08 0.031455

0.0341849 0.00222285 1.14947e-07
0.00222285 0.0274311 1.00086e-07
1.14947e-07 1.00086e-07 0.0306029

0.0336443 -0.00124608 7.56954e-08
-0.00124608 0.0392993 1.82884e-07
7.56954e-08 1.82884e-07 0.0349265

0.0320708 -0.0017467 -8.26872e-09
-0.0017467 0.0253296 -1.1261e-07
-8.26872e-09 -1.1261e-07 0.0258704

0.025001 7.97541e-05 -2.75436e-08
7.97541e-05 0.0331502 -3.12432e-09
-2.75436e-08 -3.12432e-09 0.0268604

0.0332462 0.00242863 1.1933e-07
0.00242863 0.0271927 2.40203e-07
1.1933e-07 2.40203e-07 0.0289212

0.0311164 0.00359863 -6.03489e-09
0.00359863 0.0272919 9.66314e-08
-6.03489e-09 9.66314e-08 0.0271217

0.0252946 -0.00204106 -8.33999e-08
-0.00204106 0.0318635 -1.92238e-09
-8.33999e-08 -1.92238e-09 0.0256102

0.0252003 -0.000154788 -1.71571e-09
-0.000154788 0.033291 -2.93615e-08
-1.71571e-09 -2.93615e-08 0.0271432

0.0354122 0.00385801 6.29468e-08
0.00385801 0.032995 -6.83356e-08
6.29468e-08 -6.83356e-08 0.0338945

0.0275849 -0.0014309 -3.87603e-08
-0.0014309 0.0353409 -9.75507e-08
-3.87603e-08 -9.75507e-08 0.031441

0.0312329 -0.00348362 -7.07101e-08
-0.00348362 0.0269767 -1.36045e-07
-7.07101e-08 -1.36045e-07 0.0270089

0.0312955 0.0027724 -1.28935e-07
0.0027724 0.0249213 1.09304e-07
-1.28935e-07 1.09304e-07 0.0252453

0.0345817 0.0031182 7.34011e-09
0.0031182 0.0293857 -9.90422e-08
7.34011e-09 -9.90422e-08 0.0317948

0.0279903 0.000716496 2.26941e-08
0.000716496 0.036038 4.19085e-08
2.26941e-08 4.19085e-08 0.0318171

0.0287156 0.00378116 -8.98967e-08
0.00378116 0.0285582 6.40345e-08
-8.98967e-08 6.40345e-08 0.025727

0.0367895 0.00305775 -1.46911e-08
0.00305775 0.0361247 2.25251e-07
-1.46911e-08 2.25251e-07 0.0349061

0.0226794 -0.00754497 2.33473e-07
-0.00754497 0.0186872 2.65177e-07
2.33473e-07 2.65177e-07 0.0108448

0.0332898 -0.0032871 -4.86212e-08
-0.0032871 0.0286315 1.13874e-07
-4.86212e-08 1.13874e-07 0.030123

0.0207262 0.000913269 -8.29104e-08
0.000913269 0.0300301 -4.79277e-08
-8.29104e-08 -4.79277e-08 0.0183458

0.0312991 -0.00378146 -1.06312e-07
-0.00378146 0.0292301 -1.42066e-07
-1.06312e-07 -1.42066e-07 0.0290305

0.00153952 -0.00651862 -9.13514e-09
-0.00651862 0.0275677 4.00237e-08
-9.13514e-09 4.00237e-08 0.00290823

0.00146992 0.00636819 1.49242e-08
0.00636819 0.0275856 6.53874e-08
1.49242e-08 6.53874e-08 0.00300118

0.0119843 0.0145046 -7.79859e-08
0.0145046 0.017532 -9.77912e-08
-7.79859e-08 -9.77912e-08 0.00277111

0.0121656 -0.0144953 -8.14469e-08
-0.0144953 0.0172235 1.02131e-07
-8.14469e-08 1.02131e-07 0.00280372

0.02934 -0.000164084 -9.46045e-08
-0.000164084 0 0
-9.46045e-08 0 0.00295253

0.0235917 -0.0112823 1.5262e-07
-0.0112823 0.00539531 -7.34981e-08
1.5262e-07 -7.34981e-08 0.00297823

0.0236335 0.0113486 -3.5551e-08
0.0113486 0.00544942 -1.71205e-08
-3.5551e-08 -1.71205e-08 0.00303939

0.0369102 0.00191129 -2.266e-07
0.00191129 0.0302413 -8.81756e-08
-2.266e-07 -8.81756e-08 0.0338769

0.0387049 0.00340972 1.39325e-08
0.00340972 0.0366167 -9.16329e-08
1.39325e-08 -9.16329e-08 0.0355777

0.0344139 0.000872054 8.16821e-08
0.000872054 0.0274561 3.44203e-08
8.16821e-08 3.44203e-08 0.031687

0.032872 0.00285022 1.72976e-07
0.00285022 0.0268885 1.43412e-07
1.72976e-07 1.43412e-07 0.0286455

0.0256999 0.00231314 -8.0998e-08
0.00231314 0.0323658 -1.88999e-07
-8.0998e-08 -1.88999e-07 0.0276348

0.0307117 0.0037688 1.79235e-07
0.0037688 0.0276754 -1.77764e-07
1.79235e-07 -1.77764e-07 0.0271169

0.0333051 -0.00390321 2.07803e-07
-0.00390321 0.0304651 -3.16258e-08
2.07803e-07 -3.16258e-08 0.0316291

0.0309727 0.00365438 3.241e-10
0.00365438 0.027286 -5.55878e-08
3.241e-10 -5.55878e-08 0.0269246

0.0249865 -0.000371516 4.82957e-08
-0.000371516 0.0331213 -6.9197e-10
4.82957e-08 -6.9197e-10 0.0268425

0.0385479 -0.00348485 -2.2779e-07
-0.00348485 0.0368801 -5.03706e-08
-2.2779e-07 -5.03706e-08 0.0355833

0.0251749 -0.000635431 3.31831e-09
-0.000635431 0.0332097 -2.89333e-08
3.31831e-09 -2.89333e-08 0.0271021

0.036017 0.00304755 1.04199e-08
0.00304755 0.0330103 7.19505e-08
1.04199e-08 7.19505e-08 0.0340973

0.0296222 0.00347561 7.18878e-08
0.00347561 0.0248457 9.74981e-08
7.18878e-08 9.74981e-08 0.0230222

0.0304954 -0.0017138 -2.56399e-08
-0.0017138 0.0375117 2.09905e-07
-2.56399e-08 2.09905e-07 0.0347359

0.0339191 0.00180449 -3.31559e-08
0.00180449 0.0271809 2.39083e-07
-3.31559e-08 2.39083e-07 0.0303198

0.0312004 -0.0039201 -7.7554e-08
-0.0039201 0.0285304 -1.24968e-07
-7.7554e-08 -1.24968e-07 0.0286138

0.0315828 -0.00322127 1.45627e-08
-0.00322127 0.026691 2.80184e-08
1.45627e-08 2.80184e-08 0.0270471

0.0384791 -0.00214128 -1.50543e-07
-0.00214128 0.0334165 -1.53182e-07
-1.50543e-07 -1.53182e-07 0.0347443

0.0326804 0.00366422 -1.99145e-07
0.00366422 0.0292315 -1.07914e-07
-1.99145e-07 -1.07914e-07 0.0301543

0.0326437 0.00313739 -9.95669e-08
0.00313739 0.0272519 9.29852e-08
-9.95669e-08 9.29852e-08 0.0287873

0.0269545 -0.000365164 -1.49142e-08
-0.000365164 0.0349862 2.52659e-07
-1.49142e-08 2.52659e-07 0.0301674

0.0258991 0.000765638 6.89585e-08
0.000765638 0.0340032 1.23476e-07
6.89585e-08 1.23476e-07 0.0288225

0.0327776 0.000345375 -3.00927e-08
0.000345375 0.0248612 9.00085e-08
-3.00927e-08 9.00085e-08 0.0274433

0.0313865 -0.000944847 1.32259e-07
-0.000944847 0.0230034 -1.16007e-07
1.32259e-07 -1.16007e-07 0.0238916

0.0308799 0.00398499 1.49138e-09
0.00398499 0.0288054 -5.35436e-08
1.49138e-09 -5.35436e-08 0.0286236

0.0331172 -0.00343129 1.68553e-07
-0.00343129 0.0285399 -1.2268e-07
1.68553e-07 -1.2268e-07 0.0299687

0.0364121 -0.00282357 -4.36712e-08
-0.00282357 0.0327323 -2.14651e-07
-4.36712e-08 -2.14651e-07 0.0341436

0.0292055 -0.0041275 -4.76151e-08
-0.0041275 0.0291917 -1.37768e-07
-4.76151e-08 -1.37768e-07 0.0277534

0.0269716 -0.00362029 1.29434e-07
-0.00362029 0.0304642 3.61043e-08
1.29434e-07 3.61043e-08 0.0272129

0.0283258 0.00389951 -3.29306e-08
0.00389951 0.0299003 8.81722e-08
-3.29306e-08 8.81722e-08 0.0277515

0.0259008 -0.00124891 7.0753e-08
-0.00124891 0.033613 -3.60212e-08
7.0753e-08 -3.60212e-08 0.0285154

0.026654 -0.000202031 1.3057e-07
-0.000202031 0.0349125 7.40897e-08
1.3057e-07 7.40897e-08 0.0299193

0.0277619 0.000753006 -1.11751e-07
0.000753006 0.0360375 4.29198e-08
-1.11751e-07 4.29198e-08 0.0316576

0.0262467 -0.00274936 -1.51204e-07
-0.00274936 0.0319622 1.08127e-07
-1.51204e-07 1.08127e-07 0.0277101

0.0345818 0.00317591 5.76362e-09
0.00317591 0.0291678 -9.60601e-08
5.76362e-09 -9.60601e-08 0.0316339

0.0339087 -0.0012609 6.58387e-08
-0.0012609 0.0269297 -1.78835e-08
6.58387e-08 -1.78835e-08 0.0302011

0.0257898 0.000974207 -7.23697e-08
0.000974207 0.0338287 -8.31262e-08
-7.23697e-08 -8.31262e-08 0.0285414

0.0278235 -0.00126998 2.08438e-07
-0.00126998 0.0353967 -4.70909e-08
2.08438e-07 -4.70909e-08 0.0313655

0.0272926 -0.00213713 7.28967e-09
-0.00213713 0.0336563 1.1559e-09
7.28967e-09 1.1559e-09 0.0302251

0.0327763 -0.00107723 -1.42183e-07
-0.00107723 0.0253195 4.71067e-08
-1.42183e-07 4.71067e-08 0.0272538

0.0333149 -0.0042712 -1.02252e-07
-0.0042712 0.0323798 -7.36389e-08
-1.02252e-07 -7.36389e-08 0.0335287

0.0264882 0.0012197 -1.4545e-07
0.0012197 0.0338347 -8.4067e-08
-1.4545e-07 -8.4067e-08 0.0288155

0.0398112 -0.00243151 5.26395e-08
-0.00243151 0.0352184 2.12329e-07
5.26395e-08 2.12329e-07 0.0354606

0.0188885 0.00316453 -2.85974e-08
0.00316453 0.0278754 -1.45188e-07
-2.85974e-08 -1.45188e-07 0.0162725

0.0338155 -0.00352273 -4.08229e-08
-0.00352273 0.0334942 2.42317e-08
-4.08229e-08 2.42317e-08 0.0337256

0.0353429 -0.00399926 -6.69776e-08
-0.00399926 0.033046 -1.4389e-07
-6.69776e-08 -1.4389e-07 0.0339035

0.0266853 -9.06848e-05 -1.64582e-07
-9.06848e-05 0.0349176 6.73207e-08
-1.64582e-07 6.73207e-08 0.0299275

0.0332421 -0.00217628 2.80013e-08
-0.00217628 0.0271526 9.99552e-08
2.80013e-08 9.99552e-08 0.0289021

0.029347 0.00168467 -2.03021e-08
0.00168467 0.035819 -2.39802e-08
-2.03021e-08 -2.39802e-08 0.0328792

0.0132073 -0.000379115 1.47192e-07
-0.000379115 0.0283616 6.54995e-08
1.47192e-07 6.54995e-08 0.0111516

0.0271132 0.00186844 -9.81728e-08
0.00186844 0.0340608 5.2766e-09
-9.81728e-08 5.2766e-09 0.0303056

0.0311084 -0.0038583 3.35427e-08
-0.0038583 0.0291535 9.90258e-08
3.35427e-08 9.90258e-08 0.0288058

0.0186195 0.00320444 5.58936e-08
0.00320444 0.0301389 8.78732e-08
5.58936e-08 8.78732e-08 0.0131266

0.0426014 0.00351868 1.59173e-07
0.00351868 0.0418486 2.45699e-07
1.59173e-07 2.45699e-07 0.0364799

0.0432047 -0.0037489 5.85387e-08
-0.0037489 0.0414168 -9.66037e-08
5.85387e-08 -9.66037e-08 0.0364623

0.0310645 -0.00399078 -1.82754e-07
-0.00399078 0.0304706 -2.21319e-08
-1.82754e-07 -2.21319e-08 0.0304604

0.0289212 -0.00406404 -2.4912e-08
-0.00406404 0.0291499 9.83781e-08
-2.4912e-08 9.83781e-08 0.0275937

0.0330499 0.00272667 -9.25742e-08
0.00272667 0.027528 8.18059e-08
-9.25742e-08 8.18059e-08 0.0290748

0.0327789 0.00196012 -8.9295e-08
0.00196012 0.0255905 8.775e-08
-8.9295e-08 8.775e-08 0.0278221

0.0464016 0.000418534 4.0089e-07
0.000418534 0.046356 -4.0635e-08
4.0089e-07 -4.0635e-08 0.0366941

0.0469183 -0.00095158 -3.71816e-07
-0.00095158 0.0457687 6.54867e-08
-3.71816e-07 6.54867e-08 0.0367653

0.0347984 0.00063813 -3.28051e-08
0.00063813 0.0275723 1.33976e-07
-3.28051e-08 1.33976e-07 0.0322158

0.0277511 0.000882188 -8.58473e-08
0.000882188 0.03557 -1.58456e-08
-8.58473e-08 -1.58456e-08 0.0313479

0.027607 0.000882706 -2.16121e-07
0.000882706 0.0355702 -1.95658e-08
-2.16121e-07 -1.95658e-08 0.0312441

0.0234586 0.00739981 -3.47044e-07
0.00739981 0.0183015 -1.72982e-09
-3.47044e-07 -1.72982e-09 0.0109013

0.0272464 -0.00367548 -1.51974e-08
-0.00367548 0.0303465 -3.19837e-08
-1.51974e-08 -3.19837e-08 0.0273188

0.0365662 0.00239158 -3.19217e-07
0.00239158 0.0295753 3.0365e-08
-3.19217e-07 3.0365e-08 0.0337837

0.0332731 0.00124748 -6.1032e-08
0.00124748 0.0265034 3.33295e-08
-6.1032e-08 3.33295e-08 0.0284311

0.0291515 -0.00349239 -6.79858e-08
-0.00349239 0.0304704 1.96988e-08
-6.79858e-08 1.96988e-08 0.0281725

0.0328099 -0.00264769 -1.92857e-08
-0.00264769 0.0267272 2.69513e-08
-1.92857e-08 2.69513e-08 0.028586

0.0224596 0.00761254 1.38809e-07
0.00761254 0.01859 -3.07343e-07
1.38809e-07 -3.07343e-07 0.0109037

0.0331442 0.00410242 -3.68372e-08
0.00410242 0.0326374 8.58853e-08
-3.68372e-08 8.58853e-08 0.0331809

0.0258895 -0.00257816 -1.154e-08
-0.00257816 0.0320233 -1.20188e-07
-1.154e-08 -1.20188e-07 0.0275067

0.0324819 0.00378577 -1.43466e-07
0.00378577 0.0292673 -1.83491e-07
-1.43466e-07 -1.83491e-07 0.0301461

0.0268152 -0.000543523 -1.23708e-08
-0.000543523 0.0349512 2.52911e-07
-1.23708e-08 2.52911e-07 0.0301371

0.0269893 0.00256315 5.02233e-08
0.00256315 0.0324475 1.2283e-07
5.02233e-08 1.2283e-07 0.0282856

0.0305253 0.0039909 1.92457e-07
0.0039909 0.0293223 -1.52025e-07
1.92457e-07 -1.52025e-07 0.0287743

0.027608 -0.00293714 7.00621e-08
-0.00293714 0.0318527 1.47449e-07
7.00621e-08 1.47449e-07 0.0282482

0.029455 -0.00357568 1.53079e-08
-0.00357568 0.0303502 -3.00457e-08
1.53079e-08 -3.00457e-08 0.0283042

0.0181372 0.00142537 -4.99127e-08
0.00142537 0.0280355 -9.49253e-08
-4.99127e-08 -9.49253e-08 0.0131272

0.0234732 -0.00429385 -1.99181e-07
-0.00429385 0.0275552 2.74194e-07
-1.99181e-07 2.74194e-07 0.0177228

0.0262047 -0.00152581 -8.22058e-08
-0.00152581 0.0336229 9.53002e-08
-8.22058e-08 9.53002e-08 0.028751

0.0330228 0.0034746 -1.45657e-07
0.0034746 0.0288768 -4.10695e-08
-1.45657e-07 -4.10695e-08 0.030068

0.0303207 0.00385734 -2.0877e-08
0.00385734 0.0298856 8.90919e-08
-2.0877e-08 8.90919e-08 0.0289895

0.0274136 -0.00280048 5.028e-08
-0.00280048 0.031983 -1.1577e-07
5.028e-08 -1.1577e-07 0.0281382

0.0265538 -0.00154072 3.25452e-08
-0.00154072 0.0335814 -3.79842e-08
3.25452e-08 -3.79842e-08 0.0287454

0.0309554 0.00371811 2.5592e-08
0.00371811 0.0295624 -1.0088e-07
2.5592e-08 -1.0088e-07 0.0289403

0.0267584 -0.00181596 -1.63871e-07
-0.00181596 0.0334733 7.784e-08
-1.63871e-07 7.784e-08 0.0289534

0.0191656 0.0035544 8.10334e-08
0.0035544 0.0276071 1.42263e-07
8.10334e-08 1.42263e-07 0.0162917

0.0308726 -0.000534649 -1.54542e-08
-0.000534649 0.0388185 7.33192e-08
-1.54542e-08 7.33192e-08 0.0342936

0.0286557 0.00404762 -1.82354e-07
0.00404762 0.0295175 -7.75233e-08
-1.82354e-07 -7.75233e-08 0.0277137

0.0355791 0.00197492 -7.13201e-08
0.00197492 0.0295022 -9.50387e-08
-7.13201e-08 -9.50387e-08 0.0328417

0.0362583 -0.00211475 -8.49359e-08
-0.00211475 0.0297545 -8.06973e-08
-8.49359e-08 -8.06973e-08 0.033217

0.0285095 -0.00309553 5.73653e-08
-0.00309553 0.0185685 -2.29848e-07
5.73653e-08 -2.29848e-07 0.0157294

0.0283525 -0.00278994 2.46948e-07
-0.00278994 0.0327745 1.8372e-07
2.46948e-07 1.8372e-07 0.0305706

0.0291903 0.00350077 1.49343e-07
0.00350077 0.0315987 -5.81042e-08
1.49343e-07 -5.81042e-08 0.0304865

0.0349591 -0.00290749 -1.85759e-07
-0.00290749 0.0376745 9.12927e-08
-1.85759e-07 9.12927e-08 0.0352352

0.0394597 0.00188524 1.24152e-07
0.00188524 0.0446079 1.73737e-07
1.24152e-07 1.73737e-07 0.0364321

0.0449431 0.00129034 -1.11437e-07
0.00129034 0.039116 6.80619e-08
-1.11437e-07 6.80619e-08 0.0364141

0.0355597 0.00434561 -3.19981e-08
0.00434561 0.0351337 4.12412e-08
-3.19981e-08 4.12412e-08 0.0350025

0.026571 0.00338785 7.07545e-08
0.00338785 0.0310052 6.85152e-08
7.07545e-08 6.85152e-08 0.0272549

0.0330383 0.00349701 -5.63423e-08
0.00349701 0.028666 -2.65616e-07
-5.63423e-08 -2.65616e-07 0.0300492

0.0220592 0.00576401 -1.37168e-07
0.00576401 0.0242367 3.2984e-08
-1.37168e-07 3.2984e-08 0.0160719

0.0386177 -0.00151233 -7.30182e-08
-0.00151233 0.0444325 -2.78617e-08
-7.30182e-08 -2.78617e-08 0.0363613

0.046048 -0.000465613 3.26082e-08
-0.000465613 0.0454391 2.0958e-07
3.26082e-08 2.0958e-07 0.0366902

0.0451791 -3.20329e-05 -4.26692e-08
-3.20329e-05 0.0463021 -3.84292e-07
-4.26692e-08 -3.84292e-07 0.0366722

0.0176404 -0.00679463 -5.62824e-08
-0.00679463 0.0231076 -2.9529e-07
-5.62824e-08 -2.9529e-07 0.0107382

0.0392911 -0.00155602 1.67952e-07
-0.00155602 0.038714 2.13154e-08
1.67952e-07 2.13154e-08 0.0358527

0.0383961 0.00117682 -3.49536e-07
0.00117682 0.0415165 -1.03204e-07
-3.49536e-07 -1.03204e-07 0.0361241

0.0331738 -0.0034356 1.38084e-07
-0.0034356 0.0282185 -1.92969e-07
1.38084e-07 -1.92969e-07 0.0299026

0.0318437 0.000140299 1.18899e-07
0.000140299 0.0386713 5.96755e-08
1.18899e-07 5.96755e-08 0.0344495

0.0285758 -0.00266 1.6524e-08
-0.00266 0.0333794 1.10691e-09
1.6524e-08 1.10691e-09 0.0315883

0.0356614 0.000831763 -2.01794e-07
0.000831763 0.0273767 7.23416e-09
-2.01794e-07 7.23416e-09 0.0329991

0.028875 0.00204455 -3.07369e-09
0.00204455 0.0368157 1.32248e-07
-3.07369e-09 1.32248e-07 0.0336687

0.0298686 0.000946592 -3.39126e-08
0.000946592 0.0373874 1.16513e-07
-3.39126e-08 1.16513e-07 0.0333626

0.0344006 0.00268503 -2.11436e-07
0.00268503 0.0288506 -2.46185e-07
-2.11436e-07 -2.46185e-07 0.0312254

0.0132789 -0.000409387 -5.00036e-08
-0.000409387 0.0281221 4.60901e-08
-5.00036e-08 4.60901e-08 0.011201

0.0309637 -0.0036258 1.1075e-07
-0.0036258 0.0309144 -1.18822e-08
1.1075e-07 -1.18822e-08 0.0306086

0.0329276 -0.003443 2.34281e-07
-0.003443 0.0320194 -1.25953e-07
2.34281e-07 -1.25953e-07 0.0325784

0.0335703 -0.00415935 2.62687e-08
-0.00415935 0.0325341 1.21727e-07
2.62687e-08 1.21727e-07 0.0337348

0.0265614 0.00414853 1.16617e-07
0.00414853 0.0176911 3.53094e-08
1.16617e-07 3.53094e-08 0.0126048

0.0388284 -0.00269667 2.39829e-07
-0.00269667 0.039576 -1.34419e-07
2.39829e-07 -1.34419e-07 0.0359575

0.0230823 0.0069206 -2.94132e-07
0.0069206 0.0255013 -1.773e-07
-2.94132e-07 -1.773e-07 0.0126091

0.0308739 -0.00281762 -2.27304e-07
-0.00281762 0.0348063 -2.88482e-12
-2.27304e-07 -2.88482e-12 0.0339553

0.0354111 0.00193652 1.15398e-07
0.00193652 0.0284649 8.2423e-08
1.15398e-07 8.2423e-08 0.0323437

0.0318202 -0.00189336 8.59135e-09
-0.00189336 0.02495 8.74593e-08
8.59135e-09 8.74593e-08 0.0253947

0.0292914 0.00315934 3.41869e-08
0.00315934 0.032731 2.79163e-07
3.41869e-08 2.79163e-07 0.0312787

0.0344358 0.00268898 -2.76058e-07
0.00268898 0.0286336 -9.27993e-08
-2.76058e-07 -9.27993e-08 0.03122

0.0325179 0.00149917 -3.98119e-08
0.00149917 0.0403727 -1.00507e-07
-3.98119e-08 -1.00507e-07 0.0353357

0.0319393 -0.00415446 -3.73602e-08
-0.00415446 0.0312007 6.62982e-08
-3.73602e-08 6.62982e-08 0.0318098

0.0396756 0.00265532 3.2991e-09
0.00265532 0.0331978 7.2663e-08
3.2991e-09 7.2663e-08 0.0353152

0.0279707 -0.00241843 1.52698e-08
-0.00241843 0.0335501 2.42128e-09
1.52698e-08 2.42128e-09 0.0304697

0.0293501 0.000558346 -5.43131e-08
0.000558346 0.037311 1.14341e-07
-5.43131e-08 1.14341e-07 0.0332518

0.0419426 0.00133725 -7.78125e-08
0.00133725 0.0370993 -7.9793e-08
-7.78125e-08 -7.9793e-08 0.0361155

0.0420967 -0.0011485 -1.02116e-08
-0.0011485 0.0373255 -2.78755e-08
-1.02116e-08 -2.78755e-08 0.0360973

0.0283822 0.00236903 -1.62838e-07
0.00236903 0.0181812 7.71427e-08
-1.62838e-07 7.71427e-08 0.0159494

0.0350253 0.00106139 -2.56058e-07
0.00106139 0.0285652 1.03524e-07
-2.56058e-07 1.03524e-07 0.0330582

0.0128667 0.000923333 -4.46615e-08
0.000923333 0.031626 7.21477e-09
-4.46615e-08 7.21477e-09 0.00612158

0.0131623 -0.00138812 1.44012e-07
-0.00138812 0.0321318 -4.92222e-08
1.44012e-07 -4.92222e-08 0.0061119

0.0152685 0.00715413 -1.12703e-07
0.00715413 0.0284526 2.3766e-08
-1.12703e-07 2.3766e-08 0.00598402

0.0347637 -0.00382114 5.83264e-08
-0.00382114 0.031267 -1.62063e-07
5.83264e-08 -1.62063e-07 0.0329383

0.0155805 -0.00619414 -1.22913e-07
-0.00619414 0.0261525 1.12299e-07
-1.22913e-07 1.12299e-07 0.0104718

0.0155126 -0.00708672 -1.56292e-07
-0.00708672 0.0274232 -1.64189e-07
-1.56292e-07 -1.64189e-07 0.00591382

0.0284253 0.00342579 -1.82676e-08
0.00342579 0.0310055 6.82339e-08
-1.82676e-08 6.82339e-08 0.028152

0.0251931 0.00932573 2.66265e-07
0.00932573 0.0190205 -1.6338e-07
2.66265e-07 -1.6338e-07 0.00593372

0.0365374 0.00173203 1.06878e-07
0.00173203 0.0385507 7.10749e-09
1.06878e-07 7.10749e-09 0.0354744

0.0395347 2.52348e-05 1.39649e-07
2.52348e-05 0.0355391 1.26899e-08
1.39649e-07 1.26899e-08 0.0354551

0.0261069 -0.00924423 3.14566e-07
-0.00924423 0.0188123 1.85501e-07
3.14566e-07 1.85501e-07 0.00588789

0.0276893 -0.003065 -1.01093e-09
-0.003065 0.0320941 -2.96954e-08
-1.01093e-09 -2.96954e-08 0.0296221

0.0262547 0.00441804 1.78003e-07
0.00441804 0.0201576 -2.00668e-07
1.78003e-07 -2.00668e-07 0.0130443

0.017279 0.00797293 1.39639e-07
0.00797293 0.0271486 1.02522e-07
1.39639e-07 1.02522e-07 0.00598769

0.018196 0.00275502 -6.24964e-08
0.00275502 0.0275891 -9.27927e-08
-6.24964e-08 -9.27927e-08 0.0128498

0.0173039 -0.00827614 -1.02359e-07
-0.00827614 0.027152 6.88868e-08
-1.02359e-07 6.88868e-08 0.00581365

0.0179326 -0.00157096 1.66088e-07
-0.00157096 0.0280049 -7.17334e-08
1.66088e-07 -7.17334e-08 0.0126902

0.0370497 0.000923372 -7.88373e-08
0.000923372 0.0412996 -1.49768e-08
-7.88373e-08 -1.49768e-08 0.0358093

0.0221308 -0.00585496 2.69953e-07
-0.00585496 0.0236641 -1.03864e-07
2.69953e-07 -1.03864e-07 0.0151585

0.0156999 0.005986 -8.37014e-09
0.005986 0.0259018 -2.16484e-07
-8.37014e-09 -2.16484e-07 0.0107499

0.0302082 0.00473002 6.8023e-08
0.00473002 0.0143491 2.82193e-07
6.8023e-08 2.82193e-07 0.00611572

0.0329374 -0.00384954 -2.37176e-07
-0.00384954 0.0301232 1.2661e-08
-2.37176e-07 1.2661e-08 0.0310505

0.030888 0.00169381 -4.25609e-08
0.00169381 0.0368422 1.33986e-07
-4.25609e-08 1.33986e-07 0.0339495

0.0260894 -0.00484372 5.5038e-09
-0.00484372 0.019197 3.30272e-07
5.5038e-09 3.30272e-07 0.0126947

0.0329997 -0.00378587 -1.01588e-07
-0.00378587 0.0300747 3.34222e-07
-1.01588e-07 3.34222e-07 0.0311268

0.0300184 -0.00451979 1.22258e-07
-0.00451979 0.0130533 -3.76119e-07
1.22258e-07 -3.76119e-07 0.00603716

0.0324723 -0.00372754 -1.65715e-07
-0.00372754 0.0313065 -1.21967e-07
-1.65715e-07 -1.21967e-07 0.0319786

0.0280903 -0.003311 1.84456e-07
-0.003311 0.0320025 -2.56951e-09
1.84456e-07 -2.56951e-09 0.0296246

0.0234431 0.00874352 -2.6555e-08
0.00874352 0.0204825 2.55827e-07
-2.6555e-08 2.55827e-07 0.00602602

0.0181993 -0.0029207 -2.75397e-07
-0.0029207 0.0268659 -2.50773e-07
-2.75397e-07 -2.50773e-07 0.0122697

0.0233143 -0.00901906 1.33697e-07
-0.00901906 0.0201518 2.96139e-07
1.33697e-07 2.96139e-07 0.00588385

0.0170821 0.00640799 6.62501e-09
0.00640799 0.0235655 1.7742e-07
6.62501e-09 1.7742e-07 0.0108308

0.0308253 -0.00396004 1.08681e-07
-0.00396004 0.0301594 -1.79736e-08
1.08681e-07 -1.79736e-08 0.0300848

0.0389176 -0.00195883 -2.77374e-07
-0.00195883 0.03694 -1.03316e-07
-2.77374e-07 -1.03316e-07 0.0354987

0.045541 0.00150584 -5.00869e-07
0.00150584 0.0449524 4.72481e-08
-5.00869e-07 4.72481e-08 0.0366184

0.0435632 -0.000711532 -1.75675e-07
-0.000711532 0.0462302 -4.43393e-08
-1.75675e-07 -4.43393e-08 0.0365841

0.0286148 0.00171559 -3.62646e-08
0.00171559 0.0355652 8.01387e-08
-3.62646e-08 8.01387e-08 0.0323888

0.0453362 -0.00144693 -1.246e-08
-0.00144693 0.0449801 -2.43288e-07
-1.246e-08 -2.43288e-07 0.0366361

0.0438073 0.000568079 -4.775e-07
0.000568079 0.0465049 1.9953e-07
-4.775e-07 1.9953e-07 0.0366172

0.04668 0.000991804 -4.37117e-08
0.000991804 0.043377 -5.73029e-08
-4.37117e-08 -5.73029e-08 0.0365923

0.03975 -0.00163951 -4.28283e-07
-0.00163951 0.0460759 1.37347e-07
-4.28283e-07 1.37347e-07 0.0364821

0.0190535 -0.00388711 -4.34124e-07
-0.00388711 0.0272298 7.29578e-08
-4.34124e-07 7.29578e-08 0.0154708

0.0421403 -0.00175032 -5.27853e-08
-0.00175032 0.0367247 -1.48699e-07
-5.27853e-08 -1.48699e-07 0.036004

0.035964 -0.004574 -1.77951e-07
-0.004574 0.03515 6.05949e-08
-1.77951e-07 6.05949e-08 0.0349674

0.0397529 -0.00242172 -1.74115e-07
-0.00242172 0.0360638 6.17407e-08
-1.74115e-07 6.17407e-08 0.0355664

0.0351839 0.00204346 2.30861e-07
0.00204346 0.0285482 -6.05346e-08
2.30861e-07 -6.05346e-08 0.0322311

0.0396921 0.00133799 -2.84417e-07
0.00133799 0.0472279 1.08778e-07
-2.84417e-07 1.08778e-07 0.0365479

0.0464955 0.00259367 -5.33377e-07
0.00259367 0.0404181 6.32789e-08
-5.33377e-07 6.32789e-08 0.0365291

0.0400864 0.00150579 -3.49692e-08
0.00150579 0.0366726 4.24334e-08
-3.49692e-08 4.24334e-08 0.0356145

0.027914 -0.00191984 -2.21304e-07
-0.00191984 0.0125244 -3.41244e-07
-2.21304e-07 -3.41244e-07 0.0106243

0.028318 0.00326747 -6.88824e-08
0.00326747 0.0315488 -1.42537e-07
-6.88824e-08 -1.42537e-07 0.0294099

0.0231876 -0.00773571 7.68081e-08
-0.00773571 0.0181796 3.43401e-07
7.68081e-08 3.43401e-07 0.0102892

0.0228302 -0.00731553 1.7071e-08
-0.00731553 0.0257681 1.29662e-07
1.7071e-08 1.29662e-07 0.0119542

0.0290218 -0.00464675 -2.85342e-07
-0.00464675 0.0191279 -1.65433e-07
-2.85342e-07 -1.65433e-07 0.0126148

0.0375738 -0.000661023 2.26434e-07
-0.000661023 0.0449128 -2.76889e-07
2.26434e-07 -2.76889e-07 0.036293

0.0375715 0.000358475 1.41719e-07
0.000358475 0.04479 1.51781e-07
1.41719e-07 1.51781e-07 0.0362733

0.0426046 -0.00327381 -4.54882e-08
-0.00327381 0.0394495 3.38186e-07
-4.54882e-08 3.38186e-07 0.0362271

0.0429982 -0.00294492 7.52618e-08
-0.00294492 0.0391683 6.84531e-08
7.52618e-08 6.84531e-08 0.0362341

0.0425015 0.00350428 -2.6783e-07
0.00350428 0.0399717 -3.19765e-07
-2.6783e-07 -3.19765e-07 0.0362719

0.0443975 0.000417496 2.99346e-07
0.000417496 0.0450803 4.57094e-07
2.99346e-07 4.57094e-07 0.0366353

0.0426082 -0.0027445 3.00635e-08
-0.0027445 0.0395071 5.57783e-09
3.00635e-08 5.57783e-09 0.0362887

0.0426019 -0.00251248 8.27072e-08
-0.00251248 0.0442667 -2.18411e-07
8.27072e-08 -2.18411e-07 0.0365628

0.0451182 0.000331677 3.07403e-07
0.000331677 0.0454673 -1.74429e-07
3.07403e-07 -1.74429e-07 0.0366536

0.0436373 -0.00278318 3.33909e-07
-0.00278318 0.0389162 -1.18903e-07
3.33909e-07 -1.18903e-07 0.0363293

0.0435129 0.00283908 -1.27094e-07
0.00283908 0.0390688 -3.96357e-08
-1.27094e-07 -3.96357e-08 0.0363674

0.0451943 -0.000470969 -1.96302e-07
-0.000470969 0.0455826 9.382e-08
-1.96302e-07 9.382e-08 0.0367022

0.045227 -0.000425084 -2.50885e-07
-0.000425084 0.0443591 5.32824e-07
-2.50885e-07 5.32824e-07 0.0367206

0.0427994 0.00163813 1.83134e-07
0.00163813 0.0442493 -1.9322e-07
1.83134e-07 -1.9322e-07 0.0366067

0.0411159 0.00361885 5.96357e-08
0.00361885 0.0405155 1.71139e-07
5.96357e-08 1.71139e-07 0.0363213

SCALARS pressure float
LOOKUP_TABLE default
-60.0505
19.3081
5.80323
21.2901
15.8788
5.88718
-58.6736
7.78298
-3.80502
15.1244
-24.4315
7.61713
5.59195
12.2791
23.3377
5.53883
18.5208
13.2071
-0.693045
6.75636
-0.904991
33.135
5.80059
5.79666
6.60165
14.9027
-38.3848
6.67151
-15.2424
30.6265
5.17618
-15.6571
-42.0558
27.3263
20.7792
27.3592
31.8848
19.8091
4.85946
-42.599
-17.4073
31.9056
31.9937
5.99342
-21.8048
-15.9758
-1.05262
-3.40563
6.54461
-16.2177
-18.9187
-15.3459
20.7556
-15.3731
20.3088
-33.1484
21.1297
-15.4603
21.1395
7.04471
21.7647
16.1188
-45.5616
12.7897
16.3621
10.905
21.5739
13.8279
5.77329
21.8169
20.8117
20.7823
-17.6909
11.6005
3.9738
-31.6092
14.3567
10.9961
14.146
-8.72013
-28.9445
14.9777
20.163
-22.0377
-23.4293
-28.0917
7.09758
9.63227
-22.2155
37.7418
-15.509
38.4444
18.3045
10.7614
-15.1665
-15.8727
-30.2211
14.7533
14.3657
4.59855
-10.7664
-21.9394
-25.1013
16.2128
14.1
14.9615
18.6974
3.77458
-24.5582
26.5131
7.21734
-21.4088
-24.6118
14.8377
15.0779
-16.1456
20.165
-29.113
20.6286
-16.7293
-2.90491
23.834
21.727
16.0328
26.6798
22.6316
21.7857
15.7084
-29.7807
-16.099
24.0918
21.6172
20.9892
22.0656
-22.0138
23.5873
-33.837
5.46323
21.7543
23.6307
-21.9367
6.67629
-5.96689
15.0834
-30.4072
15.6238
7.83302
2.40739
5.17759
-9.39462
-0.458207
22.6415
-15.4546
5.29085
15.204
21.5604
11.508
-21.1132
-21.2637
10.7902
-2.84294
-15.1976
-21.2203
-15.1652
-20.9864
15.2796
-20.6358
-21.2015
-15.2078
-21.0637
19.0043
-15.941
-14.8244
12.0643
-14.4847
18.8027
19.0534
7.47255
18.0479
11.7728
-16.249
15.2881
14.9608
-21.5284
10.4264
-14.2213
16.0485
14.5954
17.0818
14.835
10.3437
-26.9761
-16.0822
-15.9581
21.9068
14.5256
14.6244
20.9226
22.4869
9.50253
21.7336
-0.384952
-8.17101
20.7787
-17.8387
19.9456
10.3641
-21.5175
15.7211
22.5261
14.7312
9.3933
14.1897
21.0556
-7.83307
8.82739
-7.90887
14.6481
26.9277
26.5814
27.9606
26.3886
26.7244
26.291
13.8257
23.4303
24.0295
23.9737
23.4
21.1927
21.8573
-8.26313
15.9334
28.1911
-3.189
23.5761
23.2054
27.8344
-8.49382
28.0965
15.3445
-7.5819
17.4921
-8.25809
20.2271
29.6128
-7.48629
-8.10105
-29.5917
-18.189
19.5272
-31.9852
5.73403
-7.79424
-1.18987
28.2492
26.6403
30.4269
26.761
-34.8006
-8.17994
28.3374
8.07255
-8.29545
26.446
-6.29561
30.4718
-7.95437
27.0472
14.5659
14.787
23.8452
10.0473
18.021
8.11675
-29.8597
-24.5529
16.8068
1.75927
8.1792
-13.609
17.4357
11.6996
-8.1018
9.45191
-10.8236
7.5166
-10.7549
-8.48502
33.2649
19.1517
25.0884
25.3127
13.8289
-10.4047
26.43
14.6849
-1.65943
-10.2741
-12.5644
17.5066
-7.48554
17.5745
-12.0414
-21.3503
-10.6084
-34.6809
15.5623
-7.76328
34.4429
-11.5781
16.8712
-8.40906
15.9726
-12.7585
4.28872
-51.1177
8.52126
-7.74694
21.3338
-8.15246
-0.123345
10.7151
21.1241
-12.0609
-10.201
-6.06868
14.3178
-10.1803
6.88754
6.38522
16.3054
-10.4198
-6.33079
-1.7028
-5.66088
-11.0787
-5.8451
15.3054
7.80756
-5.55648
-8.96075
7.805
7.69386
-10.6748
16.3093
-27.2131
2.29253
-28.481
-0.958056
-8.87796
-8.09625
-11.7788
-10.9425
-9.88083
-7.77584
-7.8992
16.6377
24.778
12.1156
-0.292192
-0.825748
-5.67505
7.30472
-6.32114
-6.31843
24.9239
-5.73048
14.1179
-15.9084
24.3253
5.96758
-0.391748
-5.64433
16.2749
2.47653
0.198468
2.44751
0.455335
-0.741441
-9.93057
-0.096189
2.11269
15.0688
-1.28887
-1.40775
-0.999413
-0.389167
1.96472
8.0502
-1.19415
8.07764
5.58264
-0.436229
7.03474
5.48968
-3.87702
16.4765
-1.90396
23.0622
-21.9732
15.044
15.6822
2.03907
-1.99804
12.5426
-26.5057
5.79167
-1.65848
-50.4821
30.4988
30.6355
5.82431
-1.14495
-1.04737
-0.850287
33.4196
33.2943
13.0945
6.08139
6.66186
-28.9618
-1.28002
16.5333
-3.18325
-4.34864
-0.0175378
-25.2704
14.303
-1.28079
2.86121
2.69261
-2.72382
-0.0499163
-3.21004
-4.03409
-37.9817
-33.6829
-0.128622
1.8739
-0.534669
-3.74473
-1.93715
-1.87827
-0.924892
-21.9071
17.2495
-0.769926
12.5648
14.1834
-26.7636
6.28572
7.13626
18.4778
36.4287
36.4612
22.6387
-1.7564
2.59905
-20.9293
36.1273
32.761
32.8279
-24.8078
21.7758
30.5241
2.59854
15.7239
10.3708
17.1641
17.726
12.5053
5.68084
-25.3972
4.25951
10.4089
16.2438
-31.7091
28.3103
-52.7091
18.6848
10.2986
-10.6277
7.41683
5.45654
24.4746
9.41058
24.4076
4.1046
12.3996
30.6413
29.467
-22.9897
17.4352
-70.228
-74.3744
-67.172
11.648
-31.2589
-63.6055
-3.80404
-69.9334
16.4632
16.4069
-73.7495
5.21152
-39.7287
-70.734
-37.7547
-71.8703
-39.4501
21.1371
-23.9595
-29.0429
-70.6179
4.83087
15.7574
-36.1886
6.05295
-63.6132
9.83546
3.88105
-67.8965
-37.6222
-66.406
-23.7545
5.02847
20.5264
35.3729
36.7287
11.8116
36.8526
36.9059
36.4942
36.4061
-24.4783
28.2489
20.6691
21.981
11.5341
36.0621
36.0935
18.1203
-23.9392
3.24594
-30.5251
-56.5951
-50.4724
36.1451
35.8258
35.3825
35.4527
36.1611
35.6009
33.1115
37.3728
35.4022
36.0079
35.6402
34.1986
34.3352
35.8583
35.3112
