# vtk DataFile Version 3.0
vtk output at time 2260
ASCII
DATASET UNSTRUCTURED_GRID
POINTS 626 float
-3.68058e-05 0.000978749 0 3.68058e-05 0.000978749 0 -0.000829194 0.00052125 0 
-0.0008235 0.0005 0 -0.000866 0.0004575 0 -0.000866 -0.0004575 0 
-0.0008235 -0.0005 0 -0.000829194 -0.00052125 0 -3.68058e-05 -0.000978749 0 
3.68058e-05 -0.000978749 0 0.000829194 -0.00052125 0 0.000866 -0.0004575 0 
0.000866 0.0004575 0 0.000829194 0.00052125 0 8.5e-05 0 0 
-3.68058e-05 0.000978749 -0.001 3.68058e-05 0.000978749 -0.001 -0.000829194 0.00052125 -0.001 
-0.0008235 0.0005 -0.001 -0.000866 0.0004575 -0.001 -0.000866 -0.0004575 -0.001 
-0.0008235 -0.0005 -0.001 -0.000829194 -0.00052125 -0.001 -3.68058e-05 -0.000978749 -0.001 
3.68058e-05 -0.000978749 -0.001 0.000829194 -0.00052125 -0.001 0.000866 -0.0004575 -0.001 
0.000866 0.0004575 -0.001 0.000829194 0.00052125 -0.001 8.5e-05 0 -0.001 
8.46223e-17 0.0009575 0 -0.000715996 0.000586607 0 -0.000602797 0.000651965 0 
-0.000489599 0.000717321 0 -0.000376401 0.000782678 0 -0.000263202 0.000848036 0 
-0.000150004 0.000913393 0 -0.000835948 0.000469948 0 -0.000866 -0.000326786 0 
-0.000866 -0.000196071 0 -0.000866 -6.53571e-05 0 -0.000866 6.53571e-05 0 
-0.000866 0.000196071 0 -0.000866 0.000326786 0 -0.000835948 -0.000469948 0 
-0.000150004 -0.000913393 0 -0.000263202 -0.000848036 0 -0.000376401 -0.000782678 0 
-0.000489599 -0.000717321 0 -0.000602797 -0.000651965 0 -0.000715996 -0.000586607 0 
8.47648e-17 -0.0009575 0 0.000715996 -0.000586607 0 0.000602797 -0.000651965 0 
0.000489599 -0.000717321 0 0.000376401 -0.000782678 0 0.000263202 -0.000848036 0 
0.000150004 -0.000913393 0 0.000829194 -0.00047875 0 0.000866 0.000326786 0 
0.000866 0.000196071 0 0.000866 6.53571e-05 0 0.000866 -6.53571e-05 0 
0.000866 -0.000196071 0 0.000866 -0.000326786 0 0.000829194 0.00047875 0 
0.000150004 0.000913393 0 0.000263202 0.000848036 0 0.000376401 0.000782678 0 
0.000489599 0.000717321 0 0.000602797 0.000651965 0 0.000715996 0.000586607 0 
5.29966e-05 6.64557e-05 0 -1.89143e-05 8.28689e-05 0 -7.65824e-05 3.68801e-05 0 
-7.65824e-05 -3.68801e-05 0 -1.89143e-05 -8.28689e-05 0 5.29966e-05 -6.64557e-05 0 
8.46223e-17 0.0009575 -0.001 -0.000715996 0.000586607 -0.001 -0.000602797 0.000651965 -0.001 
-0.000489599 0.000717321 -0.001 -0.000376401 0.000782678 -0.001 -0.000263202 0.000848036 -0.001 
-0.000150004 0.000913393 -0.001 -0.000835948 0.000469948 -0.001 -0.000866 -0.000326786 -0.001 
-0.000866 -0.000196071 -0.001 -0.000866 -6.53571e-05 -0.001 -0.000866 6.53571e-05 -0.001 
-0.000866 0.000196071 -0.001 -0.000866 0.000326786 -0.001 -0.000835948 -0.000469948 -0.001 
-0.000150004 -0.000913393 -0.001 -0.000263202 -0.000848036 -0.001 -0.000376401 -0.000782678 -0.001 
-0.000489599 -0.000717321 -0.001 -0.000602797 -0.000651965 -0.001 -0.000715996 -0.000586607 -0.001 
8.47648e-17 -0.0009575 -0.001 0.000715996 -0.000586607 -0.001 0.000602797 -0.000651965 -0.001 
0.000489599 -0.000717321 -0.001 0.000376401 -0.000782678 -0.001 0.000263202 -0.000848036 -0.001 
0.000150004 -0.000913393 -0.001 0.000829194 -0.00047875 -0.001 0.000866 0.000326786 -0.001 
0.000866 0.000196071 -0.001 0.000866 6.53571e-05 -0.001 0.000866 -6.53571e-05 -0.001 
0.000866 -0.000196071 -0.001 0.000866 -0.000326786 -0.001 0.000829194 0.00047875 -0.001 
0.000150004 0.000913393 -0.001 0.000263202 0.000848036 -0.001 0.000376401 0.000782678 -0.001 
0.000489599 0.000717321 -0.001 0.000602797 0.000651965 -0.001 0.000715996 0.000586607 -0.001 
5.29966e-05 6.64557e-05 -0.001 -1.89143e-05 8.28689e-05 -0.001 -7.65824e-05 3.68801e-05 -0.001 
-7.65824e-05 -3.68801e-05 -0.001 -1.89143e-05 -8.28689e-05 -0.001 5.29966e-05 -6.64557e-05 -0.001 
0.000131234 6.38474e-05 0 0.00012964 -6.2443e-05 0 3.13827e-05 0.0001394 0 
3.12554e-05 -0.000136939 0 -0.000140461 8.25467e-19 0 -8.90565e-05 -0.000102707 0 
-9.04142e-05 0.000102872 0 -0.000765769 -0.00025965 0 -0.000756873 0.000262774 0 
-0.00015609 0.000787505 0 -0.000155807 -0.00079355 0 0.000605069 0.000528035 0 
0.000608694 -0.00052497 0 0.000744069 0.000116929 0 -0.000494418 0.000596218 0 
-0.000483866 -0.000584648 0 0.000269496 0.000702219 0 0.000263201 -0.000717324 0 
0.000754429 -0.000127825 0 -0.000748858 5.84659e-07 0 -0.000747838 0.000373886 0 
-0.0006542 0.000324842 0 -0.000645137 0.000210123 0 -0.000550884 0.000274171 0 
-0.000538857 0.000163195 0 -0.00045062 0.000224461 0 -0.000438393 0.000123907 0 
-0.000354088 0.000181668 0 -0.000363908 0.000282171 0 -0.000270361 0.000239477 0 
-0.000279138 0.000337653 0 -0.000188888 0.000294791 0 -0.000196448 0.000393271 0 
-0.000104767 0.000348259 0 -0.000113332 0.000449012 0 -2.01066e-05 0.000403223 0 
-2.89189e-05 0.000507105 0 6.9524e-05 0.000461596 0 -0.000213644 0.000490203 0 
7.33757e-05 0.000357726 0 0.000163331 0.00041299 0 0.000163359 0.000313022 0 
0.000248077 0.000366368 0 0.000250914 0.000265758 0 0.000335709 0.000322266 0 
0.000340555 0.000218148 0 0.000427299 0.000276717 0 0.000431508 0.000173093 0 
0.000328731 0.000425633 0 0.00034586 0.000114823 0 0.000435362 7.05241e-05 0 
0.000350892 1.5455e-05 0 0.000441547 -3.11896e-05 0 0.000353547 -8.47783e-05 0 
0.000445767 -0.000132964 0 0.000356135 -0.000186358 0 0.000449094 -0.000234674 0 
0.000359978 -0.000287876 0 0.00026856 -0.000240545 0 0.000271895 -0.000341045 0 
0.000181792 -0.00029305 0 0.00018533 -0.000392851 0 9.75701e-05 -0.00034483 0 
9.98764e-05 -0.000444884 0 8.75116e-06 -0.000396343 0 1.20916e-05 -0.000500496 0 
-7.83929e-05 -0.000449843 0 -8.1471e-05 -0.000347249 0 -0.000171566 -0.000403733 0 
-0.000169889 -0.000298891 0 -0.000259867 -0.000354132 0 -0.000257696 -0.000249137 0 
-0.00034313 -0.000299896 0 -0.000344514 -0.000199127 0 -0.000434309 -0.000250039 0 
-0.000169832 -0.000505815 0 -0.000435227 -0.000146227 0 0.000280331 -0.000442424 0 
-0.000340889 8.76793e-05 0 -0.000515252 4.06198e-05 0 6.50491e-05 0.000568253 0 
0.00053278 1.74743e-05 0 0.000522071 0.000229831 0 -0.00037162 0.000391659 0 
-0.000255272 -0.000150439 0 -0.000442893 -0.000350705 0 0.000450067 -0.000332559 0 
0.000545175 -0.000276306 0 -0.000527797 -0.000197598 0 0.000105306 -0.000551033 0 
1.45836e-05 -0.000609147 0 0.00017145 0.000214453 0 0.000515525 0.000341711 0 
0.000636086 0.000290368 0 -0.000558657 0.000404468 0 -4.01232e-05 0.000616718 0 
6.60192e-05 0.000696422 0 -0.000101806 0.0002546 0 0.000271142 -3.88908e-05 0 
0.000179455 -0.00018534 0 -8.79553e-05 -0.000254307 0 -0.000749267 -0.000373451 0 
-0.000655941 -0.000323397 0 0.000709746 0.000466718 0 0.000698426 -0.000473086 0 
-5.25801e-05 -0.00084886 0 -4.93005e-05 0.000848038 0 0.000617396 -0.000413362 0 
0.000702056 -0.000369817 0 0.000131459 -0.000679171 0 2.48171e-05 -0.000715924 0 
-0.000664217 -0.00042729 0 -0.000528828 -8.80444e-05 0 -0.000611101 -0.000136672 0 
-0.000426972 -4.45841e-05 0 0.000800669 0.000378216 0 0.000821144 -0.000415062 0 
7.2799e-05 0.00088254 0 6.81831e-05 -0.00087503 0 0.000104963 -0.000788946 0 
-7.40696e-05 -0.000660054 0 0.000126061 0.000809943 0 0.000764361 0.000295682 0 
0.000166862 0.000630623 0 0.000516462 -0.00046707 0 -0.000563585 -0.000389606 0 
-0.000622598 -1.40238e-05 0 0.000629891 0.000171529 0 2.5614e-06 -0.000299794 0 
8.6901e-05 -0.00024329 0 0.000272045 -0.000136982 0 -0.00075148 0.000138321 0 
0.000209366 -0.000599589 0 0.000324913 -0.000630055 0 0.000614044 0.00041245 0 
0.00049651 -0.000573327 0 0.000394822 -0.000507321 0 -0.000173714 -0.000206698 0 
0.000264897 5.63722e-05 0 0.000247997 0.000152811 0 -4.63327e-05 -0.000920208 0 
9.18688e-05 0.000258626 0 -5.54111e-06 0.000290558 0 -0.000184219 0.000201484 0 
-0.000263559 0.000142267 0 -0.000256427 5.13624e-05 0 -0.000336894 -2.06179e-06 0 
-0.000228499 -4.2388e-05 0 -0.00017589 0.000106626 0 -0.000769947 -0.000133367 0 
0.000767591 -0.000500293 0 -5.05874e-05 0.000737978 0 0.000754456 -3.51771e-06 0 
0.00064691 -6.15298e-05 0 0.000630483 -0.00018134 0 0.000749187 -0.000265543 0 
-0.000760805 -0.000462521 0 0.000638155 6.09315e-05 0 -4.46661e-05 0.000922995 0 
-2.37945e-05 0.000207237 0 0.000776979 0.000500181 0 -0.000605691 0.000527596 0 
-0.000377914 -0.000653727 0 -0.000372325 -0.000526022 0 -0.000275829 -0.000589621 0 
-0.000254285 -0.000710579 0 -0.000379307 0.000656222 0 -0.000379818 0.00052718 0 
-0.000266817 0.000721555 0 -0.000150544 0.000668174 0 0.000381963 0.00065079 0 
0.000493113 0.000590432 0 0.000505439 0.000463708 0 -0.000269094 0.000596608 0 
0.000385815 0.000532045 0 0.000283599 0.0005899 0 -0.000176405 -0.000108505 0 
-0.000278769 -0.000475415 0 0.000185395 2.33014e-06 0 0.000186773 0.000517571 0 
0.000540032 -8.68444e-05 0 -0.000600694 -0.000514877 0 -0.00063703 8.98033e-05 0 
-0.000459677 0.000335729 0 -0.000338836 -0.000100751 0 -0.000457327 0.000432721 0 
-8.72007e-06 -0.000210238 0 0.000156073 0.000129496 0 -7.70692e-05 -0.000555049 0 
0.00036091 -0.000389728 0 0.000531628 0.000120564 0 -0.000285451 0.000435562 0 
0.000192719 -0.000494604 0 0.00041642 0.00039368 0 -0.000135943 0.000554637 0 
-0.000170665 -0.000610079 0 -0.000666304 0.000434981 0 -0.000758736 0.000479231 0 
-0.000470189 -0.000458901 0 0.000203433 -8.59809e-05 0 0.000101846 0.000170114 0 
-0.00035513 -0.00040726 0 0.000100184 -0.000165831 0 2.96286e-05 0.00081537 0 
0.000720946 0.000381836 0 -0.000539809 -0.000292001 0 0.00052211 -0.000182426 0 
-6.41339e-05 -0.000753908 0 0.000638039 -0.000299861 0 -0.000605136 -0.000230182 0 
-3.41638e-05 -0.000145561 0 -0.000104037 0.000172396 0 -0.000808575 -0.00042774 0 
-0.000807207 -0.000465052 0 -0.00080817 0.000429771 0 -0.000806589 0.000469738 0 
-9.50634e-05 -0.000178909 0 0.000247777 0.000445058 0 1.48293e-05 -0.000814201 0 
-4.11555e-05 0.000140955 0 0.000276104 -0.000536845 0 0.000765969 -0.000436638 0 
0.000780871 -0.000362769 0 0.000424176 -0.000642018 0 0.00053413 -0.000368009 0 
-0.000416333 4.17911e-05 0 -0.000133891 -6.23822e-05 0 4.2574e-05 0.000206312 0 
0.000141163 -0.000121542 0 0.000707423 0.000212137 0 0.000172327 0.000723882 0 
7.72652e-06 -0.00090254 0 -0.000134435 5.66935e-05 0 -0.000188826 3.70894e-05 0 
0.000197119 8.09714e-05 0 1.27801e-05 0.000917296 0 0.000800767 0.00044758 0 
-0.000686682 0.000507104 0 9.35831e-05 0.000110457 0 -0.000696793 -0.000509595 0 
-0.00068446 -8.52012e-05 0 -0.000691033 -0.000201242 0 5.24052e-05 -0.000189075 0 
-0.000151818 -0.000701092 0 -0.000296988 0.000518087 0 9.31023e-05 -0.000108117 0 
0.00044261 -0.000416726 0 0.000197044 -0.000784423 0 -0.000516861 0.000504567 0 
0.000298997 0.000502377 0 0.000131234 6.38474e-05 -0.001 0.00012964 -6.2443e-05 -0.001 
3.13827e-05 0.0001394 -0.001 3.12554e-05 -0.000136939 -0.001 -0.000140461 8.25467e-19 -0.001 
-8.90565e-05 -0.000102707 -0.001 -9.04142e-05 0.000102872 -0.001 -0.000765769 -0.00025965 -0.001 
-0.000756873 0.000262774 -0.001 -0.00015609 0.000787505 -0.001 -0.000155807 -0.00079355 -0.001 
0.000605069 0.000528035 -0.001 0.000608694 -0.00052497 -0.001 0.000744069 0.000116929 -0.001 
-0.000494418 0.000596218 -0.001 -0.000483866 -0.000584648 -0.001 0.000269496 0.000702219 -0.001 
0.000263201 -0.000717324 -0.001 0.000754429 -0.000127825 -0.001 -0.000748858 5.84659e-07 -0.001 
-0.000747838 0.000373886 -0.001 -0.0006542 0.000324842 -0.001 -0.000645137 0.000210123 -0.001 
-0.000550884 0.000274171 -0.001 -0.000538857 0.000163195 -0.001 -0.00045062 0.000224461 -0.001 
-0.000438393 0.000123907 -0.001 -0.000354088 0.000181668 -0.001 -0.000363908 0.000282171 -0.001 
-0.000270361 0.000239477 -0.001 -0.000279138 0.000337653 -0.001 -0.000188888 0.000294791 -0.001 
-0.000196448 0.000393271 -0.001 -0.000104767 0.000348259 -0.001 -0.000113332 0.000449012 -0.001 
-2.01066e-05 0.000403223 -0.001 -2.89189e-05 0.000507105 -0.001 6.9524e-05 0.000461596 -0.001 
-0.000213644 0.000490203 -0.001 7.33757e-05 0.000357726 -0.001 0.000163331 0.00041299 -0.001 
0.000163359 0.000313022 -0.001 0.000248077 0.000366368 -0.001 0.000250914 0.000265758 -0.001 
0.000335709 0.000322266 -0.001 0.000340555 0.000218148 -0.001 0.000427299 0.000276717 -0.001 
0.000431508 0.000173093 -0.001 0.000328731 0.000425633 -0.001 0.00034586 0.000114823 -0.001 
0.000435362 7.05241e-05 -0.001 0.000350892 1.5455e-05 -0.001 0.000441547 -3.11896e-05 -0.001 
0.000353547 -8.47783e-05 -0.001 0.000445767 -0.000132964 -0.001 0.000356135 -0.000186358 -0.001 
0.000449094 -0.000234674 -0.001 0.000359978 -0.000287876 -0.001 0.00026856 -0.000240545 -0.001 
0.000271895 -0.000341045 -0.001 0.000181792 -0.00029305 -0.001 0.00018533 -0.000392851 -0.001 
9.75701e-05 -0.00034483 -0.001 9.98764e-05 -0.000444884 -0.001 8.75116e-06 -0.000396343 -0.001 
1.20916e-05 -0.000500496 -0.001 -7.83929e-05 -0.000449843 -0.001 -8.1471e-05 -0.000347249 -0.001 
-0.000171566 -0.000403733 -0.001 -0.000169889 -0.000298891 -0.001 -0.000259867 -0.000354132 -0.001 
-0.000257696 -0.000249137 -0.001 -0.00034313 -0.000299896 -0.001 -0.000344514 -0.000199127 -0.001 
-0.000434309 -0.000250039 -0.001 -0.000169832 -0.000505815 -0.001 -0.000435227 -0.000146227 -0.001 
0.000280331 -0.000442424 -0.001 -0.000340889 8.76793e-05 -0.001 -0.000515252 4.06198e-05 -0.001 
6.50491e-05 0.000568253 -0.001 0.00053278 1.74743e-05 -0.001 0.000522071 0.000229831 -0.001 
-0.00037162 0.000391659 -0.001 -0.000255272 -0.000150439 -0.001 -0.000442893 -0.000350705 -0.001 
0.000450067 -0.000332559 -0.001 0.000545175 -0.000276306 -0.001 -0.000527797 -0.000197598 -0.001 
0.000105306 -0.000551033 -0.001 1.45836e-05 -0.000609147 -0.001 0.00017145 0.000214453 -0.001 
0.000515525 0.000341711 -0.001 0.000636086 0.000290368 -0.001 -0.000558657 0.000404468 -0.001 
-4.01232e-05 0.000616718 -0.001 6.60192e-05 0.000696422 -0.001 -0.000101806 0.0002546 -0.001 
0.000271142 -3.88908e-05 -0.001 0.000179455 -0.00018534 -0.001 -8.79553e-05 -0.000254307 -0.001 
-0.000749267 -0.000373451 -0.001 -0.000655941 -0.000323397 -0.001 0.000709746 0.000466718 -0.001 
0.000698426 -0.000473086 -0.001 -5.25801e-05 -0.00084886 -0.001 -4.93005e-05 0.000848038 -0.001 
0.000617396 -0.000413362 -0.001 0.000702056 -0.000369817 -0.001 0.000131459 -0.000679171 -0.001 
2.48171e-05 -0.000715924 -0.001 -0.000664217 -0.00042729 -0.001 -0.000528828 -8.80444e-05 -0.001 
-0.000611101 -0.000136672 -0.001 -0.000426972 -4.45841e-05 -0.001 0.000800669 0.000378216 -0.001 
0.000821144 -0.000415062 -0.001 7.2799e-05 0.00088254 -0.001 6.81831e-05 -0.00087503 -0.001 
0.000104963 -0.000788946 -0.001 -7.40696e-05 -0.000660054 -0.001 0.000126061 0.000809943 -0.001 
0.000764361 0.000295682 -0.001 0.000166862 0.000630623 -0.001 0.000516462 -0.00046707 -0.001 
-0.000563585 -0.000389606 -0.001 -0.000622598 -1.40238e-05 -0.001 0.000629891 0.000171529 -0.001 
2.5614e-06 -0.000299794 -0.001 8.6901e-05 -0.00024329 -0.001 0.000272045 -0.000136982 -0.001 
-0.00075148 0.000138321 -0.001 0.000209366 -0.000599589 -0.001 0.000324913 -0.000630055 -0.001 
0.000614044 0.00041245 -0.001 0.00049651 -0.000573327 -0.001 0.000394822 -0.000507321 -0.001 
-0.000173714 -0.000206698 -0.001 0.000264897 5.63722e-05 -0.001 0.000247997 0.000152811 -0.001 
-4.63327e-05 -0.000920208 -0.001 9.18688e-05 0.000258626 -0.001 -5.54111e-06 0.000290558 -0.001 
-0.000184219 0.000201484 -0.001 -0.000263559 0.000142267 -0.001 -0.000256427 5.13624e-05 -0.001 
-0.000336894 -2.06179e-06 -0.001 -0.000228499 -4.2388e-05 -0.001 -0.00017589 0.000106626 -0.001 
-0.000769947 -0.000133367 -0.001 0.000767591 -0.000500293 -0.001 -5.05874e-05 0.000737978 -0.001 
0.000754456 -3.51771e-06 -0.001 0.00064691 -6.15298e-05 -0.001 0.000630483 -0.00018134 -0.001 
0.000749187 -0.000265543 -0.001 -0.000760805 -0.000462521 -0.001 0.000638155 6.09315e-05 -0.001 
-4.46661e-05 0.000922995 -0.001 -2.37945e-05 0.000207237 -0.001 0.000776979 0.000500181 -0.001 
-0.000605691 0.000527596 -0.001 -0.000377914 -0.000653727 -0.001 -0.000372325 -0.000526022 -0.001 
-0.000275829 -0.000589621 -0.001 -0.000254285 -0.000710579 -0.001 -0.000379307 0.000656222 -0.001 
-0.000379818 0.00052718 -0.001 -0.000266817 0.000721555 -0.001 -0.000150544 0.000668174 -0.001 
0.000381963 0.00065079 -0.001 0.000493113 0.000590432 -0.001 0.000505439 0.000463708 -0.001 
-0.000269094 0.000596608 -0.001 0.000385815 0.000532045 -0.001 0.000283599 0.0005899 -0.001 
-0.000176405 -0.000108505 -0.001 -0.000278769 -0.000475415 -0.001 0.000185395 2.33014e-06 -0.001 
0.000186773 0.000517571 -0.001 0.000540032 -8.68444e-05 -0.001 -0.000600694 -0.000514877 -0.001 
-0.00063703 8.98033e-05 -0.001 -0.000459677 0.000335729 -0.001 -0.000338836 -0.000100751 -0.001 
-0.000457327 0.000432721 -0.001 -8.72007e-06 -0.000210238 -0.001 0.000156073 0.000129496 -0.001 
-7.70692e-05 -0.000555049 -0.001 0.00036091 -0.000389728 -0.001 0.000531628 0.000120564 -0.001 
-0.000285451 0.000435562 -0.001 0.000192719 -0.000494604 -0.001 0.00041642 0.00039368 -0.001 
-0.000135943 0.000554637 -0.001 -0.000170665 -0.000610079 -0.001 -0.000666304 0.000434981 -0.001 
-0.000758736 0.000479231 -0.001 -0.000470189 -0.000458901 -0.001 0.000203433 -8.59809e-05 -0.001 
0.000101846 0.000170114 -0.001 -0.00035513 -0.00040726 -0.001 0.000100184 -0.000165831 -0.001 
2.96286e-05 0.00081537 -0.001 0.000720946 0.000381836 -0.001 -0.000539809 -0.000292001 -0.001 
0.00052211 -0.000182426 -0.001 -6.41339e-05 -0.000753908 -0.001 0.000638039 -0.000299861 -0.001 
-0.000605136 -0.000230182 -0.001 -3.41638e-05 -0.000145561 -0.001 -0.000104037 0.000172396 -0.001 
-0.000808575 -0.00042774 -0.001 -0.000807207 -0.000465052 -0.001 -0.00080817 0.000429771 -0.001 
-0.000806589 0.000469738 -0.001 -9.50634e-05 -0.000178909 -0.001 0.000247777 0.000445058 -0.001 
1.48293e-05 -0.000814201 -0.001 -4.11555e-05 0.000140955 -0.001 0.000276104 -0.000536845 -0.001 
0.000765969 -0.000436638 -0.001 0.000780871 -0.000362769 -0.001 0.000424176 -0.000642018 -0.001 
0.00053413 -0.000368009 -0.001 -0.000416333 4.17911e-05 -0.001 -0.000133891 -6.23822e-05 -0.001 
4.2574e-05 0.000206312 -0.001 0.000141163 -0.000121542 -0.001 0.000707423 0.000212137 -0.001 
0.000172327 0.000723882 -0.001 7.72652e-06 -0.00090254 -0.001 -0.000134435 5.66935e-05 -0.001 
-0.000188826 3.70894e-05 -0.001 0.000197119 8.09714e-05 -0.001 1.27801e-05 0.000917296 -0.001 
0.000800767 0.00044758 -0.001 -0.000686682 0.000507104 -0.001 9.35831e-05 0.000110457 -0.001 
-0.000696793 -0.000509595 -0.001 -0.00068446 -8.52012e-05 -0.001 -0.000691033 -0.000201242 -0.001 
5.24052e-05 -0.000189075 -0.001 -0.000151818 -0.000701092 -0.001 -0.000296988 0.000518087 -0.001 
9.31023e-05 -0.000108117 -0.001 0.00044261 -0.000416726 -0.001 0.000197044 -0.000784423 -0.001 
-0.000516861 0.000504567 -0.001 0.000298997 0.000502377 -0.001 

CELLS 563 3941
6 14 304 127 29 554 377 
6 143 259 55 393 509 103 
6 300 319 174 550 569 424 
6 259 349 55 509 599 103 
6 50 365 307 98 615 557 
6 299 320 164 549 570 414 
6 126 304 14 376 554 29 
6 298 319 300 548 569 550 
6 205 240 238 455 490 488 
6 257 308 145 507 558 395 
6 130 352 273 380 602 523 
6 295 320 299 545 570 549 
6 324 327 289 574 577 539 
6 235 258 143 485 508 393 
6 50 307 49 98 557 97 
6 207 283 279 457 533 529 
6 143 373 235 393 623 485 
6 145 308 252 395 558 502 
6 194 303 196 444 553 446 
6 279 306 207 529 556 457 
6 206 305 163 456 555 413 
6 51 357 9 99 607 24 
6 238 252 205 488 502 455 
6 293 317 209 543 567 459 
6 207 316 283 457 566 533 
6 142 301 249 392 551 499 
6 273 359 130 523 609 380 
6 211 327 324 461 577 574 
6 169 265 217 419 515 467 
6 7 365 50 22 615 98 
6 283 316 253 533 566 503 
6 159 268 223 409 518 473 
6 274 337 132 524 587 382 
6 232 361 329 482 611 579 
6 231 266 45 481 516 93 
6 229 362 330 479 612 580 
6 9 244 57 24 494 105 
6 230 276 52 480 526 100 
6 209 311 293 459 561 543 
6 131 342 302 381 592 552 
6 270 271 204 520 521 454 
6 66 243 1 114 493 16 
6 59 241 12 107 491 27 
6 280 306 279 530 556 529 
6 269 337 274 519 587 524 
6 179 256 224 429 506 474 
6 163 305 166 413 555 416 
6 201 303 194 451 553 444 
6 280 332 306 530 582 556 
6 186 255 225 436 505 475 
6 210 310 273 460 560 523 
6 153 270 204 403 520 454 
6 136 231 45 386 481 93 
6 171 265 169 421 515 419 
6 138 230 52 388 480 100 
6 225 354 325 475 604 575 
6 36 284 232 84 534 482 
6 161 268 159 411 518 409 
6 71 286 229 119 536 479 
6 290 303 201 540 553 451 
6 139 355 60 389 605 108 
6 60 355 248 108 605 498 
6 273 352 302 523 602 552 
6 235 373 245 485 623 495 
6 67 356 247 115 606 497 
6 221 295 277 471 545 527 
6 142 356 67 392 606 115 
6 139 283 253 389 533 503 
6 203 315 262 453 565 512 
6 41 257 145 89 507 395 
6 36 232 135 84 482 385 
6 71 229 137 119 479 387 
6 254 255 188 504 505 438 
6 233 350 334 483 600 584 
6 262 346 203 512 596 453 
6 304 325 127 554 575 377 
6 222 329 247 472 579 497 
6 218 298 260 468 548 510 
6 290 321 291 540 571 541 
6 272 310 240 522 560 490 
6 269 274 270 519 524 520 
6 244 245 57 494 495 105 
6 49 307 141 97 557 391 
6 225 325 256 475 575 506 
6 273 310 272 523 560 522 
6 312 368 255 562 618 505 
6 249 305 206 499 555 456 
6 228 331 251 478 581 501 
6 302 342 263 552 592 513 
6 338 339 44 588 589 92 
6 190 254 188 440 504 438 
6 37 341 340 85 591 590 
6 138 233 230 388 483 480 
6 228 335 331 478 585 581 
6 181 256 179 431 506 429 
6 195 263 226 445 513 476 
6 268 285 223 518 535 473 
6 290 291 288 540 541 538 
6 219 330 248 469 580 498 
6 201 321 290 451 571 540 
6 240 310 202 490 560 452 
6 188 255 186 438 505 436 
6 270 274 271 520 524 521 
6 262 349 259 512 599 509 
6 141 324 289 391 574 539 
6 296 301 142 546 551 392 
6 247 356 222 497 606 472 
6 239 252 238 489 502 488 
6 254 312 255 504 562 505 
6 54 261 53 102 511 101 
6 289 327 303 539 577 553 
6 268 353 285 518 603 535 
6 273 302 210 523 552 460 
6 292 299 293 542 549 543 
6 278 283 139 528 533 389 
6 175 265 171 425 515 421 
6 227 338 38 477 588 86 
6 264 360 265 514 610 515 
6 43 340 146 91 590 396 
6 165 268 161 415 518 411 
6 205 351 240 455 601 490 
6 64 281 63 112 531 111 
6 288 291 47 538 541 95 
6 135 295 294 385 545 544 
6 42 257 41 90 507 89 
6 245 373 57 495 623 105 
6 31 363 323 79 613 573 
6 292 293 140 542 543 390 
6 267 353 268 517 603 518 
6 155 270 153 405 520 403 
6 244 344 245 494 594 495 
6 61 278 139 109 528 389 
6 135 294 35 385 544 83 
6 69 297 296 117 547 546 
6 186 225 184 436 475 434 
6 329 361 243 579 611 493 
6 255 328 225 505 578 475 
6 213 332 280 463 582 530 
6 39 275 133 87 525 383 
6 330 362 241 580 612 491 
6 195 226 193 445 476 443 
6 211 324 251 461 574 501 
6 151 153 152 401 403 402 
6 295 299 294 545 549 544 
6 265 313 217 515 563 467 
6 258 259 143 508 509 393 
6 251 331 211 501 581 461 
6 149 151 150 399 401 400 
6 293 370 317 543 620 567 
6 153 204 152 403 454 402 
6 151 152 150 401 402 400 
6 33 292 140 81 542 390 
6 210 263 197 460 513 447 
6 301 305 249 551 555 499 
6 298 300 297 548 550 547 
6 68 296 142 116 546 392 
6 321 369 291 571 619 541 
6 179 224 177 429 474 427 
6 167 267 165 417 517 415 
6 259 346 262 509 596 512 
6 303 327 196 553 577 446 
6 269 270 155 519 520 405 
6 265 360 313 515 610 563 
6 223 269 157 473 519 407 
6 157 269 155 407 519 405 
6 144 279 278 394 529 528 
6 169 217 167 419 467 417 
6 177 264 175 427 514 425 
6 267 268 165 517 518 415 
6 159 223 157 409 473 407 
6 232 277 135 482 527 385 
6 193 254 190 443 504 440 
6 217 267 167 467 517 417 
6 249 356 142 499 606 392 
6 184 256 181 434 506 431 
6 248 355 219 498 605 469 
6 229 260 137 479 510 387 
6 149 150 148 399 400 398 
6 64 348 281 112 598 531 
6 311 374 293 561 624 543 
6 264 265 175 514 515 425 
6 297 300 296 547 550 546 
6 141 289 288 391 539 538 
6 197 263 195 447 513 445 
6 218 260 219 468 510 469 
6 224 264 177 474 514 427 
6 137 298 297 387 548 547 
6 277 295 135 527 545 385 
6 133 228 227 383 478 477 
6 261 349 262 511 599 512 
6 221 277 222 471 527 472 
6 256 325 224 506 575 474 
6 199 210 197 449 460 447 
6 226 254 193 476 504 443 
6 144 278 62 394 528 110 
6 279 283 278 529 533 528 
6 289 290 288 539 540 538 
6 137 297 70 387 547 118 
6 34 294 292 82 544 542 
6 235 236 216 485 486 466 
6 141 288 48 391 538 96 
6 178 306 180 428 556 430 
6 185 186 184 435 436 434 
6 63 281 144 111 531 394 
6 225 256 184 475 506 434 
6 46 291 136 94 541 386 
6 147 149 148 397 399 398 
6 271 272 204 521 522 454 
6 233 334 234 483 584 484 
6 145 275 40 395 525 88 
6 220 322 287 470 572 537 
6 280 334 213 530 584 463 
6 144 280 279 394 530 529 
6 140 287 32 390 537 80 
6 154 155 153 404 405 403 
6 334 350 213 584 600 463 
6 176 177 175 426 427 425 
6 260 298 137 510 548 387 
6 33 140 32 81 390 80 
6 49 141 48 97 391 96 
6 56 143 55 104 393 103 
6 68 142 67 116 392 115 
6 63 144 62 111 394 110 
6 61 139 60 109 389 108 
6 148 308 257 398 558 507 
6 71 137 70 119 387 118 
6 53 138 52 101 388 100 
6 46 136 45 94 386 93 
6 36 135 35 84 385 83 
6 43 146 134 91 396 384 
6 133 227 38 383 477 86 
6 192 193 190 442 443 440 
6 293 374 140 543 624 390 
6 34 292 33 82 542 81 
6 207 306 178 457 556 428 
6 43 134 42 91 384 90 
6 39 133 38 87 383 86 
6 41 145 40 89 395 88 
6 194 195 193 444 445 443 
6 69 296 68 117 546 116 
6 294 299 292 544 549 542 
6 173 175 171 423 425 421 
6 260 330 219 510 580 469 
6 183 184 181 433 434 431 
6 134 257 42 384 507 90 
6 55 349 54 103 599 102 
6 163 165 161 413 415 411 
6 166 167 165 416 417 415 
6 210 302 263 460 552 513 
6 271 273 272 521 523 522 
6 53 261 138 101 511 388 
6 217 326 267 467 576 517 
6 289 303 290 539 553 540 
6 178 179 177 428 429 427 
6 238 240 202 488 490 452 
6 62 278 61 110 528 109 
6 35 294 34 83 544 82 
6 284 361 232 534 611 482 
6 70 297 69 118 547 117 
6 224 304 264 474 554 514 
6 156 157 155 406 407 405 
6 48 288 47 96 538 95 
6 221 320 295 471 570 545 
6 187 188 186 437 438 436 
6 47 291 46 95 541 94 
6 151 154 153 401 404 403 
6 286 362 229 536 612 479 
6 168 169 167 418 419 417 
6 40 275 39 88 525 87 
6 307 324 141 557 574 391 
6 300 301 296 550 551 546 
6 32 287 31 80 537 79 
6 147 220 149 397 470 399 
6 333 344 231 583 594 481 
6 299 370 293 549 620 543 
6 271 359 273 521 609 523 
6 224 325 304 474 575 554 
6 228 237 227 478 487 477 
6 305 375 343 555 625 593 
6 218 319 298 468 569 548 
6 240 351 272 490 601 522 
6 277 329 222 527 579 472 
6 253 355 139 503 605 389 
6 158 159 157 408 409 407 
6 236 246 216 486 496 466 
6 192 194 193 442 444 443 
6 220 309 149 470 559 399 
6 183 185 184 433 435 434 
6 196 197 195 446 447 445 
6 276 347 58 526 597 106 
6 136 333 231 386 583 481 
6 67 247 66 115 497 114 
6 60 248 59 108 498 107 
6 261 262 250 511 512 500 
6 173 176 175 423 426 425 
6 344 357 231 594 607 481 
6 144 281 280 394 531 530 
6 152 205 150 402 455 400 
6 163 166 165 413 416 415 
6 185 187 186 435 437 436 
6 233 234 230 483 484 480 
6 170 171 169 420 421 419 
6 146 147 134 396 397 384 
6 176 178 177 426 428 427 
6 285 337 223 535 587 473 
6 154 156 155 404 406 405 
6 263 342 226 513 592 476 
6 235 245 236 485 495 486 
6 160 161 159 410 411 409 
6 58 347 242 106 597 492 
6 166 168 167 416 418 417 
6 287 374 220 537 624 470 
6 189 190 188 439 440 438 
6 148 257 134 398 507 384 
6 194 196 195 444 446 445 
6 252 308 205 502 558 455 
6 285 345 337 535 595 587 
6 301 375 305 551 625 555 
6 180 181 179 430 431 429 
6 281 348 234 531 598 484 
6 198 199 197 448 449 447 
6 151 309 154 401 559 404 
6 228 367 335 478 617 585 
6 54 349 261 102 599 511 
6 156 158 157 406 408 407 
6 168 170 169 418 420 419 
6 200 202 199 450 452 449 
6 147 148 134 397 398 384 
6 158 160 159 408 410 409 
6 150 308 148 400 558 398 
6 253 316 208 503 566 458 
6 232 329 277 482 579 527 
6 178 180 179 428 430 429 
6 191 192 190 441 442 440 
6 214 238 202 464 488 452 
6 172 173 171 422 423 421 
6 187 189 188 437 439 438 
6 162 163 161 412 413 411 
6 228 251 237 478 501 487 
6 215 258 235 465 508 485 
6 182 183 181 432 433 431 
6 202 310 199 452 560 449 
6 219 253 208 469 503 458 
6 222 249 206 472 499 456 
6 196 198 197 446 448 447 
6 229 330 260 479 580 510 
6 132 358 274 382 608 524 
6 149 309 151 399 559 401 
6 226 312 254 476 562 504 
6 154 309 209 404 559 459 
6 77 129 76 125 379 124 
6 73 128 72 121 378 120 
6 76 131 75 124 381 123 
6 74 132 73 122 382 121 
6 75 130 74 123 380 122 
6 14 127 77 29 377 125 
6 72 126 14 120 376 29 
6 133 367 228 383 617 478 
6 237 282 227 487 532 477 
6 239 366 252 489 616 502 
6 200 214 202 450 464 452 
6 192 201 194 442 451 444 
6 170 172 171 420 422 421 
6 220 311 309 470 561 559 
6 198 200 199 448 450 449 
6 189 191 190 439 441 440 
6 146 323 322 396 573 572 
6 160 162 161 410 412 411 
6 251 307 237 501 557 487 
6 199 310 210 449 560 460 
6 57 373 56 105 623 104 
6 214 239 238 464 489 488 
6 182 212 183 432 462 433 
6 180 182 181 430 432 431 
6 146 322 147 396 572 397 
6 172 218 208 422 468 458 
6 172 208 173 422 458 423 
6 162 221 206 412 471 456 
6 162 206 163 412 456 413 
6 176 207 178 426 457 428 
6 272 351 204 522 601 454 
6 198 211 200 448 461 450 
6 182 213 212 432 463 462 
6 234 334 281 484 584 531 
6 154 209 156 404 459 406 
6 185 203 187 435 453 437 
6 168 174 170 418 424 420 
6 189 215 191 439 465 441 
6 215 216 191 465 466 441 
6 221 222 206 471 472 456 
6 158 164 160 408 414 410 
6 218 219 208 468 469 458 
6 205 308 150 455 558 400 
6 191 314 192 441 564 442 
6 215 235 216 465 485 466 
6 215 318 258 465 568 508 
6 152 351 205 402 601 455 
6 138 261 250 388 511 500 
6 192 314 201 442 564 451 
6 234 347 230 484 597 480 
6 226 342 312 476 592 562 
6 138 250 233 388 500 483 
6 147 322 220 397 572 470 
6 216 314 191 466 564 441 
6 306 332 180 556 582 430 
6 222 356 249 472 606 499 
6 128 345 285 378 595 535 
6 314 321 201 564 571 451 
6 212 315 183 462 565 433 
6 312 342 336 562 592 586 
6 282 339 338 532 589 588 
6 340 341 323 590 591 573 
6 309 311 209 559 561 459 
6 183 315 185 433 565 435 
6 208 316 173 458 566 423 
6 173 316 176 423 566 426 
6 3 341 37 18 591 85 
6 44 339 6 92 589 21 
6 252 366 145 502 616 395 
6 246 321 314 496 571 564 
6 246 314 216 496 564 466 
6 126 364 313 376 614 563 
6 156 317 158 406 567 408 
6 275 367 133 525 617 383 
6 176 316 207 426 566 457 
6 185 315 203 435 565 453 
6 180 332 182 430 582 432 
6 302 352 131 552 602 381 
6 251 324 307 501 574 557 
6 187 318 189 437 568 439 
6 172 319 218 422 569 468 
6 162 320 221 412 570 471 
6 305 343 166 555 593 416 
6 170 319 172 420 569 422 
6 158 317 164 408 567 414 
6 209 317 156 459 567 406 
6 285 353 128 535 603 378 
6 223 337 269 473 587 519 
6 160 320 162 410 570 412 
6 211 331 200 461 581 450 
6 174 319 170 424 569 420 
6 203 318 187 453 568 437 
6 189 318 215 439 568 465 
6 198 327 211 448 577 461 
6 164 320 160 414 570 410 
6 326 353 267 576 603 517 
6 236 344 333 486 594 583 
6 196 327 198 446 577 448 
6 219 355 253 469 605 503 
6 281 334 280 531 584 530 
6 274 359 271 524 609 521 
6 164 370 299 414 620 549 
6 174 375 300 424 625 550 
6 287 363 31 537 613 79 
6 243 361 1 493 611 16 
6 241 362 12 491 612 27 
6 307 365 237 557 615 487 
6 166 343 168 416 593 418 
6 200 331 214 450 581 464 
6 313 326 217 563 576 467 
6 9 357 244 24 607 494 
6 1 361 30 16 611 78 
6 12 362 65 27 612 113 
6 337 345 132 587 595 382 
6 242 348 64 492 598 112 
6 231 357 266 481 607 516 
6 182 332 213 432 582 463 
6 245 344 236 495 594 486 
6 258 346 259 508 596 509 
6 145 366 275 395 616 525 
6 291 369 136 541 619 386 
6 236 333 246 486 583 496 
6 331 335 214 581 585 464 
6 312 336 129 562 586 379 
6 315 372 262 565 622 512 
6 220 374 311 470 624 561 
6 140 374 287 390 624 537 
6 126 360 304 376 610 554 
6 230 347 276 480 597 526 
6 313 364 326 563 614 576 
6 56 373 143 104 623 393 
6 239 367 366 489 617 616 
6 204 351 152 454 601 402 
6 300 375 301 550 625 551 
6 214 335 239 464 585 489 
6 247 329 243 497 579 493 
6 262 372 250 512 622 500 
6 248 330 241 498 580 491 
6 318 346 258 568 596 508 
6 333 369 246 583 619 496 
6 282 338 227 532 588 477 
6 146 340 323 396 590 573 
6 304 360 264 554 610 514 
6 366 367 275 616 617 525 
6 129 336 76 379 586 124 
6 73 345 128 121 595 378 
6 76 336 131 124 586 381 
6 250 350 233 500 600 483 
6 129 371 328 379 621 578 
6 132 345 73 382 595 121 
6 168 343 174 418 593 424 
6 131 352 75 381 602 123 
6 66 247 243 114 497 493 
6 59 248 241 107 498 491 
6 74 358 132 122 608 382 
6 203 346 318 453 596 568 
6 313 360 126 563 610 376 
6 128 364 72 378 614 120 
6 128 353 326 378 603 576 
6 77 371 129 125 621 379 
6 129 368 312 379 618 562 
6 244 357 344 494 607 594 
6 328 354 225 578 604 475 
6 326 364 128 576 614 378 
6 75 352 130 123 602 380 
6 350 372 212 600 622 462 
6 136 369 333 386 619 583 
6 325 354 127 575 604 377 
6 213 350 212 463 600 462 
6 130 358 74 380 608 122 
6 250 372 350 500 622 600 
6 317 370 164 567 620 414 
6 72 364 126 120 614 376 
6 328 368 129 578 618 379 
6 127 371 77 377 621 125 
6 336 342 131 586 592 381 
6 212 372 315 462 622 565 
6 234 348 347 484 598 597 
6 8 266 51 23 516 99 
6 10 276 58 25 526 106 
6 246 369 321 496 619 571 
6 30 284 0 78 534 15 
6 65 286 13 113 536 28 
6 58 242 11 106 492 26 
6 266 357 51 516 607 99 
6 255 368 328 505 618 578 
6 347 348 242 597 598 492 
6 322 363 287 572 613 537 
6 323 363 322 573 613 572 
6 335 367 239 585 617 489 
6 30 361 284 78 611 534 
6 65 362 286 113 612 536 
6 237 365 282 487 615 532 
6 130 359 358 380 609 608 
6 343 375 174 593 625 424 
6 354 371 127 604 621 377 
6 328 371 354 578 621 604 
6 358 359 274 608 609 524 
6 0 284 36 15 534 84 
6 45 266 8 93 516 23 
6 52 276 10 100 526 25 
6 11 242 64 26 492 112 
6 13 286 71 28 536 119 
6 2 323 3 17 573 18 
6 31 323 2 79 573 17 
6 323 341 3 573 591 18 
6 37 340 4 85 590 19 
6 4 340 43 19 590 91 
6 38 338 5 86 588 20 
6 5 338 44 20 588 92 
6 6 282 7 21 532 22 
6 6 339 282 21 589 532 
6 282 365 7 532 615 22 

CELL_TYPES 563
13
13
13
13
13
13
13
13
13
13
13
13
13
13
13
13
13
13
13
13
13
13
13
13
13
13
13
13
13
13
13
13
13
13
13
13
13
13
13
13
13
13
13
13
13
13
13
13
13
13
13
13
13
13
13
13
13
13
13
13
13
13
13
13
13
13
13
13
13
13
13
13
13
13
13
13
13
13
13
13
13
13
13
13
13
13
13
13
13
13
13
13
13
13
13
13
13
13
13
13
13
13
13
13
13
13
13
13
13
13
13
13
13
13
13
13
13
13
13
13
13
13
13
13
13
13
13
13
13
13
13
13
13
13
13
13
13
13
13
13
13
13
13
13
13
13
13
13
13
13
13
13
13
13
13
13
13
13
13
13
13
13
13
13
13
13
13
13
13
13
13
13
13
13
13
13
13
13
13
13
13
13
13
13
13
13
13
13
13
13
13
13
13
13
13
13
13
13
13
13
13
13
13
13
13
13
13
13
13
13
13
13
13
13
13
13
13
13
13
13
13
13
13
13
13
13
13
13
13
13
13
13
13
13
13
13
13
13
13
13
13
13
13
13
13
13
13
13
13
13
13
13
13
13
13
13
13
13
13
13
13
13
13
13
13
13
13
13
13
13
13
13
13
13
13
13
13
13
13
13
13
13
13
13
13
13
13
13
13
13
13
13
13
13
13
13
13
13
13
13
13
13
13
13
13
13
13
13
13
13
13
13
13
13
13
13
13
13
13
13
13
13
13
13
13
13
13
13
13
13
13
13
13
13
13
13
13
13
13
13
13
13
13
13
13
13
13
13
13
13
13
13
13
13
13
13
13
13
13
13
13
13
13
13
13
13
13
13
13
13
13
13
13
13
13
13
13
13
13
13
13
13
13
13
13
13
13
13
13
13
13
13
13
13
13
13
13
13
13
13
13
13
13
13
13
13
13
13
13
13
13
13
13
13
13
13
13
13
13
13
13
13
13
13
13
13
13
13
13
13
13
13
13
13
13
13
13
13
13
13
13
13
13
13
13
13
13
13
13
13
13
13
13
13
13
13
13
13
13
13
13
13
13
13
13
13
13
13
13
13
13
13
13
13
13
13
13
13
13
13
13
13
13
13
13
13
13
13
13
13
13
13
13
13
13
13
13
13
13
13
13
13
13
13
13
13
13
13
13
13
13
13
13
13
13
13
13
13
13
13
13
13
13
13
13
13
13
13
13
13
13
13
13
13
13
13
13
13
13
13
13
13
13
13
13
13
13
13
13
13
13
13
13
13
13
13
13
13
13
13
13
13
13

POINT_DATA 626
VECTORS displacement float
-1.74395e-06 3.0954e-05 1.80548e-05
1.73566e-06 3.0973e-05 1.80999e-05
-2.59859e-05 1.69926e-05 1.80868e-05
-2.58405e-05 1.60328e-05 1.80514e-05
-2.77202e-05 1.39725e-05 1.80688e-05
-2.77132e-05 -1.40188e-05 1.80943e-05
-2.58117e-05 -1.60709e-05 1.81056e-05
-2.59821e-05 -1.70107e-05 1.81668e-05
-1.67741e-06 -3.09577e-05 1.80512e-05
1.75546e-06 -3.09592e-05 1.81017e-05
2.59432e-05 -1.69805e-05 1.80433e-05
2.77166e-05 -1.39364e-05 1.80431e-05
2.7672e-05 1.39892e-05 1.80914e-05
2.59145e-05 1.69927e-05 1.80458e-05
0 0 0
-1.74395e-06 3.0954e-05 -1.80548e-05
1.73566e-06 3.0973e-05 -1.80999e-05
-2.59859e-05 1.69926e-05 -1.80868e-05
-2.58405e-05 1.60328e-05 -1.80514e-05
-2.77202e-05 1.39725e-05 -1.80688e-05
-2.77132e-05 -1.40188e-05 -1.80943e-05
-2.58117e-05 -1.60709e-05 -1.81056e-05
-2.59821e-05 -1.70107e-05 -1.81668e-05
-1.67741e-06 -3.09577e-05 -1.80512e-05
1.75546e-06 -3.09592e-05 -1.81017e-05
2.59432e-05 -1.69805e-05 -1.80433e-05
2.77166e-05 -1.39364e-05 -1.80431e-05
2.7672e-05 1.39892e-05 -1.80914e-05
2.59145e-05 1.69927e-05 -1.80458e-05
0 0 0
2.48964e-08 3.01539e-05 1.8034e-05
-2.11402e-05 1.87121e-05 1.75495e-05
-1.72321e-05 1.98335e-05 1.69205e-05
-1.40066e-05 2.10538e-05 1.65546e-05
-1.12066e-05 2.26644e-05 1.65485e-05
-8.52395e-06 2.48324e-05 1.6901e-05
-5.56775e-06 2.76212e-05 1.75372e-05
-2.64494e-05 1.46789e-05 1.80332e-05
-2.67683e-05 -9.01131e-06 1.75771e-05
-2.58057e-05 -5.03533e-06 1.69257e-05
-2.52539e-05 -1.63616e-06 1.65711e-05
-2.52569e-05 1.6078e-06 1.6574e-05
-2.5798e-05 5.02273e-06 1.69239e-05
-2.67545e-05 8.9844e-06 1.75636e-05
-2.64363e-05 -1.47252e-05 1.8062e-05
-5.54101e-06 -2.76357e-05 1.75294e-05
-8.47647e-06 -2.48414e-05 1.69004e-05
-1.11698e-05 -2.26838e-05 1.65558e-05
-1.39703e-05 -2.10868e-05 1.65592e-05
-1.72146e-05 -1.98688e-05 1.69363e-05
-2.11338e-05 -1.87489e-05 1.75619e-05
8.98426e-08 -3.01386e-05 1.80291e-05
2.11236e-05 -1.86245e-05 1.75112e-05
1.72443e-05 -1.97618e-05 1.68725e-05
1.40336e-05 -2.10108e-05 1.65112e-05
1.12248e-05 -2.25925e-05 1.65458e-05
8.58111e-06 -2.47796e-05 1.68738e-05
5.65463e-06 -2.76259e-05 1.75347e-05
2.61241e-05 -1.50594e-05 1.80281e-05
2.67163e-05 8.93818e-06 1.75012e-05
2.57215e-05 5.04945e-06 1.69081e-05
2.5206e-05 1.62327e-06 1.65228e-05
2.52032e-05 -1.59938e-06 1.65211e-05
2.57502e-05 -4.99724e-06 1.6888e-05
2.66984e-05 -8.91694e-06 1.75094e-05
2.61072e-05 1.50606e-05 1.80252e-05
5.63309e-06 2.76173e-05 1.75093e-05
8.50849e-06 2.48063e-05 1.69109e-05
1.12169e-05 2.26405e-05 1.6529e-05
1.40042e-05 2.10217e-05 1.65244e-05
1.72213e-05 1.97931e-05 1.68848e-05
2.11146e-05 1.86341e-05 1.75251e-05
0 0 0
0 0 0
0 0 0
0 0 0
0 0 0
0 0 0
2.48964e-08 3.01539e-05 -1.8034e-05
-2.11402e-05 1.87121e-05 -1.75495e-05
-1.72321e-05 1.98335e-05 -1.69205e-05
-1.40066e-05 2.10538e-05 -1.65546e-05
-1.12066e-05 2.26644e-05 -1.65485e-05
-8.52395e-06 2.48324e-05 -1.6901e-05
-5.56775e-06 2.76212e-05 -1.75372e-05
-2.64494e-05 1.46789e-05 -1.80332e-05
-2.67683e-05 -9.01131e-06 -1.75771e-05
-2.58057e-05 -5.03533e-06 -1.69257e-05
-2.52539e-05 -1.63616e-06 -1.65711e-05
-2.52569e-05 1.6078e-06 -1.6574e-05
-2.5798e-05 5.02273e-06 -1.69239e-05
-2.67545e-05 8.9844e-06 -1.75636e-05
-2.64363e-05 -1.47252e-05 -1.8062e-05
-5.54101e-06 -2.76357e-05 -1.75294e-05
-8.47647e-06 -2.48414e-05 -1.69004e-05
-1.11698e-05 -2.26838e-05 -1.65558e-05
-1.39703e-05 -2.10868e-05 -1.65592e-05
-1.72146e-05 -1.98688e-05 -1.69363e-05
-2.11338e-05 -1.87489e-05 -1.75619e-05
8.98426e-08 -3.01386e-05 -1.80291e-05
2.11236e-05 -1.86245e-05 -1.75112e-05
1.72443e-05 -1.97618e-05 -1.68725e-05
1.40336e-05 -2.10108e-05 -1.65112e-05
1.12248e-05 -2.25925e-05 -1.65458e-05
8.58111e-06 -2.47796e-05 -1.68738e-05
5.65463e-06 -2.76259e-05 -1.75347e-05
2.61241e-05 -1.50594e-05 -1.80281e-05
2.67163e-05 8.93818e-06 -1.75012e-05
2.57215e-05 5.04945e-06 -1.69081e-05
2.5206e-05 1.62327e-06 -1.65228e-05
2.52032e-05 -1.59938e-06 -1.65211e-05
2.57502e-05 -4.99724e-06 -1.6888e-05
2.66984e-05 -8.91694e-06 -1.75094e-05
2.61072e-05 1.50606e-05 -1.80252e-05
5.63309e-06 2.76173e-05 -1.75093e-05
8.50849e-06 2.48063e-05 -1.69109e-05
1.12169e-05 2.26405e-05 -1.6529e-05
1.40042e-05 2.10217e-05 -1.65244e-05
1.72213e-05 1.97931e-05 -1.68848e-05
2.11146e-05 1.86341e-05 -1.75251e-05
0 0 0
0 0 0
0 0 0
0 0 0
0 0 0
0 0 0
1.79365e-06 8.58732e-07 4.55215e-06
1.73779e-06 -8.251e-07 4.4607e-06
4.31946e-07 1.84959e-06 4.49502e-06
4.36091e-07 -1.7806e-06 4.35599e-06
-1.84746e-06 2.09627e-08 4.42226e-06
-1.12307e-06 -1.30885e-06 4.15091e-06
-1.15919e-06 1.30678e-06 4.19969e-06
-2.25126e-05 -7.2875e-06 1.69996e-05
-2.21959e-05 7.37139e-06 1.69683e-05
-4.86036e-06 2.2898e-05 1.69367e-05
-4.85787e-06 -2.31311e-05 1.69636e-05
1.74208e-05 1.56351e-05 1.69295e-05
1.75684e-05 -1.55361e-05 1.69388e-05
2.1073e-05 3.1638e-06 1.6324e-05
-1.39528e-05 1.71509e-05 1.6478e-05
-1.35909e-05 -1.67409e-05 1.64096e-05
7.76768e-06 1.98191e-05 1.63308e-05
7.68471e-06 -2.03095e-05 1.64021e-05
2.14718e-05 -3.44364e-06 1.63998e-05
-2.11022e-05 6.58807e-09 1.62463e-05
-2.24199e-05 1.09995e-05 1.74533e-05
-1.87505e-05 9.25449e-06 1.66267e-05
-1.79824e-05 5.79531e-06 1.60359e-05
-1.49836e-05 7.44816e-06 1.5486e-05
-1.42241e-05 4.30762e-06 1.48293e-05
-1.15323e-05 5.74375e-06 1.40943e-05
-1.08578e-05 3.06866e-06 1.33731e-05
-8.40029e-06 4.30478e-06 1.24039e-05
-9.05859e-06 7.01324e-06 1.34559e-05
-6.20396e-06 5.48839e-06 1.16886e-05
-6.82814e-06 8.24925e-06 1.30795e-05
-4.2813e-06 6.67476e-06 1.14501e-05
-4.7999e-06 9.6097e-06 1.30935e-05
-2.40082e-06 7.99317e-06 1.17226e-05
-2.81279e-06 1.1167e-05 1.34745e-05
-4.75399e-07 9.59507e-06 1.25006e-05
-7.38336e-07 1.29966e-05 1.41413e-05
1.73104e-06 1.15175e-05 1.35345e-05
-5.53456e-06 1.27001e-05 1.44365e-05
1.68504e-06 8.22379e-06 1.17472e-05
4.00409e-06 1.01207e-05 1.31505e-05
3.70527e-06 7.09779e-06 1.14779e-05
6.06727e-06 8.96646e-06 1.31129e-05
5.76669e-06 6.10665e-06 1.17352e-05
8.35789e-06 8.02014e-06 1.34916e-05
8.10547e-06 5.19515e-06 1.24999e-05
1.09537e-05 7.09689e-06 1.41465e-05
1.07457e-05 4.3227e-06 1.34986e-05
8.53033e-06 1.10372e-05 1.44603e-05
7.93752e-06 2.64369e-06 1.1727e-05
1.06458e-05 1.73716e-06 1.31036e-05
7.94851e-06 3.58752e-07 1.14552e-05
1.08062e-05 -7.59095e-07 1.31237e-05
8.11146e-06 -1.93776e-06 1.17087e-05
1.1098e-05 -3.31278e-06 1.34835e-05
8.46954e-06 -4.42388e-06 1.24436e-05
1.15034e-05 -6.00274e-06 1.4109e-05
8.95537e-06 -7.13795e-06 1.34276e-05
6.14739e-06 -5.49429e-06 1.16409e-05
6.64435e-06 -8.30067e-06 1.30178e-05
4.10512e-06 -6.58837e-06 1.13106e-05
4.52325e-06 -9.55065e-06 1.29879e-05
2.24225e-06 -7.85812e-06 1.1597e-05
2.48478e-06 -1.10016e-05 1.33505e-05
2.25287e-07 -9.37348e-06 1.23532e-05
3.30007e-07 -1.27695e-05 1.40334e-05
-1.91539e-06 -1.11505e-05 1.33766e-05
-1.84103e-06 -7.92145e-06 1.15818e-05
-4.16781e-06 -9.87463e-06 1.30846e-05
-3.81386e-06 -6.73036e-06 1.13168e-05
-6.34548e-06 -8.66183e-06 1.30989e-05
-5.89117e-06 -5.69789e-06 1.1628e-05
-8.49953e-06 -7.43563e-06 1.33793e-05
-8.16737e-06 -4.72796e-06 1.24082e-05
-1.10954e-05 -6.40263e-06 1.40695e-05
-4.37156e-06 -1.31229e-05 1.44333e-05
-1.08086e-05 -3.6506e-06 1.34388e-05
7.22596e-06 -1.13725e-05 1.42725e-05
-7.74154e-06 1.98264e-06 1.14926e-05
-1.32158e-05 1.03503e-06 1.42105e-05
1.72909e-06 1.50825e-05 1.49518e-05
1.37678e-05 4.62227e-07 1.43874e-05
1.38429e-05 6.09997e-06 1.49313e-05
-9.69385e-06 1.0196e-05 1.45321e-05
-5.4159e-06 -3.19759e-06 1.01819e-05
-1.17133e-05 -9.29714e-06 1.48888e-05
1.18821e-05 -8.76003e-06 1.47868e-05
1.47815e-05 -7.47345e-06 1.5403e-05
-1.39594e-05 -5.24378e-06 1.48613e-05
2.79577e-06 -1.45158e-05 1.47958e-05
4.24556e-07 -1.64991e-05 1.53974e-05
3.51837e-06 4.39686e-06 9.58087e-06
1.40103e-05 9.29887e-06 1.54913e-05
1.79304e-05 8.14479e-06 1.63002e-05
-1.56751e-05 1.13951e-05 1.62332e-05
-1.09406e-06 1.67688e-05 1.5495e-05
1.90683e-06 1.96212e-05 1.63107e-05
-2.09183e-06 5.21998e-06 9.59737e-06
5.55384e-06 -7.84589e-07 9.59392e-06
3.58589e-06 -3.6835e-06 9.08177e-06
-1.77961e-06 -5.17848e-06 9.44939e-06
-2.24684e-05 -1.10106e-05 1.74741e-05
-1.87978e-05 -9.24124e-06 1.66508e-05
2.11474e-05 1.41645e-05 1.75053e-05
2.07534e-05 -1.43174e-05 1.74353e-05
-1.76459e-06 -2.54461e-05 1.75107e-05
-1.68211e-06 2.54101e-05 1.75153e-05
1.77127e-05 -1.19067e-05 1.66869e-05
2.06453e-05 -1.07509e-05 1.71157e-05
3.77558e-06 -1.89848e-05 1.61391e-05
7.6852e-07 -2.03454e-05 1.64826e-05
-1.94047e-05 -1.26503e-05 1.71429e-05
-1.37308e-05 -2.30688e-06 1.44715e-05
-1.65924e-05 -3.70135e-06 1.54772e-05
-1.03756e-05 -1.09636e-06 1.29518e-05
2.44516e-05 1.10726e-05 1.76514e-05
2.54972e-05 -1.2403e-05 1.78479e-05
2.64923e-06 2.67255e-05 1.76602e-05
2.52098e-06 -2.64131e-05 1.76291e-05
3.33942e-06 -2.30315e-05 1.70288e-05
-2.05385e-06 -1.83195e-05 1.59506e-05
4.05901e-06 2.37909e-05 1.71301e-05
2.26137e-05 8.37907e-06 1.7119e-05
4.61351e-06 1.7313e-05 1.57269e-05
1.44267e-05 -1.31192e-05 1.61371e-05
-1.57873e-05 -1.09845e-05 1.62142e-05
-1.67994e-05 -3.81419e-07 1.5377e-05
1.73056e-05 4.68737e-06 1.57253e-05
6.5521e-08 -6.38718e-06 1.02672e-05
1.74168e-06 -4.84836e-06 9.09227e-06
5.85034e-06 -2.93545e-06 1.03779e-05
-2.14437e-05 3.75041e-06 1.64585e-05
5.72924e-06 -1.62741e-05 1.55074e-05
9.08326e-06 -1.74986e-05 1.59971e-05
1.75718e-05 1.18814e-05 1.6672e-05
1.39939e-05 -1.63819e-05 1.64009e-05
1.07397e-05 -1.37887e-05 1.55497e-05
-3.54789e-06 -4.2201e-06 9.50053e-06
5.399e-06 1.13847e-06 9.49882e-06
5.21794e-06 3.22281e-06 1.0047e-05
-1.74977e-06 -2.8354e-05 1.78766e-05
1.89202e-06 5.29878e-06 9.58421e-06
-1.13821e-07 6.10487e-06 1.00385e-05
-3.78484e-06 4.12765e-06 9.57817e-06
-5.62256e-06 3.03412e-06 1.0285e-05
-5.16536e-06 1.04065e-06 9.21338e-06
-7.52707e-06 -6.17377e-08 1.11721e-05
-4.33428e-06 -8.10261e-07 8.38165e-06
-3.10853e-06 1.8723e-06 7.37389e-06
-2.20806e-05 -3.60765e-06 1.65155e-05
2.34057e-05 -1.56877e-05 1.78358e-05
-1.50717e-06 2.11674e-05 1.66817e-05
2.12611e-05 -8.45173e-08 1.62254e-05
1.76216e-05 -1.64676e-06 1.55811e-05
1.73473e-05 -4.94155e-06 1.57703e-05
2.18911e-05 -7.45092e-06 1.69133e-05
-2.31817e-05 -1.42543e-05 1.78324e-05
1.73242e-05 1.64883e-06 1.55082e-05
-1.73399e-06 2.84725e-05 1.78938e-05
-4.22063e-07 3.68334e-06 7.49512e-06
2.37715e-05 1.5742e-05 1.78843e-05
-1.74969e-05 1.56419e-05 1.69746e-05
-1.0626e-05 -1.84657e-05 1.62547e-05
-1.00993e-05 -1.4342e-05 1.55713e-05
-7.50759e-06 -1.60945e-05 1.56217e-05
-7.32196e-06 -2.012e-05 1.63949e-05
-1.07042e-05 1.85348e-05 1.62664e-05
-1.03471e-05 1.43838e-05 1.5619e-05
-7.77247e-06 2.04919e-05 1.64439e-05
-4.2529e-06 1.86092e-05 1.60526e-05
1.07594e-05 1.8345e-05 1.62258e-05
1.38913e-05 1.69345e-05 1.64307e-05
1.40416e-05 1.29726e-05 1.60509e-05
-7.3614e-06 1.62879e-05 1.56381e-05
1.05249e-05 1.45467e-05 1.56448e-05
7.74857e-06 1.60919e-05 1.56136e-05
-3.1164e-06 -1.89873e-06 7.39301e-06
-7.25747e-06 -1.24217e-05 1.46248e-05
3.00861e-06 4.03594e-08 6.60083e-06
4.87246e-06 1.35224e-05 1.46177e-05
1.40757e-05 -2.26033e-06 1.45701e-05
-1.72894e-05 -1.52164e-05 1.69452e-05
-1.73661e-05 2.42025e-06 1.55975e-05
-1.22044e-05 8.91174e-06 1.49431e-05
-7.70546e-06 -2.29247e-06 1.15544e-05
-1.24495e-05 1.18124e-05 1.55396e-05
-1.42733e-07 -3.75415e-06 7.55401e-06
2.73018e-06 2.27204e-06 7.25177e-06
-2.00382e-06 -1.46502e-05 1.48077e-05
9.36488e-06 -1.0068e-05 1.43891e-05
1.38604e-05 3.15774e-06 1.45658e-05
-7.33987e-06 1.11991e-05 1.426e-05
4.99711e-06 -1.27745e-05 1.43689e-05
1.10316e-05 1.04303e-05 1.49193e-05
-3.59637e-06 1.46849e-05 1.49077e-05
-4.63537e-06 -1.66165e-05 1.55485e-05
-1.95067e-05 1.28922e-05 1.7161e-05
-2.31265e-05 1.48579e-05 1.78432e-05
-1.29047e-05 -1.26858e-05 1.58122e-05
3.76073e-06 -1.58609e-06 7.90678e-06
1.76436e-06 2.92223e-06 7.08428e-06
-9.23028e-06 -1.06092e-05 1.45315e-05
1.72771e-06 -2.82311e-06 6.93092e-06
9.9472e-07 2.41164e-05 1.73082e-05
2.13676e-05 1.11936e-05 1.72984e-05
-1.46643e-05 -7.95322e-06 1.5485e-05
1.37078e-05 -4.78622e-06 1.46903e-05
-1.90985e-06 -2.17625e-05 1.68025e-05
1.806e-05 -8.41889e-06 1.63404e-05
-1.66786e-05 -6.32844e-06 1.57821e-05
-4.32894e-07 -1.92229e-06 4.79838e-06
-1.80534e-06 2.99539e-06 7.17703e-06
-2.50516e-05 -1.29816e-05 1.79221e-05
-2.51268e-05 -1.45071e-05 1.80019e-05
-2.50448e-05 1.30335e-05 1.79058e-05
-2.51176e-05 1.46497e-05 1.79819e-05
-1.64843e-06 -3.12479e-06 7.20976e-06
6.32782e-06 1.13682e-05 1.40763e-05
5.33706e-07 -2.40857e-05 1.7302e-05
-5.2277e-07 1.80952e-06 4.64492e-06
7.40731e-06 -1.43434e-05 1.51521e-05
2.33025e-05 -1.32091e-05 1.77286e-05
2.36323e-05 -1.05373e-05 1.74906e-05
1.19882e-05 -1.82106e-05 1.6293e-05
1.47298e-05 -1.01465e-05 1.57953e-05
-1.00269e-05 1.00123e-06 1.27544e-05
-1.73999e-06 -8.1589e-07 4.72336e-06
7.69051e-07 3.70829e-06 7.57299e-06
2.34304e-06 -1.99713e-06 6.55516e-06
2.01561e-05 5.8977e-06 1.64533e-05
5.07001e-06 2.05956e-05 1.64957e-05
3.42117e-07 -2.76796e-05 1.78538e-05
-1.7312e-06 7.09101e-07 4.60623e-06
-3.21146e-06 6.23038e-07 6.82401e-06
3.57716e-06 1.47539e-06 7.63647e-06
4.99224e-07 2.83234e-05 1.79271e-05
2.476e-05 1.37339e-05 1.79182e-05
-2.0328e-05 1.55356e-05 1.74288e-05
1.17869e-06 1.36445e-06 4.45977e-06
-2.06392e-05 -1.57282e-05 1.75274e-05
-1.89985e-05 -2.32213e-06 1.59459e-05
-1.95588e-05 -5.58487e-06 1.6332e-05
9.05668e-07 -3.2477e-06 7.00596e-06
-4.36595e-06 -1.97889e-05 1.63216e-05
-7.93712e-06 1.38341e-05 1.51008e-05
1.16573e-06 -1.30416e-06 4.33921e-06
1.19342e-05 -1.12281e-05 1.52919e-05
6.13298e-06 -2.26957e-05 1.68202e-05
-1.45219e-05 1.43551e-05 1.63234e-05
7.92892e-06 1.3321e-05 1.49477e-05
1.79365e-06 8.58732e-07 -4.55215e-06
1.73779e-06 -8.251e-07 -4.4607e-06
4.31946e-07 1.84959e-06 -4.49502e-06
4.36091e-07 -1.7806e-06 -4.35599e-06
-1.84746e-06 2.09627e-08 -4.42226e-06
-1.12307e-06 -1.30885e-06 -4.15091e-06
-1.15919e-06 1.30678e-06 -4.19969e-06
-2.25126e-05 -7.2875e-06 -1.69996e-05
-2.21959e-05 7.37139e-06 -1.69683e-05
-4.86036e-06 2.2898e-05 -1.69367e-05
-4.85787e-06 -2.31311e-05 -1.69636e-05
1.74208e-05 1.56351e-05 -1.69295e-05
1.75684e-05 -1.55361e-05 -1.69388e-05
2.1073e-05 3.1638e-06 -1.6324e-05
-1.39528e-05 1.71509e-05 -1.6478e-05
-1.35909e-05 -1.67409e-05 -1.64096e-05
7.76768e-06 1.98191e-05 -1.63308e-05
7.68471e-06 -2.03095e-05 -1.64021e-05
2.14718e-05 -3.44364e-06 -1.63998e-05
-2.11022e-05 6.58807e-09 -1.62463e-05
-2.24199e-05 1.09995e-05 -1.74533e-05
-1.87505e-05 9.25449e-06 -1.66267e-05
-1.79824e-05 5.79531e-06 -1.60359e-05
-1.49836e-05 7.44816e-06 -1.5486e-05
-1.42241e-05 4.30762e-06 -1.48293e-05
-1.15323e-05 5.74375e-06 -1.40943e-05
-1.08578e-05 3.06866e-06 -1.33731e-05
-8.40029e-06 4.30478e-06 -1.24039e-05
-9.05859e-06 7.01324e-06 -1.34559e-05
-6.20396e-06 5.48839e-06 -1.16886e-05
-6.82814e-06 8.24925e-06 -1.30795e-05
-4.2813e-06 6.67476e-06 -1.14501e-05
-4.7999e-06 9.6097e-06 -1.30935e-05
-2.40082e-06 7.99317e-06 -1.17226e-05
-2.81279e-06 1.1167e-05 -1.34745e-05
-4.75399e-07 9.59507e-06 -1.25006e-05
-7.38336e-07 1.29966e-05 -1.41413e-05
1.73104e-06 1.15175e-05 -1.35345e-05
-5.53456e-06 1.27001e-05 -1.44365e-05
1.68504e-06 8.22379e-06 -1.17472e-05
4.00409e-06 1.01207e-05 -1.31505e-05
3.70527e-06 7.09779e-06 -1.14779e-05
6.06727e-06 8.96646e-06 -1.31129e-05
5.76669e-06 6.10665e-06 -1.17352e-05
8.35789e-06 8.02014e-06 -1.34916e-05
8.10547e-06 5.19515e-06 -1.24999e-05
1.09537e-05 7.09689e-06 -1.41465e-05
1.07457e-05 4.3227e-06 -1.34986e-05
8.53033e-06 1.10372e-05 -1.44603e-05
7.93752e-06 2.64369e-06 -1.1727e-05
1.06458e-05 1.73716e-06 -1.31036e-05
7.94851e-06 3.58752e-07 -1.14552e-05
1.08062e-05 -7.59095e-07 -1.31237e-05
8.11146e-06 -1.93776e-06 -1.17087e-05
1.1098e-05 -3.31278e-06 -1.34835e-05
8.46954e-06 -4.42388e-06 -1.24436e-05
1.15034e-05 -6.00274e-06 -1.4109e-05
8.95537e-06 -7.13795e-06 -1.34276e-05
6.14739e-06 -5.49429e-06 -1.16409e-05
6.64435e-06 -8.30067e-06 -1.30178e-05
4.10512e-06 -6.58837e-06 -1.13106e-05
4.52325e-06 -9.55065e-06 -1.29879e-05
2.24225e-06 -7.85812e-06 -1.1597e-05
2.48478e-06 -1.10016e-05 -1.33505e-05
2.25287e-07 -9.37348e-06 -1.23532e-05
3.30007e-07 -1.27695e-05 -1.40334e-05
-1.91539e-06 -1.11505e-05 -1.33766e-05
-1.84103e-06 -7.92145e-06 -1.15818e-05
-4.16781e-06 -9.87463e-06 -1.30846e-05
-3.81386e-06 -6.73036e-06 -1.13168e-05
-6.34548e-06 -8.66183e-06 -1.30989e-05
-5.89117e-06 -5.69789e-06 -1.1628e-05
-8.49953e-06 -7.43563e-06 -1.33793e-05
-8.16737e-06 -4.72796e-06 -1.24082e-05
-1.10954e-05 -6.40263e-06 -1.40695e-05
-4.37156e-06 -1.31229e-05 -1.44333e-05
-1.08086e-05 -3.6506e-06 -1.34388e-05
7.22596e-06 -1.13725e-05 -1.42725e-05
-7.74154e-06 1.98264e-06 -1.14926e-05
-1.32158e-05 1.03503e-06 -1.42105e-05
1.72909e-06 1.50825e-05 -1.49518e-05
1.37678e-05 4.62227e-07 -1.43874e-05
1.38429e-05 6.09997e-06 -1.49313e-05
-9.69385e-06 1.0196e-05 -1.45321e-05
-5.4159e-06 -3.19759e-06 -1.01819e-05
-1.17133e-05 -9.29714e-06 -1.48888e-05
1.18821e-05 -8.76003e-06 -1.47868e-05
1.47815e-05 -7.47345e-06 -1.5403e-05
-1.39594e-05 -5.24378e-06 -1.48613e-05
2.79577e-06 -1.45158e-05 -1.47958e-05
4.24556e-07 -1.64991e-05 -1.53974e-05
3.51837e-06 4.39686e-06 -9.58087e-06
1.40103e-05 9.29887e-06 -1.54913e-05
1.79304e-05 8.14479e-06 -1.63002e-05
-1.56751e-05 1.13951e-05 -1.62332e-05
-1.09406e-06 1.67688e-05 -1.5495e-05
1.90683e-06 1.96212e-05 -1.63107e-05
-2.09183e-06 5.21998e-06 -9.59737e-06
5.55384e-06 -7.84589e-07 -9.59392e-06
3.58589e-06 -3.6835e-06 -9.08177e-06
-1.77961e-06 -5.17848e-06 -9.44939e-06
-2.24684e-05 -1.10106e-05 -1.74741e-05
-1.87978e-05 -9.24124e-06 -1.66508e-05
2.11474e-05 1.41645e-05 -1.75053e-05
2.07534e-05 -1.43174e-05 -1.74353e-05
-1.76459e-06 -2.54461e-05 -1.75107e-05
-1.68211e-06 2.54101e-05 -1.75153e-05
1.77127e-05 -1.19067e-05 -1.66869e-05
2.06453e-05 -1.07509e-05 -1.71157e-05
3.77558e-06 -1.89848e-05 -1.61391e-05
7.6852e-07 -2.03454e-05 -1.64826e-05
-1.94047e-05 -1.26503e-05 -1.71429e-05
-1.37308e-05 -2.30688e-06 -1.44715e-05
-1.65924e-05 -3.70135e-06 -1.54772e-05
-1.03756e-05 -1.09636e-06 -1.29518e-05
2.44516e-05 1.10726e-05 -1.76514e-05
2.54972e-05 -1.2403e-05 -1.78479e-05
2.64923e-06 2.67255e-05 -1.76602e-05
2.52098e-06 -2.64131e-05 -1.76291e-05
3.33942e-06 -2.30315e-05 -1.70288e-05
-2.05385e-06 -1.83195e-05 -1.59506e-05
4.05901e-06 2.37909e-05 -1.71301e-05
2.26137e-05 8.37907e-06 -1.7119e-05
4.61351e-06 1.7313e-05 -1.57269e-05
1.44267e-05 -1.31192e-05 -1.61371e-05
-1.57873e-05 -1.09845e-05 -1.62142e-05
-1.67994e-05 -3.81419e-07 -1.5377e-05
1.73056e-05 4.68737e-06 -1.57253e-05
6.5521e-08 -6.38718e-06 -1.02672e-05
1.74168e-06 -4.84836e-06 -9.09227e-06
5.85034e-06 -2.93545e-06 -1.03779e-05
-2.14437e-05 3.75041e-06 -1.64585e-05
5.72924e-06 -1.62741e-05 -1.55074e-05
9.08326e-06 -1.74986e-05 -1.59971e-05
1.75718e-05 1.18814e-05 -1.6672e-05
1.39939e-05 -1.63819e-05 -1.64009e-05
1.07397e-05 -1.37887e-05 -1.55497e-05
-3.54789e-06 -4.2201e-06 -9.50053e-06
5.399e-06 1.13847e-06 -9.49882e-06
5.21794e-06 3.22281e-06 -1.0047e-05
-1.74977e-06 -2.8354e-05 -1.78766e-05
1.89202e-06 5.29878e-06 -9.58421e-06
-1.13821e-07 6.10487e-06 -1.00385e-05
-3.78484e-06 4.12765e-06 -9.57817e-06
-5.62256e-06 3.03412e-06 -1.0285e-05
-5.16536e-06 1.04065e-06 -9.21338e-06
-7.52707e-06 -6.17377e-08 -1.11721e-05
-4.33428e-06 -8.10261e-07 -8.38165e-06
-3.10853e-06 1.8723e-06 -7.37389e-06
-2.20806e-05 -3.60765e-06 -1.65155e-05
2.34057e-05 -1.56877e-05 -1.78358e-05
-1.50717e-06 2.11674e-05 -1.66817e-05
2.12611e-05 -8.45173e-08 -1.62254e-05
1.76216e-05 -1.64676e-06 -1.55811e-05
1.73473e-05 -4.94155e-06 -1.57703e-05
2.18911e-05 -7.45092e-06 -1.69133e-05
-2.31817e-05 -1.42543e-05 -1.78324e-05
1.73242e-05 1.64883e-06 -1.55082e-05
-1.73399e-06 2.84725e-05 -1.78938e-05
-4.22063e-07 3.68334e-06 -7.49512e-06
2.37715e-05 1.5742e-05 -1.78843e-05
-1.74969e-05 1.56419e-05 -1.69746e-05
-1.0626e-05 -1.84657e-05 -1.62547e-05
-1.00993e-05 -1.4342e-05 -1.55713e-05
-7.50759e-06 -1.60945e-05 -1.56217e-05
-7.32196e-06 -2.012e-05 -1.63949e-05
-1.07042e-05 1.85348e-05 -1.62664e-05
-1.03471e-05 1.43838e-05 -1.5619e-05
-7.77247e-06 2.04919e-05 -1.64439e-05
-4.2529e-06 1.86092e-05 -1.60526e-05
1.07594e-05 1.8345e-05 -1.62258e-05
1.38913e-05 1.69345e-05 -1.64307e-05
1.40416e-05 1.29726e-05 -1.60509e-05
-7.3614e-06 1.62879e-05 -1.56381e-05
1.05249e-05 1.45467e-05 -1.56448e-05
7.74857e-06 1.60919e-05 -1.56136e-05
-3.1164e-06 -1.89873e-06 -7.39301e-06
-7.25747e-06 -1.24217e-05 -1.46248e-05
3.00861e-06 4.03594e-08 -6.60083e-06
4.87246e-06 1.35224e-05 -1.46177e-05
1.40757e-05 -2.26033e-06 -1.45701e-05
-1.72894e-05 -1.52164e-05 -1.69452e-05
-1.73661e-05 2.42025e-06 -1.55975e-05
-1.22044e-05 8.91174e-06 -1.49431e-05
-7.70546e-06 -2.29247e-06 -1.15544e-05
-1.24495e-05 1.18124e-05 -1.55396e-05
-1.42733e-07 -3.75415e-06 -7.55401e-06
2.73018e-06 2.27204e-06 -7.25177e-06
-2.00382e-06 -1.46502e-05 -1.48077e-05
9.36488e-06 -1.0068e-05 -1.43891e-05
1.38604e-05 3.15774e-06 -1.45658e-05
-7.33987e-06 1.11991e-05 -1.426e-05
4.99711e-06 -1.27745e-05 -1.43689e-05
1.10316e-05 1.04303e-05 -1.49193e-05
-3.59637e-06 1.46849e-05 -1.49077e-05
-4.63537e-06 -1.66165e-05 -1.55485e-05
-1.95067e-05 1.28922e-05 -1.7161e-05
-2.31265e-05 1.48579e-05 -1.78432e-05
-1.29047e-05 -1.26858e-05 -1.58122e-05
3.76073e-06 -1.58609e-06 -7.90678e-06
1.76436e-06 2.92223e-06 -7.08428e-06
-9.23028e-06 -1.06092e-05 -1.45315e-05
1.72771e-06 -2.82311e-06 -6.93092e-06
9.9472e-07 2.41164e-05 -1.73082e-05
2.13676e-05 1.11936e-05 -1.72984e-05
-1.46643e-05 -7.95322e-06 -1.5485e-05
1.37078e-05 -4.78622e-06 -1.46903e-05
-1.90985e-06 -2.17625e-05 -1.68025e-05
1.806e-05 -8.41889e-06 -1.63404e-05
-1.66786e-05 -6.32844e-06 -1.57821e-05
-4.32894e-07 -1.92229e-06 -4.79838e-06
-1.80534e-06 2.99539e-06 -7.17703e-06
-2.50516e-05 -1.29816e-05 -1.79221e-05
-2.51268e-05 -1.45071e-05 -1.80019e-05
-2.50448e-05 1.30335e-05 -1.79058e-05
-2.51176e-05 1.46497e-05 -1.79819e-05
-1.64843e-06 -3.12479e-06 -7.20976e-06
6.32782e-06 1.13682e-05 -1.40763e-05
5.33706e-07 -2.40857e-05 -1.7302e-05
-5.2277e-07 1.80952e-06 -4.64492e-06
7.40731e-06 -1.43434e-05 -1.51521e-05
2.33025e-05 -1.32091e-05 -1.77286e-05
2.36323e-05 -1.05373e-05 -1.74906e-05
1.19882e-05 -1.82106e-05 -1.6293e-05
1.47298e-05 -1.01465e-05 -1.57953e-05
-1.00269e-05 1.00123e-06 -1.27544e-05
-1.73999e-06 -8.1589e-07 -4.72336e-06
7.69051e-07 3.70829e-06 -7.57299e-06
2.34304e-06 -1.99713e-06 -6.55516e-06
2.01561e-05 5.8977e-06 -1.64533e-05
5.07001e-06 2.05956e-05 -1.64957e-05
3.42117e-07 -2.76796e-05 -1.78538e-05
-1.7312e-06 7.09101e-07 -4.60623e-06
-3.21146e-06 6.23038e-07 -6.82401e-06
3.57716e-06 1.47539e-06 -7.63647e-06
4.99224e-07 2.83234e-05 -1.79271e-05
2.476e-05 1.37339e-05 -1.79182e-05
-2.0328e-05 1.55356e-05 -1.74288e-05
1.17869e-06 1.36445e-06 -4.45977e-06
-2.06392e-05 -1.57282e-05 -1.75274e-05
-1.89985e-05 -2.32213e-06 -1.59459e-05
-1.95588e-05 -5.58487e-06 -1.6332e-05
9.05668e-07 -3.2477e-06 -7.00596e-06
-4.36595e-06 -1.97889e-05 -1.63216e-05
-7.93712e-06 1.38341e-05 -1.51008e-05
1.16573e-06 -1.30416e-06 -4.33921e-06
1.19342e-05 -1.12281e-05 -1.52919e-05
6.13298e-06 -2.26957e-05 -1.68202e-05
-1.45219e-05 1.43551e-05 -1.63234e-05
7.92892e-06 1.3321e-05 -1.49477e-05
SCALARS effective_fluid_pressure_TPM float
LOOKUP_TABLE default
665
665
665
665
665
665
665
665
665
665
665
665
665
665
133
665
665
665
665
665
665
665
665
665
665
665
665
665
665
133
665
560.312
520.655
502.794
502.565
519.781
559.933
665
561.979
520.75
503.237
503.347
520.682
561.601
665
559.599
519.652
502.739
502.957
521.15
561.617
665
558.856
518.996
501.528
502.223
518.846
559.444
665
558.496
519.936
501.86
501.791
519.369
557.935
665
558.652
519.95
502.033
501.894
519.357
559.659
133
133
133
133
133
133
665
560.312
520.655
502.794
502.565
519.781
559.933
665
561.979
520.75
503.237
503.347
520.682
561.601
665
559.599
519.652
502.739
502.957
521.15
561.617
665
558.856
518.996
501.528
502.223
518.846
559.444
665
558.496
519.936
501.86
501.791
519.369
557.935
665
558.652
519.95
502.033
501.894
519.357
559.659
133
133
133
133
133
133
228.253
226.323
227.036
224.105
225.52
219.842
220.859
529.156
528.165
526.544
527.923
526.571
527.625
498.69
503.537
501.575
498.931
501.448
501.229
494.311
562.495
518.969
495.015
480.721
461.341
443.261
425.029
402.103
427.254
385.25
417.721
379.596
417.885
385.934
427.37
404.281
444.364
429.059
450.241
386.544
419.284
380.191
418.296
386.174
427.743
404.209
444.475
428.143
450.837
386.018
418.148
379.607
418.504
385.541
427.579
402.903
443.537
426.435
384.035
416.12
376.291
415.328
383.007
424.401
400.829
441.687
425.209
382.744
417.761
376.556
418.078
383.829
425.249
402.196
442.659
450.631
426.708
445.989
380.716
444.655
465.27
448.722
464.744
453.392
350.892
463.486
461.017
478.424
462.753
460.623
478.329
337.268
480.801
505.834
503.593
480.867
506.14
337.68
337.492
326.156
334.406
563.371
519.645
567.572
562.357
567.889
567.742
521.793
542.706
498.605
513.718
542.051
451.434
477.551
414.639
579.513
611.025
579.666
576.027
534.54
494.455
538.214
537.91
485.012
498.091
503.31
473.113
485.059
352.737
326.406
355.166
503.419
477.69
488.333
520.862
502.002
477.887
335.531
335.395
347.689
613.442
337.369
347.561
337.255
353.193
329.18
373.243
310.652
288.78
504.685
608.377
521.084
493.694
478.3
486.328
526.478
600.336
476.537
615.896
291.389
615.794
528.706
494.506
478.207
479.381
501.289
494.812
479.408
502.484
495.148
493.717
502.236
495.221
479.855
480.021
479.023
289.287
454.563
271.935
454.971
453.599
526.987
479.444
465.194
382.086
480.48
292.662
286.074
461.45
449.604
453.948
445.826
448.66
463.575
463.232
479.924
543.446
601.697
487.465
300.293
282.454
452.984
279.156
552.229
551.988
480.746
457.989
526.209
508.16
488.562
233.724
284.551
614.503
636.32
615.137
636.676
285.272
441.311
553.069
230.481
467.522
590.257
566.023
495.786
490.021
410.017
232.114
293.088
271.119
507.868
509.166
607.81
229.658
276.969
294.422
618.875
618.788
558.503
226.517
562.516
488.284
503.368
280.84
504.038
466.349
224.003
473.556
519.554
502.953
462.415
228.253
226.323
227.036
224.105
225.52
219.842
220.859
529.156
528.165
526.544
527.923
526.571
527.625
498.69
503.537
501.575
498.931
501.448
501.229
494.311
562.495
518.969
495.015
480.721
461.341
443.261
425.029
402.103
427.254
385.25
417.721
379.596
417.885
385.934
427.37
404.281
444.364
429.059
450.241
386.544
419.284
380.191
418.296
386.174
427.743
404.209
444.475
428.143
450.837
386.018
418.148
379.607
418.504
385.541
427.579
402.903
443.537
426.435
384.035
416.12
376.291
415.328
383.007
424.401
400.829
441.687
425.209
382.744
417.761
376.556
418.078
383.829
425.249
402.196
442.659
450.631
426.708
445.989
380.716
444.655
465.27
448.722
464.744
453.392
350.892
463.486
461.017
478.424
462.753
460.623
478.329
337.268
480.801
505.834
503.593
480.867
506.14
337.68
337.492
326.156
334.406
563.371
519.645
567.572
562.357
567.889
567.742
521.793
542.706
498.605
513.718
542.051
451.434
477.551
414.639
579.513
611.025
579.666
576.027
534.54
494.455
538.214
537.91
485.012
498.091
503.31
473.113
485.059
352.737
326.406
355.166
503.419
477.69
488.333
520.862
502.002
477.887
335.531
335.395
347.689
613.442
337.369
347.561
337.255
353.193
329.18
373.243
310.652
288.78
504.685
608.377
521.084
493.694
478.3
486.328
526.478
600.336
476.537
615.896
291.389
615.794
528.706
494.506
478.207
479.381
501.289
494.812
479.408
502.484
495.148
493.717
502.236
495.221
479.855
480.021
479.023
289.287
454.563
271.935
454.971
453.599
526.987
479.444
465.194
382.086
480.48
292.662
286.074
461.45
449.604
453.948
445.826
448.66
463.575
463.232
479.924
543.446
601.697
487.465
300.293
282.454
452.984
279.156
552.229
551.988
480.746
457.989
526.209
508.16
488.562
233.724
284.551
614.503
636.32
615.137
636.676
285.272
441.311
553.069
230.481
467.522
590.257
566.023
495.786
490.021
410.017
232.114
293.088
271.119
507.868
509.166
607.81
229.658
276.969
294.422
618.875
618.788
558.503
226.517
562.516
488.284
503.368
280.84
504.038
466.349
224.003
473.556
519.554
502.953
462.415

CELL_DATA 563
TENSORS stress float
164.607 -24.9202 -9.4739e-15
-24.9202 28.1476 1.7882e-12
-9.4739e-15 1.7882e-12 -12.6051

-40.3383 -21.3201 -1.11829e-12
-21.3201 -7.35466 5.24617e-13
-1.11829e-12 5.24617e-13 -10.2312

-9.93954 28.0428 -5.99639e-12
28.0428 -1.11012 -5.17512e-13
-5.99639e-12 -5.17512e-13 -6.35952

-40.4266 -29.8427 3.68831e-12
-29.8427 -12.8459 1.61974e-12
3.68831e-12 1.61974e-12 -10.5975

-22.6927 19.931 -6.63765e-13
19.931 -1.92191 -5.59848e-13
-6.63765e-13 -5.59848e-13 -23.0218

-27.1387 -18.0741 2.80812e-13
-18.0741 15.8879 -2.3744e-13
2.80812e-13 -2.3744e-13 -6.41029

161.259 26.4843 1.96583e-12
26.4843 28.0243 -2.67046e-12
1.96583e-12 -2.67046e-12 -13.2639

-5.96109 29.9576 4.25734e-13
29.9576 -10.1118 1.27246e-12
4.25734e-13 1.27246e-12 -7.27563

34.6308 5.48305 -5.18696e-13
5.48305 -19.094 -2.15842e-12
-5.18696e-13 -2.15842e-12 -4.12136

11.8603 -7.47756 -3.63561e-13
-7.47756 -48.2869 -1.04146e-12
-3.63561e-13 -1.04146e-12 -8.94642

104.192 16.3082 1.80004e-12
16.3082 -8.44341 2.53782e-12
1.80004e-12 2.53782e-12 -22.4545

-34.6369 -13.453 1.91328e-12
-13.453 18.9658 -3.09619e-12
1.91328e-12 -3.09619e-12 -7.17989

-6.02564 27.8328 1.6982e-12
27.8328 -4.59133 1.7728e-12
1.6982e-12 1.7728e-12 -6.15848

-35.5511 -14.3399 1.13132e-12
-14.3399 7.84496 -8.941e-14
1.13132e-12 -8.941e-14 -9.13076

-23.6537 33.3116 -2.78888e-13
33.3116 -24.9944 4.80537e-13
-2.78888e-13 4.80537e-13 -21.3652

21.3106 0.560954 2.02801e-12
0.560954 -32.3378 2.30099e-12
2.02801e-12 2.30099e-12 -5.58892

-48.9594 -17.9692 2.60324e-12
-17.9692 6.34304 -2.32288e-12
2.60324e-12 -2.32288e-12 -12.9457

11.6601 -2.6652 -3.4787e-13
-2.6652 -43.248 -5.1988e-13
-3.4787e-13 -5.1988e-13 -8.0328

-11.349 26.6732 3.15895e-13
26.6732 19.5173 -2.01261e-12
3.15895e-13 -2.01261e-12 -6.08862

21.7654 -4.19549 -2.8777e-13
-4.19549 -35.2935 -2.32925e-13
-2.8777e-13 -2.32925e-13 -6.74044

-24.4783 8.66839 6.56364e-13
8.66839 32.1273 -7.96992e-13
6.56364e-13 -7.96992e-13 -4.93353

-11.8088 6.2879 -1.49241e-11
6.2879 -11.9745 -7.91441e-12
-1.49241e-11 -7.91441e-12 -75.6233

22.7431 1.87595 -1.03798e-12
1.87595 -33.4678 -2.53975e-12
-1.03798e-12 -2.53975e-12 -6.67642

-12.3874 -27.7146 -4.35503e-13
-27.7146 1.59992 4.62504e-12
-4.35503e-13 4.62504e-12 -6.60193

21.3042 6.84927 -1.10193e-12
6.84927 -34.303 -4.11375e-13
-1.10193e-12 -4.11375e-13 -6.80568

-37.9046 19.1127 2.54189e-12
19.1127 2.654 -1.42434e-12
2.54189e-12 -1.42434e-12 -9.45697

106.601 4.18128 6.39252e-12
4.18128 20.6023 -1.26151e-12
6.39252e-12 -1.26151e-12 -12.0495

-5.30142 30.7454 2.24354e-12
30.7454 -7.27174 -3.71259e-13
2.24354e-12 -3.71259e-13 -7.44082

27.8898 37.0735 -3.58824e-12
37.0735 26.469 9.84102e-13
-3.58824e-12 9.84102e-13 -8.63166

-9.43909 10.3235 -3.3736e-12
10.3235 -32.931 2.02394e-13
-3.3736e-12 2.02394e-13 -49.5103

19.8306 14.2168 1.55786e-12
14.2168 -29.3585 -3.00782e-12
1.55786e-12 -3.00782e-12 -6.00021

-4.20962 -17.7799 -7.31267e-13
-17.7799 59.6566 4.43971e-12
-7.31267e-13 4.43971e-12 -8.47556

66.2817 -42.1008 5.43091e-12
-42.1008 71.1369 -7.88702e-13
5.43091e-12 -7.88702e-13 -11.2523

-48.2103 5.98694 1.55919e-12
5.98694 7.26966 3.62199e-12
1.55919e-12 3.62199e-12 -41.0387

-26.2913 -4.84096 1.03206e-12
-4.84096 1.75674 2.04251e-12
1.03206e-12 2.04251e-12 -37.8036

-1.46666 21.0279 -5.74355e-13
21.0279 -39.5068 -5.35305e-12
-5.74355e-13 -5.35305e-12 -41.1045

-43.9767 5.06777 -5.54756e-12
5.06777 0.514252 -1.26595e-12
-5.54756e-12 -1.26595e-12 -52.1928

-2.75989 -9.16983 5.79655e-12
-9.16983 -20.7701 -2.9249e-12
5.79655e-12 -2.9249e-12 -35.8978

-3.97384 -27.9977 -4.40892e-12
-27.9977 -4.61033 2.46203e-12
-4.40892e-12 2.46203e-12 -5.99381

65.5955 41.5201 -8.18072e-12
41.5201 73.1645 -8.47441e-12
-8.18072e-12 -8.47441e-12 -10.9641

60.154 -17.9486 -2.49282e-12
-17.9486 0.117508 8.13335e-12
-2.49282e-12 8.13335e-12 -8.04957

-41.8044 -3.70629 1.63869e-12
-3.70629 -1.18565 -3.57077e-12
1.63869e-12 -3.57077e-12 -52.7277

-14.5943 19.5559 2.93099e-14
19.5559 -28.5519 1.32427e-12
2.93099e-14 1.32427e-12 -52.8359

18.1408 -12.2732 -2.55203e-13
-12.2732 -29.8983 2.41274e-12
-2.55203e-13 2.41274e-12 -6.2224

38.1725 -43.298 2.28203e-12
-43.298 41.8004 6.3712e-12
2.28203e-12 6.3712e-12 -14.5588

58.1427 -18.0629 -4.10931e-13
-18.0629 -2.30212 -5.33914e-12
-4.10931e-13 -5.33914e-12 -7.91313

-21.4409 17.0853 -4.11982e-12
17.0853 30.3268 1.87998e-12
-4.11982e-12 1.87998e-12 -5.72756

-11.3721 19.3385 -3.63561e-12
19.3385 25.5103 1.01963e-12
-3.63561e-12 1.01963e-12 -3.921

20.7911 -16.3008 1.91254e-12
-16.3008 -33.1135 1.51242e-12
1.91254e-12 1.51242e-12 -7.31095

12.6154 -34.1845 1.98182e-12
-34.1845 46.4347 8.33703e-13
1.98182e-12 8.33703e-13 -10.3969

62.3588 19.1813 1.22569e-12
19.1813 2.8107 8.95284e-13
1.22569e-12 8.95284e-13 -8.41354

46.5127 -25.2877 1.50753e-12
-25.2877 5.13446 8.55612e-14
1.50753e-12 8.55612e-14 -5.60945

-31.8955 19.486 1.28534e-12
19.486 -4.28562 2.8478e-12
1.28534e-12 2.8478e-12 -26.0859

37.0386 29.6485 3.48758e-12
29.6485 14.5127 1.80715e-12
3.48758e-12 1.80715e-12 -5.43189

-27.4502 -21.8128 -3.83397e-13
-21.8128 -8.228 -5.40754e-12
-3.83397e-13 -5.40754e-12 -25.2482

64.8673 -42.7101 7.29491e-13
-42.7101 44.0792 5.04485e-13
7.29491e-13 5.04485e-13 -9.50205

-27.7497 5.45998 3.84862e-12
5.45998 2.66936 1.9306e-12
3.84862e-12 1.9306e-12 -38.3092

-5.5571 -5.32963 -4.19842e-12
-5.32963 57.3869 -1.28371e-12
-4.19842e-12 -1.28371e-12 -5.44892

-0.199923 10.3842 2.18729e-12
10.3842 -24.8484 1.1708e-12
2.18729e-12 1.1708e-12 -38.3708

-26.4843 21.4126 -3.50446e-12
21.4126 12.2196 -1.93149e-12
-3.50446e-12 -1.93149e-12 -6.86887

4.72657 5.75376 2.54226e-12
5.75376 -56.0399 -1.71566e-13
2.54226e-12 -1.71566e-13 -13.9804

0.539678 11.4589 2.29046e-12
11.4589 -34.0563 5.7172e-12
2.29046e-12 5.7172e-12 -14.8395

106.341 31.8192 3.94588e-12
31.8192 37.8322 -5.27341e-12
3.94588e-12 -5.27341e-12 -7.4898

-35.4915 -6.03501 -7.22977e-13
-6.03501 10.6012 -3.11751e-12
-7.22977e-13 -3.11751e-12 -13.4787

-35.3598 9.5196 -7.92107e-13
9.5196 1.23356 -1.22628e-12
-7.92107e-13 -1.22628e-12 -14.9598

-42.5872 -2.88069 -9.04129e-13
-2.88069 21.111 4.73695e-15
-9.04129e-13 4.73695e-15 -11.2384

-44.9076 23.4021 2.31359e-12
23.4021 -5.89261 -3.00885e-12
2.31359e-12 -3.00885e-12 -13.9213

9.97105 8.46339 -1.6606e-12
8.46339 -42.3773 -2.1602e-12
-1.6606e-12 -2.1602e-12 -9.0772

-12.3338 -28.2387 2.20712e-12
-28.2387 1.68758 1.4803e-13
2.20712e-12 1.4803e-13 -6.67309

1.30887 -1.71119 9.97276e-13
-1.71119 -55.456 1.48711e-12
9.97276e-13 1.48711e-12 -11.3034

-31.885 -19.262 2.54611e-12
-19.262 -4.59501 4.47287e-12
2.54611e-12 4.47287e-12 -25.9552

-27.9757 21.3078 1.46579e-12
21.3078 -8.35785 9.72972e-13
1.46579e-12 9.72972e-13 -26.0137

-0.651223 -16.5829 1.99796e-12
-16.5829 61.6724 -9.00021e-13
1.99796e-12 -9.00021e-13 -7.94842

-0.65008 -27.9359 3.4935e-13
-27.9359 -21.3604 2.32555e-12
3.4935e-13 2.32555e-12 -12.7906

-14.0926 -25.1342 -2.28351e-12
-25.1342 7.40689 1.73668e-12
-2.28351e-12 1.73668e-12 -5.23521

91.6758 -31.7098 1.89952e-12
-31.7098 19.4845 2.6894e-12
1.89952e-12 2.6894e-12 -16.3333

-33.7056 3.22255 2.4909e-12
3.22255 9.19922 2.76638e-12
2.4909e-12 2.76638e-12 -18.5635

2.75243 28.9436 -1.52589e-12
28.9436 -24.4244 -3.43636e-12
-1.52589e-12 -3.43636e-12 -11.316

-38.4328 19.664 -2.16316e-12
19.664 5.22979 1.72514e-12
-2.16316e-12 1.72514e-12 -9.23444

50.1897 7.99931 -5.20354e-12
7.99931 -16.9628 1.04539e-12
-5.20354e-12 1.04539e-12 -7.06618

60.0303 -33.9346 -5.15617e-12
-33.9346 33.7864 -1.18897e-12
-5.15617e-12 -1.18897e-12 -6.98345

-18.9596 -10.5876 -3.14622e-12
-10.5876 -0.541904 3.64005e-12
-3.14622e-12 3.64005e-12 -25.4317

-33.9261 23.8994 5.20769e-13
23.8994 -12.0229 1.68009e-12
5.20769e-13 1.68009e-12 -14.5399

58.1551 -32.3829 -8.66862e-13
-32.3829 18.0913 -1.9457e-12
-8.66862e-13 -1.9457e-12 -10.1334

66.8583 10.7908 -4.86722e-13
10.7908 8.51353 -4.34734e-12
-4.86722e-13 -4.34734e-12 -5.08396

7.67423 -21.2054 2.45581e-12
-21.2054 88.4625 1.77873e-12
2.45581e-12 1.77873e-12 -11.8621

-33.9848 14.4254 1.42086e-12
14.4254 20.2383 1.92557e-12
1.42086e-12 1.92557e-12 -7.54565

8.47563 23.1426 -1.94689e-12
23.1426 -26.0735 -3.56959e-12
-1.94689e-12 -3.56959e-12 -11.2987

34.8682 42.1975 2.6219e-12
42.1975 46.1984 9.05587e-12
2.6219e-12 9.05587e-12 -14.4203

-4.39443 16.5073 -5.34743e-12
16.5073 -35.5426 4.22255e-12
-5.34743e-12 4.22255e-12 -73.2898

-5.97918 -4.10823 -1.21088e-13
-4.10823 57.9474 -1.40451e-12
-1.21088e-13 -1.40451e-12 -5.44111

-1.81875 -16.6325 -8.80288e-12
-16.6325 -39.4028 -2.64574e-12
-8.80288e-12 -2.64574e-12 -74.1131

-3.32926 -27.335 1.24641e-12
-27.335 -30.0299 3.62569e-12
1.24641e-12 3.62569e-12 -21.5543

8.96725 27.4244 -7.36004e-13
27.4244 -29.9943 -1.75978e-12
-7.36004e-13 -1.75978e-12 -11.2566

45.7105 -24.4099 -1.19963e-12
-24.4099 5.02476 -4.44089e-12
-1.19963e-12 -4.44089e-12 -5.23552

10.0956 31.3223 -1.12443e-12
31.3223 47.1624 -4.01457e-13
-1.12443e-12 -4.01457e-13 -9.63986

14.2725 -10.7048 -3.35199e-12
-10.7048 82.8371 -1.3145e-12
-3.35199e-12 -1.3145e-12 -6.44677

-38.6328 21.9706 -2.3701e-12
21.9706 2.94162 1.79442e-12
-2.3701e-12 1.79442e-12 -8.56843

1.19261 16.7939 5.31308e-12
16.7939 -25.7218 -4.20552e-12
5.31308e-12 -4.20552e-12 -18.5677

-26.5373 15.1536 -3.6029e-12
15.1536 18.4493 -1.39207e-12
-3.6029e-12 -1.39207e-12 -5.7073

43.6581 15.9534 -3.87009e-12
15.9534 -7.28431 2.60754e-12
-3.87009e-12 2.60754e-12 -4.07448

12.5772 -21.4719 -1.90425e-12
-21.4719 57.9546 -4.54747e-12
-1.90425e-12 -4.54747e-12 -4.71355

65.9951 -29.3898 -5.4546e-12
-29.3898 18.6435 4.47405e-12
-5.4546e-12 4.47405e-12 -9.33496

-32.3808 -24.5727 -1.04701e-12
-24.5727 -7.28145 -2.60029e-12
-1.04701e-12 -2.60029e-12 -8.97563

-22.6666 27.4506 -9.42357e-13
27.4506 -10.3498 -2.21956e-12
-9.42357e-13 -2.21956e-12 -9.28323

-38.351 23.1875 -1.17328e-12
23.1875 1.99113 1.35625e-12
-1.17328e-12 1.35625e-12 -8.52431

-51.5532 13.1692 -1.23029e-12
13.1692 11.9271 1.77695e-12
-1.23029e-12 1.77695e-12 -16.4661

23.4845 9.37216 3.27619e-12
9.37216 -29.487 2.70095e-12
3.27619e-12 2.70095e-12 -5.32078

3.76902 -4.66494 -2.00314e-12
-4.66494 79.4364 1.22924e-12
-2.00314e-12 1.22924e-12 -9.53108

-44.9401 -36.8335 6.51331e-13
-36.8335 -19.8289 1.73328e-12
6.51331e-13 1.73328e-12 -14.7703

-16.0789 27.4647 -4.2452e-12
27.4647 1.34131 2.70539e-12
-4.2452e-12 2.70539e-12 -6.91387

-5.01475 2.17029 -1.62959e-12
2.17029 82.6716 3.61666e-12
-1.62959e-12 3.61666e-12 -13.4308

69.044 34.6094 1.6603e-12
34.6094 15.4967 -8.49099e-13
1.6603e-12 -8.49099e-13 -10.7056

-31.3513 -22.9735 5.14699e-13
-22.9735 -4.63228 -4.42254e-12
5.14699e-13 -4.42254e-12 -8.52911

11.7429 5.73297 -1.34974e-12
5.73297 -48.3357 -2.52694e-12
-1.34974e-12 -2.52694e-12 -8.64072

43.065 27.2032 5.36697e-12
27.2032 10.4523 -1.6757e-12
5.36697e-12 -1.6757e-12 -5.08027

-9.41508 12.7456 -6.83631e-12
12.7456 -14.0389 -2.65417e-12
-6.83631e-12 -2.65417e-12 -37.0416

70.3331 24.3298 -4.16378e-12
24.3298 23.8048 -1.78405e-12
-4.16378e-12 -1.78405e-12 -6.79925

-10.5863 -13.0552 7.01646e-12
-13.0552 -13.9207 -4.08266e-13
7.01646e-12 -4.08266e-13 -37.3794

-4.37887 0.778507 -2.75483e-13
0.778507 59.3969 1.46372e-12
-2.75483e-13 1.46372e-12 -4.83012

38.3564 -2.23525 2.77112e-13
-2.23525 -23.8096 2.62261e-12
2.77112e-13 2.62261e-12 -5.83159

3.59382 -15.7682 2.84128e-12
-15.7682 -53.9715 -2.99849e-12
2.84128e-12 -2.99849e-12 -21.1243

-42.2768 24.3881 -2.40719e-12
24.3881 -11.7369 3.24333e-12
-2.40719e-12 3.24333e-12 -11.167

-46.8123 -13.5349 -4.35291e-12
-13.5349 11.0675 -1.89241e-12
-4.35291e-12 -1.89241e-12 -12.3535

5.81024 -8.00006 -1.93504e-12
-8.00006 -70.9679 5.45549e-12
-1.93504e-12 5.45549e-12 -14.8816

-49.5392 -22.2843 -1.76629e-12
-22.2843 3.74871 4.0649e-12
-1.76629e-12 4.0649e-12 -22.1043

-17.4594 -6.59625 -5.7104e-12
-6.59625 -13.1158 -2.28351e-12
-5.7104e-12 -2.28351e-12 -34.7823

-28.7295 -29.9081 -1.31184e-12
-29.9081 -9.39983 -4.20049e-12
-1.31184e-12 -4.20049e-12 -8.99546

15.6935 11.4533 3.63472e-12
11.4533 80.1786 1.57504e-12
3.63472e-12 1.57504e-12 -6.53043

42.2894 -28.1456 -1.44714e-12
-28.1456 11.0511 -6.02955e-12
-1.44714e-12 -6.02955e-12 -5.04351

-47.1705 -13.7724 3.63398e-12
-13.7724 4.19612 1.27039e-12
3.63398e-12 1.27039e-12 -29.3011

2.96492 0.504355 1.2886e-12
0.504355 -56.8116 -1.62959e-12
1.2886e-12 -1.62959e-12 -11.0046

-39.3363 -21.5246 -3.1477e-12
-21.5246 -8.85736 -4.94479e-12
-3.1477e-12 -4.94479e-12 -14.7739

-40.1948 25.6976 4.8687e-13
25.6976 -14.6914 5.43787e-13
4.8687e-13 5.43787e-13 -11.3104

32.2601 -31.4634 2.51887e-12
-31.4634 38.4288 2.78414e-12
2.51887e-12 2.78414e-12 -4.64773

-31.4689 -7.08533 -2.76845e-12
-7.08533 1.70013 4.65642e-12
-2.76845e-12 4.65642e-12 -40.9938

36.6294 -33.0758 3.37626e-12
-33.0758 72.0258 -8.83441e-13
3.37626e-12 -8.83441e-13 -7.1446

16.6125 -19.1793 5.86198e-13
-19.1793 -25.8691 3.53791e-13
5.86198e-13 3.53791e-13 -7.13269

1.50263 1.97013 -6.69687e-13
1.97013 -51.3914 1.17536e-12
-6.69687e-13 1.17536e-12 -15.374

-12.8764 17.8752 1.61648e-13
17.8752 -16.9548 -1.11052e-12
1.61648e-13 -1.11052e-12 -41.0614

10.7134 20.1822 -2.88836e-12
20.1822 59.4529 -2.40045e-12
-2.88836e-12 -2.40045e-12 -4.35619

4.31859 27.2101 1.21325e-12
27.2101 -16.2234 5.86198e-14
1.21325e-12 5.86198e-14 -8.12372

30.9042 -24.5109 5.77316e-12
-24.5109 -8.13161 -3.45768e-12
5.77316e-12 -3.45768e-12 -4.87151

-37.7868 -17.8384 -2.21782e-12
-17.8384 2.40089 2.11919e-12
-2.21782e-12 2.11919e-12 -9.86385

55.5126 35.0671 -2.15887e-12
35.0671 42.3447 2.58993e-12
-2.15887e-12 2.58993e-12 -6.63606

-40.0146 -21.8309 3.6963e-12
-21.8309 2.53689 7.78044e-13
3.6963e-12 7.78044e-13 -9.39336

2.96674 30.85 1.03443e-12
30.85 -17.3876 4.18628e-13
1.03443e-12 4.18628e-13 -9.07769

18.5373 -25.2436 -5.43388e-12
-25.2436 -19.4171 4.4705e-14
-5.43388e-12 4.4705e-14 -6.34183

-15.6532 -25.1258 -8.5872e-12
-25.1258 5.89571 -1.88353e-12
-8.5872e-12 -1.88353e-12 -5.77484

42.7176 -18.6875 5.13959e-12
-18.6875 -9.16501 -6.69094e-14
5.13959e-12 -6.69094e-14 -5.36846

27.4317 -18.8491 -1.6532e-12
-18.8491 -20.3675 3.22705e-14
-1.6532e-12 3.22705e-14 -5.68906

-41.3937 -25.3369 -1.29881e-12
-25.3369 -14.9639 -2.25586e-12
-1.29881e-12 -2.25586e-12 -11.5665

29.7806 35.9682 -2.92744e-12
35.9682 25.2269 9.76996e-13
-2.92744e-12 9.76996e-13 -8.64377

-28.5176 15.3764 1.73387e-12
15.3764 18.5188 3.16784e-13
1.73387e-12 3.16784e-13 -5.87332

-23.1077 26.4218 -4.45569e-13
26.4218 -12.5464 3.78186e-12
-4.45569e-13 3.78186e-12 -9.95749

-42.0963 25.4736 -2.83126e-12
25.4736 -11.5925 -2.57305e-12
-2.83126e-12 -2.57305e-12 -10.9922

-37.288 11.6212 2.5734e-12
11.6212 11.8441 1.36187e-14
2.5734e-12 1.36187e-14 -9.07996

64.3917 -8.22672 2.13637e-12
-8.22672 3.19818 2.60221e-12
2.13637e-12 2.60221e-12 -4.2503

8.73421 18.6058 6.21725e-13
18.6058 59.2188 -4.19931e-12
6.21725e-13 -4.19931e-12 -4.16178

-25.614 -24.3801 4.94419e-13
-24.3801 0.458533 -1.14989e-12
4.94419e-13 -1.14989e-12 -7.21486

-1.14117 25.6652 -5.29591e-12
25.6652 13.7523 -5.33499e-13
-5.29591e-12 -5.33499e-13 -4.08196

32.3783 -35.6281 -3.11455e-13
-35.6281 21.7 -1.55668e-12
-3.11455e-13 -1.55668e-12 -8.48548

59.5349 38.3153 -3.49232e-12
38.3153 17.8476 -1.38793e-12
-3.49232e-12 -1.38793e-12 -13.722

12.1253 -33.3099 -1.62596e-12
-33.3099 42.9126 1.35003e-13
-1.62596e-12 1.35003e-13 -9.54212

30.551 -31.1585 -7.40149e-13
-31.1585 36.813 -2.1115e-12
-7.40149e-13 -2.1115e-12 -4.40488

11.7688 -6.83866 1.30592e-12
-6.83866 -48.8377 1.95399e-13
1.30592e-12 1.95399e-13 -8.76956

25.2743 30.3407 2.15531e-12
30.3407 41.0883 -6.15093e-12
2.15531e-12 -6.15093e-12 -4.45538

62.6808 13.2942 -5.56592e-14
13.2942 5.22863 3.59653e-12
-5.56592e-14 3.59653e-12 -4.30489

-7.02495 13.3783 3.25251e-12
13.3783 61.3429 6.987e-14
3.25251e-12 6.987e-14 -8.69434

11.7299 -22.3395 1.95044e-12
-22.3395 55.7621 1.35714e-12
1.95044e-12 1.35714e-12 -4.30084

-47.2606 -1.09142 6.03761e-12
-1.09142 12.4097 -3.1027e-13
6.03761e-12 -3.1027e-13 -22.1622

-5.91829 2.24652 -1.86547e-12
2.24652 59.0032 -7.31859e-13
-1.86547e-12 -7.31859e-13 -5.26183

6.26908 31.0881 -3.4562e-12
31.0881 47.8642 -2.5319e-12
-3.4562e-12 -2.5319e-12 -9.65991

-39.725 12.1076 1.76762e-12
12.1076 12.8449 -8.60349e-13
1.76762e-12 -8.60349e-13 -9.31245

40.7376 -27.6466 9.21337e-13
-27.6466 8.35791 -3.64212e-12
9.21337e-13 -3.64212e-12 -5.64128

7.5402 20.5569 3.93433e-12
20.5569 -47.4668 4.06282e-12
3.93433e-12 4.06282e-12 -16.4815

-3.42094 26.2704 -1.71537e-12
26.2704 -31.4867 -9.41321e-13
-1.71537e-12 -9.41321e-13 -22.2526

15.7774 -18.5672 5.45282e-12
-18.5672 -30.0123 6.4541e-13
5.45282e-12 6.4541e-13 -8.18228

4.42883 -1.80091 6.16174e-12
-1.80091 -34.133 -5.86198e-14
6.16174e-12 -5.86198e-14 -24.4397

-14.3393 -31.8115 3.67439e-12
-31.8115 -11.93 5.8975e-13
3.67439e-12 5.8975e-13 -9.04882

56.2171 23.3269 1.57622e-12
23.3269 0.817398 -9.18376e-13
1.57622e-12 -9.18376e-13 -8.28737

-27.8279 30.162 1.04539e-12
30.162 -9.23637 -8.11499e-13
1.04539e-12 -8.11499e-13 -8.79971

-27.0034 29.2057 1.5928e-12
29.2057 -9.20174 -2.14081e-12
1.5928e-12 -2.14081e-12 -8.67698

28.6284 30.6598 6.56068e-13
30.6598 40.4052 -5.21775e-12
6.56068e-13 -5.21775e-12 -4.4484

0.343105 27.0847 -2.71605e-12
27.0847 -19.8453 -4.59188e-13
-2.71605e-12 -4.59188e-13 -11.7766

64.5066 3.52503 1.64254e-12
3.52503 -11.8248 2.60547e-12
1.64254e-12 2.60547e-12 -10.0178

-14.8995 31.8172 -2.10617e-12
31.8172 -20.7987 3.00796e-13
-2.10617e-12 3.00796e-13 -12.4471

-37.9435 -12.5997 1.8711e-12
-12.5997 8.18001 -2.359e-12
1.8711e-12 -2.359e-12 -14.0225

-0.475074 24.2783 8.98837e-13
24.2783 -29.9989 5.87264e-12
8.98837e-13 5.87264e-12 -20.7715

-23.7272 -29.5786 3.07487e-12
-29.5786 -11.9349 -3.05918e-12
3.07487e-12 -3.05918e-12 -8.84264

-38.1476 -4.89814 -2.45154e-12
-4.89814 18.8465 -1.54661e-12
-2.45154e-12 -1.54661e-12 -11.7297

69.9431 -24.5555 -2.55559e-12
-24.5555 18.0289 -8.61533e-13
-2.55559e-12 -8.61533e-13 -7.04399

39.9816 29.6921 -1.44122e-12
29.6921 13.4796 3.52074e-12
-1.44122e-12 3.52074e-12 -5.21438

-4.29542 14.696 1.10963e-12
14.696 60.5701 -9.33179e-13
1.10963e-12 -9.33179e-13 -8.40028

1.61144 -1.13884 -7.10691e-13
-1.13884 -56.1231 1.37298e-12
-7.10691e-13 1.37298e-12 -11.2086

9.61413 0.00223676 7.99065e-13
0.00223676 -44.7532 2.30892e-12
7.99065e-13 2.30892e-12 -8.43717

-31.0782 23.1236 2.86586e-13
23.1236 -4.33697 -7.1528e-13
2.86586e-13 -7.1528e-13 -8.45762

-34.7626 23.8708 -4.15727e-12
23.8708 -13.1923 1.00227e-12
-4.15727e-12 1.00227e-12 -14.8127

-43.3785 -24.3807 4.15266e-12
-24.3807 -12.6139 -5.13663e-14
4.15266e-12 -5.13663e-14 -11.4681

-39.0586 -0.672667 -4.9733e-12
-0.672667 21.0464 -2.28143e-12
-4.9733e-12 -2.28143e-12 -10.495

-40.8066 25.5903 2.59555e-12
25.5903 -13.2223 2.34161e-12
2.59555e-12 2.34161e-12 -11.1717

32.3213 -10.3077 -8.57388e-13
-10.3077 -25.1526 -3.55271e-14
-8.57388e-13 -3.55271e-14 -6.0134

8.70704 -32.8325 5.53572e-12
-32.8325 22.7976 -5.44809e-12
5.53572e-12 -5.44809e-12 -6.99128

2.3969 -2.30054 -1.96569e-12
-2.30054 -49.9605 4.50395e-12
-1.96569e-12 4.50395e-12 -14.7723

36.7452 -34.5072 1.58451e-12
-34.5072 24.4795 -1.7953e-12
1.58451e-12 -1.7953e-12 -7.70859

-38.2936 19.0861 3.72502e-12
19.0861 -7.09374 -2.5017e-12
3.72502e-12 -2.5017e-12 -14.4491

7.87078 -26.4786 3.26376e-12
-26.4786 -27.994 4.33609e-12
3.26376e-12 4.33609e-12 -10.9686

63.9462 -9.68996 -3.56456e-13
-9.68996 5.67793 1.79471e-12
-3.56456e-13 1.79471e-12 -5.07179

6.04101 -23.1918 -3.99384e-12
-23.1918 -35.468 2.48127e-12
-3.99384e-12 2.48127e-12 -17.736

0.141349 2.35825 -3.20529e-12
2.35825 -56.1739 -3.64013e-12
-3.20529e-12 -3.64013e-12 -11.5455

-4.06196 -23.3212 7.25346e-13
-23.3212 -23.4116 2.24413e-12
7.25346e-13 2.24413e-12 -16.7199

11.0389 -25.8593 9.53312e-14
-25.8593 -29.4853 -4.75886e-12
9.53312e-14 -4.75886e-12 -9.73309

10.2015 -8.54595 2.17722e-12
-8.54595 -43.4893 2.46825e-12
2.17722e-12 2.46825e-12 -9.28074

-35.4183 -23.068 -7.6709e-13
-23.068 -12.6456 -6.45077e-13
-7.6709e-13 -6.45077e-13 -15.1028

23.6642 -31.3411 -4.53563e-13
-31.3411 5.71284 -7.73011e-12
-4.53563e-13 -7.73011e-12 -5.87751

11.06 -24.5869 -2.84572e-12
-24.5869 -27.4942 -1.04302e-12
-2.84572e-12 -1.04302e-12 -10.0476

46.6424 10.8642 -2.75217e-12
10.8642 -16.1163 2.71013e-12
-2.75217e-12 2.71013e-12 -6.79915

-14.1861 26.34 5.54519e-13
26.34 -15.6394 -2.7461e-12
5.54519e-13 -2.7461e-12 -14.1187

-45.252 -37.6132 1.95991e-13
-37.6132 -20.6125 -1.45465e-12
1.95991e-13 -1.45465e-12 -14.9188

-43.7087 37.2654 2.97333e-12
37.2654 -21.2663 1.09438e-12
2.97333e-12 1.09438e-12 -14.7692

-61.1855 -28.5735 5.35868e-13
-28.5735 -7.49702 3.24481e-13
5.35868e-13 3.24481e-13 -15.1992

-58.4163 27.0642 -3.18886e-12
27.0642 -6.27166 -5.32078e-12
-3.18886e-12 -5.32078e-12 -14.4778

5.6007 -8.52772 -1.23294e-12
-8.52772 -71.0644 3.19715e-12
-1.23294e-12 3.19715e-12 -14.7094

4.39741 9.27374 1.34574e-12
9.27374 -68.833 -3.16488e-13
1.34574e-12 -3.16488e-13 -14.4373

9.024 -9.84602 -1.41043e-12
-9.84602 -40.8894 -2.07834e-12
-1.41043e-12 -2.07834e-12 -9.61126

-24.3355 32.1165 -6.51035e-13
32.1165 -24.8103 4.18304e-13
-6.51035e-13 4.18304e-13 -21.1454

-25.523 -32.8545 2.63611e-12
-32.8545 -25.0963 -2.48875e-12
2.63611e-12 -2.48875e-12 -21.4696

-53.9204 16.0686 -1.72455e-13
16.0686 3.40196 2.51147e-12
-1.72455e-13 2.51147e-12 -21.403

-52.4212 -15.801 2.18048e-13
-15.801 3.29726 1.40747e-12
2.18048e-13 1.40747e-12 -21.0763

6.11247 -3.74738 4.91503e-12
-3.74738 -43.9254 5.66539e-12
4.91503e-12 5.66539e-12 -25.7654

6.91865 3.61016 -1.24508e-12
3.61016 -46.3489 6.4911e-12
-1.24508e-12 6.4911e-12 -26.1418

-15.6249 9.83664 -3.57499e-12
9.83664 46.262 -4.07378e-13
-3.57499e-12 -4.07378e-13 -5.84731

-22.9183 -24.7738 2.88895e-12
-24.7738 -14.5521 4.08784e-12
2.88895e-12 4.08784e-12 -10.3293

-56.6039 -36.3877 -1.71248e-12
-36.3877 -14.5327 1.16559e-12
-1.71248e-12 1.16559e-12 -13.4367

33.358 -4.66422 -8.62125e-13
-4.66422 -19.8462 1.21355e-12
-8.62125e-13 1.21355e-12 -3.94441

3.43349 -16.695 -1.31524e-12
-16.695 -52.6292 -3.96098e-12
-1.31524e-12 -3.96098e-12 -21.5329

3.67462 16.1759 2.49119e-12
16.1759 -51.8848 2.85697e-13
2.49119e-12 2.85697e-13 -21.4061

6.55581 0.121884 -2.23925e-12
0.121884 -76.7553 -2.75471e-12
-2.23925e-12 -2.75471e-12 -13.3036

-7.56886 23.3746 -1.35891e-13
23.3746 39.9353 -1.09542e-12
-1.35891e-13 -1.09542e-12 -6.88461

-56.8896 36.1717 8.1742e-13
36.1717 -14.0114 -4.16408e-13
8.1742e-13 -4.16408e-13 -13.3884

-39.7945 -23.3957 3.33925e-12
-23.3957 2.56161 1.65408e-12
3.33925e-12 1.65408e-12 -8.80034

37.1164 23.3522 -1.26713e-13
23.3522 -8.6124 8.82257e-14
-1.26713e-13 8.82257e-14 -5.75794

4.73553 23.8581 5.12775e-13
23.8581 -38.2258 1.11141e-12
5.12775e-13 1.11141e-12 -18.9858

24.0134 -31.3129 -1.78228e-12
-31.3129 6.40869 3.4183e-12
-1.78228e-12 3.4183e-12 -5.64749

2.43084 -3.23081 -2.31874e-12
-3.23081 -48.3697 -4.81985e-13
-2.31874e-12 -4.81985e-13 -14.7424

-60.4581 -34.1611 7.1676e-13
-34.1611 -14.3498 1.5404e-12
7.1676e-13 1.5404e-12 -14.0304

-17.4517 8.31978 2.18862e-13
8.31978 45.6913 2.79362e-12
2.18862e-13 2.79362e-12 -5.78035

-9.46807 21.811 -7.31267e-13
21.811 40.4247 -1.42109e-14
-7.31267e-13 -1.42109e-14 -6.65309

58.6027 35.775 2.02505e-12
35.775 37.0877 4.58892e-12
2.02505e-12 4.58892e-12 -6.91564

70.4828 1.57872 6.27646e-14
1.57872 -5.54232 1.78879e-12
6.27646e-14 1.78879e-12 -10.3736

-30.7595 -22.8044 8.52651e-14
-22.8044 -13.3562 -2.50252e-12
8.52651e-14 -2.50252e-12 -14.4658

32.841 31.1831 2.28321e-12
31.1831 69.7932 1.30266e-13
2.28321e-12 1.30266e-13 -6.67917

-19.376 23.6096 -8.4673e-14
23.6096 7.68697 -8.5502e-13
-8.4673e-14 -8.5502e-13 -5.51261

47.6365 -5.34942 3.61193e-13
-5.34942 -17.4323 -1.76348e-12
3.61193e-13 -1.76348e-12 -6.82109

33.2192 11.2158 -6.23738e-12
11.2158 -23.6359 8.0617e-13
-6.23738e-12 8.0617e-13 -6.01316

6.25433 0.429908 2.92063e-13
0.429908 -77.5526 1.79421e-13
2.92063e-13 1.79421e-13 -13.4493

-58.9362 -29.0312 9.1549e-13
-29.0312 -6.28805 -4.6807e-12
9.1549e-13 -4.6807e-12 -14.6968

-28.3321 -6.3191 6.93342e-12
-6.3191 -11.3588 3.67173e-12
6.93342e-12 3.67173e-12 -51.5907

-44.6983 37.4118 -1.1271e-12
37.4118 -20.8116 -1.92942e-12
-1.1271e-12 -1.92942e-12 -14.7732

93.7889 1.66326 -3.17139e-12
1.66326 16.6554 7.06775e-12
-3.17139e-12 7.06775e-12 -6.04292

10.0368 -32.7861 1.49214e-12
-32.7861 21.311 -2.3069e-12
1.49214e-12 -2.3069e-12 -6.80754

-56.9364 36.6132 2.80472e-12
36.6132 -14.5713 6.66726e-13
2.80472e-12 6.66726e-13 -13.5046

-35.0784 -11.1337 -7.37836e-13
-11.1337 19.177 -2.95882e-12
-7.37836e-13 -2.95882e-12 -8.31586

-5.47682 -25.5139 -3.72147e-12
-25.5139 37.3499 9.58048e-13
-3.72147e-12 9.58048e-13 -6.98637

-58.4526 28.8302 3.12491e-13
28.8302 -6.27143 -3.51926e-12
3.12491e-13 -3.51926e-12 -14.6138

28.4957 -26.1413 6.41857e-13
-26.1413 -4.91197 -7.03497e-12
6.41857e-13 -7.03497e-12 -4.69655

-21.171 10.4834 4.56701e-12
10.4834 -18.559 -3.5271e-12
4.56701e-12 -3.5271e-12 -51.6863

3.43333 30.8712 4.47287e-12
30.8712 27.1625 1.77991e-12
4.47287e-12 1.77991e-12 -6.73232

6.14068 8.12681 -2.39734e-12
8.12681 -72.2982 4.22329e-13
-2.39734e-12 4.22329e-13 -14.984

-11.5455 30.1905 1.34056e-12
30.1905 -20.6032 -1.28312e-12
1.34056e-12 -1.28312e-12 -11.5488

-30.7972 23.3316 -1.52485e-12
23.3316 -5.09955 9.4443e-14
-1.52485e-12 9.4443e-14 -8.46368

-25.8638 -32.4891 -1.20437e-12
-32.4891 -24.113 -2.84402e-13
-1.20437e-12 -2.84402e-13 -21.559

9.20562 -23.1899 4.31063e-13
-23.1899 -27.9219 -3.13083e-12
4.31063e-13 -3.13083e-12 -11.4253

-37.6606 10.4709 -7.49345e-12
10.4709 8.9289 3.01981e-14
-7.49345e-12 3.01981e-14 -25.3314

-23.04 -23.4335 -6.24093e-13
-23.4335 4.95255 5.92474e-12
-6.24093e-13 5.92474e-12 -6.26232

88.8018 -9.70755 2.84928e-12
-9.70755 10.8075 8.99799e-13
2.84928e-12 8.99799e-13 -10.0307

84.0419 -14.2769 -5.74355e-12
-14.2769 2.81298 2.67875e-12
-5.74355e-12 2.67875e-12 -13.1966

5.8882 16.5292 6.79516e-12
16.5292 -33.9324 2.36463e-12
6.79516e-12 2.36463e-12 -22.3763

-16.4207 22.5012 2.49164e-12
22.5012 16.228 1.82965e-13
2.49164e-12 1.82965e-13 -5.08459

-3.91212 29.1627 1.76274e-12
29.1627 -12.2293 -3.40794e-12
1.76274e-12 -3.40794e-12 -8.3957

50.992 0.688659 -3.41179e-12
0.688659 -6.53109 1.21133e-12
-3.41179e-12 1.21133e-12 -3.6338

-48.1408 6.5713 -1.22299e-12
6.5713 14.7862 -1.82373e-13
-1.22299e-12 -1.82373e-13 -18.9525

10.1157 16.5408 4.85538e-14
16.5408 -36.0793 -3.38307e-12
4.85538e-14 -3.38307e-12 -9.13499

-4.50304 -25.7604 9.82325e-13
-25.7604 35.5551 3.42955e-12
9.82325e-13 3.42955e-12 -6.74633

-39.1906 -2.57248 2.56367e-12
-2.57248 21.5042 2.0132e-13
2.56367e-12 2.0132e-13 -10.669

-7.98995 13.3648 -3.62614e-12
13.3648 44.4048 1.62122e-12
-3.62614e-12 1.62122e-12 -3.94367

3.73479 -29.7129 -6.22909e-13
-29.7129 -17.3642 -4.28783e-12
-6.22909e-13 -4.28783e-12 -8.92001

21.4259 -29.9467 -6.18942e-12
-29.9467 14.7562 -1.81484e-12
-6.18942e-12 -1.81484e-12 -3.91723

6.88131 31.622 -2.7948e-13
31.622 25.4016 -1.28845e-12
-2.7948e-13 -1.28845e-12 -6.82749

2.78574 -15.0203 -6.83779e-12
-15.0203 -39.2681 -8.90991e-13
-6.83779e-12 -8.90991e-13 -63.3135

-46.1597 2.04119 -1.87931e-12
2.04119 11.4615 3.34429e-12
-1.87931e-12 3.34429e-12 -22.757

-55.4453 20.3003 -8.37404e-13
20.3003 3.09602 -1.15138e-12
-8.37404e-13 -1.15138e-12 -22.9161

5.91706 15.4392 -1.22776e-12
15.4392 -58.8191 -2.42946e-12
-1.22776e-12 -2.42946e-12 -23.0362

-18.9212 -26.1884 1.58066e-12
-26.1884 -12.9131 -5.77316e-13
1.58066e-12 -5.77316e-13 -9.65207

41.3455 17.9569 -9.26074e-13
17.9569 -6.27033 3.37212e-12
-9.26074e-13 3.37212e-12 -3.86077

-44.6829 -5.29426 -7.45592e-12
-5.29426 4.5383 2.42177e-13
-7.45592e-12 2.42177e-13 -39.146

7.49924 -18.9882 2.9902e-14
-18.9882 -39.8941 3.31261e-12
2.9902e-14 3.31261e-12 -11.6595

30.2907 -15.5986 -3.3283e-12
-15.5986 -20.5077 1.7543e-12
-3.3283e-12 1.7543e-12 -4.80431

-9.63766 11.6029 -3.28656e-12
11.6029 44.3186 6.25396e-12
-3.28656e-12 6.25396e-12 -3.85842

8.33428 -25.7335 8.18072e-12
-25.7335 32.9915 -2.67519e-12
8.18072e-12 -2.67519e-12 -3.63239

-10.2448 -25.2738 -2.51651e-14
-25.2738 -19.0999 2.31829e-12
-2.51651e-14 2.31829e-12 -23.175

17.0052 31.9587 9.4739e-13
31.9587 11.1975 -8.4673e-14
9.4739e-13 -8.4673e-14 -5.74565

-1.06932 -25.1348 -3.68298e-12
-25.1348 -30.7626 6.96036e-12
-3.68298e-12 6.96036e-12 -20.8917

48.0643 2.59731 4.29286e-12
2.59731 -8.40894 -1.37764e-12
4.29286e-12 -1.37764e-12 -3.53095

6.55277 -28.9298 -6.1083e-12
-28.9298 72.0489 -3.55745e-12
-6.1083e-12 -3.55745e-12 -14.5512

21.7915 -29.2302 3.64686e-12
-29.2302 13.9637 2.90079e-12
3.64686e-12 2.90079e-12 -3.92962

35.3509 32.1581 3.85469e-12
32.1581 74.1329 5.45223e-12
3.85469e-12 5.45223e-12 -5.4415

-45.2828 -11.877 -5.9342e-12
-11.877 13.9222 -3.66226e-12
-5.9342e-12 -3.66226e-12 -15.3261

-14.4196 -13.821 -2.51651e-12
-13.821 43.3817 -3.57521e-12
-2.51651e-12 -3.57521e-12 -5.67196

-19.244 -23.9885 -2.91249e-12
-23.9885 -19.8306 -2.28129e-12
-2.91249e-12 -2.28129e-12 -64.2554

2.43875 23.7701 6.32442e-12
23.7701 36.0063 9.56864e-13
6.32442e-12 9.56864e-13 -3.71039

-15.1822 -32.7262 -8.6627e-13
-32.7262 -21.1187 2.21452e-13
-8.6627e-13 2.21452e-13 -14.3126

-14.5642 -11.9628 3.01092e-12
-11.9628 45.5299 3.32771e-12
3.01092e-12 3.32771e-12 -5.73816

7.83565 -19.1169 -3.40616e-12
-19.1169 -43.1217 -5.70211e-13
-3.40616e-12 -5.70211e-13 -12.6316

6.54606 23.8764 2.07242e-13
23.8764 35.1709 2.03689e-13
2.07242e-13 2.03689e-13 -3.44137

23.1732 -4.97543 -8.7456e-13
-4.97543 -30.6754 -1.31043e-13
-8.7456e-13 -1.31043e-13 -5.36354

36.9696 -30.3421 -4.32602e-12
-30.3421 122.625 -2.8398e-12
-4.32602e-12 -2.8398e-12 -6.24203

-26.8684 21.0137 -4.39648e-13
21.0137 8.43433 5.69026e-12
-4.39648e-13 5.69026e-12 -7.12914

40.3378 -19.3228 5.30539e-13
-19.3228 -11.3715 -6.24182e-12
5.30539e-13 -6.24182e-12 -5.72518

6.52882 -21.4459 9.88839e-13
-21.4459 -45.5584 -8.46138e-13
9.88839e-13 -8.46138e-13 -24.9721

20.7051 31.7532 -2.9677e-12
31.7532 9.55782 -8.23637e-13
-2.9677e-12 -8.23637e-13 -5.80522

13.919 -29.9711 -6.06922e-12
-29.9711 -7.60503 7.33931e-13
-6.06922e-12 7.33931e-13 -5.94343

6.75479 20.8851 -9.93576e-13
20.8851 -27.7916 -4.09687e-12
-9.93576e-13 -4.09687e-12 -11.1084

-38.2739 -28.0758 -1.60953e-12
-28.0758 -14.0376 1.47482e-12
-1.60953e-12 1.47482e-12 -11.0603

8.64671 -26.2245 -6.10475e-13
-26.2245 31.1705 2.00136e-13
-6.10475e-13 2.00136e-13 -3.63441

15.3316 28.9803 -4.13299e-12
28.9803 19.1538 2.58401e-12
-4.13299e-12 2.58401e-12 -3.88217

28.6401 26.1907 4.17207e-12
26.1907 -5.63253 2.28824e-12
4.17207e-12 2.28824e-12 -4.80114

7.91491 -14.6097 1.73698e-12
-14.6097 -36.8772 3.85085e-12
1.73698e-12 3.85085e-12 -13.9909

-6.84063 -16.6171 -3.32416e-12
-16.6171 41.3403 -1.80833e-12
-3.32416e-12 -1.80833e-12 -3.9586

17.4406 -17.5681 3.61074e-12
-17.5681 -30.9984 -1.24434e-12
3.61074e-12 -1.24434e-12 -7.10443

19.8419 16.9081 -2.1565e-12
16.9081 -31.6634 -2.93987e-13
-2.1565e-12 -2.93987e-13 -7.33362

-33.6792 -9.38705 -2.18262e-12
-9.38705 8.75594 2.39216e-13
-2.18262e-12 2.39216e-13 -23.993

43.4308 -13.4297 4.52971e-12
-13.4297 -8.36791 3.65337e-13
4.52971e-12 3.65337e-13 -3.80335

-19.3774 0.593985 -2.20505e-12
0.593985 43.1447 3.3585e-12
-2.20505e-12 3.3585e-12 -4.77459

28.0556 18.5546 6.35936e-13
18.5546 -18.198 3.32416e-12
6.35936e-13 3.32416e-12 -4.74882

25.5282 27.6033 1.64964e-12
27.6033 -3.77488 -3.21787e-12
1.64964e-12 -3.21787e-12 -4.77028

-6.71443 -15.6857 -9.56272e-13
-15.6857 43.7979 5.95672e-13
-9.56272e-13 5.95672e-13 -3.84715

-19.9054 -1.2023 1.08935e-12
-1.2023 42.1273 5.61329e-12
1.08935e-12 5.61329e-12 -4.68615

-5.47319 29.1343 -3.20988e-12
29.1343 -23.6461 2.04488e-12
-3.20988e-12 2.04488e-12 -16.7967

-37.273 -10.9219 -3.62022e-12
-10.9219 21.68 1.69464e-12
-3.62022e-12 1.69464e-12 -7.82923

27.1432 -26.7146 -2.56565e-12
-26.7146 -5.53003 1.75149e-12
-2.56565e-12 1.75149e-12 -4.94333

40.7185 21.332 2.3519e-12
21.332 -8.36922 -1.76155e-12
2.3519e-12 -1.76155e-12 -5.4667

12.378 23.6651 -8.9706e-13
23.6651 -27.1264 -2.62013e-12
-8.9706e-13 -2.62013e-12 -8.66626

-37.7958 5.47061 3.05237e-12
5.47061 23.3113 -4.70142e-13
3.05237e-12 -4.70142e-13 -8.59671

18.5931 29.0648 -7.08174e-13
29.0648 17.3778 -1.52411e-12
-7.08174e-13 -1.52411e-12 -3.94626

-9.98927 22.9638 6.47186e-13
22.9638 -14.9125 -3.05667e-12
6.47186e-13 -3.05667e-12 -24.0263

68.315 -59.6905 5.50907e-12
-59.6905 36.3344 -3.55153e-12
5.50907e-12 -3.55153e-12 -23.0109

17.531 -25.0473 -1.63425e-12
-25.0473 -17.9913 4.57708e-13
-1.63425e-12 4.57708e-13 -6.41683

10.0587 7.06973 2.40963e-12
7.06973 82.5489 -4.9738e-14
2.40963e-12 -4.9738e-14 -7.16492

11.9206 -28.8886 -3.37034e-12
-28.8886 -3.88105 -8.52059e-13
-3.37034e-12 -8.52059e-13 -5.16492

-66.9451 -52.7005 -1.89833e-12
-52.7005 143.247 3.51008e-12
-1.89833e-12 3.51008e-12 -49.6699

-68.3884 51.4512 -3.55271e-12
51.4512 142.535 -9.04758e-13
-3.55271e-12 -9.04758e-13 -49.8589

19.5683 117.153 -2.01794e-12
117.153 64.1272 1.82846e-12
-2.01794e-12 1.82846e-12 -48.3605

20.5272 -117.096 -9.45022e-13
-117.096 61.0241 5.04485e-12
-9.45022e-13 5.04485e-12 -48.7252

157.74 -1.36334 -3.15481e-12
-1.36334 -79.1872 3.41741e-14
-3.15481e-12 3.41741e-14 -48.9121

110.323 -91.1247 2.84217e-14
-91.1247 -36.6906 4.52379e-13
2.84217e-14 4.52379e-13 -50.3067

110.376 91.6525 -6.75489e-12
91.6525 -36.5008 -5.48065e-12
-6.75489e-12 -5.48065e-12 -50.1795

7.84722 14.3301 -3.31764e-12
14.3301 -42.6813 -5.21775e-12
-3.31764e-12 -5.21775e-12 -15.0787

-11.7912 25.5367 7.42932e-12
25.5367 -27.4046 -4.44341e-12
7.42932e-12 -4.44341e-12 -35.1387

12.4381 6.60591 -5.7329e-12
6.60591 -40.5328 1.82017e-12
-5.7329e-12 1.82017e-12 -8.25162

26.2547 21.7842 -2.49045e-12
21.7842 -19.5276 5.24084e-12
-2.49045e-12 5.24084e-12 -5.84997

-21.229 17.744 -1.73091e-12
17.744 29.8682 2.61835e-12
-1.73091e-12 2.61835e-12 -6.16143

22.5304 28.8978 -1.67807e-12
28.8978 -0.774903 -1.83438e-12
-1.67807e-12 -1.83438e-12 -4.72991

4.05581 -29.6631 2.14169e-12
-29.6631 -17.4659 -9.767e-13
2.14169e-12 -9.767e-13 -8.50372

25.9952 28.0272 3.9222e-12
28.0272 -2.30105 -7.73307e-13
3.9222e-12 -7.73307e-13 -4.73032

-19.346 -2.84116 3.48521e-12
-2.84116 43.0708 1.57977e-12
3.48521e-12 1.57977e-12 -4.76913

-13.4118 -26.0976 -4.44829e-12
-26.0976 -25.8383 -5.00296e-12
-4.44829e-12 -5.00296e-12 -35.5218

-19.8411 -4.86225 3.16991e-12
-4.86225 41.7759 4.25141e-12
3.16991e-12 4.25141e-12 -4.74299

-1.82674 23.016 -1.05575e-12
23.016 -24.377 3.9968e-15
-1.05575e-12 3.9968e-15 -16.1498

44.982 26.87 4.51195e-13
26.87 8.11186 -3.52311e-12
4.51195e-13 -3.52311e-12 -5.36842

-52.5093 -13.216 1.27024e-12
-13.216 0.1505 4.30974e-12
1.27024e-12 4.30974e-12 -20.6174

20.2804 13.7277 3.62554e-12
13.7277 -31.1405 2.69177e-12
3.62554e-12 2.69177e-12 -7.04212

13.7009 -29.9871 1.74675e-13
-29.9871 -6.69078 -1.72721e-12
1.74675e-13 -1.72721e-12 -5.83436

29.6306 -24.713 1.89478e-14
-24.713 -7.87294 6.20245e-13
1.89478e-14 6.20245e-13 -4.82429

5.76502 -16.0744 -5.26867e-12
-16.0744 -32.3341 -3.42689e-12
-5.26867e-12 -3.42689e-12 -22.2557

12.6277 27.9285 1.96465e-12
27.9285 -13.638 3.30195e-12
1.96465e-12 3.30195e-12 -6.41881

23.309 23.977 4.18628e-13
23.977 -17.9424 -2.71575e-12
4.18628e-13 -2.71575e-12 -5.9615

-31.0759 -2.79296 1.01789e-12
-2.79296 30.1315 6.92779e-14
1.01789e-12 6.92779e-14 -6.39768

-28.6282 5.87328 6.29517e-13
5.87328 33.3212 -1.6828e-12
6.29517e-13 -1.6828e-12 -6.05846

34.5482 2.64665 1.72011e-12
2.64665 -26.1822 -2.66576e-12
1.72011e-12 -2.66576e-12 -6.14117

50.6506 -7.28948 -4.80327e-12
-7.28948 -14.0807 1.79205e-12
-4.80327e-12 1.79205e-12 -6.7779

11.0413 30.4841 -8.81073e-13
30.4841 -4.78697 -5.2367e-12
-8.81073e-13 -5.2367e-12 -5.9653

17.4676 -26.155 -7.67978e-13
-26.155 -17.4543 3.51393e-12
-7.67978e-13 3.51393e-12 -6.35094

-0.0845591 -21.2543 -5.01199e-12
-21.2543 -27.9556 -3.75196e-12
-5.01199e-12 -3.75196e-12 -17.1664

4.9394 -31.633 3.59653e-12
-31.633 4.86183 7.88702e-13
3.59653e-12 7.88702e-13 -5.93413

-8.22638 -27.7849 7.21201e-13
-27.7849 18.5789 3.11158e-12
7.21201e-13 3.11158e-12 -6.12873

-1.6497 29.8865 -4.55813e-12
29.8865 10.4476 3.84048e-12
-4.55813e-12 3.84048e-12 -5.79917

-26.0154 -9.57775 7.85113e-13
-9.57775 32.9695 3.45265e-12
7.85113e-13 3.45265e-12 -5.78613

-31.3218 -1.54471 -1.82913e-12
-1.54471 31.6506 -3.48166e-12
-1.82913e-12 -3.48166e-12 -6.2225

-38.9145 5.74796 -1.60201e-12
5.74796 23.9465 -2.14169e-12
-1.60201e-12 -2.14169e-12 -9.18211

-17.2171 -21.0886 -2.60799e-12
-21.0886 26.5709 -1.30799e-12
-2.60799e-12 -1.30799e-12 -5.77082

13.072 24.1109 -2.11801e-12
24.1109 -28.1005 2.69177e-12
-2.11801e-12 2.69177e-12 -9.20399

21.5549 -9.5896 -5.34091e-13
-9.5896 -31.7054 8.7382e-13
-5.34091e-13 8.7382e-13 -6.59694

-27.1524 7.46516 -4.7166e-13
7.46516 34.3344 8.00545e-13
-4.7166e-13 8.00545e-13 -5.87286

-35.2348 -9.70104 -3.59679e-12
-9.70104 22.3135 5.59552e-13
-3.59679e-12 5.59552e-13 -8.18251

-29.1546 -16.3304 -2.74832e-12
-16.3304 19.3467 -7.14095e-13
-2.74832e-12 -7.14095e-13 -6.66062

36.9674 -8.23905 1.58688e-12
-8.23905 -20.2356 -2.85786e-12
1.58688e-12 -2.85786e-12 -5.10036

-14.8095 -32.3468 -3.69571e-12
-32.3468 -21.6274 -7.89887e-13
-3.69571e-12 -7.89887e-13 -12.9924

-22.8231 9.32065 -5.4623e-14
9.32065 33.3231 2.24413e-13
-5.4623e-14 2.24413e-13 -4.78772

-0.75087 -18.2126 2.75335e-12
-18.2126 -35.1578 5.01095e-12
2.75335e-12 5.01095e-12 -33.2783

4.93242 24.8222 -1.06937e-12
24.8222 75.3055 3.98141e-12
-1.06937e-12 3.98141e-12 -14.3187

-14.1417 -26.626 -6.30607e-14
-26.626 -16.3496 2.02549e-12
-6.30607e-14 2.02549e-12 -14.6403

-6.35702 -30.2028 -3.97312e-13
-30.2028 -23.6018 -3.32031e-12
-3.97312e-13 -3.32031e-12 -17.0875

-31.2697 -0.70133 8.09575e-13
-0.70133 31.5003 -4.89564e-12
8.09575e-13 -4.89564e-12 -6.34737

28.4875 -16.6224 2.68822e-13
-16.6224 -18.056 2.40163e-12
2.68822e-13 2.40163e-12 -4.43692

-37.8042 12.8416 1.40297e-12
12.8416 11.1651 -3.54146e-12
1.40297e-12 -3.54146e-12 -10.9883

-8.86109 -3.18044 -1.02762e-12
-3.18044 111.049 -7.26175e-12
-1.02762e-12 -7.26175e-12 -22.6718

-31.6015 14.2735 4.64517e-12
14.2735 21.3504 -1.82077e-12
4.64517e-12 -1.82077e-12 -7.12333

12.4221 -29.4887 -5.23137e-12
-29.4887 -2.51913 8.33111e-13
-5.23137e-12 8.33111e-13 -4.92714

33.6316 25.1053 -5.91764e-12
25.1053 124.028 -7.05095e-12
-5.91764e-12 -7.05095e-12 -6.21436

-13.5029 26.0983 -4.56065e-12
26.0983 -19.0974 -1.6193e-12
-4.56065e-12 -1.6193e-12 -58.8972

-9.55287 -27.8077 7.70021e-12
-27.8077 -22.807 -1.25044e-11
7.70021e-12 -1.25044e-11 -59.5476

-2.86542 -30.4187 -4.74939e-12
-30.4187 -7.32068 5.62335e-12
-4.74939e-12 5.62335e-12 -7.28629

3.8607 -31.1597 -7.97407e-12
-31.1597 5.63601 -5.45342e-13
-7.97407e-12 -5.45342e-13 -6.06135

25.1519 20.8272 -2.42117e-12
20.8272 -17.0335 8.02321e-14
-2.42117e-12 8.02321e-14 -4.97582

31.805 15.0058 2.81849e-13
15.0058 -23.3 2.56091e-12
2.81849e-13 2.56091e-12 -5.95364

-9.48902 3.08376 -4.38546e-12
3.08376 -9.83075 9.47272e-12
-4.38546e-12 9.47272e-12 -80.9406

-5.5492 -7.00043 -7.87526e-12
-7.00043 -14.0421 -1.19013e-11
-7.87526e-12 -1.19013e-11 -80.2932

11.7485 4.82432 -1.97472e-12
4.82432 -43.2049 -3.51349e-12
-1.97472e-12 -3.51349e-12 -7.82657

-35.056 6.73086 2.42502e-12
6.73086 24.3753 -2.19439e-12
2.42502e-12 -2.19439e-12 -7.56311

-36.1096 6.73631 2.47098e-12
6.73631 24.4326 -2.30334e-12
2.47098e-12 -2.30334e-12 -8.30808

74.5855 58.6335 9.30811e-13
58.6335 34.1721 1.77399e-12
9.30811e-13 1.77399e-12 -21.8731

-6.91918 -28.1993 6.44758e-12
-28.1993 16.8754 -2.99494e-12
6.44758e-12 -2.99494e-12 -6.11563

8.17208 17.9746 -9.48515e-12
17.9746 -44.8757 -1.88738e-12
-9.48515e-12 -1.88738e-12 -12.8962

32.7029 9.53963 4.74879e-13
9.53963 -19.0793 7.34524e-13
4.74879e-13 7.34524e-13 -4.0734

3.38824 -26.7229 -3.00145e-12
-26.7229 13.4841 1.67214e-12
-3.00145e-12 1.67214e-12 -3.82604

26.2375 -20.2374 -3.73982e-12
-20.2374 -20.3222 1.68695e-12
-3.73982e-12 1.68695e-12 -5.86222

65.3894 60.2314 -9.75812e-13
60.2314 34.2889 6.26936e-12
-9.75812e-13 6.26936e-12 -23.8679

-13.2423 31.069 -1.38201e-12
31.069 -16.8809 -1.29378e-13
-1.38201e-12 -1.29378e-13 -12.7853

-18.6033 -19.7858 -5.39243e-12
-19.7858 28.4147 2.54493e-12
-5.39243e-12 2.54493e-12 -5.96848

11.1747 28.8573 3.59298e-12
28.8573 -13.3226 1.3974e-13
3.59298e-12 1.3974e-13 -6.43523

-31.8683 -4.14473 -2.05132e-12
-4.14473 30.1478 -1.55727e-12
-2.05132e-12 -1.55727e-12 -6.35694

-14.5956 19.6089 2.73381e-12
19.6089 27.1852 5.72638e-12
2.73381e-12 5.72638e-12 -4.41772

7.47957 30.5183 1.78998e-12
30.5183 -1.66984 -3.27442e-13
1.78998e-12 -3.27442e-13 -5.65951

-9.34421 -22.4728 7.22681e-12
-22.4728 23.1492 -7.82189e-13
7.22681e-12 -7.82189e-13 -4.17448

4.59097 -27.3521 -5.03893e-13
-27.3521 11.4492 -7.81597e-13
-5.03893e-13 -7.81597e-13 -3.93755

24.2716 11.2568 4.16556e-13
11.2568 102.078 -3.47219e-12
4.16556e-13 -3.47219e-12 -12.4051

37.4664 -33.4557 -7.82781e-13
-33.4557 69.2848 -1.75267e-12
-7.82781e-13 -1.75267e-12 -5.70288

-25.3343 -11.6904 2.63012e-12
-11.6904 31.368 5.43328e-12
2.63012e-12 5.43328e-12 -5.64741

16.0967 26.4842 -1.96998e-12
26.4842 -15.5014 -6.13672e-12
-1.96998e-12 -6.13672e-12 -6.21655

4.95619 29.4775 1.4347e-12
29.4775 1.63726 4.04891e-12
1.4347e-12 4.04891e-12 -4.989

-9.85398 -21.4336 3.34014e-12
-21.4336 25.1209 4.25734e-12
3.34014e-12 4.25734e-12 -4.03228

-21.6339 -11.7821 -5.79892e-12
-11.7821 32.082 1.68635e-12
-5.79892e-12 1.68635e-12 -4.63625

10.4633 28.4091 1.35832e-12
28.4091 -0.156093 -3.37093e-12
1.35832e-12 -3.37093e-12 -4.67195

-21.846 -13.8776 -3.52725e-12
-13.8776 29.4673 4.42727e-12
-3.52725e-12 4.42727e-12 -4.84619

6.95887 27.8545 3.18442e-12
27.8545 73.084 -3.34429e-12
3.18442e-12 -3.34429e-12 -14.3218

-45.8314 -4.04137 -6.25298e-13
-4.04137 14.048 3.41593e-12
-6.25298e-13 3.41593e-12 -19.965

0.877656 31.0271 -5.51914e-12
31.0271 7.52072 -2.31696e-12
-5.51914e-12 -2.31696e-12 -6.08809

9.71933 14.901 -1.97945e-12
14.901 -36.4286 -1.67629e-12
-1.97945e-12 -1.67629e-12 -10.9847

9.92893 -15.9273 -3.36235e-12
-15.9273 -39.4101 -5.4016e-12
-3.36235e-12 -5.4016e-12 -13.0686

85.6121 -24.2041 2.81612e-12
-24.2041 7.63603 -1.95399e-12
2.81612e-12 -1.95399e-12 -12.9578

-23.2063 -21.267 3.80466e-12
-21.267 10.5139 -1.62833e-13
3.80466e-12 -1.62833e-13 -6.16434

-16.6003 26.698 1.8332e-12
26.698 1.77882 -3.28212e-12
1.8332e-12 -3.28212e-12 -6.58678

-26.2016 -21.7279 -2.77763e-12
-21.7279 -5.36452 -1.60346e-12
-2.77763e-12 -1.60346e-12 -23.8674

-41.5974 14.107 -1.01862e-11
14.107 -3.56021 -5.46467e-12
-1.01862e-11 -5.46467e-12 -64.1297

-0.893328 9.44535 -1.98789e-12
9.44535 -44.2602 -5.06854e-13
-1.98789e-12 -5.06854e-13 -64.2312

-20.3843 32.7056 3.2457e-12
32.7056 -23.2023 4.40314e-12
3.2457e-12 4.40314e-12 -24.3297

-11.4097 25.9999 5.02916e-12
25.9999 22.6041 -3.471e-12
5.02916e-12 -3.471e-12 -5.92471

16.0388 26.6612 -3.79548e-12
26.6612 -17.2865 -2.57601e-12
-3.79548e-12 -2.57601e-12 -6.54901

30.4281 45.1852 2.80783e-12
45.1852 47.5542 -1.79649e-12
2.80783e-12 -1.79649e-12 -15.1948

-44.8893 -11.3439 -4.82281e-13
-11.3439 -1.80812 -2.27788e-12
-4.82281e-13 -2.27788e-12 -61.6857

-8.2982 -3.43307 -4.03594e-13
-3.43307 -12.7556 -1.55924e-11
-4.03594e-13 -1.55924e-11 -77.2305

-14.692 -0.210157 3.51363e-12
-0.210157 -6.41858 -7.29949e-12
3.51363e-12 -7.29949e-12 -77.3747

27.6646 -53.8018 -5.71513e-12
-53.8018 71.1476 -6.3262e-12
-5.71513e-12 -6.3262e-12 -24.3897

-11.6915 -11.6001 -4.88794e-13
-11.6001 -16.2044 5.93362e-12
-4.88794e-13 5.93362e-12 -37.432

-32.6105 8.81318 -2.31881e-12
8.81318 -9.41979 9.23706e-14
-2.31881e-12 9.23706e-14 -49.5428

18.2563 -26.1993 -7.36596e-13
-26.1993 -19.5456 -1.84356e-12
-7.36596e-13 -1.84356e-12 -6.50576

-39.4298 1.01117 1.72762e-12
1.01117 11.9801 5.0188e-12
1.72762e-12 5.0188e-12 -19.722

-30.2019 -20.2676 2.80664e-12
-20.2676 6.30521 2.20801e-12
2.80664e-12 2.20801e-12 -7.21523

10.5366 6.2553 1.5626e-12
6.2553 -52.3897 -1.02496e-12
1.5626e-12 -1.02496e-12 -9.63901

-49.8126 15.5963 8.60737e-13
15.5963 10.1655 -1.84682e-12
8.60737e-13 -1.84682e-12 -13.5307

-40.2831 7.19167 1.35532e-12
7.19167 16.5415 -3.35909e-12
1.35532e-12 -3.35909e-12 -13.7739

16.405 20.3925 -1.19312e-12
20.3925 -25.8401 -1.62033e-12
-1.19312e-12 -1.62033e-12 -7.60692

-9.10011 -3.1139 -4.58692e-12
-3.1139 108.393 -1.80952e-12
-4.58692e-12 -1.80952e-12 -23.1021

-3.3197 -27.6234 -2.29861e-12
-27.6234 -3.62922 7.99361e-13
-2.29861e-12 7.99361e-13 -5.82918

-7.33478 -26.116 5.8525e-12
-26.116 -14.0816 -1.30829e-12
5.8525e-12 -1.30829e-12 -9.81013

-14.1981 -31.4837 1.33819e-12
-31.4837 -21.7779 3.30743e-12
1.33819e-12 3.30743e-12 -12.7553

90.7263 32.7491 5.0188e-12
32.7491 20.9061 1.79205e-12
5.0188e-12 1.79205e-12 -16.5061

-23.1178 -20.1166 4.14158e-12
-20.1166 -17.3849 -2.73692e-12
4.14158e-12 -2.73692e-12 -44.4288

72.6294 54.3216 3.27087e-12
54.3216 91.6394 8.12387e-12
3.27087e-12 8.12387e-12 -6.14259

-36.2147 -21.4396 -1.18838e-12
-21.4396 -6.79682 -6.0929e-13
-1.18838e-12 -6.0929e-13 -13.0425

15.0339 14.6503 -1.97116e-12
14.6503 -37.7512 5.12583e-12
-1.97116e-12 5.12583e-12 -8.17808

44.5722 -14.5722 2.62072e-12
-14.5722 -8.27111 -1.71315e-12
2.62072e-12 -1.71315e-12 -4.41775

-21.2302 24.0465 2.08722e-12
24.0465 4.95567 1.07055e-12
2.08722e-12 1.07055e-12 -5.97555

17.3732 20.4278 2.11919e-12
20.4278 -26.7917 -8.57092e-13
2.11919e-12 -8.57092e-13 -6.95072

-51.1401 11.4007 -3.92368e-12
11.4007 7.7106 1.88205e-12
-3.92368e-12 1.88205e-12 -29.9946

-7.28664 -31.5799 3.21846e-12
-31.5799 -12.8263 -2.78296e-14
3.21846e-12 -2.78296e-14 -8.11833

2.79692 19.8124 1.90366e-12
19.8124 -46.0336 -3.01685e-13
1.90366e-12 -3.01685e-13 -29.9865

-24.6703 -18.4432 1.65201e-13
-18.4432 17.8362 1.18424e-14
1.65201e-13 1.18424e-14 -5.47924

-42.3401 4.28308 8.24594e-13
4.28308 17.8695 -4.46813e-12
8.24594e-13 -4.46813e-12 -12.7277

-4.09805 9.92664 -2.65595e-12
9.92664 -40.2764 -2.68126e-12
-2.65595e-12 -2.68126e-12 -47.5502

-2.68825 -8.51324 2.735e-12
-8.51324 -38.3076 -2.19883e-12
2.735e-12 -2.19883e-12 -47.4059

81.7213 18.5121 -9.4739e-14
18.5121 1.70049 2.86467e-12
-9.4739e-14 2.86467e-12 -14.453

3.89494 7.96492 -1.58984e-12
7.96492 -45.1827 5.26423e-12
-1.58984e-12 5.26423e-12 -11.0176

35.8706 7.74032 1.72899e-12
7.74032 184.57 5.40012e-12
1.72899e-12 5.40012e-12 -9.75824

40.1441 -11.3849 6.29826e-12
-11.3849 190.367 -1.33108e-12
6.29826e-12 -1.33108e-12 -7.3901

53.7634 56.4062 1.76688e-12
56.4062 159.252 2.32584e-12
1.76688e-12 2.32584e-12 -11.5009

1.7092 -28.9503 -3.82154e-12
-28.9503 -24.6905 2.14584e-12
-3.82154e-12 2.14584e-12 -11.9624

16.0484 -49.1895 3.01152e-12
-49.1895 99.4169 4.40773e-12
3.01152e-12 4.40773e-12 -21.6895

54.5112 -55.9487 -2.6669e-12
-55.9487 149.969 -6.30962e-12
-2.6669e-12 -6.30962e-12 -13.6658

-2.16514 26.2196 4.48175e-12
26.2196 17.5727 -4.77129e-12
4.48175e-12 -4.77129e-12 -3.99504

134.936 73.8428 -2.36848e-14
73.8428 85.0227 1.78583e-12
-2.36848e-14 1.78583e-12 -10.16

-18.7194 13.0474 -1.94481e-12
13.0474 -3.90039 3.86594e-12
-1.94481e-12 3.86594e-12 -26.77

3.74117 0.0391305 1.73491e-13
0.0391305 -26.1888 -6.41561e-12
1.73491e-13 -6.41561e-12 -26.7733

144.094 -73.1282 -2.269e-12
-73.1282 85.3502 3.63798e-12
-2.269e-12 3.63798e-12 -8.19735

-21.392 -23.4235 2.40696e-12
-23.4235 12.2482 2.62782e-12
2.40696e-12 2.62782e-12 -6.49018

89.3443 34.7284 9.97128e-12
34.7284 41.3891 7.16346e-12
9.97128e-12 7.16346e-12 -11.5483

72.185 63.4898 -3.12402e-12
63.4898 149.69 -3.53377e-12
-3.12402e-12 -3.53377e-12 -9.67465

26.164 21.6297 2.73085e-12
21.6297 100.131 -8.61888e-12
2.73085e-12 -8.61888e-12 -13.0317

73.8718 -65.9186 4.36273e-12
-65.9186 151.14 1.78583e-12
4.36273e-12 1.78583e-12 -9.40322

25.7685 -12.3808 2.5017e-12
-12.3808 105.01 -1.88057e-12
2.5017e-12 -1.88057e-12 -12.4287

-28.6639 6.842 4.51002e-12
6.842 3.10667 8.18604e-13
4.51002e-12 8.18604e-13 -37.8546

37.7421 -45.9737 1.68162e-12
-45.9737 49.6683 -2.13163e-14
1.68162e-12 -2.13163e-14 -15.5323

14.4432 47.5308 1.63425e-13
47.5308 94.8774 9.42417e-12
1.63425e-13 9.42417e-12 -22.1927

173.335 37.9107 -5.36697e-12
37.9107 48.0399 8.81073e-13
-5.36697e-12 8.81073e-13 -9.52328

7.02107 -29.2853 7.77689e-12
-29.2853 -14.3579 -7.61169e-13
7.77689e-12 -7.61169e-13 -7.15531

-38.417 12.8967 9.87728e-13
12.8967 6.43527 8.99133e-13
9.87728e-13 8.99133e-13 -15.2903

88.5026 -38.1116 3.78956e-14
-38.1116 34.1621 -3.47455e-12
3.78956e-14 -3.47455e-12 -14.0999

6.04196 -28.8018 8.11203e-13
-28.8018 -16.1712 -1.13036e-12
8.11203e-13 -1.13036e-12 -8.02916

169.201 -36.3426 -3.56219e-12
-36.3426 34.9275 -7.83847e-12
-3.56219e-12 -7.83847e-12 -13.2911

-5.72486 -28.3171 2.72079e-12
-28.3171 -14.4723 9.42949e-13
2.72079e-12 9.42949e-13 -9.30876

-17.7897 -25.2944 3.66581e-12
-25.2944 12.0804 -6.37712e-13
3.66581e-12 -6.37712e-13 -5.93334

118.873 69.4593 -2.66217e-12
69.4593 96.2163 -9.68707e-13
-2.66217e-12 -9.68707e-13 -11.4013

29.4123 -22.9322 1.20674e-12
-22.9322 97.7938 -1.53004e-11
1.20674e-12 -1.53004e-11 -14.3403

117.956 -71.6912 -9.04758e-13
-71.6912 93.6778 -1.83083e-12
-9.04758e-13 -1.83083e-12 -12.4173

22.264 50.7363 -5.44868e-12
50.7363 73.7764 -2.71427e-12
-5.44868e-12 -2.71427e-12 -24.7777

-1.53586 -30.2116 6.75016e-14
-30.2116 -6.55198 3.07783e-12
6.75016e-14 3.07783e-12 -6.99703

-7.04535 -14.6402 3.64449e-13
-14.6402 -21.9193 1.55135e-12
3.64449e-13 1.55135e-12 -32.6151

-11.8921 11.0928 8.82909e-12
11.0928 -16.4313 2.42325e-13
8.82909e-12 2.42325e-13 -77.7969

-26.1696 -5.15996 -7.50896e-12
-5.15996 -6.38739 -1.88037e-12
-7.50896e-12 -1.88037e-12 -77.6307

-38.9405 13.0836 2.80613e-12
13.0836 13.7444 -3.93641e-12
2.80613e-12 -3.93641e-12 -10.2382

-14.4807 -10.6672 -5.5469e-12
-10.6672 -17.3188 5.61033e-14
-5.5469e-12 5.61033e-14 -78.7598

-25.9034 4.09168 -3.28626e-14
4.09168 -5.9139 4.94201e-12
-3.28626e-14 4.94201e-12 -78.9019

-3.63398 7.43438 1.00639e-11
7.43438 -27.8611 -4.13447e-13
1.00639e-11 -4.13447e-13 -77.9891

-43.9759 -12.1155 7.17537e-13
-12.1155 2.91635 -1.12585e-11
7.17537e-13 -1.12585e-11 -68.1602

11.9737 -30.4694 -1.17127e-11
-30.4694 76.1616 2.69296e-12
-1.17127e-11 2.69296e-12 -14.7008

0.522018 -12.9721 -7.20609e-13
-12.9721 -39.991 7.31267e-13
-7.20609e-13 7.31267e-13 -45.2782

-16.3488 -34.4179 -1.52027e-12
-34.4179 -22.0684 2.62072e-12
-1.52027e-12 2.62072e-12 -23.5902

-2.42048 -18.1767 -5.93806e-12
-18.1767 -29.8955 2.32407e-12
-5.93806e-12 2.32407e-12 -33.6273

12.7384 15.459 3.6664e-12
15.459 -37.7156 -3.59979e-12
3.6664e-12 -3.59979e-12 -9.62459

-46.9093 9.86444 -1.11344e-12
9.86444 8.87784 -1.30186e-11
-1.11344e-12 -1.30186e-11 -70.156

3.46279 19.2279 -9.11626e-12
19.2279 -41.4727 -4.14605e-12
-9.11626e-12 -4.14605e-12 -70.2719

1.4725 11.3061 3.72236e-12
11.3061 -23.9652 2.22948e-12
3.72236e-12 2.22948e-12 -31.8685

109.39 -15.339 6.44699e-12
-15.339 -12.5355 -7.98058e-12
6.44699e-12 -7.98058e-12 -25.0373

-14.3197 24.9636 3.55301e-12
24.9636 10.3863 7.13503e-13
3.55301e-12 7.13503e-13 -5.80385

76.6055 -61.3536 3.09323e-12
-61.3536 37.3644 -9.02389e-13
3.09323e-12 -9.02389e-13 -22.3955

76.1129 -57.4563 -2.06057e-13
-57.4563 99.2268 4.94301e-12
-2.06057e-13 4.94301e-12 -5.55556

118.194 -36.5434 6.82358e-12
-36.5434 40.6003 -4.36036e-12
6.82358e-12 -4.36036e-12 -7.37869

-51.1153 -5.15899 1.62566e-12
-5.15899 3.3409 -3.93952e-12
1.62566e-12 -3.93952e-12 -60.6622

-50.4792 2.89122 1.30873e-12
2.89122 3.13517 -1.11318e-12
1.30873e-12 -1.11318e-12 -60.1347

-11.9756 -24.4567 -3.89851e-12
-24.4567 -35.0041 1.65201e-12
-3.89851e-12 1.65201e-12 -59.1688

-8.99206 -21.761 7.82278e-12
-21.761 -37.8887 9.2785e-13
7.82278e-12 9.2785e-13 -59.4784

-14.7028 26.1364 -8.43769e-14
26.1364 -33.0284 -1.26018e-12
-8.43769e-14 -1.26018e-12 -60.7533

-18.1581 3.09975 1.04857e-11
3.09975 -13.1648 1.3151e-11
1.04857e-11 1.3151e-11 -75.4813

-9.94511 -20.5092 1.30266e-13
-20.5092 -32.6514 -1.37209e-12
1.30266e-13 -1.37209e-12 -56.739

-26.6491 -18.5685 8.37819e-12
-18.5685 -14.196 8.00815e-12
8.37819e-12 8.00815e-12 -71.2748

-15.4796 2.43473 4.08843e-12
2.43473 -12.8528 -3.81961e-12
4.08843e-12 -3.81961e-12 -77.8759

-6.0276 -20.5266 3.70955e-12
-20.5266 -41.4879 2.314e-12
3.70955e-12 2.314e-12 -60.5095

-6.7569 20.9562 9.38879e-13
20.9562 -40.1441 2.21156e-13
9.38879e-13 2.21156e-13 -60.0206

-14.3168 -3.45877 2.9643e-12
-3.45877 -11.3903 -3.33822e-12
2.9643e-12 -3.33822e-12 -76.8903

-11.2644 -3.11754 -5.27134e-13
-3.11754 -17.6897 -1.03155e-11
-5.27134e-13 -1.03155e-11 -74.053

-24.2047 12.1098 -2.20416e-12
12.1098 -13.4007 -4.30086e-12
-2.20416e-12 -4.30086e-12 -69.971

-22.0829 26.93 -5.92711e-12
26.93 -26.2672 -4.92313e-12
-5.92711e-12 -4.92313e-12 -57.5846

VECTORS fluid_flux_TPM float
-8.72044e-05 3.10228e-05 -1.80079e-21
3.55892e-06 6.88136e-06 2.47625e-21
-1.27852e-05 -1.02237e-05 8.04478e-21
-4.16987e-06 4.25328e-06 -1.91054e-20
2.27038e-05 -6.31221e-06 1.92049e-20
2.7571e-06 -1.59008e-05 -2.18242e-20
-8.57805e-05 -3.10876e-05 -4.89125e-21
-1.389e-05 -1.0465e-05 6.15424e-21
2.2118e-05 9.4536e-07 7.5549e-22
1.13821e-05 -3.90743e-06 -9.13619e-21
5.45918e-05 1.2482e-05 -6.23246e-21
2.34646e-06 -1.71911e-05 -1.15494e-20
1.36092e-05 1.12519e-05 2.11888e-20
2.66162e-06 1.37822e-05 2.49965e-20
2.05775e-05 -2.94614e-06 1.02712e-20
-1.63296e-05 -2.72853e-07 5.82804e-21
2.75305e-06 1.40964e-05 8.13452e-21
1.01801e-05 -2.39148e-06 -4.92583e-21
9.89693e-06 1.72198e-05 2.78912e-21
-1.4846e-05 1.88514e-06 -1.00153e-20
-3.60058e-06 -2.13004e-05 8.50436e-21
3.41058e-05 5.94086e-05 2.18145e-20
1.56949e-05 1.63103e-06 -9.17982e-21
1.12254e-05 -1.12796e-05 -2.64275e-20
-1.50759e-05 -3.33185e-06 -8.45101e-21
-6.77119e-07 -1.1129e-05 -1.48817e-20
6.28942e-05 -4.90776e-06 9.67087e-22
1.40637e-05 1.02472e-05 3.10744e-20
-2.51458e-05 -2.06396e-05 -1.06144e-20
4.91131e-05 -1.2812e-05 2.85545e-20
-1.65798e-05 -6.03737e-06 -1.33805e-20
5.53624e-06 -3.20322e-05 -2.82319e-20
4.76477e-05 -4.80407e-05 1.05647e-20
-4.92268e-06 -4.12421e-05 -2.97295e-20
-2.96693e-05 3.70003e-05 4.87248e-21
-3.82423e-05 -1.63929e-05 -4.0806e-21
3.26981e-05 4.32097e-05 3.38501e-20
-4.47347e-05 -8.72468e-06 4.02115e-21
1.43724e-05 -1.10802e-05 -2.49262e-20
4.64637e-05 5.01085e-05 -1.36667e-20
3.21251e-05 -1.40201e-05 3.80956e-21
3.36355e-05 -4.23378e-05 1.74308e-20
-1.98938e-05 -5.03717e-05 -4.42184e-20
-1.58957e-05 6.3559e-06 1.0458e-20
3.05213e-05 -2.93105e-05 -1.23218e-20
-3.03284e-05 1.09888e-05 -3.92597e-21
-4.04968e-06 -2.03679e-05 1.30482e-21
7.88507e-06 2.02092e-05 5.4885e-21
-1.63404e-05 5.92707e-06 1.16421e-22
-1.78176e-05 2.8722e-05 1.10837e-21
3.24045e-05 1.52889e-05 6.22093e-21
2.93614e-05 -1.00739e-05 -3.11532e-21
-1.56644e-05 1.57585e-05 -3.67799e-21
-2.35383e-05 -2.06877e-05 1.91703e-20
-2.11373e-05 -5.13183e-06 -1.49412e-20
-4.47861e-05 2.70728e-05 -1.37849e-20
-2.93685e-05 -3.80187e-05 -2.39623e-21
6.36267e-06 -3.06243e-05 -9.27138e-21
-4.77023e-05 6.48213e-06 6.67327e-21
6.07341e-06 1.36955e-05 -9.15544e-22
-5.57621e-06 -8.17257e-06 -1.17228e-20
-6.58285e-06 -1.79417e-05 -1.34121e-21
5.71381e-05 2.48571e-05 -1.04891e-22
9.24189e-06 1.81424e-05 1.571e-20
1.22953e-05 -1.44435e-05 3.581e-21
-1.64043e-06 -2.07505e-05 -8.3443e-21
4.62063e-06 -8.80467e-06 -2.10929e-20
-1.00895e-05 -5.56434e-06 -1.81802e-20
-1.06016e-05 1.19281e-05 -9.51937e-22
2.55795e-06 -4.09221e-06 -2.80949e-20
-1.5042e-05 -1.58417e-05 8.00838e-21
-2.13629e-05 5.16543e-06 5.17563e-21
-3.55651e-06 3.44781e-05 9.15537e-23
-1.78702e-05 1.07099e-05 1.50126e-21
-9.06996e-06 1.46133e-05 1.87792e-20
-6.03491e-05 7.69137e-06 1.02233e-20
7.81733e-06 -2.16795e-05 -2.6676e-23
-1.88784e-05 -8.89925e-06 -2.22741e-20
1.93353e-06 1.1623e-05 6.68661e-21
2.62986e-05 5.08918e-06 -1.57136e-20
3.41659e-05 -2.89725e-05 -1.81117e-20
2.21444e-05 2.05543e-05 2.0899e-20
1.19074e-05 -2.82207e-06 2.40956e-21
-3.21508e-05 2.40649e-05 -1.44888e-20
3.7901e-05 4.84543e-06 -1.63776e-20
-4.98044e-06 4.94102e-05 -5.11256e-21
-1.74097e-06 -1.68556e-05 4.13395e-21
1.81223e-05 9.95378e-06 6.59686e-21
2.93148e-05 3.02831e-05 -1.06029e-20
5.50199e-05 3.80101e-05 -2.40579e-20
-5.3309e-06 3.07701e-05 9.89711e-21
5.91746e-05 -3.55094e-05 -1.92279e-20
-2.71224e-05 5.34071e-06 -8.9567e-21
1.78377e-05 1.10009e-05 5.00586e-21
-2.96385e-05 9.90243e-06 6.04935e-21
1.66515e-05 2.85187e-05 -3.01338e-22
1.01679e-05 -4.43828e-05 1.17246e-20
1.9153e-06 1.16198e-05 4.26009e-21
-1.47995e-05 -1.76186e-05 -1.99773e-20
3.06962e-06 1.74732e-05 1.08339e-20
2.64046e-05 5.25703e-06 -2.03302e-20
-1.5442e-05 3.32083e-05 1.99124e-20
4.05487e-05 -1.3332e-05 -1.28427e-20
-3.77275e-06 7.45439e-06 -3.142e-21
9.95198e-06 5.89881e-06 7.32568e-21
-2.28039e-06 -1.13236e-05 -1.05816e-20
3.22038e-06 -1.92502e-05 9.11313e-21
1.74679e-05 3.89175e-06 -1.28578e-20
-7.93655e-06 4.0969e-05 -6.5338e-21
-9.80478e-06 2.47901e-07 -2.03799e-20
9.3177e-06 1.18847e-05 1.70815e-20
-2.17719e-06 -4.17103e-05 1.36018e-20
4.20193e-05 1.28639e-05 -1.76078e-21
4.42216e-06 -7.45255e-06 -2.87073e-20
-1.11442e-05 -3.55334e-06 -1.82068e-20
-2.93231e-05 -1.24849e-05 1.76078e-21
1.58024e-05 4.11437e-05 -4.9125e-21
-4.34811e-05 -1.55724e-05 -2.8535e-20
1.60172e-05 -4.11202e-05 -8.50683e-21
-3.6995e-06 -3.19174e-05 9.5327e-21
2.1837e-05 6.52108e-07 1.01851e-20
-7.17087e-06 1.8395e-05 2.47467e-20
-1.61106e-06 3.96923e-06 1.42221e-20
-3.68566e-06 -1.65373e-05 9.37989e-21
5.22953e-06 -8.30139e-06 -1.96305e-20
9.35867e-06 1.58622e-05 3.27115e-20
3.30983e-05 1.06515e-05 -1.65589e-20
8.61472e-06 -7.45739e-06 -4.72767e-20
-8.27022e-06 -4.5156e-05 2.12519e-21
2.55499e-05 -1.88182e-05 -3.40151e-21
4.97748e-06 2.77688e-05 7.25193e-22
-2.81609e-06 -2.84136e-06 -3.37846e-21
-8.62551e-06 -8.32512e-06 4.93307e-21
-4.77626e-06 4.41244e-08 2.85278e-20
-2.28706e-05 2.85916e-05 -2.36438e-20
1.87614e-05 -3.73717e-05 3.26204e-22
-2.65777e-05 4.27106e-05 -1.21939e-20
-1.63703e-05 9.5344e-06 -6.20759e-21
2.52773e-06 1.21978e-05 1.57172e-20
-2.29847e-05 -3.49862e-05 -5.17563e-21
1.39348e-05 3.34631e-05 4.71967e-21
1.75062e-05 9.36837e-06 1.579e-20
2.28094e-05 -8.52189e-06 1.34483e-21
-1.25309e-06 -1.12644e-05 -7.38875e-21
-3.39086e-05 -3.1555e-05 -1.08169e-21
-2.75124e-06 1.13023e-05 -7.70886e-21
1.72451e-05 1.01708e-05 1.29342e-20
1.88857e-05 -8.82004e-06 -1.42354e-20
8.24241e-06 -1.43435e-05 -2.84344e-20
2.43547e-05 -1.07944e-05 -6.77997e-21
1.90078e-05 -8.99704e-06 -4.97298e-23
4.64019e-06 2.05779e-07 -3.53708e-20
2.57382e-05 2.02193e-05 2.87145e-20
-2.74138e-06 -1.70283e-05 -6.92421e-22
-1.04788e-05 -4.45657e-06 1.18525e-20
1.12574e-06 -3.88971e-06 -1.50337e-22
-3.15477e-06 1.58455e-05 2.17612e-20
-3.48801e-05 2.76784e-06 4.86276e-21
-1.21204e-05 -3.32551e-05 4.08241e-21
-7.87834e-06 9.77808e-06 -1.56433e-21
1.3564e-05 1.66388e-05 2.32758e-20
2.6566e-05 -1.87429e-05 -5.39694e-21
-3.67888e-05 -2.03487e-05 1.303e-21
1.74013e-05 -2.7505e-05 -4.74453e-21
2.28017e-05 -2.7214e-05 3.70466e-21
-1.09433e-05 3.78457e-06 -4.3304e-21
-1.98271e-05 -2.88374e-05 4.25218e-21
-3.48764e-05 -5.79085e-06 -1.6015e-20
-3.85211e-06 -3.17396e-05 -7.43238e-21
1.54461e-05 -3.16961e-05 -1.96893e-20
-9.10529e-06 -2.6197e-05 -1.1017e-20
4.58074e-06 3.14024e-05 -7.43963e-22
-1.57509e-05 -2.85193e-05 2.08698e-21
2.93853e-06 -1.62907e-05 -7.30625e-21
-2.47369e-05 1.82581e-05 -1.07078e-20
-1.50293e-05 -1.211e-05 -2.46206e-20
-2.73502e-05 -5.17194e-06 -1.34338e-20
1.56666e-05 -9.18072e-06 7.50269e-21
-4.30652e-06 2.39503e-05 1.10437e-20
1.22314e-05 -9.32362e-06 -2.26561e-20
-2.9583e-05 -1.31629e-05 -6.73024e-21
-8.83084e-06 -7.45738e-06 2.10954e-20
9.08124e-06 7.54014e-06 1.49278e-20
2.14248e-05 2.86981e-05 1.76023e-20
-1.75072e-05 -1.08083e-05 -9.89892e-21
-3.25031e-05 -7.51002e-07 -2.15053e-20
-1.63352e-05 -5.01569e-06 1.42657e-20
-4.57771e-06 -1.65817e-05 3.27538e-21
1.76831e-05 2.12372e-05 5.21564e-21
-1.09563e-05 5.87421e-06 1.99724e-21
6.35977e-07 -2.05534e-05 -2.44108e-20
-4.19358e-05 1.08498e-05 2.92069e-21
2.48582e-05 2.02445e-05 1.43173e-20
3.79411e-06 3.27824e-05 4.02906e-21
-2.43175e-06 3.79685e-06 -1.19726e-20
-9.05008e-06 2.51178e-07 1.09539e-20
4.35468e-06 7.75939e-06 2.98194e-21
-1.16929e-05 3.40115e-06 8.84028e-21
-2.0732e-06 -3.78459e-06 -1.16782e-21
1.65963e-06 2.0758e-05 -1.07745e-20
4.47199e-06 4.49661e-07 6.93278e-21
-1.95363e-05 4.75621e-06 1.66389e-20
-1.72969e-05 1.93562e-05 -1.83099e-20
-3.10716e-06 1.15772e-05 1.7797e-20
-2.92143e-05 1.83926e-05 -2.14537e-20
-9.34255e-06 8.97853e-06 6.40042e-21
1.73097e-05 -1.16128e-05 -5.02069e-22
3.6601e-05 -3.56438e-06 -7.77011e-21
-2.11388e-05 1.12963e-05 6.41738e-21
2.23281e-06 4.49785e-06 -1.58664e-20
2.17734e-05 -4.34452e-06 5.03218e-22
-1.72774e-05 1.03519e-05 -1.28311e-20
-9.87091e-06 5.53854e-06 -6.83333e-21
1.18304e-05 3.74236e-06 -1.53668e-20
2.18779e-05 -1.347e-05 -1.09322e-21
-1.73785e-05 9.95523e-06 -7.58882e-21
-2.50347e-05 -5.30256e-06 -2.13488e-20
-1.67603e-05 -4.36209e-06 -5.11256e-21
9.87535e-06 6.23506e-09 -4.32992e-20
1.0173e-05 1.95345e-07 1.29973e-20
4.39038e-06 8.31644e-06 6.55685e-21
4.82913e-06 -8.79699e-06 1.53535e-20
-5.00991e-06 8.41909e-06 9.51574e-21
-5.26621e-06 -8.65684e-06 -1.28045e-20
9.91014e-06 -7.40736e-06 2.79636e-21
-2.03257e-05 3.23463e-06 4.22369e-21
-2.00581e-05 -3.28345e-06 -2.93366e-20
-1.28336e-05 1.58751e-05 -1.49715e-20
-1.29134e-05 -1.59294e-05 -2.01835e-20
7.48561e-06 -1.9842e-05 -1.77533e-20
7.20538e-06 1.97621e-05 -7.19592e-21
1.55763e-06 2.58827e-05 1.15261e-23
1.12394e-05 -3.13656e-06 -3.36234e-20
2.35969e-06 -3.86619e-06 -2.1418e-20
-2.14094e-05 1.42156e-06 2.47625e-21
7.6765e-06 -1.95113e-05 -3.13933e-20
7.27278e-06 1.96598e-05 -7.91883e-22
4.76838e-06 -5.27098e-08 -2.04163e-20
8.96735e-06 2.44009e-05 5.9578e-21
-2.24209e-06 -4.01596e-06 1.54202e-20
2.31753e-06 -1.1316e-05 -1.68147e-20
-2.24283e-05 -1.21504e-05 -1.0498e-20
-2.1356e-05 -1.14935e-05 -3.25756e-20
-2.18905e-05 1.36272e-05 -1.29245e-20
3.25094e-06 -1.22864e-05 -1.28106e-20
-1.56519e-06 3.38163e-06 -1.12801e-20
-5.87313e-07 -2.55663e-05 -4.27704e-21
-7.71945e-06 -2.44202e-05 2.5963e-21
3.27004e-05 3.03593e-05 2.08517e-21
3.54493e-05 -1.815e-06 -5.73648e-21
-1.27097e-05 -3.63178e-06 -3.95484e-20
-2.289e-05 -4.13812e-05 -2.34207e-20
8.30331e-06 1.37464e-05 -9.55558e-22
-2.52329e-05 3.03294e-06 8.27943e-21
2.00629e-05 5.78575e-06 -6.18092e-21
-4.53261e-06 -3.27394e-08 -8.7553e-22
-4.66467e-06 -8.4118e-06 -1.67713e-21
-7.0721e-06 -3.93283e-05 -1.71446e-20
-9.70724e-06 -8.39028e-08 2.62613e-20
-4.86684e-05 -1.8155e-06 -4.04421e-21
1.73067e-05 -1.91031e-05 -7.65369e-21
2.42907e-06 3.99862e-06 1.08703e-20
-1.20633e-07 -1.75116e-05 -1.14996e-20
-9.81729e-06 2.4081e-05 3.06559e-21
-4.37154e-06 8.6264e-06 1.69881e-20
2.05537e-05 -1.36044e-05 -5.5649e-21
-3.76543e-05 -1.35498e-05 2.19503e-22
-1.52639e-05 -2.03632e-05 -5.28052e-21
4.97646e-06 8.38803e-06 -3.16506e-21
1.6629e-05 5.15993e-06 1.18525e-20
-4.76328e-06 -7.33734e-06 -7.63245e-21
1.97939e-05 3.54672e-06 -3.46554e-20
1.8186e-05 -9.82447e-06 2.0142e-21
-3.4878e-07 2.7169e-05 -1.25086e-20
8.31919e-06 -1.36648e-05 -2.40373e-20
4.87968e-05 2.20027e-06 -7.13104e-21
-4.23504e-05 1.14516e-05 7.55489e-22
2.28564e-05 1.15544e-05 -1.31573e-20
-6.45192e-06 -1.71765e-05 -1.44622e-20
-1.53474e-05 -8.61673e-06 6.20759e-21
2.87827e-05 -2.10512e-07 -8.60563e-21
-6.91871e-07 -2.42509e-05 -2.31982e-21
-1.26153e-05 -1.08722e-05 -8.11147e-21
1.02221e-05 -2.34956e-05 -2.18661e-20
-4.96528e-07 2.05519e-05 -4.62021e-21
7.91631e-06 2.60632e-05 1.3352e-20
1.72649e-05 -9.88255e-06 -7.5185e-21
-1.89446e-05 1.92951e-05 -2.55477e-20
1.65248e-05 2.00259e-05 2.62098e-20
-6.22195e-05 1.60191e-05 7.10008e-21
-1.01073e-05 2.60115e-05 6.31068e-21
1.25168e-05 -1.52456e-05 -1.26286e-20
-7.02783e-06 -1.83945e-05 -1.68317e-20
-1.18514e-05 4.50486e-06 -1.37431e-20
-2.58887e-05 -7.04452e-06 -8.5941e-21
-6.38497e-06 3.88509e-05 4.74272e-21
-1.26036e-05 1.19003e-05 -1.95722e-21
2.07729e-05 -4.4748e-06 -2.9989e-21
-6.87123e-06 -2.57895e-05 2.05533e-20
-1.48661e-05 2.38866e-05 1.2648e-21
-2.1785e-05 1.25625e-05 2.49797e-22
-2.05658e-05 -1.50527e-05 1.84779e-20
1.80254e-05 -2.06513e-05 -9.11923e-21
-2.75256e-05 -1.45598e-06 -4.81303e-21
1.23648e-05 -4.08029e-05 1.0538e-20
1.93827e-05 -1.89097e-05 -7.60034e-21
2.47281e-05 4.30741e-05 -9.79403e-21
1.97076e-06 1.98629e-05 4.00057e-21
2.96054e-06 -2.54166e-05 -1.75775e-20
-4.16289e-05 4.69534e-05 2.24839e-20
-1.26998e-05 -2.44071e-05 1.25983e-20
1.63639e-05 -6.41938e-06 -2.16948e-21
-2.41048e-06 2.57676e-05 3.41666e-21
1.28807e-05 -1.18243e-05 -1.96972e-20
1.3878e-05 2.43086e-05 3.23174e-21
1.72268e-05 -1.40024e-06 -1.35866e-20
2.2116e-05 -6.32051e-05 1.27165e-20
-5.87506e-06 -1.28569e-05 -2.90807e-20
-2.31801e-05 1.00853e-05 8.22789e-21
-2.00163e-05 1.87156e-05 4.29038e-21
2.16084e-05 1.4565e-05 8.04478e-21
1.86692e-05 -1.07547e-05 -1.85525e-20
1.49493e-05 1.25912e-05 1.00651e-20
-5.42716e-06 4.55022e-08 -6.79331e-21
1.54008e-05 -2.30831e-05 -5.08227e-21
-1.69872e-05 -2.04054e-05 7.70704e-21
2.25578e-05 9.77195e-06 -2.43986e-21
1.28043e-05 -1.19876e-05 -1.55633e-20
9.55219e-06 -2.48473e-05 -1.50461e-20
1.66562e-05 -6.93164e-06 -3.9739e-21
-1.58026e-05 -7.54326e-06 -5.09312e-22
1.29661e-06 -2.62982e-05 -1.45252e-20
-2.6102e-05 4.47226e-06 1.50479e-20
2.38995e-06 2.45383e-05 -3.28016e-22
2.05812e-05 6.62627e-06 -3.33845e-21
-2.17165e-05 -1.06999e-05 3.07893e-21
-8.9756e-06 2.56054e-05 -7.82166e-22
-1.49513e-06 -2.41836e-05 4.58991e-21
1.94629e-05 1.18353e-05 1.07575e-20
-1.76865e-06 1.80815e-05 8.64383e-21
-2.01352e-05 1.37001e-05 -1.27014e-20
2.35067e-05 1.14132e-05 4.62992e-21
-1.71122e-05 -9.98386e-06 -6.3907e-21
9.5081e-08 -1.98313e-05 -1.47483e-20
1.83792e-05 1.99808e-05 9.86862e-21
-2.215e-05 -1.43011e-05 -2.94203e-20
4.83427e-05 -3.39765e-05 3.3918e-21
1.7894e-05 -1.08207e-05 -4.20673e-21
9.00033e-06 4.30799e-05 1.93001e-20
1.70313e-05 -1.36763e-05 -1.64788e-20
-1.98718e-05 8.70212e-05 -2.26785e-20
-1.97621e-05 -8.65355e-05 2.73758e-22
5.7175e-05 7.17061e-05 -2.77759e-21
5.69125e-05 -7.138e-05 9.79403e-21
9.06327e-05 -1.62329e-10 -2.42471e-21
-7.81887e-05 3.76317e-05 -1.51279e-21
-7.7443e-05 -3.72761e-05 -4.99524e-21
1.22319e-05 1.18168e-05 -3.39543e-22
2.93634e-05 2.1889e-05 7.00309e-21
1.14464e-05 3.33231e-06 7.52575e-21
1.88528e-05 9.75002e-06 4.35345e-21
4.98846e-06 2.01671e-05 -9.02206e-22
-1.8829e-05 -1.4978e-05 1.71482e-20
1.70354e-05 -1.02127e-05 -7.03587e-21
1.98496e-05 1.45471e-05 3.24508e-21
-3.16648e-06 2.43603e-05 4.22369e-21
2.94362e-05 -1.99898e-05 -1.46514e-20
3.79332e-06 -2.37363e-05 1.2049e-20
2.19576e-05 5.22628e-06 2.72933e-20
2.98914e-05 1.10243e-05 -5.51698e-21
1.42066e-05 1.41417e-05 3.24386e-20
1.58809e-05 6.59273e-06 -1.60932e-20
-1.8496e-05 1.0935e-05 -4.05392e-21
-2.25598e-05 9.0353e-06 1.42124e-21
2.29261e-05 -1.12618e-05 -1.09176e-22
-1.82652e-05 -9.99654e-06 5.51517e-21
-1.85517e-05 -1.05809e-05 2.65936e-21
-3.43813e-07 -2.07647e-05 -1.08108e-20
-8.61476e-08 -2.11577e-05 1.83109e-22
-2.01241e-05 -1.00533e-06 -1.11904e-20
2.66952e-05 -4.01859e-06 1.01863e-21
1.81094e-05 1.13405e-05 4.96585e-21
-1.78617e-05 1.09435e-05 -6.02448e-21
-1.53593e-05 1.66213e-05 -6.52046e-21
1.60198e-05 -1.37513e-05 -1.18889e-20
-1.10219e-05 1.74609e-05 -1.62096e-20
-1.42229e-05 -1.48875e-05 3.65131e-21
-1.1551e-06 2.12076e-05 -4.94279e-21
-1.28751e-06 2.09653e-05 1.60629e-20
8.97019e-08 -1.98312e-05 -2.59751e-20
6.10996e-06 -1.97346e-05 -1.08072e-20
-1.71386e-05 -9.9341e-06 -6.86e-21
1.55847e-05 -5.48953e-06 -1.16961e-20
6.63061e-07 2.14749e-05 7.91881e-22
3.00793e-07 1.8505e-05 1.39626e-20
-2.34544e-06 1.6855e-05 -8.64746e-21
2.19058e-05 -5.52667e-06 3.67799e-21
-1.65391e-05 5.37734e-06 -2.26647e-21
4.15689e-06 2.15146e-05 1.04543e-20
-3.2554e-05 1.29175e-05 1.68887e-20
9.76199e-06 4.17259e-05 -6.23427e-21
-1.70512e-05 4.56753e-06 3.07893e-21
1.96818e-05 -1.16286e-05 -6.34345e-21
9.45637e-07 2.10167e-05 1.10801e-20
-2.04785e-05 6.69854e-06 1.25316e-20
2.44377e-06 -1.62603e-05 -1.21557e-20
1.81881e-06 -5.8005e-05 -3.28509e-21
2.0062e-06 1.7484e-05 5.2387e-21
-1.69599e-05 1.40208e-05 1.30943e-20
1.78518e-05 6.39635e-05 5.69828e-21
4.57634e-05 3.7702e-05 -3.68771e-21
5.20583e-05 -3.52511e-05 -1.91515e-20
1.48136e-05 -1.01659e-05 -2.19807e-20
-1.57835e-05 1.40358e-05 -1.01851e-20
-2.02143e-05 -7.9197e-06 2.37317e-21
-1.96432e-05 -6.82155e-06 4.73301e-21
5.92596e-05 -2.46089e-05 -1.68948e-20
5.74265e-05 2.38679e-05 -2.18812e-20
1.08932e-05 3.81701e-06 7.72447e-22
7.66531e-07 1.95769e-05 2.92469e-20
7.83409e-08 1.95583e-05 1.14063e-20
-4.8377e-05 -3.6914e-05 -6.0263e-21
1.14238e-05 -1.71698e-05 -2.65075e-20
1.17319e-05 1.24631e-05 -9.01005e-21
-2.14155e-05 -3.39533e-06 8.5941e-21
-1.40433e-05 1.72e-05 -1.28711e-20
-1.88863e-05 9.16664e-06 4.73301e-21
4.76376e-05 3.36903e-05 5.71162e-21
1.58046e-05 7.06082e-06 1.44088e-20
-5.56611e-06 2.0028e-05 -3.5275e-20
-1.69761e-05 -1.17478e-05 2.21674e-21
1.85602e-06 -2.05405e-05 -1.52043e-20
-8.94869e-06 -1.9265e-05 -7.82165e-22
-1.72471e-05 -1.17721e-05 -1.46453e-20
1.05783e-05 -1.89336e-05 -3.0941e-20
1.41208e-05 -1.69874e-05 -1.47714e-20
-2.44015e-06 -6.14302e-05 2.79093e-21
2.61772e-05 -4.11209e-05 -4.5499e-21
1.74728e-06 -2.07832e-05 -1.55305e-20
1.79566e-05 1.13541e-05 4.02725e-21
-1.44747e-05 -1.49036e-05 2.8619e-22
-9.83996e-06 1.97079e-05 -2.06697e-20
-5.03886e-06 2.10043e-05 -1.37964e-20
1.66254e-05 1.42421e-05 2.02368e-20
6.05831e-06 -1.98592e-05 -1.7341e-20
-1.3405e-05 -4.03533e-05 -2.27301e-20
-1.98816e-06 2.50377e-05 -6.36765e-21
1.47902e-05 1.44535e-05 2.34722e-20
-1.29569e-05 -1.02156e-05 -6.33735e-21
-1.35135e-05 1.0607e-05 4.29286e-22
4.43379e-05 -1.89111e-05 -7.2608e-21
7.5622e-06 -1.33987e-05 -1.73374e-20
-8.31625e-06 -1.26256e-05 -1.17895e-20
2.13282e-05 6.36277e-06 -1.67117e-20
1.09931e-05 -5.06564e-05 -2.30648e-21
-3.84472e-05 -3.48991e-05 -2.26634e-20
2.33042e-05 6.20672e-06 1.15663e-20
-9.32723e-06 -1.82791e-05 -3.11532e-21
1.87036e-05 9.48176e-06 -6.36403e-21
-2.85614e-05 -3.25476e-05 -1.74229e-20
9.68712e-06 5.00414e-05 3.10077e-20
3.43304e-05 -5.98532e-05 1.0042e-20
-3.47334e-05 -5.977e-05 -6.1409e-21
2.78053e-05 -5.20166e-05 -4.18549e-21
-1.26967e-05 4.36284e-05 2.4229e-21
-6.2754e-06 3.89732e-05 1.68814e-20
-1.87287e-05 8.94491e-06 1.07975e-20
5.97655e-06 2.42396e-05 -1.43227e-20
-2.39132e-06 1.26527e-05 1.79304e-20
1.01191e-05 3.23279e-06 -9.84195e-21
-3.18813e-06 1.62038e-05 1.28786e-21
-2.47434e-07 2.09895e-05 -1.39565e-20
1.66588e-05 9.74952e-06 1.26214e-20
1.70994e-06 5.77179e-05 -1.76842e-20
-1.47156e-05 1.07315e-05 -1.26614e-20
1.59477e-05 -6.24593e-06 -4.38622e-21
1.687e-05 -4.50848e-06 -4.63114e-20
-6.06558e-05 -8.76786e-06 -1.07993e-20
-3.46019e-05 1.67396e-05 9.35321e-21
-4.35098e-05 -5.25403e-05 -2.36705e-20
8.65557e-06 8.34477e-06 6.98614e-21
1.42083e-05 7.29175e-06 5.39875e-21
2.68018e-05 -4.19541e-06 -1.31573e-20
-8.1035e-06 -1.32414e-05 -1.37734e-20
1.72147e-05 8.42769e-06 3.18298e-20
7.33452e-06 -3.00313e-05 2.25833e-20
-1.37122e-05 1.02038e-05 -1.90387e-21
-2.23719e-05 -2.14199e-05 -1.38995e-20
-5.83534e-06 1.62959e-05 1.37964e-20
-3.27064e-06 2.06763e-05 1.7381e-20
3.3846e-05 2.12941e-05 -2.9953e-22
3.61092e-05 -1.92807e-05 -2.32954e-21
-4.20656e-05 -1.16217e-05 -1.82068e-20
7.63333e-06 7.68489e-06 3.87443e-21
-4.0582e-06 0.00010135 -1.45022e-20
8.61548e-07 -0.000104456 6.4956e-21
5.24483e-05 8.76351e-05 2.94737e-21
-1.91008e-05 8.45695e-06 -1.81632e-20
-2.63737e-05 5.6543e-05 -1.66922e-21
5.30265e-05 -8.46301e-05 1.04207e-20
-1.17192e-05 -1.82803e-05 -2.65245e-20
7.79912e-05 6.74901e-05 5.82895e-21
2.39909e-05 -1.79748e-05 -1.70354e-20
-3.60703e-06 -2.98188e-05 -3.69291e-20
8.17695e-05 -6.5843e-05 -1.05228e-20
-6.74387e-06 1.45167e-05 1.42924e-20
-5.38258e-05 -3.48197e-05 -1.17646e-20
-4.30084e-05 -9.31189e-05 -2.06315e-20
-2.41099e-05 -5.77976e-05 -2.67476e-20
-4.39699e-05 9.41259e-05 -1.48799e-20
-1.00922e-05 6.40765e-05 -8.28124e-21
1.56309e-05 3.7104e-05 4.85914e-21
-2.79521e-05 3.72361e-05 -2.0292e-20
-2.52701e-05 -5.51768e-05 -3.01509e-20
0.000100354 1.7315e-05 1.05895e-20
-1.69255e-05 1.07658e-05 -1.21145e-21
-5.91168e-06 1.63311e-05 1.42257e-20
-5.07521e-05 3.76351e-05 7.11952e-21
-1.72743e-05 9.94297e-06 -6.41376e-21
9.91913e-05 -1.52616e-05 4.56595e-21
-1.53584e-05 7.7978e-06 -6.92307e-21
7.19178e-06 -1.44932e-05 -2.05594e-20
-7.79604e-05 -6.09409e-05 -1.45288e-20
-2.5876e-05 5.77105e-05 -1.71749e-20
-7.91133e-05 6.03683e-05 -3.05226e-21
2.45373e-05 5.19443e-05 -1.25146e-21
-1.47659e-05 1.05812e-05 7.69552e-21
-2.05275e-05 2.44737e-05 1.59234e-20
-2.85294e-05 4.98121e-05 2.26197e-20
-5.67694e-05 2.07963e-07 2.04087e-21
-9.44006e-07 1.62942e-05 -3.92779e-21
-2.88463e-05 -5.04006e-05 1.96414e-20
-5.81916e-05 -2.19772e-07 2.37148e-20
-2.83462e-05 4.86906e-05 1.18258e-20
-1.51885e-05 6.62584e-05 2.32054e-20
-1.78628e-05 4.12557e-05 -7.82528e-21
-3.38963e-05 2.71342e-05 8.72386e-21
2.43801e-05 -6.05625e-06 -1.17822e-20
3.79983e-05 -2.19506e-06 -1.49145e-20
1.34808e-05 8.19936e-06 -3.8611e-21
-1.04679e-05 -7.3979e-05 1.80441e-21
-6.94409e-05 -2.7971e-05 -7.28929e-21
3.71279e-05 7.32656e-07 7.28928e-21
5.83594e-05 -1.08909e-05 1.34338e-20
-1.05825e-05 -1.34955e-05 -1.61963e-20
-5.08229e-05 3.76209e-05 5.20231e-21
-4.61283e-05 5.39937e-05 -6.81999e-21
6.23554e-05 -2.22299e-05 -4.36679e-21
-2.81741e-05 -5.04912e-05 -1.95044e-20
-2.87737e-05 4.97737e-05 5.14373e-20
-5.72478e-05 -1.17102e-06 -2.71696e-20
-2.65703e-05 5.05919e-05 1.3024e-20
-5.79464e-05 -8.1692e-07 1.0481e-20
6.60685e-05 1.73904e-05 -1.4735e-20
5.63737e-05 1.29234e-06 -2.60916e-20
5.08942e-05 -2.92705e-05 -2.08723e-20
2.49073e-05 -5.94203e-05 -1.85258e-20
2.9915e-05 -4.88511e-05 -1.44416e-20
2.9164e-05 4.86751e-05 -3.89273e-22
2.43422e-05 5.80827e-05 -1.90787e-20
7.57936e-05 -2.00352e-05 2.66409e-20
4.6261e-05 2.90599e-05 -7.88835e-21
4.66189e-05 1.37439e-05 2.88176e-20
TENSORS solid_stress_TPM float
375.027 -24.9202 -9.4739e-15
-24.9202 238.567 1.7882e-12
-9.4739e-15 1.7882e-12 197.814

456.996 -21.3201 -1.11829e-12
-21.3201 489.98 5.24617e-13
-1.11829e-12 5.24617e-13 487.103

454.871 28.0428 -5.99639e-12
28.0428 463.701 -5.17512e-13
-5.99639e-12 -5.17512e-13 458.451

455.021 -29.8427 3.68831e-12
-29.8427 482.601 1.61974e-12
3.68831e-12 1.61974e-12 484.85

527.681 19.931 -6.63765e-13
19.931 548.451 -5.59848e-13
-6.63765e-13 -5.59848e-13 527.352

437.304 -18.0741 2.80812e-13
-18.0741 480.331 -2.3744e-13
2.80812e-13 -2.3744e-13 458.032

372.322 26.4843 1.96583e-12
26.4843 239.087 -2.67046e-12
1.96583e-12 -2.67046e-12 197.799

473.645 29.9576 4.25734e-13
29.9576 469.494 1.27246e-12
4.25734e-13 1.27246e-12 472.33

471.54 5.48305 -5.18696e-13
5.48305 417.815 -2.15842e-12
-5.18696e-13 -2.15842e-12 432.788

504.251 -7.47756 -3.63561e-13
-7.47756 444.104 -1.04146e-12
-3.63561e-13 -1.04146e-12 483.445

360.287 16.3082 1.80004e-12
16.3082 247.652 2.53782e-12
1.80004e-12 2.53782e-12 233.641

444.775 -13.453 1.91328e-12
-13.453 498.377 -3.09619e-12
1.91328e-12 -3.09619e-12 472.232

466.86 27.8328 1.6982e-12
27.8328 468.294 1.7728e-12
1.6982e-12 1.7728e-12 466.727

457.03 -14.3399 1.13132e-12
-14.3399 500.426 -8.941e-14
1.13132e-12 -8.941e-14 483.45

512.931 33.3116 -2.78888e-13
33.3116 511.59 4.80537e-13
-2.78888e-13 4.80537e-13 515.219

489.164 0.560954 2.02801e-12
0.560954 435.515 2.30099e-12
2.02801e-12 2.30099e-12 462.264

457.576 -17.9692 2.60324e-12
-17.9692 512.879 -2.32288e-12
2.60324e-12 -2.32288e-12 493.59

493.949 -2.6652 -3.4787e-13
-2.6652 439.041 -5.1988e-13
-3.4787e-13 -5.1988e-13 474.256

418.785 26.6732 3.15895e-13
26.6732 449.651 -2.01261e-12
3.15895e-13 -2.01261e-12 424.045

481.973 -4.19549 -2.8777e-13
-4.19549 424.914 -2.32925e-13
-2.8777e-13 -2.32925e-13 453.467

425.289 8.66839 6.56364e-13
8.66839 481.894 -7.96992e-13
6.56364e-13 -7.96992e-13 444.833

634.128 6.2879 -1.49241e-11
6.2879 633.962 -7.91441e-12
-1.49241e-11 -7.91441e-12 570.313

479.144 1.87595 -1.03798e-12
1.87595 422.933 -2.53975e-12
-1.03798e-12 -2.53975e-12 449.724

447.154 -27.7146 -4.35503e-13
-27.7146 461.142 4.62504e-12
-4.35503e-13 4.62504e-12 452.94

481.04 6.84927 -1.10193e-12
6.84927 425.433 -4.11375e-13
-1.10193e-12 -4.11375e-13 452.93

449.751 19.1127 2.54189e-12
19.1127 490.309 -1.42434e-12
2.54189e-12 -1.42434e-12 478.198

377.647 4.18128 6.39252e-12
4.18128 291.649 -1.26151e-12
6.39252e-12 -1.26151e-12 258.997

462.677 30.7454 2.24354e-12
30.7454 460.707 -3.71259e-13
2.24354e-12 -3.71259e-13 460.537

384.933 37.0735 -3.58824e-12
37.0735 383.513 9.84102e-13
-3.58824e-12 9.84102e-13 348.412

586.939 10.3235 -3.3736e-12
10.3235 563.447 2.02394e-13
-3.3736e-12 2.02394e-13 546.867

491.679 14.2168 1.55786e-12
14.2168 442.49 -3.00782e-12
1.55786e-12 -3.00782e-12 465.848

352.849 -17.7799 -7.31267e-13
-17.7799 416.715 4.43971e-12
-7.31267e-13 4.43971e-12 348.583

331.012 -42.1008 5.43091e-12
-42.1008 335.867 -7.88702e-13
5.43091e-12 -7.88702e-13 253.478

531.405 5.98694 1.55919e-12
5.98694 586.885 3.62199e-12
1.55919e-12 3.62199e-12 538.577

554.019 -4.84096 1.03206e-12
-4.84096 582.067 2.04251e-12
1.03206e-12 2.04251e-12 542.507

577.983 21.0279 -5.74355e-13
21.0279 539.942 -5.35305e-12
-5.74355e-13 -5.35305e-12 538.345

556.18 5.06777 -5.54756e-12
5.06777 600.671 -1.26595e-12
-5.54756e-12 -1.26595e-12 547.964

573.77 -9.16983 5.79655e-12
-9.16983 555.76 -2.9249e-12
5.79655e-12 -2.9249e-12 540.632

467.119 -27.9977 -4.40892e-12
-27.9977 466.483 2.46203e-12
-4.40892e-12 2.46203e-12 465.099

330.396 41.5201 -8.18072e-12
41.5201 337.965 -8.47441e-12
-8.18072e-12 -8.47441e-12 253.836

414.517 -17.9486 -2.49282e-12
-17.9486 354.481 8.13335e-12
-2.49282e-12 8.13335e-12 346.313

559.302 -3.70629 1.63869e-12
-3.70629 599.92 -3.57077e-12
1.63869e-12 -3.57077e-12 548.378

586.409 19.5559 2.93099e-14
19.5559 572.451 1.32427e-12
2.93099e-14 1.32427e-12 548.167

490.883 -12.2732 -2.55203e-13
-12.2732 442.844 2.41274e-12
-2.55203e-13 2.41274e-12 466.52

341.701 -43.298 2.28203e-12
-43.298 345.329 6.3712e-12
2.28203e-12 6.3712e-12 288.97

417.543 -18.0629 -4.10931e-13
-18.0629 357.098 -5.33914e-12
-4.10931e-13 -5.33914e-12 351.487

412.997 17.0853 -4.11982e-12
17.0853 464.765 1.87998e-12
-4.11982e-12 1.87998e-12 428.711

429.613 19.3385 -3.63561e-12
19.3385 466.495 1.01963e-12
-3.63561e-12 1.01963e-12 437.064

486.763 -16.3008 1.91254e-12
-16.3008 432.859 1.51242e-12
1.91254e-12 1.51242e-12 458.661

355.567 -34.1845 1.98182e-12
-34.1845 389.386 8.33703e-13
1.98182e-12 8.33703e-13 332.554

410.235 19.1813 1.22569e-12
19.1813 350.687 8.95284e-13
1.22569e-12 8.95284e-13 339.463

425.184 -25.2877 1.50753e-12
-25.2877 383.805 8.55612e-14
1.50753e-12 8.55612e-14 373.061

519.908 19.486 1.28534e-12
19.486 547.518 2.8478e-12
1.28534e-12 2.8478e-12 525.718

416.396 29.6485 3.48758e-12
29.6485 393.87 1.80715e-12
3.48758e-12 1.80715e-12 373.925

522.162 -21.8128 -3.83397e-13
-21.8128 541.385 -5.40754e-12
-3.83397e-13 -5.40754e-12 524.364

364.057 -42.7101 7.29491e-13
-42.7101 343.269 5.04485e-13
7.29491e-13 5.04485e-13 289.688

553.441 5.45998 3.84862e-12
5.45998 583.86 1.9306e-12
3.84862e-12 1.9306e-12 542.881

373.702 -5.32963 -4.19842e-12
-5.32963 436.646 -1.28371e-12
-4.19842e-12 -1.28371e-12 373.81

580.808 10.3842 2.18729e-12
10.3842 556.16 1.1708e-12
2.18729e-12 1.1708e-12 542.638

435.041 21.4126 -3.50446e-12
21.4126 473.745 -1.93149e-12
-3.50446e-12 -1.93149e-12 454.656

513.558 5.75376 2.54226e-12
5.75376 452.792 -1.71566e-13
2.54226e-12 -1.71566e-13 494.851

522.445 11.4589 2.29046e-12
11.4589 487.849 5.7172e-12
2.29046e-12 5.7172e-12 507.065

383.692 31.8192 3.94588e-12
31.8192 315.183 -5.27341e-12
3.94588e-12 -5.27341e-12 269.861

482.075 -6.03501 -7.22977e-13
-6.03501 528.167 -3.11751e-12
-7.22977e-13 -3.11751e-12 504.088

487.083 9.5196 -7.92107e-13
9.5196 523.677 -1.22628e-12
-7.92107e-13 -1.22628e-12 507.483

456.446 -2.88069 -9.04129e-13
-2.88069 520.144 4.73695e-15
-9.04129e-13 4.73695e-15 487.794

464.441 23.4021 2.31359e-12
23.4021 503.456 -3.00885e-12
2.31359e-12 -3.00885e-12 495.428

496.733 8.46339 -1.6606e-12
8.46339 444.385 -2.1602e-12
-1.6606e-12 -2.1602e-12 477.685

445.493 -28.2387 2.20712e-12
-28.2387 459.514 1.4803e-13
2.20712e-12 1.4803e-13 451.154

501.668 -1.71119 9.97276e-13
-1.71119 444.903 1.48711e-12
9.97276e-13 1.48711e-12 489.055

519.521 -19.262 2.54611e-12
-19.262 546.811 4.47287e-12
2.54611e-12 4.47287e-12 525.451

523.292 21.3078 1.46579e-12
21.3078 542.909 9.72972e-13
1.46579e-12 9.72972e-13 525.254

353.399 -16.5829 1.99796e-12
-16.5829 415.723 -9.00021e-13
1.99796e-12 -9.00021e-13 346.102

506.008 -27.9359 3.4935e-13
-27.9359 485.298 2.32555e-12
3.4935e-13 2.32555e-12 493.868

449.707 -25.1342 -2.28351e-12
-25.1342 471.206 1.73668e-12
-2.28351e-12 1.73668e-12 458.564

357.86 -31.7098 1.89952e-12
-31.7098 285.668 2.6894e-12
1.89952e-12 2.6894e-12 249.851

498.489 3.22255 2.4909e-12
3.22255 541.393 2.76638e-12
2.4909e-12 2.76638e-12 513.631

501.714 28.9436 -1.52589e-12
28.9436 474.537 -3.43636e-12
-1.52589e-12 -3.43636e-12 487.645

448.432 19.664 -2.16316e-12
19.664 492.095 1.72514e-12
-2.16316e-12 1.72514e-12 477.63

440.179 7.99931 -5.20354e-12
7.99931 373.027 1.04539e-12
-5.20354e-12 1.04539e-12 382.923

386.44 -33.9346 -5.15617e-12
-33.9346 360.196 -1.18897e-12
-5.15617e-12 -1.18897e-12 319.426

537.711 -10.5876 -3.14622e-12
-10.5876 556.128 3.64005e-12
-3.14622e-12 3.64005e-12 531.239

482.645 23.8994 5.20769e-13
23.8994 504.548 1.68009e-12
5.20769e-13 1.68009e-12 502.031

385.36 -32.3829 -8.66862e-13
-32.3829 345.297 -1.9457e-12
-8.66862e-13 -1.9457e-12 317.072

422.185 10.7908 -4.86722e-13
10.7908 363.84 -4.34734e-12
-4.86722e-13 -4.34734e-12 350.243

307.643 -21.2054 2.45581e-12
-21.2054 388.432 1.77873e-12
2.45581e-12 1.77873e-12 288.107

434.433 14.4254 1.42086e-12
14.4254 488.656 1.92557e-12
1.42086e-12 1.92557e-12 460.872

509.709 23.1426 -1.94689e-12
23.1426 475.16 -3.56959e-12
-1.94689e-12 -3.56959e-12 489.935

338.232 42.1975 2.6219e-12
42.1975 349.562 9.05587e-12
2.6219e-12 9.05587e-12 288.943

634.213 16.5073 -5.34743e-12
16.5073 603.065 4.22255e-12
-5.34743e-12 4.22255e-12 565.318

372.878 -4.10823 -1.21088e-13
-4.10823 436.805 -1.40451e-12
-1.21088e-13 -1.40451e-12 373.417

637.119 -16.6325 -8.80288e-12
-16.6325 599.535 -2.64574e-12
-8.80288e-12 -2.64574e-12 564.825

533.929 -27.335 1.24641e-12
-27.335 507.228 3.62569e-12
1.24641e-12 3.62569e-12 515.704

505.285 27.4244 -7.36004e-13
27.4244 466.323 -1.75978e-12
-7.36004e-13 -1.75978e-12 485.061

426.914 -24.4099 -1.19963e-12
-24.4099 386.228 -4.44089e-12
-1.19963e-12 -4.44089e-12 375.968

358.927 31.3223 -1.12443e-12
31.3223 395.993 -4.01457e-13
-1.12443e-12 -4.01457e-13 339.191

339.816 -10.7048 -3.35199e-12
-10.7048 408.38 -1.3145e-12
-3.35199e-12 -1.3145e-12 319.097

453.092 21.9706 -2.3701e-12
21.9706 494.667 1.79442e-12
-2.3701e-12 1.79442e-12 483.157

533.103 16.7939 5.31308e-12
16.7939 506.189 -4.20552e-12
5.31308e-12 -4.20552e-12 513.343

443.442 15.1536 -3.6029e-12
15.1536 488.428 -1.39207e-12
-3.6029e-12 -1.39207e-12 464.272

451.469 15.9534 -3.87009e-12
15.9534 400.527 2.60754e-12
-3.87009e-12 2.60754e-12 403.737

374.479 -21.4719 -1.90425e-12
-21.4719 419.856 -4.54747e-12
-1.90425e-12 -4.54747e-12 357.188

389.713 -29.3898 -5.4546e-12
-29.3898 342.361 4.47405e-12
-5.4546e-12 4.47405e-12 314.383

454.954 -24.5727 -1.04701e-12
-24.5727 480.054 -2.60029e-12
-1.04701e-12 -2.60029e-12 478.36

466.416 27.4506 -9.42357e-13
27.4506 478.733 -2.21956e-12
-9.42357e-13 -2.21956e-12 479.799

452.206 23.1875 -1.17328e-12
23.1875 492.548 1.35625e-12
-1.17328e-12 1.35625e-12 482.033

466.287 13.1692 -1.23029e-12
13.1692 529.767 1.77695e-12
-1.23029e-12 1.77695e-12 501.374

490.85 9.37216 3.27619e-12
9.37216 437.879 2.70095e-12
3.27619e-12 2.70095e-12 462.045

327.704 -4.66494 -2.00314e-12
-4.66494 403.371 1.22924e-12
-2.00314e-12 1.22924e-12 314.404

462.568 -36.8335 6.51331e-13
-36.8335 487.68 1.73328e-12
6.51331e-13 1.73328e-12 492.738

445.839 27.4647 -4.2452e-12
27.4647 463.259 2.70539e-12
-4.2452e-12 2.70539e-12 455.004

305.665 2.17029 -1.62959e-12
2.17029 393.351 3.61666e-12
-1.62959e-12 3.61666e-12 297.248

385.988 34.6094 1.6603e-12
34.6094 332.44 -8.49099e-13
1.6603e-12 -8.49099e-13 306.238

453.34 -22.9735 5.14699e-13
-22.9735 480.059 -4.42254e-12
5.14699e-13 -4.42254e-12 476.162

501.383 5.73297 -1.34974e-12
5.73297 441.305 -2.52694e-12
-1.34974e-12 -2.52694e-12 481

422.371 27.2032 5.36697e-12
27.2032 389.758 -1.6757e-12
5.36697e-12 -1.6757e-12 374.225

570.536 12.7456 -6.83631e-12
12.7456 565.912 -2.65417e-12
-6.83631e-12 -2.65417e-12 542.909

396.169 24.3298 -4.16378e-12
24.3298 349.64 -1.78405e-12
-4.16378e-12 -1.78405e-12 319.036

569.158 -13.0552 7.01646e-12
-13.0552 565.823 -4.08266e-13
7.01646e-12 -4.08266e-13 542.365

375.083 0.778507 -2.75483e-13
0.778507 438.859 1.46372e-12
-2.75483e-13 1.46372e-12 374.632

461.46 -2.23525 2.77112e-13
-2.23525 399.294 2.62261e-12
2.77112e-13 2.62261e-12 417.272

538.188 -15.7682 2.84128e-12
-15.7682 480.622 -2.99849e-12
2.84128e-12 -2.99849e-12 513.469

457.235 24.3881 -2.40719e-12
24.3881 487.774 3.24333e-12
-2.40719e-12 3.24333e-12 488.344

461.246 -13.5349 -4.35291e-12
-13.5349 519.126 -1.89241e-12
-4.35291e-12 -1.89241e-12 495.705

514.959 -8.00006 -1.93504e-12
-8.00006 438.181 5.45549e-12
-1.93504e-12 5.45549e-12 494.267

488.307 -22.2843 -1.76629e-12
-22.2843 541.595 4.0649e-12
-1.76629e-12 4.0649e-12 515.742

556.045 -6.59625 -5.7104e-12
-6.59625 560.388 -2.28351e-12
-5.7104e-12 -2.28351e-12 538.722

463.856 -29.9081 -1.31184e-12
-29.9081 483.186 -4.20049e-12
-1.31184e-12 -4.20049e-12 483.59

341.699 11.4533 3.63472e-12
11.4533 406.184 1.57504e-12
3.63472e-12 1.57504e-12 319.475

422.471 -28.1456 -1.44714e-12
-28.1456 391.233 -6.02955e-12
-1.44714e-12 -6.02955e-12 375.138

507.375 -13.7724 3.63398e-12
-13.7724 558.741 1.27039e-12
3.63398e-12 1.27039e-12 525.244

501.046 0.504355 1.2886e-12
0.504355 441.27 -1.62959e-12
1.2886e-12 -1.62959e-12 487.077

476.933 -21.5246 -3.1477e-12
-21.5246 507.412 -4.94479e-12
-3.1477e-12 -4.94479e-12 501.496

459.087 25.6976 4.8687e-13
25.6976 484.591 5.43787e-13
4.8687e-13 5.43787e-13 487.972

394.421 -31.4634 2.51887e-12
-31.4634 400.59 2.78414e-12
2.51887e-12 2.78414e-12 357.513

552.121 -7.08533 -2.76845e-12
-7.08533 585.29 4.65642e-12
-2.76845e-12 4.65642e-12 542.596

347.202 -33.0758 3.37626e-12
-33.0758 382.598 -8.83441e-13
3.37626e-12 -8.83441e-13 303.428

490.86 -19.1793 5.86198e-13
-19.1793 448.378 3.53791e-13
5.86198e-13 3.53791e-13 467.115

519.699 1.97013 -6.69687e-13
1.97013 466.805 1.17536e-12
-6.69687e-13 1.17536e-12 502.823

570.553 17.8752 1.61648e-13
17.8752 566.475 -1.11052e-12
1.61648e-13 -1.11052e-12 542.368

375.282 20.1822 -2.88836e-12
20.1822 424.022 -2.40045e-12
-2.88836e-12 -2.40045e-12 360.212

489.072 27.2101 1.21325e-12
27.2101 468.53 5.86198e-14
1.21325e-12 5.86198e-14 476.63

454.369 -24.5109 5.77316e-12
-24.5109 415.333 -3.45768e-12
5.77316e-12 -3.45768e-12 418.593

454.709 -17.8384 -2.21782e-12
-17.8384 494.896 2.11919e-12
-2.21782e-12 2.11919e-12 482.632

379.19 35.0671 -2.15887e-12
35.0671 366.022 2.58993e-12
-2.15887e-12 2.58993e-12 317.041

449.142 -21.8309 3.6963e-12
-21.8309 491.694 7.78044e-13
3.6963e-12 7.78044e-13 479.763

485.481 30.85 1.03443e-12
30.85 465.126 4.18628e-13
1.03443e-12 4.18628e-13 473.436

480.312 -25.2436 -5.43388e-12
-25.2436 442.357 4.4705e-14
-5.43388e-12 4.4705e-14 455.432

448.208 -25.1258 -8.5872e-12
-25.1258 469.756 -1.88353e-12
-8.5872e-12 -1.88353e-12 458.086

445.334 -18.6875 5.13959e-12
-18.6875 393.451 -6.69094e-14
5.13959e-12 -6.69094e-14 397.248

470.642 -18.8491 -1.6532e-12
-18.8491 422.843 3.22705e-14
-1.6532e-12 3.22705e-14 437.521

458.988 -25.3369 -1.29881e-12
-25.3369 485.417 -2.25586e-12
-1.29881e-12 -2.25586e-12 488.815

386.532 35.9682 -2.92744e-12
35.9682 381.978 9.76996e-13
-2.92744e-12 9.76996e-13 348.107

444.484 15.3764 1.73387e-12
15.3764 491.52 3.16784e-13
1.73387e-12 3.16784e-13 467.128

469.385 26.4218 -4.45569e-13
26.4218 479.946 3.78186e-12
-4.45569e-13 3.78186e-12 482.535

456.131 25.4736 -2.83126e-12
25.4736 486.634 -2.57305e-12
-2.83126e-12 -2.57305e-12 487.235

457.796 11.6212 2.5734e-12
11.6212 506.928 1.36187e-14
2.5734e-12 1.36187e-14 486.004

431.939 -8.22672 2.13637e-12
-8.22672 370.745 2.60221e-12
2.13637e-12 2.60221e-12 363.297

376.769 18.6058 6.21725e-13
18.6058 427.253 -4.19931e-12
6.21725e-13 -4.19931e-12 363.873

452.3 -24.3801 4.94419e-13
-24.3801 478.373 -1.14989e-12
4.94419e-13 -1.14989e-12 470.699

440.734 25.6652 -5.29591e-12
25.6652 455.628 -5.33499e-13
-5.29591e-12 -5.33499e-13 437.793

390.944 -35.6281 -3.11455e-13
-35.6281 380.266 -1.55668e-12
-3.11455e-13 -1.55668e-12 350.081

368.93 38.3153 -3.49232e-12
38.3153 327.243 -1.38793e-12
-3.49232e-12 -1.38793e-12 295.673

363.636 -33.3099 -1.62596e-12
-33.3099 394.423 1.35003e-13
-1.62596e-12 1.35003e-13 341.969

397.918 -31.1585 -7.40149e-13
-31.1585 404.18 -2.1115e-12
-7.40149e-13 -2.1115e-12 362.962

502.843 -6.83866 1.30592e-12
-6.83866 442.237 1.95399e-13
1.30592e-12 1.95399e-13 482.305

393.152 30.3407 2.15531e-12
30.3407 408.966 -6.15093e-12
2.15531e-12 -6.15093e-12 363.422

429.688 13.2942 -5.56592e-14
13.2942 372.235 3.59653e-12
-5.56592e-14 3.59653e-12 362.702

350.133 13.3783 3.25251e-12
13.3783 418.5 6.987e-14
3.25251e-12 6.987e-14 348.463

379.467 -22.3395 1.95044e-12
-22.3395 423.499 1.35714e-12
1.95044e-12 1.35714e-12 363.436

491.196 -1.09142 6.03761e-12
-1.09142 550.866 -3.1027e-13
6.03761e-12 -3.1027e-13 516.294

372.852 2.24652 -1.86547e-12
2.24652 437.773 -7.31859e-13
-1.86547e-12 -7.31859e-13 373.508

357.878 31.0881 -3.4562e-12
31.0881 399.473 -2.5319e-12
-3.4562e-12 -2.5319e-12 341.949

457.978 12.1076 1.76762e-12
12.1076 510.548 -8.60349e-13
1.76762e-12 -8.60349e-13 488.39

421.439 -27.6466 9.21337e-13
-27.6466 389.059 -3.64212e-12
9.21337e-13 -3.64212e-12 375.06

524.744 20.5569 3.93433e-12
20.5569 469.737 4.06282e-12
3.93433e-12 4.06282e-12 500.723

534.914 26.2704 -1.71537e-12
26.2704 506.848 -9.41321e-13
-1.71537e-12 -9.41321e-13 516.082

494.803 -18.5672 5.45282e-12
-18.5672 449.013 6.4541e-13
5.45282e-12 6.4541e-13 470.843

554.574 -1.80091 6.16174e-12
-1.80091 516.012 -5.86198e-14
6.16174e-12 -5.86198e-14 525.706

473.274 -31.8115 3.67439e-12
-31.8115 475.684 5.8975e-13
3.67439e-12 5.8975e-13 478.565

412.584 23.3269 1.57622e-12
23.3269 357.185 -9.18376e-13
1.57622e-12 -9.18376e-13 348.08

464.163 30.162 1.04539e-12
30.162 482.755 -8.11499e-13
1.04539e-12 -8.11499e-13 483.191

464.426 29.2057 1.5928e-12
29.2057 482.228 -2.14081e-12
1.5928e-12 -2.14081e-12 482.752

393.934 30.6598 6.56068e-13
30.6598 405.711 -5.21775e-12
6.56068e-13 -5.21775e-12 360.857

502.842 27.0847 -2.71605e-12
27.0847 482.654 -4.59188e-13
-2.71605e-12 -4.59188e-13 490.722

415.338 3.52503 1.64254e-12
3.52503 339.006 2.60547e-12
1.64254e-12 2.60547e-12 340.814

493.11 31.8172 -2.10617e-12
31.8172 487.211 3.00796e-13
-2.10617e-12 3.00796e-13 495.562

476.315 -12.5997 1.8711e-12
-12.5997 522.439 -2.359e-12
1.8711e-12 -2.359e-12 500.236

536.915 24.2783 8.98837e-13
24.2783 507.391 5.87264e-12
8.98837e-13 5.87264e-12 516.619

468.164 -29.5786 3.07487e-12
-29.5786 479.957 -3.05918e-12
3.07487e-12 -3.05918e-12 483.049

464.549 -4.89814 -2.45154e-12
-4.89814 521.543 -1.54661e-12
-2.45154e-12 -1.54661e-12 490.967

400.927 -24.5555 -2.55559e-12
-24.5555 349.013 -8.61533e-13
-2.55559e-12 -8.61533e-13 323.94

418.954 29.6921 -1.44122e-12
29.6921 392.452 3.52074e-12
-1.44122e-12 3.52074e-12 373.758

352.334 14.696 1.10963e-12
14.696 417.199 -9.33179e-13
1.10963e-12 -9.33179e-13 348.229

500.516 -1.13884 -7.10691e-13
-1.13884 442.782 1.37298e-12
-7.10691e-13 1.37298e-12 487.696

492.458 0.00223676 7.99065e-13
0.00223676 438.09 2.30892e-12
7.99065e-13 2.30892e-12 474.407

452.953 23.1236 2.86586e-13
23.1236 479.694 -7.1528e-13
2.86586e-13 -7.1528e-13 475.574

481.292 23.8708 -4.15727e-12
23.8708 502.862 1.00227e-12
-4.15727e-12 1.00227e-12 501.242

456.575 -24.3807 4.15266e-12
-24.3807 487.34 -5.13663e-14
4.15266e-12 -5.13663e-14 488.486

457.826 -0.672667 -4.9733e-12
-0.672667 517.93 -2.28143e-12
-4.9733e-12 -2.28143e-12 486.389

458.873 25.5903 2.59555e-12
25.5903 486.457 2.34161e-12
2.59555e-12 2.34161e-12 488.508

465.549 -10.3077 -8.57388e-13
-10.3077 408.075 -3.55271e-14
-8.57388e-13 -3.55271e-14 427.214

400.856 -32.8325 5.53572e-12
-32.8325 414.947 -5.44809e-12
5.53572e-12 -5.44809e-12 385.158

518.089 -2.30054 -1.96569e-12
-2.30054 465.731 4.50395e-12
-1.96569e-12 4.50395e-12 500.92

391.864 -34.5072 1.58451e-12
-34.5072 379.599 -1.7953e-12
1.58451e-12 -1.7953e-12 347.411

477.994 19.0861 3.72502e-12
19.0861 509.194 -2.5017e-12
3.72502e-12 -2.5017e-12 501.839

506.106 -26.4786 3.26376e-12
-26.4786 470.241 4.33609e-12
3.26376e-12 4.33609e-12 487.267

424.993 -9.68996 -3.56456e-13
-9.68996 366.724 1.79471e-12
-3.56456e-13 1.79471e-12 355.975

530.261 -23.1918 -3.99384e-12
-23.1918 488.752 2.48127e-12
-3.99384e-12 2.48127e-12 506.484

500.885 2.35825 -3.20529e-12
2.35825 444.57 -3.64013e-12
-3.20529e-12 -3.64013e-12 489.199

521.186 -23.3212 7.25346e-13
-23.3212 501.837 2.24413e-12
7.25346e-13 2.24413e-12 508.529

502.01 -25.8593 9.53312e-14
-25.8593 461.486 -4.75886e-12
9.53312e-14 -4.75886e-12 481.238

498.821 -8.54595 2.17722e-12
-8.54595 445.13 2.46825e-12
2.17722e-12 2.46825e-12 479.338

482.214 -23.068 -7.6709e-13
-23.068 504.987 -6.45077e-13
-7.6709e-13 -6.45077e-13 502.53

428.533 -31.3411 -4.53563e-13
-31.3411 410.582 -7.73011e-12
-4.53563e-13 -7.73011e-12 398.991

503.262 -24.5869 -2.84572e-12
-24.5869 464.708 -1.04302e-12
-2.84572e-12 -1.04302e-12 482.154

441.234 10.8642 -2.75217e-12
10.8642 378.475 2.71013e-12
-2.75217e-12 2.71013e-12 387.792

500.032 26.34 5.54519e-13
26.34 498.579 -2.7461e-12
5.54519e-13 -2.7461e-12 500.1

463.743 -37.6132 1.95991e-13
-37.6132 488.383 -1.45465e-12
1.95991e-13 -1.45465e-12 494.077

464.852 37.2654 2.97333e-12
37.2654 487.295 1.09438e-12
2.97333e-12 1.09438e-12 493.792

446.32 -28.5735 5.35868e-13
-28.5735 500.009 3.24481e-13
5.35868e-13 3.24481e-13 492.306

448.555 27.0642 -3.18886e-12
27.0642 500.7 -5.32078e-12
-3.18886e-12 -5.32078e-12 492.493

513.064 -8.52772 -1.23294e-12
-8.52772 436.399 3.19715e-12
-1.23294e-12 3.19715e-12 492.754

511.226 9.27374 1.34574e-12
9.27374 437.996 -3.16488e-13
1.34574e-12 -3.16488e-13 492.391

501.65 -9.84602 -1.41043e-12
-9.84602 451.736 -2.07834e-12
-1.41043e-12 -2.07834e-12 483.015

510.86 32.1165 -6.51035e-13
32.1165 510.385 4.18304e-13
-6.51035e-13 4.18304e-13 514.05

509.636 -32.8545 2.63611e-12
-32.8545 510.063 -2.48875e-12
2.63611e-12 -2.48875e-12 513.689

481.805 16.0686 -1.72455e-13
16.0686 539.127 2.51147e-12
-1.72455e-13 2.51147e-12 514.322

482.998 -15.801 2.18048e-13
-15.801 538.717 1.40747e-12
2.18048e-13 1.40747e-12 514.343

556.866 -3.74738 4.91503e-12
-3.74738 506.828 5.66539e-12
4.91503e-12 5.66539e-12 524.988

558.42 3.61016 -1.24508e-12
3.61016 505.153 6.4911e-12
-1.24508e-12 6.4911e-12 525.36

387.302 9.83664 -3.57499e-12
9.83664 449.189 -4.07378e-13
-3.57499e-12 -4.07378e-13 397.08

472.381 -24.7738 2.88895e-12
-24.7738 480.747 4.08784e-12
2.88895e-12 4.08784e-12 484.97

443.453 -36.3877 -1.71248e-12
-36.3877 485.525 1.16559e-12
-1.71248e-12 1.16559e-12 486.621

473.633 -4.66422 -8.62125e-13
-4.66422 420.429 1.21355e-12
-8.62125e-13 1.21355e-12 436.331

540.249 -16.695 -1.31524e-12
-16.695 484.187 -3.96098e-12
-1.31524e-12 -3.96098e-12 515.283

540.969 16.1759 2.49119e-12
16.1759 485.41 2.85697e-13
2.49119e-12 2.85697e-13 515.889

506.854 0.121884 -2.23925e-12
0.121884 423.543 -2.75471e-12
-2.23925e-12 -2.75471e-12 486.995

384.785 23.3746 -1.35891e-13
23.3746 432.289 -1.09542e-12
-1.35891e-13 -1.09542e-12 385.469

442.325 36.1717 8.1742e-13
36.1717 485.203 -4.16408e-13
8.1742e-13 -4.16408e-13 485.826

452.589 -23.3957 3.33925e-12
-23.3957 494.945 1.65408e-12
3.33925e-12 1.65408e-12 483.583

443.24 23.3522 -1.26713e-13
23.3522 397.511 8.82257e-14
-1.26713e-13 8.82257e-14 400.366

530.964 23.8581 5.12775e-13
23.8581 488.002 1.11141e-12
5.12775e-13 1.11141e-12 507.242

428.471 -31.3129 -1.78228e-12
-31.3129 410.866 3.4183e-12
-1.78228e-12 3.4183e-12 398.81

519.853 -3.23081 -2.31874e-12
-3.23081 469.052 -4.81985e-13
-2.31874e-12 -4.81985e-13 502.679

439.387 -34.1611 7.1676e-13
-34.1611 485.496 1.5404e-12
7.1676e-13 1.5404e-12 485.815

389.176 8.31978 2.18862e-13
8.31978 452.319 2.79362e-12
2.18862e-13 2.79362e-12 400.848

385.872 21.811 -7.31267e-13
21.811 435.764 -1.42109e-14
-7.31267e-13 -1.42109e-14 388.687

383.84 35.775 2.02505e-12
35.775 362.325 4.58892e-12
2.02505e-12 4.58892e-12 318.321

408.174 1.57872 6.27646e-14
1.57872 332.149 1.78879e-12
6.27646e-14 1.78879e-12 327.318

485.448 -22.8044 8.52651e-14
-22.8044 502.851 -2.50252e-12
8.52651e-14 -2.50252e-12 501.742

351.871 31.1831 2.28321e-12
31.1831 388.823 1.30266e-13
2.28321e-12 1.30266e-13 312.351

451.341 23.6096 -8.4673e-14
23.6096 478.404 -8.5502e-13
-8.4673e-14 -8.5502e-13 465.204

442.187 -5.34942 3.61193e-13
-5.34942 377.119 -1.76348e-12
3.61193e-13 -1.76348e-12 387.73

464.146 11.2158 -6.23738e-12
11.2158 407.291 8.0617e-13
-6.23738e-12 8.0617e-13 424.914

505.37 0.429908 2.92063e-13
0.429908 421.563 1.79421e-13
2.92063e-13 1.79421e-13 485.666

449.341 -29.0312 9.1549e-13
-29.0312 501.989 -4.6807e-12
9.1549e-13 -4.6807e-12 493.58

572.506 -6.3191 6.93342e-12
-6.3191 589.479 3.67173e-12
6.93342e-12 3.67173e-12 549.247

463.131 37.4118 -1.1271e-12
37.4118 487.017 -1.92942e-12
-1.1271e-12 -1.92942e-12 493.056

408.73 1.66326 -3.17139e-12
1.66326 331.596 7.06775e-12
-3.17139e-12 7.06775e-12 308.898

404.226 -32.7861 1.49214e-12
-32.7861 415.5 -2.3069e-12
1.49214e-12 -2.3069e-12 387.382

443.131 36.6132 2.80472e-12
36.6132 485.496 6.66726e-13
2.80472e-12 6.66726e-13 486.563

444.671 -11.1337 -7.37836e-13
-11.1337 498.926 -2.95882e-12
-7.37836e-13 -2.95882e-12 471.433

386.065 -25.5139 -3.72147e-12
-25.5139 428.892 9.58048e-13
-3.72147e-12 9.58048e-13 384.556

449.441 28.8302 3.12491e-13
28.8302 501.622 -3.51926e-12
3.12491e-13 -3.51926e-12 493.28

452.702 -26.1413 6.41857e-13
-26.1413 419.294 -7.03497e-12
6.41857e-13 -7.03497e-12 419.509

579.547 10.4834 4.56701e-12
10.4834 582.159 -3.5271e-12
4.56701e-12 -3.5271e-12 549.032

398.32 30.8712 4.47287e-12
30.8712 422.049 1.77991e-12
4.47287e-12 1.77991e-12 388.155

515.698 8.12681 -2.39734e-12
8.12681 437.259 4.22329e-13
-2.39734e-12 4.22329e-13 494.573

493.797 30.1905 1.34056e-12
30.1905 484.739 -1.28312e-12
1.34056e-12 -1.28312e-12 493.793

453.456 23.3316 -1.52485e-12
23.3316 479.154 9.4443e-14
-1.52485e-12 9.4443e-14 475.79

510.694 -32.4891 -1.20437e-12
-32.4891 512.445 -2.84402e-13
-1.20437e-12 -2.84402e-13 514.999

510.3 -23.1899 4.31063e-13
-23.1899 473.173 -3.13083e-12
4.31063e-13 -3.13083e-12 489.669

511.395 10.4709 -7.49345e-12
10.4709 557.985 3.01981e-14
-7.49345e-12 3.01981e-14 523.724

452.164 -23.4335 -6.24093e-13
-23.4335 480.156 5.92474e-12
-6.24093e-13 5.92474e-12 468.941

394.402 -9.70755 2.84928e-12
-9.70755 316.407 8.99799e-13
2.84928e-12 8.99799e-13 295.569

387.282 -14.2769 -5.74355e-12
-14.2769 306.053 2.67875e-12
-5.74355e-12 2.67875e-12 290.044

547.577 16.5292 6.79516e-12
16.5292 507.756 2.36463e-12
6.79516e-12 2.36463e-12 519.312

436.478 22.5012 2.49164e-12
22.5012 469.127 1.82965e-13
2.49164e-12 1.82965e-13 447.814

475.954 29.1627 1.76274e-12
29.1627 467.636 -3.40794e-12
1.76274e-12 -3.40794e-12 471.47

450.292 0.688659 -3.41179e-12
0.688659 392.769 1.21133e-12
-3.41179e-12 1.21133e-12 395.666

478.343 6.5713 -1.22299e-12
6.5713 541.27 -1.82373e-13
-1.22299e-12 -1.82373e-13 507.532

507.322 16.5408 4.85538e-14
16.5408 461.127 -3.38307e-12
4.85538e-14 -3.38307e-12 488.071

389.969 -25.7604 9.82325e-13
-25.7604 430.027 3.42955e-12
9.82325e-13 3.42955e-12 387.725

456.31 -2.57248 2.56367e-12
-2.57248 517.005 2.0132e-13
2.56367e-12 2.0132e-13 484.832

400.581 13.3648 -3.62614e-12
13.3648 452.976 1.62122e-12
-3.62614e-12 1.62122e-12 404.627

486.904 -29.7129 -6.22909e-13
-29.7129 465.805 -4.28783e-12
-6.22909e-13 -4.28783e-12 474.25

430.289 -29.9467 -6.18942e-12
-29.9467 423.62 -1.81484e-12
-6.18942e-12 -1.81484e-12 404.946

399.702 31.622 -2.7948e-13
31.622 418.223 -1.28845e-12
-2.7948e-13 -1.28845e-12 385.994

623.997 -15.0203 -6.83779e-12
-15.0203 581.943 -8.90991e-13
-6.83779e-12 -8.90991e-13 557.898

494.514 2.04119 -1.87931e-12
2.04119 552.135 3.34429e-12
-1.87931e-12 3.34429e-12 517.917

483.493 20.3003 -8.37404e-13
20.3003 542.035 -1.15138e-12
-8.37404e-13 -1.15138e-12 516.022

544.698 15.4392 -1.22776e-12
15.4392 479.962 -2.42946e-12
-1.22776e-12 -2.42946e-12 515.745

473.739 -26.1884 1.58066e-12
-26.1884 479.747 -5.77316e-13
1.58066e-12 -5.77316e-13 483.008

452.115 17.9569 -9.26074e-13
17.9569 404.499 3.37212e-12
-9.26074e-13 3.37212e-12 406.909

531.573 -5.29426 -7.45592e-12
-5.29426 580.794 2.42177e-13
-7.45592e-12 2.42177e-13 537.11

512.178 -18.9882 2.9902e-14
-18.9882 464.784 3.31261e-12
2.9902e-14 3.31261e-12 493.019

473.966 -15.5986 -3.3283e-12
-15.5986 423.167 1.7543e-12
-3.3283e-12 1.7543e-12 438.871

401.991 11.6029 -3.28656e-12
11.6029 455.948 6.25396e-12
-3.28656e-12 6.25396e-12 407.771

410.914 -25.7335 8.18072e-12
-25.7335 435.571 -2.67519e-12
8.18072e-12 -2.67519e-12 398.947

532.041 -25.2738 -2.51651e-14
-25.2738 523.186 2.31829e-12
-2.51651e-14 2.31829e-12 519.11

423.047 31.9587 9.4739e-13
31.9587 417.239 -8.4673e-14
9.4739e-13 -8.4673e-14 400.296

535.474 -25.1348 -3.68298e-12
-25.1348 505.78 6.96036e-12
-3.68298e-12 6.96036e-12 515.651

453.484 2.59731 4.29286e-12
2.59731 397.011 -1.37764e-12
4.29286e-12 -1.37764e-12 401.889

311.093 -28.9298 -6.1083e-12
-28.9298 376.589 -3.55745e-12
-6.1083e-12 -3.55745e-12 289.989

431.866 -29.2302 3.64686e-12
-29.2302 424.039 2.90079e-12
3.64686e-12 2.90079e-12 406.145

353.754 32.1581 3.85469e-12
32.1581 392.536 5.45223e-12
3.85469e-12 5.45223e-12 312.962

470.338 -11.877 -5.9342e-12
-11.877 529.543 -3.66226e-12
-5.9342e-12 -3.66226e-12 500.295

391.442 -13.821 -2.51651e-12
-13.821 449.243 -3.57521e-12
-2.51651e-12 -3.57521e-12 400.19

602.85 -23.9885 -2.91249e-12
-23.9885 602.263 -2.28129e-12
-2.91249e-12 -2.28129e-12 557.839

408.363 23.7701 6.32442e-12
23.7701 441.93 9.56864e-13
6.32442e-12 9.56864e-13 402.214

496.568 -32.7262 -8.6627e-13
-32.7262 490.632 2.21452e-13
-8.6627e-13 2.21452e-13 497.438

388.181 -11.9628 3.01092e-12
-11.9628 448.275 3.32771e-12
3.01092e-12 3.32771e-12 397.007

516.702 -19.1169 -3.40616e-12
-19.1169 465.745 -5.70211e-13
-3.40616e-12 -5.70211e-13 496.235

410.678 23.8764 2.07242e-13
23.8764 439.303 2.03689e-13
2.07242e-13 2.03689e-13 400.69

488.91 -4.97543 -8.7456e-13
-4.97543 435.062 -1.31043e-13
-8.7456e-13 -1.31043e-13 460.374

305.776 -30.3421 -4.32602e-12
-30.3421 391.431 -2.8398e-12
-4.32602e-12 -2.8398e-12 262.565

438.601 21.0137 -4.39648e-13
21.0137 473.904 5.69026e-12
-4.39648e-13 5.69026e-12 458.34

445.679 -19.3228 5.30539e-13
-19.3228 393.97 -6.24182e-12
5.30539e-13 -6.24182e-12 399.616

551.598 -21.4459 9.88839e-13
-21.4459 499.51 -8.46138e-13
9.88839e-13 -8.46138e-13 520.097

424.463 31.7532 -2.9677e-12
31.7532 413.316 -8.23637e-13
-2.9677e-12 -8.23637e-13 397.953

459.155 -29.9711 -6.06922e-12
-29.9711 437.631 7.33931e-13
-6.06922e-12 7.33931e-13 439.293

510.613 20.8851 -9.93576e-13
20.8851 476.066 -4.09687e-12
-9.93576e-13 -4.09687e-12 492.75

461.498 -28.0758 -1.60953e-12
-28.0758 485.734 1.47482e-12
-1.60953e-12 1.47482e-12 488.711

413.714 -26.2245 -6.10475e-13
-26.2245 436.238 2.00136e-13
-6.10475e-13 2.00136e-13 401.433

426.069 28.9803 -4.13299e-12
28.9803 429.891 2.58401e-12
-4.13299e-12 2.58401e-12 406.855

452.495 26.1907 4.17207e-12
26.1907 418.222 2.28824e-12
4.17207e-12 2.28824e-12 419.053

521.965 -14.6097 1.73698e-12
-14.6097 477.173 3.85085e-12
1.73698e-12 3.85085e-12 500.059

403.556 -16.6171 -3.32416e-12
-16.6171 451.737 -1.80833e-12
-3.32416e-12 -1.80833e-12 406.438

496.04 -17.5681 3.61074e-12
-17.5681 447.601 -1.24434e-12
3.61074e-12 -1.24434e-12 471.495

487.759 16.9081 -2.1565e-12
16.9081 436.254 -2.93987e-13
-2.1565e-12 -2.93987e-13 460.583

513.339 -9.38705 -2.18262e-12
-9.38705 555.774 2.39216e-13
-2.18262e-12 2.39216e-13 523.025

453.972 -13.4297 4.52971e-12
-13.4297 402.174 3.65337e-13
4.52971e-12 3.65337e-13 406.738

403.197 0.593985 -2.20505e-12
0.593985 465.719 3.3585e-12
-2.20505e-12 3.3585e-12 417.8

475.021 18.5546 6.35936e-13
18.5546 428.767 3.32416e-12
6.35936e-13 3.32416e-12 442.216

451.137 27.6033 1.64964e-12
27.6033 421.834 -3.21787e-12
1.64964e-12 -3.21787e-12 420.839

400.864 -15.6857 -9.56272e-13
-15.6857 451.376 5.95672e-13
-9.56272e-13 5.95672e-13 403.731

405.996 -1.2023 1.08935e-12
-1.2023 468.029 5.61329e-12
1.08935e-12 5.61329e-12 421.215

516.195 29.1343 -3.20988e-12
29.1343 498.022 2.04488e-12
-3.20988e-12 2.04488e-12 504.872

441.7 -10.9219 -3.62022e-12
-10.9219 500.653 1.69464e-12
-3.62022e-12 1.69464e-12 471.143

451.435 -26.7146 -2.56565e-12
-26.7146 418.761 1.75149e-12
-2.56565e-12 1.75149e-12 419.348

444.382 21.332 2.3519e-12
21.332 395.294 -1.76155e-12
2.3519e-12 -1.76155e-12 398.197

497.59 23.6651 -8.9706e-13
23.6651 458.086 -2.62013e-12
-8.9706e-13 -2.62013e-12 476.546

447.678 5.47061 3.05237e-12
5.47061 508.785 -4.70142e-13
3.05237e-12 -4.70142e-13 476.877

427.645 29.0648 -7.08174e-13
29.0648 426.43 -1.52411e-12
-7.08174e-13 -1.52411e-12 405.106

536.818 22.9638 6.47186e-13
22.9638 531.895 -3.05667e-12
6.47186e-13 -3.05667e-12 522.781

314.747 -59.6905 5.50907e-12
-59.6905 282.767 -3.55153e-12
5.50907e-12 -3.55153e-12 223.421

480.59 -25.0473 -1.63425e-12
-25.0473 445.068 4.57708e-13
-1.63425e-12 4.57708e-13 456.642

336.66 7.06973 2.40963e-12
7.06973 409.151 -4.9738e-14
2.40963e-12 -4.9738e-14 319.437

460.534 -28.8886 -3.37034e-12
-28.8886 444.732 -8.52059e-13
-3.37034e-12 -8.52059e-13 443.448

96.4232 -52.7005 -1.89833e-12
-52.7005 306.616 3.51008e-12
-1.89833e-12 3.51008e-12 113.698

95.9571 51.4512 -3.55271e-12
51.4512 306.88 -9.04758e-13
-3.55271e-12 -9.04758e-13 114.487

181.516 117.153 -2.01794e-12
117.153 226.075 1.82846e-12
-2.01794e-12 1.82846e-12 113.587

182.813 -117.096 -9.45022e-13
-117.096 223.31 5.04485e-12
-9.45022e-13 5.04485e-12 113.561

321.58 -1.36334 -3.15481e-12
-1.36334 84.6529 3.41741e-14
-3.15481e-12 3.41741e-14 114.928

274.431 -91.1247 2.84217e-14
-91.1247 127.417 4.52379e-13
2.84217e-14 4.52379e-13 113.801

275.127 91.6525 -6.75489e-12
91.6525 128.25 -5.48065e-12
-6.75489e-12 -5.48065e-12 114.571

525.237 14.3301 -3.31764e-12
14.3301 474.708 -5.21775e-12
-3.31764e-12 -5.21775e-12 502.311

556.795 25.5367 7.42932e-12
25.5367 541.181 -4.44341e-12
7.42932e-12 -4.44341e-12 533.447

492.087 6.60591 -5.7329e-12
6.60591 439.116 1.82017e-12
-5.7329e-12 1.82017e-12 471.398

470.295 21.7842 -2.49045e-12
21.7842 424.513 5.24084e-12
-2.49045e-12 5.24084e-12 438.19

409.971 17.744 -1.73091e-12
17.744 461.068 2.61835e-12
-1.73091e-12 2.61835e-12 425.039

448.006 28.8978 -1.67807e-12
28.8978 424.701 -1.83438e-12
-1.67807e-12 -1.83438e-12 420.746

487.145 -29.6631 2.14169e-12
-29.6631 465.623 -9.767e-13
2.14169e-12 -9.767e-13 474.585

449.363 28.0272 3.9222e-12
28.0272 421.067 -7.73307e-13
3.9222e-12 -7.73307e-13 418.638

402.959 -2.84116 3.48521e-12
-2.84116 465.376 1.57977e-12
3.48521e-12 1.57977e-12 417.536

555.801 -26.0976 -4.44829e-12
-26.0976 543.374 -5.00296e-12
-4.44829e-12 -5.00296e-12 533.691

405.497 -4.86225 3.16991e-12
-4.86225 467.114 4.25141e-12
3.16991e-12 4.25141e-12 420.595

522.289 23.016 -1.05575e-12
23.016 499.739 3.9968e-15
-1.05575e-12 3.9968e-15 507.966

423.373 26.87 4.51195e-13
26.87 386.503 -3.52311e-12
4.51195e-13 -3.52311e-12 373.023

480.105 -13.216 1.27024e-12
-13.216 532.765 4.30974e-12
1.27024e-12 4.30974e-12 511.997

484.193 13.7277 3.62554e-12
13.7277 432.772 2.69177e-12
3.62554e-12 2.69177e-12 456.871

457.364 -29.9871 1.74675e-13
-29.9871 436.972 -1.72721e-12
1.74675e-13 -1.72721e-12 437.829

454.304 -24.713 1.89478e-14
-24.713 416.8 6.20245e-13
1.89478e-14 6.20245e-13 419.849

547.402 -16.0744 -5.26867e-12
-16.0744 509.303 -3.42689e-12
-5.26867e-12 -3.42689e-12 519.381

475.967 27.9285 1.96465e-12
27.9285 449.702 3.30195e-12
1.96465e-12 3.30195e-12 456.921

469.096 23.977 4.18628e-13
23.977 427.845 -2.71575e-12
4.18628e-13 -2.71575e-12 439.826

432.425 -2.79296 1.01789e-12
-2.79296 493.632 6.92779e-14
1.01789e-12 6.92779e-14 457.103

417.603 5.87328 6.29517e-13
5.87328 479.552 -1.6828e-12
6.29517e-13 -1.6828e-12 440.173

463.006 2.64665 1.72011e-12
2.64665 402.276 -2.66576e-12
1.72011e-12 -2.66576e-12 422.317

438.643 -7.28948 -4.80327e-12
-7.28948 373.911 1.79205e-12
-4.80327e-12 1.79205e-12 381.214

454.839 30.4841 -8.81073e-13
30.4841 439.011 -5.2367e-12
-8.81073e-13 -5.2367e-12 437.833

478.461 -26.155 -7.67978e-13
-26.155 443.539 3.51393e-12
-7.67978e-13 3.51393e-12 454.642

525.697 -21.2543 -5.01199e-12
-21.2543 497.826 -3.75196e-12
-5.01199e-12 -3.75196e-12 508.615

437.728 -31.633 3.59653e-12
-31.633 437.651 7.88702e-13
3.59653e-12 7.88702e-13 426.855

417.586 -27.7849 7.21201e-13
-27.7849 444.391 3.11158e-12
7.21201e-13 3.11158e-12 419.684

430.642 29.8865 -4.55813e-12
29.8865 442.74 3.84048e-12
-4.55813e-12 3.84048e-12 426.493

416.221 -9.57775 7.85113e-13
-9.57775 475.206 3.45265e-12
7.85113e-13 3.45265e-12 436.451

428.891 -1.54471 -1.82913e-12
-1.54471 491.864 -3.48166e-12
-1.82913e-12 -3.48166e-12 453.99

445.178 5.74796 -1.60201e-12
5.74796 508.039 -2.14169e-12
-1.60201e-12 -2.14169e-12 474.91

414.615 -21.0886 -2.60799e-12
-21.0886 458.403 -1.30799e-12
-2.60799e-12 -1.30799e-12 426.061

496.865 24.1109 -2.11801e-12
24.1109 455.692 2.69177e-12
-2.11801e-12 2.69177e-12 474.589

483.368 -9.5896 -5.34091e-13
-9.5896 430.108 8.7382e-13
-5.34091e-13 8.7382e-13 455.216

415.629 7.46516 -4.7166e-13
7.46516 477.116 8.00545e-13
-4.7166e-13 8.00545e-13 436.909

443.951 -9.70104 -3.59679e-12
-9.70104 501.499 5.59552e-13
-3.59679e-12 5.59552e-13 471.003

433.17 -16.3304 -2.74832e-12
-16.3304 481.671 -7.14095e-13
-2.74832e-12 -7.14095e-13 455.664

463.534 -8.23905 1.58688e-12
-8.23905 406.331 -2.85786e-12
1.58688e-12 -2.85786e-12 421.467

494.43 -32.3468 -3.69571e-12
-32.3468 487.612 -7.89887e-13
-3.69571e-12 -7.89887e-13 496.247

422.94 9.32065 -5.4623e-14
9.32065 479.086 2.24413e-13
-5.4623e-14 2.24413e-13 440.976

564.356 -18.2126 2.75335e-12
-18.2126 529.949 5.01095e-12
2.75335e-12 5.01095e-12 531.828

309.046 24.8222 -1.06937e-12
24.8222 379.419 3.98141e-12
-1.06937e-12 3.98141e-12 289.795

501.695 -26.626 -6.30607e-14
-26.626 499.487 2.02549e-12
-6.30607e-14 2.02549e-12 501.196

515.646 -30.2028 -3.97312e-13
-30.2028 498.401 -3.32031e-12
-3.97312e-13 -3.32031e-12 504.915

429.219 -0.70133 8.09575e-13
-0.70133 491.989 -4.89564e-12
8.09575e-13 -4.89564e-12 454.141

474.877 -16.6224 2.68822e-13
-16.6224 428.333 2.40163e-12
2.68822e-13 2.40163e-12 441.952

462.302 12.8416 1.40297e-12
12.8416 511.271 -3.54146e-12
1.40297e-12 -3.54146e-12 489.118

240.774 -3.18044 -1.02762e-12
-3.18044 360.685 -7.26175e-12
-1.02762e-12 -7.26175e-12 226.964

432.4 14.2735 4.64517e-12
14.2735 485.352 -1.82077e-12
4.64517e-12 -1.82077e-12 456.879

458.108 -29.4887 -5.23137e-12
-29.4887 443.166 8.33111e-13
-5.23137e-12 8.33111e-13 440.758

304.184 25.1053 -5.91764e-12
25.1053 394.581 -7.05095e-12
-5.91764e-12 -7.05095e-12 264.339

603.55 26.0983 -4.56065e-12
26.0983 597.955 -1.6193e-12
-4.56065e-12 -1.6193e-12 558.155

608.284 -27.8077 7.70021e-12
-27.8077 595.03 -1.25044e-11
7.70021e-12 -1.25044e-11 558.289

463.49 -30.4187 -4.74939e-12
-30.4187 459.035 5.62335e-12
-4.74939e-12 5.62335e-12 459.069

434.581 -31.1597 -7.97407e-12
-31.1597 436.356 -5.45342e-13
-7.97407e-12 -5.45342e-13 424.658

474.097 20.8272 -2.42117e-12
20.8272 431.912 8.02321e-14
-2.42117e-12 8.02321e-14 443.969

465.218 15.0058 2.81849e-13
15.0058 410.113 2.56091e-12
2.81849e-13 2.56091e-12 427.459

646.07 3.08376 -4.38546e-12
3.08376 645.728 9.47272e-12
-4.38546e-12 9.47272e-12 574.618

649.891 -7.00043 -7.87526e-12
-7.00043 641.398 -1.19013e-11
-7.87526e-12 -1.19013e-11 575.147

496.984 4.82432 -1.97472e-12
4.82432 442.031 -3.51349e-12
-1.97472e-12 -3.51349e-12 477.409

443.554 6.73086 2.42502e-12
6.73086 502.985 -2.19439e-12
2.42502e-12 -2.19439e-12 471.047

441.969 6.73631 2.47098e-12
6.73631 502.511 -2.30334e-12
2.47098e-12 -2.30334e-12 469.77

321.534 58.6335 9.30811e-13
58.6335 281.12 1.77399e-12
9.30811e-13 1.77399e-12 225.075

420.225 -28.1993 6.44758e-12
-28.1993 444.019 -2.99494e-12
6.44758e-12 -2.99494e-12 421.028

520.575 17.9746 -9.48515e-12
17.9746 467.527 -1.88738e-12
-9.48515e-12 -1.88738e-12 499.506

472.976 9.53963 4.74879e-13
9.53963 421.193 7.34524e-13
4.74879e-13 7.34524e-13 436.199

440.626 -26.7229 -3.00145e-12
-26.7229 450.722 1.67214e-12
-3.00145e-12 1.67214e-12 433.412

469.273 -20.2374 -3.73982e-12
-20.2374 422.713 1.68695e-12
-3.73982e-12 1.68695e-12 437.173

312.47 60.2314 -9.75812e-13
60.2314 281.37 6.26936e-12
-9.75812e-13 6.26936e-12 223.213

492.678 31.069 -1.38201e-12
31.069 489.04 -1.29378e-13
-1.38201e-12 -1.29378e-13 493.135

410.86 -19.7858 -5.39243e-12
-19.7858 457.878 2.54493e-12
-5.39243e-12 2.54493e-12 423.494

474.125 28.8573 3.59298e-12
28.8573 449.628 1.3974e-13
3.59298e-12 1.3974e-13 456.515

430.953 -4.14473 -2.05132e-12
-4.14473 492.969 -1.55727e-12
-2.05132e-12 -1.55727e-12 456.464

423.927 19.6089 2.73381e-12
19.6089 465.707 5.72638e-12
2.73381e-12 5.72638e-12 434.104

452.744 30.5183 1.78998e-12
30.5183 443.594 -3.27442e-13
1.78998e-12 -3.27442e-13 439.605

428.64 -22.4728 7.22681e-12
-22.4728 461.133 -7.82189e-13
7.22681e-12 -7.82189e-13 433.809

443.571 -27.3521 -5.03893e-13
-27.3521 450.429 -7.81597e-13
-5.03893e-13 -7.81597e-13 435.042

294.776 11.2568 4.16556e-13
11.2568 372.582 -3.47219e-12
4.16556e-13 -3.47219e-12 258.099

357.295 -33.4557 -7.82781e-13
-33.4557 389.114 -1.75267e-12
-7.82781e-13 -1.75267e-12 314.126

419.655 -11.6904 2.63012e-12
-11.6904 476.357 5.43328e-12
2.63012e-12 5.43328e-12 439.341

478.394 26.4842 -1.96998e-12
26.4842 446.796 -6.13672e-12
-1.96998e-12 -6.13672e-12 456.081

452.341 29.4775 1.4347e-12
29.4775 449.022 4.04891e-12
1.4347e-12 4.04891e-12 442.396

426.805 -21.4336 3.34014e-12
-21.4336 461.78 4.25734e-12
3.34014e-12 4.25734e-12 432.627

422.927 -11.7821 -5.79892e-12
-11.7821 476.643 1.68635e-12
-5.79892e-12 1.68635e-12 439.925

457.703 28.4091 1.35832e-12
28.4091 447.083 -3.37093e-12
1.35832e-12 -3.37093e-12 442.568

425.102 -13.8776 -3.52725e-12
-13.8776 476.415 4.42727e-12
-3.52725e-12 4.42727e-12 442.102

311.262 27.8545 3.18442e-12
27.8545 377.388 -3.34429e-12
3.18442e-12 -3.34429e-12 289.982

485.167 -4.04137 -6.25298e-13
-4.04137 545.047 3.41593e-12
-6.25298e-13 3.41593e-12 511.034

432.981 31.0271 -5.51914e-12
31.0271 439.625 -2.31696e-12
-5.51914e-12 -2.31696e-12 426.016

509.306 14.901 -1.97945e-12
14.901 463.158 -1.67629e-12
-1.97945e-12 -1.67629e-12 488.602

516.918 -15.9273 -3.36235e-12
-15.9273 467.579 -5.4016e-12
-3.36235e-12 -5.4016e-12 493.92

383.922 -24.2041 2.81612e-12
-24.2041 305.946 -1.95399e-12
2.81612e-12 -1.95399e-12 285.352

442.275 -21.267 3.80466e-12
-21.267 475.995 -1.62833e-13
3.80466e-12 -1.62833e-13 459.317

447.824 26.698 1.8332e-12
26.698 466.203 -3.28212e-12
1.8332e-12 -3.28212e-12 457.837

522.972 -21.7279 -2.77763e-12
-21.7279 543.809 -1.60346e-12
-2.77763e-12 -1.60346e-12 525.306

579.583 14.107 -1.01862e-11
14.107 617.62 -5.46467e-12
-1.01862e-11 -5.46467e-12 557.051

620.207 9.44535 -1.98789e-12
9.44535 576.84 -5.06854e-13
-1.98789e-12 -5.06854e-13 556.869

523.467 32.7056 3.2457e-12
32.7056 520.649 4.40314e-12
3.2457e-12 4.40314e-12 519.522

414.887 25.9999 5.02916e-12
25.9999 448.901 -3.471e-12
5.02916e-12 -3.471e-12 420.373

478.092 26.6612 -3.79548e-12
26.6612 444.766 -2.57601e-12
-3.79548e-12 -2.57601e-12 455.504

332.36 45.1852 2.80783e-12
45.1852 349.486 -1.79649e-12
2.80783e-12 -1.79649e-12 286.737

571.39 -11.3439 -4.82281e-13
-11.3439 614.471 -2.27788e-12
-4.82281e-13 -2.27788e-12 554.593

641.327 -3.43307 -4.03594e-13
-3.43307 636.869 -1.55924e-11
-4.03594e-13 -1.55924e-11 572.394

634.904 -0.210157 3.51363e-12
-0.210157 643.177 -7.29949e-12
3.51363e-12 -7.29949e-12 572.221

272.961 -53.8018 -5.71513e-12
-53.8018 316.444 -6.3262e-12
-5.71513e-12 -6.3262e-12 220.907

566.636 -11.6001 -4.88794e-13
-11.6001 562.123 5.93362e-12
-4.88794e-13 5.93362e-12 540.896

563.77 8.81318 -2.31881e-12
8.81318 586.961 9.23706e-14
-2.31881e-12 9.23706e-14 546.838

478.24 -26.1993 -7.36596e-13
-26.1993 440.438 -1.84356e-12
-7.36596e-13 -1.84356e-12 453.478

494.346 1.01117 1.72762e-12
1.01117 545.756 5.0188e-12
1.72762e-12 5.0188e-12 514.054

447.646 -20.2676 2.80664e-12
-20.2676 484.154 2.20801e-12
2.80664e-12 2.20801e-12 470.633

506.296 6.2553 1.5626e-12
6.2553 443.37 -1.02496e-12
1.5626e-12 -1.02496e-12 486.121

461.271 15.5963 8.60737e-13
15.5963 521.249 -1.84682e-12
8.60737e-13 -1.84682e-12 497.553

471.178 7.19167 1.35532e-12
7.19167 528.002 -3.35909e-12
1.35532e-12 -3.35909e-12 497.687

493.759 20.3925 -1.19312e-12
20.3925 451.514 -1.62033e-12
-1.19312e-12 -1.62033e-12 469.747

241.064 -3.1139 -4.58692e-12
-3.1139 358.557 -1.80952e-12
-4.58692e-12 -1.80952e-12 227.062

463.696 -27.6234 -2.29861e-12
-27.6234 463.387 7.99361e-13
-2.29861e-12 7.99361e-13 461.187

488.341 -26.116 5.8525e-12
-26.116 481.594 -1.30829e-12
5.8525e-12 -1.30829e-12 485.865

497.534 -31.4837 1.33819e-12
-31.4837 489.954 3.30743e-12
1.33819e-12 3.30743e-12 498.977

355.596 32.7491 5.0188e-12
32.7491 285.776 1.79205e-12
5.0188e-12 1.79205e-12 248.364

563.879 -20.1166 4.14158e-12
-20.1166 569.612 -2.73692e-12
4.14158e-12 -2.73692e-12 542.568

337.645 54.3216 3.27087e-12
54.3216 356.655 8.12387e-12
3.27087e-12 8.12387e-12 258.873

477.068 -21.4396 -1.18838e-12
-21.4396 506.486 -6.0929e-13
-1.18838e-12 -6.0929e-13 500.24

504.768 14.6503 -1.97116e-12
14.6503 451.983 5.12583e-12
-1.97116e-12 5.12583e-12 481.556

449.826 -14.5722 2.62072e-12
-14.5722 396.983 -1.71315e-12
2.62072e-12 -1.71315e-12 400.836

452.589 24.0465 2.08722e-12
24.0465 478.775 1.07055e-12
2.08722e-12 1.07055e-12 467.844

493.662 20.4278 2.11919e-12
20.4278 449.497 -8.57092e-13
2.11919e-12 -8.57092e-13 469.338

505.563 11.4007 -3.92368e-12
11.4007 564.414 1.88205e-12
-3.92368e-12 1.88205e-12 526.708

475.892 -31.5799 3.21846e-12
-31.5799 470.352 -2.78296e-14
3.21846e-12 -2.78296e-14 475.06

559.268 19.8124 1.90366e-12
19.8124 510.437 -3.01685e-13
1.90366e-12 -3.01685e-13 526.484

439.954 -18.4432 1.65201e-13
-18.4432 482.46 1.18424e-14
1.65201e-13 1.18424e-14 459.145

465.894 4.28308 8.24594e-13
4.28308 526.104 -4.46813e-12
8.24594e-13 -4.46813e-12 495.506

588.638 9.92664 -2.65595e-12
9.92664 552.46 -2.68126e-12
-2.65595e-12 -2.68126e-12 545.186

590.421 -8.51324 2.735e-12
-8.51324 554.802 -2.19883e-12
2.735e-12 -2.19883e-12 545.704

382.305 18.5121 -9.4739e-14
18.5121 302.285 2.86467e-12
-9.4739e-14 2.86467e-12 286.131

502.674 7.96492 -1.58984e-12
7.96492 453.596 5.26423e-12
-1.58984e-12 5.26423e-12 487.761

232.814 7.74032 1.72899e-12
7.74032 381.513 5.40012e-12
1.72899e-12 5.40012e-12 187.185

236.983 -11.3849 6.29826e-12
-11.3849 387.206 -1.33108e-12
6.29826e-12 -1.33108e-12 189.449

249.286 56.4062 1.76688e-12
56.4062 354.774 2.32584e-12
1.76688e-12 2.32584e-12 184.021

505.011 -28.9503 -3.82154e-12
-28.9503 478.611 2.14584e-12
-3.82154e-12 2.14584e-12 491.339

258.47 -49.1895 3.01152e-12
-49.1895 341.838 4.40773e-12
3.01152e-12 4.40773e-12 220.732

249.291 -55.9487 -2.6669e-12
-55.9487 344.749 -6.30962e-12
-2.6669e-12 -6.30962e-12 181.114

434.65 26.2196 4.48175e-12
26.2196 454.387 -4.77129e-12
4.48175e-12 -4.77129e-12 432.82

329.921 73.8428 -2.36848e-14
73.8428 280.008 1.78583e-12
-2.36848e-14 1.78583e-12 184.826

540.125 13.0474 -1.94481e-12
13.0474 554.944 3.86594e-12
-1.94481e-12 3.86594e-12 532.074

562.381 0.0391305 1.73491e-13
0.0391305 532.451 -6.41561e-12
1.73491e-13 -6.41561e-12 531.867

338.599 -73.1282 -2.269e-12
-73.1282 279.856 3.63798e-12
-2.269e-12 3.63798e-12 186.308

432.665 -23.4235 2.40696e-12
-23.4235 466.305 2.62782e-12
2.40696e-12 2.62782e-12 447.567

358.927 34.7284 9.97128e-12
34.7284 310.972 7.16346e-12
9.97128e-12 7.16346e-12 258.035

267.703 63.4898 -3.12402e-12
63.4898 345.208 -3.53377e-12
-3.12402e-12 -3.53377e-12 185.843

293.69 21.6297 2.73085e-12
21.6297 367.657 -8.61888e-12
2.73085e-12 -8.61888e-12 254.494

267.574 -65.9186 4.36273e-12
-65.9186 344.843 1.78583e-12
4.36273e-12 1.78583e-12 184.299

291.637 -12.3808 2.5017e-12
-12.3808 370.878 -1.88057e-12
2.5017e-12 -1.88057e-12 253.44

550.305 6.842 4.51002e-12
6.842 582.075 8.18604e-13
4.51002e-12 8.18604e-13 541.114

329.886 -45.9737 1.68162e-12
-45.9737 341.812 -2.13163e-14
1.68162e-12 -2.13163e-14 276.611

259.779 47.5308 1.63425e-13
47.5308 340.213 9.42417e-12
1.63425e-13 9.42417e-12 223.143

370.213 37.9107 -5.36697e-12
37.9107 244.918 8.81073e-13
-5.36697e-12 8.81073e-13 187.355

481.886 -29.2853 7.77689e-12
-29.2853 460.507 -7.61169e-13
7.77689e-12 -7.61169e-13 467.71

480.973 12.8967 9.87728e-13
12.8967 525.825 8.99133e-13
9.87728e-13 8.99133e-13 504.1

354.415 -38.1116 3.78956e-14
-38.1116 300.074 -3.47455e-12
3.78956e-14 -3.47455e-12 251.812

482.53 -28.8018 8.11203e-13
-28.8018 460.316 -1.13036e-12
8.11203e-13 -1.13036e-12 468.458

365.261 -36.3426 -3.56219e-12
-36.3426 230.987 -7.83847e-12
-3.56219e-12 -7.83847e-12 182.768

481.498 -28.3171 2.72079e-12
-28.3171 472.75 9.42949e-13
2.72079e-12 9.42949e-13 477.914

436.349 -25.2944 3.66581e-12
-25.2944 466.219 -6.37712e-13
3.66581e-12 -6.37712e-13 448.205

314.796 69.4593 -2.66217e-12
69.4593 292.14 -9.68707e-13
-2.66217e-12 -9.68707e-13 184.522

290.779 -22.9322 1.20674e-12
-22.9322 359.161 -1.53004e-11
1.20674e-12 -1.53004e-11 247.026

312.398 -71.6912 -9.04758e-13
-71.6912 288.12 -1.83083e-12
-9.04758e-13 -1.83083e-12 182.025

268.544 50.7363 -5.44868e-12
50.7363 320.056 -2.71427e-12
-5.44868e-12 -2.71427e-12 221.502

459.857 -30.2116 6.75016e-14
-30.2116 454.841 3.07783e-12
6.75016e-14 3.07783e-12 454.396

559.283 -14.6402 3.64449e-13
-14.6402 544.41 1.55135e-12
3.64449e-13 1.55135e-12 533.714

635.922 11.0928 8.82909e-12
11.0928 631.383 2.42325e-13
8.82909e-12 2.42325e-13 570.017

619.956 -5.15996 -7.50896e-12
-5.15996 639.738 -1.88037e-12
-7.50896e-12 -1.88037e-12 568.495

453.865 13.0836 2.80613e-12
13.0836 506.55 -3.93641e-12
2.80613e-12 -3.93641e-12 482.568

634.151 -10.6672 -5.5469e-12
-10.6672 631.313 5.61033e-14
-5.5469e-12 5.61033e-14 569.872

622.695 4.09168 -3.28626e-14
4.09168 642.684 4.94201e-12
-3.28626e-14 4.94201e-12 569.696

643.374 7.43438 1.00639e-11
7.43438 619.147 -4.13447e-13
1.00639e-11 -4.13447e-13 569.019

584.775 -12.1155 7.17537e-13
-12.1155 631.667 -1.12585e-11
7.17537e-13 -1.12585e-11 560.591

307.441 -30.4694 -1.17127e-11
-30.4694 371.629 2.69296e-12
-1.17127e-11 2.69296e-12 280.766

589.624 -12.9721 -7.20609e-13
-12.9721 549.111 7.31267e-13
-7.20609e-13 7.31267e-13 543.823

527.203 -34.4179 -1.52027e-12
-34.4179 521.483 2.62072e-12
-1.52027e-12 2.62072e-12 519.962

565.462 -18.1767 -5.93806e-12
-18.1767 537.987 2.32407e-12
-5.93806e-12 2.32407e-12 534.255

502.565 15.459 3.6664e-12
15.459 452.111 -3.59979e-12
3.6664e-12 -3.59979e-12 480.202

586.348 9.86444 -1.11344e-12
9.86444 642.135 -1.30186e-11
-1.11344e-12 -1.30186e-11 563.101

636.657 19.2279 -9.11626e-12
19.2279 591.721 -4.14605e-12
-9.11626e-12 -4.14605e-12 562.922

569.773 11.3061 3.72236e-12
11.3061 544.336 2.22948e-12
3.72236e-12 2.22948e-12 536.433

353.439 -15.339 6.44699e-12
-15.339 231.514 -7.98058e-12
6.44699e-12 -7.98058e-12 219.012

437.201 24.9636 3.55301e-12
24.9636 461.907 7.13503e-13
3.55301e-12 7.13503e-13 445.717

317.087 -61.3536 3.09323e-12
-61.3536 277.846 -9.02389e-13
3.09323e-12 -9.02389e-13 218.086

334.205 -57.4563 -2.06057e-13
-57.4563 357.319 4.94301e-12
-2.06057e-13 4.94301e-12 252.537

383.33 -36.5434 6.82358e-12
-36.5434 305.736 -4.36036e-12
6.82358e-12 -4.36036e-12 257.757

562.494 -5.15899 1.62566e-12
-5.15899 616.95 -3.93952e-12
1.62566e-12 -3.93952e-12 552.947

562.201 2.89122 1.30873e-12
2.89122 615.816 -1.11318e-12
1.30873e-12 -1.11318e-12 552.546

598.769 -24.4567 -3.89851e-12
-24.4567 575.74 1.65201e-12
-3.89851e-12 1.65201e-12 551.576

602.328 -21.761 7.82278e-12
-21.761 573.431 9.2785e-13
7.82278e-12 9.2785e-13 551.842

598.782 26.1364 -8.43769e-14
26.1364 580.456 -1.26018e-12
-8.43769e-14 -1.26018e-12 552.731

625.741 3.09975 1.04857e-11
3.09975 630.734 1.3151e-11
1.04857e-11 1.3151e-11 568.418

599.058 -20.5092 1.30266e-13
-20.5092 576.352 -1.37209e-12
1.30266e-13 -1.37209e-12 552.264

607.809 -18.5685 8.37819e-12
-18.5685 620.262 8.00815e-12
8.37819e-12 8.00815e-12 563.183

632.899 2.43473 4.08843e-12
2.43473 635.526 -3.81961e-12
4.08843e-12 -3.81961e-12 570.503

607.885 -20.5266 3.70955e-12
-20.5266 572.425 2.314e-12
3.70955e-12 2.314e-12 553.403

607.07 20.9562 9.38879e-13
20.9562 573.683 2.21156e-13
9.38879e-13 2.21156e-13 553.807

633.851 -3.45877 2.9643e-12
-3.45877 636.777 -3.33822e-12
2.9643e-12 -3.33822e-12 571.277

632.181 -3.11754 -5.27134e-13
-3.11754 625.755 -1.03155e-11
-5.27134e-13 -1.03155e-11 569.392

609.68 12.1098 -2.20416e-12
12.1098 620.484 -4.30086e-12
-2.20416e-12 -4.30086e-12 563.914

587.201 26.93 -5.92711e-12
26.93 583.017 -4.92313e-12
-5.92711e-12 -4.92313e-12 551.699

FIELD solute_concentration_TPM 2
S_ext 1 563 float
1.0202
1.02
1.02002
1.02
1.01997
1.02002
1.0202
1.02001
1.02004
1.02
1.02016
1.02001
1.02001
1.02
1.01997
1.02002
1.01999
1.02001
1.02004
1.02002
1.02003
1.01991
1.02003
1.02002
1.02002
1.02
1.02015
1.02002
1.02009
1.01994
1.02002
1.02009
1.02015
1.01995
1.01995
1.01995
1.01993
1.01995
1.02002
1.02015
1.02009
1.01993
1.01993
1.02001
1.02013
1.02009
1.02004
1.02003
1.02002
1.0201
1.0201
1.02008
1.01996
1.02008
1.01997
1.02013
1.01995
1.02008
1.01995
1.02002
1.01999
1.01998
1.02014
1.01999
1.01998
1.02
1.01999
1.02001
1.02002
1.02
1.01996
1.01996
1.02009
1.01999
1.02002
1.02016
1.01998
1.02
1.02
1.02007
1.02011
1.01996
1.01999
1.02011
1.02009
1.02013
1.02002
1.02
1.02013
1.01991
1.02008
1.01991
1.01997
1.02
1.02008
1.02009
1.02011
1.02
1.01998
1.02002
1.02006
1.02009
1.02011
1.02
1.02
1.02
1.01999
1.02002
1.02011
1.01999
1.02002
1.02012
1.02012
1.02001
1.02
1.02008
1.01995
1.02011
1.01995
1.02008
1.02005
1.01997
1.02
1.01999
1.01999
1.01997
1.01995
1.02
1.02011
1.02007
1.01996
1.02
1.01999
1.02
1.02009
1.01994
1.02012
1.02001
1.01999
1.01994
1.02008
1.02001
1.02005
1.02
1.02011
1.02
1.02001
1.02002
1.02002
1.02006
1.02003
1.02
1.02009
1.02001
1.02
1.02
1.02
1.02008
1.02008
1.02001
1.02003
1.02009
1.02012
1.02009
1.02008
1.02
1.02008
1.02009
1.02009
1.02008
1.01997
1.02008
1.02009
1.02
1.02008
1.01999
1.01997
1.02001
1.01997
1.02001
1.02009
1.02
1.02
1.02008
1.02
1.0201
1.01999
1.01999
1.01997
1.02
1.02
1.02011
1.02007
1.02009
1.02
1.02001
1.02001
1.01999
1.02
1.02
1.02
1.02004
1.02007
1.01999
1.02009
1.01999
1.02
1.02009
1.01998
1.02
1.01998
1.02
1.02
1.01999
1.02006
1.02
1.02007
1.01999
1.01999
1.01999
1.01999
1.01999
1.01999
1.01999
1.02
1.01997
1.01997
1.01997
1.01997
1.01997
1.01997
1.02006
1.02
1.02
1.02004
1.01997
1.01997
1.02
1.02007
1.02
1.02
1.02006
1.01998
1.02006
1.01999
1.02
1.02006
1.02007
1.02011
1.0201
1.01999
1.02012
1.02002
1.02007
1.02004
1.02
1.01999
1.01993
1.01999
1.02012
1.02007
1.02
1.02001
1.02007
1.01999
1.02005
1.01993
1.02007
1.01999
1.01999
1.02001
1.01997
1.02
1.01997
1.02001
1.02012
1.02013
1.01997
1.02003
1.02001
1.02006
1.01998
1.02
1.02007
1.02
1.02006
1.02001
1.02006
1.02007
1.01992
1.01997
1.01997
1.01997
1.02
1.02006
1.01995
1.01999
1.02003
1.02005
1.02006
1.01997
1.02006
1.01997
1.02006
1.02013
1.02005
1.02012
1.01999
1.02006
1.01992
1.02006
1.01999
1.02006
1.01999
1.02006
1.02002
1.02015
1.02002
1.02006
1.01997
1.02006
1.02003
1.01999
1.02
1.02006
1.02006
1.02005
1.01999
1.02005
1.02001
1.02002
1.01997
1.02006
1.02005
1.02003
1.02005
1.02006
1.02004
1.01998
1.02001
1.02005
1.02006
1.02001
1.02001
1.02006
1.01997
1.02016
1.02002
1.02011
1.02003
1.02022
1.02022
1.02022
1.02022
1.02022
1.02023
1.02023
1.01999
1.01995
1.02001
1.02003
1.02004
1.02005
1.02001
1.02005
1.02005
1.01995
1.02005
1.01998
1.02008
1.01998
1.02002
1.02003
1.02005
1.01997
1.02002
1.02003
1.02002
1.02003
1.02004
1.02007
1.02003
1.02002
1.01998
1.02004
1.02005
1.02004
1.02003
1.02002
1.02001
1.02004
1.02001
1.02002
1.02003
1.02001
1.02002
1.02004
1.01999
1.02003
1.01996
1.02013
1.01999
1.01998
1.02002
1.02003
1.02
1.02016
1.02002
1.02003
1.02015
1.01993
1.01993
1.02002
1.02004
1.02003
1.02004
1.0199
1.0199
1.02001
1.02001
1.02001
1.02017
1.02004
1.01999
1.02004
1.02004
1.02003
1.02016
1.01999
1.02004
1.02002
1.02002
1.02004
1.02003
1.02004
1.02004
1.02015
1.02011
1.02003
1.02002
1.02003
1.02004
1.02003
1.02003
1.02003
1.02013
1.01998
1.02004
1.02
1.01999
1.02013
1.02002
1.02002
1.01997
1.01992
1.01992
1.01997
1.02005
1.02002
1.02013
1.01992
1.0199
1.0199
1.02016
1.01995
1.01994
1.02002
1.01997
1.02001
1.02
1.01999
1.01999
1.02001
1.02016
1.02002
1.02
1.01999
1.02016
1.01994
1.02015
1.01999
1.02
1.02006
1.02001
1.02001
1.01996
1.02001
1.01996
1.02002
1.01999
1.01994
1.01994
1.02013
1.02
1.0202
1.0202
1.0202
1.01999
1.02017
1.0202
1.02004
1.0202
1.01996
1.01996
1.0202
1.02003
1.02015
1.0202
1.02015
1.0202
1.02015
1.01995
1.02014
1.02017
1.0202
1.02001
1.01998
1.02015
1.02001
1.0202
1.02001
1.02003
1.0202
1.02016
1.0202
1.02016
1.02002
1.01995
1.0199
1.0199
1.02
1.0199
1.0199
1.0199
1.01992
1.02013
1.01994
1.01997
1.01996
1.02
1.01991
1.01991
1.01995
1.02016
1.02003
1.02017
1.02016
1.02015
1.01992
1.01992
1.01993
1.01993
1.01992
1.01991
1.01993
1.01992
1.01991
1.01993
1.01993
1.01991
1.01991
1.01991
1.01993
P_ext 1 563 float
4.84695e-08
4.84585e-08
4.84602e-08
4.84586e-08
4.84542e-08
4.84601e-08
4.84695e-08
4.84593e-08
4.84613e-08
4.84586e-08
4.84676e-08
4.84593e-08
4.84596e-08
4.84586e-08
4.84553e-08
4.84601e-08
4.84576e-08
4.84592e-08
4.84617e-08
4.84604e-08
4.84608e-08
4.84462e-08
4.84605e-08
4.84603e-08
4.84605e-08
4.84589e-08
4.84672e-08
4.84598e-08
4.84646e-08
4.84503e-08
4.84598e-08
4.84645e-08
4.84674e-08
4.84518e-08
4.84517e-08
4.84518e-08
4.84501e-08
4.84521e-08
4.84597e-08
4.84674e-08
4.84645e-08
4.845e-08
4.84501e-08
4.84598e-08
4.84662e-08
4.84645e-08
4.84615e-08
4.84612e-08
4.846e-08
4.8465e-08
4.84647e-08
4.84636e-08
4.84541e-08
4.84638e-08
4.84543e-08
4.84666e-08
4.84517e-08
4.84637e-08
4.84517e-08
4.84603e-08
4.84576e-08
4.84566e-08
4.8467e-08
4.84567e-08
4.84565e-08
4.84579e-08
4.84575e-08
4.8459e-08
4.84605e-08
4.84582e-08
4.84541e-08
4.84542e-08
4.84646e-08
4.84574e-08
4.84602e-08
4.84677e-08
4.84556e-08
4.8458e-08
4.84589e-08
4.84632e-08
4.84654e-08
4.84537e-08
4.84569e-08
4.84656e-08
4.84644e-08
4.84664e-08
4.84599e-08
4.84577e-08
4.84662e-08
4.84468e-08
4.84637e-08
4.84468e-08
4.84552e-08
4.8458e-08
4.84637e-08
4.84647e-08
4.84656e-08
4.84587e-08
4.84556e-08
4.84598e-08
4.84625e-08
4.84644e-08
4.84655e-08
4.84591e-08
4.84587e-08
4.84589e-08
4.84567e-08
4.84599e-08
4.84656e-08
4.84578e-08
4.84602e-08
4.84661e-08
4.84657e-08
4.84591e-08
4.84589e-08
4.84638e-08
4.84517e-08
4.84657e-08
4.84517e-08
4.84637e-08
4.84619e-08
4.84556e-08
4.84583e-08
4.84575e-08
4.84575e-08
4.84552e-08
4.84523e-08
4.84587e-08
4.84656e-08
4.84636e-08
4.84538e-08
4.84585e-08
4.8457e-08
4.84584e-08
4.84644e-08
4.84514e-08
4.84661e-08
4.84595e-08
4.84568e-08
4.84515e-08
4.84642e-08
4.84588e-08
4.84618e-08
4.84586e-08
4.84657e-08
4.84589e-08
4.84588e-08
4.846e-08
4.84601e-08
4.84627e-08
4.8461e-08
4.84582e-08
4.84644e-08
4.84597e-08
4.84586e-08
4.84584e-08
4.84583e-08
4.84642e-08
4.84642e-08
4.84595e-08
4.84611e-08
4.84644e-08
4.84662e-08
4.84646e-08
4.84641e-08
4.84589e-08
4.84642e-08
4.84643e-08
4.84645e-08
4.84641e-08
4.84551e-08
4.84637e-08
4.84648e-08
4.84582e-08
4.84637e-08
4.84568e-08
4.84552e-08
4.84591e-08
4.84543e-08
4.84588e-08
4.84646e-08
4.84588e-08
4.84587e-08
4.84641e-08
4.84577e-08
4.84648e-08
4.84576e-08
4.84569e-08
4.84551e-08
4.84588e-08
4.84576e-08
4.84655e-08
4.84636e-08
4.84645e-08
4.84584e-08
4.84593e-08
4.84592e-08
4.84571e-08
4.84583e-08
4.8458e-08
4.84583e-08
4.84616e-08
4.84633e-08
4.84571e-08
4.84646e-08
4.8457e-08
4.84579e-08
4.84642e-08
4.84562e-08
4.84582e-08
4.8456e-08
4.84585e-08
4.84589e-08
4.84568e-08
4.84626e-08
4.84584e-08
4.84632e-08
4.8457e-08
4.84576e-08
4.84576e-08
4.84578e-08
4.84578e-08
4.84578e-08
4.84578e-08
4.84585e-08
4.84555e-08
4.84555e-08
4.84554e-08
4.84555e-08
4.84541e-08
4.84541e-08
4.84628e-08
4.84584e-08
4.84583e-08
4.84614e-08
4.84553e-08
4.84553e-08
4.84583e-08
4.84632e-08
4.84584e-08
4.84587e-08
4.84628e-08
4.8456e-08
4.84628e-08
4.84568e-08
4.84584e-08
4.84627e-08
4.84631e-08
4.84655e-08
4.8465e-08
4.8457e-08
4.84659e-08
4.84598e-08
4.84632e-08
4.84616e-08
4.84585e-08
4.84577e-08
4.845e-08
4.84578e-08
4.84661e-08
4.84631e-08
4.84583e-08
4.84592e-08
4.84633e-08
4.84577e-08
4.84618e-08
4.84501e-08
4.84632e-08
4.84575e-08
4.84576e-08
4.84592e-08
4.84553e-08
4.84577e-08
4.84542e-08
4.84596e-08
4.84661e-08
4.84665e-08
4.84547e-08
4.84607e-08
4.84592e-08
4.84629e-08
4.8456e-08
4.84583e-08
4.84631e-08
4.84581e-08
4.84625e-08
4.84588e-08
4.84626e-08
4.84631e-08
4.84483e-08
4.84549e-08
4.84552e-08
4.84553e-08
4.84586e-08
4.84626e-08
4.8452e-08
4.84578e-08
4.8461e-08
4.84625e-08
4.84629e-08
4.84548e-08
4.84627e-08
4.84552e-08
4.84628e-08
4.84662e-08
4.84624e-08
4.84657e-08
4.84568e-08
4.84627e-08
4.84483e-08
4.84627e-08
4.84571e-08
4.84628e-08
4.84574e-08
4.84627e-08
4.846e-08
4.84674e-08
4.84602e-08
4.84628e-08
4.84546e-08
4.84627e-08
4.84609e-08
4.84576e-08
4.84583e-08
4.84627e-08
4.84626e-08
4.84618e-08
4.84569e-08
4.84625e-08
4.84592e-08
4.84599e-08
4.84544e-08
4.84626e-08
4.84619e-08
4.84608e-08
4.84619e-08
4.84626e-08
4.84618e-08
4.84562e-08
4.84593e-08
4.8462e-08
4.84627e-08
4.84589e-08
4.84588e-08
4.84625e-08
4.84544e-08
4.8468e-08
4.84599e-08
4.84655e-08
4.84607e-08
4.84707e-08
4.84707e-08
4.84705e-08
4.84706e-08
4.84704e-08
4.8471e-08
4.8471e-08
4.84567e-08
4.84526e-08
4.84593e-08
4.84609e-08
4.84616e-08
4.84619e-08
4.84589e-08
4.84618e-08
4.8462e-08
4.84526e-08
4.84618e-08
4.84561e-08
4.84636e-08
4.84557e-08
4.846e-08
4.84611e-08
4.8462e-08
4.84547e-08
4.84601e-08
4.8461e-08
4.846e-08
4.84609e-08
4.84619e-08
4.84633e-08
4.84609e-08
4.84602e-08
4.84561e-08
4.84615e-08
4.84619e-08
4.84617e-08
4.84611e-08
4.84602e-08
4.84588e-08
4.84616e-08
4.84589e-08
4.84602e-08
4.8461e-08
4.84592e-08
4.84602e-08
4.84618e-08
4.84574e-08
4.84609e-08
4.8453e-08
4.84662e-08
4.84569e-08
4.84562e-08
4.84601e-08
4.8461e-08
4.8458e-08
4.8468e-08
4.846e-08
4.8461e-08
4.84673e-08
4.84486e-08
4.84485e-08
4.84599e-08
4.84617e-08
4.84609e-08
4.84616e-08
4.84454e-08
4.84454e-08
4.8459e-08
4.84592e-08
4.84592e-08
4.84683e-08
4.84618e-08
4.84571e-08
4.84613e-08
4.84614e-08
4.84611e-08
4.84679e-08
4.84574e-08
4.84618e-08
4.84601e-08
4.84601e-08
4.84614e-08
4.8461e-08
4.84613e-08
4.84613e-08
4.84674e-08
4.84657e-08
4.8461e-08
4.846e-08
4.8461e-08
4.84615e-08
4.8461e-08
4.84608e-08
4.84609e-08
4.84663e-08
4.84556e-08
4.84615e-08
4.8458e-08
4.84575e-08
4.84663e-08
4.84601e-08
4.84602e-08
4.84543e-08
4.84483e-08
4.84484e-08
4.84546e-08
4.84619e-08
4.846e-08
4.84665e-08
4.84487e-08
4.84459e-08
4.8446e-08
4.84681e-08
4.8452e-08
4.84504e-08
4.84603e-08
4.84554e-08
4.84595e-08
4.84584e-08
4.84573e-08
4.8457e-08
4.84592e-08
4.8468e-08
4.846e-08
4.84582e-08
4.84572e-08
4.84677e-08
4.84512e-08
4.84677e-08
4.84572e-08
4.84586e-08
4.84626e-08
4.84598e-08
4.84593e-08
4.84537e-08
4.84591e-08
4.84537e-08
4.84602e-08
4.84573e-08
4.84506e-08
4.84506e-08
4.84666e-08
4.84581e-08
4.84696e-08
4.84696e-08
4.84696e-08
4.84577e-08
4.84683e-08
4.84696e-08
4.84615e-08
4.84695e-08
4.84535e-08
4.84536e-08
4.84695e-08
4.84607e-08
4.84676e-08
4.84698e-08
4.84675e-08
4.84698e-08
4.84675e-08
4.84518e-08
4.84668e-08
4.84682e-08
4.84694e-08
4.84595e-08
4.84566e-08
4.84677e-08
4.84593e-08
4.84695e-08
4.84588e-08
4.84606e-08
4.84699e-08
4.84677e-08
4.84699e-08
4.8468e-08
4.84602e-08
4.84529e-08
4.84461e-08
4.84463e-08
4.84584e-08
4.8446e-08
4.84461e-08
4.84462e-08
4.84477e-08
4.84666e-08
4.8451e-08
4.84547e-08
4.84527e-08
4.84585e-08
4.84473e-08
4.84473e-08
4.84526e-08
4.8468e-08
4.84608e-08
4.84684e-08
4.84678e-08
4.84674e-08
4.84489e-08
4.8449e-08
4.84492e-08
4.84492e-08
4.8449e-08
4.84463e-08
4.84493e-08
4.84471e-08
4.8446e-08
4.84489e-08
4.84489e-08
4.8446e-08
4.84464e-08
4.84472e-08
4.84492e-08
FIELD solute_flux_TPM 2
S_ext 3 563 float
-5.57751e-05 1.86647e-05 -9.36103e-19
2.34511e-06 4.56866e-06 -3.32089e-19
-8.51169e-06 -6.78758e-06 8.39552e-19
-2.80219e-06 2.82143e-06 -4.19403e-18
1.52451e-05 -4.34211e-06 1.55745e-18
1.87145e-06 -1.06399e-05 -1.01854e-18
-5.49228e-05 -1.88917e-05 -1.38322e-18
-9.2386e-06 -6.93305e-06 6.73823e-19
1.49008e-05 6.21708e-07 -3.28991e-19
7.6797e-06 -2.6606e-06 1.15984e-18
3.71035e-05 8.64097e-06 -6.27601e-19
1.59357e-06 -1.14689e-05 3.2095e-19
9.15902e-06 7.52781e-06 2.85475e-18
1.74329e-06 9.16023e-06 3.53942e-18
1.38215e-05 -2.00376e-06 -6.67273e-19
-1.08275e-05 -1.76556e-07 5.05966e-19
1.80912e-06 9.38175e-06 8.42089e-21
6.87286e-06 -1.63152e-06 9.94125e-19
6.63371e-06 1.15735e-05 -3.28413e-19
-9.87175e-06 1.24256e-06 -1.99926e-18
-2.42176e-06 -1.41807e-05 2.65583e-18
2.86328e-05 4.03956e-05 3.01478e-18
1.05981e-05 1.07649e-06 -1.33242e-18
7.55645e-06 -7.583e-06 -1.84784e-18
-1.00184e-05 -2.20201e-06 -1.99583e-18
-4.72016e-07 -7.40455e-06 -4.18739e-18
4.25818e-05 -3.33892e-06 1.25781e-18
9.46456e-06 6.88597e-06 5.18121e-18
-1.68068e-05 -1.36349e-05 -1.61645e-18
3.2473e-05 -8.5804e-06 3.14106e-18
-1.09925e-05 -3.99903e-06 -3.00832e-18
3.57879e-06 -2.1544e-05 -4.69281e-18
3.19506e-05 -3.25727e-05 2.82435e-18
-3.4548e-06 -2.77705e-05 -4.15947e-18
-1.95985e-05 2.44201e-05 -1.7201e-18
-2.57756e-05 -1.08835e-05 -1.75811e-19
2.1512e-05 2.81927e-05 4.88068e-18
-2.96483e-05 -5.78933e-06 3.45088e-18
9.68852e-06 -7.42761e-06 -6.90929e-19
3.12127e-05 3.39419e-05 -2.5104e-18
2.16919e-05 -9.50579e-06 1.6062e-18
2.19443e-05 -2.71341e-05 8.83988e-19
-1.25332e-05 -3.25514e-05 -7.48961e-18
-1.05432e-05 4.21522e-06 1.67589e-18
2.04172e-05 -1.99733e-05 -1.42308e-18
-2.01187e-05 7.15574e-06 -1.12977e-18
-2.75439e-06 -1.35502e-05 6.55619e-19
5.28651e-06 1.35159e-05 1.67351e-19
-1.08701e-05 3.92197e-06 -4.96073e-19
-1.21058e-05 1.90293e-05 1.61192e-19
2.18929e-05 1.03262e-05 1.44131e-18
1.97612e-05 -6.8472e-06 1.59127e-19
-1.04153e-05 1.04607e-05 -1.02768e-18
-1.56405e-05 -1.36008e-05 3.91038e-18
-1.40532e-05 -3.42194e-06 -1.03856e-18
-2.97879e-05 1.77309e-05 -3.01611e-18
-1.94011e-05 -2.51301e-05 1.3779e-18
4.14045e-06 -2.04583e-05 -1.46877e-18
-3.14712e-05 4.27844e-06 -6.83457e-19
4.0761e-06 9.17521e-06 -1.65721e-18
-3.70057e-06 -5.41707e-06 -1.85722e-18
-4.35656e-06 -1.19021e-05 8.44918e-19
3.84704e-05 1.67719e-05 -3.15647e-19
6.14798e-06 1.20587e-05 8.60816e-19
8.18084e-06 -9.59757e-06 -2.19325e-18
-1.0887e-06 -1.38246e-05 -6.78974e-19
3.06512e-06 -5.85246e-06 -7.57387e-18
-6.70321e-06 -3.68216e-06 -4.35824e-18
-7.09932e-06 7.91837e-06 -1.66412e-19
1.7269e-06 -2.78452e-06 -1.19961e-18
-9.98467e-06 -1.05236e-05 2.39778e-18
-1.41726e-05 3.43014e-06 1.76643e-19
-2.5747e-06 2.2956e-05 1.592e-19
-1.18846e-05 7.10471e-06 1.17942e-18
-6.06665e-06 9.69607e-06 4.00669e-18
-3.9752e-05 4.93401e-06 1.56133e-18
5.22389e-06 -1.44068e-05 -3.40444e-19
-1.2549e-05 -5.88655e-06 -4.72631e-18
1.31399e-06 7.76015e-06 -4.93495e-19
1.77664e-05 3.41587e-06 -2.77141e-18
2.29847e-05 -1.96029e-05 -2.41394e-18
1.47713e-05 1.36266e-05 1.22116e-18
8.01937e-06 -1.92653e-06 -1.17677e-18
-2.14017e-05 1.56919e-05 -3.03338e-18
2.55413e-05 3.26822e-06 -2.27449e-18
-3.69173e-06 3.28901e-05 -1.26724e-18
-1.19196e-06 -1.12222e-05 8.35001e-19
1.22111e-05 6.65586e-06 3.44791e-19
1.96362e-05 2.05706e-05 -2.36886e-18
4.25496e-05 2.64487e-05 -3.70446e-18
-3.65877e-06 2.056e-05 1.46379e-18
4.44423e-05 -2.49749e-05 1.55431e-19
-1.80583e-05 3.52641e-06 -5.19184e-19
1.20264e-05 7.39778e-06 4.07625e-21
-1.96481e-05 6.52369e-06 3.3014e-19
1.10943e-05 1.92592e-05 -8.00806e-19
6.61086e-06 -2.96678e-05 2.71846e-18
1.32001e-06 7.75462e-06 -1.49922e-18
-9.79521e-06 -1.16994e-05 -3.41575e-18
2.07175e-06 1.16642e-05 5.1057e-19
1.77821e-05 3.53984e-06 -3.77506e-18
-1.03863e-05 2.20622e-05 3.40459e-18
2.73124e-05 -9.09918e-06 -1.12749e-18
-2.54015e-06 4.94923e-06 -1.69551e-19
6.70691e-06 3.94759e-06 -3.25154e-19
-1.5273e-06 -7.52832e-06 -5.18973e-18
2.13546e-06 -1.28197e-05 5.14851e-19
1.17682e-05 2.60049e-06 -2.34229e-18
-5.5361e-06 2.7444e-05 -1.43706e-18
-6.55599e-06 1.51814e-07 -2.53221e-18
6.27399e-06 7.97597e-06 2.33544e-18
-1.81826e-06 -2.79824e-05 2.69623e-18
2.83311e-05 8.78446e-06 -4.82835e-19
3.00938e-06 -4.98422e-06 -1.0285e-18
-7.39783e-06 -2.35212e-06 -4.6946e-18
-1.94146e-05 -8.2437e-06 4.84204e-19
1.06676e-05 2.77917e-05 1.20249e-18
-2.8628e-05 -1.01929e-05 -6.40134e-18
1.08167e-05 -2.78655e-05 3.26826e-18
-2.54012e-06 -2.13104e-05 1.78707e-18
1.47399e-05 4.09789e-07 2.1414e-18
-4.79206e-06 1.2258e-05 2.39531e-18
-1.03962e-06 2.63441e-06 -1.52572e-19
-2.42636e-06 -1.10201e-05 3.87642e-18
3.53418e-06 -5.63197e-06 9.84931e-19
6.2117e-06 1.05305e-05 2.2383e-18
2.23819e-05 7.2902e-06 -1.73612e-18
5.84059e-06 -4.98037e-06 -4.3942e-18
-5.67807e-06 -3.00287e-05 1.58583e-19
1.71994e-05 -1.27006e-05 4.87785e-19
3.30732e-06 1.849e-05 -2.72844e-18
-1.87157e-06 -1.87897e-06 -1.17283e-18
-5.72244e-06 -5.53024e-06 3.0341e-18
-3.18613e-06 3.42264e-08 2.70411e-18
-1.52569e-05 1.88437e-05 -5.01568e-18
1.29182e-05 -2.50535e-05 1.73148e-19
-1.78626e-05 2.82256e-05 -2.71096e-18
-1.08688e-05 6.30366e-06 -1.33916e-18
1.69619e-06 8.20303e-06 4.89965e-18
-1.52082e-05 -2.36966e-05 -1.7759e-19
9.25381e-06 2.24302e-05 3.28698e-19
1.17876e-05 6.26142e-06 1.85884e-18
1.53541e-05 -5.77606e-06 1.15066e-18
-8.01541e-07 -7.51477e-06 1.49767e-18
-2.24816e-05 -2.06771e-05 1.56757e-19
-1.8603e-06 7.5209e-06 -2.5126e-18
1.16096e-05 6.83774e-06 1.35148e-18
1.27233e-05 -5.96811e-06 -1.31781e-20
5.57212e-06 -9.60588e-06 -1.52172e-18
1.64256e-05 -7.29204e-06 -6.57663e-19
1.28212e-05 -6.07068e-06 1.31648e-18
3.16986e-06 1.67913e-07 -2.20974e-18
1.7286e-05 1.36844e-05 4.84579e-18
-1.83956e-06 -1.13194e-05 -8.33775e-19
-6.97511e-06 -2.95678e-06 1.51851e-18
7.37808e-07 -2.58375e-06 -3.84437e-18
-2.08504e-06 1.05613e-05 2.19964e-18
-2.30088e-05 1.8115e-06 1.63411e-19
-8.14691e-06 -2.20684e-05 1.13448e-18
-5.27334e-06 6.49917e-06 -5.88687e-22
9.10392e-06 1.11464e-05 3.49308e-18
1.78355e-05 -1.27172e-05 -4.63719e-21
-2.45216e-05 -1.32875e-05 -3.10051e-19
1.15933e-05 -1.85977e-05 3.14898e-19
1.52781e-05 -1.83145e-05 1.29471e-18
-7.26945e-06 2.52152e-06 -1.34063e-18
-1.32189e-05 -1.9029e-05 1.29601e-18
-2.29919e-05 -3.81697e-06 -3.56555e-18
-2.77386e-06 -2.11577e-05 -9.68996e-19
1.02648e-05 -2.12456e-05 -2.60246e-18
-6.05574e-06 -1.74409e-05 -8.60709e-19
2.94865e-06 2.098e-05 -4.83018e-19
-1.06831e-05 -1.8917e-05 6.41577e-19
1.94713e-06 -1.08368e-05 -3.36343e-18
-1.64496e-05 1.19863e-05 -2.7633e-18
-9.98903e-06 -8.03627e-06 -4.74375e-18
-1.81767e-05 -3.41856e-06 -3.74805e-18
1.05708e-05 -6.19132e-06 3.84451e-18
-2.86604e-06 1.58995e-05 1.20541e-18
8.27093e-06 -6.26529e-06 3.10503e-19
-1.96353e-05 -8.61245e-06 -1.93125e-18
-5.88102e-06 -4.95099e-06 1.69221e-18
6.12846e-06 5.03305e-06 8.50631e-19
1.43581e-05 1.9297e-05 1.95521e-18
-1.16123e-05 -7.17062e-06 -2.53237e-18
-2.15452e-05 -5.19452e-07 -4.65755e-18
-1.08642e-05 -3.32105e-06 2.36817e-18
-3.02979e-06 -1.1033e-05 1.85745e-18
1.19289e-05 1.43163e-05 6.86221e-19
-7.31414e-06 3.89233e-06 1.50535e-18
4.32761e-07 -1.3681e-05 -4.05818e-18
-2.77055e-05 7.09437e-06 3.20369e-19
1.67346e-05 1.36345e-05 1.96138e-18
2.41825e-06 2.20338e-05 4.84441e-19
-1.61758e-06 2.52902e-06 -3.02117e-18
-6.01808e-06 1.68911e-07 2.01195e-18
2.95122e-06 5.18808e-06 -1.83036e-18
-7.77443e-06 2.27004e-06 1.01818e-18
-1.33693e-06 -2.50606e-06 3.00839e-18
1.09515e-06 1.3823e-05 -3.7042e-18
3.03758e-06 2.79594e-07 -1.33097e-18
-1.29803e-05 3.12815e-06 2.64466e-18
-1.16138e-05 1.28274e-05 -3.91616e-18
-2.06367e-06 7.69431e-06 1.53338e-18
-1.94945e-05 1.21341e-05 -4.99486e-18
-6.21095e-06 5.96834e-06 -1.61772e-19
1.16757e-05 -7.85743e-06 3.52321e-18
2.46583e-05 -2.44469e-06 -3.3222e-19
-1.4082e-05 7.485e-06 2.03724e-18
1.50673e-06 3.01105e-06 -8.52363e-19
1.47066e-05 -2.89283e-06 4.39916e-18
-1.14934e-05 6.8757e-06 -2.02373e-18
-6.5688e-06 3.67152e-06 -1.34328e-18
8.0033e-06 2.55489e-06 1.50098e-18
1.47095e-05 -9.1161e-06 9.76128e-19
-1.15628e-05 6.58404e-06 -1.01159e-18
-1.66134e-05 -3.49207e-06 -4.73379e-18
-1.11254e-05 -2.88775e-06 -1.35405e-18
6.70282e-06 3.30804e-08 -3.56021e-18
6.86976e-06 1.08261e-07 1.80776e-19
2.90425e-06 5.5336e-06 -1.60426e-19
3.20831e-06 -5.85609e-06 -1.65814e-18
-3.33747e-06 5.61279e-06 -3.24812e-19
-3.49985e-06 -5.74589e-06 -1.68695e-18
6.68865e-06 -5.01066e-06 3.68193e-18
-1.35329e-05 2.15074e-06 4.76378e-21
-1.33811e-05 -2.19385e-06 -3.07793e-18
-8.53592e-06 1.05813e-05 -3.40346e-18
-8.58502e-06 -1.06229e-05 -2.05345e-18
5.01919e-06 -1.34098e-05 1.00403e-18
4.8357e-06 1.32942e-05 -6.95908e-21
9.83932e-07 1.73407e-05 -8.17086e-19
7.59543e-06 -2.08424e-06 -1.87463e-18
1.64343e-06 -2.56393e-06 1.4509e-19
-1.41774e-05 9.42581e-07 -3.26098e-19
5.18504e-06 -1.31935e-05 -1.38806e-18
4.91245e-06 1.32415e-05 1.8636e-18
3.22165e-06 -6.00291e-08 -1.02167e-18
5.96236e-06 1.64103e-05 1.68879e-19
-1.50178e-06 -2.67075e-06 -8.18093e-19
1.60343e-06 -7.55013e-06 9.86844e-19
-1.48938e-05 -7.99535e-06 -2.12886e-18
-1.42081e-05 -7.61505e-06 -6.46253e-18
-1.45876e-05 9.01056e-06 -3.10896e-18
2.18546e-06 -8.31134e-06 2.17658e-18
-1.06669e-06 2.24222e-06 -2.17832e-18
-4.79132e-07 -1.70421e-05 -6.5484e-19
-5.25188e-06 -1.62374e-05 1.14552e-18
2.19985e-05 2.05047e-05 -3.11139e-19
2.39937e-05 -1.24401e-06 -3.27312e-19
-8.4713e-06 -2.43487e-06 -5.59849e-18
-1.53417e-05 -2.73131e-05 -4.15214e-18
5.59028e-06 9.1903e-06 -2.1642e-18
-1.67471e-05 1.97608e-06 8.19926e-19
1.35439e-05 3.87929e-06 -9.92365e-19
-3.01575e-06 -1.26556e-08 -1.1689e-18
-3.07204e-06 -5.60424e-06 2.50948e-18
-5.44037e-06 -2.58936e-05 -1.22951e-18
-6.47081e-06 -5.11373e-08 3.70922e-18
-3.18874e-05 -1.19724e-06 -1.60039e-18
1.16023e-05 -1.2902e-05 -8.18217e-19
1.67271e-06 2.6575e-06 -9.89591e-19
-6.64136e-08 -1.16848e-05 -1.0126e-18
-6.66871e-06 1.60096e-05 1.1386e-18
-2.88661e-06 5.74988e-06 1.18852e-18
1.38458e-05 -9.16579e-06 8.15694e-19
-2.51403e-05 -8.21619e-06 -1.21255e-18
-1.0238e-05 -1.35083e-05 -4.92197e-19
3.36227e-06 5.64119e-06 1.50485e-18
1.12014e-05 3.43521e-06 1.52466e-18
-3.18554e-06 -4.87861e-06 -3.50797e-18
1.33619e-05 2.41476e-06 -3.08614e-18
1.22775e-05 -6.60932e-06 3.70085e-18
-2.56967e-07 1.80452e-05 -3.93844e-18
5.61403e-06 -9.13656e-06 6.41459e-19
3.29543e-05 1.4161e-06 -1.65675e-19
-2.79942e-05 7.29747e-06 -3.15901e-19
1.54345e-05 7.72173e-06 -2.22774e-18
-4.32281e-06 -1.14029e-05 -2.82576e-18
-1.01993e-05 -5.71525e-06 1.34063e-18
1.93875e-05 -1.61241e-07 -9.85971e-19
-4.75104e-07 -1.61579e-05 3.36221e-19
-8.36839e-06 -7.20863e-06 -1.68649e-18
6.81423e-06 -1.58153e-05 -2.4563e-18
-3.50939e-07 1.36885e-05 -3.02656e-18
5.25317e-06 1.74327e-05 1.64744e-18
1.1636e-05 -6.67245e-06 1.83149e-18
-1.26237e-05 1.27354e-05 -5.41932e-18
1.10727e-05 1.35016e-05 3.9201e-18
-4.32927e-05 1.0331e-05 4.88926e-18
-6.73329e-06 1.73124e-05 6.88601e-19
8.32048e-06 -1.0135e-05 -5.43905e-18
-4.66153e-06 -1.22006e-05 -1.20435e-18
-7.9057e-06 2.98181e-06 -1.68482e-18
-1.71249e-05 -4.65572e-06 -1.80826e-18
-4.46037e-06 2.61116e-05 -1.36883e-18
-8.37641e-06 7.91698e-06 -1.01002e-18
1.39973e-05 -3.0446e-06 -3.33575e-19
-4.62104e-06 -1.71615e-05 4.6001e-18
-9.94523e-06 1.58309e-05 1.60431e-19
-1.44808e-05 8.33335e-06 1.19233e-18
-1.36909e-05 -9.96786e-06 3.11516e-18
1.21776e-05 -1.39865e-05 3.38851e-18
-1.81912e-05 -9.6292e-07 -1.4783e-18
8.04398e-06 -2.75912e-05 2.53295e-18
1.30269e-05 -1.27176e-05 -1.7138e-19
1.64759e-05 2.89542e-05 -2.07832e-18
1.28862e-06 1.32218e-05 -8.39845e-19
1.93854e-06 -1.70336e-05 -2.62301e-18
-2.81688e-05 3.30563e-05 5.6031e-18
-8.48596e-06 -1.61807e-05 2.95367e-18
1.10609e-05 -4.31775e-06 4.20396e-18
-1.71113e-06 1.71716e-05 6.5535e-19
8.69392e-06 -8.00624e-06 1.46977e-19
9.28513e-06 1.62936e-05 -6.52701e-19
1.16078e-05 -9.69367e-07 -1.67497e-18
1.44361e-05 -4.22864e-05 3.31376e-18
-3.93918e-06 -8.55498e-06 -5.67058e-18
-1.53988e-05 6.61811e-06 1.15354e-18
-1.33354e-05 1.24401e-05 8.55304e-19
1.45222e-05 9.82214e-06 8.20444e-19
1.25664e-05 -7.26652e-06 -1.17354e-18
1.00629e-05 8.45748e-06 6.82494e-19
-3.63657e-06 1.67821e-08 -8.43137e-19
1.03101e-05 -1.54883e-05 9.77573e-19
-1.13089e-05 -1.34834e-05 1.47874e-18
1.51789e-05 6.57951e-06 -1.15073e-18
8.63821e-06 -8.0894e-06 9.96074e-19
6.35727e-06 -1.66273e-05 -1.32498e-18
1.12273e-05 -4.69833e-06 1.16496e-18
-1.04979e-05 -4.98467e-06 -4.99474e-19
8.68937e-07 -1.74679e-05 -1.72141e-18
-1.72755e-05 2.95251e-06 2.30753e-18
1.53707e-06 1.63769e-05 -1.15015e-18
1.38588e-05 4.44968e-06 -6.62482e-19
-1.44047e-05 -7.08099e-06 1.31364e-18
-6.04094e-06 1.70377e-05 -2.0442e-21
-1.0286e-06 -1.61409e-05 6.61097e-19
1.31099e-05 7.94767e-06 1.53014e-18
-1.20346e-06 1.20407e-05 5.09378e-19
-1.33928e-05 9.02487e-06 -2.312e-18
1.5856e-05 7.68149e-06 1.14888e-18
-1.1351e-05 -6.6226e-06 -1.67859e-18
5.70117e-08 -1.3202e-05 -2.52347e-18
1.2345e-05 1.34191e-05 1.70172e-19
-1.46801e-05 -9.47522e-06 -6.16981e-18
3.26386e-05 -2.33579e-05 1.23008e-18
1.20669e-05 -7.28327e-06 2.1531e-18
5.81903e-06 2.88208e-05 3.52449e-18
1.1472e-05 -9.19325e-06 -6.80787e-19
-1.52128e-05 5.86455e-05 -4.32383e-18
-1.52922e-05 -5.80871e-05 -1.72253e-20
3.81707e-05 4.99063e-05 -4.42132e-19
3.77109e-05 -4.98941e-05 1.93167e-18
6.23304e-05 -3.03223e-08 3.96071e-22
-5.36385e-05 2.17269e-05 -2.91603e-19
-5.27674e-05 -2.19542e-05 -1.19189e-18
8.24844e-06 7.93183e-06 -3.38088e-19
1.98135e-05 1.47381e-05 1.55083e-18
7.72735e-06 2.22381e-06 2.17462e-18
1.27131e-05 6.54591e-06 -3.24668e-19
3.31962e-06 1.35214e-05 -1.48012e-18
-1.25146e-05 -9.88198e-06 3.13589e-18
1.1502e-05 -6.86457e-06 1.99728e-18
1.33672e-05 9.77553e-06 -4.88461e-19
-2.16218e-06 1.62594e-05 2.69236e-21
1.99087e-05 -1.35341e-05 6.71785e-19
2.48947e-06 -1.58455e-05 1.9824e-18
1.47917e-05 3.46109e-06 4.93578e-18
2.01118e-05 7.45466e-06 -1.46338e-18
9.4424e-06 9.4021e-06 2.7414e-18
1.07147e-05 4.41898e-06 -3.6678e-18
-1.2313e-05 7.24314e-06 1.61503e-19
-1.49768e-05 5.97389e-06 1.6689e-19
1.54998e-05 -7.57469e-06 4.59855e-18
-1.21199e-05 -6.6249e-06 5.05462e-19
-1.23236e-05 -6.98273e-06 1.22852e-21
-2.36443e-07 -1.38446e-05 -2.17048e-18
-9.78308e-08 -1.41007e-05 3.29451e-19
-1.33648e-05 -6.69434e-07 -2.96361e-18
1.80343e-05 -2.73745e-06 9.73643e-19
1.21805e-05 7.63137e-06 -4.8948e-19
-1.18842e-05 7.22564e-06 -1.00055e-18
-1.02035e-05 1.1049e-05 -1.3621e-18
1.07706e-05 -9.27664e-06 -1.38761e-20
-7.41236e-06 1.1598e-05 -3.13026e-18
-9.49195e-06 -9.87959e-06 6.60379e-19
-8.27907e-07 1.41298e-05 -1.16066e-18
-8.83246e-07 1.39786e-05 1.34494e-18
4.05279e-08 -1.32066e-05 -4.03696e-18
4.08964e-06 -1.3241e-05 -1.74766e-19
-1.13864e-05 -6.5656e-06 -1.67984e-18
1.05188e-05 -3.71238e-06 -1.50485e-18
4.1873e-07 1.43532e-05 -1.81438e-18
1.64955e-07 1.23182e-05 5.13697e-19
-1.61142e-06 1.12159e-05 -2.49737e-18
1.47729e-05 -3.73467e-06 9.90184e-19
-1.10264e-05 3.55813e-06 1.00688e-18
2.76044e-06 1.43666e-05 -3.17641e-19
-2.17608e-05 8.54527e-06 3.9591e-18
6.31089e-06 2.81906e-05 -1.57824e-18
-1.13452e-05 3.01929e-06 1.35352e-18
1.32934e-05 -7.8592e-06 2.8659e-18
5.99702e-07 1.40121e-05 -3.20819e-19
-1.35769e-05 4.4311e-06 2.15767e-18
1.61119e-06 -1.08119e-05 -3.36988e-18
6.08071e-07 -3.9095e-05 -3.25642e-21
1.34225e-06 1.16889e-05 -9.89848e-19
-1.12955e-05 9.26519e-06 3.31791e-18
1.16335e-05 4.28323e-05 7.89427e-19
3.15296e-05 2.6146e-05 8.67743e-19
3.61393e-05 -2.47272e-05 -8.91346e-19
9.98102e-06 -6.85279e-06 -1.01729e-18
-1.05499e-05 9.30563e-06 -2.14279e-18
-1.33957e-05 -5.242e-06 3.33599e-19
-1.30444e-05 -4.49862e-06 4.96705e-19
4.44111e-05 -1.22012e-05 -1.72917e-20
4.53036e-05 9.52507e-06 -3.90815e-18
7.34856e-06 2.54736e-06 1.83687e-18
5.0943e-07 1.3054e-05 3.86924e-18
4.47458e-08 1.30443e-05 -1.56346e-19
-3.25733e-05 -2.38301e-05 -1.85374e-18
7.66461e-06 -1.15548e-05 -2.81415e-18
7.91314e-06 8.38329e-06 -1.18857e-18
-1.41788e-05 -2.24802e-06 1.82217e-18
-9.37087e-06 1.1392e-05 -2.4862e-18
-1.25557e-05 6.04271e-06 4.98081e-19
3.22312e-05 2.31207e-05 9.26582e-19
1.06382e-05 4.72875e-06 2.19981e-18
-3.78515e-06 1.33284e-05 -6.76956e-18
-1.12831e-05 -7.76531e-06 3.35335e-19
1.22887e-06 -1.36978e-05 -2.34274e-18
-5.98135e-06 -1.28067e-05 -6.35275e-22
-1.14662e-05 -7.80292e-06 -3.15391e-18
7.09105e-06 -1.26797e-05 -3.4965e-18
9.4982e-06 -1.1395e-05 -8.40246e-19
-1.99267e-06 -4.09075e-05 6.2925e-19
1.743e-05 -2.76529e-05 -1.67052e-19
1.16308e-06 -1.38958e-05 -2.49209e-18
1.20952e-05 7.60981e-06 -4.96072e-19
-9.63488e-06 -9.86008e-06 -3.32076e-19
-6.59031e-06 1.30908e-05 -4.14301e-18
-3.39567e-06 1.3984e-05 -2.32474e-18
1.11835e-05 9.5474e-06 2.66619e-18
4.04877e-06 -1.32693e-05 -1.67019e-18
-9.36093e-06 -2.68034e-05 -4.27095e-18
-1.35228e-06 1.66861e-05 -3.39683e-18
9.93761e-06 9.72668e-06 3.97222e-18
-8.59715e-06 -6.76152e-06 -1.01425e-18
-8.99436e-06 7.02713e-06 -5.03412e-19
3e-05 -1.29011e-05 1.49526e-19
5.08816e-06 -8.96331e-06 3.1455e-19
-5.55786e-06 -8.37918e-06 -2.66689e-18
1.43853e-05 4.37189e-06 3.23087e-19
8.82281e-06 -3.1833e-05 5.20302e-19
-2.31617e-05 -2.35376e-05 -3.85366e-18
1.56923e-05 4.13265e-06 1.88183e-18
-6.26565e-06 -1.21439e-05 1.59105e-19
1.25907e-05 6.37511e-06 -1.33331e-18
-1.93116e-05 -2.14369e-05 -3.47206e-18
7.14433e-06 3.23707e-05 4.55189e-18
3.13469e-05 -4.04795e-05 2.47804e-18
-1.93845e-05 -4.73772e-05 -5.35253e-19
1.82138e-05 -3.56163e-05 -4.69379e-19
-8.44256e-06 2.8932e-05 -1.0307e-18
-4.80169e-06 2.56335e-05 -1.56071e-19
-1.2451e-05 5.92988e-06 2.00026e-18
3.99547e-06 1.61357e-05 -5.10803e-18
-1.62863e-06 8.4079e-06 3.18107e-18
6.82691e-06 2.15741e-06 1.5777e-19
-2.10471e-06 1.07974e-05 -1.51133e-18
-1.67652e-07 1.39727e-05 -4.3978e-18
1.12264e-05 6.53394e-06 1.3465e-18
5.64542e-07 3.89101e-05 -3.71727e-18
-9.80302e-06 7.10966e-06 -1.84057e-18
1.07498e-05 -4.18768e-06 3.85297e-18
1.14054e-05 -3.01149e-06 -4.08628e-18
-3.98854e-05 -5.72247e-06 -2.81222e-18
-2.29829e-05 1.0933e-05 3.63142e-18
-2.89475e-05 -3.43209e-05 -5.20624e-18
5.74082e-06 5.53523e-06 -6.66748e-19
9.57578e-06 4.89439e-06 1.00838e-18
1.8052e-05 -2.86581e-06 -2.13073e-18
-5.39949e-06 -8.79144e-06 -4.01045e-18
1.15968e-05 5.65878e-06 4.86802e-18
4.88354e-06 -1.9988e-05 2.75517e-18
-9.14648e-06 6.75972e-06 -3.36231e-19
-1.48614e-05 -1.42224e-05 -1.72222e-18
-3.91635e-06 1.08379e-05 2.34283e-18
-2.1805e-06 1.37731e-05 2.20625e-18
2.2953e-05 1.42587e-05 1.72823e-19
2.44694e-05 -1.29906e-05 2.2433e-18
-2.7834e-05 -7.49842e-06 -4.43048e-18
5.14769e-06 5.15698e-06 1.51104e-18
-3.27399e-06 6.80738e-05 -3.08965e-18
-2.21877e-08 -6.99254e-05 1.83236e-18
3.44633e-05 5.89794e-05 6.19284e-19
-1.27206e-05 5.59458e-06 -2.20314e-18
-1.84807e-05 3.73122e-05 -3.09437e-19
3.46746e-05 -5.69266e-05 2.44983e-18
-7.81851e-06 -1.21125e-05 -4.97423e-18
5.27216e-05 4.5909e-05 9.23806e-19
1.59781e-05 -1.19084e-05 -5.84635e-18
-2.34168e-06 -1.97822e-05 -6.20883e-18
5.52417e-05 -4.48909e-05 -1.39586e-18
-4.54329e-06 9.65448e-06 2.6625e-18
-3.53761e-05 -2.24754e-05 -3.13871e-18
-2.91574e-05 -6.08759e-05 -4.32193e-18
-1.6502e-05 -3.85041e-05 -5.48998e-18
-2.99757e-05 6.18738e-05 -2.93192e-18
-7.0976e-06 4.27886e-05 -1.71666e-18
1.06866e-05 2.4869e-05 -1.89079e-18
-1.8975e-05 2.43847e-05 -4.10951e-18
-1.76832e-05 -3.63216e-05 -5.8859e-18
6.7838e-05 1.19004e-05 2.16892e-18
-1.12698e-05 7.11915e-06 4.99319e-19
-3.93396e-06 1.08603e-05 1.87209e-18
-3.35494e-05 2.41656e-05 9.40254e-19
-1.14928e-05 6.59009e-06 -6.30854e-21
6.71698e-05 -1.0609e-05 1.68867e-18
-1.02269e-05 5.1655e-06 -5.08948e-19
4.84429e-06 -9.72743e-06 -8.48363e-19
-5.21614e-05 -3.97401e-05 -3.39425e-18
-1.77782e-05 3.85415e-05 -3.28716e-18
-5.34051e-05 3.94557e-05 -9.25261e-19
1.61086e-05 3.54838e-05 1.88879e-21
-9.85061e-06 7.01561e-06 2.32809e-18
-1.36263e-05 1.63391e-05 3.62213e-18
-2.41737e-05 3.03512e-05 1.2552e-18
-3.78979e-05 -4.89232e-06 4.22091e-18
-6.20479e-07 1.08644e-05 -2.18134e-18
-2.56056e-05 -3.04787e-05 5.29854e-18
-3.92093e-05 6.9415e-06 1.25599e-18
-1.49313e-05 3.46428e-05 1.24325e-18
-1.15302e-05 4.61384e-05 7.22488e-19
-1.2386e-05 2.74457e-05 -1.88778e-18
-2.23974e-05 1.80433e-05 1.56292e-18
1.64854e-05 -4.07706e-06 1.34901e-18
2.57311e-05 -1.41587e-06 -7.01472e-19
9.09476e-06 5.49827e-06 -1.34347e-18
-8.10069e-06 -5.30788e-05 3.1516e-18
-5.00273e-05 -1.95114e-05 -1.23234e-18
2.50574e-05 3.63915e-07 1.21097e-18
3.96876e-05 -7.66147e-06 3.39731e-18
-7.06393e-06 -8.96919e-06 -2.99067e-18
-3.4447e-05 2.42114e-05 4.70514e-19
-3.08702e-05 3.53565e-05 -1.09948e-18
4.19534e-05 -1.51177e-05 1.4763e-19
-1.86945e-05 -3.16863e-05 -1.40956e-18
-1.90295e-05 3.1442e-05 5.78406e-18
-3.69307e-05 -1.30235e-06 -1.41627e-18
-1.6802e-05 3.30298e-05 5.33745e-19
-3.68112e-05 3.76468e-07 1.06431e-20
4.57641e-05 1.63921e-05 -2.47522e-18
3.69603e-05 1.35289e-06 -3.67049e-18
3.4735e-05 -1.77977e-05 -8.96173e-19
1.01208e-05 -4.8818e-05 -8.9907e-19
1.83694e-05 -3.19879e-05 1.37525e-18
1.82449e-05 3.19847e-05 1.04253e-18
9.91116e-06 4.76992e-05 -4.06943e-18
4.99815e-05 -1.40931e-05 4.77257e-18
3.20517e-05 1.58763e-05 -8.83462e-19
3.08223e-05 8.42357e-06 4.54006e-18
P_ext 3 563 float
-2.75168e-12 9.31418e-13 -4.63356e-26
3.26952e-15 1.03442e-13 1.49642e-25
-2.56414e-13 -2.40836e-13 1.48891e-25
-8.11147e-14 7.50085e-14 -4.07198e-26
7.26787e-14 8.62657e-16 -3.55555e-25
8.41782e-14 -3.42299e-13 -1.0984e-25
-2.70911e-12 -9.42642e-13 -9.22991e-26
-2.0167e-13 -2.28004e-13 6.98459e-26
5.57641e-13 9.99447e-15 7.85606e-26
2.04504e-13 -1.96398e-14 -1.79866e-25
1.79104e-12 4.19236e-13 1.92696e-25
9.92397e-14 -2.91955e-13 -9.00801e-26
2.28687e-13 2.71248e-13 -1.47687e-25
-2.28142e-14 2.13447e-13 -2.87453e-26
6.53759e-14 2.31509e-14 -4.44091e-25
-3.5728e-13 -5.8498e-15 1.19312e-25
-4.38933e-14 1.41211e-13 -1.69724e-25
2.15517e-13 -3.26777e-14 -6.97919e-26
2.46817e-13 4.39929e-13 5.32524e-29
-3.31681e-13 3.35369e-14 5.87258e-26
-1.24038e-13 -4.69753e-13 1.97594e-25
3.74642e-15 3.06227e-15 -1.14347e-25
3.67237e-13 2.9966e-14 -2.17477e-25
2.34119e-13 -2.69876e-13 1.96155e-25
-3.38795e-13 -5.47625e-14 -1.02891e-26
-6.34573e-14 -1.86049e-13 -8.02137e-26
2.06054e-12 -1.68473e-13 3.26216e-25
2.55462e-13 2.14921e-13 8.07472e-26
-7.56101e-13 -6.00812e-13 -2.20584e-25
4.56596e-14 8.15865e-15 -6.06754e-25
-3.40617e-13 -6.12036e-14 -3.04327e-26
1.48005e-13 -9.61701e-13 -4.94591e-26
1.54829e-12 -1.58549e-12 1.58889e-25
3.66265e-15 -7.46067e-14 -1.75733e-25
-2.03931e-14 5.7441e-14 -7.17492e-26
-6.21627e-14 -4.12243e-14 4.81759e-25
9.0122e-15 4.09842e-14 -1.11789e-25
-6.32238e-14 1.05336e-14 2.05653e-25
2.46856e-13 -2.67623e-13 1.85747e-26
1.51081e-12 1.65233e-12 2.22961e-25
9.68001e-13 -4.38318e-13 1.24201e-25
1.61318e-14 -3.74688e-14 -3.01887e-26
-2.41787e-14 -3.35687e-14 2.35225e-25
-3.38309e-13 7.00451e-14 1.0524e-26
9.58341e-13 -9.41004e-13 -7.55102e-26
-8.95041e-13 3.22153e-13 1.33709e-25
-1.1341e-13 -4.95778e-13 -3.92511e-26
2.05037e-13 4.98064e-13 2.96794e-26
-3.24518e-13 8.52113e-14 2.17811e-25
-5.53777e-13 8.61591e-13 4.75892e-26
9.82193e-13 4.8074e-13 3.53098e-25
8.54119e-13 -2.8105e-13 -2.9053e-26
-2.60701e-14 6.15695e-14 -2.05273e-26
-6.6849e-13 -5.99724e-13 -2.40059e-25
-6.7638e-14 8.68527e-15 -1.22673e-25
-1.42885e-12 8.39208e-13 2.74476e-26
-1.89787e-14 -5.71943e-14 -8.24113e-26
1.90269e-13 -8.82704e-13 7.66083e-26
-5.84747e-14 -1.23977e-14 3.60259e-25
1.50067e-13 3.01046e-13 5.92082e-26
-8.0471e-14 -2.53632e-14 8.94504e-26
-8.51111e-14 -8.10849e-14 -4.0328e-26
1.85909e-12 8.18459e-13 2.24659e-25
-6.61832e-16 1.65362e-13 -3.21538e-25
2.65156e-14 -1.10571e-13 1.51361e-25
4.22916e-14 -2.44563e-13 1.96707e-26
-1.60788e-14 -8.04824e-14 -8.10301e-26
-1.94933e-13 -5.01002e-14 2.90436e-26
-2.26547e-13 2.77072e-13 -9.87309e-26
6.07836e-14 -2.25586e-14 -2.60583e-25
-2.57324e-14 -6.33017e-14 8.18183e-26
-6.69026e-14 -9.58958e-15 1.63105e-25
-1.11541e-13 1.03338e-12 -1.33608e-25
-2.01201e-13 1.01761e-13 3.0224e-26
-1.93973e-13 3.31737e-13 -1.37472e-25
-1.93126e-12 2.27146e-13 -2.68632e-26
6.55258e-16 -1.5625e-13 -6.07852e-26
-1.89136e-13 -1.57778e-13 7.88961e-26
7.89027e-14 1.93537e-13 -9.55721e-27
7.44019e-13 1.48646e-13 1.53773e-25
1.06328e-12 -9.24879e-13 -2.9275e-26
3.04365e-14 7.35603e-14 -1.52136e-25
7.38069e-14 2.20454e-14 -3.11046e-25
-9.90502e-13 7.32789e-13 9.40957e-26
1.15764e-12 1.40827e-13 6.64935e-26
-1.74991e-13 1.56562e-12 -1.97559e-25
-6.09273e-14 -3.17059e-13 1.01973e-26
2.16276e-13 1.52099e-13 -1.90031e-25
9.21783e-13 9.71994e-13 2.34082e-25
1.70874e-14 8.5175e-15 -7.63602e-25
-1.77946e-13 8.87677e-13 2.93943e-26
1.54729e-14 -9.08421e-15 3.0385e-26
-1.09212e-13 7.37389e-14 -5.10389e-26
2.33445e-13 9.54072e-14 -2.69812e-25
-8.54706e-13 2.64474e-13 1.73827e-25
4.95412e-13 8.70287e-13 1.90536e-25
3.07973e-13 -1.39012e-12 1.90284e-25
7.28571e-14 1.91881e-13 -7.9435e-26
-1.3324e-13 -7.98693e-14 4.9635e-26
1.0916e-13 3.50179e-13 -2.94324e-26
7.24416e-13 1.23458e-13 3.78909e-26
-4.79439e-13 9.90974e-13 -6.61666e-26
1.27296e-12 -4.16071e-13 4.69484e-26
-7.12735e-14 1.55639e-13 -1.99613e-26
1.373e-13 1.38557e-13 -6.92245e-26
-8.09036e-14 -1.87775e-13 -3.04423e-26
-3.20233e-14 -1.43975e-13 1.11043e-25
3.77703e-13 4.56068e-14 -2.8815e-25
-2.72881e-13 1.27758e-12 -1.70773e-25
-6.46084e-14 3.9076e-14 -2.90346e-25
1.8853e-13 2.78821e-13 -1.47326e-25
-9.21862e-14 -1.31029e-12 1.13561e-25
1.32598e-12 3.98181e-13 1.50831e-25
9.11869e-14 -1.60939e-13 -9.07566e-26
-2.0826e-13 -2.42005e-14 2.68001e-25
-8.50338e-13 -3.4156e-13 -8.66036e-26
4.29828e-14 4.63845e-14 -3.49945e-25
-1.34756e-12 -4.71422e-13 -2.00971e-25
4.36056e-14 -4.62031e-14 7.15596e-26
-1.31054e-13 -9.23643e-13 1.00588e-26
5.7156e-13 2.16342e-14 1.76377e-25
-5.14504e-14 4.51718e-14 3.6454e-25
1.34052e-14 6.27888e-14 2.06352e-26
3.77622e-14 -1.6915e-13 1.05615e-26
6.6901e-14 -3.2083e-14 6.88964e-26
2.33534e-15 6.87091e-14 -3.1183e-25
5.97249e-14 -7.25801e-15 1.52973e-25
1.0938e-13 -1.60415e-13 -1.21724e-26
-2.75752e-13 -1.4074e-12 1.04546e-25
7.30916e-13 -5.62346e-13 1.34993e-25
3.04343e-15 9.09157e-14 -1.01551e-26
-6.19838e-14 -1.16054e-14 1.99052e-25
-2.10512e-14 -7.01068e-14 -1.40189e-25
-5.14798e-14 -3.58379e-14 1.01036e-25
-6.82515e-13 8.52887e-13 3.73938e-26
-7.66738e-16 -6.97729e-14 6.17071e-26
-8.51902e-13 1.33787e-12 -2.85197e-26
-3.23348e-13 1.49054e-13 7.91938e-26
4.56663e-14 5.02548e-14 -2.90389e-25
-6.00802e-14 -3.51081e-14 4.11145e-25
4.16369e-13 1.00477e-12 -3.83471e-26
2.42889e-13 2.15574e-13 -2.91008e-26
5.85143e-13 -1.93178e-13 1.17551e-25
3.26459e-14 -1.81165e-13 -1.79731e-25
-1.0561e-12 -9.73205e-13 -1.8992e-25
-1.02321e-13 1.78031e-13 -1.69507e-25
2.67511e-13 1.42658e-13 -1.88417e-25
3.89974e-13 -1.34599e-13 7.84752e-26
1.68513e-13 -3.36114e-13 -1.20122e-25
6.64572e-13 -3.0625e-13 1.35531e-25
4.43455e-13 -2.09286e-13 6.87772e-26
4.51269e-14 -3.66694e-14 8.25418e-27
7.68827e-13 6.08114e-13 3.36295e-25
-1.11626e-13 -3.24578e-13 3.96613e-26
-1.38372e-13 -1.17694e-13 1.20187e-25
-2.21003e-14 -5.93096e-14 1.69366e-25
3.03799e-14 2.32191e-13 -7.89649e-26
-1.02888e-12 7.38429e-14 1.92618e-26
-3.75675e-13 -9.82242e-13 1.73489e-25
-1.62983e-13 2.07769e-13 -2.87839e-25
3.19964e-13 4.25984e-13 -1.75921e-25
7.91405e-13 -5.61317e-13 1.33822e-25
-1.1544e-12 -6.17278e-13 -1.41193e-25
5.14606e-13 -8.37467e-13 8.56715e-26
6.70633e-13 -8.24624e-13 1.6355e-25
-1.99158e-13 2.01703e-14 2.09016e-25
-5.88601e-13 -8.51799e-13 8.64957e-29
-1.03031e-12 -1.61599e-13 2.82134e-26
-1.22669e-13 -9.39816e-13 9.20307e-27
4.58397e-13 -9.47372e-13 -5.87519e-26
9.20323e-15 -1.32509e-13 9.06834e-26
1.36267e-13 9.07641e-13 -9.64407e-26
-4.84707e-13 -8.482e-13 2.29063e-25
-4.5079e-14 -2.10735e-13 1.96245e-26
-7.01966e-13 5.25411e-13 1.15205e-25
-1.39171e-13 -4.64786e-14 -1.01688e-25
-1.09234e-13 -7.43576e-14 2.22269e-25
2.82292e-13 -1.44987e-13 2.39052e-25
-3.96051e-14 5.64396e-14 1.83608e-25
1.5069e-13 -1.89093e-13 2.86767e-26
-8.72372e-13 -3.87946e-13 -1.24911e-25
-1.1695e-13 -1.56886e-13 9.05794e-26
1.2233e-13 1.66319e-13 -1.38699e-25
6.31224e-13 8.70975e-13 2.51105e-25
-2.25995e-13 -1.04412e-13 1.39835e-25
-9.70026e-13 -2.18576e-14 -9.64207e-26
-1.26604e-13 -1.1621e-13 2.21193e-25
-7.59813e-15 -1.69565e-13 -3.0124e-26
1.23779e-13 6.31267e-14 -2.12447e-25
-1.42252e-13 1.39496e-13 -1.49427e-25
-2.35298e-14 -2.49029e-13 -3.12666e-26
-1.29388e-12 3.18908e-13 5.72588e-26
7.11062e-13 6.0625e-13 2.51414e-25
9.51328e-14 9.865e-13 -3.82234e-26
-5.75906e-14 2.02954e-14 1.48859e-25
-1.92257e-13 5.97332e-15 5.02061e-26
8.83904e-14 1.68478e-13 -5.93841e-26
-7.10087e-14 -1.67575e-14 1.30839e-25
7.92865e-15 -5.97147e-14 -4.99018e-26
-3.80192e-14 2.63469e-13 -3.40798e-25
4.30846e-14 4.45845e-14 -2.68798e-25
-4.84275e-13 1.07138e-13 1.37832e-25
-4.89703e-13 5.34538e-13 -1.07223e-25
-5.34084e-14 5.05818e-14 1.61424e-25
-8.84263e-13 5.3393e-13 -1.29553e-27
-2.37903e-14 7.67378e-14 -1.40242e-25
2.41392e-13 -8.70259e-14 1.80103e-25
1.10896e-12 -1.02105e-13 1.24197e-25
-1.41339e-13 8.94689e-14 2.22166e-25
5.6584e-14 2.66468e-14 -2.89843e-25
1.4738e-13 -9.14359e-14 1.71649e-25
-2.50784e-13 8.42054e-14 2.92199e-26
-1.8217e-13 4.83238e-14 -2.02191e-26
6.52494e-14 -1.82261e-14 2.10114e-25
5.89041e-13 -3.58256e-13 1.8439e-25
-2.33779e-13 1.49033e-13 5.95533e-26
-6.91972e-13 -1.44316e-13 -1.09434e-27
-1.49213e-13 -7.80469e-14 7.01075e-26
5.75726e-14 -3.72321e-14 -1.20749e-26
6.36676e-14 4.36889e-14 -3.38818e-25
-1.50222e-14 7.19048e-14 4.0196e-26
-5.63124e-15 -8.10896e-14 2.70104e-25
-6.54436e-14 3.42958e-14 2.00022e-25
-7.32269e-14 -3.83727e-14 2.92744e-26
1.83147e-13 -6.98188e-14 5.00098e-26
-6.83668e-14 -1.7934e-14 9.10582e-26
-6.82492e-14 1.72625e-14 -1.62965e-25
-1.7559e-14 6.73353e-14 -4.10969e-26
-1.89649e-14 -6.88019e-14 -5.15158e-26
4.491e-14 -5.07941e-14 -6.18808e-26
4.32152e-14 4.86752e-14 -1.52756e-25
2.5727e-14 7.028e-13 -2.33267e-25
1.37898e-13 -1.12773e-13 3.82215e-26
3.21696e-14 -6.04368e-14 7.85305e-26
-5.31295e-13 1.97722e-14 9.85396e-26
5.0918e-14 -4.9533e-14 -6.21404e-26
4.75282e-14 5.03215e-14 -3.03246e-25
7.26555e-14 -1.55599e-15 -2.89416e-25
2.43291e-13 6.88189e-13 9.7038e-26
-3.66824e-14 -6.01432e-14 1.6974e-25
7.91247e-14 -1.81894e-13 4.90036e-26
-5.91694e-13 -3.27294e-13 -2.95113e-26
-1.31842e-13 -8.56556e-14 7.91002e-26
-5.93626e-13 3.52293e-13 1.74176e-25
5.31602e-14 -5.54809e-14 1.945e-26
-2.53535e-14 5.64867e-14 -5.0217e-26
-1.38887e-14 -6.80787e-13 9.71803e-26
-2.22589e-13 -6.73759e-13 3.00188e-25
1.0178e-12 9.68438e-13 2.09157e-25
1.08893e-12 -6.17341e-14 1.70905e-25
-7.90825e-14 1.6561e-14 -2.82988e-25
-7.27766e-13 -1.2863e-12 -1.6192e-25
1.75205e-13 3.00147e-13 -1.78633e-25
-7.00099e-13 8.24451e-14 5.22131e-28
5.03842e-13 1.40893e-13 -9.82855e-26
-6.92379e-14 -2.79465e-16 1.98731e-25
8.89008e-16 -7.23951e-14 -1.19868e-25
-6.70964e-15 -5.05139e-14 -1.76345e-25
-6.20821e-14 -3.61756e-14 2.30769e-25
-1.50905e-12 -5.71937e-14 -6.67607e-26
4.7606e-13 -5.38256e-13 1.25478e-25
3.27373e-14 6.32381e-14 7.01155e-26
1.64982e-14 -3.02725e-13 -2.05032e-26
-2.83743e-13 6.7224e-13 -1.16006e-25
5.25516e-15 7.65722e-14 -5.90308e-26
5.09088e-13 -3.63962e-13 1.66154e-25
-4.63858e-14 -1.99474e-14 4.13011e-25
-4.31776e-13 -5.614e-13 -1.06811e-25
6.00748e-14 3.1403e-14 -2.59739e-25
1.42991e-13 1.36787e-13 -1.69749e-25
-1.00705e-13 -1.56953e-13 4.93262e-26
6.35617e-14 -1.9505e-14 -3.19719e-26
2.10972e-13 -1.47008e-13 1.50421e-25
-1.27615e-14 1.1867e-13 5.02215e-26
1.72733e-13 -2.90937e-13 -8.0561e-26
1.56137e-12 7.85986e-14 3.71988e-26
-1.32245e-12 3.49942e-13 -9.38326e-26
1.13139e-13 7.89198e-14 -3.05055e-25
-1.65006e-13 -3.97762e-13 6.82378e-26
-2.52042e-13 -1.64168e-13 1.29515e-25
8.14274e-13 -8.14412e-15 2.22946e-25
7.18237e-15 -1.57694e-13 -3.03859e-26
-2.0506e-13 -7.33303e-14 1.29575e-25
2.77576e-13 -6.62786e-13 -9.78807e-26
2.22255e-14 2.69607e-13 -1.70149e-25
2.2785e-13 7.0676e-13 -1.1653e-25
2.75518e-13 -1.45151e-13 1.29008e-25
-4.99034e-13 5.3101e-13 -1.18022e-25
4.58434e-13 5.66332e-13 1.56059e-25
-2.98522e-14 1.3565e-14 7.3087e-26
4.26438e-15 1.2506e-13 1.52357e-25
1.05727e-14 -5.72409e-14 9.47703e-27
-4.47841e-14 -3.84261e-14 2.92177e-25
-1.53847e-13 1.21242e-13 -1.00393e-25
-6.99105e-13 -1.6589e-13 -3.94918e-26
2.70178e-15 8.01441e-14 -5.09878e-26
-1.84249e-13 5.60084e-14 1.0995e-25
4.96567e-13 -7.22743e-14 8.84227e-26
-2.11532e-13 -6.86097e-13 1.66505e-25
-4.16889e-13 6.64076e-13 -1.45855e-25
-1.19818e-13 5.53074e-14 -1.92814e-25
-5.58904e-13 -3.95677e-13 -2.22765e-25
1.28195e-13 -6.07997e-14 6.03309e-26
-7.57862e-13 -3.71443e-14 -5.88203e-26
3.69377e-13 -1.3027e-12 1.13166e-25
5.07307e-13 -5.32292e-13 3.86637e-26
7.72083e-13 1.36866e-12 1.79768e-25
-6.79514e-15 1.6831e-13 -2.91292e-25
6.67615e-14 -6.90475e-13 5.75661e-26
-2.80033e-14 1.69018e-14 -3.00584e-26
-3.59212e-13 -6.70567e-13 2.34121e-25
1.22547e-13 -1.03776e-13 8.01866e-26
-6.92582e-14 6.9838e-13 3.90017e-26
1.69794e-13 -5.08006e-14 1.59461e-25
3.83053e-13 6.82402e-13 -1.94571e-26
3.85243e-13 -9.16823e-15 -5.01159e-26
6.96746e-13 -2.05521e-12 1.31646e-25
-1.48727e-13 -2.77398e-13 3.81626e-26
-6.18808e-13 2.69605e-13 1.07207e-25
-8.79429e-14 4.407e-14 1.2192e-25
5.87385e-13 3.93396e-13 2.93474e-26
4.20056e-13 -2.31917e-13 1.07464e-25
2.23193e-13 9.87349e-14 -1.69977e-25
-4.59784e-14 3.81737e-14 -2.39597e-25
4.20022e-13 -6.48603e-13 -1.07184e-25
-4.47919e-13 -5.58803e-13 -1.45769e-25
5.7841e-13 2.28349e-13 3.90995e-26
1.48518e-13 -9.23275e-14 1.29915e-25
2.70067e-13 -6.71416e-13 -8.28095e-28
3.19173e-13 -6.10852e-14 1.96694e-26
-3.09477e-13 -1.2379e-13 8.90574e-26
-1.3688e-14 -1.27337e-13 1.41732e-25
-7.06085e-13 9.82612e-14 9.82086e-26
7.42017e-14 6.20074e-13 -2.34781e-25
4.84383e-13 1.13372e-13 -1.97127e-25
-5.49316e-13 -2.46128e-13 -9.77087e-26
-2.69473e-13 6.91806e-13 -7.8e-26
-6.1466e-14 -6.04275e-13 1.37213e-25
1.61681e-13 7.89065e-14 -3.52338e-25
-1.0345e-13 2.9384e-13 -9.459e-27
-4.94068e-13 3.54208e-13 8.7343e-26
6.33609e-13 3.19431e-13 9.73096e-26
-2.90327e-13 -9.18745e-14 3.9528e-26
-6.97421e-14 -2.99318e-13 -8.04485e-26
4.84451e-13 5.62691e-13 -4.84099e-26
-1.15994e-13 -5.25053e-14 1.20563e-25
1.58105e-12 -1.13752e-12 1.93117e-25
3.38936e-13 -2.36816e-13 1.95526e-26
2.74288e-13 1.34388e-12 8.63909e-26
3.56958e-13 -3.42562e-13 3.14702e-25
-7.61348e-13 2.9005e-12 2.44686e-26
-7.65821e-13 -2.87218e-12 1.74771e-26
1.88212e-12 2.47421e-12 3.52816e-25
1.85867e-12 -2.47359e-12 5.36397e-26
3.08108e-12 -1.06883e-15 2.38058e-25
-2.65576e-12 1.06803e-12 2.66798e-26
-2.61174e-12 -1.0797e-12 -1.79707e-26
1.29634e-13 7.09855e-14 -2.9162e-25
8.39128e-14 4.05063e-14 -4.90273e-25
2.40083e-13 3.26663e-14 -2.47802e-25
4.23097e-13 2.26053e-13 -4.87822e-26
1.25396e-13 4.99219e-13 -2.93633e-26
-4.52962e-13 -3.88931e-13 -2.86307e-26
2.2975e-13 -2.1093e-13 8.9145e-26
4.86675e-13 3.90207e-13 1.44865e-28
-1.12125e-13 6.14168e-13 -8.79057e-26
8.14788e-14 -3.97758e-14 1.32208e-25
1.14401e-13 -5.89549e-13 2.06203e-25
1.51779e-13 1.01533e-13 -2.81197e-25
8.74811e-13 3.06662e-13 3.66232e-25
2.10192e-14 6.4358e-14 -6.89248e-26
3.4014e-13 1.11598e-13 -1.09569e-25
-4.20365e-13 2.32693e-13 -1.99178e-26
-5.74584e-13 1.99074e-13 1.86033e-25
1.1557e-13 -7.91566e-14 2.842e-25
-3.68119e-13 -1.70601e-13 1.78735e-25
-4.0393e-13 -2.39229e-13 -4.90742e-26
-3.51764e-14 -4.0615e-13 -2.02678e-26
1.64938e-15 -4.65718e-13 5.89294e-26
-5.1176e-13 -2.21679e-14 -3.96295e-26
7.57711e-13 -1.17585e-13 1.3529e-25
4.1049e-13 2.52965e-13 -9.66305e-27
-3.40283e-13 2.32004e-13 5.89975e-26
-1.54442e-13 7.63011e-14 8.04473e-26
3.82805e-13 -3.42795e-13 6.804e-26
-2.87224e-13 4.47401e-13 -3.52531e-25
-3.54068e-13 -3.73027e-13 1.04415e-28
-3.34519e-14 4.88081e-13 -1.86858e-25
-7.26873e-14 4.12718e-13 3.05404e-26
1.21582e-14 -3.00472e-13 -2.60236e-25
1.54177e-13 -4.98069e-13 5.83484e-26
-2.53348e-13 -1.62584e-13 1.58962e-25
3.49751e-13 -9.99409e-14 6.86756e-26
1.04813e-15 4.87503e-13 -1.86768e-25
-1.02827e-14 3.1268e-13 -7.89531e-26
-7.80222e-14 3.50948e-13 -2.18029e-25
5.72523e-13 -1.40878e-13 4.91043e-26
-1.2196e-13 1.15203e-13 -1.50452e-25
1.29789e-13 4.88004e-13 4.98873e-26
-7.99524e-14 5.052e-14 1.33603e-25
2.8752e-13 1.3323e-12 1.49962e-25
-1.43695e-13 7.70328e-14 -1.00316e-26
1.52416e-13 -7.92244e-14 1.60824e-25
4.33333e-14 4.1534e-13 -1.87322e-25
-4.86162e-13 1.15842e-13 1.87711e-25
-1.43812e-14 -2.12191e-13 -8.06004e-26
1.95122e-14 -1.89764e-12 1.28783e-25
5.8193e-14 3.52084e-13 7.93228e-26
-3.63447e-13 3.45418e-13 1.08894e-25
5.59688e-13 2.08089e-12 1.21617e-25
2.82098e-14 1.8317e-14 -6.54638e-25
2.43975e-14 -1.74828e-14 1.5492e-25
2.74264e-13 -2.13475e-13 2.66133e-25
-3.87675e-13 3.47163e-13 -8.84611e-26
-4.6599e-13 -1.3806e-13 8.88612e-26
-4.78315e-13 -1.572e-13 4.91275e-26
-7.8325e-15 4.57407e-15 -8.5045e-26
-4.99208e-15 -1.42093e-15 -7.48538e-25
2.24196e-13 4.58606e-14 -3.18168e-25
7.08232e-14 3.27624e-13 -6.8179e-26
-8.13666e-15 3.25748e-13 2.03544e-26
-1.58983e-12 -1.15412e-12 -9.22774e-26
2.84541e-13 -4.47233e-13 -1.08751e-25
1.44969e-13 5.32484e-14 -2.61354e-25
-5.28092e-13 -5.70486e-14 5.9415e-26
-3.33934e-13 4.40996e-13 -1.28514e-25
-4.31329e-13 2.02903e-13 2.16611e-25
1.55996e-12 1.12158e-12 4.49582e-25
1.57486e-13 1.02831e-13 -1.59576e-25
-1.52966e-13 4.99881e-13 -1.28861e-25
-3.0311e-13 -2.59219e-13 1.18883e-25
7.50948e-14 -3.95125e-13 -8.0041e-26
-2.44171e-13 -4.6519e-13 1.47325e-25
-3.9201e-13 -2.68719e-13 -7.95192e-26
2.68461e-13 -4.76033e-13 -8.01005e-26
3.22331e-13 -4.42365e-13 8.78591e-26
-1.01181e-13 -1.98188e-12 2.79123e-26
8.1636e-13 -1.30557e-12 3.78417e-26
3.93385e-14 -4.78658e-13 -8.26002e-28
3.38354e-13 2.57182e-13 -5.94204e-26
-3.03467e-13 -3.6791e-13 -8.87322e-26
-2.62524e-13 4.89858e-13 -1.48264e-25
-1.6109e-13 4.80582e-13 9.132e-27
3.52341e-13 3.64183e-13 -1.3716e-25
1.72351e-13 -4.49567e-13 -1.48718e-25
-4.4245e-13 -1.26207e-12 -1.3244e-25
1.01261e-14 1.56399e-13 -8.10864e-26
3.56089e-13 3.6615e-13 -1.45768e-25
-1.93032e-13 -9.57174e-14 1.09715e-25
-1.60654e-13 8.83142e-14 1.10376e-25
1.41702e-12 -6.20616e-13 1.68441e-25
1.77599e-13 -2.93538e-13 -6.02128e-26
-1.6864e-13 -2.8831e-13 1.27931e-25
6.57735e-14 -5.37006e-15 1.11066e-25
6.9479e-15 -2.54284e-14 -8.3164e-26
-1.82562e-14 -1.95432e-14 1.65001e-25
8.04215e-14 5.17955e-14 -4.35226e-25
-2.46164e-13 -4.64964e-13 1.26871e-25
3.80245e-13 1.5279e-13 -7.96196e-26
-9.16258e-13 -1.00744e-12 -8.49029e-26
4.6733e-15 3.08814e-14 -1.5395e-25
3.07211e-15 3.1532e-15 -1.99148e-25
4.58033e-15 -1.61539e-15 3.5692e-25
8.78279e-13 -1.73293e-12 4.59576e-26
-3.73288e-14 4.44551e-14 5.14894e-26
-8.97174e-15 5.3902e-14 -6.10537e-26
-3.82201e-13 1.36255e-13 9.92572e-26
-1.28292e-14 1.56962e-13 -2.03092e-25
-8.36361e-14 2.49285e-13 -1.28147e-25
1.73544e-13 7.85932e-15 -2.9959e-25
3.84605e-14 1.50833e-13 -2.40523e-25
-1.02777e-14 2.08458e-13 -2.01603e-25
2.97233e-13 1.61866e-13 9.99308e-26
2.05826e-14 1.88864e-12 -1.32355e-27
-2.76337e-13 2.60982e-13 -1.69092e-25
2.08162e-13 -1.39189e-13 -8.01597e-26
1.20988e-13 -1.09024e-13 3.79338e-26
-1.93819e-12 -2.66276e-13 -1.7669e-25
-5.71461e-14 2.21278e-14 1.75229e-25
-1.41261e-12 -1.67114e-12 -2.92574e-26
2.70466e-14 7.02531e-14 -1.301e-25
2.50742e-13 4.94391e-14 -2.58903e-25
7.41471e-13 -9.64322e-14 6.76921e-26
-1.70303e-13 -2.79934e-13 5.87855e-26
3.25971e-13 9.40324e-14 3.13003e-26
2.44755e-15 -8.406e-14 1.43582e-25
-1.84422e-13 2.12523e-13 1.69192e-25
-7.08951e-14 -4.58854e-14 2.23155e-25
-1.6507e-13 3.36327e-13 -2.66726e-25
2.95854e-14 2.13565e-13 4.10246e-26
4.96054e-14 3.6656e-14 -3.60232e-25
4.93191e-14 -3.52388e-14 2.47081e-25
-1.31531e-12 -3.58387e-13 -2.35444e-25
1.46558e-13 5.54167e-14 -3.49122e-25
-1.74712e-13 3.372e-12 2.46254e-25
-1.25182e-14 -3.46488e-12 1.4739e-25
1.70581e-12 2.91842e-12 5.12195e-25
-1.80236e-13 1.42298e-13 -9.10591e-26
-9.02696e-13 1.81847e-12 6.43085e-26
1.71537e-12 -2.81641e-12 1.74359e-25
-2.86042e-13 -4.62906e-13 -2.10527e-26
2.60382e-12 2.28264e-12 5.30979e-25
3.19292e-14 -5.6374e-14 -1.10931e-26
-3.30468e-14 -5.71765e-14 2.02507e-25
2.72993e-12 -2.23206e-12 1.64033e-25
-1.68737e-13 3.32253e-13 -4.85618e-26
-1.71611e-12 -1.09292e-12 4.61438e-26
-1.44546e-12 -3.0146e-12 1.80394e-26
-8.10148e-13 -1.86435e-12 -1.16589e-27
-1.48597e-12 3.06477e-12 2.68078e-26
-3.51361e-13 2.07762e-12 -8.40178e-26
-2.42051e-15 7.51195e-14 -6.14406e-26
-9.02891e-13 1.16269e-12 -9.48613e-26
-8.62705e-13 -1.76753e-12 -3.82069e-26
3.35849e-12 5.85384e-13 4.49362e-25
-2.66164e-13 2.25795e-13 6.95036e-26
-6.75276e-15 1.50453e-13 6.10903e-26
-1.62521e-12 1.17651e-12 2.80845e-26
-2.94984e-13 1.57542e-13 -5.99104e-26
3.32473e-12 -5.20392e-13 2.10104e-25
-2.25544e-13 1.5103e-13 1.09333e-25
1.63597e-13 -3.38104e-13 -1.05636e-27
-2.58781e-12 -1.96478e-12 2.65545e-26
-8.72661e-13 1.87012e-12 -6.57252e-26
-2.65026e-12 1.95021e-12 -1.34137e-28
7.74547e-13 1.72652e-12 3.57895e-25
-2.88322e-13 2.29009e-13 2.99758e-26
-8.12891e-14 4.63283e-14 2.1566e-25
-4.78264e-15 -4.66547e-15 -3.03618e-26
-1.15373e-15 -5.43189e-15 1.67751e-25
2.16535e-14 2.30993e-13 -3.00847e-26
-6.7496e-15 4.72693e-15 8.48618e-26
1.26447e-15 7.80119e-15 2.42347e-25
4.16996e-15 -7.11646e-16 -5.18374e-26
-3.55323e-15 2.79319e-14 -2.1748e-25
-5.96433e-13 1.30164e-12 -1.50182e-25
-4.57895e-14 3.3749e-14 1.03313e-25
7.97037e-14 -4.92647e-14 1.61686e-25
7.79464e-14 -4.48223e-14 1.42521e-25
2.21096e-13 8.67932e-14 -1.09927e-25
-2.53704e-15 -2.39316e-14 -1.35488e-25
-2.15968e-14 -1.04352e-14 2.91663e-25
7.79607e-14 4.5352e-14 -5.11939e-25
1.92497e-12 -3.70295e-13 5.04643e-25
-2.51793e-13 -3.21053e-13 7.80587e-26
-1.68582e-12 1.17462e-12 1.37896e-25
-1.51125e-12 1.7238e-12 -1.12192e-25
2.03721e-12 -7.3552e-13 3.70409e-26
-1.12574e-14 -2.85937e-14 -4.23519e-26
-1.21887e-14 2.93387e-14 1.06023e-25
-3.2959e-14 4.39065e-15 1.84951e-25
-2.04052e-14 2.28414e-14 -9.25285e-26
-2.99808e-14 -4.96241e-15 1.86831e-25
7.16096e-15 5.80488e-15 3.06914e-26
3.2322e-14 -6.80656e-15 5.05244e-26
1.46185e-14 -9.17133e-15 1.44986e-25
-7.39364e-15 -7.57819e-15 2.00808e-26
1.97117e-14 -2.18781e-14 1.3393e-25
1.98102e-14 2.25103e-14 -2.79645e-25
-7.43481e-15 6.92177e-15 -5.67692e-25
1.19502e-14 -3.86555e-16 -7.11154e-25
1.86967e-14 9.69645e-15 -7.62009e-25
3.81679e-14 1.2379e-14 -6.39699e-25
SCALARS rr_necrosis float
LOOKUP_TABLE default
1
1
1
1
1
1
1
1
1
1
1
1
1
1
1
1
1
1
1
1
1
1
1
1
1
1
1
1
1
1
1
1
1
1
1
1
1
1
1
1
1
1
1
1
1
1
1
1
1
1
1
1
1
1
1
1
1
1
1
1
1
1
1
1
1
1
1
1
1
1
1
1
1
1
1
1
1
1
1
1
1
1
1
1
1
1
1
1
1
1
1
1
1
1
1
1
1
1
1
1
1
1
1
1
1
1
1
1
1
1
1
1
1
1
1
1
1
1
1
1
1
1
1
1
1
1
1
1
1
1
1
1
1
1
1
1
1
1
1
1
1
1
1
1
1
1
1
1
1
1
1
1
1
1
1
1
1
1
1
1
1
1
1
1
1
1
1
1
1
1
1
1
1
1
1
1
1
1
1
1
1
1
1
1
1
1
1
1
1
1
1
1
1
1
1
1
1
1
1
1
1
1
1
1
1
1
1
1
1
1
1
1
1
1
1
1
1
1
1
1
1
1
1
1
1
1
1
1
1
1
1
1
1
1
1
1
1
1
1
1
1
1
1
1
1
1
1
1
1
1
1
1
1
1
1
1
1
1
1
1
1
1
1
1
1
1
1
1
1
1
1
1
1
1
1
1
1
1
1
1
1
1
1
1
1
1
1
1
1
1
1
1
1
1
1
1
1
1
1
1
1
1
1
1
1
1
1
1
1
1
1
1
1
1
1
1
1
1
1
1
1
1
1
1
1
1
1
1
1
1
1
1
1
1
1
1
1
1
1
1
1
1
1
1
1
1
1
1
1
1
1
1
1
1
1
1
1
1
1
1
1
1
1
1
1
1
1
1
1
1
1
1
1
1
1
1
1
1
1
1
1
1
1
1
1
1
1
1
1
1
1
1
1
1
1
1
1
1
1
1
1
1
1
1
1
1
1
1
1
1
1
1
1
1
1
1
1
1
1
1
1
1
1
1
1
1
1
1
1
1
1
1
1
1
1
1
1
1
1
1
1
1
1
1
1
1
1
1
1
1
1
1
1
1
1
1
1
1
1
1
1
1
1
1
1
1
1
1
1
1
1
1
1
1
1
1
1
1
1
1
1
1
1
1
1
1
1
1
1
1
1
1
1
1
1
1
1
1
1
1
1
1
1
1
1
1
1
1
1
1
1
1
1
1
1
1
1
1
1
1
1
1
1
1
1
1
1
1
1
1
1
1
1
1
1
1
1
1
1
1
1
1
1
1
1
1
1
1
1
1
1
1
1
1
1
1
1
1
1
1
1
1
1
SCALARS rr_protein float
LOOKUP_TABLE default
1
1
1
1
1
1
1
1
1
1
1
1
1
1
1
1
1
1
1
1
1
1
1
1
1
1
1
1
1
1
1
1
1
1
1
1
1
1
1
1
1
1
1
1
1
1
1
1
1
1
1
1
1
1
1
1
1
1
1
1
1
1
1
1
1
1
1
1
1
1
1
1
1
1
1
1
1
1
1
1
1
1
1
1
1
1
1
1
1
1
1
1
1
1
1
1
1
1
1
1
1
1
1
1
1
1
1
1
1
1
1
1
1
1
1
1
1
1
1
1
1
1
1
1
1
1
1
1
1
1
1
1
1
1
1
1
1
1
1
1
1
1
1
1
1
1
1
1
1
1
1
1
1
1
1
1
1
1
1
1
1
1
1
1
1
1
1
1
1
1
1
1
1
1
1
1
1
1
1
1
1
1
1
1
1
1
1
1
1
1
1
1
1
1
1
1
1
1
1
1
1
1
1
1
1
1
1
1
1
1
1
1
1
1
1
1
1
1
1
1
1
1
1
1
1
1
1
1
1
1
1
1
1
1
1
1
1
1
1
1
1
1
1
1
1
1
1
1
1
1
1
1
1
1
1
1
1
1
1
1
1
1
1
1
1
1
1
1
1
1
1
1
1
1
1
1
1
1
1
1
1
1
1
1
1
1
1
1
1
1
1
1
1
1
1
1
1
1
1
1
1
1
1
1
1
1
1
1
1
1
1
1
1
1
1
1
1
1
1
1
1
1
1
1
1
1
1
1
1
1
1
1
1
1
1
1
1
1
1
1
1
1
1
1
1
1
1
1
1
1
1
1
1
1
1
1
1
1
1
1
1
1
1
1
1
1
1
1
1
1
1
1
1
1
1
1
1
1
1
1
1
1
1
1
1
1
1
1
1
1
1
1
1
1
1
1
1
1
1
1
1
1
1
1
1
1
1
1
1
1
1
1
1
1
1
1
1
1
1
1
1
1
1
1
1
1
1
1
1
1
1
1
1
1
1
1
1
1
1
1
1
1
1
1
1
1
1
1
1
1
1
1
1
1
1
1
1
1
1
1
1
1
1
1
1
1
1
1
1
1
1
1
1
1
1
1
1
1
1
1
1
1
1
1
1
1
1
1
1
1
1
1
1
1
1
1
1
1
1
1
1
1
1
1
1
1
1
1
1
1
1
1
1
1
1
1
1
1
1
1
1
1
1
1
1
1
1
1
1
1
1
1
1
1
1
1
1
1
1
1
1
1
1
1
1
1
1
1
1
1
1
1
1
1
1
1
1
1
1
1
1
1
1
SCALARS rr_(S_ext) float
LOOKUP_TABLE default
1.0202
1.02
1.02002
1.02
1.01997
1.02002
1.0202
1.02001
1.02004
1.02
1.02016
1.02001
1.02001
1.02
1.01997
1.02002
1.01999
1.02001
1.02004
1.02002
1.02003
1.01991
1.02003
1.02002
1.02002
1.02
1.02015
1.02002
1.02009
1.01994
1.02002
1.02009
1.02015
1.01995
1.01995
1.01995
1.01993
1.01995
1.02002
1.02015
1.02009
1.01993
1.01993
1.02001
1.02013
1.02009
1.02004
1.02003
1.02002
1.0201
1.0201
1.02008
1.01996
1.02008
1.01997
1.02013
1.01995
1.02008
1.01995
1.02002
1.01999
1.01998
1.02014
1.01999
1.01998
1.02
1.01999
1.02001
1.02002
1.02
1.01996
1.01996
1.02009
1.01999
1.02002
1.02016
1.01998
1.02
1.02
1.02007
1.02011
1.01996
1.01999
1.02011
1.02009
1.02013
1.02002
1.02
1.02013
1.01991
1.02008
1.01991
1.01997
1.02
1.02008
1.02009
1.02011
1.02
1.01998
1.02002
1.02006
1.02009
1.02011
1.02
1.02
1.02
1.01999
1.02002
1.02011
1.01999
1.02002
1.02012
1.02012
1.02001
1.02
1.02008
1.01995
1.02011
1.01995
1.02008
1.02005
1.01997
1.02
1.01999
1.01999
1.01997
1.01995
1.02
1.02011
1.02007
1.01996
1.02
1.01999
1.02
1.02009
1.01994
1.02012
1.02001
1.01999
1.01994
1.02008
1.02001
1.02005
1.02
1.02011
1.02
1.02001
1.02002
1.02002
1.02006
1.02003
1.02
1.02009
1.02001
1.02
1.02
1.02
1.02008
1.02008
1.02001
1.02003
1.02009
1.02012
1.02009
1.02008
1.02
1.02008
1.02009
1.02009
1.02008
1.01997
1.02008
1.02009
1.02
1.02008
1.01999
1.01997
1.02001
1.01997
1.02001
1.02009
1.02
1.02
1.02008
1.02
1.0201
1.01999
1.01999
1.01997
1.02
1.02
1.02011
1.02007
1.02009
1.02
1.02001
1.02001
1.01999
1.02
1.02
1.02
1.02004
1.02007
1.01999
1.02009
1.01999
1.02
1.02009
1.01998
1.02
1.01998
1.02
1.02
1.01999
1.02006
1.02
1.02007
1.01999
1.01999
1.01999
1.01999
1.01999
1.01999
1.01999
1.02
1.01997
1.01997
1.01997
1.01997
1.01997
1.01997
1.02006
1.02
1.02
1.02004
1.01997
1.01997
1.02
1.02007
1.02
1.02
1.02006
1.01998
1.02006
1.01999
1.02
1.02006
1.02007
1.02011
1.0201
1.01999
1.02012
1.02002
1.02007
1.02004
1.02
1.01999
1.01993
1.01999
1.02012
1.02007
1.02
1.02001
1.02007
1.01999
1.02005
1.01993
1.02007
1.01999
1.01999
1.02001
1.01997
1.02
1.01997
1.02001
1.02012
1.02013
1.01997
1.02003
1.02001
1.02006
1.01998
1.02
1.02007
1.02
1.02006
1.02001
1.02006
1.02007
1.01992
1.01997
1.01997
1.01997
1.02
1.02006
1.01995
1.01999
1.02003
1.02005
1.02006
1.01997
1.02006
1.01997
1.02006
1.02013
1.02005
1.02012
1.01999
1.02006
1.01992
1.02006
1.01999
1.02006
1.01999
1.02006
1.02002
1.02015
1.02002
1.02006
1.01997
1.02006
1.02003
1.01999
1.02
1.02006
1.02006
1.02005
1.01999
1.02005
1.02001
1.02002
1.01997
1.02006
1.02005
1.02003
1.02005
1.02006
1.02004
1.01998
1.02001
1.02005
1.02006
1.02001
1.02001
1.02006
1.01997
1.02016
1.02002
1.02011
1.02003
1.02022
1.02022
1.02022
1.02022
1.02022
1.02023
1.02023
1.01999
1.01995
1.02001
1.02003
1.02004
1.02005
1.02001
1.02005
1.02005
1.01995
1.02005
1.01998
1.02008
1.01998
1.02002
1.02003
1.02005
1.01997
1.02002
1.02003
1.02002
1.02003
1.02004
1.02007
1.02003
1.02002
1.01998
1.02004
1.02005
1.02004
1.02003
1.02002
1.02001
1.02004
1.02001
1.02002
1.02003
1.02001
1.02002
1.02004
1.01999
1.02003
1.01996
1.02013
1.01999
1.01998
1.02002
1.02003
1.02
1.02016
1.02002
1.02003
1.02015
1.01993
1.01993
1.02002
1.02004
1.02003
1.02004
1.0199
1.0199
1.02001
1.02001
1.02001
1.02017
1.02004
1.01999
1.02004
1.02004
1.02003
1.02016
1.01999
1.02004
1.02002
1.02002
1.02004
1.02003
1.02004
1.02004
1.02015
1.02011
1.02003
1.02002
1.02003
1.02004
1.02003
1.02003
1.02003
1.02013
1.01998
1.02004
1.02
1.01999
1.02013
1.02002
1.02002
1.01997
1.01992
1.01992
1.01997
1.02005
1.02002
1.02013
1.01992
1.0199
1.0199
1.02016
1.01995
1.01994
1.02002
1.01997
1.02001
1.02
1.01999
1.01999
1.02001
1.02016
1.02002
1.02
1.01999
1.02016
1.01994
1.02015
1.01999
1.02
1.02006
1.02001
1.02001
1.01996
1.02001
1.01996
1.02002
1.01999
1.01994
1.01994
1.02013
1.02
1.0202
1.0202
1.0202
1.01999
1.02017
1.0202
1.02004
1.0202
1.01996
1.01996
1.0202
1.02003
1.02015
1.0202
1.02015
1.0202
1.02015
1.01995
1.02014
1.02017
1.0202
1.02001
1.01998
1.02015
1.02001
1.0202
1.02001
1.02003
1.0202
1.02016
1.0202
1.02016
1.02002
1.01995
1.0199
1.0199
1.02
1.0199
1.0199
1.0199
1.01992
1.02013
1.01994
1.01997
1.01996
1.02
1.01991
1.01991
1.01995
1.02016
1.02003
1.02017
1.02016
1.02015
1.01992
1.01992
1.01993
1.01993
1.01992
1.01991
1.01993
1.01992
1.01991
1.01993
1.01993
1.01991
1.01991
1.01991
1.01993
SCALARS rr_(P_ext) float
LOOKUP_TABLE default
5.08514e-08
5.08397e-08
5.08415e-08
5.08399e-08
5.08352e-08
5.08415e-08
5.08513e-08
5.08406e-08
5.08427e-08
5.08399e-08
5.08494e-08
5.08406e-08
5.08409e-08
5.08398e-08
5.08364e-08
5.08414e-08
5.08389e-08
5.08405e-08
5.08431e-08
5.08418e-08
5.08422e-08
5.08269e-08
5.08418e-08
5.08417e-08
5.08418e-08
5.08402e-08
5.08489e-08
5.08411e-08
5.08462e-08
5.08312e-08
5.08411e-08
5.0846e-08
5.08491e-08
5.08327e-08
5.08327e-08
5.08328e-08
5.08309e-08
5.0833e-08
5.0841e-08
5.08491e-08
5.08461e-08
5.08309e-08
5.08309e-08
5.08411e-08
5.08479e-08
5.08461e-08
5.08429e-08
5.08426e-08
5.08414e-08
5.08466e-08
5.08463e-08
5.08451e-08
5.08351e-08
5.08453e-08
5.08354e-08
5.08482e-08
5.08326e-08
5.08452e-08
5.08327e-08
5.08416e-08
5.08388e-08
5.08377e-08
5.08487e-08
5.08379e-08
5.08377e-08
5.08392e-08
5.08387e-08
5.08403e-08
5.08419e-08
5.08395e-08
5.08352e-08
5.08352e-08
5.08462e-08
5.08387e-08
5.08416e-08
5.08494e-08
5.08367e-08
5.08392e-08
5.08402e-08
5.08447e-08
5.08471e-08
5.08347e-08
5.08381e-08
5.08473e-08
5.0846e-08
5.08481e-08
5.08412e-08
5.08389e-08
5.08479e-08
5.08275e-08
5.08452e-08
5.08275e-08
5.08363e-08
5.08392e-08
5.08452e-08
5.08463e-08
5.08472e-08
5.084e-08
5.08368e-08
5.08411e-08
5.0844e-08
5.08459e-08
5.08471e-08
5.08404e-08
5.084e-08
5.08402e-08
5.08379e-08
5.08412e-08
5.08472e-08
5.0839e-08
5.08416e-08
5.08477e-08
5.08474e-08
5.08404e-08
5.08402e-08
5.08453e-08
5.08326e-08
5.08473e-08
5.08327e-08
5.08452e-08
5.08434e-08
5.08367e-08
5.08396e-08
5.08387e-08
5.08388e-08
5.08363e-08
5.08332e-08
5.08399e-08
5.08472e-08
5.08451e-08
5.08349e-08
5.08398e-08
5.08382e-08
5.08397e-08
5.08459e-08
5.08324e-08
5.08478e-08
5.08409e-08
5.0838e-08
5.08324e-08
5.08457e-08
5.08401e-08
5.08433e-08
5.08399e-08
5.08474e-08
5.08402e-08
5.08401e-08
5.08414e-08
5.08415e-08
5.08442e-08
5.08424e-08
5.08395e-08
5.0846e-08
5.0841e-08
5.08399e-08
5.08397e-08
5.08396e-08
5.08458e-08
5.08457e-08
5.08409e-08
5.08425e-08
5.08459e-08
5.08479e-08
5.08462e-08
5.08456e-08
5.08401e-08
5.08457e-08
5.08458e-08
5.08461e-08
5.08456e-08
5.08362e-08
5.08452e-08
5.08463e-08
5.08395e-08
5.08453e-08
5.0838e-08
5.08363e-08
5.08404e-08
5.08353e-08
5.08401e-08
5.08462e-08
5.08401e-08
5.084e-08
5.08457e-08
5.08389e-08
5.08464e-08
5.08388e-08
5.08381e-08
5.08362e-08
5.084e-08
5.08389e-08
5.08471e-08
5.08451e-08
5.0846e-08
5.08397e-08
5.08407e-08
5.08405e-08
5.08383e-08
5.08395e-08
5.08393e-08
5.08395e-08
5.08431e-08
5.08448e-08
5.08383e-08
5.08462e-08
5.08382e-08
5.08391e-08
5.08458e-08
5.08373e-08
5.08394e-08
5.08372e-08
5.08398e-08
5.08402e-08
5.0838e-08
5.08441e-08
5.08397e-08
5.08447e-08
5.08382e-08
5.08388e-08
5.08388e-08
5.0839e-08
5.0839e-08
5.0839e-08
5.08391e-08
5.08398e-08
5.08367e-08
5.08367e-08
5.08365e-08
5.08366e-08
5.08352e-08
5.08351e-08
5.08442e-08
5.08396e-08
5.08396e-08
5.08428e-08
5.08364e-08
5.08364e-08
5.08395e-08
5.08447e-08
5.08397e-08
5.084e-08
5.08442e-08
5.08372e-08
5.08443e-08
5.0838e-08
5.08397e-08
5.08441e-08
5.08446e-08
5.08471e-08
5.08466e-08
5.08382e-08
5.08475e-08
5.08412e-08
5.08448e-08
5.0843e-08
5.08397e-08
5.08389e-08
5.08309e-08
5.0839e-08
5.08477e-08
5.08446e-08
5.08396e-08
5.08405e-08
5.08448e-08
5.08389e-08
5.08432e-08
5.08309e-08
5.08447e-08
5.08387e-08
5.08388e-08
5.08405e-08
5.08364e-08
5.08389e-08
5.08353e-08
5.08409e-08
5.08477e-08
5.08481e-08
5.08358e-08
5.08421e-08
5.08405e-08
5.08443e-08
5.08371e-08
5.08396e-08
5.08446e-08
5.08394e-08
5.0844e-08
5.08401e-08
5.08441e-08
5.08446e-08
5.08291e-08
5.0836e-08
5.08363e-08
5.08364e-08
5.08399e-08
5.08441e-08
5.0833e-08
5.0839e-08
5.08424e-08
5.08439e-08
5.08444e-08
5.08359e-08
5.08442e-08
5.08363e-08
5.08443e-08
5.08479e-08
5.08439e-08
5.08474e-08
5.0838e-08
5.08441e-08
5.0829e-08
5.08442e-08
5.08383e-08
5.08443e-08
5.08386e-08
5.08442e-08
5.08414e-08
5.08491e-08
5.08415e-08
5.08443e-08
5.08357e-08
5.08442e-08
5.08422e-08
5.08388e-08
5.08396e-08
5.08442e-08
5.0844e-08
5.08433e-08
5.08381e-08
5.08439e-08
5.08405e-08
5.08413e-08
5.08355e-08
5.08441e-08
5.08434e-08
5.08422e-08
5.08434e-08
5.08441e-08
5.08433e-08
5.08374e-08
5.08406e-08
5.08434e-08
5.08441e-08
5.08402e-08
5.08401e-08
5.08439e-08
5.08355e-08
5.08497e-08
5.08413e-08
5.08471e-08
5.08421e-08
5.08526e-08
5.08526e-08
5.08524e-08
5.08524e-08
5.08523e-08
5.08528e-08
5.08528e-08
5.08379e-08
5.08336e-08
5.08406e-08
5.08423e-08
5.0843e-08
5.08434e-08
5.08401e-08
5.08433e-08
5.08434e-08
5.08335e-08
5.08433e-08
5.08373e-08
5.08451e-08
5.08368e-08
5.08413e-08
5.08425e-08
5.08434e-08
5.08358e-08
5.08414e-08
5.08424e-08
5.08414e-08
5.08423e-08
5.08433e-08
5.08448e-08
5.08423e-08
5.08415e-08
5.08373e-08
5.08429e-08
5.08434e-08
5.08431e-08
5.08425e-08
5.08415e-08
5.08401e-08
5.0843e-08
5.08402e-08
5.08415e-08
5.08424e-08
5.08405e-08
5.08416e-08
5.08432e-08
5.08387e-08
5.08423e-08
5.0834e-08
5.08479e-08
5.08381e-08
5.08374e-08
5.08415e-08
5.08424e-08
5.08392e-08
5.08497e-08
5.08414e-08
5.08424e-08
5.0849e-08
5.08294e-08
5.08293e-08
5.08412e-08
5.08431e-08
5.08423e-08
5.0843e-08
5.0826e-08
5.0826e-08
5.08403e-08
5.08405e-08
5.08405e-08
5.085e-08
5.08432e-08
5.08384e-08
5.08428e-08
5.08429e-08
5.08425e-08
5.08497e-08
5.08387e-08
5.08432e-08
5.08415e-08
5.08414e-08
5.08428e-08
5.08424e-08
5.08428e-08
5.08427e-08
5.08491e-08
5.08473e-08
5.08424e-08
5.08413e-08
5.08424e-08
5.08429e-08
5.08424e-08
5.08422e-08
5.08423e-08
5.0848e-08
5.08367e-08
5.0843e-08
5.08393e-08
5.08387e-08
5.0848e-08
5.08414e-08
5.08416e-08
5.08353e-08
5.08291e-08
5.08291e-08
5.08357e-08
5.08434e-08
5.08413e-08
5.08481e-08
5.08295e-08
5.08266e-08
5.08266e-08
5.08498e-08
5.08329e-08
5.08312e-08
5.08416e-08
5.08365e-08
5.08408e-08
5.08397e-08
5.08385e-08
5.08382e-08
5.08405e-08
5.08497e-08
5.08414e-08
5.08394e-08
5.08384e-08
5.08495e-08
5.08321e-08
5.08494e-08
5.08385e-08
5.08399e-08
5.08441e-08
5.08411e-08
5.08406e-08
5.08347e-08
5.08404e-08
5.08348e-08
5.08415e-08
5.08385e-08
5.08315e-08
5.08315e-08
5.08482e-08
5.08394e-08
5.08514e-08
5.08514e-08
5.08514e-08
5.08389e-08
5.08501e-08
5.08514e-08
5.08429e-08
5.08513e-08
5.08346e-08
5.08346e-08
5.08513e-08
5.08421e-08
5.08493e-08
5.08516e-08
5.08492e-08
5.08517e-08
5.08492e-08
5.08327e-08
5.08484e-08
5.085e-08
5.08512e-08
5.08408e-08
5.08377e-08
5.08494e-08
5.08407e-08
5.08513e-08
5.08401e-08
5.0842e-08
5.08517e-08
5.08494e-08
5.08517e-08
5.08498e-08
5.08416e-08
5.08339e-08
5.08267e-08
5.08269e-08
5.08396e-08
5.08267e-08
5.08267e-08
5.08268e-08
5.08284e-08
5.08483e-08
5.08319e-08
5.08358e-08
5.08337e-08
5.08398e-08
5.0828e-08
5.08281e-08
5.08336e-08
5.08498e-08
5.08422e-08
5.08502e-08
5.08496e-08
5.08491e-08
5.08298e-08
5.08298e-08
5.083e-08
5.083e-08
5.08298e-08
5.0827e-08
5.08301e-08
5.08279e-08
5.08266e-08
5.08297e-08
5.08297e-08
5.08266e-08
5.08271e-08
5.08279e-08
5.08301e-08
SCALARS rr_(S) float
LOOKUP_TABLE default
0.980097
0.979957
0.979973
0.979957
0.979938
0.979973
0.980097
0.979966
0.979985
0.97996
0.980061
0.979966
0.979969
0.97996
0.979941
0.979972
0.979953
0.979964
0.979987
0.979975
0.97998
0.979899
0.979976
0.979975
0.979975
0.979962
0.980059
0.979971
0.980021
0.979918
0.97997
0.98002
0.980063
0.979924
0.979925
0.979924
0.979915
0.979927
0.97997
0.980063
0.980021
0.979914
0.979914
0.97997
0.980043
0.980021
0.979986
0.979984
0.979972
0.980027
0.980024
0.980011
0.979935
0.980012
0.979937
0.98005
0.979925
0.980011
0.979925
0.979973
0.979952
0.979948
0.980058
0.97995
0.979948
0.979958
0.979952
0.979962
0.979975
0.979956
0.979936
0.979936
0.980022
0.979955
0.979973
0.980064
0.979945
0.979958
0.979962
0.980005
0.980035
0.979935
0.97995
0.980036
0.980022
0.980047
0.979971
0.979958
0.980042
0.979905
0.980011
0.979905
0.979942
0.979959
0.980012
0.980023
0.980036
0.97996
0.979945
0.97997
0.979998
0.98002
0.980035
0.979961
0.979961
0.97996
0.979949
0.979972
0.980036
0.979951
0.979973
0.980041
0.980037
0.979963
0.979961
0.980013
0.979927
0.980038
0.979928
0.980012
0.979991
0.979942
0.979955
0.979953
0.979951
0.97994
0.979929
0.97996
0.980037
0.980011
0.979934
0.979956
0.979949
0.979955
0.980021
0.979924
0.980044
0.979969
0.979949
0.979924
0.980018
0.979965
0.979991
0.97996
0.980039
0.979961
0.979965
0.979975
0.979973
0.98
0.979982
0.979955
0.980019
0.979969
0.97996
0.979956
0.979959
0.980019
0.980018
0.979966
0.979983
0.980019
0.980043
0.980022
0.980017
0.97996
0.980018
0.980019
0.980021
0.980017
0.979941
0.980011
0.980023
0.979958
0.980012
0.979949
0.979941
0.979967
0.979937
0.979963
0.980022
0.97996
0.97996
0.980018
0.979957
0.980024
0.979953
0.979951
0.979943
0.97996
0.979957
0.980035
0.980011
0.98002
0.979956
0.979964
0.979963
0.979949
0.979955
0.979959
0.979955
0.979987
0.980005
0.97995
0.980023
0.979949
0.979959
0.980019
0.979948
0.979955
0.979948
0.979962
0.979962
0.979949
0.979999
0.979961
0.980005
0.979951
0.979951
0.979951
0.979951
0.979951
0.979952
0.979952
0.97996
0.979941
0.979941
0.979941
0.979941
0.979938
0.979937
0.98
0.979959
0.979954
0.979985
0.979942
0.979942
0.979954
0.980004
0.979954
0.97996
0.98
0.979946
0.98
0.97995
0.979953
0.979999
0.980004
0.980035
0.980028
0.97995
0.980041
0.97997
0.980004
0.979987
0.979954
0.979951
0.979916
0.979951
0.980044
0.980003
0.979954
0.979966
0.980005
0.979951
0.979991
0.979916
0.980004
0.979951
0.979955
0.979963
0.979942
0.979958
0.979937
0.979968
0.980043
0.980047
0.979941
0.979978
0.979966
0.980002
0.979946
0.979959
0.980003
0.979959
0.979998
0.979965
0.979999
0.980004
0.979909
0.97994
0.97994
0.97994
0.97996
0.979998
0.979925
0.979955
0.979982
0.979997
0.980002
0.97994
0.979999
0.979944
0.980001
0.980043
0.979998
0.98004
0.97995
0.979999
0.979908
0.98
0.979953
0.98
0.979954
0.98
0.979973
0.980064
0.979972
0.98
0.979938
0.979999
0.979982
0.979957
0.979955
0.98
0.979998
0.979991
0.979952
0.979997
0.979967
0.979972
0.979939
0.979998
0.979992
0.979981
0.979991
0.979999
0.97999
0.979949
0.979966
0.979992
0.979999
0.979964
0.979964
0.979998
0.979939
0.980066
0.979974
0.980035
0.97998
0.980098
0.980098
0.980096
0.980096
0.980094
0.980103
0.980103
0.97995
0.97993
0.979965
0.979982
0.979987
0.979991
0.979966
0.979991
0.979992
0.97993
0.979991
0.979948
0.980011
0.979942
0.979973
0.979983
0.979992
0.979942
0.979974
0.979982
0.979974
0.979981
0.979989
0.980006
0.979982
0.979975
0.979947
0.979987
0.97999
0.979987
0.979983
0.979975
0.979964
0.979987
0.979965
0.979974
0.979982
0.979966
0.979973
0.979989
0.979953
0.979981
0.979931
0.980043
0.979951
0.979949
0.979975
0.979982
0.979957
0.980067
0.979972
0.979982
0.980063
0.979912
0.979912
0.979972
0.979988
0.979981
0.979987
0.9799
0.979899
0.979963
0.979967
0.979967
0.980072
0.979989
0.979952
0.979985
0.979986
0.979983
0.980065
0.979955
0.979988
0.979974
0.979974
0.979985
0.979982
0.979985
0.979985
0.980062
0.980039
0.979982
0.979974
0.979981
0.979986
0.979982
0.979981
0.979981
0.980044
0.979944
0.979986
0.979958
0.979955
0.980045
0.979972
0.979972
0.979939
0.979906
0.979906
0.979939
0.97999
0.979974
0.980046
0.979908
0.979898
0.979897
0.980067
0.979926
0.979917
0.979976
0.979943
0.979966
0.979958
0.979952
0.979953
0.979968
0.980066
0.979972
0.97996
0.979953
0.980065
0.979921
0.980069
0.979951
0.979962
0.979999
0.979969
0.979968
0.979933
0.979965
0.979933
0.979973
0.979954
0.97992
0.979921
0.980048
0.979957
0.980099
0.9801
0.980098
0.979956
0.980072
0.980098
0.979986
0.980097
0.979934
0.979934
0.980098
0.979977
0.980065
0.980102
0.980063
0.980103
0.980063
0.979926
0.98005
0.980071
0.980096
0.979969
0.979949
0.980065
0.979968
0.980095
0.979963
0.979977
0.980103
0.980065
0.980102
0.980066
0.979974
0.979931
0.979897
0.979898
0.97996
0.979897
0.979897
0.979898
0.979905
0.980048
0.97992
0.97994
0.979931
0.979962
0.979904
0.979904
0.979933
0.980066
0.979978
0.980074
0.980072
0.980064
0.979908
0.979908
0.97991
0.97991
0.979908
0.979901
0.979914
0.979905
0.979901
0.979911
0.979911
0.979901
0.9799
0.979904
0.979912
SCALARS rr_(P) float
LOOKUP_TABLE default
0.024687
0.0246288
0.024634
0.0246298
0.0246135
0.0246341
0.0246871
0.0246306
0.0246389
0.024629
0.0246833
0.0246305
0.0246318
0.0246282
0.0246191
0.0246332
0.024626
0.0246312
0.0246415
0.0246355
0.0246362
0.0245925
0.0246362
0.0246353
0.0246356
0.0246302
0.0246751
0.0246333
0.0246574
0.0246048
0.024632
0.0246572
0.0246759
0.0246085
0.0246068
0.0246086
0.0246042
0.0246076
0.024632
0.0246758
0.0246575
0.0246039
0.024604
0.024632
0.0246704
0.0246566
0.0246403
0.0246379
0.0246338
0.024661
0.0246589
0.0246515
0.0246144
0.0246513
0.0246148
0.0246687
0.0246067
0.0246513
0.0246067
0.0246352
0.0246263
0.0246213
0.0246714
0.0246217
0.0246212
0.0246261
0.0246261
0.0246302
0.0246359
0.0246286
0.0246145
0.0246145
0.0246575
0.0246242
0.0246338
0.0246784
0.024618
0.0246261
0.0246305
0.0246502
0.0246621
0.0246117
0.0246238
0.0246638
0.0246557
0.0246698
0.0246333
0.0246251
0.0246703
0.0245954
0.0246514
0.0245954
0.0246177
0.0246267
0.0246509
0.0246594
0.024662
0.0246291
0.0246181
0.0246323
0.0246448
0.0246544
0.0246639
0.0246307
0.0246296
0.0246296
0.024623
0.0246328
0.024664
0.0246279
0.0246352
0.0246685
0.0246659
0.024631
0.0246298
0.0246511
0.0246071
0.0246625
0.0246069
0.0246509
0.0246428
0.0246198
0.0246288
0.024625
0.0246274
0.0246186
0.0246088
0.0246291
0.024662
0.0246509
0.0246144
0.0246293
0.0246241
0.0246292
0.0246543
0.0246066
0.0246652
0.0246314
0.0246237
0.0246067
0.0246536
0.0246288
0.0246419
0.0246289
0.0246625
0.0246301
0.0246296
0.0246338
0.0246341
0.0246466
0.024638
0.0246288
0.0246574
0.0246317
0.024629
0.0246291
0.0246273
0.024653
0.0246528
0.0246318
0.0246378
0.0246569
0.024669
0.0246589
0.0246531
0.0246295
0.0246531
0.0246532
0.0246574
0.024653
0.0246175
0.0246513
0.024659
0.0246268
0.0246512
0.0246232
0.0246176
0.0246305
0.0246142
0.0246294
0.0246573
0.0246292
0.0246292
0.0246535
0.0246251
0.0246594
0.0246251
0.0246229
0.0246173
0.0246291
0.0246249
0.0246614
0.0246512
0.0246573
0.024629
0.0246315
0.0246311
0.0246241
0.0246289
0.0246263
0.0246288
0.0246408
0.0246499
0.0246242
0.0246572
0.0246238
0.0246261
0.0246546
0.0246205
0.0246286
0.0246199
0.0246279
0.0246298
0.0246236
0.0246464
0.0246274
0.0246492
0.024623
0.0246275
0.0246275
0.0246282
0.0246281
0.024628
0.024628
0.0246286
0.0246195
0.0246197
0.0246196
0.0246194
0.0246147
0.0246147
0.0246468
0.0246284
0.0246303
0.0246382
0.0246191
0.0246188
0.0246302
0.0246496
0.0246305
0.0246291
0.0246462
0.0246205
0.0246464
0.0246235
0.0246308
0.024646
0.0246489
0.0246623
0.0246619
0.0246237
0.0246634
0.0246324
0.0246492
0.0246411
0.0246307
0.0246277
0.0246036
0.0246279
0.0246638
0.0246492
0.0246303
0.0246305
0.0246499
0.0246277
0.0246416
0.0246037
0.0246491
0.0246274
0.0246253
0.0246311
0.0246192
0.0246253
0.0246144
0.0246318
0.0246677
0.0246698
0.024616
0.0246361
0.0246305
0.0246464
0.0246203
0.0246269
0.0246491
0.0246266
0.0246447
0.0246294
0.0246446
0.0246495
0.024599
0.0246169
0.0246189
0.024619
0.0246286
0.0246442
0.0246092
0.0246256
0.0246377
0.024644
0.0246459
0.0246161
0.0246462
0.0246176
0.0246452
0.0246703
0.0246443
0.0246628
0.0246228
0.0246462
0.0245991
0.0246452
0.0246241
0.0246468
0.0246247
0.0246453
0.0246334
0.0246723
0.0246345
0.0246463
0.0246163
0.0246466
0.0246376
0.0246247
0.0246286
0.0246453
0.0246443
0.0246418
0.0246229
0.0246444
0.0246305
0.0246333
0.0246145
0.0246443
0.0246421
0.0246367
0.0246415
0.0246449
0.0246414
0.024621
0.0246307
0.0246418
0.0246464
0.024629
0.024629
0.0246445
0.0246146
0.0246853
0.0246334
0.0246622
0.0246365
0.0247164
0.0247162
0.0247159
0.024716
0.0247159
0.0247165
0.0247162
0.0246225
0.0246108
0.0246316
0.0246379
0.0246412
0.0246415
0.0246294
0.0246418
0.0246421
0.0246106
0.0246415
0.0246201
0.0246514
0.0246204
0.0246344
0.024638
0.0246417
0.0246159
0.0246335
0.0246376
0.0246334
0.0246375
0.024642
0.0246504
0.0246381
0.024634
0.0246199
0.0246406
0.0246425
0.0246409
0.0246384
0.0246342
0.0246293
0.0246409
0.0246294
0.0246347
0.0246382
0.0246304
0.0246345
0.0246417
0.0246248
0.024637
0.0246113
0.0246702
0.0246226
0.024621
0.0246341
0.0246369
0.0246262
0.0246846
0.0246342
0.0246372
0.024672
0.0245993
0.0245992
0.0246335
0.0246413
0.0246364
0.0246406
0.02459
0.0245901
0.0246304
0.0246303
0.0246307
0.0246847
0.0246422
0.0246243
0.0246385
0.0246387
0.0246383
0.0246857
0.024625
0.0246416
0.0246337
0.0246337
0.0246388
0.0246377
0.0246388
0.0246383
0.0246754
0.0246627
0.0246377
0.0246335
0.024637
0.0246391
0.0246374
0.0246366
0.024637
0.0246702
0.024619
0.0246409
0.0246264
0.0246248
0.0246705
0.0246339
0.0246344
0.0246145
0.0245998
0.0245998
0.024617
0.0246424
0.0246338
0.0246711
0.0246009
0.0245915
0.0245915
0.0246863
0.0246076
0.0246048
0.0246344
0.024618
0.0246317
0.0246286
0.0246246
0.0246232
0.0246305
0.0246848
0.024633
0.0246268
0.024624
0.0246788
0.0246068
0.024673
0.0246244
0.0246284
0.0246456
0.0246321
0.0246308
0.024614
0.02463
0.024614
0.0246336
0.024624
0.0246057
0.0246054
0.024671
0.0246278
0.024688
0.0246869
0.0246893
0.0246251
0.0246854
0.0246905
0.024639
0.0246887
0.0246118
0.0246119
0.0246878
0.0246367
0.0246752
0.0246883
0.0246763
0.0246886
0.0246763
0.0246072
0.0246731
0.0246851
0.0246879
0.024631
0.0246219
0.0246772
0.0246309
0.0246901
0.0246291
0.0246363
0.024689
0.0246781
0.0246898
0.0246863
0.0246347
0.0246104
0.0245926
0.0245933
0.024628
0.0245927
0.0245927
0.024593
0.0245977
0.024672
0.0246062
0.0246165
0.0246103
0.0246287
0.0245965
0.0245965
0.0246013
0.024687
0.0246369
0.0246862
0.0246739
0.0246735
0.0246016
0.0246018
0.0246022
0.0246021
0.0246017
0.0245936
0.0246021
0.0245964
0.0245923
0.0246015
0.0246014
0.0245921
0.0245934
0.0245962
0.0246025
SCALARS rr_(T) float
LOOKUP_TABLE default
1
1
1
1
1
1
1
1
1
1
1
1
1
1
1
1
1
1
1
1
1
1
1
1
1
1
1
1
1
1
1
1
1
1
1
1
1
1
1
1
1
1
1
1
1
1
1
1
1
1
1
1
1
1
1
1
1
1
1
1
1
1
1
1
1
1
1
1
1
1
1
1
1
1
1
1
1
1
1.00001
1
1
1
1
1
1
1
1
1
1
1
1
1
1
1
1
1
1
1
1
1
1
1
1
1
1
1
1
1
1
1
1
1
1
1
1
1
1.00001
1
1
1
1
1
1
1
1
1
1
1
1
1
1
1
1
1
1
1
1
1
1
1
1
1
1
1
1
1
1
1
1
1
1
1
1
1
1
1
1
1
1
1
1
1
1
1
1
1
1
1
1
1
1
1
1
1
1
1
1
1
1
1
1
1
1
1
1
1
1
1
1
1
1
1
1
1
1
1
1
1
1
1
1
1
1
1
1
1
1
1
1
1
1
1
1
1
1
1
1
1
1
1
1
1
1
1
1
1
1
1
1
1
1
1
1
1
1
1
1
1
1
1
1
1
1
1
1
1
1
1
1
1
1
1
1
1
1
1
1
1
1
1
1
1
1
1
1
1
1
1
1
1
1
1
1
1
1
1
1
1
1
1
1
1
1
1
1
1
1
1
1
1
1
1
1
1
1
1
1
1
1
1
1
1
1
1
1
1
1
1
1
1
1
1
1
1
1
1
1
1
1
1
1
1
1
1
1
1
1
1
1
1
1
1
1
1
1
1
1
1
1
1
1
1
1
1
1
1
1
1
1
1
1
1
1
1
1
1
1
1
1
1
1
1
1
1
1
1
1
1
1
1
1
1
1
1
1
1
1
1
1
1
1
1
1
1
1
1
1
1
1
1
1
1
1
1
1
1
1
1
1
1
1
1
1
1
1
1
1
1
1
1
1
1
1
1
1
1
1
1
1
1
1
1
1
1.00001
1.00001
1
1
1
1
1
1
1
1
1
1
1
1
1
1
1
1
1
1
1
1
1
1
1
1
1
1
1
1
1
1
1
1
1
1
1
1
1
1
1
1
1
1
1
1
1
1
1
1
1
1
1
1
1
1
1
1
1
1
1
1
1
1
1
1
1
1
1
1
1
1
1
1
1
1
1
1
1
1.00001
1.00001
1
1
1
1
1
1
1
1
1
1
1
1
1
1
1
1
1
1
1
1
1
1
1
1
1
1
1
1
1
1
1
1
1
1
1
1
1
1
1
1
1
1
1
1
1
1
1
1
1
1
1
1
1
1
1
1
1
1
1
SCALARS rr_tsim float
LOOKUP_TABLE default
2260
2260
2260
2260
2260
2260
2260
2260
2260
2260
2260
2260
2260
2260
2260
2260
2260
2260
2260
2260
2260
2260
2260
2260
2260
2260
2260
2260
2260
2260
2260
2260
2260
2260
2260
2260
2260
2260
2260
2260
2260
2260
2260
2260
2260
2260
2260
2260
2260
2260
2260
2260
2260
2260
2260
2260
2260
2260
2260
2260
2260
2260
2260
2260
2260
2260
2260
2260
2260
2260
2260
2260
2260
2260
2260
2260
2260
2260
2260
2260
2260
2260
2260
2260
2260
2260
2260
2260
2260
2260
2260
2260
2260
2260
2260
2260
2260
2260
2260
2260
2260
2260
2260
2260
2260
2260
2260
2260
2260
2260
2260
2260
2260
2260
2260
2260
2260
2260
2260
2260
2260
2260
2260
2260
2260
2260
2260
2260
2260
2260
2260
2260
2260
2260
2260
2260
2260
2260
2260
2260
2260
2260
2260
2260
2260
2260
2260
2260
2260
2260
2260
2260
2260
2260
2260
2260
2260
2260
2260
2260
2260
2260
2260
2260
2260
2260
2260
2260
2260
2260
2260
2260
2260
2260
2260
2260
2260
2260
2260
2260
2260
2260
2260
2260
2260
2260
2260
2260
2260
2260
2260
2260
2260
2260
2260
2260
2260
2260
2260
2260
2260
2260
2260
2260
2260
2260
2260
2260
2260
2260
2260
2260
2260
2260
2260
2260
2260
2260
2260
2260
2260
2260
2260
2260
2260
2260
2260
2260
2260
2260
2260
2260
2260
2260
2260
2260
2260
2260
2260
2260
2260
2260
2260
2260
2260
2260
2260
2260
2260
2260
2260
2260
2260
2260
2260
2260
2260
2260
2260
2260
2260
2260
2260
2260
2260
2260
2260
2260
2260
2260
2260
2260
2260
2260
2260
2260
2260
2260
2260
2260
2260
2260
2260
2260
2260
2260
2260
2260
2260
2260
2260
2260
2260
2260
2260
2260
2260
2260
2260
2260
2260
2260
2260
2260
2260
2260
2260
2260
2260
2260
2260
2260
2260
2260
2260
2260
2260
2260
2260
2260
2260
2260
2260
2260
2260
2260
2260
2260
2260
2260
2260
2260
2260
2260
2260
2260
2260
2260
2260
2260
2260
2260
2260
2260
2260
2260
2260
2260
2260
2260
2260
2260
2260
2260
2260
2260
2260
2260
2260
2260
2260
2260
2260
2260
2260
2260
2260
2260
2260
2260
2260
2260
2260
2260
2260
2260
2260
2260
2260
2260
2260
2260
2260
2260
2260
2260
2260
2260
2260
2260
2260
2260
2260
2260
2260
2260
2260
2260
2260
2260
2260
2260
2260
2260
2260
2260
2260
2260
2260
2260
2260
2260
2260
2260
2260
2260
2260
2260
2260
2260
2260
2260
2260
2260
2260
2260
2260
2260
2260
2260
2260
2260
2260
2260
2260
2260
2260
2260
2260
2260
2260
2260
2260
2260
2260
2260
2260
2260
2260
2260
2260
2260
2260
2260
2260
2260
2260
2260
2260
2260
2260
2260
2260
2260
2260
2260
2260
2260
2260
2260
2260
2260
2260
2260
2260
2260
2260
2260
2260
2260
2260
2260
2260
2260
2260
2260
2260
2260
2260
2260
2260
2260
2260
2260
2260
2260
2260
2260
2260
2260
2260
2260
2260
2260
2260
2260
2260
2260
2260
2260
2260
2260
2260
2260
2260
2260
2260
2260
2260
2260
2260
2260
2260
2260
2260
2260
2260
2260
2260
2260
2260
2260
2260
2260
2260
2260
2260
2260
2260
2260
2260
2260
2260
2260
2260
2260
2260
2260
2260
2260
2260
2260
2260
2260
2260
2260
2260
2260
2260
2260
2260
2260
2260
SCALARS rr_Vext float
LOOKUP_TABLE default
0.181358
0.449122
0.356047
0.468108
0.250491
0.377827
0.179274
0.465088
0.395105
0.504564
0.165389
0.466507
0.409824
0.435012
0.516133
0.424863
0.369042
0.414183
0.36553
0.360526
0.405108
0.0765106
0.415068
0.383013
0.347104
0.40347
0.15501
0.352833
0.267412
0.339246
0.361968
0.276484
0.17152
0.2529
0.249247
0.253451
0.330125
0.24949
0.361539
0.192836
0.22472
0.29105
0.291059
0.39727
0.216885
0.244119
0.344611
0.350182
0.330078
0.30376
0.312853
0.245236
0.401517
0.315206
0.369413
0.157753
0.266178
0.317515
0.26615
0.393183
0.470928
0.464871
0.153275
0.327641
0.445312
0.417373
0.455653
0.391904
0.357984
0.515555
0.435553
0.430789
0.277653
0.338743
0.353971
0.176426
0.372674
0.413476
0.395168
0.271132
0.24049
0.283506
0.52753
0.24025
0.327759
0.119291
0.407578
0.344608
0.229705
0.0374828
0.273092
0.0407607
0.316356
0.299311
0.258658
0.232982
0.220908
0.442929
0.372909
0.351854
0.293534
0.277769
0.230478
0.418574
0.426136
0.38383
0.340625
0.340846
0.244628
0.512517
0.326025
0.164038
0.220056
0.457877
0.429716
0.304481
0.30863
0.183508
0.320034
0.303365
0.266985
0.502647
0.511808
0.442038
0.484524
0.38495
0.220814
0.478208
0.200078
0.262278
0.227502
0.456393
0.449022
0.448247
0.288936
0.187537
0.190638
0.327438
0.404467
0.187459
0.241541
0.387288
0.287968
0.472756
0.223275
0.385188
0.34973
0.336126
0.214788
0.269545
0.304297
0.440624
0.248026
0.397409
0.461988
0.469241
0.307854
0.249007
0.247656
0.401134
0.333851
0.246116
0.160076
0.239703
0.240466
0.430953
0.252348
0.2551
0.274619
0.245938
0.386342
0.258182
0.226058
0.297712
0.27281
0.340305
0.382116
0.361131
0.313976
0.360844
0.266566
0.418244
0.44885
0.241613
0.442298
0.239439
0.436793
0.402735
0.378964
0.379413
0.446225
0.200774
0.266927
0.246016
0.447407
0.439019
0.407197
0.447892
0.45295
0.381863
0.466567
0.307714
0.274109
0.512729
0.285546
0.465952
0.36996
0.226654
0.28634
0.461722
0.389033
0.350306
0.450054
0.445254
0.278858
0.28422
0.267542
0.395451
0.433417
0.498089
0.478086
0.520368
0.471556
0.515284
0.432053
0.457199
0.460649
0.434353
0.456355
0.422917
0.416634
0.28241
0.389409
0.454293
0.312119
0.47027
0.432154
0.492657
0.288245
0.468274
0.448675
0.284499
0.406911
0.282468
0.455236
0.411287
0.296254
0.277676
0.235552
0.271096
0.455771
0.1975
0.347019
0.276526
0.313902
0.468669
0.455546
0.147788
0.457102
0.23643
0.261763
0.466268
0.379025
0.264584
0.522179
0.291229
0.147779
0.267723
0.406397
0.508919
0.382688
0.457753
0.425153
0.226614
0.21673
0.175978
0.201427
0.308133
0.229074
0.371979
0.227523
0.40639
0.287621
0.2681
0.323951
0.293521
0.39852
0.281485
0.287595
0.13637
0.30357
0.437808
0.438056
0.391523
0.281115
0.192358
0.545875
0.360487
0.298316
0.27429
0.284975
0.282728
0.358841
0.27809
0.192058
0.27479
0.183495
0.351066
0.279575
0.127091
0.26372
0.321336
0.279313
0.443667
0.290709
0.381466
0.138314
0.30566
0.287012
0.261623
0.269316
0.32199
0.308721
0.321044
0.266562
0.271162
0.293858
0.403599
0.276094
0.39902
0.358785
0.290795
0.286472
0.290121
0.323371
0.289911
0.270116
0.308527
0.333027
0.387864
0.290168
0.286352
0.42514
0.419246
0.27621
0.290834
0.117368
0.342061
0.227677
0.319679
0.126304
0.131123
0.117233
0.119129
0.126411
0.133076
0.137186
0.365817
0.275202
0.269662
0.305532
0.296205
0.292406
0.314708
0.285992
0.292385
0.310822
0.291312
0.368786
0.261062
0.378831
0.289101
0.277577
0.291594
0.322763
0.328992
0.304694
0.351047
0.326029
0.300388
0.213974
0.303858
0.29886
0.328279
0.305307
0.288517
0.275034
0.304061
0.31909
0.436158
0.283304
0.423998
0.438656
0.298863
0.42286
0.322473
0.255676
0.356791
0.307316
0.229503
0.185269
0.353347
0.377137
0.31343
0.259541
0.317011
0.138203
0.309862
0.289511
0.140568
0.0597484
0.0653751
0.26865
0.283292
0.331354
0.316584
0.0311308
0.0325286
0.318177
0.32154
0.30424
0.103723
0.264724
0.315901
0.315639
0.272073
0.24028
0.107863
0.464463
0.284943
0.352158
0.357669
0.255161
0.323443
0.249473
0.275478
0.129738
0.19938
0.323803
0.327748
0.280323
0.293561
0.303655
0.320502
0.306407
0.14396
0.275777
0.301351
0.290882
0.437484
0.143857
0.23373
0.24057
0.234521
0.155624
0.155628
0.267697
0.208506
0.301871
0.153855
0.185525
0.0614166
0.0614141
0.112309
0.199632
0.13497
0.256998
0.284536
0.297804
0.336997
0.307415
0.285229
0.222214
0.127171
0.278047
0.290578
0.282436
0.144129
0.147644
0.104628
0.281945
0.285968
0.224179
0.258247
0.23871
0.223789
0.292908
0.223756
0.257201
0.251384
0.158046
0.195239
0.165307
0.310643
0.112706
0.118918
0.115939
0.294531
0.107689
0.104732
0.200915
0.0979317
0.243153
0.243507
0.100659
0.255443
0.113722
0.110988
0.127154
0.105858
0.105722
0.174204
0.12624
0.112774
0.106277
0.235808
0.272656
0.118743
0.260314
0.0960763
0.264786
0.20817
0.100551
0.0864347
0.0948692
0.12646
0.225549
0.192178
0.0824423
0.091407
0.253854
0.0775857
0.0775824
0.0878714
0.0979617
0.0995845
0.127333
0.207531
0.193793
0.253766
0.077524
0.0775207
0.229251
0.0843462
0.178712
0.0765187
0.078341
0.10327
0.198595
0.205595
0.218905
0.200658
0.198579
0.0438923
0.320379
0.0557535
0.0543416
0.259007
0.257237
0.0563344
0.0390571
0.0548043
0.238559
SCALARS rr_Vli float
LOOKUP_TABLE default
0.396486
0.903295
0.721401
0.9429
0.493002
0.765663
0.392034
0.937668
0.806265
1.01511
0.359835
0.94054
0.8277
0.874152
1.02412
0.859726
0.739393
0.835913
0.748795
0.732051
0.823478
0.146196
0.843735
0.777624
0.704886
0.813138
0.333348
0.714255
0.560607
0.6598
0.731223
0.579527
0.369271
0.494391
0.485903
0.495506
0.641456
0.486895
0.73048
0.415064
0.471209
0.565329
0.565389
0.802512
0.463322
0.511146
0.704659
0.71357
0.668679
0.640141
0.657313
0.509708
0.79128
0.654952
0.728497
0.336093
0.518807
0.659754
0.51879
0.798044
0.943862
0.925028
0.327839
0.652216
0.886008
0.836193
0.912997
0.789771
0.727287
1.0367
0.858505
0.84915
0.582209
0.67685
0.716967
0.381182
0.738157
0.828437
0.796419
0.562479
0.507622
0.556447
1.0535
0.508331
0.685382
0.254578
0.825073
0.689485
0.49066
0.0719434
0.567527
0.078246
0.626349
0.600257
0.537107
0.489901
0.466216
0.891212
0.738705
0.711147
0.604215
0.579672
0.487748
0.844108
0.858079
0.772712
0.679545
0.689378
0.517758
1.02964
0.661676
0.349478
0.467058
0.923818
0.865434
0.63249
0.601612
0.38741
0.624
0.62999
0.547958
0.99831
1.02947
0.884276
0.972854
0.763251
0.431749
0.962234
0.422251
0.544645
0.448452
0.918477
0.897108
0.90182
0.602898
0.365537
0.404181
0.66093
0.80773
0.365414
0.503537
0.778932
0.590239
0.951057
0.47153
0.776063
0.704321
0.680953
0.435245
0.556267
0.620245
0.886305
0.519981
0.802495
0.929439
0.944259
0.617852
0.518655
0.515712
0.810195
0.680204
0.515658
0.341238
0.503637
0.500927
0.867512
0.525643
0.531442
0.575695
0.512235
0.764766
0.536472
0.475014
0.597024
0.566757
0.679099
0.75645
0.728157
0.61851
0.726371
0.558759
0.841633
0.903302
0.503621
0.88478
0.503407
0.873805
0.803282
0.749914
0.763387
0.892539
0.423343
0.554568
0.51569
0.900207
0.886298
0.821709
0.894902
0.911194
0.765269
0.938414
0.629673
0.568291
1.02453
0.59847
0.93055
0.741276
0.473239
0.569197
0.928571
0.772726
0.703604
0.906433
0.889135
0.575328
0.57047
0.554199
0.788781
0.870375
1.00028
0.961013
1.04558
0.947449
1.03539
0.86871
0.907695
0.914767
0.862343
0.90593
0.833929
0.821515
0.583003
0.782792
0.915905
0.636237
0.933119
0.857208
0.993021
0.597474
0.944366
0.902753
0.586735
0.8088
0.582773
0.908853
0.829724
0.610879
0.57498
0.497304
0.57206
0.9101
0.417613
0.701479
0.572844
0.642711
0.945254
0.914965
0.286927
0.918292
0.500196
0.542257
0.940098
0.764199
0.548648
1.04887
0.596674
0.286927
0.554499
0.815975
1.01856
0.772232
0.908464
0.850821
0.4466
0.437751
0.374434
0.429883
0.608682
0.465558
0.74999
0.469384
0.807667
0.576816
0.555339
0.649546
0.603994
0.802275
0.579177
0.596019
0.263019
0.600441
0.868509
0.869128
0.787207
0.578061
0.376387
1.09285
0.734298
0.613257
0.565365
0.562957
0.583122
0.710458
0.572675
0.410195
0.565166
0.387691
0.700124
0.576598
0.245149
0.543076
0.642112
0.576618
0.887238
0.598796
0.772172
0.296222
0.619802
0.592061
0.517039
0.555816
0.655878
0.617313
0.645548
0.549009
0.557646
0.602195
0.804984
0.567869
0.804504
0.726241
0.573154
0.589127
0.594775
0.657841
0.593793
0.555993
0.631806
0.662545
0.782178
0.59465
0.590809
0.855285
0.843306
0.568299
0.573277
0.256087
0.6926
0.480627
0.650102
0.287606
0.29855
0.266803
0.271171
0.287682
0.303056
0.312311
0.729342
0.539723
0.544564
0.622602
0.606499
0.598932
0.633518
0.58613
0.599482
0.609469
0.596711
0.732657
0.542544
0.753106
0.586002
0.565698
0.597464
0.637465
0.666111
0.620591
0.710714
0.663995
0.615741
0.444039
0.619296
0.60557
0.652003
0.624635
0.591867
0.56287
0.620016
0.64672
0.877915
0.579856
0.853546
0.889737
0.609276
0.852427
0.653927
0.523839
0.713541
0.625424
0.4504
0.395665
0.704467
0.750312
0.635199
0.528047
0.635251
0.301236
0.62802
0.589264
0.300912
0.115298
0.126126
0.544003
0.580096
0.673735
0.64766
0.0592774
0.0619388
0.641395
0.648086
0.613481
0.226113
0.542803
0.63101
0.643415
0.555013
0.489877
0.235469
0.929281
0.583732
0.71323
0.724381
0.520581
0.658846
0.508988
0.561646
0.279101
0.421176
0.65963
0.663707
0.570432
0.599123
0.618255
0.651891
0.623522
0.307427
0.547096
0.61683
0.583014
0.8749
0.307367
0.473532
0.487752
0.46224
0.300515
0.300535
0.529553
0.427592
0.611535
0.329005
0.358876
0.117176
0.117176
0.245398
0.389619
0.262494
0.52105
0.563538
0.60141
0.677645
0.614656
0.569068
0.448035
0.27725
0.562545
0.582799
0.564246
0.311556
0.287924
0.224284
0.56345
0.574848
0.461941
0.521746
0.481452
0.440836
0.590093
0.440797
0.520821
0.502146
0.307811
0.380027
0.353393
0.623981
0.246785
0.259979
0.254333
0.589282
0.234981
0.230138
0.410008
0.214644
0.47712
0.477842
0.220334
0.519609
0.244574
0.243122
0.273901
0.231958
0.227739
0.339829
0.270697
0.245996
0.232677
0.475748
0.543001
0.256116
0.525107
0.211011
0.532688
0.423218
0.220454
0.186663
0.208255
0.276319
0.457466
0.376607
0.157552
0.174883
0.509985
0.148307
0.148306
0.168048
0.188628
0.213205
0.248113
0.410273
0.37976
0.51034
0.149004
0.149003
0.448511
0.184461
0.363609
0.167149
0.16815
0.221553
0.384549
0.398195
0.424213
0.388778
0.384539
0.0840102
0.620731
0.107163
0.103829
0.501444
0.497965
0.107596
0.0747328
0.105301
0.462542
SCALARS rr_S_ext' float
LOOKUP_TABLE default
0
0
0
0
0
0
0
0
0
0
0
0
0
0
0
0
0
0
0
0
0
0
0
0
0
0
0
0
0
0
0
0
0
0
0
0
0
0
0
0
0
0
0
0
0
0
0
0
0
0
0
0
0
0
0
0
0
0
0
0
0
0
0
0
0
0
0
0
0
0
0
0
0
0
0
0
0
0
0
0
0
0
0
0
0
0
0
0
0
0
0
0
0
0
0
0
0
0
0
0
0
0
0
0
0
0
0
0
0
0
0
0
0
0
0
0
0
0
0
0
0
0
0
0
0
0
0
0
0
0
0
0
0
0
0
0
0
0
0
0
0
0
0
0
0
0
0
0
0
0
0
0
0
0
0
0
0
0
0
0
0
0
0
0
0
0
0
0
0
0
0
0
0
0
0
0
0
0
0
0
0
0
0
0
0
0
0
0
0
0
0
0
0
0
0
0
0
0
0
0
0
0
0
0
0
0
0
0
0
0
0
0
0
0
0
0
0
0
0
0
0
0
0
0
0
0
0
0
0
0
0
0
0
0
0
0
0
0
0
0
0
0
0
0
0
0
0
0
0
0
0
0
0
0
0
0
0
0
0
0
0
0
0
0
0
0
0
0
0
0
0
0
0
0
0
0
0
0
0
0
0
0
0
0
0
0
0
0
0
0
0
0
0
0
0
0
0
0
0
0
0
0
0
0
0
0
0
0
0
0
0
0
0
0
0
0
0
0
0
0
0
0
0
0
0
0
0
0
0
0
0
0
0
0
0
0
0
0
0
0
0
0
0
0
0
0
0
0
0
0
0
0
0
0
0
0
0
0
0
0
0
0
0
0
0
0
0
0
0
0
0
0
0
0
0
0
0
0
0
0
0
0
0
0
0
0
0
0
0
0
0
0
0
0
0
0
0
0
0
0
0
0
0
0
0
0
0
0
0
0
0
0
0
0
0
0
0
0
0
0
0
0
0
0
0
0
0
0
0
0
0
0
0
0
0
0
0
0
0
0
0
0
0
0
0
0
0
0
0
0
0
0
0
0
0
0
0
0
0
0
0
0
0
0
0
0
0
0
0
0
0
0
0
0
0
0
0
0
0
0
0
0
0
0
0
0
0
0
0
0
0
0
0
0
0
0
0
0
0
0
0
0
0
0
0
0
0
0
0
0
0
0
0
0
0
0
0
0
0
0
0
0
0
0
0
0
0
0
0
0
0
0
0
0
0
0
0
0
0
0
0
0
0
0
0
0
0
0
0
0
0
0
0
0
0
0
0
0
0
0
0
0
0
SCALARS rr_P_ext' float
LOOKUP_TABLE default
0
0
0
0
0
0
0
0
0
0
0
0
0
0
0
0
0
0
0
0
0
0
0
0
0
0
0
0
0
0
0
0
0
0
0
0
0
0
0
0
0
0
0
0
0
0
0
0
0
0
0
0
0
0
0
0
0
0
0
0
0
0
0
0
0
0
0
0
0
0
0
0
0
0
0
0
0
0
0
0
0
0
0
0
0
0
0
0
0
0
0
0
0
0
0
0
0
0
0
0
0
0
0
0
0
0
0
0
0
0
0
0
0
0
0
0
0
0
0
0
0
0
0
0
0
0
0
0
0
0
0
0
0
0
0
0
0
0
0
0
0
0
0
0
0
0
0
0
0
0
0
0
0
0
0
0
0
0
0
0
0
0
0
0
0
0
0
0
0
0
0
0
0
0
0
0
0
0
0
0
0
0
0
0
0
0
0
0
0
0
0
0
0
0
0
0
0
0
0
0
0
0
0
0
0
0
0
0
0
0
0
0
0
0
0
0
0
0
0
0
0
0
0
0
0
0
0
0
0
0
0
0
0
0
0
0
0
0
0
0
0
0
0
0
0
0
0
0
0
0
0
0
0
0
0
0
0
0
0
0
0
0
0
0
0
0
0
0
0
0
0
0
0
0
0
0
0
0
0
0
0
0
0
0
0
0
0
0
0
0
0
0
0
0
0
0
0
0
0
0
0
0
0
0
0
0
0
0
0
0
0
0
0
0
0
0
0
0
0
0
0
0
0
0
0
0
0
0
0
0
0
0
0
0
0
0
0
0
0
0
0
0
0
0
0
0
0
0
0
0
0
0
0
0
0
0
0
0
0
0
0
0
0
0
0
0
0
0
0
0
0
0
0
0
0
0
0
0
0
0
0
0
0
0
0
0
0
0
0
0
0
0
0
0
0
0
0
0
0
0
0
0
0
0
0
0
0
0
0
0
0
0
0
0
0
0
0
0
0
0
0
0
0
0
0
0
0
0
0
0
0
0
0
0
0
0
0
0
0
0
0
0
0
0
0
0
0
0
0
0
0
0
0
0
0
0
0
0
0
0
0
0
0
0
0
0
0
0
0
0
0
0
0
0
0
0
0
0
0
0
0
0
0
0
0
0
0
0
0
0
0
0
0
0
0
0
0
0
0
0
0
0
0
0
0
0
0
0
0
0
0
0
0
0
0
0
0
0
0
0
0
0
0
0
0
0
0
0
0
0
0
0
0
0
0
0
0
0
0
0
0
0
0
0
0
0
0
0
0
0
0
0
0
0
0
0
0
0
0
0
0
0
0
SCALARS rr_S' float
LOOKUP_TABLE default
0
0
0
0
0
0
0
0
0
0
0
0
0
0
0
0
0
0
0
0
0
0
0
0
0
0
0
0
0
0
0
0
0
0
0
0
0
0
0
0
0
0
0
0
0
0
0
0
0
0
0
0
0
0
0
0
0
0
0
0
0
0
0
0
0
0
0
0
0
0
0
0
0
0
0
0
0
0
0
0
0
0
0
0
0
0
0
0
0
0
0
0
0
0
0
0
0
0
0
0
0
0
0
0
0
0
0
0
0
0
0
0
0
0
0
0
0
0
0
0
0
0
0
0
0
0
0
0
0
0
0
0
0
0
0
0
0
0
0
0
0
0
0
0
0
0
0
0
0
0
0
0
0
0
0
0
0
0
0
0
0
0
0
0
0
0
0
0
0
0
0
0
0
0
0
0
0
0
0
0
0
0
0
0
0
0
0
0
0
0
0
0
0
0
0
0
0
0
0
0
0
0
0
0
0
0
0
0
0
0
0
0
0
0
0
0
0
0
0
0
0
0
0
0
0
0
0
0
0
0
0
0
0
0
0
0
0
0
0
0
0
0
0
0
0
0
0
0
0
0
0
0
0
0
0
0
0
0
0
0
0
0
0
0
0
0
0
0
0
0
0
0
0
0
0
0
0
0
0
0
0
0
0
0
0
0
0
0
0
0
0
0
0
0
0
0
0
0
0
0
0
0
0
0
0
0
0
0
0
0
0
0
0
0
0
0
0
0
0
0
0
0
0
0
0
0
0
0
0
0
0
0
0
0
0
0
0
0
0
0
0
0
0
0
0
0
0
0
0
0
0
0
0
0
0
0
0
0
0
0
0
0
0
0
0
0
0
0
0
0
0
0
0
0
0
0
0
0
0
0
0
0
0
0
0
0
0
0
0
0
0
0
0
0
0
0
0
0
0
0
0
0
0
0
0
0
0
0
0
0
0
0
0
0
0
0
0
0
0
0
0
0
0
0
0
0
0
0
0
0
0
0
0
0
0
0
0
0
0
0
0
0
0
0
0
0
0
0
0
0
0
0
0
0
0
0
0
0
0
0
0
0
0
0
0
0
0
0
0
0
0
0
0
0
0
0
0
0
0
0
0
0
0
0
0
0
0
0
0
0
0
0
0
0
0
0
0
0
0
0
0
0
0
0
0
0
0
0
0
0
0
0
0
0
0
0
0
0
0
0
0
0
0
0
0
0
0
0
0
0
0
0
0
0
0
0
0
0
0
0
0
0
0
0
0
0
0
0
0
0
0
0
0
0
0
0
0
0
0
0
0
0
0
SCALARS rr_P' float
LOOKUP_TABLE default
0
0
0
0
0
0
0
0
0
0
0
0
0
0
0
0
0
0
0
0
0
0
0
0
0
0
0
0
0
0
0
0
0
0
0
0
0
0
0
0
0
0
0
0
0
0
0
0
0
0
0
0
0
0
0
0
0
0
0
0
0
0
0
0
0
0
0
0
0
0
0
0
0
0
0
0
0
0
0
0
0
0
0
0
0
0
0
0
0
0
0
0
0
0
0
0
0
0
0
0
0
0
0
0
0
0
0
0
0
0
0
0
0
0
0
0
0
0
0
0
0
0
0
0
0
0
0
0
0
0
0
0
0
0
0
0
0
0
0
0
0
0
0
0
0
0
0
0
0
0
0
0
0
0
0
0
0
0
0
0
0
0
0
0
0
0
0
0
0
0
0
0
0
0
0
0
0
0
0
0
0
0
0
0
0
0
0
0
0
0
0
0
0
0
0
0
0
0
0
0
0
0
0
0
0
0
0
0
0
0
0
0
0
0
0
0
0
0
0
0
0
0
0
0
0
0
0
0
0
0
0
0
0
0
0
0
0
0
0
0
0
0
0
0
0
0
0
0
0
0
0
0
0
0
0
0
0
0
0
0
0
0
0
0
0
0
0
0
0
0
0
0
0
0
0
0
0
0
0
0
0
0
0
0
0
0
0
0
0
0
0
0
0
0
0
0
0
0
0
0
0
0
0
0
0
0
0
0
0
0
0
0
0
0
0
0
0
0
0
0
0
0
0
0
0
0
0
0
0
0
0
0
0
0
0
0
0
0
0
0
0
0
0
0
0
0
0
0
0
0
0
0
0
0
0
0
0
0
0
0
0
0
0
0
0
0
0
0
0
0
0
0
0
0
0
0
0
0
0
0
0
0
0
0
0
0
0
0
0
0
0
0
0
0
0
0
0
0
0
0
0
0
0
0
0
0
0
0
0
0
0
0
0
0
0
0
0
0
0
0
0
0
0
0
0
0
0
0
0
0
0
0
0
0
0
0
0
0
0
0
0
0
0
0
0
0
0
0
0
0
0
0
0
0
0
0
0
0
0
0
0
0
0
0
0
0
0
0
0
0
0
0
0
0
0
0
0
0
0
0
0
0
0
0
0
0
0
0
0
0
0
0
0
0
0
0
0
0
0
0
0
0
0
0
0
0
0
0
0
0
0
0
0
0
0
0
0
0
0
0
0
0
0
0
0
0
0
0
0
0
0
0
0
0
0
0
0
0
0
0
0
0
0
0
0
0
0
0
0
0
0
0
0
0
0
0
0
0
0
0
0
0
0
SCALARS rr_T' float
LOOKUP_TABLE default
0
0
0
0
0
0
0
0
0
0
0
0
0
0
0
0
0
0
0
0
0
0
0
0
0
0
0
0
0
0
0
0
0
0
0
0
0
0
0
0
0
0
0
0
0
0
0
0
0
0
0
0
0
0
0
0
0
0
0
0
0
0
0
0
0
0
0
0
0
0
0
0
0
0
0
0
0
0
0
0
0
0
0
0
0
0
0
0
0
0
0
0
0
0
0
0
0
0
0
0
0
0
0
0
0
0
0
0
0
0
0
0
0
0
0
0
0
0
0
0
0
0
0
0
0
0
0
0
0
0
0
0
0
0
0
0
0
0
0
0
0
0
0
0
0
0
0
0
0
0
0
0
0
0
0
0
0
0
0
0
0
0
0
0
0
0
0
0
0
0
0
0
0
0
0
0
0
0
0
0
0
0
0
0
0
0
0
0
0
0
0
0
0
0
0
0
0
0
0
0
0
0
0
0
0
0
0
0
0
0
0
0
0
0
0
0
0
0
0
0
0
0
0
0
0
0
0
0
0
0
0
0
0
0
0
0
0
0
0
0
0
0
0
0
0
0
0
0
0
0
0
0
0
0
0
0
0
0
0
0
0
0
0
0
0
0
0
0
0
0
0
0
0
0
0
0
0
0
0
0
0
0
0
0
0
0
0
0
0
0
0
0
0
0
0
0
0
0
0
0
0
0
0
0
0
0
0
0
0
0
0
0
0
0
0
0
0
0
0
0
0
0
0
0
0
0
0
0
0
0
0
0
0
0
0
0
0
0
0
0
0
0
0
0
0
0
0
0
0
0
0
0
0
0
0
0
0
0
0
0
0
0
0
0
0
0
0
0
0
0
0
0
0
0
0
0
0
0
0
0
0
0
0
0
0
0
0
0
0
0
0
0
0
0
0
0
0
0
0
0
0
0
0
0
0
0
0
0
0
0
0
0
0
0
0
0
0
0
0
0
0
0
0
0
0
0
0
0
0
0
0
0
0
0
0
0
0
0
0
0
0
0
0
0
0
0
0
0
0
0
0
0
0
0
0
0
0
0
0
0
0
0
0
0
0
0
0
0
0
0
0
0
0
0
0
0
0
0
0
0
0
0
0
0
0
0
0
0
0
0
0
0
0
0
0
0
0
0
0
0
0
0
0
0
0
0
0
0
0
0
0
0
0
0
0
0
0
0
0
0
0
0
0
0
0
0
0
0
0
0
0
0
0
0
0
0
0
0
0
0
0
0
0
0
0
0
0
0
0
0
0
0
0
0
0
0
0
0
0
0
0
0
0
SCALARS rr_uec(SIM,_S_ext) float
LOOKUP_TABLE default
0
0
0
0
0
0
0
0
0
0
0
0
0
0
0
0
0
0
0
0
0
0
0
0
0
0
0
0
0
0
0
0
0
0
0
0
0
0
0
0
0
0
0
0
0
0
0
0
0
0
0
0
0
0
0
0
0
0
0
0
0
0
0
0
0
0
0
0
0
0
0
0
0
0
0
0
0
0
0
0
0
0
0
0
0
0
0
0
0
0
0
0
0
0
0
0
0
0
0
0
0
0
0
0
0
0
0
0
0
0
0
0
0
0
0
0
0
0
0
0
0
0
0
0
0
0
0
0
0
0
0
0
0
0
0
0
0
0
0
0
0
0
0
0
0
0
0
0
0
0
0
0
0
0
0
0
0
0
0
0
0
0
0
0
0
0
0
0
0
0
0
0
0
0
0
0
0
0
0
0
0
0
0
0
0
0
0
0
0
0
0
0
0
0
0
0
0
0
0
0
0
0
0
0
0
0
0
0
0
0
0
0
0
0
0
0
0
0
0
0
0
0
0
0
0
0
0
0
0
0
0
0
0
0
0
0
0
0
0
0
0
0
0
0
0
0
0
0
0
0
0
0
0
0
0
0
0
0
0
0
0
0
0
0
0
0
0
0
0
0
0
0
0
0
0
0
0
0
0
0
0
0
0
0
0
0
0
0
0
0
0
0
0
0
0
0
0
0
0
0
0
0
0
0
0
0
0
0
0
0
0
0
0
0
0
0
0
0
0
0
0
0
0
0
0
0
0
0
0
0
0
0
0
0
0
0
0
0
0
0
0
0
0
0
0
0
0
0
0
0
0
0
0
0
0
0
0
0
0
0
0
0
0
0
0
0
0
0
0
0
0
0
0
0
0
0
0
0
0
0
0
0
0
0
0
0
0
0
0
0
0
0
0
0
0
0
0
0
0
0
0
0
0
0
0
0
0
0
0
0
0
0
0
0
0
0
0
0
0
0
0
0
0
0
0
0
0
0
0
0
0
0
0
0
0
0
0
0
0
0
0
0
0
0
0
0
0
0
0
0
0
0
0
0
0
0
0
0
0
0
0
0
0
0
0
0
0
0
0
0
0
0
0
0
0
0
0
0
0
0
0
0
0
0
0
0
0
0
0
0
0
0
0
0
0
0
0
0
0
0
0
0
0
0
0
0
0
0
0
0
0
0
0
0
0
0
0
0
0
0
0
0
0
0
0
0
0
0
0
0
0
0
0
0
0
0
0
0
0
0
0
0
0
0
0
0
0
0
0
0
0
0
0
0
0
0
0
0
0
0
0
0
0
SCALARS rr_uec(PEX,_P_ext) float
LOOKUP_TABLE default
0
0
0
0
0
0
0
0
0
0
0
0
0
0
0
0
0
0
0
0
0
0
0
0
0
0
0
0
0
0
0
0
0
0
0
0
0
0
0
0
0
0
0
0
0
0
0
0
0
0
0
0
0
0
0
0
0
0
0
0
0
0
0
0
0
0
0
0
0
0
0
0
0
0
0
0
0
0
0
0
0
0
0
0
0
0
0
0
0
0
0
0
0
0
0
0
0
0
0
0
0
0
0
0
0
0
0
0
0
0
0
0
0
0
0
0
0
0
0
0
0
0
0
0
0
0
0
0
0
0
0
0
0
0
0
0
0
0
0
0
0
0
0
0
0
0
0
0
0
0
0
0
0
0
0
0
0
0
0
0
0
0
0
0
0
0
0
0
0
0
0
0
0
0
0
0
0
0
0
0
0
0
0
0
0
0
0
0
0
0
0
0
0
0
0
0
0
0
0
0
0
0
0
0
0
0
0
0
0
0
0
0
0
0
0
0
0
0
0
0
0
0
0
0
0
0
0
0
0
0
0
0
0
0
0
0
0
0
0
0
0
0
0
0
0
0
0
0
0
0
0
0
0
0
0
0
0
0
0
0
0
0
0
0
0
0
0
0
0
0
0
0
0
0
0
0
0
0
0
0
0
0
0
0
0
0
0
0
0
0
0
0
0
0
0
0
0
0
0
0
0
0
0
0
0
0
0
0
0
0
0
0
0
0
0
0
0
0
0
0
0
0
0
0
0
0
0
0
0
0
0
0
0
0
0
0
0
0
0
0
0
0
0
0
0
0
0
0
0
0
0
0
0
0
0
0
0
0
0
0
0
0
0
0
0
0
0
0
0
0
0
0
0
0
0
0
0
0
0
0
0
0
0
0
0
0
0
0
0
0
0
0
0
0
0
0
0
0
0
0
0
0
0
0
0
0
0
0
0
0
0
0
0
0
0
0
0
0
0
0
0
0
0
0
0
0
0
0
0
0
0
0
0
0
0
0
0
0
0
0
0
0
0
0
0
0
0
0
0
0
0
0
0
0
0
0
0
0
0
0
0
0
0
0
0
0
0
0
0
0
0
0
0
0
0
0
0
0
0
0
0
0
0
0
0
0
0
0
0
0
0
0
0
0
0
0
0
0
0
0
0
0
0
0
0
0
0
0
0
0
0
0
0
0
0
0
0
0
0
0
0
0
0
0
0
0
0
0
0
0
0
0
0
0
0
0
0
0
0
0
0
0
0
0
0
0
0
0
0
0
0
0
0
0
0
0
0
0
0
0
0
0
0
SCALARS cell_type float
LOOKUP_TABLE default
0
0
0
0
0
0
0
0
0
0
0
0
0
0
0
0
0
0
0
0
0
1
0
0
0
0
0
0
0
0
0
0
0
0
0
0
0
0
0
0
0
0
0
0
0
0
0
0
0
0
0
0
0
0
0
0
0
0
0
0
0
0
0
0
0
0
0
0
0
0
0
0
0
0
0
0
0
0
0
0
0
0
0
0
0
0
0
0
0
0
0
0
0
0
0
0
0
0
0
0
0
0
0
0
0
0
0
0
0
0
0
0
0
0
0
0
0
0
0
0
0
0
0
0
0
0
0
0
0
0
0
0
0
0
0
0
0
0
0
0
0
0
0
0
0
0
0
0
0
0
0
0
0
0
0
0
0
0
0
0
0
0
0
0
0
0
0
0
0
0
0
0
0
0
0
0
0
0
0
0
0
0
0
0
0
0
0
0
0
0
0
0
0
0
0
0
0
0
0
0
0
0
0
0
0
0
0
0
0
0
0
0
0
0
0
0
0
0
0
0
0
0
0
0
0
0
0
0
0
0
0
0
0
0
0
0
0
0
0
0
0
0
0
0
0
0
0
0
0
0
0
0
0
0
0
0
0
0
0
0
0
0
0
0
0
0
0
0
0
0
0
0
0
0
0
0
0
0
0
0
0
0
0
0
0
0
0
0
0
0
0
0
0
0
0
0
0
0
0
0
0
0
0
0
0
0
0
0
0
0
0
0
0
0
0
0
0
0
0
0
0
0
0
0
0
0
0
0
0
0
0
0
0
0
0
0
0
0
0
0
0
0
0
0
0
0
0
0
0
0
2
2
2
2
2
2
2
0
0
0
0
0
0
0
0
0
0
0
0
0
0
0
0
0
0
0
0
0
0
0
0
0
0
0
0
0
0
0
0
0
0
0
0
0
0
0
0
0
0
0
0
0
0
0
0
0
0
0
0
0
0
0
0
0
0
0
1
1
0
0
0
0
0
0
0
0
0
0
0
0
0
0
0
0
0
0
0
0
0
0
0
0
0
0
0
0
0
0
0
0
0
0
0
0
0
0
0
0
0
0
0
1
1
0
0
0
0
0
0
0
0
0
0
0
0
0
0
0
0
0
0
0
0
0
0
0
0
0
0
0
0
0
0
0
0
0
0
0
0
0
0
0
0
0
0
0
0
0
0
0
0
0
0
0
0
0
0
0
0
0
0
0
0
0
0
0
0
0
1
1
0
0
0
0
0
0
0
0
0
0
0
0
0
0
0
0
0
0
0
0
0
0
0
0
0
0
0
0
0
0
0
0
0
TENSORS Lagrange_strain float
0.0305673 -0.0031982 -9.15869e-08
-0.0031982 0.0133887 -1.33336e-07
-9.15869e-08 -1.33336e-07 0.00740155

0.0291919 -0.00280096 4.63648e-08
-0.00280096 0.0335526 1.56414e-08
4.63648e-08 1.56414e-08 0.0331624

0.0300203 0.00367885 -3.93149e-08
0.00367885 0.0311685 3.86971e-08
-3.93149e-08 3.86971e-08 0.0304668

0.0291607 -0.00392483 -2.31751e-07
-0.00392483 0.0327978 -7.81821e-08
-2.31751e-07 -7.81821e-08 0.0330872

0.0353659 0.00266903 -4.39948e-08
0.00266903 0.0380847 9.03966e-08
-4.39948e-08 9.03966e-08 0.0352914

0.0277344 -0.00236715 6.43636e-08
-0.00236715 0.0333825 -1.97559e-07
6.43636e-08 -1.97559e-07 0.0304379

0.0302612 0.00339402 -9.25794e-08
0.00339402 0.0134943 -9.08183e-08
-9.25794e-08 -9.08183e-08 0.00746298

0.0317533 0.00393958 -1.66384e-07
0.00393958 0.031199 1.06391e-08
-1.66384e-07 1.06391e-08 0.0315596

0.0332404 0.0007154 6.80477e-08
0.0007154 0.0262205 -3.54795e-09
6.80477e-08 -3.54795e-09 0.0281411

0.035466 -0.000991002 4.41141e-08
-0.000991002 0.0275501 1.81457e-07
4.41141e-08 1.81457e-07 0.03272

0.0280605 0.00205106 1.23876e-07
0.00205106 0.0138086 -1.73171e-07
1.23876e-07 -1.73171e-07 0.0117531

0.0279523 -0.00176576 1.13131e-07
-0.00176576 0.0350053 -4.32666e-08
1.13131e-07 -4.32666e-08 0.0315482

0.0311201 0.00365711 3.76802e-08
0.00365711 0.031299 2.15536e-07
3.76802e-08 2.15536e-07 0.0310785

0.0290681 -0.00187976 1.47592e-07
-0.00187976 0.0347979 9.14037e-08
1.47592e-07 9.14037e-08 0.0325454

0.0346304 0.0044183 2.74408e-08
0.0044183 0.0343614 -2.44377e-08
2.74408e-08 -2.44377e-08 0.0348837

0.0343264 7.30388e-05 1.48589e-07
7.30388e-05 0.027285 -3.14623e-08
1.48589e-07 -3.14623e-08 0.0307773

0.0286918 -0.00235352 1.41609e-07
-0.00235352 0.0360129 7.03883e-08
1.41609e-07 7.03883e-08 0.0334491

0.0345719 -0.000353006 1.89376e-07
-0.000353006 0.0273554 -7.82084e-10
1.89376e-07 -7.82084e-10 0.031976

0.0269191 0.00347799 5.04264e-08
0.00347799 0.030944 -1.07998e-07
5.04264e-08 -1.07998e-07 0.0275756

0.0338834 -0.000550323 6.13598e-08
-0.000550323 0.0264084 -1.57326e-07
6.13598e-08 -1.57326e-07 0.0301332

0.026621 0.00113519 9.62923e-08
0.00113519 0.0340324 1.15888e-07
9.62923e-08 1.15888e-07 0.0291489

0.0452949 0.000852407 1.38593e-07
0.000852407 0.0452634 4.05197e-08
1.38593e-07 4.05197e-08 0.0366374

0.0336743 0.000247447 -2.30065e-07
0.000247447 0.0263144 2.79147e-08
-2.30065e-07 2.79147e-08 0.0298041

0.0293086 -0.00363202 -1.70759e-09
-0.00363202 0.0311346 3.3516e-09
-1.70759e-09 3.3516e-09 0.0300457

0.0337785 0.000900038 1.20919e-07
0.000900038 0.0264954 3.54157e-08
1.20919e-07 3.54157e-08 0.0300802

0.0285451 0.00250752 -1.89204e-07
0.00250752 0.0338925 2.21948e-08
-1.89204e-07 2.21948e-08 0.0322859

0.0286288 0.000526645 7.35921e-08
0.000526645 0.0176892 -6.86166e-08
7.35921e-08 -6.86166e-08 0.0131709

0.0309131 0.00403429 1.15357e-07
0.00403429 0.0306456 4.23378e-08
1.15357e-07 4.23378e-08 0.0306097

0.0259239 0.00477611 1.49034e-08
0.00477611 0.0257322 1.12651e-07
1.49034e-08 1.12651e-07 0.0211273

0.0415291 0.00136976 4.73913e-08
0.00136976 0.0383494 6.76719e-08
4.73913e-08 6.76719e-08 0.0361344

0.0344096 0.00187121 1.35304e-07
0.00187121 0.0279514 6.09566e-08
1.35304e-07 6.09566e-08 0.0309989

0.021759 -0.00228769 3.26839e-08
-0.00228769 0.0299912 8.03434e-08
3.26839e-08 8.03434e-08 0.0211241

0.0228626 -0.0053522 -5.55484e-08
-0.0053522 0.0234723 5.36864e-08
-5.55484e-08 5.36864e-08 0.0125785

0.034832 0.000800929 8.56898e-08
0.000800929 0.0422549 2.3585e-07
8.56898e-08 2.3585e-07 0.0357855

0.0374528 -0.000662003 -1.52268e-07
-0.000662003 0.0412025 -1.05711e-07
-1.52268e-07 -1.05711e-07 0.0359

0.0410751 0.00281316 1.59789e-07
0.00281316 0.0359856 -1.00922e-07
1.59789e-07 -1.00922e-07 0.0357657

0.0372533 0.000705152 -2.76215e-09
0.000705152 0.0432145 -6.72658e-08
-2.76215e-09 -6.72658e-08 0.0361408

0.0402605 -0.00121855 -1.06136e-07
-0.00121855 0.0378296 4.1628e-08
-1.06136e-07 4.1628e-08 0.0358073

0.0312144 -0.00367772 1.87518e-07
-0.00367772 0.0311221 1.48007e-08
1.87518e-07 1.48007e-08 0.0309244

0.0227468 0.00527883 -1.47046e-07
0.00527883 0.0237082 -1.27381e-07
-1.47046e-07 -1.27381e-07 0.0125806

0.0297597 -0.00231583 -7.97334e-09
-0.00231583 0.0220303 1.97976e-08
-7.97334e-09 1.97976e-08 0.020874

0.0376187 -0.000523081 -1.9153e-07
-0.000523081 0.0430635 -2.38066e-07
-1.9153e-07 -2.38066e-07 0.0361435

0.0412402 0.00263452 6.71135e-08
0.00263452 0.0394146 -6.12413e-08
6.71135e-08 -6.12413e-08 0.036126

0.0342999 -0.00161717 -2.84351e-09
-0.00161717 0.0279935 1.13831e-07
-2.84351e-09 1.13831e-07 0.0310829

0.0231048 -0.00552547 8.79366e-08
-0.00552547 0.0235618 -1.03097e-07
8.79366e-08 -1.03097e-07 0.0162154

0.0299422 -0.00233211 6.0808e-08
-0.00233211 0.0221545 1.49677e-07
6.0808e-08 1.49677e-07 0.0213434

0.0258927 0.00222728 1.05095e-07
0.00222728 0.0326531 9.70793e-08
1.05095e-07 9.70793e-08 0.0279143

0.0275498 0.00252876 -1.00287e-07
0.00252876 0.0323726 1.17373e-07
-1.00287e-07 1.17373e-07 0.0284898

0.0341737 -0.00214104 -1.18585e-08
-0.00214104 0.0271062 1.05135e-07
-1.18585e-08 1.05135e-07 0.0304711

0.0229017 -0.00439227 -4.41229e-08
-0.00439227 0.027248 -3.75493e-08
-4.41229e-08 -3.75493e-08 0.0198496

0.0294929 0.00247134 -5.4935e-08
0.00247134 0.0218335 -1.62406e-07
-5.4935e-08 -1.62406e-07 0.0202801

0.029871 -0.00327081 7.0625e-08
-0.00327081 0.0245126 -9.15269e-08
7.0625e-08 -9.15269e-08 0.0230473

0.0344769 0.00257793 -1.79978e-07
0.00257793 0.0382023 -6.36804e-08
-1.79978e-07 -6.36804e-08 0.0352701

0.0286884 0.00383836 -1.83802e-07
0.00383836 0.0257788 1.17997e-07
-1.83802e-07 1.17997e-07 0.0231159

0.0349271 -0.00291587 -5.00426e-08
-0.00291587 0.0374319 5.02762e-08
-5.00426e-08 5.02762e-08 0.0351884

0.0255793 -0.00545507 -3.51461e-07
-0.00545507 0.0229016 5.69225e-08
-3.51461e-07 5.69225e-08 0.015819

0.0373463 0.000746083 -8.17047e-08
0.000746083 0.0414128 1.11827e-07
-8.17047e-08 1.11827e-07 0.0359205

0.0231669 -0.000693146 -2.03978e-08
-0.000693146 0.031312 -1.0894e-08
-2.03978e-08 -1.0894e-08 0.0231019

0.0410301 0.00137961 -4.83296e-08
0.00137961 0.0377064 1.67448e-07
-4.83296e-08 1.67448e-07 0.0358987

0.0276747 0.00280504 -1.39412e-07
0.00280504 0.0327483 -2.204e-08
-1.39412e-07 -2.204e-08 0.0302301

0.0361383 0.000784765 2.48595e-09
0.000784765 0.0281306 -6.31924e-08
2.48595e-09 -6.31924e-08 0.0336722

0.0362536 0.00153416 -2.12782e-10
0.00153416 0.0316925 -8.98757e-08
-2.12782e-10 -8.98757e-08 0.0342199

0.0286364 0.00405689 1.20431e-07
0.00405689 0.0198967 -1.90961e-07
1.20431e-07 -1.90961e-07 0.0137587

0.0309717 -0.000783953 -1.82358e-07
-0.000783953 0.0370837 -1.31489e-07
-1.82358e-07 -1.31489e-07 0.0338807

0.0315541 0.00124346 -3.77432e-08
0.00124346 0.0364197 1.24819e-08
-3.77432e-08 1.24819e-08 0.0342586

0.0285481 -0.000374992 -6.72337e-08
-0.000374992 0.0369552 2.90348e-08
-6.72337e-08 2.90348e-08 0.0326698

0.0296017 0.00307121 -1.44232e-07
0.00307121 0.0347901 9.0436e-08
-1.44232e-07 9.0436e-08 0.033708

0.0347184 0.00112206 -3.22926e-10
0.00112206 0.0278377 5.0881e-08
-3.22926e-10 5.0881e-08 0.0322076

0.0291864 -0.00369872 -2.3183e-08
-0.00369872 0.0310199 -4.45063e-08
-2.3183e-08 -4.45063e-08 0.0299086

0.0350532 -0.000236852 4.4266e-08
-0.000236852 0.0275789 1.81574e-07
4.4266e-08 1.81574e-07 0.0333922

0.0344517 -0.0025483 -1.37733e-07
-0.0025483 0.0381332 2.53467e-08
-1.37733e-07 2.53467e-08 0.0352601

0.0350096 0.00284946 -7.6412e-08
0.00284946 0.0375695 1.6881e-07
-7.6412e-08 1.6881e-07 0.0352399

0.021888 -0.00213163 -7.70336e-08
-0.00213163 0.0299213 -9.03716e-08
-7.70336e-08 -9.03716e-08 0.0208505

0.0347001 -0.00369087 1.58015e-07
-0.00369087 0.0319572 2.19794e-10
1.58015e-07 2.19794e-10 0.0330781

0.0292909 -0.00329715 -1.17162e-08
-0.00329715 0.0321114 -2.42784e-08
-1.17162e-08 -2.42784e-08 0.0304324

0.0267789 -0.00401675 -1.96589e-07
-0.00401675 0.0176048 -4.40633e-08
-1.96589e-07 -4.40633e-08 0.0127255

0.0324034 0.000418606 2.64896e-07
0.000418606 0.0381042 -1.44247e-07
2.64896e-07 -1.44247e-07 0.034405

0.0345364 0.00381724 1.91568e-07
0.00381724 0.0309406 -6.11085e-08
1.91568e-07 -6.11085e-08 0.0326594

0.0283756 0.0025813 -1.76464e-07
0.0025813 0.034128 -5.85816e-08
-1.76464e-07 -5.85816e-08 0.0322128

0.0315407 0.00103783 7.6828e-08
0.00103783 0.0228432 -1.73699e-07
7.6828e-08 -1.73699e-07 0.0240684

0.0270965 -0.00435841 -1.24859e-07
-0.00435841 0.023736 -1.22007e-07
-1.24859e-07 -1.22007e-07 0.0183229

0.0362596 -0.00140295 8.58787e-08
-0.00140295 0.0387422 1.21833e-07
8.58787e-08 1.21833e-07 0.0354004

0.0315548 0.00317104 2.96483e-08
0.00317104 0.0344004 -2.44537e-08
2.96483e-08 -2.44537e-08 0.0340894

0.0273004 -0.00415582 -4.05123e-08
-0.00415582 0.0221743 -1.81855e-08
-4.05123e-08 -1.81855e-08 0.0184108

0.0303569 0.0013911 -5.06505e-08
0.0013911 0.0228298 -1.70679e-07
-5.06505e-08 -1.70679e-07 0.0209538

0.0186015 -0.0026968 -2.31574e-07
-0.0026968 0.0289274 -2.75143e-07
-2.31574e-07 -2.75143e-07 0.0158925

0.0271991 0.00188886 4.53991e-08
0.00188886 0.0343184 -6.50822e-09
4.53991e-08 -6.50822e-09 0.0306536

0.035381 0.0030564 -4.26055e-08
0.0030564 0.0308191 -2.01227e-07
-4.26055e-08 -2.01227e-07 0.0327529

0.0226471 0.00538551 1.01936e-07
0.00538551 0.0240877 1.6043e-07
1.01936e-07 1.6043e-07 0.0161979

0.0459502 0.00223795 -3.94716e-07
0.00223795 0.0417503 2.00176e-07
-3.94716e-07 2.00176e-07 0.0366383

0.0230806 -0.000534342 8.22683e-09
-0.000534342 0.0313527 8.96505e-08
8.22683e-09 8.96505e-08 0.0230717

0.0463635 -0.00225609 -6.26197e-07
-0.00225609 0.0412937 -5.77302e-08
-6.26197e-07 -5.77302e-08 0.0365934

0.0370642 -0.00362435 -3.47068e-08
-0.00362435 0.0334903 2.37724e-08
-3.47068e-08 2.37724e-08 0.03462

0.0351365 0.00361905 -7.22377e-08
0.00361905 0.0300031 -9.15202e-08
-7.22377e-08 -9.15202e-08 0.0324556

0.0299609 -0.00315863 1.58781e-07
-0.00315863 0.0246897 -2.82474e-09
1.58781e-07 -2.82474e-09 0.0232852

0.0230115 0.0040296 -1.58899e-07
0.0040296 0.027778 -6.69765e-08
-1.58899e-07 -6.69765e-08 0.0203814

0.0210933 -0.00137842 1.21461e-08
-0.00137842 0.0298942 1.34863e-07
1.21461e-08 1.34863e-07 0.0182509

0.0287445 0.00288893 1.22863e-07
0.00288893 0.0342259 -5.28032e-09
1.22863e-07 -5.28032e-09 0.0326987

0.0370112 0.00223611 -4.2812e-08
0.00223611 0.0334512 6.0278e-08
-4.2812e-08 6.0278e-08 0.0343834

0.0281474 0.00198804 -1.63293e-07
0.00198804 0.0340588 8.04663e-09
-1.63293e-07 8.04663e-09 0.0308645

0.0318813 0.00207298 2.28588e-07
0.00207298 0.0252534 6.40052e-08
2.28588e-07 6.40052e-08 0.0256166

0.0239067 -0.00277431 -7.15919e-08
-0.00277431 0.029764 -8.98559e-08
-7.15919e-08 -8.98559e-08 0.0215607

0.0278977 -0.00376361 -6.9166e-08
-0.00376361 0.0218145 1.49418e-08
-6.9166e-08 1.49418e-08 0.0180753

0.0293303 -0.00323169 -2.10069e-07
-0.00323169 0.0326287 1.00538e-07
-2.10069e-07 1.00538e-07 0.0324018

0.0306254 0.00361488 -1.35968e-07
0.00361488 0.0322273 -3.7453e-08
-1.35968e-07 -3.7453e-08 0.0323697

0.0287068 0.00304803 -3.5257e-08
0.00304803 0.0340257 4.15392e-08
-3.5257e-08 4.15392e-08 0.0326292

0.0292059 0.00172532 -3.45981e-08
0.00172532 0.0376165 1.416e-08
-3.45981e-08 1.416e-08 0.0338451

0.0344765 0.00123246 -2.52931e-07
0.00123246 0.0275228 -7.89774e-10
-2.52931e-07 -7.89774e-10 0.0306737

0.01996 -0.000605132 -1.36915e-07
-0.000605132 0.0296597 -4.4835e-10
-1.36915e-07 -4.4835e-10 0.0181032

0.0297962 -0.00486313 -3.12184e-08
-0.00486313 0.0330481 -1.97539e-07
-3.12184e-08 -1.97539e-07 0.0337406

0.0290801 0.00359963 8.49252e-08
0.00359963 0.0313584 2.08526e-07
8.49252e-08 2.08526e-07 0.030263

0.018105 0.000282945 3.9432e-07
0.000282945 0.0293097 5.09561e-08
3.9432e-07 5.09561e-08 0.0168778

0.0278422 0.00442349 1.07499e-07
0.00442349 0.0209675 -2.02176e-07
1.07499e-07 -2.02176e-07 0.017454

0.0291899 -0.00302031 -3.27378e-08
-0.00302031 0.0327019 -1.23484e-07
-3.27378e-08 -1.23484e-07 0.0321843

0.0352413 0.000759781 -2.18587e-08
0.000759781 0.0273375 9.16305e-08
-2.18587e-08 9.16305e-08 0.0325516

0.0294261 0.00352004 3.02731e-08
0.00352004 0.0252003 -1.85267e-07
3.02731e-08 -1.85267e-07 0.0231103

0.0396352 0.00171009 -1.20854e-07
0.00171009 0.0390391 -5.009e-08
-1.20854e-07 -5.009e-08 0.0359391

0.0283738 0.0031232 1.74338e-07
0.0031232 0.0224005 -6.54662e-08
1.74338e-07 -6.54662e-08 0.0182857

0.039488 -0.00175087 5.01407e-08
-0.00175087 0.0390646 5.41301e-08
5.01407e-08 5.41301e-08 0.0359043

0.0232601 0.000103443 1.33767e-07
0.000103443 0.0315164 9.03646e-09
1.33767e-07 9.03646e-09 0.0231187

0.0327571 -0.000288484 1.78034e-07
-0.000288484 0.024659 1.10491e-07
1.78034e-07 1.10491e-07 0.0269652

0.0380534 -0.00212922 -5.51274e-08
-0.00212922 0.0304627 7.91548e-08
-5.51274e-08 7.91548e-08 0.0347922

0.0292369 0.00320602 6.03717e-08
0.00320602 0.0332765 -1.41336e-07
6.03717e-08 -1.41336e-07 0.0333416

0.0289493 -0.00177242 3.89988e-08
-0.00177242 0.0366083 5.74899e-09
3.89988e-08 5.74899e-09 0.0334985

0.0365822 -0.00108502 1.64603e-07
-0.00108502 0.026475 -7.18961e-09
1.64603e-07 -7.18961e-09 0.0338588

0.0311792 -0.00292614 -1.90063e-07
-0.00292614 0.0383051 2.19145e-08
-1.90063e-07 2.19145e-08 0.0348426

0.0381645 -0.000884906 2.89447e-07
-0.000884906 0.0387302 -1.06442e-07
2.89447e-07 -1.06442e-07 0.0358343

0.0301785 -0.00393983 -9.47628e-08
-0.00393983 0.0327091 -1.23305e-07
-9.47628e-08 -1.23305e-07 0.0327621

0.0213319 0.00146945 -1.61018e-07
0.00146945 0.0296124 -2.66449e-07
-1.61018e-07 -2.66449e-07 0.0182948

0.0293866 -0.00364547 8.92415e-08
-0.00364547 0.0253482 -4.87856e-08
8.92415e-08 -4.87856e-08 0.023181

0.0328585 -0.00181691 9.18662e-08
-0.00181691 0.0397168 1.19251e-07
9.18662e-08 1.19251e-07 0.0352399

0.03509 7.67644e-05 -6.89111e-09
7.67644e-05 0.0272208 9.29825e-08
-6.89111e-09 9.29825e-08 0.0332499

0.0308173 -0.00282894 5.4439e-08
-0.00282894 0.0348906 -2.01352e-08
5.4439e-08 -2.01352e-08 0.0340829

0.0295331 0.00338851 8.81411e-08
0.00338851 0.0328699 -1.56715e-07
8.81411e-08 -1.56715e-07 0.0333248

0.0264593 -0.00406292 2.17383e-07
-0.00406292 0.0272606 -3.19369e-08
2.17383e-07 -3.19369e-08 0.0215835

0.0371717 -0.0009584 1.41977e-07
-0.0009584 0.0416093 2.45175e-07
1.41977e-07 2.45175e-07 0.0358854

0.02271 -0.00423735 -1.10094e-07
-0.00423735 0.0272422 6.81249e-08
-1.10094e-07 6.81249e-08 0.0168767

0.0341813 -0.00252482 -1.16576e-08
-0.00252482 0.0286054 8.44964e-08
-1.16576e-08 8.44964e-08 0.0310432

0.0364245 0.0002898 -1.84302e-07
0.0002898 0.0294364 1.99564e-08
-1.84302e-07 1.99564e-08 0.0341926

0.0396399 0.0023967 1.51989e-08
0.0023967 0.0391125 7.46363e-08
1.51989e-08 7.46363e-08 0.0358664

0.0238551 0.00260903 -1.34738e-07
0.00260903 0.0301503 -1.11866e-07
-1.34738e-07 -1.11866e-07 0.0217978

0.0334292 0.00358121 -4.41252e-08
0.00358121 0.0307141 8.26502e-08
-4.41252e-08 8.26502e-08 0.031766

0.0316416 -0.00319424 -6.40609e-08
-0.00319424 0.0265509 -6.81438e-08
-6.40609e-08 -6.81438e-08 0.0269342

0.028928 -0.00234088 5.82605e-08
-0.00234088 0.0342333 4.77703e-08
5.82605e-08 4.77703e-08 0.0326047

0.0262433 0.00450116 -9.37381e-08
0.00450116 0.0245567 -2.25363e-08
-9.37381e-08 -2.25363e-08 0.0180803

0.0284214 -0.00286661 2.10245e-08
-0.00286661 0.0340307 3.35283e-08
2.10245e-08 3.35283e-08 0.0324477

0.0331475 0.00405869 5.49601e-08
0.00405869 0.0304634 -2.24753e-07
5.49601e-08 -2.24753e-07 0.0315411

0.0333336 -0.00331156 7.68475e-08
-0.00331156 0.0283559 -2.40597e-07
7.68475e-08 -2.40597e-07 0.0300446

0.0291596 -0.00329528 -4.71847e-08
-0.00329528 0.0319864 -4.3488e-08
-4.71847e-08 -4.3488e-08 0.0304361

0.0314538 -0.00242923 -3.73258e-08
-0.00242923 0.0247178 -1.06891e-07
-3.73258e-08 -1.06891e-07 0.0251551

0.0329545 -0.00246659 -4.43658e-08
-0.00246659 0.0267084 -6.58439e-08
-4.43658e-08 -6.58439e-08 0.0285953

0.0294899 -0.0033418 -1.50117e-07
-0.0033418 0.0329487 -1.72977e-08
-1.50117e-07 -1.72977e-08 0.0334061

0.0261329 0.00463361 -1.0296e-07
0.00463361 0.0255401 1.27176e-07
-1.0296e-07 1.27176e-07 0.0210915

0.0281489 0.00201665 -2.15e-07
0.00201665 0.034334 -5.23748e-08
-2.15e-07 -5.23748e-08 0.0311082

0.0308852 0.00348111 -8.19773e-08
0.00348111 0.0322542 1.5869e-07
-8.19773e-08 1.5869e-07 0.032599

0.029156 0.0033482 2.10216e-08
0.0033482 0.0331903 1.64684e-07
2.10216e-08 1.64684e-07 0.0332592

0.0289829 0.00152286 3.55025e-08
0.00152286 0.0354689 -2.3504e-07
3.55025e-08 -2.3504e-07 0.0326943

0.0310513 -0.00106172 1.24792e-08
-0.00106172 0.0231405 6.29161e-08
1.24792e-08 6.29161e-08 0.022077

0.0238829 0.00240544 -2.94939e-08
0.00240544 0.030409 1.79716e-07
-2.94939e-08 1.79716e-07 0.022112

0.0292121 -0.0032039 -1.51725e-08
-0.0032039 0.0326353 -1.04602e-08
-1.51725e-08 -1.04602e-08 0.0316172

0.0289863 0.00335662 -1.67228e-07
0.00335662 0.0309316 -7.41706e-08
-1.67228e-07 -7.41706e-08 0.0285669

0.0266117 -0.00459098 -1.66822e-07
-0.00459098 0.0252295 -6.66014e-08
-1.66822e-07 -6.66014e-08 0.0212557

0.0262768 0.00489311 -1.38981e-07
0.00489311 0.0209453 1.56346e-07
-1.38981e-07 1.56346e-07 0.0167616

0.0235019 -0.00428666 2.32058e-08
-0.00428666 0.0274634 -7.09501e-08
2.32058e-08 -7.09501e-08 0.0206256

0.0266709 -0.00402732 -1.73223e-07
-0.00402732 0.0274814 -8.08778e-08
-1.73223e-07 -8.08778e-08 0.0220491

0.0353638 -0.000906592 -8.99137e-08
-0.000906592 0.0273892 -6.79454e-08
-8.99137e-08 -6.79454e-08 0.0326539

0.0260442 0.00392143 9.77555e-08
0.00392143 0.028091 -1.55473e-08
9.77555e-08 -1.55473e-08 0.0221016

0.030787 0.00171643 1.64471e-08
0.00171643 0.0233594 -1.08573e-08
1.64471e-08 -1.08573e-08 0.0220247

0.0214301 0.00172196 -1.40737e-08
0.00172196 0.0302393 1.8242e-07
-1.40737e-08 1.8242e-07 0.0211319

0.0242619 -0.00288928 9.40395e-08
-0.00288928 0.0299507 8.23563e-08
9.40395e-08 8.23563e-08 0.0220854

0.031345 -0.000131053 -8.26731e-08
-0.000131053 0.039273 -7.16687e-08
-8.26731e-08 -7.16687e-08 0.0346702

0.0230575 0.000294704 1.06335e-07
0.000294704 0.0314591 9.59394e-08
1.06335e-07 9.59394e-08 0.0230614

0.0227763 0.00400116 1.17662e-07
0.00400116 0.0281261 -1.38802e-08
1.17662e-07 -1.38802e-08 0.0206373

0.0288874 0.0015856 -1.66582e-07
0.0015856 0.0358322 -1.03756e-08
-1.66582e-07 -1.03756e-08 0.0328929

0.0293147 -0.00358003 1.37743e-08
-0.00358003 0.0251285 -2.49765e-07
1.37743e-08 -2.49765e-07 0.0232389

0.0369764 0.002733 -3.76269e-08
0.002733 0.0297227 -6.43418e-08
-3.76269e-08 -6.43418e-08 0.0338011

0.0371751 0.00348324 -1.76058e-07
0.00348324 0.0334222 -1.46604e-09
-1.76058e-07 -1.46604e-09 0.0346516

0.0345427 -0.00244639 1.53116e-07
-0.00244639 0.0285292 -2.32644e-07
1.53116e-07 -2.32644e-07 0.0313782

0.0390559 -0.000265709 -1.41061e-07
-0.000265709 0.0339241 -8.46815e-08
-1.41061e-07 -8.46815e-08 0.0352077

0.0314785 -0.00418762 3.90419e-08
-0.00418762 0.0317811 1.36828e-07
3.90419e-08 1.36828e-07 0.0321557

0.0294612 0.00300747 6.93341e-08
0.00300747 0.0223266 -8.41241e-08
6.93341e-08 -8.41241e-08 0.0210659

0.030229 0.00397294 8.88463e-08
0.00397294 0.0326627 -1.55235e-07
8.88463e-08 -1.55235e-07 0.0327193

0.0302769 0.00384677 -1.23772e-07
0.00384677 0.0326067 -6.07416e-08
-1.23772e-07 -6.07416e-08 0.0326741

0.0262436 0.00396156 -7.99771e-09
0.00396156 0.0277668 -6.08026e-08
-7.99771e-09 -6.08026e-08 0.0218641

0.0344495 0.00357666 8.67682e-08
0.00357666 0.0317793 8.48813e-08
8.67682e-08 8.48813e-08 0.0328309

0.0302476 0.000452257 3.54348e-08
0.000452257 0.0204278 2.91124e-08
3.54348e-08 2.91124e-08 0.0205726

0.0331857 0.00420068 1.38218e-07
0.00420068 0.0323724 1.80246e-07
1.38218e-07 1.80246e-07 0.0334833

0.0305004 -0.00165433 -4.81863e-08
-0.00165433 0.0366159 1.69734e-09
-4.81863e-08 1.69734e-09 0.0336623

0.0373598 0.00323308 3.42008e-08
0.00323308 0.0334593 -1.10742e-07
3.42008e-08 -1.10742e-07 0.0346638

0.0307363 -0.00389591 -1.42034e-07
-0.00389591 0.0322724 1.15402e-07
-1.42034e-07 1.15402e-07 0.0326796

0.0293735 -0.000645006 1.7065e-07
-0.000645006 0.0369025 4.95689e-08
1.7065e-07 4.95689e-08 0.0328473

0.0288118 -0.00315213 8.4139e-08
-0.00315213 0.0221395 1.49522e-07
8.4139e-08 1.49522e-07 0.0187585

0.029002 0.00384435 9.99887e-08
0.00384435 0.0255772 1.22427e-07
9.99887e-08 1.22427e-07 0.0230723

0.0217008 0.00189083 2.0977e-07
0.00189083 0.0300605 -8.77601e-08
2.0977e-07 -8.77601e-08 0.0210833

0.0349895 -0.000161491 1.09649e-07
-0.000161491 0.0273889 -6.80291e-08
1.09649e-07 -6.80291e-08 0.0333009

0.034419 2.39479e-07 -9.99098e-08
2.39479e-07 0.0272741 -4.9279e-08
-9.99098e-08 -4.9279e-08 0.0320405

0.0291649 0.00303979 1.65557e-07
0.00303979 0.0326795 -7.33687e-08
1.65557e-07 -7.33687e-08 0.0321321

0.0314493 0.003166 -6.67224e-09
0.003166 0.0342495 -7.97608e-08
-6.67224e-09 -7.97608e-08 0.0340576

0.029168 -0.0032044 -1.82625e-08
-0.0032044 0.0332379 1.82414e-07
-1.82625e-08 1.82414e-07 0.0333784

0.0287733 -8.56894e-05 -8.98157e-08
-8.56894e-05 0.0367039 -1.09697e-07
-8.98157e-08 -1.09697e-07 0.0325251

0.0294637 0.0033756 -3.34864e-09
0.0033756 0.0330743 1.24047e-07
-3.34864e-09 1.24047e-07 0.0333541

0.0328582 -0.00134646 1.13559e-07
-0.00134646 0.0253612 -1.05472e-07
1.13559e-07 -1.05472e-07 0.0278283

0.0263544 -0.00425417 1.78166e-07
-0.00425417 0.0281792 3.37128e-08
1.78166e-07 3.37128e-08 0.024267

0.0362972 -0.000331593 -5.39164e-08
-0.000331593 0.0293827 7.71283e-08
-5.39164e-08 7.71283e-08 0.0340274

0.0267804 -0.00444537 8.12145e-08
-0.00444537 0.0251897 -2.51488e-07
8.12145e-08 -2.51488e-07 0.0209487

0.0308991 0.00250693 -1.85475e-08
0.00250693 0.0350626 9.69393e-08
-1.85475e-08 9.69393e-08 0.0340672

0.0351122 -0.00349689 -1.60397e-07
-0.00349689 0.0303878 2.28712e-07
-1.60397e-07 2.28712e-07 0.0326143

0.0305013 -0.00124978 7.27917e-08
-0.00124978 0.022978 2.07653e-07
7.27917e-08 2.07653e-07 0.0214779

0.0371473 -0.00307693 -1.87916e-07
-0.00307693 0.0316529 6.31604e-08
-1.87916e-07 6.31604e-08 0.0339874

0.0349682 0.000321819 -2.40017e-07
0.000321819 0.0275541 1.32419e-08
-2.40017e-07 1.32419e-08 0.0334294

0.0358425 -0.00308827 -4.4025e-08
-0.00308827 0.0332574 -3.20864e-08
-4.4025e-08 -3.20864e-08 0.034143

0.0349276 -0.00341054 1.63429e-07
-0.00341054 0.0295944 -7.27069e-08
1.63429e-07 -7.27069e-08 0.0321775

0.0349088 -0.00113363 2.0308e-08
-0.00113363 0.0278495 1.10791e-07
2.0308e-08 1.10791e-07 0.0323408

0.0314892 -0.00306243 4.07828e-08
-0.00306243 0.0344478 7.0857e-08
4.07828e-08 7.0857e-08 0.034146

0.0292346 -0.00407082 1.52651e-07
-0.00407082 0.0268991 -1.40458e-07
1.52651e-07 -1.40458e-07 0.0253456

0.0349918 -0.0032435 1.75224e-07
-0.0032435 0.0299148 -2.62195e-08
1.75224e-07 -2.62195e-08 0.0321947

0.0314616 0.00140902 -5.93244e-08
0.00140902 0.0233265 -1.47221e-08
-5.93244e-08 -1.47221e-08 0.0244831

0.0336644 0.00348415 2.34981e-07
0.00348415 0.0334435 3.04402e-08
2.34981e-07 3.04402e-08 0.0336495

0.0298922 -0.00496731 -7.48578e-09
-0.00496731 0.0330774 -2.29827e-08
-7.48578e-09 -2.29827e-08 0.0338566

0.0300423 0.00492051 -5.572e-08
0.00492051 0.0329397 1.26364e-07
-5.572e-08 1.26364e-07 0.0338235

0.0276874 -0.00374185 3.52807e-08
-0.00374185 0.0348067 -3.59413e-09
3.52807e-08 -3.59413e-09 0.0337661

0.0279251 0.00354725 7.00062e-08
0.00354725 0.0348343 9.96844e-08
7.00062e-08 9.96844e-08 0.0337309

0.0364292 -0.00115389 -1.09233e-08
-0.00115389 0.0263412 1.47373e-07
-1.09233e-08 1.47373e-07 0.0337573

0.0361981 0.00124756 -4.31986e-08
0.00124756 0.0265625 7.18868e-09
-4.31986e-08 7.18868e-09 0.0337201

0.0350337 -0.00130642 -1.12073e-07
-0.00130642 0.0284675 -1.86982e-07
-1.12073e-07 -1.86982e-07 0.0325752

0.0344357 0.0042591 5.42753e-08
0.0042591 0.0342886 -7.87001e-08
5.42753e-08 -7.87001e-08 0.0348119

0.0343115 -0.00435698 -5.61241e-08
-0.00435698 0.0342801 3.96393e-08
-5.61241e-08 3.96393e-08 0.0348003

0.0305203 0.0020934 5.71275e-08
0.0020934 0.0381647 -5.21773e-08
5.71275e-08 -5.21773e-08 0.0348491

0.0306635 -0.0020596 7.43881e-08
-0.0020596 0.0380948 1.50839e-08
7.43881e-08 1.50839e-08 0.0348365

0.0395016 -0.00052904 1.47342e-07
-0.00052904 0.032849 -1.89832e-07
1.47342e-07 -1.89832e-07 0.0352574

0.0397041 0.000513489 -1.56099e-07
0.000513489 0.0326212 -1.38405e-07
-1.56099e-07 -1.38405e-07 0.0353026

0.0239646 0.00127604 2.37281e-08
0.00127604 0.0320025 -5.60725e-08
2.37281e-08 -5.60725e-08 0.0251838

0.0311616 -0.00326516 4.39963e-08
-0.00326516 0.0322401 1.0703e-07
4.39963e-08 1.0703e-07 0.0328013

0.027779 -0.0047856 -3.92135e-08
-0.0047856 0.0333113 1.82908e-07
-3.92135e-08 1.82908e-07 0.0334546

0.0333578 -0.000610236 8.54495e-08
-0.000610236 0.0264026 -1.55394e-07
8.54495e-08 -1.55394e-07 0.0284477

0.0381874 -0.00225192 2.22723e-07
-0.00225192 0.030794 -6.11708e-08
2.22723e-07 -6.11708e-08 0.0348922

0.0382356 0.00218381 -2.22204e-07
0.00218381 0.030907 -3.95823e-08
-2.22204e-07 -3.95823e-08 0.0349244

0.0360827 1.56222e-05 -1.43566e-07
1.56222e-05 0.0251251 -1.58114e-07
-1.43566e-07 -1.58114e-07 0.0334697

0.0242404 0.00302877 -6.58678e-08
0.00302877 0.0303971 1.43779e-08
-6.58678e-08 1.43779e-08 0.0242765

0.0276735 0.00475623 -1.07191e-07
0.00475623 0.0333118 1.59297e-07
-1.07191e-07 1.59297e-07 0.0333925

0.0286739 -0.00307588 5.98987e-08
-0.00307588 0.0342602 4.77472e-08
5.98987e-08 4.77472e-08 0.0327518

0.0310847 0.00303559 1.70422e-07
0.00303559 0.0251462 -1.78492e-07
1.70422e-07 -1.78492e-07 0.0254666

0.0372274 0.00316568 -4.39796e-08
0.00316568 0.0315403 6.13554e-08
-4.39796e-08 6.13554e-08 0.0340753

0.029226 -0.00406722 -6.42551e-08
-0.00406722 0.0269351 -1.24108e-07
-6.42551e-08 -1.24108e-07 0.0253208

0.0364011 -0.000453613 1.75925e-07
-0.000453613 0.029691 1.51771e-08
1.75925e-07 1.51771e-08 0.0341304

0.0273438 -0.00449498 1.59176e-07
-0.00449498 0.0333947 -2.11012e-07
1.59176e-07 -2.11012e-07 0.0334412

0.0240374 0.00107897 5.86366e-08
0.00107897 0.0322437 -1.4594e-07
5.86366e-08 -1.4594e-07 0.0255054

0.0242292 0.00282649 -1.16755e-07
0.00282649 0.0307009 4.62662e-09
-1.16755e-07 4.62662e-09 0.0245444

0.0267917 0.00459414 -8.27743e-08
0.00459414 0.0240412 1.55675e-07
-8.27743e-08 1.55675e-07 0.0182131

0.0298501 0.000199956 8.37179e-08
0.000199956 0.020088 1.90552e-07
8.37179e-08 1.90552e-07 0.019362

0.0319083 -0.00302388 1.37617e-07
-0.00302388 0.0341615 3.06176e-08
1.37617e-07 3.06176e-08 0.0340351

0.0229181 0.00399943 1.82101e-07
0.00399943 0.0276596 1.02862e-07
1.82101e-07 1.02862e-07 0.0176527

0.0292091 0.00310066 2.04995e-07
0.00310066 0.0327625 -1.31894e-08
2.04995e-07 -1.31894e-08 0.0310117

0.031594 -0.00069446 -1.39162e-07
-0.00069446 0.0231596 5.90441e-08
-1.39162e-07 5.90441e-08 0.0244843

0.0327603 0.00146446 3.2323e-08
0.00146446 0.0253464 8.01001e-08
3.2323e-08 8.01001e-08 0.0276125

0.035978 5.62364e-05 1.01559e-07
5.62364e-05 0.0249581 -8.26439e-08
1.01559e-07 -8.26439e-08 0.0333857

0.0279651 -0.00380554 -1.28373e-07
-0.00380554 0.0349488 -1.49067e-08
-1.28373e-07 -1.49067e-08 0.0338154

0.0393145 -0.000843815 2.46811e-07
-0.000843815 0.0416019 9.15428e-08
2.46811e-07 9.15428e-08 0.0361897

0.0298673 0.004939 3.73396e-08
0.004939 0.0329555 -1.5819e-07
3.73396e-08 -1.5819e-07 0.0337786

0.0302876 0.000214347 1.70601e-07
0.000214347 0.0203964 3.78882e-08
1.70601e-07 3.78882e-08 0.0172757

0.0266733 -0.0042501 -2.04942e-07
-0.0042501 0.0281325 -3.49246e-08
-2.04942e-07 -3.49246e-08 0.024437

0.0277458 0.00481576 1.47198e-07
0.00481576 0.0333145 -1.40333e-07
1.47198e-07 -1.40333e-07 0.0334548

0.0279446 -0.00145841 -1.14471e-07
-0.00145841 0.0350845 -7.25319e-08
-1.14471e-07 -7.25319e-08 0.0314498

0.0244646 -0.00330505 -1.16024e-07
-0.00330505 0.0300146 -1.81098e-08
-1.16024e-07 -1.81098e-08 0.0242166

0.0279901 0.00377981 -8.27659e-08
0.00377981 0.0349097 1.0108e-07
-8.27659e-08 1.0108e-07 0.0337863

0.031361 -0.00340935 -1.07495e-07
-0.00340935 0.027008 -1.66118e-07
-1.07495e-07 -1.66118e-07 0.0269909

0.0402798 0.00140901 1.37699e-07
0.00140901 0.0406172 -2.063e-07
1.37699e-07 -2.063e-07 0.0361701

0.0258807 0.00400283 7.50472e-08
0.00400283 0.0289538 -5.80658e-08
7.50472e-08 -5.80658e-08 0.0245105

0.0366774 0.00110301 -2.08776e-07
0.00110301 0.0263516 5.75189e-08
-2.08776e-07 5.75189e-08 0.0338973

0.0333414 0.00398434 1.22002e-08
0.00398434 0.0321148 -5.36157e-08
1.22002e-08 -5.36157e-08 0.0333152

0.0292275 0.00306719 8.65506e-08
0.00306719 0.032605 -1.55226e-07
8.65506e-08 -1.55226e-07 0.0321572

0.0343639 -0.00431094 5.90268e-08
-0.00431094 0.0345044 7.04822e-08
5.90268e-08 7.04822e-08 0.0348845

0.0354889 -0.00306336 -2.40776e-07
-0.00306336 0.0305895 6.48928e-08
-2.40776e-07 6.48928e-08 0.03275

0.0333662 0.00138752 8.44531e-08
0.00138752 0.0395772 1.88621e-07
8.44531e-08 1.88621e-07 0.0350021

0.0291964 -0.003079 -5.25257e-08
-0.003079 0.0328726 -9.17934e-08
-5.25257e-08 -9.17934e-08 0.0313829

0.0292641 -0.00123213 -2.47308e-07
-0.00123213 0.0192868 9.1468e-08
-2.47308e-07 9.1468e-08 0.0164119

0.0287781 -0.00183229 1.6671e-07
-0.00183229 0.0184137 3.01258e-08
1.6671e-07 3.01258e-08 0.0161968

0.0385293 0.0022019 1.42579e-08
0.0022019 0.0332388 -7.35623e-08
1.42579e-08 -7.35623e-08 0.0347625

0.0280557 0.00294506 -1.66997e-07
0.00294506 0.032335 -6.30483e-08
-1.66997e-07 -6.30483e-08 0.0295177

0.0320666 0.00383438 -9.15803e-08
0.00383438 0.0309603 -8.44316e-08
-9.15803e-08 -8.44316e-08 0.0314541

0.0320495 8.98516e-05 -7.17301e-08
8.98516e-05 0.0245766 1.40994e-07
-7.17301e-08 1.40994e-07 0.0248877

0.0302374 0.00086608 8.18189e-08
0.00086608 0.0385808 -2.00193e-07
8.18189e-08 -2.00193e-07 0.034096

0.0354016 0.00219138 -6.78024e-08
0.00219138 0.0293226 -9.01978e-08
-6.78024e-08 -9.01978e-08 0.0328579

0.024811 -0.00333872 5.39098e-08
-0.00333872 0.0300057 1.46017e-07
5.39098e-08 1.46017e-07 0.0244697

0.0286503 -0.000337813 -1.557e-07
-0.000337813 0.0366567 -1.15999e-07
-1.557e-07 -1.15999e-07 0.0323954

0.0252149 0.00173999 -2.09189e-08
0.00173999 0.0320292 -5.7439e-08
-2.09189e-08 -5.7439e-08 0.0256836

0.0332803 -0.00390955 -2.66564e-08
-0.00390955 0.0304964 7.758e-08
-2.66564e-08 7.758e-08 0.0315921

0.0290643 -0.00389591 1.46649e-08
-0.00389591 0.0282 2.83252e-08
1.46649e-08 2.83252e-08 0.0257132

0.0261489 0.00409872 7.3406e-08
0.00409872 0.0285459 8.27514e-08
7.3406e-08 8.27514e-08 0.0243178

0.0452873 -0.00201728 1.97856e-07
-0.00201728 0.0396055 3.30606e-07
1.97856e-07 3.30606e-07 0.0363666

0.0316664 0.000256551 -5.37555e-08
0.000256551 0.0393271 1.71765e-07
-5.37555e-08 1.71765e-07 0.0347688

0.0306161 0.00265102 3.75794e-08
0.00265102 0.0384425 -2.58778e-07
3.75794e-08 -2.58778e-07 0.0349574

0.0387654 0.00209474 1.37302e-07
0.00209474 0.0302214 5.03783e-08
1.37302e-07 5.03783e-08 0.0349422

0.0313707 -0.00345029 -8.09099e-08
-0.00345029 0.0321399 2.09536e-07
-8.09099e-08 2.09536e-07 0.0325723

0.0318174 0.00233597 -9.5248e-09
0.00233597 0.0256199 8.60327e-08
-9.5248e-09 8.60327e-08 0.0258793

0.0349935 -0.000708745 2.12247e-07
-0.000708745 0.0415753 -5.96936e-08
2.12247e-07 -5.96936e-08 0.0357274

0.0357879 -0.00251871 3.64087e-08
-0.00251871 0.0295499 7.36359e-08
3.64087e-08 7.36359e-08 0.0332576

0.0332969 -0.0020398 6.94075e-08
-0.0020398 0.0266523 2.25089e-07
6.94075e-08 2.25089e-07 0.028675

0.025252 0.00151086 -2.25201e-08
0.00151086 0.032274 -1.49012e-07
-2.25201e-08 -1.49012e-07 0.0259497

0.0268043 -0.00334458 1.55829e-07
-0.00334458 0.0300089 -8.48559e-09
1.55829e-07 -8.48559e-09 0.0251869

0.0364772 -0.00336028 -1.13079e-07
-0.00336028 0.0352875 -8.25502e-08
-1.13079e-07 -8.25502e-08 0.034742

0.0284753 0.00415205 -2.05739e-07
0.00415205 0.0277157 7.7735e-08
-2.05739e-07 7.7735e-08 0.0254674

0.0372435 -0.00334552 1.27453e-07
-0.00334552 0.0333219 -1.88107e-07
1.27453e-07 -1.88107e-07 0.0346113

0.0322055 0.000337886 -1.25272e-07
0.000337886 0.0248623 8.6338e-08
-1.25272e-07 8.6338e-08 0.0254372

0.0191607 -0.00368904 -1.54931e-07
-0.00368904 0.0275254 -1.40547e-07
-1.54931e-07 -1.40547e-07 0.0163106

0.0292094 -0.00380333 2.18164e-07
-0.00380333 0.0281921 2.8782e-09
2.18164e-07 2.8782e-09 0.0258074

0.0230454 0.00412724 4.98484e-08
0.00412724 0.0280198 3.08456e-07
4.98484e-08 3.08456e-07 0.0175919

0.0296907 -0.00155948 -7.33886e-08
-0.00155948 0.0375327 -1.57753e-07
-7.33886e-08 -1.57753e-07 0.0336481

0.0243597 -0.00179359 6.64621e-09
-0.00179359 0.0318719 -5.26445e-08
6.64621e-09 -5.26445e-08 0.0254475

0.0424367 -0.00323417 -7.28105e-08
-0.00323417 0.0423769 -7.57611e-08
-7.28105e-08 -7.57611e-08 0.0363749

0.0263363 0.00309093 3.5577e-08
0.00309093 0.0307011 4.67336e-09
3.5577e-08 4.67336e-09 0.0254774

0.0334761 -0.00432346 -2.20002e-08
-0.00432346 0.032659 -2.36648e-08
-2.20002e-08 -2.36648e-08 0.033566

0.0240802 -0.00155077 4.62177e-08
-0.00155077 0.0318862 2.43555e-08
4.62177e-08 2.43555e-08 0.0251763

0.0362222 -0.00253867 -2.36702e-07
-0.00253867 0.0295106 -2.7088e-09
-2.36702e-07 -2.7088e-09 0.0335188

0.026673 0.00310451 1.17291e-07
0.00310451 0.0303941 1.14619e-08
1.17291e-07 1.14619e-08 0.0253127

0.0343426 -0.000653745 -1.88868e-07
-0.000653745 0.0272762 -5.33244e-08
-1.88868e-07 -5.33244e-08 0.030577

0.0188901 -0.00387149 -2.58198e-07
-0.00387149 0.029801 9.88988e-08
-2.58198e-07 9.88988e-08 0.012961

0.0279987 0.00275439 -1.73253e-07
0.00275439 0.0326279 -1.0809e-07
-1.73253e-07 -1.0809e-07 0.0305729

0.0314368 -0.00251211 1.94084e-08
-0.00251211 0.0247217 -6.38917e-09
1.94084e-08 -6.38917e-09 0.0254053

0.0391182 -0.00286917 1.07745e-07
-0.00286917 0.0322206 -3.59109e-09
1.07745e-07 -3.59109e-09 0.0349362

0.0287525 0.00412369 4.24951e-09
0.00412369 0.027299 -4.38824e-08
4.24951e-09 -4.38824e-08 0.0252548

0.0313605 -0.00391916 -1.09015e-07
-0.00391916 0.0285412 -1.64376e-07
-1.09015e-07 -1.64376e-07 0.0287302

0.0354074 0.00276385 -1.15788e-07
0.00276385 0.0308549 -6.78557e-08
-1.15788e-07 -6.78557e-08 0.0330384

0.029772 -0.00370366 1.63949e-07
-0.00370366 0.0329369 -2.06832e-07
1.63949e-07 -2.06832e-07 0.0333414

0.0270542 -0.00340998 -1.25668e-07
-0.00340998 0.0299816 1.32357e-07
-1.25668e-07 1.32357e-07 0.0253966

0.0284398 0.00377113 -1.11741e-07
0.00377113 0.0289387 -6.34104e-08
-1.11741e-07 -6.34104e-08 0.0258864

0.0313701 0.00341319 6.69835e-08
0.00341319 0.0268985 -1.41066e-07
6.69835e-08 -1.41066e-07 0.0269651

0.0365351 -0.00194421 -1.26301e-07
-0.00194421 0.0306243 2.31636e-07
-1.26301e-07 2.31636e-07 0.0336347

0.0255327 -0.00216312 -4.58514e-08
-0.00216312 0.0318006 -5.71276e-08
-4.58514e-08 -5.71276e-08 0.0258528

0.0346979 -0.00231386 1.82131e-07
-0.00231386 0.0283333 -1.66972e-07
1.82131e-07 -1.66972e-07 0.0314548

0.0341846 0.00222311 1.14947e-07
0.00222311 0.0274309 1.00086e-07
1.14947e-07 1.00086e-07 0.0306027

0.0336441 -0.00124581 -4.17873e-08
-0.00124581 0.0392987 -7.21642e-08
-4.17873e-08 -7.21642e-08 0.0349264

0.0320708 -0.00174664 -3.5475e-08
-0.00174664 0.0253294 -1.11447e-07
-3.5475e-08 -1.11447e-07 0.0258702

0.0250009 7.97524e-05 -2.13001e-08
7.97524e-05 0.0331502 1.72444e-08
-2.13001e-08 1.72444e-08 0.0268601

0.0332456 0.00242859 -3.89473e-08
0.00242859 0.0271926 -3.45209e-08
-3.89473e-08 -3.45209e-08 0.028921

0.0311162 0.0035987 1.64344e-07
0.0035987 0.0272916 -1.91584e-07
1.64344e-07 -1.91584e-07 0.0271215

0.0252945 -0.00204102 -9.47005e-08
-0.00204102 0.0318629 2.1117e-08
-9.47005e-08 2.1117e-08 0.02561

0.0252002 -0.000154615 -5.42977e-09
-0.000154615 0.0332905 -4.76556e-08
-5.42977e-09 -4.76556e-08 0.027143

0.0354121 0.00385791 4.71859e-08
0.00385791 0.0329947 -7.61262e-08
4.71859e-08 -7.61262e-08 0.0338943

0.0275846 -0.00143093 7.5477e-08
-0.00143093 0.0353409 1.61755e-07
7.5477e-08 1.61755e-07 0.0314408

0.0312326 -0.00348362 -8.51068e-08
-0.00348362 0.0269764 -1.25093e-07
-8.51068e-08 -1.25093e-07 0.0270087

0.0312952 0.00277245 2.09638e-07
0.00277245 0.0249211 1.03977e-07
2.09638e-07 1.03977e-07 0.0252452

0.0345811 0.00311822 9.41554e-09
0.00311822 0.0293854 -9.5204e-08
9.41554e-09 -9.5204e-08 0.0317946

0.0279901 0.000716467 1.46263e-08
0.000716467 0.036038 4.37992e-08
1.46263e-08 4.37992e-08 0.0318169

0.0287152 0.00378107 -7.28612e-08
0.00378107 0.0285579 8.58881e-08
-7.28612e-08 8.58881e-08 0.0257268

0.0367893 0.00305724 -1.00299e-07
0.00305724 0.0361246 -1.3514e-07
-1.00299e-07 -1.3514e-07 0.034906

0.0226792 -0.00754504 -6.10459e-08
-0.00754504 0.0186871 -7.36956e-08
-6.10459e-08 -7.36956e-08 0.0108447

0.03329 -0.0032873 1.23951e-07
-0.0032873 0.0286312 -1.45617e-07
1.23951e-07 -1.45617e-07 0.0301228

0.020726 0.000913266 2.79331e-07
0.000913266 0.0300301 5.19906e-08
2.79331e-07 5.19906e-08 0.0183456

0.0312991 -0.00378146 5.80633e-08
-0.00378146 0.0292301 1.34395e-07
5.80633e-08 1.34395e-07 0.0290304

0.00153952 -0.00651859 -3.33631e-08
-0.00651859 0.0275675 1.46173e-07
-3.33631e-08 1.46173e-07 0.00290822

0.00146992 0.00636816 -9.56682e-09
0.00636816 0.0275854 -4.1915e-08
-9.56682e-09 -4.1915e-08 0.00300117

0.0119842 0.0145045 -7.1987e-09
0.0145045 0.0175319 -9.02688e-09
-7.1987e-09 -9.02688e-09 0.0027711

0.0121656 -0.0144952 -1.18039e-08
-0.0144952 0.0172234 1.48016e-08
-1.18039e-08 1.48016e-08 0.00280371

0.0293398 -0.000164083 1.60649e-08
-0.000164083 0 0
1.60649e-08 0 0.00295252

0.0235915 -0.0112823 5.64696e-08
-0.0112823 0.00539531 -2.71943e-08
5.64696e-08 -2.71943e-08 0.00297822

0.0236335 0.0113485 -1.30354e-07
0.0113485 0.00544937 -6.27751e-08
-1.30354e-07 -6.27751e-08 0.00303938

0.0369096 0.00191127 9.3982e-08
0.00191127 0.0302411 -7.62255e-09
9.3982e-08 -7.62255e-09 0.0338768

0.0387049 0.00340972 -2.4791e-09
0.00340972 0.0366167 -1.00075e-07
-2.4791e-09 -1.00075e-07 0.0355775

0.0344134 0.000872301 8.5653e-08
0.000872301 0.0274558 3.09691e-08
8.5653e-08 3.09691e-08 0.0316868

0.0328715 0.00285004 2.05465e-08
0.00285004 0.0268884 -1.41702e-07
2.05465e-08 -1.41702e-07 0.0286454

0.0256997 0.00231314 6.6965e-08
0.00231314 0.0323658 1.20118e-07
6.6965e-08 1.20118e-07 0.0276346

0.0307117 0.00376873 -2.33236e-08
0.00376873 0.0276751 8.63621e-08
-2.33236e-08 8.63621e-08 0.0271167

0.0333047 -0.003903 -9.90149e-08
-0.003903 0.0304647 -2.66077e-08
-9.90149e-08 -2.66077e-08 0.031629

0.0309722 0.00365431 1.18636e-08
0.00365431 0.0272857 -4.38476e-08
1.18636e-08 -4.38476e-08 0.0269244

0.0249862 -0.000371352 4.35908e-08
-0.000371352 0.0331213 1.93253e-08
4.35908e-08 1.93253e-08 0.0268423

0.0385475 -0.00348458 9.27857e-08
-0.00348458 0.0368801 -8.27237e-09
9.27857e-08 -8.27237e-09 0.0355832

0.0251747 -0.000635588 9.78247e-09
-0.000635588 0.0332091 -4.63633e-08
9.78247e-09 -4.63633e-08 0.0271019

0.036017 0.00304739 -7.43244e-09
0.00304739 0.0330104 6.97352e-08
-7.43244e-09 6.97352e-08 0.0340971

0.0296222 0.00347557 1.06947e-07
0.00347557 0.0248455 1.09658e-07
1.06947e-07 1.09658e-07 0.023022

0.0304953 -0.00171385 1.29399e-07
-0.00171385 0.0375117 -9.46001e-08
1.29399e-07 -9.46001e-08 0.0347357

0.0339198 0.00180445 -2.31809e-07
0.00180445 0.0271808 -3.63818e-08
-2.31809e-07 -3.63818e-08 0.0303196

0.0312002 -0.00392029 -8.96301e-08
-0.00392029 0.0285302 -1.17923e-07
-8.96301e-08 -1.17923e-07 0.0286136

0.0315827 -0.00322108 -3.44754e-09
-0.00322108 0.0266908 3.20196e-08
-3.44754e-09 3.20196e-08 0.0270469

0.0384791 -0.00214128 1.68619e-07
-0.00214128 0.0334165 -1.09565e-07
1.68619e-07 -1.09565e-07 0.0347442

0.0326801 0.00366399 1.21411e-07
0.00366399 0.0292313 -8.91603e-08
1.21411e-07 -8.91603e-08 0.0301542

0.0326438 0.00313755 6.8444e-08
0.00313755 0.0272516 -1.95792e-07
6.8444e-08 -1.95792e-07 0.0287871

0.0269544 -0.000365154 1.5114e-07
-0.000365154 0.0349862 -1.01828e-08
1.5114e-07 -1.01828e-08 0.0301672

0.025899 0.000765814 6.96688e-08
0.000765814 0.0340027 1.14736e-07
6.96688e-08 1.14736e-07 0.0288223

0.0327769 0.000345344 -4.61547e-08
0.000345344 0.0248611 9.13278e-08
-4.61547e-08 9.13278e-08 0.027443

0.0313865 -0.000944821 -3.72326e-08
-0.000944821 0.0230034 2.03229e-07
-3.72326e-08 2.03229e-07 0.0238915

0.0308798 0.00398523 1.00311e-08
0.00398523 0.028805 -4.73044e-08
1.00311e-08 -4.73044e-08 0.0286234

0.0331174 -0.00343156 -1.43977e-07
-0.00343156 0.0285397 -1.18614e-07
-1.43977e-07 -1.18614e-07 0.0299686

0.0364121 -0.00282357 -1.39041e-07
-0.00282357 0.0327323 1.0792e-07
-1.39041e-07 1.0792e-07 0.0341434

0.0292055 -0.0041275 1.29312e-07
-0.0041275 0.0291917 1.39256e-07
1.29312e-07 1.39256e-07 0.0277532

0.0269713 -0.00362022 1.20244e-07
-0.00362022 0.0304639 5.14607e-08
1.20244e-07 5.14607e-08 0.0272127

0.0283255 0.00389942 -4.15766e-08
0.00389942 0.0299 7.62891e-08
-4.15766e-08 7.62891e-08 0.0277513

0.0259006 -0.0012487 7.17343e-08
-0.0012487 0.0336127 -2.49597e-08
7.17343e-08 -2.49597e-08 0.0285152

0.0266538 -0.000201853 1.26668e-07
-0.000201853 0.0349119 7.61546e-08
1.26668e-07 7.61546e-08 0.0299191

0.0277617 0.000752977 1.7567e-07
0.000752977 0.0360375 4.25737e-08
1.7567e-07 4.25737e-08 0.0316574

0.0262465 -0.00274945 -1.46118e-07
-0.00274945 0.0319622 9.21604e-08
-1.46118e-07 9.21604e-08 0.0277099

0.0345816 0.0031756 9.75242e-09
0.0031756 0.0291677 -9.58268e-08
9.75242e-09 -9.58268e-08 0.0316337

0.0339085 -0.00126117 -8.85241e-08
-0.00126117 0.0269296 1.9498e-07
-8.85241e-08 1.9498e-07 0.0302009

0.0257897 0.000974206 -7.25626e-08
0.000974206 0.0338287 -7.42404e-08
-7.25626e-08 -7.42404e-08 0.0285412

0.0278234 -0.00126999 7.2473e-08
-0.00126999 0.0353967 1.61132e-07
7.2473e-08 1.61132e-07 0.0313653

0.0272923 -0.00213708 2.24766e-09
-0.00213708 0.0336563 4.81697e-09
2.24766e-09 4.81697e-09 0.0302249

0.0327757 -0.00107713 1.77917e-07
-0.00107713 0.0253194 1.24566e-07
1.77917e-07 1.24566e-07 0.0272536

0.0333146 -0.00427111 7.27862e-08
-0.00427111 0.0323796 1.80851e-07
7.27862e-08 1.80851e-07 0.0335285

0.0264879 0.0012197 1.8413e-07
0.0012197 0.0338347 -7.10298e-08
1.8413e-07 -7.10298e-08 0.0288153

0.0398112 -0.00243166 2.3228e-07
-0.00243166 0.0352181 -9.47486e-08
2.3228e-07 -9.47486e-08 0.0354604

0.0188884 0.00316453 1.31983e-07
0.00316453 0.0278752 3.15812e-07
1.31983e-07 3.15812e-07 0.0162724

0.0338148 -0.00352286 -2.62539e-08
-0.00352286 0.0334943 2.30957e-08
-2.62539e-08 2.30957e-08 0.0337254

0.0353429 -0.0039994 -7.34924e-08
-0.0039994 0.033046 -1.36073e-07
-7.34924e-08 -1.36073e-07 0.0339033

0.0266852 -9.05145e-05 -1.60704e-07
-9.05145e-05 0.034917 6.9564e-08
-1.60704e-07 6.9564e-08 0.0299273

0.0332418 -0.00217657 1.29311e-08
-0.00217657 0.0271523 1.00334e-07
1.29311e-08 1.00334e-07 0.0289019

0.0293468 0.00168467 -2.61063e-08
0.00168467 0.035819 -1.86061e-08
-2.61063e-08 -1.86061e-08 0.032879

0.0132072 -0.000379125 1.48791e-07
-0.000379125 0.0283614 -7.75601e-09
1.48791e-07 -7.75601e-09 0.0111516

0.0271129 0.00186844 2.24764e-07
0.00186844 0.0340608 4.94072e-09
2.24764e-07 4.94072e-09 0.0303055

0.0311084 -0.00385837 2.36178e-08
-0.00385837 0.0291532 1.10414e-07
2.36178e-08 1.10414e-07 0.0288056

0.0186194 0.0032045 -1.13175e-07
0.0032045 0.0301387 -3.59702e-07
-1.13175e-07 -3.59702e-07 0.0131264

0.0426002 0.00351817 1.40285e-07
0.00351817 0.0418487 2.19757e-07
1.40285e-07 2.19757e-07 0.0364797

0.043206 -0.00374861 4.62607e-08
-0.00374861 0.0414168 -8.43319e-08
4.62607e-08 -8.43319e-08 0.0364622

0.0310643 -0.00399052 1.64556e-07
-0.00399052 0.0304703 -3.29631e-08
1.64556e-07 -3.29631e-08 0.0304603

0.0289212 -0.00406395 -3.44321e-08
-0.00406395 0.0291496 1.09757e-07
-3.44321e-08 1.09757e-07 0.0275935

0.0330499 0.00272695 -1.04817e-07
0.00272695 0.0275277 8.07351e-08
-1.04817e-07 8.07351e-08 0.0290746

0.0327784 0.00195998 -1.03634e-07
0.00195998 0.0255903 8.2656e-08
-1.03634e-07 8.2656e-08 0.0278219

0.0464016 0.000419546 -6.23093e-07
0.000419546 0.046357 3.83513e-07
-6.23093e-07 3.83513e-07 0.036694

0.0469206 -0.000952693 -3.71816e-07
-0.000952693 0.0457693 6.54867e-08
-3.71816e-07 6.54867e-08 0.0367651

0.0347984 0.000638131 1.83281e-07
0.000638131 0.0275721 -5.38296e-08
1.83281e-07 -5.38296e-08 0.0322156

0.027751 0.000882315 2.30582e-07
0.000882315 0.0355695 -4.57418e-09
2.30582e-07 -4.57418e-09 0.0313477

0.0276069 0.00088283 -2.1218e-07
0.00088283 0.0355696 -1.72212e-08
-2.1218e-07 -1.72212e-08 0.0312439

0.0234584 0.00739958 -3.18294e-08
0.00739958 0.0183014 2.55364e-07
-3.18294e-08 2.55364e-07 0.0109012

0.0272462 -0.00367538 -5.97277e-09
-0.00367538 0.0303462 -4.56983e-08
-5.97277e-09 -4.56983e-08 0.0273186

0.0365655 0.00239157 6.59566e-08
0.00239157 0.0295753 2.82273e-08
6.59566e-08 2.82273e-08 0.0337836

0.0332725 0.00124747 -7.79309e-08
0.00124747 0.0265033 3.31407e-08
-7.79309e-08 3.31407e-08 0.0284309

0.0291515 -0.0034923 -7.52431e-08
-0.0034923 0.0304701 3.52307e-08
-7.52431e-08 3.52307e-08 0.0281723

0.0328101 -0.00264749 -3.18857e-08
-0.00264749 0.0267271 3.11362e-08
-3.18857e-08 3.11362e-08 0.0285858

0.0224595 0.00761255 -1.59726e-07
0.00761255 0.0185899 6.74962e-08
-1.59726e-07 6.74962e-08 0.0109036

0.0331439 0.00410246 -4.55195e-08
0.00410246 0.0326375 8.096e-08
-4.55195e-08 8.096e-08 0.0331807

0.0258894 -0.00257816 -1.82913e-08
-0.00257816 0.0320227 -1.04612e-07
-1.82913e-08 -1.04612e-07 0.0275065

0.0324813 0.00378582 -4.4282e-09
0.00378582 0.029267 8.16587e-08
-4.4282e-09 8.16587e-08 0.0301459

0.026815 -0.000543518 -1.35673e-07
-0.000543518 0.0349512 -3.94993e-08
-1.35673e-07 -3.94993e-08 0.0301369

0.0269889 0.00256319 4.06633e-08
0.00256319 0.0324475 1.11564e-07
4.06633e-08 1.11564e-07 0.0282854

0.0305253 0.00399083 -2.68572e-08
0.00399083 0.0293221 7.94662e-08
-2.68572e-08 7.94662e-08 0.0287741

0.0276078 -0.00293705 7.85099e-08
-0.00293705 0.0318528 1.3207e-07
7.85099e-08 1.3207e-07 0.028248

0.029455 -0.00357577 2.2373e-08
-0.00357577 0.0303499 -4.3913e-08
2.2373e-08 -4.3913e-08 0.028304

0.0181372 0.00142546 3.94859e-07
0.00142546 0.0280355 1.92141e-07
3.94859e-07 1.92141e-07 0.0131271

0.023473 -0.00429374 7.22252e-08
-0.00429374 0.027555 -1.46909e-07
7.22252e-08 -1.46909e-07 0.0177227

0.0262045 -0.00152594 -8.03951e-08
-0.00152594 0.0336223 8.46194e-08
-8.03951e-08 8.46194e-08 0.0287508

0.0330224 0.00347483 1.5467e-07
0.00347483 0.0288765 -5.97009e-08
1.5467e-07 -5.97009e-08 0.0300679

0.0303207 0.00385728 -2.51032e-08
0.00385728 0.0298853 7.74939e-08
-2.51032e-08 7.74939e-08 0.0289892

0.0274133 -0.00280049 4.11023e-08
-0.00280049 0.0319824 -1.00361e-07
4.11023e-08 -1.00361e-07 0.028138

0.0265536 -0.00154067 2.30733e-08
-0.00154067 0.0335812 -2.74551e-08
2.30733e-08 -2.74551e-08 0.0287452

0.0309554 0.00371811 3.09624e-08
0.00371811 0.0295624 -8.84112e-08
3.09624e-08 -8.84112e-08 0.0289401

0.0267584 -0.00181606 -1.56075e-07
-0.00181606 0.0334727 6.84384e-08
-1.56075e-07 6.84384e-08 0.0289532

0.0191654 0.00355433 -4.73544e-07
0.00355433 0.027607 2.8848e-08
-4.73544e-07 2.8848e-08 0.0162916

0.0308725 -0.000535008 -1.45732e-08
-0.000535008 0.0388186 5.888e-08
-1.45732e-08 5.888e-08 0.0342933

0.0286553 0.00404764 -1.71813e-07
0.00404764 0.0295175 -6.56474e-08
-1.71813e-07 -6.56474e-08 0.0277135

0.0355791 0.00197489 -6.72223e-08
0.00197489 0.0295019 -9.13021e-08
-6.72223e-08 -9.13021e-08 0.0328415

0.0362583 -0.00211471 -7.83928e-08
-0.00211471 0.0297542 -8.82046e-08
-7.83928e-08 -8.82046e-08 0.0332168

0.0285093 -0.00309548 -2.17582e-07
-0.00309548 0.0185684 2.31424e-07
-2.17582e-07 2.31424e-07 0.0157293

0.0283525 -0.00279005 1.37798e-07
-0.00279005 0.0327738 -1.5932e-07
1.37798e-07 -1.5932e-07 0.0305705

0.0291899 0.00350052 1.47881e-07
0.00350052 0.0315988 -6.17221e-08
1.47881e-07 -6.17221e-08 0.0304863

0.0349584 -0.00290727 -1.15414e-07
-0.00290727 0.0376747 -2.55601e-07
-1.15414e-07 -2.55601e-07 0.0352351

0.0394596 0.00188529 -1.2305e-07
0.00188529 0.0446079 -2.12491e-07
-1.2305e-07 -2.12491e-07 0.0364319

0.0449431 0.00129037 -9.80263e-08
0.00129037 0.0391156 7.48336e-08
-9.80263e-08 7.48336e-08 0.0364139

0.0355591 0.00434538 -4.66776e-08
0.00434538 0.035134 4.1336e-08
-4.66776e-08 4.1336e-08 0.0350023

0.0265708 0.00338765 6.25755e-08
0.00338765 0.0310052 5.3648e-08
6.25755e-08 5.3648e-08 0.0272547

0.033038 0.00349703 1.18162e-07
0.00349703 0.028666 3.20824e-08
1.18162e-07 3.20824e-08 0.030049

0.0220589 0.00576403 3.07857e-07
0.00576403 0.0242367 -9.51472e-08
3.07857e-07 -9.51472e-08 0.0160717

0.0386175 -0.00151204 -8.15018e-08
-0.00151204 0.0444312 -4.34593e-08
-8.15018e-08 -4.34593e-08 0.0363611

0.046048 -0.000463458 4.09278e-07
-0.000463458 0.0454374 -4.2067e-07
4.09278e-07 -4.2067e-07 0.0366901

0.0451791 -3.19451e-05 -3.12362e-08
-3.19451e-05 0.046301 -3.64489e-07
-3.12362e-08 -3.64489e-07 0.036672

0.0176404 -0.00679461 -3.04595e-07
-0.00679461 0.0231075 4.77138e-09
-3.04595e-07 4.77138e-09 0.0107381

0.0392911 -0.00155615 -9.04407e-08
-0.00155615 0.0387137 -2.04691e-07
-9.04407e-08 -2.04691e-07 0.0358526

0.0383961 0.0011767 1.98723e-07
0.0011767 0.0415173 -7.49971e-08
1.98723e-07 -7.49971e-08 0.036124

0.0331742 -0.0034356 -6.12885e-08
-0.0034356 0.0282187 7.22092e-08
-6.12885e-08 7.22092e-08 0.0299024

0.0318436 0.000140642 1.123e-07
0.000140642 0.0386712 4.59943e-08
1.123e-07 4.59943e-08 0.0344493

0.0285756 -0.00266004 1.33548e-08
-0.00266004 0.0333794 4.47785e-09
1.33548e-08 4.47785e-09 0.0315881

0.0356609 0.00083155 1.83919e-07
0.00083155 0.0273765 -5.34913e-08
1.83919e-07 -5.34913e-08 0.032999

0.0288749 0.00204417 2.47432e-09
0.00204417 0.0368157 1.21846e-07
2.47432e-09 1.21846e-07 0.0336685

0.0298684 0.00094643 -3.28309e-08
0.00094643 0.0373867 1.01615e-07
-3.28309e-08 1.01615e-07 0.0333624

0.0344006 0.00268492 5.26473e-08
0.00268492 0.0288506 4.04708e-08
5.26473e-08 4.04708e-08 0.0312252

0.0132788 -0.000409363 9.34582e-09
-0.000409363 0.0281218 -3.10911e-07
9.34582e-09 -3.10911e-07 0.011201

0.0309634 -0.00362596 1.09764e-07
-0.00362596 0.030914 -6.19099e-09
1.09764e-07 -6.19099e-09 0.0306084

0.0329275 -0.00344332 -1.10208e-07
-0.00344332 0.0320197 1.31957e-08
-1.10208e-07 1.31957e-08 0.0325782

0.0335698 -0.00415904 1.38224e-08
-0.00415904 0.0325335 1.14522e-07
1.38224e-08 1.14522e-07 0.0337346

0.026561 0.00414847 3.61019e-08
0.00414847 0.017691 2.2429e-08
3.61019e-08 2.2429e-08 0.0126048

0.0388279 -0.00269617 5.54557e-09
-0.00269617 0.0395751 3.25581e-07
5.54557e-09 3.25581e-07 0.0359574

0.023082 0.00692052 1.41992e-07
0.00692052 0.0255012 -3.14888e-07
1.41992e-07 -3.14888e-07 0.0126091

0.0308737 -0.00281751 2.16744e-07
-0.00281751 0.0348067 -3.59247e-09
2.16744e-07 -3.59247e-09 0.0339552

0.0354103 0.0019366 1.18821e-07
0.0019366 0.0284647 7.81855e-08
1.18821e-07 7.81855e-08 0.0323435

0.03182 -0.00189318 3.4287e-08
-0.00189318 0.0249499 8.58469e-08
3.4287e-08 8.58469e-08 0.0253945

0.0292912 0.00315893 1.44721e-07
0.00315893 0.0327303 -5.21978e-08
1.44721e-07 -5.21978e-08 0.0312785

0.034436 0.00268861 -3.08439e-08
0.00268861 0.0286335 2.38639e-07
-3.08439e-08 2.38639e-07 0.0312198

0.0325178 0.00149887 2.81974e-07
0.00149887 0.0403731 1.55026e-07
2.81974e-07 1.55026e-07 0.0353355

0.0319396 -0.00415455 -3.47645e-08
-0.00415455 0.0312001 7.01058e-08
-3.47645e-08 7.01058e-08 0.0318095

0.0396756 0.00265549 1.58871e-08
0.00265549 0.0331973 8.99297e-08
1.58871e-08 8.99297e-08 0.035315

0.0279704 -0.00241838 1.16194e-08
-0.00241838 0.0335501 6.30404e-09
1.16194e-08 6.30404e-09 0.0304695

0.02935 0.000558545 -4.68089e-08
0.000558545 0.0373104 1.00124e-07
-4.68089e-08 1.00124e-07 0.0332516

0.0419426 0.00133754 -8.48474e-08
0.00133754 0.0370993 -8.9455e-08
-8.48474e-08 -8.9455e-08 0.0361153

0.0420973 -0.0011479 -1.83169e-08
-0.0011479 0.0373255 -1.97743e-08
-1.83169e-08 -1.97743e-08 0.0360972

0.0283821 0.00236892 1.97113e-07
0.00236892 0.0181811 -1.48423e-09
1.97113e-07 -1.48423e-09 0.0159493

0.0350246 0.00106136 1.09405e-07
0.00106136 0.0285651 7.87758e-08
1.09405e-07 7.87758e-08 0.033058

0.0128667 0.000923326 -4.89093e-08
0.000923326 0.0316257 1.32314e-07
-4.89093e-08 1.32314e-07 0.00612156

0.0131623 -0.0013881 1.44384e-07
-0.0013881 0.0321315 -1.79044e-07
1.44384e-07 -1.79044e-07 0.00611188

0.0152684 0.00715409 -4.70737e-08
0.00715409 0.0284524 1.31851e-07
-4.70737e-08 1.31851e-07 0.005984

0.034763 -0.00382116 7.09575e-08
-0.00382116 0.0312667 -1.59576e-07
7.09575e-08 -1.59576e-07 0.0329381

0.0155804 -0.00619417 6.65962e-08
-0.00619417 0.0261523 -2.98341e-07
6.65962e-08 -2.98341e-07 0.0104717

0.0155126 -0.00708666 -9.1319e-08
-0.00708666 0.0274229 -2.69249e-07
-9.1319e-08 -2.69249e-07 0.0059138

0.0284252 0.00342541 -2.47231e-08
0.00342541 0.0310055 5.33607e-08
-2.47231e-08 5.33607e-08 0.0281518

0.0251928 0.00932565 -1.95425e-07
0.00932565 0.0190204 2.66093e-08
-1.95425e-07 2.66093e-08 0.00593366

0.0365373 0.00173161 -2.05509e-07
0.00173161 0.0385509 -2.02638e-07
-2.05509e-07 -2.02638e-07 0.0354742

0.039534 2.52783e-05 1.42284e-07
2.52783e-05 0.0355388 3.43379e-08
1.42284e-07 3.43379e-08 0.0354549

0.0261066 -0.00924425 -1.27766e-07
-0.00924425 0.0188122 -9.45123e-09
-1.27766e-07 -9.45123e-09 0.00588783

0.0276889 -0.00306507 -4.04397e-09
-0.00306507 0.0320938 -2.46029e-08
-4.04397e-09 -2.46029e-08 0.0296219

0.0262543 0.0044179 -2.37608e-08
0.0044179 0.0201575 2.52821e-07
-2.37608e-08 2.52821e-07 0.0130443

0.0172789 0.00797292 8.76129e-08
0.00797292 0.0271484 -1.32359e-08
8.76129e-08 -1.32359e-08 0.00598767

0.0181958 0.00275501 -3.01132e-07
0.00275501 0.0275891 3.0848e-07
-3.01132e-07 3.0848e-07 0.0128497

0.0173038 -0.00827613 -1.58378e-07
-0.00827613 0.0271518 1.85127e-07
-1.58378e-07 1.85127e-07 0.00581363

0.0179325 -0.00157087 -2.70946e-07
-0.00157087 0.0280046 -1.58492e-07
-2.70946e-07 -1.58492e-07 0.0126902

0.0370496 0.000923366 -8.4934e-08
0.000923366 0.0412996 -3.58022e-08
-8.4934e-08 -3.58022e-08 0.0358091

0.0221305 -0.00585492 -7.12987e-08
-0.00585492 0.0236641 2.24909e-07
-7.12987e-08 2.24909e-07 0.0151584

0.0156997 0.00598598 -4.03134e-08
0.00598598 0.0259017 -2.89102e-07
-4.03134e-08 -2.89102e-07 0.0107499

0.0302079 0.00472997 -9.66804e-08
0.00472997 0.014349 -1.95368e-07
-9.66804e-08 -1.95368e-07 0.00611566

0.0329376 -0.00384936 -2.31802e-07
-0.00384936 0.0301232 1.21849e-08
-2.31802e-07 1.21849e-08 0.0310503

0.0308878 0.00169407 -3.28579e-08
0.00169407 0.0368422 1.23402e-07
-3.28579e-08 1.23402e-07 0.0339492

0.0260894 -0.00484371 -2.31073e-07
-0.00484371 0.0191967 -1.52188e-07
-2.31073e-07 -1.52188e-07 0.0126947

0.0329997 -0.00378593 -2.27555e-07
-0.00378593 0.0300744 2.22953e-08
-2.27555e-07 2.22953e-08 0.0311266

0.0300182 -0.00451976 -7.2175e-08
-0.00451976 0.0130533 1.52921e-07
-7.2175e-08 1.52921e-07 0.0060371

0.0324726 -0.00372748 -1.62836e-07
-0.00372748 0.0313062 -1.17745e-07
-1.62836e-07 -1.17745e-07 0.0319784

0.0280901 -0.00331113 1.87361e-07
-0.00331113 0.0320029 -1.06703e-08
1.87361e-07 -1.06703e-08 0.0296244

0.0234431 0.00874339 -1.22617e-07
0.00874339 0.0204824 1.80682e-07
-1.22617e-07 1.80682e-07 0.006026

0.0181993 -0.00292071 2.06796e-07
-0.00292071 0.0268655 3.53324e-08
2.06796e-07 3.53324e-08 0.0122696

0.0233141 -0.00901906 3.57283e-08
-0.00901906 0.0201516 3.72009e-07
3.57283e-08 3.72009e-07 0.00588383

0.017082 0.00640802 -2.44015e-07
0.00640802 0.0235654 -1.19499e-07
-2.44015e-07 -1.19499e-07 0.0108307

0.030825 -0.00396002 1.05897e-07
-0.00396002 0.0301594 -1.77269e-08
1.05897e-07 -1.77269e-08 0.0300845

0.0389176 -0.00195865 1.2512e-07
-0.00195865 0.0369404 -1.97256e-07
1.2512e-07 -1.97256e-07 0.0354986

0.045541 0.00150738 2.63906e-07
0.00150738 0.0449528 1.63659e-07
2.63906e-07 1.63659e-07 0.0366183

0.0435642 -0.000712024 3.29041e-07
-0.000712024 0.0462302 -4.43345e-08
3.29041e-07 -4.43345e-08 0.0365839

0.0286147 0.00171582 1.20744e-07
0.00171582 0.0355646 -2.17318e-07
1.20744e-07 -2.17318e-07 0.0323886

0.0453362 -0.00144755 -4.84095e-07
-0.00144755 0.0449781 3.8089e-07
-4.84095e-07 3.8089e-07 0.036636

0.0438067 0.000567664 1.17983e-07
0.000567664 0.0465063 1.99524e-07
1.17983e-07 1.99524e-07 0.0366171

0.0466785 0.000991967 -4.76802e-08
0.000991967 0.0433775 -7.25981e-08
-4.76802e-08 -7.25981e-08 0.0365921

0.03975 -0.00163913 1.6211e-07
-0.00163913 0.0460735 3.72048e-08
1.6211e-07 3.72048e-08 0.0364819

0.0190534 -0.00388718 2.19032e-07
-0.00388718 0.0272296 1.16158e-08
2.19032e-07 1.16158e-08 0.0154706

0.0421403 -0.00175011 -3.81087e-08
-0.00175011 0.0367251 -1.64407e-07
-3.81087e-08 -1.64407e-07 0.0360038

0.0359631 -0.00457326 -1.97292e-07
-0.00457326 0.0351495 6.81742e-08
-1.97292e-07 6.81742e-08 0.0349672

0.0397526 -0.00242157 1.80517e-07
-0.00242157 0.0360628 1.74988e-07
1.80517e-07 1.74988e-07 0.0355663

0.0351837 0.00204319 -1.19706e-08
0.00204319 0.0285481 2.40072e-07
-1.19706e-08 2.40072e-07 0.0322309

0.039692 0.00133783 1.89135e-07
0.00133783 0.0472248 -4.90576e-07
1.89135e-07 -4.90576e-07 0.0365478

0.0464955 0.00259352 -9.10893e-08
0.00259352 0.0404174 -3.09852e-07
-9.10893e-08 -3.09852e-07 0.036529

0.0400867 0.00150528 -5.53116e-08
0.00150528 0.036673 4.47664e-08
-5.53116e-08 4.47664e-08 0.0356143

0.027914 -0.00191983 2.19867e-07
-0.00191983 0.0125243 1.22537e-07
2.19867e-07 1.22537e-07 0.0106242

0.0283181 0.00326753 -7.28752e-08
0.00326753 0.0315491 -1.47132e-07
-7.28752e-08 -1.47132e-07 0.0294097

0.0231874 -0.00773568 5.11802e-07
-0.00773568 0.0181794 -7.09848e-09
5.11802e-07 -7.09848e-09 0.0102891

0.02283 -0.00731547 4.441e-07
-0.00731547 0.025768 -2.52462e-07
4.441e-07 -2.52462e-07 0.0119541

0.0290218 -0.00464674 2.10012e-07
-0.00464674 0.0191278 1.51305e-07
2.10012e-07 1.51305e-07 0.0126147

0.0375737 -0.000660661 -1.01329e-07
-0.000660661 0.0449105 3.26828e-07
-1.01329e-07 3.26828e-07 0.0362929

0.0375714 0.000358203 -1.38921e-07
0.000358203 0.0447899 9.80649e-08
-1.38921e-07 9.80649e-08 0.0362732

0.0426052 -0.00327475 2.79705e-07
-0.00327475 0.03945 -1.89021e-07
2.79705e-07 -1.89021e-07 0.036227

0.0429973 -0.00294479 -1.46023e-07
-0.00294479 0.039168 -1.76537e-07
-1.46023e-07 -1.76537e-07 0.036234

0.0425008 0.00350414 9.11276e-08
0.00350414 0.0399723 2.65921e-07
9.11276e-08 2.65921e-07 0.0362718

0.0443965 0.00041593 -7.07943e-07
0.00041593 0.0450803 -1.2095e-06
-7.07943e-07 -1.2095e-06 0.0366352

0.0426089 -0.00274478 1.50317e-08
-0.00274478 0.0395067 2.78892e-09
1.50317e-08 2.78892e-09 0.0362886

0.0426027 -0.00251107 -1.04073e-07
-0.00251107 0.0442679 6.73466e-07
-1.04073e-07 6.73466e-07 0.0365627

0.0451167 0.000331137 4.97877e-08
0.000331137 0.0454673 4.09663e-07
4.97877e-08 4.09663e-07 0.0366534

0.0436363 -0.00278323 -8.44005e-08
-0.00278323 0.038916 1.29712e-07
-8.44005e-08 1.29712e-07 0.0363292

0.0435119 0.00283902 2.71252e-07
0.00283902 0.039069 1.72956e-07
2.71252e-07 1.72956e-07 0.0363672

0.0451927 -0.000470172 5.87312e-07
-0.000470172 0.0455815 -4.36701e-07
5.87312e-07 -4.36701e-07 0.0367021

0.0452238 -0.000422932 -2.53e-07
-0.000422932 0.0443589 5.11219e-07
-2.53e-07 5.11219e-07 0.0367204

0.0427981 0.00163877 1.62299e-07
0.00163877 0.044249 -1.83506e-07
1.62299e-07 -1.83506e-07 0.0366065

0.0411164 0.00361853 3.82147e-08
0.00361853 0.0405161 1.72025e-07
3.82147e-08 1.72025e-07 0.0363211

SCALARS pressure float
LOOKUP_TABLE default
-60.0499
19.308
5.80306
21.29
15.8788
5.88701
-58.6731
7.78284
-3.80515
15.1244
-24.4313
7.617
5.59182
12.279
23.3378
5.53869
18.5207
13.2069
-0.693215
6.75618
-0.905133
33.1355
5.8004
5.79649
6.60147
14.9025
-38.3845
6.67133
-15.2424
30.6268
5.17604
-15.6572
-42.0554
27.3264
20.7794
27.3593
31.8851
19.8093
4.85933
-42.5987
-17.4073
31.9059
31.994
5.99329
-21.8047
-15.9758
-1.05279
-3.40576
6.54444
-16.2177
-18.9187
-15.3459
20.7557
-15.3731
20.3088
-33.1482
21.1298
-15.4603
21.1397
7.04453
21.7646
16.1187
-45.5613
12.7897
16.362
10.9049
21.5738
13.8278
5.77311
21.8168
20.8117
20.7824
-17.6909
11.6004
3.97366
-31.609
14.3566
10.996
14.1458
-8.72024
-28.9444
14.9777
20.163
-22.0377
-23.4293
-28.0915
7.0974
9.63217
-22.2154
37.7423
-15.509
38.4449
18.3045
10.7612
-15.1666
-15.8727
-30.221
14.7532
14.3656
4.59842
-10.7664
-21.9394
-25.1012
16.2126
14.0999
14.9614
18.6974
3.77443
-24.5581
26.5131
7.21716
-21.4087
-24.6117
14.8376
15.0778
-16.1457
20.1652
-29.1129
20.6288
-16.7293
-2.90507
23.834
21.7269
16.0328
26.6798
22.6316
21.7858
15.7083
-29.7806
-16.099
24.0918
21.6171
20.9892
22.0655
-22.0138
23.5875
-33.8369
5.46309
21.7543
23.6309
-21.9367
6.67618
-5.96702
15.0832
-30.4071
15.6237
7.83287
2.40724
5.17744
-9.39472
-0.458363
22.6414
-15.4546
5.29072
15.2039
21.5603
11.5079
-21.1132
-21.2637
10.7901
-2.84307
-15.1976
-21.2202
-15.1653
-20.9864
15.2795
-20.6358
-21.2015
-15.2079
-21.0637
19.0044
-15.941
-14.8245
12.0642
-14.4848
18.8027
19.0534
7.47239
18.048
11.7727
-16.249
15.288
14.9607
-21.5284
10.4263
-14.2213
16.0485
14.5953
17.0818
14.8349
10.3436
-26.976
-16.0823
-15.9581
21.9068
14.5254
14.6243
20.9225
22.4868
9.50241
21.7335
-0.385119
-8.17113
20.7787
-17.8387
19.9455
10.3639
-21.5174
15.721
22.526
14.7311
9.39316
14.1895
21.0556
-7.83319
8.82728
-7.90899
14.6481
26.9277
26.5814
27.9606
26.3886
26.7244
26.291
13.8256
23.4304
24.0296
23.9738
23.4001
21.1928
21.8574
-8.26324
15.9333
28.1911
-3.18913
23.5762
23.2055
27.8344
-8.49394
28.0965
15.3444
-7.58202
17.492
-8.25821
20.2271
29.6128
-7.48641
-8.10116
-29.5916
-18.189
19.5272
-31.985
5.73389
-7.79436
-1.19004
28.2492
26.6403
30.4272
26.761
-34.8005
-8.18006
28.3374
8.0724
-8.29556
26.446
-6.29574
30.4721
-7.95449
27.0472
14.5658
14.7868
23.8453
10.0472
18.0211
8.1166
-29.8595
-24.5528
16.8068
1.75911
8.17905
-13.609
17.4357
11.6995
-8.10192
9.45179
-10.8237
7.51646
-10.755
-8.48513
33.2653
19.1517
25.0885
25.3127
13.8288
-10.4048
26.4302
14.6848
-1.65958
-10.2742
-12.5645
17.5066
-7.48566
17.5745
-12.0415
-21.3502
-10.6085
-34.6808
15.5622
-7.76339
34.4433
-11.5782
16.8712
-8.40917
15.9726
-12.7585
4.28859
-51.1174
8.52108
-7.74706
21.3339
-8.15257
-0.123505
10.7151
21.124
-12.0609
-10.2011
-6.06881
14.3177
-10.1804
6.88741
6.38505
16.3054
-10.4199
-6.33091
-1.70294
-5.66101
-11.0788
-5.84523
15.3053
7.80743
-5.55661
-8.96086
7.80487
7.69373
-10.6749
16.3093
-27.2128
2.29238
-28.4809
-0.958198
-8.87745
-8.09574
-11.7783
-10.942
-9.88032
-7.77534
-7.8987
16.6376
24.7782
12.1155
-0.292353
-0.825916
-5.67518
7.30459
-6.32127
-6.31856
24.924
-5.73061
14.1178
-15.9085
24.3254
5.96741
-0.391907
-5.64446
16.2749
2.47638
0.198306
2.44736
0.455172
-0.74161
-9.93067
-0.0963523
2.11254
15.0688
-1.28903
-1.40792
-0.999576
-0.389326
1.96457
8.05005
-1.19431
8.0775
5.58247
-0.436389
7.0346
5.48951
-3.87715
16.4764
-1.9041
23.0623
-21.9731
15.0439
15.6821
2.03892
-1.99817
12.5424
-26.5055
5.7915
-1.65863
-50.4818
30.4992
30.6358
5.82413
-1.14512
-1.04751
-0.850454
33.4201
33.2948
13.0943
6.08126
6.66171
-28.9615
-1.28019
16.5333
-3.18338
-4.34877
-0.0176996
-25.2701
14.3028
-1.28096
2.86106
2.69246
-2.72396
-0.0500743
-3.21018
-4.03422
-37.9814
-33.6828
-0.12878
1.87376
-0.534815
-3.74486
-1.93729
-1.87841
-0.925038
-21.907
17.2495
-0.770095
12.5647
14.1833
-26.7635
6.28557
7.1361
18.4778
36.4291
36.4616
22.6388
-1.75656
2.5989
-20.9292
36.1277
32.7614
32.8284
-24.8075
21.776
30.5243
2.59838
15.7239
10.3706
17.164
17.7259
12.5052
5.68069
-25.397
4.25937
10.4088
16.2438
-31.7088
28.3105
-52.7087
18.6847
10.2984
-10.6278
7.4167
5.4564
24.4747
9.41043
24.4077
4.10446
12.3995
30.6415
29.4672
-22.9896
17.4351
-70.2274
-74.3738
-67.1714
11.6479
-31.2586
-63.6048
-3.80417
-69.9328
16.4633
16.407
-73.7489
5.21133
-39.7284
-70.7333
-37.7544
-71.8697
-39.4498
21.1373
-23.9594
-29.0426
-70.6172
4.83073
15.7573
-36.1883
6.05279
-63.6126
9.83532
3.88087
-67.8959
-37.6219
-66.4054
-23.7542
5.02829
20.5266
35.3734
36.7292
11.8114
36.8531
36.9064
36.4947
36.4066
-24.4781
28.2491
20.6691
21.9811
11.5339
36.0625
36.0939
18.1204
-23.939
3.24577
-30.5248
-56.5947
-50.472
36.1455
35.8262
35.3828
35.4531
36.1615
35.6014
33.1118
37.3733
35.4028
36.0083
35.6405
34.1991
34.3357
35.8588
35.3115
