# vtk DataFile Version 3.0
vtk output at time 20
ASCII
DATASET UNSTRUCTURED_GRID
POINTS 626 float
-3.68058e-05 0.000978749 0 3.68058e-05 0.000978749 0 -0.000829194 0.00052125 0 
-0.0008235 0.0005 0 -0.000866 0.0004575 0 -0.000866 -0.0004575 0 
-0.0008235 -0.0005 0 -0.000829194 -0.00052125 0 -3.68058e-05 -0.000978749 0 
3.68058e-05 -0.000978749 0 0.000829194 -0.00052125 0 0.000866 -0.0004575 0 
0.000866 0.0004575 0 0.000829194 0.00052125 0 8.5e-05 0 0 
-3.68058e-05 0.000978749 -0.001 3.68058e-05 0.000978749 -0.001 -0.000829194 0.00052125 -0.001 
-0.0008235 0.0005 -0.001 -0.000866 0.0004575 -0.001 -0.000866 -0.0004575 -0.001 
-0.0008235 -0.0005 -0.001 -0.000829194 -0.00052125 -0.001 -3.68058e-05 -0.000978749 -0.001 
3.68058e-05 -0.000978749 -0.001 0.000829194 -0.00052125 -0.001 0.000866 -0.0004575 -0.001 
0.000866 0.0004575 -0.001 0.000829194 0.00052125 -0.001 8.5e-05 0 -0.001 
8.46223e-17 0.0009575 0 -0.000715996 0.000586607 0 -0.000602797 0.000651965 0 
-0.000489599 0.000717321 0 -0.000376401 0.000782678 0 -0.000263202 0.000848036 0 
-0.000150004 0.000913393 0 -0.000835948 0.000469948 0 -0.000866 -0.000326786 0 
-0.000866 -0.000196071 0 -0.000866 -6.53571e-05 0 -0.000866 6.53571e-05 0 
-0.000866 0.000196071 0 -0.000866 0.000326786 0 -0.000835948 -0.000469948 0 
-0.000150004 -0.000913393 0 -0.000263202 -0.000848036 0 -0.000376401 -0.000782678 0 
-0.000489599 -0.000717321 0 -0.000602797 -0.000651965 0 -0.000715996 -0.000586607 0 
8.47648e-17 -0.0009575 0 0.000715996 -0.000586607 0 0.000602797 -0.000651965 0 
0.000489599 -0.000717321 0 0.000376401 -0.000782678 0 0.000263202 -0.000848036 0 
0.000150004 -0.000913393 0 0.000829194 -0.00047875 0 0.000866 0.000326786 0 
0.000866 0.000196071 0 0.000866 6.53571e-05 0 0.000866 -6.53571e-05 0 
0.000866 -0.000196071 0 0.000866 -0.000326786 0 0.000829194 0.00047875 0 
0.000150004 0.000913393 0 0.000263202 0.000848036 0 0.000376401 0.000782678 0 
0.000489599 0.000717321 0 0.000602797 0.000651965 0 0.000715996 0.000586607 0 
5.29966e-05 6.64557e-05 0 -1.89143e-05 8.28689e-05 0 -7.65824e-05 3.68801e-05 0 
-7.65824e-05 -3.68801e-05 0 -1.89143e-05 -8.28689e-05 0 5.29966e-05 -6.64557e-05 0 
8.46223e-17 0.0009575 -0.001 -0.000715996 0.000586607 -0.001 -0.000602797 0.000651965 -0.001 
-0.000489599 0.000717321 -0.001 -0.000376401 0.000782678 -0.001 -0.000263202 0.000848036 -0.001 
-0.000150004 0.000913393 -0.001 -0.000835948 0.000469948 -0.001 -0.000866 -0.000326786 -0.001 
-0.000866 -0.000196071 -0.001 -0.000866 -6.53571e-05 -0.001 -0.000866 6.53571e-05 -0.001 
-0.000866 0.000196071 -0.001 -0.000866 0.000326786 -0.001 -0.000835948 -0.000469948 -0.001 
-0.000150004 -0.000913393 -0.001 -0.000263202 -0.000848036 -0.001 -0.000376401 -0.000782678 -0.001 
-0.000489599 -0.000717321 -0.001 -0.000602797 -0.000651965 -0.001 -0.000715996 -0.000586607 -0.001 
8.47648e-17 -0.0009575 -0.001 0.000715996 -0.000586607 -0.001 0.000602797 -0.000651965 -0.001 
0.000489599 -0.000717321 -0.001 0.000376401 -0.000782678 -0.001 0.000263202 -0.000848036 -0.001 
0.000150004 -0.000913393 -0.001 0.000829194 -0.00047875 -0.001 0.000866 0.000326786 -0.001 
0.000866 0.000196071 -0.001 0.000866 6.53571e-05 -0.001 0.000866 -6.53571e-05 -0.001 
0.000866 -0.000196071 -0.001 0.000866 -0.000326786 -0.001 0.000829194 0.00047875 -0.001 
0.000150004 0.000913393 -0.001 0.000263202 0.000848036 -0.001 0.000376401 0.000782678 -0.001 
0.000489599 0.000717321 -0.001 0.000602797 0.000651965 -0.001 0.000715996 0.000586607 -0.001 
5.29966e-05 6.64557e-05 -0.001 -1.89143e-05 8.28689e-05 -0.001 -7.65824e-05 3.68801e-05 -0.001 
-7.65824e-05 -3.68801e-05 -0.001 -1.89143e-05 -8.28689e-05 -0.001 5.29966e-05 -6.64557e-05 -0.001 
0.000131234 6.38474e-05 0 0.00012964 -6.2443e-05 0 3.13827e-05 0.0001394 0 
3.12554e-05 -0.000136939 0 -0.000140461 8.25467e-19 0 -8.90565e-05 -0.000102707 0 
-9.04142e-05 0.000102872 0 -0.000765769 -0.00025965 0 -0.000756873 0.000262774 0 
-0.00015609 0.000787505 0 -0.000155807 -0.00079355 0 0.000605069 0.000528035 0 
0.000608694 -0.00052497 0 0.000744069 0.000116929 0 -0.000494418 0.000596218 0 
-0.000483866 -0.000584648 0 0.000269496 0.000702219 0 0.000263201 -0.000717324 0 
0.000754429 -0.000127825 0 -0.000748858 5.84659e-07 0 -0.000747838 0.000373886 0 
-0.0006542 0.000324842 0 -0.000645137 0.000210123 0 -0.000550884 0.000274171 0 
-0.000538857 0.000163195 0 -0.00045062 0.000224461 0 -0.000438393 0.000123907 0 
-0.000354088 0.000181668 0 -0.000363908 0.000282171 0 -0.000270361 0.000239477 0 
-0.000279138 0.000337653 0 -0.000188888 0.000294791 0 -0.000196448 0.000393271 0 
-0.000104767 0.000348259 0 -0.000113332 0.000449012 0 -2.01066e-05 0.000403223 0 
-2.89189e-05 0.000507105 0 6.9524e-05 0.000461596 0 -0.000213644 0.000490203 0 
7.33757e-05 0.000357726 0 0.000163331 0.00041299 0 0.000163359 0.000313022 0 
0.000248077 0.000366368 0 0.000250914 0.000265758 0 0.000335709 0.000322266 0 
0.000340555 0.000218148 0 0.000427299 0.000276717 0 0.000431508 0.000173093 0 
0.000328731 0.000425633 0 0.00034586 0.000114823 0 0.000435362 7.05241e-05 0 
0.000350892 1.5455e-05 0 0.000441547 -3.11896e-05 0 0.000353547 -8.47783e-05 0 
0.000445767 -0.000132964 0 0.000356135 -0.000186358 0 0.000449094 -0.000234674 0 
0.000359978 -0.000287876 0 0.00026856 -0.000240545 0 0.000271895 -0.000341045 0 
0.000181792 -0.00029305 0 0.00018533 -0.000392851 0 9.75701e-05 -0.00034483 0 
9.98764e-05 -0.000444884 0 8.75116e-06 -0.000396343 0 1.20916e-05 -0.000500496 0 
-7.83929e-05 -0.000449843 0 -8.1471e-05 -0.000347249 0 -0.000171566 -0.000403733 0 
-0.000169889 -0.000298891 0 -0.000259867 -0.000354132 0 -0.000257696 -0.000249137 0 
-0.00034313 -0.000299896 0 -0.000344514 -0.000199127 0 -0.000434309 -0.000250039 0 
-0.000169832 -0.000505815 0 -0.000435227 -0.000146227 0 0.000280331 -0.000442424 0 
-0.000340889 8.76793e-05 0 -0.000515252 4.06198e-05 0 6.50491e-05 0.000568253 0 
0.00053278 1.74743e-05 0 0.000522071 0.000229831 0 -0.00037162 0.000391659 0 
-0.000255272 -0.000150439 0 -0.000442893 -0.000350705 0 0.000450067 -0.000332559 0 
0.000545175 -0.000276306 0 -0.000527797 -0.000197598 0 0.000105306 -0.000551033 0 
1.45836e-05 -0.000609147 0 0.00017145 0.000214453 0 0.000515525 0.000341711 0 
0.000636086 0.000290368 0 -0.000558657 0.000404468 0 -4.01232e-05 0.000616718 0 
6.60192e-05 0.000696422 0 -0.000101806 0.0002546 0 0.000271142 -3.88908e-05 0 
0.000179455 -0.00018534 0 -8.79553e-05 -0.000254307 0 -0.000749267 -0.000373451 0 
-0.000655941 -0.000323397 0 0.000709746 0.000466718 0 0.000698426 -0.000473086 0 
-5.25801e-05 -0.00084886 0 -4.93005e-05 0.000848038 0 0.000617396 -0.000413362 0 
0.000702056 -0.000369817 0 0.000131459 -0.000679171 0 2.48171e-05 -0.000715924 0 
-0.000664217 -0.00042729 0 -0.000528828 -8.80444e-05 0 -0.000611101 -0.000136672 0 
-0.000426972 -4.45841e-05 0 0.000800669 0.000378216 0 0.000821144 -0.000415062 0 
7.2799e-05 0.00088254 0 6.81831e-05 -0.00087503 0 0.000104963 -0.000788946 0 
-7.40696e-05 -0.000660054 0 0.000126061 0.000809943 0 0.000764361 0.000295682 0 
0.000166862 0.000630623 0 0.000516462 -0.00046707 0 -0.000563585 -0.000389606 0 
-0.000622598 -1.40238e-05 0 0.000629891 0.000171529 0 2.5614e-06 -0.000299794 0 
8.6901e-05 -0.00024329 0 0.000272045 -0.000136982 0 -0.00075148 0.000138321 0 
0.000209366 -0.000599589 0 0.000324913 -0.000630055 0 0.000614044 0.00041245 0 
0.00049651 -0.000573327 0 0.000394822 -0.000507321 0 -0.000173714 -0.000206698 0 
0.000264897 5.63722e-05 0 0.000247997 0.000152811 0 -4.63327e-05 -0.000920208 0 
9.18688e-05 0.000258626 0 -5.54111e-06 0.000290558 0 -0.000184219 0.000201484 0 
-0.000263559 0.000142267 0 -0.000256427 5.13624e-05 0 -0.000336894 -2.06179e-06 0 
-0.000228499 -4.2388e-05 0 -0.00017589 0.000106626 0 -0.000769947 -0.000133367 0 
0.000767591 -0.000500293 0 -5.05874e-05 0.000737978 0 0.000754456 -3.51771e-06 0 
0.00064691 -6.15298e-05 0 0.000630483 -0.00018134 0 0.000749187 -0.000265543 0 
-0.000760805 -0.000462521 0 0.000638155 6.09315e-05 0 -4.46661e-05 0.000922995 0 
-2.37945e-05 0.000207237 0 0.000776979 0.000500181 0 -0.000605691 0.000527596 0 
-0.000377914 -0.000653727 0 -0.000372325 -0.000526022 0 -0.000275829 -0.000589621 0 
-0.000254285 -0.000710579 0 -0.000379307 0.000656222 0 -0.000379818 0.00052718 0 
-0.000266817 0.000721555 0 -0.000150544 0.000668174 0 0.000381963 0.00065079 0 
0.000493113 0.000590432 0 0.000505439 0.000463708 0 -0.000269094 0.000596608 0 
0.000385815 0.000532045 0 0.000283599 0.0005899 0 -0.000176405 -0.000108505 0 
-0.000278769 -0.000475415 0 0.000185395 2.33014e-06 0 0.000186773 0.000517571 0 
0.000540032 -8.68444e-05 0 -0.000600694 -0.000514877 0 -0.00063703 8.98033e-05 0 
-0.000459677 0.000335729 0 -0.000338836 -0.000100751 0 -0.000457327 0.000432721 0 
-8.72007e-06 -0.000210238 0 0.000156073 0.000129496 0 -7.70692e-05 -0.000555049 0 
0.00036091 -0.000389728 0 0.000531628 0.000120564 0 -0.000285451 0.000435562 0 
0.000192719 -0.000494604 0 0.00041642 0.00039368 0 -0.000135943 0.000554637 0 
-0.000170665 -0.000610079 0 -0.000666304 0.000434981 0 -0.000758736 0.000479231 0 
-0.000470189 -0.000458901 0 0.000203433 -8.59809e-05 0 0.000101846 0.000170114 0 
-0.00035513 -0.00040726 0 0.000100184 -0.000165831 0 2.96286e-05 0.00081537 0 
0.000720946 0.000381836 0 -0.000539809 -0.000292001 0 0.00052211 -0.000182426 0 
-6.41339e-05 -0.000753908 0 0.000638039 -0.000299861 0 -0.000605136 -0.000230182 0 
-3.41638e-05 -0.000145561 0 -0.000104037 0.000172396 0 -0.000808575 -0.00042774 0 
-0.000807207 -0.000465052 0 -0.00080817 0.000429771 0 -0.000806589 0.000469738 0 
-9.50634e-05 -0.000178909 0 0.000247777 0.000445058 0 1.48293e-05 -0.000814201 0 
-4.11555e-05 0.000140955 0 0.000276104 -0.000536845 0 0.000765969 -0.000436638 0 
0.000780871 -0.000362769 0 0.000424176 -0.000642018 0 0.00053413 -0.000368009 0 
-0.000416333 4.17911e-05 0 -0.000133891 -6.23822e-05 0 4.2574e-05 0.000206312 0 
0.000141163 -0.000121542 0 0.000707423 0.000212137 0 0.000172327 0.000723882 0 
7.72652e-06 -0.00090254 0 -0.000134435 5.66935e-05 0 -0.000188826 3.70894e-05 0 
0.000197119 8.09714e-05 0 1.27801e-05 0.000917296 0 0.000800767 0.00044758 0 
-0.000686682 0.000507104 0 9.35831e-05 0.000110457 0 -0.000696793 -0.000509595 0 
-0.00068446 -8.52012e-05 0 -0.000691033 -0.000201242 0 5.24052e-05 -0.000189075 0 
-0.000151818 -0.000701092 0 -0.000296988 0.000518087 0 9.31023e-05 -0.000108117 0 
0.00044261 -0.000416726 0 0.000197044 -0.000784423 0 -0.000516861 0.000504567 0 
0.000298997 0.000502377 0 0.000131234 6.38474e-05 -0.001 0.00012964 -6.2443e-05 -0.001 
3.13827e-05 0.0001394 -0.001 3.12554e-05 -0.000136939 -0.001 -0.000140461 8.25467e-19 -0.001 
-8.90565e-05 -0.000102707 -0.001 -9.04142e-05 0.000102872 -0.001 -0.000765769 -0.00025965 -0.001 
-0.000756873 0.000262774 -0.001 -0.00015609 0.000787505 -0.001 -0.000155807 -0.00079355 -0.001 
0.000605069 0.000528035 -0.001 0.000608694 -0.00052497 -0.001 0.000744069 0.000116929 -0.001 
-0.000494418 0.000596218 -0.001 -0.000483866 -0.000584648 -0.001 0.000269496 0.000702219 -0.001 
0.000263201 -0.000717324 -0.001 0.000754429 -0.000127825 -0.001 -0.000748858 5.84659e-07 -0.001 
-0.000747838 0.000373886 -0.001 -0.0006542 0.000324842 -0.001 -0.000645137 0.000210123 -0.001 
-0.000550884 0.000274171 -0.001 -0.000538857 0.000163195 -0.001 -0.00045062 0.000224461 -0.001 
-0.000438393 0.000123907 -0.001 -0.000354088 0.000181668 -0.001 -0.000363908 0.000282171 -0.001 
-0.000270361 0.000239477 -0.001 -0.000279138 0.000337653 -0.001 -0.000188888 0.000294791 -0.001 
-0.000196448 0.000393271 -0.001 -0.000104767 0.000348259 -0.001 -0.000113332 0.000449012 -0.001 
-2.01066e-05 0.000403223 -0.001 -2.89189e-05 0.000507105 -0.001 6.9524e-05 0.000461596 -0.001 
-0.000213644 0.000490203 -0.001 7.33757e-05 0.000357726 -0.001 0.000163331 0.00041299 -0.001 
0.000163359 0.000313022 -0.001 0.000248077 0.000366368 -0.001 0.000250914 0.000265758 -0.001 
0.000335709 0.000322266 -0.001 0.000340555 0.000218148 -0.001 0.000427299 0.000276717 -0.001 
0.000431508 0.000173093 -0.001 0.000328731 0.000425633 -0.001 0.00034586 0.000114823 -0.001 
0.000435362 7.05241e-05 -0.001 0.000350892 1.5455e-05 -0.001 0.000441547 -3.11896e-05 -0.001 
0.000353547 -8.47783e-05 -0.001 0.000445767 -0.000132964 -0.001 0.000356135 -0.000186358 -0.001 
0.000449094 -0.000234674 -0.001 0.000359978 -0.000287876 -0.001 0.00026856 -0.000240545 -0.001 
0.000271895 -0.000341045 -0.001 0.000181792 -0.00029305 -0.001 0.00018533 -0.000392851 -0.001 
9.75701e-05 -0.00034483 -0.001 9.98764e-05 -0.000444884 -0.001 8.75116e-06 -0.000396343 -0.001 
1.20916e-05 -0.000500496 -0.001 -7.83929e-05 -0.000449843 -0.001 -8.1471e-05 -0.000347249 -0.001 
-0.000171566 -0.000403733 -0.001 -0.000169889 -0.000298891 -0.001 -0.000259867 -0.000354132 -0.001 
-0.000257696 -0.000249137 -0.001 -0.00034313 -0.000299896 -0.001 -0.000344514 -0.000199127 -0.001 
-0.000434309 -0.000250039 -0.001 -0.000169832 -0.000505815 -0.001 -0.000435227 -0.000146227 -0.001 
0.000280331 -0.000442424 -0.001 -0.000340889 8.76793e-05 -0.001 -0.000515252 4.06198e-05 -0.001 
6.50491e-05 0.000568253 -0.001 0.00053278 1.74743e-05 -0.001 0.000522071 0.000229831 -0.001 
-0.00037162 0.000391659 -0.001 -0.000255272 -0.000150439 -0.001 -0.000442893 -0.000350705 -0.001 
0.000450067 -0.000332559 -0.001 0.000545175 -0.000276306 -0.001 -0.000527797 -0.000197598 -0.001 
0.000105306 -0.000551033 -0.001 1.45836e-05 -0.000609147 -0.001 0.00017145 0.000214453 -0.001 
0.000515525 0.000341711 -0.001 0.000636086 0.000290368 -0.001 -0.000558657 0.000404468 -0.001 
-4.01232e-05 0.000616718 -0.001 6.60192e-05 0.000696422 -0.001 -0.000101806 0.0002546 -0.001 
0.000271142 -3.88908e-05 -0.001 0.000179455 -0.00018534 -0.001 -8.79553e-05 -0.000254307 -0.001 
-0.000749267 -0.000373451 -0.001 -0.000655941 -0.000323397 -0.001 0.000709746 0.000466718 -0.001 
0.000698426 -0.000473086 -0.001 -5.25801e-05 -0.00084886 -0.001 -4.93005e-05 0.000848038 -0.001 
0.000617396 -0.000413362 -0.001 0.000702056 -0.000369817 -0.001 0.000131459 -0.000679171 -0.001 
2.48171e-05 -0.000715924 -0.001 -0.000664217 -0.00042729 -0.001 -0.000528828 -8.80444e-05 -0.001 
-0.000611101 -0.000136672 -0.001 -0.000426972 -4.45841e-05 -0.001 0.000800669 0.000378216 -0.001 
0.000821144 -0.000415062 -0.001 7.2799e-05 0.00088254 -0.001 6.81831e-05 -0.00087503 -0.001 
0.000104963 -0.000788946 -0.001 -7.40696e-05 -0.000660054 -0.001 0.000126061 0.000809943 -0.001 
0.000764361 0.000295682 -0.001 0.000166862 0.000630623 -0.001 0.000516462 -0.00046707 -0.001 
-0.000563585 -0.000389606 -0.001 -0.000622598 -1.40238e-05 -0.001 0.000629891 0.000171529 -0.001 
2.5614e-06 -0.000299794 -0.001 8.6901e-05 -0.00024329 -0.001 0.000272045 -0.000136982 -0.001 
-0.00075148 0.000138321 -0.001 0.000209366 -0.000599589 -0.001 0.000324913 -0.000630055 -0.001 
0.000614044 0.00041245 -0.001 0.00049651 -0.000573327 -0.001 0.000394822 -0.000507321 -0.001 
-0.000173714 -0.000206698 -0.001 0.000264897 5.63722e-05 -0.001 0.000247997 0.000152811 -0.001 
-4.63327e-05 -0.000920208 -0.001 9.18688e-05 0.000258626 -0.001 -5.54111e-06 0.000290558 -0.001 
-0.000184219 0.000201484 -0.001 -0.000263559 0.000142267 -0.001 -0.000256427 5.13624e-05 -0.001 
-0.000336894 -2.06179e-06 -0.001 -0.000228499 -4.2388e-05 -0.001 -0.00017589 0.000106626 -0.001 
-0.000769947 -0.000133367 -0.001 0.000767591 -0.000500293 -0.001 -5.05874e-05 0.000737978 -0.001 
0.000754456 -3.51771e-06 -0.001 0.00064691 -6.15298e-05 -0.001 0.000630483 -0.00018134 -0.001 
0.000749187 -0.000265543 -0.001 -0.000760805 -0.000462521 -0.001 0.000638155 6.09315e-05 -0.001 
-4.46661e-05 0.000922995 -0.001 -2.37945e-05 0.000207237 -0.001 0.000776979 0.000500181 -0.001 
-0.000605691 0.000527596 -0.001 -0.000377914 -0.000653727 -0.001 -0.000372325 -0.000526022 -0.001 
-0.000275829 -0.000589621 -0.001 -0.000254285 -0.000710579 -0.001 -0.000379307 0.000656222 -0.001 
-0.000379818 0.00052718 -0.001 -0.000266817 0.000721555 -0.001 -0.000150544 0.000668174 -0.001 
0.000381963 0.00065079 -0.001 0.000493113 0.000590432 -0.001 0.000505439 0.000463708 -0.001 
-0.000269094 0.000596608 -0.001 0.000385815 0.000532045 -0.001 0.000283599 0.0005899 -0.001 
-0.000176405 -0.000108505 -0.001 -0.000278769 -0.000475415 -0.001 0.000185395 2.33014e-06 -0.001 
0.000186773 0.000517571 -0.001 0.000540032 -8.68444e-05 -0.001 -0.000600694 -0.000514877 -0.001 
-0.00063703 8.98033e-05 -0.001 -0.000459677 0.000335729 -0.001 -0.000338836 -0.000100751 -0.001 
-0.000457327 0.000432721 -0.001 -8.72007e-06 -0.000210238 -0.001 0.000156073 0.000129496 -0.001 
-7.70692e-05 -0.000555049 -0.001 0.00036091 -0.000389728 -0.001 0.000531628 0.000120564 -0.001 
-0.000285451 0.000435562 -0.001 0.000192719 -0.000494604 -0.001 0.00041642 0.00039368 -0.001 
-0.000135943 0.000554637 -0.001 -0.000170665 -0.000610079 -0.001 -0.000666304 0.000434981 -0.001 
-0.000758736 0.000479231 -0.001 -0.000470189 -0.000458901 -0.001 0.000203433 -8.59809e-05 -0.001 
0.000101846 0.000170114 -0.001 -0.00035513 -0.00040726 -0.001 0.000100184 -0.000165831 -0.001 
2.96286e-05 0.00081537 -0.001 0.000720946 0.000381836 -0.001 -0.000539809 -0.000292001 -0.001 
0.00052211 -0.000182426 -0.001 -6.41339e-05 -0.000753908 -0.001 0.000638039 -0.000299861 -0.001 
-0.000605136 -0.000230182 -0.001 -3.41638e-05 -0.000145561 -0.001 -0.000104037 0.000172396 -0.001 
-0.000808575 -0.00042774 -0.001 -0.000807207 -0.000465052 -0.001 -0.00080817 0.000429771 -0.001 
-0.000806589 0.000469738 -0.001 -9.50634e-05 -0.000178909 -0.001 0.000247777 0.000445058 -0.001 
1.48293e-05 -0.000814201 -0.001 -4.11555e-05 0.000140955 -0.001 0.000276104 -0.000536845 -0.001 
0.000765969 -0.000436638 -0.001 0.000780871 -0.000362769 -0.001 0.000424176 -0.000642018 -0.001 
0.00053413 -0.000368009 -0.001 -0.000416333 4.17911e-05 -0.001 -0.000133891 -6.23822e-05 -0.001 
4.2574e-05 0.000206312 -0.001 0.000141163 -0.000121542 -0.001 0.000707423 0.000212137 -0.001 
0.000172327 0.000723882 -0.001 7.72652e-06 -0.00090254 -0.001 -0.000134435 5.66935e-05 -0.001 
-0.000188826 3.70894e-05 -0.001 0.000197119 8.09714e-05 -0.001 1.27801e-05 0.000917296 -0.001 
0.000800767 0.00044758 -0.001 -0.000686682 0.000507104 -0.001 9.35831e-05 0.000110457 -0.001 
-0.000696793 -0.000509595 -0.001 -0.00068446 -8.52012e-05 -0.001 -0.000691033 -0.000201242 -0.001 
5.24052e-05 -0.000189075 -0.001 -0.000151818 -0.000701092 -0.001 -0.000296988 0.000518087 -0.001 
9.31023e-05 -0.000108117 -0.001 0.00044261 -0.000416726 -0.001 0.000197044 -0.000784423 -0.001 
-0.000516861 0.000504567 -0.001 0.000298997 0.000502377 -0.001 

CELLS 563 3941
6 14 304 127 29 554 377 
6 143 259 55 393 509 103 
6 300 319 174 550 569 424 
6 259 349 55 509 599 103 
6 50 365 307 98 615 557 
6 299 320 164 549 570 414 
6 126 304 14 376 554 29 
6 298 319 300 548 569 550 
6 205 240 238 455 490 488 
6 257 308 145 507 558 395 
6 130 352 273 380 602 523 
6 295 320 299 545 570 549 
6 324 327 289 574 577 539 
6 235 258 143 485 508 393 
6 50 307 49 98 557 97 
6 207 283 279 457 533 529 
6 143 373 235 393 623 485 
6 145 308 252 395 558 502 
6 194 303 196 444 553 446 
6 279 306 207 529 556 457 
6 206 305 163 456 555 413 
6 51 357 9 99 607 24 
6 238 252 205 488 502 455 
6 293 317 209 543 567 459 
6 207 316 283 457 566 533 
6 142 301 249 392 551 499 
6 273 359 130 523 609 380 
6 211 327 324 461 577 574 
6 169 265 217 419 515 467 
6 7 365 50 22 615 98 
6 283 316 253 533 566 503 
6 159 268 223 409 518 473 
6 274 337 132 524 587 382 
6 232 361 329 482 611 579 
6 231 266 45 481 516 93 
6 229 362 330 479 612 580 
6 9 244 57 24 494 105 
6 230 276 52 480 526 100 
6 209 311 293 459 561 543 
6 131 342 302 381 592 552 
6 270 271 204 520 521 454 
6 66 243 1 114 493 16 
6 59 241 12 107 491 27 
6 280 306 279 530 556 529 
6 269 337 274 519 587 524 
6 179 256 224 429 506 474 
6 163 305 166 413 555 416 
6 201 303 194 451 553 444 
6 280 332 306 530 582 556 
6 186 255 225 436 505 475 
6 210 310 273 460 560 523 
6 153 270 204 403 520 454 
6 136 231 45 386 481 93 
6 171 265 169 421 515 419 
6 138 230 52 388 480 100 
6 225 354 325 475 604 575 
6 36 284 232 84 534 482 
6 161 268 159 411 518 409 
6 71 286 229 119 536 479 
6 290 303 201 540 553 451 
6 139 355 60 389 605 108 
6 60 355 248 108 605 498 
6 273 352 302 523 602 552 
6 235 373 245 485 623 495 
6 67 356 247 115 606 497 
6 221 295 277 471 545 527 
6 142 356 67 392 606 115 
6 139 283 253 389 533 503 
6 203 315 262 453 565 512 
6 41 257 145 89 507 395 
6 36 232 135 84 482 385 
6 71 229 137 119 479 387 
6 254 255 188 504 505 438 
6 233 350 334 483 600 584 
6 262 346 203 512 596 453 
6 304 325 127 554 575 377 
6 222 329 247 472 579 497 
6 218 298 260 468 548 510 
6 290 321 291 540 571 541 
6 272 310 240 522 560 490 
6 269 274 270 519 524 520 
6 244 245 57 494 495 105 
6 49 307 141 97 557 391 
6 225 325 256 475 575 506 
6 273 310 272 523 560 522 
6 312 368 255 562 618 505 
6 249 305 206 499 555 456 
6 228 331 251 478 581 501 
6 302 342 263 552 592 513 
6 338 339 44 588 589 92 
6 190 254 188 440 504 438 
6 37 341 340 85 591 590 
6 138 233 230 388 483 480 
6 228 335 331 478 585 581 
6 181 256 179 431 506 429 
6 195 263 226 445 513 476 
6 268 285 223 518 535 473 
6 290 291 288 540 541 538 
6 219 330 248 469 580 498 
6 201 321 290 451 571 540 
6 240 310 202 490 560 452 
6 188 255 186 438 505 436 
6 270 274 271 520 524 521 
6 262 349 259 512 599 509 
6 141 324 289 391 574 539 
6 296 301 142 546 551 392 
6 247 356 222 497 606 472 
6 239 252 238 489 502 488 
6 254 312 255 504 562 505 
6 54 261 53 102 511 101 
6 289 327 303 539 577 553 
6 268 353 285 518 603 535 
6 273 302 210 523 552 460 
6 292 299 293 542 549 543 
6 278 283 139 528 533 389 
6 175 265 171 425 515 421 
6 227 338 38 477 588 86 
6 264 360 265 514 610 515 
6 43 340 146 91 590 396 
6 165 268 161 415 518 411 
6 205 351 240 455 601 490 
6 64 281 63 112 531 111 
6 288 291 47 538 541 95 
6 135 295 294 385 545 544 
6 42 257 41 90 507 89 
6 245 373 57 495 623 105 
6 31 363 323 79 613 573 
6 292 293 140 542 543 390 
6 267 353 268 517 603 518 
6 155 270 153 405 520 403 
6 244 344 245 494 594 495 
6 61 278 139 109 528 389 
6 135 294 35 385 544 83 
6 69 297 296 117 547 546 
6 186 225 184 436 475 434 
6 329 361 243 579 611 493 
6 255 328 225 505 578 475 
6 213 332 280 463 582 530 
6 39 275 133 87 525 383 
6 330 362 241 580 612 491 
6 195 226 193 445 476 443 
6 211 324 251 461 574 501 
6 151 153 152 401 403 402 
6 295 299 294 545 549 544 
6 265 313 217 515 563 467 
6 258 259 143 508 509 393 
6 251 331 211 501 581 461 
6 149 151 150 399 401 400 
6 293 370 317 543 620 567 
6 153 204 152 403 454 402 
6 151 152 150 401 402 400 
6 33 292 140 81 542 390 
6 210 263 197 460 513 447 
6 301 305 249 551 555 499 
6 298 300 297 548 550 547 
6 68 296 142 116 546 392 
6 321 369 291 571 619 541 
6 179 224 177 429 474 427 
6 167 267 165 417 517 415 
6 259 346 262 509 596 512 
6 303 327 196 553 577 446 
6 269 270 155 519 520 405 
6 265 360 313 515 610 563 
6 223 269 157 473 519 407 
6 157 269 155 407 519 405 
6 144 279 278 394 529 528 
6 169 217 167 419 467 417 
6 177 264 175 427 514 425 
6 267 268 165 517 518 415 
6 159 223 157 409 473 407 
6 232 277 135 482 527 385 
6 193 254 190 443 504 440 
6 217 267 167 467 517 417 
6 249 356 142 499 606 392 
6 184 256 181 434 506 431 
6 248 355 219 498 605 469 
6 229 260 137 479 510 387 
6 149 150 148 399 400 398 
6 64 348 281 112 598 531 
6 311 374 293 561 624 543 
6 264 265 175 514 515 425 
6 297 300 296 547 550 546 
6 141 289 288 391 539 538 
6 197 263 195 447 513 445 
6 218 260 219 468 510 469 
6 224 264 177 474 514 427 
6 137 298 297 387 548 547 
6 277 295 135 527 545 385 
6 133 228 227 383 478 477 
6 261 349 262 511 599 512 
6 221 277 222 471 527 472 
6 256 325 224 506 575 474 
6 199 210 197 449 460 447 
6 226 254 193 476 504 443 
6 144 278 62 394 528 110 
6 279 283 278 529 533 528 
6 289 290 288 539 540 538 
6 137 297 70 387 547 118 
6 34 294 292 82 544 542 
6 235 236 216 485 486 466 
6 141 288 48 391 538 96 
6 178 306 180 428 556 430 
6 185 186 184 435 436 434 
6 63 281 144 111 531 394 
6 225 256 184 475 506 434 
6 46 291 136 94 541 386 
6 147 149 148 397 399 398 
6 271 272 204 521 522 454 
6 233 334 234 483 584 484 
6 145 275 40 395 525 88 
6 220 322 287 470 572 537 
6 280 334 213 530 584 463 
6 144 280 279 394 530 529 
6 140 287 32 390 537 80 
6 154 155 153 404 405 403 
6 334 350 213 584 600 463 
6 176 177 175 426 427 425 
6 260 298 137 510 548 387 
6 33 140 32 81 390 80 
6 49 141 48 97 391 96 
6 56 143 55 104 393 103 
6 68 142 67 116 392 115 
6 63 144 62 111 394 110 
6 61 139 60 109 389 108 
6 148 308 257 398 558 507 
6 71 137 70 119 387 118 
6 53 138 52 101 388 100 
6 46 136 45 94 386 93 
6 36 135 35 84 385 83 
6 43 146 134 91 396 384 
6 133 227 38 383 477 86 
6 192 193 190 442 443 440 
6 293 374 140 543 624 390 
6 34 292 33 82 542 81 
6 207 306 178 457 556 428 
6 43 134 42 91 384 90 
6 39 133 38 87 383 86 
6 41 145 40 89 395 88 
6 194 195 193 444 445 443 
6 69 296 68 117 546 116 
6 294 299 292 544 549 542 
6 173 175 171 423 425 421 
6 260 330 219 510 580 469 
6 183 184 181 433 434 431 
6 134 257 42 384 507 90 
6 55 349 54 103 599 102 
6 163 165 161 413 415 411 
6 166 167 165 416 417 415 
6 210 302 263 460 552 513 
6 271 273 272 521 523 522 
6 53 261 138 101 511 388 
6 217 326 267 467 576 517 
6 289 303 290 539 553 540 
6 178 179 177 428 429 427 
6 238 240 202 488 490 452 
6 62 278 61 110 528 109 
6 35 294 34 83 544 82 
6 284 361 232 534 611 482 
6 70 297 69 118 547 117 
6 224 304 264 474 554 514 
6 156 157 155 406 407 405 
6 48 288 47 96 538 95 
6 221 320 295 471 570 545 
6 187 188 186 437 438 436 
6 47 291 46 95 541 94 
6 151 154 153 401 404 403 
6 286 362 229 536 612 479 
6 168 169 167 418 419 417 
6 40 275 39 88 525 87 
6 307 324 141 557 574 391 
6 300 301 296 550 551 546 
6 32 287 31 80 537 79 
6 147 220 149 397 470 399 
6 333 344 231 583 594 481 
6 299 370 293 549 620 543 
6 271 359 273 521 609 523 
6 224 325 304 474 575 554 
6 228 237 227 478 487 477 
6 305 375 343 555 625 593 
6 218 319 298 468 569 548 
6 240 351 272 490 601 522 
6 277 329 222 527 579 472 
6 253 355 139 503 605 389 
6 158 159 157 408 409 407 
6 236 246 216 486 496 466 
6 192 194 193 442 444 443 
6 220 309 149 470 559 399 
6 183 185 184 433 435 434 
6 196 197 195 446 447 445 
6 276 347 58 526 597 106 
6 136 333 231 386 583 481 
6 67 247 66 115 497 114 
6 60 248 59 108 498 107 
6 261 262 250 511 512 500 
6 173 176 175 423 426 425 
6 344 357 231 594 607 481 
6 144 281 280 394 531 530 
6 152 205 150 402 455 400 
6 163 166 165 413 416 415 
6 185 187 186 435 437 436 
6 233 234 230 483 484 480 
6 170 171 169 420 421 419 
6 146 147 134 396 397 384 
6 176 178 177 426 428 427 
6 285 337 223 535 587 473 
6 154 156 155 404 406 405 
6 263 342 226 513 592 476 
6 235 245 236 485 495 486 
6 160 161 159 410 411 409 
6 58 347 242 106 597 492 
6 166 168 167 416 418 417 
6 287 374 220 537 624 470 
6 189 190 188 439 440 438 
6 148 257 134 398 507 384 
6 194 196 195 444 446 445 
6 252 308 205 502 558 455 
6 285 345 337 535 595 587 
6 301 375 305 551 625 555 
6 180 181 179 430 431 429 
6 281 348 234 531 598 484 
6 198 199 197 448 449 447 
6 151 309 154 401 559 404 
6 228 367 335 478 617 585 
6 54 349 261 102 599 511 
6 156 158 157 406 408 407 
6 168 170 169 418 420 419 
6 200 202 199 450 452 449 
6 147 148 134 397 398 384 
6 158 160 159 408 410 409 
6 150 308 148 400 558 398 
6 253 316 208 503 566 458 
6 232 329 277 482 579 527 
6 178 180 179 428 430 429 
6 191 192 190 441 442 440 
6 214 238 202 464 488 452 
6 172 173 171 422 423 421 
6 187 189 188 437 439 438 
6 162 163 161 412 413 411 
6 228 251 237 478 501 487 
6 215 258 235 465 508 485 
6 182 183 181 432 433 431 
6 202 310 199 452 560 449 
6 219 253 208 469 503 458 
6 222 249 206 472 499 456 
6 196 198 197 446 448 447 
6 229 330 260 479 580 510 
6 132 358 274 382 608 524 
6 149 309 151 399 559 401 
6 226 312 254 476 562 504 
6 154 309 209 404 559 459 
6 77 129 76 125 379 124 
6 73 128 72 121 378 120 
6 76 131 75 124 381 123 
6 74 132 73 122 382 121 
6 75 130 74 123 380 122 
6 14 127 77 29 377 125 
6 72 126 14 120 376 29 
6 133 367 228 383 617 478 
6 237 282 227 487 532 477 
6 239 366 252 489 616 502 
6 200 214 202 450 464 452 
6 192 201 194 442 451 444 
6 170 172 171 420 422 421 
6 220 311 309 470 561 559 
6 198 200 199 448 450 449 
6 189 191 190 439 441 440 
6 146 323 322 396 573 572 
6 160 162 161 410 412 411 
6 251 307 237 501 557 487 
6 199 310 210 449 560 460 
6 57 373 56 105 623 104 
6 214 239 238 464 489 488 
6 182 212 183 432 462 433 
6 180 182 181 430 432 431 
6 146 322 147 396 572 397 
6 172 218 208 422 468 458 
6 172 208 173 422 458 423 
6 162 221 206 412 471 456 
6 162 206 163 412 456 413 
6 176 207 178 426 457 428 
6 272 351 204 522 601 454 
6 198 211 200 448 461 450 
6 182 213 212 432 463 462 
6 234 334 281 484 584 531 
6 154 209 156 404 459 406 
6 185 203 187 435 453 437 
6 168 174 170 418 424 420 
6 189 215 191 439 465 441 
6 215 216 191 465 466 441 
6 221 222 206 471 472 456 
6 158 164 160 408 414 410 
6 218 219 208 468 469 458 
6 205 308 150 455 558 400 
6 191 314 192 441 564 442 
6 215 235 216 465 485 466 
6 215 318 258 465 568 508 
6 152 351 205 402 601 455 
6 138 261 250 388 511 500 
6 192 314 201 442 564 451 
6 234 347 230 484 597 480 
6 226 342 312 476 592 562 
6 138 250 233 388 500 483 
6 147 322 220 397 572 470 
6 216 314 191 466 564 441 
6 306 332 180 556 582 430 
6 222 356 249 472 606 499 
6 128 345 285 378 595 535 
6 314 321 201 564 571 451 
6 212 315 183 462 565 433 
6 312 342 336 562 592 586 
6 282 339 338 532 589 588 
6 340 341 323 590 591 573 
6 309 311 209 559 561 459 
6 183 315 185 433 565 435 
6 208 316 173 458 566 423 
6 173 316 176 423 566 426 
6 3 341 37 18 591 85 
6 44 339 6 92 589 21 
6 252 366 145 502 616 395 
6 246 321 314 496 571 564 
6 246 314 216 496 564 466 
6 126 364 313 376 614 563 
6 156 317 158 406 567 408 
6 275 367 133 525 617 383 
6 176 316 207 426 566 457 
6 185 315 203 435 565 453 
6 180 332 182 430 582 432 
6 302 352 131 552 602 381 
6 251 324 307 501 574 557 
6 187 318 189 437 568 439 
6 172 319 218 422 569 468 
6 162 320 221 412 570 471 
6 305 343 166 555 593 416 
6 170 319 172 420 569 422 
6 158 317 164 408 567 414 
6 209 317 156 459 567 406 
6 285 353 128 535 603 378 
6 223 337 269 473 587 519 
6 160 320 162 410 570 412 
6 211 331 200 461 581 450 
6 174 319 170 424 569 420 
6 203 318 187 453 568 437 
6 189 318 215 439 568 465 
6 198 327 211 448 577 461 
6 164 320 160 414 570 410 
6 326 353 267 576 603 517 
6 236 344 333 486 594 583 
6 196 327 198 446 577 448 
6 219 355 253 469 605 503 
6 281 334 280 531 584 530 
6 274 359 271 524 609 521 
6 164 370 299 414 620 549 
6 174 375 300 424 625 550 
6 287 363 31 537 613 79 
6 243 361 1 493 611 16 
6 241 362 12 491 612 27 
6 307 365 237 557 615 487 
6 166 343 168 416 593 418 
6 200 331 214 450 581 464 
6 313 326 217 563 576 467 
6 9 357 244 24 607 494 
6 1 361 30 16 611 78 
6 12 362 65 27 612 113 
6 337 345 132 587 595 382 
6 242 348 64 492 598 112 
6 231 357 266 481 607 516 
6 182 332 213 432 582 463 
6 245 344 236 495 594 486 
6 258 346 259 508 596 509 
6 145 366 275 395 616 525 
6 291 369 136 541 619 386 
6 236 333 246 486 583 496 
6 331 335 214 581 585 464 
6 312 336 129 562 586 379 
6 315 372 262 565 622 512 
6 220 374 311 470 624 561 
6 140 374 287 390 624 537 
6 126 360 304 376 610 554 
6 230 347 276 480 597 526 
6 313 364 326 563 614 576 
6 56 373 143 104 623 393 
6 239 367 366 489 617 616 
6 204 351 152 454 601 402 
6 300 375 301 550 625 551 
6 214 335 239 464 585 489 
6 247 329 243 497 579 493 
6 262 372 250 512 622 500 
6 248 330 241 498 580 491 
6 318 346 258 568 596 508 
6 333 369 246 583 619 496 
6 282 338 227 532 588 477 
6 146 340 323 396 590 573 
6 304 360 264 554 610 514 
6 366 367 275 616 617 525 
6 129 336 76 379 586 124 
6 73 345 128 121 595 378 
6 76 336 131 124 586 381 
6 250 350 233 500 600 483 
6 129 371 328 379 621 578 
6 132 345 73 382 595 121 
6 168 343 174 418 593 424 
6 131 352 75 381 602 123 
6 66 247 243 114 497 493 
6 59 248 241 107 498 491 
6 74 358 132 122 608 382 
6 203 346 318 453 596 568 
6 313 360 126 563 610 376 
6 128 364 72 378 614 120 
6 128 353 326 378 603 576 
6 77 371 129 125 621 379 
6 129 368 312 379 618 562 
6 244 357 344 494 607 594 
6 328 354 225 578 604 475 
6 326 364 128 576 614 378 
6 75 352 130 123 602 380 
6 350 372 212 600 622 462 
6 136 369 333 386 619 583 
6 325 354 127 575 604 377 
6 213 350 212 463 600 462 
6 130 358 74 380 608 122 
6 250 372 350 500 622 600 
6 317 370 164 567 620 414 
6 72 364 126 120 614 376 
6 328 368 129 578 618 379 
6 127 371 77 377 621 125 
6 336 342 131 586 592 381 
6 212 372 315 462 622 565 
6 234 348 347 484 598 597 
6 8 266 51 23 516 99 
6 10 276 58 25 526 106 
6 246 369 321 496 619 571 
6 30 284 0 78 534 15 
6 65 286 13 113 536 28 
6 58 242 11 106 492 26 
6 266 357 51 516 607 99 
6 255 368 328 505 618 578 
6 347 348 242 597 598 492 
6 322 363 287 572 613 537 
6 323 363 322 573 613 572 
6 335 367 239 585 617 489 
6 30 361 284 78 611 534 
6 65 362 286 113 612 536 
6 237 365 282 487 615 532 
6 130 359 358 380 609 608 
6 343 375 174 593 625 424 
6 354 371 127 604 621 377 
6 328 371 354 578 621 604 
6 358 359 274 608 609 524 
6 0 284 36 15 534 84 
6 45 266 8 93 516 23 
6 52 276 10 100 526 25 
6 11 242 64 26 492 112 
6 13 286 71 28 536 119 
6 2 323 3 17 573 18 
6 31 323 2 79 573 17 
6 323 341 3 573 591 18 
6 37 340 4 85 590 19 
6 4 340 43 19 590 91 
6 38 338 5 86 588 20 
6 5 338 44 20 588 92 
6 6 282 7 21 532 22 
6 6 339 282 21 589 532 
6 282 365 7 532 615 22 

CELL_TYPES 563
13
13
13
13
13
13
13
13
13
13
13
13
13
13
13
13
13
13
13
13
13
13
13
13
13
13
13
13
13
13
13
13
13
13
13
13
13
13
13
13
13
13
13
13
13
13
13
13
13
13
13
13
13
13
13
13
13
13
13
13
13
13
13
13
13
13
13
13
13
13
13
13
13
13
13
13
13
13
13
13
13
13
13
13
13
13
13
13
13
13
13
13
13
13
13
13
13
13
13
13
13
13
13
13
13
13
13
13
13
13
13
13
13
13
13
13
13
13
13
13
13
13
13
13
13
13
13
13
13
13
13
13
13
13
13
13
13
13
13
13
13
13
13
13
13
13
13
13
13
13
13
13
13
13
13
13
13
13
13
13
13
13
13
13
13
13
13
13
13
13
13
13
13
13
13
13
13
13
13
13
13
13
13
13
13
13
13
13
13
13
13
13
13
13
13
13
13
13
13
13
13
13
13
13
13
13
13
13
13
13
13
13
13
13
13
13
13
13
13
13
13
13
13
13
13
13
13
13
13
13
13
13
13
13
13
13
13
13
13
13
13
13
13
13
13
13
13
13
13
13
13
13
13
13
13
13
13
13
13
13
13
13
13
13
13
13
13
13
13
13
13
13
13
13
13
13
13
13
13
13
13
13
13
13
13
13
13
13
13
13
13
13
13
13
13
13
13
13
13
13
13
13
13
13
13
13
13
13
13
13
13
13
13
13
13
13
13
13
13
13
13
13
13
13
13
13
13
13
13
13
13
13
13
13
13
13
13
13
13
13
13
13
13
13
13
13
13
13
13
13
13
13
13
13
13
13
13
13
13
13
13
13
13
13
13
13
13
13
13
13
13
13
13
13
13
13
13
13
13
13
13
13
13
13
13
13
13
13
13
13
13
13
13
13
13
13
13
13
13
13
13
13
13
13
13
13
13
13
13
13
13
13
13
13
13
13
13
13
13
13
13
13
13
13
13
13
13
13
13
13
13
13
13
13
13
13
13
13
13
13
13
13
13
13
13
13
13
13
13
13
13
13
13
13
13
13
13
13
13
13
13
13
13
13
13
13
13
13
13
13
13
13
13
13
13
13
13
13
13
13
13
13
13
13
13
13
13
13
13
13
13
13
13
13
13
13
13
13
13
13
13
13
13
13
13
13
13
13
13
13
13
13
13
13
13
13
13
13
13
13
13
13
13
13
13
13
13
13
13
13
13
13
13
13
13
13
13
13
13
13
13
13
13
13
13
13
13
13
13
13
13
13
13
13
13
13
13
13
13
13
13
13
13

POINT_DATA 626
VECTORS displacement float
-1.7439e-06 3.09639e-05 1.80594e-05
1.73557e-06 3.0983e-05 1.81045e-05
-2.59946e-05 1.69975e-05 1.80914e-05
-2.58491e-05 1.60377e-05 1.8056e-05
-2.77289e-05 1.39776e-05 1.80735e-05
-2.77218e-05 -1.40239e-05 1.80989e-05
-2.58202e-05 -1.60758e-05 1.81102e-05
-2.59907e-05 -1.70156e-05 1.81714e-05
-1.67737e-06 -3.09677e-05 1.80558e-05
1.75538e-06 -3.09692e-05 1.81063e-05
2.59519e-05 -1.69854e-05 1.80479e-05
2.77252e-05 -1.39415e-05 1.80478e-05
2.76807e-05 1.39942e-05 1.8096e-05
2.59232e-05 1.69977e-05 1.80504e-05
0 0 0
-1.7439e-06 3.09639e-05 -1.80594e-05
1.73557e-06 3.0983e-05 -1.81045e-05
-2.59946e-05 1.69975e-05 -1.80914e-05
-2.58491e-05 1.60377e-05 -1.8056e-05
-2.77289e-05 1.39776e-05 -1.80735e-05
-2.77218e-05 -1.40239e-05 -1.80989e-05
-2.58202e-05 -1.60758e-05 -1.81102e-05
-2.59907e-05 -1.70156e-05 -1.81714e-05
-1.67737e-06 -3.09677e-05 -1.80558e-05
1.75538e-06 -3.09692e-05 -1.81063e-05
2.59519e-05 -1.69854e-05 -1.80479e-05
2.77252e-05 -1.39415e-05 -1.80478e-05
2.76807e-05 1.39942e-05 -1.8096e-05
2.59232e-05 1.69977e-05 -1.80504e-05
0 0 0
2.4854e-08 3.01637e-05 1.80386e-05
-2.11486e-05 1.8718e-05 1.75546e-05
-1.72395e-05 1.98407e-05 1.69262e-05
-1.40126e-05 2.10622e-05 1.65606e-05
-1.1211e-05 2.26737e-05 1.65545e-05
-8.52658e-06 2.48424e-05 1.69068e-05
-5.56875e-06 2.76315e-05 1.75423e-05
-2.64579e-05 1.46838e-05 1.80379e-05
-2.67776e-05 -9.0156e-06 1.75822e-05
-2.58157e-05 -5.0381e-06 1.69313e-05
-2.52642e-05 -1.63711e-06 1.65771e-05
-2.52672e-05 1.60873e-06 1.658e-05
-2.58079e-05 5.02547e-06 1.69296e-05
-2.67638e-05 8.98866e-06 1.75688e-05
-2.64448e-05 -1.47301e-05 1.80666e-05
-5.542e-06 -2.76459e-05 1.75345e-05
-8.47911e-06 -2.48514e-05 1.69061e-05
-1.11742e-05 -2.26932e-05 1.65618e-05
-1.39763e-05 -2.10952e-05 1.65652e-05
-1.7222e-05 -1.9876e-05 1.6942e-05
-2.11422e-05 -1.87548e-05 1.75671e-05
8.97864e-08 -3.01485e-05 1.80338e-05
2.1132e-05 -1.86305e-05 1.75163e-05
1.72517e-05 -1.97691e-05 1.68783e-05
1.40395e-05 -2.10192e-05 1.65173e-05
1.12292e-05 -2.26019e-05 1.65519e-05
8.58369e-06 -2.47896e-05 1.68796e-05
5.65555e-06 -2.76362e-05 1.75399e-05
2.61327e-05 -1.50644e-05 1.80328e-05
2.67257e-05 8.94252e-06 1.75064e-05
2.57315e-05 5.05222e-06 1.69138e-05
2.52163e-05 1.62423e-06 1.65289e-05
2.52135e-05 -1.60032e-06 1.65272e-05
2.57602e-05 -5e-06 1.68937e-05
2.67078e-05 -8.92125e-06 1.75146e-05
2.61157e-05 1.50655e-05 1.80298e-05
5.63399e-06 2.76275e-05 1.75144e-05
8.51108e-06 2.48163e-05 1.69166e-05
1.12212e-05 2.265e-05 1.65351e-05
1.40101e-05 2.10302e-05 1.65304e-05
1.72287e-05 1.98004e-05 1.68905e-05
2.1123e-05 1.86401e-05 1.75303e-05
0 0 0
0 0 0
0 0 0
0 0 0
0 0 0
0 0 0
2.4854e-08 3.01637e-05 -1.80386e-05
-2.11486e-05 1.8718e-05 -1.75546e-05
-1.72395e-05 1.98407e-05 -1.69262e-05
-1.40126e-05 2.10622e-05 -1.65606e-05
-1.1211e-05 2.26737e-05 -1.65545e-05
-8.52658e-06 2.48424e-05 -1.69068e-05
-5.56875e-06 2.76315e-05 -1.75423e-05
-2.64579e-05 1.46838e-05 -1.80379e-05
-2.67776e-05 -9.0156e-06 -1.75822e-05
-2.58157e-05 -5.0381e-06 -1.69313e-05
-2.52642e-05 -1.63711e-06 -1.65771e-05
-2.52672e-05 1.60873e-06 -1.658e-05
-2.58079e-05 5.02547e-06 -1.69296e-05
-2.67638e-05 8.98866e-06 -1.75688e-05
-2.64448e-05 -1.47301e-05 -1.80666e-05
-5.542e-06 -2.76459e-05 -1.75345e-05
-8.47911e-06 -2.48514e-05 -1.69061e-05
-1.11742e-05 -2.26932e-05 -1.65618e-05
-1.39763e-05 -2.10952e-05 -1.65652e-05
-1.7222e-05 -1.9876e-05 -1.6942e-05
-2.11422e-05 -1.87548e-05 -1.75671e-05
8.97864e-08 -3.01485e-05 -1.80338e-05
2.1132e-05 -1.86305e-05 -1.75163e-05
1.72517e-05 -1.97691e-05 -1.68783e-05
1.40395e-05 -2.10192e-05 -1.65173e-05
1.12292e-05 -2.26019e-05 -1.65519e-05
8.58369e-06 -2.47896e-05 -1.68796e-05
5.65555e-06 -2.76362e-05 -1.75399e-05
2.61327e-05 -1.50644e-05 -1.80328e-05
2.67257e-05 8.94252e-06 -1.75064e-05
2.57315e-05 5.05222e-06 -1.69138e-05
2.52163e-05 1.62423e-06 -1.65289e-05
2.52135e-05 -1.60032e-06 -1.65272e-05
2.57602e-05 -5e-06 -1.68937e-05
2.67078e-05 -8.92125e-06 -1.75146e-05
2.61157e-05 1.50655e-05 -1.80298e-05
5.63399e-06 2.76275e-05 -1.75144e-05
8.51108e-06 2.48163e-05 -1.69166e-05
1.12212e-05 2.265e-05 -1.65351e-05
1.40101e-05 2.10302e-05 -1.65304e-05
1.72287e-05 1.98004e-05 -1.68905e-05
2.1123e-05 1.86401e-05 -1.75303e-05
0 0 0
0 0 0
0 0 0
0 0 0
0 0 0
0 0 0
1.7942e-06 8.58993e-07 4.55399e-06
1.73832e-06 -8.25351e-07 4.46251e-06
4.32077e-07 1.85015e-06 4.49683e-06
4.36222e-07 -1.78113e-06 4.35775e-06
-1.84801e-06 2.0971e-08 4.42404e-06
-1.12341e-06 -1.30924e-06 4.15258e-06
-1.15954e-06 1.30717e-06 4.20138e-06
-2.25212e-05 -7.29071e-06 1.70051e-05
-2.22045e-05 7.3746e-06 1.69738e-05
-4.86192e-06 2.2907e-05 1.69423e-05
-4.85941e-06 -2.31402e-05 1.69691e-05
1.74279e-05 1.5641e-05 1.69351e-05
1.75755e-05 -1.55419e-05 1.69443e-05
2.10817e-05 3.16528e-06 1.633e-05
-1.39587e-05 1.71577e-05 1.64839e-05
-1.35966e-05 -1.67476e-05 1.64155e-05
7.77069e-06 1.98273e-05 1.63368e-05
7.68762e-06 -2.03179e-05 1.64081e-05
2.14806e-05 -3.44527e-06 1.64058e-05
-2.1111e-05 6.58838e-09 1.62523e-05
-2.24282e-05 1.10038e-05 1.74584e-05
-1.87579e-05 9.25818e-06 1.66323e-05
-1.79896e-05 5.79774e-06 1.60417e-05
-1.49897e-05 7.45119e-06 1.54918e-05
-1.423e-05 4.3094e-06 1.48351e-05
-1.1537e-05 5.74609e-06 1.41e-05
-1.08622e-05 3.0699e-06 1.33786e-05
-8.40365e-06 4.30649e-06 1.24091e-05
-9.06228e-06 7.01609e-06 1.34614e-05
-6.20641e-06 5.49055e-06 1.16935e-05
-6.83092e-06 8.25259e-06 1.30849e-05
-4.28299e-06 6.67738e-06 1.14549e-05
-4.80186e-06 9.61361e-06 1.30989e-05
-2.40178e-06 7.99632e-06 1.17275e-05
-2.81395e-06 1.11715e-05 1.348e-05
-4.756e-07 9.59892e-06 1.25058e-05
-7.38652e-07 1.30019e-05 1.4147e-05
1.73173e-06 1.15222e-05 1.35401e-05
-5.53686e-06 1.27053e-05 1.44423e-05
1.6857e-06 8.22704e-06 1.17521e-05
4.00571e-06 1.01248e-05 1.3156e-05
3.70672e-06 7.10059e-06 1.14827e-05
6.06973e-06 8.97012e-06 1.31184e-05
5.76897e-06 6.10907e-06 1.17401e-05
8.36129e-06 8.02342e-06 1.34972e-05
8.10871e-06 5.19724e-06 1.25052e-05
1.09582e-05 7.0998e-06 1.41522e-05
1.07501e-05 4.32446e-06 1.35042e-05
8.53385e-06 1.10418e-05 1.44662e-05
7.94065e-06 2.64473e-06 1.1732e-05
1.06501e-05 1.73787e-06 1.31091e-05
7.95164e-06 3.58894e-07 1.146e-05
1.08106e-05 -7.59404e-07 1.31292e-05
8.11467e-06 -1.93852e-06 1.17137e-05
1.11025e-05 -3.31413e-06 1.3489e-05
8.47294e-06 -4.42566e-06 1.24489e-05
1.15081e-05 -6.00521e-06 1.41146e-05
8.95901e-06 -7.14086e-06 1.34332e-05
6.14981e-06 -5.49647e-06 1.16458e-05
6.64704e-06 -8.30405e-06 1.30233e-05
4.10672e-06 -6.59095e-06 1.13153e-05
4.52508e-06 -9.55454e-06 1.29933e-05
2.24312e-06 -7.86121e-06 1.16019e-05
2.48578e-06 -1.10061e-05 1.3356e-05
2.25366e-07 -9.37723e-06 1.23584e-05
3.30125e-07 -1.27747e-05 1.40391e-05
-1.91619e-06 -1.1155e-05 1.33821e-05
-1.84176e-06 -7.92456e-06 1.15867e-05
-4.16951e-06 -9.87864e-06 1.30901e-05
-3.81536e-06 -6.73299e-06 1.13215e-05
-6.34807e-06 -8.66534e-06 1.31044e-05
-5.8935e-06 -5.70013e-06 1.16329e-05
-8.503e-06 -7.43865e-06 1.33848e-05
-8.17063e-06 -4.72984e-06 1.24134e-05
-1.10999e-05 -6.40523e-06 1.40751e-05
-4.37337e-06 -1.31283e-05 1.4439e-05
-1.0813e-05 -3.65208e-06 1.34443e-05
7.22894e-06 -1.13772e-05 1.42784e-05
-7.74458e-06 1.98342e-06 1.14974e-05
-1.32213e-05 1.03546e-06 1.42163e-05
1.72976e-06 1.50887e-05 1.49576e-05
1.37735e-05 4.62425e-07 1.43932e-05
1.38485e-05 6.10249e-06 1.49371e-05
-9.69786e-06 1.02002e-05 1.45379e-05
-5.41796e-06 -3.1988e-06 1.01861e-05
-1.17182e-05 -9.30092e-06 1.48946e-05
1.1887e-05 -8.76362e-06 1.47926e-05
1.47875e-05 -7.47651e-06 1.54088e-05
-1.39651e-05 -5.24593e-06 1.48671e-05
2.79688e-06 -1.45218e-05 1.48017e-05
4.24696e-07 -1.65058e-05 1.54032e-05
3.51968e-06 4.3985e-06 9.58492e-06
1.4016e-05 9.30265e-06 1.54971e-05
1.79376e-05 8.14813e-06 1.63059e-05
-1.56815e-05 1.13996e-05 1.62389e-05
-1.09451e-06 1.67756e-05 1.55008e-05
1.9075e-06 1.96291e-05 1.63163e-05
-2.09262e-06 5.22193e-06 9.60141e-06
5.55591e-06 -7.84882e-07 9.59797e-06
3.5872e-06 -3.68485e-06 9.08559e-06
-1.78027e-06 -5.1804e-06 9.45336e-06
-2.24766e-05 -1.10149e-05 1.74792e-05
-1.88052e-05 -9.24492e-06 1.66563e-05
2.11554e-05 1.41696e-05 1.75104e-05
2.07613e-05 -1.43225e-05 1.74404e-05
-1.76501e-06 -2.54555e-05 1.75158e-05
-1.68252e-06 2.54195e-05 1.75204e-05
1.77197e-05 -1.19113e-05 1.66924e-05
2.06532e-05 -1.07551e-05 1.7121e-05
3.77697e-06 -1.89925e-05 1.61449e-05
7.68749e-07 -2.03535e-05 1.64882e-05
-1.94122e-05 -1.2655e-05 1.71482e-05
-1.37365e-05 -2.30783e-06 1.44773e-05
-1.65992e-05 -3.70291e-06 1.54831e-05
-1.03798e-05 -1.09681e-06 1.29571e-05
2.44603e-05 1.1077e-05 1.76564e-05
2.55058e-05 -1.24077e-05 1.78527e-05
2.64968e-06 2.67353e-05 1.76652e-05
2.52141e-06 -2.64228e-05 1.76341e-05
3.34039e-06 -2.30404e-05 1.70343e-05
-2.05466e-06 -1.83269e-05 1.59563e-05
4.06015e-06 2.38001e-05 1.71355e-05
2.26223e-05 8.38268e-06 1.71244e-05
4.61531e-06 1.73201e-05 1.57328e-05
1.44326e-05 -1.31244e-05 1.61429e-05
-1.57937e-05 -1.09888e-05 1.62199e-05
-1.68064e-05 -3.81589e-07 1.5383e-05
1.73126e-05 4.68937e-06 1.57312e-05
6.55394e-08 -6.38961e-06 1.02715e-05
1.74231e-06 -4.85015e-06 9.09609e-06
5.85257e-06 -2.93657e-06 1.03823e-05
-2.14524e-05 3.75215e-06 1.64644e-05
5.73154e-06 -1.62809e-05 1.55133e-05
9.08698e-06 -1.75059e-05 1.60032e-05
1.75787e-05 1.1886e-05 1.66775e-05
1.39998e-05 -1.63885e-05 1.64068e-05
1.07442e-05 -1.37944e-05 1.55558e-05
-3.54922e-06 -4.22167e-06 9.50453e-06
5.40101e-06 1.1389e-06 9.50282e-06
5.21991e-06 3.22403e-06 1.00512e-05
-1.75002e-06 -2.83638e-05 1.78814e-05
1.89272e-06 5.30076e-06 9.58825e-06
-1.13869e-07 6.10718e-06 1.00427e-05
-3.78625e-06 4.12919e-06 9.5822e-06
-5.62469e-06 3.03527e-06 1.02893e-05
-5.16727e-06 1.04104e-06 9.21725e-06
-7.53e-06 -6.17628e-08 1.11768e-05
-4.33583e-06 -8.10547e-07 8.38515e-06
-3.1096e-06 1.87294e-06 7.37694e-06
-2.20896e-05 -3.60938e-06 1.65214e-05
2.34142e-05 -1.56928e-05 1.78407e-05
-1.5077e-06 2.11758e-05 1.66873e-05
2.127e-05 -8.45576e-08 1.62315e-05
1.7629e-05 -1.64747e-06 1.55871e-05
1.73544e-05 -4.94364e-06 1.57762e-05
2.18995e-05 -7.45416e-06 1.69188e-05
-2.319e-05 -1.42592e-05 1.78372e-05
1.73314e-05 1.64955e-06 1.55142e-05
-1.73422e-06 2.84824e-05 1.78986e-05
-4.22211e-07 3.68462e-06 7.49823e-06
2.37799e-05 1.57472e-05 1.78891e-05
-1.7504e-05 1.56477e-05 1.69801e-05
-1.06304e-05 -1.84733e-05 1.62608e-05
-1.01035e-05 -1.43479e-05 1.55773e-05
-7.51071e-06 -1.61011e-05 1.56277e-05
-7.32481e-06 -2.01283e-05 1.64009e-05
-1.07087e-05 1.85424e-05 1.62725e-05
-1.03514e-05 1.43897e-05 1.5625e-05
-7.77546e-06 2.05004e-05 1.64498e-05
-4.25455e-06 1.86168e-05 1.60585e-05
1.07639e-05 1.83526e-05 1.62319e-05
1.38972e-05 1.69413e-05 1.64366e-05
1.40474e-05 1.29778e-05 1.60568e-05
-7.36445e-06 1.62947e-05 1.56442e-05
1.05293e-05 1.45527e-05 1.56509e-05
7.75175e-06 1.60986e-05 1.56196e-05
-3.11748e-06 -1.89938e-06 7.39607e-06
-7.2605e-06 -1.24268e-05 1.46307e-05
3.00961e-06 4.03734e-08 6.60355e-06
4.87446e-06 1.3528e-05 1.46236e-05
1.40815e-05 -2.26128e-06 1.4576e-05
-1.72964e-05 -1.52221e-05 1.69507e-05
-1.73732e-05 2.42128e-06 1.56034e-05
-1.22094e-05 8.91536e-06 1.49489e-05
-7.70849e-06 -2.29336e-06 1.15592e-05
-1.24546e-05 1.18172e-05 1.55455e-05
-1.42785e-07 -3.75546e-06 7.55715e-06
2.73112e-06 2.27282e-06 7.25478e-06
-2.00465e-06 -1.46562e-05 1.48135e-05
9.36874e-06 -1.00722e-05 1.43949e-05
1.38661e-05 3.15906e-06 1.45716e-05
-7.34292e-06 1.12037e-05 1.42657e-05
4.99916e-06 -1.27798e-05 1.43748e-05
1.10362e-05 1.04346e-05 1.49252e-05
-3.59785e-06 1.4691e-05 1.49136e-05
-4.63725e-06 -1.66233e-05 1.55544e-05
-1.95142e-05 1.2897e-05 1.71663e-05
-2.31348e-05 1.48629e-05 1.7848e-05
-1.291e-05 -1.26909e-05 1.58181e-05
3.76205e-06 -1.58665e-06 7.91008e-06
1.76496e-06 2.92323e-06 7.08722e-06
-9.23411e-06 -1.06136e-05 1.45373e-05
1.7283e-06 -2.82407e-06 6.93379e-06
9.94949e-07 2.41256e-05 1.73135e-05
2.13756e-05 1.1198e-05 1.73036e-05
-1.46703e-05 -7.95644e-06 1.54908e-05
1.37134e-05 -4.7882e-06 1.46961e-05
-1.91051e-06 -2.17711e-05 1.6808e-05
1.80672e-05 -8.42233e-06 1.63461e-05
-1.66853e-05 -6.33105e-06 1.57879e-05
-4.33032e-07 -1.9229e-06 4.80033e-06
-1.80596e-06 2.99642e-06 7.18e-06
-2.50601e-05 -1.29863e-05 1.79268e-05
-2.51353e-05 -1.45119e-05 1.80066e-05
-2.50533e-05 1.30382e-05 1.79106e-05
-2.51261e-05 1.46546e-05 1.79866e-05
-1.649e-06 -3.12587e-06 7.21275e-06
6.33042e-06 1.13729e-05 1.4082e-05
5.3381e-07 -2.40948e-05 1.73072e-05
-5.22937e-07 1.81008e-06 4.6468e-06
7.41037e-06 -1.43494e-05 1.51581e-05
2.33109e-05 -1.32139e-05 1.77335e-05
2.36408e-05 -1.05416e-05 1.74957e-05
1.19932e-05 -1.82181e-05 1.6299e-05
1.47358e-05 -1.01505e-05 1.58011e-05
-1.00309e-05 1.00163e-06 1.27597e-05
-1.74053e-06 -8.16146e-07 4.72527e-06
7.69317e-07 3.70958e-06 7.57614e-06
2.34382e-06 -1.9978e-06 6.55786e-06
2.01642e-05 5.90027e-06 1.64591e-05
5.07181e-06 2.06039e-05 1.65015e-05
3.42133e-07 -2.76893e-05 1.78586e-05
-1.73175e-06 7.09322e-07 4.6081e-06
-3.21255e-06 6.23247e-07 6.82682e-06
3.5784e-06 1.4759e-06 7.63965e-06
4.99258e-07 2.83332e-05 1.79318e-05
2.47685e-05 1.37387e-05 1.7923e-05
-2.03359e-05 1.5541e-05 1.7434e-05
1.17906e-06 1.36488e-06 4.46158e-06
-2.06472e-05 -1.57335e-05 1.75325e-05
-1.90064e-05 -2.32317e-06 1.59519e-05
-1.95666e-05 -5.58728e-06 1.63378e-05
9.05974e-07 -3.24881e-06 7.00886e-06
-4.36759e-06 -1.97969e-05 1.63274e-05
-7.94044e-06 1.38399e-05 1.51068e-05
1.1661e-06 -1.30457e-06 4.34097e-06
1.19391e-05 -1.12327e-05 1.52978e-05
6.13496e-06 -2.27048e-05 1.68259e-05
-1.45279e-05 1.43608e-05 1.63292e-05
7.93221e-06 1.33265e-05 1.49537e-05
1.7942e-06 8.58993e-07 -4.55399e-06
1.73832e-06 -8.25351e-07 -4.46251e-06
4.32077e-07 1.85015e-06 -4.49683e-06
4.36222e-07 -1.78113e-06 -4.35775e-06
-1.84801e-06 2.0971e-08 -4.42404e-06
-1.12341e-06 -1.30924e-06 -4.15258e-06
-1.15954e-06 1.30717e-06 -4.20138e-06
-2.25212e-05 -7.29071e-06 -1.70051e-05
-2.22045e-05 7.3746e-06 -1.69738e-05
-4.86192e-06 2.2907e-05 -1.69423e-05
-4.85941e-06 -2.31402e-05 -1.69691e-05
1.74279e-05 1.5641e-05 -1.69351e-05
1.75755e-05 -1.55419e-05 -1.69443e-05
2.10817e-05 3.16528e-06 -1.633e-05
-1.39587e-05 1.71577e-05 -1.64839e-05
-1.35966e-05 -1.67476e-05 -1.64155e-05
7.77069e-06 1.98273e-05 -1.63368e-05
7.68762e-06 -2.03179e-05 -1.64081e-05
2.14806e-05 -3.44527e-06 -1.64058e-05
-2.1111e-05 6.58838e-09 -1.62523e-05
-2.24282e-05 1.10038e-05 -1.74584e-05
-1.87579e-05 9.25818e-06 -1.66323e-05
-1.79896e-05 5.79774e-06 -1.60417e-05
-1.49897e-05 7.45119e-06 -1.54918e-05
-1.423e-05 4.3094e-06 -1.48351e-05
-1.1537e-05 5.74609e-06 -1.41e-05
-1.08622e-05 3.0699e-06 -1.33786e-05
-8.40365e-06 4.30649e-06 -1.24091e-05
-9.06228e-06 7.01609e-06 -1.34614e-05
-6.20641e-06 5.49055e-06 -1.16935e-05
-6.83092e-06 8.25259e-06 -1.30849e-05
-4.28299e-06 6.67738e-06 -1.14549e-05
-4.80186e-06 9.61361e-06 -1.30989e-05
-2.40178e-06 7.99632e-06 -1.17275e-05
-2.81395e-06 1.11715e-05 -1.348e-05
-4.756e-07 9.59892e-06 -1.25058e-05
-7.38652e-07 1.30019e-05 -1.4147e-05
1.73173e-06 1.15222e-05 -1.35401e-05
-5.53686e-06 1.27053e-05 -1.44423e-05
1.6857e-06 8.22704e-06 -1.17521e-05
4.00571e-06 1.01248e-05 -1.3156e-05
3.70672e-06 7.10059e-06 -1.14827e-05
6.06973e-06 8.97012e-06 -1.31184e-05
5.76897e-06 6.10907e-06 -1.17401e-05
8.36129e-06 8.02342e-06 -1.34972e-05
8.10871e-06 5.19724e-06 -1.25052e-05
1.09582e-05 7.0998e-06 -1.41522e-05
1.07501e-05 4.32446e-06 -1.35042e-05
8.53385e-06 1.10418e-05 -1.44662e-05
7.94065e-06 2.64473e-06 -1.1732e-05
1.06501e-05 1.73787e-06 -1.31091e-05
7.95164e-06 3.58894e-07 -1.146e-05
1.08106e-05 -7.59404e-07 -1.31292e-05
8.11467e-06 -1.93852e-06 -1.17137e-05
1.11025e-05 -3.31413e-06 -1.3489e-05
8.47294e-06 -4.42566e-06 -1.24489e-05
1.15081e-05 -6.00521e-06 -1.41146e-05
8.95901e-06 -7.14086e-06 -1.34332e-05
6.14981e-06 -5.49647e-06 -1.16458e-05
6.64704e-06 -8.30405e-06 -1.30233e-05
4.10672e-06 -6.59095e-06 -1.13153e-05
4.52508e-06 -9.55454e-06 -1.29933e-05
2.24312e-06 -7.86121e-06 -1.16019e-05
2.48578e-06 -1.10061e-05 -1.3356e-05
2.25366e-07 -9.37723e-06 -1.23584e-05
3.30125e-07 -1.27747e-05 -1.40391e-05
-1.91619e-06 -1.1155e-05 -1.33821e-05
-1.84176e-06 -7.92456e-06 -1.15867e-05
-4.16951e-06 -9.87864e-06 -1.30901e-05
-3.81536e-06 -6.73299e-06 -1.13215e-05
-6.34807e-06 -8.66534e-06 -1.31044e-05
-5.8935e-06 -5.70013e-06 -1.16329e-05
-8.503e-06 -7.43865e-06 -1.33848e-05
-8.17063e-06 -4.72984e-06 -1.24134e-05
-1.10999e-05 -6.40523e-06 -1.40751e-05
-4.37337e-06 -1.31283e-05 -1.4439e-05
-1.0813e-05 -3.65208e-06 -1.34443e-05
7.22894e-06 -1.13772e-05 -1.42784e-05
-7.74458e-06 1.98342e-06 -1.14974e-05
-1.32213e-05 1.03546e-06 -1.42163e-05
1.72976e-06 1.50887e-05 -1.49576e-05
1.37735e-05 4.62425e-07 -1.43932e-05
1.38485e-05 6.10249e-06 -1.49371e-05
-9.69786e-06 1.02002e-05 -1.45379e-05
-5.41796e-06 -3.1988e-06 -1.01861e-05
-1.17182e-05 -9.30092e-06 -1.48946e-05
1.1887e-05 -8.76362e-06 -1.47926e-05
1.47875e-05 -7.47651e-06 -1.54088e-05
-1.39651e-05 -5.24593e-06 -1.48671e-05
2.79688e-06 -1.45218e-05 -1.48017e-05
4.24696e-07 -1.65058e-05 -1.54032e-05
3.51968e-06 4.3985e-06 -9.58492e-06
1.4016e-05 9.30265e-06 -1.54971e-05
1.79376e-05 8.14813e-06 -1.63059e-05
-1.56815e-05 1.13996e-05 -1.62389e-05
-1.09451e-06 1.67756e-05 -1.55008e-05
1.9075e-06 1.96291e-05 -1.63163e-05
-2.09262e-06 5.22193e-06 -9.60141e-06
5.55591e-06 -7.84882e-07 -9.59797e-06
3.5872e-06 -3.68485e-06 -9.08559e-06
-1.78027e-06 -5.1804e-06 -9.45336e-06
-2.24766e-05 -1.10149e-05 -1.74792e-05
-1.88052e-05 -9.24492e-06 -1.66563e-05
2.11554e-05 1.41696e-05 -1.75104e-05
2.07613e-05 -1.43225e-05 -1.74404e-05
-1.76501e-06 -2.54555e-05 -1.75158e-05
-1.68252e-06 2.54195e-05 -1.75204e-05
1.77197e-05 -1.19113e-05 -1.66924e-05
2.06532e-05 -1.07551e-05 -1.7121e-05
3.77697e-06 -1.89925e-05 -1.61449e-05
7.68749e-07 -2.03535e-05 -1.64882e-05
-1.94122e-05 -1.2655e-05 -1.71482e-05
-1.37365e-05 -2.30783e-06 -1.44773e-05
-1.65992e-05 -3.70291e-06 -1.54831e-05
-1.03798e-05 -1.09681e-06 -1.29571e-05
2.44603e-05 1.1077e-05 -1.76564e-05
2.55058e-05 -1.24077e-05 -1.78527e-05
2.64968e-06 2.67353e-05 -1.76652e-05
2.52141e-06 -2.64228e-05 -1.76341e-05
3.34039e-06 -2.30404e-05 -1.70343e-05
-2.05466e-06 -1.83269e-05 -1.59563e-05
4.06015e-06 2.38001e-05 -1.71355e-05
2.26223e-05 8.38268e-06 -1.71244e-05
4.61531e-06 1.73201e-05 -1.57328e-05
1.44326e-05 -1.31244e-05 -1.61429e-05
-1.57937e-05 -1.09888e-05 -1.62199e-05
-1.68064e-05 -3.81589e-07 -1.5383e-05
1.73126e-05 4.68937e-06 -1.57312e-05
6.55394e-08 -6.38961e-06 -1.02715e-05
1.74231e-06 -4.85015e-06 -9.09609e-06
5.85257e-06 -2.93657e-06 -1.03823e-05
-2.14524e-05 3.75215e-06 -1.64644e-05
5.73154e-06 -1.62809e-05 -1.55133e-05
9.08698e-06 -1.75059e-05 -1.60032e-05
1.75787e-05 1.1886e-05 -1.66775e-05
1.39998e-05 -1.63885e-05 -1.64068e-05
1.07442e-05 -1.37944e-05 -1.55558e-05
-3.54922e-06 -4.22167e-06 -9.50453e-06
5.40101e-06 1.1389e-06 -9.50282e-06
5.21991e-06 3.22403e-06 -1.00512e-05
-1.75002e-06 -2.83638e-05 -1.78814e-05
1.89272e-06 5.30076e-06 -9.58825e-06
-1.13869e-07 6.10718e-06 -1.00427e-05
-3.78625e-06 4.12919e-06 -9.5822e-06
-5.62469e-06 3.03527e-06 -1.02893e-05
-5.16727e-06 1.04104e-06 -9.21725e-06
-7.53e-06 -6.17628e-08 -1.11768e-05
-4.33583e-06 -8.10547e-07 -8.38515e-06
-3.1096e-06 1.87294e-06 -7.37694e-06
-2.20896e-05 -3.60938e-06 -1.65214e-05
2.34142e-05 -1.56928e-05 -1.78407e-05
-1.5077e-06 2.11758e-05 -1.66873e-05
2.127e-05 -8.45576e-08 -1.62315e-05
1.7629e-05 -1.64747e-06 -1.55871e-05
1.73544e-05 -4.94364e-06 -1.57762e-05
2.18995e-05 -7.45416e-06 -1.69188e-05
-2.319e-05 -1.42592e-05 -1.78372e-05
1.73314e-05 1.64955e-06 -1.55142e-05
-1.73422e-06 2.84824e-05 -1.78986e-05
-4.22211e-07 3.68462e-06 -7.49823e-06
2.37799e-05 1.57472e-05 -1.78891e-05
-1.7504e-05 1.56477e-05 -1.69801e-05
-1.06304e-05 -1.84733e-05 -1.62608e-05
-1.01035e-05 -1.43479e-05 -1.55773e-05
-7.51071e-06 -1.61011e-05 -1.56277e-05
-7.32481e-06 -2.01283e-05 -1.64009e-05
-1.07087e-05 1.85424e-05 -1.62725e-05
-1.03514e-05 1.43897e-05 -1.5625e-05
-7.77546e-06 2.05004e-05 -1.64498e-05
-4.25455e-06 1.86168e-05 -1.60585e-05
1.07639e-05 1.83526e-05 -1.62319e-05
1.38972e-05 1.69413e-05 -1.64366e-05
1.40474e-05 1.29778e-05 -1.60568e-05
-7.36445e-06 1.62947e-05 -1.56442e-05
1.05293e-05 1.45527e-05 -1.56509e-05
7.75175e-06 1.60986e-05 -1.56196e-05
-3.11748e-06 -1.89938e-06 -7.39607e-06
-7.2605e-06 -1.24268e-05 -1.46307e-05
3.00961e-06 4.03734e-08 -6.60355e-06
4.87446e-06 1.3528e-05 -1.46236e-05
1.40815e-05 -2.26128e-06 -1.4576e-05
-1.72964e-05 -1.52221e-05 -1.69507e-05
-1.73732e-05 2.42128e-06 -1.56034e-05
-1.22094e-05 8.91536e-06 -1.49489e-05
-7.70849e-06 -2.29336e-06 -1.15592e-05
-1.24546e-05 1.18172e-05 -1.55455e-05
-1.42785e-07 -3.75546e-06 -7.55715e-06
2.73112e-06 2.27282e-06 -7.25478e-06
-2.00465e-06 -1.46562e-05 -1.48135e-05
9.36874e-06 -1.00722e-05 -1.43949e-05
1.38661e-05 3.15906e-06 -1.45716e-05
-7.34292e-06 1.12037e-05 -1.42657e-05
4.99916e-06 -1.27798e-05 -1.43748e-05
1.10362e-05 1.04346e-05 -1.49252e-05
-3.59785e-06 1.4691e-05 -1.49136e-05
-4.63725e-06 -1.66233e-05 -1.55544e-05
-1.95142e-05 1.2897e-05 -1.71663e-05
-2.31348e-05 1.48629e-05 -1.7848e-05
-1.291e-05 -1.26909e-05 -1.58181e-05
3.76205e-06 -1.58665e-06 -7.91008e-06
1.76496e-06 2.92323e-06 -7.08722e-06
-9.23411e-06 -1.06136e-05 -1.45373e-05
1.7283e-06 -2.82407e-06 -6.93379e-06
9.94949e-07 2.41256e-05 -1.73135e-05
2.13756e-05 1.1198e-05 -1.73036e-05
-1.46703e-05 -7.95644e-06 -1.54908e-05
1.37134e-05 -4.7882e-06 -1.46961e-05
-1.91051e-06 -2.17711e-05 -1.6808e-05
1.80672e-05 -8.42233e-06 -1.63461e-05
-1.66853e-05 -6.33105e-06 -1.57879e-05
-4.33032e-07 -1.9229e-06 -4.80033e-06
-1.80596e-06 2.99642e-06 -7.18e-06
-2.50601e-05 -1.29863e-05 -1.79268e-05
-2.51353e-05 -1.45119e-05 -1.80066e-05
-2.50533e-05 1.30382e-05 -1.79106e-05
-2.51261e-05 1.46546e-05 -1.79866e-05
-1.649e-06 -3.12587e-06 -7.21275e-06
6.33042e-06 1.13729e-05 -1.4082e-05
5.3381e-07 -2.40948e-05 -1.73072e-05
-5.22937e-07 1.81008e-06 -4.6468e-06
7.41037e-06 -1.43494e-05 -1.51581e-05
2.33109e-05 -1.32139e-05 -1.77335e-05
2.36408e-05 -1.05416e-05 -1.74957e-05
1.19932e-05 -1.82181e-05 -1.6299e-05
1.47358e-05 -1.01505e-05 -1.58011e-05
-1.00309e-05 1.00163e-06 -1.27597e-05
-1.74053e-06 -8.16146e-07 -4.72527e-06
7.69317e-07 3.70958e-06 -7.57614e-06
2.34382e-06 -1.9978e-06 -6.55786e-06
2.01642e-05 5.90027e-06 -1.64591e-05
5.07181e-06 2.06039e-05 -1.65015e-05
3.42133e-07 -2.76893e-05 -1.78586e-05
-1.73175e-06 7.09322e-07 -4.6081e-06
-3.21255e-06 6.23247e-07 -6.82682e-06
3.5784e-06 1.4759e-06 -7.63965e-06
4.99258e-07 2.83332e-05 -1.79318e-05
2.47685e-05 1.37387e-05 -1.7923e-05
-2.03359e-05 1.5541e-05 -1.7434e-05
1.17906e-06 1.36488e-06 -4.46158e-06
-2.06472e-05 -1.57335e-05 -1.75325e-05
-1.90064e-05 -2.32317e-06 -1.59519e-05
-1.95666e-05 -5.58728e-06 -1.63378e-05
9.05974e-07 -3.24881e-06 -7.00886e-06
-4.36759e-06 -1.97969e-05 -1.63274e-05
-7.94044e-06 1.38399e-05 -1.51068e-05
1.1661e-06 -1.30457e-06 -4.34097e-06
1.19391e-05 -1.12327e-05 -1.52978e-05
6.13496e-06 -2.27048e-05 -1.68259e-05
-1.45279e-05 1.43608e-05 -1.63292e-05
7.93221e-06 1.33265e-05 -1.49537e-05
SCALARS effective_fluid_pressure_TPM float
LOOKUP_TABLE default
665
665
665
665
665
665
665
665
665
665
665
665
665
665
133
665
665
665
665
665
665
665
665
665
665
665
665
665
665
133
665
560.432
520.818
502.976
502.747
519.945
560.053
665
562.097
520.912
503.418
503.528
520.844
561.719
665
559.72
519.816
502.921
503.138
521.313
561.735
665
558.977
519.161
501.71
502.406
519.01
559.565
665
558.617
520.1
502.042
501.974
519.533
558.057
665
558.773
520.114
502.215
502.076
519.521
559.779
133
133
133
133
133
133
665
560.432
520.818
502.976
502.747
519.945
560.053
665
562.097
520.912
503.418
503.528
520.844
561.719
665
559.72
519.816
502.921
503.138
521.313
561.735
665
558.977
519.161
501.71
502.406
519.01
559.565
665
558.617
520.1
502.042
501.974
519.533
558.057
665
558.773
520.114
502.215
502.076
519.521
559.779
133
133
133
133
133
133
228.318
226.387
227.101
224.167
225.583
219.902
220.919
529.306
528.317
526.697
528.075
526.724
527.777
498.87
503.714
501.753
499.11
501.625
501.407
494.495
562.609
519.123
495.187
480.895
461.52
443.437
425.203
402.27
427.428
385.41
417.895
379.754
418.058
386.095
427.546
404.449
444.541
429.235
450.423
386.705
419.459
380.35
418.47
386.335
427.919
404.377
444.652
428.319
451.019
386.179
418.322
379.766
418.678
385.702
427.755
403.07
443.715
426.61
384.195
416.294
376.448
415.501
383.167
424.576
400.995
441.864
425.383
382.903
417.934
376.712
418.252
383.988
425.423
402.362
442.835
450.812
426.883
446.171
380.874
444.836
465.448
448.905
464.922
453.572
351.035
463.663
461.195
478.599
462.931
460.802
478.503
337.403
480.975
505.997
503.758
481.041
506.304
337.816
337.628
326.285
334.54
563.484
519.798
567.681
562.472
567.998
567.851
521.945
542.839
498.776
513.875
542.185
451.614
477.731
414.811
579.61
611.086
579.763
576.127
534.683
494.625
538.354
538.051
485.189
498.263
503.474
473.297
485.237
352.881
326.535
355.312
503.595
477.872
488.518
521.015
502.178
478.071
335.665
335.529
347.831
613.501
337.504
347.702
337.39
353.337
329.31
373.398
310.771
288.886
504.86
608.441
521.236
493.88
478.485
486.506
526.63
600.409
476.722
615.952
291.496
615.85
528.857
494.691
478.391
479.565
501.466
494.997
479.592
502.661
495.321
493.902
502.413
495.394
480.039
480.205
479.207
289.392
454.746
272.03
455.153
453.782
527.139
479.626
465.371
382.244
480.657
292.77
286.178
461.628
449.785
454.129
446.007
448.842
463.755
463.412
480.103
543.579
601.769
487.641
300.406
282.556
453.165
279.255
552.354
552.113
480.919
458.168
526.358
508.322
488.734
233.793
284.654
614.56
636.352
615.193
636.708
285.376
441.492
553.193
230.547
467.707
590.342
566.134
495.97
490.192
410.187
232.182
293.196
271.213
508.036
509.332
607.875
229.724
277.066
294.532
618.927
618.84
558.623
226.581
562.632
488.466
503.537
280.94
504.206
466.533
224.065
473.735
519.715
503.123
462.599
228.318
226.387
227.101
224.167
225.583
219.902
220.919
529.306
528.317
526.697
528.075
526.724
527.777
498.87
503.714
501.753
499.11
501.625
501.407
494.495
562.609
519.123
495.187
480.895
461.52
443.437
425.203
402.27
427.428
385.41
417.895
379.754
418.058
386.095
427.546
404.449
444.541
429.235
450.423
386.705
419.459
380.35
418.47
386.335
427.919
404.377
444.652
428.319
451.019
386.179
418.322
379.766
418.678
385.702
427.755
403.07
443.715
426.61
384.195
416.294
376.448
415.501
383.167
424.576
400.995
441.864
425.383
382.903
417.934
376.712
418.252
383.988
425.423
402.362
442.835
450.812
426.883
446.171
380.874
444.836
465.448
448.905
464.922
453.572
351.035
463.663
461.195
478.599
462.931
460.802
478.503
337.403
480.975
505.997
503.758
481.041
506.304
337.816
337.628
326.285
334.54
563.484
519.798
567.681
562.472
567.998
567.851
521.945
542.839
498.776
513.875
542.185
451.614
477.731
414.811
579.61
611.086
579.763
576.127
534.683
494.625
538.354
538.051
485.189
498.263
503.474
473.297
485.237
352.881
326.535
355.312
503.595
477.872
488.518
521.015
502.178
478.071
335.665
335.529
347.831
613.501
337.504
347.702
337.39
353.337
329.31
373.398
310.771
288.886
504.86
608.441
521.236
493.88
478.485
486.506
526.63
600.409
476.722
615.952
291.496
615.85
528.857
494.691
478.391
479.565
501.466
494.997
479.592
502.661
495.321
493.902
502.413
495.394
480.039
480.205
479.207
289.392
454.746
272.03
455.153
453.782
527.139
479.626
465.371
382.244
480.657
292.77
286.178
461.628
449.785
454.129
446.007
448.842
463.755
463.412
480.103
543.579
601.769
487.641
300.406
282.556
453.165
279.255
552.354
552.113
480.919
458.168
526.358
508.322
488.734
233.793
284.654
614.56
636.352
615.193
636.708
285.376
441.492
553.193
230.547
467.707
590.342
566.134
495.97
490.192
410.187
232.182
293.196
271.213
508.036
509.332
607.875
229.724
277.066
294.532
618.927
618.84
558.623
226.581
562.632
488.466
503.537
280.94
504.206
466.533
224.065
473.735
519.715
503.123
462.599

CELL_DATA 563
TENSORS stress float
164.674 -24.9249 -4.96433e-12
-24.9249 28.1672 -1.71951e-12
-4.96433e-12 -1.71951e-12 -12.5877

-40.3441 -21.3228 -1.34071e-12
-21.3228 -7.35559 -1.01548e-12
-1.34071e-12 -1.01548e-12 -10.2429

-9.95041 28.0544 9.60121e-12
28.0544 -1.1158 -5.18696e-13
9.60121e-12 -5.18696e-13 -6.37403

-40.43 -29.8417 1.21917e-12
-29.8417 -12.8453 -2.4866e-12
1.21917e-12 -2.4866e-12 -10.6091

-22.6863 19.9304 -4.0945e-13
19.9304 -1.93936 1.00475e-12
-4.0945e-13 1.00475e-12 -23.0148

-27.1557 -18.0823 2.26397e-12
-18.0823 15.8881 -3.04527e-12
2.26397e-12 -3.04527e-12 -6.4249

161.325 26.4898 -5.32907e-12
26.4898 28.0436 6.28238e-12
-5.32907e-12 6.28238e-12 -13.247

-5.96877 29.9648 -7.56728e-13
29.9648 -10.1174 -2.49578e-12
-7.56728e-13 -2.49578e-12 -7.28824

34.6388 5.48517 -2.68585e-12
5.48517 -19.1129 -2.70106e-12
-2.68585e-12 -2.70106e-12 -4.13563

11.8598 -7.47791 -9.38509e-14
-7.47791 -48.2926 -1.38208e-12
-9.38509e-14 -1.38208e-12 -8.95813

104.24 16.317 -8.47914e-13
16.317 -8.4453 3.73568e-12
-8.47914e-13 3.73568e-12 -22.4508

-34.6493 -13.4576 2.45641e-12
-13.4576 18.965 -1.59991e-12
2.45641e-12 -1.59991e-12 -7.19257

-6.03388 27.8416 1.59398e-12
27.8416 -4.5948 -6.92779e-14
1.59398e-12 -6.92779e-14 -6.17164

-35.5637 -14.3444 -1.54434e-12
-14.3444 7.84538 2.83507e-12
-1.54434e-12 2.83507e-12 -9.14208

-23.654 33.3015 2.09314e-13
33.3015 -24.9876 1.27065e-12
2.09314e-13 1.27065e-12 -21.3616

21.3139 0.561466 3.45797e-13
0.561466 -32.3525 -2.93469e-14
3.45797e-13 -2.93469e-14 -5.6029

-48.9629 -17.9677 -1.88582e-12
-17.9677 6.34025 1.32043e-12
-1.88582e-12 1.32043e-12 -12.9536

11.6608 -2.66519 -9.44726e-13
-2.66519 -43.2645 -1.82276e-12
-9.44726e-13 -1.82276e-12 -8.0471

-11.3652 26.687 4.0045e-12
26.687 19.5168 -3.82213e-12
4.0045e-12 -3.82213e-12 -6.10391

21.7672 -4.19771 9.65154e-13
-4.19771 -35.3153 5.17038e-12
9.65154e-13 5.17038e-12 -6.75595

-24.4961 8.67354 -2.95408e-12
8.67354 32.1322 5.35276e-13
-2.95408e-12 5.35276e-13 -4.94738

-11.8074 6.28052 -6.26372e-12
6.28052 -11.9575 -2.95867e-12
-6.26372e-12 -2.95867e-12 -75.5515

22.7462 1.87656 2.18492e-13
1.87656 -33.4904 -2.22792e-12
2.18492e-13 -2.22792e-12 -6.69188

-12.3997 -27.7268 1.34589e-12
-27.7268 1.59417 1.1422e-12
1.34589e-12 1.1422e-12 -6.61695

21.3066 6.8519 1.14871e-13
6.8519 -34.3248 -6.1909e-12
1.14871e-13 -6.1909e-12 -6.821

-37.9181 19.117 2.49874e-13
19.117 2.65287 2.62427e-12
2.49874e-13 2.62427e-12 -9.46985

106.647 4.1836 1.82373e-12
4.1836 20.6083 -1.79146e-12
1.82373e-12 -1.79146e-12 -12.0453

-5.30982 30.7562 -8.20677e-13
30.7562 -7.2828 7.53175e-13
-8.20677e-13 7.53175e-13 -7.45493

27.8925 37.0944 -1.62122e-12
37.0944 26.4715 -2.13281e-12
-1.62122e-12 -2.13281e-12 -8.64175

-9.4395 10.324 -2.59052e-13
10.324 -32.9081 2.59622e-12
-2.59052e-13 2.59622e-12 -49.4707

19.8328 14.2192 3.83752e-12
14.2192 -29.373 3.3844e-12
3.83752e-12 3.3844e-12 -6.01346

-4.22471 -17.7901 -3.34074e-12
-17.7901 59.6774 -2.78059e-12
-3.34074e-12 -2.78059e-12 -8.48561

66.3098 -42.1201 4.583e-12
-42.1201 71.1667 4.44089e-12
4.583e-12 4.44089e-12 -11.2464

-48.2006 5.98109 -2.31271e-12
5.98109 7.26729 3.81354e-12
-2.31271e-12 3.81354e-12 -41.011

-26.2877 -4.83204 2.73441e-12
-4.83204 1.75611 -6.83305e-12
2.73441e-12 -6.83305e-12 -37.7773

-1.47106 21.0256 -2.79865e-12
21.0256 -39.4951 5.229e-12
-2.79865e-12 5.229e-12 -41.0768

-43.9543 5.05896 3.86047e-12
5.05896 0.5134 -2.83743e-12
3.86047e-12 -2.83743e-12 -52.1505

-2.76544 -9.17384 7.63537e-12
-9.17384 -20.762 -2.92405e-13
7.63537e-12 -2.92405e-13 -35.8737

-3.98237 -28.0071 -4.12115e-13
-28.0071 -4.61424 1.04923e-12
-4.12115e-13 1.04923e-12 -6.0071

65.6234 41.5391 7.96518e-12
41.5391 73.1954 4.67537e-12
7.96518e-12 4.67537e-12 -10.958

60.1752 -17.9586 -6.05382e-12
-17.9586 0.104671 -4.30589e-12
-6.05382e-12 -4.30589e-12 -8.05893

-41.7831 -3.69873 -2.66454e-15
-3.69873 -1.18575 -7.61169e-13
-2.66454e-15 -7.61169e-13 -52.6847

-14.5825 19.5429 -5.57317e-12
19.5429 -28.5425 -2.82056e-12
-5.57317e-12 -2.82056e-12 -52.7928

18.1444 -12.275 2.15768e-12
-12.275 -29.9132 1.68798e-12
2.15768e-12 1.68798e-12 -6.23552

38.1838 -43.3208 1.54898e-12
-43.3208 41.8139 -1.75267e-12
1.54898e-12 -1.75267e-12 -14.5627

58.1629 -18.0728 -5.07683e-12
-18.0728 -2.31666 8.79889e-13
-5.07683e-12 8.79889e-13 -7.92326

-21.4614 17.094 3.47426e-13
17.094 30.3318 -1.893e-12
3.47426e-13 -1.893e-12 -5.74243

-11.3855 19.3485 -2.71102e-12
19.3485 25.5136 -1.91254e-13
-2.71102e-12 -1.91254e-13 -3.93514

20.7908 -16.3065 -1.3524e-12
-16.3065 -33.1321 -1.32635e-13
-1.3524e-12 -1.32635e-13 -7.32515

12.6104 -34.2037 -8.05282e-14
-34.2037 46.4488 3.67114e-12
-8.05282e-14 3.67114e-12 -10.4057

62.3813 19.192 -8.76336e-14
19.192 2.8 -2.78888e-12
-8.76336e-14 -2.78888e-12 -8.422

46.5256 -25.3015 -5.59316e-12
-25.3015 5.12392 -2.60621e-12
-5.59316e-12 -2.60621e-12 -5.6207

-31.9006 19.4778 -1.20718e-12
19.4778 -4.28227 4.21589e-13
-1.20718e-12 4.21589e-13 -26.076

37.0458 29.665 -9.26074e-13
29.665 14.5083 -3.63561e-13
-9.26074e-13 -3.63561e-13 -5.44301

-27.4422 -21.8124 -7.13711e-12
-21.8124 -8.2386 1.34205e-12
-7.13711e-12 1.34205e-12 -25.2394

64.89 -42.7316 -1.71241e-12
-42.7316 44.0936 1.55135e-12
-1.71241e-12 1.55135e-12 -9.50306

-27.7449 5.45079 2.94831e-12
5.45079 2.668 3.2457e-12
2.94831e-12 3.2457e-12 -38.2823

-5.57299 -5.33292 -1.52115e-12
-5.33292 57.4056 -3.37626e-12
-1.52115e-12 -3.37626e-12 -5.46008

-0.207703 10.3861 5.67842e-13
10.3861 -24.8372 -1.81713e-12
5.67842e-13 -1.81713e-12 -38.3439

-26.5019 21.4217 -1.2097e-12
21.4217 12.218 -8.71007e-13
-1.2097e-12 -8.71007e-13 -6.88416

4.72246 5.75754 1.52693e-12
5.75754 -56.0414 -6.3934e-13
1.52693e-12 -6.3934e-13 -13.9882

0.542993 11.4593 2.69503e-12
11.4593 -34.0618 -4.4406e-12
2.69503e-12 -4.4406e-12 -14.8424

106.383 31.8321 -3.82035e-12
31.8321 37.8436 -2.72493e-12
-3.82035e-12 -2.72493e-12 -7.48619

-35.4982 -6.03923 -4.10575e-12
-6.03923 10.6018 -3.08376e-12
-4.10575e-12 -3.08376e-12 -13.4826

-35.3632 9.52318 5.7249e-12
9.52318 1.23516 -6.64269e-12
5.7249e-12 -6.64269e-12 -14.9626

-42.5981 -2.8839 2.70439e-12
-2.8839 21.1095 -1.12384e-12
2.70439e-12 -1.12384e-12 -11.2465

-44.9135 23.3993 -3.27368e-12
23.3993 -5.89273 7.30971e-13
-3.27368e-12 7.30971e-13 -13.9292

9.9707 8.46646 9.90911e-13
8.46646 -42.3918 4.00865e-13
9.90911e-13 4.00865e-13 -9.09013

-12.3461 -28.2511 3.93966e-12
-28.2511 1.6813 4.96196e-13
3.93966e-12 4.96196e-13 -6.68823

1.30864 -1.71246 -2.05066e-12
-1.71246 -55.4613 -2.21105e-12
-2.05066e-12 -2.21105e-12 -11.3147

-31.8903 -19.2538 6.36972e-13
-19.2538 -4.5912 1.18986e-12
6.36972e-13 1.18986e-12 -25.9455

-27.9671 21.3077 1.82994e-12
21.3077 -8.36791 -1.2925e-12
1.82994e-12 -1.2925e-12 -26.0038

-0.664274 -16.5925 -5.74267e-12
-16.5925 61.6943 3.6889e-12
-5.74267e-12 3.6889e-12 -7.95769

-0.651271 -27.9405 7.09477e-12
-27.9405 -21.3721 -3.51067e-12
7.09477e-12 -3.51067e-12 -12.7968

-14.1028 -25.1435 2.17722e-12
-25.1435 7.40483 1.60464e-12
2.17722e-12 1.60464e-12 -5.24941

91.7162 -31.7247 1.01371e-12
-31.7247 19.4915 -2.14495e-12
1.01371e-12 -2.14495e-12 -16.3298

-33.715 3.22456 2.88954e-13
3.22456 9.20321 -9.89431e-13
2.88954e-13 -9.89431e-13 -18.5613

2.74583 28.9493 2.36255e-13
28.9493 -24.4302 -1.2023e-12
2.36255e-13 -1.2023e-12 -11.3241

-38.4466 19.6678 -7.69755e-14
19.6678 5.22813 1.76925e-12
-7.69755e-14 1.76925e-12 -9.24749

50.2052 8.00368 1.68399e-12
8.00368 -16.9853 1.41783e-12
1.68399e-12 1.41783e-12 -7.07941

60.0512 -33.9526 4.80801e-12
-33.9526 33.7927 -1.84386e-12
4.80801e-12 -1.84386e-12 -6.98803

-18.9709 -10.5849 3.71851e-12
-10.5849 -0.536778 4.87965e-12
3.71851e-12 4.87965e-12 -25.4203

-33.9247 23.9026 -3.8772e-12
23.9026 -12.0303 1.91241e-13
-3.8772e-12 1.91241e-13 -14.5459

58.1757 -32.4005 2.8777e-12
-32.4005 18.0903 -8.11203e-13
2.8777e-12 -8.11203e-13 -10.1395

66.8828 10.7967 -1.29437e-12
10.7967 8.50517 2.55411e-12
-1.29437e-12 2.55411e-12 -5.09187

7.66999 -21.2165 4.80031e-12
-21.2165 88.4998 -7.83492e-12
4.80031e-12 -7.83492e-12 -11.8641

-34.0045 14.4296 -1.13635e-12
14.4296 20.2384 9.72259e-13
-1.13635e-12 9.72259e-13 -7.55976

8.47167 23.1509 1.92202e-12
23.1509 -26.0818 1.37756e-12
1.92202e-12 1.37756e-12 -11.306

34.8779 42.2197 -4.07378e-12
42.2197 46.2139 -1.03029e-13
-4.07378e-12 -1.03029e-13 -14.4242

-4.39411 16.4997 6.62663e-12
16.4997 -35.5204 1.33012e-11
6.62663e-12 1.33012e-11 -73.2228

-5.99547 -4.11072 -6.02511e-12
-4.11072 57.9663 -1.05634e-12
-6.02511e-12 -1.05634e-12 -5.45232

-1.82082 -16.6253 6.33197e-12
-16.6253 -39.3776 -2.6823e-13
6.33197e-12 -2.6823e-13 -74.0453

-3.33433 -27.3341 -5.86139e-12
-27.3341 -30.0275 1.42612e-12
-5.86139e-12 1.42612e-12 -21.5497

8.96392 27.4279 6.66134e-13
27.4279 -30.006 2.95171e-13
6.66134e-13 2.95171e-13 -11.2654

45.7233 -24.4231 -4.66708e-12
-24.4231 5.01436 3.47041e-12
-4.66708e-12 3.47041e-12 -5.2468

10.0887 31.3402 -9.50943e-13
31.3402 47.1765 -8.45546e-13
-9.50943e-13 -8.45546e-13 -9.64933

14.2686 -10.7104 -6.88042e-13
-10.7104 82.8693 -8.90547e-13
-6.88042e-13 -8.90547e-13 -6.45113

-38.6367 21.9736 -3.36028e-13
21.9736 2.93976 9.08903e-14
-3.36028e-13 9.08903e-14 -8.58032

1.19492 16.7987 4.1626e-13
16.7987 -25.7296 1.60227e-12
4.1626e-13 1.60227e-12 -18.5655

-26.5499 15.1604 1.25233e-13
15.1604 18.4499 3.17968e-13
1.25233e-13 3.17968e-13 -5.72079

43.6701 15.9612 -6.89226e-13
15.9612 -7.30071 7.3482e-13
-6.89226e-13 7.3482e-13 -4.08747

12.571 -21.484 -3.13823e-14
-21.484 57.9738 5.49013e-12
-3.13823e-14 5.49013e-12 -4.72233

66.0194 -29.4057 -6.03961e-13
-29.4057 18.6428 -5.38118e-12
-6.03961e-13 -5.38118e-12 -9.3401

-32.3874 -24.5785 9.9476e-13
-24.5785 -7.28615 -9.6693e-13
9.9476e-13 -9.6693e-13 -8.98895

-22.6745 27.4581 2.5017e-13
27.4581 -10.3584 3.33363e-12
2.5017e-13 3.33363e-12 -9.29624

-38.3549 23.1905 -3.95521e-12
23.1905 1.98949 6.28238e-13
-3.95521e-12 6.28238e-13 -8.53634

-51.5566 13.1674 3.7194e-12
13.1674 11.9221 -6.53995e-12
3.7194e-12 -6.53995e-12 -16.4697

23.4878 9.37433 2.49874e-12
9.37433 -29.5035 -3.10966e-12
2.49874e-12 -3.10966e-12 -5.33475

3.7599 -4.66714 4.33875e-12
-4.66714 79.468 -1.4874e-12
4.33875e-12 -1.4874e-12 -9.53649

-44.9342 -36.8267 -9.53608e-13
-36.8267 -19.827 1.06596e-12
-9.53608e-13 1.06596e-12 -14.7771

-16.0923 27.4762 -3.92516e-12
27.4762 1.33471 -5.28762e-13
-3.92516e-12 -5.28762e-13 -6.92929

-5.02672 2.17094 6.40095e-12
2.17094 82.7064 -2.32111e-13
6.40095e-12 -2.32111e-13 -13.4355

69.0699 34.6279 -2.33295e-12
34.6279 15.4954 -4.58241e-12
-2.33295e-12 -4.58241e-12 -10.7102

-31.3624 -22.9802 -3.11854e-12
-22.9802 -4.63625 2.66424e-12
-3.11854e-12 2.66424e-12 -8.54323

11.7435 5.73286 1.98745e-12
5.73286 -48.3417 3.87512e-12
1.98745e-12 3.87512e-12 -8.6527

43.0762 27.2181 -4.08681e-12
27.2181 10.4451 -1.77636e-12
-4.08681e-12 -1.77636e-12 -5.09118

-9.40542 12.7421 5.71794e-12
12.7421 -14.0453 -1.93623e-12
5.71794e-12 -1.93623e-12 -37.0159

70.3594 24.3431 1.06084e-11
24.3431 23.8061 -4.29286e-12
1.06084e-11 -4.29286e-12 -6.80365

-10.5759 -13.0515 -1.16751e-12
-13.0515 -13.9273 3.27146e-12
-1.16751e-12 3.27146e-12 -37.3534

-4.39413 0.779129 5.88241e-12
0.779129 59.4168 -1.42345e-12
5.88241e-12 -1.42345e-12 -4.84095

38.366 -2.23646 -4.42905e-13
-2.23646 -23.8334 -9.58937e-13
-4.42905e-13 -9.58937e-13 -5.84645

3.59096 -15.7616 8.91731e-13
-15.7616 -53.9604 1.26595e-12
8.91731e-13 1.26595e-12 -21.121

-42.2824 24.389 -1.44318e-12
24.389 -11.7371 -1.32561e-12
-1.44318e-12 -1.32561e-12 -11.1784

-46.8142 -13.5366 -2.02615e-13
-13.5366 11.0642 1.82965e-13
-2.02615e-13 1.82965e-13 -12.3606

5.80787 -7.99766 -4.61956e-12
-7.99766 -70.9568 -4.06194e-13
-4.61956e-12 -4.06194e-13 -14.8881

-49.5367 -22.2758 -7.23125e-13
-22.2758 3.74266 2.51384e-12
-7.23125e-13 2.51384e-12 -22.101

-17.4556 -6.60438 -2.43006e-12
-6.60438 -13.1143 -5.40531e-13
-2.43006e-12 -5.40531e-13 -34.7601

-28.7336 -29.9098 9.32291e-13
-29.9098 -9.40085 8.87586e-13
9.32291e-13 8.87586e-13 -9.00714

15.6904 11.4593 -2.48779e-12
11.4593 80.21 -4.95722e-12
-2.48779e-12 -4.95722e-12 -6.53476

42.2996 -28.1613 -2.31874e-12
-28.1613 11.0445 2.32288e-12
-2.31874e-12 2.32288e-12 -5.05455

-47.1692 -13.7655 2.74773e-12
-13.7655 4.19674 6.07129e-12
2.74773e-12 6.07129e-12 -29.2883

2.96323 0.506689 -1.44788e-12
0.506689 -56.8171 4.76456e-12
-1.44788e-12 4.76456e-12 -11.0165

-39.3421 -21.5223 -6.61693e-13
-21.5223 -8.85502 3.60275e-12
-6.61693e-13 3.60275e-12 -14.7797

-40.1974 25.7001 3.71925e-12
25.7001 -14.6938 -1.26066e-12
3.71925e-12 -1.26066e-12 -11.3217

32.2647 -31.481 -2.59111e-12
-31.481 38.4373 3.39047e-12
-2.59111e-12 3.39047e-12 -4.65649

-31.4662 -7.07567 -4.06986e-12
-7.07567 1.70582 6.71433e-12
-4.06986e-12 6.71433e-12 -40.964

36.6383 -33.0928 -2.60532e-14
-33.0928 72.0525 -7.54596e-12
-2.60532e-14 -7.54596e-12 -7.14666

16.6145 -19.1861 3.01981e-14
-19.1861 -25.8846 -7.53767e-13
3.01981e-14 -7.53767e-13 -7.14494

1.50142 1.97478 4.14757e-12
1.97478 -51.3921 3.25665e-15
4.14757e-12 3.25665e-15 -15.379

-12.8631 17.8717 6.63973e-12
17.8717 -16.9598 -4.52793e-12
6.63973e-12 -4.52793e-12 -41.0315

10.7061 20.1938 -1.38556e-12
20.1938 59.4729 -3.68653e-12
-1.38556e-12 -3.68653e-12 -4.36522

4.31282 27.2189 4.24549e-12
27.2189 -16.2289 2.99671e-12
4.24549e-12 2.99671e-12 -8.13431

30.9092 -24.5222 2.55559e-12
-24.5222 -8.14715 6.1009e-12
2.55559e-12 6.1009e-12 -4.88538

-37.7999 -17.842 1.02679e-12
-17.842 2.40017 1.94067e-12
1.02679e-12 1.94067e-12 -9.87591

55.5305 35.0854 1.58925e-12
35.0854 42.356 1.79649e-12
1.58925e-12 1.79649e-12 -6.64005

-40.0225 -21.8329 -7.0477e-13
-21.8329 2.53601 2.32318e-12
-7.0477e-13 2.32318e-12 -9.40545

2.96255 30.8572 3.66166e-12
30.8572 -17.4014 -3.12668e-12
3.66166e-12 -3.12668e-12 -9.08913

18.5378 -25.2514 2.12748e-12
-25.2514 -19.433 3.20159e-12
2.12748e-12 3.20159e-12 -6.35511

-15.6639 -25.1353 -4.64103e-12
-25.1353 5.89368 1.79412e-12
-4.64103e-12 1.79412e-12 -5.78911

42.7286 -18.6976 4.36036e-12
-18.6976 -9.18222 2.0665e-13
4.36036e-12 2.0665e-13 -5.38163

27.4351 -18.858 -6.25278e-13
-18.858 -20.386 5.08186e-12
-6.25278e-13 5.08186e-12 -5.70339

-41.3956 -25.3395 2.74684e-12
-25.3395 -14.9662 1.39189e-12
2.74684e-12 1.39189e-12 -11.5776

29.7845 35.9884 -1.97886e-12
35.9884 25.2285 4.13299e-12
-1.97886e-12 4.13299e-12 -8.6538

-28.5296 15.3831 -1.66533e-12
15.3831 18.5193 1.41812e-12
-1.66533e-12 1.41812e-12 -5.88655

-23.1144 26.4291 -2.41881e-13
26.4291 -12.5534 1.36099e-12
-2.41881e-13 1.36099e-12 -9.96943

-42.1026 25.4738 -4.33625e-12
25.4738 -11.5928 2.01454e-12
-4.33625e-12 2.01454e-12 -11.004

-37.2976 11.6263 -6.68974e-13
11.6263 11.8441 5.00044e-12
-6.68974e-13 5.00044e-12 -9.09042

64.4146 -8.23117 -1.95162e-12
-8.23117 3.18642 -1.79249e-12
-1.95162e-12 -1.79249e-12 -4.25973

8.72588 18.6164 2.92566e-12
18.6164 59.2385 1.93149e-12
2.92566e-12 1.93149e-12 -4.17112

-25.6265 -24.3871 -3.22705e-14
-24.3871 0.456259 -8.72191e-13
-3.22705e-14 -8.72191e-13 -7.22912

-1.15087 25.6775 -5.01762e-12
25.6775 13.7514 -8.70415e-14
-5.01762e-12 -8.70415e-14 -4.09615

32.3835 -35.6481 4.60669e-12
-35.6481 21.6995 2.68822e-12
4.60669e-12 2.68822e-12 -8.49572

59.5569 38.3362 2.99731e-12
38.3362 17.8487 3.08731e-12
2.99731e-12 3.08731e-12 -13.7264

12.1195 -33.3288 -3.60008e-13
-33.3288 42.9244 -5.56592e-14
-3.60008e-13 -5.56592e-14 -9.55192

30.5545 -31.176 -8.01729e-13
-31.176 36.8206 5.07209e-12
-8.01729e-13 5.07209e-12 -4.41426

11.7691 -6.83848 8.34888e-13
-6.83848 -48.843 -2.17285e-12
8.34888e-13 -2.17285e-12 -8.78132

25.275 30.3577 -8.27782e-13
30.3577 41.0983 -8.72783e-13
-8.27782e-13 -8.72783e-13 -4.46486

62.7028 13.3014 -7.95453e-12
13.3014 5.21813 5.25328e-12
-7.95453e-12 5.25328e-12 -4.31419

-7.04177 13.386 1.95399e-12
13.386 61.3644 6.22909e-12
1.95399e-12 6.22909e-12 -8.70455

11.723 -22.3523 -5.04781e-12
-22.3523 55.78 -2.05702e-12
-5.04781e-12 -2.05702e-12 -4.31027

-47.2589 -1.09496 1.21081e-12
-1.09496 12.4068 2.70598e-13
1.21081e-12 2.70598e-13 -22.1568

-5.93452 2.248 -2.49741e-12
2.248 59.0228 -1.8711e-13
-2.49741e-12 -1.8711e-13 -5.27289

6.26009 31.1057 5.90757e-12
31.1057 47.8789 1.49214e-13
5.90757e-12 1.49214e-13 -9.66973

-39.731 12.1116 -2.73007e-12
12.1116 12.8424 2.25597e-13
-2.73007e-12 2.25597e-13 -9.32243

40.7471 -27.662 -3.43784e-12
-27.662 8.34992 5.21479e-12
-3.43784e-12 5.21479e-12 -5.65269

7.53386 20.5575 1.24611e-12
20.5575 -47.469 -1.00394e-12
1.24611e-12 -1.00394e-12 -16.4852

-3.42572 26.2703 3.18738e-12
26.2703 -31.4831 -7.81005e-13
3.18738e-12 -7.81005e-13 -22.2472

15.7761 -18.5745 -3.41534e-12
-18.5745 -30.0275 1.87672e-12
-3.41534e-12 1.87672e-12 -8.19452

4.42448 -1.80935 3.05237e-13
-1.80935 -34.1327 2.58756e-13
3.05237e-13 2.58756e-13 -24.4309

-14.347 -31.8174 -1.87879e-12
-31.8174 -11.938 8.11736e-12
-1.87879e-12 8.11736e-12 -9.06105

56.236 23.3399 -3.42482e-12
23.3399 0.804684 -2.68467e-12
-3.42482e-12 -2.68467e-12 -8.2973

-27.832 30.164 7.85742e-13
30.164 -9.2376 -2.0736e-12
7.85742e-13 -2.0736e-12 -8.81146

-27.008 29.2081 4.76123e-12
29.2081 -9.20255 1.0143e-12
4.76123e-12 1.0143e-12 -8.68883

28.6308 30.6771 7.87518e-13
30.6771 40.4146 -1.12266e-12
7.87518e-13 -1.12266e-12 -4.45761

0.342886 27.0902 -2.68111e-12
27.0902 -19.8576 6.96924e-13
-2.68111e-12 6.96924e-13 -11.7837

64.5308 3.52698 -4.4551e-12
3.52698 -11.8439 3.754e-12
-4.4551e-12 3.754e-12 -10.0277

-14.9039 31.8174 -9.9624e-13
31.8174 -20.7996 -2.51651e-14
-9.9624e-13 -2.51651e-14 -12.4542

-37.956 -12.5983 2.8962e-13
-12.5983 8.18099 -7.69755e-15
2.8962e-13 -7.69755e-15 -14.0278

-0.473643 24.2754 -6.05827e-12
24.2754 -30.0035 -1.28016e-12
-6.05827e-12 -1.28016e-12 -20.7673

-23.7319 -29.5812 9.50351e-14
-29.5812 -11.9356 -2.33887e-14
9.50351e-14 -2.33887e-14 -8.85419

-38.1617 -4.89565 -3.55751e-12
-4.89565 18.8479 -1.69761e-12
-3.55751e-12 -1.69761e-12 -11.7368

69.9694 -24.569 3.7114e-12
-24.569 18.0268 -2.62782e-12
3.7114e-12 -2.62782e-12 -7.04937

39.9902 29.7086 4.32602e-12
29.7086 13.4744 7.59452e-12
4.32602e-12 7.59452e-12 -5.22538

-4.31052 14.7044 -4.69254e-14
14.7044 60.5913 -2.06057e-12
-4.69254e-14 -2.06057e-12 -8.41022

1.61076 -1.14027 1.33271e-12
-1.14027 -56.128 -4.19376e-12
1.33271e-12 -4.19376e-12 -11.22

9.6142 0.00199418 3.82805e-13
0.00199418 -44.7694 1.18252e-12
3.82805e-13 1.18252e-12 -8.45152

-31.0898 23.1303 3.5912e-13
23.1303 -4.34109 2.76016e-12
3.5912e-13 2.76016e-12 -8.47189

-34.7605 23.8733 -2.20002e-12
23.8733 -13.1979 -5.52095e-13
-2.20002e-12 -5.52095e-13 -14.8184

-43.383 -24.3817 -1.84948e-12
-24.3817 -12.6137 -2.47269e-12
-1.84948e-12 -2.47269e-12 -11.4793

-39.0712 -0.675584 8.81628e-13
-0.675584 21.0462 2.7498e-12
8.81628e-13 2.7498e-12 -10.5036

-40.809 25.593 -6.0707e-13
25.593 -13.226 5.16032e-13
-6.0707e-13 5.16032e-13 -11.1832

32.3277 -10.3126 -3.79015e-12
-10.3126 -25.1753 7.28454e-13
-3.79015e-12 7.28454e-13 -6.02848

8.69896 -32.8509 -3.01981e-14
-32.8509 22.798 -2.78237e-12
-3.01981e-14 -2.78237e-12 -7.00465

2.39526 -2.30576 3.36176e-13
-2.30576 -49.9635 9.28146e-13
3.36176e-13 9.28146e-13 -14.7781

36.7526 -34.5265 4.8909e-13
-34.5265 24.4808 5.20591e-12
4.8909e-13 5.20591e-12 -7.71789

-38.2994 19.0853 1.01815e-12
19.0853 -7.09163 -7.09951e-13
1.01815e-12 -7.09951e-13 -14.4548

7.86978 -26.4814 -3.96601e-12
-26.4814 -28.0057 -3.08938e-12
-3.96601e-12 -3.08938e-12 -10.9769

63.9689 -9.69545 4.31063e-13
-9.69545 5.66758 -9.21633e-13
4.31063e-13 -9.21633e-13 -5.08066

6.03391 -23.1956 -6.2889e-12
-23.1956 -35.4718 -6.76496e-13
-6.2889e-12 -6.76496e-13 -17.7369

0.141778 2.35891 -2.24324e-12
2.35891 -56.1775 -3.01159e-12
-2.24324e-12 -3.01159e-12 -11.5564

-4.06446 -23.3268 3.89022e-13
-23.3268 -23.4136 -1.49258e-12
3.89022e-13 -1.49258e-12 -16.7203

11.0361 -25.8627 -5.38236e-13
-25.8627 -29.4975 -4.70438e-12
-5.38236e-13 -4.70438e-12 -9.74321

10.1994 -8.55016 1.79856e-12
-8.55016 -43.5035 1.71759e-12
1.79856e-12 1.71759e-12 -9.2937

-35.4151 -23.0705 -3.61489e-13
-23.0705 -12.6514 6.94537e-13
-3.61489e-13 6.94537e-13 -15.108

23.6647 -31.3575 -3.04468e-12
-31.3575 5.70356 -3.426e-12
-3.04468e-12 -3.426e-12 -5.89111

11.0563 -24.5951 -1.49392e-12
-24.5951 -27.5039 4.1922e-12
-1.49392e-12 4.1922e-12 -10.0568

46.6559 10.87 1.44832e-12
10.87 -16.138 2.62338e-12
1.44832e-12 2.62338e-12 -6.81268

-14.1872 26.3451 1.758e-12
26.3451 -15.6497 -1.73328e-12
1.758e-12 -1.73328e-12 -14.1239

-45.2459 -37.6057 -1.4578e-12
-37.6057 -20.6091 -1.22454e-12
-1.4578e-12 -1.22454e-12 -14.9252

-43.7036 37.2587 -7.11727e-13
37.2587 -21.2623 -9.73296e-13
-7.11727e-13 -9.73296e-13 -14.7757

-61.1741 -28.5692 5.22993e-12
-28.5692 -7.49783 2.1716e-12
5.22993e-12 2.1716e-12 -15.2057

-58.4065 27.0609 -8.87438e-14
27.0609 -6.27228 -5.24617e-13
-8.87438e-14 -5.24617e-13 -14.4846

5.59897 -8.525 1.54958e-12
-8.525 -71.0534 -1.22894e-12
1.54958e-12 -1.22894e-12 -14.7161

4.39658 9.27081 -2.79658e-12
9.27081 -68.8231 1.20097e-12
-2.79658e-12 1.20097e-12 -14.4442

9.02312 -9.84998 4.63333e-13
-9.84998 -40.903 3.31039e-12
4.63333e-13 3.31039e-12 -9.62319

-24.3348 32.1074 2.47002e-12
32.1074 -24.8031 -2.37081e-12
2.47002e-12 -2.37081e-12 -21.1418

-25.5211 -32.8447 -9.30515e-13
-32.8447 -25.0895 5.05457e-13
-9.30515e-13 5.05457e-13 -21.4658

-53.9059 16.0664 1.61352e-12
16.0664 3.39614 -2.04873e-13
1.61352e-12 -2.04873e-13 -21.3993

-52.4079 -15.7994 -1.72588e-12
-15.7994 3.29187 6.28238e-13
-1.72588e-12 6.28238e-13 -21.0728

6.10559 -3.75487 1.49229e-12
-3.75487 -43.9206 -1.02081e-12
1.49229e-12 -1.02081e-12 -25.7562

6.91106 3.61738 3.26953e-12
3.61738 -46.3429 2.50585e-12
3.26953e-12 2.50585e-12 -26.1323

-15.6454 9.84185 1.05701e-12
9.84185 46.2743 1.66149e-12
1.05701e-12 1.66149e-12 -5.8608

-22.925 -24.7807 -2.22429e-12
-24.7807 -14.5564 -3.44214e-12
-2.22429e-12 -3.44214e-12 -10.3405

-56.5961 -36.3822 1.98367e-12
-36.3822 -14.5313 -2.66972e-12
1.98367e-12 -2.66972e-12 -13.4459

33.3659 -4.66578 -3.80496e-12
-4.66578 -19.8642 4.06974e-12
-3.80496e-12 4.06974e-12 -3.95858

3.43081 -16.6875 -1.24434e-12
-16.6875 -52.6186 -3.89585e-12
-1.24434e-12 -3.89585e-12 -21.5289

3.67204 16.1686 2.8697e-12
16.1686 -51.8743 -3.62377e-13
2.8697e-12 -3.62377e-13 -21.4021

6.55399 0.121804 -3.6627e-12
0.121804 -76.7447 -1.26986e-12
-3.6627e-12 -1.26986e-12 -13.3129

-7.58573 23.3879 9.23706e-14
23.3879 39.9447 -2.26189e-13
9.23706e-14 -2.26189e-13 -6.89795

-56.8815 36.1662 -5.70285e-13
36.1662 -14.0099 4.40744e-12
-5.70285e-13 4.40744e-12 -13.3976

-39.7977 -23.3979 -4.42002e-12
-23.3979 2.56002 1.75859e-12
-4.42002e-12 1.75859e-12 -8.81204

37.1238 23.3645 -3.21047e-12
23.3645 -8.62889 -2.59526e-12
-3.21047e-12 -2.59526e-12 -5.77162

4.72915 23.8612 4.20997e-13
23.8612 -38.2279 2.13814e-12
4.20997e-13 2.13814e-12 -18.9855

24.014 -31.3293 4.48826e-13
-31.3293 6.39999 -2.87415e-12
4.48826e-13 -2.87415e-12 -5.66096

2.42936 -3.23539 -3.04275e-12
-3.23539 -48.3725 1.68458e-12
-3.04275e-12 1.68458e-12 -14.7479

-60.4474 -34.1567 -1.15293e-12
-34.1567 -14.3499 -8.75004e-13
-1.15293e-12 -8.75004e-13 -14.0393

-17.4729 8.32404 5.52319e-12
8.32404 45.7033 1.71241e-12
5.52319e-12 1.71241e-12 -5.79405

-9.48592 21.8234 2.84839e-12
21.8234 40.4345 -5.90935e-13
2.84839e-12 -5.90935e-13 -6.66659

58.6226 35.7937 -3.69009e-12
35.7937 37.0954 7.05806e-13
-3.69009e-12 7.05806e-13 -6.92011

70.5106 1.57965 9.37916e-13
1.57965 -5.55753 5.91815e-12
9.37916e-13 5.91815e-12 -10.3816

-30.7585 -22.8076 -1.98389e-12
-22.8076 -13.3614 1.37449e-12
-1.98389e-12 1.37449e-12 -14.4713

32.8473 31.1993 8.10137e-12
31.1993 69.8184 1.80004e-12
8.10137e-12 1.80004e-12 -6.68253

-19.3862 23.6172 -3.66907e-12
23.6172 7.6857 6.19949e-13
-3.66907e-12 6.19949e-13 -5.52657

47.6509 -5.35228 -6.02777e-13
-5.35228 -17.4548 -5.37348e-14
-6.02777e-13 -5.37348e-14 -6.83462

33.2257 11.2213 -2.21275e-12
11.2213 -23.6584 7.37484e-13
-2.21275e-12 7.37484e-13 -6.02815

6.25258 0.4298 2.74921e-12
0.4298 -77.5414 -2.17279e-12
2.74921e-12 -2.17279e-12 -13.4585

-58.9261 -29.0268 -4.15742e-13
-29.0268 -6.28925 5.71987e-13
-4.15742e-13 5.71987e-13 -14.7035

-28.3291 -6.31463 -6.63099e-13
-6.31463 -11.3447 4.05009e-12
-6.63099e-13 4.05009e-12 -51.5491

-44.6927 37.4046 -2.27314e-12
37.4046 -20.8082 -1.15585e-12
-2.27314e-12 -1.15585e-12 -14.7798

93.8262 1.66396 6.13909e-12
1.66396 16.6537 3.58454e-12
6.13909e-12 3.58454e-12 -6.04531

10.0294 -32.8044 4.25141e-13
-32.8044 21.3103 7.81064e-12
4.25141e-13 7.81064e-12 -6.821

-56.9283 36.6074 6.61841e-13
36.6074 -14.5695 -1.02688e-12
6.61841e-13 -1.02688e-12 -13.5137

-35.0965 -11.1362 1.476e-12
-11.1362 19.1784 -1.53892e-12
1.476e-12 -1.53892e-12 -8.32816

-5.49272 -25.5284 -4.05009e-13
-25.5284 37.3583 9.80549e-13
-4.05009e-13 9.80549e-13 -6.99973

-58.4431 28.8258 -2.34031e-12
28.8258 -6.27263 -9.80253e-13
-2.34031e-12 -9.80253e-13 -14.6207

28.4985 -26.1545 -1.22569e-13
-26.1545 -4.92438 -1.35477e-12
-1.22569e-13 -1.35477e-12 -4.71022

-21.1557 10.486 -2.88984e-12
10.486 -18.5572 1.26765e-12
-2.88984e-12 1.26765e-12 -51.6446

3.42241 30.8885 -2.40874e-12
30.8885 27.1653 -1.94689e-12
-2.40874e-12 -1.94689e-12 -6.74584

6.13781 8.12415 1.01844e-12
8.12415 -72.2857 5.3643e-12
1.01844e-12 5.3643e-12 -14.9904

-11.5511 30.1929 -1.57504e-12
30.1929 -20.6027 3.06954e-12
-1.57504e-12 3.06954e-12 -11.5564

-30.8077 23.3381 -2.42191e-12
23.3381 -5.10329 -3.65189e-12
-2.42191e-12 -3.65189e-12 -8.47771

-25.8621 -32.4797 -7.99361e-15
-32.4797 -24.1062 7.99934e-13
-7.99361e-15 7.99934e-13 -21.555

9.20079 -23.1975 1.14693e-12
-23.1975 -27.9299 2.84691e-12
1.14693e-12 2.84691e-12 -11.4328

-37.6662 10.464 4.02064e-12
10.464 8.92933 1.05871e-12
4.02064e-12 1.05871e-12 -25.3219

-23.051 -23.4403 2.21068e-12
-23.4403 4.95031 -5.14374e-12
2.21068e-12 -5.14374e-12 -6.27641

88.8379 -9.71322 -2.43479e-12
-9.71322 10.8032 4.38272e-12
-2.43479e-12 4.38272e-12 -10.0333

84.0775 -14.2836 4.09036e-12
-14.2836 2.80546 -2.59526e-12
4.09036e-12 -2.59526e-12 -13.1999

5.88184 16.5358 -4.5004e-12
16.5358 -33.9321 -3.02336e-12
-4.5004e-12 -3.02336e-12 -22.3703

-16.4349 22.5119 1.946e-12
22.5119 16.2274 -3.16488e-12
1.946e-12 -3.16488e-12 -5.09941

-3.91753 29.1724 -7.3778e-13
29.1724 -12.2405 -2.22548e-12
-7.3778e-13 -2.22548e-12 -8.4079

51.0083 0.688918 8.18308e-13
0.688918 -6.54766 1.5711e-12
8.18308e-13 1.5711e-12 -3.64605

-48.1467 6.56789 -4.39178e-12
6.56789 14.7837 -1.71182e-12
-4.39178e-12 -1.71182e-12 -18.9521

10.1159 16.5404 -2.88717e-12
16.5404 -36.0883 -6.98464e-12
-2.88717e-12 -6.98464e-12 -9.14508

-4.5182 -25.7751 -3.73035e-12
-25.7751 35.5623 -9.97128e-13
-3.73035e-12 -9.97128e-13 -6.75982

-39.2051 -2.57007 4.79875e-13
-2.57007 21.5052 3.24244e-12
4.79875e-13 3.24244e-12 -10.6775

-8.00564 13.3728 2.71901e-12
13.3728 44.4164 1.49096e-12
2.71901e-12 1.49096e-12 -3.95659

3.73199 -29.7209 -3.70193e-12
-29.7209 -17.3773 7.13799e-13
-3.70193e-12 7.13799e-13 -8.93106

21.4246 -29.9627 -3.41889e-12
-29.9627 14.7534 -5.32019e-12
-3.41889e-12 -5.32019e-12 -3.93014

6.8723 31.6398 2.56743e-12
31.6398 25.4032 -5.45934e-13
2.56743e-12 -5.45934e-13 -6.84083

2.78067 -15.0163 4.60047e-12
-15.0163 -39.2448 5.83829e-13
4.60047e-12 5.83829e-13 -63.258

-46.158 2.04437 -2.05502e-12
2.04437 11.4591 -4.99156e-13
-2.05502e-12 -4.99156e-13 -22.7508

-55.4311 20.2938 1.72321e-12
20.2938 3.08896 4.37694e-12
1.72321e-12 4.37694e-12 -22.9111

5.90971 15.4333 1.7509e-12
15.4333 -58.8047 -1.11644e-12
1.7509e-12 -1.11644e-12 -23.0312

-18.9281 -26.1958 -8.25118e-13
-26.1958 -12.9194 -1.94156e-12
-8.25118e-13 -1.94156e-12 -9.66365

41.3565 17.9656 -4.01575e-12
17.9656 -6.28573 -5.81165e-13
-4.01575e-12 -5.81165e-13 -3.87376

-44.6764 -5.28866 -6.09984e-13
-5.28866 4.53899 8.49957e-12
-6.09984e-13 8.49957e-12 -39.1204

7.50021 -18.9867 3.13853e-12
-18.9867 -39.9001 -6.56364e-13
3.13853e-12 -6.56364e-13 -11.667

30.2959 -15.6044 5.3942e-13
-15.6044 -20.5261 -1.48992e-12
5.3942e-13 -1.48992e-12 -4.81865

-9.65394 11.6099 7.20609e-13
11.6099 44.3301 7.51991e-13
7.20609e-13 7.51991e-13 -3.87148

8.32633 -25.7479 7.42458e-12
-25.7479 32.9979 1.75741e-12
7.42458e-12 1.75741e-12 -3.64492

-10.2404 -25.2744 -3.63739e-12
-25.2744 -19.1092 3.33763e-12
-3.63739e-12 3.33763e-12 -23.1682

17.0021 31.9758 -4.16378e-12
31.9758 11.1916 8.9706e-13
-4.16378e-12 8.9706e-13 -5.75933

-1.06794 -25.1319 1.38674e-12
-25.1319 -30.7668 -2.51651e-13
1.38674e-12 -2.51651e-13 -20.8876

48.079 2.59851 2.08781e-12
2.59851 -8.42593 -3.71577e-12
2.08781e-12 -3.71577e-12 -3.54367

6.54839 -28.9449 -1.13864e-12
-28.9449 72.0784 1.58451e-12
-1.13864e-12 1.58451e-12 -14.5551

21.7905 -29.2458 -2.24413e-12
-29.2458 13.9605 4.46576e-12
-2.24413e-12 4.46576e-12 -3.94253

35.3582 32.1749 -7.95808e-13
32.1749 74.1606 1.67214e-12
-7.95808e-13 1.67214e-12 -5.44415

-45.2925 -11.8739 5.25537e-12
-11.8739 13.9195 -2.39098e-12
5.25537e-12 -2.39098e-12 -15.3305

-14.4393 -13.8286 -5.45608e-12
-13.8286 43.3928 -1.86044e-12
-5.45608e-12 -1.86044e-12 -5.68561

-19.2275 -23.9758 3.69482e-12
-23.9758 -19.8262 -1.17639e-12
3.69482e-12 -1.17639e-12 -64.1988

2.42804 23.7835 -2.7498e-12
23.7835 36.0141 9.73444e-13
-2.7498e-12 9.73444e-13 -3.72321

-15.1854 -32.7269 4.49241e-12
-32.7269 -21.1265 1.11792e-12
4.49241e-12 1.11792e-12 -14.3187

-14.5842 -11.9693 -2.87118e-12
-11.9693 45.5422 2.39808e-12
-2.87118e-12 2.39808e-12 -5.75161

7.8342 -19.1156 1.22983e-12
-19.1156 -43.1259 2.19084e-12
1.22983e-12 2.19084e-12 -12.6385

6.53738 23.8899 2.69888e-12
23.8899 35.1782 1.67333e-12
2.69888e-12 1.67333e-12 -3.4539

23.1772 -4.97661 3.51719e-13
-4.97661 -30.6907 -3.70596e-12
3.51719e-13 -3.70596e-12 -5.37748

36.9817 -30.3541 -2.48808e-12
-30.3541 122.672 -1.05445e-11
-2.48808e-12 -1.05445e-11 -6.23628

-26.8848 21.0219 9.4443e-13
21.0219 8.43261 1.91195e-12
9.4443e-13 1.91195e-12 -7.14419

40.3475 -19.3329 3.79548e-12
-19.3329 -11.3897 2.51591e-12
3.79548e-12 2.51591e-12 -5.73879

6.52009 -21.4448 2.96652e-13
-21.4448 -45.5536 1.51405e-12
2.96652e-13 1.51405e-12 -24.9645

20.7039 31.7702 -1.97531e-12
31.7702 9.55081 -3.8541e-12
-1.97531e-12 -3.8541e-12 -5.81873

13.9164 -29.9837 2.62723e-12
-29.9837 -7.61837 -2.60207e-12
2.62723e-12 -2.60207e-12 -5.95762

6.75678 20.8885 -3.62969e-12
20.8885 -27.8028 -1.03828e-12
-3.62969e-12 -1.03828e-12 -11.1156

-38.2775 -28.0776 -2.73322e-12
-28.0776 -14.0413 1.88198e-12
-2.73322e-12 1.88198e-12 -11.0718

8.63893 -26.2391 4.44977e-12
-26.2391 31.1759 1.69938e-12
4.44977e-12 1.69938e-12 -3.64713

15.3273 28.9959 -4.55458e-12
28.9959 19.1533 -1.32635e-13
-4.55458e-12 -1.32635e-13 -3.89528

28.644 26.2031 6.86858e-13
26.2031 -5.64676 -1.9836e-13
6.86858e-13 -1.9836e-13 -4.81495

7.91111 -14.6162 3.26228e-12
-14.6162 -36.8851 -4.53859e-13
3.26228e-12 -4.53859e-13 -13.9962

-6.85565 -16.6268 2.70598e-13
-16.6268 41.3503 7.91071e-13
2.70598e-13 7.91071e-13 -3.97177

17.4414 -17.571 -5.515e-12
-17.571 -31.0122 1.75889e-12
-5.515e-12 1.75889e-12 -7.11694

19.841 16.915 2.61717e-12
16.915 -31.6816 2.49608e-12
2.61717e-12 2.49608e-12 -7.34759

-33.6871 -9.38012 -7.19898e-12
-9.38012 8.75791 -1.54484e-12
-7.19898e-12 -1.54484e-12 -23.9845

43.4429 -13.436 1.2624e-12
-13.436 -8.38441 1.68872e-12
1.2624e-12 1.68872e-12 -3.81641

-19.3976 0.595067 1.48237e-12
0.595067 43.1552 1.7953e-12
1.48237e-12 1.7953e-12 -4.78831

28.0604 18.5613 -3.02514e-12
18.5613 -18.2156 1.3752e-12
-3.02514e-12 1.3752e-12 -4.76281

25.5308 27.6164 2.22518e-12
27.6164 -3.78795 1.91521e-12
2.22518e-12 1.91521e-12 -4.78409

-6.72958 -15.6948 5.44661e-12
-15.6948 43.8092 -2.46321e-13
5.44661e-12 -2.46321e-13 -3.86007

-19.9256 -1.20215 5.29532e-12
-1.20215 42.1373 5.72934e-12
5.29532e-12 5.72934e-12 -4.69994

-5.47363 29.1359 2.80428e-12
29.1359 -23.6561 -1.2393e-12
2.80428e-12 -1.2393e-12 -16.7986

-37.286 -10.9261 -7.68866e-13
-10.9261 21.6794 -1.44299e-12
-7.68866e-13 -1.44299e-12 -7.84141

27.1451 -26.728 -2.33295e-13
-26.728 -5.54258 -2.8096e-12
-2.33295e-13 -2.8096e-12 -4.95713

40.7279 21.3435 -1.97531e-12
21.3435 -8.38572 1.51168e-12
-1.97531e-12 1.51168e-12 -5.48003

12.3782 23.6693 3.43429e-14
23.6693 -27.1398 -4.83672e-12
3.43429e-14 -4.83672e-12 -8.67697

-37.8091 5.47456 1.26269e-13
5.47456 23.3119 -2.43361e-12
1.26269e-13 -2.43361e-12 -8.60738

18.5904 29.0805 -4.43438e-12
29.0805 17.3762 2.60355e-12
-4.43438e-12 2.60355e-12 -3.95926

-9.98374 22.9646 6.62581e-13
22.9646 -14.9239 4.03292e-12
6.62581e-13 4.03292e-12 -24.0177

68.3488 -59.7155 -1.67925e-12
-59.7155 36.3515 -1.87465e-12
-1.67925e-12 -1.87465e-12 -23.0057

17.5286 -25.0578 1.20851e-12
-25.0578 -18.0043 -1.10401e-12
1.20851e-12 -1.10401e-12 -6.42988

10.0526 7.07325 -1.19312e-13
7.07325 82.5817 -5.33854e-12
-1.19312e-13 -5.33854e-12 -7.16967

11.9159 -28.9014 -1.69524e-12
-28.9014 -3.88919 1.07766e-13
-1.69524e-12 1.07766e-13 -5.17865

-66.9373 -52.7161 -3.64508e-12
-52.7161 143.317 4.56642e-12
-3.64508e-12 4.56642e-12 -49.6515

-68.3812 51.4665 -7.93439e-13
51.4665 142.604 -2.81849e-12
-7.93439e-13 -2.81849e-12 -49.8408

19.602 117.188 -3.04586e-12
117.188 64.1738 -6.38541e-12
-3.04586e-12 -6.38541e-12 -48.3413

20.561 -117.13 4.64458e-12
-117.13 61.0697 -5.07328e-12
4.64458e-12 -5.07328e-12 -48.7063

157.814 -1.36388 1.90899e-12
-1.36388 -79.1831 2.06663e-15
1.90899e-12 2.06663e-15 -48.8936

110.384 -91.1518 -8.2423e-13
-91.1518 -36.6737 9.56864e-13
-8.2423e-13 9.56864e-13 -50.2886

110.437 91.68 1.44951e-12
91.68 -36.4839 -2.64559e-12
1.44951e-12 -2.64559e-12 -50.1615

7.84168 14.3356 -5.1689e-12
14.3356 -42.6864 -2.23673e-12
-5.1689e-12 -2.23673e-12 -15.0835

-11.7853 25.5318 3.14622e-12
25.5318 -27.4064 5.47547e-12
3.14622e-12 5.47547e-12 -35.1181

12.4386 6.60892 1.53596e-12
6.60892 -40.55 -2.7532e-12
1.53596e-12 -2.7532e-12 -8.26564

26.2564 21.7941 -2.77112e-13
21.7941 -19.5452 -1.10726e-12
-2.77112e-13 -1.10726e-12 -5.8643

-21.2497 17.7531 -1.63839e-12
17.7531 29.8723 4.89682e-13
-1.63839e-12 4.89682e-13 -6.1765

22.5296 28.9122 7.92255e-13
28.9122 -0.784791 -2.73441e-12
7.92255e-13 -2.73441e-12 -4.7438

4.04942 -29.6713 -2.20268e-12
-29.6713 -17.4735 -8.85218e-14
-2.20268e-12 -8.85218e-14 -8.51479

25.9962 28.0413 -4.26503e-12
28.0413 -2.31205 -3.76528e-12
-4.26503e-12 -3.76528e-12 -4.74409

-19.3661 -2.8435 -3.24748e-12
-2.8435 43.0809 4.86722e-13
-3.24748e-12 4.86722e-13 -4.78293

-13.4047 -26.0928 1.64994e-12
-26.0928 -25.8403 2.71294e-12
1.64994e-12 2.71294e-12 -35.5006

-19.8611 -4.86568 -1.7053e-13
-4.86568 41.7852 4.7334e-12
-1.7053e-13 4.7334e-12 -4.75693

-1.83055 23.022 -1.01963e-12
23.022 -24.3789 -9.52867e-13
-1.01963e-12 -9.52867e-13 -16.1509

44.9937 26.8848 5.93303e-12
26.8848 8.10316 2.91026e-12
5.93303e-12 2.91026e-12 -5.37952

-52.4948 -13.2172 -2.19839e-12
-13.2172 0.147832 1.36187e-12
-2.19839e-12 1.36187e-12 -20.6144

20.2818 13.7332 -1.38556e-12
13.7332 -31.1602 -5.93007e-13
-1.38556e-12 -5.93007e-13 -7.05648

13.698 -29.9998 1.99781e-12
-29.9998 -6.70368 -1.38941e-12
1.99781e-12 -1.38941e-12 -5.84859

29.6353 -24.7242 5.52565e-12
-24.7242 -7.88806 1.45543e-12
5.52565e-12 1.45543e-12 -4.83811

5.75906 -16.0814 4.0575e-12
-16.0814 -32.3346 1.21858e-12
4.0575e-12 1.21858e-12 -22.2497

12.6267 27.9384 3.17731e-12
27.9384 -13.6522 2.0212e-12
3.17731e-12 2.0212e-12 -6.43183

23.3091 23.9878 6.62581e-13
23.9878 -17.9587 8.23637e-13
6.62581e-13 8.23637e-13 -5.97574

-31.0953 -2.79234 2.09055e-13
-2.79234 30.1357 2.72138e-12
2.09055e-13 2.72138e-12 -6.41073

-28.6498 5.87497 -6.17973e-13
5.87497 33.3263 -2.66454e-14
-6.17973e-13 -2.66454e-14 -6.07275

34.556 2.64796 1.67155e-12
2.64796 -26.2064 -7.98991e-14
1.67155e-12 -7.98991e-14 -6.15645

50.6665 -7.29357 8.17124e-13
-7.29357 -14.1018 8.32371e-13
8.17124e-13 8.32371e-13 -6.79079

11.0372 30.4974 -4.63866e-12
30.4974 -4.7992 -3.61193e-12
-4.63866e-12 -3.61193e-12 -5.97969

17.4653 -26.1656 1.81129e-12
-26.1656 -17.4672 -1.0593e-12
1.81129e-12 -1.0593e-12 -6.36406

-0.08104 -21.256 -3.53525e-12
-21.256 -27.963 3.76647e-12
-3.53525e-12 3.76647e-12 -17.1663

4.93138 -31.6483 4.2597e-12
-31.6483 4.85388 -5.91527e-13
4.2597e-12 -5.91527e-13 -5.94899

-8.24157 -27.7996 4.36273e-12
-27.7996 18.5782 -6.21133e-13
4.36273e-12 -6.21133e-13 -6.14391

-1.66099 29.9017 1.11851e-12
29.9017 10.4432 2.38032e-13
1.11851e-12 2.38032e-13 -5.81419

-26.0367 -9.5819 -4.21359e-12
-9.5819 32.9754 -1.26832e-12
-4.21359e-12 -1.26832e-12 -5.80049

-31.3406 -1.54709 7.26086e-14
-1.54709 31.6543 -2.02623e-12
7.26086e-14 -2.02623e-12 -6.23576

-38.9318 5.7471 -2.37921e-12
5.7471 23.9474 -5.82645e-13
-2.37921e-12 -5.82645e-13 -9.19307

-17.2358 -21.0997 2.04992e-12
-21.0997 26.574 -1.54543e-12
2.04992e-12 -1.54543e-12 -5.78586

13.0678 24.1192 -3.93226e-12
24.1192 -28.1125 6.03961e-13
-3.93226e-12 6.03961e-13 -9.21493

21.5576 -9.59353 1.69938e-13
-9.59353 -31.7257 -3.54872e-12
1.69938e-13 -3.54872e-12 -6.61163

-27.1738 7.4679 7.50413e-12
7.4679 34.34 2.70598e-12
7.50413e-12 2.70598e-12 -5.88715

-35.2528 -9.70245 -4.36752e-12
-9.70245 22.3155 2.99612e-13
-4.36752e-12 2.99612e-13 -8.19445

-29.1736 -16.3372 3.52e-12
-16.3372 19.348 2.10084e-12
3.52e-12 2.10084e-12 -6.67515

36.977 -8.24291 1.94215e-12
-8.24291 -20.2571 -2.29505e-12
1.94215e-12 -2.29505e-12 -5.11481

-14.8138 -32.3468 -1.33819e-12
-32.3468 -21.6288 -4.38168e-14
-1.33819e-12 -4.38168e-14 -12.999

-22.8409 9.32638 8.89659e-13
9.32638 33.3286 2.87355e-12
8.89659e-13 2.87355e-12 -4.80159

-0.754597 -18.2146 5.01436e-12
-18.2146 -35.1516 2.55425e-12
5.01436e-12 2.55425e-12 -33.2596

4.92688 24.8353 1.6076e-12
24.8353 75.3365 -1.7953e-12
1.6076e-12 -1.7953e-12 -14.3225

-14.1428 -26.6306 2.15442e-12
-26.6306 -16.3594 3.09737e-12
2.15442e-12 3.09737e-12 -14.6449

-6.35774 -30.2036 -3.81325e-13
-30.2036 -23.612 -2.68526e-13
-3.81325e-13 -2.68526e-13 -17.0893

-31.2891 -0.699867 6.14057e-12
-0.699867 31.5044 -2.61953e-12
6.14057e-12 -2.61953e-12 -6.36057

28.493 -16.6283 -5.62513e-14
-16.6283 -18.0731 -2.57098e-12
-5.62513e-14 -2.57098e-12 -4.45084

-37.8182 12.8428 2.14971e-12
12.8428 11.1653 1.51997e-12
2.14971e-12 1.51997e-12 -10.9975

-8.86235 -3.18333 -5.98255e-12
-3.18333 111.1 -8.33467e-12
-5.98255e-12 -8.33467e-12 -22.6671

-31.6213 14.2787 -3.83027e-13
14.2787 21.3513 -1.00838e-12
-3.83027e-13 -1.00838e-12 -7.1376

12.4173 -29.502 -9.21337e-13
-29.502 -2.52703 -2.80487e-12
-9.21337e-13 -2.80487e-12 -4.941

33.642 25.1155 2.58697e-12
25.1155 124.077 4.57116e-12
2.58697e-12 4.57116e-12 -6.20899

-13.4953 26.0856 9.04018e-13
26.0856 -19.0938 4.74495e-12
9.04018e-13 4.74495e-12 -58.8469

-9.54911 -27.7935 1.68147e-12
-27.7935 -22.8006 -1.97635e-12
1.68147e-12 -1.97635e-12 -59.4967

-2.87338 -30.4297 1.91847e-13
-30.4297 -7.33186 -3.5086e-12
1.91847e-13 -3.5086e-12 -7.30028

3.85195 -31.1751 -2.67756e-12
-31.1751 5.62873 -3.87305e-12
-2.67756e-12 -3.87305e-12 -6.07626

25.1556 20.8349 2.20446e-12
20.8349 -17.05 1.98626e-12
2.20446e-12 1.98626e-12 -4.9896

31.8102 15.0131 -7.14688e-13
15.0131 -23.3216 -1.78672e-12
-7.14688e-13 -1.78672e-12 -5.9686

-9.47973 3.07555 1.05002e-11
3.07555 -9.82458 3.59283e-12
1.05002e-11 3.59283e-12 -80.8625

-5.54288 -6.98837 -2.74203e-12
-6.98837 -14.0315 -3.89185e-12
-2.74203e-12 -3.89185e-12 -80.2156

11.7501 4.82383 2.7652e-13
4.82383 -43.2168 2.0098e-12
2.7652e-13 2.0098e-12 -7.83985

-35.0708 6.73508 1.33538e-12
6.73508 24.3765 -5.60441e-12
1.33538e-12 -5.60441e-12 -7.57491

-36.1279 6.73675 2.57217e-12
6.73675 24.434 -4.34734e-12
2.57217e-12 -4.34734e-12 -8.31997

74.6183 58.6592 9.97128e-13
58.6592 34.1917 2.68585e-12
9.97128e-13 2.68585e-12 -21.8675

-6.93359 -28.2141 1.112e-12
-28.2141 16.8737 2.52302e-12
1.112e-12 2.52302e-12 -6.13082

8.17068 17.9728 -6.2587e-12
17.9728 -44.8785 -1.4273e-12
-6.2587e-12 -1.4273e-12 -12.9025

32.7102 9.543 -2.82322e-12
9.543 -19.0975 -5.3566e-12
-2.82322e-12 -5.3566e-12 -4.08758

3.37977 -26.7357 4.99156e-13
-26.7357 13.483 6.62581e-13
4.99156e-13 6.62581e-13 -3.84005

26.2399 -20.2465 -3.56278e-12
-20.2465 -20.3405 6.3712e-13
-3.56278e-12 6.3712e-13 -5.87665

65.4221 60.2571 6.13198e-12
60.2571 34.3057 -9.88957e-12
6.13198e-12 -9.88957e-12 -23.863

-13.2456 31.0728 6.83897e-14
31.0728 -16.8922 -3.87364e-12
6.83897e-14 -3.87364e-12 -12.7931

-18.6232 -19.796 2.68348e-12
-19.796 28.4186 -8.91139e-13
2.68348e-12 -8.91139e-13 -5.98353

11.1696 28.8681 9.33772e-13
28.8681 -13.3331 3.63679e-12
9.33772e-13 3.63679e-12 -6.44848

-31.8866 -4.14795 8.80777e-15
-4.14795 30.1507 3.03698e-12
8.80777e-15 3.03698e-12 -6.37023

-14.6111 19.6188 -1.22598e-12
19.6188 27.1887 -3.43251e-12
-1.22598e-12 -3.43251e-12 -4.43216

7.47417 30.5321 1.30207e-12
30.5321 -1.67985 4.1845e-12
1.30207e-12 4.1845e-12 -5.67385

-9.35777 -22.4843 1.2168e-12
-22.4843 23.1515 -9.49759e-13
1.2168e-12 -9.49759e-13 -4.18889

4.583 -27.365 1.54069e-12
-27.365 11.4473 -1.74379e-12
1.54069e-12 -1.74379e-12 -3.95154

24.2796 11.2619 6.71581e-12
11.2619 102.122 -4.64932e-12
6.71581e-12 -4.64932e-12 -12.401

37.4747 -33.473 1.77636e-13
-33.473 69.31 -1.99899e-12
1.77636e-13 -1.99899e-12 -5.70589

-25.3549 -11.6955 1.85333e-13
-11.6955 31.3733 2.66809e-12
1.85333e-13 2.66809e-12 -5.66179

16.0939 26.4951 4.02641e-13
26.4951 -15.513 -6.31732e-12
4.02641e-13 -6.31732e-12 -6.22951

4.94868 29.49 7.75617e-12
29.49 1.63144 7.60281e-13
7.75617e-12 7.60281e-13 -5.00322

-9.86761 -21.4445 -3.73923e-13
-21.4445 25.124 -3.66344e-12
-3.73923e-13 -3.66344e-12 -4.04654

-21.6513 -11.7888 5.72905e-12
-11.7888 32.0871 -1.93978e-12
5.72905e-12 -1.93978e-12 -4.65034

10.4579 28.4218 -6.16633e-12
28.4218 -0.162314 -1.24049e-12
-6.16633e-12 -1.24049e-12 -4.68571

-21.8629 -13.8847 3.07902e-13
-13.8847 29.4709 3.61785e-13
3.07902e-13 3.61785e-13 -4.86047

6.95422 27.8697 -4.68662e-12
27.8697 73.1137 -8.8581e-13
-4.68662e-12 -8.8581e-13 -14.3257

-45.8363 -4.03801 4.48688e-12
-4.03801 14.0469 -1.17891e-12
4.48688e-12 -1.17891e-12 -19.9627

0.867507 31.0425 -5.67368e-12
31.0425 7.51422 -2.27966e-13
-5.67368e-12 -2.27966e-13 -6.10319

9.71725 14.9065 -1.49332e-12
14.9065 -36.4403 -4.93294e-12
-1.49332e-12 -4.93294e-12 -10.9939

9.92374 -15.9331 -1.24375e-12
-15.9331 -39.4182 -3.48077e-12
-1.24375e-12 -3.48077e-12 -13.0757

85.6487 -24.2164 -8.05282e-13
-24.2164 7.63241 2.36611e-12
-8.05282e-13 2.36611e-12 -12.9597

-23.2197 -21.2747 -2.88214e-12
-21.2747 10.5132 -5.12893e-12
-2.88214e-12 -5.12893e-12 -6.1788

-16.6121 26.7081 1.05782e-12
26.7081 1.77392 6.23324e-12
1.05782e-12 6.23324e-12 -6.60164

-26.1946 -21.7266 -6.63765e-13
-21.7266 -5.37761 6.66478e-12
-6.63765e-13 6.66478e-12 -23.8599

-41.5794 14.0955 -1.31049e-11
14.0955 -3.5567 -3.33037e-12
-1.31049e-11 -3.33037e-12 -64.0741

-0.896137 9.4448 -2.86452e-12
9.4448 -44.2359 -4.60402e-12
-2.86452e-12 -4.60402e-12 -64.1754

-20.3798 32.7009 -7.88998e-13
32.7009 -23.208 -3.04231e-12
-7.88998e-13 -3.04231e-12 -24.3233

-11.4265 26.0137 -3.76292e-12
26.0137 22.6052 4.38701e-12
-3.76292e-12 4.38701e-12 -5.93987

16.0382 26.6697 -4.18628e-13
26.6697 -17.3021 1.41132e-12
-4.18628e-13 1.41132e-12 -6.56228

30.4364 45.2084 6.86503e-12
45.2084 47.572 -2.64085e-12
6.86503e-12 -2.64085e-12 -15.1983

-44.8699 -11.3346 -2.1374e-12
-11.3346 -1.80611 -1.06581e-13
-2.1374e-12 -1.06581e-13 -61.6332

-8.29735 -3.42789 1.88678e-12
-3.42789 -12.7383 -6.78835e-12
1.88678e-12 -6.78835e-12 -77.1564

-14.6743 -0.20563 -2.70036e-12
-0.20563 -6.41811 -7.05362e-12
-2.70036e-12 -7.05362e-12 -77.3005

27.6789 -53.8247 7.23925e-12
-53.8247 71.1833 4.42194e-12
7.23925e-12 4.42194e-12 -24.3846

-11.6809 -11.5959 3.14608e-12
-11.5959 -16.209 -4.02078e-12
3.14608e-12 -4.02078e-12 -37.4062

-32.6058 8.80701 -5.78596e-12
8.80701 -9.40855 -9.26873e-12
-5.78596e-12 -9.26873e-12 -49.5041

18.2562 -26.2074 8.82849e-13
-26.2074 -19.5619 -9.56272e-13
8.82849e-13 -9.56272e-13 -6.5192

-39.4363 1.00722 2.75935e-12
1.00722 11.9817 2.74743e-13
2.75935e-12 2.74743e-13 -19.7189

-30.2151 -20.275 -3.7718e-13
-20.275 6.30319 -1.19608e-13
-3.7718e-13 -1.19608e-13 -7.2294

10.5346 6.2562 -1.38556e-12
6.2562 -52.394 -2.33561e-12
-1.38556e-12 -2.33561e-12 -9.65061

-49.8153 15.596 3.4373e-13
15.596 10.1616 -2.68852e-12
3.4373e-13 -2.68852e-12 -13.5373

-40.2956 7.18948 1.6042e-12
7.18948 16.5413 5.33677e-12
1.6042e-12 5.33677e-12 -13.779

16.4039 20.4006 3.85233e-12
20.4006 -25.855 1.56704e-12
3.85233e-12 1.56704e-12 -7.61906

-9.10173 -3.11393 -3.59187e-12
-3.11393 108.443 3.33008e-12
-3.59187e-12 3.33008e-12 -23.0976

-3.32848 -27.6342 4.87965e-12
-27.6342 -3.63356 7.11727e-13
4.87965e-12 7.11727e-13 -5.84279

-7.3393 -26.1246 -5.79033e-12
-26.1246 -14.0887 5.63786e-12
-5.79033e-12 5.63786e-12 -9.81967

-14.2029 -31.4835 3.3733e-12
-31.4835 -21.778 -6.95207e-12
3.3733e-12 -6.95207e-12 -12.7617

90.7667 32.7644 -2.60769e-12
32.7644 20.914 9.29627e-13
-2.60769e-12 9.29627e-13 -16.5023

-23.1045 -20.1127 1.12236e-12
-20.1127 -17.388 7.56802e-13
1.12236e-12 7.56802e-13 -44.3967

72.6567 54.3432 2.85401e-12
54.3432 91.6741 -7.09595e-12
2.85401e-12 -7.09595e-12 -6.13608

-36.2229 -21.4366 -3.52089e-12
-21.4366 -6.79684 2.7797e-12
-3.52089e-12 2.7797e-12 -13.0501

15.0343 14.6515 4.17977e-12
14.6515 -37.7621 6.21577e-13
4.17977e-12 6.21577e-13 -8.18959

44.5847 -14.5794 4.89801e-12
-14.5794 -8.28825 -9.41469e-13
4.89801e-12 -9.41469e-13 -4.43075

-21.2401 24.0533 7.72715e-13
24.0533 4.95357 -2.29861e-12
7.72715e-13 -2.29861e-12 -5.98952

17.3738 20.4324 4.41306e-12
20.4324 -26.8064 5.99313e-12
4.41306e-12 5.99313e-12 -6.9632

-51.1353 11.395 1.52641e-12
11.395 7.70702 2.54197e-12
1.52641e-12 2.54197e-12 -29.9811

-7.29445 -31.587 8.36664e-13
-31.587 -12.8333 3.53199e-12
8.36664e-13 3.53199e-12 -8.13071

2.79041 19.8117 2.84484e-12
19.8117 -46.0259 7.18122e-12
2.84484e-12 7.18122e-12 -29.973

-24.6839 -18.4504 -4.63303e-12
-18.4504 17.8368 9.24298e-13
-4.63303e-12 9.24298e-13 -5.49332

-42.3485 4.28633 9.24449e-14
4.28633 17.8688 4.38109e-12
9.24449e-14 4.38109e-12 -12.7336

-4.09795 9.93062 -1.61826e-12
9.93062 -40.2618 2.07404e-12
-1.61826e-12 2.07404e-12 -47.5144

-2.68904 -8.51793 -3.19567e-12
-8.51793 -38.2935 3.47026e-12
-3.19567e-12 3.47026e-12 -47.3699

81.7563 18.5209 7.98176e-12
18.5209 1.6929 3.516e-12
7.98176e-12 3.516e-12 -14.4562

3.89541 7.96804 -2.62842e-12
7.96804 -45.1929 2.99627e-12
-2.62842e-12 2.99627e-12 -11.0283

35.8968 7.74471 -7.17056e-12
7.74471 184.641 -1.66267e-12
-7.17056e-12 -1.66267e-12 -9.73707

40.1716 -11.39 -2.57749e-12
-11.39 190.44 1.76688e-12
-2.57749e-12 1.76688e-12 -7.36811

53.7939 56.4224 -9.02389e-13
56.4224 159.318 -1.06108e-12
-9.02389e-13 -1.06108e-12 -11.4798

1.70286 -28.9557 1.79116e-12
-28.9557 -24.6956 -2.13637e-12
1.79116e-12 -2.13637e-12 -11.9695

16.0602 -49.211 8.50283e-13
-49.211 99.4606 3.77772e-12
8.50283e-13 3.77772e-12 -21.683

54.5421 -55.9651 -8.73968e-13
-55.9651 150.033 1.77636e-12
-8.73968e-13 1.77636e-12 -13.6453

-2.17601 26.2325 -3.19034e-12
26.2325 17.5728 4.51017e-12
-3.19034e-12 4.51017e-12 -4.00936

134.994 73.8647 1.17145e-11
73.8647 85.0621 -2.62427e-12
1.17145e-11 -2.62427e-12 -10.1385

-18.7298 13.0432 1.13746e-12
13.0432 -3.89452 3.84966e-12
1.13746e-12 3.84966e-12 -26.7573

3.73926 0.0482946 1.33079e-13
0.0482946 -26.1915 5.14847e-13
1.33079e-13 5.14847e-13 -26.7605

144.155 -73.1497 -3.46271e-12
-73.1497 85.3899 -3.54087e-12
-3.46271e-12 -3.54087e-12 -8.17502

-21.4093 -23.4341 1.18424e-15
-23.4341 12.2458 -5.33499e-13
1.18424e-15 -5.33499e-13 -6.5058

89.3827 34.7446 1.98005e-12
34.7446 41.405 1.81425e-12
1.98005e-12 1.81425e-12 -11.5435

72.2236 63.5099 -1.19608e-12
63.5099 149.749 8.90547e-13
-1.19608e-12 8.90547e-13 -9.65312

26.1733 21.6399 -1.58451e-12
21.6399 100.175 1.8711e-12
-1.58451e-12 1.8711e-12 -13.0272

73.9113 -65.9395 2.65032e-12
-65.9395 151.201 1.9232e-12
2.65032e-12 1.9232e-12 -9.38109

25.778 -12.3863 3.47159e-12
-12.3863 105.056 -2.67638e-13
3.47159e-12 -2.67638e-13 -12.4235

-28.6643 6.83308 -1.03095e-12
6.83308 3.11074 8.23045e-13
-1.03095e-12 8.23045e-13 -37.8285

37.7556 -45.9966 -1.73491e-12
-45.9966 49.687 1.50398e-13
-1.73491e-12 1.50398e-13 -15.534

14.4538 47.552 2.83743e-12
47.552 94.9193 -7.6786e-12
2.83743e-12 -7.6786e-12 -22.187

173.402 37.9238 4.17799e-12
37.9238 48.0704 4.48234e-12
4.17799e-12 4.48234e-12 -9.50208

7.01531 -29.295 -6.38008e-12
-29.295 -14.3662 -3.04053e-13
-6.38008e-12 -3.04053e-13 -7.16736

-38.4277 12.8949 -2.48268e-12
12.8949 6.43683 -1.75889e-12
-2.48268e-12 -1.75889e-12 -15.2939

88.5417 -38.1292 1.06581e-13
-38.1292 34.1757 1.72899e-13
1.06581e-13 1.72899e-13 -14.0952

6.03858 -28.8104 1.25648e-12
-28.8104 -16.1845 6.84341e-12
1.25648e-12 6.84341e-12 -8.04115

169.268 -36.3554 1.00423e-12
-36.3554 34.9537 -2.55559e-12
1.00423e-12 -2.55559e-12 -13.2709

-5.72984 -28.3258 -2.98132e-12
-28.3258 -14.4823 -6.50739e-13
-2.98132e-12 -6.50739e-13 -9.31981

-17.8054 -25.306 3.61489e-13
-25.306 12.0776 -1.86103e-12
3.61489e-13 -1.86103e-12 -5.94882

118.923 69.4808 1.87583e-12
69.4808 96.2623 3.66166e-12
1.87583e-12 3.66166e-12 -11.3804

29.4242 -22.9429 3.04468e-12
-22.9429 97.837 -6.0633e-13
3.04468e-12 -6.0633e-13 -14.335

118.006 -71.7135 3.78956e-14
-71.7135 93.7233 1.16055e-13
3.78956e-14 1.16055e-13 -12.3963

22.2762 50.7579 8.47914e-13
50.7579 73.8127 2.69533e-12
8.47914e-13 2.69533e-12 -24.773

-1.54412 -30.2235 2.5396e-12
-30.2235 -6.56233 -1.22006e-12
2.5396e-12 -1.22006e-12 -7.01126

-7.03759 -14.643 -2.95142e-12
-14.643 -21.9234 -2.58578e-12
-2.95142e-12 -2.58578e-12 -32.5956

-11.8898 11.0844 -1.2117e-12
11.0844 -16.4122 6.08106e-13
-1.2117e-12 6.08106e-13 -77.7231

-26.1461 -5.16151 1.9081e-12
-5.16151 -6.3864 6.50078e-12
1.9081e-12 6.50078e-12 -77.5572

-38.9559 13.085 7.40761e-12
13.085 13.7439 6.762e-13
7.40761e-12 6.762e-13 -10.2489

-14.4759 -10.6587 2.69755e-12
-10.6587 -17.2988 -5.2219e-12
2.69755e-12 -5.2219e-12 -78.6848

-25.8799 4.09406 -2.99361e-12
4.09406 -5.9126 3.88763e-12
-2.99361e-12 3.88763e-12 -78.8268

-3.62779 7.42326 8.17568e-13
7.42326 -27.8431 -1.65512e-12
8.17568e-13 -1.65512e-12 -77.9152

-43.9534 -12.1049 -8.14367e-12
-12.1049 2.91504 -1.91358e-12
-8.14367e-12 -1.91358e-12 -68.0994

11.9723 -30.4853 -1.86695e-12
-30.4853 76.1935 -3.30166e-12
-1.86695e-12 -3.30166e-12 -14.7032

0.516616 -12.9721 4.13033e-12
-12.9721 -39.9792 -1.07381e-12
4.13033e-12 -1.07381e-12 -45.2455

-16.3475 -34.4113 2.54049e-12
-34.4113 -22.0751 -3.10241e-12
2.54049e-12 -3.10241e-12 -23.5844

-2.42497 -18.1798 -9.98313e-13
-18.1798 -29.8877 -1.88205e-12
-9.98313e-13 -1.88205e-12 -33.6073

12.7349 15.4645 -1.14101e-12
15.4645 -37.7292 3.34666e-12
-1.14101e-12 3.34666e-12 -9.63624

-46.884 9.85707 -2.3952e-12
9.85707 8.87104 -7.88332e-12
-2.3952e-12 -7.88332e-12 -70.0928

3.45764 19.2177 -9.72718e-12
19.2177 -41.4491 2.37321e-12
-9.72718e-12 2.37321e-12 -70.2086

1.46617 11.3141 2.29239e-12
11.3141 -23.9604 -3.40987e-12
2.29239e-12 -3.40987e-12 -31.8495

109.44 -15.3472 7.81597e-14
-15.3472 -12.5361 -2.66809e-12
7.81597e-14 -2.66809e-12 -25.0322

-14.3344 24.9752 -7.12911e-13
24.9752 10.384 6.95148e-13
-7.12911e-13 6.95148e-13 -5.81908

76.6396 -61.3795 3.31587e-14
-61.3795 37.3859 -4.31063e-12
3.31587e-14 -4.31063e-12 -22.3887

76.1419 -57.4785 -1.84741e-12
-57.4785 99.2655 2.70954e-12
-1.84741e-12 2.70954e-12 -5.54738

118.24 -36.5587 2.34242e-12
-36.5587 40.615 -2.75217e-12
2.34242e-12 -2.75217e-12 -7.37271

-51.0849 -5.15784 2.80931e-12
-5.15784 3.33531 -1.03465e-11
2.80931e-12 -1.03465e-11 -60.6105

-50.4494 2.89184 3.55938e-12
2.89184 3.12959 5.32374e-12
3.55938e-12 5.32374e-12 -60.0837

-11.9736 -24.4422 4.10931e-13
-24.4422 -34.9823 1.71122e-12
4.10931e-13 1.71122e-12 -59.1189

-8.98767 -21.7452 7.99509e-13
-21.7452 -37.8694 -2.359e-12
7.99509e-13 -2.359e-12 -59.4281

-14.6984 26.1203 -7.08885e-12
26.1203 -33.008 -4.44903e-12
-7.08885e-12 -4.44903e-12 -60.7016

-18.1416 3.08944 4.85434e-12
3.08944 -13.156 3.53887e-12
4.85434e-12 3.53887e-12 -75.4098

-9.94346 -20.498 5.70714e-12
-20.498 -32.632 -2.37928e-12
5.70714e-12 -2.37928e-12 -56.6914

-26.6277 -18.5598 3.16887e-12
-18.5598 -14.1943 -1.54965e-12
3.16887e-12 -1.54965e-12 -71.2102

-15.4615 2.42711 -4.94701e-12
2.42711 -12.8474 -1.65477e-11
-4.94701e-12 -1.65477e-11 -77.8016

-6.02521 -20.5132 4.00124e-12
-20.5132 -41.466 1.3971e-12
4.00124e-12 1.3971e-12 -60.458

-6.75411 20.9423 -2.00469e-12
20.9423 -40.1231 1.11111e-12
-2.00469e-12 1.11111e-12 -59.9696

-14.2997 -3.45059 -4.97128e-12
-3.45059 -11.386 1.17681e-11
-4.97128e-12 1.17681e-11 -76.817

-11.2541 -3.10604 1.83267e-11
-3.10604 -17.675 -2.09167e-11
1.83267e-11 -2.09167e-11 -73.9826

-24.1837 12.1079 -5.53779e-12
12.1079 -13.3991 3.70319e-12
-5.53779e-12 3.70319e-12 -69.9072

-22.0713 26.9172 1.74616e-12
26.9172 -26.2598 -3.07783e-12
1.74616e-12 -3.07783e-12 -57.5373

VECTORS fluid_flux_TPM float
-8.73712e-05 3.10855e-05 4.36487e-21
3.56545e-06 6.89382e-06 -2.75668e-21
-1.28081e-05 -1.02423e-05 1.30849e-20
-4.17722e-06 4.26102e-06 -4.64012e-21
2.27445e-05 -6.32364e-06 -9.57703e-21
2.76231e-06 -1.59294e-05 3.39563e-21
-8.59445e-05 -3.11497e-05 -6.1525e-22
-1.39149e-05 -1.0484e-05 1.03374e-20
2.21578e-05 9.47058e-07 -3.72037e-21
1.14025e-05 -3.91439e-06 -1.40885e-20
5.469e-05 1.25041e-05 -2.66517e-21
2.35092e-06 -1.7222e-05 6.10514e-21
1.36337e-05 1.1272e-05 -1.94848e-21
2.66656e-06 1.38071e-05 -1.244e-20
2.06144e-05 -2.95151e-06 -1.02317e-20
-1.63591e-05 -2.73324e-07 -7.86788e-21
2.75813e-06 1.41218e-05 -9.67864e-21
1.01984e-05 -2.39575e-06 -1.59777e-20
9.91502e-06 1.72507e-05 -1.67998e-22
-1.48728e-05 1.8886e-06 -6.78703e-21
-3.60685e-06 -2.13389e-05 8.53626e-22
3.41672e-05 5.95152e-05 6.11333e-22
1.57231e-05 1.63397e-06 -1.02701e-20
1.12458e-05 -1.12998e-05 1.13359e-20
-1.51032e-05 -3.33788e-06 -1.15261e-20
-6.78188e-07 -1.11491e-05 1.32773e-20
6.3007e-05 -4.91641e-06 2.35805e-21
1.40891e-05 1.02655e-05 6.78503e-21
-2.51912e-05 -2.06777e-05 5.87342e-21
4.92011e-05 -1.28352e-05 -3.33226e-21
-1.66098e-05 -6.04824e-06 -1.24411e-20
5.54701e-06 -3.20899e-05 -4.71707e-21
4.77343e-05 -4.81265e-05 5.79657e-22
-4.93139e-06 -4.13161e-05 -7.36414e-21
-2.97226e-05 3.70666e-05 -1.23432e-20
-3.83109e-05 -1.64223e-05 1.14884e-21
3.27571e-05 4.32872e-05 3.83475e-21
-4.4815e-05 -8.74045e-06 -2.81524e-20
1.43984e-05 -1.11001e-05 1.50746e-20
4.6548e-05 5.0198e-05 -3.68415e-21
3.21829e-05 -1.40451e-05 -2.06102e-21
3.36961e-05 -4.24138e-05 -1.28052e-20
-1.99294e-05 -5.04623e-05 -8.57356e-22
-1.59245e-05 6.3674e-06 -8.66707e-21
3.05772e-05 -2.93627e-05 4.36209e-21
-3.03839e-05 1.10093e-05 1.56265e-21
-4.05668e-06 -2.04049e-05 5.05242e-21
7.89949e-06 2.02455e-05 3.83821e-21
-1.63699e-05 5.93785e-06 -1.588e-20
-1.78492e-05 2.87749e-05 4.35607e-21
3.24629e-05 1.53162e-05 -2.20341e-21
2.94144e-05 -1.00918e-05 -7.25934e-21
-1.56924e-05 1.57866e-05 -2.05403e-20
-2.35811e-05 -2.07259e-05 -8.50895e-22
-2.11751e-05 -5.14104e-06 -2.44305e-20
-4.48677e-05 2.71233e-05 5.56991e-21
-2.94212e-05 -3.80868e-05 -2.18833e-23
6.37477e-06 -3.06797e-05 -4.07677e-21
-4.7788e-05 6.49387e-06 -1.2842e-20
6.08456e-06 1.37201e-05 2.05745e-21
-5.58622e-06 -8.18722e-06 1.29088e-20
-6.59465e-06 -1.79739e-05 5.28241e-21
5.72407e-05 2.49014e-05 -8.59517e-22
9.25861e-06 1.8175e-05 -1.87626e-20
1.23174e-05 -1.44695e-05 2.43401e-21
-1.64315e-06 -2.07877e-05 4.62731e-21
4.62904e-06 -8.82051e-06 1.00981e-20
-1.01077e-05 -5.57436e-06 -2.68726e-21
-1.06206e-05 1.19499e-05 -9.6418e-21
2.56254e-06 -4.0995e-06 -1.39149e-20
-1.50689e-05 -1.587e-05 5.04322e-21
-2.14011e-05 5.17471e-06 -7.71828e-21
-3.56217e-06 3.45409e-05 1.68991e-21
-1.79022e-05 1.07292e-05 -1.66294e-20
-9.08616e-06 1.46398e-05 1.15813e-21
-6.04611e-05 7.70625e-06 5.13328e-21
7.8315e-06 -2.17184e-05 9.41772e-22
-1.89123e-05 -8.9154e-06 6.74951e-21
1.93722e-06 1.16438e-05 -1.17098e-20
2.63459e-05 5.0983e-06 -7.96199e-21
3.42277e-05 -2.90241e-05 -3.96191e-21
2.21843e-05 2.05912e-05 -1.53179e-20
1.19287e-05 -2.82719e-06 -1.70162e-20
-3.22095e-05 2.41099e-05 8.41469e-22
3.79691e-05 4.8541e-06 1.60379e-21
-4.98811e-06 4.95006e-05 8.11958e-21
-1.74387e-06 -1.68861e-05 7.54022e-21
1.81548e-05 9.97157e-06 -1.45696e-20
2.93684e-05 3.03372e-05 4.55196e-21
5.51187e-05 3.80782e-05 -1.02816e-20
-5.33999e-06 3.08258e-05 1.89094e-22
5.92808e-05 -3.5573e-05 -3.23878e-20
-2.71711e-05 5.35038e-06 -2.67618e-20
1.78697e-05 1.10205e-05 -8.23417e-21
-2.96925e-05 9.92072e-06 -7.85111e-21
1.66822e-05 2.85699e-05 -8.73299e-21
1.01872e-05 -4.44631e-05 1.23997e-21
1.9189e-06 1.16406e-05 -1.07893e-20
-1.4826e-05 -1.76503e-05 -1.88107e-21
3.07535e-06 1.75045e-05 -5.10448e-21
2.64521e-05 5.26642e-06 -1.24836e-21
-1.54695e-05 3.32688e-05 -4.80187e-21
4.06219e-05 -1.33557e-05 -5.23248e-21
-3.77938e-06 7.46795e-06 -7.50458e-21
9.96994e-06 5.90933e-06 -1.29857e-20
-2.28437e-06 -1.1344e-05 1.18286e-20
3.22631e-06 -1.92848e-05 2.05966e-21
1.74992e-05 3.89871e-06 -8.6146e-21
-7.94988e-06 4.10433e-05 2.03567e-21
-9.82221e-06 2.4845e-07 -1.23962e-20
9.33462e-06 1.1906e-05 -6.92824e-23
-2.17963e-06 -4.1786e-05 1.15056e-20
4.20951e-05 1.28868e-05 2.3092e-21
4.43029e-06 -7.46586e-06 9.73706e-21
-1.11643e-05 -3.5597e-06 -3.19745e-21
-2.93765e-05 -1.25078e-05 5.02004e-21
1.58307e-05 4.12175e-05 -1.69725e-20
-4.35612e-05 -1.56014e-05 2.10916e-21
1.60458e-05 -4.1194e-05 -6.38688e-21
-3.70568e-06 -3.19752e-05 9.29485e-21
2.18762e-05 6.53308e-07 -4.57745e-21
-7.18369e-06 1.84281e-05 -1.89359e-20
-1.6138e-06 3.97627e-06 -4.83612e-21
-3.69207e-06 -1.65669e-05 3.37533e-21
5.23888e-06 -8.31619e-06 -1.49911e-20
9.3756e-06 1.58906e-05 -1.38877e-20
3.31577e-05 1.06707e-05 9.51882e-22
8.6303e-06 -7.4707e-06 8.14392e-21
-8.28444e-06 -4.52383e-05 1.54951e-20
2.5596e-05 -1.88518e-05 -3.83892e-21
4.98657e-06 2.78187e-05 -4.21543e-21
-2.82116e-06 -2.84644e-06 1.594e-20
-8.6408e-06 -8.33993e-06 6.87325e-21
-4.78469e-06 4.41056e-08 1.47696e-20
-2.2912e-05 2.86441e-05 2.22829e-21
1.87953e-05 -3.74387e-05 -1.81433e-21
-2.66253e-05 4.27891e-05 6.25022e-21
-1.63999e-05 9.55172e-06 -1.06858e-20
2.53223e-06 1.22196e-05 -1.44508e-20
-2.30259e-05 -3.50491e-05 -1.7371e-22
1.39605e-05 3.35233e-05 -5.52133e-21
1.75376e-05 9.38512e-06 -6.52226e-21
2.28505e-05 -8.53707e-06 -8.17359e-21
-1.25512e-06 -1.12845e-05 1.37469e-21
-3.39704e-05 -3.16136e-05 1.35806e-20
-2.75605e-06 1.13227e-05 -5.6728e-21
1.72761e-05 1.0189e-05 -7.8842e-21
1.89197e-05 -8.83576e-06 1.67424e-21
8.25741e-06 -1.43692e-05 1.17249e-20
2.43985e-05 -1.08136e-05 -6.21576e-21
1.9042e-05 -9.01309e-06 -6.33094e-21
4.64864e-06 2.06216e-07 1.60934e-20
2.57849e-05 2.02554e-05 -3.0194e-21
-2.74617e-06 -1.70591e-05 3.21074e-21
-1.04975e-05 -4.46472e-06 1.51621e-20
1.12788e-06 -3.89677e-06 1.1431e-20
-3.16025e-06 1.58739e-05 -1.57667e-20
-3.4944e-05 2.77301e-06 3.47286e-21
-1.21419e-05 -3.33157e-05 1.6768e-21
-7.89237e-06 9.79583e-06 -9.80199e-22
1.35885e-05 1.66686e-05 5.78051e-21
2.66142e-05 -1.87764e-05 4.16121e-21
-3.68559e-05 -2.0387e-05 1.2528e-20
1.74334e-05 -2.75543e-05 -9.85186e-23
2.28432e-05 -2.72627e-05 1.9929e-21
-1.09631e-05 3.79139e-06 -1.38319e-21
-1.98628e-05 -2.88904e-05 1.19159e-20
-3.49404e-05 -5.80151e-06 7.19172e-21
-3.85824e-06 -3.17974e-05 -2.52623e-21
1.54745e-05 -3.17532e-05 7.57011e-22
-9.12147e-06 -2.6244e-05 1.89549e-21
4.58958e-06 3.14592e-05 -5.69385e-21
-1.57788e-05 -2.85716e-05 1.36899e-20
2.94392e-06 -1.632e-05 6.57582e-21
-2.47819e-05 1.82919e-05 -1.95843e-21
-1.50563e-05 -1.21317e-05 2.3254e-21
-2.73993e-05 -5.1813e-06 2.10871e-21
1.56948e-05 -9.1971e-06 -2.95742e-22
-4.31415e-06 2.39933e-05 -1.53696e-20
1.22535e-05 -9.34026e-06 2.03092e-20
-2.96371e-05 -1.31874e-05 6.45341e-21
-8.84659e-06 -7.47093e-06 2.38776e-20
9.09764e-06 7.55362e-06 -4.08079e-21
2.14637e-05 2.87495e-05 3.60738e-21
-1.75387e-05 -1.08278e-05 -1.9512e-21
-3.25627e-05 -7.52312e-07 2.31474e-21
-1.63644e-05 -5.02483e-06 1.44087e-20
-4.58574e-06 -1.66114e-05 8.05064e-21
1.77147e-05 2.12753e-05 -1.34551e-20
-1.09759e-05 5.88492e-06 -1.69305e-20
6.37295e-07 -2.05903e-05 -2.29424e-21
-4.20127e-05 1.08701e-05 -4.4158e-21
2.49031e-05 2.02807e-05 -5.85345e-21
3.80167e-06 3.28414e-05 -9.20974e-21
-2.43613e-06 3.80369e-06 2.7775e-21
-9.06644e-06 2.5166e-07 -9.30935e-21
4.36266e-06 7.77326e-06 -4.80006e-21
-1.17137e-05 3.4072e-06 1.23262e-20
-2.07674e-06 -3.79129e-06 4.71871e-21
1.66277e-06 2.07953e-05 -2.68212e-21
4.48011e-06 4.50412e-07 -7.17313e-21
-1.95718e-05 4.76495e-06 -9.72825e-23
-1.73279e-05 1.93917e-05 -3.82685e-21
-3.11272e-06 1.1598e-05 -6.14806e-21
-2.92673e-05 1.84266e-05 -2.17909e-21
-9.35915e-06 8.99452e-06 -1.51699e-20
1.73407e-05 -1.16335e-05 -2.99765e-21
3.66668e-05 -3.57069e-06 -6.67042e-22
-2.11767e-05 1.13167e-05 -2.31657e-20
2.23681e-06 4.50588e-06 -1.63698e-20
2.18125e-05 -4.35222e-06 -4.83567e-22
-1.73085e-05 1.03706e-05 -1.4004e-20
-9.88871e-06 5.54856e-06 -1.63582e-20
1.18516e-05 3.74914e-06 1.22374e-20
2.19175e-05 -1.3494e-05 5.94996e-21
-1.74097e-05 9.9733e-06 -1.20189e-20
-2.50803e-05 -5.31232e-06 1.02491e-21
-1.67903e-05 -4.37001e-06 5.63127e-21
9.89312e-06 6.32265e-09 1.85998e-20
1.01912e-05 1.95636e-07 -1.14981e-20
4.39837e-06 8.33141e-06 -9.00989e-21
4.8379e-06 -8.81282e-06 6.0634e-21
-5.01891e-06 8.43421e-06 -4.08448e-21
-5.27567e-06 -8.67235e-06 1.21141e-20
9.92793e-06 -7.42057e-06 -3.37882e-21
-2.0362e-05 3.2404e-06 4.3451e-21
-2.0094e-05 -3.28929e-06 -1.88304e-20
-1.28565e-05 1.59034e-05 -1.34838e-20
-1.29364e-05 -1.59578e-05 6.25364e-21
7.49896e-06 -1.98775e-05 -1.16969e-20
7.21822e-06 1.97974e-05 -1.62083e-20
1.56088e-06 2.59294e-05 -3.00674e-21
1.12597e-05 -3.14213e-06 2.18185e-20
2.36406e-06 -3.87303e-06 2.15422e-20
-2.14483e-05 1.42416e-06 -1.4943e-21
7.6902e-06 -1.95462e-05 -1.50963e-20
7.28575e-06 1.9695e-05 -1.22763e-20
4.77691e-06 -5.27951e-08 -2.53681e-20
8.98397e-06 2.44448e-05 -3.02154e-22
-2.24599e-06 -4.02325e-06 9.62129e-21
2.32188e-06 -1.13362e-05 5.23194e-21
-2.24691e-05 -1.21727e-05 3.14796e-21
-2.13943e-05 -1.15142e-05 6.30984e-22
-2.19301e-05 1.36522e-05 -9.99818e-21
3.25674e-06 -1.23083e-05 -1.24087e-20
-1.56785e-06 3.3878e-06 -1.14284e-20
-5.87888e-07 -2.56127e-05 8.70355e-22
-7.73295e-06 -2.44647e-05 8.46824e-21
3.27595e-05 3.04134e-05 1.78878e-21
3.55131e-05 -1.8182e-06 1.42039e-21
-1.27324e-05 -3.63823e-06 -1.50515e-20
-2.29311e-05 -4.14574e-05 9.81037e-21
8.31838e-06 1.3771e-05 3.29538e-21
-2.52789e-05 3.03861e-06 -1.06233e-21
2.0099e-05 5.7961e-06 1.70331e-21
-4.54077e-06 -3.27754e-08 1.30167e-20
-4.67286e-06 -8.42676e-06 7.38615e-21
-7.08466e-06 -3.93988e-05 -1.11437e-20
-9.72451e-06 -8.41455e-08 1.50644e-20
-4.87585e-05 -1.81883e-06 -1.40634e-21
1.73382e-05 -1.91373e-05 1.471e-20
2.43353e-06 4.00571e-06 -1.16064e-20
-1.20611e-07 -1.7543e-05 1.42331e-20
-9.83457e-06 2.41249e-05 -7.90184e-21
-4.37922e-06 8.64176e-06 -6.44455e-21
2.05908e-05 -1.36287e-05 1.72138e-21
-3.77219e-05 -1.35741e-05 3.8367e-22
-1.52912e-05 -2.04005e-05 9.40602e-21
4.98535e-06 8.403e-06 -2.09947e-20
1.66589e-05 5.16913e-06 -6.47096e-21
-4.77171e-06 -7.35068e-06 1.41091e-20
1.98294e-05 3.55318e-06 3.24668e-21
1.82187e-05 -9.842e-06 -2.45945e-21
-3.49269e-07 2.72177e-05 -1.17089e-20
8.33433e-06 -1.36893e-05 1.93035e-20
4.88845e-05 2.20429e-06 3.18978e-21
-4.24285e-05 1.14735e-05 1.03788e-21
2.28974e-05 1.1575e-05 -7.28638e-21
-6.46337e-06 -1.72077e-05 1.556e-20
-1.5375e-05 -8.63238e-06 9.00481e-21
2.88344e-05 -2.10865e-07 2.19932e-21
-6.9293e-07 -2.42944e-05 -3.03461e-21
-1.2638e-05 -1.08918e-05 3.32709e-21
1.0241e-05 -2.35378e-05 2.84173e-21
-4.97207e-07 2.05888e-05 -5.2856e-21
7.93095e-06 2.61102e-05 -3.3074e-21
1.7296e-05 -9.90018e-06 -3.59608e-21
-1.89788e-05 1.93305e-05 -6.36468e-21
1.65549e-05 2.00618e-05 -2.23801e-21
-6.23313e-05 1.60479e-05 -1.62211e-20
-1.01253e-05 2.60582e-05 -1.66966e-20
1.25394e-05 -1.52729e-05 1.17688e-21
-7.04039e-06 -1.84275e-05 1.0128e-20
-1.18726e-05 4.51311e-06 -1.71822e-20
-2.59358e-05 -7.05739e-06 -2.1278e-21
-6.39632e-06 3.89206e-05 -8.46836e-21
-1.26263e-05 1.19217e-05 -1.20609e-20
2.08102e-05 -4.48275e-06 -4.79186e-21
-6.88334e-06 -2.58363e-05 -3.20148e-22
-1.48928e-05 2.39302e-05 -4.64576e-21
-2.18241e-05 1.25851e-05 -2.54731e-20
-2.0603e-05 -1.50802e-05 2.81207e-21
1.80577e-05 -2.06883e-05 -7.85425e-21
-2.75759e-05 -1.45862e-06 -2.23697e-21
1.23885e-05 -4.08762e-05 -3.21219e-21
1.94178e-05 -1.89436e-05 6.21992e-21
2.47733e-05 4.31515e-05 -5.26881e-21
1.97447e-06 1.98986e-05 -1.46718e-20
2.96633e-06 -2.54624e-05 3.29128e-21
-4.17036e-05 4.70378e-05 -2.02555e-20
-1.27226e-05 -2.44516e-05 1.43197e-20
1.63933e-05 -6.43081e-06 9.19861e-21
-2.41436e-06 2.58143e-05 1.02332e-22
1.29038e-05 -1.18454e-05 -2.18191e-21
1.39033e-05 2.43523e-05 -4.8751e-21
1.72577e-05 -1.40272e-06 -5.83976e-21
2.21574e-05 -6.33193e-05 1.15667e-21
-5.88547e-06 -1.28802e-05 7.56334e-21
-2.32223e-05 1.01039e-05 -1.18341e-20
-2.00522e-05 1.87493e-05 -8.68674e-21
2.16475e-05 1.45911e-05 8.86114e-23
1.87029e-05 -1.07739e-05 -2.09226e-21
1.49761e-05 1.26137e-05 -6.91588e-21
-5.43673e-06 4.5693e-08 -7.62359e-21
1.54289e-05 -2.31245e-05 1.05336e-20
-1.70178e-05 -2.04428e-05 7.74285e-21
2.25984e-05 9.78942e-06 -4.26957e-21
1.28273e-05 -1.2009e-05 -8.21151e-21
9.5698e-06 -2.4892e-05 7.01323e-21
1.66861e-05 -6.944e-06 9.38763e-22
-1.58311e-05 -7.55694e-06 -6.28377e-21
1.29907e-06 -2.63453e-05 -5.93968e-22
-2.61496e-05 4.48048e-06 -3.26165e-21
2.39465e-06 2.45827e-05 -2.49218e-21
2.06182e-05 6.63811e-06 9.4187e-22
-2.17559e-05 -1.07194e-05 5.10878e-21
-8.99149e-06 2.56519e-05 -9.44781e-22
-1.49749e-06 -2.42273e-05 2.45278e-21
1.94978e-05 1.18564e-05 -1.46255e-20
-1.77167e-06 1.81141e-05 -1.23003e-20
-2.01716e-05 1.37253e-05 -1.56608e-20
2.3549e-05 1.14336e-05 2.19453e-21
-1.71431e-05 -1.00018e-05 -1.75792e-21
9.54146e-08 -1.9867e-05 -2.61018e-21
1.84124e-05 2.00166e-05 -7.17079e-21
-2.21897e-05 -1.43269e-05 -2.3666e-21
4.84306e-05 -3.40361e-05 -1.62908e-21
1.79262e-05 -1.084e-05 -8.37551e-21
9.01748e-06 4.31579e-05 -7.00524e-22
1.7062e-05 -1.37008e-05 4.70494e-21
-1.99014e-05 8.71812e-05 6.53275e-22
-1.97909e-05 -8.66955e-05 -6.34241e-21
5.72817e-05 7.1832e-05 -4.09291e-21
5.70198e-05 -7.15046e-05 -1.16176e-20
9.0795e-05 -8.21759e-11 -8.50486e-21
-7.83289e-05 3.77139e-05 1.69949e-21
-7.75832e-05 -3.73559e-05 -3.91479e-22
1.22539e-05 1.18379e-05 -8.30646e-21
2.94161e-05 2.19282e-05 -6.0218e-21
1.1467e-05 3.33826e-06 -1.17427e-20
1.88867e-05 9.76745e-06 4.68415e-21
4.99777e-06 2.02033e-05 -3.90448e-21
-1.8863e-05 -1.50055e-05 5.30746e-21
1.70661e-05 -1.02309e-05 3.29038e-21
1.98854e-05 1.45732e-05 -1.21611e-21
-3.17185e-06 2.44043e-05 -3.04957e-21
2.9489e-05 -2.00256e-05 -3.04801e-21
3.80056e-06 -2.37791e-05 4.07144e-21
2.1997e-05 5.23557e-06 -5.96479e-21
2.99453e-05 1.1044e-05 -6.69677e-21
1.42322e-05 1.41671e-05 -1.57427e-20
1.59094e-05 6.60451e-06 -1.52325e-20
-1.85294e-05 1.09549e-05 -1.84303e-20
-2.26007e-05 9.05184e-06 -1.22162e-20
2.29673e-05 -1.1282e-05 -5.87718e-21
-1.82982e-05 -1.00147e-05 5.69744e-21
-1.85853e-05 -1.06002e-05 2.0549e-21
-3.44193e-07 -2.08021e-05 6.26665e-21
-8.59722e-08 -2.11959e-05 8.14028e-22
-2.01607e-05 -1.00713e-06 -7.06597e-21
2.67432e-05 -4.02572e-06 -5.23248e-21
1.81421e-05 1.13608e-05 1.04343e-21
-1.78939e-05 1.09635e-05 -2.3997e-20
-1.53868e-05 1.66512e-05 -2.17257e-20
1.60488e-05 -1.37759e-05 8.16515e-21
-1.10416e-05 1.74927e-05 -5.9992e-21
-1.42484e-05 -1.49146e-05 1.24681e-20
-1.15686e-06 2.1246e-05 -5.60024e-21
-1.28959e-06 2.10031e-05 -6.00836e-21
9.0106e-08 -1.98669e-05 4.16345e-21
6.1213e-06 -1.977e-05 7.12211e-21
-1.71694e-05 -9.95212e-06 -7.49064e-23
1.56127e-05 -5.49932e-06 -2.613e-21
6.64556e-07 2.15135e-05 -8.18058e-21
3.01556e-07 1.85383e-05 -7.9615e-21
-2.34943e-06 1.68855e-05 -6.81859e-21
2.19452e-05 -5.53652e-06 -1.03268e-20
-1.65687e-05 5.38714e-06 -2.10373e-20
4.16467e-06 2.15533e-05 -7.45197e-21
-3.26124e-05 1.29408e-05 -2.13248e-20
9.78083e-06 4.1801e-05 -9.89148e-21
-1.70818e-05 4.57583e-06 -2.74424e-20
1.97172e-05 -1.16493e-05 1.38064e-21
9.47622e-07 2.10546e-05 -8.3331e-21
-2.05157e-05 6.71074e-06 -7.74583e-21
2.44832e-06 -1.62896e-05 -3.75714e-21
1.82492e-06 -5.81102e-05 -2.38677e-21
2.01006e-06 1.75154e-05 -1.5937e-21
-1.69904e-05 1.40464e-05 -1.32397e-20
1.78853e-05 6.40789e-05 -6.36435e-21
4.58455e-05 3.77696e-05 -3.6868e-21
5.21518e-05 -3.53144e-05 -2.64064e-20
1.48403e-05 -1.0184e-05 5.69175e-21
-1.58119e-05 1.40615e-05 -1.95802e-20
-2.0251e-05 -7.93407e-06 -2.55045e-21
-1.96788e-05 -6.83402e-06 -8.10583e-21
5.9366e-05 -2.4653e-05 -2.1678e-20
5.75296e-05 2.39106e-05 -6.26228e-21
1.09127e-05 3.82385e-06 -1.58909e-20
7.6815e-07 1.96121e-05 -5.27965e-21
7.87056e-08 1.95934e-05 -5.23364e-21
-4.84642e-05 -3.69849e-05 7.73786e-21
1.14446e-05 -1.72006e-05 8.36878e-21
1.17529e-05 1.24854e-05 -1.52682e-20
-2.14544e-05 -3.40147e-06 -7.06033e-21
-1.40685e-05 1.72314e-05 -1.38208e-20
-1.89205e-05 9.18343e-06 -1.79034e-20
4.7724e-05 3.37497e-05 -5.29018e-21
1.5833e-05 7.07341e-06 -7.58554e-21
-5.57583e-06 2.00644e-05 3.47836e-22
-1.70066e-05 -1.17692e-05 9.18533e-21
1.85966e-06 -2.05774e-05 6.76926e-21
-8.96464e-06 -1.93e-05 8.2141e-21
-1.72782e-05 -1.17936e-05 2.85455e-21
1.05976e-05 -1.89676e-05 1.334e-20
1.41464e-05 -1.70178e-05 9.04664e-21
-2.44307e-06 -6.15426e-05 1.14864e-21
2.6225e-05 -4.11948e-05 1.93579e-21
1.75073e-06 -2.08206e-05 1.32276e-20
1.79889e-05 1.13744e-05 -9.6735e-23
-1.45007e-05 -1.49308e-05 8.91193e-21
-9.85752e-06 1.97436e-05 -4.72847e-21
-5.04771e-06 2.10423e-05 -4.12245e-21
1.66553e-05 1.42676e-05 8.56782e-21
6.06952e-06 -1.98949e-05 1.15422e-20
-1.34279e-05 -4.04275e-05 5.04078e-21
-1.99157e-06 2.50826e-05 -1.104e-20
1.4817e-05 1.44794e-05 -1.79684e-21
-1.29802e-05 -1.0234e-05 -6.02137e-21
-1.35378e-05 1.06262e-05 -9.42046e-21
4.44177e-05 -1.89446e-05 -5.03847e-22
7.57603e-06 -1.34227e-05 1.03626e-20
-8.33109e-06 -1.26486e-05 9.13376e-21
2.13664e-05 6.37429e-06 1.66351e-21
1.1013e-05 -5.07474e-05 -6.47643e-21
-3.85163e-05 -3.49619e-05 -2.89831e-21
2.3346e-05 6.21776e-06 -4.09481e-21
-9.34382e-06 -1.83124e-05 1.35563e-20
1.87372e-05 9.49869e-06 -2.22315e-21
-2.86125e-05 -3.26082e-05 -5.51889e-21
9.70465e-06 5.01313e-05 3.84842e-21
3.4392e-05 -5.99606e-05 -7.50257e-21
-3.47958e-05 -5.98773e-05 -1.55462e-20
2.78576e-05 -5.21093e-05 -5.13649e-21
-1.27194e-05 4.37069e-05 -2.6794e-20
-6.28655e-06 3.90431e-05 -8.65947e-21
-1.87625e-05 8.96116e-06 -1.50879e-20
5.98743e-06 2.42831e-05 -1.17494e-20
-2.39546e-06 1.26756e-05 -3.66811e-21
1.01372e-05 3.23856e-06 -1.41129e-20
-3.19367e-06 1.62328e-05 -1.61551e-20
-2.47705e-07 2.10271e-05 -9.10734e-21
1.66887e-05 9.76695e-06 -8.44003e-21
1.71567e-06 5.78226e-05 4.15615e-21
-1.47421e-05 1.0751e-05 -1.80858e-20
1.59764e-05 -6.25706e-06 1.21842e-20
1.69003e-05 -4.51648e-06 1.46135e-20
-6.07686e-05 -8.78445e-06 5.77478e-21
-3.4664e-05 1.67697e-05 -2.62843e-20
-4.35887e-05 -5.2638e-05 1.15155e-20
8.67124e-06 8.35978e-06 -1.62601e-20
1.42338e-05 7.30478e-06 -2.10545e-20
2.685e-05 -4.20285e-06 -8.06297e-21
-8.11797e-06 -1.32654e-05 1.99596e-20
1.72456e-05 8.44275e-06 -2.46599e-21
7.34784e-06 -3.00852e-05 -7.40693e-21
-1.37367e-05 1.02224e-05 -1.46644e-20
-2.2412e-05 -2.14584e-05 4.41073e-21
-5.84568e-06 1.63254e-05 -6.16851e-21
-3.27632e-06 2.07133e-05 -1.22005e-20
3.39068e-05 2.13322e-05 -1.45254e-20
3.6174e-05 -1.93153e-05 -1.14376e-20
-4.21432e-05 -1.16437e-05 2.39758e-21
7.64703e-06 7.69862e-06 -1.77427e-20
-4.06279e-06 0.000101532 -2.21497e-21
8.65934e-07 -0.000104645 -1.14907e-20
5.25454e-05 8.7793e-05 5.32292e-21
-1.91351e-05 8.47231e-06 -2.36093e-20
-2.64191e-05 5.6648e-05 -1.75914e-21
5.31254e-05 -8.47829e-05 -7.21279e-21
-1.17402e-05 -1.83136e-05 1.15517e-20
7.81312e-05 6.76092e-05 -8.31175e-21
2.4034e-05 -1.8007e-05 -4.4374e-21
-3.61338e-06 -2.98723e-05 3.75201e-22
8.19161e-05 -6.59587e-05 -7.6729e-21
-6.75581e-06 1.4543e-05 4.83072e-23
-5.39256e-05 -3.48858e-05 5.90577e-21
-4.30851e-05 -9.32924e-05 1.08065e-21
-2.41522e-05 -5.79033e-05 -1.21045e-21
-4.40478e-05 9.43001e-05 6.98285e-21
-1.01091e-05 6.41933e-05 -2.09505e-21
1.56592e-05 3.71706e-05 -2.87898e-21
-2.80021e-05 3.73057e-05 -6.64428e-22
-2.53138e-05 -5.52796e-05 -1.7333e-21
0.000100533 1.73457e-05 -1.3963e-20
-1.69559e-05 1.07854e-05 -1.61011e-20
-5.92213e-06 1.63604e-05 -1.20322e-20
-5.08457e-05 3.77071e-05 6.16531e-21
-1.73053e-05 9.96102e-06 -1.69505e-20
9.93686e-05 -1.52884e-05 -3.95872e-21
-1.5386e-05 7.81199e-06 -1.00667e-20
7.20495e-06 -1.45192e-05 7.97618e-21
-7.81012e-05 -6.10554e-05 7.81462e-21
-2.59212e-05 5.78159e-05 -1.7131e-21
-7.92548e-05 6.04814e-05 -1.5925e-22
2.45835e-05 5.20371e-05 -2.35557e-21
-1.47924e-05 1.06005e-05 -2.09219e-20
-2.05643e-05 2.45178e-05 -1.95153e-20
-2.85805e-05 4.99016e-05 4.46754e-21
-5.68714e-05 2.08425e-07 -1.96936e-20
-9.45494e-07 1.63234e-05 -4.87601e-21
-2.88978e-05 -5.04911e-05 4.96477e-21
-5.82961e-05 -2.20377e-07 3.97551e-21
-2.83971e-05 4.87781e-05 -8.53903e-21
-1.52157e-05 6.63774e-05 -4.71137e-22
-1.78936e-05 4.13314e-05 9.18781e-21
-3.39572e-05 2.7183e-05 -2.04901e-20
2.44238e-05 -6.06701e-06 -4.3763e-21
3.80665e-05 -2.19886e-06 -6.20727e-21
1.3505e-05 8.21401e-06 -2.05199e-20
-1.04866e-05 -7.41118e-05 -2.49303e-21
-6.95655e-05 -2.80212e-05 -8.49549e-21
3.71945e-05 7.3385e-07 -1.14433e-20
5.84643e-05 -1.091e-05 -3.86842e-21
-1.06014e-05 -1.352e-05 1.05647e-20
-5.09138e-05 3.76934e-05 9.20701e-21
-4.62112e-05 5.40937e-05 -4.73071e-21
6.24675e-05 -2.22693e-05 -3.1659e-21
-2.82247e-05 -5.05819e-05 1.43347e-21
-2.88255e-05 4.98631e-05 -1.48252e-21
-5.73507e-05 -1.17321e-06 -2.61518e-20
-2.66179e-05 5.0683e-05 -1.42223e-20
-5.80506e-05 -8.18316e-07 6.88866e-22
6.6187e-05 1.74217e-05 2.23086e-21
5.64749e-05 1.29487e-06 1.07546e-21
5.09856e-05 -2.9323e-05 -1.17599e-20
2.49522e-05 -5.95266e-05 -2.47311e-20
2.99688e-05 -4.89389e-05 -2.52307e-20
2.92164e-05 4.87626e-05 -1.3629e-20
2.4386e-05 5.81867e-05 -1.06307e-20
7.59297e-05 -2.00716e-05 -6.86649e-21
4.6344e-05 2.9112e-05 -1.21067e-20
4.67025e-05 1.37684e-05 -1.41876e-20
TENSORS solid_stress_TPM float
375.146 -24.9249 -4.96433e-12
-24.9249 238.64 -1.71951e-12
-4.96433e-12 -1.71951e-12 197.885

457.172 -21.3228 -1.34071e-12
-21.3228 490.161 -1.01548e-12
-1.34071e-12 -1.01548e-12 487.273

455.043 28.0544 9.60121e-12
28.0544 463.877 -5.18696e-13
9.60121e-12 -5.18696e-13 458.619

455.201 -29.8417 1.21917e-12
-29.8417 482.786 -2.4866e-12
1.21917e-12 -2.4866e-12 485.022

527.816 19.9304 -4.0945e-13
19.9304 548.562 1.00475e-12
-4.0945e-13 1.00475e-12 527.487

437.469 -18.0823 2.26397e-12
-18.0823 480.513 -3.04527e-12
2.26397e-12 -3.04527e-12 458.2

372.44 26.4898 -5.32907e-12
26.4898 239.16 6.28238e-12
-5.32907e-12 6.28238e-12 197.869

473.816 29.9648 -7.56728e-13
29.9648 469.667 -2.49578e-12
-7.56728e-13 -2.49578e-12 472.497

471.726 5.48517 -2.68585e-12
5.48517 417.974 -2.70106e-12
-2.68585e-12 -2.70106e-12 432.952

504.432 -7.47791 -9.38509e-14
-7.47791 444.279 -1.38208e-12
-9.38509e-14 -1.38208e-12 483.614

360.419 16.317 -8.47914e-13
16.317 247.733 3.73568e-12
-8.47914e-13 3.73568e-12 233.728

444.941 -13.4576 2.45641e-12
-13.4576 498.556 -1.59991e-12
2.45641e-12 -1.59991e-12 472.398

467.032 27.8416 1.59398e-12
27.8416 468.471 -6.92779e-14
1.59398e-12 -6.92779e-14 466.894

457.194 -14.3444 -1.54434e-12
-14.3444 500.603 2.83507e-12
-1.54434e-12 2.83507e-12 483.616

513.075 33.3015 2.09314e-13
33.3015 511.741 1.27065e-12
2.09314e-13 1.27065e-12 515.367

489.351 0.561466 3.45797e-13
0.561466 435.685 -2.93469e-14
3.45797e-13 -2.93469e-14 462.434

457.743 -17.9677 -1.88582e-12
-17.9677 513.046 1.32043e-12
-1.88582e-12 1.32043e-12 493.752

494.134 -2.66519 -9.44726e-13
-2.66519 439.208 -1.82276e-12
-9.44726e-13 -1.82276e-12 474.426

418.946 26.687 4.0045e-12
26.687 449.828 -3.82213e-12
4.0045e-12 -3.82213e-12 424.207

482.158 -4.19771 9.65154e-13
-4.19771 425.075 5.17038e-12
9.65154e-13 5.17038e-12 453.635

425.449 8.67354 -2.95408e-12
8.67354 482.077 5.35276e-13
-2.95408e-12 5.35276e-13 444.998

634.151 6.28052 -6.26372e-12
6.28052 634.001 -2.95867e-12
-6.26372e-12 -2.95867e-12 570.407

479.329 1.87656 2.18492e-13
1.87656 423.092 -2.22792e-12
2.18492e-13 -2.22792e-12 449.891

447.324 -27.7268 1.34589e-12
-27.7268 461.318 1.1422e-12
1.34589e-12 1.1422e-12 453.107

481.225 6.8519 1.14871e-13
6.8519 425.594 -6.1909e-12
1.14871e-13 -6.1909e-12 453.098

449.918 19.117 2.49874e-13
19.117 490.489 2.62427e-12
2.49874e-13 2.62427e-12 478.366

377.787 4.1836 1.82373e-12
4.1836 291.749 -1.79146e-12
1.82373e-12 -1.79146e-12 259.095

462.847 30.7562 -8.20677e-13
30.7562 460.874 7.53175e-13
-8.20677e-13 7.53175e-13 460.702

385.082 37.0944 -1.62122e-12
37.0944 383.661 -2.13281e-12
-1.62122e-12 -2.13281e-12 348.548

587.016 10.324 -2.59052e-13
10.324 563.547 2.59622e-12
-2.59052e-13 2.59622e-12 546.985

491.862 14.2192 3.83752e-12
14.2192 442.656 3.3844e-12
3.83752e-12 3.3844e-12 466.016

352.98 -17.7901 -3.34074e-12
-17.7901 416.882 -2.78059e-12
-3.34074e-12 -2.78059e-12 348.719

331.129 -42.1201 4.583e-12
-42.1201 335.986 4.44089e-12
4.583e-12 4.44089e-12 253.573

531.51 5.98109 -2.31271e-12
5.98109 586.978 3.81354e-12
-2.31271e-12 3.81354e-12 538.7

554.118 -4.83204 2.73441e-12
-4.83204 582.162 -6.83305e-12
2.73441e-12 -6.83305e-12 542.629

578.074 21.0256 -2.79865e-12
21.0256 540.05 5.229e-12
-2.79865e-12 5.229e-12 538.468

556.276 5.05896 3.86047e-12
5.05896 600.744 -2.83743e-12
3.86047e-12 -2.83743e-12 548.08

573.865 -9.17384 7.63537e-12
-9.17384 555.868 -2.92405e-13
7.63537e-12 -2.92405e-13 540.756

467.291 -28.0071 -4.12115e-13
-28.0071 466.659 1.04923e-12
-4.12115e-13 1.04923e-12 465.266

330.513 41.5391 7.96518e-12
41.5391 338.085 4.67537e-12
7.96518e-12 4.67537e-12 253.932

414.682 -17.9586 -6.05382e-12
-17.9586 354.612 -4.30589e-12
-6.05382e-12 -4.30589e-12 346.448

559.396 -3.69873 -2.66454e-15
-3.69873 599.993 -7.61169e-13
-2.66454e-15 -7.61169e-13 548.494

586.493 19.5429 -5.57317e-12
19.5429 572.533 -2.82056e-12
-5.57317e-12 -2.82056e-12 548.283

491.069 -12.275 2.15768e-12
-12.275 443.011 1.68798e-12
2.15768e-12 1.68798e-12 466.689

341.827 -43.3208 1.54898e-12
-43.3208 345.457 -1.75267e-12
1.54898e-12 -1.75267e-12 289.08

417.71 -18.0728 -5.07683e-12
-18.0728 357.231 8.79889e-13
-5.07683e-12 8.79889e-13 351.624

413.154 17.094 3.47426e-13
17.094 464.947 -1.893e-12
3.47426e-13 -1.893e-12 428.873

429.778 19.3485 -2.71102e-12
19.3485 466.678 -1.91254e-13
-2.71102e-12 -1.91254e-13 437.229

486.943 -16.3065 -1.3524e-12
-16.3065 433.02 -1.32635e-13
-1.3524e-12 -1.32635e-13 458.827

355.7 -34.2037 -8.05282e-14
-34.2037 389.538 3.67114e-12
-8.05282e-14 3.67114e-12 332.684

410.398 19.192 -8.76336e-14
19.192 350.817 -2.78888e-12
-8.76336e-14 -2.78888e-12 339.595

425.353 -25.3015 -5.59316e-12
-25.3015 383.951 -2.60621e-12
-5.59316e-12 -2.60621e-12 373.206

520.03 19.4778 -1.20718e-12
19.4778 547.649 4.21589e-13
-1.20718e-12 4.21589e-13 525.855

416.56 29.665 -9.26074e-13
29.665 394.023 -3.63561e-13
-9.26074e-13 -3.63561e-13 374.071

522.299 -21.8124 -7.13711e-12
-21.8124 541.503 1.34205e-12
-7.13711e-12 1.34205e-12 524.502

364.192 -42.7316 -1.71241e-12
-42.7316 343.395 1.55135e-12
-1.71241e-12 1.55135e-12 289.798

553.54 5.45079 2.94831e-12
5.45079 583.953 3.2457e-12
2.94831e-12 3.2457e-12 543.003

373.842 -5.33292 -1.52115e-12
-5.33292 436.821 -3.37626e-12
-1.52115e-12 -3.37626e-12 373.955

580.896 10.3861 5.67842e-13
10.3861 556.266 -1.81713e-12
5.67842e-13 -1.81713e-12 542.759

435.206 21.4217 -1.2097e-12
21.4217 473.926 -8.71007e-13
-1.2097e-12 -8.71007e-13 454.824

513.724 5.75754 1.52693e-12
5.75754 452.96 -6.3934e-13
1.52693e-12 -6.3934e-13 495.014

522.605 11.4593 2.69503e-12
11.4593 488.001 -4.4406e-12
2.69503e-12 -4.4406e-12 507.22

383.831 31.8321 -3.82035e-12
31.8321 315.292 -2.72493e-12
-3.82035e-12 -2.72493e-12 269.962

482.227 -6.03923 -4.10575e-12
-6.03923 528.326 -3.08376e-12
-4.10575e-12 -3.08376e-12 504.242

487.237 9.52318 5.7249e-12
9.52318 523.836 -6.64269e-12
5.7249e-12 -6.64269e-12 507.638

456.601 -2.8839 2.70439e-12
-2.8839 520.309 -1.12384e-12
2.70439e-12 -1.12384e-12 487.953

464.606 23.3993 -3.27368e-12
23.3993 503.626 7.30971e-13
-3.27368e-12 7.30971e-13 495.59

496.913 8.46646 9.90911e-13
8.46646 444.551 4.00865e-13
9.90911e-13 4.00865e-13 477.853

445.663 -28.2511 3.93966e-12
-28.2511 459.69 4.96196e-13
3.93966e-12 4.96196e-13 451.321

501.848 -1.71246 -2.05066e-12
-1.71246 445.078 -2.21105e-12
-2.05066e-12 -2.21105e-12 489.224

519.643 -19.2538 6.36972e-13
-19.2538 546.943 1.18986e-12
6.36972e-13 1.18986e-12 525.588

523.427 21.3077 1.82994e-12
21.3077 543.027 -1.2925e-12
1.82994e-12 -1.2925e-12 525.391

353.53 -16.5925 -5.74267e-12
-16.5925 415.889 3.6889e-12
-5.74267e-12 3.6889e-12 346.237

506.168 -27.9405 7.09477e-12
-27.9405 485.447 -3.51067e-12
7.09477e-12 -3.51067e-12 494.023

449.88 -25.1435 2.17722e-12
-25.1435 471.388 1.60464e-12
2.17722e-12 1.60464e-12 458.734

357.991 -31.7247 1.01371e-12
-31.7247 285.766 -2.14495e-12
1.01371e-12 -2.14495e-12 249.945

498.622 3.22456 2.88954e-13
3.22456 541.54 -9.89431e-13
2.88954e-13 -9.89431e-13 513.776

501.874 28.9493 2.36255e-13
28.9493 474.698 -1.2023e-12
2.36255e-13 -1.2023e-12 487.804

448.598 19.6678 -7.69755e-14
19.6678 492.273 1.76925e-12
-7.69755e-14 1.76925e-12 477.797

440.356 8.00368 1.68399e-12
8.00368 373.166 1.41783e-12
1.68399e-12 1.41783e-12 383.072

386.589 -33.9526 4.80801e-12
-33.9526 360.33 -1.84386e-12
4.80801e-12 -1.84386e-12 319.55

537.821 -10.5849 3.71851e-12
-10.5849 556.255 4.87965e-12
3.71851e-12 4.87965e-12 531.372

482.81 23.9026 -3.8772e-12
23.9026 504.704 1.91241e-13
-3.8772e-12 1.91241e-13 502.189

385.51 -32.4005 2.8777e-12
-32.4005 345.425 -8.11203e-13
2.8777e-12 -8.11203e-13 317.195

422.354 10.7967 -1.29437e-12
10.7967 363.976 2.55411e-12
-1.29437e-12 2.55411e-12 350.379

307.752 -21.2165 4.80031e-12
-21.2165 388.581 -7.83492e-12
4.80031e-12 -7.83492e-12 288.218

434.592 14.4296 -1.13635e-12
14.4296 488.835 9.72259e-13
-1.13635e-12 9.72259e-13 461.037

509.869 23.1509 1.92202e-12
23.1509 475.315 1.37756e-12
1.92202e-12 1.37756e-12 490.091

338.356 42.2197 -4.07378e-12
42.2197 349.692 -1.03029e-13
-4.07378e-12 -1.03029e-13 289.054

634.243 16.4997 6.62663e-12
16.4997 603.117 1.33012e-11
6.62663e-12 1.33012e-11 565.415

373.019 -4.11072 -6.02511e-12
-4.11072 436.981 -1.05634e-12
-6.02511e-12 -1.05634e-12 373.562

637.146 -16.6253 6.33197e-12
-16.6253 599.59 -2.6823e-13
6.33197e-12 -2.6823e-13 564.922

534.063 -27.3341 -5.86139e-12
-27.3341 507.37 1.42612e-12
-5.86139e-12 1.42612e-12 515.848

505.448 27.4279 6.66134e-13
27.4279 466.478 2.95171e-13
6.66134e-13 2.95171e-13 485.218

427.085 -24.4231 -4.66708e-12
-24.4231 386.376 3.47041e-12
-4.66708e-12 3.47041e-12 376.115

359.061 31.3402 -9.50943e-13
31.3402 396.149 -8.45546e-13
-9.50943e-13 -8.45546e-13 339.323

339.94 -10.7104 -6.88042e-13
-10.7104 408.541 -8.90547e-13
-6.88042e-13 -8.90547e-13 319.22

453.271 21.9736 -3.36028e-13
21.9736 494.847 9.08903e-14
-3.36028e-13 9.08903e-14 483.327

533.249 16.7987 4.1626e-13
16.7987 506.324 1.60227e-12
4.1626e-13 1.60227e-12 513.489

443.61 15.1604 1.25233e-13
15.1604 488.61 3.17968e-13
1.25233e-13 3.17968e-13 464.439

451.65 15.9612 -6.89226e-13
15.9612 400.679 7.3482e-13
-6.89226e-13 7.3482e-13 403.892

374.621 -21.484 -3.13823e-14
-21.484 420.024 5.49013e-12
-3.13823e-14 5.49013e-12 357.328

389.863 -29.4057 -6.03961e-13
-29.4057 342.487 -5.38118e-12
-6.03961e-13 -5.38118e-12 314.504

455.132 -24.5785 9.9476e-13
-24.5785 480.234 -9.6693e-13
9.9476e-13 -9.6693e-13 478.531

466.587 27.4581 2.5017e-13
27.4581 478.903 3.33363e-12
2.5017e-13 3.33363e-12 479.965

452.385 23.1905 -3.95521e-12
23.1905 492.729 6.28238e-13
-3.95521e-12 6.28238e-13 482.204

466.44 13.1674 3.7194e-12
13.1674 529.919 -6.53995e-12
3.7194e-12 -6.53995e-12 501.527

491.035 9.37433 2.49874e-12
9.37433 438.044 -3.10966e-12
2.49874e-12 -3.10966e-12 462.213

327.822 -4.66714 4.33875e-12
-4.66714 403.53 -1.4874e-12
4.33875e-12 -1.4874e-12 314.526

462.749 -36.8267 -9.53608e-13
-36.8267 487.856 1.06596e-12
-9.53608e-13 1.06596e-12 492.906

446.008 27.4762 -3.92516e-12
27.4762 463.435 -5.28762e-13
-3.92516e-12 -5.28762e-13 455.171

305.771 2.17094 6.40095e-12
2.17094 393.505 -2.32111e-13
6.40095e-12 -2.32111e-13 297.363

386.136 34.6279 -2.33295e-12
34.6279 332.561 -4.58241e-12
-2.33295e-12 -4.58241e-12 306.356

453.513 -22.9802 -3.11854e-12
-22.9802 480.24 2.66424e-12
-3.11854e-12 2.66424e-12 476.333

501.567 5.73286 1.98745e-12
5.73286 441.482 3.87512e-12
1.98745e-12 3.87512e-12 481.171

422.539 27.2181 -4.08681e-12
27.2181 389.908 -1.77636e-12
-4.08681e-12 -1.77636e-12 374.371

570.641 12.7421 5.71794e-12
12.7421 566.002 -1.93623e-12
5.71794e-12 -1.93623e-12 543.031

396.323 24.3431 1.06084e-11
24.3431 349.77 -4.29286e-12
1.06084e-11 -4.29286e-12 319.16

569.265 -13.0515 -1.16751e-12
-13.0515 565.913 3.27146e-12
-1.16751e-12 3.27146e-12 542.487

375.224 0.779129 5.88241e-12
0.779129 439.035 -1.42345e-12
5.88241e-12 -1.42345e-12 374.778

461.644 -2.23646 -4.42905e-13
-2.23646 399.445 -9.58937e-13
-4.42905e-13 -9.58937e-13 417.432

538.331 -15.7616 8.91731e-13
-15.7616 480.78 1.26595e-12
8.91731e-13 1.26595e-12 513.619

457.41 24.389 -1.44318e-12
24.389 487.956 -1.32561e-12
-1.44318e-12 -1.32561e-12 488.514

461.412 -13.5366 -2.02615e-13
-13.5366 519.291 1.82965e-13
-2.02615e-13 1.82965e-13 495.866

515.13 -7.99766 -4.61956e-12
-7.99766 438.365 -4.06194e-13
-4.61956e-12 -4.06194e-13 494.434

488.451 -22.2758 -7.23125e-13
-22.2758 541.73 2.51384e-12
-7.23125e-13 2.51384e-12 515.887

556.152 -6.60438 -2.43006e-12
-6.60438 560.493 -5.40531e-13
-2.43006e-12 -5.40531e-13 538.848

464.034 -29.9098 9.32291e-13
-29.9098 483.367 8.87586e-13
9.32291e-13 8.87586e-13 483.76

341.825 11.4593 -2.48779e-12
11.4593 406.344 -4.95722e-12
-2.48779e-12 -4.95722e-12 319.599

422.638 -28.1613 -2.31874e-12
-28.1613 391.383 2.32288e-12
-2.31874e-12 2.32288e-12 375.284

507.498 -13.7655 2.74773e-12
-13.7655 558.864 6.07129e-12
2.74773e-12 6.07129e-12 525.379

501.227 0.506689 -1.44788e-12
0.506689 441.447 4.76456e-12
-1.44788e-12 4.76456e-12 487.247

477.092 -21.5223 -6.61693e-13
-21.5223 507.579 3.60275e-12
-6.61693e-13 3.60275e-12 501.655

459.266 25.7001 3.71925e-12
25.7001 484.77 -1.26066e-12
3.71925e-12 -1.26066e-12 488.142

394.574 -31.481 -2.59111e-12
-31.481 400.747 3.39047e-12
-2.59111e-12 3.39047e-12 357.653

552.215 -7.07567 -4.06986e-12
-7.07567 585.387 6.71433e-12
-4.06986e-12 6.71433e-12 542.717

347.33 -33.0928 -2.60532e-14
-33.0928 382.744 -7.54596e-12
-2.60532e-14 -7.54596e-12 303.545

491.039 -19.1861 3.01981e-14
-19.1861 448.54 -7.53767e-13
3.01981e-14 -7.53767e-13 467.279

519.861 1.97478 4.14757e-12
1.97478 466.967 3.25665e-15
4.14757e-12 3.25665e-15 502.981

570.658 17.8717 6.63973e-12
17.8717 566.561 -4.52793e-12
6.63973e-12 -4.52793e-12 542.49

375.424 20.1938 -1.38556e-12
20.1938 424.191 -3.68653e-12
-1.38556e-12 -3.68653e-12 360.353

489.239 27.2189 4.24549e-12
27.2189 468.697 2.99671e-12
4.24549e-12 2.99671e-12 476.792

454.546 -24.5222 2.55559e-12
-24.5222 415.49 6.1009e-12
2.55559e-12 6.1009e-12 418.751

454.874 -17.842 1.02679e-12
-17.842 495.074 1.94067e-12
1.02679e-12 1.94067e-12 482.798

379.335 35.0854 1.58925e-12
35.0854 366.16 1.79649e-12
1.58925e-12 1.79649e-12 317.164

449.316 -21.8329 -7.0477e-13
-21.8329 491.874 2.32318e-12
-7.0477e-13 2.32318e-12 479.933

485.648 30.8572 3.66166e-12
30.8572 465.284 -3.12668e-12
3.66166e-12 -3.12668e-12 473.596

480.488 -25.2514 2.12748e-12
-25.2514 442.518 3.20159e-12
2.12748e-12 3.20159e-12 455.596

448.38 -25.1353 -4.64103e-12
-25.1353 469.938 1.79412e-12
-4.64103e-12 1.79412e-12 458.255

445.511 -18.6976 4.36036e-12
-18.6976 393.6 2.0665e-13
4.36036e-12 2.0665e-13 397.401

470.822 -18.858 -6.25278e-13
-18.858 423.001 5.08186e-12
-6.25278e-13 5.08186e-12 437.684

459.167 -25.3395 2.74684e-12
-25.3395 485.596 1.39189e-12
2.74684e-12 1.39189e-12 488.985

386.681 35.9884 -1.97886e-12
35.9884 382.125 4.13299e-12
-1.97886e-12 4.13299e-12 348.242

444.654 15.3831 -1.66533e-12
15.3831 491.702 1.41812e-12
-1.66533e-12 1.41812e-12 467.297

469.556 26.4291 -2.41881e-13
26.4291 480.117 1.36099e-12
-2.41881e-13 1.36099e-12 482.701

456.307 25.4738 -4.33625e-12
25.4738 486.816 2.01454e-12
-4.33625e-12 2.01454e-12 487.405

457.961 11.6263 -6.68974e-13
11.6263 507.103 5.00044e-12
-6.68974e-13 5.00044e-12 486.168

432.113 -8.23117 -1.95162e-12
-8.23117 370.885 -1.79249e-12
-1.95162e-12 -1.79249e-12 363.439

376.912 18.6164 2.92566e-12
18.6164 427.425 1.93149e-12
2.92566e-12 1.93149e-12 364.015

452.472 -24.3871 -3.22705e-14
-24.3871 478.555 -8.72191e-13
-3.22705e-14 -8.72191e-13 470.87

440.904 25.6775 -5.01762e-12
25.6775 455.806 -8.70415e-14
-5.01762e-12 -8.70415e-14 437.958

391.096 -35.6481 4.60669e-12
-35.6481 380.412 2.68822e-12
4.60669e-12 2.68822e-12 350.217

369.07 38.3362 2.99731e-12
38.3362 327.362 3.08731e-12
2.99731e-12 3.08731e-12 295.787

363.773 -33.3288 -3.60008e-13
-33.3288 394.578 -5.56592e-14
-3.60008e-13 -5.56592e-14 342.102

398.073 -31.176 -8.01729e-13
-31.176 404.339 5.07209e-12
-8.01729e-13 5.07209e-12 363.104

503.026 -6.83848 8.34888e-13
-6.83848 442.414 -2.17285e-12
8.34888e-13 -2.17285e-12 482.476

393.304 30.3577 -8.27782e-13
30.3577 409.127 -8.72783e-13
-8.27782e-13 -8.72783e-13 363.564

429.861 13.3014 -7.95453e-12
13.3014 372.376 5.25328e-12
-7.95453e-12 5.25328e-12 362.844

350.262 13.386 1.95399e-12
13.386 418.668 6.22909e-12
1.95399e-12 6.22909e-12 348.599

379.611 -22.3523 -5.04781e-12
-22.3523 423.668 -2.05702e-12
-5.04781e-12 -2.05702e-12 363.578

491.336 -1.09496 1.21081e-12
-1.09496 551.002 2.70598e-13
1.21081e-12 2.70598e-13 516.438

372.992 2.248 -2.49741e-12
2.248 437.949 -1.8711e-13
-2.49741e-12 -1.8711e-13 373.654

358.012 31.1057 5.90757e-12
31.1057 399.631 1.49214e-13
5.90757e-12 1.49214e-13 342.083

458.146 12.1116 -2.73007e-12
12.1116 510.72 2.25597e-13
-2.73007e-12 2.25597e-13 488.555

421.606 -27.662 -3.43784e-12
-27.662 389.209 5.21479e-12
-3.43784e-12 5.21479e-12 375.206

524.895 20.5575 1.24611e-12
20.5575 469.892 -1.00394e-12
1.24611e-12 -1.00394e-12 500.876

535.048 26.2703 3.18738e-12
26.2703 506.99 -7.81005e-13
3.18738e-12 -7.81005e-13 516.226

494.977 -18.5745 -3.41534e-12
-18.5745 449.173 1.87672e-12
-3.41534e-12 1.87672e-12 471.006

554.698 -1.80935 3.05237e-13
-1.80935 516.141 2.58756e-13
3.05237e-13 2.58756e-13 525.843

473.444 -31.8174 -1.87879e-12
-31.8174 475.853 8.11736e-12
-1.87879e-12 8.11736e-12 478.73

412.749 23.3399 -3.42482e-12
23.3399 357.318 -2.68467e-12
-3.42482e-12 -2.68467e-12 348.216

464.341 30.164 7.85742e-13
30.164 482.936 -2.0736e-12
7.85742e-13 -2.0736e-12 483.362

464.603 29.2081 4.76123e-12
29.2081 482.409 1.0143e-12
4.76123e-12 1.0143e-12 482.923

394.086 30.6771 7.87518e-13
30.6771 405.87 -1.12266e-12
7.87518e-13 -1.12266e-12 360.998

503.005 27.0902 -2.68111e-12
27.0902 482.805 6.96924e-13
-2.68111e-12 6.96924e-13 490.879

415.505 3.52698 -4.4551e-12
3.52698 339.13 3.754e-12
-4.4551e-12 3.754e-12 340.947

493.273 31.8174 -9.9624e-13
31.8174 487.378 -2.51651e-14
-9.9624e-13 -2.51651e-14 495.723

476.462 -12.5983 2.8962e-13
-12.5983 522.599 -7.69755e-15
2.8962e-13 -7.69755e-15 500.39

537.056 24.2754 -6.05827e-12
24.2754 507.526 -1.28016e-12
-6.05827e-12 -1.28016e-12 516.762

468.341 -29.5812 9.50351e-14
-29.5812 480.138 -2.33887e-14
9.50351e-14 -2.33887e-14 483.219

464.698 -4.89565 -3.55751e-12
-4.89565 521.708 -1.69761e-12
-3.55751e-12 -1.69761e-12 491.123

401.085 -24.569 3.7114e-12
-24.569 349.142 -2.62782e-12
3.7114e-12 -2.62782e-12 324.066

419.119 29.7086 4.32602e-12
29.7086 392.603 7.59452e-12
4.32602e-12 7.59452e-12 373.903

352.464 14.7044 -4.69254e-14
14.7044 417.366 -2.06057e-12
-4.69254e-14 -2.06057e-12 348.364

500.698 -1.14027 1.33271e-12
-1.14027 442.959 -4.19376e-12
1.33271e-12 -4.19376e-12 487.867

492.643 0.00199418 3.82805e-13
0.00199418 438.259 1.18252e-12
3.82805e-13 1.18252e-12 474.577

453.126 23.1303 3.5912e-13
23.1303 479.875 2.76016e-12
3.5912e-13 2.76016e-12 475.744

481.459 23.8733 -2.20002e-12
23.8733 503.022 -5.52095e-13
-2.20002e-12 -5.52095e-13 501.401

456.752 -24.3817 -1.84948e-12
-24.3817 487.521 -2.47269e-12
-1.84948e-12 -2.47269e-12 488.656

457.98 -0.675584 8.81628e-13
-0.675584 518.097 2.7498e-12
8.81628e-13 2.7498e-12 486.548

459.051 25.593 -6.0707e-13
25.593 486.634 5.16032e-13
-6.0707e-13 5.16032e-13 488.677

465.733 -10.3126 -3.79015e-12
-10.3126 408.23 7.28454e-13
-3.79015e-12 7.28454e-13 427.377

401.011 -32.8509 -3.01981e-14
-32.8509 415.11 -2.78237e-12
-3.01981e-14 -2.78237e-12 385.308

518.252 -2.30576 3.36176e-13
-2.30576 465.893 9.28146e-13
3.36176e-13 9.28146e-13 501.079

392.017 -34.5265 4.8909e-13
-34.5265 379.745 5.20591e-12
4.8909e-13 5.20591e-12 347.546

478.153 19.0853 1.01815e-12
19.0853 509.361 -7.09951e-13
1.01815e-12 -7.09951e-13 501.998

506.271 -26.4814 -3.96601e-12
-26.4814 470.396 -3.08938e-12
-3.96601e-12 -3.08938e-12 487.425

425.163 -9.69545 4.31063e-13
-9.69545 366.862 -9.21633e-13
4.31063e-13 -9.21633e-13 356.113

530.403 -23.1956 -6.2889e-12
-23.1956 488.897 -6.76496e-13
-6.2889e-12 -6.76496e-13 506.632

501.066 2.35891 -2.24324e-12
2.35891 444.747 -3.01159e-12
-2.24324e-12 -3.01159e-12 489.368

521.333 -23.3268 3.89022e-13
-23.3268 501.984 -1.49258e-12
3.89022e-13 -1.49258e-12 508.678

502.178 -25.8627 -5.38236e-13
-25.8627 461.645 -4.70438e-12
-5.38236e-13 -4.70438e-12 481.399

498.999 -8.55016 1.79856e-12
-8.55016 445.296 1.71759e-12
1.79856e-12 1.71759e-12 479.506

482.381 -23.0705 -3.61489e-13
-23.0705 505.145 6.94537e-13
-3.61489e-13 6.94537e-13 502.688

428.7 -31.3575 -3.04468e-12
-31.3575 410.739 -3.426e-12
-3.04468e-12 -3.426e-12 399.145

503.427 -24.5951 -1.49392e-12
-24.5951 464.867 4.1922e-12
-1.49392e-12 4.1922e-12 482.314

441.412 10.87 1.44832e-12
10.87 378.618 2.62338e-12
1.44832e-12 2.62338e-12 387.943

500.191 26.3451 1.758e-12
26.3451 498.728 -1.73328e-12
1.758e-12 -1.73328e-12 500.254

463.923 -37.6057 -1.4578e-12
-37.6057 488.56 -1.22454e-12
-1.4578e-12 -1.22454e-12 494.244

465.031 37.2587 -7.11727e-13
37.2587 487.472 -9.73296e-13
-7.11727e-13 -9.73296e-13 493.959

446.507 -28.5692 5.22993e-12
-28.5692 500.183 2.1716e-12
5.22993e-12 2.1716e-12 492.475

448.74 27.0609 -8.87438e-14
27.0609 500.874 -5.24617e-13
-8.87438e-14 -5.24617e-13 492.662

513.237 -8.525 1.54958e-12
-8.525 436.585 -1.22894e-12
1.54958e-12 -1.22894e-12 492.922

511.401 9.27081 -2.79658e-12
9.27081 438.181 1.20097e-12
-2.79658e-12 1.20097e-12 492.56

501.826 -9.84998 4.63333e-13
-9.84998 451.9 3.31039e-12
4.63333e-13 3.31039e-12 483.179

511.007 32.1074 2.47002e-12
32.1074 510.538 -2.37081e-12
2.47002e-12 -2.37081e-12 514.2

509.784 -32.8447 -9.30515e-13
-32.8447 510.215 5.05457e-13
-9.30515e-13 5.05457e-13 513.839

481.964 16.0664 1.61352e-12
16.0664 539.266 -2.04873e-13
1.61352e-12 -2.04873e-13 514.471

483.157 -15.7994 -1.72588e-12
-15.7994 538.857 6.28238e-13
-1.72588e-12 6.28238e-13 514.492

556.987 -3.75487 1.49229e-12
-3.75487 506.961 -1.02081e-12
1.49229e-12 -1.02081e-12 525.125

558.54 3.61738 3.26953e-12
3.61738 505.286 2.50585e-12
3.26953e-12 2.50585e-12 525.497

387.448 9.84185 1.05701e-12
9.84185 449.368 1.66149e-12
1.05701e-12 1.66149e-12 397.233

472.551 -24.7807 -2.22429e-12
-24.7807 480.92 -3.44214e-12
-2.22429e-12 -3.44214e-12 485.136

443.644 -36.3822 1.98367e-12
-36.3822 485.709 -2.66972e-12
1.98367e-12 -2.66972e-12 486.794

473.821 -4.66578 -3.80496e-12
-4.66578 420.591 4.06974e-12
-3.80496e-12 4.06974e-12 436.497

540.391 -16.6875 -1.24434e-12
-16.6875 484.341 -3.89585e-12
-1.24434e-12 -3.89585e-12 515.431

541.11 16.1686 2.8697e-12
16.1686 485.564 -3.62377e-13
2.8697e-12 -3.62377e-13 516.036

507.034 0.121804 -3.6627e-12
0.121804 423.736 -1.26986e-12
-3.6627e-12 -1.26986e-12 487.167

384.931 23.3879 9.23706e-14
23.3879 432.461 -2.26189e-13
9.23706e-14 -2.26189e-13 385.619

442.516 36.1662 -5.70285e-13
36.1662 485.388 4.40744e-12
-5.70285e-13 4.40744e-12 486

452.768 -23.3979 -4.42002e-12
-23.3979 495.126 1.75859e-12
-4.42002e-12 1.75859e-12 483.754

443.415 23.3645 -3.21047e-12
23.3645 397.663 -2.59526e-12
-3.21047e-12 -2.59526e-12 400.52

531.104 23.8612 4.20997e-13
23.8612 488.147 2.13814e-12
4.20997e-13 2.13814e-12 507.39

428.639 -31.3293 4.48826e-13
-31.3293 411.025 -2.87415e-12
4.48826e-13 -2.87415e-12 398.964

520.015 -3.23539 -3.04275e-12
-3.23539 469.213 1.68458e-12
-3.04275e-12 1.68458e-12 502.837

439.581 -34.1567 -1.15293e-12
-34.1567 485.679 -8.75004e-13
-1.15293e-12 -8.75004e-13 485.99

389.323 8.32404 5.52319e-12
8.32404 452.499 1.71241e-12
5.52319e-12 1.71241e-12 401.002

386.018 21.8234 2.84839e-12
21.8234 435.939 -5.90935e-13
2.84839e-12 -5.90935e-13 388.838

383.987 35.7937 -3.69009e-12
35.7937 362.46 7.05806e-13
-3.69009e-12 7.05806e-13 318.444

408.337 1.57965 9.37916e-13
1.57965 332.269 5.91815e-12
9.37916e-13 5.91815e-12 327.445

485.613 -22.8076 -1.98389e-12
-22.8076 503.01 1.37449e-12
-1.98389e-12 1.37449e-12 501.901

352.002 31.1993 8.10137e-12
31.1993 388.973 1.80004e-12
8.10137e-12 1.80004e-12 312.472

451.515 23.6172 -3.66907e-12
23.6172 478.587 6.19949e-13
-3.66907e-12 6.19949e-13 465.374

442.366 -5.35228 -6.02777e-13
-5.35228 377.261 -5.37348e-14
-6.02777e-13 -5.37348e-14 387.881

464.328 11.2213 -2.21275e-12
11.2213 407.444 7.37484e-13
-2.21275e-12 7.37484e-13 425.075

505.551 0.4298 2.74921e-12
0.4298 421.757 -2.17279e-12
2.74921e-12 -2.17279e-12 485.84

449.525 -29.0268 -4.15742e-13
-29.0268 502.162 5.71987e-13
-4.15742e-13 5.71987e-13 493.748

572.581 -6.31463 -6.63099e-13
-6.31463 589.565 4.05009e-12
-6.63099e-13 4.05009e-12 549.361

463.311 37.4046 -2.27314e-12
37.4046 487.195 -1.15585e-12
-2.27314e-12 -1.15585e-12 493.224

408.889 1.66396 6.13909e-12
1.66396 331.716 3.58454e-12
6.13909e-12 3.58454e-12 309.017

404.382 -32.8044 4.25141e-13
-32.8044 415.663 7.81064e-12
4.25141e-13 7.81064e-12 387.532

443.322 36.6074 6.61841e-13
36.6074 485.68 -1.02688e-12
6.61841e-13 -1.02688e-12 486.736

444.828 -11.1362 1.476e-12
-11.1362 499.103 -1.53892e-12
1.476e-12 -1.53892e-12 471.596

386.213 -25.5284 -4.05009e-13
-25.5284 429.064 9.80549e-13
-4.05009e-13 9.80549e-13 384.706

449.625 28.8258 -2.34031e-12
28.8258 501.795 -9.80253e-13
-2.34031e-12 -9.80253e-13 493.447

452.877 -26.1545 -1.22569e-13
-26.1545 419.454 -1.35477e-12
-1.22569e-13 -1.35477e-12 419.668

579.635 10.486 -2.88984e-12
10.486 582.233 1.26765e-12
-2.88984e-12 1.26765e-12 549.146

398.474 30.8885 -2.40874e-12
30.8885 422.217 -1.94689e-12
-2.40874e-12 -1.94689e-12 388.306

515.868 8.12415 1.01844e-12
8.12415 437.445 5.3643e-12
1.01844e-12 5.3643e-12 494.74

493.96 30.1929 -1.57504e-12
30.1929 484.908 3.06954e-12
-1.57504e-12 3.06954e-12 493.954

453.63 23.3381 -2.42191e-12
23.3381 479.335 -3.65189e-12
-2.42191e-12 -3.65189e-12 475.96

510.84 -32.4797 -7.99361e-15
-32.4797 512.596 7.99934e-13
-7.99361e-15 7.99934e-13 515.147

510.459 -23.1975 1.14693e-12
-23.1975 473.328 2.84691e-12
1.14693e-12 2.84691e-12 489.825

511.516 10.464 4.02064e-12
10.464 558.112 1.05871e-12
4.02064e-12 1.05871e-12 523.861

452.337 -23.4403 2.21068e-12
-23.4403 480.338 -5.14374e-12
2.21068e-12 -5.14374e-12 469.111

394.554 -9.71322 -2.43479e-12
-9.71322 316.519 4.38272e-12
-2.43479e-12 4.38272e-12 295.682

387.432 -14.2836 4.09036e-12
-14.2836 306.16 -2.59526e-12
4.09036e-12 -2.59526e-12 290.155

547.704 16.5358 -4.5004e-12
16.5358 507.89 -3.02336e-12
-4.5004e-12 -3.02336e-12 519.452

436.646 22.5119 1.946e-12
22.5119 469.309 -3.16488e-12
1.946e-12 -3.16488e-12 447.982

476.124 29.1724 -7.3778e-13
29.1724 467.801 -2.22548e-12
-7.3778e-13 -2.22548e-12 471.633

450.474 0.688918 8.18308e-13
0.688918 392.918 1.5711e-12
8.18308e-13 1.5711e-12 395.819

478.484 6.56789 -4.39178e-12
6.56789 541.415 -1.71182e-12
-4.39178e-12 -1.71182e-12 507.679

507.497 16.5404 -2.88717e-12
16.5404 461.292 -6.98464e-12
-2.88717e-12 -6.98464e-12 488.236

390.118 -25.7751 -3.73035e-12
-25.7751 430.198 -9.97128e-13
-3.73035e-12 -9.97128e-13 387.876

456.463 -2.57007 4.79875e-13
-2.57007 517.173 3.24244e-12
4.79875e-13 3.24244e-12 484.99

400.734 13.3728 2.71901e-12
13.3728 453.156 1.49096e-12
2.71901e-12 1.49096e-12 404.783

487.073 -29.7209 -3.70193e-12
-29.7209 465.964 7.13799e-13
-3.70193e-12 7.13799e-13 474.41

430.457 -29.9627 -3.41889e-12
-29.9627 423.786 -5.32019e-12
-3.41889e-12 -5.32019e-12 405.103

399.857 31.6398 2.56743e-12
31.6398 418.387 -5.45934e-13
2.56743e-12 -5.45934e-13 386.143

624.042 -15.0163 4.60047e-12
-15.0163 582.016 5.83829e-13
4.60047e-12 5.83829e-13 558.003

494.652 2.04437 -2.05502e-12
2.04437 552.269 -4.99156e-13
-2.05502e-12 -4.99156e-13 518.059

483.649 20.2938 1.72321e-12
20.2938 542.17 4.37694e-12
1.72321e-12 4.37694e-12 516.169

544.833 15.4333 1.7509e-12
15.4333 480.118 -1.11644e-12
1.7509e-12 -1.11644e-12 515.892

473.909 -26.1958 -8.25118e-13
-26.1958 479.918 -1.94156e-12
-8.25118e-13 -1.94156e-12 483.174

452.296 17.9656 -4.01575e-12
17.9656 404.654 -5.81165e-13
-4.01575e-12 -5.81165e-13 407.066

531.679 -5.28866 -6.09984e-13
-5.28866 580.894 8.49957e-12
-6.09984e-13 8.49957e-12 537.235

512.348 -18.9867 3.13853e-12
-18.9867 464.948 -6.56364e-13
3.13853e-12 -6.56364e-13 493.181

474.149 -15.6044 5.3942e-13
-15.6044 423.327 -1.48992e-12
5.3942e-13 -1.48992e-12 439.034

402.145 11.6099 7.20609e-13
11.6099 456.129 7.51991e-13
7.20609e-13 7.51991e-13 407.928

411.074 -25.7479 7.42458e-12
-25.7479 435.746 1.75741e-12
7.42458e-12 1.75741e-12 399.103

532.178 -25.2744 -3.63739e-12
-25.2744 523.309 3.33763e-12
-3.63739e-12 3.33763e-12 519.251

423.212 31.9758 -4.16378e-12
31.9758 417.402 8.9706e-13
-4.16378e-12 8.9706e-13 400.451

535.615 -25.1319 1.38674e-12
-25.1319 505.916 -2.51651e-13
1.38674e-12 -2.51651e-13 515.795

453.668 2.59851 2.08781e-12
2.59851 397.163 -3.71577e-12
2.08781e-12 -3.71577e-12 402.045

311.204 -28.9449 -1.13864e-12
-28.9449 376.734 1.58451e-12
-1.13864e-12 1.58451e-12 290.1

432.035 -29.2458 -2.24413e-12
-29.2458 424.205 4.46576e-12
-2.24413e-12 4.46576e-12 406.302

353.885 32.1749 -7.95808e-13
32.1749 392.688 1.67214e-12
-7.95808e-13 1.67214e-12 313.083

470.485 -11.8739 5.25537e-12
-11.8739 529.697 -2.39098e-12
5.25537e-12 -2.39098e-12 500.448

391.591 -13.8286 -5.45608e-12
-13.8286 449.423 -1.86044e-12
-5.45608e-12 -1.86044e-12 400.344

602.915 -23.9758 3.69482e-12
-23.9758 602.316 -1.17639e-12
3.69482e-12 -1.17639e-12 557.944

408.521 23.7835 -2.7498e-12
23.7835 442.107 9.73444e-13
-2.7498e-12 9.73444e-13 402.37

496.727 -32.7269 4.49241e-12
-32.7269 490.786 1.11792e-12
4.49241e-12 1.11792e-12 497.594

388.328 -11.9693 -2.87118e-12
-11.9693 448.455 2.39808e-12
-2.87118e-12 2.39808e-12 397.161

516.867 -19.1156 1.22983e-12
-19.1156 465.907 2.19084e-12
1.22983e-12 2.19084e-12 496.394

410.837 23.8899 2.69888e-12
23.8899 439.478 1.67333e-12
2.69888e-12 1.67333e-12 400.846

489.097 -4.97661 3.51719e-13
-4.97661 435.229 -3.70596e-12
3.51719e-13 -3.70596e-12 460.542

305.881 -30.3541 -2.48808e-12
-30.3541 391.571 -1.05445e-11
-2.48808e-12 -1.05445e-11 262.663

438.768 21.0219 9.4443e-13
21.0219 474.086 1.91195e-12
9.4443e-13 1.91195e-12 458.509

445.857 -19.3329 3.79548e-12
-19.3329 394.12 2.51591e-12
3.79548e-12 2.51591e-12 399.771

551.721 -21.4448 2.96652e-13
-21.4448 499.648 1.51405e-12
2.96652e-13 1.51405e-12 520.237

424.628 31.7702 -1.97531e-12
31.7702 413.475 -3.8541e-12
-1.97531e-12 -3.8541e-12 398.106

459.329 -29.9837 2.62723e-12
-29.9837 437.794 -2.60207e-12
2.62723e-12 -2.60207e-12 439.455

510.78 20.8885 -3.62969e-12
20.8885 476.22 -1.03828e-12
-3.62969e-12 -1.03828e-12 492.907

461.675 -28.0776 -2.73322e-12
-28.0776 485.912 1.88198e-12
-2.73322e-12 1.88198e-12 488.881

413.875 -26.2391 4.44977e-12
-26.2391 436.412 1.69938e-12
4.44977e-12 1.69938e-12 401.589

426.235 28.9959 -4.55458e-12
28.9959 430.061 -1.32635e-13
-4.55458e-12 -1.32635e-13 407.013

452.671 26.2031 6.86858e-13
26.2031 418.38 -1.9836e-13
6.86858e-13 -1.9836e-13 419.212

522.12 -14.6162 3.26228e-12
-14.6162 477.324 -4.53859e-13
3.26228e-12 -4.53859e-13 500.213

403.711 -16.6268 2.70598e-13
-16.6268 451.917 7.91071e-13
2.70598e-13 7.91071e-13 406.595

496.219 -17.571 -5.515e-12
-17.571 447.766 1.75889e-12
-5.515e-12 1.75889e-12 471.661

487.937 16.915 2.61717e-12
16.915 436.414 2.49608e-12
2.61717e-12 2.49608e-12 460.748

513.46 -9.38012 -7.19898e-12
-9.38012 555.905 -1.54484e-12
-7.19898e-12 -1.54484e-12 523.162

454.155 -13.436 1.2624e-12
-13.436 402.328 1.68872e-12
1.2624e-12 1.68872e-12 406.896

403.35 0.595067 1.48237e-12
0.595067 465.902 1.7953e-12
1.48237e-12 1.7953e-12 417.959

475.203 18.5613 -3.02514e-12
18.5613 428.927 1.3752e-12
-3.02514e-12 1.3752e-12 442.38

451.313 27.6164 2.22518e-12
27.6164 421.995 1.91521e-12
2.22518e-12 1.91521e-12 420.999

401.018 -15.6948 5.44661e-12
-15.6948 451.557 -2.46321e-13
5.44661e-12 -2.46321e-13 403.888

406.149 -1.20215 5.29532e-12
-1.20215 468.212 5.72934e-12
5.29532e-12 5.72934e-12 421.375

516.345 29.1359 2.80428e-12
29.1359 498.163 -1.2393e-12
2.80428e-12 -1.2393e-12 505.02

441.864 -10.9261 -7.68866e-13
-10.9261 500.829 -1.44299e-12
-7.68866e-13 -1.44299e-12 471.309

451.61 -26.728 -2.33295e-13
-26.728 418.922 -2.8096e-12
-2.33295e-13 -2.8096e-12 419.508

444.558 21.3435 -1.97531e-12
21.3435 395.444 1.51168e-12
-1.97531e-12 1.51168e-12 398.35

497.764 23.6693 3.43429e-14
23.6693 458.246 -4.83672e-12
3.43429e-14 -4.83672e-12 476.708

447.838 5.47456 1.26269e-13
5.47456 508.959 -2.43361e-12
1.26269e-13 -2.43361e-12 477.04

427.811 29.0805 -4.43438e-12
29.0805 426.597 2.60355e-12
-4.43438e-12 2.60355e-12 405.262

536.952 22.9646 6.62581e-13
22.9646 532.012 4.03292e-12
6.62581e-13 4.03292e-12 522.918

314.858 -59.7155 -1.67925e-12
-59.7155 282.861 -1.87465e-12
-1.67925e-12 -1.87465e-12 223.504

480.763 -25.0578 1.20851e-12
-25.0578 445.23 -1.10401e-12
1.20851e-12 -1.10401e-12 456.805

336.783 7.07325 -1.19312e-13
7.07325 409.312 -5.33854e-12
-1.19312e-13 -5.33854e-12 319.561

460.706 -28.9014 -1.69524e-12
-28.9014 444.901 1.07766e-13
-1.69524e-12 1.07766e-13 443.612

96.4518 -52.7161 -3.64508e-12
-52.7161 306.706 4.56642e-12
-3.64508e-12 4.56642e-12 113.738

95.9857 51.4665 -7.93439e-13
51.4665 306.971 -2.81849e-12
-7.93439e-13 -2.81849e-12 114.526

181.569 117.188 -3.04586e-12
117.188 226.141 -6.38541e-12
-3.04586e-12 -6.38541e-12 113.626

182.867 -117.13 4.64458e-12
-117.13 223.376 -5.07328e-12
4.64458e-12 -5.07328e-12 113.6

321.676 -1.36388 1.90899e-12
-1.36388 84.678 2.06663e-15
1.90899e-12 2.06663e-15 114.968

274.513 -91.1518 -8.2423e-13
-91.1518 127.455 9.56864e-13
-8.2423e-13 9.56864e-13 113.84

275.21 91.68 1.44951e-12
91.68 128.289 -2.64559e-12
1.44951e-12 -2.64559e-12 114.611

525.389 14.3356 -5.1689e-12
14.3356 474.861 -2.23673e-12
-5.1689e-12 -2.23673e-12 502.464

556.907 25.5318 3.14622e-12
25.5318 541.286 5.47547e-12
3.14622e-12 5.47547e-12 533.574

492.27 6.60892 1.53596e-12
6.60892 439.281 -2.7532e-12
1.53596e-12 -2.7532e-12 471.566

470.473 21.7941 -2.77112e-13
21.7941 424.671 -1.10726e-12
-2.77112e-13 -1.10726e-12 438.352

410.127 17.7531 -1.63839e-12
17.7531 461.249 4.89682e-13
-1.63839e-12 4.89682e-13 425.2

448.179 28.9122 7.92255e-13
28.9122 424.865 -2.73441e-12
7.92255e-13 -2.73441e-12 420.906

487.311 -29.6713 -2.20268e-12
-29.6713 465.788 -8.85218e-14
-2.20268e-12 -8.85218e-14 474.747

449.536 28.0413 -4.26503e-12
28.0413 421.228 -3.76528e-12
-4.26503e-12 -3.76528e-12 418.796

403.112 -2.8435 -3.24748e-12
-2.8435 465.559 4.86722e-13
-3.24748e-12 4.86722e-13 417.695

555.914 -26.0928 1.64994e-12
-26.0928 543.479 2.71294e-12
1.64994e-12 2.71294e-12 533.818

405.651 -4.86568 -1.7053e-13
-4.86568 467.297 4.7334e-12
-1.7053e-13 4.7334e-12 420.755

522.435 23.022 -1.01963e-12
23.022 499.887 -9.52867e-13
-1.01963e-12 -9.52867e-13 508.115

423.541 26.8848 5.93303e-12
26.8848 386.65 2.91026e-12
5.93303e-12 2.91026e-12 373.168

480.269 -13.2172 -2.19839e-12
-13.2172 532.911 1.36187e-12
-2.19839e-12 1.36187e-12 512.149

484.374 13.7332 -1.38556e-12
13.7332 432.932 -5.93007e-13
-1.38556e-12 -5.93007e-13 457.036

457.538 -29.9998 1.99781e-12
-29.9998 437.136 -1.38941e-12
1.99781e-12 -1.38941e-12 437.991

454.482 -24.7242 5.52565e-12
-24.7242 416.959 1.45543e-12
5.52565e-12 1.45543e-12 420.009

547.529 -16.0814 4.0575e-12
-16.0814 509.436 1.21858e-12
4.0575e-12 1.21858e-12 519.521

476.143 27.9384 3.17731e-12
27.9384 449.864 2.0212e-12
3.17731e-12 2.0212e-12 457.084

469.273 23.9878 6.62581e-13
23.9878 428.005 8.23637e-13
6.62581e-13 8.23637e-13 439.988

432.581 -2.79234 2.09055e-13
-2.79234 493.812 2.72138e-12
2.09055e-13 2.72138e-12 457.266

417.758 5.87497 -6.17973e-13
5.87497 479.734 -2.66454e-14
-6.17973e-13 -2.66454e-14 440.335

463.191 2.64796 1.67155e-12
2.64796 402.429 -7.98991e-14
1.67155e-12 -7.98991e-14 422.479

438.819 -7.29357 8.17124e-13
-7.29357 374.051 8.32371e-13
8.17124e-13 8.32371e-13 381.362

455.011 30.4974 -4.63866e-12
30.4974 439.175 -3.61193e-12
-4.63866e-12 -3.61193e-12 437.994

478.635 -26.1656 1.81129e-12
-26.1656 443.702 -1.0593e-12
1.81129e-12 -1.0593e-12 454.806

525.85 -21.256 -3.53525e-12
-21.256 497.968 3.76647e-12
-3.53525e-12 3.76647e-12 508.764

437.896 -31.6483 4.2597e-12
-31.6483 437.819 -5.91527e-13
4.2597e-12 -5.91527e-13 427.016

417.747 -27.7996 4.36273e-12
-27.7996 444.567 -6.21133e-13
4.36273e-12 -6.21133e-13 419.845

430.809 29.9017 1.11851e-12
29.9017 442.913 2.38032e-13
1.11851e-12 2.38032e-13 426.655

416.377 -9.5819 -4.21359e-12
-9.5819 475.389 -1.26832e-12
-4.21359e-12 -1.26832e-12 436.613

429.049 -1.54709 7.26086e-14
-1.54709 492.044 -2.02623e-12
7.26086e-14 -2.02623e-12 454.154

445.332 5.7471 -2.37921e-12
5.7471 508.212 -5.82645e-13
-2.37921e-12 -5.82645e-13 475.071

414.773 -21.0997 2.04992e-12
-21.0997 458.583 -1.54543e-12
2.04992e-12 -1.54543e-12 426.223

497.032 24.1192 -3.93226e-12
24.1192 455.852 6.03961e-13
-3.93226e-12 6.03961e-13 474.75

483.552 -9.59353 1.69938e-13
-9.59353 430.268 -3.54872e-12
1.69938e-13 -3.54872e-12 455.382

415.785 7.4679 7.50413e-12
7.4679 477.298 2.70598e-12
7.50413e-12 2.70598e-12 437.071

444.108 -9.70245 -4.36752e-12
-9.70245 501.676 2.99612e-13
-4.36752e-12 2.99612e-13 471.166

433.332 -16.3372 3.52e-12
-16.3372 481.853 2.10084e-12
3.52e-12 2.10084e-12 455.83

463.719 -8.24291 1.94215e-12
-8.24291 406.485 -2.29505e-12
1.94215e-12 -2.29505e-12 421.627

494.592 -32.3468 -1.33819e-12
-32.3468 487.777 -4.38168e-14
-1.33819e-12 -4.38168e-14 496.407

423.1 9.32638 8.89659e-13
9.32638 479.27 2.87355e-12
8.89659e-13 2.87355e-12 441.139

564.463 -18.2146 5.01436e-12
-18.2146 530.066 2.55425e-12
5.01436e-12 2.55425e-12 531.958

309.155 24.8353 1.6076e-12
24.8353 379.565 -1.7953e-12
1.6076e-12 -1.7953e-12 289.906

501.852 -26.6306 2.15442e-12
-26.6306 499.635 3.09737e-12
2.15442e-12 3.09737e-12 501.35

515.795 -30.2036 -3.81325e-13
-30.2036 498.541 -2.68526e-13
-3.81325e-13 -2.68526e-13 505.064

429.376 -0.699867 6.14057e-12
-0.699867 492.169 -2.61953e-12
6.14057e-12 -2.61953e-12 454.304

475.061 -16.6283 -5.62513e-14
-16.6283 428.495 -2.57098e-12
-5.62513e-14 -2.57098e-12 442.117

462.457 12.8428 2.14971e-12
12.8428 511.44 1.51997e-12
2.14971e-12 1.51997e-12 489.278

240.852 -3.18333 -5.98255e-12
-3.18333 360.815 -8.33467e-12
-5.98255e-12 -8.33467e-12 227.048

432.56 14.2787 -3.83027e-13
14.2787 485.532 -1.00838e-12
-3.83027e-13 -1.00838e-12 457.043

458.281 -29.502 -9.21337e-13
-29.502 443.336 -2.80487e-12
-9.21337e-13 -2.80487e-12 440.922

304.288 25.1155 2.58697e-12
25.1155 394.723 4.57116e-12
2.58697e-12 4.57116e-12 264.437

603.612 26.0856 9.04018e-13
26.0856 598.013 4.74495e-12
9.04018e-13 4.74495e-12 558.26

608.341 -27.7935 1.68147e-12
-27.7935 595.09 -1.97635e-12
1.68147e-12 -1.97635e-12 558.393

463.66 -30.4297 1.91847e-13
-30.4297 459.202 -3.5086e-12
1.91847e-13 -3.5086e-12 459.233

434.748 -31.1751 -2.67756e-12
-31.1751 436.525 -3.87305e-12
-2.67756e-12 -3.87305e-12 424.82

474.279 20.8349 2.20446e-12
20.8349 432.073 1.98626e-12
2.20446e-12 1.98626e-12 444.134

465.4 15.0131 -7.14688e-13
15.0131 410.268 -1.78672e-12
-7.14688e-13 -1.78672e-12 427.621

646.09 3.07555 1.05002e-11
3.07555 645.745 3.59283e-12
1.05002e-11 3.59283e-12 574.707

649.908 -6.98837 -2.74203e-12
-6.98837 641.419 -3.89185e-12
-2.74203e-12 -3.89185e-12 575.235

497.169 4.82383 2.7652e-13
4.82383 442.202 2.0098e-12
2.7652e-13 2.0098e-12 477.579

443.715 6.73508 1.33538e-12
6.73508 503.162 -5.60441e-12
1.33538e-12 -5.60441e-12 471.21

442.124 6.73675 2.57217e-12
6.73675 502.686 -4.34734e-12
2.57217e-12 -4.34734e-12 469.932

321.644 58.6592 9.97128e-13
58.6592 281.217 2.68585e-12
9.97128e-13 2.68585e-12 225.158

420.386 -28.2141 1.112e-12
-28.2141 444.194 2.52302e-12
1.112e-12 2.52302e-12 421.189

520.739 17.9728 -6.2587e-12
17.9728 467.689 -1.4273e-12
-6.2587e-12 -1.4273e-12 499.665

473.162 9.543 -2.82322e-12
9.543 421.355 -5.3566e-12
-2.82322e-12 -5.3566e-12 436.365

440.796 -26.7357 4.99156e-13
-26.7357 450.9 6.62581e-13
4.99156e-13 6.62581e-13 433.577

469.452 -20.2465 -3.56278e-12
-20.2465 422.872 6.3712e-13
-3.56278e-12 6.3712e-13 437.336

312.581 60.2571 6.13198e-12
60.2571 281.464 -9.88957e-12
6.13198e-12 -9.88957e-12 223.296

492.839 31.0728 6.83897e-14
31.0728 489.192 -3.87364e-12
6.83897e-14 -3.87364e-12 493.291

411.016 -19.796 2.68348e-12
-19.796 458.058 -8.91139e-13
2.68348e-12 -8.91139e-13 423.656

474.297 28.8681 9.33772e-13
28.8681 449.794 3.63679e-12
9.33772e-13 3.63679e-12 456.679

431.112 -4.14795 8.80777e-15
-4.14795 493.149 3.03698e-12
8.80777e-15 3.03698e-12 456.628

424.09 19.6188 -1.22598e-12
19.6188 465.89 -3.43251e-12
-1.22598e-12 -3.43251e-12 434.269

452.916 30.5321 1.30207e-12
30.5321 443.762 4.1845e-12
1.30207e-12 4.1845e-12 439.768

428.805 -22.4843 1.2168e-12
-22.4843 461.314 -9.49759e-13
1.2168e-12 -9.49759e-13 433.974

443.741 -27.365 1.54069e-12
-27.365 450.605 -1.74379e-12
1.54069e-12 -1.74379e-12 435.206

294.877 11.2619 6.71581e-12
11.2619 372.72 -4.64932e-12
6.71581e-12 -4.64932e-12 258.197

357.428 -33.473 1.77636e-13
-33.473 389.263 -1.99899e-12
1.77636e-13 -1.99899e-12 314.247

419.812 -11.6955 1.85333e-13
-11.6955 476.54 2.66809e-12
1.85333e-13 2.66809e-12 439.505

478.567 26.4951 4.02641e-13
26.4951 446.96 -6.31732e-12
4.02641e-13 -6.31732e-12 456.243

452.513 29.49 7.75617e-12
29.49 449.196 7.60281e-13
7.75617e-12 7.60281e-13 442.561

426.97 -21.4445 -3.73923e-13
-21.4445 461.962 -3.66344e-12
-3.73923e-13 -3.66344e-12 432.791

423.089 -11.7888 5.72905e-12
-11.7888 476.827 -1.93978e-12
5.72905e-12 -1.93978e-12 440.09

457.875 28.4218 -6.16633e-12
28.4218 447.255 -1.24049e-12
-6.16633e-12 -1.24049e-12 442.731

425.264 -13.8847 3.07902e-13
-13.8847 476.598 3.61785e-13
3.07902e-13 3.61785e-13 442.266

311.373 27.8697 -4.68662e-12
27.8697 377.532 -8.8581e-13
-4.68662e-12 -8.8581e-13 290.093

485.306 -4.03801 4.48688e-12
-4.03801 545.189 -1.17891e-12
4.48688e-12 -1.17891e-12 511.179

433.148 31.0425 -5.67368e-12
31.0425 439.794 -2.27966e-13
-5.67368e-12 -2.27966e-13 426.177

509.474 14.9065 -1.49332e-12
14.9065 463.316 -4.93294e-12
-1.49332e-12 -4.93294e-12 488.763

517.076 -15.9331 -1.24375e-12
-15.9331 467.735 -3.48077e-12
-1.24375e-12 -3.48077e-12 494.077

384.069 -24.2164 -8.05282e-13
-24.2164 306.053 2.36611e-12
-8.05282e-13 2.36611e-12 285.461

442.445 -21.2747 -2.88214e-12
-21.2747 476.178 -5.12893e-12
-2.88214e-12 -5.12893e-12 459.486

447.996 26.7081 1.05782e-12
26.7081 466.382 6.23324e-12
1.05782e-12 6.23324e-12 458.006

523.109 -21.7266 -6.63765e-13
-21.7266 543.926 6.66478e-12
-6.63765e-13 6.66478e-12 525.444

579.651 14.0955 -1.31049e-11
14.0955 617.673 -3.33037e-12
-1.31049e-11 -3.33037e-12 557.156

620.254 9.4448 -2.86452e-12
9.4448 576.914 -4.60402e-12
-2.86452e-12 -4.60402e-12 556.975

523.605 32.7009 -7.88998e-13
32.7009 520.777 -3.04231e-12
-7.88998e-13 -3.04231e-12 519.662

415.047 26.0137 -3.76292e-12
26.0137 449.079 4.38701e-12
-3.76292e-12 4.38701e-12 420.534

478.267 26.6697 -4.18628e-13
26.6697 444.926 1.41132e-12
-4.18628e-13 1.41132e-12 455.666

332.482 45.2084 6.86503e-12
45.2084 349.618 -2.64085e-12
6.86503e-12 -2.64085e-12 286.847

571.464 -11.3346 -2.1374e-12
-11.3346 614.528 -1.06581e-13
-2.1374e-12 -1.06581e-13 554.701

641.345 -3.42789 1.88678e-12
-3.42789 636.904 -6.78835e-12
1.88678e-12 -6.78835e-12 572.486

634.939 -0.20563 -2.70036e-12
-0.20563 643.195 -7.05362e-12
-2.70036e-12 -7.05362e-12 572.313

273.052 -53.8247 7.23925e-12
-53.8247 316.557 4.42194e-12
7.23925e-12 4.42194e-12 220.989

566.745 -11.5959 3.14608e-12
-11.5959 562.217 -4.02078e-12
3.14608e-12 -4.02078e-12 541.02

563.852 8.80701 -5.78596e-12
8.80701 587.049 -9.26873e-12
-5.78596e-12 -9.26873e-12 546.954

478.417 -26.2074 8.82849e-13
-26.2074 440.599 -9.56272e-13
8.82849e-13 -9.56272e-13 453.641

494.481 1.00722 2.75935e-12
1.00722 545.899 2.74743e-13
2.75935e-12 2.74743e-13 514.198

447.817 -20.275 -3.7718e-13
-20.275 484.335 -1.19608e-13
-3.7718e-13 -1.19608e-13 470.803

506.475 6.2562 -1.38556e-12
6.2562 443.546 -2.33561e-12
-1.38556e-12 -2.33561e-12 486.29

461.434 15.596 3.4373e-13
15.596 521.411 -2.68852e-12
3.4373e-13 -2.68852e-12 497.712

471.323 7.18948 1.6042e-12
7.18948 528.16 5.33677e-12
1.6042e-12 5.33677e-12 497.84

493.932 20.4006 3.85233e-12
20.4006 451.673 1.56704e-12
3.85233e-12 1.56704e-12 469.909

241.142 -3.11393 -3.59187e-12
-3.11393 358.687 3.33008e-12
-3.59187e-12 3.33008e-12 227.146

463.869 -27.6342 4.87965e-12
-27.6342 463.564 7.11727e-13
4.87965e-12 7.11727e-13 461.354

488.507 -26.1246 -5.79033e-12
-26.1246 481.757 5.63786e-12
-5.79033e-12 5.63786e-12 486.026

497.695 -31.4835 3.3733e-12
-31.4835 490.12 -6.95207e-12
3.3733e-12 -6.95207e-12 499.136

355.726 32.7644 -2.60769e-12
32.7644 285.874 9.29627e-13
-2.60769e-12 9.29627e-13 248.457

563.98 -20.1127 1.12236e-12
-20.1127 569.697 7.56802e-13
1.12236e-12 7.56802e-13 542.688

337.762 54.3432 2.85401e-12
54.3432 356.779 -7.09595e-12
2.85401e-12 -7.09595e-12 258.969

477.227 -21.4366 -3.52089e-12
-21.4366 506.653 2.7797e-12
-3.52089e-12 2.7797e-12 500.4

504.946 14.6515 4.17977e-12
14.6515 452.149 6.21577e-13
4.17977e-12 6.21577e-13 481.722

450.006 -14.5794 4.89801e-12
-14.5794 397.133 -9.41469e-13
4.89801e-12 -9.41469e-13 400.991

452.764 24.0533 7.72715e-13
24.0533 478.957 -2.29861e-12
7.72715e-13 -2.29861e-12 468.014

493.839 20.4324 4.41306e-12
20.4324 449.659 5.99313e-12
4.41306e-12 5.99313e-12 469.502

505.688 11.395 1.52641e-12
11.395 564.531 2.54197e-12
1.52641e-12 2.54197e-12 526.843

476.062 -31.587 8.36664e-13
-31.587 470.523 3.53199e-12
8.36664e-13 3.53199e-12 475.226

559.382 19.8117 2.84484e-12
19.8117 510.566 7.18122e-12
2.84484e-12 7.18122e-12 526.619

440.123 -18.4504 -4.63303e-12
-18.4504 482.644 9.24298e-13
-4.63303e-12 9.24298e-13 459.314

466.048 4.28633 9.24449e-14
4.28633 526.265 4.38109e-12
9.24449e-14 4.38109e-12 495.663

588.719 9.93062 -1.61826e-12
9.93062 552.556 2.07404e-12
-1.61826e-12 2.07404e-12 545.303

590.501 -8.51793 -3.19567e-12
-8.51793 554.897 3.47026e-12
-3.19567e-12 3.47026e-12 545.82

382.453 18.5209 7.98176e-12
18.5209 302.39 3.516e-12
7.98176e-12 3.516e-12 286.241

502.85 7.96804 -2.62842e-12
7.96804 453.761 2.99627e-12
-2.62842e-12 2.99627e-12 487.926

232.884 7.74471 -7.17056e-12
7.74471 381.628 -1.66267e-12
-7.17056e-12 -1.66267e-12 187.25

237.054 -11.39 -2.57749e-12
-11.39 387.323 1.76688e-12
-2.57749e-12 1.76688e-12 189.515

249.359 56.4224 -9.02389e-13
56.4224 354.883 -1.06108e-12
-9.02389e-13 -1.06108e-12 184.085

505.169 -28.9557 1.79116e-12
-28.9557 478.771 -2.13637e-12
1.79116e-12 -2.13637e-12 491.497

258.556 -49.211 8.50283e-13
-49.211 341.956 3.77772e-12
8.50283e-13 3.77772e-12 220.813

249.364 -55.9651 -8.73968e-13
-55.9651 344.855 1.77636e-12
-8.73968e-13 1.77636e-12 181.177

434.818 26.2325 -3.19034e-12
26.2325 454.567 4.51017e-12
-3.19034e-12 4.51017e-12 432.984

330.022 73.8647 1.17145e-11
73.8647 280.09 -2.62427e-12
1.17145e-11 -2.62427e-12 184.889

540.234 13.0432 1.13746e-12
13.0432 555.069 3.84966e-12
1.13746e-12 3.84966e-12 532.206

562.499 0.0482946 1.33079e-13
0.0482946 532.568 5.14847e-13
1.33079e-13 5.14847e-13 531.999

338.702 -73.1497 -3.46271e-12
-73.1497 279.937 -3.54087e-12
-3.46271e-12 -3.54087e-12 186.373

432.831 -23.4341 1.18424e-15
-23.4341 466.486 -5.33499e-13
1.18424e-15 -5.33499e-13 447.734

359.058 34.7446 1.98005e-12
34.7446 311.081 1.81425e-12
1.98005e-12 1.81425e-12 258.132

267.784 63.5099 -1.19608e-12
63.5099 345.31 8.90547e-13
-1.19608e-12 8.90547e-13 185.908

293.791 21.6399 -1.58451e-12
21.6399 367.792 1.8711e-12
-1.58451e-12 1.8711e-12 254.59

267.655 -65.9395 2.65032e-12
-65.9395 344.945 1.9232e-12
2.65032e-12 1.9232e-12 184.363

291.737 -12.3863 3.47159e-12
-12.3863 371.014 -2.67638e-13
3.47159e-12 -2.67638e-13 253.535

550.401 6.83308 -1.03095e-12
6.83308 582.176 8.23045e-13
-1.03095e-12 8.23045e-13 541.236

330.007 -45.9966 -1.73491e-12
-45.9966 341.938 1.50398e-13
-1.73491e-12 1.50398e-13 276.717

259.866 47.552 2.83743e-12
47.552 340.332 -7.6786e-12
2.83743e-12 -7.6786e-12 223.226

370.324 37.9238 4.17799e-12
37.9238 244.992 4.48234e-12
4.17799e-12 4.48234e-12 187.42

482.056 -29.295 -6.38008e-12
-29.295 460.674 -3.04053e-13
-6.38008e-12 -3.04053e-13 467.873

481.119 12.8949 -2.48268e-12
12.8949 525.983 -1.75889e-12
-2.48268e-12 -1.75889e-12 504.252

354.544 -38.1292 1.06581e-13
-38.1292 300.178 1.72899e-13
1.06581e-13 1.72899e-13 251.907

482.701 -28.8104 1.25648e-12
-28.8104 460.478 6.84341e-12
1.25648e-12 6.84341e-12 468.621

365.37 -36.3554 1.00423e-12
-36.3554 231.056 -2.55559e-12
1.00423e-12 -2.55559e-12 182.832

481.667 -28.3258 -2.98132e-12
-28.3258 472.914 -6.50739e-13
-2.98132e-12 -6.50739e-13 478.077

436.515 -25.306 3.61489e-13
-25.306 466.398 -1.86103e-12
3.61489e-13 -1.86103e-12 448.372

314.89 69.4808 1.87583e-12
69.4808 292.229 3.66166e-12
1.87583e-12 3.66166e-12 184.586

290.878 -22.9429 3.04468e-12
-22.9429 359.291 -6.0633e-13
3.04468e-12 -6.0633e-13 247.119

312.49 -71.7135 3.78956e-14
-71.7135 288.207 1.16055e-13
3.78956e-14 1.16055e-13 182.088

268.633 50.7579 8.47914e-13
50.7579 320.17 2.69533e-12
8.47914e-13 2.69533e-12 221.584

460.028 -30.2235 2.5396e-12
-30.2235 455.009 -1.22006e-12
2.5396e-12 -1.22006e-12 454.56

559.401 -14.643 -2.95142e-12
-14.643 544.515 -2.58578e-12
-2.95142e-12 -2.58578e-12 533.843

635.944 11.0844 -1.2117e-12
11.0844 631.421 6.08106e-13
-1.2117e-12 6.08106e-13 570.111

620.001 -5.16151 1.9081e-12
-5.16151 639.761 6.50078e-12
1.9081e-12 6.50078e-12 568.59

454.022 13.085 7.40761e-12
13.085 506.722 6.762e-13
7.40761e-12 6.762e-13 482.729

634.175 -10.6587 2.69755e-12
-10.6587 631.352 -5.2219e-12
2.69755e-12 -5.2219e-12 569.966

622.737 4.09406 -2.99361e-12
4.09406 642.704 3.88763e-12
-2.99361e-12 3.88763e-12 569.79

643.401 7.42326 8.17568e-13
7.42326 619.186 -1.65512e-12
8.17568e-13 -1.65512e-12 569.114

584.838 -12.1049 -8.14367e-12
-12.1049 631.707 -1.91358e-12
-8.14367e-12 -1.91358e-12 560.692

307.549 -30.4853 -1.86695e-12
-30.4853 371.77 -3.30166e-12
-1.86695e-12 -3.30166e-12 280.874

589.704 -12.9721 4.13033e-12
-12.9721 549.208 -1.07381e-12
4.13033e-12 -1.07381e-12 543.942

527.339 -34.4113 2.54049e-12
-34.4113 521.611 -3.10241e-12
2.54049e-12 -3.10241e-12 520.102

565.565 -18.1798 -9.98313e-13
-18.1798 538.103 -1.88205e-12
-9.98313e-13 -1.88205e-12 534.383

502.736 15.4645 -1.14101e-12
15.4645 452.272 3.34666e-12
-1.14101e-12 3.34666e-12 480.365

586.409 9.85707 -2.3952e-12
9.85707 642.164 -7.88332e-12
-2.3952e-12 -7.88332e-12 563.2

636.688 19.2177 -9.72718e-12
19.2177 591.781 2.37321e-12
-9.72718e-12 2.37321e-12 563.022

569.875 11.3141 2.29239e-12
11.3141 544.448 -3.40987e-12
2.29239e-12 -3.40987e-12 536.559

353.565 -15.3472 7.81597e-14
-15.3472 231.589 -2.66809e-12
7.81597e-14 -2.66809e-12 219.092

437.369 24.9752 -7.12911e-13
24.9752 462.087 6.95148e-13
-7.12911e-13 6.95148e-13 445.884

317.195 -61.3795 3.31587e-14
-61.3795 277.941 -4.31063e-12
3.31587e-14 -4.31063e-12 218.166

334.32 -57.4785 -1.84741e-12
-57.4785 357.443 2.70954e-12
-1.84741e-12 2.70954e-12 252.63

383.466 -36.5587 2.34242e-12
-36.5587 305.84 -2.75217e-12
2.34242e-12 -2.75217e-12 257.853

562.583 -5.15784 2.80931e-12
-5.15784 617.003 -1.03465e-11
2.80931e-12 -1.03465e-11 553.058

562.291 2.89184 3.55938e-12
2.89184 615.87 5.32374e-12
3.55938e-12 5.32374e-12 552.656

598.832 -24.4422 4.10931e-13
-24.4422 575.824 1.71122e-12
4.10931e-13 1.71122e-12 551.687

602.393 -21.7452 7.99509e-13
-21.7452 573.512 -2.359e-12
7.99509e-13 -2.359e-12 551.953

598.845 26.1203 -7.08885e-12
26.1203 580.535 -4.44903e-12
-7.08885e-12 -4.44903e-12 552.841

625.781 3.08944 4.85434e-12
3.08944 630.767 3.53887e-12
4.85434e-12 3.53887e-12 568.513

599.123 -20.498 5.70714e-12
-20.498 576.435 -2.37928e-12
5.70714e-12 -2.37928e-12 552.375

607.865 -18.5598 3.16887e-12
-18.5598 620.298 -1.54965e-12
3.16887e-12 -1.54965e-12 563.282

632.936 2.42711 -4.94701e-12
2.42711 635.55 -1.65477e-11
-4.94701e-12 -1.65477e-11 570.596

607.946 -20.5132 4.00124e-12
-20.5132 572.505 1.3971e-12
4.00124e-12 1.3971e-12 553.513

607.131 20.9423 -2.00469e-12
20.9423 573.762 1.11111e-12
-2.00469e-12 1.11111e-12 553.916

633.887 -3.45059 -4.97128e-12
-3.45059 636.801 1.17681e-11
-4.97128e-12 1.17681e-11 571.37

632.215 -3.10604 1.83267e-11
-3.10604 625.795 -2.09167e-11
1.83267e-11 -2.09167e-11 569.487

609.737 12.1079 -5.53779e-12
12.1079 620.521 3.70319e-12
-5.53779e-12 3.70319e-12 564.013

587.276 26.9172 1.74616e-12
26.9172 583.087 -3.07783e-12
1.74616e-12 -3.07783e-12 551.81

FIELD solute_concentration_TPM 2
S_ext 1 563 float
0.369473
0.36943
0.369428
0.369429
0.369455
0.369429
0.369473
0.36943
0.36943
0.369432
0.369459
0.369431
0.36943
0.369432
0.369448
0.369428
0.369435
0.36943
0.369429
0.369428
0.369429
0.369502
0.369429
0.369429
0.369428
0.36943
0.369456
0.369431
0.369438
0.369477
0.369429
0.369438
0.369457
0.369469
0.369468
0.369468
0.369477
0.369466
0.36943
0.369457
0.369439
0.369477
0.369477
0.369429
0.369448
0.369438
0.369429
0.369429
0.369429
0.36944
0.36944
0.369435
0.369454
0.369435
0.369453
0.36945
0.369468
0.369435
0.369468
0.369428
0.369435
0.36944
0.369454
0.36944
0.369441
0.369436
0.369435
0.36943
0.369428
0.369433
0.369454
0.369454
0.369438
0.369438
0.369428
0.369458
0.369447
0.369436
0.369431
0.369433
0.369444
0.369457
0.369439
0.369444
0.369439
0.369449
0.36943
0.369439
0.369448
0.369503
0.369434
0.369504
0.369448
0.369437
0.369434
0.369439
0.369444
0.36943
0.369446
0.369429
0.369432
0.369437
0.369444
0.369429
0.369432
0.369429
0.369441
0.36943
0.369444
0.369433
0.369429
0.369447
0.369446
0.369429
0.369429
0.369435
0.36947
0.369444
0.369471
0.369435
0.36943
0.369446
0.369431
0.369437
0.369436
0.369448
0.369467
0.369431
0.369444
0.369435
0.369456
0.36943
0.369438
0.36943
0.369437
0.36947
0.369447
0.369431
0.36944
0.36947
0.369437
0.369434
0.369431
0.369432
0.369445
0.36943
0.369434
0.369432
0.369429
0.369432
0.36943
0.369432
0.369438
0.369429
0.369431
0.36943
0.369433
0.369436
0.369436
0.369428
0.369429
0.369438
0.369448
0.369439
0.369437
0.369429
0.369436
0.369436
0.369438
0.369436
0.369449
0.369435
0.369439
0.369433
0.369434
0.36944
0.369449
0.369433
0.369453
0.369433
0.369438
0.36943
0.369431
0.369437
0.369437
0.369439
0.369436
0.36944
0.369451
0.36943
0.369438
0.369443
0.369435
0.369438
0.36943
0.369428
0.369429
0.369437
0.369431
0.369436
0.369431
0.369429
0.369432
0.369437
0.369438
0.369438
0.369438
0.369438
0.369444
0.369433
0.369446
0.369434
0.36943
0.36944
0.369432
0.369435
0.369432
0.369439
0.369435
0.369435
0.369433
0.369433
0.369433
0.369433
0.369433
0.369446
0.369446
0.369446
0.369446
0.369456
0.369456
0.369432
0.369433
0.369431
0.369428
0.369449
0.369449
0.369432
0.369433
0.36943
0.369431
0.369431
0.369445
0.369431
0.36944
0.36943
0.369431
0.369432
0.369444
0.369442
0.369438
0.369445
0.369429
0.369432
0.36943
0.369429
0.369434
0.369479
0.369433
0.369446
0.369433
0.369431
0.369432
0.369432
0.369434
0.369431
0.369478
0.369432
0.369436
0.369437
0.369428
0.369449
0.369439
0.369454
0.369429
0.369448
0.369449
0.369453
0.369428
0.369431
0.369432
0.369445
0.369433
0.369433
0.369436
0.369431
0.369435
0.369431
0.369433
0.369489
0.36945
0.369448
0.369447
0.369431
0.369431
0.369467
0.369435
0.36943
0.369431
0.369431
0.369451
0.369431
0.369451
0.369431
0.369448
0.369431
0.369445
0.369441
0.369431
0.36949
0.369431
0.36944
0.369431
0.369439
0.369431
0.36943
0.369456
0.369428
0.369431
0.369451
0.369432
0.369431
0.369438
0.36943
0.369431
0.36943
0.369431
0.369442
0.369431
0.369432
0.36943
0.369453
0.36943
0.36943
0.36943
0.36943
0.369431
0.36943
0.369445
0.369431
0.36943
0.369432
0.369433
0.369433
0.369431
0.369453
0.369461
0.369432
0.369444
0.36943
0.369483
0.369483
0.369483
0.369483
0.369482
0.369485
0.369485
0.369442
0.369465
0.369431
0.369431
0.369429
0.36943
0.369434
0.369431
0.36943
0.369466
0.36943
0.369445
0.369435
0.369445
0.369431
0.369429
0.36943
0.369453
0.36943
0.369429
0.369431
0.36943
0.369429
0.369434
0.36943
0.36943
0.369444
0.36943
0.369429
0.369429
0.369429
0.36943
0.369433
0.369429
0.369433
0.36943
0.36943
0.369432
0.369429
0.36943
0.369436
0.369429
0.369461
0.369448
0.36944
0.369446
0.36943
0.369429
0.369435
0.369461
0.36943
0.369429
0.369456
0.36949
0.369491
0.369431
0.369429
0.369429
0.369429
0.369512
0.369511
0.36943
0.369432
0.369432
0.369462
0.36943
0.369439
0.369428
0.369428
0.369429
0.369461
0.369439
0.369429
0.36943
0.369431
0.369428
0.369429
0.369429
0.369429
0.369456
0.369445
0.369429
0.369432
0.369429
0.369428
0.369429
0.36943
0.369429
0.369448
0.369447
0.36943
0.369435
0.369437
0.369449
0.369429
0.369428
0.369455
0.369488
0.369487
0.369453
0.369429
0.369432
0.369449
0.369486
0.369504
0.369503
0.369462
0.369467
0.369476
0.36943
0.369448
0.369428
0.369432
0.369437
0.36944
0.369433
0.369461
0.369429
0.369436
0.369439
0.369458
0.369471
0.369458
0.369436
0.369433
0.369432
0.369428
0.369432
0.369457
0.369431
0.369456
0.369428
0.369438
0.369477
0.369478
0.36945
0.369434
0.369474
0.369474
0.369474
0.369437
0.369463
0.369475
0.369428
0.369474
0.369457
0.369457
0.369474
0.369428
0.369457
0.369475
0.369457
0.369476
0.369457
0.369468
0.369451
0.369462
0.369473
0.369431
0.369441
0.369458
0.369432
0.369474
0.369433
0.369428
0.369476
0.369458
0.369476
0.369461
0.369429
0.369462
0.369502
0.369501
0.369434
0.369503
0.369502
0.369502
0.369494
0.36945
0.369472
0.369453
0.369465
0.369434
0.369496
0.369496
0.369465
0.369462
0.369428
0.369464
0.369459
0.369457
0.369483
0.369483
0.369482
0.369482
0.369483
0.369503
0.369485
0.369499
0.369507
0.369487
0.369487
0.369507
0.369501
0.369498
0.369484
P_ext 1 563 float
0.00124626
0.00124592
0.00124597
0.00124592
0.00124581
0.00124597
0.00124626
0.00124594
0.001246
0.00124592
0.00124621
0.00124594
0.00124595
0.00124592
0.00124584
0.00124596
0.0012459
0.00124594
0.00124601
0.00124598
0.00124599
0.0012456
0.00124598
0.00124597
0.00124598
0.00124593
0.00124619
0.00124596
0.0012461
0.00124571
0.00124596
0.0012461
0.0012462
0.00124574
0.00124574
0.00124574
0.0012457
0.00124575
0.00124595
0.0012462
0.0012461
0.0012457
0.0012457
0.00124596
0.00124616
0.0012461
0.00124601
0.001246
0.00124596
0.00124612
0.00124611
0.00124607
0.0012458
0.00124608
0.00124581
0.00124617
0.00124574
0.00124608
0.00124574
0.00124597
0.0012459
0.00124587
0.00124618
0.00124587
0.00124587
0.00124591
0.00124589
0.00124593
0.00124598
0.00124591
0.0012458
0.00124581
0.0012461
0.00124589
0.00124597
0.0012462
0.00124584
0.00124591
0.00124593
0.00124606
0.00124613
0.00124579
0.00124588
0.00124614
0.0012461
0.00124616
0.00124596
0.0012459
0.00124616
0.00124561
0.00124608
0.00124561
0.00124583
0.00124591
0.00124608
0.00124611
0.00124614
0.00124593
0.00124584
0.00124596
0.00124604
0.0012461
0.00124614
0.00124594
0.00124593
0.00124593
0.00124587
0.00124596
0.00124614
0.0012459
0.00124597
0.00124615
0.00124614
0.00124594
0.00124593
0.00124608
0.00124574
0.00124614
0.00124574
0.00124608
0.00124602
0.00124584
0.00124591
0.00124589
0.00124589
0.00124583
0.00124576
0.00124592
0.00124614
0.00124607
0.0012458
0.00124592
0.00124588
0.00124592
0.0012461
0.00124573
0.00124615
0.00124595
0.00124587
0.00124574
0.00124609
0.00124593
0.00124602
0.00124592
0.00124614
0.00124593
0.00124593
0.00124597
0.00124597
0.00124605
0.00124599
0.00124591
0.0012461
0.00124595
0.00124592
0.00124592
0.00124592
0.00124609
0.00124609
0.00124595
0.001246
0.0012461
0.00124616
0.00124611
0.00124609
0.00124593
0.00124609
0.00124609
0.0012461
0.00124609
0.00124583
0.00124608
0.00124611
0.00124591
0.00124608
0.00124587
0.00124583
0.00124594
0.00124581
0.00124593
0.0012461
0.00124593
0.00124593
0.00124609
0.0012459
0.00124611
0.00124589
0.00124588
0.00124583
0.00124593
0.0012459
0.00124613
0.00124607
0.0012461
0.00124592
0.00124594
0.00124594
0.00124588
0.00124591
0.00124591
0.00124591
0.00124601
0.00124606
0.00124588
0.00124611
0.00124588
0.00124591
0.00124609
0.00124586
0.00124591
0.00124586
0.00124592
0.00124593
0.00124588
0.00124604
0.00124592
0.00124606
0.00124588
0.00124589
0.0012459
0.0012459
0.0012459
0.0012459
0.0012459
0.00124592
0.00124584
0.00124584
0.00124584
0.00124584
0.0012458
0.0012458
0.00124605
0.00124592
0.00124591
0.001246
0.00124583
0.00124583
0.00124591
0.00124606
0.00124592
0.00124592
0.00124605
0.00124585
0.00124605
0.00124588
0.00124592
0.00124604
0.00124606
0.00124613
0.00124612
0.00124588
0.00124614
0.00124596
0.00124606
0.00124601
0.00124592
0.0012459
0.0012457
0.0012459
0.00124615
0.00124606
0.00124591
0.00124594
0.00124606
0.0012459
0.00124602
0.0012457
0.00124606
0.00124589
0.0012459
0.00124594
0.00124584
0.0012459
0.00124581
0.00124595
0.00124615
0.00124616
0.00124582
0.00124598
0.00124594
0.00124605
0.00124585
0.00124592
0.00124606
0.00124591
0.00124604
0.00124593
0.00124604
0.00124606
0.00124565
0.00124583
0.00124583
0.00124583
0.00124592
0.00124604
0.00124575
0.0012459
0.00124599
0.00124604
0.00124605
0.00124582
0.00124605
0.00124583
0.00124605
0.00124616
0.00124604
0.00124614
0.00124588
0.00124604
0.00124565
0.00124605
0.00124588
0.00124605
0.00124589
0.00124604
0.00124596
0.0012462
0.00124597
0.00124605
0.00124582
0.00124604
0.00124599
0.0012459
0.00124591
0.00124604
0.00124604
0.00124602
0.00124588
0.00124604
0.00124594
0.00124596
0.00124581
0.00124604
0.00124602
0.00124599
0.00124602
0.00124604
0.00124602
0.00124586
0.00124594
0.00124602
0.00124604
0.00124593
0.00124593
0.00124604
0.00124581
0.00124622
0.00124596
0.00124613
0.00124599
0.00124631
0.00124631
0.0012463
0.0012463
0.0012463
0.00124631
0.00124631
0.00124587
0.00124576
0.00124594
0.00124599
0.00124601
0.00124602
0.00124593
0.00124602
0.00124602
0.00124576
0.00124602
0.00124586
0.00124607
0.00124585
0.00124596
0.001246
0.00124602
0.00124582
0.00124597
0.00124599
0.00124596
0.00124599
0.00124602
0.00124606
0.00124599
0.00124597
0.00124586
0.00124601
0.00124602
0.00124601
0.001246
0.00124597
0.00124593
0.00124601
0.00124593
0.00124597
0.00124599
0.00124594
0.00124597
0.00124602
0.00124589
0.00124599
0.00124577
0.00124616
0.00124588
0.00124586
0.00124597
0.00124599
0.00124591
0.00124622
0.00124596
0.00124599
0.00124619
0.00124566
0.00124566
0.00124596
0.00124601
0.00124599
0.00124601
0.00124558
0.00124558
0.00124594
0.00124594
0.00124594
0.00124622
0.00124602
0.00124588
0.001246
0.00124601
0.001246
0.00124622
0.00124589
0.00124601
0.00124597
0.00124597
0.001246
0.00124599
0.001246
0.001246
0.0012462
0.00124614
0.00124599
0.00124596
0.00124599
0.00124601
0.00124599
0.00124599
0.00124599
0.00124616
0.00124584
0.00124601
0.00124591
0.00124589
0.00124616
0.00124597
0.00124597
0.00124581
0.00124565
0.00124565
0.00124582
0.00124602
0.00124596
0.00124616
0.00124566
0.00124559
0.00124559
0.00124622
0.00124575
0.00124571
0.00124597
0.00124584
0.00124595
0.00124592
0.00124589
0.00124588
0.00124594
0.00124622
0.00124596
0.00124591
0.00124589
0.00124621
0.00124573
0.0012462
0.00124589
0.00124592
0.00124604
0.00124596
0.00124594
0.00124579
0.00124594
0.00124579
0.00124597
0.00124589
0.00124571
0.00124571
0.00124617
0.00124591
0.00124627
0.00124627
0.00124627
0.0012459
0.00124623
0.00124627
0.00124601
0.00124627
0.00124579
0.00124579
0.00124627
0.00124598
0.0012462
0.00124628
0.0012462
0.00124628
0.0012462
0.00124574
0.00124617
0.00124622
0.00124627
0.00124595
0.00124587
0.0012462
0.00124595
0.00124627
0.00124593
0.00124598
0.00124628
0.00124621
0.00124628
0.00124622
0.00124597
0.00124577
0.0012456
0.0012456
0.00124592
0.00124559
0.0012456
0.0012456
0.00124564
0.00124617
0.00124572
0.00124582
0.00124577
0.00124592
0.00124563
0.00124563
0.00124577
0.00124622
0.00124599
0.00124623
0.00124621
0.0012462
0.00124567
0.00124567
0.00124568
0.00124568
0.00124567
0.0012456
0.00124568
0.00124562
0.00124559
0.00124567
0.00124567
0.00124559
0.0012456
0.00124562
0.00124568
FIELD solute_flux_TPM 2
S_ext 3 563 float
-2.00285e-05 6.57273e-06 -4.30691e-20
2.30862e-06 3.23863e-06 -8.49908e-20
-5.20636e-06 -3.68052e-06 1.29234e-19
-1.75658e-06 1.85578e-06 -7.11477e-19
1.43251e-05 -4.35765e-06 -3.54955e-18
7.84549e-07 -6.22577e-06 -1.24309e-18
-1.97285e-05 -6.65361e-06 -4.68898e-19
-6.64472e-06 -3.99358e-06 -1.21417e-19
7.69863e-06 4.93696e-07 -2.10431e-18
5.04658e-06 -2.41154e-06 -2.05282e-18
1.38368e-05 3.19021e-06 -1.43075e-18
3.11526e-07 -7.71006e-06 -1.22082e-19
6.21592e-06 4.02831e-06 -1.91642e-18
2.04352e-06 6.41502e-06 -1.42687e-18
1.29919e-05 -2.30691e-06 -2.5885e-18
-6.22027e-06 -1.0113e-07 -5.01809e-19
2.38181e-06 7.57055e-06 -1.34675e-18
4.095e-06 -1.21172e-06 -2.6306e-18
3.44604e-06 5.88942e-06 -1.43561e-18
-5.59281e-06 8.10676e-07 4.11834e-19
-8.17196e-07 -8.12008e-06 -9.51385e-19
2.85816e-05 4.03745e-05 -1.3176e-19
5.8593e-06 6.90399e-07 -2.40261e-18
4.53828e-06 -4.09995e-06 -1.279e-18
-5.64744e-06 -1.49732e-06 -2.24036e-18
3.50347e-07 -5.01e-06 -1.61618e-19
1.58262e-05 -1.1503e-06 -1.13426e-18
6.17453e-06 4.11408e-06 -1.16068e-18
-7.00873e-06 -5.85127e-06 -2.3883e-19
3.18923e-05 -8.68809e-06 -3.76305e-18
-6.60183e-06 -3.21496e-06 -3.00051e-18
1.66313e-06 -9.08261e-06 -2.24824e-18
1.18455e-05 -1.1983e-05 -6.6511e-19
-3.49925e-06 -2.68188e-05 -1.74901e-19
-1.93413e-05 2.36879e-05 3.40226e-19
-2.49816e-05 -1.03592e-05 8.6162e-20
2.14038e-05 2.76681e-05 2.6095e-19
-2.88439e-05 -5.92557e-06 1.62135e-19
6.51067e-06 -3.97477e-06 -3.68893e-19
1.15941e-05 1.24843e-05 -7.03361e-19
9.14853e-06 -3.82362e-06 -1.36485e-18
2.17456e-05 -2.66539e-05 -1.73613e-18
-1.22194e-05 -3.21278e-05 -1.60223e-18
-6.18173e-06 3.31713e-06 7.45372e-19
7.98114e-06 -7.76092e-06 -1.15895e-19
-8.5225e-06 2.98169e-06 -1.59279e-19
-1.28796e-06 -7.1475e-06 -2.44795e-19
2.63892e-06 7.08438e-06 -8.64168e-19
-6.68664e-06 2.8266e-06 -3.37653e-19
-4.9257e-06 7.86088e-06 1.87544e-18
9.16332e-06 4.09299e-06 -1.76466e-18
8.7026e-06 -3.2096e-06 -2.307e-18
-1.0086e-05 9.67906e-06 -1.45776e-18
-6.9861e-06 -5.83529e-06 -1.49849e-18
-1.31955e-05 -3.53434e-06 1.05691e-18
-1.12453e-05 6.84165e-06 9.92064e-19
-1.91621e-05 -2.44009e-05 -1.72296e-19
1.67634e-06 -9.02992e-06 -2.02397e-18
-3.07274e-05 4.43925e-06 -1.42805e-18
2.13975e-06 5.29206e-06 -3.29587e-19
-2.66568e-06 -5.09927e-06 4.2413e-19
-3.26321e-06 -1.08707e-05 -9.2792e-19
1.43406e-05 6.14831e-06 -1.37353e-18
6.16507e-06 9.93933e-06 -1.35824e-18
7.84954e-06 -8.1825e-06 -1.30931e-18
-1.63646e-06 -1.06823e-05 -1.13187e-18
3.27972e-06 -4.82196e-06 -5.41431e-19
-4.19156e-06 -3.04161e-06 -1.08497e-18
-4.17701e-06 4.34332e-06 2.44902e-19
9.43052e-07 -2.49796e-06 -7.9986e-19
-9.6597e-06 -9.71963e-06 -8.38397e-20
-1.33242e-05 3.55376e-06 -2.09309e-18
-1.12931e-06 9.56475e-06 1.00163e-18
-9.30091e-06 5.7992e-06 4.56081e-19
-3.565e-06 5.41734e-06 1.7855e-18
-1.46696e-05 1.98562e-06 3.14437e-19
5.22059e-06 -1.2407e-05 -1.10283e-18
-1.01213e-05 -3.85523e-06 -1.23381e-19
2.94715e-07 5.26886e-06 -9.21984e-19
8.13767e-06 1.49122e-06 -3.28623e-18
9.19677e-06 -7.60707e-06 -1.83197e-18
1.43883e-05 1.26919e-05 -1.20505e-18
7.07912e-06 -2.21493e-06 -3.71144e-18
-8.55579e-06 6.18807e-06 3.17503e-19
1.054e-05 1.44415e-06 -1.40841e-18
-1.41995e-06 1.25721e-05 2.72173e-18
-4.03323e-07 -7.13695e-06 -1.22366e-19
9.43298e-06 4.70003e-06 -4.20902e-18
7.67445e-06 7.95613e-06 4.74759e-19
4.23313e-05 2.63475e-05 -4.82255e-18
-1.35191e-06 9.06709e-06 6.06276e-19
4.4245e-05 -2.48656e-05 -3.2095e-18
-1.66638e-05 2.57824e-06 -1.79083e-19
9.02516e-06 6.17479e-06 -2.43516e-18
-8.58189e-06 3.10178e-06 -1.05579e-18
4.67427e-06 7.97902e-06 -1.68218e-18
2.61768e-06 -1.164e-05 -8.37829e-19
3.79483e-07 5.2853e-06 -1.2581e-18
-8.08754e-06 -1.0681e-05 -1.35964e-18
6.61945e-07 7.15098e-06 -7.49989e-19
8.41368e-06 1.94495e-06 -2.28615e-18
-4.17289e-06 9.22411e-06 1.19405e-19
1.08021e-05 -3.70318e-06 -1.90698e-18
-1.62138e-06 2.94325e-06 -7.53311e-19
4.94326e-06 2.15994e-06 -3.38745e-18
-4.8182e-07 -5.11204e-06 -6.64172e-19
2.55398e-06 -1.09751e-05 -1.85378e-18
6.89835e-06 2.01538e-06 -2.78886e-18
-1.99438e-06 1.0874e-05 1.31223e-18
-5.73093e-06 -3.54071e-07 2.46719e-19
3.84452e-06 4.37781e-06 -1.16098e-18
-6.20882e-07 -1.09816e-05 4.32741e-20
1.11303e-05 3.62003e-06 -9.49397e-19
1.83464e-06 -2.90908e-06 -1.16336e-18
-4.71545e-06 -2.04379e-06 -1.12786e-18
-8.40396e-06 -3.82354e-06 -8.8712e-19
1.01192e-05 2.72037e-05 -4.10401e-18
-1.11508e-05 -4.08027e-06 -5.17037e-19
1.026e-05 -2.72794e-05 -6.06055e-19
-8.404e-07 -9.35197e-06 -6.84963e-19
7.3533e-06 1.29654e-07 -2.33673e-18
-4.13193e-06 1.16897e-05 -3.03155e-19
-1.21516e-06 1.8262e-06 -4.61375e-19
-2.91863e-06 -8.84929e-06 -7.97534e-19
2.67394e-06 -5.22652e-06 -1.09443e-18
6.1913e-06 9.65534e-06 -8.94872e-19
2.16247e-05 7.38417e-06 -2.49356e-18
4.43638e-06 -2.9125e-06 -2.42125e-18
-2.10008e-06 -1.17767e-05 7.23601e-19
7.73779e-06 -5.4181e-06 -1.8231e-18
3.27394e-06 1.73298e-05 4.11699e-20
-1.07231e-06 -1.73284e-06 1.51002e-18
-5.45885e-06 -4.63309e-06 -1.38649e-18
-2.52555e-06 4.98504e-07 -2.03458e-19
-6.41467e-06 7.79432e-06 1.41106e-18
1.29286e-05 -2.41674e-05 -2.59298e-19
-6.80956e-06 1.08698e-05 1.70725e-18
-6.70192e-06 4.38597e-06 9.12896e-19
1.10938e-06 7.56628e-06 -1.47926e-18
-1.44452e-05 -2.32509e-05 -4.3148e-19
3.86051e-06 9.41409e-06 -8.8931e-19
8.66507e-06 3.482e-06 -3.01259e-18
7.79273e-06 -3.28167e-06 -2.01204e-18
-1.22589e-06 -5.18362e-06 -9.18894e-19
-8.78474e-06 -8.05564e-06 1.39782e-18
-5.37577e-07 5.23028e-06 -6.27441e-19
8.1677e-06 5.00201e-06 -2.84348e-18
7.69513e-06 -4.23572e-06 -1.45318e-18
3.40036e-06 -5.26934e-06 -9.09099e-19
7.83008e-06 -3.32918e-06 -1.79414e-18
7.09713e-06 -3.36886e-06 -1.89983e-18
2.59237e-06 6.43667e-07 -2.0004e-18
7.32422e-06 5.8048e-06 -1.24448e-18
-3.96067e-07 -7.13802e-06 -1.28946e-18
-5.19713e-06 -1.4384e-06 2.98464e-19
1.02642e-06 -1.82104e-06 -5.80604e-19
-2.48158e-06 7.57538e-06 -1.22075e-18
-9.68212e-06 8.55789e-07 3.24239e-19
-3.2791e-06 -9.34653e-06 -1.69465e-18
-3.17214e-06 3.82086e-06 1.20675e-18
4.97426e-06 5.64445e-06 -6.56063e-19
7.58166e-06 -5.44458e-06 -2.37917e-19
-9.54232e-06 -5.27878e-06 7.92928e-19
4.92529e-06 -7.74357e-06 -1.16153e-18
6.59277e-06 -7.63196e-06 -8.86703e-19
-4.70477e-06 2.26572e-06 2.08096e-19
-5.5948e-06 -7.99614e-06 2.85349e-19
-9.64621e-06 -1.72491e-06 8.41493e-20
-1.18389e-06 -8.98082e-06 -2.24716e-18
4.32769e-06 -8.97443e-06 -9.28701e-19
-6.17846e-06 -1.57449e-05 -1.23106e-18
1.18414e-06 9.22856e-06 -5.28827e-19
-4.40022e-06 -7.92509e-06 7.66189e-19
2.53503e-06 -8.12904e-06 -9.20079e-19
-7.36206e-06 5.1834e-06 2.01659e-19
-8.20201e-06 -7.44704e-06 -1.516e-18
-1.67813e-05 -2.46229e-06 -1.31596e-18
6.93516e-06 -4.32587e-06 -1.70886e-18
-2.3624e-06 1.51854e-05 7.62551e-19
6.33596e-06 -3.82732e-06 -4.52313e-19
-8.33211e-06 -3.58563e-06 -3.62078e-20
-4.37807e-06 -2.92929e-06 8.86549e-19
4.55731e-06 2.88876e-06 -1.58914e-18
6.18284e-06 8.01346e-06 2.01949e-19
-8.7081e-06 -5.83066e-06 -1.4302e-18
-8.97335e-06 -2.36482e-07 2.01157e-19
-9.24358e-06 -1.82282e-06 -4.1487e-19
-2.93594e-06 -8.85802e-06 -3.76126e-19
1.03422e-05 1.35134e-05 -3.61713e-18
-5.48638e-06 2.0936e-06 -1.71962e-18
7.37207e-07 -1.04816e-05 -2.27102e-18
-1.09268e-05 2.96078e-06 -3.99915e-19
7.52975e-06 5.78302e-06 -2.38997e-18
1.18805e-06 9.25055e-06 -1.12753e-18
-8.74747e-07 2.27166e-06 2.9355e-19
-3.53945e-06 9.1886e-08 -1.29472e-18
1.81281e-06 3.01564e-06 -1.21106e-18
-6.86899e-06 2.4897e-06 -7.95327e-19
-1.44216e-06 -1.73746e-06 -2.4226e-18
1.58921e-06 1.04371e-05 2.9304e-19
2.48641e-06 -2.97953e-07 -2.00945e-18
-6.72491e-06 1.74501e-06 5.34443e-19
-5.27558e-06 5.91088e-06 -8.26147e-20
-1.37711e-06 7.0532e-06 1.04992e-18
-8.03453e-06 5.21703e-06 1.99111e-19
-5.91239e-06 4.98609e-06 -9.32211e-19
8.57158e-06 -6.74331e-06 -1.30218e-18
1.02905e-05 -1.1226e-06 -1.77156e-18
-1.22715e-05 6.33924e-06 -1.35403e-19
7.76859e-07 2.67235e-06 -1.05145e-18
1.28211e-05 -1.71599e-06 -2.32887e-18
-8.26699e-06 5.79792e-06 8.74447e-19
-4.22217e-06 3.05405e-06 -2.14307e-19
7.17332e-06 2.79408e-06 -2.85892e-18
7.09159e-06 -4.48317e-06 -4.05737e-19
-8.55674e-06 4.66746e-06 1.00109e-18
-7.65985e-06 -1.62487e-06 -7.31755e-19
-9.21367e-06 -1.88325e-06 -5.8803e-19
5.96965e-06 5.15931e-07 -2.12879e-18
6.05804e-06 -4.57938e-07 -2.72592e-18
3.10503e-06 4.61264e-06 -3.79963e-19
3.28796e-06 -4.81713e-06 -1.4207e-18
-2.49578e-06 5.17922e-06 -1.68997e-19
-2.55792e-06 -5.25996e-06 2.55273e-19
4.33015e-06 -4.11685e-06 -1.04656e-18
-1.26645e-05 2.38613e-06 -1.26909e-18
-1.25144e-05 -2.42054e-06 1.17888e-18
-8.31937e-06 9.72208e-06 -3.43199e-19
-8.35032e-06 -9.74492e-06 -9.28988e-19
4.44703e-06 -1.27672e-05 -2.1788e-18
4.28546e-06 1.2679e-05 -3.58823e-18
6.53563e-07 8.2502e-06 -8.9703e-19
5.82543e-06 -6.28038e-07 -6.6172e-19
1.23041e-06 -1.78589e-06 -6.59089e-19
-7.31638e-06 6.88472e-07 5.35254e-19
4.53165e-06 -1.25685e-05 -1.99746e-18
4.30246e-06 1.26066e-05 -1.48897e-18
2.2869e-06 -3.97857e-08 -2.67927e-18
2.81552e-06 7.50424e-06 -7.70459e-19
-1.02913e-06 -1.89722e-06 -8.3057e-19
5.8221e-07 -5.20957e-06 -1.29403e-18
-7.24237e-06 -3.76224e-06 -1.4661e-18
-1.25194e-05 -6.51847e-06 -4.22553e-19
-6.90901e-06 4.45573e-06 -7.35884e-19
1.50232e-06 -7.60709e-06 -1.0157e-18
-7.39788e-07 1.51518e-06 -1.6714e-18
-2.99554e-07 -8.23836e-06 -8.14645e-19
-2.37085e-06 -7.52012e-06 -8.09862e-19
8.80036e-06 7.94392e-06 -1.15282e-18
9.87598e-06 -4.42644e-07 -1.03722e-18
-7.46233e-06 -2.65201e-06 1.04724e-18
-5.90138e-06 -1.063e-05 4.42147e-19
3.33256e-06 5.3202e-06 4.16596e-19
-7.68821e-06 9.0916e-07 -8.35433e-20
7.03536e-06 2.05925e-06 -2.17595e-18
-2.12484e-06 -9.05801e-09 1.71625e-19
-3.08894e-06 -4.67649e-06 -1.83933e-18
-5.35761e-06 -2.52546e-05 -5.23738e-19
-5.67825e-06 4.17386e-07 -5.3882e-19
-1.23135e-05 -4.55428e-07 1.247e-21
5.44322e-06 -5.9368e-06 1.10117e-18
1.25245e-06 1.84329e-06 -1.88093e-18
-2.80248e-07 -7.7869e-06 6.3058e-19
-2.99578e-06 7.31034e-06 -1.24063e-19
-2.95965e-06 4.76834e-06 -4.455e-20
7.26913e-06 -4.4609e-06 -7.78638e-19
-2.45549e-05 -7.96171e-06 5.63153e-19
-4.65001e-06 -6.24481e-06 -7.67879e-19
2.58994e-06 5.24486e-06 -2.3533e-18
9.37033e-06 1.67079e-06 -2.39569e-18
-1.88692e-06 -2.85538e-06 -4.11351e-19
1.25564e-05 2.67104e-06 -3.6001e-18
9.56792e-06 -4.71871e-06 -1.97567e-18
-9.49542e-08 1.653e-05 -3.03224e-19
3.3883e-06 -5.38595e-06 5.4863e-19
1.26948e-05 3.95305e-07 -9.49086e-19
-1.08328e-05 2.75653e-06 1.988e-19
1.39876e-05 6.71297e-06 -2.64161e-18
-2.19182e-06 -6.27039e-06 1.16436e-18
-6.95509e-06 -3.59992e-06 2.5335e-19
8.85267e-06 -5.55131e-08 -1.22163e-18
-5.66109e-07 -1.41384e-05 -2.0738e-18
-5.72921e-06 -6.27308e-06 -7.11722e-19
3.22388e-06 -7.23852e-06 -1.33893e-18
-6.37604e-07 1.02228e-05 4.09037e-20
2.30613e-06 8.2928e-06 -1.92328e-18
8.09064e-06 -4.80434e-06 -3.09164e-18
-6.17102e-06 5.86777e-06 -4.91855e-19
5.14117e-06 6.17268e-06 -1.25873e-18
-4.29154e-05 1.01612e-05 1.34527e-18
-6.79284e-06 1.5712e-05 -4.31251e-19
8.19518e-06 -9.4068e-06 -1.01655e-18
-4.08719e-06 -1.17191e-05 -2.92847e-19
-5.9292e-06 1.41768e-06 2.0247e-19
-8.08453e-06 -2.51284e-06 -1.76061e-18
-4.49318e-06 2.50892e-05 -3.06902e-21
-6.00626e-06 7.20546e-06 6.26208e-19
7.58692e-06 -2.11414e-06 -2.39601e-18
-1.88301e-06 -8.29082e-06 -1.5944e-18
-4.55157e-06 7.24059e-06 2.01946e-19
-1.29492e-05 7.6258e-06 -4.34803e-19
-6.46161e-06 -4.8519e-06 -8.54383e-19
1.05343e-05 -1.32131e-05 -1.74403e-18
-8.38865e-06 -4.82784e-07 -9.40419e-19
3.25235e-06 -1.0685e-05 -1.42131e-18
6.46879e-06 -5.83243e-06 -5.29666e-19
6.46274e-06 1.12017e-05 -8.75799e-19
1.38066e-06 1.10644e-05 -3.85203e-19
1.07721e-06 -8.10326e-06 -1.26111e-18
-2.78155e-05 3.28428e-05 -3.56259e-19
-3.83865e-06 -7.50781e-06 4.54942e-19
9.49343e-06 -2.98067e-06 -2.18459e-18
-8.14762e-07 8.13855e-06 6.11599e-19
6.51092e-06 -7.36161e-06 -5.04934e-19
4.33115e-06 7.46599e-06 -2.24684e-18
6.63953e-06 -8.52679e-07 -1.74667e-18
5.39387e-06 -1.56087e-05 -3.13408e-19
-2.01879e-06 -4.97784e-06 -5.35836e-19
-7.396e-06 3.13114e-06 -8.19741e-19
-1.2209e-05 1.18832e-05 2.42203e-18
6.92504e-06 4.73439e-06 -1.34616e-18
7.14568e-06 -4.27386e-06 -2.18963e-18
7.1927e-06 7.1938e-06 -1.43235e-18
-3.04823e-06 -4.77621e-07 -5.88381e-19
4.87834e-06 -7.09809e-06 4.47611e-20
-5.51748e-06 -6.25699e-06 -2.42488e-19
7.70465e-06 3.6306e-06 -2.25916e-18
6.73117e-06 -6.90851e-06 -2.27952e-18
2.86443e-06 -7.94532e-06 -8.55473e-19
7.11534e-06 -3.91652e-06 -1.54187e-18
-6.50864e-06 -3.39179e-06 -2.95164e-18
1.04348e-06 -1.58415e-05 -8.95834e-19
-8.14478e-06 1.6838e-06 -4.91729e-19
5.77655e-07 8.36437e-06 -8.20694e-19
7.60682e-06 2.98944e-06 -1.52865e-18
-7.30661e-06 -3.90302e-06 -1.43386e-18
-2.55316e-06 8.09147e-06 6.13899e-19
-2.31827e-07 -8.33386e-06 -1.10694e-18
1.1038e-05 6.93656e-06 -3.97825e-18
1.35336e-07 8.25848e-06 -2.1728e-18
-7.00955e-06 4.44724e-06 -7.44361e-19
7.66185e-06 3.5489e-06 -1.38459e-18
-7.61285e-06 -5.44564e-06 -2.17412e-18
9.60883e-07 -9.3512e-06 -1.63108e-18
6.08204e-06 6.14061e-06 -2.61748e-18
-1.3199e-05 -8.80395e-06 -4.70498e-19
1.20945e-05 -8.58211e-06 -1.23503e-18
7.69926e-06 -4.22869e-06 -3.1579e-18
2.26241e-06 1.1393e-05 5.56419e-19
6.86834e-06 -4.76971e-06 -1.36339e-18
-5.30175e-06 2.0902e-05 7.78858e-19
-5.32349e-06 -2.07117e-05 -1.33361e-18
1.36796e-05 1.77112e-05 -5.9287e-19
1.35242e-05 -1.77074e-05 -2.2155e-18
2.2238e-05 -1.52638e-08 -1.81342e-18
-1.90788e-05 7.82614e-06 -2.59515e-19
-1.87809e-05 -7.90178e-06 -1.49236e-19
6.58473e-06 7.02661e-06 -1.73227e-18
1.8743e-05 1.42195e-05 -2.18832e-18
4.63285e-06 1.80572e-06 -2.50286e-18
7.25301e-06 3.62802e-06 -9.47157e-19
1.70048e-06 7.07264e-06 -2.1382e-18
-6.66348e-06 -4.85591e-06 -4.89713e-19
8.54875e-06 -4.14554e-06 -2.12876e-18
7.08039e-06 4.73143e-06 -1.80424e-18
-7.0984e-07 8.3232e-06 -4.54066e-19
1.887e-05 -1.30251e-05 -1.15865e-18
1.01034e-06 -8.22894e-06 -1.35305e-18
1.28497e-05 2.15478e-06 -2.54098e-18
8.7845e-06 3.48589e-06 -2.99797e-18
9.18288e-06 8.5811e-06 -1.48634e-18
6.32857e-06 2.98227e-06 -3.7387e-18
-6.88692e-06 4.24107e-06 -7.07814e-19
-7.55161e-06 3.40408e-06 -7.42408e-19
1.40223e-05 -6.56237e-06 -1.96126e-18
-7.37395e-06 -4.42779e-06 -4.13638e-19
-7.11144e-06 -3.89551e-06 -1.36181e-18
2.19603e-07 -8.60947e-06 2.43535e-21
-1.18661e-07 -8.09123e-06 -1.31939e-18
-6.75257e-06 -3.83417e-07 -1.23296e-18
8.22775e-06 -1.21504e-06 -1.94761e-18
6.8829e-06 4.36664e-06 -1.56761e-18
-7.49798e-06 4.23399e-06 -1.54433e-18
-8.22152e-06 1.00761e-05 2.0326e-19
5.82751e-06 -4.84833e-06 -7.36149e-19
-3.69996e-06 5.81702e-06 1.22494e-19
-4.91782e-06 -5.06117e-06 2.51197e-19
-3.94852e-07 7.82964e-06 -9.90737e-19
5.80943e-08 8.65808e-06 -1.4134e-18
-1.1536e-07 -9.34055e-06 -1.12731e-18
2.09866e-06 -6.80666e-06 -9.82833e-19
-8.12653e-06 -4.47353e-06 -1.58628e-18
6.00736e-06 -2.42494e-06 -1.65948e-18
4.07026e-07 8.0607e-06 -2.02392e-18
3.00003e-07 8.29273e-06 -1.00428e-18
-6.02027e-07 6.69105e-06 -9.56558e-19
7.3748e-06 -1.91399e-06 -2.75225e-18
-9.46565e-06 2.07302e-06 2.44699e-19
1.0835e-06 8.06857e-06 -1.77877e-18
-2.07412e-05 7.90138e-06 -1.7926e-19
2.5816e-06 1.09002e-05 -1.02906e-18
-9.50474e-06 2.02797e-06 -2.21531e-19
1.1341e-05 -6.84339e-06 -1.26702e-18
4.01523e-08 8.65774e-06 -1.41223e-18
-7.30122e-06 2.93897e-06 4.10076e-19
1.80185e-06 -8.0856e-06 -2.47712e-18
3.52347e-07 -1.44407e-05 -7.72893e-19
5.91143e-07 7.14982e-06 -2.08259e-19
-6.60614e-06 4.80543e-06 -2.11753e-19
4.37042e-06 1.58216e-05 -5.53153e-19
3.11752e-05 2.59138e-05 -3.83577e-18
3.5833e-05 -2.45056e-05 -3.14767e-18
6.44807e-06 -4.09937e-06 -2.07401e-18
-5.54169e-06 4.82133e-06 -1.81543e-18
-7.38152e-06 -3.46383e-06 -2.48265e-18
-6.86647e-06 -2.46913e-06 -2.55179e-18
4.45263e-05 -1.22709e-05 -2.65747e-18
4.53812e-05 9.55793e-06 -3.49078e-18
4.45963e-06 1.95912e-06 -1.96607e-18
-4.06124e-07 8.83591e-06 -2.93197e-19
1.50457e-07 8.85033e-06 -8.35512e-19
-1.19211e-05 -8.8325e-06 4.68391e-19
3.98928e-06 -5.7752e-06 -1.14566e-18
6.04975e-06 7.70799e-06 -1.81546e-18
-7.35925e-06 -1.51347e-06 -2.14849e-18
-5.05879e-06 5.69588e-06 -9.52343e-19
-6.98804e-06 3.42438e-06 -1.24393e-18
1.19602e-05 8.55191e-06 -1.31553e-18
8.61938e-06 3.40453e-06 -2.56591e-18
-1.80736e-06 6.8708e-06 9.85654e-19
-7.3779e-06 -4.42196e-06 2.52698e-19
2.58628e-07 -8.60514e-06 -8.69893e-19
-2.82567e-06 -6.80032e-06 2.5114e-19
-6.40657e-06 -4.33487e-06 -8.6598e-19
3.62416e-06 -6.5315e-06 4.63952e-20
5.33829e-06 -5.68052e-06 -1.23412e-18
-6.77991e-07 -1.51728e-05 -6.23415e-19
6.84273e-06 -1.0719e-05 -7.1561e-19
6.56036e-07 -7.71764e-06 8.74426e-20
7.7351e-06 4.29213e-06 -1.49466e-18
-5.72025e-06 -5.11006e-06 4.58643e-19
-3.19782e-06 6.76453e-06 3.28093e-19
-1.31216e-06 7.78157e-06 -6.2118e-19
6.63913e-06 4.84429e-06 -3.27418e-19
1.82242e-06 -7.46765e-06 -3.74288e-20
-3.61774e-06 -1.0426e-05 -5.89228e-19
-1.48239e-06 1.46837e-05 3.77586e-19
5.33951e-06 4.99631e-06 -2.05385e-18
-6.11399e-06 -5.53604e-06 -2.35134e-18
-6.92999e-06 5.89768e-06 1.3843e-18
1.161e-05 -4.84512e-06 -1.45415e-18
2.79758e-06 -5.17759e-06 -2.45154e-19
-3.3835e-06 -4.66013e-06 -7.02562e-19
1.35528e-05 4.44276e-06 -2.68721e-18
8.7454e-06 -3.15151e-05 -6.99036e-19
-2.29289e-05 -2.33009e-05 -8.28543e-19
1.46697e-05 3.46597e-06 -2.25447e-18
-3.08376e-06 -6.13634e-06 4.14919e-19
7.68846e-06 4.40797e-06 -1.74473e-18
-7.41949e-06 -8.36289e-06 -1.92867e-18
7.09421e-06 3.19817e-05 -3.46698e-19
3.13042e-05 -4.05382e-05 -2.68018e-21
-1.94608e-05 -4.73626e-05 -2.42954e-18
6.80632e-06 -1.30951e-05 -1.42468e-18
-7.96491e-06 2.83678e-05 -1.43164e-18
-4.69035e-06 2.49494e-05 -4.65298e-20
-7.52241e-06 4.17637e-06 1.19573e-19
4.16439e-06 1.41267e-05 1.65027e-19
-5.47148e-07 5.19611e-06 2.90059e-19
4.593e-06 2.06032e-06 -1.30134e-18
-2.60582e-06 8.86266e-06 -1.30989e-18
-3.54357e-08 1.12977e-05 7.13075e-19
7.39849e-06 4.45071e-06 -2.46377e-18
2.95057e-07 1.43715e-05 1.4673e-18
-6.2424e-06 3.74257e-06 -1.12832e-18
8.07611e-06 -2.39308e-06 -1.37851e-18
9.85865e-06 -1.60492e-06 -2.22586e-18
-1.47123e-05 -2.26585e-06 4.3564e-20
-2.22576e-05 1.06478e-05 -1.39044e-19
-1.0611e-05 -1.263e-05 9.07997e-19
5.40214e-06 4.63683e-06 -1.22663e-18
6.34763e-06 4.26397e-06 -3.35316e-18
8.46157e-06 -1.62039e-06 -2.37126e-18
-3.20384e-06 -5.1832e-06 5.48463e-19
7.39734e-06 4.45217e-06 -1.20979e-18
4.85864e-06 -1.89149e-05 -1.45399e-18
-6.77575e-06 4.02025e-06 -2.55199e-19
-1.39534e-05 -1.36416e-05 -3.82412e-19
-1.7841e-06 6.50226e-06 -6.25459e-19
-2.56516e-06 1.10314e-05 -3.41502e-19
2.23217e-05 1.37947e-05 -3.19984e-18
2.38426e-05 -1.25447e-05 -2.20724e-18
-1.07636e-05 -2.84768e-06 -3.90852e-19
3.26033e-06 4.4498e-06 -2.39257e-18
-1.00738e-06 2.4266e-05 6.48031e-19
1.37933e-07 -2.4915e-05 -2.0061e-18
1.23071e-05 2.10587e-05 1.15402e-18
-1.04083e-05 3.76293e-06 3.31881e-20
-6.74649e-06 1.36895e-05 3.42288e-19
1.23924e-05 -2.03279e-05 -1.18976e-18
-4.12436e-06 -6.13374e-06 -3.24313e-19
1.88897e-05 1.62583e-05 -1.4602e-18
1.55752e-05 -1.11943e-05 -1.32999e-18
-1.92227e-06 -1.90587e-05 -1.92794e-18
1.97752e-05 -1.58992e-05 -1.95915e-18
-2.36417e-06 5.36745e-06 1.15783e-18
-1.30934e-05 -8.28431e-06 -1.92216e-19
-1.03736e-05 -2.1717e-05 -4.64526e-19
-5.97908e-06 -1.42941e-05 -1.36374e-18
-1.06654e-05 2.2063e-05 2.03762e-18
-2.53324e-06 1.58084e-05 1.28695e-18
1.07187e-05 2.39144e-05 -3.45672e-19
-7.25373e-06 9.29281e-06 4.31263e-19
-6.46867e-06 -1.33607e-05 -1.11923e-18
2.42084e-05 4.29038e-06 -3.07595e-18
-7.84398e-06 4.20859e-06 -4.22617e-19
-3.85146e-06 8.9321e-06 -6.37454e-19
-1.24441e-05 8.88697e-06 3.89892e-19
-7.6943e-06 4.56239e-06 -2.9879e-19
2.39733e-05 -3.84152e-06 -1.26458e-18
-7.3261e-06 3.21979e-06 1.04197e-18
2.73416e-06 -5.36423e-06 -1.19639e-18
-1.85438e-05 -1.42111e-05 6.53956e-19
-6.44261e-06 1.4253e-05 1.0517e-18
-1.8974e-05 1.41148e-05 -6.51852e-19
6.04854e-06 1.30464e-05 -2.79065e-21
-6.13391e-06 4.06194e-06 -1.29252e-18
-1.25895e-05 1.57509e-05 3.78987e-19
-2.41155e-05 3.04304e-05 1.58558e-18
-3.79018e-05 -4.81759e-06 2.12545e-19
-9.01914e-07 7.89403e-06 5.41751e-19
-2.55214e-05 -3.05583e-05 9.25526e-19
-3.92434e-05 6.83417e-06 8.94479e-20
-1.49986e-05 3.46669e-05 -3.98779e-19
-1.14855e-05 4.57841e-05 4.34611e-20
-4.6428e-06 1.05512e-05 2.24436e-18
-2.18113e-05 1.76189e-05 3.37499e-19
1.5472e-05 -3.44242e-06 -2.63872e-18
2.47386e-05 -8.41922e-07 -2.14816e-18
6.24908e-06 4.38565e-06 -3.43536e-18
-8.07188e-06 -5.27755e-05 9.61543e-19
-4.97554e-05 -1.93759e-05 -1.14058e-18
2.40651e-05 -2.14761e-07 -3.57134e-18
1.46754e-05 -2.84431e-06 -2.07847e-18
-3.8134e-06 -4.8256e-06 -3.70519e-20
-1.25458e-05 8.94646e-06 1.2353e-18
-1.12523e-05 1.2981e-05 -4.34915e-19
1.5509e-05 -5.56856e-06 -1.9618e-18
-1.85613e-05 -3.13174e-05 1.12942e-18
-1.8884e-05 3.10632e-05 7.37786e-19
-3.65114e-05 -1.36894e-06 7.71105e-19
-1.65322e-05 3.27459e-05 -2.65943e-19
-3.64307e-05 4.51143e-07 8.73616e-20
4.56863e-05 1.63085e-05 -8.77702e-19
3.65512e-05 1.44872e-06 -2.21262e-18
3.45579e-05 -1.76781e-05 -1.75417e-18
1.02317e-05 -4.87278e-05 -3.22167e-18
1.81118e-05 -3.17162e-05 -2.91893e-18
1.79859e-05 3.1705e-05 -3.567e-18
1.00227e-05 4.76187e-05 -3.56974e-18
4.98418e-05 -1.40745e-05 -3.1665e-18
3.18252e-05 1.57537e-05 -5.29941e-18
3.03423e-05 8.25768e-06 -4.34211e-18
P_ext 3 563 float
-6.0686e-08 2.04615e-08 5.25094e-21
3.22224e-11 2.18676e-09 -2.61688e-21
-5.47641e-09 -5.16251e-09 -5.49495e-21
-1.73224e-09 1.59417e-09 -1.63793e-21
1.43521e-09 4.74563e-11 1.00013e-20
1.81153e-09 -7.32297e-09 -5.02362e-21
-5.97547e-08 -2.07113e-08 9.73765e-21
-4.26873e-09 -4.87222e-09 -3.40614e-21
1.20058e-08 2.08471e-10 1.76122e-21
4.34756e-09 -3.92085e-10 7.65697e-21
3.95257e-08 9.29218e-09 1.52474e-20
2.13838e-09 -6.2047e-09 -5.20714e-21
4.85238e-09 5.81259e-09 8.0887e-22
-5.28597e-10 4.51621e-09 -9.82119e-21
1.3107e-09 5.26003e-10 4.78822e-21
-7.64238e-09 -1.25041e-10 -1.30952e-21
-9.83156e-10 2.95581e-09 -6.24043e-21
4.6022e-09 -6.87999e-10 -1.4815e-21
5.31584e-09 9.4893e-09 1.36305e-20
-7.10949e-09 7.13252e-10 -3.24148e-21
-2.68652e-09 -1.00697e-08 -9.85704e-21
1.06483e-10 -8.18078e-11 -9.6252e-21
7.87929e-09 6.38675e-10 2.73409e-21
5.00336e-09 -5.79431e-09 -4.03384e-21
-7.26348e-09 -1.16139e-09 -9.83804e-22
-1.38484e-09 -3.94952e-09 -1.28733e-21
4.53625e-08 -3.71172e-09 1.35948e-20
5.43707e-09 4.6019e-09 -9.65935e-22
-1.65099e-08 -1.31088e-08 5.48956e-21
9.25161e-10 1.88636e-10 1.02968e-20
-7.27419e-09 -1.27471e-09 1.46044e-22
3.21949e-09 -2.0994e-08 1.24623e-21
3.40929e-08 -3.49203e-08 9.74748e-21
5.58851e-11 -1.52924e-09 3.27877e-22
-4.00804e-10 1.17331e-09 -2.54312e-21
-1.28242e-09 -8.30934e-10 -6.72055e-21
1.40143e-10 8.54929e-10 -3.88381e-21
-1.28094e-09 2.24849e-10 -1.71854e-21
5.24392e-09 -5.73587e-09 -6.32423e-21
3.327e-08 3.63911e-08 1.02176e-20
2.11339e-08 -9.58262e-09 1.57096e-21
2.8194e-10 -7.86029e-10 -1.8461e-22
-5.34889e-10 -6.57608e-10 -1.50512e-20
-7.22832e-09 1.46359e-09 -9.44344e-21
2.10526e-08 -2.06801e-08 6.14844e-21
-1.95299e-08 7.02928e-09 2.35617e-21
-2.45402e-09 -1.06727e-08 -2.40096e-21
4.41109e-09 1.0714e-08 7.58234e-21
-6.93486e-09 1.79978e-09 -1.12074e-20
-1.21204e-08 1.88418e-08 2.96651e-21
2.14609e-08 1.0518e-08 1.10933e-20
1.85804e-08 -6.10731e-09 1.89257e-21
-5.13164e-10 1.22965e-09 -2.69241e-21
-1.45377e-08 -1.30501e-08 3.15554e-21
-1.34627e-09 1.85662e-10 1.46761e-21
-3.13765e-08 1.84261e-08 1.00245e-20
-3.70551e-10 -1.16881e-09 -1.8528e-21
4.142e-09 -1.92e-08 1.54401e-22
-1.18491e-09 -2.69791e-10 -4.73397e-21
3.21924e-09 6.44877e-09 1.05226e-20
-1.70215e-09 -4.80501e-10 -6.3739e-21
-1.79065e-09 -1.63945e-09 -8.74103e-21
4.08414e-08 1.79785e-08 1.55059e-20
-7.0043e-11 3.44792e-09 -8.60009e-21
4.9706e-10 -2.2914e-09 -9.86508e-22
9.19796e-10 -5.15484e-09 -3.10925e-21
-3.9213e-10 -1.67212e-09 2.63694e-21
-4.15646e-09 -1.03449e-09 -4.07921e-21
-4.8531e-09 5.94332e-09 -8.57766e-21
1.30036e-09 -4.53483e-10 6.67972e-21
-5.05228e-10 -1.26676e-09 -7.32494e-21
-1.3313e-09 -2.01775e-10 -1.5098e-21
-2.43688e-09 2.25655e-08 6.31797e-22
-4.22921e-09 2.13174e-09 -9.55468e-21
-4.15128e-09 7.10197e-09 -8.59338e-21
-4.25665e-08 5.00228e-09 4.41706e-21
-1.86793e-11 -3.23793e-09 2.49047e-21
-3.97046e-09 -3.352e-09 -1.3035e-21
1.70052e-09 4.11078e-09 3.73196e-21
1.61586e-08 3.23336e-09 2.52659e-21
2.3279e-08 -2.02617e-08 4.81233e-21
5.89642e-10 1.47471e-09 -1.0898e-20
1.50095e-09 4.98416e-10 3.2693e-21
-2.17031e-08 1.60567e-08 6.51235e-21
2.52692e-08 3.06965e-09 7.85399e-21
-3.85122e-09 3.43948e-08 5.70077e-21
-1.32371e-09 -6.76134e-09 4.96202e-22
4.55274e-09 3.2138e-09 -1.81127e-22
2.02507e-08 2.13587e-08 1.06167e-20
3.53602e-10 1.16251e-10 4.09435e-21
-3.88813e-09 1.93092e-08 4.42936e-21
3.17976e-10 -1.34232e-10 -8.08204e-21
-2.24503e-09 1.55774e-09 3.01625e-22
4.93278e-09 1.99271e-09 3.26512e-21
-1.85925e-08 5.73953e-09 -4.27925e-21
1.08213e-08 1.90231e-08 2.18007e-21
6.73897e-09 -3.04419e-08 3.89169e-21
1.56554e-09 4.07034e-09 5.53755e-21
-2.77567e-09 -1.63038e-09 -1.14441e-20
2.34983e-09 7.47356e-09 8.28158e-21
1.5682e-08 2.66226e-09 6.86356e-21
-1.04668e-08 2.1608e-08 -3.16146e-22
2.78937e-08 -9.1177e-09 2.3201e-21
-1.5224e-09 3.32308e-09 -2.9399e-21
2.89111e-09 2.97057e-09 -1.15622e-21
-1.74491e-09 -3.98223e-09 -1.45347e-21
-7.21674e-10 -3.00049e-09 3.46149e-21
8.07382e-09 9.55404e-10 3.56093e-21
-5.992e-09 2.79973e-08 1.8607e-21
-1.32859e-09 8.49315e-10 4.23653e-21
4.02327e-09 5.98388e-09 5.01495e-21
-2.02946e-09 -2.87669e-08 8.64676e-21
2.90765e-08 8.7329e-09 8.51684e-21
1.94363e-09 -3.44177e-09 -5.19613e-21
-4.43331e-09 -4.92773e-10 -3.75467e-21
-1.8503e-08 -7.41789e-09 1.90421e-21
8.77933e-10 9.25896e-10 9.41385e-21
-2.95192e-08 -1.03192e-08 3.17167e-22
8.92567e-10 -9.25669e-10 -1.01835e-21
-2.86732e-09 -2.00895e-08 9.61663e-22
1.23407e-08 4.69753e-10 6.55545e-21
-1.07834e-09 8.7178e-10 -4.98432e-21
3.05173e-10 1.33306e-09 2.27983e-21
8.43062e-10 -3.54834e-09 -8.86158e-21
1.41508e-09 -6.31738e-10 7.34393e-21
-1.56191e-11 1.39668e-09 -2.66863e-21
1.18943e-09 -1.53428e-10 -6.04566e-21
2.29816e-09 -3.42622e-09 -6.68097e-21
-6.04925e-09 -3.08218e-08 5.3137e-21
1.5888e-08 -1.22412e-08 5.3763e-21
2.44841e-11 1.86483e-09 -7.33704e-21
-1.3257e-09 -2.24744e-10 4.26358e-21
-3.97748e-10 -1.4521e-09 -3.6096e-21
-1.07907e-09 -7.80984e-10 -7.49069e-21
-1.48836e-08 1.85977e-08 7.87048e-21
-1.38822e-11 -1.39637e-09 1.01027e-21
-1.86908e-08 2.93388e-08 8.98891e-21
-6.89717e-09 3.15798e-09 -9.12505e-21
9.61577e-10 9.9939e-10 3.92956e-21
-1.19989e-09 -7.06868e-10 -1.34808e-20
9.07313e-09 2.1903e-08 5.50958e-21
5.13102e-09 4.60619e-09 -5.23092e-21
1.26262e-08 -4.15686e-09 1.43386e-21
7.21705e-10 -3.84131e-09 -7.99927e-21
-2.3133e-08 -2.13154e-08 9.9718e-21
-2.21016e-09 3.77447e-09 -6.36278e-21
5.66991e-09 3.02694e-09 1.62256e-21
8.3375e-09 -2.85794e-09 6.48418e-21
3.59751e-09 -7.20449e-09 -2.58021e-21
1.43961e-08 -6.64432e-09 6.51979e-21
9.52642e-09 -4.49674e-09 3.13979e-22
9.35967e-10 -8.0349e-10 -3.24728e-21
1.67809e-08 1.3275e-08 3.44338e-21
-2.41436e-09 -6.91441e-09 -2.10996e-21
-2.91668e-09 -2.52255e-09 8.34526e-22
-4.96743e-10 -1.25477e-09 -4.22931e-21
6.81898e-10 4.90971e-09 2.59711e-21
-2.2417e-08 1.60482e-09 9.52869e-22
-8.19574e-09 -2.13956e-08 3.6332e-21
-3.48229e-09 4.4389e-09 -4.39001e-21
6.86926e-09 9.17153e-09 9.52265e-21
1.72698e-08 -1.22498e-08 7.22259e-21
-2.53506e-08 -1.3554e-08 4.948e-21
1.12359e-08 -1.83006e-08 7.50366e-21
1.46047e-08 -1.79756e-08 6.62945e-21
-4.23633e-09 4.02743e-10 -6.52727e-21
-1.28255e-08 -1.85577e-08 8.69342e-21
-2.2451e-08 -3.5147e-09 -2.19753e-21
-2.68189e-09 -2.0511e-08 1.40628e-21
9.98498e-09 -2.06423e-08 2.51818e-21
2.21877e-10 -2.75061e-09 -4.95408e-22
2.96466e-09 1.97438e-08 4.10257e-21
-1.05963e-08 -1.85279e-08 1.12761e-20
-1.0076e-09 -4.44216e-09 1.72487e-22
-1.52643e-08 1.14308e-08 3.95303e-21
-2.92677e-09 -9.27181e-10 -1.21782e-20
-2.25044e-09 -1.5719e-09 -3.6466e-21
6.00809e-09 -3.0719e-09 7.65702e-21
-7.94271e-10 1.11517e-09 -4.52392e-21
3.16905e-09 -4.04217e-09 -6.17689e-21
-1.90409e-08 -8.46773e-09 7.94459e-22
-2.46694e-09 -3.34658e-09 -1.92943e-21
2.57463e-09 3.55432e-09 7.33983e-21
1.37489e-08 1.89901e-08 6.46076e-21
-4.76445e-09 -2.19072e-09 -8.21612e-21
-2.11971e-08 -4.75874e-10 -1.86944e-21
-2.62819e-09 -2.4832e-09 -5.89256e-21
-1.34066e-10 -3.54716e-09 -3.12053e-21
2.58297e-09 1.2778e-09 1.64296e-21
-2.99825e-09 2.98307e-09 -3.44846e-21
-5.08196e-10 -5.24485e-09 -4.94493e-22
-2.83296e-08 6.97257e-09 -4.74749e-22
1.54591e-08 1.31996e-08 2.83611e-21
2.06292e-09 2.15386e-08 7.04169e-21
-1.23314e-09 4.04976e-10 -4.73144e-21
-4.1095e-09 1.27622e-10 -3.26355e-21
1.88222e-09 3.60356e-09 6.01498e-21
-1.44938e-09 -3.81408e-10 -1.62832e-21
1.8985e-10 -1.2676e-09 -3.25928e-21
-8.36959e-10 5.55714e-09 -1.47789e-21
8.92433e-10 9.71057e-10 5.54357e-21
-1.04344e-08 2.30277e-09 -4.81539e-21
-1.06395e-08 1.16017e-08 2.52693e-21
-1.12671e-09 1.00689e-09 -2.80063e-21
-1.93137e-08 1.16487e-08 6.7323e-21
-4.54137e-10 1.59109e-09 -1.82975e-22
5.10422e-09 -1.80808e-09 8.19376e-21
2.41883e-08 -2.22321e-09 5.50537e-21
-2.94216e-09 1.85924e-09 -9.11771e-21
1.21171e-09 5.3725e-10 4.55163e-21
3.05078e-09 -1.93812e-09 -5.62252e-21
-5.31345e-09 1.74783e-09 -7.21046e-21
-3.88049e-09 9.9511e-10 -7.03366e-21
1.31868e-09 -4.16454e-10 -1.06773e-20
1.27548e-08 -7.75673e-09 7.96003e-21
-4.94236e-09 3.15166e-09 -1.13058e-20
-1.50175e-08 -3.13054e-09 -2.06527e-21
-3.10654e-09 -1.65589e-09 -6.74536e-21
1.17095e-09 -8.14503e-10 -8.64688e-21
1.30125e-09 9.53116e-10 4.40155e-21
-3.67693e-10 1.49718e-09 -5.07739e-21
-1.66708e-10 -1.69044e-09 -4.82248e-22
-1.38538e-09 6.76365e-10 -8.22053e-22
-1.55089e-09 -7.62222e-10 -6.19714e-21
3.89599e-09 -1.44904e-09 6.04065e-21
-1.37474e-09 -4.11289e-10 -2.8081e-21
-1.37061e-09 3.96575e-10 9.68341e-22
-3.0964e-10 1.38004e-09 -8.42882e-22
-3.39904e-10 -1.41054e-09 -1.81287e-21
9.10539e-10 -1.00145e-09 2.15061e-21
8.7378e-10 9.5621e-10 5.97835e-21
5.43466e-10 1.52281e-08 7.95428e-21
2.89462e-09 -2.42494e-09 -6.02115e-21
6.76517e-10 -1.28425e-09 1.6563e-21
-1.14315e-08 4.1758e-10 -2.5824e-21
1.06803e-09 -9.68527e-10 8.25864e-21
9.97697e-10 9.8283e-10 6.46062e-22
1.54019e-09 -3.44712e-11 6.48644e-21
5.27358e-09 1.49444e-08 7.13104e-21
-7.82097e-10 -1.27344e-09 -2.26837e-21
1.69856e-09 -3.85701e-09 -4.72779e-21
-1.28081e-08 -7.08847e-09 -3.49703e-21
-2.74507e-09 -1.77787e-09 -8.42504e-21
-1.28626e-08 7.62163e-09 -9.69746e-22
1.1199e-09 -1.11153e-09 6.23579e-21
-5.41928e-10 1.19974e-09 -6.68944e-21
-3.0117e-10 -1.47369e-08 -3.15047e-22
-4.8368e-09 -1.46173e-08 1.90873e-21
2.22826e-08 2.12146e-08 9.49619e-21
2.38299e-08 -1.35656e-09 4.20034e-21
-1.61799e-09 3.77188e-10 -1.72562e-23
-1.59519e-08 -2.81812e-08 7.15795e-21
3.7372e-09 6.41734e-09 1.15366e-20
-1.51953e-08 1.78987e-09 -7.9327e-21
1.08592e-08 3.03564e-09 8.6627e-21
-1.46862e-09 -6.0043e-12 4.08715e-21
5.51904e-11 -1.51042e-09 5.07976e-21
-1.15034e-10 -9.92205e-10 6.6249e-22
-1.27522e-09 -7.87487e-10 -5.70367e-21
-3.3072e-08 -1.25272e-09 3.01457e-22
1.03262e-08 -1.16855e-08 6.68301e-21
6.88309e-10 1.34446e-09 4.73823e-22
3.61613e-10 -6.43616e-09 -2.75403e-21
-6.16783e-09 1.45962e-08 -6.34629e-21
1.47585e-10 1.5993e-09 2.44556e-21
1.09734e-08 -7.8634e-09 5.13111e-21
-9.00383e-10 -4.08522e-10 -2.53803e-21
-9.3767e-09 -1.21801e-08 9.04632e-21
1.26981e-09 6.14971e-10 -5.18267e-22
2.97272e-09 2.92809e-09 3.2792e-21
-2.15423e-09 -3.35333e-09 -3.07547e-21
1.26558e-09 -4.48862e-10 -6.1196e-21
4.43903e-09 -3.10827e-09 9.81404e-22
-2.52836e-10 2.43468e-09 1.65087e-21
3.68345e-09 -6.21541e-09 -4.20422e-21
3.42721e-08 1.72608e-09 1.25009e-20
-2.90542e-08 7.68274e-09 8.61382e-21
2.33951e-09 1.62489e-09 8.13757e-21
-3.55169e-09 -8.53126e-09 -4.17873e-21
-5.35069e-09 -3.50141e-09 -2.10563e-21
1.76562e-08 -1.79009e-10 6.37187e-21
1.41523e-10 -3.28021e-09 -3.47548e-21
-4.35106e-09 -1.50119e-09 -3.92791e-21
6.01679e-09 -1.43891e-08 3.81192e-21
4.75056e-10 5.69295e-09 -1.97127e-21
4.93472e-09 1.52976e-08 3.50748e-21
5.84217e-09 -3.08118e-09 2.93281e-21
-1.07959e-08 1.14968e-08 2.22504e-21
9.94716e-09 1.22975e-08 3.33111e-21
-5.86547e-10 2.51501e-10 -3.59694e-21
1.19887e-10 2.59362e-09 -6.85757e-22
1.52747e-10 -1.15817e-09 1.16019e-21
-9.36878e-10 -7.2878e-10 -1.19068e-20
-3.24045e-09 2.59819e-09 -6.39227e-21
-1.51283e-08 -3.57532e-09 2.07165e-21
4.04999e-11 1.64226e-09 -4.54227e-21
-3.90143e-09 1.12695e-09 -5.59396e-21
1.06709e-08 -1.53662e-09 3.38219e-21
-4.59394e-09 -1.48367e-08 1.12098e-21
-9.03946e-09 1.43906e-08 -1.75858e-21
-2.46997e-09 1.14591e-09 -4.18711e-21
-1.21091e-08 -8.56142e-09 5.57628e-21
2.67588e-09 -1.2311e-09 -2.83252e-21
-1.64158e-08 -8.02433e-10 -1.9188e-21
8.10665e-09 -2.86259e-08 7.2186e-21
1.09651e-08 -1.15302e-08 9.26718e-21
1.69103e-08 2.999e-08 9.00903e-21
-1.75526e-10 3.51298e-09 -1.15485e-20
1.43395e-09 -1.4955e-08 -1.58976e-21
-5.417e-10 3.333e-10 -1.07524e-20
-7.78753e-09 -1.45213e-08 1.77415e-21
2.53583e-09 -2.21234e-09 -2.94635e-21
-1.50485e-09 1.51304e-08 2.70127e-21
3.58791e-09 -1.01726e-09 1.0181e-20
8.29352e-09 1.47885e-08 8.28889e-21
8.24346e-09 -1.86067e-10 2.09755e-21
1.52986e-08 -4.51641e-08 2.00567e-21
-3.19871e-09 -5.93577e-09 -4.03918e-21
-1.34002e-08 5.83885e-09 -7.18214e-21
-1.83159e-09 8.67079e-10 1.54808e-22
1.27231e-08 8.52013e-09 6.34001e-22
9.01353e-09 -4.97652e-09 1.5888e-22
4.7188e-09 2.0477e-09 4.83609e-22
-9.52661e-10 8.31007e-10 2.11341e-21
9.09167e-09 -1.40551e-08 2.08653e-21
-9.68745e-09 -1.20946e-08 3.99963e-21
1.24801e-08 4.91583e-09 4.16162e-21
3.12109e-09 -1.9082e-09 5.25977e-21
5.84745e-09 -1.45274e-08 9.61286e-22
6.80101e-09 -1.26743e-09 1.30299e-21
-6.61078e-09 -2.62459e-09 3.07587e-21
-2.7633e-10 -2.61552e-09 -3.33309e-21
-1.528e-08 2.11439e-09 -3.04314e-21
1.60426e-09 1.3379e-08 -1.61426e-22
1.04006e-08 2.41431e-09 1.94123e-21
-1.18501e-08 -5.29519e-09 4.98045e-21
-5.85096e-09 1.49727e-08 -3.5112e-21
-1.34128e-09 -1.30283e-08 1.684e-22
3.36975e-09 1.64592e-09 3.12534e-22
-2.24367e-09 6.23907e-09 -1.71175e-20
-1.06537e-08 7.64565e-09 -7.39362e-21
1.372e-08 6.9254e-09 8.12402e-21
-6.17066e-09 -1.91374e-09 -4.25444e-21
-1.52065e-09 -6.34163e-09 -3.43365e-21
1.04731e-08 1.21902e-08 7.85804e-22
-2.37809e-09 -1.08514e-09 -4.83466e-21
3.49339e-08 -2.50823e-08 8.11741e-21
7.23055e-09 -5.06972e-09 2.58779e-21
6.00229e-09 2.94303e-08 6.99725e-21
7.64117e-09 -7.3684e-09 9.69887e-22
-1.69474e-08 6.45124e-08 6.6423e-21
-1.70426e-08 -6.38877e-08 6.48066e-21
4.18614e-08 5.5004e-08 1.24068e-20
4.13478e-08 -5.49868e-08 7.63741e-21
6.85107e-08 -3.32179e-11 1.24045e-20
-5.9073e-08 2.37941e-08 7.64373e-21
-5.80942e-08 -2.40492e-08 9.65818e-21
2.71882e-09 1.44915e-09 8.11736e-22
1.71725e-09 8.46246e-10 1.15489e-20
5.12702e-09 6.77537e-10 6.98013e-21
9.08155e-09 4.85483e-09 5.96791e-21
2.69903e-09 1.07588e-08 4.80583e-21
-9.75997e-09 -8.39328e-09 5.94344e-21
4.85172e-09 -4.5043e-09 -4.24161e-21
1.04886e-08 8.43047e-09 5.28722e-21
-2.44066e-09 1.32514e-08 -3.31553e-22
1.66164e-09 -8.28171e-10 -5.3641e-21
2.47353e-09 -1.27102e-08 -6.35542e-22
3.14344e-09 2.14897e-09 4.95221e-21
1.90346e-08 6.66182e-09 8.52459e-21
3.74377e-10 1.31794e-09 -4.64852e-21
7.27717e-09 2.37104e-09 1.44194e-21
-9.02939e-09 4.98939e-09 -6.62954e-21
-1.24e-08 4.27903e-09 -6.75002e-21
2.38565e-09 -1.63329e-09 -3.00172e-21
-7.86639e-09 -3.63139e-09 4.38216e-21
-8.66579e-09 -5.13317e-09 2.90719e-21
-7.67335e-10 -8.67229e-09 1.9546e-21
3.18418e-11 -9.99071e-09 -3.70603e-21
-1.10398e-08 -4.75474e-10 -9.669e-22
1.64603e-08 -2.55768e-09 2.36504e-21
8.81065e-09 5.43149e-09 -6.46614e-22
-7.26716e-09 4.96161e-09 -1.18677e-20
-3.23633e-09 1.55902e-09 -7.9643e-21
8.23688e-09 -7.38909e-09 2.57924e-21
-6.20417e-09 9.65361e-09 -5.29348e-21
-7.63174e-09 -8.03818e-09 2.42395e-21
-7.2762e-10 1.04846e-08 -9.3513e-21
-1.58025e-09 8.81822e-09 -6.01109e-21
2.53216e-10 -6.36939e-09 -1.95372e-21
3.31976e-09 -1.07361e-08 1.29259e-21
-5.37207e-09 -3.4466e-09 -5.54562e-21
7.49173e-09 -2.12824e-09 4.85663e-21
1.20489e-11 1.04708e-08 -1.22353e-23
-2.37063e-10 6.64338e-09 -1.25597e-20
-1.6917e-09 7.50337e-09 -1.1346e-20
1.23538e-08 -3.04012e-09 5.27566e-21
-2.52878e-09 2.46097e-09 -3.63753e-21
2.79842e-09 1.04741e-08 9.55925e-22
-1.63498e-09 1.0273e-09 -7.89298e-21
6.30807e-09 2.92763e-08 9.98035e-21
-2.98735e-09 1.63344e-09 -2.3414e-21
3.17239e-09 -1.65677e-09 -1.15754e-21
9.31491e-10 8.87466e-09 -1.46883e-21
-1.04435e-08 2.46722e-09 -7.43715e-21
-3.42906e-10 -4.47123e-09 -3.32476e-22
4.61999e-10 -4.18976e-08 5.12403e-21
1.25102e-09 7.5248e-09 5.50884e-21
-7.79271e-09 7.42613e-09 -9.05446e-21
1.2287e-08 4.57276e-08 3.52361e-21
5.3693e-10 3.65514e-10 1.0548e-20
4.63717e-10 -3.47771e-10 -9.2262e-21
5.8423e-09 -4.57191e-09 -1.61741e-21
-8.35641e-09 7.48086e-09 -7.40358e-21
-1.00026e-08 -2.93959e-09 -8.12521e-22
-1.03026e-08 -3.37913e-09 1.50704e-22
-2.82717e-10 1.85914e-10 -1.03765e-20
-2.13923e-10 -1.48632e-10 1.39641e-20
4.7815e-09 9.59621e-10 5.52097e-21
1.52985e-09 6.96232e-09 4.8796e-21
-1.77685e-10 6.92352e-09 -9.82866e-22
-3.50683e-08 -2.55164e-08 6.3394e-21
6.13104e-09 -9.65455e-09 3.05116e-21
3.06046e-09 1.06334e-09 2.1199e-21
-1.1362e-08 -1.21339e-09 -8.16554e-22
-7.18337e-09 9.49681e-09 -3.56183e-21
-9.26626e-09 4.35307e-09 -1.00135e-20
3.44777e-08 2.47353e-08 1.23142e-20
3.2874e-09 2.18818e-09 1.96129e-21
-3.30902e-09 1.07749e-08 -9.29772e-21
-6.46116e-09 -5.5491e-09 2.92627e-21
1.61863e-09 -8.43526e-09 -9.64322e-22
-5.26999e-09 -1.00041e-08 -3.85205e-21
-8.41704e-09 -5.76961e-09 -1.7706e-21
5.77715e-09 -1.02486e-08 1.79765e-22
6.91889e-09 -9.53055e-09 -9.58636e-22
-2.23149e-09 -4.36403e-08 5.65098e-21
1.78784e-08 -2.86053e-08 8.09017e-21
8.41773e-10 -1.02794e-08 4.991e-22
7.21769e-09 5.50853e-09 4.86511e-21
-6.50151e-09 -7.90897e-09 -4.73091e-22
-5.6638e-09 1.05435e-08 -1.28856e-20
-3.48677e-09 1.03159e-08 -9.19884e-21
7.54352e-09 7.83595e-09 -1.93182e-21
3.71269e-09 -9.6468e-09 1.78636e-21
-9.73222e-09 -2.77255e-08 9.08656e-21
2.12235e-10 3.24927e-09 -5.08924e-22
7.66232e-09 7.89497e-09 2.56619e-21
-4.0878e-09 -1.98715e-09 -9.83951e-21
-3.38711e-09 1.82472e-09 -5.75729e-21
3.11363e-08 -1.36434e-08 9.83656e-21
3.80195e-09 -6.28312e-09 -4.20653e-21
-3.60631e-09 -6.17642e-09 1.05263e-23
1.29919e-09 -1.2285e-10 -9.16328e-21
5.64367e-11 -4.70971e-10 -2.04911e-21
-3.72921e-10 -3.03126e-10 -1.27603e-20
1.62437e-09 1.1004e-09 6.80298e-21
-5.31849e-09 -1.00296e-08 -1.75031e-21
8.12635e-09 3.24846e-09 5.99603e-21
-2.01411e-08 -2.21403e-08 4.56502e-22
2.40309e-11 5.95353e-10 -7.80638e-21
9.26749e-11 2.12649e-10 1.36812e-21
2.37936e-10 1.35851e-11 -1.58568e-20
1.93678e-08 -3.83147e-08 6.15871e-21
-7.72578e-10 8.95043e-10 -1.11414e-20
-1.59026e-10 1.07716e-09 -2.88212e-21
-8.17583e-09 2.89224e-09 -8.60348e-21
-2.95227e-10 3.25408e-09 -6.48239e-21
-1.80926e-09 5.31385e-09 -1.13882e-20
3.68565e-09 1.39721e-10 6.35256e-21
8.57299e-10 3.15748e-09 4.57862e-21
-2.16106e-10 4.36911e-09 5.58762e-21
6.32426e-09 3.43388e-09 1.7805e-21
4.8171e-10 4.17091e-08 7.83639e-21
-5.89117e-09 5.5938e-09 -9.43511e-21
4.37993e-09 -2.97473e-09 -5.22428e-21
2.49849e-09 -2.33601e-09 -6.72414e-21
-4.2725e-08 -5.86413e-09 4.41732e-21
-1.14284e-09 4.76789e-10 -7.10758e-21
-3.10415e-08 -3.67132e-08 1.15009e-20
5.11048e-10 1.45125e-09 -2.48626e-21
5.32786e-09 1.0101e-09 3.73238e-21
1.60613e-08 -2.07758e-09 6.20718e-21
-3.63928e-09 -5.97715e-09 2.1388e-21
6.94517e-09 1.97163e-09 3.41601e-21
6.86368e-12 -1.72852e-09 -4.17772e-21
-3.89505e-09 4.53883e-09 -3.76711e-21
-1.47842e-09 -9.09483e-10 -1.21667e-20
-3.55453e-09 7.18523e-09 -1.18488e-20
6.53177e-10 4.4855e-09 5.90485e-21
1.00521e-09 7.22703e-10 7.57111e-21
9.93694e-10 -6.92657e-10 -9.46426e-21
-2.89112e-08 -7.87071e-09 1.23246e-21
3.11766e-09 1.13551e-09 1.44932e-21
-3.81018e-09 7.43642e-08 6.89057e-21
-2.41044e-10 -7.63767e-08 4.63497e-21
3.75763e-08 6.44151e-08 1.16953e-20
-3.77555e-09 3.02066e-09 -6.43053e-21
-1.99804e-08 4.01197e-08 9.47704e-21
3.78047e-08 -6.21945e-08 9.09755e-21
-6.15704e-09 -9.96688e-09 5.00311e-22
5.7463e-08 5.02873e-08 1.28825e-20
6.26589e-10 -1.11467e-09 1.49984e-21
-6.55728e-10 -1.13057e-09 -1.32217e-20
6.02094e-08 -4.91553e-08 8.711e-21
-3.63187e-09 7.12674e-09 -9.3668e-21
-3.77782e-08 -2.406e-08 3.35893e-21
-3.19231e-08 -6.64431e-08 4.93692e-21
-1.78579e-08 -4.10646e-08 7.92548e-21
-3.28173e-08 6.75492e-08 7.8023e-21
-7.74681e-09 4.57637e-08 4.71758e-21
-5.35678e-11 1.5086e-09 -7.91686e-21
-1.98693e-08 2.55682e-08 8.27338e-21
-1.90988e-08 -3.89981e-08 8.72777e-21
7.40394e-08 1.2958e-08 1.34708e-20
-5.65008e-09 4.82174e-09 -7.02141e-21
-1.13599e-10 3.13578e-09 5.0965e-21
-3.5804e-08 2.59192e-08 6.10174e-21
-6.27305e-09 3.34475e-09 -1.50071e-20
7.3344e-08 -1.15402e-08 1.19509e-20
-4.772e-09 3.21823e-09 -4.4195e-21
3.50472e-09 -7.25604e-09 -4.6752e-21
-5.70519e-08 -4.33708e-08 1.03396e-20
-1.92408e-08 4.12199e-08 6.85082e-21
-5.84461e-08 4.30593e-08 2.83987e-21
1.70811e-08 3.81692e-08 1.3367e-20
-6.15923e-09 4.90397e-09 -1.08765e-20
-1.65729e-09 9.30004e-10 -6.56076e-21
-7.62061e-11 -2.5318e-10 -7.21267e-21
1.24986e-10 -1.55599e-10 -8.608e-21
4.79107e-10 4.8844e-09 9.96635e-21
-1.23825e-10 2.51133e-10 1.38046e-21
1.68623e-10 2.23361e-10 -4.46225e-21
1.98296e-10 -1.3254e-10 -4.99121e-21
-6.8492e-11 5.57672e-10 -9.72369e-21
-1.31215e-08 2.86192e-08 8.29344e-21
-9.54135e-10 6.47187e-10 -5.25117e-21
1.60919e-09 -1.05024e-09 -5.15527e-21
1.58541e-09 -9.26788e-10 -3.86407e-21
4.69363e-09 1.81162e-09 2.42404e-21
-2.38982e-11 -4.76624e-10 3.24392e-21
-4.15346e-10 -2.33376e-10 -8.72543e-21
1.58063e-09 9.22229e-10 1.24106e-20
4.25219e-08 -8.23176e-09 1.27646e-20
-5.41053e-09 -6.89359e-09 -6.28057e-21
-3.71985e-08 2.59754e-08 5.27545e-21
-3.32125e-08 3.78773e-08 7.48798e-21
4.47693e-08 -1.61774e-08 1.00983e-20
-1.53051e-10 -6.19764e-10 3.73447e-21
-1.75611e-10 6.38046e-10 -3.05428e-21
-6.70432e-10 1.69447e-10 -2.06858e-21
-4.91212e-10 4.15159e-10 -9.85042e-21
-6.03386e-10 -1.87668e-10 -4.74848e-21
3.97671e-11 1.9815e-10 -1.08085e-20
6.41436e-10 -2.05954e-10 -9.83147e-21
2.25859e-10 -2.07439e-10 -1.11219e-20
-2.85146e-10 -1.04877e-10 -1.00011e-20
4.50986e-10 -3.95203e-10 -3.76356e-21
4.53973e-10 4.07774e-10 4.22324e-21
-2.86993e-10 8.05443e-11 6.74216e-22
1.4392e-10 -1.20546e-10 2.21356e-20
2.88691e-10 1.88586e-10 1.50286e-20
7.30101e-10 3.14489e-10 1.48893e-20
SCALARS rr_necrosis float
LOOKUP_TABLE default
0
0
0
0
0
0
0
0
0
0
0
0
0
0
0
0
0
0
0
0
0
0
0
0
0
0
0
0
0
0
0
0
0
0
0
0
0
0
0
0
0
0
0
0
0
0
0
0
0
0
0
0
0
0
0
0
0
0
0
0
0
0
0
0
0
0
0
0
0
0
0
0
0
0
0
0
0
0
0
0
0
0
0
0
0
0
0
0
0
0
0
0
0
0
0
0
0
0
0
0
0
0
0
0
0
0
0
0
0
0
0
0
0
0
0
0
0
0
0
0
0
0
0
0
0
0
0
0
0
0
0
0
0
0
0
0
0
0
0
0
0
0
0
0
0
0
0
0
0
0
0
0
0
0
0
0
0
0
0
0
0
0
0
0
0
0
0
0
0
0
0
0
0
0
0
0
0
0
0
0
0
0
0
0
0
0
0
0
0
0
0
0
0
0
0
0
0
0
0
0
0
0
0
0
0
0
0
0
0
0
0
0
0
0
0
0
0
0
0
0
0
0
0
0
0
0
0
0
0
0
0
0
0
0
0
0
0
0
0
0
0
0
0
0
0
0
0
0
0
0
0
0
0
0
0
0
0
0
0
0
0
0
0
0
0
0
0
0
0
0
0
0
0
0
0
0
0
0
0
0
0
0
0
0
0
0
0
0
0
0
0
0
0
0
0
0
0
0
0
0
0
0
0
0
0
0
0
0
0
0
0
0
0
0
0
0
0
0
0
0
0
0
0
0
0
0
0
0
0
0
0
0
0
0
0
0
0
0
0
0
0
0
0
0
0
0
0
0
0
0
0
0
0
0
0
0
0
0
0
0
0
0
0
0
0
0
0
0
0
0
0
0
0
0
0
0
0
0
0
0
0
0
0
0
0
0
0
0
0
0
0
0
0
0
0
0
0
0
0
0
0
0
0
0
0
0
0
0
0
0
0
0
0
0
0
0
0
0
0
0
0
0
0
0
0
0
0
0
0
0
0
0
0
0
0
0
0
0
0
0
0
0
0
0
0
0
0
0
0
0
0
0
0
0
0
0
0
0
0
0
0
0
0
0
0
0
0
0
0
0
0
0
0
0
0
0
0
0
0
0
0
0
0
0
0
0
0
0
0
0
0
0
0
0
0
0
0
0
0
0
0
0
0
0
0
0
0
0
0
0
0
0
0
0
0
0
0
0
0
0
0
0
0
0
0
0
0
0
0
0
0
0
0
0
0
0
0
0
0
0
0
0
0
0
0
0
0
0
0
0
0
0
0
0
0
0
0
0
0
0
0
0
0
SCALARS rr_protein float
LOOKUP_TABLE default
1
1
1
1
1
1
1
1
1
1
1
1
1
1
1
1
1
1
1
1
1
1
1
1
1
1
1
1
1
1
1
1
1
1
1
1
1
1
1
1
1
1
1
1
1
1
1
1
1
1
1
1
1
1
1
1
1
1
1
1
1
1
1
1
1
1
1
1
1
1
1
1
1
1
1
1
1
1
1
1
1
1
1
1
1
1
1
1
1
1
1
1
1
1
1
1
1
1
1
1
1
1
1
1
1
1
1
1
1
1
1
1
1
1
1
1
1
1
1
1
1
1
1
1
1
1
1
1
1
1
1
1
1
1
1
1
1
1
1
1
1
1
1
1
1
1
1
1
1
1
1
1
1
1
1
1
1
1
1
1
1
1
1
1
1
1
1
1
1
1
1
1
1
1
1
1
1
1
1
1
1
1
1
1
1
1
1
1
1
1
1
1
1
1
1
1
1
1
1
1
1
1
1
1
1
1
1
1
1
1
1
1
1
1
1
1
1
1
1
1
1
1
1
1
1
1
1
1
1
1
1
1
1
1
1
1
1
1
1
1
1
1
1
1
1
1
1
1
1
1
1
1
1
1
1
1
1
1
1
1
1
1
1
1
1
1
1
1
1
1
1
1
1
1
1
1
1
1
1
1
1
1
1
1
1
1
1
1
1
1
1
1
1
1
1
1
1
1
1
1
1
1
1
1
1
1
1
1
1
1
1
1
1
1
1
1
1
1
1
1
1
1
1
1
1
1
1
1
1
1
1
1
1
1
1
1
1
1
1
1
1
1
1
1
1
1
1
1
1
1
1
1
1
1
1
1
1
1
1
1
1
1
1
1
1
1
1
1
1
1
1
1
1
1
1
1
1
1
1
1
1
1
1
1
1
1
1
1
1
1
1
1
1
1
1
1
1
1
1
1
1
1
1
1
1
1
1
1
1
1
1
1
1
1
1
1
1
1
1
1
1
1
1
1
1
1
1
1
1
1
1
1
1
1
1
1
1
1
1
1
1
1
1
1
1
1
1
1
1
1
1
1
1
1
1
1
1
1
1
1
1
1
1
1
1
1
1
1
1
1
1
1
1
1
1
1
1
1
1
1
1
1
1
1
1
1
1
1
1
1
1
1
1
1
1
1
1
1
1
1
1
1
1
1
1
1
1
1
1
1
1
1
1
1
1
1
1
1
1
1
1
1
1
1
1
1
1
1
1
1
1
1
1
1
1
1
1
1
1
1
1
1
1
1
1
1
1
1
1
1
1
1
1
1
1
1
1
1
1
1
1
1
1
SCALARS rr_(S_ext) float
LOOKUP_TABLE default
0.334347
0.336204
0.33604
0.33617
0.336704
0.336037
0.334341
0.336151
0.335883
0.336199
0.334448
0.336152
0.336113
0.336226
0.33652
0.336067
0.336294
0.336128
0.335797
0.335992
0.335969
0.337385
0.335969
0.335996
0.335989
0.33616
0.334717
0.336063
0.335286
0.336984
0.336106
0.33529
0.334693
0.336865
0.336923
0.336862
0.337004
0.336898
0.336104
0.334698
0.335282
0.337011
0.337009
0.336107
0.334865
0.335314
0.335838
0.335914
0.336045
0.33517
0.335238
0.335478
0.336675
0.335484
0.336659
0.334928
0.336928
0.335484
0.336925
0.336002
0.336286
0.33645
0.334842
0.336441
0.336453
0.336297
0.336293
0.336161
0.33598
0.336211
0.336671
0.33667
0.335281
0.336357
0.336046
0.33461
0.336558
0.336295
0.33616
0.335519
0.335136
0.336765
0.33637
0.335081
0.335344
0.334889
0.336062
0.336329
0.334867
0.337292
0.335481
0.337289
0.336568
0.336276
0.335498
0.335219
0.33514
0.336195
0.336554
0.336095
0.335692
0.335388
0.335078
0.336144
0.33618
0.336182
0.336394
0.336081
0.335074
0.336232
0.336004
0.334926
0.335012
0.336134
0.336173
0.33549
0.336927
0.335132
0.336922
0.335497
0.335756
0.336496
0.336203
0.336329
0.336247
0.336536
0.336859
0.336195
0.33514
0.335498
0.336672
0.33619
0.336359
0.336197
0.335391
0.336929
0.335038
0.336126
0.336371
0.336927
0.335412
0.336209
0.335787
0.336201
0.335125
0.336165
0.336181
0.336047
0.336038
0.335635
0.33591
0.336203
0.335286
0.336115
0.336199
0.336192
0.336254
0.335431
0.335436
0.336109
0.335917
0.3353
0.334913
0.335237
0.335428
0.336184
0.335429
0.335427
0.335287
0.335432
0.336573
0.335484
0.335234
0.336272
0.335488
0.336388
0.336571
0.336153
0.336683
0.336188
0.335289
0.336192
0.336191
0.335415
0.336331
0.335222
0.336328
0.336398
0.336582
0.336195
0.336334
0.335159
0.335487
0.335289
0.336195
0.33612
0.33613
0.336357
0.336201
0.33629
0.336205
0.335821
0.335532
0.336355
0.335292
0.336368
0.336296
0.335378
0.336476
0.336208
0.336495
0.336238
0.336174
0.336372
0.335641
0.336255
0.335551
0.336397
0.336243
0.336242
0.33622
0.336228
0.33623
0.336228
0.336215
0.336505
0.3365
0.336506
0.336508
0.336665
0.336665
0.335627
0.336219
0.336151
0.335905
0.336521
0.336528
0.336158
0.335537
0.336144
0.336196
0.335649
0.336479
0.335641
0.336377
0.336136
0.335653
0.33556
0.335131
0.335141
0.33637
0.335097
0.336091
0.33555
0.33581
0.336141
0.336238
0.337023
0.336233
0.335086
0.335551
0.33615
0.336153
0.335528
0.336237
0.335796
0.337021
0.335554
0.336247
0.336319
0.33613
0.336516
0.336324
0.336675
0.33611
0.334957
0.334888
0.336623
0.335972
0.336152
0.335643
0.336482
0.33627
0.335552
0.336279
0.335699
0.336189
0.3357
0.335541
0.337175
0.336591
0.336525
0.336521
0.336213
0.335714
0.336843
0.336311
0.335924
0.33572
0.335661
0.33662
0.335647
0.336571
0.335681
0.33487
0.33571
0.335115
0.336402
0.335649
0.337173
0.335682
0.336358
0.335627
0.336339
0.335677
0.336062
0.334814
0.336022
0.335644
0.336611
0.335634
0.335925
0.336341
0.33621
0.335679
0.335712
0.335791
0.3364
0.335709
0.336153
0.336063
0.336671
0.335712
0.335781
0.335953
0.335802
0.335692
0.335806
0.33646
0.336147
0.335789
0.335641
0.336202
0.336205
0.335702
0.336669
0.334383
0.336059
0.335133
0.335961
0.333374
0.333376
0.333387
0.333382
0.333387
0.333373
0.333381
0.336409
0.336792
0.336116
0.335916
0.335808
0.3358
0.33619
0.335789
0.335779
0.336796
0.3358
0.33649
0.335481
0.336475
0.336034
0.335912
0.335793
0.336627
0.336058
0.335926
0.33606
0.335928
0.335783
0.335512
0.335912
0.336041
0.336495
0.335827
0.335766
0.335818
0.3359
0.336036
0.336191
0.335817
0.336188
0.336018
0.335905
0.336157
0.336022
0.335795
0.336336
0.335943
0.336773
0.334871
0.336407
0.33646
0.336038
0.335949
0.336291
0.334407
0.336035
0.33594
0.334824
0.337164
0.33717
0.336056
0.335806
0.335963
0.335827
0.337469
0.337468
0.336154
0.336159
0.336151
0.334405
0.335777
0.336364
0.335906
0.33589
0.335903
0.334371
0.336329
0.335796
0.336051
0.336052
0.335887
0.335923
0.335887
0.335903
0.33471
0.335119
0.335922
0.336056
0.335945
0.335879
0.335933
0.335957
0.335945
0.334873
0.336523
0.335816
0.336286
0.336337
0.334862
0.336042
0.336025
0.336673
0.337148
0.337146
0.336592
0.335773
0.336048
0.334842
0.337109
0.337419
0.337417
0.33435
0.336897
0.336983
0.336028
0.33656
0.336112
0.336211
0.336342
0.336392
0.336154
0.334402
0.336072
0.336272
0.336361
0.334599
0.33692
0.334794
0.336351
0.336219
0.335669
0.336103
0.336145
0.336688
0.336169
0.336686
0.336053
0.336364
0.336954
0.336967
0.334849
0.336237
0.334312
0.334349
0.334268
0.336327
0.334383
0.334229
0.335881
0.334289
0.336772
0.33677
0.33432
0.335952
0.334717
0.334304
0.33468
0.334296
0.33468
0.336909
0.33478
0.33439
0.334315
0.336137
0.336433
0.33465
0.336142
0.33424
0.336202
0.335965
0.334283
0.334622
0.334254
0.334349
0.336019
0.336804
0.337382
0.337357
0.336234
0.337378
0.337377
0.337367
0.337214
0.334816
0.336939
0.336606
0.336809
0.336211
0.337256
0.337254
0.336843
0.334329
0.335947
0.334358
0.334766
0.334775
0.337085
0.337079
0.337066
0.337071
0.337083
0.337351
0.337073
0.337258
0.337392
0.337092
0.337094
0.337399
0.337356
0.337264
0.337058
SCALARS rr_(P_ext) float
LOOKUP_TABLE default
0.00131405
0.00130041
0.00130158
0.00130063
0.00129719
0.00130161
0.00131409
0.00130081
0.00130271
0.00130046
0.00131318
0.00130081
0.00130108
0.00130029
0.00129838
0.00130137
0.00129984
0.00130096
0.00130332
0.00130192
0.0013021
0.00129287
0.00130209
0.0013019
0.00130194
0.00130074
0.00131126
0.00130145
0.00130706
0.00129543
0.00130112
0.00130703
0.00131145
0.00129619
0.00129578
0.0012962
0.00129529
0.00129593
0.00130114
0.00131141
0.00130709
0.00129524
0.00129525
0.00130111
0.00131014
0.00130686
0.00130303
0.00130248
0.00130156
0.00130791
0.00130742
0.00130566
0.00129737
0.00130561
0.00129747
0.00130971
0.00129575
0.00130562
0.00129576
0.00130185
0.00129989
0.0012988
0.00131038
0.00129887
0.00129878
0.00129985
0.00129985
0.00130073
0.001302
0.00130038
0.0012974
0.00129741
0.00130709
0.00129945
0.00130152
0.00131203
0.00129813
0.00129986
0.00130074
0.00130535
0.00130818
0.00129677
0.00129935
0.00130857
0.00130665
0.00130998
0.00130145
0.00129965
0.00131013
0.00129352
0.00130564
0.00129355
0.00129806
0.00130001
0.00130551
0.00130754
0.00130816
0.00130048
0.00129814
0.00130119
0.0013041
0.00130632
0.0013086
0.00130083
0.00130061
0.00130056
0.00129921
0.0013013
0.00130862
0.00130023
0.00130184
0.0013097
0.00130908
0.00130091
0.00130062
0.00130557
0.00129577
0.00130821
0.0012958
0.00130552
0.00130362
0.00129852
0.00130042
0.0012996
0.00130014
0.00129828
0.00129621
0.00130048
0.00130816
0.00130552
0.00129741
0.0013005
0.00129941
0.00130045
0.0013063
0.00129575
0.00130891
0.001301
0.00129934
0.00129577
0.00130615
0.00130044
0.00130342
0.00130046
0.00130827
0.00130069
0.00130066
0.00130158
0.00130159
0.00130451
0.00130253
0.00130042
0.00130706
0.00130105
0.00130047
0.00130049
0.0013001
0.00130601
0.00130597
0.00130108
0.00130246
0.00130696
0.0013098
0.00130742
0.00130603
0.00130054
0.00130602
0.00130604
0.00130705
0.001306
0.00129804
0.00130562
0.00130743
0.00129998
0.00130558
0.00129925
0.00129805
0.00130084
0.00129731
0.00130057
0.00130704
0.00130049
0.00130051
0.00130613
0.00129962
0.00130752
0.00129961
0.00129917
0.00129799
0.00130047
0.00129961
0.00130801
0.0013056
0.00130704
0.00130047
0.001301
0.00130093
0.00129942
0.00130044
0.0012999
0.00130041
0.00130315
0.00130525
0.00129943
0.00130702
0.00129935
0.00129987
0.0013064
0.00129867
0.00130039
0.00129855
0.00130024
0.00130064
0.00129933
0.00130447
0.00130014
0.00130511
0.00129918
0.00130017
0.00130017
0.00130031
0.00130025
0.00130024
0.00130025
0.00130039
0.00129846
0.0012985
0.00129846
0.00129844
0.00129746
0.00129746
0.00130456
0.00130035
0.00130076
0.00130254
0.00129838
0.00129833
0.00130072
0.00130521
0.0013008
0.00130047
0.0013044
0.00129866
0.00130447
0.0012993
0.00130085
0.00130438
0.00130505
0.00130822
0.00130812
0.00129933
0.00130847
0.00130121
0.00130512
0.00130324
0.00130082
0.00130019
0.00129518
0.00130022
0.00130857
0.00130512
0.00130077
0.00130083
0.00130528
0.0013002
0.00130335
0.00129519
0.00130509
0.00130014
0.00129968
0.00130093
0.00129841
0.00129969
0.00129738
0.00130108
0.00130949
0.00130999
0.00129773
0.00130206
0.00130083
0.00130446
0.00129864
0.00129999
0.0013051
0.00129998
0.00130405
0.0013006
0.00130403
0.00130519
0.00129422
0.00129792
0.00129834
0.00129837
0.00130038
0.00130394
0.00129633
0.00129972
0.00130243
0.00130389
0.00130431
0.00129774
0.00130441
0.00129806
0.00130417
0.00131011
0.00130397
0.00130834
0.00129916
0.00130441
0.00129424
0.00130417
0.00129945
0.00130456
0.00129956
0.0013042
0.00130143
0.0013106
0.0013017
0.00130444
0.0012978
0.00130452
0.00130243
0.00129955
0.00130037
0.00130419
0.00130395
0.00130339
0.00129917
0.00130397
0.00130082
0.00130144
0.0012974
0.00130395
0.00130345
0.00130223
0.0013033
0.00130409
0.00130327
0.0012988
0.00130085
0.00130339
0.00130447
0.00130048
0.00130046
0.00130403
0.00129741
0.00131366
0.00130149
0.0013082
0.00130217
0.00132086
0.00132085
0.00132077
0.0013208
0.00132076
0.00132088
0.00132083
0.00129911
0.00129667
0.00130106
0.00130249
0.00130325
0.00130331
0.00130058
0.0013034
0.00130347
0.00129664
0.00130332
0.00129858
0.00130564
0.00129865
0.00130165
0.00130251
0.00130336
0.00129771
0.00130148
0.00130242
0.00130147
0.0013024
0.00130342
0.0013054
0.00130252
0.0013016
0.00129853
0.00130312
0.00130355
0.00130317
0.0013026
0.00130164
0.00130057
0.00130319
0.00130059
0.00130175
0.00130256
0.0013008
0.00130172
0.00130335
0.00129956
0.00130229
0.00129676
0.00131009
0.00129911
0.0012988
0.00130163
0.00130224
0.00129988
0.00131349
0.00130164
0.00130231
0.00131052
0.0012943
0.00129427
0.0013015
0.00130326
0.00130214
0.00130311
0.00129237
0.00129237
0.00130077
0.00130077
0.00130085
0.00131352
0.00130347
0.00129938
0.00130254
0.00130266
0.00130257
0.00131374
0.00129965
0.00130333
0.00130153
0.00130153
0.00130268
0.00130243
0.00130268
0.00130257
0.00131132
0.00130831
0.00130244
0.00130151
0.00130227
0.00130273
0.00130235
0.0013022
0.00130227
0.00131009
0.00129837
0.0013032
0.00129991
0.00129958
0.00131018
0.00130156
0.00130168
0.0012974
0.0012944
0.0012944
0.00129794
0.00130349
0.00130157
0.00131031
0.00129465
0.00129265
0.00129266
0.00131389
0.00129594
0.00129543
0.0013017
0.00129812
0.00130106
0.00130038
0.00129953
0.00129922
0.00130083
0.00131352
0.00130135
0.00130001
0.0012994
0.00131211
0.00129583
0.00131076
0.00129945
0.00130035
0.00130427
0.00130112
0.00130088
0.00129732
0.00130069
0.00129732
0.00130149
0.0012994
0.00129564
0.00129556
0.00131027
0.00130023
0.00131432
0.00131406
0.00131462
0.00129964
0.00131367
0.0013149
0.00130271
0.00131448
0.00129673
0.00129674
0.00131426
0.0013022
0.00131128
0.00131439
0.00131154
0.00131444
0.00131154
0.00129588
0.00131077
0.00131362
0.00131429
0.00130093
0.00129894
0.00131175
0.00130091
0.00131481
0.00130048
0.00130212
0.00131453
0.00131196
0.00131474
0.00131389
0.00130175
0.00129655
0.00129289
0.00129305
0.00130027
0.00129292
0.00129293
0.00129299
0.00129398
0.00131051
0.00129572
0.00129785
0.00129654
0.00130043
0.00129372
0.00129373
0.0012963
0.00131404
0.00130224
0.00131386
0.00131097
0.00131088
0.00129479
0.00129482
0.00129491
0.00129488
0.0012948
0.00129311
0.00129488
0.00129373
0.00129286
0.00129477
0.00129475
0.00129281
0.00129306
0.00129367
0.00129499
SCALARS rr_(S) float
LOOKUP_TABLE default
0.212618
0.213278
0.213215
0.213262
0.213508
0.213214
0.212616
0.213259
0.213156
0.213276
0.212648
0.21326
0.213244
0.21329
0.213423
0.213223
0.21332
0.213249
0.213125
0.213196
0.213189
0.213836
0.213189
0.213199
0.213195
0.213263
0.212744
0.213227
0.212941
0.213642
0.21324
0.212943
0.212735
0.213588
0.21361
0.213587
0.213652
0.213598
0.21324
0.212737
0.21294
0.213656
0.213655
0.21324
0.212794
0.212951
0.213139
0.213167
0.213219
0.2129
0.212925
0.21301
0.213495
0.213011
0.213488
0.212817
0.213613
0.213011
0.213612
0.213201
0.213317
0.213387
0.212789
0.213384
0.213389
0.213324
0.213319
0.213263
0.213192
0.213282
0.213493
0.213492
0.21294
0.213351
0.213215
0.212705
0.21344
0.213323
0.213263
0.213024
0.212889
0.213534
0.213354
0.212869
0.212962
0.212802
0.213226
0.213339
0.212795
0.213795
0.21301
0.213794
0.213445
0.213318
0.213016
0.212918
0.212891
0.213274
0.213438
0.213236
0.213086
0.212977
0.212869
0.213253
0.213272
0.213268
0.213368
0.213231
0.212867
0.21329
0.213202
0.212815
0.212846
0.213251
0.213264
0.213013
0.213613
0.212887
0.213611
0.213016
0.21311
0.213411
0.213278
0.213335
0.213297
0.213432
0.213581
0.213274
0.21289
0.213017
0.213496
0.213272
0.213348
0.213275
0.212978
0.213615
0.212855
0.213251
0.213354
0.213614
0.212986
0.213286
0.213122
0.21328
0.212885
0.213263
0.213277
0.213221
0.213213
0.213066
0.213168
0.213278
0.212942
0.213243
0.213279
0.213273
0.213302
0.212992
0.212994
0.21324
0.213168
0.212947
0.21281
0.212924
0.212992
0.213268
0.212991
0.21299
0.212942
0.212993
0.213448
0.213011
0.212923
0.213308
0.213012
0.213365
0.213447
0.213264
0.213497
0.213276
0.212942
0.213272
0.213272
0.212987
0.213339
0.212918
0.213334
0.213368
0.213452
0.213274
0.213341
0.212897
0.213013
0.212942
0.213274
0.213244
0.213249
0.213347
0.213277
0.213321
0.213279
0.213133
0.213028
0.213346
0.212943
0.213352
0.213325
0.212974
0.213405
0.21328
0.213412
0.213299
0.213269
0.213354
0.213069
0.213306
0.213035
0.213367
0.213295
0.213295
0.213285
0.213288
0.213289
0.213288
0.213287
0.213415
0.213412
0.213415
0.213416
0.213491
0.213492
0.213063
0.213288
0.213254
0.213162
0.213423
0.213426
0.213257
0.21303
0.21325
0.213274
0.213071
0.213407
0.213067
0.213357
0.213247
0.213072
0.213038
0.212888
0.212891
0.213353
0.212876
0.213233
0.213034
0.21313
0.213249
0.213293
0.213662
0.21329
0.212872
0.213036
0.213253
0.213263
0.213027
0.213292
0.213125
0.213661
0.213036
0.213297
0.213331
0.213248
0.21342
0.213337
0.213496
0.21324
0.212827
0.212802
0.213472
0.213188
0.213263
0.213068
0.213409
0.213307
0.213036
0.213317
0.213088
0.21328
0.213088
0.213032
0.213736
0.213456
0.213425
0.213423
0.213285
0.213093
0.213577
0.213326
0.213172
0.213096
0.213074
0.21347
0.21307
0.213447
0.213081
0.212795
0.213093
0.212882
0.213371
0.213071
0.213735
0.213081
0.213351
0.213063
0.21334
0.21308
0.213223
0.212779
0.213208
0.213068
0.213467
0.213066
0.213175
0.213342
0.21328
0.213081
0.213092
0.213124
0.21337
0.213092
0.213261
0.213227
0.213493
0.213092
0.213119
0.213184
0.213126
0.213085
0.213128
0.213398
0.213259
0.213122
0.213068
0.213283
0.213284
0.21309
0.213492
0.212625
0.213227
0.212888
0.213187
0.212265
0.212266
0.21227
0.212269
0.21227
0.212265
0.212268
0.213374
0.213553
0.213245
0.213171
0.213129
0.213126
0.213279
0.213123
0.213118
0.213555
0.213126
0.213409
0.213011
0.2134
0.213215
0.213169
0.213123
0.213474
0.213225
0.213174
0.213226
0.213175
0.213118
0.213022
0.21317
0.213218
0.213411
0.213136
0.213112
0.213132
0.213164
0.213216
0.213281
0.213132
0.213279
0.213208
0.213166
0.213265
0.213209
0.213124
0.213338
0.213179
0.213543
0.212796
0.213372
0.213399
0.213218
0.21318
0.21332
0.212633
0.213216
0.213178
0.212783
0.213731
0.213734
0.213225
0.213128
0.213187
0.213136
0.213878
0.213877
0.213258
0.213265
0.213264
0.212633
0.213117
0.21335
0.213163
0.213157
0.213165
0.212621
0.213339
0.213124
0.213222
0.213223
0.213156
0.213172
0.213157
0.213163
0.21274
0.212884
0.213172
0.213225
0.213179
0.213153
0.213174
0.213185
0.213179
0.212796
0.213427
0.213132
0.213318
0.213342
0.212793
0.213215
0.213208
0.213494
0.213724
0.213723
0.213459
0.213115
0.213223
0.212785
0.213706
0.213852
0.213851
0.212613
0.213598
0.213644
0.213213
0.213442
0.213242
0.213281
0.213341
0.213367
0.213265
0.212631
0.213227
0.213312
0.213349
0.212701
0.213613
0.212773
0.213344
0.213287
0.213078
0.213237
0.21326
0.213504
0.213267
0.213503
0.213219
0.213352
0.213631
0.213637
0.212788
0.213295
0.212607
0.212621
0.212591
0.213337
0.212626
0.212577
0.213154
0.212599
0.213538
0.213537
0.212611
0.213181
0.212743
0.212604
0.21273
0.212602
0.21273
0.213605
0.212764
0.212628
0.212608
0.213256
0.213383
0.212719
0.213259
0.212581
0.213283
0.213187
0.212597
0.21271
0.212586
0.212613
0.213209
0.213555
0.213835
0.213824
0.213297
0.213834
0.213833
0.213828
0.213756
0.212776
0.213623
0.213465
0.213559
0.213288
0.213777
0.213776
0.213574
0.212606
0.213179
0.212617
0.212763
0.212766
0.213693
0.21369
0.213684
0.213686
0.213692
0.21382
0.213687
0.213778
0.21384
0.213697
0.213698
0.213843
0.213822
0.21378
0.213682
SCALARS rr_(P) float
LOOKUP_TABLE default
0.00182378
0.00182157
0.00182172
0.00182157
0.00182171
0.00182173
0.00182378
0.00182166
0.00182186
0.00182159
0.00182354
0.00182166
0.00182167
0.00182162
0.00182165
0.00182167
0.00182161
0.00182165
0.00182195
0.00182176
0.0018218
0.00182207
0.00182179
0.00182177
0.00182176
0.00182164
0.00182325
0.00182175
0.00182253
0.00182185
0.00182167
0.00182252
0.00182329
0.00182183
0.00182179
0.00182182
0.00182186
0.00182177
0.00182168
0.00182328
0.00182254
0.00182187
0.00182187
0.00182166
0.00182305
0.00182249
0.00182191
0.00182182
0.00182175
0.00182267
0.0018226
0.00182231
0.00182171
0.0018223
0.0018217
0.00182299
0.0018218
0.0018223
0.00182179
0.00182176
0.00182161
0.0018216
0.00182313
0.00182161
0.0018216
0.00182167
0.00182161
0.00182164
0.00182177
0.00182159
0.00182171
0.00182171
0.00182254
0.00182167
0.00182169
0.00182337
0.00182166
0.00182166
0.00182165
0.00182226
0.00182273
0.00182171
0.00182162
0.00182278
0.00182247
0.00182302
0.00182174
0.00182168
0.00182304
0.00182207
0.0018223
0.00182208
0.00182168
0.0018217
0.00182228
0.00182261
0.00182272
0.00182158
0.00182166
0.00182168
0.00182207
0.00182241
0.0018228
0.00182161
0.00182165
0.00182157
0.00182167
0.00182169
0.00182279
0.00182157
0.00182176
0.00182297
0.00182287
0.00182163
0.00182158
0.00182229
0.0018218
0.00182273
0.0018218
0.00182228
0.001822
0.00182163
0.00182158
0.00182161
0.00182158
0.00182168
0.00182177
0.00182158
0.00182272
0.00182229
0.00182174
0.00182158
0.00182161
0.00182158
0.00182241
0.00182181
0.00182285
0.00182169
0.00182162
0.00182181
0.00182238
0.00182167
0.00182198
0.00182163
0.00182274
0.00182161
0.00182173
0.00182177
0.00182171
0.00182213
0.00182187
0.00182158
0.00182253
0.00182166
0.00182163
0.00182158
0.00182161
0.00182236
0.00182235
0.00182164
0.00182182
0.00182252
0.00182299
0.00182259
0.00182237
0.00182157
0.00182236
0.00182236
0.00182253
0.00182236
0.00182168
0.0018223
0.00182259
0.0018216
0.00182229
0.00182167
0.00182168
0.00182171
0.00182169
0.00182166
0.00182252
0.00182157
0.00182158
0.00182238
0.00182167
0.0018226
0.0018216
0.00182165
0.00182168
0.00182158
0.00182167
0.00182269
0.0018223
0.00182253
0.00182157
0.00182164
0.00182164
0.0018216
0.00182158
0.00182166
0.00182158
0.00182192
0.00182223
0.00182161
0.00182252
0.0018216
0.00182167
0.00182243
0.00182169
0.00182158
0.00182166
0.00182167
0.00182164
0.00182161
0.00182213
0.00182167
0.00182221
0.00182165
0.00182157
0.00182157
0.00182157
0.00182156
0.00182156
0.00182156
0.00182164
0.00182163
0.00182163
0.00182163
0.00182163
0.00182172
0.00182172
0.00182214
0.00182163
0.00182156
0.00182182
0.00182164
0.00182164
0.00182156
0.00182223
0.00182155
0.00182158
0.00182211
0.00182169
0.00182212
0.00182162
0.00182155
0.00182211
0.0018222
0.00182274
0.00182271
0.0018216
0.00182278
0.00182166
0.00182221
0.00182195
0.00182155
0.00182157
0.00182188
0.00182157
0.0018228
0.00182222
0.00182156
0.0018217
0.00182224
0.00182157
0.00182197
0.00182188
0.00182221
0.00182158
0.00182161
0.00182162
0.00182164
0.00182168
0.00182172
0.00182165
0.00182295
0.00182302
0.00182171
0.00182176
0.0018217
0.00182212
0.00182169
0.00182159
0.00182221
0.00182168
0.00182205
0.00182171
0.00182205
0.00182223
0.00182197
0.00182168
0.00182165
0.00182165
0.00182163
0.00182203
0.00182181
0.0018216
0.00182184
0.00182203
0.00182208
0.0018217
0.00182211
0.00182168
0.00182206
0.00182304
0.00182205
0.00182276
0.00182167
0.00182211
0.00182197
0.00182206
0.00182166
0.00182213
0.00182162
0.00182207
0.00182169
0.00182318
0.00182172
0.00182211
0.00182171
0.00182213
0.00182186
0.00182164
0.00182158
0.00182207
0.00182203
0.00182198
0.00182166
0.00182204
0.00182167
0.00182174
0.00182171
0.00182203
0.00182198
0.00182182
0.00182195
0.00182205
0.00182195
0.00182169
0.00182168
0.00182197
0.00182213
0.00182167
0.00182167
0.00182205
0.00182171
0.00182363
0.00182177
0.00182273
0.00182182
0.00182471
0.00182471
0.0018247
0.0018247
0.00182469
0.00182471
0.0018247
0.00182166
0.0018218
0.00182167
0.00182187
0.00182195
0.00182195
0.0018217
0.00182198
0.00182198
0.0018218
0.00182196
0.00182166
0.00182231
0.00182161
0.00182176
0.00182186
0.00182196
0.00182171
0.00182176
0.00182185
0.00182176
0.00182185
0.00182195
0.00182227
0.00182187
0.00182177
0.00182165
0.00182194
0.00182197
0.00182192
0.00182187
0.00182177
0.00182171
0.00182193
0.00182171
0.00182176
0.00182187
0.0018217
0.00182175
0.00182195
0.00182161
0.00182182
0.00182177
0.00182303
0.00182165
0.00182169
0.00182177
0.0018218
0.00182165
0.0018236
0.00182176
0.00182182
0.00182316
0.00182198
0.00182199
0.00182176
0.00182194
0.0018218
0.00182192
0.00182214
0.00182213
0.00182161
0.00182169
0.00182172
0.00182361
0.00182197
0.00182161
0.00182183
0.00182184
0.00182186
0.00182364
0.00182168
0.00182195
0.00182176
0.00182176
0.00182185
0.00182184
0.00182185
0.00182184
0.00182326
0.00182276
0.00182185
0.00182177
0.00182181
0.00182185
0.00182182
0.00182181
0.00182181
0.00182303
0.00182169
0.00182194
0.00182165
0.00182166
0.00182305
0.00182171
0.00182172
0.00182171
0.00182198
0.00182197
0.00182171
0.00182197
0.00182178
0.00182307
0.00182196
0.00182208
0.00182208
0.00182366
0.00182178
0.00182187
0.00182178
0.00182167
0.00182165
0.00182159
0.00182162
0.00182167
0.00182172
0.0018236
0.00182169
0.00182165
0.00182161
0.00182338
0.00182184
0.00182321
0.0018216
0.00182163
0.00182209
0.00182164
0.00182169
0.00182175
0.00182166
0.00182174
0.0018217
0.00182164
0.00182188
0.00182188
0.00182307
0.00182162
0.00182384
0.00182381
0.00182388
0.00182165
0.00182364
0.00182392
0.00182185
0.00182387
0.00182172
0.00182171
0.00182384
0.00182179
0.00182326
0.00182386
0.0018233
0.00182387
0.0018233
0.0018218
0.00182315
0.00182363
0.00182384
0.0018217
0.00182165
0.00182333
0.00182172
0.00182391
0.00182167
0.00182178
0.00182388
0.00182337
0.00182391
0.00182366
0.00182177
0.00182175
0.00182207
0.00182206
0.00182167
0.00182208
0.00182207
0.00182207
0.00182201
0.00182311
0.00182186
0.00182171
0.00182178
0.00182168
0.00182204
0.00182204
0.00182177
0.00182368
0.00182179
0.00182367
0.00182325
0.00182323
0.00182193
0.00182192
0.00182192
0.00182192
0.00182193
0.00182206
0.00182192
0.00182205
0.00182209
0.00182194
0.00182194
0.00182209
0.00182205
0.00182203
0.00182195
SCALARS rr_(T) float
LOOKUP_TABLE default
0.00256923
0.00257584
0.00257509
0.00257553
0.00258036
0.00257509
0.0025692
0.00257573
0.00257436
0.00257584
0.00256929
0.00257574
0.00257547
0.00257619
0.0025786
0.00257509
0.00257671
0.0025755
0.00257402
0.00257484
0.0025748
0.00258722
0.00257478
0.0025749
0.00257484
0.00257575
0.00257028
0.00257539
0.00257211
0.0025831
0.00257541
0.00257214
0.00257021
0.00258208
0.00258242
0.00258206
0.00258334
0.00258214
0.00257544
0.00257023
0.00257213
0.00258342
0.00258341
0.00257538
0.00257073
0.0025722
0.00257419
0.00257446
0.00257523
0.00257172
0.00257198
0.00257282
0.00258012
0.0025728
0.00257997
0.00257096
0.00258247
0.00257282
0.00258245
0.00257492
0.00257664
0.00257788
0.00257079
0.00257786
0.00257791
0.00257692
0.0025767
0.00257576
0.0025748
0.00257593
0.00258008
0.00258006
0.0025721
0.00257741
0.00257501
0.00256988
0.00257899
0.0025769
0.00257578
0.00257297
0.00257164
0.00258083
0.00257732
0.00257142
0.00257234
0.0025708
0.00257535
0.0025772
0.00257074
0.00258641
0.0025728
0.0025864
0.00257913
0.00257687
0.00257284
0.0025719
0.00257165
0.00257577
0.00257897
0.00257535
0.0025736
0.00257245
0.00257145
0.00257549
0.00257594
0.00257566
0.00257771
0.00257529
0.00257142
0.00257604
0.00257494
0.00257092
0.00257122
0.00257551
0.0025756
0.00257282
0.00258245
0.0025716
0.0025824
0.00257285
0.00257386
0.00257836
0.00257585
0.00257695
0.00257616
0.00257891
0.0025818
0.00257577
0.00257163
0.00257288
0.00258021
0.00257576
0.00257719
0.0025758
0.00257246
0.00258254
0.00257131
0.00257567
0.00257731
0.00258252
0.00257254
0.00257624
0.00257403
0.00257605
0.00257159
0.00257567
0.00257622
0.00257532
0.002575
0.0025734
0.00257459
0.00257585
0.00257214
0.00257543
0.00257602
0.00257577
0.00257637
0.00257259
0.00257262
0.00257535
0.00257448
0.00257219
0.00257086
0.00257196
0.00257261
0.00257567
0.00257259
0.00257257
0.00257213
0.00257262
0.00257918
0.00257281
0.00257193
0.00257645
0.00257281
0.00257765
0.00257917
0.00257594
0.00258012
0.00257604
0.00257213
0.00257573
0.00257575
0.00257256
0.0025772
0.00257188
0.00257694
0.00257768
0.00257924
0.00257577
0.00257723
0.00257169
0.00257285
0.00257214
0.00257578
0.00257541
0.00257549
0.00257717
0.00257582
0.00257686
0.00257588
0.0025741
0.00257298
0.00257717
0.00257214
0.00257725
0.00257693
0.00257245
0.00257844
0.00257588
0.00257844
0.00257648
0.00257586
0.0025773
0.00257345
0.00257662
0.00257304
0.00257766
0.00257611
0.00257611
0.00257592
0.00257598
0.00257599
0.00257597
0.00257618
0.00257843
0.0025784
0.00257844
0.00257846
0.00258005
0.00258007
0.00257337
0.00257614
0.00257534
0.00257437
0.00257859
0.00257864
0.00257539
0.00257302
0.00257526
0.00257576
0.00257344
0.00257848
0.0025734
0.00257736
0.00257521
0.00257346
0.00257308
0.00257164
0.00257165
0.00257727
0.00257151
0.00257524
0.00257303
0.00257412
0.00257525
0.00257607
0.00258356
0.00257602
0.00257147
0.00257307
0.00257532
0.00257591
0.00257296
0.00257607
0.00257407
0.00258354
0.00257305
0.00257615
0.00257688
0.00257544
0.00257854
0.00257717
0.00258016
0.00257535
0.00257107
0.00257079
0.00257969
0.0025747
0.0025759
0.00257338
0.00257851
0.00257644
0.00257306
0.00257682
0.0025736
0.00257623
0.00257359
0.00257303
0.00258513
0.00257933
0.00257868
0.00257865
0.00257611
0.00257364
0.00258184
0.00257678
0.00257459
0.00257368
0.00257341
0.00257965
0.00257342
0.00257915
0.00257348
0.00257072
0.00257366
0.00257158
0.0025778
0.00257344
0.00258512
0.0025735
0.00257739
0.00257335
0.00257706
0.00257349
0.00257513
0.00257072
0.00257497
0.0025734
0.00257962
0.00257341
0.0025747
0.00257717
0.00257591
0.00257351
0.00257363
0.00257406
0.00257772
0.00257363
0.00257578
0.00257536
0.00258009
0.00257362
0.00257398
0.00257475
0.00257406
0.00257355
0.00257408
0.00257831
0.00257578
0.00257401
0.00257343
0.0025762
0.00257622
0.00257362
0.00258007
0.0025691
0.00257541
0.00257162
0.00257481
0.00256532
0.00256532
0.00256539
0.00256537
0.00256538
0.0025653
0.00256532
0.0025778
0.00258136
0.00257551
0.00257465
0.00257409
0.00257405
0.00257617
0.00257404
0.00257397
0.00258138
0.00257406
0.00257841
0.00257283
0.00257812
0.00257519
0.0025746
0.00257402
0.00257971
0.00257536
0.00257467
0.00257538
0.00257469
0.00257392
0.00257294
0.00257464
0.00257527
0.00257842
0.0025742
0.00257386
0.00257409
0.00257452
0.00257523
0.00257624
0.00257409
0.00257621
0.00257505
0.00257458
0.00257595
0.00257505
0.002574
0.00257702
0.00257469
0.00258112
0.00257073
0.00257775
0.00257832
0.00257526
0.00257465
0.00257681
0.00256917
0.0025752
0.00257467
0.00257075
0.00258505
0.00258511
0.00257536
0.00257407
0.00257477
0.00257416
0.0025881
0.00258807
0.00257557
0.00257591
0.00257596
0.00256917
0.00257393
0.00257721
0.0025744
0.00257433
0.00257453
0.00256904
0.00257721
0.00257401
0.00257531
0.00257532
0.00257434
0.00257461
0.00257434
0.00257443
0.00257024
0.00257159
0.00257462
0.00257538
0.00257465
0.00257428
0.0025746
0.00257475
0.00257466
0.00257074
0.00257882
0.00257414
0.00257677
0.00257723
0.00257072
0.00257504
0.00257496
0.00258007
0.00258494
0.00258493
0.00257945
0.00257389
0.00257536
0.00257061
0.00258455
0.00258754
0.00258752
0.00256896
0.00258215
0.0025832
0.0025752
0.00257906
0.00257539
0.00257592
0.0025771
0.0025777
0.00257596
0.00256914
0.00257524
0.00257664
0.00257718
0.00256984
0.00258259
0.00257066
0.00257711
0.00257613
0.00257351
0.00257527
0.00257581
0.00258036
0.00257587
0.00258034
0.00257509
0.00257737
0.00258295
0.00258305
0.00257065
0.00257627
0.0025692
0.00256936
0.00256902
0.00257712
0.00256912
0.00256886
0.00257429
0.00256912
0.00258092
0.0025809
0.00256925
0.00257465
0.00257027
0.00256917
0.00257013
0.00256915
0.00257014
0.00258233
0.00257041
0.00256913
0.00256921
0.00257578
0.00257794
0.00257002
0.00257589
0.00256891
0.0025762
0.00257473
0.00256907
0.00256994
0.00256896
0.00256895
0.00257511
0.00258131
0.00258722
0.00258697
0.00257644
0.00258718
0.00258716
0.00258706
0.0025856
0.00257055
0.00258281
0.00257956
0.00258141
0.00257629
0.00258604
0.00258603
0.00258168
0.00256889
0.0025746
0.00256903
0.00257059
0.0025706
0.00258424
0.00258419
0.00258405
0.00258409
0.00258422
0.00258686
0.00258407
0.00258605
0.00258729
0.00258432
0.00258434
0.00258735
0.00258688
0.00258607
0.00258407
SCALARS rr_tsim float
LOOKUP_TABLE default
20
20
20
20
20
20
20
20
20
20
20
20
20
20
20
20
20
20
20
20
20
20
20
20
20
20
20
20
20
20
20
20
20
20
20
20
20
20
20
20
20
20
20
20
20
20
20
20
20
20
20
20
20
20
20
20
20
20
20
20
20
20
20
20
20
20
20
20
20
20
20
20
20
20
20
20
20
20
20
20
20
20
20
20
20
20
20
20
20
20
20
20
20
20
20
20
20
20
20
20
20
20
20
20
20
20
20
20
20
20
20
20
20
20
20
20
20
20
20
20
20
20
20
20
20
20
20
20
20
20
20
20
20
20
20
20
20
20
20
20
20
20
20
20
20
20
20
20
20
20
20
20
20
20
20
20
20
20
20
20
20
20
20
20
20
20
20
20
20
20
20
20
20
20
20
20
20
20
20
20
20
20
20
20
20
20
20
20
20
20
20
20
20
20
20
20
20
20
20
20
20
20
20
20
20
20
20
20
20
20
20
20
20
20
20
20
20
20
20
20
20
20
20
20
20
20
20
20
20
20
20
20
20
20
20
20
20
20
20
20
20
20
20
20
20
20
20
20
20
20
20
20
20
20
20
20
20
20
20
20
20
20
20
20
20
20
20
20
20
20
20
20
20
20
20
20
20
20
20
20
20
20
20
20
20
20
20
20
20
20
20
20
20
20
20
20
20
20
20
20
20
20
20
20
20
20
20
20
20
20
20
20
20
20
20
20
20
20
20
20
20
20
20
20
20
20
20
20
20
20
20
20
20
20
20
20
20
20
20
20
20
20
20
20
20
20
20
20
20
20
20
20
20
20
20
20
20
20
20
20
20
20
20
20
20
20
20
20
20
20
20
20
20
20
20
20
20
20
20
20
20
20
20
20
20
20
20
20
20
20
20
20
20
20
20
20
20
20
20
20
20
20
20
20
20
20
20
20
20
20
20
20
20
20
20
20
20
20
20
20
20
20
20
20
20
20
20
20
20
20
20
20
20
20
20
20
20
20
20
20
20
20
20
20
20
20
20
20
20
20
20
20
20
20
20
20
20
20
20
20
20
20
20
20
20
20
20
20
20
20
20
20
20
20
20
20
20
20
20
20
20
20
20
20
20
20
20
20
20
20
20
20
20
20
20
20
20
20
20
20
20
20
20
20
20
20
20
20
20
20
20
20
20
20
20
20
20
20
20
20
20
20
20
20
20
20
20
20
20
20
20
20
20
20
20
20
20
20
20
20
20
20
20
20
20
20
20
20
20
20
20
20
20
20
20
20
20
20
20
20
20
20
20
SCALARS rr_Vext float
LOOKUP_TABLE default
0.181368
0.44917
0.356085
0.468159
0.250511
0.377866
0.179284
0.465136
0.395146
0.504617
0.165399
0.466555
0.409867
0.435056
0.51618
0.424908
0.369079
0.414226
0.365567
0.360563
0.405149
0.076513
0.415111
0.383053
0.34714
0.403512
0.15502
0.352869
0.267436
0.339266
0.362006
0.276509
0.171531
0.252917
0.249263
0.253468
0.330145
0.249506
0.361576
0.192849
0.22474
0.291066
0.291076
0.397312
0.216901
0.244141
0.344646
0.350219
0.330112
0.303786
0.31288
0.245258
0.401548
0.315235
0.369443
0.157765
0.266195
0.317545
0.266167
0.393224
0.470975
0.464915
0.153286
0.327671
0.445354
0.417413
0.455699
0.391944
0.358022
0.515609
0.435588
0.430823
0.277678
0.338775
0.354008
0.176437
0.372707
0.413516
0.395209
0.271157
0.24051
0.283527
0.527581
0.240269
0.327789
0.1193
0.40762
0.344641
0.229722
0.0374842
0.273117
0.0407621
0.316383
0.29934
0.258683
0.233002
0.220926
0.442976
0.372942
0.351891
0.293563
0.277794
0.230496
0.418619
0.42618
0.383872
0.340657
0.340882
0.244648
0.512571
0.326059
0.164051
0.220073
0.457925
0.429763
0.30451
0.30865
0.183523
0.320055
0.303393
0.267012
0.502693
0.511863
0.442082
0.484575
0.384983
0.220829
0.478259
0.200095
0.262303
0.22752
0.456442
0.449066
0.448295
0.288962
0.187548
0.190653
0.327472
0.404506
0.187471
0.241563
0.387327
0.287997
0.472804
0.223293
0.385229
0.349764
0.33616
0.214811
0.269571
0.304328
0.440671
0.248047
0.397451
0.462035
0.469291
0.307886
0.24903
0.247679
0.401177
0.333886
0.246138
0.160088
0.239724
0.240488
0.431
0.252371
0.255123
0.274643
0.245961
0.386375
0.258207
0.226077
0.297743
0.272836
0.340336
0.382149
0.361167
0.314001
0.36088
0.266589
0.418289
0.448898
0.241636
0.44234
0.239459
0.436836
0.402773
0.378996
0.379453
0.446267
0.20079
0.266952
0.246037
0.447455
0.439065
0.40724
0.447936
0.452998
0.3819
0.466617
0.307746
0.274135
0.512779
0.285571
0.465997
0.369995
0.226674
0.286366
0.461772
0.389068
0.350341
0.4501
0.445297
0.278885
0.284248
0.267567
0.395488
0.433463
0.498142
0.478137
0.520423
0.471606
0.515339
0.432097
0.457241
0.460691
0.434392
0.456396
0.42295
0.416666
0.282437
0.389449
0.454343
0.312151
0.470313
0.432193
0.492711
0.288272
0.468326
0.448723
0.284527
0.406947
0.282495
0.45528
0.411333
0.296283
0.277703
0.235571
0.271119
0.455816
0.197516
0.347056
0.276553
0.313933
0.468721
0.455594
0.147796
0.457151
0.236449
0.261788
0.466319
0.379063
0.264609
0.522235
0.291259
0.147787
0.267748
0.40644
0.50897
0.382728
0.457794
0.425194
0.226632
0.216753
0.175991
0.201442
0.308158
0.229098
0.372017
0.227546
0.406426
0.28765
0.268126
0.323983
0.29355
0.398559
0.281513
0.287622
0.136376
0.303596
0.437847
0.438095
0.391563
0.281143
0.192371
0.54593
0.360524
0.298346
0.274317
0.284998
0.282755
0.358872
0.278118
0.192073
0.274818
0.18351
0.351098
0.279602
0.127097
0.263747
0.321366
0.279341
0.443711
0.290737
0.381506
0.138324
0.305692
0.28704
0.261644
0.269343
0.322022
0.308751
0.321078
0.266589
0.271189
0.293887
0.403637
0.276121
0.399061
0.358822
0.290818
0.286501
0.29015
0.323404
0.28994
0.270143
0.308558
0.333057
0.387904
0.290197
0.28638
0.425183
0.419288
0.276238
0.290857
0.117375
0.342096
0.227696
0.319711
0.126308
0.131127
0.117237
0.119133
0.126415
0.13308
0.13719
0.36585
0.275221
0.26969
0.305563
0.296235
0.292435
0.314739
0.28602
0.292415
0.310843
0.291342
0.368819
0.261086
0.378866
0.289131
0.277605
0.291624
0.32279
0.329025
0.304725
0.351082
0.326062
0.300418
0.213994
0.303888
0.29889
0.328308
0.305337
0.288546
0.275062
0.304092
0.319122
0.436201
0.283333
0.42404
0.438702
0.298893
0.422903
0.322506
0.255702
0.356826
0.307347
0.22952
0.185283
0.353379
0.37717
0.313462
0.259568
0.317042
0.138212
0.309893
0.289541
0.140578
0.0597511
0.0653781
0.268677
0.283321
0.331388
0.316616
0.0311316
0.0325294
0.318211
0.321572
0.30427
0.103729
0.264751
0.315932
0.315672
0.272101
0.240304
0.107869
0.464507
0.284972
0.352194
0.357705
0.255187
0.323476
0.249499
0.275506
0.129747
0.199396
0.323836
0.327781
0.280352
0.293591
0.303687
0.320535
0.306438
0.14397
0.275801
0.301381
0.290911
0.437526
0.143867
0.233754
0.240595
0.23454
0.155631
0.155635
0.267719
0.208527
0.301901
0.153866
0.185534
0.0614184
0.0614159
0.112316
0.199645
0.134978
0.257024
0.28456
0.297836
0.337033
0.307445
0.285256
0.222236
0.127178
0.278076
0.290607
0.282463
0.144138
0.147653
0.104635
0.281973
0.285998
0.224201
0.258275
0.238735
0.223806
0.292938
0.223773
0.257228
0.251408
0.158055
0.195251
0.165319
0.310675
0.112711
0.118924
0.115944
0.294559
0.107696
0.104737
0.200935
0.0979365
0.243171
0.243525
0.100664
0.255469
0.11373
0.110994
0.127162
0.105863
0.10573
0.174215
0.126249
0.112781
0.106282
0.235832
0.272681
0.118751
0.26034
0.096081
0.264812
0.208192
0.100556
0.0864403
0.0948738
0.126467
0.225572
0.192192
0.0824449
0.09141
0.253879
0.0775882
0.0775849
0.0878743
0.0979658
0.0995917
0.127341
0.207548
0.193807
0.253791
0.077527
0.0775237
0.229266
0.084351
0.178731
0.076523
0.0783462
0.103277
0.198605
0.205605
0.218917
0.200669
0.198589
0.0438938
0.320396
0.0557557
0.0543433
0.25902
0.25725
0.0563361
0.0390584
0.0548064
0.238571
SCALARS rr_Vli float
LOOKUP_TABLE default
0.396493
0.903329
0.721428
0.942936
0.493016
0.765691
0.39204
0.937702
0.806294
1.01515
0.359842
0.940574
0.82773
0.874183
1.02415
0.859758
0.739419
0.835944
0.748821
0.732078
0.823508
0.146197
0.843766
0.777652
0.704911
0.813168
0.333356
0.71428
0.560624
0.659814
0.73125
0.579544
0.369279
0.494403
0.485915
0.495517
0.641469
0.486907
0.730507
0.415073
0.471223
0.565341
0.5654
0.802542
0.463333
0.511162
0.704684
0.713596
0.668703
0.640159
0.657332
0.509724
0.791302
0.654973
0.728518
0.336101
0.518819
0.659775
0.518802
0.798073
0.943895
0.925059
0.327847
0.652238
0.886038
0.836222
0.91303
0.7898
0.727314
1.03674
0.858529
0.849174
0.582226
0.676873
0.716993
0.38119
0.73818
0.828465
0.796448
0.562497
0.507636
0.556462
1.05354
0.508345
0.685403
0.254585
0.825103
0.689508
0.490672
0.0719443
0.567545
0.0782471
0.626368
0.600278
0.537124
0.489915
0.466229
0.891245
0.738728
0.711173
0.604236
0.57969
0.487762
0.84414
0.85811
0.772741
0.679567
0.689403
0.517772
1.02968
0.6617
0.349486
0.46707
0.923853
0.865466
0.63251
0.601626
0.387421
0.624015
0.63001
0.547977
0.998342
1.02951
0.884307
0.97289
0.763275
0.43176
0.96227
0.422263
0.544662
0.448464
0.918512
0.897139
0.901854
0.602916
0.365545
0.404191
0.660954
0.807758
0.365422
0.503553
0.778959
0.59026
0.951092
0.471543
0.776092
0.704345
0.680977
0.435262
0.556285
0.620267
0.886338
0.519996
0.802524
0.929473
0.944295
0.617874
0.518672
0.515728
0.810225
0.680229
0.515674
0.341247
0.503652
0.500942
0.867545
0.52566
0.531458
0.575712
0.512251
0.764789
0.536489
0.475028
0.597045
0.566775
0.679121
0.756473
0.728182
0.618528
0.726397
0.558775
0.841665
0.903336
0.503636
0.88481
0.503422
0.873836
0.803308
0.749937
0.763416
0.89257
0.423355
0.554586
0.515705
0.900241
0.886331
0.82174
0.894933
0.911228
0.765295
0.938449
0.629695
0.568309
1.02457
0.598488
0.930582
0.741301
0.473254
0.569215
0.928606
0.772751
0.703628
0.906466
0.889166
0.575347
0.57049
0.554217
0.788807
0.870408
1.00032
0.961049
1.04562
0.947485
1.03542
0.868741
0.907725
0.914797
0.862371
0.905959
0.833952
0.821538
0.583022
0.782821
0.915941
0.63626
0.933149
0.857235
0.99306
0.597494
0.944403
0.902787
0.586754
0.808825
0.582792
0.908885
0.829756
0.6109
0.574998
0.497318
0.572076
0.910131
0.417625
0.701506
0.572863
0.642733
0.945291
0.914999
0.286932
0.918326
0.50021
0.542275
0.940135
0.764226
0.548666
1.04891
0.596695
0.286933
0.554517
0.816006
1.01859
0.772261
0.908494
0.85085
0.446612
0.437768
0.374443
0.429893
0.6087
0.465575
0.750017
0.469399
0.807693
0.576837
0.555357
0.649568
0.604015
0.802303
0.579197
0.596038
0.263023
0.60046
0.868536
0.869156
0.787235
0.578081
0.376396
1.09289
0.734325
0.613278
0.565385
0.562973
0.583142
0.71048
0.572695
0.410206
0.565185
0.387701
0.700147
0.576617
0.245153
0.543094
0.642134
0.576638
0.887269
0.598817
0.7722
0.296229
0.619824
0.592081
0.517054
0.555834
0.655901
0.617334
0.645572
0.549028
0.557665
0.602216
0.805011
0.567889
0.804533
0.726267
0.57317
0.589147
0.594795
0.657865
0.593814
0.556012
0.631828
0.662566
0.782207
0.594671
0.590828
0.855316
0.843336
0.568318
0.573293
0.256092
0.692624
0.48064
0.650125
0.287609
0.298553
0.266806
0.271174
0.287685
0.303059
0.312314
0.729366
0.539736
0.544584
0.622624
0.60652
0.598953
0.63354
0.58615
0.599503
0.609484
0.596732
0.73268
0.542562
0.753131
0.586023
0.565718
0.597485
0.637484
0.666135
0.620613
0.71074
0.664019
0.615763
0.444053
0.619318
0.605592
0.652024
0.624657
0.591888
0.56289
0.620038
0.646743
0.877946
0.579877
0.853576
0.889769
0.609297
0.852457
0.653951
0.523858
0.713566
0.625446
0.450412
0.395674
0.70449
0.750335
0.635222
0.528067
0.635273
0.301241
0.628042
0.589285
0.300919
0.1153
0.126128
0.544022
0.580116
0.673759
0.647683
0.0592779
0.0619394
0.641419
0.648109
0.613502
0.226117
0.542822
0.631033
0.643439
0.555033
0.489894
0.235474
0.929312
0.583752
0.713256
0.724407
0.5206
0.65887
0.509007
0.561666
0.279107
0.421187
0.659654
0.66373
0.570453
0.599144
0.618277
0.651915
0.623544
0.307435
0.547113
0.616852
0.583034
0.874929
0.307375
0.47355
0.48777
0.462253
0.30052
0.30054
0.529568
0.427606
0.611556
0.329013
0.358882
0.117177
0.117177
0.245403
0.389628
0.262499
0.521068
0.563556
0.601432
0.67767
0.614677
0.569087
0.448051
0.277256
0.562566
0.582819
0.564266
0.311563
0.28793
0.224289
0.56347
0.574869
0.461957
0.521766
0.48147
0.440848
0.590114
0.44081
0.52084
0.502163
0.307818
0.380035
0.353402
0.624003
0.246789
0.259984
0.254337
0.589302
0.234985
0.230141
0.410023
0.214647
0.477133
0.477855
0.220337
0.519628
0.244579
0.243126
0.273907
0.231961
0.227744
0.339837
0.270703
0.246001
0.232681
0.475765
0.543019
0.256121
0.525125
0.211015
0.532707
0.423234
0.220458
0.186667
0.208258
0.276324
0.457482
0.376617
0.157553
0.174885
0.510003
0.148309
0.148307
0.16805
0.188631
0.21321
0.248118
0.410285
0.37977
0.510357
0.149006
0.149005
0.448522
0.184465
0.363622
0.167152
0.168154
0.221558
0.384556
0.398202
0.424222
0.388786
0.384546
0.0840112
0.620743
0.107165
0.10383
0.501453
0.497974
0.107597
0.0747338
0.105302
0.462551
SCALARS rr_S_ext' float
LOOKUP_TABLE default
-0.00384165
-0.0088173
-0.00703748
-0.00920293
-0.00481948
-0.00746915
-0.00379841
-0.00915085
-0.00786072
-0.00990854
-0.00348813
-0.00917887
-0.00807657
-0.00853317
-0.0100062
-0.00838792
-0.00721927
-0.00815723
-0.00729797
-0.00714011
-0.00803108
-0.00143187
-0.00822864
-0.00758465
-0.00687507
-0.00793579
-0.00323486
-0.00696811
-0.00545282
-0.00645506
-0.00713506
-0.00563692
-0.00358309
-0.0048351
-0.00475309
-0.00484597
-0.00627593
-0.00476248
-0.00712767
-0.00402752
-0.00458318
-0.00553123
-0.00553178
-0.00783072
-0.00449888
-0.00497229
-0.00686888
-0.00695784
-0.00652315
-0.0062235
-0.00639216
-0.00496152
-0.00773466
-0.00637552
-0.00712065
-0.0032643
-0.00507502
-0.00642225
-0.00507482
-0.00778401
-0.00921542
-0.00903632
-0.00318296
-0.00637109
-0.00865521
-0.00816424
-0.00891426
-0.00770779
-0.00709332
-0.0101197
-0.00839168
-0.00830022
-0.00566282
-0.00660975
-0.00699451
-0.00369747
-0.00721298
-0.00808847
-0.00777259
-0.00547607
-0.00493443
-0.00544077
-0.0102886
-0.00494026
-0.00666797
-0.00247221
-0.00804926
-0.00673248
-0.00476438
-0.00070442
-0.00552442
-0.000766125
-0.00612056
-0.00586015
-0.00522868
-0.00476378
-0.004532
-0.0086991
-0.00721828
-0.00693887
-0.00588644
-0.00564057
-0.00474012
-0.00823781
-0.00837489
-0.00754214
-0.00663681
-0.00672608
-0.00503172
-0.0100515
-0.00645393
-0.0033943
-0.00453784
-0.0090153
-0.0084469
-0.00615703
-0.00588501
-0.00376585
-0.00610392
-0.00613283
-0.00533969
-0.00975337
-0.0100488
-0.00863491
-0.0094975
-0.00745755
-0.00422255
-0.00939232
-0.00410464
-0.00530202
-0.00438342
-0.00896507
-0.008761
-0.00880269
-0.00586665
-0.00357568
-0.00392735
-0.00644945
-0.0078884
-0.00357446
-0.00490019
-0.00760302
-0.00575234
-0.00928308
-0.00458339
-0.00757426
-0.00687389
-0.00664282
-0.00424595
-0.00541808
-0.0060476
-0.00865138
-0.00505763
-0.00783078
-0.00907204
-0.00921678
-0.00603185
-0.00504772
-0.00501917
-0.00790582
-0.00663257
-0.00501586
-0.0033141
-0.0048977
-0.0048751
-0.0084675
-0.00511569
-0.00517207
-0.00559958
-0.00498523
-0.00747325
-0.00522219
-0.00461932
-0.0058289
-0.00551709
-0.00663231
-0.00739195
-0.00710596
-0.00604608
-0.00708956
-0.00543491
-0.00821512
-0.00881697
-0.00490105
-0.00863957
-0.0048952
-0.00853264
-0.00784547
-0.00732831
-0.00745142
-0.0087154
-0.00411559
-0.00539839
-0.00501597
-0.0087869
-0.00864874
-0.00801871
-0.00873942
-0.00889425
-0.00747161
-0.00916005
-0.00613756
-0.005533
-0.0100053
-0.00582124
-0.00908787
-0.00723745
-0.00460469
-0.00556046
-0.00906408
-0.00754932
-0.0068684
-0.00884673
-0.00868346
-0.00560385
-0.00556906
-0.0053962
-0.00770383
-0.00849697
-0.00976513
-0.00938115
-0.010207
-0.00924907
-0.0101075
-0.00847962
-0.00886832
-0.00893725
-0.0084252
-0.00885114
-0.00815122
-0.00802988
-0.00567833
-0.00764115
-0.00893893
-0.00620364
-0.00911707
-0.00837557
-0.00969172
-0.00581722
-0.00921652
-0.00881178
-0.00571518
-0.00790116
-0.0056764
-0.00887617
-0.00809746
-0.00595044
-0.00559872
-0.00483403
-0.00556093
-0.00888823
-0.00405885
-0.00684455
-0.00557774
-0.00626428
-0.00922512
-0.00893217
-0.00280739
-0.0089645
-0.00486126
-0.00527989
-0.00917501
-0.00745774
-0.00534166
-0.0102394
-0.00581527
-0.00280739
-0.00539919
-0.00796599
-0.0099458
-0.00753594
-0.00887605
-0.00830772
-0.00436542
-0.00427154
-0.00363709
-0.00417458
-0.00594881
-0.00454055
-0.00731908
-0.00457201
-0.00789016
-0.00563158
-0.00540731
-0.00634148
-0.00588446
-0.00783017
-0.00564274
-0.00580314
-0.00257454
-0.0058678
-0.00848583
-0.00849179
-0.0076841
-0.00563217
-0.00368082
-0.010671
-0.00716011
-0.00597523
-0.00550736
-0.00550192
-0.00567997
-0.00694249
-0.00557902
-0.00398311
-0.00550641
-0.00376829
-0.00683795
-0.00561643
-0.0023996
-0.00529065
-0.00627051
-0.00561616
-0.00866401
-0.00583335
-0.00753344
-0.00287565
-0.00604598
-0.00576695
-0.00505298
-0.00541366
-0.00639534
-0.00602812
-0.00630145
-0.00534838
-0.00543322
-0.00586895
-0.00786211
-0.00553274
-0.00785122
-0.00708512
-0.00560245
-0.00573995
-0.00579646
-0.00641525
-0.00578736
-0.00541669
-0.00615794
-0.00647201
-0.00763318
-0.00579543
-0.00575463
-0.0083481
-0.00823127
-0.00553676
-0.00560362
-0.00248177
-0.00675671
-0.00467198
-0.00633995
-0.00277597
-0.00288163
-0.0025753
-0.00261742
-0.00277685
-0.00292508
-0.00301451
-0.00712351
-0.00527734
-0.0053138
-0.00607068
-0.00591133
-0.00583742
-0.00618319
-0.00571234
-0.00584228
-0.0059594
-0.00581575
-0.00715773
-0.0052812
-0.00735733
-0.00571634
-0.0055158
-0.00582295
-0.00623021
-0.00649835
-0.00605133
-0.00693351
-0.0064746
-0.00600089
-0.00432288
-0.00603835
-0.00590737
-0.00636992
-0.00608849
-0.00576783
-0.00548636
-0.00604517
-0.00630866
-0.00856851
-0.00565187
-0.00833059
-0.00867881
-0.00594054
-0.00831884
-0.00637877
-0.00510543
-0.00696781
-0.00609892
-0.00440379
-0.00384204
-0.00688059
-0.00732934
-0.0061963
-0.00514951
-0.00620228
-0.0029196
-0.00612625
-0.00574625
-0.0029213
-0.00112855
-0.00123455
-0.00530704
-0.00565397
-0.00657054
-0.006313
-0.000580702
-0.000606775
-0.00625969
-0.0063248
-0.00598679
-0.00219148
-0.0052899
-0.00616246
-0.00627361
-0.00541131
-0.00477638
-0.00228185
-0.00907395
-0.00568921
-0.00695787
-0.00706665
-0.00507553
-0.00642434
-0.0049625
-0.00547621
-0.00270836
-0.00409383
-0.00643194
-0.00647478
-0.00556275
-0.00584115
-0.00602882
-0.00635733
-0.00608045
-0.00298524
-0.00534532
-0.00601219
-0.00569217
-0.00854328
-0.00298451
-0.00461952
-0.00475794
-0.00451832
-0.0029413
-0.00294149
-0.00517493
-0.00416706
-0.00596561
-0.00319439
-0.00351212
-0.00114776
-0.00114775
-0.00237787
-0.00381097
-0.00256804
-0.00508262
-0.00550667
-0.00586856
-0.00661476
-0.00600225
-0.0055578
-0.00437231
-0.00268708
-0.00548846
-0.00568982
-0.00551038
-0.00302197
-0.00281633
-0.00217711
-0.00550247
-0.00561135
-0.00449995
-0.00509107
-0.00469836
-0.00430917
-0.00575912
-0.00430877
-0.00508105
-0.00490385
-0.0030111
-0.00371769
-0.00343126
-0.00609127
-0.00239078
-0.00251897
-0.00246348
-0.0057541
-0.00227722
-0.00222878
-0.00399741
-0.00207921
-0.00466521
-0.00467225
-0.00213459
-0.00506729
-0.00237338
-0.00235521
-0.00265758
-0.00224699
-0.00220968
-0.00332404
-0.0026276
-0.00238405
-0.00225413
-0.00464257
-0.00530396
-0.00248472
-0.00512424
-0.00204363
-0.00519935
-0.00412746
-0.00213545
-0.00181071
-0.00201704
-0.00267748
-0.00446227
-0.00368268
-0.00154307
-0.00171269
-0.00497827
-0.00145251
-0.00145249
-0.00164581
-0.00184655
-0.00206983
-0.00242703
-0.00400948
-0.0037135
-0.00498134
-0.00145882
-0.0014588
-0.00438629
-0.00178725
-0.00354591
-0.00161969
-0.00163203
-0.00215044
-0.00376316
-0.00389664
-0.00415112
-0.00380441
-0.00376305
-0.00082273
-0.00607426
-0.00104918
-0.00101693
-0.00490716
-0.00487314
-0.00105385
-0.00073189
-0.00103097
-0.00452597
SCALARS rr_P_ext' float
LOOKUP_TABLE default
3.34741e-05
7.79772e-05
6.21524e-05
8.13599e-05
4.2833e-05
6.59632e-05
3.30956e-05
8.08951e-05
6.93316e-05
8.76238e-05
3.04176e-05
8.11431e-05
7.1373e-05
7.54846e-05
8.87641e-05
7.4092e-05
6.3903e-05
7.20943e-05
6.43245e-05
6.30332e-05
7.08861e-05
1.28148e-05
7.26298e-05
6.69606e-05
6.06923e-05
7.01586e-05
2.82688e-05
6.15558e-05
4.78647e-05
5.75314e-05
6.30486e-05
4.94826e-05
3.13056e-05
4.30442e-05
4.23356e-05
4.31401e-05
5.59479e-05
4.2408e-05
6.29829e-05
3.51901e-05
4.02301e-05
4.93133e-05
4.93173e-05
6.91955e-05
3.93608e-05
4.36558e-05
6.05622e-05
6.13832e-05
5.76149e-05
5.45796e-05
5.60895e-05
4.36187e-05
6.87226e-05
5.60513e-05
6.32571e-05
2.85731e-05
4.52052e-05
5.64626e-05
4.52026e-05
6.87238e-05
8.15662e-05
8.01029e-05
2.7843e-05
5.6473e-05
7.67267e-05
7.2274e-05
7.89054e-05
6.81436e-05
6.26142e-05
8.95011e-05
7.45573e-05
7.37436e-05
4.97061e-05
5.85469e-05
6.17733e-05
3.22837e-05
6.40113e-05
7.1602e-05
6.87166e-05
4.81585e-05
4.32629e-05
4.83825e-05
9.11371e-05
4.32951e-05
5.85578e-05
2.16331e-05
7.11052e-05
5.96177e-05
4.16845e-05
6.29844e-06
4.85678e-05
6.84999e-06
5.43234e-05
5.1869e-05
4.59737e-05
4.17947e-05
3.97355e-05
7.69246e-05
6.40565e-05
6.13095e-05
5.18384e-05
4.95518e-05
4.15406e-05
7.28141e-05
7.40557e-05
6.66856e-05
5.88074e-05
5.94219e-05
4.40946e-05
8.89144e-05
5.69821e-05
2.97108e-05
3.97473e-05
7.96814e-05
7.46793e-05
5.41329e-05
5.2419e-05
3.30157e-05
5.43659e-05
5.39233e-05
4.70485e-05
8.65009e-05
8.88683e-05
7.64577e-05
8.40252e-05
6.61708e-05
3.75851e-05
8.30545e-05
3.59883e-05
4.66192e-05
3.89473e-05
7.92746e-05
7.75965e-05
7.78433e-05
5.1539e-05
3.18511e-05
3.44062e-05
5.70034e-05
6.98758e-05
3.18396e-05
4.30558e-05
6.72495e-05
5.06974e-05
8.21009e-05
4.0181e-05
6.69627e-05
6.07891e-05
5.86738e-05
3.74966e-05
4.76926e-05
5.33542e-05
7.65094e-05
4.43962e-05
6.9201e-05
8.0233e-05
8.15018e-05
5.33714e-05
4.43581e-05
4.41095e-05
6.98597e-05
5.85152e-05
4.40344e-05
2.90056e-05
4.29756e-05
4.28411e-05
7.48685e-05
4.49553e-05
4.54495e-05
4.91536e-05
4.38101e-05
6.63326e-05
4.59118e-05
4.05318e-05
5.15829e-05
4.85059e-05
5.87639e-05
6.56099e-05
6.28231e-05
5.37221e-05
6.26953e-05
4.77085e-05
7.26425e-05
7.79644e-05
4.30646e-05
7.65071e-05
4.29481e-05
7.55515e-05
6.95179e-05
6.50506e-05
6.58919e-05
7.71807e-05
3.60897e-05
4.74626e-05
4.40313e-05
7.7702e-05
7.64319e-05
7.08711e-05
7.7404e-05
7.86552e-05
6.6138e-05
8.10097e-05
5.41065e-05
4.86635e-05
8.86145e-05
5.11009e-05
8.04982e-05
6.40691e-05
4.04489e-05
4.93101e-05
8.01624e-05
6.69545e-05
6.07696e-05
7.82226e-05
7.69187e-05
4.93307e-05
4.92811e-05
4.74674e-05
6.8262e-05
7.51702e-05
8.63888e-05
8.29741e-05
9.02857e-05
8.18132e-05
8.94044e-05
7.50047e-05
7.86581e-05
7.92658e-05
7.47285e-05
7.85078e-05
7.24161e-05
7.13392e-05
4.99803e-05
6.75895e-05
7.90102e-05
5.47245e-05
8.08765e-05
7.43038e-05
8.56689e-05
5.11658e-05
8.14577e-05
7.79212e-05
5.03131e-05
7.00698e-05
4.99682e-05
7.86302e-05
7.15623e-05
5.23861e-05
4.92524e-05
4.23813e-05
4.87585e-05
7.87317e-05
3.5575e-05
6.04718e-05
4.90635e-05
5.52197e-05
8.15319e-05
7.90169e-05
2.50321e-05
7.92987e-05
4.26038e-05
4.64447e-05
8.10958e-05
6.59326e-05
4.69791e-05
9.05796e-05
5.12557e-05
2.50316e-05
4.74949e-05
7.04758e-05
8.80564e-05
6.66029e-05
7.87348e-05
7.35636e-05
3.87875e-05
3.77454e-05
3.18439e-05
3.65293e-05
5.28282e-05
4.00765e-05
6.47064e-05
4.02464e-05
6.99743e-05
4.9836e-05
4.7566e-05
5.61294e-05
5.18232e-05
6.92498e-05
4.96947e-05
5.10437e-05
2.29919e-05
5.20918e-05
7.52824e-05
7.53328e-05
6.79661e-05
4.96068e-05
3.27608e-05
9.44693e-05
6.31746e-05
5.26315e-05
4.84865e-05
4.88583e-05
5.00023e-05
6.16191e-05
4.91251e-05
3.48494e-05
4.84985e-05
3.30331e-05
6.05948e-05
4.94436e-05
2.14292e-05
4.65864e-05
5.55415e-05
4.94325e-05
7.67229e-05
5.13635e-05
6.65424e-05
2.51492e-05
5.33872e-05
5.07664e-05
4.48688e-05
4.76536e-05
5.64301e-05
5.33841e-05
5.57314e-05
4.70941e-05
4.78537e-05
5.1727e-05
6.9667e-05
4.87295e-05
6.94076e-05
6.2589e-05
4.97761e-05
5.05551e-05
5.10835e-05
5.66169e-05
5.10114e-05
4.77005e-05
5.428e-05
5.73841e-05
6.74777e-05
5.10776e-05
5.06575e-05
7.38358e-05
7.28047e-05
4.87625e-05
4.97854e-05
2.16308e-05
5.96867e-05
4.09608e-05
5.59564e-05
2.40009e-05
2.49147e-05
2.22685e-05
2.26318e-05
2.40113e-05
2.52893e-05
2.60641e-05
6.3128e-05
4.6946e-05
4.69601e-05
5.35613e-05
5.21076e-05
5.14521e-05
5.46827e-05
5.03457e-05
5.14862e-05
5.30152e-05
5.12613e-05
6.3479e-05
4.643e-05
6.52356e-05
5.04841e-05
4.86635e-05
5.13216e-05
5.5329e-05
5.74033e-05
5.33943e-05
6.12486e-05
5.71302e-05
5.28848e-05
3.80147e-05
5.32744e-05
5.21751e-05
5.64945e-05
5.36777e-05
5.0824e-05
4.83646e-05
5.3328e-05
5.57167e-05
7.57813e-05
4.98232e-05
7.36748e-05
7.66355e-05
5.2408e-05
7.35486e-05
5.63275e-05
4.4998e-05
6.17008e-05
5.38207e-05
3.91673e-05
3.36156e-05
6.09737e-05
6.49856e-05
5.47258e-05
4.54433e-05
5.49016e-05
2.54514e-05
5.41053e-05
5.0707e-05
2.55504e-05
1.00774e-05
1.10246e-05
4.68794e-05
4.98379e-05
5.79918e-05
5.56564e-05
5.20147e-06
5.43494e-06
5.53344e-05
5.59188e-05
5.29286e-05
1.91036e-05
4.66173e-05
5.4583e-05
5.53425e-05
4.77294e-05
4.21363e-05
1.98863e-05
8.03528e-05
5.01441e-05
6.14585e-05
6.24199e-05
4.47672e-05
5.66833e-05
4.37701e-05
4.83078e-05
2.36661e-05
3.5888e-05
5.675e-05
5.71943e-05
4.90888e-05
5.15163e-05
5.31965e-05
5.61071e-05
5.36576e-05
2.61193e-05
4.74234e-05
5.30002e-05
5.03838e-05
7.56587e-05
2.61107e-05
4.07974e-05
4.20142e-05
4.01437e-05
2.62611e-05
2.62624e-05
4.59425e-05
3.67207e-05
5.26936e-05
2.79422e-05
3.1345e-05
1.02756e-05
1.02754e-05
2.07196e-05
3.39351e-05
2.28891e-05
4.48859e-05
4.88708e-05
5.18595e-05
5.85023e-05
5.31543e-05
4.92456e-05
3.86556e-05
2.34234e-05
4.84849e-05
5.03555e-05
4.88056e-05
2.63833e-05
2.5086e-05
1.90369e-05
4.87317e-05
4.96345e-05
3.9621e-05
4.49838e-05
4.15337e-05
3.82936e-05
5.09201e-05
3.82894e-05
4.48774e-05
4.34378e-05
2.683e-05
3.313e-05
3.00159e-05
5.3889e-05
2.08269e-05
2.19501e-05
2.14528e-05
5.09521e-05
1.98478e-05
1.94027e-05
3.52559e-05
1.81096e-05
4.14888e-05
4.15508e-05
1.85965e-05
4.47194e-05
2.074e-05
2.05155e-05
2.32168e-05
1.95717e-05
1.93039e-05
2.96034e-05
2.29731e-05
2.078e-05
1.96371e-05
4.10379e-05
4.70132e-05
2.17015e-05
4.52989e-05
1.77927e-05
4.59865e-05
3.64293e-05
1.8598e-05
1.58113e-05
1.75628e-05
2.33303e-05
3.94038e-05
3.27626e-05
1.38098e-05
1.53239e-05
4.40444e-05
1.29987e-05
1.29984e-05
1.47268e-05
1.64977e-05
1.81017e-05
2.16229e-05
3.56004e-05
3.30385e-05
4.40623e-05
1.30392e-05
1.30389e-05
3.90372e-05
1.55708e-05
3.12913e-05
1.4114e-05
1.42675e-05
1.88011e-05
3.35764e-05
3.47655e-05
3.70307e-05
3.39394e-05
3.35749e-05
7.36043e-06
5.41884e-05
9.37777e-06
9.10155e-06
4.3786e-05
4.34834e-05
9.43275e-06
6.54805e-06
9.21554e-06
4.03723e-05
SCALARS rr_S' float
LOOKUP_TABLE default
0.00374306
0.00859222
0.00685776
0.00896799
0.00469654
0.0072784
0.00370094
0.00891721
0.00765989
0.00965559
0.00339866
0.00894451
0.00787035
0.00831534
0.00975084
0.00817373
0.007035
0.00794895
0.00711147
0.00695775
0.00782594
0.00139538
0.00801845
0.00739093
0.00669948
0.00773318
0.00315194
0.00679016
0.00531328
0.00629046
0.00695287
0.00549267
0.00349124
0.00471178
0.00463188
0.00472237
0.0061159
0.00464103
0.00694567
0.00392427
0.00446589
0.00539018
0.00539072
0.00763077
0.00438361
0.00484505
0.00669337
0.0067801
0.00635655
0.00606418
0.00622856
0.00483462
0.00753734
0.00621246
0.006939
0.00318068
0.0049456
0.00625799
0.00494541
0.0075852
0.0089802
0.00880573
0.0031014
0.00620851
0.00843436
0.00795584
0.00868672
0.007511
0.00691214
0.00986132
0.00817761
0.00808848
0.0055179
0.00644105
0.00681589
0.00360267
0.00702894
0.00788201
0.00757414
0.00533603
0.0048081
0.005302
0.010026
0.00481377
0.00649736
0.00240888
0.0078437
0.00656064
0.00464231
0.000686463
0.00538312
0.000746594
0.0059644
0.00571056
0.00509496
0.00464185
0.00441598
0.00847703
0.00703411
0.00676169
0.00573597
0.00549627
0.00461875
0.00802749
0.00816107
0.0073496
0.00646743
0.00655433
0.00490288
0.00979491
0.00628909
0.00330735
0.00442162
0.00878512
0.00823125
0.00599956
0.00573493
0.00366944
0.00594826
0.00597599
0.00520323
0.0095045
0.00979232
0.00841452
0.00925507
0.00726726
0.00411486
0.00915255
0.00399956
0.00516642
0.00427159
0.0087362
0.0085374
0.00857797
0.00571656
0.00348449
0.00382677
0.00628477
0.00768707
0.0034833
0.00477483
0.00740891
0.00560534
0.00904609
0.00446605
0.00738088
0.00669839
0.00647316
0.00413752
0.00527956
0.0058931
0.00843052
0.0049282
0.00763083
0.00884044
0.00898149
0.00587788
0.0049186
0.00489078
0.00770396
0.00646314
0.00488751
0.0032292
0.00477235
0.00475039
0.00825134
0.00498483
0.00503977
0.00545628
0.00485771
0.00728257
0.00508862
0.00450109
0.00568011
0.00537599
0.00646305
0.00720335
0.00692452
0.00589185
0.00690856
0.00529583
0.0080054
0.00859188
0.00477568
0.00841905
0.00476991
0.00831486
0.00764525
0.00714133
0.0072612
0.00849294
0.00401023
0.00526032
0.00488761
0.00856258
0.00842791
0.00781397
0.00851637
0.0086672
0.0072809
0.00892621
0.00598073
0.00539151
0.00974995
0.00567227
0.00885593
0.0070527
0.00448688
0.00541857
0.00883269
0.00735668
0.00669306
0.00862086
0.00846184
0.00546059
0.0054269
0.00525822
0.00750722
0.00828007
0.00951586
0.00914167
0.00994645
0.00901297
0.00984945
0.00826314
0.00864203
0.00870921
0.00821022
0.00862529
0.00794328
0.00782502
0.00553316
0.00744609
0.00871072
0.00604516
0.00888444
0.00816186
0.00944429
0.00566846
0.00898122
0.00858684
0.00556908
0.00769953
0.00553129
0.00864964
0.00789072
0.00579832
0.00545556
0.00471027
0.00541856
0.0086614
0.00395492
0.00666977
0.00543511
0.00610421
0.0089896
0.00870416
0.00273581
0.00873567
0.00473678
0.00514487
0.00894077
0.00726732
0.00520506
0.00997798
0.00566666
0.0027358
0.00526113
0.00776265
0.00969195
0.00734353
0.00864957
0.00809566
0.00425406
0.00416248
0.00354393
0.00406763
0.00579704
0.00442457
0.00713221
0.00445513
0.00768882
0.00548783
0.00526904
0.00617961
0.00573405
0.00763026
0.00549851
0.00565474
0.0025089
0.0057181
0.00826931
0.00827511
0.00748793
0.00548821
0.00358694
0.0103987
0.00697719
0.0058225
0.00536657
0.00536155
0.00553476
0.00676536
0.00543641
0.00388106
0.00536566
0.00367181
0.00666344
0.00547285
0.00233842
0.00515541
0.00611047
0.00547257
0.00844288
0.00568424
0.00734106
0.00280196
0.00589157
0.00561952
0.00492406
0.00527526
0.00623196
0.00587427
0.00614059
0.00521166
0.00529435
0.00571897
0.00766146
0.00539133
0.00765076
0.00690419
0.00545953
0.00559324
0.00564833
0.00625137
0.00563947
0.00527824
0.00600058
0.00630685
0.00743828
0.00564733
0.00560751
0.00813498
0.00802113
0.00539523
0.00546067
0.0024181
0.00658416
0.00455237
0.006178
0.00270454
0.00280748
0.00250904
0.00255008
0.0027054
0.00284982
0.00293695
0.00694172
0.00514272
0.00517812
0.00591559
0.00576027
0.00568825
0.00602532
0.00556636
0.00569298
0.00580739
0.00566713
0.00697509
0.00514612
0.00716959
0.00557035
0.00537489
0.00567415
0.00607126
0.00633239
0.00589674
0.00675644
0.0063092
0.00584754
0.00421232
0.00588408
0.0057565
0.00620738
0.00593292
0.00562043
0.00534617
0.00589073
0.00614754
0.00834974
0.00550744
0.0081179
0.00845716
0.00578877
0.00810644
0.00621586
0.00497497
0.00678997
0.00594313
0.00429146
0.0037436
0.00670499
0.0071423
0.00603805
0.00501797
0.00604396
0.0028447
0.00596979
0.00559946
0.00284644
0.00109977
0.00120307
0.00517151
0.00550949
0.00640271
0.00615169
0.000565902
0.000591311
0.00609987
0.00616331
0.00583393
0.00213526
0.00515471
0.00600518
0.00611334
0.00527307
0.00465435
0.0022233
0.00884234
0.00554383
0.00678018
0.00688618
0.00494586
0.00626022
0.00483572
0.00533631
0.00263894
0.00398902
0.00626762
0.00630943
0.00542065
0.00569192
0.00587481
0.00619494
0.00592512
0.00290876
0.00520893
0.00585855
0.00554688
0.00832523
0.00290804
0.00450155
0.00463643
0.00440305
0.00286631
0.00286649
0.00504289
0.00406057
0.00581325
0.00311254
0.00342257
0.00111851
0.0011185
0.00231686
0.00371378
0.00250255
0.00495281
0.00536617
0.00571871
0.0064459
0.00584905
0.00541596
0.00426067
0.00261814
0.00534831
0.00554458
0.00536975
0.00294448
0.0027445
0.00212132
0.00536203
0.0054681
0.00438492
0.00496108
0.0045784
0.00419924
0.00561208
0.00419885
0.0049513
0.00477869
0.00293431
0.00362289
0.00334334
0.00593578
0.00232942
0.00245433
0.00240025
0.00560723
0.00221879
0.00217156
0.00389528
0.00202585
0.00454621
0.00455307
0.0020798
0.00493785
0.00231255
0.00229476
0.00258945
0.00218932
0.00215303
0.00323927
0.00256026
0.00232288
0.00219628
0.00452403
0.00516861
0.00242102
0.00499339
0.00199117
0.00506661
0.00402203
0.00208064
0.00176428
0.00196527
0.00260878
0.0043483
0.00358875
0.00150374
0.00166904
0.00485118
0.00141549
0.00141547
0.00160386
0.00179947
0.00201679
0.00236513
0.00390718
0.00361879
0.00485416
0.00142163
0.00142161
0.00427442
0.00174139
0.00345533
0.00157813
0.0015902
0.00209532
0.00366721
0.00379729
0.00404527
0.00370741
0.0036671
0.000801759
0.00591937
0.00102243
0.000991007
0.00478204
0.00474888
0.00102699
0.000713235
0.00100469
0.00441056
SCALARS rr_P' float
LOOKUP_TABLE default
6.51079e-05
0.00014711
0.000117573
0.000153585
8.01074e-05
0.000124788
6.43785e-05
0.000152743
0.000131497
0.000165326
5.90604e-05
0.000153211
0.000134854
0.000142349
0.000166551
0.0001401
0.000120368
0.000136183
0.00012217
0.000119334
0.000134252
2.36808e-05
0.000137555
0.000126761
0.000114907
0.000132453
5.46494e-05
0.000116396
9.16745e-05
0.000107075
0.000119139
9.47666e-05
6.05455e-05
8.02744e-05
7.88748e-05
8.0456e-05
0.000104087
7.90449e-05
0.000119019
6.80521e-05
7.7057e-05
9.17309e-05
9.17413e-05
0.000130754
7.59067e-05
8.35763e-05
0.000114948
0.000116363
0.000108977
0.000104734
0.000107512
8.32803e-05
0.000128591
0.000107009
0.000118397
5.50483e-05
8.42141e-05
0.000107793
8.4212e-05
0.000130086
0.000153659
0.000150482
5.37171e-05
0.000106106
0.000144133
0.000136124
0.000148631
0.000128646
0.000118564
0.000168833
0.000139519
0.000137999
9.52091e-05
0.000110154
0.000116847
6.25206e-05
0.000120023
0.000134862
0.000129729
9.18853e-05
8.30662e-05
9.03911e-05
0.000171445
8.32019e-05
0.000112051
4.1704e-05
0.000134455
0.000112226
8.03848e-05
1.16588e-05
9.27262e-05
1.26804e-05
0.000101838
9.77252e-05
8.77493e-05
8.01357e-05
7.62894e-05
0.000145149
0.000120113
0.000115873
9.86278e-05
9.475e-05
7.98343e-05
0.000137508
0.000139761
0.000125856
0.000110574
0.000112334
8.47474e-05
0.000167668
0.000107856
5.72402e-05
7.64699e-05
0.0001505
0.000140964
0.000103336
9.76565e-05
6.33963e-05
0.000101294
0.000102925
8.94187e-05
0.00016237
0.000167661
0.000143931
0.000158411
0.000124115
7.01061e-05
0.000156717
6.90954e-05
8.89809e-05
7.28793e-05
0.000149592
0.000146001
0.000146875
9.85451e-05
5.93347e-05
6.61684e-05
0.000107676
0.000131448
5.93152e-05
8.22968e-05
0.000126853
9.63056e-05
0.00015489
7.71644e-05
0.000126411
0.000114716
0.000110978
7.09369e-05
9.08238e-05
0.000101146
0.000144345
8.5031e-05
0.000130746
0.00015137
0.00015379
0.0001006
8.47607e-05
8.42775e-05
0.000132004
0.00011092
8.4319e-05
5.5894e-05
8.23763e-05
8.18642e-05
0.000141296
8.59031e-05
8.68518e-05
9.41413e-05
8.37108e-05
0.000124341
8.76512e-05
7.76954e-05
9.72012e-05
9.25975e-05
0.000110505
0.00012299
0.000118614
0.000100511
0.000118304
9.13711e-05
0.000137076
0.000147121
8.23093e-05
0.000144011
8.23441e-05
0.000142227
0.000130706
0.000121922
0.00012433
0.000145272
6.9268e-05
9.06065e-05
8.43281e-05
0.000146613
0.000144396
0.000133867
0.000145642
0.0001484
0.000124582
0.00015283
0.000102723
9.28292e-05
0.000166741
9.78637e-05
0.000151437
0.000120674
7.73567e-05
9.25839e-05
0.000151226
0.000125681
0.00011457
0.00014764
0.000144696
9.39332e-05
9.28843e-05
9.05196e-05
0.000128347
0.000141727
0.00016288
0.000156501
0.000170266
0.000154285
0.000168607
0.000141471
0.000147626
0.00014878
0.00014025
0.000147338
0.00013553
0.000133512
9.5192e-05
0.000127477
0.000149202
0.000103756
0.000151752
0.000139402
0.000161761
9.7594e-05
0.000153843
0.000147028
9.57922e-05
0.000131555
9.51491e-05
0.000147901
0.000135172
9.97324e-05
9.39104e-05
8.13794e-05
9.36076e-05
0.000148107
6.83494e-05
0.000114301
9.35657e-05
0.000104856
0.00015399
0.00014899
4.65547e-05
0.000149535
8.18699e-05
8.85694e-05
0.000153144
0.000124485
8.96222e-05
0.000170796
9.73516e-05
4.65551e-05
9.05675e-05
0.000132866
0.000165796
0.000125807
0.000147746
0.000138489
7.25772e-05
7.13223e-05
6.13198e-05
7.04219e-05
9.89418e-05
7.58993e-05
0.00012217
7.66359e-05
0.00013137
9.39117e-05
9.07055e-05
0.000105748
9.85888e-05
0.000130666
9.45373e-05
9.73545e-05
4.26457e-05
9.76159e-05
0.000141241
0.000141343
0.000128198
9.43496e-05
6.11202e-05
0.000177895
0.000119738
0.000100091
9.2299e-05
9.15095e-05
9.52032e-05
0.000115514
9.34842e-05
6.72017e-05
9.22462e-05
6.3447e-05
0.000113919
9.41375e-05
3.97487e-05
8.8652e-05
0.000104501
9.41499e-05
0.000144408
9.77501e-05
0.000125836
4.85428e-05
0.000101022
9.66642e-05
8.40488e-05
9.07504e-05
0.000106949
0.000100473
0.000105131
8.96217e-05
9.10183e-05
9.82545e-05
0.000130983
9.2688e-05
0.000131052
0.000118349
9.3145e-05
9.61565e-05
9.70478e-05
0.000107256
9.68789e-05
9.07565e-05
0.000103079
0.000107777
0.000127417
9.7024e-05
9.64612e-05
0.000139292
0.000137339
9.27611e-05
9.31658e-05
4.20442e-05
0.00011287
7.86496e-05
0.000105991
4.74255e-05
4.92297e-05
4.39925e-05
4.47137e-05
4.7435e-05
4.99739e-05
5.14983e-05
0.00011867
8.76649e-05
8.87226e-05
0.000101527
9.89486e-05
9.77177e-05
0.000103181
9.56342e-05
9.7817e-05
9.89918e-05
9.73556e-05
0.000119166
8.86444e-05
0.000122502
9.55086e-05
9.2249e-05
9.74814e-05
0.000103619
0.000108553
0.000101194
0.00011582
0.000108271
0.000100468
7.25394e-05
0.00010099
9.86943e-05
0.000106045
0.000101899
9.65797e-05
9.18266e-05
0.000101112
0.000105403
0.000142984
9.45985e-05
0.000139016
0.000145023
9.93584e-05
0.000138854
0.000106584
8.54685e-05
0.000116138
0.000101975
7.31621e-05
6.48206e-05
0.000114623
0.000122054
0.000103525
8.60958e-05
0.000103415
4.94515e-05
0.000102356
9.60803e-05
4.93091e-05
1.86954e-05
2.04506e-05
8.86542e-05
9.46417e-05
0.000109842
0.000105655
9.59826e-06
1.00292e-05
0.000104481
0.000105567
9.9934e-05
3.71198e-05
8.85693e-05
0.000102692
0.000104926
9.05165e-05
7.9888e-05
3.86611e-05
0.000151256
9.52391e-05
0.000116235
0.000118052
8.49019e-05
0.000107434
8.30115e-05
9.15929e-05
4.57578e-05
6.89257e-05
0.000107562
0.000108163
9.30079e-05
9.77147e-05
0.000100811
0.000106284
0.000101664
5.03647e-05
8.89704e-05
0.000100631
9.49134e-05
0.000142398
5.03575e-05
7.71753e-05
7.94985e-05
7.51203e-05
4.8731e-05
4.87345e-05
8.60915e-05
6.97713e-05
9.96637e-05
5.39071e-05
5.82054e-05
1.89772e-05
1.89772e-05
4.0295e-05
6.32529e-05
4.25981e-05
8.49242e-05
9.16292e-05
9.79851e-05
0.000110359
0.00010004
9.25985e-05
7.2983e-05
4.5515e-05
9.16696e-05
9.48853e-05
9.18284e-05
5.11034e-05
4.67383e-05
3.67575e-05
9.17019e-05
9.36135e-05
7.54118e-05
8.50099e-05
7.84297e-05
7.16365e-05
9.61168e-05
7.16307e-05
8.4878e-05
8.17198e-05
4.99596e-05
6.16771e-05
5.79014e-05
0.000101606
4.05313e-05
4.26915e-05
4.17788e-05
9.59161e-05
3.85792e-05
3.78107e-05
6.68703e-05
3.52559e-05
7.75026e-05
7.76204e-05
3.61857e-05
8.47182e-05
4.0096e-05
3.99313e-05
4.49111e-05
3.80989e-05
3.7342e-05
5.51667e-05
4.43655e-05
4.03864e-05
3.82137e-05
7.75027e-05
8.83408e-05
4.20004e-05
8.55416e-05
3.46664e-05
8.67534e-05
6.89986e-05
3.62116e-05
3.06146e-05
3.4212e-05
4.53723e-05
7.45639e-05
6.11667e-05
2.55206e-05
2.83312e-05
8.3044e-05
2.40237e-05
2.40236e-05
2.72229e-05
3.05785e-05
3.49375e-05
4.02723e-05
6.66954e-05
6.16784e-05
8.31105e-05
2.41504e-05
2.41503e-05
7.28322e-05
3.02917e-05
5.9285e-05
2.74456e-05
2.75614e-05
3.63128e-05
6.23763e-05
6.45913e-05
6.8816e-05
6.30664e-05
6.23751e-05
1.36104e-05
0.000100693
1.7369e-05
1.68181e-05
8.13361e-05
8.07708e-05
1.74277e-05
1.21071e-05
1.70665e-05
7.50372e-05
SCALARS rr_T' float
LOOKUP_TABLE default
9.8413e-05
0.000224702
0.000179417
0.000234542
0.00012273
0.000190425
9.73071e-05
0.000233238
0.000200484
0.000252516
8.93247e-05
0.000233953
0.000205874
0.000217461
0.000254877
0.000213825
0.000183955
0.00020792
0.000186174
0.000182055
0.000204787
3.64329e-05
0.000209824
0.00019339
0.000175298
0.000202264
8.27761e-05
0.000177647
0.0001393
0.000164324
0.000181875
0.000144002
9.16938e-05
0.000123107
0.000121002
0.000123384
0.00015976
0.000121244
0.00018169
0.000103065
0.000117086
0.000140802
0.000140816
0.000199606
0.00011507
0.000127014
0.00017521
0.000177441
0.000166307
0.000159041
0.000163321
0.000126682
0.000196976
0.000162781
0.000181343
8.34781e-05
0.000129197
0.000163975
0.000129192
0.000198469
0.000234822
0.00023019
8.14203e-05
0.0001623
0.000220481
0.000208041
0.000227146
0.000196452
0.000180867
0.000257892
0.000213709
0.00021138
0.000144667
0.000168412
0.000178315
9.46419e-05
0.000183719
0.00020611
0.000198106
0.000139804
0.000126113
0.000138535
0.000262132
0.00012628
0.000170316
6.32286e-05
0.000205208
0.000171549
0.00012186
1.79264e-05
0.000141052
1.94968e-05
0.000155894
0.000149338
0.000133494
0.000121721
0.000115826
0.000221693
0.000183854
0.000176879
0.000150208
0.000144054
0.000121167
0.000209962
0.00021345
0.000192212
0.000169091
0.000171462
0.000128621
0.000256143
0.000164556
8.68021e-05
0.000116018
0.000229787
0.000215274
0.000157199
0.000149818
9.62468e-05
0.000155392
0.000156579
0.000136233
0.000248444
0.000256089
0.000220011
0.000242021
0.00018996
0.000107506
0.00023936
0.000104904
0.000135368
0.000111635
0.000228474
0.000223214
0.000224333
0.000149827
9.10293e-05
0.000100402
0.000164397
0.000200979
9.09983e-05
0.000125138
0.00019377
0.000146751
0.000236585
0.000117144
0.000193042
0.000175205
0.000169361
0.000108248
0.000138279
0.000154235
0.000220476
0.000129205
0.000199604
0.000231206
0.000234888
0.000153707
0.000128898
0.000128167
0.000201517
0.000169145
0.000128133
8.47542e-05
0.000125137
0.000124492
0.000215794
0.000130634
0.000132075
0.000143049
0.000127302
0.000190347
0.000133334
0.000118025
0.000148529
0.000140862
0.000168979
0.000188276
0.000181126
0.000153969
0.000180689
0.000138841
0.000209359
0.000224699
0.000125159
0.00022014
0.000125078
0.000217405
0.000199881
0.000186652
0.000189896
0.000222071
0.000105177
0.000137832
0.000128139
0.000223931
0.000220449
0.000204387
0.000222664
0.000226666
0.000190393
0.000233439
0.000156561
0.00014125
0.000254918
0.000148709
0.000231537
0.000184426
0.000117604
0.000141651
0.000230991
0.000192305
0.000175039
0.000225475
0.000221234
0.000143018
0.000141922
0.000137751
0.000196272
0.000216525
0.000248842
0.000239065
0.000260106
0.000235694
0.000257569
0.000216105
0.000225896
0.000227655
0.00021461
0.000225458
0.00020759
0.0002045
0.000144924
0.000194732
0.000227821
0.000158209
0.00023223
0.00021334
0.000247005
0.000148505
0.000234898
0.000224564
0.000145855
0.000201279
0.000144869
0.000226142
0.00020638
0.000151858
0.000142917
0.000123549
0.000142122
0.000226449
0.000103746
0.000174473
0.000142385
0.000159801
0.000235118
0.000227616
7.14639e-05
0.000228442
0.00012426
0.000134783
0.000233838
0.000190091
0.000136367
0.000260928
0.000148353
7.14638e-05
0.000137826
0.000202993
0.000253417
0.00019208
0.000226092
0.000211689
0.000111174
0.000108881
9.30041e-05
0.000106768
0.00015151
0.000115777
0.000186556
0.000116682
0.000200999
0.000143501
0.000138035
0.0001616
0.000150154
0.000199573
0.000143985
0.000148144
6.55249e-05
0.000149451
0.000216152
0.000216304
0.000195828
0.00014371
9.37198e-05
0.000271897
0.000182599
0.000152461
0.000140544
0.000140127
0.000144957
0.000176829
0.000142365
0.000101876
0.000140504
9.63148e-05
0.000174214
0.000143335
6.10728e-05
0.000135007
0.000159768
0.000143336
0.000220752
0.000148858
0.000192049
7.35657e-05
0.000154145
0.000147178
0.000128696
0.000138167
0.000163099
0.000153593
0.000160587
0.000136482
0.000138634
0.000149725
0.000200306
0.000141175
0.000200116
0.000180628
0.000142676
0.00014646
0.000147877
0.000163592
0.000147637
0.00013822
0.000157089
0.000164878
0.000194561
0.000147848
0.000146867
0.000212762
0.000209783
0.000141281
0.000142706
6.35659e-05
0.00017226
0.000119405
0.00016167
7.1304e-05
7.40174e-05
6.61475e-05
6.72302e-05
7.1324e-05
7.51343e-05
7.74295e-05
0.000181486
0.00013438
0.00013545
0.000154823
0.000150797
0.000148914
0.000157593
0.00014573
0.000149047
0.000151746
0.000148362
0.000182332
0.000134843
0.000187415
0.000145743
0.000140671
0.000148548
0.000158675
0.000165671
0.000154324
0.000176766
0.000165118
0.00015309
0.000110365
0.000154
0.000150611
0.000162261
0.00015531
0.000147151
0.000139951
0.000154176
0.000160844
0.00021839
0.000144174
0.000212327
0.000221278
0.000151506
0.000212039
0.000162633
0.000130243
0.000177534
0.000155529
0.000112137
9.82675e-05
0.000175295
0.000186719
0.000157979
0.000131314
0.000158045
7.47746e-05
0.000156193
0.000146536
7.47313e-05
2.87233e-05
3.14211e-05
0.000135301
0.000144232
0.000167546
0.000161035
1.47743e-05
1.54376e-05
0.000159542
0.000161209
0.000152601
5.6127e-05
0.000134955
0.000157006
0.000159994
0.000138009
0.000121815
5.84471e-05
0.000231212
0.000145134
0.000177389
0.000180163
0.000129447
0.000163836
0.000126564
0.000139661
6.93049e-05
0.000104634
0.000164031
0.000165073
0.000141853
0.000148975
0.000153743
0.000162113
0.000155056
7.63529e-05
0.00013616
0.000153368
0.000145048
0.000217683
7.63372e-05
0.00011777
0.000121304
0.000115066
7.48633e-05
7.48681e-05
0.000131808
0.00010631
0.000152096
8.1709e-05
8.93966e-05
2.92025e-05
2.92023e-05
6.09101e-05
9.70212e-05
6.53747e-05
0.000129588
0.000140259
0.000149588
0.000168571
0.000152932
0.000141601
0.000111447
6.88203e-05
0.000139914
0.000144992
0.000140393
7.73539e-05
7.1701e-05
5.56989e-05
0.000140193
0.000143002
0.000114836
0.000129771
0.000119758
0.000109741
0.000146785
0.000109732
0.000129533
0.000124943
7.66578e-05
9.46443e-05
8.77666e-05
0.000155229
6.1253e-05
6.45309e-05
6.31232e-05
0.000146616
5.83269e-05
5.71154e-05
0.000101951
5.32741e-05
0.000118787
0.000118967
5.46883e-05
0.000129216
6.07318e-05
6.03433e-05
6.80112e-05
5.75718e-05
5.65489e-05
8.46246e-05
6.72232e-05
6.10616e-05
5.77516e-05
0.000118337
0.000135122
6.35928e-05
0.000130616
5.23693e-05
0.000132512
0.000105247
5.47157e-05
4.63463e-05
5.1686e-05
6.85848e-05
0.000113772
9.37681e-05
3.92628e-05
4.35801e-05
0.000126871
3.69588e-05
3.69583e-05
4.18777e-05
4.69953e-05
5.29483e-05
6.17889e-05
0.00010212
9.45543e-05
0.000126955
3.71257e-05
3.71253e-05
0.000111677
4.5784e-05
9.04211e-05
4.14884e-05
4.17572e-05
5.50195e-05
9.57879e-05
9.91861e-05
0.000105665
9.68392e-05
9.57851e-05
2.09348e-05
0.000154616
2.67008e-05
2.58751e-05
0.000124907
0.000124041
2.68143e-05
1.8623e-05
2.62369e-05
0.000115211
SCALARS rr_uec(SIM,_S_ext) float
LOOKUP_TABLE default
0.0278896
0.0633266
0.0505897
0.0661073
0.0345313
0.0536939
0.0275767
0.0657426
0.0565569
0.0711664
0.0253069
0.0659439
0.0580365
0.0612811
0.0717562
0.060287
0.0518276
0.0586107
0.0525337
0.051341
0.0577554
0.0102274
0.0591762
0.0545368
0.049436
0.0570106
0.0234326
0.0500865
0.0393672
0.046191
0.0512724
0.0406955
0.025959
0.0346186
0.0340206
0.0346967
0.0449051
0.0340916
0.0512204
0.0291779
0.0330897
0.0395753
0.0395796
0.056271
0.0325604
0.0358922
0.0494337
0.0500518
0.046892
0.0449618
0.0461622
0.0357805
0.0554264
0.045976
0.0510302
0.0236166
0.0363241
0.0463131
0.036323
0.0559683
0.0661608
0.0648214
0.0230402
0.0457048
0.0620868
0.0586125
0.0639966
0.0553722
0.051008
0.0726785
0.0601357
0.0594806
0.0408845
0.0474382
0.0502782
0.0268003
0.0517164
0.058069
0.0558384
0.0394821
0.0356562
0.0389708
0.0738351
0.0357095
0.0481242
0.01789
0.0578576
0.0483263
0.0344815
0.00503378
0.0398392
0.00547479
0.043882
0.0420763
0.0377026
0.0344062
0.0327475
0.0624805
0.051755
0.0498656
0.0423984
0.0406985
0.0342639
0.0591837
0.0601592
0.0541741
0.0476239
0.0483404
0.0363722
0.0721809
0.0464044
0.0245572
0.0328143
0.0647736
0.0606757
0.0443987
0.0421216
0.0272125
0.0436896
0.0442226
0.0384463
0.0699508
0.0721725
0.0619792
0.0681978
0.0534765
0.0302325
0.0674597
0.0296594
0.0382317
0.0314127
0.0643926
0.0628752
0.063224
0.042329
0.0255928
0.0283953
0.0463418
0.0566098
0.0255843
0.0353516
0.0546075
0.0414106
0.0666754
0.0331217
0.0544106
0.0493793
0.0477526
0.0305226
0.0390378
0.0435061
0.0621356
0.0365144
0.0562689
0.06516
0.0661999
0.0433113
0.0364118
0.0362048
0.0568094
0.0477112
0.0362099
0.0239788
0.0353698
0.0351673
0.0608202
0.0369025
0.0373097
0.0404267
0.0359609
0.0535791
0.037659
0.0333598
0.04185
0.0397846
0.0475933
0.0529967
0.051053
0.0433239
0.0509245
0.0392372
0.059005
0.0633286
0.0353573
0.0620144
0.0353546
0.0612454
0.0562953
0.0525378
0.053519
0.0625579
0.0297351
0.0389291
0.0362128
0.0631112
0.0621445
0.0576146
0.0627209
0.0638808
0.0536418
0.0657886
0.0441745
0.0398891
0.0718066
0.0420256
0.065218
0.0519594
0.0332266
0.0398846
0.0650982
0.0541444
0.0493239
0.06355
0.062315
0.040375
0.0399898
0.0388986
0.0552792
0.0610144
0.0701212
0.0673712
0.0732986
0.0664191
0.0725839
0.0609008
0.0636005
0.0640966
0.0604227
0.0634765
0.0584149
0.0575453
0.0409147
0.0548771
0.0642168
0.0446282
0.0653801
0.0600605
0.0696229
0.0419371
0.0662132
0.0632895
0.041175
0.0566737
0.0408976
0.0636963
0.058176
0.0428691
0.0403566
0.0349317
0.0401821
0.0637845
0.0293359
0.0491881
0.0402074
0.0450901
0.0662758
0.0641408
0.0200856
0.0643747
0.0351377
0.0380605
0.0659132
0.0535801
0.0385106
0.0735283
0.0418614
0.0200857
0.0389195
0.0572005
0.0713923
0.0541455
0.0636531
0.0596349
0.0312828
0.0306943
0.0263093
0.0302092
0.0426402
0.0326522
0.0525839
0.0329401
0.056594
0.0404335
0.0389786
0.045531
0.0423824
0.056246
0.0406409
0.0418347
0.018407
0.0420652
0.0608526
0.0608964
0.0551872
0.0405616
0.0263566
0.0766007
0.0515049
0.0430307
0.0396745
0.0394372
0.0409216
0.0497746
0.040186
0.0288267
0.039657
0.027233
0.0490655
0.0404637
0.0171564
0.0381089
0.0450035
0.0404667
0.0621858
0.0420193
0.0541479
0.0208192
0.0434662
0.0415492
0.036221
0.0390063
0.0460043
0.0432668
0.0452565
0.0385255
0.0391292
0.0422491
0.0564144
0.0398468
0.056406
0.0509269
0.0401477
0.0413382
0.0417292
0.0461397
0.0416589
0.0390146
0.0443254
0.0464271
0.0548412
0.0417199
0.0414615
0.0599611
0.0591208
0.0398774
0.0401565
0.0180125
0.0485683
0.0337601
0.0455962
0.0202665
0.0210376
0.0188001
0.0191081
0.0202714
0.0213553
0.0220071
0.0511124
0.0377978
0.0381834
0.043671
0.0425498
0.0420194
0.0444147
0.0411222
0.0420597
0.0426818
0.0418637
0.0513373
0.0380854
0.0527716
0.0410951
0.0396798
0.041917
0.0446561
0.0467108
0.0435291
0.0498384
0.0465734
0.0432001
0.0311688
0.0434394
0.0424667
0.0456854
0.0438207
0.0415264
0.0394882
0.0434909
0.0453528
0.0615487
0.04068
0.0598406
0.062397
0.0427371
0.0597655
0.0458595
0.0367515
0.0500118
0.0438667
0.0315434
0.0278054
0.0493693
0.0525772
0.0445448
0.0370365
0.0445281
0.0211872
0.0440415
0.0413307
0.0211485
0.00806911
0.0088268
0.0381481
0.0406975
0.0472536
0.0454359
0.00414623
0.0043324
0.0449698
0.0454385
0.0430129
0.0159035
0.0380832
0.044225
0.0451317
0.038932
0.034362
0.0165626
0.0651337
0.0409534
0.0500157
0.0507976
0.0365169
0.0462127
0.0357037
0.0393963
0.0196196
0.0295849
0.0462678
0.0465424
0.0400096
0.0420269
0.0433648
0.0457221
0.0437332
0.0216044
0.0383327
0.043274
0.0408669
0.0613211
0.0216007
0.0332073
0.0342055
0.0323784
0.0210321
0.0210336
0.0370989
0.0300002
0.0428845
0.0231221
0.0251183
0.00819677
0.00819675
0.0172617
0.0272805
0.0183766
0.0365404
0.0394821
0.0421696
0.0475066
0.0430805
0.0398817
0.0314129
0.0195004
0.0394473
0.0408528
0.039546
0.0219055
0.0201592
0.0157638
0.0394909
0.0402994
0.0324163
0.0365843
0.0337564
0.0308783
0.0413718
0.0308758
0.0365228
0.0351934
0.0215503
0.0266056
0.0248358
0.0437423
0.0173605
0.0182874
0.0178929
0.0413031
0.0165279
0.0161918
0.0287609
0.0151001
0.0334148
0.0334654
0.0154995
0.0364444
0.0171923
0.017103
0.0192551
0.0163178
0.0160099
0.0237938
0.0190264
0.0173025
0.0163679
0.0333569
0.038052
0.0180058
0.0368174
0.0148458
0.0373449
0.029683
0.015509
0.0131237
0.0146515
0.0194367
0.0320819
0.0263739
0.0110219
0.0122348
0.0357512
0.0103752
0.0103751
0.0117565
0.0131999
0.0149845
0.0173712
0.0287418
0.0265945
0.0357775
0.0104263
0.0104262
0.0314071
0.0129758
0.0255031
0.0117573
0.011819
0.0155724
0.0269164
0.0278718
0.0296937
0.0272131
0.0269158
0.00587745
0.0434488
0.00749851
0.00726343
0.035098
0.0348544
0.00752689
0.00522835
0.00736812
0.0323771
SCALARS rr_uec(PEX,_P_ext) float
LOOKUP_TABLE default
-0.0657365
-0.149776
-0.119615
-0.156343
-0.081745
-0.126954
-0.0649983
-0.155475
-0.133686
-0.168316
-0.0596602
-0.155951
-0.137241
-0.144943
-0.16981
-0.142551
-0.122599
-0.138603
-0.124156
-0.121381
-0.13654
-0.0242408
-0.139899
-0.128937
-0.116876
-0.134826
-0.0552693
-0.11843
-0.0929512
-0.109402
-0.121244
-0.0960882
-0.0612253
-0.0819754
-0.0805681
-0.0821601
-0.10636
-0.0807325
-0.121121
-0.0688178
-0.0781286
-0.0937377
-0.0937476
-0.133064
-0.0768195
-0.0847505
-0.116838
-0.118316
-0.110873
-0.106138
-0.108985
-0.0845125
-0.131203
-0.108595
-0.120793
-0.0557249
-0.0860239
-0.109391
-0.0860211
-0.132323
-0.156502
-0.153379
-0.0543562
-0.108144
-0.14691
-0.138649
-0.151384
-0.130952
-0.120591
-0.171896
-0.142349
-0.140798
-0.0965329
-0.112229
-0.11888
-0.0631999
-0.122394
-0.137363
-0.132054
-0.0932624
-0.0841655
-0.092265
-0.174682
-0.0842829
-0.11364
-0.0422096
-0.136805
-0.114324
-0.0813522
-0.011929
-0.0940993
-0.012974
-0.103855
-0.0995286
-0.0890556
-0.0812275
-0.0773002
-0.147772
-0.122485
-0.117915
-0.100183
-0.0961126
-0.0808702
-0.139962
-0.142278
-0.128124
-0.112676
-0.114305
-0.0858459
-0.170726
-0.109712
-0.0579441
-0.0774395
-0.153178
-0.143498
-0.104871
-0.0997538
-0.064234
-0.103466
-0.104456
-0.0908557
-0.16553
-0.170697
-0.146622
-0.161309
-0.126555
-0.0715887
-0.159548
-0.0700108
-0.0903054
-0.0743581
-0.152293
-0.14875
-0.149531
-0.0999636
-0.06061
-0.0670143
-0.109589
-0.13393
-0.0605896
-0.0834892
-0.129155
-0.0978663
-0.157695
-0.0781813
-0.128679
-0.116783
-0.112908
-0.0721678
-0.0922328
-0.102842
-0.146958
-0.0862152
-0.133061
-0.15411
-0.156568
-0.102446
-0.0859959
-0.0855079
-0.134338
-0.112784
-0.0854985
-0.0565779
-0.0835052
-0.0830564
-0.143842
-0.0871546
-0.088116
-0.0954528
-0.0849314
-0.126806
-0.0889503
-0.0787593
-0.0989927
-0.0939717
-0.112602
-0.125427
-0.120735
-0.102556
-0.120439
-0.0926448
-0.139551
-0.149777
-0.083503
-0.146706
-0.083467
-0.144886
-0.133192
-0.124344
-0.126577
-0.147992
-0.0701919
-0.0919507
-0.0855037
-0.149264
-0.146957
-0.136247
-0.148384
-0.151085
-0.126889
-0.155599
-0.104405
-0.0942262
-0.169878
-0.0992291
-0.154295
-0.122911
-0.0784655
-0.0943788
-0.153967
-0.128126
-0.116664
-0.150296
-0.147428
-0.0953933
-0.0945896
-0.0918897
-0.130788
-0.144317
-0.165857
-0.159346
-0.173368
-0.157097
-0.171678
-0.144041
-0.150506
-0.151678
-0.142986
-0.150213
-0.138274
-0.136216
-0.0966658
-0.129795
-0.151866
-0.105494
-0.154721
-0.142134
-0.164653
-0.099065
-0.156586
-0.149686
-0.0972847
-0.134107
-0.0966278
-0.150697
-0.137577
-0.101288
-0.0953353
-0.0824548
-0.0948497
-0.150904
-0.0692416
-0.116312
-0.0949813
-0.106567
-0.156733
-0.151711
-0.0475756
-0.152262
-0.0829341
-0.0899097
-0.155878
-0.126712
-0.0909692
-0.173914
-0.0989333
-0.0475756
-0.0919395
-0.135297
-0.168887
-0.128044
-0.150633
-0.141075
-0.074051
-0.0725835
-0.0620819
-0.0712753
-0.100926
-0.0771938
-0.124356
-0.0778271
-0.13392
-0.095642
-0.0920788
-0.107701
-0.100147
-0.133025
-0.0960319
-0.0988237
-0.0436114
-0.0995596
-0.144008
-0.144111
-0.130527
-0.0958469
-0.062409
-0.181206
-0.121753
-0.101683
-0.0937416
-0.0933443
-0.0966857
-0.117802
-0.0949538
-0.0680111
-0.0937086
-0.0642804
-0.116088
-0.095604
-0.0406483
-0.0900459
-0.106469
-0.0956073
-0.147113
-0.0992847
-0.128033
-0.0491139
-0.102769
-0.0981678
-0.0857306
-0.0921581
-0.10875
-0.102357
-0.107039
-0.0910297
-0.0924619
-0.0998487
-0.133475
-0.0941569
-0.133395
-0.120418
-0.095035
-0.0976816
-0.0986183
-0.109076
-0.0984557
-0.0921877
-0.104758
-0.109857
-0.129693
-0.0985976
-0.0979601
-0.141815
-0.139828
-0.0942281
-0.0950554
-0.0424589
-0.114839
-0.0796896
-0.107793
-0.0476829
-0.0494973
-0.0442339
-0.0449581
-0.0476955
-0.0502443
-0.0517787
-0.120932
-0.0894918
-0.090294
-0.103233
-0.100562
-0.0993076
-0.105043
-0.0971849
-0.0993988
-0.101056
-0.0989394
-0.121482
-0.089957
-0.124873
-0.0971645
-0.0937975
-0.0990642
-0.105699
-0.110447
-0.102899
-0.117843
-0.110096
-0.102095
-0.0736243
-0.102684
-0.100409
-0.108109
-0.10357
-0.0981361
-0.0933284
-0.102804
-0.107232
-0.145567
-0.0961448
-0.141526
-0.147526
-0.101023
-0.141341
-0.108427
-0.0868567
-0.118313
-0.103701
-0.0746812
-0.0656019
-0.116808
-0.124409
-0.105322
-0.0875549
-0.105331
-0.0499444
-0.104131
-0.0977051
-0.0498915
-0.0191177
-0.020913
-0.0902007
-0.0961845
-0.111711
-0.107387
-0.00982883
-0.0102701
-0.10635
-0.107459
-0.101721
-0.0374892
-0.090001
-0.104628
-0.106684
-0.0920259
-0.0812257
-0.0390404
-0.154084
-0.0967873
-0.11826
-0.120109
-0.0863168
-0.109242
-0.0843946
-0.0931257
-0.0462751
-0.0698324
-0.109372
-0.110049
-0.0945827
-0.0993396
-0.102512
-0.108089
-0.103385
-0.0509719
-0.0907142
-0.102275
-0.0966696
-0.145067
-0.050962
-0.0785161
-0.0808739
-0.0766443
-0.0498286
-0.049832
-0.0878054
-0.070898
-0.101398
-0.0545495
-0.0595054
-0.0194291
-0.019429
-0.0406866
-0.0646031
-0.0435243
-0.0863947
-0.0934406
-0.0997197
-0.11236
-0.101916
-0.0943574
-0.0742885
-0.0459677
-0.0932753
-0.0966339
-0.0935579
-0.051656
-0.0477409
-0.0371865
-0.093426
-0.0953157
-0.0765931
-0.0865106
-0.0798295
-0.0730953
-0.0978432
-0.0730889
-0.086357
-0.083261
-0.0510384
-0.0630125
-0.0585931
-0.103462
-0.0409164
-0.043104
-0.0421678
-0.0977089
-0.0389594
-0.0381562
-0.0679829
-0.0355874
-0.0791117
-0.0792314
-0.0365308
-0.0861558
-0.0405505
-0.040309
-0.0454129
-0.038458
-0.0377592
-0.0563474
-0.0448818
-0.0407858
-0.0385773
-0.0788835
-0.0900352
-0.042464
-0.0870677
-0.0349851
-0.0883249
-0.0701733
-0.0365507
-0.0309487
-0.034528
-0.0458131
-0.075852
-0.0624456
-0.0261238
-0.0289974
-0.0845606
-0.0245909
-0.0245907
-0.0278643
-0.0312766
-0.0353497
-0.0411398
-0.0680276
-0.0629684
-0.0846193
-0.0247065
-0.0247063
-0.0743679
-0.0305834
-0.0602896
-0.027713
-0.0278794
-0.0367337
-0.0637624
-0.066025
-0.0703392
-0.0644636
-0.0637607
-0.0139298
-0.102924
-0.0177688
-0.0172159
-0.0831448
-0.0825679
-0.0178406
-0.0123915
-0.01746
-0.0766944
SCALARS cell_type float
LOOKUP_TABLE default
0
0
0
0
0
0
0
0
0
0
0
0
0
0
0
0
0
0
0
0
0
1
0
0
0
0
0
0
0
0
0
0
0
0
0
0
0
0
0
0
0
0
0
0
0
0
0
0
0
0
0
0
0
0
0
0
0
0
0
0
0
0
0
0
0
0
0
0
0
0
0
0
0
0
0
0
0
0
0
0
0
0
0
0
0
0
0
0
0
0
0
0
0
0
0
0
0
0
0
0
0
0
0
0
0
0
0
0
0
0
0
0
0
0
0
0
0
0
0
0
0
0
0
0
0
0
0
0
0
0
0
0
0
0
0
0
0
0
0
0
0
0
0
0
0
0
0
0
0
0
0
0
0
0
0
0
0
0
0
0
0
0
0
0
0
0
0
0
0
0
0
0
0
0
0
0
0
0
0
0
0
0
0
0
0
0
0
0
0
0
0
0
0
0
0
0
0
0
0
0
0
0
0
0
0
0
0
0
0
0
0
0
0
0
0
0
0
0
0
0
0
0
0
0
0
0
0
0
0
0
0
0
0
0
0
0
0
0
0
0
0
0
0
0
0
0
0
0
0
0
0
0
0
0
0
0
0
0
0
0
0
0
0
0
0
0
0
0
0
0
0
0
0
0
0
0
0
0
0
0
0
0
0
0
0
0
0
0
0
0
0
0
0
0
0
0
0
0
0
0
0
0
0
0
0
0
0
0
0
0
0
0
0
0
0
0
0
0
0
0
0
0
0
0
0
0
0
0
0
0
0
0
0
0
0
0
0
0
0
0
0
0
0
0
0
0
0
0
0
0
2
2
2
2
2
2
2
0
0
0
0
0
0
0
0
0
0
0
0
0
0
0
0
0
0
0
0
0
0
0
0
0
0
0
0
0
0
0
0
0
0
0
0
0
0
0
0
0
0
0
0
0
0
0
0
0
0
0
0
0
0
0
0
0
0
0
1
1
0
0
0
0
0
0
0
0
0
0
0
0
0
0
0
0
0
0
0
0
0
0
0
0
0
0
0
0
0
0
0
0
0
0
0
0
0
0
0
0
0
0
0
1
1
0
0
0
0
0
0
0
0
0
0
0
0
0
0
0
0
0
0
0
0
0
0
0
0
0
0
0
0
0
0
0
0
0
0
0
0
0
0
0
0
0
0
0
0
0
0
0
0
0
0
0
0
0
0
0
0
0
0
0
0
0
0
0
0
0
1
1
0
0
0
0
0
0
0
0
0
0
0
0
0
0
0
0
0
0
0
0
0
0
0
0
0
0
0
0
0
0
0
0
0
TENSORS Lagrange_strain float
0.0305775 -0.00319889 1.09865e-08
-0.00319889 0.0133928 1.65585e-07
1.09865e-08 1.65585e-07 0.0074046

0.0292048 -0.0028013 -1.16918e-07
-0.0028013 0.0335664 -2.02513e-07
-1.16918e-07 -2.02513e-07 0.0331748

0.0300328 0.00368065 -3.42075e-08
0.00368065 0.0311819 -7.18865e-08
-3.42075e-08 -7.18865e-08 0.030479

0.0291744 -0.0039246 5.84106e-08
-0.0039246 0.032812 -1.43354e-07
5.84106e-08 -1.43354e-07 0.0330998

0.0353767 0.0026691 1.69385e-07
0.0026691 0.0380932 -3.61265e-08
1.69385e-07 -3.61265e-08 0.0353022

0.027746 -0.0023683 1.17903e-07
-0.0023683 0.033397 2.90343e-07
1.17903e-07 2.90343e-07 0.03045

0.0302713 0.00339475 2.04621e-08
0.00339475 0.0134984 -2.42636e-07
2.04621e-08 -2.42636e-07 0.00746604

0.0317661 0.00394059 -1.18373e-07
0.00394059 0.0312121 -9.05694e-08
-1.18373e-07 -9.05694e-08 0.0315718

0.0332556 0.000715788 -7.09098e-08
0.000715788 0.0262314 -5.42703e-08
-7.09098e-08 -5.42703e-08 0.0281527

0.03548 -0.000991106 -9.78732e-08
-0.000991106 0.0275631 1.17415e-07
-9.78732e-08 1.17415e-07 0.0327323

0.0280715 0.00205227 2.38473e-08
0.00205227 0.013813 2.16384e-07
2.38473e-08 2.16384e-07 0.011758

0.0279642 -0.00176645 1.06973e-09
-0.00176645 0.0350194 -8.03925e-08
1.06973e-09 -8.03925e-08 0.0315603

0.031133 0.00365832 -2.03652e-08
0.00365832 0.0313125 6.80628e-08
-2.03652e-08 6.80628e-08 0.0310906

0.02908 -0.00188062 1.40222e-07
-0.00188062 0.0348119 -1.43166e-07
1.40222e-07 -1.43166e-07 0.0325576

0.0346411 0.0044174 7.9308e-08
0.0044174 0.0343734 1.08575e-07
7.9308e-08 1.08575e-07 0.034895

0.0343412 7.31413e-05 1.89502e-08
7.31413e-05 0.027297 -6.75136e-08
1.89502e-08 -6.75136e-08 0.0307896

0.0287042 -0.00235373 2.12416e-07
-0.00235373 0.0360251 1.05584e-07
2.12416e-07 1.05584e-07 0.0334611

0.0345867 -0.00035315 4.16478e-08
-0.00035315 0.0273673 -5.74597e-08
4.16478e-08 -5.74597e-08 0.0319884

0.0269304 0.00348002 8.57924e-08
0.00348002 0.0309573 -4.03315e-08
8.57924e-08 -4.03315e-08 0.0275872

0.0338977 -0.000550911 1.32618e-07
-0.000550911 0.0264196 9.67497e-08
1.32618e-07 9.67497e-08 0.0301454

0.0266323 0.00113591 -2.78936e-08
0.00113591 0.0340468 1.54541e-07
-2.78936e-08 1.54541e-07 0.0291608

0.0452951 0.000852431 -1.63233e-07
0.000852431 0.0452669 2.71538e-07
-1.63233e-07 2.71538e-07 0.0366471

0.0336881 0.000247708 1.30045e-07
0.000247708 0.0263254 -7.55723e-08
1.30045e-07 -7.55723e-08 0.0298161

0.0293209 -0.00363354 -1.09133e-08
-0.00363354 0.0311481 -2.65722e-08
-1.09133e-08 -2.65722e-08 0.0300578

0.0337931 0.000900652 -1.1643e-08
0.000900652 0.0265066 6.68289e-09
-1.1643e-08 6.68289e-09 0.0300923

0.0285572 0.0025082 6.77231e-08
0.0025082 0.0339061 -7.08679e-08
6.77231e-08 -7.08679e-08 0.0322982

0.0286403 0.000526907 1.5591e-07
0.000526907 0.0176954 -5.75384e-08
1.5591e-07 -5.75384e-08 0.0131764

0.030926 0.00403586 7.28396e-08
0.00403586 0.0306579 -1.3961e-07
7.28396e-08 -1.3961e-07 0.0306217

0.0259348 0.00477885 1.11479e-07
0.00477885 0.025743 -1.36468e-07
1.11479e-07 -1.36468e-07 0.0211363

0.0415338 0.00136996 1.76317e-08
0.00136996 0.0383583 1.71812e-09
1.76317e-08 1.71812e-09 0.0361446

0.0344237 0.00187163 8.6859e-09
0.00187163 0.0279633 4.30222e-08
8.6859e-09 4.30222e-08 0.0310112

0.0217674 -0.00228907 -3.11732e-08
-0.00228907 0.0300043 -1.33779e-08
-3.11732e-08 -1.33779e-08 0.0211331

0.0228713 -0.00535477 -3.05121e-07
-0.00535477 0.023481 1.30629e-08
-3.05121e-07 1.30629e-08 0.0125837

0.0348399 0.000800009 9.93149e-09
0.000800009 0.0422612 -7.68726e-08
9.93149e-09 -7.68726e-08 0.0357958

0.0374601 -0.000660727 1.40312e-07
-0.000660727 0.0412089 1.31059e-07
1.40312e-07 1.31059e-07 0.0359104

0.0410811 0.00281308 1.87431e-07
0.00281308 0.0359938 -1.41642e-07
1.87431e-07 -1.41642e-07 0.0357761

0.0372609 0.000704181 1.47413e-07
0.000704181 0.0432189 6.89079e-08
1.47413e-07 6.89079e-08 0.036151

0.0402669 -0.00121944 1.59324e-08
-0.00121944 0.0378381 2.32e-08
1.59324e-08 2.32e-08 0.0358177

0.0312273 -0.00367905 -9.98004e-09
-0.00367905 0.0311356 -2.65372e-08
-9.98004e-09 -2.65372e-08 0.0309366

0.0227553 0.00528129 1.85047e-07
0.00528129 0.0237172 1.10791e-07
1.85047e-07 1.10791e-07 0.0125858

0.029773 -0.00231699 -1.26269e-07
-0.00231699 0.0220388 1.30698e-08
-1.26269e-07 1.30698e-08 0.020883

0.037626 -0.000521765 -9.70095e-08
-0.000521765 0.0430688 -1.67142e-08
-9.70095e-08 -1.67142e-08 0.0361537

0.0412466 0.00263287 -1.52429e-07
0.00263287 0.0394203 -2.88197e-08
-1.52429e-07 -2.88197e-08 0.0361362

0.0343139 -0.00161745 1.26423e-07
-0.00161745 0.0280054 1.23492e-07
1.26423e-07 1.23492e-07 0.0310952

0.0231138 -0.00552856 -2.77477e-07
-0.00552856 0.0235713 -1.82739e-08
-2.77477e-07 -1.82739e-08 0.0162222

0.0299555 -0.0023335 -2.01998e-07
-0.0023335 0.0221631 -1.24942e-07
-2.01998e-07 -1.24942e-07 0.0213525

0.0259034 0.00222856 9.31251e-08
0.00222856 0.0326672 -9.90648e-08
9.31251e-08 -9.90648e-08 0.0279259

0.0275615 0.00253004 1.83876e-07
0.00253004 0.032387 -1.86944e-07
1.83876e-07 -1.86944e-07 0.0285015

0.0341881 -0.00214139 -5.99599e-08
-0.00214139 0.0271176 -5.49152e-08
-5.99599e-08 -5.49152e-08 0.0304832

0.0229109 -0.00439468 -1.19807e-09
-0.00439468 0.0272595 -1.14108e-07
-1.19807e-09 -1.14108e-07 0.0198581

0.0295058 0.00247286 2.11411e-10
0.00247286 0.021842 -1.11675e-07
2.11411e-10 -1.11675e-07 0.0202887

0.0298843 -0.00327254 -2.40746e-08
-0.00327254 0.0245226 -1.32044e-07
-2.40746e-08 -1.32044e-07 0.0230571

0.0344858 0.00257676 1.97258e-07
0.00257676 0.0382125 4.48871e-08
1.97258e-07 4.48871e-08 0.035281

0.0287007 0.00384052 -1.82736e-07
0.00384052 0.0257896 -1.29126e-07
-1.82736e-07 -1.29126e-07 0.0231257

0.0349383 -0.00291605 1.33378e-07
-0.00291605 0.0374406 4.13654e-08
1.33378e-07 4.13654e-08 0.0351993

0.0255895 -0.00545807 1.46387e-07
-0.00545807 0.0229106 8.78639e-08
1.46387e-07 8.78639e-08 0.0158257

0.0373538 0.000745007 -9.63584e-08
0.000745007 0.0414195 -1.19662e-07
-9.63584e-08 -1.19662e-07 0.0359309

0.0231761 -0.000693559 -1.16201e-07
-0.000693559 0.0313261 -1.59521e-07
-1.16201e-07 -1.59521e-07 0.0231117

0.0410354 0.00138008 1.96772e-07
0.00138008 0.0377148 4.07926e-08
1.96772e-07 4.07926e-08 0.0359091

0.0276864 0.00280622 2.16821e-07
0.00280622 0.0327625 -7.02782e-08
2.16821e-07 -7.02782e-08 0.0302423

0.0361511 0.000785369 1.39771e-07
0.000785369 0.0281432 6.36681e-08
1.39771e-07 6.36681e-08 0.0336843

0.0362663 0.00153432 1.47702e-07
0.00153432 0.0317037 1.41271e-07
1.47702e-07 1.41271e-07 0.0342315

0.0286474 0.00405858 -1.74671e-08
0.00405858 0.0199039 2.10974e-08
-1.74671e-08 2.10974e-08 0.0137645

0.0309828 -0.000784292 -1.57176e-07
-0.000784292 0.0370963 -1.24727e-07
-1.57176e-07 -1.24727e-07 0.0338924

0.0315656 0.00124414 -7.85187e-08
0.00124414 0.036432 -2.58243e-08
-7.85187e-08 -2.58243e-08 0.0342704

0.0285593 -0.000375725 -1.65345e-08
-0.000375725 0.036968 -2.45287e-07
-1.65345e-08 -2.45287e-07 0.0326816

0.029614 0.00307083 5.88659e-08
0.00307083 0.0348034 -1.26342e-07
5.88659e-08 -1.26342e-07 0.0337201

0.0347321 0.0011226 -8.54965e-08
0.0011226 0.0278497 3.60335e-08
-8.54965e-08 3.60335e-08 0.0322199

0.0291985 -0.0037007 -8.82388e-08
-0.0037007 0.0310334 -2.94281e-08
-8.82388e-08 -2.94281e-08 0.0299207

0.0350675 -0.000236988 -1.39968e-07
-0.000236988 0.0275919 1.16689e-07
-1.39968e-07 1.16689e-07 0.0334046

0.0344606 -0.00254711 6.41928e-08
-0.00254711 0.0381433 1.27712e-07
6.41928e-08 1.27712e-07 0.035271

0.0350208 0.00284978 -1.49827e-07
0.00284978 0.0375779 5.88286e-08
-1.49827e-07 5.88286e-08 0.0352509

0.0218965 -0.00213295 1.6838e-07
-0.00213295 0.0299342 -1.24009e-07
1.6838e-07 -1.24009e-07 0.0208595

0.0347131 -0.00369189 -1.57029e-07
-0.00369189 0.0319679 7.40666e-08
-1.57029e-07 7.40666e-08 0.0330898

0.0293036 -0.00329853 1.38169e-08
-0.00329853 0.0321254 1.50681e-07
1.38169e-08 1.50681e-07 0.0304446

0.0267893 -0.00401875 1.61544e-07
-0.00401875 0.0176109 3.69056e-08
1.61544e-07 3.69056e-08 0.0127308

0.0324131 0.000418803 -1.62345e-07
0.000418803 0.0381158 -2.59525e-08
-1.62345e-07 -2.59525e-08 0.0344162

0.0345488 0.00381798 9.82223e-08
0.00381798 0.0309526 1.58156e-08
9.82223e-08 1.58156e-08 0.0326712

0.0283877 0.00258211 1.07515e-07
0.00258211 0.0341422 -8.9457e-08
1.07515e-07 -8.9457e-08 0.0322251

0.0315547 0.00103839 3.15784e-08
0.00103839 0.0228522 3.71188e-08
3.15784e-08 3.71188e-08 0.0240786

0.0271077 -0.0043608 2.88736e-07
-0.0043608 0.0237456 3.14528e-08
2.88736e-07 3.14528e-08 0.0183306

0.0362675 -0.00140234 1.17181e-07
-0.00140234 0.0387521 4.59794e-09
1.17181e-07 4.59794e-09 0.0354112

0.0315678 0.00317142 -4.27088e-08
0.00317142 0.0344123 1.10366e-07
-4.27088e-08 1.10366e-07 0.0341012

0.0273122 -0.00415832 1.77977e-07
-0.00415832 0.0221829 8.05498e-08
1.77977e-07 8.05498e-08 0.0184185

0.0303704 0.00139189 -7.96292e-08
0.00139189 0.0228388 3.91946e-08
-7.96292e-08 3.91946e-08 0.0209627

0.0186082 -0.00269838 -2.56387e-07
-0.00269838 0.0289397 -2.52592e-07
-2.56387e-07 -2.52592e-07 0.0158992

0.0272103 0.00188957 -6.15098e-08
0.00188957 0.034333 7.41185e-08
-6.15098e-08 7.41185e-08 0.0306657

0.0353929 0.00305811 -1.19461e-07
0.00305811 0.0308305 5.31461e-08
-1.19461e-07 5.31461e-08 0.0327645

0.022656 0.00538848 -3.76857e-08
0.00538848 0.0240974 -1.46906e-07
-3.76857e-08 -1.46906e-07 0.0162048

0.0459484 0.00223734 1.43146e-07
0.00223734 0.0417535 -7.05104e-08
1.43146e-07 -7.05104e-08 0.036648

0.0230898 -0.000534632 2.48911e-07
-0.000534632 0.031367 4.48628e-08
2.48911e-07 4.48628e-08 0.0230816

0.0463635 -0.0022548 -2.06932e-07
-0.0022548 0.0412982 2.3215e-07
-2.06932e-07 2.3215e-07 0.0366032

0.0370744 -0.00362429 1.64635e-07
-0.00362429 0.033501 -1.28375e-08
1.64635e-07 -1.28375e-08 0.0346312

0.035149 0.00361957 -9.60832e-08
0.00361957 0.0300145 -3.32159e-08
-9.60832e-08 -3.32159e-08 0.0324673

0.0299742 -0.00316053 -2.21729e-07
-0.00316053 0.0246999 -9.49556e-08
-2.21729e-07 -9.49556e-08 0.0232951

0.0230206 0.00403206 -1.62803e-07
0.00403206 0.0277901 2.34391e-08
-1.62803e-07 2.34391e-08 0.02039

0.0211013 -0.00137923 -4.49364e-08
-0.00137923 0.029907 2.37358e-08
-4.49364e-08 2.37358e-08 0.0182586

0.0287579 0.00288936 5.72333e-08
0.00288936 0.0342399 -9.84623e-08
5.72333e-08 -9.84623e-08 0.0327111

0.0370225 0.00223668 1.02468e-07
0.00223668 0.0334611 -8.47851e-08
1.02468e-07 -8.47851e-08 0.0343946

0.0281596 0.00198907 1.31985e-07
0.00198907 0.0340726 3.71452e-08
1.31985e-07 3.71452e-08 0.0308766

0.0318955 0.00207409 4.22879e-08
0.00207409 0.0252636 5.39056e-08
4.22879e-08 5.39056e-08 0.0256274

0.0239166 -0.00277574 -1.65326e-08
-0.00277574 0.0297768 -1.43535e-07
-1.65326e-08 -1.43535e-07 0.0215699

0.0279094 -0.0037656 2.94595e-07
-0.0037656 0.0218229 4.60269e-08
2.94595e-07 4.60269e-08 0.018083

0.0293437 -0.00323248 8.28527e-08
-0.00323248 0.032642 5.98609e-08
8.28527e-08 5.98609e-08 0.0324143

0.0306381 0.00361571 -2.67425e-08
0.00361571 0.0322404 5.88833e-08
-2.67425e-08 5.88833e-08 0.0323819

0.0287203 0.00304866 -1.22639e-07
0.00304866 0.0340392 -9.47953e-08
-1.22639e-07 -9.47953e-08 0.0326415

0.0292174 0.00172522 -1.2015e-07
0.00172522 0.0376278 -4.82111e-08
-1.2015e-07 -4.82111e-08 0.0338568

0.0344902 0.00123295 1.69209e-07
0.00123295 0.0275345 -2.61571e-08
1.69209e-07 -2.61571e-08 0.0306858

0.0199675 -0.000605559 -8.28161e-08
-0.000605559 0.0296723 2.50599e-07
-8.28161e-08 2.50599e-07 0.0181109

0.02981 -0.00486251 6.9692e-08
-0.00486251 0.0330614 -1.92596e-07
6.9692e-08 -1.92596e-07 0.0337528

0.0290925 0.00360154 -1.984e-07
0.00360154 0.0313718 9.37897e-08
-1.984e-07 9.37897e-08 0.0302751

0.0181114 0.000282945 -3.55757e-07
0.000282945 0.0293222 9.18103e-08
-3.55757e-07 9.18103e-08 0.0168849

0.027854 0.00442601 -1.41262e-07
0.00442601 0.0209755 -7.63166e-08
-1.41262e-07 -7.63166e-08 0.0174614

0.0292028 -0.00302126 1.77089e-07
-0.00302126 0.0327158 -1.88798e-08
1.77089e-07 -1.88798e-08 0.0321967

0.0352554 0.000759654 3.42033e-09
0.000759654 0.0273505 -1.32187e-07
3.42033e-09 -1.32187e-07 0.0325641

0.0294389 0.00352194 -2.21373e-07
0.00352194 0.0252107 -7.43893e-08
-2.21373e-07 -7.43893e-08 0.0231202

0.0396442 0.00170966 -1.24451e-07
0.00170966 0.0390449 -2.88177e-08
-1.24451e-07 -2.88177e-08 0.0359494

0.028386 0.00312502 -1.23168e-07
0.00312502 0.0224093 2.06458e-07
-1.23168e-07 2.06458e-07 0.0182935

0.0394964 -0.00175022 5.43987e-08
-0.00175022 0.0390708 3.3454e-08
5.43987e-08 3.3454e-08 0.0359147

0.0232695 0.000103595 -5.64636e-08
0.000103595 0.0315306 -1.518e-07
-5.64636e-08 -1.518e-07 0.0231285

0.032772 -0.000288706 -8.88098e-08
-0.000288706 0.0246691 -7.28377e-08
-8.88098e-08 -7.28377e-08 0.0269765

0.038064 -0.00212846 8.32822e-08
-0.00212846 0.030475 3.59798e-08
8.32822e-08 3.59798e-08 0.0348035

0.02925 0.00320598 7.78706e-08
0.00320598 0.0332901 -5.37197e-08
7.78706e-08 -5.37197e-08 0.0333541

0.0289619 -0.0017727 3.50912e-08
-0.0017727 0.0366203 -7.31609e-08
3.50912e-08 -7.31609e-08 0.0335104

0.0365951 -0.00108455 2.59644e-08
-0.00108455 0.0264892 -1.43794e-07
2.59644e-08 -1.43794e-07 0.033871

0.0311902 -0.0029249 -1.58771e-07
-0.0029249 0.0383151 -9.52576e-08
-1.58771e-07 -9.52576e-08 0.0348538

0.038172 -0.000885547 -1.50967e-07
-0.000885547 0.0387381 -3.19784e-08
-1.50967e-07 -3.19784e-08 0.0358448

0.0301916 -0.00394021 -9.67451e-08
-0.00394021 0.0327231 -1.78055e-08
-9.67451e-08 -1.78055e-08 0.0327745

0.0213401 0.00147033 1.4838e-07
0.00147033 0.0296253 3.80139e-07
1.4838e-07 3.80139e-07 0.0183026

0.0293994 -0.0036477 1.50447e-07
-0.0036477 0.0253587 2.68931e-07
1.50447e-07 2.68931e-07 0.0231908

0.0328677 -0.00181632 1.18992e-07
-0.00181632 0.0397265 3.81601e-09
1.18992e-07 3.81601e-09 0.0352507

0.035104 7.69323e-05 2.57521e-08
7.69323e-05 0.0272339 -1.30348e-07
2.57521e-08 -1.30348e-07 0.0332624

0.0308289 -0.00282873 -2.2146e-08
-0.00282873 0.0349035 2.29285e-08
-2.2146e-08 2.29285e-08 0.0340948

0.0295465 0.00338878 1.40945e-07
0.00338878 0.0328841 2.61108e-08
1.40945e-07 2.61108e-08 0.0333372

0.0264704 -0.00406546 -4.53446e-08
-0.00406546 0.0272721 -1.15256e-07
-4.53446e-08 -1.15256e-07 0.0215927

0.0371784 -0.000957291 -1.55866e-08
-0.000957291 0.0416163 -8.10981e-08
-1.55866e-08 -8.10981e-08 0.0358958

0.022719 -0.00423967 -6.02142e-08
-0.00423967 0.0272538 -1.95194e-08
-6.02142e-08 -1.95194e-08 0.0168839

0.0341957 -0.00252586 -6.14417e-08
-0.00252586 0.0286168 8.97388e-08
-6.14417e-08 8.97388e-08 0.0310553

0.0364364 0.000290474 1.2423e-08
0.000290474 0.0294485 1.00909e-07
1.2423e-08 1.00909e-07 0.0342043

0.0396481 0.00239611 3.16808e-08
0.00239611 0.0391186 4.74654e-08
3.16808e-08 4.74654e-08 0.0358768

0.0238647 0.00261069 -1.29035e-07
0.00261069 0.0301636 -3.89925e-08
-1.29035e-07 -3.89925e-08 0.0218071

0.0334423 0.00358249 8.74357e-09
0.00358249 0.0307265 -1.23571e-07
8.74357e-09 -1.23571e-07 0.0317779

0.0316556 -0.00319574 -6.98759e-08
-0.00319574 0.0265618 3.3287e-08
-6.98759e-08 3.3287e-08 0.0269454

0.0289399 -0.00234142 1.84556e-08
-0.00234142 0.0342468 -1.0927e-07
1.84556e-08 -1.0927e-07 0.0326169

0.0262543 0.00450359 1.26587e-07
0.00450359 0.0245667 -1.16902e-07
1.26587e-07 -1.16902e-07 0.018088

0.0284341 -0.00286708 -6.67607e-08
-0.00286708 0.0340448 -2.37791e-07
-6.67607e-08 -2.37791e-07 0.0324602

0.0331606 0.00405998 -4.21287e-08
0.00405998 0.0304748 3.42812e-08
-4.21287e-08 3.42812e-08 0.0315529

0.0333471 -0.0033127 -1.53809e-07
-0.0033127 0.0283673 -8.41744e-08
-1.53809e-07 -8.41744e-08 0.0300565

0.0291721 -0.00329681 1.41556e-07
-0.00329681 0.0319997 1.30465e-07
1.41556e-07 1.30465e-07 0.0304483

0.0314678 -0.00243043 3.77132e-08
-0.00243043 0.0247279 -1.23626e-07
3.77132e-08 -1.23626e-07 0.0251657

0.0329683 -0.00246787 -2.22256e-07
-0.00246787 0.0267194 1.48233e-08
-2.22256e-07 1.48233e-08 0.028607

0.0295032 -0.0033423 -6.70465e-08
-0.0033423 0.0329626 -7.49023e-08
-6.70465e-08 -7.49023e-08 0.0334186

0.026144 0.00463627 4.14768e-08
0.00463627 0.0255508 6.01289e-08
4.14768e-08 6.01289e-08 0.0211004

0.0281611 0.00201764 1.29977e-07
0.00201764 0.0343486 1.07879e-07
1.29977e-07 1.07879e-07 0.0311204

0.0308982 0.0034822 1.45063e-08
0.0034822 0.0322668 1.42151e-07
1.45063e-08 1.42151e-07 0.0326113

0.0291689 0.0033483 -4.7693e-08
0.0033483 0.0332041 6.92055e-08
-4.7693e-08 6.92055e-08 0.0332717

0.0289951 0.00152363 -1.09189e-07
0.00152363 0.0354831 9.08503e-08
-1.09189e-07 9.08503e-08 0.0327064

0.0310652 -0.00106234 -7.03049e-08
-0.00106234 0.0231498 1.1172e-07
-7.03049e-08 1.1172e-07 0.0220865

0.0238926 0.00240685 -1.67714e-07
0.00240685 0.0304226 -2.02451e-07
-1.67714e-07 -2.02451e-07 0.0221215

0.0292247 -0.00320508 2.8827e-08
-0.00320508 0.0326494 9.05547e-08
2.8827e-08 9.05547e-08 0.0316297

0.0289985 0.00335841 -2.68409e-07
0.00335841 0.0309449 1.48452e-08
-2.68409e-07 1.48452e-08 0.0285787

0.0266229 -0.00459367 1.14601e-07
-0.00459367 0.0252399 2.65947e-07
1.14601e-07 2.65947e-07 0.0212647

0.0262877 0.00489591 8.12041e-08
0.00489591 0.0209534 6.15432e-08
8.12041e-08 6.15432e-08 0.0167687

0.0235113 -0.00428922 8.58525e-08
-0.00428922 0.0274751 -1.02628e-07
8.58525e-08 -1.02628e-07 0.0206343

0.0266821 -0.00402966 -5.10474e-08
-0.00402966 0.0274932 -1.09625e-07
-5.10474e-08 -1.09625e-07 0.0220584

0.0353781 -0.000906693 3.08458e-08
-0.000906693 0.0274023 -4.90926e-08
3.08458e-08 -4.90926e-08 0.0326663

0.0260551 0.00392374 4.24484e-08
0.00392374 0.0281032 -2.95161e-08
4.24484e-08 -2.95161e-08 0.022111

0.0308007 0.00171752 7.78393e-08
0.00171752 0.0233688 -5.21714e-08
7.78393e-08 -5.21714e-08 0.0220341

0.0214384 0.00172305 -3.43233e-08
0.00172305 0.0302528 -1.77399e-07
-3.43233e-08 -1.77399e-07 0.0211409

0.0242718 -0.00289101 1.29571e-07
-0.00289101 0.0299638 -8.30728e-09
1.29571e-07 -8.30728e-09 0.0220947

0.0313557 -0.00013147 1.06388e-08
-0.00013147 0.0392834 2.22057e-07
1.06388e-08 2.22057e-07 0.0346814

0.0230667 0.000294917 -9.85481e-08
0.000294917 0.0314734 2.25868e-08
-9.85481e-08 2.25868e-08 0.0230712

0.0227853 0.00400355 -2.78814e-07
0.00400355 0.0281383 -5.58408e-08
-2.78814e-07 -5.58408e-08 0.0206461

0.0289002 0.00158606 7.03356e-08
0.00158606 0.035845 -7.4598e-08
7.03356e-08 -7.4598e-08 0.032905

0.0293277 -0.00358205 -6.18765e-08
-0.00358205 0.0251391 1.77269e-07
-6.18765e-08 1.77269e-07 0.0232488

0.0369878 0.00273322 9.14643e-08
0.00273322 0.0297345 1.79503e-07
9.14643e-08 1.79503e-07 0.0338127

0.0371851 0.00348322 -1.67996e-07
0.00348322 0.033433 2.76389e-08
-1.67996e-07 2.76389e-08 0.0346628

0.0345566 -0.00244739 -5.45078e-08
-0.00244739 0.0285407 -7.34978e-08
-5.45078e-08 -7.34978e-08 0.0313901

0.0390651 -0.000266958 1.65257e-08
-0.000266958 0.0339341 -9.13971e-08
1.65257e-08 -9.13971e-08 0.0352187

0.0314913 -0.00418839 2.24729e-08
-0.00418839 0.0317937 -5.32066e-08
2.24729e-08 -5.32066e-08 0.0321679

0.0294742 0.00300928 -1.10907e-07
0.00300928 0.0223353 2.09218e-07
-1.10907e-07 2.09218e-07 0.0210749

0.0302426 0.00397323 1.09299e-07
0.00397323 0.0326763 -3.2032e-08
1.09299e-07 -3.2032e-08 0.0327317

0.0302897 0.00384727 -1.54661e-08
0.00384727 0.0326204 3.74315e-08
-1.54661e-08 3.74315e-08 0.0326865

0.0262546 0.00396384 5.54732e-08
0.00396384 0.0277789 3.25369e-08
5.54732e-08 3.25369e-08 0.0218734

0.0344623 0.00357753 8.9686e-08
0.00357753 0.03179 2.77289e-08
8.9686e-08 2.77289e-08 0.0328427

0.030261 0.000452554 6.27609e-08
0.000452554 0.0204355 -8.35611e-08
6.27609e-08 -8.35611e-08 0.0205814

0.0331976 0.00420095 5.19505e-08
0.00420095 0.0323848 1.4591e-07
5.19505e-08 1.4591e-07 0.0334952

0.0305111 -0.00165438 -1.31499e-07
-0.00165438 0.036628 -8.09153e-08
-1.31499e-07 -8.09153e-08 0.033674

0.0373709 0.00323244 1.72052e-07
0.00323244 0.0334695 4.56099e-08
1.72052e-07 4.56099e-08 0.0346749

0.0307496 -0.00389639 -1.13547e-07
-0.00389639 0.0322859 1.70716e-08
-1.13547e-07 1.70716e-08 0.032692

0.0293842 -0.000644679 1.30466e-07
-0.000644679 0.0369154 -2.32642e-07
1.30466e-07 -2.32642e-07 0.032859

0.0288245 -0.003154 2.70652e-08
-0.003154 0.0221481 -1.22527e-07
2.70652e-08 -1.22527e-07 0.0187664

0.0290144 0.00384654 -7.87814e-08
0.00384654 0.0255879 6.31993e-08
-7.87814e-08 6.31993e-08 0.023082

0.0217093 0.00189203 -6.61015e-08
0.00189203 0.0300738 -3.45813e-08
-6.61015e-08 -3.45813e-08 0.0210923

0.0350032 -0.000161714 1.90832e-08
-0.000161714 0.027402 -4.91199e-08
1.90832e-08 -4.91199e-08 0.0333134

0.0344335 2.38529e-07 4.00118e-08
2.38529e-07 0.0272861 -6.60897e-08
4.00118e-08 -6.60897e-08 0.032053

0.0291777 0.0030408 -2.84464e-08
0.0030408 0.0326931 3.79808e-08
-2.84464e-08 3.79808e-08 0.0321445

0.0314618 0.00316667 -1.68764e-08
0.00316667 0.0342616 2.24448e-08
-1.68764e-08 2.24448e-08 0.0340695

0.0291812 -0.00320466 8.81873e-09
-0.00320466 0.0332517 9.26525e-08
8.81873e-09 9.26525e-08 0.0333908

0.0287844 -8.59239e-05 -1.33961e-07
-8.59239e-05 0.0367174 -2.36996e-07
-1.33961e-07 -2.36996e-07 0.032537

0.0294767 0.00337602 -5.9006e-08
0.00337602 0.0330875 -2.93111e-08
-5.9006e-08 -2.93111e-08 0.0333665

0.0328735 -0.00134711 -5.45764e-08
-0.00134711 0.0253718 -2.52175e-08
-5.45764e-08 -2.52175e-08 0.0278399

0.0263655 -0.00425694 -4.85212e-08
-0.00425694 0.0281914 -1.10495e-07
-4.85212e-08 -1.10495e-07 0.0242774

0.0363093 -0.000331989 1.77367e-08
-0.000331989 0.0293947 1.46066e-07
1.77367e-08 1.46066e-07 0.0340393

0.0267917 -0.00444796 1.31603e-07
-0.00444796 0.0252003 1.70373e-07
1.31603e-07 1.70373e-07 0.0209576

0.0309109 0.00250712 -1.5088e-07
0.00250712 0.0350751 6.44949e-08
-1.5088e-07 6.44949e-08 0.0340791

0.0351252 -0.00349725 -4.6475e-08
-0.00349725 0.0303991 -8.54975e-08
-4.6475e-08 -8.54975e-08 0.032626

0.0305148 -0.00125055 -1.76509e-07
-0.00125055 0.022987 -1.03595e-07
-1.76509e-07 -1.03595e-07 0.021487

0.0371577 -0.00307784 -1.36076e-07
-0.00307784 0.0316637 7.02945e-08
-1.36076e-07 7.02945e-08 0.0339988

0.0349823 0.000322062 -1.71312e-08
0.000322062 0.0275673 -1.76137e-07
-1.71312e-08 -1.76137e-07 0.0334417

0.0358536 -0.00308901 1.06124e-07
-0.00308901 0.0332687 1.74145e-07
1.06124e-07 1.74145e-07 0.0341544

0.0349407 -0.00341105 1.26465e-07
-0.00341105 0.0296059 -7.90228e-08
1.26465e-07 -7.90228e-08 0.0321895

0.0349229 -0.00113427 1.36494e-07
-0.00113427 0.0278615 1.22278e-07
1.36494e-07 1.22278e-07 0.0323531

0.0315022 -0.00306279 -5.26063e-08
-0.00306279 0.0344594 -5.16862e-08
-5.26063e-08 -5.16862e-08 0.0341578

0.0292473 -0.00407327 2.34539e-07
-0.00407327 0.0269104 1.48142e-07
2.34539e-07 1.48142e-07 0.0253563

0.0350045 -0.00324461 7.54281e-08
-0.00324461 0.0299264 -2.80237e-07
7.54281e-08 -2.80237e-07 0.0322066

0.0314759 0.00140991 6.48536e-08
0.00140991 0.0233359 -5.29611e-08
6.48536e-08 -5.29611e-08 0.0244936

0.0336768 0.00348459 1.14212e-07
0.00348459 0.0334544 4.95145e-08
1.14212e-07 4.95145e-08 0.0336612

0.0299058 -0.00496654 -6.46074e-08
-0.00496654 0.0330912 -7.50321e-08
-6.46074e-08 -7.50321e-08 0.0338688

0.0300562 0.0049197 3.87434e-08
0.0049197 0.032953 -3.3549e-08
3.87434e-08 -3.3549e-08 0.0338357

0.0277017 -0.00374146 1.0169e-07
-0.00374146 0.0348191 1.76138e-07
1.0169e-07 1.76138e-07 0.0337783

0.0279393 0.0035467 9.82077e-08
0.0035467 0.0348476 -1.24647e-07
9.82077e-08 -1.24647e-07 0.0337432

0.0364417 -0.0011533 -3.86108e-08
-0.0011533 0.0263554 5.39176e-08
-3.86108e-08 5.39176e-08 0.0337695

0.0362115 0.00124722 1.20446e-07
0.00124722 0.0265767 9.34538e-08
1.20446e-07 9.34538e-08 0.0337323

0.0350474 -0.00130717 -5.15367e-08
-0.00130717 0.0284793 2.26671e-07
-5.15367e-08 2.26671e-07 0.0325874

0.034447 0.00425834 -1.29487e-07
0.00425834 0.0343006 2.03971e-08
-1.29487e-07 2.03971e-08 0.0348233

0.0343227 -0.00435599 5.07837e-08
-0.00435599 0.0342926 -1.02349e-07
5.07837e-08 -1.02349e-07 0.0348117

0.030533 0.00209326 -1.329e-07
0.00209326 0.0381749 2.88858e-08
-1.329e-07 2.88858e-08 0.0348605

0.0306759 -0.00205949 3.7737e-08
-0.00205949 0.038105 1.28939e-07
3.7737e-08 1.28939e-07 0.0348478

0.0395105 -0.000529973 8.56606e-08
-0.000529973 0.0328593 -4.50765e-08
8.56606e-08 -4.50765e-08 0.0352683

0.0397133 0.00051416 -1.11035e-07
0.00051416 0.0326319 4.57255e-09
-1.11035e-07 4.57255e-09 0.0353134

0.0239743 0.00127665 -2.08399e-07
0.00127665 0.0320166 -1.78879e-07
-2.08399e-07 -1.78879e-07 0.0251944

0.0311744 -0.00326609 -7.74005e-09
-0.00326609 0.0322532 1.29944e-07
-7.74005e-09 1.29944e-07 0.0328135

0.0277934 -0.00478509 2.55649e-08
-0.00478509 0.0333251 9.22743e-08
2.55649e-08 9.22743e-08 0.0334671

0.033373 -0.000610743 9.40491e-09
-0.000610743 0.0264138 8.80443e-08
9.40491e-09 8.80443e-08 0.0284595

0.0381979 -0.00225111 8.6735e-08
-0.00225111 0.0308058 -4.31798e-08
8.6735e-08 -4.31798e-08 0.0349035

0.0382459 0.00218317 -7.90114e-08
0.00218317 0.030919 -4.31811e-08
-7.90114e-08 -4.31811e-08 0.0349356

0.0360966 1.56188e-05 -1.60791e-07
1.56188e-05 0.0251398 7.90578e-08
-1.60791e-07 7.90578e-08 0.0334821

0.0242503 0.00303066 -5.64585e-08
0.00303066 0.0304102 9.41755e-08
-5.64585e-08 9.41755e-08 0.0242868

0.0276879 0.00475588 1.10196e-07
0.00475588 0.0333254 7.58736e-08
1.10196e-07 7.58736e-08 0.033405

0.0286875 -0.00307637 1.27216e-07
-0.00307637 0.0342737 -1.11267e-07
1.27216e-07 -1.11267e-07 0.0327642

0.0310987 0.00303726 1.54601e-07
0.00303726 0.0251565 -5.52295e-08
1.54601e-07 -5.52295e-08 0.0254774

0.0372376 0.0031663 -1.14839e-09
0.0031663 0.0315511 1.13421e-08
-1.14839e-09 1.13421e-08 0.0340867

0.0292388 -0.00406934 7.59544e-08
-0.00406934 0.0269465 -4.53357e-08
7.59544e-08 -4.53357e-08 0.0253315

0.0364135 -0.000454378 8.12316e-08
-0.000454378 0.0297029 -3.42464e-08
8.12316e-08 -3.42464e-08 0.0341423

0.0273583 -0.00449431 1.19709e-07
-0.00449431 0.0334085 -1.64215e-07
1.19709e-07 -1.64215e-07 0.0334537

0.0240472 0.00107955 -2.67157e-08
0.00107955 0.0322579 -9.07581e-08
-2.67157e-08 -9.07581e-08 0.0255162

0.0242391 0.00282811 -1.63695e-08
0.00282811 0.0307147 1.025e-07
-1.63695e-08 1.025e-07 0.0245548

0.0268031 0.00459667 -1.02762e-07
0.00459667 0.0240509 -1.48975e-07
-1.02762e-07 -1.48975e-07 0.0182209

0.0298633 0.000199999 -1.48194e-07
0.000199999 0.0200954 -1.45493e-07
-1.48194e-07 -1.45493e-07 0.0193702

0.0319208 -0.00302437 1.33724e-07
-0.00302437 0.0341742 -1.06129e-07
1.33724e-07 -1.06129e-07 0.034047

0.0229271 0.00400161 -1.18891e-07
0.00400161 0.0276712 2.30991e-07
-1.18891e-07 2.30991e-07 0.0176602

0.0292219 0.00310191 -1.05242e-07
0.00310191 0.0327767 -7.86232e-08
-1.05242e-07 -7.86232e-08 0.031024

0.0316083 -0.000694876 2.2925e-08
-0.000694876 0.0231688 1.14451e-07
2.2925e-08 1.14451e-07 0.0244948

0.0327753 0.00146528 -1.22786e-07
0.00146528 0.0253567 6.74197e-08
-1.22786e-07 6.74197e-08 0.0276239

0.0359915 5.6255e-05 -1.49115e-09
5.6255e-05 0.024973 -8.62381e-08
-1.49115e-09 -8.62381e-08 0.0333982

0.0279794 -0.00380506 -2.99677e-08
-0.00380506 0.0349616 2.31465e-08
-2.99677e-08 2.31465e-08 0.0338276

0.0393194 -0.000843516 6.90857e-08
-0.000843516 0.0416084 -1.29923e-07
6.90857e-08 -1.29923e-07 0.0361997

0.029881 0.00493799 -1.64915e-08
0.00493799 0.0329696 2.17608e-08
-1.64915e-08 2.17608e-08 0.0337907

0.0303007 0.000214471 -9.49023e-08
0.000214471 0.0204041 -9.36185e-08
-9.49023e-08 -9.36185e-08 0.0172831

0.0266846 -0.0042527 -1.44882e-10
-0.0042527 0.0281448 -1.85023e-07
-1.44882e-10 -1.85023e-07 0.0244473

0.0277597 0.0048152 -4.42954e-08
0.0048152 0.033328 -5.51586e-08
-4.42954e-08 -5.51586e-08 0.0334672

0.0279557 -0.00145895 6.39661e-08
-0.00145895 0.0350987 -7.22963e-08
6.39661e-08 -7.22963e-08 0.0314617

0.0244747 -0.00330688 -1.85618e-07
-0.00330688 0.0300281 1.31056e-07
-1.85618e-07 1.31056e-07 0.0242269

0.0280043 0.00377909 1.44338e-08
0.00377909 0.0349223 5.37562e-08
1.44338e-08 5.37562e-08 0.0337985

0.0313746 -0.00341123 -3.03508e-08
-0.00341123 0.0270195 1.22457e-07
-3.03508e-08 1.22457e-07 0.0270021

0.0402861 0.00140937 2.17246e-07
0.00140937 0.0406219 -2.34023e-10
2.17246e-07 -2.34023e-10 0.0361802

0.0258914 0.00400517 9.36803e-08
0.00400517 0.0289667 6.51377e-08
9.36803e-08 6.51377e-08 0.024521

0.0366898 0.00110254 9.23572e-08
0.00110254 0.026366 -2.15698e-08
9.23572e-08 -2.15698e-08 0.0339094

0.0333536 0.00398449 -7.05038e-08
0.00398449 0.0321281 6.36929e-08
-7.05038e-08 6.36929e-08 0.0333271

0.0292405 0.00306817 -1.56095e-07
0.00306817 0.0326187 -4.06203e-08
-1.56095e-07 -4.06203e-08 0.0321697

0.034375 -0.0043098 9.83724e-08
-0.0043098 0.0345159 -5.52354e-08
9.83724e-08 -5.52354e-08 0.0348958

0.0355009 -0.00306467 -4.65437e-08
-0.00306467 0.0306012 -8.56365e-08
-4.65437e-08 -8.56365e-08 0.0327617

0.033375 0.00138699 -2.31107e-07
0.00138699 0.0395868 1.60349e-09
-2.31107e-07 1.60349e-09 0.035013

0.029209 -0.00307999 1.32976e-07
-0.00307999 0.0328876 5.12744e-08
1.32976e-07 5.12744e-08 0.0313952

0.0292766 -0.00123293 1.52319e-07
-0.00123293 0.0192937 -5.56814e-08
1.52319e-07 -5.56814e-08 0.0164188

0.0287904 -0.00183318 -5.31801e-08
-0.00183318 0.0184202 -6.93767e-09
-5.31801e-08 -6.93767e-09 0.0162036

0.0385385 0.00220312 8.35664e-08
0.00220312 0.0332488 2.10626e-07
8.35664e-08 2.10626e-07 0.0347735

0.0280677 0.0029464 5.90504e-08
0.0029464 0.032349 8.19473e-08
5.90504e-08 8.19473e-08 0.0295298

0.0320795 0.00383566 -1.837e-07
0.00383566 0.0309724 -7.50188e-09
-1.837e-07 -7.50188e-09 0.0314661

0.0320638 8.98349e-05 9.40789e-08
8.98349e-05 0.0245866 -9.51995e-08
9.40789e-08 -9.51995e-08 0.0248982

0.0302477 0.000865666 2.4925e-07
0.000865666 0.0385919 9.99631e-08
2.4925e-07 9.99631e-08 0.0341073

0.0354147 0.00219136 -1.20199e-07
0.00219136 0.0293346 -3.64036e-08
-1.20199e-07 -3.64036e-08 0.0328701

0.0248213 -0.0033408 1.58905e-07
-0.0033408 0.030019 -5.40116e-08
1.58905e-07 -5.40116e-08 0.0244801

0.0286612 -0.000337536 -1.34727e-08
-0.000337536 0.0366703 -2.25421e-07
-1.34727e-08 -2.25421e-07 0.0324072

0.0252255 0.00174105 1.08819e-07
0.00174105 0.0320433 -1.69444e-07
1.08819e-07 -1.69444e-07 0.0256945

0.0332932 -0.00391101 1.03123e-07
-0.00391101 0.0305081 -7.6618e-08
1.03123e-07 -7.6618e-08 0.0316039

0.0290768 -0.00389818 4.3764e-08
-0.00389818 0.0282122 -1.07583e-07
4.3764e-08 -1.07583e-07 0.0257241

0.0261599 0.00410109 1.22393e-07
0.00410109 0.0285584 1.50486e-07
1.22393e-07 1.50486e-07 0.0243282

0.0452899 -0.00201685 1.45494e-07
-0.00201685 0.0396117 -2.84862e-07
1.45494e-07 -2.84862e-07 0.0363766

0.0316769 0.000256746 2.02234e-07
0.000256746 0.0393369 5.43256e-08
2.02234e-07 5.43256e-08 0.0347799

0.0306285 0.00265034 -9.56878e-08
0.00265034 0.0384527 3.57873e-08
-9.56878e-08 3.57873e-08 0.0349686

0.0387752 0.002094 -1.31812e-07
0.002094 0.0302337 -1.4394e-07
-1.31812e-07 -1.4394e-07 0.0349534

0.0313833 -0.00345152 1.41465e-08
-0.00345152 0.0321526 2.13774e-07
1.41465e-08 2.13774e-07 0.0325846

0.0318317 0.00233726 1.02089e-07
0.00233726 0.0256307 2.20236e-08
1.02089e-07 2.20236e-08 0.0258902

0.0350014 -0.000707751 -1.20347e-07
-0.000707751 0.0415827 -2.14123e-07
-1.20347e-07 -2.14123e-07 0.0357378

0.0358011 -0.00251834 1.28248e-07
-0.00251834 0.0295619 1.41753e-07
1.28248e-07 1.41753e-07 0.0332696

0.0333112 -0.00204051 -2.15991e-07
-0.00204051 0.0266634 3.08872e-08
-2.15991e-07 3.08872e-08 0.0286867

0.0252625 0.00151186 9.95668e-08
0.00151186 0.0322883 -8.61132e-08
9.95668e-08 -8.61132e-08 0.0259607

0.0268159 -0.00334654 8.53389e-08
-0.00334654 0.0300223 1.40789e-07
8.53389e-08 1.40789e-07 0.0251977

0.0364876 -0.00336072 1.26726e-08
-0.00336072 0.0352962 -2.19038e-07
1.26726e-08 -2.19038e-07 0.0347531

0.0284875 0.00415452 -9.41486e-08
0.00415452 0.0277277 3.81545e-08
-9.41486e-08 3.81545e-08 0.0254782

0.0372548 -0.00334522 8.68313e-08
-0.00334522 0.033332 -4.51487e-08
8.68313e-08 -4.51487e-08 0.0346225

0.0322203 0.000338138 -6.72931e-09
0.000338138 0.0248725 5.68811e-08
-6.72931e-09 5.68811e-08 0.025448

0.0191678 -0.00369102 1.11283e-07
-0.00369102 0.027537 2.80864e-07
1.11283e-07 2.80864e-07 0.0163174

0.029222 -0.00380567 8.59604e-08
-0.00380567 0.0282044 -1.77567e-07
8.59604e-08 -1.77567e-07 0.0258182

0.0230545 0.00412956 -1.23016e-07
0.00412956 0.0280315 9.42581e-08
-1.23016e-07 9.42581e-08 0.0175993

0.0297015 -0.00155894 -1.74318e-07
-0.00155894 0.0375449 -1.20554e-07
-1.74318e-07 -1.20554e-07 0.0336597

0.0243697 -0.00179463 -3.79284e-08
-0.00179463 0.0318861 -2.80842e-07
-3.79284e-08 -2.80842e-07 0.0254583

0.0424423 -0.0032328 1.40149e-07
-0.0032328 0.0423793 -2.92892e-07
1.40149e-07 -2.92892e-07 0.0363849

0.0263473 0.00309275 7.02052e-08
0.00309275 0.0307149 1.02616e-07
7.02052e-08 1.02616e-07 0.0254882

0.0334886 -0.00432385 -2.25713e-07
-0.00432385 0.0326704 4.73135e-08
-2.25713e-07 4.73135e-08 0.0335777

0.02409 -0.00155171 1.4255e-07
-0.00155171 0.0319009 2.29203e-07
1.4255e-07 2.29203e-07 0.025187

0.0362348 -0.00253867 1.2347e-07
-0.00253867 0.0295226 -3.23944e-08
1.2347e-07 -3.23944e-08 0.0335307

0.0266843 0.00310649 1.59229e-07
0.00310649 0.0304072 9.08183e-08
1.59229e-07 9.08183e-08 0.0253234

0.0343568 -0.000654093 1.15616e-07
-0.000654093 0.027288 -4.70945e-08
1.15616e-07 -4.70945e-08 0.0305892

0.0188969 -0.00387306 1.26979e-07
-0.00387306 0.0298125 2.42969e-07
1.26979e-07 2.42969e-07 0.0129664

0.0280106 0.00275552 7.2929e-08
0.00275552 0.0326426 1.84106e-07
7.2929e-08 1.84106e-07 0.0305852

0.0314505 -0.00251361 6.78808e-08
-0.00251361 0.0247319 -8.77585e-08
6.78808e-08 -8.77585e-08 0.0254161

0.0391273 -0.0028694 2.05575e-07
-0.0028694 0.0322314 -2.97654e-08
2.05575e-07 -2.97654e-08 0.0349473

0.0287648 0.0041261 -1.0829e-07
0.0041261 0.0273108 1.23887e-08
-1.0829e-07 1.23887e-08 0.0252654

0.0313737 -0.00392081 -4.1614e-08
-0.00392081 0.0285529 1.39508e-07
-4.1614e-08 1.39508e-07 0.0287418

0.0354199 0.00276439 -1.02885e-07
0.00276439 0.0308662 -2.95556e-08
-1.02885e-07 -2.95556e-08 0.0330501

0.029785 -0.00370391 8.61843e-08
-0.00370391 0.0329502 -1.93317e-07
8.61843e-08 -1.93317e-07 0.0333539

0.0270658 -0.00341202 5.84669e-08
-0.00341202 0.0299948 -6.17807e-08
5.84669e-08 -6.17807e-08 0.0254074

0.0284521 0.00377325 -1.08416e-07
0.00377325 0.0289516 5.95224e-08
-1.08416e-07 5.95224e-08 0.0258974

0.0313839 0.00341494 7.17116e-08
0.00341494 0.0269096 -1.81499e-07
7.17116e-08 -1.81499e-07 0.0269762

0.0365472 -0.00194493 1.04028e-07
-0.00194493 0.0306355 -7.36856e-08
1.04028e-07 -7.36856e-08 0.0336463

0.0255434 -0.00216454 5.14611e-08
-0.00216454 0.0318148 -2.7335e-07
5.14611e-08 -2.7335e-07 0.0258637

0.0347121 -0.00231446 8.18906e-08
-0.00231446 0.0283451 2.35418e-07
8.18906e-08 2.35418e-07 0.0314669

0.0341986 0.00222376 1.26262e-08
0.00222376 0.0274422 3.54028e-08
1.26262e-08 3.54028e-08 0.0306148

0.0336528 -0.00124499 1.33054e-07
-0.00124499 0.0393092 2.20679e-07
1.33054e-07 2.20679e-07 0.0349373

0.0320851 -0.00174748 1.04069e-07
-0.00174748 0.0253399 -1.85968e-08
1.04069e-07 -1.85968e-08 0.0258811

0.0250112 7.98758e-05 -2.86936e-07
7.98758e-05 0.0331644 -5.17809e-08
-2.86936e-07 -5.17809e-08 0.0268714

0.0332601 0.00242935 -1.64534e-07
0.00242935 0.0272039 5.85581e-10
-1.64534e-07 5.85581e-10 0.0289327

0.0311301 0.00360054 1.15372e-07
0.00360054 0.0273029 -1.34998e-07
1.15372e-07 -1.34998e-07 0.0271328

0.0253049 -0.0020422 -1.35714e-07
-0.0020422 0.0318776 2.22883e-07
-1.35714e-07 2.22883e-07 0.0256209

0.0252105 -0.000154589 -4.40071e-08
-0.000154589 0.033305 -6.4413e-08
-4.40071e-08 -6.4413e-08 0.0271543

0.0354232 0.00385858 -1.97665e-09
0.00385858 0.0330048 2.17263e-07
-1.97665e-09 2.17263e-07 0.0339057

0.0275964 -0.00143148 -1.62708e-07
-0.00143148 0.0353543 1.5339e-07
-1.62708e-07 1.5339e-07 0.031453

0.0312462 -0.00348548 -1.79175e-08
-0.00348548 0.0269878 -4.89673e-08
-1.79175e-08 -4.89673e-08 0.0270199

0.0313091 0.00277396 1.16697e-07
0.00277396 0.0249313 -1.03861e-07
1.16697e-07 -1.03861e-07 0.0252558

0.034595 0.0031188 -2.08739e-08
0.0031188 0.0293971 -2.65368e-08
-2.08739e-08 -2.65368e-08 0.0318065

0.0280016 0.000717262 -4.43484e-08
0.000717262 0.0360516 4.60756e-08
-4.43484e-08 4.60756e-08 0.0318289

0.0287275 0.00378328 -1.94397e-07
0.00378328 0.0285704 1.5724e-07
-1.94397e-07 1.5724e-07 0.0257377

0.0367996 0.00305763 -5.40487e-08
0.00305763 0.0361328 -1.73369e-07
-5.40487e-08 -1.73369e-07 0.034917

0.0226878 -0.00754821 -3.12322e-07
-0.00754821 0.0186935 -1.62641e-07
-3.12322e-07 -1.62641e-07 0.0108492

0.033303 -0.00328884 -4.28766e-08
-0.00328884 0.028643 1.39593e-07
-4.28766e-08 1.39593e-07 0.0301346

0.0207339 0.000913777 8.81948e-08
0.000913777 0.0300429 2.72203e-07
8.81948e-08 2.72203e-07 0.0183534

0.031312 -0.00378321 -1.41984e-07
-0.00378321 0.0292423 -3.99079e-08
-1.41984e-07 -3.99079e-08 0.0290421

0.00153999 -0.00652059 -2.46252e-08
-0.00652059 0.0275759 1.0789e-07
-2.46252e-08 1.0789e-07 0.00290939

0.00147036 0.00637008 4.74515e-08
0.00637008 0.0275937 2.07899e-07
4.74515e-08 2.07899e-07 0.00300236

0.0119879 0.0145089 -1.07981e-07
0.0145089 0.0175373 -1.35403e-07
-1.07981e-07 -1.35403e-07 0.0027722

0.0121693 -0.0144996 1.39286e-07
-0.0144996 0.0172287 -1.74659e-07
1.39286e-07 -1.74659e-07 0.00280486

0.0293487 -0.000164148 -1.1067e-07
-0.000164148 0 0
-1.1067e-07 0 0.0029537

0.0235987 -0.0112857 -1.31254e-07
-0.0112857 0.00539695 6.32085e-08
-1.31254e-07 6.32085e-08 0.00297944

0.0236407 0.011352 -1.88124e-07
0.011352 0.00545105 -9.05959e-08
-1.88124e-07 -9.05959e-08 0.00304062

0.036922 0.00191212 1.74582e-07
0.00191212 0.0302526 5.01519e-08
1.74582e-07 5.01519e-08 0.0338883

0.0387131 0.00340944 -2.43895e-08
0.00340944 0.0366242 4.01479e-08
-2.43895e-08 4.01479e-08 0.0355881

0.0344285 0.000872965 -2.71074e-07
0.000872965 0.0274675 -6.74669e-08
-2.71074e-07 -6.74669e-08 0.0316991

0.0328852 0.00285157 -6.26259e-08
0.00285157 0.0268995 -1.82977e-07
-6.26259e-08 -1.82977e-07 0.0286569

0.0257105 0.00231444 9.98865e-08
0.00231444 0.0323802 -1.88216e-07
9.98865e-08 -1.88216e-07 0.0276461

0.030725 0.00377081 -4.40454e-09
0.00377081 0.0276871 4.23982e-08
-4.40454e-09 4.23982e-08 0.027128

0.0333174 -0.00390437 4.80881e-08
-0.00390437 0.0304771 -1.55872e-07
4.80881e-08 -1.55872e-07 0.0316409

0.0309856 0.00365624 -3.87713e-08
0.00365624 0.0272975 1.33656e-08
-3.87713e-08 1.33656e-08 0.0269355

0.0249966 -0.000371904 -2.22791e-09
-0.000371904 0.0331354 -4.26491e-08
-2.22791e-09 -4.26491e-08 0.0268536

0.0385561 -0.00348402 -1.54926e-07
-0.00348402 0.0368873 9.11994e-08
-1.54926e-07 9.11994e-08 0.0355937

0.0251852 -0.000636038 7.34255e-08
-0.000636038 0.0332235 -5.44489e-08
7.34255e-08 -5.44489e-08 0.0271131

0.0360278 0.00304826 1.39876e-07
0.00304826 0.0330214 -1.61497e-07
1.39876e-07 -1.61497e-07 0.0341085

0.029635 0.00347754 8.85605e-09
0.00347754 0.0248557 -9.74312e-08
8.85605e-09 -9.74312e-08 0.0230318

0.0305079 -0.00171407 -1.30074e-07
-0.00171407 0.0375226 -1.05709e-07
-1.30074e-07 -1.05709e-07 0.0347472

0.0339336 0.00180498 1.5159e-07
0.00180498 0.027192 3.5647e-09
1.5159e-07 3.5647e-09 0.0303316

0.0312135 -0.00392207 1.11724e-08
-0.00392207 0.0285421 -9.78146e-08
1.11724e-08 -9.78146e-08 0.0286253

0.0315964 -0.00322286 1.13048e-08
-0.00322286 0.0267021 7.2554e-09
1.13048e-08 7.2554e-09 0.0270582

0.0384888 -0.00214246 2.9439e-08
-0.00214246 0.0334265 -1.54752e-07
2.9439e-08 -1.54752e-07 0.0347552

0.0326935 0.00366546 1.17317e-07
0.00366546 0.0292431 -1.12421e-07
1.17317e-07 -1.12421e-07 0.0301661

0.0326572 0.00313896 1.05619e-07
0.00313896 0.0272629 -1.35614e-07
1.05619e-07 -1.35614e-07 0.0287989

0.0269653 -0.000365073 8.49638e-09
-0.000365073 0.0350005 2.3583e-07
8.49638e-09 2.3583e-07 0.030179

0.0259096 0.000766094 5.88509e-08
0.000766094 0.0340171 1.58132e-07
5.88509e-08 1.58132e-07 0.028834

0.0327916 0.000345607 2.489e-08
0.000345607 0.0248713 5.89129e-08
2.489e-08 5.89129e-08 0.0274545

0.0314005 -0.000945453 9.58754e-08
-0.000945453 0.0230124 -9.16928e-08
9.58754e-08 -9.16928e-08 0.0239016

0.0308928 0.00398689 5.17573e-08
0.00398689 0.0288171 1.79063e-07
5.17573e-08 1.79063e-07 0.028635

0.0331306 -0.00343283 -1.381e-07
-0.00343283 0.0285517 -9.94246e-08
-1.381e-07 -9.94246e-08 0.0299804

0.0364239 -0.00282403 -9.63655e-08
-0.00282403 0.0327427 1.06662e-07
-9.63655e-08 1.06662e-07 0.0341549

0.0292179 -0.0041296 -1.02885e-08
-0.0041296 0.0292039 -3.05949e-08
-1.02885e-08 -3.05949e-08 0.0277647

0.026983 -0.00362232 1.85494e-07
-0.00362232 0.0304773 -2.60188e-08
1.85494e-07 -2.60188e-08 0.0272241

0.0283377 0.00390148 -4.69506e-08
0.00390148 0.0299129 1.82143e-07
-4.69506e-08 1.82143e-07 0.0277628

0.0259113 -0.00124962 1.01357e-07
-0.00124962 0.0336271 -2.06233e-07
1.01357e-07 -2.06233e-07 0.0285269

0.0266649 -0.000202464 2.40977e-07
-0.000202464 0.0349263 5.07698e-08
2.40977e-07 5.07698e-08 0.029931

0.0277726 0.000752905 -7.89697e-08
0.000752905 0.0360511 4.63308e-08
-7.89697e-08 4.63308e-08 0.0316693

0.0262575 -0.002751 -4.58303e-08
-0.002751 0.0319761 -1.28623e-07
-4.58303e-08 -1.28623e-07 0.0277215

0.0345946 0.00317692 2.76065e-08
0.00317692 0.0291794 -1.17835e-07
2.76065e-08 -1.17835e-07 0.0316456

0.0339227 -0.00126159 1.77728e-07
-0.00126159 0.0269407 1.06814e-07
1.77728e-07 1.06814e-07 0.030213

0.0258003 0.000974721 -2.11336e-07
0.000974721 0.0338433 8.40017e-08
-2.11336e-07 8.40017e-08 0.0285528

0.0278345 -0.00127032 1.36504e-07
-0.00127032 0.0354101 2.14446e-07
1.36504e-07 2.14446e-07 0.0313773

0.0273037 -0.00213801 -1.43699e-07
-0.00213801 0.0336705 1.93554e-07
-1.43699e-07 1.93554e-07 0.030237

0.0327906 -0.00107769 -8.8674e-08
-0.00107769 0.0253297 -8.63763e-08
-8.8674e-08 -8.63763e-08 0.027265

0.0333269 -0.00427122 -5.92229e-09
-0.00427122 0.0323919 2.17737e-07
-5.92229e-09 2.17737e-07 0.0335404

0.0264992 0.00122059 -6.78825e-08
0.00122059 0.0338493 8.58291e-08
-6.78825e-08 8.58291e-08 0.028827

0.0398179 -0.00243222 -1.49564e-07
-0.00243222 0.0352268 -2.13481e-07
-1.49564e-07 -2.13481e-07 0.0354711

0.0188952 0.00316629 1.71325e-07
0.00316629 0.0278869 1.21872e-07
1.71325e-07 1.21872e-07 0.0162792

0.0338276 -0.00352308 -1.35979e-07
-0.00352308 0.0335049 1.0603e-08
-1.35979e-07 1.0603e-08 0.0337371

0.0353544 -0.00399973 1.23883e-08
-0.00399973 0.0330561 -1.56502e-07
1.23883e-08 -1.56502e-07 0.0339147

0.0266961 -9.01874e-05 -1.85232e-07
-9.01874e-05 0.0349315 4.09946e-08
-1.85232e-07 4.09946e-08 0.0299391

0.0332566 -0.002177 -3.81631e-08
-0.002177 0.0271638 -5.89042e-08
-3.81631e-08 -5.89042e-08 0.0289138

0.029358 0.00168497 -1.16035e-07
0.00168497 0.0358319 -6.36772e-08
-1.16035e-07 -6.36772e-08 0.0328909

0.0132113 -0.000379491 3.1316e-07
-0.000379491 0.0283725 1.93716e-07
3.1316e-07 1.93716e-07 0.0111561

0.0271241 0.00186913 -9.29376e-08
0.00186913 0.0340746 3.89233e-08
-9.29376e-08 3.89233e-08 0.0303174

0.0311214 -0.00386025 7.25534e-08
-0.00386025 0.0291658 2.59174e-08
7.25534e-08 2.59174e-08 0.0288174

0.0186259 0.00320587 1.63644e-07
0.00320587 0.0301504 1.01771e-07
1.63644e-07 1.01771e-07 0.0131319

0.0426055 0.0035164 -3.20077e-07
0.0035164 0.0418518 -8.74811e-08
-3.20077e-07 -8.74811e-08 0.0364896

0.0432095 -0.00374743 3.4595e-08
-0.00374743 0.0414213 2.22565e-07
3.4595e-08 2.22565e-07 0.0364721

0.0310771 -0.0039922 -7.04868e-08
-0.0039922 0.0304827 -1.52829e-07
-7.04868e-08 -1.52829e-07 0.0304722

0.0289333 -0.00406606 -3.62395e-08
-0.00406606 0.0291623 2.48937e-08
-3.62395e-08 2.48937e-08 0.027605

0.0330641 0.00272771 -7.54515e-10
0.00272771 0.027539 3.41831e-08
-7.54515e-10 3.41831e-08 0.0290864

0.0327931 0.00196108 -9.29011e-09
0.00196108 0.025601 1.78722e-08
-9.29011e-09 1.78722e-08 0.0278335

0.0464016 0.000418044 -2.07998e-07
0.000418044 0.0463566 8.61559e-08
-2.07998e-07 8.61559e-08 0.0367036

0.046918 -0.000950714 3.76901e-08
-0.000950714 0.0457697 5.48684e-07
3.76901e-08 5.48684e-07 0.0367747

0.0348132 0.000638476 1.20163e-08
0.000638476 0.0275845 -3.13658e-07
1.20163e-08 -3.13658e-07 0.032228

0.0277623 0.000882867 -1.05105e-07
0.000882867 0.0355833 5.95002e-08
-1.05105e-07 5.95002e-08 0.0313597

0.0276178 0.000883048 -1.75764e-07
0.000883048 0.0355834 5.74756e-08
-1.75764e-07 5.74756e-08 0.0312558

0.0234669 0.0074031 1.2729e-07
0.0074031 0.0183082 2.03913e-07
1.2729e-07 2.03913e-07 0.0109058

0.0272579 -0.00367746 3.46886e-08
-0.00367746 0.0303596 -2.63826e-08
3.46886e-08 -2.63826e-08 0.02733

0.0365791 0.00239144 1.31837e-07
0.00239144 0.0295874 1.04822e-07
1.31837e-07 1.04822e-07 0.0337954

0.0332874 0.00124824 -3.51551e-09
0.00124824 0.0265145 6.76309e-09
-3.51551e-09 6.76309e-09 0.0284426

0.0291636 -0.00349418 -7.60347e-08
-0.00349418 0.0304836 -4.782e-08
-7.60347e-08 -4.782e-08 0.028184

0.0328236 -0.00264899 4.56431e-09
-0.00264899 0.0267383 7.04494e-09
4.56431e-09 7.04494e-09 0.0285975

0.0224679 0.00761588 2.04251e-07
0.00761588 0.0185963 -1.83285e-07
2.04251e-07 -1.83285e-07 0.0109081

0.0331563 0.00410286 9.47553e-09
0.00410286 0.0326486 -1.22765e-07
9.47553e-09 -1.22765e-07 0.0331924

0.0259 -0.00257941 1.19116e-07
-0.00257941 0.0320371 -1.95625e-07
1.19116e-07 -1.95625e-07 0.027518

0.0324943 0.00378726 -9.05404e-08
0.00378726 0.0292794 1.69734e-07
-9.05404e-08 1.69734e-07 0.0301578

0.0268262 -0.000544084 -1.26731e-07
-0.000544084 0.0349654 2.22001e-07
-1.26731e-07 2.22001e-07 0.0301488

0.0270007 0.00256447 -1.03666e-07
0.00256447 0.0324615 -5.49818e-08
-1.03666e-07 -5.49818e-08 0.0282972

0.0305382 0.00399271 6.60083e-08
0.00399271 0.0293346 1.84064e-07
6.60083e-08 1.84064e-07 0.0287858

0.0276197 -0.00293871 -1.09388e-08
-0.00293871 0.0318667 -1.22495e-07
-1.09388e-08 -1.22495e-07 0.0282598

0.0294675 -0.00357742 -9.50432e-09
-0.00357742 0.0303633 -2.92587e-08
-9.50432e-09 -2.92587e-08 0.0283157

0.0181435 0.00142607 -3.60684e-07
0.00142607 0.0280466 -3.54491e-07
-3.60684e-07 -3.54491e-07 0.0131326

0.0234822 -0.00429614 -1.66476e-07
-0.00429614 0.0275667 2.88789e-07
-1.66476e-07 2.88789e-07 0.0177302

0.0262154 -0.00152675 -1.22646e-07
-0.00152675 0.0336369 2.30535e-07
-1.22646e-07 2.30535e-07 0.0287625

0.0330354 0.00347623 4.60997e-08
0.00347623 0.0288886 1.79796e-07
4.60997e-08 1.79796e-07 0.0300796

0.0303334 0.00385914 6.11078e-08
0.00385914 0.0298981 1.89655e-07
6.11078e-08 1.89655e-07 0.0290011

0.0274253 -0.00280203 9.62347e-08
-0.00280203 0.0319967 -1.97409e-07
9.62347e-08 -1.97409e-07 0.0281497

0.0265648 -0.00154148 1.1402e-07
-0.00154148 0.0335956 -2.05631e-07
1.1402e-07 -2.05631e-07 0.028757

0.0309683 0.00371979 1.51627e-07
0.00371979 0.0295751 -1.69482e-08
1.51627e-07 -1.69482e-08 0.0289518

0.0267697 -0.00181704 1.23297e-07
-0.00181704 0.0334872 2.83233e-07
1.23297e-07 2.83233e-07 0.028965

0.0191724 0.00355648 2.60546e-07
0.00355648 0.0276185 2.7344e-07
2.60546e-07 2.7344e-07 0.0162984

0.0308827 -0.000534376 -1.0022e-07
-0.000534376 0.0388289 1.72817e-07
-1.0022e-07 1.72817e-07 0.0343046

0.0286674 0.00404973 -2.77199e-07
0.00404973 0.0295301 3.09839e-08
-2.77199e-07 3.09839e-08 0.027725

0.0355917 0.00197555 -1.28283e-07
0.00197555 0.0295136 -2.09648e-08
-1.28283e-07 -2.09648e-08 0.0328535

0.0362701 -0.00211544 -3.57582e-08
-0.00211544 0.0297657 -8.94498e-08
-3.57582e-08 -8.94498e-08 0.0332286

0.0285214 -0.00309717 2.0196e-07
-0.00309717 0.0185749 1.79948e-07
2.0196e-07 1.79948e-07 0.0157359

0.0283649 -0.00279078 -1.48903e-07
-0.00279078 0.0327887 1.51335e-07
-1.48903e-07 1.51335e-07 0.0305827

0.0292024 0.00350223 5.75775e-08
0.00350223 0.0316123 -1.21125e-07
5.75775e-08 -1.21125e-07 0.0304985

0.0349695 -0.00290706 1.75184e-07
-0.00290706 0.0376827 8.82647e-08
1.75184e-07 8.82647e-08 0.035246

0.0394645 0.00188381 5.45502e-08
0.00188381 0.0446114 3.99912e-08
5.45502e-08 3.99912e-08 0.0364419

0.0449453 0.00129021 -2.4556e-07
0.00129021 0.0391217 4.78793e-08
-2.4556e-07 4.78793e-08 0.0364238

0.0355698 0.0043449 1.63373e-07
0.0043449 0.0351431 -1.44678e-07
1.63373e-07 -1.44678e-07 0.0350133

0.0265821 0.00338969 -6.79855e-08
0.00338969 0.0310185 -1.48621e-07
-6.79855e-08 -1.48621e-07 0.0272662

0.0330514 0.00349824 8.54384e-08
0.00349824 0.0286772 8.08849e-08
8.54384e-08 8.08849e-08 0.0300607

0.0220675 0.00576709 9.943e-08
0.00576709 0.0242464 -1.11804e-07
9.943e-08 -1.11804e-07 0.0160785

0.0386231 -0.00151116 -3.21901e-07
-0.00151116 0.0444346 2.10908e-07
-3.21901e-07 2.10908e-07 0.0363711

0.0460478 -0.000463826 6.98221e-07
-0.000463826 0.0454408 -2.1164e-07
6.98221e-07 -2.1164e-07 0.0366997

0.0451812 -3.1292e-05 -2.34014e-07
-3.1292e-05 0.0463009 -2.84184e-08
-2.34014e-07 -2.84184e-08 0.0366817

0.0176463 -0.00679767 4.63857e-08
-0.00679767 0.0231162 8.18074e-08
4.63857e-08 8.18074e-08 0.0107426

0.0392993 -0.00155553 -7.69755e-08
-0.00155553 0.0387203 1.29775e-07
-7.69755e-08 1.29775e-07 0.035863

0.0384017 0.00117581 1.90898e-07
0.00117581 0.0415233 1.35514e-07
1.90898e-07 1.35514e-07 0.0361341

0.0331874 -0.00343692 -5.55521e-08
-0.00343692 0.02823 9.1073e-08
-5.55521e-08 9.1073e-08 0.0299143

0.0318534 0.000139974 7.65776e-08
0.000139974 0.0386818 1.54873e-07
7.65776e-08 1.54873e-07 0.0344606

0.0285879 -0.00266129 1.83753e-08
-0.00266129 0.0333935 8.50798e-08
1.83753e-08 8.50798e-08 0.0316006

0.0356745 0.00083189 1.58738e-07
0.00083189 0.0273896 -2.03753e-07
1.58738e-07 -2.03753e-07 0.0330113

0.0288871 0.0020443 -1.11194e-07
0.0020443 0.0368274 1.11507e-07
-1.11194e-07 1.11507e-07 0.0336804

0.029879 0.00094613 3.4032e-08
0.00094613 0.0373995 -1.41524e-07
3.4032e-08 -1.41524e-07 0.033374

0.0344143 0.00268599 1.99458e-08
0.00268599 0.0288619 8.932e-08
1.99458e-08 8.932e-08 0.0312371

0.0132829 -0.000409385 -3.13732e-07
-0.000409385 0.0281328 -8.60966e-08
-3.13732e-07 -8.60966e-08 0.0112055

0.0309764 -0.00362743 4.88279e-09
-0.00362743 0.0309278 -2.57565e-09
4.88279e-09 -2.57565e-09 0.0306206

0.0329401 -0.00344453 2.00375e-08
-0.00344453 0.0320317 -5.52532e-08
2.00375e-08 -5.52532e-08 0.0325902

0.0335822 -0.00415931 -1.92565e-07
-0.00415931 0.0325463 1.75316e-07
-1.92565e-07 1.75316e-07 0.0337465

0.0265717 0.00415059 2.64413e-07
0.00415059 0.0176971 -2.91729e-08
2.64413e-07 -2.91729e-08 0.01261

0.0388351 -0.00269648 -1.07744e-07
-0.00269648 0.0395813 -2.91206e-07
-1.07744e-07 -2.91206e-07 0.0359676

0.0230905 0.00692346 1.87659e-07
0.00692346 0.0255106 6.81072e-09
1.87659e-07 6.81072e-09 0.0126143

0.0308854 -0.00281747 1.40977e-07
-0.00281747 0.0348191 1.76169e-07
1.40977e-07 1.76169e-07 0.0339672

0.0354241 0.00193653 -2.12588e-07
0.00193653 0.0284768 1.6086e-08
-2.12588e-07 1.6086e-08 0.0323556

0.0318342 -0.00189426 6.71685e-08
-0.00189426 0.02496 -4.44012e-08
6.71685e-08 -4.44012e-08 0.0254053

0.029304 0.00316003 -3.99667e-08
0.00316003 0.0327449 1.64357e-07
-3.99667e-08 1.64357e-07 0.0312909

0.03445 0.00268932 9.10331e-08
0.00268932 0.0286451 -7.94088e-08
9.10331e-08 -7.94088e-08 0.0312318

0.0325274 0.00149809 -1.6035e-07
0.00149809 0.0403814 1.19882e-08
-1.6035e-07 1.19882e-08 0.0353463

0.031952 -0.00415549 1.0276e-07
-0.00415549 0.0312134 -5.42053e-08
1.0276e-07 -5.42053e-08 0.0318218

0.0396838 0.00265522 2.38571e-08
0.00265522 0.0332071 -1.24518e-07
2.38571e-08 -1.24518e-07 0.0353257

0.0279826 -0.00241956 -9.15339e-08
-0.00241956 0.0335642 2.01876e-07
-9.15339e-08 2.01876e-07 0.0304817

0.0293612 0.000559136 3.82173e-08
0.000559136 0.0373234 -1.41066e-07
3.82173e-08 -1.41066e-07 0.0332633

0.0419488 0.00133794 -2.09582e-07
0.00133794 0.0371066 6.41569e-08
-2.09582e-07 6.41569e-08 0.0361255

0.0421022 -0.0011487 1.35798e-07
-0.0011487 0.0373326 1.21326e-07
1.35798e-07 1.21326e-07 0.0361074

0.0283942 0.0023702 -1.83968e-07
0.0023702 0.0181875 3.7706e-08
-1.83968e-07 3.7706e-08 0.015956

0.0350387 0.00106153 4.3034e-08
0.00106153 0.0285771 1.60867e-09
4.3034e-08 1.60867e-09 0.0330701

0.0128707 0.000923862 -3.03617e-07
0.000923862 0.0316358 -1.5056e-07
-3.03617e-07 -1.5056e-07 0.00612401

0.0131664 -0.00138878 3.07003e-07
-0.00138878 0.0321416 -2.22576e-08
3.07003e-07 -2.22576e-08 0.00611433

0.0152731 0.00715627 -8.94345e-08
0.00715627 0.0284617 -2.02628e-07
-8.94345e-08 -2.02628e-07 0.00598638

0.0347758 -0.00382192 -1.63401e-07
-0.00382192 0.0312791 6.23197e-08
-1.63401e-07 6.23197e-08 0.0329499

0.0155857 -0.00619695 -1.93579e-08
-0.00619695 0.0261619 -6.20861e-08
-1.93579e-08 -6.20861e-08 0.010476

0.0155171 -0.0070889 1.67575e-07
-0.0070889 0.0274318 -7.56175e-08
1.67575e-07 -7.56175e-08 0.00591621

0.0284372 0.00342748 1.95486e-07
0.00342748 0.0310188 -1.47742e-07
1.95486e-07 -1.47742e-07 0.0281635

0.025201 0.0093286 1.93664e-07
0.0093286 0.0190261 -1.93055e-07
1.93664e-07 -1.93055e-07 0.00593608

0.036545 0.00173143 -1.20195e-07
0.00173143 0.0385611 4.14659e-08
-1.20195e-07 4.14659e-08 0.035485

0.0395431 2.64189e-05 -1.62988e-07
2.64189e-05 0.0355473 -4.23363e-08
-1.62988e-07 -4.23363e-08 0.0354656

0.0261152 -0.00924706 -2.18124e-07
-0.00924706 0.0188179 -2.50197e-07
-2.18124e-07 -2.50197e-07 0.00589024

0.0277009 -0.00306645 -1.14462e-07
-0.00306645 0.0321079 1.56308e-07
-1.14462e-07 1.56308e-07 0.029634

0.0262648 0.00442015 2.1215e-07
0.00442015 0.0201649 1.72333e-07
2.1215e-07 1.72333e-07 0.0130497

0.0172845 0.0079756 -3.42939e-07
0.0079756 0.0271567 9.27982e-08
-3.42939e-07 9.27982e-08 0.0059901

0.0182022 0.00275647 -1.45189e-07
0.00275647 0.0276 -3.90421e-07
-1.45189e-07 -3.90421e-07 0.012855

0.0173093 -0.00827884 -1.10884e-07
-0.00827884 0.0271602 1.34787e-07
-1.10884e-07 1.34787e-07 0.00581598

0.0179387 -0.00157167 -3.12624e-07
-0.00157167 0.0280158 -8.70756e-08
-3.12624e-07 -8.70756e-08 0.0126954

0.0370564 0.000921844 -1.28675e-07
0.000921844 0.0413074 -2.1347e-07
-1.28675e-07 -2.1347e-07 0.0358195

0.0221392 -0.00585805 -6.49057e-08
-0.00585805 0.0236734 -3.89575e-08
-6.49057e-08 -3.89575e-08 0.0151648

0.0157052 0.00598882 -3.50132e-07
0.00598882 0.0259112 8.12381e-08
-3.50132e-07 8.12381e-08 0.0107543

0.0302174 0.00473174 1.25425e-08
0.00473174 0.0143535 2.14011e-07
1.25425e-08 2.14011e-07 0.00611815

0.03295 -0.00385061 1.06084e-07
-0.00385061 0.0301354 7.96933e-08
1.06084e-07 7.96933e-08 0.0310623

0.0308984 0.00169372 1.82808e-07
0.00169372 0.0368539 9.88501e-08
1.82808e-07 9.88501e-08 0.0339609

0.0260995 -0.0048461 1.66325e-07
-0.0048461 0.0192036 5.19075e-08
1.66325e-07 5.19075e-08 0.0127

0.0330126 -0.00378684 -3.97336e-08
-0.00378684 0.0300859 -2.66095e-07
-3.97336e-08 -2.66095e-07 0.0311386

0.0300277 -0.00452153 -1.2447e-07
-0.00452153 0.0130573 2.33167e-08
-1.2447e-07 2.33167e-08 0.00603954

0.032485 -0.00372871 1.44732e-07
-0.00372871 0.0313187 7.33218e-09
1.44732e-07 7.33218e-09 0.0319904

0.0281022 -0.00331262 -1.70323e-07
-0.00331262 0.0320161 8.67801e-08
-1.70323e-07 8.67801e-08 0.0296365

0.0234503 0.0087463 -1.87344e-07
0.0087463 0.0204891 -5.07301e-08
-1.87344e-07 -5.07301e-08 0.00602848

0.0182056 -0.00292205 2.81108e-08
-0.00292205 0.0268763 5.11332e-08
2.81108e-08 5.11332e-08 0.0122747

0.0233212 -0.00902198 -1.34196e-07
-0.00902198 0.0201581 1.12361e-07
-1.34196e-07 1.12361e-07 0.00588624

0.0170878 0.00641081 1.57125e-07
0.00641081 0.0235743 1.12777e-07
1.57125e-07 1.12777e-07 0.0108351

0.030838 -0.00396173 3.41447e-08
-0.00396173 0.0301716 8.59859e-08
3.41447e-08 8.59859e-08 0.0300966

0.0389267 -0.00195885 1.92825e-07
-0.00195885 0.0369476 1.14003e-07
1.92825e-07 1.14003e-07 0.0355092

0.0455412 0.00150459 -2.02283e-07
0.00150459 0.0449538 -2.2606e-07
-2.02283e-07 -2.2606e-07 0.036628

0.0435671 -0.000710977 3.42545e-08
-0.000710977 0.0462302 3.32539e-08
3.42545e-08 3.32539e-08 0.0365937

0.0286259 0.00171621 -8.66169e-08
0.00171621 0.0355787 9.5492e-08
-8.66169e-08 9.5492e-08 0.0324006

0.0453366 -0.00144589 -4.51447e-07
-0.00144589 0.0449805 2.15743e-07
-4.51447e-07 2.15743e-07 0.0366457

0.0438102 0.000568764 -8.71537e-09
0.000568764 0.0465063 8.86789e-08
-8.71537e-09 8.86789e-08 0.0366268

0.046679 0.000990013 1.62706e-10
0.000990013 0.0433792 -3.10649e-07
1.62706e-10 -3.10649e-07 0.0366019

0.0397547 -0.00163818 1.6145e-07
-0.00163818 0.0460767 2.25856e-07
1.6145e-07 2.25856e-07 0.0364918

0.0190603 -0.00388927 7.3808e-08
-0.00388927 0.0272412 -4.24622e-08
7.3808e-08 -4.24622e-08 0.0154771

0.0421461 -0.00174994 -3.71532e-08
-0.00174994 0.0367323 1.6047e-07
-3.71532e-08 1.6047e-07 0.0360141

0.035974 -0.00457292 1.62731e-07
-0.00457292 0.0351594 1.37285e-07
1.62731e-07 1.37285e-07 0.0349782

0.0397596 -0.00242207 -1.79067e-07
-0.00242207 0.0360726 4.0766e-08
-1.79067e-07 4.0766e-08 0.0355769

0.0351963 0.00204404 -1.24265e-07
0.00204404 0.0285597 -9.32237e-08
-1.24265e-07 -9.32237e-08 0.0322429

0.0396967 0.00133666 4.02599e-08
0.00133666 0.0472273 -4.20734e-07
4.02599e-08 -4.20734e-07 0.0365576

0.0464963 0.00259231 -1.05038e-07
0.00259231 0.0404218 -1.46009e-07
-1.05038e-07 -1.46009e-07 0.0365388

0.0400937 0.00150659 2.27391e-08
0.00150659 0.0366812 -8.90604e-08
2.27391e-08 -8.90604e-08 0.0356249

0.0279245 -0.00192101 1.91683e-07
-0.00192101 0.0125283 -1.02415e-08
1.91683e-07 -1.02415e-08 0.0106285

0.02833 0.00326919 2.17004e-07
0.00326919 0.0315627 -5.92108e-08
2.17004e-07 -5.92108e-08 0.0294218

0.0231956 -0.00773906 -1.44776e-08
-0.00773906 0.0181859 1.66109e-08
-1.44776e-08 1.66109e-08 0.0102934

0.0228382 -0.00731844 -3.71252e-08
-0.00731844 0.0257775 -6.43531e-08
-3.71252e-08 -6.43531e-08 0.0119591

0.0290327 -0.00464878 1.18115e-07
-0.00464878 0.0191345 1.94887e-07
1.18115e-07 1.94887e-07 0.0126199

0.037581 -0.000660434 -1.22742e-07
-0.000660434 0.0449132 1.69353e-07
-1.22742e-07 1.69353e-07 0.0363029

0.0375786 0.000358397 1.20335e-07
0.000358397 0.0447916 -1.73495e-07
1.20335e-07 -1.73495e-07 0.0362832

0.0426084 -0.00327232 2.83133e-08
-0.00327232 0.0394557 1.5812e-08
2.83133e-08 1.5812e-08 0.036237

0.0430017 -0.00294265 2.56473e-07
-0.00294265 0.039174 -3.96311e-08
2.56473e-07 -3.96311e-08 0.0362441

0.0425053 0.00350276 5.18694e-08
0.00350276 0.0399786 -6.14866e-08
5.18694e-08 -6.14866e-08 0.0362819

0.0444006 0.000416089 -3.20131e-08
0.000416089 0.0450808 1.35916e-08
-3.20131e-08 1.35916e-08 0.0366449

0.0426125 -0.00274322 -7.68049e-08
-0.00274322 0.0395134 -6.15368e-08
-7.68049e-08 -6.15368e-08 0.0362986

0.0426069 -0.00251097 3.47563e-08
-0.00251097 0.044268 2.21789e-07
3.47563e-08 2.21789e-07 0.0365725

0.0451193 0.000330232 2.56965e-07
0.000330232 0.0454675 5.52907e-07
2.56965e-07 5.52907e-07 0.0366632

0.0436402 -0.00278134 1.77706e-08
-0.00278134 0.0389222 5.40472e-08
1.77706e-08 5.40472e-08 0.0363392

0.0435152 0.00283691 -4.13697e-09
0.00283691 0.0390748 3.9636e-08
-4.13697e-09 3.9636e-08 0.0363772

0.0451949 -0.000469756 7.28923e-09
-0.000469756 0.0455817 1.75978e-08
7.28923e-09 1.75978e-08 0.0367117

0.0452275 -0.000423598 3.5778e-07
-0.000423598 0.0443626 -4.72785e-07
3.5778e-07 -4.72785e-07 0.0367301

0.0428034 0.00163738 -3.65052e-07
0.00163738 0.0442508 7.36362e-07
-3.65052e-07 7.36362e-07 0.0366163

0.0411214 0.00361694 2.53234e-08
0.00361694 0.0405203 -8.56253e-08
2.53234e-08 -8.56253e-08 0.0363311

SCALARS pressure float
LOOKUP_TABLE default
-60.0844
19.3142
5.81342
21.2948
15.8801
5.89747
-58.7071
7.79147
-3.79676
15.1303
-24.4479
7.62564
5.60011
12.2868
23.3344
5.54715
18.5254
13.2169
-0.682587
6.76802
-0.896251
33.1055
5.81202
5.80751
6.61307
14.9117
-38.4033
6.68251
-15.2407
30.6061
5.18453
-15.6557
-42.0767
27.3148
20.7696
27.3476
31.8638
19.8004
4.8679
-42.6203
-17.407
31.8845
31.9726
6.00144
-21.8117
-15.9743
-1.04267
-3.39763
6.55551
-16.2179
-18.9198
-15.3429
20.753
-15.3704
20.3067
-33.1602
21.1197
-15.4575
21.1296
7.05602
21.7691
16.1204
-45.58
12.793
16.3636
10.9117
21.5784
13.8371
5.78434
21.8225
20.809
20.7796
-17.6908
11.6067
3.98248
-31.626
14.3577
11.0028
14.1553
-8.71349
-28.9519
14.976
20.1669
-22.0421
-23.432
-28.1019
7.10862
9.63871
-22.2225
37.7124
-15.5062
38.4146
18.3038
10.7691
-15.1636
-15.872
-30.2289
14.7591
14.3667
4.60696
-10.7606
-21.9408
-25.1074
16.2208
14.1097
14.9672
18.7014
3.78348
-24.5638
26.5128
7.22896
-21.4147
-24.6183
14.8473
15.0836
-16.1434
20.1555
-29.1206
20.6189
-16.7272
-2.89539
23.8301
21.7326
16.0368
26.679
22.6317
21.7767
15.7139
-29.7885
-16.0965
24.0869
21.6234
20.9923
22.071
-22.0152
23.5748
-33.8481
5.47165
21.7566
23.6181
-21.9379
6.68348
-5.95888
15.0919
-30.4155
15.6307
7.84265
2.41676
5.18645
-9.38826
-0.448574
22.6465
-15.4531
5.29896
15.2124
21.5665
11.5146
-21.1138
-21.2644
10.7998
-2.83481
-15.1957
-21.2264
-15.164
-20.987
15.2851
-20.6361
-21.2022
-15.206
-21.0643
19.0029
-15.9385
-14.8231
12.0703
-14.4814
18.8068
19.052
7.48197
18.0464
11.782
-16.2478
15.2937
14.9665
-21.5293
10.4328
-14.2197
16.0526
14.6009
17.0815
14.8406
10.3502
-26.9823
-16.0798
-15.9568
21.9124
14.5356
14.6343
20.9256
22.492
9.50956
21.7394
-0.374662
-8.1641
20.7821
-17.8385
19.9486
10.371
-21.5186
15.7249
22.5307
14.7328
9.40154
14.1993
21.0582
-7.82571
8.8348
-7.90172
14.6536
26.9268
26.5806
27.9592
26.3878
26.7235
26.2902
13.8344
23.4265
24.0255
23.9697
23.3963
21.1904
21.8547
-8.25604
15.9406
28.1911
-3.18107
23.5722
23.2015
27.8345
-8.48701
28.0963
15.3499
-7.57442
17.4947
-8.25102
20.2303
29.6122
-7.47877
-8.09398
-29.5993
-18.1905
19.5304
-31.9944
5.74235
-7.78715
-1.17971
28.2491
26.6396
30.4076
26.7602
-34.8115
-8.1729
28.3372
8.08206
-8.28861
26.4455
-6.28797
30.4525
-7.94727
27.0461
14.5701
14.7962
23.8411
10.054
18.0196
8.12571
-29.8693
-24.561
16.8069
1.76897
8.18864
-13.6049
17.4384
11.7058
-8.09478
9.45912
-10.818
7.52544
-10.7493
-8.47823
33.2407
19.1499
25.0844
25.3087
13.837
-10.399
26.4193
14.689
-1.65038
-10.2682
-12.5598
17.5059
-7.47812
17.5741
-12.0365
-21.3572
-10.6028
-34.6916
15.5678
-7.75598
34.4175
-11.573
16.8769
-8.40212
15.9767
-12.7539
4.29701
-51.1393
8.53212
-7.73967
21.3327
-8.14534
-0.113477
10.7206
21.1302
-12.0559
-10.1951
-6.06077
14.3234
-10.1743
6.8959
6.39607
16.3046
-10.414
-6.32308
-1.69402
-5.65293
-11.0732
-5.83724
15.3095
7.81602
-5.54848
-8.95406
7.81283
7.70153
-10.6691
16.3084
-27.2315
2.30186
-28.4882
-0.949343
-8.90941
-8.12738
-11.8115
-10.9748
-9.91258
-7.80724
-7.93067
16.6427
24.7699
12.1257
-0.282282
-0.815345
-5.66702
7.31296
-6.31335
-6.31061
24.9152
-5.72239
14.1201
-15.9058
24.3204
5.9783
-0.381897
-5.63637
16.2751
2.4858
0.208439
2.4568
0.465427
-0.731055
-9.92462
-0.0861133
2.12199
15.0701
-1.27876
-1.39756
-0.98934
-0.379411
1.97401
8.05915
-1.18412
8.08657
5.59323
-0.426373
7.04394
5.50027
-3.86835
16.4805
-1.89536
23.0553
-21.9803
15.049
15.6864
2.04842
-1.98969
12.5501
-26.5235
5.80252
-1.64975
-50.5032
30.4787
30.6155
5.83517
-1.13481
-1.03868
-0.840008
33.3889
33.2633
13.1022
6.08974
6.67128
-28.9808
-1.26978
16.5368
-3.17506
-4.34089
-0.00757758
-25.2882
14.3103
-1.27065
2.87066
2.70204
-2.71514
-0.0401565
-3.2016
-4.02626
-38.0002
-33.6929
-0.118869
1.88285
-0.525634
-3.7366
-1.92848
-1.86996
-0.915865
-21.9141
17.2507
-0.759514
12.5723
14.19
-26.7738
6.29512
7.14661
18.4774
36.4034
36.4358
22.637
-1.7463
2.60871
-20.9367
36.1031
32.7307
32.7976
-24.8259
21.7654
30.5061
2.60831
15.7245
10.3804
17.17
17.7304
12.5111
5.69006
-25.4146
4.26828
10.4159
16.2475
-31.7261
28.2964
-52.7316
18.69
10.3058
-10.6219
7.42534
5.46528
24.4698
9.41948
24.4028
4.11348
12.4044
30.6247
29.4508
-22.9977
17.4419
-70.267
-74.4145
-67.2106
11.6541
-31.2793
-63.6431
-3.7958
-69.9726
16.4605
16.4042
-73.7899
5.22312
-39.7481
-70.7733
-37.7736
-71.9103
-39.47
21.1273
-23.9695
-29.062
-70.6569
4.83943
15.7616
-36.2074
6.06235
-63.6502
9.84398
3.89222
-67.9351
-37.6421
-66.4445
-23.772
5.03923
20.5189
35.3417
36.6966
11.8203
36.8198
36.8731
36.462
36.3793
-24.4875
28.236
20.669
21.9733
11.5435
36.0353
36.0667
18.1146
-23.9573
3.2565
-30.5456
-56.62
-50.4941
36.12
35.8012
35.3583
35.4284
36.136
35.5691
33.089
37.3441
35.3701
35.9831
35.6156
34.1676
34.3039
35.83
35.2895
