# vtk DataFile Version 3.0
vtk output at time 30
ASCII
DATASET UNSTRUCTURED_GRID
POINTS 626 float
-3.68058e-05 0.000978749 0 3.68058e-05 0.000978749 0 -0.000829194 0.00052125 0 
-0.0008235 0.0005 0 -0.000866 0.0004575 0 -0.000866 -0.0004575 0 
-0.0008235 -0.0005 0 -0.000829194 -0.00052125 0 -3.68058e-05 -0.000978749 0 
3.68058e-05 -0.000978749 0 0.000829194 -0.00052125 0 0.000866 -0.0004575 0 
0.000866 0.0004575 0 0.000829194 0.00052125 0 8.5e-05 0 0 
-3.68058e-05 0.000978749 -0.001 3.68058e-05 0.000978749 -0.001 -0.000829194 0.00052125 -0.001 
-0.0008235 0.0005 -0.001 -0.000866 0.0004575 -0.001 -0.000866 -0.0004575 -0.001 
-0.0008235 -0.0005 -0.001 -0.000829194 -0.00052125 -0.001 -3.68058e-05 -0.000978749 -0.001 
3.68058e-05 -0.000978749 -0.001 0.000829194 -0.00052125 -0.001 0.000866 -0.0004575 -0.001 
0.000866 0.0004575 -0.001 0.000829194 0.00052125 -0.001 8.5e-05 0 -0.001 
8.46223e-17 0.0009575 0 -0.000715996 0.000586607 0 -0.000602797 0.000651965 0 
-0.000489599 0.000717321 0 -0.000376401 0.000782678 0 -0.000263202 0.000848036 0 
-0.000150004 0.000913393 0 -0.000835948 0.000469948 0 -0.000866 -0.000326786 0 
-0.000866 -0.000196071 0 -0.000866 -6.53571e-05 0 -0.000866 6.53571e-05 0 
-0.000866 0.000196071 0 -0.000866 0.000326786 0 -0.000835948 -0.000469948 0 
-0.000150004 -0.000913393 0 -0.000263202 -0.000848036 0 -0.000376401 -0.000782678 0 
-0.000489599 -0.000717321 0 -0.000602797 -0.000651965 0 -0.000715996 -0.000586607 0 
8.47648e-17 -0.0009575 0 0.000715996 -0.000586607 0 0.000602797 -0.000651965 0 
0.000489599 -0.000717321 0 0.000376401 -0.000782678 0 0.000263202 -0.000848036 0 
0.000150004 -0.000913393 0 0.000829194 -0.00047875 0 0.000866 0.000326786 0 
0.000866 0.000196071 0 0.000866 6.53571e-05 0 0.000866 -6.53571e-05 0 
0.000866 -0.000196071 0 0.000866 -0.000326786 0 0.000829194 0.00047875 0 
0.000150004 0.000913393 0 0.000263202 0.000848036 0 0.000376401 0.000782678 0 
0.000489599 0.000717321 0 0.000602797 0.000651965 0 0.000715996 0.000586607 0 
5.29966e-05 6.64557e-05 0 -1.89143e-05 8.28689e-05 0 -7.65824e-05 3.68801e-05 0 
-7.65824e-05 -3.68801e-05 0 -1.89143e-05 -8.28689e-05 0 5.29966e-05 -6.64557e-05 0 
8.46223e-17 0.0009575 -0.001 -0.000715996 0.000586607 -0.001 -0.000602797 0.000651965 -0.001 
-0.000489599 0.000717321 -0.001 -0.000376401 0.000782678 -0.001 -0.000263202 0.000848036 -0.001 
-0.000150004 0.000913393 -0.001 -0.000835948 0.000469948 -0.001 -0.000866 -0.000326786 -0.001 
-0.000866 -0.000196071 -0.001 -0.000866 -6.53571e-05 -0.001 -0.000866 6.53571e-05 -0.001 
-0.000866 0.000196071 -0.001 -0.000866 0.000326786 -0.001 -0.000835948 -0.000469948 -0.001 
-0.000150004 -0.000913393 -0.001 -0.000263202 -0.000848036 -0.001 -0.000376401 -0.000782678 -0.001 
-0.000489599 -0.000717321 -0.001 -0.000602797 -0.000651965 -0.001 -0.000715996 -0.000586607 -0.001 
8.47648e-17 -0.0009575 -0.001 0.000715996 -0.000586607 -0.001 0.000602797 -0.000651965 -0.001 
0.000489599 -0.000717321 -0.001 0.000376401 -0.000782678 -0.001 0.000263202 -0.000848036 -0.001 
0.000150004 -0.000913393 -0.001 0.000829194 -0.00047875 -0.001 0.000866 0.000326786 -0.001 
0.000866 0.000196071 -0.001 0.000866 6.53571e-05 -0.001 0.000866 -6.53571e-05 -0.001 
0.000866 -0.000196071 -0.001 0.000866 -0.000326786 -0.001 0.000829194 0.00047875 -0.001 
0.000150004 0.000913393 -0.001 0.000263202 0.000848036 -0.001 0.000376401 0.000782678 -0.001 
0.000489599 0.000717321 -0.001 0.000602797 0.000651965 -0.001 0.000715996 0.000586607 -0.001 
5.29966e-05 6.64557e-05 -0.001 -1.89143e-05 8.28689e-05 -0.001 -7.65824e-05 3.68801e-05 -0.001 
-7.65824e-05 -3.68801e-05 -0.001 -1.89143e-05 -8.28689e-05 -0.001 5.29966e-05 -6.64557e-05 -0.001 
0.000131234 6.38474e-05 0 0.00012964 -6.2443e-05 0 3.13827e-05 0.0001394 0 
3.12554e-05 -0.000136939 0 -0.000140461 8.25467e-19 0 -8.90565e-05 -0.000102707 0 
-9.04142e-05 0.000102872 0 -0.000765769 -0.00025965 0 -0.000756873 0.000262774 0 
-0.00015609 0.000787505 0 -0.000155807 -0.00079355 0 0.000605069 0.000528035 0 
0.000608694 -0.00052497 0 0.000744069 0.000116929 0 -0.000494418 0.000596218 0 
-0.000483866 -0.000584648 0 0.000269496 0.000702219 0 0.000263201 -0.000717324 0 
0.000754429 -0.000127825 0 -0.000748858 5.84659e-07 0 -0.000747838 0.000373886 0 
-0.0006542 0.000324842 0 -0.000645137 0.000210123 0 -0.000550884 0.000274171 0 
-0.000538857 0.000163195 0 -0.00045062 0.000224461 0 -0.000438393 0.000123907 0 
-0.000354088 0.000181668 0 -0.000363908 0.000282171 0 -0.000270361 0.000239477 0 
-0.000279138 0.000337653 0 -0.000188888 0.000294791 0 -0.000196448 0.000393271 0 
-0.000104767 0.000348259 0 -0.000113332 0.000449012 0 -2.01066e-05 0.000403223 0 
-2.89189e-05 0.000507105 0 6.9524e-05 0.000461596 0 -0.000213644 0.000490203 0 
7.33757e-05 0.000357726 0 0.000163331 0.00041299 0 0.000163359 0.000313022 0 
0.000248077 0.000366368 0 0.000250914 0.000265758 0 0.000335709 0.000322266 0 
0.000340555 0.000218148 0 0.000427299 0.000276717 0 0.000431508 0.000173093 0 
0.000328731 0.000425633 0 0.00034586 0.000114823 0 0.000435362 7.05241e-05 0 
0.000350892 1.5455e-05 0 0.000441547 -3.11896e-05 0 0.000353547 -8.47783e-05 0 
0.000445767 -0.000132964 0 0.000356135 -0.000186358 0 0.000449094 -0.000234674 0 
0.000359978 -0.000287876 0 0.00026856 -0.000240545 0 0.000271895 -0.000341045 0 
0.000181792 -0.00029305 0 0.00018533 -0.000392851 0 9.75701e-05 -0.00034483 0 
9.98764e-05 -0.000444884 0 8.75116e-06 -0.000396343 0 1.20916e-05 -0.000500496 0 
-7.83929e-05 -0.000449843 0 -8.1471e-05 -0.000347249 0 -0.000171566 -0.000403733 0 
-0.000169889 -0.000298891 0 -0.000259867 -0.000354132 0 -0.000257696 -0.000249137 0 
-0.00034313 -0.000299896 0 -0.000344514 -0.000199127 0 -0.000434309 -0.000250039 0 
-0.000169832 -0.000505815 0 -0.000435227 -0.000146227 0 0.000280331 -0.000442424 0 
-0.000340889 8.76793e-05 0 -0.000515252 4.06198e-05 0 6.50491e-05 0.000568253 0 
0.00053278 1.74743e-05 0 0.000522071 0.000229831 0 -0.00037162 0.000391659 0 
-0.000255272 -0.000150439 0 -0.000442893 -0.000350705 0 0.000450067 -0.000332559 0 
0.000545175 -0.000276306 0 -0.000527797 -0.000197598 0 0.000105306 -0.000551033 0 
1.45836e-05 -0.000609147 0 0.00017145 0.000214453 0 0.000515525 0.000341711 0 
0.000636086 0.000290368 0 -0.000558657 0.000404468 0 -4.01232e-05 0.000616718 0 
6.60192e-05 0.000696422 0 -0.000101806 0.0002546 0 0.000271142 -3.88908e-05 0 
0.000179455 -0.00018534 0 -8.79553e-05 -0.000254307 0 -0.000749267 -0.000373451 0 
-0.000655941 -0.000323397 0 0.000709746 0.000466718 0 0.000698426 -0.000473086 0 
-5.25801e-05 -0.00084886 0 -4.93005e-05 0.000848038 0 0.000617396 -0.000413362 0 
0.000702056 -0.000369817 0 0.000131459 -0.000679171 0 2.48171e-05 -0.000715924 0 
-0.000664217 -0.00042729 0 -0.000528828 -8.80444e-05 0 -0.000611101 -0.000136672 0 
-0.000426972 -4.45841e-05 0 0.000800669 0.000378216 0 0.000821144 -0.000415062 0 
7.2799e-05 0.00088254 0 6.81831e-05 -0.00087503 0 0.000104963 -0.000788946 0 
-7.40696e-05 -0.000660054 0 0.000126061 0.000809943 0 0.000764361 0.000295682 0 
0.000166862 0.000630623 0 0.000516462 -0.00046707 0 -0.000563585 -0.000389606 0 
-0.000622598 -1.40238e-05 0 0.000629891 0.000171529 0 2.5614e-06 -0.000299794 0 
8.6901e-05 -0.00024329 0 0.000272045 -0.000136982 0 -0.00075148 0.000138321 0 
0.000209366 -0.000599589 0 0.000324913 -0.000630055 0 0.000614044 0.00041245 0 
0.00049651 -0.000573327 0 0.000394822 -0.000507321 0 -0.000173714 -0.000206698 0 
0.000264897 5.63722e-05 0 0.000247997 0.000152811 0 -4.63327e-05 -0.000920208 0 
9.18688e-05 0.000258626 0 -5.54111e-06 0.000290558 0 -0.000184219 0.000201484 0 
-0.000263559 0.000142267 0 -0.000256427 5.13624e-05 0 -0.000336894 -2.06179e-06 0 
-0.000228499 -4.2388e-05 0 -0.00017589 0.000106626 0 -0.000769947 -0.000133367 0 
0.000767591 -0.000500293 0 -5.05874e-05 0.000737978 0 0.000754456 -3.51771e-06 0 
0.00064691 -6.15298e-05 0 0.000630483 -0.00018134 0 0.000749187 -0.000265543 0 
-0.000760805 -0.000462521 0 0.000638155 6.09315e-05 0 -4.46661e-05 0.000922995 0 
-2.37945e-05 0.000207237 0 0.000776979 0.000500181 0 -0.000605691 0.000527596 0 
-0.000377914 -0.000653727 0 -0.000372325 -0.000526022 0 -0.000275829 -0.000589621 0 
-0.000254285 -0.000710579 0 -0.000379307 0.000656222 0 -0.000379818 0.00052718 0 
-0.000266817 0.000721555 0 -0.000150544 0.000668174 0 0.000381963 0.00065079 0 
0.000493113 0.000590432 0 0.000505439 0.000463708 0 -0.000269094 0.000596608 0 
0.000385815 0.000532045 0 0.000283599 0.0005899 0 -0.000176405 -0.000108505 0 
-0.000278769 -0.000475415 0 0.000185395 2.33014e-06 0 0.000186773 0.000517571 0 
0.000540032 -8.68444e-05 0 -0.000600694 -0.000514877 0 -0.00063703 8.98033e-05 0 
-0.000459677 0.000335729 0 -0.000338836 -0.000100751 0 -0.000457327 0.000432721 0 
-8.72007e-06 -0.000210238 0 0.000156073 0.000129496 0 -7.70692e-05 -0.000555049 0 
0.00036091 -0.000389728 0 0.000531628 0.000120564 0 -0.000285451 0.000435562 0 
0.000192719 -0.000494604 0 0.00041642 0.00039368 0 -0.000135943 0.000554637 0 
-0.000170665 -0.000610079 0 -0.000666304 0.000434981 0 -0.000758736 0.000479231 0 
-0.000470189 -0.000458901 0 0.000203433 -8.59809e-05 0 0.000101846 0.000170114 0 
-0.00035513 -0.00040726 0 0.000100184 -0.000165831 0 2.96286e-05 0.00081537 0 
0.000720946 0.000381836 0 -0.000539809 -0.000292001 0 0.00052211 -0.000182426 0 
-6.41339e-05 -0.000753908 0 0.000638039 -0.000299861 0 -0.000605136 -0.000230182 0 
-3.41638e-05 -0.000145561 0 -0.000104037 0.000172396 0 -0.000808575 -0.00042774 0 
-0.000807207 -0.000465052 0 -0.00080817 0.000429771 0 -0.000806589 0.000469738 0 
-9.50634e-05 -0.000178909 0 0.000247777 0.000445058 0 1.48293e-05 -0.000814201 0 
-4.11555e-05 0.000140955 0 0.000276104 -0.000536845 0 0.000765969 -0.000436638 0 
0.000780871 -0.000362769 0 0.000424176 -0.000642018 0 0.00053413 -0.000368009 0 
-0.000416333 4.17911e-05 0 -0.000133891 -6.23822e-05 0 4.2574e-05 0.000206312 0 
0.000141163 -0.000121542 0 0.000707423 0.000212137 0 0.000172327 0.000723882 0 
7.72652e-06 -0.00090254 0 -0.000134435 5.66935e-05 0 -0.000188826 3.70894e-05 0 
0.000197119 8.09714e-05 0 1.27801e-05 0.000917296 0 0.000800767 0.00044758 0 
-0.000686682 0.000507104 0 9.35831e-05 0.000110457 0 -0.000696793 -0.000509595 0 
-0.00068446 -8.52012e-05 0 -0.000691033 -0.000201242 0 5.24052e-05 -0.000189075 0 
-0.000151818 -0.000701092 0 -0.000296988 0.000518087 0 9.31023e-05 -0.000108117 0 
0.00044261 -0.000416726 0 0.000197044 -0.000784423 0 -0.000516861 0.000504567 0 
0.000298997 0.000502377 0 0.000131234 6.38474e-05 -0.001 0.00012964 -6.2443e-05 -0.001 
3.13827e-05 0.0001394 -0.001 3.12554e-05 -0.000136939 -0.001 -0.000140461 8.25467e-19 -0.001 
-8.90565e-05 -0.000102707 -0.001 -9.04142e-05 0.000102872 -0.001 -0.000765769 -0.00025965 -0.001 
-0.000756873 0.000262774 -0.001 -0.00015609 0.000787505 -0.001 -0.000155807 -0.00079355 -0.001 
0.000605069 0.000528035 -0.001 0.000608694 -0.00052497 -0.001 0.000744069 0.000116929 -0.001 
-0.000494418 0.000596218 -0.001 -0.000483866 -0.000584648 -0.001 0.000269496 0.000702219 -0.001 
0.000263201 -0.000717324 -0.001 0.000754429 -0.000127825 -0.001 -0.000748858 5.84659e-07 -0.001 
-0.000747838 0.000373886 -0.001 -0.0006542 0.000324842 -0.001 -0.000645137 0.000210123 -0.001 
-0.000550884 0.000274171 -0.001 -0.000538857 0.000163195 -0.001 -0.00045062 0.000224461 -0.001 
-0.000438393 0.000123907 -0.001 -0.000354088 0.000181668 -0.001 -0.000363908 0.000282171 -0.001 
-0.000270361 0.000239477 -0.001 -0.000279138 0.000337653 -0.001 -0.000188888 0.000294791 -0.001 
-0.000196448 0.000393271 -0.001 -0.000104767 0.000348259 -0.001 -0.000113332 0.000449012 -0.001 
-2.01066e-05 0.000403223 -0.001 -2.89189e-05 0.000507105 -0.001 6.9524e-05 0.000461596 -0.001 
-0.000213644 0.000490203 -0.001 7.33757e-05 0.000357726 -0.001 0.000163331 0.00041299 -0.001 
0.000163359 0.000313022 -0.001 0.000248077 0.000366368 -0.001 0.000250914 0.000265758 -0.001 
0.000335709 0.000322266 -0.001 0.000340555 0.000218148 -0.001 0.000427299 0.000276717 -0.001 
0.000431508 0.000173093 -0.001 0.000328731 0.000425633 -0.001 0.00034586 0.000114823 -0.001 
0.000435362 7.05241e-05 -0.001 0.000350892 1.5455e-05 -0.001 0.000441547 -3.11896e-05 -0.001 
0.000353547 -8.47783e-05 -0.001 0.000445767 -0.000132964 -0.001 0.000356135 -0.000186358 -0.001 
0.000449094 -0.000234674 -0.001 0.000359978 -0.000287876 -0.001 0.00026856 -0.000240545 -0.001 
0.000271895 -0.000341045 -0.001 0.000181792 -0.00029305 -0.001 0.00018533 -0.000392851 -0.001 
9.75701e-05 -0.00034483 -0.001 9.98764e-05 -0.000444884 -0.001 8.75116e-06 -0.000396343 -0.001 
1.20916e-05 -0.000500496 -0.001 -7.83929e-05 -0.000449843 -0.001 -8.1471e-05 -0.000347249 -0.001 
-0.000171566 -0.000403733 -0.001 -0.000169889 -0.000298891 -0.001 -0.000259867 -0.000354132 -0.001 
-0.000257696 -0.000249137 -0.001 -0.00034313 -0.000299896 -0.001 -0.000344514 -0.000199127 -0.001 
-0.000434309 -0.000250039 -0.001 -0.000169832 -0.000505815 -0.001 -0.000435227 -0.000146227 -0.001 
0.000280331 -0.000442424 -0.001 -0.000340889 8.76793e-05 -0.001 -0.000515252 4.06198e-05 -0.001 
6.50491e-05 0.000568253 -0.001 0.00053278 1.74743e-05 -0.001 0.000522071 0.000229831 -0.001 
-0.00037162 0.000391659 -0.001 -0.000255272 -0.000150439 -0.001 -0.000442893 -0.000350705 -0.001 
0.000450067 -0.000332559 -0.001 0.000545175 -0.000276306 -0.001 -0.000527797 -0.000197598 -0.001 
0.000105306 -0.000551033 -0.001 1.45836e-05 -0.000609147 -0.001 0.00017145 0.000214453 -0.001 
0.000515525 0.000341711 -0.001 0.000636086 0.000290368 -0.001 -0.000558657 0.000404468 -0.001 
-4.01232e-05 0.000616718 -0.001 6.60192e-05 0.000696422 -0.001 -0.000101806 0.0002546 -0.001 
0.000271142 -3.88908e-05 -0.001 0.000179455 -0.00018534 -0.001 -8.79553e-05 -0.000254307 -0.001 
-0.000749267 -0.000373451 -0.001 -0.000655941 -0.000323397 -0.001 0.000709746 0.000466718 -0.001 
0.000698426 -0.000473086 -0.001 -5.25801e-05 -0.00084886 -0.001 -4.93005e-05 0.000848038 -0.001 
0.000617396 -0.000413362 -0.001 0.000702056 -0.000369817 -0.001 0.000131459 -0.000679171 -0.001 
2.48171e-05 -0.000715924 -0.001 -0.000664217 -0.00042729 -0.001 -0.000528828 -8.80444e-05 -0.001 
-0.000611101 -0.000136672 -0.001 -0.000426972 -4.45841e-05 -0.001 0.000800669 0.000378216 -0.001 
0.000821144 -0.000415062 -0.001 7.2799e-05 0.00088254 -0.001 6.81831e-05 -0.00087503 -0.001 
0.000104963 -0.000788946 -0.001 -7.40696e-05 -0.000660054 -0.001 0.000126061 0.000809943 -0.001 
0.000764361 0.000295682 -0.001 0.000166862 0.000630623 -0.001 0.000516462 -0.00046707 -0.001 
-0.000563585 -0.000389606 -0.001 -0.000622598 -1.40238e-05 -0.001 0.000629891 0.000171529 -0.001 
2.5614e-06 -0.000299794 -0.001 8.6901e-05 -0.00024329 -0.001 0.000272045 -0.000136982 -0.001 
-0.00075148 0.000138321 -0.001 0.000209366 -0.000599589 -0.001 0.000324913 -0.000630055 -0.001 
0.000614044 0.00041245 -0.001 0.00049651 -0.000573327 -0.001 0.000394822 -0.000507321 -0.001 
-0.000173714 -0.000206698 -0.001 0.000264897 5.63722e-05 -0.001 0.000247997 0.000152811 -0.001 
-4.63327e-05 -0.000920208 -0.001 9.18688e-05 0.000258626 -0.001 -5.54111e-06 0.000290558 -0.001 
-0.000184219 0.000201484 -0.001 -0.000263559 0.000142267 -0.001 -0.000256427 5.13624e-05 -0.001 
-0.000336894 -2.06179e-06 -0.001 -0.000228499 -4.2388e-05 -0.001 -0.00017589 0.000106626 -0.001 
-0.000769947 -0.000133367 -0.001 0.000767591 -0.000500293 -0.001 -5.05874e-05 0.000737978 -0.001 
0.000754456 -3.51771e-06 -0.001 0.00064691 -6.15298e-05 -0.001 0.000630483 -0.00018134 -0.001 
0.000749187 -0.000265543 -0.001 -0.000760805 -0.000462521 -0.001 0.000638155 6.09315e-05 -0.001 
-4.46661e-05 0.000922995 -0.001 -2.37945e-05 0.000207237 -0.001 0.000776979 0.000500181 -0.001 
-0.000605691 0.000527596 -0.001 -0.000377914 -0.000653727 -0.001 -0.000372325 -0.000526022 -0.001 
-0.000275829 -0.000589621 -0.001 -0.000254285 -0.000710579 -0.001 -0.000379307 0.000656222 -0.001 
-0.000379818 0.00052718 -0.001 -0.000266817 0.000721555 -0.001 -0.000150544 0.000668174 -0.001 
0.000381963 0.00065079 -0.001 0.000493113 0.000590432 -0.001 0.000505439 0.000463708 -0.001 
-0.000269094 0.000596608 -0.001 0.000385815 0.000532045 -0.001 0.000283599 0.0005899 -0.001 
-0.000176405 -0.000108505 -0.001 -0.000278769 -0.000475415 -0.001 0.000185395 2.33014e-06 -0.001 
0.000186773 0.000517571 -0.001 0.000540032 -8.68444e-05 -0.001 -0.000600694 -0.000514877 -0.001 
-0.00063703 8.98033e-05 -0.001 -0.000459677 0.000335729 -0.001 -0.000338836 -0.000100751 -0.001 
-0.000457327 0.000432721 -0.001 -8.72007e-06 -0.000210238 -0.001 0.000156073 0.000129496 -0.001 
-7.70692e-05 -0.000555049 -0.001 0.00036091 -0.000389728 -0.001 0.000531628 0.000120564 -0.001 
-0.000285451 0.000435562 -0.001 0.000192719 -0.000494604 -0.001 0.00041642 0.00039368 -0.001 
-0.000135943 0.000554637 -0.001 -0.000170665 -0.000610079 -0.001 -0.000666304 0.000434981 -0.001 
-0.000758736 0.000479231 -0.001 -0.000470189 -0.000458901 -0.001 0.000203433 -8.59809e-05 -0.001 
0.000101846 0.000170114 -0.001 -0.00035513 -0.00040726 -0.001 0.000100184 -0.000165831 -0.001 
2.96286e-05 0.00081537 -0.001 0.000720946 0.000381836 -0.001 -0.000539809 -0.000292001 -0.001 
0.00052211 -0.000182426 -0.001 -6.41339e-05 -0.000753908 -0.001 0.000638039 -0.000299861 -0.001 
-0.000605136 -0.000230182 -0.001 -3.41638e-05 -0.000145561 -0.001 -0.000104037 0.000172396 -0.001 
-0.000808575 -0.00042774 -0.001 -0.000807207 -0.000465052 -0.001 -0.00080817 0.000429771 -0.001 
-0.000806589 0.000469738 -0.001 -9.50634e-05 -0.000178909 -0.001 0.000247777 0.000445058 -0.001 
1.48293e-05 -0.000814201 -0.001 -4.11555e-05 0.000140955 -0.001 0.000276104 -0.000536845 -0.001 
0.000765969 -0.000436638 -0.001 0.000780871 -0.000362769 -0.001 0.000424176 -0.000642018 -0.001 
0.00053413 -0.000368009 -0.001 -0.000416333 4.17911e-05 -0.001 -0.000133891 -6.23822e-05 -0.001 
4.2574e-05 0.000206312 -0.001 0.000141163 -0.000121542 -0.001 0.000707423 0.000212137 -0.001 
0.000172327 0.000723882 -0.001 7.72652e-06 -0.00090254 -0.001 -0.000134435 5.66935e-05 -0.001 
-0.000188826 3.70894e-05 -0.001 0.000197119 8.09714e-05 -0.001 1.27801e-05 0.000917296 -0.001 
0.000800767 0.00044758 -0.001 -0.000686682 0.000507104 -0.001 9.35831e-05 0.000110457 -0.001 
-0.000696793 -0.000509595 -0.001 -0.00068446 -8.52012e-05 -0.001 -0.000691033 -0.000201242 -0.001 
5.24052e-05 -0.000189075 -0.001 -0.000151818 -0.000701092 -0.001 -0.000296988 0.000518087 -0.001 
9.31023e-05 -0.000108117 -0.001 0.00044261 -0.000416726 -0.001 0.000197044 -0.000784423 -0.001 
-0.000516861 0.000504567 -0.001 0.000298997 0.000502377 -0.001 

CELLS 563 3941
6 14 304 127 29 554 377 
6 143 259 55 393 509 103 
6 300 319 174 550 569 424 
6 259 349 55 509 599 103 
6 50 365 307 98 615 557 
6 299 320 164 549 570 414 
6 126 304 14 376 554 29 
6 298 319 300 548 569 550 
6 205 240 238 455 490 488 
6 257 308 145 507 558 395 
6 130 352 273 380 602 523 
6 295 320 299 545 570 549 
6 324 327 289 574 577 539 
6 235 258 143 485 508 393 
6 50 307 49 98 557 97 
6 207 283 279 457 533 529 
6 143 373 235 393 623 485 
6 145 308 252 395 558 502 
6 194 303 196 444 553 446 
6 279 306 207 529 556 457 
6 206 305 163 456 555 413 
6 51 357 9 99 607 24 
6 238 252 205 488 502 455 
6 293 317 209 543 567 459 
6 207 316 283 457 566 533 
6 142 301 249 392 551 499 
6 273 359 130 523 609 380 
6 211 327 324 461 577 574 
6 169 265 217 419 515 467 
6 7 365 50 22 615 98 
6 283 316 253 533 566 503 
6 159 268 223 409 518 473 
6 274 337 132 524 587 382 
6 232 361 329 482 611 579 
6 231 266 45 481 516 93 
6 229 362 330 479 612 580 
6 9 244 57 24 494 105 
6 230 276 52 480 526 100 
6 209 311 293 459 561 543 
6 131 342 302 381 592 552 
6 270 271 204 520 521 454 
6 66 243 1 114 493 16 
6 59 241 12 107 491 27 
6 280 306 279 530 556 529 
6 269 337 274 519 587 524 
6 179 256 224 429 506 474 
6 163 305 166 413 555 416 
6 201 303 194 451 553 444 
6 280 332 306 530 582 556 
6 186 255 225 436 505 475 
6 210 310 273 460 560 523 
6 153 270 204 403 520 454 
6 136 231 45 386 481 93 
6 171 265 169 421 515 419 
6 138 230 52 388 480 100 
6 225 354 325 475 604 575 
6 36 284 232 84 534 482 
6 161 268 159 411 518 409 
6 71 286 229 119 536 479 
6 290 303 201 540 553 451 
6 139 355 60 389 605 108 
6 60 355 248 108 605 498 
6 273 352 302 523 602 552 
6 235 373 245 485 623 495 
6 67 356 247 115 606 497 
6 221 295 277 471 545 527 
6 142 356 67 392 606 115 
6 139 283 253 389 533 503 
6 203 315 262 453 565 512 
6 41 257 145 89 507 395 
6 36 232 135 84 482 385 
6 71 229 137 119 479 387 
6 254 255 188 504 505 438 
6 233 350 334 483 600 584 
6 262 346 203 512 596 453 
6 304 325 127 554 575 377 
6 222 329 247 472 579 497 
6 218 298 260 468 548 510 
6 290 321 291 540 571 541 
6 272 310 240 522 560 490 
6 269 274 270 519 524 520 
6 244 245 57 494 495 105 
6 49 307 141 97 557 391 
6 225 325 256 475 575 506 
6 273 310 272 523 560 522 
6 312 368 255 562 618 505 
6 249 305 206 499 555 456 
6 228 331 251 478 581 501 
6 302 342 263 552 592 513 
6 338 339 44 588 589 92 
6 190 254 188 440 504 438 
6 37 341 340 85 591 590 
6 138 233 230 388 483 480 
6 228 335 331 478 585 581 
6 181 256 179 431 506 429 
6 195 263 226 445 513 476 
6 268 285 223 518 535 473 
6 290 291 288 540 541 538 
6 219 330 248 469 580 498 
6 201 321 290 451 571 540 
6 240 310 202 490 560 452 
6 188 255 186 438 505 436 
6 270 274 271 520 524 521 
6 262 349 259 512 599 509 
6 141 324 289 391 574 539 
6 296 301 142 546 551 392 
6 247 356 222 497 606 472 
6 239 252 238 489 502 488 
6 254 312 255 504 562 505 
6 54 261 53 102 511 101 
6 289 327 303 539 577 553 
6 268 353 285 518 603 535 
6 273 302 210 523 552 460 
6 292 299 293 542 549 543 
6 278 283 139 528 533 389 
6 175 265 171 425 515 421 
6 227 338 38 477 588 86 
6 264 360 265 514 610 515 
6 43 340 146 91 590 396 
6 165 268 161 415 518 411 
6 205 351 240 455 601 490 
6 64 281 63 112 531 111 
6 288 291 47 538 541 95 
6 135 295 294 385 545 544 
6 42 257 41 90 507 89 
6 245 373 57 495 623 105 
6 31 363 323 79 613 573 
6 292 293 140 542 543 390 
6 267 353 268 517 603 518 
6 155 270 153 405 520 403 
6 244 344 245 494 594 495 
6 61 278 139 109 528 389 
6 135 294 35 385 544 83 
6 69 297 296 117 547 546 
6 186 225 184 436 475 434 
6 329 361 243 579 611 493 
6 255 328 225 505 578 475 
6 213 332 280 463 582 530 
6 39 275 133 87 525 383 
6 330 362 241 580 612 491 
6 195 226 193 445 476 443 
6 211 324 251 461 574 501 
6 151 153 152 401 403 402 
6 295 299 294 545 549 544 
6 265 313 217 515 563 467 
6 258 259 143 508 509 393 
6 251 331 211 501 581 461 
6 149 151 150 399 401 400 
6 293 370 317 543 620 567 
6 153 204 152 403 454 402 
6 151 152 150 401 402 400 
6 33 292 140 81 542 390 
6 210 263 197 460 513 447 
6 301 305 249 551 555 499 
6 298 300 297 548 550 547 
6 68 296 142 116 546 392 
6 321 369 291 571 619 541 
6 179 224 177 429 474 427 
6 167 267 165 417 517 415 
6 259 346 262 509 596 512 
6 303 327 196 553 577 446 
6 269 270 155 519 520 405 
6 265 360 313 515 610 563 
6 223 269 157 473 519 407 
6 157 269 155 407 519 405 
6 144 279 278 394 529 528 
6 169 217 167 419 467 417 
6 177 264 175 427 514 425 
6 267 268 165 517 518 415 
6 159 223 157 409 473 407 
6 232 277 135 482 527 385 
6 193 254 190 443 504 440 
6 217 267 167 467 517 417 
6 249 356 142 499 606 392 
6 184 256 181 434 506 431 
6 248 355 219 498 605 469 
6 229 260 137 479 510 387 
6 149 150 148 399 400 398 
6 64 348 281 112 598 531 
6 311 374 293 561 624 543 
6 264 265 175 514 515 425 
6 297 300 296 547 550 546 
6 141 289 288 391 539 538 
6 197 263 195 447 513 445 
6 218 260 219 468 510 469 
6 224 264 177 474 514 427 
6 137 298 297 387 548 547 
6 277 295 135 527 545 385 
6 133 228 227 383 478 477 
6 261 349 262 511 599 512 
6 221 277 222 471 527 472 
6 256 325 224 506 575 474 
6 199 210 197 449 460 447 
6 226 254 193 476 504 443 
6 144 278 62 394 528 110 
6 279 283 278 529 533 528 
6 289 290 288 539 540 538 
6 137 297 70 387 547 118 
6 34 294 292 82 544 542 
6 235 236 216 485 486 466 
6 141 288 48 391 538 96 
6 178 306 180 428 556 430 
6 185 186 184 435 436 434 
6 63 281 144 111 531 394 
6 225 256 184 475 506 434 
6 46 291 136 94 541 386 
6 147 149 148 397 399 398 
6 271 272 204 521 522 454 
6 233 334 234 483 584 484 
6 145 275 40 395 525 88 
6 220 322 287 470 572 537 
6 280 334 213 530 584 463 
6 144 280 279 394 530 529 
6 140 287 32 390 537 80 
6 154 155 153 404 405 403 
6 334 350 213 584 600 463 
6 176 177 175 426 427 425 
6 260 298 137 510 548 387 
6 33 140 32 81 390 80 
6 49 141 48 97 391 96 
6 56 143 55 104 393 103 
6 68 142 67 116 392 115 
6 63 144 62 111 394 110 
6 61 139 60 109 389 108 
6 148 308 257 398 558 507 
6 71 137 70 119 387 118 
6 53 138 52 101 388 100 
6 46 136 45 94 386 93 
6 36 135 35 84 385 83 
6 43 146 134 91 396 384 
6 133 227 38 383 477 86 
6 192 193 190 442 443 440 
6 293 374 140 543 624 390 
6 34 292 33 82 542 81 
6 207 306 178 457 556 428 
6 43 134 42 91 384 90 
6 39 133 38 87 383 86 
6 41 145 40 89 395 88 
6 194 195 193 444 445 443 
6 69 296 68 117 546 116 
6 294 299 292 544 549 542 
6 173 175 171 423 425 421 
6 260 330 219 510 580 469 
6 183 184 181 433 434 431 
6 134 257 42 384 507 90 
6 55 349 54 103 599 102 
6 163 165 161 413 415 411 
6 166 167 165 416 417 415 
6 210 302 263 460 552 513 
6 271 273 272 521 523 522 
6 53 261 138 101 511 388 
6 217 326 267 467 576 517 
6 289 303 290 539 553 540 
6 178 179 177 428 429 427 
6 238 240 202 488 490 452 
6 62 278 61 110 528 109 
6 35 294 34 83 544 82 
6 284 361 232 534 611 482 
6 70 297 69 118 547 117 
6 224 304 264 474 554 514 
6 156 157 155 406 407 405 
6 48 288 47 96 538 95 
6 221 320 295 471 570 545 
6 187 188 186 437 438 436 
6 47 291 46 95 541 94 
6 151 154 153 401 404 403 
6 286 362 229 536 612 479 
6 168 169 167 418 419 417 
6 40 275 39 88 525 87 
6 307 324 141 557 574 391 
6 300 301 296 550 551 546 
6 32 287 31 80 537 79 
6 147 220 149 397 470 399 
6 333 344 231 583 594 481 
6 299 370 293 549 620 543 
6 271 359 273 521 609 523 
6 224 325 304 474 575 554 
6 228 237 227 478 487 477 
6 305 375 343 555 625 593 
6 218 319 298 468 569 548 
6 240 351 272 490 601 522 
6 277 329 222 527 579 472 
6 253 355 139 503 605 389 
6 158 159 157 408 409 407 
6 236 246 216 486 496 466 
6 192 194 193 442 444 443 
6 220 309 149 470 559 399 
6 183 185 184 433 435 434 
6 196 197 195 446 447 445 
6 276 347 58 526 597 106 
6 136 333 231 386 583 481 
6 67 247 66 115 497 114 
6 60 248 59 108 498 107 
6 261 262 250 511 512 500 
6 173 176 175 423 426 425 
6 344 357 231 594 607 481 
6 144 281 280 394 531 530 
6 152 205 150 402 455 400 
6 163 166 165 413 416 415 
6 185 187 186 435 437 436 
6 233 234 230 483 484 480 
6 170 171 169 420 421 419 
6 146 147 134 396 397 384 
6 176 178 177 426 428 427 
6 285 337 223 535 587 473 
6 154 156 155 404 406 405 
6 263 342 226 513 592 476 
6 235 245 236 485 495 486 
6 160 161 159 410 411 409 
6 58 347 242 106 597 492 
6 166 168 167 416 418 417 
6 287 374 220 537 624 470 
6 189 190 188 439 440 438 
6 148 257 134 398 507 384 
6 194 196 195 444 446 445 
6 252 308 205 502 558 455 
6 285 345 337 535 595 587 
6 301 375 305 551 625 555 
6 180 181 179 430 431 429 
6 281 348 234 531 598 484 
6 198 199 197 448 449 447 
6 151 309 154 401 559 404 
6 228 367 335 478 617 585 
6 54 349 261 102 599 511 
6 156 158 157 406 408 407 
6 168 170 169 418 420 419 
6 200 202 199 450 452 449 
6 147 148 134 397 398 384 
6 158 160 159 408 410 409 
6 150 308 148 400 558 398 
6 253 316 208 503 566 458 
6 232 329 277 482 579 527 
6 178 180 179 428 430 429 
6 191 192 190 441 442 440 
6 214 238 202 464 488 452 
6 172 173 171 422 423 421 
6 187 189 188 437 439 438 
6 162 163 161 412 413 411 
6 228 251 237 478 501 487 
6 215 258 235 465 508 485 
6 182 183 181 432 433 431 
6 202 310 199 452 560 449 
6 219 253 208 469 503 458 
6 222 249 206 472 499 456 
6 196 198 197 446 448 447 
6 229 330 260 479 580 510 
6 132 358 274 382 608 524 
6 149 309 151 399 559 401 
6 226 312 254 476 562 504 
6 154 309 209 404 559 459 
6 77 129 76 125 379 124 
6 73 128 72 121 378 120 
6 76 131 75 124 381 123 
6 74 132 73 122 382 121 
6 75 130 74 123 380 122 
6 14 127 77 29 377 125 
6 72 126 14 120 376 29 
6 133 367 228 383 617 478 
6 237 282 227 487 532 477 
6 239 366 252 489 616 502 
6 200 214 202 450 464 452 
6 192 201 194 442 451 444 
6 170 172 171 420 422 421 
6 220 311 309 470 561 559 
6 198 200 199 448 450 449 
6 189 191 190 439 441 440 
6 146 323 322 396 573 572 
6 160 162 161 410 412 411 
6 251 307 237 501 557 487 
6 199 310 210 449 560 460 
6 57 373 56 105 623 104 
6 214 239 238 464 489 488 
6 182 212 183 432 462 433 
6 180 182 181 430 432 431 
6 146 322 147 396 572 397 
6 172 218 208 422 468 458 
6 172 208 173 422 458 423 
6 162 221 206 412 471 456 
6 162 206 163 412 456 413 
6 176 207 178 426 457 428 
6 272 351 204 522 601 454 
6 198 211 200 448 461 450 
6 182 213 212 432 463 462 
6 234 334 281 484 584 531 
6 154 209 156 404 459 406 
6 185 203 187 435 453 437 
6 168 174 170 418 424 420 
6 189 215 191 439 465 441 
6 215 216 191 465 466 441 
6 221 222 206 471 472 456 
6 158 164 160 408 414 410 
6 218 219 208 468 469 458 
6 205 308 150 455 558 400 
6 191 314 192 441 564 442 
6 215 235 216 465 485 466 
6 215 318 258 465 568 508 
6 152 351 205 402 601 455 
6 138 261 250 388 511 500 
6 192 314 201 442 564 451 
6 234 347 230 484 597 480 
6 226 342 312 476 592 562 
6 138 250 233 388 500 483 
6 147 322 220 397 572 470 
6 216 314 191 466 564 441 
6 306 332 180 556 582 430 
6 222 356 249 472 606 499 
6 128 345 285 378 595 535 
6 314 321 201 564 571 451 
6 212 315 183 462 565 433 
6 312 342 336 562 592 586 
6 282 339 338 532 589 588 
6 340 341 323 590 591 573 
6 309 311 209 559 561 459 
6 183 315 185 433 565 435 
6 208 316 173 458 566 423 
6 173 316 176 423 566 426 
6 3 341 37 18 591 85 
6 44 339 6 92 589 21 
6 252 366 145 502 616 395 
6 246 321 314 496 571 564 
6 246 314 216 496 564 466 
6 126 364 313 376 614 563 
6 156 317 158 406 567 408 
6 275 367 133 525 617 383 
6 176 316 207 426 566 457 
6 185 315 203 435 565 453 
6 180 332 182 430 582 432 
6 302 352 131 552 602 381 
6 251 324 307 501 574 557 
6 187 318 189 437 568 439 
6 172 319 218 422 569 468 
6 162 320 221 412 570 471 
6 305 343 166 555 593 416 
6 170 319 172 420 569 422 
6 158 317 164 408 567 414 
6 209 317 156 459 567 406 
6 285 353 128 535 603 378 
6 223 337 269 473 587 519 
6 160 320 162 410 570 412 
6 211 331 200 461 581 450 
6 174 319 170 424 569 420 
6 203 318 187 453 568 437 
6 189 318 215 439 568 465 
6 198 327 211 448 577 461 
6 164 320 160 414 570 410 
6 326 353 267 576 603 517 
6 236 344 333 486 594 583 
6 196 327 198 446 577 448 
6 219 355 253 469 605 503 
6 281 334 280 531 584 530 
6 274 359 271 524 609 521 
6 164 370 299 414 620 549 
6 174 375 300 424 625 550 
6 287 363 31 537 613 79 
6 243 361 1 493 611 16 
6 241 362 12 491 612 27 
6 307 365 237 557 615 487 
6 166 343 168 416 593 418 
6 200 331 214 450 581 464 
6 313 326 217 563 576 467 
6 9 357 244 24 607 494 
6 1 361 30 16 611 78 
6 12 362 65 27 612 113 
6 337 345 132 587 595 382 
6 242 348 64 492 598 112 
6 231 357 266 481 607 516 
6 182 332 213 432 582 463 
6 245 344 236 495 594 486 
6 258 346 259 508 596 509 
6 145 366 275 395 616 525 
6 291 369 136 541 619 386 
6 236 333 246 486 583 496 
6 331 335 214 581 585 464 
6 312 336 129 562 586 379 
6 315 372 262 565 622 512 
6 220 374 311 470 624 561 
6 140 374 287 390 624 537 
6 126 360 304 376 610 554 
6 230 347 276 480 597 526 
6 313 364 326 563 614 576 
6 56 373 143 104 623 393 
6 239 367 366 489 617 616 
6 204 351 152 454 601 402 
6 300 375 301 550 625 551 
6 214 335 239 464 585 489 
6 247 329 243 497 579 493 
6 262 372 250 512 622 500 
6 248 330 241 498 580 491 
6 318 346 258 568 596 508 
6 333 369 246 583 619 496 
6 282 338 227 532 588 477 
6 146 340 323 396 590 573 
6 304 360 264 554 610 514 
6 366 367 275 616 617 525 
6 129 336 76 379 586 124 
6 73 345 128 121 595 378 
6 76 336 131 124 586 381 
6 250 350 233 500 600 483 
6 129 371 328 379 621 578 
6 132 345 73 382 595 121 
6 168 343 174 418 593 424 
6 131 352 75 381 602 123 
6 66 247 243 114 497 493 
6 59 248 241 107 498 491 
6 74 358 132 122 608 382 
6 203 346 318 453 596 568 
6 313 360 126 563 610 376 
6 128 364 72 378 614 120 
6 128 353 326 378 603 576 
6 77 371 129 125 621 379 
6 129 368 312 379 618 562 
6 244 357 344 494 607 594 
6 328 354 225 578 604 475 
6 326 364 128 576 614 378 
6 75 352 130 123 602 380 
6 350 372 212 600 622 462 
6 136 369 333 386 619 583 
6 325 354 127 575 604 377 
6 213 350 212 463 600 462 
6 130 358 74 380 608 122 
6 250 372 350 500 622 600 
6 317 370 164 567 620 414 
6 72 364 126 120 614 376 
6 328 368 129 578 618 379 
6 127 371 77 377 621 125 
6 336 342 131 586 592 381 
6 212 372 315 462 622 565 
6 234 348 347 484 598 597 
6 8 266 51 23 516 99 
6 10 276 58 25 526 106 
6 246 369 321 496 619 571 
6 30 284 0 78 534 15 
6 65 286 13 113 536 28 
6 58 242 11 106 492 26 
6 266 357 51 516 607 99 
6 255 368 328 505 618 578 
6 347 348 242 597 598 492 
6 322 363 287 572 613 537 
6 323 363 322 573 613 572 
6 335 367 239 585 617 489 
6 30 361 284 78 611 534 
6 65 362 286 113 612 536 
6 237 365 282 487 615 532 
6 130 359 358 380 609 608 
6 343 375 174 593 625 424 
6 354 371 127 604 621 377 
6 328 371 354 578 621 604 
6 358 359 274 608 609 524 
6 0 284 36 15 534 84 
6 45 266 8 93 516 23 
6 52 276 10 100 526 25 
6 11 242 64 26 492 112 
6 13 286 71 28 536 119 
6 2 323 3 17 573 18 
6 31 323 2 79 573 17 
6 323 341 3 573 591 18 
6 37 340 4 85 590 19 
6 4 340 43 19 590 91 
6 38 338 5 86 588 20 
6 5 338 44 20 588 92 
6 6 282 7 21 532 22 
6 6 339 282 21 589 532 
6 282 365 7 532 615 22 

CELL_TYPES 563
13
13
13
13
13
13
13
13
13
13
13
13
13
13
13
13
13
13
13
13
13
13
13
13
13
13
13
13
13
13
13
13
13
13
13
13
13
13
13
13
13
13
13
13
13
13
13
13
13
13
13
13
13
13
13
13
13
13
13
13
13
13
13
13
13
13
13
13
13
13
13
13
13
13
13
13
13
13
13
13
13
13
13
13
13
13
13
13
13
13
13
13
13
13
13
13
13
13
13
13
13
13
13
13
13
13
13
13
13
13
13
13
13
13
13
13
13
13
13
13
13
13
13
13
13
13
13
13
13
13
13
13
13
13
13
13
13
13
13
13
13
13
13
13
13
13
13
13
13
13
13
13
13
13
13
13
13
13
13
13
13
13
13
13
13
13
13
13
13
13
13
13
13
13
13
13
13
13
13
13
13
13
13
13
13
13
13
13
13
13
13
13
13
13
13
13
13
13
13
13
13
13
13
13
13
13
13
13
13
13
13
13
13
13
13
13
13
13
13
13
13
13
13
13
13
13
13
13
13
13
13
13
13
13
13
13
13
13
13
13
13
13
13
13
13
13
13
13
13
13
13
13
13
13
13
13
13
13
13
13
13
13
13
13
13
13
13
13
13
13
13
13
13
13
13
13
13
13
13
13
13
13
13
13
13
13
13
13
13
13
13
13
13
13
13
13
13
13
13
13
13
13
13
13
13
13
13
13
13
13
13
13
13
13
13
13
13
13
13
13
13
13
13
13
13
13
13
13
13
13
13
13
13
13
13
13
13
13
13
13
13
13
13
13
13
13
13
13
13
13
13
13
13
13
13
13
13
13
13
13
13
13
13
13
13
13
13
13
13
13
13
13
13
13
13
13
13
13
13
13
13
13
13
13
13
13
13
13
13
13
13
13
13
13
13
13
13
13
13
13
13
13
13
13
13
13
13
13
13
13
13
13
13
13
13
13
13
13
13
13
13
13
13
13
13
13
13
13
13
13
13
13
13
13
13
13
13
13
13
13
13
13
13
13
13
13
13
13
13
13
13
13
13
13
13
13
13
13
13
13
13
13
13
13
13
13
13
13
13
13
13
13
13
13
13
13
13
13
13
13
13
13
13
13
13
13
13
13
13
13
13
13
13
13
13
13
13
13
13
13
13
13
13
13
13
13
13
13
13
13
13
13
13
13
13
13
13
13
13
13
13
13
13
13
13
13
13
13
13
13
13
13
13
13
13
13
13
13
13
13
13
13
13
13
13
13
13
13
13
13
13
13
13
13
13
13
13
13
13
13
13
13
13

POINT_DATA 626
VECTORS displacement float
-1.74391e-06 3.09624e-05 1.80587e-05
1.73558e-06 3.09814e-05 1.81038e-05
-2.59932e-05 1.69968e-05 1.80907e-05
-2.58477e-05 1.60369e-05 1.80553e-05
-2.77275e-05 1.39768e-05 1.80727e-05
-2.77204e-05 -1.40231e-05 1.80982e-05
-2.58189e-05 -1.60751e-05 1.81095e-05
-2.59894e-05 -1.70148e-05 1.81707e-05
-1.67737e-06 -3.09661e-05 1.80551e-05
1.75539e-06 -3.09676e-05 1.81055e-05
2.59506e-05 -1.69846e-05 1.80472e-05
2.77239e-05 -1.39407e-05 1.80471e-05
2.76793e-05 1.39934e-05 1.80953e-05
2.59219e-05 1.69969e-05 1.80497e-05
0 0 0
-1.74391e-06 3.09624e-05 -1.80587e-05
1.73558e-06 3.09814e-05 -1.81038e-05
-2.59932e-05 1.69968e-05 -1.80907e-05
-2.58477e-05 1.60369e-05 -1.80553e-05
-2.77275e-05 1.39768e-05 -1.80727e-05
-2.77204e-05 -1.40231e-05 -1.80982e-05
-2.58189e-05 -1.60751e-05 -1.81095e-05
-2.59894e-05 -1.70148e-05 -1.81707e-05
-1.67737e-06 -3.09661e-05 -1.80551e-05
1.75539e-06 -3.09676e-05 -1.81055e-05
2.59506e-05 -1.69846e-05 -1.80472e-05
2.77239e-05 -1.39407e-05 -1.80471e-05
2.76793e-05 1.39934e-05 -1.80953e-05
2.59219e-05 1.69969e-05 -1.80497e-05
0 0 0
2.48606e-08 3.01622e-05 1.80379e-05
-2.11473e-05 1.87171e-05 1.75538e-05
-1.72384e-05 1.98396e-05 1.69253e-05
-1.40117e-05 2.10609e-05 1.65597e-05
-1.12103e-05 2.26723e-05 1.65536e-05
-8.52617e-06 2.48408e-05 1.69059e-05
-5.56859e-06 2.76299e-05 1.75415e-05
-2.64566e-05 1.4683e-05 1.80372e-05
-2.67761e-05 -9.01494e-06 1.75814e-05
-2.58141e-05 -5.03767e-06 1.69305e-05
-2.52626e-05 -1.63696e-06 1.65761e-05
-2.52656e-05 1.60859e-06 1.65791e-05
-2.58064e-05 5.02504e-06 1.69287e-05
-2.67624e-05 8.988e-06 1.7568e-05
-2.64435e-05 -1.47294e-05 1.80659e-05
-5.54184e-06 -2.76443e-05 1.75337e-05
-8.4787e-06 -2.48498e-05 1.69052e-05
-1.11735e-05 -2.26917e-05 1.65609e-05
-1.39753e-05 -2.10939e-05 1.65643e-05
-1.72208e-05 -1.98749e-05 1.69412e-05
-2.11408e-05 -1.87539e-05 1.75663e-05
8.97951e-08 -3.01469e-05 1.8033e-05
2.11307e-05 -1.86296e-05 1.75155e-05
1.72505e-05 -1.9768e-05 1.68774e-05
1.40386e-05 -2.10179e-05 1.65163e-05
1.12285e-05 -2.26004e-05 1.65509e-05
8.58329e-06 -2.47881e-05 1.68787e-05
5.65541e-06 -2.76346e-05 1.75391e-05
2.61313e-05 -1.50636e-05 1.80321e-05
2.67242e-05 8.94185e-06 1.75056e-05
2.573e-05 5.05179e-06 1.69129e-05
2.52147e-05 1.62408e-06 1.65279e-05
2.52119e-05 -1.60017e-06 1.65262e-05
2.57586e-05 -4.99957e-06 1.68929e-05
2.67063e-05 -8.92058e-06 1.75138e-05
2.61144e-05 1.50647e-05 1.80291e-05
5.63385e-06 2.76259e-05 1.75136e-05
8.51067e-06 2.48147e-05 1.69157e-05
1.12205e-05 2.26485e-05 1.65341e-05
1.40092e-05 2.10289e-05 1.65295e-05
1.72275e-05 1.97992e-05 1.68896e-05
2.11217e-05 1.86392e-05 1.75295e-05
0 0 0
0 0 0
0 0 0
0 0 0
0 0 0
0 0 0
2.48606e-08 3.01622e-05 -1.80379e-05
-2.11473e-05 1.87171e-05 -1.75538e-05
-1.72384e-05 1.98396e-05 -1.69253e-05
-1.40117e-05 2.10609e-05 -1.65597e-05
-1.12103e-05 2.26723e-05 -1.65536e-05
-8.52617e-06 2.48408e-05 -1.69059e-05
-5.56859e-06 2.76299e-05 -1.75415e-05
-2.64566e-05 1.4683e-05 -1.80372e-05
-2.67761e-05 -9.01494e-06 -1.75814e-05
-2.58141e-05 -5.03767e-06 -1.69305e-05
-2.52626e-05 -1.63696e-06 -1.65761e-05
-2.52656e-05 1.60859e-06 -1.65791e-05
-2.58064e-05 5.02504e-06 -1.69287e-05
-2.67624e-05 8.988e-06 -1.7568e-05
-2.64435e-05 -1.47294e-05 -1.80659e-05
-5.54184e-06 -2.76443e-05 -1.75337e-05
-8.4787e-06 -2.48498e-05 -1.69052e-05
-1.11735e-05 -2.26917e-05 -1.65609e-05
-1.39753e-05 -2.10939e-05 -1.65643e-05
-1.72208e-05 -1.98749e-05 -1.69412e-05
-2.11408e-05 -1.87539e-05 -1.75663e-05
8.97951e-08 -3.01469e-05 -1.8033e-05
2.11307e-05 -1.86296e-05 -1.75155e-05
1.72505e-05 -1.9768e-05 -1.68774e-05
1.40386e-05 -2.10179e-05 -1.65163e-05
1.12285e-05 -2.26004e-05 -1.65509e-05
8.58329e-06 -2.47881e-05 -1.68787e-05
5.65541e-06 -2.76346e-05 -1.75391e-05
2.61313e-05 -1.50636e-05 -1.80321e-05
2.67242e-05 8.94185e-06 -1.75056e-05
2.573e-05 5.05179e-06 -1.69129e-05
2.52147e-05 1.62408e-06 -1.65279e-05
2.52119e-05 -1.60017e-06 -1.65262e-05
2.57586e-05 -4.99957e-06 -1.68929e-05
2.67063e-05 -8.92058e-06 -1.75138e-05
2.61144e-05 1.50647e-05 -1.80291e-05
5.63385e-06 2.76259e-05 -1.75136e-05
8.51067e-06 2.48147e-05 -1.69157e-05
1.12205e-05 2.26485e-05 -1.65341e-05
1.40092e-05 2.10289e-05 -1.65295e-05
1.72275e-05 1.97992e-05 -1.68896e-05
2.11217e-05 1.86392e-05 -1.75295e-05
0 0 0
0 0 0
0 0 0
0 0 0
0 0 0
0 0 0
1.79411e-06 8.58952e-07 4.55371e-06
1.73823e-06 -8.25312e-07 4.46223e-06
4.32057e-07 1.85007e-06 4.49655e-06
4.36202e-07 -1.78105e-06 4.35747e-06
-1.84793e-06 2.09697e-08 4.42377e-06
-1.12335e-06 -1.30918e-06 4.15232e-06
-1.15948e-06 1.30711e-06 4.20111e-06
-2.25199e-05 -7.29021e-06 1.70043e-05
-2.22031e-05 7.3741e-06 1.6973e-05
-4.86168e-06 2.29056e-05 1.69414e-05
-4.85917e-06 -2.31388e-05 1.69683e-05
1.74268e-05 1.56401e-05 1.69342e-05
1.75744e-05 -1.5541e-05 1.69435e-05
2.10803e-05 3.16505e-06 1.63291e-05
-1.39578e-05 1.71566e-05 1.6483e-05
-1.35957e-05 -1.67465e-05 1.64146e-05
7.77022e-06 1.9826e-05 1.63359e-05
7.68716e-06 -2.03166e-05 1.64072e-05
2.14792e-05 -3.44502e-06 1.64048e-05
-2.11096e-05 6.58834e-09 1.62514e-05
-2.24269e-05 1.10031e-05 1.74576e-05
-1.87567e-05 9.25761e-06 1.66314e-05
-1.79885e-05 5.79736e-06 1.60408e-05
-1.49887e-05 7.45072e-06 1.54909e-05
-1.4229e-05 4.30912e-06 1.48342e-05
-1.15363e-05 5.74573e-06 1.40991e-05
-1.08615e-05 3.06971e-06 1.33778e-05
-8.40313e-06 4.30622e-06 1.24083e-05
-9.06171e-06 7.01564e-06 1.34606e-05
-6.20603e-06 5.49021e-06 1.16927e-05
-6.83049e-06 8.25207e-06 1.30841e-05
-4.28273e-06 6.67697e-06 1.14542e-05
-4.80156e-06 9.613e-06 1.30981e-05
-2.40163e-06 7.99583e-06 1.17267e-05
-2.81377e-06 1.11708e-05 1.34792e-05
-4.75569e-07 9.59832e-06 1.2505e-05
-7.38603e-07 1.30011e-05 1.41461e-05
1.73163e-06 1.15215e-05 1.35392e-05
-5.5365e-06 1.27045e-05 1.44414e-05
1.6856e-06 8.22654e-06 1.17513e-05
4.00546e-06 1.01241e-05 1.31551e-05
3.70649e-06 7.10015e-06 1.14819e-05
6.06934e-06 8.96955e-06 1.31175e-05
5.76861e-06 6.1087e-06 1.17393e-05
8.36076e-06 8.02291e-06 1.34963e-05
8.10821e-06 5.19691e-06 1.25043e-05
1.09575e-05 7.09934e-06 1.41513e-05
1.07494e-05 4.32419e-06 1.35033e-05
8.5333e-06 1.10411e-05 1.44652e-05
7.94016e-06 2.64457e-06 1.17312e-05
1.06494e-05 1.73776e-06 1.31082e-05
7.95115e-06 3.58872e-07 1.14593e-05
1.08099e-05 -7.59356e-07 1.31283e-05
8.11417e-06 -1.93841e-06 1.17129e-05
1.11018e-05 -3.31392e-06 1.34882e-05
8.47241e-06 -4.42538e-06 1.2448e-05
1.15074e-05 -6.00482e-06 1.41138e-05
8.95844e-06 -7.14041e-06 1.34323e-05
6.14943e-06 -5.49613e-06 1.1645e-05
6.64662e-06 -8.30353e-06 1.30224e-05
4.10647e-06 -6.59055e-06 1.13146e-05
4.5248e-06 -9.55393e-06 1.29925e-05
2.24299e-06 -7.86073e-06 1.16011e-05
2.48562e-06 -1.10054e-05 1.33552e-05
2.25354e-07 -9.37665e-06 1.23576e-05
3.30107e-07 -1.27739e-05 1.40382e-05
-1.91606e-06 -1.11543e-05 1.33813e-05
-1.84165e-06 -7.92408e-06 1.15859e-05
-4.16925e-06 -9.87802e-06 1.30892e-05
-3.81513e-06 -6.73258e-06 1.13208e-05
-6.34767e-06 -8.6648e-06 1.31035e-05
-5.89314e-06 -5.69978e-06 1.16322e-05
-8.50246e-06 -7.43818e-06 1.33839e-05
-8.17013e-06 -4.72955e-06 1.24126e-05
-1.10992e-05 -6.40483e-06 1.40743e-05
-4.37309e-06 -1.31275e-05 1.44381e-05
-1.08123e-05 -3.65185e-06 1.34435e-05
7.22848e-06 -1.13765e-05 1.42775e-05
-7.74411e-06 1.9833e-06 1.14966e-05
-1.32204e-05 1.03539e-06 1.42154e-05
1.72966e-06 1.50877e-05 1.49567e-05
1.37726e-05 4.62394e-07 1.43923e-05
1.38477e-05 6.1021e-06 1.49362e-05
-9.69723e-06 1.01996e-05 1.4537e-05
-5.41764e-06 -3.19861e-06 1.01855e-05
-1.17174e-05 -9.30034e-06 1.48937e-05
1.18862e-05 -8.76306e-06 1.47917e-05
1.47865e-05 -7.47603e-06 1.54079e-05
-1.39643e-05 -5.2456e-06 1.48662e-05
2.79671e-06 -1.45209e-05 1.48008e-05
4.24675e-07 -1.65047e-05 1.54023e-05
3.51947e-06 4.39824e-06 9.58429e-06
1.40151e-05 9.30206e-06 1.54962e-05
1.79365e-05 8.14761e-06 1.63051e-05
-1.56805e-05 1.13989e-05 1.6238e-05
-1.09444e-06 1.67745e-05 1.54999e-05
1.90739e-06 1.96279e-05 1.63155e-05
-2.0925e-06 5.22162e-06 9.60078e-06
5.55559e-06 -7.84836e-07 9.59734e-06
3.587e-06 -3.68464e-06 9.08499e-06
-1.78017e-06 -5.1801e-06 9.45274e-06
-2.24753e-05 -1.10142e-05 1.74784e-05
-1.8804e-05 -9.24435e-06 1.66554e-05
2.11542e-05 1.41688e-05 1.75096e-05
2.076e-05 -1.43217e-05 1.74396e-05
-1.76494e-06 -2.5454e-05 1.7515e-05
-1.68245e-06 2.5418e-05 1.75196e-05
1.77186e-05 -1.19106e-05 1.66916e-05
2.0652e-05 -1.07544e-05 1.71202e-05
3.77675e-06 -1.89913e-05 1.6144e-05
7.68713e-07 -2.03522e-05 1.64873e-05
-1.9411e-05 -1.26543e-05 1.71474e-05
-1.37356e-05 -2.30768e-06 1.44764e-05
-1.65981e-05 -3.70267e-06 1.54822e-05
-1.03792e-05 -1.09674e-06 1.29563e-05
2.4459e-05 1.10763e-05 1.76556e-05
2.55045e-05 -1.2407e-05 1.7852e-05
2.64961e-06 2.67337e-05 1.76645e-05
2.52135e-06 -2.64213e-05 1.76333e-05
3.34024e-06 -2.3039e-05 1.70334e-05
-2.05454e-06 -1.83258e-05 1.59554e-05
4.05997e-06 2.37987e-05 1.71347e-05
2.26209e-05 8.38212e-06 1.71235e-05
4.61503e-06 1.7319e-05 1.57319e-05
1.44317e-05 -1.31236e-05 1.6142e-05
-1.57927e-05 -1.09882e-05 1.6219e-05
-1.68053e-05 -3.81562e-07 1.5382e-05
1.73115e-05 4.68906e-06 1.57303e-05
6.55365e-08 -6.38923e-06 1.02708e-05
1.74221e-06 -4.84987e-06 9.0955e-06
5.85222e-06 -2.9364e-06 1.03816e-05
-2.1451e-05 3.75188e-06 1.64635e-05
5.73118e-06 -1.62798e-05 1.55124e-05
9.0864e-06 -1.75048e-05 1.60023e-05
1.75777e-05 1.18853e-05 1.66767e-05
1.39989e-05 -1.63874e-05 1.64059e-05
1.07435e-05 -1.37935e-05 1.55548e-05
-3.54901e-06 -4.22143e-06 9.5039e-06
5.4007e-06 1.13883e-06 9.5022e-06
5.2196e-06 3.22384e-06 1.00506e-05
-1.74998e-06 -2.83623e-05 1.78806e-05
1.89261e-06 5.30045e-06 9.58762e-06
-1.13862e-07 6.10682e-06 1.00421e-05
-3.78603e-06 4.12895e-06 9.58157e-06
-5.62436e-06 3.03509e-06 1.02886e-05
-5.16697e-06 1.04098e-06 9.21664e-06
-7.52955e-06 -6.17589e-08 1.11761e-05
-4.33559e-06 -8.10503e-07 8.3846e-06
-3.10943e-06 1.87284e-06 7.37646e-06
-2.20882e-05 -3.60911e-06 1.65204e-05
2.34128e-05 -1.5692e-05 1.78399e-05
-1.50762e-06 2.11745e-05 1.66864e-05
2.12686e-05 -8.45513e-08 1.62305e-05
1.76278e-05 -1.64736e-06 1.55862e-05
1.73533e-05 -4.94332e-06 1.57753e-05
2.18982e-05 -7.45365e-06 1.6918e-05
-2.31887e-05 -1.42584e-05 1.78365e-05
1.73303e-05 1.64944e-06 1.55133e-05
-1.73418e-06 2.84808e-05 1.78979e-05
-4.22188e-07 3.68442e-06 7.49775e-06
2.37786e-05 1.57464e-05 1.78883e-05
-1.75029e-05 1.56468e-05 1.69793e-05
-1.06297e-05 -1.84721e-05 1.62598e-05
-1.01029e-05 -1.4347e-05 1.55764e-05
-7.51022e-06 -1.61001e-05 1.56268e-05
-7.32437e-06 -2.0127e-05 1.63999e-05
-1.0708e-05 1.85413e-05 1.62715e-05
-1.03507e-05 1.43888e-05 1.56241e-05
-7.775e-06 2.0499e-05 1.64489e-05
-4.25429e-06 1.86156e-05 1.60576e-05
1.07632e-05 1.83514e-05 1.62309e-05
1.38963e-05 1.69402e-05 1.64357e-05
1.40465e-05 1.2977e-05 1.60559e-05
-7.36397e-06 1.62936e-05 1.56432e-05
1.05286e-05 1.45518e-05 1.56499e-05
7.75125e-06 1.60976e-05 1.56187e-05
-3.11732e-06 -1.89928e-06 7.3956e-06
-7.26003e-06 -1.2426e-05 1.46298e-05
3.00945e-06 4.03712e-08 6.60313e-06
4.87415e-06 1.35272e-05 1.46227e-05
1.40806e-05 -2.26113e-06 1.45751e-05
-1.72953e-05 -1.52212e-05 1.69498e-05
-1.73721e-05 2.42112e-06 1.56025e-05
-1.22086e-05 8.91479e-06 1.4948e-05
-7.70801e-06 -2.29322e-06 1.15585e-05
-1.24538e-05 1.18164e-05 1.55446e-05
-1.42777e-07 -3.75525e-06 7.55666e-06
2.73097e-06 2.2727e-06 7.25431e-06
-2.00452e-06 -1.46552e-05 1.48126e-05
9.36814e-06 -1.00715e-05 1.4394e-05
1.38653e-05 3.15886e-06 1.45707e-05
-7.34245e-06 1.1203e-05 1.42648e-05
4.99884e-06 -1.2779e-05 1.43739e-05
1.10355e-05 1.04339e-05 1.49243e-05
-3.59762e-06 1.469e-05 1.49126e-05
-4.63696e-06 -1.66223e-05 1.55535e-05
-1.95131e-05 1.28962e-05 1.71655e-05
-2.31335e-05 1.48622e-05 1.78473e-05
-1.29092e-05 -1.26901e-05 1.58172e-05
3.76185e-06 -1.58657e-06 7.90956e-06
1.76487e-06 2.92308e-06 7.08676e-06
-9.23351e-06 -1.06129e-05 1.45364e-05
1.72821e-06 -2.82392e-06 6.93334e-06
9.94913e-07 2.41241e-05 1.73126e-05
2.13744e-05 1.11973e-05 1.73028e-05
-1.46693e-05 -7.95594e-06 1.54899e-05
1.37125e-05 -4.78789e-06 1.46952e-05
-1.91041e-06 -2.17697e-05 1.68071e-05
1.80661e-05 -8.42179e-06 1.63452e-05
-1.66843e-05 -6.33064e-06 1.5787e-05
-4.33011e-07 -1.9228e-06 4.80002e-06
-1.80587e-06 2.99626e-06 7.17954e-06
-2.50588e-05 -1.29856e-05 1.79261e-05
-2.51339e-05 -1.45112e-05 1.80058e-05
-2.5052e-05 1.30375e-05 1.79098e-05
-2.51248e-05 1.46539e-05 1.79859e-05
-1.64891e-06 -3.1257e-06 7.21228e-06
6.33002e-06 1.13721e-05 1.40811e-05
5.33794e-07 -2.40934e-05 1.73064e-05
-5.22911e-07 1.81e-06 4.64651e-06
7.40989e-06 -1.43484e-05 1.51571e-05
2.33095e-05 -1.32132e-05 1.77327e-05
2.36395e-05 -1.0541e-05 1.74949e-05
1.19924e-05 -1.82169e-05 1.62981e-05
1.47349e-05 -1.01499e-05 1.58002e-05
-1.00303e-05 1.00157e-06 1.27589e-05
-1.74045e-06 -8.16106e-07 4.72498e-06
7.69275e-07 3.70938e-06 7.57565e-06
2.3437e-06 -1.99769e-06 6.55744e-06
2.01629e-05 5.89987e-06 1.64582e-05
5.07153e-06 2.06026e-05 1.65006e-05
3.42131e-07 -2.76878e-05 1.78579e-05
-1.73166e-06 7.09288e-07 4.60781e-06
-3.21238e-06 6.23214e-07 6.82638e-06
3.57821e-06 1.47582e-06 7.63915e-06
4.99253e-07 2.83316e-05 1.79311e-05
2.47671e-05 1.3738e-05 1.79222e-05
-2.03346e-05 1.55401e-05 1.74332e-05
1.179e-06 1.36481e-06 4.4613e-06
-2.0646e-05 -1.57327e-05 1.75317e-05
-1.90051e-05 -2.32301e-06 1.59509e-05
-1.95654e-05 -5.5869e-06 1.63369e-05
9.05926e-07 -3.24864e-06 7.00841e-06
-4.36733e-06 -1.97957e-05 1.63265e-05
-7.93993e-06 1.3839e-05 1.51058e-05
1.16604e-06 -1.30451e-06 4.3407e-06
1.19384e-05 -1.1232e-05 1.52969e-05
6.13465e-06 -2.27034e-05 1.6825e-05
-1.45269e-05 1.43599e-05 1.63283e-05
7.9317e-06 1.33257e-05 1.49527e-05
1.79411e-06 8.58952e-07 -4.55371e-06
1.73823e-06 -8.25312e-07 -4.46223e-06
4.32057e-07 1.85007e-06 -4.49655e-06
4.36202e-07 -1.78105e-06 -4.35747e-06
-1.84793e-06 2.09697e-08 -4.42377e-06
-1.12335e-06 -1.30918e-06 -4.15232e-06
-1.15948e-06 1.30711e-06 -4.20111e-06
-2.25199e-05 -7.29021e-06 -1.70043e-05
-2.22031e-05 7.3741e-06 -1.6973e-05
-4.86168e-06 2.29056e-05 -1.69414e-05
-4.85917e-06 -2.31388e-05 -1.69683e-05
1.74268e-05 1.56401e-05 -1.69342e-05
1.75744e-05 -1.5541e-05 -1.69435e-05
2.10803e-05 3.16505e-06 -1.63291e-05
-1.39578e-05 1.71566e-05 -1.6483e-05
-1.35957e-05 -1.67465e-05 -1.64146e-05
7.77022e-06 1.9826e-05 -1.63359e-05
7.68716e-06 -2.03166e-05 -1.64072e-05
2.14792e-05 -3.44502e-06 -1.64048e-05
-2.11096e-05 6.58834e-09 -1.62514e-05
-2.24269e-05 1.10031e-05 -1.74576e-05
-1.87567e-05 9.25761e-06 -1.66314e-05
-1.79885e-05 5.79736e-06 -1.60408e-05
-1.49887e-05 7.45072e-06 -1.54909e-05
-1.4229e-05 4.30912e-06 -1.48342e-05
-1.15363e-05 5.74573e-06 -1.40991e-05
-1.08615e-05 3.06971e-06 -1.33778e-05
-8.40313e-06 4.30622e-06 -1.24083e-05
-9.06171e-06 7.01564e-06 -1.34606e-05
-6.20603e-06 5.49021e-06 -1.16927e-05
-6.83049e-06 8.25207e-06 -1.30841e-05
-4.28273e-06 6.67697e-06 -1.14542e-05
-4.80156e-06 9.613e-06 -1.30981e-05
-2.40163e-06 7.99583e-06 -1.17267e-05
-2.81377e-06 1.11708e-05 -1.34792e-05
-4.75569e-07 9.59832e-06 -1.2505e-05
-7.38603e-07 1.30011e-05 -1.41461e-05
1.73163e-06 1.15215e-05 -1.35392e-05
-5.5365e-06 1.27045e-05 -1.44414e-05
1.6856e-06 8.22654e-06 -1.17513e-05
4.00546e-06 1.01241e-05 -1.31551e-05
3.70649e-06 7.10015e-06 -1.14819e-05
6.06934e-06 8.96955e-06 -1.31175e-05
5.76861e-06 6.1087e-06 -1.17393e-05
8.36076e-06 8.02291e-06 -1.34963e-05
8.10821e-06 5.19691e-06 -1.25043e-05
1.09575e-05 7.09934e-06 -1.41513e-05
1.07494e-05 4.32419e-06 -1.35033e-05
8.5333e-06 1.10411e-05 -1.44652e-05
7.94016e-06 2.64457e-06 -1.17312e-05
1.06494e-05 1.73776e-06 -1.31082e-05
7.95115e-06 3.58872e-07 -1.14593e-05
1.08099e-05 -7.59356e-07 -1.31283e-05
8.11417e-06 -1.93841e-06 -1.17129e-05
1.11018e-05 -3.31392e-06 -1.34882e-05
8.47241e-06 -4.42538e-06 -1.2448e-05
1.15074e-05 -6.00482e-06 -1.41138e-05
8.95844e-06 -7.14041e-06 -1.34323e-05
6.14943e-06 -5.49613e-06 -1.1645e-05
6.64662e-06 -8.30353e-06 -1.30224e-05
4.10647e-06 -6.59055e-06 -1.13146e-05
4.5248e-06 -9.55393e-06 -1.29925e-05
2.24299e-06 -7.86073e-06 -1.16011e-05
2.48562e-06 -1.10054e-05 -1.33552e-05
2.25354e-07 -9.37665e-06 -1.23576e-05
3.30107e-07 -1.27739e-05 -1.40382e-05
-1.91606e-06 -1.11543e-05 -1.33813e-05
-1.84165e-06 -7.92408e-06 -1.15859e-05
-4.16925e-06 -9.87802e-06 -1.30892e-05
-3.81513e-06 -6.73258e-06 -1.13208e-05
-6.34767e-06 -8.6648e-06 -1.31035e-05
-5.89314e-06 -5.69978e-06 -1.16322e-05
-8.50246e-06 -7.43818e-06 -1.33839e-05
-8.17013e-06 -4.72955e-06 -1.24126e-05
-1.10992e-05 -6.40483e-06 -1.40743e-05
-4.37309e-06 -1.31275e-05 -1.44381e-05
-1.08123e-05 -3.65185e-06 -1.34435e-05
7.22848e-06 -1.13765e-05 -1.42775e-05
-7.74411e-06 1.9833e-06 -1.14966e-05
-1.32204e-05 1.03539e-06 -1.42154e-05
1.72966e-06 1.50877e-05 -1.49567e-05
1.37726e-05 4.62394e-07 -1.43923e-05
1.38477e-05 6.1021e-06 -1.49362e-05
-9.69723e-06 1.01996e-05 -1.4537e-05
-5.41764e-06 -3.19861e-06 -1.01855e-05
-1.17174e-05 -9.30034e-06 -1.48937e-05
1.18862e-05 -8.76306e-06 -1.47917e-05
1.47865e-05 -7.47603e-06 -1.54079e-05
-1.39643e-05 -5.2456e-06 -1.48662e-05
2.79671e-06 -1.45209e-05 -1.48008e-05
4.24675e-07 -1.65047e-05 -1.54023e-05
3.51947e-06 4.39824e-06 -9.58429e-06
1.40151e-05 9.30206e-06 -1.54962e-05
1.79365e-05 8.14761e-06 -1.63051e-05
-1.56805e-05 1.13989e-05 -1.6238e-05
-1.09444e-06 1.67745e-05 -1.54999e-05
1.90739e-06 1.96279e-05 -1.63155e-05
-2.0925e-06 5.22162e-06 -9.60078e-06
5.55559e-06 -7.84836e-07 -9.59734e-06
3.587e-06 -3.68464e-06 -9.08499e-06
-1.78017e-06 -5.1801e-06 -9.45274e-06
-2.24753e-05 -1.10142e-05 -1.74784e-05
-1.8804e-05 -9.24435e-06 -1.66554e-05
2.11542e-05 1.41688e-05 -1.75096e-05
2.076e-05 -1.43217e-05 -1.74396e-05
-1.76494e-06 -2.5454e-05 -1.7515e-05
-1.68245e-06 2.5418e-05 -1.75196e-05
1.77186e-05 -1.19106e-05 -1.66916e-05
2.0652e-05 -1.07544e-05 -1.71202e-05
3.77675e-06 -1.89913e-05 -1.6144e-05
7.68713e-07 -2.03522e-05 -1.64873e-05
-1.9411e-05 -1.26543e-05 -1.71474e-05
-1.37356e-05 -2.30768e-06 -1.44764e-05
-1.65981e-05 -3.70267e-06 -1.54822e-05
-1.03792e-05 -1.09674e-06 -1.29563e-05
2.4459e-05 1.10763e-05 -1.76556e-05
2.55045e-05 -1.2407e-05 -1.7852e-05
2.64961e-06 2.67337e-05 -1.76645e-05
2.52135e-06 -2.64213e-05 -1.76333e-05
3.34024e-06 -2.3039e-05 -1.70334e-05
-2.05454e-06 -1.83258e-05 -1.59554e-05
4.05997e-06 2.37987e-05 -1.71347e-05
2.26209e-05 8.38212e-06 -1.71235e-05
4.61503e-06 1.7319e-05 -1.57319e-05
1.44317e-05 -1.31236e-05 -1.6142e-05
-1.57927e-05 -1.09882e-05 -1.6219e-05
-1.68053e-05 -3.81562e-07 -1.5382e-05
1.73115e-05 4.68906e-06 -1.57303e-05
6.55365e-08 -6.38923e-06 -1.02708e-05
1.74221e-06 -4.84987e-06 -9.0955e-06
5.85222e-06 -2.9364e-06 -1.03816e-05
-2.1451e-05 3.75188e-06 -1.64635e-05
5.73118e-06 -1.62798e-05 -1.55124e-05
9.0864e-06 -1.75048e-05 -1.60023e-05
1.75777e-05 1.18853e-05 -1.66767e-05
1.39989e-05 -1.63874e-05 -1.64059e-05
1.07435e-05 -1.37935e-05 -1.55548e-05
-3.54901e-06 -4.22143e-06 -9.5039e-06
5.4007e-06 1.13883e-06 -9.5022e-06
5.2196e-06 3.22384e-06 -1.00506e-05
-1.74998e-06 -2.83623e-05 -1.78806e-05
1.89261e-06 5.30045e-06 -9.58762e-06
-1.13862e-07 6.10682e-06 -1.00421e-05
-3.78603e-06 4.12895e-06 -9.58157e-06
-5.62436e-06 3.03509e-06 -1.02886e-05
-5.16697e-06 1.04098e-06 -9.21664e-06
-7.52955e-06 -6.17589e-08 -1.11761e-05
-4.33559e-06 -8.10503e-07 -8.3846e-06
-3.10943e-06 1.87284e-06 -7.37646e-06
-2.20882e-05 -3.60911e-06 -1.65204e-05
2.34128e-05 -1.5692e-05 -1.78399e-05
-1.50762e-06 2.11745e-05 -1.66864e-05
2.12686e-05 -8.45513e-08 -1.62305e-05
1.76278e-05 -1.64736e-06 -1.55862e-05
1.73533e-05 -4.94332e-06 -1.57753e-05
2.18982e-05 -7.45365e-06 -1.6918e-05
-2.31887e-05 -1.42584e-05 -1.78365e-05
1.73303e-05 1.64944e-06 -1.55133e-05
-1.73418e-06 2.84808e-05 -1.78979e-05
-4.22188e-07 3.68442e-06 -7.49775e-06
2.37786e-05 1.57464e-05 -1.78883e-05
-1.75029e-05 1.56468e-05 -1.69793e-05
-1.06297e-05 -1.84721e-05 -1.62598e-05
-1.01029e-05 -1.4347e-05 -1.55764e-05
-7.51022e-06 -1.61001e-05 -1.56268e-05
-7.32437e-06 -2.0127e-05 -1.63999e-05
-1.0708e-05 1.85413e-05 -1.62715e-05
-1.03507e-05 1.43888e-05 -1.56241e-05
-7.775e-06 2.0499e-05 -1.64489e-05
-4.25429e-06 1.86156e-05 -1.60576e-05
1.07632e-05 1.83514e-05 -1.62309e-05
1.38963e-05 1.69402e-05 -1.64357e-05
1.40465e-05 1.2977e-05 -1.60559e-05
-7.36397e-06 1.62936e-05 -1.56432e-05
1.05286e-05 1.45518e-05 -1.56499e-05
7.75125e-06 1.60976e-05 -1.56187e-05
-3.11732e-06 -1.89928e-06 -7.3956e-06
-7.26003e-06 -1.2426e-05 -1.46298e-05
3.00945e-06 4.03712e-08 -6.60313e-06
4.87415e-06 1.35272e-05 -1.46227e-05
1.40806e-05 -2.26113e-06 -1.45751e-05
-1.72953e-05 -1.52212e-05 -1.69498e-05
-1.73721e-05 2.42112e-06 -1.56025e-05
-1.22086e-05 8.91479e-06 -1.4948e-05
-7.70801e-06 -2.29322e-06 -1.15585e-05
-1.24538e-05 1.18164e-05 -1.55446e-05
-1.42777e-07 -3.75525e-06 -7.55666e-06
2.73097e-06 2.2727e-06 -7.25431e-06
-2.00452e-06 -1.46552e-05 -1.48126e-05
9.36814e-06 -1.00715e-05 -1.4394e-05
1.38653e-05 3.15886e-06 -1.45707e-05
-7.34245e-06 1.1203e-05 -1.42648e-05
4.99884e-06 -1.2779e-05 -1.43739e-05
1.10355e-05 1.04339e-05 -1.49243e-05
-3.59762e-06 1.469e-05 -1.49126e-05
-4.63696e-06 -1.66223e-05 -1.55535e-05
-1.95131e-05 1.28962e-05 -1.71655e-05
-2.31335e-05 1.48622e-05 -1.78473e-05
-1.29092e-05 -1.26901e-05 -1.58172e-05
3.76185e-06 -1.58657e-06 -7.90956e-06
1.76487e-06 2.92308e-06 -7.08676e-06
-9.23351e-06 -1.06129e-05 -1.45364e-05
1.72821e-06 -2.82392e-06 -6.93334e-06
9.94913e-07 2.41241e-05 -1.73126e-05
2.13744e-05 1.11973e-05 -1.73028e-05
-1.46693e-05 -7.95594e-06 -1.54899e-05
1.37125e-05 -4.78789e-06 -1.46952e-05
-1.91041e-06 -2.17697e-05 -1.68071e-05
1.80661e-05 -8.42179e-06 -1.63452e-05
-1.66843e-05 -6.33064e-06 -1.5787e-05
-4.33011e-07 -1.9228e-06 -4.80002e-06
-1.80587e-06 2.99626e-06 -7.17954e-06
-2.50588e-05 -1.29856e-05 -1.79261e-05
-2.51339e-05 -1.45112e-05 -1.80058e-05
-2.5052e-05 1.30375e-05 -1.79098e-05
-2.51248e-05 1.46539e-05 -1.79859e-05
-1.64891e-06 -3.1257e-06 -7.21228e-06
6.33002e-06 1.13721e-05 -1.40811e-05
5.33794e-07 -2.40934e-05 -1.73064e-05
-5.22911e-07 1.81e-06 -4.64651e-06
7.40989e-06 -1.43484e-05 -1.51571e-05
2.33095e-05 -1.32132e-05 -1.77327e-05
2.36395e-05 -1.0541e-05 -1.74949e-05
1.19924e-05 -1.82169e-05 -1.62981e-05
1.47349e-05 -1.01499e-05 -1.58002e-05
-1.00303e-05 1.00157e-06 -1.27589e-05
-1.74045e-06 -8.16106e-07 -4.72498e-06
7.69275e-07 3.70938e-06 -7.57565e-06
2.3437e-06 -1.99769e-06 -6.55744e-06
2.01629e-05 5.89987e-06 -1.64582e-05
5.07153e-06 2.06026e-05 -1.65006e-05
3.42131e-07 -2.76878e-05 -1.78579e-05
-1.73166e-06 7.09288e-07 -4.60781e-06
-3.21238e-06 6.23214e-07 -6.82638e-06
3.57821e-06 1.47582e-06 -7.63915e-06
4.99253e-07 2.83316e-05 -1.79311e-05
2.47671e-05 1.3738e-05 -1.79222e-05
-2.03346e-05 1.55401e-05 -1.74332e-05
1.179e-06 1.36481e-06 -4.4613e-06
-2.0646e-05 -1.57327e-05 -1.75317e-05
-1.90051e-05 -2.32301e-06 -1.59509e-05
-1.95654e-05 -5.5869e-06 -1.63369e-05
9.05926e-07 -3.24864e-06 -7.00841e-06
-4.36733e-06 -1.97957e-05 -1.63265e-05
-7.93993e-06 1.3839e-05 -1.51058e-05
1.16604e-06 -1.30451e-06 -4.3407e-06
1.19384e-05 -1.1232e-05 -1.52969e-05
6.13465e-06 -2.27034e-05 -1.6825e-05
-1.45269e-05 1.43599e-05 -1.63283e-05
7.9317e-06 1.33257e-05 -1.49527e-05
SCALARS effective_fluid_pressure_TPM float
LOOKUP_TABLE default
665
665
665
665
665
665
665
665
665
665
665
665
665
665
133
665
665
665
665
665
665
665
665
665
665
665
665
665
665
133
665
560.413
520.792
502.948
502.719
519.92
560.034
665
562.078
520.887
503.39
503.5
520.819
561.701
665
559.701
519.791
502.893
503.11
521.287
561.716
665
558.958
519.135
501.682
502.378
518.985
559.546
665
558.598
520.075
502.014
501.946
519.508
558.038
665
558.754
520.089
502.186
502.048
519.496
559.76
133
133
133
133
133
133
665
560.413
520.792
502.948
502.719
519.92
560.034
665
562.078
520.887
503.39
503.5
520.819
561.701
665
559.701
519.791
502.893
503.11
521.287
561.716
665
558.958
519.135
501.682
502.378
518.985
559.546
665
558.598
520.075
502.014
501.946
519.508
558.038
665
558.754
520.089
502.186
502.048
519.496
559.76
133
133
133
133
133
133
228.307
226.377
227.091
224.158
225.574
219.893
220.909
529.283
528.293
526.673
528.051
526.7
527.753
498.842
503.686
501.725
499.083
501.598
501.38
494.466
562.591
519.099
495.16
480.867
461.492
443.41
425.176
402.244
427.401
385.385
417.868
379.73
418.031
386.07
427.518
404.423
444.514
429.207
450.394
386.679
419.432
380.325
418.443
386.31
427.892
404.351
444.625
428.291
450.991
386.154
418.295
379.741
418.651
385.677
427.728
403.044
443.687
426.582
384.17
416.267
376.424
415.474
383.142
424.549
400.969
441.836
425.356
382.878
417.907
376.688
418.225
383.964
425.396
402.336
442.808
450.784
426.856
446.143
380.85
444.808
465.42
448.877
464.894
453.544
351.013
463.636
461.168
478.572
462.903
460.774
478.476
337.382
480.948
505.972
503.732
481.013
506.278
337.795
337.607
326.265
334.519
563.466
519.774
567.664
562.454
567.981
567.834
521.921
542.819
498.749
513.851
542.164
451.586
477.703
414.784
579.595
611.076
579.748
576.112
534.661
494.598
538.333
538.029
485.162
498.236
503.448
473.268
485.209
352.859
326.515
355.289
503.567
477.844
488.489
520.991
502.151
478.043
335.645
335.508
347.809
613.492
337.483
347.68
337.369
353.315
329.289
373.374
310.752
288.869
504.833
608.431
521.212
493.851
478.456
486.478
526.607
600.397
476.693
615.943
291.48
615.842
528.833
494.662
478.362
479.537
501.438
494.968
479.563
502.634
495.294
493.873
502.386
495.367
480.01
480.176
479.179
289.376
454.718
272.015
455.125
453.753
527.115
479.598
465.344
382.22
480.629
292.753
286.162
461.6
449.757
454.101
445.979
448.813
463.727
463.384
480.075
543.558
601.758
487.614
300.389
282.54
453.137
279.24
552.334
552.094
480.892
458.14
526.334
508.297
488.707
233.783
284.638
614.551
636.347
615.185
636.703
285.359
441.464
553.174
230.537
467.678
590.328
566.117
495.941
490.165
410.16
232.171
293.18
271.198
508.009
509.307
607.865
229.714
277.051
294.515
618.919
618.832
558.604
226.571
562.614
488.437
503.511
280.924
504.18
466.504
224.055
473.707
519.69
503.097
462.571
228.307
226.377
227.091
224.158
225.574
219.893
220.909
529.283
528.293
526.673
528.051
526.7
527.753
498.842
503.686
501.725
499.083
501.598
501.38
494.466
562.591
519.099
495.16
480.867
461.492
443.41
425.176
402.244
427.401
385.385
417.868
379.73
418.031
386.07
427.518
404.423
444.514
429.207
450.394
386.679
419.432
380.325
418.443
386.31
427.892
404.351
444.625
428.291
450.991
386.154
418.295
379.741
418.651
385.677
427.728
403.044
443.687
426.582
384.17
416.267
376.424
415.474
383.142
424.549
400.969
441.836
425.356
382.878
417.907
376.688
418.225
383.964
425.396
402.336
442.808
450.784
426.856
446.143
380.85
444.808
465.42
448.877
464.894
453.544
351.013
463.636
461.168
478.572
462.903
460.774
478.476
337.382
480.948
505.972
503.732
481.013
506.278
337.795
337.607
326.265
334.519
563.466
519.774
567.664
562.454
567.981
567.834
521.921
542.819
498.749
513.851
542.164
451.586
477.703
414.784
579.595
611.076
579.748
576.112
534.661
494.598
538.333
538.029
485.162
498.236
503.448
473.268
485.209
352.859
326.515
355.289
503.567
477.844
488.489
520.991
502.151
478.043
335.645
335.508
347.809
613.492
337.483
347.68
337.369
353.315
329.289
373.374
310.752
288.869
504.833
608.431
521.212
493.851
478.456
486.478
526.607
600.397
476.693
615.943
291.48
615.842
528.833
494.662
478.362
479.537
501.438
494.968
479.563
502.634
495.294
493.873
502.386
495.367
480.01
480.176
479.179
289.376
454.718
272.015
455.125
453.753
527.115
479.598
465.344
382.22
480.629
292.753
286.162
461.6
449.757
454.101
445.979
448.813
463.727
463.384
480.075
543.558
601.758
487.614
300.389
282.54
453.137
279.24
552.334
552.094
480.892
458.14
526.334
508.297
488.707
233.783
284.638
614.551
636.347
615.185
636.703
285.359
441.464
553.174
230.537
467.678
590.328
566.117
495.941
490.165
410.16
232.171
293.18
271.198
508.009
509.307
607.865
229.714
277.051
294.515
618.919
618.832
558.604
226.571
562.614
488.437
503.511
280.924
504.18
466.504
224.055
473.707
519.69
503.097
462.571

CELL_DATA 563
TENSORS stress float
164.663 -24.9242 -2.20268e-12
-24.9242 28.1642 -2.71427e-12
-2.20268e-12 -2.71427e-12 -12.5904

-40.3432 -21.3224 1.08802e-13
-21.3224 -7.35545 -1.13983e-13
1.08802e-13 -1.13983e-13 -10.2411

-9.94872 28.0526 3.51837e-12
28.0526 -1.11492 2.21897e-12
3.51837e-12 2.21897e-12 -6.37177

-40.4295 -29.8419 5.34091e-13
-29.8419 -12.8454 -2.99227e-12
5.34091e-13 -2.99227e-12 -10.6073

-22.6873 19.9305 -1.22213e-12
19.9305 -1.93664 -5.81683e-12
-1.22213e-12 -5.81683e-12 -23.0159

-27.153 -18.081 1.38186e-12
-18.081 15.8881 -5.29414e-12
1.38186e-12 -5.29414e-12 -6.42263

161.314 26.4889 -2.45848e-12
26.4889 28.0406 7.98532e-12
-2.45848e-12 7.98532e-12 -13.2496

-5.96758 29.9637 -2.39334e-12
29.9637 -10.1165 1.65379e-12
-2.39334e-12 1.65379e-12 -7.28627

34.6375 5.48484 -2.07715e-12
5.48484 -19.1099 2.20327e-12
-2.07715e-12 2.20327e-12 -4.13341

11.8599 -7.47785 1.90751e-12
-7.47785 -48.2917 -2.02386e-12
1.90751e-12 -2.02386e-12 -8.9563

104.232 16.3156 -5.35749e-12
16.3156 -8.44501 -3.09264e-12
-5.35749e-12 -3.09264e-12 -22.4514

-34.6474 -13.4569 1.57889e-12
-13.4569 18.9651 -1.76688e-12
1.57889e-12 -1.76688e-12 -7.1906

-6.0326 27.8402 1.76748e-12
27.8402 -4.59426 4.51195e-13
1.76748e-12 4.51195e-13 -6.16959

-35.5618 -14.3437 -2.65135e-12
-14.3437 7.84531 -4.20108e-12
-2.65135e-12 -4.20108e-12 -9.14032

-23.6539 33.3031 -1.64224e-12
33.3031 -24.9887 -3.33003e-12
-1.64224e-12 -3.33003e-12 -21.3621

21.3134 0.561386 3.26494e-12
0.561386 -32.3502 -2.31102e-13
3.26494e-12 -2.31102e-13 -5.60072

-48.9623 -17.9679 -4.68866e-13
-17.9679 6.34068 3.00589e-12
-4.68866e-13 3.00589e-12 -12.9523

11.6607 -2.66519 3.8014e-13
-2.66519 -43.2619 -7.35856e-13
3.8014e-13 -7.35856e-13 -8.04487

-11.3627 26.6849 -8.44362e-13
26.6849 19.5169 -1.48385e-12
-8.44362e-13 -1.48385e-12 -6.10153

21.7669 -4.19737 2.57986e-12
-4.19737 -35.3119 -2.8324e-12
2.57986e-12 -2.8324e-12 -6.75353

-24.4933 8.67273 9.28887e-13
8.67273 32.1314 7.40149e-13
9.28887e-13 7.40149e-13 -4.94522

-11.8077 6.28167 1.81515e-12
6.28167 -11.9602 1.49421e-12
1.81515e-12 1.49421e-12 -75.5627

22.7457 1.87647 -2.36255e-13
1.87647 -33.4868 3.40987e-12
-2.36255e-13 3.40987e-12 -6.68948

-12.3978 -27.7249 1.44773e-13
-27.7249 1.59506 -3.68831e-12
1.44773e-13 -3.68831e-12 -6.61461

21.3062 6.85149 1.18424e-13
6.85149 -34.3214 4.39367e-12
1.18424e-13 4.39367e-12 -6.81861

-37.916 19.1163 -1.8047e-12
19.1163 2.65304 -8.21565e-13
-1.8047e-12 -8.21565e-13 -9.46784

106.64 4.18324 -6.20304e-12
4.18324 20.6074 2.81523e-12
-6.20304e-12 2.81523e-12 -12.046

-5.30851 30.7545 6.19356e-13
30.7545 -7.28107 4.76922e-12
6.19356e-13 4.76922e-12 -7.45273

27.8921 37.0911 1.75741e-12
37.0911 26.4711 -3.04823e-12
1.75741e-12 -3.04823e-12 -8.64019

-9.43944 10.3239 1.10341e-12
10.3239 -32.9117 -5.20502e-12
1.10341e-12 -5.20502e-12 -49.4769

19.8325 14.2188 -4.6428e-12
14.2188 -29.3707 -2.81138e-12
-4.6428e-12 -2.81138e-12 -6.01139

-4.22236 -17.7885 -1.11585e-12
-17.7885 59.6741 1.96583e-12
-1.11585e-12 1.96583e-12 -8.48405

66.3054 -42.1171 -1.59872e-12
-42.1171 71.162 -8.05282e-13
-1.59872e-12 -8.05282e-13 -11.2473

-48.2021 5.982 -6.76265e-13
5.982 7.26766 -3.07399e-12
-6.76265e-13 -3.07399e-12 -41.0153

-26.2883 -4.83343 2.48246e-12
-4.83343 1.75621 -1.61323e-12
2.48246e-12 -1.61323e-12 -37.7814

-1.47038 21.026 -7.41629e-13
21.026 -39.4969 -1.10386e-12
-7.41629e-13 -1.10386e-12 -41.0811

-43.9578 5.06033 -2.32392e-12
5.06033 0.513533 -3.3505e-12
-2.32392e-12 -3.3505e-12 -52.1571

-2.76458 -9.17322 6.44373e-12
-9.17322 -20.7632 -1.07217e-12
6.44373e-12 -1.07217e-12 -35.8774

-3.98104 -28.0056 -2.92566e-12
-28.0056 -4.61363 -2.56565e-12
-2.92566e-12 -2.56565e-12 -6.00503

65.619 41.5362 8.62125e-13
41.5362 73.1906 3.8772e-12
8.62125e-13 3.8772e-12 -10.9589

60.1719 -17.9571 -3.31468e-12
-17.9571 0.106662 1.09483e-12
-3.31468e-12 1.09483e-12 -8.05748

-41.7864 -3.69991 -1.10919e-12
-3.69991 -1.18573 -1.11629e-12
-1.10919e-12 -1.11629e-12 -52.6914

-14.5843 19.5449 5.09652e-12
19.5449 -28.544 -4.49122e-13
5.09652e-12 -4.49122e-13 -52.7995

18.1438 -12.2747 2.4194e-12
-12.2747 -29.9109 1.16943e-12
2.4194e-12 1.16943e-12 -6.23348

38.1821 -43.3172 -8.50283e-13
-43.3172 41.8118 -4.32839e-12
-8.50283e-13 -4.32839e-12 -14.5621

58.1598 -18.0713 -2.73559e-13
-18.0713 -2.3144 9.01205e-13
-2.73559e-13 9.01205e-13 -7.92169

-21.4582 17.0926 1.96361e-12
17.0926 30.331 -2.73204e-12
1.96361e-12 -2.73204e-12 -5.74012

-11.3834 19.3469 -1.40421e-12
19.3469 25.5131 -5.92119e-14
-1.40421e-12 -5.92119e-14 -3.93294

20.7908 -16.3056 -1.57208e-12
-16.3056 -33.1292 6.74275e-13
-1.57208e-12 6.74275e-13 -7.32294

12.6112 -34.2007 -5.31131e-13
-34.2007 46.4466 6.32383e-13
-5.31131e-13 6.32383e-13 -10.4043

62.3778 19.1903 3.67943e-12
19.1903 2.80166 6.29541e-12
3.67943e-12 6.29541e-12 -8.42069

46.5236 -25.2994 -2.8623e-12
-25.2994 5.12555 1.04805e-12
-2.8623e-12 1.04805e-12 -5.61896

-31.8998 19.4791 -6.75164e-13
19.4791 -4.28279 6.87746e-13
-6.75164e-13 6.87746e-13 -26.0776

37.0447 29.6625 1.87346e-12
29.6625 14.509 -1.52648e-12
1.87346e-12 -1.52648e-12 -5.44128

-27.4435 -21.8125 -1.58777e-12
-21.8125 -8.23695 7.06666e-13
-1.58777e-12 7.06666e-13 -25.2407

64.8865 -42.7282 6.27883e-12
-42.7282 44.0914 -1.78583e-12
6.27883e-12 -1.78583e-12 -9.50291

-27.7457 5.45222 3.94351e-13
5.45222 2.66822 -1.21148e-12
3.94351e-13 -1.21148e-12 -38.2865

-5.57052 -5.33241 -3.28685e-12
-5.33241 57.4026 4.06194e-13
-3.28685e-12 4.06194e-13 -5.45835

-0.20649 10.3858 1.78524e-13
10.3858 -24.839 1.66714e-12
1.78524e-13 1.66714e-12 -38.348

-26.4992 21.4203 -1.49954e-12
21.4203 12.2183 2.26485e-12
-1.49954e-12 2.26485e-12 -6.88178

4.7231 5.75695 -3.69956e-12
5.75695 -56.0412 -4.8835e-13
-3.69956e-12 -4.8835e-13 -13.987

0.542477 11.4592 -1.29067e-12
11.4592 -34.061 4.08473e-12
-1.29067e-12 4.08473e-12 -14.842

106.376 31.8301 -4.40063e-12
31.8301 37.8418 1.92439e-12
-4.40063e-12 1.92439e-12 -7.48676

-35.4971 -6.03858 -7.95689e-12
-6.03858 10.6017 -6.4541e-14
-7.95689e-12 -6.4541e-14 -13.482

-35.3627 9.52262 2.2989e-13
9.52262 1.23492 2.31548e-12
2.2989e-13 2.31548e-12 -14.9622

-42.5964 -2.8834 2.55514e-12
-2.8834 21.1097 -2.18137e-12
2.55514e-12 -2.18137e-12 -11.2452

-44.9125 23.3997 3.7977e-13
23.3997 -5.89271 -1.9007e-12
3.7977e-13 -1.9007e-12 -13.9279

9.97075 8.46598 7.49623e-13
8.46598 -42.3896 -3.69645e-12
7.49623e-13 -3.69645e-12 -9.08811

-12.3442 -28.2491 3.73035e-12
-28.2491 1.68227 -4.44326e-12
3.73035e-12 -4.44326e-12 -6.68587

1.30867 -1.71226 2.30971e-12
-1.71226 -55.4605 -1.25418e-12
2.30971e-12 -1.25418e-12 -11.3129

-31.8895 -19.2551 1.18261e-12
-19.2551 -4.59179 1.76955e-12
1.18261e-12 1.76955e-12 -25.947

-27.9684 21.3077 8.21861e-13
21.3077 -8.36634 -1.30168e-12
8.21861e-13 -1.30168e-12 -26.0053

-0.66225 -16.591 9.56272e-13
-16.591 61.6909 2.34005e-12
9.56272e-13 2.34005e-12 -7.95625

-0.651084 -27.9398 4.9063e-12
-27.9398 -21.3703 -4.78935e-12
4.9063e-12 -4.78935e-12 -12.7958

-14.1013 -25.142 2.39068e-12
-25.142 7.40515 -5.42973e-12
2.39068e-12 -5.42973e-12 -5.2472

91.7099 -31.7224 -5.24617e-12
-31.7224 19.4904 1.12088e-12
-5.24617e-12 1.12088e-12 -16.3304

-33.7135 3.22425 1.86036e-12
3.22425 9.20259 -7.04029e-13
1.86036e-12 -7.04029e-13 -18.5616

2.74686 28.9484 3.93937e-12
28.9484 -24.4293 1.77103e-12
3.93937e-12 1.77103e-12 -11.3228

-38.4445 19.6672 -1.56823e-12
19.6672 5.22839 -2.82796e-12
-1.56823e-12 -2.82796e-12 -9.24546

50.2028 8.003 -1.71241e-12
8.003 -16.9818 4.06075e-12
-1.71241e-12 4.06075e-12 -7.07736

60.0479 -33.9498 3.80022e-12
-33.9498 33.7917 -6.3937e-12
3.80022e-12 -6.3937e-12 -6.98733

-18.9691 -10.5853 1.79086e-12
-10.5853 -0.537576 3.20632e-12
1.79086e-12 3.20632e-12 -25.4221

-33.9249 23.9021 -2.33088e-12
23.9021 -12.0291 -2.50233e-12
-2.33088e-12 -2.50233e-12 -14.545

58.1725 -32.3978 -7.03437e-13
-32.3978 18.0904 -2.62427e-12
-7.03437e-13 -2.62427e-12 -10.1386

66.879 10.7958 5.68553e-12
10.7958 8.50647 9.52719e-13
5.68553e-12 9.52719e-13 -5.09064

7.67064 -21.2148 4.305e-12
-21.2148 88.494 7.34938e-12
4.305e-12 7.34938e-12 -11.8638

-34.0014 14.429 1.40658e-12
14.429 20.2384 4.76241e-12
1.40658e-12 4.76241e-12 -7.55756

8.47229 23.1496 1.31332e-12
23.1496 -26.0805 -1.93238e-12
1.31332e-12 -1.93238e-12 -11.3049

34.8763 42.2163 -4.92051e-12
42.2163 46.2115 -1.58925e-12
-4.92051e-12 -1.58925e-12 -14.4236

-4.39416 16.5008 1.86881e-11
16.5008 -35.5239 -1.29942e-11
1.86881e-11 -1.29942e-11 -73.2332

-5.99294 -4.11033 -6.40969e-13
-4.11033 57.9633 3.99562e-12
-6.40969e-13 3.99562e-12 -5.45058

-1.8205 -16.6264 -1.73904e-11
-16.6264 -39.3816 9.23409e-13
-1.73904e-11 9.23409e-13 -74.0559

-3.33354 -27.3342 -1.42049e-12
-27.3342 -30.0279 2.58593e-12
-1.42049e-12 2.58593e-12 -21.5504

8.96444 27.4274 -2.24413e-13
27.4274 -30.0041 5.60441e-12
-2.24413e-13 5.60441e-12 -11.264

45.7213 -24.421 8.91731e-13
-24.421 5.01597 9.59233e-13
8.91731e-13 9.59233e-13 -5.24505

10.0898 31.3374 5.35098e-12
31.3374 47.1743 1.53359e-12
5.35098e-12 1.53359e-12 -9.64786

14.2692 -10.7095 -3.33067e-12
-10.7095 82.8642 -1.60583e-12
-3.33067e-12 -1.60583e-12 -6.45046

-38.6361 21.9731 -4.05143e-12
21.9731 2.94005 -1.60908e-12
-4.05143e-12 -1.60908e-12 -8.57847

1.19456 16.798 -6.18468e-13
16.798 -25.7284 -2.86201e-12
-6.18468e-13 -2.86201e-12 -18.5658

-26.548 15.1594 -2.82115e-12
15.1594 18.4498 2.78355e-12
-2.82115e-12 2.78355e-12 -5.71869

43.6682 15.96 -3.45442e-12
15.96 -7.29816 -8.12683e-14
-3.45442e-12 -8.12683e-14 -4.08545

12.572 -21.4821 -7.90479e-13
-21.4821 57.9708 1.68399e-12
-7.90479e-13 1.68399e-12 -4.72097

66.0156 -29.4032 5.20591e-12
-29.4032 18.6429 3.55271e-12
5.20591e-12 3.55271e-12 -9.33931

-32.3864 -24.5776 -3.5203e-12
-24.5776 -7.28542 1.43293e-12
-3.5203e-12 1.43293e-12 -8.98687

-22.6733 27.4569 1.01015e-12
27.4569 -10.3571 -1.93889e-12
1.01015e-12 -1.93889e-12 -9.29421

-38.3542 23.19 -4.42165e-13
23.19 1.98974 -1.4948e-12
-4.42165e-13 -1.4948e-12 -8.53447

-51.556 13.1677 1.89259e-12
13.1677 11.9229 1.46372e-12
1.89259e-12 1.46372e-12 -16.4692

23.4873 9.37399 -8.42585e-13
9.37399 -29.501 4.68677e-12
-8.42585e-13 4.68677e-12 -5.33257

3.76131 -4.6668 4.37339e-12
-4.6668 79.4631 2.53901e-12
4.37339e-12 2.53901e-12 -9.53565

-44.9351 -36.8278 2.30926e-14
-36.8278 -19.8273 1.55772e-12
2.30926e-14 1.55772e-12 -14.776

-16.0902 27.4744 9.80549e-13
27.4744 1.33574 -1.49806e-13
9.80549e-13 -1.49806e-13 -6.92689

-5.02487 2.17084 5.48028e-12
2.17084 82.701 -3.67114e-12
5.48028e-12 -3.67114e-12 -13.4348

69.0659 34.625 1.03029e-12
34.625 15.4956 4.09924e-12
1.03029e-12 4.09924e-12 -10.7095

-31.3606 -22.9792 -1.90337e-12
-22.9792 -4.63563 1.63188e-12
-1.90337e-12 1.63188e-12 -8.54103

11.7434 5.73288 1.83735e-12
5.73288 -48.3407 -2.73781e-13
1.83735e-12 -2.73781e-13 -8.65083

43.0744 27.2158 -1.7432e-12
27.2158 10.4462 4.26266e-12
-1.7432e-12 4.26266e-12 -5.08949

-9.40693 12.7427 -4.01679e-12
12.7427 -14.0443 8.35776e-13
-4.01679e-12 8.35776e-13 -37.0199

70.3553 24.341 1.57977e-12
24.341 23.8059 -4.49951e-12
1.57977e-12 -4.49951e-12 -6.80297

-10.5775 -13.0521 1.67555e-12
-13.0521 -13.9262 8.43769e-14
1.67555e-12 8.43769e-14 -37.3575

-4.39176 0.779033 -7.35264e-13
0.779033 59.4137 -7.93439e-13
-7.35264e-13 -7.93439e-13 -4.83927

38.3645 -2.23627 -4.59011e-12
-2.23627 -23.8297 -1.69957e-12
-4.59011e-12 -1.69957e-12 -5.84414

3.5914 -15.7626 9.47094e-13
-15.7626 -53.9621 -2.05761e-12
9.47094e-13 -2.05761e-12 -21.1215

-42.2815 24.3888 -2.48755e-13
24.3888 -11.737 4.77189e-12
-2.48755e-13 4.77189e-12 -11.1766

-46.8139 -13.5363 4.33894e-12
-13.5363 11.0647 2.5094e-12
4.33894e-12 2.5094e-12 -12.3595

5.80823 -7.99803 6.1684e-13
-7.99803 -70.9586 -7.1676e-13
6.1684e-13 -7.1676e-13 -14.8871

-49.5371 -22.2771 -8.11499e-13
-22.2771 3.7436 2.01913e-13
-8.11499e-13 2.01913e-13 -22.1015

-17.4562 -6.60311 -2.58756e-13
-6.60311 -13.1145 2.52746e-12
-2.58756e-13 2.52746e-12 -34.7636

-28.733 -29.9095 -2.02031e-12
-29.9095 -9.40069 1.31835e-12
-2.02031e-12 1.31835e-12 -9.00532

15.6908 11.4584 -4.28813e-12
11.4584 80.2051 -4.90274e-12
-4.28813e-12 -4.90274e-12 -6.53409

42.298 -28.1589 -2.25479e-12
-28.1589 11.0455 -5.32611e-12
-2.25479e-12 -5.32611e-12 -5.05284

-47.1694 -13.7666 1.19749e-12
-13.7666 4.19664 2.17041e-12
1.19749e-12 2.17041e-12 -29.2903

2.96349 0.506325 -3.08864e-12
0.506325 -56.8162 6.14471e-13
-3.08864e-12 6.14471e-13 -11.0147

-39.3412 -21.5227 3.44746e-12
-21.5227 -8.85538 2.75543e-12
3.44746e-12 2.75543e-12 -14.7788

-40.197 25.6997 -4.18184e-13
25.6997 -14.6935 -3.80695e-13
-4.18184e-13 -3.80695e-13 -11.3199

32.264 -31.4782 8.88178e-13
-31.4782 38.436 6.21725e-13
8.88178e-13 6.21725e-13 -4.65513

-31.4666 -7.07718 6.11962e-12
-7.07718 1.70493 1.15226e-12
6.11962e-12 1.15226e-12 -40.9686

36.6369 -33.0901 -9.26074e-13
-33.0901 72.0483 -9.00021e-14
-9.26074e-13 -9.00021e-14 -7.14634

16.6142 -19.1851 -2.28499e-12
-19.1851 -25.8821 7.84854e-13
-2.28499e-12 7.84854e-13 -7.14303

1.50161 1.97406 -1.89115e-12
1.97406 -51.392 3.03787e-12
-1.89115e-12 3.03787e-12 -15.3782

-12.8652 17.8722 -6.46624e-12
17.8722 -16.959 7.32244e-12
-6.46624e-12 7.32244e-12 -41.0362

10.7072 20.1919 2.28795e-12
20.1919 59.4698 -2.64796e-12
2.28795e-12 -2.64796e-12 -4.36382

4.31372 27.2175 -2.0132e-14
27.2175 -16.2281 1.69168e-12
-2.0132e-14 1.69168e-12 -8.13266

30.9084 -24.5204 6.33212e-12
-24.5204 -8.14473 1.84623e-12
6.33212e-12 1.84623e-12 -4.88323

-37.7979 -17.8414 1.35251e-12
-17.8414 2.40028 9.59233e-13
1.35251e-12 9.59233e-13 -9.87403

55.5277 35.0826 2.1186e-12
35.0826 42.3542 -1.91491e-12
2.1186e-12 -1.91491e-12 -6.63944

-40.0213 -21.8326 2.42961e-12
-21.8326 2.53615 6.32975e-13
2.42961e-12 6.32975e-13 -9.40357

2.9632 30.8561 2.94934e-12
30.8561 -17.3992 -2.11031e-12
2.94934e-12 -2.11031e-12 -9.08734

18.5377 -25.2502 -2.64559e-12
-25.2502 -19.4305 1.65793e-14
-2.64559e-12 1.65793e-14 -6.35304

-15.6623 -25.1339 3.78216e-12
-25.1339 5.89399 3.12757e-12
3.78216e-12 3.12757e-12 -5.78689

42.7269 -18.696 1.87939e-12
-18.696 -9.17955 -3.49409e-12
1.87939e-12 -3.49409e-12 -5.37959

27.4346 -18.8566 -1.6982e-12
-18.8566 -20.3831 -1.5925e-12
-1.6982e-12 -1.5925e-12 -5.70116

-41.3953 -25.3391 5.22693e-13
-25.3391 -14.9659 -8.28004e-13
5.22693e-13 -8.28004e-13 -11.5759

29.7839 35.9852 1.7278e-12
35.9852 25.2283 -5.13012e-12
1.7278e-12 -5.13012e-12 -8.65225

-28.5277 15.382 2.61865e-12
15.382 18.5192 2.64736e-12
2.61865e-12 2.64736e-12 -5.88449

-23.1134 26.4279 -3.21106e-12
26.4279 -12.5523 -8.09427e-13
-3.21106e-12 -8.09427e-13 -9.96757

-42.1016 25.4737 -1.20514e-12
25.4737 -11.5928 -1.76955e-12
-1.20514e-12 -1.76955e-12 -11.0021

-37.2961 11.6255 5.29031e-12
11.6255 11.8441 -8.65974e-12
5.29031e-12 -8.65974e-12 -9.08879

64.411 -8.23048 1.82846e-12
-8.23048 3.18824 -3.45324e-12
1.82846e-12 -3.45324e-12 -4.25827

8.72717 18.6148 2.39927e-12
18.6148 59.2354 2.77585e-12
2.39927e-12 2.77585e-12 -4.16967

-25.6246 -24.386 1.08683e-12
-24.386 0.456612 -1.92498e-12
1.08683e-12 -1.92498e-12 -7.2269

-1.14936 25.6756 4.59484e-13
25.6756 13.7516 -1.18069e-12
4.59484e-13 -1.18069e-12 -4.09394

32.3826 -35.645 2.85046e-12
-35.645 21.6996 -7.78636e-13
2.85046e-12 -7.78636e-13 -8.49414

59.5535 38.3329 2.76046e-12
38.3329 17.8485 -1.55135e-13
2.76046e-12 -1.55135e-13 -13.7257

12.1204 -33.3259 3.60364e-12
-33.3259 42.9225 5.49131e-12
3.60364e-12 5.49131e-12 -9.55041

30.554 -31.1733 1.07529e-12
-31.1733 36.8194 3.45797e-12
1.07529e-12 3.45797e-12 -4.41281

11.7691 -6.83851 2.09018e-13
-6.83851 -48.8422 2.27862e-12
2.09018e-13 2.27862e-12 -8.77949

25.2749 30.3551 2.73559e-12
30.3551 41.0967 4.25378e-12
2.73559e-12 4.25378e-12 -4.46339

62.6994 13.3002 -5.8525e-12
13.3002 5.21975 -8.47026e-13
-5.8525e-12 -8.47026e-13 -4.31275

-7.03916 13.3848 1.91462e-12
13.3848 61.361 3.54798e-12
1.91462e-12 3.54798e-12 -8.70297

11.7241 -22.3503 1.04923e-12
-22.3503 55.7772 -1.56438e-12
1.04923e-12 -1.56438e-12 -4.30881

-47.2591 -1.0944 1.91328e-13
-1.0944 12.4073 4.42905e-13
1.91328e-13 4.42905e-13 -22.1576

-5.93199 2.24777 -3.29351e-12
2.24777 59.0197 3.53613e-12
-3.29351e-12 3.53613e-12 -5.27118

6.26148 31.103 1.93386e-12
31.103 47.8766 2.69651e-12
1.93386e-12 2.69651e-12 -9.66821

-39.7301 12.111 1.7285e-12
12.111 12.8428 -9.60417e-13
1.7285e-12 -9.60417e-13 -9.32087

40.7456 -27.6596 2.56506e-12
-27.6596 8.35116 -1.06522e-12
2.56506e-12 -1.06522e-12 -5.65092

7.53485 20.5574 -8.07058e-13
20.5574 -47.4686 -6.386e-13
-8.07058e-13 -6.386e-13 -16.4846

-3.42497 26.2703 1.95636e-12
26.2703 -31.4837 -3.28981e-12
1.95636e-12 -3.28981e-12 -22.248

15.7763 -18.5734 1.89656e-12
-18.5734 -30.0251 5.58664e-13
1.89656e-12 5.58664e-13 -8.19262

4.42516 -1.80803 -2.51991e-12
-1.80803 -34.1327 -4.27569e-12
-2.51991e-12 -4.27569e-12 -24.4323

-14.3458 -31.8165 -4.45866e-13
-31.8165 -11.9367 1.52352e-12
-4.45866e-13 1.52352e-12 -9.05914

56.233 23.3379 -1.94215e-12
23.3379 0.806656 -3.18856e-12
-1.94215e-12 -3.18856e-12 -8.29576

-27.8313 30.1637 9.34364e-13
30.1637 -9.23741 -4.75087e-12
9.34364e-13 -4.75087e-12 -8.80962

-27.0073 29.2078 4.71919e-12
29.2078 -9.20243 -3.05237e-12
4.71919e-12 -3.05237e-12 -8.68698

28.6304 30.6744 -1.30503e-12
30.6744 40.4132 2.70717e-12
-1.30503e-12 2.70717e-12 -4.45618

0.342921 27.0893 3.39047e-12
27.0893 -19.8557 3.32445e-12
3.39047e-12 3.32445e-12 -11.7826

64.527 3.52667 -4.38879e-12
3.52667 -11.8409 7.88591e-13
-4.38879e-12 7.88591e-13 -10.0261

-14.9032 31.8174 3.41357e-13
31.8174 -20.7995 -6.05146e-13
3.41357e-13 -6.05146e-13 -12.4531

-37.954 -12.5985 -1.16263e-12
-12.5985 8.18083 1.33345e-12
-1.16263e-12 1.33345e-12 -14.027

-0.473865 24.2758 1.69257e-12
24.2758 -30.0027 2.49815e-12
1.69257e-12 2.49815e-12 -20.7679

-23.7312 -29.5808 3.74811e-12
-29.5808 -11.9355 2.44279e-12
3.74811e-12 2.44279e-12 -8.85239

-38.1595 -4.89604 1.02002e-12
-4.89604 18.8477 -1.52648e-12
1.02002e-12 -1.52648e-12 -11.7357

69.9653 -24.5669 6.05619e-12
-24.5669 18.0272 1.06581e-14
6.05619e-12 1.06581e-14 -7.04854

39.9889 29.706 2.42887e-12
29.706 13.4752 1.16055e-13
2.42887e-12 1.16055e-13 -5.22368

-4.30818 14.7031 -2.59481e-12
14.7031 60.588 -5.46526e-12
-2.59481e-12 -5.46526e-12 -8.40868

1.61087 -1.14005 1.4313e-12
-1.14005 -56.1273 2.1841e-12
1.4313e-12 2.1841e-12 -11.2183

9.61419 0.00203194 2.67223e-12
0.00203194 -44.7669 -7.9467e-13
2.67223e-12 -7.9467e-13 -8.44928

-31.088 23.1293 2.30038e-13
23.1293 -4.34045 -2.48483e-12
2.30038e-13 -2.48483e-12 -8.46966

-34.7608 23.8729 3.16192e-13
23.8729 -13.197 3.75786e-12
3.16192e-13 3.75786e-12 -14.8175

-43.3823 -24.3815 -6.82658e-13
-24.3815 -12.6138 -3.12802e-12
-6.82658e-13 -3.12802e-12 -11.4775

-39.0693 -0.67513 3.37064e-12
-0.67513 21.0462 2.17308e-13
3.37064e-12 2.17308e-13 -10.5022

-40.8086 25.5926 4.65509e-12
25.5926 -13.2254 -2.55433e-12
4.65509e-12 -2.55433e-12 -11.1814

32.3267 -10.3118 2.45729e-12
-10.3118 -25.1717 7.99805e-13
2.45729e-12 7.99805e-13 -6.02614

8.70021 -32.848 2.72375e-14
-32.848 22.7979 9.23113e-13
2.72375e-14 9.23113e-13 -7.00257

2.39551 -2.30495 -3.63309e-12
-2.30495 -49.9631 -1.95666e-12
-3.63309e-12 -1.95666e-12 -14.7772

36.7514 -34.5235 -6.987e-14
-34.5235 24.4806 -1.77636e-15
-6.987e-14 -1.77636e-15 -7.71645

-38.2985 19.0854 8.31779e-13
19.0854 -7.09196 -1.37431e-12
8.31779e-13 -1.37431e-12 -14.4539

7.86993 -26.4809 2.2613e-12
-26.4809 -28.0039 -2.36552e-13
2.2613e-12 -2.36552e-13 -10.9756

63.9654 -9.69459 1.91728e-12
-9.69459 5.66919 2.73441e-12
1.91728e-12 2.73441e-12 -5.07929

6.03502 -23.195 -3.36027e-12
-23.195 -35.4712 -2.34094e-12
-3.36027e-12 -2.34094e-12 -17.7367

0.141711 2.35881 1.3558e-12
2.35881 -56.1769 -2.82152e-12
1.3558e-12 -2.82152e-12 -11.5547

-4.06407 -23.3259 -1.50339e-12
-23.3259 -23.4133 3.7527e-12
-1.50339e-12 3.7527e-12 -16.7202

11.0365 -25.8622 -2.67519e-12
-25.8622 -29.4956 4.25734e-13
-2.67519e-12 4.25734e-13 -9.74163

10.1997 -8.5495 -2.22814e-12
-8.5495 -43.5013 3.28537e-12
-2.22814e-12 3.28537e-12 -9.29168

-35.4156 -23.0701 -7.77748e-13
-23.0701 -12.6505 -2.77924e-12
-7.77748e-13 -2.77924e-12 -15.1072

23.6646 -31.3549 -3.39521e-12
-31.3549 5.705 -1.48799e-12
-3.39521e-12 -1.48799e-12 -5.889

11.0568 -24.5939 -1.95044e-12
-24.5939 -27.5023 7.79702e-12
-1.95044e-12 7.79702e-12 -10.0554

46.6538 10.8691 -3.11218e-12
10.8691 -16.1346 -5.24706e-12
-3.11218e-12 -5.24706e-12 -6.81058

-14.187 26.3443 -1.60464e-13
26.3443 -15.6481 -1.68251e-12
-1.60464e-13 -1.68251e-12 -14.1231

-45.2469 -37.6069 2.04281e-14
-37.6069 -20.6097 -1.47275e-12
2.04281e-14 -1.47275e-12 -14.9242

-43.7044 37.2597 -2.38121e-12
37.2597 -21.263 -1.41524e-12
-2.38121e-12 -1.41524e-12 -14.7747

-61.1759 -28.5698 -1.56319e-13
-28.5698 -7.49771 -2.08988e-12
-1.56319e-13 -2.08988e-12 -15.2047

-58.408 27.0614 -6.29496e-13
27.0614 -6.27218 -1.98982e-12
-6.29496e-13 -1.98982e-12 -14.4836

5.59924 -8.52542 9.95944e-13
-8.52542 -71.0551 5.43713e-13
9.95944e-13 5.43713e-13 -14.715

4.39671 9.27127 -3.20943e-12
9.27127 -68.8246 1.91817e-12
-3.20943e-12 1.91817e-12 -14.4431

9.02326 -9.84936 3.07606e-13
-9.84936 -40.9009 -5.92711e-13
3.07606e-13 -5.92711e-13 -9.62133

-24.3349 32.1088 -1.7956e-12
32.1088 -24.8042 3.23861e-12
-1.7956e-12 3.23861e-12 -21.1424

-25.5214 -32.8462 5.00933e-13
-32.8462 -25.0906 -1.57856e-12
5.00933e-13 -1.57856e-12 -21.4664

-53.9082 16.0667 -3.34547e-13
16.0667 3.39705 3.76884e-13
-3.34547e-13 3.76884e-13 -21.3999

-52.4099 -15.7996 1.50546e-13
-15.7996 3.29271 -1.87879e-12
1.50546e-13 -1.87879e-12 -21.0733

6.10666 -3.7537 1.36291e-12
-3.7537 -43.9213 -1.44625e-12
1.36291e-12 -1.44625e-12 -25.7577

6.91224 3.61626 -1.92572e-12
3.61626 -46.3438 7.11431e-13
-1.92572e-12 7.11431e-13 -26.1338

-15.6422 9.84104 -1.02474e-11
9.84104 46.2724 -3.91509e-12
-1.02474e-11 -3.91509e-12 -5.85871

-22.924 -24.7797 -2.35752e-12
-24.7797 -14.5557 -1.95843e-12
-2.35752e-12 -1.95843e-12 -10.3388

-56.5973 -36.383 -9.39915e-13
-36.383 -14.5315 -3.06999e-12
-9.39915e-13 -3.06999e-12 -13.4445

33.3647 -4.66553 7.98176e-13
-4.66553 -19.8614 -1.46764e-12
7.98176e-13 -1.46764e-12 -3.95638

3.43123 -16.6887 1.292e-12
-16.6887 -52.6203 1.54395e-12
1.292e-12 1.54395e-12 -21.5295

3.67244 16.1697 -2.4829e-12
16.1697 -51.8759 -8.40217e-13
-2.4829e-12 -8.40217e-13 -21.4027

6.55427 0.121816 8.36072e-13
0.121816 -76.7464 -2.88385e-13
8.36072e-13 -2.88385e-13 -13.3114

-7.5831 23.3858 2.83684e-12
23.3858 39.9432 1.81781e-12
2.83684e-12 1.81781e-12 -6.89588

-56.8827 36.167 8.25784e-13
36.167 -14.0101 -2.23096e-12
8.25784e-13 -2.23096e-12 -13.3961

-39.7972 -23.3976 -1.87746e-12
-23.3976 2.56026 2.98724e-13
-1.87746e-12 2.98724e-13 -8.81022

37.1226 23.3626 1.26713e-12
23.3626 -8.62633 5.13604e-12
1.26713e-12 5.13604e-12 -5.7695

4.73014 23.8607 1.41516e-13
23.8607 -38.2276 2.79895e-12
1.41516e-13 2.79895e-12 -18.9855

24.0139 -31.3267 1.18069e-12
-31.3267 6.40134 2.5769e-12
1.18069e-12 2.5769e-12 -5.65887

2.42959 -3.23468 2.20727e-12
-3.23468 -48.372 7.22385e-13
2.20727e-12 7.22385e-13 -14.747

-60.449 -34.1574 4.74953e-13
-34.1574 -14.3498 -3.71629e-12
4.74953e-13 -3.71629e-12 -14.0379

-17.4696 8.32338 -4.20973e-12
8.32338 45.7014 4.99748e-13
-4.20973e-12 4.99748e-13 -5.79192

-9.48315 21.8214 -7.30379e-13
21.8214 40.4329 -5.64881e-13
-7.30379e-13 -5.64881e-13 -6.66449

58.6195 35.7908 2.71427e-12
35.7908 37.0942 -3.38692e-12
2.71427e-12 -3.38692e-12 -6.91942

70.5063 1.5795 1.75267e-12
1.5795 -5.55517 1.4202e-12
1.75267e-12 1.4202e-12 -10.3803

-30.7586 -22.8071 -3.65633e-12
-22.8071 -13.3606 -2.1263e-12
-3.65633e-12 -2.1263e-12 -14.4704

32.8463 31.1968 -1.16055e-12
31.1968 69.8145 -1.8332e-12
-1.16055e-12 -1.8332e-12 -6.68201

-19.3846 23.6161 6.82121e-13
23.6161 7.68589 1.57385e-12
6.82121e-13 1.57385e-12 -5.52439

47.6486 -5.35183 -4.63037e-13
-5.35183 -17.4513 -5.1917e-12
-4.63037e-13 -5.1917e-12 -6.83252

33.2247 11.2205 6.63173e-13
11.2205 -23.6549 -7.08322e-12
6.63173e-13 -7.08322e-12 -6.02582

6.25285 0.429817 -4.13417e-12
0.429817 -77.5431 -4.59944e-12
-4.13417e-12 -4.59944e-12 -13.457

-58.9277 -29.0275 3.03002e-12
-29.0275 -6.28906 3.94647e-13
3.03002e-12 3.94647e-13 -14.7024

-28.3295 -6.31533 1.6304e-12
-6.31533 -11.3469 -5.14966e-12
1.6304e-12 -5.14966e-12 -51.5556

-44.6936 37.4057 3.16576e-12
37.4057 -20.8087 -2.12016e-12
3.16576e-12 -2.12016e-12 -14.7788

93.8204 1.66385 3.20928e-12
1.66385 16.6539 2.61598e-12
3.20928e-12 2.61598e-12 -6.04494

10.0305 -32.8016 4.42135e-12
-32.8016 21.3104 4.61142e-12
4.42135e-12 4.61142e-12 -6.81891

-56.9296 36.6083 8.57906e-13
36.6083 -14.5698 8.37404e-13
8.57906e-13 8.37404e-13 -13.5123

-35.0936 -11.1358 2.83693e-12
-11.1358 19.1782 -1.94333e-12
2.83693e-12 -1.94333e-12 -8.32624

-5.49025 -25.5262 -1.62033e-12
-25.5262 37.3569 4.57353e-12
-1.62033e-12 4.57353e-12 -6.99765

-58.4446 28.8265 1.81625e-12
28.8265 -6.27244 -1.96258e-12
1.81625e-12 -1.96258e-12 -14.6196

28.4981 -26.1525 3.21994e-12
-26.1525 -4.92245 -2.74743e-13
3.21994e-12 -2.74743e-13 -4.70809

-21.1581 10.4856 -3.59416e-13
10.4856 -18.5574 -8.8729e-13
-3.59416e-13 -8.8729e-13 -51.651

3.4241 30.8858 -1.713e-12
30.8858 27.1648 3.04349e-13
-1.713e-12 3.04349e-13 -6.74374

6.13826 8.12456 2.0024e-12
8.12456 -72.2876 -3.74515e-14
2.0024e-12 -3.74515e-14 -14.9894

-11.5502 30.1926 -7.31859e-13
30.1926 -20.6028 -1.57592e-12
-7.31859e-13 -1.57592e-12 -11.5552

-30.806 23.3371 -1.37105e-12
23.3371 -5.10271 -4.11582e-12
-1.37105e-12 -4.11582e-12 -8.47552

-25.8623 -32.4811 -1.88264e-12
-32.4811 -24.1073 -2.78551e-12
-1.88264e-12 -2.78551e-12 -21.5557

9.20154 -23.1963 2.67638e-13
-23.1963 -27.9287 -1.91136e-12
2.67638e-13 -1.91136e-12 -11.4316

-37.6653 10.4651 -1.80008e-12
10.4651 8.92927 -5.30716e-12
-1.80008e-12 -5.30716e-12 -25.3234

-23.0493 -23.4392 4.53948e-12
-23.4392 4.95066 -7.22918e-12
4.53948e-12 -7.22918e-12 -6.27422

88.8323 -9.71234 1.50398e-12
-9.71234 10.8039 -3.42489e-12
1.50398e-12 -3.42489e-12 -10.0329

84.0719 -14.2826 7.32333e-12
-14.2826 2.80662 8.68638e-13
7.32333e-12 8.68638e-13 -13.1994

5.88284 16.5348 5.82941e-12
16.5348 -33.9322 -9.14824e-13
5.82941e-12 -9.14824e-13 -22.3712

-16.4327 22.5103 5.17926e-12
22.5103 16.2275 7.12438e-12
5.17926e-12 7.12438e-12 -5.0971

-3.91668 29.1709 -3.14119e-12
29.1709 -12.2388 2.05347e-12
-3.14119e-12 2.05347e-12 -8.406

51.0057 0.688878 1.3974e-13
0.688878 -6.54509 -6.61766e-12
1.3974e-13 -6.61766e-12 -3.64415

-48.1458 6.56842 -1.14878e-12
6.56842 14.7841 -1.97176e-13
-1.14878e-12 -1.97176e-13 -18.9522

10.1159 16.5404 3.79963e-12
16.5404 -36.0869 3.70518e-12
3.79963e-12 3.70518e-12 -9.14351

-4.51584 -25.7728 -2.07893e-12
-25.7728 35.5612 1.20792e-13
-2.07893e-12 1.20792e-13 -6.75773

-39.2028 -2.57044 -1.82493e-12
-2.57044 21.5051 2.07656e-12
-1.82493e-12 2.07656e-12 -10.6762

-8.0032 13.3716 5.40693e-12
13.3716 44.4145 -1.11792e-12
5.40693e-12 -1.11792e-12 -3.95458

3.73243 -29.7197 2.01143e-12
-29.7197 -17.3752 -2.44338e-12
2.01143e-12 -2.44338e-12 -8.92934

21.4248 -29.9602 -7.62649e-13
-29.9602 14.7538 -7.28306e-14
-7.62649e-13 -7.28306e-14 -3.92814

6.8737 31.637 3.56929e-12
31.637 25.403 1.2926e-12
3.56929e-12 1.2926e-12 -6.83876

2.78146 -15.0169 1.72988e-12
-15.0169 -39.2484 2.05702e-12
1.72988e-12 2.05702e-12 -63.2667

-46.1583 2.04387 -4.13121e-12
2.04387 11.4595 -1.90958e-12
-4.13121e-12 -1.90958e-12 -22.7518

-55.4333 20.2948 -3.79001e-12
20.2948 3.09006 -8.88178e-13
-3.79001e-12 -8.88178e-13 -22.9119

5.91086 15.4342 -2.16271e-12
15.4342 -58.8069 1.78169e-12
-2.16271e-12 1.78169e-12 -23.0319

-18.927 -26.1946 -2.53042e-12
-26.1946 -12.9184 -4.46162e-13
-2.53042e-12 -4.46162e-13 -9.66184

41.3547 17.9642 3.59535e-12
17.9642 -6.28333 -5.38828e-14
3.59535e-12 -5.38828e-14 -3.87174

-44.6774 -5.28953 2.61972e-12
-5.28953 4.53888 7.79525e-13
2.61972e-12 7.79525e-13 -39.1244

7.50006 -18.987 -1.24375e-12
-18.987 -39.8991 -2.33887e-12
-1.24375e-12 -2.33887e-12 -11.6659

30.2951 -15.6035 -2.45256e-12
-15.6035 -20.5233 -1.69405e-12
-2.45256e-12 -1.69405e-12 -4.81642

-9.65141 11.6088 1.01992e-12
11.6088 44.3283 8.75152e-13
1.01992e-12 8.75152e-13 -3.86945

8.32756 -25.7457 -2.56387e-13
-25.7457 32.9969 2.69769e-12
-2.56387e-13 2.69769e-12 -3.64297

-10.2411 -25.2743 -2.03186e-12
-25.2743 -19.1078 6.82565e-13
-2.03186e-12 6.82565e-13 -23.1692

17.0025 31.9732 4.44326e-12
31.9732 11.1925 9.94168e-13
4.44326e-12 9.94168e-13 -5.7572

-1.06816 -25.1323 -4.33727e-13
-25.1323 -30.7661 1.4723e-12
-4.33727e-13 1.4723e-12 -20.8882

48.0767 2.59833 3.54442e-12
2.59833 -8.42328 -2.3049e-12
3.54442e-12 -2.3049e-12 -3.54169

6.54906 -28.9425 1.90662e-13
-28.9425 72.0738 -7.38964e-13
1.90662e-13 -7.38964e-13 -14.5545

21.7907 -29.2434 -4.69728e-12
-29.2434 13.961 3.86417e-12
-4.69728e-12 3.86417e-12 -3.94053

35.357 32.1723 -2.48098e-12
32.1723 74.1563 -6.09172e-12
-2.48098e-12 -6.09172e-12 -5.44375

-45.291 -11.8744 4.19653e-12
-11.8744 13.9199 6.49554e-13
4.19653e-12 6.49554e-13 -15.3298

-14.4362 -13.8274 -2.88895e-12
-13.8274 43.3911 -2.49637e-12
-2.88895e-12 -2.49637e-12 -5.68349

-19.2301 -23.9777 3.5502e-12
-23.9777 -19.8268 4.55828e-12
3.5502e-12 4.55828e-12 -64.2076

2.4297 23.7814 7.93439e-14
23.7814 36.0129 8.72783e-13
7.93439e-14 8.72783e-13 -3.72122

-15.1849 -32.7268 2.08722e-12
-32.7268 -21.1253 5.44305e-12
2.08722e-12 5.44305e-12 -14.3178

-14.5811 -11.9683 1.5518e-12
-11.9683 45.5403 7.31859e-13
1.5518e-12 7.31859e-13 -5.74952

7.83443 -19.1158 -1.83853e-13
-19.1158 -43.1252 1.03088e-12
-1.83853e-13 1.03088e-12 -12.6374

6.53872 23.8878 -3.5764e-13
23.8878 35.1771 -2.60769e-12
-3.5764e-13 -2.60769e-12 -3.45196

23.1765 -4.97642 2.42295e-12
-4.97642 -30.6883 -2.19806e-12
2.42295e-12 -2.19806e-12 -5.37531

36.9798 -30.3523 -5.13841e-12
-30.3523 122.665 -3.52903e-13
-5.13841e-12 -3.52903e-13 -6.23718

-26.8822 21.0206 6.02747e-12
21.0206 8.43288 -2.08011e-12
6.02747e-12 -2.08011e-12 -7.14185

40.346 -19.3313 -1.73491e-12
-19.3313 -11.3869 -8.0469e-13
-1.73491e-12 -8.0469e-13 -5.73668

6.52145 -21.445 4.94567e-12
-21.445 -45.5543 -1.31154e-12
4.94567e-12 -1.31154e-12 -24.9657

20.7041 31.7676 9.14232e-13
31.7676 9.5519 -4.09213e-12
9.14232e-13 -4.09213e-12 -5.81664

13.9168 -29.9817 -1.80774e-12
-29.9817 -7.61629 2.15206e-12
-1.80774e-12 2.15206e-12 -5.95541

6.75647 20.888 4.96136e-12
20.888 -27.8011 1.89715e-12
4.96136e-12 1.89715e-12 -11.1145

-38.277 -28.0773 4.87447e-12
-28.0773 -14.0407 6.19282e-13
4.87447e-12 6.19282e-13 -11.07

8.64014 -26.2369 2.33236e-12
-26.2369 31.1751 1.00542e-12
2.33236e-12 1.00542e-12 -3.64515

15.3279 28.9934 5.43743e-12
28.9934 19.1534 4.29405e-12
5.43743e-12 4.29405e-12 -3.89325

28.6434 26.2012 -4.16733e-12
26.2012 -5.64455 1.23042e-12
-4.16733e-12 1.23042e-12 -4.8128

7.9117 -14.6152 -2.6296e-12
-14.6152 -36.8838 -5.35276e-13
-2.6296e-12 -5.35276e-13 -13.9954

-6.85332 -16.6253 -2.42147e-12
-16.6253 41.3488 -2.8777e-12
-2.42147e-12 -2.8777e-12 -3.96972

17.4413 -17.5705 1.09128e-12
-17.5705 -31.01 -5.1988e-13
1.09128e-12 -5.1988e-13 -7.11499

19.8412 16.9139 -5.31604e-12
16.9139 -31.6788 -4.16793e-12
-5.31604e-12 -4.16793e-12 -7.34541

-33.6858 -9.3812 -2.55684e-13
-9.3812 8.75761 -1.02555e-12
-2.55684e-13 -1.02555e-12 -23.9858

43.441 -13.435 -4.1851e-12
-13.435 -8.38184 -3.98052e-13
-4.1851e-12 -3.98052e-13 -3.81438

-19.3945 0.594899 -6.31761e-12
0.594899 43.1536 -2.57927e-12
-6.31761e-12 -2.57927e-12 -4.78618

28.0597 18.5602 4.16674e-12
18.5602 -18.2128 2.00936e-12
4.16674e-12 2.00936e-12 -4.76064

25.5304 27.6143 -1.73965e-12
27.6143 -3.78591 1.15049e-12
-1.73965e-12 1.15049e-12 -4.78195

-6.72723 -15.6934 2.84809e-13
-15.6934 43.8074 -1.022e-12
2.84809e-13 -1.022e-12 -3.85806

-19.9225 -1.20218 -3.30972e-12
-1.20218 42.1357 2.56032e-12
-3.30972e-12 2.56032e-12 -4.6978

-5.47356 29.1357 -5.55408e-13
29.1357 -23.6546 -1.91018e-12
-5.55408e-13 -1.91018e-12 -16.7983

-37.284 -10.9255 -1.64195e-12
-10.9255 21.6795 -1.38852e-12
-1.64195e-12 -1.38852e-12 -7.83951

27.1448 -26.7259 -5.1615e-12
-26.7259 -5.54063 4.47879e-12
-5.1615e-12 4.47879e-12 -4.95499

40.7265 21.3417 -3.60245e-12
21.3417 -8.38315 2.51532e-12
-3.60245e-12 2.51532e-12 -5.47796

12.3782 23.6686 -3.14652e-12
23.6686 -27.1377 2.82441e-12
-3.14652e-12 2.82441e-12 -8.6753

-37.8071 5.47395 2.19728e-12
5.47395 23.3118 1.65438e-12
2.19728e-12 1.65438e-12 -8.60571

18.5908 29.078 -1.69642e-12
29.078 17.3765 9.53312e-14
-1.69642e-12 9.53312e-14 -3.95724

-9.9846 22.9645 5.8975e-13
22.9645 -14.9221 2.45611e-12
5.8975e-13 2.45611e-12 -24.0191

68.3435 -59.7116 -3.55745e-12
-59.7116 36.3488 7.22385e-12
-3.55745e-12 7.22385e-12 -23.0065

17.529 -25.0562 -1.70175e-12
-25.0562 -18.0023 2.28913e-12
-1.70175e-12 2.28913e-12 -6.42785

10.0535 7.0727 -3.5687e-12
7.0727 82.5766 1.83083e-12
-3.5687e-12 1.83083e-12 -7.16894

11.9166 -28.8994 1.61648e-13
-28.8994 -3.88792 2.16005e-12
1.61648e-13 2.16005e-12 -5.17652

-66.9385 -52.7137 -3.78956e-14
-52.7137 143.306 -1.96583e-12
-3.78956e-14 -1.96583e-12 -49.6544

-68.3823 51.4641 -2.61124e-12
51.4641 142.593 1.9232e-12
-2.61124e-12 1.9232e-12 -49.8437

19.5967 117.182 -8.48625e-12
117.182 64.1666 -5.46644e-12
-8.48625e-12 -5.46644e-12 -48.3443

20.5557 -117.125 -9.11863e-13
-117.125 61.0626 3.24007e-12
-9.11863e-13 3.24007e-12 -48.7092

157.803 -1.3638 3.28271e-12
-1.3638 -79.1838 9.26342e-14
3.28271e-12 9.26342e-14 -48.8965

110.375 -91.1476 3.72324e-12
-91.1476 -36.6763 -5.30539e-13
3.72324e-12 -5.30539e-13 -50.2914

110.428 91.6757 5.14907e-12
91.6757 -36.4866 -8.3844e-13
5.14907e-12 -8.3844e-13 -50.1643

7.84255 14.3347 -1.77813e-12
14.3347 -42.6856 1.64017e-12
-1.77813e-12 1.64017e-12 -15.0827

-11.7862 25.5326 2.49874e-12
25.5326 -27.4061 -5.34165e-12
2.49874e-12 -5.34165e-12 -35.1213

12.4386 6.60845 -2.05288e-12
6.60845 -40.5473 4.44644e-12
-2.05288e-12 4.44644e-12 -8.26346

26.2561 21.7926 9.10087e-13
21.7926 -19.5425 7.8663e-13
9.10087e-13 7.8663e-13 -5.86207

-21.2465 17.7517 2.36507e-12
17.7517 29.8716 -9.59233e-14
2.36507e-12 -9.59233e-14 -6.17416

22.5297 28.9099 2.31518e-13
28.9099 -0.783254 1.52826e-12
2.31518e-13 1.52826e-12 -4.74164

4.05042 -29.67 2.99198e-12
-29.67 -17.4723 1.76392e-12
2.99198e-12 1.76392e-12 -8.51306

25.996 28.0391 -1.37076e-12
28.0391 -2.31034 -4.57234e-12
-1.37076e-12 -4.57234e-12 -4.74195

-19.363 -2.84313 2.80516e-12
-2.84313 43.0793 -3.76114e-12
2.80516e-12 -3.76114e-12 -4.78079

-13.4058 -26.0935 3.11662e-12
-26.0935 -25.84 2.60784e-12
3.11662e-12 2.60784e-12 -35.5039

-19.858 -4.86515 1.49525e-12
-4.86515 41.7837 -5.56592e-13
1.49525e-12 -5.56592e-13 -4.75476

-1.82996 23.021 -3.41061e-13
23.021 -24.3786 1.3108e-12
-3.41061e-13 1.3108e-12 -16.1507

44.9919 26.8825 2.62427e-12
26.8825 8.10451 -6.08106e-13
2.62427e-12 -6.08106e-13 -5.3778

-52.4971 -13.217 3.69615e-12
-13.217 0.148248 -1.45661e-12
3.69615e-12 -1.45661e-12 -20.6148

20.2816 13.7324 5.39065e-12
13.7324 -31.1571 -4.66294e-13
5.39065e-12 -4.66294e-13 -7.05424

13.6984 -29.9978 1.13746e-12
-29.9978 -6.70167 -1.34411e-12
1.13746e-12 -1.34411e-12 -5.84638

29.6346 -24.7225 -2.49874e-12
-24.7225 -7.88571 2.51236e-12
-2.49874e-12 2.51236e-12 -4.83596

5.75999 -16.0803 1.32842e-12
-16.0803 -32.3345 1.05042e-12
1.32842e-12 1.05042e-12 -22.2506

12.6268 27.9368 -5.24558e-12
27.9368 -13.65 -5.50463e-12
-5.24558e-12 -5.50463e-12 -6.4298

23.3091 23.9861 3.19567e-12
23.9861 -17.9562 4.16467e-12
3.19567e-12 4.16467e-12 -5.97352

-31.0923 -2.79244 -3.35957e-12
-2.79244 30.135 1.44181e-12
-3.35957e-12 1.44181e-12 -6.4087

-28.6465 5.87471 -1.62875e-12
5.87471 33.3255 1.87998e-12
-1.62875e-12 1.87998e-12 -6.07053

34.5548 2.64775 -3.25073e-13
2.64775 -26.2026 -1.85207e-12
-3.25073e-13 -1.85207e-12 -6.15407

50.664 -7.29293 7.15161e-12
-7.29293 -14.0985 -7.70643e-13
7.15161e-12 -7.70643e-13 -6.78879

11.0379 30.4953 2.12985e-12
30.4953 -4.79729 -1.93741e-12
2.12985e-12 -1.93741e-12 -5.97745

17.4656 -26.1639 4.45629e-12
-26.1639 -17.4652 -7.97288e-13
4.45629e-12 -7.97288e-13 -6.36202

-0.0815875 -21.2558 1.3598e-12
-21.2558 -27.9619 -2.32347e-12
1.3598e-12 -2.32347e-12 -17.1663

4.93263 -31.6459 4.73695e-14
-31.6459 4.85512 6.7916e-13
4.73695e-14 6.7916e-13 -5.94668

-8.23921 -27.7973 -2.36078e-12
-27.7973 18.5783 8.23637e-13
-2.36078e-12 8.23637e-13 -6.14155

-1.65923 29.8993 4.00332e-12
29.8993 10.4439 -3.12284e-12
4.00332e-12 -3.12284e-12 -5.81186

-26.0333 -9.58125 -8.18493e-13
-9.58125 32.9745 -1.80537e-12
-8.18493e-13 -1.80537e-12 -5.79826

-31.3377 -1.54672 -3.15303e-14
-1.54672 31.6537 7.79821e-13
-3.15303e-14 7.79821e-13 -6.2337

-38.9291 5.74723 -4.64504e-12
5.74723 23.9473 2.37736e-12
-4.64504e-12 2.37736e-12 -9.19137

-17.2329 -21.098 -1.54721e-12
-21.098 26.5735 -8.09427e-13
-1.54721e-12 -8.09427e-13 -5.78352

13.0684 24.1179 2.69118e-12
24.1179 -28.1107 -3.84048e-12
2.69118e-12 -3.84048e-12 -9.21322

21.5572 -9.59292 -1.00127e-12
-9.59292 -31.7225 -2.61287e-12
-1.00127e-12 -2.61287e-12 -6.60935

-27.1704 7.46748 -1.65427e-12
7.46748 34.3392 2.85105e-12
-1.65427e-12 2.85105e-12 -5.88493

-35.25 -9.70223 -9.77574e-13
-9.70223 22.3152 -2.55914e-12
-9.77574e-13 -2.55914e-12 -8.19259

-29.1707 -16.3362 2.15058e-12
-16.3362 19.3478 4.02226e-12
2.15058e-12 4.02226e-12 -6.67289

36.9755 -8.24231 -4.13181e-12
-8.24231 -20.2538 -1.27335e-12
-4.13181e-12 -1.27335e-12 -5.11256

-14.8131 -32.3468 -2.3516e-12
-32.3468 -21.6285 3.07783e-12
-2.3516e-12 3.07783e-12 -12.998

-22.8382 9.32549 1.81632e-12
9.32549 33.3277 1.9759e-12
1.81632e-12 1.9759e-12 -4.79943

-0.754015 -18.2143 3.59061e-12
-18.2143 -35.1526 7.03437e-13
3.59061e-12 7.03437e-13 -33.2625

4.92773 24.8332 -1.04213e-13
24.8332 75.3317 -8.95994e-12
-1.04213e-13 -8.95994e-12 -14.322

-14.1426 -26.6299 -3.01152e-12
-26.6299 -16.3579 1.04228e-12
-3.01152e-12 1.04228e-12 -14.6441

-6.35762 -30.2034 -3.4485e-12
-30.2034 -23.6104 9.74036e-14
-3.4485e-12 9.74036e-14 -17.089

-31.286 -0.700095 -4.82444e-12
-0.700095 31.5037 -1.23102e-12
-4.82444e-12 -1.23102e-12 -6.35851

28.4921 -16.6273 2.01676e-12
-16.6273 -18.0704 6.54291e-14
2.01676e-12 6.54291e-14 -4.44868

-37.816 12.8427 2.07736e-12
12.8427 11.1653 -5.87974e-13
2.07736e-12 -5.87974e-13 -10.996

-8.86217 -3.18288 4.28998e-12
-3.18288 111.092 8.5502e-13
4.28998e-12 8.5502e-13 -22.6678

-31.6182 14.2779 4.33801e-12
14.2779 21.3512 4.92525e-12
4.33801e-12 4.92525e-12 -7.13538

12.418 -29.4999 2.82026e-12
-29.4999 -2.5258 9.5568e-13
2.82026e-12 9.5568e-13 -4.93885

33.6404 25.1139 4.46162e-12
25.1139 124.069 4.63274e-12
4.46162e-12 4.63274e-12 -6.20983

-13.4965 26.0876 2.71916e-12
26.0876 -19.0943 -1.04038e-11
2.71916e-12 -1.04038e-11 -58.8548

-9.5497 -27.7957 -1.42612e-12
-27.7957 -22.8016 -7.64633e-12
-1.42612e-12 -7.64633e-12 -59.5047

-2.87214 -30.428 3.59653e-12
-30.428 -7.33012 2.04103e-12
3.59653e-12 2.04103e-12 -7.2981

3.85331 -31.1727 1.62241e-13
-31.1727 5.62986 -6.31199e-13
1.62241e-13 -6.31199e-13 -6.07394

25.155 20.8337 5.45282e-12
20.8337 -17.0474 -8.0469e-13
5.45282e-12 -8.0469e-13 -4.98746

31.8094 15.0119 6.68147e-12
15.0119 -23.3182 -1.89833e-12
6.68147e-12 -1.89833e-12 -5.96627

-9.48118 3.07682 -7.74196e-12
3.07682 -9.82554 -4.17022e-12
-7.74196e-12 -4.17022e-12 -80.8746

-5.54387 -6.99025 1.79902e-11
-6.99025 -14.0331 -5.47547e-12
1.79902e-11 -5.47547e-12 -80.2277

11.7498 4.82391 1.56201e-12
4.82391 -43.215 5.71987e-13
1.56201e-12 5.71987e-13 -7.83778

-35.0685 6.73442 4.20034e-12
6.73442 24.3763 1.12739e-12
4.20034e-12 1.12739e-12 -7.57307

-36.125 6.73668 -1.01505e-12
6.73668 24.4338 1.48267e-12
-1.01505e-12 1.48267e-12 -8.31812

74.6132 58.6552 -2.64796e-12
58.6552 34.1886 -1.04687e-12
-2.64796e-12 -1.04687e-12 -21.8684

-6.93135 -28.2118 2.76579e-12
-28.2118 16.874 1.29082e-12
2.76579e-12 1.29082e-12 -6.12846

8.1709 17.9731 1.36957e-12
17.9731 -44.878 2.08544e-12
1.36957e-12 2.08544e-12 -12.9016

32.7091 9.54247 4.0418e-12
9.54247 -19.0946 4.20508e-12
4.0418e-12 4.20508e-12 -4.08537

3.38109 -26.7337 -4.41129e-13
-26.7337 13.4831 8.8581e-13
-4.41129e-13 8.8581e-13 -3.83787

26.2395 -20.2451 3.42126e-12
-20.2451 -20.3377 7.72419e-13
3.42126e-12 7.72419e-13 -5.87441

65.417 60.2531 2.56032e-12
60.2531 34.3031 -6.11067e-12
2.56032e-12 -6.11067e-12 -23.8638

-13.2451 31.0722 -1.62833e-12
31.0722 -16.8904 2.79776e-12
-1.62833e-12 2.79776e-12 -12.7919

-18.6201 -19.7944 7.17293e-12
-19.7944 28.418 -4.49892e-12
7.17293e-12 -4.49892e-12 -5.98119

11.1704 28.8664 -5.35808e-12
28.8664 -13.3315 -3.60186e-12
-5.35808e-12 -3.60186e-12 -6.44641

-31.8837 -4.14745 4.96862e-13
-4.14745 30.1503 3.66758e-12
4.96862e-13 3.66758e-12 -6.36816

-14.6087 19.6173 -1.61145e-12
19.6173 27.1882 -4.29109e-12
-1.61145e-12 -4.29109e-12 -4.42992

7.47501 30.53 4.76656e-13
30.53 -1.67829 -2.87829e-12
4.76656e-13 -2.87829e-12 -5.67162

-9.35566 -22.4825 6.80937e-13
-22.4825 23.1511 -1.71004e-12
6.80937e-13 -1.71004e-12 -4.18665

4.58424 -27.363 -1.12917e-12
-27.363 11.4476 1.01608e-12
-1.12917e-12 1.01608e-12 -3.94937

24.2784 11.2611 4.00006e-12
11.2611 102.115 -8.31335e-13
4.00006e-12 -8.31335e-13 -12.4017

37.4734 -33.4703 1.97768e-12
-33.4703 69.306 -5.02117e-13
1.97768e-12 -5.02117e-13 -5.70543

-25.3517 -11.6947 2.81967e-12
-11.6947 31.3725 2.60651e-12
2.81967e-12 2.60651e-12 -5.65955

16.0943 26.4934 1.91195e-12
26.4934 -15.5112 -1.70353e-12
1.91195e-12 -1.70353e-12 -6.22749

4.94985 29.4881 -3.83693e-13
29.4881 1.63235 -3.78009e-12
-3.83693e-13 -3.78009e-12 -5.00101

-9.86549 -21.4428 3.30698e-13
-21.4428 25.1235 -6.93727e-12
3.30698e-13 -6.93727e-12 -4.04433

-21.6486 -11.7877 2.64648e-12
-11.7877 32.0863 -9.79957e-13
2.64648e-12 -9.79957e-13 -4.64815

10.4587 28.4198 -2.71131e-12
28.4198 -0.161346 8.68046e-13
-2.71131e-12 8.68046e-13 -4.68357

-21.8602 -13.8836 2.99908e-13
-13.8836 29.4704 2.68644e-12
2.99908e-13 2.68644e-12 -4.85824

6.95493 27.8673 -9.14469e-12
27.8673 73.1091 -8.78704e-13
-9.14469e-12 -8.78704e-13 -14.3251

-45.8355 -4.03853 -9.18182e-13
-4.03853 14.047 -2.84217e-13
-9.18182e-13 -2.84217e-13 -19.963

0.869085 31.0401 -2.55381e-12
31.0401 7.51523 8.85218e-13
-2.55381e-12 8.85218e-13 -6.10084

9.71758 14.9056 6.09586e-12
14.9056 -36.4384 3.69038e-12
6.09586e-12 3.69038e-12 -10.9925

9.92455 -15.9322 5.33795e-13
-15.9322 -39.4169 -3.73035e-14
5.33795e-13 -3.73035e-14 -13.0746

85.643 -24.2145 1.82373e-12
-24.2145 7.63297 2.0736e-12
1.82373e-12 2.0736e-12 -12.9594

-23.2176 -21.2735 -2.60295e-12
-21.2735 10.5133 -7.04977e-12
-2.60295e-12 -7.04977e-12 -6.17655

-16.6103 26.7065 -2.58045e-12
26.7065 1.77468 6.81233e-12
-2.58045e-12 6.81233e-12 -6.59933

-26.1957 -21.7268 -1.94511e-13
-21.7268 -5.37557 4.58744e-13
-1.94511e-13 4.58744e-13 -23.861

-41.5822 14.0973 7.90405e-12
14.0973 -3.55725 2.2992e-12
7.90405e-12 2.2992e-12 -64.0827

-0.895699 9.44488 -3.33215e-13
9.44488 -44.2397 3.90621e-12
-3.33215e-13 3.90621e-12 -64.1841

-20.3805 32.7016 -2.75039e-13
32.7016 -23.2071 1.77828e-12
-2.75039e-13 1.77828e-12 -24.3243

-11.4239 26.0116 5.97152e-13
26.0116 22.6051 2.03334e-12
5.97152e-13 2.03334e-12 -5.93751

16.0383 26.6684 -8.34888e-14
26.6684 -17.2996 7.77748e-13
-8.34888e-14 7.77748e-13 -6.56022

30.4351 45.2048 1.9836e-12
45.2048 47.5692 -9.5568e-13
1.9836e-12 -9.5568e-13 -15.1978

-44.8729 -11.3361 -7.22237e-13
-11.3361 -1.80642 -3.39255e-12
-7.22237e-13 -3.39255e-12 -61.6414

-8.29748 -3.4287 1.04604e-11
-3.4287 -12.741 3.23993e-12
1.04604e-11 3.23993e-12 -77.1679

-14.677 -0.206335 -8.82849e-13
-0.206335 -6.41818 -6.78798e-12
-8.82849e-13 -6.78798e-12 -77.3121

27.6767 -53.8211 -2.98546e-12
-53.8211 71.1778 6.63173e-14
-2.98546e-12 6.63173e-14 -24.3854

-11.6826 -11.5966 -5.21982e-12
-11.5966 -16.2083 -1.61945e-12
-5.21982e-12 -1.61945e-12 -37.4103

-32.6065 8.80798 -1.75482e-12
8.80798 -9.4103 -8.55257e-12
-1.75482e-12 -8.55257e-12 -49.5101

18.2562 -26.2062 2.78177e-12
-26.2062 -19.5594 -2.25568e-12
2.78177e-12 -2.25568e-12 -6.51711

-39.4353 1.00783 -2.02079e-12
1.00783 11.9815 7.69755e-13
-2.02079e-12 7.69755e-13 -19.7194

-30.213 -20.2739 2.93987e-12
-20.2739 6.3035 1.50931e-12
2.93987e-12 1.50931e-12 -7.2272

10.5349 6.25605 1.38378e-12
6.25605 -52.3933 1.5404e-12
1.38378e-12 1.5404e-12 -9.6488

-49.8149 15.596 3.41212e-12
15.596 10.1622 5.96264e-13
3.41212e-12 5.96264e-13 -13.5363

-40.2937 7.18982 -9.76145e-13
7.18982 16.5413 5.68434e-13
-9.76145e-13 5.68434e-13 -13.7782

16.404 20.3994 -2.4946e-12
20.3994 -25.8527 3.49735e-12
-2.4946e-12 3.49735e-12 -7.61716

-9.10149 -3.11393 1.75356e-12
-3.11393 108.435 9.9476e-13
1.75356e-12 9.9476e-13 -23.0983

-3.32711 -27.6325 -8.32519e-13
-27.6325 -3.63289 -7.92847e-13
-8.32519e-13 -7.92847e-13 -5.84067

-7.3386 -26.1233 6.99352e-12
-26.1233 -14.0875 2.83299e-12
6.99352e-12 2.83299e-12 -9.81818

-14.2021 -31.4835 -4.58685e-12
-31.4835 -21.778 1.27335e-12
-4.58685e-12 1.27335e-12 -12.7607

90.7604 32.762 -5.22486e-12
32.762 20.9127 4.31418e-12
-5.22486e-12 4.31418e-12 -16.5029

-23.1066 -20.1133 3.65604e-12
-20.1133 -17.3875 -3.75255e-12
3.65604e-12 -3.75255e-12 -44.4017

72.6525 54.3399 -2.93928e-12
54.3399 91.6687 -2.7877e-12
-2.93928e-12 -2.7877e-12 -6.1371

-36.2216 -21.4371 5.27075e-12
-21.4371 -6.79684 -9.8351e-13
5.27075e-12 -9.8351e-13 -13.0489

15.0343 14.6513 -6.12133e-12
14.6513 -37.7604 -7.72567e-13
-6.12133e-12 -7.72567e-13 -8.18779

44.5827 -14.5782 5.60855e-12
-14.5782 -8.28558 4.49196e-12
5.60855e-12 4.49196e-12 -4.42873

-21.2385 24.0523 2.77704e-12
24.0523 4.95389 -1.71596e-12
2.77704e-12 -1.71596e-12 -5.98734

17.3737 20.4317 1.31806e-12
20.4317 -26.8041 -7.11016e-12
1.31806e-12 -7.11016e-12 -6.96126

-51.1361 11.3959 7.7669e-12
11.3959 7.70757 2.08426e-12
7.7669e-12 2.08426e-12 -29.9832

-7.29324 -31.5859 -1.12799e-13
-31.5859 -12.8322 -3.07724e-12
-1.12799e-13 -3.07724e-12 -8.12878

2.79142 19.8118 -4.32987e-12
19.8118 -46.0271 -2.00432e-13
-4.32987e-12 -2.00432e-13 -29.9751

-24.6818 -18.4493 -8.94692e-13
-18.4493 17.8367 4.50899e-12
-8.94692e-13 4.50899e-12 -5.49113

-42.3472 4.28582 -4.50453e-12
4.28582 17.8689 3.12639e-13
-4.50453e-12 3.12639e-13 -12.7327

-4.09796 9.93 7.26648e-12
9.93 -40.2641 -3.5764e-12
7.26648e-12 -3.5764e-12 -47.5199

-2.68891 -8.5172 1.12739e-12
-8.5172 -38.2957 5.34535e-13
1.12739e-12 5.34535e-13 -47.3755

81.7508 18.5196 1.79294e-12
18.5196 1.69408 5.98159e-12
1.79294e-12 5.98159e-12 -14.4557

3.89534 7.96755 -1.9235e-12
7.96755 -45.1913 1.63573e-12
-1.9235e-12 1.63573e-12 -11.0266

35.8928 7.74403 1.7694e-12
7.74403 184.63 -8.33703e-13
1.7694e-12 -8.33703e-13 -9.74037

40.1673 -11.3892 3.67484e-12
-11.3892 190.429 -7.38964e-13
3.67484e-12 -7.38964e-13 -7.37154

53.7891 56.4199 -3.54561e-12
56.4199 159.307 5.09696e-12
-3.54561e-12 5.09696e-12 -11.4831

1.70385 -28.9549 1.52115e-12
-28.9549 -24.6948 -6.88723e-12
1.52115e-12 -6.88723e-12 -11.9684

16.0584 -49.2077 -2.68585e-12
-49.2077 99.4538 -1.73372e-12
-2.68585e-12 -1.73372e-12 -21.684

54.5373 -55.9625 -6.19356e-12
-55.9625 150.023 -2.62901e-12
-6.19356e-12 -2.62901e-12 -13.6485

-2.17432 26.2305 1.0741e-12
26.2305 17.5728 -3.39343e-12
1.0741e-12 -3.39343e-12 -4.00714

134.985 73.8613 2.64322e-12
73.8613 85.056 -4.36273e-12
2.64322e-12 -4.36273e-12 -10.1419

-18.7282 13.0438 -2.49874e-12
13.0438 -3.89543 1.38378e-12
-2.49874e-12 1.38378e-12 -26.7593

3.73955 0.0468653 2.03482e-12
0.0468653 -26.191 -7.34879e-12
2.03482e-12 -7.34879e-12 -26.7625

144.145 -73.1463 3.14534e-12
-73.1463 85.3837 2.77112e-12
3.14534e-12 2.77112e-12 -8.1785

-21.4066 -23.4325 -2.50289e-12
-23.4325 12.2462 -4.22773e-12
-2.50289e-12 -4.22773e-12 -6.50337

89.3767 34.7421 -3.50534e-12
34.7421 41.4026 -1.92439e-12
-3.50534e-12 -1.92439e-12 -11.5442

72.2176 63.5068 -1.29319e-12
63.5068 149.74 2.84217e-14
-1.29319e-12 2.84217e-14 -9.65648

26.1719 21.6383 -6.94319e-12
21.6383 100.168 3.13112e-12
-6.94319e-12 3.13112e-12 -13.0279

73.9052 -65.9362 -1.76215e-12
-65.9362 151.191 -4.448e-12
-1.76215e-12 -4.448e-12 -9.38454

25.7765 -12.3854 2.5994e-12
-12.3854 105.048 -3.04349e-12
2.5994e-12 -3.04349e-12 -12.4243

-28.6643 6.83447 -8.14608e-13
6.83447 3.11011 -3.64716e-12
-8.14608e-13 -3.64716e-12 -37.8325

37.7535 -45.993 -6.12251e-12
-45.993 49.6841 -5.30775e-12
-6.12251e-12 -5.30775e-12 -15.5338

14.4521 47.5487 -7.16464e-13
47.5487 94.9128 -3.42245e-12
-7.16464e-13 -3.42245e-12 -22.1879

173.392 37.9218 1.83794e-12
37.9218 48.0657 -3.39403e-12
1.83794e-12 -3.39403e-12 -9.50539

7.0162 -29.2935 -5.21183e-12
-29.2935 -14.3649 1.10075e-12
-5.21183e-12 1.10075e-12 -7.16548

-38.4261 12.8952 -3.57788e-12
12.8952 6.43658 -4.26622e-13
-3.57788e-12 -4.26622e-13 -15.2934

88.5356 -38.1264 -3.55035e-12
-38.1264 34.1736 3.58824e-12
-3.55035e-12 3.58824e-12 -14.0959

6.0391 -28.8091 8.44954e-13
-28.8091 -16.1824 5.92622e-12
8.44954e-13 5.92622e-12 -8.03928

169.257 -36.3534 3.6664e-12
-36.3534 34.9496 1.13864e-12
3.6664e-12 1.13864e-12 -13.274

-5.72906 -28.3245 1.18779e-12
-28.3245 -14.4808 -1.71892e-12
1.18779e-12 -1.71892e-12 -9.31809

-17.803 -25.3041 -3.25192e-12
-25.3041 12.078 3.79548e-13
-3.25192e-12 3.79548e-13 -5.94641

118.915 69.4774 5.43802e-12
69.4774 96.2551 -9.40285e-13
5.43802e-12 -9.40285e-13 -11.3836

29.4223 -22.9413 7.89887e-13
-22.9413 97.8303 -5.23196e-12
7.89887e-13 -5.23196e-12 -14.3358

117.999 -71.71 2.7048e-12
-71.71 93.7162 1.76688e-12
2.7048e-12 1.76688e-12 -12.3996

22.2743 50.7545 -2.58874e-12
50.7545 73.807 1.36235e-11
-2.58874e-12 1.36235e-11 -24.7737

-1.54283 -30.2216 1.77873e-12
-30.2216 -6.56072 2.68792e-12
1.77873e-12 2.68792e-12 -7.00904

-7.0388 -14.6425 8.06229e-12
-14.6425 -21.9227 5.67043e-12
8.06229e-12 5.67043e-12 -32.5986

-11.8902 11.0857 -1.20657e-11
11.0857 -16.4151 2.30926e-14
-1.20657e-11 2.30926e-14 -77.7346

-26.1498 -5.16126 -7.47994e-13
-5.16126 -6.38655 1.06659e-12
-7.47994e-13 1.06659e-12 -77.5687

-38.9535 13.0848 1.95133e-12
13.0848 13.7439 -9.44667e-12
1.95133e-12 -9.44667e-12 -10.2472

-14.4766 -10.6601 -8.58573e-15
-10.6601 -17.3019 5.81638e-12
-8.58573e-15 5.81638e-12 -78.6965

-25.8835 4.09369 2.02297e-12
4.09369 -5.91281 5.48039e-12
2.02297e-12 5.48039e-12 -78.8385

-3.62876 7.42499 8.75996e-12
7.42499 -27.8459 -1.86073e-13
8.75996e-12 -1.86073e-13 -77.9267

-43.9569 -12.1065 -3.45831e-12
-12.1065 2.91524 -2.6333e-12
-3.45831e-12 -2.6333e-12 -68.1089

11.9725 -30.4828 -3.63324e-12
-30.4828 76.1885 -1.59398e-12
-3.63324e-12 -1.59398e-12 -14.7028

0.517459 -12.9721 4.90156e-12
-12.9721 -39.981 5.68227e-12
4.90156e-12 5.68227e-12 -45.2506

-16.3477 -34.4124 4.27865e-12
-34.4124 -22.0741 1.36409e-12
4.27865e-12 1.36409e-12 -23.5853

-2.42427 -18.1793 -1.13953e-12
-18.1793 -29.8889 -2.20135e-12
-1.13953e-12 -2.20135e-12 -33.6104

12.7354 15.4637 1.60701e-12
15.4637 -37.7271 -9.05972e-12
1.60701e-12 -9.05972e-12 -9.63442

-46.888 9.85822 -1.60512e-12
9.85822 8.8721 -6.01193e-12
-1.60512e-12 -6.01193e-12 -70.1027

3.45844 19.2193 -4.10871e-12
19.2193 -41.4528 -4.66338e-12
-4.10871e-12 -4.66338e-12 -70.2185

1.46716 11.3129 -1.42109e-12
11.3129 -23.9611 3.01699e-12
-1.42109e-12 3.01699e-12 -31.8524

109.432 -15.346 -3.58587e-12
-15.346 -12.536 1.95577e-12
-3.58587e-12 1.95577e-12 -25.033

-14.3321 24.9734 4.60787e-12
24.9734 10.3843 9.81378e-12
4.60787e-12 9.81378e-12 -5.81671

76.6343 -61.3754 -4.08325e-12
-61.3754 37.3826 4.51905e-12
-4.08325e-12 4.51905e-12 -22.3898

76.1374 -57.4751 -8.92915e-12
-57.4751 99.2594 -1.68635e-12
-8.92915e-12 -1.68635e-12 -5.54866

118.233 -36.5563 -6.21962e-12
-36.5563 40.6127 5.46289e-12
-6.21962e-12 5.46289e-12 -7.37365

-51.0897 -5.15802 3.52459e-13
-5.15802 3.33618 4.01013e-13
3.52459e-13 4.01013e-13 -60.6185

-50.4541 2.89174 4.39323e-12
2.89174 3.13046 3.0013e-12
4.39323e-12 3.0013e-12 -60.0916

-11.974 -24.4445 -4.86455e-12
-24.4445 -34.9857 4.07733e-12
-4.86455e-12 4.07733e-12 -59.1267

-8.98835 -21.7476 1.00845e-13
-21.7476 -37.8724 -1.38645e-12
1.00845e-13 -1.38645e-12 -59.436

-14.6991 26.1228 2.56239e-12
26.1228 -33.0112 3.49395e-12
2.56239e-12 3.49395e-12 -60.7097

-18.1441 3.09105 5.78574e-12
3.09105 -13.1574 9.66101e-12
5.78574e-12 9.66101e-12 -75.4209

-9.94371 -20.4997 -1.49984e-12
-20.4997 -32.635 3.60001e-12
-1.49984e-12 3.60001e-12 -56.6988

-26.631 -18.5612 5.02887e-12
-18.5612 -14.1946 1.00768e-12
5.02887e-12 1.00768e-12 -71.2202

-15.4643 2.4283 1.36295e-11
2.4283 -12.8482 9.75353e-12
1.36295e-11 9.75353e-12 -77.8131

-6.02558 -20.5153 5.26172e-13
-20.5153 -41.4694 -4.37606e-12
5.26172e-13 -4.37606e-12 -60.466

-6.75454 20.9445 -9.06379e-12
20.9445 -40.1264 -8.92619e-13
-9.06379e-12 -8.92619e-13 -59.9776

-14.3024 -3.45186 -1.36118e-11
-3.45186 -11.3867 4.673e-12
-1.36118e-11 4.673e-12 -76.8284

-11.2557 -3.10783 -1.45959e-11
-3.10783 -17.6773 1.34244e-11
-1.45959e-11 1.34244e-11 -73.9936

-24.187 12.1082 -2.00714e-12
12.1082 -13.3994 5.52669e-13
-2.00714e-12 5.52669e-13 -69.9172

-22.0731 26.9192 -1.53004e-12
26.9192 -26.2609 5.67555e-12
-1.53004e-12 5.67555e-12 -57.5447

VECTORS fluid_flux_TPM float
-8.73456e-05 3.10758e-05 1.4891e-20
3.56445e-06 6.89191e-06 7.94131e-21
-1.28046e-05 -1.02395e-05 1.06474e-21
-4.1761e-06 4.25984e-06 1.35623e-20
2.27383e-05 -6.3219e-06 1.70431e-21
2.76151e-06 -1.5925e-05 -1.09921e-20
-8.59193e-05 -3.11402e-05 1.40138e-20
-1.3911e-05 -1.04811e-05 -9.02123e-21
2.21517e-05 9.46798e-07 6.68395e-21
1.13994e-05 -3.91333e-06 1.00011e-20
5.46749e-05 1.25007e-05 5.2765e-21
2.35023e-06 -1.72173e-05 -1.46905e-20
1.363e-05 1.12689e-05 -9.89948e-22
2.6658e-06 1.38033e-05 1.34308e-20
2.06088e-05 -2.95069e-06 7.20887e-21
-1.63546e-05 -2.73252e-07 -1.94257e-20
2.75735e-06 1.41179e-05 1.31577e-20
1.01955e-05 -2.39509e-06 1.18268e-20
9.91224e-06 1.7246e-05 1.56038e-21
-1.48687e-05 1.88807e-06 -1.1336e-20
-3.60589e-06 -2.1333e-05 -1.13018e-20
3.41578e-05 5.94989e-05 1.44401e-20
1.57188e-05 1.63352e-06 1.53405e-20
1.12427e-05 -1.12967e-05 -2.22121e-21
-1.5099e-05 -3.33695e-06 -5.10239e-21
-6.78023e-07 -1.1146e-05 -2.09617e-21
6.29896e-05 -4.91508e-06 -1.20375e-21
1.40852e-05 1.02627e-05 8.325e-21
-2.51843e-05 -2.06719e-05 -9.38682e-21
4.91877e-05 -1.28317e-05 -5.03681e-21
-1.66052e-05 -6.04658e-06 -2.49722e-21
5.54535e-06 -3.2081e-05 -3.73731e-21
4.7721e-05 -4.81133e-05 1.24706e-21
-4.93005e-06 -4.13048e-05 -1.08119e-20
-2.97144e-05 3.70565e-05 3.90727e-21
-3.83004e-05 -1.64178e-05 1.21113e-22
3.27481e-05 4.32753e-05 -3.08798e-21
-4.48027e-05 -8.73804e-06 3.07059e-21
1.43944e-05 -1.1097e-05 -6.24891e-21
4.6535e-05 5.01843e-05 -2.83134e-21
3.21741e-05 -1.40413e-05 -1.1933e-22
3.36869e-05 -4.24022e-05 4.47984e-22
-1.99239e-05 -5.04484e-05 2.48507e-21
-1.59201e-05 6.36564e-06 -6.91277e-21
3.05686e-05 -2.93546e-05 -1.86405e-21
-3.03754e-05 1.10061e-05 4.9202e-21
-4.05561e-06 -2.03992e-05 -1.26524e-20
7.89728e-06 2.02399e-05 -8.34357e-22
-1.63653e-05 5.9362e-06 -6.3604e-21
-1.78443e-05 2.87668e-05 9.63004e-22
3.24539e-05 1.53121e-05 3.33837e-21
2.94063e-05 -1.00891e-05 7.5308e-21
-1.56881e-05 1.57823e-05 1.17293e-20
-2.35745e-05 -2.072e-05 -1.0964e-20
-2.11694e-05 -5.13963e-06 -5.6497e-21
-4.48552e-05 2.71155e-05 7.76946e-21
-2.94131e-05 -3.80764e-05 -2.25257e-20
6.37291e-06 -3.06712e-05 -5.02114e-21
-4.77749e-05 6.49207e-06 -4.05351e-21
6.08285e-06 1.37163e-05 -5.24601e-21
-5.58469e-06 -8.18498e-06 -9.42424e-21
-6.59285e-06 -1.7969e-05 -1.48948e-20
5.7225e-05 2.48946e-05 -7.56442e-21
9.25606e-06 1.817e-05 5.96887e-21
1.23141e-05 -1.44655e-05 -2.84771e-21
-1.64273e-06 -2.0782e-05 -1.08838e-20
4.62776e-06 -8.81809e-06 -1.08509e-22
-1.0105e-05 -5.57283e-06 -1.04357e-20
-1.06177e-05 1.19465e-05 1.81271e-20
2.56184e-06 -4.09838e-06 7.89923e-21
-1.50648e-05 -1.58657e-05 -1.88165e-20
-2.13952e-05 5.17329e-06 6.71415e-21
-3.5613e-06 3.45313e-05 6.72286e-21
-1.78973e-05 1.07262e-05 4.5922e-23
-9.08367e-06 1.46358e-05 1.98061e-20
-6.04439e-05 7.70396e-06 1.30243e-20
7.82933e-06 -2.17125e-05 -9.10925e-21
-1.89071e-05 -8.91293e-06 -6.64935e-21
1.93665e-06 1.16406e-05 -9.1387e-21
2.63386e-05 5.0969e-06 2.18286e-21
3.42182e-05 -2.90162e-05 -7.98456e-21
2.21782e-05 2.05855e-05 -3.96663e-21
1.19255e-05 -2.82641e-06 6.22268e-21
-3.22005e-05 2.4103e-05 1.1149e-22
3.79587e-05 4.85277e-06 -3.61825e-22
-4.98694e-06 4.94867e-05 3.71665e-21
-1.74343e-06 -1.68814e-05 -1.66909e-20
1.81498e-05 9.96884e-06 4.07594e-21
2.93602e-05 3.03289e-05 -9.4407e-21
5.51036e-05 3.80678e-05 1.35996e-20
-5.3386e-06 3.08173e-05 3.84905e-21
5.92645e-05 -3.55633e-05 -1.60945e-20
-2.71636e-05 5.3489e-06 -1.09069e-20
1.78648e-05 1.10175e-05 3.66148e-21
-2.96842e-05 9.91791e-06 9.29539e-22
1.66775e-05 2.8562e-05 5.17945e-21
1.01842e-05 -4.44508e-05 4.84255e-21
1.91835e-06 1.16374e-05 -2.6993e-21
-1.4822e-05 -1.76454e-05 -6.64114e-21
3.07447e-06 1.74997e-05 -3.31837e-21
2.64448e-05 5.26498e-06 7.27963e-21
-1.54652e-05 3.32595e-05 6.6146e-21
4.06106e-05 -1.3352e-05 -2.75273e-21
-3.77836e-06 7.46587e-06 2.19967e-20
9.96719e-06 5.90772e-06 9.57447e-21
-2.28376e-06 -1.13409e-05 -7.44778e-21
3.2254e-06 -1.92795e-05 -4.00827e-21
1.74944e-05 3.89764e-06 7.32083e-21
-7.94784e-06 4.10319e-05 3.75518e-23
-9.81954e-06 2.48364e-07 2.39729e-20
9.33202e-06 1.19028e-05 -6.24334e-21
-2.17926e-06 -4.17743e-05 -1.96713e-21
4.20835e-05 1.28833e-05 2.95998e-21
4.42904e-06 -7.46382e-06 -1.77397e-20
-1.11612e-05 -3.55873e-06 -4.17195e-21
-2.93683e-05 -1.25043e-05 -1.48938e-20
1.58263e-05 4.12062e-05 8.80869e-21
-4.35489e-05 -1.55969e-05 -3.09707e-21
1.60414e-05 -4.11827e-05 -1.05931e-20
-3.70473e-06 -3.19663e-05 2.13603e-22
2.18702e-05 6.53124e-07 3.30045e-21
-7.18173e-06 1.8423e-05 -3.48281e-20
-1.61338e-06 3.97519e-06 5.20951e-21
-3.69109e-06 -1.65624e-05 -1.29666e-20
5.23745e-06 -8.31392e-06 1.09052e-20
9.37301e-06 1.58863e-05 6.82751e-21
3.31486e-05 1.06678e-05 -9.36929e-21
8.62791e-06 -7.46866e-06 -1.24263e-20
-8.28226e-06 -4.52257e-05 -1.10354e-20
2.55889e-05 -1.88467e-05 -1.27173e-21
4.98518e-06 2.7811e-05 5.36872e-21
-2.82039e-06 -2.84566e-06 -9.43758e-21
-8.63847e-06 -8.33766e-06 -2.20716e-20
-4.7834e-06 4.41102e-08 -1.10098e-21
-2.29056e-05 2.86361e-05 1.33616e-20
1.87901e-05 -3.74285e-05 2.51986e-22
-2.6618e-05 4.27771e-05 -1.04421e-21
-1.63954e-05 9.54907e-06 -6.54105e-21
2.53154e-06 1.22163e-05 1.52202e-20
-2.30196e-05 -3.50395e-05 5.93892e-22
1.39565e-05 3.35141e-05 -6.65029e-22
1.75328e-05 9.38255e-06 -4.87298e-22
2.28442e-05 -8.53474e-06 1.14565e-20
-1.25482e-06 -1.12814e-05 -1.33795e-20
-3.39609e-05 -3.16046e-05 -7.68543e-21
-2.75531e-06 1.13196e-05 8.66132e-21
1.72714e-05 1.01862e-05 5.41649e-21
1.89145e-05 -8.83335e-06 2.97344e-21
8.25511e-06 -1.43653e-05 -1.02238e-20
2.43918e-05 -1.08106e-05 6.27915e-21
1.90367e-05 -9.01063e-06 4.5299e-21
4.64735e-06 2.06151e-07 -7.10244e-21
2.57778e-05 2.02499e-05 8.23733e-22
-2.74544e-06 -1.70544e-05 -8.19065e-21
-1.04947e-05 -4.46347e-06 -7.75734e-21
1.12756e-06 -3.89569e-06 -1.61698e-20
-3.15941e-06 1.58695e-05 2.17497e-21
-3.49342e-05 2.77222e-06 3.11125e-21
-1.21386e-05 -3.33064e-05 -1.92007e-21
-7.89022e-06 9.79311e-06 1.1917e-20
1.35848e-05 1.6664e-05 5.37542e-22
2.66068e-05 -1.87712e-05 -3.61797e-21
-3.68456e-05 -2.03811e-05 -1.12945e-20
1.74285e-05 -2.75467e-05 -2.11036e-21
2.28368e-05 -2.72552e-05 2.96025e-21
-1.096e-05 3.79035e-06 -1.1939e-20
-1.98573e-05 -2.88822e-05 -4.39851e-21
-3.49306e-05 -5.79987e-06 -9.27389e-22
-3.8573e-06 -3.17886e-05 -5.10246e-21
1.54702e-05 -3.17444e-05 6.95065e-21
-9.119e-06 -2.62368e-05 -1.97824e-20
4.58823e-06 3.14505e-05 6.4967e-21
-1.57745e-05 -2.85636e-05 -1.42561e-20
2.9431e-06 -1.63155e-05 -7.06473e-21
-2.4775e-05 1.82867e-05 1.39359e-20
-1.50522e-05 -1.21284e-05 -4.92239e-21
-2.73918e-05 -5.17986e-06 1.02299e-21
1.56905e-05 -9.19459e-06 2.74845e-21
-4.31299e-06 2.39867e-05 -1.6429e-20
1.22501e-05 -9.33771e-06 -9.31133e-21
-2.96288e-05 -1.31837e-05 -1.34214e-20
-8.84418e-06 -7.46885e-06 -8.39201e-21
9.09513e-06 7.55155e-06 4.66127e-21
2.14577e-05 2.87416e-05 -3.49727e-21
-1.75339e-05 -1.08248e-05 -1.13528e-20
-3.25535e-05 -7.52111e-07 1.07578e-20
-1.636e-05 -5.02342e-06 -8.06535e-21
-4.58451e-06 -1.66069e-05 -1.51014e-20
1.77099e-05 2.12694e-05 1.24411e-20
-1.09729e-05 5.88327e-06 2.07632e-20
6.37094e-07 -2.05847e-05 -8.07626e-21
-4.20009e-05 1.0867e-05 5.06474e-22
2.48962e-05 2.02751e-05 -4.73126e-21
3.80051e-06 3.28324e-05 -5.20579e-21
-2.43546e-06 3.80265e-06 -2.30485e-20
-9.06393e-06 2.51586e-07 -1.06887e-21
4.36143e-06 7.77113e-06 -4.85668e-22
-1.17105e-05 3.40627e-06 -1.2235e-20
-2.0762e-06 -3.79026e-06 -1.24063e-20
1.66229e-06 2.07896e-05 1.04368e-20
4.47887e-06 4.50296e-07 -1.88385e-21
-1.95664e-05 4.76361e-06 3.3187e-21
-1.73231e-05 1.93863e-05 1.20507e-20
-3.11187e-06 1.15948e-05 -2.96567e-20
-2.92591e-05 1.84214e-05 5.78025e-21
-9.35661e-06 8.99208e-06 2.63741e-21
1.7336e-05 -1.16303e-05 -6.95577e-21
3.66567e-05 -3.56972e-06 1.08765e-21
-2.11709e-05 1.13136e-05 -1.2409e-20
2.2362e-06 4.50465e-06 5.80008e-21
2.18065e-05 -4.35104e-06 -3.31884e-21
-1.73037e-05 1.03678e-05 -3.01567e-21
-9.88598e-06 5.54702e-06 -1.24215e-20
1.18484e-05 3.74811e-06 4.22479e-22
2.19114e-05 -1.34903e-05 1.08452e-20
-1.74049e-05 9.97053e-06 -3.18104e-21
-2.50733e-05 -5.31082e-06 7.93178e-22
-1.67857e-05 -4.36879e-06 -1.17517e-20
9.8904e-06 6.31055e-09 -9.19783e-21
1.01885e-05 1.9559e-07 5.45826e-21
4.39715e-06 8.32912e-06 1.17164e-20
4.83656e-06 -8.8104e-06 -7.71843e-21
-5.01753e-06 8.4319e-06 -2.04187e-20
-5.27422e-06 -8.66998e-06 -7.42396e-21
9.9252e-06 -7.41855e-06 2.58869e-22
-2.03565e-05 3.23952e-06 -1.02171e-20
-2.00885e-05 -3.2884e-06 -1.3487e-21
-1.2853e-05 1.58991e-05 1.70607e-20
-1.29329e-05 -1.59535e-05 -2.36814e-20
7.49692e-06 -1.9872e-05 -1.64108e-21
7.21626e-06 1.9792e-05 1.05407e-20
1.56038e-06 2.59222e-05 3.76e-22
1.12566e-05 -3.14127e-06 6.89463e-21
2.36339e-06 -3.87198e-06 -7.16603e-21
-2.14423e-05 1.42377e-06 7.08484e-22
7.6881e-06 -1.95408e-05 -2.53927e-21
7.28377e-06 1.96896e-05 1.83932e-20
4.7756e-06 -5.2782e-08 1.37199e-20
8.98142e-06 2.4438e-05 8.07683e-21
-2.24539e-06 -4.02214e-06 -3.66114e-21
2.32121e-06 -1.13331e-05 -1.58263e-20
-2.24628e-05 -1.21693e-05 -6.77013e-21
-2.13885e-05 -1.1511e-05 -2.89386e-21
-2.1924e-05 1.36484e-05 8.70787e-21
3.25585e-06 -1.2305e-05 5.39357e-21
-1.56744e-06 3.38685e-06 2.40156e-20
-5.87801e-07 -2.56056e-05 -2.82176e-21
-7.73088e-06 -2.44579e-05 -1.9073e-21
3.27504e-05 3.04051e-05 1.69434e-21
3.55033e-05 -1.81771e-06 -2.25345e-21
-1.27289e-05 -3.63725e-06 1.14534e-20
-2.29248e-05 -4.14457e-05 -2.48642e-21
8.31607e-06 1.37672e-05 6.10644e-22
-2.52718e-05 3.03774e-06 2.44641e-21
2.00934e-05 5.79452e-06 1.26309e-20
-4.53952e-06 -3.277e-08 -2.22112e-20
-4.67161e-06 -8.42447e-06 -1.1741e-20
-7.08274e-06 -3.9388e-05 -1.58124e-20
-9.72187e-06 -8.41067e-08 -1.42711e-21
-4.87447e-05 -1.81832e-06 3.42094e-21
1.73334e-05 -1.9132e-05 -5.07941e-21
2.43285e-06 4.00463e-06 8.8805e-21
-1.20616e-07 -1.75382e-05 -3.04554e-21
-9.83192e-06 2.41182e-05 1.37811e-21
-4.37805e-06 8.63941e-06 6.06587e-21
2.05851e-05 -1.3625e-05 7.1921e-21
-3.77116e-05 -1.35704e-05 9.35247e-21
-1.52871e-05 -2.03948e-05 -1.15893e-21
4.98399e-06 8.40071e-06 1.48007e-20
1.66543e-05 5.16772e-06 -2.42206e-21
-4.77042e-06 -7.34863e-06 -6.78786e-21
1.9824e-05 3.55219e-06 -1.65081e-20
1.82137e-05 -9.83931e-06 -4.50193e-21
-3.49194e-07 2.72103e-05 3.46018e-21
8.33201e-06 -1.36856e-05 -1.32604e-20
4.88711e-05 2.20367e-06 1.60745e-21
-4.24165e-05 1.14702e-05 4.75464e-21
2.28911e-05 1.15719e-05 1.82745e-20
-6.46162e-06 -1.72029e-05 -7.7971e-21
-1.53707e-05 -8.62998e-06 -1.36047e-20
2.88265e-05 -2.1081e-07 -1.0073e-21
-6.92769e-07 -2.42877e-05 -5.66424e-21
-1.26345e-05 -1.08888e-05 -1.2978e-20
1.02381e-05 -2.35313e-05 -6.48724e-21
-4.97104e-07 2.05831e-05 -2.19744e-21
7.9287e-06 2.6103e-05 -5.08892e-21
1.72912e-05 -9.89748e-06 -1.15396e-21
-1.89735e-05 1.9325e-05 1.09012e-20
1.65503e-05 2.00562e-05 1.10545e-21
-6.23142e-05 1.60435e-05 9.70961e-21
-1.01226e-05 2.6051e-05 -2.30143e-21
1.25359e-05 -1.52687e-05 -7.43698e-21
-7.03847e-06 -1.84225e-05 -1.04602e-20
-1.18694e-05 4.51184e-06 1.46123e-20
-2.59286e-05 -7.05541e-06 -9.39769e-21
-6.39459e-06 3.89099e-05 9.8922e-21
-1.26228e-05 1.19185e-05 -2.78608e-20
2.08045e-05 -4.48154e-06 2.31459e-20
-6.88148e-06 -2.58291e-05 4.71442e-21
-1.48887e-05 2.39235e-05 1.24265e-20
-2.18181e-05 1.25817e-05 -1.25624e-20
-2.05973e-05 -1.5076e-05 -8.77261e-21
1.80527e-05 -2.06826e-05 -1.84367e-21
-2.75682e-05 -1.45821e-06 5.73617e-21
1.23848e-05 -4.08649e-05 1.04035e-20
1.94124e-05 -1.89384e-05 6.20991e-21
2.47663e-05 4.31396e-05 -5.47133e-21
1.97391e-06 1.98931e-05 1.57837e-20
2.96544e-06 -2.54554e-05 -9.08082e-21
-4.16921e-05 4.70249e-05 2.71228e-21
-1.27191e-05 -2.44448e-05 -6.99163e-21
1.63888e-05 -6.42906e-06 -3.9459e-22
-2.41376e-06 2.58072e-05 -2.19006e-21
1.29002e-05 -1.18422e-05 4.87966e-21
1.38994e-05 2.43456e-05 3.34447e-21
1.7253e-05 -1.40234e-06 1.42188e-20
2.21511e-05 -6.33017e-05 8.30507e-21
-5.88387e-06 -1.28766e-05 -1.49151e-20
-2.32158e-05 1.0101e-05 -6.94994e-21
-2.00467e-05 1.87441e-05 -1.81214e-20
2.16415e-05 1.45871e-05 -3.46031e-22
1.86978e-05 -1.0771e-05 5.14111e-21
1.4972e-05 1.26102e-05 1.82672e-20
-5.43527e-06 4.5662e-08 3.60925e-20
1.54246e-05 -2.31182e-05 -3.2465e-22
-1.70131e-05 -2.04371e-05 -1.68022e-21
2.25922e-05 9.78674e-06 6.74856e-21
1.28238e-05 -1.20057e-05 -1.52064e-21
9.5671e-06 -2.48852e-05 -6.14168e-21
1.66815e-05 -6.94211e-06 9.99992e-21
-1.58268e-05 -7.55484e-06 -9.61506e-21
1.2987e-06 -2.63381e-05 -1.96717e-20
-2.61423e-05 4.47922e-06 -6.81079e-21
2.39393e-06 2.45759e-05 3.13798e-21
2.06126e-05 6.6363e-06 7.57476e-21
-2.17499e-05 -1.07164e-05 -4.81204e-22
-8.98905e-06 2.56448e-05 2.57539e-21
-1.49713e-06 -2.42206e-05 -2.53486e-21
1.94925e-05 1.18532e-05 5.27961e-21
-1.7712e-06 1.81091e-05 1.24922e-20
-2.0166e-05 1.37214e-05 6.48227e-21
2.35426e-05 1.14304e-05 7.4334e-21
-1.71383e-05 -9.9991e-06 -1.30814e-20
9.5366e-08 -1.98615e-05 -1.72822e-20
1.84073e-05 2.00111e-05 9.23439e-22
-2.21836e-05 -1.43229e-05 2.00316e-21
4.84171e-05 -3.4027e-05 5.11658e-21
1.79212e-05 -1.0837e-05 5.05869e-21
9.01485e-06 4.3146e-05 -7.66651e-21
1.70573e-05 -1.36971e-05 2.72708e-21
-1.98969e-05 8.71567e-05 -4.74725e-21
-1.97865e-05 -8.66709e-05 9.45804e-21
5.72653e-05 7.18127e-05 -4.55171e-21
5.70033e-05 -7.14854e-05 2.33414e-21
9.07701e-05 -9.43961e-11 1.29046e-20
-7.83074e-05 3.77012e-05 -2.90579e-21
-7.75617e-05 -3.73436e-05 4.23683e-21
1.22505e-05 1.18347e-05 1.55646e-20
2.9408e-05 2.19222e-05 1.76587e-20
1.14638e-05 3.33735e-06 1.51898e-20
1.88815e-05 9.76478e-06 6.62839e-21
4.99634e-06 2.01978e-05 -1.25862e-20
-1.88578e-05 -1.50013e-05 -6.58281e-21
1.70614e-05 -1.02281e-05 -1.74654e-21
1.98799e-05 1.45692e-05 6.198e-21
-3.17103e-06 2.43976e-05 7.88478e-21
2.9481e-05 -2.00202e-05 -1.42646e-20
3.79945e-06 -2.37726e-05 -4.61096e-21
2.19909e-05 5.23415e-06 -4.45751e-21
2.9937e-05 1.1041e-05 2.74845e-21
1.42283e-05 1.41632e-05 1.37954e-20
1.5905e-05 6.6027e-06 7.52433e-21
-1.85243e-05 1.09519e-05 1.10686e-20
-2.25945e-05 9.0493e-06 -2.77732e-21
2.2961e-05 -1.12789e-05 -6.70488e-21
-1.82931e-05 -1.00119e-05 -1.25915e-20
-1.85801e-05 -1.05973e-05 -5.14111e-21
-3.44135e-07 -2.07964e-05 -5.58128e-21
-8.6e-08 -2.11901e-05 -1.43284e-20
-2.01551e-05 -1.00686e-06 -2.02507e-21
2.67359e-05 -4.02463e-06 9.77532e-21
1.81371e-05 1.13577e-05 2.48849e-21
-1.78889e-05 1.09604e-05 4.20265e-21
-1.53826e-05 1.66466e-05 -1.22315e-20
1.60444e-05 -1.37721e-05 2.58994e-21
-1.10386e-05 1.74878e-05 2.1826e-20
-1.42445e-05 -1.49105e-05 -5.19821e-21
-1.15659e-06 2.12401e-05 8.5583e-21
-1.28927e-06 2.09973e-05 9.62218e-21
9.00431e-08 -1.98615e-05 -1.12373e-20
6.11956e-06 -1.97646e-05 -1.65057e-20
-1.71647e-05 -9.94936e-06 -1.2215e-20
1.56084e-05 -5.49782e-06 6.44172e-21
6.64326e-07 2.15076e-05 1.0266e-20
3.01439e-07 1.85332e-05 1.52764e-20
-2.34882e-06 1.68808e-05 5.48286e-21
2.19392e-05 -5.53501e-06 5.26939e-21
-1.65641e-05 5.38564e-06 1.39175e-20
4.16347e-06 2.15473e-05 -4.63698e-21
-3.26035e-05 1.29372e-05 -2.9122e-21
9.77793e-06 4.17894e-05 -1.2118e-20
-1.70771e-05 4.57456e-06 5.93832e-21
1.97118e-05 -1.16462e-05 -8.07011e-21
9.47316e-07 2.10488e-05 -4.98174e-22
-2.051e-05 6.70887e-06 -1.84275e-21
2.44763e-06 -1.62851e-05 -1.10695e-20
1.82398e-06 -5.8094e-05 5.48571e-21
2.00946e-06 1.75106e-05 -9.43441e-21
-1.69857e-05 1.40425e-05 4.39017e-21
1.78801e-05 6.40612e-05 -9.73465e-21
4.5833e-05 3.77592e-05 6.58502e-21
5.21375e-05 -3.53047e-05 -1.12255e-20
1.48362e-05 -1.01812e-05 -8.27376e-22
-1.58075e-05 1.40575e-05 1.04073e-20
-2.02454e-05 -7.93187e-06 -1.62021e-20
-1.96734e-05 -6.8321e-06 -8.17666e-21
5.93498e-05 -2.46463e-05 -2.24276e-20
5.75139e-05 2.39041e-05 7.84825e-21
1.09097e-05 3.8228e-06 1.09233e-20
7.67899e-07 1.96067e-05 5.45956e-22
7.86496e-08 1.9588e-05 7.71793e-21
-4.84508e-05 -3.6974e-05 -3.67831e-21
1.14414e-05 -1.71959e-05 -7.22817e-21
1.17497e-05 1.2482e-05 1.63341e-20
-2.14485e-05 -3.40053e-06 -4.87467e-21
-1.40647e-05 1.72266e-05 1.96575e-20
-1.89152e-05 9.18085e-06 -5.43715e-21
4.77108e-05 3.37406e-05 -2.94847e-21
1.58286e-05 7.07148e-06 3.71062e-21
-5.57434e-06 2.00588e-05 4.97361e-21
-1.70019e-05 -1.17659e-05 -1.45023e-21
1.8591e-06 -2.05718e-05 -6.80121e-21
-8.96219e-06 -1.92946e-05 -1.4088e-20
-1.72735e-05 -1.17903e-05 3.33806e-21
1.05947e-05 -1.89624e-05 1.01134e-22
1.41425e-05 -1.70131e-05 -1.95621e-21
-2.44263e-06 -6.15253e-05 3.32919e-21
2.62177e-05 -4.11835e-05 2.92534e-21
1.7502e-06 -2.08149e-05 -1.3207e-20
1.7984e-05 1.13713e-05 4.6959e-21
-1.44967e-05 -1.49266e-05 -4.1465e-21
-9.85482e-06 1.97382e-05 1.08051e-20
-5.04635e-06 2.10365e-05 1.10083e-20
1.66507e-05 1.42637e-05 3.06132e-21
6.0678e-06 -1.98894e-05 3.16297e-21
-1.34244e-05 -4.04161e-05 -1.11973e-20
-1.99105e-06 2.50757e-05 8.82468e-21
1.48129e-05 1.44754e-05 -4.34209e-22
-1.29766e-05 -1.02312e-05 -1.42384e-20
-1.35341e-05 1.06232e-05 -9.99585e-21
4.44055e-05 -1.89395e-05 -8.13724e-21
7.57391e-06 -1.3419e-05 -8.92738e-21
-8.32881e-06 -1.2645e-05 -1.05951e-20
2.13605e-05 6.37253e-06 -3.92923e-21
1.10099e-05 -5.07335e-05 -7.5744e-21
-3.85058e-05 -3.49523e-05 -1.651e-21
2.33396e-05 6.21607e-06 -9.99084e-22
-9.34127e-06 -1.83073e-05 -7.80332e-21
1.87321e-05 9.4961e-06 -3.22358e-21
-2.86047e-05 -3.25989e-05 -4.81381e-21
9.70197e-06 5.01175e-05 2.41454e-20
3.43826e-05 -5.99442e-05 -3.63386e-21
-3.47862e-05 -5.98609e-05 1.00058e-20
2.78496e-05 -5.2095e-05 1.35431e-20
-1.27159e-05 4.36949e-05 -1.68386e-20
-6.28484e-06 3.90324e-05 5.77268e-21
-1.87573e-05 8.95867e-06 -2.41714e-21
5.98577e-06 2.42764e-05 7.79032e-21
-2.39482e-06 1.26721e-05 1.84598e-20
1.01345e-05 3.23768e-06 1.64664e-20
-3.19283e-06 1.62283e-05 1.00549e-20
-2.47663e-07 2.10213e-05 5.56004e-21
1.66841e-05 9.76428e-06 1.2459e-21
1.71479e-06 5.78065e-05 -7.46683e-21
-1.4738e-05 1.0748e-05 -2.60068e-21
1.5972e-05 -6.25536e-06 -2.25075e-21
1.68957e-05 -4.51526e-06 -7.97078e-21
-6.07513e-05 -8.7819e-06 6.23873e-21
-3.46545e-05 1.67651e-05 -1.24646e-21
-4.35766e-05 -5.2623e-05 -2.75654e-21
8.66884e-06 8.35749e-06 1.48264e-20
1.42299e-05 7.30279e-06 1.55441e-20
2.68426e-05 -4.20171e-06 6.70953e-21
-8.11575e-06 -1.32617e-05 -1.19639e-20
1.72409e-05 8.44044e-06 6.84952e-21
7.3458e-06 -3.00769e-05 -3.31016e-21
-1.3733e-05 1.02196e-05 8.56562e-21
-2.24059e-05 -2.14526e-05 -2.07142e-21
-5.84409e-06 1.63209e-05 6.54481e-21
-3.27546e-06 2.07077e-05 4.64657e-21
3.38975e-05 2.13264e-05 9.03531e-21
3.61641e-05 -1.931e-05 -1.61838e-20
-4.21313e-05 -1.16403e-05 1.13045e-21
7.64493e-06 7.69652e-06 2.29437e-20
-4.06209e-06 0.000101504 -9.59603e-21
8.65256e-07 -0.000104616 -2.12e-21
5.25305e-05 8.77687e-05 -8.4661e-21
-1.91298e-05 8.46995e-06 7.08067e-21
-2.64121e-05 5.66319e-05 -8.28363e-21
5.31102e-05 -8.47594e-05 8.67634e-21
-1.1737e-05 -1.83085e-05 4.1945e-21
7.81097e-05 6.75909e-05 5.35297e-21
2.40274e-05 -1.8002e-05 -5.20315e-21
-3.61241e-06 -2.98641e-05 -6.8585e-21
8.18936e-05 -6.59409e-05 9.61713e-21
-6.75398e-06 1.4539e-05 1.9585e-20
-5.39103e-05 -3.48756e-05 -1.68814e-20
-4.30733e-05 -9.32657e-05 -1.08033e-21
-2.41457e-05 -5.78871e-05 -5.16889e-21
-4.40358e-05 9.42733e-05 -3.39666e-21
-1.01065e-05 6.41754e-05 -3.21153e-21
1.56549e-05 3.71604e-05 1.40212e-20
-2.79944e-05 3.7295e-05 -8.04704e-21
-2.53071e-05 -5.52638e-05 -8.11159e-21
0.000100506 1.73409e-05 2.96555e-21
-1.69513e-05 1.07824e-05 1.79951e-21
-5.92053e-06 1.63559e-05 1.28046e-20
-5.08313e-05 3.7696e-05 1.4319e-20
-1.73006e-05 9.95826e-06 -3.85705e-22
9.93414e-05 -1.52843e-05 1.35924e-20
-1.53818e-05 7.80981e-06 3.10069e-21
7.20293e-06 -1.45152e-05 -3.08471e-21
-7.80796e-05 -6.10378e-05 -5.33491e-21
-2.59143e-05 5.77997e-05 -2.33626e-21
-7.9233e-05 6.04641e-05 4.16218e-21
2.45764e-05 5.20229e-05 -5.94874e-21
-1.47883e-05 1.05975e-05 -2.93511e-21
-2.05587e-05 2.4511e-05 1.11283e-21
-2.85727e-05 4.98879e-05 2.16197e-22
-5.68558e-05 2.08355e-07 -8.68105e-21
-9.45268e-07 1.63189e-05 -2.57803e-21
-2.88899e-05 -5.04773e-05 1.9076e-21
-5.82801e-05 -2.20286e-07 6.96641e-21
-2.83894e-05 4.87647e-05 1.9768e-21
-1.52116e-05 6.63592e-05 1.68384e-20
-1.78888e-05 4.13198e-05 -6.42625e-21
-3.39479e-05 2.71756e-05 -1.03993e-21
2.44171e-05 -6.06536e-06 -8.79051e-21
3.80561e-05 -2.19828e-06 -1.68555e-20
1.35013e-05 8.21177e-06 1.87581e-20
-1.04838e-05 -7.40915e-05 -1.09764e-20
-6.95465e-05 -2.80135e-05 -4.88384e-21
3.71843e-05 7.33667e-07 2.96976e-21
5.84482e-05 -1.09071e-05 3.7204e-21
-1.05985e-05 -1.35163e-05 -8.92987e-21
-5.08998e-05 3.76822e-05 5.41099e-21
-4.61985e-05 5.40783e-05 -2.68915e-21
6.24503e-05 -2.22632e-05 -2.30848e-21
-2.8217e-05 -5.0568e-05 -1.76603e-20
-2.88176e-05 4.98495e-05 1.93768e-21
-5.73349e-05 -1.17288e-06 -1.09555e-20
-2.66106e-05 5.06691e-05 -1.40205e-21
-5.80347e-05 -8.18103e-07 6.89731e-21
6.61689e-05 1.74169e-05 -3.77526e-21
5.64594e-05 1.29448e-06 -2.39131e-21
5.09716e-05 -2.9315e-05 -1.76328e-20
2.49453e-05 -5.95104e-05 -1.55893e-20
2.99605e-05 -4.89255e-05 -4.31359e-21
2.92084e-05 4.87492e-05 6.61655e-21
2.43793e-05 5.81708e-05 1.15889e-20
7.59089e-05 -2.0066e-05 2.40238e-21
4.63313e-05 2.9104e-05 3.49921e-21
4.66897e-05 1.37647e-05 6.19658e-21
TENSORS solid_stress_TPM float
375.128 -24.9242 -2.20268e-12
-24.9242 238.628 -2.71427e-12
-2.20268e-12 -2.71427e-12 197.874

457.145 -21.3224 1.08802e-13
-21.3224 490.133 -1.13983e-13
1.08802e-13 -1.13983e-13 487.247

455.016 28.0526 3.51837e-12
28.0526 463.85 2.21897e-12
3.51837e-12 2.21897e-12 458.593

455.173 -29.8419 5.34091e-13
-29.8419 482.757 -2.99227e-12
5.34091e-13 -2.99227e-12 484.995

527.795 19.9305 -1.22213e-12
19.9305 548.545 -5.81683e-12
-1.22213e-12 -5.81683e-12 527.466

437.443 -18.081 1.38186e-12
-18.081 480.484 -5.29414e-12
1.38186e-12 -5.29414e-12 458.174

372.422 26.4889 -2.45848e-12
26.4889 239.148 7.98532e-12
-2.45848e-12 7.98532e-12 197.858

473.789 29.9637 -2.39334e-12
29.9637 469.64 1.65379e-12
-2.39334e-12 1.65379e-12 472.471

471.697 5.48484 -2.07715e-12
5.48484 417.95 2.20327e-12
-2.07715e-12 2.20327e-12 432.926

504.404 -7.47785 1.90751e-12
-7.47785 444.252 -2.02386e-12
1.90751e-12 -2.02386e-12 483.587

360.398 16.3156 -5.35749e-12
16.3156 247.721 -3.09264e-12
-5.35749e-12 -3.09264e-12 233.714

444.915 -13.4569 1.57889e-12
-13.4569 498.528 -1.76688e-12
1.57889e-12 -1.76688e-12 472.372

467.005 27.8402 1.76748e-12
27.8402 468.443 4.51195e-13
1.76748e-12 4.51195e-13 466.868

457.168 -14.3437 -2.65135e-12
-14.3437 500.575 -4.20108e-12
-2.65135e-12 -4.20108e-12 483.59

513.052 33.3031 -1.64224e-12
33.3031 511.718 -3.33003e-12
-1.64224e-12 -3.33003e-12 515.344

489.322 0.561386 3.26494e-12
0.561386 435.658 -2.31102e-13
3.26494e-12 -2.31102e-13 462.408

457.717 -17.9679 -4.68866e-13
-17.9679 513.02 3.00589e-12
-4.68866e-13 3.00589e-12 493.727

494.105 -2.66519 3.8014e-13
-2.66519 439.182 -7.35856e-13
3.8014e-13 -7.35856e-13 474.399

418.921 26.6849 -8.44362e-13
26.6849 449.8 -1.48385e-12
-8.44362e-13 -1.48385e-12 424.182

482.129 -4.19737 2.57986e-12
-4.19737 425.05 -2.8324e-12
2.57986e-12 -2.8324e-12 453.608

425.424 8.67273 9.28887e-13
8.67273 482.049 7.40149e-13
9.28887e-13 7.40149e-13 444.972

634.147 6.28167 1.81515e-12
6.28167 633.995 1.49421e-12
1.81515e-12 1.49421e-12 570.392

479.3 1.87647 -2.36255e-13
1.87647 423.067 3.40987e-12
-2.36255e-13 3.40987e-12 449.865

447.297 -27.7249 1.44773e-13
-27.7249 461.29 -3.68831e-12
1.44773e-13 -3.68831e-12 453.081

481.196 6.85149 1.18424e-13
6.85149 425.569 4.39367e-12
1.18424e-13 4.39367e-12 453.072

449.892 19.1163 -1.8047e-12
19.1163 490.461 -8.21565e-13
-1.8047e-12 -8.21565e-13 478.34

377.765 4.18324 -6.20304e-12
4.18324 291.733 2.81523e-12
-6.20304e-12 2.81523e-12 259.08

462.82 30.7545 6.19356e-13
30.7545 460.848 4.76922e-12
6.19356e-13 4.76922e-12 460.676

385.059 37.0911 1.75741e-12
37.0911 383.638 -3.04823e-12
1.75741e-12 -3.04823e-12 348.527

587.004 10.3239 1.10341e-12
10.3239 563.532 -5.20502e-12
1.10341e-12 -5.20502e-12 546.967

491.834 14.2188 -4.6428e-12
14.2188 442.63 -2.81138e-12
-4.6428e-12 -2.81138e-12 465.99

352.959 -17.7885 -1.11585e-12
-17.7885 416.856 1.96583e-12
-1.11585e-12 1.96583e-12 348.698

331.111 -42.1171 -1.59872e-12
-42.1171 335.967 -8.05282e-13
-1.59872e-12 -8.05282e-13 253.558

531.494 5.982 -6.76265e-13
5.982 586.963 -3.07399e-12
-6.76265e-13 -3.07399e-12 538.68

554.103 -4.83343 2.48246e-12
-4.83343 582.147 -1.61323e-12
2.48246e-12 -1.61323e-12 542.61

578.059 21.026 -7.41629e-13
21.026 540.033 -1.10386e-12
-7.41629e-13 -1.10386e-12 538.449

556.262 5.06033 -2.32392e-12
5.06033 600.733 -3.3505e-12
-2.32392e-12 -3.3505e-12 548.062

573.85 -9.17322 6.44373e-12
-9.17322 555.851 -1.07217e-12
6.44373e-12 -1.07217e-12 540.737

467.264 -28.0056 -2.92566e-12
-28.0056 466.632 -2.56565e-12
-2.92566e-12 -2.56565e-12 465.24

330.495 41.5362 8.62125e-13
41.5362 338.066 3.8772e-12
8.62125e-13 3.8772e-12 253.917

414.656 -17.9571 -3.31468e-12
-17.9571 354.591 1.09483e-12
-3.31468e-12 1.09483e-12 346.427

559.381 -3.69991 -1.10919e-12
-3.69991 599.982 -1.11629e-12
-1.10919e-12 -1.11629e-12 548.476

586.48 19.5449 5.09652e-12
19.5449 572.52 -4.49122e-13
5.09652e-12 -4.49122e-13 548.265

491.04 -12.2747 2.4194e-12
-12.2747 442.985 1.16943e-12
2.4194e-12 1.16943e-12 466.662

341.807 -43.3172 -8.50283e-13
-43.3172 345.437 -4.32839e-12
-8.50283e-13 -4.32839e-12 289.063

417.684 -18.0713 -2.73559e-13
-18.0713 357.21 9.01205e-13
-2.73559e-13 9.01205e-13 351.603

413.13 17.0926 1.96361e-12
17.0926 464.919 -2.73204e-12
1.96361e-12 -2.73204e-12 428.848

429.753 19.3469 -1.40421e-12
19.3469 466.649 -5.92119e-14
-1.40421e-12 -5.92119e-14 437.203

486.915 -16.3056 -1.57208e-12
-16.3056 432.995 6.74275e-13
-1.57208e-12 6.74275e-13 458.801

355.679 -34.2007 -5.31131e-13
-34.2007 389.515 6.32383e-13
-5.31131e-13 6.32383e-13 332.664

410.373 19.1903 3.67943e-12
19.1903 350.797 6.29541e-12
3.67943e-12 6.29541e-12 339.574

425.326 -25.2994 -2.8623e-12
-25.2994 383.928 1.04805e-12
-2.8623e-12 1.04805e-12 373.184

520.011 19.4791 -6.75164e-13
19.4791 547.628 6.87746e-13
-6.75164e-13 6.87746e-13 525.833

416.535 29.6625 1.87346e-12
29.6625 393.999 -1.52648e-12
1.87346e-12 -1.52648e-12 374.049

522.278 -21.8125 -1.58777e-12
-21.8125 541.485 7.06666e-13
-1.58777e-12 7.06666e-13 524.481

364.171 -42.7282 6.27883e-12
-42.7282 343.375 -1.78583e-12
6.27883e-12 -1.78583e-12 289.781

553.525 5.45222 3.94351e-13
5.45222 583.939 -1.21148e-12
3.94351e-13 -1.21148e-12 542.984

373.82 -5.33241 -3.28685e-12
-5.33241 436.794 4.06194e-13
-3.28685e-12 4.06194e-13 373.933

580.882 10.3858 1.78524e-13
10.3858 556.25 1.66714e-12
1.78524e-13 1.66714e-12 542.74

435.18 21.4203 -1.49954e-12
21.4203 473.898 2.26485e-12
-1.49954e-12 2.26485e-12 454.798

513.698 5.75695 -3.69956e-12
5.75695 452.934 -4.8835e-13
-3.69956e-12 -4.8835e-13 494.988

522.58 11.4592 -1.29067e-12
11.4592 487.977 4.08473e-12
-1.29067e-12 4.08473e-12 507.196

383.809 31.8301 -4.40063e-12
31.8301 315.275 1.92439e-12
-4.40063e-12 1.92439e-12 269.946

482.203 -6.03858 -7.95689e-12
-6.03858 528.302 -6.4541e-14
-7.95689e-12 -6.4541e-14 504.218

487.213 9.52262 2.2989e-13
9.52262 523.811 2.31548e-12
2.2989e-13 2.31548e-12 507.614

456.577 -2.8834 2.55514e-12
-2.8834 520.283 -2.18137e-12
2.55514e-12 -2.18137e-12 487.928

464.58 23.3997 3.7977e-13
23.3997 503.6 -1.9007e-12
3.7977e-13 -1.9007e-12 495.565

496.885 8.46598 7.49623e-13
8.46598 444.525 -3.69645e-12
7.49623e-13 -3.69645e-12 477.826

445.637 -28.2491 3.73035e-12
-28.2491 459.663 -4.44326e-12
3.73035e-12 -4.44326e-12 451.295

501.82 -1.71226 2.30971e-12
-1.71226 445.051 -1.25418e-12
2.30971e-12 -1.25418e-12 489.198

519.624 -19.2551 1.18261e-12
-19.2551 546.922 1.76955e-12
1.18261e-12 1.76955e-12 525.567

523.406 21.3077 8.21861e-13
21.3077 543.008 -1.30168e-12
8.21861e-13 -1.30168e-12 525.369

353.51 -16.591 9.56272e-13
-16.591 415.863 2.34005e-12
9.56272e-13 2.34005e-12 346.216

506.143 -27.9398 4.9063e-12
-27.9398 485.424 -4.78935e-12
4.9063e-12 -4.78935e-12 493.999

449.853 -25.142 2.39068e-12
-25.142 471.36 -5.42973e-12
2.39068e-12 -5.42973e-12 458.707

357.97 -31.7224 -5.24617e-12
-31.7224 285.751 1.12088e-12
-5.24617e-12 1.12088e-12 249.93

498.601 3.22425 1.86036e-12
3.22425 541.518 -7.04029e-13
1.86036e-12 -7.04029e-13 513.753

501.849 28.9484 3.93937e-12
28.9484 474.673 1.77103e-12
3.93937e-12 1.77103e-12 487.779

448.572 19.6672 -1.56823e-12
19.6672 492.245 -2.82796e-12
-1.56823e-12 -2.82796e-12 477.771

440.329 8.003 -1.71241e-12
8.003 373.144 4.06075e-12
-1.71241e-12 4.06075e-12 383.049

386.566 -33.9498 3.80022e-12
-33.9498 360.309 -6.3937e-12
3.80022e-12 -6.3937e-12 319.53

537.804 -10.5853 1.79086e-12
-10.5853 556.235 3.20632e-12
1.79086e-12 3.20632e-12 531.351

482.784 23.9021 -2.33088e-12
23.9021 504.68 -2.50233e-12
-2.33088e-12 -2.50233e-12 502.164

385.487 -32.3978 -7.03437e-13
-32.3978 345.405 -2.62427e-12
-7.03437e-13 -2.62427e-12 317.176

422.328 10.7958 5.68553e-12
10.7958 363.955 9.52719e-13
5.68553e-12 9.52719e-13 350.358

307.735 -21.2148 4.305e-12
-21.2148 388.558 7.34938e-12
4.305e-12 7.34938e-12 288.2

434.567 14.429 1.40658e-12
14.429 488.807 4.76241e-12
1.40658e-12 4.76241e-12 461.011

509.844 23.1496 1.31332e-12
23.1496 475.291 -1.93238e-12
1.31332e-12 -1.93238e-12 490.067

338.336 42.2163 -4.92051e-12
42.2163 349.671 -1.58925e-12
-4.92051e-12 -1.58925e-12 289.036

634.238 16.5008 1.86881e-11
16.5008 603.109 -1.29942e-11
1.86881e-11 -1.29942e-11 565.399

372.997 -4.11033 -6.40969e-13
-4.11033 436.953 3.99562e-12
-6.40969e-13 3.99562e-12 373.539

637.142 -16.6264 -1.73904e-11
-16.6264 599.581 9.23409e-13
-1.73904e-11 9.23409e-13 564.907

534.042 -27.3342 -1.42049e-12
-27.3342 507.348 2.58593e-12
-1.42049e-12 2.58593e-12 515.826

505.422 27.4274 -2.24413e-13
27.4274 466.454 5.60441e-12
-2.24413e-13 5.60441e-12 485.194

427.058 -24.421 8.91731e-13
-24.421 386.353 9.59233e-13
8.91731e-13 9.59233e-13 376.092

359.04 31.3374 5.35098e-12
31.3374 396.125 1.53359e-12
5.35098e-12 1.53359e-12 339.303

339.921 -10.7095 -3.33067e-12
-10.7095 408.516 -1.60583e-12
-3.33067e-12 -1.60583e-12 319.201

453.243 21.9731 -4.05143e-12
21.9731 494.819 -1.60908e-12
-4.05143e-12 -1.60908e-12 483.301

533.226 16.798 -6.18468e-13
16.798 506.303 -2.86201e-12
-6.18468e-13 -2.86201e-12 513.466

443.584 15.1594 -2.82115e-12
15.1594 488.582 2.78355e-12
-2.82115e-12 2.78355e-12 464.413

451.621 15.96 -3.45442e-12
15.96 400.655 -8.12683e-14
-3.45442e-12 -8.12683e-14 403.868

374.599 -21.4821 -7.90479e-13
-21.4821 419.998 1.68399e-12
-7.90479e-13 1.68399e-12 357.306

389.84 -29.4032 5.20591e-12
-29.4032 342.467 3.55271e-12
5.20591e-12 3.55271e-12 314.485

455.105 -24.5776 -3.5203e-12
-24.5776 480.206 1.43293e-12
-3.5203e-12 1.43293e-12 478.504

466.56 27.4569 1.01015e-12
27.4569 478.876 -1.93889e-12
1.01015e-12 -1.93889e-12 479.939

452.357 23.19 -4.42165e-13
23.19 492.701 -1.4948e-12
-4.42165e-13 -1.4948e-12 482.177

466.416 13.1677 1.89259e-12
13.1677 529.895 1.46372e-12
1.89259e-12 1.46372e-12 501.503

491.007 9.37399 -8.42585e-13
9.37399 438.018 4.68677e-12
-8.42585e-13 4.68677e-12 462.187

327.804 -4.6668 4.37339e-12
-4.6668 403.505 2.53901e-12
4.37339e-12 2.53901e-12 314.507

462.721 -36.8278 2.30926e-14
-36.8278 487.829 1.55772e-12
2.30926e-14 1.55772e-12 492.88

445.982 27.4744 9.80549e-13
27.4744 463.408 -1.49806e-13
9.80549e-13 -1.49806e-13 455.145

305.755 2.17084 5.48028e-12
2.17084 393.481 -3.67114e-12
5.48028e-12 -3.67114e-12 297.345

386.113 34.625 1.03029e-12
34.625 332.543 4.09924e-12
1.03029e-12 4.09924e-12 306.337

453.486 -22.9792 -1.90337e-12
-22.9792 480.211 1.63188e-12
-1.90337e-12 1.63188e-12 476.306

501.539 5.73288 1.83735e-12
5.73288 441.454 -2.73781e-13
1.83735e-12 -2.73781e-13 481.144

422.512 27.2158 -1.7432e-12
27.2158 389.884 4.26266e-12
-1.7432e-12 4.26266e-12 374.349

570.625 12.7427 -4.01679e-12
12.7427 565.988 8.35776e-13
-4.01679e-12 8.35776e-13 543.012

396.299 24.341 1.57977e-12
24.341 349.75 -4.49951e-12
1.57977e-12 -4.49951e-12 319.141

569.248 -13.0521 1.67555e-12
-13.0521 565.899 8.43769e-14
1.67555e-12 8.43769e-14 542.468

375.202 0.779033 -7.35264e-13
0.779033 439.008 -7.93439e-13
-7.35264e-13 -7.93439e-13 374.755

461.615 -2.23627 -4.59011e-12
-2.23627 399.421 -1.69957e-12
-4.59011e-12 -1.69957e-12 417.407

538.309 -15.7626 9.47094e-13
-15.7626 480.755 -2.05761e-12
9.47094e-13 -2.05761e-12 513.596

457.383 24.3888 -2.48755e-13
24.3888 487.927 4.77189e-12
-2.48755e-13 4.77189e-12 488.488

461.386 -13.5363 4.33894e-12
-13.5363 519.265 2.5094e-12
4.33894e-12 2.5094e-12 495.841

515.104 -7.99803 6.1684e-13
-7.99803 438.337 -7.1676e-13
6.1684e-13 -7.1676e-13 494.408

488.429 -22.2771 -8.11499e-13
-22.2771 541.709 2.01913e-13
-8.11499e-13 2.01913e-13 515.864

556.135 -6.60311 -2.58756e-13
-6.60311 560.477 2.52746e-12
-2.58756e-13 2.52746e-12 538.828

464.006 -29.9095 -2.02031e-12
-29.9095 483.338 1.31835e-12
-2.02031e-12 1.31835e-12 483.734

341.805 11.4584 -4.28813e-12
11.4584 406.319 -4.90274e-12
-4.28813e-12 -4.90274e-12 319.58

422.612 -28.1589 -2.25479e-12
-28.1589 391.36 -5.32611e-12
-2.25479e-12 -5.32611e-12 375.262

507.479 -13.7666 1.19749e-12
-13.7666 558.845 2.17041e-12
1.19749e-12 2.17041e-12 525.358

501.199 0.506325 -3.08864e-12
0.506325 441.419 6.14471e-13
-3.08864e-12 6.14471e-13 487.221

477.068 -21.5227 3.44746e-12
-21.5227 507.553 2.75543e-12
3.44746e-12 2.75543e-12 501.63

459.239 25.6997 -4.18184e-13
25.6997 484.742 -3.80695e-13
-4.18184e-13 -3.80695e-13 488.116

394.55 -31.4782 8.88178e-13
-31.4782 400.722 6.21725e-13
8.88178e-13 6.21725e-13 357.631

552.2 -7.07718 6.11962e-12
-7.07718 585.372 1.15226e-12
6.11962e-12 1.15226e-12 542.698

347.31 -33.0901 -9.26074e-13
-33.0901 382.722 -9.00021e-14
-9.26074e-13 -9.00021e-14 303.527

491.011 -19.1851 -2.28499e-12
-19.1851 448.514 7.84854e-13
-2.28499e-12 7.84854e-13 467.254

519.836 1.97406 -1.89115e-12
1.97406 466.942 3.03787e-12
-1.89115e-12 3.03787e-12 502.956

570.642 17.8722 -6.46624e-12
17.8722 566.548 7.32244e-12
-6.46624e-12 7.32244e-12 542.471

375.402 20.1919 2.28795e-12
20.1919 424.165 -2.64796e-12
2.28795e-12 -2.64796e-12 360.331

489.213 27.2175 -2.0132e-14
27.2175 468.671 1.69168e-12
-2.0132e-14 1.69168e-12 476.766

454.518 -24.5204 6.33212e-12
-24.5204 415.465 1.84623e-12
6.33212e-12 1.84623e-12 418.727

454.848 -17.8414 1.35251e-12
-17.8414 495.046 9.59233e-13
1.35251e-12 9.59233e-13 482.772

379.312 35.0826 2.1186e-12
35.0826 366.139 -1.91491e-12
2.1186e-12 -1.91491e-12 317.145

449.289 -21.8326 2.42961e-12
-21.8326 491.846 6.32975e-13
2.42961e-12 6.32975e-13 479.906

485.622 30.8561 2.94934e-12
30.8561 465.259 -2.11031e-12
2.94934e-12 -2.11031e-12 473.571

480.461 -25.2502 -2.64559e-12
-25.2502 442.493 1.65793e-14
-2.64559e-12 1.65793e-14 455.57

448.353 -25.1339 3.78216e-12
-25.1339 469.909 3.12757e-12
3.78216e-12 3.12757e-12 458.228

445.483 -18.696 1.87939e-12
-18.696 393.577 -3.49409e-12
1.87939e-12 -3.49409e-12 397.377

470.794 -18.8566 -1.6982e-12
-18.8566 422.976 -1.5925e-12
-1.6982e-12 -1.5925e-12 437.658

459.139 -25.3391 5.22693e-13
-25.3391 485.568 -8.28004e-13
5.22693e-13 -8.28004e-13 488.958

386.658 35.9852 1.7278e-12
35.9852 382.102 -5.13012e-12
1.7278e-12 -5.13012e-12 348.221

444.627 15.382 2.61865e-12
15.382 491.674 2.64736e-12
2.61865e-12 2.64736e-12 467.27

469.53 26.4279 -3.21106e-12
26.4279 480.091 -8.09427e-13
-3.21106e-12 -8.09427e-13 482.676

456.279 25.4737 -1.20514e-12
25.4737 486.788 -1.76955e-12
-1.20514e-12 -1.76955e-12 487.379

457.935 11.6255 5.29031e-12
11.6255 507.075 -8.65974e-12
5.29031e-12 -8.65974e-12 486.142

432.086 -8.23048 1.82846e-12
-8.23048 370.863 -3.45324e-12
1.82846e-12 -3.45324e-12 363.417

376.89 18.6148 2.39927e-12
18.6148 427.398 2.77585e-12
2.39927e-12 2.77585e-12 363.993

452.445 -24.386 1.08683e-12
-24.386 478.527 -1.92498e-12
1.08683e-12 -1.92498e-12 470.843

440.877 25.6756 4.59484e-13
25.6756 455.778 -1.18069e-12
4.59484e-13 -1.18069e-12 437.933

391.072 -35.645 2.85046e-12
-35.645 380.389 -7.78636e-13
2.85046e-12 -7.78636e-13 350.195

369.049 38.3329 2.76046e-12
38.3329 327.344 -1.55135e-13
2.76046e-12 -1.55135e-13 295.769

363.752 -33.3259 3.60364e-12
-33.3259 394.554 5.49131e-12
3.60364e-12 5.49131e-12 342.081

398.049 -31.1733 1.07529e-12
-31.1733 404.314 3.45797e-12
1.07529e-12 3.45797e-12 363.082

502.998 -6.83851 2.09018e-13
-6.83851 442.387 2.27862e-12
2.09018e-13 2.27862e-12 482.449

393.28 30.3551 2.73559e-12
30.3551 409.102 4.25378e-12
2.73559e-12 4.25378e-12 363.542

429.834 13.3002 -5.8525e-12
13.3002 372.354 -8.47026e-13
-5.8525e-12 -8.47026e-13 362.822

350.242 13.3848 1.91462e-12
13.3848 418.642 3.54798e-12
1.91462e-12 3.54798e-12 348.578

379.589 -22.3503 1.04923e-12
-22.3503 423.642 -1.56438e-12
1.04923e-12 -1.56438e-12 363.556

491.314 -1.0944 1.91328e-13
-1.0944 550.981 4.42905e-13
1.91328e-13 4.42905e-13 516.416

372.97 2.24777 -3.29351e-12
2.24777 437.922 3.53613e-12
-3.29351e-12 3.53613e-12 373.631

357.992 31.103 1.93386e-12
31.103 399.607 2.69651e-12
1.93386e-12 2.69651e-12 342.062

458.12 12.111 1.7285e-12
12.111 510.693 -9.60417e-13
1.7285e-12 -9.60417e-13 488.529

421.58 -27.6596 2.56506e-12
-27.6596 389.186 -1.06522e-12
2.56506e-12 -1.06522e-12 375.184

524.872 20.5574 -8.07058e-13
20.5574 469.868 -6.386e-13
-8.07058e-13 -6.386e-13 500.852

535.027 26.2703 1.95636e-12
26.2703 506.968 -3.28981e-12
1.95636e-12 -3.28981e-12 516.204

494.95 -18.5734 1.89656e-12
-18.5734 449.148 5.58664e-13
1.89656e-12 5.58664e-13 470.981

554.679 -1.80803 -2.51991e-12
-1.80803 516.121 -4.27569e-12
-2.51991e-12 -4.27569e-12 525.822

473.417 -31.8165 -4.45866e-13
-31.8165 475.826 1.52352e-12
-4.45866e-13 1.52352e-12 478.704

412.723 23.3379 -1.94215e-12
23.3379 357.297 -3.18856e-12
-1.94215e-12 -3.18856e-12 348.195

464.314 30.1637 9.34364e-13
30.1637 482.908 -4.75087e-12
9.34364e-13 -4.75087e-12 483.335

464.576 29.2078 4.71919e-12
29.2078 482.381 -3.05237e-12
4.71919e-12 -3.05237e-12 482.896

394.062 30.6744 -1.30503e-12
30.6744 405.845 2.70717e-12
-1.30503e-12 2.70717e-12 360.976

502.98 27.0893 3.39047e-12
27.0893 482.781 3.32445e-12
3.39047e-12 3.32445e-12 490.854

415.479 3.52667 -4.38879e-12
3.52667 339.111 7.88591e-13
-4.38879e-12 7.88591e-13 340.926

493.248 31.8174 3.41357e-13
31.8174 487.352 -6.05146e-13
3.41357e-13 -6.05146e-13 495.698

476.439 -12.5985 -1.16263e-12
-12.5985 522.574 1.33345e-12
-1.16263e-12 1.33345e-12 500.366

537.034 24.2758 1.69257e-12
24.2758 507.505 2.49815e-12
1.69257e-12 2.49815e-12 516.74

468.314 -29.5808 3.74811e-12
-29.5808 480.109 2.44279e-12
3.74811e-12 2.44279e-12 483.193

464.675 -4.89604 1.02002e-12
-4.89604 521.682 -1.52648e-12
1.02002e-12 -1.52648e-12 491.099

401.06 -24.5669 6.05619e-12
-24.5669 349.122 1.06581e-14
6.05619e-12 1.06581e-14 324.046

419.093 29.706 2.42887e-12
29.706 392.579 1.16055e-13
2.42887e-12 1.16055e-13 373.881

352.444 14.7031 -2.59481e-12
14.7031 417.34 -5.46526e-12
-2.59481e-12 -5.46526e-12 348.343

500.67 -1.14005 1.4313e-12
-1.14005 442.931 2.1841e-12
1.4313e-12 2.1841e-12 487.84

492.614 0.00203194 2.67223e-12
0.00203194 438.233 -7.9467e-13
2.67223e-12 -7.9467e-13 474.551

453.099 23.1293 2.30038e-13
23.1293 479.846 -2.48483e-12
2.30038e-13 -2.48483e-12 475.717

481.433 23.8729 3.16192e-13
23.8729 502.997 3.75786e-12
3.16192e-13 3.75786e-12 501.376

456.725 -24.3815 -6.82658e-13
-24.3815 487.493 -3.12802e-12
-6.82658e-13 -3.12802e-12 488.629

457.956 -0.67513 3.37064e-12
-0.67513 518.071 2.17308e-13
3.37064e-12 2.17308e-13 486.523

459.024 25.5926 4.65509e-12
25.5926 486.607 -2.55433e-12
4.65509e-12 -2.55433e-12 488.651

465.704 -10.3118 2.45729e-12
-10.3118 408.206 7.99805e-13
2.45729e-12 7.99805e-13 427.351

400.987 -32.848 2.72375e-14
-32.848 415.085 9.23113e-13
2.72375e-14 9.23113e-13 385.284

518.227 -2.30495 -3.63309e-12
-2.30495 465.868 -1.95666e-12
-3.63309e-12 -1.95666e-12 501.054

391.993 -34.5235 -6.987e-14
-34.5235 379.722 -1.77636e-15
-6.987e-14 -1.77636e-15 347.525

478.128 19.0854 8.31779e-13
19.0854 509.335 -1.37431e-12
8.31779e-13 -1.37431e-12 501.973

506.245 -26.4809 2.2613e-12
-26.4809 470.372 -2.36552e-13
2.2613e-12 -2.36552e-13 487.4

425.136 -9.69459 1.91728e-12
-9.69459 366.84 2.73441e-12
1.91728e-12 2.73441e-12 356.092

530.381 -23.195 -3.36027e-12
-23.195 488.874 -2.34094e-12
-3.36027e-12 -2.34094e-12 506.609

501.038 2.35881 1.3558e-12
2.35881 444.719 -2.82152e-12
1.3558e-12 -2.82152e-12 489.342

521.31 -23.3259 -1.50339e-12
-23.3259 501.961 3.7527e-12
-1.50339e-12 3.7527e-12 508.654

502.152 -25.8622 -2.67519e-12
-25.8622 461.62 4.25734e-13
-2.67519e-12 4.25734e-13 481.374

498.971 -8.5495 -2.22814e-12
-8.5495 445.27 3.28537e-12
-2.22814e-12 3.28537e-12 479.48

482.355 -23.0701 -7.77748e-13
-23.0701 505.12 -2.77924e-12
-7.77748e-13 -2.77924e-12 502.663

428.674 -31.3549 -3.39521e-12
-31.3549 410.715 -1.48799e-12
-3.39521e-12 -1.48799e-12 399.121

503.401 -24.5939 -1.95044e-12
-24.5939 464.842 7.79702e-12
-1.95044e-12 7.79702e-12 482.289

441.384 10.8691 -3.11218e-12
10.8691 378.595 -5.24706e-12
-3.11218e-12 -5.24706e-12 387.919

500.166 26.3443 -1.60464e-13
26.3443 498.705 -1.68251e-12
-1.60464e-13 -1.68251e-12 500.23

463.895 -37.6069 2.04281e-14
-37.6069 488.532 -1.47275e-12
2.04281e-14 -1.47275e-12 494.218

465.003 37.2597 -2.38121e-12
37.2597 487.445 -1.41524e-12
-2.38121e-12 -1.41524e-12 493.933

446.477 -28.5698 -1.56319e-13
-28.5698 500.156 -2.08988e-12
-1.56319e-13 -2.08988e-12 492.449

448.711 27.0614 -6.29496e-13
27.0614 500.847 -1.98982e-12
-6.29496e-13 -1.98982e-12 492.636

513.21 -8.52542 9.95944e-13
-8.52542 436.556 5.43713e-13
9.95944e-13 5.43713e-13 492.896

511.374 9.27127 -3.20943e-12
9.27127 438.152 1.91817e-12
-3.20943e-12 1.91817e-12 492.534

501.798 -9.84936 3.07606e-13
-9.84936 451.874 -5.92711e-13
3.07606e-13 -5.92711e-13 483.154

510.984 32.1088 -1.7956e-12
32.1088 510.515 3.23861e-12
-1.7956e-12 3.23861e-12 514.176

509.761 -32.8462 5.00933e-13
-32.8462 510.191 -1.57856e-12
5.00933e-13 -1.57856e-12 513.816

481.94 16.0667 -3.34547e-13
16.0667 539.245 3.76884e-13
-3.34547e-13 3.76884e-13 514.448

483.132 -15.7996 1.50546e-13
-15.7996 538.835 -1.87879e-12
1.50546e-13 -1.87879e-12 514.469

556.968 -3.7537 1.36291e-12
-3.7537 506.94 -1.44625e-12
1.36291e-12 -1.44625e-12 525.104

558.521 3.61626 -1.92572e-12
3.61626 505.265 7.11431e-13
-1.92572e-12 7.11431e-13 525.475

387.426 9.84104 -1.02474e-11
9.84104 449.34 -3.91509e-12
-1.02474e-11 -3.91509e-12 397.209

472.525 -24.7797 -2.35752e-12
-24.7797 480.893 -1.95843e-12
-2.35752e-12 -1.95843e-12 485.11

443.614 -36.383 -9.39915e-13
-36.383 485.68 -3.06999e-12
-9.39915e-13 -3.06999e-12 486.767

473.792 -4.66553 7.98176e-13
-4.66553 420.566 -1.46764e-12
7.98176e-13 -1.46764e-12 436.471

540.369 -16.6887 1.292e-12
-16.6887 484.317 1.54395e-12
1.292e-12 1.54395e-12 515.408

541.088 16.1697 -2.4829e-12
16.1697 485.54 -8.40217e-13
-2.4829e-12 -8.40217e-13 516.013

507.006 0.121816 8.36072e-13
0.121816 423.706 -2.88385e-13
8.36072e-13 -2.88385e-13 487.14

384.908 23.3858 2.83684e-12
23.3858 432.434 1.81781e-12
2.83684e-12 1.81781e-12 385.595

442.486 36.167 8.25784e-13
36.167 485.359 -2.23096e-12
8.25784e-13 -2.23096e-12 485.973

452.74 -23.3976 -1.87746e-12
-23.3976 495.098 2.98724e-13
-1.87746e-12 2.98724e-13 483.727

443.388 23.3626 1.26713e-12
23.3626 397.639 5.13604e-12
1.26713e-12 5.13604e-12 400.496

531.082 23.8607 1.41516e-13
23.8607 488.125 2.79895e-12
1.41516e-13 2.79895e-12 507.367

428.613 -31.3267 1.18069e-12
-31.3267 411 2.5769e-12
1.18069e-12 2.5769e-12 398.94

519.989 -3.23468 2.20727e-12
-3.23468 469.188 7.22385e-13
2.20727e-12 7.22385e-13 502.813

439.551 -34.1574 4.74953e-13
-34.1574 485.65 -3.71629e-12
4.74953e-13 -3.71629e-12 485.962

389.3 8.32338 -4.20973e-12
8.32338 452.471 4.99748e-13
-4.20973e-12 4.99748e-13 400.978

385.996 21.8214 -7.30379e-13
21.8214 435.912 -5.64881e-13
-7.30379e-13 -5.64881e-13 388.814

383.964 35.7908 2.71427e-12
35.7908 362.439 -3.38692e-12
2.71427e-12 -3.38692e-12 318.425

408.311 1.5795 1.75267e-12
1.5795 332.25 1.4202e-12
1.75267e-12 1.4202e-12 327.425

485.588 -22.8071 -3.65633e-12
-22.8071 502.986 -2.1263e-12
-3.65633e-12 -2.1263e-12 501.876

351.981 31.1968 -1.16055e-12
31.1968 388.949 -1.8332e-12
-1.16055e-12 -1.8332e-12 312.453

451.488 23.6161 6.82121e-13
23.6161 478.558 1.57385e-12
6.82121e-13 1.57385e-12 465.348

442.339 -5.35183 -4.63037e-13
-5.35183 377.239 -5.1917e-12
-4.63037e-13 -5.1917e-12 387.857

464.3 11.2205 6.63173e-13
11.2205 407.421 -7.08322e-12
6.63173e-13 -7.08322e-12 425.05

505.523 0.429817 -4.13417e-12
0.429817 421.727 -4.59944e-12
-4.13417e-12 -4.59944e-12 485.813

449.496 -29.0275 3.03002e-12
-29.0275 502.135 3.94647e-13
3.03002e-12 3.94647e-13 493.721

572.569 -6.31533 1.6304e-12
-6.31533 589.552 -5.14966e-12
1.6304e-12 -5.14966e-12 549.343

463.283 37.4057 3.16576e-12
37.4057 487.168 -2.12016e-12
3.16576e-12 -2.12016e-12 493.198

408.864 1.66385 3.20928e-12
1.66385 331.697 2.61598e-12
3.20928e-12 2.61598e-12 308.999

404.358 -32.8016 4.42135e-12
-32.8016 415.638 4.61142e-12
4.42135e-12 4.61142e-12 387.508

443.292 36.6083 8.57906e-13
36.6083 485.652 8.37404e-13
8.57906e-13 8.37404e-13 486.709

444.804 -11.1358 2.83693e-12
-11.1358 499.075 -1.94333e-12
2.83693e-12 -1.94333e-12 471.571

386.19 -25.5262 -1.62033e-12
-25.5262 429.037 4.57353e-12
-1.62033e-12 4.57353e-12 384.682

449.596 28.8265 1.81625e-12
28.8265 501.768 -1.96258e-12
1.81625e-12 -1.96258e-12 493.421

452.85 -26.1525 3.21994e-12
-26.1525 419.429 -2.74743e-13
3.21994e-12 -2.74743e-13 419.643

579.621 10.4856 -3.59416e-13
10.4856 582.222 -8.8729e-13
-3.59416e-13 -8.8729e-13 549.128

398.45 30.8858 -1.713e-12
30.8858 422.191 3.04349e-13
-1.713e-12 3.04349e-13 388.282

515.841 8.12456 2.0024e-12
8.12456 437.416 -3.74515e-14
2.0024e-12 -3.74515e-14 494.714

493.934 30.1926 -7.31859e-13
30.1926 484.882 -1.57592e-12
-7.31859e-13 -1.57592e-12 493.929

453.603 23.3371 -1.37105e-12
23.3371 479.307 -4.11582e-12
-1.37105e-12 -4.11582e-12 475.934

510.817 -32.4811 -1.88264e-12
-32.4811 512.572 -2.78551e-12
-1.88264e-12 -2.78551e-12 515.124

510.434 -23.1963 2.67638e-13
-23.1963 473.304 -1.91136e-12
2.67638e-13 -1.91136e-12 489.801

511.498 10.4651 -1.80008e-12
10.4651 558.092 -5.30716e-12
-1.80008e-12 -5.30716e-12 523.84

452.31 -23.4392 4.53948e-12
-23.4392 480.31 -7.22918e-12
4.53948e-12 -7.22918e-12 469.085

394.53 -9.71234 1.50398e-12
-9.71234 316.502 -3.42489e-12
1.50398e-12 -3.42489e-12 295.665

387.409 -14.2826 7.32333e-12
-14.2826 306.144 8.68638e-13
7.32333e-12 8.68638e-13 290.138

547.684 16.5348 5.82941e-12
16.5348 507.869 -9.14824e-13
5.82941e-12 -9.14824e-13 519.43

436.62 22.5103 5.17926e-12
22.5103 469.28 7.12438e-12
5.17926e-12 7.12438e-12 447.956

476.097 29.1709 -3.14119e-12
29.1709 467.775 2.05347e-12
-3.14119e-12 2.05347e-12 471.608

450.445 0.688878 1.3974e-13
0.688878 392.894 -6.61766e-12
1.3974e-13 -6.61766e-12 395.795

478.462 6.56842 -1.14878e-12
6.56842 541.392 -1.97176e-13
-1.14878e-12 -1.97176e-13 507.656

507.469 16.5404 3.79963e-12
16.5404 461.267 3.70518e-12
3.79963e-12 3.70518e-12 488.21

390.095 -25.7728 -2.07893e-12
-25.7728 430.172 1.20792e-13
-2.07893e-12 1.20792e-13 387.853

456.439 -2.57044 -1.82493e-12
-2.57044 517.147 2.07656e-12
-1.82493e-12 2.07656e-12 484.965

400.711 13.3716 5.40693e-12
13.3716 453.128 -1.11792e-12
5.40693e-12 -1.11792e-12 404.759

487.047 -29.7197 2.01143e-12
-29.7197 465.939 -2.44338e-12
2.01143e-12 -2.44338e-12 474.385

430.431 -29.9602 -7.62649e-13
-29.9602 423.76 -7.28306e-14
-7.62649e-13 -7.28306e-14 405.078

399.833 31.637 3.56929e-12
31.637 418.362 1.2926e-12
3.56929e-12 1.2926e-12 386.12

624.035 -15.0169 1.72988e-12
-15.0169 582.005 2.05702e-12
1.72988e-12 2.05702e-12 557.987

494.631 2.04387 -4.13121e-12
2.04387 552.248 -1.90958e-12
-4.13121e-12 -1.90958e-12 518.037

483.625 20.2948 -3.79001e-12
20.2948 542.148 -8.88178e-13
-3.79001e-12 -8.88178e-13 516.147

544.812 15.4342 -2.16271e-12
15.4342 480.094 1.78169e-12
-2.16271e-12 1.78169e-12 515.869

473.883 -26.1946 -2.53042e-12
-26.1946 479.891 -4.46162e-13
-2.53042e-12 -4.46162e-13 483.148

452.268 17.9642 3.59535e-12
17.9642 404.63 -5.38828e-14
3.59535e-12 -5.38828e-14 407.042

531.662 -5.28953 2.61972e-12
-5.28953 580.878 7.79525e-13
2.61972e-12 7.79525e-13 537.215

512.322 -18.987 -1.24375e-12
-18.987 464.922 -2.33887e-12
-1.24375e-12 -2.33887e-12 493.156

474.121 -15.6035 -2.45256e-12
-15.6035 423.302 -1.69405e-12
-2.45256e-12 -1.69405e-12 439.009

402.121 11.6088 1.01992e-12
11.6088 456.101 8.75152e-13
1.01992e-12 8.75152e-13 407.903

411.049 -25.7457 -2.56387e-13
-25.7457 435.718 2.69769e-12
-2.56387e-13 2.69769e-12 399.079

532.157 -25.2743 -2.03186e-12
-25.2743 523.29 6.82565e-13
-2.03186e-12 6.82565e-13 519.229

423.187 31.9732 4.44326e-12
31.9732 417.377 9.94168e-13
4.44326e-12 9.94168e-13 400.427

535.593 -25.1323 -4.33727e-13
-25.1323 505.895 1.4723e-12
-4.33727e-13 1.4723e-12 515.773

453.639 2.59833 3.54442e-12
2.59833 397.139 -2.3049e-12
3.54442e-12 -2.3049e-12 402.021

311.186 -28.9425 1.90662e-13
-28.9425 376.711 -7.38964e-13
1.90662e-13 -7.38964e-13 290.083

432.008 -29.2434 -4.69728e-12
-29.2434 424.179 3.86417e-12
-4.69728e-12 3.86417e-12 406.277

353.865 32.1723 -2.48098e-12
32.1723 392.664 -6.09172e-12
-2.48098e-12 -6.09172e-12 313.064

470.462 -11.8744 4.19653e-12
-11.8744 529.673 6.49554e-13
4.19653e-12 6.49554e-13 500.424

391.567 -13.8274 -2.88895e-12
-13.8274 449.395 -2.49637e-12
-2.88895e-12 -2.49637e-12 400.32

602.905 -23.9777 3.5502e-12
-23.9777 602.308 4.55828e-12
3.5502e-12 4.55828e-12 557.927

408.496 23.7814 7.93439e-14
23.7814 442.079 8.72783e-13
7.93439e-14 8.72783e-13 402.345

496.702 -32.7268 2.08722e-12
-32.7268 490.762 5.44305e-12
2.08722e-12 5.44305e-12 497.57

388.306 -11.9683 1.5518e-12
-11.9683 448.427 7.31859e-13
1.5518e-12 7.31859e-13 397.137

516.841 -19.1158 -1.83853e-13
-19.1158 465.882 1.03088e-12
-1.83853e-13 1.03088e-12 496.369

410.812 23.8878 -3.5764e-13
23.8878 439.45 -2.60769e-12
-3.5764e-13 -2.60769e-12 400.821

489.068 -4.97642 2.42295e-12
-4.97642 435.203 -2.19806e-12
2.42295e-12 -2.19806e-12 460.516

305.865 -30.3523 -5.13841e-12
-30.3523 391.55 -3.52903e-13
-5.13841e-12 -3.52903e-13 262.648

438.742 21.0206 6.02747e-12
21.0206 474.057 -2.08011e-12
6.02747e-12 -2.08011e-12 458.483

445.829 -19.3313 -1.73491e-12
-19.3313 394.096 -8.0469e-13
-1.73491e-12 -8.0469e-13 399.746

551.702 -21.445 4.94567e-12
-21.445 499.626 -1.31154e-12
4.94567e-12 -1.31154e-12 520.215

424.603 31.7676 9.14232e-13
31.7676 413.45 -4.09213e-12
9.14232e-13 -4.09213e-12 398.082

459.302 -29.9817 -1.80774e-12
-29.9817 437.769 2.15206e-12
-1.80774e-12 2.15206e-12 439.429

510.754 20.888 4.96136e-12
20.888 476.196 1.89715e-12
4.96136e-12 1.89715e-12 492.883

461.648 -28.0773 4.87447e-12
-28.0773 485.884 6.19282e-13
4.87447e-12 6.19282e-13 488.855

413.85 -26.2369 2.33236e-12
-26.2369 436.385 1.00542e-12
2.33236e-12 1.00542e-12 401.564

426.209 28.9934 5.43743e-12
28.9934 430.035 4.29405e-12
5.43743e-12 4.29405e-12 406.988

452.643 26.2012 -4.16733e-12
26.2012 418.355 1.23042e-12
-4.16733e-12 1.23042e-12 419.187

522.096 -14.6152 -2.6296e-12
-14.6152 477.3 -5.35276e-13
-2.6296e-12 -5.35276e-13 500.189

403.687 -16.6253 -2.42147e-12
-16.6253 451.889 -2.8777e-12
-2.42147e-12 -2.8777e-12 406.57

496.191 -17.5705 1.09128e-12
-17.5705 447.74 -5.1988e-13
1.09128e-12 -5.1988e-13 471.635

487.909 16.9139 -5.31604e-12
16.9139 436.389 -4.16793e-12
-5.31604e-12 -4.16793e-12 460.723

513.441 -9.3812 -2.55684e-13
-9.3812 555.884 -1.02555e-12
-2.55684e-13 -1.02555e-12 523.141

454.127 -13.435 -4.1851e-12
-13.435 402.304 -3.98052e-13
-4.1851e-12 -3.98052e-13 406.871

403.326 0.594899 -6.31761e-12
0.594899 465.874 -2.57927e-12
-6.31761e-12 -2.57927e-12 417.934

475.175 18.5602 4.16674e-12
18.5602 428.902 2.00936e-12
4.16674e-12 2.00936e-12 442.354

451.286 27.6143 -1.73965e-12
27.6143 421.97 1.15049e-12
-1.73965e-12 1.15049e-12 420.974

400.994 -15.6934 2.84809e-13
-15.6934 451.529 -1.022e-12
2.84809e-13 -1.022e-12 403.863

406.126 -1.20218 -3.30972e-12
-1.20218 468.184 2.56032e-12
-3.30972e-12 2.56032e-12 421.35

516.322 29.1357 -5.55408e-13
29.1357 498.141 -1.91018e-12
-5.55408e-13 -1.91018e-12 504.997

441.838 -10.9255 -1.64195e-12
-10.9255 500.802 -1.38852e-12
-1.64195e-12 -1.38852e-12 471.283

451.583 -26.7259 -5.1615e-12
-26.7259 418.897 4.47879e-12
-5.1615e-12 4.47879e-12 419.483

444.53 21.3417 -3.60245e-12
21.3417 395.421 2.51532e-12
-3.60245e-12 2.51532e-12 398.326

497.737 23.6686 -3.14652e-12
23.6686 458.221 2.82441e-12
-3.14652e-12 2.82441e-12 476.683

447.813 5.47395 2.19728e-12
5.47395 508.932 1.65438e-12
2.19728e-12 1.65438e-12 477.014

427.786 29.078 -1.69642e-12
29.078 426.571 9.53312e-14
-1.69642e-12 9.53312e-14 405.238

536.932 22.9645 5.8975e-13
22.9645 531.994 2.45611e-12
5.8975e-13 2.45611e-12 522.897

314.841 -59.7116 -3.55745e-12
-59.7116 282.846 7.22385e-12
-3.55745e-12 7.22385e-12 223.491

480.736 -25.0562 -1.70175e-12
-25.0562 445.205 2.28913e-12
-1.70175e-12 2.28913e-12 456.779

336.764 7.0727 -3.5687e-12
7.0727 409.287 1.83083e-12
-3.5687e-12 1.83083e-12 319.541

460.679 -28.8994 1.61648e-13
-28.8994 444.875 2.16005e-12
1.61648e-13 2.16005e-12 443.586

96.4473 -52.7137 -3.78956e-14
-52.7137 306.692 -1.96583e-12
-3.78956e-14 -1.96583e-12 113.731

95.9812 51.4641 -2.61124e-12
51.4641 306.957 1.9232e-12
-2.61124e-12 1.9232e-12 114.52

181.561 117.182 -8.48625e-12
117.182 226.131 -5.46644e-12
-8.48625e-12 -5.46644e-12 113.62

182.859 -117.125 -9.11863e-13
-117.125 223.366 3.24007e-12
-9.11863e-13 3.24007e-12 113.594

321.661 -1.3638 3.28271e-12
-1.3638 84.6741 9.26342e-14
3.28271e-12 9.26342e-14 114.961

274.5 -91.1476 3.72324e-12
-91.1476 127.449 -5.30539e-13
3.72324e-12 -5.30539e-13 113.834

275.197 91.6757 5.14907e-12
91.6757 128.283 -8.3844e-13
5.14907e-12 -8.3844e-13 114.605

525.365 14.3347 -1.77813e-12
14.3347 474.837 1.64017e-12
-1.77813e-12 1.64017e-12 502.44

556.89 25.5326 2.49874e-12
25.5326 541.27 -5.34165e-12
2.49874e-12 -5.34165e-12 533.555

492.241 6.60845 -2.05288e-12
6.60845 439.256 4.44644e-12
-2.05288e-12 4.44644e-12 471.539

470.445 21.7926 9.10087e-13
21.7926 424.646 7.8663e-13
9.10087e-13 7.8663e-13 438.327

410.102 17.7517 2.36507e-12
17.7517 461.22 -9.59233e-14
2.36507e-12 -9.59233e-14 425.175

448.152 28.9099 2.31518e-13
28.9099 424.839 1.52826e-12
2.31518e-13 1.52826e-12 420.881

487.285 -29.67 2.99198e-12
-29.67 465.763 1.76392e-12
2.99198e-12 1.76392e-12 474.722

449.509 28.0391 -1.37076e-12
28.0391 421.203 -4.57234e-12
-1.37076e-12 -4.57234e-12 418.771

403.088 -2.84313 2.80516e-12
-2.84313 465.531 -3.76114e-12
2.80516e-12 -3.76114e-12 417.671

555.897 -26.0935 3.11662e-12
-26.0935 543.462 2.60784e-12
3.11662e-12 2.60784e-12 533.798

405.627 -4.86515 1.49525e-12
-4.86515 467.269 -5.56592e-13
1.49525e-12 -5.56592e-13 420.73

522.412 23.021 -3.41061e-13
23.021 499.864 1.3108e-12
-3.41061e-13 1.3108e-12 508.092

423.515 26.8825 2.62427e-12
26.8825 386.627 -6.08106e-13
2.62427e-12 -6.08106e-13 373.145

480.243 -13.217 3.69615e-12
-13.217 532.889 -1.45661e-12
3.69615e-12 -1.45661e-12 512.126

484.346 13.7324 5.39065e-12
13.7324 432.907 -4.66294e-13
5.39065e-12 -4.66294e-13 457.01

457.511 -29.9978 1.13746e-12
-29.9978 437.111 -1.34411e-12
1.13746e-12 -1.34411e-12 437.966

454.454 -24.7225 -2.49874e-12
-24.7225 416.934 2.51236e-12
-2.49874e-12 2.51236e-12 419.984

547.509 -16.0803 1.32842e-12
-16.0803 509.415 1.05042e-12
1.32842e-12 1.05042e-12 519.499

476.116 27.9368 -5.24558e-12
27.9368 449.839 -5.50463e-12
-5.24558e-12 -5.50463e-12 457.059

469.246 23.9861 3.19567e-12
23.9861 427.98 4.16467e-12
3.19567e-12 4.16467e-12 439.963

432.557 -2.79244 -3.35957e-12
-2.79244 493.784 1.44181e-12
-3.35957e-12 1.44181e-12 457.241

417.734 5.87471 -1.62875e-12
5.87471 479.706 1.87998e-12
-1.62875e-12 1.87998e-12 440.31

463.162 2.64775 -3.25073e-13
2.64775 402.405 -1.85207e-12
-3.25073e-13 -1.85207e-12 422.453

438.792 -7.29293 7.15161e-12
-7.29293 374.029 -7.70643e-13
7.15161e-12 -7.70643e-13 381.339

454.984 30.4953 2.12985e-12
30.4953 439.149 -1.93741e-12
2.12985e-12 -1.93741e-12 437.969

478.608 -26.1639 4.45629e-12
-26.1639 443.677 -7.97288e-13
4.45629e-12 -7.97288e-13 454.78

525.826 -21.2558 1.3598e-12
-21.2558 497.945 -2.32347e-12
1.3598e-12 -2.32347e-12 508.741

437.87 -31.6459 4.73695e-14
-31.6459 437.793 6.7916e-13
4.73695e-14 6.7916e-13 426.991

417.722 -27.7973 -2.36078e-12
-27.7973 444.54 8.23637e-13
-2.36078e-12 8.23637e-13 419.82

430.783 29.8993 4.00332e-12
29.8993 442.886 -3.12284e-12
4.00332e-12 -3.12284e-12 426.63

416.353 -9.58125 -8.18493e-13
-9.58125 475.361 -1.80537e-12
-8.18493e-13 -1.80537e-12 436.588

429.024 -1.54672 -3.15303e-14
-1.54672 492.016 7.79821e-13
-3.15303e-14 7.79821e-13 454.128

445.308 5.74723 -4.64504e-12
5.74723 508.185 2.37736e-12
-4.64504e-12 2.37736e-12 475.046

414.748 -21.098 -1.54721e-12
-21.098 458.555 -8.09427e-13
-1.54721e-12 -8.09427e-13 426.198

497.006 24.1179 2.69118e-12
24.1179 455.827 -3.84048e-12
2.69118e-12 -3.84048e-12 474.725

483.523 -9.59292 -1.00127e-12
-9.59292 430.243 -2.61287e-12
-1.00127e-12 -2.61287e-12 455.357

415.76 7.46748 -1.65427e-12
7.46748 477.27 2.85105e-12
-1.65427e-12 2.85105e-12 437.046

444.083 -9.70223 -9.77574e-13
-9.70223 501.648 -2.55914e-12
-9.77574e-13 -2.55914e-12 471.141

433.306 -16.3362 2.15058e-12
-16.3362 481.825 4.02226e-12
2.15058e-12 4.02226e-12 455.804

463.69 -8.24231 -4.13181e-12
-8.24231 406.461 -1.27335e-12
-4.13181e-12 -1.27335e-12 421.602

494.567 -32.3468 -2.3516e-12
-32.3468 487.751 3.07783e-12
-2.3516e-12 3.07783e-12 496.382

423.075 9.32549 1.81632e-12
9.32549 479.241 1.9759e-12
1.81632e-12 1.9759e-12 441.114

564.446 -18.2143 3.59061e-12
-18.2143 530.048 7.03437e-13
3.59061e-12 7.03437e-13 531.938

309.138 24.8332 -1.04213e-13
24.8332 379.542 -8.95994e-12
-1.04213e-13 -8.95994e-12 289.889

501.827 -26.6299 -3.01152e-12
-26.6299 499.612 1.04228e-12
-3.01152e-12 1.04228e-12 501.326

515.772 -30.2034 -3.4485e-12
-30.2034 498.519 9.74036e-14
-3.4485e-12 9.74036e-14 505.041

429.351 -0.700095 -4.82444e-12
-0.700095 492.141 -1.23102e-12
-4.82444e-12 -1.23102e-12 454.279

475.033 -16.6273 2.01676e-12
-16.6273 428.47 6.54291e-14
2.01676e-12 6.54291e-14 442.092

462.433 12.8427 2.07736e-12
12.8427 511.414 -5.87974e-13
2.07736e-12 -5.87974e-13 489.253

240.84 -3.18288 4.28998e-12
-3.18288 360.794 8.5502e-13
4.28998e-12 8.5502e-13 227.035

432.535 14.2779 4.33801e-12
14.2779 485.504 4.92525e-12
4.33801e-12 4.92525e-12 457.018

458.254 -29.4999 2.82026e-12
-29.4999 443.31 9.5568e-13
2.82026e-12 9.5568e-13 440.897

304.272 25.1139 4.46162e-12
25.1139 394.701 4.63274e-12
4.46162e-12 4.63274e-12 264.422

603.602 26.0876 2.71916e-12
26.0876 598.004 -1.04038e-11
2.71916e-12 -1.04038e-11 558.244

608.332 -27.7957 -1.42612e-12
-27.7957 595.08 -7.64633e-12
-1.42612e-12 -7.64633e-12 558.377

463.634 -30.428 3.59653e-12
-30.428 459.176 2.04103e-12
3.59653e-12 2.04103e-12 459.208

434.722 -31.1727 1.62241e-13
-31.1727 436.499 -6.31199e-13
1.62241e-13 -6.31199e-13 424.795

474.251 20.8337 5.45282e-12
20.8337 432.048 -8.0469e-13
5.45282e-12 -8.0469e-13 444.108

465.372 15.0119 6.68147e-12
15.0119 410.244 -1.89833e-12
6.68147e-12 -1.89833e-12 427.596

646.087 3.07682 -7.74196e-12
3.07682 645.742 -4.17022e-12
-7.74196e-12 -4.17022e-12 574.693

649.905 -6.99025 1.79902e-11
-6.99025 641.416 -5.47547e-12
1.79902e-11 -5.47547e-12 575.221

497.14 4.82391 1.56201e-12
4.82391 442.176 5.71987e-13
1.56201e-12 5.71987e-13 477.553

443.69 6.73442 4.20034e-12
6.73442 503.134 1.12739e-12
4.20034e-12 1.12739e-12 471.185

442.1 6.73668 -1.01505e-12
6.73668 502.659 1.48267e-12
-1.01505e-12 1.48267e-12 469.907

321.627 58.6552 -2.64796e-12
58.6552 281.202 -1.04687e-12
-2.64796e-12 -1.04687e-12 225.145

420.361 -28.2118 2.76579e-12
-28.2118 444.167 1.29082e-12
2.76579e-12 1.29082e-12 421.164

520.713 17.9731 1.36957e-12
17.9731 467.664 2.08544e-12
1.36957e-12 2.08544e-12 499.641

473.133 9.54247 4.0418e-12
9.54247 421.33 4.20508e-12
4.0418e-12 4.20508e-12 436.339

440.77 -26.7337 -4.41129e-13
-26.7337 450.872 8.8581e-13
-4.41129e-13 8.8581e-13 433.551

469.424 -20.2451 3.42126e-12
-20.2451 422.847 7.72419e-13
3.42126e-12 7.72419e-13 437.31

312.564 60.2531 2.56032e-12
60.2531 281.45 -6.11067e-12
2.56032e-12 -6.11067e-12 223.283

492.814 31.0722 -1.62833e-12
31.0722 489.169 2.79776e-12
-1.62833e-12 2.79776e-12 493.267

410.992 -19.7944 7.17293e-12
-19.7944 458.03 -4.49892e-12
7.17293e-12 -4.49892e-12 423.631

474.27 28.8664 -5.35808e-12
28.8664 449.768 -3.60186e-12
-5.35808e-12 -3.60186e-12 456.653

431.087 -4.14745 4.96862e-13
-4.14745 493.121 3.66758e-12
4.96862e-13 3.66758e-12 456.602

424.065 19.6173 -1.61145e-12
19.6173 465.861 -4.29109e-12
-1.61145e-12 -4.29109e-12 434.243

452.889 30.53 4.76656e-13
30.53 443.736 -2.87829e-12
4.76656e-13 -2.87829e-12 439.743

428.779 -22.4825 6.80937e-13
-22.4825 461.286 -1.71004e-12
6.80937e-13 -1.71004e-12 433.948

443.714 -27.363 -1.12917e-12
-27.363 450.578 1.01608e-12
-1.12917e-12 1.01608e-12 435.181

294.862 11.2611 4.00006e-12
11.2611 372.698 -8.31335e-13
4.00006e-12 -8.31335e-13 258.182

357.407 -33.4703 1.97768e-12
-33.4703 389.24 -5.02117e-13
1.97768e-12 -5.02117e-13 314.228

419.787 -11.6947 2.81967e-12
-11.6947 476.511 2.60651e-12
2.81967e-12 2.60651e-12 439.479

478.54 26.4934 1.91195e-12
26.4934 446.934 -1.70353e-12
1.91195e-12 -1.70353e-12 456.218

452.486 29.4881 -3.83693e-13
29.4881 449.169 -3.78009e-12
-3.83693e-13 -3.78009e-12 442.536

426.945 -21.4428 3.30698e-13
-21.4428 461.934 -6.93727e-12
3.30698e-13 -6.93727e-12 432.766

423.064 -11.7877 2.64648e-12
-11.7877 476.798 -9.79957e-13
2.64648e-12 -9.79957e-13 440.064

457.848 28.4198 -2.71131e-12
28.4198 447.228 8.68046e-13
-2.71131e-12 8.68046e-13 442.706

425.239 -13.8836 2.99908e-13
-13.8836 476.569 2.68644e-12
2.99908e-13 2.68644e-12 442.241

311.356 27.8673 -9.14469e-12
27.8673 377.51 -8.78704e-13
-9.14469e-12 -8.78704e-13 290.076

485.284 -4.03853 -9.18182e-13
-4.03853 545.167 -2.84217e-13
-9.18182e-13 -2.84217e-13 511.156

433.122 31.0401 -2.55381e-12
31.0401 439.768 8.85218e-13
-2.55381e-12 8.85218e-13 426.152

509.448 14.9056 6.09586e-12
14.9056 463.292 3.69038e-12
6.09586e-12 3.69038e-12 488.738

517.052 -15.9322 5.33795e-13
-15.9322 467.71 -3.73035e-14
5.33795e-13 -3.73035e-14 494.053

384.046 -24.2145 1.82373e-12
-24.2145 306.036 2.0736e-12
1.82373e-12 2.0736e-12 285.444

442.419 -21.2735 -2.60295e-12
-21.2735 476.149 -7.04977e-12
-2.60295e-12 -7.04977e-12 459.46

447.969 26.7065 -2.58045e-12
26.7065 466.354 6.81233e-12
-2.58045e-12 6.81233e-12 457.98

523.088 -21.7268 -1.94511e-13
-21.7268 543.908 4.58744e-13
-1.94511e-13 4.58744e-13 525.422

579.64 14.0973 7.90405e-12
14.0973 617.665 2.2992e-12
7.90405e-12 2.2992e-12 557.139

620.247 9.44488 -3.33215e-13
9.44488 576.903 3.90621e-12
-3.33215e-13 3.90621e-12 556.958

523.584 32.7016 -2.75039e-13
32.7016 520.757 1.77828e-12
-2.75039e-13 1.77828e-12 519.64

415.022 26.0116 5.97152e-13
26.0116 449.051 2.03334e-12
5.97152e-13 2.03334e-12 420.509

478.239 26.6684 -8.34888e-14
26.6684 444.901 7.77748e-13
-8.34888e-14 7.77748e-13 455.641

332.463 45.2048 1.9836e-12
45.2048 349.597 -9.5568e-13
1.9836e-12 -9.5568e-13 286.83

571.452 -11.3361 -7.22237e-13
-11.3361 614.519 -3.39255e-12
-7.22237e-13 -3.39255e-12 554.684

641.342 -3.4287 1.04604e-11
-3.4287 636.899 3.23993e-12
1.04604e-11 3.23993e-12 572.472

634.934 -0.206335 -8.82849e-13
-0.206335 643.193 -6.78798e-12
-8.82849e-13 -6.78798e-12 572.299

273.038 -53.8211 -2.98546e-12
-53.8211 316.539 6.63173e-14
-2.98546e-12 6.63173e-14 220.976

566.728 -11.5966 -5.21982e-12
-11.5966 562.202 -1.61945e-12
-5.21982e-12 -1.61945e-12 541

563.839 8.80798 -1.75482e-12
8.80798 587.035 -8.55257e-12
-1.75482e-12 -8.55257e-12 546.936

478.389 -26.2062 2.78177e-12
-26.2062 440.573 -2.25568e-12
2.78177e-12 -2.25568e-12 453.616

494.46 1.00783 -2.02079e-12
1.00783 545.876 7.69755e-13
-2.02079e-12 7.69755e-13 514.176

447.791 -20.2739 2.93987e-12
-20.2739 484.307 1.50931e-12
2.93987e-12 1.50931e-12 470.776

506.447 6.25605 1.38378e-12
6.25605 443.519 1.5404e-12
1.38378e-12 1.5404e-12 486.263

461.408 15.596 3.41212e-12
15.596 521.385 5.96264e-13
3.41212e-12 5.96264e-13 497.687

471.301 7.18982 -9.76145e-13
7.18982 528.136 5.68434e-13
-9.76145e-13 5.68434e-13 497.816

493.905 20.3994 -2.4946e-12
20.3994 451.648 3.49735e-12
-2.4946e-12 3.49735e-12 469.884

241.13 -3.11393 1.75356e-12
-3.11393 358.666 9.9476e-13
1.75356e-12 9.9476e-13 227.133

463.842 -27.6325 -8.32519e-13
-27.6325 463.536 -7.92847e-13
-8.32519e-13 -7.92847e-13 461.328

488.481 -26.1233 6.99352e-12
-26.1233 481.732 2.83299e-12
6.99352e-12 2.83299e-12 486.001

497.67 -31.4835 -4.58685e-12
-31.4835 490.094 1.27335e-12
-4.58685e-12 1.27335e-12 499.111

355.706 32.762 -5.22486e-12
32.762 285.859 4.31418e-12
-5.22486e-12 4.31418e-12 248.443

563.965 -20.1133 3.65604e-12
-20.1133 569.684 -3.75255e-12
3.65604e-12 -3.75255e-12 542.67

337.743 54.3399 -2.93928e-12
54.3399 356.76 -2.7877e-12
-2.93928e-12 -2.7877e-12 258.954

477.202 -21.4371 5.27075e-12
-21.4371 506.627 -9.8351e-13
5.27075e-12 -9.8351e-13 500.375

504.918 14.6513 -6.12133e-12
14.6513 452.123 -7.72567e-13
-6.12133e-12 -7.72567e-13 481.696

449.978 -14.5782 5.60855e-12
-14.5782 397.11 4.49196e-12
5.60855e-12 4.49196e-12 400.967

452.737 24.0523 2.77704e-12
24.0523 478.929 -1.71596e-12
2.77704e-12 -1.71596e-12 467.988

493.811 20.4317 1.31806e-12
20.4317 449.634 -7.11016e-12
1.31806e-12 -7.11016e-12 469.477

505.669 11.3959 7.7669e-12
11.3959 564.512 2.08426e-12
7.7669e-12 2.08426e-12 526.822

476.035 -31.5859 -1.12799e-13
-31.5859 470.496 -3.07724e-12
-1.12799e-13 -3.07724e-12 475.2

559.364 19.8118 -4.32987e-12
19.8118 510.546 -2.00432e-13
-4.32987e-12 -2.00432e-13 526.598

440.097 -18.4493 -8.94692e-13
-18.4493 482.615 4.50899e-12
-8.94692e-13 4.50899e-12 459.287

466.024 4.28582 -4.50453e-12
4.28582 526.24 3.12639e-13
-4.50453e-12 3.12639e-13 495.638

588.707 9.93 7.26648e-12
9.93 552.541 -3.5764e-12
7.26648e-12 -3.5764e-12 545.285

590.489 -8.5172 1.12739e-12
-8.5172 554.882 5.34535e-13
1.12739e-12 5.34535e-13 545.802

382.43 18.5196 1.79294e-12
18.5196 302.374 5.98159e-12
1.79294e-12 5.98159e-12 286.224

502.822 7.96755 -1.9235e-12
7.96755 453.736 1.63573e-12
-1.9235e-12 1.63573e-12 487.9

232.873 7.74403 1.7694e-12
7.74403 381.61 -8.33703e-13
1.7694e-12 -8.33703e-13 187.24

237.043 -11.3892 3.67484e-12
-11.3892 387.305 -7.38964e-13
3.67484e-12 -7.38964e-13 189.504

249.347 56.4199 -3.54561e-12
56.4199 354.866 5.09696e-12
-3.54561e-12 5.09696e-12 184.075

505.145 -28.9549 1.52115e-12
-28.9549 478.746 -6.88723e-12
1.52115e-12 -6.88723e-12 491.472

258.542 -49.2077 -2.68585e-12
-49.2077 341.938 -1.73372e-12
-2.68585e-12 -1.73372e-12 220.8

249.353 -55.9625 -6.19356e-12
-55.9625 344.838 -2.62901e-12
-6.19356e-12 -2.62901e-12 181.167

434.792 26.2305 1.0741e-12
26.2305 454.539 -3.39343e-12
1.0741e-12 -3.39343e-12 432.959

330.006 73.8613 2.64322e-12
73.8613 280.077 -4.36273e-12
2.64322e-12 -4.36273e-12 184.879

540.217 13.0438 -2.49874e-12
13.0438 555.049 1.38378e-12
-2.49874e-12 1.38378e-12 532.186

562.48 0.0468653 2.03482e-12
0.0468653 532.55 -7.34879e-12
2.03482e-12 -7.34879e-12 531.978

338.686 -73.1463 3.14534e-12
-73.1463 279.925 2.77112e-12
3.14534e-12 2.77112e-12 186.363

432.805 -23.4325 -2.50289e-12
-23.4325 466.458 -4.22773e-12
-2.50289e-12 -4.22773e-12 447.708

359.038 34.7421 -3.50534e-12
34.7421 311.064 -1.92439e-12
-3.50534e-12 -1.92439e-12 258.117

267.772 63.5068 -1.29319e-12
63.5068 345.294 2.84217e-14
-1.29319e-12 2.84217e-14 185.898

293.775 21.6383 -6.94319e-12
21.6383 367.771 3.13112e-12
-6.94319e-12 3.13112e-12 254.575

267.643 -65.9362 -1.76215e-12
-65.9362 344.929 -4.448e-12
-1.76215e-12 -4.448e-12 184.353

291.721 -12.3854 2.5994e-12
-12.3854 370.993 -3.04349e-12
2.5994e-12 -3.04349e-12 253.521

550.386 6.83447 -8.14608e-13
6.83447 582.16 -3.64716e-12
-8.14608e-13 -3.64716e-12 541.217

329.988 -45.993 -6.12251e-12
-45.993 341.918 -5.30775e-12
-6.12251e-12 -5.30775e-12 276.701

259.853 47.5487 -7.16464e-13
47.5487 340.313 -3.42245e-12
-7.16464e-13 -3.42245e-12 223.213

370.307 37.9218 1.83794e-12
37.9218 244.981 -3.39403e-12
1.83794e-12 -3.39403e-12 187.41

482.03 -29.2935 -5.21183e-12
-29.2935 460.648 1.10075e-12
-5.21183e-12 1.10075e-12 467.848

481.096 12.8952 -3.57788e-12
12.8952 525.959 -4.26622e-13
-3.57788e-12 -4.26622e-13 504.229

354.524 -38.1264 -3.55035e-12
-38.1264 300.162 3.58824e-12
-3.55035e-12 3.58824e-12 251.892

482.674 -28.8091 8.44954e-13
-28.8091 460.452 5.92622e-12
8.44954e-13 5.92622e-12 468.596

365.353 -36.3534 3.6664e-12
-36.3534 231.045 1.13864e-12
3.6664e-12 1.13864e-12 182.822

481.64 -28.3245 1.18779e-12
-28.3245 472.889 -1.71892e-12
1.18779e-12 -1.71892e-12 478.051

436.489 -25.3041 -3.25192e-12
-25.3041 466.37 3.79548e-13
-3.25192e-12 3.79548e-13 448.346

314.875 69.4774 5.43802e-12
69.4774 292.215 -9.40285e-13
5.43802e-12 -9.40285e-13 184.576

290.863 -22.9413 7.89887e-13
-22.9413 359.271 -5.23196e-12
7.89887e-13 -5.23196e-12 247.105

312.476 -71.71 2.7048e-12
-71.71 288.194 1.76688e-12
2.7048e-12 1.76688e-12 182.078

268.619 50.7545 -2.58874e-12
50.7545 320.152 1.36235e-11
-2.58874e-12 1.36235e-11 221.571

460.001 -30.2216 1.77873e-12
-30.2216 454.983 2.68792e-12
1.77873e-12 2.68792e-12 454.535

559.383 -14.6425 8.06229e-12
-14.6425 544.499 5.67043e-12
8.06229e-12 5.67043e-12 533.823

635.94 11.0857 -1.20657e-11
11.0857 631.415 2.30926e-14
-1.20657e-11 2.30926e-14 570.096

619.994 -5.16126 -7.47994e-13
-5.16126 639.757 1.06659e-12
-7.47994e-13 1.06659e-12 568.575

453.998 13.0848 1.95133e-12
13.0848 506.695 -9.44667e-12
1.95133e-12 -9.44667e-12 482.704

634.171 -10.6601 -8.58573e-15
-10.6601 631.346 5.81638e-12
-8.58573e-15 5.81638e-12 569.951

622.73 4.09369 2.02297e-12
4.09369 642.701 5.48039e-12
2.02297e-12 5.48039e-12 569.775

643.397 7.42499 8.75996e-12
7.42499 619.18 -1.86073e-13
8.75996e-12 -1.86073e-13 569.099

584.828 -12.1065 -3.45831e-12
-12.1065 631.701 -2.6333e-12
-3.45831e-12 -2.6333e-12 560.676

307.532 -30.4828 -3.63324e-12
-30.4828 371.748 -1.59398e-12
-3.63324e-12 -1.59398e-12 280.857

589.691 -12.9721 4.90156e-12
-12.9721 549.193 5.68227e-12
4.90156e-12 5.68227e-12 543.923

527.318 -34.4124 4.27865e-12
-34.4124 521.591 1.36409e-12
4.27865e-12 1.36409e-12 520.08

565.549 -18.1793 -1.13953e-12
-18.1793 538.084 -2.20135e-12
-1.13953e-12 -2.20135e-12 534.363

502.709 15.4637 1.60701e-12
15.4637 452.247 -9.05972e-12
1.60701e-12 -9.05972e-12 480.339

586.399 9.85822 -1.60512e-12
9.85822 642.159 -6.01193e-12
-1.60512e-12 -6.01193e-12 563.185

636.683 19.2193 -4.10871e-12
19.2193 591.772 -4.66338e-12
-4.10871e-12 -4.66338e-12 563.006

569.859 11.3129 -1.42109e-12
11.3129 544.431 3.01699e-12
-1.42109e-12 3.01699e-12 536.539

353.545 -15.346 -3.58587e-12
-15.346 231.577 1.95577e-12
-3.58587e-12 1.95577e-12 219.08

437.343 24.9734 4.60787e-12
24.9734 462.059 9.81378e-12
4.60787e-12 9.81378e-12 445.858

317.178 -61.3754 -4.08325e-12
-61.3754 277.926 4.51905e-12
-4.08325e-12 4.51905e-12 218.154

334.302 -57.4751 -8.92915e-12
-57.4751 357.424 -1.68635e-12
-8.92915e-12 -1.68635e-12 252.616

383.444 -36.5563 -6.21962e-12
-36.5563 305.824 5.46289e-12
-6.21962e-12 5.46289e-12 257.838

562.569 -5.15802 3.52459e-13
-5.15802 616.995 4.01013e-13
3.52459e-13 4.01013e-13 553.04

562.277 2.89174 4.39323e-12
2.89174 615.861 3.0013e-12
4.39323e-12 3.0013e-12 552.639

598.823 -24.4445 -4.86455e-12
-24.4445 575.811 4.07733e-12
-4.86455e-12 4.07733e-12 551.67

602.383 -21.7476 1.00845e-13
-21.7476 573.499 -1.38645e-12
1.00845e-13 -1.38645e-12 551.936

598.835 26.1228 2.56239e-12
26.1228 580.523 3.49395e-12
2.56239e-12 3.49395e-12 552.824

625.775 3.09105 5.78574e-12
3.09105 630.762 9.66101e-12
5.78574e-12 9.66101e-12 568.498

599.113 -20.4997 -1.49984e-12
-20.4997 576.422 3.60001e-12
-1.49984e-12 3.60001e-12 552.358

607.856 -18.5612 5.02887e-12
-18.5612 620.292 1.00768e-12
5.02887e-12 1.00768e-12 563.267

632.931 2.4283 1.36295e-11
2.4283 635.547 9.75353e-12
1.36295e-11 9.75353e-12 570.582

607.936 -20.5153 5.26172e-13
-20.5153 572.492 -4.37606e-12
5.26172e-13 -4.37606e-12 553.496

607.122 20.9445 -9.06379e-12
20.9445 573.75 -8.92619e-13
-9.06379e-12 -8.92619e-13 553.899

633.881 -3.45186 -1.36118e-11
-3.45186 636.797 4.673e-12
-1.36118e-11 4.673e-12 571.355

632.21 -3.10783 -1.45959e-11
-3.10783 625.788 1.34244e-11
-1.45959e-11 1.34244e-11 569.472

609.728 12.1082 -2.00714e-12
12.1082 620.515 5.52669e-13
-2.00714e-12 5.52669e-13 563.998

587.264 26.9192 -1.53004e-12
26.9192 583.076 5.67555e-12
-1.53004e-12 5.67555e-12 551.792

FIELD solute_concentration_TPM 2
S_ext 1 563 float
0.468019
0.467953
0.467955
0.467953
0.46797
0.467956
0.468019
0.467955
0.467959
0.467955
0.468002
0.467956
0.467956
0.467955
0.467965
0.467954
0.467957
0.467955
0.467959
0.467955
0.467957
0.468
0.467957
0.467956
0.467955
0.467954
0.467997
0.467957
0.467974
0.467984
0.467955
0.467974
0.467999
0.467978
0.467977
0.467977
0.467983
0.467976
0.467956
0.467999
0.467975
0.467983
0.467983
0.467955
0.467988
0.467973
0.467958
0.467958
0.467956
0.467977
0.467976
0.467969
0.467969
0.467969
0.467968
0.46799
0.467978
0.467969
0.467977
0.467955
0.467956
0.46796
0.467995
0.46796
0.46796
0.467958
0.467957
0.467954
0.467955
0.467955
0.467969
0.467968
0.467975
0.467959
0.467955
0.468
0.467964
0.467958
0.467955
0.467967
0.467982
0.46797
0.467959
0.467982
0.467974
0.467989
0.467956
0.46796
0.467988
0.468002
0.467969
0.468003
0.467965
0.46796
0.467968
0.467976
0.467982
0.467954
0.467964
0.467955
0.467963
0.467973
0.467982
0.467953
0.467955
0.467953
0.46796
0.467956
0.467982
0.467955
0.467955
0.467986
0.467984
0.467954
0.467953
0.467969
0.46798
0.467982
0.46798
0.467969
0.467961
0.467963
0.467954
0.467958
0.467957
0.467964
0.467978
0.467955
0.467982
0.467969
0.46797
0.467953
0.467958
0.467953
0.467973
0.467979
0.467986
0.467956
0.46796
0.467979
0.467972
0.467958
0.467961
0.467955
0.467983
0.467954
0.467958
0.467958
0.467955
0.467964
0.467959
0.467955
0.467974
0.467955
0.467955
0.467953
0.467956
0.467971
0.467971
0.467953
0.467958
0.467974
0.467987
0.467975
0.467971
0.467953
0.467971
0.467972
0.467974
0.467971
0.467966
0.467969
0.467975
0.467956
0.467968
0.46796
0.467965
0.467958
0.467968
0.467957
0.467974
0.467953
0.467954
0.467972
0.467959
0.467976
0.467957
0.46796
0.467967
0.467954
0.467959
0.467981
0.467969
0.467974
0.467953
0.467953
0.467954
0.467958
0.467954
0.467958
0.467954
0.467958
0.467966
0.467958
0.467975
0.467958
0.46796
0.467973
0.467963
0.467955
0.467964
0.467957
0.467954
0.46796
0.467964
0.467958
0.467965
0.467959
0.467957
0.467956
0.467955
0.467955
0.467955
0.467955
0.467957
0.467963
0.467963
0.467963
0.467963
0.467971
0.46797
0.467964
0.467956
0.467954
0.467957
0.467966
0.467966
0.467955
0.467966
0.467953
0.467954
0.467963
0.467963
0.467964
0.46796
0.467953
0.467963
0.467965
0.467982
0.467979
0.467958
0.467984
0.467955
0.467965
0.46796
0.467953
0.467956
0.467985
0.467955
0.467986
0.467966
0.467954
0.467957
0.467966
0.467955
0.467961
0.467984
0.467965
0.467957
0.467958
0.467953
0.467965
0.467961
0.467969
0.467955
0.467987
0.467989
0.467969
0.467956
0.467956
0.467965
0.467963
0.467955
0.467965
0.467958
0.467963
0.467959
0.467963
0.467966
0.467992
0.467966
0.467964
0.467964
0.467955
0.467962
0.467977
0.467957
0.467958
0.467962
0.467963
0.467967
0.467963
0.467967
0.467963
0.467988
0.467963
0.467984
0.46796
0.467963
0.467992
0.467963
0.467961
0.467964
0.467959
0.467963
0.467956
0.467998
0.467954
0.467963
0.467967
0.467964
0.467959
0.46796
0.467953
0.467963
0.467962
0.467961
0.467962
0.467962
0.467957
0.467956
0.467968
0.467962
0.467961
0.467958
0.46796
0.467963
0.46796
0.467964
0.467956
0.46796
0.467964
0.467957
0.467957
0.467963
0.467968
0.468005
0.467958
0.467982
0.467958
0.468032
0.468032
0.468031
0.468032
0.46803
0.468034
0.468034
0.467962
0.467976
0.467955
0.467959
0.467959
0.46796
0.467958
0.467961
0.467961
0.467977
0.46796
0.467964
0.467969
0.467962
0.467957
0.467958
0.46796
0.467969
0.467957
0.467958
0.467957
0.467958
0.467959
0.467967
0.467959
0.467957
0.467962
0.46796
0.467959
0.467958
0.467958
0.467957
0.467957
0.467959
0.467957
0.467957
0.467958
0.467957
0.467955
0.46796
0.467958
0.467958
0.467973
0.467988
0.46796
0.467964
0.467957
0.467957
0.467957
0.468004
0.467956
0.467957
0.467998
0.467993
0.467994
0.467957
0.467959
0.467957
0.467959
0.468009
0.468007
0.467955
0.467957
0.467957
0.468006
0.46796
0.467959
0.467957
0.467958
0.467958
0.468004
0.46796
0.467959
0.467957
0.467957
0.467958
0.467958
0.467958
0.467958
0.467998
0.467983
0.467958
0.467958
0.467957
0.467958
0.467957
0.467958
0.467957
0.467988
0.467964
0.467959
0.467957
0.467959
0.467989
0.467955
0.467955
0.46797
0.46799
0.46799
0.467968
0.467959
0.467958
0.467989
0.467989
0.468001
0.468001
0.468005
0.467977
0.467983
0.467957
0.467965
0.467954
0.467955
0.467958
0.46796
0.467958
0.468004
0.467955
0.467958
0.467959
0.468001
0.46798
0.468
0.467957
0.467957
0.467964
0.467954
0.467957
0.46797
0.467955
0.46797
0.467955
0.467959
0.467984
0.467985
0.46799
0.467957
0.468021
0.468021
0.468021
0.467958
0.468007
0.468021
0.467958
0.468021
0.467971
0.46797
0.468021
0.467955
0.467999
0.468023
0.467999
0.468023
0.467999
0.467978
0.467992
0.468006
0.46802
0.467956
0.467961
0.468
0.467957
0.46802
0.467956
0.467956
0.468023
0.468001
0.468023
0.468005
0.467956
0.467973
0.468
0.467999
0.467957
0.468001
0.468
0.468
0.467995
0.467991
0.46798
0.467969
0.467977
0.467958
0.467997
0.467996
0.467976
0.468005
0.467956
0.468008
0.468002
0.467999
0.467987
0.467987
0.467986
0.467987
0.467987
0.468002
0.467989
0.468
0.468005
0.467991
0.46799
0.468004
0.468
0.467998
0.467989
P_ext 1 563 float
0.0026218
0.00262111
0.00262121
0.00262112
0.00262087
0.00262121
0.0026218
0.00262116
0.00262128
0.00262112
0.00262169
0.00262116
0.00262118
0.00262112
0.00262094
0.00262121
0.00262107
0.00262116
0.0026213
0.00262123
0.00262125
0.00262044
0.00262123
0.00262122
0.00262123
0.00262114
0.00262166
0.00262119
0.00262148
0.00262067
0.00262119
0.00262148
0.00262167
0.00262074
0.00262074
0.00262075
0.00262065
0.00262076
0.00262119
0.00262167
0.00262148
0.00262065
0.00262065
0.00262119
0.00262159
0.00262148
0.00262129
0.00262127
0.00262121
0.00262151
0.00262149
0.00262143
0.00262087
0.00262143
0.00262088
0.00262161
0.00262074
0.00262143
0.00262074
0.00262122
0.00262106
0.00262101
0.00262164
0.00262102
0.002621
0.00262108
0.00262106
0.00262114
0.00262123
0.0026211
0.00262087
0.00262088
0.00262149
0.00262106
0.00262122
0.00262168
0.00262095
0.00262109
0.00262114
0.0026214
0.00262154
0.00262085
0.00262103
0.00262155
0.00262148
0.0026216
0.00262119
0.00262107
0.00262159
0.00262047
0.00262143
0.00262047
0.00262093
0.00262109
0.00262143
0.0026215
0.00262155
0.00262113
0.00262096
0.00262119
0.00262136
0.00262147
0.00262155
0.00262115
0.00262113
0.00262113
0.00262102
0.0026212
0.00262155
0.00262107
0.00262122
0.00262158
0.00262156
0.00262115
0.00262114
0.00262143
0.00262074
0.00262156
0.00262074
0.00262143
0.00262132
0.00262095
0.0026211
0.00262106
0.00262106
0.00262093
0.00262077
0.00262112
0.00262155
0.00262142
0.00262086
0.00262111
0.00262103
0.00262111
0.00262147
0.00262073
0.00262158
0.00262118
0.00262102
0.00262073
0.00262146
0.00262113
0.00262132
0.00262112
0.00262156
0.00262114
0.00262114
0.00262121
0.00262121
0.00262137
0.00262126
0.0026211
0.00262148
0.00262118
0.00262112
0.00262111
0.00262111
0.00262146
0.00262146
0.00262117
0.00262127
0.00262147
0.00262159
0.00262149
0.00262145
0.00262113
0.00262146
0.00262146
0.00262148
0.00262145
0.00262093
0.00262143
0.0026215
0.0026211
0.00262143
0.00262102
0.00262093
0.00262115
0.00262088
0.00262113
0.00262149
0.00262113
0.00262113
0.00262146
0.00262107
0.0026215
0.00262106
0.00262103
0.00262093
0.00262113
0.00262107
0.00262154
0.00262142
0.00262148
0.00262111
0.00262116
0.00262115
0.00262103
0.0026211
0.00262109
0.0026211
0.0026213
0.0026214
0.00262104
0.00262149
0.00262103
0.00262108
0.00262147
0.00262099
0.0026211
0.00262098
0.00262112
0.00262114
0.00262102
0.00262136
0.00262111
0.0026214
0.00262103
0.00262106
0.00262106
0.00262107
0.00262107
0.00262107
0.00262108
0.00262111
0.00262095
0.00262095
0.00262094
0.00262095
0.00262087
0.00262087
0.00262137
0.00262111
0.0026211
0.00262128
0.00262094
0.00262093
0.0026211
0.0026214
0.00262111
0.00262112
0.00262137
0.00262098
0.00262137
0.00262102
0.00262111
0.00262136
0.00262139
0.00262154
0.00262152
0.00262103
0.00262157
0.00262119
0.0026214
0.0026213
0.00262111
0.00262107
0.00262065
0.00262107
0.00262158
0.00262139
0.0026211
0.00262115
0.0026214
0.00262107
0.00262131
0.00262065
0.0026214
0.00262106
0.00262107
0.00262116
0.00262094
0.00262107
0.00262088
0.00262118
0.00262159
0.0026216
0.00262091
0.00262125
0.00262116
0.00262138
0.00262097
0.0026211
0.00262139
0.00262109
0.00262136
0.00262114
0.00262136
0.00262139
0.00262056
0.00262092
0.00262093
0.00262093
0.00262112
0.00262136
0.00262076
0.00262107
0.00262126
0.00262135
0.00262138
0.00262091
0.00262137
0.00262093
0.00262137
0.00262159
0.00262135
0.00262156
0.00262102
0.00262136
0.00262055
0.00262137
0.00262104
0.00262137
0.00262105
0.00262137
0.0026212
0.00262167
0.00262121
0.00262137
0.0026209
0.00262137
0.00262126
0.00262106
0.0026211
0.00262137
0.00262136
0.00262131
0.00262103
0.00262135
0.00262116
0.0026212
0.00262089
0.00262136
0.00262132
0.00262125
0.00262132
0.00262136
0.00262131
0.00262099
0.00262116
0.00262132
0.00262137
0.00262114
0.00262113
0.00262135
0.00262089
0.00262171
0.0026212
0.00262155
0.00262125
0.00262188
0.00262188
0.00262188
0.00262188
0.00262187
0.0026219
0.0026219
0.00262101
0.00262079
0.00262116
0.00262126
0.0026213
0.00262132
0.00262114
0.00262132
0.00262132
0.00262079
0.00262131
0.00262098
0.00262143
0.00262096
0.0026212
0.00262127
0.00262132
0.00262091
0.00262121
0.00262126
0.0026212
0.00262126
0.00262131
0.0026214
0.00262126
0.00262122
0.00262098
0.00262129
0.00262132
0.0026213
0.00262127
0.00262121
0.00262114
0.0026213
0.00262114
0.00262121
0.00262127
0.00262115
0.00262122
0.00262131
0.00262106
0.00262126
0.00262081
0.00262159
0.00262102
0.00262099
0.00262121
0.00262126
0.00262109
0.00262171
0.00262121
0.00262126
0.00262166
0.00262057
0.00262057
0.0026212
0.0026213
0.00262125
0.0026213
0.0026204
0.0026204
0.00262115
0.00262116
0.00262116
0.00262172
0.00262131
0.00262104
0.00262128
0.00262129
0.00262127
0.00262171
0.00262106
0.00262131
0.00262121
0.00262121
0.00262128
0.00262126
0.00262128
0.00262128
0.00262167
0.00262156
0.00262126
0.0026212
0.00262126
0.00262129
0.00262126
0.00262125
0.00262126
0.0026216
0.00262096
0.0026213
0.00262109
0.00262106
0.0026216
0.00262121
0.00262121
0.00262088
0.00262056
0.00262056
0.0026209
0.00262132
0.0026212
0.0026216
0.00262058
0.00262043
0.00262043
0.00262171
0.00262075
0.00262067
0.00262122
0.00262094
0.00262117
0.00262111
0.00262105
0.00262104
0.00262116
0.00262171
0.0026212
0.0026211
0.00262104
0.00262169
0.00262071
0.00262168
0.00262104
0.00262112
0.00262136
0.00262119
0.00262116
0.00262085
0.00262115
0.00262085
0.00262121
0.00262105
0.00262068
0.00262068
0.00262161
0.00262109
0.00262181
0.00262181
0.00262181
0.00262107
0.00262173
0.00262182
0.00262129
0.00262181
0.00262084
0.00262084
0.00262181
0.00262124
0.00262168
0.00262182
0.00262167
0.00262183
0.00262167
0.00262075
0.00262162
0.00262172
0.0026218
0.00262117
0.00262101
0.00262168
0.00262117
0.00262181
0.00262113
0.00262124
0.00262183
0.00262169
0.00262183
0.00262171
0.00262122
0.00262081
0.00262043
0.00262044
0.00262111
0.00262043
0.00262043
0.00262044
0.00262052
0.00262161
0.0026207
0.0026209
0.00262079
0.00262112
0.0026205
0.0026205
0.00262079
0.00262171
0.00262125
0.00262173
0.0026217
0.00262167
0.00262059
0.00262059
0.00262061
0.0026206
0.00262059
0.00262045
0.00262061
0.00262049
0.00262043
0.00262059
0.00262059
0.00262043
0.00262045
0.0026205
0.00262061
FIELD solute_flux_TPM 2
S_ext 3 563 float
-2.5486e-05 8.41895e-06 2.69549e-18
2.31447e-06 3.4424e-06 -2.67161e-18
-5.71233e-06 -4.15605e-06 9.96184e-19
-1.91665e-06 2.00367e-06 -9.95247e-19
1.44667e-05 -4.35547e-06 1.19742e-18
9.50869e-07 -6.90141e-06 4.08942e-19
-2.51017e-05 -8.52212e-06 3.00612e-18
-7.04206e-06 -4.44355e-06 -7.56495e-19
8.80043e-06 5.13335e-07 2.49754e-19
5.44982e-06 -2.44986e-06 3.39382e-19
1.73893e-05 4.02232e-06 1.54641e-18
5.07661e-07 -8.28569e-06 3.27767e-19
6.66667e-06 4.56387e-06 8.20215e-20
1.99784e-06 6.83555e-06 2.56936e-19
1.31195e-05 -2.26071e-06 2.03692e-18
-6.92547e-06 -1.12673e-07 -1.33902e-18
2.29446e-06 7.84824e-06 -9.17372e-19
4.52027e-06 -1.27605e-06 5.82402e-21
3.93372e-06 6.7589e-06 1.06742e-18
-6.24769e-06 8.76806e-07 4.08902e-19
-1.06254e-06 -9.04757e-06 3.25636e-19
2.85893e-05 4.03785e-05 -8.1372e-20
6.58449e-06 7.49504e-07 1.08221e-18
5.0003e-06 -4.63295e-06 8.02073e-20
-6.31639e-06 -1.60525e-06 9.09869e-19
2.24658e-07 -5.37675e-06 1.83435e-18
1.99118e-05 -1.48439e-06 -8.18228e-20
6.67831e-06 4.53835e-06 2.16443e-18
-8.506e-06 -7.04087e-06 3.96902e-19
3.19816e-05 -8.67172e-06 -8.67521e-19
-7.27396e-06 -3.33521e-06 1.33065e-18
1.95603e-06 -1.09869e-05 6.38524e-19
1.49155e-05 -1.51269e-05 9.36045e-19
-3.49233e-06 -2.6965e-05 2.57567e-18
-1.93809e-05 2.38003e-05 -7.74566e-19
-2.51035e-05 -1.04398e-05 1.72253e-19
2.14207e-05 2.77486e-05 -2.42477e-18
-2.89676e-05 -5.90473e-06 1.46672e-18
6.99733e-06 -4.50318e-06 -1.70029e-19
1.45898e-05 1.57607e-05 6.24321e-19
1.10653e-05 -4.69177e-06 -4.00282e-19
2.17764e-05 -2.67275e-05 2.16468e-18
-1.22674e-05 -3.21931e-05 1.03985e-18
-6.84936e-06 3.45483e-06 9.1263e-19
9.88066e-06 -9.6262e-06 3.93677e-19
-1.02947e-05 3.61957e-06 1.52853e-18
-1.51222e-06 -8.12704e-06 -8.77349e-20
3.04399e-06 8.06834e-06 1.1534e-18
-7.32705e-06 2.99443e-06 6.61881e-19
-6.02272e-06 9.56744e-06 -7.54727e-20
1.11085e-05 5.04527e-06 7.19497e-19
1.0393e-05 -3.76571e-06 3.27555e-19
-1.01367e-05 9.79925e-06 8.58669e-19
-8.30903e-06 -7.02225e-06 -3.28867e-19
-1.33274e-05 -3.51716e-06 -6.85256e-19
-1.40773e-05 8.50493e-06 1.10876e-18
-1.91989e-05 -2.45129e-05 1.19735e-18
2.05295e-06 -1.07768e-05 9.6726e-19
-3.08417e-05 4.41467e-06 3.42817e-19
2.43609e-06 5.88639e-06 4.12217e-19
-2.82423e-06 -5.14834e-06 1.92517e-18
-3.43075e-06 -1.10292e-05 6.69684e-19
1.80256e-05 7.77058e-06 -3.97253e-19
6.16285e-06 1.02643e-05 -7.57783e-19
7.90074e-06 -8.3996e-06 1.09768e-18
-1.55272e-06 -1.11638e-05 1.7574e-18
3.24721e-06 -4.98004e-06 1.67869e-18
-4.57611e-06 -3.13991e-06 1.08017e-18
-4.62427e-06 4.89045e-06 5.87435e-19
1.06304e-06 -2.54203e-06 -4.97998e-19
-9.70975e-06 -9.84324e-06 1.27106e-18
-1.34547e-05 3.53484e-06 7.71588e-19
-1.35021e-06 1.16111e-05 1.44597e-18
-9.69688e-06 5.99935e-06 9.25503e-19
-3.94789e-06 6.07221e-06 1.00524e-18
-1.84995e-05 2.43601e-06 2.57254e-18
5.22134e-06 -1.27137e-05 1.86447e-18
-1.04934e-05 -4.16631e-06 -8.57627e-20
4.50657e-07 5.6504e-06 -1.59087e-18
9.60974e-06 1.7854e-06 -8.10735e-20
1.13032e-05 -9.43951e-06 -9.59795e-19
1.44474e-05 1.28356e-05 -2.22995e-18
7.22357e-06 -2.17098e-06 5.92555e-19
-1.05183e-05 7.63997e-06 -1.58534e-19
1.28323e-05 1.72294e-06 -3.22095e-19
-1.76691e-06 1.56753e-05 5.51604e-19
-5.23897e-07 -7.76242e-06 -3.39195e-19
9.85871e-06 4.99964e-06 1.69912e-19
9.50152e-06 9.8828e-06 -8.70567e-19
4.23648e-05 2.63633e-05 2.69188e-19
-1.70434e-06 1.08239e-05 8.09754e-19
4.42753e-05 -2.48826e-05 6.9325e-19
-1.68779e-05 2.72351e-06 -1.87426e-18
9.48497e-06 6.36233e-06 -4.17203e-19
-1.02734e-05 3.62499e-06 3.24819e-19
5.65534e-06 9.70267e-06 1.20348e-18
3.22774e-06 -1.4394e-05 2.07121e-18
5.23408e-07 5.66351e-06 -5.86299e-19
-8.3494e-06 -1.08374e-05 6.76111e-19
8.77641e-07 7.84189e-06 1.64088e-19
9.84625e-06 2.18893e-06 9.02346e-19
-5.12229e-06 1.11861e-05 8.07677e-19
1.33243e-05 -4.52756e-06 -4.78891e-19
-1.76203e-06 3.25036e-06 4.27734e-19
5.21354e-06 2.43354e-06 1.42412e-18
-6.41743e-07 -5.48214e-06 1.63972e-19
2.49017e-06 -1.1258e-05 2.1051e-18
7.64377e-06 2.10508e-06 -7.45434e-19
-2.53524e-06 1.34053e-05 3.20015e-19
-5.8576e-06 -2.7672e-07 9.31619e-19
4.21648e-06 4.92844e-06 -1.88926e-21
-8.03674e-07 -1.35785e-05 1.02262e-18
1.37578e-05 4.40905e-06 1.03472e-18
2.01452e-06 -3.22673e-06 -5.9182e-19
-5.12619e-06 -2.09116e-06 2.75456e-18
-1.00869e-05 -4.49933e-06 -1.22271e-18
1.02034e-05 2.72942e-05 -1.03171e-18
-1.38207e-05 -5.01416e-06 1.27254e-18
1.03455e-05 -2.73696e-05 2.53741e-19
-1.10002e-06 -1.11799e-05 1.70244e-18
8.48311e-06 1.72459e-07 -4.07834e-19
-4.23313e-06 1.17773e-05 -6.93972e-19
-1.18841e-06 1.94998e-06 5.87558e-19
-2.84351e-06 -9.18205e-06 1.67518e-18
2.80573e-06 -5.28896e-06 8.88311e-20
6.19486e-06 9.7898e-06 -5.06964e-19
2.17412e-05 7.36981e-06 1.88781e-18
4.65162e-06 -3.22906e-06 -4.23107e-19
-2.64655e-06 -1.4565e-05 1.54677e-19
9.18414e-06 -6.53115e-06 -5.66863e-19
3.27932e-06 1.7508e-05 -1.0215e-18
-1.19465e-06 -1.75537e-06 1.75034e-18
-5.49955e-06 -4.77073e-06 6.62806e-19
-2.62681e-06 4.27529e-07 3.33961e-19
-7.76596e-06 9.48289e-06 1.94121e-18
1.2927e-05 -2.43037e-05 2.41579e-18
-8.49781e-06 1.35209e-05 -7.72451e-20
-7.33985e-06 4.67969e-06 4.96616e-19
1.19929e-06 7.66426e-06 -7.50965e-19
-1.45625e-05 -2.33194e-05 1.03568e-18
4.68476e-06 1.14033e-05 -8.20817e-20
9.14346e-06 3.90744e-06 -1.6566e-19
8.94927e-06 -3.66331e-06 4.96591e-19
-1.16108e-06 -5.54067e-06 1.08089e-18
-1.08771e-05 -9.98375e-06 6.3522e-19
-7.39888e-07 5.58115e-06 -1.33232e-18
8.69488e-06 5.28319e-06 8.37845e-19
8.46476e-06 -4.50104e-06 -2.47164e-19
3.73285e-06 -5.93299e-06 -4.19083e-19
9.14442e-06 -3.93502e-06 -7.75793e-20
7.973e-06 -3.78224e-06 -7.39887e-19
2.68097e-06 5.70976e-07 3.31124e-19
8.84657e-06 7.00896e-06 4.80033e-19
-6.16821e-07 -7.77823e-06 9.12136e-19
-5.46957e-06 -1.67079e-06 -7.56204e-19
9.82409e-07 -1.93789e-06 -1.01021e-18
-2.4211e-06 8.03279e-06 7.55861e-19
-1.17189e-05 1.00191e-06 1.69742e-18
-4.02294e-06 -1.12909e-05 1.13022e-18
-3.49378e-06 4.23087e-06 -7.85206e-20
5.60615e-06 6.48613e-06 8.24603e-19
9.14866e-06 -6.55602e-06 -2.42056e-19
-1.18303e-05 -6.5022e-06 -3.19912e-19
5.94431e-06 -9.40215e-06 -5.61739e-19
7.92022e-06 -9.26449e-06 7.27122e-19
-5.09751e-06 2.30507e-06 1.83213e-18
-6.76e-06 -9.68233e-06 9.65763e-19
-1.16858e-05 -2.04471e-06 8.87612e-19
-1.42685e-06 -1.08417e-05 9.61169e-19
5.23508e-06 -1.08498e-05 1.61666e-18
-6.15986e-06 -1.60051e-05 1.09599e-18
1.45383e-06 1.10248e-05 1.21686e-18
-5.36024e-06 -9.60483e-06 -7.26081e-19
2.44535e-06 -8.54396e-06 5.00019e-19
-8.75122e-06 6.22325e-06 1.38336e-18
-8.4759e-06 -7.5377e-06 1.26199e-18
-1.69955e-05 -2.60879e-06 8.63539e-20
7.49187e-06 -4.61159e-06 6.68176e-19
-2.4398e-06 1.52953e-05 5.90098e-19
6.63253e-06 -4.20051e-06 -8.84873e-20
-1.00595e-05 -4.35381e-06 -8.88515e-19
-4.60836e-06 -3.23881e-06 -1.25776e-18
4.7981e-06 3.217e-06 1.68628e-19
7.43232e-06 9.73781e-06 -2.43534e-19
-9.15309e-06 -6.03607e-06 -5.9275e-19
-1.08945e-05 -2.79743e-07 2.32415e-18
-9.49219e-06 -2.05217e-06 -1.68512e-18
-2.95048e-06 -9.19147e-06 1.84818e-18
1.05855e-05 1.36368e-05 -6.73461e-19
-5.76645e-06 2.36894e-06 5.94562e-19
6.9067e-07 -1.09719e-05 2.34905e-18
-1.34902e-05 3.59243e-06 1.55227e-19
8.93684e-06 6.983e-06 -7.30459e-19
1.37622e-06 1.1204e-05 -6.42922e-19
-9.88448e-07 2.31125e-06 -1.08577e-20
-3.91888e-06 1.03676e-07 2.99881e-18
1.98714e-06 3.34818e-06 -2.50212e-19
-7.00805e-06 2.45624e-06 -2.53095e-18
-1.42618e-06 -1.85517e-06 4.96029e-19
1.51377e-06 1.09559e-05 2.56251e-19
2.57098e-06 -2.09668e-07 -2.09124e-18
-7.68188e-06 1.95664e-06 1.39996e-18
-6.24455e-06 6.96839e-06 4.12257e-19
-1.4823e-06 7.15184e-06 2.38666e-19
-9.78567e-06 6.27419e-06 6.46375e-19
-5.95846e-06 5.13677e-06 9.27794e-19
9.04711e-06 -6.91422e-06 -4.22639e-19
1.24861e-05 -1.3247e-06 -4.82851e-19
-1.25492e-05 6.51498e-06 -5.9787e-19
8.88574e-07 2.72442e-06 -8.3348e-19
1.31104e-05 -1.89622e-06 2.1143e-18
-8.76119e-06 5.96328e-06 1.25498e-18
-4.58149e-06 3.14882e-06 7.45629e-19
7.30089e-06 2.75766e-06 2.27404e-18
8.25648e-06 -5.19165e-06 1.22914e-18
-9.01726e-06 4.96107e-06 7.53559e-19
-9.0288e-06 -1.91036e-06 1.78538e-18
-9.50686e-06 -2.0371e-06 -2.53482e-18
6.08231e-06 4.42147e-07 -1.72025e-19
6.18273e-06 -3.71399e-07 -9.1787e-19
3.07463e-06 4.75391e-06 -2.00239e-18
3.2761e-06 -4.97648e-06 4.98845e-19
-2.62473e-06 5.24599e-06 1.32997e-18
-2.70221e-06 -5.33475e-06 2.17227e-18
4.69132e-06 -4.25396e-06 -5.01658e-19
-1.2798e-05 2.35028e-06 -1.61334e-18
-1.26477e-05 -2.38602e-06 -1.69923e-19
-8.35296e-06 9.85401e-06 2.54863e-18
-8.38669e-06 -9.87974e-06 1.25948e-18
4.53492e-06 -1.28661e-05 7.66376e-19
4.37e-06 1.27738e-05 -1.52972e-18
7.0423e-07 9.64022e-06 8.29901e-20
6.09674e-06 -8.50847e-07 2.42987e-18
1.29372e-06 -1.90504e-06 8.30846e-19
-8.36604e-06 7.27412e-07 1.485e-18
4.63182e-06 -1.26648e-05 -5.948e-19
4.39597e-06 1.27044e-05 -5.85368e-19
2.43009e-06 -4.28766e-08 -4.94371e-19
3.29673e-06 8.86583e-06 1.54618e-18
-1.10149e-06 -2.01572e-06 6.65388e-19
7.38493e-07 -5.56806e-06 1.60096e-19
-8.41246e-06 -4.40953e-06 -2.89973e-21
-1.27784e-05 -6.68669e-06 5.05937e-19
-8.08311e-06 5.15233e-06 7.39211e-19
1.607e-06 -7.71539e-06 3.39547e-19
-7.89824e-07 1.62654e-06 6.77939e-19
-3.27027e-07 -9.58463e-06 1.63076e-18
-2.81129e-06 -8.85296e-06 1.37918e-18
1.08167e-05 9.86264e-06 1.27554e-18
1.2033e-05 -5.65017e-07 -1.0341e-18
-7.61727e-06 -2.61893e-06 5.09459e-19
-7.34341e-06 -1.31785e-05 1.35074e-18
3.67821e-06 5.91258e-06 7.47735e-19
-9.07326e-06 1.07227e-06 2.03001e-18
8.03102e-06 2.33765e-06 1.73049e-18
-2.26131e-06 -9.60802e-09 -2.60758e-19
-3.0866e-06 -4.81877e-06 1.58517e-18
-5.37043e-06 -2.5353e-05 1.03227e-18
-5.79993e-06 3.45756e-07 8.25223e-20
-1.53035e-05 -5.68741e-07 1.11378e-18
6.38493e-06 -7.00171e-06 -6.50963e-19
1.31687e-06 1.96798e-06 -7.46804e-19
-2.47549e-07 -8.3838e-06 2.33403e-18
-3.55727e-06 8.64035e-06 -3.24339e-19
-2.94871e-06 4.91886e-06 1.09066e-18
8.27517e-06 -5.18043e-06 -4.08073e-19
-2.46451e-05 -8.0008e-06 1.91003e-18
-5.5043e-06 -7.35539e-06 8.93717e-19
2.70828e-06 5.30593e-06 -8.30714e-19
9.65119e-06 1.94083e-06 -8.69736e-20
-2.08569e-06 -3.16512e-06 1.62714e-19
1.26803e-05 2.63203e-06 1.00986e-18
9.98317e-06 -5.00832e-06 7.54418e-19
-1.19853e-07 1.67626e-05 -1.36432e-18
3.72906e-06 -5.96008e-06 -1.72463e-19
1.57892e-05 5.51097e-07 4.73375e-19
-1.3454e-05 3.45009e-06 1.25942e-18
1.42096e-05 6.86778e-06 2.30702e-18
-2.51785e-06 -7.05583e-06 4.09964e-19
-7.45193e-06 -3.92379e-06 -1.0911e-18
1.04634e-05 -7.16598e-08 -8.99219e-19
-5.52104e-07 -1.44482e-05 2.70568e-18
-6.13342e-06 -6.41675e-06 4.12834e-19
3.7729e-06 -8.5498e-06 -8.63739e-20
-5.93727e-07 1.07538e-05 -1.84687e-18
2.75675e-06 9.69043e-06 -4.09581e-19
8.63365e-06 -5.09045e-06 5.00649e-19
-7.15779e-06 6.91791e-06 4.95851e-19
6.04806e-06 7.29317e-06 -8.14649e-20
-4.29735e-05 1.01874e-05 8.76284e-19
-6.78393e-06 1.59576e-05 -1.36139e-18
8.21487e-06 -9.51872e-06 2.5136e-19
-4.17525e-06 -1.17934e-05 5.88401e-19
-6.23208e-06 1.65707e-06 2.58179e-19
-9.46698e-06 -2.84065e-06 -2.50787e-19
-4.48808e-06 2.52462e-05 -8.54889e-19
-6.36932e-06 7.31486e-06 -4.3247e-19
8.56775e-06 -2.25663e-06 2.56851e-18
-2.30156e-06 -9.64739e-06 2.37337e-18
-5.37622e-06 8.55407e-06 8.21556e-19
-1.31842e-05 7.73437e-06 -6.01378e-19
-7.56702e-06 -5.63431e-06 -8.51677e-20
1.07863e-05 -1.3332e-05 1.52831e-18
-9.88752e-06 -5.56212e-07 2.04234e-18
3.98438e-06 -1.32672e-05 2.28778e-18
7.47175e-06 -6.88519e-06 3.30291e-19
7.99238e-06 1.39134e-05 -2.42448e-19
1.36677e-06 1.13952e-05 5.96778e-19
1.20906e-06 -9.46882e-06 5.66144e-19
-2.78699e-05 3.28757e-05 -1.48078e-18
-4.54919e-06 -8.83398e-06 4.0546e-19
9.73395e-06 -3.18539e-06 2.52479e-18
-9.51809e-07 9.5198e-06 -6.52924e-19
6.84537e-06 -7.46076e-06 1.09569e-18
5.08867e-06 8.81572e-06 9.01725e-19
7.39995e-06 -8.70615e-07 7.54096e-19
6.7748e-06 -1.96827e-05 2.35832e-18
-2.31261e-06 -5.52538e-06 -5.87209e-19
-8.61979e-06 3.66434e-06 -5.73681e-19
-1.23818e-05 1.1969e-05 -8.68356e-21
8.08672e-06 5.51239e-06 6.50586e-19
7.97517e-06 -4.73183e-06 -8.02711e-20
7.63239e-06 7.38765e-06 1.68976e-18
-3.13849e-06 -4.02035e-07 2.69314e-18
5.70894e-06 -8.38095e-06 -1.60634e-19
-6.40314e-06 -7.36204e-06 4.90396e-19
8.84787e-06 4.08175e-06 1.07053e-18
7.02346e-06 -7.0897e-06 4.20959e-19
3.39853e-06 -9.27297e-06 1.14274e-18
7.74491e-06 -4.03646e-06 1.17177e-18
-7.11933e-06 -3.63576e-06 -5.02278e-19
1.01669e-06 -1.60912e-05 1.35591e-18
-9.54104e-06 1.87792e-06 -3.31904e-19
7.24366e-07 9.58994e-06 6.57642e-19
8.56345e-06 3.21302e-06 1.07824e-18
-8.39231e-06 -4.38925e-06 6.56267e-19
-3.08634e-06 9.4595e-06 -5.70228e-19
-3.53553e-07 -9.52807e-06 2.38083e-18
1.13558e-05 7.09163e-06 1.01687e-18
-6.93526e-08 8.83773e-06 2.56882e-19
-7.98598e-06 5.14739e-06 4.94099e-19
8.91487e-06 4.18074e-06 1.63478e-18
-8.18529e-06 -5.62616e-06 -5.08732e-19
8.22755e-07 -9.94103e-06 -8.69386e-21
7.03985e-06 7.2535e-06 1.62879e-19
-1.34264e-05 -8.90697e-06 5.98317e-19
1.52311e-05 -1.08381e-05 1.38489e-18
8.36792e-06 -4.69618e-06 1.94077e-21
2.80575e-06 1.40554e-05 -3.20494e-19
7.57294e-06 -5.44647e-06 1.68418e-19
-6.81388e-06 2.66621e-05 -1.04273e-18
-6.84444e-06 -2.64156e-05 2.00369e-18
1.74173e-05 2.26244e-05 -7.44189e-19
1.72155e-05 -2.26192e-05 5.19368e-19
2.83564e-05 -1.75147e-08 2.14919e-18
-2.4353e-05 9.94769e-06 -4.42972e-19
-2.39676e-05 -1.00464e-05 1.2639e-18
6.83976e-06 7.16563e-06 -7.7017e-20
1.89074e-05 1.4299e-05 2.151e-18
5.10658e-06 1.86986e-06 3.40011e-19
8.08854e-06 4.07448e-06 1.07656e-18
1.94823e-06 8.05916e-06 -1.23887e-18
-7.55856e-06 -5.62467e-06 -4.12682e-19
9.00122e-06 -4.56177e-06 1.16869e-18
8.0421e-06 5.50285e-06 1.64465e-18
-9.31792e-07 9.5371e-06 7.42648e-19
1.90295e-05 -1.31032e-05 8.50686e-19
1.23653e-06 -9.39403e-06 1.72211e-18
1.31477e-05 2.35486e-06 -4.26116e-19
1.05159e-05 4.09265e-06 6.47315e-19
9.22314e-06 8.70718e-06 -4.17617e-19
6.99993e-06 3.20227e-06 3.56399e-21
-7.71717e-06 4.70051e-06 1.07863e-18
-8.68733e-06 3.7973e-06 -8.22555e-19
1.4249e-05 -6.7177e-06 1.35883e-18
-8.10041e-06 -4.76423e-06 -1.08683e-18
-7.90907e-06 -4.36792e-06 7.87068e-20
1.49933e-07 -9.41086e-06 1.9095e-18
-1.15455e-07 -9.01085e-06 4.04169e-19
-7.76405e-06 -4.27188e-07 9.82768e-19
9.72697e-06 -1.44775e-06 8.9451e-19
7.69354e-06 4.86622e-06 5.77986e-19
-8.16943e-06 4.6919e-06 1.08065e-18
-8.52533e-06 1.02255e-05 9.25172e-19
6.58378e-06 -5.52576e-06 8.88117e-22
-4.26777e-06 6.70132e-06 1.40408e-18
-5.61752e-06 -5.79831e-06 -4.13042e-19
-4.61062e-07 8.79364e-06 5.81147e-19
-8.57806e-08 9.47252e-06 6.66999e-19
-9.14592e-08 -9.9327e-06 1.33147e-18
2.40328e-06 -7.79095e-06 -1.4053e-18
-8.62584e-06 -4.79396e-06 -2.56656e-19
6.69783e-06 -2.62205e-06 2.34798e-21
4.08928e-07 9.02353e-06 2.06748e-18
2.79442e-07 8.90919e-06 8.42139e-19
-7.5638e-07 7.38368e-06 -1.24142e-18
8.50641e-06 -2.19244e-06 -4.899e-19
-9.7051e-06 2.30037e-06 5.11208e-19
1.34001e-06 9.03229e-06 -8.5529e-20
-2.08978e-05 8.00028e-06 8.4446e-20
3.15137e-06 1.35411e-05 -1.1077e-18
-9.78702e-06 2.17981e-06 -8.1742e-20
1.16405e-05 -6.99915e-06 1.09462e-18
1.25759e-07 9.47736e-06 -1.66942e-19
-8.26146e-06 3.16744e-06 3.29275e-19
1.77291e-06 -8.50337e-06 7.50119e-19
3.91474e-07 -1.82049e-05 2.23911e-18
7.06096e-07 7.84464e-06 -3.35906e-19
-7.32376e-06 5.48777e-06 -2.44052e-19
5.47967e-06 1.99464e-05 -1.18013e-18
3.12299e-05 2.59495e-05 -1.12972e-18
3.58802e-05 -2.45397e-05 2.17384e-18
6.98901e-06 -4.52079e-06 1.66672e-19
-6.30781e-06 5.50736e-06 2.50776e-19
-8.30181e-06 -3.73611e-06 -1.41329e-18
-7.8116e-06 -2.77965e-06 -4.13958e-19
4.45093e-05 -1.22607e-05 1.66143e-19
4.53699e-05 9.5535e-06 4.45168e-19
4.90194e-06 2.0493e-06 1.72251e-19
-2.66088e-07 9.48185e-06 6.68379e-19
1.34331e-07 9.49259e-06 8.37772e-19
-1.50744e-05 -1.11223e-05 6.89576e-19
4.55154e-06 -6.65924e-06 -4.9514e-19
6.33525e-06 7.81187e-06 -4.13128e-19
-8.40258e-06 -1.62595e-06 4.91778e-19
-5.71849e-06 6.56726e-06 9.984e-19
-7.83997e-06 3.82505e-06 -2.49547e-19
1.50551e-05 1.07763e-05 7.27092e-20
8.92895e-06 3.60732e-06 1.00984e-18
-2.10983e-06 7.85866e-06 -4.90734e-19
-7.9758e-06 -4.93366e-06 4.9678e-19
4.07048e-07 -9.38475e-06 1.32543e-18
-3.30832e-06 -7.71929e-06 -9.95652e-19
-7.18078e-06 -4.86558e-06 1.15736e-18
4.15455e-06 -7.47207e-06 1.15377e-18
5.97484e-06 -6.55467e-06 -3.32034e-19
-8.78672e-07 -1.91025e-05 1.79551e-18
8.46007e-06 -1.33057e-05 9.54098e-19
7.33681e-07 -8.66299e-06 4.05383e-19
8.4026e-06 4.79986e-06 9.14525e-19
-6.31936e-06 -5.83683e-06 -2.27467e-22
-3.71671e-06 7.73237e-06 -4.88236e-19
-1.63075e-06 8.73066e-06 6.66727e-19
7.33464e-06 5.5638e-06 6.63415e-19
2.16301e-06 -8.35543e-06 2.47958e-18
-4.4949e-06 -1.29276e-05 -8.22023e-20
-1.46245e-06 1.49909e-05 -2.50615e-19
6.043e-06 5.71993e-06 1.63897e-19
-6.49436e-06 -5.72402e-06 -9.02708e-20
-7.24632e-06 6.07099e-06 1.59273e-18
1.44188e-05 -6.07539e-06 -1.10804e-18
3.14816e-06 -5.75702e-06 4.09378e-19
-3.71633e-06 -5.22933e-06 -1.08339e-18
1.36809e-05 4.43199e-06 3.06962e-18
8.75777e-06 -3.15642e-05 1.1286e-18
-2.29647e-05 -2.33378e-05 2.60511e-19
1.48269e-05 3.56808e-06 5.09834e-19
-3.57042e-06 -7.0553e-06 4.06289e-19
8.43885e-06 4.70921e-06 -1.16348e-18
-9.2358e-06 -1.03599e-05 7.84417e-19
7.10232e-06 3.20417e-05 2.72578e-19
3.13106e-05 -4.053e-05 1.58485e-18
-1.94498e-05 -4.73651e-05 2.47255e-18
8.54819e-06 -1.65334e-05 2.77687e-18
-8.03819e-06 2.84546e-05 -2.4206e-18
-4.70757e-06 2.50546e-05 -9.48391e-19
-8.27678e-06 4.44494e-06 2.46656e-19
4.13871e-06 1.44349e-05 -3.3629e-19
-7.12551e-07 5.68786e-06 1.08988e-18
4.93513e-06 2.07538e-06 6.76717e-19
-2.52934e-06 9.15928e-06 1.77111e-18
-5.56749e-08 1.17078e-05 8.69028e-20
7.98463e-06 4.76975e-06 -1.66266e-19
3.36255e-07 1.81181e-05 -1.23215e-18
-6.78752e-06 4.25787e-06 -2.16188e-18
8.48585e-06 -2.66778e-06 1.4242e-18
1.0096e-05 -1.82019e-06 5.8515e-19
-1.85561e-05 -2.79384e-06 2.41448e-18
-2.23691e-05 1.06915e-05 2.58274e-19
-1.34111e-05 -1.59425e-05 1.02049e-18
5.45444e-06 4.77469e-06 -6.66206e-19
6.84199e-06 4.36079e-06 4.25879e-19
9.92801e-06 -1.81094e-06 3.51434e-21
-3.53993e-06 -5.73557e-06 -7.54834e-19
8.04031e-06 4.63713e-06 -1.63909e-19
4.86276e-06 -1.90797e-05 2.30304e-18
-7.13897e-06 4.43962e-06 -1.62873e-19
-1.40927e-05 -1.3731e-05 1.36473e-18
-2.11028e-06 7.16595e-06 -6.61504e-19
-2.50642e-06 1.14516e-05 4.22952e-19
2.24188e-05 1.38661e-05 -6.86952e-19
2.3939e-05 -1.26133e-05 9.42985e-19
-1.33709e-05 -3.55802e-06 1.65081e-18
3.54934e-06 4.55839e-06 1.51781e-18
-1.35331e-06 3.09537e-05 -1.5394e-18
1.1358e-07 -3.17865e-05 4.53926e-19
1.56896e-05 2.68476e-05 -1.15283e-18
-1.07628e-05 4.04345e-06 1.01239e-18
-8.53782e-06 1.72963e-05 -1.31176e-18
1.57941e-05 -2.59149e-05 1.84064e-18
-4.68952e-06 -7.04838e-06 1.56697e-18
2.40544e-05 2.07848e-05 1.76674e-18
1.56372e-05 -1.13042e-05 5.97232e-19
-1.98676e-06 -1.917e-05 4.25234e-19
2.51896e-05 -2.03252e-05 1.6983e-18
-2.69756e-06 6.02354e-06 9.18099e-19
-1.6496e-05 -1.04513e-05 -1.10287e-18
-1.3241e-05 -2.76954e-05 6.92597e-19
-7.58574e-06 -1.7991e-05 4.64394e-19
-1.36132e-05 2.81409e-05 -3.85082e-19
-3.23008e-06 1.99282e-05 -6.24432e-19
1.07139e-05 2.40611e-05 -3.38317e-19
-9.04384e-06 1.15978e-05 -1.80788e-18
-8.18068e-06 -1.68665e-05 -1.56046e-19
3.08689e-05 5.45204e-06 1.15943e-18
-8.36865e-06 4.65414e-06 6.90831e-22
-3.86429e-06 9.22778e-06 2.11644e-18
-1.56669e-05 1.122e-05 2.2638e-18
-8.27596e-06 4.87294e-06 4.17434e-19
3.05676e-05 -4.87449e-06 2.376e-18
-7.77046e-06 3.51771e-06 2.58111e-21
3.05713e-06 -6.03192e-06 7.43307e-19
-2.3676e-05 -1.81084e-05 1.53622e-19
-8.17331e-06 1.79617e-05 -4.64197e-19
-2.42303e-05 1.79834e-05 1.07197e-18
7.58469e-06 1.64718e-05 -4.64418e-19
-6.70285e-06 4.51403e-06 -1.74291e-18
-1.27487e-05 1.58414e-05 1.1165e-18
-2.41246e-05 3.04191e-05 -2.63864e-19
-3.7902e-05 -4.82883e-06 -6.1939e-19
-8.58923e-07 8.34907e-06 -6.7088e-19
-2.55344e-05 -3.05469e-05 2.99204e-18
-3.92389e-05 6.85032e-06 2.20252e-18
-1.49888e-05 3.46639e-05 -1.58181e-18
-1.14924e-05 4.58386e-05 6.19348e-19
-5.82527e-06 1.31316e-05 -1.17948e-18
-2.19013e-05 1.76843e-05 -2.59348e-19
1.56278e-05 -3.53959e-06 1.61171e-18
2.48911e-05 -9.29947e-07 7.64147e-19
6.68491e-06 4.55625e-06 1.26357e-18
-8.07645e-06 -5.28222e-05 2.26968e-18
-4.97974e-05 -1.93966e-05 3.47722e-19
2.42176e-05 -1.25924e-07 1.2037e-18
1.84941e-05 -3.57961e-06 3.85157e-19
-4.31075e-06 -5.45968e-06 -3.34649e-19
-1.58896e-05 1.12771e-05 1.15744e-18
-1.4248e-05 1.6398e-05 -3.12089e-19
1.95473e-05 -7.02672e-06 -2.36154e-19
-1.85822e-05 -3.13739e-05 1.98909e-18
-1.89068e-05 3.11212e-05 -5.20762e-19
-3.65758e-05 -1.35916e-06 8.10876e-20
-1.65732e-05 3.27899e-05 -8.68873e-19
-3.64892e-05 4.40154e-07 3.82389e-18
4.56988e-05 1.63209e-05 2.98538e-18
3.66142e-05 1.43439e-06 3.12431e-18
3.45855e-05 -1.76964e-05 1.21663e-18
1.02153e-05 -4.87419e-05 -2.71314e-19
1.81511e-05 -3.17582e-05 1.04005e-18
1.80255e-05 3.17483e-05 -1.73389e-18
1.00062e-05 4.76314e-05 -5.22678e-19
4.98638e-05 -1.40767e-05 -2.72351e-18
3.18605e-05 1.57726e-05 -9.61105e-19
3.04164e-05 8.28282e-06 1.76098e-19
P_ext 3 563 float
-1.3373e-07 4.51491e-08 6.01675e-21
9.40446e-11 4.87631e-09 4.26622e-21
-1.21779e-08 -1.14681e-08 -2.30136e-20
-3.85219e-09 3.54961e-09 6.8848e-21
3.26346e-09 8.84374e-11 1.00196e-20
4.01958e-09 -1.62763e-08 6.1466e-22
-1.31672e-07 -4.56979e-08 -2.39213e-21
-9.51543e-09 -1.08331e-08 -2.57618e-20
2.66372e-08 4.66341e-10 3.23423e-21
9.67986e-09 -8.88108e-10 -7.80935e-21
8.70724e-08 2.0442e-08 1.14749e-20
4.74405e-09 -1.38159e-08 -2.64091e-21
1.08092e-08 1.29142e-08 4.22652e-21
-1.15062e-09 1.00689e-08 7.55316e-21
2.96438e-09 1.15086e-09 2.0057e-21
-1.69875e-08 -2.77984e-10 -1.62798e-20
-2.15919e-09 6.60858e-09 2.65629e-21
1.02341e-08 -1.53598e-09 -1.29913e-20
1.17922e-08 2.10418e-08 -2.57153e-21
-1.57929e-08 1.58796e-09 -5.84982e-21
-5.95155e-09 -2.23689e-08 -1.36044e-20
2.17298e-10 -8.2507e-11 -5.11958e-21
1.74979e-08 1.42099e-09 3.61052e-22
1.11235e-08 -1.28655e-08 8.40119e-21
-1.61341e-08 -2.58748e-09 -1.90933e-20
-3.06166e-09 -8.79686e-09 -1.10907e-20
1.00008e-07 -8.18272e-09 1.06821e-20
1.21013e-08 1.02253e-08 3.59285e-21
-3.64833e-08 -2.89726e-08 -6.92477e-21
2.08478e-09 4.12029e-10 7.75423e-21
-1.61764e-08 -2.8539e-09 -2.11444e-20
7.12093e-09 -4.63945e-08 8.43106e-21
7.51585e-08 -7.69777e-08 -1.20344e-21
1.39795e-10 -3.43706e-09 2.04682e-20
-9.1028e-10 2.63974e-09 -4.70472e-21
-2.87603e-09 -1.87831e-09 -4.43507e-20
3.42244e-10 1.91034e-09 -1.8597e-20
-2.88808e-09 5.01614e-10 -2.01884e-20
1.16779e-08 -1.2743e-08 4.52139e-21
7.33425e-08 8.02209e-08 1.82584e-21
4.67021e-08 -2.1169e-08 -1.57206e-21
6.64565e-10 -1.75311e-09 1.01501e-20
-1.17545e-09 -1.49632e-09 -2.13014e-20
-1.60725e-08 3.27408e-09 -5.22305e-21
4.64394e-08 -4.56122e-08 -4.00096e-21
-4.31648e-08 1.55368e-08 -1.12856e-20
-5.43688e-09 -2.36796e-08 -1.09546e-20
9.78893e-09 2.37773e-08 2.24296e-21
-1.54179e-08 4.01419e-09 -2.20598e-23
-2.67649e-08 4.16167e-08 6.25203e-21
4.74135e-08 2.32303e-08 1.43704e-20
4.11029e-08 -1.35136e-08 -9.30248e-22
-1.1664e-09 2.78749e-09 -1.49726e-20
-3.21626e-08 -2.88675e-08 -1.33094e-20
-3.0539e-09 4.14256e-10 -2.59995e-20
-6.9227e-08 4.06532e-08 2.19186e-21
-8.43132e-10 -2.62918e-09 1.37568e-20
9.16172e-09 -4.2475e-08 -3.50808e-21
-2.67105e-09 -5.97697e-10 -3.67444e-20
7.14959e-09 1.43276e-08 -8.10708e-21
-3.79519e-09 -1.10494e-09 -2.39532e-20
-3.99913e-09 -3.70077e-09 -1.85277e-20
9.01008e-08 3.96655e-08 1.10499e-20
-1.23146e-10 7.71856e-09 1.33475e-21
1.14612e-09 -5.13813e-09 -8.5897e-21
2.0362e-09 -1.15039e-08 9.61079e-22
-8.43086e-10 -3.74645e-09 -1.80284e-20
-9.24681e-09 -2.32183e-09 -2.51324e-20
-1.07824e-08 1.31998e-08 2.62337e-21
2.89039e-09 -1.02525e-09 -8.14665e-21
-1.14935e-09 -2.8699e-09 1.92818e-20
-3.02019e-09 -4.52132e-10 -3.23115e-20
-5.38337e-09 4.98639e-08 6.59588e-21
-9.4462e-09 4.76529e-09 -2.23534e-20
-9.226e-09 1.57826e-08 3.28604e-21
-9.38111e-08 1.10246e-08 -4.53705e-21
-2.29563e-11 -7.26145e-09 -5.65767e-21
-8.87016e-09 -7.46525e-09 -3.18221e-20
3.77214e-09 9.15458e-09 -3.61536e-21
3.57607e-08 7.15313e-09 1.58375e-20
5.1403e-08 -4.47343e-08 -9.44095e-22
1.34619e-09 3.33936e-09 -8.37975e-21
3.38303e-09 1.09226e-09 -6.43011e-22
-4.79109e-08 3.54468e-08 9.31432e-21
5.58464e-08 6.78628e-09 1.13188e-20
-8.49034e-09 7.58732e-08 -1.21565e-21
-2.92966e-09 -1.50407e-08 -1.72427e-20
1.01641e-08 7.16858e-09 -9.68831e-22
4.46697e-08 4.7111e-08 3.65488e-21
7.91651e-10 3.01695e-10 1.06445e-20
-8.59166e-09 4.27159e-08 5.69522e-21
7.13232e-10 -3.37804e-10 2.6649e-20
-5.04341e-09 3.47506e-09 -2.62442e-20
1.10006e-08 4.45753e-09 3.93935e-21
-4.1131e-08 1.27047e-08 -7.28127e-21
2.39093e-08 4.20231e-08 -9.17257e-22
1.48834e-08 -6.72172e-08 1.09012e-20
3.47568e-09 9.06815e-09 -1.50248e-20
-6.21631e-09 -3.67075e-09 -2.65453e-20
5.21427e-09 1.66225e-08 -9.75937e-21
3.47398e-08 5.90331e-09 1.821e-20
-2.31325e-08 4.777e-08 1.13352e-20
6.15776e-08 -2.01263e-08 4.9538e-21
-3.38522e-09 7.39006e-09 -3.19367e-21
6.45369e-09 6.59867e-09 -6.23347e-22
-3.87022e-09 -8.87241e-09 -2.28599e-20
-1.58255e-09 -6.71608e-09 -6.2696e-21
1.79495e-08 2.13565e-09 -1.03806e-20
-1.32214e-08 6.18041e-08 2.18578e-21
-2.98447e-09 1.87989e-09 9.21652e-21
8.94776e-09 1.3288e-08 2.89296e-21
-4.47466e-09 -6.34672e-08 -4.01348e-21
6.41749e-08 1.9271e-08 1.14519e-20
4.32423e-09 -7.65059e-09 1.2979e-20
-9.86744e-09 -1.11008e-09 -1.89291e-20
-4.09298e-08 -1.64166e-08 -2.26651e-21
1.9769e-09 2.09621e-09 -6.04392e-21
-6.51743e-08 -2.27872e-08 6.14936e-22
2.00857e-09 -2.09332e-09 2.2209e-20
-6.33413e-09 -4.4444e-08 -9.53851e-22
2.7357e-08 1.04013e-09 -6.07305e-21
-2.40997e-09 1.99366e-09 -1.00135e-20
6.67264e-10 2.96918e-09 -1.63168e-20
1.85333e-09 -7.92895e-09 8.508e-21
3.15467e-09 -1.43613e-09 5.59133e-21
4.62306e-12 3.1481e-09 -3.29912e-21
2.69663e-09 -3.44289e-10 5.68822e-21
5.13302e-09 -7.61908e-09 9.1134e-21
-1.33511e-08 -6.80551e-08 -4.06857e-21
3.51541e-08 -2.70757e-08 5.38199e-21
7.94041e-11 4.1915e-09 -5.65369e-21
-2.94692e-09 -5.13502e-10 -2.3853e-20
-9.15122e-10 -3.25662e-09 1.86832e-20
-2.41173e-09 -1.72749e-09 -6.85947e-21
-3.2903e-08 4.11152e-08 -3.45348e-21
-3.54059e-11 -3.16291e-09 1.41571e-20
-4.12483e-08 6.47556e-08 1.14592e-20
-1.53431e-08 7.03812e-09 -2.29875e-21
2.14718e-09 2.26627e-09 5.95921e-21
-2.72101e-09 -1.59578e-09 -2.42633e-20
2.00621e-08 4.84258e-08 -6.62887e-21
1.14438e-08 1.02425e-08 -9.74079e-22
2.79956e-08 -9.22322e-09 -6.04535e-22
1.59009e-09 -8.55889e-09 1.36851e-20
-5.10754e-08 -4.70637e-08 9.20609e-22
-4.90009e-09 8.4098e-09 1.6522e-21
1.26343e-08 6.74214e-09 6.54471e-21
1.85344e-08 -6.3646e-09 2.07588e-20
8.00012e-09 -1.6005e-08 1.16437e-20
3.18839e-08 -1.47101e-08 -1.01652e-20
2.11485e-08 -9.98273e-09 -5.14097e-21
2.09785e-09 -1.77474e-09 1.40255e-20
3.70856e-08 2.9336e-08 3.2004e-22
-5.35086e-09 -1.53867e-08 -1.07602e-20
-6.5092e-09 -5.60416e-09 -2.32025e-20
-1.08991e-09 -2.7974e-09 -2.81164e-20
1.49683e-09 1.09481e-08 6.63467e-22
-4.95699e-08 3.55081e-09 -1.60728e-20
-1.81169e-08 -4.73146e-08 4.09309e-21
-7.74296e-09 9.86978e-09 -9.07458e-21
1.52529e-08 2.03493e-08 3.24312e-22
3.81687e-08 -2.70725e-08 -1.03326e-23
-5.59269e-08 -2.99014e-08 -9.43558e-22
2.48282e-08 -4.04302e-08 9.6886e-21
3.22983e-08 -3.97432e-08 1.26431e-21
-9.43098e-09 9.12297e-10 -8.51986e-21
-2.83597e-08 -4.10367e-08 -4.12331e-21
-4.96434e-08 -7.77527e-09 -1.26085e-20
-5.9237e-09 -4.53303e-08 -4.08247e-21
2.20809e-08 -4.56444e-08 2.54269e-21
4.79614e-10 -6.16318e-09 1.62099e-20
6.55871e-09 4.36773e-08 -3.45183e-21
-2.34073e-08 -4.09368e-08 -7.86168e-21
-2.21425e-09 -9.9136e-09 -1.37744e-20
-3.37708e-08 2.52868e-08 -4.40117e-21
-6.53508e-09 -2.1004e-09 -2.00967e-20
-5.0522e-09 -3.50593e-09 -3.35178e-20
1.33726e-08 -6.84625e-09 7.49012e-21
-1.79973e-09 2.53385e-09 5.95873e-21
7.07622e-09 -8.98629e-09 6.26663e-22
-4.20801e-08 -1.87141e-08 -1.03655e-20
-5.50427e-09 -7.44458e-09 -1.66716e-20
5.74789e-09 7.90279e-09 -9.45477e-21
3.0404e-08 4.19836e-08 -7.23822e-21
-1.06334e-08 -4.89477e-09 -2.56405e-20
-4.68293e-08 -1.05224e-09 -1.46624e-20
-5.88942e-09 -5.52163e-09 -2.33364e-20
-3.15179e-10 -7.93348e-09 1.74162e-20
5.78031e-09 2.88222e-09 -4.27955e-21
-6.6912e-09 6.63154e-09 -2.23032e-21
-1.1276e-09 -1.17082e-08 5.89073e-21
-6.25557e-08 1.54015e-08 -1.09177e-20
3.42032e-08 2.91937e-08 4.42499e-21
4.56641e-09 4.75962e-08 -1.3797e-20
-2.74037e-09 9.17569e-10 -1.11612e-20
-9.13613e-09 2.83847e-10 -1.20415e-20
4.18858e-09 8.00992e-09 -1.56273e-20
-3.26344e-09 -8.34717e-10 -3.09385e-20
4.09963e-10 -2.82347e-09 1.43361e-20
-1.84702e-09 1.23999e-08 2.97339e-21
2.00095e-09 2.14821e-09 -1.56833e-20
-2.3145e-08 5.11148e-09 -3.10268e-22
-2.35445e-08 2.56805e-08 -5.67029e-21
-2.51451e-09 2.28301e-09 -6.98125e-21
-4.26767e-08 2.57461e-08 3.44742e-21
-1.04172e-09 3.56733e-09 -3.61261e-21
1.13815e-08 -4.05032e-09 8.17861e-21
5.34692e-08 -4.9163e-09 6.62655e-21
-6.58801e-09 4.16596e-09 -1.75454e-20
2.69266e-09 1.21359e-09 -1.63184e-20
6.84254e-09 -4.32006e-09 7.26238e-21
-1.18414e-08 3.9166e-09 -1.37454e-20
-8.63513e-09 2.23526e-09 -9.49164e-21
2.97731e-09 -9.10532e-10 1.64426e-21
2.82521e-08 -1.71813e-08 6.08762e-21
-1.1021e-08 7.02783e-09 -7.20442e-21
-3.32427e-08 -6.93078e-09 -1.17408e-20
-6.9572e-09 -3.68926e-09 -2.80221e-20
2.63812e-09 -1.79979e-09 9.46188e-21
2.92769e-09 2.10766e-09 -4.56579e-21
-7.90144e-10 3.35175e-09 -2.58409e-21
-3.43412e-10 -3.78341e-09 -1.96335e-20
-3.08787e-09 1.53701e-09 -6.92023e-21
-3.45644e-09 -1.72862e-09 -1.86512e-20
8.67297e-09 -3.24769e-09 -2.94003e-21
-3.10725e-09 -8.97763e-10 -3.34443e-20
-3.09916e-09 8.65299e-10 -1.78692e-20
-7.27189e-10 3.10278e-09 -7.23199e-21
-7.94329e-10 -3.17116e-09 1.58201e-20
2.05542e-09 -2.2773e-09 2.09815e-20
1.97403e-09 2.17657e-09 5.02918e-21
1.21137e-09 3.37244e-08 -4.45011e-21
6.46714e-09 -5.38295e-09 1.11339e-20
1.5105e-09 -2.85956e-09 2.5071e-20
-2.53684e-08 9.31244e-10 -7.73504e-21
2.38621e-09 -2.20633e-09 1.88635e-20
2.22855e-09 2.23969e-09 1.26311e-20
3.4316e-09 -7.59037e-11 -1.2668e-21
1.16769e-08 3.3075e-08 -5.68962e-21
-1.73989e-09 -2.83819e-09 -2.44411e-20
3.77209e-09 -8.59367e-09 2.44429e-20
-2.83728e-08 -1.57009e-08 -8.93351e-21
-6.14569e-09 -3.98479e-09 -2.51288e-20
-2.84864e-08 1.68858e-08 -6.97697e-21
2.50025e-09 -2.51554e-09 1.02194e-20
-1.20477e-09 2.67166e-09 5.92215e-21
-6.66447e-10 -3.26456e-08 3.50099e-21
-1.07028e-08 -3.23598e-08 -1.33307e-20
4.92034e-08 4.68392e-08 4.65524e-21
5.26231e-08 -2.99264e-09 4.68218e-21
-3.64074e-09 8.25414e-10 -1.29078e-21
-3.52138e-08 -6.22177e-08 -3.71038e-21
8.31327e-09 1.42663e-08 6.46701e-22
-3.36353e-08 3.96183e-09 -1.36356e-20
2.40847e-08 6.73369e-09 1.12634e-20
-3.27166e-09 -1.32761e-11 -1.17839e-20
1.01453e-10 -3.37962e-09 2.09004e-20
-2.74345e-10 -2.26019e-09 1.38324e-20
-2.86538e-09 -1.74236e-09 -2.19169e-20
-7.30093e-08 -2.76604e-09 -7.14425e-21
2.2861e-08 -2.58641e-08 -4.1296e-21
1.53683e-09 2.99323e-09 -1.13814e-20
7.98117e-10 -1.43298e-08 1.10757e-20
-1.36469e-08 3.23055e-08 -6.3421e-22
3.07349e-10 3.57747e-09 -9.14545e-21
2.43376e-08 -1.74298e-08 6.11792e-21
-2.05876e-09 -9.18502e-10 -3.92205e-20
-2.07528e-08 -2.69638e-08 -1.20506e-20
2.83127e-09 1.40013e-09 1.34879e-21
6.65885e-09 6.50802e-09 1.96036e-21
-4.7883e-09 -7.45595e-09 -1.56424e-20
2.86848e-09 -9.78953e-10 -1.36543e-21
9.9114e-09 -6.93174e-09 1.1151e-20
-5.75542e-10 5.4748e-09 -6.65663e-21
8.19442e-09 -1.38204e-08 1.0376e-20
7.56219e-08 3.81012e-09 6.26458e-22
-6.40889e-08 1.69518e-08 -8.92575e-21
5.2482e-09 3.65121e-09 5.69984e-21
-7.88082e-09 -1.89487e-08 -1.81221e-20
-1.19181e-08 -7.78874e-09 -3.00148e-20
3.90953e-08 -3.94899e-10 9.45605e-22
3.22655e-10 -7.34621e-09 1.42028e-20
-9.69325e-09 -3.377e-09 -2.23134e-20
1.33227e-08 -3.18485e-08 -1.36617e-20
1.05674e-09 1.2699e-08 -3.61278e-21
1.09307e-08 3.38899e-08 -1.02131e-20
1.30169e-08 -6.86248e-09 1.20718e-20
-2.39202e-08 2.54683e-08 -2.19883e-21
2.20199e-08 2.72171e-08 3.4854e-21
-1.3348e-09 5.8406e-10 -1.22374e-20
2.50631e-10 5.81282e-09 -1.00156e-21
3.82974e-10 -2.61344e-09 -5.64654e-21
-2.09485e-09 -1.67496e-09 -2.22094e-20
-7.23335e-09 5.77259e-09 -7.15004e-21
-3.35176e-08 -7.9296e-09 -1.44159e-20
1.02456e-10 3.69189e-09 -1.13915e-20
-8.69645e-09 2.54699e-09 -1.28683e-20
2.36877e-08 -3.42061e-09 4.58453e-21
-1.01685e-08 -3.28775e-08 -3.18052e-21
-2.00161e-08 3.18704e-08 3.51624e-22
-5.54715e-09 2.56884e-09 -1.69952e-20
-2.68184e-08 -1.89673e-08 -1.72269e-20
5.98782e-09 -2.77652e-09 1.49238e-20
-3.63603e-08 -1.77863e-09 -1.27383e-20
1.78862e-08 -6.31402e-08 8.34617e-21
2.43007e-08 -2.55387e-08 1.6951e-20
3.73371e-08 6.62088e-08 -1.09125e-20
-3.71747e-10 7.86084e-09 3.3363e-21
3.18267e-09 -3.31237e-08 -1.1172e-20
-1.24017e-09 7.56545e-10 -1.49783e-20
-1.7245e-08 -3.2166e-08 -1.30991e-20
5.68751e-09 -4.92197e-09 6.57081e-21
-3.32983e-09 3.35095e-08 -5.09157e-21
8.00165e-09 -2.30206e-09 4.61211e-21
1.83716e-08 3.27511e-08 -2.85203e-21
1.83215e-08 -4.19463e-10 3.68071e-22
3.37563e-08 -9.96297e-08 -5.81832e-21
-7.09926e-09 -1.31919e-08 -1.78571e-20
-2.96814e-08 1.29332e-08 -4.1562e-21
-4.09958e-09 1.97196e-09 5.27021e-21
2.81795e-08 1.88708e-08 1.4323e-20
2.00164e-08 -1.10508e-08 1.32453e-20
1.05232e-08 4.5901e-09 -2.58489e-21
-2.13597e-09 1.83864e-09 1.1855e-20
2.01411e-08 -3.11275e-08 3.26114e-22
-2.1466e-08 -2.67948e-08 -1.59793e-20
2.76722e-08 1.09061e-08 1.89341e-20
6.97152e-09 -4.28217e-09 1.87702e-20
1.29534e-08 -3.21867e-08 -1.15145e-20
1.5133e-08 -2.84039e-09 1.07691e-20
-1.46991e-08 -5.84801e-09 -6.84274e-21
-6.2573e-10 -5.8801e-09 1.89475e-20
-3.38533e-08 4.69131e-09 -1.18443e-20
3.55558e-09 2.96655e-08 7.05056e-21
2.30931e-08 5.37233e-09 1.19641e-20
-2.62773e-08 -1.175e-08 -1.34718e-20
-1.29515e-08 3.31708e-08 -7.64184e-21
-2.96558e-09 -2.88941e-08 1.91622e-21
7.54377e-09 3.68295e-09 7.94157e-21
-4.96928e-09 1.38957e-08 7.53142e-21
-2.36264e-08 1.69515e-08 -1.02448e-20
3.03896e-08 1.53352e-08 2.13558e-20
-1.37404e-08 -4.28424e-09 -1.21195e-20
-3.36353e-09 -1.41329e-08 -1.57199e-20
2.32091e-08 2.69994e-08 1.02127e-20
-5.34986e-09 -2.43412e-09 -3.33226e-20
7.69289e-08 -5.52714e-08 -1.80449e-21
1.60829e-08 -1.12665e-08 1.10392e-20
1.32565e-08 6.49818e-08 -1.05983e-20
1.698e-08 -1.63532e-08 1.13174e-20
-3.72382e-08 1.41786e-07 -4.15918e-24
-3.74503e-08 -1.40409e-07 1.75014e-21
9.20029e-08 1.20907e-07 2.25857e-21
9.08687e-08 -1.20872e-07 -1.09502e-20
1.50585e-07 -6.64271e-11 1.47408e-20
-1.29828e-07 5.22668e-08 -2.02866e-21
-1.27677e-07 -5.28305e-08 3.18032e-21
6.07607e-09 3.26298e-09 1.35887e-21
3.86314e-09 1.89032e-09 1.07624e-20
1.14009e-08 1.5187e-09 -2.23751e-21
2.01652e-08 1.07789e-08 1.03287e-20
5.98812e-09 2.38628e-08 -1.03096e-20
-2.16489e-08 -1.86102e-08 -1.18884e-20
1.08215e-08 -1.00171e-08 7.82358e-21
2.32633e-08 1.86866e-08 8.66832e-21
-5.39945e-09 2.93825e-08 6.63942e-22
3.74195e-09 -1.85228e-09 1.30257e-20
5.48193e-09 -2.81887e-08 4.15642e-21
7.04935e-09 4.79189e-09 7.26474e-21
4.21055e-08 1.47418e-08 7.28339e-21
8.75915e-10 2.96382e-09 -3.26788e-21
1.61736e-08 5.27987e-09 3.2616e-21
-2.00464e-08 1.10819e-08 -9.63671e-21
-2.74937e-08 9.49739e-09 -1.05911e-20
5.35476e-09 -3.6679e-09 1.52822e-20
-1.749e-08 -8.08192e-09 -1.4317e-20
-1.92451e-08 -1.13998e-08 -1.32452e-20
-1.69716e-09 -1.92855e-08 -5.20802e-21
7.31969e-11 -2.2188e-08 -1.00483e-20
-2.44796e-08 -1.05593e-09 -1.47545e-20
3.64257e-08 -5.65821e-09 6.52337e-22
1.95643e-08 1.20592e-08 3.54758e-21
-1.61597e-08 1.10294e-08 -6.14846e-21
-7.23541e-09 3.50865e-09 -5.3199e-21
1.82772e-08 -1.63878e-08 1.79929e-20
-1.37521e-08 2.14043e-08 9.67677e-21
-1.69269e-08 -1.78292e-08 -1.67192e-20
-1.6096e-09 2.32763e-08 -2.87494e-21
-3.49778e-09 1.96063e-08 5.52942e-21
5.67522e-10 -1.41925e-08 -1.7003e-20
7.36462e-09 -2.38116e-08 -9.34632e-21
-1.1969e-08 -7.68031e-09 -1.50501e-20
1.66451e-08 -4.73642e-09 5.84732e-21
3.24677e-11 2.32464e-08 1.95236e-21
-5.1627e-10 1.4794e-08 7.53365e-21
-3.74615e-09 1.66798e-08 6.16966e-21
2.73915e-08 -6.74098e-09 -1.91102e-21
-5.66839e-09 5.47253e-09 -9.49002e-21
6.20683e-09 2.32589e-08 -3.23845e-21
-3.67797e-09 2.31659e-09 -5.36348e-21
1.39188e-08 6.45748e-08 -1.14235e-20
-6.69284e-09 3.63984e-09 -1.64581e-20
7.1043e-09 -3.70459e-09 1.18615e-20
2.0681e-09 1.97316e-08 -3.24029e-21
-2.31862e-08 5.49012e-09 1.60826e-21
-7.40895e-10 -9.97979e-09 -2.13408e-20
9.94117e-10 -9.22863e-08 -5.11398e-21
2.77645e-09 1.6729e-08 -4.56095e-21
-1.73094e-08 1.64836e-08 -9.99273e-21
2.71123e-08 1.00873e-07 -2.78165e-21
1.23483e-09 8.27642e-10 5.12351e-21
1.06628e-09 -7.88407e-10 2.31241e-20
1.30002e-08 -1.01582e-08 2.04381e-20
-1.85337e-08 1.65929e-08 -3.17763e-21
-2.2212e-08 -6.54169e-09 -1.13442e-20
-2.28546e-08 -7.50046e-09 -1.80032e-20
-5.49798e-10 3.52644e-10 1.8915e-20
-4.02705e-10 -2.49256e-10 1.58895e-20
1.06368e-08 2.14592e-09 -8.44605e-21
3.39197e-09 1.55033e-08 4.88826e-21
-3.93388e-10 1.5416e-08 -2.91019e-21
-7.72689e-08 -5.61791e-08 -1.20806e-20
1.3599e-08 -2.14036e-08 1.57896e-21
6.82704e-09 2.40839e-09 4.31918e-21
-2.52144e-08 -2.70092e-09 -1.35459e-20
-1.59417e-08 2.10699e-08 4.87531e-21
-2.0571e-08 9.66772e-09 -4.20189e-21
7.59172e-08 5.45026e-08 3.30438e-21
7.35618e-09 4.87032e-09 6.90326e-21
-7.33174e-09 2.38974e-08 1.61873e-21
-1.43747e-08 -1.23319e-08 -1.71997e-20
3.59073e-09 -1.87591e-08 -5.20773e-21
-1.16852e-08 -2.2203e-08 -1.77401e-20
-1.86891e-08 -1.28103e-08 -8.37714e-21
1.28196e-08 -2.2739e-08 1.61018e-21
1.53634e-08 -2.11421e-08 2.15896e-20
-4.91738e-09 -9.62053e-08 -6.12619e-21
3.94758e-08 -6.31531e-08 5.89339e-21
1.87026e-09 -2.28226e-08 -4.55512e-21
1.60544e-08 1.22401e-08 1.62807e-21
-1.44443e-08 -1.75557e-08 -1.64792e-20
-1.25596e-08 2.33951e-08 1.0653e-20
-7.72559e-09 2.2907e-08 1.00072e-21
1.67623e-08 1.73894e-08 7.4317e-21
8.23662e-09 -2.14232e-08 -1.92804e-21
-2.14594e-08 -6.11588e-08 -1.66362e-20
4.75195e-10 7.27975e-09 1.34699e-21
1.7002e-08 1.75083e-08 4.48689e-21
-9.11156e-09 -4.45363e-09 -1.57669e-20
-7.5586e-09 4.09523e-09 -6.91973e-21
6.86791e-08 -3.00916e-08 2.4229e-21
8.449e-09 -1.39629e-08 7.11038e-21
-8.01609e-09 -1.37228e-08 -2.20535e-20
2.9535e-09 -2.69756e-10 1.16534e-20
1.8599e-10 -1.09266e-09 1.80128e-20
-8.38606e-10 -7.48334e-10 -4.04858e-20
3.66712e-09 2.44998e-09 1.19562e-20
-1.17882e-08 -2.22399e-08 -1.92442e-20
1.80668e-08 7.23171e-09 -3.31072e-22
-4.44212e-08 -4.88323e-08 -6.14603e-21
1.02907e-10 1.3634e-09 -9.4417e-21
1.86526e-10 3.74217e-10 3.47659e-20
4.33405e-10 -1.51795e-12 -4.26649e-20
4.26766e-08 -8.43576e-08 1.2404e-21
-1.73277e-09 2.01975e-09 -1.51908e-20
-3.74953e-10 2.44015e-09 -4.37652e-21
-1.81723e-08 6.44153e-09 -2.60054e-21
-6.45165e-10 7.29594e-09 -9.74155e-22
-4.00932e-09 1.18227e-08 -1.57732e-21
8.2083e-09 3.27396e-10 -2.57225e-21
1.88513e-09 7.05937e-09 -3.91893e-21
-4.83295e-10 9.76607e-09 1.4942e-23
1.40775e-08 7.65029e-09 1.63189e-21
1.04094e-09 9.18639e-08 -1.52267e-21
-1.31069e-08 1.24272e-08 -1.68935e-20
9.78003e-09 -6.61417e-09 1.27669e-20
5.60686e-09 -5.19048e-09 8.19563e-21
-9.41564e-08 -1.29245e-08 1.83589e-21
-2.58832e-09 1.05514e-09 -2.02137e-20
-6.84779e-08 -8.09958e-08 -2.08376e-20
1.17622e-09 3.2571e-09 3.98023e-21
1.18644e-08 2.27337e-09 -1.13919e-20
3.55736e-08 -4.60783e-09 -3.49129e-21
-8.09168e-09 -1.32926e-08 -1.95395e-20
1.54541e-08 4.40606e-09 -4.2215e-21
4.28615e-11 -3.88139e-09 6.32596e-21
-8.68756e-09 1.00933e-08 -5.19652e-21
-3.30674e-09 -2.06388e-09 -3.10167e-20
-7.88698e-09 1.59764e-08 5.84984e-21
1.44039e-09 1.00201e-08 -3.18909e-22
2.26688e-09 1.64453e-09 3.39538e-21
2.24485e-09 -1.57803e-09 1.95357e-20
-6.37638e-08 -1.73644e-08 -5.24959e-21
6.9405e-09 2.55374e-09 -3.21216e-21
-8.42895e-09 1.63877e-07 2.54232e-22
-5.57719e-10 -1.68337e-07 -9.30483e-21
8.28378e-08 1.41913e-07 5.87931e-22
-8.43984e-09 6.72883e-09 -8.19173e-21
-4.39758e-08 8.83933e-08 -6.95288e-21
8.33289e-08 -1.37e-07 -1.75354e-21
-1.36615e-08 -2.21137e-08 -1.60864e-20
1.26602e-07 1.10857e-07 7.21208e-21
1.42486e-09 -2.53448e-09 -2.02347e-21
-1.49095e-09 -2.56807e-09 -1.87618e-20
1.32679e-07 -1.08374e-07 1.23265e-21
-8.05868e-09 1.58281e-08 7.47433e-21
-8.32899e-08 -5.30453e-08 -9.81577e-21
-7.0317e-08 -1.46449e-07 -1.19489e-21
-3.93566e-08 -9.05184e-08 -9.16666e-21
-7.2287e-08 1.48887e-07 1.90627e-24
-1.70723e-08 1.00877e-07 -5.81283e-21
-1.20475e-10 3.4135e-09 -6.70282e-21
-4.38069e-08 5.63851e-08 1.21197e-21
-4.20326e-08 -8.59198e-08 -8.14094e-21
1.6318e-07 2.85205e-08 9.62775e-21
-1.25848e-08 1.0723e-08 -1.62768e-20
-2.70794e-10 7.02071e-09 9.59718e-21
-7.89181e-08 5.71314e-08 9.1617e-21
-1.3966e-08 7.44951e-09 -5.85714e-21
1.61613e-07 -2.53852e-08 9.60327e-21
-1.06391e-08 7.16101e-09 -5.86337e-21
7.78624e-09 -1.61131e-08 1.29216e-20
-1.2574e-07 -9.55476e-08 -5.74362e-21
-4.2401e-08 9.08421e-08 -5.45866e-21
-1.288e-07 9.48542e-08 2.99838e-22
3.76369e-08 8.40399e-08 6.90082e-21
-1.3695e-08 1.08965e-08 -1.19891e-20
-3.73481e-09 2.10299e-09 2.01576e-21
-1.86523e-10 -4.58808e-10 3.44141e-22
1.77194e-10 -3.18579e-10 -2.40572e-20
1.05509e-09 1.08911e-08 -4.5833e-21
-2.8832e-10 4.56536e-10 2.57793e-20
2.79357e-10 4.57378e-10 -3.572e-20
3.6671e-10 -2.16167e-10 -2.06048e-20
-1.56697e-10 1.26275e-09 -5.41423e-21
-2.89335e-08 6.31151e-08 1.83802e-21
-2.13324e-09 1.48426e-09 -6.78376e-22
3.63332e-09 -2.3361e-09 1.65921e-20
3.57128e-09 -2.08157e-09 1.23603e-20
1.04541e-08 4.05395e-09 -7.45862e-21
-7.33945e-11 -1.07974e-09 2.49211e-20
-9.51484e-10 -5.10455e-10 -4.78591e-20
3.56485e-09 2.0819e-09 1.31004e-20
9.3647e-08 -1.8092e-08 2.10715e-21
-1.20111e-08 -1.53061e-08 -2.97286e-20
-8.19547e-08 5.71863e-08 -1.49797e-21
-7.3266e-08 8.35596e-08 -6.03156e-22
9.87582e-08 -3.56767e-08 -3.98559e-21
-3.96293e-10 -1.36815e-09 2.13259e-20
-4.44568e-10 1.40715e-09 -1.22078e-20
-1.50817e-09 3.26694e-10 -1.96898e-20
-1.05329e-09 9.66919e-10 -1.83138e-20
-1.36169e-09 -3.6296e-10 -2.67806e-20
1.63617e-10 3.88953e-10 1.44046e-20
1.45394e-09 -4.1808e-10 6.09703e-21
5.58373e-10 -4.5277e-10 2.35358e-20
-5.4692e-10 -2.70566e-10 3.36517e-20
9.80762e-10 -9.22947e-10 3.12042e-20
9.86801e-10 9.51444e-10 5.1085e-21
-5.5042e-10 2.2352e-10 1.17241e-20
3.93631e-10 -1.90702e-10 6.18529e-21
7.14523e-10 4.31409e-10 1.16337e-20
1.67596e-09 6.65042e-10 1.79723e-20
SCALARS rr_necrosis float
LOOKUP_TABLE default
0
0
0
0
0
0
0
0
0
0
0
0
0
0
0
0
0
0
0
0
0
0
0
0
0
0
0
0
0
0
0
0
0
0
0
0
0
0
0
0
0
0
0
0
0
0
0
0
0
0
0
0
0
0
0
0
0
0
0
0
0
0
0
0
0
0
0
0
0
0
0
0
0
0
0
0
0
0
0
0
0
0
0
0
0
0
0
0
0
0
0
0
0
0
0
0
0
0
0
0
0
0
0
0
0
0
0
0
0
0
0
0
0
0
0
0
0
0
0
0
0
0
0
0
0
0
0
0
0
0
0
0
0
0
0
0
0
0
0
0
0
0
0
0
0
0
0
0
0
0
0
0
0
0
0
0
0
0
0
0
0
0
0
0
0
0
0
0
0
0
0
0
0
0
0
0
0
0
0
0
0
0
0
0
0
0
0
0
0
0
0
0
0
0
0
0
0
0
0
0
0
0
0
0
0
0
0
0
0
0
0
0
0
0
0
0
0
0
0
0
0
0
0
0
0
0
0
0
0
0
0
0
0
0
0
0
0
0
0
0
0
0
0
0
0
0
0
0
0
0
0
0
0
0
0
0
0
0
0
0
0
0
0
0
0
0
0
0
0
0
0
0
0
0
0
0
0
0
0
0
0
0
0
0
0
0
0
0
0
0
0
0
0
0
0
0
0
0
0
0
0
0
0
0
0
0
0
0
0
0
0
0
0
0
0
0
0
0
0
0
0
0
0
0
0
0
0
0
0
0
0
0
0
0
0
0
0
0
0
0
0
0
0
0
0
0
0
0
0
0
0
0
0
0
0
0
0
0
0
0
0
0
0
0
0
0
0
0
0
0
0
0
0
0
0
0
0
0
0
0
0
0
0
0
0
0
0
0
0
0
0
0
0
0
0
0
0
0
0
0
0
0
0
0
0
0
0
0
0
0
0
0
0
0
0
0
0
0
0
0
0
0
0
0
0
0
0
0
0
0
0
0
0
0
0
0
0
0
0
0
0
0
0
0
0
0
0
0
0
0
0
0
0
0
0
0
0
0
0
0
0
0
0
0
0
0
0
0
0
0
0
0
0
0
0
0
0
0
0
0
0
0
0
0
0
0
0
0
0
0
0
0
0
0
0
0
0
0
0
0
0
0
0
0
0
0
0
0
0
0
0
0
0
0
0
0
0
0
0
0
0
0
0
0
0
0
0
0
0
0
0
0
0
0
0
0
0
0
0
0
0
0
0
0
0
0
0
0
0
0
0
0
0
0
0
0
0
0
0
0
0
0
0
SCALARS rr_protein float
LOOKUP_TABLE default
1
1
1
1
1
1
1
1
1
1
1
1
1
1
1
1
1
1
1
1
1
1
1
1
1
1
1
1
1
1
1
1
1
1
1
1
1
1
1
1
1
1
1
1
1
1
1
1
1
1
1
1
1
1
1
1
1
1
1
1
1
1
1
1
1
1
1
1
1
1
1
1
1
1
1
1
1
1
1
1
1
1
1
1
1
1
1
1
1
1
1
1
1
1
1
1
1
1
1
1
1
1
1
1
1
1
1
1
1
1
1
1
1
1
1
1
1
1
1
1
1
1
1
1
1
1
1
1
1
1
1
1
1
1
1
1
1
1
1
1
1
1
1
1
1
1
1
1
1
1
1
1
1
1
1
1
1
1
1
1
1
1
1
1
1
1
1
1
1
1
1
1
1
1
1
1
1
1
1
1
1
1
1
1
1
1
1
1
1
1
1
1
1
1
1
1
1
1
1
1
1
1
1
1
1
1
1
1
1
1
1
1
1
1
1
1
1
1
1
1
1
1
1
1
1
1
1
1
1
1
1
1
1
1
1
1
1
1
1
1
1
1
1
1
1
1
1
1
1
1
1
1
1
1
1
1
1
1
1
1
1
1
1
1
1
1
1
1
1
1
1
1
1
1
1
1
1
1
1
1
1
1
1
1
1
1
1
1
1
1
1
1
1
1
1
1
1
1
1
1
1
1
1
1
1
1
1
1
1
1
1
1
1
1
1
1
1
1
1
1
1
1
1
1
1
1
1
1
1
1
1
1
1
1
1
1
1
1
1
1
1
1
1
1
1
1
1
1
1
1
1
1
1
1
1
1
1
1
1
1
1
1
1
1
1
1
1
1
1
1
1
1
1
1
1
1
1
1
1
1
1
1
1
1
1
1
1
1
1
1
1
1
1
1
1
1
1
1
1
1
1
1
1
1
1
1
1
1
1
1
1
1
1
1
1
1
1
1
1
1
1
1
1
1
1
1
1
1
1
1
1
1
1
1
1
1
1
1
1
1
1
1
1
1
1
1
1
1
1
1
1
1
1
1
1
1
1
1
1
1
1
1
1
1
1
1
1
1
1
1
1
1
1
1
1
1
1
1
1
1
1
1
1
1
1
1
1
1
1
1
1
1
1
1
1
1
1
1
1
1
1
1
1
1
1
1
1
1
1
1
1
1
1
1
1
1
1
1
1
1
1
1
1
1
1
1
1
1
1
1
1
1
1
1
1
1
1
1
1
1
1
1
1
1
1
1
1
1
1
1
1
1
1
1
1
1
1
1
1
1
1
1
1
SCALARS rr_(S_ext) float
LOOKUP_TABLE default
0.438497
0.440089
0.43995
0.44006
0.440517
0.439947
0.438491
0.440045
0.439816
0.440086
0.43858
0.440045
0.440012
0.440108
0.440359
0.439973
0.440166
0.440025
0.439741
0.439908
0.439889
0.441095
0.439888
0.439912
0.439906
0.440051
0.438813
0.439969
0.439303
0.440754
0.440006
0.439306
0.438792
0.440652
0.440703
0.44065
0.44077
0.440682
0.440005
0.438797
0.439299
0.440777
0.440775
0.440007
0.438939
0.439326
0.439776
0.439842
0.439953
0.439202
0.439261
0.439468
0.440491
0.439473
0.440478
0.438996
0.440707
0.439473
0.440705
0.439916
0.440159
0.440299
0.438921
0.440292
0.440302
0.440169
0.440165
0.440053
0.439898
0.440095
0.440488
0.440486
0.439298
0.440221
0.439955
0.438721
0.440391
0.440167
0.440051
0.439502
0.439174
0.440569
0.440231
0.439126
0.439353
0.438961
0.439968
0.440196
0.438941
0.441016
0.43947
0.441014
0.4404
0.440151
0.439485
0.439244
0.439177
0.440082
0.440389
0.439997
0.439652
0.439391
0.439123
0.440038
0.440069
0.440071
0.440252
0.439985
0.439121
0.440113
0.439918
0.438992
0.439066
0.44003
0.440063
0.439479
0.440707
0.439171
0.440703
0.439484
0.439706
0.440339
0.440088
0.440197
0.440126
0.440372
0.440648
0.440082
0.439178
0.439485
0.440488
0.440077
0.440221
0.440083
0.439394
0.440708
0.43909
0.440023
0.440232
0.440706
0.439411
0.440094
0.439733
0.440087
0.439165
0.440056
0.44007
0.439955
0.439948
0.439603
0.439838
0.440089
0.439302
0.440014
0.440085
0.440079
0.440133
0.439428
0.439433
0.440008
0.439845
0.439314
0.438981
0.43926
0.439425
0.440072
0.439427
0.439424
0.439303
0.439429
0.440404
0.439473
0.439258
0.440148
0.439476
0.440246
0.440403
0.440046
0.440498
0.440076
0.439305
0.440079
0.440079
0.439414
0.440198
0.439247
0.440196
0.440255
0.440412
0.440082
0.440201
0.439194
0.439476
0.439305
0.440082
0.440017
0.440026
0.44022
0.440086
0.440163
0.44009
0.439762
0.439514
0.440218
0.439308
0.440229
0.440168
0.439382
0.440322
0.440093
0.440338
0.440119
0.440064
0.440232
0.439608
0.440133
0.43953
0.440254
0.440122
0.440121
0.440102
0.44011
0.440111
0.440109
0.440099
0.440346
0.440341
0.440346
0.440348
0.440482
0.440483
0.439596
0.440102
0.440044
0.439835
0.44036
0.440366
0.440049
0.439518
0.440037
0.440083
0.439615
0.440324
0.439607
0.440237
0.44003
0.439618
0.439537
0.43917
0.439177
0.440231
0.439141
0.439994
0.439529
0.439752
0.440035
0.440118
0.440787
0.440113
0.439132
0.43953
0.440042
0.440046
0.43951
0.440116
0.439741
0.440785
0.439533
0.440126
0.440188
0.440026
0.440355
0.440192
0.440491
0.440009
0.439019
0.43896
0.440447
0.439891
0.440045
0.43961
0.440327
0.440146
0.439531
0.440153
0.439657
0.440077
0.439659
0.439522
0.440916
0.44042
0.440362
0.440359
0.440097
0.439671
0.440634
0.440181
0.43985
0.439676
0.439625
0.440444
0.439613
0.440403
0.439643
0.438944
0.439667
0.439157
0.440258
0.439614
0.440915
0.439643
0.440221
0.439595
0.440205
0.439639
0.439969
0.438898
0.439934
0.43961
0.440437
0.439602
0.439851
0.440207
0.440094
0.439641
0.439669
0.439736
0.440257
0.439666
0.440046
0.439969
0.440488
0.439669
0.439728
0.439875
0.439745
0.439652
0.439749
0.440308
0.440041
0.439735
0.439607
0.440088
0.440091
0.43966
0.440486
0.438524
0.439966
0.439172
0.439882
0.43765
0.437652
0.437661
0.437657
0.437661
0.43765
0.437657
0.440265
0.440591
0.440014
0.439843
0.43975
0.439745
0.440078
0.439734
0.439726
0.440595
0.439744
0.440334
0.43947
0.44032
0.439944
0.43984
0.439738
0.440451
0.439965
0.439852
0.439967
0.439853
0.439729
0.439497
0.43984
0.43995
0.440338
0.439767
0.439714
0.439759
0.439829
0.439946
0.440079
0.439758
0.440076
0.439931
0.439834
0.440049
0.439934
0.439739
0.440202
0.439867
0.440575
0.438945
0.440263
0.440308
0.439947
0.439872
0.440164
0.438545
0.439945
0.439864
0.438907
0.440907
0.440913
0.439963
0.439749
0.439884
0.439767
0.441167
0.441166
0.440047
0.440052
0.440044
0.438544
0.439724
0.440227
0.439835
0.439821
0.439833
0.438513
0.440196
0.439741
0.439959
0.43996
0.439819
0.439849
0.439819
0.439833
0.438807
0.43916
0.439848
0.439963
0.439868
0.439812
0.439858
0.439878
0.439868
0.438947
0.440362
0.439757
0.440159
0.440203
0.438937
0.439951
0.439936
0.44049
0.440893
0.440891
0.44042
0.43972
0.439956
0.43892
0.440859
0.441124
0.441123
0.438495
0.440681
0.440753
0.439939
0.440393
0.440011
0.440095
0.440207
0.44025
0.440047
0.43854
0.439978
0.440148
0.440224
0.438712
0.440699
0.438881
0.440215
0.440103
0.439632
0.440003
0.44004
0.440502
0.440059
0.4405
0.439961
0.440226
0.440728
0.44074
0.438926
0.440117
0.438466
0.438499
0.438428
0.440195
0.438525
0.438394
0.439814
0.438446
0.440574
0.440573
0.438473
0.439874
0.438814
0.43846
0.438781
0.438453
0.438781
0.440691
0.438867
0.438531
0.438468
0.440033
0.440285
0.438756
0.440036
0.438403
0.440088
0.439885
0.438441
0.438731
0.438416
0.438494
0.439931
0.440602
0.441093
0.441071
0.440115
0.441089
0.441088
0.441079
0.44095
0.438897
0.440715
0.440432
0.440606
0.440096
0.440985
0.440984
0.440635
0.438477
0.43987
0.438504
0.438857
0.438864
0.440839
0.440834
0.440823
0.440827
0.440837
0.441066
0.44083
0.440987
0.441101
0.440845
0.440847
0.441108
0.44107
0.440992
0.440816
SCALARS rr_(P_ext) float
LOOKUP_TABLE default
0.00277272
0.00275019
0.00275215
0.00275058
0.00274463
0.00275219
0.00277279
0.00275085
0.00275403
0.00275028
0.00277129
0.00275085
0.00275131
0.00274999
0.0027467
0.00275181
0.0027492
0.00275111
0.00275504
0.00275271
0.00275301
0.00273715
0.002753
0.00275268
0.00275274
0.00275074
0.00276813
0.00275191
0.0027612
0.00274158
0.00275138
0.00276115
0.00276844
0.00274289
0.0027422
0.00274291
0.00274134
0.00274248
0.00275142
0.00276838
0.00276126
0.00274125
0.00274127
0.00275137
0.00276629
0.00276088
0.00275456
0.00275365
0.00275211
0.0027626
0.00276179
0.0027589
0.00274497
0.00275883
0.00274514
0.00276558
0.00274215
0.00275883
0.00274217
0.0027526
0.00274929
0.00274745
0.00276667
0.00274756
0.00274742
0.00274922
0.00274922
0.00275072
0.00275285
0.00275014
0.00274501
0.00274502
0.00276127
0.00274853
0.00275207
0.0027694
0.00274627
0.00274923
0.00275074
0.00275839
0.00276306
0.00274394
0.00274836
0.0027637
0.00276054
0.00276603
0.00275191
0.00274887
0.00276626
0.00273826
0.00275887
0.00273829
0.00274616
0.00274947
0.00275866
0.00276201
0.00276302
0.00275031
0.0027463
0.0027515
0.00275633
0.00276
0.00276375
0.0027509
0.00275052
0.00275045
0.00274811
0.00275169
0.00276378
0.00274988
0.00275258
0.00276555
0.00276453
0.00275103
0.00275055
0.00275876
0.00274218
0.00276311
0.00274225
0.00275868
0.00275554
0.00274694
0.00275021
0.00274881
0.00274973
0.00274651
0.00274295
0.00275032
0.00276302
0.00275867
0.00274502
0.00275035
0.00274847
0.00275027
0.00275996
0.00274215
0.00276427
0.00275116
0.00274835
0.00274217
0.00275971
0.00275023
0.00275519
0.00275027
0.00276321
0.00275066
0.00275057
0.00275212
0.00275218
0.002757
0.00275372
0.00275021
0.00276121
0.00275127
0.00275028
0.00275033
0.00274966
0.00275949
0.00275942
0.00275131
0.00275362
0.00276104
0.00276572
0.00276179
0.00275951
0.00275043
0.0027595
0.00275954
0.00276119
0.00275947
0.0027461
0.00275883
0.00276182
0.00274946
0.00275878
0.00274818
0.00274612
0.00275088
0.00274486
0.00275044
0.00276117
0.00275034
0.00275036
0.00275968
0.00274883
0.00276197
0.00274882
0.00274806
0.00274602
0.0027503
0.0027488
0.00276278
0.00275879
0.00276117
0.00275029
0.00275118
0.00275107
0.00274849
0.00275024
0.00274929
0.0027502
0.00275475
0.00275822
0.00274851
0.00276114
0.00274837
0.00274924
0.00276013
0.00274719
0.00275016
0.00274699
0.00274988
0.00275057
0.00274834
0.00275693
0.0027497
0.002758
0.00274807
0.00274977
0.00274978
0.00275002
0.00274992
0.00274991
0.00274993
0.00275013
0.00274684
0.0027469
0.00274684
0.00274682
0.00274511
0.0027451
0.00275709
0.00275007
0.00275079
0.00275375
0.0027467
0.00274661
0.00275073
0.00275817
0.00275087
0.0027503
0.00275683
0.00274716
0.00275693
0.00274828
0.00275095
0.00275678
0.0027579
0.00276312
0.00276296
0.00274834
0.00276354
0.00275154
0.00275801
0.00275491
0.00275089
0.00274982
0.00274114
0.00274987
0.0027637
0.00275801
0.0027508
0.00275087
0.00275827
0.00274983
0.00275509
0.00274116
0.00275796
0.00274973
0.00274894
0.00275107
0.00274675
0.00274893
0.00274497
0.00275132
0.00276522
0.00276604
0.00274558
0.00275295
0.00275087
0.00275692
0.00274713
0.00274947
0.00275798
0.00274943
0.00275624
0.00275047
0.00275622
0.00275812
0.00273948
0.0027459
0.00274664
0.00274667
0.00275013
0.00275606
0.00274312
0.00274902
0.00275355
0.00275598
0.00275669
0.00274559
0.00275685
0.00274616
0.00275645
0.00276623
0.00275611
0.00276333
0.00274802
0.00275683
0.00273951
0.00275644
0.00274853
0.00275709
0.00274873
0.00275651
0.0027519
0.00276704
0.00275235
0.00275689
0.00274569
0.00275701
0.00275355
0.00274871
0.00275013
0.00275648
0.00275608
0.00275514
0.00274805
0.00275612
0.00275086
0.0027519
0.00274501
0.00275608
0.00275525
0.00275321
0.00275501
0.00275632
0.00275496
0.0027474
0.00275092
0.00275516
0.00275694
0.0027503
0.00275026
0.00275621
0.00274504
0.00277208
0.00275198
0.00276309
0.00275312
0.00278402
0.002784
0.00278386
0.00278392
0.00278385
0.00278406
0.00278397
0.00274795
0.00274371
0.00275127
0.00275365
0.00275491
0.00275502
0.00275046
0.00275517
0.00275528
0.00274366
0.00275503
0.00274704
0.00275887
0.00274718
0.00275225
0.00275369
0.00275511
0.00274553
0.00275197
0.00275353
0.00275195
0.00275351
0.00275521
0.00275847
0.0027537
0.00275217
0.00274697
0.00275471
0.00275541
0.00275479
0.00275383
0.00275224
0.00275043
0.00275481
0.00275047
0.00275243
0.00275377
0.00275082
0.00275237
0.00275508
0.00274874
0.00275332
0.00274389
0.00276621
0.00274795
0.0027474
0.00275222
0.00275325
0.00274927
0.0027718
0.00275223
0.00275335
0.00276691
0.00273962
0.00273956
0.00275199
0.00275494
0.00275308
0.00275469
0.00273629
0.00273629
0.0027508
0.00275079
0.0027509
0.00277185
0.00275529
0.00274843
0.00275375
0.00275394
0.00275379
0.00277222
0.00274886
0.00275505
0.00275205
0.00275204
0.00275398
0.00275356
0.00275398
0.0027538
0.00276823
0.00276328
0.00275357
0.00275202
0.00275329
0.00275406
0.00275344
0.00275317
0.00275329
0.0027662
0.00274667
0.00275483
0.00274932
0.00274874
0.00276634
0.00275212
0.00275232
0.00274501
0.00273977
0.00273978
0.00274592
0.00275533
0.00275211
0.00276656
0.00274021
0.00273677
0.00273678
0.00277247
0.00274249
0.00274157
0.00275233
0.00274625
0.00275128
0.00275014
0.00274868
0.00274814
0.00275087
0.00277186
0.00275177
0.0027495
0.00274847
0.00276954
0.00274227
0.0027673
0.00274855
0.00275008
0.0027566
0.00275139
0.00275096
0.00274484
0.00275065
0.00274486
0.002752
0.00274845
0.00274194
0.00274179
0.00276649
0.00274987
0.00277316
0.00277273
0.00277366
0.00274887
0.00277211
0.00277412
0.00275404
0.00277342
0.00274387
0.00274388
0.00277307
0.00275318
0.00276816
0.00277328
0.00276859
0.00277337
0.00276859
0.00274237
0.00276732
0.00277202
0.00277311
0.00275104
0.00274766
0.00276894
0.002751
0.00277398
0.00275029
0.00275304
0.00277352
0.00276928
0.00277386
0.00277247
0.00275242
0.00274353
0.00273718
0.00273746
0.00274992
0.00273723
0.00273724
0.00273736
0.00273906
0.00276689
0.00274207
0.00274577
0.00274351
0.00275019
0.00273861
0.00273862
0.00274311
0.00277271
0.00275324
0.00277242
0.00276765
0.0027675
0.00274046
0.00274052
0.00274066
0.00274061
0.00274047
0.00273756
0.00274062
0.00273861
0.00273713
0.00274042
0.00274039
0.00273704
0.00273749
0.00273852
0.00274079
SCALARS rr_(S) float
LOOKUP_TABLE default
0.310693
0.311371
0.311309
0.311357
0.311583
0.311308
0.310691
0.311352
0.31125
0.31137
0.310724
0.311353
0.311337
0.311381
0.311505
0.311318
0.31141
0.311342
0.311217
0.31129
0.311282
0.311879
0.311282
0.311292
0.311289
0.311355
0.310824
0.311319
0.311029
0.311705
0.311334
0.311031
0.310815
0.311654
0.311676
0.311653
0.311713
0.311665
0.311334
0.310817
0.311028
0.311717
0.311715
0.311334
0.310876
0.311039
0.311232
0.311261
0.311311
0.310987
0.311012
0.3111
0.311571
0.311102
0.311564
0.3109
0.311679
0.311102
0.311677
0.311294
0.311406
0.311473
0.31087
0.31147
0.311475
0.311413
0.311409
0.311355
0.311286
0.311375
0.311569
0.311569
0.311028
0.311437
0.31131
0.310785
0.31152
0.311412
0.311355
0.311115
0.310976
0.311608
0.311441
0.310955
0.311051
0.310885
0.311318
0.311426
0.310877
0.311842
0.311101
0.311841
0.311525
0.311405
0.311107
0.311005
0.310977
0.311367
0.311519
0.31133
0.311179
0.311067
0.310954
0.311347
0.311364
0.311362
0.311453
0.311325
0.310953
0.311383
0.311295
0.310898
0.31093
0.311344
0.311358
0.311104
0.311679
0.310974
0.311677
0.311107
0.311202
0.311494
0.311371
0.311424
0.31139
0.311513
0.31165
0.311368
0.310977
0.311107
0.311571
0.311366
0.311436
0.311368
0.311068
0.31168
0.31094
0.311343
0.311442
0.311679
0.311076
0.311377
0.311214
0.311372
0.310972
0.311356
0.311367
0.311313
0.311307
0.311158
0.311261
0.311371
0.311029
0.311337
0.311371
0.311366
0.311393
0.311082
0.311084
0.311334
0.311262
0.311034
0.310894
0.311011
0.311082
0.311363
0.311082
0.311081
0.31103
0.311083
0.311528
0.311102
0.31101
0.3114
0.311103
0.31145
0.311527
0.311355
0.311573
0.311368
0.31103
0.311366
0.311366
0.311077
0.311427
0.311006
0.311423
0.311454
0.311532
0.311367
0.311428
0.310984
0.311103
0.31103
0.311367
0.311338
0.311343
0.311435
0.31137
0.311409
0.311372
0.311226
0.311119
0.311435
0.311032
0.31144
0.311413
0.311063
0.311488
0.311373
0.311495
0.311388
0.311361
0.311442
0.31116
0.311395
0.311126
0.311453
0.311388
0.311387
0.311378
0.311381
0.311382
0.311381
0.311378
0.311498
0.311496
0.311498
0.311499
0.311568
0.311568
0.311155
0.311379
0.31135
0.311257
0.311505
0.311508
0.311352
0.311121
0.311346
0.311368
0.311162
0.311489
0.311159
0.311445
0.311343
0.311164
0.311129
0.310974
0.310977
0.311441
0.310962
0.311327
0.311125
0.311222
0.311345
0.311386
0.311722
0.311383
0.310958
0.311126
0.311349
0.311354
0.311117
0.311385
0.311218
0.311721
0.311127
0.31139
0.31142
0.311342
0.311503
0.311425
0.311571
0.311335
0.31091
0.310885
0.31155
0.311282
0.311354
0.31116
0.31149
0.311399
0.311127
0.311405
0.311181
0.31137
0.311181
0.311123
0.311788
0.311535
0.311507
0.311505
0.311376
0.311186
0.311644
0.311416
0.311265
0.311189
0.311166
0.311548
0.311162
0.311527
0.311174
0.310878
0.311185
0.310968
0.311456
0.311162
0.311788
0.311174
0.311438
0.311154
0.311429
0.311173
0.311317
0.310861
0.311301
0.31116
0.311545
0.311157
0.311267
0.31143
0.311374
0.311173
0.311185
0.311216
0.311456
0.311184
0.311353
0.311319
0.311569
0.311185
0.311212
0.311277
0.311219
0.311178
0.311221
0.311481
0.311351
0.311215
0.31116
0.311373
0.311375
0.311182
0.311568
0.310701
0.311318
0.310975
0.31128
0.310329
0.31033
0.310334
0.310332
0.310334
0.310329
0.310332
0.311459
0.311623
0.311338
0.311263
0.311221
0.311219
0.31137
0.311215
0.311211
0.311625
0.311219
0.311493
0.311101
0.311485
0.311308
0.311261
0.311216
0.311551
0.311317
0.311266
0.311318
0.311267
0.311211
0.311112
0.311262
0.311311
0.311494
0.311229
0.311205
0.311225
0.311256
0.311309
0.31137
0.311224
0.311369
0.311301
0.311259
0.311356
0.311302
0.311217
0.311427
0.311273
0.311614
0.310878
0.311458
0.311481
0.31131
0.311274
0.311409
0.31071
0.311308
0.311271
0.310865
0.311784
0.311787
0.311317
0.311221
0.31128
0.311228
0.311917
0.311916
0.311352
0.311357
0.311354
0.31071
0.31121
0.311439
0.311257
0.311251
0.311258
0.310696
0.311426
0.311217
0.311314
0.311315
0.31125
0.311265
0.31125
0.311257
0.310821
0.31097
0.311265
0.311317
0.311273
0.311247
0.311268
0.311278
0.311273
0.310879
0.311507
0.311225
0.311407
0.311429
0.310875
0.311309
0.311302
0.31157
0.311777
0.311776
0.311537
0.311208
0.311314
0.310868
0.31176
0.311894
0.311893
0.310689
0.311665
0.311705
0.311306
0.311522
0.311336
0.311375
0.31143
0.311452
0.311355
0.310708
0.311321
0.311402
0.311437
0.310781
0.311677
0.310854
0.311433
0.311379
0.31117
0.311331
0.311351
0.311578
0.311359
0.311577
0.311313
0.31144
0.311693
0.311699
0.310871
0.311387
0.310681
0.310695
0.310665
0.311424
0.310702
0.31065
0.311248
0.310672
0.311611
0.31161
0.310684
0.311275
0.310824
0.310679
0.31081
0.310676
0.31081
0.311671
0.310845
0.310704
0.310682
0.311348
0.311468
0.3108
0.31135
0.310654
0.311373
0.31128
0.310671
0.310789
0.31066
0.310688
0.311301
0.311626
0.311878
0.311868
0.311387
0.311877
0.311876
0.311872
0.311806
0.310858
0.311686
0.311543
0.311629
0.311378
0.311825
0.311824
0.311643
0.310681
0.311273
0.310693
0.310844
0.310847
0.311749
0.311747
0.311741
0.311743
0.311748
0.311865
0.311745
0.311826
0.311883
0.311753
0.311754
0.311886
0.311866
0.311828
0.311739
SCALARS rr_(P) float
LOOKUP_TABLE default
0.00354632
0.00353917
0.00353977
0.00353927
0.00353773
0.00353979
0.00354634
0.00353939
0.00354035
0.00353921
0.00354578
0.00353939
0.00353953
0.00353914
0.00353825
0.00353966
0.00353892
0.00353945
0.00354066
0.00353994
0.00354005
0.00353584
0.00354003
0.00353994
0.00353995
0.00353935
0.00354481
0.00353972
0.0035426
0.00353695
0.00353954
0.00354258
0.00354492
0.0035373
0.0035371
0.0035373
0.00353689
0.00353717
0.00353956
0.0035449
0.00354262
0.00353687
0.00353687
0.00353953
0.00354421
0.0035425
0.00354051
0.00354023
0.00353977
0.00354304
0.00354279
0.00354188
0.00353781
0.00354185
0.00353785
0.00354401
0.00353709
0.00354185
0.00353709
0.00353991
0.00353894
0.00353844
0.00354437
0.00353847
0.00353843
0.00353895
0.00353892
0.00353934
0.00353998
0.00353916
0.00353782
0.00353782
0.00354262
0.00353876
0.00353974
0.00354521
0.00353815
0.00353895
0.00353935
0.00354171
0.0035432
0.00353754
0.00353869
0.00354339
0.0035424
0.00354413
0.00353972
0.00353886
0.0035442
0.00353615
0.00354186
0.00353616
0.00353812
0.00353903
0.0035418
0.00354285
0.00354319
0.00353921
0.00353815
0.00353958
0.00354107
0.00354223
0.00354341
0.00353938
0.00353929
0.00353924
0.00353864
0.00353964
0.00354342
0.00353908
0.0035399
0.00354398
0.00354366
0.00353942
0.00353927
0.00354183
0.0035371
0.00354322
0.00353712
0.00354181
0.00354082
0.00353831
0.00353917
0.00353881
0.00353904
0.00353821
0.0035373
0.00353921
0.00354319
0.0035418
0.00353783
0.00353921
0.00353871
0.00353919
0.00354222
0.0035371
0.00354359
0.00353949
0.00353869
0.0035371
0.00354214
0.00353923
0.00354072
0.00353922
0.00354325
0.00353931
0.00353934
0.00353979
0.00353978
0.00354128
0.00354027
0.00353918
0.0035426
0.00353951
0.00353922
0.00353921
0.00353905
0.00354206
0.00354204
0.00353951
0.00354022
0.00354255
0.00354403
0.00354278
0.00354207
0.00353924
0.00354207
0.00354208
0.00354259
0.00354206
0.0035381
0.00354185
0.00354279
0.00353898
0.00354184
0.00353866
0.00353811
0.00353942
0.00353778
0.00353928
0.00354259
0.00353921
0.00353922
0.00354212
0.00353884
0.00354284
0.00353881
0.00353863
0.00353809
0.0035392
0.00353884
0.00354311
0.00354184
0.00354259
0.00353919
0.00353947
0.00353944
0.00353872
0.00353918
0.00353897
0.00353917
0.00354057
0.00354165
0.00353872
0.00354258
0.00353869
0.00353896
0.00354227
0.0035384
0.00353916
0.00353834
0.00353913
0.0035393
0.00353868
0.00354126
0.00353908
0.00354158
0.00353863
0.00353905
0.00353905
0.00353911
0.00353909
0.00353908
0.00353909
0.00353919
0.00353828
0.0035383
0.00353828
0.00353827
0.00353785
0.00353785
0.0035413
0.00353916
0.00353932
0.00354026
0.00353825
0.00353823
0.00353931
0.00354164
0.00353934
0.0035392
0.00354122
0.0035384
0.00354126
0.00353867
0.00353936
0.00354121
0.00354155
0.00354322
0.00354315
0.00353868
0.00354336
0.00353958
0.00354159
0.00354063
0.00353934
0.00353906
0.00353685
0.00353907
0.00354341
0.00354159
0.00353932
0.00353941
0.00354167
0.00353907
0.00354069
0.00353685
0.00354157
0.00353904
0.00353885
0.00353943
0.00353826
0.00353888
0.00353782
0.00353952
0.00354388
0.00354414
0.00353798
0.00354001
0.00353941
0.00354125
0.00353839
0.00353899
0.00354158
0.00353901
0.00354104
0.00353931
0.00354103
0.00354162
0.00353644
0.00353805
0.00353823
0.00353824
0.00353918
0.00354098
0.00353736
0.00353887
0.00354021
0.00354096
0.00354118
0.00353797
0.00354123
0.00353812
0.0035411
0.00354419
0.003541
0.00354329
0.00353862
0.00354122
0.00353644
0.0035411
0.00353876
0.0035413
0.00353879
0.00354112
0.0035397
0.0035445
0.00353983
0.00354124
0.003538
0.00354128
0.00354022
0.0035388
0.00353915
0.00354111
0.00354099
0.00354071
0.00353863
0.003541
0.0035394
0.00353971
0.00353783
0.00354099
0.00354073
0.00354011
0.00354066
0.00354106
0.00354064
0.00353846
0.00353942
0.0035407
0.00354126
0.00353925
0.00353924
0.00354103
0.00353783
0.00354604
0.00353975
0.00354321
0.00354008
0.00354974
0.00354973
0.00354969
0.00354971
0.00354968
0.00354976
0.00354973
0.0035386
0.00353751
0.00353951
0.00354025
0.00354063
0.00354066
0.0035393
0.00354071
0.00354074
0.0035375
0.00354067
0.00353835
0.00354187
0.00353836
0.00353982
0.00354026
0.00354069
0.00353797
0.00353974
0.00354021
0.00353974
0.0035402
0.00354071
0.00354174
0.00354026
0.0035398
0.00353833
0.00354057
0.00354077
0.00354058
0.0035403
0.00353982
0.0035393
0.00354059
0.00353931
0.00353987
0.00354028
0.0035394
0.00353984
0.00354068
0.00353879
0.00354014
0.00353755
0.00354418
0.00353859
0.00353847
0.00353982
0.00354011
0.00353895
0.00354595
0.00353981
0.00354015
0.00354445
0.00353648
0.00353647
0.00353975
0.00354063
0.00354007
0.00354056
0.00353565
0.00353564
0.00353936
0.00353939
0.00353943
0.00354597
0.00354074
0.00353871
0.00354026
0.00354032
0.00354028
0.00354608
0.00353885
0.00354066
0.00353976
0.00353976
0.00354033
0.00354021
0.00354033
0.00354028
0.00354484
0.00354328
0.00354022
0.00353976
0.00354013
0.00354036
0.00354017
0.0035401
0.00354013
0.00354418
0.00353826
0.0035406
0.00353897
0.00353881
0.00354423
0.00353976
0.00353982
0.00353782
0.00353651
0.00353651
0.00353807
0.00354075
0.00353979
0.00354429
0.00353662
0.00353575
0.00353575
0.00354616
0.00353717
0.00353696
0.00353985
0.00353814
0.0035395
0.00353916
0.00353878
0.00353865
0.00353942
0.00354597
0.00353966
0.00353902
0.00353872
0.00354525
0.00353714
0.00354458
0.00353873
0.00353917
0.00354116
0.00353953
0.00353944
0.00353779
0.00353934
0.00353779
0.00353972
0.00353873
0.00353706
0.00353702
0.00354428
0.0035391
0.00354646
0.00354634
0.00354661
0.00353885
0.00354606
0.00354675
0.00354035
0.00354654
0.00353752
0.00353753
0.00354644
0.00354008
0.00354483
0.00354651
0.00354496
0.00354654
0.00354496
0.00353715
0.00354453
0.00354603
0.00354645
0.00353946
0.00353851
0.00354507
0.00353946
0.00354671
0.00353924
0.00354004
0.00354658
0.00354518
0.00354668
0.00354615
0.00353987
0.00353744
0.00353585
0.00353592
0.00353914
0.00353587
0.00353587
0.0035359
0.00353634
0.0035444
0.00353709
0.00353803
0.00353745
0.00353922
0.00353623
0.00353623
0.00353734
0.00354623
0.0035401
0.00354616
0.0035447
0.00354464
0.00353668
0.00353669
0.00353672
0.00353671
0.00353668
0.00353595
0.00353672
0.00353623
0.00353585
0.00353668
0.00353667
0.00353583
0.00353593
0.0035362
0.00353678
SCALARS rr_(T) float
LOOKUP_TABLE default
0.0054285
0.00543989
0.0054387
0.00543948
0.00544598
0.00543869
0.00542845
0.00543965
0.00543754
0.00543989
0.00542878
0.00543966
0.00543928
0.00544032
0.00544364
0.00543876
0.00544105
0.00543935
0.00543698
0.00543832
0.00543822
0.00545503
0.0054382
0.00543839
0.00543831
0.00543969
0.00543047
0.00543908
0.00543374
0.00544961
0.00543919
0.00543378
0.00543034
0.00544822
0.00544872
0.00544819
0.00544992
0.00544836
0.00543923
0.00543037
0.00543375
0.00545003
0.00545
0.00543917
0.00543128
0.0054339
0.00543726
0.00543773
0.00543886
0.00543305
0.00543349
0.00543495
0.00544564
0.00543494
0.00544544
0.00543169
0.00544879
0.00543496
0.00544876
0.00543842
0.00544096
0.00544268
0.0054313
0.00544264
0.00544272
0.00544128
0.00544103
0.0054397
0.00543825
0.00544001
0.00544559
0.00544557
0.00543372
0.00544196
0.00543862
0.00542979
0.00544414
0.00544126
0.00543973
0.0054352
0.0054329
0.00544662
0.00544189
0.00543253
0.00543412
0.00543142
0.00543903
0.00544167
0.0054313
0.00545395
0.00543493
0.00545393
0.00544432
0.00544118
0.00543502
0.00543336
0.00543291
0.00543979
0.00544411
0.00543911
0.00543629
0.00543435
0.00543255
0.00543937
0.00543995
0.00543964
0.00544236
0.00543901
0.00543251
0.00544018
0.00543845
0.00543163
0.00543216
0.00543937
0.00543956
0.00543498
0.00544877
0.00543284
0.00544871
0.00543503
0.00543671
0.00544332
0.00543991
0.00544139
0.00544035
0.005444
0.0054479
0.0054398
0.0054329
0.00543506
0.00544573
0.00543977
0.00544173
0.00543983
0.00543437
0.00544888
0.00543231
0.00543953
0.00544188
0.00544885
0.0054345
0.00544034
0.00543697
0.00544011
0.00543281
0.00543962
0.00544026
0.00543896
0.0054386
0.00543594
0.00543786
0.00543991
0.00543377
0.00543924
0.00544008
0.00543979
0.00544059
0.00543459
0.00543464
0.00543913
0.00543775
0.00543386
0.00543154
0.00543346
0.00543461
0.00543966
0.00543459
0.00543457
0.00543376
0.00543462
0.00544439
0.00543495
0.00543343
0.00544072
0.00543496
0.00544229
0.00544437
0.00543988
0.00544566
0.00544007
0.00543377
0.00543975
0.00543977
0.00543453
0.00544166
0.00543335
0.00544137
0.00544234
0.00544447
0.0054398
0.0054417
0.00543299
0.005435
0.00543377
0.00543981
0.00543923
0.00543934
0.0054417
0.00543987
0.0054412
0.00543994
0.00543712
0.00543524
0.00544169
0.00543378
0.00544181
0.0054413
0.00543432
0.00544335
0.00543995
0.0054434
0.00544067
0.00543984
0.00544187
0.005436
0.00544086
0.00543535
0.00544232
0.00544029
0.00544029
0.00544002
0.00544011
0.00544012
0.00544009
0.00544028
0.00544341
0.00544337
0.00544343
0.00544345
0.00544555
0.00544558
0.00543588
0.00544026
0.00543923
0.00543761
0.00544363
0.0054437
0.00543931
0.00543529
0.00543913
0.00543979
0.00543601
0.00544341
0.00543595
0.00544195
0.00543906
0.00543604
0.00543542
0.00543288
0.00543291
0.00544183
0.00543267
0.00543898
0.00543533
0.00543711
0.00543911
0.00544023
0.00545021
0.00544016
0.0054326
0.00543539
0.00543921
0.00543985
0.00543521
0.00544022
0.00543703
0.00545018
0.00543537
0.00544035
0.00544129
0.00543929
0.00544357
0.00544162
0.00544569
0.00543914
0.00543186
0.0054314
0.00544506
0.00543812
0.00543983
0.00543594
0.00544345
0.00544069
0.00543538
0.00544113
0.0054363
0.00544029
0.00543629
0.00543533
0.00545227
0.0054446
0.00544373
0.0054437
0.00544021
0.00543637
0.00544791
0.00544117
0.00543789
0.00543643
0.00543601
0.005445
0.00543598
0.00544435
0.00543613
0.00543129
0.00543639
0.00543278
0.00544248
0.005436
0.00545225
0.00543614
0.00544194
0.00543586
0.00544154
0.00543613
0.0054388
0.00543117
0.00543852
0.00543596
0.00544495
0.00543594
0.00543802
0.00544166
0.00543998
0.00543615
0.00543636
0.00543701
0.0054424
0.00543636
0.00543971
0.00543904
0.00544561
0.00543635
0.0054369
0.00543813
0.00543703
0.00543623
0.00543707
0.00544318
0.00543969
0.00543695
0.00543599
0.00544028
0.00544031
0.00543633
0.00544557
0.00542843
0.00543909
0.00543286
0.00543821
0.00542203
0.00542203
0.00542213
0.0054221
0.00542212
0.005422
0.00542205
0.0054425
0.00544727
0.00543933
0.00543794
0.00543708
0.00543702
0.00544022
0.00543699
0.00543688
0.00544731
0.00543703
0.00544336
0.00543497
0.005443
0.00543879
0.00543787
0.00543697
0.00544509
0.00543903
0.00543798
0.00543906
0.00543801
0.00543683
0.00543515
0.00543792
0.00543889
0.00544338
0.00543724
0.00543673
0.0054371
0.00543776
0.00543884
0.0054403
0.0054371
0.00544026
0.0054386
0.00543783
0.0054399
0.00543862
0.00543696
0.00544148
0.00543804
0.00544697
0.0054313
0.00544244
0.00544318
0.00543888
0.005438
0.00544115
0.00542855
0.00543881
0.00543801
0.00543122
0.00545215
0.00545224
0.00543904
0.00543705
0.00543817
0.00543719
0.00545619
0.00545615
0.00543949
0.00543986
0.0054399
0.00542855
0.00543684
0.00544176
0.00543764
0.00543753
0.00543778
0.00542833
0.00544167
0.00543696
0.00543896
0.00543897
0.00543753
0.00543791
0.00543753
0.00543767
0.00543041
0.00543281
0.00543791
0.00543905
0.005438
0.00543745
0.00543791
0.00543814
0.00543801
0.00543131
0.00544388
0.00543715
0.00544109
0.00544171
0.00543127
0.00543864
0.00543852
0.00544559
0.005452
0.00545198
0.00544472
0.00543678
0.00543901
0.0054311
0.00545149
0.00545546
0.00545544
0.0054282
0.00544837
0.00544973
0.00543879
0.00544422
0.00543919
0.00544
0.00544159
0.00544235
0.00543991
0.00542851
0.00543894
0.00544093
0.00544172
0.00542972
0.0054489
0.00543106
0.00544161
0.00544025
0.00543614
0.00543904
0.00543973
0.00544594
0.00543984
0.00544591
0.00543872
0.00544193
0.00544939
0.00544952
0.00543117
0.00544044
0.00542838
0.00542864
0.00542809
0.00544157
0.00542845
0.00542782
0.00543747
0.00542825
0.00544673
0.00544671
0.00542846
0.00543802
0.00543045
0.00542834
0.00543023
0.0054283
0.00543023
0.00544859
0.00543075
0.00542847
0.00542841
0.00543967
0.00544271
0.00543004
0.0054398
0.0054279
0.00544028
0.00543813
0.00542818
0.00542988
0.005428
0.00542819
0.00543867
0.00544724
0.00545502
0.0054547
0.00544062
0.00545497
0.00545495
0.00545482
0.00545288
0.00543098
0.00544919
0.00544488
0.00544736
0.0054404
0.00545345
0.00545343
0.00544774
0.00542807
0.00543796
0.00542829
0.00543092
0.00543094
0.00545109
0.00545102
0.00545083
0.0054509
0.00545107
0.00545457
0.00545089
0.00545347
0.00545513
0.0054512
0.00545122
0.00545522
0.0054546
0.0054535
0.00545085
SCALARS rr_tsim float
LOOKUP_TABLE default
30
30
30
30
30
30
30
30
30
30
30
30
30
30
30
30
30
30
30
30
30
30
30
30
30
30
30
30
30
30
30
30
30
30
30
30
30
30
30
30
30
30
30
30
30
30
30
30
30
30
30
30
30
30
30
30
30
30
30
30
30
30
30
30
30
30
30
30
30
30
30
30
30
30
30
30
30
30
30
30
30
30
30
30
30
30
30
30
30
30
30
30
30
30
30
30
30
30
30
30
30
30
30
30
30
30
30
30
30
30
30
30
30
30
30
30
30
30
30
30
30
30
30
30
30
30
30
30
30
30
30
30
30
30
30
30
30
30
30
30
30
30
30
30
30
30
30
30
30
30
30
30
30
30
30
30
30
30
30
30
30
30
30
30
30
30
30
30
30
30
30
30
30
30
30
30
30
30
30
30
30
30
30
30
30
30
30
30
30
30
30
30
30
30
30
30
30
30
30
30
30
30
30
30
30
30
30
30
30
30
30
30
30
30
30
30
30
30
30
30
30
30
30
30
30
30
30
30
30
30
30
30
30
30
30
30
30
30
30
30
30
30
30
30
30
30
30
30
30
30
30
30
30
30
30
30
30
30
30
30
30
30
30
30
30
30
30
30
30
30
30
30
30
30
30
30
30
30
30
30
30
30
30
30
30
30
30
30
30
30
30
30
30
30
30
30
30
30
30
30
30
30
30
30
30
30
30
30
30
30
30
30
30
30
30
30
30
30
30
30
30
30
30
30
30
30
30
30
30
30
30
30
30
30
30
30
30
30
30
30
30
30
30
30
30
30
30
30
30
30
30
30
30
30
30
30
30
30
30
30
30
30
30
30
30
30
30
30
30
30
30
30
30
30
30
30
30
30
30
30
30
30
30
30
30
30
30
30
30
30
30
30
30
30
30
30
30
30
30
30
30
30
30
30
30
30
30
30
30
30
30
30
30
30
30
30
30
30
30
30
30
30
30
30
30
30
30
30
30
30
30
30
30
30
30
30
30
30
30
30
30
30
30
30
30
30
30
30
30
30
30
30
30
30
30
30
30
30
30
30
30
30
30
30
30
30
30
30
30
30
30
30
30
30
30
30
30
30
30
30
30
30
30
30
30
30
30
30
30
30
30
30
30
30
30
30
30
30
30
30
30
30
30
30
30
30
30
30
30
30
30
30
30
30
30
30
30
30
30
30
30
30
30
30
30
30
30
30
30
30
30
30
30
30
30
30
30
30
30
30
30
30
30
30
30
30
30
30
30
30
30
30
30
30
30
30
30
30
30
30
30
30
30
SCALARS rr_Vext float
LOOKUP_TABLE default
0.181366
0.449162
0.356079
0.468151
0.250508
0.37786
0.179282
0.465128
0.395139
0.504609
0.165397
0.466548
0.409861
0.435049
0.516172
0.424901
0.369074
0.414219
0.365561
0.360558
0.405143
0.0765126
0.415105
0.383046
0.347135
0.403506
0.155019
0.352863
0.267432
0.339263
0.362
0.276505
0.171529
0.252914
0.24926
0.253465
0.330142
0.249504
0.36157
0.192847
0.224737
0.291064
0.291073
0.397306
0.216898
0.244137
0.344641
0.350213
0.330107
0.303782
0.312875
0.245255
0.401543
0.315231
0.369438
0.157763
0.266192
0.31754
0.266164
0.393218
0.470968
0.464908
0.153284
0.327667
0.445347
0.417407
0.455692
0.391938
0.358016
0.515601
0.435582
0.430818
0.277674
0.33877
0.354002
0.176435
0.372701
0.413509
0.395202
0.271153
0.240506
0.283524
0.527573
0.240266
0.327784
0.119299
0.407614
0.344636
0.22972
0.0374839
0.273113
0.0407619
0.316379
0.299335
0.258679
0.232999
0.220923
0.442969
0.372937
0.351885
0.293559
0.27779
0.230493
0.418612
0.426173
0.383865
0.340652
0.340877
0.244645
0.512563
0.326054
0.164049
0.22007
0.457918
0.429756
0.304505
0.308647
0.18352
0.320052
0.303389
0.267007
0.502686
0.511854
0.442075
0.484567
0.384978
0.220827
0.478251
0.200092
0.262299
0.227517
0.456434
0.449059
0.448288
0.288958
0.187547
0.19065
0.327467
0.4045
0.187469
0.24156
0.387321
0.287993
0.472797
0.22329
0.385222
0.349759
0.336155
0.214808
0.269567
0.304323
0.440664
0.248044
0.397444
0.462028
0.469283
0.307881
0.249026
0.247675
0.40117
0.33388
0.246134
0.160086
0.239721
0.240485
0.430993
0.252367
0.25512
0.274639
0.245957
0.38637
0.258203
0.226074
0.297738
0.272832
0.340331
0.382144
0.361162
0.313997
0.360875
0.266586
0.418282
0.44889
0.241632
0.442334
0.239456
0.43683
0.402767
0.378991
0.379447
0.446261
0.200788
0.266948
0.246034
0.447448
0.439058
0.407233
0.447929
0.452991
0.381895
0.466609
0.307741
0.274131
0.512771
0.285567
0.46599
0.36999
0.226671
0.286362
0.461764
0.389062
0.350335
0.450093
0.44529
0.278881
0.284243
0.267563
0.395482
0.433456
0.498134
0.478129
0.520415
0.471598
0.515331
0.43209
0.457235
0.460684
0.434386
0.45639
0.422945
0.416661
0.282433
0.389442
0.454335
0.312146
0.470306
0.432187
0.492703
0.288268
0.468318
0.448716
0.284522
0.406942
0.282491
0.455273
0.411326
0.296278
0.277699
0.235568
0.271115
0.455809
0.197514
0.34705
0.276549
0.313928
0.468713
0.455587
0.147795
0.457143
0.236446
0.261784
0.466311
0.379057
0.264605
0.522226
0.291254
0.147786
0.267744
0.406433
0.508962
0.382722
0.457787
0.425188
0.226629
0.21675
0.175989
0.20144
0.308154
0.229094
0.372011
0.227542
0.40642
0.287646
0.268122
0.323978
0.293545
0.398553
0.281509
0.287618
0.136375
0.303592
0.437841
0.438089
0.391556
0.281138
0.192369
0.545921
0.360518
0.298341
0.274313
0.284994
0.282751
0.358867
0.278113
0.19207
0.274813
0.183508
0.351093
0.279598
0.127096
0.263742
0.321362
0.279336
0.443704
0.290733
0.3815
0.138322
0.305687
0.287036
0.261641
0.269339
0.322017
0.308746
0.321073
0.266585
0.271185
0.293882
0.403631
0.276117
0.399055
0.358816
0.290814
0.286497
0.290146
0.323399
0.289935
0.270138
0.308553
0.333052
0.387898
0.290192
0.286375
0.425176
0.419281
0.276233
0.290853
0.117374
0.34209
0.227693
0.319706
0.126307
0.131126
0.117236
0.119132
0.126414
0.13308
0.137189
0.365845
0.275218
0.269685
0.305558
0.29623
0.292431
0.314734
0.286016
0.29241
0.31084
0.291337
0.368814
0.261083
0.378861
0.289126
0.277601
0.291619
0.322786
0.32902
0.30472
0.351077
0.326056
0.300413
0.213991
0.303884
0.298886
0.328303
0.305332
0.288541
0.275057
0.304087
0.319117
0.436195
0.283328
0.424033
0.438694
0.298888
0.422896
0.322501
0.255698
0.356821
0.307342
0.229517
0.185281
0.353374
0.377165
0.313457
0.259564
0.317037
0.13821
0.309888
0.289536
0.140577
0.0597507
0.0653776
0.268673
0.283316
0.331383
0.316611
0.0311315
0.0325293
0.318206
0.321567
0.304265
0.103728
0.264747
0.315927
0.315667
0.272097
0.2403
0.107868
0.4645
0.284968
0.352188
0.3577
0.255183
0.32347
0.249495
0.275502
0.129746
0.199394
0.323831
0.327776
0.280347
0.293586
0.303682
0.32053
0.306433
0.143969
0.275797
0.301376
0.290906
0.437519
0.143866
0.23375
0.240591
0.234537
0.15563
0.155634
0.267716
0.208523
0.301896
0.153865
0.185533
0.0614181
0.0614156
0.112315
0.199643
0.134977
0.25702
0.284556
0.297831
0.337027
0.30744
0.285252
0.222233
0.127177
0.278072
0.290602
0.282459
0.144137
0.147652
0.104634
0.281969
0.285993
0.224197
0.258271
0.238731
0.223804
0.292934
0.22377
0.257224
0.251404
0.158054
0.195249
0.165317
0.31067
0.112711
0.118923
0.115943
0.294555
0.107695
0.104736
0.200932
0.0979357
0.243168
0.243522
0.100663
0.255465
0.113728
0.110993
0.127161
0.105862
0.105728
0.174214
0.126248
0.11278
0.106281
0.235828
0.272678
0.11875
0.260336
0.0960802
0.264808
0.208188
0.100555
0.0864394
0.0948731
0.126466
0.225569
0.19219
0.0824445
0.0914095
0.253875
0.0775878
0.0775845
0.0878738
0.0979651
0.0995905
0.12734
0.207545
0.193805
0.253787
0.0775266
0.0775232
0.229264
0.0843503
0.178728
0.0765223
0.0783454
0.103276
0.198603
0.205604
0.218915
0.200667
0.198588
0.0438935
0.320394
0.0557553
0.0543431
0.259018
0.257248
0.0563358
0.0390582
0.0548061
0.238569
SCALARS rr_Vli float
LOOKUP_TABLE default
0.396492
0.903324
0.721424
0.942931
0.493014
0.765686
0.392039
0.937697
0.806289
1.01515
0.359841
0.940569
0.827725
0.874178
1.02415
0.859753
0.739415
0.835939
0.748817
0.732074
0.823503
0.146197
0.843761
0.777648
0.704907
0.813163
0.333354
0.714276
0.560621
0.659812
0.731246
0.579541
0.369278
0.494401
0.485913
0.495515
0.641467
0.486905
0.730503
0.415072
0.471221
0.565339
0.565399
0.802537
0.463331
0.511159
0.70468
0.713591
0.668699
0.640156
0.657329
0.509721
0.791299
0.65497
0.728515
0.3361
0.518817
0.659772
0.5188
0.798068
0.94389
0.925054
0.327846
0.652235
0.886033
0.836217
0.913025
0.789796
0.72731
1.03674
0.858525
0.849171
0.582223
0.676869
0.716989
0.381189
0.738177
0.828461
0.796444
0.562494
0.507634
0.556459
1.05353
0.508343
0.6854
0.254584
0.825098
0.689505
0.49067
0.0719442
0.567542
0.0782469
0.626365
0.600275
0.537121
0.489913
0.466227
0.89124
0.738725
0.711169
0.604233
0.579687
0.48776
0.844135
0.858105
0.772737
0.679564
0.689399
0.51777
1.02968
0.661696
0.349485
0.467069
0.923847
0.865461
0.632507
0.601624
0.387419
0.624013
0.630007
0.547974
0.998337
1.0295
0.884302
0.972885
0.763271
0.431758
0.962264
0.422261
0.54466
0.448462
0.918506
0.897134
0.901849
0.602914
0.365544
0.40419
0.66095
0.807754
0.365421
0.50355
0.778955
0.590257
0.951087
0.471541
0.776087
0.704341
0.680973
0.435259
0.556282
0.620264
0.886333
0.519994
0.80252
0.929468
0.944289
0.617871
0.518669
0.515726
0.81022
0.680225
0.515671
0.341245
0.50365
0.50094
0.86754
0.525657
0.531456
0.575709
0.512248
0.764786
0.536487
0.475025
0.597042
0.566773
0.679118
0.75647
0.728178
0.618525
0.726393
0.558773
0.84166
0.903331
0.503634
0.884806
0.50342
0.873831
0.803304
0.749933
0.763411
0.892565
0.423353
0.554583
0.515702
0.900236
0.886326
0.821735
0.894928
0.911223
0.765291
0.938444
0.629691
0.568307
1.02456
0.598485
0.930577
0.741297
0.473252
0.569212
0.928601
0.772747
0.703624
0.906461
0.889161
0.575344
0.570487
0.554214
0.788803
0.870403
1.00031
0.961044
1.04561
0.947479
1.03542
0.868736
0.90772
0.914792
0.862366
0.905955
0.833949
0.821534
0.583019
0.782816
0.915935
0.636256
0.933144
0.857231
0.993054
0.597491
0.944398
0.902781
0.586751
0.808821
0.582789
0.90888
0.829751
0.610896
0.574996
0.497316
0.572074
0.910126
0.417623
0.701502
0.57286
0.64273
0.945286
0.914994
0.286932
0.918321
0.500207
0.542272
0.940129
0.764222
0.548663
1.04891
0.596692
0.286932
0.554514
0.816001
1.01859
0.772256
0.908489
0.850845
0.44661
0.437765
0.374442
0.429892
0.608697
0.465573
0.750013
0.469397
0.807689
0.576833
0.555355
0.649565
0.604011
0.802299
0.579194
0.596035
0.263023
0.600457
0.868532
0.869151
0.787231
0.578078
0.376395
1.09288
0.73432
0.613275
0.565382
0.562971
0.583139
0.710477
0.572692
0.410204
0.565182
0.3877
0.700144
0.576614
0.245152
0.543091
0.64213
0.576635
0.887265
0.598814
0.772196
0.296228
0.619821
0.592078
0.517052
0.555831
0.655897
0.617331
0.645568
0.549025
0.557662
0.602213
0.805007
0.567886
0.804529
0.726263
0.573167
0.589144
0.594792
0.657861
0.593811
0.556009
0.631825
0.662563
0.782202
0.594667
0.590825
0.855311
0.843331
0.568315
0.57329
0.256092
0.692621
0.480638
0.650122
0.287609
0.298553
0.266805
0.271174
0.287685
0.303059
0.312314
0.729362
0.539734
0.544581
0.622621
0.606517
0.598949
0.633537
0.586147
0.5995
0.609482
0.596728
0.732677
0.542559
0.753127
0.58602
0.565714
0.597481
0.637481
0.666131
0.620609
0.710736
0.664015
0.615759
0.444051
0.619314
0.605589
0.65202
0.624654
0.591884
0.562887
0.620035
0.646739
0.877941
0.579873
0.853571
0.889764
0.609294
0.852452
0.653947
0.523855
0.713562
0.625442
0.45041
0.395673
0.704487
0.750332
0.635218
0.528064
0.63527
0.301241
0.628039
0.589282
0.300918
0.1153
0.126128
0.544019
0.580113
0.673755
0.64768
0.0592778
0.0619393
0.641415
0.648105
0.613499
0.226116
0.542819
0.631029
0.643435
0.55503
0.489891
0.235473
0.929308
0.583749
0.713252
0.724403
0.520597
0.658866
0.509004
0.561663
0.279106
0.421186
0.65965
0.663727
0.570449
0.599141
0.618274
0.651911
0.62354
0.307433
0.54711
0.616848
0.583031
0.874925
0.307374
0.473547
0.487767
0.462251
0.300519
0.300539
0.529566
0.427604
0.611553
0.329012
0.358881
0.117177
0.117177
0.245402
0.389627
0.262499
0.521065
0.563553
0.601429
0.677666
0.614674
0.569084
0.448049
0.277255
0.562562
0.582816
0.564263
0.311562
0.287929
0.224288
0.563467
0.574866
0.461954
0.521762
0.481467
0.440846
0.590111
0.440808
0.520837
0.50216
0.307817
0.380034
0.3534
0.624
0.246789
0.259983
0.254337
0.589299
0.234984
0.230141
0.410021
0.214647
0.477131
0.477853
0.220337
0.519625
0.244578
0.243125
0.273906
0.231961
0.227743
0.339836
0.270702
0.246
0.232681
0.475762
0.543016
0.25612
0.525122
0.211014
0.532704
0.423231
0.220457
0.186666
0.208257
0.276323
0.45748
0.376615
0.157553
0.174884
0.51
0.148308
0.148307
0.16805
0.188631
0.213209
0.248118
0.410283
0.379769
0.510355
0.149006
0.149005
0.44852
0.184464
0.36362
0.167151
0.168153
0.221558
0.384555
0.398201
0.42422
0.388784
0.384545
0.0840111
0.620741
0.107164
0.10383
0.501452
0.497972
0.107597
0.0747336
0.105302
0.462549
SCALARS rr_S_ext' float
LOOKUP_TABLE default
-0.0033804
-0.00774257
-0.00618076
-0.00808138
-0.00423065
-0.0065599
-0.00334237
-0.00803601
-0.00690488
-0.00870087
-0.00306888
-0.00806061
-0.00709285
-0.00749307
-0.00878458
-0.00736652
-0.00633897
-0.00716353
-0.00641115
-0.00627119
-0.00705393
-0.00125641
-0.00722744
-0.00666162
-0.00603842
-0.0069689
-0.00284521
-0.00611978
-0.00479291
-0.00566539
-0.00626603
-0.00495471
-0.00315159
-0.00424397
-0.00417177
-0.00425351
-0.00550812
-0.00418007
-0.00625959
-0.00354248
-0.00402854
-0.0048545
-0.004855
-0.00687695
-0.00395629
-0.0043704
-0.00603395
-0.00611159
-0.00572906
-0.00547103
-0.00561889
-0.00436014
-0.00678975
-0.00560271
-0.00625082
-0.00287042
-0.00445431
-0.00564378
-0.00445415
-0.00683667
-0.00809176
-0.00793348
-0.00279919
-0.00559359
-0.00759888
-0.00716881
-0.00782727
-0.00676867
-0.00623017
-0.00888615
-0.00736652
-0.00728624
-0.00497752
-0.00580359
-0.00614293
-0.00325248
-0.00633229
-0.0071023
-0.00682559
-0.00481211
-0.004338
-0.0047758
-0.00903352
-0.00434339
-0.00586064
-0.002174
-0.00706929
-0.0059115
-0.00418976
-0.000618143
-0.00485479
-0.000672291
-0.00537323
-0.00514578
-0.00459481
-0.00418758
-0.0039842
-0.00763884
-0.00633695
-0.00609381
-0.00517174
-0.00495738
-0.00416745
-0.00723413
-0.0073544
-0.00662295
-0.00582718
-0.00590703
-0.00442384
-0.00882611
-0.00566846
-0.00298472
-0.0039899
-0.007917
-0.0074175
-0.00541067
-0.00516523
-0.00331068
-0.00535738
-0.00538937
-0.00469105
-0.00856277
-0.00882402
-0.00758176
-0.00833956
-0.00654712
-0.00370627
-0.00824757
-0.0036085
-0.00465927
-0.00384796
-0.00787242
-0.00769229
-0.00772978
-0.00515605
-0.00313836
-0.00345304
-0.00566389
-0.00692608
-0.00313729
-0.00430656
-0.00667648
-0.00505343
-0.00815175
-0.00402945
-0.00665131
-0.00603644
-0.00583419
-0.00372905
-0.00476054
-0.00531213
-0.00759688
-0.00444555
-0.00687695
-0.00796644
-0.00809344
-0.0052965
-0.00443611
-0.004411
-0.00694285
-0.00582586
-0.00440877
-0.00291424
-0.00430521
-0.00428443
-0.00743552
-0.00449586
-0.00454542
-0.00492191
-0.0043812
-0.00656072
-0.00458918
-0.00406052
-0.0051182
-0.00484831
-0.00582326
-0.00648936
-0.00624034
-0.00530743
-0.00622567
-0.00477715
-0.00721385
-0.00774238
-0.0043073
-0.007586
-0.00430308
-0.00749197
-0.00688835
-0.00643344
-0.00654323
-0.00765257
-0.00361804
-0.00474401
-0.00440891
-0.00771592
-0.0075952
-0.00704186
-0.00767336
-0.00781016
-0.00656067
-0.00804355
-0.00539161
-0.00486205
-0.00878485
-0.00511671
-0.00797923
-0.00635504
-0.00404702
-0.00488187
-0.00795924
-0.00662785
-0.00603126
-0.00776876
-0.00762414
-0.00492374
-0.00489023
-0.00474174
-0.00676399
-0.00746102
-0.00857458
-0.00823754
-0.00896265
-0.0081215
-0.00887525
-0.00744615
-0.00778571
-0.00784626
-0.00739669
-0.00777061
-0.00715549
-0.00704897
-0.00498925
-0.00670981
-0.00784962
-0.00544914
-0.00800402
-0.00735301
-0.00851064
-0.00511178
-0.00809342
-0.00773778
-0.00502151
-0.00693691
-0.00498748
-0.00779332
-0.00711076
-0.00522819
-0.00491966
-0.00424977
-0.00488874
-0.00780394
-0.00356842
-0.00601095
-0.00490126
-0.00550302
-0.00810098
-0.00784319
-0.00246391
-0.00787161
-0.00427393
-0.00463954
-0.00805694
-0.00654925
-0.00469393
-0.00899103
-0.00510866
-0.00246391
-0.00474435
-0.00699476
-0.00873285
-0.00661788
-0.00779245
-0.00729467
-0.00383214
-0.00375125
-0.00319813
-0.00367101
-0.00522228
-0.00398805
-0.00642748
-0.00401711
-0.00692724
-0.00494495
-0.0047515
-0.0055684
-0.00516996
-0.00687614
-0.00495757
-0.00509939
-0.00225935
-0.00515124
-0.00744986
-0.00745511
-0.00674757
-0.00494821
-0.00323085
-0.00936968
-0.00628922
-0.00524958
-0.00483883
-0.00482997
-0.00499057
-0.00609478
-0.00490168
-0.00350271
-0.00483775
-0.0033129
-0.00600376
-0.00493474
-0.00210583
-0.00464832
-0.00550571
-0.00493462
-0.00760729
-0.00512516
-0.00661616
-0.00252903
-0.00531003
-0.00506702
-0.00443589
-0.00475667
-0.00561752
-0.00529293
-0.00553336
-0.00469906
-0.00477343
-0.00515585
-0.00690296
-0.00486089
-0.00689473
-0.00622253
-0.00491806
-0.00504291
-0.0050922
-0.00563481
-0.0050841
-0.00475901
-0.00540962
-0.00568224
-0.0067033
-0.00509126
-0.00505623
-0.00733082
-0.0072282
-0.00486446
-0.00491908
-0.00218364
-0.00593416
-0.00410728
-0.00556863
-0.00244519
-0.00253826
-0.00226841
-0.00230552
-0.00244593
-0.00257654
-0.00265529
-0.00625443
-0.00463235
-0.00466657
-0.00533239
-0.00519296
-0.00512808
-0.00542979
-0.00501827
-0.00513247
-0.00523103
-0.00510905
-0.00628409
-0.00464106
-0.00645929
-0.00502053
-0.004845
-0.00511541
-0.00546929
-0.00570724
-0.00531533
-0.00608942
-0.00568711
-0.00527176
-0.00379876
-0.00530401
-0.00518829
-0.0055924
-0.00534851
-0.00506711
-0.00481957
-0.00531004
-0.00554075
-0.0075245
-0.00496498
-0.00731559
-0.00762248
-0.00521812
-0.00730544
-0.00560236
-0.00448506
-0.00611797
-0.00535701
-0.00386559
-0.00337864
-0.00604114
-0.00643496
-0.00544207
-0.00452305
-0.00544606
-0.0025688
-0.00538054
-0.00504725
-0.00256915
-0.000990393
-0.00108342
-0.00466097
-0.00496688
-0.00577114
-0.0055457
-0.000509521
-0.000532397
-0.00549698
-0.00555427
-0.00525753
-0.00192818
-0.00464719
-0.00541071
-0.00551061
-0.00475327
-0.00419553
-0.00200776
-0.00796743
-0.00499789
-0.00611085
-0.00620639
-0.00445834
-0.00564297
-0.00435905
-0.00481023
-0.00238215
-0.00359908
-0.00564965
-0.00568657
-0.00488603
-0.00513089
-0.00529548
-0.00558391
-0.00534076
-0.00262518
-0.00469282
-0.00528153
-0.00499817
-0.0075014
-0.00262458
-0.00405712
-0.00417876
-0.00396634
-0.00258127
-0.00258143
-0.00454301
-0.00366079
-0.00523943
-0.00280919
-0.00308229
-0.00100709
-0.00100709
-0.0020923
-0.00334492
-0.0022539
-0.00446399
-0.00483432
-0.00515373
-0.00580848
-0.00527016
-0.00487982
-0.00383969
-0.00236423
-0.00482015
-0.00499615
-0.0048382
-0.00265831
-0.00247191
-0.00191474
-0.00483128
-0.00492741
-0.00395369
-0.00447097
-0.00412603
-0.00378275
-0.00505742
-0.0037824
-0.00446242
-0.0043057
-0.00264282
-0.00326296
-0.00301749
-0.00534876
-0.00210383
-0.00221654
-0.0021679
-0.0050524
-0.00200367
-0.00196144
-0.00351133
-0.0018297
-0.00409501
-0.0041012
-0.00187837
-0.0044508
-0.00208751
-0.00207255
-0.00233757
-0.00197733
-0.0019436
-0.00291753
-0.00231091
-0.00209764
-0.00198357
-0.00407706
-0.00465677
-0.00218559
-0.00450007
-0.00179848
-0.00456577
-0.00362527
-0.0018792
-0.00159277
-0.00177506
-0.00235592
-0.00391916
-0.00323253
-0.00135399
-0.00150285
-0.00437151
-0.00127453
-0.00127451
-0.00144415
-0.00162045
-0.0018203
-0.00213021
-0.00351984
-0.00325959
-0.00437429
-0.00128017
-0.00128016
-0.00385003
-0.00157264
-0.00311452
-0.00142516
-0.00143539
-0.00189132
-0.00330263
-0.00341979
-0.00364314
-0.00333886
-0.00330254
-0.000721928
-0.00533092
-0.00092069
-0.000892312
-0.00430661
-0.00427675
-0.000924707
-0.000642216
-0.000904708
-0.00397218
SCALARS rr_P_ext' float
LOOKUP_TABLE default
5.04828e-05
0.000117308
9.35249e-05
0.000122407
6.43595e-05
9.92595e-05
4.99126e-05
0.000121704
0.000104354
0.000131821
4.58694e-05
0.000122077
0.000107387
0.000113548
0.000133434
0.000111489
9.61122e-05
0.00010847
9.68288e-05
9.48578e-05
0.000106678
1.922e-05
0.000109303
0.000100767
9.13352e-05
0.00010555
4.26138e-05
9.262e-05
7.2102e-05
8.63814e-05
9.48635e-05
7.45385e-05
4.71932e-05
6.46476e-05
6.35766e-05
6.47919e-05
8.39985e-05
6.36899e-05
9.47643e-05
5.30486e-05
6.06014e-05
7.40358e-05
7.40422e-05
0.000104113
5.93237e-05
6.57596e-05
9.11599e-05
9.23866e-05
8.66942e-05
8.22296e-05
8.44964e-05
6.56889e-05
0.000103264
8.44123e-05
9.50558e-05
4.30612e-05
6.78851e-05
8.50314e-05
6.78815e-05
0.000103419
0.00012268
0.000120437
4.19645e-05
8.49097e-05
0.00011536
0.000108698
0.000118677
0.000102519
9.42288e-05
0.000134641
0.000112033
0.000110811
7.48763e-05
8.80403e-05
9.29556e-05
4.86732e-05
9.62145e-05
0.000107687
0.00010338
7.25217e-05
6.51823e-05
7.26882e-05
0.00013705
6.52359e-05
8.82028e-05
3.26041e-05
0.000106989
8.9656e-05
6.28256e-05
9.44873e-06
7.31424e-05
1.02762e-05
8.16498e-05
7.80109e-05
6.92345e-05
6.29636e-05
5.98675e-05
0.000115727
9.62831e-05
9.22485e-05
7.8045e-05
7.46338e-05
6.25919e-05
0.000109552
0.000111407
0.000100326
8.84247e-05
8.94104e-05
6.64408e-05
0.000133754
8.57492e-05
4.47762e-05
5.9895e-05
0.000119885
0.000112354
8.15226e-05
7.87185e-05
4.97439e-05
8.16433e-05
8.12061e-05
7.0827e-05
0.00013004
0.000133692
0.000114987
0.000126395
9.94634e-05
5.64522e-05
0.000124949
5.4222e-05
7.0206e-05
5.85223e-05
0.000119263
0.000116692
0.000117108
7.76266e-05
4.78303e-05
5.18449e-05
8.57621e-05
0.000105078
4.78133e-05
6.48475e-05
0.000101161
7.6316e-05
0.000123506
6.05401e-05
0.000100744
9.14442e-05
8.82859e-05
5.64248e-05
7.18086e-05
8.03001e-05
0.000115099
6.68768e-05
0.000104119
0.000120697
0.000122613
8.02798e-05
6.68077e-05
6.64326e-05
0.000105113
8.80695e-05
6.63305e-05
4.37142e-05
6.47411e-05
6.45226e-05
0.000112637
6.7707e-05
6.84518e-05
7.40433e-05
6.59819e-05
9.96987e-05
6.91422e-05
6.106e-05
7.75877e-05
7.30486e-05
8.83605e-05
9.86128e-05
9.45111e-05
8.07255e-05
9.43149e-05
7.18665e-05
0.000109286
0.000117292
6.48604e-05
0.000115055
6.47013e-05
0.000113624
0.00010453
9.77701e-05
9.91289e-05
0.000116067
5.43735e-05
7.14771e-05
6.6327e-05
0.000116896
0.000114999
0.00010663
0.000116403
0.000118328
9.94709e-05
0.000121869
8.1445e-05
7.32815e-05
0.000133262
7.69763e-05
0.000121053
9.63575e-05
6.09236e-05
7.41292e-05
0.000120594
0.000100654
9.14068e-05
0.000117678
0.000115669
7.42742e-05
7.41235e-05
7.14786e-05
0.000102642
0.000113076
0.000129952
0.000124822
0.000135819
0.000123073
0.000134493
0.000112827
0.000118247
0.000119162
0.00011234
0.000118021
0.000108817
0.000107198
7.52542e-05
0.000101673
0.000118878
8.23666e-05
0.000121577
0.000111695
0.000128895
7.70488e-05
0.000122563
0.000117226
7.57531e-05
0.000105337
7.52348e-05
0.000118241
0.000107676
7.88736e-05
7.41654e-05
6.38542e-05
7.34617e-05
0.000118396
5.3602e-05
9.09904e-05
7.38824e-05
8.3121e-05
0.000122675
0.000118864
3.75803e-05
0.000119289
6.41935e-05
6.99381e-05
0.000122017
9.91897e-05
7.07454e-05
0.000136258
7.71555e-05
3.75797e-05
7.15197e-05
0.000106013
0.000132433
0.000100209
0.000118359
0.00011063
5.82831e-05
5.67927e-05
4.79886e-05
5.50548e-05
7.93908e-05
6.03131e-05
9.73452e-05
6.05973e-05
0.000105192
7.49604e-05
7.16265e-05
8.44192e-05
7.80219e-05
0.000104171
7.48174e-05
7.68644e-05
3.45032e-05
7.82912e-05
0.000113165
0.000113242
0.000102241
7.46838e-05
4.9206e-05
0.000142081
9.50796e-05
7.92365e-05
7.3003e-05
7.34255e-05
7.52855e-05
9.26151e-05
7.39625e-05
5.25241e-05
7.3015e-05
4.97708e-05
9.111e-05
7.4444e-05
3.21583e-05
7.014e-05
8.35213e-05
7.44296e-05
0.000115382
7.73325e-05
0.000100129
3.79057e-05
8.03382e-05
7.64364e-05
6.74307e-05
7.17499e-05
8.49267e-05
8.02816e-05
8.384e-05
7.09043e-05
7.20447e-05
7.78654e-05
0.000104753
7.33633e-05
0.00010442
9.41752e-05
7.47962e-05
7.61118e-05
7.68983e-05
8.52057e-05
7.67878e-05
7.18161e-05
8.17072e-05
8.62704e-05
0.000101517
7.68886e-05
7.62721e-05
0.000111069
0.000109518
7.34133e-05
7.48099e-05
3.26217e-05
8.98076e-05
6.17142e-05
8.42104e-05
3.62454e-05
3.76255e-05
3.36285e-05
3.41774e-05
3.62604e-05
3.81914e-05
3.93611e-05
9.49185e-05
7.05212e-05
7.06546e-05
8.06105e-05
7.84368e-05
7.74513e-05
8.2259e-05
7.57864e-05
7.75049e-05
7.96378e-05
7.71639e-05
9.54297e-05
6.99225e-05
9.80775e-05
7.59655e-05
7.32403e-05
7.72557e-05
8.31485e-05
8.63727e-05
8.03584e-05
9.21582e-05
8.59806e-05
7.96108e-05
5.72468e-05
8.01792e-05
7.85084e-05
8.49292e-05
8.07977e-05
7.65103e-05
7.28023e-05
8.02624e-05
8.38384e-05
0.000113996
7.49977e-05
0.000110828
0.000115321
7.88765e-05
0.000110646
8.47612e-05
6.77367e-05
9.27917e-05
8.09991e-05
5.88397e-05
5.06645e-05
9.16804e-05
9.76983e-05
8.23467e-05
6.83916e-05
8.25722e-05
3.83825e-05
8.14141e-05
7.63135e-05
3.85101e-05
1.51231e-05
1.65444e-05
7.05379e-05
7.50207e-05
8.7274e-05
8.37767e-05
7.79953e-06
8.14967e-06
8.32514e-05
8.41246e-05
7.96255e-05
2.88096e-05
7.0176e-05
8.20827e-05
8.32961e-05
7.18395e-05
6.34179e-05
2.99914e-05
0.000120838
7.54831e-05
9.24759e-05
9.39223e-05
6.73808e-05
8.53096e-05
6.58801e-05
7.2708e-05
3.5676e-05
5.40719e-05
8.54099e-05
8.60582e-05
7.38783e-05
7.75405e-05
8.00617e-05
8.44382e-05
8.0754e-05
3.93662e-05
7.12853e-05
7.97793e-05
7.57783e-05
0.000113778
3.93537e-05
6.13912e-05
6.32238e-05
6.03217e-05
3.94113e-05
3.94134e-05
6.90476e-05
5.52787e-05
7.92867e-05
4.21154e-05
4.70459e-05
1.54102e-05
1.541e-05
3.1249e-05
5.09649e-05
3.43663e-05
6.75417e-05
7.34558e-05
7.80282e-05
8.80083e-05
7.99371e-05
7.40474e-05
5.81533e-05
3.53244e-05
7.29548e-05
7.57384e-05
7.33952e-05
3.97779e-05
3.76711e-05
2.86939e-05
7.32856e-05
7.46642e-05
5.96531e-05
6.76852e-05
6.24853e-05
5.75387e-05
7.66046e-05
5.75322e-05
6.75296e-05
6.53201e-05
4.02862e-05
4.97445e-05
4.52404e-05
8.10609e-05
3.14103e-05
3.31024e-05
3.23562e-05
7.66256e-05
2.99326e-05
2.92658e-05
5.30658e-05
2.73129e-05
6.23301e-05
6.24234e-05
2.8046e-05
6.73019e-05
3.12647e-05
3.0941e-05
3.50001e-05
2.95178e-05
2.91013e-05
4.44575e-05
3.46286e-05
3.13383e-05
2.96156e-05
6.17401e-05
7.06854e-05
3.27171e-05
6.81488e-05
2.68369e-05
6.91763e-05
5.48241e-05
2.80499e-05
2.38378e-05
2.64896e-05
3.51864e-05
5.9294e-05
4.92154e-05
2.07124e-05
2.29848e-05
6.62502e-05
1.9496e-05
1.94957e-05
2.20887e-05
2.47545e-05
2.72843e-05
3.24687e-05
5.35027e-05
4.96288e-05
6.62802e-05
1.95628e-05
1.95625e-05
5.86351e-05
2.34842e-05
4.70935e-05
2.12862e-05
2.15058e-05
2.83391e-05
5.0399e-05
5.21844e-05
5.55865e-05
5.09457e-05
5.03969e-05
1.10404e-05
8.13413e-05
1.40696e-05
1.36506e-05
6.57226e-05
6.52681e-05
1.4147e-05
9.82183e-06
1.38261e-05
6.06026e-05
SCALARS rr_S' float
LOOKUP_TABLE default
0.00325377
0.00745369
0.00595008
0.00777984
0.00407291
0.00631506
0.00321717
0.00773615
0.00664709
0.00837623
0.00295395
0.00775983
0.00682816
0.0072135
0.00845697
0.0070916
0.00610249
0.00689621
0.00617175
0.00603711
0.00679062
0.00120961
0.00695765
0.00641297
0.00581303
0.00670886
0.00273872
0.00589138
0.00461374
0.00545424
0.0060322
0.0047695
0.00303363
0.00408577
0.00401628
0.00409496
0.00530284
0.00402426
0.00602599
0.00340988
0.00387794
0.00467359
0.00467406
0.00662032
0.00380827
0.00420704
0.00580866
0.00588343
0.00551523
0.00526646
0.00540882
0.00419722
0.00653659
0.00539337
0.00601775
0.00276304
0.00428829
0.0054329
0.00428813
0.00658149
0.00778988
0.00763759
0.00269445
0.00538497
0.00731546
0.00690137
0.00753527
0.00651611
0.00599761
0.0085546
0.00709186
0.00701457
0.00479145
0.0055871
0.00591366
0.00313072
0.00609615
0.00683733
0.0065709
0.00463232
0.00417579
0.00459776
0.00869655
0.00418095
0.00564159
0.00209266
0.00680545
0.00569097
0.004033
0.000595114
0.00467339
0.000647244
0.00517285
0.0049538
0.00442313
0.00403102
0.00383522
0.00735382
0.00610064
0.0058664
0.00497858
0.0047721
0.0040116
0.00696419
0.00707998
0.00637584
0.00560982
0.00568658
0.00425839
0.00849681
0.00545688
0.00287306
0.00384067
0.00762157
0.00714074
0.0052085
0.00497271
0.00318689
0.0051577
0.005188
0.00451587
0.00824343
0.00849479
0.00729893
0.00802842
0.00630296
0.00356811
0.00793984
0.00347357
0.00448518
0.00370448
0.00757869
0.00740536
0.00744137
0.00496336
0.00302139
0.00332389
0.00545253
0.00666773
0.00302036
0.00414561
0.00642737
0.00486472
0.0078476
0.00387877
0.00640313
0.00581119
0.00561644
0.00358987
0.00458272
0.00511381
0.00731343
0.00427937
0.00662032
0.0076692
0.00779146
0.0050989
0.00427034
0.00424617
0.00668376
0.00560837
0.00424397
0.00280522
0.00414426
0.00412432
0.00715809
0.00432785
0.00437556
0.00473792
0.00421748
0.00631607
0.0044177
0.00390871
0.00492725
0.00466716
0.00560605
0.00624737
0.00600747
0.00510955
0.00599337
0.00459858
0.0069447
0.00745349
0.00414634
0.00730301
0.0041422
0.00721249
0.00663142
0.00619353
0.00629909
0.00736709
0.00348276
0.00456675
0.0042441
0.00742803
0.00731177
0.00677909
0.00738712
0.00751876
0.00631592
0.00774344
0.00519029
0.00468039
0.00845715
0.00492544
0.00768159
0.00611795
0.00389576
0.0046998
0.00766228
0.00638066
0.00580623
0.00747888
0.00733975
0.00473983
0.00470778
0.00456459
0.00651169
0.00718266
0.00825467
0.0079302
0.00862826
0.00781849
0.00854412
0.00716832
0.00749535
0.00755364
0.00712084
0.00748081
0.00688869
0.00678614
0.00480288
0.00645946
0.00755671
0.00524571
0.00770552
0.00707879
0.00819307
0.0049208
0.00779141
0.00744907
0.00483394
0.00667818
0.00480119
0.00750262
0.00684542
0.00503291
0.00473586
0.00409085
0.00470593
0.00751284
0.00343497
0.00578663
0.00471815
0.00529754
0.0077987
0.00755056
0.00237209
0.00757793
0.0041141
0.00446621
0.0077563
0.00630486
0.00451856
0.00865558
0.00491789
0.00237208
0.0045671
0.0067338
0.00840708
0.00637093
0.00750184
0.00702254
0.00368926
0.00361126
0.00307849
0.00353367
0.00502755
0.00383919
0.00618764
0.00386706
0.00666888
0.00476047
0.00457398
0.00536065
0.00497687
0.00661956
0.00477242
0.00490887
0.00217517
0.00495915
0.00717203
0.00717708
0.00649581
0.00476341
0.00311041
0.00902014
0.00605444
0.00505352
0.00465809
0.00464987
0.00480416
0.0058675
0.0047186
0.00337165
0.00465707
0.00318902
0.00577982
0.00475042
0.00202737
0.00447471
0.00530033
0.00475029
0.00732351
0.00493374
0.00636923
0.00243439
0.00511184
0.00487775
0.00427048
0.00457899
0.0054078
0.00509548
0.00532691
0.00452355
0.00459516
0.00496332
0.00664548
0.00467935
0.00663745
0.00599029
0.00473468
0.00485457
0.00490205
0.00542446
0.00489426
0.00458127
0.00520763
0.00547031
0.00645316
0.00490114
0.00486736
0.00705729
0.0069585
0.00468278
0.00473567
0.00210185
0.00571269
0.0039537
0.00536076
0.00235341
0.00244298
0.00218326
0.00221898
0.00235412
0.00247983
0.00255562
0.00602114
0.00445966
0.00449242
0.00513332
0.00499906
0.00493659
0.00522719
0.00483088
0.00494082
0.00503602
0.00491827
0.00604972
0.00446765
0.00621838
0.00483314
0.00466412
0.00492439
0.00526536
0.00549423
0.0051169
0.00586215
0.0054748
0.0050749
0.00365683
0.005106
0.00499464
0.00538383
0.0051488
0.00487789
0.00463961
0.0051118
0.00533395
0.00724373
0.00477959
0.00704261
0.00733797
0.00502331
0.00703283
0.00539325
0.00431758
0.00588975
0.00515703
0.00372148
0.00325223
0.0058158
0.00619495
0.00523895
0.0043542
0.00524289
0.00247259
0.00517972
0.00485884
0.00247301
0.00095349
0.00104305
0.00448701
0.00478142
0.00555571
0.00533864
0.000490543
0.000512568
0.00529186
0.00534701
0.00506134
0.00185596
0.00447365
0.00520888
0.00530489
0.00457581
0.0040389
0.00193256
0.00767021
0.00481126
0.00588278
0.00597475
0.00429189
0.00543231
0.00419631
0.00463065
0.00229299
0.0034645
0.00543874
0.00547433
0.00470364
0.00493933
0.00509779
0.00537547
0.00514139
0.00252696
0.00451781
0.00508432
0.00481171
0.00722157
0.00252638
0.0039057
0.0040228
0.00381845
0.00248508
0.00248524
0.0043736
0.00352408
0.00504388
0.00270408
0.00296743
0.000969583
0.000969577
0.00201392
0.00322025
0.0021699
0.00429737
0.00465404
0.00496141
0.00559176
0.00507357
0.0046978
0.00369641
0.00227568
0.00464026
0.00480976
0.00465772
0.00255879
0.00237978
0.00184308
0.00465106
0.00474357
0.00380602
0.00430413
0.00397206
0.00364171
0.00486871
0.00364137
0.00429588
0.00414509
0.00254431
0.00314135
0.00290458
0.0051492
0.00202501
0.00213351
0.00208668
0.00486392
0.00192862
0.00188794
0.00338024
0.00176115
0.00394236
0.00394831
0.001808
0.00428466
0.00200937
0.0019949
0.00225007
0.00190325
0.00187085
0.00280879
0.00222443
0.00201908
0.00190926
0.00392492
0.00448308
0.00210378
0.00433214
0.00173109
0.00439541
0.00348994
0.0018088
0.00153315
0.00170855
0.00226768
0.00377288
0.00311203
0.00130356
0.00144687
0.00420841
0.00122705
0.00122704
0.00139036
0.00156008
0.00175218
0.00205081
0.00338859
0.00313807
0.00421108
0.00123247
0.00123246
0.00370652
0.00151373
0.00299826
0.00137178
0.00138168
0.00182053
0.00317956
0.00329235
0.00350738
0.00321443
0.00317947
0.000695035
0.00513226
0.000886388
0.000859073
0.00414613
0.00411738
0.000890263
0.000618292
0.000871002
0.00382415
SCALARS rr_P' float
LOOKUP_TABLE default
7.61448e-05
0.000171575
0.000137157
0.000179133
9.3372e-05
0.000145576
7.52924e-05
0.000178159
0.000153435
0.000192821
6.906e-05
0.000178705
0.000157301
0.000166019
0.000194175
0.00016343
0.00014037
0.000158847
0.000142569
0.000139221
0.000156631
2.75807e-05
0.000160484
0.000147886
0.000134057
0.00015449
6.38772e-05
0.000135782
0.000107063
0.000124765
0.000138971
0.000110673
7.07717e-05
9.35501e-05
9.19119e-05
9.37619e-05
0.000121281
9.21126e-05
0.000138833
7.95455e-05
8.99924e-05
0.000106883
0.000106895
0.000152519
8.8704e-05
9.76013e-05
0.000134134
0.00013577
0.00012713
0.000122336
0.000125568
9.72322e-05
0.000149892
0.000124935
0.000138012
6.43232e-05
9.81332e-05
0.000125851
9.8131e-05
0.000151763
0.000179196
0.000175454
6.27763e-05
0.000123715
0.000168051
0.000158746
0.00017333
0.00015005
0.000138325
0.000196909
0.000162631
0.000160859
0.000111192
0.00012845
0.000136309
7.3089e-05
0.000139924
0.000157275
0.000151314
0.000107272
9.70316e-05
0.00010535
0.000199917
9.71978e-05
0.000130849
4.87333e-05
0.000156849
0.000130871
9.39367e-05
1.35804e-05
0.00010826
1.47704e-05
0.000118722
0.00011397
0.000102447
9.35965e-05
8.91151e-05
0.000169289
0.00014003
0.000135164
0.000115115
0.000110638
9.32644e-05
0.000160389
0.00016301
0.00014679
0.000128935
0.000131039
9.90044e-05
0.000195544
0.000125829
6.68843e-05
8.93427e-05
0.000175545
0.000164413
0.000120646
0.000113797
7.40551e-05
0.000118036
0.000120164
0.000104356
0.000189305
0.000195543
0.000167842
0.000184745
0.000144698
8.17e-05
0.000182781
8.07115e-05
0.000103885
8.49524e-05
0.000174472
0.000170249
0.000171301
0.000115069
6.91418e-05
7.73044e-05
0.000125597
0.000153278
6.91192e-05
9.60933e-05
0.000147951
0.000112389
0.000180651
9.01392e-05
0.000147441
0.000133802
0.000129464
8.27532e-05
0.000106015
0.000118016
0.000168349
9.93043e-05
0.000152509
0.000176546
0.000179368
0.000117323
9.89675e-05
9.84025e-05
0.000153976
0.000129419
9.84708e-05
6.53126e-05
9.62109e-05
9.55858e-05
0.000164797
0.000100302
0.00010141
0.000109944
9.77414e-05
0.000144955
0.000102334
9.07442e-05
0.000113357
0.000108109
0.000128855
0.00014338
0.000138352
0.000117157
0.000137984
0.000106708
0.000159874
0.00017159
9.61075e-05
0.000167936
9.61754e-05
0.000165855
0.000152408
0.000142134
0.000145008
0.000169407
8.09107e-05
0.000105784
9.8483e-05
0.000170997
0.000168429
0.000156146
0.000169831
0.000173079
0.000145287
0.000178245
0.000119872
0.000108372
0.000194434
0.00011429
0.000176586
0.000140728
9.03297e-05
0.000107946
0.000176373
0.000146531
0.00013362
0.000172201
0.000168724
0.000109644
0.000108326
0.000105673
0.000149658
0.000165287
0.000189958
0.000182523
0.000198575
0.000179936
0.000196639
0.000164998
0.000172114
0.00017346
0.000163514
0.000171777
0.000157983
0.00015563
0.000111115
0.000148675
0.000174025
0.000121062
0.000176921
0.000162521
0.000188671
0.000113934
0.00017944
0.000171481
0.000111812
0.000153384
0.000111063
0.000172461
0.000157663
0.000116411
0.00010963
9.5062e-05
0.000109344
0.000172702
7.98453e-05
0.00013333
0.000109229
0.000122363
0.000179611
0.000173759
5.42439e-05
0.000174396
9.56416e-05
0.000103396
0.000178623
0.0001452
0.000104628
0.000199191
0.000113608
5.42445e-05
0.000105728
0.000154953
0.000193342
0.000146744
0.000172251
0.000161499
8.45991e-05
8.31942e-05
7.16483e-05
8.22919e-05
0.000115339
8.85505e-05
0.0001425
8.94528e-05
0.000153167
0.000109521
0.000105889
0.000123325
0.000115068
0.000152403
0.000110339
0.000113653
4.96807e-05
0.000113797
0.000164665
0.000164786
0.000149518
0.000110117
7.12299e-05
0.000207452
0.000139706
0.000116818
0.000107732
0.000106675
0.000111125
0.000134665
0.000109112
7.85307e-05
0.000107663
7.41164e-05
0.000132833
0.000109881
4.63059e-05
0.000103472
0.000121859
0.000109899
0.000168397
0.000114092
0.000146792
5.6732e-05
0.000117853
0.000112831
9.7979e-05
0.000105929
0.000124785
0.000117164
0.000122613
0.000104605
0.00010623
0.000114663
0.000152731
0.000108179
0.000152859
0.000138059
0.000108574
0.000112227
0.000113256
0.000125138
0.000113055
0.000105927
0.00012029
0.000125663
0.000148621
0.000113227
0.000112594
0.00016246
0.000160181
0.000108266
0.000108599
4.91675e-05
0.000131669
9.18728e-05
0.000123661
5.55418e-05
5.76545e-05
5.15203e-05
5.23652e-05
5.55518e-05
5.85265e-05
6.0311e-05
0.000138372
0.000102171
0.000103491
0.000118461
0.000115469
0.000114034
0.000120345
0.000111605
0.000114154
0.000115372
0.000113612
0.000138936
0.000103495
0.000142826
0.00011142
0.000107635
0.00011376
0.00012079
0.000126633
0.000118071
0.000135111
0.000126327
0.000117246
8.46875e-05
0.000117834
0.000115135
0.000123637
0.00011891
0.000112712
0.000107156
0.000117979
0.000122963
0.000166769
0.000110392
0.000162143
0.000169185
0.000115932
0.000161959
0.000124342
9.97405e-05
0.00013543
0.000118978
8.52703e-05
7.5748e-05
0.000133652
0.00014231
0.000120771
0.00010045
0.000120602
5.78278e-05
0.000119407
0.000112101
5.76267e-05
2.17798e-05
2.38244e-05
0.00010342
0.000110444
0.000128154
0.000123292
1.1178e-05
1.16798e-05
0.000121865
0.000123133
0.000116564
4.34075e-05
0.000103362
0.000119747
0.000122428
0.000105617
9.32138e-05
4.5212e-05
0.000176386
0.000111142
0.000135596
0.000137716
9.90659e-05
0.000125351
9.68601e-05
0.000106871
5.34849e-05
8.05159e-05
0.000125501
0.000126178
0.000108515
0.000114017
0.000117621
0.000124004
0.000118615
5.8855e-05
0.000103727
0.000117431
0.000110688
0.000166054
5.88476e-05
9.00302e-05
9.27426e-05
8.7564e-05
5.67717e-05
5.67759e-05
0.000100363
8.14246e-05
0.000116265
6.29974e-05
6.78123e-05
2.21017e-05
2.21017e-05
4.71243e-05
7.371e-05
4.9636e-05
9.9073e-05
0.000106822
0.000114295
0.00012871
0.000116658
0.000107974
8.51279e-05
5.3225e-05
0.000106934
0.000110657
0.000107079
5.97428e-05
5.44643e-05
4.29599e-05
0.000106933
0.000109181
8.80208e-05
9.9161e-05
9.14815e-05
8.35011e-05
0.000112108
8.34951e-05
9.90145e-05
9.52922e-05
5.8216e-05
7.18688e-05
6.76647e-05
0.0001185
4.74047e-05
4.99287e-05
4.88668e-05
0.000111852
4.51156e-05
4.4228e-05
7.80267e-05
4.12361e-05
9.03284e-05
9.04658e-05
4.23217e-05
9.88422e-05
4.68666e-05
4.67037e-05
5.24976e-05
4.45609e-05
4.36499e-05
6.42863e-05
5.18517e-05
4.72285e-05
4.46938e-05
9.04013e-05
0.000103004
4.90973e-05
9.9778e-05
4.05494e-05
0.000101183
8.05005e-05
4.23543e-05
3.57891e-05
4.00171e-05
5.3062e-05
8.69875e-05
7.12866e-05
2.97235e-05
3.29981e-05
9.68525e-05
2.79803e-05
2.79802e-05
3.17068e-05
3.56214e-05
4.08307e-05
4.69285e-05
7.77501e-05
7.18829e-05
9.69331e-05
2.81319e-05
2.81318e-05
8.48785e-05
3.54267e-05
6.91693e-05
3.20968e-05
3.22134e-05
4.24413e-05
7.26734e-05
7.52546e-05
8.01782e-05
7.34788e-05
7.26721e-05
1.58525e-05
0.000117318
2.02324e-05
1.95877e-05
9.47626e-05
9.41037e-05
2.02975e-05
1.41014e-05
1.98799e-05
8.7428e-05
SCALARS rr_T' float
LOOKUP_TABLE default
0.000126273
0.000288072
0.000230035
0.000300694
0.000157289
0.000244149
0.000124854
0.000299023
0.000257066
0.000323731
0.000114607
0.000299939
0.000263946
0.000278783
0.000326689
0.000274149
0.000235819
0.000266568
0.000238727
0.000233423
0.000262571
4.66692e-05
0.00026903
0.000247955
0.00022476
0.000259311
0.000106193
0.000227761
0.000178663
0.000210554
0.000233179
0.000184693
0.000117634
0.000157754
0.000155052
0.000158109
0.000204703
0.000155365
0.000232942
0.000132222
0.000150172
0.000180411
0.000180429
0.000255912
0.000147613
0.000162903
0.000224663
0.000227516
0.000213225
0.000203992
0.000209475
0.000162464
0.000252446
0.00020876
0.000232413
0.000107083
0.000165552
0.000210291
0.000165546
0.000254467
0.00030103
0.000295061
0.000104447
0.00020804
0.000282616
0.000266693
0.000291188
0.00025186
0.000231902
0.00033062
0.000273893
0.000270908
0.000185546
0.000215883
0.000228622
0.000121421
0.000235476
0.000264219
0.00025398
0.00017929
0.000161759
0.000177539
0.000336021
0.000161978
0.000218438
8.11094e-05
0.000263098
0.000219909
0.000156323
2.29644e-05
0.000180894
2.49762e-05
0.00019981
0.000191442
0.0001712
0.000156121
0.000148565
0.000284217
0.00023565
0.000226775
0.000192618
0.000184752
0.000155419
0.000269184
0.000273648
0.000246423
0.000216749
0.000219831
0.000164981
0.000328374
0.000210985
0.000111348
0.000148819
0.000294602
0.000275991
0.000201602
0.000191976
0.000123452
0.000199119
0.000200806
0.000174692
0.000318449
0.000328311
0.000282035
0.000310267
0.000243477
0.000137764
0.000306866
0.000134555
0.000173603
0.000143072
0.000292911
0.000286135
0.0002876
0.000192155
0.000116644
0.000128787
0.000210767
0.000257631
0.000116604
0.00016049
0.000248413
0.000188176
0.000303304
0.000150257
0.000247489
0.000224614
0.000217139
0.000138788
0.000177325
0.00019776
0.000282654
0.000165715
0.000255908
0.000296409
0.000301133
0.000197049
0.00016531
0.000164373
0.000258362
0.000216879
0.000164339
0.000108721
0.000160501
0.00015966
0.000276656
0.000167538
0.000169385
0.000183471
0.000163264
0.000243967
0.000170996
0.000151379
0.000190409
0.000180649
0.000216606
0.000241314
0.00023221
0.000197328
0.000231647
0.000178074
0.000268405
0.000288071
0.000160517
0.000282197
0.000160426
0.000278695
0.000256217
0.000239231
0.000243452
0.000284673
0.000134905
0.000176764
0.000164348
0.000287085
0.000282633
0.000262039
0.000285431
0.00029059
0.000244072
0.000299272
0.000200752
0.000181144
0.000326777
0.00019073
0.000296804
0.000236421
0.000150829
0.000181565
0.000296134
0.000246491
0.000224395
0.000289067
0.000283595
0.000183402
0.000181938
0.000176655
0.000251592
0.000277583
0.000319012
0.000306483
0.000333456
0.00030216
0.000330204
0.000277046
0.000289546
0.000291801
0.00027508
0.000288984
0.000266051
0.000262091
0.000185847
0.000249646
0.000292082
0.000202858
0.000297661
0.000273447
0.000316676
0.000190447
0.000301156
0.000287897
0.000187039
0.000257995
0.000185775
0.000289886
0.000264595
0.000194737
0.00018328
0.000158471
0.000182293
0.000290281
0.000133073
0.000223691
0.000182598
0.000204908
0.000301438
0.000291802
9.15664e-05
0.000292862
0.000159387
0.000172848
0.000299796
0.000243704
0.000174882
0.000334508
0.000190229
9.15664e-05
0.000176751
0.000260234
0.000324861
0.00024626
0.000289795
0.000271365
0.000142481
0.000139594
0.000119302
0.000136962
0.000194183
0.000148446
0.000239173
0.000149629
0.000257634
0.000183964
0.000177018
0.000207162
0.000192548
0.000255854
0.000184637
0.000189984
8.39475e-05
0.000191549
0.000277051
0.000277248
0.000251052
0.000184283
0.000120098
0.000348553
0.000234128
0.000195504
0.000180229
0.000179595
0.000185887
0.000226642
0.000182562
0.000130687
0.000180172
0.00012354
0.000223315
0.000183808
7.82438e-05
0.000173126
0.000204804
0.000183811
0.000282983
0.000190888
0.000246229
9.43725e-05
0.000197635
0.000188736
0.000164946
0.000177181
0.000209124
0.000196891
0.000205874
0.000175017
0.000177775
0.000191988
0.000256761
0.000181033
0.000256557
0.000231583
0.000182856
0.00018781
0.000189621
0.000209754
0.000189311
0.000177245
0.000201431
0.000211339
0.000249436
0.000189582
0.000188337
0.000272762
0.000268942
0.000181169
0.000182895
8.156e-05
0.000220855
0.000153156
0.000207288
9.153e-05
9.50131e-05
8.49103e-05
8.63002e-05
9.15551e-05
9.6447e-05
9.93929e-05
0.000232636
0.000172208
0.000173657
0.000198513
0.000193363
0.000190949
0.000202036
0.000186866
0.000191121
0.000194462
0.000190241
0.000233708
0.000172931
0.000240228
0.00018686
0.000180369
0.00019048
0.000203366
0.000212408
0.000197873
0.000226632
0.000211713
0.000196305
0.000141536
0.000197458
0.000193101
0.000207981
0.000199148
0.000188691
0.000179454
0.000197686
0.000206221
0.000279977
0.000184869
0.000272205
0.000283709
0.000194262
0.000271841
0.000208517
0.000167008
0.000227582
0.000199416
0.000143705
0.000126058
0.000224701
0.000239335
0.000202548
0.000168368
0.000202604
9.59407e-05
0.000200258
0.000187886
9.58673e-05
3.67993e-05
4.02554e-05
0.00017347
0.000184944
0.000214823
0.000206488
1.89242e-05
1.97738e-05
0.000204541
0.000206676
0.00019564
7.20147e-05
0.000173051
0.000201264
0.000205147
0.000176958
0.000156192
7.49926e-05
0.000296391
0.000186102
0.000227432
0.000230988
0.00016598
0.00021007
0.000162284
0.000179075
8.89109e-05
0.000134211
0.00021032
0.000211641
0.000181882
0.000191021
0.000197129
0.000207858
0.00019881
9.79459e-05
0.000174521
0.000196658
0.000185943
0.000279047
9.79261e-05
0.000150997
0.000155529
0.000147471
9.59129e-05
9.59191e-05
0.000168935
0.00013632
0.000195004
0.000104818
0.000114536
3.74065e-05
3.74063e-05
7.81537e-05
0.000124325
8.37665e-05
0.000166147
0.000179772
0.000191784
0.000216111
0.000196043
0.000181511
0.000142879
8.83012e-05
0.000179385
0.000185873
0.000179968
9.92418e-05
9.18768e-05
7.14529e-05
0.000179713
0.000183329
0.00014726
0.000166378
0.000153535
0.000140644
0.000188183
0.000140632
0.000166077
0.000160162
9.82257e-05
0.000121272
0.000112589
0.000199001
7.85941e-05
8.27984e-05
8.09953e-05
0.000187949
7.48379e-05
7.32878e-05
0.000130725
6.83568e-05
0.00015223
0.00015246
7.01705e-05
0.000165678
7.79123e-05
7.7427e-05
8.72524e-05
7.38711e-05
7.25473e-05
0.000108438
8.62379e-05
7.83466e-05
7.41012e-05
0.000151715
0.000173202
8.15851e-05
0.000167456
6.71975e-05
0.000169881
0.000134945
7.02069e-05
5.94598e-05
6.63203e-05
8.80011e-05
0.000145871
0.000120164
5.02942e-05
5.58256e-05
0.000162645
4.7343e-05
4.73425e-05
5.36444e-05
6.02063e-05
6.79241e-05
7.91743e-05
0.000130884
0.000121171
0.000162756
4.75608e-05
4.75603e-05
0.000143111
5.87458e-05
0.000115937
5.32335e-05
5.35686e-05
7.05819e-05
0.000122727
0.000127081
0.000135383
0.000124075
0.000122723
2.68174e-05
0.000198101
3.42056e-05
3.31449e-05
0.000160035
0.000158924
3.43478e-05
2.3856e-05
3.36113e-05
0.000147615
SCALARS rr_uec(SIM,_S_ext) float
LOOKUP_TABLE default
0.0237438
0.0539645
0.0431069
0.0563331
0.0294336
0.0457519
0.0234774
0.0560217
0.0481876
0.060645
0.0215463
0.0561933
0.049454
0.0522219
0.0611577
0.0513706
0.0441675
0.0499438
0.0447579
0.0437461
0.0492109
0.00872059
0.0504216
0.0464691
0.0421228
0.0485811
0.0199532
0.0426786
0.0335315
0.0393777
0.0436901
0.034663
0.0221042
0.0295104
0.0290016
0.029577
0.0382819
0.0290617
0.0436458
0.0248451
0.0281845
0.0337383
0.033742
0.0479495
0.0277278
0.030572
0.0421176
0.0426459
0.0399563
0.0382945
0.0393182
0.0304795
0.0472435
0.0391645
0.043496
0.020112
0.0309653
0.0394516
0.0309643
0.0476891
0.056382
0.0552451
0.0196203
0.0389525
0.0529146
0.0499496
0.0545378
0.047185
0.043462
0.061934
0.0512574
0.050699
0.0348238
0.0404281
0.0428416
0.0228196
0.0440785
0.0494864
0.0475822
0.0336333
0.0303682
0.0332188
0.0629247
0.0304128
0.0409916
0.0152349
0.0493004
0.0411843
0.0293638
0.00429195
0.0339368
0.00466797
0.0374015
0.035857
0.032117
0.0293049
0.027891
0.0532432
0.0441114
0.0424911
0.0361208
0.0346672
0.0291815
0.0504325
0.0512647
0.0461645
0.0405872
0.0411912
0.0309771
0.0615107
0.0395399
0.0209131
0.0279461
0.0551956
0.0517046
0.037821
0.0359075
0.0231767
0.037244
0.0376712
0.032755
0.0596182
0.0615026
0.0528196
0.0581169
0.0455783
0.0257715
0.0574862
0.0252608
0.0325678
0.026775
0.0548725
0.053584
0.0538769
0.0360561
0.0218172
0.024183
0.039489
0.0482448
0.0218099
0.030113
0.0465344
0.035281
0.0568181
0.0282094
0.0463657
0.0420786
0.0406896
0.0260079
0.0332568
0.0370686
0.0529495
0.0311016
0.0479479
0.0555267
0.0564126
0.0369091
0.0310164
0.0308401
0.0484084
0.0406516
0.0308425
0.0204203
0.0301259
0.0299563
0.0518281
0.0314344
0.0317812
0.0344339
0.0306324
0.0456665
0.0320797
0.0284139
0.0356641
0.0338905
0.0405609
0.0451701
0.0435042
0.0369279
0.0433955
0.0334208
0.0502815
0.0539658
0.0301179
0.0528495
0.0301128
0.0521942
0.0479773
0.0447792
0.0456066
0.0533128
0.0253255
0.0331617
0.0308448
0.0537806
0.0529548
0.0490951
0.0534524
0.0544366
0.0457134
0.0560625
0.0376364
0.0339803
0.0611955
0.0357959
0.0555809
0.0442798
0.0283024
0.0339928
0.0554743
0.0461465
0.0420326
0.054154
0.053107
0.0343961
0.0340786
0.0331368
0.0471113
0.0519952
0.0597557
0.0574116
0.062463
0.0566005
0.061854
0.0518975
0.0542061
0.0546289
0.0514977
0.0541005
0.0497905
0.0490493
0.0348556
0.0467645
0.0547217
0.0380245
0.0557233
0.0511896
0.0593286
0.035725
0.0564227
0.0539326
0.0350777
0.0483018
0.0348413
0.0542843
0.0495737
0.036521
0.034379
0.0297512
0.0342231
0.0543592
0.0249847
0.0419137
0.0342517
0.0384163
0.0564759
0.0546593
0.0171233
0.0548585
0.0299259
0.0324228
0.0561672
0.0456576
0.0328059
0.062659
0.0356652
0.0171234
0.0331546
0.0487452
0.0608412
0.046139
0.0542513
0.0508216
0.0266643
0.0261552
0.0224055
0.0257258
0.036344
0.0278216
0.0448087
0.0280622
0.048234
0.034457
0.033205
0.0388012
0.0361073
0.0479302
0.0346236
0.0356378
0.0156934
0.0358534
0.0518647
0.0519019
0.0470286
0.0345563
0.0224674
0.0652796
0.0438842
0.03666
0.0337996
0.0336139
0.0348619
0.0424238
0.0342358
0.0245483
0.0337855
0.023194
0.0418159
0.0344718
0.0146272
0.0324662
0.0383532
0.0344739
0.0529959
0.0357975
0.0461394
0.0177287
0.0370368
0.0353964
0.0308725
0.0332299
0.0391974
0.0368728
0.0385659
0.032821
0.033336
0.0359954
0.0480789
0.0339472
0.0480657
0.0433948
0.0342204
0.0352179
0.0355523
0.0393133
0.0354927
0.033238
0.0377646
0.0395684
0.0467321
0.0355445
0.0353217
0.0510963
0.0503804
0.0339732
0.0342278
0.0153354
0.0413849
0.0287533
0.0388504
0.0172456
0.0179018
0.0159979
0.01626
0.0172499
0.0181721
0.0187268
0.0435605
0.0322193
0.0325369
0.0372092
0.0362519
0.0357999
0.0378481
0.0350352
0.0358338
0.0363827
0.0356672
0.0437539
0.0324429
0.0449761
0.0350165
0.0338085
0.0357125
0.0380623
0.0398021
0.0370885
0.0424672
0.0396824
0.0368055
0.0265514
0.0370118
0.0361854
0.0389371
0.037335
0.0353793
0.0336437
0.0370554
0.0386446
0.052449
0.034659
0.0509934
0.0531672
0.0364133
0.0509286
0.039076
0.0313116
0.0426209
0.0373765
0.0268878
0.0236786
0.0420749
0.04481
0.0379561
0.0315569
0.0379467
0.0180384
0.0375272
0.0352156
0.0180092
0.00687952
0.00752553
0.0325059
0.0346738
0.0402626
0.0387112
0.00353551
0.00369426
0.0383205
0.03872
0.0366529
0.01354
0.032446
0.0376898
0.0384536
0.0331709
0.0292775
0.0141009
0.0555079
0.0348916
0.042618
0.0432843
0.0311132
0.0393749
0.0304203
0.0335668
0.0167063
0.0251972
0.0394219
0.0396586
0.03409
0.0358077
0.0369486
0.0389576
0.0372627
0.018398
0.0326709
0.0368691
0.0348265
0.0522589
0.0183947
0.0282956
0.0291459
0.0275982
0.0179313
0.0179325
0.0316205
0.0255593
0.0365415
0.0196901
0.0214147
0.00698926
0.00698924
0.0146959
0.0232555
0.015666
0.0311355
0.0336512
0.0359335
0.0404834
0.0367141
0.0339888
0.0267681
0.0166023
0.0336131
0.0348143
0.0337022
0.0186517
0.0171851
0.0134236
0.0336551
0.0343418
0.0276163
0.0311741
0.028765
0.0263198
0.0352548
0.0263175
0.0311208
0.0299928
0.0183713
0.022681
0.0211495
0.0372761
0.0147796
0.015569
0.0152325
0.0351991
0.0140714
0.0137841
0.0245048
0.0128551
0.0284829
0.0285261
0.0131953
0.0310525
0.0146394
0.0145604
0.0163957
0.0138919
0.0136324
0.0202834
0.0162018
0.0147309
0.0139347
0.0284244
0.0324302
0.0153317
0.0313733
0.0126384
0.0318238
0.0252916
0.0132032
0.0111745
0.012473
0.0165476
0.0273364
0.0224816
0.00939801
0.0104322
0.0304662
0.00884662
0.00884655
0.0100244
0.0112542
0.0127602
0.0148086
0.0244976
0.0226697
0.0304883
0.00888961
0.00888957
0.0267725
0.0110469
0.0217299
0.0100097
0.0100643
0.0132605
0.0229474
0.0237618
0.0253149
0.0232002
0.0229469
0.00501144
0.0370417
0.00639335
0.00619333
0.0299226
0.0297149
0.006418
0.004458
0.0062822
0.0276025
SCALARS rr_uec(PEX,_P_ext) float
LOOKUP_TABLE default
-0.0653569
-0.148915
-0.118928
-0.155444
-0.0812764
-0.126224
-0.064623
-0.154581
-0.132917
-0.167349
-0.0593158
-0.155055
-0.136452
-0.144111
-0.168836
-0.141732
-0.121895
-0.137806
-0.123442
-0.120683
-0.135755
-0.0241022
-0.139095
-0.128196
-0.116205
-0.134052
-0.0549505
-0.11775
-0.0924159
-0.108776
-0.120547
-0.0955348
-0.0608721
-0.0815057
-0.0801066
-0.0816894
-0.105751
-0.0802701
-0.120425
-0.0684208
-0.0776787
-0.093201
-0.0932108
-0.1323
-0.0763766
-0.0842624
-0.116167
-0.117636
-0.110236
-0.105526
-0.108358
-0.0840261
-0.13045
-0.10797
-0.1201
-0.0554037
-0.0855311
-0.108762
-0.0855284
-0.131563
-0.155603
-0.152499
-0.0540427
-0.107524
-0.146067
-0.137853
-0.150515
-0.1302
-0.119898
-0.170909
-0.141533
-0.139991
-0.0959769
-0.111584
-0.118197
-0.0628352
-0.121692
-0.136575
-0.131296
-0.0927257
-0.0836806
-0.0917362
-0.173679
-0.0837972
-0.112985
-0.0419662
-0.136019
-0.113667
-0.0808832
-0.0118608
-0.0935577
-0.0128998
-0.10326
-0.0989572
-0.088543
-0.0807597
-0.0768549
-0.146923
-0.121783
-0.117238
-0.099607
-0.0955593
-0.0804042
-0.139158
-0.141461
-0.127388
-0.112029
-0.113649
-0.0853512
-0.169745
-0.109081
-0.0576101
-0.0769932
-0.152298
-0.142673
-0.104267
-0.0991824
-0.0638639
-0.102873
-0.103855
-0.0903331
-0.164581
-0.169717
-0.14578
-0.160383
-0.125829
-0.0711786
-0.158632
-0.0696074
-0.0897856
-0.0739318
-0.151418
-0.147896
-0.148672
-0.0993881
-0.0602628
-0.0666281
-0.108959
-0.133161
-0.0602425
-0.0830085
-0.128413
-0.0973035
-0.156789
-0.0777309
-0.12794
-0.116112
-0.112259
-0.0717531
-0.0917022
-0.102251
-0.146114
-0.0857187
-0.132297
-0.153225
-0.155669
-0.101858
-0.0855009
-0.0850157
-0.133566
-0.112135
-0.0850062
-0.0562518
-0.0830242
-0.0825783
-0.143016
-0.0866529
-0.0876087
-0.0949031
-0.0844425
-0.126079
-0.0884383
-0.0783056
-0.0984243
-0.0934308
-0.111955
-0.124708
-0.120042
-0.101968
-0.119748
-0.0921112
-0.13875
-0.148916
-0.0830223
-0.145863
-0.0829863
-0.144054
-0.132428
-0.123631
-0.12585
-0.147143
-0.0697875
-0.0914215
-0.0850113
-0.148406
-0.146113
-0.135465
-0.147532
-0.150218
-0.126161
-0.154705
-0.103804
-0.0936839
-0.168903
-0.0986576
-0.153409
-0.122205
-0.0780138
-0.0938373
-0.153082
-0.127391
-0.115995
-0.149432
-0.146582
-0.0948445
-0.0940465
-0.0913609
-0.130037
-0.143488
-0.164905
-0.158431
-0.172373
-0.156195
-0.170692
-0.143214
-0.149642
-0.150808
-0.142165
-0.149351
-0.137481
-0.135435
-0.0961097
-0.12905
-0.150994
-0.104887
-0.153834
-0.141319
-0.163707
-0.0984949
-0.155686
-0.148826
-0.096725
-0.133338
-0.0960719
-0.149832
-0.136786
-0.100705
-0.0947867
-0.0819797
-0.0943032
-0.150038
-0.0688427
-0.115644
-0.0944347
-0.105954
-0.155833
-0.150839
-0.0473032
-0.151388
-0.0824562
-0.0893923
-0.154983
-0.125984
-0.0904457
-0.172915
-0.0983644
-0.0473032
-0.0914104
-0.13452
-0.167918
-0.127308
-0.149769
-0.140265
-0.0736265
-0.0721665
-0.0617241
-0.0708644
-0.100347
-0.0767501
-0.123641
-0.0773793
-0.133151
-0.0950928
-0.0915489
-0.107083
-0.0995706
-0.132261
-0.0954795
-0.098255
-0.0433619
-0.0989886
-0.143182
-0.143284
-0.129777
-0.0952956
-0.0620515
-0.180165
-0.121053
-0.101098
-0.0932023
-0.092809
-0.0961295
-0.117126
-0.0944075
-0.067619
-0.0931696
-0.06391
-0.115422
-0.095054
-0.0404157
-0.0895279
-0.105858
-0.0950572
-0.146269
-0.0987136
-0.127298
-0.0488307
-0.102178
-0.097603
-0.085239
-0.0916279
-0.108125
-0.101769
-0.106424
-0.090506
-0.09193
-0.0992745
-0.132709
-0.0936153
-0.132628
-0.119726
-0.0944902
-0.0971197
-0.0980512
-0.108449
-0.0978895
-0.0916574
-0.104156
-0.109227
-0.128948
-0.0980306
-0.0973966
-0.141
-0.139025
-0.0936861
-0.0945104
-0.0422137
-0.11418
-0.0792304
-0.107173
-0.0474067
-0.0492106
-0.0439777
-0.0446978
-0.0474193
-0.0499534
-0.0514789
-0.120238
-0.0889789
-0.0897753
-0.102639
-0.0999841
-0.0987365
-0.10444
-0.096626
-0.0988272
-0.100477
-0.0983704
-0.120785
-0.0894393
-0.124156
-0.0966062
-0.0932583
-0.0984946
-0.105092
-0.109813
-0.102308
-0.117166
-0.109463
-0.101508
-0.0732006
-0.102094
-0.0998322
-0.107489
-0.102974
-0.0975718
-0.0927918
-0.102213
-0.106616
-0.144731
-0.095592
-0.140713
-0.146679
-0.100442
-0.140529
-0.107804
-0.0863572
-0.117633
-0.103105
-0.0742532
-0.0652236
-0.116138
-0.123696
-0.104717
-0.0870517
-0.104726
-0.0496561
-0.103533
-0.0971435
-0.0496038
-0.0190083
-0.0207934
-0.0896824
-0.0956314
-0.111069
-0.10677
-0.00977265
-0.0102114
-0.105739
-0.106842
-0.101137
-0.0372727
-0.0894834
-0.104028
-0.106071
-0.0914969
-0.0807588
-0.038815
-0.1532
-0.0962308
-0.117581
-0.119419
-0.0858206
-0.108614
-0.0839094
-0.0925904
-0.0460082
-0.06943
-0.108744
-0.109416
-0.094039
-0.0987685
-0.101923
-0.107468
-0.102791
-0.050678
-0.0901938
-0.101687
-0.0961146
-0.144235
-0.0506681
-0.0780649
-0.0804091
-0.0762049
-0.0495434
-0.0495468
-0.0873019
-0.0704903
-0.100815
-0.054235
-0.0591649
-0.019318
-0.0193179
-0.0404516
-0.064233
-0.0432751
-0.0858983
-0.0929047
-0.0991468
-0.111715
-0.101331
-0.0938159
-0.0738618
-0.0457023
-0.0927394
-0.0960791
-0.0930209
-0.0513579
-0.0474674
-0.036972
-0.0928897
-0.0947683
-0.0761525
-0.0860136
-0.0793709
-0.0726762
-0.0972812
-0.0726699
-0.0858608
-0.0827831
-0.0507461
-0.0626517
-0.0582553
-0.102868
-0.0406801
-0.0428551
-0.0419242
-0.097148
-0.0387345
-0.0379358
-0.067592
-0.0353819
-0.0786583
-0.0787773
-0.0363198
-0.0856606
-0.0403165
-0.0400762
-0.0451509
-0.0382359
-0.0375413
-0.0560246
-0.044623
-0.0405503
-0.0383545
-0.0784304
-0.0895186
-0.042219
-0.0865676
-0.034783
-0.0878177
-0.06977
-0.0363396
-0.0307701
-0.0343286
-0.0455486
-0.0754161
-0.0620877
-0.0259744
-0.0288316
-0.084075
-0.0244503
-0.0244501
-0.0277049
-0.0310977
-0.0351459
-0.0409042
-0.0676374
-0.0626075
-0.0841334
-0.0245652
-0.024565
-0.0739418
-0.0304067
-0.059943
-0.0275529
-0.0277186
-0.0365219
-0.0633974
-0.065647
-0.0699365
-0.0640946
-0.0633958
-0.0138501
-0.102335
-0.0176672
-0.0171175
-0.0826689
-0.0820953
-0.0177386
-0.0123207
-0.0173601
-0.0762554
SCALARS cell_type float
LOOKUP_TABLE default
0
0
0
0
0
0
0
0
0
0
0
0
0
0
0
0
0
0
0
0
0
1
0
0
0
0
0
0
0
0
0
0
0
0
0
0
0
0
0
0
0
0
0
0
0
0
0
0
0
0
0
0
0
0
0
0
0
0
0
0
0
0
0
0
0
0
0
0
0
0
0
0
0
0
0
0
0
0
0
0
0
0
0
0
0
0
0
0
0
0
0
0
0
0
0
0
0
0
0
0
0
0
0
0
0
0
0
0
0
0
0
0
0
0
0
0
0
0
0
0
0
0
0
0
0
0
0
0
0
0
0
0
0
0
0
0
0
0
0
0
0
0
0
0
0
0
0
0
0
0
0
0
0
0
0
0
0
0
0
0
0
0
0
0
0
0
0
0
0
0
0
0
0
0
0
0
0
0
0
0
0
0
0
0
0
0
0
0
0
0
0
0
0
0
0
0
0
0
0
0
0
0
0
0
0
0
0
0
0
0
0
0
0
0
0
0
0
0
0
0
0
0
0
0
0
0
0
0
0
0
0
0
0
0
0
0
0
0
0
0
0
0
0
0
0
0
0
0
0
0
0
0
0
0
0
0
0
0
0
0
0
0
0
0
0
0
0
0
0
0
0
0
0
0
0
0
0
0
0
0
0
0
0
0
0
0
0
0
0
0
0
0
0
0
0
0
0
0
0
0
0
0
0
0
0
0
0
0
0
0
0
0
0
0
0
0
0
0
0
0
0
0
0
0
0
0
0
0
0
0
0
0
0
0
0
0
0
0
0
0
0
0
0
0
0
0
0
0
0
0
2
2
2
2
2
2
2
0
0
0
0
0
0
0
0
0
0
0
0
0
0
0
0
0
0
0
0
0
0
0
0
0
0
0
0
0
0
0
0
0
0
0
0
0
0
0
0
0
0
0
0
0
0
0
0
0
0
0
0
0
0
0
0
0
0
0
1
1
0
0
0
0
0
0
0
0
0
0
0
0
0
0
0
0
0
0
0
0
0
0
0
0
0
0
0
0
0
0
0
0
0
0
0
0
0
0
0
0
0
0
0
1
1
0
0
0
0
0
0
0
0
0
0
0
0
0
0
0
0
0
0
0
0
0
0
0
0
0
0
0
0
0
0
0
0
0
0
0
0
0
0
0
0
0
0
0
0
0
0
0
0
0
0
0
0
0
0
0
0
0
0
0
0
0
0
0
0
0
1
1
0
0
0
0
0
0
0
0
0
0
0
0
0
0
0
0
0
0
0
0
0
0
0
0
0
0
0
0
0
0
0
0
0
TENSORS Lagrange_strain float
0.030576 -0.00319883 1.21625e-07
-0.00319883 0.0133922 -3.04314e-08
1.21625e-07 -3.04314e-08 0.00740409

0.0292026 -0.00280141 -2.13597e-08
-0.00280141 0.0335644 2.04854e-08
-2.13597e-08 2.04854e-08 0.0331729

0.0300311 0.00368035 -6.0143e-08
0.00368035 0.0311799 -1.28402e-07
-6.0143e-08 -1.28402e-07 0.030477

0.0291723 -0.00392478 -2.33205e-07
-0.00392478 0.0328099 -5.09836e-08
-2.33205e-07 -5.09836e-08 0.0330978

0.0353754 0.00266913 -8.66654e-09
0.00266913 0.0380915 2.04904e-08
-8.66654e-09 2.04904e-08 0.0353005

0.0277442 -0.00236799 -1.17844e-07
-0.00236799 0.0333945 9.48587e-08
-1.17844e-07 9.48587e-08 0.0304481

0.0302698 0.00339458 1.22612e-07
0.00339458 0.0134977 -7.2643e-08
1.22612e-07 -7.2643e-08 0.00746553

0.0317643 0.00394043 -7.98256e-08
0.00394043 0.0312101 -1.32874e-07
-7.98256e-08 -1.32874e-07 0.0315699

0.0332532 0.000715871 -9.07683e-09
0.000715871 0.0262298 1.82583e-07
-9.07683e-09 1.82583e-07 0.0281509

0.0354777 -0.000991259 -1.92826e-07
-0.000991259 0.027561 -5.81961e-08
-1.92826e-07 -5.81961e-08 0.0327304

0.0280697 0.00205207 -2.37836e-08
0.00205207 0.0138124 -1.75815e-07
-2.37836e-08 -1.75815e-07 0.0117572

0.0279624 -0.00176623 -9.17373e-08
-0.00176623 0.0350168 1.7817e-07
-9.17373e-08 1.7817e-07 0.0315585

0.0311309 0.00365816 -1.83342e-07
0.00365816 0.0313105 -9.97366e-08
-1.83342e-07 -9.97366e-08 0.0310887

0.0290782 -0.0018806 8.68416e-08
-0.0018806 0.0348094 -1.67574e-07
8.68416e-08 -1.67574e-07 0.0325557

0.0346398 0.00441747 4.29093e-08
0.00441747 0.0343716 -6.24161e-08
4.29093e-08 -6.24161e-08 0.0348932

0.034339 7.30583e-05 -4.45819e-08
7.30583e-05 0.0272952 -6.44037e-08
-4.45819e-08 -6.44037e-08 0.0307877

0.0287024 -0.0023536 1.40088e-07
-0.0023536 0.0360237 1.58869e-08
1.40088e-07 1.58869e-08 0.0334592

0.0345838 -0.000353056 -1.73041e-07
-0.000353056 0.0273654 -8.27847e-08
-1.73041e-07 -8.27847e-08 0.0319865

0.0269287 0.00347969 -1.51916e-07
0.00347969 0.0309553 1.39222e-07
-1.51916e-07 1.39222e-07 0.0275853

0.0338959 -0.000550654 6.69179e-08
-0.000550654 0.0264179 9.66706e-08
6.69179e-08 9.66706e-08 0.0301435

0.0266306 0.0011357 -8.45295e-08
0.0011357 0.0340448 6.00537e-08
-8.45295e-08 6.00537e-08 0.0291589

0.0452951 0.000852334 6.22417e-07
0.000852334 0.0452669 5.82221e-08
6.22417e-07 5.82221e-08 0.0366456

0.0336864 0.00024779 8.41704e-08
0.00024779 0.0263237 1.73029e-07
8.41704e-08 1.73029e-07 0.0298143

0.0293188 -0.00363344 2.41669e-08
-0.00363344 0.0311459 -9.00937e-08
2.41669e-08 -9.00937e-08 0.0300559

0.033791 0.000900351 -7.63632e-08
0.000900351 0.0265048 1.27727e-08
-7.63632e-08 1.27727e-08 0.0300904

0.0285553 0.00250809 3.17844e-08
0.00250809 0.0339039 -5.86705e-08
3.17844e-08 -5.86705e-08 0.0322963

0.0286385 0.000526869 -1.34671e-07
0.000526869 0.0176944 5.41818e-08
-1.34671e-07 5.41818e-08 0.0131755

0.0309238 0.00403576 -2.12195e-07
0.00403576 0.0306559 -3.52269e-08
-2.12195e-07 -3.52269e-08 0.0306198

0.025933 0.00477853 -1.53875e-07
0.00477853 0.0257413 1.47838e-07
-1.53875e-07 1.47838e-07 0.0211349

0.0415329 0.00136998 7.47134e-08
0.00136998 0.0383565 -2.86093e-10
7.47134e-08 -2.86093e-10 0.036143

0.0344219 0.00187157 -3.77234e-08
0.00187157 0.0279615 8.19277e-08
-3.77234e-08 8.19277e-08 0.0310092

0.0217661 -0.00228892 -8.60296e-08
-0.00228892 0.0300024 -7.9552e-08
-8.60296e-08 -7.9552e-08 0.0211317

0.02287 -0.00535432 -3.19309e-08
-0.00535432 0.0234797 -2.36394e-07
-3.19309e-08 -2.36394e-07 0.0125829

0.0348387 0.000799915 2.93596e-07
0.000799915 0.0422606 -1.40826e-07
2.93596e-07 -1.40826e-07 0.0357942

0.037459 -0.000660909 6.60109e-09
-0.000660909 0.041208 3.76693e-07
6.60109e-09 3.76693e-07 0.0359088

0.0410797 0.002813 1.44473e-08
0.002813 0.0359923 -1.03462e-07
1.44473e-08 -1.03462e-07 0.0357745

0.0372597 0.000704308 1.79515e-08
0.000704308 0.0432187 -5.99122e-08
1.79515e-08 -5.99122e-08 0.0361494

0.0402664 -0.00121899 -2.55997e-07
-0.00121899 0.0378368 -1.05936e-08
-2.55997e-07 -1.05936e-08 0.0358161

0.0312252 -0.003679 -1.42413e-08
-0.003679 0.0311334 -9.24929e-08
-1.42413e-08 -9.24929e-08 0.0309347

0.0227539 0.00528094 1.44829e-07
0.00528094 0.0237157 2.1816e-08
1.44829e-07 2.1816e-08 0.012585

0.0297706 -0.00231681 -1.09095e-07
-0.00231681 0.0220375 -1.89816e-07
-1.09095e-07 -1.89816e-07 0.0208815

0.0376248 -0.000522028 1.05135e-07
-0.000522028 0.0430672 2.25324e-07
1.05135e-07 2.25324e-07 0.0361521

0.0412454 0.00263306 -2.98714e-07
0.00263306 0.0394197 -8.6459e-08
-2.98714e-07 -8.6459e-08 0.0361346

0.0343122 -0.00161727 6.89718e-08
-0.00161727 0.0280035 8.83387e-08
6.89718e-08 8.83387e-08 0.0310933

0.0231125 -0.00552802 -1.56365e-07
-0.00552802 0.0235698 -1.0141e-07
-1.56365e-07 -1.0141e-07 0.0162212

0.0299534 -0.00233325 -1.95958e-07
-0.00233325 0.0221618 1.23974e-08
-1.95958e-07 1.23974e-08 0.0213511

0.0259018 0.00222835 -9.47275e-08
0.00222835 0.032665 8.15517e-08
-9.47275e-08 8.15517e-08 0.0279241

0.0275598 0.00252999 -2.49064e-08
0.00252999 0.0323844 -5.08023e-08
-2.49064e-08 -5.08023e-08 0.0284997

0.0341859 -0.00214135 -9.65457e-08
-0.00214135 0.0271159 -7.01076e-08
-9.65457e-08 -7.01076e-08 0.0304813

0.0229094 -0.00439438 -5.03956e-08
-0.00439438 0.0272578 -3.55332e-08
-5.03956e-08 -3.55332e-08 0.0198568

0.0295035 0.00247266 7.78204e-08
0.00247266 0.0218407 1.58884e-07
7.78204e-08 1.58884e-07 0.0202874

0.029882 -0.00327231 -4.68227e-08
-0.00327231 0.024521 -2.78748e-07
-4.68227e-08 -2.78748e-07 0.0230556

0.0344845 0.00257698 1.47221e-07
0.00257698 0.038211 1.64174e-07
1.47221e-07 1.64174e-07 0.0352792

0.0286989 0.00384028 -1.59943e-07
0.00384028 0.0257879 1.48269e-07
-1.59943e-07 1.48269e-07 0.0231242

0.0349365 -0.00291576 -1.0584e-08
-0.00291576 0.0374392 2.73728e-08
-1.0584e-08 2.73728e-08 0.0351976

0.0255878 -0.00545761 -2.31722e-07
-0.00545761 0.0229092 9.0784e-08
-2.31722e-07 9.0784e-08 0.0158246

0.0373526 0.00074494 -2.63576e-07
0.00074494 0.0414179 4.77012e-08
-2.63576e-07 4.77012e-08 0.0359293

0.0231747 -0.000693557 -2.10187e-08
-0.000693557 0.0313239 3.23751e-08
-2.10187e-08 3.23751e-08 0.0231102

0.0410341 0.00138016 -6.63747e-08
0.00138016 0.0377135 3.48752e-08
-6.63747e-08 3.48752e-08 0.0359075

0.0276847 0.00280615 -1.83164e-08
0.00280615 0.0327601 -2.71244e-08
-1.83164e-08 -2.71244e-08 0.0302404

0.0361488 0.00078533 -3.94425e-08
0.00078533 0.0281413 7.85758e-08
-3.94425e-08 7.85758e-08 0.0336824

0.036264 0.00153413 -3.90323e-08
0.00153413 0.0317017 8.28649e-08
-3.90323e-08 8.28649e-08 0.0342297

0.0286456 0.00405827 7.26459e-08
0.00405827 0.0199028 2.80341e-07
7.26459e-08 2.80341e-07 0.0137635

0.0309811 -0.000784352 6.28243e-08
-0.000784352 0.0370946 -3.22864e-08
6.28243e-08 -3.22864e-08 0.0338906

0.0315639 0.00124391 7.24068e-08
0.00124391 0.0364301 -1.24938e-07
7.24068e-08 -1.24938e-07 0.0342685

0.0285577 -0.000375485 -1.28831e-07
-0.000375485 0.0369656 7.01691e-08
-1.28831e-07 7.01691e-08 0.0326797

0.0296121 0.00307086 -1.37812e-08
0.00307086 0.0348013 -6.18139e-08
-1.37812e-08 -6.18139e-08 0.0337182

0.0347299 0.0011224 -9.42882e-08
0.0011224 0.0278478 7.77978e-08
-9.42882e-08 7.77978e-08 0.032218

0.0291967 -0.00370021 -1.2143e-07
-0.00370021 0.031031 3.46514e-08
-1.2143e-07 3.46514e-08 0.0299188

0.0350652 -0.00023716 1.92804e-09
-0.00023716 0.0275899 -5.45244e-08
1.92804e-09 -5.45244e-08 0.0334026

0.0344592 -0.0025473 -2.68934e-07
-0.0025473 0.0381418 3.91652e-08
-2.68934e-07 3.91652e-08 0.0352693

0.0350191 0.00284938 1.34841e-08
0.00284938 0.0375767 3.0693e-08
1.34841e-08 3.0693e-08 0.0352492

0.0218952 -0.00213282 -1.56929e-08
-0.00213282 0.0299324 -1.76474e-08
-1.56929e-08 -1.76474e-08 0.0208581

0.0347111 -0.00369177 2.51414e-07
-0.00369177 0.0319663 -4.57257e-08
2.51414e-07 -4.57257e-08 0.033088

0.0293016 -0.0032982 -1.42473e-08
-0.0032982 0.0321232 2.23866e-07
-1.42473e-08 2.23866e-07 0.0304427

0.0267876 -0.00401838 -1.77166e-07
-0.00401838 0.01761 2.27148e-07
-1.77166e-07 2.27148e-07 0.0127299

0.0324116 0.000419132 -2.27929e-07
0.000419132 0.0381139 1.08129e-07
-2.27929e-07 1.08129e-07 0.0344145

0.0345465 0.00381803 -8.7338e-08
0.00381803 0.0309509 -1.10683e-08
-8.7338e-08 -1.10683e-08 0.0326694

0.0283857 0.00258185 1.48258e-07
0.00258185 0.0341401 -1.09352e-07
1.48258e-07 -1.09352e-07 0.0322232

0.0315529 0.00103826 -2.63366e-08
0.00103826 0.0228508 9.95859e-08
-2.63366e-08 9.95859e-08 0.024077

0.027106 -0.00436045 1.46433e-07
-0.00436045 0.023744 -7.50024e-08
1.46433e-07 -7.50024e-08 0.0183294

0.0362662 -0.00140256 -1.93203e-08
-0.00140256 0.0387507 -1.39339e-07
-1.93203e-08 -1.39339e-07 0.0354095

0.0315655 0.00317146 -2.45614e-08
0.00317146 0.0344105 -6.13352e-08
-2.45614e-08 -6.13352e-08 0.0340994

0.0273103 -0.00415792 3.22448e-07
-0.00415792 0.0221817 -4.28605e-08
3.22448e-07 -4.28605e-08 0.0184173

0.0303682 0.00139168 1.10875e-07
0.00139168 0.0228373 9.65911e-08
1.10875e-07 9.65911e-08 0.0209613

0.0186071 -0.00269809 -1.663e-07
-0.00269809 0.0289376 -6.53416e-08
-1.663e-07 -6.53416e-08 0.0158981

0.0272086 0.00188934 -8.85782e-08
0.00188934 0.0343308 5.07034e-08
-8.85782e-08 5.07034e-08 0.0306638

0.0353915 0.00305783 8.20609e-08
0.00305783 0.0308287 -3.44173e-08
8.20609e-08 -3.44173e-08 0.0327627

0.0226546 0.0053881 6.68839e-08
0.0053881 0.0240959 -6.87506e-08
6.68839e-08 -6.87506e-08 0.0162037

0.0459505 0.00223739 7.4519e-08
0.00223739 0.0417535 -1.48784e-07
7.4519e-08 -1.48784e-07 0.0366465

0.0230884 -0.000534665 2.53984e-08
-0.000534665 0.0313648 6.90734e-08
2.53984e-08 6.90734e-08 0.0230801

0.0463635 -0.00225532 -2.75996e-07
-0.00225532 0.0412975 -4.48787e-07
-2.75996e-07 -4.48787e-07 0.0366017

0.037073 -0.00362426 2.93665e-09
-0.00362426 0.0334994 3.98428e-09
2.93665e-09 3.98428e-09 0.0346294

0.0351474 0.00361953 4.38032e-08
0.00361953 0.0300127 1.07019e-07
4.38032e-08 1.07019e-07 0.0324654

0.0299722 -0.00316024 -1.96888e-07
-0.00316024 0.0246983 1.33036e-08
-1.96888e-07 1.33036e-08 0.0232935

0.0230193 0.00403163 2.11232e-07
0.00403163 0.0277883 5.40515e-08
2.11232e-07 5.40515e-08 0.0203887

0.0211 -0.00137913 -5.90268e-08
-0.00137913 0.029905 -1.50987e-07
-5.90268e-08 -1.50987e-07 0.0182574

0.0287559 0.00288906 9.32528e-08
0.00288906 0.0342378 -1.19211e-07
9.32528e-08 -1.19211e-07 0.0327091

0.0370206 0.00223669 -4.46774e-08
0.00223669 0.0334599 -7.16263e-08
-4.46774e-08 -7.16263e-08 0.0343928

0.0281576 0.00198891 1.28026e-07
0.00198891 0.0340709 -2.12249e-07
1.28026e-07 -2.12249e-07 0.0308747

0.0318935 0.00207381 -1.98075e-07
0.00207381 0.025262 -1.69695e-07
-1.98075e-07 -1.69695e-07 0.0256257

0.0239149 -0.00277567 -4.25546e-08
-0.00277567 0.029775 -2.04808e-08
-4.25546e-08 -2.04808e-08 0.0215685

0.0279076 -0.00376533 1.06798e-07
-0.00376533 0.0218217 -1.7239e-07
1.06798e-07 -1.7239e-07 0.0180817

0.0293416 -0.00323248 -2.25705e-07
-0.00323248 0.0326402 1.00374e-08
-2.25705e-07 1.00374e-08 0.0324124

0.0306362 0.00361572 -5.94538e-08
0.00361572 0.0322383 8.10994e-08
-5.94538e-08 8.10994e-08 0.03238

0.0287181 0.00304841 -1.54377e-07
0.00304841 0.034037 -8.20651e-08
-1.54377e-07 -8.20651e-08 0.0326396

0.0292156 0.00172526 1.41943e-07
0.00172526 0.0376263 -8.74926e-08
1.41943e-07 -8.74926e-08 0.033855

0.0344881 0.00123276 -1.15265e-07
0.00123276 0.0275326 -7.95607e-08
-1.15265e-07 -7.95607e-08 0.030684

0.0199663 -0.000605441 -1.04345e-07
-0.000605441 0.0296703 1.14787e-07
-1.04345e-07 1.14787e-07 0.0181097

0.0298078 -0.00486237 -1.05697e-07
-0.00486237 0.0330593 -1.54811e-07
-1.05697e-07 -1.54811e-07 0.0337509

0.0290905 0.00360102 -3.18483e-08
0.00360102 0.0313698 -1.21574e-07
-3.18483e-08 -1.21574e-07 0.0302732

0.0181104 0.000282938 6.54406e-08
0.000282938 0.0293202 -1.78037e-07
6.54406e-08 -1.78037e-07 0.0168838

0.0278523 0.00442564 -4.46299e-08
0.00442564 0.0209742 1.8874e-07
-4.46299e-08 1.8874e-07 0.0174603

0.0292008 -0.00302122 1.8623e-07
-0.00302122 0.0327135 -3.34589e-08
1.8623e-07 -3.34589e-08 0.0321948

0.0352532 0.0007595 -1.59832e-09
0.0007595 0.0273485 -9.75507e-08
-1.59832e-09 -9.75507e-08 0.0325621

0.029437 0.00352173 6.47202e-08
0.00352173 0.025209 -1.69995e-07
6.47202e-08 -1.69995e-07 0.0231187

0.0396429 0.00170963 -3.96003e-08
0.00170963 0.0390437 1.73346e-07
-3.96003e-08 1.73346e-07 0.0359478

0.0283842 0.00312457 1.39059e-07
0.00312457 0.022408 -1.53264e-07
1.39059e-07 -1.53264e-07 0.0182923

0.039495 -0.0017502 -1.60326e-08
-0.0017502 0.0390697 2.10147e-07
-1.60326e-08 2.10147e-07 0.035913

0.023268 0.000103569 1.61592e-07
0.000103569 0.0315285 5.59838e-08
1.61592e-07 5.59838e-08 0.023127

0.0327696 -0.000288547 -2.07388e-07
-0.000288547 0.0246675 -2.30997e-08
-2.07388e-07 -2.30997e-08 0.0269747

0.0380623 -0.00212843 -1.32074e-07
-0.00212843 0.030473 -1.36723e-07
-1.32074e-07 -1.36723e-07 0.0348018

0.0292481 0.00320577 1.1697e-07
0.00320577 0.0332882 -6.78298e-08
1.1697e-07 -6.78298e-08 0.0333521

0.0289599 -0.00177283 1.12869e-07
-0.00177283 0.0366188 1.70553e-08
1.12869e-07 1.70553e-08 0.0335085

0.0365928 -0.00108463 -7.60096e-10
-0.00108463 0.0264869 -5.03277e-08
-7.60096e-10 -5.03277e-08 0.033869

0.0311885 -0.0029252 6.66069e-08
-0.0029252 0.0383137 -1.08171e-07
6.66069e-08 -1.08171e-07 0.034852

0.038172 -0.000886149 3.54243e-08
-0.000886149 0.0387369 6.04318e-08
3.54243e-08 6.04318e-08 0.0358432

0.0301899 -0.00394026 -1.34094e-07
-0.00394026 0.0327208 -3.22084e-08
-1.34094e-07 -3.22084e-08 0.0327726

0.0213389 0.00147004 4.16542e-08
0.00147004 0.0296231 -1.91918e-07
4.16542e-08 -1.91918e-07 0.0183014

0.0293973 -0.0036472 8.54394e-08
-0.0036472 0.0253572 2.51193e-08
8.54394e-08 2.51193e-08 0.0231893

0.0328663 -0.00181631 6.47627e-08
-0.00181631 0.0397249 -1.75243e-07
6.47627e-08 -1.75243e-07 0.035249

0.0351014 7.67239e-05 1.71718e-08
7.67239e-05 0.0272318 -9.59959e-08
1.71718e-08 -9.59959e-08 0.0332605

0.0308271 -0.00282877 7.1188e-08
-0.00282877 0.0349011 8.71485e-08
7.1188e-08 8.71485e-08 0.0340929

0.0295443 0.00338891 1.76099e-07
0.00338891 0.0328817 -2.52655e-09
1.76099e-07 -2.52655e-09 0.0333352

0.0264687 -0.00406504 1.89679e-07
-0.00406504 0.0272704 -3.03821e-08
1.89679e-07 -3.03821e-08 0.0215913

0.0371774 -0.000957422 -2.60062e-07
-0.000957422 0.0416157 -2.32364e-07
-2.60062e-07 -2.32364e-07 0.0358942

0.0227176 -0.00423938 -1.3558e-07
-0.00423938 0.027252 1.00849e-07
-1.3558e-07 1.00849e-07 0.0168827

0.0341935 -0.00252566 -9.80843e-08
-0.00252566 0.0286151 7.82402e-08
-9.80843e-08 7.82402e-08 0.0310534

0.0364343 0.000290405 -1.45154e-07
0.000290405 0.0294467 2.0736e-07
-1.45154e-07 2.0736e-07 0.0342025

0.0396466 0.0023959 1.30621e-07
0.0023959 0.0391177 -2.4452e-07
1.30621e-07 -2.4452e-07 0.0358752

0.0238633 0.00261049 2.12505e-07
0.00261049 0.0301613 5.23135e-08
2.12505e-07 5.23135e-08 0.0218056

0.0334404 0.00358224 -4.28437e-08
0.00358224 0.0307245 -7.8048e-08
-4.28437e-08 -7.8048e-08 0.031776

0.0316534 -0.00319565 -2.13168e-07
-0.00319565 0.02656 -4.4492e-08
-2.13168e-07 -4.4492e-08 0.0269436

0.028938 -0.00234147 6.64552e-08
-0.00234147 0.0342454 -8.38506e-08
6.64552e-08 -8.38506e-08 0.032615

0.0262524 0.00450327 -1.51344e-07
0.00450327 0.0245651 1.49988e-07
-1.51344e-07 1.49988e-07 0.0180868

0.0284321 -0.00286701 1.82619e-07
-0.00286701 0.0340425 -1.23761e-07
1.82619e-07 -1.23761e-07 0.0324582

0.0331587 0.00405982 -6.87374e-08
0.00405982 0.030473 2.33262e-09
-6.87374e-08 2.33262e-09 0.031551

0.0333448 -0.00331272 4.58578e-08
-0.00331272 0.0283656 2.24363e-07
4.58578e-08 2.24363e-07 0.0300546

0.0291703 -0.00329629 1.64282e-07
-0.00329629 0.0319979 5.41829e-08
1.64282e-07 5.41829e-08 0.0304464

0.0314656 -0.00243038 -5.14357e-08
-0.00243038 0.0247263 -2.79944e-07
-5.14357e-08 -2.79944e-07 0.025164

0.032966 -0.00246776 1.97596e-07
-0.00246776 0.0267176 5.42792e-09
1.97596e-07 5.42792e-09 0.0286052

0.0295013 -0.00334228 -9.84295e-08
-0.00334228 0.0329606 -1.00803e-07
-9.84295e-08 -1.00803e-07 0.0334166

0.0261423 0.00463593 1.40325e-07
0.00463593 0.0255492 1.25647e-09
1.40325e-07 1.25647e-09 0.0210991

0.0281591 0.00201747 8.02651e-08
0.00201747 0.0343464 8.04678e-08
8.02651e-08 8.04678e-08 0.0311185

0.0308961 0.00348181 6.08129e-08
0.00348181 0.0322649 1.13322e-07
6.08129e-08 1.13322e-07 0.0326093

0.0291669 0.00334821 -7.93722e-08
0.00334821 0.0332022 8.21126e-08
-7.93722e-08 8.21126e-08 0.0332697

0.028993 0.0015237 -4.60738e-08
0.0015237 0.0354805 5.23469e-08
-4.60738e-08 5.23469e-08 0.0327045

0.031063 -0.0010623 -1.20886e-07
-0.0010623 0.0231483 1.47469e-07
-1.20886e-07 1.47469e-07 0.0220849

0.023891 0.00240661 6.20302e-09
0.00240661 0.0304207 6.44611e-08
6.20302e-09 6.44611e-08 0.02212

0.0292226 -0.00320469 8.26319e-08
-0.00320469 0.0326471 -1.65502e-07
8.26319e-08 -1.65502e-07 0.0316277

0.0289967 0.00335804 1.57811e-07
0.00335804 0.030943 9.10598e-08
1.57811e-07 9.10598e-08 0.0285768

0.0266212 -0.00459332 7.26552e-08
-0.00459332 0.0252384 2.41895e-08
7.26552e-08 2.41895e-08 0.0212634

0.0262859 0.00489545 -1.21024e-07
0.00489545 0.0209521 3.10106e-08
-1.21024e-07 3.10106e-08 0.0167676

0.0235099 -0.00428872 9.16435e-08
-0.00428872 0.0274734 -1.24718e-07
9.16435e-08 -1.24718e-07 0.0206329

0.0266804 -0.00402941 5.03709e-09
-0.00402941 0.0274914 -1.29229e-07
5.03709e-09 -1.29229e-07 0.022057

0.0353756 -0.000906403 3.37562e-08
-0.000906403 0.0274004 -8.68516e-08
3.37562e-08 -8.68516e-08 0.0326644

0.0260535 0.00392336 -1.94032e-08
0.00392336 0.0281013 -6.05222e-08
-1.94032e-08 -6.05222e-08 0.0221095

0.0307982 0.00171737 1.41666e-08
0.00171737 0.0233674 -9.5143e-08
1.41666e-08 -9.5143e-08 0.0220326

0.0214371 0.00172281 1.33769e-07
0.00172281 0.030251 8.82064e-08
1.33769e-07 8.82064e-08 0.0211395

0.0242703 -0.00289067 1.15608e-07
-0.00289067 0.0299619 -7.3248e-08
1.15608e-07 -7.3248e-08 0.0220933

0.031354 -0.000131533 -1.60472e-07
-0.000131533 0.0392823 -1.51941e-07
-1.60472e-07 -1.51941e-07 0.0346796

0.0230653 0.000294826 -2.1303e-07
0.000294826 0.0314713 5.3787e-08
-2.1303e-07 5.3787e-08 0.0230697

0.0227838 0.00400319 9.40738e-08
0.00400319 0.0281365 -5.11246e-08
9.40738e-08 -5.11246e-08 0.0206447

0.0288982 0.0015859 -2.21571e-09
0.0015859 0.0358431 -9.93829e-09
-2.21571e-09 -9.93829e-09 0.0329031

0.0293258 -0.00358167 -1.48994e-07
-0.00358167 0.0251377 9.48537e-08
-1.48994e-07 9.48537e-08 0.0232472

0.0369859 0.00273294 -5.14005e-08
0.00273294 0.0297324 9.12721e-08
-5.14005e-08 9.12721e-08 0.0338109

0.0371839 0.00348314 1.77638e-08
0.00348314 0.0334315 3.79949e-08
1.77638e-08 3.79949e-08 0.0346611

0.0345548 -0.00244738 7.87045e-08
-0.00244738 0.028539 2.28199e-07
7.87045e-08 2.28199e-07 0.0313883

0.0390636 -0.000266543 -5.45059e-08
-0.000266543 0.0339325 1.12724e-08
-5.45059e-08 1.12724e-08 0.0352169

0.0314893 -0.00418841 -3.55269e-08
-0.00418841 0.0317916 -7.51479e-08
-3.55269e-08 -7.51479e-08 0.032166

0.0294721 0.00300882 6.57901e-08
0.00300882 0.022334 -1.66579e-07
6.57901e-08 -1.66579e-07 0.0210734

0.0302402 0.00397319 1.49959e-07
0.00397319 0.0326738 -5.0478e-08
1.49959e-07 -5.0478e-08 0.0327298

0.0302879 0.00384726 -5.08431e-08
0.00384726 0.032618 6.47078e-08
-5.08431e-08 6.47078e-08 0.0326845

0.026253 0.00396347 1.1572e-07
0.00396347 0.0277771 5.01539e-08
1.1572e-07 5.01539e-08 0.021872

0.0344602 0.0035774 3.53998e-08
0.0035774 0.0317886 -1.82029e-07
3.53998e-08 -1.82029e-07 0.0328408

0.0302586 0.000452604 2.65775e-08
0.000452604 0.0204343 -6.8885e-08
2.65775e-08 -6.8885e-08 0.02058

0.0331956 0.0042009 -1.09666e-07
0.0042009 0.032383 9.68286e-08
-1.09666e-07 9.68286e-08 0.0334934

0.0305094 -0.00165448 -8.53794e-08
-0.00165448 0.0366264 7.84271e-09
-8.53794e-08 7.84271e-09 0.0336721

0.0373688 0.00323249 7.10403e-08
0.00323249 0.0334679 -1.13665e-07
7.10403e-08 -1.13665e-07 0.0346732

0.0307474 -0.00389662 -6.81153e-08
-0.00389662 0.0322839 4.43955e-08
-6.81153e-08 4.43955e-08 0.0326901

0.0293825 -0.00064461 -6.1488e-08
-0.00064461 0.036913 7.5994e-08
-6.1488e-08 7.5994e-08 0.0328573

0.0288225 -0.00315369 3.67472e-07
-0.00315369 0.0221468 1.75501e-08
3.67472e-07 1.75501e-08 0.0187652

0.0290122 0.00384627 -3.22213e-07
0.00384627 0.0255862 1.26281e-08
-3.22213e-07 1.26281e-08 0.0230806

0.0217079 0.00189187 -1.95753e-07
0.00189187 0.0300716 2.38048e-08
-1.95753e-07 2.38048e-08 0.0210908

0.0350008 -0.000161382 1.07698e-08
-0.000161382 0.0274 -8.68995e-08
1.07698e-08 -8.68995e-08 0.0333114

0.0344313 1.63338e-07 1.92332e-08
1.63338e-07 0.0272843 -5.9914e-08
1.92332e-08 -5.9914e-08 0.0320511

0.0291758 0.00304057 -2.14238e-08
0.00304057 0.0326907 6.33886e-08
-2.14238e-08 6.33886e-08 0.0321426

0.0314599 0.00316668 -1.82492e-07
0.00316668 0.0342597 -3.36833e-08
-1.82492e-07 -3.36833e-08 0.0340677

0.0291792 -0.00320446 4.66234e-08
-0.00320446 0.0332498 1.0664e-07
4.66234e-08 1.0664e-07 0.0333889

0.0287827 -8.58435e-05 -4.12116e-09
-8.58435e-05 0.0367151 -1.35807e-08
-4.12116e-09 -1.35807e-08 0.0325351

0.0294748 0.00337608 -9.50291e-08
0.00337608 0.0330856 -2.9739e-09
-9.50291e-08 -2.9739e-09 0.0333646

0.0328708 -0.00134695 -1.96295e-07
-0.00134695 0.0253702 1.04255e-09
-1.96295e-07 1.04255e-09 0.0278381

0.0263638 -0.00425638 1.10634e-07
-0.00425638 0.0281893 1.00973e-07
1.10634e-07 1.00973e-07 0.0242758

0.0363077 -0.000332162 -2.36862e-07
-0.000332162 0.0293929 3.97294e-08
-2.36862e-07 3.97294e-08 0.0340375

0.0267899 -0.00444756 2.58523e-07
-0.00444756 0.0251988 8.0941e-08
2.58523e-07 8.0941e-08 0.0209562

0.030909 0.00250728 -5.07149e-08
0.00250728 0.0350734 -3.54833e-09
-5.07149e-08 -3.54833e-09 0.0340772

0.0351234 -0.00349718 2.14205e-07
-0.00349718 0.0303973 2.91968e-08
2.14205e-07 2.91968e-08 0.0326242

0.0305124 -0.00125037 5.02376e-08
-0.00125037 0.0229856 1.80775e-07
5.02376e-08 1.80775e-07 0.0214855

0.0371561 -0.00307763 1.44171e-17
-0.00307763 0.0316621 -1.436e-17
1.44171e-17 -1.436e-17 0.033997

0.0349801 0.000322193 1.3199e-07
0.000322193 0.0275652 -2.078e-08
1.3199e-07 -2.078e-08 0.0334398

0.0358521 -0.00308882 1.9603e-07
-0.00308882 0.0332667 1.3805e-08
1.9603e-07 1.3805e-08 0.0341526

0.0349387 -0.00341099 1.62539e-07
-0.00341099 0.0296043 -1.55891e-07
1.62539e-07 -1.55891e-07 0.0321876

0.0349203 -0.00113403 1.36144e-07
-0.00113403 0.0278595 7.92447e-08
1.36144e-07 7.92447e-08 0.0323512

0.0314997 -0.00306261 -4.22705e-08
-0.00306261 0.034458 1.37038e-07
-4.22705e-08 1.37038e-07 0.0341559

0.0292452 -0.00407279 1.03986e-07
-0.00407279 0.0269089 -1.43515e-09
1.03986e-07 -1.43515e-09 0.0253547

0.0350026 -0.00324442 2.07428e-07
-0.00324442 0.0299244 2.10627e-08
2.07428e-07 2.10627e-08 0.0322047

0.0314735 0.00140978 -1.90227e-07
0.00140978 0.0233345 -1.0572e-07
-1.90227e-07 -1.0572e-07 0.0244919

0.0336745 0.00348468 -6.7395e-08
0.00348468 0.0334529 3.13479e-08
-6.7395e-08 3.13479e-08 0.0336594

0.0299033 -0.00496646 -1.63271e-07
-0.00496646 0.0330892 -9.82671e-08
-1.63271e-07 -9.82671e-08 0.0338669

0.0300539 0.00491978 -5.6639e-08
0.00491978 0.0329511 -4.63587e-09
-5.6639e-08 -4.63587e-09 0.0338338

0.0276995 -0.00374156 3.11288e-08
-0.00374156 0.0348173 1.11433e-07
3.11288e-08 1.11433e-07 0.0337764

0.027937 0.00354688 2.76e-08
0.00354688 0.0348455 -6.00293e-08
2.76e-08 -6.00293e-08 0.0337413

0.0364401 -0.00115362 -1.44567e-07
-0.00115362 0.0263533 1.90508e-07
-1.44567e-07 1.90508e-07 0.0337676

0.0362092 0.00124731 3.95562e-08
0.00124731 0.0265745 -4.31325e-08
3.95562e-08 -4.31325e-08 0.0337304

0.0350452 -0.00130711 -1.59457e-07
-0.00130711 0.0284775 2.04624e-08
-1.59457e-07 2.04624e-08 0.0325855

0.0344451 0.00425831 4.5272e-08
0.00425831 0.0342987 -2.95305e-08
4.5272e-08 -2.95305e-08 0.0348216

0.0343208 -0.00435608 8.2133e-08
-0.00435608 0.0342903 1.88763e-07
8.2133e-08 1.88763e-07 0.0348099

0.030531 0.0020934 -1.29027e-07
0.0020934 0.0381734 1.50735e-07
-1.29027e-07 1.50735e-07 0.0348587

0.030674 -0.00205937 3.57571e-08
-0.00205937 0.0381035 2.44239e-08
3.57571e-08 2.44239e-08 0.034846

0.0395091 -0.000529855 2.46038e-08
-0.000529855 0.0328576 1.08099e-07
2.46038e-08 1.08099e-07 0.0352666

0.0397118 0.000513986 -1.68167e-07
0.000513986 0.0326302 -1.48426e-07
-1.68167e-07 -1.48426e-07 0.0353118

0.0239728 0.00127653 -2.06611e-07
0.00127653 0.0320145 6.64858e-08
-2.06611e-07 6.64858e-08 0.0251927

0.0311724 -0.00326624 -6.23057e-08
-0.00326624 0.0322512 8.69645e-08
-6.23057e-08 8.69645e-08 0.0328116

0.0277911 -0.00478542 1.68711e-08
-0.00478542 0.0333232 1.07332e-07
1.68711e-08 1.07332e-07 0.0334652

0.0333704 -0.000610519 -1.51016e-07
-0.000610519 0.0264121 8.13727e-08
-1.51016e-07 8.13727e-08 0.0284576

0.0381962 -0.00225128 -9.57796e-08
-0.00225128 0.030804 -9.71545e-08
-9.57796e-08 -9.71545e-08 0.0349018

0.0382441 0.00218334 -2.7231e-07
0.00218334 0.0309172 7.19684e-09
-2.7231e-07 7.19684e-09 0.0349339

0.0360945 1.56242e-05 7.57935e-08
1.56242e-05 0.0251375 7.90577e-08
7.57935e-08 7.90577e-08 0.0334802

0.0242488 0.00303042 2.16445e-07
0.00303042 0.0304082 5.87201e-08
2.16445e-07 5.87201e-08 0.0242852

0.0276856 0.00475594 1.18625e-07
0.00475594 0.0333236 9.04742e-08
1.18625e-07 9.04742e-08 0.033403

0.0286853 -0.00307619 1.58172e-07
-0.00307619 0.0342722 -8.55334e-08
1.58172e-07 -8.55334e-08 0.0327622

0.0310964 0.00303704 -4.62198e-08
0.00303704 0.0251549 -1.7608e-07
-4.62198e-08 -1.7608e-07 0.0254758

0.0372364 0.00316612 6.82099e-08
0.00316612 0.0315496 -1.76325e-07
6.82099e-08 -1.76325e-07 0.0340849

0.0292369 -0.0040689 -1.34216e-07
-0.0040689 0.0269446 7.06791e-08
-1.34216e-07 7.06791e-08 0.0253299

0.0364113 -0.000454153 -5.65999e-08
-0.000454153 0.0297011 -1.61073e-07
-5.65999e-08 -1.61073e-07 0.0341404

0.027356 -0.00449455 1.24506e-07
-0.00449455 0.0334065 -1.72523e-07
1.24506e-07 -1.72523e-07 0.0334518

0.0240456 0.0010794 1.18218e-07
0.0010794 0.0322555 -3.37673e-08
1.18218e-07 -3.37673e-08 0.0255145

0.0242375 0.00282784 -9.76523e-08
0.00282784 0.0307126 -1.44466e-07
-9.76523e-08 -1.44466e-07 0.0245532

0.0268013 0.00459633 9.20285e-08
0.00459633 0.0240493 -6.8199e-08
9.20285e-08 -6.8199e-08 0.0182197

0.0298611 0.000199891 1.08973e-07
0.000199891 0.0200942 9.17873e-08
1.08973e-07 9.17873e-08 0.0193689

0.031919 -0.00302411 1.46199e-07
-0.00302411 0.0341718 1.85651e-07
1.46199e-07 1.85651e-07 0.0340451

0.0229257 0.00400129 1.81323e-07
0.00400129 0.0276693 1.06695e-07
1.81323e-07 1.06695e-07 0.017659

0.0292199 0.00310158 -8.21082e-08
0.00310158 0.0327743 -2.87859e-08
-8.21082e-08 -2.87859e-08 0.0310221

0.0316062 -0.000694894 9.44027e-08
-0.000694894 0.0231674 1.53517e-07
9.44027e-08 1.53517e-07 0.0244931

0.0327731 0.00146503 1.53535e-07
0.00146503 0.025355 -1.98601e-07
1.53535e-07 -1.98601e-07 0.0276221

0.0359888 5.62469e-05 1.11412e-08
5.62469e-05 0.0249706 -8.62379e-08
1.11412e-08 -8.62379e-08 0.0333962

0.0279773 -0.0038051 3.62898e-08
-0.0038051 0.0349593 8.81234e-08
3.62898e-08 8.81234e-08 0.0338257

0.0393186 -0.000843224 1.09017e-07
-0.000843224 0.0416067 2.46725e-08
1.09017e-07 2.46725e-08 0.0361982

0.0298788 0.00493833 -1.94165e-07
0.00493833 0.0329673 -1.27822e-08
-1.94165e-07 -1.27822e-08 0.0337888

0.0302987 0.000214567 -7.09731e-09
0.000214567 0.0204029 -7.08685e-08
-7.09731e-09 -7.08685e-08 0.0172819

0.0266828 -0.0042523 -1.8935e-08
-0.0042523 0.0281427 -9.41977e-08
-1.8935e-08 -9.41977e-08 0.0244458

0.0277576 0.00481544 -5.69429e-08
0.00481544 0.0333262 -6.98772e-08
-5.69429e-08 -6.98772e-08 0.0334653

0.027954 -0.00145878 -7.7471e-08
-0.00145878 0.0350961 1.79987e-07
-7.7471e-08 1.79987e-07 0.0314599

0.024473 -0.00330672 6.94118e-08
-0.00330672 0.030026 -2.02827e-07
6.94118e-08 -2.02827e-07 0.0242253

0.028002 0.00377915 8.42163e-08
0.00377915 0.0349206 -1.22999e-08
8.42163e-08 -1.22999e-08 0.0337966

0.0313726 -0.00341092 -2.07595e-07
-0.00341092 0.0270179 -3.18961e-08
-2.07595e-07 -3.18961e-08 0.0270003

0.0402847 0.00140922 1.08983e-08
0.00140922 0.0406221 -1.20405e-07
1.08983e-08 -1.20405e-07 0.0361786

0.0258898 0.00400476 -6.38955e-08
0.00400476 0.0289646 -1.42997e-07
-6.38955e-08 -1.42997e-07 0.0245193

0.0366877 0.00110266 6.53142e-08
0.00110266 0.0263637 -1.15039e-07
6.53142e-08 -1.15039e-07 0.0339075

0.0333516 0.0039846 5.32148e-08
0.0039846 0.0321259 6.89106e-08
5.32148e-08 6.89106e-08 0.0333252

0.0292385 0.00306787 -1.67485e-07
0.00306787 0.0326161 -6.0744e-08
-1.67485e-07 -6.0744e-08 0.0321677

0.0343736 -0.00430992 5.50949e-08
-0.00430992 0.0345144 1.34867e-07
5.50949e-08 1.34867e-07 0.034894

0.0354994 -0.00306435 1.76814e-07
-0.00306435 0.0305994 -4.70937e-08
1.76814e-07 -4.70937e-08 0.0327599

0.0333737 0.00138698 -2.19447e-07
0.00138698 0.0395855 -1.7037e-07
-2.19447e-07 -1.7037e-07 0.0350113

0.0292071 -0.00307986 1.59466e-07
-0.00307986 0.0328844 9.02595e-09
1.59466e-07 9.02595e-09 0.0313933

0.0292748 -0.00123285 -9.06299e-08
-0.00123285 0.0192927 3.21566e-08
-9.06299e-08 3.21566e-08 0.0164177

0.0287885 -0.00183299 1.70727e-07
-0.00183299 0.0184192 2.99094e-07
1.70727e-07 2.99094e-07 0.0162025

0.0385368 0.00220279 -6.04847e-08
0.00220279 0.0332473 1.31565e-07
-6.04847e-08 1.31565e-07 0.0347718

0.0280657 0.0029461 1.48801e-08
0.0029461 0.0323466 -1.32966e-08
1.48801e-08 -1.32966e-08 0.0295279

0.0320776 0.00383542 -1.70239e-07
0.00383542 0.0309707 -1.79181e-08
-1.70239e-07 -1.79181e-08 0.0314642

0.0320617 8.99841e-05 4.63e-08
8.99841e-05 0.024585 -5.42515e-08
4.63e-08 -5.42515e-08 0.0248966

0.0302461 0.000865895 -2.84033e-08
0.000865895 0.03859 1.6912e-07
-2.84033e-08 1.6912e-07 0.0341056

0.0354128 0.00219153 -1.06345e-07
0.00219153 0.0293328 5.27531e-08
-1.06345e-07 5.27531e-08 0.0328682

0.0248197 -0.00334033 7.45865e-08
-0.00334033 0.0300169 -8.462e-09
7.45865e-08 -8.462e-09 0.0244785

0.0286595 -0.000337588 -1.43335e-07
-0.000337588 0.036668 -2.69214e-08
-1.43335e-07 -2.69214e-08 0.0324054

0.0252237 0.00174096 2.04168e-07
0.00174096 0.0320413 7.88447e-08
2.04168e-07 7.88447e-08 0.0256928

0.0332913 -0.00391071 -2.36927e-07
-0.00391071 0.0305063 -7.17129e-08
-2.36927e-07 -7.17129e-08 0.0316021

0.0290751 -0.00389762 -1.22532e-07
-0.00389762 0.0282101 9.33693e-08
-1.22532e-07 9.33693e-08 0.0257224

0.0261582 0.00410059 -2.77723e-08
0.00410059 0.0285564 -2.03447e-07
-2.77723e-08 -2.03447e-07 0.0243266

0.0452889 -0.00201718 1.12977e-07
-0.00201718 0.0396108 1.36065e-07
1.12977e-07 1.36065e-07 0.036375

0.0316753 0.000256796 -1.89715e-08
0.000256796 0.0393356 -1.45945e-07
-1.89715e-08 -1.45945e-07 0.0347781

0.0306268 0.00265033 9.27716e-09
0.00265033 0.0384505 1.02433e-07
9.27716e-09 1.02433e-07 0.0349669

0.0387737 0.00209419 -8.85849e-08
0.00209419 0.0302317 3.23863e-08
-8.85849e-08 3.23863e-08 0.0349517

0.0313812 -0.00345154 6.43861e-08
-0.00345154 0.032151 2.4851e-07
6.43861e-08 2.4851e-07 0.0325827

0.0318293 0.00233709 -1.49874e-07
0.00233709 0.025629 -2.38191e-08
-1.49874e-07 -2.38191e-08 0.0258885

0.0350002 -0.000707887 -2.83348e-07
-0.000707887 0.0415814 -4.64887e-08
-2.83348e-07 -4.64887e-08 0.0357362

0.035799 -0.0025187 1.59882e-07
-0.0025187 0.0295601 2.46051e-08
1.59882e-07 2.46051e-08 0.0332677

0.0333088 -0.00204038 1.31547e-07
-0.00204038 0.0266617 -1.63502e-07
1.31547e-07 -1.63502e-07 0.0286849

0.0252609 0.00151167 -1.59571e-07
0.00151167 0.0322859 -4.40845e-08
-1.59571e-07 -4.40845e-08 0.0259589

0.0268139 -0.00334622 -5.35643e-08
-0.00334622 0.0300202 -2.07377e-07
-5.35643e-08 -2.07377e-07 0.025196

0.0364862 -0.00336067 -2.15372e-16
-0.00336067 0.0352948 -4.30576e-16
-2.15372e-16 -4.30576e-16 0.0347513

0.0284856 0.00415412 -1.35566e-07
0.00415412 0.0277257 1.95178e-07
-1.35566e-07 1.95178e-07 0.0254765

0.0372527 -0.00334535 -1.21558e-08
-0.00334535 0.0333304 1.11021e-07
-1.21558e-08 1.11021e-07 0.0346208

0.032218 0.000337907 -1.05793e-07
0.000337907 0.024871 -2.35593e-07
-1.05793e-07 -2.35593e-07 0.0254463

0.0191666 -0.0036907 1.08437e-07
-0.0036907 0.0275354 1.24945e-07
1.08437e-07 1.24945e-07 0.0163164

0.02922 -0.00380529 6.5068e-08
-0.00380529 0.0282023 -8.68089e-08
6.5068e-08 -8.68089e-08 0.0258166

0.0230531 0.00412916 9.63557e-08
0.00412916 0.0280299 -1.52e-07
9.63557e-08 -1.52e-07 0.0175981

0.0296998 -0.00155903 -3.17518e-09
-0.00155903 0.0375432 -1.63525e-08
-3.17518e-09 -1.63525e-08 0.0336579

0.0243681 -0.00179444 -4.55492e-08
-0.00179444 0.0318838 7.01593e-08
-4.55492e-08 7.01593e-08 0.0254566

0.0424412 -0.00323303 6.74324e-08
-0.00323303 0.0423788 6.76865e-08
6.74324e-08 6.76865e-08 0.0363833

0.0263456 0.00309245 -6.3038e-08
0.00309245 0.0307128 -1.44585e-07
-6.3038e-08 -1.44585e-07 0.0254865

0.0334866 -0.00432364 -4.10441e-08
-0.00432364 0.0326685 -7.67227e-08
-4.10441e-08 -7.67227e-08 0.0335759

0.0240885 -0.00155156 1.35374e-07
-0.00155156 0.0318985 -1.20319e-07
1.35374e-07 -1.20319e-07 0.0251853

0.0362326 -0.0025386 -3.76329e-08
-0.0025386 0.0295208 -1.6016e-07
-3.76329e-08 -1.6016e-07 0.0335289

0.0266825 0.00310606 -1.92929e-07
0.00310606 0.0304052 6.53284e-08
-1.92929e-07 6.53284e-08 0.0253217

0.034355 -0.000653903 1.88868e-07
-0.000653903 0.0272862 -3.24001e-08
1.88868e-07 -3.24001e-08 0.0305873

0.0188957 -0.00387275 1.88076e-07
-0.00387275 0.0298108 -5.96849e-08
1.88076e-07 -5.96849e-08 0.0129655

0.0280086 0.00275537 3.56621e-08
0.00275537 0.0326405 1.40083e-07
3.56621e-08 1.40083e-07 0.0305833

0.0314484 -0.00251345 1.81344e-07
-0.00251345 0.0247303 2.29762e-08
1.81344e-07 2.29762e-08 0.0254144

0.0391257 -0.00286907 -7.21106e-08
-0.00286907 0.0322297 5.52801e-09
-7.21106e-08 5.52801e-09 0.0349455

0.0287626 0.00412576 -2.49552e-07
0.00412576 0.027309 1.39959e-07
-2.49552e-07 1.39959e-07 0.0252638

0.0313717 -0.00392047 -1.07307e-07
-0.00392047 0.0285511 -1.83151e-07
-1.07307e-07 -1.83151e-07 0.02874

0.035418 0.00276447 2.58954e-07
0.00276447 0.0308644 -1.01731e-08
2.58954e-07 -1.01731e-08 0.0330483

0.0297828 -0.00370412 1.3181e-07
-0.00370412 0.0329481 -1.66151e-07
1.3181e-07 -1.66151e-07 0.0333519

0.027064 -0.00341169 1.98038e-08
-0.00341169 0.0299927 -1.26802e-08
1.98038e-08 -1.26802e-08 0.0254057

0.0284503 0.00377289 8.70813e-08
0.00377289 0.0289495 -1.38926e-07
8.70813e-08 -1.38926e-07 0.0258957

0.0313819 0.00341476 9.09456e-08
0.00341476 0.0269078 1.55954e-07
9.09456e-08 1.55954e-07 0.0269745

0.036545 -0.00194491 4.53169e-08
-0.00194491 0.0306337 1.58658e-08
4.53169e-08 1.58658e-08 0.0336445

0.0255418 -0.00216418 1.20223e-07
-0.00216418 0.0318124 8.42794e-08
1.20223e-07 8.42794e-08 0.025862

0.0347103 -0.00231444 -8.54687e-09
-0.00231444 0.0283433 3.05971e-08
-8.54687e-09 3.05971e-08 0.0314651

0.0341966 0.00222391 -1.56474e-08
0.00222391 0.0274405 3.93608e-08
-1.56474e-08 3.93608e-08 0.0306129

0.0336515 -0.00124531 2.86535e-07
-0.00124531 0.0393081 -1.57205e-07
2.86535e-07 -1.57205e-07 0.0349356

0.032083 -0.00174734 1.7806e-07
-0.00174734 0.0253383 1.65479e-08
1.7806e-07 1.65479e-08 0.0258794

0.0250096 7.98952e-05 -7.78509e-08
7.98952e-05 0.0331621 -1.43677e-07
-7.78509e-08 -1.43677e-07 0.0268696

0.0332582 0.00242927 2.76292e-07
0.00242927 0.0272021 -1.66805e-09
2.76292e-07 -1.66805e-09 0.0289309

0.0311277 0.00360034 8.97495e-08
0.00360034 0.0273013 9.827e-08
8.97495e-08 9.827e-08 0.0271311

0.0253034 -0.00204203 1.14508e-07
-0.00204203 0.0318752 -1.20851e-07
1.14508e-07 -1.20851e-07 0.0256192

0.0252089 -0.000154648 6.08157e-08
-0.000154648 0.0333026 5.46017e-08
6.08157e-08 5.46017e-08 0.0271525

0.0354216 0.00385832 1.86962e-07
0.00385832 0.0330034 1.11753e-07
1.86962e-07 1.11753e-07 0.0339039

0.0275945 -0.00143146 -2.33245e-08
-0.00143146 0.0353519 -5.96425e-08
-2.33245e-08 -5.96425e-08 0.0314511

0.031244 -0.00348522 1.68311e-07
-0.00348522 0.0269859 8.22549e-08
1.68311e-07 8.22549e-08 0.0270182

0.031307 0.00277375 -1.53694e-07
0.00277375 0.0249298 -2.63556e-07
-1.53694e-07 -2.63556e-07 0.0252541

0.0345928 0.00311876 -1.52044e-08
0.00311876 0.0293952 4.02568e-08
-1.52044e-08 4.02568e-08 0.0318047

0.0279999 0.000717127 3.56115e-08
0.000717127 0.0360493 -1.52126e-07
3.56115e-08 -1.52126e-07 0.031827

0.0287254 0.0037829 -4.56549e-08
0.0037829 0.0285684 -2.03351e-07
-4.56549e-08 -2.03351e-07 0.025736

0.0367985 0.00305749 9.21277e-08
0.00305749 0.0361314 -9.31287e-08
9.21277e-08 -9.31287e-08 0.0349153

0.0226866 -0.0075478 -6.90144e-09
-0.0075478 0.0186924 3.3257e-07
-6.90144e-09 3.3257e-07 0.0108485

0.0333011 -0.00328855 -1.5836e-07
-0.00328855 0.0286412 -1.87536e-07
-1.5836e-07 -1.87536e-07 0.0301328

0.0207326 0.000913749 -1.52519e-07
0.000913749 0.0300409 1.08748e-07
-1.52519e-07 1.08748e-07 0.0183522

0.03131 -0.0037829 7.69934e-08
-0.0037829 0.0292404 1.4641e-07
7.69934e-08 1.4641e-07 0.0290403

0.00153991 -0.00652026 4.13068e-08
-0.00652026 0.0275746 -1.80977e-07
4.13068e-08 -1.80977e-07 0.00290919

0.0014703 0.00636981 5.7401e-09
0.00636981 0.0275926 2.5149e-08
5.7401e-09 2.5149e-08 0.00300219

0.0119873 0.0145082 -3.71933e-08
0.0145082 0.0175365 -4.66389e-08
-3.71933e-08 -4.66389e-08 0.00277204

0.0121687 -0.0144989 -8.49881e-08
-0.0144989 0.0172278 1.06572e-07
-8.49881e-08 1.06572e-07 0.00280465

0.0293473 -0.000164138 6.24747e-08
-0.000164138 0 0
6.24747e-08 0 0.00295353

0.0235977 -0.0112852 9.76772e-08
-0.0112852 0.00539671 -4.70389e-08
9.76772e-08 -4.70389e-08 0.00297923

0.0236396 0.0113514 1.33317e-08
0.0113514 0.00545077 6.42018e-09
1.33317e-08 6.42018e-09 0.00304041

0.03692 0.00191222 1.05361e-07
0.00191222 0.0302508 -5.43621e-08
1.05361e-07 -5.43621e-08 0.0338866

0.0387118 0.00340945 -1.82438e-07
0.00340945 0.0366229 -6.09111e-08
-1.82438e-07 -6.09111e-08 0.0355864

0.0344259 0.000872798 -2.43277e-07
0.000872798 0.0274657 -9.16254e-08
-2.43277e-07 -9.16254e-08 0.0316971

0.0328833 0.00285147 1.88136e-07
0.00285147 0.0268978 1.5706e-07
1.88136e-07 1.5706e-07 0.0286551

0.0257087 0.00231417 1.41735e-07
0.00231417 0.0323776 -4.79306e-08
1.41735e-07 -4.79306e-08 0.0276443

0.0307228 0.0037706 1.92385e-08
0.0037706 0.0276851 2.027e-07
1.92385e-08 2.027e-07 0.0271262

0.0333155 -0.00390407 -9.65326e-08
-0.00390407 0.0304753 1.30456e-07
-9.65326e-08 1.30456e-07 0.031639

0.0309838 0.00365591 9.71781e-08
0.00365591 0.0272957 1.4495e-07
9.71781e-08 1.4495e-07 0.0269338

0.0249949 -0.000371858 1.26744e-07
-0.000371858 0.0331331 -1.37113e-07
1.26744e-07 -1.37113e-07 0.0268518

0.0385547 -0.0034843 -1.14113e-07
-0.0034843 0.0368864 -7.8821e-08
-1.14113e-07 -7.8821e-08 0.0355921

0.0251835 -0.000635936 -5.82796e-08
-0.000635936 0.0332212 4.4497e-08
-5.82796e-08 4.4497e-08 0.0271114

0.0360262 0.00304803 2.25804e-07
0.00304803 0.0330198 8.14677e-09
2.25804e-07 8.14677e-09 0.0341068

0.0296328 0.00347727 -1.72425e-07
0.00347727 0.0248542 -2.61897e-07
-1.72425e-07 -2.61897e-07 0.0230303

0.0305059 -0.00171381 -1.07068e-07
-0.00171381 0.0375208 -4.48171e-08
-1.07068e-07 -4.48171e-08 0.0347454

0.0339314 0.00180485 -1.58825e-07
0.00180485 0.0271903 -5.77029e-09
-1.58825e-07 -5.77029e-09 0.0303297

0.0312113 -0.00392175 2.49064e-07
-0.00392175 0.0285401 -5.24568e-08
2.49064e-07 -5.24568e-08 0.0286235

0.0315942 -0.00322259 1.58074e-07
-0.00322259 0.0267002 6.25508e-08
1.58074e-07 6.25508e-08 0.0270564

0.038487 -0.00214222 -1.12576e-07
-0.00214222 0.0334249 -8.06914e-08
-1.12576e-07 -8.06914e-08 0.0347535

0.0326915 0.00366513 6.60224e-08
0.00366513 0.029241 -1.11236e-07
6.60224e-08 -1.11236e-07 0.0301642

0.0326552 0.00313876 1.71225e-07
0.00313876 0.0272613 1.01729e-07
1.71225e-07 1.01729e-07 0.028797

0.0269636 -0.000364998 1.51016e-07
-0.000364998 0.0349983 -6.35961e-08
1.51016e-07 -6.35961e-08 0.0301772

0.0259079 0.00076606 6.63093e-08
0.00076606 0.0340151 6.63627e-08
6.63093e-08 6.63627e-08 0.0288321

0.0327895 0.000345378 1.4489e-08
0.000345378 0.0248697 -2.28717e-07
1.4489e-08 -2.28717e-07 0.0274527

0.0313983 -0.000945284 1.79371e-07
-0.000945284 0.023011 1.86936e-07
1.79371e-07 1.86936e-07 0.0239

0.0308909 0.00398651 -1.19714e-08
0.00398651 0.0288153 -5.47186e-08
-1.19714e-08 -5.47186e-08 0.0286332

0.0331285 -0.00343272 -1.68306e-07
-0.00343272 0.0285497 -5.66781e-08
-1.68306e-07 -5.66781e-08 0.0299786

0.0364222 -0.00282383 -1.97831e-08
-0.00282383 0.0327411 -1.81035e-08
-1.97831e-08 -1.81035e-08 0.034153

0.0292159 -0.0041293 -8.0199e-08
-0.0041293 0.029202 1.35167e-07
-8.0199e-08 1.35167e-07 0.0277629

0.026981 -0.00362199 -6.45368e-08
-0.00362199 0.0304753 -1.89614e-07
-6.45368e-08 -1.89614e-07 0.0272223

0.0283358 0.00390117 2.04014e-07
0.00390117 0.0299112 9.28698e-08
2.04014e-07 9.28698e-08 0.027761

0.0259097 -0.00124956 -7.7526e-08
-0.00124956 0.0336249 1.85429e-07
-7.7526e-08 1.85429e-07 0.0285251

0.0266632 -0.000202421 -1.29682e-07
-0.000202421 0.0349241 8.96654e-08
-1.29682e-07 8.96654e-08 0.0299291

0.0277709 0.000752971 1.10223e-07
0.000752971 0.0360487 -1.52668e-07
1.10223e-07 -1.52668e-07 0.0316675

0.0262557 -0.00275068 1.39455e-07
-0.00275068 0.031974 5.60677e-08
1.39455e-07 5.60677e-08 0.0277197

0.0345926 0.0031768 6.53366e-08
0.0031768 0.0291774 -1.11436e-07
6.53366e-08 -1.11436e-07 0.0316437

0.0339208 -0.00126148 1.36091e-07
-0.00126148 0.026939 -1.629e-07
1.36091e-07 -1.629e-07 0.0302111

0.0257987 0.000974698 -4.75074e-08
0.000974698 0.033841 -8.94803e-08
-4.75074e-08 -8.94803e-08 0.028551

0.0278327 -0.00127024 -3.289e-08
-0.00127024 0.0354078 -6.15909e-08
-3.289e-08 -6.15909e-08 0.0313754

0.0273019 -0.00213788 1.40844e-07
-0.00213788 0.0336682 2.922e-07
1.40844e-07 2.922e-07 0.0302351

0.0327882 -0.00107764 -2.0951e-07
-0.00107764 0.0253282 1.51288e-07
-2.0951e-07 1.51288e-07 0.0272632

0.0333251 -0.00427123 1.23695e-07
-0.00427123 0.0323903 2.37608e-07
1.23695e-07 2.37608e-07 0.0335385

0.0264973 0.00122026 1.65667e-07
0.00122026 0.033847 -8.68213e-08
1.65667e-07 -8.68213e-08 0.0288252

0.039817 -0.00243202 -1.34941e-07
-0.00243202 0.0352254 4.74354e-09
-1.34941e-07 4.74354e-09 0.0354694

0.0188941 0.00316597 -2.25715e-09
0.00316597 0.0278853 -1.61091e-07
-2.25715e-09 -1.61091e-07 0.0162781

0.0338257 -0.00352317 -2.17625e-08
-0.00352317 0.0335034 5.90668e-09
-2.17625e-08 5.90668e-09 0.0337352

0.0353529 -0.00399948 1.78277e-07
-0.00399948 0.0330545 -4.86718e-08
1.78277e-07 -4.86718e-08 0.0339129

0.0266943 -9.0187e-05 -1.56871e-07
-9.0187e-05 0.0349292 8.90425e-08
-1.56871e-07 8.90425e-08 0.0299372

0.0332541 -0.00217696 -1.68334e-07
-0.00217696 0.027162 -5.65164e-08
-1.68334e-07 -5.65164e-08 0.0289119

0.0293563 0.00168498 1.23708e-07
0.00168498 0.03583 -1.73163e-08
1.23708e-07 -1.73163e-08 0.0328891

0.0132107 -0.00037934 -5.85267e-08
-0.00037934 0.0283708 4.92421e-09
-5.85267e-08 4.92421e-09 0.0111554

0.0271224 0.001869 9.9574e-08
0.001869 0.0340729 -2.1191e-07
9.9574e-08 -2.1191e-07 0.0303156

0.0311192 -0.00385987 1.95169e-07
-0.00385987 0.0291641 -1.61218e-07
1.95169e-07 -1.61218e-07 0.0288156

0.0186249 0.00320563 2.79405e-09
0.00320563 0.0301487 -1.46697e-07
2.79405e-09 -1.46697e-07 0.0131311

0.0426042 0.0035167 2.00741e-07
0.0035167 0.0418518 -1.44135e-07
2.00741e-07 -1.44135e-07 0.0364881

0.0432082 -0.00374701 6.21457e-08
-0.00374701 0.0414205 -4.62112e-07
6.21457e-08 -4.62112e-07 0.0364705

0.0310751 -0.00399194 9.03221e-08
-0.00399194 0.0304808 1.25787e-07
9.03221e-08 1.25787e-07 0.0304704

0.0289317 -0.00406573 3.18124e-08
-0.00406573 0.0291605 -1.62525e-07
3.18124e-08 -1.62525e-07 0.0276033

0.0330619 0.00272774 1.98657e-07
0.00272774 0.0275374 5.8046e-08
1.98657e-07 5.8046e-08 0.0290846

0.0327907 0.00196088 1.61629e-07
0.00196088 0.0255994 -1.21481e-08
1.61629e-07 -1.21481e-08 0.0278317

0.0464016 0.000417527 -2.71885e-07
0.000417527 0.046357 1.28296e-07
-2.71885e-07 1.28296e-07 0.0367021

0.0469203 -0.000951252 1.28262e-07
-0.000951252 0.0457697 -4.64264e-07
1.28262e-07 -4.64264e-07 0.0367732

0.0348104 0.000638448 -1.80437e-07
0.000638448 0.0275826 -1.46391e-07
-1.80437e-07 -1.46391e-07 0.0322261

0.0277606 0.000882871 -5.30265e-08
0.000882871 0.035581 4.75944e-08
-5.30265e-08 4.75944e-08 0.0313578

0.0276161 0.000883001 -1.83804e-07
0.000883001 0.0355811 4.38538e-08
-1.83804e-07 4.38538e-08 0.0312539

0.0234656 0.00740251 -1.08692e-07
0.00740251 0.0183071 4.28756e-08
-1.08692e-07 4.28756e-08 0.010905

0.0272561 -0.00367719 -7.37342e-08
-0.00367719 0.0303574 1.26417e-07
-7.37342e-08 1.26417e-07 0.0273283

0.0365771 0.00239154 -1.00284e-07
0.00239154 0.0295856 2.08763e-07
-1.00284e-07 2.08763e-07 0.0337935

0.0332852 0.00124784 1.47476e-07
0.00124784 0.0265126 1.52526e-08
1.47476e-07 1.52526e-08 0.0284408

0.029162 -0.00349398 2.0858e-08
-0.00349398 0.0304815 -1.82676e-07
2.0858e-08 -1.82676e-07 0.0281822

0.0328213 -0.0026488 -9.64935e-08
-0.0026488 0.0267364 5.43069e-08
-9.64935e-08 5.43069e-08 0.0285956

0.0224666 0.00761529 1.31068e-07
0.00761529 0.0185953 2.25524e-07
1.31068e-07 2.25524e-07 0.0109074

0.0331544 0.00410267 5.79695e-08
0.00410267 0.0326469 5.78009e-08
5.79695e-08 5.78009e-08 0.0331906

0.0258984 -0.00257923 6.87038e-08
-0.00257923 0.0320347 -4.55057e-08
6.87038e-08 -4.55057e-08 0.0275161

0.0324924 0.00378692 -1.00466e-07
0.00378692 0.0292773 1.14763e-07
-1.00466e-07 1.14763e-07 0.030156

0.0268244 -0.000544001 8.469e-08
-0.000544001 0.0349632 -7.03735e-08
8.469e-08 -7.03735e-08 0.030147

0.0269989 0.00256429 8.08351e-08
0.00256429 0.0324593 4.22207e-08
8.08351e-08 4.22207e-08 0.0282953

0.0305362 0.00399259 -2.10272e-08
0.00399259 0.0293325 1.21991e-07
-2.10272e-08 1.21991e-07 0.028784

0.027618 -0.00293838 -1.29984e-07
-0.00293838 0.0318646 8.28475e-09
-1.29984e-07 8.28475e-09 0.0282579

0.0294653 -0.00357731 -8.57734e-08
-0.00357731 0.0303611 1.25763e-07
-8.57734e-08 1.25763e-07 0.0283139

0.0181425 0.00142597 6.91964e-08
0.00142597 0.0280448 1.08913e-07
6.91964e-08 1.08913e-07 0.0131317

0.0234808 -0.00429572 -7.25775e-08
-0.00429572 0.0275651 1.30032e-07
-7.25775e-08 1.30032e-07 0.017729

0.0262137 -0.00152662 5.95122e-08
-0.00152662 0.0336346 -1.26724e-07
5.95122e-08 -1.26724e-07 0.0287607

0.0330333 0.00347595 -9.87609e-08
0.00347595 0.0288868 -4.73944e-08
-9.87609e-08 -4.73944e-08 0.0300778

0.0303315 0.00385878 1.59121e-08
0.00385878 0.0298964 8.02636e-08
1.59121e-08 8.02636e-08 0.0289992

0.0274235 -0.00280169 8.39063e-09
-0.00280169 0.0319944 -4.99157e-08
8.39063e-09 -4.99157e-08 0.0281478

0.026563 -0.00154141 2.00115e-07
-0.00154141 0.0335933 1.99672e-07
2.00115e-07 1.99672e-07 0.0287551

0.0309662 0.00371973 -1.05779e-07
0.00371973 0.0295729 1.29448e-07
-1.05779e-07 1.29448e-07 0.02895

0.0267679 -0.00181684 6.5005e-08
-0.00181684 0.033485 -1.25574e-07
6.5005e-08 -1.25574e-07 0.0289632

0.0191713 0.00355599 -2.26079e-07
0.00355599 0.0276166 6.06587e-08
-2.26079e-07 6.06587e-08 0.0162974

0.0308812 -0.000534472 -7.94788e-08
-0.000534472 0.0388277 1.28606e-08
-7.94788e-08 1.28606e-08 0.0343029

0.0286656 0.00404951 1.52404e-07
0.00404951 0.0295279 1.00453e-07
1.52404e-07 1.00453e-07 0.0277232

0.0355901 0.00197551 -1.02194e-07
0.00197551 0.0295117 4.48304e-08
-1.02194e-07 4.48304e-08 0.0328516

0.0362685 -0.00211537 2.55299e-08
-0.00211537 0.0297641 -1.64788e-07
2.55299e-08 -1.64788e-07 0.0332267

0.0285197 -0.003097 -7.71466e-08
-0.003097 0.0185739 9.57124e-08
-7.71466e-08 9.57124e-08 0.0157348

0.0283629 -0.00279094 -1.03455e-07
-0.00279094 0.0327857 1.02377e-07
-1.03455e-07 1.02377e-07 0.0305808

0.0292008 0.00350215 4.08026e-08
0.00350215 0.03161 -1.82556e-07
4.08026e-08 -1.82556e-07 0.0304966

0.0349674 -0.00290769 1.02975e-08
-0.00290769 0.0376818 5.11407e-08
1.02975e-08 5.11407e-08 0.0352443

0.0394638 0.00188365 -2.27663e-08
0.00188365 0.0446098 1.77524e-07
-2.27663e-08 1.77524e-07 0.0364404

0.0449453 0.00129005 -1.07257e-07
0.00129005 0.0391208 -2.4431e-07
-1.07257e-07 -2.4431e-07 0.0364223

0.0355685 0.00434506 -1.91108e-08
0.00434506 0.0351418 -1.69611e-07
-1.91108e-08 -1.69611e-07 0.0350116

0.0265803 0.00338932 6.40041e-08
0.00338932 0.0310166 8.62934e-08
6.40041e-08 8.62934e-08 0.0272644

0.0330492 0.00349797 -2.72579e-08
0.00349797 0.0286755 -2.27162e-07
-2.72579e-08 -2.27162e-07 0.0300589

0.0220662 0.00576657 1.93245e-07
0.00576657 0.024245 8.73804e-08
1.93245e-07 8.73804e-08 0.0160774

0.0386223 -0.00151141 1.82338e-07
-0.00151141 0.0444346 -1.09654e-07
1.82338e-07 -1.09654e-07 0.0363695

0.0460478 -0.000462922 -3.57215e-07
-0.000462922 0.0454383 3.08319e-07
-3.57215e-07 3.08319e-07 0.0366982

0.0451809 -3.0432e-05 -1.46355e-07
-3.0432e-05 0.0463014 1.25558e-08
-1.46355e-07 1.25558e-08 0.0366802

0.0176454 -0.00679711 1.13725e-07
-0.00679711 0.0231149 -2.0744e-07
1.13725e-07 -2.0744e-07 0.0107418

0.0392983 -0.00155576 -2.60646e-08
-0.00155576 0.0387194 -5.60842e-08
-2.60646e-08 -5.60842e-08 0.0358614

0.0384008 0.00117608 1.00646e-07
0.00117608 0.0415224 3.85007e-07
1.00646e-07 3.85007e-07 0.0361325

0.0331853 -0.00343685 -1.11291e-07
-0.00343685 0.0282282 7.48856e-08
-1.11291e-07 7.48856e-08 0.0299124

0.0318519 0.000140134 1.47275e-08
0.000140134 0.0386805 3.28724e-09
1.47275e-08 3.28724e-09 0.0344588

0.0285861 -0.00266092 1.85666e-07
-0.00266092 0.0333911 -1.11544e-07
1.85666e-07 -1.11544e-07 0.0315986

0.0356721 0.000831959 1.20537e-08
0.000831959 0.0273875 -1.89769e-09
1.20537e-08 -1.89769e-09 0.0330093

0.0288851 0.00204456 -4.19029e-08
0.00204456 0.0368261 6.88936e-09
-4.19029e-08 6.88936e-09 0.0336785

0.0298773 0.000946271 -9.73042e-08
0.000946271 0.0373976 5.47557e-08
-9.73042e-08 5.47557e-08 0.0333722

0.0344121 0.00268568 -2.46237e-07
0.00268568 0.0288601 -1.99554e-07
-2.46237e-07 -1.99554e-07 0.0312352

0.0132823 -0.000409416 2.45681e-07
-0.000409416 0.0281312 -5.08694e-08
2.45681e-07 -5.08694e-08 0.0112048

0.0309743 -0.00362706 -9.39432e-09
-0.00362706 0.0309253 6.7007e-08
-9.39432e-09 6.7007e-08 0.0306187

0.0329383 -0.00344433 -3.85549e-08
-0.00344433 0.0320298 -7.76752e-08
-3.85549e-08 -7.76752e-08 0.0325883

0.0335802 -0.0041593 -2.39825e-09
-0.0041593 0.0325443 7.23571e-08
-2.39825e-09 7.23571e-08 0.0337446

0.0265702 0.00415025 -3.98087e-08
0.00415025 0.0176962 -2.16556e-07
-3.98087e-08 -2.16556e-07 0.0126092

0.0388342 -0.00269646 -2.01514e-07
-0.00269646 0.0395803 1.28e-07
-2.01514e-07 1.28e-07 0.035966

0.0230892 0.00692293 -3.12628e-08
0.00692293 0.0255091 -2.11781e-07
-3.12628e-08 -2.11781e-07 0.0126135

0.0308836 -0.0028171 4.3235e-08
-0.0028171 0.0348173 1.11453e-07
4.3235e-08 1.11453e-07 0.0339653

0.0354218 0.00193653 -3.85442e-08
0.00193653 0.0284748 2.00323e-07
-3.85442e-08 2.00323e-07 0.0323538

0.0318321 -0.00189411 1.43944e-07
-0.00189411 0.0249585 2.45872e-07
1.43944e-07 2.45872e-07 0.0254036

0.0293023 0.00316004 -6.35337e-08
0.00316004 0.0327428 1.22719e-07
-6.35337e-08 1.22719e-07 0.031289

0.0344477 0.00268913 -2.66136e-07
0.00268913 0.0286433 -1.52319e-07
-2.66136e-07 -1.52319e-07 0.0312299

0.0325259 0.00149859 -2.47727e-07
0.00149859 0.0403801 -2.40087e-07
-2.47727e-07 -2.40087e-07 0.0353447

0.0319499 -0.00415539 1.52591e-07
-0.00415539 0.0312113 -1.83694e-08
1.52591e-07 -1.83694e-08 0.0318198

0.0396824 0.00265533 1.42683e-07
0.00265533 0.0332059 2.27481e-08
1.42683e-07 2.27481e-08 0.0353241

0.0279809 -0.00241933 -1.50609e-07
-0.00241933 0.0335619 2.46047e-07
-1.50609e-07 2.46047e-07 0.0304798

0.0293594 0.000558946 -5.54014e-08
0.000558946 0.0373214 5.9185e-08
-5.54014e-08 5.9185e-08 0.0332615

0.0419477 0.00133785 2.22963e-07
0.00133785 0.0371053 -1.13471e-07
2.22963e-07 -1.13471e-07 0.0361239

0.0421011 -0.00114836 -3.01752e-07
-0.00114836 0.0373318 -9.82639e-08
-3.01752e-07 -9.82639e-08 0.0361058

0.0283925 0.00236997 1.07419e-07
0.00236997 0.0181865 -2.3923e-07
1.07419e-07 -2.3923e-07 0.0159549

0.0350365 0.00106143 -1.04048e-07
0.00106143 0.0285752 2.04167e-07
-1.04048e-07 2.04167e-07 0.0330682

0.01287 0.00092376 2.37712e-07
0.00092376 0.0316342 5.61196e-10
2.37712e-07 5.61196e-10 0.00612362

0.0131657 -0.00138858 -5.66125e-08
-0.00138858 0.0321401 8.07188e-08
-5.66125e-08 8.07188e-08 0.00611394

0.0152723 0.00715598 -7.20091e-08
0.00715598 0.0284601 7.5892e-08
-7.20091e-08 7.5892e-08 0.00598603

0.0347738 -0.00382186 1.27118e-07
-0.00382186 0.0312773 -2.73862e-07
1.27118e-07 -2.73862e-07 0.0329481

0.0155849 -0.00619653 -1.29031e-07
-0.00619653 0.0261603 1.69269e-07
-1.29031e-07 1.69269e-07 0.0104753

0.0155165 -0.00708851 -9.68962e-08
-0.00708851 0.0274304 6.52741e-08
-9.68962e-08 6.52741e-08 0.00591579

0.0284353 0.00342723 2.08491e-07
0.00342723 0.0310169 8.69174e-08
2.08491e-07 8.69174e-08 0.0281617

0.0251998 0.00932812 -1.02404e-07
0.00932812 0.0190253 -3.44503e-08
-1.02404e-07 -3.44503e-08 0.00593569

0.0365437 0.00173138 1.68862e-07
0.00173138 0.038559 6.55484e-08
1.68862e-07 6.55484e-08 0.0354833

0.0395417 2.62938e-05 -1.21202e-07
2.62938e-05 0.0355462 1.38848e-07
-1.21202e-07 1.38848e-07 0.035464

0.0261138 -0.00924667 1.71677e-07
-0.00924667 0.0188169 1.6075e-07
1.71677e-07 1.6075e-07 0.00588986

0.0276991 -0.00306626 -1.58442e-07
-0.00306626 0.0321056 2.30151e-07
-1.58442e-07 2.30151e-07 0.0296321

0.0262633 0.00441986 -1.07125e-07
0.00441986 0.0201636 4.22864e-08
-1.07125e-07 4.22864e-08 0.0130488

0.0172836 0.00797513 1.12931e-07
0.00797513 0.0271556 5.698e-08
1.12931e-07 5.698e-08 0.00598972

0.0182012 0.00275612 -1.71197e-07
0.00275612 0.0275983 1.49087e-07
-1.71197e-07 1.49087e-07 0.0128542

0.0173084 -0.0082784 3.35274e-08
-0.0082784 0.0271589 -1.79063e-07
3.35274e-08 -1.79063e-07 0.00581556

0.0179378 -0.00157157 -2.67706e-07
-0.00157157 0.0280141 2.2924e-07
-2.67706e-07 2.2924e-07 0.0126946

0.0370554 0.000922123 1.70121e-07
0.000922123 0.041306 -8.29548e-08
1.70121e-07 -8.29548e-08 0.0358179

0.0221379 -0.00585766 -1.21552e-07
-0.00585766 0.0236719 1.56762e-07
-1.21552e-07 1.56762e-07 0.0151638

0.0157043 0.00598827 -1.27346e-08
0.00598827 0.0259097 -2.13954e-07
-1.27346e-08 -2.13954e-07 0.0107536

0.0302159 0.00473148 -3.92216e-08
0.00473148 0.0143529 -1.76483e-07
-3.92216e-08 -1.76483e-07 0.00611776

0.032948 -0.00385053 -2.16653e-07
-0.00385053 0.0301336 1.47265e-07
-2.16653e-07 1.47265e-07 0.0310604

0.0308967 0.00169386 -8.58183e-08
0.00169386 0.0368526 8.78548e-09
-8.58183e-08 8.78548e-09 0.033959

0.0260978 -0.0048457 -2.24425e-07
-0.0048457 0.0192026 7.89636e-08
-2.24425e-07 7.89636e-08 0.0126991

0.0330106 -0.00378676 -2.46841e-07
-0.00378676 0.030084 7.57274e-08
-2.46841e-07 7.57274e-08 0.0311367

0.0300262 -0.00452126 9.6544e-08
-0.00452126 0.0130567 -5.86783e-08
9.6544e-08 -5.86783e-08 0.00603919

0.0324828 -0.00372852 -5.29872e-09
-0.00372852 0.0313169 -2.50018e-07
-5.29872e-09 -2.50018e-07 0.0319886

0.0281003 -0.00331232 -1.33387e-07
-0.00331232 0.0320143 1.25449e-08
-1.33387e-07 1.25449e-08 0.0296346

0.0234491 0.00874584 1.79763e-08
0.00874584 0.0204881 1.44572e-07
1.79763e-08 1.44572e-07 0.00602805

0.0182047 -0.00292177 -7.08268e-08
-0.00292177 0.0268747 3.08969e-07
-7.08268e-08 3.08969e-07 0.0122739

0.0233202 -0.00902147 1.01442e-07
-0.00902147 0.020157 -1.13699e-07
1.01442e-07 -1.13699e-07 0.00588582

0.0170869 0.00641045 -9.984e-08
0.00641045 0.0235728 4.1046e-08
-9.984e-08 4.1046e-08 0.0108345

0.0308359 -0.00396138 1.04545e-08
-0.00396138 0.0301698 1.27027e-07
1.04545e-08 1.27027e-07 0.0300947

0.0389252 -0.00195885 -7.70318e-08
-0.00195885 0.0369463 6.0137e-08
-7.70318e-08 6.0137e-08 0.0355075

0.0455411 0.00150501 -1.70472e-07
0.00150501 0.0449538 -3.255e-07
-1.70472e-07 -3.255e-07 0.0366265

0.0435661 -0.000711473 1.5284e-07
-0.000711473 0.0462302 2.21705e-08
1.5284e-07 2.21705e-08 0.0365922

0.0286241 0.00171612 -5.12024e-08
0.00171612 0.035576 5.1267e-08
-5.12024e-08 5.1267e-08 0.0323987

0.0453365 -0.00144753 3.52908e-07
-0.00144753 0.044982 2.12193e-07
3.52908e-07 2.12193e-07 0.0366442

0.0438102 0.000567336 9.96318e-08
0.000567336 0.0465063 1.10847e-07
9.96318e-08 1.10847e-07 0.0366253

0.046679 0.000990525 -1.74988e-07
0.000990525 0.0433788 3.70566e-08
-1.74988e-07 3.70566e-08 0.0366004

0.039754 -0.00163823 1.8755e-07
-0.00163823 0.0460767 1.19337e-07
1.8755e-07 1.19337e-07 0.0364903

0.0190593 -0.00388879 4.58539e-08
-0.00388879 0.0272394 6.96291e-08
4.58539e-08 6.96291e-08 0.0154761

0.0421453 -0.0017503 8.29667e-08
-0.0017503 0.0367311 2.78801e-08
8.29667e-08 2.78801e-08 0.0360125

0.0359716 -0.00457258 -1.52811e-08
-0.00457258 0.0351577 1.5221e-07
-1.52811e-08 1.5221e-07 0.0349765

0.039759 -0.00242177 -1.62029e-09
-0.00242177 0.0360707 1.56157e-07
-1.62029e-09 1.56157e-07 0.0355752

0.0351942 0.00204384 2.21296e-07
0.00204384 0.0285579 -1.21355e-07
2.21296e-07 -1.21355e-07 0.032241

0.039696 0.00133708 1.5329e-07
0.00133708 0.0472245 4.70542e-07
1.5329e-07 4.70542e-07 0.0365561

0.0464977 0.00259264 3.28043e-09
0.00259264 0.0404218 -1.23892e-07
3.28043e-09 -1.23892e-07 0.0365373

0.0400925 0.00150631 -1.63622e-07
0.00150631 0.0366803 -1.12514e-07
-1.63622e-07 -1.12514e-07 0.0356232

0.0279228 -0.00192081 -1.9702e-07
-0.00192081 0.0125277 -2.76945e-08
-1.9702e-07 -2.76945e-08 0.0106279

0.028328 0.0032689 1.54691e-07
0.0032689 0.0315603 -1.38229e-07
1.54691e-07 -1.38229e-07 0.0294199

0.0231945 -0.00773854 -1.55909e-07
-0.00773854 0.0181849 9.20339e-08
-1.55909e-07 9.20339e-08 0.0102927

0.0228371 -0.00731808 -1.34751e-07
-0.00731808 0.0257758 1.68836e-07
-1.34751e-07 1.68836e-07 0.0119583

0.029031 -0.00464853 -2.53648e-07
-0.00464853 0.0191334 1.283e-07
-2.53648e-07 1.283e-07 0.0126191

0.0375798 -0.000660804 -2.86876e-07
-0.000660804 0.0449143 3.02306e-07
-2.86876e-07 3.02306e-07 0.0363014

0.0375776 0.000358435 -3.81493e-08
0.000358435 0.0447915 -3.0387e-07
-3.81493e-08 -3.0387e-07 0.0362817

0.0426078 -0.00327239 7.44295e-08
-0.00327239 0.039455 -2.08174e-07
7.44295e-08 -2.08174e-07 0.0362355

0.0430008 -0.00294287 -1.86116e-07
-0.00294287 0.0391731 2.52198e-08
-1.86116e-07 2.52198e-08 0.0362425

0.0425044 0.00350276 8.66578e-08
0.00350276 0.039977 1.42885e-07
8.66578e-08 1.42885e-07 0.0362803

0.0443996 0.000415949 -1.3601e-07
0.000415949 0.0450808 5.22338e-08
-1.3601e-07 5.22338e-08 0.0366434

0.0426118 -0.00274348 -9.91121e-08
-0.00274348 0.039512 1.14014e-07
-9.91121e-08 1.14014e-07 0.036297

0.0426057 -0.0025111 -7.66258e-08
-0.0025111 0.0442692 2.37378e-07
-7.66258e-08 2.37378e-07 0.036571

0.0451193 0.000330627 4.243e-07
0.000330627 0.045468 3.53792e-08
4.243e-07 3.53792e-08 0.0366616

0.0436398 -0.00278176 3.96847e-07
-0.00278176 0.0389213 -2.16188e-08
3.96847e-07 -2.16188e-08 0.0363376

0.0435148 0.00283735 -1.4811e-07
0.00283735 0.0390738 1.11701e-07
-1.4811e-07 1.11701e-07 0.0363757

0.0451938 -0.000469073 -5.75174e-08
-0.000469073 0.0455822 -6.31608e-08
-5.75174e-08 -6.31608e-08 0.0367103

0.0452264 -0.000423153 -7.77061e-07
-0.000423153 0.0443625 1.16159e-06
-7.77061e-07 1.16159e-06 0.0367285

0.042802 0.00163803 2.20569e-07
0.00163803 0.0442505 -5.07239e-07
2.20569e-07 -5.07239e-07 0.0366147

0.0411205 0.00361719 5.80631e-08
0.00361719 0.0405202 1.89011e-07
5.80631e-08 1.89011e-07 0.0363295

SCALARS pressure float
LOOKUP_TABLE default
-60.0791
19.3133
5.8118
21.2941
15.8799
5.89585
-58.7018
7.79013
-3.79807
15.1294
-24.4453
7.62429
5.59882
12.2856
23.3349
5.54583
18.5247
13.2154
-0.684239
6.76618
-0.897633
33.1102
5.81021
5.80579
6.61127
14.9103
-38.4003
6.68077
-15.241
30.6093
5.18321
-15.6559
-42.0734
27.3166
20.7711
27.3495
31.8671
19.8017
4.86657
-42.6169
-17.407
31.8879
31.9759
6.00017
-21.8106
-15.9746
-1.04424
-3.39889
6.55378
-16.2178
-18.9196
-15.3434
20.7534
-15.3708
20.307
-33.1583
21.1213
-15.4579
21.1312
7.05423
21.7684
16.1201
-45.5771
12.7925
16.3633
10.9106
21.5777
13.8356
5.78259
21.8216
20.8094
20.78
-17.6908
11.6057
3.9811
-31.6233
14.3575
11.0018
14.1538
-8.71454
-28.9508
14.9762
20.1663
-22.0414
-23.4316
-28.1003
7.10687
9.63769
-22.2214
37.7171
-15.5066
38.4193
18.3039
10.7679
-15.1641
-15.8721
-30.2277
14.7582
14.3665
4.60563
-10.7615
-21.9406
-25.1064
16.2196
14.1082
14.9663
18.7008
3.78207
-24.5629
26.5128
7.22712
-21.4138
-24.6173
14.8458
15.0827
-16.1437
20.157
-29.1194
20.6204
-16.7275
-2.89689
23.8307
21.7317
16.0362
26.6791
22.6317
21.7781
15.713
-29.7873
-16.0969
24.0877
21.6225
20.9918
22.0701
-22.015
23.5768
-33.8463
5.47032
21.7562
23.6201
-21.9377
6.68234
-5.96014
15.0905
-30.4142
15.6296
7.84112
2.41528
5.18505
-9.38926
-0.450096
22.6457
-15.4533
5.29767
15.2111
21.5655
11.5136
-21.1137
-21.2643
10.7983
-2.83609
-15.196
-21.2254
-15.1642
-20.9869
15.2842
-20.6361
-21.2021
-15.2063
-21.0642
19.0032
-15.9389
-14.8233
12.0694
-14.4819
18.8061
19.0522
7.48048
18.0466
11.7806
-16.248
15.2928
14.9656
-21.5291
10.4318
-14.22
16.0519
14.6001
17.0815
14.8397
10.3491
-26.9813
-16.0802
-15.957
21.9115
14.534
14.6327
20.9251
22.4912
9.50844
21.7385
-0.376287
-8.16518
20.7816
-17.8385
19.9481
10.3699
-21.5184
15.7243
22.53
14.7325
9.40023
14.1978
21.0578
-7.82687
8.83363
-7.90284
14.6527
26.9269
26.5807
27.9594
26.3879
26.7236
26.2903
13.833
23.4271
24.0261
23.9703
23.3968
21.1908
21.8551
-8.25715
15.9395
28.1911
-3.18232
23.5728
23.2021
27.8345
-8.48809
28.0963
15.3491
-7.5756
17.4943
-8.25213
20.2298
29.6123
-7.47995
-8.0951
-29.5981
-18.1903
19.5299
-31.9929
5.74103
-7.78827
-1.18132
28.2491
26.6397
30.4107
26.7604
-34.8098
-8.17401
28.3372
8.08056
-8.28968
26.4455
-6.28918
30.4555
-7.94839
27.0462
14.5694
14.7948
23.8418
10.0529
18.0198
8.12429
-29.8678
-24.5597
16.8069
1.76743
8.18715
-13.6055
17.438
11.7049
-8.09588
9.45797
-10.8189
7.52404
-10.7501
-8.4793
33.2445
19.1502
25.0851
25.3093
13.8357
-10.3999
26.421
14.6883
-1.65181
-10.2691
-12.5605
17.506
-7.47929
17.5742
-12.0373
-21.3561
-10.6037
-34.6899
15.567
-7.75713
34.4215
-11.5738
16.876
-8.40321
15.9761
-12.7546
4.29569
-51.1359
8.5304
-7.74081
21.3328
-8.14646
-0.115036
10.7197
21.1292
-12.0567
-10.196
-6.06202
14.3225
-10.1752
6.89458
6.39435
16.3047
-10.4149
-6.32429
-1.69541
-5.65418
-11.0741
-5.83848
15.3088
7.81468
-5.54974
-8.95512
7.81159
7.70032
-10.67
16.3086
-27.2286
2.30038
-28.4871
-0.95072
-8.90443
-8.12245
-11.8063
-10.9697
-9.90756
-7.80227
-7.92569
16.6419
24.7712
12.1241
-0.283847
-0.816988
-5.66828
7.31166
-6.31458
-6.31184
24.9166
-5.72366
14.1197
-15.9062
24.3212
5.9766
-0.383454
-5.63763
16.2751
2.48433
0.206863
2.45533
0.463832
-0.732695
-9.92556
-0.0877058
2.12052
15.0699
-1.28036
-1.39917
-0.99093
-0.380952
1.97254
8.05773
-1.1857
8.08516
5.59155
-0.427931
7.04248
5.49859
-3.86972
16.4799
-1.89672
23.0564
-21.9792
15.0482
15.6857
2.04694
-1.99101
12.5489
-26.5206
5.8008
-1.65113
-50.4998
30.4819
30.6186
5.83345
-1.13641
-1.04005
-0.841631
33.3938
33.2682
13.101
6.08842
6.66979
-28.9778
-1.27139
16.5362
-3.17635
-4.34211
-0.00915098
-25.2854
14.3091
-1.27225
2.86917
2.70054
-2.71651
-0.0416988
-3.20294
-4.0275
-37.9972
-33.6913
-0.120411
1.88144
-0.527062
-3.73789
-1.92985
-1.87127
-0.917292
-21.913
17.2505
-0.761158
12.5711
14.189
-26.7722
6.29363
7.14497
18.4774
36.4074
36.4398
22.6373
-1.7479
2.60718
-20.9355
36.1069
32.7355
32.8024
-24.823
21.767
30.509
2.60676
15.7244
10.3789
17.1691
17.7297
12.5102
5.6886
-25.4118
4.26689
10.4148
16.2469
-31.7234
28.2986
-52.728
18.6891
10.3047
-10.6228
7.424
5.4639
24.4706
9.41807
24.4036
4.11208
12.4037
30.6273
29.4534
-22.9964
17.4408
-70.2608
-74.4081
-67.2045
11.6531
-31.2761
-63.6372
-3.7971
-69.9664
16.461
16.4047
-73.7835
5.22128
-39.745
-70.767
-37.7706
-71.904
-39.4669
21.1289
-23.9679
-29.059
-70.6507
4.83808
15.7609
-36.2044
6.06086
-63.6443
9.84263
3.89045
-67.929
-37.6389
-66.4384
-23.7692
5.03753
20.5201
35.3466
36.7017
11.8189
36.825
36.8783
36.4671
36.3835
-24.4861
28.2381
20.669
21.9745
11.542
36.0395
36.0709
18.1155
-23.9544
3.25483
-30.5424
-56.6161
-50.4907
36.124
35.8051
35.3621
35.4322
36.14
35.5742
33.0925
37.3486
35.3752
35.987
35.6195
34.1725
34.3088
35.8345
35.2929
