# vtk DataFile Version 3.0
vtk output at time 320
ASCII
DATASET UNSTRUCTURED_GRID
POINTS 626 float
-3.68058e-05 0.000978749 0 3.68058e-05 0.000978749 0 -0.000829194 0.00052125 0 
-0.0008235 0.0005 0 -0.000866 0.0004575 0 -0.000866 -0.0004575 0 
-0.0008235 -0.0005 0 -0.000829194 -0.00052125 0 -3.68058e-05 -0.000978749 0 
3.68058e-05 -0.000978749 0 0.000829194 -0.00052125 0 0.000866 -0.0004575 0 
0.000866 0.0004575 0 0.000829194 0.00052125 0 8.5e-05 0 0 
-3.68058e-05 0.000978749 -0.001 3.68058e-05 0.000978749 -0.001 -0.000829194 0.00052125 -0.001 
-0.0008235 0.0005 -0.001 -0.000866 0.0004575 -0.001 -0.000866 -0.0004575 -0.001 
-0.0008235 -0.0005 -0.001 -0.000829194 -0.00052125 -0.001 -3.68058e-05 -0.000978749 -0.001 
3.68058e-05 -0.000978749 -0.001 0.000829194 -0.00052125 -0.001 0.000866 -0.0004575 -0.001 
0.000866 0.0004575 -0.001 0.000829194 0.00052125 -0.001 8.5e-05 0 -0.001 
8.46223e-17 0.0009575 0 -0.000715996 0.000586607 0 -0.000602797 0.000651965 0 
-0.000489599 0.000717321 0 -0.000376401 0.000782678 0 -0.000263202 0.000848036 0 
-0.000150004 0.000913393 0 -0.000835948 0.000469948 0 -0.000866 -0.000326786 0 
-0.000866 -0.000196071 0 -0.000866 -6.53571e-05 0 -0.000866 6.53571e-05 0 
-0.000866 0.000196071 0 -0.000866 0.000326786 0 -0.000835948 -0.000469948 0 
-0.000150004 -0.000913393 0 -0.000263202 -0.000848036 0 -0.000376401 -0.000782678 0 
-0.000489599 -0.000717321 0 -0.000602797 -0.000651965 0 -0.000715996 -0.000586607 0 
8.47648e-17 -0.0009575 0 0.000715996 -0.000586607 0 0.000602797 -0.000651965 0 
0.000489599 -0.000717321 0 0.000376401 -0.000782678 0 0.000263202 -0.000848036 0 
0.000150004 -0.000913393 0 0.000829194 -0.00047875 0 0.000866 0.000326786 0 
0.000866 0.000196071 0 0.000866 6.53571e-05 0 0.000866 -6.53571e-05 0 
0.000866 -0.000196071 0 0.000866 -0.000326786 0 0.000829194 0.00047875 0 
0.000150004 0.000913393 0 0.000263202 0.000848036 0 0.000376401 0.000782678 0 
0.000489599 0.000717321 0 0.000602797 0.000651965 0 0.000715996 0.000586607 0 
5.29966e-05 6.64557e-05 0 -1.89143e-05 8.28689e-05 0 -7.65824e-05 3.68801e-05 0 
-7.65824e-05 -3.68801e-05 0 -1.89143e-05 -8.28689e-05 0 5.29966e-05 -6.64557e-05 0 
8.46223e-17 0.0009575 -0.001 -0.000715996 0.000586607 -0.001 -0.000602797 0.000651965 -0.001 
-0.000489599 0.000717321 -0.001 -0.000376401 0.000782678 -0.001 -0.000263202 0.000848036 -0.001 
-0.000150004 0.000913393 -0.001 -0.000835948 0.000469948 -0.001 -0.000866 -0.000326786 -0.001 
-0.000866 -0.000196071 -0.001 -0.000866 -6.53571e-05 -0.001 -0.000866 6.53571e-05 -0.001 
-0.000866 0.000196071 -0.001 -0.000866 0.000326786 -0.001 -0.000835948 -0.000469948 -0.001 
-0.000150004 -0.000913393 -0.001 -0.000263202 -0.000848036 -0.001 -0.000376401 -0.000782678 -0.001 
-0.000489599 -0.000717321 -0.001 -0.000602797 -0.000651965 -0.001 -0.000715996 -0.000586607 -0.001 
8.47648e-17 -0.0009575 -0.001 0.000715996 -0.000586607 -0.001 0.000602797 -0.000651965 -0.001 
0.000489599 -0.000717321 -0.001 0.000376401 -0.000782678 -0.001 0.000263202 -0.000848036 -0.001 
0.000150004 -0.000913393 -0.001 0.000829194 -0.00047875 -0.001 0.000866 0.000326786 -0.001 
0.000866 0.000196071 -0.001 0.000866 6.53571e-05 -0.001 0.000866 -6.53571e-05 -0.001 
0.000866 -0.000196071 -0.001 0.000866 -0.000326786 -0.001 0.000829194 0.00047875 -0.001 
0.000150004 0.000913393 -0.001 0.000263202 0.000848036 -0.001 0.000376401 0.000782678 -0.001 
0.000489599 0.000717321 -0.001 0.000602797 0.000651965 -0.001 0.000715996 0.000586607 -0.001 
5.29966e-05 6.64557e-05 -0.001 -1.89143e-05 8.28689e-05 -0.001 -7.65824e-05 3.68801e-05 -0.001 
-7.65824e-05 -3.68801e-05 -0.001 -1.89143e-05 -8.28689e-05 -0.001 5.29966e-05 -6.64557e-05 -0.001 
0.000131234 6.38474e-05 0 0.00012964 -6.2443e-05 0 3.13827e-05 0.0001394 0 
3.12554e-05 -0.000136939 0 -0.000140461 8.25467e-19 0 -8.90565e-05 -0.000102707 0 
-9.04142e-05 0.000102872 0 -0.000765769 -0.00025965 0 -0.000756873 0.000262774 0 
-0.00015609 0.000787505 0 -0.000155807 -0.00079355 0 0.000605069 0.000528035 0 
0.000608694 -0.00052497 0 0.000744069 0.000116929 0 -0.000494418 0.000596218 0 
-0.000483866 -0.000584648 0 0.000269496 0.000702219 0 0.000263201 -0.000717324 0 
0.000754429 -0.000127825 0 -0.000748858 5.84659e-07 0 -0.000747838 0.000373886 0 
-0.0006542 0.000324842 0 -0.000645137 0.000210123 0 -0.000550884 0.000274171 0 
-0.000538857 0.000163195 0 -0.00045062 0.000224461 0 -0.000438393 0.000123907 0 
-0.000354088 0.000181668 0 -0.000363908 0.000282171 0 -0.000270361 0.000239477 0 
-0.000279138 0.000337653 0 -0.000188888 0.000294791 0 -0.000196448 0.000393271 0 
-0.000104767 0.000348259 0 -0.000113332 0.000449012 0 -2.01066e-05 0.000403223 0 
-2.89189e-05 0.000507105 0 6.9524e-05 0.000461596 0 -0.000213644 0.000490203 0 
7.33757e-05 0.000357726 0 0.000163331 0.00041299 0 0.000163359 0.000313022 0 
0.000248077 0.000366368 0 0.000250914 0.000265758 0 0.000335709 0.000322266 0 
0.000340555 0.000218148 0 0.000427299 0.000276717 0 0.000431508 0.000173093 0 
0.000328731 0.000425633 0 0.00034586 0.000114823 0 0.000435362 7.05241e-05 0 
0.000350892 1.5455e-05 0 0.000441547 -3.11896e-05 0 0.000353547 -8.47783e-05 0 
0.000445767 -0.000132964 0 0.000356135 -0.000186358 0 0.000449094 -0.000234674 0 
0.000359978 -0.000287876 0 0.00026856 -0.000240545 0 0.000271895 -0.000341045 0 
0.000181792 -0.00029305 0 0.00018533 -0.000392851 0 9.75701e-05 -0.00034483 0 
9.98764e-05 -0.000444884 0 8.75116e-06 -0.000396343 0 1.20916e-05 -0.000500496 0 
-7.83929e-05 -0.000449843 0 -8.1471e-05 -0.000347249 0 -0.000171566 -0.000403733 0 
-0.000169889 -0.000298891 0 -0.000259867 -0.000354132 0 -0.000257696 -0.000249137 0 
-0.00034313 -0.000299896 0 -0.000344514 -0.000199127 0 -0.000434309 -0.000250039 0 
-0.000169832 -0.000505815 0 -0.000435227 -0.000146227 0 0.000280331 -0.000442424 0 
-0.000340889 8.76793e-05 0 -0.000515252 4.06198e-05 0 6.50491e-05 0.000568253 0 
0.00053278 1.74743e-05 0 0.000522071 0.000229831 0 -0.00037162 0.000391659 0 
-0.000255272 -0.000150439 0 -0.000442893 -0.000350705 0 0.000450067 -0.000332559 0 
0.000545175 -0.000276306 0 -0.000527797 -0.000197598 0 0.000105306 -0.000551033 0 
1.45836e-05 -0.000609147 0 0.00017145 0.000214453 0 0.000515525 0.000341711 0 
0.000636086 0.000290368 0 -0.000558657 0.000404468 0 -4.01232e-05 0.000616718 0 
6.60192e-05 0.000696422 0 -0.000101806 0.0002546 0 0.000271142 -3.88908e-05 0 
0.000179455 -0.00018534 0 -8.79553e-05 -0.000254307 0 -0.000749267 -0.000373451 0 
-0.000655941 -0.000323397 0 0.000709746 0.000466718 0 0.000698426 -0.000473086 0 
-5.25801e-05 -0.00084886 0 -4.93005e-05 0.000848038 0 0.000617396 -0.000413362 0 
0.000702056 -0.000369817 0 0.000131459 -0.000679171 0 2.48171e-05 -0.000715924 0 
-0.000664217 -0.00042729 0 -0.000528828 -8.80444e-05 0 -0.000611101 -0.000136672 0 
-0.000426972 -4.45841e-05 0 0.000800669 0.000378216 0 0.000821144 -0.000415062 0 
7.2799e-05 0.00088254 0 6.81831e-05 -0.00087503 0 0.000104963 -0.000788946 0 
-7.40696e-05 -0.000660054 0 0.000126061 0.000809943 0 0.000764361 0.000295682 0 
0.000166862 0.000630623 0 0.000516462 -0.00046707 0 -0.000563585 -0.000389606 0 
-0.000622598 -1.40238e-05 0 0.000629891 0.000171529 0 2.5614e-06 -0.000299794 0 
8.6901e-05 -0.00024329 0 0.000272045 -0.000136982 0 -0.00075148 0.000138321 0 
0.000209366 -0.000599589 0 0.000324913 -0.000630055 0 0.000614044 0.00041245 0 
0.00049651 -0.000573327 0 0.000394822 -0.000507321 0 -0.000173714 -0.000206698 0 
0.000264897 5.63722e-05 0 0.000247997 0.000152811 0 -4.63327e-05 -0.000920208 0 
9.18688e-05 0.000258626 0 -5.54111e-06 0.000290558 0 -0.000184219 0.000201484 0 
-0.000263559 0.000142267 0 -0.000256427 5.13624e-05 0 -0.000336894 -2.06179e-06 0 
-0.000228499 -4.2388e-05 0 -0.00017589 0.000106626 0 -0.000769947 -0.000133367 0 
0.000767591 -0.000500293 0 -5.05874e-05 0.000737978 0 0.000754456 -3.51771e-06 0 
0.00064691 -6.15298e-05 0 0.000630483 -0.00018134 0 0.000749187 -0.000265543 0 
-0.000760805 -0.000462521 0 0.000638155 6.09315e-05 0 -4.46661e-05 0.000922995 0 
-2.37945e-05 0.000207237 0 0.000776979 0.000500181 0 -0.000605691 0.000527596 0 
-0.000377914 -0.000653727 0 -0.000372325 -0.000526022 0 -0.000275829 -0.000589621 0 
-0.000254285 -0.000710579 0 -0.000379307 0.000656222 0 -0.000379818 0.00052718 0 
-0.000266817 0.000721555 0 -0.000150544 0.000668174 0 0.000381963 0.00065079 0 
0.000493113 0.000590432 0 0.000505439 0.000463708 0 -0.000269094 0.000596608 0 
0.000385815 0.000532045 0 0.000283599 0.0005899 0 -0.000176405 -0.000108505 0 
-0.000278769 -0.000475415 0 0.000185395 2.33014e-06 0 0.000186773 0.000517571 0 
0.000540032 -8.68444e-05 0 -0.000600694 -0.000514877 0 -0.00063703 8.98033e-05 0 
-0.000459677 0.000335729 0 -0.000338836 -0.000100751 0 -0.000457327 0.000432721 0 
-8.72007e-06 -0.000210238 0 0.000156073 0.000129496 0 -7.70692e-05 -0.000555049 0 
0.00036091 -0.000389728 0 0.000531628 0.000120564 0 -0.000285451 0.000435562 0 
0.000192719 -0.000494604 0 0.00041642 0.00039368 0 -0.000135943 0.000554637 0 
-0.000170665 -0.000610079 0 -0.000666304 0.000434981 0 -0.000758736 0.000479231 0 
-0.000470189 -0.000458901 0 0.000203433 -8.59809e-05 0 0.000101846 0.000170114 0 
-0.00035513 -0.00040726 0 0.000100184 -0.000165831 0 2.96286e-05 0.00081537 0 
0.000720946 0.000381836 0 -0.000539809 -0.000292001 0 0.00052211 -0.000182426 0 
-6.41339e-05 -0.000753908 0 0.000638039 -0.000299861 0 -0.000605136 -0.000230182 0 
-3.41638e-05 -0.000145561 0 -0.000104037 0.000172396 0 -0.000808575 -0.00042774 0 
-0.000807207 -0.000465052 0 -0.00080817 0.000429771 0 -0.000806589 0.000469738 0 
-9.50634e-05 -0.000178909 0 0.000247777 0.000445058 0 1.48293e-05 -0.000814201 0 
-4.11555e-05 0.000140955 0 0.000276104 -0.000536845 0 0.000765969 -0.000436638 0 
0.000780871 -0.000362769 0 0.000424176 -0.000642018 0 0.00053413 -0.000368009 0 
-0.000416333 4.17911e-05 0 -0.000133891 -6.23822e-05 0 4.2574e-05 0.000206312 0 
0.000141163 -0.000121542 0 0.000707423 0.000212137 0 0.000172327 0.000723882 0 
7.72652e-06 -0.00090254 0 -0.000134435 5.66935e-05 0 -0.000188826 3.70894e-05 0 
0.000197119 8.09714e-05 0 1.27801e-05 0.000917296 0 0.000800767 0.00044758 0 
-0.000686682 0.000507104 0 9.35831e-05 0.000110457 0 -0.000696793 -0.000509595 0 
-0.00068446 -8.52012e-05 0 -0.000691033 -0.000201242 0 5.24052e-05 -0.000189075 0 
-0.000151818 -0.000701092 0 -0.000296988 0.000518087 0 9.31023e-05 -0.000108117 0 
0.00044261 -0.000416726 0 0.000197044 -0.000784423 0 -0.000516861 0.000504567 0 
0.000298997 0.000502377 0 0.000131234 6.38474e-05 -0.001 0.00012964 -6.2443e-05 -0.001 
3.13827e-05 0.0001394 -0.001 3.12554e-05 -0.000136939 -0.001 -0.000140461 8.25467e-19 -0.001 
-8.90565e-05 -0.000102707 -0.001 -9.04142e-05 0.000102872 -0.001 -0.000765769 -0.00025965 -0.001 
-0.000756873 0.000262774 -0.001 -0.00015609 0.000787505 -0.001 -0.000155807 -0.00079355 -0.001 
0.000605069 0.000528035 -0.001 0.000608694 -0.00052497 -0.001 0.000744069 0.000116929 -0.001 
-0.000494418 0.000596218 -0.001 -0.000483866 -0.000584648 -0.001 0.000269496 0.000702219 -0.001 
0.000263201 -0.000717324 -0.001 0.000754429 -0.000127825 -0.001 -0.000748858 5.84659e-07 -0.001 
-0.000747838 0.000373886 -0.001 -0.0006542 0.000324842 -0.001 -0.000645137 0.000210123 -0.001 
-0.000550884 0.000274171 -0.001 -0.000538857 0.000163195 -0.001 -0.00045062 0.000224461 -0.001 
-0.000438393 0.000123907 -0.001 -0.000354088 0.000181668 -0.001 -0.000363908 0.000282171 -0.001 
-0.000270361 0.000239477 -0.001 -0.000279138 0.000337653 -0.001 -0.000188888 0.000294791 -0.001 
-0.000196448 0.000393271 -0.001 -0.000104767 0.000348259 -0.001 -0.000113332 0.000449012 -0.001 
-2.01066e-05 0.000403223 -0.001 -2.89189e-05 0.000507105 -0.001 6.9524e-05 0.000461596 -0.001 
-0.000213644 0.000490203 -0.001 7.33757e-05 0.000357726 -0.001 0.000163331 0.00041299 -0.001 
0.000163359 0.000313022 -0.001 0.000248077 0.000366368 -0.001 0.000250914 0.000265758 -0.001 
0.000335709 0.000322266 -0.001 0.000340555 0.000218148 -0.001 0.000427299 0.000276717 -0.001 
0.000431508 0.000173093 -0.001 0.000328731 0.000425633 -0.001 0.00034586 0.000114823 -0.001 
0.000435362 7.05241e-05 -0.001 0.000350892 1.5455e-05 -0.001 0.000441547 -3.11896e-05 -0.001 
0.000353547 -8.47783e-05 -0.001 0.000445767 -0.000132964 -0.001 0.000356135 -0.000186358 -0.001 
0.000449094 -0.000234674 -0.001 0.000359978 -0.000287876 -0.001 0.00026856 -0.000240545 -0.001 
0.000271895 -0.000341045 -0.001 0.000181792 -0.00029305 -0.001 0.00018533 -0.000392851 -0.001 
9.75701e-05 -0.00034483 -0.001 9.98764e-05 -0.000444884 -0.001 8.75116e-06 -0.000396343 -0.001 
1.20916e-05 -0.000500496 -0.001 -7.83929e-05 -0.000449843 -0.001 -8.1471e-05 -0.000347249 -0.001 
-0.000171566 -0.000403733 -0.001 -0.000169889 -0.000298891 -0.001 -0.000259867 -0.000354132 -0.001 
-0.000257696 -0.000249137 -0.001 -0.00034313 -0.000299896 -0.001 -0.000344514 -0.000199127 -0.001 
-0.000434309 -0.000250039 -0.001 -0.000169832 -0.000505815 -0.001 -0.000435227 -0.000146227 -0.001 
0.000280331 -0.000442424 -0.001 -0.000340889 8.76793e-05 -0.001 -0.000515252 4.06198e-05 -0.001 
6.50491e-05 0.000568253 -0.001 0.00053278 1.74743e-05 -0.001 0.000522071 0.000229831 -0.001 
-0.00037162 0.000391659 -0.001 -0.000255272 -0.000150439 -0.001 -0.000442893 -0.000350705 -0.001 
0.000450067 -0.000332559 -0.001 0.000545175 -0.000276306 -0.001 -0.000527797 -0.000197598 -0.001 
0.000105306 -0.000551033 -0.001 1.45836e-05 -0.000609147 -0.001 0.00017145 0.000214453 -0.001 
0.000515525 0.000341711 -0.001 0.000636086 0.000290368 -0.001 -0.000558657 0.000404468 -0.001 
-4.01232e-05 0.000616718 -0.001 6.60192e-05 0.000696422 -0.001 -0.000101806 0.0002546 -0.001 
0.000271142 -3.88908e-05 -0.001 0.000179455 -0.00018534 -0.001 -8.79553e-05 -0.000254307 -0.001 
-0.000749267 -0.000373451 -0.001 -0.000655941 -0.000323397 -0.001 0.000709746 0.000466718 -0.001 
0.000698426 -0.000473086 -0.001 -5.25801e-05 -0.00084886 -0.001 -4.93005e-05 0.000848038 -0.001 
0.000617396 -0.000413362 -0.001 0.000702056 -0.000369817 -0.001 0.000131459 -0.000679171 -0.001 
2.48171e-05 -0.000715924 -0.001 -0.000664217 -0.00042729 -0.001 -0.000528828 -8.80444e-05 -0.001 
-0.000611101 -0.000136672 -0.001 -0.000426972 -4.45841e-05 -0.001 0.000800669 0.000378216 -0.001 
0.000821144 -0.000415062 -0.001 7.2799e-05 0.00088254 -0.001 6.81831e-05 -0.00087503 -0.001 
0.000104963 -0.000788946 -0.001 -7.40696e-05 -0.000660054 -0.001 0.000126061 0.000809943 -0.001 
0.000764361 0.000295682 -0.001 0.000166862 0.000630623 -0.001 0.000516462 -0.00046707 -0.001 
-0.000563585 -0.000389606 -0.001 -0.000622598 -1.40238e-05 -0.001 0.000629891 0.000171529 -0.001 
2.5614e-06 -0.000299794 -0.001 8.6901e-05 -0.00024329 -0.001 0.000272045 -0.000136982 -0.001 
-0.00075148 0.000138321 -0.001 0.000209366 -0.000599589 -0.001 0.000324913 -0.000630055 -0.001 
0.000614044 0.00041245 -0.001 0.00049651 -0.000573327 -0.001 0.000394822 -0.000507321 -0.001 
-0.000173714 -0.000206698 -0.001 0.000264897 5.63722e-05 -0.001 0.000247997 0.000152811 -0.001 
-4.63327e-05 -0.000920208 -0.001 9.18688e-05 0.000258626 -0.001 -5.54111e-06 0.000290558 -0.001 
-0.000184219 0.000201484 -0.001 -0.000263559 0.000142267 -0.001 -0.000256427 5.13624e-05 -0.001 
-0.000336894 -2.06179e-06 -0.001 -0.000228499 -4.2388e-05 -0.001 -0.00017589 0.000106626 -0.001 
-0.000769947 -0.000133367 -0.001 0.000767591 -0.000500293 -0.001 -5.05874e-05 0.000737978 -0.001 
0.000754456 -3.51771e-06 -0.001 0.00064691 -6.15298e-05 -0.001 0.000630483 -0.00018134 -0.001 
0.000749187 -0.000265543 -0.001 -0.000760805 -0.000462521 -0.001 0.000638155 6.09315e-05 -0.001 
-4.46661e-05 0.000922995 -0.001 -2.37945e-05 0.000207237 -0.001 0.000776979 0.000500181 -0.001 
-0.000605691 0.000527596 -0.001 -0.000377914 -0.000653727 -0.001 -0.000372325 -0.000526022 -0.001 
-0.000275829 -0.000589621 -0.001 -0.000254285 -0.000710579 -0.001 -0.000379307 0.000656222 -0.001 
-0.000379818 0.00052718 -0.001 -0.000266817 0.000721555 -0.001 -0.000150544 0.000668174 -0.001 
0.000381963 0.00065079 -0.001 0.000493113 0.000590432 -0.001 0.000505439 0.000463708 -0.001 
-0.000269094 0.000596608 -0.001 0.000385815 0.000532045 -0.001 0.000283599 0.0005899 -0.001 
-0.000176405 -0.000108505 -0.001 -0.000278769 -0.000475415 -0.001 0.000185395 2.33014e-06 -0.001 
0.000186773 0.000517571 -0.001 0.000540032 -8.68444e-05 -0.001 -0.000600694 -0.000514877 -0.001 
-0.00063703 8.98033e-05 -0.001 -0.000459677 0.000335729 -0.001 -0.000338836 -0.000100751 -0.001 
-0.000457327 0.000432721 -0.001 -8.72007e-06 -0.000210238 -0.001 0.000156073 0.000129496 -0.001 
-7.70692e-05 -0.000555049 -0.001 0.00036091 -0.000389728 -0.001 0.000531628 0.000120564 -0.001 
-0.000285451 0.000435562 -0.001 0.000192719 -0.000494604 -0.001 0.00041642 0.00039368 -0.001 
-0.000135943 0.000554637 -0.001 -0.000170665 -0.000610079 -0.001 -0.000666304 0.000434981 -0.001 
-0.000758736 0.000479231 -0.001 -0.000470189 -0.000458901 -0.001 0.000203433 -8.59809e-05 -0.001 
0.000101846 0.000170114 -0.001 -0.00035513 -0.00040726 -0.001 0.000100184 -0.000165831 -0.001 
2.96286e-05 0.00081537 -0.001 0.000720946 0.000381836 -0.001 -0.000539809 -0.000292001 -0.001 
0.00052211 -0.000182426 -0.001 -6.41339e-05 -0.000753908 -0.001 0.000638039 -0.000299861 -0.001 
-0.000605136 -0.000230182 -0.001 -3.41638e-05 -0.000145561 -0.001 -0.000104037 0.000172396 -0.001 
-0.000808575 -0.00042774 -0.001 -0.000807207 -0.000465052 -0.001 -0.00080817 0.000429771 -0.001 
-0.000806589 0.000469738 -0.001 -9.50634e-05 -0.000178909 -0.001 0.000247777 0.000445058 -0.001 
1.48293e-05 -0.000814201 -0.001 -4.11555e-05 0.000140955 -0.001 0.000276104 -0.000536845 -0.001 
0.000765969 -0.000436638 -0.001 0.000780871 -0.000362769 -0.001 0.000424176 -0.000642018 -0.001 
0.00053413 -0.000368009 -0.001 -0.000416333 4.17911e-05 -0.001 -0.000133891 -6.23822e-05 -0.001 
4.2574e-05 0.000206312 -0.001 0.000141163 -0.000121542 -0.001 0.000707423 0.000212137 -0.001 
0.000172327 0.000723882 -0.001 7.72652e-06 -0.00090254 -0.001 -0.000134435 5.66935e-05 -0.001 
-0.000188826 3.70894e-05 -0.001 0.000197119 8.09714e-05 -0.001 1.27801e-05 0.000917296 -0.001 
0.000800767 0.00044758 -0.001 -0.000686682 0.000507104 -0.001 9.35831e-05 0.000110457 -0.001 
-0.000696793 -0.000509595 -0.001 -0.00068446 -8.52012e-05 -0.001 -0.000691033 -0.000201242 -0.001 
5.24052e-05 -0.000189075 -0.001 -0.000151818 -0.000701092 -0.001 -0.000296988 0.000518087 -0.001 
9.31023e-05 -0.000108117 -0.001 0.00044261 -0.000416726 -0.001 0.000197044 -0.000784423 -0.001 
-0.000516861 0.000504567 -0.001 0.000298997 0.000502377 -0.001 

CELLS 563 3941
6 14 304 127 29 554 377 
6 143 259 55 393 509 103 
6 300 319 174 550 569 424 
6 259 349 55 509 599 103 
6 50 365 307 98 615 557 
6 299 320 164 549 570 414 
6 126 304 14 376 554 29 
6 298 319 300 548 569 550 
6 205 240 238 455 490 488 
6 257 308 145 507 558 395 
6 130 352 273 380 602 523 
6 295 320 299 545 570 549 
6 324 327 289 574 577 539 
6 235 258 143 485 508 393 
6 50 307 49 98 557 97 
6 207 283 279 457 533 529 
6 143 373 235 393 623 485 
6 145 308 252 395 558 502 
6 194 303 196 444 553 446 
6 279 306 207 529 556 457 
6 206 305 163 456 555 413 
6 51 357 9 99 607 24 
6 238 252 205 488 502 455 
6 293 317 209 543 567 459 
6 207 316 283 457 566 533 
6 142 301 249 392 551 499 
6 273 359 130 523 609 380 
6 211 327 324 461 577 574 
6 169 265 217 419 515 467 
6 7 365 50 22 615 98 
6 283 316 253 533 566 503 
6 159 268 223 409 518 473 
6 274 337 132 524 587 382 
6 232 361 329 482 611 579 
6 231 266 45 481 516 93 
6 229 362 330 479 612 580 
6 9 244 57 24 494 105 
6 230 276 52 480 526 100 
6 209 311 293 459 561 543 
6 131 342 302 381 592 552 
6 270 271 204 520 521 454 
6 66 243 1 114 493 16 
6 59 241 12 107 491 27 
6 280 306 279 530 556 529 
6 269 337 274 519 587 524 
6 179 256 224 429 506 474 
6 163 305 166 413 555 416 
6 201 303 194 451 553 444 
6 280 332 306 530 582 556 
6 186 255 225 436 505 475 
6 210 310 273 460 560 523 
6 153 270 204 403 520 454 
6 136 231 45 386 481 93 
6 171 265 169 421 515 419 
6 138 230 52 388 480 100 
6 225 354 325 475 604 575 
6 36 284 232 84 534 482 
6 161 268 159 411 518 409 
6 71 286 229 119 536 479 
6 290 303 201 540 553 451 
6 139 355 60 389 605 108 
6 60 355 248 108 605 498 
6 273 352 302 523 602 552 
6 235 373 245 485 623 495 
6 67 356 247 115 606 497 
6 221 295 277 471 545 527 
6 142 356 67 392 606 115 
6 139 283 253 389 533 503 
6 203 315 262 453 565 512 
6 41 257 145 89 507 395 
6 36 232 135 84 482 385 
6 71 229 137 119 479 387 
6 254 255 188 504 505 438 
6 233 350 334 483 600 584 
6 262 346 203 512 596 453 
6 304 325 127 554 575 377 
6 222 329 247 472 579 497 
6 218 298 260 468 548 510 
6 290 321 291 540 571 541 
6 272 310 240 522 560 490 
6 269 274 270 519 524 520 
6 244 245 57 494 495 105 
6 49 307 141 97 557 391 
6 225 325 256 475 575 506 
6 273 310 272 523 560 522 
6 312 368 255 562 618 505 
6 249 305 206 499 555 456 
6 228 331 251 478 581 501 
6 302 342 263 552 592 513 
6 338 339 44 588 589 92 
6 190 254 188 440 504 438 
6 37 341 340 85 591 590 
6 138 233 230 388 483 480 
6 228 335 331 478 585 581 
6 181 256 179 431 506 429 
6 195 263 226 445 513 476 
6 268 285 223 518 535 473 
6 290 291 288 540 541 538 
6 219 330 248 469 580 498 
6 201 321 290 451 571 540 
6 240 310 202 490 560 452 
6 188 255 186 438 505 436 
6 270 274 271 520 524 521 
6 262 349 259 512 599 509 
6 141 324 289 391 574 539 
6 296 301 142 546 551 392 
6 247 356 222 497 606 472 
6 239 252 238 489 502 488 
6 254 312 255 504 562 505 
6 54 261 53 102 511 101 
6 289 327 303 539 577 553 
6 268 353 285 518 603 535 
6 273 302 210 523 552 460 
6 292 299 293 542 549 543 
6 278 283 139 528 533 389 
6 175 265 171 425 515 421 
6 227 338 38 477 588 86 
6 264 360 265 514 610 515 
6 43 340 146 91 590 396 
6 165 268 161 415 518 411 
6 205 351 240 455 601 490 
6 64 281 63 112 531 111 
6 288 291 47 538 541 95 
6 135 295 294 385 545 544 
6 42 257 41 90 507 89 
6 245 373 57 495 623 105 
6 31 363 323 79 613 573 
6 292 293 140 542 543 390 
6 267 353 268 517 603 518 
6 155 270 153 405 520 403 
6 244 344 245 494 594 495 
6 61 278 139 109 528 389 
6 135 294 35 385 544 83 
6 69 297 296 117 547 546 
6 186 225 184 436 475 434 
6 329 361 243 579 611 493 
6 255 328 225 505 578 475 
6 213 332 280 463 582 530 
6 39 275 133 87 525 383 
6 330 362 241 580 612 491 
6 195 226 193 445 476 443 
6 211 324 251 461 574 501 
6 151 153 152 401 403 402 
6 295 299 294 545 549 544 
6 265 313 217 515 563 467 
6 258 259 143 508 509 393 
6 251 331 211 501 581 461 
6 149 151 150 399 401 400 
6 293 370 317 543 620 567 
6 153 204 152 403 454 402 
6 151 152 150 401 402 400 
6 33 292 140 81 542 390 
6 210 263 197 460 513 447 
6 301 305 249 551 555 499 
6 298 300 297 548 550 547 
6 68 296 142 116 546 392 
6 321 369 291 571 619 541 
6 179 224 177 429 474 427 
6 167 267 165 417 517 415 
6 259 346 262 509 596 512 
6 303 327 196 553 577 446 
6 269 270 155 519 520 405 
6 265 360 313 515 610 563 
6 223 269 157 473 519 407 
6 157 269 155 407 519 405 
6 144 279 278 394 529 528 
6 169 217 167 419 467 417 
6 177 264 175 427 514 425 
6 267 268 165 517 518 415 
6 159 223 157 409 473 407 
6 232 277 135 482 527 385 
6 193 254 190 443 504 440 
6 217 267 167 467 517 417 
6 249 356 142 499 606 392 
6 184 256 181 434 506 431 
6 248 355 219 498 605 469 
6 229 260 137 479 510 387 
6 149 150 148 399 400 398 
6 64 348 281 112 598 531 
6 311 374 293 561 624 543 
6 264 265 175 514 515 425 
6 297 300 296 547 550 546 
6 141 289 288 391 539 538 
6 197 263 195 447 513 445 
6 218 260 219 468 510 469 
6 224 264 177 474 514 427 
6 137 298 297 387 548 547 
6 277 295 135 527 545 385 
6 133 228 227 383 478 477 
6 261 349 262 511 599 512 
6 221 277 222 471 527 472 
6 256 325 224 506 575 474 
6 199 210 197 449 460 447 
6 226 254 193 476 504 443 
6 144 278 62 394 528 110 
6 279 283 278 529 533 528 
6 289 290 288 539 540 538 
6 137 297 70 387 547 118 
6 34 294 292 82 544 542 
6 235 236 216 485 486 466 
6 141 288 48 391 538 96 
6 178 306 180 428 556 430 
6 185 186 184 435 436 434 
6 63 281 144 111 531 394 
6 225 256 184 475 506 434 
6 46 291 136 94 541 386 
6 147 149 148 397 399 398 
6 271 272 204 521 522 454 
6 233 334 234 483 584 484 
6 145 275 40 395 525 88 
6 220 322 287 470 572 537 
6 280 334 213 530 584 463 
6 144 280 279 394 530 529 
6 140 287 32 390 537 80 
6 154 155 153 404 405 403 
6 334 350 213 584 600 463 
6 176 177 175 426 427 425 
6 260 298 137 510 548 387 
6 33 140 32 81 390 80 
6 49 141 48 97 391 96 
6 56 143 55 104 393 103 
6 68 142 67 116 392 115 
6 63 144 62 111 394 110 
6 61 139 60 109 389 108 
6 148 308 257 398 558 507 
6 71 137 70 119 387 118 
6 53 138 52 101 388 100 
6 46 136 45 94 386 93 
6 36 135 35 84 385 83 
6 43 146 134 91 396 384 
6 133 227 38 383 477 86 
6 192 193 190 442 443 440 
6 293 374 140 543 624 390 
6 34 292 33 82 542 81 
6 207 306 178 457 556 428 
6 43 134 42 91 384 90 
6 39 133 38 87 383 86 
6 41 145 40 89 395 88 
6 194 195 193 444 445 443 
6 69 296 68 117 546 116 
6 294 299 292 544 549 542 
6 173 175 171 423 425 421 
6 260 330 219 510 580 469 
6 183 184 181 433 434 431 
6 134 257 42 384 507 90 
6 55 349 54 103 599 102 
6 163 165 161 413 415 411 
6 166 167 165 416 417 415 
6 210 302 263 460 552 513 
6 271 273 272 521 523 522 
6 53 261 138 101 511 388 
6 217 326 267 467 576 517 
6 289 303 290 539 553 540 
6 178 179 177 428 429 427 
6 238 240 202 488 490 452 
6 62 278 61 110 528 109 
6 35 294 34 83 544 82 
6 284 361 232 534 611 482 
6 70 297 69 118 547 117 
6 224 304 264 474 554 514 
6 156 157 155 406 407 405 
6 48 288 47 96 538 95 
6 221 320 295 471 570 545 
6 187 188 186 437 438 436 
6 47 291 46 95 541 94 
6 151 154 153 401 404 403 
6 286 362 229 536 612 479 
6 168 169 167 418 419 417 
6 40 275 39 88 525 87 
6 307 324 141 557 574 391 
6 300 301 296 550 551 546 
6 32 287 31 80 537 79 
6 147 220 149 397 470 399 
6 333 344 231 583 594 481 
6 299 370 293 549 620 543 
6 271 359 273 521 609 523 
6 224 325 304 474 575 554 
6 228 237 227 478 487 477 
6 305 375 343 555 625 593 
6 218 319 298 468 569 548 
6 240 351 272 490 601 522 
6 277 329 222 527 579 472 
6 253 355 139 503 605 389 
6 158 159 157 408 409 407 
6 236 246 216 486 496 466 
6 192 194 193 442 444 443 
6 220 309 149 470 559 399 
6 183 185 184 433 435 434 
6 196 197 195 446 447 445 
6 276 347 58 526 597 106 
6 136 333 231 386 583 481 
6 67 247 66 115 497 114 
6 60 248 59 108 498 107 
6 261 262 250 511 512 500 
6 173 176 175 423 426 425 
6 344 357 231 594 607 481 
6 144 281 280 394 531 530 
6 152 205 150 402 455 400 
6 163 166 165 413 416 415 
6 185 187 186 435 437 436 
6 233 234 230 483 484 480 
6 170 171 169 420 421 419 
6 146 147 134 396 397 384 
6 176 178 177 426 428 427 
6 285 337 223 535 587 473 
6 154 156 155 404 406 405 
6 263 342 226 513 592 476 
6 235 245 236 485 495 486 
6 160 161 159 410 411 409 
6 58 347 242 106 597 492 
6 166 168 167 416 418 417 
6 287 374 220 537 624 470 
6 189 190 188 439 440 438 
6 148 257 134 398 507 384 
6 194 196 195 444 446 445 
6 252 308 205 502 558 455 
6 285 345 337 535 595 587 
6 301 375 305 551 625 555 
6 180 181 179 430 431 429 
6 281 348 234 531 598 484 
6 198 199 197 448 449 447 
6 151 309 154 401 559 404 
6 228 367 335 478 617 585 
6 54 349 261 102 599 511 
6 156 158 157 406 408 407 
6 168 170 169 418 420 419 
6 200 202 199 450 452 449 
6 147 148 134 397 398 384 
6 158 160 159 408 410 409 
6 150 308 148 400 558 398 
6 253 316 208 503 566 458 
6 232 329 277 482 579 527 
6 178 180 179 428 430 429 
6 191 192 190 441 442 440 
6 214 238 202 464 488 452 
6 172 173 171 422 423 421 
6 187 189 188 437 439 438 
6 162 163 161 412 413 411 
6 228 251 237 478 501 487 
6 215 258 235 465 508 485 
6 182 183 181 432 433 431 
6 202 310 199 452 560 449 
6 219 253 208 469 503 458 
6 222 249 206 472 499 456 
6 196 198 197 446 448 447 
6 229 330 260 479 580 510 
6 132 358 274 382 608 524 
6 149 309 151 399 559 401 
6 226 312 254 476 562 504 
6 154 309 209 404 559 459 
6 77 129 76 125 379 124 
6 73 128 72 121 378 120 
6 76 131 75 124 381 123 
6 74 132 73 122 382 121 
6 75 130 74 123 380 122 
6 14 127 77 29 377 125 
6 72 126 14 120 376 29 
6 133 367 228 383 617 478 
6 237 282 227 487 532 477 
6 239 366 252 489 616 502 
6 200 214 202 450 464 452 
6 192 201 194 442 451 444 
6 170 172 171 420 422 421 
6 220 311 309 470 561 559 
6 198 200 199 448 450 449 
6 189 191 190 439 441 440 
6 146 323 322 396 573 572 
6 160 162 161 410 412 411 
6 251 307 237 501 557 487 
6 199 310 210 449 560 460 
6 57 373 56 105 623 104 
6 214 239 238 464 489 488 
6 182 212 183 432 462 433 
6 180 182 181 430 432 431 
6 146 322 147 396 572 397 
6 172 218 208 422 468 458 
6 172 208 173 422 458 423 
6 162 221 206 412 471 456 
6 162 206 163 412 456 413 
6 176 207 178 426 457 428 
6 272 351 204 522 601 454 
6 198 211 200 448 461 450 
6 182 213 212 432 463 462 
6 234 334 281 484 584 531 
6 154 209 156 404 459 406 
6 185 203 187 435 453 437 
6 168 174 170 418 424 420 
6 189 215 191 439 465 441 
6 215 216 191 465 466 441 
6 221 222 206 471 472 456 
6 158 164 160 408 414 410 
6 218 219 208 468 469 458 
6 205 308 150 455 558 400 
6 191 314 192 441 564 442 
6 215 235 216 465 485 466 
6 215 318 258 465 568 508 
6 152 351 205 402 601 455 
6 138 261 250 388 511 500 
6 192 314 201 442 564 451 
6 234 347 230 484 597 480 
6 226 342 312 476 592 562 
6 138 250 233 388 500 483 
6 147 322 220 397 572 470 
6 216 314 191 466 564 441 
6 306 332 180 556 582 430 
6 222 356 249 472 606 499 
6 128 345 285 378 595 535 
6 314 321 201 564 571 451 
6 212 315 183 462 565 433 
6 312 342 336 562 592 586 
6 282 339 338 532 589 588 
6 340 341 323 590 591 573 
6 309 311 209 559 561 459 
6 183 315 185 433 565 435 
6 208 316 173 458 566 423 
6 173 316 176 423 566 426 
6 3 341 37 18 591 85 
6 44 339 6 92 589 21 
6 252 366 145 502 616 395 
6 246 321 314 496 571 564 
6 246 314 216 496 564 466 
6 126 364 313 376 614 563 
6 156 317 158 406 567 408 
6 275 367 133 525 617 383 
6 176 316 207 426 566 457 
6 185 315 203 435 565 453 
6 180 332 182 430 582 432 
6 302 352 131 552 602 381 
6 251 324 307 501 574 557 
6 187 318 189 437 568 439 
6 172 319 218 422 569 468 
6 162 320 221 412 570 471 
6 305 343 166 555 593 416 
6 170 319 172 420 569 422 
6 158 317 164 408 567 414 
6 209 317 156 459 567 406 
6 285 353 128 535 603 378 
6 223 337 269 473 587 519 
6 160 320 162 410 570 412 
6 211 331 200 461 581 450 
6 174 319 170 424 569 420 
6 203 318 187 453 568 437 
6 189 318 215 439 568 465 
6 198 327 211 448 577 461 
6 164 320 160 414 570 410 
6 326 353 267 576 603 517 
6 236 344 333 486 594 583 
6 196 327 198 446 577 448 
6 219 355 253 469 605 503 
6 281 334 280 531 584 530 
6 274 359 271 524 609 521 
6 164 370 299 414 620 549 
6 174 375 300 424 625 550 
6 287 363 31 537 613 79 
6 243 361 1 493 611 16 
6 241 362 12 491 612 27 
6 307 365 237 557 615 487 
6 166 343 168 416 593 418 
6 200 331 214 450 581 464 
6 313 326 217 563 576 467 
6 9 357 244 24 607 494 
6 1 361 30 16 611 78 
6 12 362 65 27 612 113 
6 337 345 132 587 595 382 
6 242 348 64 492 598 112 
6 231 357 266 481 607 516 
6 182 332 213 432 582 463 
6 245 344 236 495 594 486 
6 258 346 259 508 596 509 
6 145 366 275 395 616 525 
6 291 369 136 541 619 386 
6 236 333 246 486 583 496 
6 331 335 214 581 585 464 
6 312 336 129 562 586 379 
6 315 372 262 565 622 512 
6 220 374 311 470 624 561 
6 140 374 287 390 624 537 
6 126 360 304 376 610 554 
6 230 347 276 480 597 526 
6 313 364 326 563 614 576 
6 56 373 143 104 623 393 
6 239 367 366 489 617 616 
6 204 351 152 454 601 402 
6 300 375 301 550 625 551 
6 214 335 239 464 585 489 
6 247 329 243 497 579 493 
6 262 372 250 512 622 500 
6 248 330 241 498 580 491 
6 318 346 258 568 596 508 
6 333 369 246 583 619 496 
6 282 338 227 532 588 477 
6 146 340 323 396 590 573 
6 304 360 264 554 610 514 
6 366 367 275 616 617 525 
6 129 336 76 379 586 124 
6 73 345 128 121 595 378 
6 76 336 131 124 586 381 
6 250 350 233 500 600 483 
6 129 371 328 379 621 578 
6 132 345 73 382 595 121 
6 168 343 174 418 593 424 
6 131 352 75 381 602 123 
6 66 247 243 114 497 493 
6 59 248 241 107 498 491 
6 74 358 132 122 608 382 
6 203 346 318 453 596 568 
6 313 360 126 563 610 376 
6 128 364 72 378 614 120 
6 128 353 326 378 603 576 
6 77 371 129 125 621 379 
6 129 368 312 379 618 562 
6 244 357 344 494 607 594 
6 328 354 225 578 604 475 
6 326 364 128 576 614 378 
6 75 352 130 123 602 380 
6 350 372 212 600 622 462 
6 136 369 333 386 619 583 
6 325 354 127 575 604 377 
6 213 350 212 463 600 462 
6 130 358 74 380 608 122 
6 250 372 350 500 622 600 
6 317 370 164 567 620 414 
6 72 364 126 120 614 376 
6 328 368 129 578 618 379 
6 127 371 77 377 621 125 
6 336 342 131 586 592 381 
6 212 372 315 462 622 565 
6 234 348 347 484 598 597 
6 8 266 51 23 516 99 
6 10 276 58 25 526 106 
6 246 369 321 496 619 571 
6 30 284 0 78 534 15 
6 65 286 13 113 536 28 
6 58 242 11 106 492 26 
6 266 357 51 516 607 99 
6 255 368 328 505 618 578 
6 347 348 242 597 598 492 
6 322 363 287 572 613 537 
6 323 363 322 573 613 572 
6 335 367 239 585 617 489 
6 30 361 284 78 611 534 
6 65 362 286 113 612 536 
6 237 365 282 487 615 532 
6 130 359 358 380 609 608 
6 343 375 174 593 625 424 
6 354 371 127 604 621 377 
6 328 371 354 578 621 604 
6 358 359 274 608 609 524 
6 0 284 36 15 534 84 
6 45 266 8 93 516 23 
6 52 276 10 100 526 25 
6 11 242 64 26 492 112 
6 13 286 71 28 536 119 
6 2 323 3 17 573 18 
6 31 323 2 79 573 17 
6 323 341 3 573 591 18 
6 37 340 4 85 590 19 
6 4 340 43 19 590 91 
6 38 338 5 86 588 20 
6 5 338 44 20 588 92 
6 6 282 7 21 532 22 
6 6 339 282 21 589 532 
6 282 365 7 532 615 22 

CELL_TYPES 563
13
13
13
13
13
13
13
13
13
13
13
13
13
13
13
13
13
13
13
13
13
13
13
13
13
13
13
13
13
13
13
13
13
13
13
13
13
13
13
13
13
13
13
13
13
13
13
13
13
13
13
13
13
13
13
13
13
13
13
13
13
13
13
13
13
13
13
13
13
13
13
13
13
13
13
13
13
13
13
13
13
13
13
13
13
13
13
13
13
13
13
13
13
13
13
13
13
13
13
13
13
13
13
13
13
13
13
13
13
13
13
13
13
13
13
13
13
13
13
13
13
13
13
13
13
13
13
13
13
13
13
13
13
13
13
13
13
13
13
13
13
13
13
13
13
13
13
13
13
13
13
13
13
13
13
13
13
13
13
13
13
13
13
13
13
13
13
13
13
13
13
13
13
13
13
13
13
13
13
13
13
13
13
13
13
13
13
13
13
13
13
13
13
13
13
13
13
13
13
13
13
13
13
13
13
13
13
13
13
13
13
13
13
13
13
13
13
13
13
13
13
13
13
13
13
13
13
13
13
13
13
13
13
13
13
13
13
13
13
13
13
13
13
13
13
13
13
13
13
13
13
13
13
13
13
13
13
13
13
13
13
13
13
13
13
13
13
13
13
13
13
13
13
13
13
13
13
13
13
13
13
13
13
13
13
13
13
13
13
13
13
13
13
13
13
13
13
13
13
13
13
13
13
13
13
13
13
13
13
13
13
13
13
13
13
13
13
13
13
13
13
13
13
13
13
13
13
13
13
13
13
13
13
13
13
13
13
13
13
13
13
13
13
13
13
13
13
13
13
13
13
13
13
13
13
13
13
13
13
13
13
13
13
13
13
13
13
13
13
13
13
13
13
13
13
13
13
13
13
13
13
13
13
13
13
13
13
13
13
13
13
13
13
13
13
13
13
13
13
13
13
13
13
13
13
13
13
13
13
13
13
13
13
13
13
13
13
13
13
13
13
13
13
13
13
13
13
13
13
13
13
13
13
13
13
13
13
13
13
13
13
13
13
13
13
13
13
13
13
13
13
13
13
13
13
13
13
13
13
13
13
13
13
13
13
13
13
13
13
13
13
13
13
13
13
13
13
13
13
13
13
13
13
13
13
13
13
13
13
13
13
13
13
13
13
13
13
13
13
13
13
13
13
13
13
13
13
13
13
13
13
13
13
13
13
13
13
13
13
13
13
13
13
13
13
13
13
13
13
13
13
13
13
13
13
13
13
13
13
13
13
13
13
13
13
13
13
13
13
13
13
13
13
13
13
13
13
13
13
13
13
13
13

POINT_DATA 626
VECTORS displacement float
-1.74395e-06 3.09542e-05 1.80549e-05
1.73566e-06 3.09732e-05 1.81e-05
-2.59861e-05 1.69927e-05 1.80869e-05
-2.58407e-05 1.60329e-05 1.80515e-05
-2.77204e-05 1.39727e-05 1.80689e-05
-2.77134e-05 -1.4019e-05 1.80944e-05
-2.58119e-05 -1.6071e-05 1.81057e-05
-2.59823e-05 -1.70108e-05 1.81669e-05
-1.67741e-06 -3.09579e-05 1.80513e-05
1.75545e-06 -3.09594e-05 1.81018e-05
2.59434e-05 -1.69806e-05 1.80434e-05
2.77168e-05 -1.39366e-05 1.80432e-05
2.76722e-05 1.39893e-05 1.80915e-05
2.59147e-05 1.69929e-05 1.80459e-05
0 0 0
-1.74395e-06 3.09542e-05 -1.80549e-05
1.73566e-06 3.09732e-05 -1.81e-05
-2.59861e-05 1.69927e-05 -1.80869e-05
-2.58407e-05 1.60329e-05 -1.80515e-05
-2.77204e-05 1.39727e-05 -1.80689e-05
-2.77134e-05 -1.4019e-05 -1.80944e-05
-2.58119e-05 -1.6071e-05 -1.81057e-05
-2.59823e-05 -1.70108e-05 -1.81669e-05
-1.67741e-06 -3.09579e-05 -1.80513e-05
1.75545e-06 -3.09594e-05 -1.81018e-05
2.59434e-05 -1.69806e-05 -1.80434e-05
2.77168e-05 -1.39366e-05 -1.80432e-05
2.76722e-05 1.39893e-05 -1.80915e-05
2.59147e-05 1.69929e-05 -1.80459e-05
0 0 0
2.48954e-08 3.01541e-05 1.80341e-05
-2.11404e-05 1.87122e-05 1.75496e-05
-1.72323e-05 1.98336e-05 1.69206e-05
-1.40068e-05 2.1054e-05 1.65548e-05
-1.12067e-05 2.26646e-05 1.65486e-05
-8.52401e-06 2.48326e-05 1.69012e-05
-5.56777e-06 2.76214e-05 1.75373e-05
-2.64496e-05 1.4679e-05 1.80333e-05
-2.67685e-05 -9.01141e-06 1.75773e-05
-2.5806e-05 -5.03539e-06 1.69258e-05
-2.52542e-05 -1.63618e-06 1.65712e-05
-2.52572e-05 1.60782e-06 1.65742e-05
-2.57982e-05 5.02279e-06 1.6924e-05
-2.67547e-05 8.9845e-06 1.75638e-05
-2.64365e-05 -1.47253e-05 1.80621e-05
-5.54103e-06 -2.76359e-05 1.75295e-05
-8.47653e-06 -2.48416e-05 1.69005e-05
-1.11699e-05 -2.2684e-05 1.6556e-05
-1.39704e-05 -2.1087e-05 1.65594e-05
-1.72147e-05 -1.9869e-05 1.69365e-05
-2.1134e-05 -1.8749e-05 1.75621e-05
8.98413e-08 -3.01388e-05 1.80292e-05
2.11238e-05 -1.86247e-05 1.75113e-05
1.72445e-05 -1.9762e-05 1.68727e-05
1.40337e-05 -2.10109e-05 1.65114e-05
1.12249e-05 -2.25927e-05 1.65459e-05
8.58117e-06 -2.47798e-05 1.6874e-05
5.65465e-06 -2.76262e-05 1.75348e-05
2.61243e-05 -1.50595e-05 1.80282e-05
2.67166e-05 8.93828e-06 1.75013e-05
2.57218e-05 5.04952e-06 1.69082e-05
2.52063e-05 1.62329e-06 1.6523e-05
2.52034e-05 -1.5994e-06 1.65213e-05
2.57504e-05 -4.99731e-06 1.68881e-05
2.66986e-05 -8.91704e-06 1.75095e-05
2.61074e-05 1.50607e-05 1.80253e-05
5.63311e-06 2.76175e-05 1.75094e-05
8.50855e-06 2.48065e-05 1.6911e-05
1.1217e-05 2.26408e-05 1.65292e-05
1.40043e-05 2.10219e-05 1.65245e-05
1.72215e-05 1.97932e-05 1.68849e-05
2.11148e-05 1.86343e-05 1.75252e-05
0 0 0
0 0 0
0 0 0
0 0 0
0 0 0
0 0 0
2.48954e-08 3.01541e-05 -1.80341e-05
-2.11404e-05 1.87122e-05 -1.75496e-05
-1.72323e-05 1.98336e-05 -1.69206e-05
-1.40068e-05 2.1054e-05 -1.65548e-05
-1.12067e-05 2.26646e-05 -1.65486e-05
-8.52401e-06 2.48326e-05 -1.69012e-05
-5.56777e-06 2.76214e-05 -1.75373e-05
-2.64496e-05 1.4679e-05 -1.80333e-05
-2.67685e-05 -9.01141e-06 -1.75773e-05
-2.5806e-05 -5.03539e-06 -1.69258e-05
-2.52542e-05 -1.63618e-06 -1.65712e-05
-2.52572e-05 1.60782e-06 -1.65742e-05
-2.57982e-05 5.02279e-06 -1.6924e-05
-2.67547e-05 8.9845e-06 -1.75638e-05
-2.64365e-05 -1.47253e-05 -1.80621e-05
-5.54103e-06 -2.76359e-05 -1.75295e-05
-8.47653e-06 -2.48416e-05 -1.69005e-05
-1.11699e-05 -2.2684e-05 -1.6556e-05
-1.39704e-05 -2.1087e-05 -1.65594e-05
-1.72147e-05 -1.9869e-05 -1.69365e-05
-2.1134e-05 -1.8749e-05 -1.75621e-05
8.98413e-08 -3.01388e-05 -1.80292e-05
2.11238e-05 -1.86247e-05 -1.75113e-05
1.72445e-05 -1.9762e-05 -1.68727e-05
1.40337e-05 -2.10109e-05 -1.65114e-05
1.12249e-05 -2.25927e-05 -1.65459e-05
8.58117e-06 -2.47798e-05 -1.6874e-05
5.65465e-06 -2.76262e-05 -1.75348e-05
2.61243e-05 -1.50595e-05 -1.80282e-05
2.67166e-05 8.93828e-06 -1.75013e-05
2.57218e-05 5.04952e-06 -1.69082e-05
2.52063e-05 1.62329e-06 -1.6523e-05
2.52034e-05 -1.5994e-06 -1.65213e-05
2.57504e-05 -4.99731e-06 -1.68881e-05
2.66986e-05 -8.91704e-06 -1.75095e-05
2.61074e-05 1.50607e-05 -1.80253e-05
5.63311e-06 2.76175e-05 -1.75094e-05
8.50855e-06 2.48065e-05 -1.6911e-05
1.1217e-05 2.26408e-05 -1.65292e-05
1.40043e-05 2.10219e-05 -1.65245e-05
1.72215e-05 1.97932e-05 -1.68849e-05
2.11148e-05 1.86343e-05 -1.75252e-05
0 0 0
0 0 0
0 0 0
0 0 0
0 0 0
0 0 0
1.79366e-06 8.58738e-07 4.55219e-06
1.7378e-06 -8.25106e-07 4.46075e-06
4.31949e-07 1.84961e-06 4.49506e-06
4.36094e-07 -1.78061e-06 4.35603e-06
-1.84747e-06 2.09629e-08 4.42231e-06
-1.12308e-06 -1.30886e-06 4.15095e-06
-1.1592e-06 1.30678e-06 4.19973e-06
-2.25128e-05 -7.28757e-06 1.69997e-05
-2.21961e-05 7.37147e-06 1.69684e-05
-4.86039e-06 2.28982e-05 1.69368e-05
-4.85791e-06 -2.31313e-05 1.69637e-05
1.7421e-05 1.56353e-05 1.69296e-05
1.75686e-05 -1.55363e-05 1.69389e-05
2.10732e-05 3.16383e-06 1.63242e-05
-1.39529e-05 1.7151e-05 1.64782e-05
-1.3591e-05 -1.6741e-05 1.64097e-05
7.76775e-06 1.98193e-05 1.6331e-05
7.68477e-06 -2.03097e-05 1.64023e-05
2.1472e-05 -3.44368e-06 1.63999e-05
-2.11024e-05 6.58808e-09 1.62464e-05
-2.24201e-05 1.09996e-05 1.74534e-05
-1.87507e-05 9.25458e-06 1.66269e-05
-1.79825e-05 5.79537e-06 1.60361e-05
-1.49838e-05 7.44823e-06 1.54861e-05
-1.42243e-05 4.30766e-06 1.48294e-05
-1.15324e-05 5.74381e-06 1.40944e-05
-1.08579e-05 3.06869e-06 1.33733e-05
-8.40037e-06 4.30482e-06 1.24041e-05
-9.05868e-06 7.01331e-06 1.34561e-05
-6.20402e-06 5.48844e-06 1.16887e-05
-6.82821e-06 8.24933e-06 1.30796e-05
-4.28134e-06 6.67482e-06 1.14502e-05
-4.79994e-06 9.60979e-06 1.30936e-05
-2.40084e-06 7.99324e-06 1.17227e-05
-2.81281e-06 1.11671e-05 1.34746e-05
-4.75403e-07 9.59516e-06 1.25007e-05
-7.38344e-07 1.29967e-05 1.41414e-05
1.73106e-06 1.15176e-05 1.35347e-05
-5.53461e-06 1.27002e-05 1.44366e-05
1.68506e-06 8.22387e-06 1.17473e-05
4.00412e-06 1.01207e-05 1.31506e-05
3.7053e-06 7.09786e-06 1.1478e-05
6.06732e-06 8.96655e-06 1.3113e-05
5.76674e-06 6.10671e-06 1.17353e-05
8.35797e-06 8.02021e-06 1.34917e-05
8.10554e-06 5.1952e-06 1.25001e-05
1.09538e-05 7.09696e-06 1.41467e-05
1.07458e-05 4.32274e-06 1.34988e-05
8.53041e-06 1.10373e-05 1.44605e-05
7.93759e-06 2.64371e-06 1.17271e-05
1.06459e-05 1.73718e-06 1.31037e-05
7.94858e-06 3.58756e-07 1.14553e-05
1.08063e-05 -7.59102e-07 1.31238e-05
8.11154e-06 -1.93778e-06 1.17088e-05
1.10981e-05 -3.31281e-06 1.34836e-05
8.46962e-06 -4.42392e-06 1.24438e-05
1.15036e-05 -6.0028e-06 1.41091e-05
8.95545e-06 -7.13802e-06 1.34278e-05
6.14744e-06 -5.49434e-06 1.1641e-05
6.64441e-06 -8.30075e-06 1.3018e-05
4.10515e-06 -6.58843e-06 1.13107e-05
4.5233e-06 -9.55074e-06 1.2988e-05
2.24227e-06 -7.85819e-06 1.15971e-05
2.4848e-06 -1.10017e-05 1.33507e-05
2.25288e-07 -9.37357e-06 1.23533e-05
3.3001e-07 -1.27696e-05 1.40335e-05
-1.91541e-06 -1.11506e-05 1.33767e-05
-1.84104e-06 -7.92152e-06 1.15819e-05
-4.16784e-06 -9.87473e-06 1.30848e-05
-3.81389e-06 -6.73042e-06 1.13169e-05
-6.34554e-06 -8.66191e-06 1.3099e-05
-5.89123e-06 -5.69794e-06 1.16281e-05
-8.49962e-06 -7.4357e-06 1.33794e-05
-8.16745e-06 -4.728e-06 1.24084e-05
-1.10955e-05 -6.40269e-06 1.40696e-05
-4.3716e-06 -1.3123e-05 1.44334e-05
-1.08087e-05 -3.65064e-06 1.34389e-05
7.22603e-06 -1.13726e-05 1.42727e-05
-7.74161e-06 1.98266e-06 1.14927e-05
-1.3216e-05 1.03504e-06 1.42107e-05
1.7291e-06 1.50826e-05 1.4952e-05
1.37679e-05 4.62232e-07 1.43875e-05
1.3843e-05 6.10003e-06 1.49315e-05
-9.69394e-06 1.01961e-05 1.45323e-05
-5.41595e-06 -3.19762e-06 1.0182e-05
-1.17135e-05 -9.29723e-06 1.4889e-05
1.18822e-05 -8.76011e-06 1.47869e-05
1.47816e-05 -7.47352e-06 1.54031e-05
-1.39596e-05 -5.24383e-06 1.48614e-05
2.79579e-06 -1.4516e-05 1.4796e-05
4.24559e-07 -1.64992e-05 1.53975e-05
3.5184e-06 4.3969e-06 9.58097e-06
1.40104e-05 9.29895e-06 1.54914e-05
1.79306e-05 8.14487e-06 1.63004e-05
-1.56753e-05 1.13952e-05 1.62333e-05
-1.09407e-06 1.67689e-05 1.54951e-05
1.90684e-06 1.96214e-05 1.63108e-05
-2.09185e-06 5.22003e-06 9.59747e-06
5.55389e-06 -7.84596e-07 9.59401e-06
3.58592e-06 -3.68353e-06 9.08186e-06
-1.77962e-06 -5.17853e-06 9.44948e-06
-2.24686e-05 -1.10107e-05 1.74742e-05
-1.8798e-05 -9.24132e-06 1.66509e-05
2.11476e-05 1.41647e-05 1.75055e-05
2.07536e-05 -1.43175e-05 1.74354e-05
-1.7646e-06 -2.54463e-05 1.75108e-05
-1.68212e-06 2.54103e-05 1.75155e-05
1.77128e-05 -1.19068e-05 1.6687e-05
2.06455e-05 -1.0751e-05 1.71158e-05
3.77561e-06 -1.89849e-05 1.61392e-05
7.68525e-07 -2.03456e-05 1.64827e-05
-1.94049e-05 -1.26504e-05 1.7143e-05
-1.37309e-05 -2.3069e-06 1.44717e-05
-1.65925e-05 -3.70139e-06 1.54774e-05
-1.03757e-05 -1.09637e-06 1.29519e-05
2.44518e-05 1.10727e-05 1.76515e-05
2.54974e-05 -1.24031e-05 1.7848e-05
2.64924e-06 2.67257e-05 1.76604e-05
2.52099e-06 -2.64133e-05 1.76292e-05
3.33944e-06 -2.30317e-05 1.70289e-05
-2.05387e-06 -1.83197e-05 1.59507e-05
4.05904e-06 2.37911e-05 1.71302e-05
2.26139e-05 8.37915e-06 1.71191e-05
4.61355e-06 1.73131e-05 1.57271e-05
1.44268e-05 -1.31193e-05 1.61372e-05
-1.57875e-05 -1.09846e-05 1.62144e-05
-1.67996e-05 -3.81423e-07 1.53771e-05
1.73057e-05 4.68742e-06 1.57255e-05
6.55214e-08 -6.38723e-06 1.02673e-05
1.74169e-06 -4.8484e-06 9.09236e-06
5.85039e-06 -2.93548e-06 1.0378e-05
-2.14439e-05 3.75045e-06 1.64586e-05
5.72929e-06 -1.62743e-05 1.55075e-05
9.08334e-06 -1.74988e-05 1.59973e-05
1.75719e-05 1.18815e-05 1.66721e-05
1.3994e-05 -1.6382e-05 1.6401e-05
1.07398e-05 -1.37888e-05 1.55499e-05
-3.54793e-06 -4.22014e-06 9.50063e-06
5.39905e-06 1.13848e-06 9.49891e-06
5.21798e-06 3.22283e-06 1.00471e-05
-1.74978e-06 -2.83542e-05 1.78767e-05
1.89204e-06 5.29882e-06 9.58431e-06
-1.13822e-07 6.10493e-06 1.00386e-05
-3.78487e-06 4.12769e-06 9.57826e-06
-5.62261e-06 3.03415e-06 1.02851e-05
-5.16541e-06 1.04066e-06 9.21347e-06
-7.52714e-06 -6.17383e-08 1.11722e-05
-4.33432e-06 -8.10268e-07 8.38173e-06
-3.10855e-06 1.87231e-06 7.37396e-06
-2.20808e-05 -3.60769e-06 1.65156e-05
2.34059e-05 -1.56878e-05 1.7836e-05
-1.50718e-06 2.11676e-05 1.66818e-05
2.12613e-05 -8.45182e-08 1.62255e-05
1.76218e-05 -1.64677e-06 1.55812e-05
1.73475e-05 -4.9416e-06 1.57705e-05
2.18913e-05 -7.451e-06 1.69134e-05
-2.31819e-05 -1.42544e-05 1.78325e-05
1.73244e-05 1.64885e-06 1.55083e-05
-1.73399e-06 2.84727e-05 1.78939e-05
-4.22066e-07 3.68337e-06 7.49519e-06
2.37717e-05 1.57422e-05 1.78844e-05
-1.74971e-05 1.5642e-05 1.69747e-05
-1.06261e-05 -1.84658e-05 1.62548e-05
-1.00994e-05 -1.43421e-05 1.55715e-05
-7.50766e-06 -1.60946e-05 1.56218e-05
-7.32203e-06 -2.01202e-05 1.63951e-05
-1.07043e-05 1.8535e-05 1.62666e-05
-1.03472e-05 1.43839e-05 1.56191e-05
-7.77254e-06 2.04921e-05 1.6444e-05
-4.25294e-06 1.86094e-05 1.60528e-05
1.07595e-05 1.83452e-05 1.62259e-05
1.38915e-05 1.69347e-05 1.64308e-05
1.40418e-05 1.29727e-05 1.60511e-05
-7.36147e-06 1.62881e-05 1.56383e-05
1.0525e-05 1.45468e-05 1.5645e-05
7.74864e-06 1.60921e-05 1.56137e-05
-3.11643e-06 -1.89874e-06 7.39308e-06
-7.25754e-06 -1.24218e-05 1.46249e-05
3.00863e-06 4.03597e-08 6.60089e-06
4.87251e-06 1.35226e-05 1.46179e-05
1.40758e-05 -2.26036e-06 1.45702e-05
-1.72895e-05 -1.52165e-05 1.69453e-05
-1.73662e-05 2.42027e-06 1.55976e-05
-1.22045e-05 8.91182e-06 1.49433e-05
-7.70553e-06 -2.29249e-06 1.15545e-05
-1.24496e-05 1.18125e-05 1.55398e-05
-1.42734e-07 -3.75418e-06 7.55408e-06
2.7302e-06 2.27205e-06 7.25184e-06
-2.00384e-06 -1.46503e-05 1.48079e-05
9.36497e-06 -1.00681e-05 1.43892e-05
1.38606e-05 3.15777e-06 1.45659e-05
-7.33995e-06 1.11992e-05 1.42601e-05
4.99716e-06 -1.27746e-05 1.43691e-05
1.10317e-05 1.04304e-05 1.49195e-05
-3.5964e-06 1.46851e-05 1.49078e-05
-4.63541e-06 -1.66167e-05 1.55486e-05
-1.95069e-05 1.28923e-05 1.71611e-05
-2.31267e-05 1.4858e-05 1.78433e-05
-1.29048e-05 -1.26859e-05 1.58124e-05
3.76076e-06 -1.58611e-06 7.90685e-06
1.76438e-06 2.92225e-06 7.08435e-06
-9.23037e-06 -1.06093e-05 1.45316e-05
1.72772e-06 -2.82313e-06 6.93098e-06
9.94725e-07 2.41166e-05 1.73083e-05
2.13677e-05 1.11937e-05 1.72985e-05
-1.46645e-05 -7.9533e-06 1.54852e-05
1.37079e-05 -4.78626e-06 1.46905e-05
-1.90987e-06 -2.17627e-05 1.68026e-05
1.80602e-05 -8.41897e-06 1.63406e-05
-1.66787e-05 -6.3285e-06 1.57823e-05
-4.32897e-07 -1.92231e-06 4.79842e-06
-1.80535e-06 2.99541e-06 7.1771e-06
-2.50518e-05 -1.29817e-05 1.79222e-05
-2.5127e-05 -1.45072e-05 1.8002e-05
-2.5045e-05 1.30336e-05 1.79059e-05
-2.51178e-05 1.46499e-05 1.7982e-05
-1.64844e-06 -3.12482e-06 7.20983e-06
6.32788e-06 1.13683e-05 1.40764e-05
5.33708e-07 -2.40859e-05 1.73021e-05
-5.22774e-07 1.80953e-06 4.64496e-06
7.40738e-06 -1.43435e-05 1.51522e-05
2.33027e-05 -1.32092e-05 1.77287e-05
2.36325e-05 -1.05374e-05 1.74907e-05
1.19883e-05 -1.82107e-05 1.62931e-05
1.473e-05 -1.01465e-05 1.57955e-05
-1.0027e-05 1.00124e-06 1.27545e-05
-1.74e-06 -8.15896e-07 4.72341e-06
7.69058e-07 3.70832e-06 7.57306e-06
2.34305e-06 -1.99714e-06 6.55522e-06
2.01563e-05 5.89776e-06 1.64535e-05
5.07005e-06 2.05957e-05 1.64959e-05
3.42117e-07 -2.76798e-05 1.78539e-05
-1.73121e-06 7.09106e-07 4.60628e-06
-3.21148e-06 6.23043e-07 6.82407e-06
3.57719e-06 1.4754e-06 7.63654e-06
4.99225e-07 2.83236e-05 1.79272e-05
2.47602e-05 1.3734e-05 1.79183e-05
-2.03282e-05 1.55357e-05 1.74289e-05
1.1787e-06 1.36446e-06 4.45981e-06
-2.06394e-05 -1.57283e-05 1.75275e-05
-1.89987e-05 -2.32216e-06 1.5946e-05
-1.9559e-05 -5.58493e-06 1.63321e-05
9.05675e-07 -3.24773e-06 7.00603e-06
-4.36599e-06 -1.97891e-05 1.63217e-05
-7.9372e-06 1.38343e-05 1.51009e-05
1.16574e-06 -1.30417e-06 4.33925e-06
1.19343e-05 -1.12282e-05 1.5292e-05
6.13303e-06 -2.26959e-05 1.68204e-05
-1.4522e-05 1.43552e-05 1.63235e-05
7.929e-06 1.33211e-05 1.49478e-05
1.79366e-06 8.58738e-07 -4.55219e-06
1.7378e-06 -8.25106e-07 -4.46075e-06
4.31949e-07 1.84961e-06 -4.49506e-06
4.36094e-07 -1.78061e-06 -4.35603e-06
-1.84747e-06 2.09629e-08 -4.42231e-06
-1.12308e-06 -1.30886e-06 -4.15095e-06
-1.1592e-06 1.30678e-06 -4.19973e-06
-2.25128e-05 -7.28757e-06 -1.69997e-05
-2.21961e-05 7.37147e-06 -1.69684e-05
-4.86039e-06 2.28982e-05 -1.69368e-05
-4.85791e-06 -2.31313e-05 -1.69637e-05
1.7421e-05 1.56353e-05 -1.69296e-05
1.75686e-05 -1.55363e-05 -1.69389e-05
2.10732e-05 3.16383e-06 -1.63242e-05
-1.39529e-05 1.7151e-05 -1.64782e-05
-1.3591e-05 -1.6741e-05 -1.64097e-05
7.76775e-06 1.98193e-05 -1.6331e-05
7.68477e-06 -2.03097e-05 -1.64023e-05
2.1472e-05 -3.44368e-06 -1.63999e-05
-2.11024e-05 6.58808e-09 -1.62464e-05
-2.24201e-05 1.09996e-05 -1.74534e-05
-1.87507e-05 9.25458e-06 -1.66269e-05
-1.79825e-05 5.79537e-06 -1.60361e-05
-1.49838e-05 7.44823e-06 -1.54861e-05
-1.42243e-05 4.30766e-06 -1.48294e-05
-1.15324e-05 5.74381e-06 -1.40944e-05
-1.08579e-05 3.06869e-06 -1.33733e-05
-8.40037e-06 4.30482e-06 -1.24041e-05
-9.05868e-06 7.01331e-06 -1.34561e-05
-6.20402e-06 5.48844e-06 -1.16887e-05
-6.82821e-06 8.24933e-06 -1.30796e-05
-4.28134e-06 6.67482e-06 -1.14502e-05
-4.79994e-06 9.60979e-06 -1.30936e-05
-2.40084e-06 7.99324e-06 -1.17227e-05
-2.81281e-06 1.11671e-05 -1.34746e-05
-4.75403e-07 9.59516e-06 -1.25007e-05
-7.38344e-07 1.29967e-05 -1.41414e-05
1.73106e-06 1.15176e-05 -1.35347e-05
-5.53461e-06 1.27002e-05 -1.44366e-05
1.68506e-06 8.22387e-06 -1.17473e-05
4.00412e-06 1.01207e-05 -1.31506e-05
3.7053e-06 7.09786e-06 -1.1478e-05
6.06732e-06 8.96655e-06 -1.3113e-05
5.76674e-06 6.10671e-06 -1.17353e-05
8.35797e-06 8.02021e-06 -1.34917e-05
8.10554e-06 5.1952e-06 -1.25001e-05
1.09538e-05 7.09696e-06 -1.41467e-05
1.07458e-05 4.32274e-06 -1.34988e-05
8.53041e-06 1.10373e-05 -1.44605e-05
7.93759e-06 2.64371e-06 -1.17271e-05
1.06459e-05 1.73718e-06 -1.31037e-05
7.94858e-06 3.58756e-07 -1.14553e-05
1.08063e-05 -7.59102e-07 -1.31238e-05
8.11154e-06 -1.93778e-06 -1.17088e-05
1.10981e-05 -3.31281e-06 -1.34836e-05
8.46962e-06 -4.42392e-06 -1.24438e-05
1.15036e-05 -6.0028e-06 -1.41091e-05
8.95545e-06 -7.13802e-06 -1.34278e-05
6.14744e-06 -5.49434e-06 -1.1641e-05
6.64441e-06 -8.30075e-06 -1.3018e-05
4.10515e-06 -6.58843e-06 -1.13107e-05
4.5233e-06 -9.55074e-06 -1.2988e-05
2.24227e-06 -7.85819e-06 -1.15971e-05
2.4848e-06 -1.10017e-05 -1.33507e-05
2.25288e-07 -9.37357e-06 -1.23533e-05
3.3001e-07 -1.27696e-05 -1.40335e-05
-1.91541e-06 -1.11506e-05 -1.33767e-05
-1.84104e-06 -7.92152e-06 -1.15819e-05
-4.16784e-06 -9.87473e-06 -1.30848e-05
-3.81389e-06 -6.73042e-06 -1.13169e-05
-6.34554e-06 -8.66191e-06 -1.3099e-05
-5.89123e-06 -5.69794e-06 -1.16281e-05
-8.49962e-06 -7.4357e-06 -1.33794e-05
-8.16745e-06 -4.728e-06 -1.24084e-05
-1.10955e-05 -6.40269e-06 -1.40696e-05
-4.3716e-06 -1.3123e-05 -1.44334e-05
-1.08087e-05 -3.65064e-06 -1.34389e-05
7.22603e-06 -1.13726e-05 -1.42727e-05
-7.74161e-06 1.98266e-06 -1.14927e-05
-1.3216e-05 1.03504e-06 -1.42107e-05
1.7291e-06 1.50826e-05 -1.4952e-05
1.37679e-05 4.62232e-07 -1.43875e-05
1.3843e-05 6.10003e-06 -1.49315e-05
-9.69394e-06 1.01961e-05 -1.45323e-05
-5.41595e-06 -3.19762e-06 -1.0182e-05
-1.17135e-05 -9.29723e-06 -1.4889e-05
1.18822e-05 -8.76011e-06 -1.47869e-05
1.47816e-05 -7.47352e-06 -1.54031e-05
-1.39596e-05 -5.24383e-06 -1.48614e-05
2.79579e-06 -1.4516e-05 -1.4796e-05
4.24559e-07 -1.64992e-05 -1.53975e-05
3.5184e-06 4.3969e-06 -9.58097e-06
1.40104e-05 9.29895e-06 -1.54914e-05
1.79306e-05 8.14487e-06 -1.63004e-05
-1.56753e-05 1.13952e-05 -1.62333e-05
-1.09407e-06 1.67689e-05 -1.54951e-05
1.90684e-06 1.96214e-05 -1.63108e-05
-2.09185e-06 5.22003e-06 -9.59747e-06
5.55389e-06 -7.84596e-07 -9.59401e-06
3.58592e-06 -3.68353e-06 -9.08186e-06
-1.77962e-06 -5.17853e-06 -9.44948e-06
-2.24686e-05 -1.10107e-05 -1.74742e-05
-1.8798e-05 -9.24132e-06 -1.66509e-05
2.11476e-05 1.41647e-05 -1.75055e-05
2.07536e-05 -1.43175e-05 -1.74354e-05
-1.7646e-06 -2.54463e-05 -1.75108e-05
-1.68212e-06 2.54103e-05 -1.75155e-05
1.77128e-05 -1.19068e-05 -1.6687e-05
2.06455e-05 -1.0751e-05 -1.71158e-05
3.77561e-06 -1.89849e-05 -1.61392e-05
7.68525e-07 -2.03456e-05 -1.64827e-05
-1.94049e-05 -1.26504e-05 -1.7143e-05
-1.37309e-05 -2.3069e-06 -1.44717e-05
-1.65925e-05 -3.70139e-06 -1.54774e-05
-1.03757e-05 -1.09637e-06 -1.29519e-05
2.44518e-05 1.10727e-05 -1.76515e-05
2.54974e-05 -1.24031e-05 -1.7848e-05
2.64924e-06 2.67257e-05 -1.76604e-05
2.52099e-06 -2.64133e-05 -1.76292e-05
3.33944e-06 -2.30317e-05 -1.70289e-05
-2.05387e-06 -1.83197e-05 -1.59507e-05
4.05904e-06 2.37911e-05 -1.71302e-05
2.26139e-05 8.37915e-06 -1.71191e-05
4.61355e-06 1.73131e-05 -1.57271e-05
1.44268e-05 -1.31193e-05 -1.61372e-05
-1.57875e-05 -1.09846e-05 -1.62144e-05
-1.67996e-05 -3.81423e-07 -1.53771e-05
1.73057e-05 4.68742e-06 -1.57255e-05
6.55214e-08 -6.38723e-06 -1.02673e-05
1.74169e-06 -4.8484e-06 -9.09236e-06
5.85039e-06 -2.93548e-06 -1.0378e-05
-2.14439e-05 3.75045e-06 -1.64586e-05
5.72929e-06 -1.62743e-05 -1.55075e-05
9.08334e-06 -1.74988e-05 -1.59973e-05
1.75719e-05 1.18815e-05 -1.66721e-05
1.3994e-05 -1.6382e-05 -1.6401e-05
1.07398e-05 -1.37888e-05 -1.55499e-05
-3.54793e-06 -4.22014e-06 -9.50063e-06
5.39905e-06 1.13848e-06 -9.49891e-06
5.21798e-06 3.22283e-06 -1.00471e-05
-1.74978e-06 -2.83542e-05 -1.78767e-05
1.89204e-06 5.29882e-06 -9.58431e-06
-1.13822e-07 6.10493e-06 -1.00386e-05
-3.78487e-06 4.12769e-06 -9.57826e-06
-5.62261e-06 3.03415e-06 -1.02851e-05
-5.16541e-06 1.04066e-06 -9.21347e-06
-7.52714e-06 -6.17383e-08 -1.11722e-05
-4.33432e-06 -8.10268e-07 -8.38173e-06
-3.10855e-06 1.87231e-06 -7.37396e-06
-2.20808e-05 -3.60769e-06 -1.65156e-05
2.34059e-05 -1.56878e-05 -1.7836e-05
-1.50718e-06 2.11676e-05 -1.66818e-05
2.12613e-05 -8.45182e-08 -1.62255e-05
1.76218e-05 -1.64677e-06 -1.55812e-05
1.73475e-05 -4.9416e-06 -1.57705e-05
2.18913e-05 -7.451e-06 -1.69134e-05
-2.31819e-05 -1.42544e-05 -1.78325e-05
1.73244e-05 1.64885e-06 -1.55083e-05
-1.73399e-06 2.84727e-05 -1.78939e-05
-4.22066e-07 3.68337e-06 -7.49519e-06
2.37717e-05 1.57422e-05 -1.78844e-05
-1.74971e-05 1.5642e-05 -1.69747e-05
-1.06261e-05 -1.84658e-05 -1.62548e-05
-1.00994e-05 -1.43421e-05 -1.55715e-05
-7.50766e-06 -1.60946e-05 -1.56218e-05
-7.32203e-06 -2.01202e-05 -1.63951e-05
-1.07043e-05 1.8535e-05 -1.62666e-05
-1.03472e-05 1.43839e-05 -1.56191e-05
-7.77254e-06 2.04921e-05 -1.6444e-05
-4.25294e-06 1.86094e-05 -1.60528e-05
1.07595e-05 1.83452e-05 -1.62259e-05
1.38915e-05 1.69347e-05 -1.64308e-05
1.40418e-05 1.29727e-05 -1.60511e-05
-7.36147e-06 1.62881e-05 -1.56383e-05
1.0525e-05 1.45468e-05 -1.5645e-05
7.74864e-06 1.60921e-05 -1.56137e-05
-3.11643e-06 -1.89874e-06 -7.39308e-06
-7.25754e-06 -1.24218e-05 -1.46249e-05
3.00863e-06 4.03597e-08 -6.60089e-06
4.87251e-06 1.35226e-05 -1.46179e-05
1.40758e-05 -2.26036e-06 -1.45702e-05
-1.72895e-05 -1.52165e-05 -1.69453e-05
-1.73662e-05 2.42027e-06 -1.55976e-05
-1.22045e-05 8.91182e-06 -1.49433e-05
-7.70553e-06 -2.29249e-06 -1.15545e-05
-1.24496e-05 1.18125e-05 -1.55398e-05
-1.42734e-07 -3.75418e-06 -7.55408e-06
2.7302e-06 2.27205e-06 -7.25184e-06
-2.00384e-06 -1.46503e-05 -1.48079e-05
9.36497e-06 -1.00681e-05 -1.43892e-05
1.38606e-05 3.15777e-06 -1.45659e-05
-7.33995e-06 1.11992e-05 -1.42601e-05
4.99716e-06 -1.27746e-05 -1.43691e-05
1.10317e-05 1.04304e-05 -1.49195e-05
-3.5964e-06 1.46851e-05 -1.49078e-05
-4.63541e-06 -1.66167e-05 -1.55486e-05
-1.95069e-05 1.28923e-05 -1.71611e-05
-2.31267e-05 1.4858e-05 -1.78433e-05
-1.29048e-05 -1.26859e-05 -1.58124e-05
3.76076e-06 -1.58611e-06 -7.90685e-06
1.76438e-06 2.92225e-06 -7.08435e-06
-9.23037e-06 -1.06093e-05 -1.45316e-05
1.72772e-06 -2.82313e-06 -6.93098e-06
9.94725e-07 2.41166e-05 -1.73083e-05
2.13677e-05 1.11937e-05 -1.72985e-05
-1.46645e-05 -7.9533e-06 -1.54852e-05
1.37079e-05 -4.78626e-06 -1.46905e-05
-1.90987e-06 -2.17627e-05 -1.68026e-05
1.80602e-05 -8.41897e-06 -1.63406e-05
-1.66787e-05 -6.3285e-06 -1.57823e-05
-4.32897e-07 -1.92231e-06 -4.79842e-06
-1.80535e-06 2.99541e-06 -7.1771e-06
-2.50518e-05 -1.29817e-05 -1.79222e-05
-2.5127e-05 -1.45072e-05 -1.8002e-05
-2.5045e-05 1.30336e-05 -1.79059e-05
-2.51178e-05 1.46499e-05 -1.7982e-05
-1.64844e-06 -3.12482e-06 -7.20983e-06
6.32788e-06 1.13683e-05 -1.40764e-05
5.33708e-07 -2.40859e-05 -1.73021e-05
-5.22774e-07 1.80953e-06 -4.64496e-06
7.40738e-06 -1.43435e-05 -1.51522e-05
2.33027e-05 -1.32092e-05 -1.77287e-05
2.36325e-05 -1.05374e-05 -1.74907e-05
1.19883e-05 -1.82107e-05 -1.62931e-05
1.473e-05 -1.01465e-05 -1.57955e-05
-1.0027e-05 1.00124e-06 -1.27545e-05
-1.74e-06 -8.15896e-07 -4.72341e-06
7.69058e-07 3.70832e-06 -7.57306e-06
2.34305e-06 -1.99714e-06 -6.55522e-06
2.01563e-05 5.89776e-06 -1.64535e-05
5.07005e-06 2.05957e-05 -1.64959e-05
3.42117e-07 -2.76798e-05 -1.78539e-05
-1.73121e-06 7.09106e-07 -4.60628e-06
-3.21148e-06 6.23043e-07 -6.82407e-06
3.57719e-06 1.4754e-06 -7.63654e-06
4.99225e-07 2.83236e-05 -1.79272e-05
2.47602e-05 1.3734e-05 -1.79183e-05
-2.03282e-05 1.55357e-05 -1.74289e-05
1.1787e-06 1.36446e-06 -4.45981e-06
-2.06394e-05 -1.57283e-05 -1.75275e-05
-1.89987e-05 -2.32216e-06 -1.5946e-05
-1.9559e-05 -5.58493e-06 -1.63321e-05
9.05675e-07 -3.24773e-06 -7.00603e-06
-4.36599e-06 -1.97891e-05 -1.63217e-05
-7.9372e-06 1.38343e-05 -1.51009e-05
1.16574e-06 -1.30417e-06 -4.33925e-06
1.19343e-05 -1.12282e-05 -1.5292e-05
6.13303e-06 -2.26959e-05 -1.68204e-05
-1.4522e-05 1.43552e-05 -1.63235e-05
7.929e-06 1.33211e-05 -1.49478e-05
SCALARS effective_fluid_pressure_TPM float
LOOKUP_TABLE default
665
665
665
665
665
665
665
665
665
665
665
665
665
665
133
665
665
665
665
665
665
665
665
665
665
665
665
665
665
133
665
560.315
520.659
502.799
502.569
519.785
559.935
665
561.982
520.753
503.241
503.351
520.685
561.604
665
559.602
519.656
502.743
502.961
521.154
561.62
665
558.859
519
501.532
502.228
518.849
559.447
665
558.499
519.94
501.864
501.796
519.373
557.938
665
558.655
519.954
502.037
501.898
519.361
559.661
133
133
133
133
133
133
665
560.315
520.659
502.799
502.569
519.785
559.935
665
561.982
520.753
503.241
503.351
520.685
561.604
665
559.602
519.656
502.743
502.961
521.154
561.62
665
558.859
519
501.532
502.228
518.849
559.447
665
558.499
519.94
501.864
501.796
519.373
557.938
665
558.655
519.954
502.037
501.898
519.361
559.661
133
133
133
133
133
133
228.254
226.325
227.038
224.106
225.522
219.844
220.86
529.159
528.169
526.548
527.927
526.575
527.628
498.694
503.541
501.58
498.935
501.452
501.233
494.315
562.497
518.973
495.019
480.725
461.345
443.265
425.033
402.107
427.258
385.253
417.725
379.6
417.889
385.938
427.374
404.285
444.368
429.063
450.245
386.547
419.289
380.195
418.3
386.177
427.747
404.213
444.479
428.147
450.841
386.022
418.152
379.611
418.508
385.545
427.583
402.907
443.541
426.439
384.039
416.125
376.295
415.332
383.011
424.405
400.833
441.691
425.213
382.747
417.765
376.56
418.082
383.833
425.253
402.2
442.663
450.635
426.712
445.993
380.72
444.659
465.275
448.727
464.748
453.396
350.896
463.49
461.022
478.429
462.757
460.627
478.333
337.271
480.805
505.838
503.597
480.871
506.144
337.684
337.495
326.159
334.409
563.373
519.648
567.574
562.36
567.892
567.745
521.797
542.709
498.609
513.722
542.054
451.438
477.556
414.643
579.516
611.026
579.668
576.029
534.543
494.459
538.217
537.914
485.016
498.095
503.314
473.117
485.063
352.74
326.409
355.17
503.423
477.694
488.337
520.866
502.006
477.892
335.534
335.398
347.693
613.444
337.372
347.564
337.258
353.196
329.183
373.247
310.654
288.783
504.689
608.379
521.087
493.699
478.304
486.333
526.481
600.337
476.541
615.897
291.392
615.796
528.71
494.51
478.211
479.385
501.293
494.817
479.412
502.488
495.152
493.721
502.24
495.225
479.859
480.025
479.027
289.289
454.567
271.938
454.975
453.604
526.99
479.448
465.198
382.09
480.484
292.664
286.077
461.454
449.609
453.952
445.83
448.664
463.579
463.237
479.928
543.449
601.699
487.469
300.296
282.456
452.989
279.158
552.232
551.991
480.75
457.993
526.212
508.164
488.566
233.726
284.553
614.504
636.32
615.138
636.677
285.275
441.315
553.072
230.482
467.527
590.259
566.026
495.79
490.025
410.021
232.116
293.091
271.121
507.872
509.17
607.812
229.659
276.971
294.425
618.876
618.789
558.506
226.519
562.519
488.288
503.371
280.842
504.042
466.353
224.004
473.56
519.558
502.957
462.419
228.254
226.325
227.038
224.106
225.522
219.844
220.86
529.159
528.169
526.548
527.927
526.575
527.628
498.694
503.541
501.58
498.935
501.452
501.233
494.315
562.497
518.973
495.019
480.725
461.345
443.265
425.033
402.107
427.258
385.253
417.725
379.6
417.889
385.938
427.374
404.285
444.368
429.063
450.245
386.547
419.289
380.195
418.3
386.177
427.747
404.213
444.479
428.147
450.841
386.022
418.152
379.611
418.508
385.545
427.583
402.907
443.541
426.439
384.039
416.125
376.295
415.332
383.011
424.405
400.833
441.691
425.213
382.747
417.765
376.56
418.082
383.833
425.253
402.2
442.663
450.635
426.712
445.993
380.72
444.659
465.275
448.727
464.748
453.396
350.896
463.49
461.022
478.429
462.757
460.627
478.333
337.271
480.805
505.838
503.597
480.871
506.144
337.684
337.495
326.159
334.409
563.373
519.648
567.574
562.36
567.892
567.745
521.797
542.709
498.609
513.722
542.054
451.438
477.556
414.643
579.516
611.026
579.668
576.029
534.543
494.459
538.217
537.914
485.016
498.095
503.314
473.117
485.063
352.74
326.409
355.17
503.423
477.694
488.337
520.866
502.006
477.892
335.534
335.398
347.693
613.444
337.372
347.564
337.258
353.196
329.183
373.247
310.654
288.783
504.689
608.379
521.087
493.699
478.304
486.333
526.481
600.337
476.541
615.897
291.392
615.796
528.71
494.51
478.211
479.385
501.293
494.817
479.412
502.488
495.152
493.721
502.24
495.225
479.859
480.025
479.027
289.289
454.567
271.938
454.975
453.604
526.99
479.448
465.198
382.09
480.484
292.664
286.077
461.454
449.609
453.952
445.83
448.664
463.579
463.237
479.928
543.449
601.699
487.469
300.296
282.456
452.989
279.158
552.232
551.991
480.75
457.993
526.212
508.164
488.566
233.726
284.553
614.504
636.32
615.138
636.677
285.275
441.315
553.072
230.482
467.527
590.259
566.026
495.79
490.025
410.021
232.116
293.091
271.121
507.872
509.17
607.812
229.659
276.971
294.425
618.876
618.789
558.506
226.519
562.519
488.288
503.371
280.842
504.042
466.353
224.004
473.56
519.558
502.957
462.419

CELL_DATA 563
TENSORS stress float
164.609 -24.9203 -8.28967e-13
-24.9203 28.148 2.71901e-12
-8.28967e-13 2.71901e-12 -12.6047

-40.3384 -21.3202 -2.96067e-12
-21.3202 -7.35469 -2.95527e-12
-2.96067e-12 -2.95527e-12 -10.2315

-9.9398 28.043 -4.06194e-13
28.043 -1.11025 -2.80102e-12
-4.06194e-13 -2.80102e-12 -6.35986

-40.4267 -29.8427 3.84552e-12
-29.8427 -12.8459 -1.44803e-12
3.84552e-12 -1.44803e-12 -10.5978

-22.6925 19.9309 -5.18785e-12
19.9309 -1.92232 1.90374e-12
-5.18785e-12 1.90374e-12 -23.0216

-27.1391 -18.0743 7.76268e-13
-18.0743 15.8879 2.14051e-12
7.76268e-13 2.14051e-12 -6.41063

161.26 26.4844 -2.63848e-12
26.4844 28.0247 2.30097e-12
-2.63848e-12 2.30097e-12 -13.2635

-5.96126 29.9577 1.00779e-12
29.9577 -10.1119 -1.21029e-12
1.00779e-12 -1.21029e-12 -7.27593

34.631 5.4831 -5.16328e-13
5.4831 -19.0944 -4.40755e-12
-5.16328e-13 -4.40755e-12 -4.1217

11.8603 -7.47756 -2.23525e-13
-7.47756 -48.287 1.76348e-12
-2.23525e-13 1.76348e-12 -8.94669

104.193 16.3084 1.84978e-12
16.3084 -8.44346 -7.81242e-12
1.84978e-12 -7.81242e-12 -22.4544

-34.6372 -13.4531 1.76822e-12
-13.4531 18.9658 -9.15416e-13
1.76822e-12 -9.15416e-13 -7.18019

-6.02583 27.833 -7.72715e-13
27.833 -4.59141 -5.02295e-12
-7.72715e-13 -5.02295e-12 -6.15879

-35.5514 -14.34 6.98839e-13
-14.34 7.84497 1.23457e-12
6.98839e-13 1.23457e-12 -9.13103

-23.6537 33.3114 -1.22598e-12
33.3114 -24.9942 -2.36622e-12
-1.22598e-12 -2.36622e-12 -21.3651

21.3107 0.560966 -9.69891e-13
0.560966 -32.3381 -2.15753e-14
-9.69891e-13 -2.15753e-14 -5.58925

-48.9595 -17.9692 2.02041e-12
-17.9692 6.34297 5.70151e-12
2.02041e-12 5.70151e-12 -12.9459

11.6601 -2.6652 3.77713e-12
-2.6652 -43.2484 -3.41283e-12
3.77713e-12 -3.41283e-12 -8.03313

-11.3494 26.6735 -4.45096e-12
26.6735 19.5173 1.14516e-12
-4.45096e-12 1.14516e-12 -6.08897

21.7655 -4.19554 2.0363e-12
-4.19554 -35.294 4.36288e-12
2.0363e-12 4.36288e-12 -6.7408

-24.4787 8.66851 1.04035e-12
8.66851 32.1274 -6.08698e-13
1.04035e-12 -6.08698e-13 -4.93385

-11.8088 6.28773 1.73324e-13
6.28773 -11.9741 -4.43364e-12
1.73324e-13 -4.43364e-12 -75.6216

22.7431 1.87597 -1.202e-12
1.87597 -33.4684 -2.70791e-12
-1.202e-12 -2.70791e-12 -6.67678

-12.3877 -27.7149 5.44039e-12
-27.7149 1.59979 -3.07428e-12
5.44039e-12 -3.07428e-12 -6.60228

21.3043 6.84933 -2.12808e-12
6.84933 -34.3035 -6.82077e-12
-2.12808e-12 -6.82077e-12 -6.80603

-37.9049 19.1128 -4.01679e-13
19.1128 2.65397 1.58096e-13
-4.01679e-13 1.58096e-13 -9.45727

106.602 4.18133 -2.13163e-14
4.18133 20.6025 -4.48619e-12
-2.13163e-14 -4.48619e-12 -12.0494

-5.30162 30.7456 -3.05415e-12
30.7456 -7.272 2.48631e-12
-3.05415e-12 2.48631e-12 -7.44115

27.8899 37.074 -2.7948e-12
37.074 26.469 -4.30589e-12
-2.7948e-12 -4.30589e-12 -8.6319

-9.4391 10.3235 -1.31391e-12
10.3235 -32.9304 -2.28062e-12
-1.31391e-12 -2.28062e-12 -49.5094

19.8306 14.2168 3.35435e-12
14.2168 -29.3588 -1.88175e-12
3.35435e-12 -1.88175e-12 -6.00051

-4.20997 -17.7802 -5.74355e-14
-17.7802 59.6571 -2.82559e-12
-5.74355e-14 -2.82559e-12 -8.4758

66.2824 -42.1013 -5.29828e-12
-42.1013 71.1376 8.95284e-12
-5.29828e-12 8.95284e-12 -11.2522

-48.2101 5.9868 -6.84314e-13
5.9868 7.26961 -4.7861e-12
-6.84314e-13 -4.7861e-12 -41.038

-26.2912 -4.84075 -2.75942e-12
-4.84075 1.75673 4.76004e-12
-2.75942e-12 4.76004e-12 -37.8029

-1.46676 21.0279 -8.22453e-13
21.0279 -39.5066 -4.13462e-12
-8.22453e-13 -4.13462e-12 -41.1039

-43.9762 5.06757 1.2849e-13
5.06757 0.514232 -5.92119e-16
1.2849e-13 -5.92119e-16 -52.1918

-2.76002 -9.16992 2.32347e-12
-9.16992 -20.7699 -1.87881e-12
2.32347e-12 -1.87881e-12 -35.8973

-3.97404 -27.9979 -9.40877e-13
-27.9979 -4.61042 -1.38023e-12
-9.40877e-13 -1.38023e-12 -5.99412

65.5962 41.5206 -5.38118e-12
41.5206 73.1652 -3.11218e-12
-5.38118e-12 -3.11218e-12 -10.9639

60.1545 -17.9489 7.56728e-13
-17.9489 0.117207 3.54324e-12
7.56728e-13 3.54324e-12 -8.04979

-41.8039 -3.70611 3.44095e-12
-3.70611 -1.18565 1.70057e-12
3.44095e-12 1.70057e-12 -52.7267

-14.594 19.5556 -1.09586e-12
19.5556 -28.5517 -2.29387e-12
-1.09586e-12 -2.29387e-12 -52.8349

18.1409 -12.2732 3.45679e-12
-12.2732 -29.8986 4.37132e-13
3.45679e-12 4.37132e-13 -6.2227

38.1727 -43.2985 -6.15804e-14
-43.2985 41.8007 8.73968e-13
-6.15804e-14 8.73968e-13 -14.5589

58.1432 -18.0632 -5.2817e-13
-18.0632 -2.30247 1.85925e-12
-5.2817e-13 1.85925e-12 -7.91337

-21.4414 17.0855 3.69097e-12
17.0855 30.327 -4.34615e-13
3.69097e-12 -4.34615e-13 -5.72791

-11.3724 19.3388 -3.83367e-12
19.3388 25.5104 3.59357e-12
-3.83367e-12 3.59357e-12 -3.92133

20.7911 -16.3009 -2.2613e-12
-16.3009 -33.1139 -5.1991e-12
-2.2613e-12 -5.1991e-12 -7.31128

12.6153 -34.1849 3.48699e-12
-34.1849 46.435 -2.11979e-13
3.48699e-12 -2.11979e-13 -10.3971

62.3593 19.1815 -5.66184e-12
19.1815 2.81045 -1.01015e-12
-5.66184e-12 -1.01015e-12 -8.41374

46.513 -25.288 7.21201e-13
-25.288 5.13422 6.89671e-12
7.21201e-13 6.89671e-12 -5.60972

-31.8956 19.4858 7.78784e-13
19.4858 -4.28555 -2.34479e-13
7.78784e-13 -2.34479e-13 -26.0857

37.0388 29.6489 1.27069e-12
29.6489 14.5126 -3.3206e-12
1.27069e-12 -3.3206e-12 -5.43215

-27.45 -21.8128 -4.12411e-13
-21.8128 -8.22825 -3.60803e-12
-4.12411e-13 -3.60803e-12 -25.248

64.8679 -42.7106 1.42109e-14
-42.7106 44.0795 1.36424e-12
1.42109e-14 1.36424e-12 -9.50208

-27.7496 5.45976 -4.55502e-12
5.45976 2.66933 -2.24117e-12
-4.55502e-12 -2.24117e-12 -38.3085

-5.55747 -5.3297 -5.68434e-14
-5.3297 57.3874 -2.22163e-12
-5.68434e-14 -2.22163e-12 -5.44918

-0.200104 10.3842 -2.78414e-12
10.3842 -24.8482 5.05873e-13
-2.78414e-12 5.05873e-13 -38.3701

-26.4847 21.4128 -1.9306e-12
21.4128 12.2195 1.96702e-12
-1.9306e-12 1.96702e-12 -6.86923

4.72648 5.75385 -2.69029e-12
5.75385 -56.04 -5.55496e-12
-2.69029e-12 -5.55496e-12 -13.9806

0.539755 11.4589 -1.26595e-12
11.4589 -34.0564 3.46804e-12
-1.26595e-12 3.46804e-12 -14.8396

106.342 31.8195 3.21876e-12
31.8195 37.8325 1.73728e-12
3.21876e-12 1.73728e-12 -7.48971

-35.4916 -6.03511 -6.16499e-12
-6.03511 10.6012 5.8975e-13
-6.16499e-12 5.8975e-13 -13.4788

-35.3599 9.51968 -3.16591e-12
9.51968 1.2336 2.53249e-12
-3.16591e-12 2.53249e-12 -14.9599

-42.5874 -2.88076 -1.99799e-12
-2.88076 21.1109 -3.81917e-13
-1.99799e-12 -3.81917e-13 -11.2386

-44.9077 23.402 -1.28486e-12
23.402 -5.89261 -1.17684e-12
-1.28486e-12 -1.17684e-12 -13.9215

9.97104 8.46346 -1.05012e-12
8.46346 -42.3776 3.69926e-13
-1.05012e-12 3.69926e-13 -9.0775

-12.3341 -28.239 4.39204e-12
-28.239 1.68744 -2.80072e-12
4.39204e-12 -2.80072e-12 -6.67344

1.30886 -1.71122 -9.68707e-13
-1.71122 -55.4561 2.62294e-12
-9.68707e-13 2.62294e-12 -11.3037

-31.8851 -19.2618 -2.01705e-12
-19.2618 -4.59492 1.4199e-12
-2.01705e-12 1.4199e-12 -25.955

-27.9755 21.3078 4.46695e-12
21.3078 -8.35809 -4.34712e-13
4.46695e-12 -4.34712e-13 -26.0134

-0.65153 -16.5832 3.03683e-12
-16.5832 61.6729 2.8777e-13
3.03683e-12 2.8777e-13 -7.94864

-0.650107 -27.936 -2.17248e-12
-27.936 -21.3606 -2.05554e-12
-2.17248e-12 -2.05554e-12 -12.7907

-14.0929 -25.1344 9.58937e-13
-25.1344 7.40684 1.6751e-12
9.58937e-13 1.6751e-12 -5.23554

91.6767 -31.7102 1.77636e-12
-31.7102 19.4846 1.13065e-12
1.77636e-12 1.13065e-12 -16.3332

-33.7058 3.2226 3.27952e-12
3.2226 9.19931 2.2767e-12
3.27952e-12 2.2767e-12 -18.5635

2.75228 28.9437 2.63434e-12
28.9437 -24.4245 1.9306e-12
2.63434e-12 1.9306e-12 -11.3162

-38.4331 19.6641 4.02286e-12
19.6641 5.22975 1.74409e-12
4.02286e-12 1.74409e-12 -9.23475

50.19 7.99941 1.36187e-13
7.99941 -16.9633 -1.02969e-12
1.36187e-13 -1.02969e-12 -7.06649

60.0308 -33.935 9.45022e-13
-33.935 33.7866 3.19744e-13
9.45022e-13 3.19744e-13 -6.98356

-18.9598 -10.5875 -1.79146e-12
-10.5875 -0.541785 6.67851e-12
-1.79146e-12 6.67851e-12 -25.4314

-33.9261 23.8994 2.94165e-12
23.8994 -12.023 -1.91999e-12
2.94165e-12 -1.91999e-12 -14.54

58.1555 -32.3833 9.75812e-13
-32.3833 18.0913 2.27374e-13
9.75812e-13 2.27374e-13 -10.1336

66.8588 10.7909 -9.18969e-13
10.7909 8.51333 -2.73455e-12
-9.18969e-13 -2.73455e-12 -5.08415

7.67413 -21.2057 -2.28321e-12
-21.2057 88.4634 2.11742e-12
-2.28321e-12 2.11742e-12 -11.8622

-33.9853 14.4255 -2.55795e-13
14.4255 20.2383 4.12115e-13
-2.55795e-13 4.12115e-13 -7.54598

8.47554 23.1428 3.20218e-12
23.1428 -26.0736 -3.55834e-12
3.20218e-12 -3.55834e-12 -11.2989

34.8684 42.198 -3.03402e-12
42.198 46.1988 3.67114e-14
-3.03402e-12 3.67114e-14 -14.4204

-4.39443 16.5071 -1.16852e-11
16.5071 -35.5421 -8.49987e-13
-1.16852e-11 -8.49987e-13 -73.2882

-5.97956 -4.10828 -2.57986e-12
-4.10828 57.9478 4.05838e-12
-2.57986e-12 4.05838e-12 -5.44137

-1.8188 -16.6323 -1.43924e-11
-16.6323 -39.4022 6.30459e-13
-1.43924e-11 6.30459e-13 -74.1115

-3.32938 -27.3349 -1.14634e-12
-27.3349 -30.0298 -3.44554e-12
-1.14634e-12 -3.44554e-12 -21.5542

8.96717 27.4245 2.16301e-12
27.4245 -29.9946 1.43796e-12
2.16301e-12 1.43796e-12 -11.2568

45.7108 -24.4102 -1.3903e-12
-24.4102 5.02451 4.52912e-12
-1.3903e-12 4.52912e-12 -5.23579

10.0954 31.3227 -2.62131e-12
31.3227 47.1628 1.60583e-12
-2.62131e-12 1.60583e-12 -9.64008

14.2724 -10.7049 -2.66572e-12
-10.7049 82.8379 9.66338e-13
-2.66572e-12 9.66338e-13 -6.44687

-38.6329 21.9706 -1.31125e-12
21.9706 2.94158 9.60121e-13
-1.31125e-12 9.60121e-13 -8.5687

1.19266 16.794 2.87918e-12
16.794 -25.722 -2.25509e-12
2.87918e-12 -2.25509e-12 -18.5676

-26.5375 15.1537 1.53078e-12
15.1537 18.4493 -4.46162e-12
1.53078e-12 -4.46162e-12 -5.70761

43.6584 15.9536 2.69651e-12
15.9536 -7.28469 2.46114e-12
2.69651e-12 2.46114e-12 -4.07478

12.5771 -21.4722 8.44954e-13
-21.4722 57.955 8.89363e-13
8.44954e-13 8.89363e-13 -4.71376

65.9957 -29.3901 1.74557e-12
-29.3901 18.6435 1.04177e-11
1.74557e-12 1.04177e-11 -9.33508

-32.381 -24.5728 3.47411e-12
-24.5728 -7.28156 -1.89182e-13
3.47411e-12 -1.89182e-13 -8.97594

-22.6667 27.4508 2.65625e-12
27.4508 -10.35 -1.2399e-12
2.65625e-12 -1.2399e-12 -9.28354

-38.3511 23.1875 3.10966e-12
23.1875 1.99109 1.92735e-13
3.10966e-12 1.92735e-13 -8.52459

-51.5532 13.1692 -1.88716e-12
13.1692 11.927 7.14688e-13
-1.88716e-12 7.14688e-13 -16.4662

23.4845 9.37221 -7.69755e-13
9.37221 -29.4874 4.61705e-12
-7.69755e-13 4.61705e-12 -5.32111

3.76881 -4.66499 -2.75276e-12
-4.66499 79.4371 4.59958e-12
-2.75276e-12 4.59958e-12 -9.53121

-44.9399 -36.8333 -1.22391e-12
-36.8333 -19.8289 -2.28055e-12
-1.22391e-12 -2.28055e-12 -14.7705

-16.0792 27.465 4.35474e-12
27.465 1.34116 -5.11532e-12
4.35474e-12 -5.11532e-12 -6.91423

-5.01503 2.1703 3.51748e-12
2.1703 82.6725 2.62901e-13
3.51748e-12 2.62901e-13 -13.431

69.0446 34.6098 2.32347e-12
34.6098 15.4966 1.22805e-12
2.32347e-12 1.22805e-12 -10.7057

-31.3515 -22.9737 -1.48326e-13
-22.9737 -4.63237 5.00637e-13
-1.48326e-13 5.00637e-13 -8.52944

11.7429 5.73296 1.23368e-12
5.73296 -48.3358 -2.35367e-14
1.23368e-12 -2.35367e-14 -8.641

43.0653 27.2036 -1.8782e-12
27.2036 10.4521 2.53427e-13
-1.8782e-12 2.53427e-13 -5.08053

-9.41486 12.7455 -8.55464e-13
12.7455 -14.039 4.31625e-12
-8.55464e-13 4.31625e-12 -37.041

70.3337 24.3301 6.65542e-13
24.3301 23.8048 -2.51177e-12
6.65542e-13 -2.51177e-12 -6.79935

-10.5861 -13.0551 -1.4686e-12
-13.0551 -13.9208 -4.04417e-12
-1.4686e-12 -4.04417e-12 -37.3788

-4.37923 0.778521 -3.97297e-12
0.778521 59.3974 -1.73609e-12
-3.97297e-12 -1.73609e-12 -4.83038

38.3566 -2.23528 -1.6982e-12
-2.23528 -23.8102 -1.83694e-12
-1.6982e-12 -1.83694e-12 -5.83194

3.59375 -15.768 3.42911e-12
-15.768 -53.9713 1.9836e-12
3.42911e-12 1.9836e-12 -21.1242

-42.2769 24.3881 -4.7082e-13
24.3881 -11.7369 -6.34752e-13
-4.7082e-13 -6.34752e-13 -11.1672

-46.8123 -13.535 3.66947e-13
-13.535 11.0674 9.34956e-13
3.66947e-13 9.34956e-13 -12.3536

5.81018 -8.00001 -1.26965e-12
-8.00001 -70.9677 3.15155e-12
-1.26965e-12 3.15155e-12 -14.8817

-49.5391 -22.2841 -4.89372e-12
-22.2841 3.74857 2.27196e-12
-4.89372e-12 2.27196e-12 -22.1042

-17.4593 -6.59644 -8.26598e-13
-6.59644 -13.1158 -1.18431e-12
-8.26598e-13 -1.18431e-12 -34.7818

-28.7296 -29.9081 8.03505e-13
-29.9081 -9.39985 -9.81141e-13
8.03505e-13 -9.81141e-13 -8.99573

15.6935 11.4535 3.04941e-12
11.4535 80.1793 -9.82917e-13
3.04941e-12 -9.82917e-13 -6.53053

42.2896 -28.146 -6.22554e-12
-28.146 11.051 -4.14246e-12
-6.22554e-12 -4.14246e-12 -5.04377

-47.1705 -13.7722 3.33607e-12
-13.7722 4.19614 6.15804e-13
3.33607e-12 6.15804e-13 -29.3008

2.96488 0.50441 -1.71522e-12
0.50441 -56.8118 -2.86119e-12
-1.71522e-12 -2.86119e-12 -11.0049

-39.3364 -21.5245 5.07594e-13
-21.5245 -8.8573 1.17713e-12
5.07594e-13 1.17713e-12 -14.7741

-40.1949 25.6976 -3.58972e-13
25.6976 -14.6915 2.2391e-12
-3.58972e-13 2.2391e-12 -11.3106

32.2602 -31.4639 -4.44563e-12
-31.4639 38.429 1.45306e-12
-4.44563e-12 1.45306e-12 -4.64794

-31.4688 -7.08511 -6.29075e-12
-7.08511 1.70026 3.89318e-13
-6.29075e-12 3.89318e-13 -40.9931

36.6296 -33.0762 1.75504e-12
-33.0762 72.0264 4.99748e-13
1.75504e-12 4.99748e-13 -7.14465

16.6126 -19.1794 -2.11564e-12
-19.1794 -25.8695 -2.05169e-13
-2.11564e-12 -2.05169e-13 -7.13297

1.5026 1.97024 -2.75446e-12
1.97024 -51.3914 -1.49332e-12
-2.75446e-12 -1.49332e-12 -15.3741

-12.8761 17.8751 -9.47094e-13
17.8751 -16.9549 -1.98656e-13
-9.47094e-13 -1.98656e-13 -41.0607

10.7132 20.1824 -5.36164e-12
20.1824 59.4534 -2.58874e-12
-5.36164e-12 -2.58874e-12 -4.3564

4.31846 27.2103 3.03106e-12
27.2103 -16.2235 2.60384e-12
3.03106e-12 2.60384e-12 -8.12397

30.9043 -24.5112 7.66083e-12
-24.5112 -8.13197 6.86355e-12
7.66083e-12 6.86355e-12 -4.87183

-37.7871 -17.8384 -5.7195e-14
-17.8384 2.40088 -1.32102e-12
-5.7195e-14 -1.32102e-12 -9.86413

55.513 35.0676 1.71122e-12
35.0676 42.345 3.54324e-12
1.71122e-12 3.54324e-12 -6.63616

-40.0148 -21.831 -4.46236e-12
-21.831 2.53687 -1.95606e-12
-4.46236e-12 -1.95606e-12 -9.39364

2.96664 30.8502 4.05305e-12
30.8502 -17.388 -5.25121e-12
4.05305e-12 -5.25121e-12 -9.07796

18.5373 -25.2438 -8.18308e-13
-25.2438 -19.4175 -1.10519e-12
-8.18308e-13 -1.10519e-12 -6.34214

-15.6534 -25.1261 -2.06975e-12
-25.1261 5.89566 -1.50398e-12
-2.06975e-12 -1.50398e-12 -5.77517

42.7179 -18.6878 5.26986e-13
-18.6878 -9.16541 7.77571e-12
5.26986e-13 7.77571e-12 -5.36877

27.4317 -18.8493 -2.83151e-12
-18.8493 -20.3679 3.93789e-12
-2.83151e-12 3.93789e-12 -5.68939

-41.3938 -25.3369 -4.8539e-13
-25.3369 -14.964 -6.01371e-13
-4.8539e-13 -6.01371e-13 -11.5668

29.7807 35.9686 9.46206e-13
35.9686 25.2269 1.83202e-12
9.46206e-13 1.83202e-12 -8.64401

-28.5179 15.3765 -1.26506e-12
15.3765 18.5188 1.41339e-12
-1.26506e-12 1.41339e-12 -5.87363

-23.1078 26.422 3.16251e-12
26.422 -12.5466 -1.95962e-12
3.16251e-12 -1.95962e-12 -9.95776

-42.0964 25.4736 6.302e-13
25.4736 -11.5925 -1.31332e-12
6.302e-13 -1.31332e-12 -10.9925

-37.2882 11.6214 8.04859e-13
11.6214 11.8441 4.26859e-12
8.04859e-13 4.26859e-12 -9.0802

64.3923 -8.22683 3.05889e-12
-8.22683 3.19791 5.38932e-12
3.05889e-12 5.38932e-12 -4.25052

8.73401 18.606 1.33523e-12
18.606 59.2192 -4.21707e-12
1.33523e-12 -4.21707e-12 -4.162

-25.6143 -24.3803 1.08239e-12
-24.3803 0.45848 1.69109e-12
1.08239e-12 1.69109e-12 -7.21519

-1.1414 25.6655 1.74912e-12
25.6655 13.7523 -2.06709e-12
1.74912e-12 -2.06709e-12 -4.08229

32.3784 -35.6285 4.80919e-12
-35.6285 21.7 -3.64449e-12
4.80919e-12 -3.64449e-12 -8.48572

59.5354 38.3158 4.51905e-12
38.3158 17.8476 -2.17426e-12
4.51905e-12 -2.17426e-12 -13.7221

12.1252 -33.3103 1.29496e-12
-33.3103 42.9129 -4.46339e-12
1.29496e-12 -4.46339e-12 -9.54235

30.5511 -31.1589 4.50603e-12
-31.1589 36.8132 -6.95385e-12
4.50603e-12 -6.95385e-12 -4.4051

11.7688 -6.83865 3.53495e-13
-6.83865 -48.8378 4.79513e-12
3.53495e-13 4.79513e-12 -8.76983

25.2743 30.3411 -3.23771e-12
30.3411 41.0886 -2.62546e-12
-3.23771e-12 -2.62546e-12 -4.4556

62.6813 13.2944 -3.35731e-12
13.2944 5.22838 1.73787e-13
-3.35731e-12 1.73787e-13 -4.30511

-7.02534 13.3785 8.93952e-13
13.3785 61.3434 -4.34023e-12
8.93952e-13 -4.34023e-12 -8.69458

11.7297 -22.3398 -1.8711e-12
-22.3398 55.7625 -4.47997e-12
-1.8711e-12 -4.47997e-12 -4.30106

-47.2606 -1.0915 7.26456e-13
-1.0915 12.4096 1.19963e-12
7.26456e-13 1.19963e-12 -22.1621

-5.91867 2.24655 -3.94499e-12
2.24655 59.0036 -1.73017e-12
-3.94499e-12 -1.73017e-12 -5.26209

6.26887 31.0885 -3.67706e-12
31.0885 47.8646 -2.69651e-12
-3.67706e-12 -2.69651e-12 -9.66014

-39.7252 12.1077 3.18278e-12
12.1077 12.8448 2.56269e-12
3.18278e-12 2.56269e-12 -9.31268

40.7378 -27.647 -1.96702e-12
-27.647 8.35772 -4.18628e-13
-1.96702e-12 -4.18628e-13 -5.64154

7.54005 20.5569 1.22805e-12
20.5569 -47.4668 2.5094e-12
1.22805e-12 2.5094e-12 -16.4816

-3.42105 26.2704 -2.93691e-13
26.2704 -31.4866 -3.04097e-12
-2.93691e-13 -3.04097e-12 -22.2525

15.7774 -18.5674 2.27611e-12
-18.5674 -30.0127 1.59902e-12
2.27611e-12 1.59902e-12 -8.18257

4.42873 -1.80111 -2.40001e-12
-1.80111 -34.133 -6.86059e-12
-2.40001e-12 -6.86059e-12 -24.4395

-14.3395 -31.8116 -1.26477e-12
-31.8116 -11.9302 1.76688e-12
-1.26477e-12 1.76688e-12 -9.0491

56.2175 23.3272 -4.7109e-12
23.3272 0.8171 -3.45797e-12
-4.7109e-12 -3.45797e-12 -8.2876

-27.828 30.162 9.2637e-13
30.162 -9.2364 3.86062e-13
9.2637e-13 3.86062e-13 -8.79998

-27.0035 29.2058 1.55283e-12
29.2058 -9.20176 3.21017e-12
1.55283e-12 3.21017e-12 -8.67726

28.6284 30.6602 4.68958e-13
30.6602 40.4054 1.80478e-12
4.68958e-13 1.80478e-12 -4.44862

0.3431 27.0849 2.14584e-12
27.0849 -19.8456 2.33591e-12
2.14584e-12 2.33591e-12 -11.7768

64.5072 3.52507 3.35021e-12
3.52507 -11.8253 -7.26197e-13
3.35021e-12 -7.26197e-13 -10.018

-14.8996 31.8172 -3.12461e-12
31.8172 -20.7987 -1.50813e-12
-3.12461e-12 -1.50813e-12 -12.4473

-37.9438 -12.5997 -5.6947e-13
-12.5997 8.18003 6.46594e-13
-5.6947e-13 6.46594e-13 -14.0226

-0.475041 24.2782 -1.80567e-12
24.2782 -29.999 8.5502e-13
-1.80567e-12 8.5502e-13 -20.7714

-23.7273 -29.5786 3.26258e-12
-29.5786 -11.9349 9.03277e-13
3.26258e-12 9.03277e-13 -8.84291

-38.148 -4.89809 2.16355e-12
-4.89809 18.8466 -1.21976e-13
2.16355e-12 -1.21976e-13 -11.7298

69.9437 -24.5558 -1.06581e-13
-24.5558 18.0288 9.36732e-13
-1.06581e-13 9.36732e-13 -7.04411

39.9818 29.6925 3.60956e-12
29.6925 13.4795 2.64796e-12
3.60956e-12 2.64796e-12 -5.21464

-4.29577 14.6962 -2.75513e-12
14.6962 60.5706 -9.76996e-13
-2.75513e-12 -9.76996e-13 -8.40052

1.61143 -1.13888 -3.29766e-12
-1.13888 -56.1232 4.16334e-12
-3.29766e-12 4.16334e-12 -11.2088

9.61413 0.00223111 1.98212e-12
0.00223111 -44.7536 -6.05099e-13
1.98212e-12 -6.05099e-13 -8.4375

-31.0785 23.1237 -5.24025e-12
23.1237 -4.33706 6.4689e-13
-5.24025e-12 6.4689e-13 -8.45795

-34.7625 23.8709 -1.07618e-12
23.8709 -13.1924 2.15176e-12
-1.07618e-12 2.15176e-12 -14.8129

-43.3786 -24.3807 -1.30962e-12
-24.3807 -12.6139 -7.70051e-13
-1.30962e-12 -7.70051e-13 -11.4683

-39.0589 -0.672735 1.38682e-12
-0.672735 21.0464 2.224e-12
1.38682e-12 2.224e-12 -10.4952

-40.8066 25.5903 -2.19114e-12
25.5903 -13.2224 -2.80398e-12
-2.19114e-12 -2.80398e-12 -11.172

32.3215 -10.3078 -6.09468e-12
-10.3078 -25.1531 -2.49948e-12
-6.09468e-12 -2.49948e-12 -6.01375

8.70685 -32.8329 -1.32871e-12
-32.8329 22.7976 -1.79886e-12
-1.32871e-12 -1.79886e-12 -6.99159

2.39686 -2.30066 1.33923e-12
-2.30066 -49.9606 1.47171e-12
1.33923e-12 1.47171e-12 -14.7725

36.7453 -34.5077 2.5319e-12
-34.5077 24.4796 -2.66454e-14
2.5319e-12 -2.66454e-14 -7.7088

-38.2938 19.0861 2.56891e-12
19.0861 -7.09369 -1.32457e-12
2.56891e-12 -1.32457e-12 -14.4493

7.87075 -26.4786 1.95873e-12
-26.4786 -27.9943 6.48666e-13
1.95873e-12 6.48666e-13 -10.9688

63.9467 -9.69009 8.32519e-13
-9.69009 5.67769 -1.85022e-12
8.32519e-13 -1.85022e-12 -5.072

6.04085 -23.1919 -3.65337e-13
-23.1919 -35.4681 -5.6873e-13
-3.65337e-13 -5.6873e-13 -17.736

0.141359 2.35826 2.23347e-12
2.35826 -56.174 -1.41072e-13
2.23347e-12 -1.41072e-13 -11.5458

-4.06202 -23.3213 3.27619e-12
-23.3213 -23.4116 -1.88619e-12
3.27619e-12 -1.88619e-12 -16.7199

11.0388 -25.8594 -7.9788e-12
-25.8594 -29.4856 2.1861e-12
-7.9788e-12 2.1861e-12 -9.73332

10.2014 -8.54605 1.0066e-13
-8.54605 -43.4896 2.19528e-12
1.0066e-13 2.19528e-12 -9.28104

-35.4182 -23.0681 2.83655e-12
-23.0681 -12.6457 1.9871e-12
2.83655e-12 1.9871e-12 -15.1029

23.6643 -31.3414 -3.26731e-12
-31.3414 5.71262 -7.04977e-12
-3.26731e-12 -7.04977e-12 -5.87783

11.0599 -24.5871 -5.17808e-12
-24.5871 -27.4944 4.7029e-12
-5.17808e-12 4.7029e-12 -10.0478

46.6427 10.8643 -2.13518e-12
10.8643 -16.1168 -2.43835e-12
-2.13518e-12 -2.43835e-12 -6.79946

-14.1861 26.3402 -2.3744e-12
26.3402 -15.6396 -4.88039e-12
-2.3744e-12 -4.88039e-12 -14.1188

-45.2518 -37.613 1.32339e-13
-37.613 -20.6124 -3.02243e-12
1.32339e-13 -3.02243e-12 -14.9189

-43.7086 37.2653 3.09027e-12
37.2653 -21.2662 -3.82583e-12
3.09027e-12 -3.82583e-12 -14.7693

-61.1852 -28.5734 -3.69815e-13
-28.5734 -7.49704 1.75948e-12
-3.69815e-13 1.75948e-12 -15.1994

-58.4161 27.0642 6.42449e-13
27.0642 -6.27167 -1.46727e-12
6.42449e-13 -1.46727e-12 -14.478

5.60066 -8.52766 1.47156e-12
-8.52766 -71.0642 -3.79948e-12
1.47156e-12 -3.79948e-12 -14.7095

4.39739 9.27367 -4.2224e-12
9.27367 -68.8328 -9.38509e-14
-4.2224e-12 -9.38509e-14 -14.4375

9.02398 -9.84611 -2.25124e-12
-9.84611 -40.8897 -5.90047e-13
-2.25124e-12 -5.90047e-13 -9.61154

-24.3355 32.1162 2.02209e-13
32.1162 -24.8101 3.58221e-12
2.02209e-13 3.58221e-12 -21.1453

-25.5229 -32.8543 2.72375e-14
-32.8543 -25.0961 1.15353e-12
2.72375e-14 1.15353e-12 -21.4695

-53.9201 16.0685 3.33511e-13
16.0685 3.40182 5.71099e-13
3.33511e-13 5.71099e-13 -21.4029

-52.4209 -15.801 -1.96243e-12
-15.801 3.29714 4.20701e-13
-1.96243e-12 4.20701e-13 -21.0762

6.11231 -3.74756 5.81165e-13
-3.74756 -43.9253 1.66119e-12
5.81165e-13 1.66119e-12 -25.7652

6.91847 3.61033 6.07662e-13
3.61033 -46.3488 3.8991e-13
6.07662e-13 3.8991e-13 -26.1416

-15.6254 9.83676 9.01131e-13
9.83676 46.2623 2.01084e-12
9.01131e-13 2.01084e-12 -5.84763

-22.9185 -24.774 -1.20467e-12
-24.774 -14.5522 -4.16704e-13
-1.20467e-12 -4.16704e-13 -10.3296

-56.6037 -36.3876 1.78361e-12
-36.3876 -14.5327 1.03177e-12
1.78361e-12 1.03177e-12 -13.4369

33.3582 -4.66426 2.36255e-12
-4.66426 -19.8466 4.70453e-12
2.36255e-12 4.70453e-12 -3.94474

3.43343 -16.6948 -3.86935e-12
-16.6948 -52.6289 -1.07203e-12
-3.86935e-12 -1.07203e-12 -21.5328

3.67456 16.1758 2.89546e-13
16.1758 -51.8846 3.45501e-13
2.89546e-13 3.45501e-13 -21.406

6.55577 0.121882 1.27306e-13
0.121882 -76.7551 1.83382e-12
1.27306e-13 1.83382e-12 -13.3038

-7.56925 23.3749 -8.70711e-13
23.3749 39.9355 8.01729e-13
-8.70711e-13 8.01729e-13 -6.88492

-56.8894 36.1716 3.49905e-12
36.1716 -14.0113 -1.02141e-12
3.49905e-12 -1.02141e-12 -13.3886

-39.7946 -23.3957 -1.28445e-12
-23.3957 2.56158 9.41469e-13
-1.28445e-12 9.41469e-13 -8.80061

37.1166 23.3525 6.46475e-12
23.3525 -8.61279 1.10549e-12
6.46475e-12 1.10549e-12 -5.75826

4.73538 23.8582 -7.95808e-13
23.8582 -38.2259 3.80792e-12
-7.95808e-13 3.80792e-12 -18.9858

24.0134 -31.3133 3.20928e-12
-31.3133 6.40849 -1.05042e-12
3.20928e-12 -1.05042e-12 -5.64781

2.4308 -3.23091 -2.08337e-12
-3.23091 -48.3698 -2.93247e-12
-2.08337e-12 -2.93247e-12 -14.7425

-60.4579 -34.161 -7.71679e-13
-34.161 -14.3498 -1.53092e-12
-7.71679e-13 -1.53092e-12 -14.0306

-17.4522 8.31987 -9.42098e-13
8.31987 45.6916 2.97244e-13
-9.42098e-13 2.97244e-13 -5.78067

-9.46849 21.8113 -9.48278e-13
21.8113 40.4249 -2.34479e-13
-9.48278e-13 -2.34479e-13 -6.6534

58.6032 35.7754 4.55458e-12
35.7754 37.0879 -1.76215e-12
4.55458e-12 -1.76215e-12 -6.91575

70.4835 1.57874 -4.448e-12
1.57874 -5.54268 -2.95682e-12
-4.448e-12 -2.95682e-12 -10.3738

-30.7595 -22.8044 -6.60805e-13
-22.8044 -13.3563 -1.54623e-12
-6.60805e-13 -1.54623e-12 -14.4659

32.8412 31.1835 -1.44951e-12
31.1835 69.7938 -1.86636e-12
-1.44951e-12 -1.86636e-12 -6.67925

-19.3763 23.6098 -3.2756e-12
23.6098 7.68694 9.6397e-13
-3.2756e-12 9.6397e-13 -5.51293

47.6368 -5.34949 -2.67993e-12
-5.34949 -17.4328 3.66758e-12
-2.67993e-12 3.66758e-12 -6.82141

33.2194 11.216 1.58096e-12
11.216 -23.6365 2.44486e-12
1.58096e-12 2.44486e-12 -6.01351

6.25429 0.429905 -5.15543e-12
0.429905 -77.5524 1.08047e-12
-5.15543e-12 1.08047e-12 -13.4495

-58.9359 -29.0311 -6.95e-14
-29.0311 -6.28808 -4.64517e-13
-6.95e-14 -4.64517e-13 -14.6969

-28.332 -6.319 -7.0454e-12
-6.319 -11.3585 1.15966e-12
-7.0454e-12 1.15966e-12 -51.5898

-44.6982 37.4117 -4.92643e-13
37.4117 -20.8115 2.75076e-12
-4.92643e-13 2.75076e-12 -14.7733

93.7898 1.66327 7.1528e-13
1.66327 16.6554 1.92069e-12
7.1528e-13 1.92069e-12 -6.04298

10.0366 -32.7866 -1.08121e-12
-32.7866 21.3109 -1.13687e-13
-1.08121e-12 -1.13687e-13 -6.80785

-56.9362 36.6131 -2.34331e-13
36.6131 -14.5712 -6.36084e-13
-2.34331e-13 -6.36084e-13 -13.5048

-35.0788 -11.1338 -3.05855e-12
-11.1338 19.1771 -6.11659e-13
-3.05855e-12 -6.11659e-13 -8.31614

-5.47719 -25.5143 1.26269e-12
-25.5143 37.3501 -5.66066e-13
1.26269e-12 -5.66066e-13 -6.98668

-58.4524 28.8301 7.44405e-13
28.8301 -6.27145 -2.34124e-12
7.44405e-13 -2.34124e-12 -14.614

28.4958 -26.1416 2.52776e-12
-26.1416 -4.91226 -3.66995e-12
2.52776e-12 -3.66995e-12 -4.69687

-21.1706 10.4834 3.53495e-13
10.4834 -18.559 1.36624e-12
3.53495e-13 1.36624e-12 -51.6853

3.43308 30.8716 -2.70125e-12
30.8716 27.1625 3.25784e-12
-2.70125e-12 3.25784e-12 -6.73264

6.14061 8.12675 3.75255e-13
8.12675 -72.2979 -1.87376e-12
3.75255e-13 -1.87376e-12 -14.9841

-11.5456 30.1906 5.11147e-12
30.1906 -20.6032 8.69527e-13
5.11147e-12 8.69527e-13 -11.549

-30.7974 23.3318 -1.47897e-12
23.3318 -5.09964 1.4803e-15
-1.47897e-12 1.4803e-15 -8.46401

-25.8637 -32.4889 -1.2396e-12
-32.4889 -24.1129 1.30886e-12
-1.2396e-12 1.30886e-12 -21.5589

9.20551 -23.1901 2.54907e-12
-23.1901 -27.9221 1.41576e-12
2.54907e-12 1.41576e-12 -11.4255

-37.6608 10.4707 -3.95528e-12
10.4707 8.92891 1.27661e-12
-3.95528e-12 1.27661e-12 -25.3312

-23.0403 -23.4336 -3.3061e-12
-23.4336 4.9525 3.83515e-12
-3.3061e-12 3.83515e-12 -6.26265

88.8026 -9.70768 -3.27323e-12
-9.70768 10.8074 -9.75664e-13
-3.27323e-12 -9.75664e-13 -10.0308

84.0428 -14.2771 -4.9738e-14
-14.2771 2.8128 -1.70057e-12
-4.9738e-14 -1.70057e-12 -13.1967

5.88805 16.5294 -7.81597e-14
16.5294 -33.9324 -2.43242e-12
-7.81597e-14 -2.43242e-12 -22.3761

-16.4211 22.5015 1.12059e-12
22.5015 16.228 3.8014e-13
1.12059e-12 3.8014e-13 -5.08493

-3.91224 29.163 -1.98301e-12
29.163 -12.2296 2.2542e-12
-1.98301e-12 2.2542e-12 -8.39599

50.9924 0.688665 2.77941e-12
0.688665 -6.53148 6.50156e-13
2.77941e-12 6.50156e-13 -3.63409

-48.141 6.57122 1.67065e-12
6.57122 14.7862 -9.40877e-13
1.67065e-12 -9.40877e-13 -18.9524

10.1157 16.5408 1.6751e-12
16.5408 -36.0795 -4.55636e-13
1.6751e-12 -4.55636e-13 -9.13522

-4.50339 -25.7607 -2.78533e-12
-25.7607 35.5553 -1.92675e-12
-2.78533e-12 -1.92675e-12 -6.74664

-39.1909 -2.57243 7.25638e-12
-2.57243 21.5042 2.33176e-12
7.25638e-12 2.33176e-12 -10.6692

-7.99032 13.365 -2.22903e-12
13.365 44.405 3.3431e-12
-2.22903e-12 3.3431e-12 -3.94397

3.73473 -29.7131 -2.13222e-12
-29.7131 -17.3645 -2.23229e-13
-2.13222e-12 -2.23229e-13 -8.92027

21.4259 -29.9471 2.30038e-12
-29.9471 14.7561 -2.00728e-13
2.30038e-12 -2.00728e-13 -3.91754

6.8811 31.6224 4.08562e-14
31.6224 25.4016 -2.1565e-12
4.08562e-14 -2.1565e-12 -6.8278

2.78562 -15.0202 -1.70649e-12
-15.0202 -39.2675 3.30232e-12
-1.70649e-12 3.30232e-12 -63.3123

-46.1597 2.04127 1.47445e-12
2.04127 11.4615 1.80063e-12
1.47445e-12 1.80063e-12 -22.7569

-55.445 20.3001 -3.85825e-12
20.3001 3.09586 -4.19516e-13
-3.85825e-12 -4.19516e-13 -22.916

5.91689 15.4391 -8.12683e-13
15.4391 -58.8188 3.30994e-12
-8.12683e-13 3.30994e-12 -23.0361

-18.9213 -26.1885 1.11585e-12
-26.1885 -12.9133 -1.81988e-12
1.11585e-12 -1.81988e-12 -9.65234

41.3458 17.9571 3.25073e-12
17.9571 -6.27068 5.14611e-12
3.25073e-12 5.14611e-12 -3.86107

-44.6828 -5.29413 -6.03786e-12
-5.29413 4.53832 1.94748e-12
-6.03786e-12 1.94748e-12 -39.1454

7.49926 -18.9882 -8.69231e-13
-18.9882 -39.8942 5.79092e-13
-8.69231e-13 5.79092e-13 -11.6597

30.2908 -15.5987 -3.56929e-12
-15.5987 -20.5081 -4.80208e-13
-3.56929e-12 -4.80208e-13 -4.80464

-9.63804 11.603 1.65497e-12
11.603 44.3189 -4.583e-13
1.65497e-12 -4.583e-13 -3.85872

8.3341 -25.7339 5.03301e-14
-25.7339 32.9917 1.59872e-13
5.03301e-14 1.59872e-13 -3.63268

-10.2447 -25.2738 2.90138e-12
-25.2738 -19.1001 8.95728e-13
2.90138e-12 8.95728e-13 -23.1749

17.0051 31.9591 7.94624e-13
31.9591 11.1973 6.94556e-13
7.94624e-13 6.94556e-13 -5.74597

-1.06928 -25.1347 8.36368e-13
-25.1347 -30.7627 3.05563e-12
8.36368e-13 3.05563e-12 -20.8916

48.0647 2.59734 -2.89309e-12
2.59734 -8.40933 3.15052e-12
-2.89309e-12 3.15052e-12 -3.53125

6.55267 -28.9301 -5.09222e-14
-28.9301 72.0496 -8.71599e-13
-5.09222e-14 -8.71599e-13 -14.5513

21.7915 -29.2306 -4.01397e-12
-29.2306 13.9636 -2.68408e-12
-4.01397e-12 -2.68408e-12 -3.92992

35.351 32.1585 -2.4715e-12
32.1585 74.1336 -1.42109e-14
-2.4715e-12 -1.42109e-14 -5.44157

-45.2831 -11.8769 2.40558e-12
-11.8769 13.9222 -4.73103e-13
2.40558e-12 -4.73103e-13 -15.3262

-14.42 -13.8212 2.53708e-12
-13.8212 43.382 8.56204e-13
2.53708e-12 8.56204e-13 -5.67228

-19.2436 -23.9882 -1.58555e-12
-23.9882 -19.8305 4.31892e-12
-1.58555e-12 4.31892e-12 -64.2541

2.4385 23.7705 2.92388e-12
23.7705 36.0065 1.85925e-13
2.92388e-12 1.85925e-13 -3.71069

-15.1823 -32.7263 2.83743e-12
-32.7263 -21.1188 -5.82941e-13
2.83743e-12 -5.82941e-13 -14.3127

-14.5647 -11.9629 2.73433e-12
-11.9629 45.5301 -5.16565e-12
2.73433e-12 -5.16565e-12 -5.73848

7.83562 -19.1169 5.21361e-13
-19.1169 -43.1218 -3.44051e-12
5.21361e-13 -3.44051e-12 -12.6318

6.54585 23.8767 -1.36543e-12
23.8767 35.1711 -1.84623e-12
-1.36543e-12 -1.84623e-12 -3.44166

23.1733 -4.97546 -2.19972e-12
-4.97546 -30.6758 -2.87792e-12
-2.19972e-12 -2.87792e-12 -5.36386

36.9699 -30.3424 -4.4326e-12
-30.3424 122.626 -1.3074e-12
-4.4326e-12 -1.3074e-12 -6.2419

-26.8688 21.0138 -2.93099e-14
21.0138 8.43429 -2.6444e-12
-2.93099e-14 -2.6444e-12 -7.1295

40.3381 -19.323 7.1149e-12
-19.323 -11.3719 3.56544e-12
7.1149e-12 3.56544e-12 -5.7255

6.52862 -21.4459 4.99067e-12
-21.4459 -45.5583 -2.3063e-12
4.99067e-12 -2.3063e-12 -24.9719

20.7051 31.7536 7.55544e-13
31.7536 9.55766 -5.09163e-12
7.55544e-13 -5.09163e-12 -5.80553

13.9189 -29.9714 -2.76697e-12
-29.9714 -7.60534 1.49806e-13
-2.76697e-12 1.49806e-13 -5.94376

6.75484 20.8852 -1.26299e-12
20.8852 -27.7919 2.42621e-12
-1.26299e-12 2.42621e-12 -11.1085

-38.274 -28.0758 4.04328e-12
-28.0758 -14.0377 1.43515e-13
4.04328e-12 1.43515e-13 -11.0606

8.64653 -26.2248 5.97211e-12
-26.2248 31.1707 2.38269e-12
5.97211e-12 2.38269e-12 -3.63471

15.3315 28.9807 -2.25716e-12
28.9807 19.1538 4.3876e-12
-2.25716e-12 4.3876e-12 -3.88247

28.6402 26.191 7.20017e-13
26.191 -5.63286 5.86494e-13
7.20017e-13 5.86494e-13 -4.80146

7.91482 -14.6099 2.06738e-12
-14.6099 -36.8774 6.74127e-13
2.06738e-12 6.74127e-13 -13.991

-6.84098 -16.6173 -2.33028e-12
-16.6173 41.3406 -5.5896e-13
-2.33028e-12 -5.5896e-13 -3.95891

17.4406 -17.5682 2.25005e-14
-17.5682 -30.9987 -2.34464e-12
2.25005e-14 -2.34464e-12 -7.10472

19.8419 16.9083 -1.05397e-12
16.9083 -31.6638 4.62178e-12
-1.05397e-12 4.62178e-12 -7.33395

-33.6794 -9.38689 -3.17339e-13
-9.38689 8.75599 -1.56734e-12
-3.17339e-13 -1.56734e-12 -23.9928

43.4311 -13.4299 -6.2883e-13
-13.4299 -8.3683 -3.44539e-12
-6.2883e-13 -3.44539e-12 -3.80365

-19.3779 0.59401 3.09915e-12
0.59401 43.145 -2.65269e-12
3.09915e-12 -2.65269e-12 -4.77491

28.0558 18.5548 -1.65201e-13
18.5548 -18.1984 5.19525e-12
-1.65201e-13 5.19525e-12 -4.74915

25.5283 27.6036 4.97143e-12
27.6036 -3.77519 -4.39352e-12
4.97143e-12 -4.39352e-12 -4.77061

-6.71478 -15.6859 9.91799e-13
-15.6859 43.7981 -3.32179e-12
9.91799e-13 -3.32179e-12 -3.84745

-19.9059 -1.20229 -5.4993e-13
-1.20229 42.1275 8.62125e-13
-5.4993e-13 8.62125e-13 -4.68648

-5.4732 29.1343 1.20259e-12
29.1343 -23.6463 -2.29002e-12
1.20259e-12 -2.29002e-12 -16.7967

-37.2733 -10.922 2.06161e-12
-10.922 21.6799 -1.27898e-12
2.06161e-12 -1.27898e-12 -7.82951

27.1432 -26.7149 2.12511e-12
-26.7149 -5.53032 -4.35148e-12
2.12511e-12 -4.35148e-12 -4.94366

40.7187 21.3323 3.42245e-13
21.3323 -8.3696 7.77511e-12
3.42245e-13 7.77511e-12 -5.46701

12.378 23.6652 -1.49392e-12
23.6652 -27.1267 -1.88175e-12
-1.49392e-12 -1.88175e-12 -8.66651

-37.7961 5.47071 -1.0519e-12
5.47071 23.3113 2.72671e-12
-1.0519e-12 2.72671e-12 -8.59696

18.5931 29.0651 -1.76215e-12
29.0651 17.3778 -2.44071e-12
-1.76215e-12 -2.44071e-12 -3.94656

-9.98914 22.9638 4.87314e-13
22.9638 -14.9127 2.179e-13
4.87314e-13 2.179e-13 -24.0261

68.3157 -59.6911 -5.26749e-12
-59.6911 36.3348 -1.88412e-12
-5.26749e-12 -1.88412e-12 -23.0107

17.5309 -25.0475 -9.91799e-13
-25.0475 -17.9916 2.81256e-13
-9.91799e-13 2.81256e-13 -6.41713

10.0585 7.06981 1.19934e-12
7.06981 82.5497 8.03387e-12
1.19934e-12 8.03387e-12 -7.16504

11.9204 -28.8889 -7.63833e-13
-28.8889 -3.88124 8.95876e-13
-7.63833e-13 8.95876e-13 -5.16524

-66.9449 -52.7009 2.71427e-12
-52.7009 143.249 -3.78482e-12
2.71427e-12 -3.78482e-12 -49.6694

-68.3882 51.4515 -8.60941e-13
51.4515 142.536 2.77585e-12
-8.60941e-13 2.77585e-12 -49.8585

19.569 117.154 -1.84741e-13
117.154 64.1283 1.84741e-12
-1.84741e-13 1.84741e-12 -48.3601

20.5279 -117.097 3.71851e-12
-117.097 61.0251 -4.15904e-12
3.71851e-12 -4.15904e-12 -48.7248

157.742 -1.36336 -4.358e-13
-1.36336 -79.1871 3.68444e-14
-4.358e-13 3.68444e-14 -48.9117

110.325 -91.1253 2.77112e-12
-91.1253 -36.6902 4.42905e-13
2.77112e-12 4.42905e-13 -50.3063

110.378 91.6532 1.45898e-12
91.6532 -36.5004 -8.3844e-13
1.45898e-12 -8.3844e-13 -50.1791

7.84709 14.3302 -1.12562e-12
14.3302 -42.6814 2.09048e-12
-1.12562e-12 2.09048e-12 -15.0788

-11.791 25.5366 4.09391e-12
25.5366 -27.4047 1.55579e-12
4.09391e-12 1.55579e-12 -35.1382

12.4381 6.60598 -1.12325e-12
6.60598 -40.5332 4.47975e-12
-1.12325e-12 4.47975e-12 -8.25195

26.2547 21.7844 3.61725e-12
21.7844 -19.528 -1.6757e-13
3.61725e-12 -1.6757e-13 -5.85031

-21.2295 17.7442 -6.48992e-12
17.7442 29.8682 2.43894e-12
-6.48992e-12 2.43894e-12 -6.16178

22.5303 28.8982 -6.02777e-13
28.8982 -0.775134 -7.60873e-13
-6.02777e-13 -7.60873e-13 -4.73024

4.05566 -29.6633 -2.51414e-12
-29.6633 -17.466 -2.9449e-12
-2.51414e-12 -2.9449e-12 -8.50397

25.9952 28.0275 6.09882e-14
28.0275 -2.30131 -4.36747e-12
6.09882e-14 -4.36747e-12 -4.73064

-19.3464 -2.84121 6.21118e-12
-2.84121 43.071 -3.56929e-12
6.21118e-12 -3.56929e-12 -4.76946

-13.4117 -26.0974 -2.825e-12
-26.0974 -25.8384 6.91299e-13
-2.825e-12 6.91299e-13 -35.5213

-19.8415 -4.86233 -2.24872e-12
-4.86233 41.7761 2.74033e-12
-2.24872e-12 2.74033e-12 -4.74332

-1.82682 23.0161 1.81721e-12
23.0161 -24.377 3.23475e-12
1.81721e-12 3.23475e-12 -16.1498

44.9822 26.8704 1.5253e-12
26.8704 8.11166 6.77088e-12
1.5253e-12 6.77088e-12 -5.36868

-52.509 -13.2161 1.00897e-12
-13.2161 0.150438 1.67155e-12
1.00897e-12 1.67155e-12 -20.6173

20.2804 13.7278 2.63138e-12
13.7278 -31.141 4.35089e-12
2.63138e-12 4.35089e-12 -7.04246

13.7008 -29.9874 -1.61116e-12
-29.9874 -6.69108 1.77636e-12
-1.61116e-12 1.77636e-12 -5.83469

29.6307 -24.7133 6.96569e-12
-24.7133 -7.87329 3.03313e-12
6.96569e-12 3.03313e-12 -4.82461

5.76489 -16.0746 -1.98626e-12
-16.0746 -32.3342 -3.04408e-12
-1.98626e-12 -3.04408e-12 -22.2556

12.6277 27.9287 1.5401e-12
27.9287 -13.6384 -5.34624e-12
1.5401e-12 -5.34624e-12 -6.41912

23.309 23.9772 1.86991e-12
23.9772 -17.9428 -5.19851e-12
1.86991e-12 -5.19851e-12 -5.96183

-31.0764 -2.79294 -9.56901e-13
-2.79294 30.1316 1.32694e-12
-9.56901e-13 1.32694e-12 -6.39798

-28.6287 5.87332 7.10708e-13
5.87332 33.3213 2.1411e-12
7.10708e-13 2.1411e-12 -6.05879

34.5484 2.64668 2.56506e-12
2.64668 -26.1828 -6.98885e-13
2.56506e-12 -6.98885e-13 -6.14153

50.651 -7.28958 -3.26731e-12
-7.28958 -14.0812 -2.72567e-12
-3.26731e-12 -2.72567e-12 -6.7782

11.0412 30.4844 1.93504e-12
30.4844 -4.78725 -6.86917e-12
1.93504e-12 -6.86917e-12 -5.96564

17.4676 -26.1552 8.02913e-13
-26.1552 -17.4546 -4.06105e-12
8.02913e-13 -4.06105e-12 -6.35124

-0.084477 -21.2543 3.42807e-12
-21.2543 -27.9557 -2.55914e-12
3.42807e-12 -2.55914e-12 -17.1664

4.93921 -31.6334 2.90138e-14
-31.6334 4.86165 -6.68502e-13
2.90138e-14 -6.68502e-13 -5.93448

-8.22674 -27.7853 -5.1917e-12
-27.7853 18.5789 -1.72543e-12
-5.1917e-12 -1.72543e-12 -6.12909

-1.64996 29.8869 -3.29159e-12
29.8869 10.4475 1.713e-12
-3.29159e-12 1.713e-12 -5.79952

-26.0159 -9.57784 1.72203e-12
-9.57784 32.9697 2.99079e-12
1.72203e-12 2.99079e-12 -5.78646

-31.3223 -1.54477 4.42017e-13
-1.54477 31.6507 -1.09009e-12
4.42017e-13 -1.09009e-12 -6.22281

-38.9149 5.74794 3.56067e-13
5.74794 23.9465 3.34074e-12
3.56067e-13 3.34074e-12 -9.18236

-17.2176 -21.0889 -9.75812e-13
-21.0889 26.571 -1.29023e-12
-9.75812e-13 -1.29023e-12 -5.77117

13.0719 24.111 -9.79365e-13
24.111 -28.1008 -4.70942e-12
-9.79365e-13 -4.70942e-12 -9.20424

21.555 -9.58969 -2.39512e-12
-9.58969 -31.7059 7.54804e-13
-2.39512e-12 7.54804e-13 -6.59729

-27.1529 7.46522 6.97431e-12
7.46522 34.3345 -7.63833e-14
6.97431e-12 -7.63833e-14 -5.87319

-35.2352 -9.70107 -9.82857e-13
-9.70107 22.3135 -4.117e-12
-9.82857e-13 -4.117e-12 -8.18279

-29.1551 -16.3306 3.85839e-12
-16.3306 19.3468 -5.28762e-13
3.85839e-12 -5.28762e-13 -6.66096

36.9677 -8.23914 2.0132e-13
-8.23914 -20.2361 -1.11881e-12
2.0132e-13 -1.11881e-12 -5.1007

-14.8096 -32.3468 5.42085e-13
-32.3468 -21.6274 1.54365e-12
5.42085e-13 1.54365e-12 -12.9926

-22.8236 9.32079 -3.55271e-15
9.32079 33.3233 -1.12799e-12
-3.55271e-15 -1.12799e-12 -4.78804

-0.750956 -18.2126 1.82047e-12
-18.2126 -35.1576 1.06789e-12
1.82047e-12 1.06789e-12 -33.2779

4.93229 24.8225 1.67214e-12
24.8225 75.3062 3.74219e-13
1.67214e-12 3.74219e-13 -14.3188

-14.1417 -26.6261 -2.47683e-12
-26.6261 -16.3498 -2.75217e-12
-2.47683e-12 -2.75217e-12 -14.6404

-6.35703 -30.2028 1.9836e-12
-30.2028 -23.6021 -2.38624e-12
1.9836e-12 -2.38624e-12 -17.0876

-31.2701 -0.701296 4.37754e-12
-0.701296 31.5004 -1.79945e-12
4.37754e-12 -1.79945e-12 -6.34768

28.4876 -16.6225 2.88362e-13
-16.6225 -18.0564 -3.31646e-12
2.88362e-13 -3.31646e-12 -4.43725

-37.8045 12.8416 -2.28682e-12
12.8416 11.1651 3.31587e-14
-2.28682e-12 3.31587e-14 -10.9885

-8.86112 -3.18051 2.07064e-12
-3.18051 111.05 -6.44462e-12
2.07064e-12 -6.44462e-12 -22.6717

-31.602 14.2736 -2.21031e-12
14.2736 21.3504 -5.12893e-12
-2.21031e-12 -5.12893e-12 -7.12367

12.422 -29.489 -1.11082e-12
-29.489 -2.51931 8.28374e-13
-1.11082e-12 8.28374e-13 -4.92746

33.6318 25.1056 8.62717e-13
25.1056 124.029 4.9738e-14
8.62717e-13 4.9738e-14 -6.21424

-13.5027 26.098 -7.46484e-12
26.098 -19.0974 1.4649e-12
-7.46484e-12 1.4649e-12 -58.896

-9.55278 -27.8074 1.80123e-12
-27.8074 -22.8069 2.00343e-12
1.80123e-12 2.00343e-12 -59.5464

-2.86561 -30.4189 -2.2388e-12
-30.4189 -7.32094 -2.81286e-12
-2.2388e-12 -2.81286e-12 -7.28662

3.8605 -31.16 1.02496e-12
-31.16 5.63584 1.90307e-12
1.02496e-12 1.90307e-12 -6.0617

25.152 20.8274 -3.63679e-12
20.8274 -17.0339 4.33875e-12
-3.63679e-12 4.33875e-12 -4.97615

31.8051 15.006 -5.32078e-12
15.006 -23.3005 1.83616e-12
-5.32078e-12 1.83616e-12 -5.95399

-9.48881 3.08357 -6.9081e-12
3.08357 -9.8306 -1.81883e-11
-6.9081e-12 -1.81883e-11 -80.9387

-5.54905 -7.00015 -1.17332e-11
-7.00015 -14.0418 6.87776e-12
-1.17332e-11 6.87776e-12 -80.2914

11.7485 4.82431 2.26959e-12
4.82431 -43.2052 -1.29704e-12
2.26959e-12 -1.29704e-12 -7.82688

-35.0563 6.73095 -4.01286e-12
6.73095 24.3753 -8.24822e-13
-4.01286e-12 -8.24822e-13 -7.56339

-36.11 6.73632 5.13137e-12
6.73632 24.4326 4.5001e-13
5.13137e-12 4.5001e-13 -8.30836

74.5863 58.6341 -1.75267e-12
58.6341 34.1726 -1.80952e-12
-1.75267e-12 -1.80952e-12 -21.873

-6.91952 -28.1996 2.43953e-12
-28.1996 16.8753 6.35462e-12
2.43953e-12 6.35462e-12 -6.11598

8.17205 17.9745 4.19546e-12
17.9745 -44.8757 6.50147e-13
4.19546e-12 6.50147e-13 -12.8964

32.703 9.53971 -1.05397e-12
9.53971 -19.0797 -5.17009e-12
-1.05397e-12 -5.17009e-12 -4.07373

3.38804 -26.7232 -1.50398e-12
-26.7232 13.4841 -1.86577e-12
-1.50398e-12 -1.86577e-12 -3.82636

26.2375 -20.2376 2.48808e-12
-20.2376 -20.3226 4.49566e-12
2.48808e-12 4.49566e-12 -5.86256

65.3901 60.232 -7.09595e-12
60.232 34.2893 1.07031e-11
-7.09595e-12 1.07031e-11 -23.8678

-13.2424 31.0691 1.22835e-12
31.0691 -16.8811 2.66128e-12
1.22835e-12 2.66128e-12 -12.7855

-18.6038 -19.786 -2.70213e-12
-19.786 28.4148 2.11801e-12
-2.70213e-12 2.11801e-12 -5.96883

11.1746 28.8576 -1.16588e-12
28.8576 -13.3229 8.34296e-13
-1.16588e-12 8.34296e-13 -6.43554

-31.8687 -4.1448 -1.89648e-12
-4.1448 30.1479 7.85742e-13
-1.89648e-12 7.85742e-13 -6.35725

-14.596 19.6091 -3.38396e-13
19.6091 27.1853 1.61471e-12
-3.38396e-13 1.61471e-12 -4.41806

7.47944 30.5187 -8.88178e-15
30.5187 -1.67007 2.09018e-12
-8.88178e-15 2.09018e-12 -5.65984

-9.34453 -22.4731 -3.07251e-12
-22.4731 23.1493 -3.94174e-12
-3.07251e-12 -3.94174e-12 -4.17481

4.59079 -27.3524 8.23637e-13
-27.3524 11.4492 3.13231e-12
8.23637e-13 3.13231e-12 -3.93788

24.2718 11.2569 6.0365e-12
11.2569 102.079 -1.81188e-12
6.0365e-12 -1.81188e-12 -12.405

37.4666 -33.4561 -3.54442e-12
-33.4561 69.2854 -5.80277e-13
-3.54442e-12 -5.80277e-13 -5.70295

-25.3348 -11.6905 -2.63663e-12
-11.6905 31.3682 -7.05214e-13
-2.63663e-12 -7.05214e-13 -5.64774

16.0966 26.4844 3.72147e-12
26.4844 -15.5017 -3.33008e-12
3.72147e-12 -3.33008e-12 -6.21685

4.95601 29.4778 1.92794e-12
29.4778 1.63713 9.48575e-13
1.92794e-12 9.48575e-13 -4.98933

-9.8543 -21.4338 -1.36809e-12
-21.4338 25.1209 1.63188e-12
-1.36809e-12 1.63188e-12 -4.03261

-21.6343 -11.7823 1.64609e-12
-11.7823 32.0821 2.97954e-12
1.64609e-12 2.97954e-12 -4.63658

10.4631 28.4094 -3.1027e-13
28.4094 -0.156238 4.79616e-12
-3.1027e-13 4.79616e-12 -4.67227

-21.8464 -13.8777 1.80922e-12
-13.8777 29.4674 -7.12911e-13
1.80922e-12 -7.12911e-13 -4.84652

6.95876 27.8548 4.38168e-13
27.8548 73.0847 -8.71599e-13
4.38168e-13 -8.71599e-13 -14.3219

-45.8315 -4.04129 -5.26471e-12
-4.04129 14.0479 1.39503e-12
-5.26471e-12 1.39503e-12 -19.9649

0.877419 31.0274 2.13696e-12
31.0274 7.52056 4.37339e-12
2.13696e-12 4.37339e-12 -6.08844

9.71928 14.9012 1.3376e-12
14.9012 -36.4289 -2.33769e-12
1.3376e-12 -2.33769e-12 -10.985

9.92881 -15.9275 -2.0132e-13
-15.9275 -39.4103 3.08198e-12
-2.0132e-13 3.08198e-12 -13.0688

85.613 -24.2044 -8.71599e-13
-24.2044 7.63595 2.78651e-12
-8.71599e-13 2.78651e-12 -12.9578

-23.2066 -21.2672 -7.87518e-13
-21.2672 10.5139 1.95518e-12
-7.87518e-13 1.95518e-12 -6.16468

-16.6006 26.6982 -3.86979e-12
26.6982 1.7787 3.24718e-12
-3.86979e-12 3.24718e-12 -6.58712

-26.2014 -21.7279 -1.98656e-12
-21.7279 -5.36482 1.44137e-12
-1.98656e-12 1.44137e-12 -23.8672

-41.597 14.1067 -3.50164e-12
14.1067 -3.56012 -1.61234e-12
-3.50164e-12 -1.61234e-12 -64.1284

-0.893393 9.44534 -6.93845e-12
9.44534 -44.2597 1.13716e-12
-6.93845e-12 1.13716e-12 -64.2299

-20.3842 32.7055 -2.43242e-12
32.7055 -23.2024 4.52527e-13
-2.43242e-12 4.52527e-13 -24.3296

-11.4101 26.0003 2.34183e-13
26.0003 22.6042 -7.04029e-13
2.34183e-13 -7.04029e-13 -5.92506

16.0388 26.6614 3.73805e-12
26.6614 -17.2868 -8.55908e-13
3.73805e-12 -8.55908e-13 -6.54932

30.4283 45.1858 -5.76013e-12
45.1858 47.5546 8.2423e-13
-5.76013e-12 8.2423e-13 -15.1949

-44.8888 -11.3437 4.32365e-12
-11.3437 -1.80807 -1.6905e-12
4.32365e-12 -1.6905e-12 -61.6845

-8.29818 -3.43295 6.2422e-12
-3.43295 -12.7552 -7.51695e-13
6.2422e-12 -7.51695e-13 -77.2288

-14.6916 -0.210052 -4.51002e-12
-0.210052 -6.41857 7.09181e-12
-4.51002e-12 7.09181e-12 -77.373

27.6649 -53.8024 -2.63848e-12
-53.8024 71.1485 2.69533e-12
-2.63848e-12 2.69533e-12 -24.3896

-11.6913 -11.6 -2.61746e-12
-11.6 -16.2045 1.66297e-12
-2.61746e-12 1.66297e-12 -37.4314

-32.6104 8.81304 -5.25187e-12
8.81304 -9.41953 4.99985e-12
-5.25187e-12 4.99985e-12 -49.5419

18.2563 -26.1994 4.40418e-12
-26.1994 -19.546 4.63718e-12
4.40418e-12 4.63718e-12 -6.50607

-39.4299 1.01108 7.89591e-13
1.01108 11.9802 1.60227e-12
7.89591e-13 1.60227e-12 -19.7219

-30.2022 -20.2678 -1.6868e-12
-20.2678 6.30516 5.92711e-13
-1.6868e-12 5.92711e-13 -7.21556

10.5366 6.25532 5.00341e-12
6.25532 -52.3898 3.98052e-13
5.00341e-12 3.98052e-13 -9.63928

-49.8126 15.5963 3.1121e-12
15.5963 10.1654 3.23889e-13
3.1121e-12 3.23889e-13 -13.5308

-40.2834 7.19162 7.19795e-15
7.19162 16.5415 -1.11514e-11
7.19795e-15 -1.11514e-11 -13.774

16.405 20.3927 -1.80715e-12
20.3927 -25.8405 9.11863e-13
-1.80715e-12 9.11863e-13 -7.6072

-9.10015 -3.1139 2.65721e-12
-3.1139 108.394 1.44003e-12
2.65721e-12 1.44003e-12 -23.102

-3.31991 -27.6236 1.44063e-12
-27.6236 -3.62933 -1.84149e-12
1.44063e-12 -1.84149e-12 -5.8295

-7.33488 -26.1162 4.6955e-13
-26.1162 -14.0817 -9.51831e-13
4.6955e-13 -9.51831e-13 -9.81035

-14.1982 -31.4837 4.51254e-12
-31.4837 -21.7779 2.10987e-12
4.51254e-12 2.10987e-12 -12.7554

90.7273 32.7494 3.21165e-12
32.7494 20.9063 4.52379e-12
3.21165e-12 4.52379e-12 -16.506

-23.1175 -20.1165 3.80999e-12
-20.1165 -17.385 1.91469e-12
3.80999e-12 1.91469e-12 -44.428

72.6301 54.3221 -4.70616e-12
54.3221 91.6402 7.97466e-12
-4.70616e-12 7.97466e-12 -6.14244

-36.2149 -21.4396 2.49667e-12
-21.4396 -6.79682 3.82568e-12
2.49667e-12 3.82568e-12 -13.0427

15.0339 14.6504 -6.07336e-12
14.6504 -37.7514 5.40901e-13
-6.07336e-12 5.40901e-13 -8.17835

44.5725 -14.5724 -3.21757e-12
-14.5724 -8.27151 -2.67297e-12
-3.21757e-12 -2.67297e-12 -4.41805

-21.2304 24.0467 1.95399e-14
24.0467 4.95562 -4.25556e-12
1.95399e-14 -4.25556e-12 -5.97587

17.3732 20.4279 -1.30029e-12
20.4279 -26.792 1.71537e-12
-1.30029e-12 1.71537e-12 -6.95101

-51.14 11.4006 2.47395e-12
11.4006 7.71051 -8.7382e-12
2.47395e-12 -8.7382e-12 -29.9943

-7.28682 -31.5801 4.93827e-13
-31.5801 -12.8265 1.90929e-12
4.93827e-13 1.90929e-12 -8.11862

2.79677 19.8124 -5.60973e-12
19.8124 -46.0334 2.54374e-12
-5.60973e-12 2.54374e-12 -29.9862

-24.6706 -18.4434 -2.21512e-12
-18.4434 17.8362 -1.30266e-12
-2.21512e-12 -1.30266e-12 -5.47956

-42.3403 4.28315 1.45506e-12
4.28315 17.8694 -7.27596e-12
1.45506e-12 -7.27596e-12 -12.7279

-4.09805 9.92673 4.63037e-13
9.92673 -40.276 -4.88498e-15
4.63037e-13 -4.88498e-15 -47.5493

-2.68827 -8.51335 2.53486e-12
-8.51335 -38.3072 1.06552e-12
2.53486e-12 1.06552e-12 -47.405

81.7221 18.5123 -1.02555e-12
18.5123 1.70031 4.84235e-12
-1.02555e-12 4.84235e-12 -14.453

3.89495 7.96499 3.09086e-12
7.96499 -45.1829 1.58214e-12
3.09086e-12 1.58214e-12 -11.0178

35.8713 7.74043 6.21592e-12
7.74043 184.571 -4.54274e-12
6.21592e-12 -4.54274e-12 -9.75775

40.1447 -11.3851 9.02352e-13
-11.3851 190.369 -2.72375e-12
9.02352e-13 -2.72375e-12 -7.38959

53.7641 56.4065 1.78346e-12
56.4065 159.253 -3.15007e-12
1.78346e-12 -3.15007e-12 -11.5005

1.70905 -28.9504 -1.12976e-12
-28.9504 -24.6907 -3.75403e-13
-1.12976e-12 -3.75403e-13 -11.9625

16.0487 -49.19 -6.73713e-12
-49.19 99.4179 3.57403e-12
-6.73713e-12 3.57403e-12 -21.6894

54.512 -55.9491 3.57166e-12
-55.9491 149.971 -9.9476e-14
3.57166e-12 -9.9476e-14 -13.6653

-2.16539 26.2199 1.42405e-12
26.2199 17.5727 -2.86704e-12
1.42405e-12 -2.86704e-12 -3.99537

134.937 73.8433 -6.28593e-12
73.8433 85.0237 8.43177e-13
-6.28593e-12 8.43177e-13 -10.1595

-18.7197 13.0473 6.59117e-12
13.0473 -3.90025 -2.84898e-12
6.59117e-12 -2.84898e-12 -26.7697

3.74113 0.0393431 -4.37576e-13
0.0393431 -26.1889 -7.80117e-13
-4.37576e-13 -7.80117e-13 -26.773

144.095 -73.1287 -3.99799e-12
-73.1287 85.3511 -5.37407e-12
-3.99799e-12 -5.37407e-12 -8.19683

-21.3924 -23.4238 -3.51719e-12
-23.4238 12.2481 -1.21976e-13
-3.51719e-12 -1.21976e-13 -6.49054

89.3452 34.7288 1.82373e-12
34.7288 41.3895 -3.53969e-12
1.82373e-12 -3.53969e-12 -11.5481

72.1859 63.4903 -3.96957e-12
63.4903 149.691 3.57166e-12
-3.96957e-12 3.57166e-12 -9.67415

26.1642 21.6299 -9.166e-13
21.6299 100.132 -2.36374e-12
-9.166e-13 -2.36374e-12 -13.0316

73.8727 -65.9191 -4.46695e-12
-65.9191 151.142 -4.51905e-12
-4.46695e-12 -4.51905e-12 -9.40271

25.7687 -12.381 -2.25005e-14
-12.381 105.011 6.91595e-12
-2.25005e-14 6.91595e-12 -12.4286

-28.6639 6.84179 2.47994e-12
6.84179 3.10676 3.99325e-12
2.47994e-12 3.99325e-12 -37.854

37.7424 -45.9742 -7.59097e-13
-45.9742 49.6687 -2.71901e-12
-7.59097e-13 -2.71901e-12 -15.5324

14.4435 47.5313 -2.48572e-12
47.5313 94.8784 1.07576e-11
-2.48572e-12 1.07576e-11 -22.1925

173.337 37.911 -4.94064e-12
37.911 48.0406 -6.25159e-12
-4.94064e-12 -6.25159e-12 -9.52279

7.02094 -29.2855 1.96583e-13
-29.2855 -14.3581 2.72464e-12
1.96583e-13 2.72464e-12 -7.15559

-38.4172 12.8967 1.65675e-12
12.8967 6.4353 3.48196e-12
1.65675e-12 3.48196e-12 -15.2903

88.5035 -38.112 2.67164e-12
-38.112 34.1625 8.03861e-12
2.67164e-12 8.03861e-12 -14.0998

6.04188 -28.802 -1.91136e-12
-28.802 -16.1715 1.18335e-12
-1.91136e-12 1.18335e-12 -8.02944

169.203 -36.3429 1.84741e-12
-36.3429 34.9281 3.73094e-12
1.84741e-12 3.73094e-12 -13.2906

-5.72498 -28.3173 -1.15759e-12
-28.3173 -14.4726 -3.66522e-13
-1.15759e-12 -3.66522e-13 -9.30902

-17.7901 -25.2946 -2.53308e-12
-25.2946 12.0804 -6.21429e-12
-2.53308e-12 -6.21429e-12 -5.9337

118.874 69.4598 5.47118e-12
69.4598 96.2174 -7.14332e-12
5.47118e-12 -7.14332e-12 -11.4008

29.4125 -22.9325 -4.03233e-12
-22.9325 97.7948 7.33991e-12
-4.03233e-12 7.33991e-12 -14.3402

117.957 -71.6917 9.14232e-13
-71.6917 93.6788 -7.16938e-12
9.14232e-13 -7.16938e-12 -12.4168

22.2642 50.7368 -3.13941e-12
50.7368 73.7772 -3.66403e-12
-3.13941e-12 -3.66403e-12 -24.7776

-1.53605 -30.2119 2.53308e-12
-30.2119 -6.55222 1.23368e-12
2.53308e-12 1.23368e-12 -6.99736

-7.04517 -14.6403 2.23436e-12
-14.6403 -21.9194 -2.41377e-12
2.23436e-12 -2.41377e-12 -32.6146

-11.892 11.0926 3.39854e-12
11.0926 -16.4309 -4.17814e-12
3.39854e-12 -4.17814e-12 -77.7952

-26.1691 -5.15999 -2.9304e-12
-5.15999 -6.38737 -8.62251e-12
-2.9304e-12 -8.62251e-12 -77.6289

-38.9408 13.0836 -4.57641e-12
13.0836 13.7444 -1.4051e-12
-4.57641e-12 -1.4051e-12 -10.2385

-14.4806 -10.667 -1.52448e-12
-10.667 -17.3184 -1.96006e-12
-1.52448e-12 -1.96006e-12 -78.758

-25.9029 4.09173 -1.73047e-13
4.09173 -5.91387 4.18062e-12
-1.73047e-13 4.18062e-12 -78.9002

-3.63384 7.43412 1.88812e-12
7.43412 -27.8607 -2.61421e-13
1.88812e-12 -2.61421e-13 -77.9874

-43.9754 -12.1152 -3.45331e-12
-12.1152 2.91632 -8.35746e-12
-3.45331e-12 -8.35746e-12 -68.1588

11.9737 -30.4697 8.28374e-13
-30.4697 76.1623 3.75877e-12
8.28374e-13 3.75877e-12 -14.7009

0.521893 -12.9721 -3.22113e-13
-12.9721 -39.9908 5.65148e-12
-3.22113e-13 5.65148e-12 -45.2774

-16.3488 -34.4177 -1.76451e-12
-34.4177 -22.0685 5.09193e-12
-1.76451e-12 5.09193e-12 -23.5901

-2.42058 -18.1768 2.10469e-12
-18.1768 -29.8953 2.87637e-12
2.10469e-12 2.87637e-12 -33.6268

12.7383 15.4592 -3.42482e-12
15.4592 -37.7159 3.40824e-12
-3.42482e-12 3.40824e-12 -9.62486

-46.9087 9.86427 -5.66784e-12
9.86427 8.87768 3.98807e-12
-5.66784e-12 3.98807e-12 -70.1546

3.46267 19.2276 9.72111e-13
19.2276 -41.4722 -6.52145e-13
9.72111e-13 -6.52145e-13 -70.2704

1.47235 11.3063 4.75531e-12
11.3063 -23.9651 -2.55425e-12
4.75531e-12 -2.55425e-12 -31.868

109.391 -15.3392 3.61429e-12
-15.3392 -12.5355 5.36341e-12
3.61429e-12 5.36341e-12 -25.0372

-14.3201 24.9639 1.34174e-12
24.9639 10.3862 -1.87702e-12
1.34174e-12 -1.87702e-12 -5.80421

76.6063 -61.3542 -6.77384e-12
-61.3542 37.3649 3.67587e-12
-6.77384e-12 3.67587e-12 -22.3954

76.1136 -57.4568 -1.80952e-12
-57.4568 99.2277 1.38082e-12
-1.80952e-12 1.38082e-12 -5.55537

118.196 -36.5438 9.87654e-12
-36.5438 40.6007 6.11896e-12
9.87654e-12 6.11896e-12 -7.37855

-51.1146 -5.15896 -4.80845e-12
-5.15896 3.34077 2.21452e-12
-4.80845e-12 2.21452e-12 -60.661

-50.4785 2.89123 -2.22814e-12
2.89123 3.13504 -4.14483e-14
-2.22814e-12 -4.14483e-14 -60.1335

-11.9756 -24.4564 -2.3895e-12
-24.4564 -35.0036 2.50799e-12
-2.3895e-12 2.50799e-12 -59.1676

-8.99196 -21.7606 2.07775e-12
-21.7606 -37.8883 -2.05317e-12
2.07775e-12 -2.05317e-12 -59.4772

-14.7027 26.1361 -4.57412e-12
26.1361 -33.0279 -2.39808e-12
-4.57412e-12 -2.39808e-12 -60.7521

-18.1577 3.09951 2.05775e-11
3.09951 -13.1646 9.13299e-12
2.05775e-11 9.13299e-12 -75.4796

-9.94507 -20.509 7.40149e-13
-20.509 -32.651 1.16092e-12
7.40149e-13 1.16092e-12 -56.7379

-26.6486 -18.5683 7.9714e-13
-18.5683 -14.1959 -1.46793e-11
7.9714e-13 -1.46793e-11 -71.2733

-15.4791 2.43456 8.25591e-12
2.43456 -12.8527 9.61527e-12
8.25591e-12 9.61527e-12 -77.8742

-6.02755 -20.5263 6.23945e-14
-20.5263 -41.4874 -1.35802e-12
6.23945e-14 -1.35802e-12 -60.5083

-6.75683 20.9559 -1.21964e-11
20.9559 -40.1437 -2.70421e-12
-1.21964e-11 -2.70421e-12 -60.0194

-14.3164 -3.45858 -1.54007e-11
-3.45858 -11.3902 1.03029e-13
-1.54007e-11 1.03029e-13 -76.8886

-11.2642 -3.11728 1.19706e-11
-3.11728 -17.6894 -3.09581e-11
1.19706e-11 -3.09581e-11 -74.0514

-24.2042 12.1098 5.26423e-12
12.1098 -13.4007 -5.35127e-14
5.26423e-12 -5.35127e-14 -69.9695

-22.0826 26.9297 8.61533e-14
26.9297 -26.267 -9.04656e-12
8.61533e-14 -9.04656e-12 -57.5835

VECTORS fluid_flux_TPM float
-8.72084e-05 3.10243e-05 2.341e-20
3.55907e-06 6.88166e-06 -3.6589e-21
-1.27857e-05 -1.02242e-05 1.47996e-20
-4.17005e-06 4.25347e-06 -1.27769e-20
2.27048e-05 -6.31248e-06 1.47493e-20
2.75722e-06 -1.59015e-05 3.83443e-21
-8.57844e-05 -3.10891e-05 2.78638e-21
-1.38905e-05 -1.04654e-05 1.14372e-20
2.2119e-05 9.454e-07 5.54882e-21
1.13826e-05 -3.9076e-06 -1.24522e-20
5.45942e-05 1.24825e-05 -5.00222e-21
2.34656e-06 -1.71919e-05 6.79332e-21
1.36098e-05 1.12524e-05 -2.16999e-20
2.66174e-06 1.37828e-05 6.06322e-22
2.05784e-05 -2.94627e-06 4.435e-21
-1.63303e-05 -2.72865e-07 2.08614e-20
2.75317e-06 1.4097e-05 -5.45545e-21
1.01805e-05 -2.39158e-06 9.28684e-21
9.89736e-06 1.72206e-05 -2.42692e-20
-1.48466e-05 1.88522e-06 9.40569e-21
-3.60073e-06 -2.13014e-05 8.87394e-21
3.41073e-05 5.94112e-05 -2.02208e-20
1.56955e-05 1.6311e-06 1.81038e-20
1.12259e-05 -1.12801e-05 1.53529e-20
-1.50765e-05 -3.33199e-06 1.18701e-20
-6.77144e-07 -1.11295e-05 1.71791e-20
6.28969e-05 -4.90796e-06 6.06995e-21
1.40643e-05 1.02476e-05 -1.20117e-20
-2.51469e-05 -2.06405e-05 -3.78652e-21
4.91152e-05 -1.28126e-05 1.27105e-20
-1.65805e-05 -6.03763e-06 5.2298e-22
5.53649e-06 -3.20335e-05 2.09817e-20
4.76498e-05 -4.80428e-05 2.15125e-21
-4.92289e-06 -4.12439e-05 2.14507e-20
-2.96706e-05 3.70019e-05 -1.99243e-20
-3.82439e-05 -1.63936e-05 -1.61193e-21
3.26995e-05 4.32115e-05 -2.7006e-21
-4.47366e-05 -8.72506e-06 -1.47899e-20
1.4373e-05 -1.10807e-05 2.14231e-20
4.64657e-05 5.01106e-05 -2.03884e-20
3.21264e-05 -1.40207e-05 2.03766e-20
3.3637e-05 -4.23397e-05 4.39734e-20
-1.98946e-05 -5.03739e-05 1.25784e-21
-1.58964e-05 6.35617e-06 1.98409e-20
3.05226e-05 -2.93117e-05 1.47668e-20
-3.03298e-05 1.09892e-05 8.74417e-21
-4.04985e-06 -2.03688e-05 2.02065e-20
7.88541e-06 2.021e-05 -1.52365e-20
-1.63411e-05 5.92732e-06 2.10402e-20
-1.78183e-05 2.87233e-05 -1.1345e-20
3.24059e-05 1.52896e-05 1.60252e-21
2.93627e-05 -1.00743e-05 8.52195e-21
-1.56651e-05 1.57592e-05 -3.22022e-21
-2.35393e-05 -2.06886e-05 1.57642e-20
-2.11382e-05 -5.13205e-06 5.20233e-22
-4.47881e-05 2.7074e-05 -2.07244e-21
-2.93697e-05 -3.80203e-05 1.71037e-20
6.36295e-06 -3.06256e-05 7.76192e-21
-4.77044e-05 6.48241e-06 -7.48967e-21
6.07367e-06 1.36961e-05 -2.23726e-20
-5.57645e-06 -8.17292e-06 8.53441e-21
-6.58313e-06 -1.79425e-05 -7.97381e-21
5.71405e-05 2.48582e-05 -7.17621e-21
9.24229e-06 1.81432e-05 -2.02226e-20
1.22958e-05 -1.44442e-05 1.46402e-20
-1.6405e-06 -2.07514e-05 2.37663e-20
4.62083e-06 -8.80505e-06 4.36227e-21
-1.009e-05 -5.56458e-06 3.56822e-20
-1.06021e-05 1.19286e-05 -1.9435e-20
2.55806e-06 -4.09238e-06 -4.31615e-21
-1.50426e-05 -1.58424e-05 3.22561e-20
-2.13638e-05 5.16565e-06 -7.23469e-21
-3.55665e-06 3.44796e-05 2.00026e-21
-1.78709e-05 1.07103e-05 2.41134e-20
-9.07035e-06 1.46139e-05 -1.28739e-20
-6.03518e-05 7.69172e-06 1.5237e-20
7.81766e-06 -2.16804e-05 2.84663e-20
-1.88792e-05 -8.89963e-06 -6.40039e-21
1.93362e-06 1.16235e-05 -2.04491e-20
2.62997e-05 5.0894e-06 -2.80186e-21
3.41674e-05 -2.89737e-05 -3.88051e-21
2.21453e-05 2.05552e-05 -2.18674e-21
1.19079e-05 -2.82219e-06 -5.16017e-21
-3.21522e-05 2.40659e-05 -5.62522e-21
3.79026e-05 4.84563e-06 1.25164e-20
-4.98063e-06 4.94123e-05 -1.19195e-20
-1.74104e-06 -1.68564e-05 1.77924e-20
1.81231e-05 9.95421e-06 2.23134e-22
2.93161e-05 3.02844e-05 -3.44911e-21
5.50223e-05 3.80117e-05 -3.31966e-21
-5.33111e-06 3.07714e-05 -3.20931e-21
5.91771e-05 -3.55109e-05 2.35801e-21
-2.71236e-05 5.34094e-06 1.34548e-20
1.78385e-05 1.10014e-05 -1.59134e-20
-2.96398e-05 9.90287e-06 3.13654e-21
1.66523e-05 2.85199e-05 -8.36492e-21
1.01684e-05 -4.43847e-05 2.57808e-20
1.91539e-06 1.16203e-05 -1.89499e-22
-1.48001e-05 -1.76193e-05 -3.27507e-21
3.06976e-06 1.74739e-05 -1.66016e-20
2.64057e-05 5.25725e-06 -1.87898e-20
-1.54426e-05 3.32097e-05 -1.44247e-21
4.05504e-05 -1.33326e-05 2.03596e-20
-3.7729e-06 7.45471e-06 -6.78724e-21
9.95241e-06 5.89906e-06 -2.07362e-20
-2.28048e-06 -1.13241e-05 1.11186e-20
3.22052e-06 -1.92511e-05 2.01965e-20
1.74686e-05 3.89191e-06 2.11927e-20
-7.93686e-06 4.09708e-05 -8.80179e-21
-9.80519e-06 2.47914e-07 -8.82389e-21
9.31811e-06 1.18853e-05 -2.54137e-20
-2.17725e-06 -4.17121e-05 1.69417e-20
4.20211e-05 1.28645e-05 -3.60584e-21
4.42236e-06 -7.45287e-06 5.47062e-21
-1.11447e-05 -3.55349e-06 2.8063e-20
-2.93243e-05 -1.24854e-05 9.50057e-21
1.58031e-05 4.11455e-05 2.18276e-21
-4.3483e-05 -1.55731e-05 -9.43872e-21
1.60178e-05 -4.1122e-05 -1.31404e-20
-3.69965e-06 -3.19187e-05 9.3417e-21
2.18379e-05 6.52137e-07 5.33933e-21
-7.17118e-06 1.83958e-05 3.57992e-20
-1.61112e-06 3.96939e-06 -1.16106e-20
-3.68581e-06 -1.6538e-05 2.3377e-20
5.22976e-06 -8.30174e-06 -5.7392e-21
9.35908e-06 1.58628e-05 -1.07272e-20
3.30997e-05 1.06519e-05 1.36546e-21
8.61509e-06 -7.45771e-06 1.12162e-20
-8.27056e-06 -4.51579e-05 1.83293e-20
2.5551e-05 -1.8819e-05 5.68948e-21
4.9777e-06 2.777e-05 -1.12944e-20
-2.81621e-06 -2.84148e-06 1.82299e-20
-8.62587e-06 -8.32548e-06 3.74408e-20
-4.77646e-06 4.41243e-08 8.04055e-21
-2.28716e-05 2.85928e-05 -1.14051e-21
1.87622e-05 -3.73733e-05 2.7571e-20
-2.65788e-05 4.27124e-05 9.19557e-21
-1.6371e-05 9.53482e-06 9.35203e-21
2.52784e-06 1.21983e-05 -2.58854e-20
-2.29857e-05 -3.49877e-05 -1.11016e-20
1.39355e-05 3.34645e-05 1.03913e-20
1.75069e-05 9.36877e-06 -4.79091e-21
2.28104e-05 -8.52225e-06 1.58573e-20
-1.25314e-06 -1.12649e-05 -3.09813e-22
-3.391e-05 -3.15564e-05 2.07671e-20
-2.75135e-06 1.13028e-05 -1.06456e-20
1.72459e-05 1.01712e-05 -4.24157e-21
1.88865e-05 -8.82041e-06 -5.33559e-22
8.24277e-06 -1.43442e-05 1.41087e-20
2.43557e-05 -1.07948e-05 7.54788e-21
1.90086e-05 -8.99742e-06 -7.51332e-21
4.6404e-06 2.0579e-07 1.5754e-20
2.57393e-05 2.02201e-05 -1.23027e-20
-2.74149e-06 -1.70291e-05 2.4174e-20
-1.04793e-05 -4.45677e-06 -3.14379e-21
1.12579e-06 -3.88988e-06 1.22691e-20
-3.1549e-06 1.58462e-05 -1.75508e-20
-3.48816e-05 2.76796e-06 6.65021e-21
-1.21209e-05 -3.32565e-05 -7.20076e-21
-7.87867e-06 9.77851e-06 -1.85112e-21
1.35645e-05 1.66395e-05 -2.23551e-20
2.65671e-05 -1.87437e-05 -7.18808e-22
-3.67904e-05 -2.03496e-05 -3.30904e-21
1.74021e-05 -2.75062e-05 -4.42105e-21
2.28027e-05 -2.72151e-05 -1.77473e-21
-1.09438e-05 3.78473e-06 9.95473e-21
-1.98279e-05 -2.88387e-05 2.3803e-20
-3.48779e-05 -5.7911e-06 -7.12195e-21
-3.85225e-06 -3.1741e-05 -3.30756e-22
1.54468e-05 -3.16975e-05 1.24979e-20
-9.10568e-06 -2.61981e-05 3.36364e-20
4.58095e-06 3.14038e-05 -1.64615e-20
-1.57516e-05 -2.85205e-05 1.56888e-20
2.93865e-06 -1.62914e-05 1.16567e-20
-2.4738e-05 1.82589e-05 3.51349e-20
-1.503e-05 -1.21105e-05 2.18533e-20
-2.73514e-05 -5.17217e-06 3.87779e-21
1.56673e-05 -9.18111e-06 -4.23213e-22
-4.30671e-06 2.39513e-05 3.12626e-20
1.2232e-05 -9.32402e-06 1.40887e-20
-2.95843e-05 -1.31635e-05 -6.88911e-21
-8.83122e-06 -7.45771e-06 -1.17907e-22
9.08163e-06 7.54046e-06 -6.1303e-21
2.14257e-05 2.86993e-05 -8.04306e-22
-1.7508e-05 -1.08087e-05 1.88662e-20
-3.25045e-05 -7.51033e-07 -5.60279e-21
-1.63359e-05 -5.0159e-06 4.23246e-22
-4.5779e-06 -1.65824e-05 2.20604e-20
1.76838e-05 2.12381e-05 -1.03549e-20
-1.09568e-05 5.87446e-06 -2.38275e-20
6.36009e-07 -2.05543e-05 2.12694e-20
-4.19376e-05 1.08503e-05 -1.57624e-20
2.48593e-05 2.02453e-05 -2.48141e-21
3.79429e-06 3.27838e-05 -4.18837e-20
-2.43185e-06 3.79702e-06 1.47472e-20
-9.05046e-06 2.51189e-07 2.83395e-20
4.35487e-06 7.75972e-06 -1.59883e-20
-1.16934e-05 3.4013e-06 7.49546e-21
-2.07328e-06 -3.78475e-06 2.42462e-20
1.6597e-06 2.07589e-05 -8.93064e-21
4.47219e-06 4.49679e-07 -5.58976e-21
-1.95372e-05 4.75641e-06 2.42407e-20
-1.72976e-05 1.93571e-05 -1.9157e-21
-3.1073e-06 1.15776e-05 3.6823e-20
-2.92156e-05 1.83934e-05 1.0009e-20
-9.34294e-06 8.97892e-06 -2.68242e-21
1.73104e-05 -1.16133e-05 -6.69991e-22
3.66025e-05 -3.56453e-06 -3.85474e-21
-2.11397e-05 1.12968e-05 2.12994e-20
2.2329e-06 4.49804e-06 -2.44867e-21
2.17743e-05 -4.3447e-06 1.54741e-20
-1.72781e-05 1.03524e-05 3.1249e-20
-9.87133e-06 5.53878e-06 2.06255e-20
1.18309e-05 3.74252e-06 2.802e-20
2.18789e-05 -1.34705e-05 5.39331e-22
-1.73792e-05 9.95566e-06 2.00953e-20
-2.50358e-05 -5.3028e-06 5.45514e-21
-1.6761e-05 -4.36228e-06 -9.78915e-21
9.87577e-06 6.23741e-09 2.28756e-20
1.01734e-05 1.95352e-07 -1.25783e-20
4.39057e-06 8.31679e-06 -6.35433e-21
4.82934e-06 -8.79737e-06 2.3381e-20
-5.01013e-06 8.41945e-06 2.80752e-20
-5.26644e-06 -8.65721e-06 1.32692e-20
9.91056e-06 -7.40768e-06 -9.28046e-21
-2.03266e-05 3.23477e-06 1.51173e-20
-2.0059e-05 -3.28358e-06 5.1056e-21
-1.28342e-05 1.58758e-05 -2.14465e-20
-1.2914e-05 -1.59301e-05 3.0389e-20
7.48593e-06 -1.98428e-05 1.17785e-20
7.20569e-06 1.97629e-05 -3.2939e-21
1.55771e-06 2.58838e-05 -3.278e-20
1.12399e-05 -3.13669e-06 4.55597e-21
2.35979e-06 -3.86635e-06 3.8487e-21
-2.14103e-05 1.42162e-06 1.16036e-20
7.67682e-06 -1.95121e-05 5.61369e-21
7.27309e-06 1.96607e-05 -3.35518e-20
4.76858e-06 -5.27118e-08 -7.14262e-22
8.96775e-06 2.4402e-05 4.03501e-22
-2.24218e-06 -4.01613e-06 8.70358e-21
2.31764e-06 -1.13164e-05 1.20247e-20
-2.24293e-05 -1.21509e-05 -8.10813e-21
-2.13569e-05 -1.1494e-05 1.20857e-20
-2.18914e-05 1.36278e-05 6.76087e-23
3.25108e-06 -1.22869e-05 8.94578e-21
-1.56525e-06 3.38177e-06 1.43791e-21
-5.87327e-07 -2.55674e-05 6.16849e-21
-7.71977e-06 -2.44213e-05 -7.43054e-22
3.27018e-05 3.03605e-05 2.89036e-21
3.54509e-05 -1.81508e-06 1.55608e-20
-1.27103e-05 -3.63194e-06 5.39725e-21
-2.2891e-05 -4.1383e-05 6.54653e-21
8.30366e-06 1.3747e-05 -1.95465e-20
-2.5234e-05 3.03308e-06 8.61805e-21
2.00637e-05 5.786e-06 3.16192e-22
-4.53281e-06 -3.27403e-08 2.3954e-20
-4.66487e-06 -8.41215e-06 2.60228e-20
-7.0724e-06 -3.93299e-05 1.81174e-20
-9.70765e-06 -8.39083e-08 1.4709e-20
-4.86705e-05 -1.81558e-06 1.16982e-20
1.73074e-05 -1.91039e-05 6.49833e-21
2.42917e-06 3.99879e-06 8.07014e-22
-1.20633e-07 -1.75124e-05 1.10507e-20
-9.8177e-06 2.4082e-05 2.40791e-20
-4.37173e-06 8.62676e-06 -1.68581e-20
2.05546e-05 -1.3605e-05 2.061e-20
-3.76559e-05 -1.35503e-05 -1.21105e-20
-1.52646e-05 -2.03641e-05 8.46526e-21
4.97667e-06 8.38839e-06 -2.19704e-20
1.66298e-05 5.16015e-06 -2.02669e-20
-4.76348e-06 -7.33766e-06 1.12317e-20
1.97948e-05 3.54688e-06 2.60961e-20
1.81868e-05 -9.82489e-06 -1.36696e-21
-3.48791e-07 2.71702e-05 1.27996e-20
8.31955e-06 -1.36654e-05 9.97048e-21
4.87989e-05 2.20036e-06 3.85837e-21
-4.23523e-05 1.14521e-05 -1.27845e-21
2.28574e-05 1.15549e-05 -1.79807e-20
-6.45219e-06 -1.71772e-05 -8.05961e-21
-1.53481e-05 -8.6171e-06 1.34122e-21
2.87839e-05 -2.1052e-07 -1.64067e-20
-6.91896e-07 -2.42519e-05 3.09628e-20
-1.26158e-05 -1.08727e-05 3.53693e-20
1.02226e-05 -2.34966e-05 2.10151e-20
-4.96545e-07 2.05527e-05 -1.65837e-20
7.91666e-06 2.60643e-05 -3.40238e-20
1.72657e-05 -9.88297e-06 -7.03887e-21
-1.89454e-05 1.92959e-05 -3.05742e-21
1.65255e-05 2.00267e-05 5.39086e-21
-6.22222e-05 1.60198e-05 2.58993e-21
-1.01078e-05 2.60127e-05 -3.91265e-21
1.25173e-05 -1.52462e-05 2.83605e-20
-7.02813e-06 -1.83953e-05 1.85933e-21
-1.18519e-05 4.50506e-06 -5.33478e-21
-2.58898e-05 -7.04482e-06 -7.27867e-21
-6.38525e-06 3.88525e-05 -1.00269e-20
-1.26041e-05 1.19008e-05 1.2726e-20
2.07738e-05 -4.47499e-06 -7.23683e-21
-6.87152e-06 -2.57906e-05 7.93109e-21
-1.48667e-05 2.38876e-05 -5.5367e-21
-2.17859e-05 1.2563e-05 6.77756e-21
-2.05667e-05 -1.50533e-05 1.94156e-20
1.80261e-05 -2.06522e-05 -1.0876e-20
-2.75268e-05 -1.45605e-06 -5.1732e-21
1.23654e-05 -4.08046e-05 1.37327e-20
1.93836e-05 -1.89105e-05 1.31013e-20
2.47291e-05 4.30759e-05 -4.24128e-21
1.97085e-06 1.98638e-05 -2.7052e-20
2.96068e-06 -2.54177e-05 1.98312e-20
-4.16306e-05 4.69554e-05 7.34022e-21
-1.27004e-05 -2.44082e-05 1.06295e-20
1.63646e-05 -6.41965e-06 8.66778e-21
-2.41057e-06 2.57687e-05 -8.14089e-21
1.28812e-05 -1.18248e-05 -2.23463e-21
1.38786e-05 2.43096e-05 1.16687e-21
1.72275e-05 -1.4003e-06 9.79531e-22
2.2117e-05 -6.32079e-05 2.0232e-20
-5.87531e-06 -1.28574e-05 1.18331e-20
-2.31811e-05 1.00857e-05 2.05494e-20
-2.00172e-05 1.87164e-05 2.85735e-21
2.16093e-05 1.45656e-05 -5.29539e-21
1.867e-05 -1.07552e-05 -3.5834e-21
1.49499e-05 1.25917e-05 -6.9361e-21
-5.42739e-06 4.55064e-08 1.12225e-20
1.54015e-05 -2.30841e-05 -1.13656e-20
-1.69879e-05 -2.04063e-05 1.37746e-20
2.25587e-05 9.77237e-06 -5.3827e-21
1.28049e-05 -1.19881e-05 3.38361e-21
9.55261e-06 -2.48483e-05 6.7536e-21
1.66569e-05 -6.93194e-06 -1.24989e-20
-1.58033e-05 -7.54358e-06 -5.95019e-21
1.29667e-06 -2.62993e-05 2.03078e-20
-2.61031e-05 4.47245e-06 1.44622e-20
2.39006e-06 2.45394e-05 -1.80265e-20
2.05821e-05 6.62655e-06 -6.78179e-21
-2.17175e-05 -1.07004e-05 -1.25883e-20
-8.97598e-06 2.56065e-05 1.83587e-20
-1.49519e-06 -2.41847e-05 8.20242e-21
1.94638e-05 1.18358e-05 -2.65572e-21
-1.76873e-06 1.80823e-05 2.13578e-21
-2.0136e-05 1.37007e-05 1.90066e-20
2.35077e-05 1.14137e-05 1.97723e-21
-1.71129e-05 -9.98428e-06 7.42452e-21
9.50894e-08 -1.98321e-05 3.39132e-20
1.83799e-05 1.99816e-05 -5.18594e-21
-2.21509e-05 -1.43018e-05 -4.341e-21
4.83448e-05 -3.39779e-05 -1.00799e-20
1.78947e-05 -1.08211e-05 2.44595e-21
9.00073e-06 4.30818e-05 -9.68096e-21
1.7032e-05 -1.36769e-05 9.04886e-21
-1.98725e-05 8.7025e-05 2.31917e-22
-1.97627e-05 -8.65393e-05 8.91606e-21
5.71775e-05 7.17091e-05 -5.83925e-21
5.69151e-05 -7.13829e-05 1.94146e-21
9.06365e-05 -1.6041e-10 1.97087e-21
-7.8192e-05 3.76337e-05 2.41852e-20
-7.74463e-05 -3.7278e-05 6.50166e-21
1.22325e-05 1.18173e-05 8.40058e-22
2.93647e-05 2.18899e-05 -1.12613e-20
1.14469e-05 3.33245e-06 1.65012e-20
1.88536e-05 9.75044e-06 1.37048e-20
4.98868e-06 2.01679e-05 -1.22706e-20
-1.88298e-05 -1.49787e-05 1.33923e-20
1.70361e-05 -1.02131e-05 9.09858e-21
1.98505e-05 1.45478e-05 -8.62817e-22
-3.16661e-06 2.43614e-05 2.68754e-21
2.94375e-05 -1.99907e-05 1.50157e-21
3.79349e-06 -2.37373e-05 8.67664e-22
2.19585e-05 5.2265e-06 -6.99218e-21
2.98927e-05 1.10248e-05 -2.21547e-20
1.42072e-05 1.41423e-05 -1.3673e-20
1.58815e-05 6.59301e-06 7.44209e-21
-1.84968e-05 1.09355e-05 -5.74526e-21
-2.25608e-05 9.03569e-06 9.46056e-21
2.29271e-05 -1.12623e-05 -1.89842e-21
-1.8266e-05 -9.99698e-06 2.91646e-21
-1.85525e-05 -1.05814e-05 -1.2172e-21
-3.43822e-07 -2.07656e-05 1.45928e-20
-8.61436e-08 -2.11586e-05 2.2312e-20
-2.0125e-05 -1.00537e-06 4.01179e-21
2.66963e-05 -4.01876e-06 5.27536e-21
1.81102e-05 1.1341e-05 -5.63128e-21
-1.78624e-05 1.0944e-05 -2.40105e-21
-1.53599e-05 1.6622e-05 1.95165e-20
1.60205e-05 -1.37519e-05 1.70209e-20
-1.10224e-05 1.74616e-05 8.14784e-21
-1.42235e-05 -1.48881e-05 8.62019e-21
-1.15514e-06 2.12086e-05 -1.5063e-20
-1.28756e-06 2.09662e-05 -1.25016e-20
8.97113e-08 -1.98321e-05 2.26549e-20
6.11023e-06 -1.97354e-05 -2.7309e-21
-1.71393e-05 -9.93453e-06 -3.52821e-21
1.55853e-05 -5.48976e-06 -5.75617e-21
6.63097e-07 2.14758e-05 -1.36073e-20
3.00812e-07 1.85058e-05 -2.7668e-20
-2.34553e-06 1.68557e-05 1.02809e-20
2.19067e-05 -5.5269e-06 3.52792e-21
-1.65398e-05 5.37757e-06 6.56959e-21
4.15707e-06 2.15155e-05 -1.20651e-20
-3.25554e-05 1.29181e-05 5.18866e-21
9.76244e-06 4.17277e-05 -8.34704e-21
-1.7052e-05 4.56772e-06 3.5431e-21
1.96827e-05 -1.16291e-05 -1.22412e-20
9.45684e-07 2.10176e-05 -3.07782e-20
-2.04794e-05 6.69883e-06 1.53929e-20
2.44388e-06 -1.6261e-05 1.17649e-20
1.81896e-06 -5.80075e-05 9.37263e-21
2.00629e-06 1.74848e-05 -2.00928e-20
-1.69606e-05 1.40214e-05 -1.99567e-20
1.78526e-05 6.39663e-05 -9.94593e-21
4.57654e-05 3.77036e-05 -2.86127e-21
5.20605e-05 -3.52527e-05 -2.20304e-20
1.48142e-05 -1.01663e-05 -1.35089e-21
-1.57842e-05 1.40364e-05 -1.21821e-20
-2.02152e-05 -7.92004e-06 -3.2296e-21
-1.9644e-05 -6.82185e-06 -9.71126e-21
5.92622e-05 -2.46099e-05 -9.04647e-22
5.7429e-05 2.3869e-05 -1.08127e-20
1.08936e-05 3.81717e-06 6.69933e-21
7.66569e-07 1.95778e-05 -1.66889e-20
7.83496e-08 1.95591e-05 -1.80459e-20
-4.8379e-05 -3.69157e-05 1.33907e-21
1.14242e-05 -1.71706e-05 -1.69681e-20
1.17324e-05 1.24637e-05 -1.47917e-20
-2.14165e-05 -3.39548e-06 9.99171e-21
-1.40439e-05 1.72008e-05 -3.14715e-21
-1.88871e-05 9.16704e-06 1.41733e-20
4.76396e-05 3.36918e-05 -1.02743e-21
1.58052e-05 7.06112e-06 2.01846e-21
-5.56634e-06 2.00288e-05 2.11236e-20
-1.69768e-05 -1.17483e-05 7.32114e-21
1.8561e-06 -2.05413e-05 3.04348e-21
-8.94906e-06 -1.92659e-05 2.65508e-20
-1.72479e-05 -1.17727e-05 -1.14205e-20
1.05788e-05 -1.89344e-05 -8.89242e-21
1.41214e-05 -1.69881e-05 1.43397e-21
-2.44022e-06 -6.14329e-05 1.65676e-20
2.61783e-05 -4.11227e-05 2.08732e-20
1.74736e-06 -2.07841e-05 1.01197e-21
1.79574e-05 1.13546e-05 4.46256e-22
-1.44753e-05 -1.49042e-05 8.99504e-22
-9.84038e-06 1.97087e-05 -1.27941e-22
-5.03907e-06 2.10052e-05 1.18874e-20
1.66261e-05 1.42427e-05 -1.4404e-20
6.05857e-06 -1.986e-05 -8.46859e-21
-1.34056e-05 -4.03551e-05 1.62651e-20
-1.98825e-06 2.50387e-05 -7.93085e-22
1.47908e-05 1.44541e-05 -5.61795e-21
-1.29574e-05 -1.0216e-05 1.48687e-20
-1.35141e-05 1.06075e-05 3.28473e-20
4.43398e-05 -1.89119e-05 -9.26077e-21
7.56253e-06 -1.33993e-05 -5.29314e-22
-8.3166e-06 -1.26261e-05 -3.66918e-21
2.13291e-05 6.36304e-06 1.6562e-21
1.09936e-05 -5.06585e-05 2.2215e-20
-3.84489e-05 -3.49006e-05 -8.64656e-21
2.33052e-05 6.20698e-06 1.3885e-21
-9.32762e-06 -1.82799e-05 1.1529e-20
1.87044e-05 9.48216e-06 -9.05522e-21
-2.85626e-05 -3.25491e-05 2.99654e-20
9.68754e-06 5.00435e-05 -9.63155e-21
3.43319e-05 -5.98558e-05 1.61347e-20
-3.47349e-05 -5.97726e-05 -1.63227e-20
2.78065e-05 -5.20188e-05 3.95296e-21
-1.26973e-05 4.36303e-05 9.84862e-21
-6.27566e-06 3.89748e-05 -1.1061e-20
-1.87295e-05 8.94529e-06 8.92456e-21
5.97681e-06 2.42406e-05 -3.94115e-21
-2.39142e-06 1.26532e-05 5.74557e-21
1.01195e-05 3.23293e-06 -6.96217e-21
-3.18827e-06 1.62044e-05 -8.55927e-21
-2.4744e-07 2.09903e-05 -1.25889e-20
1.66595e-05 9.74994e-06 -1.10479e-20
1.71007e-06 5.77204e-05 -1.31173e-20
-1.47163e-05 1.07319e-05 -4.87245e-21
1.59484e-05 -6.2462e-06 -4.20477e-22
1.68707e-05 -4.50867e-06 8.16999e-21
-6.06585e-05 -8.76826e-06 -7.15317e-21
-3.46034e-05 1.67403e-05 -1.58294e-20
-4.35117e-05 -5.25427e-05 2.55555e-20
8.65594e-06 8.34513e-06 -2.04588e-20
1.4209e-05 7.29206e-06 2.01695e-21
2.6803e-05 -4.19558e-06 2.18127e-21
-8.10384e-06 -1.32419e-05 4.4814e-21
1.72154e-05 8.42805e-06 2.26676e-21
7.33484e-06 -3.00326e-05 3.4639e-20
-1.37128e-05 1.02043e-05 -1.05965e-20
-2.23729e-05 -2.14209e-05 -1.39575e-21
-5.83558e-06 1.62966e-05 -1.49748e-20
-3.27078e-06 2.06771e-05 -6.15582e-23
3.38475e-05 2.1295e-05 -2.50111e-21
3.61108e-05 -1.92816e-05 -1.87586e-20
-4.20675e-05 -1.16222e-05 1.5309e-22
7.63366e-06 7.68522e-06 -1.48551e-20
-4.05831e-06 0.000101354 -4.20065e-21
8.61651e-07 -0.00010446 8.16482e-21
5.24506e-05 8.76388e-05 -5.88776e-21
-1.91016e-05 8.45731e-06 -7.28048e-21
-2.63747e-05 5.65455e-05 -1.44974e-21
5.30288e-05 -8.46337e-05 -4.43682e-21
-1.17197e-05 -1.82811e-05 6.11241e-21
7.79945e-05 6.7493e-05 -1.67893e-21
2.39919e-05 -1.79756e-05 2.52403e-20
-3.60718e-06 -2.982e-05 -1.45949e-20
8.1773e-05 -6.58457e-05 -1.16719e-21
-6.74416e-06 1.45173e-05 -1.69621e-21
-5.38282e-05 -3.48213e-05 -2.26797e-21
-4.30102e-05 -9.3123e-05 5.14803e-21
-2.41109e-05 -5.78001e-05 3.12056e-20
-4.39718e-05 9.413e-05 -7.09799e-21
-1.00926e-05 6.40792e-05 -5.72922e-21
1.56316e-05 3.71056e-05 -7.55699e-21
-2.79533e-05 3.72377e-05 2.19324e-20
-2.52712e-05 -5.51793e-05 1.0176e-20
0.000100358 1.73157e-05 1.66568e-20
-1.69262e-05 1.07663e-05 -1.3311e-20
-5.91192e-06 1.63318e-05 -1.088e-20
-5.07543e-05 3.76369e-05 1.8956e-20
-1.7275e-05 9.9434e-06 -9.41264e-21
9.91955e-05 -1.52622e-05 -5.4988e-21
-1.53591e-05 7.79813e-06 8.62777e-21
7.19209e-06 -1.44939e-05 -5.67978e-21
-7.79637e-05 -6.09437e-05 1.98573e-20
-2.58771e-05 5.7713e-05 -1.87084e-21
-7.91167e-05 6.0371e-05 -7.67011e-22
2.45384e-05 5.19465e-05 -3.9754e-21
-1.47665e-05 1.05816e-05 -2.00607e-20
-2.05284e-05 2.44748e-05 -1.80977e-20
-2.85306e-05 4.98142e-05 -3.24674e-20
-5.67719e-05 2.07974e-07 -2.08677e-20
-9.44042e-07 1.62949e-05 -7.212e-21
-2.88475e-05 -5.04028e-05 -7.83954e-21
-5.81941e-05 -2.19787e-07 -1.71531e-20
-2.83474e-05 4.86927e-05 1.58964e-20
-1.51892e-05 6.62613e-05 -1.08724e-20
-1.78635e-05 4.12575e-05 -7.40341e-22
-3.38978e-05 2.71354e-05 -1.44073e-20
2.43811e-05 -6.0565e-06 1.22639e-20
3.79999e-05 -2.19515e-06 1.01566e-20
1.34814e-05 8.19971e-06 4.10484e-21
-1.04684e-05 -7.39822e-05 1.06533e-21
-6.94438e-05 -2.79722e-05 -2.42153e-20
3.71295e-05 7.32684e-07 9.57425e-21
5.83618e-05 -1.08914e-05 7.34415e-21
-1.05829e-05 -1.34961e-05 -1.02266e-20
-5.08251e-05 3.76226e-05 9.523e-21
-4.61302e-05 5.3996e-05 1.7803e-20
6.23581e-05 -2.22308e-05 -7.81104e-21
-2.81753e-05 -5.04934e-05 8.76155e-22
-2.8775e-05 4.97759e-05 -4.87113e-20
-5.72502e-05 -1.17107e-06 -9.29169e-21
-2.65714e-05 5.05941e-05 2.65136e-20
-5.79489e-05 -8.16954e-07 -1.17791e-20
6.60713e-05 1.73912e-05 -2.67936e-21
5.63761e-05 1.2924e-06 4.25583e-21
5.08964e-05 -2.92717e-05 -7.66674e-21
2.49084e-05 -5.94228e-05 -1.17401e-20
2.99163e-05 -4.88532e-05 -6.02572e-21
2.91653e-05 4.86772e-05 -4.82518e-21
2.43433e-05 5.80852e-05 1.21598e-21
7.57968e-05 -2.00361e-05 -5.06557e-21
4.6263e-05 2.90611e-05 1.0424e-20
4.66209e-05 1.37445e-05 1.54403e-21
TENSORS solid_stress_TPM float
375.03 -24.9203 -8.28967e-13
-24.9203 238.569 2.71901e-12
-8.28967e-13 2.71901e-12 197.816

457 -21.3202 -2.96067e-12
-21.3202 489.984 -2.95527e-12
-2.96067e-12 -2.95527e-12 487.107

454.875 28.043 -4.06194e-13
28.043 463.705 -2.80102e-12
-4.06194e-13 -2.80102e-12 458.455

455.025 -29.8427 3.84552e-12
-29.8427 482.606 -1.44803e-12
3.84552e-12 -1.44803e-12 484.854

527.684 19.9309 -5.18785e-12
19.9309 548.454 1.90374e-12
-5.18785e-12 1.90374e-12 527.355

437.308 -18.0743 7.76268e-13
-18.0743 480.335 2.14051e-12
7.76268e-13 2.14051e-12 458.036

372.324 26.4844 -2.63848e-12
26.4844 239.089 2.30097e-12
-2.63848e-12 2.30097e-12 197.8

473.649 29.9577 1.00779e-12
29.9577 469.498 -1.21029e-12
1.00779e-12 -1.21029e-12 472.334

471.544 5.4831 -5.16328e-13
5.4831 417.819 -4.40755e-12
-5.16328e-13 -4.40755e-12 432.792

504.256 -7.47756 -2.23525e-13
-7.47756 444.108 1.76348e-12
-2.23525e-13 1.76348e-12 483.449

360.29 16.3084 1.84978e-12
16.3084 247.654 -7.81242e-12
1.84978e-12 -7.81242e-12 233.643

444.779 -13.4531 1.76822e-12
-13.4531 498.382 -9.15416e-13
1.76822e-12 -9.15416e-13 472.236

466.864 27.833 -7.72715e-13
27.833 468.298 -5.02295e-12
-7.72715e-13 -5.02295e-12 466.731

457.034 -14.34 6.98839e-13
-14.34 500.43 1.23457e-12
6.98839e-13 1.23457e-12 483.454

512.934 33.3114 -1.22598e-12
33.3114 511.594 -2.36622e-12
-1.22598e-12 -2.36622e-12 515.223

489.168 0.560966 -9.69891e-13
0.560966 435.519 -2.15753e-14
-9.69891e-13 -2.15753e-14 462.268

457.58 -17.9692 2.02041e-12
-17.9692 512.882 5.70151e-12
2.02041e-12 5.70151e-12 493.594

493.953 -2.6652 3.77713e-12
-2.6652 439.045 -3.41283e-12
3.77713e-12 -3.41283e-12 474.26

418.789 26.6735 -4.45096e-12
26.6735 449.655 1.14516e-12
-4.45096e-12 1.14516e-12 424.049

481.977 -4.19554 2.0363e-12
-4.19554 424.917 4.36288e-12
2.0363e-12 4.36288e-12 453.471

425.292 8.66851 1.04035e-12
8.66851 481.898 -6.08698e-13
1.04035e-12 -6.08698e-13 444.837

634.128 6.28773 1.73324e-13
6.28773 633.963 -4.43364e-12
1.73324e-13 -4.43364e-12 570.316

479.148 1.87597 -1.202e-12
1.87597 422.936 -2.70791e-12
-1.202e-12 -2.70791e-12 449.728

447.158 -27.7149 5.44039e-12
-27.7149 461.146 -3.07428e-12
5.44039e-12 -3.07428e-12 452.944

481.044 6.84933 -2.12808e-12
6.84933 425.437 -6.82077e-12
-2.12808e-12 -6.82077e-12 452.934

449.754 19.1128 -4.01679e-13
19.1128 490.313 1.58096e-13
-4.01679e-13 1.58096e-13 478.202

377.651 4.18133 -2.13163e-14
4.18133 291.652 -4.48619e-12
-2.13163e-14 -4.48619e-12 259

462.681 30.7456 -3.05415e-12
30.7456 460.71 2.48631e-12
-3.05415e-12 2.48631e-12 460.541

384.937 37.074 -2.7948e-12
37.074 383.516 -4.30589e-12
-2.7948e-12 -4.30589e-12 348.415

586.94 10.3235 -1.31391e-12
10.3235 563.449 -2.28062e-12
-1.31391e-12 -2.28062e-12 546.87

491.683 14.2168 3.35435e-12
14.2168 442.493 -1.88175e-12
3.35435e-12 -1.88175e-12 465.852

352.852 -17.7802 -5.74355e-14
-17.7802 416.719 -2.82559e-12
-5.74355e-14 -2.82559e-12 348.586

331.014 -42.1013 -5.29828e-12
-42.1013 335.87 8.95284e-12
-5.29828e-12 8.95284e-12 253.48

531.407 5.9868 -6.84314e-13
5.9868 586.887 -4.7861e-12
-6.84314e-13 -4.7861e-12 538.58

554.021 -4.84075 -2.75942e-12
-4.84075 582.069 4.76004e-12
-2.75942e-12 4.76004e-12 542.51

577.985 21.0279 -8.22453e-13
21.0279 539.945 -4.13462e-12
-8.22453e-13 -4.13462e-12 538.348

556.183 5.06757 1.2849e-13
5.06757 600.673 -5.92119e-16
1.2849e-13 -5.92119e-16 547.967

573.772 -9.16992 2.32347e-12
-9.16992 555.762 -1.87881e-12
2.32347e-12 -1.87881e-12 540.635

467.123 -27.9979 -9.40877e-13
-27.9979 466.487 -1.38023e-12
-9.40877e-13 -1.38023e-12 465.103

330.399 41.5206 -5.38118e-12
41.5206 337.968 -3.11218e-12
-5.38118e-12 -3.11218e-12 253.839

414.521 -17.9489 7.56728e-13
-17.9489 354.484 3.54324e-12
7.56728e-13 3.54324e-12 346.317

559.304 -3.70611 3.44095e-12
-3.70611 599.922 1.70057e-12
3.44095e-12 1.70057e-12 548.381

586.411 19.5556 -1.09586e-12
19.5556 572.453 -2.29387e-12
-1.09586e-12 -2.29387e-12 548.17

490.888 -12.2732 3.45679e-12
-12.2732 442.848 4.37132e-13
3.45679e-12 4.37132e-13 466.524

341.704 -43.2985 -6.15804e-14
-43.2985 345.332 8.73968e-13
-6.15804e-14 8.73968e-13 288.973

417.547 -18.0632 -5.2817e-13
-18.0632 357.101 1.85925e-12
-5.2817e-13 1.85925e-12 351.49

413.001 17.0855 3.69097e-12
17.0855 464.769 -4.34615e-13
3.69097e-12 -4.34615e-13 428.714

429.617 19.3388 -3.83367e-12
19.3388 466.499 3.59357e-12
-3.83367e-12 3.59357e-12 437.068

486.767 -16.3009 -2.2613e-12
-16.3009 432.862 -5.1991e-12
-2.2613e-12 -5.1991e-12 458.665

355.57 -34.1849 3.48699e-12
-34.1849 389.389 -2.11979e-13
3.48699e-12 -2.11979e-13 332.557

410.239 19.1815 -5.66184e-12
19.1815 350.69 -1.01015e-12
-5.66184e-12 -1.01015e-12 339.466

425.188 -25.288 7.21201e-13
-25.288 383.809 6.89671e-12
7.21201e-13 6.89671e-12 373.065

519.911 19.4858 7.78784e-13
19.4858 547.521 -2.34479e-13
7.78784e-13 -2.34479e-13 525.721

416.4 29.6489 1.27069e-12
29.6489 393.874 -3.3206e-12
1.27069e-12 -3.3206e-12 373.929

522.166 -21.8128 -4.12411e-13
-21.8128 541.387 -3.60803e-12
-4.12411e-13 -3.60803e-12 524.367

364.06 -42.7106 1.42109e-14
-42.7106 343.272 1.36424e-12
1.42109e-14 1.36424e-12 289.69

553.443 5.45976 -4.55502e-12
5.45976 583.862 -2.24117e-12
-4.55502e-12 -2.24117e-12 542.884

373.705 -5.3297 -5.68434e-14
-5.3297 436.65 -2.22163e-12
-5.68434e-14 -2.22163e-12 373.813

580.81 10.3842 -2.78414e-12
10.3842 556.162 5.05873e-13
-2.78414e-12 5.05873e-13 542.64

435.045 21.4128 -1.9306e-12
21.4128 473.749 1.96702e-12
-1.9306e-12 1.96702e-12 454.66

513.562 5.75385 -2.69029e-12
5.75385 452.796 -5.55496e-12
-2.69029e-12 -5.55496e-12 494.855

522.448 11.4589 -1.26595e-12
11.4589 487.852 3.46804e-12
-1.26595e-12 3.46804e-12 507.069

383.695 31.8195 3.21876e-12
31.8195 315.186 1.73728e-12
3.21876e-12 1.73728e-12 269.863

482.078 -6.03511 -6.16499e-12
-6.03511 528.171 5.8975e-13
-6.16499e-12 5.8975e-13 504.091

487.087 9.51968 -3.16591e-12
9.51968 523.68 2.53249e-12
-3.16591e-12 2.53249e-12 507.487

456.449 -2.88076 -1.99799e-12
-2.88076 520.148 -3.81917e-13
-1.99799e-12 -3.81917e-13 487.798

464.445 23.402 -1.28486e-12
23.402 503.46 -1.17684e-12
-1.28486e-12 -1.17684e-12 495.431

496.737 8.46346 -1.05012e-12
8.46346 444.389 3.69926e-13
-1.05012e-12 3.69926e-13 477.689

445.497 -28.239 4.39204e-12
-28.239 459.519 -2.80072e-12
4.39204e-12 -2.80072e-12 451.158

501.672 -1.71122 -9.68707e-13
-1.71122 444.907 2.62294e-12
-9.68707e-13 2.62294e-12 489.059

519.524 -19.2618 -2.01705e-12
-19.2618 546.814 1.4199e-12
-2.01705e-12 1.4199e-12 525.454

523.295 21.3078 4.46695e-12
21.3078 542.912 -4.34712e-13
4.46695e-12 -4.34712e-13 525.257

353.402 -16.5832 3.03683e-12
-16.5832 415.726 2.8777e-13
3.03683e-12 2.8777e-13 346.105

506.012 -27.936 -2.17248e-12
-27.936 485.301 -2.05554e-12
-2.17248e-12 -2.05554e-12 493.871

449.711 -25.1344 9.58937e-13
-25.1344 471.211 1.6751e-12
9.58937e-13 1.6751e-12 458.568

357.863 -31.7102 1.77636e-12
-31.7102 285.671 1.13065e-12
1.77636e-12 1.13065e-12 249.853

498.492 3.2226 3.27952e-12
3.2226 541.397 2.2767e-12
3.27952e-12 2.2767e-12 513.634

501.718 28.9437 2.63434e-12
28.9437 474.541 1.9306e-12
2.63434e-12 1.9306e-12 487.649

448.436 19.6641 4.02286e-12
19.6641 492.099 1.74409e-12
4.02286e-12 1.74409e-12 477.634

440.183 7.99941 1.36187e-13
7.99941 373.03 -1.02969e-12
1.36187e-13 -1.02969e-12 382.927

386.443 -33.935 9.45022e-13
-33.935 360.199 3.19744e-13
9.45022e-13 3.19744e-13 319.429

537.713 -10.5875 -1.79146e-12
-10.5875 556.131 6.67851e-12
-1.79146e-12 6.67851e-12 531.242

482.648 23.8994 2.94165e-12
23.8994 504.552 -1.91999e-12
2.94165e-12 -1.91999e-12 502.035

385.364 -32.3833 9.75812e-13
-32.3833 345.3 2.27374e-13
9.75812e-13 2.27374e-13 317.075

422.189 10.7909 -9.18969e-13
10.7909 363.844 -2.73455e-12
-9.18969e-13 -2.73455e-12 350.246

307.646 -21.2057 -2.28321e-12
-21.2057 388.435 2.11742e-12
-2.28321e-12 2.11742e-12 288.11

434.437 14.4255 -2.55795e-13
14.4255 488.66 4.12115e-13
-2.55795e-13 4.12115e-13 460.876

509.713 23.1428 3.20218e-12
23.1428 475.164 -3.55834e-12
3.20218e-12 -3.55834e-12 489.939

338.234 42.198 -3.03402e-12
42.198 349.565 3.67114e-14
-3.03402e-12 3.67114e-14 288.946

634.214 16.5071 -1.16852e-11
16.5071 603.066 -8.49987e-13
-1.16852e-11 -8.49987e-13 565.32

372.882 -4.10828 -2.57986e-12
-4.10828 436.809 4.05838e-12
-2.57986e-12 4.05838e-12 373.42

637.12 -16.6323 -1.43924e-11
-16.6323 599.536 6.30459e-13
-1.43924e-11 6.30459e-13 564.827

533.932 -27.3349 -1.14634e-12
-27.3349 507.232 -3.44554e-12
-1.14634e-12 -3.44554e-12 515.707

505.289 27.4245 2.16301e-12
27.4245 466.327 1.43796e-12
2.16301e-12 1.43796e-12 485.065

426.918 -24.4102 -1.3903e-12
-24.4102 386.232 4.52912e-12
-1.3903e-12 4.52912e-12 375.971

358.93 31.3227 -2.62131e-12
31.3227 395.997 1.60583e-12
-2.62131e-12 1.60583e-12 339.194

339.819 -10.7049 -2.66572e-12
-10.7049 408.384 9.66338e-13
-2.66572e-12 9.66338e-13 319.099

453.097 21.9706 -1.31125e-12
21.9706 494.671 9.60121e-13
-1.31125e-12 9.60121e-13 483.161

533.107 16.794 2.87918e-12
16.794 506.192 -2.25509e-12
2.87918e-12 -2.25509e-12 513.346

443.445 15.1537 1.53078e-12
15.1537 488.432 -4.46162e-12
1.53078e-12 -4.46162e-12 464.275

451.473 15.9536 2.69651e-12
15.9536 400.53 2.46114e-12
2.69651e-12 2.46114e-12 403.74

374.482 -21.4722 8.44954e-13
-21.4722 419.86 8.89363e-13
8.44954e-13 8.89363e-13 357.191

389.716 -29.3901 1.74557e-12
-29.3901 342.364 1.04177e-11
1.74557e-12 1.04177e-11 314.386

454.959 -24.5728 3.47411e-12
-24.5728 480.058 -1.89182e-13
3.47411e-12 -1.89182e-13 478.364

466.42 27.4508 2.65625e-12
27.4508 478.737 -1.2399e-12
2.65625e-12 -1.2399e-12 479.803

452.21 23.1875 3.10966e-12
23.1875 492.552 1.92735e-13
3.10966e-12 1.92735e-13 482.036

466.29 13.1692 -1.88716e-12
13.1692 529.771 7.14688e-13
-1.88716e-12 7.14688e-13 501.377

490.855 9.37221 -7.69755e-13
9.37221 437.883 4.61705e-12
-7.69755e-13 4.61705e-12 462.049

327.707 -4.66499 -2.75276e-12
-4.66499 403.375 4.59958e-12
-2.75276e-12 4.59958e-12 314.407

462.573 -36.8333 -1.22391e-12
-36.8333 487.684 -2.28055e-12
-1.22391e-12 -2.28055e-12 492.742

445.843 27.465 4.35474e-12
27.465 463.264 -5.11532e-12
4.35474e-12 -5.11532e-12 455.008

305.667 2.1703 3.51748e-12
2.1703 393.355 2.62901e-13
3.51748e-12 2.62901e-13 297.251

385.991 34.6098 2.32347e-12
34.6098 332.443 1.22805e-12
2.32347e-12 1.22805e-12 306.241

453.344 -22.9737 -1.48326e-13
-22.9737 480.063 5.00637e-13
-1.48326e-13 5.00637e-13 476.166

501.388 5.73296 1.23368e-12
5.73296 441.309 -2.35367e-14
1.23368e-12 -2.35367e-14 481.004

422.374 27.2036 -1.8782e-12
27.2036 389.761 2.53427e-13
-1.8782e-12 2.53427e-13 374.229

570.538 12.7455 -8.55464e-13
12.7455 565.914 4.31625e-12
-8.55464e-13 4.31625e-12 542.912

396.172 24.3301 6.65542e-13
24.3301 349.643 -2.51177e-12
6.65542e-13 -2.51177e-12 319.039

569.16 -13.0551 -1.4686e-12
-13.0551 565.826 -4.04417e-12
-1.4686e-12 -4.04417e-12 542.368

375.086 0.778521 -3.97297e-12
0.778521 438.863 -1.73609e-12
-3.97297e-12 -1.73609e-12 374.635

461.464 -2.23528 -1.6982e-12
-2.23528 399.298 -1.83694e-12
-1.6982e-12 -1.83694e-12 417.276

538.191 -15.768 3.42911e-12
-15.768 480.626 1.9836e-12
3.42911e-12 1.9836e-12 513.473

457.239 24.3881 -4.7082e-13
24.3881 487.779 -6.34752e-13
-4.7082e-13 -6.34752e-13 488.348

461.25 -13.535 3.66947e-13
-13.535 519.13 9.34956e-13
3.66947e-13 9.34956e-13 495.709

514.963 -8.00001 -1.26965e-12
-8.00001 438.185 3.15155e-12
-1.26965e-12 3.15155e-12 494.271

488.31 -22.2841 -4.89372e-12
-22.2841 541.598 2.27196e-12
-4.89372e-12 2.27196e-12 515.745

556.047 -6.59644 -8.26598e-13
-6.59644 560.391 -1.18431e-12
-8.26598e-13 -1.18431e-12 538.725

463.86 -29.9081 8.03505e-13
-29.9081 483.19 -9.81141e-13
8.03505e-13 -9.81141e-13 483.594

341.702 11.4535 3.04941e-12
11.4535 406.188 -9.82917e-13
3.04941e-12 -9.82917e-13 319.478

422.475 -28.146 -6.22554e-12
-28.146 391.237 -4.14246e-12
-6.22554e-12 -4.14246e-12 375.142

507.378 -13.7722 3.33607e-12
-13.7722 558.744 6.15804e-13
3.33607e-12 6.15804e-13 525.247

501.051 0.50441 -1.71522e-12
0.50441 441.274 -2.86119e-12
-1.71522e-12 -2.86119e-12 487.081

476.937 -21.5245 5.07594e-13
-21.5245 507.416 1.17713e-12
5.07594e-13 1.17713e-12 501.5

459.092 25.6976 -3.58972e-13
25.6976 484.595 2.2391e-12
-3.58972e-13 2.2391e-12 487.976

394.424 -31.4639 -4.44563e-12
-31.4639 400.593 1.45306e-12
-4.44563e-12 1.45306e-12 357.516

552.123 -7.08511 -6.29075e-12
-7.08511 585.292 3.89318e-13
-6.29075e-12 3.89318e-13 542.599

347.205 -33.0762 1.75504e-12
-33.0762 382.602 4.99748e-13
1.75504e-12 4.99748e-13 303.431

490.864 -19.1794 -2.11564e-12
-19.1794 448.382 -2.05169e-13
-2.11564e-12 -2.05169e-13 467.118

519.703 1.97024 -2.75446e-12
1.97024 466.809 -1.49332e-12
-2.75446e-12 -1.49332e-12 502.826

570.556 17.8751 -9.47094e-13
17.8751 566.477 -1.98656e-13
-9.47094e-13 -1.98656e-13 542.371

375.285 20.1824 -5.36164e-12
20.1824 424.025 -2.58874e-12
-5.36164e-12 -2.58874e-12 360.216

489.076 27.2103 3.03106e-12
27.2103 468.534 2.60384e-12
3.03106e-12 2.60384e-12 476.633

454.373 -24.5112 7.66083e-12
-24.5112 415.336 6.86355e-12
7.66083e-12 6.86355e-12 418.597

454.713 -17.8384 -5.7195e-14
-17.8384 494.901 -1.32102e-12
-5.7195e-14 -1.32102e-12 482.636

379.193 35.0676 1.71122e-12
35.0676 366.025 3.54324e-12
1.71122e-12 3.54324e-12 317.044

449.146 -21.831 -4.46236e-12
-21.831 491.698 -1.95606e-12
-4.46236e-12 -1.95606e-12 479.767

485.485 30.8502 4.05305e-12
30.8502 465.13 -5.25121e-12
4.05305e-12 -5.25121e-12 473.44

480.316 -25.2438 -8.18308e-13
-25.2438 442.361 -1.10519e-12
-8.18308e-13 -1.10519e-12 455.436

448.212 -25.1261 -2.06975e-12
-25.1261 469.761 -1.50398e-12
-2.06975e-12 -1.50398e-12 458.09

445.338 -18.6878 5.26986e-13
-18.6878 393.455 7.77571e-12
5.26986e-13 7.77571e-12 397.251

470.646 -18.8493 -2.83151e-12
-18.8493 422.846 3.93789e-12
-2.83151e-12 3.93789e-12 437.525

458.992 -25.3369 -4.8539e-13
-25.3369 485.421 -6.01371e-13
-4.8539e-13 -6.01371e-13 488.819

386.535 35.9686 9.46206e-13
35.9686 381.981 1.83202e-12
9.46206e-13 1.83202e-12 348.11

444.488 15.3765 -1.26506e-12
15.3765 491.525 1.41339e-12
-1.26506e-12 1.41339e-12 467.132

469.389 26.422 3.16251e-12
26.422 479.95 -1.95962e-12
3.16251e-12 -1.95962e-12 482.539

456.135 25.4736 6.302e-13
25.4736 486.639 -1.31332e-12
6.302e-13 -1.31332e-12 487.239

457.8 11.6214 8.04859e-13
11.6214 506.932 4.26859e-12
8.04859e-13 4.26859e-12 486.008

431.943 -8.22683 3.05889e-12
-8.22683 370.748 5.38932e-12
3.05889e-12 5.38932e-12 363.3

376.772 18.606 1.33523e-12
18.606 427.257 -4.21707e-12
1.33523e-12 -4.21707e-12 363.876

452.304 -24.3803 1.08239e-12
-24.3803 478.377 1.69109e-12
1.08239e-12 1.69109e-12 470.703

440.738 25.6655 1.74912e-12
25.6655 455.632 -2.06709e-12
1.74912e-12 -2.06709e-12 437.797

390.948 -35.6285 4.80919e-12
-35.6285 380.269 -3.64449e-12
4.80919e-12 -3.64449e-12 350.084

368.934 38.3158 4.51905e-12
38.3158 327.246 -2.17426e-12
4.51905e-12 -2.17426e-12 295.676

363.639 -33.3103 1.29496e-12
-33.3103 394.427 -4.46339e-12
1.29496e-12 -4.46339e-12 341.972

397.922 -31.1589 4.50603e-12
-31.1589 404.184 -6.95385e-12
4.50603e-12 -6.95385e-12 362.965

502.848 -6.83865 3.53495e-13
-6.83865 442.241 4.79513e-12
3.53495e-13 4.79513e-12 482.309

393.155 30.3411 -3.23771e-12
30.3411 408.97 -2.62546e-12
-3.23771e-12 -2.62546e-12 363.425

429.692 13.2944 -3.35731e-12
13.2944 372.239 1.73787e-13
-3.35731e-12 1.73787e-13 362.705

350.136 13.3785 8.93952e-13
13.3785 418.504 -4.34023e-12
8.93952e-13 -4.34023e-12 348.466

379.47 -22.3398 -1.8711e-12
-22.3398 423.503 -4.47997e-12
-1.8711e-12 -4.47997e-12 363.439

491.199 -1.0915 7.26456e-13
-1.0915 550.869 1.19963e-12
7.26456e-13 1.19963e-12 516.298

372.855 2.24655 -3.94499e-12
2.24655 437.777 -1.73017e-12
-3.94499e-12 -1.73017e-12 373.511

357.881 31.0885 -3.67706e-12
31.0885 399.477 -2.69651e-12
-3.67706e-12 -2.69651e-12 341.952

457.982 12.1077 3.18278e-12
12.1077 510.552 2.56269e-12
3.18278e-12 2.56269e-12 488.394

421.443 -27.647 -1.96702e-12
-27.647 389.063 -4.18628e-13
-1.96702e-12 -4.18628e-13 375.063

524.748 20.5569 1.22805e-12
20.5569 469.741 2.5094e-12
1.22805e-12 2.5094e-12 500.726

534.917 26.2704 -2.93691e-13
26.2704 506.852 -3.04097e-12
-2.93691e-13 -3.04097e-12 516.086

494.807 -18.5674 2.27611e-12
-18.5674 449.017 1.59902e-12
2.27611e-12 1.59902e-12 470.847

554.577 -1.80111 -2.40001e-12
-1.80111 516.015 -6.86059e-12
-2.40001e-12 -6.86059e-12 525.709

473.278 -31.8116 -1.26477e-12
-31.8116 475.688 1.76688e-12
-1.26477e-12 1.76688e-12 478.569

412.588 23.3272 -4.7109e-12
23.3272 357.188 -3.45797e-12
-4.7109e-12 -3.45797e-12 348.083

464.167 30.162 9.2637e-13
30.162 482.759 3.86062e-13
9.2637e-13 3.86062e-13 483.195

464.43 29.2058 1.55283e-12
29.2058 482.232 3.21017e-12
1.55283e-12 3.21017e-12 482.756

393.937 30.6602 4.68958e-13
30.6602 405.714 1.80478e-12
4.68958e-13 1.80478e-12 360.86

502.846 27.0849 2.14584e-12
27.0849 482.657 2.33591e-12
2.14584e-12 2.33591e-12 490.726

415.342 3.52507 3.35021e-12
3.52507 339.009 -7.26197e-13
3.35021e-12 -7.26197e-13 340.817

493.114 31.8172 -3.12461e-12
31.8172 487.215 -1.50813e-12
-3.12461e-12 -1.50813e-12 495.566

476.318 -12.5997 -5.6947e-13
-12.5997 522.442 6.46594e-13
-5.6947e-13 6.46594e-13 500.24

536.919 24.2782 -1.80567e-12
24.2782 507.395 8.5502e-13
-1.80567e-12 8.5502e-13 516.622

468.169 -29.5786 3.26258e-12
-29.5786 479.961 9.03277e-13
3.26258e-12 9.03277e-13 483.053

464.553 -4.89809 2.16355e-12
-4.89809 521.547 -1.21976e-13
2.16355e-12 -1.21976e-13 490.971

400.931 -24.5558 -1.06581e-13
-24.5558 349.016 9.36732e-13
-1.06581e-13 9.36732e-13 323.943

418.958 29.6925 3.60956e-12
29.6925 392.456 2.64796e-12
3.60956e-12 2.64796e-12 373.761

352.337 14.6962 -2.75513e-12
14.6962 417.203 -9.76996e-13
-2.75513e-12 -9.76996e-13 348.232

500.521 -1.13888 -3.29766e-12
-1.13888 442.786 4.16334e-12
-3.29766e-12 4.16334e-12 487.7

492.462 0.00223111 1.98212e-12
0.00223111 438.094 -6.05099e-13
1.98212e-12 -6.05099e-13 474.41

452.957 23.1237 -5.24025e-12
23.1237 479.699 6.4689e-13
-5.24025e-12 6.4689e-13 475.578

481.296 23.8709 -1.07618e-12
23.8709 502.866 2.15176e-12
-1.07618e-12 2.15176e-12 501.246

456.579 -24.3807 -1.30962e-12
-24.3807 487.344 -7.70051e-13
-1.30962e-12 -7.70051e-13 488.49

457.829 -0.672735 1.38682e-12
-0.672735 517.934 2.224e-12
1.38682e-12 2.224e-12 486.393

458.877 25.5903 -2.19114e-12
25.5903 486.461 -2.80398e-12
-2.19114e-12 -2.80398e-12 488.512

465.553 -10.3078 -6.09468e-12
-10.3078 408.079 -2.49948e-12
-6.09468e-12 -2.49948e-12 427.218

400.86 -32.8329 -1.32871e-12
-32.8329 414.95 -1.79886e-12
-1.32871e-12 -1.79886e-12 385.161

518.093 -2.30066 1.33923e-12
-2.30066 465.735 1.47171e-12
1.33923e-12 1.47171e-12 500.923

391.868 -34.5077 2.5319e-12
-34.5077 379.602 -2.66454e-14
2.5319e-12 -2.66454e-14 347.414

477.998 19.0861 2.56891e-12
19.0861 509.198 -1.32457e-12
2.56891e-12 -1.32457e-12 501.843

506.11 -26.4786 1.95873e-12
-26.4786 470.245 6.48666e-13
1.95873e-12 6.48666e-13 487.27

424.997 -9.69009 8.32519e-13
-9.69009 366.728 -1.85022e-12
8.32519e-13 -1.85022e-12 355.978

530.264 -23.1919 -3.65337e-13
-23.1919 488.755 -5.6873e-13
-3.65337e-13 -5.6873e-13 506.487

500.89 2.35826 2.23347e-12
2.35826 444.574 -1.41072e-13
2.23347e-12 -1.41072e-13 489.203

521.19 -23.3213 3.27619e-12
-23.3213 501.84 -1.88619e-12
3.27619e-12 -1.88619e-12 508.532

502.014 -25.8594 -7.9788e-12
-25.8594 461.49 2.1861e-12
-7.9788e-12 2.1861e-12 481.242

498.825 -8.54605 1.0066e-13
-8.54605 445.134 2.19528e-12
1.0066e-13 2.19528e-12 479.342

482.218 -23.0681 2.83655e-12
-23.0681 504.991 1.9871e-12
2.83655e-12 1.9871e-12 502.534

428.537 -31.3414 -3.26731e-12
-31.3414 410.585 -7.04977e-12
-3.26731e-12 -7.04977e-12 398.995

503.266 -24.5871 -5.17808e-12
-24.5871 464.712 4.7029e-12
-5.17808e-12 4.7029e-12 482.158

441.238 10.8643 -2.13518e-12
10.8643 378.478 -2.43835e-12
-2.13518e-12 -2.43835e-12 387.796

500.036 26.3402 -2.3744e-12
26.3402 498.582 -4.88039e-12
-2.3744e-12 -4.88039e-12 500.103

463.748 -37.613 1.32339e-13
-37.613 488.387 -3.02243e-12
1.32339e-13 -3.02243e-12 494.081

464.856 37.2653 3.09027e-12
37.2653 487.299 -3.82583e-12
3.09027e-12 -3.82583e-12 493.796

446.324 -28.5734 -3.69815e-13
-28.5734 500.013 1.75948e-12
-3.69815e-13 1.75948e-12 492.31

448.559 27.0642 6.42449e-13
27.0642 500.704 -1.46727e-12
6.42449e-13 -1.46727e-12 492.497

513.068 -8.52766 1.47156e-12
-8.52766 436.403 -3.79948e-12
1.47156e-12 -3.79948e-12 492.758

511.23 9.27367 -4.2224e-12
9.27367 438 -9.38509e-14
-4.2224e-12 -9.38509e-14 492.395

501.654 -9.84611 -2.25124e-12
-9.84611 451.74 -5.90047e-13
-2.25124e-12 -5.90047e-13 483.018

510.863 32.1162 2.02209e-13
32.1162 510.389 3.58221e-12
2.02209e-13 3.58221e-12 514.054

509.639 -32.8543 2.72375e-14
-32.8543 510.066 1.15353e-12
2.72375e-14 1.15353e-12 513.693

481.808 16.0685 3.33511e-13
16.0685 539.13 5.71099e-13
3.33511e-13 5.71099e-13 514.325

483.002 -15.801 -1.96243e-12
-15.801 538.72 4.20701e-13
-1.96243e-12 4.20701e-13 514.346

556.869 -3.74756 5.81165e-13
-3.74756 506.831 1.66119e-12
5.81165e-13 1.66119e-12 524.991

558.423 3.61033 6.07662e-13
3.61033 505.156 3.8991e-13
6.07662e-13 3.8991e-13 525.363

387.306 9.83676 9.01131e-13
9.83676 449.193 2.01084e-12
9.01131e-13 2.01084e-12 397.083

472.385 -24.774 -1.20467e-12
-24.774 480.751 -4.16704e-13
-1.20467e-12 -4.16704e-13 484.974

443.458 -36.3876 1.78361e-12
-36.3876 485.529 1.03177e-12
1.78361e-12 1.03177e-12 486.625

473.638 -4.66426 2.36255e-12
-4.66426 420.433 4.70453e-12
2.36255e-12 4.70453e-12 436.335

540.253 -16.6948 -3.86935e-12
-16.6948 484.19 -1.07203e-12
-3.86935e-12 -1.07203e-12 515.286

540.973 16.1758 2.89546e-13
16.1758 485.413 3.45501e-13
2.89546e-13 3.45501e-13 515.892

506.858 0.121882 1.27306e-13
0.121882 423.547 1.83382e-12
1.27306e-13 1.83382e-12 486.999

384.788 23.3749 -8.70711e-13
23.3749 432.293 8.01729e-13
-8.70711e-13 8.01729e-13 385.472

442.329 36.1716 3.49905e-12
36.1716 485.207 -1.02141e-12
3.49905e-12 -1.02141e-12 485.83

452.593 -23.3957 -1.28445e-12
-23.3957 494.949 9.41469e-13
-1.28445e-12 9.41469e-13 483.587

443.244 23.3525 6.46475e-12
23.3525 397.515 1.10549e-12
6.46475e-12 1.10549e-12 400.369

530.967 23.8582 -7.95808e-13
23.8582 488.006 3.80792e-12
-7.95808e-13 3.80792e-12 507.246

428.475 -31.3133 3.20928e-12
-31.3133 410.87 -1.05042e-12
3.20928e-12 -1.05042e-12 398.814

519.856 -3.23091 -2.08337e-12
-3.23091 469.056 -2.93247e-12
-2.08337e-12 -2.93247e-12 502.683

439.392 -34.161 -7.71679e-13
-34.161 485.5 -1.53092e-12
-7.71679e-13 -1.53092e-12 485.819

389.18 8.31987 -9.42098e-13
8.31987 452.323 2.97244e-13
-9.42098e-13 2.97244e-13 400.851

385.875 21.8113 -9.48278e-13
21.8113 435.768 -2.34479e-13
-9.48278e-13 -2.34479e-13 388.69

383.843 35.7754 4.55458e-12
35.7754 362.328 -1.76215e-12
4.55458e-12 -1.76215e-12 318.324

408.178 1.57874 -4.448e-12
1.57874 332.152 -2.95682e-12
-4.448e-12 -2.95682e-12 327.321

485.452 -22.8044 -6.60805e-13
-22.8044 502.855 -1.54623e-12
-6.60805e-13 -1.54623e-12 501.745

351.874 31.1835 -1.44951e-12
31.1835 388.827 -1.86636e-12
-1.44951e-12 -1.86636e-12 312.354

451.345 23.6098 -3.2756e-12
23.6098 478.408 9.6397e-13
-3.2756e-12 9.6397e-13 465.208

442.192 -5.34949 -2.67993e-12
-5.34949 377.122 3.66758e-12
-2.67993e-12 3.66758e-12 387.733

464.151 11.216 1.58096e-12
11.216 407.295 2.44486e-12
1.58096e-12 2.44486e-12 424.918

505.374 0.429905 -5.15543e-12
0.429905 421.567 1.08047e-12
-5.15543e-12 1.08047e-12 485.67

449.345 -29.0311 -6.95e-14
-29.0311 501.993 -4.64517e-13
-6.95e-14 -4.64517e-13 493.584

572.507 -6.319 -7.0454e-12
-6.319 589.481 1.15966e-12
-7.0454e-12 1.15966e-12 549.25

463.135 37.4117 -4.92643e-13
37.4117 487.022 2.75076e-12
-4.92643e-13 2.75076e-12 493.06

408.733 1.66327 7.1528e-13
1.66327 331.599 1.92069e-12
7.1528e-13 1.92069e-12 308.9

404.23 -32.7866 -1.08121e-12
-32.7866 415.504 -1.13687e-13
-1.08121e-12 -1.13687e-13 387.385

443.135 36.6131 -2.34331e-13
36.6131 485.5 -6.36084e-13
-2.34331e-13 -6.36084e-13 486.567

444.674 -11.1338 -3.05855e-12
-11.1338 498.93 -6.11659e-13
-3.05855e-12 -6.11659e-13 471.437

386.069 -25.5143 1.26269e-12
-25.5143 428.896 -5.66066e-13
1.26269e-12 -5.66066e-13 384.559

449.445 28.8301 7.44405e-13
28.8301 501.626 -2.34124e-12
7.44405e-13 -2.34124e-12 493.283

452.706 -26.1416 2.52776e-12
-26.1416 419.298 -3.66995e-12
2.52776e-12 -3.66995e-12 419.513

579.549 10.4834 3.53495e-13
10.4834 582.161 1.36624e-12
3.53495e-13 1.36624e-12 549.034

398.324 30.8716 -2.70125e-12
30.8716 422.053 3.25784e-12
-2.70125e-12 3.25784e-12 388.158

515.702 8.12675 3.75255e-13
8.12675 437.263 -1.87376e-12
3.75255e-13 -1.87376e-12 494.577

493.801 30.1906 5.11147e-12
30.1906 484.743 8.69527e-13
5.11147e-12 8.69527e-13 493.797

453.46 23.3318 -1.47897e-12
23.3318 479.158 1.4803e-15
-1.47897e-12 1.4803e-15 475.794

510.697 -32.4889 -1.2396e-12
-32.4889 512.448 1.30886e-12
-1.2396e-12 1.30886e-12 515.002

510.304 -23.1901 2.54907e-12
-23.1901 473.176 1.41576e-12
2.54907e-12 1.41576e-12 489.673

511.398 10.4707 -3.95528e-12
10.4707 557.988 1.27661e-12
-3.95528e-12 1.27661e-12 523.728

452.168 -23.4336 -3.3061e-12
-23.4336 480.16 3.83515e-12
-3.3061e-12 3.83515e-12 468.945

394.405 -9.70768 -3.27323e-12
-9.70768 316.41 -9.75664e-13
-3.27323e-12 -9.75664e-13 295.572

387.286 -14.2771 -4.9738e-14
-14.2771 306.056 -1.70057e-12
-4.9738e-14 -1.70057e-12 290.046

547.58 16.5294 -7.81597e-14
16.5294 507.759 -2.43242e-12
-7.81597e-14 -2.43242e-12 519.316

436.482 22.5015 1.12059e-12
22.5015 469.131 3.8014e-13
1.12059e-12 3.8014e-13 447.818

475.958 29.163 -1.98301e-12
29.163 467.64 2.2542e-12
-1.98301e-12 2.2542e-12 471.474

450.296 0.688665 2.77941e-12
0.688665 392.772 6.50156e-13
2.77941e-12 6.50156e-13 395.67

478.347 6.57122 1.67065e-12
6.57122 541.274 -9.40877e-13
1.67065e-12 -9.40877e-13 507.535

507.326 16.5408 1.6751e-12
16.5408 461.13 -4.55636e-13
1.6751e-12 -4.55636e-13 488.075

389.972 -25.7607 -2.78533e-12
-25.7607 430.031 -1.92675e-12
-2.78533e-12 -1.92675e-12 387.729

456.314 -2.57243 7.25638e-12
-2.57243 517.009 2.33176e-12
7.25638e-12 2.33176e-12 484.835

400.585 13.365 -2.22903e-12
13.365 452.98 3.3431e-12
-2.22903e-12 3.3431e-12 404.631

486.908 -29.7131 -2.13222e-12
-29.7131 465.809 -2.23229e-13
-2.13222e-12 -2.23229e-13 474.253

430.293 -29.9471 2.30038e-12
-29.9471 423.623 -2.00728e-13
2.30038e-12 -2.00728e-13 404.95

399.706 31.6224 4.08562e-14
31.6224 418.227 -2.1565e-12
4.08562e-14 -2.1565e-12 385.997

623.998 -15.0202 -1.70649e-12
-15.0202 581.945 3.30232e-12
-1.70649e-12 3.30232e-12 557.9

494.517 2.04127 1.47445e-12
2.04127 552.138 1.80063e-12
1.47445e-12 1.80063e-12 517.92

483.497 20.3001 -3.85825e-12
20.3001 542.038 -4.19516e-13
-3.85825e-12 -4.19516e-13 516.026

544.701 15.4391 -8.12683e-13
15.4391 479.965 3.30994e-12
-8.12683e-13 3.30994e-12 515.748

473.743 -26.1885 1.11585e-12
-26.1885 479.751 -1.81988e-12
1.11585e-12 -1.81988e-12 483.012

452.119 17.9571 3.25073e-12
17.9571 404.503 5.14611e-12
3.25073e-12 5.14611e-12 406.913

531.576 -5.29413 -6.03786e-12
-5.29413 580.797 1.94748e-12
-6.03786e-12 1.94748e-12 537.113

512.182 -18.9882 -8.69231e-13
-18.9882 464.788 5.79092e-13
-8.69231e-13 5.79092e-13 493.023

473.97 -15.5987 -3.56929e-12
-15.5987 423.171 -4.80208e-13
-3.56929e-12 -4.80208e-13 438.875

401.995 11.603 1.65497e-12
11.603 455.952 -4.583e-13
1.65497e-12 -4.583e-13 407.774

410.918 -25.7339 5.03301e-14
-25.7339 435.575 1.59872e-13
5.03301e-14 1.59872e-13 398.951

532.044 -25.2738 2.90138e-12
-25.2738 523.188 8.95728e-13
2.90138e-12 8.95728e-13 519.114

423.051 31.9591 7.94624e-13
31.9591 417.243 6.94556e-13
7.94624e-13 6.94556e-13 400.3

535.477 -25.1347 8.36368e-13
-25.1347 505.784 3.05563e-12
8.36368e-13 3.05563e-12 515.655

453.488 2.59734 -2.89309e-12
2.59734 397.014 3.15052e-12
-2.89309e-12 3.15052e-12 401.892

311.095 -28.9301 -5.09222e-14
-28.9301 376.592 -8.71599e-13
-5.09222e-14 -8.71599e-13 289.991

431.87 -29.2306 -4.01397e-12
-29.2306 424.042 -2.68408e-12
-4.01397e-12 -2.68408e-12 406.149

353.757 32.1585 -2.4715e-12
32.1585 392.54 -1.42109e-14
-2.4715e-12 -1.42109e-14 312.965

470.342 -11.8769 2.40558e-12
-11.8769 529.547 -4.73103e-13
2.40558e-12 -4.73103e-13 500.298

391.446 -13.8212 2.53708e-12
-13.8212 449.248 8.56204e-13
2.53708e-12 8.56204e-13 400.193

602.852 -23.9882 -1.58555e-12
-23.9882 602.265 4.31892e-12
-1.58555e-12 4.31892e-12 557.841

408.366 23.7705 2.92388e-12
23.7705 441.934 1.85925e-13
2.92388e-12 1.85925e-13 402.217

496.572 -32.7263 2.83743e-12
-32.7263 490.636 -5.82941e-13
2.83743e-12 -5.82941e-13 497.442

388.185 -11.9629 2.73433e-12
-11.9629 448.28 -5.16565e-12
2.73433e-12 -5.16565e-12 397.011

516.706 -19.1169 5.21361e-13
-19.1169 465.748 -3.44051e-12
5.21361e-13 -3.44051e-12 496.238

410.681 23.8767 -1.36543e-12
23.8767 439.307 -1.84623e-12
-1.36543e-12 -1.84623e-12 400.694

488.915 -4.97546 -2.19972e-12
-4.97546 435.066 -2.87792e-12
-2.19972e-12 -2.87792e-12 460.378

305.779 -30.3424 -4.4326e-12
-30.3424 391.435 -1.3074e-12
-4.4326e-12 -1.3074e-12 262.567

438.605 21.0138 -2.93099e-14
21.0138 473.908 -2.6444e-12
-2.93099e-14 -2.6444e-12 458.344

445.683 -19.323 7.1149e-12
-19.323 393.973 3.56544e-12
7.1149e-12 3.56544e-12 399.62

551.601 -21.4459 4.99067e-12
-21.4459 499.514 -2.3063e-12
4.99067e-12 -2.3063e-12 520.1

424.467 31.7536 7.55544e-13
31.7536 413.319 -5.09163e-12
7.55544e-13 -5.09163e-12 397.956

459.159 -29.9714 -2.76697e-12
-29.9714 437.635 1.49806e-13
-2.76697e-12 1.49806e-13 439.297

510.617 20.8852 -1.26299e-12
20.8852 476.07 2.42621e-12
-1.26299e-12 2.42621e-12 492.753

461.502 -28.0758 4.04328e-12
-28.0758 485.738 1.43515e-13
4.04328e-12 1.43515e-13 488.715

413.718 -26.2248 5.97211e-12
-26.2248 436.242 2.38269e-12
5.97211e-12 2.38269e-12 401.437

426.073 28.9807 -2.25716e-12
28.9807 429.895 4.3876e-12
-2.25716e-12 4.3876e-12 406.859

452.499 26.191 7.20017e-13
26.191 418.226 5.86494e-13
7.20017e-13 5.86494e-13 419.057

521.968 -14.6099 2.06738e-12
-14.6099 477.176 6.74127e-13
2.06738e-12 6.74127e-13 500.062

403.559 -16.6173 -2.33028e-12
-16.6173 451.741 -5.5896e-13
-2.33028e-12 -5.5896e-13 406.441

496.045 -17.5682 2.25005e-14
-17.5682 447.605 -2.34464e-12
2.25005e-14 -2.34464e-12 471.499

487.763 16.9083 -1.05397e-12
16.9083 436.257 4.62178e-12
-1.05397e-12 4.62178e-12 460.587

513.342 -9.38689 -3.17339e-13
-9.38689 555.777 -1.56734e-12
-3.17339e-13 -1.56734e-12 523.028

453.977 -13.4299 -6.2883e-13
-13.4299 402.177 -3.44539e-12
-6.2883e-13 -3.44539e-12 406.742

403.201 0.59401 3.09915e-12
0.59401 465.724 -2.65269e-12
3.09915e-12 -2.65269e-12 417.804

475.025 18.5548 -1.65201e-13
18.5548 428.771 5.19525e-12
-1.65201e-13 5.19525e-12 442.22

451.141 27.6036 4.97143e-12
27.6036 421.838 -4.39352e-12
4.97143e-12 -4.39352e-12 420.842

400.868 -15.6859 9.91799e-13
-15.6859 451.381 -3.32179e-12
9.91799e-13 -3.32179e-12 403.735

406 -1.20229 -5.4993e-13
-1.20229 468.033 8.62125e-13
-5.4993e-13 8.62125e-13 421.219

516.199 29.1343 1.20259e-12
29.1343 498.026 -2.29002e-12
1.20259e-12 -2.29002e-12 504.875

441.704 -10.922 2.06161e-12
-10.922 500.657 -1.27898e-12
2.06161e-12 -1.27898e-12 471.147

451.439 -26.7149 2.12511e-12
-26.7149 418.765 -4.35148e-12
2.12511e-12 -4.35148e-12 419.352

444.386 21.3323 3.42245e-13
21.3323 395.298 7.77511e-12
3.42245e-13 7.77511e-12 398.2

497.594 23.6652 -1.49392e-12
23.6652 458.09 -1.88175e-12
-1.49392e-12 -1.88175e-12 476.55

447.682 5.47071 -1.0519e-12
5.47071 508.789 2.72671e-12
-1.0519e-12 2.72671e-12 476.881

427.649 29.0651 -1.76215e-12
29.0651 426.434 -2.44071e-12
-1.76215e-12 -2.44071e-12 405.109

536.821 22.9638 4.87314e-13
22.9638 531.898 2.179e-13
4.87314e-13 2.179e-13 522.784

314.75 -59.6911 -5.26749e-12
-59.6911 282.769 -1.88412e-12
-5.26749e-12 -1.88412e-12 223.423

480.594 -25.0475 -9.91799e-13
-25.0475 445.071 2.81256e-13
-9.91799e-13 2.81256e-13 456.646

336.663 7.06981 1.19934e-12
7.06981 409.154 8.03387e-12
1.19934e-12 8.03387e-12 319.44

460.538 -28.8889 -7.63833e-13
-28.8889 444.736 8.95876e-13
-7.63833e-13 8.95876e-13 443.452

96.4239 -52.7009 2.71427e-12
-52.7009 306.618 -3.78482e-12
2.71427e-12 -3.78482e-12 113.699

95.9577 51.4515 -8.60941e-13
51.4515 306.882 2.77585e-12
-8.60941e-13 2.77585e-12 114.487

181.517 117.154 -1.84741e-13
117.154 226.076 1.84741e-12
-1.84741e-13 1.84741e-12 113.588

182.815 -117.097 3.71851e-12
-117.097 223.312 -4.15904e-12
3.71851e-12 -4.15904e-12 113.562

321.583 -1.36336 -4.358e-13
-1.36336 84.6535 3.68444e-14
-4.358e-13 3.68444e-14 114.929

274.433 -91.1253 2.77112e-12
-91.1253 127.418 4.42905e-13
2.77112e-12 4.42905e-13 113.802

275.129 91.6532 1.45898e-12
91.6532 128.251 -8.3844e-13
1.45898e-12 -8.3844e-13 114.572

525.24 14.3302 -1.12562e-12
14.3302 474.712 2.09048e-12
-1.12562e-12 2.09048e-12 502.314

556.797 25.5366 4.09391e-12
25.5366 541.184 1.55579e-12
4.09391e-12 1.55579e-12 533.45

492.092 6.60598 -1.12325e-12
6.60598 439.12 4.47975e-12
-1.12325e-12 4.47975e-12 471.402

470.299 21.7844 3.61725e-12
21.7844 424.516 -1.6757e-13
3.61725e-12 -1.6757e-13 438.194

409.975 17.7442 -6.48992e-12
17.7442 461.072 2.43894e-12
-6.48992e-12 2.43894e-12 425.042

448.01 28.8982 -6.02777e-13
28.8982 424.705 -7.60873e-13
-6.02777e-13 -7.60873e-13 420.749

487.149 -29.6633 -2.51414e-12
-29.6633 465.627 -2.9449e-12
-2.51414e-12 -2.9449e-12 474.589

449.367 28.0275 6.09882e-14
28.0275 421.071 -4.36747e-12
6.09882e-14 -4.36747e-12 418.641

402.963 -2.84121 6.21118e-12
-2.84121 465.38 -3.56929e-12
6.21118e-12 -3.56929e-12 417.54

555.803 -26.0974 -2.825e-12
-26.0974 543.377 6.91299e-13
-2.825e-12 6.91299e-13 533.694

405.501 -4.86233 -2.24872e-12
-4.86233 467.119 2.74033e-12
-2.24872e-12 2.74033e-12 420.599

522.292 23.0161 1.81721e-12
23.0161 499.742 3.23475e-12
1.81721e-12 3.23475e-12 507.969

423.377 26.8704 1.5253e-12
26.8704 386.507 6.77088e-12
1.5253e-12 6.77088e-12 373.026

480.109 -13.2161 1.00897e-12
-13.2161 532.768 1.67155e-12
1.00897e-12 1.67155e-12 512.001

484.197 13.7278 2.63138e-12
13.7278 432.776 4.35089e-12
2.63138e-12 4.35089e-12 456.874

457.368 -29.9874 -1.61116e-12
-29.9874 436.976 1.77636e-12
-1.61116e-12 1.77636e-12 437.832

454.308 -24.7133 6.96569e-12
-24.7133 416.804 3.03313e-12
6.96569e-12 3.03313e-12 419.853

547.405 -16.0746 -1.98626e-12
-16.0746 509.306 -3.04408e-12
-1.98626e-12 -3.04408e-12 519.384

475.972 27.9287 1.5401e-12
27.9287 449.706 -5.34624e-12
1.5401e-12 -5.34624e-12 456.925

469.1 23.9772 1.86991e-12
23.9772 427.849 -5.19851e-12
1.86991e-12 -5.19851e-12 439.83

432.428 -2.79294 -9.56901e-13
-2.79294 493.636 1.32694e-12
-9.56901e-13 1.32694e-12 457.107

417.607 5.87332 7.10708e-13
5.87332 479.557 2.1411e-12
7.10708e-13 2.1411e-12 440.177

463.01 2.64668 2.56506e-12
2.64668 402.279 -6.98885e-13
2.56506e-12 -6.98885e-13 422.321

438.647 -7.28958 -3.26731e-12
-7.28958 373.915 -2.72567e-12
-3.26731e-12 -2.72567e-12 381.218

454.843 30.4844 1.93504e-12
30.4844 439.015 -6.86917e-12
1.93504e-12 -6.86917e-12 437.836

478.465 -26.1552 8.02913e-13
-26.1552 443.543 -4.06105e-12
8.02913e-13 -4.06105e-12 454.646

525.7 -21.2543 3.42807e-12
-21.2543 497.829 -2.55914e-12
3.42807e-12 -2.55914e-12 508.618

437.732 -31.6334 2.90138e-14
-31.6334 437.655 -6.68502e-13
2.90138e-14 -6.68502e-13 426.859

417.59 -27.7853 -5.1917e-12
-27.7853 444.395 -1.72543e-12
-5.1917e-12 -1.72543e-12 419.687

430.646 29.8869 -3.29159e-12
29.8869 442.744 1.713e-12
-3.29159e-12 1.713e-12 426.497

416.225 -9.57784 1.72203e-12
-9.57784 475.211 2.99079e-12
1.72203e-12 2.99079e-12 436.454

428.895 -1.54477 4.42017e-13
-1.54477 491.868 -1.09009e-12
4.42017e-13 -1.09009e-12 453.994

445.182 5.74794 3.56067e-13
5.74794 508.043 3.34074e-12
3.56067e-13 3.34074e-12 474.914

414.618 -21.0889 -9.75812e-13
-21.0889 458.407 -1.29023e-12
-9.75812e-13 -1.29023e-12 426.065

496.869 24.111 -9.79365e-13
24.111 455.696 -4.70942e-12
-9.79365e-13 -4.70942e-12 474.593

483.372 -9.58969 -2.39512e-12
-9.58969 430.112 7.54804e-13
-2.39512e-12 7.54804e-13 455.22

415.633 7.46522 6.97431e-12
7.46522 477.12 -7.63833e-14
6.97431e-12 -7.63833e-14 436.913

443.955 -9.70107 -9.82857e-13
-9.70107 501.503 -4.117e-12
-9.82857e-13 -4.117e-12 471.007

433.173 -16.3306 3.85839e-12
-16.3306 481.675 -5.28762e-13
3.85839e-12 -5.28762e-13 455.668

463.539 -8.23914 2.0132e-13
-8.23914 406.335 -1.11881e-12
2.0132e-13 -1.11881e-12 421.47

494.433 -32.3468 5.42085e-13
-32.3468 487.616 1.54365e-12
5.42085e-13 1.54365e-12 496.25

422.944 9.32079 -3.55271e-15
9.32079 479.091 -1.12799e-12
-3.55271e-15 -1.12799e-12 440.979

564.358 -18.2126 1.82047e-12
-18.2126 529.952 1.06789e-12
1.82047e-12 1.06789e-12 531.831

309.048 24.8225 1.67214e-12
24.8225 379.422 3.74219e-13
1.67214e-12 3.74219e-13 289.797

501.698 -26.6261 -2.47683e-12
-26.6261 499.49 -2.75217e-12
-2.47683e-12 -2.75217e-12 501.2

515.649 -30.2028 1.9836e-12
-30.2028 498.404 -2.38624e-12
1.9836e-12 -2.38624e-12 504.919

429.223 -0.701296 4.37754e-12
-0.701296 491.993 -1.79945e-12
4.37754e-12 -1.79945e-12 454.145

474.881 -16.6225 2.88362e-13
-16.6225 428.337 -3.31646e-12
2.88362e-13 -3.31646e-12 441.956

462.305 12.8416 -2.28682e-12
12.8416 511.275 3.31587e-14
-2.28682e-12 3.31587e-14 489.121

240.776 -3.18051 2.07064e-12
-3.18051 360.688 -6.44462e-12
2.07064e-12 -6.44462e-12 226.966

432.404 14.2736 -2.21031e-12
14.2736 485.356 -5.12893e-12
-2.21031e-12 -5.12893e-12 456.882

458.112 -29.489 -1.11082e-12
-29.489 443.17 8.28374e-13
-1.11082e-12 8.28374e-13 440.762

304.187 25.1056 8.62717e-13
25.1056 394.584 4.9738e-14
8.62717e-13 4.9738e-14 264.341

603.551 26.098 -7.46484e-12
26.098 597.957 1.4649e-12
-7.46484e-12 1.4649e-12 558.158

608.285 -27.8074 1.80123e-12
-27.8074 595.031 2.00343e-12
1.80123e-12 2.00343e-12 558.292

463.494 -30.4189 -2.2388e-12
-30.4189 459.039 -2.81286e-12
-2.2388e-12 -2.81286e-12 459.073

434.584 -31.16 1.02496e-12
-31.16 436.36 1.90307e-12
1.02496e-12 1.90307e-12 424.662

474.101 20.8274 -3.63679e-12
20.8274 431.915 4.33875e-12
-3.63679e-12 4.33875e-12 443.973

465.222 15.006 -5.32078e-12
15.006 410.117 1.83616e-12
-5.32078e-12 1.83616e-12 427.463

646.07 3.08357 -6.9081e-12
3.08357 645.728 -1.81883e-11
-6.9081e-12 -1.81883e-11 574.62

649.891 -7.00015 -1.17332e-11
-7.00015 641.398 6.87776e-12
-1.17332e-11 6.87776e-12 575.149

496.988 4.82431 2.26959e-12
4.82431 442.035 -1.29704e-12
2.26959e-12 -1.29704e-12 477.413

443.558 6.73095 -4.01286e-12
6.73095 502.989 -8.24822e-13
-4.01286e-12 -8.24822e-13 471.051

441.972 6.73632 5.13137e-12
6.73632 502.515 4.5001e-13
5.13137e-12 4.5001e-13 469.774

321.536 58.6341 -1.75267e-12
58.6341 281.122 -1.80952e-12
-1.75267e-12 -1.80952e-12 225.077

420.229 -28.1996 2.43953e-12
-28.1996 444.023 6.35462e-12
2.43953e-12 6.35462e-12 421.032

520.578 17.9745 4.19546e-12
17.9745 467.531 6.50147e-13
4.19546e-12 6.50147e-13 499.51

472.98 9.53971 -1.05397e-12
9.53971 421.197 -5.17009e-12
-1.05397e-12 -5.17009e-12 436.203

440.63 -26.7232 -1.50398e-12
-26.7232 450.726 -1.86577e-12
-1.50398e-12 -1.86577e-12 433.416

469.277 -20.2376 2.48808e-12
-20.2376 422.717 4.49566e-12
2.48808e-12 4.49566e-12 437.177

312.473 60.232 -7.09595e-12
60.232 281.372 1.07031e-11
-7.09595e-12 1.07031e-11 223.215

492.682 31.0691 1.22835e-12
31.0691 489.043 2.66128e-12
1.22835e-12 2.66128e-12 493.139

410.863 -19.786 -2.70213e-12
-19.786 457.882 2.11801e-12
-2.70213e-12 2.11801e-12 423.498

474.129 28.8576 -1.16588e-12
28.8576 449.631 8.34296e-13
-1.16588e-12 8.34296e-13 456.519

430.957 -4.1448 -1.89648e-12
-4.1448 492.973 7.85742e-13
-1.89648e-12 7.85742e-13 456.468

423.93 19.6091 -3.38396e-13
19.6091 465.712 1.61471e-12
-3.38396e-13 1.61471e-12 434.108

452.748 30.5187 -8.88178e-15
30.5187 443.598 2.09018e-12
-8.88178e-15 2.09018e-12 439.609

428.643 -22.4731 -3.07251e-12
-22.4731 461.137 -3.94174e-12
-3.07251e-12 -3.94174e-12 433.813

443.575 -27.3524 8.23637e-13
-27.3524 450.433 3.13231e-12
8.23637e-13 3.13231e-12 435.046

294.778 11.2569 6.0365e-12
11.2569 372.585 -1.81188e-12
6.0365e-12 -1.81188e-12 258.102

357.298 -33.4561 -3.54442e-12
-33.4561 389.117 -5.80277e-13
-3.54442e-12 -5.80277e-13 314.129

419.658 -11.6905 -2.63663e-12
-11.6905 476.361 -7.05214e-13
-2.63663e-12 -7.05214e-13 439.345

478.398 26.4844 3.72147e-12
26.4844 446.799 -3.33008e-12
3.72147e-12 -3.33008e-12 456.084

452.345 29.4778 1.92794e-12
29.4778 449.026 9.48575e-13
1.92794e-12 9.48575e-13 442.4

426.809 -21.4338 -1.36809e-12
-21.4338 461.784 1.63188e-12
-1.36809e-12 1.63188e-12 432.63

422.931 -11.7823 1.64609e-12
-11.7823 476.648 2.97954e-12
1.64609e-12 2.97954e-12 439.929

457.707 28.4094 -3.1027e-13
28.4094 447.087 4.79616e-12
-3.1027e-13 4.79616e-12 442.571

425.105 -13.8777 1.80922e-12
-13.8777 476.419 -7.12911e-13
1.80922e-12 -7.12911e-13 442.105

311.265 27.8548 4.38168e-13
27.8548 377.391 -8.71599e-13
4.38168e-13 -8.71599e-13 289.984

485.171 -4.04129 -5.26471e-12
-4.04129 545.05 1.39503e-12
-5.26471e-12 1.39503e-12 511.037

432.985 31.0274 2.13696e-12
31.0274 439.628 4.37339e-12
2.13696e-12 4.37339e-12 426.019

509.31 14.9012 1.3376e-12
14.9012 463.162 -2.33769e-12
1.3376e-12 -2.33769e-12 488.606

516.921 -15.9275 -2.0132e-13
-15.9275 467.582 3.08198e-12
-2.0132e-13 3.08198e-12 493.924

383.925 -24.2044 -8.71599e-13
-24.2044 305.948 2.78651e-12
-8.71599e-13 2.78651e-12 285.354

442.279 -21.2672 -7.87518e-13
-21.2672 476 1.95518e-12
-7.87518e-13 1.95518e-12 459.321

447.828 26.6982 -3.86979e-12
26.6982 466.207 3.24718e-12
-3.86979e-12 3.24718e-12 457.841

522.975 -21.7279 -1.98656e-12
-21.7279 543.812 1.44137e-12
-1.98656e-12 1.44137e-12 525.31

579.585 14.1067 -3.50164e-12
14.1067 617.621 -1.61234e-12
-3.50164e-12 -1.61234e-12 557.053

620.208 9.44534 -6.93845e-12
9.44534 576.842 1.13716e-12
-6.93845e-12 1.13716e-12 556.872

523.47 32.7055 -2.43242e-12
32.7055 520.652 4.52527e-13
-2.43242e-12 4.52527e-13 519.525

414.891 26.0003 2.34183e-13
26.0003 448.905 -7.04029e-13
2.34183e-13 -7.04029e-13 420.376

478.096 26.6614 3.73805e-12
26.6614 444.77 -8.55908e-13
3.73805e-12 -8.55908e-13 455.508

332.363 45.1858 -5.76013e-12
45.1858 349.489 8.2423e-13
-5.76013e-12 8.2423e-13 286.74

571.391 -11.3437 4.32365e-12
-11.3437 614.472 -1.6905e-12
4.32365e-12 -1.6905e-12 554.596

641.327 -3.43295 6.2422e-12
-3.43295 636.87 -7.51695e-13
6.2422e-12 -7.51695e-13 572.397

634.905 -0.210052 -4.51002e-12
-0.210052 643.178 7.09181e-12
-4.51002e-12 7.09181e-12 572.223

272.963 -53.8024 -2.63848e-12
-53.8024 316.447 2.69533e-12
-2.63848e-12 2.69533e-12 220.909

566.639 -11.6 -2.61746e-12
-11.6 562.125 1.66297e-12
-2.61746e-12 1.66297e-12 540.899

563.772 8.81304 -5.25187e-12
8.81304 586.963 4.99985e-12
-5.25187e-12 4.99985e-12 546.84

478.244 -26.1994 4.40418e-12
-26.1994 440.442 4.63718e-12
4.40418e-12 4.63718e-12 453.482

494.349 1.01108 7.89591e-13
1.01108 545.759 1.60227e-12
7.89591e-13 1.60227e-12 514.057

447.65 -20.2678 -1.6868e-12
-20.2678 484.158 5.92711e-13
-1.6868e-12 5.92711e-13 470.637

506.3 6.25532 5.00341e-12
6.25532 443.374 3.98052e-13
5.00341e-12 3.98052e-13 486.125

461.275 15.5963 3.1121e-12
15.5963 521.253 3.23889e-13
3.1121e-12 3.23889e-13 497.556

471.181 7.19162 7.19795e-15
7.19162 528.006 -1.11514e-11
7.19795e-15 -1.11514e-11 497.69

493.763 20.3927 -1.80715e-12
20.3927 451.517 9.11863e-13
-1.80715e-12 9.11863e-13 469.751

241.065 -3.1139 2.65721e-12
-3.1139 358.56 1.44003e-12
2.65721e-12 1.44003e-12 227.064

463.7 -27.6236 1.44063e-12
-27.6236 463.391 -1.84149e-12
1.44063e-12 -1.84149e-12 461.191

488.344 -26.1162 4.6955e-13
-26.1162 481.598 -9.51831e-13
4.6955e-13 -9.51831e-13 485.869

497.538 -31.4837 4.51254e-12
-31.4837 489.958 2.10987e-12
4.51254e-12 2.10987e-12 498.98

355.599 32.7494 3.21165e-12
32.7494 285.779 4.52379e-12
3.21165e-12 4.52379e-12 248.366

563.882 -20.1165 3.80999e-12
-20.1165 569.614 1.91469e-12
3.80999e-12 1.91469e-12 542.571

337.647 54.3221 -4.70616e-12
54.3221 356.657 7.97466e-12
-4.70616e-12 7.97466e-12 258.875

477.071 -21.4396 2.49667e-12
-21.4396 506.489 3.82568e-12
2.49667e-12 3.82568e-12 500.244

504.772 14.6504 -6.07336e-12
14.6504 451.987 5.40901e-13
-6.07336e-12 5.40901e-13 481.56

449.83 -14.5724 -3.21757e-12
-14.5724 396.986 -2.67297e-12
-3.21757e-12 -2.67297e-12 400.84

452.593 24.0467 1.95399e-14
24.0467 478.779 -4.25556e-12
1.95399e-14 -4.25556e-12 467.848

493.666 20.4279 -1.30029e-12
20.4279 449.501 1.71537e-12
-1.30029e-12 1.71537e-12 469.342

505.566 11.4006 2.47395e-12
11.4006 564.416 -8.7382e-12
2.47395e-12 -8.7382e-12 526.711

475.895 -31.5801 4.93827e-13
-31.5801 470.356 1.90929e-12
4.93827e-13 1.90929e-12 475.064

559.27 19.8124 -5.60973e-12
19.8124 510.44 2.54374e-12
-5.60973e-12 2.54374e-12 526.487

439.958 -18.4434 -2.21512e-12
-18.4434 482.465 -1.30266e-12
-2.21512e-12 -1.30266e-12 459.149

465.898 4.28315 1.45506e-12
4.28315 526.107 -7.27596e-12
1.45506e-12 -7.27596e-12 495.51

588.64 9.92673 4.63037e-13
9.92673 552.462 -4.88498e-15
4.63037e-13 -4.88498e-15 545.189

590.423 -8.51335 2.53486e-12
-8.51335 554.804 1.06552e-12
2.53486e-12 1.06552e-12 545.706

382.309 18.5123 -1.02555e-12
18.5123 302.287 4.84235e-12
-1.02555e-12 4.84235e-12 286.134

502.678 7.96499 3.09086e-12
7.96499 453.6 1.58214e-12
3.09086e-12 1.58214e-12 487.765

232.815 7.74043 6.21592e-12
7.74043 381.515 -4.54274e-12
6.21592e-12 -4.54274e-12 187.186

236.985 -11.3851 9.02352e-13
-11.3851 387.209 -2.72375e-12
9.02352e-13 -2.72375e-12 189.45

249.287 56.4065 1.78346e-12
56.4065 354.777 -3.15007e-12
1.78346e-12 -3.15007e-12 184.023

505.015 -28.9504 -1.12976e-12
-28.9504 478.615 -3.75403e-13
-1.12976e-12 -3.75403e-13 491.343

258.472 -49.19 -6.73713e-12
-49.19 341.841 3.57403e-12
-6.73713e-12 3.57403e-12 220.733

249.293 -55.9491 3.57166e-12
-55.9491 344.751 -9.9476e-14
3.57166e-12 -9.9476e-14 181.115

434.654 26.2199 1.42405e-12
26.2199 454.392 -2.86704e-12
1.42405e-12 -2.86704e-12 432.824

329.924 73.8433 -6.28593e-12
73.8433 280.01 8.43177e-13
-6.28593e-12 8.43177e-13 184.827

540.127 13.0473 6.59117e-12
13.0473 554.946 -2.84898e-12
6.59117e-12 -2.84898e-12 532.077

562.384 0.0393431 -4.37576e-13
0.0393431 532.454 -7.80117e-13
-4.37576e-13 -7.80117e-13 531.87

338.602 -73.1287 -3.99799e-12
-73.1287 279.858 -5.37407e-12
-3.99799e-12 -5.37407e-12 186.31

432.669 -23.4238 -3.51719e-12
-23.4238 466.309 -1.21976e-13
-3.51719e-12 -1.21976e-13 447.571

358.93 34.7288 1.82373e-12
34.7288 310.975 -3.53969e-12
1.82373e-12 -3.53969e-12 258.037

267.705 63.4903 -3.96957e-12
63.4903 345.21 3.57166e-12
-3.96957e-12 3.57166e-12 185.845

293.693 21.6299 -9.166e-13
21.6299 367.66 -2.36374e-12
-9.166e-13 -2.36374e-12 254.497

267.576 -65.9191 -4.46695e-12
-65.9191 344.845 -4.51905e-12
-4.46695e-12 -4.51905e-12 184.301

291.64 -12.381 -2.25005e-14
-12.381 370.882 6.91595e-12
-2.25005e-14 6.91595e-12 253.442

550.307 6.84179 2.47994e-12
6.84179 582.078 3.99325e-12
2.47994e-12 3.99325e-12 541.117

329.889 -45.9742 -7.59097e-13
-45.9742 341.815 -2.71901e-12
-7.59097e-13 -2.71901e-12 276.614

259.781 47.5313 -2.48572e-12
47.5313 340.216 1.07576e-11
-2.48572e-12 1.07576e-11 223.145

370.216 37.911 -4.94064e-12
37.911 244.92 -6.25159e-12
-4.94064e-12 -6.25159e-12 187.356

481.89 -29.2855 1.96583e-13
-29.2855 460.511 2.72464e-12
1.96583e-13 2.72464e-12 467.713

480.976 12.8967 1.65675e-12
12.8967 525.829 3.48196e-12
1.65675e-12 3.48196e-12 504.103

354.418 -38.112 2.67164e-12
-38.112 300.076 8.03861e-12
2.67164e-12 8.03861e-12 251.814

482.534 -28.802 -1.91136e-12
-28.802 460.32 1.18335e-12
-1.91136e-12 1.18335e-12 468.462

365.263 -36.3429 1.84741e-12
-36.3429 230.988 3.73094e-12
1.84741e-12 3.73094e-12 182.77

481.502 -28.3173 -1.15759e-12
-28.3173 472.754 -3.66522e-13
-1.15759e-12 -3.66522e-13 477.918

436.353 -25.2946 -2.53308e-12
-25.2946 466.223 -6.21429e-12
-2.53308e-12 -6.21429e-12 448.209

314.798 69.4598 5.47118e-12
69.4598 292.142 -7.14332e-12
5.47118e-12 -7.14332e-12 184.523

290.781 -22.9325 -4.03233e-12
-22.9325 359.164 7.33991e-12
-4.03233e-12 7.33991e-12 247.029

312.4 -71.6917 9.14232e-13
-71.6917 288.122 -7.16938e-12
9.14232e-13 -7.16938e-12 182.026

268.546 50.7368 -3.13941e-12
50.7368 320.059 -3.66403e-12
-3.13941e-12 -3.66403e-12 221.504

459.861 -30.2119 2.53308e-12
-30.2119 454.845 1.23368e-12
2.53308e-12 1.23368e-12 454.399

559.286 -14.6403 2.23436e-12
-14.6403 544.412 -2.41377e-12
2.23436e-12 -2.41377e-12 533.717

635.922 11.0926 3.39854e-12
11.0926 631.384 -4.17814e-12
3.39854e-12 -4.17814e-12 570.019

619.957 -5.15999 -2.9304e-12
-5.15999 639.739 -8.62251e-12
-2.9304e-12 -8.62251e-12 568.497

453.869 13.0836 -4.57641e-12
13.0836 506.554 -1.4051e-12
-4.57641e-12 -1.4051e-12 482.571

634.152 -10.667 -1.52448e-12
-10.667 631.314 -1.96006e-12
-1.52448e-12 -1.96006e-12 569.874

622.696 4.09173 -1.73047e-13
4.09173 642.685 4.18062e-12
-1.73047e-13 4.18062e-12 569.698

643.375 7.43412 1.88812e-12
7.43412 619.148 -2.61421e-13
1.88812e-12 -2.61421e-13 569.021

584.776 -12.1152 -3.45331e-12
-12.1152 631.668 -8.35746e-12
-3.45331e-12 -8.35746e-12 560.593

307.443 -30.4697 8.28374e-13
-30.4697 371.632 3.75877e-12
8.28374e-13 3.75877e-12 280.769

589.626 -12.9721 -3.22113e-13
-12.9721 549.113 5.65148e-12
-3.22113e-13 5.65148e-12 543.826

527.206 -34.4177 -1.76451e-12
-34.4177 521.486 5.09193e-12
-1.76451e-12 5.09193e-12 519.965

565.464 -18.1768 2.10469e-12
-18.1768 537.989 2.87637e-12
2.10469e-12 2.87637e-12 534.258

502.569 15.4592 -3.42482e-12
15.4592 452.115 3.40824e-12
-3.42482e-12 3.40824e-12 480.206

586.349 9.86427 -5.66784e-12
9.86427 642.135 3.98807e-12
-5.66784e-12 3.98807e-12 563.103

636.658 19.2276 9.72111e-13
19.2276 591.723 -6.52145e-13
9.72111e-13 -6.52145e-13 562.925

569.776 11.3063 4.75531e-12
11.3063 544.338 -2.55425e-12
4.75531e-12 -2.55425e-12 536.435

353.442 -15.3392 3.61429e-12
-15.3392 231.515 5.36341e-12
3.61429e-12 5.36341e-12 219.014

437.205 24.9639 1.34174e-12
24.9639 461.912 -1.87702e-12
1.34174e-12 -1.87702e-12 445.721

317.09 -61.3542 -6.77384e-12
-61.3542 277.848 3.67587e-12
-6.77384e-12 3.67587e-12 218.088

334.208 -57.4568 -1.80952e-12
-57.4568 357.322 1.38082e-12
-1.80952e-12 1.38082e-12 252.539

383.333 -36.5438 9.87654e-12
-36.5438 305.738 6.11896e-12
9.87654e-12 6.11896e-12 257.759

562.496 -5.15896 -4.80845e-12
-5.15896 616.952 2.21452e-12
-4.80845e-12 2.21452e-12 552.95

562.203 2.89123 -2.22814e-12
2.89123 615.817 -4.14483e-14
-2.22814e-12 -4.14483e-14 552.548

598.77 -24.4564 -2.3895e-12
-24.4564 575.742 2.50799e-12
-2.3895e-12 2.50799e-12 551.578

602.329 -21.7606 2.07775e-12
-21.7606 573.433 -2.05317e-12
2.07775e-12 -2.05317e-12 551.844

598.783 26.1361 -4.57412e-12
26.1361 580.458 -2.39808e-12
-4.57412e-12 -2.39808e-12 552.734

625.742 3.09951 2.05775e-11
3.09951 630.735 9.13299e-12
2.05775e-11 9.13299e-12 568.42

599.06 -20.509 7.40149e-13
-20.509 576.354 1.16092e-12
7.40149e-13 1.16092e-12 552.267

607.81 -18.5683 7.9714e-13
-18.5683 620.263 -1.46793e-11
7.9714e-13 -1.46793e-11 563.185

632.9 2.43456 8.25591e-12
2.43456 635.527 9.61527e-12
8.25591e-12 9.61527e-12 570.505

607.886 -20.5263 6.23945e-14
-20.5263 572.427 -1.35802e-12
6.23945e-14 -1.35802e-12 553.406

607.072 20.9559 -1.21964e-11
20.9559 573.685 -2.70421e-12
-1.21964e-11 -2.70421e-12 553.809

633.852 -3.45858 -1.54007e-11
-3.45858 636.778 1.03029e-13
-1.54007e-11 1.03029e-13 571.279

632.182 -3.11728 1.19706e-11
-3.11728 625.756 -3.09581e-11
1.19706e-11 -3.09581e-11 569.394

609.682 12.1098 5.26423e-12
12.1098 620.485 -5.35127e-14
5.26423e-12 -5.35127e-14 563.916

587.203 26.9297 8.61533e-14
26.9297 583.019 -9.04656e-12
8.61533e-14 -9.04656e-12 551.702

FIELD solute_concentration_TPM 2
S_ext 1 563 float
0.984962
0.984772
0.984792
0.984773
0.984742
0.984792
0.984961
0.984783
0.984809
0.984775
0.984923
0.984783
0.984787
0.984775
0.98475
0.98479
0.984766
0.984781
0.984813
0.984795
0.984801
0.984688
0.984797
0.984795
0.984795
0.984778
0.984913
0.98479
0.98486
0.984716
0.984788
0.984859
0.984918
0.984725
0.984724
0.984725
0.984712
0.984726
0.984788
0.984917
0.98486
0.984711
0.984711
0.984787
0.984893
0.984859
0.984811
0.984806
0.984791
0.984869
0.984864
0.984845
0.98474
0.984846
0.984742
0.984898
0.984723
0.984845
0.984723
0.984793
0.984765
0.984758
0.984909
0.98476
0.984757
0.984771
0.984765
0.984779
0.984796
0.984771
0.984741
0.984741
0.984861
0.984767
0.984792
0.984921
0.984752
0.984771
0.984778
0.984837
0.984878
0.984737
0.984761
0.98488
0.984859
0.984896
0.98479
0.98477
0.984892
0.984696
0.984845
0.984696
0.984749
0.984773
0.984845
0.984864
0.984879
0.984775
0.984752
0.984788
0.984826
0.984856
0.984879
0.984778
0.984777
0.984776
0.98476
0.98479
0.98488
0.984766
0.984793
0.984889
0.984883
0.98478
0.984777
0.984846
0.984726
0.984881
0.984727
0.984845
0.984817
0.98475
0.98477
0.984766
0.984766
0.984748
0.98473
0.984775
0.98488
0.984844
0.984739
0.984772
0.984761
0.984771
0.984857
0.984722
0.98489
0.984786
0.98476
0.984723
0.984854
0.98478
0.984817
0.984775
0.984882
0.984777
0.984781
0.984794
0.984792
0.98483
0.984805
0.984771
0.984858
0.984787
0.984775
0.984771
0.984773
0.984854
0.984853
0.984784
0.984805
0.984857
0.984892
0.984862
0.984852
0.984776
0.984853
0.984854
0.984859
0.984852
0.984748
0.984845
0.984863
0.984772
0.984845
0.984761
0.984748
0.984784
0.984742
0.984778
0.984861
0.984775
0.984775
0.984853
0.984769
0.984865
0.984766
0.984762
0.98475
0.984775
0.984769
0.984878
0.984844
0.984859
0.984771
0.984781
0.98478
0.984761
0.984771
0.984772
0.984771
0.984812
0.984837
0.984761
0.984861
0.984761
0.984772
0.984856
0.984757
0.98477
0.984757
0.984776
0.984778
0.984761
0.984828
0.984776
0.984836
0.984762
0.984766
0.984765
0.984766
0.984766
0.984766
0.984767
0.984775
0.98475
0.98475
0.984749
0.98475
0.984743
0.984742
0.98483
0.984774
0.984771
0.984807
0.98475
0.98475
0.984771
0.984836
0.984771
0.984775
0.984829
0.984755
0.98483
0.984761
0.98477
0.984828
0.984835
0.984878
0.98487
0.984761
0.984885
0.984788
0.984836
0.984812
0.984771
0.984766
0.984713
0.984766
0.984889
0.984835
0.98477
0.984783
0.984837
0.984765
0.984817
0.984713
0.984836
0.984765
0.984768
0.98478
0.98475
0.984771
0.984742
0.984785
0.984891
0.984896
0.984747
0.984799
0.984783
0.984832
0.984755
0.984772
0.984835
0.984773
0.984826
0.984781
0.984827
0.984836
0.984702
0.984746
0.984748
0.984748
0.984775
0.984826
0.984726
0.984768
0.984805
0.984825
0.984831
0.984746
0.984829
0.984751
0.984829
0.984893
0.984825
0.984883
0.984761
0.984828
0.984702
0.984829
0.984765
0.98483
0.984766
0.984829
0.984791
0.984916
0.984791
0.984829
0.984744
0.984829
0.984804
0.984769
0.98477
0.984828
0.984826
0.984817
0.984763
0.984825
0.984784
0.98479
0.984743
0.984826
0.984818
0.984803
0.984817
0.984827
0.984816
0.984758
0.984783
0.984817
0.984829
0.98478
0.984779
0.984826
0.984743
0.984929
0.984793
0.984878
0.984802
0.984988
0.984988
0.984985
0.984986
0.984983
0.984993
0.984993
0.984761
0.984732
0.984783
0.984804
0.984812
0.984817
0.984781
0.984817
0.984818
0.984732
0.984816
0.984757
0.984845
0.984751
0.984792
0.984805
0.984817
0.984748
0.984793
0.984804
0.984793
0.984803
0.984815
0.984839
0.984804
0.984794
0.984756
0.984811
0.984816
0.984812
0.984805
0.984794
0.98478
0.984812
0.984781
0.984794
0.984805
0.984783
0.984793
0.984815
0.984765
0.984803
0.984733
0.984892
0.984761
0.984759
0.984794
0.984804
0.98477
0.984929
0.984792
0.984804
0.984914
0.984706
0.984706
0.984791
0.984813
0.984802
0.984812
0.984687
0.984686
0.98478
0.984783
0.984783
0.984934
0.984815
0.984764
0.984807
0.984809
0.984806
0.984929
0.984767
0.984813
0.984793
0.984793
0.984808
0.984804
0.984808
0.984808
0.984916
0.984882
0.984804
0.984793
0.984803
0.984809
0.984804
0.984802
0.984803
0.984894
0.984752
0.984811
0.984771
0.984767
0.984895
0.984791
0.984792
0.984743
0.9847
0.9847
0.984746
0.984816
0.984793
0.984896
0.984703
0.984686
0.984686
0.984931
0.984725
0.984715
0.984795
0.984751
0.984784
0.984773
0.984764
0.984764
0.984784
0.984928
0.984791
0.984774
0.984764
0.984922
0.98472
0.984921
0.984762
0.984777
0.984828
0.984786
0.984785
0.984737
0.984781
0.984738
0.984792
0.984765
0.984719
0.984719
0.984898
0.984772
0.984964
0.984964
0.984964
0.984769
0.984935
0.984965
0.984809
0.984963
0.984736
0.984736
0.984963
0.984798
0.984919
0.984968
0.984918
0.984968
0.984918
0.984725
0.984903
0.984934
0.984961
0.984786
0.984759
0.984921
0.984785
0.984962
0.984778
0.984798
0.984969
0.984922
0.984969
0.98493
0.984794
0.984732
0.984686
0.984687
0.984775
0.984686
0.984686
0.984687
0.984698
0.9849
0.984719
0.984747
0.984733
0.984777
0.984696
0.984696
0.984732
0.98493
0.9848
0.984938
0.984925
0.984917
0.984704
0.984704
0.984706
0.984706
0.984704
0.984691
0.98471
0.984697
0.98469
0.984707
0.984706
0.984689
0.984689
0.984696
0.984709
P_ext 1 563 float
0.0198744
0.0198696
0.0198703
0.0198696
0.0198678
0.0198702
0.0198744
0.0198699
0.0198708
0.0198696
0.0198736
0.0198699
0.01987
0.0198696
0.0198682
0.0198702
0.0198692
0.0198699
0.0198709
0.0198704
0.0198705
0.0198645
0.0198704
0.0198703
0.0198704
0.0198697
0.0198734
0.0198701
0.0198722
0.0198662
0.0198701
0.0198722
0.0198735
0.0198668
0.0198668
0.0198668
0.0198661
0.0198669
0.0198701
0.0198735
0.0198722
0.0198661
0.0198661
0.0198701
0.0198729
0.0198722
0.0198709
0.0198707
0.0198702
0.0198724
0.0198723
0.0198718
0.0198677
0.0198718
0.0198678
0.0198731
0.0198667
0.0198718
0.0198668
0.0198703
0.0198692
0.0198688
0.0198733
0.0198688
0.0198687
0.0198693
0.0198692
0.0198698
0.0198704
0.0198694
0.0198678
0.0198678
0.0198722
0.0198691
0.0198703
0.0198736
0.0198684
0.0198694
0.0198697
0.0198716
0.0198726
0.0198676
0.0198689
0.0198727
0.0198721
0.019873
0.0198701
0.0198692
0.0198729
0.0198647
0.0198718
0.0198647
0.0198682
0.0198694
0.0198718
0.0198723
0.0198726
0.0198697
0.0198684
0.0198701
0.0198713
0.0198721
0.0198726
0.0198698
0.0198697
0.0198697
0.0198688
0.0198702
0.0198727
0.0198693
0.0198703
0.0198729
0.0198727
0.0198698
0.0198698
0.0198719
0.0198668
0.0198727
0.0198668
0.0198718
0.019871
0.0198684
0.0198695
0.0198691
0.0198692
0.0198682
0.019867
0.0198696
0.0198727
0.0198718
0.0198676
0.0198696
0.0198689
0.0198695
0.0198721
0.0198666
0.0198729
0.01987
0.0198689
0.0198667
0.019872
0.0198697
0.019871
0.0198696
0.0198727
0.0198697
0.0198697
0.0198702
0.0198703
0.0198714
0.0198706
0.0198695
0.0198721
0.0198701
0.0198696
0.0198695
0.0198695
0.0198721
0.019872
0.01987
0.0198707
0.0198721
0.0198729
0.0198722
0.019872
0.0198697
0.019872
0.0198721
0.0198722
0.019872
0.0198682
0.0198718
0.0198723
0.0198695
0.0198718
0.0198689
0.0198682
0.0198698
0.0198678
0.0198697
0.0198722
0.0198697
0.0198697
0.019872
0.0198692
0.0198723
0.0198692
0.0198689
0.0198682
0.0198697
0.0198692
0.0198726
0.0198718
0.0198722
0.0198695
0.0198699
0.0198698
0.019869
0.0198695
0.0198694
0.0198695
0.0198709
0.0198716
0.019869
0.0198722
0.0198689
0.0198693
0.0198721
0.0198686
0.0198694
0.0198686
0.0198696
0.0198697
0.0198689
0.0198714
0.0198695
0.0198716
0.0198689
0.0198692
0.0198692
0.0198693
0.0198693
0.0198693
0.0198693
0.0198696
0.0198683
0.0198683
0.0198683
0.0198683
0.0198678
0.0198677
0.0198714
0.0198695
0.0198695
0.0198708
0.0198682
0.0198682
0.0198695
0.0198716
0.0198695
0.0198696
0.0198714
0.0198685
0.0198714
0.0198689
0.0198695
0.0198714
0.0198716
0.0198726
0.0198724
0.019869
0.0198728
0.0198701
0.0198716
0.0198709
0.0198695
0.0198692
0.0198661
0.0198693
0.0198729
0.0198715
0.0198695
0.0198698
0.0198716
0.0198692
0.019871
0.0198661
0.0198716
0.0198692
0.0198692
0.0198699
0.0198683
0.0198692
0.0198678
0.01987
0.0198729
0.019873
0.019868
0.0198705
0.0198699
0.0198714
0.0198685
0.0198695
0.0198716
0.0198694
0.0198713
0.0198697
0.0198713
0.0198716
0.0198654
0.0198681
0.0198682
0.0198682
0.0198696
0.0198713
0.0198669
0.0198693
0.0198706
0.0198713
0.0198714
0.019868
0.0198714
0.0198682
0.0198714
0.0198729
0.0198713
0.0198727
0.0198689
0.0198714
0.0198653
0.0198714
0.019869
0.0198714
0.0198691
0.0198714
0.0198702
0.0198735
0.0198703
0.0198714
0.019868
0.0198714
0.0198706
0.0198692
0.0198695
0.0198714
0.0198713
0.019871
0.0198689
0.0198713
0.0198699
0.0198702
0.0198679
0.0198713
0.0198711
0.0198706
0.019871
0.0198714
0.019871
0.0198686
0.0198699
0.0198711
0.0198714
0.0198697
0.0198697
0.0198713
0.0198679
0.0198737
0.0198702
0.0198726
0.0198705
0.019875
0.019875
0.0198749
0.0198749
0.0198748
0.0198751
0.0198751
0.0198688
0.0198671
0.0198699
0.0198706
0.0198709
0.019871
0.0198697
0.019871
0.0198711
0.0198671
0.019871
0.0198686
0.0198718
0.0198684
0.0198702
0.0198707
0.0198711
0.019868
0.0198702
0.0198706
0.0198702
0.0198706
0.019871
0.0198716
0.0198706
0.0198703
0.0198686
0.0198709
0.019871
0.0198709
0.0198707
0.0198703
0.0198697
0.0198709
0.0198697
0.0198703
0.0198707
0.0198699
0.0198703
0.019871
0.0198691
0.0198706
0.0198673
0.0198729
0.0198689
0.0198686
0.0198703
0.0198706
0.0198693
0.0198737
0.0198702
0.0198706
0.0198734
0.0198655
0.0198655
0.0198702
0.0198709
0.0198706
0.0198709
0.0198642
0.0198642
0.0198698
0.0198699
0.0198699
0.0198739
0.019871
0.019869
0.0198708
0.0198708
0.0198707
0.0198737
0.0198691
0.019871
0.0198703
0.0198702
0.0198708
0.0198706
0.0198708
0.0198707
0.0198735
0.0198727
0.0198706
0.0198702
0.0198706
0.0198708
0.0198707
0.0198706
0.0198706
0.019873
0.0198684
0.0198709
0.0198694
0.0198692
0.019873
0.0198702
0.0198703
0.0198678
0.0198654
0.0198654
0.019868
0.019871
0.0198702
0.019873
0.0198655
0.0198644
0.0198644
0.0198738
0.0198669
0.0198662
0.0198703
0.0198683
0.01987
0.0198695
0.0198691
0.019869
0.0198699
0.0198737
0.0198702
0.0198694
0.019869
0.0198736
0.0198666
0.0198736
0.019869
0.0198696
0.0198713
0.0198701
0.0198699
0.0198676
0.0198698
0.0198676
0.0198703
0.0198691
0.0198663
0.0198663
0.0198731
0.0198694
0.0198745
0.0198745
0.0198745
0.0198692
0.0198739
0.0198745
0.0198708
0.0198744
0.0198675
0.0198675
0.0198744
0.0198705
0.0198735
0.0198746
0.0198735
0.0198746
0.0198735
0.0198668
0.0198732
0.0198738
0.0198744
0.01987
0.0198688
0.0198736
0.0198699
0.0198744
0.0198697
0.0198705
0.0198746
0.0198736
0.0198746
0.0198738
0.0198703
0.0198672
0.0198644
0.0198645
0.0198695
0.0198644
0.0198644
0.0198645
0.0198651
0.0198731
0.0198665
0.019868
0.0198672
0.0198696
0.0198649
0.019865
0.0198671
0.0198738
0.0198706
0.0198739
0.0198737
0.0198735
0.0198656
0.0198657
0.0198657
0.0198657
0.0198657
0.0198646
0.0198658
0.0198649
0.0198644
0.0198656
0.0198656
0.0198644
0.0198646
0.0198649
0.0198657
FIELD solute_flux_TPM 2
S_ext 3 563 float
-5.38656e-05 1.8019e-05 4.95297e-18
2.34332e-06 4.498e-06 -1.70249e-19
-8.33584e-06 -6.62222e-06 5.11274e-19
-2.74656e-06 2.77009e-06 -2.51653e-18
1.51966e-05 -4.34305e-06 1.38134e-18
1.81358e-06 -1.0405e-05 -3.281e-19
-5.30429e-05 -1.82382e-05 1.07605e-18
-9.10076e-06 -6.77666e-06 1.04874e-20
1.45172e-05 6.1492e-07 1.15835e-18
7.5397e-06 -2.64746e-06 -3.02018e-18
3.58608e-05 8.34973e-06 -6.25885e-19
1.52529e-06 -1.12691e-05 -4.92672e-19
9.00257e-06 7.34155e-06 -3.68188e-18
1.75942e-06 9.01435e-06 1.00552e-18
1.37777e-05 -2.02001e-06 1.72517e-19
-1.05824e-05 -1.72542e-07 1.517e-18
1.83977e-06 9.28564e-06 -5.24859e-21
6.72508e-06 -1.60922e-06 1.00959e-18
6.46396e-06 1.12707e-05 -3.47212e-18
-9.64402e-06 1.21959e-06 6.92764e-21
-2.33624e-06 -1.38582e-05 3.42794e-19
2.863e-05 4.03949e-05 -2.13156e-18
1.03458e-05 1.05595e-06 2.66394e-18
7.39588e-06 -7.39759e-06 1.83821e-18
-9.78575e-06 -2.16455e-06 1.79643e-19
-4.28151e-07 -7.27727e-06 6.84245e-19
4.1153e-05 -3.22201e-06 1.73118e-18
9.28961e-06 6.73847e-06 -2.00508e-18
-1.62842e-05 -1.32197e-05 -6.45405e-19
3.24423e-05 -8.58619e-06 1.23305e-20
-1.07589e-05 -3.95745e-06 -2.32737e-18
3.47667e-06 -2.08793e-05 4.51395e-18
3.08769e-05 -3.14731e-05 1.25822e-18
-3.4571e-06 -2.77202e-05 1.74087e-18
-1.9585e-05 2.43814e-05 -2.43579e-18
-2.57335e-05 -1.08558e-05 -1.22717e-21
2.15064e-05 2.81649e-05 1.03582e-18
-2.96058e-05 -5.79659e-06 -2.42729e-18
9.51957e-06 -7.24383e-06 2.51774e-18
3.0165e-05 3.27959e-05 -2.67621e-18
2.10228e-05 -9.20261e-06 4.02989e-18
2.19339e-05 -2.71086e-05 2.46777e-18
-1.25165e-05 -3.25292e-05 -1.55709e-18
-1.03111e-05 4.16757e-06 1.51599e-18
1.97533e-05 -1.93213e-05 3.15912e-18
-1.95002e-05 6.93309e-06 1.9379e-18
-2.67626e-06 -1.32092e-05 2.97734e-18
5.14553e-06 1.31734e-05 -1.00427e-18
-1.06476e-05 3.86378e-06 2.01104e-18
-1.17227e-05 1.84334e-05 -6.52052e-19
2.12138e-05 9.99357e-06 1.43654e-18
1.91716e-05 -6.65328e-06 1.30649e-18
-1.0398e-05 1.04194e-05 5.08002e-19
-1.5179e-05 -1.31867e-05 2.93343e-18
-1.4008e-05 -3.42793e-06 -1.7031e-19
-2.8798e-05 1.71496e-05 6.29368e-19
-1.93885e-05 -2.50915e-05 5.35028e-19
4.00903e-06 -1.98489e-05 1.4664e-18
-3.14319e-05 4.28702e-06 -1.90448e-18
3.97304e-06 8.96856e-06 -1.84588e-18
-3.64558e-06 -5.40041e-06 -1.33566e-18
-4.2985e-06 -1.18476e-05 -4.23389e-18
3.71821e-05 1.62046e-05 -6.41398e-19
6.14911e-06 1.19463e-05 -2.38634e-18
8.16349e-06 -9.52257e-06 -2.18224e-18
-1.11791e-06 -1.36577e-05 2.87759e-18
3.07674e-06 -5.79783e-06 -3.68812e-18
-6.56962e-06 -3.64822e-06 4.20802e-18
-6.9438e-06 7.72808e-06 -3.9925e-18
1.68519e-06 -2.76939e-06 -1.00762e-18
-9.96756e-06 -1.04811e-05 2.01771e-19
-1.41278e-05 3.43672e-06 -4.78411e-18
-2.49761e-06 2.22417e-05 2.24978e-18
-1.17474e-05 7.03542e-06 2.71642e-18
-5.93353e-06 9.46837e-06 -1.67597e-18
-3.84125e-05 4.77661e-06 3.89697e-18
5.22385e-06 -1.43008e-05 1.89476e-18
-1.24201e-05 -5.77855e-06 -3.86916e-18
1.25971e-06 7.62771e-06 -1.52034e-18
1.72531e-05 3.31325e-06 6.40738e-19
2.22489e-05 -1.89627e-05 -3.20568e-19
1.47512e-05 1.35772e-05 1.02515e-18
7.96965e-06 -1.94199e-06 -5.08415e-21
-2.07162e-05 1.51847e-05 -1.62519e-19
2.4741e-05 3.17094e-06 3.54899e-18
-3.57044e-06 3.18054e-05 1.44353e-19
-1.14992e-06 -1.10049e-05 2.01228e-18
1.20636e-05 6.55193e-06 -5.03853e-19
1.89977e-05 1.98971e-05 4.68247e-19
4.25381e-05 2.64435e-05 5.22277e-19
-3.53568e-06 1.99472e-05 1.12699e-18
4.44319e-05 -2.49693e-05 1.22847e-18
-1.79844e-05 3.47604e-06 6.92044e-19
1.18669e-05 7.3329e-06 -3.03503e-18
-1.90581e-05 6.3413e-06 4.88945e-19
1.07518e-05 1.86574e-05 -8.11529e-19
6.39777e-06 -2.87057e-05 5.12867e-18
1.26994e-06 7.62337e-06 2.50788e-18
-9.70463e-06 -1.16455e-05 -2.20991e-18
1.99668e-06 1.14241e-05 -1.768e-20
1.72829e-05 3.4549e-06 -2.30699e-18
-1.00548e-05 2.13774e-05 1.77141e-18
2.64313e-05 -8.81122e-06 4.47025e-18
-2.49127e-06 4.84252e-06 -2.00843e-18
6.61325e-06 3.85244e-06 -2.69316e-18
-1.47161e-06 -7.39989e-06 -4.89844e-19
2.15788e-06 -1.27218e-05 -1.48089e-19
1.15091e-05 2.56944e-06 3.17999e-18
-5.34701e-06 2.65597e-05 1.51476e-19
-6.51231e-06 1.24844e-07 -3.35588e-18
6.14477e-06 7.78444e-06 -4.00149e-18
-1.75432e-06 -2.7075e-05 3.334e-18
2.7413e-05 8.50886e-06 1.54825e-19
2.94691e-06 -4.87381e-06 -8.27384e-19
-7.25519e-06 -2.33582e-06 2.19843e-18
-1.88274e-05 -8.00808e-06 1.78835e-18
1.06386e-05 2.77607e-05 2.76278e-18
-2.76952e-05 -9.86671e-06 -1.28601e-18
1.07872e-05 -2.78346e-05 -1.19862e-20
-2.4494e-06 -2.06728e-05 2.27582e-18
1.43464e-05 3.94848e-07 1.48318e-18
-4.75703e-06 1.22282e-05 4.26845e-18
-1.04903e-06 2.59144e-06 -8.47642e-19
-2.45269e-06 -1.09049e-05 1.20006e-18
3.48848e-06 -5.61061e-06 -1.51419e-18
6.21087e-06 1.04842e-05 -5.18272e-19
2.2342e-05 7.29521e-06 1.41494e-21
5.76604e-06 -4.87036e-06 5.11457e-19
-5.48707e-06 -2.90546e-05 4.15931e-18
1.66949e-05 -1.23122e-05 1.46517e-18
3.3057e-06 1.84286e-05 -1.20548e-18
-1.82905e-06 -1.87129e-06 3.52319e-19
-5.70862e-06 -5.48269e-06 2.05673e-18
-3.15107e-06 5.89867e-08 -1.66375e-18
-1.47853e-05 1.82544e-05 4.83004e-19
1.29188e-05 -2.50067e-05 7.17199e-19
-1.72726e-05 2.72992e-05 2.8611e-18
-1.06472e-05 6.20174e-06 -3.23665e-19
1.66502e-06 8.16945e-06 -2.04644e-18
-1.51679e-05 -2.36731e-05 -2.59783e-18
8.96616e-06 2.1736e-05 2.75221e-18
1.16217e-05 6.11354e-06 -6.73812e-19
1.49513e-05 -5.64325e-06 1.8215e-18
-8.2421e-07 -7.39086e-06 -2.50862e-18
-2.17506e-05 -2.00036e-05 3.99953e-18
-1.78983e-06 7.39916e-06 -1.51331e-18
1.14266e-05 6.74017e-06 -1.00583e-18
1.24557e-05 -5.87602e-06 -1.32791e-18
5.4566e-06 -9.37507e-06 1.84234e-18
1.59675e-05 -7.0808e-06 1.63424e-18
1.25165e-05 -5.92683e-06 -2.15244e-18
3.13925e-06 1.93304e-07 1.82667e-19
1.67546e-05 1.32641e-05 -1.29425e-18
-1.76264e-06 -1.1097e-05 2.02258e-18
-6.88068e-06 -2.87597e-06 -3.17694e-18
7.53261e-07 -2.54322e-06 -1.15784e-18
-2.10627e-06 1.04026e-05 -1.02111e-18
-2.2298e-05 1.76055e-06 2.26598e-18
-7.88724e-06 -2.139e-05 -1.1365e-18
-5.16154e-06 6.35668e-06 -3.3612e-19
8.88407e-06 1.08534e-05 -3.15942e-18
1.72885e-05 -1.23293e-05 4.78058e-19
-2.3722e-05 -1.286e-05 -4.78187e-19
1.12376e-05 -1.80186e-05 -6.43883e-19
1.48149e-05 -1.77447e-05 1.63022e-19
-7.13307e-06 2.50802e-06 -1.32742e-18
-1.28123e-05 -1.84406e-05 4.70241e-18
-2.22801e-05 -3.70542e-06 -4.87929e-19
-2.68905e-06 -2.05082e-05 3.22102e-19
9.94818e-06 -2.05912e-05 2.76061e-18
-6.06238e-06 -1.7351e-05 2.41106e-18
2.85455e-06 2.03534e-05 -2.11655e-18
-1.03479e-05 -1.83306e-05 3.21734e-18
1.97859e-06 -1.0693e-05 -1.16412e-18
-1.59651e-05 1.16236e-05 6.83219e-18
-9.89415e-06 -8.00519e-06 2.21185e-18
-1.81028e-05 -3.36775e-06 -1.35642e-18
1.03775e-05 -6.09217e-06 -6.67535e-19
-2.83943e-06 1.58619e-05 2.9321e-18
8.16819e-06 -6.13558e-06 8.51535e-19
-1.90324e-05 -8.3443e-06 -8.02819e-19
-5.80119e-06 -4.84345e-06 -2.84142e-18
6.04502e-06 4.91897e-06 4.94252e-19
1.39221e-05 1.86952e-05 1.12743e-18
-1.14581e-05 -7.0995e-06 1.36149e-18
-2.08745e-05 -5.04366e-07 3.14173e-19
-1.07783e-05 -3.24134e-06 -3.36236e-18
-3.0249e-06 -1.09176e-05 1.03323e-18
1.18447e-05 1.42738e-05 -1.02992e-18
-7.21706e-06 3.79663e-06 -5.37326e-18
4.4899e-07 -1.35111e-05 1.70139e-18
-2.68101e-05 6.87384e-06 -1.92901e-18
1.62439e-05 1.32158e-05 9.6565e-19
2.3527e-06 2.13519e-05 -6.94038e-18
-1.57805e-06 2.51544e-06 1.44821e-20
-5.88621e-06 1.64812e-07 2.36084e-18
2.89069e-06 5.07249e-06 -1.3485e-18
-7.72653e-06 2.28183e-06 -1.50785e-18
-1.34261e-06 -2.46521e-06 1.19474e-18
1.12154e-06 1.36432e-05 6.63062e-19
3.00837e-06 2.48794e-07 8.30887e-19
-1.26472e-05 3.05451e-06 2.81792e-18
-1.12759e-05 1.24587e-05 1.61401e-19
-2.02719e-06 7.66049e-06 3.90744e-18
-1.88832e-05 1.17652e-05 2.73591e-18
-6.19529e-06 5.91627e-06 1.68179e-18
1.15107e-05 -7.79837e-06 -3.36396e-19
2.38919e-05 -2.3742e-06 -1.64051e-19
-1.3986e-05 7.42425e-06 1.71199e-18
1.46789e-06 2.99316e-06 8.33942e-19
1.46066e-05 -2.83027e-06 1.70777e-18
-1.13219e-05 6.81857e-06 4.3852e-18
-6.444e-06 3.63881e-06 1.02236e-18
7.95945e-06 2.56773e-06 2.8912e-18
1.43035e-05 -8.86922e-06 -1.6491e-19
-1.14031e-05 6.48219e-06 2.19826e-18
-1.61362e-05 -3.39254e-06 9.77705e-19
-1.1024e-05 -2.83435e-06 -5.06981e-18
6.66405e-06 5.88447e-08 1.19588e-18
6.82682e-06 7.80594e-08 -6.81073e-19
2.91512e-06 5.48476e-06 -5.0788e-19
3.21273e-06 -5.80099e-06 1.90213e-19
-3.29275e-06 5.58996e-06 2.5382e-18
-3.4498e-06 -5.72028e-06 -4.88899e-19
6.56324e-06 -4.96327e-06 -2.51806e-18
-1.3487e-05 2.16337e-06 -3.24146e-19
-1.33354e-05 -2.20602e-06 -3.33559e-19
-8.52466e-06 1.05358e-05 -1.88541e-18
-8.5728e-06 -1.05764e-05 -6.4767e-19
4.98893e-06 -1.33759e-05 3.4234e-18
4.80661e-06 1.32618e-05 2.04301e-18
9.66394e-07 1.68563e-05 -5.24371e-18
7.50147e-06 -2.0067e-06 -9.98067e-19
1.6215e-06 -2.52257e-06 -2.66568e-18
-1.3812e-05 9.29084e-07 5.05206e-19
5.15036e-06 -1.31607e-05 1.70184e-18
4.88008e-06 1.3208e-05 -3.25338e-18
3.17197e-06 -5.89474e-08 6.66271e-19
5.79466e-06 1.59355e-05 1.29841e-18
-1.47664e-06 -2.62964e-06 -1.65978e-18
1.54907e-06 -7.42572e-06 -1.55201e-19
-1.44861e-05 -7.76976e-06 -1.80694e-18
-1.41185e-05 -7.55691e-06 1.81198e-19
-1.41784e-05 8.76787e-06 -3.23924e-19
2.14918e-06 -8.27417e-06 1.18842e-18
-1.04929e-06 2.20357e-06 1.45008e-21
-4.69569e-07 -1.65729e-05 9.81911e-19
-5.09829e-06 -1.57727e-05 -3.2315e-19
2.12942e-05 1.98343e-05 1.28098e-18
2.32404e-05 -1.20122e-06 3.9995e-18
-8.4179e-06 -2.44652e-06 -1.00368e-18
-1.48379e-05 -2.64227e-05 1.60036e-18
5.47019e-06 8.98438e-06 -1.84847e-18
-1.62643e-05 1.91921e-06 1.63181e-18
1.31973e-05 3.78236e-06 9.88204e-19
-2.9684e-06 -1.24642e-08 1.35723e-18
-3.07308e-06 -5.55503e-06 2.47906e-20
-5.43606e-06 -2.58599e-05 2.44265e-18
-6.42886e-06 -2.61543e-08 -1.52447e-19
-3.08427e-05 -1.15764e-06 3.34805e-18
1.1274e-05 -1.25308e-05 1.14064e-18
1.6504e-06 2.61421e-06 1.33533e-18
-7.78185e-08 -1.14776e-05 1.76156e-19
-6.4729e-06 1.55458e-05 6.02511e-18
-2.89064e-06 5.69781e-06 -1.8594e-18
1.34955e-05 -8.91512e-06 2.97681e-18
-2.51095e-05 -8.20273e-06 -1.39757e-18
-9.94009e-06 -1.31211e-05 1.63481e-18
3.32124e-06 5.62033e-06 -8.5897e-19
1.11043e-05 3.34131e-06 -2.70838e-18
-3.11644e-06 -4.77097e-06 -6.56088e-19
1.33194e-05 2.42852e-06 3.07569e-18
1.21337e-05 -6.50885e-06 -6.73262e-19
-2.48411e-07 1.7965e-05 2.57382e-18
5.49564e-06 -8.93702e-06 1.17498e-18
3.18729e-05 1.36157e-06 1.41782e-18
-2.70781e-05 7.05505e-06 6.29989e-19
1.53579e-05 7.66829e-06 -2.40274e-18
-4.20933e-06 -1.11297e-05 -2.9873e-18
-1.00268e-05 -5.60274e-06 -2.16787e-18
1.8826e-05 -1.55596e-07 -2.13581e-18
-4.79905e-07 -1.60508e-05 3.41457e-18
-8.2281e-06 -7.15912e-06 4.22713e-18
6.62289e-06 -1.53581e-05 3.75357e-18
-3.66196e-07 1.35044e-05 -3.50181e-19
5.09611e-06 1.69456e-05 -5.59211e-18
1.14475e-05 -6.57315e-06 -2.18012e-18
-1.22799e-05 1.23694e-05 -3.33207e-19
1.07565e-05 1.31109e-05 1.78967e-18
-4.32729e-05 1.03221e-05 1.39747e-18
-6.73658e-06 1.72275e-05 1.01724e-18
8.31411e-06 -1.00965e-05 -6.52144e-19
-4.63106e-06 -1.21754e-05 -2.37112e-18
-7.80073e-06 2.89857e-06 -2.01298e-18
-1.66432e-05 -4.5416e-06 -1.48245e-18
-4.46206e-06 2.60575e-05 -5.25457e-19
-8.25045e-06 7.87941e-06 -1.32956e-18
1.3656e-05 -2.99513e-06 -1.99044e-18
-4.47506e-06 -1.66888e-05 1.15229e-18
-9.65774e-06 1.53731e-05 -1.72838e-19
-1.43997e-05 8.29585e-06 -3.32967e-19
-1.33056e-05 -9.69527e-06 2.30355e-18
1.20905e-05 -1.39456e-05 -1.03023e-18
-1.76688e-05 -9.37339e-07 -1.31095e-18
7.78824e-06 -2.66886e-05 2.69262e-18
1.26775e-05 -1.23506e-05 2.30314e-18
1.59415e-05 2.80067e-05 -3.53168e-21
1.29363e-06 1.31073e-05 -3.40001e-18
1.8927e-06 -1.65577e-05 3.27872e-18
-2.81502e-05 3.30451e-05 8.78333e-19
-8.23825e-06 -1.57185e-05 2.13185e-18
1.09778e-05 -4.24664e-06 3.44444e-19
-1.66335e-06 1.66902e-05 1.54571e-19
8.57794e-06 -7.97222e-06 -7.22521e-22
9.02113e-06 1.58231e-05 8.16303e-19
1.13434e-05 -9.632e-07 -6.65865e-19
1.39534e-05 -4.0862e-05 3.95068e-18
-3.83693e-06 -8.36464e-06 -1.55163e-19
-1.49724e-05 6.43228e-06 2.95476e-18
-1.32757e-05 1.24108e-05 -2.8916e-18
1.41173e-05 9.55102e-06 6.47444e-19
1.22778e-05 -7.10722e-06 -1.48985e-18
9.91037e-06 8.3905e-06 -1.01624e-18
-3.60539e-06 -9.58138e-09 1.68379e-18
1.00206e-05 -1.50412e-05 -2.62457e-18
-1.10003e-05 -1.30983e-05 1.81075e-18
1.47808e-05 6.42248e-06 3.23207e-19
8.53696e-06 -8.02683e-06 1.18318e-18
6.17113e-06 -1.61647e-05 6.5792e-19
1.10086e-05 -4.65689e-06 -3.01206e-18
-1.02856e-05 -4.9e-06 -3.1639e-18
8.78176e-07 -1.73818e-05 7.00022e-19
-1.6789e-05 2.88496e-06 2.14256e-18
1.48594e-06 1.59501e-05 -1.49536e-18
1.35259e-05 4.37202e-06 -9.9983e-19
-1.40266e-05 -6.91178e-06 -3.79286e-18
-5.855e-06 1.6561e-05 5.08192e-18
-9.86089e-07 -1.57251e-05 6.65042e-19
1.3e-05 7.89405e-06 -6.78419e-19
-1.1321e-06 1.18396e-05 1.83406e-18
-1.30528e-05 8.78101e-06 2.64347e-18
1.54193e-05 7.46122e-06 1.79521e-18
-1.11522e-05 -6.56018e-06 -8.2714e-19
1.0523e-07 -1.29973e-05 4.71888e-18
1.20113e-05 1.30312e-05 -1.70811e-19
-1.46017e-05 -9.43966e-06 -2.22272e-18
3.15411e-05 -2.25687e-05 -1.40119e-18
1.18346e-05 -7.12071e-06 -1.32464e-18
5.62922e-06 2.78908e-05 -3.29405e-19
1.12271e-05 -8.9577e-06 5.03445e-19
-1.46829e-05 5.66279e-05 4.4191e-19
-1.47593e-05 -5.60891e-05 1.93294e-18
3.68615e-05 4.81853e-05 -8.9378e-19
3.6418e-05 -4.81735e-05 5.88374e-19
6.01872e-05 -2.94915e-08 4.45295e-19
-5.1791e-05 2.09838e-05 4.7502e-18
-5.09506e-05 -2.1203e-05 1.33305e-18
8.16013e-06 7.88393e-06 1.51913e-18
1.97568e-05 1.47106e-05 -2.41136e-18
7.56273e-06 2.20165e-06 2.51427e-18
1.24225e-05 6.39057e-06 2.82209e-18
3.23341e-06 1.3178e-05 -8.31991e-19
-1.2203e-05 -9.61424e-06 1.1638e-18
1.13451e-05 -6.71991e-06 5.11685e-19
1.30324e-05 9.50679e-06 1.15008e-18
-2.08472e-06 1.58367e-05 2.298e-18
1.98537e-05 -1.35071e-05 8.59492e-19
2.41066e-06 -1.54399e-05 -6.56842e-19
1.46888e-05 3.39166e-06 -2.20661e-18
1.95078e-05 7.24309e-06 -2.93319e-18
9.4289e-06 9.35866e-06 -1.19728e-18
1.04813e-05 4.3426e-06 5.04297e-19
-1.20241e-05 7.08336e-06 -1.65757e-18
-1.45813e-05 5.83708e-06 6.63675e-19
1.54215e-05 -7.52105e-06 6.7998e-19
-1.18674e-05 -6.50807e-06 -1.48994e-18
-1.20462e-05 -6.81839e-06 -1.32179e-18
-2.12109e-07 -1.35661e-05 1.33952e-18
-9.89305e-08 -1.37808e-05 2.49608e-18
-1.30127e-05 -6.5421e-07 -6.52212e-19
1.75115e-05 -2.65627e-06 1.78757e-18
1.18985e-05 7.45758e-06 -3.3514e-19
-1.16508e-05 7.06646e-06 -1.82956e-18
-1.00983e-05 1.09975e-05 1.71194e-18
1.05074e-05 -9.0408e-06 2.97835e-18
-7.21459e-06 1.12901e-05 2.79414e-18
-9.24833e-06 -9.62298e-06 3.36361e-19
-8.04822e-07 1.37944e-05 -1.79944e-19
-8.33047e-07 1.36955e-05 4.87206e-19
3.22545e-08 -1.30011e-05 2.52801e-18
3.98362e-06 -1.28983e-05 -1.15258e-18
-1.12132e-05 -6.4544e-06 -3.00941e-18
1.02787e-05 -3.64391e-06 -2.3264e-18
4.18159e-07 1.40182e-05 -5.08427e-19
1.72204e-07 1.21042e-05 -2.52765e-18
-1.55763e-06 1.09751e-05 4.15619e-18
1.43788e-05 -3.63768e-06 8.24208e-19
-1.09437e-05 3.47912e-06 -4.9797e-19
2.67112e-06 1.40314e-05 -1.31696e-20
-2.17069e-05 8.51122e-06 6.89562e-19
6.11186e-06 2.72675e-05 1.46905e-19
-1.12476e-05 2.96659e-06 -1.34558e-18
1.31899e-05 -7.80531e-06 -2.71711e-18
5.69904e-07 1.37273e-05 -3.68109e-18
-1.32428e-05 4.35175e-06 1.00631e-18
1.62148e-06 -1.06671e-05 -4.91679e-19
5.94372e-07 -3.77781e-05 2.32271e-18
1.30227e-06 1.14474e-05 -1.34657e-18
-1.10459e-05 9.02773e-06 -4.48188e-18
1.12458e-05 4.13901e-05 -6.33282e-19
3.1511e-05 2.61337e-05 -1.77035e-19
3.61232e-05 -2.47155e-05 -2.46216e-18
9.79313e-06 -6.70627e-06 -1.32955e-18
-1.02832e-05 9.06682e-06 -2.64144e-18
-1.30756e-05 -5.14744e-06 -1.98704e-18
-1.27154e-05 -4.39057e-06 -2.64032e-18
4.44176e-05 -1.22052e-05 3.5242e-19
4.53081e-05 9.52719e-06 -1.24712e-18
7.1949e-06 2.51615e-06 5.08083e-19
4.60651e-07 1.28297e-05 -1.01593e-18
5.0394e-08 1.28214e-05 -1.18483e-18
-3.14702e-05 -2.30289e-05 4.56488e-19
7.46887e-06 -1.12469e-05 -2.80631e-18
7.81415e-06 8.34766e-06 -1.36115e-18
-1.38156e-05 -2.20896e-06 3.41027e-19
-9.14125e-06 1.10886e-05 -1.64961e-19
-1.22593e-05 5.90334e-06 1.33295e-18
3.11484e-05 2.23426e-05 3.07632e-19
1.05311e-05 4.65834e-06 8.4306e-19
-3.67977e-06 1.29845e-05 5.27501e-18
-1.10754e-05 -7.58739e-06 -1.15214e-18
1.17719e-06 -1.34269e-05 -9.94417e-19
-5.81324e-06 -1.24869e-05 4.3089e-18
-1.11969e-05 -7.61831e-06 -4.13777e-18
6.90644e-06 -1.23523e-05 -1.82265e-18
9.27675e-06 -1.10907e-05 -1.6656e-19
-1.92245e-06 -3.95332e-05 3.46255e-18
1.68649e-05 -2.67491e-05 4.15313e-18
1.13611e-06 -1.35669e-05 -9.87833e-19
1.18632e-05 7.43324e-06 3.34339e-19
-9.42654e-06 -9.60717e-06 -1.65178e-18
-6.4096e-06 1.27539e-05 6.56318e-19
-3.28464e-06 1.36538e-05 4.63734e-18
1.09417e-05 9.29695e-06 -1.67006e-18
3.9302e-06 -1.29604e-05 -1.99337e-18
-9.05431e-06 -2.59292e-05 3.48054e-18
-1.35919e-06 1.658e-05 6.78107e-19
9.69277e-06 9.47474e-06 -1.7044e-19
-8.46519e-06 -6.69654e-06 1.01948e-18
-8.88471e-06 6.96728e-06 3.39467e-18
2.90182e-05 -1.2471e-05 -1.10954e-18
4.96627e-06 -8.76186e-06 -1.32975e-18
-5.44218e-06 -8.18125e-06 -2.99249e-18
1.43415e-05 4.3757e-06 -8.51724e-19
8.81901e-06 -3.18164e-05 7.18153e-19
-2.31494e-05 -2.35254e-05 -8.78746e-19
1.56383e-05 4.09721e-06 -3.39478e-19
-6.09613e-06 -1.18239e-05 1.81601e-18
1.23299e-05 6.27052e-06 -1.66733e-18
-1.86767e-05 -2.07389e-05 6.00282e-18
7.14193e-06 3.23503e-05 -1.05067e-20
3.13445e-05 -4.04831e-05 2.3075e-18
-1.9389e-05 -4.73766e-05 -3.01297e-18
1.76046e-05 -3.44131e-05 1.08325e-18
-8.41725e-06 2.89023e-05 -8.5216e-19
-4.79587e-06 2.55974e-05 -3.5767e-19
-1.21887e-05 5.83667e-06 5.06407e-19
4.00455e-06 1.60292e-05 3.35156e-19
-1.57101e-06 8.23707e-06 1.17071e-18
6.70816e-06 2.15236e-06 -8.43205e-19
-2.13151e-06 1.06947e-05 1.33751e-18
-1.60624e-07 1.38307e-05 -3.49585e-19
1.10228e-05 6.4232e-06 -2.34552e-18
5.50104e-07 3.75993e-05 -1.55464e-18
-9.61363e-06 6.93045e-06 -2.33135e-18
1.06078e-05 -4.09219e-06 -1.51014e-18
1.13235e-05 -2.93663e-06 -3.27814e-19
-3.8541e-05 -5.53793e-06 -9.37976e-19
-2.29446e-05 1.09178e-05 -3.29225e-18
-2.79684e-05 -3.31627e-05 5.04894e-18
5.72307e-06 5.48763e-06 -2.3758e-18
9.40415e-06 4.86104e-06 1.6815e-19
1.75409e-05 -2.79949e-06 6.56408e-19
-5.28267e-06 -8.59949e-06 -2.3243e-18
1.13734e-05 5.59473e-06 8.61131e-22
4.88239e-06 -1.99312e-05 1.40078e-18
-9.02053e-06 6.61398e-06 -3.34881e-18
-1.48132e-05 -1.41918e-05 -2.22055e-18
-3.80279e-06 1.06072e-05 -1.6749e-18
-2.20105e-06 1.36276e-05 1.85319e-18
2.29196e-05 1.42343e-05 3.42882e-19
2.44363e-05 -1.29671e-05 -2.60956e-18
-2.69227e-05 -7.25014e-06 9.42928e-19
5.04733e-06 5.11955e-06 -2.52509e-18
-3.15297e-06 6.57336e-05 -3.12446e-19
-1.36775e-08 -6.75211e-05 2.17129e-18
3.32799e-05 5.69536e-05 -9.21505e-19
-1.25979e-05 5.49721e-06 -3.1999e-18
-1.78537e-05 3.60505e-05 4.60177e-19
3.34844e-05 -5.49714e-05 -3.05493e-19
-7.62179e-06 -1.17941e-05 -1.59136e-19
5.09143e-05 4.43252e-05 1.4797e-19
1.59569e-05 -1.18708e-05 -8.3097e-19
-2.31954e-06 -1.97441e-05 -5.32717e-18
5.33472e-05 -4.33424e-05 3.03761e-19
-4.42725e-06 9.4263e-06 3.29602e-19
-3.41861e-05 -2.17176e-05 -3.11377e-19
-2.81539e-05 -5.87842e-05 1.52806e-18
-1.594e-05 -3.72112e-05 6.43633e-18
-2.89441e-05 5.97473e-05 -6.18647e-19
-6.8538e-06 4.13477e-05 9.32317e-19
1.06883e-05 2.48186e-05 -6.97699e-19
-1.83492e-05 2.35789e-05 4.72235e-18
-1.70841e-05 -3.50952e-05 2.31784e-18
6.55074e-05 1.14938e-05 3.3908e-18
-1.10877e-05 6.9643e-06 -4.34735e-18
-3.92969e-06 1.0758e-05 1.5862e-19
-3.24223e-05 2.33497e-05 4.22638e-18
-1.12909e-05 6.4823e-06 -3.00989e-18
6.48623e-05 -1.02473e-05 -7.62044e-19
-1.00728e-05 5.06202e-06 -1.58799e-19
4.732e-06 -9.49518e-06 -1.82588e-18
-5.03656e-05 -3.83763e-05 4.16416e-18
-1.71727e-05 3.72443e-05 1.08686e-18
-5.15658e-05 3.81019e-05 4.54722e-19
1.55713e-05 3.42851e-05 4.58056e-19
-9.65288e-06 6.85843e-06 -5.32701e-18
-1.35714e-05 1.63081e-05 -5.3387e-18
-2.41707e-05 3.03559e-05 -6.0157e-18
-3.78986e-05 -4.88821e-06 -2.83361e-18
-6.35512e-07 1.07065e-05 6.62665e-19
-2.56012e-05 -3.04835e-05 3.44298e-19
-3.92116e-05 6.93561e-06 -2.30385e-18
-1.49352e-05 3.46445e-05 2.30216e-18
-1.15279e-05 4.61197e-05 -3.60005e-19
-1.19725e-05 2.65438e-05 1.41502e-18
-2.23664e-05 1.8021e-05 -4.32943e-18
1.64318e-05 -4.04331e-06 1.37273e-18
2.56787e-05 -1.38544e-06 1.55346e-18
8.94348e-06 5.43924e-06 1.00695e-18
-8.09925e-06 -5.30628e-05 -5.2384e-19
-5.0013e-05 -1.95042e-05 -2.2984e-18
2.5005e-05 3.33284e-07 3.52698e-19
3.83515e-05 -7.40402e-06 1.7022e-18
-6.89087e-06 -8.74862e-06 -3.31804e-18
-3.32772e-05 2.33959e-05 2.16175e-18
-2.98227e-05 3.41617e-05 4.08974e-18
4.05414e-05 -1.46078e-05 -9.43104e-19
-1.86877e-05 -3.16667e-05 -1.04084e-18
-1.90221e-05 3.14218e-05 -7.68829e-18
-3.69086e-05 -1.30615e-06 -1.39799e-18
-1.67875e-05 3.3015e-05 3.1496e-18
-3.67912e-05 3.80709e-07 -2.61677e-18
4.57604e-05 1.63875e-05 -8.81328e-19
3.69388e-05 1.35819e-06 3.73817e-21
3.47258e-05 -1.77913e-05 6.92191e-19
1.01271e-05 -4.88134e-05 5.16316e-19
1.83556e-05 -3.19737e-05 2.07841e-18
1.82311e-05 3.19701e-05 8.63419e-19
9.91751e-06 4.76951e-05 1.7624e-18
4.99744e-05 -1.40918e-05 -1.9389e-18
3.204e-05 1.58698e-05 2.81068e-18
3.07971e-05 8.41459e-06 -1.90742e-18
P_ext 3 563 float
-1.07353e-06 3.62985e-07 -1.66751e-21
1.01759e-09 3.97599e-08 -7.58429e-20
-9.89195e-08 -9.30243e-08 4.43258e-20
-3.12916e-08 2.88842e-08 -1.32979e-20
2.72992e-08 5.21916e-10 -1.30632e-20
3.25559e-08 -1.32127e-07 -1.02447e-20
-1.05696e-06 -3.67377e-07 2.16809e-20
-7.75517e-08 -8.79765e-08 3.67423e-20
2.15729e-07 3.82127e-09 2.84587e-20
7.87621e-08 -7.39889e-09 -6.81598e-20
6.98786e-07 1.63785e-07 -1.93752e-20
3.84064e-08 -1.12431e-07 -1.02877e-20
8.80161e-08 1.04769e-07 4.79984e-21
-9.06682e-09 8.20728e-08 -2.08988e-20
2.46567e-08 9.13457e-09 -1.24395e-19
-1.37907e-07 -2.25754e-09 5.23617e-20
-1.72298e-08 5.40846e-08 -2.89681e-20
8.31326e-08 -1.25437e-08 -7.00938e-20
9.54866e-08 1.70292e-07 -4.40727e-20
-1.28109e-07 1.29191e-08 -2.82289e-20
-4.80938e-08 -1.81452e-07 1.83732e-20
1.58609e-09 3.26868e-10 -8.64751e-21
1.41889e-07 1.1552e-08 -2.03391e-20
9.03322e-08 -1.04299e-07 -2.55669e-20
-1.30866e-07 -2.10732e-08 2.6155e-20
-2.46697e-08 -7.16153e-08 1.59895e-20
8.03349e-07 -6.57178e-08 -1.95628e-20
9.84243e-08 8.29785e-08 7.5465e-21
-2.93937e-07 -2.33486e-07 1.99098e-20
1.72725e-08 3.24925e-09 -5.91928e-20
-1.31401e-07 -2.34008e-08 -8.05822e-20
5.74474e-08 -3.73823e-07 7.9731e-21
6.03683e-07 -6.18247e-07 -4.38045e-20
1.28604e-09 -2.83515e-08 4.34375e-20
-7.62968e-09 2.18038e-08 6.16014e-20
-2.36665e-08 -1.55913e-08 -7.80153e-20
3.13392e-09 1.5655e-08 7.56813e-20
-2.39286e-08 4.07481e-09 -4.60755e-20
9.50484e-08 -1.03374e-07 5.50154e-20
5.8908e-07 6.44303e-07 -7.37823e-20
3.76287e-07 -1.70481e-07 -2.71243e-20
5.82133e-09 -1.43361e-08 6.58337e-20
-9.42268e-09 -1.25557e-08 -4.05629e-20
-1.30534e-07 2.68133e-08 6.8107e-20
3.73319e-07 -3.66616e-07 3.71061e-20
-3.47855e-07 1.2521e-07 2.77972e-20
-4.39489e-08 -1.91781e-07 2.09627e-20
7.92988e-08 1.92629e-07 3.58372e-20
-1.25209e-07 3.27417e-08 1.59935e-20
-2.15452e-07 3.35103e-07 9.67071e-21
3.81905e-07 1.8703e-07 1.49475e-20
3.31616e-07 -1.09068e-07 2.55242e-20
-9.76992e-09 2.3219e-08 5.26256e-21
-2.59512e-07 -2.32875e-07 8.0036e-21
-2.5471e-08 3.36335e-09 -5.32737e-20
-5.56603e-07 3.26868e-07 -4.93683e-20
-7.08463e-09 -2.17127e-08 3.0484e-21
7.38979e-08 -3.42699e-07 4.30889e-20
-2.21291e-08 -4.82051e-09 -9.98981e-20
5.79784e-08 1.1625e-07 -3.07429e-21
-3.09381e-08 -9.38876e-09 8.02669e-21
-3.26665e-08 -3.06843e-08 5.13254e-21
7.2434e-07 3.18898e-07 -3.22135e-20
-6.22631e-10 6.32613e-08 -3.02914e-21
9.77728e-09 -4.22088e-08 -7.62812e-20
1.64268e-08 -9.39049e-08 1.61862e-20
-6.5192e-09 -3.07465e-08 -7.78092e-21
-7.51541e-08 -1.90996e-08 -3.31823e-20
-8.74854e-08 1.07044e-07 -3.91369e-20
2.34625e-08 -8.51924e-09 -2.69854e-21
-9.63643e-09 -2.38876e-08 3.7957e-20
-2.51923e-08 -3.69263e-09 -9.61303e-20
-4.33622e-08 4.01733e-07 -6.0076e-20
-7.71878e-08 3.89874e-08 9.24902e-20
-7.48844e-08 1.28085e-07 1.78667e-20
-7.53223e-07 8.85352e-08 3.90304e-20
3.39704e-11 -5.96524e-08 3.50397e-20
-7.25159e-08 -6.07572e-08 -3.16151e-20
3.05353e-08 7.45128e-08 -3.16778e-20
2.88685e-07 5.77138e-08 5.56364e-20
4.13745e-07 -3.59991e-07 -2.00164e-20
1.1343e-08 2.7776e-08 5.08424e-20
2.79883e-08 8.68556e-09 -6.58687e-20
-3.85514e-07 2.8522e-07 -2.74574e-20
4.50007e-07 5.47103e-08 2.03383e-20
-6.82071e-08 6.09929e-07 -8.63239e-20
-2.3646e-08 -1.22241e-07 2.37477e-20
8.30088e-08 5.84634e-08 -1.04926e-20
3.59084e-07 3.78681e-07 -7.1394e-20
6.50678e-09 2.89525e-09 -1.64961e-20
-6.92077e-08 3.44636e-07 -3.54813e-20
5.87759e-09 -3.14883e-09 1.64673e-20
-4.15571e-08 2.83417e-08 5.60163e-20
8.97129e-08 3.65109e-08 -3.96784e-20
-3.31845e-07 1.02588e-07 2.54352e-20
1.92604e-07 3.38437e-07 2.97867e-20
1.19821e-07 -5.4099e-07 1.12654e-19
2.81667e-08 7.38452e-08 4.96456e-20
-5.09659e-08 -3.03261e-08 -6.10804e-20
4.2229e-08 1.35059e-07 2.82351e-20
2.80784e-07 4.77807e-08 2.16119e-21
-1.86391e-07 3.85075e-07 -5.00193e-21
4.95483e-07 -1.61938e-07 -7.12135e-21
-2.74962e-08 6.00325e-08 2.06786e-20
5.26994e-08 5.35219e-08 -3.95633e-20
-3.13221e-08 -7.22574e-08 -5.4594e-20
-1.25999e-08 -5.50545e-08 3.99018e-20
1.45754e-07 1.74737e-08 -6.97502e-20
-1.0631e-07 4.97284e-07 -4.22913e-20
-2.45888e-08 1.51692e-08 -8.9108e-20
7.27016e-08 1.0774e-07 5.12449e-20
-3.59482e-08 -5.10314e-07 4.71366e-20
5.16245e-07 1.55004e-07 -1.98844e-20
3.51495e-08 -6.21125e-08 1.31452e-20
-8.02481e-08 -9.17971e-09 -2.29248e-20
-3.30187e-07 -1.32525e-07 2.52968e-20
1.63287e-08 1.74654e-08 5.39502e-20
-5.24484e-07 -1.83425e-07 -1.14666e-19
1.65769e-08 -1.74172e-08 -2.58602e-22
-5.09998e-08 -3.58593e-07 -1.49639e-20
2.21322e-07 8.39863e-09 -2.03642e-20
-1.97136e-08 1.68221e-08 2.45125e-20
5.29143e-09 2.41714e-08 -2.6379e-20
1.48057e-08 -6.48386e-08 -4.75499e-21
2.57169e-08 -1.20269e-08 2.52823e-21
4.80048e-10 2.60488e-08 -1.08168e-20
2.24863e-08 -2.80728e-09 -4.29748e-20
4.19492e-08 -6.18863e-08 -1.80643e-20
-1.07388e-07 -5.47721e-07 3.02369e-20
2.83701e-07 -2.18395e-07 -1.25324e-20
9.18511e-10 3.45653e-08 1.31203e-20
-2.39236e-08 -4.32738e-09 -2.05321e-20
-7.78483e-09 -2.67582e-08 1.12861e-20
-1.97282e-08 -1.39257e-08 -5.72918e-20
-2.65222e-07 3.31427e-07 3.01116e-20
-3.04683e-10 -2.63258e-08 6.52404e-20
-3.31754e-07 5.20906e-07 5.46848e-20
-1.24688e-07 5.73413e-08 3.14814e-20
1.75335e-08 1.89083e-08 -1.47881e-19
-2.2665e-08 -1.32527e-08 -1.59276e-19
1.6176e-07 3.90402e-07 1.51885e-20
9.33368e-08 8.31849e-08 2.34629e-20
2.26543e-07 -7.47109e-08 4.64658e-20
1.27489e-08 -6.97096e-08 -8.88622e-20
-4.11036e-07 -3.78763e-07 8.26289e-20
-3.96348e-08 6.84973e-08 2.33049e-20
1.02919e-07 5.48985e-08 1.30067e-20
1.50495e-07 -5.18118e-08 4.1494e-20
6.49924e-08 -1.29832e-07 -5.67074e-20
2.57636e-07 -1.18799e-07 1.29215e-20
1.71415e-07 -8.091e-08 2.41895e-21
1.72274e-08 -1.42783e-08 8.65252e-20
2.98834e-07 2.36375e-07 -7.78984e-20
-4.326e-08 -1.25102e-07 4.99093e-20
-5.31335e-08 -4.54592e-08 -1.57263e-20
-8.68625e-09 -2.28022e-08 -1.30326e-19
1.19337e-08 8.92613e-08 1.01006e-20
-3.99698e-07 2.86565e-08 1.02742e-20
-1.46015e-07 -3.81549e-07 6.54845e-20
-6.28857e-08 8.01584e-08 1.09189e-19
1.2366e-07 1.64803e-07 2.28226e-20
3.07587e-07 -2.18161e-07 -4.26948e-20
-4.49646e-07 -2.40406e-07 -1.2472e-20
2.00037e-07 -3.25642e-07 2.30399e-21
2.60478e-07 -3.20408e-07 -4.54451e-20
-7.67202e-08 7.59958e-09 1.06511e-20
-2.28667e-07 -3.309e-07 1.49331e-19
-4.00272e-07 -6.2734e-08 -4.03753e-20
-4.77034e-08 -3.65279e-07 2.25124e-20
1.78063e-07 -3.68041e-07 -1.74851e-20
3.72363e-09 -5.0598e-08 6.16983e-20
5.29139e-08 3.52391e-07 -8.36993e-20
-1.88505e-07 -3.29766e-07 1.60392e-19
-1.76832e-08 -8.09206e-08 3.68782e-20
-2.72498e-07 2.04004e-07 9.68524e-20
-5.33893e-08 -1.75032e-08 5.30983e-20
-4.1595e-08 -2.85861e-08 -1.51258e-19
1.08764e-07 -5.57783e-08 2.08114e-20
-1.49673e-08 2.11916e-08 1.39425e-20
5.78103e-08 -7.29689e-08 2.11852e-20
-3.39075e-07 -1.50796e-07 -3.50824e-20
-4.49181e-08 -6.04967e-08 -7.57458e-20
4.69447e-08 6.41773e-08 1.8158e-20
2.45184e-07 3.38443e-07 -7.59697e-21
-8.67925e-08 -4.00234e-08 -2.2709e-21
-3.7718e-07 -8.48628e-09 -6.2557e-20
-4.83502e-08 -4.48409e-08 -5.24892e-20
-2.75212e-09 -6.49433e-08 5.04892e-20
4.73609e-08 2.38876e-08 1.04462e-20
-5.46204e-08 5.38394e-08 -5.27393e-20
-9.12226e-09 -9.56008e-08 3.72407e-20
-5.03498e-07 1.24024e-07 -7.86207e-21
2.7601e-07 2.35462e-07 -2.79505e-20
3.68798e-08 3.83485e-07 -1.13663e-19
-2.22373e-08 7.64539e-09 4.20893e-20
-7.41861e-08 2.30525e-09 -3.33005e-20
3.4059e-08 6.50261e-08 1.53244e-20
-2.69626e-08 -6.62046e-09 -1.0394e-20
3.19032e-09 -2.29866e-08 1.35561e-20
-1.48352e-08 1.01194e-07 -4.7383e-20
1.64398e-08 1.73217e-08 -5.3338e-21
-1.87388e-07 4.14224e-08 4.92353e-20
-1.90041e-07 2.07357e-07 5.31359e-20
-2.05185e-08 1.90401e-08 4.80734e-20
-3.43803e-07 2.0749e-07 3.28247e-20
-8.82732e-09 2.92998e-08 -5.56315e-23
9.27949e-08 -3.32414e-08 -3.66896e-20
4.3097e-07 -3.96496e-08 -1.7682e-20
-5.40286e-08 3.41868e-08 7.70967e-20
2.18494e-08 1.0073e-08 -2.66033e-21
5.62343e-08 -3.519e-08 6.91192e-20
-9.64726e-08 3.21544e-08 8.43204e-20
-7.02083e-08 1.84059e-08 1.09963e-19
2.46893e-08 -7.21209e-09 5.58096e-20
2.28324e-07 -1.38857e-07 3.31127e-20
-8.98619e-08 5.72962e-08 4.48974e-20
-2.68426e-07 -5.5975e-08 9.14892e-20
-5.7054e-08 -3.00399e-08 -1.00308e-19
2.18243e-08 -1.44885e-08 2.1391e-20
2.41756e-08 1.69844e-08 -6.82807e-20
-6.10181e-09 2.74848e-08 2.07657e-20
-2.47606e-09 -3.10106e-08 -8.58485e-20
-2.51645e-08 1.28636e-08 3.98102e-20
-2.81632e-08 -1.44284e-08 2.86716e-21
7.05525e-08 -2.66651e-08 3.12129e-20
-2.5817e-08 -7.10035e-09 -3.94357e-20
-2.57622e-08 6.83922e-09 -3.96237e-20
-6.34974e-09 2.55956e-08 -5.71956e-21
-6.89354e-09 -2.61566e-08 -1.26293e-20
1.70241e-08 -1.90619e-08 5.3531e-20
1.63669e-08 1.82436e-08 -2.76097e-21
9.87676e-09 2.72482e-07 -1.07519e-20
5.28712e-08 -4.36128e-08 2.10268e-20
1.23397e-08 -2.32714e-08 -3.38025e-20
-2.05498e-07 7.59557e-09 -2.34567e-21
1.95136e-08 -1.8526e-08 3.45457e-20
1.8219e-08 1.88142e-08 -9.60313e-20
2.79514e-08 -6.08172e-10 -6.25901e-20
9.43295e-08 2.67016e-07 1.25926e-20
-1.41422e-08 -2.31277e-08 -4.93264e-20
3.058e-08 -6.99915e-08 3.15494e-20
-2.29324e-07 -1.26879e-07 -1.25073e-19
-5.03969e-08 -3.27148e-08 -6.062e-20
-2.3016e-07 1.36506e-07 -1.27172e-20
2.04129e-08 -2.09295e-08 5.28335e-20
-9.78349e-09 2.17453e-08 3.9105e-20
-5.38257e-09 -2.63858e-07 -2.41082e-21
-8.63835e-08 -2.61331e-07 -2.53878e-21
3.96045e-07 3.7694e-07 2.50588e-20
4.23624e-07 -2.40563e-08 -4.62612e-21
-3.00531e-08 6.54509e-09 -6.56693e-20
-2.83319e-07 -5.00665e-07 1.09598e-19
6.75586e-08 1.15836e-07 6.45893e-20
-2.71587e-07 3.19872e-08 7.80286e-21
1.94976e-07 5.45207e-08 4.88149e-20
-2.66425e-08 -1.07764e-10 -1.77604e-20
5.78362e-10 -2.76932e-08 4.49892e-20
-2.42034e-09 -1.89449e-08 8.96735e-20
-2.36176e-08 -1.40513e-08 3.6921e-20
-5.87437e-07 -2.2261e-08 -4.70351e-20
1.84635e-07 -2.08822e-07 -1.77004e-20
1.25559e-08 2.43546e-08 1.56432e-20
6.41851e-09 -1.16596e-07 1.84346e-20
-1.10131e-07 2.60814e-07 4.0982e-20
2.25665e-09 2.93025e-08 -6.05128e-20
1.9702e-07 -1.4098e-07 2.34541e-20
-1.73336e-08 -7.57869e-09 -1.2745e-19
-1.67536e-07 -2.17749e-07 -7.50195e-21
2.30866e-08 1.17497e-08 -9.98932e-20
5.46361e-08 5.28176e-08 -3.977e-20
-3.88711e-08 -6.05529e-08 -9.35283e-20
2.39209e-08 -7.73333e-09 -2.33278e-20
8.09585e-08 -5.65179e-08 -1.31651e-20
-4.8091e-09 4.51447e-08 8.55951e-20
6.65995e-08 -1.12249e-07 -9.34611e-20
6.08111e-07 3.06403e-08 1.24285e-20
-5.15179e-07 1.36306e-07 6.15913e-20
4.31484e-08 3.00677e-08 -5.88705e-20
-6.38292e-08 -1.53675e-07 -6.48405e-20
-9.70269e-08 -6.32973e-08 -1.04254e-20
3.15797e-07 -3.17392e-09 -4.10547e-20
2.70044e-09 -6.02629e-08 7.466e-20
-7.89274e-08 -2.78695e-08 -3.33575e-20
1.07624e-07 -2.57138e-07 -8.33378e-20
8.58054e-09 1.03591e-07 4.94928e-21
8.83316e-08 2.73929e-07 -1.00234e-19
1.06018e-07 -5.58697e-08 3.6396e-20
-1.93381e-07 2.05835e-07 -2.82711e-20
1.7782e-07 2.19729e-07 -1.51488e-20
-1.11878e-08 5.00249e-09 3.00157e-20
1.84014e-09 4.77381e-08 1.58739e-20
3.60429e-09 -2.16627e-08 2.17538e-20
-1.71479e-08 -1.42265e-08 2.68653e-21
-5.9061e-08 4.68283e-08 -2.76781e-21
-2.70942e-07 -6.41945e-08 7.54529e-21
9.48037e-10 3.04569e-08 5.17737e-21
-7.08654e-08 2.11561e-08 3.43296e-20
1.91974e-07 -2.7832e-08 -7.91955e-21
-8.20906e-08 -2.65834e-07 -1.26639e-20
-1.61683e-07 2.57492e-07 3.81398e-20
-4.56595e-08 2.11039e-08 1.17197e-19
-2.16692e-07 -1.53325e-07 -2.1285e-21
4.90559e-08 -2.30088e-08 6.60928e-20
-2.93815e-07 -1.4387e-08 3.55646e-20
1.43829e-07 -5.07521e-07 1.03635e-19
1.96522e-07 -2.06369e-07 1.81361e-20
3.00487e-07 5.32761e-07 -3.4893e-20
-2.81457e-09 6.44023e-08 -7.43423e-20
2.57948e-08 -2.67668e-07 6.65757e-20
-1.04552e-08 6.3325e-09 1.20009e-19
-1.39308e-07 -2.59947e-07 -5.08493e-21
4.67476e-08 -4.00067e-08 8.03137e-21
-2.68755e-08 2.70757e-07 2.78306e-20
6.52543e-08 -1.91568e-08 2.36236e-20
1.4848e-07 2.64606e-07 3.30581e-20
1.48718e-07 -3.47266e-09 -1.2986e-20
2.71423e-07 -8.00853e-07 8.38387e-20
-5.75161e-08 -1.07078e-07 -4.12311e-20
-2.39865e-07 1.04515e-07 5.89912e-20
-3.36141e-08 1.65183e-08 2.39846e-20
2.27709e-07 1.52494e-07 -3.82545e-20
1.62309e-07 -8.96076e-08 9.28318e-20
8.58011e-08 3.76971e-08 -6.06313e-20
-1.75485e-08 1.48277e-08 -3.63623e-20
1.62795e-07 -2.51494e-07 -1.38024e-19
-1.73558e-07 -2.16582e-07 -7.63959e-20
2.23932e-07 8.8329e-08 -2.6525e-21
5.69706e-08 -3.52138e-08 3.42796e-20
1.04688e-07 -2.60196e-07 -5.35361e-20
1.23029e-07 -2.33231e-08 2.06117e-20
-1.19389e-07 -4.76324e-08 -1.11772e-19
-5.19166e-09 -4.84655e-08 1.63797e-20
-2.73651e-07 3.80005e-08 -4.77613e-21
2.87515e-08 2.40061e-07 3.2975e-20
1.87212e-07 4.36866e-08 5.00151e-21
-2.12658e-07 -9.51845e-08 -4.89927e-20
-1.04567e-07 2.68124e-07 2.33791e-20
-2.39005e-08 -2.33884e-07 -6.1414e-20
6.18384e-08 3.01809e-08 -2.11998e-20
-4.01344e-08 1.13119e-07 2.34515e-20
-1.91234e-07 1.37155e-07 2.09489e-20
2.45596e-07 1.23878e-07 8.65984e-20
-1.11813e-07 -3.51268e-08 -3.64086e-20
-2.71121e-08 -1.15143e-07 1.78356e-19
1.87681e-07 2.18163e-07 -6.65112e-20
-4.41262e-08 -2.00161e-08 -1.89365e-19
6.17099e-07 -4.43724e-07 -5.07876e-20
1.30695e-07 -9.14381e-08 1.04846e-20
1.06722e-07 5.22988e-07 -2.26937e-20
1.3781e-07 -1.32487e-07 5.196e-20
-2.97921e-07 1.13457e-06 1.38735e-20
-2.99647e-07 -1.12351e-06 -3.21426e-20
7.36203e-07 9.67703e-07 -6.00746e-20
7.27071e-07 -9.67443e-07 -4.16443e-20
1.20512e-06 -4.69868e-10 -5.5111e-20
-1.03886e-06 4.17953e-07 -2.4797e-20
-1.02164e-06 -4.22498e-07 2.32511e-20
4.96902e-08 2.69569e-08 -1.31577e-20
3.1885e-08 1.54818e-08 -2.70129e-20
9.26092e-08 1.24721e-08 -2.5687e-20
1.63495e-07 8.73769e-08 5.40211e-21
4.84986e-08 1.93185e-07 6.39119e-20
-1.75277e-07 -1.50588e-07 -6.38275e-20
8.82729e-08 -8.13716e-08 6.28428e-20
1.88333e-07 1.51145e-07 -3.58335e-20
-4.35539e-08 2.37772e-07 6.40737e-20
3.09251e-08 -1.51895e-08 -6.16232e-20
4.43267e-08 -2.28178e-07 -3.58704e-20
5.79229e-08 3.9055e-08 -5.30284e-20
3.3968e-07 1.18994e-07 -5.10237e-20
7.6184e-09 2.44562e-08 3.93585e-20
1.3129e-07 4.29721e-08 1.04778e-20
-1.6249e-07 8.98832e-08 -2.84529e-20
-2.22469e-07 7.69619e-08 2.07259e-20
4.4053e-08 -3.01807e-08 -1.59795e-20
-1.42041e-07 -6.57297e-08 -5.18187e-20
-1.56064e-07 -9.24396e-08 -1.00684e-19
-1.36795e-08 -1.56668e-07 -1.26462e-20
6.17253e-10 -1.79934e-07 4.43902e-20
-1.98105e-07 -8.56369e-09 6.41694e-20
2.94025e-07 -4.56518e-08 -2.26302e-20
1.58627e-07 9.77611e-08 -5.93584e-20
-1.31266e-07 8.95458e-08 5.17971e-20
-5.91907e-08 2.89763e-08 6.38816e-20
1.48054e-07 -1.32661e-07 4.14711e-20
-1.11239e-07 1.73203e-07 2.06577e-20
-1.37028e-07 -1.44344e-07 -6.64989e-20
-1.29857e-08 1.88665e-07 2.54665e-20
-2.82263e-08 1.59236e-07 5.93979e-20
4.65308e-09 -1.15605e-07 8.39512e-20
5.96388e-08 -1.92757e-07 -9.24556e-20
-9.74829e-08 -6.25595e-08 -9.92125e-20
1.35057e-07 -3.85166e-08 1.28617e-20
3.30824e-10 1.88432e-07 4.10007e-20
-4.07576e-09 1.20402e-07 -5.26366e-20
-3.02583e-08 1.35433e-07 5.20256e-20
2.21653e-07 -5.45486e-08 -2.8157e-20
-4.65563e-08 4.44469e-08 -5.76472e-20
5.02394e-08 1.88585e-07 2.81609e-20
-3.03656e-08 1.91658e-08 6.16985e-20
1.11938e-07 5.19054e-07 1.71426e-20
-5.49157e-08 2.96438e-08 -5.52495e-20
5.82651e-08 -3.03293e-08 3.6736e-20
1.67583e-08 1.6025e-07 -2.91127e-20
-1.87935e-07 4.46418e-08 -3.58603e-20
-5.77664e-09 -8.14718e-08 8.15641e-20
7.7528e-09 -7.40502e-07 1.94895e-20
2.24956e-08 1.35852e-07 7.35322e-21
-1.40399e-07 1.33566e-07 -4.17216e-20
2.18015e-07 8.1085e-07 -7.57402e-21
1.04736e-08 6.89682e-09 2.7173e-20
9.04916e-09 -6.57769e-09 -2.22294e-20
1.05701e-07 -8.24273e-08 -3.12042e-20
-1.50034e-07 1.34335e-07 -4.90466e-20
-1.80088e-07 -5.3198e-08 -8.53469e-20
-1.8506e-07 -6.07801e-08 -2.32546e-20
-3.68391e-09 2.26697e-09 -3.31375e-20
-2.54406e-09 -1.22395e-09 1.63447e-20
8.64446e-08 1.75653e-08 -4.67398e-20
2.74351e-08 1.26166e-07 5.96518e-20
-3.17081e-09 1.25449e-07 7.49956e-21
-6.2023e-07 -4.50534e-07 6.9915e-20
1.10099e-07 -1.73169e-07 -9.77401e-20
5.56948e-08 2.00626e-08 -2.92139e-20
-2.04255e-07 -2.19732e-08 8.78408e-20
-1.2915e-07 1.70623e-07 -3.35004e-20
-1.66731e-07 7.83986e-08 -2.29872e-21
6.08919e-07 4.37519e-07 -7.20724e-21
6.02657e-08 3.96138e-08 1.57846e-20
-5.92724e-08 1.93453e-07 7.47914e-20
-1.16848e-07 -1.00084e-07 1.31276e-20
2.90668e-08 -1.52403e-07 -3.35778e-20
-9.45493e-08 -1.79891e-07 4.94736e-20
-1.5151e-07 -1.0385e-07 -2.85191e-20
1.03841e-07 -1.84159e-07 -6.19857e-20
1.24563e-07 -1.71182e-07 -5.67393e-20
-3.9478e-08 -7.72726e-07 3.22658e-20
3.1771e-07 -5.08188e-07 2.28163e-20
1.51785e-08 -1.85007e-07 -9.79716e-20
1.30467e-07 9.932e-08 -1.03893e-20
-1.17194e-07 -1.42258e-07 -1.28556e-20
-1.0164e-07 1.8949e-07 -5.13192e-21
-6.24446e-08 1.85723e-07 -1.27006e-20
1.36036e-07 1.40865e-07 -7.26429e-20
6.66917e-08 -1.73715e-07 -3.63349e-20
-1.72427e-07 -4.91638e-07 9.62315e-20
3.88647e-09 5.97457e-08 5.29809e-20
1.37721e-07 1.41714e-07 -5.92104e-20
-7.42453e-08 -3.65616e-08 -8.1005e-20
-6.16929e-08 3.36793e-08 4.26252e-20
5.52058e-07 -2.41847e-07 1.20897e-20
6.85693e-08 -1.13324e-07 -8.82322e-20
-6.50821e-08 -1.11339e-07 2.48062e-21
2.47038e-08 -2.13602e-09 -6.66373e-20
2.13255e-09 -9.36303e-09 5.75872e-20
-6.92654e-09 -6.85155e-09 -1.66175e-19
3.04165e-08 1.99395e-08 -3.18414e-20
-9.53451e-08 -1.79985e-07 -7.45133e-21
1.4672e-07 5.88416e-08 -3.38991e-20
-3.57012e-07 -3.92489e-07 1.18605e-19
1.34829e-09 1.15085e-08 4.86962e-20
1.33213e-09 2.05529e-09 3.61282e-20
2.57148e-09 -3.38609e-10 -1.3529e-19
3.42587e-07 -6.7653e-07 -5.52482e-20
-1.42416e-08 1.67741e-08 8.09822e-20
-3.26667e-09 2.03213e-08 8.35261e-20
-1.47524e-07 5.24427e-08 2.60544e-20
-5.09757e-09 5.99262e-08 2.11856e-20
-3.24114e-08 9.61009e-08 1.35401e-19
6.68135e-08 2.84955e-09 -2.7456e-21
1.50687e-08 5.77728e-08 -1.33405e-20
-3.94976e-09 7.98878e-08 -7.66408e-20
1.1451e-07 6.22994e-08 -4.71498e-20
8.15757e-09 7.37045e-07 -1.39334e-22
-1.06539e-07 1.00809e-07 -3.12362e-20
7.98856e-08 -5.37114e-08 2.61437e-21
4.61201e-08 -4.21096e-08 1.33211e-20
-7.55956e-07 -1.03795e-07 -2.19256e-20
-2.15493e-08 8.54172e-09 4.81858e-20
-5.50453e-07 -6.51136e-07 2.03294e-20
1.00038e-08 2.67882e-08 -5.29864e-20
9.65557e-08 1.87756e-08 -3.91726e-20
2.87457e-07 -3.73071e-08 -1.26894e-20
-6.5714e-08 -1.07983e-07 -5.0835e-21
1.25644e-07 3.60374e-08 -4.94604e-20
6.54769e-10 -3.1978e-08 5.9381e-20
-7.08625e-08 8.19856e-08 -3.41313e-20
-2.71003e-08 -1.72407e-08 -1.2807e-19
-6.38698e-08 1.29759e-07 -2.88612e-20
1.15548e-08 8.19014e-08 5.52638e-20
1.87795e-08 1.3765e-08 -5.43513e-21
1.86372e-08 -1.32234e-08 -2.19638e-20
-5.12472e-07 -1.39607e-07 -3.20444e-20
5.64589e-08 2.10684e-08 1.01812e-20
-6.79723e-08 1.31559e-06 9.54018e-21
-4.72854e-09 -1.35164e-06 1.19024e-22
6.65297e-07 1.1389e-06 2.62708e-20
-6.90532e-08 5.47801e-08 2.49332e-21
-3.52532e-07 7.09466e-07 1.45493e-20
6.69119e-07 -1.09926e-06 -3.6072e-20
-1.1065e-07 -1.79088e-07 5.32145e-21
1.01608e-06 8.90322e-07 -9.63632e-21
1.19477e-08 -2.11908e-08 -7.44786e-20
-1.24491e-08 -2.14723e-08 -1.23463e-19
1.0651e-06 -8.705e-07 -1.24742e-19
-6.52705e-08 1.28361e-07 6.45795e-20
-6.69054e-07 -4.26101e-07 -5.61152e-20
-5.64188e-07 -1.17592e-06 1.71244e-20
-3.15999e-07 -7.26965e-07 6.16757e-20
-5.79999e-07 1.1955e-06 -3.11956e-20
-1.37066e-07 8.10151e-07 -1.96424e-20
-9.66127e-10 2.83744e-08 3.48592e-20
-3.51928e-07 4.53098e-07 6.65088e-20
-3.36929e-07 -6.89593e-07 3.88206e-20
1.31018e-06 2.28632e-07 -1.1606e-20
-1.02457e-07 8.71048e-08 -2.88906e-20
-2.40771e-09 5.7551e-08 -2.13091e-20
-6.33755e-07 4.58795e-07 2.71892e-20
-1.13626e-07 6.06445e-08 -2.10243e-20
1.29727e-06 -2.03358e-07 -6.69575e-20
-8.67239e-08 5.82158e-08 8.02336e-21
6.31726e-08 -1.30648e-07 -1.42274e-19
-1.00954e-06 -7.66757e-07 1.96054e-20
-3.40411e-07 7.2938e-07 -1.72061e-20
-1.034e-06 7.61125e-07 -4.8183e-21
3.02123e-07 6.74008e-07 -5.06043e-20
-1.11233e-07 8.8422e-08 -4.96132e-20
-3.08697e-08 1.74838e-08 3.18188e-20
-1.69128e-09 -2.68678e-09 4.61043e-20
4.25731e-10 -2.31986e-09 -3.61188e-20
8.45627e-09 8.87965e-08 1.81602e-20
-2.4803e-09 2.69105e-09 2.45912e-20
1.3097e-09 3.33115e-09 -8.83151e-20
2.23891e-09 -9.61239e-10 5.2518e-20
-1.3234e-09 1.05199e-08 5.70911e-20
-2.32474e-07 5.07206e-07 1.28294e-23
-1.74883e-08 1.25536e-08 3.47719e-20
3.01409e-08 -1.89882e-08 2.41522e-20
2.95443e-08 -1.71144e-08 5.55948e-21
8.51069e-08 3.32139e-08 -4.17281e-20
-8.01759e-10 -9.00372e-09 7.11105e-20
-8.03938e-09 -4.07481e-09 -1.6179e-19
2.95269e-08 1.72243e-08 3.50968e-20
7.51287e-07 -1.44794e-07 4.58117e-20
-9.73444e-08 -1.2408e-07 -5.44751e-20
-6.57763e-07 4.58576e-07 -9.42669e-21
-5.88925e-07 6.717e-07 4.9283e-20
7.93847e-07 -2.86688e-07 2.29662e-21
-3.81077e-09 -1.10518e-08 3.80083e-20
-4.18476e-09 1.13525e-08 -2.26587e-20
-1.24773e-08 2.14135e-09 -2.45957e-20
-8.18055e-09 8.34576e-09 3.30801e-20
-1.13107e-08 -2.39525e-09 -1.03342e-19
2.09573e-09 2.65743e-09 -9.34167e-20
1.21406e-08 -2.98615e-09 -2.70415e-20
5.11986e-09 -3.59939e-09 -4.66408e-20
-3.5808e-09 -2.58433e-09 -7.99934e-20
7.76348e-09 -7.98464e-09 -8.69824e-20
7.80654e-09 8.22237e-09 -4.35312e-20
-3.60264e-09 2.27187e-09 -2.7235e-21
3.95148e-09 -7.89141e-10 1.91216e-20
6.55255e-09 3.6293e-09 4.39617e-20
1.41882e-08 5.06277e-09 -4.06376e-20
SCALARS rr_necrosis float
LOOKUP_TABLE default
0
0
0
0
0
0
0
0
0
0
0
0
0
0
0
0
0
0
0
0
0
0
0
0
0
0
0
0
0
0
0
0
0
0
0
0
0
0
0
0
0
0
0
0
0
0
0
0
0
0
0
0
0
0
0
0
0
0
0
0
0
0
0
0
0
0
0
0
0
0
0
0
0
0
0
0
0
0
0
0
0
0
0
0
0
0
0
0
0
0
0
0
0
0
0
0
0
0
0
0
0
0
0
0
0
0
0
0
0
0
0
0
0
0
0
0
0
0
0
0
0
0
0
0
0
0
0
0
0
0
0
0
0
0
0
0
0
0
0
0
0
0
0
0
0
0
0
0
0
0
0
0
0
0
0
0
0
0
0
0
0
0
0
0
0
0
0
0
0
0
0
0
0
0
0
0
0
0
0
0
0
0
0
0
0
0
0
0
0
0
0
0
0
0
0
0
0
0
0
0
0
0
0
0
0
0
0
0
0
0
0
0
0
0
0
0
0
0
0
0
0
0
0
0
0
0
0
0
0
0
0
0
0
0
0
0
0
0
0
0
0
0
0
0
0
0
0
0
0
0
0
0
0
0
0
0
0
0
0
0
0
0
0
0
0
0
0
0
0
0
0
0
0
0
0
0
0
0
0
0
0
0
0
0
0
0
0
0
0
0
0
0
0
0
0
0
0
0
0
0
0
0
0
0
0
0
0
0
0
0
0
0
0
0
0
0
0
0
0
0
0
0
0
0
0
0
0
0
0
0
0
0
0
0
0
0
0
0
0
0
0
0
0
0
0
0
0
0
0
0
0
0
0
0
0
0
0
0
0
0
0
0
0
0
0
0
0
0
0
0
0
0
0
0
0
0
0
0
0
0
0
0
0
0
0
0
0
0
0
0
0
0
0
0
0
0
0
0
0
0
0
0
0
0
0
0
0
0
0
0
0
0
0
0
0
0
0
0
0
0
0
0
0
0
0
0
0
0
0
0
0
0
0
0
0
0
0
0
0
0
0
0
0
0
0
0
0
0
0
0
0
0
0
0
0
0
0
0
0
0
0
0
0
0
0
0
0
0
0
0
0
0
0
0
0
0
0
0
0
0
0
0
0
0
0
0
0
0
0
0
0
0
0
0
0
0
0
0
0
0
0
0
0
0
0
0
0
0
0
0
0
0
0
0
0
0
0
0
0
0
0
0
0
0
0
0
0
0
0
0
0
0
0
0
0
0
0
0
0
0
0
0
0
0
0
0
0
0
0
0
0
0
0
0
0
0
0
0
0
0
0
0
0
SCALARS rr_protein float
LOOKUP_TABLE default
1
1
1
1
1
1
1
1
1
1
1
1
1
1
1
1
1
1
1
1
1
1
1
1
1
1
1
1
1
1
1
1
1
1
1
1
1
1
1
1
1
1
1
1
1
1
1
1
1
1
1
1
1
1
1
1
1
1
1
1
1
1
1
1
1
1
1
1
1
1
1
1
1
1
1
1
1
1
1
1
1
1
1
1
1
1
1
1
1
1
1
1
1
1
1
1
1
1
1
1
1
1
1
1
1
1
1
1
1
1
1
1
1
1
1
1
1
1
1
1
1
1
1
1
1
1
1
1
1
1
1
1
1
1
1
1
1
1
1
1
1
1
1
1
1
1
1
1
1
1
1
1
1
1
1
1
1
1
1
1
1
1
1
1
1
1
1
1
1
1
1
1
1
1
1
1
1
1
1
1
1
1
1
1
1
1
1
1
1
1
1
1
1
1
1
1
1
1
1
1
1
1
1
1
1
1
1
1
1
1
1
1
1
1
1
1
1
1
1
1
1
1
1
1
1
1
1
1
1
1
1
1
1
1
1
1
1
1
1
1
1
1
1
1
1
1
1
1
1
1
1
1
1
1
1
1
1
1
1
1
1
1
1
1
1
1
1
1
1
1
1
1
1
1
1
1
1
1
1
1
1
1
1
1
1
1
1
1
1
1
1
1
1
1
1
1
1
1
1
1
1
1
1
1
1
1
1
1
1
1
1
1
1
1
1
1
1
1
1
1
1
1
1
1
1
1
1
1
1
1
1
1
1
1
1
1
1
1
1
1
1
1
1
1
1
1
1
1
1
1
1
1
1
1
1
1
1
1
1
1
1
1
1
1
1
1
1
1
1
1
1
1
1
1
1
1
1
1
1
1
1
1
1
1
1
1
1
1
1
1
1
1
1
1
1
1
1
1
1
1
1
1
1
1
1
1
1
1
1
1
1
1
1
1
1
1
1
1
1
1
1
1
1
1
1
1
1
1
1
1
1
1
1
1
1
1
1
1
1
1
1
1
1
1
1
1
1
1
1
1
1
1
1
1
1
1
1
1
1
1
1
1
1
1
1
1
1
1
1
1
1
1
1
1
1
1
1
1
1
1
1
1
1
1
1
1
1
1
1
1
1
1
1
1
1
1
1
1
1
1
1
1
1
1
1
1
1
1
1
1
1
1
1
1
1
1
1
1
1
1
1
1
1
1
1
1
1
1
1
1
1
1
1
1
1
1
1
1
1
1
1
1
1
1
1
1
1
1
1
1
1
1
1
1
1
1
1
1
1
1
1
1
1
SCALARS rr_(S_ext) float
LOOKUP_TABLE default
0.983122
0.983068
0.983077
0.983067
0.983072
0.983077
0.983121
0.983076
0.983082
0.983072
0.983091
0.983076
0.983077
0.983073
0.983067
0.983077
0.983069
0.983072
0.98308
0.983076
0.983081
0.983062
0.983077
0.983077
0.983077
0.983071
0.983101
0.983076
0.98309
0.983064
0.983077
0.983089
0.983104
0.983065
0.983068
0.983065
0.983062
0.983069
0.983077
0.983104
0.98309
0.983061
0.983061
0.983077
0.983092
0.983091
0.983081
0.983082
0.983077
0.98309
0.98309
0.983089
0.983068
0.983091
0.983069
0.983102
0.983068
0.98309
0.983068
0.983075
0.983067
0.983071
0.983106
0.983072
0.983071
0.983074
0.983067
0.983072
0.983077
0.983068
0.983068
0.983068
0.983091
0.983074
0.983078
0.983101
0.983072
0.983074
0.983071
0.983085
0.983097
0.983072
0.983069
0.983095
0.983093
0.983097
0.983076
0.983075
0.983092
0.983064
0.983089
0.983064
0.98307
0.983074
0.98309
0.983089
0.983098
0.983071
0.983072
0.983077
0.983086
0.983094
0.983094
0.98307
0.983072
0.983071
0.983069
0.983078
0.983095
0.983064
0.983075
0.983093
0.983093
0.983071
0.983071
0.983091
0.983071
0.9831
0.983071
0.98309
0.983081
0.983066
0.983067
0.983071
0.983065
0.983067
0.98307
0.983071
0.983099
0.983089
0.983066
0.983067
0.983068
0.983067
0.983094
0.983067
0.983101
0.983077
0.983068
0.983067
0.983093
0.983076
0.983083
0.983071
0.9831
0.98307
0.983076
0.983079
0.983077
0.983085
0.98308
0.983067
0.983088
0.983077
0.983071
0.983067
0.983073
0.983094
0.983094
0.983073
0.983081
0.983088
0.983095
0.983089
0.983092
0.983071
0.983094
0.983095
0.98309
0.983093
0.983069
0.98309
0.98309
0.983073
0.98309
0.983069
0.983069
0.983076
0.98307
0.983074
0.983091
0.983071
0.983071
0.983092
0.983074
0.98309
0.983071
0.983072
0.983071
0.983071
0.983074
0.983098
0.983089
0.983089
0.983067
0.983072
0.983071
0.983068
0.983067
0.983074
0.983067
0.983081
0.983085
0.983068
0.983092
0.983068
0.983075
0.983092
0.983071
0.983067
0.983073
0.983075
0.983072
0.983069
0.983084
0.983075
0.983086
0.983072
0.983065
0.983064
0.983063
0.983064
0.983064
0.983064
0.983072
0.983067
0.983066
0.983066
0.983067
0.98307
0.983069
0.983085
0.983071
0.983063
0.983083
0.983068
0.983068
0.983064
0.983085
0.983063
0.983071
0.983086
0.98307
0.983086
0.983069
0.983062
0.983085
0.983085
0.983097
0.98309
0.983069
0.983101
0.983076
0.983086
0.98308
0.983063
0.983064
0.983063
0.983064
0.983104
0.983085
0.983063
0.983075
0.983085
0.983064
0.983084
0.983063
0.983085
0.983065
0.983072
0.983071
0.983068
0.983075
0.98307
0.983075
0.983096
0.983097
0.983072
0.983079
0.983075
0.983088
0.98307
0.983073
0.983085
0.983074
0.983086
0.983076
0.983087
0.983084
0.983063
0.983069
0.983065
0.983065
0.983072
0.983087
0.983065
0.983072
0.983081
0.983087
0.983088
0.98307
0.983085
0.983072
0.983088
0.983092
0.983086
0.9831
0.983071
0.983085
0.983062
0.983088
0.983071
0.983085
0.983072
0.983087
0.983078
0.983111
0.983075
0.983086
0.983068
0.983084
0.98308
0.983074
0.983067
0.983087
0.983087
0.983083
0.983073
0.983086
0.983076
0.983077
0.983071
0.983087
0.983084
0.983081
0.983084
0.983087
0.983084
0.983072
0.983075
0.983084
0.983085
0.983076
0.983076
0.983086
0.983071
0.983093
0.983079
0.983097
0.983081
0.983077
0.983077
0.983076
0.983075
0.983073
0.983082
0.983082
0.983071
0.983068
0.983073
0.98308
0.98308
0.983084
0.983076
0.983083
0.983084
0.983068
0.983084
0.983073
0.983089
0.983066
0.983077
0.983081
0.983084
0.983072
0.983079
0.983081
0.983079
0.98308
0.983081
0.983085
0.98308
0.983079
0.983072
0.983081
0.983081
0.983081
0.98308
0.983079
0.983075
0.983081
0.983076
0.983077
0.98308
0.983076
0.983077
0.983082
0.98307
0.983081
0.983067
0.983092
0.983072
0.983072
0.983079
0.983082
0.983073
0.983094
0.983076
0.983081
0.98311
0.983066
0.983067
0.983077
0.983081
0.983081
0.983081
0.983067
0.983066
0.983073
0.983076
0.983076
0.983099
0.983081
0.983071
0.983083
0.983083
0.983081
0.983091
0.983072
0.983081
0.983079
0.983078
0.983082
0.983081
0.983082
0.983083
0.983103
0.9831
0.98308
0.983079
0.983081
0.983082
0.983081
0.983081
0.983081
0.983094
0.98307
0.98308
0.983073
0.983072
0.983094
0.983076
0.983076
0.983071
0.983059
0.983059
0.983068
0.983081
0.983079
0.983094
0.983059
0.983063
0.983063
0.983092
0.983068
0.983063
0.983079
0.983071
0.983074
0.98307
0.983069
0.983073
0.983077
0.983093
0.983078
0.983075
0.983071
0.983102
0.983064
0.983114
0.983069
0.983074
0.983086
0.983076
0.983077
0.983066
0.983075
0.983066
0.983077
0.983073
0.983065
0.983066
0.983096
0.98307
0.983121
0.983124
0.983118
0.983073
0.983098
0.983116
0.983083
0.983118
0.983071
0.983071
0.983121
0.983077
0.983107
0.983125
0.983103
0.983124
0.983104
0.983068
0.983095
0.983098
0.983119
0.983077
0.983071
0.983104
0.983077
0.983114
0.983074
0.983078
0.983124
0.983103
0.983122
0.983091
0.983077
0.983069
0.98306
0.98306
0.983073
0.98306
0.98306
0.98306
0.983061
0.983095
0.983065
0.98307
0.98307
0.983074
0.983062
0.983062
0.983071
0.98309
0.983078
0.983099
0.983116
0.983109
0.983059
0.983059
0.98306
0.98306
0.983059
0.983063
0.983064
0.983063
0.983064
0.983062
0.983062
0.983065
0.983062
0.983062
0.983062
SCALARS rr_(P_ext) float
LOOKUP_TABLE default
0.0210476
0.0209482
0.020957
0.0209499
0.0209232
0.0209572
0.0210479
0.0209512
0.0209653
0.0209486
0.0210411
0.0209512
0.0209533
0.0209473
0.0209323
0.0209556
0.0209437
0.0209523
0.0209697
0.0209595
0.0209608
0.020889
0.0209607
0.0209593
0.0209596
0.0209507
0.0210272
0.0209559
0.0209969
0.0209091
0.0209536
0.0209966
0.0210287
0.020915
0.0209121
0.0209152
0.020908
0.0209134
0.0209537
0.0210284
0.0209971
0.0209076
0.0209077
0.0209535
0.0210191
0.0209955
0.0209677
0.0209637
0.0209568
0.021003
0.0209994
0.0209867
0.0209246
0.0209865
0.0209254
0.0210162
0.0209119
0.0209865
0.020912
0.020959
0.0209441
0.0209359
0.0210209
0.0209364
0.0209357
0.0209438
0.0209438
0.0209506
0.0209601
0.0209479
0.0209248
0.0209248
0.0209971
0.0209407
0.0209567
0.0210329
0.0209306
0.0209439
0.0209507
0.0209845
0.021005
0.0209201
0.0209399
0.0210078
0.020994
0.021018
0.0209559
0.0209423
0.021019
0.0208938
0.0209866
0.020894
0.02093
0.0209449
0.0209857
0.0210004
0.0210049
0.0209488
0.0209307
0.0209541
0.0209754
0.0209916
0.021008
0.0209514
0.0209496
0.0209494
0.0209387
0.0209549
0.0210082
0.0209467
0.0209589
0.0210159
0.0210115
0.020952
0.0209499
0.0209862
0.020912
0.0210053
0.0209123
0.0209858
0.0209719
0.0209335
0.0209483
0.020942
0.020946
0.0209315
0.0209155
0.0209488
0.0210049
0.0209857
0.0209247
0.0209489
0.0209404
0.0209485
0.0209915
0.0209118
0.0210104
0.0209526
0.0209399
0.0209119
0.0209904
0.0209484
0.0209704
0.0209485
0.0210057
0.0209503
0.0209498
0.0209568
0.0209571
0.0209784
0.0209639
0.0209483
0.0209968
0.0209531
0.0209486
0.0209488
0.0209459
0.0209894
0.0209891
0.0209533
0.0209635
0.0209961
0.0210167
0.0209994
0.0209895
0.0209494
0.0209895
0.0209896
0.0209968
0.0209893
0.0209297
0.0209865
0.0209996
0.020945
0.0209863
0.0209391
0.0209298
0.0209513
0.0209242
0.0209493
0.0209967
0.0209489
0.020949
0.0209902
0.0209421
0.0210002
0.0209421
0.0209386
0.0209294
0.0209488
0.0209419
0.0210038
0.0209863
0.0209967
0.0209487
0.0209527
0.0209522
0.0209405
0.0209484
0.0209442
0.0209482
0.0209685
0.0209838
0.0209406
0.0209966
0.02094
0.0209439
0.0209922
0.0209347
0.020948
0.0209338
0.0209468
0.0209499
0.0209398
0.0209781
0.020946
0.0209828
0.0209387
0.0209462
0.0209462
0.0209473
0.0209469
0.0209468
0.0209469
0.0209479
0.020933
0.0209333
0.020933
0.0209329
0.0209252
0.0209251
0.0209788
0.0209476
0.0209508
0.0209642
0.0209323
0.020932
0.0209505
0.0209835
0.0209512
0.0209488
0.0209777
0.0209345
0.0209781
0.0209396
0.0209515
0.0209775
0.0209823
0.0210053
0.0210045
0.0209399
0.0210072
0.0209543
0.0209829
0.0209691
0.0209513
0.0209464
0.0209071
0.0209467
0.0210079
0.0209828
0.0209508
0.0209512
0.020984
0.0209465
0.02097
0.0209072
0.0209826
0.020946
0.0209426
0.0209522
0.0209326
0.0209425
0.0209246
0.0209533
0.0210145
0.0210181
0.0209273
0.0209606
0.0209512
0.0209781
0.0209343
0.0209451
0.0209827
0.0209448
0.0209751
0.0209494
0.020975
0.0209833
0.0208995
0.0209288
0.0209321
0.0209322
0.020948
0.0209743
0.0209161
0.020943
0.0209632
0.020974
0.0209771
0.0209274
0.0209777
0.0209299
0.0209761
0.0210189
0.0209745
0.0210062
0.0209384
0.0209777
0.0208996
0.020976
0.0209407
0.0209788
0.0209416
0.0209763
0.0209559
0.0210226
0.0209579
0.020978
0.0209278
0.0209784
0.0209631
0.0209416
0.0209479
0.0209762
0.0209744
0.0209702
0.0209386
0.0209746
0.0209512
0.0209558
0.0209248
0.0209744
0.0209707
0.0209617
0.0209697
0.0209755
0.0209694
0.0209356
0.0209515
0.0209703
0.0209781
0.0209487
0.0209485
0.0209749
0.0209249
0.0210446
0.0209562
0.0210052
0.0209613
0.0210972
0.021097
0.0210964
0.0210967
0.0210963
0.0210974
0.021097
0.020938
0.0209188
0.020953
0.0209636
0.0209692
0.0209697
0.0209494
0.0209703
0.0209708
0.0209186
0.0209697
0.020934
0.0209866
0.0209345
0.0209574
0.0209638
0.0209701
0.0209272
0.0209562
0.0209631
0.0209561
0.020963
0.0209705
0.0209848
0.0209638
0.0209571
0.0209337
0.0209683
0.0209714
0.0209687
0.0209644
0.0209574
0.0209493
0.0209688
0.0209494
0.0209582
0.0209641
0.020951
0.0209579
0.02097
0.0209417
0.0209622
0.0209197
0.0210188
0.0209381
0.0209356
0.0209573
0.0209619
0.0209441
0.0210433
0.0209573
0.0209624
0.021022
0.0209002
0.0208999
0.0209562
0.0209693
0.0209612
0.0209682
0.020885
0.020885
0.020951
0.0209509
0.0209514
0.0210436
0.0209708
0.0209403
0.0209642
0.020965
0.0209642
0.0210451
0.0209422
0.0209698
0.0209565
0.0209565
0.0209651
0.0209632
0.0209651
0.0209643
0.0210277
0.021006
0.0209633
0.0209563
0.0209621
0.0209655
0.0209627
0.0209615
0.0209621
0.0210188
0.0209323
0.0209688
0.0209443
0.0209417
0.0210194
0.0209569
0.0209577
0.0209248
0.0209008
0.0209008
0.0209288
0.020971
0.0209568
0.0210204
0.0209027
0.0208873
0.0208873
0.0210463
0.0209134
0.020909
0.0209578
0.0209304
0.0209531
0.020948
0.0209414
0.020939
0.0209512
0.0210436
0.0209554
0.0209451
0.0209405
0.0210335
0.0209122
0.0210237
0.0209408
0.0209477
0.0209767
0.0209537
0.0209516
0.0209239
0.0209503
0.020924
0.0209564
0.0209404
0.0209107
0.02091
0.0210201
0.0209467
0.0210495
0.0210476
0.0210517
0.0209423
0.0210447
0.0210537
0.0209654
0.0210506
0.0209197
0.0209198
0.0210491
0.0209616
0.0210275
0.02105
0.0210293
0.0210504
0.0210293
0.0209128
0.0210237
0.0210443
0.0210493
0.0209521
0.0209368
0.0210309
0.0209518
0.021053
0.0209487
0.0209609
0.0210511
0.0210324
0.0210526
0.0210463
0.0209582
0.0209181
0.020889
0.0208903
0.020947
0.0208893
0.0208893
0.0208898
0.0208975
0.0210218
0.0209113
0.0209281
0.020918
0.0209482
0.0208955
0.0208955
0.0209162
0.0210473
0.0209619
0.0210461
0.0210253
0.0210246
0.0209039
0.0209042
0.0209048
0.0209046
0.020904
0.0208908
0.0209046
0.0208954
0.0208888
0.0209037
0.0209036
0.0208884
0.0208905
0.0208951
0.0209054
SCALARS rr_(S) float
LOOKUP_TABLE default
0.961345
0.96124
0.961253
0.96124
0.961231
0.961253
0.961344
0.961249
0.961263
0.961244
0.961312
0.961249
0.961251
0.961244
0.961231
0.961253
0.961239
0.961246
0.961263
0.961254
0.961259
0.961205
0.961255
0.961254
0.961254
0.961244
0.961314
0.961252
0.961287
0.961216
0.961252
0.961286
0.961317
0.961221
0.961222
0.961221
0.961214
0.961223
0.961252
0.961317
0.961287
0.961213
0.961213
0.961251
0.9613
0.961287
0.961263
0.961261
0.961253
0.961291
0.961289
0.96128
0.961228
0.961282
0.961229
0.961309
0.961222
0.961281
0.961222
0.961253
0.961237
0.961236
0.961315
0.961238
0.961236
0.961243
0.961237
0.961245
0.961255
0.96124
0.961228
0.961228
0.961288
0.961242
0.961254
0.961317
0.961235
0.961243
0.961244
0.961275
0.961298
0.961229
0.961236
0.961297
0.961289
0.961305
0.961252
0.961244
0.9613
0.961209
0.961281
0.961209
0.961232
0.961244
0.961281
0.961288
0.961299
0.961243
0.961235
0.961252
0.961272
0.961288
0.961297
0.961244
0.961244
0.961244
0.961236
0.961253
0.961298
0.961236
0.961253
0.9613
0.961298
0.961245
0.961244
0.961282
0.961224
0.961301
0.961225
0.961281
0.961265
0.961231
0.961239
0.961239
0.961236
0.96123
0.961225
0.961243
0.9613
0.96128
0.961226
0.96124
0.961236
0.961239
0.961288
0.961221
0.961305
0.961251
0.961236
0.961221
0.961286
0.961248
0.961267
0.961243
0.961302
0.961244
0.961248
0.961255
0.961253
0.961273
0.96126
0.961239
0.961285
0.961251
0.961243
0.961239
0.961244
0.961287
0.961286
0.961248
0.961261
0.961285
0.961302
0.961287
0.961285
0.961244
0.961286
0.961287
0.961286
0.961285
0.961232
0.961281
0.961288
0.961243
0.961281
0.961237
0.961232
0.961249
0.96123
0.961246
0.961288
0.961243
0.961243
0.961286
0.961243
0.961289
0.961239
0.961239
0.961234
0.961243
0.961243
0.961299
0.96128
0.961286
0.961239
0.961246
0.961245
0.961236
0.961239
0.961244
0.961239
0.961263
0.961276
0.961236
0.961289
0.961236
0.961244
0.961287
0.961236
0.961239
0.961237
0.961246
0.961245
0.961236
0.961272
0.961246
0.961275
0.961239
0.961236
0.961236
0.961235
0.961236
0.961236
0.961236
0.961244
0.961231
0.961231
0.96123
0.961231
0.96123
0.961229
0.961272
0.961243
0.961237
0.961262
0.961232
0.961232
0.961237
0.961275
0.961237
0.961243
0.961272
0.961235
0.961273
0.961237
0.961236
0.961271
0.961275
0.961298
0.961291
0.961236
0.961303
0.961251
0.961275
0.961263
0.961237
0.961236
0.961215
0.961236
0.961306
0.961274
0.961237
0.961249
0.961275
0.961235
0.961267
0.961215
0.961275
0.961236
0.961241
0.961245
0.961232
0.961244
0.96123
0.96125
0.961302
0.961305
0.961233
0.961257
0.961249
0.961275
0.961235
0.961244
0.961274
0.961244
0.961272
0.961249
0.961272
0.961274
0.961211
0.961231
0.96123
0.96123
0.961244
0.961272
0.961221
0.961241
0.96126
0.961271
0.961274
0.961232
0.961272
0.961234
0.961274
0.961301
0.961271
0.961302
0.961238
0.961272
0.96121
0.961273
0.961239
0.961272
0.96124
0.961273
0.961253
0.961321
0.961252
0.961273
0.96123
0.961272
0.96126
0.961243
0.961239
0.961273
0.961272
0.961266
0.96124
0.961271
0.96125
0.961252
0.961231
0.961272
0.961267
0.96126
0.961267
0.961272
0.961266
0.961237
0.961249
0.961267
0.961272
0.961248
0.961247
0.961271
0.961231
0.961315
0.961255
0.961298
0.961259
0.961329
0.961329
0.961327
0.961327
0.961325
0.961333
0.961334
0.961238
0.961225
0.961247
0.96126
0.961263
0.961267
0.961249
0.961267
0.961267
0.961225
0.961266
0.961237
0.96128
0.961231
0.961253
0.96126
0.961267
0.961234
0.961255
0.96126
0.961254
0.961259
0.961264
0.961276
0.96126
0.961255
0.961236
0.961263
0.961265
0.961263
0.96126
0.961255
0.961248
0.961263
0.961248
0.961254
0.96126
0.961249
0.961253
0.961265
0.961239
0.96126
0.961225
0.961301
0.961238
0.961238
0.961255
0.96126
0.961242
0.961316
0.961253
0.96126
0.96132
0.961214
0.961214
0.961253
0.961264
0.961259
0.961263
0.961208
0.961206
0.961246
0.961249
0.961249
0.961321
0.961264
0.961239
0.961262
0.961263
0.96126
0.961314
0.961241
0.961264
0.961255
0.961254
0.961262
0.96126
0.961262
0.961262
0.961316
0.961301
0.96126
0.961255
0.961259
0.961263
0.96126
0.961259
0.961259
0.961302
0.961234
0.961262
0.961243
0.961241
0.961303
0.961253
0.961253
0.961231
0.961208
0.961208
0.96123
0.961265
0.961255
0.961303
0.961209
0.961204
0.961204
0.961316
0.961223
0.961215
0.961255
0.961234
0.961248
0.961242
0.961238
0.96124
0.96125
0.961315
0.961253
0.961245
0.961239
0.961318
0.961218
0.961325
0.961237
0.961246
0.961272
0.96125
0.96125
0.961226
0.961247
0.961226
0.961253
0.96124
0.961218
0.961219
0.961305
0.961241
0.961345
0.961347
0.961343
0.961242
0.961321
0.961343
0.961263
0.961343
0.961228
0.961228
0.961345
0.961255
0.96132
0.961349
0.961317
0.961349
0.961317
0.961222
0.961307
0.96132
0.961343
0.961251
0.961237
0.961319
0.96125
0.96134
0.961246
0.961256
0.961349
0.961318
0.961348
0.961315
0.961254
0.961226
0.961203
0.961203
0.961244
0.961203
0.961203
0.961204
0.961208
0.961305
0.961218
0.961232
0.961227
0.961245
0.961208
0.961208
0.961227
0.961314
0.961257
0.961323
0.961327
0.96132
0.961209
0.961209
0.96121
0.96121
0.961209
0.961206
0.961214
0.961209
0.961207
0.961212
0.961212
0.961207
0.961205
0.961208
0.961212
SCALARS rr_(P) float
LOOKUP_TABLE default
0.0240362
0.0239771
0.0239824
0.0239781
0.0239621
0.0239825
0.0240364
0.023979
0.0239874
0.0239774
0.024032
0.023979
0.0239802
0.0239766
0.0239675
0.0239816
0.0239744
0.0239796
0.02399
0.0239839
0.0239848
0.0239411
0.0239846
0.0239838
0.023984
0.0239786
0.024024
0.0239817
0.0240061
0.0239533
0.0239804
0.0240059
0.0240249
0.023957
0.0239553
0.023957
0.0239526
0.0239561
0.0239805
0.0240247
0.0240062
0.0239524
0.0239525
0.0239804
0.0240191
0.0240053
0.0239888
0.0239865
0.0239823
0.0240097
0.0240076
0.0240001
0.0239628
0.024
0.0239633
0.0240175
0.0239552
0.024
0.0239552
0.0239836
0.0239746
0.0239697
0.0240203
0.0239701
0.0239696
0.0239745
0.0239744
0.0239786
0.0239843
0.0239769
0.0239629
0.023963
0.0240062
0.0239727
0.0239823
0.0240273
0.0239665
0.0239746
0.0239786
0.0239987
0.0240109
0.0239602
0.0239721
0.0240126
0.0240044
0.0240186
0.0239818
0.0239736
0.0240191
0.023944
0.0240001
0.0239441
0.0239661
0.0239751
0.0239996
0.0240081
0.0240109
0.0239775
0.0239666
0.0239807
0.0239934
0.0240031
0.0240126
0.023979
0.023978
0.0239779
0.0239714
0.0239812
0.0240128
0.0239761
0.0239835
0.0240173
0.0240147
0.0239794
0.0239782
0.0239998
0.0239552
0.0240111
0.0239554
0.0239996
0.0239913
0.0239682
0.0239771
0.0239734
0.0239757
0.023967
0.0239573
0.0239775
0.0240109
0.0239995
0.0239628
0.0239775
0.0239724
0.0239773
0.024003
0.0239551
0.0240141
0.0239798
0.023972
0.0239552
0.0240023
0.0239773
0.0239904
0.0239773
0.0240114
0.0239784
0.0239781
0.0239823
0.0239825
0.0239952
0.0239866
0.0239771
0.024006
0.0239801
0.0239774
0.0239774
0.0239758
0.0240018
0.0240016
0.0239802
0.0239864
0.0240056
0.0240177
0.0240075
0.0240018
0.0239778
0.0240018
0.0240019
0.024006
0.0240017
0.0239659
0.024
0.0240077
0.0239752
0.0239999
0.0239716
0.023966
0.023979
0.0239627
0.0239778
0.024006
0.0239776
0.0239776
0.0240022
0.0239735
0.0240081
0.0239734
0.0239713
0.0239657
0.0239775
0.0239734
0.0240103
0.0239999
0.024006
0.0239773
0.0239798
0.0239795
0.0239724
0.0239772
0.0239747
0.023977
0.0239893
0.0239984
0.0239725
0.0240059
0.0239721
0.0239746
0.0240033
0.023969
0.0239769
0.0239684
0.0239763
0.0239782
0.023972
0.023995
0.0239758
0.0239978
0.0239714
0.0239758
0.0239758
0.0239765
0.0239762
0.0239762
0.0239763
0.0239769
0.0239679
0.0239681
0.0239679
0.0239678
0.0239632
0.0239631
0.0239954
0.0239768
0.0239785
0.0239868
0.0239675
0.0239673
0.0239784
0.0239982
0.0239788
0.0239775
0.0239948
0.0239688
0.023995
0.0239719
0.023979
0.0239946
0.0239975
0.0240111
0.0240105
0.0239721
0.0240123
0.0239808
0.0239978
0.0239896
0.0239788
0.0239759
0.0239521
0.0239761
0.0240127
0.0239978
0.0239786
0.023979
0.0239985
0.023976
0.0239902
0.0239522
0.0239977
0.0239757
0.0239737
0.0239795
0.0239676
0.0239737
0.0239629
0.0239802
0.0240165
0.0240186
0.0239645
0.0239846
0.023979
0.023995
0.0239687
0.0239753
0.0239977
0.0239751
0.0239932
0.0239779
0.0239932
0.023998
0.0239475
0.0239654
0.0239673
0.0239674
0.023977
0.0239928
0.0239576
0.023974
0.0239861
0.0239926
0.0239945
0.0239646
0.0239948
0.0239661
0.0239939
0.024019
0.0239929
0.0240117
0.0239712
0.0239947
0.0239476
0.0239938
0.0239725
0.0239954
0.0239731
0.023994
0.0239818
0.0240214
0.0239829
0.0239949
0.0239648
0.0239952
0.0239861
0.0239732
0.0239769
0.0239939
0.0239929
0.0239903
0.0239713
0.0239929
0.023979
0.0239817
0.023963
0.0239929
0.0239906
0.0239853
0.02399
0.0239935
0.0239899
0.0239695
0.0239791
0.0239904
0.023995
0.0239775
0.0239774
0.0239931
0.0239631
0.0240341
0.0239819
0.024011
0.023985
0.0240649
0.0240648
0.0240645
0.0240646
0.0240644
0.0240651
0.0240649
0.023971
0.0239593
0.02398
0.0239864
0.0239897
0.02399
0.0239779
0.0239904
0.0239907
0.0239591
0.02399
0.0239686
0.0240001
0.0239688
0.0239826
0.0239865
0.0239903
0.0239644
0.023982
0.0239861
0.0239819
0.023986
0.0239905
0.023999
0.0239865
0.0239825
0.0239684
0.0239891
0.023991
0.0239894
0.0239869
0.0239827
0.0239778
0.0239894
0.0239779
0.0239831
0.0239867
0.0239788
0.023983
0.0239902
0.0239732
0.0239855
0.0239598
0.024019
0.0239711
0.0239695
0.0239826
0.0239854
0.0239746
0.0240334
0.0239826
0.0239857
0.024021
0.0239479
0.0239478
0.023982
0.0239898
0.023985
0.0239891
0.0239388
0.0239388
0.0239788
0.0239788
0.023979
0.0240336
0.0239907
0.0239723
0.0239868
0.0239873
0.0239868
0.0240344
0.0239735
0.0239901
0.0239822
0.0239821
0.0239873
0.0239862
0.0239873
0.0239868
0.0240243
0.0240116
0.0239862
0.023982
0.0239855
0.0239876
0.0239859
0.0239851
0.0239855
0.024019
0.0239675
0.0239894
0.0239748
0.0239732
0.0240193
0.0239824
0.0239829
0.023963
0.0239482
0.0239483
0.0239653
0.0239908
0.0239823
0.0240199
0.0239494
0.0239401
0.0239402
0.0240351
0.0239561
0.0239533
0.0239829
0.0239664
0.0239801
0.023977
0.023973
0.0239716
0.023979
0.0240335
0.0239815
0.0239753
0.0239725
0.0240277
0.0239553
0.0240221
0.0239727
0.0239769
0.0239942
0.0239805
0.0239792
0.0239624
0.0239784
0.0239624
0.0239821
0.0239724
0.0239543
0.0239539
0.0240198
0.0239762
0.0240373
0.0240362
0.0240385
0.0239736
0.0240343
0.0240397
0.0239875
0.0240379
0.02396
0.02396
0.024037
0.0239851
0.0240242
0.0240377
0.0240253
0.0240379
0.0240253
0.0239557
0.0240219
0.024034
0.0240371
0.0239795
0.0239703
0.0240262
0.0239793
0.0240393
0.0239774
0.0239848
0.0240383
0.024027
0.0240391
0.0240351
0.0239831
0.0239589
0.0239411
0.0239419
0.0239764
0.0239413
0.0239413
0.0239416
0.0239463
0.0240208
0.0239547
0.023965
0.0239588
0.0239771
0.023945
0.0239451
0.0239578
0.0240357
0.0239853
0.0240351
0.0240231
0.0240225
0.0239501
0.0239503
0.0239507
0.0239506
0.0239502
0.0239422
0.0239506
0.023945
0.023941
0.02395
0.0239499
0.0239408
0.023942
0.0239448
0.023951
SCALARS rr_(T) float
LOOKUP_TABLE default
0.149458
0.149485
0.149483
0.149485
0.149496
0.149483
0.149458
0.149485
0.149481
0.149486
0.149458
0.149485
0.149484
0.149486
0.149492
0.149483
0.149487
0.149484
0.149479
0.149482
0.149482
0.149512
0.149482
0.149482
0.149482
0.149485
0.149463
0.149484
0.149471
0.149502
0.149484
0.149471
0.149463
0.1495
0.149501
0.1495
0.149503
0.149501
0.149484
0.149463
0.149471
0.149503
0.149503
0.149484
0.149465
0.149472
0.14948
0.149481
0.149483
0.149469
0.149471
0.149474
0.149496
0.149474
0.149495
0.149466
0.149501
0.149474
0.149501
0.149482
0.149487
0.149491
0.149465
0.149491
0.149491
0.149488
0.149487
0.149485
0.149482
0.149486
0.149496
0.149496
0.149471
0.149489
0.149483
0.149461
0.149493
0.149488
0.149485
0.149475
0.149469
0.149498
0.149489
0.149468
0.149472
0.149465
0.149483
0.149489
0.149465
0.14951
0.149474
0.14951
0.149493
0.149488
0.149475
0.14947
0.149469
0.149485
0.149493
0.149484
0.149478
0.149473
0.149468
0.149484
0.149485
0.149485
0.14949
0.149484
0.149468
0.149486
0.149482
0.149466
0.149467
0.149484
0.149485
0.149475
0.149501
0.149469
0.149501
0.149475
0.149478
0.149492
0.149485
0.149488
0.149486
0.149493
0.1495
0.149485
0.149469
0.149475
0.149496
0.149485
0.149489
0.149485
0.149473
0.149501
0.149468
0.149485
0.149489
0.149501
0.149473
0.149486
0.149479
0.149486
0.149469
0.149485
0.149486
0.149483
0.149483
0.149477
0.149481
0.149485
0.149471
0.149484
0.149486
0.149485
0.149487
0.149474
0.149474
0.149484
0.149481
0.149471
0.149466
0.14947
0.149474
0.149485
0.149474
0.149474
0.149471
0.149474
0.149493
0.149474
0.14947
0.149487
0.149474
0.14949
0.149493
0.149485
0.149496
0.149486
0.149471
0.149485
0.149485
0.149473
0.149489
0.14947
0.149488
0.14949
0.149494
0.149485
0.149489
0.14947
0.149474
0.149471
0.149485
0.149484
0.149484
0.149489
0.149485
0.149488
0.149485
0.149479
0.149475
0.149489
0.149472
0.149489
0.149488
0.149473
0.149492
0.149485
0.149492
0.149487
0.149485
0.149489
0.149477
0.149487
0.149475
0.14949
0.149486
0.149486
0.149485
0.149486
0.149486
0.149486
0.149486
0.149492
0.149492
0.149492
0.149492
0.149496
0.149496
0.149477
0.149486
0.149484
0.149481
0.149492
0.149492
0.149484
0.149475
0.149484
0.149485
0.149477
0.149492
0.149477
0.149489
0.149484
0.149477
0.149475
0.149469
0.149469
0.149489
0.149469
0.149484
0.149475
0.149479
0.149484
0.149486
0.149503
0.149486
0.149469
0.149475
0.149484
0.149485
0.149475
0.149486
0.149479
0.149503
0.149475
0.149486
0.149488
0.149484
0.149492
0.149489
0.149496
0.149484
0.149467
0.149465
0.149495
0.149482
0.149485
0.149477
0.149492
0.149487
0.149475
0.149488
0.149478
0.149486
0.149478
0.149475
0.149507
0.149494
0.149492
0.149492
0.149486
0.149478
0.149499
0.149488
0.149481
0.149478
0.149477
0.149495
0.149477
0.149494
0.149477
0.149465
0.149478
0.149469
0.14949
0.149477
0.149507
0.149477
0.149489
0.149477
0.149489
0.149477
0.149483
0.149465
0.149483
0.149477
0.149494
0.149477
0.149481
0.149489
0.149486
0.149477
0.149478
0.149479
0.14949
0.149478
0.149485
0.149484
0.149496
0.149478
0.149479
0.149482
0.149479
0.149478
0.149479
0.149491
0.149485
0.149479
0.149477
0.149486
0.149486
0.149478
0.149496
0.149457
0.149484
0.149469
0.149482
0.14944
0.14944
0.149441
0.149441
0.14944
0.149441
0.149441
0.14949
0.149498
0.149484
0.149481
0.149479
0.149479
0.149486
0.149479
0.149479
0.149498
0.149479
0.149492
0.149474
0.149491
0.149483
0.149481
0.149479
0.149495
0.149484
0.149481
0.149484
0.149481
0.149479
0.149475
0.149481
0.149483
0.149492
0.14948
0.149479
0.149479
0.149481
0.149483
0.149486
0.149479
0.149486
0.149483
0.149481
0.149485
0.149483
0.149479
0.149488
0.149482
0.149498
0.149465
0.14949
0.149491
0.149483
0.149482
0.149488
0.149458
0.149483
0.149482
0.149465
0.149507
0.149507
0.149483
0.149479
0.149482
0.14948
0.149514
0.149514
0.149485
0.149485
0.149485
0.149458
0.149479
0.149489
0.149481
0.149481
0.149481
0.149457
0.149489
0.149479
0.149483
0.149483
0.149481
0.149481
0.149481
0.149481
0.149463
0.149469
0.149481
0.149484
0.149482
0.14948
0.149481
0.149482
0.149482
0.149465
0.149493
0.149479
0.149488
0.149489
0.149465
0.149483
0.149483
0.149496
0.149506
0.149506
0.149494
0.149479
0.149483
0.149465
0.149505
0.149512
0.149512
0.149457
0.1495
0.149502
0.149483
0.149493
0.149484
0.149486
0.149488
0.14949
0.149485
0.149458
0.149484
0.149487
0.149489
0.149461
0.149501
0.149465
0.149489
0.149486
0.149477
0.149484
0.149485
0.149496
0.149485
0.149496
0.149483
0.149489
0.149502
0.149502
0.149465
0.149486
0.149458
0.149459
0.149457
0.149488
0.149458
0.149456
0.14948
0.149457
0.149498
0.149498
0.149458
0.149481
0.149463
0.149458
0.149463
0.149458
0.149463
0.149501
0.149464
0.149458
0.149458
0.149485
0.149491
0.149462
0.149485
0.149456
0.149486
0.149482
0.149458
0.149462
0.149457
0.149457
0.149483
0.149498
0.149511
0.149511
0.149487
0.149511
0.149511
0.149511
0.149508
0.149464
0.149502
0.149494
0.149499
0.149486
0.149509
0.149509
0.149499
0.149456
0.149481
0.149457
0.149465
0.149464
0.149505
0.149504
0.149504
0.149504
0.149505
0.149511
0.149505
0.149509
0.149512
0.149505
0.149505
0.149512
0.149511
0.149509
0.149504
SCALARS rr_tsim float
LOOKUP_TABLE default
320
320
320
320
320
320
320
320
320
320
320
320
320
320
320
320
320
320
320
320
320
320
320
320
320
320
320
320
320
320
320
320
320
320
320
320
320
320
320
320
320
320
320
320
320
320
320
320
320
320
320
320
320
320
320
320
320
320
320
320
320
320
320
320
320
320
320
320
320
320
320
320
320
320
320
320
320
320
320
320
320
320
320
320
320
320
320
320
320
320
320
320
320
320
320
320
320
320
320
320
320
320
320
320
320
320
320
320
320
320
320
320
320
320
320
320
320
320
320
320
320
320
320
320
320
320
320
320
320
320
320
320
320
320
320
320
320
320
320
320
320
320
320
320
320
320
320
320
320
320
320
320
320
320
320
320
320
320
320
320
320
320
320
320
320
320
320
320
320
320
320
320
320
320
320
320
320
320
320
320
320
320
320
320
320
320
320
320
320
320
320
320
320
320
320
320
320
320
320
320
320
320
320
320
320
320
320
320
320
320
320
320
320
320
320
320
320
320
320
320
320
320
320
320
320
320
320
320
320
320
320
320
320
320
320
320
320
320
320
320
320
320
320
320
320
320
320
320
320
320
320
320
320
320
320
320
320
320
320
320
320
320
320
320
320
320
320
320
320
320
320
320
320
320
320
320
320
320
320
320
320
320
320
320
320
320
320
320
320
320
320
320
320
320
320
320
320
320
320
320
320
320
320
320
320
320
320
320
320
320
320
320
320
320
320
320
320
320
320
320
320
320
320
320
320
320
320
320
320
320
320
320
320
320
320
320
320
320
320
320
320
320
320
320
320
320
320
320
320
320
320
320
320
320
320
320
320
320
320
320
320
320
320
320
320
320
320
320
320
320
320
320
320
320
320
320
320
320
320
320
320
320
320
320
320
320
320
320
320
320
320
320
320
320
320
320
320
320
320
320
320
320
320
320
320
320
320
320
320
320
320
320
320
320
320
320
320
320
320
320
320
320
320
320
320
320
320
320
320
320
320
320
320
320
320
320
320
320
320
320
320
320
320
320
320
320
320
320
320
320
320
320
320
320
320
320
320
320
320
320
320
320
320
320
320
320
320
320
320
320
320
320
320
320
320
320
320
320
320
320
320
320
320
320
320
320
320
320
320
320
320
320
320
320
320
320
320
320
320
320
320
320
320
320
320
320
320
320
320
320
320
320
320
320
320
320
320
320
320
320
320
320
320
320
320
320
320
320
320
320
320
320
320
320
320
320
320
320
320
320
320
320
320
320
320
320
320
320
320
320
320
320
320
320
320
320
320
320
320
320
320
320
320
SCALARS rr_Vext float
LOOKUP_TABLE default
0.181359
0.449123
0.356048
0.468109
0.250492
0.377828
0.179274
0.465089
0.395106
0.504565
0.165389
0.466508
0.409825
0.435013
0.516135
0.424864
0.369043
0.414184
0.365531
0.360527
0.405109
0.0765106
0.415069
0.383014
0.347105
0.403471
0.15501
0.352834
0.267413
0.339246
0.361969
0.276485
0.17152
0.252901
0.249247
0.253452
0.330126
0.24949
0.361539
0.192836
0.224721
0.29105
0.29106
0.397271
0.216885
0.24412
0.344612
0.350183
0.330079
0.303761
0.312853
0.245236
0.401517
0.315206
0.369414
0.157753
0.266178
0.317516
0.26615
0.393184
0.470929
0.464872
0.153275
0.327641
0.445313
0.417374
0.455654
0.391905
0.357985
0.515556
0.435554
0.43079
0.277654
0.338744
0.353972
0.176426
0.372675
0.413476
0.395169
0.271132
0.24049
0.283506
0.527531
0.24025
0.32776
0.119291
0.407579
0.344609
0.229706
0.0374828
0.273092
0.0407607
0.316357
0.299312
0.258659
0.232983
0.220908
0.44293
0.37291
0.351855
0.293535
0.277769
0.230478
0.418575
0.426137
0.383831
0.340626
0.340847
0.244628
0.512518
0.326026
0.164038
0.220056
0.457878
0.429718
0.304482
0.30863
0.183508
0.320035
0.303366
0.266985
0.502648
0.511809
0.442039
0.484525
0.384951
0.220815
0.478209
0.200078
0.262279
0.227503
0.456394
0.449023
0.448248
0.288937
0.187537
0.190638
0.327439
0.404468
0.187459
0.241541
0.387289
0.287969
0.472757
0.223275
0.385189
0.349731
0.336127
0.214789
0.269545
0.304298
0.440625
0.248026
0.39741
0.461989
0.469242
0.307855
0.249008
0.247656
0.401135
0.333852
0.246117
0.160076
0.239704
0.240466
0.430955
0.252348
0.2551
0.274619
0.245938
0.386343
0.258183
0.226058
0.297713
0.272811
0.340306
0.382117
0.361132
0.313977
0.360844
0.266567
0.418245
0.448851
0.241614
0.442299
0.239439
0.436794
0.402736
0.378965
0.379414
0.446226
0.200774
0.266928
0.246016
0.447409
0.43902
0.407198
0.447893
0.452951
0.381864
0.466568
0.307715
0.274109
0.51273
0.285547
0.465953
0.36996
0.226654
0.286341
0.461724
0.389034
0.350307
0.450055
0.445255
0.278858
0.284221
0.267542
0.395452
0.433418
0.498091
0.478087
0.520369
0.471557
0.515286
0.432054
0.4572
0.46065
0.434354
0.456356
0.422918
0.416634
0.28241
0.38941
0.454294
0.31212
0.470271
0.432155
0.492658
0.288246
0.468275
0.448676
0.284499
0.406912
0.282468
0.455237
0.411288
0.296254
0.277677
0.235552
0.271097
0.455772
0.197501
0.347019
0.276527
0.313902
0.46867
0.455547
0.147788
0.457103
0.23643
0.261764
0.466269
0.379026
0.264585
0.52218
0.29123
0.147779
0.267723
0.406398
0.50892
0.382689
0.457754
0.425154
0.226614
0.216731
0.175978
0.201428
0.308134
0.229075
0.37198
0.227524
0.406391
0.287622
0.268101
0.323952
0.293521
0.39852
0.281486
0.287596
0.13637
0.303571
0.437809
0.438057
0.391523
0.281115
0.192358
0.545876
0.360487
0.298317
0.274291
0.284975
0.282728
0.358842
0.278091
0.192059
0.274791
0.183495
0.351066
0.279576
0.127091
0.263721
0.321337
0.279314
0.443668
0.290709
0.381467
0.138314
0.305661
0.287013
0.261623
0.269317
0.321991
0.308722
0.321045
0.266563
0.271163
0.293858
0.4036
0.276095
0.399021
0.358786
0.290796
0.286473
0.290122
0.323371
0.289911
0.270116
0.308528
0.333028
0.387865
0.290168
0.286352
0.425141
0.419247
0.276211
0.290834
0.117368
0.342062
0.227678
0.319679
0.126304
0.131123
0.117233
0.119129
0.126411
0.133076
0.137186
0.365817
0.275202
0.269662
0.305533
0.296206
0.292407
0.314708
0.285992
0.292386
0.310822
0.291313
0.368787
0.261063
0.378831
0.289102
0.277578
0.291595
0.322764
0.328992
0.304695
0.351048
0.326029
0.300388
0.213975
0.303858
0.298861
0.328279
0.305307
0.288518
0.275034
0.304062
0.31909
0.436159
0.283305
0.423999
0.438657
0.298863
0.422861
0.322474
0.255677
0.356792
0.307316
0.229504
0.18527
0.353347
0.377137
0.313431
0.259542
0.317011
0.138204
0.309862
0.289511
0.140569
0.0597485
0.0653752
0.26865
0.283293
0.331355
0.316585
0.0311308
0.0325286
0.318178
0.321541
0.304241
0.103723
0.264725
0.315902
0.31564
0.272074
0.24028
0.107863
0.464464
0.284944
0.352159
0.35767
0.255161
0.323443
0.249474
0.275478
0.129739
0.19938
0.323804
0.327748
0.280323
0.293561
0.303656
0.320503
0.306407
0.14396
0.275778
0.301351
0.290883
0.437485
0.143857
0.23373
0.240571
0.234522
0.155624
0.155628
0.267698
0.208506
0.301871
0.153855
0.185525
0.0614166
0.0614141
0.112309
0.199632
0.134971
0.256999
0.284536
0.297805
0.336998
0.307416
0.28523
0.222215
0.127171
0.278048
0.290579
0.282436
0.144129
0.147644
0.104628
0.281946
0.285969
0.224179
0.258248
0.238711
0.22379
0.292909
0.223756
0.257202
0.251385
0.158046
0.19524
0.165307
0.310644
0.112706
0.118918
0.115939
0.294531
0.10769
0.104732
0.200915
0.0979318
0.243153
0.243508
0.100659
0.255443
0.113722
0.110988
0.127154
0.105858
0.105723
0.174204
0.12624
0.112774
0.106277
0.235809
0.272657
0.118743
0.260315
0.0960765
0.264786
0.208171
0.100551
0.0864348
0.0948694
0.12646
0.22555
0.192179
0.0824423
0.0914071
0.253855
0.0775858
0.0775825
0.0878715
0.0979618
0.0995846
0.127333
0.207531
0.193793
0.253766
0.0775241
0.0775208
0.229251
0.0843464
0.178713
0.0765188
0.0783411
0.103271
0.198595
0.205595
0.218906
0.200659
0.198579
0.0438923
0.32038
0.0557536
0.0543417
0.259007
0.257238
0.0563344
0.0390571
0.0548043
0.238559
SCALARS rr_Vli float
LOOKUP_TABLE default
0.396486
0.903296
0.721402
0.942901
0.493002
0.765663
0.392034
0.937669
0.806266
1.01511
0.359835
0.940541
0.8277
0.874152
1.02412
0.859727
0.739393
0.835914
0.748795
0.732052
0.823479
0.146196
0.843736
0.777625
0.704886
0.813139
0.333348
0.714256
0.560607
0.6598
0.731224
0.579527
0.369271
0.494392
0.485904
0.495506
0.641456
0.486895
0.730481
0.415064
0.47121
0.565329
0.565389
0.802513
0.463322
0.511147
0.70466
0.71357
0.66868
0.640141
0.657314
0.509708
0.79128
0.654953
0.728498
0.336093
0.518807
0.659755
0.51879
0.798045
0.943862
0.925028
0.327839
0.652217
0.886008
0.836194
0.912998
0.789772
0.727288
1.0367
0.858505
0.849151
0.582209
0.676851
0.716967
0.381182
0.738158
0.828438
0.79642
0.562479
0.507622
0.556447
1.0535
0.508331
0.685383
0.254579
0.825074
0.689486
0.49066
0.0719434
0.567527
0.0782461
0.626349
0.600258
0.537107
0.489901
0.466216
0.891212
0.738706
0.711147
0.604216
0.579672
0.487749
0.844109
0.858079
0.772712
0.679545
0.689378
0.517758
1.02965
0.661676
0.349478
0.467059
0.923819
0.865434
0.632491
0.601612
0.38741
0.624001
0.62999
0.547959
0.99831
1.02947
0.884276
0.972855
0.763252
0.43175
0.962235
0.422252
0.544645
0.448452
0.918478
0.897109
0.901821
0.602898
0.365537
0.404181
0.66093
0.807731
0.365414
0.503537
0.778932
0.59024
0.951058
0.471531
0.776063
0.704321
0.680953
0.435246
0.556267
0.620246
0.886306
0.519981
0.802495
0.92944
0.94426
0.617852
0.518656
0.515712
0.810195
0.680205
0.515659
0.341238
0.503638
0.500927
0.867513
0.525644
0.531442
0.575695
0.512235
0.764767
0.536473
0.475014
0.597024
0.566758
0.679099
0.756451
0.728157
0.618511
0.726371
0.558759
0.841634
0.903303
0.503621
0.884781
0.503408
0.873806
0.803282
0.749914
0.763388
0.89254
0.423344
0.554569
0.51569
0.900208
0.886299
0.82171
0.894903
0.911194
0.76527
0.938415
0.629673
0.568291
1.02453
0.59847
0.930551
0.741277
0.47324
0.569197
0.928572
0.772727
0.703604
0.906434
0.889136
0.575328
0.57047
0.554199
0.788781
0.870376
1.00028
0.961014
1.04558
0.94745
1.03539
0.868711
0.907696
0.914768
0.862343
0.905931
0.833929
0.821515
0.583003
0.782793
0.915906
0.636237
0.93312
0.857209
0.993022
0.597475
0.944367
0.902753
0.586735
0.8088
0.582773
0.908854
0.829724
0.61088
0.57498
0.497305
0.572061
0.9101
0.417614
0.70148
0.572845
0.642711
0.945255
0.914966
0.286927
0.918293
0.500196
0.542258
0.940099
0.7642
0.548648
1.04887
0.596675
0.286927
0.5545
0.815976
1.01856
0.772232
0.908465
0.850822
0.4466
0.437752
0.374434
0.429883
0.608683
0.465559
0.749991
0.469384
0.807668
0.576816
0.55534
0.649546
0.603994
0.802276
0.579178
0.596019
0.263019
0.600442
0.868509
0.869129
0.787207
0.578062
0.376387
1.09285
0.734299
0.613258
0.565366
0.562957
0.583123
0.710459
0.572676
0.410196
0.565166
0.387691
0.700125
0.576599
0.245149
0.543076
0.642113
0.576619
0.887239
0.598797
0.772172
0.296222
0.619802
0.592061
0.51704
0.555816
0.655878
0.617314
0.645549
0.54901
0.557647
0.602196
0.804985
0.56787
0.804505
0.726242
0.573154
0.589127
0.594775
0.657842
0.593794
0.555994
0.631807
0.662546
0.782179
0.59465
0.590809
0.855286
0.843307
0.568299
0.573277
0.256088
0.6926
0.480627
0.650103
0.287606
0.29855
0.266803
0.271172
0.287682
0.303056
0.312311
0.729343
0.539723
0.544565
0.622603
0.6065
0.598932
0.633518
0.58613
0.599483
0.609469
0.596711
0.732657
0.542545
0.753106
0.586003
0.565698
0.597464
0.637466
0.666112
0.620591
0.710715
0.663996
0.615741
0.444039
0.619296
0.605571
0.652003
0.624636
0.591867
0.562871
0.620017
0.64672
0.877916
0.579857
0.853547
0.889738
0.609276
0.852427
0.653928
0.52384
0.713542
0.625424
0.450401
0.395665
0.704467
0.750312
0.6352
0.528048
0.635252
0.301236
0.62802
0.589264
0.300912
0.115298
0.126126
0.544003
0.580096
0.673735
0.647661
0.0592774
0.0619388
0.641395
0.648086
0.613481
0.226113
0.542804
0.631011
0.643416
0.555014
0.489877
0.235469
0.929282
0.583732
0.713231
0.724382
0.520582
0.658847
0.508989
0.561646
0.279101
0.421176
0.659631
0.663707
0.570433
0.599123
0.618255
0.651892
0.623522
0.307427
0.547096
0.616831
0.583014
0.8749
0.307367
0.473533
0.487753
0.46224
0.300515
0.300535
0.529553
0.427592
0.611535
0.329005
0.358876
0.117176
0.117176
0.245398
0.389619
0.262494
0.52105
0.563539
0.601411
0.677645
0.614656
0.569069
0.448036
0.27725
0.562545
0.582799
0.564247
0.311556
0.287924
0.224284
0.563451
0.574849
0.461942
0.521746
0.481453
0.440836
0.590093
0.440798
0.520821
0.502146
0.307811
0.380027
0.353393
0.623981
0.246785
0.25998
0.254334
0.589282
0.234981
0.230138
0.410009
0.214644
0.47712
0.477842
0.220334
0.51961
0.244574
0.243122
0.273901
0.231958
0.227739
0.339829
0.270697
0.245996
0.232677
0.475748
0.543001
0.256116
0.525107
0.211012
0.532688
0.423219
0.220454
0.186663
0.208255
0.276319
0.457466
0.376607
0.157552
0.174883
0.509986
0.148307
0.148306
0.168048
0.188628
0.213205
0.248113
0.410273
0.379761
0.51034
0.149004
0.149003
0.448511
0.184461
0.363609
0.167149
0.16815
0.221553
0.384549
0.398195
0.424214
0.388778
0.384539
0.0840102
0.620731
0.107163
0.103829
0.501444
0.497965
0.107596
0.0747329
0.105301
0.462542
SCALARS rr_S_ext' float
LOOKUP_TABLE default
-0.000294348
-0.000672211
-0.000536743
-0.000701654
-0.000367099
-0.000569672
-0.00029104
-0.000697748
-0.000599766
-0.000755418
-0.000267172
-0.000699885
-0.000615887
-0.000650541
-0.000762408
-0.000639684
-0.000550297
-0.000622009
-0.000556953
-0.000544634
-0.000612637
-0.000108945
-0.000627705
-0.000578541
-0.000524421
-0.000605085
-0.000247595
-0.000531439
-0.000416704
-0.000491452
-0.000544096
-0.000430769
-0.000274268
-0.000368198
-0.000361905
-0.000369027
-0.0004778
-0.000362634
-0.000543541
-0.000308282
-0.000350251
-0.0004211
-0.000421143
-0.000597142
-0.000344199
-0.000379953
-0.000524153
-0.000530833
-0.000497518
-0.000475749
-0.000488554
-0.000378964
-0.00058918
-0.000486958
-0.000542423
-0.000249704
-0.000386414
-0.000490527
-0.000386401
-0.000593737
-0.000702467
-0.000688588
-0.000243543
-0.000485504
-0.000659544
-0.000622345
-0.000679501
-0.000587699
-0.000541081
-0.000771494
-0.000639232
-0.000632266
-0.000432758
-0.000503789
-0.000533449
-0.000283083
-0.000549552
-0.000616571
-0.000592644
-0.000418221
-0.000377245
-0.000414373
-0.000784146
-0.000377745
-0.000509489
-0.000189131
-0.000613893
-0.000513175
-0.00036451
-5.36057e-05
-0.000421955
-5.83016e-05
-0.000466316
-0.000446735
-0.000399347
-0.000364114
-0.000346476
-0.000663212
-0.000549959
-0.00052915
-0.000449355
-0.000430933
-0.000362448
-0.00062812
-0.000638543
-0.00057502
-0.000505815
-0.000512942
-0.000384747
-0.000766258
-0.000492282
-0.000259646
-0.000347042
-0.000687425
-0.000644013
-0.000470261
-0.000448087
-0.000287908
-0.000464759
-0.000468406
-0.000407549
-0.000743174
-0.000766105
-0.000658156
-0.000724005
-0.000568216
-0.000321545
-0.000716064
-0.000313803
-0.000404951
-0.00033391
-0.000683497
-0.000667729
-0.000671107
-0.000448201
-0.000272256
-0.000300334
-0.000491803
-0.000601211
-0.000272163
-0.000374345
-0.000579666
-0.000439013
-0.000707751
-0.000350419
-0.000577501
-0.000524123
-0.000506651
-0.000323834
-0.000413664
-0.000461403
-0.000659564
-0.000386505
-0.000597136
-0.000691663
-0.000702685
-0.00045982
-0.000385595
-0.000383409
-0.00060286
-0.000506014
-0.000383299
-0.00025352
-0.000374333
-0.000372412
-0.000645568
-0.000390789
-0.000395099
-0.000427919
-0.000380821
-0.00056937
-0.000398867
-0.000353057
-0.000444329
-0.000421387
-0.000505479
-0.000563178
-0.000541842
-0.000460543
-0.000540537
-0.000415332
-0.000626316
-0.000672206
-0.000374409
-0.000658534
-0.000374155
-0.000650363
-0.000597922
-0.000558318
-0.00056809
-0.000664311
-0.000314623
-0.000412323
-0.000383317
-0.000669905
-0.000659495
-0.000611441
-0.000666086
-0.000678083
-0.000569555
-0.000698344
-0.000468365
-0.000422551
-0.000762571
-0.000444851
-0.000692628
-0.0005517
-0.000351805
-0.000423721
-0.000691021
-0.000575244
-0.000523628
-0.000674522
-0.000661804
-0.000427842
-0.000424557
-0.000412083
-0.000587128
-0.000647737
-0.000744413
-0.00071517
-0.000778114
-0.000705086
-0.000770526
-0.000646481
-0.000675725
-0.000680985
-0.000641962
-0.000674412
-0.000620926
-0.000611683
-0.000433543
-0.000582545
-0.000681545
-0.0004733
-0.000694662
-0.000638156
-0.000738934
-0.000444252
-0.000702719
-0.000671801
-0.00043633
-0.000602086
-0.00043338
-0.000676485
-0.000617405
-0.000454288
-0.000427539
-0.000369575
-0.000425135
-0.000677409
-0.000310339
-0.000521954
-0.000425946
-0.000478054
-0.000703378
-0.000680918
-0.000213728
-0.00068339
-0.000371703
-0.000403202
-0.000699547
-0.000568663
-0.000407943
-0.000780571
-0.000443805
-0.000213728
-0.000412308
-0.000607255
-0.00075809
-0.000574625
-0.000676304
-0.000633252
-0.000332535
-0.000325728
-0.000278199
-0.000319368
-0.000453192
-0.00034636
-0.00055809
-0.000349059
-0.000601245
-0.000429289
-0.000412931
-0.00048342
-0.000449194
-0.000597022
-0.00043074
-0.000443172
-0.000195953
-0.000447039
-0.000646566
-0.000647025
-0.000585828
-0.000429917
-0.000280308
-0.000813378
-0.000546258
-0.000456097
-0.000420447
-0.000419146
-0.000433643
-0.000528936
-0.000425894
-0.000304734
-0.000420324
-0.00028811
-0.000521139
-0.000428792
-0.000182639
-0.000403881
-0.000477931
-0.000428795
-0.000660367
-0.000445317
-0.000574533
-0.000220048
-0.000461139
-0.000440288
-0.000384954
-0.000413329
-0.000487919
-0.000459466
-0.000480404
-0.000408292
-0.000414733
-0.000447909
-0.00059919
-0.000422334
-0.000598656
-0.000540359
-0.000426765
-0.000438146
-0.000442384
-0.000489398
-0.000441666
-0.000413493
-0.000469943
-0.0004932
-0.000582039
-0.000442296
-0.000439354
-0.000636483
-0.00062757
-0.000422649
-0.000426856
-0.000190124
-0.000515324
-0.000357182
-0.000483646
-0.000213238
-0.000221352
-0.000197817
-0.000201054
-0.000213297
-0.000224692
-0.000231557
-0.000542891
-0.000401924
-0.000405207
-0.00046316
-0.00045112
-0.000445488
-0.00047144
-0.000435958
-0.000445885
-0.000453866
-0.000443835
-0.000545412
-0.000403379
-0.000560621
-0.000435997
-0.000420827
-0.000444392
-0.000474624
-0.000495616
-0.00046167
-0.000528804
-0.000493961
-0.00045798
-0.000330154
-0.000460698
-0.000450562
-0.000485374
-0.00046462
-0.000440213
-0.000418674
-0.000461228
-0.000481174
-0.000653313
-0.000431307
-0.000635177
-0.000661969
-0.000453241
-0.000634319
-0.000486529
-0.00038963
-0.000531085
-0.000465276
-0.000335402
-0.00029394
-0.000524376
-0.000558533
-0.000472604
-0.000392838
-0.000472789
-0.000223651
-0.00046726
-0.000438374
-0.000223535
-8.58979e-05
-9.39653e-05
-0.00040476
-0.00043148
-0.00050123
-0.000481748
-4.41775e-05
-4.6161e-05
-0.000477282
-0.000482264
-0.000456508
-0.000167876
-0.000403726
-0.000469673
-0.00047864
-0.000412869
-0.000364419
-0.000174814
-0.000691651
-0.000434179
-0.000530671
-0.000538967
-0.000387253
-0.000490128
-0.000378629
-0.000417809
-0.000207301
-0.000312995
-0.00049071
-0.000493825
-0.000424367
-0.000445675
-0.000459938
-0.000484974
-0.000463862
-0.000228389
-0.00040729
-0.000458808
-0.000433909
-0.000651184
-0.000228341
-0.000352322
-0.000362895
-0.000344179
-0.00022388
-0.000223895
-0.000394259
-0.000318033
-0.000455002
-0.000244409
-0.000267346
-8.73229e-05
-8.73225e-05
-0.00018218
-0.000290183
-0.000195519
-0.000387669
-0.00041955
-0.000447506
-0.000504291
-0.000457487
-0.000423583
-0.000333396
-0.000205841
-0.000418567
-0.000433741
-0.000419977
-0.000231373
-0.000214445
-0.000166605
-0.000419381
-0.000427797
-0.000343535
-0.000388225
-0.00035826
-0.000328246
-0.000439115
-0.000328216
-0.000387512
-0.000373757
-0.000229265
-0.000283058
-0.000262529
-0.000464368
-0.000183202
-0.000193007
-0.000188795
-0.000438595
-0.000174455
-0.000170825
-0.000304998
-0.000159337
-0.000355302
-0.000355839
-0.000163568
-0.000386561
-0.000181658
-0.000180481
-0.00020343
-0.000172191
-0.000169145
-0.000253103
-0.000201077
-0.000182635
-0.00017273
-0.000354012
-0.000404199
-0.000190214
-0.000390743
-0.00015663
-0.000396413
-0.000314856
-0.000163649
-0.000138627
-0.000154587
-0.000205135
-0.000340358
-0.000280461
-0.000117407
-0.000130318
-0.000379532
-0.000110517
-0.000110516
-0.000125226
-0.000140537
-0.000158379
-0.000184798
-0.00030546
-0.000282809
-0.000379785
-0.00011102
-0.000111019
-0.000334023
-0.000136938
-0.000270504
-0.000124091
-0.000124902
-0.000164572
-0.000286464
-0.000296627
-0.000316005
-0.00028961
-0.000286456
-6.26014e-05
-0.000462398
-7.98453e-05
-7.73729e-05
-0.000373545
-0.000370954
-8.01813e-05
-5.56887e-05
-7.84584e-05
-0.000344552
SCALARS rr_P_ext' float
LOOKUP_TABLE default
0.000181155
0.000418401
0.000333762
0.000436643
0.000229126
0.00035423
0.000179112
0.000434159
0.000372603
0.000470173
0.000164543
0.000435488
0.000383136
0.000404959
0.000475369
0.00039784
0.000342689
0.00038698
0.000345831
0.000338573
0.000380792
6.82496e-05
0.000390159
0.000359657
0.000326003
0.000376521
0.000152733
0.000330502
0.000257947
0.000307202
0.000338465
0.00026666
0.00016916
0.000230009
0.000226155
0.000230524
0.000298703
0.00022658
0.000338112
0.000190145
0.000216805
0.000263268
0.000263293
0.000371464
0.00021252
0.000235237
0.000325542
0.000329841
0.000309377
0.000294289
0.000302334
0.000234859
0.000367678
0.000301798
0.00033847
0.000154232
0.000241477
0.00030401
0.000241466
0.000369118
0.00043743
0.000429184
0.000150346
0.00030259
0.000411087
0.000387556
0.000423144
0.000365705
0.000336341
0.00048021
0.000398904
0.000394555
0.000267876
0.000313835
0.000331727
0.000174512
0.000342727
0.000383958
0.000368778
0.000259253
0.000233306
0.000258721
0.000488519
0.000233539
0.000315492
0.000116792
0.00038178
0.000319628
0.000225064
3.35634e-05
0.000261507
3.6503e-05
0.000290833
0.000278162
0.000247521
0.000225302
0.000214281
0.000412778
0.000342976
0.000329146
0.000278841
0.00026692
0.000224075
0.000390822
0.000397384
0.000357863
0.000315161
0.000319035
0.000237857
0.000477009
0.000306048
0.000160374
0.000214466
0.000427695
0.00040078
0.000291461
0.000280014
0.000178051
0.000290423
0.000290322
0.000252998
0.00046332
0.000476838
0.000409938
0.00045074
0.000354322
0.00020086
0.00044567
0.000194074
0.000250993
0.000208371
0.000425393
0.000415968
0.000417697
0.000277621
0.000170137
0.000185628
0.000305967
0.000374552
0.000170078
0.000231902
0.000360798
0.000272578
0.000440509
0.000216699
0.00035937
0.000326171
0.000315054
0.000201366
0.000256607
0.000286689
0.000410524
0.000239253
0.000371478
0.000430492
0.000437339
0.000286282
0.000238899
0.000237553
0.000375029
0.000314424
0.000237288
0.000156578
0.000231649
0.000230728
0.000401772
0.000242116
0.000244781
0.000264891
0.000235944
0.000355115
0.000247202
0.00021848
0.000276666
0.000261166
0.000314941
0.00035125
0.000337146
0.000287416
0.000336406
0.000257102
0.000389808
0.000418365
0.000231946
0.000410173
0.000231519
0.000405082
0.000372561
0.000348236
0.000353576
0.000413777
0.000194605
0.000255546
0.000237284
0.000416945
0.000410286
0.000380412
0.000414942
0.000422045
0.000354669
0.000434666
0.000290865
0.000261959
0.000475042
0.00027538
0.000431502
0.000343559
0.000217893
0.000264132
0.000430114
0.000358622
0.000325975
0.000419763
0.000412304
0.000265411
0.000264324
0.000255499
0.000365834
0.000403249
0.000463433
0.000445174
0.00048438
0.000438923
0.000479656
0.000402401
0.000421291
0.000424557
0.00040024
0.000420478
0.000387461
0.000381695
0.000268926
0.000362615
0.00042408
0.000294077
0.000433129
0.000397913
0.000459804
0.00027542
0.000437239
0.000418125
0.000270691
0.000375323
0.000268846
0.000421463
0.000384139
0.000281837
0.000265095
0.000228555
0.000262934
0.000422028
0.000191882
0.000324664
0.000264092
0.00029686
0.000437643
0.000423897
0.000133628
0.000425424
0.000229806
0.000249991
0.000435279
0.000353836
0.000252896
0.000485931
0.000275568
0.000133627
0.000255643
0.000378056
0.000472153
0.000357508
0.000421671
0.000394406
0.000207518
0.000202629
0.000171863
0.000197215
0.000282729
0.00021529
0.000347258
0.00021654
0.000374804
0.000267299
0.000256026
0.000301012
0.000278754
0.000371556
0.000267304
0.000274758
0.000122616
0.000278846
0.000403152
0.000403431
0.000364648
0.000266815
0.000175084
0.000506567
0.000339442
0.000283074
0.000260856
0.000261488
0.000269021
0.000329888
0.000264267
0.000188159
0.000260855
0.000178156
0.000324724
0.000266013
0.000114283
0.000250609
0.000297725
0.000265981
0.000411333
0.000276311
0.000357305
0.000135817
0.00028672
0.000273138
0.000240145
0.000256397
0.000303191
0.000286197
0.000299025
0.000253341
0.000257389
0.000278108
0.000373352
0.000262101
0.000372499
0.000336053
0.000266318
0.000271919
0.000274663
0.000304161
0.000274251
0.000256589
0.000291816
0.00030741
0.000362149
0.000274622
0.000272552
0.000396148
0.000390609
0.000262285
0.000266371
0.000117045
0.000320471
0.000220895
0.000300599
0.000130473
0.00013544
0.000121047
0.000123025
0.000130521
0.000137479
0.000141686
0.00033829
0.000250975
0.000252078
0.000287791
0.000280132
0.000276622
0.000293402
0.000270684
0.000276832
0.000283416
0.000275595
0.000340015
0.000249994
0.000349469
0.000271101
0.000261482
0.000275929
0.000296107
0.000308216
0.000286883
0.000328858
0.000306951
0.000284351
0.000204652
0.000286254
0.000280169
0.000302597
0.000288546
0.000273292
0.000260002
0.000286565
0.000299195
0.000406596
0.000267843
0.000395302
0.000411573
0.000281611
0.000394698
0.000302504
0.000241929
0.000330802
0.000289154
0.000209418
0.000181496
0.000326753
0.000348131
0.000293869
0.000244145
0.000294415
0.000137705
0.000290544
0.000272431
0.000137978
5.37462e-05
5.87957e-05
0.00025171
0.000267934
0.000311535
0.000299186
2.76873e-05
2.89304e-05
0.000296985
0.000300089
0.000284046
0.000103361
0.000250656
0.000292595
0.000297395
0.000256505
0.000226422
0.000107612
0.000430791
0.000269595
0.000330003
0.000335163
0.000240587
0.000304563
0.000235228
0.000259593
0.000127871
0.00019355
0.000304921
0.000307095
0.000263734
0.00027687
0.000285819
0.000301418
0.000288279
0.000141022
0.000253955
0.000284919
0.000270196
0.00040561
0.000140982
0.000219086
0.000225638
0.000214781
0.00014007
0.000140079
0.00024592
0.000197449
0.000282938
0.000150886
0.000167229
5.47146e-05
5.4714e-05
0.000112132
0.00018131
0.000122217
0.000241043
0.000261654
0.000278391
0.000313892
0.000284968
0.000263922
0.000207447
0.000126735
0.000260326
0.000270068
0.000261631
0.000142624
0.000134002
0.000102818
0.000261248
0.000266289
0.000213147
0.000241499
0.000222909
0.000204853
0.000273257
0.000204833
0.000240984
0.000232841
0.000143286
0.000176918
0.000162078
0.000289083
0.000112726
0.000118785
0.000116137
0.000273177
0.000107398
0.000105058
0.000189478
9.80284e-05
0.000221847
0.000222181
0.00010065
0.000240251
0.000112058
0.000111045
0.00012546
0.00010594
0.000104316
0.000158152
0.000124088
0.000112438
0.000106284
0.000220257
0.000251903
0.000117288
0.000243114
9.63351e-05
0.000246729
0.0001957
0.000100677
8.54642e-05
9.50851e-05
0.000126261
0.000211616
0.000175146
7.35494e-05
8.16262e-05
0.000236265
6.92313e-05
6.92303e-05
7.84412e-05
8.79576e-05
9.7759e-05
0.000115488
0.000190546
0.000176613
0.00023639
6.94998e-05
6.94989e-05
0.000208639
8.42751e-05
0.000168115
7.63808e-05
7.70681e-05
0.000101552
0.000179164
0.000185516
0.000197621
0.000181118
0.000179158
3.92093e-05
0.000289178
4.99838e-05
4.84716e-05
0.000233633
0.000232016
5.02332e-05
3.48809e-05
4.91177e-05
0.000215459
SCALARS rr_S' float
LOOKUP_TABLE default
7.69907e-05
0.000177036
0.000141278
0.000184767
9.68425e-05
0.000149943
7.61236e-05
0.000183728
0.000157778
0.000198945
6.99095e-05
0.000184291
0.000162151
0.000171341
0.000201
0.000168391
0.000144971
0.00016377
0.000146469
0.00014333
0.000161213
2.88031e-05
0.000165177
0.000152255
0.00013801
0.000159332
6.48526e-05
0.000139891
0.000109381
0.000129761
0.000143247
0.000113074
7.18324e-05
9.71807e-05
9.55404e-05
9.7399e-05
0.000126165
9.57253e-05
0.000143099
8.07424e-05
9.19357e-05
0.000111196
0.000111207
0.000157213
9.02064e-05
9.97442e-05
0.000137864
0.00013966
0.000130955
0.000124825
0.000128217
9.95449e-05
0.000155412
0.000127915
0.000143072
6.54571e-05
0.000102012
0.000128853
0.000102008
0.000156257
0.000185054
0.0001815
6.38212e-05
0.000127967
0.000173846
0.000163953
0.000179007
0.000154755
0.000142389
0.000203185
0.000168612
0.000166775
0.000113593
0.000132748
0.000140415
7.41186e-05
0.000144904
0.000162432
0.000156056
0.000109873
9.89675e-05
0.000109336
0.000206629
9.90786e-05
0.000133764
4.95714e-05
0.000161596
0.000135207
9.55302e-05
1.41677e-05
0.000110839
1.54086e-05
0.00012296
0.000117681
0.000104907
9.55524e-05
9.08967e-05
0.000174661
0.00014501
0.000139307
0.000118128
0.000113159
9.50645e-05
0.000165389
0.000168154
0.000151428
0.000133297
0.000135032
0.000100912
0.00020182
0.000129558
6.80629e-05
9.10015e-05
0.000180998
0.000169592
0.000123532
0.000118293
7.55297e-05
0.000122692
0.000123048
0.000107162
0.000195915
0.000201762
0.000173407
0.000190699
0.000149812
8.48666e-05
0.000188579
8.23253e-05
0.000106379
8.80757e-05
0.000179999
0.000175946
0.00017674
0.000117695
7.18743e-05
7.87615e-05
0.000129488
0.000158424
7.18496e-05
9.83077e-05
0.000152664
0.000115448
0.000186393
9.19262e-05
0.000152072
0.000138021
0.000133359
8.52365e-05
0.000108722
0.00012139
0.000173702
0.000101453
0.000157216
0.000182155
0.000185053
0.000121121
0.000101269
0.000100697
0.00015872
0.000133131
0.000100617
6.64539e-05
9.82402e-05
9.7806e-05
0.000170008
0.000102633
0.000103764
0.000112325
0.000100016
0.000150136
0.000104775
9.26561e-05
0.000117047
0.000110693
0.000133206
0.000148502
0.000142674
0.000121485
0.000142349
0.000109022
0.000164942
0.000177026
9.83255e-05
0.000173508
9.81886e-05
0.000171354
0.000157573
0.000147225
0.00014961
0.000175032
8.25464e-05
0.000108311
0.000100618
0.000176422
0.000173636
0.00016099
0.000175512
0.000178578
0.000150043
0.000183917
0.000123183
0.000111016
0.000200935
0.000116772
0.000182513
0.000145341
9.23763e-05
0.000111694
0.00018199
0.000151645
0.00013792
0.000177626
0.000174391
0.000112451
0.000111831
0.000108274
0.000154728
0.000170609
0.000196072
0.000188356
0.00020494
0.000185707
0.000202942
0.000170264
0.000178139
0.000179522
0.000169238
0.000177794
0.000163779
0.000161341
0.000113944
0.000153427
0.000179458
0.00012452
0.000183139
0.000168246
0.000194572
0.00011672
0.000185029
0.000176923
0.000114686
0.000158713
0.000113907
0.000178263
0.000162561
0.000119407
0.000112338
9.69537e-05
0.000111533
0.000178505
8.14036e-05
0.00013741
0.000111916
0.000125725
0.000185201
0.000179346
5.64393e-05
0.000179994
9.74958e-05
0.00010594
0.000184197
0.000149737
0.000107177
0.000205592
0.000116712
5.64391e-05
0.000108334
0.000159948
0.00019973
0.000151297
0.000178296
0.000166841
8.7715e-05
8.57569e-05
7.29344e-05
8.37062e-05
0.00011952
9.11446e-05
0.000146953
9.1745e-05
0.000158492
0.000113085
0.000108497
0.000127347
0.000118089
0.000157223
0.000113238
0.000116438
5.1771e-05
0.000117886
0.000170462
0.000170581
0.00015429
0.000113027
7.39781e-05
0.000214292
0.000143722
0.000119913
0.000110516
0.000110541
0.000113979
0.000139472
0.000111957
7.98651e-05
0.000110503
7.55777e-05
0.00013734
0.000112704
4.82529e-05
0.00010617
0.000125933
0.000112696
0.000173994
0.00011706
0.000151236
5.76582e-05
0.00012137
0.000115724
0.00010152
0.000108634
0.000128373
0.000121062
0.000126523
0.000107328
0.000109035
0.000117789
0.000157908
0.000111031
0.000157635
0.000142241
0.00011257
0.00011519
0.000116333
0.000128775
0.000116153
0.000108701
0.000123591
0.000130001
0.000153257
0.000116313
0.000115477
0.000167624
0.000165279
0.000111111
0.000112593
4.97368e-05
0.000135647
9.37034e-05
0.000127265
5.55704e-05
5.76856e-05
5.15542e-05
5.2397e-05
5.55886e-05
5.85553e-05
6.0346e-05
0.000143075
0.000106057
0.000106683
0.000121855
0.000118641
0.000117158
0.000124152
0.000114646
0.000117252
0.000119764
0.000116722
0.000143779
0.000105959
0.000147779
0.000114756
0.000110716
0.000116866
0.000125175
0.00013046
0.000121468
0.000139197
0.000129964
0.000120435
8.67343e-05
0.000121205
0.000118594
0.000127955
0.0001222
0.000115756
0.000110113
0.00012134
0.000126649
0.000172049
0.000113434
0.000167272
0.000174224
0.000119241
0.000167028
0.000128052
0.000102465
0.00013993
0.000122424
8.8499e-05
7.70367e-05
0.000138196
0.000147222
0.000124394
0.000103367
0.000124552
5.85127e-05
0.000122986
0.000115345
5.85741e-05
2.26934e-05
2.48252e-05
0.000106543
0.000113476
0.000131894
0.000126706
1.16828e-05
1.22073e-05
0.000125677
0.000126991
0.000120204
4.39203e-05
0.000106165
0.000123761
0.000125925
0.000108615
9.5873e-05
4.57294e-05
0.00018223
0.000114182
0.000139684
0.000141868
0.000101875
0.000128954
9.96057e-05
0.000109919
5.42969e-05
8.2107e-05
0.000129106
0.000129987
0.000111661
0.000117241
0.000121015
0.000127613
0.000122053
5.98572e-05
0.000107379
0.000120667
0.000114307
0.000171575
5.9842e-05
9.27363e-05
9.55136e-05
9.07857e-05
5.91438e-05
5.91475e-05
0.000103966
8.36302e-05
0.000119764
6.40485e-05
7.06173e-05
2.30893e-05
2.30891e-05
4.76527e-05
7.65997e-05
5.16243e-05
0.000102035
0.000110626
0.00011782
0.000132814
0.000120541
0.000111627
8.77882e-05
5.38522e-05
0.000110185
0.000114257
0.000110665
6.05768e-05
5.66102e-05
4.36515e-05
0.000110505
0.000112671
9.03017e-05
0.000102209
9.43327e-05
8.6586e-05
0.000115633
8.6578e-05
0.000102003
9.84869e-05
6.05279e-05
7.47331e-05
6.87988e-05
0.00012231
4.79125e-05
5.04838e-05
4.9367e-05
0.000115558
4.56377e-05
4.46615e-05
8.02342e-05
4.16675e-05
9.37517e-05
9.38931e-05
4.27788e-05
0.000101716
4.75818e-05
4.71994e-05
5.32772e-05
4.50303e-05
4.4298e-05
6.68142e-05
5.26809e-05
4.77789e-05
4.5174e-05
9.32121e-05
0.000106533
4.98103e-05
0.000102884
4.0952e-05
0.000104399
8.28521e-05
4.27941e-05
3.62975e-05
4.042e-05
5.36569e-05
8.95794e-05
7.40107e-05
3.10399e-05
3.44503e-05
9.99642e-05
2.92178e-05
2.92174e-05
3.31055e-05
3.71343e-05
4.14998e-05
4.87869e-05
8.05538e-05
7.46303e-05
0.000100023
2.93391e-05
2.93388e-05
8.81565e-05
3.58158e-05
7.11768e-05
3.24593e-05
3.27217e-05
4.31156e-05
7.56613e-05
7.83443e-05
8.34589e-05
7.6489e-05
7.5659e-05
1.65486e-05
0.000122124
2.11004e-05
2.04561e-05
9.86625e-05
9.79791e-05
2.11992e-05
1.47216e-05
2.07345e-05
9.09947e-05
SCALARS rr_P' float
LOOKUP_TABLE default
3.6202e-05
7.6774e-05
6.17035e-05
8.02437e-05
4.11309e-05
6.54991e-05
3.58036e-05
7.98609e-05
6.93852e-05
8.63005e-05
3.2719e-05
8.01062e-05
7.06009e-05
7.42415e-05
8.60395e-05
7.34539e-05
6.2637e-05
7.12583e-05
6.46529e-05
6.27303e-05
7.06313e-05
1.1892e-05
7.23694e-05
6.6629e-05
6.04088e-05
6.92325e-05
3.00091e-05
6.10458e-05
4.93761e-05
5.44895e-05
6.23846e-05
5.1035e-05
3.32754e-05
4.10087e-05
4.02094e-05
4.11038e-05
5.29317e-05
4.03282e-05
6.23303e-05
3.73941e-05
4.151e-05
4.66357e-05
4.66435e-05
6.84647e-05
4.14722e-05
4.49722e-05
6.07473e-05
6.13326e-05
5.71863e-05
5.66344e-05
5.80031e-05
4.45605e-05
6.60904e-05
5.72445e-05
6.08813e-05
3.00144e-05
4.29249e-05
5.76644e-05
4.29262e-05
6.83618e-05
7.99829e-05
7.79039e-05
2.93764e-05
5.49469e-05
7.46105e-05
7.08352e-05
7.73493e-05
6.7239e-05
6.23512e-05
8.80979e-05
7.17159e-05
7.0937e-05
5.12888e-05
5.72058e-05
6.13076e-05
3.44532e-05
6.19209e-05
7.01819e-05
6.781e-05
4.9095e-05
4.49725e-05
4.63149e-05
8.89986e-05
4.51278e-05
6.02331e-05
2.27677e-05
7.05168e-05
5.83402e-05
4.39155e-05
5.87459e-06
4.96094e-05
6.39002e-06
5.25231e-05
5.08921e-05
4.69185e-05
4.32602e-05
4.12985e-05
7.57742e-05
6.19728e-05
6.06977e-05
5.23858e-05
5.08545e-05
4.33077e-05
7.1908e-05
7.30049e-05
6.57289e-05
5.73564e-05
5.88748e-05
4.59771e-05
8.74288e-05
5.66761e-05
3.12092e-05
4.15749e-05
7.87315e-05
7.36413e-05
5.5268e-05
4.97803e-05
3.43273e-05
5.16441e-05
5.50358e-05
4.7389e-05
8.39395e-05
8.75053e-05
7.48115e-05
8.25664e-05
6.40818e-05
3.58186e-05
8.18155e-05
3.74037e-05
4.75785e-05
3.74639e-05
7.8105e-05
7.58146e-05
7.66693e-05
5.28862e-05
3.02443e-05
3.59444e-05
5.6348e-05
6.82352e-05
3.02361e-05
4.41352e-05
6.62041e-05
5.09874e-05
8.08502e-05
4.17936e-05
6.6059e-05
5.99303e-05
5.82376e-05
3.72318e-05
4.83354e-05
5.33241e-05
7.53372e-05
4.57991e-05
6.84414e-05
7.90157e-05
8.02921e-05
5.24174e-05
4.54261e-05
4.51586e-05
6.9111e-05
5.84583e-05
4.53942e-05
3.04889e-05
4.44432e-05
4.38779e-05
7.3788e-05
4.60404e-05
4.65537e-05
5.07035e-05
4.48616e-05
6.41196e-05
4.68895e-05
4.19209e-05
5.06159e-05
4.95282e-05
5.73327e-05
6.3426e-05
6.20224e-05
5.16422e-05
6.17823e-05
4.92077e-05
7.15654e-05
7.6815e-05
4.41374e-05
7.48532e-05
4.44476e-05
7.39273e-05
6.77878e-05
6.28567e-05
6.49042e-05
7.55027e-05
3.74719e-05
4.84656e-05
4.54153e-05
7.65377e-05
7.55724e-05
7.00397e-05
7.56319e-05
7.74598e-05
6.4843e-05
7.97612e-05
5.43169e-05
4.95751e-05
8.65939e-05
5.26994e-05
7.86131e-05
6.28e-05
4.15351e-05
4.78948e-05
7.89174e-05
6.4977e-05
5.97327e-05
7.7133e-05
7.51087e-05
4.99798e-05
4.84014e-05
4.83101e-05
6.65661e-05
7.38788e-05
8.49078e-05
8.16404e-05
8.87939e-05
8.04563e-05
8.79294e-05
7.38159e-05
7.62952e-05
7.69058e-05
7.24835e-05
7.61405e-05
6.96866e-05
6.86475e-05
5.06724e-05
6.65027e-05
7.8007e-05
5.47026e-05
7.83943e-05
7.19966e-05
8.45581e-05
5.21117e-05
8.0451e-05
7.67539e-05
5.09535e-05
6.80508e-05
5.06264e-05
7.67587e-05
7.07051e-05
5.3043e-05
5.01057e-05
4.40663e-05
5.06686e-05
7.68769e-05
3.7054e-05
5.98803e-05
4.99381e-05
5.54695e-05
8.05334e-05
7.76747e-05
2.366e-05
7.79718e-05
4.44018e-05
4.72713e-05
8.00712e-05
6.50896e-05
4.78693e-05
8.90482e-05
5.15249e-05
2.36613e-05
4.83307e-05
6.92512e-05
8.62074e-05
6.58211e-05
7.63361e-05
7.20047e-05
3.7302e-05
3.73416e-05
3.3401e-05
3.84471e-05
5.09423e-05
3.99252e-05
6.38793e-05
4.07738e-05
6.79485e-05
4.89048e-05
4.84083e-05
5.50618e-05
5.23523e-05
6.82432e-05
5.01975e-05
5.19766e-05
2.15665e-05
5.03081e-05
7.29519e-05
7.30131e-05
6.68897e-05
5.00745e-05
3.12454e-05
9.25191e-05
6.30944e-05
5.31103e-05
4.90744e-05
4.7117e-05
5.06428e-05
5.95758e-05
4.967e-05
3.67099e-05
4.89655e-05
3.43755e-05
5.90754e-05
5.00746e-05
2.01031e-05
4.71021e-05
5.4273e-05
5.01181e-05
7.50407e-05
5.19456e-05
6.59925e-05
2.65728e-05
5.30494e-05
5.14267e-05
4.32891e-05
4.82977e-05
5.63558e-05
5.22066e-05
5.48562e-05
4.76227e-05
4.83098e-05
5.20117e-05
6.79301e-05
4.92014e-05
6.8522e-05
6.20656e-05
4.78773e-05
5.10366e-05
5.13883e-05
5.6462e-05
5.12628e-05
4.82037e-05
5.45358e-05
5.57887e-05
6.66326e-05
5.13613e-05
5.13261e-05
7.271e-05
7.16827e-05
4.92528e-05
4.78909e-05
2.33426e-05
5.92061e-05
4.25845e-05
5.5781e-05
2.71944e-05
2.82269e-05
2.52154e-05
2.56326e-05
2.7188e-05
2.86578e-05
2.95245e-05
6.15263e-05
4.48925e-05
4.64459e-05
5.3515e-05
5.23458e-05
5.17084e-05
5.3886e-05
5.06281e-05
5.17999e-05
5.06859e-05
5.15181e-05
6.16182e-05
4.74268e-05
6.33734e-05
5.01402e-05
4.86283e-05
5.15962e-05
5.33428e-05
5.69399e-05
5.33197e-05
6.07488e-05
5.70453e-05
5.31937e-05
3.87674e-05
5.32385e-05
5.1799e-05
5.48221e-05
5.38741e-05
5.11653e-05
4.85597e-05
5.3323e-05
5.53305e-05
7.46677e-05
5.00295e-05
7.26029e-05
7.61721e-05
5.2389e-05
7.25932e-05
5.59728e-05
4.52358e-05
6.03524e-05
5.36976e-05
3.74844e-05
3.54071e-05
5.94269e-05
6.31799e-05
5.43412e-05
4.53261e-05
5.38225e-05
2.74334e-05
5.37307e-05
5.05985e-05
2.69829e-05
9.45823e-06
1.03444e-05
4.65067e-05
5.00697e-05
5.78006e-05
5.58565e-05
4.80745e-06
5.02329e-06
5.4621e-05
5.51845e-05
5.22572e-05
2.05945e-05
4.69049e-05
5.33171e-05
5.532e-05
4.77492e-05
4.21246e-05
2.14727e-05
7.86297e-05
5.04024e-05
6.09834e-05
6.1936e-05
4.47919e-05
5.66116e-05
4.37952e-05
4.82968e-05
2.51332e-05
3.73387e-05
5.66827e-05
5.67427e-05
4.89719e-05
5.15644e-05
5.31028e-05
5.59429e-05
5.35304e-05
2.75097e-05
4.59557e-05
5.32224e-05
4.94055e-05
7.39991e-05
2.75167e-05
4.04999e-05
4.17426e-05
3.86124e-05
2.46663e-05
2.46688e-05
4.43733e-05
3.69538e-05
5.22992e-05
2.9475e-05
2.95003e-05
9.51909e-06
9.51934e-06
2.23955e-05
3.22728e-05
2.16773e-05
4.45915e-05
4.72698e-05
5.12953e-05
5.75851e-05
5.19784e-05
4.80345e-05
3.8161e-05
2.5254e-05
4.80562e-05
4.9416e-05
4.76819e-05
2.81721e-05
2.38328e-05
2.01354e-05
4.76279e-05
4.88362e-05
4.0087e-05
4.45167e-05
4.10187e-05
3.68064e-05
5.02257e-05
3.68052e-05
4.45249e-05
4.24293e-05
2.54508e-05
3.14061e-05
3.16521e-05
5.2976e-05
2.25634e-05
2.37379e-05
2.32905e-05
4.98608e-05
2.14195e-05
2.11053e-05
3.52854e-05
1.96412e-05
3.97033e-05
3.97653e-05
2.01392e-05
4.45944e-05
2.20185e-05
2.22362e-05
2.46928e-05
2.12209e-05
2.05314e-05
2.81371e-05
2.43086e-05
2.24175e-05
2.12712e-05
4.05436e-05
4.57632e-05
2.31152e-05
4.4744e-05
1.93429e-05
4.52851e-05
3.63048e-05
2.01783e-05
1.68649e-05
1.90819e-05
2.52174e-05
3.9163e-05
3.13044e-05
1.28172e-05
1.4241e-05
4.33033e-05
1.20677e-05
1.20679e-05
1.36796e-05
1.54449e-05
1.91201e-05
2.05232e-05
3.43597e-05
3.15657e-05
4.33721e-05
1.21815e-05
1.21818e-05
3.72281e-05
1.68471e-05
3.12119e-05
1.52507e-05
1.51126e-05
1.99041e-05
3.16382e-05
3.27673e-05
3.49253e-05
3.20026e-05
3.16389e-05
6.8435e-06
5.10955e-05
8.76108e-06
8.44526e-06
4.12498e-05
4.09598e-05
8.74892e-06
6.08618e-06
8.60618e-06
3.8098e-05
SCALARS rr_T' float
LOOKUP_TABLE default
0.000209753
0.00047785
0.000381629
0.000498802
0.0002608
0.000405044
0.000207398
0.000496035
0.000426524
0.000537003
0.000190361
0.000497555
0.000437861
0.000462434
0.000541765
0.000454804
0.000391144
0.000442206
0.000396122
0.000387263
0.00043563
7.73372e-05
0.000446345
0.000411372
0.000372892
0.000430157
0.000176349
0.000377848
0.000296571
0.000349035
0.000386825
0.00030658
0.000195354
0.000261534
0.000257044
0.000262124
0.000339331
0.000257569
0.000386431
0.000219579
0.000249278
0.000299059
0.000299091
0.000424537
0.000245107
0.000270406
0.000372774
0.000377487
0.000353738
0.000338647
0.000347731
0.000269644
0.00041859
0.000346481
0.000385378
0.000177801
0.00027445
0.000349021
0.000274441
0.000422174
0.00049931
0.000489346
0.000173435
0.000345027
0.000468704
0.000442353
0.000482982
0.000417796
0.000384743
0.000548424
0.000454153
0.000449204
0.000307999
0.000358059
0.000379283
0.000201655
0.00039049
0.00043825
0.000421313
0.00029756
0.000268543
0.000294363
0.000557311
0.000268918
0.00036258
0.000134678
0.000436472
0.000364743
0.00025957
3.8058e-05
0.000300231
4.13921e-05
0.000331342
0.000317541
0.000284139
0.000259167
0.000246638
0.000471459
0.00039078
0.000376204
0.000319639
0.000306657
0.000258029
0.00044654
0.000453931
0.000408771
0.000359484
0.000364688
0.000273905
0.000544689
0.000350034
0.000184881
0.000247084
0.000488708
0.000457822
0.000334598
0.000318254
0.000204948
0.000330098
0.000333275
0.000289877
0.000528111
0.000544598
0.000467788
0.000514647
0.000403764
0.000228397
0.00050903
0.00022338
0.000288126
0.000237233
0.000485882
0.000474576
0.00047707
0.000318944
0.00019337
0.000213821
0.000349639
0.000427295
0.000193305
0.00026638
0.000412062
0.000312245
0.000503117
0.00024945
0.000410544
0.000372592
0.000360231
0.00023025
0.000294273
0.000328117
0.000468862
0.000275079
0.000424528
0.000491681
0.000499521
0.000326849
0.000274378
0.000272821
0.000428601
0.000359836
0.000272792
0.000180522
0.000266433
0.000264999
0.000458921
0.000278075
0.000281142
0.000304553
0.000270981
0.000404565
0.000283803
0.000251291
0.000315831
0.000299824
0.000359248
0.000400166
0.000385202
0.000327195
0.000384257
0.000295594
0.000445231
0.000477854
0.000266424
0.000468056
0.000266312
0.000462249
0.000424942
0.000396709
0.000403838
0.000472161
0.000223957
0.000293376
0.000272809
0.000476217
0.00046886
0.000434691
0.000473409
0.000482028
0.000404834
0.000496428
0.000333105
0.000300635
0.000541985
0.000316602
0.000492267
0.000392141
0.000250352
0.000301109
0.000491221
0.000408777
0.000372213
0.000479511
0.000470359
0.000304357
0.000301784
0.00029318
0.00041727
0.000460434
0.000529156
0.000508383
0.00055312
0.000501207
0.000547726
0.000459555
0.000480176
0.000483917
0.000456184
0.000479242
0.000441152
0.000434585
0.000308417
0.000414104
0.00048452
0.000336577
0.000493625
0.000453468
0.000525316
0.000316073
0.000499577
0.000477564
0.000310391
0.00042786
0.000308296
0.00048079
0.00043893
0.000323164
0.000304173
0.000263084
0.000302631
0.000481449
0.000220926
0.00037109
0.000303044
0.000340002
0.000500047
0.000484023
0.000151784
0.000485783
0.000264615
0.000286863
0.000497319
0.000404269
0.000290243
0.000554862
0.000315649
0.000151785
0.000293339
0.000431657
0.000538824
0.000408518
0.000480583
0.000450091
0.000236253
0.000231575
0.000198083
0.000227418
0.000321996
0.000246286
0.000396752
0.000248311
0.000427261
0.00030514
0.000293783
0.000343615
0.000319522
0.000424411
0.000306393
0.000315303
0.000139137
0.000317637
0.000459446
0.000459773
0.000416439
0.000305803
0.00019911
0.000578125
0.000388453
0.000324422
0.000299087
0.000297807
0.00030848
0.000375837
0.000302954
0.000217002
0.000298981
0.000205097
0.000370371
0.000305029
0.000129684
0.000287295
0.000339682
0.00030504
0.000469356
0.000316772
0.000408487
0.000156709
0.000327882
0.000313209
0.000273516
0.000294035
0.000346967
0.000326564
0.0003415
0.000290434
0.000295003
0.00031857
0.000425843
0.000300411
0.000425591
0.000384189
0.000303201
0.000311657
0.000314644
0.000348006
0.000314125
0.000294129
0.000334234
0.000350491
0.00041378
0.000314578
0.000312547
0.000452454
0.000446117
0.000300639
0.000303266
0.000135477
0.000366393
0.000254261
0.000343912
0.000152152
0.000157942
0.000141147
0.000143458
0.000152192
0.000160326
0.000165222
0.000385827
0.000285515
0.00028808
0.000329364
0.000320846
0.000316843
0.000335137
0.000310071
0.000317134
0.000322411
0.000315668
0.00038758
0.000287015
0.000398397
0.000310001
0.000299261
0.000316067
0.000337223
0.00035238
0.0003283
0.000375976
0.000351262
0.000325735
0.000234904
0.000327615
0.000320353
0.000344914
0.00033044
0.000313106
0.000297766
0.000327996
0.000342122
0.000464425
0.000306751
0.000451534
0.00047068
0.000322314
0.000450942
0.000345935
0.000277118
0.000377469
0.000330857
0.000238263
0.000209315
0.000372668
0.00039692
0.000336027
0.000279344
0.000336053
0.000159361
0.000332229
0.000311728
0.00015919
6.09928e-05
6.67207e-05
0.000287783
0.000306878
0.000356414
0.000342621
3.13576e-05
3.27655e-05
0.000339304
0.000342844
0.000324537
0.00011962
0.00028715
0.000333809
0.000340375
0.000293609
0.000259151
0.000124569
0.000491597
0.000308802
0.000377307
0.000383206
0.000275394
0.000348538
0.000269261
0.000297118
0.000147651
0.000222811
0.000348952
0.000351108
0.000301765
0.000316944
0.000327064
0.000344858
0.00032985
0.000162636
0.000289417
0.000326311
0.000308419
0.000462829
0.000162604
0.000250504
0.000258026
0.000244527
0.000158972
0.000158983
0.000280136
0.000226202
0.000323508
0.000174051
0.000189845
6.19859e-05
6.19856e-05
0.000129822
0.000206109
0.00013886
0.000275641
0.000298115
0.000318152
0.00035848
0.000325157
0.000301041
0.000237015
0.000146672
0.000297592
0.000308306
0.00029849
0.000164821
0.000152312
0.000118652
0.000298069
0.0003041
0.000244374
0.000276009
0.000254693
0.000233204
0.000312165
0.000233184
0.00027552
0.000265639
0.000162833
0.000201035
0.000186953
0.000330091
0.000130557
0.000137537
0.00013455
0.000311735
0.000124311
0.00012175
0.0002169
0.000113553
0.000252398
0.00025278
0.000116563
0.000274879
0.000129386
0.000128619
0.0001449
0.000122713
0.000120479
0.000179771
0.000143205
0.000130138
0.000123093
0.000251675
0.000287251
0.000135492
0.000277787
0.000111631
0.000281797
0.000223887
0.000116627
9.87493e-05
0.000110173
0.000146179
0.000242004
0.000199227
8.33444e-05
9.25125e-05
0.000269786
7.84541e-05
7.84533e-05
8.88973e-05
9.97842e-05
0.00011279
0.000131252
0.000217036
0.000200895
0.000269974
7.8823e-05
7.88224e-05
0.000237264
9.75847e-05
0.000192353
8.84261e-05
8.89559e-05
0.000117207
0.000203426
0.000210645
0.000224409
0.000205664
0.000203421
4.44412e-05
0.000328367
5.66892e-05
5.49251e-05
0.000265264
0.000263423
5.69181e-05
3.95335e-05
5.5704e-05
0.000244685
SCALARS rr_uec(SIM,_S_ext) float
LOOKUP_TABLE default
0.013396
0.0305209
0.0243748
0.0318591
0.0166577
0.0258703
0.0132456
0.0316821
0.0272421
0.0342989
0.012158
0.0317791
0.0279664
0.0295361
0.0346034
0.0290485
0.0249829
0.0282441
0.0253003
0.0247347
0.0278237
0.00493973
0.0285083
0.0262745
0.0238168
0.0274745
0.011263
0.0241334
0.0189417
0.0222936
0.0247067
0.0195809
0.0124767
0.0167047
0.0164179
0.0167424
0.0216739
0.0164514
0.0246815
0.0140239
0.0159211
0.0191016
0.0191037
0.0271154
0.0156546
0.0172705
0.0238091
0.0241101
0.0225934
0.0216289
0.0222091
0.0172219
0.0267361
0.0221294
0.0246147
0.0113557
0.0175296
0.0222916
0.0175291
0.0269645
0.0318916
0.0312551
0.0110768
0.0220372
0.0299367
0.0282535
0.0308487
0.026685
0.0245737
0.0350286
0.0290075
0.0286914
0.0196715
0.0228696
0.024225
0.0128792
0.0249411
0.0279914
0.0269096
0.019005
0.0171513
0.0188014
0.0355962
0.0171753
0.0231575
0.0086016
0.0278777
0.0232965
0.0165783
0.00243086
0.0191755
0.00264381
0.0211633
0.0202816
0.0181476
0.0165527
0.0157523
0.0301125
0.0249596
0.0240283
0.0204152
0.0195858
0.0164799
0.028521
0.028993
0.0261086
0.0229607
0.0232928
0.0174938
0.0347901
0.0223568
0.011808
0.0157808
0.0312143
0.0292415
0.0213704
0.0203274
0.0130896
0.0210839
0.021286
0.0185144
0.0337313
0.0347842
0.0298782
0.0328712
0.025789
0.0145881
0.0325122
0.0142668
0.0184024
0.0151525
0.0310339
0.0303118
0.0304711
0.0203705
0.0123509
0.0136562
0.0223316
0.0272919
0.0123467
0.0170134
0.0263187
0.019943
0.0321346
0.0159318
0.0262219
0.0237977
0.0230081
0.0147061
0.0187951
0.0209569
0.0299468
0.017569
0.0271148
0.0314042
0.031905
0.0208761
0.0175242
0.0174247
0.027375
0.0229828
0.017423
0.0115296
0.0170168
0.0169252
0.0293118
0.0177603
0.0179562
0.0194515
0.0173072
0.0258402
0.0181262
0.0160497
0.0201724
0.0191495
0.0229456
0.0255592
0.0246031
0.0208984
0.0245428
0.0188792
0.0284374
0.030521
0.0170162
0.0298951
0.017009
0.0295244
0.0271415
0.0253383
0.0257936
0.0301573
0.0143037
0.0187377
0.017424
0.0304166
0.0299465
0.0277642
0.0302373
0.0307878
0.0258571
0.0317075
0.0212754
0.0192014
0.0346173
0.0202209
0.0314418
0.0250464
0.0159897
0.0192322
0.0313749
0.0261091
0.0237735
0.0306268
0.0300424
0.0194391
0.0192751
0.0187252
0.0266515
0.0294086
0.033798
0.0324712
0.0353286
0.0320129
0.0349841
0.0293522
0.0306696
0.0309086
0.0291372
0.0306099
0.0281771
0.0277576
0.0196985
0.0264492
0.0309471
0.0214972
0.0315286
0.0289637
0.0335527
0.0201874
0.0319087
0.0305025
0.0198245
0.027328
0.0196907
0.0307086
0.0280352
0.0206403
0.0194274
0.0168027
0.0193287
0.0307508
0.0141101
0.0237017
0.0193552
0.0217159
0.0319387
0.0309153
0.00969482
0.0310277
0.0169003
0.0183218
0.0317645
0.0258209
0.0185377
0.0354399
0.0201604
0.00969484
0.0187354
0.0275706
0.0344153
0.0260924
0.0306955
0.0287477
0.0150899
0.0147908
0.0126512
0.0145247
0.0205663
0.0157303
0.0253408
0.0158595
0.0272897
0.0194896
0.0187638
0.021947
0.0204077
0.0271074
0.0195692
0.0201382
0.00888702
0.0202879
0.0293456
0.0293665
0.0265984
0.0195315
0.0127175
0.0369255
0.0248105
0.0207207
0.0191025
0.0190214
0.0197025
0.0240052
0.0193495
0.0138596
0.0190958
0.0130991
0.023656
0.0194821
0.00828322
0.0183494
0.0216959
0.0194827
0.0299783
0.020232
0.0260902
0.0100085
0.020942
0.0200045
0.0174699
0.0187799
0.0221608
0.0208579
0.021812
0.0185498
0.0188417
0.020347
0.027199
0.0191871
0.0271827
0.0245383
0.0193659
0.0199053
0.0200962
0.0222272
0.0200631
0.0187858
0.0213474
0.0223863
0.0264284
0.020092
0.0199622
0.0288985
0.0284938
0.0192016
0.01937
0.00865261
0.0234016
0.0162392
0.0219657
0.00971768
0.0100875
0.00901479
0.00916239
0.00972028
0.0102397
0.0105524
0.0246432
0.0182364
0.0183999
0.0210365
0.0204924
0.0202367
0.0214054
0.0198041
0.0202553
0.020593
0.0201616
0.0247552
0.0183314
0.0254463
0.0197999
0.0191138
0.0201871
0.0215388
0.0225066
0.0209685
0.0240137
0.0224351
0.0208047
0.0150031
0.0209248
0.0204611
0.0220301
0.0211052
0.019998
0.0190183
0.0209491
0.0218514
0.0296632
0.0195922
0.0288398
0.0300626
0.0205862
0.0288019
0.022095
0.0176995
0.0241094
0.0211318
0.0152183
0.0133686
0.0238027
0.0253517
0.0214622
0.0178417
0.021464
0.010178
0.0212196
0.0199101
0.010167
0.00389574
0.0042616
0.0183808
0.0196003
0.0227642
0.0218832
0.00200289
0.00209282
0.0216716
0.0218976
0.0207284
0.00763979
0.0183403
0.0213208
0.0217397
0.0187528
0.016552
0.00795597
0.0313988
0.0197232
0.0240987
0.0244755
0.0175894
0.0222611
0.0171977
0.0189769
0.00943011
0.0142305
0.0222876
0.0224254
0.0192738
0.0202432
0.0208896
0.0220261
0.0210676
0.0103872
0.0184854
0.0208415
0.019699
0.0295613
0.0103852
0.0159998
0.0164803
0.0156183
0.010154
0.0101547
0.0178927
0.0144475
0.0206626
0.0111163
0.0121259
0.00395921
0.00395919
0.00829144
0.0131646
0.00886928
0.0176053
0.019041
0.0203206
0.0228965
0.0207682
0.0192278
0.0151383
0.00936765
0.0190073
0.0196917
0.0190649
0.0105267
0.00972851
0.0075779
0.0190381
0.0194231
0.015608
0.0176288
0.0162674
0.0148951
0.0199382
0.0148938
0.0175976
0.0169666
0.0104005
0.0128405
0.0119403
0.0210833
0.00833812
0.00878388
0.00859317
0.0199108
0.00793942
0.00777568
0.0138534
0.00725218
0.0161211
0.0161455
0.0074444
0.0175566
0.00826349
0.00821432
0.0092544
0.00783712
0.0076947
0.0114823
0.00914621
0.00831162
0.00786147
0.0160746
0.0183471
0.00865348
0.0177424
0.00712947
0.0179986
0.0142997
0.00744845
0.00630686
0.00703628
0.00933618
0.0154569
0.0127249
0.00532344
0.00590903
0.0172315
0.00501108
0.00501104
0.00567812
0.00637348
0.0072037
0.00838336
0.0138624
0.0128315
0.0172435
0.00503463
0.00503459
0.0151544
0.00623254
0.0122857
0.00564754
0.0056813
0.00748568
0.0129934
0.0134544
0.0143336
0.0131363
0.012993
0.00283858
0.0209736
0.00362088
0.00350821
0.0169431
0.0168255
0.0036355
0.00252511
0.00355796
0.0156286
SCALARS rr_uec(PEX,_P_ext) float
LOOKUP_TABLE default
-0.0609478
-0.138905
-0.110931
-0.144995
-0.075819
-0.117737
-0.0602633
-0.14419
-0.123977
-0.1561
-0.0553151
-0.144631
-0.127278
-0.134424
-0.157495
-0.132202
-0.113703
-0.128542
-0.115138
-0.112567
-0.126626
-0.0224863
-0.129741
-0.119575
-0.10839
-0.12504
-0.0512461
-0.109832
-0.0861926
-0.101476
-0.112443
-0.0891016
-0.0567683
-0.0760349
-0.0747303
-0.0762063
-0.0986553
-0.0748825
-0.112328
-0.0638081
-0.0724478
-0.0869472
-0.0869563
-0.123405
-0.0712293
-0.0785885
-0.108352
-0.109724
-0.102824
-0.0984186
-0.10106
-0.0783698
-0.121691
-0.100702
-0.112035
-0.0516702
-0.0797909
-0.10144
-0.0797882
-0.122715
-0.145146
-0.142254
-0.0504004
-0.1003
-0.136253
-0.128589
-0.1404
-0.121447
-0.111835
-0.159421
-0.132029
-0.13059
-0.0895138
-0.104086
-0.110249
-0.0585984
-0.113518
-0.127396
-0.122469
-0.0864843
-0.0780439
-0.0855772
-0.162009
-0.0781521
-0.105378
-0.0391381
-0.126873
-0.106029
-0.0754322
-0.0110654
-0.0872599
-0.0120348
-0.096324
-0.0923065
-0.0825829
-0.0753206
-0.071678
-0.137047
-0.113603
-0.109355
-0.0929047
-0.0891255
-0.0749876
-0.129802
-0.131951
-0.118824
-0.104502
-0.106007
-0.0796013
-0.158336
-0.101746
-0.053728
-0.0718057
-0.142059
-0.133082
-0.0972484
-0.0925259
-0.059562
-0.0959691
-0.0968641
-0.0842556
-0.153525
-0.158308
-0.135984
-0.149603
-0.117377
-0.0664008
-0.147968
-0.0649187
-0.0837419
-0.0689672
-0.14124
-0.137958
-0.138678
-0.0926966
-0.0562184
-0.0621392
-0.101634
-0.124214
-0.0561994
-0.07742
-0.119781
-0.0907574
-0.14625
-0.0724948
-0.119339
-0.108307
-0.104711
-0.0669282
-0.0855311
-0.0953735
-0.136293
-0.0799464
-0.123402
-0.142926
-0.145204
-0.0950118
-0.0797448
-0.0792923
-0.124586
-0.104593
-0.079282
-0.0524611
-0.0774328
-0.0770189
-0.133402
-0.0808192
-0.0817107
-0.0885124
-0.0787577
-0.117611
-0.0824851
-0.073032
-0.0918092
-0.0871416
-0.104433
-0.116332
-0.111972
-0.0951206
-0.111698
-0.0859085
-0.129423
-0.138906
-0.0774329
-0.136061
-0.0773973
-0.134374
-0.12353
-0.115327
-0.117391
-0.137255
-0.0650868
-0.0852675
-0.0792867
-0.13843
-0.136289
-0.126358
-0.137619
-0.14012
-0.117682
-0.144306
-0.0968215
-0.0873782
-0.157553
-0.0920141
-0.143101
-0.113992
-0.0727612
-0.0875334
-0.142792
-0.118833
-0.108198
-0.139387
-0.136732
-0.088462
-0.0877255
-0.0852118
-0.1213
-0.133844
-0.153821
-0.147782
-0.160786
-0.145696
-0.159218
-0.133587
-0.13959
-0.140677
-0.132615
-0.139318
-0.128249
-0.12634
-0.0896419
-0.120375
-0.140843
-0.0978324
-0.1435
-0.131826
-0.152702
-0.0918654
-0.14522
-0.138822
-0.0902161
-0.124381
-0.0896068
-0.139765
-0.12759
-0.0939286
-0.0884071
-0.0764575
-0.0879511
-0.139956
-0.0642051
-0.107869
-0.0880787
-0.0988261
-0.145356
-0.140701
-0.0441292
-0.141212
-0.0769014
-0.0833757
-0.144563
-0.117514
-0.0843579
-0.161293
-0.091747
-0.0441293
-0.085258
-0.125479
-0.156633
-0.118749
-0.139708
-0.130839
-0.0686824
-0.0673145
-0.0575649
-0.0660887
-0.0936081
-0.0715886
-0.115329
-0.0721721
-0.124206
-0.0887016
-0.0853872
-0.099886
-0.0928708
-0.12337
-0.089055
-0.0916417
-0.0404533
-0.0923403
-0.133564
-0.133659
-0.121054
-0.0888836
-0.0578863
-0.168057
-0.112911
-0.0942955
-0.0869305
-0.0865761
-0.0896606
-0.109259
-0.0880549
-0.0630619
-0.0869007
-0.0596049
-0.107666
-0.0886575
-0.0377048
-0.0835036
-0.0987444
-0.0886602
-0.13644
-0.0920712
-0.118738
-0.0455394
-0.0953074
-0.091035
-0.0795144
-0.0854618
-0.100853
-0.0949304
-0.0992701
-0.0844159
-0.0857445
-0.0925959
-0.123792
-0.0873164
-0.123712
-0.111676
-0.088145
-0.090585
-0.0914547
-0.101155
-0.0913041
-0.08549
-0.0971492
-0.101889
-0.120279
-0.0914356
-0.0908423
-0.131522
-0.12968
-0.0873823
-0.0881639
-0.0393662
-0.106502
-0.0738935
-0.0999655
-0.0442028
-0.0458848
-0.0410056
-0.0416769
-0.0442146
-0.0465772
-0.0479997
-0.11216
-0.0830055
-0.0837396
-0.0957361
-0.093258
-0.0920942
-0.0974196
-0.0901255
-0.0921785
-0.093732
-0.0917527
-0.112671
-0.0834186
-0.115816
-0.0901102
-0.0869859
-0.0918684
-0.0980346
-0.102429
-0.0954269
-0.109288
-0.102101
-0.0946786
-0.0682734
-0.0952276
-0.0931193
-0.100268
-0.096047
-0.0910073
-0.0865496
-0.0953381
-0.0994468
-0.135002
-0.0891614
-0.131255
-0.136815
-0.0936867
-0.131082
-0.100555
-0.0805476
-0.109728
-0.0961704
-0.0692682
-0.060828
-0.108334
-0.115386
-0.0976754
-0.0811971
-0.0976881
-0.0463067
-0.0965713
-0.0906101
-0.0462605
-0.0177332
-0.0193986
-0.0836523
-0.0891981
-0.1036
-0.0995875
-0.00911757
-0.00952694
-0.0986303
-0.0996592
-0.0943377
-0.0347585
-0.0834633
-0.0970373
-0.0989362
-0.0853426
-0.075327
-0.0361966
-0.142905
-0.089757
-0.109675
-0.111389
-0.0800481
-0.101309
-0.0782655
-0.0863627
-0.0429066
-0.0647531
-0.10143
-0.102059
-0.0877145
-0.092125
-0.0950679
-0.100241
-0.0958779
-0.0472627
-0.0841353
-0.0948467
-0.089655
-0.134542
-0.0472534
-0.0728157
-0.0750021
-0.0710876
-0.0462201
-0.0462232
-0.0814385
-0.0657479
-0.0940366
-0.0505797
-0.0551958
-0.0180229
-0.0180229
-0.0377228
-0.0599218
-0.0403712
-0.0801223
-0.0866645
-0.0924809
-0.104206
-0.0945218
-0.0875122
-0.0688964
-0.0426195
-0.0865038
-0.0896217
-0.0867702
-0.0478949
-0.0442817
-0.0344799
-0.0866477
-0.0883982
-0.0710282
-0.0802305
-0.074035
-0.0677961
-0.0907416
-0.0677902
-0.0800875
-0.0772204
-0.0473405
-0.0584473
-0.0543291
-0.0959539
-0.0379356
-0.039964
-0.0390955
-0.0906196
-0.0361216
-0.035376
-0.0630456
-0.0329947
-0.0733774
-0.0734884
-0.0338695
-0.0798997
-0.0375986
-0.0373724
-0.0421069
-0.0356562
-0.0350103
-0.0522645
-0.0416152
-0.037815
-0.0357669
-0.0731577
-0.0835042
-0.0393725
-0.0807479
-0.032436
-0.0819147
-0.0650779
-0.0338878
-0.0286954
-0.0320123
-0.0424759
-0.0703448
-0.0579197
-0.024233
-0.0268985
-0.078424
-0.022811
-0.0228108
-0.0258474
-0.029012
-0.032777
-0.0381591
-0.0630949
-0.0584046
-0.0784781
-0.0229177
-0.0229176
-0.0689784
-0.0283554
-0.0559116
-0.0256942
-0.0258501
-0.0340601
-0.0591441
-0.0612428
-0.0652444
-0.0597944
-0.0591426
-0.0129215
-0.0954689
-0.0164823
-0.0159699
-0.0771228
-0.0765877
-0.0165494
-0.0114946
-0.0161959
-0.0711392
SCALARS cell_type float
LOOKUP_TABLE default
0
0
0
0
0
0
0
0
0
0
0
0
0
0
0
0
0
0
0
0
0
1
0
0
0
0
0
0
0
0
0
0
0
0
0
0
0
0
0
0
0
0
0
0
0
0
0
0
0
0
0
0
0
0
0
0
0
0
0
0
0
0
0
0
0
0
0
0
0
0
0
0
0
0
0
0
0
0
0
0
0
0
0
0
0
0
0
0
0
0
0
0
0
0
0
0
0
0
0
0
0
0
0
0
0
0
0
0
0
0
0
0
0
0
0
0
0
0
0
0
0
0
0
0
0
0
0
0
0
0
0
0
0
0
0
0
0
0
0
0
0
0
0
0
0
0
0
0
0
0
0
0
0
0
0
0
0
0
0
0
0
0
0
0
0
0
0
0
0
0
0
0
0
0
0
0
0
0
0
0
0
0
0
0
0
0
0
0
0
0
0
0
0
0
0
0
0
0
0
0
0
0
0
0
0
0
0
0
0
0
0
0
0
0
0
0
0
0
0
0
0
0
0
0
0
0
0
0
0
0
0
0
0
0
0
0
0
0
0
0
0
0
0
0
0
0
0
0
0
0
0
0
0
0
0
0
0
0
0
0
0
0
0
0
0
0
0
0
0
0
0
0
0
0
0
0
0
0
0
0
0
0
0
0
0
0
0
0
0
0
0
0
0
0
0
0
0
0
0
0
0
0
0
0
0
0
0
0
0
0
0
0
0
0
0
0
0
0
0
0
0
0
0
0
0
0
0
0
0
0
0
0
0
0
0
0
0
0
0
0
0
0
0
0
0
0
0
0
0
0
2
2
2
2
2
2
2
0
0
0
0
0
0
0
0
0
0
0
0
0
0
0
0
0
0
0
0
0
0
0
0
0
0
0
0
0
0
0
0
0
0
0
0
0
0
0
0
0
0
0
0
0
0
0
0
0
0
0
0
0
0
0
0
0
0
0
1
1
0
0
0
0
0
0
0
0
0
0
0
0
0
0
0
0
0
0
0
0
0
0
0
0
0
0
0
0
0
0
0
0
0
0
0
0
0
0
0
0
0
0
0
1
1
0
0
0
0
0
0
0
0
0
0
0
0
0
0
0
0
0
0
0
0
0
0
0
0
0
0
0
0
0
0
0
0
0
0
0
0
0
0
0
0
0
0
0
0
0
0
0
0
0
0
0
0
0
0
0
0
0
0
0
0
0
0
0
0
0
1
1
0
0
0
0
0
0
0
0
0
0
0
0
0
0
0
0
0
0
0
0
0
0
0
0
0
0
0
0
0
0
0
0
0
TENSORS Lagrange_strain float
0.0305674 -0.00319827 5.86849e-08
-0.00319827 0.0133889 2.73047e-07
5.86849e-08 2.73047e-07 0.00740163

0.0291919 -0.00280082 -2.75983e-07
-0.00280082 0.0335531 -9.00274e-08
-2.75983e-07 -9.00274e-08 0.0331627

0.0300203 0.00367885 -3.59607e-08
0.00367885 0.0311685 4.79021e-08
-3.59607e-08 4.79021e-08 0.0304671

0.0291611 -0.00392475 8.42112e-08
-0.00392475 0.0327982 3.14856e-08
8.42112e-08 3.14856e-08 0.0330876

0.0353665 0.00266898 -2.46745e-08
0.00266898 0.0380855 8.55791e-08
-2.46745e-08 8.55791e-08 0.0352916

0.0277345 -0.00236709 1.66797e-07
-0.00236709 0.0333831 1.44146e-07
1.66797e-07 1.44146e-07 0.0304382

0.0302614 0.00339408 6.58837e-08
0.00339408 0.0134944 -3.69456e-08
6.58837e-08 -3.69456e-08 0.00746302

0.0317542 0.00393968 -1.69818e-07
0.00393968 0.031199 1.83515e-08
-1.69818e-07 1.83515e-08 0.0315599

0.0332408 0.000715611 4.40233e-08
0.000715611 0.0262207 -1.01289e-09
4.40233e-08 -1.01289e-09 0.0281414

0.0354664 -0.000991247 2.16741e-07
-0.000991247 0.0275504 -4.0178e-08
2.16741e-07 -4.0178e-08 0.0327203

0.0280606 0.00205108 1.23636e-07
0.00205108 0.0138087 2.8589e-07
1.23636e-07 2.8589e-07 0.0117532

0.0279524 -0.00176569 1.06948e-07
-0.00176569 0.0350053 -4.61267e-08
1.06948e-07 -4.61267e-08 0.0315485

0.0311205 0.00365716 -1.17336e-07
0.00365716 0.0312997 -2.44473e-08
-1.17336e-07 -2.44473e-08 0.0310788

0.0290685 -0.00187997 1.55804e-07
-0.00187997 0.0347983 9.51588e-08
1.55804e-07 9.51588e-08 0.0325457

0.034631 0.00441842 5.03801e-08
0.00441842 0.0343619 -3.50825e-08
5.03801e-08 -3.50825e-08 0.034884

0.0343264 7.3033e-05 5.91365e-08
7.3033e-05 0.0272852 2.07005e-07
5.91365e-08 2.07005e-07 0.0307776

0.0286923 -0.00235372 1.51887e-07
-0.00235372 0.0360125 8.12555e-08
1.51887e-07 8.12555e-08 0.0334494

0.0345724 -0.000353271 -2.20481e-08
-0.000353271 0.0273556 2.58963e-07
-2.20481e-08 2.58963e-07 0.0319763

0.0269193 0.00347804 3.80477e-08
0.00347804 0.0309442 -1.25326e-07
3.80477e-08 -1.25326e-07 0.0275759

0.0338834 -0.00055032 -2.05872e-07
-0.00055032 0.0264086 -1.75904e-07
-2.05872e-07 -1.75904e-07 0.0301335

0.0266213 0.00113526 -1.44561e-07
0.00113526 0.0340327 1.18941e-07
-1.44561e-07 1.18941e-07 0.0291492

0.0452949 0.000852713 1.52326e-07
0.000852713 0.0452644 6.43051e-08
1.52326e-07 6.43051e-08 0.0366376

0.0336741 0.000247702 5.56458e-08
0.000247702 0.0263147 -2.23358e-09
5.56458e-08 -2.23358e-09 0.0298044

0.0293086 -0.0036319 -6.83037e-09
-0.0036319 0.0311349 1.34064e-08
-6.83037e-09 1.34064e-08 0.0300459

0.0337785 0.000900034 1.30698e-07
0.000900034 0.0264957 3.3254e-08
1.30698e-07 3.3254e-08 0.0300804

0.0285453 0.00250767 8.40195e-08
0.00250767 0.0338925 5.65007e-08
8.40195e-08 5.65007e-08 0.0322862

0.0286289 0.000526711 1.60731e-07
0.000526711 0.0176894 2.09597e-07
1.60731e-07 2.09597e-07 0.013171

0.0309134 0.0040346 -1.78596e-07
0.0040346 0.0306459 1.12167e-07
-1.78596e-07 1.12167e-07 0.03061

0.0259241 0.00477622 6.1911e-08
0.00477622 0.0257325 1.48431e-07
6.1911e-08 1.48431e-07 0.0211275

0.0415287 0.00136978 7.64823e-08
0.00136978 0.0383502 6.04181e-08
7.64823e-08 6.04181e-08 0.0361346

0.0344096 0.00187121 -1.66013e-08
0.00187121 0.0279517 -2.30053e-07
-1.66013e-08 -2.30053e-07 0.0309992

0.0217592 -0.00228775 2.35556e-08
-0.00228775 0.0299916 1.37059e-07
2.35556e-08 1.37059e-07 0.0211244

0.0228629 -0.00535227 1.83168e-07
-0.00535227 0.0234724 -2.14114e-07
1.83168e-07 -2.14114e-07 0.0125787

0.0348322 0.000800646 8.41303e-08
0.000800646 0.0422554 2.03263e-07
8.41303e-08 2.03263e-07 0.0357857

0.037453 -0.000662019 -1.69228e-07
-0.000662019 0.0412025 -8.74011e-08
-1.69228e-07 -8.74011e-08 0.0359003

0.0410745 0.00281348 1.36113e-07
0.00281348 0.0359856 -1.15137e-07
1.36113e-07 -1.15137e-07 0.0357659

0.0372535 0.000705191 1.66396e-08
0.000705191 0.0432145 -5.04347e-08
1.66396e-08 -5.04347e-08 0.036141

0.0402615 -0.00121848 -1.35125e-07
-0.00121848 0.0378296 3.71413e-08
-1.35125e-07 3.71413e-08 0.0358076

0.0312148 -0.00367784 1.92636e-07
-0.00367784 0.0311223 2.54836e-08
1.92636e-07 2.54836e-08 0.0309247

0.0227469 0.00527887 8.03051e-08
0.00527887 0.0237084 1.40195e-07
8.03051e-08 1.40195e-07 0.0125807

0.0297602 -0.00231564 -6.54308e-08
-0.00231564 0.0220305 4.59246e-08
-6.54308e-08 4.59246e-08 0.0208742

0.0376188 -0.000522936 -1.72411e-07
-0.000522936 0.0430643 -2.55385e-07
-1.72411e-07 -2.55385e-07 0.0361438

0.0412407 0.00263438 6.16775e-08
0.00263438 0.0394148 -8.64583e-08
6.16775e-08 -8.64583e-08 0.0361262

0.0342999 -0.00161717 -2.23514e-07
-0.00161717 0.0279937 -1.02355e-07
-2.23514e-07 -1.02355e-07 0.0310832

0.023105 -0.0055256 3.03971e-08
-0.0055256 0.0235621 -4.726e-08
3.03971e-08 -4.726e-08 0.0162156

0.0299424 -0.00233228 1.12514e-07
-0.00233228 0.0221546 1.31217e-07
1.12514e-07 1.31217e-07 0.0213436

0.0258929 0.0022274 -2.17458e-08
0.0022274 0.0326534 -1.38102e-07
-2.17458e-08 -1.38102e-07 0.0279146

0.0275499 0.0025288 -1.10378e-07
0.0025288 0.0323729 9.65924e-08
-1.10378e-07 9.65924e-08 0.0284901

0.0341743 -0.00214071 -5.38776e-09
-0.00214071 0.0271066 1.06372e-07
-5.38776e-09 1.06372e-07 0.0304714

0.022902 -0.0043922 -1.22112e-08
-0.0043922 0.0272483 -8.85164e-08
-1.22112e-08 -8.85164e-08 0.0198498

0.029493 0.00247147 -1.14584e-07
0.00247147 0.0218337 -1.92704e-07
-1.14584e-07 -1.92704e-07 0.0202804

0.0298717 -0.00327078 2.23432e-08
-0.00327078 0.0245129 -7.85133e-08
2.23432e-08 -7.85133e-08 0.0230475

0.0344772 0.00257772 -1.97256e-07
0.00257772 0.0382028 -4.48866e-08
-1.97256e-07 -4.48866e-08 0.0352703

0.0286884 0.00383834 -1.49028e-07
0.00383834 0.0257791 1.54164e-07
-1.49028e-07 1.54164e-07 0.0231161

0.0349271 -0.00291587 -7.41049e-08
-0.00291587 0.0374319 4.6552e-08
-7.41049e-08 4.6552e-08 0.0351887

0.0255797 -0.00545524 8.60023e-08
-0.00545524 0.0229018 2.16327e-07
8.60023e-08 2.16327e-07 0.0158191

0.0373464 0.00074613 -1.01875e-07
0.00074613 0.0414128 8.79508e-08
-1.01875e-07 8.79508e-08 0.0359208

0.0231671 -0.000693231 -3.35671e-08
-0.000693231 0.0313123 3.90095e-08
-3.35671e-08 3.90095e-08 0.0231022

0.0410292 0.00137964 -7.90916e-08
0.00137964 0.0377064 1.72978e-07
-7.90916e-08 1.72978e-07 0.0358989

0.0276749 0.00280504 -1.46047e-07
0.00280504 0.0327483 -3.04116e-08
-1.46047e-07 -3.04116e-08 0.0302304

0.0361386 0.000784525 3.47387e-08
0.000784525 0.0281308 2.55165e-07
3.47387e-08 2.55165e-07 0.0336725

0.0362539 0.00153404 -2.87872e-09
0.00153404 0.0316925 -1.1619e-07
-2.87872e-09 -1.1619e-07 0.0342201

0.0286365 0.00405684 1.3238e-08
0.00405684 0.0198969 -2.37073e-07
1.3238e-08 -2.37073e-07 0.0137589

0.0309719 -0.000783631 -1.67716e-07
-0.000783631 0.0370841 -1.17901e-07
-1.67716e-07 -1.17901e-07 0.033881

0.0315544 0.00124335 -1.62316e-08
0.00124335 0.0364204 -3.26384e-09
-1.62316e-08 -3.26384e-09 0.0342589

0.0285483 -0.000374985 -7.28717e-08
-0.000374985 0.0369552 1.6936e-08
-7.28717e-08 1.6936e-08 0.03267

0.0296021 0.00307116 -1.31762e-07
0.00307116 0.0347905 8.13081e-08
-1.31762e-07 8.13081e-08 0.0337083

0.034719 0.00112212 -1.34909e-07
0.00112212 0.027838 -2.39153e-07
-1.34909e-07 -2.39153e-07 0.0322079

0.0291868 -0.00369893 -1.90557e-08
-0.00369893 0.0310203 -5.52594e-08
-1.90557e-08 -5.52594e-08 0.0299088

0.035054 -0.000237069 -8.15037e-08
-0.000237069 0.0275792 -4.58814e-08
-8.15037e-08 -4.58814e-08 0.0333925

0.0344518 -0.00254804 -1.54023e-07
-0.00254804 0.0381336 7.44652e-09
-1.54023e-07 7.44652e-09 0.0352604

0.0350102 0.00284944 -1.00351e-07
0.00284944 0.0375695 1.73983e-07
-1.00351e-07 1.73983e-07 0.0352402

0.0218882 -0.00213166 -7.03984e-08
-0.00213166 0.0299213 -1.53668e-07
-7.03984e-08 -1.53668e-07 0.0208508

0.0347007 -0.00369093 1.46723e-07
-0.00369093 0.0319572 1.05475e-08
1.46723e-07 1.05475e-08 0.0330784

0.0292913 -0.0032974 1.68276e-07
-0.0032974 0.032112 2.75219e-07
1.68276e-07 2.75219e-07 0.0304327

0.0267791 -0.00401684 3.43344e-07
-0.00401684 0.017605 2.9714e-08
3.43344e-07 2.9714e-08 0.0127256

0.0324037 0.000418887 2.87943e-07
0.000418887 0.0381044 9.20452e-08
2.87943e-07 9.20452e-08 0.0344053

0.0345367 0.00381742 1.78076e-07
0.00381742 0.0309408 -6.2224e-08
1.78076e-07 -6.2224e-08 0.0326596

0.0283758 0.00258142 -1.349e-07
0.00258142 0.034129 2.00941e-07
-1.349e-07 2.00941e-07 0.0322131

0.0315412 0.00103768 3.698e-08
0.00103768 0.0228434 -1.8235e-07
3.698e-08 -1.8235e-07 0.0240686

0.0270965 -0.00435843 -1.89504e-07
-0.00435843 0.0237363 -6.66694e-08
-1.89504e-07 -6.66694e-08 0.0183231

0.0362598 -0.00140294 1.08273e-07
-0.00140294 0.0387422 1.45064e-07
1.08273e-07 1.45064e-07 0.0354007

0.0315553 0.00317091 4.74802e-08
0.00317091 0.0344009 -3.50126e-08
4.74802e-08 -3.50126e-08 0.0340897

0.0273007 -0.00415588 -1.59201e-07
-0.00415588 0.0221744 2.76094e-07
-1.59201e-07 2.76094e-07 0.0184109

0.0303573 0.00139096 -1.22143e-07
0.00139096 0.02283 -1.78679e-07
-1.22143e-07 -1.78679e-07 0.020954

0.0186017 -0.0026968 1.9874e-08
-0.0026968 0.028928 3.30015e-07
1.9874e-08 3.30015e-07 0.0158926

0.0271993 0.001889 -2.14395e-07
0.001889 0.034319 -4.81182e-08
-2.14395e-07 -4.81182e-08 0.0306539

0.0353814 0.00305675 -3.10165e-08
0.00305675 0.0308194 -1.99241e-07
-3.10165e-08 -1.99241e-07 0.0327531

0.0226474 0.00538571 4.75101e-08
0.00538571 0.024088 1.02472e-07
4.75101e-08 1.02472e-07 0.0161981

0.0459481 0.00223783 -3.98991e-07
0.00223783 0.0417511 2.25272e-07
-3.98991e-07 2.25272e-07 0.0366385

0.0230808 -0.000534266 2.13655e-08
-0.000534266 0.031353 3.99095e-08
2.13655e-08 3.99095e-08 0.0230719

0.0463635 -0.00225609 -5.94115e-07
-0.00225609 0.0412937 -5.89998e-08
-5.94115e-07 -5.89998e-08 0.0365937

0.0370642 -0.00362444 -6.21456e-08
-0.00362444 0.0334906 2.5912e-08
-6.21456e-08 2.5912e-08 0.0346203

0.0351371 0.00361899 -6.2809e-08
0.00361899 0.0300034 -8.15563e-08
-6.2809e-08 -8.15563e-08 0.0324558

0.0299611 -0.00315886 2.08198e-07
-0.00315886 0.02469 -1.75951e-08
2.08198e-07 -1.75951e-08 0.0232854

0.0230119 0.00402956 1.65457e-07
0.00402956 0.0277782 -1.06358e-07
1.65457e-07 -1.06358e-07 0.0203815

0.0210935 -0.00137848 1.36571e-07
-0.00137848 0.0298944 -1.66054e-07
1.36571e-07 -1.66054e-07 0.0182511

0.0287451 0.00288896 -2.37335e-08
0.00288896 0.0342269 2.20844e-07
-2.37335e-08 2.20844e-07 0.032699

0.0370112 0.00223598 -5.67291e-08
0.00223598 0.0334518 4.23511e-08
-5.67291e-08 4.23511e-08 0.0343836

0.0281476 0.00198804 -1.73063e-07
0.00198804 0.0340588 3.63063e-09
-1.73063e-07 3.63063e-09 0.0308647

0.0318819 0.00207295 1.91725e-07
0.00207295 0.0252535 6.01181e-08
1.91725e-07 6.01181e-08 0.0256169

0.023907 -0.00277434 -4.49707e-08
-0.00277434 0.029764 -1.51096e-07
-4.49707e-08 -1.51096e-07 0.021561

0.0278978 -0.00376348 -1.46327e-07
-0.00376348 0.0218148 3.94406e-08
-1.46327e-07 3.94406e-08 0.0180755

0.0293306 -0.00323165 1.00211e-07
-0.00323165 0.0326287 1.64671e-07
1.00211e-07 1.64671e-07 0.0324021

0.0306256 0.00361462 -1.29426e-07
0.00361462 0.0322278 -4.18962e-08
-1.29426e-07 -4.18962e-08 0.0323699

0.0287072 0.00304819 -3.08296e-08
0.00304819 0.0340257 4.20951e-08
-3.08296e-08 4.20951e-08 0.0326294

0.0292061 0.00172521 2.23867e-07
0.00172521 0.0376171 1.25808e-07
2.23867e-07 1.25808e-07 0.0338454

0.0344758 0.00123241 -1.23557e-07
0.00123241 0.027523 -2.29308e-07
-1.23557e-07 -2.29308e-07 0.030674

0.0199602 -0.000605181 -1.21114e-07
-0.000605181 0.0296598 -7.72838e-08
-1.21114e-07 -7.72838e-08 0.0181034

0.0297965 -0.00486293 1.07116e-07
-0.00486293 0.0330481 1.38462e-09
1.07116e-07 1.38462e-09 0.0337409

0.0290807 0.00359985 2.2796e-07
0.00359985 0.0313591 -7.44094e-08
2.2796e-07 -7.44094e-08 0.0302633

0.0181052 0.000282821 -5.05079e-08
0.000282821 0.0293099 -1.24889e-07
-5.05079e-08 -1.24889e-07 0.016878

0.0278427 0.00442361 2.6936e-08
0.00442361 0.0209676 -2.27169e-07
2.6936e-08 -2.27169e-07 0.0174542

0.0291903 -0.0030203 -3.69855e-08
-0.0030203 0.0327023 -1.23467e-07
-3.69855e-08 -1.23467e-07 0.0321845

0.0352419 0.000759826 -1.67284e-07
0.000759826 0.0273378 -1.78078e-07
-1.67284e-07 -1.78078e-07 0.0325519

0.0294261 0.00352007 7.77352e-08
0.00352007 0.0252004 -1.67074e-07
7.77352e-08 -1.67074e-07 0.0231106

0.0396358 0.00171021 -1.14009e-07
0.00171021 0.0390387 -2.28787e-08
-1.14009e-07 -2.28787e-08 0.0359393

0.0283743 0.00312325 -2.13077e-07
0.00312325 0.0224007 -1.16553e-07
-2.13077e-07 -1.16553e-07 0.0182859

0.0394884 -0.00175075 5.67459e-08
-0.00175075 0.039065 2.75639e-08
5.67459e-08 2.75639e-08 0.0359045

0.0232604 0.000103513 1.41985e-07
0.000103513 0.0315167 6.17058e-08
1.41985e-07 6.17058e-08 0.0231189

0.0327574 -0.00028833 1.4974e-07
-0.00028833 0.0246593 1.08571e-07
1.4974e-07 1.08571e-07 0.0269655

0.0380539 -0.00212929 -6.60798e-08
-0.00212929 0.0304629 1.0434e-07
-6.60798e-08 1.0434e-07 0.0347925

0.0292373 0.00320566 -8.22636e-08
0.00320566 0.0332765 9.37315e-08
-8.22636e-08 9.37315e-08 0.033342

0.0289495 -0.00177274 2.52029e-08
-0.00177274 0.0366082 -6.70134e-09
2.52029e-08 -6.70134e-09 0.0334988

0.0365824 -0.00108482 -9.70424e-08
-0.00108482 0.0264754 -2.15688e-08
-9.70424e-08 -2.15688e-08 0.0338591

0.0311794 -0.00292581 -1.75737e-07
-0.00292581 0.0383053 4.22169e-08
-1.75737e-07 4.22169e-08 0.0348428

0.0381645 -0.000885036 3.14323e-07
-0.000885036 0.0387309 -1.03191e-07
3.14323e-07 -1.03191e-07 0.0358346

0.0301791 -0.00394007 -9.06765e-08
-0.00394007 0.0327096 -1.23322e-07
-9.06765e-08 -1.23322e-07 0.0327623

0.0213321 0.00146933 -1.44052e-07
0.00146933 0.0296126 -1.78446e-07
-1.44052e-07 -1.78446e-07 0.018295

0.0293871 -0.00364562 4.97049e-08
-0.00364562 0.0253485 -1.56629e-08
4.97049e-08 -1.56629e-08 0.0231812

0.0328587 -0.0018173 9.92177e-08
-0.0018173 0.0397171 1.48904e-07
9.92177e-08 1.48904e-07 0.0352401

0.03509 7.67704e-05 1.39975e-07
7.67704e-05 0.0272211 -1.51689e-07
1.39975e-07 -1.51689e-07 0.0332502

0.0308174 -0.00282922 3.73517e-08
-0.00282922 0.0348906 -2.70787e-08
3.73517e-08 -2.70787e-08 0.0340832

0.0295334 0.00338889 8.16018e-08
0.00338889 0.0328704 -1.53195e-07
8.16018e-08 -1.53195e-07 0.033325

0.0264595 -0.004063 2.56215e-07
-0.004063 0.0272609 -8.28399e-08
2.56215e-07 -8.28399e-08 0.0215837

0.037172 -0.000958766 1.55969e-07
-0.000958766 0.0416098 2.15156e-07
1.55969e-07 2.15156e-07 0.0358857

0.0227103 -0.0042374 -5.88043e-08
-0.0042374 0.0272428 -1.37919e-08
-5.88043e-08 -1.37919e-08 0.0168769

0.0341818 -0.00252468 -5.21181e-09
-0.00252468 0.0286054 8.8576e-08
-5.21181e-09 8.8576e-08 0.0310435

0.0364245 0.000289914 -1.81824e-07
0.000289914 0.0294365 3.8649e-08
-1.81824e-07 3.8649e-08 0.0341928

0.0396399 0.00239652 -3.43966e-09
0.00239652 0.0391129 5.43013e-08
-3.43966e-09 5.43013e-08 0.0358667

0.0238555 0.00260904 1.99354e-08
0.00260904 0.0301503 1.61337e-07
1.99354e-08 1.61337e-07 0.021798

0.0334298 0.00358136 -3.83749e-08
0.00358136 0.0307144 7.68651e-08
-3.83749e-08 7.68651e-08 0.0317662

0.0316419 -0.00319419 -9.18481e-08
-0.00319419 0.026551 -5.99162e-08
-9.18481e-08 -5.99162e-08 0.0269344

0.0289282 -0.00234103 5.02544e-08
-0.00234103 0.0342338 4.79162e-08
5.02544e-08 4.79162e-08 0.0326049

0.0262436 0.00450129 -2.81207e-08
0.00450129 0.0245569 3.64195e-08
-2.81207e-08 3.64195e-08 0.0180805

0.0284216 -0.00286661 -2.65297e-07
-0.00286661 0.0340313 -9.73927e-08
-2.65297e-07 -9.73927e-08 0.032448

0.0331481 0.00405887 5.74957e-08
0.00405887 0.0304637 -2.20567e-07
5.74957e-08 -2.20567e-07 0.0315413

0.0333336 -0.0033116 2.09813e-07
-0.0033116 0.028356 4.17237e-08
2.09813e-07 4.17237e-08 0.0300449

0.02916 -0.00329507 -5.1662e-08
-0.00329507 0.0319864 -3.27627e-08
-5.1662e-08 -3.27627e-08 0.0304363

0.0314541 -0.00242922 -6.98939e-08
-0.00242922 0.0247181 -9.16312e-08
-6.98939e-08 -9.16312e-08 0.0251553

0.0329545 -0.00246663 2.51151e-07
-0.00246663 0.0267085 -1.8284e-08
2.51151e-07 -1.8284e-08 0.0285956

0.0294905 -0.00334194 -1.48015e-07
-0.00334194 0.0329492 -1.35029e-08
-1.48015e-07 -1.35029e-08 0.0334064

0.0261331 0.00463362 -1.49278e-07
0.00463362 0.0255404 9.30363e-08
-1.49278e-07 9.30363e-08 0.0210917

0.028149 0.00201676 6.45907e-08
0.00201676 0.0343345 1.01122e-09
6.45907e-08 1.01122e-09 0.0311085

0.0308857 0.00348104 -8.80456e-08
0.00348104 0.0322547 1.61803e-07
-8.80456e-08 1.61803e-07 0.0325993

0.0291563 0.00334821 -8.26389e-08
0.00334821 0.0331903 -7.11408e-08
-8.26389e-08 -7.11408e-08 0.0332595

0.0289832 0.00152307 -3.93808e-09
0.00152307 0.0354697 9.20153e-08
-3.93808e-09 9.20153e-08 0.0326947

0.0310517 -0.00106171 7.2816e-08
-0.00106171 0.0231407 5.98781e-08
7.2816e-08 5.98781e-08 0.0220772

0.023883 0.00240565 -8.50448e-09
0.00240565 0.0304097 2.37558e-07
-8.50448e-09 2.37558e-07 0.0221123

0.0292124 -0.00320384 2.11893e-07
-0.00320384 0.0326353 1.00894e-07
2.11893e-07 1.00894e-07 0.0316176

0.0289866 0.00335652 1.64372e-07
0.00335652 0.0309319 -1.45126e-07
1.64372e-07 -1.45126e-07 0.0285672

0.0266119 -0.00459115 -2.14479e-07
-0.00459115 0.0252298 -3.4113e-08
-2.14479e-07 -3.4113e-08 0.0212559

0.0262771 0.00489329 5.95772e-08
0.00489329 0.0209455 -3.09257e-07
5.95772e-08 -3.09257e-07 0.0167618

0.023502 -0.00428662 -6.6708e-09
-0.00428662 0.0274636 -2.02266e-08
-6.6708e-09 -2.02266e-08 0.0206258

0.0266712 -0.00402737 -2.13073e-07
-0.00402737 0.0274816 -3.05821e-08
-2.13073e-07 -3.05821e-08 0.0220493

0.0353644 -0.000906623 1.89724e-07
-0.000906623 0.0273896 -6.04533e-08
1.89724e-07 -6.04533e-08 0.0326542

0.0260445 0.00392136 1.34047e-07
0.00392136 0.0280916 3.69321e-08
1.34047e-07 3.69321e-08 0.0221018

0.030787 0.00171645 7.96303e-08
0.00171645 0.0233597 -2.98134e-09
7.96303e-08 -2.98134e-09 0.0220249

0.0214303 0.00172196 -7.95367e-09
0.00172196 0.0302399 2.37436e-07
-7.95367e-09 2.37436e-07 0.0211321

0.024262 -0.00288921 6.6611e-08
-0.00288921 0.029951 1.38546e-07
6.6611e-08 1.38546e-07 0.0220856

0.0313454 -0.000130926 -9.46419e-08
-0.000130926 0.0392735 -9.71649e-08
-9.46419e-08 -9.71649e-08 0.0346705

0.0230577 0.000294618 9.65111e-08
0.000294618 0.0314594 4.47267e-08
9.65111e-08 4.47267e-08 0.0230616

0.0227766 0.00400127 1.43354e-07
0.00400127 0.0281267 3.76597e-08
1.43354e-07 3.76597e-08 0.0206375

0.0288879 0.00158559 -8.35885e-08
0.00158559 0.0358322 2.9687e-07
-8.35885e-08 2.9687e-07 0.0328932

0.0293151 -0.00358009 5.39241e-08
-0.00358009 0.025129 -2.80314e-07
5.39241e-08 -2.80314e-07 0.0232391

0.0369764 0.00273288 -5.15056e-08
0.00273288 0.0297228 -8.30036e-08
-5.15056e-08 -8.30036e-08 0.0338014

0.0371757 0.00348335 -2.06793e-07
0.00348335 0.0334225 -7.92099e-09
-2.06793e-07 -7.92099e-09 0.0346519

0.0345433 -0.0024464 -1.66643e-08
-0.0024464 0.0285293 1.72037e-08
-1.66643e-08 1.72037e-08 0.0313785

0.0390566 -0.000265567 -1.51848e-07
-0.000265567 0.0339247 -5.91623e-08
-1.51848e-07 -5.91623e-08 0.035208

0.0314787 -0.00418754 4.80766e-08
-0.00418754 0.0317811 1.44315e-07
4.80766e-08 1.44315e-07 0.032156

0.0294612 0.00300751 1.19616e-07
0.00300751 0.0223268 -5.8465e-08
1.19616e-07 -5.8465e-08 0.0210661

0.0302291 0.00397321 8.24339e-08
0.00397321 0.0326632 -1.5149e-07
8.24339e-08 -1.5149e-07 0.0327196

0.0302769 0.00384677 -1.17488e-07
0.00384677 0.0326067 -6.46921e-08
-1.17488e-07 -6.46921e-08 0.0326744

0.0262437 0.00396161 -4.41191e-08
0.00396161 0.027767 -1.15213e-07
-4.41191e-08 -1.15213e-07 0.0218644

0.03445 0.00357671 7.65579e-08
0.00357671 0.0317793 7.91926e-08
7.65579e-08 7.91926e-08 0.0328312

0.0302478 0.000452423 9.43067e-08
0.000452423 0.020428 2.81009e-08
9.43067e-08 2.81009e-08 0.0205728

0.033186 0.00420032 1.18222e-07
0.00420032 0.0323729 1.82008e-07
1.18222e-07 1.82008e-07 0.0334835

0.0305007 -0.00165438 -5.38545e-08
-0.00165438 0.0366159 -1.0377e-08
-5.38545e-08 -1.0377e-08 0.0336625

0.03736 0.00323285 4.9914e-08
0.00323285 0.0334598 -8.36701e-08
4.9914e-08 -8.36701e-08 0.034664

0.030737 -0.00389584 -1.50045e-07
-0.00389584 0.0322724 1.10172e-07
-1.50045e-07 1.10172e-07 0.0326799

0.0293738 -0.000644993 -9.11467e-08
-0.000644993 0.0369025 1.53629e-08
-9.11467e-08 1.53629e-08 0.0328476

0.028812 -0.00315225 -2.69871e-07
-0.00315225 0.0221396 1.27373e-07
-2.69871e-07 1.27373e-07 0.0187586

0.029002 0.00384436 5.87823e-08
0.00384436 0.0255775 8.80948e-08
5.87823e-08 8.80948e-08 0.0230725

0.021701 0.00189084 3.00901e-08
0.00189084 0.0300605 1.61936e-07
3.00901e-08 1.61936e-07 0.0210834

0.0349895 -0.000161489 -1.59806e-07
-0.000161489 0.0273892 -6.04157e-08
-1.59806e-07 -6.04157e-08 0.0333012

0.0344195 2.58073e-07 4.57484e-08
2.58073e-07 0.0272743 2.06289e-07
4.57484e-08 2.06289e-07 0.0320408

0.0291655 0.00304008 1.63204e-07
0.00304008 0.0326794 -7.69393e-08
1.63204e-07 -7.69393e-08 0.0321324

0.0314498 0.00316587 -2.36076e-08
0.00316587 0.03425 -7.24866e-08
-2.36076e-08 -7.24866e-08 0.0340579

0.0291685 -0.00320428 -2.24943e-08
-0.00320428 0.0332384 1.82511e-07
-2.24943e-08 1.82511e-07 0.0333787

0.0287735 -8.56874e-05 -8.42283e-08
-8.56874e-05 0.0367039 -1.00372e-07
-8.42283e-08 -1.00372e-07 0.0325254

0.0294637 0.0033756 3.02931e-09
0.0033756 0.0330743 1.20231e-07
3.02931e-09 1.20231e-07 0.0333544

0.0328592 -0.00134647 1.35192e-07
-0.00134647 0.0253615 -1.09166e-07
1.35192e-07 -1.09166e-07 0.0278286

0.0263546 -0.00425426 2.05298e-07
-0.00425426 0.0281795 2.17964e-09
2.05298e-07 2.17964e-09 0.0242672

0.0362974 -0.000331412 -5.81061e-08
-0.000331412 0.0293828 9.0938e-08
-5.81061e-08 9.0938e-08 0.0340277

0.0267805 -0.00444541 1.32423e-07
-0.00444541 0.0251901 -2.82345e-07
1.32423e-07 -2.82345e-07 0.0209489

0.0308993 0.00250722 7.90864e-08
0.00250722 0.0350625 -1.21382e-07
7.90864e-08 -1.21382e-07 0.0340675

0.0351128 -0.00349695 1.6382e-08
-0.00349695 0.0303881 -3.14358e-08
1.6382e-08 -3.14358e-08 0.0326146

0.0305016 -0.00124978 6.12213e-09
-0.00124978 0.0229781 2.12448e-07
6.12213e-09 2.12448e-07 0.0214781

0.0371473 -0.00307713 -2.10987e-07
-0.00307713 0.031653 7.56374e-08
-2.10987e-07 7.56374e-08 0.0339877

0.0349691 0.000321979 3.93928e-08
0.000321979 0.0275545 -2.72409e-08
3.93928e-08 -2.72409e-08 0.0334297

0.035843 -0.00308827 -2.68661e-08
-0.00308827 0.0332575 -3.31664e-08
-2.68661e-08 -3.31664e-08 0.0341432

0.0349283 -0.00341063 1.61356e-07
-0.00341063 0.0295948 -6.0964e-08
1.61356e-07 -6.0964e-08 0.0321778

0.0349094 -0.00113372 1.3354e-07
-0.00113372 0.0278497 -1.51467e-07
1.3354e-07 -1.51467e-07 0.0323411

0.0314892 -0.00306231 5.9402e-08
-0.00306231 0.0344483 8.17616e-08
5.9402e-08 8.17616e-08 0.0341462

0.0292349 -0.00407076 1.23505e-07
-0.00407076 0.0268992 -1.22435e-07
1.23505e-07 -1.22435e-07 0.0253459

0.0349924 -0.00324366 1.70322e-07
-0.00324366 0.0299152 -2.56291e-08
1.70322e-07 -2.56291e-08 0.032195

0.031462 0.00140901 -1.9582e-08
0.00140901 0.0233268 -8.02233e-09
-1.9582e-08 -8.02233e-09 0.0244833

0.0336644 0.00348407 2.19519e-07
0.00348407 0.0334438 2.5175e-08
2.19519e-07 2.5175e-08 0.0336497

0.0298922 -0.00496718 7.21591e-09
-0.00496718 0.0330779 -1.96876e-08
7.21591e-09 -1.96876e-08 0.0338569

0.0300428 0.0049205 -4.15156e-08
0.0049205 0.0329397 1.22209e-07
-4.15156e-08 1.22209e-07 0.0338238

0.0276876 -0.00374173 -2.22061e-07
-0.00374173 0.0348067 3.59176e-09
-2.22061e-07 3.59176e-09 0.0337664

0.0279256 0.003547 -1.95372e-07
0.003547 0.0348347 7.85647e-08
-1.95372e-07 7.85647e-08 0.0337313

0.0364292 -0.00115387 -1.55478e-07
-0.00115387 0.0263414 -6.82948e-08
-1.55478e-07 -6.82948e-08 0.0337576

0.0361981 0.00124756 2.02703e-07
0.00124756 0.0265628 -3.59434e-09
2.02703e-07 -3.59434e-09 0.0337204

0.0350343 -0.00130644 1.58908e-07
-0.00130644 0.0284678 -1.76526e-07
1.58908e-07 -1.76526e-07 0.0325755

0.0344362 0.00425898 2.93101e-08
0.00425898 0.0342891 -7.15676e-08
2.93101e-08 -7.15676e-08 0.0348122

0.0343115 -0.00435684 -8.36861e-08
-0.00435684 0.0342806 2.98089e-08
-8.36861e-08 2.98089e-08 0.0348006

0.0305205 0.00209349 3.45876e-08
0.00209349 0.0381652 -3.3646e-08
3.45876e-08 -3.3646e-08 0.0348494

0.0306638 -0.00205963 5.12899e-08
-0.00205963 0.0380952 -2.47971e-09
5.12899e-08 -2.47971e-09 0.0348367

0.0395019 -0.000528781 4.20483e-08
-0.000528781 0.032849 6.43338e-08
4.20483e-08 6.43338e-08 0.0352577

0.0397044 0.000513359 -1.4985e-07
0.000513359 0.0326218 -1.12692e-07
-1.4985e-07 -1.12692e-07 0.0353028

0.0239648 0.00127595 2.20045e-08
0.00127595 0.0320028 -9.24662e-08
2.20045e-08 -9.24662e-08 0.025184

0.0311619 -0.00326559 5.29437e-08
-0.00326559 0.0322408 1.15082e-07
5.29437e-08 1.15082e-07 0.0328015

0.0277795 -0.00478575 -3.92135e-08
-0.00478575 0.0333118 1.82908e-07
-3.92135e-08 1.82908e-07 0.0334549

0.0333587 -0.000610223 1.10155e-07
-0.000610223 0.0264028 -1.53676e-07
1.10155e-07 -1.53676e-07 0.0284479

0.0381874 -0.00225189 -4.63459e-08
-0.00225189 0.0307942 -8.63588e-08
-4.63459e-08 -8.63588e-08 0.0348925

0.0382356 0.00218399 -2.15611e-07
0.00218399 0.0309074 -1.43936e-08
-2.15611e-07 -1.43936e-08 0.0349246

0.0360837 1.56214e-05 -1.63981e-08
1.56214e-05 0.0251254 7.18699e-08
-1.63981e-08 7.18699e-08 0.03347

0.0242407 0.00302884 -7.99117e-08
0.00302884 0.0303974 -2.09296e-08
-7.99117e-08 -2.09296e-08 0.0242768

0.027674 0.00475651 2.80029e-08
0.00475651 0.0333118 -6.64828e-08
2.80029e-08 -6.64828e-08 0.0333928

0.0286744 -0.00307576 5.56813e-08
-0.00307576 0.0342607 4.78241e-08
5.56813e-08 4.78241e-08 0.0327521

0.0310854 0.00303565 2.02116e-07
0.00303565 0.0251463 -1.61074e-07
2.02116e-07 -1.61074e-07 0.0254669

0.0372274 0.00316582 -6.83231e-08
0.00316582 0.0315404 5.31104e-08
-6.83231e-08 5.31104e-08 0.0340756

0.0292263 -0.00406718 -2.1001e-07
-0.00406718 0.0269352 1.45865e-07
-2.1001e-07 1.45865e-07 0.0253211

0.0364011 -0.000453653 -9.20073e-08
-0.000453653 0.0296914 -1.15405e-08
-9.20073e-08 -1.15405e-08 0.0341308

0.0273439 -0.00449472 3.28483e-09
-0.00449472 0.033395 5.8992e-08
3.28483e-09 5.8992e-08 0.0334415

0.0240377 0.00107894 5.75452e-08
0.00107894 0.0322437 -1.12318e-07
5.75452e-08 -1.12318e-07 0.0255056

0.0242293 0.00282649 -1.06e-07
0.00282649 0.0307009 4.19038e-08
-1.06e-07 4.19038e-08 0.0245446

0.0267921 0.00459431 -1.45696e-07
0.00459431 0.0240415 9.73734e-08
-1.45696e-07 9.73734e-08 0.0182133

0.0298506 0.000199867 1.71215e-08
0.000199867 0.0200882 1.95431e-07
1.71215e-08 1.95431e-07 0.0193622

0.0319083 -0.00302371 1.21126e-07
-0.00302371 0.0341619 2.02812e-08
1.21126e-07 2.02812e-08 0.0340354

0.0229185 0.00399946 2.50067e-08
0.00399946 0.0276596 -1.7492e-07
2.50067e-08 -1.7492e-07 0.0176529

0.0292097 0.00310099 1.99493e-07
0.00310099 0.0327625 -2.15379e-08
1.99493e-07 -2.15379e-08 0.031012

0.0315943 -0.000694449 -9.99167e-08
-0.000694449 0.0231598 5.54369e-08
-9.99167e-08 5.54369e-08 0.0244846

0.0327609 0.00146445 1.16157e-08
0.00146445 0.0253466 7.4888e-08
1.16157e-08 7.4888e-08 0.0276128

0.035978 5.62352e-05 -4.46481e-08
5.62352e-05 0.0249585 1.47322e-07
-4.46481e-08 1.47322e-07 0.033386

0.0279656 -0.00380555 -1.36672e-07
-0.00380555 0.0349488 -2.20995e-08
-1.36672e-07 -2.20995e-08 0.0338157

0.0393145 -0.000843767 2.36185e-07
-0.000843767 0.0416019 6.70698e-08
2.36185e-07 6.70698e-08 0.0361899

0.0298675 0.00493911 2.26395e-08
0.00493911 0.032956 -1.54894e-07
2.26395e-08 -1.54894e-07 0.0337788

0.030288 0.000214517 -9.35877e-08
0.000214517 0.0203966 1.5714e-08
-9.35877e-08 1.5714e-08 0.0172759

0.0266736 -0.00425019 -2.30068e-07
-0.00425019 0.0281328 -6.336e-09
-2.30068e-07 -6.336e-09 0.0244372

0.0277459 0.00481564 1.74533e-08
0.00481564 0.0333145 9.49113e-08
1.74533e-08 9.49113e-08 0.0334551

0.0279448 -0.00145833 -1.15494e-07
-0.00145833 0.0350845 -7.47282e-08
-1.15494e-07 -7.47282e-08 0.03145

0.0244648 -0.00330514 -1.02984e-07
-0.00330514 0.0300149 -5.73051e-08
-1.02984e-07 -5.73051e-08 0.0242168

0.0279903 0.00377954 4.33455e-08
0.00377954 0.0349097 -1.19032e-07
4.33455e-08 -1.19032e-07 0.0337866

0.0313613 -0.0034093 -1.30669e-07
-0.0034093 0.0270082 -1.47479e-07
-1.30669e-07 -1.47479e-07 0.0269911

0.0402791 0.00140884 1.1483e-07
0.00140884 0.0406172 -2.16642e-07
1.1483e-07 -2.16642e-07 0.0361703

0.025881 0.00400274 9.9645e-08
0.00400274 0.0289541 -2.72816e-08
9.9645e-08 -2.72816e-08 0.0245108

0.0366777 0.00110281 -5.32909e-08
0.00110281 0.026352 -1.58177e-07
-5.32909e-08 -1.58177e-07 0.0338976

0.0333417 0.00398409 3.27547e-08
0.00398409 0.0321153 -5.95863e-08
3.27547e-08 -5.95863e-08 0.0333154

0.0292279 0.00306717 8.88287e-08
0.00306717 0.0326055 -1.51202e-07
8.88287e-08 -1.51202e-07 0.0321575

0.0343645 -0.00431109 8.608e-08
-0.00431109 0.0345049 8.11984e-08
8.608e-08 8.11984e-08 0.0348848

0.0354895 -0.00306338 6.91647e-08
-0.00306338 0.03059 7.61773e-08
6.91647e-08 7.61773e-08 0.0327503

0.0333664 0.00138794 8.5602e-08
0.00138794 0.0395773 2.13531e-07
8.5602e-08 2.13531e-07 0.0350024

0.0291967 -0.00307902 -5.7973e-08
-0.00307902 0.0328734 -8.98583e-08
-5.7973e-08 -8.98583e-08 0.0313831

0.0292647 -0.00123217 1.26656e-07
-0.00123217 0.019287 2.2752e-07
1.26656e-07 2.2752e-07 0.016412

0.0287782 -0.00183237 -1.33652e-07
-0.00183237 0.0184139 -6.78469e-08
-1.33652e-07 -6.78469e-08 0.0161969

0.0385293 0.00220198 3.5698e-08
0.00220198 0.033239 -5.71634e-08
3.5698e-08 -5.71634e-08 0.0347628

0.0280558 0.00294504 7.67744e-08
0.00294504 0.0323355 -2.64549e-07
7.67744e-08 -2.64549e-07 0.029518

0.0320672 0.00383456 -8.91078e-08
0.00383456 0.0309605 -8.42272e-08
-8.91078e-08 -8.42272e-08 0.0314543

0.0320496 9.00112e-05 -1.15707e-07
9.00112e-05 0.0245768 1.41017e-07
-1.15707e-07 1.41017e-07 0.024888

0.0302376 0.000866041 -1.06992e-07
0.000866041 0.0385808 -2.87817e-08
-1.06992e-07 -2.87817e-08 0.0340963

0.0354018 0.00219115 1.16407e-07
0.00219115 0.0293228 2.86414e-07
1.16407e-07 2.86414e-07 0.0328582

0.0248113 -0.00333879 3.88993e-08
-0.00333879 0.0300061 1.82699e-07
3.88993e-08 1.82699e-07 0.0244699

0.0286506 -0.000337808 1.60603e-07
-0.000337808 0.0366567 -7.68955e-08
1.60603e-07 -7.68955e-08 0.0323957

0.0252152 0.00174007 -3.41037e-08
0.00174007 0.0320295 -9.41939e-08
-3.41037e-08 -9.41939e-08 0.0256839

0.0332803 -0.00390955 -2.19867e-08
-0.00390955 0.0304969 7.06613e-08
-2.19867e-08 7.06613e-08 0.0315924

0.0290647 -0.00389583 -2.93073e-07
-0.00389583 0.0282003 -1.43657e-08
-2.93073e-07 -1.43657e-08 0.0257135

0.0261491 0.0040988 4.95339e-08
0.0040988 0.0285462 4.99809e-08
4.95339e-08 4.99809e-08 0.0243181

0.0452876 -0.00201775 1.72557e-07
-0.00201775 0.0396055 3.3736e-07
1.72557e-07 3.3736e-07 0.0363668

0.0316667 0.000256239 -6.88027e-08
0.000256239 0.039327 1.94698e-07
-6.88027e-08 1.94698e-07 0.034769

0.0306164 0.00265091 5.99561e-08
0.00265091 0.0384425 -2.77598e-07
5.99561e-08 -2.77598e-07 0.0349576

0.0387659 0.00209485 1.32228e-07
0.00209485 0.0302216 2.15907e-08
1.32228e-07 2.15907e-08 0.0349424

0.0313709 -0.00345043 -8.75794e-08
-0.00345043 0.0321404 2.06371e-07
-8.75794e-08 2.06371e-07 0.0325726

0.0318179 0.00233612 2.99343e-08
0.00233612 0.0256202 9.20622e-08
2.99343e-08 9.20622e-08 0.0258795

0.0349938 -0.000708264 2.12526e-07
-0.000708264 0.0415752 -3.30735e-08
2.12526e-07 -3.30735e-08 0.0357276

0.0357882 -0.00251853 3.0421e-08
-0.00251853 0.02955 8.75042e-08
3.0421e-08 8.75042e-08 0.0332579

0.0332969 -0.00203983 2.66453e-07
-0.00203983 0.0266526 2.07947e-08
2.66453e-07 2.07947e-08 0.0286753

0.0252521 0.00151083 -9.79792e-09
0.00151083 0.032274 -1.14864e-07
-9.79792e-09 -1.14864e-07 0.0259499

0.0268045 -0.00334466 1.79091e-07
-0.00334466 0.0300092 -4.73552e-08
1.79091e-07 -4.73552e-08 0.0251872

0.0364772 -0.00336046 -1.34822e-07
-0.00336046 0.0352875 -7.2678e-08
-1.34822e-07 -7.2678e-08 0.0347422

0.0284754 0.00415215 -1.7877e-07
0.00415215 0.0277158 9.91389e-08
-1.7877e-07 9.91389e-08 0.0254677

0.0372438 -0.00334526 -2.85992e-08
-0.00334526 0.0333219 7.00374e-08
-2.85992e-08 7.00374e-08 0.0346116

0.0322059 0.000337903 -8.28051e-08
0.000337903 0.0248625 8.89201e-08
-8.28051e-08 8.89201e-08 0.0254374

0.019161 -0.00368903 1.9365e-07
-0.00368903 0.0275259 -7.13065e-08
1.9365e-07 -7.13065e-08 0.0163107

0.0292097 -0.00380325 1.93876e-07
-0.00380325 0.0281924 3.1582e-08
1.93876e-07 3.1582e-08 0.0258076

0.0230458 0.00412729 1.38305e-07
0.00412729 0.0280202 -1.54181e-07
1.38305e-07 -1.54181e-07 0.017592

0.0296909 -0.00155958 -7.02134e-08
-0.00155958 0.0375333 -1.41401e-07
-7.02134e-08 -1.41401e-07 0.0336484

0.02436 -0.00179371 3.55961e-09
-0.00179371 0.0318722 -1.82051e-08
3.55961e-09 -1.82051e-08 0.0254478

0.0424371 -0.00323462 -8.92123e-08
-0.00323462 0.0423769 -5.56483e-08
-8.92123e-08 -5.56483e-08 0.0363751

0.0263367 0.00309093 5.61042e-08
0.00309093 0.0307011 4.19864e-08
5.61042e-08 4.19864e-08 0.0254776

0.0334768 -0.00432359 -7.17301e-10
-0.00432359 0.032659 -2.31653e-08
-7.17301e-10 -2.31653e-08 0.0335662

0.0240805 -0.00155081 5.06781e-08
-0.00155081 0.0318868 -1.0477e-08
5.06781e-08 -1.0477e-08 0.0251765

0.0362227 -0.00253871 4.35771e-08
-0.00253871 0.029511 -5.66047e-09
4.35771e-08 -5.66047e-09 0.0335191

0.0266732 0.00310458 9.48744e-08
0.00310458 0.0303943 -2.37467e-08
9.48744e-08 -2.37467e-08 0.0253129

0.0343429 -0.000654008 -7.34611e-08
-0.000654008 0.0272764 2.51472e-07
-7.34611e-08 2.51472e-07 0.0305773

0.0188903 -0.0038714 1.14877e-07
-0.0038714 0.0298014 1.08893e-07
1.14877e-07 1.08893e-07 0.0129611

0.0279988 0.00275446 1.05432e-07
0.00275446 0.0326286 -5.37064e-08
1.05432e-07 -5.37064e-08 0.0305732

0.031437 -0.00251226 5.18872e-08
-0.00251226 0.024722 -2.16235e-08
5.18872e-08 -2.16235e-08 0.0254055

0.0391182 -0.0028692 9.36244e-08
-0.0028692 0.0322212 2.08345e-08
9.36244e-08 2.08345e-08 0.0349365

0.0287526 0.00412389 -2.81388e-08
0.00412389 0.0272995 -6.28287e-08
-2.81388e-08 -6.28287e-08 0.025255

0.0313608 -0.0039192 -1.23226e-07
-0.0039192 0.0285416 -1.59228e-07
-1.23226e-07 -1.59228e-07 0.0287305

0.0354074 0.0027639 -1.11486e-07
0.0027639 0.0308551 -5.50889e-08
-1.11486e-07 -5.50889e-08 0.0330387

0.0297724 -0.00370347 -5.41118e-08
-0.00370347 0.0329369 9.12055e-09
-5.41118e-08 9.12055e-09 0.0333418

0.0270544 -0.00341022 -1.47207e-07
-0.00341022 0.0299819 1.68571e-07
-1.47207e-07 1.68571e-07 0.0253969

0.0284401 0.00377104 -9.09606e-08
0.00377104 0.028939 -3.26945e-08
-9.09606e-08 -3.26945e-08 0.0258867

0.0313707 0.0034132 4.2337e-08
0.0034132 0.0268988 -1.48029e-07
4.2337e-08 -1.48029e-07 0.0269654

0.0365357 -0.00194427 3.20032e-08
-0.00194427 0.0306245 -3.0233e-08
3.20032e-08 -3.0233e-08 0.033635

0.0255331 -0.00216306 -6.25687e-08
-0.00216306 0.0318009 -2.38335e-08
-6.25687e-08 -2.38335e-08 0.0258531

0.0346985 -0.00231385 -1.10123e-07
-0.00231385 0.0283336 -1.94455e-07
-1.10123e-07 -1.94455e-07 0.0314551

0.0341849 0.00222285 -1.74644e-07
0.00222285 0.0274311 7.47575e-08
-1.74644e-07 7.47575e-08 0.030603

0.0336443 -0.00124608 -4.04882e-08
-0.00124608 0.0392993 -9.78216e-08
-4.04882e-08 -9.78216e-08 0.0349266

0.0320711 -0.00174665 3.43032e-09
-0.00174665 0.0253297 -1.14416e-07
3.43032e-09 -1.14416e-07 0.0258704

0.0250011 7.96642e-05 -2.74e-08
7.96642e-05 0.0331505 -1.20835e-08
-2.74e-08 -1.20835e-08 0.0268604

0.0332462 0.00242862 -5.65393e-08
0.00242862 0.0271928 -3.46865e-08
-5.65393e-08 -3.46865e-08 0.0289213

0.0311167 0.00359867 1.92476e-07
0.00359867 0.027292 -1.81429e-07
1.92476e-07 -1.81429e-07 0.0271218

0.0252947 -0.00204106 -7.90947e-08
-0.00204106 0.0318635 -1.34731e-08
-7.90947e-08 -1.34731e-08 0.0256103

0.0252004 -0.000154703 -2.32705e-09
-0.000154703 0.0332907 -2.04238e-08
-2.32705e-09 -2.04238e-08 0.0271432

0.0354122 0.00385801 6.90814e-08
0.00385801 0.032995 -5.97783e-08
6.90814e-08 -5.97783e-08 0.0338946

0.0275849 -0.0014309 8.38899e-08
-0.0014309 0.0353409 1.65302e-07
8.38899e-08 1.65302e-07 0.0314411

0.0312329 -0.00348366 9.19286e-08
-0.00348366 0.0269765 1.57543e-07
9.19286e-08 1.57543e-07 0.027009

0.0312958 0.00277241 1.79063e-07
0.00277241 0.0249214 8.67906e-08
1.79063e-07 8.67906e-08 0.0252454

0.0345817 0.00311824 -1.30539e-07
0.00311824 0.0293858 1.56768e-07
-1.30539e-07 1.56768e-07 0.0317949

0.0279904 0.000716648 -1.25919e-07
0.000716648 0.0360385 -1.92982e-07
-1.25919e-07 -1.92982e-07 0.0318172

0.0287156 0.00378116 -9.70329e-08
0.00378116 0.0285582 5.30791e-08
-9.70329e-08 5.30791e-08 0.0257271

0.0367895 0.00305775 -1.26461e-07
0.00305775 0.0361247 -1.49674e-07
-1.26461e-07 -1.49674e-07 0.0349062

0.0226795 -0.00754513 2.0477e-07
-0.00754513 0.0186872 2.85073e-07
2.0477e-07 2.85073e-07 0.0108448

0.03329 -0.00328728 1.19913e-07
-0.00328728 0.0286316 -1.39633e-07
1.19913e-07 -1.39633e-07 0.0301231

0.0207262 0.000913314 -8.78942e-08
0.000913314 0.0300303 -7.31135e-08
-8.78942e-08 -7.31135e-08 0.0183458

0.0312994 -0.00378153 4.89725e-08
-0.00378153 0.0292304 1.48707e-07
4.89725e-08 1.48707e-07 0.0290307

0.00153954 -0.00651865 2.38308e-09
-0.00651865 0.0275677 -1.0441e-08
2.38308e-09 -1.0441e-08 0.00290824

0.00146992 0.00636819 2.60217e-08
0.00636819 0.0275856 1.14009e-07
2.60217e-08 1.14009e-07 0.00300119

0.0119843 0.0145046 -1.1038e-07
0.0145046 0.0175321 -1.38412e-07
-1.1038e-07 -1.38412e-07 0.00277111

0.0121657 -0.0144953 -1.13317e-07
-0.0144953 0.0172235 1.42096e-07
-1.13317e-07 1.42096e-07 0.00280372

0.02934 -0.000164085 -1.46369e-07
-0.000164085 0 0
-1.46369e-07 0 0.00295254

0.0235917 -0.0112824 -1.92302e-07
-0.0112824 0.00539536 9.26077e-08
-1.92302e-07 9.26077e-08 0.00297827

0.0236337 0.0113486 8.88776e-09
0.0113486 0.00544942 4.28012e-09
8.88776e-09 4.28012e-09 0.0030394

0.0369102 0.00191129 1.02021e-07
0.00191129 0.0302413 6.22694e-09
1.02021e-07 6.22694e-09 0.033877

0.0387049 0.00340972 2.01153e-08
0.00340972 0.0366167 -8.18658e-08
2.01153e-08 -8.18658e-08 0.0355778

0.0344143 0.000872365 -1.02094e-07
0.000872365 0.0274561 -2.27504e-07
-1.02094e-07 -2.27504e-07 0.0316871

0.0328721 0.00285004 6.68451e-09
0.00285004 0.0268887 -1.48581e-07
6.68451e-09 -1.48581e-07 0.0286456

0.0257 0.00231322 6.17438e-08
0.00231322 0.0323661 9.94367e-08
6.17438e-08 9.94367e-08 0.0276349

0.0307118 0.00376908 -2.61239e-09
0.00376908 0.0276753 1.07506e-07
-2.61239e-09 1.07506e-07 0.027117

0.0333047 -0.00390305 -8.96969e-08
-0.00390305 0.0304651 -2.68336e-08
-8.96969e-08 -2.68336e-08 0.0316292

0.0309727 0.00365442 -6.08371e-09
0.00365442 0.0272862 -6.26249e-08
-6.08371e-09 -6.26249e-08 0.0269246

0.0249865 -0.000371441 5.12554e-08
-0.000371441 0.0331216 -9.56067e-09
5.12554e-08 -9.56067e-09 0.0268426

0.0385479 -0.00348495 1.18178e-07
-0.00348495 0.0368804 -1.90487e-08
1.18178e-07 -1.90487e-08 0.0355834

0.025175 -0.00063568 2.69931e-09
-0.00063568 0.0332093 -1.99966e-08
2.69931e-09 -1.99966e-08 0.0271021

0.036017 0.0030475 1.9346e-08
0.0030475 0.0330106 7.30581e-08
1.9346e-08 7.30581e-08 0.0340974

0.0296222 0.00347559 5.57172e-08
0.00347559 0.0248458 9.37036e-08
5.57172e-08 9.37036e-08 0.0230223

0.0304955 -0.00171401 1.52832e-07
-0.00171401 0.0375123 -7.7622e-08
1.52832e-07 -7.7622e-08 0.034736

0.0339191 0.00180443 -2.3747e-07
0.00180443 0.027181 -3.64351e-08
-2.3747e-07 -3.64351e-08 0.0303199

0.0312005 -0.00392038 7.8856e-08
-0.00392038 0.0285305 1.79915e-07
7.8856e-08 1.79915e-07 0.0286139

0.0315828 -0.00322123 2.35678e-08
-0.00322123 0.0266911 2.60178e-08
2.35678e-08 2.60178e-08 0.0270471

0.0384791 -0.00214128 4.28497e-09
-0.00214128 0.0334165 1.32838e-07
4.28497e-09 1.32838e-07 0.0347445

0.0326805 0.00366391 1.30109e-07
0.00366391 0.0292316 -8.65587e-08
1.30109e-07 -8.65587e-08 0.0301544

0.032644 0.00313736 8.05546e-08
0.00313736 0.027252 -1.86274e-07
8.05546e-08 -1.86274e-07 0.0287874

0.0269547 -0.000365326 1.53206e-07
-0.000365326 0.0349867 -5.69967e-09
1.53206e-07 -5.69967e-09 0.0301675

0.0258992 0.00076573 6.61811e-08
0.00076573 0.034003 1.27744e-07
6.61811e-08 1.27744e-07 0.0288225

0.0327779 0.000345376 -2.13617e-08
0.000345376 0.0248613 9.28353e-08
-2.13617e-08 9.28353e-08 0.0274433

0.0313865 -0.000944849 -7.78837e-08
-0.000944849 0.0230035 2.092e-07
-7.78837e-08 2.092e-07 0.0238917

0.0308799 0.00398499 -2.17182e-09
0.00398499 0.0288054 -5.55537e-08
-2.17182e-09 -5.55537e-08 0.0286236

0.0331174 -0.00343149 -7.58975e-09
-0.00343149 0.0285401 1.79284e-07
-7.58975e-09 1.79284e-07 0.0299689

0.0364121 -0.00282351 -1.50426e-07
-0.00282351 0.0327328 1.31096e-07
-1.50426e-07 1.31096e-07 0.0341437

0.0292059 -0.00412741 1.14699e-07
-0.00412741 0.029192 1.53162e-07
1.14699e-07 1.53162e-07 0.0277534

0.0269714 -0.00362029 1.33373e-07
-0.00362029 0.0304642 2.9523e-08
1.33373e-07 2.9523e-08 0.0272129

0.0283258 0.00389941 -2.78166e-08
0.00389941 0.0299006 9.30372e-08
-2.78166e-08 9.30372e-08 0.0277515

0.0259009 -0.00124887 7.22276e-08
-0.00124887 0.0336133 -4.25525e-08
7.22276e-08 -4.25525e-08 0.0285154

0.0266541 -0.000202029 1.33291e-07
-0.000202029 0.0349125 6.98433e-08
1.33291e-07 6.98433e-08 0.0299194

0.027762 0.000752828 6.64636e-08
0.000752828 0.0360379 -1.94409e-07
6.64636e-08 -1.94409e-07 0.0316577

0.0262467 -0.00274929 3.0776e-08
-0.00274929 0.0319625 -1.63229e-07
3.0776e-08 -1.63229e-07 0.0277102

0.0345821 0.00317568 2.69007e-09
0.00317568 0.029168 -9.41444e-08
2.69007e-09 -9.41444e-08 0.0316339

0.033909 -0.00126111 -2.03104e-07
-0.00126111 0.0269298 -6.96762e-08
-2.03104e-07 -6.96762e-08 0.0302012

0.0257899 0.000974121 8.94242e-08
0.000974121 0.033829 1.96665e-07
8.94242e-08 1.96665e-07 0.0285415

0.0278236 -0.00126997 7.37217e-08
-0.00126997 0.0353967 1.63216e-07
7.37217e-08 1.63216e-07 0.0313655

0.0272926 -0.00213699 6.16584e-09
-0.00213699 0.033657 -1.25258e-09
6.16584e-09 -1.25258e-09 0.0302251

0.032776 -0.00107727 1.49547e-07
-0.00107727 0.0253196 1.28319e-07
1.49547e-07 1.28319e-07 0.0272539

0.0333149 -0.00427126 5.20793e-08
-0.00427126 0.0323801 1.80319e-07
5.20793e-08 1.80319e-07 0.0335287

0.0264883 0.00121978 2.99903e-09
0.00121978 0.033835 1.95628e-07
2.99903e-09 1.95628e-07 0.0288156

0.0398112 -0.00243166 2.0596e-07
-0.00243166 0.0352181 -8.47094e-08
2.0596e-07 -8.47094e-08 0.0354607

0.0188885 0.00316453 -3.36515e-08
0.00316453 0.0278756 -1.70179e-07
-3.36515e-08 -1.70179e-07 0.0162725

0.0338155 -0.0035228 -4.56792e-08
-0.0035228 0.0334945 2.46104e-08
-4.56792e-08 2.46104e-08 0.0337257

0.0353435 -0.00399923 2.0673e-08
-0.00399923 0.033046 1.34535e-07
2.0673e-08 1.34535e-07 0.0339036

0.0266854 -9.06837e-05 1.66824e-07
-9.06837e-05 0.0349176 7.0613e-08
1.66824e-07 7.0613e-08 0.0299275

0.0332425 -0.00217638 3.34641e-08
-0.00217638 0.0271527 9.89309e-08
3.34641e-08 9.89309e-08 0.0289022

0.0293471 0.00168467 1.83491e-07
0.00168467 0.035819 2.81218e-07
1.83491e-07 2.81218e-07 0.0328793

0.0132073 -0.000379113 1.44779e-07
-0.000379113 0.0283619 1.00815e-07
1.44779e-07 1.00815e-07 0.0111516

0.0271132 0.00186844 -9.93597e-08
0.00186844 0.0340608 3.04022e-09
-9.93597e-08 3.04022e-09 0.0303058

0.0311087 -0.00385839 -1.09947e-07
-0.00385839 0.0291538 -2.00739e-07
-1.09947e-07 -2.00739e-07 0.028806

0.0186196 0.00320451 4.54877e-08
0.00320451 0.0301391 4.81661e-08
4.54877e-08 4.81661e-08 0.0131266

0.0426015 0.00351817 1.59173e-07
0.00351817 0.0418495 2.45699e-07
1.59173e-07 2.45699e-07 0.0364799

0.0432047 -0.00374858 5.61821e-08
-0.00374858 0.0414168 -8.47246e-08
5.61821e-08 -8.47246e-08 0.0364624

0.0310647 -0.00399063 1.64556e-07
-0.00399063 0.0304706 -3.29631e-08
1.64556e-07 -3.29631e-08 0.0304605

0.0289215 -0.00406396 -1.8086e-07
-0.00406396 0.0291502 -2.01159e-07
-1.8086e-07 -2.01159e-07 0.0275938

0.0330502 0.00272668 -8.76772e-08
0.00272668 0.027528 8.22342e-08
-8.76772e-08 8.22342e-08 0.0290749

0.0327792 0.00196014 -8.45345e-08
0.00196014 0.0255906 8.79289e-08
-8.45345e-08 8.79289e-08 0.0278222

0.0464016 0.000418537 -5.91094e-07
0.000418537 0.046357 3.70259e-07
-5.91094e-07 3.70259e-07 0.0366942

0.0469183 -0.000952155 -3.74311e-07
-0.000952155 0.0457693 8.01318e-08
-3.74311e-07 8.01318e-08 0.0367653

0.0347989 0.000638323 -8.05312e-08
0.000638323 0.0275724 -2.46402e-07
-8.05312e-08 -2.46402e-07 0.0322159

0.0277512 0.000882189 -8.9601e-08
0.000882189 0.03557 -1.37207e-08
-8.9601e-08 -1.37207e-08 0.031348

0.0276071 0.000882708 1.20749e-07
0.000882708 0.0355702 -7.71061e-09
1.20749e-07 -7.71061e-09 0.0312442

0.0234587 0.00739969 -3.19004e-07
0.00739969 0.0183015 2.09206e-08
-3.19004e-07 2.09206e-08 0.0109013

0.0272464 -0.00367563 -1.71033e-08
-0.00367563 0.0303465 -2.49518e-08
-1.71033e-08 -2.49518e-08 0.0273188

0.0365662 0.00239154 7.01694e-08
0.00239154 0.0295755 4.69702e-08
7.01694e-08 4.69702e-08 0.0337838

0.0332734 0.00124749 -5.50318e-08
0.00124749 0.0265035 3.11291e-08
-5.50318e-08 3.11291e-08 0.0284312

0.0291519 -0.00349237 -6.36968e-08
-0.00349237 0.0304704 1.31404e-08
-6.36968e-08 1.31404e-08 0.0281726

0.0328103 -0.00264774 -1.455e-08
-0.00264774 0.0267273 2.48077e-08
-1.455e-08 2.48077e-08 0.0285861

0.0224596 0.0076125 1.11149e-07
0.0076125 0.01859 -3.26697e-07
1.11149e-07 -3.26697e-07 0.0109038

0.0331442 0.00410236 -3.0435e-08
0.00410236 0.0326377 8.77374e-08
-3.0435e-08 8.77374e-08 0.0331809

0.0258895 -0.00257807 -1.01422e-08
-0.00257807 0.032023 -1.26972e-07
-1.01422e-08 -1.26972e-07 0.0275067

0.0324816 0.00378575 1.36577e-09
0.00378575 0.0292673 8.82028e-08
1.36577e-09 8.82028e-08 0.0301462

0.0268153 -0.000543684 -1.40561e-07
-0.000543684 0.0349517 -3.5727e-08
-1.40561e-07 -3.5727e-08 0.0301372

0.0269893 0.00256317 1.74322e-07
0.00256317 0.0324478 -1.821e-07
1.74322e-07 -1.821e-07 0.0282857

0.0305253 0.00399107 -1.30228e-08
0.00399107 0.0293224 8.67504e-08
-1.30228e-08 8.67504e-08 0.0287744

0.0276082 -0.00293704 -9.33128e-08
-0.00293704 0.031853 -1.85328e-07
-9.33128e-08 -1.85328e-07 0.0282483

0.0294551 -0.00357583 1.17753e-08
-0.00357583 0.0303502 -2.31121e-08
1.17753e-08 -2.31121e-08 0.0283042

0.0181373 0.00142539 -4.93857e-08
0.00142539 0.0280357 -5.71465e-08
-4.93857e-08 -5.71465e-08 0.0131272

0.0234731 -0.00429388 2.33862e-08
-0.00429388 0.0275555 -6.67765e-08
2.33862e-08 -6.67765e-08 0.0177229

0.0262048 -0.00152615 -8.0033e-08
-0.00152615 0.0336228 1.00193e-07
-8.0033e-08 1.00193e-07 0.0287511

0.0330225 0.00347462 1.49312e-07
0.00347462 0.0288768 -6.85466e-08
1.49312e-07 -6.85466e-08 0.0300681

0.0303207 0.00385739 -1.91865e-08
0.00385739 0.0298859 9.37311e-08
-1.91865e-08 9.37311e-08 0.0289895

0.0274134 -0.00280057 5.42132e-08
-0.00280057 0.0319827 -1.22375e-07
5.42132e-08 -1.22375e-07 0.0281383

0.0265538 -0.00154051 3.40854e-08
-0.00154051 0.0335817 -4.45136e-08
3.40854e-08 -4.45136e-08 0.0287454

0.0309554 0.00371811 -1.27595e-07
0.00371811 0.0295624 1.90697e-07
-1.27595e-07 1.90697e-07 0.0289404

0.0267585 -0.00181599 1.60184e-07
-0.00181599 0.0334733 1.51637e-07
1.60184e-07 1.51637e-07 0.0289535

0.0191655 0.00355434 -1.28976e-07
0.00355434 0.027607 -1.92044e-07
-1.28976e-07 -1.92044e-07 0.0162917

0.0308727 -0.000534655 -1.42001e-08
-0.000534655 0.0388185 8.27583e-08
-1.42001e-08 8.27583e-08 0.0342936

0.0286557 0.00404762 -1.59036e-08
0.00404762 0.0295175 1.78008e-07
-1.59036e-08 1.78008e-07 0.0277138

0.0355791 0.00197488 1.93064e-07
0.00197488 0.0295023 1.40046e-07
1.93064e-07 1.40046e-07 0.0328418

0.0362583 -0.00211463 -8.61357e-08
-0.00211463 0.0297546 -7.68115e-08
-8.61357e-08 -7.68115e-08 0.033217

0.0285099 -0.00309564 3.20825e-08
-0.00309564 0.0185685 -2.20163e-07
3.20825e-08 -2.20163e-07 0.0157295

0.0283527 -0.00278997 -1.91246e-07
-0.00278997 0.0327745 -4.24296e-08
-1.91246e-07 -4.24296e-08 0.0305708

0.0291903 0.00350041 1.49883e-07
0.00350041 0.0315988 -5.17913e-08
1.49883e-07 -5.17913e-08 0.0304866

0.0349591 -0.00290724 -9.27906e-08
-0.00290724 0.0376754 -2.53177e-07
-9.27906e-08 -2.53177e-07 0.0352353

0.0394598 0.00188481 -1.01073e-07
0.00188481 0.0446082 -2.28748e-07
-1.01073e-07 -2.28748e-07 0.0364322

0.0449431 0.00129034 -1.09372e-07
0.00129034 0.039116 5.4478e-08
-1.09372e-07 5.4478e-08 0.0364141

0.0355597 0.00434562 -2.72074e-08
0.00434562 0.035134 3.9345e-08
-2.72074e-08 3.9345e-08 0.0350026

0.0265711 0.00338766 7.56618e-08
0.00338766 0.0310052 7.74355e-08
7.56618e-08 7.74355e-08 0.027255

0.0330383 0.00349666 1.08813e-07
0.00349666 0.0286662 3.3272e-08
1.08813e-07 3.3272e-08 0.0300492

0.0220593 0.00576402 -1.20047e-07
0.00576402 0.0242369 5.29971e-08
-1.20047e-07 5.29971e-08 0.0160719

0.0386178 -0.00151259 -7.54145e-08
-0.00151259 0.0444315 -2.25958e-08
-7.54145e-08 -2.25958e-08 0.0363614

0.046048 -0.000463479 -6.59595e-07
-0.000463479 0.0454374 -1.04562e-08
-6.59595e-07 -1.04562e-08 0.0366903

0.0451787 -3.08137e-05 -4.26692e-08
-3.08137e-05 0.046301 -3.84292e-07
-4.26692e-08 -3.84292e-07 0.0366722

0.0176405 -0.00679462 -7.14817e-08
-0.00679462 0.0231076 -2.63562e-07
-7.14817e-08 -2.63562e-07 0.0107382

0.0392916 -0.00155581 -1.01924e-07
-0.00155581 0.038714 -1.77525e-07
-1.01924e-07 -1.77525e-07 0.0358528

0.0383962 0.00117723 1.92432e-07
0.00117723 0.0415174 -5.57484e-08
1.92432e-07 -5.57484e-08 0.0361242

0.0331742 -0.0034356 -5.19e-08
-0.0034356 0.0282187 7.70091e-08
-5.19e-08 7.70091e-08 0.0299026

0.0318438 0.000140295 1.21509e-07
0.000140295 0.0386713 6.89782e-08
1.21509e-07 6.89782e-08 0.0344496

0.0285759 -0.00265996 -2.80854e-07
-0.00265996 0.0333794 -1.57127e-07
-2.80854e-07 -1.57127e-07 0.0315884

0.0356614 0.000831777 1.81752e-07
0.000831777 0.0273768 -4.9645e-08
1.81752e-07 -4.9645e-08 0.0329993

0.0288751 0.00204455 2.20793e-08
0.00204455 0.0368157 -1.88963e-07
2.20793e-08 -1.88963e-07 0.0336688

0.0298687 0.000946597 9.99425e-08
0.000946597 0.0373874 -1.84588e-07
9.99425e-08 -1.84588e-07 0.0333627

0.0344009 0.00268466 5.26473e-08
0.00268466 0.0288507 4.04709e-08
5.26473e-08 4.04709e-08 0.0312255

0.0132789 -0.000409391 -4.8891e-08
-0.000409391 0.0281223 1.09812e-08
-4.8891e-08 1.09812e-08 0.0112011

0.0309637 -0.00362596 -2.93883e-07
-0.00362596 0.0309146 -1.34549e-07
-2.93883e-07 -1.34549e-07 0.0306087

0.0329275 -0.00344332 -1.02683e-07
-0.00344332 0.0320197 1.94311e-08
-1.02683e-07 1.94311e-08 0.0325785

0.0335703 -0.00415935 3.62156e-08
-0.00415935 0.0325341 1.19291e-07
3.62156e-08 1.19291e-07 0.0337349

0.0265612 0.00414859 1.53833e-07
0.00414859 0.0176911 4.00074e-08
1.53833e-07 4.00074e-08 0.0126048

0.0388284 -0.00269664 -1.90196e-08
-0.00269664 0.0395751 3.32351e-07
-1.90196e-08 3.32351e-07 0.0359576

0.0230823 0.00692056 -2.68639e-07
0.00692056 0.0255015 -1.46099e-07
-2.68639e-07 -1.46099e-07 0.0126092

0.0308742 -0.00281786 2.30761e-07
-0.00281786 0.0348067 3.59815e-09
2.30761e-07 3.59815e-09 0.0339554

0.0354111 0.00193664 1.18127e-07
0.00193664 0.028465 8.63121e-08
1.18127e-07 8.63121e-08 0.0323438

0.0318202 -0.00189338 -3.51449e-09
-0.00189338 0.0249501 8.70456e-08
-3.51449e-09 8.70456e-08 0.0253948

0.0292915 0.00315885 1.48088e-07
0.00315885 0.0327309 -4.62496e-08
1.48088e-07 -4.62496e-08 0.0312788

0.0344358 0.00268895 -3.29005e-08
0.00268895 0.0286338 2.43521e-07
-3.29005e-08 2.43521e-07 0.0312201

0.0325181 0.00149917 2.90251e-07
0.00149917 0.0403727 1.2869e-07
2.90251e-07 1.2869e-07 0.0353358

0.0319396 -0.00415439 9.28571e-08
-0.00415439 0.0312006 -3.3888e-07
9.28571e-08 -3.3888e-07 0.0318098

0.0396756 0.00265532 -2.74115e-09
0.00265532 0.0331978 6.96192e-08
-2.74115e-09 6.96192e-08 0.0353152

0.0279709 -0.00241865 -3.70758e-07
-0.00241865 0.0335506 -6.10207e-08
-3.70758e-07 -6.10207e-08 0.0304698

0.0293501 0.000558351 1.03275e-07
0.000558351 0.037311 -1.84215e-07
1.03275e-07 -1.84215e-07 0.0332519

0.0419438 0.00133718 -7.07776e-08
0.00133718 0.0370993 -7.0131e-08
-7.07776e-08 -7.0131e-08 0.0361155

0.0420967 -0.00114835 2.47302e-09
-0.00114835 0.0373258 -3.10331e-08
2.47302e-09 -3.10331e-08 0.0360975

0.0283826 0.00236899 -1.39901e-07
0.00236899 0.0181813 8.40029e-08
-1.39901e-07 8.40029e-08 0.0159494

0.0350253 0.00106138 1.04695e-07
0.00106138 0.0285654 8.71353e-08
1.04695e-07 8.71353e-08 0.0330582

0.0128668 0.000923326 -4.05733e-08
0.000923326 0.031626 -5.0339e-08
-4.05733e-08 -5.0339e-08 0.00612159

0.0131623 -0.00138812 1.42152e-07
-0.00138812 0.0321318 1.11089e-08
1.42152e-07 1.11089e-08 0.0061119

0.0152685 0.00715418 -1.42802e-07
0.00715418 0.0284526 -2.54641e-08
-1.42802e-07 -2.54641e-08 0.00598402

0.0347637 -0.00382114 5.31873e-08
-0.00382114 0.031267 -1.61146e-07
5.31873e-08 -1.61146e-07 0.0329384

0.0155805 -0.0061942 -1.0712e-07
-0.0061942 0.0261525 7.84111e-08
-1.0712e-07 7.84111e-08 0.0104718

0.0155127 -0.0070867 -1.85534e-07
-0.0070867 0.0274232 -1.14354e-07
-1.85534e-07 -1.14354e-07 0.00591383

0.0284256 0.0034256 -1.61279e-08
0.0034256 0.0310055 7.71512e-08
-1.61279e-08 7.71512e-08 0.0281521

0.0251931 0.00932571 2.21503e-07
0.00932571 0.0190206 -2.01804e-07
2.21503e-07 -2.01804e-07 0.00593373

0.0365374 0.00173196 -1.86066e-07
0.00173196 0.0385507 -2.20785e-07
-1.86066e-07 -2.20785e-07 0.0354745

0.0395347 2.52348e-05 1.36315e-07
2.52348e-05 0.0355391 8.45471e-09
1.36315e-07 8.45471e-09 0.0354551

0.0261068 -0.00924433 2.67944e-07
-0.00924433 0.0188123 2.22516e-07
2.67944e-07 2.22516e-07 0.0058879

0.0276893 -0.00306543 -1.92092e-07
-0.00306543 0.0320945 2.91136e-07
-1.92092e-07 2.91136e-07 0.0296222

0.0262545 0.00441803 2.11043e-07
0.00441803 0.0201576 -1.79839e-07
2.11043e-07 -1.79839e-07 0.0130444

0.017279 0.00797293 1.66312e-07
0.00797293 0.0271486 1.55893e-07
1.66312e-07 1.55893e-07 0.0059877

0.0181959 0.00275511 -4.68074e-08
0.00275511 0.0275893 -5.75601e-08
-4.68074e-08 -5.75601e-08 0.0128498

0.0173039 -0.00827616 -7.67535e-08
-0.00827616 0.027152 1.39414e-08
-7.67535e-08 1.39414e-08 0.00581366

0.0179326 -0.00157082 1.71549e-07
-0.00157082 0.0280049 -1.09264e-07
1.71549e-07 -1.09264e-07 0.0126903

0.0370498 0.000922858 -8.13543e-08
0.000922858 0.0412996 -9.4455e-09
-8.13543e-08 -9.4455e-09 0.0358093

0.0221308 -0.00585514 -1.7376e-08
-0.00585514 0.0236642 1.54172e-07
-1.7376e-08 1.54172e-07 0.0151586

0.0156999 0.00598605 8.52074e-09
0.00598605 0.025902 -1.84155e-07
8.52074e-09 -1.84155e-07 0.0107499

0.0302082 0.00473002 1.04801e-08
0.00473002 0.0143491 2.72467e-07
1.04801e-08 2.72467e-07 0.00611573

0.0329376 -0.00384929 1.08333e-07
-0.00384929 0.0301236 -2.07344e-08
1.08333e-07 -2.07344e-08 0.0310506

0.0308881 0.00169381 9.85391e-08
0.00169381 0.0368422 -1.92311e-07
9.85391e-08 -1.92311e-07 0.0339495

0.0260896 -0.00484372 2.89078e-07
-0.00484372 0.0191968 -1.40379e-07
2.89078e-07 -1.40379e-07 0.0126948

0.0329997 -0.00378587 1.09374e-07
-0.00378587 0.0300747 -1.82837e-08
1.09374e-07 -1.82837e-08 0.0311269

0.0300184 -0.00451981 6.56998e-08
-0.00451981 0.0130534 -3.6809e-07
6.56998e-08 -3.6809e-07 0.00603717

0.0324726 -0.00372739 1.96713e-07
-0.00372739 0.0313064 -1.86609e-07
1.96713e-07 -1.86609e-07 0.0319787

0.0280904 -0.00331092 -1.94529e-07
-0.00331092 0.0320029 -5.27159e-08
-1.94529e-07 -5.27159e-08 0.0296247

0.0234433 0.00874344 1.85136e-08
0.00874344 0.0204825 2.92233e-07
1.85136e-08 2.92233e-07 0.00602603

0.0181994 -0.00292064 -2.59256e-07
-0.00292064 0.0268659 -2.83954e-07
-2.59256e-07 -2.83954e-07 0.0122697

0.0233143 -0.00901911 -1.83352e-07
-0.00901911 0.0201517 -8.86699e-08
-1.83352e-07 -8.86699e-08 0.0058839

0.0170821 0.00640814 -8.77602e-09
0.00640814 0.0235656 1.46966e-07
-8.77602e-09 1.46966e-07 0.0108308

0.0308254 -0.00395998 -2.4578e-07
-0.00395998 0.0301597 1.06493e-08
-2.4578e-07 1.06493e-08 0.0300849

0.0389176 -0.00195865 1.11218e-07
-0.00195865 0.0369404 -1.75339e-07
1.11218e-07 -1.75339e-07 0.0354988

0.045541 0.00150732 -2.33304e-07
0.00150732 0.0449528 -4.16197e-07
-2.33304e-07 -4.16197e-07 0.0366185

0.0435637 -0.000711311 3.06099e-07
-0.000711311 0.0462302 -4.43347e-08
3.06099e-07 -4.43347e-08 0.0365841

0.0286149 0.00171559 -3.87179e-08
0.00171559 0.0355652 8.47865e-08
-3.87179e-08 8.47865e-08 0.032389

0.0453362 -0.00144752 2.76258e-07
-0.00144752 0.0449781 2.56796e-07
2.76258e-07 2.56796e-07 0.0366362

0.0438079 0.000567661 9.99383e-08
0.000567661 0.0465063 1.99525e-07
9.99383e-08 1.99525e-07 0.0366173

0.046679 0.000991521 -4.76918e-08
0.000991521 0.0433775 -5.04092e-08
-4.76918e-08 -5.04092e-08 0.0365924

0.0397501 -0.00163873 1.53302e-07
-0.00163873 0.0460745 6.41554e-08
1.53302e-07 6.41554e-08 0.0364822

0.0190536 -0.00388718 -4.22259e-07
-0.00388718 0.0272302 4.85697e-08
-4.22259e-07 4.85697e-08 0.0154708

0.0421403 -0.00175011 -5.54914e-08
-0.00175011 0.0367251 -1.41779e-07
-5.54914e-08 -1.41779e-07 0.0360041

0.035964 -0.0045736 -1.72531e-07
-0.0045736 0.0351499 6.21264e-08
-1.72531e-07 6.21264e-08 0.0349674

0.0397529 -0.00242202 2.08621e-07
-0.00242202 0.0360632 1.69877e-07
2.08621e-07 1.69877e-07 0.0355665

0.0351839 0.00204358 -1.0243e-08
0.00204358 0.0285484 2.452e-07
-1.0243e-08 2.452e-07 0.0322312

0.0396921 0.00133782 2.57491e-07
0.00133782 0.0472248 2.8104e-07
2.57491e-07 2.8104e-07 0.036548

0.0464969 0.00259385 -1.13245e-07
0.00259385 0.0404174 -3.19872e-07
-1.13245e-07 -3.19872e-07 0.0365292

0.0400864 0.00150571 -2.35791e-08
0.00150571 0.036673 3.79253e-08
-2.35791e-08 3.79253e-08 0.0356146

0.027914 -0.00191985 -2.57206e-07
-0.00191985 0.0125245 -3.35402e-07
-2.57206e-07 -3.35402e-07 0.0106243

0.0283185 0.0032676 -6.72694e-08
0.0032676 0.0315493 -1.35814e-07
-6.72694e-08 -1.35814e-07 0.02941

0.0231876 -0.00773573 -4.02951e-08
-0.00773573 0.0181795 -2.04134e-07
-4.02951e-08 -2.04134e-07 0.0102892

0.0228302 -0.00731559 4.38714e-08
-0.00731559 0.0257681 9.70724e-08
4.38714e-08 9.70724e-08 0.0119543

0.0290219 -0.00464688 -3.23556e-07
-0.00464688 0.0191279 -1.53358e-07
-3.23556e-07 -1.53358e-07 0.0126148

0.0375738 -0.000660635 -1.22415e-07
-0.000660635 0.0449105 3.12907e-07
-1.22415e-07 3.12907e-07 0.0362931

0.0375716 0.000358156 -1.90436e-07
0.000358156 0.0447899 -4.09099e-07
-1.90436e-07 -4.09099e-07 0.0362734

0.0426046 -0.00327422 2.54477e-07
-0.00327422 0.03945 -1.95764e-07
2.54477e-07 -1.95764e-07 0.0362272

0.0429987 -0.00294469 -1.46569e-07
-0.00294469 0.0391683 -1.5492e-07
-1.46569e-07 -1.5492e-07 0.0362342

0.0425015 0.00350473 6.85289e-08
0.00350473 0.0399723 2.77221e-07
6.85289e-08 2.77221e-07 0.036272

0.0443975 0.000417496 -6.84069e-07
0.000417496 0.0450803 -1.2031e-06
-6.84069e-07 -1.2031e-06 0.0366354

0.0426082 -0.0027445 3.75793e-08
-0.0027445 0.0395071 6.97229e-09
3.75793e-08 6.97229e-09 0.0362888

0.0426019 -0.00251229 -8.96507e-08
-0.00251229 0.0442679 6.50393e-07
-8.96507e-08 6.50393e-07 0.036563

0.0451182 0.000331677 5.73394e-08
0.000331677 0.0454673 3.91431e-07
5.73394e-08 3.91431e-07 0.0366537

0.0436373 -0.00278318 -8.02056e-08
-0.00278318 0.0389162 1.0449e-07
-8.02056e-08 1.0449e-07 0.0363294

0.0435119 0.00283928 2.74584e-07
0.00283928 0.039069 1.98178e-07
2.74584e-07 1.98178e-07 0.0363675

0.0451938 -0.000471138 5.94601e-07
-0.000471138 0.045582 -4.19103e-07
5.94601e-07 -4.19103e-07 0.0367023

0.045227 -0.000424796 -2.26155e-07
-0.000424796 0.0443589 5.04026e-07
-2.26155e-07 5.04026e-07 0.0367207

0.0427995 0.00163846 1.82379e-07
0.00163846 0.044249 -1.79388e-07
1.82379e-07 -1.79388e-07 0.0366067

0.0411159 0.00361883 6.75627e-08
0.00361883 0.0405161 1.61908e-07
6.75627e-08 1.61908e-07 0.0363213

SCALARS pressure float
LOOKUP_TABLE default
-60.0507
19.3082
5.8033
21.2901
15.8788
5.88726
-58.6739
7.78304
-3.80496
15.1245
-24.4316
7.6172
5.59201
12.2792
23.3377
5.53889
18.5208
13.2071
-0.692966
6.75645
-0.904925
33.1348
5.80067
5.79674
6.60174
14.9027
-38.3849
6.67159
-15.2423
30.6263
5.17624
-15.6571
-42.0559
27.3262
20.7791
27.3591
31.8846
19.8091
4.85953
-42.5992
-17.4073
31.9054
31.9935
5.99348
-21.8048
-15.9758
-1.05255
-3.40557
6.5447
-16.2177
-18.9187
-15.3458
20.7556
-15.3731
20.3088
-33.1484
21.1296
-15.4602
21.1395
7.0448
21.7647
16.1188
-45.5617
12.7897
16.3621
10.905
21.5739
13.828
5.77337
21.817
20.8117
20.7823
-17.6909
11.6005
3.97386
-31.6094
14.3567
10.9962
14.146
-8.72008
-28.9446
14.9777
20.1631
-22.0378
-23.4293
-28.0918
7.09766
9.63232
-22.2156
37.7416
-15.509
38.4442
18.3045
10.7614
-15.1665
-15.8727
-30.2211
14.7534
14.3657
4.59861
-10.7663
-21.9394
-25.1014
16.2128
14.1001
14.9615
18.6975
3.77464
-24.5582
26.5131
7.21743
-21.4088
-24.6118
14.8378
15.078
-16.1456
20.1649
-29.1131
20.6286
-16.7293
-2.90484
23.8339
21.727
16.0329
26.6797
22.6316
21.7856
15.7084
-29.7807
-16.0989
24.0917
21.6173
20.9893
22.0656
-22.0138
23.5872
-33.8371
5.46329
21.7543
23.6306
-21.9367
6.67635
-5.96683
15.0834
-30.4073
15.6239
7.83309
2.40746
5.17765
-9.39457
-0.458135
22.6415
-15.4545
5.29091
15.2041
21.5605
11.5081
-21.1132
-21.2637
10.7903
-2.84288
-15.1976
-21.2203
-15.1652
-20.9864
15.2796
-20.6358
-21.2015
-15.2078
-21.0637
19.0043
-15.941
-14.8244
12.0643
-14.4847
18.8028
19.0534
7.47262
18.0479
11.7729
-16.249
15.2881
14.9608
-21.5284
10.4264
-14.2213
16.0486
14.5955
17.0818
14.835
10.3437
-26.9761
-16.0822
-15.9581
21.9069
14.5257
14.6245
20.9226
22.4869
9.50258
21.7337
-0.384874
-8.17096
20.7787
-17.8387
19.9456
10.3641
-21.5175
15.7211
22.5261
14.7312
9.39336
14.1898
21.0556
-7.83301
8.82745
-7.90882
14.6482
26.9277
26.5814
27.9605
26.3886
26.7243
26.291
13.8258
23.4303
24.0295
23.9737
23.4
21.1927
21.8573
-8.26307
15.9334
28.1911
-3.18894
23.5761
23.2054
27.8344
-8.49377
28.0965
15.3445
-7.58184
17.4921
-8.25804
20.2272
29.6128
-7.48623
-8.101
-29.5918
-18.189
19.5272
-31.9853
5.73409
-7.79419
-1.1898
28.2492
26.6403
30.4268
26.761
-34.8007
-8.17989
28.3374
8.07262
-8.2954
26.446
-6.29556
30.4717
-7.95432
27.0471
14.5659
14.787
23.8452
10.0474
18.021
8.11681
-29.8597
-24.553
16.8068
1.75934
8.17927
-13.6089
17.4357
11.6997
-8.10175
9.45196
-10.8236
7.51667
-10.7548
-8.48497
33.2647
19.1517
25.0884
25.3127
13.829
-10.4047
26.4299
14.6849
-1.65936
-10.274
-12.5644
17.5066
-7.48548
17.5745
-12.0414
-21.3503
-10.6084
-34.681
15.5624
-7.76322
34.4427
-11.5781
16.8713
-8.409
15.9726
-12.7584
4.28879
-51.1179
8.52134
-7.74689
21.3338
-8.1524
-0.123271
10.7152
21.1241
-12.0608
-10.2009
-6.06862
14.3179
-10.1802
6.88761
6.3853
16.3054
-10.4197
-6.33073
-1.70273
-5.66082
-11.0786
-5.84504
15.3054
7.80763
-5.55642
-8.9607
7.80506
7.69391
-10.6748
16.3093
-27.2133
2.2926
-28.4811
-0.957991
-8.87819
-8.09648
-11.7791
-10.9428
-9.88107
-7.77608
-7.89944
16.6377
24.778
12.1157
-0.292118
-0.82567
-5.67499
7.30478
-6.32108
-6.31837
24.9238
-5.73042
14.1179
-15.9084
24.3253
5.96766
-0.391674
-5.64427
16.2749
2.4766
0.198542
2.44758
0.455411
-0.741363
-9.93052
-0.0961132
2.11276
15.0689
-1.28879
-1.40768
-0.999337
-0.389094
1.96479
8.05026
-1.19408
8.07771
5.58272
-0.436155
7.03481
5.48976
-3.87695
16.4765
-1.90389
23.0622
-21.9732
15.044
15.6822
2.03914
-1.99798
12.5426
-26.5059
5.79175
-1.65842
-50.4823
30.4987
30.6354
5.82439
-1.14488
-1.04731
-0.85021
33.4194
33.2941
13.0945
6.08146
6.66193
-28.962
-1.27994
16.5334
-3.18318
-4.34859
-0.0174627
-25.2706
14.303
-1.28071
2.86128
2.69268
-2.72375
-0.0498428
-3.20998
-4.03403
-37.9818
-33.683
-0.128549
1.87397
-0.534601
-3.74467
-1.93709
-1.87821
-0.924824
-21.9072
17.2495
-0.769848
12.5649
14.1834
-26.7637
6.28579
7.13634
18.4778
36.4285
36.461
22.6387
-1.75632
2.59912
-20.9293
36.1271
32.7607
32.8277
-24.8079
21.7757
30.5239
2.59861
15.7239
10.3709
17.1642
17.726
12.5053
5.68091
-25.3974
4.25958
10.409
16.2438
-31.7092
28.3102
-52.7093
18.6848
10.2986
-10.6276
7.4169
5.45661
24.4746
9.41064
24.4076
4.10467
12.3996
30.6411
29.4669
-22.9898
17.4353
-70.2283
-74.3747
-67.1723
11.648
-31.2591
-63.6057
-3.80398
-69.9337
16.4632
16.4069
-73.7498
5.2116
-39.7288
-70.7343
-37.7548
-71.8706
-39.4503
21.1371
-23.9596
-29.0431
-70.6181
4.83093
15.7574
-36.1887
6.05302
-63.6134
9.83552
3.88113
-67.8968
-37.6224
-66.4063
-23.7546
5.02855
20.5264
35.3727
36.7285
11.8116
36.8523
36.9056
36.494
36.4059
-24.4784
28.2488
20.6691
21.9809
11.5342
36.0619
36.0933
18.1203
-23.9394
3.24602
-30.5253
-56.5953
-50.4725
36.1449
35.8257
35.3823
35.4525
36.1609
35.6006
33.1113
37.3726
35.402
36.0077
35.64
34.1984
34.335
35.8581
35.311
