# vtk DataFile Version 3.0
vtk output at time 250
ASCII
DATASET UNSTRUCTURED_GRID
POINTS 626 float
-3.68058e-05 0.000978749 0 3.68058e-05 0.000978749 0 -0.000829194 0.00052125 0 
-0.0008235 0.0005 0 -0.000866 0.0004575 0 -0.000866 -0.0004575 0 
-0.0008235 -0.0005 0 -0.000829194 -0.00052125 0 -3.68058e-05 -0.000978749 0 
3.68058e-05 -0.000978749 0 0.000829194 -0.00052125 0 0.000866 -0.0004575 0 
0.000866 0.0004575 0 0.000829194 0.00052125 0 8.5e-05 0 0 
-3.68058e-05 0.000978749 -0.001 3.68058e-05 0.000978749 -0.001 -0.000829194 0.00052125 -0.001 
-0.0008235 0.0005 -0.001 -0.000866 0.0004575 -0.001 -0.000866 -0.0004575 -0.001 
-0.0008235 -0.0005 -0.001 -0.000829194 -0.00052125 -0.001 -3.68058e-05 -0.000978749 -0.001 
3.68058e-05 -0.000978749 -0.001 0.000829194 -0.00052125 -0.001 0.000866 -0.0004575 -0.001 
0.000866 0.0004575 -0.001 0.000829194 0.00052125 -0.001 8.5e-05 0 -0.001 
8.46223e-17 0.0009575 0 -0.000715996 0.000586607 0 -0.000602797 0.000651965 0 
-0.000489599 0.000717321 0 -0.000376401 0.000782678 0 -0.000263202 0.000848036 0 
-0.000150004 0.000913393 0 -0.000835948 0.000469948 0 -0.000866 -0.000326786 0 
-0.000866 -0.000196071 0 -0.000866 -6.53571e-05 0 -0.000866 6.53571e-05 0 
-0.000866 0.000196071 0 -0.000866 0.000326786 0 -0.000835948 -0.000469948 0 
-0.000150004 -0.000913393 0 -0.000263202 -0.000848036 0 -0.000376401 -0.000782678 0 
-0.000489599 -0.000717321 0 -0.000602797 -0.000651965 0 -0.000715996 -0.000586607 0 
8.47648e-17 -0.0009575 0 0.000715996 -0.000586607 0 0.000602797 -0.000651965 0 
0.000489599 -0.000717321 0 0.000376401 -0.000782678 0 0.000263202 -0.000848036 0 
0.000150004 -0.000913393 0 0.000829194 -0.00047875 0 0.000866 0.000326786 0 
0.000866 0.000196071 0 0.000866 6.53571e-05 0 0.000866 -6.53571e-05 0 
0.000866 -0.000196071 0 0.000866 -0.000326786 0 0.000829194 0.00047875 0 
0.000150004 0.000913393 0 0.000263202 0.000848036 0 0.000376401 0.000782678 0 
0.000489599 0.000717321 0 0.000602797 0.000651965 0 0.000715996 0.000586607 0 
5.29966e-05 6.64557e-05 0 -1.89143e-05 8.28689e-05 0 -7.65824e-05 3.68801e-05 0 
-7.65824e-05 -3.68801e-05 0 -1.89143e-05 -8.28689e-05 0 5.29966e-05 -6.64557e-05 0 
8.46223e-17 0.0009575 -0.001 -0.000715996 0.000586607 -0.001 -0.000602797 0.000651965 -0.001 
-0.000489599 0.000717321 -0.001 -0.000376401 0.000782678 -0.001 -0.000263202 0.000848036 -0.001 
-0.000150004 0.000913393 -0.001 -0.000835948 0.000469948 -0.001 -0.000866 -0.000326786 -0.001 
-0.000866 -0.000196071 -0.001 -0.000866 -6.53571e-05 -0.001 -0.000866 6.53571e-05 -0.001 
-0.000866 0.000196071 -0.001 -0.000866 0.000326786 -0.001 -0.000835948 -0.000469948 -0.001 
-0.000150004 -0.000913393 -0.001 -0.000263202 -0.000848036 -0.001 -0.000376401 -0.000782678 -0.001 
-0.000489599 -0.000717321 -0.001 -0.000602797 -0.000651965 -0.001 -0.000715996 -0.000586607 -0.001 
8.47648e-17 -0.0009575 -0.001 0.000715996 -0.000586607 -0.001 0.000602797 -0.000651965 -0.001 
0.000489599 -0.000717321 -0.001 0.000376401 -0.000782678 -0.001 0.000263202 -0.000848036 -0.001 
0.000150004 -0.000913393 -0.001 0.000829194 -0.00047875 -0.001 0.000866 0.000326786 -0.001 
0.000866 0.000196071 -0.001 0.000866 6.53571e-05 -0.001 0.000866 -6.53571e-05 -0.001 
0.000866 -0.000196071 -0.001 0.000866 -0.000326786 -0.001 0.000829194 0.00047875 -0.001 
0.000150004 0.000913393 -0.001 0.000263202 0.000848036 -0.001 0.000376401 0.000782678 -0.001 
0.000489599 0.000717321 -0.001 0.000602797 0.000651965 -0.001 0.000715996 0.000586607 -0.001 
5.29966e-05 6.64557e-05 -0.001 -1.89143e-05 8.28689e-05 -0.001 -7.65824e-05 3.68801e-05 -0.001 
-7.65824e-05 -3.68801e-05 -0.001 -1.89143e-05 -8.28689e-05 -0.001 5.29966e-05 -6.64557e-05 -0.001 
0.000131234 6.38474e-05 0 0.00012964 -6.2443e-05 0 3.13827e-05 0.0001394 0 
3.12554e-05 -0.000136939 0 -0.000140461 8.25467e-19 0 -8.90565e-05 -0.000102707 0 
-9.04142e-05 0.000102872 0 -0.000765769 -0.00025965 0 -0.000756873 0.000262774 0 
-0.00015609 0.000787505 0 -0.000155807 -0.00079355 0 0.000605069 0.000528035 0 
0.000608694 -0.00052497 0 0.000744069 0.000116929 0 -0.000494418 0.000596218 0 
-0.000483866 -0.000584648 0 0.000269496 0.000702219 0 0.000263201 -0.000717324 0 
0.000754429 -0.000127825 0 -0.000748858 5.84659e-07 0 -0.000747838 0.000373886 0 
-0.0006542 0.000324842 0 -0.000645137 0.000210123 0 -0.000550884 0.000274171 0 
-0.000538857 0.000163195 0 -0.00045062 0.000224461 0 -0.000438393 0.000123907 0 
-0.000354088 0.000181668 0 -0.000363908 0.000282171 0 -0.000270361 0.000239477 0 
-0.000279138 0.000337653 0 -0.000188888 0.000294791 0 -0.000196448 0.000393271 0 
-0.000104767 0.000348259 0 -0.000113332 0.000449012 0 -2.01066e-05 0.000403223 0 
-2.89189e-05 0.000507105 0 6.9524e-05 0.000461596 0 -0.000213644 0.000490203 0 
7.33757e-05 0.000357726 0 0.000163331 0.00041299 0 0.000163359 0.000313022 0 
0.000248077 0.000366368 0 0.000250914 0.000265758 0 0.000335709 0.000322266 0 
0.000340555 0.000218148 0 0.000427299 0.000276717 0 0.000431508 0.000173093 0 
0.000328731 0.000425633 0 0.00034586 0.000114823 0 0.000435362 7.05241e-05 0 
0.000350892 1.5455e-05 0 0.000441547 -3.11896e-05 0 0.000353547 -8.47783e-05 0 
0.000445767 -0.000132964 0 0.000356135 -0.000186358 0 0.000449094 -0.000234674 0 
0.000359978 -0.000287876 0 0.00026856 -0.000240545 0 0.000271895 -0.000341045 0 
0.000181792 -0.00029305 0 0.00018533 -0.000392851 0 9.75701e-05 -0.00034483 0 
9.98764e-05 -0.000444884 0 8.75116e-06 -0.000396343 0 1.20916e-05 -0.000500496 0 
-7.83929e-05 -0.000449843 0 -8.1471e-05 -0.000347249 0 -0.000171566 -0.000403733 0 
-0.000169889 -0.000298891 0 -0.000259867 -0.000354132 0 -0.000257696 -0.000249137 0 
-0.00034313 -0.000299896 0 -0.000344514 -0.000199127 0 -0.000434309 -0.000250039 0 
-0.000169832 -0.000505815 0 -0.000435227 -0.000146227 0 0.000280331 -0.000442424 0 
-0.000340889 8.76793e-05 0 -0.000515252 4.06198e-05 0 6.50491e-05 0.000568253 0 
0.00053278 1.74743e-05 0 0.000522071 0.000229831 0 -0.00037162 0.000391659 0 
-0.000255272 -0.000150439 0 -0.000442893 -0.000350705 0 0.000450067 -0.000332559 0 
0.000545175 -0.000276306 0 -0.000527797 -0.000197598 0 0.000105306 -0.000551033 0 
1.45836e-05 -0.000609147 0 0.00017145 0.000214453 0 0.000515525 0.000341711 0 
0.000636086 0.000290368 0 -0.000558657 0.000404468 0 -4.01232e-05 0.000616718 0 
6.60192e-05 0.000696422 0 -0.000101806 0.0002546 0 0.000271142 -3.88908e-05 0 
0.000179455 -0.00018534 0 -8.79553e-05 -0.000254307 0 -0.000749267 -0.000373451 0 
-0.000655941 -0.000323397 0 0.000709746 0.000466718 0 0.000698426 -0.000473086 0 
-5.25801e-05 -0.00084886 0 -4.93005e-05 0.000848038 0 0.000617396 -0.000413362 0 
0.000702056 -0.000369817 0 0.000131459 -0.000679171 0 2.48171e-05 -0.000715924 0 
-0.000664217 -0.00042729 0 -0.000528828 -8.80444e-05 0 -0.000611101 -0.000136672 0 
-0.000426972 -4.45841e-05 0 0.000800669 0.000378216 0 0.000821144 -0.000415062 0 
7.2799e-05 0.00088254 0 6.81831e-05 -0.00087503 0 0.000104963 -0.000788946 0 
-7.40696e-05 -0.000660054 0 0.000126061 0.000809943 0 0.000764361 0.000295682 0 
0.000166862 0.000630623 0 0.000516462 -0.00046707 0 -0.000563585 -0.000389606 0 
-0.000622598 -1.40238e-05 0 0.000629891 0.000171529 0 2.5614e-06 -0.000299794 0 
8.6901e-05 -0.00024329 0 0.000272045 -0.000136982 0 -0.00075148 0.000138321 0 
0.000209366 -0.000599589 0 0.000324913 -0.000630055 0 0.000614044 0.00041245 0 
0.00049651 -0.000573327 0 0.000394822 -0.000507321 0 -0.000173714 -0.000206698 0 
0.000264897 5.63722e-05 0 0.000247997 0.000152811 0 -4.63327e-05 -0.000920208 0 
9.18688e-05 0.000258626 0 -5.54111e-06 0.000290558 0 -0.000184219 0.000201484 0 
-0.000263559 0.000142267 0 -0.000256427 5.13624e-05 0 -0.000336894 -2.06179e-06 0 
-0.000228499 -4.2388e-05 0 -0.00017589 0.000106626 0 -0.000769947 -0.000133367 0 
0.000767591 -0.000500293 0 -5.05874e-05 0.000737978 0 0.000754456 -3.51771e-06 0 
0.00064691 -6.15298e-05 0 0.000630483 -0.00018134 0 0.000749187 -0.000265543 0 
-0.000760805 -0.000462521 0 0.000638155 6.09315e-05 0 -4.46661e-05 0.000922995 0 
-2.37945e-05 0.000207237 0 0.000776979 0.000500181 0 -0.000605691 0.000527596 0 
-0.000377914 -0.000653727 0 -0.000372325 -0.000526022 0 -0.000275829 -0.000589621 0 
-0.000254285 -0.000710579 0 -0.000379307 0.000656222 0 -0.000379818 0.00052718 0 
-0.000266817 0.000721555 0 -0.000150544 0.000668174 0 0.000381963 0.00065079 0 
0.000493113 0.000590432 0 0.000505439 0.000463708 0 -0.000269094 0.000596608 0 
0.000385815 0.000532045 0 0.000283599 0.0005899 0 -0.000176405 -0.000108505 0 
-0.000278769 -0.000475415 0 0.000185395 2.33014e-06 0 0.000186773 0.000517571 0 
0.000540032 -8.68444e-05 0 -0.000600694 -0.000514877 0 -0.00063703 8.98033e-05 0 
-0.000459677 0.000335729 0 -0.000338836 -0.000100751 0 -0.000457327 0.000432721 0 
-8.72007e-06 -0.000210238 0 0.000156073 0.000129496 0 -7.70692e-05 -0.000555049 0 
0.00036091 -0.000389728 0 0.000531628 0.000120564 0 -0.000285451 0.000435562 0 
0.000192719 -0.000494604 0 0.00041642 0.00039368 0 -0.000135943 0.000554637 0 
-0.000170665 -0.000610079 0 -0.000666304 0.000434981 0 -0.000758736 0.000479231 0 
-0.000470189 -0.000458901 0 0.000203433 -8.59809e-05 0 0.000101846 0.000170114 0 
-0.00035513 -0.00040726 0 0.000100184 -0.000165831 0 2.96286e-05 0.00081537 0 
0.000720946 0.000381836 0 -0.000539809 -0.000292001 0 0.00052211 -0.000182426 0 
-6.41339e-05 -0.000753908 0 0.000638039 -0.000299861 0 -0.000605136 -0.000230182 0 
-3.41638e-05 -0.000145561 0 -0.000104037 0.000172396 0 -0.000808575 -0.00042774 0 
-0.000807207 -0.000465052 0 -0.00080817 0.000429771 0 -0.000806589 0.000469738 0 
-9.50634e-05 -0.000178909 0 0.000247777 0.000445058 0 1.48293e-05 -0.000814201 0 
-4.11555e-05 0.000140955 0 0.000276104 -0.000536845 0 0.000765969 -0.000436638 0 
0.000780871 -0.000362769 0 0.000424176 -0.000642018 0 0.00053413 -0.000368009 0 
-0.000416333 4.17911e-05 0 -0.000133891 -6.23822e-05 0 4.2574e-05 0.000206312 0 
0.000141163 -0.000121542 0 0.000707423 0.000212137 0 0.000172327 0.000723882 0 
7.72652e-06 -0.00090254 0 -0.000134435 5.66935e-05 0 -0.000188826 3.70894e-05 0 
0.000197119 8.09714e-05 0 1.27801e-05 0.000917296 0 0.000800767 0.00044758 0 
-0.000686682 0.000507104 0 9.35831e-05 0.000110457 0 -0.000696793 -0.000509595 0 
-0.00068446 -8.52012e-05 0 -0.000691033 -0.000201242 0 5.24052e-05 -0.000189075 0 
-0.000151818 -0.000701092 0 -0.000296988 0.000518087 0 9.31023e-05 -0.000108117 0 
0.00044261 -0.000416726 0 0.000197044 -0.000784423 0 -0.000516861 0.000504567 0 
0.000298997 0.000502377 0 0.000131234 6.38474e-05 -0.001 0.00012964 -6.2443e-05 -0.001 
3.13827e-05 0.0001394 -0.001 3.12554e-05 -0.000136939 -0.001 -0.000140461 8.25467e-19 -0.001 
-8.90565e-05 -0.000102707 -0.001 -9.04142e-05 0.000102872 -0.001 -0.000765769 -0.00025965 -0.001 
-0.000756873 0.000262774 -0.001 -0.00015609 0.000787505 -0.001 -0.000155807 -0.00079355 -0.001 
0.000605069 0.000528035 -0.001 0.000608694 -0.00052497 -0.001 0.000744069 0.000116929 -0.001 
-0.000494418 0.000596218 -0.001 -0.000483866 -0.000584648 -0.001 0.000269496 0.000702219 -0.001 
0.000263201 -0.000717324 -0.001 0.000754429 -0.000127825 -0.001 -0.000748858 5.84659e-07 -0.001 
-0.000747838 0.000373886 -0.001 -0.0006542 0.000324842 -0.001 -0.000645137 0.000210123 -0.001 
-0.000550884 0.000274171 -0.001 -0.000538857 0.000163195 -0.001 -0.00045062 0.000224461 -0.001 
-0.000438393 0.000123907 -0.001 -0.000354088 0.000181668 -0.001 -0.000363908 0.000282171 -0.001 
-0.000270361 0.000239477 -0.001 -0.000279138 0.000337653 -0.001 -0.000188888 0.000294791 -0.001 
-0.000196448 0.000393271 -0.001 -0.000104767 0.000348259 -0.001 -0.000113332 0.000449012 -0.001 
-2.01066e-05 0.000403223 -0.001 -2.89189e-05 0.000507105 -0.001 6.9524e-05 0.000461596 -0.001 
-0.000213644 0.000490203 -0.001 7.33757e-05 0.000357726 -0.001 0.000163331 0.00041299 -0.001 
0.000163359 0.000313022 -0.001 0.000248077 0.000366368 -0.001 0.000250914 0.000265758 -0.001 
0.000335709 0.000322266 -0.001 0.000340555 0.000218148 -0.001 0.000427299 0.000276717 -0.001 
0.000431508 0.000173093 -0.001 0.000328731 0.000425633 -0.001 0.00034586 0.000114823 -0.001 
0.000435362 7.05241e-05 -0.001 0.000350892 1.5455e-05 -0.001 0.000441547 -3.11896e-05 -0.001 
0.000353547 -8.47783e-05 -0.001 0.000445767 -0.000132964 -0.001 0.000356135 -0.000186358 -0.001 
0.000449094 -0.000234674 -0.001 0.000359978 -0.000287876 -0.001 0.00026856 -0.000240545 -0.001 
0.000271895 -0.000341045 -0.001 0.000181792 -0.00029305 -0.001 0.00018533 -0.000392851 -0.001 
9.75701e-05 -0.00034483 -0.001 9.98764e-05 -0.000444884 -0.001 8.75116e-06 -0.000396343 -0.001 
1.20916e-05 -0.000500496 -0.001 -7.83929e-05 -0.000449843 -0.001 -8.1471e-05 -0.000347249 -0.001 
-0.000171566 -0.000403733 -0.001 -0.000169889 -0.000298891 -0.001 -0.000259867 -0.000354132 -0.001 
-0.000257696 -0.000249137 -0.001 -0.00034313 -0.000299896 -0.001 -0.000344514 -0.000199127 -0.001 
-0.000434309 -0.000250039 -0.001 -0.000169832 -0.000505815 -0.001 -0.000435227 -0.000146227 -0.001 
0.000280331 -0.000442424 -0.001 -0.000340889 8.76793e-05 -0.001 -0.000515252 4.06198e-05 -0.001 
6.50491e-05 0.000568253 -0.001 0.00053278 1.74743e-05 -0.001 0.000522071 0.000229831 -0.001 
-0.00037162 0.000391659 -0.001 -0.000255272 -0.000150439 -0.001 -0.000442893 -0.000350705 -0.001 
0.000450067 -0.000332559 -0.001 0.000545175 -0.000276306 -0.001 -0.000527797 -0.000197598 -0.001 
0.000105306 -0.000551033 -0.001 1.45836e-05 -0.000609147 -0.001 0.00017145 0.000214453 -0.001 
0.000515525 0.000341711 -0.001 0.000636086 0.000290368 -0.001 -0.000558657 0.000404468 -0.001 
-4.01232e-05 0.000616718 -0.001 6.60192e-05 0.000696422 -0.001 -0.000101806 0.0002546 -0.001 
0.000271142 -3.88908e-05 -0.001 0.000179455 -0.00018534 -0.001 -8.79553e-05 -0.000254307 -0.001 
-0.000749267 -0.000373451 -0.001 -0.000655941 -0.000323397 -0.001 0.000709746 0.000466718 -0.001 
0.000698426 -0.000473086 -0.001 -5.25801e-05 -0.00084886 -0.001 -4.93005e-05 0.000848038 -0.001 
0.000617396 -0.000413362 -0.001 0.000702056 -0.000369817 -0.001 0.000131459 -0.000679171 -0.001 
2.48171e-05 -0.000715924 -0.001 -0.000664217 -0.00042729 -0.001 -0.000528828 -8.80444e-05 -0.001 
-0.000611101 -0.000136672 -0.001 -0.000426972 -4.45841e-05 -0.001 0.000800669 0.000378216 -0.001 
0.000821144 -0.000415062 -0.001 7.2799e-05 0.00088254 -0.001 6.81831e-05 -0.00087503 -0.001 
0.000104963 -0.000788946 -0.001 -7.40696e-05 -0.000660054 -0.001 0.000126061 0.000809943 -0.001 
0.000764361 0.000295682 -0.001 0.000166862 0.000630623 -0.001 0.000516462 -0.00046707 -0.001 
-0.000563585 -0.000389606 -0.001 -0.000622598 -1.40238e-05 -0.001 0.000629891 0.000171529 -0.001 
2.5614e-06 -0.000299794 -0.001 8.6901e-05 -0.00024329 -0.001 0.000272045 -0.000136982 -0.001 
-0.00075148 0.000138321 -0.001 0.000209366 -0.000599589 -0.001 0.000324913 -0.000630055 -0.001 
0.000614044 0.00041245 -0.001 0.00049651 -0.000573327 -0.001 0.000394822 -0.000507321 -0.001 
-0.000173714 -0.000206698 -0.001 0.000264897 5.63722e-05 -0.001 0.000247997 0.000152811 -0.001 
-4.63327e-05 -0.000920208 -0.001 9.18688e-05 0.000258626 -0.001 -5.54111e-06 0.000290558 -0.001 
-0.000184219 0.000201484 -0.001 -0.000263559 0.000142267 -0.001 -0.000256427 5.13624e-05 -0.001 
-0.000336894 -2.06179e-06 -0.001 -0.000228499 -4.2388e-05 -0.001 -0.00017589 0.000106626 -0.001 
-0.000769947 -0.000133367 -0.001 0.000767591 -0.000500293 -0.001 -5.05874e-05 0.000737978 -0.001 
0.000754456 -3.51771e-06 -0.001 0.00064691 -6.15298e-05 -0.001 0.000630483 -0.00018134 -0.001 
0.000749187 -0.000265543 -0.001 -0.000760805 -0.000462521 -0.001 0.000638155 6.09315e-05 -0.001 
-4.46661e-05 0.000922995 -0.001 -2.37945e-05 0.000207237 -0.001 0.000776979 0.000500181 -0.001 
-0.000605691 0.000527596 -0.001 -0.000377914 -0.000653727 -0.001 -0.000372325 -0.000526022 -0.001 
-0.000275829 -0.000589621 -0.001 -0.000254285 -0.000710579 -0.001 -0.000379307 0.000656222 -0.001 
-0.000379818 0.00052718 -0.001 -0.000266817 0.000721555 -0.001 -0.000150544 0.000668174 -0.001 
0.000381963 0.00065079 -0.001 0.000493113 0.000590432 -0.001 0.000505439 0.000463708 -0.001 
-0.000269094 0.000596608 -0.001 0.000385815 0.000532045 -0.001 0.000283599 0.0005899 -0.001 
-0.000176405 -0.000108505 -0.001 -0.000278769 -0.000475415 -0.001 0.000185395 2.33014e-06 -0.001 
0.000186773 0.000517571 -0.001 0.000540032 -8.68444e-05 -0.001 -0.000600694 -0.000514877 -0.001 
-0.00063703 8.98033e-05 -0.001 -0.000459677 0.000335729 -0.001 -0.000338836 -0.000100751 -0.001 
-0.000457327 0.000432721 -0.001 -8.72007e-06 -0.000210238 -0.001 0.000156073 0.000129496 -0.001 
-7.70692e-05 -0.000555049 -0.001 0.00036091 -0.000389728 -0.001 0.000531628 0.000120564 -0.001 
-0.000285451 0.000435562 -0.001 0.000192719 -0.000494604 -0.001 0.00041642 0.00039368 -0.001 
-0.000135943 0.000554637 -0.001 -0.000170665 -0.000610079 -0.001 -0.000666304 0.000434981 -0.001 
-0.000758736 0.000479231 -0.001 -0.000470189 -0.000458901 -0.001 0.000203433 -8.59809e-05 -0.001 
0.000101846 0.000170114 -0.001 -0.00035513 -0.00040726 -0.001 0.000100184 -0.000165831 -0.001 
2.96286e-05 0.00081537 -0.001 0.000720946 0.000381836 -0.001 -0.000539809 -0.000292001 -0.001 
0.00052211 -0.000182426 -0.001 -6.41339e-05 -0.000753908 -0.001 0.000638039 -0.000299861 -0.001 
-0.000605136 -0.000230182 -0.001 -3.41638e-05 -0.000145561 -0.001 -0.000104037 0.000172396 -0.001 
-0.000808575 -0.00042774 -0.001 -0.000807207 -0.000465052 -0.001 -0.00080817 0.000429771 -0.001 
-0.000806589 0.000469738 -0.001 -9.50634e-05 -0.000178909 -0.001 0.000247777 0.000445058 -0.001 
1.48293e-05 -0.000814201 -0.001 -4.11555e-05 0.000140955 -0.001 0.000276104 -0.000536845 -0.001 
0.000765969 -0.000436638 -0.001 0.000780871 -0.000362769 -0.001 0.000424176 -0.000642018 -0.001 
0.00053413 -0.000368009 -0.001 -0.000416333 4.17911e-05 -0.001 -0.000133891 -6.23822e-05 -0.001 
4.2574e-05 0.000206312 -0.001 0.000141163 -0.000121542 -0.001 0.000707423 0.000212137 -0.001 
0.000172327 0.000723882 -0.001 7.72652e-06 -0.00090254 -0.001 -0.000134435 5.66935e-05 -0.001 
-0.000188826 3.70894e-05 -0.001 0.000197119 8.09714e-05 -0.001 1.27801e-05 0.000917296 -0.001 
0.000800767 0.00044758 -0.001 -0.000686682 0.000507104 -0.001 9.35831e-05 0.000110457 -0.001 
-0.000696793 -0.000509595 -0.001 -0.00068446 -8.52012e-05 -0.001 -0.000691033 -0.000201242 -0.001 
5.24052e-05 -0.000189075 -0.001 -0.000151818 -0.000701092 -0.001 -0.000296988 0.000518087 -0.001 
9.31023e-05 -0.000108117 -0.001 0.00044261 -0.000416726 -0.001 0.000197044 -0.000784423 -0.001 
-0.000516861 0.000504567 -0.001 0.000298997 0.000502377 -0.001 

CELLS 563 3941
6 14 304 127 29 554 377 
6 143 259 55 393 509 103 
6 300 319 174 550 569 424 
6 259 349 55 509 599 103 
6 50 365 307 98 615 557 
6 299 320 164 549 570 414 
6 126 304 14 376 554 29 
6 298 319 300 548 569 550 
6 205 240 238 455 490 488 
6 257 308 145 507 558 395 
6 130 352 273 380 602 523 
6 295 320 299 545 570 549 
6 324 327 289 574 577 539 
6 235 258 143 485 508 393 
6 50 307 49 98 557 97 
6 207 283 279 457 533 529 
6 143 373 235 393 623 485 
6 145 308 252 395 558 502 
6 194 303 196 444 553 446 
6 279 306 207 529 556 457 
6 206 305 163 456 555 413 
6 51 357 9 99 607 24 
6 238 252 205 488 502 455 
6 293 317 209 543 567 459 
6 207 316 283 457 566 533 
6 142 301 249 392 551 499 
6 273 359 130 523 609 380 
6 211 327 324 461 577 574 
6 169 265 217 419 515 467 
6 7 365 50 22 615 98 
6 283 316 253 533 566 503 
6 159 268 223 409 518 473 
6 274 337 132 524 587 382 
6 232 361 329 482 611 579 
6 231 266 45 481 516 93 
6 229 362 330 479 612 580 
6 9 244 57 24 494 105 
6 230 276 52 480 526 100 
6 209 311 293 459 561 543 
6 131 342 302 381 592 552 
6 270 271 204 520 521 454 
6 66 243 1 114 493 16 
6 59 241 12 107 491 27 
6 280 306 279 530 556 529 
6 269 337 274 519 587 524 
6 179 256 224 429 506 474 
6 163 305 166 413 555 416 
6 201 303 194 451 553 444 
6 280 332 306 530 582 556 
6 186 255 225 436 505 475 
6 210 310 273 460 560 523 
6 153 270 204 403 520 454 
6 136 231 45 386 481 93 
6 171 265 169 421 515 419 
6 138 230 52 388 480 100 
6 225 354 325 475 604 575 
6 36 284 232 84 534 482 
6 161 268 159 411 518 409 
6 71 286 229 119 536 479 
6 290 303 201 540 553 451 
6 139 355 60 389 605 108 
6 60 355 248 108 605 498 
6 273 352 302 523 602 552 
6 235 373 245 485 623 495 
6 67 356 247 115 606 497 
6 221 295 277 471 545 527 
6 142 356 67 392 606 115 
6 139 283 253 389 533 503 
6 203 315 262 453 565 512 
6 41 257 145 89 507 395 
6 36 232 135 84 482 385 
6 71 229 137 119 479 387 
6 254 255 188 504 505 438 
6 233 350 334 483 600 584 
6 262 346 203 512 596 453 
6 304 325 127 554 575 377 
6 222 329 247 472 579 497 
6 218 298 260 468 548 510 
6 290 321 291 540 571 541 
6 272 310 240 522 560 490 
6 269 274 270 519 524 520 
6 244 245 57 494 495 105 
6 49 307 141 97 557 391 
6 225 325 256 475 575 506 
6 273 310 272 523 560 522 
6 312 368 255 562 618 505 
6 249 305 206 499 555 456 
6 228 331 251 478 581 501 
6 302 342 263 552 592 513 
6 338 339 44 588 589 92 
6 190 254 188 440 504 438 
6 37 341 340 85 591 590 
6 138 233 230 388 483 480 
6 228 335 331 478 585 581 
6 181 256 179 431 506 429 
6 195 263 226 445 513 476 
6 268 285 223 518 535 473 
6 290 291 288 540 541 538 
6 219 330 248 469 580 498 
6 201 321 290 451 571 540 
6 240 310 202 490 560 452 
6 188 255 186 438 505 436 
6 270 274 271 520 524 521 
6 262 349 259 512 599 509 
6 141 324 289 391 574 539 
6 296 301 142 546 551 392 
6 247 356 222 497 606 472 
6 239 252 238 489 502 488 
6 254 312 255 504 562 505 
6 54 261 53 102 511 101 
6 289 327 303 539 577 553 
6 268 353 285 518 603 535 
6 273 302 210 523 552 460 
6 292 299 293 542 549 543 
6 278 283 139 528 533 389 
6 175 265 171 425 515 421 
6 227 338 38 477 588 86 
6 264 360 265 514 610 515 
6 43 340 146 91 590 396 
6 165 268 161 415 518 411 
6 205 351 240 455 601 490 
6 64 281 63 112 531 111 
6 288 291 47 538 541 95 
6 135 295 294 385 545 544 
6 42 257 41 90 507 89 
6 245 373 57 495 623 105 
6 31 363 323 79 613 573 
6 292 293 140 542 543 390 
6 267 353 268 517 603 518 
6 155 270 153 405 520 403 
6 244 344 245 494 594 495 
6 61 278 139 109 528 389 
6 135 294 35 385 544 83 
6 69 297 296 117 547 546 
6 186 225 184 436 475 434 
6 329 361 243 579 611 493 
6 255 328 225 505 578 475 
6 213 332 280 463 582 530 
6 39 275 133 87 525 383 
6 330 362 241 580 612 491 
6 195 226 193 445 476 443 
6 211 324 251 461 574 501 
6 151 153 152 401 403 402 
6 295 299 294 545 549 544 
6 265 313 217 515 563 467 
6 258 259 143 508 509 393 
6 251 331 211 501 581 461 
6 149 151 150 399 401 400 
6 293 370 317 543 620 567 
6 153 204 152 403 454 402 
6 151 152 150 401 402 400 
6 33 292 140 81 542 390 
6 210 263 197 460 513 447 
6 301 305 249 551 555 499 
6 298 300 297 548 550 547 
6 68 296 142 116 546 392 
6 321 369 291 571 619 541 
6 179 224 177 429 474 427 
6 167 267 165 417 517 415 
6 259 346 262 509 596 512 
6 303 327 196 553 577 446 
6 269 270 155 519 520 405 
6 265 360 313 515 610 563 
6 223 269 157 473 519 407 
6 157 269 155 407 519 405 
6 144 279 278 394 529 528 
6 169 217 167 419 467 417 
6 177 264 175 427 514 425 
6 267 268 165 517 518 415 
6 159 223 157 409 473 407 
6 232 277 135 482 527 385 
6 193 254 190 443 504 440 
6 217 267 167 467 517 417 
6 249 356 142 499 606 392 
6 184 256 181 434 506 431 
6 248 355 219 498 605 469 
6 229 260 137 479 510 387 
6 149 150 148 399 400 398 
6 64 348 281 112 598 531 
6 311 374 293 561 624 543 
6 264 265 175 514 515 425 
6 297 300 296 547 550 546 
6 141 289 288 391 539 538 
6 197 263 195 447 513 445 
6 218 260 219 468 510 469 
6 224 264 177 474 514 427 
6 137 298 297 387 548 547 
6 277 295 135 527 545 385 
6 133 228 227 383 478 477 
6 261 349 262 511 599 512 
6 221 277 222 471 527 472 
6 256 325 224 506 575 474 
6 199 210 197 449 460 447 
6 226 254 193 476 504 443 
6 144 278 62 394 528 110 
6 279 283 278 529 533 528 
6 289 290 288 539 540 538 
6 137 297 70 387 547 118 
6 34 294 292 82 544 542 
6 235 236 216 485 486 466 
6 141 288 48 391 538 96 
6 178 306 180 428 556 430 
6 185 186 184 435 436 434 
6 63 281 144 111 531 394 
6 225 256 184 475 506 434 
6 46 291 136 94 541 386 
6 147 149 148 397 399 398 
6 271 272 204 521 522 454 
6 233 334 234 483 584 484 
6 145 275 40 395 525 88 
6 220 322 287 470 572 537 
6 280 334 213 530 584 463 
6 144 280 279 394 530 529 
6 140 287 32 390 537 80 
6 154 155 153 404 405 403 
6 334 350 213 584 600 463 
6 176 177 175 426 427 425 
6 260 298 137 510 548 387 
6 33 140 32 81 390 80 
6 49 141 48 97 391 96 
6 56 143 55 104 393 103 
6 68 142 67 116 392 115 
6 63 144 62 111 394 110 
6 61 139 60 109 389 108 
6 148 308 257 398 558 507 
6 71 137 70 119 387 118 
6 53 138 52 101 388 100 
6 46 136 45 94 386 93 
6 36 135 35 84 385 83 
6 43 146 134 91 396 384 
6 133 227 38 383 477 86 
6 192 193 190 442 443 440 
6 293 374 140 543 624 390 
6 34 292 33 82 542 81 
6 207 306 178 457 556 428 
6 43 134 42 91 384 90 
6 39 133 38 87 383 86 
6 41 145 40 89 395 88 
6 194 195 193 444 445 443 
6 69 296 68 117 546 116 
6 294 299 292 544 549 542 
6 173 175 171 423 425 421 
6 260 330 219 510 580 469 
6 183 184 181 433 434 431 
6 134 257 42 384 507 90 
6 55 349 54 103 599 102 
6 163 165 161 413 415 411 
6 166 167 165 416 417 415 
6 210 302 263 460 552 513 
6 271 273 272 521 523 522 
6 53 261 138 101 511 388 
6 217 326 267 467 576 517 
6 289 303 290 539 553 540 
6 178 179 177 428 429 427 
6 238 240 202 488 490 452 
6 62 278 61 110 528 109 
6 35 294 34 83 544 82 
6 284 361 232 534 611 482 
6 70 297 69 118 547 117 
6 224 304 264 474 554 514 
6 156 157 155 406 407 405 
6 48 288 47 96 538 95 
6 221 320 295 471 570 545 
6 187 188 186 437 438 436 
6 47 291 46 95 541 94 
6 151 154 153 401 404 403 
6 286 362 229 536 612 479 
6 168 169 167 418 419 417 
6 40 275 39 88 525 87 
6 307 324 141 557 574 391 
6 300 301 296 550 551 546 
6 32 287 31 80 537 79 
6 147 220 149 397 470 399 
6 333 344 231 583 594 481 
6 299 370 293 549 620 543 
6 271 359 273 521 609 523 
6 224 325 304 474 575 554 
6 228 237 227 478 487 477 
6 305 375 343 555 625 593 
6 218 319 298 468 569 548 
6 240 351 272 490 601 522 
6 277 329 222 527 579 472 
6 253 355 139 503 605 389 
6 158 159 157 408 409 407 
6 236 246 216 486 496 466 
6 192 194 193 442 444 443 
6 220 309 149 470 559 399 
6 183 185 184 433 435 434 
6 196 197 195 446 447 445 
6 276 347 58 526 597 106 
6 136 333 231 386 583 481 
6 67 247 66 115 497 114 
6 60 248 59 108 498 107 
6 261 262 250 511 512 500 
6 173 176 175 423 426 425 
6 344 357 231 594 607 481 
6 144 281 280 394 531 530 
6 152 205 150 402 455 400 
6 163 166 165 413 416 415 
6 185 187 186 435 437 436 
6 233 234 230 483 484 480 
6 170 171 169 420 421 419 
6 146 147 134 396 397 384 
6 176 178 177 426 428 427 
6 285 337 223 535 587 473 
6 154 156 155 404 406 405 
6 263 342 226 513 592 476 
6 235 245 236 485 495 486 
6 160 161 159 410 411 409 
6 58 347 242 106 597 492 
6 166 168 167 416 418 417 
6 287 374 220 537 624 470 
6 189 190 188 439 440 438 
6 148 257 134 398 507 384 
6 194 196 195 444 446 445 
6 252 308 205 502 558 455 
6 285 345 337 535 595 587 
6 301 375 305 551 625 555 
6 180 181 179 430 431 429 
6 281 348 234 531 598 484 
6 198 199 197 448 449 447 
6 151 309 154 401 559 404 
6 228 367 335 478 617 585 
6 54 349 261 102 599 511 
6 156 158 157 406 408 407 
6 168 170 169 418 420 419 
6 200 202 199 450 452 449 
6 147 148 134 397 398 384 
6 158 160 159 408 410 409 
6 150 308 148 400 558 398 
6 253 316 208 503 566 458 
6 232 329 277 482 579 527 
6 178 180 179 428 430 429 
6 191 192 190 441 442 440 
6 214 238 202 464 488 452 
6 172 173 171 422 423 421 
6 187 189 188 437 439 438 
6 162 163 161 412 413 411 
6 228 251 237 478 501 487 
6 215 258 235 465 508 485 
6 182 183 181 432 433 431 
6 202 310 199 452 560 449 
6 219 253 208 469 503 458 
6 222 249 206 472 499 456 
6 196 198 197 446 448 447 
6 229 330 260 479 580 510 
6 132 358 274 382 608 524 
6 149 309 151 399 559 401 
6 226 312 254 476 562 504 
6 154 309 209 404 559 459 
6 77 129 76 125 379 124 
6 73 128 72 121 378 120 
6 76 131 75 124 381 123 
6 74 132 73 122 382 121 
6 75 130 74 123 380 122 
6 14 127 77 29 377 125 
6 72 126 14 120 376 29 
6 133 367 228 383 617 478 
6 237 282 227 487 532 477 
6 239 366 252 489 616 502 
6 200 214 202 450 464 452 
6 192 201 194 442 451 444 
6 170 172 171 420 422 421 
6 220 311 309 470 561 559 
6 198 200 199 448 450 449 
6 189 191 190 439 441 440 
6 146 323 322 396 573 572 
6 160 162 161 410 412 411 
6 251 307 237 501 557 487 
6 199 310 210 449 560 460 
6 57 373 56 105 623 104 
6 214 239 238 464 489 488 
6 182 212 183 432 462 433 
6 180 182 181 430 432 431 
6 146 322 147 396 572 397 
6 172 218 208 422 468 458 
6 172 208 173 422 458 423 
6 162 221 206 412 471 456 
6 162 206 163 412 456 413 
6 176 207 178 426 457 428 
6 272 351 204 522 601 454 
6 198 211 200 448 461 450 
6 182 213 212 432 463 462 
6 234 334 281 484 584 531 
6 154 209 156 404 459 406 
6 185 203 187 435 453 437 
6 168 174 170 418 424 420 
6 189 215 191 439 465 441 
6 215 216 191 465 466 441 
6 221 222 206 471 472 456 
6 158 164 160 408 414 410 
6 218 219 208 468 469 458 
6 205 308 150 455 558 400 
6 191 314 192 441 564 442 
6 215 235 216 465 485 466 
6 215 318 258 465 568 508 
6 152 351 205 402 601 455 
6 138 261 250 388 511 500 
6 192 314 201 442 564 451 
6 234 347 230 484 597 480 
6 226 342 312 476 592 562 
6 138 250 233 388 500 483 
6 147 322 220 397 572 470 
6 216 314 191 466 564 441 
6 306 332 180 556 582 430 
6 222 356 249 472 606 499 
6 128 345 285 378 595 535 
6 314 321 201 564 571 451 
6 212 315 183 462 565 433 
6 312 342 336 562 592 586 
6 282 339 338 532 589 588 
6 340 341 323 590 591 573 
6 309 311 209 559 561 459 
6 183 315 185 433 565 435 
6 208 316 173 458 566 423 
6 173 316 176 423 566 426 
6 3 341 37 18 591 85 
6 44 339 6 92 589 21 
6 252 366 145 502 616 395 
6 246 321 314 496 571 564 
6 246 314 216 496 564 466 
6 126 364 313 376 614 563 
6 156 317 158 406 567 408 
6 275 367 133 525 617 383 
6 176 316 207 426 566 457 
6 185 315 203 435 565 453 
6 180 332 182 430 582 432 
6 302 352 131 552 602 381 
6 251 324 307 501 574 557 
6 187 318 189 437 568 439 
6 172 319 218 422 569 468 
6 162 320 221 412 570 471 
6 305 343 166 555 593 416 
6 170 319 172 420 569 422 
6 158 317 164 408 567 414 
6 209 317 156 459 567 406 
6 285 353 128 535 603 378 
6 223 337 269 473 587 519 
6 160 320 162 410 570 412 
6 211 331 200 461 581 450 
6 174 319 170 424 569 420 
6 203 318 187 453 568 437 
6 189 318 215 439 568 465 
6 198 327 211 448 577 461 
6 164 320 160 414 570 410 
6 326 353 267 576 603 517 
6 236 344 333 486 594 583 
6 196 327 198 446 577 448 
6 219 355 253 469 605 503 
6 281 334 280 531 584 530 
6 274 359 271 524 609 521 
6 164 370 299 414 620 549 
6 174 375 300 424 625 550 
6 287 363 31 537 613 79 
6 243 361 1 493 611 16 
6 241 362 12 491 612 27 
6 307 365 237 557 615 487 
6 166 343 168 416 593 418 
6 200 331 214 450 581 464 
6 313 326 217 563 576 467 
6 9 357 244 24 607 494 
6 1 361 30 16 611 78 
6 12 362 65 27 612 113 
6 337 345 132 587 595 382 
6 242 348 64 492 598 112 
6 231 357 266 481 607 516 
6 182 332 213 432 582 463 
6 245 344 236 495 594 486 
6 258 346 259 508 596 509 
6 145 366 275 395 616 525 
6 291 369 136 541 619 386 
6 236 333 246 486 583 496 
6 331 335 214 581 585 464 
6 312 336 129 562 586 379 
6 315 372 262 565 622 512 
6 220 374 311 470 624 561 
6 140 374 287 390 624 537 
6 126 360 304 376 610 554 
6 230 347 276 480 597 526 
6 313 364 326 563 614 576 
6 56 373 143 104 623 393 
6 239 367 366 489 617 616 
6 204 351 152 454 601 402 
6 300 375 301 550 625 551 
6 214 335 239 464 585 489 
6 247 329 243 497 579 493 
6 262 372 250 512 622 500 
6 248 330 241 498 580 491 
6 318 346 258 568 596 508 
6 333 369 246 583 619 496 
6 282 338 227 532 588 477 
6 146 340 323 396 590 573 
6 304 360 264 554 610 514 
6 366 367 275 616 617 525 
6 129 336 76 379 586 124 
6 73 345 128 121 595 378 
6 76 336 131 124 586 381 
6 250 350 233 500 600 483 
6 129 371 328 379 621 578 
6 132 345 73 382 595 121 
6 168 343 174 418 593 424 
6 131 352 75 381 602 123 
6 66 247 243 114 497 493 
6 59 248 241 107 498 491 
6 74 358 132 122 608 382 
6 203 346 318 453 596 568 
6 313 360 126 563 610 376 
6 128 364 72 378 614 120 
6 128 353 326 378 603 576 
6 77 371 129 125 621 379 
6 129 368 312 379 618 562 
6 244 357 344 494 607 594 
6 328 354 225 578 604 475 
6 326 364 128 576 614 378 
6 75 352 130 123 602 380 
6 350 372 212 600 622 462 
6 136 369 333 386 619 583 
6 325 354 127 575 604 377 
6 213 350 212 463 600 462 
6 130 358 74 380 608 122 
6 250 372 350 500 622 600 
6 317 370 164 567 620 414 
6 72 364 126 120 614 376 
6 328 368 129 578 618 379 
6 127 371 77 377 621 125 
6 336 342 131 586 592 381 
6 212 372 315 462 622 565 
6 234 348 347 484 598 597 
6 8 266 51 23 516 99 
6 10 276 58 25 526 106 
6 246 369 321 496 619 571 
6 30 284 0 78 534 15 
6 65 286 13 113 536 28 
6 58 242 11 106 492 26 
6 266 357 51 516 607 99 
6 255 368 328 505 618 578 
6 347 348 242 597 598 492 
6 322 363 287 572 613 537 
6 323 363 322 573 613 572 
6 335 367 239 585 617 489 
6 30 361 284 78 611 534 
6 65 362 286 113 612 536 
6 237 365 282 487 615 532 
6 130 359 358 380 609 608 
6 343 375 174 593 625 424 
6 354 371 127 604 621 377 
6 328 371 354 578 621 604 
6 358 359 274 608 609 524 
6 0 284 36 15 534 84 
6 45 266 8 93 516 23 
6 52 276 10 100 526 25 
6 11 242 64 26 492 112 
6 13 286 71 28 536 119 
6 2 323 3 17 573 18 
6 31 323 2 79 573 17 
6 323 341 3 573 591 18 
6 37 340 4 85 590 19 
6 4 340 43 19 590 91 
6 38 338 5 86 588 20 
6 5 338 44 20 588 92 
6 6 282 7 21 532 22 
6 6 339 282 21 589 532 
6 282 365 7 532 615 22 

CELL_TYPES 563
13
13
13
13
13
13
13
13
13
13
13
13
13
13
13
13
13
13
13
13
13
13
13
13
13
13
13
13
13
13
13
13
13
13
13
13
13
13
13
13
13
13
13
13
13
13
13
13
13
13
13
13
13
13
13
13
13
13
13
13
13
13
13
13
13
13
13
13
13
13
13
13
13
13
13
13
13
13
13
13
13
13
13
13
13
13
13
13
13
13
13
13
13
13
13
13
13
13
13
13
13
13
13
13
13
13
13
13
13
13
13
13
13
13
13
13
13
13
13
13
13
13
13
13
13
13
13
13
13
13
13
13
13
13
13
13
13
13
13
13
13
13
13
13
13
13
13
13
13
13
13
13
13
13
13
13
13
13
13
13
13
13
13
13
13
13
13
13
13
13
13
13
13
13
13
13
13
13
13
13
13
13
13
13
13
13
13
13
13
13
13
13
13
13
13
13
13
13
13
13
13
13
13
13
13
13
13
13
13
13
13
13
13
13
13
13
13
13
13
13
13
13
13
13
13
13
13
13
13
13
13
13
13
13
13
13
13
13
13
13
13
13
13
13
13
13
13
13
13
13
13
13
13
13
13
13
13
13
13
13
13
13
13
13
13
13
13
13
13
13
13
13
13
13
13
13
13
13
13
13
13
13
13
13
13
13
13
13
13
13
13
13
13
13
13
13
13
13
13
13
13
13
13
13
13
13
13
13
13
13
13
13
13
13
13
13
13
13
13
13
13
13
13
13
13
13
13
13
13
13
13
13
13
13
13
13
13
13
13
13
13
13
13
13
13
13
13
13
13
13
13
13
13
13
13
13
13
13
13
13
13
13
13
13
13
13
13
13
13
13
13
13
13
13
13
13
13
13
13
13
13
13
13
13
13
13
13
13
13
13
13
13
13
13
13
13
13
13
13
13
13
13
13
13
13
13
13
13
13
13
13
13
13
13
13
13
13
13
13
13
13
13
13
13
13
13
13
13
13
13
13
13
13
13
13
13
13
13
13
13
13
13
13
13
13
13
13
13
13
13
13
13
13
13
13
13
13
13
13
13
13
13
13
13
13
13
13
13
13
13
13
13
13
13
13
13
13
13
13
13
13
13
13
13
13
13
13
13
13
13
13
13
13
13
13
13
13
13
13
13
13
13
13
13
13
13
13
13
13
13
13
13
13
13
13
13
13
13
13
13
13
13
13
13
13
13
13
13
13
13
13
13
13
13
13
13
13
13
13
13
13
13
13
13
13
13
13
13
13
13
13
13
13
13
13
13
13
13
13
13
13
13
13

POINT_DATA 626
VECTORS displacement float
-1.74395e-06 3.09545e-05 1.8055e-05
1.73566e-06 3.09735e-05 1.81001e-05
-2.59863e-05 1.69929e-05 1.80871e-05
-2.58409e-05 1.6033e-05 1.80516e-05
-2.77207e-05 1.39728e-05 1.80691e-05
-2.77136e-05 -1.40191e-05 1.80945e-05
-2.58121e-05 -1.60712e-05 1.81059e-05
-2.59825e-05 -1.70109e-05 1.81671e-05
-1.6774e-06 -3.09582e-05 1.80514e-05
1.75545e-06 -3.09597e-05 1.81019e-05
2.59436e-05 -1.69807e-05 1.80435e-05
2.7717e-05 -1.39367e-05 1.80434e-05
2.76725e-05 1.39894e-05 1.80916e-05
2.5915e-05 1.6993e-05 1.8046e-05
0 0 0
-1.74395e-06 3.09545e-05 -1.8055e-05
1.73566e-06 3.09735e-05 -1.81001e-05
-2.59863e-05 1.69929e-05 -1.80871e-05
-2.58409e-05 1.6033e-05 -1.80516e-05
-2.77207e-05 1.39728e-05 -1.80691e-05
-2.77136e-05 -1.40191e-05 -1.80945e-05
-2.58121e-05 -1.60712e-05 -1.81059e-05
-2.59825e-05 -1.70109e-05 -1.81671e-05
-1.6774e-06 -3.09582e-05 -1.80514e-05
1.75545e-06 -3.09597e-05 -1.81019e-05
2.59436e-05 -1.69807e-05 -1.80435e-05
2.7717e-05 -1.39367e-05 -1.80434e-05
2.76725e-05 1.39894e-05 -1.80916e-05
2.5915e-05 1.6993e-05 -1.8046e-05
0 0 0
2.48943e-08 3.01543e-05 1.80342e-05
-2.11406e-05 1.87124e-05 1.75497e-05
-1.72325e-05 1.98338e-05 1.69208e-05
-1.40069e-05 2.10542e-05 1.65549e-05
-1.12069e-05 2.26648e-05 1.65488e-05
-8.52408e-06 2.48328e-05 1.69013e-05
-5.56779e-06 2.76217e-05 1.75374e-05
-2.64498e-05 1.46791e-05 1.80335e-05
-2.67687e-05 -9.01152e-06 1.75774e-05
-2.58062e-05 -5.03547e-06 1.69259e-05
-2.52545e-05 -1.63621e-06 1.65714e-05
-2.52574e-05 1.60785e-06 1.65743e-05
-2.57985e-05 5.02286e-06 1.69241e-05
-2.67549e-05 8.98461e-06 1.75639e-05
-2.64367e-05 -1.47255e-05 1.80622e-05
-5.54105e-06 -2.76362e-05 1.75296e-05
-8.4766e-06 -2.48419e-05 1.69006e-05
-1.11701e-05 -2.26843e-05 1.65561e-05
-1.39706e-05 -2.10872e-05 1.65595e-05
-1.72149e-05 -1.98692e-05 1.69366e-05
-2.11342e-05 -1.87492e-05 1.75622e-05
8.98398e-08 -3.01391e-05 1.80293e-05
2.1124e-05 -1.86248e-05 1.75114e-05
1.72447e-05 -1.97622e-05 1.68728e-05
1.40339e-05 -2.10112e-05 1.65115e-05
1.12251e-05 -2.2593e-05 1.65461e-05
8.58124e-06 -2.47801e-05 1.68741e-05
5.65468e-06 -2.76264e-05 1.7535e-05
2.61245e-05 -1.50597e-05 1.80283e-05
2.67168e-05 8.9384e-06 1.75015e-05
2.5722e-05 5.04959e-06 1.69083e-05
2.52066e-05 1.62332e-06 1.65231e-05
2.52037e-05 -1.59943e-06 1.65214e-05
2.57507e-05 -4.99738e-06 1.68883e-05
2.66989e-05 -8.91715e-06 1.75096e-05
2.61076e-05 1.50608e-05 1.80254e-05
5.63313e-06 2.76178e-05 1.75095e-05
8.50861e-06 2.48068e-05 1.69112e-05
1.12171e-05 2.2641e-05 1.65293e-05
1.40045e-05 2.10221e-05 1.65247e-05
1.72217e-05 1.97934e-05 1.6885e-05
2.1115e-05 1.86344e-05 1.75253e-05
0 0 0
0 0 0
0 0 0
0 0 0
0 0 0
0 0 0
2.48943e-08 3.01543e-05 -1.80342e-05
-2.11406e-05 1.87124e-05 -1.75497e-05
-1.72325e-05 1.98338e-05 -1.69208e-05
-1.40069e-05 2.10542e-05 -1.65549e-05
-1.12069e-05 2.26648e-05 -1.65488e-05
-8.52408e-06 2.48328e-05 -1.69013e-05
-5.56779e-06 2.76217e-05 -1.75374e-05
-2.64498e-05 1.46791e-05 -1.80335e-05
-2.67687e-05 -9.01152e-06 -1.75774e-05
-2.58062e-05 -5.03547e-06 -1.69259e-05
-2.52545e-05 -1.63621e-06 -1.65714e-05
-2.52574e-05 1.60785e-06 -1.65743e-05
-2.57985e-05 5.02286e-06 -1.69241e-05
-2.67549e-05 8.98461e-06 -1.75639e-05
-2.64367e-05 -1.47255e-05 -1.80622e-05
-5.54105e-06 -2.76362e-05 -1.75296e-05
-8.4766e-06 -2.48419e-05 -1.69006e-05
-1.11701e-05 -2.26843e-05 -1.65561e-05
-1.39706e-05 -2.10872e-05 -1.65595e-05
-1.72149e-05 -1.98692e-05 -1.69366e-05
-2.11342e-05 -1.87492e-05 -1.75622e-05
8.98398e-08 -3.01391e-05 -1.80293e-05
2.1124e-05 -1.86248e-05 -1.75114e-05
1.72447e-05 -1.97622e-05 -1.68728e-05
1.40339e-05 -2.10112e-05 -1.65115e-05
1.12251e-05 -2.2593e-05 -1.65461e-05
8.58124e-06 -2.47801e-05 -1.68741e-05
5.65468e-06 -2.76264e-05 -1.7535e-05
2.61245e-05 -1.50597e-05 -1.80283e-05
2.67168e-05 8.9384e-06 -1.75015e-05
2.5722e-05 5.04959e-06 -1.69083e-05
2.52066e-05 1.62332e-06 -1.65231e-05
2.52037e-05 -1.59943e-06 -1.65214e-05
2.57507e-05 -4.99738e-06 -1.68883e-05
2.66989e-05 -8.91715e-06 -1.75096e-05
2.61076e-05 1.50608e-05 -1.80254e-05
5.63313e-06 2.76178e-05 -1.75095e-05
8.50861e-06 2.48068e-05 -1.69112e-05
1.12171e-05 2.2641e-05 -1.65293e-05
1.40045e-05 2.10221e-05 -1.65247e-05
1.72217e-05 1.97934e-05 -1.6885e-05
2.1115e-05 1.86344e-05 -1.75253e-05
0 0 0
0 0 0
0 0 0
0 0 0
0 0 0
0 0 0
1.79368e-06 8.58745e-07 4.55224e-06
1.73782e-06 -8.25113e-07 4.46079e-06
4.31953e-07 1.84962e-06 4.49511e-06
4.36097e-07 -1.78063e-06 4.35608e-06
-1.84748e-06 2.09631e-08 4.42235e-06
-1.12309e-06 -1.30887e-06 4.15099e-06
-1.15921e-06 1.30679e-06 4.19977e-06
-2.2513e-05 -7.28766e-06 1.69999e-05
-2.21964e-05 7.37155e-06 1.69686e-05
-4.86043e-06 2.28985e-05 1.6937e-05
-4.85795e-06 -2.31316e-05 1.69639e-05
1.74212e-05 1.56354e-05 1.69298e-05
1.75687e-05 -1.55364e-05 1.69391e-05
2.10735e-05 3.16387e-06 1.63243e-05
-1.39531e-05 1.71512e-05 1.64783e-05
-1.35911e-05 -1.67412e-05 1.64099e-05
7.76783e-06 1.98195e-05 1.63311e-05
7.68485e-06 -2.03099e-05 1.64024e-05
2.14723e-05 -3.44372e-06 1.64001e-05
-2.11027e-05 6.58809e-09 1.62466e-05
-2.24203e-05 1.09997e-05 1.74536e-05
-1.87509e-05 9.25467e-06 1.6627e-05
-1.79827e-05 5.79543e-06 1.60362e-05
-1.49839e-05 7.44831e-06 1.54863e-05
-1.42244e-05 4.30771e-06 1.48296e-05
-1.15326e-05 5.74387e-06 1.40946e-05
-1.0858e-05 3.06872e-06 1.33734e-05
-8.40046e-06 4.30486e-06 1.24042e-05
-9.05877e-06 7.01338e-06 1.34562e-05
-6.20408e-06 5.48849e-06 1.16888e-05
-6.82828e-06 8.24942e-06 1.30798e-05
-4.28138e-06 6.67489e-06 1.14503e-05
-4.79999e-06 9.60989e-06 1.30937e-05
-2.40086e-06 7.99332e-06 1.17228e-05
-2.81284e-06 1.11672e-05 1.34747e-05
-4.75409e-07 9.59526e-06 1.25008e-05
-7.38352e-07 1.29969e-05 1.41416e-05
1.73108e-06 1.15177e-05 1.35348e-05
-5.53467e-06 1.27003e-05 1.44368e-05
1.68507e-06 8.22395e-06 1.17474e-05
4.00417e-06 1.01209e-05 1.31508e-05
3.70534e-06 7.09793e-06 1.14781e-05
6.06739e-06 8.96664e-06 1.31132e-05
5.7668e-06 6.10677e-06 1.17354e-05
8.35806e-06 8.0203e-06 1.34919e-05
8.10563e-06 5.19525e-06 1.25002e-05
1.0954e-05 7.09703e-06 1.41468e-05
1.07459e-05 4.32278e-06 1.34989e-05
8.5305e-06 1.10375e-05 1.44606e-05
7.93767e-06 2.64374e-06 1.17273e-05
1.0646e-05 1.7372e-06 1.31039e-05
7.94866e-06 3.58759e-07 1.14554e-05
1.08064e-05 -7.5911e-07 1.3124e-05
8.11162e-06 -1.9378e-06 1.1709e-05
1.10982e-05 -3.31284e-06 1.34837e-05
8.46971e-06 -4.42397e-06 1.24439e-05
1.15037e-05 -6.00287e-06 1.41092e-05
8.95555e-06 -7.13809e-06 1.34279e-05
6.14751e-06 -5.4944e-06 1.16411e-05
6.64448e-06 -8.30084e-06 1.30181e-05
4.10519e-06 -6.58849e-06 1.13108e-05
4.52334e-06 -9.55084e-06 1.29881e-05
2.24229e-06 -7.85827e-06 1.15972e-05
2.48483e-06 -1.10019e-05 1.33508e-05
2.2529e-07 -9.37367e-06 1.23534e-05
3.30013e-07 -1.27698e-05 1.40337e-05
-1.91543e-06 -1.11507e-05 1.33769e-05
-1.84106e-06 -7.9216e-06 1.1582e-05
-4.16789e-06 -9.87483e-06 1.30849e-05
-3.81393e-06 -6.73049e-06 1.1317e-05
-6.34561e-06 -8.662e-06 1.30992e-05
-5.89129e-06 -5.698e-06 1.16283e-05
-8.4997e-06 -7.43578e-06 1.33795e-05
-8.16753e-06 -4.72805e-06 1.24085e-05
-1.10956e-05 -6.40276e-06 1.40698e-05
-4.37164e-06 -1.31232e-05 1.44335e-05
-1.08088e-05 -3.65068e-06 1.34391e-05
7.22611e-06 -1.13727e-05 1.42728e-05
-7.74169e-06 1.98268e-06 1.14928e-05
-1.32161e-05 1.03506e-06 1.42108e-05
1.72912e-06 1.50828e-05 1.49521e-05
1.3768e-05 4.62237e-07 1.43877e-05
1.38432e-05 6.10009e-06 1.49316e-05
-9.69405e-06 1.01963e-05 1.45324e-05
-5.41601e-06 -3.19765e-06 1.01821e-05
-1.17136e-05 -9.29733e-06 1.48891e-05
1.18824e-05 -8.7602e-06 1.47871e-05
1.47818e-05 -7.4736e-06 1.54033e-05
-1.39597e-05 -5.24389e-06 1.48616e-05
2.79582e-06 -1.45161e-05 1.47961e-05
4.24563e-07 -1.64994e-05 1.53977e-05
3.51843e-06 4.39694e-06 9.58107e-06
1.40106e-05 9.29905e-06 1.54915e-05
1.79308e-05 8.14496e-06 1.63005e-05
-1.56755e-05 1.13953e-05 1.62335e-05
-1.09409e-06 1.67691e-05 1.54952e-05
1.90686e-06 1.96216e-05 1.63109e-05
-2.09187e-06 5.22008e-06 9.59757e-06
5.55394e-06 -7.84604e-07 9.59412e-06
3.58595e-06 -3.68356e-06 9.08195e-06
-1.77964e-06 -5.17858e-06 9.44958e-06
-2.24688e-05 -1.10108e-05 1.74743e-05
-1.87982e-05 -9.24142e-06 1.6651e-05
2.11478e-05 1.41648e-05 1.75056e-05
2.07538e-05 -1.43176e-05 1.74355e-05
-1.76461e-06 -2.54465e-05 1.75109e-05
-1.68213e-06 2.54106e-05 1.75156e-05
1.7713e-05 -1.19069e-05 1.66871e-05
2.06457e-05 -1.07511e-05 1.7116e-05
3.77565e-06 -1.89851e-05 1.61394e-05
7.68531e-07 -2.03458e-05 1.64828e-05
-1.94051e-05 -1.26505e-05 1.71431e-05
-1.37311e-05 -2.30692e-06 1.44718e-05
-1.65927e-05 -3.70143e-06 1.54775e-05
-1.03758e-05 -1.09639e-06 1.2952e-05
2.44521e-05 1.10728e-05 1.76516e-05
2.54976e-05 -1.24032e-05 1.78481e-05
2.64925e-06 2.6726e-05 1.76605e-05
2.521e-06 -2.64136e-05 1.76294e-05
3.33947e-06 -2.30319e-05 1.70291e-05
-2.05389e-06 -1.83199e-05 1.59509e-05
4.05907e-06 2.37913e-05 1.71304e-05
2.26141e-05 8.37924e-06 1.71192e-05
4.6136e-06 1.73133e-05 1.57272e-05
1.4427e-05 -1.31194e-05 1.61373e-05
-1.57877e-05 -1.09847e-05 1.62145e-05
-1.67997e-05 -3.81427e-07 1.53773e-05
1.73059e-05 4.68747e-06 1.57256e-05
6.55219e-08 -6.3873e-06 1.02674e-05
1.74171e-06 -4.84845e-06 9.09246e-06
5.85045e-06 -2.9355e-06 1.03781e-05
-2.14441e-05 3.7505e-06 1.64588e-05
5.72935e-06 -1.62744e-05 1.55077e-05
9.08344e-06 -1.7499e-05 1.59974e-05
1.75721e-05 1.18816e-05 1.66723e-05
1.39942e-05 -1.63822e-05 1.64012e-05
1.07399e-05 -1.37889e-05 1.555e-05
-3.54796e-06 -4.22018e-06 9.50073e-06
5.3991e-06 1.13849e-06 9.49901e-06
5.21804e-06 3.22287e-06 1.00472e-05
-1.74979e-06 -2.83545e-05 1.78768e-05
1.89205e-06 5.29888e-06 9.58441e-06
-1.13823e-07 6.10499e-06 1.00387e-05
-3.78491e-06 4.12773e-06 9.57837e-06
-5.62266e-06 3.03417e-06 1.02852e-05
-5.16545e-06 1.04067e-06 9.21357e-06
-7.52722e-06 -6.17389e-08 1.11724e-05
-4.33436e-06 -8.10275e-07 8.38182e-06
-3.10858e-06 1.87233e-06 7.37404e-06
-2.20811e-05 -3.60774e-06 1.65157e-05
2.34061e-05 -1.56879e-05 1.78361e-05
-1.50719e-06 2.11678e-05 1.6682e-05
2.12616e-05 -8.45193e-08 1.62257e-05
1.7622e-05 -1.64679e-06 1.55814e-05
1.73476e-05 -4.94165e-06 1.57706e-05
2.18915e-05 -7.45108e-06 1.69135e-05
-2.31821e-05 -1.42545e-05 1.78327e-05
1.73246e-05 1.64886e-06 1.55085e-05
-1.734e-06 2.8473e-05 1.78941e-05
-4.2207e-07 3.68341e-06 7.49527e-06
2.37719e-05 1.57423e-05 1.78845e-05
-1.74973e-05 1.56422e-05 1.69749e-05
-1.06262e-05 -1.8466e-05 1.6255e-05
-1.00995e-05 -1.43423e-05 1.55716e-05
-7.50774e-06 -1.60948e-05 1.5622e-05
-7.3221e-06 -2.01204e-05 1.63952e-05
-1.07044e-05 1.85352e-05 1.62667e-05
-1.03473e-05 1.4384e-05 1.56193e-05
-7.77262e-06 2.04923e-05 1.64442e-05
-4.25298e-06 1.86096e-05 1.60529e-05
1.07597e-05 1.83454e-05 1.62261e-05
1.38916e-05 1.69349e-05 1.64309e-05
1.40419e-05 1.29728e-05 1.60512e-05
-7.36155e-06 1.62882e-05 1.56384e-05
1.05251e-05 1.4547e-05 1.56451e-05
7.74872e-06 1.60923e-05 1.56139e-05
-3.11646e-06 -1.89876e-06 7.39316e-06
-7.25762e-06 -1.2422e-05 1.46251e-05
3.00865e-06 4.03601e-08 6.60096e-06
4.87256e-06 1.35227e-05 1.4618e-05
1.4076e-05 -2.26038e-06 1.45704e-05
-1.72897e-05 -1.52167e-05 1.69454e-05
-1.73664e-05 2.4203e-06 1.55978e-05
-1.22047e-05 8.91191e-06 1.49434e-05
-7.70561e-06 -2.29251e-06 1.15546e-05
-1.24497e-05 1.18126e-05 1.55399e-05
-1.42735e-07 -3.75422e-06 7.55416e-06
2.73023e-06 2.27207e-06 7.25191e-06
-2.00386e-06 -1.46504e-05 1.4808e-05
9.36507e-06 -1.00682e-05 1.43893e-05
1.38607e-05 3.15781e-06 1.4566e-05
-7.34002e-06 1.11994e-05 1.42602e-05
4.99721e-06 -1.27748e-05 1.43692e-05
1.10318e-05 1.04305e-05 1.49196e-05
-3.59644e-06 1.46852e-05 1.4908e-05
-4.63546e-06 -1.66169e-05 1.55488e-05
-1.95071e-05 1.28924e-05 1.71613e-05
-2.31269e-05 1.48582e-05 1.78434e-05
-1.29049e-05 -1.26861e-05 1.58125e-05
3.7608e-06 -1.58612e-06 7.90694e-06
1.76439e-06 2.92228e-06 7.08442e-06
-9.23047e-06 -1.06095e-05 1.45318e-05
1.72774e-06 -2.82316e-06 6.93106e-06
9.94731e-07 2.41169e-05 1.73085e-05
2.1368e-05 1.11938e-05 1.72987e-05
-1.46646e-05 -7.95338e-06 1.54853e-05
1.37081e-05 -4.78632e-06 1.46906e-05
-1.90988e-06 -2.17629e-05 1.68027e-05
1.80604e-05 -8.41906e-06 1.63407e-05
-1.66789e-05 -6.32857e-06 1.57824e-05
-4.329e-07 -1.92232e-06 4.79847e-06
-1.80537e-06 2.99544e-06 7.17717e-06
-2.5052e-05 -1.29818e-05 1.79223e-05
-2.51272e-05 -1.45073e-05 1.80021e-05
-2.50452e-05 1.30337e-05 1.7906e-05
-2.51181e-05 1.465e-05 1.79822e-05
-1.64845e-06 -3.12485e-06 7.20991e-06
6.32795e-06 1.13684e-05 1.40766e-05
5.33711e-07 -2.40861e-05 1.73022e-05
-5.22778e-07 1.80954e-06 4.64501e-06
7.40746e-06 -1.43437e-05 1.51524e-05
2.33029e-05 -1.32094e-05 1.77288e-05
2.36327e-05 -1.05376e-05 1.74908e-05
1.19884e-05 -1.82109e-05 1.62933e-05
1.47301e-05 -1.01467e-05 1.57956e-05
-1.00271e-05 1.00125e-06 1.27546e-05
-1.74001e-06 -8.15903e-07 4.72345e-06
7.69065e-07 3.70835e-06 7.57314e-06
2.34307e-06 -1.99716e-06 6.55529e-06
2.01565e-05 5.89783e-06 1.64536e-05
5.07009e-06 2.0596e-05 1.6496e-05
3.42118e-07 -2.76801e-05 1.7854e-05
-1.73123e-06 7.09112e-07 4.60633e-06
-3.21151e-06 6.23048e-07 6.82414e-06
3.57722e-06 1.47541e-06 7.63662e-06
4.99226e-07 2.83239e-05 1.79273e-05
2.47604e-05 1.37341e-05 1.79185e-05
-2.03284e-05 1.55358e-05 1.74291e-05
1.17871e-06 1.36447e-06 4.45986e-06
-2.06396e-05 -1.57284e-05 1.75276e-05
-1.89989e-05 -2.32219e-06 1.59462e-05
-1.95592e-05 -5.58499e-06 1.63323e-05
9.05683e-07 -3.24776e-06 7.00611e-06
-4.36603e-06 -1.97893e-05 1.63219e-05
-7.93729e-06 1.38344e-05 1.51011e-05
1.16575e-06 -1.30418e-06 4.3393e-06
1.19344e-05 -1.12284e-05 1.52922e-05
6.13308e-06 -2.26961e-05 1.68205e-05
-1.45222e-05 1.43554e-05 1.63237e-05
7.92908e-06 1.33212e-05 1.4948e-05
1.79368e-06 8.58745e-07 -4.55224e-06
1.73782e-06 -8.25113e-07 -4.46079e-06
4.31953e-07 1.84962e-06 -4.49511e-06
4.36097e-07 -1.78063e-06 -4.35608e-06
-1.84748e-06 2.09631e-08 -4.42235e-06
-1.12309e-06 -1.30887e-06 -4.15099e-06
-1.15921e-06 1.30679e-06 -4.19977e-06
-2.2513e-05 -7.28766e-06 -1.69999e-05
-2.21964e-05 7.37155e-06 -1.69686e-05
-4.86043e-06 2.28985e-05 -1.6937e-05
-4.85795e-06 -2.31316e-05 -1.69639e-05
1.74212e-05 1.56354e-05 -1.69298e-05
1.75687e-05 -1.55364e-05 -1.69391e-05
2.10735e-05 3.16387e-06 -1.63243e-05
-1.39531e-05 1.71512e-05 -1.64783e-05
-1.35911e-05 -1.67412e-05 -1.64099e-05
7.76783e-06 1.98195e-05 -1.63311e-05
7.68485e-06 -2.03099e-05 -1.64024e-05
2.14723e-05 -3.44372e-06 -1.64001e-05
-2.11027e-05 6.58809e-09 -1.62466e-05
-2.24203e-05 1.09997e-05 -1.74536e-05
-1.87509e-05 9.25467e-06 -1.6627e-05
-1.79827e-05 5.79543e-06 -1.60362e-05
-1.49839e-05 7.44831e-06 -1.54863e-05
-1.42244e-05 4.30771e-06 -1.48296e-05
-1.15326e-05 5.74387e-06 -1.40946e-05
-1.0858e-05 3.06872e-06 -1.33734e-05
-8.40046e-06 4.30486e-06 -1.24042e-05
-9.05877e-06 7.01338e-06 -1.34562e-05
-6.20408e-06 5.48849e-06 -1.16888e-05
-6.82828e-06 8.24942e-06 -1.30798e-05
-4.28138e-06 6.67489e-06 -1.14503e-05
-4.79999e-06 9.60989e-06 -1.30937e-05
-2.40086e-06 7.99332e-06 -1.17228e-05
-2.81284e-06 1.11672e-05 -1.34747e-05
-4.75409e-07 9.59526e-06 -1.25008e-05
-7.38352e-07 1.29969e-05 -1.41416e-05
1.73108e-06 1.15177e-05 -1.35348e-05
-5.53467e-06 1.27003e-05 -1.44368e-05
1.68507e-06 8.22395e-06 -1.17474e-05
4.00417e-06 1.01209e-05 -1.31508e-05
3.70534e-06 7.09793e-06 -1.14781e-05
6.06739e-06 8.96664e-06 -1.31132e-05
5.7668e-06 6.10677e-06 -1.17354e-05
8.35806e-06 8.0203e-06 -1.34919e-05
8.10563e-06 5.19525e-06 -1.25002e-05
1.0954e-05 7.09703e-06 -1.41468e-05
1.07459e-05 4.32278e-06 -1.34989e-05
8.5305e-06 1.10375e-05 -1.44606e-05
7.93767e-06 2.64374e-06 -1.17273e-05
1.0646e-05 1.7372e-06 -1.31039e-05
7.94866e-06 3.58759e-07 -1.14554e-05
1.08064e-05 -7.5911e-07 -1.3124e-05
8.11162e-06 -1.9378e-06 -1.1709e-05
1.10982e-05 -3.31284e-06 -1.34837e-05
8.46971e-06 -4.42397e-06 -1.24439e-05
1.15037e-05 -6.00287e-06 -1.41092e-05
8.95555e-06 -7.13809e-06 -1.34279e-05
6.14751e-06 -5.4944e-06 -1.16411e-05
6.64448e-06 -8.30084e-06 -1.30181e-05
4.10519e-06 -6.58849e-06 -1.13108e-05
4.52334e-06 -9.55084e-06 -1.29881e-05
2.24229e-06 -7.85827e-06 -1.15972e-05
2.48483e-06 -1.10019e-05 -1.33508e-05
2.2529e-07 -9.37367e-06 -1.23534e-05
3.30013e-07 -1.27698e-05 -1.40337e-05
-1.91543e-06 -1.11507e-05 -1.33769e-05
-1.84106e-06 -7.9216e-06 -1.1582e-05
-4.16789e-06 -9.87483e-06 -1.30849e-05
-3.81393e-06 -6.73049e-06 -1.1317e-05
-6.34561e-06 -8.662e-06 -1.30992e-05
-5.89129e-06 -5.698e-06 -1.16283e-05
-8.4997e-06 -7.43578e-06 -1.33795e-05
-8.16753e-06 -4.72805e-06 -1.24085e-05
-1.10956e-05 -6.40276e-06 -1.40698e-05
-4.37164e-06 -1.31232e-05 -1.44335e-05
-1.08088e-05 -3.65068e-06 -1.34391e-05
7.22611e-06 -1.13727e-05 -1.42728e-05
-7.74169e-06 1.98268e-06 -1.14928e-05
-1.32161e-05 1.03506e-06 -1.42108e-05
1.72912e-06 1.50828e-05 -1.49521e-05
1.3768e-05 4.62237e-07 -1.43877e-05
1.38432e-05 6.10009e-06 -1.49316e-05
-9.69405e-06 1.01963e-05 -1.45324e-05
-5.41601e-06 -3.19765e-06 -1.01821e-05
-1.17136e-05 -9.29733e-06 -1.48891e-05
1.18824e-05 -8.7602e-06 -1.47871e-05
1.47818e-05 -7.4736e-06 -1.54033e-05
-1.39597e-05 -5.24389e-06 -1.48616e-05
2.79582e-06 -1.45161e-05 -1.47961e-05
4.24563e-07 -1.64994e-05 -1.53977e-05
3.51843e-06 4.39694e-06 -9.58107e-06
1.40106e-05 9.29905e-06 -1.54915e-05
1.79308e-05 8.14496e-06 -1.63005e-05
-1.56755e-05 1.13953e-05 -1.62335e-05
-1.09409e-06 1.67691e-05 -1.54952e-05
1.90686e-06 1.96216e-05 -1.63109e-05
-2.09187e-06 5.22008e-06 -9.59757e-06
5.55394e-06 -7.84604e-07 -9.59412e-06
3.58595e-06 -3.68356e-06 -9.08195e-06
-1.77964e-06 -5.17858e-06 -9.44958e-06
-2.24688e-05 -1.10108e-05 -1.74743e-05
-1.87982e-05 -9.24142e-06 -1.6651e-05
2.11478e-05 1.41648e-05 -1.75056e-05
2.07538e-05 -1.43176e-05 -1.74355e-05
-1.76461e-06 -2.54465e-05 -1.75109e-05
-1.68213e-06 2.54106e-05 -1.75156e-05
1.7713e-05 -1.19069e-05 -1.66871e-05
2.06457e-05 -1.07511e-05 -1.7116e-05
3.77565e-06 -1.89851e-05 -1.61394e-05
7.68531e-07 -2.03458e-05 -1.64828e-05
-1.94051e-05 -1.26505e-05 -1.71431e-05
-1.37311e-05 -2.30692e-06 -1.44718e-05
-1.65927e-05 -3.70143e-06 -1.54775e-05
-1.03758e-05 -1.09639e-06 -1.2952e-05
2.44521e-05 1.10728e-05 -1.76516e-05
2.54976e-05 -1.24032e-05 -1.78481e-05
2.64925e-06 2.6726e-05 -1.76605e-05
2.521e-06 -2.64136e-05 -1.76294e-05
3.33947e-06 -2.30319e-05 -1.70291e-05
-2.05389e-06 -1.83199e-05 -1.59509e-05
4.05907e-06 2.37913e-05 -1.71304e-05
2.26141e-05 8.37924e-06 -1.71192e-05
4.6136e-06 1.73133e-05 -1.57272e-05
1.4427e-05 -1.31194e-05 -1.61373e-05
-1.57877e-05 -1.09847e-05 -1.62145e-05
-1.67997e-05 -3.81427e-07 -1.53773e-05
1.73059e-05 4.68747e-06 -1.57256e-05
6.55219e-08 -6.3873e-06 -1.02674e-05
1.74171e-06 -4.84845e-06 -9.09246e-06
5.85045e-06 -2.9355e-06 -1.03781e-05
-2.14441e-05 3.7505e-06 -1.64588e-05
5.72935e-06 -1.62744e-05 -1.55077e-05
9.08344e-06 -1.7499e-05 -1.59974e-05
1.75721e-05 1.18816e-05 -1.66723e-05
1.39942e-05 -1.63822e-05 -1.64012e-05
1.07399e-05 -1.37889e-05 -1.555e-05
-3.54796e-06 -4.22018e-06 -9.50073e-06
5.3991e-06 1.13849e-06 -9.49901e-06
5.21804e-06 3.22287e-06 -1.00472e-05
-1.74979e-06 -2.83545e-05 -1.78768e-05
1.89205e-06 5.29888e-06 -9.58441e-06
-1.13823e-07 6.10499e-06 -1.00387e-05
-3.78491e-06 4.12773e-06 -9.57837e-06
-5.62266e-06 3.03417e-06 -1.02852e-05
-5.16545e-06 1.04067e-06 -9.21357e-06
-7.52722e-06 -6.17389e-08 -1.11724e-05
-4.33436e-06 -8.10275e-07 -8.38182e-06
-3.10858e-06 1.87233e-06 -7.37404e-06
-2.20811e-05 -3.60774e-06 -1.65157e-05
2.34061e-05 -1.56879e-05 -1.78361e-05
-1.50719e-06 2.11678e-05 -1.6682e-05
2.12616e-05 -8.45193e-08 -1.62257e-05
1.7622e-05 -1.64679e-06 -1.55814e-05
1.73476e-05 -4.94165e-06 -1.57706e-05
2.18915e-05 -7.45108e-06 -1.69135e-05
-2.31821e-05 -1.42545e-05 -1.78327e-05
1.73246e-05 1.64886e-06 -1.55085e-05
-1.734e-06 2.8473e-05 -1.78941e-05
-4.2207e-07 3.68341e-06 -7.49527e-06
2.37719e-05 1.57423e-05 -1.78845e-05
-1.74973e-05 1.56422e-05 -1.69749e-05
-1.06262e-05 -1.8466e-05 -1.6255e-05
-1.00995e-05 -1.43423e-05 -1.55716e-05
-7.50774e-06 -1.60948e-05 -1.5622e-05
-7.3221e-06 -2.01204e-05 -1.63952e-05
-1.07044e-05 1.85352e-05 -1.62667e-05
-1.03473e-05 1.4384e-05 -1.56193e-05
-7.77262e-06 2.04923e-05 -1.64442e-05
-4.25298e-06 1.86096e-05 -1.60529e-05
1.07597e-05 1.83454e-05 -1.62261e-05
1.38916e-05 1.69349e-05 -1.64309e-05
1.40419e-05 1.29728e-05 -1.60512e-05
-7.36155e-06 1.62882e-05 -1.56384e-05
1.05251e-05 1.4547e-05 -1.56451e-05
7.74872e-06 1.60923e-05 -1.56139e-05
-3.11646e-06 -1.89876e-06 -7.39316e-06
-7.25762e-06 -1.2422e-05 -1.46251e-05
3.00865e-06 4.03601e-08 -6.60096e-06
4.87256e-06 1.35227e-05 -1.4618e-05
1.4076e-05 -2.26038e-06 -1.45704e-05
-1.72897e-05 -1.52167e-05 -1.69454e-05
-1.73664e-05 2.4203e-06 -1.55978e-05
-1.22047e-05 8.91191e-06 -1.49434e-05
-7.70561e-06 -2.29251e-06 -1.15546e-05
-1.24497e-05 1.18126e-05 -1.55399e-05
-1.42735e-07 -3.75422e-06 -7.55416e-06
2.73023e-06 2.27207e-06 -7.25191e-06
-2.00386e-06 -1.46504e-05 -1.4808e-05
9.36507e-06 -1.00682e-05 -1.43893e-05
1.38607e-05 3.15781e-06 -1.4566e-05
-7.34002e-06 1.11994e-05 -1.42602e-05
4.99721e-06 -1.27748e-05 -1.43692e-05
1.10318e-05 1.04305e-05 -1.49196e-05
-3.59644e-06 1.46852e-05 -1.4908e-05
-4.63546e-06 -1.66169e-05 -1.55488e-05
-1.95071e-05 1.28924e-05 -1.71613e-05
-2.31269e-05 1.48582e-05 -1.78434e-05
-1.29049e-05 -1.26861e-05 -1.58125e-05
3.7608e-06 -1.58612e-06 -7.90694e-06
1.76439e-06 2.92228e-06 -7.08442e-06
-9.23047e-06 -1.06095e-05 -1.45318e-05
1.72774e-06 -2.82316e-06 -6.93106e-06
9.94731e-07 2.41169e-05 -1.73085e-05
2.1368e-05 1.11938e-05 -1.72987e-05
-1.46646e-05 -7.95338e-06 -1.54853e-05
1.37081e-05 -4.78632e-06 -1.46906e-05
-1.90988e-06 -2.17629e-05 -1.68027e-05
1.80604e-05 -8.41906e-06 -1.63407e-05
-1.66789e-05 -6.32857e-06 -1.57824e-05
-4.329e-07 -1.92232e-06 -4.79847e-06
-1.80537e-06 2.99544e-06 -7.17717e-06
-2.5052e-05 -1.29818e-05 -1.79223e-05
-2.51272e-05 -1.45073e-05 -1.80021e-05
-2.50452e-05 1.30337e-05 -1.7906e-05
-2.51181e-05 1.465e-05 -1.79822e-05
-1.64845e-06 -3.12485e-06 -7.20991e-06
6.32795e-06 1.13684e-05 -1.40766e-05
5.33711e-07 -2.40861e-05 -1.73022e-05
-5.22778e-07 1.80954e-06 -4.64501e-06
7.40746e-06 -1.43437e-05 -1.51524e-05
2.33029e-05 -1.32094e-05 -1.77288e-05
2.36327e-05 -1.05376e-05 -1.74908e-05
1.19884e-05 -1.82109e-05 -1.62933e-05
1.47301e-05 -1.01467e-05 -1.57956e-05
-1.00271e-05 1.00125e-06 -1.27546e-05
-1.74001e-06 -8.15903e-07 -4.72345e-06
7.69065e-07 3.70835e-06 -7.57314e-06
2.34307e-06 -1.99716e-06 -6.55529e-06
2.01565e-05 5.89783e-06 -1.64536e-05
5.07009e-06 2.0596e-05 -1.6496e-05
3.42118e-07 -2.76801e-05 -1.7854e-05
-1.73123e-06 7.09112e-07 -4.60633e-06
-3.21151e-06 6.23048e-07 -6.82414e-06
3.57722e-06 1.47541e-06 -7.63662e-06
4.99226e-07 2.83239e-05 -1.79273e-05
2.47604e-05 1.37341e-05 -1.79185e-05
-2.03284e-05 1.55358e-05 -1.74291e-05
1.17871e-06 1.36447e-06 -4.45986e-06
-2.06396e-05 -1.57284e-05 -1.75276e-05
-1.89989e-05 -2.32219e-06 -1.59462e-05
-1.95592e-05 -5.58499e-06 -1.63323e-05
9.05683e-07 -3.24776e-06 -7.00611e-06
-4.36603e-06 -1.97893e-05 -1.63219e-05
-7.93729e-06 1.38344e-05 -1.51011e-05
1.16575e-06 -1.30418e-06 -4.3393e-06
1.19344e-05 -1.12284e-05 -1.52922e-05
6.13308e-06 -2.26961e-05 -1.68205e-05
-1.45222e-05 1.43554e-05 -1.63237e-05
7.92908e-06 1.33212e-05 -1.4948e-05
SCALARS effective_fluid_pressure_TPM float
LOOKUP_TABLE default
665
665
665
665
665
665
665
665
665
665
665
665
665
665
133
665
665
665
665
665
665
665
665
665
665
665
665
665
665
133
665
560.318
520.663
502.803
502.574
519.789
559.939
665
561.985
520.758
503.246
503.356
520.69
561.607
665
559.605
519.66
502.748
502.966
521.158
561.623
665
558.862
519.004
501.537
502.232
518.854
559.45
665
558.502
519.944
501.869
501.8
519.377
557.941
665
558.658
519.958
502.042
501.903
519.365
559.664
133
133
133
133
133
133
665
560.318
520.663
502.803
502.574
519.789
559.939
665
561.985
520.758
503.246
503.356
520.69
561.607
665
559.605
519.66
502.748
502.966
521.158
561.623
665
558.862
519.004
501.537
502.232
518.854
559.45
665
558.502
519.944
501.869
501.8
519.377
557.941
665
558.658
519.958
502.042
501.903
519.365
559.664
133
133
133
133
133
133
228.256
226.326
227.04
224.108
225.523
219.845
220.862
529.163
528.173
526.552
527.931
526.579
527.632
498.699
503.546
501.584
498.94
501.456
501.238
494.32
562.5
518.977
495.023
480.73
461.35
443.27
425.038
402.111
427.262
385.257
417.73
379.604
417.893
385.942
427.379
404.289
444.373
429.068
450.25
386.551
419.293
380.199
418.305
386.182
427.752
404.217
444.483
428.152
450.846
386.026
418.156
379.615
418.512
385.549
427.588
402.911
443.546
426.443
384.043
416.129
376.299
415.336
383.015
424.409
400.837
441.695
425.217
382.752
417.769
376.564
418.087
383.837
425.257
402.204
442.668
450.64
426.717
445.998
380.724
444.664
465.279
448.731
464.753
453.401
350.9
463.494
461.026
478.433
462.762
460.632
478.338
337.274
480.809
505.842
503.601
480.875
506.148
337.687
337.499
326.162
334.413
563.376
519.652
567.577
562.363
567.894
567.748
521.801
542.713
498.614
513.726
542.057
451.443
477.56
414.648
579.518
611.028
579.671
576.032
534.547
494.464
538.221
537.917
485.02
498.1
503.318
473.122
485.068
352.744
326.413
355.173
503.428
477.699
488.342
520.87
502.01
477.896
335.538
335.401
347.696
613.445
337.375
347.568
337.262
353.2
329.186
373.251
310.657
288.786
504.693
608.38
521.091
493.704
478.309
486.337
526.485
600.339
476.546
615.899
291.394
615.797
528.714
494.515
478.216
479.39
501.297
494.821
479.417
502.493
495.156
493.726
502.245
495.23
479.864
480.03
479.032
289.292
454.572
271.94
454.98
453.608
526.994
479.453
465.203
382.094
480.489
292.667
286.079
461.459
449.613
453.957
445.835
448.669
463.584
463.241
479.933
543.453
601.701
487.473
300.299
282.459
452.993
279.161
552.235
551.994
480.755
457.997
526.216
508.168
488.57
233.728
284.556
614.505
636.321
615.14
636.678
285.277
441.32
553.075
230.484
467.531
590.261
566.029
495.795
490.03
410.025
232.118
293.093
271.124
507.876
509.174
607.813
229.661
276.974
294.428
618.877
618.79
558.509
226.52
562.522
488.293
503.376
280.844
504.046
466.358
224.006
473.565
519.562
502.961
462.424
228.256
226.326
227.04
224.108
225.523
219.845
220.862
529.163
528.173
526.552
527.931
526.579
527.632
498.699
503.546
501.584
498.94
501.456
501.238
494.32
562.5
518.977
495.023
480.73
461.35
443.27
425.038
402.111
427.262
385.257
417.73
379.604
417.893
385.942
427.379
404.289
444.373
429.068
450.25
386.551
419.293
380.199
418.305
386.182
427.752
404.217
444.483
428.152
450.846
386.026
418.156
379.615
418.512
385.549
427.588
402.911
443.546
426.443
384.043
416.129
376.299
415.336
383.015
424.409
400.837
441.695
425.217
382.752
417.769
376.564
418.087
383.837
425.257
402.204
442.668
450.64
426.717
445.998
380.724
444.664
465.279
448.731
464.753
453.401
350.9
463.494
461.026
478.433
462.762
460.632
478.338
337.274
480.809
505.842
503.601
480.875
506.148
337.687
337.499
326.162
334.413
563.376
519.652
567.577
562.363
567.894
567.748
521.801
542.713
498.614
513.726
542.057
451.443
477.56
414.648
579.518
611.028
579.671
576.032
534.547
494.464
538.221
537.917
485.02
498.1
503.318
473.122
485.068
352.744
326.413
355.173
503.428
477.699
488.342
520.87
502.01
477.896
335.538
335.401
347.696
613.445
337.375
347.568
337.262
353.2
329.186
373.251
310.657
288.786
504.693
608.38
521.091
493.704
478.309
486.337
526.485
600.339
476.546
615.899
291.394
615.797
528.714
494.515
478.216
479.39
501.297
494.821
479.417
502.493
495.156
493.726
502.245
495.23
479.864
480.03
479.032
289.292
454.572
271.94
454.98
453.608
526.994
479.453
465.203
382.094
480.489
292.667
286.079
461.459
449.613
453.957
445.835
448.669
463.584
463.241
479.933
543.453
601.701
487.473
300.299
282.459
452.993
279.161
552.235
551.994
480.755
457.997
526.216
508.168
488.57
233.728
284.556
614.505
636.321
615.14
636.678
285.277
441.32
553.075
230.484
467.531
590.261
566.029
495.795
490.03
410.025
232.118
293.093
271.124
507.876
509.174
607.813
229.661
276.974
294.428
618.877
618.79
558.509
226.52
562.522
488.293
503.376
280.844
504.046
466.358
224.006
473.565
519.562
502.961
462.424

CELL_DATA 563
TENSORS stress float
164.611 -24.9204 -3.9222e-12
-24.9204 28.1485 -7.10543e-15
-3.9222e-12 -7.10543e-15 -12.6042

-40.3386 -21.3203 2.71627e-12
-21.3203 -7.35471 3.0731e-13
2.71627e-12 3.0731e-13 -10.2318

-9.94008 28.0433 -1.60938e-12
28.0433 -1.1104 1.49273e-12
-1.60938e-12 1.49273e-12 -6.36024

-40.4267 -29.8427 -1.65867e-12
-29.8427 -12.8459 -2.53294e-12
-1.65867e-12 -2.53294e-12 -10.5981

-22.6923 19.9309 -1.00009e-12
19.9309 -1.92277 2.67312e-12
-1.00009e-12 2.67312e-12 -23.0214

-27.1395 -18.0745 -2.73026e-12
-18.0745 15.8879 1.71596e-12
-2.73026e-12 1.71596e-12 -6.41101

161.262 26.4846 -7.1528e-13
26.4846 28.0252 3.12165e-12
-7.1528e-13 3.12165e-12 -13.2631

-5.96146 29.9579 1.12562e-12
29.9579 -10.1121 3.22498e-12
1.12562e-12 3.22498e-12 -7.27625

34.6312 5.48315 -1.09897e-12
5.48315 -19.0949 -2.18151e-12
-1.09897e-12 -2.18151e-12 -4.12207

11.8602 -7.47757 -2.67194e-12
-7.47757 -48.2872 -4.58374e-12
-2.67194e-12 -4.58374e-12 -8.94699

104.194 16.3086 1.88294e-12
16.3086 -8.44351 -2.43361e-12
1.88294e-12 -2.43361e-12 -22.4543

-34.6375 -13.4532 9.4591e-13
-13.4532 18.9658 3.45205e-13
9.4591e-13 3.45205e-13 -7.18051

-6.02604 27.8332 -2.16538e-12
27.8332 -4.5915 -5.51263e-13
-2.16538e-12 -5.51263e-13 -6.15913

-35.5518 -14.3401 3.40146e-12
-14.3401 7.84498 7.27359e-12
3.40146e-12 7.27359e-12 -9.13132

-23.6537 33.3111 1.32723e-12
33.3111 -24.9941 1.80042e-12
1.32723e-12 1.80042e-12 -21.3651

21.3108 0.560979 -2.44131e-12
0.560979 -32.3385 -3.27342e-12
-2.44131e-12 -3.27342e-12 -5.58961

-48.9596 -17.9691 -7.36411e-13
-17.9691 6.3429 -8.20351e-12
-7.36411e-13 -8.20351e-12 -12.9461

11.6601 -2.6652 -2.02653e-12
-2.6652 -43.2488 -1.15922e-12
-2.02653e-12 -1.15922e-12 -8.0335

-11.3498 26.6738 -2.1186e-12
26.6738 19.5173 3.39403e-12
-2.1186e-12 3.39403e-12 -6.08937

21.7655 -4.19559 2.179e-13
-4.19559 -35.2946 -6.81603e-13
2.179e-13 -6.81603e-13 -6.7412

-24.4792 8.66864 9.50647e-13
8.66864 32.1275 -6.78568e-13
9.50647e-13 -6.78568e-13 -4.93421

-11.8087 6.28754 1.54905e-11
6.28754 -11.9736 4.14098e-12
1.54905e-11 4.14098e-12 -75.6198

22.7432 1.87598 -3.51956e-12
1.87598 -33.4689 -1.24611e-12
-3.51956e-12 -1.24611e-12 -6.67718

-12.3881 -27.7152 -4.52971e-13
-27.7152 1.59964 2.21393e-12
-4.52971e-13 2.21393e-12 -6.60267

21.3043 6.8494 -5.56177e-12
6.8494 -34.304 1.22657e-12
-5.56177e-12 1.22657e-12 -6.80643

-37.9053 19.1129 -1.13605e-12
19.1129 2.65394 -1.66178e-12
-1.13605e-12 -1.66178e-12 -9.45761

106.603 4.18139 -2.71427e-12
4.18139 20.6026 3.50919e-12
-2.71427e-12 3.50919e-12 -12.0493

-5.30184 30.7459 -2.19617e-12
30.7459 -7.27228 -3.02869e-13
-2.19617e-12 -3.02869e-13 -7.44151

27.8899 37.0745 -2.34598e-12
37.0745 26.4691 1.00779e-12
-2.34598e-12 1.00779e-12 -8.63216

-9.43911 10.3235 -4.57116e-13
10.3235 -32.9298 5.40142e-12
-4.57116e-13 5.40142e-12 -49.5084

19.8307 14.2169 -3.51008e-12
14.2169 -29.3592 5.29118e-12
-3.51008e-12 5.29118e-12 -6.00086

-4.21036 -17.7804 1.4874e-12
-17.7804 59.6577 -2.56388e-12
1.4874e-12 -2.56388e-12 -8.47606

66.2831 -42.1018 -8.00545e-13
-42.1018 71.1383 3.6285e-12
-8.00545e-13 3.6285e-12 -11.252

-48.2098 5.98665 9.03944e-13
5.98665 7.26955 -3.05829e-13
9.03944e-13 -3.05829e-13 -41.0373

-26.2911 -4.84052 -2.6299e-12
-4.84052 1.75671 -3.74426e-12
-2.6299e-12 -3.74426e-12 -37.8023

-1.46687 21.0278 -3.20632e-13
21.0278 -39.5063 1.22273e-13
-3.20632e-13 1.22273e-13 -41.1032

-43.9756 5.06734 1.10697e-12
5.06734 0.51421 -2.61243e-12
1.10697e-12 -2.61243e-12 -52.1908

-2.76016 -9.17002 -3.06481e-12
-9.17002 -20.7697 7.65536e-13
-3.06481e-12 7.65536e-13 -35.8967

-3.97426 -27.9982 -2.33295e-13
-27.9982 -4.61052 1.28727e-12
-2.33295e-13 1.28727e-12 -5.99446

65.5969 41.521 -5.68434e-14
41.521 73.166 6.4162e-12
-5.68434e-14 6.4162e-12 -10.9638

60.1551 -17.9491 -7.04977e-12
-17.9491 0.116874 -2.18255e-12
-7.04977e-12 -2.18255e-12 -8.05003

-41.8034 -3.70592 4.17e-13
-3.70592 -1.18565 2.60073e-12
4.17e-13 2.60073e-12 -52.7256

-14.5937 19.5553 5.5241e-12
19.5553 -28.5515 1.22273e-13
5.5241e-12 1.22273e-13 -52.8337

18.141 -12.2733 -6.81529e-13
-12.2733 -29.899 1.09202e-12
-6.81529e-13 1.09202e-12 -6.22304

38.173 -43.2991 -7.4607e-13
-43.2991 41.801 -8.60941e-13
-7.4607e-13 -8.60941e-13 -14.559

58.1437 -18.0634 7.67386e-13
-18.0634 -2.30284 1.82609e-12
7.67386e-13 1.82609e-12 -7.91363

-21.4419 17.0857 7.49327e-13
17.0857 30.3271 2.46321e-13
7.49327e-13 2.46321e-13 -5.72829

-11.3727 19.339 4.47938e-13
19.339 25.5105 4.4255e-12
4.47938e-13 4.4255e-12 -3.9217

20.7911 -16.3011 1.16055e-12
-16.3011 -33.1144 1.98774e-12
1.16055e-12 1.98774e-12 -7.31164

12.6152 -34.1854 1.72662e-12
-34.1854 46.4353 -1.63188e-12
1.72662e-12 -1.63188e-12 -10.3973

62.3599 19.1818 -1.57977e-12
19.1818 2.81017 3.02987e-12
-1.57977e-12 3.02987e-12 -8.41396

46.5134 -25.2884 -3.14534e-12
-25.2884 5.13394 -4.47642e-12
-3.14534e-12 -4.47642e-12 -5.61001

-31.8957 19.4856 -1.45143e-12
19.4856 -4.28546 -3.16606e-12
-1.45143e-12 -3.16606e-12 -26.0854

37.0389 29.6493 1.76807e-12
29.6493 14.5125 1.23279e-12
1.76807e-12 1.23279e-12 -5.43244

-27.4498 -21.8128 3.98911e-12
-21.8128 -8.22852 3.0446e-12
3.98911e-12 3.0446e-12 -25.2478

64.8685 -42.7112 -2.54611e-12
-42.7112 44.0799 -3.02099e-12
-2.54611e-12 -3.02099e-12 -9.5021

-27.7495 5.45953 1.2997e-12
5.45953 2.6693 2.08367e-12
1.2997e-12 2.08367e-12 -38.3078

-5.55788 -5.32979 1.9611e-12
-5.32979 57.3878 -2.80428e-12
1.9611e-12 -2.80428e-12 -5.44947

-0.200305 10.3843 -1.89419e-12
10.3843 -24.8479 -4.34784e-12
-1.89419e-12 -4.34784e-12 -38.3694

-26.4852 21.4131 -1.18483e-12
21.4131 12.2195 -5.59019e-12
-1.18483e-12 -5.59019e-12 -6.86962

4.72637 5.75395 -2.51651e-14
5.75395 -56.04 2.90582e-12
-2.51651e-14 2.90582e-12 -13.9808

0.539841 11.4589 2.41081e-12
11.4589 -34.0566 1.52382e-12
2.41081e-12 1.52382e-12 -14.8397

106.343 31.8198 3.93167e-13
31.8198 37.8328 -4.38168e-14
3.93167e-13 -4.38168e-14 -7.48962

-35.4918 -6.03522 -5.75096e-13
-6.03522 10.6012 -4.36747e-12
-5.75096e-13 -4.36747e-12 -13.4789

-35.36 9.51977 2.21793e-12
9.51977 1.23364 4.95604e-13
2.21793e-12 4.95604e-13 -14.96

-42.5877 -2.88085 -4.3654e-13
-2.88085 21.1109 2.05998e-12
-4.3654e-13 2.05998e-12 -11.2388

-44.9079 23.402 -1.94204e-12
23.402 -5.89262 1.0892e-12
-1.94204e-12 1.0892e-12 -13.9217

9.97103 8.46354 -7.54952e-14
8.46354 -42.378 3.13024e-12
-7.54952e-14 3.13024e-12 -9.07784

-12.3344 -28.2394 -4.10842e-12
-28.2394 1.68727 -1.81781e-13
-4.10842e-12 -1.81781e-13 -6.67384

1.30885 -1.71125 -1.57237e-12
-1.71125 -55.4563 -4.59743e-12
-1.57237e-12 -4.59743e-12 -11.3039

-31.8853 -19.2616 2.35042e-12
-19.2616 -4.59482 -7.67386e-13
2.35042e-12 -7.67386e-13 -25.9548

-27.9752 21.3078 -2.17604e-12
21.3078 -8.35835 -4.76447e-12
-2.17604e-12 -4.76447e-12 -26.0132

-0.651868 -16.5834 -2.15561e-12
-16.5834 61.6735 -4.33905e-12
-2.15561e-12 -4.33905e-12 -7.94888

-0.650138 -27.9361 -5.20473e-13
-27.9361 -21.361 6.41265e-12
-5.20473e-13 6.41265e-12 -12.7909

-14.0931 -25.1346 3.92279e-13
-25.1346 7.40679 1.48267e-12
3.92279e-13 1.48267e-12 -5.23591

91.6777 -31.7105 -7.22385e-13
-31.7105 19.4848 2.05761e-12
-7.22385e-13 2.05761e-12 -16.3331

-33.7061 3.22265 -6.93297e-13
3.22265 9.19942 4.25082e-12
-6.93297e-13 4.25082e-12 -18.5634

2.75211 28.9439 1.19016e-12
28.9439 -24.4247 -6.18172e-13
1.19016e-12 -6.18172e-13 -11.3164

-38.4335 19.6642 -9.41765e-13
19.6642 5.22971 3.81621e-13
-9.41765e-13 3.81621e-13 -9.23508

50.1904 7.99953 7.96282e-12
7.99953 -16.9639 9.98313e-12
7.96282e-12 9.98313e-12 -7.06684

60.0313 -33.9355 4.57234e-12
-33.9355 33.7868 -3.91035e-12
4.57234e-12 -3.91035e-12 -6.98368

-18.9601 -10.5874 7.17589e-12
-10.5874 -0.541652 2.93395e-13
7.17589e-12 2.93395e-13 -25.4311

-33.9261 23.8995 -4.70883e-12
23.8995 -12.0232 2.61863e-12
-4.70883e-12 2.61863e-12 -14.5402

58.1561 -32.3837 -1.47201e-12
-32.3837 18.0913 -3.28508e-12
-1.47201e-12 -3.28508e-12 -10.1337

66.8595 10.7911 -1.84386e-12
10.7911 8.51311 3.40542e-12
-1.84386e-12 3.40542e-12 -5.08435

7.67402 -21.2059 3.50298e-12
-21.2059 88.4644 9.10679e-12
3.50298e-12 9.10679e-12 -11.8622

-33.9858 14.4256 3.23593e-12
14.4256 20.2383 1.50161e-12
3.23593e-12 1.50161e-12 -7.54635

8.47544 23.143 2.1565e-12
23.143 -26.0739 -2.60473e-12
2.1565e-12 -2.60473e-12 -11.2991

34.8686 42.1986 -5.34447e-12
42.1986 46.1992 1.83083e-12
-5.34447e-12 1.83083e-12 -14.4205

-4.39442 16.5069 -3.99162e-13
16.5069 -35.5415 1.20052e-12
-3.99162e-13 1.20052e-12 -73.2865

-5.97998 -4.10835 -1.57178e-12
-4.10835 57.9483 -4.06194e-13
-1.57178e-12 -4.06194e-13 -5.44166

-1.81885 -16.6321 2.1528e-12
-16.6321 -39.4015 1.06063e-12
2.1528e-12 1.06063e-12 -74.1098

-3.32951 -27.3349 9.56391e-12
-27.3349 -30.0297 -1.41102e-12
9.56391e-12 -1.41102e-12 -21.5541

8.96709 27.4246 2.34894e-12
27.4246 -29.9949 -7.04918e-13
2.34894e-12 -7.04918e-13 -11.2571

45.7111 -24.4105 2.81138e-12
-24.4105 5.02424 9.02093e-13
2.81138e-12 9.02093e-13 -5.23608

10.0952 31.3232 8.44954e-13
31.3232 47.1631 1.7657e-12
8.44954e-13 1.7657e-12 -9.64033

14.2723 -10.7051 -7.11135e-13
-10.7051 82.8387 9.45022e-13
-7.11135e-13 9.45022e-13 -6.44698

-38.633 21.9707 2.61006e-12
21.9707 2.94153 9.26074e-13
2.61006e-12 9.26074e-13 -8.56901

1.19272 16.7941 2.77467e-12
16.7941 -25.7222 3.32771e-13
2.77467e-12 3.32771e-13 -18.5676

-26.5379 15.1539 -2.38461e-12
15.1539 18.4493 -5.18519e-12
-2.38461e-12 -5.18519e-12 -5.70796

43.6587 15.9538 -2.269e-12
15.9538 -7.28512 -3.61844e-12
-2.269e-12 -3.61844e-12 -4.07512

12.5769 -21.4725 9.03573e-13
-21.4725 57.9555 -3.96128e-12
9.03573e-13 -3.96128e-12 -4.71399

65.9963 -29.3906 4.97617e-12
-29.3906 18.6435 -9.72851e-13
4.97617e-12 -9.72851e-13 -9.33522

-32.3811 -24.573 -2.76268e-12
-24.573 -7.28168 6.51923e-13
-2.76268e-12 6.51923e-13 -8.97628

-22.667 27.451 8.32223e-13
27.451 -10.3502 6.61989e-13
8.32223e-13 6.61989e-13 -9.28387

-38.3512 23.1876 2.13207e-12
23.1876 1.99105 -3.35613e-12
2.13207e-12 -3.35613e-12 -8.52491

-51.5533 13.1691 4.14837e-12
13.1691 11.9269 -6.57252e-13
4.14837e-12 -6.57252e-13 -16.4663

23.4846 9.37226 -2.35782e-12
9.37226 -29.4878 6.38023e-12
-2.35782e-12 6.38023e-12 -5.32147

3.76857 -4.66505 1.62833e-14
-4.66505 79.4379 2.10794e-12
1.62833e-14 2.10794e-12 -9.53135

-44.9398 -36.8331 1.70412e-12
-36.8331 -19.8288 1.25403e-12
1.70412e-12 1.25403e-12 -14.7706

-16.0796 27.4653 -6.96036e-13
27.4653 1.34099 -2.51532e-12
-6.96036e-13 -2.51532e-12 -6.91463

-5.01534 2.17032 9.87055e-12
2.17032 82.6734 -2.87059e-12
9.87055e-12 -2.87059e-12 -13.4311

69.0453 34.6103 -5.11591e-13
34.6103 15.4966 3.11277e-12
-5.11591e-13 3.11277e-12 -10.7058

-31.3518 -22.9739 4.26326e-14
-22.9739 -4.63247 -2.59082e-12
4.26326e-14 -2.59082e-12 -8.5298

11.743 5.73296 2.70954e-12
5.73296 -48.3359 5.92119e-14
2.70954e-12 5.92119e-14 -8.6413

43.0655 27.204 -1.09424e-12
27.204 10.4519 3.55982e-12
-1.09424e-12 3.55982e-12 -5.08081

-9.41461 12.7454 2.2012e-13
12.7454 -14.0392 -3.11484e-12
2.2012e-13 -3.11484e-12 -37.0403

70.3344 24.3304 2.86586e-12
24.3304 23.8048 -4.39293e-12
2.86586e-12 -4.39293e-12 -6.79947

-10.5858 -13.055 -7.7834e-13
-13.055 -13.921 2.43479e-12
-7.7834e-13 2.43479e-12 -37.3781

-4.37963 0.778537 6.36824e-12
0.778537 59.3979 -3.6214e-12
6.36824e-12 -3.6214e-12 -4.83066

38.3569 -2.23531 2.09255e-12
-2.23531 -23.8108 3.44369e-12
2.09255e-12 3.44369e-12 -5.83232

3.59368 -15.7679 1.35743e-13
-15.7679 -53.971 2.11771e-12
1.35743e-13 2.11771e-12 -21.1242

-42.277 24.3881 1.04216e-12
24.3881 -11.737 4.79083e-12
1.04216e-12 4.79083e-12 -11.1675

-46.8124 -13.535 1.70424e-12
-13.535 11.0673 -3.15303e-12
1.70424e-12 -3.15303e-12 -12.3538

5.81012 -7.99994 -1.3715e-12
-7.99994 -70.9674 -2.80383e-12
-1.3715e-12 -2.80383e-12 -14.8819

-49.539 -22.2839 3.47411e-12
-22.2839 3.74841 1.16351e-12
3.47411e-12 1.16351e-12 -22.1041

-17.4592 -6.59665 2.4271e-12
-6.59665 -13.1157 -2.56069e-12
2.4271e-12 -2.56069e-12 -34.7812

-28.7297 -29.9082 9.88246e-13
-29.9082 -9.39988 -2.52716e-12
9.88246e-13 -2.52716e-12 -8.99603

15.6934 11.4536 -4.71001e-12
11.4536 80.1801 -7.17411e-12
-4.71001e-12 -7.17411e-12 -6.53064

42.2899 -28.1464 3.57048e-12
-28.1464 11.0508 7.04622e-13
3.57048e-12 7.04622e-13 -5.04405

-47.1705 -13.7721 -6.24093e-13
-13.7721 4.19615 2.96474e-12
-6.24093e-13 2.96474e-12 -29.3005

2.96483 0.50447 -1.38275e-12
0.50447 -56.8119 -4.82725e-13
-1.38275e-12 -4.82725e-13 -11.0052

-39.3366 -21.5245 2.44945e-12
-21.5245 -8.85724 -7.73603e-13
2.44945e-12 -7.73603e-13 -14.7742

-40.1949 25.6977 -8.57536e-13
25.6977 -14.6915 -4.86981e-13
-8.57536e-13 -4.86981e-13 -11.3109

32.2604 -31.4643 9.49759e-13
-31.4643 38.4293 -1.59398e-12
9.49759e-13 -1.59398e-12 -4.64816

-31.4687 -7.08486 -1.73128e-12
-7.08486 1.70041 2.03393e-13
-1.73128e-12 2.03393e-13 -40.9923

36.6299 -33.0766 8.95284e-13
-33.0766 72.0271 6.12962e-12
8.95284e-13 6.12962e-12 -7.1447

16.6126 -19.1796 -3.66522e-13
-19.1796 -25.8699 2.18877e-12
-3.66522e-13 2.18877e-12 -7.13329

1.50257 1.97036 -5.52521e-12
1.97036 -51.3914 1.54839e-12
-5.52521e-12 1.54839e-12 -15.3742

-12.8758 17.875 -7.04622e-13
17.875 -16.955 1.81781e-12
-7.04622e-13 1.81781e-12 -41.0599

10.713 20.1827 2.22755e-12
20.1827 59.4539 3.55982e-12
2.22755e-12 3.55982e-12 -4.35664

4.31831 27.2105 -2.71013e-12
27.2105 -16.2237 -1.77873e-12
-2.71013e-12 -1.77873e-12 -8.12424

30.9044 -24.5115 -4.84472e-12
-24.5115 -8.13237 6.08343e-12
-4.84472e-12 6.08343e-12 -4.87219

-37.7874 -17.8385 3.49541e-12
-17.8385 2.40086 -3.25192e-12
3.49541e-12 -3.25192e-12 -9.86444

55.5135 35.068 -2.26189e-13
35.068 42.3453 9.75457e-12
-2.26189e-13 9.75457e-12 -6.63626

-40.015 -21.831 -1.99011e-12
-21.831 2.53685 1.32487e-12
-1.99011e-12 1.32487e-12 -9.39395

2.96653 30.8504 2.77704e-13
30.8504 -17.3883 -1.57e-12
2.77704e-13 -1.57e-12 -9.07825

18.5373 -25.244 1.40924e-12
-25.244 -19.4179 2.53664e-12
1.40924e-12 2.53664e-12 -6.34249

-15.6537 -25.1263 -2.71635e-12
-25.1263 5.89561 -1.69938e-13
-2.71635e-12 -1.69938e-13 -5.77554

42.7182 -18.688 -9.90023e-13
-18.688 -9.16586 -6.44936e-12
-9.90023e-13 -6.44936e-12 -5.36911

27.4318 -18.8495 1.83379e-12
-18.8495 -20.3684 3.44968e-12
1.83379e-12 3.44968e-12 -5.68976

-41.3938 -25.337 1.80211e-12
-25.337 -14.9641 -4.95159e-13
1.80211e-12 -4.95159e-13 -11.5671

29.7808 35.9692 1.26477e-12
35.9692 25.227 7.10543e-15
1.26477e-12 7.10543e-15 -8.64427

-28.5182 15.3767 -6.39637e-13
15.3767 18.5188 -3.72443e-13
-6.39637e-13 -3.72443e-13 -5.87397

-23.108 26.4222 -2.94342e-12
26.4222 -12.5468 -3.57936e-13
-2.94342e-12 -3.57936e-13 -9.95807

-42.0966 25.4736 1.5099e-14
25.4736 -11.5925 -1.4347e-12
1.5099e-14 -1.4347e-12 -10.9928

-37.2884 11.6215 2.91864e-13
11.6215 11.8441 6.04139e-12
2.91864e-13 6.04139e-12 -9.08047

64.3929 -8.22694 6.65542e-13
-8.22694 3.1976 -4.31299e-12
6.65542e-13 -4.31299e-12 -4.25076

8.7338 18.6063 4.35385e-12
18.6063 59.2197 7.65018e-12
4.35385e-12 7.65018e-12 -4.16224

-25.6146 -24.3804 -1.29082e-12
-24.3804 0.458421 -8.53836e-13
-1.29082e-12 -8.53836e-13 -7.21556

-1.14165 25.6658 1.10845e-12
25.6658 13.7523 2.66157e-12
1.10845e-12 2.66157e-12 -4.08266

32.3785 -35.6291 6.987e-14
-35.6291 21.7 7.0397e-12
6.987e-14 7.0397e-12 -8.48599

59.536 38.3163 2.83743e-12
38.3163 17.8476 -1.38793e-12
2.83743e-12 -1.38793e-12 -13.7222

12.125 -33.3108 -2.63493e-13
-33.3108 42.9132 4.62563e-12
-2.63493e-13 4.62563e-12 -9.54261

30.5512 -31.1593 -7.04622e-13
-31.1593 36.8134 2.80664e-12
-7.04622e-13 2.80664e-12 -4.40534

11.7689 -6.83865 7.91663e-13
-6.83865 -48.838 3.01078e-12
7.91663e-13 3.01078e-12 -8.77014

25.2744 30.3415 1.03976e-12
30.3415 41.0888 4.38168e-14
1.03976e-12 4.38168e-14 -4.45585

62.6819 13.2945 7.99361e-13
13.2945 5.22811 -2.57424e-12
7.99361e-13 -2.57424e-12 -4.30535

-7.02578 13.3787 -1.48104e-12
13.3787 61.3439 8.88534e-12
-1.48104e-12 8.88534e-12 -8.69485

11.7296 -22.3402 2.18492e-13
-22.3402 55.7629 -6.30725e-12
2.18492e-13 -6.30725e-12 -4.30131

-47.2605 -1.09159 3.7641e-12
-1.09159 12.4095 -1.6751e-12
3.7641e-12 -1.6751e-12 -22.1619

-5.91909 2.24659 2.2086e-13
2.24659 59.0041 -6.86858e-14
2.2086e-13 -6.86858e-14 -5.26238

6.26864 31.089 3.31764e-12
31.089 47.865 -1.61648e-12
3.31764e-12 -1.61648e-12 -9.6604

-39.7253 12.1078 -2.389e-12
12.1078 12.8447 2.02445e-12
-2.389e-12 2.02445e-12 -9.31293

40.7381 -27.6474 2.70717e-12
-27.6474 8.35751 -1.49214e-12
2.70717e-12 -1.49214e-12 -5.64184

7.53989 20.557 1.09364e-12
20.557 -47.4669 -2.63286e-12
1.09364e-12 -2.63286e-12 -16.4817

-3.42118 26.2704 -1.07529e-12
26.2704 -31.4865 7.4829e-13
-1.07529e-12 7.4829e-13 -22.2523

15.7773 -18.5676 2.90494e-12
-18.5676 -30.013 2.48749e-12
2.90494e-12 2.48749e-12 -8.18288

4.42862 -1.80132 -1.92439e-12
-1.80132 -34.133 -5.28969e-12
-1.92439e-12 -5.28969e-12 -24.4393

-14.3397 -31.8118 3.97489e-12
-31.8118 -11.9304 4.41069e-12
3.97489e-12 4.41069e-12 -9.04942

56.218 23.3276 -3.54206e-12
23.3276 0.81677 -3.05297e-12
-3.54206e-12 -3.05297e-12 -8.28786

-27.8281 30.1621 -2.79273e-12
30.1621 -9.23643 -1.47704e-12
-2.79273e-12 -1.47704e-12 -8.80028

-27.0036 29.2059 6.05442e-13
29.2059 -9.20178 1.58244e-12
6.05442e-13 1.58244e-12 -8.67756

28.6285 30.6606 -3.52903e-12
30.6606 40.4057 4.26444e-12
-3.52903e-12 4.26444e-12 -4.44886

0.343094 27.085 -2.25183e-12
27.085 -19.8459 3.0281e-12
-2.25183e-12 3.0281e-12 -11.777

64.5078 3.52512 1.85452e-12
3.52512 -11.8258 1.81773e-12
1.85452e-12 1.81773e-12 -10.0182

-14.8998 31.8172 2.92596e-12
31.8172 -20.7988 -1.85777e-12
2.92596e-12 -1.85777e-12 -12.4475

-37.9442 -12.5997 2.98213e-12
-12.5997 8.18005 -3.48107e-12
2.98213e-12 -3.48107e-12 -14.0227

-0.475004 24.2781 -8.8433e-13
24.2781 -29.9991 4.14483e-14
-8.8433e-13 4.14483e-14 -20.7713

-23.7274 -29.5787 4.42224e-12
-29.5787 -11.9349 3.39787e-12
4.42224e-12 3.39787e-12 -8.84321

-38.1483 -4.89802 -8.42659e-13
-4.89802 18.8466 3.9518e-12
-8.42659e-13 3.9518e-12 -11.73

69.9444 -24.5562 -9.97128e-13
-24.5562 18.0288 -1.72307e-12
-9.97128e-13 -1.72307e-12 -7.04425

39.982 29.6929 -1.18424e-12
29.6929 13.4794 -1.76215e-12
-1.18424e-12 -1.76215e-12 -5.21492

-4.29617 14.6964 7.41629e-14
14.6964 60.5712 3.52074e-12
7.41629e-14 3.52074e-12 -8.40077

1.61141 -1.13891 3.7718e-13
-1.13891 -56.1234 2.54345e-12
3.7718e-13 2.54345e-12 -11.2091

9.61413 0.00222484 1.51257e-12
0.00222484 -44.754 -2.93449e-12
1.51257e-12 -2.93449e-12 -8.43787

-31.0788 23.1239 4.14839e-12
23.1239 -4.33717 -6.21725e-14
4.14839e-12 -6.21725e-14 -8.45832

-34.7625 23.871 4.10694e-12
23.871 -13.1925 2.14449e-12
4.10694e-12 2.14449e-12 -14.813

-43.3787 -24.3807 -1.81397e-12
-24.3807 -12.6139 -2.44678e-12
-1.81397e-12 -2.44678e-12 -11.4686

-39.0592 -0.67281 -2.96143e-12
-0.67281 21.0464 -3.72265e-12
-2.96143e-12 -3.72265e-12 -10.4954

-40.8067 25.5904 -5.81165e-13
25.5904 -13.2225 -2.132e-12
-5.81165e-13 -2.132e-12 -11.1722

32.3216 -10.3079 2.25064e-12
-10.3079 -25.1537 1.12355e-13
2.25064e-12 1.12355e-13 -6.01414

8.70664 -32.8334 -2.71901e-12
-32.8334 22.7976 5.31131e-12
-2.71901e-12 5.31131e-12 -6.99194

2.39682 -2.30079 -8.93211e-13
-2.30079 -49.9607 3.46094e-13
-8.93211e-13 3.46094e-13 -14.7726

36.7455 -34.5082 -8.23045e-13
-34.5082 24.4796 -1.76984e-12
-8.23045e-13 -1.76984e-12 -7.70905

-38.2939 19.0861 2.735e-12
19.0861 -7.09363 1.44418e-12
2.735e-12 1.44418e-12 -14.4494

7.87073 -26.4787 6.64357e-13
-26.4787 -27.9946 3.83071e-12
6.64357e-13 3.83071e-12 -10.969

63.9473 -9.69023 -1.42109e-14
-9.69023 5.67742 -4.47553e-12
-1.42109e-14 -4.47553e-12 -5.07223

6.04066 -23.192 4.02937e-12
-23.192 -35.4682 -4.57412e-13
4.02937e-12 -4.57412e-13 -17.736

0.14137 2.35828 -3.0127e-12
2.35828 -56.1741 3.89414e-12
-3.0127e-12 3.89414e-12 -11.546

-4.06208 -23.3215 -4.02641e-13
-23.3215 -23.4117 -2.71679e-12
-4.02641e-13 -2.71679e-12 -16.7199

11.0388 -25.8595 -8.59757e-13
-25.8595 -29.4859 2.10202e-14
-8.59757e-13 2.10202e-14 -9.73358

10.2014 -8.54616 -3.09116e-12
-8.54616 -43.49 1.41975e-12
-3.09116e-12 1.41975e-12 -9.28138

-35.4181 -23.0682 2.23436e-12
-23.0682 -12.6459 1.19023e-12
2.23436e-12 1.19023e-12 -15.1031

23.6643 -31.3419 -5.25802e-13
-31.3419 5.71238 8.7681e-12
-5.25802e-13 8.7681e-12 -5.87818

11.0598 -24.5873 -3.43607e-12
-24.5873 -27.4946 -2.41585e-12
-3.43607e-12 -2.41585e-12 -10.0481

46.6431 10.8644 1.09424e-12
10.8644 -16.1173 -6.09054e-12
1.09424e-12 -6.09054e-12 -6.79981

-14.1862 26.3403 3.52192e-12
26.3403 -15.6399 9.61009e-13
3.52192e-12 9.61009e-13 -14.1189

-45.2517 -37.6128 5.06262e-14
-37.6128 -20.6123 -1.57419e-12
5.06262e-14 -1.57419e-12 -14.9191

-43.7084 37.2651 8.34592e-13
37.2651 -21.2661 -1.72262e-12
8.34592e-13 -1.72262e-12 -14.7695

-61.1849 -28.5733 1.13295e-12
-28.5733 -7.49706 -6.42449e-12
1.13295e-12 -6.42449e-12 -15.1995

-58.4158 27.0641 -9.4813e-14
27.0641 -6.27169 2.28558e-12
-9.4813e-14 2.28558e-12 -14.4781

5.60062 -8.52759 5.6651e-13
-8.52759 -71.0639 -1.48518e-12
5.6651e-13 -1.48518e-12 -14.7097

4.39737 9.27359 1.28727e-12
9.27359 -68.8326 3.32223e-12
1.28727e-12 3.32223e-12 -14.4377

9.02395 -9.84621 -9.28443e-13
-9.84621 -40.8901 1.42582e-12
-9.28443e-13 1.42582e-12 -9.61185

-24.3355 32.116 -5.41966e-12
32.116 -24.8099 1.13809e-12
-5.41966e-12 1.13809e-12 -21.1452

-25.5229 -32.854 1.99574e-12
-32.854 -25.096 -2.89532e-12
1.99574e-12 -2.89532e-12 -21.4694

-53.9197 16.0685 1.92927e-12
16.0685 3.40167 -2.6071e-12
1.92927e-12 -2.6071e-12 -21.4028

-52.4206 -15.8009 3.59712e-14
-15.8009 3.297 -1.77813e-12
3.59712e-14 -1.77813e-12 -21.0761

6.11213 -3.74775 -4.14335e-13
-3.74775 -43.9251 -6.2735e-13
-4.14335e-13 -6.2735e-13 -25.765

6.91828 3.61051 -2.543e-12
3.61051 -46.3486 -2.457e-12
-2.543e-12 -2.457e-12 -26.1413

-15.6259 9.83689 2.66009e-13
9.83689 46.2626 -5.16328e-13
2.66009e-13 -5.16328e-13 -5.84798

-22.9187 -24.7742 5.7554e-13
-24.7742 -14.5523 -1.00764e-12
5.7554e-13 -1.00764e-12 -10.3299

-56.6035 -36.3875 2.76275e-12
-36.3875 -14.5327 -1.3521e-12
2.76275e-12 -1.3521e-12 -13.4372

33.3584 -4.6643 2.60532e-14
-4.6643 -19.8471 -2.75298e-13
2.60532e-14 -2.75298e-13 -3.94511

3.43336 -16.6946 1.21458e-12
-16.6946 -52.6286 1.38082e-12
1.21458e-12 1.38082e-12 -21.5327

3.6745 16.1756 -2.45493e-12
16.1756 -51.8843 1.92705e-12
-2.45493e-12 1.92705e-12 -21.4059

6.55572 0.12188 1.19948e-12
0.12188 -76.7548 -1.51908e-12
1.19948e-12 -1.51908e-12 -13.304

-7.56969 23.3753 9.62785e-13
23.3753 39.9357 -2.80783e-12
9.62785e-13 -2.80783e-12 -6.88527

-56.8892 36.1714 -1.20666e-12
36.1714 -14.0113 4.0649e-13
-1.20666e-12 4.0649e-13 -13.3888

-39.7946 -23.3958 -2.62027e-12
-23.3958 2.56154 -3.22527e-12
-2.62027e-12 -3.22527e-12 -8.80091

37.1168 23.3528 8.90547e-13
23.3528 -8.61321 4.53978e-12
8.90547e-13 4.53978e-12 -5.75862

4.73522 23.8582 7.57912e-14
23.8582 -38.2259 1.70826e-12
7.57912e-14 1.70826e-12 -18.9858

24.0135 -31.3137 -3.07547e-12
-31.3137 6.40826 3.52784e-12
-3.07547e-12 3.52784e-12 -5.64816

2.43076 -3.23103 2.1901e-12
-3.23103 -48.3698 2.67519e-12
2.1901e-12 2.67519e-12 -14.7427

-60.4576 -34.1609 6.38008e-14
-34.1609 -14.3498 -2.08219e-12
6.38008e-14 -2.08219e-12 -14.0309

-17.4528 8.31999 6.41794e-12
8.31999 45.6919 -2.82559e-12
6.41794e-12 -2.82559e-12 -5.78102

-9.46895 21.8117 -2.27196e-12
21.8117 40.4251 2.61006e-12
-2.27196e-12 2.61006e-12 -6.65375

58.6037 35.7759 3.05889e-12
35.7759 37.0881 -8.71599e-13
3.05889e-12 -8.71599e-13 -6.91586

70.4842 1.57876 -7.12911e-12
1.57876 -5.54307 5.81831e-13
-7.12911e-12 5.81831e-13 -10.374

-30.7594 -22.8045 -9.58937e-13
-22.8045 -13.3564 -4.26772e-12
-9.58937e-13 -4.26772e-12 -14.466

32.8413 31.1839 5.00341e-12
31.1839 69.7945 -7.93439e-13
5.00341e-12 -7.93439e-13 -6.67933

-19.3765 23.61 1.96909e-12
23.61 7.68691 -3.92042e-12
1.96909e-12 -3.92042e-12 -5.51329

47.6372 -5.34956 -8.23045e-12
-5.34956 -17.4334 -7.56136e-13
-8.23045e-12 -7.56136e-13 -6.82176

33.2195 11.2161 -2.99198e-12
11.2161 -23.637 -1.81336e-12
-2.99198e-12 -1.81336e-12 -6.0139

6.25424 0.429902 -8.1816e-13
0.429902 -77.5521 -5.65929e-13
-8.1816e-13 -5.65929e-13 -13.4497

-58.9357 -29.031 -1.28734e-12
-29.031 -6.28811 -1.77902e-12
-1.28734e-12 -1.77902e-12 -14.6971

-28.3319 -6.31888 -3.66707e-12
-6.31888 -11.3581 -8.81073e-13
-3.66707e-12 -8.81073e-13 -51.5887

-44.6981 37.4115 3.148e-12
37.4115 -20.8114 -9.37768e-13
3.148e-12 -9.37768e-13 -14.7735

93.7907 1.66329 -1.2174e-12
1.66329 16.6553 5.60293e-14
-1.2174e-12 5.60293e-14 -6.04304

10.0364 -32.787 6.19356e-13
-32.787 21.3109 -8.72191e-13
6.19356e-13 -8.72191e-13 -6.8082

-56.936 36.6129 -1.96339e-12
36.6129 -14.5712 8.64494e-13
-1.96339e-12 8.64494e-13 -13.5051

-35.0793 -11.1339 -2.23627e-12
-11.1339 19.1771 2.55381e-12
-2.23627e-12 2.55381e-12 -8.31646

-5.4776 -25.5146 -2.55618e-12
-25.5146 37.3503 3.73153e-12
-2.55618e-12 3.73153e-12 -6.98703

-58.4522 28.83 1.4105e-12
28.83 -6.27149 4.88202e-13
1.4105e-12 4.88202e-13 -14.6142

28.4959 -26.1419 -2.07597e-12
-26.1419 -4.91258 4.74465e-12
-2.07597e-12 4.74465e-12 -4.69722

-21.1703 10.4835 -3.4864e-12
10.4835 -18.559 -1.2225e-11
-3.4864e-12 -1.2225e-11 -51.6842

3.43279 30.8721 -6.35936e-13
30.8721 27.1626 6.08698e-13
-6.35936e-13 6.08698e-13 -6.73299

6.14053 8.12668 -1.65764e-12
8.12668 -72.2976 -8.4821e-14
-1.65764e-12 -8.4821e-14 -14.9843

-11.5458 30.1906 -1.78761e-12
30.1906 -20.6032 1.19874e-12
-1.78761e-12 1.19874e-12 -11.5492

-30.7977 23.3319 5.85754e-13
23.3319 -5.09973 -2.21127e-12
5.85754e-13 -2.21127e-12 -8.46437

-25.8637 -32.4887 8.14164e-14
-32.4887 -24.1127 1.79066e-12
8.14164e-14 1.79066e-12 -21.5588

9.20539 -23.1903 -1.08891e-12
-23.1903 -27.9223 -4.91163e-13
-1.08891e-12 -4.91163e-13 -11.4257

-37.6609 10.4706 -2.35941e-12
10.4706 8.92892 -4.04358e-12
-2.35941e-12 -4.04358e-12 -25.331

-23.0406 -23.4338 -5.58131e-12
-23.4338 4.95244 5.83948e-12
-5.58131e-12 5.83948e-12 -6.26301

88.8036 -9.70783 6.74542e-12
-9.70783 10.8072 1.66378e-12
6.74542e-12 1.66378e-12 -10.0308

84.0437 -14.2772 1.19608e-12
-14.2772 2.8126 -8.21861e-13
1.19608e-12 -8.21861e-13 -13.1968

5.88789 16.5295 2.58312e-12
16.5295 -33.9324 2.79776e-13
2.58312e-12 2.79776e-13 -22.376

-16.4214 22.5017 3.26317e-12
22.5017 16.228 9.0381e-12
3.26317e-12 9.0381e-12 -5.08532

-3.91238 29.1632 5.76487e-12
29.1632 -12.2299 -1.03473e-12
5.76487e-12 -1.03473e-12 -8.3963

50.9928 0.688671 8.57862e-12
0.688671 -6.53191 2.33973e-12
8.57862e-12 2.33973e-12 -3.63441

-48.1411 6.57113 -3.89882e-12
6.57113 14.7861 3.07902e-13
-3.89882e-12 3.07902e-13 -18.9524

10.1157 16.5407 1.17832e-12
16.5407 -36.0797 -3.97312e-13
1.17832e-12 -3.97312e-13 -9.13548

-4.50378 -25.7611 -4.29286e-12
-25.7611 35.5555 -4.24312e-12
-4.29286e-12 -4.24312e-12 -6.74699

-39.1913 -2.57237 3.69932e-12
-2.57237 21.5042 -2.63848e-12
3.69932e-12 -2.63848e-12 -10.6694

-7.99073 13.3652 2.32999e-12
13.3652 44.4053 8.44362e-13
2.32999e-12 8.44362e-13 -3.9443

3.73465 -29.7133 -1.59398e-12
-29.7133 -17.3648 -1.35388e-12
-1.59398e-12 -1.35388e-12 -8.92055

21.4259 -29.9475 -1.73905e-12
-29.9475 14.756 7.01187e-12
-1.73905e-12 7.01187e-12 -3.91787

6.88087 31.6229 -7.00891e-12
31.6229 25.4016 -4.92643e-13
-7.00891e-12 -4.92643e-13 -6.82815

2.78549 -15.0201 -4.92228e-12
-15.0201 -39.2669 -3.58395e-12
-4.92228e-12 -3.58395e-12 -63.3108

-46.1596 2.04135 -8.40513e-13
2.04135 11.4614 -2.48868e-12
-8.40513e-13 -2.48868e-12 -22.7567

-55.4446 20.3 -1.48045e-12
20.3 3.09567 9.43838e-13
-1.48045e-12 9.43838e-13 -22.9159

5.9167 15.4389 1.30163e-12
15.4389 -58.8184 -8.47026e-13
1.30163e-12 -8.47026e-13 -23.0359

-18.9215 -26.1887 -5.7554e-13
-26.1887 -12.9134 3.90206e-13
-5.7554e-13 3.90206e-13 -9.65264

41.346 17.9573 6.96213e-12
17.9573 -6.27108 -2.55647e-12
6.96213e-12 -2.55647e-12 -3.86141

-44.6826 -5.29398 1.09542e-12
-5.29398 4.53834 -2.62309e-12
1.09542e-12 -2.62309e-12 -39.1447

7.49929 -18.9881 -1.0217e-12
-18.9881 -39.8944 1.0966e-12
-1.0217e-12 1.0966e-12 -11.6599

30.291 -15.5989 -2.10794e-13
-15.5989 -20.5086 1.75282e-12
-2.10794e-13 1.75282e-12 -4.80501

-9.63846 11.6032 7.46958e-13
11.6032 44.3192 -6.01474e-12
7.46958e-13 -6.01474e-12 -3.85906

8.33389 -25.7342 -4.80741e-12
-25.7342 32.9918 1.73136e-12
-4.80741e-12 1.73136e-12 -3.63301

-10.2446 -25.2738 4.85626e-12
-25.2738 -19.1004 -1.82417e-12
4.85626e-12 -1.82417e-12 -23.1747

17.005 31.9595 4.62267e-12
31.9595 11.1972 -2.14465e-12
4.62267e-12 -2.14465e-12 -5.74632

-1.06925 -25.1347 1.06877e-12
-25.1347 -30.7628 -3.75107e-13
1.06877e-12 -3.75107e-13 -20.8915

48.065 2.59737 -7.61465e-13
2.59737 -8.40977 2.45359e-13
-7.61465e-13 2.45359e-13 -3.53158

6.55255 -28.9305 -2.04518e-12
-28.9305 72.0504 3.54087e-12
-2.04518e-12 3.54087e-12 -14.5514

21.7915 -29.231 -6.87272e-12
-29.231 13.9635 -9.11271e-13
-6.87272e-12 -9.11271e-13 -3.93025

35.3512 32.1589 -4.0572e-12
32.1589 74.1343 -7.96282e-12
-4.0572e-12 -7.96282e-12 -5.44164

-45.2833 -11.8769 -5.72931e-13
-11.8769 13.9221 -3.07843e-12
-5.72931e-13 -3.07843e-12 -15.3263

-14.4205 -13.8214 -2.44841e-12
-13.8214 43.3822 2.45019e-12
-2.44841e-12 2.45019e-12 -5.67263

-19.2432 -23.9879 1.55328e-12
-23.9879 -19.8304 2.44693e-13
1.55328e-12 2.44693e-13 -64.2526

2.43822 23.7708 -1.47023e-12
23.7708 36.0067 -3.25192e-12
-1.47023e-12 -3.25192e-12 -3.71102

-15.1824 -32.7263 3.25399e-12
-32.7263 -21.119 1.08002e-12
3.25399e-12 1.08002e-12 -14.3129

-14.5652 -11.9631 1.56623e-12
-11.9631 45.5305 8.33703e-13
1.56623e-12 8.33703e-13 -5.73882

7.83558 -19.1169 -2.68704e-12
-19.1169 -43.1219 1.28875e-12
-2.68704e-12 1.28875e-12 -12.632

6.54563 23.8771 -1.73017e-12
23.8771 35.1713 -3.54561e-12
-1.73017e-12 -3.54561e-12 -3.44199

23.1734 -4.97549 -1.69228e-12
-4.97549 -30.6762 -2.68863e-12
-1.69228e-12 -2.68863e-12 -5.36422

36.9702 -30.3427 -7.35412e-13
-30.3427 122.627 -1.99426e-12
-7.35412e-13 -1.99426e-12 -6.24175

-26.8692 21.0141 1.99633e-12
21.0141 8.43425 -4.15371e-12
1.99633e-12 -4.15371e-12 -7.12988

40.3383 -19.3233 4.03825e-13
-19.3233 -11.3724 1.77843e-12
4.03825e-13 1.77843e-12 -5.72585

6.52839 -21.4458 2.27078e-13
-21.4458 -45.5581 -4.97676e-12
2.27078e-13 -4.97676e-12 -24.9717

20.7051 31.754 -1.78109e-12
31.754 9.55747 -2.73559e-13
-1.78109e-12 -2.73559e-13 -5.80588

13.9188 -29.9717 2.72612e-12
-29.9717 -7.60568 -4.30767e-13
2.72612e-12 -4.30767e-13 -5.94413

6.75489 20.8853 -4.39115e-12
20.8853 -27.7921 3.69186e-13
-4.39115e-12 3.69186e-13 -11.1087

-38.2741 -28.0759 4.17311e-12
-28.0759 -14.0378 1.59036e-12
4.17311e-12 1.59036e-12 -11.0609

8.64633 -26.2252 -2.63493e-13
-26.2252 31.1708 -6.04198e-12
-2.63493e-13 -6.04198e-12 -3.63504

15.3314 28.9811 1.99189e-12
28.9811 19.1538 1.54069e-12
1.99189e-12 1.54069e-12 -3.88281

28.6403 26.1913 1.61056e-12
26.1913 -5.63323 2.11327e-12
1.61056e-12 2.11327e-12 -4.80182

7.91472 -14.61 -1.02673e-12
-14.61 -36.8776 1.85096e-12
-1.02673e-12 1.85096e-12 -13.9912

-6.84137 -16.6176 -7.76268e-13
-16.6176 41.3408 1.20792e-12
-7.76268e-13 1.20792e-12 -3.95925

17.4407 -17.5683 9.06534e-13
-17.5683 -30.9991 -1.22199e-12
9.06534e-13 -1.22199e-12 -7.10505

19.8419 16.9085 7.33635e-13
16.9085 -31.6643 -1.16736e-12
7.33635e-13 -1.16736e-12 -7.33431

-33.6796 -9.38671 7.14984e-14
-9.38671 8.75604 -1.00601e-12
7.14984e-14 -1.00601e-12 -23.9926

43.4314 -13.43 1.79412e-12
-13.43 -8.36873 -5.18504e-12
1.79412e-12 -5.18504e-12 -3.80399

-19.3784 0.594038 -1.4951e-12
0.594038 43.1452 -1.81307e-12
-1.4951e-12 -1.81307e-12 -4.77527

28.0559 18.555 -2.94579e-12
18.555 -18.1989 1.51138e-12
-2.94579e-12 1.51138e-12 -4.74951

25.5283 27.6039 -4.37931e-12
27.6039 -3.77553 8.58276e-13
-4.37931e-12 8.58276e-13 -4.77096

-6.71517 -15.6861 2.3744e-13
-15.6861 43.7984 1.60938e-12
2.3744e-13 1.60938e-12 -3.84779

-19.9064 -1.20229 5.95294e-12
-1.20229 42.1278 -1.99426e-12
5.95294e-12 -1.99426e-12 -4.68683

-5.47321 29.1343 3.59239e-12
29.1343 -23.6466 -1.88353e-12
3.59239e-12 -1.88353e-12 -16.7968

-37.2737 -10.9221 2.28765e-12
-10.9221 21.6799 4.32957e-12
2.28765e-12 4.32957e-12 -7.82982

27.1433 -26.7153 -1.19016e-12
-26.7153 -5.53064 9.31403e-13
-1.19016e-12 9.31403e-13 -4.94401

40.719 21.3326 1.70057e-12
21.3326 -8.37003 -5.38355e-12
1.70057e-12 -5.38355e-12 -5.46736

12.378 23.6653 -9.5568e-13
23.6653 -27.127 -1.46757e-12
-9.5568e-13 -1.46757e-12 -8.66679

-37.7964 5.47081 6.80271e-13
5.47081 23.3113 4.71919e-13
6.80271e-13 4.71919e-13 -8.59723

18.593 29.0655 -2.11801e-12
29.0655 17.3778 -1.72958e-12
-2.11801e-12 -1.72958e-12 -3.9469

-9.989 22.9638 1.44566e-12
22.9638 -14.913 1.84549e-12
1.44566e-12 1.84549e-12 -24.0259

68.3166 -59.6917 -3.57166e-12
-59.6917 36.3352 5.37762e-12
-3.57166e-12 5.37762e-12 -23.0106

17.5309 -25.0478 -2.49874e-13
-25.0478 -17.9919 -1.89922e-12
-2.49874e-13 -1.89922e-12 -6.41747

10.0584 7.06991 -2.68378e-12
7.06991 82.5505 2.02031e-12
-2.68378e-12 2.02031e-12 -7.16516

11.9203 -28.8893 9.77588e-13
-28.8893 -3.88145 -5.35453e-12
9.77588e-13 -5.35453e-12 -5.16559

-66.9447 -52.7013 2.4869e-14
-52.7013 143.251 -6.57489e-12
2.4869e-14 -6.57489e-12 -49.669

-68.388 51.4519 -3.55982e-12
51.4519 142.538 -8.25651e-12
-3.55982e-12 -8.25651e-12 -49.8581

19.5699 117.155 -4.77485e-12
117.155 64.1295 -1.81425e-12
-4.77485e-12 -1.81425e-12 -48.3596

20.5288 -117.098 4.61142e-12
-117.098 61.0263 -2.34005e-12
4.61142e-12 -2.34005e-12 -48.7243

157.744 -1.36337 1.93268e-12
-1.36337 -79.187 1.70223e-14
1.93268e-12 1.70223e-14 -48.9112

110.326 -91.126 1.81899e-12
-91.126 -36.6897 4.45273e-13
1.81899e-12 4.45273e-13 -50.3058

110.379 91.6539 -4.04062e-12
91.6539 -36.5 -1.79294e-12
-4.04062e-12 -1.79294e-12 -50.1786

7.84695 14.3304 -3.29514e-13
14.3304 -42.6815 1.81751e-12
-3.29514e-13 1.81751e-12 -15.079

-11.7909 25.5365 -7.64426e-13
25.5365 -27.4047 -3.45057e-12
-7.64426e-13 -3.45057e-12 -35.1377

12.4381 6.60606 -4.12766e-12
6.60606 -40.5337 5.35705e-12
-4.12766e-12 5.35705e-12 -8.25231

26.2547 21.7846 2.3892e-12
21.7846 -19.5285 -1.85333e-13
2.3892e-12 -1.85333e-13 -5.85068

-21.23 17.7445 -2.44249e-13
17.7445 29.8684 1.83616e-12
-2.44249e-13 1.83616e-12 -6.16217

22.5303 28.8986 -5.47828e-12
28.8986 -0.775389 -2.77881e-12
-5.47828e-12 -2.77881e-12 -4.7306

4.05549 -29.6635 1.63839e-12
-29.6635 -17.4662 -1.13124e-12
1.63839e-12 -1.13124e-12 -8.50426

25.9952 28.0279 2.42413e-12
28.0279 -2.30159 -1.94985e-12
2.42413e-12 -1.94985e-12 -4.731

-19.347 -2.84127 3.34784e-12
-2.84127 43.0713 -2.97954e-12
3.34784e-12 -2.97954e-12 -4.76981

-13.4115 -26.0973 -2.40163e-12
-26.0973 -25.8384 2.42917e-12
-2.40163e-12 2.42917e-12 -35.5208

-19.8421 -4.86242 -1.96968e-12
-4.86242 41.7763 -1.19845e-12
-1.96968e-12 -1.19845e-12 -4.74368

-1.82692 23.0163 4.89505e-12
23.0163 -24.3771 3.04201e-13
4.89505e-12 3.04201e-13 -16.1498

44.9825 26.8708 -1.86991e-12
26.8708 8.11143 -3.58765e-12
-1.86991e-12 -3.58765e-12 -5.36897

-52.5086 -13.2161 5.61714e-12
-13.2161 0.150369 1.86399e-12
5.61714e-12 1.86399e-12 -20.6172

20.2805 13.728 -5.38828e-14
13.728 -31.1415 3.87838e-14
-5.38828e-14 3.87838e-14 -7.04283

13.7007 -29.9877 3.80259e-12
-29.9877 -6.69141 -9.56272e-13
3.80259e-12 -9.56272e-13 -5.83506

29.6308 -24.7135 5.28762e-12
-24.7135 -7.87368 -1.37372e-12
5.28762e-12 -1.37372e-12 -4.82497

5.76473 -16.0748 1.26358e-12
-16.0748 -32.3342 -3.51215e-12
1.26358e-12 -3.51215e-12 -22.2554

12.6277 27.929 5.9804e-13
27.929 -13.6387 2.18551e-12
5.9804e-13 2.18551e-12 -6.41945

23.309 23.9775 3.70074e-13
23.9775 -17.9432 1.00838e-12
3.70074e-13 1.00838e-12 -5.9622

-31.0769 -2.79293 -6.0274e-13
-2.79293 30.1317 1.73491e-12
-6.0274e-13 1.73491e-12 -6.39832

-28.6293 5.87336 3.32378e-12
5.87336 33.3214 1.26713e-13
3.32378e-12 1.26713e-13 -6.05916

34.5486 2.64672 6.27646e-13
2.64672 -26.1834 2.75557e-12
6.27646e-13 2.75557e-12 -6.14192

50.6514 -7.28968 5.98988e-12
-7.28968 -14.0818 -2.71427e-12
5.98988e-12 -2.71427e-12 -6.77853

11.0411 30.4848 2.03926e-12
30.4848 -4.78757 2.70539e-12
2.03926e-12 2.70539e-12 -5.96601

17.4675 -26.1555 -3.25192e-12
-26.1555 -17.4549 -1.55046e-12
-3.25192e-12 -1.55046e-12 -6.35158

-0.084386 -21.2544 2.58697e-12
-21.2544 -27.9559 1.28786e-13
2.58697e-12 1.28786e-13 -17.1664

4.93901 -31.6338 1.12029e-12
-31.6338 4.86144 -4.65702e-12
1.12029e-12 -4.65702e-12 -5.93486

-8.22713 -27.7857 -4.18747e-12
-27.7857 18.5788 -7.22681e-12
-4.18747e-12 -7.22681e-12 -6.12948

-1.65026 29.8873 1.13687e-13
29.8873 10.4474 -1.27483e-12
1.13687e-13 -1.27483e-12 -5.79991

-26.0165 -9.57795 -6.34715e-13
-9.57795 32.9698 -1.66918e-12
-6.34715e-13 -1.66918e-12 -5.78683

-31.3228 -1.54483 2.44264e-12
-1.54483 31.6508 2.8102e-12
2.44264e-12 2.8102e-12 -6.22315

-38.9154 5.74792 -1.41618e-12
5.74792 23.9465 -7.75676e-14
-1.41618e-12 -7.75676e-14 -9.18265

-17.218 -21.0892 -2.49223e-12
-21.0892 26.571 3.41297e-12
-2.49223e-12 3.41297e-12 -5.77156

13.0718 24.1113 -1.61589e-12
24.1113 -28.1011 -1.82965e-13
-1.61589e-12 -1.82965e-13 -9.20452

21.555 -9.58979 -1.92675e-12
-9.58979 -31.7064 1.43796e-12
-1.92675e-12 1.43796e-12 -6.59767

-27.1534 7.46529 4.12043e-12
7.46529 34.3347 1.62773e-12
4.12043e-12 1.62773e-12 -5.87356

-35.2356 -9.70111 2.83562e-12
-9.70111 22.3136 4.0945e-12
2.83562e-12 4.0945e-12 -8.1831

-29.1556 -16.3307 -1.1912e-12
-16.3307 19.3468 -3.72206e-12
-1.1912e-12 -3.72206e-12 -6.66133

36.9679 -8.23924 2.36374e-12
-8.23924 -20.2367 -5.73586e-12
2.36374e-12 -5.73586e-12 -5.10108

-14.8097 -32.3468 -1.48977e-12
-32.3468 -21.6274 7.5732e-13
-1.48977e-12 7.5732e-13 -12.9927

-22.824 9.32094 4.59632e-12
9.32094 33.3234 1.51819e-12
4.59632e-12 1.51819e-12 -4.7884

-0.751052 -18.2127 -8.81813e-12
-18.2127 -35.1575 -7.54212e-13
-8.81813e-12 -7.54212e-13 -33.2774

4.93214 24.8229 2.55322e-12
24.8229 75.307 -6.9799e-12
2.55322e-12 -6.9799e-12 -14.3189

-14.1418 -26.6262 -2.7575e-12
-26.6262 -16.3501 3.35539e-12
-2.7575e-12 3.35539e-12 -14.6405

-6.35705 -30.2028 4.09154e-13
-30.2028 -23.6023 -2.72227e-12
4.09154e-13 -2.72227e-12 -17.0876

-31.2706 -0.701258 2.84484e-12
-0.701258 31.5005 5.42381e-13
2.84484e-12 5.42381e-13 -6.34802

28.4877 -16.6226 -8.8581e-13
-16.6226 -18.0569 9.10679e-13
-8.8581e-13 9.10679e-13 -4.43761

-37.8049 12.8417 2.91532e-12
12.8417 11.1651 4.45273e-13
2.91532e-12 4.45273e-13 -10.9887

-8.86116 -3.18059 -6.79197e-12
-3.18059 111.052 1.77399e-12
-6.79197e-12 1.77399e-12 -22.6715

-31.6025 14.2737 2.39364e-13
14.2737 21.3504 -6.83483e-12
2.39364e-13 -6.83483e-12 -7.12404

12.4219 -29.4894 -1.52293e-12
-29.4894 -2.51952 2.68052e-12
-1.52293e-12 2.68052e-12 -4.92782

33.6321 25.1058 4.83998e-12
25.1058 124.03 -1.61767e-12
4.83998e-12 -1.61767e-12 -6.2141

-13.5025 26.0977 -3.0657e-13
26.0977 -19.0973 1.59132e-12
-3.0657e-13 1.59132e-12 -58.8947

-9.55268 -27.807 -3.03254e-12
-27.807 -22.8067 5.47355e-12
-3.03254e-12 5.47355e-12 -59.5451

-2.86582 -30.4192 -3.1702e-12
-30.4192 -7.32123 -5.10999e-13
-3.1702e-12 -5.10999e-13 -7.28698

3.86027 -31.1604 5.36697e-12
-31.1604 5.63565 5.38828e-14
5.36697e-12 5.38828e-14 -6.06209

25.1521 20.8276 -1.7207e-12
20.8276 -17.0343 -1.71655e-12
-1.7207e-12 -1.71655e-12 -4.9765

31.8052 15.0062 1.66918e-12
15.0062 -23.301 -1.64283e-12
1.66918e-12 -1.64283e-12 -5.95438

-9.48857 3.08335 -8.7456e-13
3.08335 -9.83044 1.30365e-11
-8.7456e-13 1.30365e-11 -80.9367

-5.54889 -6.99984 8.72561e-13
-6.99984 -14.0415 1.42375e-12
8.72561e-13 1.42375e-12 -80.2894

11.7486 4.82429 -4.6884e-12
4.82429 -43.2055 4.89268e-12
-4.6884e-12 4.89268e-12 -7.82722

-35.0567 6.73106 -5.01658e-12
6.73106 24.3754 -9.166e-13
-5.01658e-12 -9.166e-13 -7.56369

-36.1105 6.73633 -1.56017e-12
6.73633 24.4326 1.89241e-12
-1.56017e-12 1.89241e-12 -8.30867

74.5871 58.6347 -6.26699e-12
58.6347 34.1731 -9.37916e-13
-6.26699e-12 -9.37916e-13 -21.8729

-6.91989 -28.2 -2.38565e-12
-28.2 16.8753 -1.00009e-12
-2.38565e-12 -1.00009e-12 -6.11638

8.17201 17.9745 5.10407e-13
17.9745 -44.8758 -1.62507e-12
5.10407e-13 -1.62507e-12 -12.8965

32.7032 9.5398 -1.80596e-12
9.5398 -19.0802 -7.90479e-13
-1.80596e-12 -7.90479e-13 -4.07409

3.38782 -26.7235 2.11209e-12
-26.7235 13.4841 -3.56515e-12
2.11209e-12 -3.56515e-12 -3.82673

26.2376 -20.2378 1.05634e-12
-20.2378 -20.3231 -7.48142e-13
1.05634e-12 -7.48142e-13 -5.86293

65.391 60.2326 1.66267e-12
60.2326 34.2898 -5.92119e-15
1.66267e-12 -5.92119e-15 -23.8677

-13.2425 31.0692 -2.02209e-12
31.0692 -16.8814 -9.85286e-13
-2.02209e-12 -9.85286e-13 -12.7857

-18.6043 -19.7863 -2.38772e-12
-19.7863 28.4149 3.13941e-12
-2.38772e-12 3.13941e-12 -5.96922

11.1744 28.8579 1.78761e-12
28.8579 -13.3231 -2.03926e-12
1.78761e-12 -2.03926e-12 -6.43588

-31.8692 -4.14488 -1.34026e-12
-4.14488 30.148 -1.14753e-12
-1.34026e-12 -1.14753e-12 -6.35759

-14.5964 19.6094 -5.81076e-12
19.6094 27.1854 2.47565e-12
-5.81076e-12 2.47565e-12 -4.41844

7.4793 30.519 -5.39835e-12
30.519 -1.67033 -1.9309e-12
-5.39835e-12 -1.9309e-12 -5.66021

-9.34488 -22.4734 -1.06226e-12
-22.4734 23.1493 1.64254e-12
-1.06226e-12 1.64254e-12 -4.17519

4.59058 -27.3528 2.11742e-12
-27.3528 11.4491 -1.01015e-12
2.11742e-12 -1.01015e-12 -3.93824

24.272 11.2571 2.67505e-12
11.2571 102.08 1.07221e-11
2.67505e-12 1.07221e-11 -12.4049

37.4668 -33.4565 1.95755e-12
-33.4565 69.286 4.40773e-12
1.95755e-12 4.40773e-12 -5.70303

-25.3353 -11.6906 -1.4541e-12
-11.6906 31.3683 -1.25529e-12
-1.4541e-12 -1.25529e-12 -5.64812

16.0966 26.4847 -1.36306e-12
26.4847 -15.502 -3.28922e-12
-1.36306e-12 -3.28922e-12 -6.21718

4.95582 29.4781 -3.49291e-12
29.4781 1.63697 -9.78773e-13
-3.49291e-12 -9.78773e-13 -4.9897

-9.85465 -21.4341 2.56684e-12
-21.4341 25.121 -2.0132e-13
2.56684e-12 -2.0132e-13 -4.03298

-21.6347 -11.7825 -1.02733e-12
-11.7825 32.0823 -9.66338e-13
-1.02733e-12 -9.66338e-13 -4.63695

10.463 28.4097 8.42585e-13
28.4097 -0.156399 2.825e-12
8.42585e-13 2.825e-12 -4.67263

-21.8468 -13.8779 -1.42109e-13
-13.8779 29.4675 1.5703e-12
-1.42109e-13 1.5703e-12 -4.84689

6.95863 27.8552 -6.942e-12
27.8552 73.0854 -9.30811e-13
-6.942e-12 -9.30811e-13 -14.322

-45.8317 -4.0412 -5.87555e-13
-4.0412 14.0479 3.78542e-12
-5.87555e-13 3.78542e-12 -19.9648

0.877156 31.0278 8.05874e-13
31.0278 7.5204 2.52065e-12
8.05874e-13 2.52065e-12 -6.08883

9.71922 14.9013 4.70616e-12
14.9013 -36.4292 -2.20949e-12
4.70616e-12 -2.20949e-12 -10.9852

9.92868 -15.9276 -1.68221e-12
-15.9276 -39.4105 2.45729e-13
-1.68221e-12 2.45729e-13 -13.069

85.6139 -24.2047 1.7432e-12
-24.2047 7.63585 1.30148e-12
1.7432e-12 1.30148e-12 -12.9579

-23.207 -21.2674 -2.68644e-12
-21.2674 10.5139 5.88566e-13
-2.68644e-12 5.88566e-13 -6.16505

-16.6009 26.6985 -5.12686e-12
26.6985 1.77858 2.77941e-12
-5.12686e-12 2.77941e-12 -6.58751

-26.2012 -21.7278 -7.00891e-12
-21.7278 -5.36516 -2.74854e-12
-7.00891e-12 -2.74854e-12 -23.867

-41.5965 14.1064 -5.49042e-13
14.1064 -3.56003 1.87998e-12
-5.49042e-13 1.87998e-12 -64.127

-0.893465 9.44533 2.07686e-13
9.44533 -44.259 -6.75312e-13
2.07686e-13 -6.75312e-13 -64.2284

-20.3841 32.7054 1.24996e-12
32.7054 -23.2025 -1.68635e-12
1.24996e-12 -1.68635e-12 -24.3294

-11.4106 26.0006 -3.98674e-12
26.0006 22.6042 -2.38032e-12
-3.98674e-12 -2.38032e-12 -5.92546

16.0388 26.6616 1.96465e-12
26.6616 -17.2872 -9.82917e-14
1.96465e-12 -9.82917e-14 -6.54966

30.4285 45.1864 9.11863e-14
45.1864 47.5551 3.64864e-12
9.11863e-14 3.64864e-12 -15.195

-44.8883 -11.3435 -1.54395e-12
-11.3435 -1.80802 -3.09737e-12
-1.54395e-12 -3.09737e-12 -61.6831

-8.29816 -3.43282 3.27124e-12
-3.43282 -12.7548 -7.78059e-12
3.27124e-12 -7.78059e-12 -77.2269

-14.6911 -0.209935 -5.12331e-13
-0.209935 -6.41856 1.02552e-11
-5.12331e-13 1.02552e-11 -77.3711

27.6653 -53.8029 3.65574e-12
-53.8029 71.1494 9.18969e-13
3.65574e-12 9.18969e-13 -24.3895

-11.691 -11.5999 -5.06276e-12
-11.5999 -16.2046 1.53359e-12
-5.06276e-12 1.53359e-12 -37.4307

-32.6103 8.81288 7.81597e-14
8.81288 -9.41924 -1.48799e-12
7.81597e-14 -1.48799e-12 -49.5409

18.2562 -26.1997 -1.32457e-12
-26.1997 -19.5464 6.91595e-13
-1.32457e-12 6.91595e-13 -6.50642

-39.4301 1.01098 5.04559e-13
1.01098 11.9802 2.81434e-12
5.04559e-13 2.81434e-12 -19.7218

-30.2025 -20.268 -4.26577e-12
-20.268 6.30511 -2.77467e-12
-4.26577e-12 -2.77467e-12 -7.21593

10.5365 6.25535 -3.58587e-12
6.25535 -52.3899 6.62507e-12
-3.58587e-12 6.62507e-12 -9.63958

-49.8127 15.5963 -8.27574e-13
15.5963 10.1653 -7.24458e-13
-8.27574e-13 -7.24458e-13 -13.531

-40.2837 7.19156 -4.41906e-13
7.19156 16.5414 -2.01439e-12
-4.41906e-13 -2.01439e-12 -13.7741

16.4049 20.3929 9.97128e-13
20.3929 -25.8409 -1.62537e-12
9.97128e-13 -1.62537e-12 -7.60752

-9.10019 -3.1139 4.43312e-12
-3.1139 108.395 -3.78956e-13
4.43312e-12 -3.78956e-13 -23.1019

-3.32014 -27.6239 9.8351e-13
-27.6239 -3.62944 2.61124e-13
9.8351e-13 2.61124e-13 -5.82985

-7.335 -26.1165 1.58451e-12
-26.1165 -14.0819 5.53631e-14
1.58451e-12 5.53631e-14 -9.8106

-14.1983 -31.4837 1.19845e-12
-31.4837 -21.7779 1.619e-12
1.19845e-12 1.619e-12 -12.7556

90.7283 32.7498 -1.49214e-13
32.7498 20.9065 -9.0831e-13
-1.49214e-13 -9.0831e-13 -16.5059

-23.1172 -20.1164 -8.41756e-12
-20.1164 -17.3851 -1.68732e-12
-8.41756e-12 -1.68732e-12 -44.4272

72.6308 54.3226 -9.30574e-12
54.3226 91.6411 -1.83083e-12
-9.30574e-12 -1.83083e-12 -6.14227

-36.2151 -21.4395 2.86141e-13
-21.4395 -6.79682 -2.59052e-12
2.86141e-13 -2.59052e-12 -13.0429

15.034 14.6504 -6.43219e-12
14.6504 -37.7517 -3.39136e-13
-6.43219e-12 -3.39136e-13 -8.17865

44.5728 -14.5726 2.20742e-12
-14.5726 -8.27195 -9.37472e-13
2.20742e-12 -9.37472e-13 -4.41839

-21.2307 24.0468 1.58747e-12
24.0468 4.95556 -4.70616e-12
1.58747e-12 -4.70616e-12 -5.97623

17.3732 20.4281 4.19102e-12
20.4281 -26.7924 -4.1475e-12
4.19102e-12 -4.1475e-12 -6.95133

-51.1399 11.4004 9.65894e-13
11.4004 7.71042 -2.38535e-12
9.65894e-13 -2.38535e-12 -29.9939

-7.28703 -31.5803 -1.65793e-13
-31.5803 -12.8267 9.05054e-13
-1.65793e-13 9.05054e-13 -8.11894

2.7966 19.8124 -1.59339e-12
19.8124 -46.0332 9.00317e-13
-1.59339e-12 9.00317e-13 -29.9858

-24.671 -18.4436 -3.76913e-12
-18.4436 17.8362 -1.37372e-13
-3.76913e-12 -1.37372e-13 -5.47993

-42.3405 4.28324 -6.65768e-13
4.28324 17.8694 1.59872e-13
-6.65768e-13 1.59872e-13 -12.728

-4.09805 9.92684 5.26986e-14
9.92684 -40.2756 -2.60651e-12
5.26986e-14 -2.60651e-12 -47.5484

-2.68829 -8.51347 -2.22518e-12
-8.51347 -38.3069 3.40868e-12
-2.22518e-12 3.40868e-12 -47.4041

81.723 18.5125 -1.80241e-12
18.5125 1.70011 2.19854e-12
-1.80241e-12 2.19854e-12 -14.4531

3.89496 7.96507 3.10862e-13
7.96507 -45.1832 1.69213e-12
3.10862e-13 1.69213e-12 -11.0181

35.8719 7.74054 7.11357e-12
7.74054 184.573 -8.47914e-13
7.11357e-12 -8.47914e-13 -9.75721

40.1454 -11.3852 -6.16899e-12
-11.3852 190.371 -4.40536e-13
-6.16899e-12 -4.40536e-13 -7.38902

53.7649 56.407 8.88178e-13
56.407 159.255 3.21165e-12
8.88178e-13 3.21165e-12 -11.4999

1.70889 -28.9506 -2.36552e-12
-28.9506 -24.6908 1.47586e-12
-2.36552e-12 1.47586e-12 -11.9627

16.049 -49.1906 -2.6444e-12
-49.1906 99.419 -2.63138e-12
-2.6444e-12 -2.63138e-12 -21.6892

54.5127 -55.9495 -3.31587e-14
-55.9495 149.972 3.62377e-12
-3.31587e-14 3.62377e-12 -13.6648

-2.16567 26.2202 2.02149e-12
26.2202 17.5727 -7.61761e-12
2.02149e-12 -7.61761e-12 -3.99574

134.939 73.8438 -1.80478e-12
73.8438 85.0247 1.7503e-12
-1.80478e-12 1.7503e-12 -10.159

-18.7199 13.0472 8.47914e-13
13.0472 -3.9001 3.20899e-12
8.47914e-13 3.20899e-12 -26.7694

3.74108 0.0395797 5.10229e-12
0.0395797 -26.189 -3.40409e-12
5.10229e-12 -3.40409e-12 -26.7726

144.097 -73.1293 4.99748e-12
-73.1293 85.3521 -9.11863e-13
4.99748e-12 -9.11863e-13 -8.19625

-21.3929 -23.424 2.11386e-12
-23.424 12.2481 -1.79234e-12
2.11386e-12 -1.79234e-12 -6.49095

89.3462 34.7292 9.18969e-13
34.7292 41.3899 -8.62125e-13
9.18969e-13 -8.62125e-13 -11.548

72.1869 63.4908 3.20455e-12
63.4908 149.693 -1.72425e-12
3.20455e-12 -1.72425e-12 -9.6736

26.1645 21.6302 -7.74492e-13
21.6302 100.133 1.09803e-11
-7.74492e-13 1.09803e-11 -13.0315

73.8737 -65.9197 -2.63848e-12
-65.9197 151.143 -4.47168e-12
-2.63848e-12 -4.47168e-12 -9.40214

25.7689 -12.3811 5.30716e-12
-12.3811 105.012 7.65255e-12
5.30716e-12 7.65255e-12 -12.4285

-28.6639 6.84156 -1.07965e-12
6.84156 3.10687 -4.97261e-12
-1.07965e-12 -4.97261e-12 -37.8533

37.7428 -45.9748 -2.55677e-12
-45.9748 49.6692 -5.33854e-12
-2.55677e-12 -5.33854e-12 -15.5324

14.4437 47.5319 3.70311e-12
47.5319 94.8794 1.58214e-12
3.70311e-12 1.58214e-12 -22.1924

173.338 37.9114 -2.7048e-12
37.9114 48.0414 -6.2658e-12
-2.7048e-12 -6.2658e-12 -9.52224

7.02079 -29.2858 -3.75759e-12
-29.2858 -14.3584 1.85925e-12
-3.75759e-12 1.85925e-12 -7.1559

-38.4175 12.8967 2.24783e-13
12.8967 6.43534 5.0715e-13
2.24783e-13 5.0715e-13 -15.2904

88.5045 -38.1124 -4.41484e-12
-38.1124 34.1628 1.68162e-13
-4.41484e-12 1.68162e-13 -14.0997

6.0418 -28.8022 -3.14593e-12
-28.8022 -16.1718 9.76108e-13
-3.14593e-12 9.76108e-13 -8.02975

169.205 -36.3432 7.29964e-12
-36.3432 34.9288 -7.03378e-12
7.29964e-12 -7.03378e-12 -13.2901

-5.7251 -28.3175 1.81958e-12
-28.3175 -14.4728 3.7866e-13
1.81958e-12 3.7866e-13 -9.3093

-17.7905 -25.2949 1.3222e-12
-25.2949 12.0803 -3.75285e-12
1.3222e-12 -3.75285e-12 -5.9341

118.875 69.4603 2.74743e-12
69.4603 96.2185 3.6285e-12
2.74743e-12 3.6285e-12 -11.4002

29.4128 -22.9328 4.87432e-12
-22.9328 97.7959 2.77585e-12
4.87432e-12 2.77585e-12 -14.3401

117.958 -71.6923 8.66862e-13
-71.6923 93.68 1.81425e-12
8.66862e-13 1.81425e-12 -12.4162

22.2646 50.7373 -1.80715e-12
50.7373 73.7781 7.24754e-12
-1.80715e-12 7.24754e-12 -24.7775

-1.53627 -30.2122 3.3887e-12
-30.2122 -6.55249 3.90295e-12
3.3887e-12 3.90295e-12 -6.99773

-7.04497 -14.6404 -3.88134e-13
-14.6404 -21.9195 5.29295e-12
-3.88134e-13 5.29295e-12 -32.6141

-11.892 11.0924 -6.8164e-12
11.0924 -16.4304 4.72689e-12
-6.8164e-12 4.72689e-12 -77.7933

-26.1685 -5.16003 9.87358e-14
-5.16003 -6.38734 -6.82608e-12
9.87358e-14 -6.82608e-12 -77.6271

-38.9412 13.0836 -1.88455e-12
13.0836 13.7444 1.73372e-12
-1.88455e-12 1.73372e-12 -10.2387

-14.4804 -10.6668 -1.05216e-11
-10.6668 -17.3179 7.58445e-12
-1.05216e-11 7.58445e-12 -78.7561

-25.9023 4.09179 1.00295e-11
4.09179 -5.91384 5.24025e-13
1.00295e-11 5.24025e-13 -78.8982

-3.63368 7.43383 -4.98135e-12
7.43383 -27.8602 -3.13557e-12
-4.98135e-12 -3.13557e-12 -77.9855

-43.9748 -12.1149 -7.27714e-12
-12.1149 2.91629 5.63579e-12
-7.27714e-12 5.63579e-12 -68.1572

11.9736 -30.4701 -4.46102e-12
-30.4701 76.1631 7.24043e-12
-4.46102e-12 7.24043e-12 -14.701

0.521753 -12.9721 4.67596e-12
-12.9721 -39.9904 9.94316e-12
4.67596e-12 9.94316e-12 -45.2766

-16.3488 -34.4176 -7.24931e-12
-34.4176 -22.0687 2.53915e-12
-7.24931e-12 2.53915e-12 -23.5899

-2.4207 -18.1769 2.77822e-12
-18.1769 -29.8951 3.98363e-12
2.77822e-12 3.98363e-12 -33.6263

12.7382 15.4593 -1.74261e-12
15.4593 -37.7163 -1.61974e-12
-1.74261e-12 -1.61974e-12 -9.62516

-46.9081 9.86407 -2.65939e-12
9.86407 8.8775 7.79377e-13
-2.65939e-12 7.79377e-13 -70.1529

3.46254 19.2274 -1.43396e-12
19.2274 -41.4716 -3.3152e-12
-1.43396e-12 -3.3152e-12 -70.2688

1.47219 11.3065 -3.18945e-12
11.3065 -23.965 -8.77224e-13
-3.18945e-12 -8.77224e-13 -31.8675

109.392 -15.3394 -9.90733e-12
-15.3394 -12.5355 -3.53732e-12
-9.90733e-12 -3.53732e-12 -25.0371

-14.3205 24.9642 8.23993e-12
24.9642 10.3862 5.11354e-12
8.23993e-12 5.11354e-12 -5.8046

76.6072 -61.3549 -2.71901e-12
-61.3549 37.3655 1.86399e-12
-2.71901e-12 1.86399e-12 -22.3952

76.1144 -57.4574 -8.90784e-12
-57.4574 99.2287 -5.44276e-12
-8.90784e-12 -5.44276e-12 -5.55516

118.197 -36.5442 -4.44326e-12
-36.5442 40.601 2.36848e-14
-4.44326e-12 2.36848e-14 -7.3784

-51.1138 -5.15893 3.42852e-12
-5.15893 3.34063 4.5007e-12
3.42852e-12 4.5007e-12 -60.6596

-50.4777 2.89125 -1.42109e-13
2.89125 3.13489 8.02765e-12
-1.42109e-13 8.02765e-12 -60.1322

-11.9755 -24.456 -4.04713e-13
-24.456 -35.003 -2.03252e-12
-4.04713e-13 -2.03252e-12 -59.1663

-8.99184 -21.7602 -6.72532e-12
-21.7602 -37.8878 1.25115e-12
-6.72532e-12 1.25115e-12 -59.4759

-14.7026 26.1357 4.04624e-12
26.1357 -33.0274 2.53271e-12
4.04624e-12 2.53271e-12 -60.7508

-18.1573 3.09925 -1.15297e-11
3.09925 -13.1644 -1.71936e-11
-1.15297e-11 -1.71936e-11 -75.4778

-9.94503 -20.5087 2.55677e-12
-20.5087 -32.6505 2.71413e-13
2.55677e-12 2.71413e-13 -56.7367

-26.648 -18.5681 -4.07778e-12
-18.5681 -14.1959 9.69251e-12
-4.07778e-12 9.69251e-12 -71.2717

-15.4787 2.43436 9.24801e-12
2.43436 -12.8525 2.48601e-12
9.24801e-12 2.48601e-12 -77.8723

-6.02749 -20.526 1.88242e-12
-20.526 -41.4868 -6.88042e-13
1.88242e-12 -6.88042e-13 -60.5069

-6.75676 20.9555 1.57185e-12
20.9555 -40.1431 1.20289e-12
1.57185e-12 1.20289e-12 -60.0181

-14.3159 -3.45837 -4.04536e-12
-3.45837 -11.3901 -1.87968e-12
-4.04536e-12 -1.87968e-12 -76.8867

-11.2639 -3.11698 7.90286e-12
-3.11698 -17.689 4.73695e-14
7.90286e-12 4.73695e-14 -74.0496

-24.2037 12.1097 8.05741e-12
12.1097 -13.4006 -8.40069e-13
8.05741e-12 -8.40069e-13 -69.9679

-22.0823 26.9294 2.41881e-13
26.9294 -26.2668 4.5472e-13
2.41881e-13 4.5472e-13 -57.5823

VECTORS fluid_flux_TPM float
-8.72127e-05 3.10259e-05 1.8497e-23
3.55925e-06 6.88198e-06 -2.42926e-21
-1.27863e-05 -1.02247e-05 1.00384e-20
-4.17024e-06 4.25367e-06 -2.49171e-21
2.27059e-05 -6.31278e-06 -2.24569e-20
2.75736e-06 -1.59023e-05 -9.12404e-21
-8.57887e-05 -3.10907e-05 3.27725e-22
-1.38912e-05 -1.04659e-05 1.8142e-20
2.212e-05 9.45445e-07 1.52946e-21
1.13831e-05 -3.90778e-06 -9.78948e-21
5.45967e-05 1.24831e-05 6.94095e-21
2.34668e-06 -1.71927e-05 -7.83862e-21
1.36104e-05 1.12529e-05 -6.63141e-21
2.66187e-06 1.37835e-05 1.44904e-20
2.05794e-05 -2.94641e-06 -3.09413e-20
-1.6331e-05 -2.72877e-07 4.52654e-21
2.75331e-06 1.40977e-05 -2.09785e-22
1.0181e-05 -2.3917e-06 -2.60267e-20
9.89784e-06 1.72214e-05 1.41296e-20
-1.48473e-05 1.88531e-06 2.30617e-21
-3.60089e-06 -2.13024e-05 9.21772e-21
3.41089e-05 5.9414e-05 -6.44979e-21
1.56963e-05 1.63118e-06 -3.94119e-22
1.12265e-05 -1.12806e-05 -7.64462e-21
-1.50772e-05 -3.33215e-06 1.83868e-21
-6.77172e-07 -1.113e-05 1.89223e-20
6.28998e-05 -4.90819e-06 1.81899e-20
1.4065e-05 1.02481e-05 1.17495e-20
-2.51481e-05 -2.06415e-05 1.42433e-20
4.91175e-05 -1.28132e-05 -1.33262e-20
-1.65813e-05 -6.03791e-06 3.74468e-21
5.53677e-06 -3.2035e-05 1.09585e-20
4.76521e-05 -4.8045e-05 6.6393e-22
-4.92312e-06 -4.12459e-05 3.03522e-20
-2.9672e-05 3.70036e-05 -9.10311e-21
-3.82457e-05 -1.63943e-05 -7.922e-21
3.27011e-05 4.32136e-05 1.4672e-20
-4.47387e-05 -8.72547e-06 -8.84757e-21
1.43737e-05 -1.10812e-05 -2.1847e-20
4.64679e-05 5.01129e-05 5.45453e-21
3.2128e-05 -1.40214e-05 8.21787e-21
3.36386e-05 -4.23416e-05 2.36996e-20
-1.98956e-05 -5.03762e-05 1.01869e-20
-1.58972e-05 6.35647e-06 -9.61942e-21
3.05241e-05 -2.93131e-05 -3.9854e-21
-3.03312e-05 1.09898e-05 -1.24998e-20
-4.05003e-06 -2.03698e-05 7.52765e-22
7.88579e-06 2.0211e-05 -2.99374e-21
-1.63418e-05 5.9276e-06 -7.24321e-21
-1.78192e-05 2.87247e-05 8.59047e-21
3.24074e-05 1.52903e-05 -5.40906e-21
2.93641e-05 -1.00748e-05 5.05363e-22
-1.56658e-05 1.57599e-05 -6.02417e-21
-2.35405e-05 -2.06896e-05 -5.95778e-21
-2.11392e-05 -5.13229e-06 -3.55371e-21
-4.47902e-05 2.70753e-05 -7.60025e-22
-2.93711e-05 -3.80221e-05 2.96762e-20
6.36327e-06 -3.06271e-05 1.24898e-20
-4.77066e-05 6.48272e-06 2.16817e-20
6.07397e-06 1.36967e-05 3.2278e-21
-5.57671e-06 -8.17331e-06 -1.33756e-20
-6.58344e-06 -1.79433e-05 -2.45348e-20
5.71432e-05 2.48593e-05 8.91667e-21
9.24273e-06 1.81441e-05 9.68004e-21
1.22964e-05 -1.44448e-05 3.81929e-21
-1.64057e-06 -2.07523e-05 1.05183e-20
4.62105e-06 -8.80546e-06 5.34815e-21
-1.00904e-05 -5.56485e-06 2.98919e-21
-1.06026e-05 1.19292e-05 6.30674e-21
2.55818e-06 -4.09257e-06 7.76132e-21
-1.50433e-05 -1.58431e-05 3.53123e-20
-2.13648e-05 5.1659e-06 1.982e-20
-3.5568e-06 3.44812e-05 2.64302e-20
-1.78718e-05 1.07108e-05 3.58492e-21
-9.07077e-06 1.46146e-05 1.00241e-20
-6.03547e-05 7.69211e-06 -1.50197e-20
7.81804e-06 -2.16815e-05 1.65364e-20
-1.88801e-05 -8.90006e-06 1.309e-20
1.93372e-06 1.1624e-05 -8.35823e-21
2.63009e-05 5.08964e-06 1.24322e-20
3.4169e-05 -2.89751e-05 -7.33082e-21
2.21464e-05 2.05562e-05 1.10394e-20
1.19084e-05 -2.82233e-06 -1.50251e-20
-3.21538e-05 2.40671e-05 -1.69223e-20
3.79044e-05 4.84586e-06 7.44208e-21
-4.98083e-06 4.94147e-05 1.33456e-20
-1.74111e-06 -1.68572e-05 1.0263e-20
1.81239e-05 9.95467e-06 7.10194e-21
2.93175e-05 3.02858e-05 1.76988e-21
5.50249e-05 3.80135e-05 2.14701e-20
-5.33135e-06 3.07729e-05 2.20146e-20
5.91799e-05 -3.55125e-05 7.60326e-22
-2.71249e-05 5.34119e-06 2.48776e-21
1.78393e-05 1.10019e-05 1.28296e-20
-2.96412e-05 9.90335e-06 -8.21271e-22
1.66531e-05 2.85213e-05 -6.71932e-21
1.01689e-05 -4.43868e-05 -7.6258e-21
1.91548e-06 1.16208e-05 -3.75226e-21
-1.48008e-05 -1.76202e-05 -1.17022e-21
3.06991e-06 1.74747e-05 -1.11025e-20
2.6407e-05 5.2575e-06 1.47205e-20
-1.54433e-05 3.32113e-05 1.47411e-20
4.05523e-05 -1.33332e-05 1.14927e-20
-3.77308e-06 7.45507e-06 -6.11695e-21
9.95288e-06 5.89933e-06 -6.85363e-21
-2.28059e-06 -1.13246e-05 3.54327e-20
3.22068e-06 -1.9252e-05 8.99037e-21
1.74694e-05 3.8921e-06 -3.20596e-21
-7.93721e-06 4.09728e-05 8.07751e-21
-9.80565e-06 2.47928e-07 2.48552e-20
9.31855e-06 1.18858e-05 8.28865e-22
-2.17731e-06 -4.1714e-05 4.84153e-21
4.20231e-05 1.28651e-05 1.2387e-20
4.42257e-06 -7.45322e-06 -1.26541e-20
-1.11452e-05 -3.55366e-06 -1.95938e-20
-2.93257e-05 -1.2486e-05 -9.27319e-21
1.58038e-05 4.11474e-05 3.00573e-20
-4.34851e-05 -1.55739e-05 -2.10869e-20
1.60186e-05 -4.11239e-05 2.21916e-21
-3.69981e-06 -3.19203e-05 -8.5856e-22
2.18389e-05 6.52168e-07 -5.35631e-21
-7.17151e-06 1.83967e-05 7.29808e-21
-1.6112e-06 3.96958e-06 -3.10522e-20
-3.68598e-06 -1.65388e-05 1.60532e-20
5.23e-06 -8.30213e-06 8.77632e-21
9.35952e-06 1.58636e-05 -6.49134e-21
3.31013e-05 1.06524e-05 -1.37003e-20
8.6155e-06 -7.45806e-06 -1.67259e-20
-8.27093e-06 -4.51601e-05 1.90781e-20
2.55522e-05 -1.88199e-05 5.94171e-21
4.97794e-06 2.77713e-05 3.13763e-20
-2.81634e-06 -2.84162e-06 -6.5394e-22
-8.62628e-06 -8.32586e-06 8.38523e-21
-4.77668e-06 4.4124e-08 3.76746e-20
-2.28727e-05 2.85942e-05 -3.38574e-21
1.87631e-05 -3.73751e-05 2.97335e-20
-2.658e-05 4.27145e-05 1.43251e-20
-1.63718e-05 9.53527e-06 -2.38309e-20
2.52796e-06 1.21989e-05 1.57661e-20
-2.29868e-05 -3.49894e-05 1.39137e-20
1.39361e-05 3.34661e-05 -1.96742e-22
1.75077e-05 9.36921e-06 6.69721e-21
2.28115e-05 -8.52265e-06 2.28039e-21
-1.25319e-06 -1.12654e-05 -7.778e-21
-3.39116e-05 -3.15579e-05 4.84215e-21
-2.75148e-06 1.13033e-05 5.82501e-21
1.72467e-05 1.01717e-05 -6.70448e-21
1.88874e-05 -8.82082e-06 1.0265e-21
8.24316e-06 -1.43448e-05 -2.53003e-20
2.43569e-05 -1.07953e-05 -1.13105e-20
1.90095e-05 -8.99784e-06 -2.45716e-21
4.64062e-06 2.05802e-07 -2.39167e-20
2.57406e-05 2.02211e-05 1.33195e-20
-2.74162e-06 -1.70299e-05 2.78641e-21
-1.04798e-05 -4.45698e-06 3.43352e-20
1.12585e-06 -3.89006e-06 1.73286e-20
-3.15505e-06 1.58469e-05 1.82112e-21
-3.48833e-05 2.7681e-06 2.85399e-21
-1.21214e-05 -3.32581e-05 -1.46761e-21
-7.87904e-06 9.77897e-06 9.11373e-21
1.35652e-05 1.66403e-05 2.44405e-20
2.65684e-05 -1.87446e-05 -9.28598e-22
-3.67921e-05 -2.03506e-05 -6.34825e-21
1.74029e-05 -2.75074e-05 2.41349e-21
2.28038e-05 -2.72164e-05 1.08027e-20
-1.09443e-05 3.78491e-06 -1.64801e-21
-1.98288e-05 -2.884e-05 -1.70772e-20
-3.48796e-05 -5.79138e-06 1.48987e-20
-3.85241e-06 -3.17425e-05 3.89051e-21
1.54476e-05 -3.1699e-05 3.23749e-21
-9.1061e-06 -2.61994e-05 2.20528e-20
4.58118e-06 3.14052e-05 1.68341e-20
-1.57523e-05 -2.85219e-05 -6.89486e-21
2.9388e-06 -1.62921e-05 3.437e-21
-2.47392e-05 1.82598e-05 -7.02643e-21
-1.50307e-05 -1.21111e-05 -6.74057e-21
-2.73527e-05 -5.17241e-06 3.77924e-21
1.5668e-05 -9.18154e-06 -1.97979e-20
-4.30691e-06 2.39524e-05 -2.54021e-21
1.22325e-05 -9.32445e-06 -2.19343e-20
-2.95857e-05 -1.31642e-05 -5.65523e-21
-8.83163e-06 -7.45806e-06 2.54382e-20
9.08206e-06 7.54082e-06 6.58898e-21
2.14267e-05 2.87006e-05 -1.11058e-20
-1.75088e-05 -1.08092e-05 -1.17525e-20
-3.25061e-05 -7.51068e-07 -5.63127e-21
-1.63367e-05 -5.01614e-06 -6.97187e-21
-4.57811e-06 -1.65832e-05 -2.96222e-21
1.76846e-05 2.12391e-05 7.17259e-21
-1.09573e-05 5.87474e-06 -1.29331e-21
6.36044e-07 -2.05553e-05 7.6058e-21
-4.19396e-05 1.08508e-05 6.21003e-21
2.48605e-05 2.02463e-05 6.3804e-21
3.79449e-06 3.27853e-05 9.31655e-21
-2.43196e-06 3.7972e-06 1.03619e-20
-9.05089e-06 2.51202e-07 2.03725e-21
4.35508e-06 7.76008e-06 1.56854e-20
-1.16939e-05 3.40146e-06 -6.44224e-22
-2.07338e-06 -3.78492e-06 -1.69499e-20
1.65978e-06 2.07599e-05 2.40746e-20
4.4724e-06 4.49698e-07 -5.55398e-21
-1.95381e-05 4.75664e-06 -8.10086e-21
-1.72984e-05 1.9358e-05 -1.73152e-20
-3.10744e-06 1.15782e-05 1.22985e-20
-2.9217e-05 1.83943e-05 -3.26235e-21
-9.34338e-06 8.97933e-06 -1.35881e-20
1.73112e-05 -1.16138e-05 -1.79304e-20
3.66043e-05 -3.56469e-06 1.08081e-20
-2.11407e-05 1.12973e-05 -1.08381e-20
2.23301e-06 4.49825e-06 -7.4063e-21
2.17753e-05 -4.3449e-06 -2.5303e-20
-1.72789e-05 1.03529e-05 -1.13203e-21
-9.8718e-06 5.53904e-06 -1.71896e-21
1.18314e-05 3.7427e-06 -3.01249e-20
2.18799e-05 -1.34712e-05 5.69826e-21
-1.738e-05 9.95613e-06 7.16984e-21
-2.5037e-05 -5.30305e-06 -2.34622e-20
-1.67618e-05 -4.36249e-06 -9.33445e-22
9.87624e-06 6.23991e-09 -2.82941e-20
1.01739e-05 1.95359e-07 -2.90039e-21
4.39078e-06 8.31719e-06 1.51358e-20
4.82957e-06 -8.79779e-06 1.98155e-20
-5.01036e-06 8.41985e-06 3.69133e-21
-5.26668e-06 -8.65762e-06 6.02667e-22
9.91102e-06 -7.40802e-06 -9.32444e-21
-2.03275e-05 3.23492e-06 -2.11612e-22
-2.00599e-05 -3.28374e-06 -1.05432e-20
-1.28348e-05 1.58765e-05 -1.89205e-20
-1.29146e-05 -1.59308e-05 2.28225e-20
7.48628e-06 -1.98438e-05 -9.61335e-22
7.20602e-06 1.97639e-05 1.51319e-20
1.5578e-06 2.5885e-05 5.88716e-21
1.12405e-05 -3.13684e-06 -2.21168e-20
2.35991e-06 -3.86653e-06 -2.64636e-20
-2.14113e-05 1.42169e-06 -4.23643e-21
7.67718e-06 -1.9513e-05 1.97027e-21
7.27343e-06 1.96616e-05 1.5131e-20
4.7688e-06 -5.2714e-08 6.65235e-21
8.96818e-06 2.44031e-05 1.48945e-20
-2.24229e-06 -4.01632e-06 4.25528e-20
2.31775e-06 -1.1317e-05 -4.951e-21
-2.24303e-05 -1.21515e-05 -5.12833e-21
-2.1358e-05 -1.14945e-05 7.52141e-22
-2.18925e-05 1.36285e-05 -1.25325e-20
3.25123e-06 -1.22875e-05 6.80696e-21
-1.56532e-06 3.38194e-06 -1.0267e-20
-5.87342e-07 -2.55687e-05 -1.10806e-21
-7.72012e-06 -2.44224e-05 -7.73363e-22
3.27034e-05 3.0362e-05 1.11186e-20
3.54525e-05 -1.81516e-06 8.47163e-21
-1.27109e-05 -3.63211e-06 1.36133e-20
-2.28921e-05 -4.1385e-05 8.20788e-21
8.30406e-06 1.37476e-05 -6.87879e-21
-2.52352e-05 3.03323e-06 -1.25707e-20
2.00647e-05 5.78627e-06 6.20123e-21
-4.53302e-06 -3.27413e-08 -3.93812e-21
-4.66508e-06 -8.41255e-06 2.23522e-21
-7.07273e-06 -3.93318e-05 7.78982e-21
-9.70811e-06 -8.39144e-08 2.78748e-20
-4.86729e-05 -1.81567e-06 -2.04605e-21
1.73083e-05 -1.91048e-05 -1.07827e-20
2.42929e-06 3.99897e-06 -1.95387e-20
-1.20633e-07 -1.75132e-05 -2.33755e-20
-9.81816e-06 2.40832e-05 2.37354e-20
-4.37193e-06 8.62716e-06 -1.87762e-20
2.05556e-05 -1.36056e-05 7.12829e-21
-3.76577e-05 -1.3551e-05 3.52973e-21
-1.52653e-05 -2.03651e-05 8.44405e-21
4.9769e-06 8.38878e-06 1.23418e-20
1.66305e-05 5.16039e-06 -4.99766e-21
-4.7637e-06 -7.33801e-06 2.73242e-20
1.97957e-05 3.54705e-06 -1.95905e-20
1.81877e-05 -9.82535e-06 -8.02023e-21
-3.48804e-07 2.71714e-05 1.87116e-20
8.31995e-06 -1.36661e-05 -6.14233e-22
4.88012e-05 2.20047e-06 2.04154e-20
-4.23543e-05 1.14527e-05 -6.84696e-21
2.28585e-05 1.15554e-05 1.68774e-21
-6.45249e-06 -1.7178e-05 -6.07995e-21
-1.53488e-05 -8.61751e-06 1.05334e-20
2.87852e-05 -2.10529e-07 -1.25689e-20
-6.91924e-07 -2.42531e-05 3.91755e-20
-1.26164e-05 -1.08732e-05 -5.54338e-21
1.0223e-05 -2.34977e-05 -1.79734e-20
-4.96563e-07 2.05537e-05 9.65187e-21
7.91704e-06 2.60655e-05 -9.67386e-22
1.72665e-05 -9.88343e-06 -1.35018e-20
-1.89463e-05 1.92969e-05 -6.87334e-21
1.65263e-05 2.00277e-05 9.91864e-21
-6.22251e-05 1.60205e-05 1.02624e-20
-1.01082e-05 2.60139e-05 -8.89939e-21
1.25179e-05 -1.52469e-05 3.06184e-20
-7.02846e-06 -1.83962e-05 -3.15528e-20
-1.18525e-05 4.50527e-06 9.63851e-21
-2.5891e-05 -7.04516e-06 7.52754e-22
-6.38554e-06 3.88544e-05 -5.2172e-22
-1.26047e-05 1.19014e-05 2.45411e-21
2.07748e-05 -4.4752e-06 -1.23003e-20
-6.87184e-06 -2.57918e-05 2.6104e-20
-1.48674e-05 2.38888e-05 7.27141e-21
-2.17869e-05 1.25636e-05 3.54581e-21
-2.05676e-05 -1.5054e-05 2.16763e-21
1.8027e-05 -2.06532e-05 -1.25192e-20
-2.75281e-05 -1.45611e-06 -6.18757e-22
1.2366e-05 -4.08065e-05 -1.37425e-21
1.93845e-05 -1.89114e-05 3.25779e-21
2.47303e-05 4.3078e-05 4.45622e-21
1.97095e-06 1.98647e-05 5.42362e-21
2.96083e-06 -2.54189e-05 5.57884e-21
-4.16326e-05 4.69576e-05 -9.73674e-21
-1.2701e-05 -2.44093e-05 -1.72164e-20
1.63654e-05 -6.41995e-06 -2.16657e-20
-2.41067e-06 2.57699e-05 8.58442e-21
1.28818e-05 -1.18254e-05 -1.20171e-20
1.38793e-05 2.43108e-05 8.03417e-21
1.72283e-05 -1.40036e-06 -8.73296e-21
2.21181e-05 -6.32108e-05 -2.70756e-21
-5.87558e-06 -1.2858e-05 6.74179e-21
-2.31822e-05 1.00862e-05 -4.54656e-21
-2.00181e-05 1.87173e-05 1.0213e-20
2.16104e-05 1.45663e-05 7.23354e-22
1.86709e-05 -1.07557e-05 1.7589e-20
1.49506e-05 1.25923e-05 8.94791e-21
-5.42764e-06 4.55111e-08 -2.84945e-21
1.54022e-05 -2.30852e-05 -1.45005e-21
-1.69887e-05 -2.04073e-05 2.20676e-20
2.25598e-05 9.77283e-06 -4.96523e-21
1.28055e-05 -1.19886e-05 -1.17485e-20
9.55307e-06 -2.48495e-05 -1.52725e-20
1.66577e-05 -6.93226e-06 -2.33364e-20
-1.5804e-05 -7.54394e-06 -2.74274e-21
1.29673e-06 -2.63006e-05 2.75186e-20
-2.61044e-05 4.47267e-06 -9.47753e-21
2.39019e-06 2.45405e-05 1.09024e-20
2.05831e-05 6.62686e-06 -6.35069e-21
-2.17185e-05 -1.07009e-05 1.07993e-20
-8.9764e-06 2.56077e-05 2.1404e-20
-1.49525e-06 -2.41858e-05 -1.83626e-21
1.94647e-05 1.18364e-05 2.47293e-21
-1.7688e-06 1.80832e-05 9.70491e-21
-2.0137e-05 1.37014e-05 5.77468e-21
2.35088e-05 1.14142e-05 1.66004e-20
-1.71137e-05 -9.98476e-06 3.26932e-21
9.50985e-08 -1.98331e-05 1.25744e-20
1.83808e-05 1.99826e-05 -1.85018e-20
-2.21519e-05 -1.43024e-05 1.2032e-20
4.83471e-05 -3.39795e-05 4.36573e-23
1.78956e-05 -1.08216e-05 -1.62266e-20
9.00118e-06 4.30838e-05 4.35648e-22
1.70328e-05 -1.36776e-05 1.21628e-21
-1.98733e-05 8.70292e-05 2.47694e-20
-1.97635e-05 -8.65434e-05 5.64644e-21
5.71803e-05 7.17124e-05 1.21181e-20
5.69179e-05 -7.13862e-05 -8.43494e-21
9.06408e-05 -1.58297e-10 3.23294e-21
-7.81957e-05 3.76358e-05 -4.08029e-21
-7.745e-05 -3.72801e-05 -5.15713e-21
1.2233e-05 1.18179e-05 1.0418e-20
2.9366e-05 2.1891e-05 2.7379e-21
1.14474e-05 3.33261e-06 -1.31076e-20
1.88545e-05 9.75089e-06 3.64828e-21
4.98892e-06 2.01689e-05 6.5229e-21
-1.88307e-05 -1.49794e-05 1.81435e-20
1.70369e-05 -1.02136e-05 -2.85827e-20
1.98514e-05 1.45484e-05 -1.28639e-20
-3.16675e-06 2.43625e-05 -5.92927e-21
2.94389e-05 -1.99916e-05 -2.61996e-21
3.79368e-06 -2.37384e-05 -1.30512e-21
2.19596e-05 5.22674e-06 2.78306e-21
2.98941e-05 1.10253e-05 2.87036e-21
1.42079e-05 1.4143e-05 1.25304e-20
1.58823e-05 6.59331e-06 1.00075e-21
-1.84977e-05 1.0936e-05 4.99251e-21
-2.25619e-05 9.03613e-06 8.38007e-21
2.29282e-05 -1.12629e-05 -7.85925e-21
-1.82669e-05 -9.99745e-06 1.18658e-21
-1.85534e-05 -1.05819e-05 -7.00378e-23
-3.43832e-07 -2.07666e-05 7.43844e-21
-8.61392e-08 -2.11596e-05 -4.67812e-21
-2.0126e-05 -1.00542e-06 -5.03163e-21
2.66976e-05 -4.01895e-06 -7.81891e-21
1.81111e-05 1.13416e-05 -4.44317e-21
-1.78633e-05 1.09445e-05 -4.64478e-21
-1.53606e-05 1.66228e-05 1.11719e-20
1.60213e-05 -1.37525e-05 -4.87945e-21
-1.10229e-05 1.74625e-05 1.48612e-21
-1.42242e-05 -1.48888e-05 1.83651e-20
-1.15518e-06 2.12096e-05 1.26159e-20
-1.28761e-06 2.09672e-05 6.49835e-21
8.97217e-08 -1.9833e-05 1.85106e-20
6.11053e-06 -1.97364e-05 -2.23799e-20
-1.71401e-05 -9.935e-06 -5.02435e-21
1.55861e-05 -5.49002e-06 -1.27693e-20
6.63136e-07 2.14768e-05 -1.65222e-21
3.00832e-07 1.85066e-05 3.57137e-20
-2.34564e-06 1.68565e-05 -8.0337e-22
2.19078e-05 -5.52716e-06 -1.46125e-20
-1.65406e-05 5.37783e-06 -7.21714e-21
4.15728e-06 2.15165e-05 -1.28072e-20
-3.25569e-05 1.29187e-05 -5.89443e-21
9.76293e-06 4.17297e-05 1.12392e-20
-1.70528e-05 4.56794e-06 -1.25368e-20
1.96836e-05 -1.16296e-05 -9.08889e-21
9.45736e-07 2.10186e-05 1.15993e-21
-2.04804e-05 6.69915e-06 -6.77118e-21
2.444e-06 -1.62618e-05 1.35778e-20
1.81912e-06 -5.80103e-05 -4.68086e-21
2.00639e-06 1.74856e-05 -3.03102e-21
-1.69614e-05 1.4022e-05 -1.10722e-20
1.78534e-05 6.39693e-05 -1.2705e-20
4.57675e-05 3.77054e-05 7.34086e-21
5.2063e-05 -3.52543e-05 3.00102e-21
1.48149e-05 -1.01668e-05 -1.27348e-20
-1.57849e-05 1.40371e-05 3.04378e-21
-2.02162e-05 -7.92042e-06 -1.25592e-20
-1.9645e-05 -6.82217e-06 -3.24713e-20
5.9265e-05 -2.46111e-05 -1.72104e-20
5.74317e-05 2.38701e-05 1.54314e-20
1.08942e-05 3.81735e-06 -9.37779e-21
7.66611e-07 1.95787e-05 -1.76803e-21
7.83591e-08 1.956e-05 5.09834e-21
-4.83813e-05 -3.69176e-05 1.16179e-20
1.14248e-05 -1.71714e-05 -2.40443e-20
1.17329e-05 1.24643e-05 7.67948e-21
-2.14175e-05 -3.39564e-06 -2.1732e-20
-1.40446e-05 1.72016e-05 -1.25816e-20
-1.8888e-05 9.16748e-06 -1.25938e-20
4.76419e-05 3.36933e-05 7.40449e-21
1.5806e-05 7.06145e-06 -1.78381e-21
-5.5666e-06 2.00298e-05 1.0632e-20
-1.69776e-05 -1.17489e-05 -5.76649e-21
1.8562e-06 -2.05423e-05 -9.29108e-21
-8.94948e-06 -1.92668e-05 -7.64337e-21
-1.72487e-05 -1.17732e-05 1.66831e-20
1.05793e-05 -1.89353e-05 -1.16476e-20
1.41221e-05 -1.69889e-05 -1.53071e-20
-2.4403e-06 -6.14358e-05 1.4658e-20
2.61796e-05 -4.11246e-05 1.77454e-20
1.74745e-06 -2.07851e-05 -1.19677e-20
1.79582e-05 1.13551e-05 -1.32361e-21
-1.4476e-05 -1.4905e-05 1.23155e-20
-9.84084e-06 1.97096e-05 1.27259e-20
-5.0393e-06 2.10062e-05 4.38286e-21
1.66269e-05 1.42434e-05 -1.29697e-20
6.05887e-06 -1.9861e-05 -7.15377e-21
-1.34062e-05 -4.0357e-05 9.10858e-21
-1.98833e-06 2.50399e-05 2.03942e-20
1.47915e-05 1.44548e-05 -2.89309e-21
-1.2958e-05 -1.02165e-05 1.2179e-20
-1.35147e-05 1.0608e-05 -3.84231e-21
4.43419e-05 -1.89128e-05 2.34249e-20
7.56289e-06 -1.33999e-05 3.4888e-21
-8.31699e-06 -1.26267e-05 2.06752e-20
2.13301e-05 6.36334e-06 -3.57895e-20
1.09941e-05 -5.06609e-05 5.39827e-20
-3.84507e-05 -3.49023e-05 8.13391e-21
2.33063e-05 6.20727e-06 1.44697e-20
-9.32806e-06 -1.82808e-05 -4.72844e-21
1.87053e-05 9.48261e-06 -7.20682e-21
-2.85639e-05 -3.25507e-05 6.5335e-21
9.688e-06 5.00459e-05 2.8894e-20
3.43335e-05 -5.98586e-05 2.69883e-20
-3.47365e-05 -5.97754e-05 2.64693e-21
2.78079e-05 -5.20212e-05 -7.29383e-21
-1.26979e-05 4.36324e-05 1.72622e-21
-6.27596e-06 3.89767e-05 -1.57551e-20
-1.87304e-05 8.94572e-06 -8.35915e-21
5.9771e-06 2.42417e-05 1.56354e-20
-2.39153e-06 1.26538e-05 1.29858e-20
1.012e-05 3.23308e-06 -1.06987e-20
-3.18841e-06 1.62052e-05 -1.33135e-20
-2.47448e-07 2.09913e-05 -2.604e-22
1.66603e-05 9.7504e-06 -3.47274e-21
1.71022e-06 5.77231e-05 1.68535e-20
-1.4717e-05 1.07324e-05 -8.27628e-23
1.59491e-05 -6.24649e-06 -3.02091e-20
1.68715e-05 -4.50888e-06 -3.15355e-20
-6.06615e-05 -8.76869e-06 -1.01266e-20
-3.4605e-05 1.67411e-05 2.42107e-20
-4.35138e-05 -5.25452e-05 -4.55352e-21
8.65635e-06 8.34552e-06 1.01806e-20
1.42096e-05 7.2924e-06 9.40477e-21
2.68042e-05 -4.19578e-06 -2.62713e-20
-8.10422e-06 -1.32426e-05 1.84148e-20
1.72162e-05 8.42844e-06 8.46223e-21
7.33518e-06 -3.0034e-05 1.638e-20
-1.37134e-05 1.02048e-05 -1.57527e-20
-2.23739e-05 -2.14219e-05 -1.10816e-20
-5.83585e-06 1.62974e-05 1.54763e-20
-3.27093e-06 2.06781e-05 1.54311e-20
3.38491e-05 2.1296e-05 5.82291e-21
3.61125e-05 -1.92825e-05 6.2282e-21
-4.20695e-05 -1.16228e-05 -7.33445e-21
7.63402e-06 7.68558e-06 -4.25642e-21
-4.05843e-06 0.000101359 1.24616e-20
8.61765e-07 -0.000104465 9.66458e-21
5.24532e-05 8.7643e-05 7.57911e-21
-1.91025e-05 8.45771e-06 -2.88855e-21
-2.63759e-05 5.65483e-05 2.48868e-20
5.30314e-05 -8.46377e-05 -1.30624e-20
-1.17202e-05 -1.82819e-05 -7.73663e-22
7.79982e-05 6.74961e-05 7.32384e-21
2.3993e-05 -1.79764e-05 4.12531e-20
-3.60735e-06 -2.98215e-05 -5.57066e-21
8.17768e-05 -6.58487e-05 1.21251e-20
-6.74447e-06 1.4518e-05 1.19395e-20
-5.38308e-05 -3.4823e-05 -7.48573e-21
-4.30122e-05 -9.31276e-05 -2.42501e-21
-2.4112e-05 -5.78028e-05 4.06362e-21
-4.39738e-05 9.41346e-05 2.36826e-20
-1.0093e-05 6.40823e-05 7.74495e-21
1.56324e-05 3.71074e-05 1.92591e-20
-2.79546e-05 3.72396e-05 1.04898e-20
-2.52723e-05 -5.5182e-05 1.21733e-20
0.000100363 1.73165e-05 -2.96252e-21
-1.6927e-05 1.07668e-05 3.92598e-21
-5.9122e-06 1.63326e-05 -1.05947e-20
-5.07568e-05 3.76387e-05 -6.74934e-21
-1.72758e-05 9.94388e-06 -4.96796e-21
9.92002e-05 -1.52629e-05 -5.4024e-22
-1.53598e-05 7.79851e-06 -1.7994e-20
7.19244e-06 -1.44945e-05 3.9772e-21
-7.79674e-05 -6.09467e-05 3.9178e-21
-2.58782e-05 5.77157e-05 9.16739e-21
-7.91204e-05 6.03739e-05 1.51206e-20
2.45396e-05 5.19489e-05 -1.35513e-22
-1.47672e-05 1.05822e-05 -1.13256e-20
-2.05293e-05 2.4476e-05 9.35413e-21
-2.85319e-05 4.98166e-05 -1.61171e-20
-5.67745e-05 2.07986e-07 1.73668e-20
-9.44081e-07 1.62957e-05 1.83942e-20
-2.88489e-05 -5.04051e-05 2.76904e-20
-5.81969e-05 -2.19803e-07 3.57082e-20
-2.83488e-05 4.8695e-05 5.2408e-21
-1.51899e-05 6.62644e-05 8.23852e-21
-1.78643e-05 4.12595e-05 1.90263e-20
-3.38994e-05 2.71367e-05 2.60206e-20
2.43823e-05 -6.05679e-06 -1.68372e-20
3.80017e-05 -2.19525e-06 -1.00235e-20
1.3482e-05 8.2001e-06 1.28505e-20
-1.04689e-05 -7.39857e-05 2.83417e-20
-6.94471e-05 -2.79735e-05 2.65299e-21
3.71313e-05 7.32715e-07 6.55959e-21
5.83646e-05 -1.08919e-05 2.73084e-20
-1.05834e-05 -1.34967e-05 1.94717e-20
-5.08274e-05 3.76245e-05 8.26154e-21
-4.61324e-05 5.39986e-05 1.05207e-20
6.2361e-05 -2.22318e-05 8.84543e-21
-2.81767e-05 -5.04958e-05 2.92257e-20
-2.87763e-05 4.97782e-05 -2.99875e-20
-5.72529e-05 -1.17113e-06 2.08865e-20
-2.65727e-05 5.05965e-05 1.23894e-20
-5.79517e-05 -8.1699e-07 1.31294e-20
6.60744e-05 1.7392e-05 -3.74654e-21
5.63788e-05 1.29247e-06 -7.07254e-21
5.08988e-05 -2.92731e-05 9.78294e-22
2.49096e-05 -5.94256e-05 -6.58787e-22
2.99177e-05 -4.88555e-05 7.73978e-21
2.91667e-05 4.86795e-05 1.81914e-20
2.43444e-05 5.80879e-05 5.48747e-22
7.58004e-05 -2.0037e-05 -2.55899e-21
4.62652e-05 2.90625e-05 1.52559e-20
4.66231e-05 1.37451e-05 1.64003e-20
TENSORS solid_stress_TPM float
375.033 -24.9204 -3.9222e-12
-24.9204 238.571 -7.10543e-15
-3.9222e-12 -7.10543e-15 197.818

457.005 -21.3203 2.71627e-12
-21.3203 489.989 3.0731e-13
2.71627e-12 3.0731e-13 487.112

454.88 28.0433 -1.60938e-12
28.0433 463.709 1.49273e-12
-1.60938e-12 1.49273e-12 458.46

455.03 -29.8427 -1.65867e-12
-29.8427 482.61 -2.53294e-12
-1.65867e-12 -2.53294e-12 484.858

527.687 19.9309 -1.00009e-12
19.9309 548.457 2.67312e-12
-1.00009e-12 2.67312e-12 527.358

437.312 -18.0745 -2.73026e-12
-18.0745 480.339 1.71596e-12
-2.73026e-12 1.71596e-12 458.041

372.327 26.4846 -7.1528e-13
26.4846 239.09 3.12165e-12
-7.1528e-13 3.12165e-12 197.802

473.653 29.9579 1.12562e-12
29.9579 469.502 3.22498e-12
1.12562e-12 3.22498e-12 472.338

471.549 5.48315 -1.09897e-12
5.48315 417.823 -2.18151e-12
-1.09897e-12 -2.18151e-12 432.796

504.26 -7.47757 -2.67194e-12
-7.47757 444.113 -4.58374e-12
-2.67194e-12 -4.58374e-12 483.453

360.293 16.3086 1.88294e-12
16.3086 247.656 -2.43361e-12
1.88294e-12 -2.43361e-12 233.645

444.783 -13.4532 9.4591e-13
-13.4532 498.386 3.45205e-13
9.4591e-13 3.45205e-13 472.24

466.868 27.8332 -2.16538e-12
27.8332 468.303 -5.51263e-13
-2.16538e-12 -5.51263e-13 466.735

457.038 -14.3401 3.40146e-12
-14.3401 500.435 7.27359e-12
3.40146e-12 7.27359e-12 483.458

512.938 33.3111 1.32723e-12
33.3111 511.598 1.80042e-12
1.32723e-12 1.80042e-12 515.227

489.173 0.560979 -2.44131e-12
0.560979 435.524 -3.27342e-12
-2.44131e-12 -3.27342e-12 462.272

457.584 -17.9691 -7.36411e-13
-17.9691 512.887 -8.20351e-12
-7.36411e-13 -8.20351e-12 493.598

493.958 -2.6652 -2.02653e-12
-2.6652 439.049 -1.15922e-12
-2.02653e-12 -1.15922e-12 474.265

418.793 26.6738 -2.1186e-12
26.6738 449.66 3.39403e-12
-2.1186e-12 3.39403e-12 424.053

481.982 -4.19559 2.179e-13
-4.19559 424.922 -6.81603e-13
2.179e-13 -6.81603e-13 453.475

425.296 8.66864 9.50647e-13
8.66864 481.903 -6.78568e-13
9.50647e-13 -6.78568e-13 444.841

634.129 6.28754 1.54905e-11
6.28754 633.964 4.14098e-12
1.54905e-11 4.14098e-12 570.318

479.153 1.87598 -3.51956e-12
1.87598 422.941 -1.24611e-12
-3.51956e-12 -1.24611e-12 449.732

447.163 -27.7152 -4.52971e-13
-27.7152 461.15 2.21393e-12
-4.52971e-13 2.21393e-12 452.948

481.049 6.8494 -5.56177e-12
6.8494 425.441 1.22657e-12
-5.56177e-12 1.22657e-12 452.938

449.759 19.1129 -1.13605e-12
19.1129 490.318 -1.66178e-12
-1.13605e-12 -1.66178e-12 478.206

377.654 4.18139 -2.71427e-12
4.18139 291.654 3.50919e-12
-2.71427e-12 3.50919e-12 259.002

462.685 30.7459 -2.19617e-12
30.7459 460.715 -3.02869e-13
-2.19617e-12 -3.02869e-13 460.546

384.941 37.0745 -2.34598e-12
37.0745 383.52 1.00779e-12
-2.34598e-12 1.00779e-12 348.419

586.943 10.3235 -4.57116e-13
10.3235 563.452 5.40142e-12
-4.57116e-13 5.40142e-12 546.873

491.688 14.2169 -3.51008e-12
14.2169 442.498 5.29118e-12
-3.51008e-12 5.29118e-12 465.856

352.855 -17.7804 1.4874e-12
-17.7804 416.723 -2.56388e-12
1.4874e-12 -2.56388e-12 348.59

331.017 -42.1018 -8.00545e-13
-42.1018 335.873 3.6285e-12
-8.00545e-13 3.6285e-12 253.482

531.41 5.98665 9.03944e-13
5.98665 586.89 -3.05829e-13
9.03944e-13 -3.05829e-13 538.583

554.024 -4.84052 -2.6299e-12
-4.84052 582.072 -3.74426e-12
-2.6299e-12 -3.74426e-12 542.513

577.987 21.0278 -3.20632e-13
21.0278 539.948 1.22273e-13
-3.20632e-13 1.22273e-13 538.351

556.185 5.06734 1.10697e-12
5.06734 600.675 -2.61243e-12
1.10697e-12 -2.61243e-12 547.97

573.775 -9.17002 -3.06481e-12
-9.17002 555.765 7.65536e-13
-3.06481e-12 7.65536e-13 540.638

467.128 -27.9982 -2.33295e-13
-27.9982 466.492 1.28727e-12
-2.33295e-13 1.28727e-12 465.108

330.402 41.521 -5.68434e-14
41.521 337.971 6.4162e-12
-5.68434e-14 6.4162e-12 253.841

414.525 -17.9491 -7.04977e-12
-17.9491 354.487 -2.18255e-12
-7.04977e-12 -2.18255e-12 346.32

559.306 -3.70592 4.17e-13
-3.70592 599.924 2.60073e-12
4.17e-13 2.60073e-12 548.384

586.413 19.5553 5.5241e-12
19.5553 572.455 1.22273e-13
5.5241e-12 1.22273e-13 548.173

490.892 -12.2733 -6.81529e-13
-12.2733 442.852 1.09202e-12
-6.81529e-13 1.09202e-12 466.528

341.707 -43.2991 -7.4607e-13
-43.2991 345.336 -8.60941e-13
-7.4607e-13 -8.60941e-13 288.975

417.551 -18.0634 7.67386e-13
-18.0634 357.104 1.82609e-12
7.67386e-13 1.82609e-12 351.493

413.005 17.0857 7.49327e-13
17.0857 464.774 2.46321e-13
7.49327e-13 2.46321e-13 428.719

429.621 19.339 4.47938e-13
19.339 466.504 4.4255e-12
4.47938e-13 4.4255e-12 437.072

486.772 -16.3011 1.16055e-12
-16.3011 432.867 1.98774e-12
1.16055e-12 1.98774e-12 458.669

355.573 -34.1854 1.72662e-12
-34.1854 389.393 -1.63188e-12
1.72662e-12 -1.63188e-12 332.561

410.243 19.1818 -1.57977e-12
19.1818 350.694 3.02987e-12
-1.57977e-12 3.02987e-12 339.47

425.192 -25.2884 -3.14534e-12
-25.2884 383.813 -4.47642e-12
-3.14534e-12 -4.47642e-12 373.069

519.914 19.4856 -1.45143e-12
19.4856 547.525 -3.16606e-12
-1.45143e-12 -3.16606e-12 525.725

416.404 29.6493 1.76807e-12
29.6493 393.878 1.23279e-12
1.76807e-12 1.23279e-12 373.933

522.169 -21.8128 3.98911e-12
-21.8128 541.39 3.0446e-12
3.98911e-12 3.0446e-12 524.371

364.064 -42.7112 -2.54611e-12
-42.7112 343.275 -3.02099e-12
-2.54611e-12 -3.02099e-12 289.693

553.445 5.45953 1.2997e-12
5.45953 583.864 2.08367e-12
1.2997e-12 2.08367e-12 542.887

373.708 -5.32979 1.9611e-12
-5.32979 436.654 -2.80428e-12
1.9611e-12 -2.80428e-12 373.817

580.813 10.3843 -1.89419e-12
10.3843 556.165 -4.34784e-12
-1.89419e-12 -4.34784e-12 542.643

435.049 21.4131 -1.18483e-12
21.4131 473.754 -5.59019e-12
-1.18483e-12 -5.59019e-12 454.664

513.566 5.75395 -2.51651e-14
5.75395 452.8 2.90582e-12
-2.51651e-14 2.90582e-12 494.859

522.452 11.4589 2.41081e-12
11.4589 487.856 1.52382e-12
2.41081e-12 1.52382e-12 507.073

383.699 31.8198 3.93167e-13
31.8198 315.188 -4.38168e-14
3.93167e-13 -4.38168e-14 269.866

482.082 -6.03522 -5.75096e-13
-6.03522 528.175 -4.36747e-12
-5.75096e-13 -4.36747e-12 504.095

487.091 9.51977 2.21793e-12
9.51977 523.685 4.95604e-13
2.21793e-12 4.95604e-13 507.491

456.453 -2.88085 -4.3654e-13
-2.88085 520.152 2.05998e-12
-4.3654e-13 2.05998e-12 487.802

464.449 23.402 -1.94204e-12
23.402 503.465 1.0892e-12
-1.94204e-12 1.0892e-12 495.436

496.742 8.46354 -7.54952e-14
8.46354 444.393 3.13024e-12
-7.54952e-14 3.13024e-12 477.693

445.501 -28.2394 -4.10842e-12
-28.2394 459.523 -1.81781e-13
-4.10842e-12 -1.81781e-13 451.162

501.676 -1.71125 -1.57237e-12
-1.71125 444.911 -4.59743e-12
-1.57237e-12 -4.59743e-12 489.064

519.527 -19.2616 2.35042e-12
-19.2616 546.818 -7.67386e-13
2.35042e-12 -7.67386e-13 525.458

523.298 21.3078 -2.17604e-12
21.3078 542.915 -4.76447e-12
-2.17604e-12 -4.76447e-12 525.26

353.405 -16.5834 -2.15561e-12
-16.5834 415.731 -4.33905e-12
-2.15561e-12 -4.33905e-12 346.108

506.016 -27.9361 -5.20473e-13
-27.9361 485.305 6.41265e-12
-5.20473e-13 6.41265e-12 493.875

449.715 -25.1346 3.92279e-13
-25.1346 471.215 1.48267e-12
3.92279e-13 1.48267e-12 458.573

357.866 -31.7105 -7.22385e-13
-31.7105 285.673 2.05761e-12
-7.22385e-13 2.05761e-12 249.855

498.495 3.22265 -6.93297e-13
3.22265 541.401 4.25082e-12
-6.93297e-13 4.25082e-12 513.638

501.722 28.9439 1.19016e-12
28.9439 474.545 -6.18172e-13
1.19016e-12 -6.18172e-13 487.653

448.44 19.6642 -9.41765e-13
19.6642 492.103 3.81621e-13
-9.41765e-13 3.81621e-13 477.638

440.188 7.99953 7.96282e-12
7.99953 373.034 9.98313e-12
7.96282e-12 9.98313e-12 382.931

386.447 -33.9355 4.57234e-12
-33.9355 360.203 -3.91035e-12
4.57234e-12 -3.91035e-12 319.432

537.716 -10.5874 7.17589e-12
-10.5874 556.135 2.93395e-13
7.17589e-12 2.93395e-13 531.245

482.653 23.8995 -4.70883e-12
23.8995 504.556 2.61863e-12
-4.70883e-12 2.61863e-12 502.039

385.368 -32.3837 -1.47201e-12
-32.3837 345.303 -3.28508e-12
-1.47201e-12 -3.28508e-12 317.078

422.194 10.7911 -1.84386e-12
10.7911 363.847 3.40542e-12
-1.84386e-12 3.40542e-12 350.25

307.649 -21.2059 3.50298e-12
-21.2059 388.439 9.10679e-12
3.50298e-12 9.10679e-12 288.112

434.441 14.4256 3.23593e-12
14.4256 488.665 1.50161e-12
3.23593e-12 1.50161e-12 460.88

509.717 23.143 2.1565e-12
23.143 475.168 -2.60473e-12
2.1565e-12 -2.60473e-12 489.943

338.238 42.1986 -5.34447e-12
42.1986 349.568 1.83083e-12
-5.34447e-12 1.83083e-12 288.949

634.214 16.5069 -3.99162e-13
16.5069 603.067 1.20052e-12
-3.99162e-13 1.20052e-12 565.322

372.885 -4.10835 -1.57178e-12
-4.10835 436.814 -4.06194e-13
-1.57178e-12 -4.06194e-13 373.424

637.12 -16.6321 2.1528e-12
-16.6321 599.538 1.06063e-12
2.1528e-12 1.06063e-12 564.829

533.936 -27.3349 9.56391e-12
-27.3349 507.235 -1.41102e-12
9.56391e-12 -1.41102e-12 515.711

505.293 27.4246 2.34894e-12
27.4246 466.331 -7.04918e-13
2.34894e-12 -7.04918e-13 485.069

426.922 -24.4105 2.81138e-12
-24.4105 386.236 9.02093e-13
2.81138e-12 9.02093e-13 375.975

358.933 31.3232 8.44954e-13
31.3232 396.001 1.7657e-12
8.44954e-13 1.7657e-12 339.198

339.822 -10.7051 -7.11135e-13
-10.7051 408.388 9.45022e-13
-7.11135e-13 9.45022e-13 319.103

453.101 21.9707 2.61006e-12
21.9707 494.676 9.26074e-13
2.61006e-12 9.26074e-13 483.165

533.111 16.7941 2.77467e-12
16.7941 506.196 3.32771e-13
2.77467e-12 3.32771e-13 513.35

443.45 15.1539 -2.38461e-12
15.1539 488.437 -5.18519e-12
-2.38461e-12 -5.18519e-12 464.28

451.478 15.9538 -2.269e-12
15.9538 400.534 -3.61844e-12
-2.269e-12 -3.61844e-12 403.744

374.486 -21.4725 9.03573e-13
-21.4725 419.864 -3.96128e-12
9.03573e-13 -3.96128e-12 357.195

389.72 -29.3906 4.97617e-12
-29.3906 342.367 -9.72851e-13
4.97617e-12 -9.72851e-13 314.389

454.963 -24.573 -2.76268e-12
-24.573 480.063 6.51923e-13
-2.76268e-12 6.51923e-13 478.368

466.424 27.451 8.32223e-13
27.451 478.741 6.61989e-13
8.32223e-13 6.61989e-13 479.807

452.215 23.1876 2.13207e-12
23.1876 492.557 -3.35613e-12
2.13207e-12 -3.35613e-12 482.041

466.294 13.1691 4.14837e-12
13.1691 529.774 -6.57252e-13
4.14837e-12 -6.57252e-13 501.381

490.859 9.37226 -2.35782e-12
9.37226 437.887 6.38023e-12
-2.35782e-12 6.38023e-12 462.053

327.71 -4.66505 1.62833e-14
-4.66505 403.379 2.10794e-12
1.62833e-14 2.10794e-12 314.41

462.577 -36.8331 1.70412e-12
-36.8331 487.688 1.25403e-12
1.70412e-12 1.25403e-12 492.746

445.848 27.4653 -6.96036e-13
27.4653 463.268 -2.51532e-12
-6.96036e-13 -2.51532e-12 455.012

305.67 2.17032 9.87055e-12
2.17032 393.358 -2.87059e-12
9.87055e-12 -2.87059e-12 297.254

385.995 34.6103 -5.11591e-13
34.6103 332.446 3.11277e-12
-5.11591e-13 3.11277e-12 306.244

453.349 -22.9739 4.26326e-14
-22.9739 480.068 -2.59082e-12
4.26326e-14 -2.59082e-12 476.171

501.392 5.73296 2.70954e-12
5.73296 441.314 5.92119e-14
2.70954e-12 5.92119e-14 481.008

422.379 27.204 -1.09424e-12
27.204 389.765 3.55982e-12
-1.09424e-12 3.55982e-12 374.232

570.541 12.7454 2.2012e-13
12.7454 565.916 -3.11484e-12
2.2012e-13 -3.11484e-12 542.915

396.176 24.3304 2.86586e-12
24.3304 349.647 -4.39293e-12
2.86586e-12 -4.39293e-12 319.042

569.163 -13.055 -7.7834e-13
-13.055 565.828 2.43479e-12
-7.7834e-13 2.43479e-12 542.371

375.09 0.778537 6.36824e-12
0.778537 438.867 -3.6214e-12
6.36824e-12 -3.6214e-12 374.639

461.469 -2.23531 2.09255e-12
-2.23531 399.301 3.44369e-12
2.09255e-12 3.44369e-12 417.28

538.195 -15.7679 1.35743e-13
-15.7679 480.63 2.11771e-12
1.35743e-13 2.11771e-12 513.477

457.243 24.3881 1.04216e-12
24.3881 487.783 4.79083e-12
1.04216e-12 4.79083e-12 488.353

461.255 -13.535 1.70424e-12
-13.535 519.134 -3.15303e-12
1.70424e-12 -3.15303e-12 495.713

514.968 -7.99994 -1.3715e-12
-7.99994 438.19 -2.80383e-12
-1.3715e-12 -2.80383e-12 494.276

488.314 -22.2839 3.47411e-12
-22.2839 541.601 1.16351e-12
3.47411e-12 1.16351e-12 515.749

556.05 -6.59665 2.4271e-12
-6.59665 560.394 -2.56069e-12
2.4271e-12 -2.56069e-12 538.728

463.865 -29.9082 9.88246e-13
-29.9082 483.195 -2.52716e-12
9.88246e-13 -2.52716e-12 483.599

341.705 11.4536 -4.71001e-12
11.4536 406.192 -7.17411e-12
-4.71001e-12 -7.17411e-12 319.481

422.48 -28.1464 3.57048e-12
-28.1464 391.24 7.04622e-13
3.57048e-12 7.04622e-13 375.146

507.381 -13.7721 -6.24093e-13
-13.7721 558.747 2.96474e-12
-6.24093e-13 2.96474e-12 525.251

501.055 0.50447 -1.38275e-12
0.50447 441.279 -4.82725e-13
-1.38275e-12 -4.82725e-13 487.085

476.941 -21.5245 2.44945e-12
-21.5245 507.421 -7.73603e-13
2.44945e-12 -7.73603e-13 501.504

459.096 25.6977 -8.57536e-13
25.6977 484.6 -4.86981e-13
-8.57536e-13 -4.86981e-13 487.98

394.428 -31.4643 9.49759e-13
-31.4643 400.597 -1.59398e-12
9.49759e-13 -1.59398e-12 357.52

552.126 -7.08486 -1.73128e-12
-7.08486 585.295 2.03393e-13
-1.73128e-12 2.03393e-13 542.602

347.208 -33.0766 8.95284e-13
-33.0766 382.606 6.12962e-12
8.95284e-13 6.12962e-12 303.434

490.869 -19.1796 -3.66522e-13
-19.1796 448.386 2.18877e-12
-3.66522e-13 2.18877e-12 467.123

519.707 1.97036 -5.52521e-12
1.97036 466.813 1.54839e-12
-5.52521e-12 1.54839e-12 502.83

570.559 17.875 -7.04622e-13
17.875 566.479 1.81781e-12
-7.04622e-13 1.81781e-12 542.374

375.289 20.1827 2.22755e-12
20.1827 424.03 3.55982e-12
2.22755e-12 3.55982e-12 360.219

489.08 27.2105 -2.71013e-12
27.2105 468.538 -1.77873e-12
-2.71013e-12 -1.77873e-12 476.638

454.377 -24.5115 -4.84472e-12
-24.5115 415.34 6.08343e-12
-4.84472e-12 6.08343e-12 418.601

454.717 -17.8385 3.49541e-12
-17.8385 494.905 -3.25192e-12
3.49541e-12 -3.25192e-12 482.64

379.197 35.068 -2.26189e-13
35.068 366.029 9.75457e-12
-2.26189e-13 9.75457e-12 317.047

449.151 -21.831 -1.99011e-12
-21.831 491.703 1.32487e-12
-1.99011e-12 1.32487e-12 479.772

485.489 30.8504 2.77704e-13
30.8504 465.134 -1.57e-12
2.77704e-13 -1.57e-12 473.444

480.32 -25.244 1.40924e-12
-25.244 442.365 2.53664e-12
1.40924e-12 2.53664e-12 455.44

448.216 -25.1263 -2.71635e-12
-25.1263 469.765 -1.69938e-13
-2.71635e-12 -1.69938e-13 458.094

445.343 -18.688 -9.90023e-13
-18.688 393.459 -6.44936e-12
-9.90023e-13 -6.44936e-12 397.255

470.651 -18.8495 1.83379e-12
-18.8495 422.85 3.44968e-12
1.83379e-12 3.44968e-12 437.529

458.996 -25.337 1.80211e-12
-25.337 485.426 -4.95159e-13
1.80211e-12 -4.95159e-13 488.823

386.539 35.9692 1.26477e-12
35.9692 381.985 7.10543e-15
1.26477e-12 7.10543e-15 348.114

444.492 15.3767 -6.39637e-13
15.3767 491.529 -3.72443e-13
-6.39637e-13 -3.72443e-13 467.137

469.393 26.4222 -2.94342e-12
26.4222 479.955 -3.57936e-13
-2.94342e-12 -3.57936e-13 482.543

456.139 25.4736 1.5099e-14
25.4736 486.643 -1.4347e-12
1.5099e-14 -1.4347e-12 487.243

457.804 11.6215 2.91864e-13
11.6215 506.936 6.04139e-12
2.91864e-13 6.04139e-12 486.012

431.947 -8.22694 6.65542e-13
-8.22694 370.752 -4.31299e-12
6.65542e-13 -4.31299e-12 363.304

376.776 18.6063 4.35385e-12
18.6063 427.262 7.65018e-12
4.35385e-12 7.65018e-12 363.88

452.309 -24.3804 -1.29082e-12
-24.3804 478.382 -8.53836e-13
-1.29082e-12 -8.53836e-13 470.708

440.742 25.6658 1.10845e-12
25.6658 455.636 2.66157e-12
1.10845e-12 2.66157e-12 437.801

390.952 -35.6291 6.987e-14
-35.6291 380.273 7.0397e-12
6.987e-14 7.0397e-12 350.087

368.937 38.3163 2.83743e-12
38.3163 327.249 -1.38793e-12
2.83743e-12 -1.38793e-12 295.679

363.643 -33.3108 -2.63493e-13
-33.3108 394.431 4.62563e-12
-2.63493e-13 4.62563e-12 341.975

397.926 -31.1593 -7.04622e-13
-31.1593 404.188 2.80664e-12
-7.04622e-13 2.80664e-12 362.969

502.852 -6.83865 7.91663e-13
-6.83865 442.246 3.01078e-12
7.91663e-13 3.01078e-12 482.313

393.159 30.3415 1.03976e-12
30.3415 408.974 4.38168e-14
1.03976e-12 4.38168e-14 363.429

429.696 13.2945 7.99361e-13
13.2945 372.242 -2.57424e-12
7.99361e-13 -2.57424e-12 362.709

350.139 13.3787 -1.48104e-12
13.3787 418.509 8.88534e-12
-1.48104e-12 8.88534e-12 348.47

379.474 -22.3402 2.18492e-13
-22.3402 423.507 -6.30725e-12
2.18492e-13 -6.30725e-12 363.443

491.203 -1.09159 3.7641e-12
-1.09159 550.873 -1.6751e-12
3.7641e-12 -1.6751e-12 516.301

372.858 2.24659 2.2086e-13
2.24659 437.782 -6.86858e-14
2.2086e-13 -6.86858e-14 373.515

357.885 31.089 3.31764e-12
31.089 399.481 -1.61648e-12
3.31764e-12 -1.61648e-12 341.956

457.986 12.1078 -2.389e-12
12.1078 510.556 2.02445e-12
-2.389e-12 2.02445e-12 488.399

421.447 -27.6474 2.70717e-12
-27.6474 389.067 -1.49214e-12
2.70717e-12 -1.49214e-12 375.067

524.752 20.557 1.09364e-12
20.557 469.745 -2.63286e-12
1.09364e-12 -2.63286e-12 500.73

534.921 26.2704 -1.07529e-12
26.2704 506.855 7.4829e-13
-1.07529e-12 7.4829e-13 516.09

494.812 -18.5676 2.90494e-12
-18.5676 449.021 2.48749e-12
2.90494e-12 2.48749e-12 470.851

554.58 -1.80132 -1.92439e-12
-1.80132 516.019 -5.28969e-12
-1.92439e-12 -5.28969e-12 525.712

473.283 -31.8118 3.97489e-12
-31.8118 475.692 4.41069e-12
3.97489e-12 4.41069e-12 478.573

412.593 23.3276 -3.54206e-12
23.3276 357.191 -3.05297e-12
-3.54206e-12 -3.05297e-12 348.087

464.172 30.1621 -2.79273e-12
30.1621 482.764 -1.47704e-12
-2.79273e-12 -1.47704e-12 483.2

464.435 29.2059 6.05442e-13
29.2059 482.237 1.58244e-12
6.05442e-13 1.58244e-12 482.761

393.941 30.6606 -3.52903e-12
30.6606 405.718 4.26444e-12
-3.52903e-12 4.26444e-12 360.864

502.85 27.085 -2.25183e-12
27.085 482.661 3.0281e-12
-2.25183e-12 3.0281e-12 490.73

415.346 3.52512 1.85452e-12
3.52512 339.013 1.81773e-12
1.85452e-12 1.81773e-12 340.82

493.118 31.8172 2.92596e-12
31.8172 487.219 -1.85777e-12
2.92596e-12 -1.85777e-12 495.57

476.322 -12.5997 2.98213e-12
-12.5997 522.446 -3.48107e-12
2.98213e-12 -3.48107e-12 500.244

536.922 24.2781 -8.8433e-13
24.2781 507.398 4.14483e-14
-8.8433e-13 4.14483e-14 516.626

468.173 -29.5787 4.42224e-12
-29.5787 479.966 3.39787e-12
4.42224e-12 3.39787e-12 483.057

464.557 -4.89802 -8.42659e-13
-4.89802 521.551 3.9518e-12
-8.42659e-13 3.9518e-12 490.975

400.935 -24.5562 -9.97128e-13
-24.5562 349.019 -1.72307e-12
-9.97128e-13 -1.72307e-12 323.946

418.962 29.6929 -1.18424e-12
29.6929 392.459 -1.76215e-12
-1.18424e-12 -1.76215e-12 373.765

352.34 14.6964 7.41629e-14
14.6964 417.207 3.52074e-12
7.41629e-14 3.52074e-12 348.235

500.525 -1.13891 3.7718e-13
-1.13891 442.791 2.54345e-12
3.7718e-13 2.54345e-12 487.705

492.467 0.00222484 1.51257e-12
0.00222484 438.099 -2.93449e-12
1.51257e-12 -2.93449e-12 474.415

452.962 23.1239 4.14839e-12
23.1239 479.703 -6.21725e-14
4.14839e-12 -6.21725e-14 475.582

481.3 23.871 4.10694e-12
23.871 502.87 2.14449e-12
4.10694e-12 2.14449e-12 501.25

456.584 -24.3807 -1.81397e-12
-24.3807 487.349 -2.44678e-12
-1.81397e-12 -2.44678e-12 488.494

457.833 -0.67281 -2.96143e-12
-0.67281 517.939 -3.72265e-12
-2.96143e-12 -3.72265e-12 486.397

458.882 25.5904 -5.81165e-13
25.5904 486.466 -2.132e-12
-5.81165e-13 -2.132e-12 488.516

465.558 -10.3079 2.25064e-12
-10.3079 408.083 1.12355e-13
2.25064e-12 1.12355e-13 427.222

400.864 -32.8334 -2.71901e-12
-32.8334 414.955 5.31131e-12
-2.71901e-12 5.31131e-12 385.165

518.097 -2.30079 -8.93211e-13
-2.30079 465.739 3.46094e-13
-8.93211e-13 3.46094e-13 500.927

391.872 -34.5082 -8.23045e-13
-34.5082 379.606 -1.76984e-12
-8.23045e-13 -1.76984e-12 347.417

478.002 19.0861 2.735e-12
19.0861 509.202 1.44418e-12
2.735e-12 1.44418e-12 501.847

506.114 -26.4787 6.64357e-13
-26.4787 470.249 3.83071e-12
6.64357e-13 3.83071e-12 487.274

425.001 -9.69023 -1.42109e-14
-9.69023 366.731 -4.47553e-12
-1.42109e-14 -4.47553e-12 355.981

530.268 -23.192 4.02937e-12
-23.192 488.759 -4.57412e-13
4.02937e-12 -4.57412e-13 506.491

500.894 2.35828 -3.0127e-12
2.35828 444.579 3.89414e-12
-3.0127e-12 3.89414e-12 489.207

521.194 -23.3215 -4.02641e-13
-23.3215 501.844 -2.71679e-12
-4.02641e-13 -2.71679e-12 508.536

502.018 -25.8595 -8.59757e-13
-25.8595 461.494 2.10202e-14
-8.59757e-13 2.10202e-14 481.246

498.829 -8.54616 -3.09116e-12
-8.54616 445.138 1.41975e-12
-3.09116e-12 1.41975e-12 479.347

482.223 -23.0682 2.23436e-12
-23.0682 504.995 1.19023e-12
2.23436e-12 1.19023e-12 502.538

428.541 -31.3419 -5.25802e-13
-31.3419 410.589 8.7681e-12
-5.25802e-13 8.7681e-12 398.999

503.27 -24.5873 -3.43607e-12
-24.5873 464.716 -2.41585e-12
-3.43607e-12 -2.41585e-12 482.162

441.242 10.8644 1.09424e-12
10.8644 378.482 -6.09054e-12
1.09424e-12 -6.09054e-12 387.799

500.04 26.3403 3.52192e-12
26.3403 498.586 9.61009e-13
3.52192e-12 9.61009e-13 500.107

463.752 -37.6128 5.06262e-14
-37.6128 488.392 -1.57419e-12
5.06262e-14 -1.57419e-12 494.085

464.861 37.2651 8.34592e-13
37.2651 487.303 -1.72262e-12
8.34592e-13 -1.72262e-12 493.8

446.329 -28.5733 1.13295e-12
-28.5733 500.017 -6.42449e-12
1.13295e-12 -6.42449e-12 492.315

448.564 27.0641 -9.4813e-14
27.0641 500.708 2.28558e-12
-9.4813e-14 2.28558e-12 492.502

513.072 -8.52759 5.6651e-13
-8.52759 436.408 -1.48518e-12
5.6651e-13 -1.48518e-12 492.762

511.235 9.27359 1.28727e-12
9.27359 438.005 3.32223e-12
1.28727e-12 3.32223e-12 492.4

501.659 -9.84621 -9.28443e-13
-9.84621 451.744 1.42582e-12
-9.28443e-13 1.42582e-12 483.023

510.867 32.116 -5.41966e-12
32.116 510.393 1.13809e-12
-5.41966e-12 1.13809e-12 514.058

509.643 -32.854 1.99574e-12
-32.854 510.07 -2.89532e-12
1.99574e-12 -2.89532e-12 513.697

481.812 16.0685 1.92927e-12
16.0685 539.134 -2.6071e-12
1.92927e-12 -2.6071e-12 514.329

483.006 -15.8009 3.59712e-14
-15.8009 538.723 -1.77813e-12
3.59712e-14 -1.77813e-12 514.35

556.872 -3.74775 -4.14335e-13
-3.74775 506.835 -6.2735e-13
-4.14335e-13 -6.2735e-13 524.995

558.426 3.61051 -2.543e-12
3.61051 505.159 -2.457e-12
-2.543e-12 -2.457e-12 525.367

387.309 9.83689 2.66009e-13
9.83689 449.198 -5.16328e-13
2.66009e-13 -5.16328e-13 397.087

472.389 -24.7742 5.7554e-13
-24.7742 480.756 -1.00764e-12
5.7554e-13 -1.00764e-12 484.978

443.463 -36.3875 2.76275e-12
-36.3875 485.534 -1.3521e-12
2.76275e-12 -1.3521e-12 486.629

473.642 -4.6643 2.60532e-14
-4.6643 420.437 -2.75298e-13
2.60532e-14 -2.75298e-13 436.339

540.256 -16.6946 1.21458e-12
-16.6946 484.194 1.38082e-12
1.21458e-12 1.38082e-12 515.29

540.976 16.1756 -2.45493e-12
16.1756 485.417 1.92705e-12
-2.45493e-12 1.92705e-12 515.896

506.863 0.12188 1.19948e-12
0.12188 423.552 -1.51908e-12
1.19948e-12 -1.51908e-12 487.003

384.792 23.3753 9.62785e-13
23.3753 432.297 -2.80783e-12
9.62785e-13 -2.80783e-12 385.476

442.334 36.1714 -1.20666e-12
36.1714 485.212 4.0649e-13
-1.20666e-12 4.0649e-13 485.835

452.598 -23.3958 -2.62027e-12
-23.3958 494.954 -3.22527e-12
-2.62027e-12 -3.22527e-12 483.592

443.249 23.3528 8.90547e-13
23.3528 397.519 4.53978e-12
8.90547e-13 4.53978e-12 400.373

530.971 23.8582 7.57912e-14
23.8582 488.009 1.70826e-12
7.57912e-14 1.70826e-12 507.25

428.479 -31.3137 -3.07547e-12
-31.3137 410.874 3.52784e-12
-3.07547e-12 3.52784e-12 398.818

519.861 -3.23103 2.1901e-12
-3.23103 469.06 2.67519e-12
2.1901e-12 2.67519e-12 502.687

439.397 -34.1609 6.38008e-14
-34.1609 485.505 -2.08219e-12
6.38008e-14 -2.08219e-12 485.824

389.183 8.31999 6.41794e-12
8.31999 452.328 -2.82559e-12
6.41794e-12 -2.82559e-12 400.855

385.879 21.8117 -2.27196e-12
21.8117 435.773 2.61006e-12
-2.27196e-12 2.61006e-12 388.694

383.847 35.7759 3.05889e-12
35.7759 362.331 -8.71599e-13
3.05889e-12 -8.71599e-13 318.327

408.182 1.57876 -7.12911e-12
1.57876 332.155 5.81831e-13
-7.12911e-12 5.81831e-13 327.324

485.456 -22.8045 -9.58937e-13
-22.8045 502.859 -4.26772e-12
-9.58937e-13 -4.26772e-12 501.75

351.878 31.1839 5.00341e-12
31.1839 388.831 -7.93439e-13
5.00341e-12 -7.93439e-13 312.357

451.35 23.61 1.96909e-12
23.61 478.413 -3.92042e-12
1.96909e-12 -3.92042e-12 465.213

442.196 -5.34956 -8.23045e-12
-5.34956 377.126 -7.56136e-13
-8.23045e-12 -7.56136e-13 387.737

464.155 11.2161 -2.99198e-12
11.2161 407.299 -1.81336e-12
-2.99198e-12 -1.81336e-12 424.922

505.378 0.429902 -8.1816e-13
0.429902 421.572 -5.65929e-13
-8.1816e-13 -5.65929e-13 485.674

449.35 -29.031 -1.28734e-12
-29.031 501.997 -1.77902e-12
-1.28734e-12 -1.77902e-12 493.588

572.509 -6.31888 -3.66707e-12
-6.31888 589.483 -8.81073e-13
-3.66707e-12 -8.81073e-13 549.253

463.14 37.4115 3.148e-12
37.4115 487.026 -9.37768e-13
3.148e-12 -9.37768e-13 493.064

408.737 1.66329 -1.2174e-12
1.66329 331.602 5.60293e-14
-1.2174e-12 5.60293e-14 308.904

404.234 -32.787 6.19356e-13
-32.787 415.508 -8.72191e-13
6.19356e-13 -8.72191e-13 387.389

443.14 36.6129 -1.96339e-12
36.6129 485.505 8.64494e-13
-1.96339e-12 8.64494e-13 486.571

444.678 -11.1339 -2.23627e-12
-11.1339 498.935 2.55381e-12
-2.23627e-12 2.55381e-12 471.441

386.072 -25.5146 -2.55618e-12
-25.5146 428.9 3.73153e-12
-2.55618e-12 3.73153e-12 384.563

449.45 28.83 1.4105e-12
28.83 501.63 4.88202e-13
1.4105e-12 4.88202e-13 493.288

452.71 -26.1419 -2.07597e-12
-26.1419 419.302 4.74465e-12
-2.07597e-12 4.74465e-12 419.517

579.551 10.4835 -3.4864e-12
10.4835 582.163 -1.2225e-11
-3.4864e-12 -1.2225e-11 549.037

398.328 30.8721 -6.35936e-13
30.8721 422.058 6.08698e-13
-6.35936e-13 6.08698e-13 388.162

515.706 8.12668 -1.65764e-12
8.12668 437.268 -8.4821e-14
-1.65764e-12 -8.4821e-14 494.581

493.805 30.1906 -1.78761e-12
30.1906 484.747 1.19874e-12
-1.78761e-12 1.19874e-12 493.801

453.465 23.3319 5.85754e-13
23.3319 479.163 -2.21127e-12
5.85754e-13 -2.21127e-12 475.798

510.701 -32.4887 8.14164e-14
-32.4887 512.452 1.79066e-12
8.14164e-14 1.79066e-12 515.006

510.308 -23.1903 -1.08891e-12
-23.1903 473.18 -4.91163e-13
-1.08891e-12 -4.91163e-13 489.677

511.401 10.4706 -2.35941e-12
10.4706 557.991 -4.04358e-12
-2.35941e-12 -4.04358e-12 523.731

452.172 -23.4338 -5.58131e-12
-23.4338 480.165 5.83948e-12
-5.58131e-12 5.83948e-12 468.95

394.409 -9.70783 6.74542e-12
-9.70783 316.413 1.66378e-12
6.74542e-12 1.66378e-12 295.575

387.29 -14.2772 1.19608e-12
-14.2772 306.058 -8.21861e-13
1.19608e-12 -8.21861e-13 290.049

547.583 16.5295 2.58312e-12
16.5295 507.763 2.79776e-13
2.58312e-12 2.79776e-13 519.319

436.487 22.5017 3.26317e-12
22.5017 469.136 9.0381e-12
3.26317e-12 9.0381e-12 447.823

475.962 29.1632 5.76487e-12
29.1632 467.645 -1.03473e-12
5.76487e-12 -1.03473e-12 471.478

450.301 0.688671 8.57862e-12
0.688671 392.776 2.33973e-12
8.57862e-12 2.33973e-12 395.673

478.35 6.57113 -3.89882e-12
6.57113 541.278 3.07902e-13
-3.89882e-12 3.07902e-13 507.539

507.33 16.5407 1.17832e-12
16.5407 461.135 -3.97312e-13
1.17832e-12 -3.97312e-13 488.079

389.976 -25.7611 -4.29286e-12
-25.7611 430.035 -4.24312e-12
-4.29286e-12 -4.24312e-12 387.733

456.318 -2.57237 3.69932e-12
-2.57237 517.013 -2.63848e-12
3.69932e-12 -2.63848e-12 484.84

400.589 13.3652 2.32999e-12
13.3652 452.985 8.44362e-13
2.32999e-12 8.44362e-13 404.635

486.913 -29.7133 -1.59398e-12
-29.7133 465.813 -1.35388e-12
-1.59398e-12 -1.35388e-12 474.257

430.298 -29.9475 -1.73905e-12
-29.9475 423.628 7.01187e-12
-1.73905e-12 7.01187e-12 404.954

399.71 31.6229 -7.00891e-12
31.6229 418.231 -4.92643e-13
-7.00891e-12 -4.92643e-13 386.001

623.999 -15.0201 -4.92228e-12
-15.0201 581.947 -3.58395e-12
-4.92228e-12 -3.58395e-12 557.903

494.521 2.04135 -8.40513e-13
2.04135 552.142 -2.48868e-12
-8.40513e-13 -2.48868e-12 517.924

483.501 20.3 -1.48045e-12
20.3 542.041 9.43838e-13
-1.48045e-12 9.43838e-13 516.03

544.704 15.4389 1.30163e-12
15.4389 479.969 -8.47026e-13
1.30163e-12 -8.47026e-13 515.752

473.747 -26.1887 -5.7554e-13
-26.1887 479.755 3.90206e-13
-5.7554e-13 3.90206e-13 483.016

452.124 17.9573 6.96213e-12
17.9573 404.507 -2.55647e-12
6.96213e-12 -2.55647e-12 406.917

531.578 -5.29398 1.09542e-12
-5.29398 580.799 -2.62309e-12
1.09542e-12 -2.62309e-12 537.116

512.186 -18.9881 -1.0217e-12
-18.9881 464.792 1.0966e-12
-1.0217e-12 1.0966e-12 493.027

473.975 -15.5989 -2.10794e-13
-15.5989 423.175 1.75282e-12
-2.10794e-13 1.75282e-12 438.879

401.999 11.6032 7.46958e-13
11.6032 455.957 -6.01474e-12
7.46958e-13 -6.01474e-12 407.778

410.922 -25.7342 -4.80741e-12
-25.7342 435.58 1.73136e-12
-4.80741e-12 1.73136e-12 398.955

532.047 -25.2738 4.85626e-12
-25.2738 523.192 -1.82417e-12
4.85626e-12 -1.82417e-12 519.117

423.055 31.9595 4.62267e-12
31.9595 417.247 -2.14465e-12
4.62267e-12 -2.14465e-12 400.304

535.481 -25.1347 1.06877e-12
-25.1347 505.787 -3.75107e-13
1.06877e-12 -3.75107e-13 515.658

453.493 2.59737 -7.61465e-13
2.59737 397.018 2.45359e-13
-7.61465e-13 2.45359e-13 401.896

311.098 -28.9305 -2.04518e-12
-28.9305 376.596 3.54087e-12
-2.04518e-12 3.54087e-12 289.994

431.875 -29.231 -6.87272e-12
-29.231 424.047 -9.11271e-13
-6.87272e-12 -9.11271e-13 406.153

353.761 32.1589 -4.0572e-12
32.1589 392.544 -7.96282e-12
-4.0572e-12 -7.96282e-12 312.968

470.345 -11.8769 -5.72931e-13
-11.8769 529.551 -3.07843e-12
-5.72931e-13 -3.07843e-12 500.302

391.449 -13.8214 -2.44841e-12
-13.8214 449.252 2.45019e-12
-2.44841e-12 2.45019e-12 400.197

602.853 -23.9879 1.55328e-12
-23.9879 602.266 2.44693e-13
1.55328e-12 2.44693e-13 557.844

408.37 23.7708 -1.47023e-12
23.7708 441.939 -3.25192e-12
-1.47023e-12 -3.25192e-12 402.221

496.576 -32.7263 3.25399e-12
-32.7263 490.64 1.08002e-12
3.25399e-12 1.08002e-12 497.446

388.189 -11.9631 1.56623e-12
-11.9631 448.284 8.33703e-13
1.56623e-12 8.33703e-13 397.015

516.71 -19.1169 -2.68704e-12
-19.1169 465.753 1.28875e-12
-2.68704e-12 1.28875e-12 496.242

410.686 23.8771 -1.73017e-12
23.8771 439.311 -3.54561e-12
-1.73017e-12 -3.54561e-12 400.698

488.92 -4.97549 -1.69228e-12
-4.97549 435.07 -2.68863e-12
-1.69228e-12 -2.68863e-12 460.382

305.782 -30.3427 -7.35412e-13
-30.3427 391.438 -1.99426e-12
-7.35412e-13 -1.99426e-12 262.57

438.609 21.0141 1.99633e-12
21.0141 473.913 -4.15371e-12
1.99633e-12 -4.15371e-12 458.349

445.688 -19.3233 4.03825e-13
-19.3233 393.977 1.77843e-12
4.03825e-13 1.77843e-12 399.624

551.604 -21.4458 2.27078e-13
-21.4458 499.517 -4.97676e-12
2.27078e-13 -4.97676e-12 520.104

424.471 31.754 -1.78109e-12
31.754 413.323 -2.73559e-13
-1.78109e-12 -2.73559e-13 397.96

459.164 -29.9717 2.72612e-12
-29.9717 437.639 -4.30767e-13
2.72612e-12 -4.30767e-13 439.301

510.621 20.8853 -4.39115e-12
20.8853 476.074 3.69186e-13
-4.39115e-12 3.69186e-13 492.757

461.506 -28.0759 4.17311e-12
-28.0759 485.743 1.59036e-12
4.17311e-12 1.59036e-12 488.72

413.722 -26.2252 -2.63493e-13
-26.2252 436.247 -6.04198e-12
-2.63493e-13 -6.04198e-12 401.441

426.077 28.9811 1.99189e-12
28.9811 429.9 1.54069e-12
1.99189e-12 1.54069e-12 406.863

452.503 26.1913 1.61056e-12
26.1913 418.23 2.11327e-12
1.61056e-12 2.11327e-12 419.061

521.972 -14.61 -1.02673e-12
-14.61 477.18 1.85096e-12
-1.02673e-12 1.85096e-12 500.066

403.563 -16.6176 -7.76268e-13
-16.6176 451.745 1.20792e-12
-7.76268e-13 1.20792e-12 406.445

496.049 -17.5683 9.06534e-13
-17.5683 447.609 -1.22199e-12
9.06534e-13 -1.22199e-12 471.504

487.768 16.9085 7.33635e-13
16.9085 436.262 -1.16736e-12
7.33635e-13 -1.16736e-12 460.592

513.345 -9.38671 7.14984e-14
-9.38671 555.781 -1.00601e-12
7.14984e-14 -1.00601e-12 523.032

453.981 -13.43 1.79412e-12
-13.43 402.181 -5.18504e-12
1.79412e-12 -5.18504e-12 406.746

403.205 0.594038 -1.4951e-12
0.594038 465.728 -1.81307e-12
-1.4951e-12 -1.81307e-12 417.808

475.03 18.555 -2.94579e-12
18.555 428.775 1.51138e-12
-2.94579e-12 1.51138e-12 442.224

451.146 27.6039 -4.37931e-12
27.6039 421.842 8.58276e-13
-4.37931e-12 8.58276e-13 420.847

400.872 -15.6861 2.3744e-13
-15.6861 451.385 1.60938e-12
2.3744e-13 1.60938e-12 403.739

406.004 -1.20229 5.95294e-12
-1.20229 468.038 -1.99426e-12
5.95294e-12 -1.99426e-12 421.223

516.203 29.1343 3.59239e-12
29.1343 498.029 -1.88353e-12
3.59239e-12 -1.88353e-12 504.879

441.708 -10.9221 2.28765e-12
-10.9221 500.661 4.32957e-12
2.28765e-12 4.32957e-12 471.152

451.443 -26.7153 -1.19016e-12
-26.7153 418.769 9.31403e-13
-1.19016e-12 9.31403e-13 419.356

444.39 21.3326 1.70057e-12
21.3326 395.301 -5.38355e-12
1.70057e-12 -5.38355e-12 398.204

497.599 23.6653 -9.5568e-13
23.6653 458.094 -1.46757e-12
-9.5568e-13 -1.46757e-12 476.554

447.686 5.47081 6.80271e-13
5.47081 508.794 4.71919e-13
6.80271e-13 4.71919e-13 476.885

427.653 29.0655 -2.11801e-12
29.0655 426.438 -1.72958e-12
-2.11801e-12 -1.72958e-12 405.113

536.825 22.9638 1.44566e-12
22.9638 531.901 1.84549e-12
1.44566e-12 1.84549e-12 522.788

314.753 -59.6917 -3.57166e-12
-59.6917 282.771 5.37762e-12
-3.57166e-12 5.37762e-12 223.425

480.598 -25.0478 -2.49874e-13
-25.0478 445.075 -1.89922e-12
-2.49874e-13 -1.89922e-12 456.65

336.666 7.06991 -2.68378e-12
7.06991 409.159 2.02031e-12
-2.68378e-12 2.02031e-12 319.443

460.542 -28.8893 9.77588e-13
-28.8893 444.741 -5.35453e-12
9.77588e-13 -5.35453e-12 443.456

96.4246 -52.7013 2.4869e-14
-52.7013 306.62 -6.57489e-12
2.4869e-14 -6.57489e-12 113.7

95.9585 51.4519 -3.55982e-12
51.4519 306.884 -8.25651e-12
-3.55982e-12 -8.25651e-12 114.488

181.518 117.155 -4.77485e-12
117.155 226.078 -1.81425e-12
-4.77485e-12 -1.81425e-12 113.589

182.816 -117.098 4.61142e-12
-117.098 223.314 -2.34005e-12
4.61142e-12 -2.34005e-12 113.563

321.585 -1.36337 1.93268e-12
-1.36337 84.6541 1.70223e-14
1.93268e-12 1.70223e-14 114.93

274.435 -91.126 1.81899e-12
-91.126 127.419 4.45273e-13
1.81899e-12 4.45273e-13 113.803

275.131 91.6539 -4.04062e-12
91.6539 128.252 -1.79294e-12
-4.04062e-12 -1.79294e-12 114.573

525.244 14.3304 -3.29514e-13
14.3304 474.716 1.81751e-12
-3.29514e-13 1.81751e-12 502.318

556.8 25.5365 -7.64426e-13
25.5365 541.186 -3.45057e-12
-7.64426e-13 -3.45057e-12 533.453

492.096 6.60606 -4.12766e-12
6.60606 439.125 5.35705e-12
-4.12766e-12 5.35705e-12 471.406

470.304 21.7846 2.3892e-12
21.7846 424.52 -1.85333e-13
2.3892e-12 -1.85333e-13 438.198

409.979 17.7445 -2.44249e-13
17.7445 461.077 1.83616e-12
-2.44249e-13 1.83616e-12 425.047

448.014 28.8986 -5.47828e-12
28.8986 424.709 -2.77881e-12
-5.47828e-12 -2.77881e-12 420.754

487.153 -29.6635 1.63839e-12
-29.6635 465.631 -1.13124e-12
1.63839e-12 -1.13124e-12 474.593

449.372 28.0279 2.42413e-12
28.0279 421.075 -1.94985e-12
2.42413e-12 -1.94985e-12 418.645

402.967 -2.84127 3.34784e-12
-2.84127 465.385 -2.97954e-12
3.34784e-12 -2.97954e-12 417.544

555.806 -26.0973 -2.40163e-12
-26.0973 543.379 2.42917e-12
-2.40163e-12 2.42917e-12 533.697

405.505 -4.86242 -1.96968e-12
-4.86242 467.123 -1.19845e-12
-1.96968e-12 -1.19845e-12 420.603

522.296 23.0163 4.89505e-12
23.0163 499.746 3.04201e-13
4.89505e-12 3.04201e-13 507.973

423.382 26.8708 -1.86991e-12
26.8708 386.51 -3.58765e-12
-1.86991e-12 -3.58765e-12 373.03

480.113 -13.2161 5.61714e-12
-13.2161 532.772 1.86399e-12
5.61714e-12 1.86399e-12 512.005

484.202 13.728 -5.38828e-14
13.728 432.78 3.87838e-14
-5.38828e-14 3.87838e-14 456.879

457.372 -29.9877 3.80259e-12
-29.9877 436.98 -9.56272e-13
3.80259e-12 -9.56272e-13 437.837

454.312 -24.7135 5.28762e-12
-24.7135 416.808 -1.37372e-12
5.28762e-12 -1.37372e-12 419.857

547.408 -16.0748 1.26358e-12
-16.0748 509.309 -3.51215e-12
1.26358e-12 -3.51215e-12 519.388

475.976 27.929 5.9804e-13
27.929 449.71 2.18551e-12
5.9804e-13 2.18551e-12 456.929

469.105 23.9775 3.70074e-13
23.9775 427.853 1.00838e-12
3.70074e-13 1.00838e-12 439.834

432.432 -2.79293 -6.0274e-13
-2.79293 493.641 1.73491e-12
-6.0274e-13 1.73491e-12 457.111

417.611 5.87336 3.32378e-12
5.87336 479.561 1.26713e-13
3.32378e-12 1.26713e-13 440.181

463.015 2.64672 6.27646e-13
2.64672 402.283 2.75557e-12
6.27646e-13 2.75557e-12 422.325

438.651 -7.28968 5.98988e-12
-7.28968 373.918 -2.71427e-12
5.98988e-12 -2.71427e-12 381.222

454.848 30.4848 2.03926e-12
30.4848 439.019 2.70539e-12
2.03926e-12 2.70539e-12 437.84

478.469 -26.1555 -3.25192e-12
-26.1555 443.547 -1.55046e-12
-3.25192e-12 -1.55046e-12 454.65

525.704 -21.2544 2.58697e-12
-21.2544 497.833 1.28786e-13
2.58697e-12 1.28786e-13 508.622

437.737 -31.6338 1.12029e-12
-31.6338 437.659 -4.65702e-12
1.12029e-12 -4.65702e-12 426.863

417.594 -27.7857 -4.18747e-12
-27.7857 444.4 -7.22681e-12
-4.18747e-12 -7.22681e-12 419.692

430.651 29.8873 1.13687e-13
29.8873 442.748 -1.27483e-12
1.13687e-13 -1.27483e-12 426.501

416.229 -9.57795 -6.34715e-13
-9.57795 475.215 -1.66918e-12
-6.34715e-13 -1.66918e-12 436.459

428.899 -1.54483 2.44264e-12
-1.54483 491.872 2.8102e-12
2.44264e-12 2.8102e-12 453.998

445.186 5.74792 -1.41618e-12
5.74792 508.047 -7.75676e-14
-1.41618e-12 -7.75676e-14 474.918

414.622 -21.0892 -2.49223e-12
-21.0892 458.412 3.41297e-12
-2.49223e-12 3.41297e-12 426.069

496.873 24.1113 -1.61589e-12
24.1113 455.7 -1.82965e-13
-1.61589e-12 -1.82965e-13 474.597

483.377 -9.58979 -1.92675e-12
-9.58979 430.116 1.43796e-12
-1.92675e-12 1.43796e-12 455.225

415.637 7.46529 4.12043e-12
7.46529 477.125 1.62773e-12
4.12043e-12 1.62773e-12 436.917

443.959 -9.70111 2.83562e-12
-9.70111 501.508 4.0945e-12
2.83562e-12 4.0945e-12 471.011

433.178 -16.3307 -1.1912e-12
-16.3307 481.68 -3.72206e-12
-1.1912e-12 -3.72206e-12 455.672

463.543 -8.23924 2.36374e-12
-8.23924 406.339 -5.73586e-12
2.36374e-12 -5.73586e-12 421.475

494.438 -32.3468 -1.48977e-12
-32.3468 487.62 7.5732e-13
-1.48977e-12 7.5732e-13 496.255

422.948 9.32094 4.59632e-12
9.32094 479.095 1.51819e-12
4.59632e-12 1.51819e-12 440.984

564.361 -18.2127 -8.81813e-12
-18.2127 529.955 -7.54212e-13
-8.81813e-12 -7.54212e-13 531.835

309.051 24.8229 2.55322e-12
24.8229 379.426 -6.9799e-12
2.55322e-12 -6.9799e-12 289.8

501.702 -26.6262 -2.7575e-12
-26.6262 499.494 3.35539e-12
-2.7575e-12 3.35539e-12 501.204

515.653 -30.2028 4.09154e-13
-30.2028 498.408 -2.72227e-12
4.09154e-13 -2.72227e-12 504.923

429.227 -0.701258 2.84484e-12
-0.701258 491.998 5.42381e-13
2.84484e-12 5.42381e-13 454.149

474.886 -16.6226 -8.8581e-13
-16.6226 428.341 9.10679e-13
-8.8581e-13 9.10679e-13 441.96

462.309 12.8417 2.91532e-12
12.8417 511.279 4.45273e-13
2.91532e-12 4.45273e-13 489.125

240.778 -3.18059 -6.79197e-12
-3.18059 360.691 1.77399e-12
-6.79197e-12 1.77399e-12 226.968

432.408 14.2737 2.39364e-13
14.2737 485.361 -6.83483e-12
2.39364e-13 -6.83483e-12 456.887

458.116 -29.4894 -1.52293e-12
-29.4894 443.175 2.68052e-12
-1.52293e-12 2.68052e-12 440.766

304.19 25.1058 4.83998e-12
25.1058 394.588 -1.61767e-12
4.83998e-12 -1.61767e-12 264.343

603.553 26.0977 -3.0657e-13
26.0977 597.958 1.59132e-12
-3.0657e-13 1.59132e-12 558.161

608.287 -27.807 -3.03254e-12
-27.807 595.033 5.47355e-12
-3.03254e-12 5.47355e-12 558.294

463.498 -30.4192 -3.1702e-12
-30.4192 459.043 -5.10999e-13
-3.1702e-12 -5.10999e-13 459.077

434.589 -31.1604 5.36697e-12
-31.1604 436.364 5.38828e-14
5.36697e-12 5.38828e-14 424.666

474.106 20.8276 -1.7207e-12
20.8276 431.919 -1.71655e-12
-1.7207e-12 -1.71655e-12 443.977

465.227 15.0062 1.66918e-12
15.0062 410.121 -1.64283e-12
1.66918e-12 -1.64283e-12 427.467

646.071 3.08335 -8.7456e-13
3.08335 645.729 1.30365e-11
-8.7456e-13 1.30365e-11 574.623

649.892 -6.99984 8.72561e-13
-6.99984 641.399 1.42375e-12
8.72561e-13 1.42375e-12 575.151

496.993 4.82429 -4.6884e-12
4.82429 442.039 4.89268e-12
-4.6884e-12 4.89268e-12 477.417

443.562 6.73106 -5.01658e-12
6.73106 502.994 -9.166e-13
-5.01658e-12 -9.166e-13 471.055

441.976 6.73633 -1.56017e-12
6.73633 502.519 1.89241e-12
-1.56017e-12 1.89241e-12 469.778

321.539 58.6347 -6.26699e-12
58.6347 281.125 -9.37916e-13
-6.26699e-12 -9.37916e-13 225.079

420.233 -28.2 -2.38565e-12
-28.2 444.028 -1.00009e-12
-2.38565e-12 -1.00009e-12 421.036

520.583 17.9745 5.10407e-13
17.9745 467.535 -1.62507e-12
5.10407e-13 -1.62507e-12 499.514

472.985 9.5398 -1.80596e-12
9.5398 421.201 -7.90479e-13
-1.80596e-12 -7.90479e-13 436.207

440.635 -26.7235 2.11209e-12
-26.7235 450.731 -3.56515e-12
2.11209e-12 -3.56515e-12 433.42

469.281 -20.2378 1.05634e-12
-20.2378 422.721 -7.48142e-13
1.05634e-12 -7.48142e-13 437.181

312.476 60.2326 1.66267e-12
60.2326 281.375 -5.92119e-15
1.66267e-12 -5.92119e-15 223.217

492.686 31.0692 -2.02209e-12
31.0692 489.047 -9.85286e-13
-2.02209e-12 -9.85286e-13 493.143

410.867 -19.7863 -2.38772e-12
-19.7863 457.886 3.13941e-12
-2.38772e-12 3.13941e-12 423.502

474.133 28.8579 1.78761e-12
28.8579 449.636 -2.03926e-12
1.78761e-12 -2.03926e-12 456.523

430.961 -4.14488 -1.34026e-12
-4.14488 492.978 -1.14753e-12
-1.34026e-12 -1.14753e-12 456.472

423.935 19.6094 -5.81076e-12
19.6094 465.716 2.47565e-12
-5.81076e-12 2.47565e-12 434.113

452.752 30.519 -5.39835e-12
30.519 443.603 -1.9309e-12
-5.39835e-12 -1.9309e-12 439.613

428.648 -22.4734 -1.06226e-12
-22.4734 461.142 1.64254e-12
-1.06226e-12 1.64254e-12 433.817

443.579 -27.3528 2.11742e-12
-27.3528 450.438 -1.01015e-12
2.11742e-12 -1.01015e-12 435.05

294.781 11.2571 2.67505e-12
11.2571 372.589 1.07221e-11
2.67505e-12 1.07221e-11 258.104

357.302 -33.4565 1.95755e-12
-33.4565 389.121 4.40773e-12
1.95755e-12 4.40773e-12 314.132

419.662 -11.6906 -1.4541e-12
-11.6906 476.366 -1.25529e-12
-1.4541e-12 -1.25529e-12 439.349

478.402 26.4847 -1.36306e-12
26.4847 446.804 -3.28922e-12
-1.36306e-12 -3.28922e-12 456.089

452.35 29.4781 -3.49291e-12
29.4781 449.031 -9.78773e-13
-3.49291e-12 -9.78773e-13 442.404

426.813 -21.4341 2.56684e-12
-21.4341 461.789 -2.0132e-13
2.56684e-12 -2.0132e-13 432.635

422.935 -11.7825 -1.02733e-12
-11.7825 476.652 -9.66338e-13
-1.02733e-12 -9.66338e-13 439.933

457.711 28.4097 8.42585e-13
28.4097 447.092 2.825e-12
8.42585e-13 2.825e-12 442.576

425.11 -13.8779 -1.42109e-13
-13.8779 476.424 1.5703e-12
-1.42109e-13 1.5703e-12 442.11

311.268 27.8552 -6.942e-12
27.8552 377.395 -9.30811e-13
-6.942e-12 -9.30811e-13 289.987

485.174 -4.0412 -5.87555e-13
-4.0412 545.054 3.78542e-12
-5.87555e-13 3.78542e-12 511.041

432.99 31.0278 8.05874e-13
31.0278 439.633 2.52065e-12
8.05874e-13 2.52065e-12 426.024

509.315 14.9013 4.70616e-12
14.9013 463.166 -2.20949e-12
4.70616e-12 -2.20949e-12 488.61

516.926 -15.9276 -1.68221e-12
-15.9276 467.586 2.45729e-13
-1.68221e-12 2.45729e-13 493.928

383.929 -24.2047 1.7432e-12
-24.2047 305.951 1.30148e-12
1.7432e-12 1.30148e-12 285.357

442.283 -21.2674 -2.68644e-12
-21.2674 476.004 5.88566e-13
-2.68644e-12 5.88566e-13 459.325

447.832 26.6985 -5.12686e-12
26.6985 466.212 2.77941e-12
-5.12686e-12 2.77941e-12 457.846

522.979 -21.7278 -7.00891e-12
-21.7278 543.815 -2.74854e-12
-7.00891e-12 -2.74854e-12 525.313

579.586 14.1064 -5.49042e-13
14.1064 617.623 1.87998e-12
-5.49042e-13 1.87998e-12 557.056

620.209 9.44533 2.07686e-13
9.44533 576.844 -6.75312e-13
2.07686e-13 -6.75312e-13 556.874

523.474 32.7054 1.24996e-12
32.7054 520.655 -1.68635e-12
1.24996e-12 -1.68635e-12 519.528

414.895 26.0006 -3.98674e-12
26.0006 448.91 -2.38032e-12
-3.98674e-12 -2.38032e-12 420.38

478.1 26.6616 1.96465e-12
26.6616 444.774 -9.82917e-14
1.96465e-12 -9.82917e-14 455.512

332.366 45.1864 9.11863e-14
45.1864 349.493 3.64864e-12
9.11863e-14 3.64864e-12 286.743

571.393 -11.3435 -1.54395e-12
-11.3435 614.474 -3.09737e-12
-1.54395e-12 -3.09737e-12 554.598

641.328 -3.43282 3.27124e-12
-3.43282 636.871 -7.78059e-12
3.27124e-12 -7.78059e-12 572.399

634.906 -0.209935 -5.12331e-13
-0.209935 643.178 1.02552e-11
-5.12331e-13 1.02552e-11 572.226

272.966 -53.8029 3.65574e-12
-53.8029 316.45 9.18969e-13
3.65574e-12 9.18969e-13 220.911

566.641 -11.5999 -5.06276e-12
-11.5999 562.128 1.53359e-12
-5.06276e-12 1.53359e-12 540.902

563.774 8.81288 7.81597e-14
8.81288 586.965 -1.48799e-12
7.81597e-14 -1.48799e-12 546.843

478.248 -26.1997 -1.32457e-12
-26.1997 440.446 6.91595e-13
-1.32457e-12 6.91595e-13 453.486

494.352 1.01098 5.04559e-13
1.01098 545.763 2.81434e-12
5.04559e-13 2.81434e-12 514.061

447.655 -20.268 -4.26577e-12
-20.268 484.162 -2.77467e-12
-4.26577e-12 -2.77467e-12 470.641

506.305 6.25535 -3.58587e-12
6.25535 443.379 6.62507e-12
-3.58587e-12 6.62507e-12 486.129

461.279 15.5963 -8.27574e-13
15.5963 521.257 -7.24458e-13
-8.27574e-13 -7.24458e-13 497.56

471.185 7.19156 -4.41906e-13
7.19156 528.01 -2.01439e-12
-4.41906e-13 -2.01439e-12 497.694

493.767 20.3929 9.97128e-13
20.3929 451.521 -1.62537e-12
9.97128e-13 -1.62537e-12 469.755

241.067 -3.1139 4.43312e-12
-3.1139 358.563 -3.78956e-13
4.43312e-12 -3.78956e-13 227.066

463.705 -27.6239 9.8351e-13
-27.6239 463.395 2.61124e-13
9.8351e-13 2.61124e-13 461.195

488.349 -26.1165 1.58451e-12
-26.1165 481.602 5.53631e-14
1.58451e-12 5.53631e-14 485.873

497.542 -31.4837 1.19845e-12
-31.4837 489.962 1.619e-12
1.19845e-12 1.619e-12 498.985

355.603 32.7498 -1.49214e-13
32.7498 285.781 -9.0831e-13
-1.49214e-13 -9.0831e-13 248.369

563.884 -20.1164 -8.41756e-12
-20.1164 569.616 -1.68732e-12
-8.41756e-12 -1.68732e-12 542.574

337.65 54.3226 -9.30574e-12
54.3226 356.661 -1.83083e-12
-9.30574e-12 -1.83083e-12 258.877

477.075 -21.4395 2.86141e-13
-21.4395 506.494 -2.59052e-12
2.86141e-13 -2.59052e-12 500.248

504.777 14.6504 -6.43219e-12
14.6504 451.991 -3.39136e-13
-6.43219e-12 -3.39136e-13 481.564

449.835 -14.5726 2.20742e-12
-14.5726 396.99 -9.37472e-13
2.20742e-12 -9.37472e-13 400.844

452.598 24.0468 1.58747e-12
24.0468 478.784 -4.70616e-12
1.58747e-12 -4.70616e-12 467.852

493.671 20.4281 4.19102e-12
20.4281 449.505 -4.1475e-12
4.19102e-12 -4.1475e-12 469.346

505.569 11.4004 9.65894e-13
11.4004 564.419 -2.38535e-12
9.65894e-13 -2.38535e-12 526.715

475.9 -31.5803 -1.65793e-13
-31.5803 470.36 9.05054e-13
-1.65793e-13 9.05054e-13 475.068

559.273 19.8124 -1.59339e-12
19.8124 510.443 9.00317e-13
-1.59339e-12 9.00317e-13 526.491

439.962 -18.4436 -3.76913e-12
-18.4436 482.469 -1.37372e-13
-3.76913e-12 -1.37372e-13 459.153

465.901 4.28324 -6.65768e-13
4.28324 526.111 1.59872e-13
-6.65768e-13 1.59872e-13 495.514

588.642 9.92684 5.26986e-14
9.92684 552.465 -2.60651e-12
5.26986e-14 -2.60651e-12 545.192

590.425 -8.51347 -2.22518e-12
-8.51347 554.807 3.40868e-12
-2.22518e-12 3.40868e-12 545.709

382.313 18.5125 -1.80241e-12
18.5125 302.29 2.19854e-12
-1.80241e-12 2.19854e-12 286.137

502.682 7.96507 3.10862e-13
7.96507 453.604 1.69213e-12
3.10862e-13 1.69213e-12 487.769

232.817 7.74054 7.11357e-12
7.74054 381.518 -8.47914e-13
7.11357e-12 -8.47914e-13 187.188

236.987 -11.3852 -6.16899e-12
-11.3852 387.212 -4.40536e-13
-6.16899e-12 -4.40536e-13 189.452

249.289 56.407 8.88178e-13
56.407 354.779 3.21165e-12
8.88178e-13 3.21165e-12 184.024

505.019 -28.9506 -2.36552e-12
-28.9506 478.619 1.47586e-12
-2.36552e-12 1.47586e-12 491.347

258.474 -49.1906 -2.6444e-12
-49.1906 341.844 -2.63138e-12
-2.6444e-12 -2.63138e-12 220.736

249.295 -55.9495 -3.31587e-14
-55.9495 344.754 3.62377e-12
-3.31587e-14 3.62377e-12 181.117

434.658 26.2202 2.02149e-12
26.2202 454.396 -7.61761e-12
2.02149e-12 -7.61761e-12 432.828

329.926 73.8438 -1.80478e-12
73.8438 280.012 1.7503e-12
-1.80478e-12 1.7503e-12 184.829

540.13 13.0472 8.47914e-13
13.0472 554.95 3.20899e-12
8.47914e-13 3.20899e-12 532.08

562.387 0.0395797 5.10229e-12
0.0395797 532.457 -3.40409e-12
5.10229e-12 -3.40409e-12 531.873

338.604 -73.1293 4.99748e-12
-73.1293 279.86 -9.11863e-13
4.99748e-12 -9.11863e-13 186.311

432.673 -23.424 2.11386e-12
-23.424 466.314 -1.79234e-12
2.11386e-12 -1.79234e-12 447.575

358.934 34.7292 9.18969e-13
34.7292 310.978 -8.62125e-13
9.18969e-13 -8.62125e-13 258.04

267.707 63.4908 3.20455e-12
63.4908 345.213 -1.72425e-12
3.20455e-12 -1.72425e-12 185.846

293.695 21.6302 -7.74492e-13
21.6302 367.664 1.09803e-11
-7.74492e-13 1.09803e-11 254.499

267.578 -65.9197 -2.63848e-12
-65.9197 344.848 -4.47168e-12
-2.63848e-12 -4.47168e-12 184.302

291.642 -12.3811 5.30716e-12
-12.3811 370.885 7.65255e-12
5.30716e-12 7.65255e-12 253.445

550.309 6.84156 -1.07965e-12
6.84156 582.08 -4.97261e-12
-1.07965e-12 -4.97261e-12 541.12

329.892 -45.9748 -2.55677e-12
-45.9748 341.818 -5.33854e-12
-2.55677e-12 -5.33854e-12 276.617

259.783 47.5319 3.70311e-12
47.5319 340.219 1.58214e-12
3.70311e-12 1.58214e-12 223.147

370.219 37.9114 -2.7048e-12
37.9114 244.922 -6.2658e-12
-2.7048e-12 -6.2658e-12 187.358

481.894 -29.2858 -3.75759e-12
-29.2858 460.515 1.85925e-12
-3.75759e-12 1.85925e-12 467.718

480.98 12.8967 2.24783e-13
12.8967 525.833 5.0715e-13
2.24783e-13 5.0715e-13 504.107

354.421 -38.1124 -4.41484e-12
-38.1124 300.079 1.68162e-13
-4.41484e-12 1.68162e-13 251.817

482.538 -28.8022 -3.14593e-12
-28.8022 460.324 9.76108e-13
-3.14593e-12 9.76108e-13 468.466

365.266 -36.3432 7.29964e-12
-36.3432 230.99 -7.03378e-12
7.29964e-12 -7.03378e-12 182.771

481.506 -28.3175 1.81958e-12
-28.3175 472.758 3.7866e-13
1.81958e-12 3.7866e-13 477.922

436.357 -25.2949 1.3222e-12
-25.2949 466.228 -3.75285e-12
1.3222e-12 -3.75285e-12 448.213

314.8 69.4603 2.74743e-12
69.4603 292.144 3.6285e-12
2.74743e-12 3.6285e-12 184.525

290.784 -22.9328 4.87432e-12
-22.9328 359.167 2.77585e-12
4.87432e-12 2.77585e-12 247.031

312.402 -71.6923 8.66862e-13
-71.6923 288.124 1.81425e-12
8.66862e-13 1.81425e-12 182.028

268.548 50.7373 -1.80715e-12
50.7373 320.062 7.24754e-12
-1.80715e-12 7.24754e-12 221.506

459.865 -30.2122 3.3887e-12
-30.2122 454.849 3.90295e-12
3.3887e-12 3.90295e-12 454.404

559.289 -14.6404 -3.88134e-13
-14.6404 544.415 5.29295e-12
-3.88134e-13 5.29295e-12 533.72

635.923 11.0924 -6.8164e-12
11.0924 631.385 4.72689e-12
-6.8164e-12 4.72689e-12 570.022

619.958 -5.16003 9.87358e-14
-5.16003 639.739 -6.82608e-12
9.87358e-14 -6.82608e-12 568.5

453.873 13.0836 -1.88455e-12
13.0836 506.559 1.73372e-12
-1.88455e-12 1.73372e-12 482.576

634.152 -10.6668 -1.05216e-11
-10.6668 631.315 7.58445e-12
-1.05216e-11 7.58445e-12 569.877

622.697 4.09179 1.00295e-11
4.09179 642.685 5.24025e-13
1.00295e-11 5.24025e-13 569.701

643.376 7.43383 -4.98135e-12
7.43383 619.149 -3.13557e-12
-4.98135e-12 -3.13557e-12 569.024

584.778 -12.1149 -7.27714e-12
-12.1149 631.669 5.63579e-12
-7.27714e-12 5.63579e-12 560.596

307.446 -30.4701 -4.46102e-12
-30.4701 371.636 7.24043e-12
-4.46102e-12 7.24043e-12 280.772

589.628 -12.9721 4.67596e-12
-12.9721 549.115 9.94316e-12
4.67596e-12 9.94316e-12 543.829

527.21 -34.4176 -7.24931e-12
-34.4176 521.49 2.53915e-12
-7.24931e-12 2.53915e-12 519.968

565.467 -18.1769 2.77822e-12
-18.1769 537.992 3.98363e-12
2.77822e-12 3.98363e-12 534.261

502.574 15.4593 -1.74261e-12
15.4593 452.119 -1.61974e-12
-1.74261e-12 -1.61974e-12 480.21

586.351 9.86407 -2.65939e-12
9.86407 642.136 7.79377e-13
-2.65939e-12 7.79377e-13 563.106

636.658 19.2274 -1.43396e-12
19.2274 591.724 -3.3152e-12
-1.43396e-12 -3.3152e-12 562.927

569.778 11.3065 -3.18945e-12
11.3065 544.341 -8.77224e-13
-3.18945e-12 -8.77224e-13 536.439

353.445 -15.3394 -9.90733e-12
-15.3394 231.517 -3.53732e-12
-9.90733e-12 -3.53732e-12 219.016

437.21 24.9642 8.23993e-12
24.9642 461.916 5.11354e-12
8.23993e-12 5.11354e-12 445.725

317.092 -61.3549 -2.71901e-12
-61.3549 277.851 1.86399e-12
-2.71901e-12 1.86399e-12 218.09

334.211 -57.4574 -8.90784e-12
-57.4574 357.325 -5.44276e-12
-8.90784e-12 -5.44276e-12 252.542

383.337 -36.5442 -4.44326e-12
-36.5442 305.741 2.36848e-14
-4.44326e-12 2.36848e-14 257.762

562.499 -5.15893 3.42852e-12
-5.15893 616.953 4.5007e-12
3.42852e-12 4.5007e-12 552.953

562.206 2.89125 -1.42109e-13
2.89125 615.818 8.02765e-12
-1.42109e-13 8.02765e-12 552.551

598.772 -24.456 -4.04713e-13
-24.456 575.744 -2.03252e-12
-4.04713e-13 -2.03252e-12 551.581

602.331 -21.7602 -6.72532e-12
-21.7602 573.435 1.25115e-12
-6.72532e-12 1.25115e-12 551.847

598.785 26.1357 4.04624e-12
26.1357 580.46 2.53271e-12
4.04624e-12 2.53271e-12 552.736

625.743 3.09925 -1.15297e-11
3.09925 630.736 -1.71936e-11
-1.15297e-11 -1.71936e-11 568.422

599.061 -20.5087 2.55677e-12
-20.5087 576.356 2.71413e-13
2.55677e-12 2.71413e-13 552.27

607.812 -18.5681 -4.07778e-12
-18.5681 620.264 9.69251e-12
-4.07778e-12 9.69251e-12 563.188

632.901 2.43436 9.24801e-12
2.43436 635.527 2.48601e-12
9.24801e-12 2.48601e-12 570.508

607.888 -20.526 1.88242e-12
-20.526 572.429 -6.88042e-13
1.88242e-12 -6.88042e-13 553.408

607.073 20.9555 1.57185e-12
20.9555 573.687 1.20289e-12
1.57185e-12 1.20289e-12 553.812

633.853 -3.45837 -4.04536e-12
-3.45837 636.778 -1.87968e-12
-4.04536e-12 -1.87968e-12 571.282

632.182 -3.11698 7.90286e-12
-3.11698 625.757 4.73695e-14
7.90286e-12 4.73695e-14 569.397

609.683 12.1097 8.05741e-12
12.1097 620.486 -8.40069e-13
8.05741e-12 -8.40069e-13 563.919

587.205 26.9294 2.41881e-13
26.9294 583.02 4.5472e-13
2.41881e-13 4.5472e-13 551.705

FIELD solute_concentration_TPM 2
S_ext 1 563 float
0.968766
0.96858
0.9686
0.968582
0.968552
0.9686
0.968766
0.968591
0.968616
0.968584
0.968728
0.968591
0.968595
0.968583
0.968559
0.968598
0.968575
0.96859
0.96862
0.968603
0.968609
0.9685
0.968605
0.968603
0.968603
0.968586
0.968718
0.968598
0.968667
0.968527
0.968596
0.968666
0.968723
0.968536
0.968535
0.968536
0.968523
0.968537
0.968596
0.968723
0.968666
0.968523
0.968523
0.968596
0.968699
0.968666
0.968618
0.968614
0.9686
0.968675
0.96867
0.968652
0.96855
0.968653
0.968552
0.968704
0.968534
0.968652
0.968534
0.968601
0.968574
0.968567
0.968715
0.968569
0.968567
0.96858
0.968574
0.968587
0.968604
0.96858
0.968551
0.968551
0.968668
0.968576
0.9686
0.968727
0.968561
0.96858
0.968587
0.968644
0.968684
0.968548
0.96857
0.968686
0.968666
0.968702
0.968598
0.968579
0.968698
0.968508
0.968652
0.968509
0.968559
0.968582
0.968652
0.96867
0.968685
0.968584
0.968562
0.968596
0.968634
0.968663
0.968686
0.968586
0.968586
0.968585
0.968569
0.968598
0.968687
0.968575
0.968601
0.968695
0.96869
0.968588
0.968585
0.968653
0.968537
0.968687
0.968538
0.968652
0.968625
0.96856
0.968579
0.968575
0.968575
0.968558
0.968541
0.968584
0.968686
0.968651
0.968549
0.96858
0.96857
0.96858
0.968663
0.968534
0.968696
0.968595
0.96857
0.968534
0.96866
0.968588
0.968624
0.968584
0.968688
0.968585
0.96859
0.968602
0.968601
0.968637
0.968613
0.968579
0.968665
0.968595
0.968584
0.96858
0.968582
0.96866
0.968659
0.968592
0.968613
0.968664
0.968698
0.968669
0.968659
0.968585
0.96866
0.968661
0.968666
0.968659
0.968558
0.968652
0.96867
0.968581
0.968652
0.96857
0.968558
0.968592
0.968552
0.968587
0.968668
0.968584
0.968584
0.96866
0.968578
0.968671
0.968575
0.968571
0.968559
0.968584
0.968578
0.968684
0.968651
0.968665
0.96858
0.968589
0.968588
0.96857
0.968579
0.968581
0.968579
0.968619
0.968644
0.968571
0.968668
0.96857
0.968581
0.968662
0.968566
0.968579
0.968566
0.968585
0.968586
0.96857
0.968636
0.968584
0.968643
0.968571
0.968575
0.968574
0.968575
0.968575
0.968575
0.968575
0.968584
0.96856
0.96856
0.968559
0.968559
0.968553
0.968552
0.968637
0.968583
0.968579
0.968615
0.96856
0.968559
0.96858
0.968643
0.96858
0.968584
0.968636
0.968565
0.968637
0.96857
0.968579
0.968635
0.968642
0.968684
0.968677
0.96857
0.968691
0.968596
0.968643
0.96862
0.96858
0.968575
0.968524
0.968575
0.968695
0.968642
0.968579
0.968591
0.968644
0.968574
0.968624
0.968524
0.968643
0.968574
0.968577
0.968588
0.96856
0.96858
0.968552
0.968594
0.968697
0.968702
0.968557
0.968607
0.968591
0.968639
0.968565
0.968581
0.968642
0.968582
0.968633
0.96859
0.968634
0.968643
0.968514
0.968556
0.968557
0.968558
0.968584
0.968633
0.968537
0.968577
0.968612
0.968632
0.968638
0.968556
0.968636
0.96856
0.968637
0.968699
0.968633
0.968689
0.96857
0.968635
0.968514
0.968636
0.968574
0.968637
0.968575
0.968636
0.968599
0.968722
0.968599
0.968637
0.968554
0.968636
0.968612
0.968578
0.968579
0.968636
0.968633
0.968624
0.968572
0.968633
0.968592
0.968598
0.968553
0.968633
0.968625
0.96861
0.968624
0.968634
0.968623
0.968568
0.968591
0.968625
0.968636
0.968588
0.968588
0.968633
0.968553
0.968735
0.968601
0.968684
0.96861
0.968792
0.968792
0.96879
0.96879
0.968787
0.968797
0.968797
0.96857
0.968543
0.968591
0.968612
0.96862
0.968624
0.96859
0.968624
0.968625
0.968543
0.968624
0.968566
0.968652
0.968561
0.9686
0.968613
0.968625
0.968558
0.968601
0.968612
0.968601
0.968611
0.968622
0.968646
0.968612
0.968603
0.968565
0.968619
0.968623
0.96862
0.968613
0.968602
0.968589
0.968619
0.968589
0.968602
0.968613
0.968591
0.968601
0.968623
0.968574
0.968611
0.968543
0.968699
0.968571
0.968568
0.968602
0.968611
0.968579
0.968735
0.9686
0.968612
0.96872
0.968518
0.968518
0.968599
0.968621
0.96861
0.968619
0.9685
0.968499
0.968588
0.968592
0.968592
0.968739
0.968622
0.968573
0.968615
0.968616
0.968613
0.968734
0.968576
0.968621
0.968601
0.968601
0.968616
0.968612
0.968616
0.968615
0.968721
0.968689
0.968612
0.968601
0.968611
0.968617
0.968612
0.96861
0.96861
0.9687
0.968562
0.968619
0.96858
0.968576
0.968701
0.968599
0.9686
0.968553
0.968512
0.968512
0.968556
0.968623
0.968602
0.968702
0.968515
0.968499
0.968498
0.968736
0.968536
0.968526
0.968603
0.96856
0.968592
0.968582
0.968573
0.968573
0.968593
0.968734
0.968599
0.968583
0.968574
0.968728
0.968531
0.968727
0.968571
0.968586
0.968635
0.968595
0.968593
0.968548
0.968589
0.968548
0.9686
0.968575
0.96853
0.968531
0.968704
0.96858
0.968768
0.968769
0.968769
0.968578
0.96874
0.96877
0.968617
0.968768
0.968547
0.968547
0.968768
0.968606
0.968724
0.968773
0.968724
0.968773
0.968724
0.968536
0.968708
0.968739
0.968766
0.968594
0.968568
0.968727
0.968593
0.968767
0.968587
0.968606
0.968773
0.968727
0.968774
0.968735
0.968602
0.968543
0.968499
0.9685
0.968583
0.968499
0.968499
0.9685
0.96851
0.968705
0.96853
0.968557
0.968544
0.968586
0.968508
0.968508
0.968543
0.968736
0.968608
0.968743
0.968731
0.968722
0.968516
0.968516
0.968518
0.968518
0.968516
0.968503
0.968521
0.968509
0.968503
0.968519
0.968518
0.968502
0.968502
0.968508
0.968521
P_ext 1 563 float
0.0190918
0.0190871
0.0190878
0.0190872
0.0190854
0.0190878
0.0190918
0.0190875
0.0190883
0.0190872
0.019091
0.0190874
0.0190876
0.0190872
0.0190859
0.0190878
0.0190868
0.0190874
0.0190884
0.0190879
0.0190881
0.0190823
0.0190879
0.0190879
0.0190879
0.0190873
0.0190908
0.0190877
0.0190897
0.0190839
0.0190877
0.0190896
0.0190909
0.0190845
0.0190844
0.0190845
0.0190838
0.0190846
0.0190876
0.0190909
0.0190896
0.0190838
0.0190838
0.0190876
0.0190904
0.0190896
0.0190884
0.0190882
0.0190878
0.0190899
0.0190897
0.0190893
0.0190854
0.0190893
0.0190855
0.0190905
0.0190844
0.0190893
0.0190844
0.0190878
0.0190868
0.0190864
0.0190907
0.0190864
0.0190863
0.0190869
0.0190867
0.0190873
0.0190879
0.019087
0.0190854
0.0190854
0.0190897
0.0190867
0.0190878
0.019091
0.019086
0.0190869
0.0190873
0.0190891
0.01909
0.0190852
0.0190865
0.0190901
0.0190896
0.0190905
0.0190877
0.0190868
0.0190904
0.0190825
0.0190893
0.0190825
0.0190858
0.0190869
0.0190893
0.0190897
0.0190901
0.0190872
0.019086
0.0190877
0.0190888
0.0190896
0.0190901
0.0190874
0.0190872
0.0190873
0.0190864
0.0190877
0.0190901
0.0190868
0.0190878
0.0190903
0.0190902
0.0190874
0.0190873
0.0190893
0.0190844
0.0190901
0.0190844
0.0190893
0.0190885
0.019086
0.019087
0.0190867
0.0190867
0.0190858
0.0190846
0.0190872
0.0190901
0.0190892
0.0190853
0.0190871
0.0190865
0.0190871
0.0190896
0.0190843
0.0190903
0.0190876
0.0190864
0.0190843
0.0190895
0.0190872
0.0190885
0.0190872
0.0190902
0.0190873
0.0190873
0.0190878
0.0190878
0.0190889
0.0190881
0.019087
0.0190896
0.0190876
0.0190872
0.0190871
0.0190871
0.0190895
0.0190895
0.0190875
0.0190882
0.0190896
0.0190904
0.0190897
0.0190895
0.0190873
0.0190895
0.0190895
0.0190896
0.0190895
0.0190858
0.0190893
0.0190897
0.019087
0.0190893
0.0190864
0.0190858
0.0190874
0.0190854
0.0190872
0.0190897
0.0190872
0.0190872
0.0190895
0.0190868
0.0190898
0.0190867
0.0190865
0.0190858
0.0190872
0.0190868
0.0190901
0.0190893
0.0190896
0.0190871
0.0190875
0.0190874
0.0190865
0.019087
0.019087
0.019087
0.0190884
0.0190891
0.0190866
0.0190897
0.0190865
0.0190869
0.0190895
0.0190862
0.019087
0.0190862
0.0190871
0.0190873
0.0190865
0.0190888
0.0190871
0.0190891
0.0190865
0.0190868
0.0190868
0.0190868
0.0190868
0.0190868
0.0190869
0.0190871
0.0190859
0.0190859
0.0190859
0.0190859
0.0190854
0.0190854
0.0190889
0.0190871
0.019087
0.0190883
0.0190859
0.0190858
0.019087
0.0190891
0.0190871
0.0190872
0.0190889
0.0190861
0.0190889
0.0190865
0.0190871
0.0190888
0.0190891
0.0190901
0.0190899
0.0190865
0.0190902
0.0190877
0.0190891
0.0190884
0.0190871
0.0190868
0.0190838
0.0190868
0.0190903
0.019089
0.019087
0.0190874
0.0190891
0.0190868
0.0190885
0.0190838
0.0190891
0.0190867
0.0190868
0.0190874
0.0190859
0.0190868
0.0190854
0.0190876
0.0190903
0.0190905
0.0190856
0.019088
0.0190874
0.0190889
0.0190861
0.0190871
0.019089
0.019087
0.0190888
0.0190873
0.0190888
0.0190891
0.0190831
0.0190857
0.0190858
0.0190858
0.0190872
0.0190888
0.0190846
0.0190868
0.0190882
0.0190888
0.0190889
0.0190857
0.0190889
0.0190858
0.0190889
0.0190904
0.0190888
0.0190902
0.0190865
0.0190889
0.0190831
0.0190889
0.0190866
0.0190889
0.0190867
0.0190889
0.0190877
0.0190909
0.0190878
0.0190889
0.0190856
0.0190889
0.0190881
0.0190868
0.0190871
0.0190889
0.0190888
0.0190885
0.0190865
0.0190888
0.0190874
0.0190877
0.0190855
0.0190888
0.0190886
0.0190881
0.0190885
0.0190888
0.0190885
0.0190862
0.0190874
0.0190886
0.0190889
0.0190873
0.0190873
0.0190888
0.0190855
0.0190911
0.0190877
0.0190901
0.019088
0.0190923
0.0190923
0.0190923
0.0190923
0.0190922
0.0190924
0.0190924
0.0190864
0.0190848
0.0190874
0.0190881
0.0190884
0.0190885
0.0190873
0.0190885
0.0190886
0.0190848
0.0190885
0.0190862
0.0190893
0.019086
0.0190877
0.0190882
0.0190886
0.0190856
0.0190878
0.0190882
0.0190877
0.0190881
0.0190885
0.0190891
0.0190881
0.0190878
0.0190862
0.0190884
0.0190885
0.0190884
0.0190882
0.0190878
0.0190873
0.0190884
0.0190873
0.0190878
0.0190882
0.0190874
0.0190878
0.0190885
0.0190867
0.0190881
0.0190849
0.0190904
0.0190865
0.0190862
0.0190878
0.0190882
0.0190869
0.0190911
0.0190878
0.0190882
0.0190908
0.0190832
0.0190832
0.0190877
0.0190884
0.0190881
0.0190884
0.0190819
0.0190819
0.0190873
0.0190874
0.0190874
0.0190912
0.0190885
0.0190866
0.0190883
0.0190883
0.0190882
0.0190911
0.0190867
0.0190885
0.0190878
0.0190878
0.0190883
0.0190882
0.0190883
0.0190883
0.0190909
0.0190902
0.0190881
0.0190877
0.0190881
0.0190883
0.0190882
0.0190881
0.0190881
0.0190904
0.019086
0.0190884
0.0190869
0.0190867
0.0190904
0.0190878
0.0190878
0.0190854
0.0190831
0.0190831
0.0190856
0.0190885
0.0190877
0.0190905
0.0190832
0.0190821
0.0190822
0.0190912
0.0190845
0.0190839
0.0190879
0.0190859
0.0190875
0.0190871
0.0190866
0.0190866
0.0190874
0.0190911
0.0190877
0.019087
0.0190866
0.019091
0.0190842
0.019091
0.0190866
0.0190872
0.0190888
0.0190876
0.0190875
0.0190852
0.0190874
0.0190852
0.0190878
0.0190867
0.019084
0.019084
0.0190905
0.019087
0.0190918
0.0190918
0.0190918
0.0190868
0.0190913
0.0190919
0.0190884
0.0190918
0.0190852
0.0190852
0.0190918
0.019088
0.0190909
0.0190919
0.0190909
0.0190919
0.0190909
0.0190845
0.0190906
0.0190912
0.0190918
0.0190875
0.0190864
0.019091
0.0190875
0.0190918
0.0190872
0.019088
0.0190919
0.019091
0.0190919
0.0190912
0.0190878
0.0190849
0.0190822
0.0190823
0.0190871
0.0190822
0.0190822
0.0190823
0.0190828
0.0190905
0.0190842
0.0190856
0.0190848
0.0190871
0.0190827
0.0190827
0.0190848
0.0190912
0.0190881
0.0190913
0.0190911
0.0190909
0.0190833
0.0190834
0.0190835
0.0190834
0.0190834
0.0190823
0.0190835
0.0190826
0.0190822
0.0190833
0.0190833
0.0190822
0.0190823
0.0190826
0.0190835
FIELD solute_flux_TPM 2
S_ext 3 563 float
-5.2982e-05 1.77201e-05 -4.65762e-19
2.34245e-06 4.4652e-06 -1.68659e-19
-8.25429e-06 -6.54555e-06 3.43288e-19
-2.72077e-06 2.74627e-06 1.65389e-19
1.5174e-05 -4.34346e-06 -5.4898e-18
1.78675e-06 -1.02961e-05 -1.16719e-18
-5.21729e-05 -1.79357e-05 -4.59936e-19
-9.0368e-06 -6.70413e-06 2.85377e-18
1.43395e-05 6.11767e-07 8.28635e-19
7.47475e-06 -2.64134e-06 -2.01375e-18
3.52857e-05 8.21498e-06 1.39931e-18
1.49365e-06 -1.11763e-05 -8.41086e-19
8.92998e-06 7.25519e-06 -2.50315e-18
1.76686e-06 8.94665e-06 1.18656e-18
1.37574e-05 -2.02751e-06 -5.79347e-18
-1.04687e-05 -1.70681e-07 2.16559e-18
1.85393e-06 9.241e-06 -6.71725e-19
6.65655e-06 -1.59887e-06 -4.35883e-18
6.38528e-06 1.11304e-05 1.49041e-18
-9.53843e-06 1.20894e-06 1.1633e-18
-2.29662e-06 -1.37086e-05 5.02517e-19
2.86287e-05 4.03945e-05 -5.81466e-18
1.02289e-05 1.04643e-06 4.96053e-19
7.32141e-06 -7.31163e-06 1.4817e-18
-9.67789e-06 -2.14717e-06 1.49238e-18
-4.07837e-07 -7.21821e-06 1.18685e-18
4.04917e-05 -3.1679e-06 3.60165e-18
9.20846e-06 6.67008e-06 8.41373e-19
-1.60421e-05 -1.30275e-05 1.77915e-18
3.2428e-05 -8.58886e-06 -3.64403e-18
-1.06506e-05 -3.93813e-06 1.83655e-18
3.42937e-06 -2.05714e-05 2.09639e-18
3.038e-05 -3.09642e-05 1.60766e-19
-3.45818e-06 -2.76967e-05 3.98617e-18
-1.95787e-05 2.43634e-05 -2.76912e-18
-2.5714e-05 -1.08429e-05 -1.79081e-19
2.15038e-05 2.8152e-05 8.80406e-19
-2.9586e-05 -5.79995e-06 3.35982e-19
9.44118e-06 -7.15863e-06 -1.01906e-18
2.96801e-05 3.22656e-05 1.1014e-18
2.0713e-05 -9.06222e-06 1.92775e-18
2.19291e-05 -2.70968e-05 4.87093e-18
-1.25087e-05 -3.25188e-05 1.22219e-18
-1.02035e-05 4.14544e-06 -8.40678e-19
1.9446e-05 -1.90195e-05 -6.32774e-19
-1.92138e-05 6.82999e-06 -3.06594e-18
-2.64005e-06 -1.30512e-05 -8.22615e-19
5.08019e-06 1.30147e-05 -1.65277e-18
-1.05444e-05 3.83677e-06 -5.04464e-19
-1.15453e-05 1.81575e-05 1.12593e-18
2.08993e-05 9.83957e-06 -9.686e-19
1.88984e-05 -6.56344e-06 1.4572e-18
-1.03899e-05 1.04002e-05 -2.73646e-18
-1.49653e-05 -1.29949e-05 -2.11161e-18
-1.39869e-05 -3.43071e-06 1.70185e-18
-2.83397e-05 1.68805e-05 -1.10688e-18
-1.93827e-05 -2.50736e-05 3.4787e-18
3.94817e-06 -1.95667e-05 2.60599e-18
-3.14136e-05 4.29099e-06 5.88765e-18
3.92525e-06 8.87274e-06 -9.89181e-19
-3.62006e-06 -5.39262e-06 1.54356e-19
-4.27154e-06 -1.18222e-05 -1.71416e-18
3.65857e-05 1.59421e-05 1.89212e-18
6.14958e-06 1.18941e-05 1.53046e-18
8.15538e-06 -9.48771e-06 -2.19208e-18
-1.13144e-06 -1.35803e-05 1.35376e-18
3.08207e-06 -5.77244e-06 -1.84174e-18
-6.50767e-06 -3.63245e-06 2.17262e-18
-6.87168e-06 7.63986e-06 3.35637e-19
1.66585e-06 -2.76234e-06 3.4255e-19
-9.95958e-06 -1.04614e-05 4.30072e-18
-1.4107e-05 3.43977e-06 4.62619e-18
-2.4619e-06 2.19109e-05 4.19504e-18
-1.16837e-05 7.00325e-06 8.45275e-19
-5.8718e-06 9.36279e-06 1.33858e-18
-3.77925e-05 4.70376e-06 -3.75563e-18
5.2238e-06 -1.42516e-05 1.20417e-18
-1.23603e-05 -5.72844e-06 3.53983e-18
1.23455e-06 7.56627e-06 -2.67872e-18
1.70153e-05 3.26571e-06 2.11937e-18
2.19083e-05 -1.86663e-05 -9.60828e-19
1.47418e-05 1.35542e-05 1.38096e-18
7.94651e-06 -1.94913e-06 -2.20332e-18
-2.03988e-05 1.49499e-05 -4.30633e-18
2.43704e-05 3.12589e-06 1.12929e-18
-3.51429e-06 3.13033e-05 1.74607e-18
-1.13044e-06 -1.09041e-05 5.08596e-19
1.19951e-05 6.5037e-06 -3.29114e-19
1.87021e-05 1.95854e-05 1.58967e-19
4.25327e-05 2.64411e-05 8.96889e-19
-3.47868e-06 1.96633e-05 3.2541e-18
4.4427e-05 -2.49666e-05 1.40239e-18
-1.79501e-05 3.45266e-06 8.49811e-19
1.17929e-05 7.30277e-06 1.35464e-18
-1.87848e-05 6.2568e-06 -3.24037e-19
1.05932e-05 1.83788e-05 -2.56597e-18
6.29911e-06 -2.82603e-05 -6.44247e-19
1.24673e-06 7.56247e-06 -1.34066e-18
-9.66255e-06 -1.16204e-05 8.4881e-19
1.96188e-06 1.13128e-05 -4.16877e-18
1.70516e-05 3.41553e-06 2.29979e-18
-9.9013e-06 2.10603e-05 1.79213e-18
2.60233e-05 -8.6779e-06 2.5516e-18
-2.4686e-06 4.79303e-06 -6.74103e-19
6.56977e-06 3.80833e-06 -1.84505e-18
-1.4458e-06 -7.3403e-06 3.87659e-18
2.16824e-06 -1.26764e-05 -1.50775e-18
1.13889e-05 2.55502e-06 -5.01068e-19
-5.25948e-06 2.61503e-05 1.28456e-18
-6.492e-06 1.12351e-07 5.38114e-18
6.08483e-06 7.69564e-06 -1.49211e-18
-1.72471e-06 -2.66549e-05 1.42171e-18
2.6988e-05 8.38126e-06 2.86509e-18
2.91793e-06 -4.82261e-06 8.19932e-19
-7.18902e-06 -2.32823e-06 -2.18935e-18
-1.85555e-05 -7.89892e-06 -2.43778e-18
1.06251e-05 2.77463e-05 2.44399e-18
-2.72634e-05 -9.71568e-06 -4.95949e-18
1.07735e-05 -2.78202e-05 1.20914e-18
-2.4074e-06 -2.03774e-05 -3.22452e-19
1.4164e-05 3.87928e-07 -9.86528e-19
-4.74076e-06 1.22142e-05 5.15268e-19
-1.05338e-06 2.57151e-06 -5.54806e-18
-2.46487e-06 -1.08514e-05 3.2108e-18
3.46726e-06 -5.60066e-06 6.7801e-19
6.21042e-06 1.04627e-05 -2.88866e-18
2.23234e-05 7.29753e-06 -7.00619e-19
5.73143e-06 -4.81934e-06 1.32104e-18
-5.39865e-06 -2.86037e-05 3.83946e-18
1.64612e-05 -1.21324e-05 2.11645e-18
3.30491e-06 1.84001e-05 4.63822e-18
-1.80932e-06 -1.86771e-06 1.671e-18
-5.70216e-06 -5.46059e-06 1.35528e-18
-3.13478e-06 7.04534e-08 5.21863e-18
-1.45668e-05 1.79814e-05 -1.13127e-18
1.29191e-05 -2.49849e-05 4.34172e-18
-1.69995e-05 2.68704e-05 2.39204e-18
-1.05444e-05 6.15444e-06 -3.68978e-18
1.65055e-06 8.1538e-06 6.88119e-19
-1.51491e-05 -2.36621e-05 2.08283e-18
8.83294e-06 2.14145e-05 -1.45193e-18
1.15447e-05 6.04496e-06 5.06935e-19
1.47646e-05 -5.58168e-06 2.2962e-18
-8.34697e-07 -7.33337e-06 -1.74158e-19
-2.14122e-05 -1.96917e-05 7.86054e-21
-1.75718e-06 7.34267e-06 3.38601e-19
1.13417e-05 6.6949e-06 -1.84108e-18
1.23317e-05 -5.83329e-06 1.49654e-18
5.40302e-06 -9.26805e-06 -1.85133e-18
1.57552e-05 -6.98293e-06 -4.96737e-19
1.23752e-05 -5.86014e-06 9.87866e-19
3.12503e-06 2.05059e-07 -2.32507e-20
1.65086e-05 1.30694e-05 2.74086e-18
-1.727e-06 -1.09939e-05 -2.15991e-18
-6.83684e-06 -2.8385e-06 5.71797e-18
7.60403e-07 -2.52442e-06 3.50541e-19
-2.11608e-06 1.0329e-05 -1.17126e-18
-2.19689e-05 1.73695e-06 1.63829e-19
-7.76699e-06 -2.10757e-05 -1.13365e-18
-5.1097e-06 6.2906e-06 1.00895e-18
8.78215e-06 1.07176e-05 2.99216e-18
1.70352e-05 -1.21497e-05 4.82393e-19
-2.33518e-05 -1.26621e-05 -2.2135e-18
1.10729e-05 -1.77505e-05 1.12151e-18
1.46004e-05 -1.74808e-05 2.5972e-18
-7.06981e-06 2.50173e-06 1.00221e-18
-1.2624e-05 -1.81681e-05 -4.38007e-18
-2.19504e-05 -3.65375e-06 2.27614e-18
-2.64977e-06 -2.02074e-05 8.08792e-19
9.80153e-06 -2.02881e-05 1.28977e-18
-6.06543e-06 -1.73093e-05 2.9088e-18
2.81097e-06 2.00632e-05 2.60387e-18
-1.01926e-05 -1.80591e-05 -2.09187e-18
1.99313e-06 -1.06263e-05 -2.17861e-18
-1.57406e-05 1.14556e-05 -2.11259e-18
-9.8501e-06 -7.99071e-06 6.67234e-19
-1.80685e-05 -3.34417e-06 1.36249e-18
1.02878e-05 -6.04616e-06 -2.35468e-18
-2.82704e-06 1.58444e-05 -1.36875e-18
8.12049e-06 -6.07542e-06 -6.89215e-19
-1.87532e-05 -8.22012e-06 -1.45126e-18
-5.76413e-06 -4.79358e-06 3.03317e-18
6.00629e-06 4.86606e-06 1.17629e-18
1.37201e-05 1.84165e-05 -3.07874e-18
-1.13865e-05 -7.06647e-06 -8.51297e-19
-2.05639e-05 -4.97378e-07 -1.60069e-18
-1.07384e-05 -3.20437e-06 -1.68879e-18
-3.02261e-06 -1.0864e-05 -8.46086e-19
1.18056e-05 1.42541e-05 -1.86175e-18
-7.172e-06 3.75225e-06 5.00537e-19
4.5651e-07 -1.34322e-05 5.12001e-19
-2.63956e-05 6.77173e-06 1.64533e-19
1.60165e-05 1.30218e-05 1.62574e-18
2.32233e-06 2.10361e-05 1.2912e-18
-1.55972e-06 2.50912e-06 2.68455e-18
-5.82506e-06 1.62912e-07 2.0019e-18
2.86261e-06 5.01889e-06 1.84768e-18
-7.70424e-06 2.28727e-06 -1.68964e-19
-1.34522e-06 -2.44625e-06 -1.0203e-18
1.13376e-06 1.35597e-05 2.03483e-18
2.9948e-06 2.34529e-07 1.61837e-19
-1.24928e-05 3.02037e-06 -6.66293e-19
-1.11194e-05 1.22879e-05 -4.07137e-18
-2.01027e-06 7.64474e-06 2.19947e-18
-1.86001e-05 1.15943e-05 -1.28575e-18
-6.18797e-06 5.89207e-06 -3.71758e-18
1.14342e-05 -7.77092e-06 -1.86425e-18
2.3537e-05 -2.34155e-06 2.25992e-18
-1.39414e-05 7.39603e-06 -1.70263e-18
1.44988e-06 2.98483e-06 -2.51549e-18
1.45602e-05 -2.80125e-06 -2.39505e-18
-1.12423e-05 6.79202e-06 1.00414e-18
-6.38612e-06 3.62361e-06 1.66692e-18
7.93903e-06 2.57365e-06 -1.88191e-18
1.41154e-05 -8.75483e-06 2.7725e-18
-1.13289e-05 6.43493e-06 1.68421e-18
-1.59151e-05 -3.34644e-06 -4.08025e-18
-1.09769e-05 -2.80958e-06 -2.12542e-21
6.64602e-06 7.07738e-08 -8.64676e-19
6.80685e-06 6.40733e-08 8.34107e-19
2.92012e-06 5.46208e-06 2.52452e-18
3.21474e-06 -5.77539e-06 1.02378e-18
-3.27199e-06 5.57931e-06 1.17505e-18
-3.42657e-06 -5.70834e-06 3.01314e-18
6.50507e-06 -4.94125e-06 -5.10069e-19
-1.34657e-05 2.1692e-06 3.39144e-19
-1.3314e-05 -2.21164e-06 -1.02117e-20
-8.51937e-06 1.05147e-05 -4.93143e-18
-8.56706e-06 -1.05548e-05 2.90141e-18
4.97485e-06 -1.33601e-05 -1.71337e-19
4.79307e-06 1.32467e-05 -3.26969e-19
9.58255e-07 1.66318e-05 -3.20398e-19
7.45785e-06 -1.97076e-06 -5.21235e-19
1.61132e-06 -2.50338e-06 -8.59351e-19
-1.36427e-05 9.22819e-07 3.24522e-19
5.13426e-06 -1.31453e-05 1.71756e-19
4.86504e-06 1.31925e-05 -4.95307e-19
3.14892e-06 -5.84469e-08 -3.27333e-19
5.71696e-06 1.57156e-05 9.86836e-19
-1.46498e-06 -2.61057e-06 5.54454e-18
1.52386e-06 -7.368e-06 1.33015e-18
-1.42972e-05 -7.66524e-06 -9.82299e-19
-1.40769e-05 -7.5299e-06 1.35529e-18
-1.39888e-05 8.65542e-06 -2.29448e-18
2.13234e-06 -8.25685e-06 6.80809e-19
-1.04123e-06 2.18564e-06 -8.43278e-19
-4.65135e-07 -1.63556e-05 -4.9016e-19
-5.02714e-06 -1.55575e-05 -1.29975e-18
2.09681e-05 1.95239e-05 2.07689e-18
2.28917e-05 -1.18142e-06 1.43981e-18
-8.39307e-06 -2.45189e-06 3.38244e-18
-1.46046e-05 -2.60105e-05 8.05297e-19
5.41449e-06 8.88888e-06 -2.83588e-18
-1.60406e-05 1.89286e-06 -2.44336e-18
1.30366e-05 3.73743e-06 1.48464e-18
-2.94643e-06 -1.23753e-08 4.96887e-19
-3.07353e-06 -5.53218e-06 1.84445e-18
-5.43404e-06 -2.58442e-05 -3.39883e-19
-6.40934e-06 -1.45835e-08 4.54645e-18
-3.0359e-05 -1.13931e-06 -1.27793e-18
1.11219e-05 -1.23588e-05 -3.35183e-19
1.64004e-06 2.59413e-06 -2.52133e-18
-8.30986e-08 -1.13814e-05 -4.52738e-18
-6.38219e-06 1.5331e-05 3.26473e-18
-2.89247e-06 5.67363e-06 -3.86962e-18
1.33332e-05 -8.79896e-06 2.96246e-18
-2.50951e-05 -8.19647e-06 2.60136e-18
-9.8021e-06 -1.29418e-05 3.32407e-19
3.30219e-06 5.6106e-06 1.18523e-18
1.10592e-05 3.29777e-06 -1.18435e-18
-3.0844e-06 -4.72106e-06 2.35905e-18
1.32996e-05 2.43487e-06 -1.20565e-18
1.20669e-05 -6.46223e-06 9.99151e-19
-2.44426e-07 1.79277e-05 1.72577e-18
5.44074e-06 -8.84448e-06 2.49668e-18
3.13722e-05 1.33633e-06 3.97431e-18
-2.6654e-05 6.94284e-06 -2.3703e-18
1.53222e-05 7.64344e-06 -2.72197e-18
-4.15674e-06 -1.10031e-05 -2.81975e-18
-9.94683e-06 -5.55055e-06 1.84781e-18
1.85658e-05 -1.52983e-07 -2.78426e-18
-4.82141e-07 -1.60011e-05 5.45473e-18
-8.16301e-06 -7.13609e-06 1.16915e-18
6.53424e-06 -1.51463e-05 -2.28874e-18
-3.73269e-07 1.34189e-05 -8.30161e-19
5.02334e-06 1.67199e-05 -1.64128e-18
1.13601e-05 -6.52708e-06 -1.80849e-19
-1.21205e-05 1.21998e-05 -1.80205e-18
1.061e-05 1.29299e-05 1.14829e-18
-4.32636e-05 1.0318e-05 2.79959e-18
-6.73807e-06 1.71881e-05 -2.21922e-18
8.31108e-06 -1.00786e-05 4.09947e-18
-4.61691e-06 -1.21636e-05 -2.74201e-18
-7.752e-06 2.85997e-06 1.68241e-18
-1.642e-05 -4.4887e-06 4.89791e-19
-4.46286e-06 2.60324e-05 -3.26738e-18
-8.192e-06 7.86192e-06 1.51503e-18
1.34978e-05 -2.97218e-06 -1.33096e-18
-4.40744e-06 -1.64698e-05 4.11559e-18
-9.52455e-06 1.51609e-05 1.68264e-19
-1.4362e-05 8.27843e-06 5.13967e-19
-1.31271e-05 -9.56896e-06 1.64817e-19
1.205e-05 -1.39266e-05 -8.60988e-19
-1.74267e-05 -9.25485e-07 -3.27541e-19
7.66985e-06 -2.62709e-05 1.28321e-21
1.25156e-05 -1.21806e-05 2.45488e-18
1.56941e-05 2.75681e-05 5.15162e-21
1.29593e-06 1.30542e-05 -3.32843e-19
1.87145e-06 -1.63372e-05 4.97574e-19
-2.81415e-05 3.30399e-05 -5.32608e-19
-8.12349e-06 -1.55043e-05 -4.5883e-18
1.09392e-05 -4.21366e-06 -1.03098e-18
-1.64121e-06 1.64672e-05 -3.13202e-19
8.52411e-06 -7.95638e-06 -1.69444e-18
8.89881e-06 1.56052e-05 -1.55694e-19
1.12208e-05 -9.6033e-07 -5.07849e-19
1.37299e-05 -4.02027e-05 -6.31605e-19
-3.78953e-06 -8.27638e-06 -8.21021e-19
-1.47748e-05 6.34618e-06 -4.94375e-19
-1.32479e-05 1.23971e-05 2.39329e-18
1.39297e-05 9.42539e-06 -3.25777e-19
1.2144e-05 -7.03337e-06 5.13179e-18
9.8396e-06 8.35937e-06 -1.60213e-19
-3.5909e-06 -2.17914e-08 6.66219e-19
9.88653e-06 -1.4834e-05 1.63123e-18
-1.08573e-05 -1.29199e-05 3.62156e-18
1.45962e-05 6.3497e-06 -9.90904e-19
8.48995e-06 -7.99774e-06 -6.88059e-19
6.08488e-06 -1.59503e-05 -2.46845e-18
1.09072e-05 -4.63763e-06 -2.8596e-18
-1.01872e-05 -4.86071e-06 6.64816e-19
8.82473e-07 -1.73418e-05 2.92904e-18
-1.65635e-05 2.85365e-06 -1.48086e-18
1.46225e-06 1.57523e-05 3.34488e-19
1.33716e-05 4.336e-06 -1.16229e-18
-1.38514e-05 -6.83334e-06 2.31416e-18
-5.76886e-06 1.63401e-05 2.46996e-18
-9.66402e-07 -1.55324e-05 -6.59078e-19
1.29489e-05 7.86913e-06 -1.34921e-18
-1.09903e-06 1.17463e-05 1.74488e-19
-1.28952e-05 8.668e-06 1.15579e-18
1.5217e-05 7.35917e-06 2.78803e-18
-1.106e-05 -6.53119e-06 1.67525e-18
1.27559e-07 -1.29024e-05 5.11188e-19
1.18567e-05 1.28515e-05 -4.26847e-18
-1.45652e-05 -9.42313e-06 3.93589e-18
3.10333e-05 -2.22035e-05 -1.53593e-19
1.17268e-05 -7.04534e-06 -1.34459e-18
5.54135e-06 2.74602e-05 -1.63872e-22
1.11135e-05 -8.84852e-06 2.64351e-18
-1.44378e-05 5.56946e-05 4.15909e-18
-1.45127e-05 -5.5165e-05 7.35768e-19
3.62559e-05 4.73892e-05 2.08515e-18
3.582e-05 -4.73777e-05 -1.48932e-18
5.91959e-05 -2.91125e-08 7.52579e-19
-5.09365e-05 2.06401e-05 -4.52797e-19
-5.01103e-05 -2.08555e-05 -1.18884e-18
8.11912e-06 7.86165e-06 -1.50684e-18
1.97305e-05 1.46978e-05 -2.39781e-18
7.48638e-06 2.19135e-06 -2.17883e-18
1.22877e-05 6.31855e-06 4.99099e-19
3.19345e-06 1.30188e-05 -4.86504e-19
-1.20585e-05 -9.49017e-06 3.46702e-18
1.12723e-05 -6.65283e-06 -2.70338e-18
1.28772e-05 9.38225e-06 -3.12883e-18
-2.04885e-06 1.56407e-05 -3.45362e-18
1.98281e-05 -1.34946e-05 1.19896e-18
2.37414e-06 -1.52519e-05 -3.30887e-19
1.4641e-05 3.35944e-06 -5.05333e-19
1.9228e-05 7.14508e-06 4.9413e-19
9.42256e-06 9.33845e-06 1.02653e-18
1.03731e-05 4.30716e-06 5.03153e-22
-1.18902e-05 7.00928e-06 1.15901e-18
-1.4398e-05 5.77366e-06 1.98005e-18
1.53852e-05 -7.49611e-06 3.31416e-19
-1.17503e-05 -6.45387e-06 8.30775e-19
-1.19176e-05 -6.7422e-06 8.24556e-19
-2.0084e-07 -1.34369e-05 1.17114e-18
-9.94416e-08 -1.36325e-05 -1.82302e-18
-1.28494e-05 -6.47152e-07 -1.6918e-19
1.72693e-05 -2.61867e-06 -1.46686e-18
1.17677e-05 7.37701e-06 -1.48906e-18
-1.15426e-05 6.99264e-06 -6.71123e-19
-1.00494e-05 1.09736e-05 2.8889e-18
1.03854e-05 -8.93149e-06 1.31098e-18
-7.12294e-06 1.11474e-05 -6.51211e-19
-9.13541e-06 -9.50404e-06 2.32095e-18
-7.94127e-07 1.36389e-05 3.40412e-19
-8.09795e-07 1.35643e-05 -8.195e-19
2.84134e-08 -1.29058e-05 1.68864e-18
3.93448e-06 -1.27395e-05 -3.14185e-18
-1.11328e-05 -6.40281e-06 -1.72632e-19
1.01673e-05 -3.61215e-06 -1.66892e-18
4.17884e-07 1.38629e-05 -2.80727e-18
1.7555e-07 1.20049e-05 4.873e-18
-1.5327e-06 1.08635e-05 -1.98875e-18
1.41962e-05 -3.59273e-06 -1.3284e-18
-1.09052e-05 3.44248e-06 -6.78156e-19
2.62972e-06 1.38759e-05 -4.80327e-18
-2.16818e-05 8.49537e-06 -3.46698e-19
6.01973e-06 2.68403e-05 1.42695e-18
-1.12022e-05 2.94215e-06 -2.20479e-18
1.31418e-05 -7.78028e-06 3.28648e-19
5.56094e-07 1.35952e-05 -2.15379e-18
-1.30879e-05 4.31494e-06 -1.32881e-18
1.62621e-06 -1.05999e-05 -3.218e-19
5.88065e-07 -3.71687e-05 -9.28404e-19
1.28373e-06 1.13354e-05 -2.98699e-18
-1.09302e-05 8.91766e-06 -1.83005e-18
1.10663e-05 4.07226e-05 -2.83869e-18
3.15023e-05 2.6128e-05 -2.6074e-18
3.61157e-05 -2.471e-05 1.57173e-18
9.70598e-06 -6.63833e-06 6.56097e-19
-1.01596e-05 8.95613e-06 -1.58023e-19
-1.29271e-05 -5.10358e-06 -2.6604e-18
-1.25629e-05 -4.34048e-06 -5.78679e-18
4.44205e-05 -1.2207e-05 -5.46558e-19
4.531e-05 9.52808e-06 8.98145e-19
7.12363e-06 2.50165e-06 -1.17633e-18
4.38049e-07 1.27257e-05 -3.17295e-18
5.3009e-08 1.27179e-05 -1.66094e-18
-3.09597e-05 -2.26582e-05 1.40427e-18
7.37815e-06 -1.11042e-05 -2.31906e-18
7.76821e-06 8.33106e-06 -1.00246e-18
-1.36473e-05 -2.19085e-06 -3.65093e-18
-9.03482e-06 1.0948e-05 -3.1426e-18
-1.21219e-05 5.83872e-06 -2.1587e-18
3.06473e-05 2.19825e-05 1.39681e-18
1.04813e-05 4.62567e-06 -1.51542e-18
-3.63094e-06 1.28251e-05 3.3501e-19
-1.09791e-05 -7.50489e-06 -1.00114e-18
1.15324e-06 -1.33013e-05 -2.16599e-18
-5.73533e-06 -1.23386e-05 -2.64562e-18
-1.1072e-05 -7.53272e-06 2.98545e-18
6.82086e-06 -1.22005e-05 1.53311e-19
9.17409e-06 -1.09496e-05 -6.72444e-19
-1.88994e-06 -3.88972e-05 2.52065e-18
1.66033e-05 -2.63307e-05 3.68478e-18
1.1236e-06 -1.34144e-05 -2.65789e-18
1.17557e-05 7.35137e-06 -4.98614e-19
-9.32994e-06 -9.48994e-06 1.66302e-18
-6.32585e-06 1.25978e-05 1.3302e-18
-3.23319e-06 1.35007e-05 -8.20756e-19
1.08295e-05 9.18086e-06 -3.64803e-18
3.87524e-06 -1.28173e-05 -9.96137e-19
-8.91238e-06 -2.55245e-05 1.58982e-18
-1.3624e-06 1.65307e-05 1.54671e-18
9.57928e-06 9.35797e-06 -1.81116e-18
-8.40395e-06 -6.66635e-06 4.03922e-18
-8.83382e-06 6.93947e-06 -1.72064e-19
2.85637e-05 -1.22719e-05 4.58867e-18
4.90975e-06 -8.66845e-06 3.15722e-18
-5.38853e-06 -8.08949e-06 2.50831e-18
1.4321e-05 4.37746e-06 -4.81304e-18
8.81716e-06 -3.18086e-05 9.98036e-18
-2.31436e-05 -2.35196e-05 8.79159e-19
1.56131e-05 4.08077e-06 2.56404e-18
-6.01758e-06 -1.16756e-05 -2.30298e-18
1.22089e-05 6.222e-06 -1.99964e-18
-1.83828e-05 -2.04159e-05 4.74382e-19
7.14074e-06 3.23407e-05 3.50533e-18
3.13435e-05 -4.04846e-05 2.84664e-18
-1.9391e-05 -4.73763e-05 2.16588e-21
1.73226e-05 -3.38564e-05 -1.85197e-18
-8.40548e-06 2.88884e-05 -3.42429e-19
-4.79315e-06 2.55806e-05 -4.16615e-18
-1.20671e-05 5.79342e-06 -1.49991e-18
4.00874e-06 1.59797e-05 8.63943e-19
-1.54431e-06 8.15784e-06 1.6771e-18
6.65306e-06 2.14999e-06 -2.51881e-18
-2.1439e-06 1.0647e-05 -3.88251e-18
-1.57362e-07 1.37648e-05 -2.19072e-18
1.09284e-05 6.37182e-06 -1.17068e-18
5.43454e-07 3.69928e-05 2.79024e-18
-9.52579e-06 6.84737e-06 -1.65262e-19
1.05419e-05 -4.04791e-06 -2.71344e-18
1.12854e-05 -2.90192e-06 -2.38731e-18
-3.79188e-05 -5.45251e-06 -2.65888e-18
-2.29268e-05 1.09108e-05 5.71549e-18
-2.75152e-05 -3.26266e-05 -1.41379e-18
5.71477e-06 5.4655e-06 1.35543e-18
9.32453e-06 4.84552e-06 1.18018e-18
1.73041e-05 -2.76875e-06 -4.10445e-18
-5.22849e-06 -8.51047e-06 1.01605e-18
1.12698e-05 5.56499e-06 8.42664e-19
4.88181e-06 -1.99048e-05 1.21295e-18
-8.96208e-06 6.54639e-06 -3.18572e-18
-1.47909e-05 -1.41775e-05 -1.71702e-18
-3.75016e-06 1.05003e-05 1.67838e-18
-2.21056e-06 1.356e-05 1.19347e-18
2.29041e-05 1.42229e-05 -2.23915e-18
2.44209e-05 -1.29561e-05 2.77075e-18
-2.65008e-05 -7.13521e-06 -2.21274e-18
5.00078e-06 5.10215e-06 -1.84511e-18
-3.09692e-06 6.46507e-05 2.31117e-18
-9.70468e-09 -6.64085e-05 1.23064e-18
3.27322e-05 5.60162e-05 1.23613e-18
-1.25409e-05 5.45203e-06 -1.00936e-18
-1.75637e-05 3.54666e-05 4.33226e-18
3.29336e-05 -5.40666e-05 -2.77627e-18
-7.53061e-06 -1.16465e-05 -1.4828e-18
5.0078e-05 4.35922e-05 1.5348e-18
1.5947e-05 -1.18532e-05 6.38328e-18
-2.30923e-06 -1.97263e-05 3.37781e-19
5.24704e-05 -4.26257e-05 1.85795e-18
-4.37346e-06 9.32051e-06 1.50017e-18
-3.36354e-05 -2.13668e-05 -2.19397e-18
-2.76895e-05 -5.78163e-05 -1.22869e-18
-1.56799e-05 -3.66128e-05 6.2996e-19
-2.84667e-05 5.87632e-05 4.16711e-18
-6.74097e-06 4.06809e-05 6.2806e-19
1.06891e-05 2.47951e-05 1.05284e-18
-1.80595e-05 2.3206e-05 1.26077e-18
-1.68068e-05 -3.45276e-05 1.8637e-18
6.44289e-05 1.13057e-05 -4.68333e-19
-1.10032e-05 6.8925e-06 5.03155e-19
-3.92768e-06 1.07105e-05 -3.05035e-18
-3.19006e-05 2.29721e-05 -2.0315e-18
-1.11972e-05 6.43229e-06 -6.69527e-19
6.37944e-05 -1.008e-05 4.94677e-21
-1.00012e-05 5.01402e-06 -3.86222e-18
4.67993e-06 -9.3875e-06 2.48415e-18
-4.95346e-05 -3.77452e-05 3.18869e-19
-1.68925e-05 3.6644e-05 1.25043e-18
-5.07147e-05 3.74755e-05 3.07703e-18
1.53227e-05 3.37305e-05 -3.09831e-19
-9.56118e-06 6.78555e-06 -2.33321e-18
-1.35459e-05 1.62936e-05 2.41147e-18
-2.41693e-05 3.03579e-05 -6.52726e-18
-3.78988e-05 -4.88635e-06 1.95051e-18
-6.42466e-07 1.06333e-05 8.5544e-19
-2.55991e-05 -3.04855e-05 3.1936e-18
-3.92125e-05 6.93293e-06 5.48877e-18
-1.4937e-05 3.46451e-05 1.76368e-18
-1.15268e-05 4.6111e-05 -1.91335e-18
-1.17811e-05 2.61263e-05 3.15775e-18
-2.23519e-05 1.80106e-05 5.72144e-18
1.64069e-05 -4.02765e-06 -8.67191e-19
2.56542e-05 -1.3713e-06 5.05302e-19
8.8733e-06 5.41182e-06 1.01484e-18
-8.09856e-06 -5.30554e-05 2.30217e-18
-5.00063e-05 -1.95008e-05 1.77732e-19
2.49805e-05 3.19038e-07 -1.02469e-18
3.77332e-05 -7.28493e-06 4.94696e-18
-6.81064e-06 -8.64636e-06 2.16818e-18
-3.27358e-05 2.30186e-05 1.08403e-18
-2.93378e-05 3.36087e-05 1.41685e-18
3.98878e-05 -1.43718e-05 1.57659e-18
-1.86845e-05 -3.16576e-05 1.93883e-18
-1.90186e-05 3.14125e-05 -6.97511e-18
-3.68983e-05 -1.30784e-06 5.40076e-18
-1.67808e-05 3.3008e-05 2.61628e-18
-3.67818e-05 3.82607e-07 3.48745e-18
4.57585e-05 1.63853e-05 3.33535e-18
3.69287e-05 1.3606e-06 1.2085e-18
3.47215e-05 -1.77884e-05 2.27579e-18
1.013e-05 -4.88112e-05 1.23186e-18
1.83493e-05 -3.19671e-05 2.78648e-18
1.82246e-05 3.19633e-05 7.11537e-19
9.92034e-06 4.76932e-05 -2.28857e-18
4.99711e-05 -1.40913e-05 -2.63901e-18
3.20345e-05 1.58668e-05 1.48054e-20
3.07853e-05 8.41046e-06 1.75033e-18
P_ext 3 563 float
-1.03075e-06 3.48515e-07 2.6666e-20
9.74601e-10 3.81697e-08 1.82528e-20
-9.49666e-08 -8.93082e-08 1.86646e-22
-3.00411e-08 2.77296e-08 6.51595e-20
2.62011e-08 5.02876e-10 -6.18388e-20
3.12558e-08 -1.26848e-07 4.13343e-20
-1.01484e-06 -3.52732e-07 4.08703e-20
-7.44503e-08 -8.44612e-08 -1.53079e-20
2.07115e-07 3.66826e-09 4.38867e-20
7.56135e-08 -7.10151e-09 -1.8475e-20
6.70939e-07 1.57261e-07 -1.19108e-20
3.68729e-08 -1.07937e-07 1.02382e-20
8.4497e-08 1.00584e-07 -3.65635e-20
-8.70706e-09 7.87906e-08 3.42875e-20
2.3666e-08 8.77152e-09 -1.30355e-19
-1.32397e-07 -2.16733e-09 5.98295e-20
-1.65441e-08 5.19197e-08 -2.72793e-23
7.98106e-08 -1.20418e-08 -5.7283e-21
9.16737e-08 1.63493e-07 1.82393e-20
-1.22991e-07 1.24027e-08 6.99203e-20
-4.61742e-08 -1.74204e-07 5.44105e-20
1.52417e-09 3.05234e-10 -1.18392e-19
1.36222e-07 1.10903e-08 7.23851e-20
8.67227e-08 -1.00133e-07 -2.08387e-20
-1.25639e-07 -2.02306e-08 6.4708e-20
-2.36857e-08 -6.87521e-08 -2.04683e-20
7.71328e-07 -6.30985e-08 9.93287e-21
9.44901e-08 7.96633e-08 -1.01749e-20
-2.82213e-07 -2.24173e-07 3.54426e-20
1.6579e-08 3.12036e-09 -1.37748e-20
-1.2615e-07 -2.24637e-08 8.02593e-23
5.51554e-08 -3.58912e-07 -1.72526e-20
5.79621e-07 -5.93605e-07 4.83934e-21
1.23339e-09 -2.72145e-08 7.04711e-20
-7.32252e-09 2.09291e-08 -6.21617e-20
-2.27178e-08 -1.49653e-08 -1.89291e-20
3.00541e-09 1.5028e-08 -2.13756e-20
-2.2968e-08 3.91206e-09 4.29118e-20
9.12485e-08 -9.92446e-08 -7.06021e-20
5.656e-07 6.18622e-07 3.90364e-20
3.61278e-07 -1.63682e-07 4.77182e-20
5.58483e-09 -1.37622e-08 3.83135e-20
-9.04713e-09 -1.20502e-08 -1.60199e-20
-1.25318e-07 2.57398e-08 -6.78009e-20
3.58436e-07 -3.52001e-07 -1.97958e-20
-3.33979e-07 1.20216e-07 2.23647e-20
-4.21946e-08 -1.84123e-07 7.63101e-21
7.6132e-08 1.84936e-07 2.32362e-20
-1.20206e-07 3.14321e-08 3.10149e-20
-2.0686e-07 3.21739e-07 1.0092e-20
3.66674e-07 1.79571e-07 -6.51438e-20
3.18385e-07 -1.04716e-07 7.83392e-20
-9.37674e-09 2.2286e-08 -7.21096e-20
-2.49158e-07 -2.23584e-07 -1.5243e-20
-2.44471e-08 3.22905e-09 4.78923e-20
-5.34413e-07 3.13836e-07 7.37869e-21
-6.79925e-09 -2.08417e-08 5.48534e-22
7.09497e-08 -3.29026e-07 1.53937e-20
-2.12407e-08 -4.62824e-09 9.2087e-20
5.56625e-08 1.11606e-07 6.99737e-20
-2.97008e-08 -9.00977e-09 -5.26897e-20
-3.13596e-08 -2.94524e-08 -6.64691e-20
6.95463e-07 3.06184e-07 1.49392e-20
-6.01258e-10 6.07283e-08 3.70961e-20
9.38225e-09 -4.05178e-08 -1.57784e-20
1.57715e-08 -9.01482e-08 1.85842e-20
-6.26172e-09 -2.9515e-08 -2.87538e-20
-7.21505e-08 -1.83342e-08 5.70559e-23
-8.39903e-08 1.02768e-07 6.9956e-20
2.25251e-08 -8.17704e-09 -1.81325e-20
-9.24854e-09 -2.29279e-08 -1.26392e-20
-2.41796e-08 -3.54498e-09 1.37235e-20
-4.16327e-08 3.85709e-07 8.08444e-21
-7.40992e-08 3.74269e-08 -4.98848e-20
-7.18925e-08 1.22968e-07 1.32095e-20
-7.23203e-07 8.50065e-08 3.13403e-20
3.05467e-11 -5.72626e-08 3.74408e-20
-6.96139e-08 -5.83283e-08 -3.64799e-20
2.93161e-08 7.15338e-08 -6.79512e-20
2.77165e-07 5.54111e-08 -2.00074e-20
3.97246e-07 -3.45636e-07 -4.24437e-20
1.08859e-08 2.66602e-08 -3.72883e-20
2.68652e-08 8.34022e-09 -9.76696e-20
-3.70142e-07 2.73847e-07 -2.76607e-20
4.32057e-07 5.25278e-08 1.51103e-20
-6.54882e-08 5.85614e-07 2.74137e-20
-2.27024e-08 -1.17356e-07 4.4315e-20
7.96877e-08 5.61251e-08 -4.72023e-20
3.44769e-07 3.63585e-07 -3.9315e-20
6.24601e-09 2.77568e-09 -1.09112e-19
-6.64474e-08 3.30886e-07 -1.48343e-20
5.6419e-09 -3.01947e-09 1.09512e-19
-3.98909e-08 2.72082e-08 1.59466e-20
8.61247e-08 3.50491e-08 -5.48088e-20
-3.18605e-07 9.8494e-08 -2.49751e-21
1.84922e-07 3.24939e-07 -5.01673e-20
1.15043e-07 -5.19417e-07 -5.98333e-20
2.70418e-08 7.08927e-08 -7.58302e-20
-4.89251e-08 -2.91096e-08 -6.36583e-20
4.05427e-08 1.29662e-07 5.02535e-21
2.69576e-07 4.58729e-08 6.1621e-20
-1.78957e-07 3.69714e-07 2.54964e-20
4.75726e-07 -1.55481e-07 -1.21931e-20
-2.63975e-08 5.76335e-08 7.69533e-21
5.0591e-08 5.13839e-08 -2.88459e-20
-3.00715e-08 -6.93682e-08 8.42141e-20
-1.20988e-08 -5.28499e-08 8.07191e-21
1.3993e-07 1.67743e-08 -7.87658e-21
-1.02072e-07 4.77455e-07 2.99847e-20
-2.3603e-08 1.4564e-08 5.70619e-21
6.97962e-08 1.03437e-07 6.72942e-20
-3.45152e-08 -4.89969e-07 -9.85279e-21
4.95661e-07 1.48824e-07 -4.18745e-20
3.37447e-08 -5.96308e-08 -1.06792e-20
-7.70405e-08 -8.81138e-09 -7.08636e-20
-3.17013e-07 -1.27237e-07 -1.99735e-22
1.56737e-08 1.67634e-08 -1.36924e-19
-5.03571e-07 -1.7611e-07 -1.1492e-19
1.59121e-08 -1.67173e-08 5.39418e-20
-4.89659e-08 -3.44286e-07 -1.01566e-20
2.12486e-07 8.06349e-09 4.08204e-20
-1.89246e-08 1.61441e-08 1.33874e-20
5.08118e-09 2.3205e-08 -1.54736e-19
1.42164e-08 -6.22436e-08 3.2181e-22
2.46884e-08 -1.15429e-08 -7.68588e-21
4.56818e-10 2.50035e-08 3.17008e-20
2.15824e-08 -2.69511e-09 -8.31076e-21
4.02705e-08 -5.94133e-08 1.27223e-20
-1.03107e-07 -5.2588e-07 -4.94752e-20
2.72381e-07 -2.09682e-07 2.80901e-20
8.79343e-10 3.31792e-08 4.32578e-20
-2.29678e-08 -4.15301e-09 -3.39651e-20
-7.47048e-09 -2.56861e-08 -2.47332e-21
-1.89386e-08 -1.33702e-08 3.98999e-20
-2.54642e-07 3.18206e-07 3.00484e-20
-2.925e-10 -2.52681e-08 1.00317e-19
-3.18527e-07 5.00137e-07 2.50844e-20
-1.19705e-07 5.50484e-08 -8.11499e-20
1.6832e-08 1.81481e-08 -1.81101e-20
-2.17543e-08 -1.27203e-08 -2.43653e-21
1.55307e-07 3.74828e-07 4.79143e-20
8.96036e-08 7.9861e-08 1.84051e-20
2.17498e-07 -7.17272e-08 7.68866e-20
1.2241e-08 -6.69223e-08 -2.10388e-20
-3.94646e-07 -3.63659e-07 2.99345e-20
-3.80525e-08 6.57584e-08 6.79329e-20
9.88035e-08 5.27035e-08 2.46336e-21
1.44482e-07 -4.97403e-08 2.59941e-20
6.23953e-08 -1.24646e-07 -2.64586e-20
2.47353e-07 -1.14058e-07 3.04316e-20
1.64569e-07 -7.76785e-08 9.0234e-20
1.65372e-08 -1.3709e-08 3.61296e-20
2.86914e-07 2.26946e-07 -7.24869e-20
-4.15332e-08 -1.20102e-07 -2.57336e-21
-5.10079e-08 -4.36433e-08 5.28881e-20
-8.34067e-09 -2.18903e-08 -1.27267e-20
1.14589e-08 8.56914e-08 7.88969e-21
-3.83753e-07 2.75131e-08 5.08291e-21
-1.40191e-07 -3.66327e-07 2.27321e-20
-6.03728e-08 7.69553e-08 5.74378e-20
1.1872e-07 1.58221e-07 8.8187e-20
2.95318e-07 -2.09458e-07 -3.7573e-20
-4.3172e-07 -2.30821e-07 3.43187e-20
1.92058e-07 -3.12654e-07 -5.24864e-20
2.50086e-07 -3.07626e-07 3.80226e-20
-7.36535e-08 7.29416e-09 3.12953e-20
-2.19545e-07 -3.17699e-07 1.98094e-20
-3.84304e-07 -6.0231e-08 -2.99109e-20
-4.58008e-08 -3.50709e-07 -1.74548e-20
1.70959e-07 -3.53359e-07 -6.30144e-20
3.5765e-09 -4.85712e-08 -1.55358e-20
5.08028e-08 3.38331e-07 5.59294e-20
-1.80987e-07 -3.16614e-07 3.22311e-20
-1.69793e-08 -7.76834e-08 2.68398e-21
-2.61626e-07 1.95865e-07 3.7902e-20
-5.12531e-08 -1.67997e-08 -4.75283e-20
-3.99277e-08 -2.74428e-08 1.60019e-20
1.04416e-07 -5.35479e-08 2.044e-20
-1.43661e-08 2.03392e-08 -1.87175e-20
5.54971e-08 -7.00533e-08 -2.9162e-20
-3.25551e-07 -1.44781e-07 -7.52816e-20
-4.31213e-08 -5.8079e-08 3.07287e-21
4.50664e-08 6.16129e-08 -1.55636e-20
2.35403e-07 3.24942e-07 -2.79855e-20
-8.33205e-08 -3.84216e-08 -8.95521e-20
-3.62137e-07 -8.1477e-09 -6.7543e-20
-4.64134e-08 -4.30491e-08 -2.37848e-20
-2.64038e-09 -6.23436e-08 -5.01455e-20
4.54646e-08 2.29286e-08 -1.40595e-19
-5.24353e-08 5.16882e-08 1.56236e-20
-8.7581e-09 -9.17761e-08 -2.08963e-20
-4.8342e-07 1.19078e-07 3.49697e-20
2.64997e-07 2.26069e-07 -6.55755e-20
3.5408e-08 3.68189e-07 2.77438e-20
-2.13489e-08 7.33811e-09 2.89246e-20
-7.12218e-08 2.21314e-09 3.58321e-23
3.26977e-08 6.2428e-08 -5.43786e-20
-2.5881e-08 -6.35741e-09 -3.42102e-20
3.06414e-09 -2.20676e-08 4.89747e-21
-1.4244e-08 9.71456e-08 2.92866e-20
1.57812e-08 1.66307e-08 -5.23597e-20
-1.79906e-07 3.97681e-08 1.77818e-20
-1.82458e-07 1.99082e-07 -1.80249e-20
-1.96977e-08 1.82747e-08 5.01902e-20
-3.3009e-07 1.99214e-07 5.75877e-20
-8.47118e-09 2.8126e-08 -6.60288e-20
8.90836e-08 -3.19099e-08 1.01273e-20
4.13778e-07 -3.80678e-08 1.27067e-20
-5.18648e-08 3.28175e-08 -4.78102e-20
2.09765e-08 9.66849e-09 -6.80829e-20
5.39812e-08 -3.37829e-08 -1.89558e-20
-9.26149e-08 3.08663e-08 -5.75649e-20
-6.74021e-08 1.76681e-08 5.14386e-21
2.36981e-08 -6.92561e-09 -2.16184e-20
2.1921e-07 -1.33314e-07 1.53364e-20
-8.62679e-08 5.50047e-08 -9.9336e-20
-2.57714e-07 -5.37411e-08 -4.35758e-20
-5.47692e-08 -2.88389e-08 3.41963e-20
2.09485e-08 -1.39108e-08 1.77733e-20
2.32059e-08 1.63069e-08 3.39625e-20
-5.8609e-09 2.63841e-08 1.59607e-20
-2.38001e-09 -2.97689e-08 5.59854e-21
-2.41581e-08 1.2346e-08 7.49782e-23
-2.7037e-08 -1.38483e-08 1.04949e-20
6.77322e-08 -2.5597e-08 -4.46011e-20
-2.478e-08 -6.81839e-09 1.58917e-20
-2.47273e-08 6.56768e-09 -1.34384e-20
-6.09189e-09 2.45691e-08 -1.62276e-20
-6.61398e-09 -2.51076e-08 -1.81142e-20
1.63409e-08 -1.8295e-08 9.86122e-20
1.57099e-08 1.75094e-08 -1.03666e-19
9.48176e-09 2.61606e-07 7.38679e-20
5.07553e-08 -4.18711e-08 2.83397e-20
1.18459e-08 -2.23411e-08 1.06367e-19
-1.97292e-07 7.29177e-09 5.66594e-20
1.87326e-08 -1.77801e-08 5.03828e-20
1.74898e-08 1.80566e-08 -1.00406e-19
2.68337e-08 -5.83944e-10 -7.54765e-20
9.05648e-08 2.56361e-07 8.64507e-20
-1.3577e-08 -2.22028e-08 -2.52558e-20
2.93586e-08 -6.71929e-08 5.47457e-20
-2.2017e-07 -1.21815e-07 -4.08515e-20
-4.83786e-08 -3.14043e-08 -2.905e-20
-2.20974e-07 1.31057e-07 2.28687e-21
1.95963e-08 -2.00886e-08 -6.04125e-20
-9.39254e-09 2.08759e-08 2.58597e-20
-5.1677e-09 -2.53326e-07 -5.86436e-20
-8.29365e-08 -2.50902e-07 7.6185e-21
3.80252e-07 3.61909e-07 -3.2191e-20
4.0673e-07 -2.30973e-08 -3.47236e-20
-2.88477e-08 6.28506e-09 1.08121e-20
-2.72022e-07 -4.80701e-07 7.97655e-20
6.48586e-08 1.11207e-07 1.54265e-20
-2.60749e-07 3.07108e-08 -2.69807e-21
1.87191e-07 5.23436e-08 2.83509e-20
-2.55772e-08 -1.03454e-10 -4.69789e-20
5.57544e-10 -2.65844e-08 4.45149e-20
-2.32193e-09 -1.81826e-08 -3.50478e-20
-2.26707e-08 -1.34907e-08 -3.60747e-20
-5.64014e-07 -2.13733e-08 -1.25524e-20
1.77266e-07 -2.00489e-07 -1.04194e-19
1.20535e-08 2.3381e-08 -8.63769e-20
6.16262e-09 -1.11935e-07 2.81892e-20
-1.05737e-07 2.50406e-07 -1.48014e-20
2.1687e-09 2.81293e-08 -6.83696e-20
1.89153e-07 -1.35352e-07 3.35157e-20
-1.66355e-08 -7.27475e-09 -2.4276e-20
-1.60851e-07 -2.0906e-07 -3.79446e-20
2.21632e-08 1.12767e-08 -8.8753e-20
5.24478e-08 5.07075e-08 -4.47705e-20
-3.7318e-08 -5.81333e-08 1.61411e-20
2.29593e-08 -7.42631e-09 -2.15603e-20
7.77193e-08 -5.42575e-08 -9.20672e-20
-4.61576e-09 4.33345e-08 -7.65067e-21
6.39378e-08 -1.07764e-07 2.599e-20
5.83867e-07 2.94188e-08 2.76033e-20
-4.94641e-07 1.30872e-07 4.64575e-20
4.14194e-08 2.88625e-08 -1.62218e-19
-6.12802e-08 -1.47536e-07 -1.11297e-19
-9.31477e-08 -6.07676e-08 1.33251e-20
3.03194e-07 -3.0474e-09 -1.29619e-20
2.59185e-09 -5.78494e-08 9.06668e-20
-7.57717e-08 -2.67518e-08 -3.41618e-20
1.03329e-07 -2.46877e-07 -8.65481e-20
8.23773e-09 9.94473e-08 -2.86677e-20
8.4806e-08 2.62995e-07 5.3525e-20
1.01779e-07 -5.3636e-08 -7.34132e-20
-1.85662e-07 1.97619e-07 -4.14231e-23
1.70724e-07 2.10961e-07 -3.7815e-20
-1.07376e-08 4.80032e-09 8.37382e-21
1.76848e-09 4.58256e-08 -9.31939e-20
3.45571e-09 -2.0793e-08 -9.99375e-21
-1.64615e-08 -1.36523e-08 -1.11849e-19
-5.66981e-08 4.49577e-08 -7.6454e-21
-2.60127e-07 -6.16312e-08 1.7944e-20
9.09206e-10 2.92355e-08 -2.41857e-20
-6.80315e-08 2.03063e-08 -2.56896e-21
1.84307e-07 -2.67193e-08 1.31397e-19
-7.88148e-08 -2.55223e-07 8.15274e-21
-1.5523e-07 2.47216e-07 1.28681e-20
-4.38295e-08 2.02584e-08 -5.31331e-20
-2.08043e-07 -1.47205e-07 4.08729e-20
4.70918e-08 -2.20851e-08 1.30639e-20
-2.82088e-07 -1.38126e-08 2.30417e-20
1.38095e-07 -4.87289e-07 2.2163e-20
1.88677e-07 -1.98133e-07 -3.06251e-20
2.88505e-07 5.11517e-07 6.22376e-20
-2.70395e-09 6.18237e-08 -5.202e-21
2.47646e-08 -2.56985e-07 6.12444e-20
-1.0034e-08 6.07768e-09 -6.82947e-20
-1.33748e-07 -2.49572e-07 -5.38784e-20
4.48745e-08 -3.84078e-08 -6.61673e-20
-2.58031e-08 2.5995e-07 -3.03539e-20
6.26444e-08 -1.83871e-08 3.39279e-20
1.42553e-07 2.54045e-07 -1.78262e-20
1.42776e-07 -3.33328e-09 4.65055e-20
2.60603e-07 -7.68927e-07 3.17127e-20
-5.52191e-08 -1.02799e-07 -1.53929e-20
-2.30291e-07 1.00343e-07 3.80905e-20
-3.2268e-08 1.58536e-08 -6.36277e-20
2.18621e-07 1.46408e-07 2.54479e-20
1.55825e-07 -8.60282e-08 2.61033e-20
8.23696e-08 3.61869e-08 -2.3513e-20
-1.68454e-08 1.42361e-08 -1.8347e-20
1.56297e-07 -2.41456e-07 -8.42202e-20
-1.66629e-07 -2.07937e-07 3.88072e-20
2.14991e-07 8.48017e-08 4.09987e-20
5.4691e-08 -3.38027e-08 7.62413e-21
1.00509e-07 -2.4981e-07 -4.36533e-20
1.18112e-07 -2.23888e-08 4.12487e-20
-1.14619e-07 -4.57279e-08 -2.86072e-20
-4.98328e-09 -4.65224e-08 8.32242e-20
-2.62728e-07 3.64829e-08 -1.0364e-20
2.76038e-08 2.30476e-07 -1.52032e-20
1.79735e-07 4.19405e-08 -1.46061e-22
-2.04167e-07 -9.13833e-08 -4.88622e-21
-1.00394e-07 2.57422e-07 -3.02578e-20
-2.29471e-08 -2.24545e-07 -1.28608e-20
5.93622e-08 2.89724e-08 -5.01207e-20
-3.85328e-08 1.08596e-07 3.1434e-20
-1.83598e-07 1.31679e-07 1.03878e-20
2.35793e-07 1.18935e-07 5.38618e-20
-1.07343e-07 -3.37201e-08 -3.13264e-20
-2.60307e-08 -1.10539e-07 -2.85535e-20
1.80189e-07 2.09456e-07 -1.82624e-20
-4.23569e-08 -1.9214e-08 3.22034e-20
5.9251e-07 -4.2604e-07 -1.94118e-20
1.25472e-07 -8.77849e-08 3.08221e-20
1.02466e-07 5.02133e-07 -2.24641e-20
1.32305e-07 -1.27196e-07 -5.1675e-20
-2.86056e-07 1.08938e-06 7.89305e-20
-2.87713e-07 -1.07877e-06 4.85533e-20
7.06884e-07 9.29162e-07 3.71905e-20
6.98116e-07 -9.28912e-07 -9.49491e-21
1.15712e-06 -4.5163e-10 -4.38941e-20
-9.97489e-07 4.01311e-07 -5.325e-20
-9.80952e-07 -4.05675e-07 2.05843e-20
4.77015e-08 2.58756e-08 -2.08471e-20
3.06062e-08 1.48618e-08 -7.76403e-20
8.89085e-08 1.19725e-08 1.01522e-20
1.56965e-07 8.38869e-08 6.71221e-20
4.65619e-08 1.85472e-07 3.09175e-20
-1.68278e-07 -1.44576e-07 3.8838e-20
8.47421e-08 -7.81199e-08 -4.49559e-20
1.80813e-07 1.45111e-07 -3.61819e-20
-4.18163e-08 2.28279e-07 -3.60534e-20
2.96845e-08 -1.45811e-08 1.23235e-19
4.25573e-08 -2.19067e-07 5.89751e-20
5.56022e-08 3.74932e-08 -3.16611e-20
3.26128e-07 1.14246e-07 -6.05558e-20
7.30928e-09 2.34754e-08 5.31079e-20
1.26044e-07 4.12542e-08 1.30016e-20
-1.56e-07 8.62927e-08 1.04318e-20
-2.13587e-07 7.38882e-08 -3.052e-20
4.22875e-08 -2.89712e-08 5.30665e-20
-1.36365e-07 -6.31024e-08 5.23002e-21
-1.4983e-07 -8.87472e-08 -2.84022e-20
-1.31338e-08 -1.50408e-07 3.13291e-20
5.92424e-10 -1.72746e-07 3.34618e-20
-1.90195e-07 -8.2216e-09 -2.63274e-21
2.82293e-07 -4.38304e-08 -2.29191e-20
1.52291e-07 9.38563e-08 -2.06951e-20
-1.26021e-07 8.59679e-08 -4.42168e-20
-5.68217e-08 2.7814e-08 -3.42135e-20
1.42141e-07 -1.27363e-07 -2.84779e-20
-1.06798e-07 1.66288e-07 -5.08581e-21
-1.31557e-07 -1.3858e-07 -2.53175e-20
-1.24676e-08 1.8113e-07 1.56897e-20
-2.71001e-08 1.52873e-07 -3.36114e-20
4.4668e-09 -1.10983e-07 1.6066e-20
5.72573e-08 -1.8506e-07 1.75517e-20
-9.35851e-08 -6.0058e-08 -3.40577e-20
1.29662e-07 -3.69771e-08 7.23055e-20
3.16989e-10 1.80906e-07 -3.60692e-20
-3.91394e-09 1.15589e-07 6.06913e-20
-2.90507e-08 1.30021e-07 -3.62562e-20
2.12803e-07 -5.23707e-08 4.08013e-20
-4.46911e-08 4.26709e-08 -2.64328e-20
4.82335e-08 1.81052e-07 -1.3143e-20
-2.91476e-08 1.83968e-08 -5.09687e-20
1.07475e-07 4.98361e-07 2.61245e-21
-5.27162e-08 2.84586e-08 -3.45004e-20
5.59317e-08 -2.91151e-08 -4.23912e-20
1.60891e-08 1.53847e-07 -1.55261e-20
-1.80428e-07 4.28575e-08 1.28139e-20
-5.548e-09 -7.82124e-08 -3.38299e-20
7.44607e-09 -7.10994e-07 4.80345e-20
2.15972e-08 1.30424e-07 5.17851e-21
-1.3479e-07 1.28232e-07 4.88143e-21
2.09323e-07 7.78526e-07 9.48768e-21
1.00511e-08 6.6196e-09 -2.70946e-20
8.68405e-09 -6.31323e-09 1.17182e-19
1.01477e-07 -7.91342e-08 -5.73079e-20
-1.44043e-07 1.28971e-07 8.22617e-20
-1.72895e-07 -5.10717e-08 2.34932e-21
-1.7767e-07 -5.83526e-08 -5.20113e-20
-3.54337e-09 2.18146e-09 7.95138e-21
-2.44862e-09 -1.18185e-09 -9.62989e-20
8.29898e-08 1.68621e-08 -4.44906e-20
2.63399e-08 1.21122e-07 1.03835e-20
-3.04434e-09 1.20434e-07 -1.8143e-20
-5.95512e-07 -4.32583e-07 2.2454e-22
1.05703e-07 -1.66255e-07 -4.91247e-20
5.3467e-08 1.92562e-08 -1.30044e-20
-1.96098e-07 -2.10949e-08 3.04797e-20
-1.23992e-07 1.6381e-07 3.84318e-20
-1.60072e-07 7.5267e-08 -1.31426e-20
5.84656e-07 4.20082e-07 6.25942e-20
5.78528e-08 3.80303e-08 -2.10576e-20
-5.69064e-08 1.85729e-07 2.58417e-20
-1.12178e-07 -9.60851e-08 -4.42357e-20
2.79062e-08 -1.46312e-07 2.31236e-20
-9.07744e-08 -1.72707e-07 -1.13469e-19
-1.45459e-07 -9.97024e-08 3.63705e-20
9.96939e-08 -1.76805e-07 -8.25847e-20
1.19587e-07 -1.64346e-07 -4.92099e-20
-3.79045e-08 -7.41927e-07 1.02844e-19
3.05041e-07 -4.87924e-07 1.52764e-20
1.45721e-08 -1.77618e-07 9.26202e-20
1.25253e-07 9.53521e-08 2.59661e-20
-1.12512e-07 -1.36576e-07 2.85964e-20
-9.75817e-08 1.81923e-07 5.43372e-20
-5.99521e-08 1.78305e-07 -1.79853e-20
1.30601e-07 1.3524e-07 -3.38484e-20
6.40287e-08 -1.66776e-07 9.02783e-20
-1.65553e-07 -4.72039e-07 2.72867e-20
3.73097e-09 5.73526e-08 -1.28468e-20
1.32221e-07 1.36056e-07 -1.80146e-20
-7.12763e-08 -3.50971e-08 -3.90831e-20
-5.92249e-08 3.23297e-08 -1.58688e-20
5.3005e-07 -2.32206e-07 3.98216e-20
6.58298e-08 -1.08797e-07 -1.03444e-20
-6.24816e-08 -1.06892e-07 -3.58938e-20
2.37102e-08 -2.05124e-09 -1.40379e-20
2.04192e-09 -8.98453e-09 7.72142e-20
-6.64866e-09 -6.57099e-09 -4.88108e-20
2.91952e-08 1.91423e-08 -9.26954e-20
-9.15388e-08 -1.72799e-07 -3.3414e-20
1.40857e-07 5.64893e-08 3.09763e-20
-3.4278e-07 -3.76843e-07 4.67888e-20
1.28993e-09 1.10447e-08 5.53215e-22
1.28041e-09 1.9816e-09 6.02639e-21
2.47683e-09 -3.22233e-10 -2.70956e-21
3.28934e-07 -6.49574e-07 1.19328e-20
-1.36709e-08 1.61003e-08 -2.68936e-20
-3.13419e-09 1.95047e-08 -5.70226e-20
-1.4163e-07 5.0346e-08 -5.4551e-20
-4.89524e-09 5.75255e-08 -1.56103e-20
-3.11176e-08 9.226e-08 5.45763e-21
6.41424e-08 2.73392e-09 -3.67909e-20
1.44688e-08 5.54603e-08 -7.12378e-20
-3.79173e-09 7.66903e-08 -1.84548e-20
1.09933e-07 5.98085e-08 1.29853e-20
7.83447e-09 7.07675e-07 8.22652e-20
-1.02281e-07 9.67816e-08 1.81614e-20
7.66893e-08 -5.15652e-08 -5.82292e-20
4.42718e-08 -4.04274e-08 -1.37684e-20
-7.25828e-07 -9.96581e-08 2.16555e-20
-2.06833e-08 8.20053e-09 3.28134e-20
-5.28509e-07 -6.25178e-07 4.76065e-21
9.59992e-09 2.57147e-08 1.33366e-20
9.26956e-08 1.80225e-08 -1.54817e-20
2.75983e-07 -3.58174e-08 3.78209e-20
-6.30882e-08 -1.03668e-07 -2.56388e-20
1.20622e-07 3.45951e-08 5.48705e-20
6.25821e-10 -3.06959e-08 3.76966e-20
-6.80281e-08 7.87095e-08 -2.88204e-21
-2.60151e-08 -1.65474e-08 -6.68976e-20
-6.13194e-08 1.24574e-07 2.87135e-21
1.10945e-08 7.86239e-08 -3.12972e-20
1.80256e-08 1.32113e-08 -5.65445e-20
1.78887e-08 -1.26913e-08 1.51306e-19
-4.92043e-07 -1.34041e-07 -3.71374e-20
5.42021e-08 2.02235e-08 -4.19342e-20
-6.52605e-08 1.26316e-06 1.24971e-19
-4.53766e-09 -1.29777e-06 9.39768e-20
6.38781e-07 1.09352e-06 1.43925e-19
-6.62892e-08 5.259e-08 -3.15776e-20
-3.38487e-07 6.81193e-07 8.24186e-20
6.42451e-07 -1.05546e-06 3.0778e-20
-1.06231e-07 -1.71937e-07 -1.02961e-19
9.75591e-07 8.54837e-07 2.15924e-20
1.14667e-08 -2.03386e-08 1.95456e-20
-1.19487e-08 -2.06086e-08 -9.382e-20
1.02266e-06 -8.35804e-07 6.01821e-20
-6.2664e-08 1.23233e-07 1.82842e-20
-6.42386e-07 -4.09117e-07 -4.98456e-21
-5.41707e-07 -1.12906e-06 4.31809e-20
-3.03405e-07 -6.9799e-07 1.95105e-20
-5.56887e-07 1.14785e-06 4.84314e-20
-1.31604e-07 7.77861e-07 5.11171e-20
-9.27755e-10 2.72347e-08 -1.31036e-20
-3.379e-07 4.35037e-07 2.71154e-20
-3.23506e-07 -6.62112e-07 2.4423e-20
1.25796e-06 2.19523e-07 9.71897e-21
-9.8361e-08 8.36241e-08 -5.15324e-21
-2.30957e-09 5.52465e-08 -3.97986e-20
-6.08496e-07 4.4051e-07 7.54612e-20
-1.09084e-07 5.82199e-08 -1.12118e-19
1.24557e-06 -1.95258e-07 -2.86318e-20
-8.32556e-08 5.5889e-08 -6.82757e-20
6.06488e-08 -1.2543e-07 6.98532e-20
-9.69308e-07 -7.36202e-07 2.6298e-20
-3.26844e-07 7.00311e-07 -2.26208e-21
-9.92796e-07 7.30796e-07 2.90169e-20
2.90083e-07 6.47152e-07 6.96318e-20
-1.06789e-07 8.48895e-08 2.56766e-20
-2.96313e-08 1.67814e-08 -1.32479e-20
-1.62215e-09 -2.58833e-09 -3.05549e-20
4.17449e-10 -2.22942e-09 3.08429e-21
8.11941e-09 8.52451e-08 5.58108e-21
-2.37994e-09 2.59224e-09 1.70155e-20
1.26561e-09 3.20128e-09 9.14039e-20
2.15577e-09 -9.29685e-10 -4.66096e-20
-1.27004e-09 1.00971e-08 -1.34932e-20
-2.23207e-07 4.86988e-07 -2.09969e-21
-1.67879e-08 1.20475e-08 -1.56883e-20
2.89306e-08 -1.82293e-08 2.62597e-20
2.83587e-08 -1.64287e-08 5.61168e-20
8.17042e-08 3.1884e-08 2.11381e-20
-7.67932e-10 -8.64177e-09 7.16271e-20
-7.71531e-09 -3.91254e-09 3.0125e-20
2.83417e-08 1.65333e-08 -1.86585e-20
7.21349e-07 -1.39027e-07 -4.25586e-21
-9.34565e-08 -1.19124e-07 -2.02804e-20
-6.3155e-07 4.40305e-07 2.19253e-20
-5.65448e-07 6.44923e-07 6.14828e-20
7.622e-07 -2.7526e-07 3.6876e-20
-3.65324e-09 -1.06105e-08 -3.74044e-20
-4.01244e-09 1.08993e-08 2.38386e-20
-1.19764e-08 2.06023e-09 3.02306e-20
-7.85679e-09 8.00776e-09 -2.48219e-21
-1.08563e-08 -2.30432e-09 7.62594e-20
2.00533e-09 2.55547e-09 4.93606e-20
1.16523e-08 -2.87039e-09 4.0572e-20
4.91015e-09 -3.45619e-09 7.38493e-20
-3.44506e-09 -2.47767e-09 4.12418e-20
7.4549e-09 -7.66114e-09 3.81273e-20
7.49629e-09 7.88932e-09 -1.38108e-19
-3.46609e-09 2.17711e-09 -8.25286e-20
3.78702e-09 -7.64068e-10 -2.79653e-21
6.28418e-09 3.48317e-09 -1.61196e-20
1.36161e-08 4.86335e-09 6.80693e-20
SCALARS rr_necrosis float
LOOKUP_TABLE default
0
0
0
0
0
0
0
0
0
0
0
0
0
0
0
0
0
0
0
0
0
0
0
0
0
0
0
0
0
0
0
0
0
0
0
0
0
0
0
0
0
0
0
0
0
0
0
0
0
0
0
0
0
0
0
0
0
0
0
0
0
0
0
0
0
0
0
0
0
0
0
0
0
0
0
0
0
0
0
0
0
0
0
0
0
0
0
0
0
0
0
0
0
0
0
0
0
0
0
0
0
0
0
0
0
0
0
0
0
0
0
0
0
0
0
0
0
0
0
0
0
0
0
0
0
0
0
0
0
0
0
0
0
0
0
0
0
0
0
0
0
0
0
0
0
0
0
0
0
0
0
0
0
0
0
0
0
0
0
0
0
0
0
0
0
0
0
0
0
0
0
0
0
0
0
0
0
0
0
0
0
0
0
0
0
0
0
0
0
0
0
0
0
0
0
0
0
0
0
0
0
0
0
0
0
0
0
0
0
0
0
0
0
0
0
0
0
0
0
0
0
0
0
0
0
0
0
0
0
0
0
0
0
0
0
0
0
0
0
0
0
0
0
0
0
0
0
0
0
0
0
0
0
0
0
0
0
0
0
0
0
0
0
0
0
0
0
0
0
0
0
0
0
0
0
0
0
0
0
0
0
0
0
0
0
0
0
0
0
0
0
0
0
0
0
0
0
0
0
0
0
0
0
0
0
0
0
0
0
0
0
0
0
0
0
0
0
0
0
0
0
0
0
0
0
0
0
0
0
0
0
0
0
0
0
0
0
0
0
0
0
0
0
0
0
0
0
0
0
0
0
0
0
0
0
0
0
0
0
0
0
0
0
0
0
0
0
0
0
0
0
0
0
0
0
0
0
0
0
0
0
0
0
0
0
0
0
0
0
0
0
0
0
0
0
0
0
0
0
0
0
0
0
0
0
0
0
0
0
0
0
0
0
0
0
0
0
0
0
0
0
0
0
0
0
0
0
0
0
0
0
0
0
0
0
0
0
0
0
0
0
0
0
0
0
0
0
0
0
0
0
0
0
0
0
0
0
0
0
0
0
0
0
0
0
0
0
0
0
0
0
0
0
0
0
0
0
0
0
0
0
0
0
0
0
0
0
0
0
0
0
0
0
0
0
0
0
0
0
0
0
0
0
0
0
0
0
0
0
0
0
0
0
0
0
0
0
0
0
0
0
0
0
0
0
0
0
0
0
0
0
0
0
0
0
0
0
0
0
0
0
0
0
0
0
0
0
0
0
0
0
0
0
0
0
0
0
0
0
0
0
0
0
SCALARS rr_protein float
LOOKUP_TABLE default
1
1
1
1
1
1
1
1
1
1
1
1
1
1
1
1
1
1
1
1
1
1
1
1
1
1
1
1
1
1
1
1
1
1
1
1
1
1
1
1
1
1
1
1
1
1
1
1
1
1
1
1
1
1
1
1
1
1
1
1
1
1
1
1
1
1
1
1
1
1
1
1
1
1
1
1
1
1
1
1
1
1
1
1
1
1
1
1
1
1
1
1
1
1
1
1
1
1
1
1
1
1
1
1
1
1
1
1
1
1
1
1
1
1
1
1
1
1
1
1
1
1
1
1
1
1
1
1
1
1
1
1
1
1
1
1
1
1
1
1
1
1
1
1
1
1
1
1
1
1
1
1
1
1
1
1
1
1
1
1
1
1
1
1
1
1
1
1
1
1
1
1
1
1
1
1
1
1
1
1
1
1
1
1
1
1
1
1
1
1
1
1
1
1
1
1
1
1
1
1
1
1
1
1
1
1
1
1
1
1
1
1
1
1
1
1
1
1
1
1
1
1
1
1
1
1
1
1
1
1
1
1
1
1
1
1
1
1
1
1
1
1
1
1
1
1
1
1
1
1
1
1
1
1
1
1
1
1
1
1
1
1
1
1
1
1
1
1
1
1
1
1
1
1
1
1
1
1
1
1
1
1
1
1
1
1
1
1
1
1
1
1
1
1
1
1
1
1
1
1
1
1
1
1
1
1
1
1
1
1
1
1
1
1
1
1
1
1
1
1
1
1
1
1
1
1
1
1
1
1
1
1
1
1
1
1
1
1
1
1
1
1
1
1
1
1
1
1
1
1
1
1
1
1
1
1
1
1
1
1
1
1
1
1
1
1
1
1
1
1
1
1
1
1
1
1
1
1
1
1
1
1
1
1
1
1
1
1
1
1
1
1
1
1
1
1
1
1
1
1
1
1
1
1
1
1
1
1
1
1
1
1
1
1
1
1
1
1
1
1
1
1
1
1
1
1
1
1
1
1
1
1
1
1
1
1
1
1
1
1
1
1
1
1
1
1
1
1
1
1
1
1
1
1
1
1
1
1
1
1
1
1
1
1
1
1
1
1
1
1
1
1
1
1
1
1
1
1
1
1
1
1
1
1
1
1
1
1
1
1
1
1
1
1
1
1
1
1
1
1
1
1
1
1
1
1
1
1
1
1
1
1
1
1
1
1
1
1
1
1
1
1
1
1
1
1
1
1
1
1
1
1
1
1
1
1
1
1
1
1
1
1
1
1
1
1
1
1
1
1
1
1
1
1
1
1
1
1
1
1
1
1
1
SCALARS rr_(S_ext) float
LOOKUP_TABLE default
0.966081
0.966084
0.966088
0.966082
0.966102
0.966087
0.96608
0.96609
0.966088
0.966087
0.966054
0.96609
0.96609
0.966089
0.966092
0.966089
0.966087
0.966086
0.966084
0.966086
0.966089
0.966113
0.966085
0.966086
0.966086
0.966086
0.966072
0.966088
0.966079
0.966103
0.96609
0.966078
0.966074
0.9661
0.966105
0.9661
0.966101
0.966105
0.96609
0.966074
0.966078
0.966101
0.966101
0.96609
0.966067
0.96608
0.966086
0.966089
0.966088
0.966075
0.966077
0.966083
0.966098
0.966085
0.966098
0.966079
0.966105
0.966084
0.966105
0.966085
0.966086
0.966094
0.96608
0.966095
0.966094
0.966092
0.966086
0.966087
0.966086
0.966084
0.966098
0.966098
0.966079
0.966094
0.966089
0.966069
0.966098
0.966092
0.966086
0.96608
0.96608
0.966104
0.966089
0.966077
0.966083
0.966073
0.966087
0.966094
0.966067
0.966111
0.966083
0.966112
0.966096
0.966092
0.966085
0.966075
0.966082
0.966087
0.966098
0.966089
0.966086
0.966085
0.966076
0.966084
0.966087
0.966086
0.966091
0.96609
0.966076
0.966081
0.966085
0.96607
0.966073
0.966085
0.966086
0.966085
0.966107
0.966083
0.966108
0.966085
0.966084
0.966091
0.966083
0.96609
0.966082
0.966092
0.966105
0.966087
0.966082
0.966084
0.966096
0.966083
0.966088
0.966083
0.966085
0.966104
0.966082
0.966091
0.966089
0.966104
0.966085
0.966092
0.966087
0.966087
0.966083
0.966085
0.966091
0.96609
0.966088
0.966084
0.966087
0.966083
0.966076
0.96609
0.966087
0.966083
0.96609
0.966087
0.966086
0.966086
0.966089
0.966077
0.966071
0.966075
0.966085
0.966086
0.966086
0.966087
0.966078
0.966085
0.966096
0.966084
0.966076
0.966091
0.966084
0.96609
0.966096
0.96609
0.9661
0.966089
0.96608
0.966086
0.966086
0.966084
0.966094
0.966076
0.96609
0.966093
0.966098
0.966087
0.966094
0.966082
0.966083
0.966077
0.966083
0.966085
0.966085
0.966088
0.966083
0.966093
0.966083
0.966085
0.966081
0.966088
0.96608
0.966089
0.966093
0.966083
0.966095
0.966083
0.966097
0.966092
0.966087
0.966089
0.966083
0.966092
0.966082
0.966093
0.966082
0.966081
0.96608
0.966081
0.966081
0.966081
0.966089
0.966091
0.966091
0.966091
0.966091
0.966099
0.966098
0.966083
0.966087
0.966078
0.966089
0.966093
0.966093
0.966079
0.96608
0.966077
0.966087
0.966085
0.966094
0.966085
0.96609
0.966076
0.966084
0.966082
0.96608
0.966073
0.966089
0.966083
0.966089
0.966082
0.966084
0.966077
0.966081
0.966103
0.966081
0.966086
0.966081
0.966077
0.966089
0.966081
0.966081
0.966087
0.966103
0.966082
0.966082
0.966091
0.966085
0.966093
0.966094
0.966099
0.966088
0.966074
0.966073
0.9661
0.966088
0.96609
0.966087
0.966094
0.966091
0.966081
0.966092
0.966087
0.966091
0.966088
0.96608
0.966107
0.966096
0.966091
0.966091
0.966088
0.966088
0.9661
0.966091
0.966088
0.966088
0.966087
0.966098
0.966084
0.966098
0.966088
0.966068
0.966087
0.966083
0.966092
0.966084
0.966106
0.966088
0.966091
0.966083
0.966091
0.966087
0.966089
0.966084
0.966085
0.966085
0.966096
0.966083
0.966088
0.966094
0.966083
0.966087
0.966088
0.966087
0.966094
0.966087
0.966091
0.966088
0.9661
0.966088
0.966087
0.966089
0.966088
0.966087
0.966087
0.966095
0.966089
0.966087
0.966084
0.966091
0.966091
0.966087
0.9661
0.966054
0.96609
0.96608
0.966089
0.966008
0.966009
0.966008
0.966007
0.966005
0.966013
0.966014
0.966093
0.966101
0.966086
0.966087
0.966084
0.966088
0.966092
0.966087
0.966087
0.966101
0.966087
0.966097
0.966083
0.96609
0.966087
0.966088
0.966088
0.966101
0.96609
0.966088
0.96609
0.966087
0.966084
0.96608
0.966087
0.96609
0.966096
0.966085
0.966084
0.966085
0.966087
0.966089
0.966091
0.966085
0.966091
0.966087
0.966087
0.96609
0.966087
0.966086
0.96609
0.966089
0.9661
0.966068
0.966093
0.966095
0.966089
0.96609
0.966091
0.966056
0.966087
0.966089
0.966084
0.96611
0.96611
0.966088
0.966085
0.96609
0.966086
0.96612
0.966118
0.966087
0.966091
0.96609
0.966061
0.966084
0.966092
0.966089
0.966089
0.966087
0.966052
0.966091
0.966084
0.96609
0.96609
0.966088
0.966088
0.966088
0.966089
0.966074
0.966083
0.966087
0.96609
0.966089
0.966088
0.966089
0.966089
0.966089
0.966069
0.966095
0.966084
0.966091
0.966092
0.96607
0.966087
0.966086
0.966101
0.966103
0.966102
0.966095
0.966084
0.96609
0.966069
0.966102
0.966114
0.966114
0.966052
0.966104
0.966102
0.966089
0.966097
0.966087
0.966086
0.966089
0.966094
0.966091
0.966055
0.966089
0.966092
0.966092
0.966069
0.966101
0.966087
0.966089
0.966091
0.966086
0.966088
0.966091
0.966096
0.966089
0.966096
0.966089
0.966093
0.966103
0.966104
0.966071
0.966087
0.966079
0.966084
0.966075
0.966093
0.966059
0.966072
0.966089
0.966076
0.966103
0.966103
0.96608
0.966085
0.966078
0.966082
0.966073
0.966082
0.966073
0.966105
0.966068
0.966059
0.966077
0.966091
0.966093
0.966073
0.966091
0.96607
0.96609
0.966086
0.966081
0.966071
0.966079
0.966051
0.966087
0.966102
0.96611
0.96611
0.966089
0.96611
0.96611
0.96611
0.966106
0.966069
0.966102
0.966097
0.966103
0.96609
0.966109
0.966108
0.966106
0.966049
0.966086
0.96606
0.966088
0.966081
0.966101
0.9661
0.966101
0.966101
0.9661
0.966112
0.966105
0.96611
0.966115
0.966104
0.966103
0.966115
0.966111
0.966109
0.966102
SCALARS rr_(P_ext) float
LOOKUP_TABLE default
0.0202192
0.020123
0.0201314
0.0201246
0.0200987
0.0201316
0.0202195
0.0201259
0.0201395
0.0201233
0.0202128
0.0201258
0.0201278
0.0201221
0.0201076
0.02013
0.0201186
0.0201269
0.0201438
0.0201338
0.0201351
0.0200656
0.020135
0.0201337
0.020134
0.0201253
0.0201995
0.0201303
0.0201701
0.020085
0.0201281
0.0201698
0.0202008
0.0200908
0.020088
0.0200909
0.020084
0.0200892
0.0201283
0.0202006
0.0201703
0.0200836
0.0200837
0.0201281
0.0201916
0.0201687
0.0201418
0.0201379
0.0201312
0.020176
0.0201725
0.0201602
0.0201
0.02016
0.0201008
0.0201887
0.0200878
0.02016
0.0200879
0.0201333
0.020119
0.020111
0.0201933
0.0201115
0.0201109
0.0201187
0.0201186
0.0201253
0.0201344
0.0201226
0.0201002
0.0201003
0.0201703
0.0201157
0.0201311
0.0202049
0.0201058
0.0201188
0.0201253
0.020158
0.0201779
0.0200957
0.0201149
0.0201807
0.0201672
0.0201905
0.0201304
0.0201172
0.0201915
0.0200703
0.0201601
0.0200704
0.0201053
0.0201198
0.0201593
0.0201734
0.0201778
0.0201235
0.020106
0.0201287
0.0201493
0.020165
0.0201808
0.020126
0.0201243
0.0201241
0.0201138
0.0201295
0.020181
0.0201215
0.0201332
0.0201885
0.0201842
0.0201266
0.0201246
0.0201597
0.0200879
0.0201782
0.0200882
0.0201593
0.0201459
0.0201087
0.020123
0.0201169
0.0201208
0.0201068
0.0200912
0.0201235
0.0201778
0.0201593
0.0201002
0.0201236
0.0201154
0.0201233
0.0201648
0.0200877
0.0201831
0.0201272
0.0201148
0.0200878
0.0201638
0.0201231
0.0201444
0.0201233
0.0201786
0.020125
0.0201245
0.0201313
0.0201316
0.0201522
0.0201381
0.020123
0.02017
0.0201277
0.0201233
0.0201235
0.0201207
0.0201628
0.0201625
0.0201278
0.0201378
0.0201693
0.0201892
0.0201725
0.0201629
0.020124
0.0201629
0.020163
0.02017
0.0201627
0.020105
0.02016
0.0201727
0.0201198
0.0201598
0.0201141
0.0201051
0.0201259
0.0200997
0.020124
0.0201699
0.0201236
0.0201237
0.0201636
0.020117
0.0201733
0.020117
0.0201136
0.0201047
0.0201235
0.0201169
0.0201768
0.0201598
0.0201699
0.0201234
0.0201273
0.0201267
0.0201155
0.0201231
0.020119
0.0201229
0.0201426
0.0201574
0.0201156
0.0201698
0.020115
0.0201188
0.0201655
0.0201098
0.0201228
0.0201089
0.0201216
0.0201246
0.0201148
0.0201518
0.0201208
0.0201564
0.0201137
0.020121
0.020121
0.0201221
0.0201217
0.0201216
0.0201217
0.0201227
0.0201082
0.0201085
0.0201082
0.0201081
0.0201006
0.0201006
0.0201525
0.0201224
0.0201254
0.0201384
0.0201076
0.0201072
0.0201252
0.0201571
0.0201258
0.0201235
0.0201515
0.0201097
0.0201519
0.0201146
0.0201261
0.0201512
0.020156
0.0201782
0.0201775
0.0201148
0.0201801
0.0201288
0.0201565
0.0201432
0.0201259
0.0201212
0.0200831
0.0201215
0.0201807
0.0201564
0.0201255
0.0201258
0.0201576
0.0201213
0.020144
0.0200832
0.0201562
0.0201208
0.0201175
0.0201268
0.0201078
0.0201174
0.0201001
0.0201279
0.0201871
0.0201906
0.0201027
0.0201349
0.0201259
0.0201519
0.0201095
0.0201199
0.0201563
0.0201196
0.020149
0.0201241
0.0201489
0.0201569
0.0200758
0.0201041
0.0201073
0.0201075
0.0201227
0.0201482
0.0200919
0.0201179
0.0201374
0.0201479
0.0201509
0.0201028
0.0201515
0.0201052
0.0201499
0.0201913
0.0201484
0.0201791
0.0201134
0.0201515
0.0200759
0.0201499
0.0201156
0.0201526
0.0201165
0.0201501
0.0201304
0.0201949
0.0201323
0.0201517
0.0201032
0.0201522
0.0201374
0.0201165
0.0201227
0.02015
0.0201483
0.0201442
0.0201136
0.0201484
0.0201259
0.0201303
0.0201003
0.0201483
0.0201447
0.020136
0.0201437
0.0201493
0.0201435
0.0201107
0.0201261
0.0201443
0.0201519
0.0201234
0.0201232
0.0201488
0.0201004
0.0202162
0.0201307
0.0201781
0.0201356
0.0202672
0.0202671
0.0202665
0.0202667
0.0202664
0.0202674
0.020267
0.0201131
0.0200945
0.0201276
0.0201378
0.0201432
0.0201438
0.0201241
0.0201443
0.0201448
0.0200943
0.0201438
0.0201092
0.0201601
0.0201097
0.0201318
0.020138
0.0201441
0.0201025
0.0201307
0.0201373
0.0201306
0.0201372
0.0201445
0.0201584
0.020138
0.0201315
0.0201089
0.0201423
0.0201454
0.0201427
0.0201386
0.0201318
0.0201239
0.0201428
0.0201241
0.0201326
0.0201383
0.0201257
0.0201324
0.020144
0.0201166
0.0201365
0.0200953
0.0201913
0.0201131
0.0201107
0.0201317
0.0201362
0.0201189
0.0202151
0.0201317
0.0201366
0.0201944
0.0200764
0.0200762
0.0201307
0.0201434
0.0201355
0.0201423
0.0200618
0.0200618
0.0201256
0.0201255
0.020126
0.0202153
0.0201448
0.0201152
0.0201384
0.0201392
0.0201385
0.0202168
0.0201171
0.0201438
0.020131
0.020131
0.0201393
0.0201375
0.0201393
0.0201385
0.0201999
0.0201789
0.0201375
0.0201308
0.0201364
0.0201397
0.020137
0.0201358
0.0201364
0.0201912
0.0201075
0.0201429
0.0201192
0.0201166
0.0201918
0.0201313
0.0201322
0.0201002
0.020077
0.0200771
0.0201041
0.020145
0.0201312
0.0201928
0.0200789
0.020064
0.020064
0.0202179
0.0200892
0.020085
0.0201322
0.0201057
0.0201277
0.0201227
0.0201163
0.020114
0.0201259
0.0202153
0.0201298
0.0201199
0.0201154
0.0202055
0.0200881
0.0201961
0.0201158
0.0201225
0.0201505
0.0201282
0.0201263
0.0200994
0.020125
0.0200995
0.0201308
0.0201153
0.0200866
0.020086
0.0201925
0.0201215
0.020221
0.0202192
0.0202231
0.0201172
0.0202164
0.0202251
0.0201396
0.0202221
0.0200954
0.0200954
0.0202206
0.0201358
0.0201997
0.0202215
0.0202015
0.0202219
0.0202015
0.0200887
0.020196
0.020216
0.0202208
0.0201267
0.0201119
0.020203
0.0201264
0.0202244
0.0201234
0.0201352
0.0202226
0.0202044
0.020224
0.0202179
0.0201326
0.0200938
0.0200657
0.0200669
0.0201217
0.0200659
0.0200659
0.0200664
0.0200739
0.0201942
0.0200872
0.0201035
0.0200937
0.0201229
0.0200719
0.0200719
0.020092
0.0202189
0.0201361
0.0202177
0.0201976
0.0201969
0.02008
0.0200803
0.0200809
0.0200807
0.0200801
0.0200673
0.0200808
0.0200719
0.0200654
0.0200798
0.0200797
0.0200651
0.020067
0.0200715
0.0200815
SCALARS rr_(S) float
LOOKUP_TABLE default
0.936639
0.936581
0.936589
0.93658
0.936583
0.936589
0.936639
0.936588
0.936595
0.936584
0.93661
0.936588
0.936589
0.936585
0.936579
0.936589
0.936581
0.936585
0.936593
0.936589
0.936593
0.936574
0.936589
0.936589
0.936589
0.936584
0.936618
0.936589
0.936605
0.936576
0.936589
0.936604
0.936621
0.936577
0.936579
0.936577
0.936573
0.93658
0.93659
0.936621
0.936605
0.936573
0.936573
0.936589
0.936609
0.936606
0.936594
0.936594
0.936589
0.936606
0.936605
0.936603
0.93658
0.936604
0.93658
0.936618
0.936579
0.936603
0.936579
0.936588
0.93658
0.936583
0.936622
0.936584
0.936582
0.936586
0.93658
0.936584
0.936589
0.93658
0.93658
0.93658
0.936606
0.936585
0.93659
0.936619
0.936583
0.936586
0.936584
0.936599
0.936612
0.936583
0.936581
0.93661
0.936608
0.936613
0.936588
0.936587
0.936609
0.936576
0.936603
0.936576
0.936581
0.936586
0.936604
0.936604
0.936614
0.936583
0.936584
0.936589
0.936599
0.936608
0.93661
0.936583
0.936584
0.936583
0.936581
0.93659
0.93661
0.936577
0.936588
0.936609
0.936609
0.936584
0.936584
0.936605
0.936582
0.936615
0.936582
0.936604
0.936595
0.936579
0.93658
0.936583
0.936578
0.936579
0.936581
0.936583
0.936614
0.936603
0.936578
0.93658
0.93658
0.93658
0.936608
0.936579
0.936617
0.936589
0.93658
0.936579
0.936607
0.936588
0.936597
0.936584
0.936615
0.936583
0.936588
0.936591
0.93659
0.936599
0.936593
0.93658
0.936603
0.936589
0.936583
0.93658
0.936585
0.936608
0.936608
0.936586
0.936594
0.936603
0.936611
0.936604
0.936606
0.936584
0.936608
0.936608
0.936604
0.936607
0.936581
0.936603
0.936605
0.936585
0.936604
0.936581
0.936581
0.936588
0.936582
0.936586
0.936606
0.936583
0.936583
0.936607
0.936586
0.936605
0.936583
0.936584
0.936583
0.936583
0.936586
0.936613
0.936603
0.936604
0.93658
0.936584
0.936584
0.93658
0.93658
0.936586
0.93658
0.936594
0.936599
0.93658
0.936607
0.93658
0.936587
0.936607
0.936583
0.93658
0.936584
0.936587
0.936584
0.936581
0.936598
0.936587
0.9366
0.936584
0.936578
0.936577
0.936576
0.936577
0.936577
0.936577
0.936585
0.936579
0.936578
0.936578
0.936579
0.936581
0.936581
0.936598
0.936584
0.936577
0.936595
0.93658
0.93658
0.936577
0.936599
0.936576
0.936583
0.936599
0.936582
0.936599
0.936581
0.936575
0.936598
0.936599
0.936612
0.936605
0.936581
0.936616
0.936589
0.9366
0.936594
0.936576
0.936577
0.936575
0.936577
0.936619
0.936599
0.936576
0.936588
0.936599
0.936577
0.936597
0.936575
0.936599
0.936578
0.936584
0.936584
0.93658
0.936587
0.936581
0.936588
0.936612
0.936614
0.936583
0.936592
0.936588
0.936601
0.936582
0.936585
0.936599
0.936586
0.936599
0.936588
0.9366
0.936599
0.936574
0.936581
0.936578
0.936578
0.936584
0.9366
0.936577
0.936584
0.936594
0.9366
0.936601
0.936582
0.936599
0.936583
0.936602
0.936609
0.936599
0.936615
0.936583
0.936598
0.936574
0.936601
0.936583
0.936599
0.936584
0.936601
0.93659
0.936627
0.936588
0.936599
0.93658
0.936598
0.936593
0.936586
0.93658
0.9366
0.9366
0.936596
0.936585
0.936599
0.936589
0.936589
0.936582
0.9366
0.936597
0.936594
0.936597
0.9366
0.936597
0.936584
0.936588
0.936597
0.936599
0.936588
0.936588
0.936599
0.936582
0.936612
0.936591
0.936612
0.936593
0.936603
0.936603
0.936602
0.936602
0.936599
0.936607
0.936608
0.936583
0.936579
0.936586
0.936593
0.936593
0.936597
0.936588
0.936597
0.936597
0.93658
0.936597
0.936584
0.936603
0.936578
0.936589
0.936593
0.936597
0.936584
0.936591
0.936593
0.936591
0.936593
0.936594
0.936599
0.936593
0.936592
0.936583
0.936594
0.936594
0.936594
0.936593
0.936591
0.936588
0.936594
0.936588
0.936589
0.936593
0.936588
0.936589
0.936595
0.936583
0.936593
0.936579
0.936609
0.936583
0.936584
0.936591
0.936594
0.936585
0.936614
0.936589
0.936594
0.936626
0.936577
0.936578
0.936589
0.936594
0.936594
0.936594
0.936578
0.936577
0.936585
0.936588
0.936588
0.936618
0.936594
0.936583
0.936595
0.936595
0.936593
0.936611
0.936584
0.936594
0.936591
0.936591
0.936595
0.936593
0.936595
0.936595
0.93662
0.936615
0.936593
0.936591
0.936593
0.936595
0.936594
0.936594
0.936593
0.936611
0.936582
0.936593
0.936585
0.936584
0.936611
0.936589
0.936588
0.936583
0.936571
0.936571
0.93658
0.936595
0.936591
0.936611
0.936571
0.936574
0.936574
0.936612
0.936579
0.936575
0.936591
0.936583
0.936586
0.936583
0.936582
0.936584
0.936589
0.936613
0.93659
0.936587
0.936583
0.936619
0.936576
0.93663
0.936581
0.936586
0.936599
0.936588
0.936589
0.936578
0.936587
0.936578
0.93659
0.936584
0.936577
0.936578
0.936613
0.936583
0.936639
0.936642
0.936637
0.936585
0.936618
0.936635
0.936595
0.936637
0.936582
0.936582
0.936639
0.93659
0.936624
0.936642
0.936621
0.936642
0.936621
0.93658
0.936612
0.936617
0.936637
0.93659
0.936583
0.936621
0.936589
0.936633
0.936587
0.93659
0.936642
0.93662
0.93664
0.936611
0.93659
0.93658
0.936572
0.936572
0.936585
0.936572
0.936571
0.936572
0.936573
0.936612
0.936576
0.936581
0.936581
0.936586
0.936574
0.936573
0.936582
0.93661
0.936591
0.936619
0.936632
0.936625
0.936571
0.936571
0.936572
0.936572
0.936571
0.936574
0.936575
0.936575
0.936576
0.936574
0.936574
0.936576
0.936573
0.936574
0.936574
SCALARS rr_(P) float
LOOKUP_TABLE default
0.0231112
0.0230542
0.0230594
0.0230552
0.0230397
0.0230594
0.0231113
0.023056
0.0230642
0.0230545
0.0231072
0.023056
0.0230572
0.0230538
0.0230449
0.0230586
0.0230516
0.0230566
0.0230667
0.0230608
0.0230616
0.0230196
0.0230615
0.0230607
0.0230609
0.0230556
0.0230994
0.0230587
0.0230822
0.0230313
0.0230574
0.023082
0.0231003
0.0230348
0.0230332
0.0230349
0.0230307
0.023034
0.0230575
0.0231001
0.0230823
0.0230304
0.0230305
0.0230574
0.0230947
0.0230814
0.0230655
0.0230632
0.0230592
0.0230856
0.0230836
0.0230764
0.0230405
0.0230763
0.0230409
0.0230932
0.0230331
0.0230763
0.0230332
0.0230605
0.0230518
0.0230471
0.0230959
0.0230474
0.023047
0.0230517
0.0230516
0.0230556
0.0230611
0.023054
0.0230406
0.0230406
0.0230823
0.0230499
0.0230592
0.0231027
0.023044
0.0230518
0.0230556
0.0230751
0.0230868
0.0230379
0.0230494
0.0230884
0.0230805
0.0230942
0.0230587
0.0230508
0.0230947
0.0230223
0.0230764
0.0230224
0.0230436
0.0230523
0.0230759
0.0230841
0.0230868
0.0230546
0.0230441
0.0230577
0.02307
0.0230792
0.0230885
0.0230561
0.0230551
0.023055
0.0230487
0.0230582
0.0230886
0.0230533
0.0230604
0.023093
0.0230904
0.0230564
0.0230552
0.0230761
0.0230332
0.023087
0.0230333
0.0230759
0.0230679
0.0230456
0.0230542
0.0230506
0.0230528
0.0230445
0.0230351
0.0230546
0.0230868
0.0230758
0.0230405
0.0230546
0.0230497
0.0230544
0.0230792
0.023033
0.0230899
0.0230568
0.0230493
0.0230331
0.0230785
0.0230544
0.0230671
0.0230544
0.0230873
0.0230554
0.0230552
0.0230592
0.0230594
0.0230716
0.0230633
0.0230542
0.0230821
0.0230571
0.0230545
0.0230545
0.0230529
0.023078
0.0230778
0.0230572
0.0230631
0.0230817
0.0230934
0.0230836
0.023078
0.0230549
0.023078
0.0230781
0.0230821
0.0230779
0.0230435
0.0230763
0.0230837
0.0230524
0.0230762
0.0230489
0.0230435
0.023056
0.0230403
0.0230549
0.0230821
0.0230547
0.0230547
0.0230784
0.0230507
0.0230841
0.0230507
0.0230487
0.0230433
0.0230546
0.0230506
0.0230862
0.0230762
0.023082
0.0230545
0.0230568
0.0230565
0.0230497
0.0230543
0.0230519
0.0230542
0.023066
0.0230747
0.0230498
0.023082
0.0230494
0.0230518
0.0230795
0.0230464
0.0230541
0.0230459
0.0230535
0.0230552
0.0230493
0.0230714
0.023053
0.0230741
0.0230487
0.023053
0.023053
0.0230536
0.0230534
0.0230533
0.0230534
0.0230541
0.0230454
0.0230455
0.0230453
0.0230453
0.0230408
0.0230408
0.0230718
0.0230539
0.0230556
0.0230635
0.0230449
0.0230447
0.0230554
0.0230745
0.0230558
0.0230546
0.0230712
0.0230463
0.0230715
0.0230492
0.023056
0.0230711
0.0230739
0.023087
0.0230865
0.0230494
0.0230881
0.0230578
0.0230742
0.0230663
0.0230559
0.0230531
0.0230302
0.0230533
0.0230885
0.0230741
0.0230556
0.023056
0.0230748
0.0230531
0.0230668
0.0230302
0.023074
0.0230528
0.023051
0.0230565
0.0230451
0.023051
0.0230405
0.0230573
0.0230922
0.0230942
0.0230421
0.0230615
0.023056
0.0230715
0.0230462
0.0230525
0.0230741
0.0230523
0.0230698
0.023055
0.0230698
0.0230744
0.0230257
0.0230429
0.0230448
0.0230449
0.0230541
0.0230694
0.0230355
0.0230512
0.0230629
0.0230691
0.0230709
0.0230422
0.0230713
0.0230436
0.0230704
0.0230946
0.0230694
0.0230876
0.0230485
0.0230712
0.0230258
0.0230703
0.0230498
0.0230719
0.0230504
0.0230705
0.0230587
0.0230969
0.0230598
0.0230714
0.0230423
0.0230716
0.0230629
0.0230504
0.023054
0.0230704
0.0230694
0.023067
0.0230486
0.0230695
0.023056
0.0230587
0.0230407
0.0230694
0.0230672
0.0230621
0.0230667
0.02307
0.0230665
0.0230469
0.0230562
0.023067
0.0230715
0.0230546
0.0230545
0.0230697
0.0230407
0.0231092
0.0230589
0.0230869
0.0230618
0.0231389
0.0231388
0.0231384
0.0231386
0.0231384
0.023139
0.0231388
0.0230483
0.023037
0.023057
0.0230631
0.0230663
0.0230667
0.0230549
0.023067
0.0230673
0.0230369
0.0230667
0.023046
0.0230763
0.0230462
0.0230596
0.0230633
0.0230669
0.023042
0.0230589
0.0230629
0.0230588
0.0230628
0.0230671
0.0230753
0.0230633
0.0230594
0.0230458
0.0230658
0.0230676
0.0230661
0.0230636
0.0230596
0.0230549
0.0230661
0.023055
0.02306
0.0230635
0.0230559
0.0230599
0.0230668
0.0230505
0.0230624
0.0230376
0.0230946
0.0230484
0.0230469
0.0230595
0.0230622
0.0230519
0.0231085
0.0230595
0.0230625
0.0230966
0.0230261
0.023026
0.0230589
0.0230664
0.0230618
0.0230658
0.0230173
0.0230173
0.0230558
0.0230558
0.0230561
0.0231087
0.0230673
0.0230496
0.0230635
0.023064
0.0230635
0.0231095
0.0230507
0.0230667
0.0230591
0.0230591
0.0230641
0.023063
0.0230641
0.0230636
0.0230997
0.0230874
0.023063
0.023059
0.0230623
0.0230643
0.0230627
0.023062
0.0230623
0.0230946
0.023045
0.0230661
0.023052
0.0230505
0.0230949
0.0230593
0.0230598
0.0230406
0.0230264
0.0230264
0.0230429
0.0230674
0.0230592
0.0230955
0.0230275
0.0230186
0.0230186
0.0231101
0.023034
0.0230313
0.0230598
0.0230439
0.0230571
0.0230541
0.0230502
0.0230489
0.023056
0.0231086
0.0230584
0.0230525
0.0230497
0.023103
0.0230332
0.0230976
0.0230499
0.023054
0.0230707
0.0230575
0.0230563
0.02304
0.0230555
0.0230401
0.023059
0.0230497
0.0230322
0.0230319
0.0230954
0.0230533
0.0231122
0.0231112
0.0231134
0.0230508
0.0231093
0.0231146
0.0230643
0.0231128
0.0230377
0.0230378
0.023112
0.023062
0.0230996
0.0231126
0.0231006
0.0231128
0.0231007
0.0230336
0.0230974
0.0231091
0.0231121
0.0230565
0.0230476
0.0231015
0.0230564
0.0231142
0.0230545
0.0230616
0.0231132
0.0231024
0.023114
0.0231101
0.02306
0.0230367
0.0230196
0.0230203
0.0230535
0.0230197
0.0230197
0.02302
0.0230245
0.0230963
0.0230327
0.0230425
0.0230366
0.0230542
0.0230233
0.0230234
0.0230356
0.0231107
0.0230622
0.0231101
0.0230985
0.023098
0.0230282
0.0230284
0.0230288
0.0230287
0.0230283
0.0230206
0.0230287
0.0230233
0.0230194
0.0230281
0.023028
0.0230192
0.0230204
0.0230231
0.0230291
SCALARS rr_(T) float
LOOKUP_TABLE default
0.11244
0.112468
0.112466
0.112467
0.112479
0.112465
0.11244
0.112468
0.112463
0.112468
0.11244
0.112468
0.112467
0.112469
0.112475
0.112466
0.11247
0.112467
0.112461
0.112465
0.112464
0.112495
0.112464
0.112465
0.112465
0.112468
0.112445
0.112466
0.112453
0.112485
0.112467
0.112453
0.112445
0.112483
0.112484
0.112483
0.112486
0.112484
0.112467
0.112445
0.112453
0.112486
0.112486
0.112467
0.112447
0.112454
0.112462
0.112463
0.112466
0.112452
0.112453
0.112457
0.112479
0.112457
0.112478
0.112448
0.112484
0.112457
0.112484
0.112465
0.11247
0.112473
0.112447
0.112473
0.112473
0.112471
0.11247
0.112468
0.112464
0.112468
0.112478
0.112478
0.112453
0.112472
0.112466
0.112443
0.112476
0.112471
0.112468
0.112457
0.112451
0.112481
0.112472
0.11245
0.112455
0.112447
0.112466
0.112471
0.112447
0.112493
0.112457
0.112493
0.112476
0.11247
0.112457
0.112452
0.112451
0.112468
0.112476
0.112467
0.11246
0.112455
0.11245
0.112467
0.112468
0.112468
0.112472
0.112466
0.11245
0.112469
0.112465
0.112448
0.112449
0.112467
0.112468
0.112457
0.112484
0.112451
0.112484
0.112457
0.112461
0.112474
0.112468
0.112471
0.112469
0.112475
0.112483
0.112468
0.112451
0.112457
0.112479
0.112468
0.112471
0.112468
0.112455
0.112484
0.11245
0.112467
0.112472
0.112484
0.112456
0.112469
0.112461
0.112468
0.112451
0.112468
0.112468
0.112466
0.112465
0.112459
0.112464
0.112468
0.112453
0.112467
0.112468
0.112468
0.112469
0.112456
0.112456
0.112467
0.112464
0.112454
0.112448
0.112453
0.112456
0.112468
0.112456
0.112456
0.112453
0.112456
0.112476
0.112457
0.112453
0.11247
0.112457
0.112472
0.112476
0.112468
0.112479
0.112468
0.112454
0.112468
0.112468
0.112456
0.112471
0.112452
0.112471
0.112473
0.112477
0.112468
0.112471
0.112452
0.112457
0.112453
0.112468
0.112467
0.112467
0.112471
0.112468
0.11247
0.112468
0.112462
0.112457
0.112471
0.112454
0.112472
0.112471
0.112455
0.112474
0.112468
0.112475
0.112469
0.112468
0.112472
0.112459
0.11247
0.112458
0.112473
0.112469
0.112469
0.112468
0.112468
0.112468
0.112468
0.112469
0.112475
0.112474
0.112475
0.112475
0.112478
0.112478
0.112459
0.112469
0.112467
0.112463
0.112475
0.112475
0.112467
0.112457
0.112467
0.112468
0.112459
0.112474
0.112459
0.112472
0.112466
0.112459
0.112458
0.112451
0.112451
0.112472
0.112451
0.112466
0.112458
0.112462
0.112467
0.112469
0.112486
0.112469
0.112451
0.112458
0.112467
0.112468
0.112457
0.112469
0.112462
0.112486
0.112458
0.112469
0.112471
0.112467
0.112475
0.112471
0.112479
0.112467
0.112448
0.112447
0.112478
0.112464
0.112468
0.112459
0.112474
0.11247
0.112458
0.11247
0.11246
0.112469
0.11246
0.112457
0.11249
0.112477
0.112475
0.112475
0.112469
0.11246
0.112482
0.112471
0.112464
0.11246
0.112459
0.112477
0.112459
0.112476
0.11246
0.112447
0.11246
0.112451
0.112473
0.112459
0.11249
0.11246
0.112472
0.112459
0.112471
0.11246
0.112466
0.112447
0.112465
0.112459
0.112477
0.112459
0.112464
0.112471
0.112468
0.11246
0.11246
0.112462
0.112473
0.11246
0.112468
0.112466
0.112479
0.11246
0.112461
0.112464
0.112462
0.11246
0.112462
0.112474
0.112468
0.112461
0.112459
0.112469
0.112469
0.11246
0.112478
0.112439
0.112466
0.112451
0.112464
0.112422
0.112422
0.112422
0.112422
0.112422
0.112422
0.112422
0.112473
0.112481
0.112467
0.112464
0.112462
0.112462
0.112469
0.112462
0.112461
0.112481
0.112462
0.112475
0.112457
0.112474
0.112466
0.112464
0.112462
0.112478
0.112466
0.112464
0.112466
0.112464
0.112461
0.112457
0.112464
0.112466
0.112475
0.112462
0.112461
0.112462
0.112463
0.112466
0.112469
0.112462
0.112469
0.112465
0.112463
0.112468
0.112465
0.112462
0.112471
0.112464
0.112481
0.112447
0.112473
0.112474
0.112466
0.112464
0.11247
0.11244
0.112466
0.112464
0.112447
0.11249
0.11249
0.112466
0.112462
0.112464
0.112462
0.112497
0.112497
0.112467
0.112468
0.112468
0.11244
0.112461
0.112472
0.112463
0.112463
0.112463
0.112439
0.112471
0.112461
0.112466
0.112466
0.112463
0.112464
0.112463
0.112463
0.112445
0.112451
0.112464
0.112466
0.112464
0.112463
0.112464
0.112464
0.112464
0.112447
0.112475
0.112462
0.11247
0.112471
0.112447
0.112465
0.112465
0.112479
0.112489
0.112489
0.112477
0.112461
0.112466
0.112446
0.112488
0.112496
0.112496
0.112439
0.112483
0.112486
0.112466
0.112476
0.112467
0.112468
0.112471
0.112473
0.112468
0.112439
0.112466
0.11247
0.112472
0.112443
0.112484
0.112447
0.112471
0.112469
0.11246
0.112466
0.112468
0.112479
0.112468
0.112479
0.112466
0.112472
0.112485
0.112485
0.112447
0.112469
0.112439
0.11244
0.112439
0.112471
0.112439
0.112438
0.112463
0.112439
0.112481
0.112481
0.11244
0.112464
0.112445
0.112439
0.112444
0.112439
0.112444
0.112484
0.112446
0.112439
0.112439
0.112467
0.112473
0.112444
0.112468
0.112438
0.112469
0.112464
0.112439
0.112443
0.112438
0.112438
0.112465
0.112481
0.112495
0.112494
0.112469
0.112495
0.112495
0.112494
0.112491
0.112446
0.112485
0.112477
0.112482
0.112469
0.112492
0.112492
0.112482
0.112438
0.112464
0.112439
0.112446
0.112446
0.112488
0.112488
0.112487
0.112487
0.112488
0.112494
0.112488
0.112492
0.112495
0.112488
0.112488
0.112495
0.112494
0.112492
0.112487
SCALARS rr_tsim float
LOOKUP_TABLE default
250
250
250
250
250
250
250
250
250
250
250
250
250
250
250
250
250
250
250
250
250
250
250
250
250
250
250
250
250
250
250
250
250
250
250
250
250
250
250
250
250
250
250
250
250
250
250
250
250
250
250
250
250
250
250
250
250
250
250
250
250
250
250
250
250
250
250
250
250
250
250
250
250
250
250
250
250
250
250
250
250
250
250
250
250
250
250
250
250
250
250
250
250
250
250
250
250
250
250
250
250
250
250
250
250
250
250
250
250
250
250
250
250
250
250
250
250
250
250
250
250
250
250
250
250
250
250
250
250
250
250
250
250
250
250
250
250
250
250
250
250
250
250
250
250
250
250
250
250
250
250
250
250
250
250
250
250
250
250
250
250
250
250
250
250
250
250
250
250
250
250
250
250
250
250
250
250
250
250
250
250
250
250
250
250
250
250
250
250
250
250
250
250
250
250
250
250
250
250
250
250
250
250
250
250
250
250
250
250
250
250
250
250
250
250
250
250
250
250
250
250
250
250
250
250
250
250
250
250
250
250
250
250
250
250
250
250
250
250
250
250
250
250
250
250
250
250
250
250
250
250
250
250
250
250
250
250
250
250
250
250
250
250
250
250
250
250
250
250
250
250
250
250
250
250
250
250
250
250
250
250
250
250
250
250
250
250
250
250
250
250
250
250
250
250
250
250
250
250
250
250
250
250
250
250
250
250
250
250
250
250
250
250
250
250
250
250
250
250
250
250
250
250
250
250
250
250
250
250
250
250
250
250
250
250
250
250
250
250
250
250
250
250
250
250
250
250
250
250
250
250
250
250
250
250
250
250
250
250
250
250
250
250
250
250
250
250
250
250
250
250
250
250
250
250
250
250
250
250
250
250
250
250
250
250
250
250
250
250
250
250
250
250
250
250
250
250
250
250
250
250
250
250
250
250
250
250
250
250
250
250
250
250
250
250
250
250
250
250
250
250
250
250
250
250
250
250
250
250
250
250
250
250
250
250
250
250
250
250
250
250
250
250
250
250
250
250
250
250
250
250
250
250
250
250
250
250
250
250
250
250
250
250
250
250
250
250
250
250
250
250
250
250
250
250
250
250
250
250
250
250
250
250
250
250
250
250
250
250
250
250
250
250
250
250
250
250
250
250
250
250
250
250
250
250
250
250
250
250
250
250
250
250
250
250
250
250
250
250
250
250
250
250
250
250
250
250
250
250
250
250
250
250
250
250
250
250
250
250
250
250
250
250
250
250
250
250
250
250
250
250
250
250
250
250
250
250
250
250
250
250
250
250
SCALARS rr_Vext float
LOOKUP_TABLE default
0.181359
0.449124
0.356049
0.46811
0.250492
0.377829
0.179275
0.46509
0.395107
0.504566
0.165389
0.466509
0.409826
0.435014
0.516136
0.424865
0.369044
0.414185
0.365532
0.360528
0.40511
0.0765107
0.41507
0.383015
0.347106
0.403472
0.15501
0.352835
0.267413
0.339247
0.36197
0.276485
0.17152
0.252901
0.249247
0.253452
0.330126
0.249491
0.36154
0.192836
0.224721
0.29105
0.29106
0.397272
0.216886
0.24412
0.344613
0.350184
0.33008
0.303761
0.312854
0.245237
0.401518
0.315207
0.369415
0.157754
0.266178
0.317517
0.26615
0.393185
0.47093
0.464873
0.153276
0.327642
0.445314
0.417375
0.455655
0.391906
0.357986
0.515557
0.435555
0.430791
0.277654
0.338745
0.353973
0.176426
0.372676
0.413477
0.39517
0.271133
0.240491
0.283507
0.527532
0.240251
0.327761
0.119292
0.40758
0.34461
0.229706
0.0374829
0.273093
0.0407607
0.316358
0.299313
0.258659
0.232983
0.220909
0.442931
0.372911
0.351856
0.293536
0.27777
0.230478
0.418576
0.426138
0.383832
0.340627
0.340848
0.244629
0.512519
0.326027
0.164039
0.220057
0.457879
0.429719
0.304482
0.308631
0.183508
0.320035
0.303366
0.266986
0.502649
0.511811
0.44204
0.484526
0.384952
0.220815
0.478211
0.200079
0.262279
0.227503
0.456395
0.449024
0.448249
0.288937
0.187537
0.190638
0.32744
0.404469
0.18746
0.241542
0.38729
0.28797
0.472758
0.223276
0.38519
0.349732
0.336128
0.214789
0.269546
0.304299
0.440627
0.248027
0.397411
0.46199
0.469243
0.307856
0.249008
0.247657
0.401136
0.333853
0.246117
0.160076
0.239704
0.240467
0.430956
0.252349
0.255101
0.27462
0.245939
0.386344
0.258184
0.226059
0.297714
0.272812
0.340306
0.382118
0.361133
0.313977
0.360845
0.266567
0.418246
0.448852
0.241614
0.4423
0.23944
0.436795
0.402737
0.378966
0.379415
0.446227
0.200774
0.266928
0.246017
0.44741
0.439021
0.407199
0.447894
0.452952
0.381865
0.466569
0.307716
0.27411
0.512731
0.285547
0.465954
0.369961
0.226655
0.286342
0.461725
0.389035
0.350308
0.450056
0.445256
0.278859
0.284221
0.267543
0.395453
0.433419
0.498092
0.478089
0.520371
0.471558
0.515287
0.432055
0.457202
0.460651
0.434355
0.456357
0.422919
0.416635
0.282411
0.389411
0.454295
0.31212
0.470272
0.432156
0.49266
0.288246
0.468277
0.448677
0.2845
0.406913
0.282469
0.455238
0.411289
0.296255
0.277678
0.235553
0.271097
0.455773
0.197501
0.34702
0.276528
0.313903
0.468671
0.455548
0.147788
0.457104
0.236431
0.261764
0.46627
0.379027
0.264585
0.522182
0.291231
0.14778
0.267724
0.406399
0.508922
0.38269
0.457755
0.425155
0.226615
0.216731
0.175979
0.201428
0.308134
0.229075
0.371981
0.227524
0.406392
0.287622
0.268101
0.323953
0.293522
0.398522
0.281487
0.287596
0.13637
0.303571
0.43781
0.438058
0.391524
0.281116
0.192358
0.545878
0.360488
0.298317
0.274291
0.284976
0.282729
0.358843
0.278091
0.192059
0.274792
0.183496
0.351067
0.279576
0.127091
0.263722
0.321337
0.279315
0.443669
0.29071
0.381468
0.138315
0.305662
0.287014
0.261624
0.269318
0.321992
0.308722
0.321046
0.266564
0.271163
0.293859
0.403601
0.276095
0.399022
0.358787
0.290796
0.286474
0.290123
0.323372
0.289912
0.270117
0.308529
0.333029
0.387866
0.290169
0.286353
0.425143
0.419248
0.276212
0.290835
0.117368
0.342063
0.227678
0.31968
0.126304
0.131123
0.117233
0.119129
0.126411
0.133076
0.137186
0.365818
0.275203
0.269663
0.305534
0.296207
0.292407
0.314709
0.285993
0.292387
0.310823
0.291314
0.368788
0.261063
0.378832
0.289103
0.277578
0.291596
0.322765
0.328993
0.304695
0.351049
0.32603
0.300389
0.213975
0.303859
0.298862
0.32828
0.305308
0.288518
0.275035
0.304063
0.319091
0.43616
0.283305
0.424
0.438658
0.298864
0.422862
0.322475
0.255677
0.356793
0.307317
0.229504
0.18527
0.353348
0.377138
0.313432
0.259542
0.317012
0.138204
0.309863
0.289512
0.140569
0.0597485
0.0653753
0.268651
0.283294
0.331356
0.316586
0.0311308
0.0325286
0.318179
0.321541
0.304241
0.103724
0.264726
0.315903
0.315641
0.272075
0.240281
0.107863
0.464465
0.284945
0.35216
0.357671
0.255162
0.323444
0.249475
0.275479
0.129739
0.199381
0.323804
0.327749
0.280324
0.293562
0.303657
0.320504
0.306408
0.14396
0.275778
0.301352
0.290883
0.437486
0.143857
0.233731
0.240571
0.234522
0.155625
0.155628
0.267698
0.208507
0.301872
0.153856
0.185525
0.0614167
0.0614142
0.11231
0.199633
0.134971
0.256999
0.284537
0.297806
0.336999
0.307417
0.285231
0.222215
0.127171
0.278049
0.290579
0.282437
0.144129
0.147644
0.104628
0.281946
0.28597
0.22418
0.258249
0.238711
0.22379
0.29291
0.223757
0.257203
0.251385
0.158046
0.19524
0.165308
0.310644
0.112706
0.118918
0.115939
0.294532
0.10769
0.104733
0.200916
0.0979319
0.243154
0.243508
0.100659
0.255444
0.113722
0.110989
0.127154
0.105858
0.105723
0.174205
0.12624
0.112774
0.106277
0.235809
0.272658
0.118743
0.260315
0.0960766
0.264787
0.208171
0.100551
0.0864349
0.0948695
0.12646
0.22555
0.192179
0.0824424
0.0914071
0.253855
0.0775858
0.0775826
0.0878716
0.0979619
0.0995848
0.127334
0.207532
0.193794
0.253767
0.0775242
0.0775209
0.229251
0.0843465
0.178713
0.0765189
0.0783413
0.103271
0.198595
0.205595
0.218906
0.200659
0.19858
0.0438923
0.32038
0.0557536
0.0543417
0.259007
0.257238
0.0563344
0.0390571
0.0548044
0.238559
SCALARS rr_Vli float
LOOKUP_TABLE default
0.396486
0.903297
0.721403
0.942902
0.493003
0.765664
0.392034
0.93767
0.806266
1.01511
0.359835
0.940542
0.827701
0.874153
1.02412
0.859728
0.739394
0.835915
0.748796
0.732053
0.82348
0.146196
0.843737
0.777625
0.704887
0.813139
0.333349
0.714256
0.560608
0.659801
0.731224
0.579527
0.369271
0.494392
0.485904
0.495506
0.641457
0.486896
0.730481
0.415064
0.47121
0.565329
0.565389
0.802513
0.463322
0.511147
0.704661
0.713571
0.66868
0.640142
0.657314
0.509709
0.791281
0.654953
0.728498
0.336093
0.518808
0.659755
0.518791
0.798045
0.943863
0.925029
0.327839
0.652217
0.886009
0.836194
0.912999
0.789773
0.727289
1.03671
0.858506
0.849151
0.58221
0.676851
0.716968
0.381182
0.738158
0.828438
0.796421
0.56248
0.507623
0.556448
1.05351
0.508332
0.685383
0.254579
0.825074
0.689486
0.49066
0.0719434
0.567528
0.0782461
0.62635
0.600258
0.537108
0.489901
0.466216
0.891213
0.738706
0.711148
0.604216
0.579673
0.487749
0.84411
0.85808
0.772713
0.679546
0.689379
0.517759
1.02965
0.661677
0.349478
0.467059
0.92382
0.865435
0.632491
0.601612
0.387411
0.624001
0.629991
0.547959
0.998311
1.02947
0.884277
0.972856
0.763252
0.43175
0.962236
0.422252
0.544646
0.448452
0.918479
0.897109
0.901822
0.602899
0.365537
0.404181
0.660931
0.807731
0.365414
0.503538
0.778933
0.59024
0.951059
0.471531
0.776064
0.704322
0.680954
0.435246
0.556267
0.620246
0.886306
0.519982
0.802496
0.929441
0.944261
0.617853
0.518656
0.515713
0.810196
0.680205
0.515659
0.341238
0.503638
0.500928
0.867514
0.525644
0.531442
0.575696
0.512236
0.764767
0.536473
0.475014
0.597025
0.566758
0.6791
0.756451
0.728158
0.618511
0.726372
0.558759
0.841635
0.903303
0.503621
0.884782
0.503408
0.873806
0.803283
0.749915
0.763388
0.892541
0.423344
0.554569
0.51569
0.900209
0.886299
0.821711
0.894903
0.911195
0.76527
0.938416
0.629674
0.568292
1.02454
0.598471
0.930551
0.741277
0.47324
0.569198
0.928573
0.772727
0.703605
0.906435
0.889137
0.575329
0.570471
0.5542
0.788782
0.870377
1.00028
0.961015
1.04558
0.947451
1.03539
0.868711
0.907697
0.914769
0.862344
0.905931
0.83393
0.821516
0.583004
0.782794
0.915907
0.636238
0.933121
0.857209
0.993023
0.597475
0.944368
0.902754
0.586735
0.808801
0.582774
0.908855
0.829725
0.61088
0.57498
0.497305
0.572061
0.910101
0.417614
0.701481
0.572845
0.642712
0.945256
0.914967
0.286927
0.918294
0.500197
0.542258
0.9401
0.7642
0.548649
1.04888
0.596675
0.286927
0.5545
0.815977
1.01856
0.772233
0.908466
0.850823
0.4466
0.437752
0.374434
0.429883
0.608683
0.465559
0.749992
0.469384
0.807669
0.576817
0.55534
0.649547
0.603995
0.802277
0.579178
0.59602
0.263019
0.600442
0.86851
0.869129
0.787208
0.578062
0.376388
1.09285
0.7343
0.613258
0.565366
0.562958
0.583123
0.710459
0.572676
0.410196
0.565167
0.387691
0.700126
0.576599
0.245149
0.543077
0.642113
0.576619
0.88724
0.598797
0.772173
0.296222
0.619803
0.592062
0.51704
0.555817
0.655879
0.617314
0.645549
0.54901
0.557647
0.602196
0.804986
0.56787
0.804506
0.726242
0.573154
0.589128
0.594776
0.657842
0.593794
0.555994
0.631807
0.662546
0.78218
0.594651
0.590809
0.855287
0.843307
0.5683
0.573278
0.256088
0.692601
0.480627
0.650103
0.287606
0.29855
0.266803
0.271172
0.287682
0.303056
0.312311
0.729343
0.539723
0.544565
0.622604
0.6065
0.598933
0.633519
0.586131
0.599483
0.609469
0.596712
0.732658
0.542545
0.753107
0.586003
0.565699
0.597465
0.637466
0.666112
0.620592
0.710716
0.663997
0.615742
0.444039
0.619297
0.605571
0.652004
0.624636
0.591868
0.562871
0.620017
0.646721
0.877917
0.579857
0.853548
0.889738
0.609277
0.852428
0.653929
0.52384
0.713543
0.625425
0.450401
0.395665
0.704468
0.750313
0.635201
0.528048
0.635252
0.301236
0.628021
0.589265
0.300912
0.115298
0.126126
0.544004
0.580097
0.673736
0.647661
0.0592774
0.0619389
0.641396
0.648087
0.613482
0.226113
0.542804
0.631012
0.643416
0.555014
0.489877
0.235469
0.929283
0.583733
0.713232
0.724382
0.520582
0.658848
0.508989
0.561647
0.279101
0.421176
0.659632
0.663708
0.570433
0.599124
0.618256
0.651892
0.623523
0.307427
0.547097
0.616831
0.583015
0.874901
0.307368
0.473533
0.487753
0.46224
0.300515
0.300535
0.529553
0.427592
0.611536
0.329005
0.358876
0.117176
0.117176
0.245398
0.389619
0.262494
0.52105
0.563539
0.601411
0.677646
0.614657
0.569069
0.448036
0.277251
0.562546
0.5828
0.564247
0.311557
0.287924
0.224284
0.563451
0.574849
0.461942
0.521747
0.481453
0.440836
0.590094
0.440798
0.520822
0.502147
0.307811
0.380027
0.353393
0.623982
0.246785
0.25998
0.254334
0.589283
0.234981
0.230138
0.410009
0.214644
0.477121
0.477842
0.220334
0.51961
0.244574
0.243122
0.273901
0.231958
0.227739
0.33983
0.270697
0.245996
0.232678
0.475749
0.543002
0.256116
0.525107
0.211012
0.532689
0.423219
0.220454
0.186663
0.208255
0.276319
0.457467
0.376608
0.157552
0.174883
0.509986
0.148307
0.148306
0.168049
0.188628
0.213205
0.248113
0.410273
0.379761
0.51034
0.149004
0.149003
0.448511
0.184462
0.36361
0.167149
0.16815
0.221554
0.384549
0.398195
0.424214
0.388778
0.384539
0.0840102
0.620731
0.107163
0.103829
0.501444
0.497965
0.107596
0.0747329
0.105301
0.462542
SCALARS rr_S_ext' float
LOOKUP_TABLE default
-0.000404859
-0.000924331
-0.000738074
-0.000964821
-0.000504748
-0.000783354
-0.000400309
-0.000959455
-0.000824755
-0.00103875
-0.000367471
-0.000962393
-0.000846895
-0.000894532
-0.00104831
-0.000879624
-0.000756682
-0.00085531
-0.000765891
-0.000748929
-0.000842444
-0.00014978
-0.000863164
-0.000795554
-0.000721135
-0.000832035
-0.000340533
-0.000730777
-0.000573072
-0.0006757
-0.000748178
-0.000592414
-0.00037722
-0.000506246
-0.00049759
-0.000507386
-0.000656927
-0.000498594
-0.000747414
-0.000424001
-0.000481683
-0.000578969
-0.000579029
-0.00082112
-0.000473388
-0.000522528
-0.000720782
-0.000729961
-0.000684135
-0.000654284
-0.000671889
-0.000521156
-0.000810103
-0.000669669
-0.000745816
-0.000343423
-0.000531287
-0.000674578
-0.000531269
-0.00081645
-0.000965922
-0.000946818
-0.000334955
-0.000667575
-0.000906881
-0.000855752
-0.000934343
-0.000808128
-0.000744045
-0.00106085
-0.000878924
-0.000869346
-0.00059515
-0.000692727
-0.000733543
-0.000389349
-0.00075563
-0.000847813
-0.000814927
-0.000575138
-0.000518819
-0.000569742
-0.00107822
-0.00051951
-0.000700669
-0.000260118
-0.000844159
-0.000705636
-0.000501322
-7.36994e-05
-0.000580277
-8.01556e-05
-0.000641179
-0.000614282
-0.000549185
-0.000500753
-0.000476502
-0.000911959
-0.000756189
-0.000727626
-0.000617939
-0.000592632
-0.000498471
-0.00086371
-0.000878039
-0.00079069
-0.000695507
-0.000705341
-0.000529139
-0.00105364
-0.000676938
-0.000357097
-0.000477289
-0.000945261
-0.000885561
-0.000646708
-0.000616083
-0.000395955
-0.000639006
-0.000644155
-0.000560443
-0.00102187
-0.00105344
-0.000904989
-0.000995543
-0.000781293
-0.000442102
-0.000984633
-0.000431568
-0.000556891
-0.000459116
-0.000939851
-0.000918146
-0.000922812
-0.00061638
-0.000374329
-0.000413049
-0.000676268
-0.000826681
-0.000374202
-0.000514809
-0.000797077
-0.000603709
-0.000973202
-0.000481926
-0.000794103
-0.000720704
-0.000696693
-0.000445303
-0.000568863
-0.000634486
-0.000906939
-0.00053154
-0.00082111
-0.00095108
-0.000966235
-0.000632276
-0.000530279
-0.000527272
-0.000828981
-0.000695831
-0.00052713
-0.000348673
-0.000514804
-0.00051215
-0.000887698
-0.000537422
-0.000543349
-0.000588495
-0.000523714
-0.000782877
-0.000548526
-0.000485545
-0.000610974
-0.000579495
-0.000695046
-0.000774363
-0.000745073
-0.000633232
-0.000743274
-0.000571185
-0.000861225
-0.000924326
-0.000514896
-0.00090551
-0.000514561
-0.000894273
-0.000822157
-0.00076768
-0.00078116
-0.000913453
-0.000432694
-0.000567031
-0.000527156
-0.00092116
-0.000906858
-0.000840778
-0.000915888
-0.000932405
-0.000783164
-0.000960264
-0.000644068
-0.000581091
-0.00104856
-0.000611781
-0.000952383
-0.000758613
-0.000483813
-0.00058262
-0.000950194
-0.000790963
-0.000720018
-0.000927514
-0.000909998
-0.000588359
-0.000583788
-0.000566694
-0.000807315
-0.000890671
-0.00102361
-0.000983398
-0.00106995
-0.000969531
-0.00105951
-0.000888949
-0.000929122
-0.000936355
-0.000882697
-0.000927317
-0.000853755
-0.000841046
-0.000596199
-0.000801033
-0.000937171
-0.000650846
-0.000955158
-0.000877461
-0.00101608
-0.000610935
-0.000966287
-0.000923769
-0.000600031
-0.000827873
-0.000595974
-0.000930184
-0.000848975
-0.000624725
-0.000587949
-0.000508271
-0.000584679
-0.000931457
-0.000426807
-0.000717732
-0.00058576
-0.000657393
-0.000967193
-0.000936297
-0.000293853
-0.000939697
-0.000511201
-0.000554482
-0.000961924
-0.000781953
-0.000561003
-0.00107333
-0.000610297
-0.000293854
-0.000567003
-0.000835006
-0.0010424
-0.000790154
-0.000929916
-0.000870746
-0.000457225
-0.000447902
-0.000382611
-0.000439236
-0.000623129
-0.000476283
-0.000767415
-0.000480018
-0.000826716
-0.000590294
-0.00056786
-0.000664726
-0.000617718
-0.000820945
-0.000592339
-0.000609449
-0.00026941
-0.000614672
-0.000889026
-0.000889657
-0.000805548
-0.000591207
-0.000385404
-0.00111843
-0.000751171
-0.000627207
-0.000578188
-0.000576318
-0.000596336
-0.000727281
-0.000585678
-0.00041911
-0.000578014
-0.000396233
-0.000716578
-0.000589664
-0.000251104
-0.000555405
-0.00065717
-0.000589671
-0.000908028
-0.000612387
-0.000790036
-0.000302643
-0.000634112
-0.000605475
-0.000529304
-0.000568401
-0.000670948
-0.000631782
-0.000660584
-0.000561471
-0.000570326
-0.000615941
-0.000823901
-0.000580779
-0.000823196
-0.000743043
-0.000586789
-0.000602523
-0.000608345
-0.000672979
-0.000607356
-0.000568622
-0.000646239
-0.000678155
-0.000800347
-0.000608223
-0.00060419
-0.000875204
-0.000862949
-0.000581213
-0.000586914
-0.000261502
-0.000708619
-0.000491226
-0.000665067
-0.000293333
-0.000304496
-0.00027212
-0.000276574
-0.000293414
-0.000309091
-0.000318533
-0.000746487
-0.000552623
-0.000557192
-0.000636902
-0.000620354
-0.000612611
-0.000648262
-0.000599507
-0.000613158
-0.00062404
-0.000610338
-0.000749945
-0.000554732
-0.000770857
-0.000599538
-0.000578689
-0.000611104
-0.000652598
-0.000681519
-0.000634852
-0.000727155
-0.000679255
-0.00062979
-0.000454029
-0.000633516
-0.000619566
-0.000667392
-0.000638917
-0.00060536
-0.000575736
-0.000634246
-0.000661662
-0.000898349
-0.000593108
-0.000873411
-0.000910274
-0.000623263
-0.000872236
-0.000669026
-0.000535798
-0.00073026
-0.000639809
-0.00046116
-0.000404265
-0.000721028
-0.000767989
-0.000649877
-0.000540198
-0.000650106
-0.000307614
-0.000642528
-0.000602817
-0.000307438
-0.000118098
-0.00012919
-0.000556583
-0.000593347
-0.000689248
-0.000662471
-6.07356e-05
-6.34625e-05
-0.000656297
-0.000663149
-0.000627732
-0.000230901
-0.000555183
-0.000645814
-0.00065819
-0.000567747
-0.000501122
-0.000240444
-0.000951046
-0.000597059
-0.000729722
-0.000741131
-0.000532523
-0.000673986
-0.000520664
-0.00057454
-0.000285115
-0.000430458
-0.000674786
-0.000679055
-0.000583555
-0.000612861
-0.000632469
-0.000666895
-0.000637865
-0.00031411
-0.000560023
-0.000630926
-0.000596644
-0.000895402
-0.000314045
-0.000484477
-0.000499016
-0.000473235
-0.000307806
-0.000307827
-0.0005421
-0.000437343
-0.00062567
-0.000336145
-0.000367569
-0.000120053
-0.000120053
-0.000250577
-0.000398979
-0.00026882
-0.000533084
-0.000576878
-0.000615357
-0.00069343
-0.00062906
-0.000582437
-0.000458445
-0.000283119
-0.000575567
-0.000596415
-0.000577482
-0.000318227
-0.000294845
-0.000229141
-0.000576662
-0.000588246
-0.00047242
-0.000533842
-0.000492635
-0.000451326
-0.000603814
-0.000451286
-0.000532866
-0.000513928
-0.000315218
-0.000389178
-0.000361066
-0.000638532
-0.000251986
-0.00026547
-0.000259679
-0.000603085
-0.00023995
-0.000234964
-0.000419411
-0.000219161
-0.000488522
-0.000489261
-0.000224979
-0.000531566
-0.000249846
-0.000248243
-0.000279793
-0.000236842
-0.000232637
-0.000347997
-0.000276551
-0.000251201
-0.000237581
-0.000486794
-0.000555781
-0.000261616
-0.000537301
-0.000215439
-0.000545093
-0.000432963
-0.000225092
-0.000190665
-0.000212629
-0.00028215
-0.000468027
-0.000385618
-0.000161413
-0.000179164
-0.000521878
-0.000151941
-0.00015194
-0.000172165
-0.000193218
-0.000217825
-0.000254082
-0.000420001
-0.000388846
-0.000522228
-0.000152636
-0.000152635
-0.000459261
-0.000188349
-0.000371974
-0.000170679
-0.000171786
-0.000226345
-0.000393854
-0.000407828
-0.000434471
-0.000398181
-0.000393844
-8.60663e-05
-0.000635745
-0.000109775
-0.000106374
-0.00051358
-0.000510018
-0.000110235
-7.65625e-05
-0.000107868
-0.000473721
SCALARS rr_P_ext' float
LOOKUP_TABLE default
0.000175866
0.000406223
0.000324044
0.000423933
0.000222462
0.000343916
0.000173883
0.000421521
0.000361752
0.000456487
0.00015974
0.000422811
0.000371982
0.000393172
0.000461539
0.000386257
0.000332715
0.000375715
0.000335758
0.000328715
0.000369704
6.62666e-05
0.000378798
0.000349185
0.000316511
0.00036556
0.000148277
0.000320879
0.000250429
0.00029827
0.000328611
0.000258888
0.000164224
0.00022332
0.00021958
0.000223821
0.000290019
0.000219992
0.000328269
0.000184597
0.000210486
0.000255614
0.000255638
0.00036065
0.000206321
0.000228381
0.00031606
0.000320235
0.00030037
0.000285709
0.000293521
0.000228015
0.000356983
0.000293003
0.000328625
0.000149734
0.000234456
0.000295151
0.000234446
0.000358371
0.000424699
0.000416697
0.00014596
0.000293785
0.000399126
0.000376277
0.000410829
0.00035506
0.000326547
0.000466233
0.000387301
0.000383079
0.000260069
0.000304703
0.000322069
0.000169419
0.000332757
0.000372783
0.000358043
0.000251698
0.000226503
0.000251197
0.000474303
0.000226729
0.000306296
0.000113386
0.000370665
0.000310326
0.000218499
3.25881e-05
0.000253886
3.54423e-05
0.000282372
0.000270066
0.000240308
0.000218734
0.000208033
0.000400763
0.000332998
0.000319564
0.000270718
0.000259141
0.000217541
0.000379445
0.000385817
0.000347446
0.00030599
0.000309747
0.000230921
0.000463125
0.000297137
0.000155697
0.000208211
0.000415245
0.000389113
0.000282967
0.000271872
0.000172859
0.000281979
0.000281862
0.000245628
0.00044984
0.000462959
0.000398008
0.000437621
0.000344014
0.000195019
0.000432698
0.000188416
0.000243679
0.00020231
0.000413011
0.000403863
0.000405539
0.00026953
0.00016519
0.000180214
0.00029706
0.000363653
0.000165133
0.000225144
0.000350296
0.000264638
0.000427686
0.000210381
0.000348909
0.000316676
0.000305882
0.000195503
0.000249131
0.00027834
0.000398575
0.000232279
0.000360664
0.000417962
0.000424609
0.00027795
0.000231937
0.00023063
0.000364111
0.000305268
0.000230373
0.000152011
0.000224897
0.000224004
0.000390077
0.00023506
0.000237648
0.00025717
0.000229068
0.000344784
0.000239999
0.000212112
0.000268613
0.000253555
0.000305776
0.000341031
0.000327331
0.000279056
0.000326614
0.000249609
0.000378462
0.000406187
0.000225187
0.000398236
0.00022477
0.000393293
0.00036172
0.000338106
0.000343284
0.000401735
0.000188931
0.0002481
0.000230368
0.000404809
0.000398342
0.000369338
0.000402867
0.000409761
0.000344347
0.000422014
0.000282393
0.000254326
0.000461218
0.000267355
0.000418946
0.00033356
0.000211543
0.000256447
0.000417595
0.000348188
0.000316487
0.000407545
0.000400306
0.000257679
0.000256631
0.000248054
0.000355188
0.000391513
0.000449945
0.000432217
0.000470282
0.000426148
0.000465695
0.000390688
0.000409034
0.000412205
0.000388596
0.000408244
0.000376191
0.000370593
0.000261091
0.00035206
0.000411736
0.000285513
0.000420528
0.000386336
0.000446419
0.000267395
0.000424511
0.000405954
0.000262805
0.000364403
0.000261014
0.000409199
0.000372956
0.000273626
0.000257371
0.000221891
0.000255267
0.000409747
0.000186286
0.000315212
0.000256397
0.000288213
0.000424903
0.000411559
0.000129744
0.000413042
0.000223105
0.000242707
0.000422608
0.000343536
0.000245527
0.000471787
0.000267542
0.000129743
0.000248194
0.000367053
0.000458412
0.0003471
0.000409404
0.000382928
0.000201482
0.00019673
0.000166851
0.000191462
0.000274505
0.000209021
0.000337149
0.000210231
0.000363899
0.000259519
0.000248566
0.000292251
0.000270633
0.00036074
0.000259517
0.000266752
0.000119052
0.000270734
0.000391423
0.000391693
0.000354034
0.000259043
0.000169993
0.000491825
0.000329557
0.000274828
0.000253256
0.000253882
0.000261184
0.000320291
0.000256569
0.00018267
0.000253256
0.000172962
0.000315275
0.000258263
0.000110961
0.000243308
0.000289061
0.000258232
0.000399362
0.000268262
0.000346902
0.000131855
0.000278372
0.00026518
0.000233159
0.000248927
0.000294362
0.000277869
0.000290322
0.000245961
0.000249891
0.000270007
0.000362488
0.000254466
0.000361656
0.000326269
0.000258571
0.000263998
0.000266663
0.000295304
0.000266263
0.000249114
0.000283316
0.000298466
0.000351607
0.000266623
0.000264611
0.000384617
0.000379239
0.000254645
0.000258624
0.000113628
0.00031114
0.000214454
0.000291846
0.000126658
0.00013148
0.000117508
0.000119428
0.000126704
0.00013346
0.000137543
0.000328446
0.000243676
0.00024474
0.00027941
0.000271973
0.000268565
0.000284861
0.0002628
0.000268769
0.000275174
0.000267568
0.000330122
0.000242709
0.000339301
0.000263207
0.000253868
0.000267893
0.000287494
0.000299243
0.000278529
0.000319284
0.000298013
0.000276069
0.000198689
0.000277918
0.000272012
0.000293794
0.000280142
0.000265331
0.000252429
0.00027822
0.000290484
0.000394761
0.000260042
0.000383796
0.00039959
0.00027341
0.000383209
0.000293696
0.000234883
0.000321175
0.000280734
0.000203328
0.000176202
0.000317245
0.000338002
0.000285313
0.000237036
0.000285846
0.000133685
0.000282084
0.000264498
0.000133953
5.21841e-05
5.70868e-05
0.000244382
0.000260131
0.000302464
0.000290472
2.68829e-05
2.80899e-05
0.000288339
0.000291354
0.000275778
0.000100344
0.000243355
0.00028408
0.000288735
0.000249035
0.000219828
0.00010447
0.000418254
0.000261743
0.000320395
0.000325405
0.00023358
0.000295693
0.000228378
0.000252033
0.00012414
0.000187906
0.000296042
0.000298154
0.000256054
0.000268807
0.000277496
0.000292641
0.000279884
0.000136908
0.000246566
0.000276621
0.000262332
0.000393806
0.00013687
0.000212707
0.000219069
0.000208534
0.000135999
0.000136007
0.000238766
0.000191698
0.000274701
0.000146484
0.000162368
5.31249e-05
5.31244e-05
0.000108859
0.000176038
0.000118664
0.000234025
0.000254042
0.000270287
0.000304755
0.000276675
0.000256242
0.000201409
0.000123036
0.000252747
0.000262208
0.000254017
0.000138462
0.000130106
9.98183e-05
0.000253646
0.000258539
0.000206937
0.000234469
0.00021642
0.000198895
0.000265303
0.000198876
0.000233968
0.000226065
0.00013912
0.000171775
0.00015735
0.000280669
0.000109435
0.000115317
0.000112746
0.000265227
0.000104262
0.00010199
0.00018396
9.51662e-05
0.000215395
0.000215719
9.77109e-05
0.000233255
0.000108788
0.000107803
0.0001218
0.000102847
0.000101272
0.000153553
0.000120467
0.000109156
0.000103181
0.000213845
0.000244573
0.000113866
0.000236037
9.35221e-05
0.000239547
0.000190001
9.7737e-05
8.29702e-05
9.23086e-05
0.000122575
0.000205454
0.000170053
7.14125e-05
7.92544e-05
0.000229388
6.72197e-05
6.72188e-05
7.6162e-05
8.54013e-05
9.49072e-05
0.00011213
0.000185003
0.000171477
0.00022951
6.74801e-05
6.74792e-05
0.000202572
8.18147e-05
0.00016322
7.4151e-05
7.48196e-05
9.85894e-05
0.000173956
0.000180123
0.000191876
0.000175854
0.000173951
3.807e-05
0.000280772
4.85312e-05
4.70632e-05
0.000226842
0.000225271
4.87737e-05
3.38674e-05
4.76904e-05
0.000209196
SCALARS rr_S' float
LOOKUP_TABLE default
0.000189446
0.000433576
0.00034614
0.000452549
0.000236903
0.000367373
0.000187315
0.000450024
0.000386714
0.000487242
0.000171973
0.000451402
0.00039721
0.00041961
0.000491911
0.000412539
0.000354975
0.000401163
0.000359074
0.000351209
0.000395052
7.03531e-05
0.000404766
0.000373075
0.000338174
0.000390261
0.000159425
0.000342725
0.000268495
0.000317236
0.000350908
0.000277558
0.000176594
0.000237647
0.000233602
0.000238182
0.00030843
0.000234067
0.000350547
0.000198496
0.000225676
0.00027183
0.000271858
0.000385119
0.000221666
0.000244823
0.000337943
0.000342281
0.000320845
0.000306497
0.000314772
0.000244233
0.000380206
0.000313835
0.000350028
0.000160824
0.000249423
0.000316135
0.000249414
0.000382877
0.000453128
0.000444256
0.00015684
0.00031323
0.000425518
0.000401452
0.000438317
0.000379049
0.000348913
0.000497614
0.000412504
0.000408009
0.000278837
0.000324998
0.000344018
0.000182252
0.000354593
0.000397728
0.000382237
0.000269545
0.000243028
0.000267428
0.00050586
0.000243334
0.000328301
0.000121806
0.000395901
0.000331042
0.000234747
3.46131e-05
0.00027194
3.76451e-05
0.000300888
0.000288166
0.000257376
0.000234591
0.000223207
0.000427769
0.000354855
0.000341264
0.00028967
0.000277697
0.000233478
0.000405112
0.000411849
0.000370881
0.000326314
0.000330805
0.000247842
0.000494246
0.000317453
0.000167226
0.000223537
0.000443356
0.000415376
0.000303077
0.000289231
0.000185475
0.000299991
0.000301883
0.000262739
0.000479491
0.000494135
0.000424567
0.000466998
0.000366624
0.000207536
0.000461857
0.000202158
0.000260987
0.000215475
0.000440848
0.000430753
0.000432859
0.000288826
0.000175735
0.000193458
0.000317188
0.000387846
0.000175676
0.000241238
0.000373887
0.000283033
0.000456498
0.000225743
0.000372473
0.00033805
0.000326734
0.000208836
0.000266645
0.000297509
0.000425416
0.000249036
0.000385118
0.000446121
0.000453225
0.000296601
0.000248494
0.000247086
0.000388807
0.000326278
0.000246974
0.000163278
0.000241179
0.000239997
0.000416384
0.000251841
0.000254617
0.000275721
0.000245417
0.000367384
0.000257062
0.000227471
0.000286614
0.000271577
0.000326096
0.000363388
0.000349469
0.000297199
0.000348641
0.000267612
0.00040397
0.000433567
0.00024128
0.000424813
0.000241061
0.00041954
0.000385739
0.000360256
0.000366416
0.000428541
0.000202691
0.000265735
0.000246983
0.000432084
0.000425337
0.000394348
0.000429694
0.00043736
0.000367397
0.00045043
0.000301969
0.00027234
0.000491936
0.000286633
0.000446821
0.000355881
0.000226703
0.000273378
0.000445707
0.000371145
0.000337754
0.000435054
0.000426936
0.000275785
0.000273855
0.0002656
0.000378775
0.000417802
0.000480159
0.000461286
0.000501891
0.000454788
0.000496997
0.000416984
0.000435977
0.000439368
0.000414192
0.000435131
0.000400687
0.000394722
0.000279456
0.000375747
0.000439566
0.000305181
0.000448201
0.000411746
0.000476582
0.000286328
0.000453219
0.000433308
0.00028126
0.000388457
0.000279355
0.00043641
0.000398192
0.000292836
0.000275564
0.000238085
0.000273879
0.000437005
0.000199917
0.000336622
0.000274535
0.000308211
0.000453643
0.000439203
0.000137968
0.000440795
0.000239444
0.000259875
0.000451175
0.000366768
0.000262924
0.00050348
0.000286126
0.000137968
0.000265745
0.000391692
0.000489028
0.000370605
0.000436354
0.000408499
0.00021459
0.000210074
0.000179182
0.000205681
0.000292436
0.000223347
0.000359949
0.000225003
0.000387915
0.000276913
0.000266146
0.000311831
0.000289569
0.000385073
0.000277673
0.000285634
0.000126513
0.000288456
0.000417171
0.000417465
0.000377863
0.000277148
0.000180916
0.00052469
0.00035223
0.000294026
0.000271026
0.000270467
0.000279527
0.000341293
0.000274544
0.000196252
0.000270961
0.000185601
0.000336204
0.0002764
0.000117917
0.000260354
0.000308314
0.000276395
0.000425997
0.000287062
0.000370518
0.000141705
0.000297377
0.00028381
0.000248399
0.000266428
0.000314612
0.000296399
0.000309862
0.000263196
0.000267358
0.00028877
0.000386557
0.000272257
0.000386112
0.000348479
0.000275398
0.000282452
0.000285206
0.000315576
0.00028475
0.000266553
0.000302981
0.000318198
0.000375393
0.000285152
0.000283206
0.000410532
0.000404785
0.000272458
0.000275456
0.00012237
0.000332332
0.000230102
0.000311869
0.000137077
0.000142294
0.000127166
0.000129247
0.000137118
0.000144441
0.000148855
0.000350239
0.000259396
0.000261334
0.000298644
0.000290845
0.000287213
0.000304074
0.000281064
0.000287461
0.000292919
0.000286147
0.000351897
0.000259969
0.0003617
0.000281166
0.000271348
0.000286504
0.000306267
0.000319624
0.000297688
0.000341027
0.000318509
0.00029526
0.000212784
0.000297055
0.000290562
0.000313163
0.000299555
0.0002838
0.000269931
0.000297394
0.000310302
0.000421382
0.000278075
0.000409683
0.000426884
0.000292245
0.000409116
0.00031375
0.000251198
0.000342598
0.000300019
0.00021646
0.0001893
0.000338296
0.000360349
0.000304775
0.000253312
0.000304978
0.000143953
0.000301328
0.000282672
0.000143952
5.54577e-05
6.06666e-05
0.000261028
0.000278183
0.00032321
0.0003106
2.85307e-05
2.98117e-05
0.000307831
0.000311047
0.000294431
0.000108054
0.00026028
0.00030299
0.000308624
0.00026621
0.000234974
0.000112514
0.000446173
0.00027992
0.000342227
0.000347578
0.000249693
0.000316037
0.000244132
0.000269399
0.000133479
0.000201633
0.000316411
0.000318466
0.000273641
0.00028736
0.000296573
0.000312725
0.000299108
0.000147085
0.000262789
0.000295805
0.000279896
0.000420074
0.000147052
0.000227209
0.000234023
0.000222103
0.000144539
0.000144549
0.000254398
0.000205034
0.000293426
0.000157397
0.000172595
5.63924e-05
5.63921e-05
0.000117252
0.000187302
0.000126209
0.00025
0.000270711
0.000288614
0.000325269
0.000295121
0.000273266
0.000215029
0.000132489
0.000269939
0.000279783
0.00027093
0.000148959
0.000138418
0.000107286
0.000270543
0.000275934
0.000221449
0.000250379
0.000231064
0.000211823
0.00028322
0.000211804
0.000249906
0.000241115
0.000147987
0.000182712
0.000169067
0.000299527
0.000117906
0.000124222
0.000121499
0.000282931
0.000112285
0.000109929
0.000196655
0.000102544
0.000229306
0.000229653
0.00010527
0.000249264
0.000116969
0.000116154
0.000130982
0.000110818
0.000108907
0.00016337
0.000129482
0.000117551
0.000111166
0.000228323
0.000260771
0.000122468
0.000252013
0.000100795
0.000255686
0.00020303
0.000105318
8.92506e-05
9.94828e-05
0.000132026
0.000219487
0.00018101
7.5817e-05
8.41522e-05
0.000244806
7.13673e-05
7.13665e-05
8.08653e-05
9.07379e-05
0.000101991
0.000119284
0.000197103
0.000182525
0.000244963
7.16836e-05
7.1683e-05
0.000215588
8.81317e-05
0.000174427
7.98667e-05
8.04292e-05
0.000105974
0.000184932
0.000191492
0.000204
0.000186961
0.000184927
4.04243e-05
0.000298507
5.15543e-05
4.99649e-05
0.00024115
0.000239478
5.1779e-05
3.59608e-05
5.06594e-05
0.000222425
SCALARS rr_P' float
LOOKUP_TABLE default
3.95469e-05
8.45317e-05
6.78898e-05
8.8339e-05
4.53834e-05
7.20647e-05
3.91107e-05
8.79099e-05
7.62891e-05
9.5018e-05
3.57579e-05
8.81799e-05
7.77034e-05
8.17502e-05
9.48587e-05
8.08283e-05
6.8992e-05
7.84323e-05
7.10596e-05
6.90051e-05
7.76882e-05
1.31603e-05
7.95999e-05
7.32946e-05
6.64506e-05
7.6213e-05
3.28316e-05
6.71719e-05
5.41482e-05
6.01938e-05
6.86589e-05
5.59682e-05
3.64013e-05
4.52787e-05
4.44084e-05
4.53833e-05
5.84784e-05
4.45349e-05
6.8598e-05
4.09079e-05
4.55208e-05
5.15245e-05
5.15327e-05
7.53508e-05
4.5401e-05
4.93237e-05
6.67787e-05
6.74446e-05
6.29207e-05
6.20785e-05
6.35959e-05
4.89082e-05
7.29138e-05
6.28315e-05
6.71625e-05
3.2866e-05
4.74084e-05
6.32924e-05
4.74095e-05
7.52028e-05
8.80946e-05
8.58654e-05
3.21556e-05
6.056e-05
8.22363e-05
7.80223e-05
8.51962e-05
7.4019e-05
6.85845e-05
9.70017e-05
7.91188e-05
7.82592e-05
5.62444e-05
6.30264e-05
6.74563e-05
3.76774e-05
6.82799e-05
7.73023e-05
7.46469e-05
5.38947e-05
4.92881e-05
5.11172e-05
9.80593e-05
4.94472e-05
6.60716e-05
2.49269e-05
7.75934e-05
6.42679e-05
4.80761e-05
6.49815e-06
5.44505e-05
7.0682e-06
5.79193e-05
5.60503e-05
5.15008e-05
4.74284e-05
4.52623e-05
8.34275e-05
6.83364e-05
6.67991e-05
5.75503e-05
5.57939e-05
4.74521e-05
7.91535e-05
8.03725e-05
7.23639e-05
6.3202e-05
6.47886e-05
5.03763e-05
9.62735e-05
6.23483e-05
3.41744e-05
4.55409e-05
8.66603e-05
8.10718e-05
6.06637e-05
5.49793e-05
3.76208e-05
5.70363e-05
6.04105e-05
5.20754e-05
9.25348e-05
9.63464e-05
8.24142e-05
9.09242e-05
7.06556e-05
3.95475e-05
9.00786e-05
4.09937e-05
5.22251e-05
4.13308e-05
8.59921e-05
8.35295e-05
8.44138e-05
5.80236e-05
3.34032e-05
3.93774e-05
6.20202e-05
7.51821e-05
3.33939e-05
4.84268e-05
7.28938e-05
5.60369e-05
8.90177e-05
4.5802e-05
7.27217e-05
6.59776e-05
6.40772e-05
4.09641e-05
5.30874e-05
5.86364e-05
8.29487e-05
5.02252e-05
7.53279e-05
8.69974e-05
8.84007e-05
5.77259e-05
4.98481e-05
4.95558e-05
7.60632e-05
6.42847e-05
4.97835e-05
3.33838e-05
4.87284e-05
4.81487e-05
8.12371e-05
5.0522e-05
5.10841e-05
5.5604e-05
4.9229e-05
7.07086e-05
5.14658e-05
4.59624e-05
5.57464e-05
5.4363e-05
6.31742e-05
6.99432e-05
6.82728e-05
5.69762e-05
6.80195e-05
5.39642e-05
7.87928e-05
8.45718e-05
4.84299e-05
8.24603e-05
4.87308e-05
8.14398e-05
7.46982e-05
6.93182e-05
7.14599e-05
8.31766e-05
4.10718e-05
5.31964e-05
4.98049e-05
8.42683e-05
8.31784e-05
7.7092e-05
8.33277e-05
8.52849e-05
7.14201e-05
8.78204e-05
5.97056e-05
5.44251e-05
9.54044e-05
5.77933e-05
8.66163e-05
6.91711e-05
4.55671e-05
5.27947e-05
8.68922e-05
7.163e-05
6.57771e-05
8.49155e-05
8.27558e-05
5.48949e-05
5.33028e-05
5.30407e-05
7.33517e-05
8.1356e-05
9.3501e-05
8.98946e-05
9.77752e-05
8.85948e-05
9.68231e-05
8.12771e-05
8.4111e-05
8.47821e-05
7.99088e-05
8.39412e-05
7.6877e-05
7.57309e-05
5.56524e-05
7.32262e-05
8.5869e-05
6.01518e-05
8.64299e-05
7.9379e-05
9.30825e-05
5.72109e-05
8.85569e-05
8.45063e-05
5.59665e-05
7.50135e-05
5.56051e-05
8.45758e-05
7.78265e-05
5.82625e-05
5.50141e-05
4.82941e-05
5.55323e-05
8.47044e-05
4.06031e-05
6.58987e-05
5.48278e-05
6.0969e-05
8.86467e-05
8.55347e-05
2.61415e-05
8.586e-05
4.86522e-05
5.18999e-05
8.81408e-05
7.16495e-05
5.25515e-05
9.80584e-05
5.66299e-05
2.61428e-05
5.3064e-05
7.62613e-05
9.49637e-05
7.24488e-05
8.41591e-05
7.93192e-05
4.11531e-05
4.10979e-05
3.65788e-05
4.20931e-05
5.61887e-05
4.3915e-05
7.03172e-05
4.47839e-05
7.49016e-05
5.38616e-05
5.31487e-05
6.06437e-05
5.75152e-05
7.5132e-05
5.51484e-05
5.70637e-05
2.38441e-05
5.54821e-05
8.04314e-05
8.04977e-05
7.36509e-05
5.50165e-05
3.44956e-05
0.000101914
6.93844e-05
5.83535e-05
5.39054e-05
5.19692e-05
5.56249e-05
6.56967e-05
5.45645e-05
4.01884e-05
5.3797e-05
3.76709e-05
6.50985e-05
5.50009e-05
2.22259e-05
5.17436e-05
5.97948e-05
5.50436e-05
8.26693e-05
5.70631e-05
7.26155e-05
2.90833e-05
5.83636e-05
5.6485e-05
4.77452e-05
5.30458e-05
6.19741e-05
5.75145e-05
6.04006e-05
5.23148e-05
5.30771e-05
5.71637e-05
7.48551e-05
5.4056e-05
7.54278e-05
6.82946e-05
5.28196e-05
5.60731e-05
5.64764e-05
6.20986e-05
5.63435e-05
5.2956e-05
5.99419e-05
6.14912e-05
7.33465e-05
5.64487e-05
5.63735e-05
8.0055e-05
7.89251e-05
5.41107e-05
5.28342e-05
2.55039e-05
6.51462e-05
4.66705e-05
6.13517e-05
2.9598e-05
3.0722e-05
2.74454e-05
2.78989e-05
2.95925e-05
3.11904e-05
3.21346e-05
6.78011e-05
4.95511e-05
5.11188e-05
5.88477e-05
5.75355e-05
5.6833e-05
5.93258e-05
5.56425e-05
5.69282e-05
5.59466e-05
5.66237e-05
6.7926e-05
5.20547e-05
6.98563e-05
5.5165e-05
5.34736e-05
5.67078e-05
5.88375e-05
6.26529e-05
5.86358e-05
6.68444e-05
6.27333e-05
5.84613e-05
4.25562e-05
5.85428e-05
5.6992e-05
6.04358e-05
5.92199e-05
5.62278e-05
5.33765e-05
5.86329e-05
6.0876e-05
8.22062e-05
5.49916e-05
7.9932e-05
8.38002e-05
5.76072e-05
7.99106e-05
6.15795e-05
4.97176e-05
6.64875e-05
5.9056e-05
4.13715e-05
3.87624e-05
6.54877e-05
6.96378e-05
5.9788e-05
4.98505e-05
5.92823e-05
2.99764e-05
5.91159e-05
5.5647e-05
2.95334e-05
1.04566e-05
1.14365e-05
5.11723e-05
5.50334e-05
6.3574e-05
6.13994e-05
5.32202e-06
5.56096e-06
6.01269e-05
6.07481e-05
5.75232e-05
2.25033e-05
5.15482e-05
5.87439e-05
6.08307e-05
5.2502e-05
4.63201e-05
2.34597e-05
8.6619e-05
5.53968e-05
6.71002e-05
6.81484e-05
4.92498e-05
6.22553e-05
4.81538e-05
5.31069e-05
2.74963e-05
4.09189e-05
6.2333e-05
6.24349e-05
5.38592e-05
5.66945e-05
5.83993e-05
6.15288e-05
5.88726e-05
3.01168e-05
5.06672e-05
5.85008e-05
5.44161e-05
8.15216e-05
3.01229e-05
4.45607e-05
4.59247e-05
4.25983e-05
2.72679e-05
2.72707e-05
4.89364e-05
4.06114e-05
5.75435e-05
3.22642e-05
3.26062e-05
1.05359e-05
1.05361e-05
2.44659e-05
3.5639e-05
2.39467e-05
4.90591e-05
5.21245e-05
5.64561e-05
6.34051e-05
5.72635e-05
5.29297e-05
4.20069e-05
2.75943e-05
5.28817e-05
5.4424e-05
5.25343e-05
3.08071e-05
2.63208e-05
2.20358e-05
5.24732e-05
5.37737e-05
4.40345e-05
4.89935e-05
4.51512e-05
4.06081e-05
5.52919e-05
4.06065e-05
4.89917e-05
4.67479e-05
2.81113e-05
3.46911e-05
3.46482e-05
5.83363e-05
2.46447e-05
2.59312e-05
2.54344e-05
5.49271e-05
2.34027e-05
2.30445e-05
3.87963e-05
2.14509e-05
4.38212e-05
4.38894e-05
2.19975e-05
4.90466e-05
2.40893e-05
2.42863e-05
2.70111e-05
2.31768e-05
2.2459e-05
3.10734e-05
2.66021e-05
2.44938e-05
2.32335e-05
4.46269e-05
5.04359e-05
2.52824e-05
4.9251e-05
2.11212e-05
4.98597e-05
3.99315e-05
2.2037e-05
1.84439e-05
2.08372e-05
2.75488e-05
4.30851e-05
3.45556e-05
1.4184e-05
1.57578e-05
4.76842e-05
1.33542e-05
1.33544e-05
1.51372e-05
1.70788e-05
2.09271e-05
2.26674e-05
3.78954e-05
3.48441e-05
4.77551e-05
1.34727e-05
1.34729e-05
4.11013e-05
1.84031e-05
3.43274e-05
1.66611e-05
1.6537e-05
2.17811e-05
3.49657e-05
3.62127e-05
3.85953e-05
3.53663e-05
3.49662e-05
7.57205e-06
5.6466e-05
9.68966e-06
9.34597e-06
4.55888e-05
4.52688e-05
9.68239e-06
6.73431e-06
9.51868e-06
4.20992e-05
SCALARS rr_T' float
LOOKUP_TABLE default
0.000209347
0.000476932
0.000380895
0.000497843
0.0002603
0.000404265
0.000206996
0.000495082
0.000425704
0.000535971
0.000189993
0.000496598
0.00043702
0.000461545
0.000540725
0.00045393
0.000390393
0.000441356
0.000395359
0.000386518
0.000434792
7.71893e-05
0.000445487
0.00041058
0.000372175
0.00042933
0.000176008
0.000377122
0.000295999
0.000348366
0.000386081
0.000305989
0.000194976
0.000261033
0.000256552
0.000261621
0.000338681
0.000257075
0.000385688
0.000219154
0.000248797
0.000298486
0.000298518
0.000423721
0.000244633
0.000269884
0.000372056
0.000376761
0.000353058
0.000337993
0.00034706
0.000269124
0.000417787
0.000345813
0.000384639
0.000177457
0.000273924
0.000348348
0.000273915
0.000421362
0.00049835
0.000488406
0.0001731
0.000344364
0.000467804
0.000441503
0.000482054
0.000416993
0.000384003
0.00054737
0.000453282
0.000448342
0.000307405
0.000357371
0.000378554
0.000201264
0.00038974
0.000437408
0.000420503
0.000296986
0.000268024
0.000293798
0.00055624
0.000268398
0.00036188
0.000134417
0.000435633
0.000364043
0.000259068
3.79851e-05
0.000299653
4.13129e-05
0.000330706
0.000316931
0.000283591
0.000258666
0.000246162
0.000470552
0.00039003
0.00037548
0.000319023
0.000306065
0.000257531
0.000445682
0.000453059
0.000407985
0.000358793
0.000363987
0.000273376
0.000543642
0.00034936
0.000184524
0.000246606
0.000487769
0.000456942
0.000333953
0.000317644
0.000204552
0.000329465
0.000332633
0.000289319
0.000527097
0.000543552
0.00046689
0.000513658
0.000402989
0.000227959
0.000508051
0.000222949
0.000287571
0.000236778
0.000484948
0.000473664
0.000476153
0.000318329
0.000192999
0.000213408
0.000348966
0.000426474
0.000192934
0.000265866
0.00041127
0.000311643
0.00050215
0.000248968
0.000409755
0.000371876
0.000359539
0.000229807
0.000293706
0.000327486
0.000467961
0.000274548
0.000423712
0.000490736
0.00049856
0.000326221
0.000273849
0.000272295
0.000427777
0.000359144
0.000272266
0.000180173
0.000265919
0.000264488
0.000458039
0.000277539
0.0002806
0.000303965
0.000270459
0.000403789
0.000283256
0.000250806
0.000315224
0.000299246
0.000358558
0.000399398
0.000384461
0.000326567
0.000383518
0.000295023
0.000444375
0.000476936
0.00026591
0.000467157
0.000265798
0.000461361
0.000424126
0.000395947
0.000403062
0.000471253
0.000223525
0.00029281
0.000272283
0.000475301
0.000467958
0.000433856
0.0004725
0.000481102
0.000404056
0.000495474
0.000332464
0.000300055
0.000540944
0.000315991
0.000491322
0.000391388
0.000249869
0.000300531
0.000490277
0.000407992
0.000371497
0.000478589
0.000469455
0.00030377
0.000301204
0.000292615
0.000416469
0.00045955
0.000528139
0.000507406
0.000552057
0.000500244
0.000546674
0.000458672
0.000479254
0.000482988
0.000455308
0.000478322
0.000440306
0.000433751
0.000307823
0.000413308
0.000483589
0.000335929
0.000492678
0.000452597
0.000524306
0.000315464
0.000498616
0.000476646
0.000309793
0.000427039
0.000307702
0.000479866
0.000438086
0.000322541
0.000303587
0.000262576
0.000302047
0.000480524
0.0002205
0.000370376
0.00030246
0.000339348
0.000499085
0.000483093
0.000151494
0.000484849
0.000264104
0.00028631
0.000496363
0.000403491
0.000289684
0.000553795
0.000315041
0.000151494
0.000292773
0.000430827
0.000537789
0.000407732
0.00047966
0.000449227
0.0002358
0.00023113
0.000197701
0.000226978
0.000321378
0.000245812
0.000395989
0.000247833
0.000426441
0.000304554
0.000293217
0.000342955
0.000318906
0.000423595
0.000305803
0.000314695
0.000138871
0.000317027
0.000458564
0.000458891
0.000415639
0.000305214
0.000198728
0.000577015
0.000387705
0.000323797
0.000298511
0.000297236
0.000307886
0.000375115
0.00030237
0.000216583
0.000298405
0.000204701
0.000369659
0.000304441
0.000129435
0.000286742
0.00033903
0.000304452
0.000468454
0.000316162
0.000407702
0.000156406
0.000327251
0.000312606
0.000272992
0.000293468
0.0003463
0.000325936
0.000340844
0.000289875
0.000294435
0.000317956
0.000425025
0.000299833
0.000424772
0.00038345
0.000302619
0.000311057
0.000314038
0.000347336
0.00031352
0.000293562
0.00033359
0.000349818
0.000412984
0.000313972
0.000311944
0.000451584
0.000445259
0.000300059
0.000302684
0.000135214
0.000365688
0.00025377
0.00034325
0.000151856
0.000157635
0.000140872
0.000143178
0.000151896
0.000160014
0.000164901
0.000385086
0.000284968
0.000287526
0.00032873
0.000320228
0.000316233
0.000334493
0.000309474
0.000316524
0.000321793
0.00031506
0.000386836
0.000286462
0.000397632
0.000309405
0.000298685
0.000315458
0.000336576
0.000351702
0.000327668
0.000375252
0.000350586
0.000325108
0.000234451
0.000326985
0.000319737
0.000344252
0.000329804
0.000312503
0.000297192
0.000327365
0.000341464
0.000463533
0.000306161
0.000450666
0.000469775
0.000321694
0.000450075
0.000345269
0.000276584
0.000376744
0.00033022
0.000237806
0.00020891
0.000371952
0.000396158
0.000335381
0.000278806
0.000335407
0.000159053
0.00033159
0.000311128
0.000158882
6.0876e-05
6.65929e-05
0.00028723
0.000306287
0.000355728
0.000341961
3.12977e-05
3.27029e-05
0.000338651
0.000342185
0.000323913
0.000119388
0.000286597
0.000333168
0.00033972
0.000293044
0.000258652
0.000124328
0.000490652
0.000308207
0.000376581
0.000382468
0.000274864
0.000347867
0.000268743
0.000296546
0.000147366
0.000222381
0.000348281
0.000350433
0.000301185
0.000316334
0.000326435
0.000344195
0.000329216
0.000162321
0.000288861
0.000325683
0.000307826
0.000461939
0.00016229
0.000250022
0.00025753
0.000244058
0.000158668
0.000158678
0.000279598
0.000225766
0.000322886
0.000173714
0.000189481
6.18674e-05
6.18671e-05
0.00012957
0.000205714
0.000138594
0.000275111
0.000297543
0.00031754
0.000357791
0.000324533
0.000300463
0.000236559
0.000146388
0.00029702
0.000307713
0.000297917
0.000164502
0.00015202
0.000118423
0.000297497
0.000303516
0.000243903
0.000275478
0.000254203
0.000232757
0.000311565
0.000232736
0.00027499
0.000265129
0.00016252
0.00020065
0.000186591
0.000329456
0.000130304
0.000137271
0.000134289
0.000311136
0.00012407
0.000121514
0.000216482
0.000113333
0.000251914
0.000252296
0.000116337
0.00027435
0.000129135
0.00012837
0.00014462
0.000122475
0.000120246
0.000179426
0.000142928
0.000129886
0.000122855
0.000251191
0.0002867
0.00013523
0.000277252
0.000111415
0.000281255
0.000223456
0.000116401
9.85582e-05
0.00010996
0.000145896
0.000241539
0.000198845
8.3185e-05
9.23355e-05
0.000269268
7.8304e-05
7.83032e-05
8.87272e-05
9.95932e-05
0.000112572
0.000131001
0.00021662
0.000200509
0.000269455
7.86722e-05
7.86716e-05
0.000236809
9.73956e-05
0.000191983
8.82548e-05
8.87838e-05
0.000116981
0.000203037
0.000210241
0.000223979
0.00020527
0.000203031
4.43562e-05
0.000327738
5.65807e-05
5.48201e-05
0.000264756
0.000262919
5.68092e-05
3.94579e-05
5.55974e-05
0.000244216
SCALARS rr_uec(SIM,_S_ext) float
LOOKUP_TABLE default
0.0135828
0.030945
0.0247136
0.0323018
0.0168889
0.0262299
0.0134303
0.0321224
0.0276208
0.0347755
0.0123275
0.0322208
0.0283551
0.0299465
0.0350839
0.0294523
0.0253299
0.0286366
0.0256521
0.0250785
0.0282105
0.00500823
0.0289046
0.0266397
0.0241479
0.0278563
0.0114199
0.0244688
0.0192053
0.022603
0.02505
0.0198535
0.0126505
0.0169366
0.0166457
0.0169747
0.0219746
0.0166797
0.0250246
0.0142193
0.0161427
0.0193667
0.0193687
0.0274922
0.0158726
0.0175108
0.0241401
0.0244453
0.0229075
0.02193
0.0225183
0.0174615
0.0271072
0.0224373
0.0249565
0.0115139
0.0177729
0.0226018
0.0177723
0.0273393
0.0323347
0.0316892
0.0112311
0.0223433
0.0303525
0.028646
0.0312773
0.0270558
0.0249153
0.0355153
0.0294102
0.0290897
0.0199453
0.0231873
0.0245617
0.0130586
0.0252874
0.0283803
0.0272836
0.0192694
0.0173901
0.0190624
0.0360906
0.0174144
0.0234798
0.0087214
0.0282652
0.0236201
0.0168092
0.00246457
0.0194423
0.00268048
0.0214572
0.0205634
0.0184001
0.0167831
0.0159716
0.030531
0.0253062
0.0243623
0.0206991
0.0198583
0.0167093
0.0289173
0.0293959
0.0264714
0.0232796
0.0236165
0.0177374
0.0352735
0.0226676
0.0119725
0.0160006
0.031648
0.0296479
0.0216677
0.0206095
0.0132719
0.0213765
0.0215821
0.0187719
0.0341998
0.0352675
0.0302933
0.033328
0.0261472
0.0147905
0.032964
0.0144655
0.0186584
0.0153628
0.0314651
0.0307329
0.0308945
0.020654
0.0125223
0.0138464
0.0226419
0.027671
0.0125181
0.0172501
0.0266844
0.0202203
0.0325811
0.0161536
0.0265862
0.0241284
0.0233279
0.0149105
0.0190565
0.0212482
0.030363
0.0178135
0.0274916
0.0318405
0.0323484
0.0211662
0.017768
0.0176672
0.0277555
0.0233023
0.0176655
0.0116902
0.0172537
0.0171607
0.0297191
0.0180074
0.018206
0.0197222
0.0175481
0.026199
0.0183784
0.0162731
0.0204527
0.0194159
0.0232644
0.0259141
0.024945
0.0211886
0.0248838
0.019142
0.0288325
0.0309451
0.017253
0.0303105
0.0172458
0.0299345
0.0275185
0.0256901
0.026152
0.0305763
0.0145029
0.0189984
0.0176665
0.0308392
0.0303627
0.02815
0.0306573
0.0312156
0.0262163
0.0321481
0.0215712
0.0194685
0.0350982
0.0205024
0.0318785
0.0253943
0.0162122
0.0194993
0.0318109
0.0264717
0.0241038
0.0310524
0.0304597
0.0197095
0.019543
0.0189857
0.0270217
0.0298173
0.0342676
0.0329224
0.0358195
0.0324577
0.0354702
0.02976
0.0310955
0.0313378
0.0295419
0.031035
0.0285683
0.028143
0.0199724
0.0268167
0.0313771
0.021796
0.0319664
0.0293659
0.034019
0.0204683
0.0323522
0.0309263
0.0201003
0.0277075
0.0199646
0.0311352
0.0284248
0.0209274
0.0196976
0.0170366
0.0195977
0.0311779
0.0143066
0.0240311
0.0196245
0.0220179
0.0323826
0.0313448
0.00982933
0.0314588
0.0171356
0.0185766
0.032206
0.0261797
0.0187956
0.0359323
0.0204407
0.00982935
0.018996
0.0279536
0.0348934
0.026455
0.0311218
0.0291471
0.0152994
0.0149964
0.0128274
0.014727
0.0208519
0.015949
0.025693
0.0160801
0.0276687
0.0197604
0.0190248
0.0222519
0.0206915
0.0274841
0.0198413
0.0204184
0.00901029
0.0205696
0.0297531
0.0297743
0.0269679
0.0198031
0.0128941
0.0374385
0.0251554
0.0210088
0.0193682
0.0192855
0.0199765
0.0243385
0.0196186
0.0140526
0.0193613
0.0132815
0.0239846
0.019753
0.00839811
0.0186046
0.0219973
0.0197537
0.0303947
0.0205134
0.0264529
0.0101479
0.0212331
0.0202827
0.0177125
0.0190411
0.0224689
0.0211477
0.0221151
0.0188078
0.0191037
0.0206299
0.0275768
0.019454
0.0275605
0.0248794
0.0196348
0.0201822
0.0203757
0.0225361
0.020342
0.0190471
0.0216443
0.0226972
0.0267957
0.0203714
0.0202399
0.0293001
0.0288897
0.0194687
0.019639
0.00877323
0.0237269
0.0164653
0.022271
0.00985339
0.0102283
0.00914068
0.00929034
0.00985602
0.0103827
0.0106997
0.0249855
0.0184895
0.0186556
0.021329
0.0207774
0.0205181
0.0217028
0.0200795
0.0205369
0.0208788
0.020442
0.025099
0.0185864
0.0257997
0.0200751
0.0193795
0.0204678
0.0218379
0.0228194
0.0212601
0.0243474
0.022747
0.021094
0.0152119
0.0212157
0.0207455
0.022336
0.0213987
0.0202761
0.0192827
0.0212404
0.0221551
0.0300753
0.0198646
0.0292405
0.0304804
0.0208724
0.0292022
0.0224021
0.0179456
0.0244443
0.0214256
0.0154295
0.0135548
0.0241334
0.0257038
0.0217605
0.0180897
0.0217622
0.0103199
0.0215146
0.0201868
0.0103086
0.00394978
0.00432071
0.0186363
0.0198728
0.0230806
0.0221874
0.00203065
0.00212183
0.0219728
0.0222019
0.0210164
0.00774629
0.0185953
0.0216169
0.0220419
0.0190135
0.0167821
0.00806688
0.031835
0.0199974
0.0244336
0.0248156
0.0178339
0.0225706
0.0174368
0.0192407
0.00956149
0.0144286
0.0225975
0.0227371
0.0195417
0.0205246
0.02118
0.0223323
0.0213604
0.0105319
0.0187422
0.0211313
0.0199727
0.029972
0.0105299
0.0162222
0.0167093
0.0158351
0.0102948
0.0102955
0.0181412
0.0146484
0.0209498
0.0112712
0.0122941
0.0040141
0.00401408
0.00840704
0.0133473
0.00899235
0.01785
0.0193054
0.020603
0.0232146
0.0210567
0.0194949
0.0153486
0.00949823
0.0192715
0.0199653
0.0193298
0.0106734
0.00986351
0.00768346
0.0193025
0.019693
0.0158251
0.0178738
0.0164934
0.0151019
0.0202152
0.0151006
0.0178421
0.0172023
0.0105448
0.0130187
0.0121066
0.0213762
0.00845437
0.00890634
0.00871299
0.0201874
0.0080501
0.00788411
0.014046
0.0073533
0.0163448
0.0163696
0.00754819
0.0178007
0.00837862
0.00832885
0.00938335
0.00794639
0.00780191
0.0116416
0.00927362
0.00842748
0.00797107
0.016298
0.0186019
0.00877406
0.0179889
0.00722888
0.0182487
0.0144985
0.00755231
0.00639474
0.00713439
0.00946634
0.0156718
0.0129016
0.00539726
0.00599097
0.0174709
0.00508057
0.00508052
0.00575685
0.00646188
0.00730405
0.00849969
0.0140549
0.0130096
0.0174831
0.00510446
0.00510442
0.0153647
0.00631943
0.0124564
0.00572627
0.00576044
0.00758996
0.0131736
0.0136411
0.0145324
0.0133185
0.0131733
0.00287794
0.0212645
0.0036711
0.00355685
0.0171781
0.0170589
0.00368591
0.00256013
0.0036073
0.0158454
SCALARS rr_uec(PEX,_P_ext) float
LOOKUP_TABLE default
-0.0611348
-0.13933
-0.11127
-0.145438
-0.0760506
-0.118097
-0.0604482
-0.14463
-0.124356
-0.156577
-0.0554848
-0.145074
-0.127667
-0.134835
-0.157976
-0.132606
-0.114051
-0.128935
-0.11549
-0.112912
-0.127013
-0.0225549
-0.130137
-0.119941
-0.108722
-0.125423
-0.0514032
-0.110168
-0.0864566
-0.101786
-0.112786
-0.0893745
-0.0569424
-0.0762671
-0.0749585
-0.076439
-0.0989565
-0.0751112
-0.112672
-0.0640038
-0.0726697
-0.0872126
-0.0872218
-0.123782
-0.0714476
-0.0788292
-0.108684
-0.11006
-0.103138
-0.0987201
-0.10137
-0.0786098
-0.122062
-0.10101
-0.112377
-0.0518286
-0.0800345
-0.101751
-0.0800319
-0.123091
-0.14559
-0.142689
-0.0505549
-0.100606
-0.13667
-0.128982
-0.140829
-0.121818
-0.112177
-0.159908
-0.132432
-0.130989
-0.0897879
-0.104405
-0.110586
-0.0587781
-0.113865
-0.127785
-0.122844
-0.0867491
-0.078283
-0.0858386
-0.162504
-0.0783916
-0.105701
-0.039258
-0.127261
-0.106353
-0.0756634
-0.0110992
-0.087527
-0.0120715
-0.0966184
-0.0925887
-0.0828357
-0.0755514
-0.0718976
-0.137466
-0.11395
-0.10969
-0.0931891
-0.0893984
-0.0752174
-0.130199
-0.132355
-0.119188
-0.104821
-0.106332
-0.0798452
-0.15882
-0.102057
-0.0538926
-0.0720258
-0.142494
-0.133489
-0.0975461
-0.0928085
-0.0597445
-0.0962622
-0.0971606
-0.0845135
-0.153994
-0.158792
-0.136399
-0.150061
-0.117736
-0.0666036
-0.148421
-0.0651176
-0.0839983
-0.0691779
-0.141672
-0.13838
-0.139102
-0.0929805
-0.0563901
-0.0623296
-0.101945
-0.124593
-0.0563711
-0.0776571
-0.120147
-0.0910351
-0.146697
-0.0727169
-0.119704
-0.108638
-0.105031
-0.067133
-0.0857929
-0.0956653
-0.136709
-0.0801913
-0.12378
-0.143363
-0.145648
-0.0953023
-0.079989
-0.0795351
-0.124967
-0.104913
-0.0795248
-0.0526219
-0.07767
-0.0772548
-0.13381
-0.0810667
-0.0819609
-0.0887835
-0.0789988
-0.11797
-0.0827376
-0.0732557
-0.0920899
-0.0874084
-0.104752
-0.116687
-0.112314
-0.0954112
-0.11204
-0.0861716
-0.129819
-0.139331
-0.0776701
-0.136477
-0.0776344
-0.134784
-0.123908
-0.115679
-0.11775
-0.137674
-0.0652862
-0.0855286
-0.0795295
-0.138854
-0.136706
-0.126744
-0.138039
-0.140548
-0.118042
-0.144747
-0.0971178
-0.0876457
-0.158035
-0.0922959
-0.143538
-0.114341
-0.072984
-0.0878009
-0.143229
-0.119196
-0.108529
-0.139813
-0.13715
-0.0887328
-0.0879937
-0.0854726
-0.121671
-0.134253
-0.154291
-0.148233
-0.161278
-0.146141
-0.159705
-0.133996
-0.140016
-0.141107
-0.133021
-0.139744
-0.128641
-0.126726
-0.0899163
-0.120743
-0.141274
-0.0981317
-0.143939
-0.132229
-0.153169
-0.0921467
-0.145664
-0.139246
-0.0904922
-0.124761
-0.0898811
-0.140192
-0.127981
-0.0942161
-0.0886778
-0.0766918
-0.0882205
-0.140384
-0.0644018
-0.108198
-0.0883483
-0.0991285
-0.145801
-0.141131
-0.0442639
-0.141644
-0.077137
-0.083631
-0.145006
-0.117874
-0.0846162
-0.161786
-0.0920278
-0.044264
-0.085519
-0.125862
-0.157112
-0.119112
-0.140135
-0.131239
-0.0688922
-0.0675204
-0.0577414
-0.0662913
-0.0938941
-0.0718076
-0.115682
-0.072393
-0.124586
-0.0889728
-0.0856486
-0.100191
-0.093155
-0.123748
-0.0893275
-0.0919223
-0.0405768
-0.0926224
-0.133972
-0.134068
-0.121424
-0.0891556
-0.0580631
-0.168571
-0.113257
-0.0945841
-0.0871966
-0.0868406
-0.0899351
-0.109593
-0.0883244
-0.0632552
-0.0871667
-0.0597875
-0.107996
-0.0889289
-0.0378199
-0.0837592
-0.0990463
-0.0889316
-0.136857
-0.092353
-0.119102
-0.045679
-0.095599
-0.0913136
-0.0797573
-0.0857234
-0.101161
-0.0952207
-0.0995737
-0.0846743
-0.0860069
-0.0928792
-0.12417
-0.0875836
-0.124091
-0.112017
-0.0884143
-0.0908622
-0.0917346
-0.101465
-0.0915836
-0.0857517
-0.0974465
-0.1022
-0.120647
-0.0917154
-0.0911204
-0.131925
-0.130077
-0.0876498
-0.0884333
-0.039487
-0.106828
-0.0741199
-0.100271
-0.0443386
-0.0460258
-0.0411316
-0.041805
-0.0443504
-0.0467204
-0.0481472
-0.112503
-0.083259
-0.0839957
-0.096029
-0.0935434
-0.092376
-0.0977175
-0.0904013
-0.0924606
-0.0940183
-0.0920335
-0.113016
-0.0836741
-0.11617
-0.0903859
-0.087252
-0.0921495
-0.0983342
-0.102742
-0.0957189
-0.109622
-0.102414
-0.0949683
-0.0684824
-0.0955189
-0.0934042
-0.100574
-0.0963409
-0.0912859
-0.0868144
-0.0956298
-0.099751
-0.135415
-0.0894342
-0.131656
-0.137234
-0.0939733
-0.131483
-0.100863
-0.0807941
-0.110064
-0.0964646
-0.0694798
-0.0610145
-0.108665
-0.115738
-0.0979741
-0.0814455
-0.0979867
-0.0464487
-0.0968667
-0.0908873
-0.0464023
-0.0177874
-0.0194578
-0.0839081
-0.089471
-0.103916
-0.0998922
-0.00914538
-0.009556
-0.098932
-0.099964
-0.0946262
-0.0348652
-0.0837187
-0.0973339
-0.0992389
-0.0856037
-0.0755574
-0.0363077
-0.143341
-0.0900316
-0.11001
-0.11173
-0.080293
-0.101619
-0.0785049
-0.086627
-0.0430381
-0.0649515
-0.10174
-0.102371
-0.0879828
-0.0924069
-0.0953587
-0.100547
-0.0961713
-0.0474076
-0.0843924
-0.0951369
-0.0899291
-0.134953
-0.0473982
-0.0730385
-0.0752315
-0.0713048
-0.0463612
-0.0463643
-0.0816873
-0.0659491
-0.0943242
-0.0507348
-0.0553643
-0.0180779
-0.0180778
-0.0378385
-0.0601048
-0.0404944
-0.0803673
-0.0869293
-0.0927638
-0.104524
-0.0948108
-0.0877797
-0.0691071
-0.0427503
-0.0867684
-0.0898957
-0.0870354
-0.0480418
-0.044417
-0.0345856
-0.0869126
-0.0886685
-0.0712456
-0.0804759
-0.0742615
-0.0680033
-0.0910191
-0.0679973
-0.0803325
-0.0774565
-0.0474851
-0.0586258
-0.0544956
-0.0962474
-0.038052
-0.0400866
-0.0392155
-0.0908966
-0.0362324
-0.0354846
-0.0632385
-0.033096
-0.0736016
-0.0737129
-0.0339734
-0.0801441
-0.0377139
-0.037487
-0.042236
-0.0357656
-0.0351177
-0.0524241
-0.0417428
-0.037931
-0.0358767
-0.0733814
-0.0837594
-0.0394932
-0.0809948
-0.0325356
-0.0821651
-0.065277
-0.0339917
-0.0287834
-0.0321105
-0.0426062
-0.07056
-0.0580966
-0.0243069
-0.0269806
-0.0786638
-0.0228806
-0.0228804
-0.0259263
-0.0291005
-0.0328775
-0.0382756
-0.0632877
-0.058583
-0.0787181
-0.0229877
-0.0229875
-0.0691891
-0.0284424
-0.0560827
-0.0257731
-0.0259294
-0.0341645
-0.0593247
-0.0614298
-0.0654435
-0.059977
-0.0593232
-0.0129609
-0.0957604
-0.0165326
-0.0160186
-0.0773582
-0.0768215
-0.0165998
-0.0115296
-0.0162453
-0.0713564
SCALARS cell_type float
LOOKUP_TABLE default
0
0
0
0
0
0
0
0
0
0
0
0
0
0
0
0
0
0
0
0
0
1
0
0
0
0
0
0
0
0
0
0
0
0
0
0
0
0
0
0
0
0
0
0
0
0
0
0
0
0
0
0
0
0
0
0
0
0
0
0
0
0
0
0
0
0
0
0
0
0
0
0
0
0
0
0
0
0
0
0
0
0
0
0
0
0
0
0
0
0
0
0
0
0
0
0
0
0
0
0
0
0
0
0
0
0
0
0
0
0
0
0
0
0
0
0
0
0
0
0
0
0
0
0
0
0
0
0
0
0
0
0
0
0
0
0
0
0
0
0
0
0
0
0
0
0
0
0
0
0
0
0
0
0
0
0
0
0
0
0
0
0
0
0
0
0
0
0
0
0
0
0
0
0
0
0
0
0
0
0
0
0
0
0
0
0
0
0
0
0
0
0
0
0
0
0
0
0
0
0
0
0
0
0
0
0
0
0
0
0
0
0
0
0
0
0
0
0
0
0
0
0
0
0
0
0
0
0
0
0
0
0
0
0
0
0
0
0
0
0
0
0
0
0
0
0
0
0
0
0
0
0
0
0
0
0
0
0
0
0
0
0
0
0
0
0
0
0
0
0
0
0
0
0
0
0
0
0
0
0
0
0
0
0
0
0
0
0
0
0
0
0
0
0
0
0
0
0
0
0
0
0
0
0
0
0
0
0
0
0
0
0
0
0
0
0
0
0
0
0
0
0
0
0
0
0
0
0
0
0
0
0
0
0
0
0
0
0
0
0
0
0
0
0
0
0
0
0
0
0
2
2
2
2
2
2
2
0
0
0
0
0
0
0
0
0
0
0
0
0
0
0
0
0
0
0
0
0
0
0
0
0
0
0
0
0
0
0
0
0
0
0
0
0
0
0
0
0
0
0
0
0
0
0
0
0
0
0
0
0
0
0
0
0
0
0
1
1
0
0
0
0
0
0
0
0
0
0
0
0
0
0
0
0
0
0
0
0
0
0
0
0
0
0
0
0
0
0
0
0
0
0
0
0
0
0
0
0
0
0
0
1
1
0
0
0
0
0
0
0
0
0
0
0
0
0
0
0
0
0
0
0
0
0
0
0
0
0
0
0
0
0
0
0
0
0
0
0
0
0
0
0
0
0
0
0
0
0
0
0
0
0
0
0
0
0
0
0
0
0
0
0
0
0
0
0
0
0
1
1
0
0
0
0
0
0
0
0
0
0
0
0
0
0
0
0
0
0
0
0
0
0
0
0
0
0
0
0
0
0
0
0
0
TENSORS Lagrange_strain float
0.0305677 -0.00319828 -5.14586e-08
-0.00319828 0.013389 5.39604e-09
-5.14586e-08 5.39604e-09 0.0074017

0.0291925 -0.0028009 6.40258e-08
-0.0028009 0.0335533 2.46762e-08
6.40258e-08 2.46762e-08 0.033163

0.0300206 0.00367898 2.5492e-07
0.00367898 0.031169 -9.93344e-08
2.5492e-07 -9.93344e-08 0.0304674

0.0291614 -0.00392499 8.42113e-08
-0.00392499 0.0327984 3.14856e-08
8.42113e-08 3.14856e-08 0.0330879

0.0353666 0.00266936 8.8047e-09
0.00266936 0.0380855 7.11213e-08
8.8047e-09 7.11213e-08 0.0352919

0.0277349 -0.00236693 -1.10231e-07
-0.00236693 0.0333838 1.2987e-08
-1.10231e-07 1.2987e-08 0.0304385

0.0302617 0.00339397 -5.69145e-08
0.00339397 0.0134945 2.4033e-07
-5.69145e-08 2.4033e-07 0.0074631

0.0317542 0.00393954 -3.01443e-08
0.00393954 0.0311994 -1.62549e-07
-3.01443e-08 -1.62549e-07 0.0315602

0.0332413 0.00071535 1.68171e-08
0.00071535 0.026221 -1.77455e-09
1.68171e-08 -1.77455e-09 0.0281417

0.0354666 -0.000991023 -4.66545e-08
-0.000991023 0.0275507 -5.20061e-08
-4.66545e-08 -5.20061e-08 0.0327206

0.028061 0.00205111 -9.22332e-08
0.00205111 0.0138088 -2.23584e-07
-9.22332e-08 -2.23584e-07 0.0117533

0.0279528 -0.00176564 -5.21214e-08
-0.00176564 0.0350058 1.97717e-07
-5.21214e-08 1.97717e-07 0.0315488

0.0311206 0.00365728 -1.14779e-07
0.00365728 0.0312997 -3.46833e-08
-1.14779e-07 -3.46833e-08 0.0310791

0.0290688 -0.00187991 -1.01551e-07
-0.00187991 0.0347983 -1.85313e-08
-1.01551e-07 -1.85313e-08 0.032546

0.0346315 0.00441828 7.94015e-08
0.00441828 0.0343623 -4.23897e-08
7.94015e-08 -4.23897e-08 0.0348843

0.0343275 7.30977e-05 -1.09019e-07
7.30977e-05 0.0272855 -5.37062e-08
-1.09019e-07 -5.37062e-08 0.0307779

0.0286925 -0.0023537 -1.17463e-07
-0.0023537 0.0360132 -7.31939e-08
-1.17463e-07 -7.31939e-08 0.0334497

0.0345728 -0.000353233 -5.98239e-08
-0.000353233 0.0273559 -3.54222e-08
-5.98239e-08 -3.54222e-08 0.0319766

0.0269196 0.00347805 1.54866e-07
0.00347805 0.0309445 7.7929e-08
1.54866e-07 7.7929e-08 0.0275762

0.0338845 -0.000550276 1.43387e-08
-0.000550276 0.0264089 1.24435e-07
1.43387e-08 1.24435e-07 0.0301338

0.0266216 0.00113511 -4.71704e-09
0.00113511 0.034033 -1.40556e-07
-4.71704e-09 -1.40556e-07 0.0291495

0.0452949 0.000850914 1.49642e-07
0.000850914 0.0452638 8.18264e-08
1.49642e-07 8.18264e-08 0.0366378

0.0336743 0.000247458 4.14741e-08
0.000247458 0.0263149 -4.37637e-09
4.14741e-08 -4.37637e-09 0.0298047

0.0293093 -0.00363199 9.38435e-08
-0.00363199 0.0311353 -1.89525e-07
9.38435e-08 -1.89525e-07 0.0300462

0.0337797 0.000900077 -1.43532e-07
0.000900077 0.0264959 3.01898e-08
-1.43532e-07 3.01898e-08 0.0300808

0.0285457 0.0025078 8.93783e-08
0.0025078 0.0338931 4.88188e-08
8.93783e-08 4.88188e-08 0.0322865

0.0286292 0.000526736 -1.77149e-07
0.000526736 0.0176895 -4.77917e-08
-1.77149e-07 -4.77917e-08 0.0131712

0.0309138 0.00403441 -3.8448e-08
0.00403441 0.0306459 -2.04621e-07
-3.8448e-08 -2.04621e-07 0.0306103

0.0259243 0.0047764 1.1054e-07
0.0047764 0.0257326 1.86225e-07
1.1054e-07 1.86225e-07 0.0211277

0.0415291 0.00137013 1.06124e-07
0.00137013 0.0383502 4.69125e-08
1.06124e-07 4.69125e-08 0.0361349

0.0344104 0.001871 -1.453e-07
0.001871 0.0279519 2.72792e-08
-1.453e-07 2.72792e-08 0.0309996

0.0217594 -0.00228778 1.25974e-08
-0.00228778 0.0299916 1.98673e-07
1.25974e-08 1.98673e-07 0.0211246

0.0228631 -0.00535233 -2.46389e-07
-0.00535233 0.0234727 2.46429e-07
-2.46389e-07 2.46429e-07 0.0125788

0.0348324 0.000800633 8.46228e-08
0.000800633 0.0422554 1.75634e-07
8.46228e-08 1.75634e-07 0.035786

0.0374531 -0.000661774 -1.89884e-07
-0.000661774 0.0412026 -5.62174e-08
-1.89884e-07 -5.62174e-08 0.0359005

0.0410751 0.0028132 1.12437e-07
0.0028132 0.035986 -1.29352e-07
1.12437e-07 -1.29352e-07 0.0357662

0.0372536 0.000705469 3.47295e-08
0.000705469 0.0432156 -2.41267e-08
3.47295e-08 -2.41267e-08 0.0361413

0.0402605 -0.0012189 -1.64115e-07
-0.0012189 0.03783 3.26545e-08
-1.64115e-07 3.26545e-08 0.0358078

0.0312151 -0.00367772 8.09753e-08
-0.00367772 0.0311228 -1.90465e-07
8.09753e-08 -1.90465e-07 0.030925

0.022747 0.00527894 -1.67896e-08
0.00527894 0.0237087 3.4556e-08
-1.67896e-08 3.4556e-08 0.0125809

0.0297602 -0.00231566 -1.2744e-07
-0.00231566 0.0220307 7.42474e-08
-1.2744e-07 7.42474e-08 0.0208745

0.0376191 -0.000522828 -1.51589e-07
-0.000522828 0.0430638 -2.76963e-07
-1.51589e-07 -2.76963e-07 0.036144

0.0412407 0.00263438 -2.2202e-07
0.00263438 0.0394148 1.11675e-07
-2.2202e-07 1.11675e-07 0.0361265

0.0343009 -0.001617 7.59667e-08
-0.001617 0.0279941 -1.35592e-07
7.59667e-08 -1.35592e-07 0.0310835

0.0231053 -0.00552564 2.29306e-07
-0.00552564 0.0235623 -2.73351e-07
2.29306e-07 -2.73351e-07 0.0162158

0.0299428 -0.00233231 3.32e-09
-0.00233231 0.0221548 -1.96425e-07
3.32e-09 -1.96425e-07 0.0213438

0.0258932 0.00222729 -1.58377e-08
0.00222729 0.0326535 -1.17086e-07
-1.58377e-08 -1.17086e-07 0.0279148

0.0275503 0.00252881 1.54865e-07
0.00252881 0.0323729 7.81989e-08
1.54865e-07 7.81989e-08 0.0284904

0.0341743 -0.0021411 4.2064e-09
-0.0021411 0.0271068 -2.04161e-07
4.2064e-09 -2.04161e-07 0.0304717

0.0229022 -0.00439239 1.71159e-07
-0.00439239 0.0272484 1.30709e-07
1.71159e-07 1.30709e-07 0.01985

0.0294934 0.00247151 -3.64816e-08
0.00247151 0.0218339 1.33325e-08
-3.64816e-08 1.33325e-08 0.0202805

0.0298719 -0.00327096 -3.18529e-08
-0.00327096 0.0245132 -6.13817e-08
-3.18529e-08 -6.13817e-08 0.0230478

0.0344774 0.00257774 -2.12375e-07
0.00257774 0.0382033 -2.20622e-08
-2.12375e-07 -2.20622e-08 0.0352706

0.0286889 0.00383851 -1.05496e-07
0.00383851 0.0257792 1.92163e-07
-1.05496e-07 1.92163e-07 0.0231164

0.0349278 -0.00291596 -1.0298e-07
-0.00291596 0.0374324 4.2083e-08
-1.0298e-07 4.2083e-08 0.0351889

0.0255797 -0.00545534 3.79289e-07
-0.00545534 0.0229021 -1.86827e-07
3.79289e-07 -1.86827e-07 0.0158193

0.0373466 0.000746148 -1.22046e-07
0.000746148 0.0414128 6.40742e-08
-1.22046e-07 6.40742e-08 0.035921

0.0231673 -0.000693069 -4.79113e-08
-0.000693069 0.0313129 9.49539e-08
-4.79113e-08 9.49539e-08 0.0231024

0.0410301 0.00137995 1.85639e-08
0.00137995 0.0377068 -7.95051e-08
1.85639e-08 -7.95051e-08 0.0358992

0.0276753 0.00280512 1.23852e-07
0.00280512 0.0327488 -3.37162e-08
1.23852e-07 -3.37162e-08 0.0302307

0.0361387 0.000784875 -3.19796e-09
0.000784875 0.0281312 -9.0053e-08
-3.19796e-09 -9.0053e-08 0.0336728

0.0362539 0.00153406 2.58066e-08
0.00153406 0.031693 1.96212e-07
2.58066e-08 1.96212e-07 0.0342205

0.0286368 0.00405688 6.91582e-09
0.00405688 0.0198971 2.45981e-07
6.91582e-09 2.45981e-07 0.013759

0.0309722 -0.000783684 1.63403e-07
-0.000783684 0.0370847 1.0182e-07
1.63403e-07 1.0182e-07 0.0338813

0.0315548 0.00124357 2.29779e-09
0.00124357 0.0364206 -2.06129e-08
2.29779e-09 -2.06129e-08 0.0342593

0.0285486 -0.000375151 -8.48179e-08
-0.000375151 0.0369557 4.22115e-10
-8.48179e-08 4.22115e-10 0.0326703

0.0296025 0.00307122 1.41861e-07
0.00307122 0.034791 -1.22759e-07
1.41861e-07 -1.22759e-07 0.0337086

0.0347187 0.00112185 1.88847e-09
0.00112185 0.0278382 3.83199e-08
1.88847e-09 3.83199e-08 0.0322082

0.029187 -0.00369895 -1.35796e-08
-0.00369895 0.0310206 -6.3633e-08
-1.35796e-08 -6.3633e-08 0.0299092

0.0350543 -0.000236886 -8.12627e-08
-0.000236886 0.0275796 -5.26969e-08
-8.12627e-08 -5.26969e-08 0.0333928

0.034452 -0.00254804 -1.72663e-07
-0.00254804 0.0381336 -1.40775e-08
-1.72663e-07 -1.40775e-08 0.0352606

0.0350102 0.00284931 7.72491e-09
0.00284931 0.03757 -7.88918e-08
7.72491e-09 -7.88918e-08 0.0352405

0.0218884 -0.00213166 -6.34729e-08
-0.00213166 0.0299219 -2.21505e-07
-6.34729e-08 -2.21505e-07 0.020851

0.0347007 -0.00369103 -1.94994e-07
-0.00369103 0.0319575 7.68339e-08
-1.94994e-07 7.68339e-08 0.0330787

0.0292917 -0.00329725 -4.10735e-09
-0.00329725 0.032112 -4.69416e-08
-4.10735e-09 -4.69416e-08 0.030433

0.0267793 -0.00401684 4.28481e-08
-0.00401684 0.0176051 -7.59841e-08
4.28481e-08 -7.59841e-08 0.0127258

0.0324039 0.000418891 -1.62397e-08
0.000418891 0.0381044 -2.8683e-08
-1.62397e-08 -2.8683e-08 0.0344056

0.034537 0.00381725 -1.30344e-07
0.00381725 0.0309411 -8.38763e-08
-1.30344e-07 -8.38763e-08 0.03266

0.0283762 0.00258146 1.02384e-07
0.00258146 0.034129 -1.15799e-09
1.02384e-07 -1.15799e-09 0.0322135

0.0315414 0.00103784 -9.56947e-09
0.00103784 0.0228437 -1.93228e-07
-9.56947e-09 -1.93228e-07 0.0240689

0.0270968 -0.00435856 -4.04616e-08
-0.00435856 0.0237365 -2.97636e-07
-4.04616e-08 -2.97636e-07 0.0183233

0.03626 -0.00140285 -1.29145e-08
-0.00140285 0.0387422 -1.25676e-07
-1.29145e-08 -1.25676e-07 0.035401

0.0315558 0.00317079 -1.91777e-07
0.00317079 0.0344013 -3.81987e-08
-1.91777e-07 -3.81987e-08 0.03409

0.0273011 -0.00415593 8.57034e-08
-0.00415593 0.0221747 -1.16218e-07
8.57034e-08 -1.16218e-07 0.0184111

0.0303576 0.00139112 7.33182e-08
0.00139112 0.0228302 -1.94283e-07
7.33182e-08 -1.94283e-07 0.0209542

0.0186019 -0.00269687 3.02295e-08
-0.00269687 0.028928 2.23714e-07
3.02295e-08 2.23714e-07 0.0158928

0.0271996 0.00188881 5.53529e-08
0.00188881 0.0343195 3.53265e-09
5.53529e-08 3.53265e-09 0.0306542

0.0353814 0.00305685 -1.0557e-07
0.00305685 0.0308196 1.36328e-07
-1.0557e-07 1.36328e-07 0.0327534

0.0226476 0.00538576 -1.46278e-08
0.00538576 0.0240883 3.72436e-08
-1.46278e-08 3.72436e-08 0.0161983

0.0459502 0.00223795 -3.84838e-07
0.00223795 0.0417503 2.38417e-07
-3.84838e-07 2.38417e-07 0.0366387

0.0230811 -0.000534277 3.3496e-08
-0.000534277 0.0313537 -1.71224e-08
3.3496e-08 -1.71224e-08 0.0230722

0.0463635 -0.00225609 -6.10325e-07
-0.00225609 0.0412944 -8.1933e-08
-6.10325e-07 -8.1933e-08 0.0365939

0.0370649 -0.00362447 6.82009e-08
-0.00362447 0.0334906 -2.53899e-07
6.82009e-08 -2.53899e-07 0.0346206

0.0351371 0.00361907 -5.02373e-08
0.00361907 0.0300038 -6.82711e-08
-5.02373e-08 -6.82711e-08 0.0324561

0.0299615 -0.00315888 -9.62184e-08
-0.00315888 0.0246902 -4.13795e-08
-9.62184e-08 -4.13795e-08 0.0232856

0.023012 0.00402979 1.32664e-07
0.00402979 0.0277787 -1.60555e-07
1.32664e-07 -1.60555e-07 0.0203818

0.0210936 -0.00137854 1.14063e-07
-0.00137854 0.0298948 -7.36079e-08
1.14063e-07 -7.36079e-08 0.0182513

0.0287453 0.00288899 -1.50324e-07
0.00288899 0.0342269 -4.61771e-08
-1.50324e-07 -4.61771e-08 0.0326993

0.0370112 0.0022361 -7.04248e-08
0.0022361 0.0334515 1.90789e-08
-7.04248e-08 1.90789e-08 0.0343839

0.028148 0.00198809 1.01447e-07
0.00198809 0.0340594 -5.30515e-09
1.01447e-07 -5.30515e-09 0.030865

0.0318819 0.00207299 1.48443e-07
0.00207299 0.0252539 5.44587e-08
1.48443e-07 5.44587e-08 0.0256171

0.0239073 -0.00277433 -1.05281e-08
-0.00277433 0.0297646 -2.16088e-07
-1.05281e-08 -2.16088e-07 0.0215612

0.0278982 -0.00376351 1.18456e-07
-0.00376351 0.021815 9.33125e-08
1.18456e-07 9.33125e-08 0.0180757

0.0293309 -0.00323199 7.21845e-08
-0.00323199 0.0326294 -6.78789e-08
7.21845e-08 -6.78789e-08 0.0324024

0.0306256 0.00361477 2.95432e-08
0.00361477 0.0322283 1.75903e-07
2.95432e-08 1.75903e-07 0.0323703

0.0287075 0.00304805 -2.60292e-08
0.00304805 0.0340262 3.43404e-08
-2.60292e-08 3.43404e-08 0.0326297

0.0292064 0.0017252 -1.44521e-08
0.0017252 0.0376171 -2.9609e-08
-1.44521e-08 -2.9609e-08 0.0338457

0.0344765 0.00123248 7.46084e-08
0.00123248 0.0275234 3.75515e-08
7.46084e-08 3.75515e-08 0.0306743

0.0199604 -0.000605117 -1.03055e-07
-0.000605117 0.0296602 -1.61588e-07
-1.03055e-07 -1.61588e-07 0.0181037

0.0297967 -0.00486327 8.96468e-08
-0.00486327 0.0330485 -4.30273e-09
8.96468e-08 -4.30273e-09 0.0337411

0.0290809 0.00359996 -1.21981e-07
0.00359996 0.0313591 -3.3601e-08
-1.21981e-07 -3.3601e-08 0.0302636

0.0181054 0.000282827 -4.58198e-08
0.000282827 0.0293103 -3.85172e-08
-4.58198e-08 -3.85172e-08 0.0168782

0.027843 0.00442363 -2.28943e-07
0.00442363 0.0209679 6.10089e-08
-2.28943e-07 6.10089e-08 0.0174544

0.0291906 -0.00302045 8.63185e-08
-0.00302045 0.0327028 1.12365e-07
8.63185e-08 1.12365e-07 0.0321849

0.0352416 0.00075955 -2.01858e-08
0.00075955 0.0273381 8.00853e-08
-2.01858e-08 8.00853e-08 0.0325523

0.0294267 0.00352004 1.33363e-07
0.00352004 0.0252008 -1.46212e-07
1.33363e-07 -1.46212e-07 0.0231108

0.0396355 0.00171007 8.05257e-08
0.00171007 0.0390392 -1.92037e-07
8.05257e-08 -1.92037e-07 0.0359396

0.0283746 0.00312322 -1.19024e-07
0.00312322 0.0224011 -8.32685e-08
-1.19024e-07 -8.32685e-08 0.0182861

0.0394884 -0.00175075 7.12699e-08
-0.00175075 0.039065 1.12243e-09
7.12699e-08 1.12243e-09 0.0359048

0.0232606 0.000103475 1.5342e-07
0.000103475 0.0315173 1.20984e-07
1.5342e-07 1.20984e-07 0.0231192

0.032758 -0.000288543 1.21445e-07
-0.000288543 0.0246596 1.06651e-07
1.21445e-07 1.06651e-07 0.0269657

0.0380539 -0.00212933 -7.11197e-08
-0.00212933 0.0304633 1.33124e-07
-7.11197e-08 1.33124e-07 0.0347927

0.0292376 0.00320588 -8.43992e-08
0.00320588 0.0332775 9.73486e-08
-8.43992e-08 9.73486e-08 0.0333423

0.02895 -0.00177267 1.36885e-08
-0.00177267 0.0366082 -2.2982e-08
1.36885e-08 -2.2982e-08 0.033499

0.0365829 -0.00108486 -9.19841e-08
-0.00108486 0.0264757 -3.59481e-08
-9.19841e-08 -3.59481e-08 0.0338594

0.0311797 -0.00292569 1.71448e-07
-0.00292569 0.0383053 -5.88865e-08
1.71448e-07 -5.88865e-08 0.0348431

0.0381648 -0.000884871 -1.43607e-07
-0.000884871 0.0387305 1.01003e-07
-1.43607e-07 1.01003e-07 0.0358349

0.0301791 -0.00393993 5.95999e-08
-0.00393993 0.0327101 1.12532e-07
5.95999e-08 1.12532e-07 0.0327627

0.0213324 0.00146942 2.49396e-07
0.00146942 0.0296131 1.30071e-07
2.49396e-07 1.30071e-07 0.0182952

0.0293874 -0.00364563 4.36667e-09
-0.00364563 0.0253488 2.1839e-08
4.36667e-09 2.1839e-08 0.0231814

0.032859 -0.00181722 -1.59864e-07
-0.00181722 0.0397171 -6.28709e-08
-1.59864e-07 -6.28709e-08 0.0352404

0.0350903 7.65397e-05 -4.03104e-09
7.65397e-05 0.0272214 8.15321e-08
-4.03104e-09 8.15321e-08 0.0332506

0.0308178 -0.00282911 2.25158e-08
-0.00282911 0.0348906 -3.78025e-08
2.25158e-08 -3.78025e-08 0.0340834

0.0295337 0.00338865 -6.66451e-08
0.00338865 0.0328704 7.95832e-08
-6.66451e-08 7.95832e-08 0.0333254

0.0264598 -0.00406311 -2.02784e-07
-0.00406311 0.027261 1.22808e-07
-2.02784e-07 1.22808e-07 0.021584

0.037172 -0.000958233 1.64245e-07
-0.000958233 0.04161 1.88811e-07
1.64245e-07 1.88811e-07 0.0358859

0.0227105 -0.00423756 8.89746e-08
-0.00423756 0.0272428 2.60811e-07
8.89746e-08 2.60811e-07 0.016877

0.0341818 -0.00252475 1.23396e-09
-0.00252475 0.0286059 9.26557e-08
1.23396e-09 9.26557e-08 0.0310437

0.0364251 0.000289964 1.22429e-07
0.000289964 0.0294369 6.73272e-08
1.22429e-07 6.73272e-08 0.0341931

0.0396399 0.00239671 -2.20782e-08
0.00239671 0.0391129 3.39664e-08
-2.20782e-08 3.39664e-08 0.0358669

0.0238555 0.00260923 -6.08719e-09
0.00260923 0.0301509 9.45432e-08
-6.08719e-09 9.45432e-08 0.0217983

0.0334302 0.00358118 6.89316e-08
0.00358118 0.0307144 -2.31945e-07
6.89316e-08 -2.31945e-07 0.0317666

0.0316422 -0.00319423 2.05333e-07
-0.00319423 0.0265514 -1.68149e-08
2.05333e-07 -1.68149e-08 0.0269348

0.0289286 -0.00234092 4.28308e-08
-0.00234092 0.0342343 4.05389e-08
4.28308e-08 4.05389e-08 0.0326052

0.0262436 0.00450135 -2.0089e-07
0.00450135 0.024557 -2.00655e-07
-2.0089e-07 -2.00655e-07 0.0180807

0.0284222 -0.00286647 3.60738e-08
-0.00286647 0.0340313 4.43954e-08
3.60738e-08 4.43954e-08 0.0324484

0.0331483 0.00405878 -4.49698e-08
0.00405878 0.030464 1.2144e-07
-4.49698e-08 1.2144e-07 0.0315417

0.033334 -0.00331183 -1.16999e-07
-0.00331183 0.0283564 4.19679e-09
-1.16999e-07 4.19679e-09 0.0300452

0.0291603 -0.00329519 3.0885e-07
-0.00329519 0.0319871 3.18259e-08
3.0885e-07 3.18259e-08 0.0304367

0.0314546 -0.00242934 2.12142e-07
-0.00242934 0.0247183 -2.72302e-08
2.12142e-07 -2.72302e-08 0.0251556

0.0329545 -0.00246662 -7.82637e-08
-0.00246662 0.026709 -5.13662e-08
-7.82637e-08 -5.13662e-08 0.028596

0.0294905 -0.00334181 1.29095e-07
-0.00334181 0.0329497 -2.06504e-08
1.29095e-07 -2.06504e-08 0.0334068

0.0261335 0.00463363 -1.98786e-07
0.00463363 0.0255407 5.42716e-08
-1.98786e-07 5.42716e-08 0.0210919

0.0281494 0.00201683 7.4687e-08
0.00201683 0.0343351 6.93503e-09
7.4687e-08 6.93503e-09 0.0311088

0.030886 0.00348117 3.06246e-08
0.00348117 0.0322552 -5.62794e-08
3.06246e-08 -5.62794e-08 0.0325996

0.0291564 0.00334804 -7.41233e-08
0.00334804 0.0331912 -7.07817e-08
-7.41233e-08 -7.07817e-08 0.0332598

0.0289837 0.00152279 -1.83589e-08
0.00152279 0.0354702 9.93436e-08
-1.83589e-08 9.93436e-08 0.032695

0.0310521 -0.00106172 1.4329e-07
-0.00106172 0.023141 5.47906e-08
1.4329e-07 5.47906e-08 0.0220775

0.0238834 0.00240555 -1.4799e-07
0.00240555 0.0304099 -2.76162e-08
-1.4799e-07 -2.76162e-08 0.0221125

0.029213 -0.00320408 -1.06579e-08
-0.00320408 0.0326359 -2.06727e-08
-1.06579e-08 -2.06727e-08 0.0316179

0.0289868 0.00335673 -5.81694e-10
0.00335673 0.0309321 1.02251e-07
-5.81694e-10 1.02251e-07 0.0285675

0.0266121 -0.00459125 -2.65523e-07
-0.00459125 0.0252301 2.91473e-09
-2.65523e-07 2.91473e-09 0.0212562

0.0262771 0.00489331 -2.54792e-07
0.00489331 0.020946 1.31304e-08
-2.54792e-07 1.31304e-08 0.016762

0.0235023 -0.00428653 -4.08273e-08
-0.00428653 0.0274639 3.27694e-08
-4.08273e-08 3.27694e-08 0.020626

0.0266714 -0.00402747 -2.57316e-07
-0.00402747 0.0274819 2.19839e-08
-2.57316e-07 2.19839e-08 0.0220496

0.0353641 -0.000906411 -9.16599e-08
-0.000906411 0.0273899 -5.66177e-08
-9.16599e-08 -5.66177e-08 0.0326546

0.0260448 0.00392149 1.70224e-07
0.00392149 0.0280918 9.41165e-08
1.70224e-07 9.41165e-08 0.022102

0.0307873 0.00171646 1.4949e-07
0.00171646 0.0233599 7.57077e-09
1.4949e-07 7.57077e-09 0.0220251

0.0214306 0.001722 2.20831e-07
0.001722 0.0302402 4.1209e-08
2.20831e-07 4.1209e-08 0.0211323

0.0242623 -0.00288924 3.6091e-08
-0.00288924 0.029951 1.99599e-07
3.6091e-08 1.99599e-07 0.0220858

0.0313455 -0.000130911 -1.11044e-07
-0.000130911 0.0392735 -1.22609e-07
-1.11044e-07 -1.22609e-07 0.0346707

0.023058 0.000294623 8.52839e-08
0.000294623 0.03146 -1.38021e-08
8.52839e-08 -1.38021e-08 0.0230619

0.0227768 0.0040013 -2.16158e-07
0.0040013 0.0281269 6.22875e-08
-2.16158e-07 6.22875e-08 0.0206377

0.0288883 0.00158565 1.58057e-07
0.00158565 0.0358329 -4.9533e-08
1.58057e-07 -4.9533e-08 0.0328935

0.0293154 -0.0035801 8.07839e-08
-0.0035801 0.0251293 2.60058e-07
8.07839e-08 2.60058e-07 0.0232394

0.0369764 0.00273299 -8.07303e-08
0.00273299 0.0297232 2.68735e-07
-8.07303e-08 2.68735e-07 0.0338017

0.0371757 0.00348321 6.39662e-08
0.00348321 0.033423 1.71721e-08
6.39662e-08 1.71721e-08 0.0346522

0.0345442 -0.00244661 -1.99602e-08
-0.00244661 0.0285298 1.47344e-08
-1.99602e-08 1.47344e-08 0.0313788

0.0390566 -0.000265624 -1.57778e-07
-0.000265624 0.033925 -3.206e-08
-1.57778e-07 -3.206e-08 0.0352083

0.0314792 -0.00418763 -1.3072e-07
-0.00418763 0.0317818 -1.69025e-08
-1.3072e-07 -1.69025e-08 0.0321563

0.0294617 0.00300736 1.77532e-07
0.00300736 0.0223271 -3.14679e-08
1.77532e-07 -3.14679e-08 0.0210663

0.0302297 0.00397321 -5.49559e-08
0.00397321 0.0326632 1.00994e-07
-5.49559e-08 1.00994e-07 0.0327199

0.0302769 0.00384692 1.64453e-07
0.00384692 0.0326072 -8.0705e-08
1.64453e-07 -8.0705e-08 0.0326747

0.0262441 0.00396158 -8.56587e-08
0.00396158 0.0277674 -1.69848e-07
-8.56587e-08 -1.69848e-07 0.0218646

0.0344504 0.00357655 -4.65194e-08
0.00357655 0.0317796 -2.00664e-07
-4.65194e-08 -2.00664e-07 0.0328315

0.0302482 0.000452438 1.59944e-07
0.000452438 0.0204282 2.99684e-08
1.59944e-07 2.99684e-08 0.0205731

0.0331863 0.00420071 -4.38208e-08
0.00420071 0.0323734 -6.35698e-08
-4.38208e-08 -6.35698e-08 0.0334839

0.0305009 -0.00165432 -6.59643e-08
-0.00165432 0.0366159 -2.66878e-08
-6.59643e-08 -2.66878e-08 0.0336628

0.0373606 0.00323275 6.30084e-08
0.00323275 0.0334597 -6.11104e-08
6.30084e-08 -6.11104e-08 0.0346643

0.0307368 -0.00389598 1.74149e-08
-0.00389598 0.0322733 -7.98363e-08
1.74149e-08 -7.98363e-08 0.0326802

0.029374 -0.000644906 -8.43797e-08
-0.000644906 0.036903 4.61218e-10
-8.43797e-08 4.61218e-10 0.0328479

0.0288125 -0.00315227 2.66639e-08
-0.00315227 0.0221398 -1.95723e-07
2.66639e-08 -1.95723e-07 0.0187588

0.0290023 0.00384435 1.48991e-08
0.00384435 0.0255778 4.9116e-08
1.48991e-08 4.9116e-08 0.0230727

0.0217013 0.00189084 2.28489e-08
0.00189084 0.0300612 9.6497e-08
2.28489e-08 9.6497e-08 0.0210837

0.0349903 -0.000161245 1.11722e-07
-0.000161245 0.0273896 -5.66953e-08
1.11722e-07 -5.66953e-08 0.0333016

0.0344195 2.4052e-07 -9.37206e-08
2.4052e-07 0.0272746 -5.2667e-08
-9.37206e-08 -5.2667e-08 0.0320412

0.0291658 0.00303992 -1.36849e-07
0.00303992 0.0326799 -6.74829e-08
-1.36849e-07 -6.74829e-08 0.0321327

0.0314498 0.00316587 9.40164e-08
0.00316587 0.03425 1.83754e-07
9.40164e-08 1.83754e-07 0.0340582

0.0291688 -0.00320428 1.09108e-07
-0.00320428 0.0332384 -6.56483e-08
1.09108e-07 -6.56483e-08 0.033379

0.0287737 -8.5515e-05 1.04417e-07
-8.5515e-05 0.0367045 2.07791e-07
1.04417e-07 2.07791e-07 0.0325257

0.029464 0.00337597 1.41669e-07
0.00337597 0.0330747 -1.15863e-07
1.41669e-07 -1.15863e-07 0.0333547

0.0328592 -0.00134643 -1.51657e-07
-0.00134643 0.0253618 -1.25651e-07
-1.51657e-07 -1.25651e-07 0.0278289

0.0263549 -0.00425449 -1.02902e-07
-0.00425449 0.0281798 -4.27985e-08
-1.02902e-07 -4.27985e-08 0.0242676

0.0362977 -0.00033167 7.46817e-08
-0.00033167 0.0293831 -1.12044e-07
7.46817e-08 -1.12044e-07 0.034028

0.0267809 -0.00444541 -1.13878e-07
-0.00444541 0.0251904 2.66034e-07
-1.13878e-07 2.66034e-07 0.0209491

0.0308997 0.00250727 6.28613e-08
0.00250727 0.0350634 -1.06652e-07
6.28613e-08 -1.06652e-07 0.0340678

0.035113 -0.00349661 2.221e-08
-0.00349661 0.0303883 -4.73403e-08
2.221e-08 -4.73403e-08 0.0326148

0.0305016 -0.00124979 -6.5019e-08
-0.00124979 0.0229784 2.19632e-07
-6.5019e-08 2.19632e-07 0.0214783

0.037148 -0.00307708 1.60223e-07
-0.00307708 0.0316532 1.22644e-08
1.60223e-07 1.22644e-08 0.033988

0.0349691 0.000321981 3.72949e-08
0.000321981 0.0275548 -1.63911e-08
3.72949e-08 -1.63911e-08 0.03343

0.0358436 -0.00308823 -4.81079e-09
-0.00308823 0.033258 -3.2376e-08
-4.81079e-09 -3.2376e-08 0.0341435

0.0349283 -0.0034106 -1.08158e-07
-0.0034106 0.029595 1.91023e-07
-1.08158e-07 1.91023e-07 0.0321781

0.0349091 -0.00113347 -1.23562e-07
-0.00113347 0.0278501 -1.08384e-07
-1.23562e-07 -1.08384e-07 0.0323414

0.0314898 -0.00306232 -4.6838e-08
-0.00306232 0.0344483 -1.50081e-07
-4.6838e-08 -1.50081e-07 0.0341466

0.0292353 -0.00407081 9.02514e-08
-0.00407081 0.0268997 -1.02494e-07
9.02514e-08 -1.02494e-07 0.0253461

0.0349924 -0.00324366 -1.53231e-07
-0.00324366 0.0299152 1.33387e-08
-1.53231e-07 1.33387e-08 0.0321953

0.0314623 0.00140902 2.13502e-08
0.00140902 0.023327 1.08126e-09
2.13502e-08 1.08126e-09 0.0244836

0.033665 0.00348423 -8.83231e-08
0.00348423 0.0334443 5.33522e-09
-8.83231e-08 5.33522e-09 0.0336501

0.0298927 -0.00496707 2.19176e-08
-0.00496707 0.0330784 -1.63925e-08
2.19176e-08 -1.63925e-08 0.0338573

0.0300431 0.00492059 -1.54993e-07
0.00492059 0.0329402 -1.03093e-07
-1.54993e-07 -1.03093e-07 0.0338241

0.0276881 -0.00374187 5.81091e-08
-0.00374187 0.0348072 1.43791e-08
5.81091e-08 1.43791e-08 0.0337667

0.0279256 0.00354713 -2.94922e-08
0.00354713 0.0348352 -1.30157e-07
-2.94922e-08 -1.30157e-07 0.0337316

0.03643 -0.00115365 1.10201e-07
-0.00115365 0.0263418 -5.3917e-08
1.10201e-07 -5.3917e-08 0.0337579

0.0361986 0.00124758 -4.76541e-08
0.00124758 0.0265632 -2.1566e-08
-4.76541e-08 -2.1566e-08 0.0337207

0.035034 -0.00130671 -1.49678e-09
-0.00130671 0.0284681 5.45087e-08
-1.49678e-09 5.45087e-08 0.0325758

0.0344362 0.00425898 -1.28857e-07
0.00425898 0.0342891 1.79798e-07
-1.28857e-07 1.79798e-07 0.0348125

0.0343121 -0.00435687 -1.13445e-07
-0.00435687 0.0342815 2.37839e-08
-1.13445e-07 2.37839e-08 0.0348008

0.030521 0.00209353 1.43788e-08
0.00209353 0.0381657 -1.10774e-08
1.43788e-08 -1.10774e-08 0.0348497

0.0306641 -0.00205963 3.04108e-08
-0.00205963 0.0380952 -2.38866e-08
3.04108e-08 -2.38866e-08 0.034837

0.0395021 -0.000529173 5.66303e-08
-0.000529173 0.0328495 3.77408e-08
5.66303e-08 3.77408e-08 0.0352579

0.0397044 0.000513495 1.37047e-07
0.000513495 0.0326218 -5.04163e-08
1.37047e-07 -5.04163e-08 0.0353031

0.0239651 0.00127587 2.03937e-08
0.00127587 0.0320031 -1.33399e-07
2.03937e-08 -1.33399e-07 0.0251843

0.0311623 -0.0032653 -1.06628e-07
-0.0032653 0.0322408 -1.63399e-07
-1.06628e-07 -1.63399e-07 0.0328019

0.0277795 -0.00478575 1.04233e-07
-0.00478575 0.0333118 -6.55408e-08
1.04233e-07 -6.55408e-08 0.0334553

0.0333587 -0.000610209 -1.15055e-08
-0.000610209 0.0264031 1.22442e-07
-1.15055e-08 1.22442e-07 0.0284482

0.038188 -0.00225206 -3.51714e-08
-0.00225206 0.0307945 -1.18743e-07
-3.51714e-08 -1.18743e-07 0.0348928

0.0382359 0.0021838 9.11895e-08
0.0021838 0.0309077 1.7992e-08
9.11895e-08 1.7992e-08 0.034925

0.0360837 1.56045e-05 -1.23883e-08
1.56045e-05 0.0251258 7.18699e-08
-1.23883e-08 7.18699e-08 0.0334703

0.0242409 0.00302899 -9.35508e-08
0.00302899 0.0303977 -6.51265e-08
-9.35508e-08 -6.51265e-08 0.024277

0.0276742 0.00475613 2.37501e-08
0.00475613 0.0333127 -6.66622e-08
2.37501e-08 -6.66622e-08 0.0333931

0.0286747 -0.0030759 4.74394e-08
-0.0030759 0.0342612 4.04606e-08
4.74394e-08 4.04606e-08 0.0327523

0.0310858 0.00303566 -1.01641e-07
0.00303566 0.0251467 -1.58621e-07
-1.01641e-07 -1.58621e-07 0.0254672

0.0372278 0.00316551 1.31953e-07
0.00316551 0.0315406 -1.68664e-07
1.31953e-07 -1.68664e-07 0.0340759

0.0292267 -0.00406722 1.57516e-07
-0.00406722 0.0269357 1.36822e-07
1.57516e-07 1.36822e-07 0.0253214

0.0364017 -0.000453745 -8.91547e-08
-0.000453745 0.0296915 -3.03e-08
-8.91547e-08 -3.03e-08 0.034131

0.0273444 -0.00449471 3.28483e-09
-0.00449471 0.033395 5.8992e-08
3.28483e-09 5.8992e-08 0.0334418

0.0240379 0.00107893 5.86783e-08
0.00107893 0.0322443 -7.41257e-08
5.86783e-08 -7.41257e-08 0.0255059

0.0242296 0.00282648 -9.29301e-08
0.00282648 0.0307015 8.38409e-08
-9.29301e-08 8.38409e-08 0.0245449

0.0267925 0.00459431 -2.1359e-07
0.00459431 0.0240418 3.18635e-08
-2.1359e-07 3.18635e-08 0.0182136

0.0298507 0.000199807 1.22126e-07
0.000199807 0.0200884 -6.24916e-08
1.22126e-07 -6.24916e-08 0.0193624

0.0319089 -0.00302366 1.03007e-07
-0.00302366 0.0341629 1.3721e-08
1.03007e-07 1.3721e-08 0.0340356

0.0229186 0.00399951 -1.24313e-07
0.00399951 0.02766 2.26458e-07
-1.24313e-07 2.26458e-07 0.0176531

0.02921 0.00310085 -1.18628e-07
0.00310085 0.032763 -3.99842e-08
-1.18628e-07 -3.99842e-08 0.0310123

0.0315946 -0.00069446 -5.66751e-08
-0.00069446 0.02316 4.96121e-08
-5.66751e-08 4.96121e-08 0.0244848

0.0327612 0.00146442 -1.28267e-08
0.00146442 0.0253469 6.76812e-08
-1.28267e-08 6.76812e-08 0.027613

0.0359783 5.60045e-05 9.7348e-08
5.60045e-05 0.0249588 -8.26439e-08
9.7348e-08 -8.26439e-08 0.0333863

0.027966 -0.00380544 1.23101e-07
-0.00380544 0.0349488 -4.06674e-08
1.23101e-07 -4.06674e-08 0.033816

0.0393147 -0.000843747 2.33707e-07
-0.000843747 0.0416019 4.2093e-08
2.33707e-07 4.2093e-08 0.0361902

0.0298678 0.00493887 1.49035e-07
0.00493887 0.032956 8.559e-08
1.49035e-07 8.559e-08 0.0337791

0.0302883 0.000214529 1.10327e-08
0.000214529 0.0203968 2.01447e-08
1.10327e-08 2.01447e-08 0.0172761

0.026674 -0.00425042 -2.59407e-07
-0.00425042 0.0281331 2.42479e-08
-2.59407e-07 2.42479e-08 0.0244375

0.0277464 0.00481565 1.95707e-08
0.00481565 0.0333154 9.85787e-08
1.95707e-08 9.85787e-08 0.0334554

0.0279451 -0.00145854 1.09914e-08
-0.00145854 0.035085 2.05815e-07
1.09914e-08 2.05815e-07 0.0314503

0.0244651 -0.00330505 -8.45332e-08
-0.00330505 0.0300152 -9.63086e-08
-8.45332e-08 -9.63086e-08 0.0242171

0.0279906 0.00377978 3.49512e-08
0.00377978 0.0349105 -1.04815e-07
3.49512e-08 -1.04815e-07 0.0337869

0.0313616 -0.00340935 1.70773e-07
-0.00340935 0.0270086 -9.48005e-08
1.70773e-07 -9.48005e-08 0.0269914

0.0402798 0.00140914 9.1961e-08
0.00140914 0.0406185 -2.26984e-07
9.1961e-08 -2.26984e-07 0.0361705

0.0258812 0.00400283 1.2408e-07
0.00400283 0.0289544 8.12728e-09
1.2408e-07 8.12728e-09 0.024511

0.036678 0.00110306 1.10012e-07
0.00110306 0.0263524 8.62785e-08
1.10012e-07 8.62785e-08 0.0338979

0.0333422 0.00398396 -5.80072e-08
0.00398396 0.0321158 1.85585e-07
-5.80072e-08 1.85585e-07 0.0333157

0.0292282 0.00306718 -6.70117e-08
0.00306718 0.0326055 1.00548e-07
-6.70117e-08 1.00548e-07 0.0321578

0.034365 -0.00431083 -1.25484e-08
-0.00431083 0.0345049 -1.50983e-07
-1.25484e-08 -1.50983e-07 0.0348851

0.0354895 -0.00306332 8.13855e-08
-0.00306332 0.0305902 7.33038e-08
8.13855e-08 7.33038e-08 0.0327506

0.0333666 0.00138793 7.77865e-08
0.00138793 0.0395773 2.42304e-07
7.77865e-08 2.42304e-07 0.0350026

0.0291971 -0.00307908 2.83432e-07
-0.00307908 0.0328734 -2.02185e-07
2.83432e-07 -2.02185e-07 0.0313835

0.0292651 -0.00123222 -4.77467e-08
-0.00123222 0.0192872 -1.12815e-07
-4.77467e-08 -1.12815e-07 0.0164122

0.0287786 -0.00183234 -4.3829e-08
-0.00183234 0.0184141 -9.39739e-08
-4.3829e-08 -9.39739e-08 0.0161971

0.0385297 0.00220209 5.69464e-08
0.00220209 0.0332391 -4.98025e-08
5.69464e-08 -4.98025e-08 0.034763

0.028056 0.0029449 1.4842e-07
0.0029449 0.032335 2.18443e-07
1.4842e-07 2.18443e-07 0.0295183

0.0320675 0.00383424 -9.44188e-08
0.00383424 0.0309608 -8.08233e-08
-9.44188e-08 -8.08233e-08 0.0314546

0.0320502 8.98019e-05 -1.67921e-07
8.98019e-05 0.0245771 1.42054e-07
-1.67921e-07 1.42054e-07 0.0248882

0.0302379 0.00086605 -1.04484e-07
0.00086605 0.0385808 -5.56734e-08
-1.04484e-07 -5.56734e-08 0.0340966

0.0354022 0.00219161 -7.21735e-08
0.00219161 0.0293233 -1.16534e-07
-7.21735e-08 -1.16534e-07 0.0328585

0.0248115 -0.00333887 2.24558e-08
-0.00333887 0.0300063 2.21636e-07
2.24558e-08 2.21636e-07 0.0244702

0.0286509 -0.000337965 2.73897e-09
-0.000337965 0.0366572 1.98022e-07
2.73897e-09 1.98022e-07 0.032396

0.0252154 0.00174015 -4.95717e-08
0.00174015 0.0320298 -1.35562e-07
-4.95717e-08 -1.35562e-07 0.0256841

0.0332809 -0.0039096 -1.71809e-08
-0.0039096 0.0304971 6.73494e-08
-1.71809e-08 6.73494e-08 0.0315926

0.0290648 -0.00389606 6.74514e-08
-0.00389606 0.0282006 -3.71995e-08
6.74514e-08 -3.71995e-08 0.0257138

0.0261494 0.00409871 2.042e-08
0.00409871 0.0285464 1.73187e-08
2.042e-08 1.73187e-08 0.0243183

0.0452873 -0.00201696 3.114e-07
-0.00201696 0.0396065 -1.25249e-07
3.114e-07 -1.25249e-07 0.0363671

0.031667 0.000256239 -8.10111e-08
0.000256239 0.039327 2.22931e-07
-8.10111e-08 2.22931e-07 0.0347693

0.0306169 0.00265101 -6.36495e-09
0.00265101 0.038443 1.0567e-08
-6.36495e-09 1.0567e-08 0.034958

0.0387659 0.0020948 -1.70129e-07
0.0020948 0.030222 -3.59845e-09
-1.70129e-07 -3.59845e-09 0.0349428

0.0313712 -0.00345036 5.48661e-09
-0.00345036 0.0321408 -9.82021e-08
5.48661e-09 -9.82021e-08 0.0325729

0.0318183 0.00233616 -7.62204e-08
0.00233616 0.0256205 -1.96106e-07
-7.62204e-08 -1.96106e-07 0.0258798

0.034994 -0.000708451 2.02663e-07
-0.000708451 0.0415759 -3.09475e-10
2.02663e-07 -3.09475e-10 0.0357279

0.0357884 -0.00251876 -1.25451e-07
-0.00251876 0.0295504 -1.04347e-07
-1.25451e-07 -1.04347e-07 0.0332582

0.0332971 -0.00203959 -7.42125e-08
-0.00203959 0.0266529 -4.09956e-08
-7.42125e-08 -4.09956e-08 0.0286756

0.0252525 0.00151083 5.29642e-09
0.00151083 0.0322746 -7.61374e-08
5.29642e-09 -7.61374e-08 0.0259502

0.026805 -0.00334474 -1.32425e-07
-0.00334474 0.0300095 -9.80927e-08
-1.32425e-07 -9.80927e-08 0.0251875

0.0364779 -0.00336037 2.03114e-07
-0.00336037 0.0352878 -7.08955e-08
2.03114e-07 -7.08955e-08 0.0347425

0.0284758 0.00415224 -1.43802e-07
0.00415224 0.0277161 1.20915e-07
-1.43802e-07 1.20915e-07 0.0254679

0.0372441 -0.00334557 -1.24559e-08
-0.00334557 0.0333225 4.33328e-08
-1.24559e-08 4.33328e-08 0.0346119

0.0322062 0.000337896 -3.6247e-08
0.000337896 0.0248628 8.94595e-08
-3.6247e-08 8.94595e-08 0.0254377

0.0191611 -0.00368911 -4.72467e-08
-0.00368911 0.0275263 -3.38814e-07
-4.72467e-08 -3.38814e-07 0.0163109

0.0292099 -0.00380349 1.65521e-07
-0.00380349 0.0281927 6.22972e-08
1.65521e-07 6.22972e-08 0.0258079

0.0230459 0.00412743 8.51312e-08
0.00412743 0.0280202 -2.45105e-07
8.51312e-08 -2.45105e-07 0.0175922

0.0296911 -0.0015594 1.39115e-07
-0.0015594 0.0375338 1.07651e-07
1.39115e-07 1.07651e-07 0.0336487

0.0243602 -0.00179359 -1.188e-09
-0.00179359 0.0318728 2.30336e-08
-1.188e-09 2.30336e-08 0.025448

0.0424367 -0.00323417 4.14988e-07
-0.00323417 0.0423769 3.02684e-08
4.14988e-07 3.02684e-08 0.0363754

0.0263368 0.00309092 7.64465e-08
0.00309092 0.0307017 8.39628e-08
7.64465e-08 8.39628e-08 0.0254779

0.0334768 -0.00432352 1.4696e-08
-0.00432352 0.0326596 -2.4908e-08
1.4696e-08 -2.4908e-08 0.0335665

0.0240807 -0.00155072 -1.1666e-07
-0.00155072 0.0318871 2.41858e-07
-1.1666e-07 2.41858e-07 0.0251768

0.0362222 -0.00253869 5.16655e-08
-0.00253869 0.0295111 -2.41823e-08
5.16655e-08 -2.41823e-08 0.0335194

0.0266735 0.00310457 7.2739e-08
0.00310457 0.0303946 -6.78517e-08
7.2739e-08 -6.78517e-08 0.0253132

0.0343429 -0.00065402 4.9549e-08
-0.00065402 0.0272768 -2.01831e-08
4.9549e-08 -2.01831e-08 0.0305777

0.0188905 -0.00387149 -1.2837e-07
-0.00387149 0.0298017 -1.50528e-07
-1.2837e-07 -1.50528e-07 0.0129612

0.0279991 0.00275453 1.12959e-07
0.00275453 0.0326293 -4.43536e-08
1.12959e-07 -4.43536e-08 0.0305735

0.0314373 -0.00251232 8.69275e-08
-0.00251232 0.0247222 -3.67926e-08
8.69275e-08 -3.67926e-08 0.0254058

0.0391182 -0.0028694 7.37052e-08
-0.0028694 0.0322214 4.33704e-08
7.37052e-08 4.33704e-08 0.0349367

0.028753 0.00412393 -6.187e-08
0.00412393 0.0272999 -8.41061e-08
-6.187e-08 -8.41061e-08 0.0252553

0.0313612 -0.00391915 2.00618e-08
-0.00391915 0.0285417 1.31918e-07
2.00618e-08 1.31918e-07 0.0287308

0.0354074 0.00276389 -1.05751e-07
0.00276389 0.0308556 -3.80665e-08
-1.05751e-07 -3.80665e-08 0.0330389

0.0297724 -0.00370345 -6.12272e-08
-0.00370345 0.0329373 2.93869e-09
-6.12272e-08 2.93869e-09 0.033342

0.0270549 -0.0034103 -1.72941e-07
-0.0034103 0.0299822 2.0683e-07
-1.72941e-07 2.0683e-07 0.0253971

0.0284405 0.00377112 -6.51148e-08
0.00377112 0.0289393 2.79976e-09
-6.51148e-08 2.79976e-09 0.0258869

0.0313709 0.00341339 1.25173e-08
0.00341339 0.0268989 -1.55038e-07
1.25173e-08 -1.55038e-07 0.0269656

0.0365354 -0.00194395 4.14542e-08
-0.00194395 0.0306248 -4.5867e-08
4.14542e-08 -4.5867e-08 0.0336353

0.0255333 -0.00216311 -7.83829e-08
-0.00216311 0.0318015 1.64805e-08
-7.83829e-08 1.64805e-08 0.0258533

0.0346995 -0.00231408 -2.45379e-09
-0.00231408 0.0283338 5.43868e-08
-2.45379e-09 5.43868e-08 0.0314554

0.0341852 0.00222314 -3.28828e-08
0.00222314 0.0274314 -1.89372e-07
-3.28828e-08 -1.89372e-07 0.0306033

0.0336446 -0.00124606 -3.91892e-08
-0.00124606 0.0392993 -1.23479e-07
-3.91892e-08 -1.23479e-07 0.0349269

0.0320715 -0.00174668 4.49202e-08
-0.00174668 0.02533 -1.17278e-07
4.49202e-08 -1.17278e-07 0.0258707

0.0250014 7.96642e-05 -3.47773e-08
7.96642e-05 0.0331505 -4.36933e-08
-3.47773e-08 -4.36933e-08 0.0268607

0.0332465 0.0024286 -7.53098e-08
0.0024286 0.0271931 -3.27286e-08
-7.53098e-08 -3.27286e-08 0.0289216

0.031117 0.00359863 3.10943e-08
0.00359863 0.0272921 1.09404e-07
3.10943e-08 1.09404e-07 0.0271221

0.025295 -0.00204097 1.03295e-07
-0.00204097 0.0318638 2.47029e-07
1.03295e-07 2.47029e-07 0.0256106

0.0252006 -0.000154722 4.3254e-09
-0.000154722 0.0332913 9.35644e-09
4.3254e-09 9.35644e-09 0.0271435

0.0354125 0.00385829 -2.23199e-07
0.00385829 0.032995 -2.7452e-08
-2.23199e-07 -2.7452e-08 0.0338949

0.0275852 -0.00143106 -2.53678e-08
-0.00143106 0.0353413 -9.29879e-08
-2.53678e-08 -9.29879e-08 0.0314414

0.0312333 -0.0034837 1.15599e-07
-0.0034837 0.026977 1.35445e-07
1.15599e-07 1.35445e-07 0.0270092

0.0312958 0.00277248 1.42182e-07
0.00277248 0.0249216 6.75991e-08
1.42182e-07 6.75991e-08 0.0252457

0.0345819 0.00311851 1.40327e-07
0.00311851 0.0293862 1.30808e-07
1.40327e-07 1.30808e-07 0.0317952

0.0279907 0.000716474 3.64539e-08
0.000716474 0.0360389 3.44861e-08
3.64539e-08 3.44861e-08 0.0318176

0.0287159 0.00378125 -1.23968e-07
0.00378125 0.0285585 2.03272e-08
-1.23968e-07 2.03272e-08 0.0257273

0.0367899 0.00305733 1.446e-07
0.00305733 0.036125 -1.24993e-07
1.446e-07 -1.24993e-07 0.0349065

0.0226797 -0.00754521 -2.54117e-07
-0.00754521 0.0186874 6.05846e-08
-2.54117e-07 6.05846e-08 0.0108449

0.0332906 -0.0032873 -5.66984e-08
-0.0032873 0.0286318 1.25842e-07
-5.66984e-08 1.25842e-07 0.0301234

0.0207264 0.000913231 -1.07049e-07
0.000913231 0.0300306 -1.62126e-07
-1.07049e-07 -1.62126e-07 0.018346

0.0312996 -0.00378159 3.85831e-08
-0.00378159 0.0292306 1.65064e-07
3.85831e-08 1.65064e-07 0.0290309

0.00153954 -0.00651868 4.17039e-08
-0.00651868 0.0275679 -1.82717e-07
4.17039e-08 -1.82717e-07 0.00290825

0.00146993 0.00636824 -3.25272e-08
0.00636824 0.0275858 -1.42511e-07
-3.25272e-08 -1.42511e-07 0.00300124

0.0119844 0.0145047 8.2785e-08
0.0145047 0.0175322 1.03809e-07
8.2785e-08 1.03809e-07 0.00277117

0.0121658 -0.0144954 7.55449e-08
-0.0144954 0.0172236 -9.47304e-08
7.55449e-08 -9.47304e-08 0.00280378

0.0293402 -0.000164086 1.30304e-07
-0.000164086 0 0
1.30304e-07 0 0.00295259

0.0235919 -0.0112825 -3.51027e-08
-0.0112825 0.00539541 1.69046e-08
-3.51027e-08 1.69046e-08 0.00297829

0.0236337 0.0113487 1.64424e-07
0.0113487 0.00544946 7.91822e-08
1.64424e-07 7.91822e-08 0.00303941

0.0369109 0.00191139 1.12739e-07
0.00191139 0.0302418 2.46929e-08
1.12739e-07 2.46929e-08 0.0338773

0.0387049 0.00340976 4.78241e-08
0.00340976 0.0366174 -6.43194e-08
4.78241e-08 -6.43194e-08 0.035578

0.0344152 0.000872424 7.77113e-08
0.000872424 0.0274564 3.78715e-08
7.77113e-08 3.78715e-08 0.0316874

0.0328723 0.00285023 -7.17744e-09
0.00285023 0.0268888 -1.5546e-07
-7.17744e-09 -1.5546e-07 0.0286459

0.0257003 0.00231322 5.53808e-08
0.00231322 0.0323661 7.64477e-08
5.53808e-08 7.64477e-08 0.0276351

0.0307122 0.003769 1.80988e-08
0.003769 0.0276756 1.28651e-07
1.80988e-08 1.28651e-07 0.0271173

0.0333051 -0.00390325 -7.77555e-08
-0.00390325 0.0304654 -1.98711e-08
-7.77555e-08 -1.98711e-08 0.0316295

0.030973 0.00365438 -2.78865e-08
0.00365438 0.0272866 -8.37715e-08
-2.78865e-08 -8.37715e-08 0.0269249

0.0249868 -0.000371442 -2.73231e-07
-0.000371442 0.0331216 -5.13402e-08
-2.73231e-07 -5.13402e-08 0.0268429

0.0385475 -0.00348451 1.49784e-07
-0.00348451 0.0368804 -3.81177e-08
1.49784e-07 -3.81177e-08 0.0355837

0.0251752 -0.00063553 -8.45823e-09
-0.00063553 0.0332099 8.27166e-09
-8.45823e-09 8.27166e-09 0.0271024

0.0360177 0.00304741 -1.96289e-07
0.00304741 0.0330106 -9.94305e-08
-1.96289e-07 -9.94305e-08 0.0340977

0.0296225 0.0034756 4.37814e-10
0.0034756 0.024846 7.5619e-08
4.37814e-10 7.5619e-08 0.0230225

0.0304958 -0.00171388 -1.60549e-07
-0.00171388 0.0375123 6.22042e-08
-1.60549e-07 6.22042e-08 0.0347363

0.0339198 0.00180447 1.15081e-07
0.00180447 0.0271813 -3.09784e-08
1.15081e-07 -3.09784e-08 0.0303202

0.0312009 -0.00392034 9.21228e-08
-0.00392034 0.0285307 1.7527e-07
9.21228e-08 1.7527e-07 0.0286142

0.0315832 -0.00322131 5.4479e-08
-0.00322131 0.0266914 1.78484e-08
5.4479e-08 1.78484e-08 0.0270474

0.0384794 -0.00214155 2.91405e-08
-0.00214155 0.0334171 1.2276e-07
2.91405e-08 1.2276e-07 0.0347447

0.0326811 0.003664 -5.25002e-08
0.003664 0.0292319 1.68528e-07
-5.25002e-08 1.68528e-07 0.0301547

0.0326446 0.00313741 -8.37992e-08
0.00313741 0.0272521 1.04908e-07
-8.37992e-08 1.04908e-07 0.0287878

0.026955 -0.000365327 -1.40396e-07
-0.000365327 0.0349867 -2.93028e-08
-1.40396e-07 -2.93028e-08 0.0301678

0.0258995 0.000765681 -6.61492e-08
0.000765681 0.0340032 -1.4309e-07
-6.61492e-08 -1.4309e-07 0.0288228

0.0327779 0.000345389 4.61751e-09
0.000345389 0.0248616 9.2119e-08
4.61751e-09 9.2119e-08 0.0274436

0.0313873 -0.000944836 -1.26078e-07
-0.000944836 0.0230038 2.17429e-07
-1.26078e-07 2.17429e-07 0.023892

0.0308804 0.00398512 1.38483e-07
0.00398512 0.0288059 2.20437e-07
1.38483e-07 2.20437e-07 0.028624

0.033118 -0.00343153 -4.7773e-09
-0.00343153 0.0285402 1.7453e-07
-4.7773e-09 1.7453e-07 0.0299691

0.0364127 -0.00282366 1.54344e-07
-0.00282366 0.0327328 6.86533e-09
1.54344e-07 6.86533e-09 0.034144

0.0292061 -0.00412763 9.61176e-08
-0.00412763 0.0291923 1.68921e-07
9.61176e-08 1.68921e-07 0.0277537

0.0269719 -0.00362036 -1.79788e-07
-0.00362036 0.0304645 -1.95674e-08
-1.79788e-07 -1.95674e-08 0.0272133

0.0283262 0.0038995 -1.60816e-07
0.0038995 0.0299009 -1.87128e-07
-1.60816e-07 -1.87128e-07 0.0277518

0.0259012 -0.0012489 -2.57439e-07
-0.0012489 0.0336133 -7.70339e-08
-2.57439e-07 -7.70339e-08 0.0285158

0.0266544 -0.000201878 -1.85563e-07
-0.000201878 0.034913 5.6067e-08
-1.85563e-07 5.6067e-08 0.0299197

0.0277623 0.000752906 -1.10668e-07
0.000752906 0.0360384 3.55944e-08
-1.10668e-07 3.55944e-08 0.0316581

0.0262471 -0.00274934 2.34908e-08
-0.00274934 0.0319628 -1.35603e-07
2.34908e-08 -1.35603e-07 0.0277105

0.0345826 0.00317575 1.1494e-07
0.00317575 0.0291682 1.78563e-07
1.1494e-07 1.78563e-07 0.0316342

0.0339093 -0.00126087 5.08332e-08
-0.00126087 0.0269301 -1.69529e-08
5.08332e-08 -1.69529e-08 0.0302016

0.0257902 0.000974284 9.10628e-08
0.000974284 0.0338295 1.81131e-07
9.10628e-08 1.81131e-07 0.0285418

0.0278239 -0.00126978 -8.27846e-08
-0.00126978 0.0353972 -1.04701e-07
-8.27846e-08 -1.04701e-07 0.0313658

0.0272929 -0.00213728 1.382e-08
-0.00213728 0.0336569 -8.96003e-09
1.382e-08 -8.96003e-09 0.0302255

0.0327766 -0.00107719 1.25407e-07
-0.00107719 0.0253198 -2.25061e-07
1.25407e-07 -2.25061e-07 0.0272542

0.0333152 -0.00427079 1.64074e-07
-0.00427079 0.0323803 -1.28067e-07
1.64074e-07 -1.28067e-07 0.0335291

0.0264885 0.00121961 -7.85186e-09
0.00121961 0.0338356 1.79934e-07
-7.85186e-09 1.79934e-07 0.0288159

0.0398112 -0.00243174 -2.77399e-07
-0.00243174 0.0352184 -5.40469e-08
-2.77399e-07 -5.40469e-08 0.035461

0.0188887 0.00316458 -5.34187e-08
0.00316458 0.0278756 -2.57844e-07
-5.34187e-08 -2.57844e-07 0.0162727

0.0338155 -0.00352265 8.44619e-08
-0.00352265 0.0334945 -2.54958e-07
8.44619e-08 -2.54958e-07 0.033726

0.0353439 -0.00399955 3.94565e-08
-0.00399955 0.0330465 1.23799e-07
3.94565e-08 1.23799e-07 0.0339038

0.0266857 -9.0519e-05 1.62957e-07
-9.0519e-05 0.0349181 6.40611e-08
1.62957e-07 6.40611e-08 0.0299278

0.0332428 -0.00217666 -1.25509e-07
-0.00217666 0.0271529 -1.79538e-07
-1.25509e-07 -1.79538e-07 0.0289025

0.0293473 0.00168457 -1.18573e-08
0.00168457 0.0358197 -3.95768e-08
-1.18573e-08 -3.95768e-08 0.0328796

0.0132074 -0.000379137 -2.71805e-07
-0.000379137 0.0283621 -1.12634e-07
-2.71805e-07 -1.12634e-07 0.0111518

0.0271135 0.00186827 -1.05434e-07
0.00186827 0.0340613 -3.64884e-09
-1.05434e-07 -3.64884e-09 0.030306

0.031109 -0.00385839 4.41068e-08
-0.00385839 0.0291538 7.84603e-08
4.41068e-08 7.84603e-08 0.0288063

0.0186197 0.00320458 8.24058e-09
0.00320458 0.0301394 -8.75726e-08
8.24058e-09 -8.75726e-08 0.0131268

0.0426002 0.00351784 1.78748e-07
0.00351784 0.0418486 2.59041e-07
1.78748e-07 2.59041e-07 0.0364802

0.043206 -0.003749 8.07381e-08
-0.003749 0.0414175 -1.09268e-07
8.07381e-08 -1.09268e-07 0.0364627

0.0310649 -0.00399071 1.59883e-07
-0.00399071 0.0304709 -2.5606e-08
1.59883e-07 -2.5606e-08 0.0304608

0.0289215 -0.00406396 -1.97441e-09
-0.00406396 0.0291502 7.79494e-08
-1.97441e-09 7.79494e-08 0.0275942

0.0330505 0.00272697 9.3472e-08
0.00272697 0.0275282 -1.78052e-07
9.3472e-08 -1.78052e-07 0.0290752

0.0327792 0.00196014 8.6805e-08
0.00196014 0.0255909 -1.90337e-07
8.6805e-08 -1.90337e-07 0.0278225

0.0464016 0.000418534 -6.07206e-07
0.000418534 0.046356 3.61255e-07
-6.07206e-07 3.61255e-07 0.0366944

0.0469203 -0.000951746 -3.61492e-07
-0.000951746 0.0457693 1.0112e-07
-3.61492e-07 1.0112e-07 0.0367655

0.0347994 0.000638525 -3.95578e-08
0.000638525 0.0275727 1.39845e-07
-3.95578e-08 1.39845e-07 0.0322163

0.0277515 0.000882193 -9.94528e-08
0.000882193 0.03557 -1.40021e-08
-9.94528e-08 -1.40021e-08 0.0313483

0.0276074 0.000882712 1.20749e-07
0.000882712 0.0355702 -7.71061e-09
1.20749e-07 -7.71061e-09 0.0312445

0.023459 0.00739994 3.14683e-07
0.00739994 0.0183018 -1.0331e-07
3.14683e-07 -1.0331e-07 0.0109014

0.0272468 -0.00367556 -3.24778e-08
-0.00367556 0.0303468 -2.09405e-09
-3.24778e-08 -2.09405e-09 0.0273191

0.036567 0.00239161 8.05106e-08
0.00239161 0.0295758 6.59159e-08
8.05106e-08 6.59159e-08 0.0337841

0.0332734 0.0012475 -2.84763e-08
0.0012475 0.0265037 3.14259e-08
-2.84763e-08 3.14259e-08 0.0284314

0.0291519 -0.00349229 -4.94e-08
-0.00349229 0.0304707 -8.72113e-09
-4.94e-08 -8.72113e-09 0.028173

0.0328111 -0.00264763 1.26425e-09
-0.00264763 0.0267276 1.6131e-08
1.26425e-09 1.6131e-08 0.0285863

0.0224598 0.00761267 -3.32077e-08
0.00761267 0.0185902 2.82262e-07
-3.32077e-08 2.82262e-07 0.0109039

0.0331447 0.00410228 1.0209e-07
0.00410228 0.0326377 -1.87686e-07
1.0209e-07 -1.87686e-07 0.0331813

0.0258899 -0.00257822 1.61765e-07
-0.00257822 0.0320239 1.51754e-07
1.61765e-07 1.51754e-07 0.0275071

0.0324822 0.00378577 -5.67459e-10
0.00378577 0.0292678 9.80316e-08
-5.67459e-10 9.80316e-08 0.0301465

0.0268156 -0.000543691 1.44292e-07
-0.000543691 0.0349517 -2.0243e-10
1.44292e-07 -2.0243e-10 0.0301375

0.0269898 0.00256338 -2.00996e-07
0.00256338 0.0324477 -7.56256e-08
-2.00996e-07 -7.56256e-08 0.028286

0.0305256 0.00399105 2.89649e-09
0.00399105 0.0293229 9.82268e-08
2.89649e-09 9.82268e-08 0.0287746

0.0276082 -0.0029373 -1.06975e-07
-0.0029373 0.0318533 -1.58819e-07
-1.06975e-07 -1.58819e-07 0.0282486

0.0294557 -0.00357574 -2.62606e-09
-0.00357574 0.0303505 -1.69319e-10
-2.62606e-09 -1.69319e-10 0.0283045

0.0181375 0.0014254 -4.41026e-08
0.0014254 0.028036 7.27829e-08
-4.41026e-08 7.27829e-08 0.0131274

0.0234735 -0.00429382 2.03401e-07
-0.00429382 0.0275559 -3.4608e-07
2.03401e-07 -3.4608e-07 0.0177231

0.026205 -0.00152598 8.65515e-08
-0.00152598 0.0336234 -1.29789e-07
8.65515e-08 -1.29789e-07 0.0287514

0.033023 0.00347477 2.13984e-08
0.00347477 0.0288774 2.30738e-07
2.13984e-08 2.30738e-07 0.0300684

0.030321 0.00385746 2.32114e-07
0.00385746 0.0298862 -1.60807e-07
2.32114e-07 -1.60807e-07 0.0289898

0.0274139 -0.00280055 -1.0043e-07
-0.00280055 0.0319836 1.32798e-07
-1.0043e-07 1.32798e-07 0.0281386

0.0265542 -0.00154087 4.76868e-08
-0.00154087 0.0335817 -6.14397e-08
4.76868e-08 -6.14397e-08 0.0287458

0.030956 0.00371816 1.81272e-07
0.00371816 0.0295627 1.3657e-07
1.81272e-07 1.3657e-07 0.0289407

0.026759 -0.00181581 2.01205e-08
-0.00181581 0.0334739 -1.44038e-07
2.01205e-08 -1.44038e-07 0.0289538

0.0191657 0.00355451 1.17736e-07
0.00355451 0.0276073 2.53425e-07
1.17736e-07 2.53425e-07 0.0162919

0.030873 -0.000534639 -2.38403e-07
-0.000534639 0.0388185 -1.71884e-07
-2.38403e-07 -1.71884e-07 0.0342939

0.028656 0.00404769 -3.30231e-08
0.00404769 0.0295178 1.60341e-07
-3.30231e-08 1.60341e-07 0.0277141

0.0355797 0.00197522 -2.11393e-07
0.00197522 0.0295027 1.49279e-07
-2.11393e-07 1.49279e-07 0.0328421

0.0362588 -0.00211466 9.33216e-08
-0.00211466 0.0297548 2.04061e-07
9.33216e-08 2.04061e-07 0.0332173

0.0285103 -0.00309571 2.4555e-08
-0.00309571 0.0185687 2.29553e-07
2.4555e-08 2.29553e-07 0.0157296

0.0283528 -0.00279032 -1.96105e-07
-0.00279032 0.0327747 -3.17545e-08
-1.96105e-07 -3.17545e-08 0.0305711

0.0291906 0.00350077 -2.73303e-07
0.00350077 0.031599 1.84026e-07
-2.73303e-07 1.84026e-07 0.0304869

0.0349593 -0.00290749 1.8756e-07
-0.00290749 0.0376747 2.23022e-07
1.8756e-07 2.23022e-07 0.0352356

0.0394599 0.00188518 -9.27325e-08
0.00188518 0.0446079 -2.55003e-07
-9.27325e-08 -2.55003e-07 0.0364324

0.0449431 0.00129034 -1.27939e-07
0.00129034 0.039116 3.41325e-08
-1.27939e-07 3.41325e-08 0.0364144

0.0355597 0.00434526 7.55727e-09
0.00434526 0.035134 4.84463e-08
7.55727e-09 4.84463e-08 0.0350028

0.0265715 0.00338788 -1.23394e-07
0.00338788 0.031006 -2.79387e-07
-1.23394e-07 -2.79387e-07 0.0272553

0.0330386 0.00349704 9.94635e-08
0.00349704 0.0286664 3.44617e-08
9.94635e-08 3.44617e-08 0.0300495

0.0220595 0.00576406 1.92835e-07
0.00576406 0.024237 -2.71459e-07
1.92835e-07 -2.71459e-07 0.0160721

0.0386178 -0.00151227 -5.6051e-08
-0.00151227 0.0444325 3.33354e-09
-5.6051e-08 3.33354e-09 0.0363616

0.0460479 -0.000463511 3.99079e-07
-0.000463511 0.0454374 -4.47349e-07
3.99079e-07 -4.47349e-07 0.0366906

0.0451791 -3.19451e-05 -6.24873e-08
-3.19451e-05 0.046301 -3.96447e-07
-6.24873e-08 -3.96447e-07 0.0366725

0.0176407 -0.0067947 1.04319e-07
-0.0067947 0.023108 3.14618e-07
1.04319e-07 3.14618e-07 0.0107383

0.0392916 -0.00155581 -1.09235e-07
-0.00155581 0.038714 -1.47145e-07
-1.09235e-07 -1.47145e-07 0.0358531

0.0383963 0.00117664 1.81947e-07
0.00117664 0.0415173 -2.36674e-08
1.81947e-07 -2.36674e-08 0.0361245

0.0331749 -0.00343549 -4.52381e-08
-0.00343549 0.0282192 8.11392e-08
-4.52381e-08 8.11392e-08 0.0299029

0.0318441 0.000140309 -1.25978e-07
0.000140309 0.0386713 -1.83339e-07
-1.25978e-07 -1.83339e-07 0.0344499

0.0285763 -0.00266008 2.36318e-08
-0.00266008 0.0333802 -2.71684e-09
2.36318e-08 -2.71684e-09 0.0315888

0.0356614 0.000831769 -1.98409e-07
0.000831769 0.0273771 2.07216e-08
-1.98409e-07 2.07216e-08 0.0329996

0.0288756 0.00204424 6.85228e-09
0.00204424 0.0368157 -1.73062e-07
6.85228e-09 -1.73062e-07 0.0336691

0.0298689 0.000946441 -2.24453e-07
0.000946441 0.037388 -2.03917e-07
-2.24453e-07 -2.03917e-07 0.033363

0.0344014 0.00268497 5.26473e-08
0.00268497 0.028851 4.04709e-08
5.26473e-08 4.04709e-08 0.0312258

0.013279 -0.000409409 3.7387e-07
-0.000409409 0.0281225 5.64346e-08
3.7387e-07 5.64346e-08 0.0112012

0.0309644 -0.00362614 1.17606e-07
-0.00362614 0.0309148 -2.58402e-08
1.17606e-07 -2.58402e-08 0.0306091

0.0329278 -0.00344349 -8.84369e-08
-0.00344349 0.0320204 1.81713e-08
-8.84369e-08 1.81713e-08 0.0325788

0.0335705 -0.00415904 -2.63445e-08
-0.00415904 0.0325341 -1.83225e-07
-2.63445e-08 -1.83225e-07 0.0337352

0.0265617 0.00414854 -1.85437e-07
0.00414854 0.0176912 1.28644e-07
-1.85437e-07 1.28644e-07 0.012605

0.0388279 -0.00269643 -2.31678e-07
-0.00269643 0.039576 -1.39039e-07
-2.31678e-07 -1.39039e-07 0.0359579

0.0230826 0.00692069 3.15819e-07
0.00692069 0.0255018 -1.05488e-07
3.15819e-07 -1.05488e-07 0.0126093

0.0308742 -0.00281763 -2.06373e-07
-0.00281763 0.0348072 1.43783e-08
-2.06373e-07 1.43783e-08 0.0339558

0.0354115 0.00193636 -5.44768e-08
0.00193636 0.0284653 -1.50572e-07
-5.44768e-08 -1.50572e-07 0.0323441

0.0318209 -0.00189328 1.40349e-07
-0.00189328 0.0249504 -2.2059e-07
1.40349e-07 -2.2059e-07 0.0253951

0.0292919 0.00315909 -1.77914e-07
0.00315909 0.0327317 -9.55719e-08
-1.77914e-07 -9.55719e-08 0.0312791

0.0344365 0.002689 9.46098e-08
0.002689 0.0286341 -5.91292e-08
9.46098e-08 -5.91292e-08 0.0312204

0.0325183 0.00149913 1.85044e-09
0.00149913 0.0403736 2.93031e-07
1.85044e-09 2.93031e-07 0.0353361

0.0319401 -0.0041545 -4.72223e-08
-0.0041545 0.0312007 6.11469e-08
-4.72223e-08 6.11469e-08 0.0318102

0.0396756 0.0026555 -2.16232e-08
0.0026555 0.0331976 4.37191e-08
-2.16232e-08 4.37191e-08 0.0353155

0.0279709 -0.00241826 2.74497e-08
-0.00241826 0.0335507 -6.80138e-09
2.74497e-08 -6.80138e-09 0.0304701

0.0293505 0.000558535 9.57713e-08
0.000558535 0.0373117 -1.69998e-07
9.57713e-08 -1.69998e-07 0.0332522

0.0419426 0.00133747 -4.76999e-08
0.00133747 0.0371 -5.1974e-08
-4.76999e-08 -5.1974e-08 0.0361158

0.0420973 -0.00114803 2.27364e-08
-0.00114803 0.0373258 -5.12862e-08
2.27364e-08 -5.12862e-08 0.0360977

0.028383 0.002369 -4.91664e-08
0.002369 0.0181813 1.08657e-07
-4.91664e-08 1.08657e-07 0.0159496

0.0350256 0.00106113 -1.03412e-07
0.00106113 0.0285657 -1.47903e-07
-1.03412e-07 -1.47903e-07 0.0330586

0.0128668 0.000923332 3.64152e-07
0.000923332 0.0316262 1.15765e-07
3.64152e-07 1.15765e-07 0.00612166

0.0131624 -0.00138813 -2.6666e-07
-0.00138813 0.032132 6.52728e-08
-2.6666e-07 6.52728e-08 0.00611198

0.0152687 0.00715421 5.87594e-08
0.00715421 0.0284528 1.90023e-07
5.87594e-08 1.90023e-07 0.00598413

0.0347637 -0.00382116 -1.42905e-07
-0.00382116 0.0312676 1.72409e-07
-1.42905e-07 1.72409e-07 0.0329387

0.0155807 -0.00619431 -5.00893e-08
-0.00619431 0.0261527 -3.99825e-08
-5.00893e-08 -3.99825e-08 0.0104718

0.0155128 -0.00708673 1.67075e-07
-0.00708673 0.0274234 2.31318e-07
1.67075e-07 2.31318e-07 0.0059139

0.0284257 0.0034257 -9.3047e-08
0.0034257 0.0310062 -2.79508e-07
-9.3047e-08 -2.79508e-07 0.0281524

0.0251932 0.00932585 -1.51962e-07
0.00932585 0.0190207 1.48669e-07
-1.51962e-07 1.48669e-07 0.0059338

0.0365377 0.0017318 -2.92825e-07
0.0017318 0.0385514 7.68708e-08
-2.92825e-07 7.68708e-08 0.0354748

0.0395347 2.52348e-05 -2.10061e-07
2.52348e-05 0.0355391 1.26621e-07
-2.10061e-07 1.26621e-07 0.0354554

0.0261071 -0.00924438 -6.00855e-08
-0.00924438 0.0188124 -1.23497e-07
-6.00855e-08 -1.23497e-07 0.00588797

0.0276894 -0.00306493 6.86054e-09
-0.00306493 0.0320944 -4.73966e-08
6.86054e-09 -4.73966e-08 0.0296225

0.0262549 0.00441814 -1.73202e-07
0.00441814 0.020158 8.13212e-08
-1.73202e-07 8.13212e-08 0.0130445

0.0172791 0.00797303 3.68391e-08
0.00797303 0.0271488 -1.22351e-07
3.68391e-08 -1.22351e-07 0.00598781

0.0181961 0.00275519 2.74448e-09
0.00275519 0.0275895 6.49298e-08
2.74448e-09 6.49298e-08 0.01285

0.017304 -0.00827624 1.28179e-08
-0.00827624 0.0271523 -1.74297e-07
1.28179e-08 -1.74297e-07 0.00581369

0.0179328 -0.0015709 2.10617e-08
-0.0015709 0.0280052 2.49226e-07
2.10617e-08 2.49226e-07 0.0126904

0.0370499 0.000923217 -6.41269e-08
0.000923217 0.0413003 2.11428e-08
-6.41269e-08 2.11428e-08 0.0358096

0.022131 -0.00585512 -9.05701e-08
-0.00585512 0.0236646 -4.68579e-07
-9.05701e-08 -4.68579e-07 0.0151587

0.0157 0.00598616 6.15648e-08
0.00598616 0.0259023 -7.01606e-08
6.15648e-08 -7.01606e-08 0.0107501

0.0302084 0.00473007 8.42911e-09
0.00473007 0.0143492 -2.11803e-07
8.42911e-09 -2.11803e-07 0.0061158

0.0329381 -0.00384942 1.03805e-07
-0.00384942 0.0301239 -3.14697e-08
1.03805e-07 -3.14697e-08 0.0310509

0.0308884 0.0016938 9.182e-08
0.0016938 0.0368422 -1.76773e-07
9.182e-08 -1.76773e-07 0.0339498

0.0260897 -0.00484386 1.40436e-07
-0.00484386 0.019197 2.29965e-07
1.40436e-07 2.29965e-07 0.0126949

0.0330004 -0.00378591 1.09375e-07
-0.00378591 0.0300747 -1.82837e-08
1.09375e-07 -1.82837e-08 0.0311272

0.0300187 -0.00451985 3.7497e-08
-0.00451985 0.0130535 1.61438e-07
3.7497e-08 1.61438e-07 0.00603724

0.032473 -0.00372742 9.93748e-09
-0.00372742 0.031307 1.45016e-07
9.93748e-09 1.45016e-07 0.031979

0.0280905 -0.00331135 -1.9839e-07
-0.00331135 0.0320035 -3.90774e-08
-1.9839e-07 -3.90774e-08 0.029625

0.0234433 0.00874357 1.54564e-07
0.00874357 0.0204828 -2.30943e-07
1.54564e-07 -2.30943e-07 0.0060261

0.0181996 -0.00292073 8.12739e-08
-0.00292073 0.0268661 2.73554e-07
8.12739e-08 2.73554e-07 0.0122698

0.0233145 -0.00901916 -2.33668e-08
-0.00901916 0.020152 -2.09143e-07
-2.33668e-08 -2.09143e-07 0.00588393

0.0170823 0.00640818 -6.03991e-08
0.00640818 0.0235658 3.79368e-08
-6.03991e-08 3.79368e-08 0.010831

0.030826 -0.00396031 1.15352e-07
-0.00396031 0.0301601 -3.24725e-08
1.15352e-07 -3.24725e-08 0.0300852

0.0389176 -0.00195885 5.4102e-08
-0.00195885 0.0369404 2.63034e-07
5.4102e-08 2.63034e-07 0.0354991

0.045541 0.00150725 -2.41798e-07
0.00150725 0.0449528 -4.01485e-07
-2.41798e-07 -4.01485e-07 0.0366187

0.0435642 -0.00071153 2.83157e-07
-0.00071153 0.0462302 -4.4335e-08
2.83157e-07 -4.4335e-08 0.0365844

0.0286151 0.00171581 -4.36244e-08
0.00171581 0.0355659 9.4082e-08
-4.36244e-08 9.4082e-08 0.0323892

0.0453362 -0.00144835 -4.90303e-07
-0.00144835 0.0449806 3.47967e-07
-4.90303e-07 3.47967e-07 0.0366365

0.0438073 0.000567794 8.18934e-08
0.000567794 0.0465063 1.99525e-07
8.18934e-08 1.99525e-07 0.0366176

0.04668 0.000991677 -5.96322e-08
0.000991677 0.0433774 -2.9728e-08
-5.96322e-08 -2.9728e-08 0.0365926

0.0397502 -0.00163911 1.4743e-07
-0.00163911 0.0460735 8.21224e-08
1.4743e-07 8.21224e-08 0.0364824

0.0190538 -0.00388724 8.82652e-08
-0.00388724 0.0272302 2.60557e-07
8.82652e-08 2.60557e-07 0.0154709

0.0421403 -0.00175011 3.4686e-07
-0.00175011 0.0367251 2.04103e-07
3.4686e-07 2.04103e-07 0.0360044

0.0359638 -0.00457326 3.03119e-07
-0.00457326 0.0351502 -2.33932e-07
3.03119e-07 -2.33932e-07 0.0349677

0.0397526 -0.00242134 1.72927e-08
-0.00242134 0.0360638 -3.14866e-07
1.72927e-08 -3.14866e-07 0.0355668

0.0351839 0.00204355 -1.17354e-07
0.00204355 0.0285487 -7.27123e-08
-1.17354e-07 -7.27123e-08 0.0322315

0.0396922 0.00133782 1.78267e-07
0.00133782 0.0472248 -5.17465e-07
1.78267e-07 -5.17465e-07 0.0365483

0.0464955 0.0025931 -1.35401e-07
0.0025931 0.0404182 -3.29891e-07
-1.35401e-07 -3.29891e-07 0.0365295

0.0400867 0.00150546 6.5352e-09
0.00150546 0.0366728 4.88802e-08
6.5352e-09 4.88802e-08 0.0356148

0.0279142 -0.00191988 -1.17616e-08
-0.00191988 0.0125245 1.67422e-07
-1.17616e-08 1.67422e-07 0.0106244

0.0283185 0.0032674 4.79392e-08
0.0032674 0.0315491 3.08195e-07
4.79392e-08 3.08195e-07 0.0294103

0.023188 -0.0077358 -4.33123e-07
-0.0077358 0.0181796 1.17662e-07
-4.33123e-07 1.17662e-07 0.0102893

0.0228306 -0.00731559 -4.9312e-07
-0.00731559 0.0257684 -9.43966e-08
-4.9312e-07 -9.43966e-08 0.0119544

0.0290222 -0.00464694 -3.79998e-08
-0.00464694 0.0191281 2.40481e-07
-3.79998e-08 2.40481e-07 0.0126149

0.037574 -0.000660644 -1.43501e-07
-0.000660644 0.0449127 2.98985e-07
-1.43501e-07 2.98985e-07 0.0362934

0.0375717 0.000358396 -2.12326e-07
0.000358396 0.04479 -3.96572e-07
-2.12326e-07 -3.96572e-07 0.0362736

0.0426052 -0.00327434 2.29248e-07
-0.00327434 0.0394495 -2.02508e-07
2.29248e-07 -2.02508e-07 0.0362275

0.0429987 -0.00294491 -1.50797e-07
-0.00294491 0.0391685 -1.26098e-07
-1.50797e-07 -1.26098e-07 0.0362344

0.0425017 0.00350401 1.55466e-07
0.00350401 0.0399717 1.7063e-08
1.55466e-07 1.7063e-08 0.0362723

0.0443985 0.000417636 -6.75931e-07
0.000417636 0.0450803 -1.22309e-06
-6.75931e-07 -1.22309e-06 0.0366356

0.0426086 -0.00274487 6.43548e-08
-0.00274487 0.0395071 1.82449e-08
6.43548e-08 1.82449e-08 0.0362891

0.0426031 -0.00251216 -7.19269e-08
-0.00251216 0.0442667 6.60297e-07
-7.19269e-08 6.60297e-07 0.0365632

0.0451167 0.000331017 7.33019e-08
0.000331017 0.0454679 3.90742e-07
7.33019e-08 3.90742e-07 0.0366539

0.0436365 -0.00278315 -7.42831e-08
-0.00278315 0.0389165 8.28716e-08
-7.42831e-08 8.28716e-08 0.0363297

0.0435121 0.00283879 4.05628e-07
0.00283879 0.039069 -7.20649e-09
4.05628e-07 -7.20649e-09 0.0363678

0.0451927 -0.000470172 6.14248e-07
-0.000470172 0.0455815 -4.0952e-07
6.14248e-07 -4.0952e-07 0.0367026

0.045227 -0.000425084 -2.06143e-07
-0.000425084 0.0443591 5.20835e-07
-2.06143e-07 5.20835e-07 0.0367209

0.042798 0.00163933 2.01706e-07
0.00163933 0.0442493 -1.61438e-07
2.01706e-07 -1.61438e-07 0.036607

0.0411164 0.00361855 9.53375e-08
0.00361855 0.0405155 1.69662e-07
9.53375e-08 1.69662e-07 0.0363216

SCALARS pressure float
LOOKUP_TABLE default
-60.0516
19.3083
5.80357
21.2902
15.8788
5.88753
-58.6748
7.78327
-3.80474
15.1246
-24.4321
7.61742
5.59222
12.2794
23.3376
5.53911
18.5209
13.2074
-0.692691
6.75676
-0.904696
33.134
5.80097
5.79703
6.60204
14.903
-38.3854
6.67188
-15.2423
30.6258
5.17646
-15.6571
-42.0565
27.3259
20.7789
27.3588
31.884
19.8088
4.85975
-42.5997
-17.4073
31.9049
31.993
5.99369
-21.805
-15.9758
-1.05229
-3.40536
6.54498
-16.2177
-18.9187
-15.3458
20.7555
-15.373
20.3087
-33.1488
21.1294
-15.4602
21.1392
7.0451
21.7648
16.1188
-45.5622
12.7898
16.3621
10.9052
21.5741
13.8283
5.77366
21.8171
20.8116
20.7822
-17.6909
11.6007
3.97409
-31.6098
14.3567
10.9963
14.1463
-8.7199
-28.9448
14.9776
20.1632
-22.0379
-23.4294
-28.092
7.09795
9.63249
-22.2158
37.7408
-15.5089
38.4434
18.3045
10.7616
-15.1664
-15.8727
-30.2213
14.7535
14.3657
4.59884
-10.7662
-21.9395
-25.1015
16.213
14.1003
14.9617
18.6976
3.77488
-24.5584
26.5131
7.21774
-21.409
-24.612
14.838
15.0781
-16.1456
20.1647
-29.1133
20.6283
-16.7292
-2.90459
23.8338
21.7272
16.033
26.6797
22.6316
21.7854
15.7085
-29.7809
-16.0989
24.0916
21.6174
20.9893
22.0658
-22.0138
23.5869
-33.8374
5.46351
21.7544
23.6302
-21.9368
6.67654
-5.96662
15.0837
-30.4075
15.624
7.83334
2.40771
5.17788
-9.3944
-0.457882
22.6416
-15.4545
5.29113
15.2043
21.5606
11.5083
-21.1132
-21.2638
10.7906
-2.84267
-15.1975
-21.2205
-15.1652
-20.9864
15.2798
-20.6358
-21.2015
-15.2078
-21.0637
19.0043
-15.9409
-14.8244
12.0645
-14.4846
18.8029
19.0534
7.47286
18.0479
11.7732
-16.249
15.2883
14.961
-21.5284
10.4266
-14.2213
16.0487
14.5956
17.0818
14.8352
10.3439
-26.9763
-16.0821
-15.9581
21.907
14.5259
14.6248
20.9227
22.487
9.50276
21.7338
-0.384603
-8.17078
20.7788
-17.8387
19.9457
10.3643
-21.5175
15.7212
22.5263
14.7312
9.39357
14.19
21.0557
-7.83282
8.82764
-7.90863
14.6483
26.9277
26.5813
27.9605
26.3886
26.7243
26.291
13.826
23.4302
24.0294
23.9736
23.3999
21.1927
21.8572
-8.26289
15.9336
28.1911
-3.18873
23.576
23.2053
27.8344
-8.49359
28.0964
15.3447
-7.58165
17.4922
-8.25785
20.2272
29.6128
-7.48603
-8.10081
-29.592
-18.189
19.5273
-31.9855
5.73431
-7.794
-1.18953
28.2492
26.6403
30.4262
26.761
-34.801
-8.1797
28.3374
8.07287
-8.29522
26.4459
-6.29536
30.4711
-7.95413
27.0471
14.566
14.7873
23.8451
10.0475
18.021
8.11705
-29.86
-24.5532
16.8068
1.75959
8.17952
-13.6088
17.4358
11.6999
-8.10156
9.45215
-10.8234
7.5169
-10.7547
-8.48479
33.2641
19.1516
25.0883
25.3126
13.8292
-10.4045
26.4297
14.685
-1.65913
-10.2739
-12.5642
17.5066
-7.48529
17.5745
-12.0412
-21.3505
-10.6083
-34.6813
15.5625
-7.76303
34.4421
-11.578
16.8714
-8.40882
15.9728
-12.7583
4.289
-51.1184
8.52162
-7.7467
21.3338
-8.15222
-0.123012
10.7153
21.1243
-12.0607
-10.2008
-6.06841
14.318
-10.1801
6.88783
6.38559
16.3054
-10.4196
-6.33052
-1.7025
-5.66061
-11.0785
-5.84484
15.3055
7.80785
-5.5562
-8.96053
7.80526
7.69411
-10.6746
16.3093
-27.2138
2.29285
-28.4813
-0.957762
-8.87901
-8.0973
-11.7799
-10.9436
-9.8819
-7.7769
-7.90027
16.6378
24.7778
12.116
-0.291858
-0.825396
-5.67478
7.305
-6.32088
-6.31817
24.9236
-5.7302
14.1179
-15.9083
24.3252
5.96794
-0.391415
-5.64406
16.275
2.47684
0.198804
2.44783
0.455677
-0.74109
-9.93037
-0.0958484
2.113
15.0689
-1.28853
-1.40741
-0.999072
-0.388838
1.96503
8.0505
-1.19381
8.07794
5.583
-0.435896
7.03505
5.49004
-3.87672
16.4766
-1.90367
23.062
-21.9734
15.0441
15.6823
2.03939
-1.99776
12.5428
-26.5063
5.79204
-1.65819
-50.4828
30.4982
30.6348
5.82467
-1.14461
-1.04708
-0.849939
33.4186
33.2933
13.0947
6.08168
6.66218
-28.9624
-1.27967
16.5334
-3.18297
-4.34838
-0.0172009
-25.271
14.3032
-1.28045
2.86153
2.69293
-2.72352
-0.0495863
-3.20976
-4.03383
-37.9823
-33.6833
-0.128293
1.8742
-0.534364
-3.74446
-1.93686
-1.87799
-0.924587
-21.9073
17.2495
-0.769574
12.5651
14.1836
-26.764
6.28604
7.13661
18.4778
36.4278
36.4603
22.6387
-1.75606
2.59938
-20.9295
36.1265
32.7599
32.8269
-24.8084
21.7754
30.5235
2.59887
15.7239
10.3711
17.1643
17.7261
12.5055
5.68115
-25.3978
4.25981
10.4092
16.2439
-31.7097
28.3098
-52.7099
18.685
10.2988
-10.6275
7.41712
5.45684
24.4745
9.41088
24.4075
4.1049
12.3997
30.6407
29.4664
-22.99
17.4354
-70.2293
-74.3758
-67.1733
11.6482
-31.2596
-63.6067
-3.80376
-69.9347
16.4631
16.4068
-73.7509
5.21191
-39.7294
-70.7353
-37.7553
-71.8717
-39.4508
21.1368
-23.9599
-29.0436
-70.6192
4.83116
15.7575
-36.1892
6.05326
-63.6144
9.83574
3.88142
-67.8978
-37.6229
-66.4073
-23.7551
5.02883
20.5262
35.3719
36.7276
11.8118
36.8515
36.9048
36.4931
36.4052
-24.4786
28.2484
20.6691
21.9807
11.5344
36.0612
36.0926
18.1201
-23.9399
3.2463
-30.5258
-56.596
-50.4731
36.1443
35.825
35.3816
35.4518
36.1603
35.5998
33.1107
37.3719
35.4012
36.0071
35.6393
34.1976
34.3342
35.8574
35.3105
