# vtk DataFile Version 3.0
vtk output at time 300
ASCII
DATASET UNSTRUCTURED_GRID
POINTS 626 float
-3.68058e-05 0.000978749 0 3.68058e-05 0.000978749 0 -0.000829194 0.00052125 0 
-0.0008235 0.0005 0 -0.000866 0.0004575 0 -0.000866 -0.0004575 0 
-0.0008235 -0.0005 0 -0.000829194 -0.00052125 0 -3.68058e-05 -0.000978749 0 
3.68058e-05 -0.000978749 0 0.000829194 -0.00052125 0 0.000866 -0.0004575 0 
0.000866 0.0004575 0 0.000829194 0.00052125 0 8.5e-05 0 0 
-3.68058e-05 0.000978749 -0.001 3.68058e-05 0.000978749 -0.001 -0.000829194 0.00052125 -0.001 
-0.0008235 0.0005 -0.001 -0.000866 0.0004575 -0.001 -0.000866 -0.0004575 -0.001 
-0.0008235 -0.0005 -0.001 -0.000829194 -0.00052125 -0.001 -3.68058e-05 -0.000978749 -0.001 
3.68058e-05 -0.000978749 -0.001 0.000829194 -0.00052125 -0.001 0.000866 -0.0004575 -0.001 
0.000866 0.0004575 -0.001 0.000829194 0.00052125 -0.001 8.5e-05 0 -0.001 
8.46223e-17 0.0009575 0 -0.000715996 0.000586607 0 -0.000602797 0.000651965 0 
-0.000489599 0.000717321 0 -0.000376401 0.000782678 0 -0.000263202 0.000848036 0 
-0.000150004 0.000913393 0 -0.000835948 0.000469948 0 -0.000866 -0.000326786 0 
-0.000866 -0.000196071 0 -0.000866 -6.53571e-05 0 -0.000866 6.53571e-05 0 
-0.000866 0.000196071 0 -0.000866 0.000326786 0 -0.000835948 -0.000469948 0 
-0.000150004 -0.000913393 0 -0.000263202 -0.000848036 0 -0.000376401 -0.000782678 0 
-0.000489599 -0.000717321 0 -0.000602797 -0.000651965 0 -0.000715996 -0.000586607 0 
8.47648e-17 -0.0009575 0 0.000715996 -0.000586607 0 0.000602797 -0.000651965 0 
0.000489599 -0.000717321 0 0.000376401 -0.000782678 0 0.000263202 -0.000848036 0 
0.000150004 -0.000913393 0 0.000829194 -0.00047875 0 0.000866 0.000326786 0 
0.000866 0.000196071 0 0.000866 6.53571e-05 0 0.000866 -6.53571e-05 0 
0.000866 -0.000196071 0 0.000866 -0.000326786 0 0.000829194 0.00047875 0 
0.000150004 0.000913393 0 0.000263202 0.000848036 0 0.000376401 0.000782678 0 
0.000489599 0.000717321 0 0.000602797 0.000651965 0 0.000715996 0.000586607 0 
5.29966e-05 6.64557e-05 0 -1.89143e-05 8.28689e-05 0 -7.65824e-05 3.68801e-05 0 
-7.65824e-05 -3.68801e-05 0 -1.89143e-05 -8.28689e-05 0 5.29966e-05 -6.64557e-05 0 
8.46223e-17 0.0009575 -0.001 -0.000715996 0.000586607 -0.001 -0.000602797 0.000651965 -0.001 
-0.000489599 0.000717321 -0.001 -0.000376401 0.000782678 -0.001 -0.000263202 0.000848036 -0.001 
-0.000150004 0.000913393 -0.001 -0.000835948 0.000469948 -0.001 -0.000866 -0.000326786 -0.001 
-0.000866 -0.000196071 -0.001 -0.000866 -6.53571e-05 -0.001 -0.000866 6.53571e-05 -0.001 
-0.000866 0.000196071 -0.001 -0.000866 0.000326786 -0.001 -0.000835948 -0.000469948 -0.001 
-0.000150004 -0.000913393 -0.001 -0.000263202 -0.000848036 -0.001 -0.000376401 -0.000782678 -0.001 
-0.000489599 -0.000717321 -0.001 -0.000602797 -0.000651965 -0.001 -0.000715996 -0.000586607 -0.001 
8.47648e-17 -0.0009575 -0.001 0.000715996 -0.000586607 -0.001 0.000602797 -0.000651965 -0.001 
0.000489599 -0.000717321 -0.001 0.000376401 -0.000782678 -0.001 0.000263202 -0.000848036 -0.001 
0.000150004 -0.000913393 -0.001 0.000829194 -0.00047875 -0.001 0.000866 0.000326786 -0.001 
0.000866 0.000196071 -0.001 0.000866 6.53571e-05 -0.001 0.000866 -6.53571e-05 -0.001 
0.000866 -0.000196071 -0.001 0.000866 -0.000326786 -0.001 0.000829194 0.00047875 -0.001 
0.000150004 0.000913393 -0.001 0.000263202 0.000848036 -0.001 0.000376401 0.000782678 -0.001 
0.000489599 0.000717321 -0.001 0.000602797 0.000651965 -0.001 0.000715996 0.000586607 -0.001 
5.29966e-05 6.64557e-05 -0.001 -1.89143e-05 8.28689e-05 -0.001 -7.65824e-05 3.68801e-05 -0.001 
-7.65824e-05 -3.68801e-05 -0.001 -1.89143e-05 -8.28689e-05 -0.001 5.29966e-05 -6.64557e-05 -0.001 
0.000131234 6.38474e-05 0 0.00012964 -6.2443e-05 0 3.13827e-05 0.0001394 0 
3.12554e-05 -0.000136939 0 -0.000140461 8.25467e-19 0 -8.90565e-05 -0.000102707 0 
-9.04142e-05 0.000102872 0 -0.000765769 -0.00025965 0 -0.000756873 0.000262774 0 
-0.00015609 0.000787505 0 -0.000155807 -0.00079355 0 0.000605069 0.000528035 0 
0.000608694 -0.00052497 0 0.000744069 0.000116929 0 -0.000494418 0.000596218 0 
-0.000483866 -0.000584648 0 0.000269496 0.000702219 0 0.000263201 -0.000717324 0 
0.000754429 -0.000127825 0 -0.000748858 5.84659e-07 0 -0.000747838 0.000373886 0 
-0.0006542 0.000324842 0 -0.000645137 0.000210123 0 -0.000550884 0.000274171 0 
-0.000538857 0.000163195 0 -0.00045062 0.000224461 0 -0.000438393 0.000123907 0 
-0.000354088 0.000181668 0 -0.000363908 0.000282171 0 -0.000270361 0.000239477 0 
-0.000279138 0.000337653 0 -0.000188888 0.000294791 0 -0.000196448 0.000393271 0 
-0.000104767 0.000348259 0 -0.000113332 0.000449012 0 -2.01066e-05 0.000403223 0 
-2.89189e-05 0.000507105 0 6.9524e-05 0.000461596 0 -0.000213644 0.000490203 0 
7.33757e-05 0.000357726 0 0.000163331 0.00041299 0 0.000163359 0.000313022 0 
0.000248077 0.000366368 0 0.000250914 0.000265758 0 0.000335709 0.000322266 0 
0.000340555 0.000218148 0 0.000427299 0.000276717 0 0.000431508 0.000173093 0 
0.000328731 0.000425633 0 0.00034586 0.000114823 0 0.000435362 7.05241e-05 0 
0.000350892 1.5455e-05 0 0.000441547 -3.11896e-05 0 0.000353547 -8.47783e-05 0 
0.000445767 -0.000132964 0 0.000356135 -0.000186358 0 0.000449094 -0.000234674 0 
0.000359978 -0.000287876 0 0.00026856 -0.000240545 0 0.000271895 -0.000341045 0 
0.000181792 -0.00029305 0 0.00018533 -0.000392851 0 9.75701e-05 -0.00034483 0 
9.98764e-05 -0.000444884 0 8.75116e-06 -0.000396343 0 1.20916e-05 -0.000500496 0 
-7.83929e-05 -0.000449843 0 -8.1471e-05 -0.000347249 0 -0.000171566 -0.000403733 0 
-0.000169889 -0.000298891 0 -0.000259867 -0.000354132 0 -0.000257696 -0.000249137 0 
-0.00034313 -0.000299896 0 -0.000344514 -0.000199127 0 -0.000434309 -0.000250039 0 
-0.000169832 -0.000505815 0 -0.000435227 -0.000146227 0 0.000280331 -0.000442424 0 
-0.000340889 8.76793e-05 0 -0.000515252 4.06198e-05 0 6.50491e-05 0.000568253 0 
0.00053278 1.74743e-05 0 0.000522071 0.000229831 0 -0.00037162 0.000391659 0 
-0.000255272 -0.000150439 0 -0.000442893 -0.000350705 0 0.000450067 -0.000332559 0 
0.000545175 -0.000276306 0 -0.000527797 -0.000197598 0 0.000105306 -0.000551033 0 
1.45836e-05 -0.000609147 0 0.00017145 0.000214453 0 0.000515525 0.000341711 0 
0.000636086 0.000290368 0 -0.000558657 0.000404468 0 -4.01232e-05 0.000616718 0 
6.60192e-05 0.000696422 0 -0.000101806 0.0002546 0 0.000271142 -3.88908e-05 0 
0.000179455 -0.00018534 0 -8.79553e-05 -0.000254307 0 -0.000749267 -0.000373451 0 
-0.000655941 -0.000323397 0 0.000709746 0.000466718 0 0.000698426 -0.000473086 0 
-5.25801e-05 -0.00084886 0 -4.93005e-05 0.000848038 0 0.000617396 -0.000413362 0 
0.000702056 -0.000369817 0 0.000131459 -0.000679171 0 2.48171e-05 -0.000715924 0 
-0.000664217 -0.00042729 0 -0.000528828 -8.80444e-05 0 -0.000611101 -0.000136672 0 
-0.000426972 -4.45841e-05 0 0.000800669 0.000378216 0 0.000821144 -0.000415062 0 
7.2799e-05 0.00088254 0 6.81831e-05 -0.00087503 0 0.000104963 -0.000788946 0 
-7.40696e-05 -0.000660054 0 0.000126061 0.000809943 0 0.000764361 0.000295682 0 
0.000166862 0.000630623 0 0.000516462 -0.00046707 0 -0.000563585 -0.000389606 0 
-0.000622598 -1.40238e-05 0 0.000629891 0.000171529 0 2.5614e-06 -0.000299794 0 
8.6901e-05 -0.00024329 0 0.000272045 -0.000136982 0 -0.00075148 0.000138321 0 
0.000209366 -0.000599589 0 0.000324913 -0.000630055 0 0.000614044 0.00041245 0 
0.00049651 -0.000573327 0 0.000394822 -0.000507321 0 -0.000173714 -0.000206698 0 
0.000264897 5.63722e-05 0 0.000247997 0.000152811 0 -4.63327e-05 -0.000920208 0 
9.18688e-05 0.000258626 0 -5.54111e-06 0.000290558 0 -0.000184219 0.000201484 0 
-0.000263559 0.000142267 0 -0.000256427 5.13624e-05 0 -0.000336894 -2.06179e-06 0 
-0.000228499 -4.2388e-05 0 -0.00017589 0.000106626 0 -0.000769947 -0.000133367 0 
0.000767591 -0.000500293 0 -5.05874e-05 0.000737978 0 0.000754456 -3.51771e-06 0 
0.00064691 -6.15298e-05 0 0.000630483 -0.00018134 0 0.000749187 -0.000265543 0 
-0.000760805 -0.000462521 0 0.000638155 6.09315e-05 0 -4.46661e-05 0.000922995 0 
-2.37945e-05 0.000207237 0 0.000776979 0.000500181 0 -0.000605691 0.000527596 0 
-0.000377914 -0.000653727 0 -0.000372325 -0.000526022 0 -0.000275829 -0.000589621 0 
-0.000254285 -0.000710579 0 -0.000379307 0.000656222 0 -0.000379818 0.00052718 0 
-0.000266817 0.000721555 0 -0.000150544 0.000668174 0 0.000381963 0.00065079 0 
0.000493113 0.000590432 0 0.000505439 0.000463708 0 -0.000269094 0.000596608 0 
0.000385815 0.000532045 0 0.000283599 0.0005899 0 -0.000176405 -0.000108505 0 
-0.000278769 -0.000475415 0 0.000185395 2.33014e-06 0 0.000186773 0.000517571 0 
0.000540032 -8.68444e-05 0 -0.000600694 -0.000514877 0 -0.00063703 8.98033e-05 0 
-0.000459677 0.000335729 0 -0.000338836 -0.000100751 0 -0.000457327 0.000432721 0 
-8.72007e-06 -0.000210238 0 0.000156073 0.000129496 0 -7.70692e-05 -0.000555049 0 
0.00036091 -0.000389728 0 0.000531628 0.000120564 0 -0.000285451 0.000435562 0 
0.000192719 -0.000494604 0 0.00041642 0.00039368 0 -0.000135943 0.000554637 0 
-0.000170665 -0.000610079 0 -0.000666304 0.000434981 0 -0.000758736 0.000479231 0 
-0.000470189 -0.000458901 0 0.000203433 -8.59809e-05 0 0.000101846 0.000170114 0 
-0.00035513 -0.00040726 0 0.000100184 -0.000165831 0 2.96286e-05 0.00081537 0 
0.000720946 0.000381836 0 -0.000539809 -0.000292001 0 0.00052211 -0.000182426 0 
-6.41339e-05 -0.000753908 0 0.000638039 -0.000299861 0 -0.000605136 -0.000230182 0 
-3.41638e-05 -0.000145561 0 -0.000104037 0.000172396 0 -0.000808575 -0.00042774 0 
-0.000807207 -0.000465052 0 -0.00080817 0.000429771 0 -0.000806589 0.000469738 0 
-9.50634e-05 -0.000178909 0 0.000247777 0.000445058 0 1.48293e-05 -0.000814201 0 
-4.11555e-05 0.000140955 0 0.000276104 -0.000536845 0 0.000765969 -0.000436638 0 
0.000780871 -0.000362769 0 0.000424176 -0.000642018 0 0.00053413 -0.000368009 0 
-0.000416333 4.17911e-05 0 -0.000133891 -6.23822e-05 0 4.2574e-05 0.000206312 0 
0.000141163 -0.000121542 0 0.000707423 0.000212137 0 0.000172327 0.000723882 0 
7.72652e-06 -0.00090254 0 -0.000134435 5.66935e-05 0 -0.000188826 3.70894e-05 0 
0.000197119 8.09714e-05 0 1.27801e-05 0.000917296 0 0.000800767 0.00044758 0 
-0.000686682 0.000507104 0 9.35831e-05 0.000110457 0 -0.000696793 -0.000509595 0 
-0.00068446 -8.52012e-05 0 -0.000691033 -0.000201242 0 5.24052e-05 -0.000189075 0 
-0.000151818 -0.000701092 0 -0.000296988 0.000518087 0 9.31023e-05 -0.000108117 0 
0.00044261 -0.000416726 0 0.000197044 -0.000784423 0 -0.000516861 0.000504567 0 
0.000298997 0.000502377 0 0.000131234 6.38474e-05 -0.001 0.00012964 -6.2443e-05 -0.001 
3.13827e-05 0.0001394 -0.001 3.12554e-05 -0.000136939 -0.001 -0.000140461 8.25467e-19 -0.001 
-8.90565e-05 -0.000102707 -0.001 -9.04142e-05 0.000102872 -0.001 -0.000765769 -0.00025965 -0.001 
-0.000756873 0.000262774 -0.001 -0.00015609 0.000787505 -0.001 -0.000155807 -0.00079355 -0.001 
0.000605069 0.000528035 -0.001 0.000608694 -0.00052497 -0.001 0.000744069 0.000116929 -0.001 
-0.000494418 0.000596218 -0.001 -0.000483866 -0.000584648 -0.001 0.000269496 0.000702219 -0.001 
0.000263201 -0.000717324 -0.001 0.000754429 -0.000127825 -0.001 -0.000748858 5.84659e-07 -0.001 
-0.000747838 0.000373886 -0.001 -0.0006542 0.000324842 -0.001 -0.000645137 0.000210123 -0.001 
-0.000550884 0.000274171 -0.001 -0.000538857 0.000163195 -0.001 -0.00045062 0.000224461 -0.001 
-0.000438393 0.000123907 -0.001 -0.000354088 0.000181668 -0.001 -0.000363908 0.000282171 -0.001 
-0.000270361 0.000239477 -0.001 -0.000279138 0.000337653 -0.001 -0.000188888 0.000294791 -0.001 
-0.000196448 0.000393271 -0.001 -0.000104767 0.000348259 -0.001 -0.000113332 0.000449012 -0.001 
-2.01066e-05 0.000403223 -0.001 -2.89189e-05 0.000507105 -0.001 6.9524e-05 0.000461596 -0.001 
-0.000213644 0.000490203 -0.001 7.33757e-05 0.000357726 -0.001 0.000163331 0.00041299 -0.001 
0.000163359 0.000313022 -0.001 0.000248077 0.000366368 -0.001 0.000250914 0.000265758 -0.001 
0.000335709 0.000322266 -0.001 0.000340555 0.000218148 -0.001 0.000427299 0.000276717 -0.001 
0.000431508 0.000173093 -0.001 0.000328731 0.000425633 -0.001 0.00034586 0.000114823 -0.001 
0.000435362 7.05241e-05 -0.001 0.000350892 1.5455e-05 -0.001 0.000441547 -3.11896e-05 -0.001 
0.000353547 -8.47783e-05 -0.001 0.000445767 -0.000132964 -0.001 0.000356135 -0.000186358 -0.001 
0.000449094 -0.000234674 -0.001 0.000359978 -0.000287876 -0.001 0.00026856 -0.000240545 -0.001 
0.000271895 -0.000341045 -0.001 0.000181792 -0.00029305 -0.001 0.00018533 -0.000392851 -0.001 
9.75701e-05 -0.00034483 -0.001 9.98764e-05 -0.000444884 -0.001 8.75116e-06 -0.000396343 -0.001 
1.20916e-05 -0.000500496 -0.001 -7.83929e-05 -0.000449843 -0.001 -8.1471e-05 -0.000347249 -0.001 
-0.000171566 -0.000403733 -0.001 -0.000169889 -0.000298891 -0.001 -0.000259867 -0.000354132 -0.001 
-0.000257696 -0.000249137 -0.001 -0.00034313 -0.000299896 -0.001 -0.000344514 -0.000199127 -0.001 
-0.000434309 -0.000250039 -0.001 -0.000169832 -0.000505815 -0.001 -0.000435227 -0.000146227 -0.001 
0.000280331 -0.000442424 -0.001 -0.000340889 8.76793e-05 -0.001 -0.000515252 4.06198e-05 -0.001 
6.50491e-05 0.000568253 -0.001 0.00053278 1.74743e-05 -0.001 0.000522071 0.000229831 -0.001 
-0.00037162 0.000391659 -0.001 -0.000255272 -0.000150439 -0.001 -0.000442893 -0.000350705 -0.001 
0.000450067 -0.000332559 -0.001 0.000545175 -0.000276306 -0.001 -0.000527797 -0.000197598 -0.001 
0.000105306 -0.000551033 -0.001 1.45836e-05 -0.000609147 -0.001 0.00017145 0.000214453 -0.001 
0.000515525 0.000341711 -0.001 0.000636086 0.000290368 -0.001 -0.000558657 0.000404468 -0.001 
-4.01232e-05 0.000616718 -0.001 6.60192e-05 0.000696422 -0.001 -0.000101806 0.0002546 -0.001 
0.000271142 -3.88908e-05 -0.001 0.000179455 -0.00018534 -0.001 -8.79553e-05 -0.000254307 -0.001 
-0.000749267 -0.000373451 -0.001 -0.000655941 -0.000323397 -0.001 0.000709746 0.000466718 -0.001 
0.000698426 -0.000473086 -0.001 -5.25801e-05 -0.00084886 -0.001 -4.93005e-05 0.000848038 -0.001 
0.000617396 -0.000413362 -0.001 0.000702056 -0.000369817 -0.001 0.000131459 -0.000679171 -0.001 
2.48171e-05 -0.000715924 -0.001 -0.000664217 -0.00042729 -0.001 -0.000528828 -8.80444e-05 -0.001 
-0.000611101 -0.000136672 -0.001 -0.000426972 -4.45841e-05 -0.001 0.000800669 0.000378216 -0.001 
0.000821144 -0.000415062 -0.001 7.2799e-05 0.00088254 -0.001 6.81831e-05 -0.00087503 -0.001 
0.000104963 -0.000788946 -0.001 -7.40696e-05 -0.000660054 -0.001 0.000126061 0.000809943 -0.001 
0.000764361 0.000295682 -0.001 0.000166862 0.000630623 -0.001 0.000516462 -0.00046707 -0.001 
-0.000563585 -0.000389606 -0.001 -0.000622598 -1.40238e-05 -0.001 0.000629891 0.000171529 -0.001 
2.5614e-06 -0.000299794 -0.001 8.6901e-05 -0.00024329 -0.001 0.000272045 -0.000136982 -0.001 
-0.00075148 0.000138321 -0.001 0.000209366 -0.000599589 -0.001 0.000324913 -0.000630055 -0.001 
0.000614044 0.00041245 -0.001 0.00049651 -0.000573327 -0.001 0.000394822 -0.000507321 -0.001 
-0.000173714 -0.000206698 -0.001 0.000264897 5.63722e-05 -0.001 0.000247997 0.000152811 -0.001 
-4.63327e-05 -0.000920208 -0.001 9.18688e-05 0.000258626 -0.001 -5.54111e-06 0.000290558 -0.001 
-0.000184219 0.000201484 -0.001 -0.000263559 0.000142267 -0.001 -0.000256427 5.13624e-05 -0.001 
-0.000336894 -2.06179e-06 -0.001 -0.000228499 -4.2388e-05 -0.001 -0.00017589 0.000106626 -0.001 
-0.000769947 -0.000133367 -0.001 0.000767591 -0.000500293 -0.001 -5.05874e-05 0.000737978 -0.001 
0.000754456 -3.51771e-06 -0.001 0.00064691 -6.15298e-05 -0.001 0.000630483 -0.00018134 -0.001 
0.000749187 -0.000265543 -0.001 -0.000760805 -0.000462521 -0.001 0.000638155 6.09315e-05 -0.001 
-4.46661e-05 0.000922995 -0.001 -2.37945e-05 0.000207237 -0.001 0.000776979 0.000500181 -0.001 
-0.000605691 0.000527596 -0.001 -0.000377914 -0.000653727 -0.001 -0.000372325 -0.000526022 -0.001 
-0.000275829 -0.000589621 -0.001 -0.000254285 -0.000710579 -0.001 -0.000379307 0.000656222 -0.001 
-0.000379818 0.00052718 -0.001 -0.000266817 0.000721555 -0.001 -0.000150544 0.000668174 -0.001 
0.000381963 0.00065079 -0.001 0.000493113 0.000590432 -0.001 0.000505439 0.000463708 -0.001 
-0.000269094 0.000596608 -0.001 0.000385815 0.000532045 -0.001 0.000283599 0.0005899 -0.001 
-0.000176405 -0.000108505 -0.001 -0.000278769 -0.000475415 -0.001 0.000185395 2.33014e-06 -0.001 
0.000186773 0.000517571 -0.001 0.000540032 -8.68444e-05 -0.001 -0.000600694 -0.000514877 -0.001 
-0.00063703 8.98033e-05 -0.001 -0.000459677 0.000335729 -0.001 -0.000338836 -0.000100751 -0.001 
-0.000457327 0.000432721 -0.001 -8.72007e-06 -0.000210238 -0.001 0.000156073 0.000129496 -0.001 
-7.70692e-05 -0.000555049 -0.001 0.00036091 -0.000389728 -0.001 0.000531628 0.000120564 -0.001 
-0.000285451 0.000435562 -0.001 0.000192719 -0.000494604 -0.001 0.00041642 0.00039368 -0.001 
-0.000135943 0.000554637 -0.001 -0.000170665 -0.000610079 -0.001 -0.000666304 0.000434981 -0.001 
-0.000758736 0.000479231 -0.001 -0.000470189 -0.000458901 -0.001 0.000203433 -8.59809e-05 -0.001 
0.000101846 0.000170114 -0.001 -0.00035513 -0.00040726 -0.001 0.000100184 -0.000165831 -0.001 
2.96286e-05 0.00081537 -0.001 0.000720946 0.000381836 -0.001 -0.000539809 -0.000292001 -0.001 
0.00052211 -0.000182426 -0.001 -6.41339e-05 -0.000753908 -0.001 0.000638039 -0.000299861 -0.001 
-0.000605136 -0.000230182 -0.001 -3.41638e-05 -0.000145561 -0.001 -0.000104037 0.000172396 -0.001 
-0.000808575 -0.00042774 -0.001 -0.000807207 -0.000465052 -0.001 -0.00080817 0.000429771 -0.001 
-0.000806589 0.000469738 -0.001 -9.50634e-05 -0.000178909 -0.001 0.000247777 0.000445058 -0.001 
1.48293e-05 -0.000814201 -0.001 -4.11555e-05 0.000140955 -0.001 0.000276104 -0.000536845 -0.001 
0.000765969 -0.000436638 -0.001 0.000780871 -0.000362769 -0.001 0.000424176 -0.000642018 -0.001 
0.00053413 -0.000368009 -0.001 -0.000416333 4.17911e-05 -0.001 -0.000133891 -6.23822e-05 -0.001 
4.2574e-05 0.000206312 -0.001 0.000141163 -0.000121542 -0.001 0.000707423 0.000212137 -0.001 
0.000172327 0.000723882 -0.001 7.72652e-06 -0.00090254 -0.001 -0.000134435 5.66935e-05 -0.001 
-0.000188826 3.70894e-05 -0.001 0.000197119 8.09714e-05 -0.001 1.27801e-05 0.000917296 -0.001 
0.000800767 0.00044758 -0.001 -0.000686682 0.000507104 -0.001 9.35831e-05 0.000110457 -0.001 
-0.000696793 -0.000509595 -0.001 -0.00068446 -8.52012e-05 -0.001 -0.000691033 -0.000201242 -0.001 
5.24052e-05 -0.000189075 -0.001 -0.000151818 -0.000701092 -0.001 -0.000296988 0.000518087 -0.001 
9.31023e-05 -0.000108117 -0.001 0.00044261 -0.000416726 -0.001 0.000197044 -0.000784423 -0.001 
-0.000516861 0.000504567 -0.001 0.000298997 0.000502377 -0.001 

CELLS 563 3941
6 14 304 127 29 554 377 
6 143 259 55 393 509 103 
6 300 319 174 550 569 424 
6 259 349 55 509 599 103 
6 50 365 307 98 615 557 
6 299 320 164 549 570 414 
6 126 304 14 376 554 29 
6 298 319 300 548 569 550 
6 205 240 238 455 490 488 
6 257 308 145 507 558 395 
6 130 352 273 380 602 523 
6 295 320 299 545 570 549 
6 324 327 289 574 577 539 
6 235 258 143 485 508 393 
6 50 307 49 98 557 97 
6 207 283 279 457 533 529 
6 143 373 235 393 623 485 
6 145 308 252 395 558 502 
6 194 303 196 444 553 446 
6 279 306 207 529 556 457 
6 206 305 163 456 555 413 
6 51 357 9 99 607 24 
6 238 252 205 488 502 455 
6 293 317 209 543 567 459 
6 207 316 283 457 566 533 
6 142 301 249 392 551 499 
6 273 359 130 523 609 380 
6 211 327 324 461 577 574 
6 169 265 217 419 515 467 
6 7 365 50 22 615 98 
6 283 316 253 533 566 503 
6 159 268 223 409 518 473 
6 274 337 132 524 587 382 
6 232 361 329 482 611 579 
6 231 266 45 481 516 93 
6 229 362 330 479 612 580 
6 9 244 57 24 494 105 
6 230 276 52 480 526 100 
6 209 311 293 459 561 543 
6 131 342 302 381 592 552 
6 270 271 204 520 521 454 
6 66 243 1 114 493 16 
6 59 241 12 107 491 27 
6 280 306 279 530 556 529 
6 269 337 274 519 587 524 
6 179 256 224 429 506 474 
6 163 305 166 413 555 416 
6 201 303 194 451 553 444 
6 280 332 306 530 582 556 
6 186 255 225 436 505 475 
6 210 310 273 460 560 523 
6 153 270 204 403 520 454 
6 136 231 45 386 481 93 
6 171 265 169 421 515 419 
6 138 230 52 388 480 100 
6 225 354 325 475 604 575 
6 36 284 232 84 534 482 
6 161 268 159 411 518 409 
6 71 286 229 119 536 479 
6 290 303 201 540 553 451 
6 139 355 60 389 605 108 
6 60 355 248 108 605 498 
6 273 352 302 523 602 552 
6 235 373 245 485 623 495 
6 67 356 247 115 606 497 
6 221 295 277 471 545 527 
6 142 356 67 392 606 115 
6 139 283 253 389 533 503 
6 203 315 262 453 565 512 
6 41 257 145 89 507 395 
6 36 232 135 84 482 385 
6 71 229 137 119 479 387 
6 254 255 188 504 505 438 
6 233 350 334 483 600 584 
6 262 346 203 512 596 453 
6 304 325 127 554 575 377 
6 222 329 247 472 579 497 
6 218 298 260 468 548 510 
6 290 321 291 540 571 541 
6 272 310 240 522 560 490 
6 269 274 270 519 524 520 
6 244 245 57 494 495 105 
6 49 307 141 97 557 391 
6 225 325 256 475 575 506 
6 273 310 272 523 560 522 
6 312 368 255 562 618 505 
6 249 305 206 499 555 456 
6 228 331 251 478 581 501 
6 302 342 263 552 592 513 
6 338 339 44 588 589 92 
6 190 254 188 440 504 438 
6 37 341 340 85 591 590 
6 138 233 230 388 483 480 
6 228 335 331 478 585 581 
6 181 256 179 431 506 429 
6 195 263 226 445 513 476 
6 268 285 223 518 535 473 
6 290 291 288 540 541 538 
6 219 330 248 469 580 498 
6 201 321 290 451 571 540 
6 240 310 202 490 560 452 
6 188 255 186 438 505 436 
6 270 274 271 520 524 521 
6 262 349 259 512 599 509 
6 141 324 289 391 574 539 
6 296 301 142 546 551 392 
6 247 356 222 497 606 472 
6 239 252 238 489 502 488 
6 254 312 255 504 562 505 
6 54 261 53 102 511 101 
6 289 327 303 539 577 553 
6 268 353 285 518 603 535 
6 273 302 210 523 552 460 
6 292 299 293 542 549 543 
6 278 283 139 528 533 389 
6 175 265 171 425 515 421 
6 227 338 38 477 588 86 
6 264 360 265 514 610 515 
6 43 340 146 91 590 396 
6 165 268 161 415 518 411 
6 205 351 240 455 601 490 
6 64 281 63 112 531 111 
6 288 291 47 538 541 95 
6 135 295 294 385 545 544 
6 42 257 41 90 507 89 
6 245 373 57 495 623 105 
6 31 363 323 79 613 573 
6 292 293 140 542 543 390 
6 267 353 268 517 603 518 
6 155 270 153 405 520 403 
6 244 344 245 494 594 495 
6 61 278 139 109 528 389 
6 135 294 35 385 544 83 
6 69 297 296 117 547 546 
6 186 225 184 436 475 434 
6 329 361 243 579 611 493 
6 255 328 225 505 578 475 
6 213 332 280 463 582 530 
6 39 275 133 87 525 383 
6 330 362 241 580 612 491 
6 195 226 193 445 476 443 
6 211 324 251 461 574 501 
6 151 153 152 401 403 402 
6 295 299 294 545 549 544 
6 265 313 217 515 563 467 
6 258 259 143 508 509 393 
6 251 331 211 501 581 461 
6 149 151 150 399 401 400 
6 293 370 317 543 620 567 
6 153 204 152 403 454 402 
6 151 152 150 401 402 400 
6 33 292 140 81 542 390 
6 210 263 197 460 513 447 
6 301 305 249 551 555 499 
6 298 300 297 548 550 547 
6 68 296 142 116 546 392 
6 321 369 291 571 619 541 
6 179 224 177 429 474 427 
6 167 267 165 417 517 415 
6 259 346 262 509 596 512 
6 303 327 196 553 577 446 
6 269 270 155 519 520 405 
6 265 360 313 515 610 563 
6 223 269 157 473 519 407 
6 157 269 155 407 519 405 
6 144 279 278 394 529 528 
6 169 217 167 419 467 417 
6 177 264 175 427 514 425 
6 267 268 165 517 518 415 
6 159 223 157 409 473 407 
6 232 277 135 482 527 385 
6 193 254 190 443 504 440 
6 217 267 167 467 517 417 
6 249 356 142 499 606 392 
6 184 256 181 434 506 431 
6 248 355 219 498 605 469 
6 229 260 137 479 510 387 
6 149 150 148 399 400 398 
6 64 348 281 112 598 531 
6 311 374 293 561 624 543 
6 264 265 175 514 515 425 
6 297 300 296 547 550 546 
6 141 289 288 391 539 538 
6 197 263 195 447 513 445 
6 218 260 219 468 510 469 
6 224 264 177 474 514 427 
6 137 298 297 387 548 547 
6 277 295 135 527 545 385 
6 133 228 227 383 478 477 
6 261 349 262 511 599 512 
6 221 277 222 471 527 472 
6 256 325 224 506 575 474 
6 199 210 197 449 460 447 
6 226 254 193 476 504 443 
6 144 278 62 394 528 110 
6 279 283 278 529 533 528 
6 289 290 288 539 540 538 
6 137 297 70 387 547 118 
6 34 294 292 82 544 542 
6 235 236 216 485 486 466 
6 141 288 48 391 538 96 
6 178 306 180 428 556 430 
6 185 186 184 435 436 434 
6 63 281 144 111 531 394 
6 225 256 184 475 506 434 
6 46 291 136 94 541 386 
6 147 149 148 397 399 398 
6 271 272 204 521 522 454 
6 233 334 234 483 584 484 
6 145 275 40 395 525 88 
6 220 322 287 470 572 537 
6 280 334 213 530 584 463 
6 144 280 279 394 530 529 
6 140 287 32 390 537 80 
6 154 155 153 404 405 403 
6 334 350 213 584 600 463 
6 176 177 175 426 427 425 
6 260 298 137 510 548 387 
6 33 140 32 81 390 80 
6 49 141 48 97 391 96 
6 56 143 55 104 393 103 
6 68 142 67 116 392 115 
6 63 144 62 111 394 110 
6 61 139 60 109 389 108 
6 148 308 257 398 558 507 
6 71 137 70 119 387 118 
6 53 138 52 101 388 100 
6 46 136 45 94 386 93 
6 36 135 35 84 385 83 
6 43 146 134 91 396 384 
6 133 227 38 383 477 86 
6 192 193 190 442 443 440 
6 293 374 140 543 624 390 
6 34 292 33 82 542 81 
6 207 306 178 457 556 428 
6 43 134 42 91 384 90 
6 39 133 38 87 383 86 
6 41 145 40 89 395 88 
6 194 195 193 444 445 443 
6 69 296 68 117 546 116 
6 294 299 292 544 549 542 
6 173 175 171 423 425 421 
6 260 330 219 510 580 469 
6 183 184 181 433 434 431 
6 134 257 42 384 507 90 
6 55 349 54 103 599 102 
6 163 165 161 413 415 411 
6 166 167 165 416 417 415 
6 210 302 263 460 552 513 
6 271 273 272 521 523 522 
6 53 261 138 101 511 388 
6 217 326 267 467 576 517 
6 289 303 290 539 553 540 
6 178 179 177 428 429 427 
6 238 240 202 488 490 452 
6 62 278 61 110 528 109 
6 35 294 34 83 544 82 
6 284 361 232 534 611 482 
6 70 297 69 118 547 117 
6 224 304 264 474 554 514 
6 156 157 155 406 407 405 
6 48 288 47 96 538 95 
6 221 320 295 471 570 545 
6 187 188 186 437 438 436 
6 47 291 46 95 541 94 
6 151 154 153 401 404 403 
6 286 362 229 536 612 479 
6 168 169 167 418 419 417 
6 40 275 39 88 525 87 
6 307 324 141 557 574 391 
6 300 301 296 550 551 546 
6 32 287 31 80 537 79 
6 147 220 149 397 470 399 
6 333 344 231 583 594 481 
6 299 370 293 549 620 543 
6 271 359 273 521 609 523 
6 224 325 304 474 575 554 
6 228 237 227 478 487 477 
6 305 375 343 555 625 593 
6 218 319 298 468 569 548 
6 240 351 272 490 601 522 
6 277 329 222 527 579 472 
6 253 355 139 503 605 389 
6 158 159 157 408 409 407 
6 236 246 216 486 496 466 
6 192 194 193 442 444 443 
6 220 309 149 470 559 399 
6 183 185 184 433 435 434 
6 196 197 195 446 447 445 
6 276 347 58 526 597 106 
6 136 333 231 386 583 481 
6 67 247 66 115 497 114 
6 60 248 59 108 498 107 
6 261 262 250 511 512 500 
6 173 176 175 423 426 425 
6 344 357 231 594 607 481 
6 144 281 280 394 531 530 
6 152 205 150 402 455 400 
6 163 166 165 413 416 415 
6 185 187 186 435 437 436 
6 233 234 230 483 484 480 
6 170 171 169 420 421 419 
6 146 147 134 396 397 384 
6 176 178 177 426 428 427 
6 285 337 223 535 587 473 
6 154 156 155 404 406 405 
6 263 342 226 513 592 476 
6 235 245 236 485 495 486 
6 160 161 159 410 411 409 
6 58 347 242 106 597 492 
6 166 168 167 416 418 417 
6 287 374 220 537 624 470 
6 189 190 188 439 440 438 
6 148 257 134 398 507 384 
6 194 196 195 444 446 445 
6 252 308 205 502 558 455 
6 285 345 337 535 595 587 
6 301 375 305 551 625 555 
6 180 181 179 430 431 429 
6 281 348 234 531 598 484 
6 198 199 197 448 449 447 
6 151 309 154 401 559 404 
6 228 367 335 478 617 585 
6 54 349 261 102 599 511 
6 156 158 157 406 408 407 
6 168 170 169 418 420 419 
6 200 202 199 450 452 449 
6 147 148 134 397 398 384 
6 158 160 159 408 410 409 
6 150 308 148 400 558 398 
6 253 316 208 503 566 458 
6 232 329 277 482 579 527 
6 178 180 179 428 430 429 
6 191 192 190 441 442 440 
6 214 238 202 464 488 452 
6 172 173 171 422 423 421 
6 187 189 188 437 439 438 
6 162 163 161 412 413 411 
6 228 251 237 478 501 487 
6 215 258 235 465 508 485 
6 182 183 181 432 433 431 
6 202 310 199 452 560 449 
6 219 253 208 469 503 458 
6 222 249 206 472 499 456 
6 196 198 197 446 448 447 
6 229 330 260 479 580 510 
6 132 358 274 382 608 524 
6 149 309 151 399 559 401 
6 226 312 254 476 562 504 
6 154 309 209 404 559 459 
6 77 129 76 125 379 124 
6 73 128 72 121 378 120 
6 76 131 75 124 381 123 
6 74 132 73 122 382 121 
6 75 130 74 123 380 122 
6 14 127 77 29 377 125 
6 72 126 14 120 376 29 
6 133 367 228 383 617 478 
6 237 282 227 487 532 477 
6 239 366 252 489 616 502 
6 200 214 202 450 464 452 
6 192 201 194 442 451 444 
6 170 172 171 420 422 421 
6 220 311 309 470 561 559 
6 198 200 199 448 450 449 
6 189 191 190 439 441 440 
6 146 323 322 396 573 572 
6 160 162 161 410 412 411 
6 251 307 237 501 557 487 
6 199 310 210 449 560 460 
6 57 373 56 105 623 104 
6 214 239 238 464 489 488 
6 182 212 183 432 462 433 
6 180 182 181 430 432 431 
6 146 322 147 396 572 397 
6 172 218 208 422 468 458 
6 172 208 173 422 458 423 
6 162 221 206 412 471 456 
6 162 206 163 412 456 413 
6 176 207 178 426 457 428 
6 272 351 204 522 601 454 
6 198 211 200 448 461 450 
6 182 213 212 432 463 462 
6 234 334 281 484 584 531 
6 154 209 156 404 459 406 
6 185 203 187 435 453 437 
6 168 174 170 418 424 420 
6 189 215 191 439 465 441 
6 215 216 191 465 466 441 
6 221 222 206 471 472 456 
6 158 164 160 408 414 410 
6 218 219 208 468 469 458 
6 205 308 150 455 558 400 
6 191 314 192 441 564 442 
6 215 235 216 465 485 466 
6 215 318 258 465 568 508 
6 152 351 205 402 601 455 
6 138 261 250 388 511 500 
6 192 314 201 442 564 451 
6 234 347 230 484 597 480 
6 226 342 312 476 592 562 
6 138 250 233 388 500 483 
6 147 322 220 397 572 470 
6 216 314 191 466 564 441 
6 306 332 180 556 582 430 
6 222 356 249 472 606 499 
6 128 345 285 378 595 535 
6 314 321 201 564 571 451 
6 212 315 183 462 565 433 
6 312 342 336 562 592 586 
6 282 339 338 532 589 588 
6 340 341 323 590 591 573 
6 309 311 209 559 561 459 
6 183 315 185 433 565 435 
6 208 316 173 458 566 423 
6 173 316 176 423 566 426 
6 3 341 37 18 591 85 
6 44 339 6 92 589 21 
6 252 366 145 502 616 395 
6 246 321 314 496 571 564 
6 246 314 216 496 564 466 
6 126 364 313 376 614 563 
6 156 317 158 406 567 408 
6 275 367 133 525 617 383 
6 176 316 207 426 566 457 
6 185 315 203 435 565 453 
6 180 332 182 430 582 432 
6 302 352 131 552 602 381 
6 251 324 307 501 574 557 
6 187 318 189 437 568 439 
6 172 319 218 422 569 468 
6 162 320 221 412 570 471 
6 305 343 166 555 593 416 
6 170 319 172 420 569 422 
6 158 317 164 408 567 414 
6 209 317 156 459 567 406 
6 285 353 128 535 603 378 
6 223 337 269 473 587 519 
6 160 320 162 410 570 412 
6 211 331 200 461 581 450 
6 174 319 170 424 569 420 
6 203 318 187 453 568 437 
6 189 318 215 439 568 465 
6 198 327 211 448 577 461 
6 164 320 160 414 570 410 
6 326 353 267 576 603 517 
6 236 344 333 486 594 583 
6 196 327 198 446 577 448 
6 219 355 253 469 605 503 
6 281 334 280 531 584 530 
6 274 359 271 524 609 521 
6 164 370 299 414 620 549 
6 174 375 300 424 625 550 
6 287 363 31 537 613 79 
6 243 361 1 493 611 16 
6 241 362 12 491 612 27 
6 307 365 237 557 615 487 
6 166 343 168 416 593 418 
6 200 331 214 450 581 464 
6 313 326 217 563 576 467 
6 9 357 244 24 607 494 
6 1 361 30 16 611 78 
6 12 362 65 27 612 113 
6 337 345 132 587 595 382 
6 242 348 64 492 598 112 
6 231 357 266 481 607 516 
6 182 332 213 432 582 463 
6 245 344 236 495 594 486 
6 258 346 259 508 596 509 
6 145 366 275 395 616 525 
6 291 369 136 541 619 386 
6 236 333 246 486 583 496 
6 331 335 214 581 585 464 
6 312 336 129 562 586 379 
6 315 372 262 565 622 512 
6 220 374 311 470 624 561 
6 140 374 287 390 624 537 
6 126 360 304 376 610 554 
6 230 347 276 480 597 526 
6 313 364 326 563 614 576 
6 56 373 143 104 623 393 
6 239 367 366 489 617 616 
6 204 351 152 454 601 402 
6 300 375 301 550 625 551 
6 214 335 239 464 585 489 
6 247 329 243 497 579 493 
6 262 372 250 512 622 500 
6 248 330 241 498 580 491 
6 318 346 258 568 596 508 
6 333 369 246 583 619 496 
6 282 338 227 532 588 477 
6 146 340 323 396 590 573 
6 304 360 264 554 610 514 
6 366 367 275 616 617 525 
6 129 336 76 379 586 124 
6 73 345 128 121 595 378 
6 76 336 131 124 586 381 
6 250 350 233 500 600 483 
6 129 371 328 379 621 578 
6 132 345 73 382 595 121 
6 168 343 174 418 593 424 
6 131 352 75 381 602 123 
6 66 247 243 114 497 493 
6 59 248 241 107 498 491 
6 74 358 132 122 608 382 
6 203 346 318 453 596 568 
6 313 360 126 563 610 376 
6 128 364 72 378 614 120 
6 128 353 326 378 603 576 
6 77 371 129 125 621 379 
6 129 368 312 379 618 562 
6 244 357 344 494 607 594 
6 328 354 225 578 604 475 
6 326 364 128 576 614 378 
6 75 352 130 123 602 380 
6 350 372 212 600 622 462 
6 136 369 333 386 619 583 
6 325 354 127 575 604 377 
6 213 350 212 463 600 462 
6 130 358 74 380 608 122 
6 250 372 350 500 622 600 
6 317 370 164 567 620 414 
6 72 364 126 120 614 376 
6 328 368 129 578 618 379 
6 127 371 77 377 621 125 
6 336 342 131 586 592 381 
6 212 372 315 462 622 565 
6 234 348 347 484 598 597 
6 8 266 51 23 516 99 
6 10 276 58 25 526 106 
6 246 369 321 496 619 571 
6 30 284 0 78 534 15 
6 65 286 13 113 536 28 
6 58 242 11 106 492 26 
6 266 357 51 516 607 99 
6 255 368 328 505 618 578 
6 347 348 242 597 598 492 
6 322 363 287 572 613 537 
6 323 363 322 573 613 572 
6 335 367 239 585 617 489 
6 30 361 284 78 611 534 
6 65 362 286 113 612 536 
6 237 365 282 487 615 532 
6 130 359 358 380 609 608 
6 343 375 174 593 625 424 
6 354 371 127 604 621 377 
6 328 371 354 578 621 604 
6 358 359 274 608 609 524 
6 0 284 36 15 534 84 
6 45 266 8 93 516 23 
6 52 276 10 100 526 25 
6 11 242 64 26 492 112 
6 13 286 71 28 536 119 
6 2 323 3 17 573 18 
6 31 323 2 79 573 17 
6 323 341 3 573 591 18 
6 37 340 4 85 590 19 
6 4 340 43 19 590 91 
6 38 338 5 86 588 20 
6 5 338 44 20 588 92 
6 6 282 7 21 532 22 
6 6 339 282 21 589 532 
6 282 365 7 532 615 22 

CELL_TYPES 563
13
13
13
13
13
13
13
13
13
13
13
13
13
13
13
13
13
13
13
13
13
13
13
13
13
13
13
13
13
13
13
13
13
13
13
13
13
13
13
13
13
13
13
13
13
13
13
13
13
13
13
13
13
13
13
13
13
13
13
13
13
13
13
13
13
13
13
13
13
13
13
13
13
13
13
13
13
13
13
13
13
13
13
13
13
13
13
13
13
13
13
13
13
13
13
13
13
13
13
13
13
13
13
13
13
13
13
13
13
13
13
13
13
13
13
13
13
13
13
13
13
13
13
13
13
13
13
13
13
13
13
13
13
13
13
13
13
13
13
13
13
13
13
13
13
13
13
13
13
13
13
13
13
13
13
13
13
13
13
13
13
13
13
13
13
13
13
13
13
13
13
13
13
13
13
13
13
13
13
13
13
13
13
13
13
13
13
13
13
13
13
13
13
13
13
13
13
13
13
13
13
13
13
13
13
13
13
13
13
13
13
13
13
13
13
13
13
13
13
13
13
13
13
13
13
13
13
13
13
13
13
13
13
13
13
13
13
13
13
13
13
13
13
13
13
13
13
13
13
13
13
13
13
13
13
13
13
13
13
13
13
13
13
13
13
13
13
13
13
13
13
13
13
13
13
13
13
13
13
13
13
13
13
13
13
13
13
13
13
13
13
13
13
13
13
13
13
13
13
13
13
13
13
13
13
13
13
13
13
13
13
13
13
13
13
13
13
13
13
13
13
13
13
13
13
13
13
13
13
13
13
13
13
13
13
13
13
13
13
13
13
13
13
13
13
13
13
13
13
13
13
13
13
13
13
13
13
13
13
13
13
13
13
13
13
13
13
13
13
13
13
13
13
13
13
13
13
13
13
13
13
13
13
13
13
13
13
13
13
13
13
13
13
13
13
13
13
13
13
13
13
13
13
13
13
13
13
13
13
13
13
13
13
13
13
13
13
13
13
13
13
13
13
13
13
13
13
13
13
13
13
13
13
13
13
13
13
13
13
13
13
13
13
13
13
13
13
13
13
13
13
13
13
13
13
13
13
13
13
13
13
13
13
13
13
13
13
13
13
13
13
13
13
13
13
13
13
13
13
13
13
13
13
13
13
13
13
13
13
13
13
13
13
13
13
13
13
13
13
13
13
13
13
13
13
13
13
13
13
13
13
13
13
13
13
13
13
13
13
13
13
13
13
13
13
13
13
13
13
13
13
13
13
13
13
13
13
13
13
13
13
13
13
13
13
13
13
13
13
13
13
13
13
13
13
13
13
13
13
13
13
13
13

POINT_DATA 626
VECTORS displacement float
-1.74395e-06 3.09542e-05 1.80549e-05
1.73566e-06 3.09733e-05 1.81e-05
-2.59861e-05 1.69928e-05 1.8087e-05
-2.58407e-05 1.60329e-05 1.80515e-05
-2.77205e-05 1.39727e-05 1.8069e-05
-2.77134e-05 -1.4019e-05 1.80944e-05
-2.58119e-05 -1.60711e-05 1.81058e-05
-2.59823e-05 -1.70108e-05 1.8167e-05
-1.6774e-06 -3.0958e-05 1.80513e-05
1.75545e-06 -3.09595e-05 1.81018e-05
2.59435e-05 -1.69806e-05 1.80434e-05
2.77168e-05 -1.39366e-05 1.80433e-05
2.76723e-05 1.39893e-05 1.80916e-05
2.59148e-05 1.69929e-05 1.80459e-05
0 0 0
-1.74395e-06 3.09542e-05 -1.80549e-05
1.73566e-06 3.09733e-05 -1.81e-05
-2.59861e-05 1.69928e-05 -1.8087e-05
-2.58407e-05 1.60329e-05 -1.80515e-05
-2.77205e-05 1.39727e-05 -1.8069e-05
-2.77134e-05 -1.4019e-05 -1.80944e-05
-2.58119e-05 -1.60711e-05 -1.81058e-05
-2.59823e-05 -1.70108e-05 -1.8167e-05
-1.6774e-06 -3.0958e-05 -1.80513e-05
1.75545e-06 -3.09595e-05 -1.81018e-05
2.59435e-05 -1.69806e-05 -1.80434e-05
2.77168e-05 -1.39366e-05 -1.80433e-05
2.76723e-05 1.39893e-05 -1.80916e-05
2.59148e-05 1.69929e-05 -1.80459e-05
0 0 0
2.48952e-08 3.01541e-05 1.80341e-05
-2.11404e-05 1.87123e-05 1.75496e-05
-1.72323e-05 1.98337e-05 1.69207e-05
-1.40068e-05 2.1054e-05 1.65548e-05
-1.12068e-05 2.26646e-05 1.65486e-05
-8.52402e-06 2.48326e-05 1.69012e-05
-5.56777e-06 2.76215e-05 1.75373e-05
-2.64497e-05 1.4679e-05 1.80334e-05
-2.67685e-05 -9.01143e-06 1.75773e-05
-2.5806e-05 -5.03541e-06 1.69258e-05
-2.52542e-05 -1.63619e-06 1.65712e-05
-2.52572e-05 1.60783e-06 1.65742e-05
-2.57983e-05 5.02281e-06 1.6924e-05
-2.67547e-05 8.98452e-06 1.75638e-05
-2.64366e-05 -1.47254e-05 1.80621e-05
-5.54103e-06 -2.7636e-05 1.75295e-05
-8.47654e-06 -2.48417e-05 1.69005e-05
-1.117e-05 -2.26841e-05 1.6556e-05
-1.39705e-05 -2.10871e-05 1.65594e-05
-1.72148e-05 -1.9869e-05 1.69365e-05
-2.1134e-05 -1.8749e-05 1.75621e-05
8.9841e-08 -3.01389e-05 1.80293e-05
2.11238e-05 -1.86247e-05 1.75113e-05
1.72445e-05 -1.9762e-05 1.68727e-05
1.40337e-05 -2.1011e-05 1.65114e-05
1.1225e-05 -2.25928e-05 1.6546e-05
8.58119e-06 -2.47799e-05 1.6874e-05
5.65466e-06 -2.76262e-05 1.75348e-05
2.61244e-05 -1.50596e-05 1.80283e-05
2.67166e-05 8.93831e-06 1.75014e-05
2.57218e-05 5.04953e-06 1.69082e-05
2.52063e-05 1.6233e-06 1.6523e-05
2.52034e-05 -1.59941e-06 1.65213e-05
2.57505e-05 -4.99732e-06 1.68882e-05
2.66987e-05 -8.91706e-06 1.75095e-05
2.61074e-05 1.50607e-05 1.80253e-05
5.63312e-06 2.76176e-05 1.75094e-05
8.50856e-06 2.48065e-05 1.6911e-05
1.1217e-05 2.26408e-05 1.65292e-05
1.40044e-05 2.1022e-05 1.65246e-05
1.72215e-05 1.97933e-05 1.68849e-05
2.11148e-05 1.86343e-05 1.75252e-05
0 0 0
0 0 0
0 0 0
0 0 0
0 0 0
0 0 0
2.48952e-08 3.01541e-05 -1.80341e-05
-2.11404e-05 1.87123e-05 -1.75496e-05
-1.72323e-05 1.98337e-05 -1.69207e-05
-1.40068e-05 2.1054e-05 -1.65548e-05
-1.12068e-05 2.26646e-05 -1.65486e-05
-8.52402e-06 2.48326e-05 -1.69012e-05
-5.56777e-06 2.76215e-05 -1.75373e-05
-2.64497e-05 1.4679e-05 -1.80334e-05
-2.67685e-05 -9.01143e-06 -1.75773e-05
-2.5806e-05 -5.03541e-06 -1.69258e-05
-2.52542e-05 -1.63619e-06 -1.65712e-05
-2.52572e-05 1.60783e-06 -1.65742e-05
-2.57983e-05 5.02281e-06 -1.6924e-05
-2.67547e-05 8.98452e-06 -1.75638e-05
-2.64366e-05 -1.47254e-05 -1.80621e-05
-5.54103e-06 -2.7636e-05 -1.75295e-05
-8.47654e-06 -2.48417e-05 -1.69005e-05
-1.117e-05 -2.26841e-05 -1.6556e-05
-1.39705e-05 -2.10871e-05 -1.65594e-05
-1.72148e-05 -1.9869e-05 -1.69365e-05
-2.1134e-05 -1.8749e-05 -1.75621e-05
8.9841e-08 -3.01389e-05 -1.80293e-05
2.11238e-05 -1.86247e-05 -1.75113e-05
1.72445e-05 -1.9762e-05 -1.68727e-05
1.40337e-05 -2.1011e-05 -1.65114e-05
1.1225e-05 -2.25928e-05 -1.6546e-05
8.58119e-06 -2.47799e-05 -1.6874e-05
5.65466e-06 -2.76262e-05 -1.75348e-05
2.61244e-05 -1.50596e-05 -1.80283e-05
2.67166e-05 8.93831e-06 -1.75014e-05
2.57218e-05 5.04953e-06 -1.69082e-05
2.52063e-05 1.6233e-06 -1.6523e-05
2.52034e-05 -1.59941e-06 -1.65213e-05
2.57505e-05 -4.99732e-06 -1.68882e-05
2.66987e-05 -8.91706e-06 -1.75095e-05
2.61074e-05 1.50607e-05 -1.80253e-05
5.63312e-06 2.76176e-05 -1.75094e-05
8.50856e-06 2.48065e-05 -1.6911e-05
1.1217e-05 2.26408e-05 -1.65292e-05
1.40044e-05 2.1022e-05 -1.65246e-05
1.72215e-05 1.97933e-05 -1.68849e-05
2.11148e-05 1.86343e-05 -1.75252e-05
0 0 0
0 0 0
0 0 0
0 0 0
0 0 0
0 0 0
1.79366e-06 8.58739e-07 4.5522e-06
1.7378e-06 -8.25108e-07 4.46075e-06
4.3195e-07 1.84961e-06 4.49507e-06
4.36094e-07 -1.78062e-06 4.35604e-06
-1.84747e-06 2.09629e-08 4.42232e-06
-1.12308e-06 -1.30886e-06 4.15096e-06
-1.1592e-06 1.30679e-06 4.19974e-06
-2.25128e-05 -7.28759e-06 1.69998e-05
-2.21962e-05 7.37148e-06 1.69684e-05
-4.8604e-06 2.28983e-05 1.69368e-05
-4.85792e-06 -2.31314e-05 1.69637e-05
1.7421e-05 1.56353e-05 1.69297e-05
1.75686e-05 -1.55363e-05 1.69389e-05
2.10733e-05 3.16384e-06 1.63242e-05
-1.3953e-05 1.71511e-05 1.64782e-05
-1.3591e-05 -1.67411e-05 1.64097e-05
7.76777e-06 1.98193e-05 1.6331e-05
7.68479e-06 -2.03097e-05 1.64023e-05
2.14721e-05 -3.44369e-06 1.64e-05
-2.11025e-05 6.58808e-09 1.62465e-05
-2.24201e-05 1.09996e-05 1.74535e-05
-1.87507e-05 9.2546e-06 1.66269e-05
-1.79826e-05 5.79538e-06 1.60361e-05
-1.49838e-05 7.44825e-06 1.54861e-05
-1.42243e-05 4.30767e-06 1.48294e-05
-1.15325e-05 5.74382e-06 1.40945e-05
-1.08579e-05 3.0687e-06 1.33733e-05
-8.40039e-06 4.30482e-06 1.24041e-05
-9.0587e-06 7.01332e-06 1.34561e-05
-6.20403e-06 5.48845e-06 1.16887e-05
-6.82822e-06 8.24935e-06 1.30797e-05
-4.28135e-06 6.67483e-06 1.14502e-05
-4.79995e-06 9.60981e-06 1.30936e-05
-2.40084e-06 7.99326e-06 1.17227e-05
-2.81282e-06 1.11671e-05 1.34746e-05
-4.75405e-07 9.59518e-06 1.25007e-05
-7.38345e-07 1.29968e-05 1.41415e-05
1.73106e-06 1.15176e-05 1.35347e-05
-5.53462e-06 1.27002e-05 1.44367e-05
1.68506e-06 8.22388e-06 1.17473e-05
4.00413e-06 1.01208e-05 1.31507e-05
3.70531e-06 7.09787e-06 1.1478e-05
6.06734e-06 8.96657e-06 1.31131e-05
5.76676e-06 6.10672e-06 1.17353e-05
8.35799e-06 8.02023e-06 1.34917e-05
8.10556e-06 5.19521e-06 1.25001e-05
1.09539e-05 7.09697e-06 1.41467e-05
1.07458e-05 4.32275e-06 1.34988e-05
8.53043e-06 1.10374e-05 1.44605e-05
7.93761e-06 2.64371e-06 1.17271e-05
1.06459e-05 1.73718e-06 1.31038e-05
7.9486e-06 3.58756e-07 1.14553e-05
1.08063e-05 -7.59104e-07 1.31239e-05
8.11155e-06 -1.93778e-06 1.17089e-05
1.10981e-05 -3.31281e-06 1.34836e-05
8.46964e-06 -4.42393e-06 1.24438e-05
1.15036e-05 -6.00281e-06 1.41091e-05
8.95547e-06 -7.13803e-06 1.34278e-05
6.14746e-06 -5.49436e-06 1.1641e-05
6.64442e-06 -8.30077e-06 1.3018e-05
4.10516e-06 -6.58844e-06 1.13107e-05
4.52331e-06 -9.55076e-06 1.2988e-05
2.24227e-06 -7.8582e-06 1.15971e-05
2.48481e-06 -1.10018e-05 1.33507e-05
2.25289e-07 -9.37359e-06 1.23533e-05
3.30011e-07 -1.27697e-05 1.40336e-05
-1.91542e-06 -1.11506e-05 1.33768e-05
-1.84105e-06 -7.92154e-06 1.15819e-05
-4.16785e-06 -9.87475e-06 1.30848e-05
-3.8139e-06 -6.73043e-06 1.13169e-05
-6.34555e-06 -8.66193e-06 1.30991e-05
-5.89124e-06 -5.69795e-06 1.16282e-05
-8.49963e-06 -7.43572e-06 1.33794e-05
-8.16746e-06 -4.72801e-06 1.24084e-05
-1.10955e-05 -6.4027e-06 1.40697e-05
-4.37161e-06 -1.31231e-05 1.44334e-05
-1.08087e-05 -3.65065e-06 1.3439e-05
7.22604e-06 -1.13726e-05 1.42727e-05
-7.74163e-06 1.98267e-06 1.14927e-05
-1.3216e-05 1.03505e-06 1.42107e-05
1.72911e-06 1.50827e-05 1.4952e-05
1.37679e-05 4.62233e-07 1.43876e-05
1.3843e-05 6.10004e-06 1.49315e-05
-9.69396e-06 1.01962e-05 1.45323e-05
-5.41596e-06 -3.19763e-06 1.0182e-05
-1.17135e-05 -9.29725e-06 1.4889e-05
1.18823e-05 -8.76013e-06 1.47869e-05
1.47816e-05 -7.47353e-06 1.54032e-05
-1.39596e-05 -5.24384e-06 1.48615e-05
2.7958e-06 -1.4516e-05 1.4796e-05
4.2456e-07 -1.64993e-05 1.53976e-05
3.51841e-06 4.3969e-06 9.58099e-06
1.40105e-05 9.29897e-06 1.54914e-05
1.79306e-05 8.14489e-06 1.63004e-05
-1.56753e-05 1.13952e-05 1.62333e-05
-1.09408e-06 1.67689e-05 1.54951e-05
1.90685e-06 1.96214e-05 1.63108e-05
-2.09185e-06 5.22004e-06 9.59749e-06
5.5539e-06 -7.84598e-07 9.59403e-06
3.58593e-06 -3.68354e-06 9.08188e-06
-1.77962e-06 -5.17854e-06 9.4495e-06
-2.24686e-05 -1.10107e-05 1.74742e-05
-1.8798e-05 -9.24134e-06 1.66509e-05
2.11477e-05 1.41647e-05 1.75055e-05
2.07536e-05 -1.43175e-05 1.74354e-05
-1.7646e-06 -2.54463e-05 1.75108e-05
-1.68213e-06 2.54104e-05 1.75155e-05
1.77129e-05 -1.19068e-05 1.6687e-05
2.06456e-05 -1.0751e-05 1.71159e-05
3.77562e-06 -1.8985e-05 1.61392e-05
7.68526e-07 -2.03456e-05 1.64827e-05
-1.94049e-05 -1.26504e-05 1.7143e-05
-1.3731e-05 -2.3069e-06 1.44717e-05
-1.65926e-05 -3.70139e-06 1.54774e-05
-1.03757e-05 -1.09638e-06 1.29519e-05
2.44519e-05 1.10727e-05 1.76515e-05
2.54974e-05 -1.24031e-05 1.7848e-05
2.64924e-06 2.67258e-05 1.76604e-05
2.521e-06 -2.64134e-05 1.76292e-05
3.33945e-06 -2.30317e-05 1.7029e-05
-2.05388e-06 -1.83197e-05 1.59507e-05
4.05904e-06 2.37911e-05 1.71303e-05
2.2614e-05 8.37917e-06 1.71191e-05
4.61356e-06 1.73132e-05 1.57271e-05
1.44269e-05 -1.31193e-05 1.61372e-05
-1.57875e-05 -1.09846e-05 1.62144e-05
-1.67996e-05 -3.81423e-07 1.53772e-05
1.73058e-05 4.68743e-06 1.57255e-05
6.55215e-08 -6.38725e-06 1.02673e-05
1.7417e-06 -4.84841e-06 9.09238e-06
5.8504e-06 -2.93548e-06 1.0378e-05
-2.1444e-05 3.75046e-06 1.64587e-05
5.7293e-06 -1.62743e-05 1.55075e-05
9.08336e-06 -1.74988e-05 1.59973e-05
1.7572e-05 1.18816e-05 1.66722e-05
1.39941e-05 -1.63821e-05 1.64011e-05
1.07399e-05 -1.37888e-05 1.55499e-05
-3.54793e-06 -4.22015e-06 9.50065e-06
5.39906e-06 1.13848e-06 9.49893e-06
5.218e-06 3.22284e-06 1.00471e-05
-1.74978e-06 -2.83543e-05 1.78767e-05
1.89204e-06 5.29884e-06 9.58433e-06
-1.13822e-07 6.10494e-06 1.00386e-05
-3.78488e-06 4.1277e-06 9.57829e-06
-5.62262e-06 3.03415e-06 1.02851e-05
-5.16542e-06 1.04066e-06 9.2135e-06
-7.52716e-06 -6.17384e-08 1.11723e-05
-4.33433e-06 -8.1027e-07 8.38175e-06
-3.10856e-06 1.87232e-06 7.37397e-06
-2.20809e-05 -3.6077e-06 1.65156e-05
2.3406e-05 -1.56878e-05 1.7836e-05
-1.50718e-06 2.11677e-05 1.66819e-05
2.12614e-05 -8.45184e-08 1.62256e-05
1.76218e-05 -1.64678e-06 1.55812e-05
1.73475e-05 -4.94161e-06 1.57705e-05
2.18913e-05 -7.45102e-06 1.69134e-05
-2.3182e-05 -1.42544e-05 1.78326e-05
1.73244e-05 1.64885e-06 1.55083e-05
-1.73399e-06 2.84728e-05 1.7894e-05
-4.22067e-07 3.68338e-06 7.49521e-06
2.37717e-05 1.57422e-05 1.78844e-05
-1.74971e-05 1.56421e-05 1.69748e-05
-1.06261e-05 -1.84659e-05 1.62549e-05
-1.00994e-05 -1.43421e-05 1.55715e-05
-7.50768e-06 -1.60946e-05 1.56219e-05
-7.32204e-06 -2.01203e-05 1.63951e-05
-1.07043e-05 1.8535e-05 1.62666e-05
-1.03472e-05 1.43839e-05 1.56192e-05
-7.77256e-06 2.04922e-05 1.6444e-05
-4.25294e-06 1.86095e-05 1.60528e-05
1.07596e-05 1.83452e-05 1.6226e-05
1.38915e-05 1.69347e-05 1.64308e-05
1.40418e-05 1.29727e-05 1.60511e-05
-7.36149e-06 1.62881e-05 1.56383e-05
1.0525e-05 1.45469e-05 1.5645e-05
7.74866e-06 1.60921e-05 1.56138e-05
-3.11643e-06 -1.89875e-06 7.3931e-06
-7.25756e-06 -1.24219e-05 1.4625e-05
3.00863e-06 4.03598e-08 6.60091e-06
4.87252e-06 1.35226e-05 1.46179e-05
1.40759e-05 -2.26036e-06 1.45703e-05
-1.72896e-05 -1.52166e-05 1.69453e-05
-1.73663e-05 2.42027e-06 1.55976e-05
-1.22046e-05 8.91184e-06 1.49433e-05
-7.70555e-06 -2.2925e-06 1.15545e-05
-1.24496e-05 1.18125e-05 1.55398e-05
-1.42734e-07 -3.75419e-06 7.5541e-06
2.73021e-06 2.27206e-06 7.25185e-06
-2.00384e-06 -1.46503e-05 1.48079e-05
9.36499e-06 -1.00681e-05 1.43892e-05
1.38606e-05 3.15778e-06 1.45659e-05
-7.33996e-06 1.11993e-05 1.42601e-05
4.99717e-06 -1.27747e-05 1.43691e-05
1.10318e-05 1.04304e-05 1.49195e-05
-3.59641e-06 1.46851e-05 1.49079e-05
-4.63542e-06 -1.66167e-05 1.55487e-05
-1.95069e-05 1.28923e-05 1.71612e-05
-2.31267e-05 1.48581e-05 1.78433e-05
-1.29048e-05 -1.2686e-05 1.58124e-05
3.76077e-06 -1.58611e-06 7.90687e-06
1.76438e-06 2.92226e-06 7.08436e-06
-9.23039e-06 -1.06094e-05 1.45316e-05
1.72773e-06 -2.82314e-06 6.931e-06
9.94727e-07 2.41167e-05 1.73084e-05
2.13678e-05 1.11938e-05 1.72985e-05
-1.46645e-05 -7.95332e-06 1.54852e-05
1.37079e-05 -4.78628e-06 1.46905e-05
-1.90987e-06 -2.17628e-05 1.68026e-05
1.80602e-05 -8.41899e-06 1.63406e-05
-1.66788e-05 -6.32851e-06 1.57823e-05
-4.32898e-07 -1.92231e-06 4.79843e-06
-1.80536e-06 2.99542e-06 7.17711e-06
-2.50518e-05 -1.29817e-05 1.79222e-05
-2.51271e-05 -1.45072e-05 1.8002e-05
-2.5045e-05 1.30336e-05 1.7906e-05
-2.51179e-05 1.46499e-05 1.79821e-05
-1.64844e-06 -3.12482e-06 7.20985e-06
6.32789e-06 1.13683e-05 1.40764e-05
5.33709e-07 -2.40859e-05 1.73021e-05
-5.22774e-07 1.80953e-06 4.64497e-06
7.4074e-06 -1.43435e-05 1.51522e-05
2.33027e-05 -1.32093e-05 1.77287e-05
2.36325e-05 -1.05375e-05 1.74907e-05
1.19883e-05 -1.82108e-05 1.62932e-05
1.473e-05 -1.01466e-05 1.57955e-05
-1.0027e-05 1.00124e-06 1.27545e-05
-1.74e-06 -8.15897e-07 4.72342e-06
7.69059e-07 3.70833e-06 7.57308e-06
2.34306e-06 -1.99715e-06 6.55523e-06
2.01564e-05 5.89777e-06 1.64535e-05
5.07006e-06 2.05958e-05 1.64959e-05
3.42118e-07 -2.76799e-05 1.78539e-05
-1.73122e-06 7.09107e-07 4.60629e-06
-3.21149e-06 6.23044e-07 6.82409e-06
3.57719e-06 1.4754e-06 7.63656e-06
4.99225e-07 2.83236e-05 1.79272e-05
2.47602e-05 1.3734e-05 1.79184e-05
-2.03282e-05 1.55357e-05 1.7429e-05
1.1787e-06 1.36447e-06 4.45982e-06
-2.06395e-05 -1.57283e-05 1.75275e-05
-1.89987e-05 -2.32216e-06 1.59461e-05
-1.9559e-05 -5.58494e-06 1.63322e-05
9.05677e-07 -3.24773e-06 7.00605e-06
-4.36599e-06 -1.97892e-05 1.63218e-05
-7.93722e-06 1.38343e-05 1.5101e-05
1.16574e-06 -1.30418e-06 4.33926e-06
1.19343e-05 -1.12283e-05 1.52921e-05
6.13304e-06 -2.26959e-05 1.68204e-05
-1.4522e-05 1.43553e-05 1.63235e-05
7.92902e-06 1.33211e-05 1.49479e-05
1.79366e-06 8.58739e-07 -4.5522e-06
1.7378e-06 -8.25108e-07 -4.46075e-06
4.3195e-07 1.84961e-06 -4.49507e-06
4.36094e-07 -1.78062e-06 -4.35604e-06
-1.84747e-06 2.09629e-08 -4.42232e-06
-1.12308e-06 -1.30886e-06 -4.15096e-06
-1.1592e-06 1.30679e-06 -4.19974e-06
-2.25128e-05 -7.28759e-06 -1.69998e-05
-2.21962e-05 7.37148e-06 -1.69684e-05
-4.8604e-06 2.28983e-05 -1.69368e-05
-4.85792e-06 -2.31314e-05 -1.69637e-05
1.7421e-05 1.56353e-05 -1.69297e-05
1.75686e-05 -1.55363e-05 -1.69389e-05
2.10733e-05 3.16384e-06 -1.63242e-05
-1.3953e-05 1.71511e-05 -1.64782e-05
-1.3591e-05 -1.67411e-05 -1.64097e-05
7.76777e-06 1.98193e-05 -1.6331e-05
7.68479e-06 -2.03097e-05 -1.64023e-05
2.14721e-05 -3.44369e-06 -1.64e-05
-2.11025e-05 6.58808e-09 -1.62465e-05
-2.24201e-05 1.09996e-05 -1.74535e-05
-1.87507e-05 9.2546e-06 -1.66269e-05
-1.79826e-05 5.79538e-06 -1.60361e-05
-1.49838e-05 7.44825e-06 -1.54861e-05
-1.42243e-05 4.30767e-06 -1.48294e-05
-1.15325e-05 5.74382e-06 -1.40945e-05
-1.08579e-05 3.0687e-06 -1.33733e-05
-8.40039e-06 4.30482e-06 -1.24041e-05
-9.0587e-06 7.01332e-06 -1.34561e-05
-6.20403e-06 5.48845e-06 -1.16887e-05
-6.82822e-06 8.24935e-06 -1.30797e-05
-4.28135e-06 6.67483e-06 -1.14502e-05
-4.79995e-06 9.60981e-06 -1.30936e-05
-2.40084e-06 7.99326e-06 -1.17227e-05
-2.81282e-06 1.11671e-05 -1.34746e-05
-4.75405e-07 9.59518e-06 -1.25007e-05
-7.38345e-07 1.29968e-05 -1.41415e-05
1.73106e-06 1.15176e-05 -1.35347e-05
-5.53462e-06 1.27002e-05 -1.44367e-05
1.68506e-06 8.22388e-06 -1.17473e-05
4.00413e-06 1.01208e-05 -1.31507e-05
3.70531e-06 7.09787e-06 -1.1478e-05
6.06734e-06 8.96657e-06 -1.31131e-05
5.76676e-06 6.10672e-06 -1.17353e-05
8.35799e-06 8.02023e-06 -1.34917e-05
8.10556e-06 5.19521e-06 -1.25001e-05
1.09539e-05 7.09697e-06 -1.41467e-05
1.07458e-05 4.32275e-06 -1.34988e-05
8.53043e-06 1.10374e-05 -1.44605e-05
7.93761e-06 2.64371e-06 -1.17271e-05
1.06459e-05 1.73718e-06 -1.31038e-05
7.9486e-06 3.58756e-07 -1.14553e-05
1.08063e-05 -7.59104e-07 -1.31239e-05
8.11155e-06 -1.93778e-06 -1.17089e-05
1.10981e-05 -3.31281e-06 -1.34836e-05
8.46964e-06 -4.42393e-06 -1.24438e-05
1.15036e-05 -6.00281e-06 -1.41091e-05
8.95547e-06 -7.13803e-06 -1.34278e-05
6.14746e-06 -5.49436e-06 -1.1641e-05
6.64442e-06 -8.30077e-06 -1.3018e-05
4.10516e-06 -6.58844e-06 -1.13107e-05
4.52331e-06 -9.55076e-06 -1.2988e-05
2.24227e-06 -7.8582e-06 -1.15971e-05
2.48481e-06 -1.10018e-05 -1.33507e-05
2.25289e-07 -9.37359e-06 -1.23533e-05
3.30011e-07 -1.27697e-05 -1.40336e-05
-1.91542e-06 -1.11506e-05 -1.33768e-05
-1.84105e-06 -7.92154e-06 -1.15819e-05
-4.16785e-06 -9.87475e-06 -1.30848e-05
-3.8139e-06 -6.73043e-06 -1.13169e-05
-6.34555e-06 -8.66193e-06 -1.30991e-05
-5.89124e-06 -5.69795e-06 -1.16282e-05
-8.49963e-06 -7.43572e-06 -1.33794e-05
-8.16746e-06 -4.72801e-06 -1.24084e-05
-1.10955e-05 -6.4027e-06 -1.40697e-05
-4.37161e-06 -1.31231e-05 -1.44334e-05
-1.08087e-05 -3.65065e-06 -1.3439e-05
7.22604e-06 -1.13726e-05 -1.42727e-05
-7.74163e-06 1.98267e-06 -1.14927e-05
-1.3216e-05 1.03505e-06 -1.42107e-05
1.72911e-06 1.50827e-05 -1.4952e-05
1.37679e-05 4.62233e-07 -1.43876e-05
1.3843e-05 6.10004e-06 -1.49315e-05
-9.69396e-06 1.01962e-05 -1.45323e-05
-5.41596e-06 -3.19763e-06 -1.0182e-05
-1.17135e-05 -9.29725e-06 -1.4889e-05
1.18823e-05 -8.76013e-06 -1.47869e-05
1.47816e-05 -7.47353e-06 -1.54032e-05
-1.39596e-05 -5.24384e-06 -1.48615e-05
2.7958e-06 -1.4516e-05 -1.4796e-05
4.2456e-07 -1.64993e-05 -1.53976e-05
3.51841e-06 4.3969e-06 -9.58099e-06
1.40105e-05 9.29897e-06 -1.54914e-05
1.79306e-05 8.14489e-06 -1.63004e-05
-1.56753e-05 1.13952e-05 -1.62333e-05
-1.09408e-06 1.67689e-05 -1.54951e-05
1.90685e-06 1.96214e-05 -1.63108e-05
-2.09185e-06 5.22004e-06 -9.59749e-06
5.5539e-06 -7.84598e-07 -9.59403e-06
3.58593e-06 -3.68354e-06 -9.08188e-06
-1.77962e-06 -5.17854e-06 -9.4495e-06
-2.24686e-05 -1.10107e-05 -1.74742e-05
-1.8798e-05 -9.24134e-06 -1.66509e-05
2.11477e-05 1.41647e-05 -1.75055e-05
2.07536e-05 -1.43175e-05 -1.74354e-05
-1.7646e-06 -2.54463e-05 -1.75108e-05
-1.68213e-06 2.54104e-05 -1.75155e-05
1.77129e-05 -1.19068e-05 -1.6687e-05
2.06456e-05 -1.0751e-05 -1.71159e-05
3.77562e-06 -1.8985e-05 -1.61392e-05
7.68526e-07 -2.03456e-05 -1.64827e-05
-1.94049e-05 -1.26504e-05 -1.7143e-05
-1.3731e-05 -2.3069e-06 -1.44717e-05
-1.65926e-05 -3.70139e-06 -1.54774e-05
-1.03757e-05 -1.09638e-06 -1.29519e-05
2.44519e-05 1.10727e-05 -1.76515e-05
2.54974e-05 -1.24031e-05 -1.7848e-05
2.64924e-06 2.67258e-05 -1.76604e-05
2.521e-06 -2.64134e-05 -1.76292e-05
3.33945e-06 -2.30317e-05 -1.7029e-05
-2.05388e-06 -1.83197e-05 -1.59507e-05
4.05904e-06 2.37911e-05 -1.71303e-05
2.2614e-05 8.37917e-06 -1.71191e-05
4.61356e-06 1.73132e-05 -1.57271e-05
1.44269e-05 -1.31193e-05 -1.61372e-05
-1.57875e-05 -1.09846e-05 -1.62144e-05
-1.67996e-05 -3.81423e-07 -1.53772e-05
1.73058e-05 4.68743e-06 -1.57255e-05
6.55215e-08 -6.38725e-06 -1.02673e-05
1.7417e-06 -4.84841e-06 -9.09238e-06
5.8504e-06 -2.93548e-06 -1.0378e-05
-2.1444e-05 3.75046e-06 -1.64587e-05
5.7293e-06 -1.62743e-05 -1.55075e-05
9.08336e-06 -1.74988e-05 -1.59973e-05
1.7572e-05 1.18816e-05 -1.66722e-05
1.39941e-05 -1.63821e-05 -1.64011e-05
1.07399e-05 -1.37888e-05 -1.55499e-05
-3.54793e-06 -4.22015e-06 -9.50065e-06
5.39906e-06 1.13848e-06 -9.49893e-06
5.218e-06 3.22284e-06 -1.00471e-05
-1.74978e-06 -2.83543e-05 -1.78767e-05
1.89204e-06 5.29884e-06 -9.58433e-06
-1.13822e-07 6.10494e-06 -1.00386e-05
-3.78488e-06 4.1277e-06 -9.57829e-06
-5.62262e-06 3.03415e-06 -1.02851e-05
-5.16542e-06 1.04066e-06 -9.2135e-06
-7.52716e-06 -6.17384e-08 -1.11723e-05
-4.33433e-06 -8.1027e-07 -8.38175e-06
-3.10856e-06 1.87232e-06 -7.37397e-06
-2.20809e-05 -3.6077e-06 -1.65156e-05
2.3406e-05 -1.56878e-05 -1.7836e-05
-1.50718e-06 2.11677e-05 -1.66819e-05
2.12614e-05 -8.45184e-08 -1.62256e-05
1.76218e-05 -1.64678e-06 -1.55812e-05
1.73475e-05 -4.94161e-06 -1.57705e-05
2.18913e-05 -7.45102e-06 -1.69134e-05
-2.3182e-05 -1.42544e-05 -1.78326e-05
1.73244e-05 1.64885e-06 -1.55083e-05
-1.73399e-06 2.84728e-05 -1.7894e-05
-4.22067e-07 3.68338e-06 -7.49521e-06
2.37717e-05 1.57422e-05 -1.78844e-05
-1.74971e-05 1.56421e-05 -1.69748e-05
-1.06261e-05 -1.84659e-05 -1.62549e-05
-1.00994e-05 -1.43421e-05 -1.55715e-05
-7.50768e-06 -1.60946e-05 -1.56219e-05
-7.32204e-06 -2.01203e-05 -1.63951e-05
-1.07043e-05 1.8535e-05 -1.62666e-05
-1.03472e-05 1.43839e-05 -1.56192e-05
-7.77256e-06 2.04922e-05 -1.6444e-05
-4.25294e-06 1.86095e-05 -1.60528e-05
1.07596e-05 1.83452e-05 -1.6226e-05
1.38915e-05 1.69347e-05 -1.64308e-05
1.40418e-05 1.29727e-05 -1.60511e-05
-7.36149e-06 1.62881e-05 -1.56383e-05
1.0525e-05 1.45469e-05 -1.5645e-05
7.74866e-06 1.60921e-05 -1.56138e-05
-3.11643e-06 -1.89875e-06 -7.3931e-06
-7.25756e-06 -1.24219e-05 -1.4625e-05
3.00863e-06 4.03598e-08 -6.60091e-06
4.87252e-06 1.35226e-05 -1.46179e-05
1.40759e-05 -2.26036e-06 -1.45703e-05
-1.72896e-05 -1.52166e-05 -1.69453e-05
-1.73663e-05 2.42027e-06 -1.55976e-05
-1.22046e-05 8.91184e-06 -1.49433e-05
-7.70555e-06 -2.2925e-06 -1.15545e-05
-1.24496e-05 1.18125e-05 -1.55398e-05
-1.42734e-07 -3.75419e-06 -7.5541e-06
2.73021e-06 2.27206e-06 -7.25185e-06
-2.00384e-06 -1.46503e-05 -1.48079e-05
9.36499e-06 -1.00681e-05 -1.43892e-05
1.38606e-05 3.15778e-06 -1.45659e-05
-7.33996e-06 1.11993e-05 -1.42601e-05
4.99717e-06 -1.27747e-05 -1.43691e-05
1.10318e-05 1.04304e-05 -1.49195e-05
-3.59641e-06 1.46851e-05 -1.49079e-05
-4.63542e-06 -1.66167e-05 -1.55487e-05
-1.95069e-05 1.28923e-05 -1.71612e-05
-2.31267e-05 1.48581e-05 -1.78433e-05
-1.29048e-05 -1.2686e-05 -1.58124e-05
3.76077e-06 -1.58611e-06 -7.90687e-06
1.76438e-06 2.92226e-06 -7.08436e-06
-9.23039e-06 -1.06094e-05 -1.45316e-05
1.72773e-06 -2.82314e-06 -6.931e-06
9.94727e-07 2.41167e-05 -1.73084e-05
2.13678e-05 1.11938e-05 -1.72985e-05
-1.46645e-05 -7.95332e-06 -1.54852e-05
1.37079e-05 -4.78628e-06 -1.46905e-05
-1.90987e-06 -2.17628e-05 -1.68026e-05
1.80602e-05 -8.41899e-06 -1.63406e-05
-1.66788e-05 -6.32851e-06 -1.57823e-05
-4.32898e-07 -1.92231e-06 -4.79843e-06
-1.80536e-06 2.99542e-06 -7.17711e-06
-2.50518e-05 -1.29817e-05 -1.79222e-05
-2.51271e-05 -1.45072e-05 -1.8002e-05
-2.5045e-05 1.30336e-05 -1.7906e-05
-2.51179e-05 1.46499e-05 -1.79821e-05
-1.64844e-06 -3.12482e-06 -7.20985e-06
6.32789e-06 1.13683e-05 -1.40764e-05
5.33709e-07 -2.40859e-05 -1.73021e-05
-5.22774e-07 1.80953e-06 -4.64497e-06
7.4074e-06 -1.43435e-05 -1.51522e-05
2.33027e-05 -1.32093e-05 -1.77287e-05
2.36325e-05 -1.05375e-05 -1.74907e-05
1.19883e-05 -1.82108e-05 -1.62932e-05
1.473e-05 -1.01466e-05 -1.57955e-05
-1.0027e-05 1.00124e-06 -1.27545e-05
-1.74e-06 -8.15897e-07 -4.72342e-06
7.69059e-07 3.70833e-06 -7.57308e-06
2.34306e-06 -1.99715e-06 -6.55523e-06
2.01564e-05 5.89777e-06 -1.64535e-05
5.07006e-06 2.05958e-05 -1.64959e-05
3.42118e-07 -2.76799e-05 -1.78539e-05
-1.73122e-06 7.09107e-07 -4.60629e-06
-3.21149e-06 6.23044e-07 -6.82409e-06
3.57719e-06 1.4754e-06 -7.63656e-06
4.99225e-07 2.83236e-05 -1.79272e-05
2.47602e-05 1.3734e-05 -1.79184e-05
-2.03282e-05 1.55357e-05 -1.7429e-05
1.1787e-06 1.36447e-06 -4.45982e-06
-2.06395e-05 -1.57283e-05 -1.75275e-05
-1.89987e-05 -2.32216e-06 -1.59461e-05
-1.9559e-05 -5.58494e-06 -1.63322e-05
9.05677e-07 -3.24773e-06 -7.00605e-06
-4.36599e-06 -1.97892e-05 -1.63218e-05
-7.93722e-06 1.38343e-05 -1.5101e-05
1.16574e-06 -1.30418e-06 -4.33926e-06
1.19343e-05 -1.12283e-05 -1.52921e-05
6.13304e-06 -2.26959e-05 -1.68204e-05
-1.4522e-05 1.43553e-05 -1.63235e-05
7.92902e-06 1.33211e-05 -1.49479e-05
SCALARS effective_fluid_pressure_TPM float
LOOKUP_TABLE default
665
665
665
665
665
665
665
665
665
665
665
665
665
665
133
665
665
665
665
665
665
665
665
665
665
665
665
665
665
133
665
560.316
520.659
502.8
502.57
519.786
559.936
665
561.982
520.754
503.242
503.352
520.686
561.604
665
559.603
519.657
502.744
502.962
521.155
561.62
665
558.859
519.001
501.533
502.229
518.85
559.448
665
558.499
519.941
501.865
501.797
519.374
557.939
665
558.656
519.955
502.038
501.899
519.362
559.662
133
133
133
133
133
133
665
560.316
520.659
502.8
502.57
519.786
559.936
665
561.982
520.754
503.242
503.352
520.686
561.604
665
559.603
519.657
502.744
502.962
521.155
561.62
665
558.859
519.001
501.533
502.229
518.85
559.448
665
558.499
519.941
501.865
501.797
519.374
557.939
665
558.656
519.955
502.038
501.899
519.362
559.662
133
133
133
133
133
133
228.254
226.325
227.038
224.107
225.522
219.844
220.86
529.16
528.169
526.548
527.928
526.576
527.629
498.695
503.542
501.58
498.936
501.453
501.234
494.316
562.498
518.974
495.02
480.726
461.346
443.266
425.034
402.108
427.259
385.254
417.726
379.601
417.89
385.939
427.375
404.286
444.369
429.064
450.246
386.548
419.289
380.196
418.301
386.178
427.748
404.214
444.48
428.148
450.842
386.023
418.153
379.612
418.509
385.546
427.584
402.908
443.542
426.44
384.04
416.125
376.296
415.333
383.012
424.406
400.833
441.692
425.214
382.748
417.766
376.56
418.083
383.834
425.254
402.201
442.664
450.636
426.713
445.994
380.721
444.66
465.276
448.728
464.749
453.397
350.897
463.491
461.022
478.429
462.758
460.628
478.334
337.271
480.806
505.838
503.598
480.872
506.145
337.684
337.496
326.16
334.41
563.374
519.649
567.575
562.36
567.892
567.745
521.798
542.71
498.61
513.722
542.055
451.439
477.556
414.644
579.516
611.026
579.669
576.03
534.544
494.46
538.218
537.914
485.017
498.096
503.315
473.118
485.064
352.741
326.41
355.17
503.424
477.695
488.338
520.867
502.007
477.893
335.535
335.398
347.693
613.444
337.372
347.565
337.259
353.197
329.183
373.248
310.655
288.783
504.69
608.379
521.088
493.7
478.305
486.334
526.482
600.338
476.542
615.897
291.392
615.796
528.71
494.511
478.212
479.386
501.294
494.818
479.413
502.489
495.153
493.722
502.241
495.226
479.86
480.026
479.028
289.29
454.568
271.938
454.976
453.605
526.991
479.449
465.199
382.09
480.485
292.665
286.077
461.455
449.61
453.953
445.831
448.665
463.58
463.237
479.929
543.45
601.699
487.47
300.297
282.457
452.99
279.159
552.232
551.992
480.751
457.994
526.213
508.165
488.567
233.726
284.554
614.504
636.321
615.138
636.677
285.275
441.316
553.073
230.482
467.527
590.26
566.026
495.791
490.026
410.022
232.116
293.091
271.122
507.873
509.171
607.812
229.66
276.972
294.426
618.876
618.789
558.507
226.519
562.52
488.289
503.372
280.842
504.043
466.354
224.004
473.561
519.558
502.958
462.42
228.254
226.325
227.038
224.107
225.522
219.844
220.86
529.16
528.169
526.548
527.928
526.576
527.629
498.695
503.542
501.58
498.936
501.453
501.234
494.316
562.498
518.974
495.02
480.726
461.346
443.266
425.034
402.108
427.259
385.254
417.726
379.601
417.89
385.939
427.375
404.286
444.369
429.064
450.246
386.548
419.289
380.196
418.301
386.178
427.748
404.214
444.48
428.148
450.842
386.023
418.153
379.612
418.509
385.546
427.584
402.908
443.542
426.44
384.04
416.125
376.296
415.333
383.012
424.406
400.833
441.692
425.214
382.748
417.766
376.56
418.083
383.834
425.254
402.201
442.664
450.636
426.713
445.994
380.721
444.66
465.276
448.728
464.749
453.397
350.897
463.491
461.022
478.429
462.758
460.628
478.334
337.271
480.806
505.838
503.598
480.872
506.145
337.684
337.496
326.16
334.41
563.374
519.649
567.575
562.36
567.892
567.745
521.798
542.71
498.61
513.722
542.055
451.439
477.556
414.644
579.516
611.026
579.669
576.03
534.544
494.46
538.218
537.914
485.017
498.096
503.315
473.118
485.064
352.741
326.41
355.17
503.424
477.695
488.338
520.867
502.007
477.893
335.535
335.398
347.693
613.444
337.372
347.565
337.259
353.197
329.183
373.248
310.655
288.783
504.69
608.379
521.088
493.7
478.305
486.334
526.482
600.338
476.542
615.897
291.392
615.796
528.71
494.511
478.212
479.386
501.294
494.818
479.413
502.489
495.153
493.722
502.241
495.226
479.86
480.026
479.028
289.29
454.568
271.938
454.976
453.605
526.991
479.449
465.199
382.09
480.485
292.665
286.077
461.455
449.61
453.953
445.831
448.665
463.58
463.237
479.929
543.45
601.699
487.47
300.297
282.457
452.99
279.159
552.232
551.992
480.751
457.994
526.213
508.165
488.567
233.726
284.554
614.504
636.321
615.138
636.677
285.275
441.316
553.073
230.482
467.527
590.26
566.026
495.791
490.026
410.022
232.116
293.091
271.122
507.873
509.171
607.812
229.66
276.972
294.426
618.876
618.789
558.507
226.519
562.52
488.289
503.372
280.842
504.043
466.354
224.004
473.561
519.558
502.958
462.42

CELL_DATA 563
TENSORS stress float
164.609 -24.9203 -5.42855e-12
-24.9203 28.1481 -1.72543e-12
-5.42855e-12 -1.72543e-12 -12.6046

-40.3384 -21.3202 2.78947e-12
-21.3202 -7.35469 6.62581e-13
2.78947e-12 6.62581e-13 -10.2315

-9.93985 28.0431 1.893e-12
28.0431 -1.11028 2.88954e-13
1.893e-12 2.88954e-13 -6.35994

-40.4267 -29.8427 5.11739e-13
-29.8427 -12.8459 -1.50709e-12
5.11739e-13 -1.50709e-12 -10.5979

-22.6925 19.9309 -8.88178e-13
19.9309 -1.92241 4.56131e-12
-8.88178e-13 4.56131e-12 -23.0216

-27.1392 -18.0743 -1.57267e-12
-18.0743 15.8879 -1.46786e-12
-1.57267e-12 -1.46786e-12 -6.41071

161.261 26.4845 -4.26326e-12
26.4845 28.0248 3.43429e-14
-4.26326e-12 3.43429e-14 -13.2634

-5.96131 29.9578 4.20937e-12
29.9578 -10.112 2.21512e-12
4.20937e-12 2.21512e-12 -7.27599

34.631 5.48311 -1.76096e-12
5.48311 -19.0945 1.6576e-12
-1.76096e-12 1.6576e-12 -4.12177

11.8603 -7.47757 2.26841e-12
-7.47757 -48.2871 -2.35641e-12
2.26841e-12 -2.35641e-12 -8.94675

104.193 16.3084 -1.82373e-12
16.3084 -8.44347 3.81858e-12
-1.82373e-12 3.81858e-12 -22.4544

-34.6373 -13.4531 -1.75134e-12
-13.4531 18.9658 -1.13805e-12
-1.75134e-12 -1.13805e-12 -7.18025

-6.02587 27.833 -1.69346e-13
27.833 -4.59143 -1.38437e-12
-1.69346e-13 -1.38437e-12 -6.15886

-35.5515 -14.34 -2.84126e-12
-14.34 7.84497 3.75522e-12
-2.84126e-12 3.75522e-12 -9.13109

-23.6537 33.3114 1.15197e-12
33.3114 -24.9942 -2.41066e-13
1.15197e-12 -2.41066e-13 -21.3651

21.3107 0.560969 2.16301e-12
0.560969 -32.3382 -1.49813e-12
2.16301e-12 -1.49813e-12 -5.58932

-48.9595 -17.9691 -3.56471e-12
-17.9691 6.34296 -4.33431e-13
-3.56471e-12 -4.33431e-13 -12.9459

11.6601 -2.6652 1.73284e-12
-2.6652 -43.2485 -1.82817e-13
1.73284e-12 -1.82817e-13 -8.03321

-11.3495 26.6735 6.57252e-13
26.6735 19.5173 -2.69236e-12
6.57252e-13 -2.69236e-12 -6.08905

21.7655 -4.19555 1.38733e-12
-4.19555 -35.2941 1.55801e-13
1.38733e-12 1.55801e-13 -6.74088

-24.4788 8.66854 -9.80845e-13
8.66854 32.1274 5.23078e-12
-9.80845e-13 5.23078e-12 -4.93393

-11.8087 6.28769 6.85198e-12
6.28769 -11.974 5.85028e-12
6.85198e-12 5.85028e-12 -75.6213

22.7431 1.87597 7.33635e-13
1.87597 -33.4685 -5.1766e-13
7.33635e-13 -5.1766e-13 -6.67686

-12.3878 -27.715 4.54599e-12
-27.715 1.59976 5.31131e-13
4.54599e-12 5.31131e-13 -6.60236

21.3043 6.84935 -1.27898e-13
6.84935 -34.3036 -5.41049e-13
-1.27898e-13 -5.41049e-13 -6.80611

-37.905 19.1128 -8.34074e-13
19.1128 2.65397 2.31134e-12
-8.34074e-13 2.31134e-12 -9.45734

106.602 4.18134 -2.79006e-12
4.18134 20.6025 1.30947e-12
-2.79006e-12 1.30947e-12 -12.0494

-5.30166 30.7457 -1.22865e-12
30.7457 -7.27205 -2.95142e-12
-1.22865e-12 -2.95142e-12 -7.44122

27.8899 37.0741 3.77298e-12
37.0741 26.4691 -1.55372e-12
3.77298e-12 -1.55372e-12 -8.63195

-9.4391 10.3235 5.56858e-12
10.3235 -32.9303 5.70003e-12
5.56858e-12 5.70003e-12 -49.5092

19.8306 14.2168 9.62785e-13
14.2168 -29.3589 2.02653e-13
9.62785e-13 2.02653e-13 -6.00058

-4.21005 -17.7802 -6.93963e-13
-17.7802 59.6572 3.73864e-12
-6.93963e-13 3.73864e-12 -8.47585

66.2825 -42.1014 1.89004e-12
-42.1014 71.1377 1.76451e-12
1.89004e-12 1.76451e-12 -11.2521

-48.21 5.98677 5.24275e-13
5.98677 7.2696 -2.21423e-12
5.24275e-13 -2.21423e-12 -41.0379

-26.2912 -4.8407 -8.70267e-13
-4.8407 1.75672 2.4641e-12
-8.70267e-13 2.4641e-12 -37.8028

-1.46678 21.0279 -6.64594e-12
21.0279 -39.5065 2.60281e-12
-6.64594e-12 2.60281e-12 -41.1037

-43.9761 5.06752 -8.11795e-13
5.06752 0.514227 5.63756e-12
-8.11795e-13 5.63756e-12 -52.1916

-2.76005 -9.16994 -2.81434e-12
-9.16994 -20.7699 -2.10748e-13
-2.81434e-12 -2.10748e-13 -35.8972

-3.97409 -27.998 -1.09956e-12
-27.998 -4.61044 1.43885e-12
-1.09956e-12 1.43885e-12 -5.99419

65.5963 41.5207 -4.3201e-12
41.5207 73.1654 -3.68535e-12
-4.3201e-12 -3.68535e-12 -10.9639

60.1546 -17.9489 -2.75691e-12
-17.9489 0.117139 -2.03748e-12
-2.75691e-12 -2.03748e-12 -8.04984

-41.8038 -3.70607 -1.52397e-12
-3.70607 -1.18565 -1.9611e-12
-1.52397e-12 -1.9611e-12 -52.7264

-14.5939 19.5556 -1.65712e-12
19.5556 -28.5517 -1.22332e-12
-1.65712e-12 -1.22332e-12 -52.8346

18.1409 -12.2732 2.39098e-12
-12.2732 -29.8987 1.53329e-12
2.39098e-12 1.53329e-12 -6.22277

38.1728 -43.2986 4.54392e-12
-43.2986 41.8008 9.87654e-13
4.54392e-12 9.87654e-13 -14.5589

58.1433 -18.0632 -3.90443e-12
-18.0632 -2.30254 3.77653e-12
-3.90443e-12 3.77653e-12 -7.91342

-21.4415 17.0855 1.92572e-12
17.0855 30.327 -1.46964e-12
1.92572e-12 -1.46964e-12 -5.72799

-11.3724 19.3388 -3.02543e-12
19.3388 25.5104 -3.60304e-12
-3.02543e-12 -3.60304e-12 -3.92141

20.7911 -16.3009 -5.90935e-13
-16.3009 -33.114 -6.50295e-13
-5.90935e-13 -6.50295e-13 -7.31135

12.6153 -34.185 4.48649e-12
-34.185 46.4351 -3.9222e-12
4.48649e-12 -3.9222e-12 -10.3971

62.3594 19.1816 -7.35412e-13
19.1816 2.81039 1.22391e-12
-7.35412e-13 1.22391e-12 -8.41378

46.5131 -25.2881 -3.64982e-12
-25.2881 5.13416 -4.28191e-12
-3.64982e-12 -4.28191e-12 -5.60978

-31.8956 19.4857 -1.73683e-12
19.4857 -4.28553 9.43245e-13
-1.73683e-12 9.43245e-13 -26.0856

37.0388 29.649 2.11623e-12
29.649 14.5126 -7.80413e-13
2.11623e-12 -7.80413e-13 -5.43221

-27.4499 -21.8128 -3.15333e-12
-21.8128 -8.2283 4.81698e-13
-3.15333e-12 4.81698e-13 -25.248

64.868 -42.7108 1.27898e-13
-42.7108 44.0796 3.73035e-12
1.27898e-13 3.73035e-12 -9.50208

-27.7496 5.45972 -3.71111e-12
5.45972 2.66932 -5.29502e-12
-3.71111e-12 -5.29502e-12 -38.3084

-5.55756 -5.32972 -4.18421e-12
-5.32972 57.3875 -9.45022e-13
-4.18421e-12 -9.45022e-13 -5.44924

-0.200145 10.3842 5.94073e-12
10.3842 -24.8481 -3.93077e-12
5.94073e-12 -3.93077e-12 -38.37

-26.4848 21.4129 -1.16055e-12
21.4129 12.2195 5.76132e-13
-1.16055e-12 5.76132e-13 -6.86931

4.72645 5.75387 -7.588e-13
5.75387 -56.04 7.4829e-13
-7.588e-13 7.4829e-13 -13.9806

0.539773 11.4589 2.17781e-12
11.4589 -34.0565 3.60482e-12
2.17781e-12 3.60482e-12 -14.8396

106.343 31.8195 -7.01779e-12
31.8195 37.8326 -2.7119e-12
-7.01779e-12 -2.7119e-12 -7.4897

-35.4917 -6.03513 1.16233e-12
-6.03513 10.6012 -1.16884e-12
1.16233e-12 -1.16884e-12 -13.4788

-35.3599 9.5197 -3.18604e-12
9.5197 1.23361 4.93087e-12
-3.18604e-12 4.93087e-12 -14.9599

-42.5875 -2.88078 3.54709e-12
-2.88078 21.1109 3.80318e-12
3.54709e-12 3.80318e-12 -11.2386

-44.9077 23.402 8.14164e-13
23.402 -5.89261 -1.64313e-13
8.14164e-13 -1.64313e-13 -13.9216

9.97104 8.46348 -3.07843e-12
8.46348 -42.3777 -1.86917e-12
-3.07843e-12 -1.86917e-12 -9.07757

-12.3342 -28.2391 8.17124e-14
-28.2391 1.6874 -1.63602e-12
8.17124e-14 -1.63602e-12 -6.67352

1.30886 -1.71123 -1.55431e-14
-1.71123 -55.4562 -2.50903e-12
-1.55431e-14 -2.50903e-12 -11.3037

-31.8851 -19.2618 4.91459e-13
-19.2618 -4.5949 2.21985e-12
4.91459e-13 2.21985e-12 -25.955

-27.9754 21.3078 -1.8634e-12
21.3078 -8.35814 -1.55288e-12
-1.8634e-12 -1.55288e-12 -26.0134

-0.651599 -16.5832 3.21387e-12
-16.5832 61.673 -3.10033e-12
3.21387e-12 -3.10033e-12 -7.94868

-0.650114 -27.936 -2.04518e-12
-27.936 -21.3607 -3.09205e-12
-2.04518e-12 -3.09205e-12 -12.7908

-14.0929 -25.1344 -2.0961e-13
-25.1344 7.40683 2.94283e-13
-2.0961e-13 2.94283e-13 -5.23562

91.6769 -31.7102 -4.26799e-12
-31.7102 19.4847 -4.73162e-12
-4.26799e-12 -4.73162e-12 -16.3332

-33.7059 3.22261 1.85888e-12
3.22261 9.19934 4.93353e-12
1.85888e-12 4.93353e-12 -18.5634

2.75224 28.9438 -2.25479e-12
28.9438 -24.4245 3.49972e-12
-2.25479e-12 3.49972e-12 -11.3163

-38.4332 19.6641 2.71324e-12
19.6641 5.22974 2.2089e-12
2.71324e-12 2.2089e-12 -9.23481

50.1901 7.99944 -1.75978e-12
7.99944 -16.9634 1.5703e-12
-1.75978e-12 1.5703e-12 -7.06656

60.0309 -33.9351 -1.63306e-12
-33.9351 33.7866 -1.06818e-12
-1.63306e-12 -1.06818e-12 -6.98359

-18.9599 -10.5875 -5.0567e-12
-10.5875 -0.541758 6.88634e-13
-5.0567e-12 6.88634e-13 -25.4314

-33.9261 23.8995 -4.3047e-13
23.8995 -12.0231 1.2486e-12
-4.3047e-13 1.2486e-12 -14.5401

58.1557 -32.3834 1.12739e-12
-32.3834 18.0913 2.34361e-12
1.12739e-12 2.34361e-12 -10.1336

66.859 10.7909 1.36424e-12
10.7909 8.51328 8.78112e-13
1.36424e-12 8.78112e-13 -5.08419

7.6741 -21.2057 4.4856e-12
-21.2057 88.4636 1.26927e-11
4.4856e-12 1.26927e-11 -11.8622

-33.9854 14.4256 -1.21902e-12
14.4256 20.2383 2.72019e-12
-1.21902e-12 2.72019e-12 -7.54606

8.47552 23.1429 -4.10338e-13
23.1429 -26.0737 -5.40989e-12
-4.10338e-13 -5.40989e-12 -11.2989

34.8684 42.1981 4.73814e-12
42.1981 46.1989 9.10679e-13
4.73814e-12 9.10679e-13 -14.4204

-4.39443 16.5071 4.78765e-12
16.5071 -35.5419 3.18486e-12
4.78765e-12 3.18486e-12 -73.2879

-5.97965 -4.1083 2.84632e-12
-4.1083 57.9479 4.41721e-13
2.84632e-12 4.41721e-13 -5.44143

-1.81881 -16.6323 -1.26819e-11
-16.6323 -39.4021 6.22095e-12
-1.26819e-11 6.22095e-12 -74.1112

-3.32941 -27.3349 -9.38508e-13
-27.3349 -30.0298 -1.53596e-12
-9.38508e-13 -1.53596e-12 -21.5542

8.96716 27.4245 -2.81257e-12
27.4245 -29.9946 4.28546e-12
-2.81257e-12 4.28546e-12 -11.2569

45.7109 -24.4103 3.68061e-12
-24.4103 5.02446 -5.02383e-12
3.68061e-12 -5.02383e-12 -5.23585

10.0954 31.3228 -2.47447e-12
31.3228 47.1628 -2.40045e-12
-2.47447e-12 -2.40045e-12 -9.64013

14.2724 -10.705 1.10726e-12
-10.705 82.838 -5.28881e-12
1.10726e-12 -5.28881e-12 -6.44689

-38.633 21.9707 4.60965e-13
21.9707 2.94157 3.25044e-12
4.60965e-13 3.25044e-12 -8.56876

1.19268 16.794 2.69325e-12
16.794 -25.7221 -1.99041e-12
2.69325e-12 -1.99041e-12 -18.5676

-26.5376 15.1537 2.15679e-13
15.1537 18.4493 -2.21689e-12
2.15679e-13 -2.21689e-12 -5.70768

43.6585 15.9537 1.16174e-12
15.9537 -7.28478 -1.0895e-13
1.16174e-12 -1.0895e-13 -4.07485

12.577 -21.4722 3.69364e-12
-21.4722 57.9551 -4.83998e-12
3.69364e-12 -4.83998e-12 -4.71381

65.9958 -29.3902 2.34716e-12
-29.3902 18.6435 -9.65746e-13
2.34716e-12 -9.65746e-13 -9.33511

-32.381 -24.5729 3.72887e-12
-24.5729 -7.28159 2.86882e-13
3.72887e-12 2.86882e-13 -8.97601

-22.6668 27.4508 -3.25488e-12
27.4508 -10.35 1.89478e-14
-3.25488e-12 1.89478e-14 -9.2836

-38.3511 23.1875 3.5083e-14
23.1875 1.99108 1.41605e-12
3.5083e-14 1.41605e-12 -8.52466

-51.5533 13.1692 -1.9634e-12
13.1692 11.927 8.13394e-12
-1.9634e-12 8.13394e-12 -16.4662

23.4846 9.37222 1.54898e-12
9.37222 -29.4875 1.02096e-12
1.54898e-12 1.02096e-12 -5.32118

3.76876 -4.665 1.85215e-12
-4.665 79.4373 2.34005e-12
1.85215e-12 2.34005e-12 -9.53124

-44.9399 -36.8333 5.66451e-12
-36.8333 -19.8289 -4.17133e-12
5.66451e-12 -4.17133e-12 -14.7705

-16.0793 27.465 2.84128e-12
27.465 1.34112 -2.3667e-12
2.84128e-12 -2.3667e-12 -6.91431

-5.01509 2.17031 1.97205e-12
2.17031 82.6726 -3.55271e-12
1.97205e-12 -3.55271e-12 -13.431

69.0447 34.6099 2.179e-13
34.6099 15.4966 -3.67114e-14
2.179e-13 -3.67114e-14 -10.7057

-31.3516 -22.9737 -2.35811e-12
-22.9737 -4.63239 9.48575e-13
-2.35811e-12 9.48575e-13 -8.52951

11.7429 5.73296 -1.1496e-12
5.73296 -48.3358 -2.33968e-12
-1.1496e-12 -2.33968e-12 -8.64106

43.0653 27.2037 -7.87518e-13
27.2037 10.4521 1.04154e-12
-7.87518e-13 1.04154e-12 -5.08058

-9.41481 12.7455 5.15588e-13
12.7455 -14.039 -3.94292e-12
5.15588e-13 -3.94292e-12 -37.0408

70.3339 24.3302 -5.19407e-12
24.3302 23.8048 4.53918e-12
-5.19407e-12 4.53918e-12 -6.79938

-10.586 -13.055 4.07111e-12
-13.055 -13.9209 -2.89931e-12
4.07111e-12 -2.89931e-12 -37.3786

-4.37931 0.778524 4.12292e-12
0.778524 59.3975 -5.85014e-13
4.12292e-12 -5.85014e-13 -4.83044

38.3567 -2.23529 -8.37611e-12
-2.23529 -23.8103 -2.70317e-12
-8.37611e-12 -2.70317e-12 -5.83202

3.59373 -15.768 -2.57157e-12
-15.768 -53.9712 -1.48385e-12
-2.57157e-12 -1.48385e-12 -21.1242

-42.2769 24.3881 -1.43131e-12
24.3881 -11.7369 8.87734e-13
-1.43131e-12 8.87734e-13 -11.1673

-46.8123 -13.535 7.49509e-13
-13.535 11.0674 4.23365e-13
7.49509e-13 4.23365e-13 -12.3537

5.81017 -7.99999 -1.20467e-12
-7.99999 -70.9676 9.03277e-13
-1.20467e-12 9.03277e-13 -14.8818

-49.5391 -22.2841 -3.43429e-14
-22.2841 3.74854 -9.1808e-13
-3.43429e-14 -9.1808e-13 -22.1042

-17.4593 -6.59648 -6.25485e-12
-6.59648 -13.1158 -3.62299e-12
-6.25485e-12 -3.62299e-12 -34.7817

-28.7296 -29.9081 1.43322e-12
-29.9081 -9.39986 2.01883e-12
1.43322e-12 2.01883e-12 -8.99579

15.6934 11.4535 -5.9727e-12
11.4535 80.1795 -9.04758e-13
-5.9727e-12 -9.04758e-13 -6.53055

42.2897 -28.1461 2.75691e-12
-28.1461 11.0509 1.70234e-12
2.75691e-12 1.70234e-12 -5.04383

-47.1705 -13.7722 5.84643e-13
-13.7722 4.19614 -3.43429e-14
5.84643e-13 -3.43429e-14 -29.3008

2.96487 0.504422 3.12254e-12
0.504422 -56.8118 -2.31815e-12
3.12254e-12 -2.31815e-12 -11.005

-39.3365 -21.5245 9.6619e-13
-21.5245 -8.85729 9.24298e-13
9.6619e-13 9.24298e-13 -14.7741

-40.1949 25.6977 1.2245e-12
25.6977 -14.6915 -2.52842e-12
1.2245e-12 -2.52842e-12 -11.3107

32.2603 -31.4639 5.40368e-12
-31.4639 38.4291 -4.583e-12
5.40368e-12 -4.583e-12 -4.64798

-31.4688 -7.08506 -1.59843e-12
-7.08506 1.70029 1.02525e-12
-1.59843e-12 1.02525e-12 -40.993

36.6297 -33.0763 -3.48876e-12
-33.0763 72.0265 9.15179e-12
-3.48876e-12 9.15179e-12 -7.14466

16.6126 -19.1795 -6.03369e-13
-19.1795 -25.8695 2.63197e-13
-6.03369e-13 2.63197e-13 -7.13304

1.50259 1.97026 1.26521e-12
1.97026 -51.3914 2.91323e-13
1.26521e-12 2.91323e-13 -15.3741

-12.876 17.8751 1.31983e-12
17.8751 -16.9549 -9.49877e-12
1.31983e-12 -9.49877e-12 -41.0605

10.7132 20.1825 -6.41324e-12
20.1825 59.4535 1.66978e-12
-6.41324e-12 1.66978e-12 -4.35645

4.31843 27.2103 -2.60059e-12
27.2103 -16.2236 -5.4771e-13
-2.60059e-12 -5.4771e-13 -8.12402

30.9043 -24.5113 3.90799e-14
-24.5113 -8.13205 -7.62945e-13
3.90799e-14 -7.62945e-13 -4.87191

-37.7871 -17.8385 -1.51586e-12
-17.8385 2.40087 1.05397e-13
-1.51586e-12 1.05397e-13 -9.86419

55.5131 35.0677 2.56269e-12
35.0677 42.3451 -4.35444e-12
2.56269e-12 -4.35444e-12 -6.63618

-40.0148 -21.831 1.10075e-12
-21.831 2.53687 2.33147e-12
1.10075e-12 2.33147e-12 -9.39371

2.96662 30.8503 -2.39927e-12
30.8503 -17.388 -1.98241e-12
-2.39927e-12 -1.98241e-12 -9.07802

18.5373 -25.2438 -6.98049e-12
-25.2438 -19.4176 -6.75016e-14
-6.98049e-12 -6.75016e-14 -6.34221

-15.6535 -25.1261 -2.63019e-12
-25.1261 5.89565 -6.05086e-12
-2.63019e-12 -6.05086e-12 -5.77525

42.7179 -18.6878 3.22586e-12
-18.6878 -9.1655 -1.02188e-11
3.22586e-12 -1.02188e-11 -5.36884

27.4318 -18.8493 -5.57658e-12
-18.8493 -20.368 -3.26968e-12
-5.57658e-12 -3.26968e-12 -5.68947

-41.3938 -25.3369 2.30068e-12
-25.3369 -14.964 1.61123e-12
2.30068e-12 1.61123e-12 -11.5668

29.7807 35.9687 -1.04331e-12
35.9687 25.2269 2.57098e-12
-1.04331e-12 2.57098e-12 -8.64406

-28.5179 15.3766 -2.18729e-12
15.3766 18.5188 1.13332e-12
-2.18729e-12 1.13332e-12 -5.8737

-23.1079 26.422 1.12207e-12
26.422 -12.5466 -5.03301e-13
1.12207e-12 -5.03301e-13 -9.95783

-42.0964 25.4736 -3.39127e-13
25.4736 -11.5925 2.11401e-12
-3.39127e-13 2.11401e-12 -10.9925

-37.2882 11.6214 -2.36299e-12
11.6214 11.8441 7.15457e-12
-2.36299e-12 7.15457e-12 -9.08026

64.3924 -8.22685 -2.05939e-12
-8.22685 3.19785 -5.44305e-13
-2.05939e-12 -5.44305e-13 -4.25057

8.73397 18.6061 2.44723e-12
18.6061 59.2193 2.86112e-12
2.44723e-12 2.86112e-12 -4.16205

-25.6143 -24.3803 1.31184e-12
-24.3803 0.458468 2.66572e-12
1.31184e-12 2.66572e-12 -7.21527

-1.14145 25.6655 1.90485e-12
25.6655 13.7523 -3.31527e-12
1.90485e-12 -3.31527e-12 -4.08237

32.3784 -35.6286 1.40924e-12
-35.6286 21.7 2.73144e-12
1.40924e-12 2.73144e-12 -8.48578

59.5355 38.3159 4.62326e-12
38.3159 17.8476 -4.63037e-13
4.62326e-12 -4.63037e-13 -13.7221

12.1251 -33.3104 -1.71596e-12
-33.3104 42.913 4.58182e-12
-1.71596e-12 4.58182e-12 -9.5424

30.5511 -31.159 9.10679e-13
-31.159 36.8132 3.79311e-12
9.10679e-13 3.79311e-12 -4.40515

11.7688 -6.83865 -8.60941e-13
-6.83865 -48.8379 1.09853e-12
-8.60941e-13 1.09853e-12 -8.7699

25.2743 30.3411 6.79871e-12
30.3411 41.0886 5.37526e-12
6.79871e-12 5.37526e-12 -4.45565

62.6814 13.2944 1.74794e-12
13.2944 5.22833 3.82538e-12
1.74794e-12 3.82538e-12 -4.30516

-7.02543 13.3786 -1.33197e-12
13.3786 61.3435 4.58063e-12
-1.33197e-12 4.58063e-12 -8.69463

11.7297 -22.3399 -2.53427e-12
-22.3399 55.7626 1.4649e-12
-2.53427e-12 1.4649e-12 -4.30111

-47.2605 -1.09152 1.92202e-12
-1.09152 12.4096 -3.29514e-12
1.92202e-12 -3.29514e-12 -22.162

-5.91876 2.24656 -1.97442e-12
2.24656 59.0037 -2.8848e-12
-1.97442e-12 -2.8848e-12 -5.26215

6.26883 31.0886 3.32889e-12
31.0886 47.8647 3.7564e-12
3.32889e-12 3.7564e-12 -9.6602

-39.7252 12.1078 1.76906e-12
12.1078 12.8448 -3.24422e-12
1.76906e-12 -3.24422e-12 -9.31273

40.7379 -27.6471 6.86858e-14
-27.6471 8.35768 -6.97516e-12
6.86858e-14 -6.97516e-12 -5.6416

7.54002 20.5569 5.03745e-12
20.5569 -47.4668 1.95074e-12
5.03745e-12 1.95074e-12 -16.4816

-3.42108 26.2704 -4.04417e-13
26.2704 -31.4866 4.95233e-12
-4.04417e-13 4.95233e-12 -22.2525

15.7774 -18.5674 2.9825e-12
-18.5674 -30.0127 3.04882e-12
2.9825e-12 3.04882e-12 -8.18263

4.42871 -1.80115 1.41058e-12
-1.80115 -34.133 3.03994e-12
1.41058e-12 3.03994e-12 -24.4394

-14.3395 -31.8116 1.55757e-12
-31.8116 -11.9302 2.89546e-13
1.55757e-12 2.89546e-13 -9.04917

56.2176 23.3273 9.00021e-13
23.3273 0.817032 6.40495e-12
9.00021e-13 6.40495e-12 -8.28765

-27.828 30.1621 1.17713e-12
30.1621 -9.2364 -3.95624e-12
1.17713e-12 -3.95624e-12 -8.80004

-27.0035 29.2058 -3.30994e-13
29.2058 -9.20177 -1.27483e-12
-3.30994e-13 -1.27483e-12 -8.67732

28.6284 30.6603 1.08239e-12
30.6603 40.4055 -5.35868e-12
1.08239e-12 -5.35868e-12 -4.44867

0.343099 27.0849 -2.08959e-12
27.0849 -19.8457 -2.48068e-12
-2.08959e-12 -2.48068e-12 -11.7768

64.5073 3.52508 -1.63662e-12
3.52508 -11.8254 -9.74517e-12
-1.63662e-12 -9.74517e-12 -10.018

-14.8997 31.8172 2.64973e-13
31.8172 -20.7987 -9.31995e-13
2.64973e-13 -9.31995e-13 -12.4473

-37.9439 -12.5997 3.68054e-12
-12.5997 8.18003 1.68458e-12
3.68054e-12 1.68458e-12 -14.0226

-0.475033 24.2782 -2.56299e-12
24.2782 -29.999 2.32525e-12
-2.56299e-12 2.32525e-12 -20.7714

-23.7273 -29.5787 -2.5923e-12
-29.5787 -11.9349 -1.56171e-12
-2.5923e-12 -1.56171e-12 -8.84297

-38.148 -4.89807 -5.36399e-12
-4.89807 18.8466 2.46914e-13
-5.36399e-12 2.46914e-13 -11.7299

69.9439 -24.5559 -1.63425e-13
-24.5559 18.0288 4.65879e-12
-1.63425e-13 4.65879e-12 -7.04414

39.9818 29.6926 2.16716e-12
29.6926 13.4795 5.21183e-12
2.16716e-12 5.21183e-12 -5.2147

-4.29586 14.6962 -3.80821e-12
14.6962 60.5707 7.74728e-12
-3.80821e-12 7.74728e-12 -8.40057

1.61142 -1.13888 -5.64437e-13
-1.13888 -56.1233 8.4858e-13
-5.64437e-13 8.4858e-13 -11.2089

9.61413 0.00222982 -8.74264e-13
0.00222982 -44.7537 -1.2403e-13
-8.74264e-13 -1.2403e-13 -8.43758

-31.0786 23.1238 2.70613e-12
23.1238 -4.33709 -3.53939e-12
2.70613e-12 -3.53939e-12 -8.45803

-34.7625 23.8709 -1.77636e-13
23.8709 -13.1924 -3.91004e-12
-1.77636e-13 -3.91004e-12 -14.8129

-43.3786 -24.3807 -3.82405e-12
-24.3807 -12.6139 -8.37108e-13
-3.82405e-12 -8.37108e-13 -11.4684

-39.0589 -0.67275 1.0165e-12
-0.67275 21.0464 -1.1268e-12
1.0165e-12 -1.1268e-12 -10.4953

-40.8066 25.5903 7.40149e-14
25.5903 -13.2224 7.60355e-13
7.40149e-14 7.60355e-13 -11.172

32.3215 -10.3078 -2.79539e-12
-10.3078 -25.1532 1.08284e-12
-2.79539e-12 1.08284e-12 -6.01383

8.70681 -32.833 -8.53243e-13
-32.833 22.7976 2.64322e-12
-8.53243e-13 2.64322e-12 -6.99167

2.39685 -2.30068 -3.80969e-12
-2.30068 -49.9606 6.06922e-13
-3.80969e-12 6.06922e-13 -14.7725

36.7454 -34.5078 7.08766e-12
-34.5078 24.4796 -5.319e-12
7.08766e-12 -5.319e-12 -7.70885

-38.2938 19.0861 3.53199e-13
19.0861 -7.09368 -3.27471e-12
3.53199e-13 -3.27471e-12 -14.4493

7.87075 -26.4787 3.75996e-12
-26.4787 -27.9943 2.90405e-12
3.75996e-12 2.90405e-12 -10.9688

63.9468 -9.69012 -1.49096e-12
-9.69012 5.67763 1.81484e-12
-1.49096e-12 1.81484e-12 -5.07205

6.04081 -23.1919 2.20624e-12
-23.1919 -35.4681 -1.01578e-12
2.20624e-12 -1.01578e-12 -17.736

0.141361 2.35827 5.3572e-12
2.35827 -56.174 -9.20967e-13
5.3572e-12 -9.20967e-13 -11.5458

-4.06203 -23.3214 8.84626e-13
-23.3214 -23.4116 9.92391e-13
8.84626e-13 9.92391e-13 -16.7199

11.0388 -25.8594 -2.10084e-12
-25.8594 -29.4856 1.35921e-12
-2.10084e-12 1.35921e-12 -9.73338

10.2014 -8.54607 -3.02069e-12
-8.54607 -43.4897 7.51843e-13
-3.02069e-12 7.51843e-13 -9.28111

-35.4182 -23.0681 -8.18012e-13
-23.0681 -12.6458 -7.42665e-13
-8.18012e-13 -7.42665e-13 -15.103

23.6643 -31.3415 2.5698e-12
-31.3415 5.71257 2.72967e-12
2.5698e-12 2.72967e-12 -5.8779

11.0599 -24.5871 -4.40536e-12
-24.5871 -27.4944 1.33316e-12
-4.40536e-12 1.33316e-12 -10.0479

46.6428 10.8643 -2.48572e-12
10.8643 -16.1169 1.19874e-12
-2.48572e-12 1.19874e-12 -6.79954

-14.1861 26.3402 -7.03141e-13
26.3402 -15.6397 3.5764e-12
-7.03141e-13 3.5764e-12 -14.1188

-45.2518 -37.6129 -5.53631e-13
-37.6129 -20.6124 -7.31859e-13
-5.53631e-13 -7.31859e-13 -14.9189

-43.7085 37.2652 1.03029e-12
37.2652 -21.2662 1.81018e-12
1.03029e-12 1.81018e-12 -14.7693

-61.1851 -28.5734 1.11514e-12
-28.5734 -7.49705 -2.57365e-12
1.11514e-12 -2.57365e-12 -15.1994

-58.416 27.0641 -2.18344e-14
27.0641 -6.27168 -1.05101e-12
-2.18344e-14 -1.05101e-12 -14.478

5.60065 -8.52764 -2.51488e-12
-8.52764 -71.0641 2.93099e-13
-2.51488e-12 2.93099e-13 -14.7096

4.39739 9.27365 2.61391e-12
9.27365 -68.8328 -1.03932e-12
2.61391e-12 -1.03932e-12 -14.4375

9.02397 -9.84613 -9.03573e-13
-9.84613 -40.8898 -2.53634e-12
-9.03573e-13 -2.53634e-12 -9.6116

-24.3355 32.1162 -2.36848e-12
32.1162 -24.8101 -2.68603e-12
-2.36848e-12 -2.68603e-12 -21.1453

-25.5229 -32.8542 -3.81117e-12
-32.8542 -25.0961 1.70484e-13
-3.81117e-12 1.70484e-13 -21.4695

-53.92 16.0685 4.61113e-13
16.0685 3.40179 1.5706e-12
4.61113e-13 1.5706e-12 -21.4029

-52.4209 -15.801 -2.07686e-13
-15.801 3.29711 3.606e-13
-2.07686e-13 3.606e-13 -21.0762

6.11227 -3.7476 2.31992e-12
-3.7476 -43.9252 -1.78524e-13
2.31992e-12 -1.78524e-13 -25.7652

6.91843 3.61037 3.85854e-12
3.61037 -46.3488 3.39225e-12
3.85854e-12 3.39225e-12 -26.1415

-15.6255 9.83679 -2.37987e-12
9.83679 46.2623 -3.93167e-12
-2.37987e-12 -3.93167e-12 -5.8477

-22.9185 -24.774 -7.07582e-14
-24.774 -14.5522 -1.03887e-12
-7.07582e-14 -1.03887e-12 -10.3297

-56.6037 -36.3876 2.68245e-12
-36.3876 -14.5327 -7.51251e-13
2.68245e-12 -7.51251e-13 -13.437

33.3582 -4.66426 -6.64357e-13
-4.66426 -19.8467 1.05286e-12
-6.64357e-13 1.05286e-12 -3.94482

3.43341 -16.6947 9.48871e-13
-16.6947 -52.6289 -1.46401e-12
9.48871e-13 -1.46401e-12 -21.5328

3.67455 16.1757 6.21059e-12
16.1757 -51.8845 -1.40155e-12
6.21059e-12 -1.40155e-12 -21.406

6.55576 0.121882 2.85712e-12
0.121882 -76.755 2.23715e-12
2.85712e-12 2.23715e-12 -13.3038

-7.56934 23.375 2.43953e-13
23.375 39.9355 2.28676e-12
2.43953e-13 2.28676e-12 -6.88499

-56.8894 36.1715 -1.0764e-12
36.1715 -14.0113 3.33644e-12
-1.0764e-12 3.33644e-12 -13.3887

-39.7946 -23.3957 -5.12242e-12
-23.3957 2.56157 1.64935e-12
-5.12242e-12 1.64935e-12 -8.80067

37.1166 23.3526 2.44782e-12
23.3526 -8.61287 3.78127e-12
2.44782e-12 3.78127e-12 -5.75834

4.73535 23.8582 3.71851e-13
23.8582 -38.2259 -9.88839e-13
3.71851e-13 -9.88839e-13 -18.9858

24.0134 -31.3133 -4.0643e-12
-31.3133 6.40844 1.84445e-12
-4.0643e-12 1.84445e-12 -5.64788

2.4308 -3.23094 8.96172e-13
-3.23094 -48.3698 3.51452e-12
8.96172e-13 3.51452e-12 -14.7426

-60.4578 -34.161 -7.55914e-13
-34.161 -14.3498 -4.80949e-13
-7.55914e-13 -4.80949e-13 -14.0307

-17.4523 8.3199 1.95116e-12
8.3199 45.6917 -4.59247e-12
1.95116e-12 -4.59247e-12 -5.78074

-9.46858 21.8114 -1.54632e-12
21.8114 40.4249 -2.99494e-12
-1.54632e-12 -2.99494e-12 -6.65348

58.6033 35.7755 -1.50043e-12
35.7755 37.0879 -9.28443e-13
-1.50043e-12 -9.28443e-13 -6.91577

70.4836 1.57874 -3.61785e-12
1.57874 -5.54276 1.76807e-12
-3.61785e-12 1.76807e-12 -10.3738

-30.7595 -22.8045 7.97081e-12
-22.8045 -13.3563 -1.57115e-12
7.97081e-12 -1.57115e-12 -14.4659

32.8412 31.1836 -5.13604e-12
31.1836 69.794 -3.54087e-12
-5.13604e-12 -3.54087e-12 -6.67926

-19.3763 23.6098 5.33351e-12
23.6098 7.68693 -3.64745e-13
5.33351e-12 -3.64745e-13 -5.51301

47.6369 -5.34951 8.88178e-14
-5.34951 -17.4329 2.11016e-12
8.88178e-14 2.11016e-12 -6.82148

33.2194 11.216 -2.30275e-12
11.216 -23.6366 -1.00157e-12
-2.30275e-12 -1.00157e-12 -6.01359

6.25428 0.429905 -4.55339e-13
0.429905 -77.5523 3.32695e-12
-4.55339e-13 3.32695e-12 -13.4496

-58.9359 -29.0311 -3.09427e-12
-29.0311 -6.28808 6.09586e-13
-3.09427e-12 6.09586e-13 -14.697

-28.332 -6.31897 7.81331e-12
-6.31897 -11.3584 -6.61693e-12
7.81331e-12 -6.61693e-12 -51.5895

-44.6982 37.4116 -8.02321e-13
37.4116 -20.8115 -2.57838e-12
-8.02321e-13 -2.57838e-12 -14.7734

93.79 1.66328 1.80004e-13
1.66328 16.6554 -4.17688e-12
1.80004e-13 -4.17688e-12 -6.04299

10.0365 -32.7867 -5.45342e-13
-32.7867 21.3109 5.42914e-12
-5.45342e-13 5.42914e-12 -6.80792

-56.9362 36.613 8.72857e-13
36.613 -14.5712 -1.014e-12
8.72857e-13 -1.014e-12 -13.5049

-35.0789 -11.1338 2.09281e-12
-11.1338 19.1771 1.48918e-12
2.09281e-12 1.48918e-12 -8.31621

-5.47727 -25.5143 3.25221e-12
-25.5143 37.3501 1.24108e-12
3.25221e-12 1.24108e-12 -6.98675

-58.4524 28.8301 -5.95746e-13
28.8301 -6.27146 -2.56299e-12
-5.95746e-13 -2.56299e-12 -14.614

28.4958 -26.1417 3.83219e-12
-26.1417 -4.91233 4.34615e-12
3.83219e-12 4.34615e-12 -4.69694

-21.1706 10.4834 -1.95488e-12
10.4834 -18.559 1.23862e-11
-1.95488e-12 1.23862e-11 -51.6851

3.43302 30.8717 -1.60405e-12
30.8717 27.1625 1.68754e-12
-1.60405e-12 1.68754e-12 -6.73271

6.14059 8.12674 2.96444e-12
8.12674 -72.2979 -1.83261e-13
2.96444e-12 -1.83261e-13 -14.9842

-11.5457 30.1906 -1.10726e-13
30.1906 -20.6032 -1.31687e-12
-1.10726e-13 -1.31687e-12 -11.549

-30.7975 23.3318 1.68458e-12
23.3318 -5.09966 -2.68052e-12
1.68458e-12 -2.68052e-12 -8.46408

-25.8637 -32.4889 4.21085e-12
-32.4889 -24.1128 -3.91626e-12
4.21085e-12 -3.91626e-12 -21.5589

9.20549 -23.1901 3.00915e-12
-23.1901 -27.9221 -4.79942e-12
3.00915e-12 -4.79942e-12 -11.4255

-37.6608 10.4707 4.10646e-12
10.4707 8.92891 -4.91459e-13
4.10646e-12 -4.91459e-13 -25.3312

-23.0404 -23.4337 2.20831e-12
-23.4337 4.95249 1.86932e-12
2.20831e-12 1.86932e-12 -6.26272

88.8028 -9.70771 4.90748e-12
-9.70771 10.8073 8.05874e-13
4.90748e-12 8.05874e-13 -10.0308

84.043 -14.2771 3.41534e-12
-14.2771 2.81276 -5.97626e-12
3.41534e-12 -5.97626e-12 -13.1967

5.88802 16.5294 -9.68114e-14
16.5294 -33.9324 1.70945e-12
-9.68114e-14 1.70945e-12 -22.3761

-16.4211 22.5015 3.56989e-12
22.5015 16.228 4.7784e-12
3.56989e-12 4.7784e-12 -5.08501

-3.91227 29.163 1.60168e-12
29.163 -12.2296 4.76152e-12
1.60168e-12 4.76152e-12 -8.39605

50.9924 0.688666 1.7278e-12
0.688666 -6.53157 -1.33585e-12
1.7278e-12 -1.33585e-12 -3.63415

-48.141 6.5712 -4.99392e-12
6.5712 14.7862 9.93576e-13
-4.99392e-12 9.93576e-13 -18.9524

10.1157 16.5408 -5.10407e-13
16.5408 -36.0796 1.06019e-12
-5.10407e-13 1.06019e-12 -9.13527

-4.50347 -25.7608 -3.87542e-12
-25.7608 35.5553 -7.28306e-13
-3.87542e-12 -7.28306e-13 -6.74672

-39.191 -2.57241 6.33615e-12
-2.57241 21.5042 1.26181e-12
6.33615e-12 1.26181e-12 -10.6692

-7.9904 13.365 -2.14939e-13
13.365 44.4051 -5.50789e-12
-2.14939e-13 -5.50789e-12 -3.94404

3.73471 -29.7132 -4.36273e-12
-29.7132 -17.3645 -4.18154e-12
-4.36273e-12 -4.18154e-12 -8.92032

21.4259 -29.9472 -8.65678e-13
-29.9472 14.7561 6.12606e-12
-8.65678e-13 6.12606e-12 -3.9176

6.88106 31.6225 5.47355e-12
31.6225 25.4016 -1.14338e-12
5.47355e-12 -1.14338e-12 -6.82787

2.7856 -15.0201 6.92868e-12
-15.0201 -39.2674 5.00526e-12
6.92868e-12 5.00526e-12 -63.312

-46.1597 2.04128 -3.96601e-12
2.04128 11.4614 -1.0966e-12
-3.96601e-12 -1.0966e-12 -22.7568

-55.4449 20.3001 -3.77165e-12
20.3001 3.09582 -2.66069e-12
-3.77165e-12 -2.66069e-12 -22.916

5.91685 15.439 -3.04897e-12
15.439 -58.8187 1.66593e-12
-3.04897e-12 1.66593e-12 -23.036

-18.9214 -26.1886 -3.93315e-12
-26.1886 -12.9133 5.65829e-12
-3.93315e-12 5.65829e-12 -9.6524

41.3458 17.9571 3.74811e-12
17.9571 -6.27077 -5.16328e-13
3.74811e-12 -5.16328e-13 -3.86114

-44.6827 -5.2941 1.00649e-12
-5.2941 4.53832 3.08198e-13
1.00649e-12 3.08198e-13 -39.1452

7.49927 -18.9881 -1.12207e-12
-18.9881 -39.8942 -2.00403e-12
-1.12207e-12 -2.00403e-12 -11.6598

30.2909 -15.5988 -3.75936e-12
-15.5988 -20.5082 -1.30503e-12
-3.75936e-12 -1.30503e-12 -4.80472

-9.63812 11.6031 -2.81908e-12
11.6031 44.3189 -4.23247e-12
-2.81908e-12 -4.23247e-12 -3.85879

8.33405 -25.7339 -6.6791e-13
-25.7339 32.9917 2.93809e-12
-6.6791e-13 2.93809e-12 -3.63275

-10.2447 -25.2738 -3.05977e-12
-25.2738 -19.1002 -2.36255e-12
-3.05977e-12 -2.36255e-12 -23.1748

17.0051 31.9592 -1.49392e-12
31.9592 11.1973 -1.1191e-12
-1.49392e-12 -1.1191e-12 -5.74604

-1.06928 -25.1347 -6.63173e-14
-25.1347 -30.7627 -1.73136e-12
-6.63173e-14 -1.73136e-12 -20.8916

48.0647 2.59734 -6.90411e-13
2.59734 -8.40942 -7.65832e-13
-6.90411e-13 -7.65832e-13 -3.53131

6.55264 -28.9302 -6.73831e-13
-28.9302 72.0498 -3.55035e-12
-6.73831e-13 -3.55035e-12 -14.5514

21.7915 -29.2306 -6.57252e-14
-29.2306 13.9636 6.27172e-12
-6.57252e-14 6.27172e-12 -3.92999

35.3511 32.1586 3.4414e-12
32.1586 74.1337 1.42109e-14
3.4414e-12 1.42109e-14 -5.44158

-45.2831 -11.8769 -5.33647e-13
-11.8769 13.9221 3.31587e-14
-5.33647e-13 3.31587e-14 -15.3262

-14.4201 -13.8212 -3.77224e-12
-13.8212 43.382 -2.61243e-12
-3.77224e-12 -2.61243e-12 -5.67235

-19.2436 -23.9881 9.11863e-14
-23.9881 -19.8305 -4.02552e-12
9.11863e-14 -4.02552e-12 -64.2538

2.43844 23.7705 -2.38861e-12
23.7705 36.0065 -3.34074e-12
-2.38861e-12 -3.34074e-12 -3.71076

-15.1823 -32.7263 -2.94283e-12
-32.7263 -21.1189 2.17604e-13
-2.94283e-12 2.17604e-13 -14.3128

-14.5648 -11.963 6.67836e-13
-11.963 45.5302 3.43903e-12
6.67836e-13 3.43903e-12 -5.73855

7.83561 -19.1169 -2.29683e-12
-19.1169 -43.1218 2.89813e-12
-2.29683e-12 2.89813e-12 -12.6318

6.54581 23.8768 3.31113e-12
23.8768 35.1711 1.8486e-12
3.31113e-12 1.8486e-12 -3.44173

23.1733 -4.97546 8.36072e-13
-4.97546 -30.6759 -2.54978e-12
8.36072e-13 -2.54978e-12 -5.36394

36.97 -30.3424 1.91491e-12
-30.3424 122.626 3.65219e-12
1.91491e-12 3.65219e-12 -6.24187

-26.8689 21.0139 3.41327e-12
21.0139 8.43428 -1.74557e-12
3.41327e-12 -1.74557e-12 -7.12957

40.3381 -19.3231 2.314e-12
-19.3231 -11.372 -2.36729e-12
2.314e-12 -2.36729e-12 -5.72557

6.52857 -21.4459 -7.63241e-13
-21.4459 -45.5582 1.45306e-12
-7.63241e-13 1.45306e-12 -24.9718

20.7051 31.7536 -3.31823e-12
31.7536 9.55762 -3.35258e-12
-3.31823e-12 -3.35258e-12 -5.80561

13.9189 -29.9715 7.59689e-13
-29.9715 -7.60541 1.93919e-12
7.59689e-13 1.93919e-12 -5.94384

6.75485 20.8852 -1.92439e-12
20.8852 -27.7919 4.12737e-12
-1.92439e-12 4.12737e-12 -11.1086

-38.274 -28.0758 -2.12156e-12
-28.0758 -14.0377 -2.72567e-12
-2.12156e-12 -2.72567e-12 -11.0606

8.64649 -26.2249 4.44089e-12
-26.2249 31.1707 -1.70057e-12
4.44089e-12 -1.70057e-12 -3.63477

15.3314 28.9808 -7.0699e-13
28.9808 19.1538 8.5502e-13
-7.0699e-13 8.5502e-13 -3.88254

28.6402 26.1911 -1.74912e-12
26.1911 -5.63294 1.3225e-12
-1.74912e-12 1.3225e-12 -4.80153

7.9148 -14.6099 -2.09906e-12
-14.6099 -36.8774 -1.61056e-13
-2.09906e-12 -1.61056e-13 -13.991

-6.84106 -16.6174 1.66978e-13
-16.6174 41.3406 -1.61412e-12
1.66978e-13 -1.61412e-12 -3.95898

17.4406 -17.5682 4.99748e-13
-17.5682 -30.9988 -2.69074e-12
4.99748e-13 -2.69074e-12 -7.10479

19.8419 16.9083 -7.83373e-13
16.9083 -31.6639 6.03961e-13
-7.83373e-13 6.03961e-13 -7.33402

-33.6795 -9.38685 -1.61341e-12
-9.38685 8.756 -2.1636e-12
-1.61341e-12 -2.1636e-12 -23.9928

43.4312 -13.4299 2.02978e-12
-13.4299 -8.36839 -1.36957e-12
2.02978e-12 -1.36957e-12 -3.80372

-19.378 0.594016 -2.75335e-12
0.594016 43.145 2.0511e-12
-2.75335e-12 2.0511e-12 -4.77499

28.0558 18.5548 -4.68129e-12
18.5548 -18.1985 -1.81544e-12
-4.68129e-12 -1.81544e-12 -4.74922

25.5283 27.6037 -4.0643e-12
27.6037 -3.77526 -1.60997e-12
-4.0643e-12 -1.60997e-12 -4.77068

-6.71486 -15.6859 2.94934e-12
-15.6859 43.7982 9.56864e-13
2.94934e-12 9.56864e-13 -3.84752

-19.906 -1.20229 -1.65867e-13
-1.20229 42.1276 -2.5544e-12
-1.65867e-13 -2.5544e-12 -4.68655

-5.4732 29.1343 4.92643e-12
29.1343 -23.6464 4.01161e-13
4.92643e-12 4.01161e-13 -16.7967

-37.2734 -10.922 3.01477e-12
-10.922 21.6799 -3.32652e-12
3.01477e-12 -3.32652e-12 -7.82957

27.1432 -26.715 -2.24413e-12
-26.715 -5.53039 -6.44818e-13
-2.24413e-12 -6.44818e-13 -4.94373

40.7188 21.3323 -9.4739e-13
21.3323 -8.36969 -9.42653e-13
-9.4739e-13 -9.42653e-13 -5.46708

12.378 23.6652 -2.55203e-13
23.6652 -27.1268 -1.82373e-12
-2.55203e-13 -1.82373e-12 -8.66657

-37.7962 5.47073 9.89801e-13
5.47073 23.3113 -3.42008e-12
9.89801e-13 -3.42008e-12 -8.59701

18.5931 29.0652 -2.30038e-12
29.0652 17.3778 -6.21133e-13
-2.30038e-12 -6.21133e-13 -3.94663

-9.98911 22.9638 1.35418e-12
22.9638 -14.9128 1.74823e-12
1.35418e-12 1.74823e-12 -24.026

68.3159 -59.6912 3.78956e-14
-59.6912 36.3349 -2.78177e-12
3.78956e-14 -2.78177e-12 -23.0107

17.5309 -25.0476 -4.61675e-12
-25.0476 -17.9917 1.72336e-12
-4.61675e-12 1.72336e-12 -6.4172

10.0585 7.06983 -1.64609e-12
7.06983 82.5499 9.4739e-15
-1.64609e-12 9.4739e-15 -7.16506

11.9204 -28.889 -3.11455e-13
-28.889 -3.88128 -7.90479e-13
-3.11455e-13 -7.90479e-13 -5.16531

-66.9449 -52.701 -2.67282e-12
-52.701 143.249 2.75691e-12
-2.67282e-12 2.75691e-12 -49.6693

-68.3882 51.4516 9.34364e-13
51.4516 142.537 -2.75217e-12
9.34364e-13 -2.75217e-12 -49.8584

19.5692 117.154 -1.51582e-13
117.154 64.1285 1.85215e-12
-1.51582e-13 1.85215e-12 -48.36

20.5281 -117.097 2.79954e-12
-117.097 61.0254 -5.98277e-12
2.79954e-12 -5.98277e-12 -48.7247

157.742 -1.36336 2.73796e-12
-1.36336 -79.1871 1.7833e-14
2.73796e-12 1.7833e-14 -48.9116

110.325 -91.1254 1.02318e-12
-91.1254 -36.6901 -4.12115e-13
1.02318e-12 -4.12115e-13 -50.3062

110.378 91.6533 -4.94064e-12
91.6533 -36.5003 -6.32146e-12
-4.94064e-12 -6.32146e-12 -50.179

7.84706 14.3302 -7.07286e-13
14.3302 -42.6814 3.15185e-12
-7.07286e-13 3.15185e-12 -15.0789

-11.791 25.5366 6.08402e-13
25.5366 -27.4047 -3.73139e-12
6.08402e-13 -3.73139e-12 -35.1381

12.4381 6.606 -1.21029e-12
6.606 -40.5333 2.81308e-12
-1.21029e-12 2.81308e-12 -8.25202

26.2547 21.7844 1.88294e-13
21.7844 -19.5281 -8.65086e-13
1.88294e-13 -8.65086e-13 -5.85038

-21.2296 17.7443 -1.02007e-12
17.7443 29.8683 -1.86991e-12
-1.02007e-12 -1.86991e-12 -6.16186

22.5303 28.8983 7.59097e-13
28.8983 -0.775186 -3.6362e-12
7.59097e-13 -3.6362e-12 -4.73031

4.05562 -29.6633 -3.59416e-13
-29.6633 -17.4661 -1.61796e-12
-3.59416e-13 -1.61796e-12 -8.50403

25.9952 28.0276 -2.64618e-12
28.0276 -2.30137 -2.51414e-12
-2.64618e-12 -2.51414e-12 -4.73071

-19.3465 -2.84122 1.60361e-12
-2.84122 43.0711 -7.6857e-13
1.60361e-12 -7.6857e-13 -4.76953

-13.4116 -26.0974 -1.47142e-12
-26.0974 -25.8384 -2.06353e-13
-1.47142e-12 -2.06353e-13 -35.5212

-19.8416 -4.86235 -3.28019e-12
-4.86235 41.7761 -1.73965e-12
-3.28019e-12 -1.73965e-12 -4.74339

-1.82684 23.0162 2.78118e-12
23.0162 -24.3771 1.00601e-12
2.78118e-12 1.00601e-12 -16.1498

44.9823 26.8705 2.67282e-12
26.8705 8.11161 2.26189e-12
2.67282e-12 2.26189e-12 -5.36874

-52.5089 -13.2161 4.48278e-12
-13.2161 0.150424 -1.0371e-12
4.48278e-12 -1.0371e-12 -20.6173

20.2805 13.7279 5.9508e-13
13.7279 -31.1411 -1.82136e-12
5.9508e-13 -1.82136e-12 -7.04253

13.7008 -29.9874 3.27915e-12
-29.9874 -6.69115 -3.71022e-12
3.27915e-12 -3.71022e-12 -5.83477

29.6307 -24.7133 2.18492e-12
-24.7133 -7.87337 -1.5931e-12
2.18492e-12 -1.5931e-12 -4.82469

5.76485 -16.0746 2.94609e-12
-16.0746 -32.3342 -2.05288e-12
2.94609e-12 -2.05288e-12 -22.2555

12.6277 27.9288 -1.07174e-13
27.9288 -13.6384 8.60053e-13
-1.07174e-13 8.60053e-13 -6.41918

23.309 23.9773 2.13577e-12
23.9773 -17.9428 -6.93075e-13
2.13577e-12 -6.93075e-13 -5.96191

-31.0765 -2.79294 2.82148e-12
-2.79294 30.1316 3.54324e-12
2.82148e-12 3.54324e-12 -6.39805

-28.6289 5.87333 1.94909e-12
5.87333 33.3213 2.6071e-12
1.94909e-12 2.6071e-12 -6.05887

34.5484 2.64669 -1.41812e-12
2.64669 -26.1829 2.62087e-13
-1.41812e-12 2.62087e-13 -6.14161

50.6511 -7.2896 4.15075e-12
-7.2896 -14.0813 -1.69006e-12
4.15075e-12 -1.69006e-12 -6.77827

11.0412 30.4845 2.5769e-12
30.4845 -4.78732 -6.6791e-13
2.5769e-12 -6.6791e-13 -5.96572

17.4675 -26.1553 1.55727e-13
-26.1553 -17.4547 -4.89771e-12
1.55727e-13 -4.89771e-12 -6.35131

-0.0844584 -21.2543 -4.93531e-13
-21.2543 -27.9558 -2.13548e-12
-4.93531e-13 -2.13548e-12 -17.1664

4.93917 -31.6334 6.12014e-12
-31.6334 4.86161 -9.2489e-13
6.12014e-12 -9.2489e-13 -5.93456

-8.22682 -27.7853 1.15463e-12
-27.7853 18.5789 -4.56761e-12
1.15463e-12 -4.56761e-12 -6.12917

-1.65002 29.887 -1.64076e-12
29.887 10.4475 -3.03698e-12
-1.64076e-12 -3.03698e-12 -5.7996

-26.016 -9.57787 -1.5451e-12
-9.57787 32.9697 2.71901e-12
-1.5451e-12 2.71901e-12 -5.78654

-31.3224 -1.54478 -4.11145e-12
-1.54478 31.6507 -1.51109e-12
-4.11145e-12 -1.51109e-12 -6.22288

-38.915 5.74794 -2.08962e-13
5.74794 23.9465 -4.42135e-12
-2.08962e-13 -4.42135e-12 -9.18242

-17.2177 -21.0889 1.06877e-12
-21.0889 26.571 -4.10516e-12
1.06877e-12 -4.10516e-12 -5.77125

13.0719 24.1111 -1.32457e-12
24.1111 -28.1009 8.49987e-13
-1.32457e-12 8.49987e-13 -9.2043

21.555 -9.58971 -1.81781e-13
-9.58971 -31.706 8.10019e-13
-1.81781e-13 8.10019e-13 -6.59736

-27.153 7.46524 2.52059e-12
7.46524 34.3346 4.84886e-12
2.52059e-12 4.84886e-12 -5.87327

-35.2353 -9.70108 -4.12064e-12
-9.70108 22.3135 -3.34902e-12
-4.12064e-12 -3.34902e-12 -8.18285

-29.1552 -16.3306 5.37318e-12
-16.3306 19.3468 -4.58478e-12
5.37318e-12 -4.58478e-12 -6.66103

36.9677 -8.23916 -5.42973e-12
-8.23916 -20.2362 -8.76632e-13
-5.42973e-12 -8.76632e-13 -5.10078

-14.8096 -32.3468 5.61477e-12
-32.3468 -21.6274 3.80644e-12
5.61477e-12 3.80644e-12 -12.9926

-22.8236 9.32082 -5.68138e-13
9.32082 33.3233 3.85943e-12
-5.68138e-13 3.85943e-12 -4.78811

-0.750976 -18.2126 7.83373e-13
-18.2126 -35.1576 -2.50244e-12
7.83373e-13 -2.50244e-12 -33.2778

4.93226 24.8226 -3.43547e-12
24.8226 75.3064 -1.42582e-12
-3.43547e-12 -1.42582e-12 -14.3188

-14.1417 -26.6262 5.24973e-12
-26.6262 -16.3499 -1.09276e-12
5.24973e-12 -1.09276e-12 -14.6404

-6.35704 -30.2028 -1.7053e-12
-30.2028 -23.6021 -3.75255e-12
-1.7053e-12 -3.75255e-12 -17.0876

-31.2702 -0.701288 4.63999e-12
-0.701288 31.5004 -1.59458e-12
4.63999e-12 -1.59458e-12 -6.34775

28.4876 -16.6225 -1.32694e-12
-16.6225 -18.0565 -2.76668e-12
-1.32694e-12 -2.76668e-12 -4.43732

-37.8046 12.8416 3.84911e-12
12.8416 11.1651 -2.99967e-12
3.84911e-12 -2.99967e-12 -10.9885

-8.86113 -3.18053 -1.97649e-12
-3.18053 111.051 6.34515e-12
-1.97649e-12 6.34515e-12 -22.6716

-31.6021 14.2736 -7.57402e-12
14.2736 21.3504 -2.2086e-12
-7.57402e-12 -2.2086e-12 -7.12374

12.422 -29.4891 9.14824e-13
-29.4891 -2.51936 -7.93439e-13
9.14824e-13 -7.93439e-13 -4.92754

33.6319 25.1056 -1.16411e-12
25.1056 124.029 5.51855e-12
-1.16411e-12 5.51855e-12 -6.21421

-13.5027 26.098 -1.68567e-11
26.098 -19.0973 -5.43521e-12
-1.68567e-11 -5.43521e-12 -58.8958

-9.55276 -27.8073 3.75403e-12
-27.8073 -22.8068 6.72795e-13
3.75403e-12 6.72795e-13 -59.5462

-2.86565 -30.419 1.60464e-13
-30.419 -7.321 -4.14839e-12
1.60464e-13 -4.14839e-12 -7.28669

3.86045 -31.1601 2.83566e-12
-31.1601 5.6358 -2.27551e-12
2.83566e-12 -2.27551e-12 -6.06178

25.152 20.8274 1.08002e-12
20.8274 -17.034 -2.19943e-12
1.08002e-12 -2.19943e-12 -4.97622

31.8051 15.0061 2.34716e-12
15.0061 -23.3006 -2.35811e-12
2.34716e-12 -2.35811e-12 -5.95407

-9.48876 3.08352 -1.36307e-11
3.08352 -9.83057 2.9566e-12
-1.36307e-11 2.9566e-12 -80.9383

-5.54902 -7.00008 3.96298e-12
-7.00008 -14.0418 1.36291e-11
3.96298e-12 1.36291e-11 -80.291

11.7485 4.8243 1.36898e-12
4.8243 -43.2053 1.72307e-13
1.36898e-12 1.72307e-13 -7.82695

-35.0564 6.73098 -3.74974e-12
6.73098 24.3753 -1.52707e-12
-3.74974e-12 -1.52707e-12 -7.56345

-36.1101 6.73632 3.65187e-12
6.73632 24.4326 -7.5732e-13
3.65187e-12 -7.5732e-13 -8.30842

74.5865 58.6342 -2.53664e-12
58.6342 34.1727 3.54324e-12
-2.53664e-12 3.54324e-12 -21.873

-6.91959 -28.1997 -3.38337e-12
-28.1997 16.8753 3.91331e-12
-3.38337e-12 3.91331e-12 -6.11607

8.17204 17.9745 1.34766e-12
17.9745 -44.8757 -2.00491e-12
1.34766e-12 -2.00491e-12 -12.8964

32.7031 9.53973 -1.80004e-13
9.53973 -19.0798 -1.5962e-12
-1.80004e-13 -1.5962e-12 -4.0738

3.388 -26.7232 5.31131e-13
-26.7232 13.4841 -2.39394e-12
5.31131e-13 -2.39394e-12 -3.82644

26.2375 -20.2376 3.31883e-12
-20.2376 -20.3227 -2.4416e-12
3.31883e-12 -2.4416e-12 -5.86264

65.3903 60.2321 -3.5764e-12
60.2321 34.2894 -1.08026e-11
-3.5764e-12 -1.08026e-11 -23.8678

-13.2424 31.0691 4.44089e-15
31.0691 -16.8812 1.3598e-12
4.44089e-15 1.3598e-12 -12.7856

-18.6039 -19.786 -6.28534e-13
-19.786 28.4148 2.60947e-12
-6.28534e-13 2.60947e-12 -5.96891

11.1745 28.8576 8.70415e-13
28.8576 -13.3229 1.42227e-12
8.70415e-13 1.42227e-12 -6.43561

-31.8688 -4.14482 2.95911e-12
-4.14482 30.1479 2.60414e-12
2.95911e-12 2.60414e-12 -6.35732

-14.596 19.6091 -7.16168e-13
19.6091 27.1853 5.69026e-13
-7.16168e-13 5.69026e-13 -4.41814

7.47941 30.5187 3.62436e-12
30.5187 -1.67012 1.18246e-12
3.62436e-12 1.18246e-12 -5.65992

-9.3446 -22.4732 -3.28863e-12
-22.4732 23.1493 -1.42345e-12
-3.28863e-12 -1.42345e-12 -4.17489

4.59074 -27.3525 4.88261e-12
-27.3525 11.4492 -8.65678e-13
4.88261e-12 -8.65678e-13 -3.93795

24.2718 11.257 -6.43012e-12
11.257 102.079 8.83441e-13
-6.43012e-12 8.83441e-13 -12.405

37.4666 -33.4561 1.09779e-12
-33.4561 69.2855 -2.58401e-12
1.09779e-12 -2.58401e-12 -5.70297

-25.3349 -11.6905 -1.48822e-12
-11.6905 31.3682 -5.18282e-12
-1.48822e-12 -5.18282e-12 -5.64782

16.0966 26.4845 1.99011e-12
26.4845 -15.5018 1.80241e-12
1.99011e-12 1.80241e-12 -6.21692

4.95597 29.4779 2.33354e-12
29.4779 1.63709 -5.21065e-14
2.33354e-12 -5.21065e-14 -4.98941

-9.85437 -21.4339 2.56565e-12
-21.4339 25.1209 2.93513e-12
2.56565e-12 2.93513e-12 -4.03268

-21.6344 -11.7823 1.01963e-12
-11.7823 32.0822 3.67528e-12
1.01963e-12 3.67528e-12 -4.63666

10.4631 28.4095 2.70243e-12
28.4095 -0.156271 2.79895e-12
2.70243e-12 2.79895e-12 -4.67235

-21.8465 -13.8778 -8.52651e-14
-13.8778 29.4674 -3.1027e-12
-8.52651e-14 -3.1027e-12 -4.8466

6.95873 27.8549 1.98597e-12
27.8549 73.0848 -2.6219e-12
1.98597e-12 -2.6219e-12 -14.322

-45.8316 -4.04127 3.82676e-12
-4.04127 14.0479 3.23415e-12
3.82676e-12 3.23415e-12 -19.9649

0.877365 31.0275 -1.92675e-12
31.0275 7.52053 2.89842e-12
-1.92675e-12 2.89842e-12 -6.08852

9.71927 14.9012 -9.01205e-13
14.9012 -36.429 -2.94875e-13
-9.01205e-13 -2.94875e-13 -10.985

9.92878 -15.9275 4.98564e-13
-15.9275 -39.4103 2.02505e-12
4.98564e-13 2.02505e-12 -13.0688

85.6132 -24.2045 -9.00021e-14
-24.2045 7.63593 -3.84167e-12
-9.00021e-14 -3.84167e-12 -12.9578

-23.2067 -21.2672 -4.83139e-12
-21.2672 10.5139 -8.98244e-13
-4.83139e-12 -8.98244e-13 -6.16475

-16.6007 26.6982 1.21976e-13
26.6982 1.77868 8.21447e-12
1.21976e-13 8.21447e-12 -6.5872

-26.2014 -21.7279 5.89484e-12
-21.7279 -5.36489 3.61822e-12
5.89484e-12 3.61822e-12 -23.8672

-41.5969 14.1066 -5.38517e-12
14.1066 -3.56011 3.65633e-12
-5.38517e-12 3.65633e-12 -64.1281

-0.893408 9.44534 1.53581e-12
9.44534 -44.2595 -9.10116e-12
1.53581e-12 -9.10116e-12 -64.2296

-20.3842 32.7055 -4.9664e-12
32.7055 -23.2024 -5.87767e-12
-4.9664e-12 -5.87767e-12 -24.3296

-11.4102 26.0003 -9.81141e-13
26.0003 22.6042 -5.81461e-13
-9.81141e-13 -5.81461e-13 -5.92514

16.0388 26.6614 4.15668e-13
26.6614 -17.2869 1.79619e-12
4.15668e-13 1.79619e-12 -6.54939

30.4283 45.1859 -5.60145e-12
45.1859 47.5547 -4.48116e-12
-5.60145e-12 -4.48116e-12 -15.1949

-44.8887 -11.3437 -5.91334e-12
-11.3437 -1.80806 5.87056e-12
-5.91334e-12 5.87056e-12 -61.6842

-8.29817 -3.43292 8.66537e-12
-3.43292 -12.7551 -1.09234e-11
8.66537e-12 -1.09234e-11 -77.2284

-14.6915 -0.210028 6.36972e-13
-0.210028 -6.41857 6.90618e-12
6.36972e-13 6.90618e-12 -77.3726

27.665 -53.8025 -3.02928e-12
-53.8025 71.1486 -9.00021e-13
-3.02928e-12 -9.00021e-13 -24.3896

-11.6912 -11.6 2.551e-12
-11.6 -16.2045 7.18536e-13
2.551e-12 7.18536e-13 -37.4312

-32.6104 8.81301 5.17653e-12
8.81301 -9.41947 2.18877e-12
5.17653e-12 2.18877e-12 -49.5417

18.2563 -26.1995 1.32457e-12
-26.1995 -19.5461 -1.32102e-12
1.32457e-12 -1.32102e-12 -6.50614

-39.43 1.01106 4.66664e-14
1.01106 11.9802 4.89446e-12
4.66664e-14 4.89446e-12 -19.7219

-30.2022 -20.2678 -2.00018e-12
-20.2678 6.30515 2.20031e-12
-2.00018e-12 2.20031e-12 -7.21563

10.5366 6.25533 1.28697e-12
6.25533 -52.3898 -1.59487e-12
1.28697e-12 -1.59487e-12 -9.63934

-49.8126 15.5963 -5.11965e-13
15.5963 10.1654 -7.66794e-13
-5.11965e-13 -7.66794e-13 -13.5309

-40.2834 7.19161 3.81848e-12
7.19161 16.5415 2.21749e-12
3.81848e-12 2.21749e-12 -13.774

16.405 20.3928 -4.12352e-12
20.3928 -25.8406 3.51689e-12
-4.12352e-12 3.51689e-12 -7.60727

-9.10016 -3.1139 -3.40787e-12
-3.1139 108.394 6.40436e-12
-3.40787e-12 6.40436e-12 -23.1019

-3.31995 -27.6237 -3.69482e-12
-27.6237 -3.62935 -3.21284e-12
-3.69482e-12 -3.21284e-12 -5.82957

-7.33491 -26.1163 2.63493e-13
-26.1163 -14.0818 -3.57906e-12
2.63493e-13 -3.57906e-12 -9.8104

-14.1982 -31.4837 -1.4726e-12
-31.4837 -21.7779 1.36543e-12
-1.4726e-12 1.36543e-12 -12.7554

90.7275 32.7495 3.13112e-12
32.7495 20.9064 2.69325e-12
3.13112e-12 2.69325e-12 -16.506

-23.1174 -20.1165 -1.31865e-12
-20.1165 -17.385 1.72884e-12
-1.31865e-12 1.72884e-12 -44.4279

72.6302 54.3222 -3.38692e-12
54.3222 91.6403 3.56219e-12
-3.38692e-12 3.56219e-12 -6.1424

-36.215 -21.4395 -3.18486e-12
-21.4395 -6.79682 -4.7482e-12
-3.18486e-12 -4.7482e-12 -13.0427

15.0339 14.6504 -1.758e-12
14.6504 -37.7515 -1.78228e-12
-1.758e-12 -1.78228e-12 -8.17841

44.5726 -14.5724 4.50129e-12
-14.5724 -8.2716 3.59623e-12
4.50129e-12 3.59623e-12 -4.41812

-21.2305 24.0467 3.0426e-12
24.0467 4.95561 -6.77325e-12
3.0426e-12 -6.77325e-12 -5.97595

17.3732 20.428 1.28786e-12
20.428 -26.7921 -3.57699e-12
1.28786e-12 -3.57699e-12 -6.95108

-51.14 11.4006 3.06858e-12
11.4006 7.71049 -3.90088e-12
3.06858e-12 -3.90088e-12 -29.9942

-7.28687 -31.5801 -6.60509e-13
-31.5801 -12.8265 -2.16775e-12
-6.60509e-13 -2.16775e-12 -8.11869

2.79673 19.8124 3.25073e-13
19.8124 -46.0334 2.40992e-12
3.25073e-13 2.40992e-12 -29.9861

-24.6707 -18.4434 9.02981e-14
-18.4434 17.8362 -5.22604e-12
9.02981e-14 -5.22604e-12 -5.47964

-42.3404 4.28317 3.21716e-12
4.28317 17.8694 3.55271e-13
3.21716e-12 3.55271e-13 -12.7279

-4.09805 9.92676 -4.2446e-12
9.92676 -40.2759 -1.10771e-12
-4.2446e-12 -1.10771e-12 -47.5491

-2.68827 -8.51337 4.36036e-12
-8.51337 -38.3072 3.21846e-12
4.36036e-12 3.21846e-12 -47.4049

81.7223 18.5123 -4.38168e-12
18.5123 1.70027 6.73476e-12
-4.38168e-12 6.73476e-12 -14.4531

3.89495 7.96501 -1.37756e-12
7.96501 -45.183 -3.18708e-12
-1.37756e-12 -3.18708e-12 -11.0179

35.8714 7.74045 -3.47899e-12
7.74045 184.572 -3.52903e-12
-3.47899e-12 -3.52903e-12 -9.75764

40.1449 -11.3851 9.50684e-13
-11.3851 190.369 -3.15955e-12
9.50684e-13 -3.15955e-12 -7.38947

53.7643 56.4066 3.67587e-12
56.4066 159.254 -4.48589e-12
3.67587e-12 -4.48589e-12 -11.5003

1.70902 -28.9505 1.34115e-12
-28.9505 -24.6907 5.90402e-12
1.34115e-12 5.90402e-12 -11.9626

16.0488 -49.1901 1.16055e-13
-49.1901 99.4181 -2.55795e-12
1.16055e-13 -2.55795e-12 -21.6893

54.5121 -55.9492 -2.65506e-12
-55.9492 149.971 -1.7953e-12
-2.65506e-12 -1.7953e-12 -13.6652

-2.16545 26.2199 -1.5099e-12
26.2199 17.5727 -5.05077e-13
-1.5099e-12 -5.05077e-13 -3.99545

134.937 73.8434 1.00044e-11
73.8434 85.0239 2.73322e-12
1.00044e-11 2.73322e-12 -10.1594

-18.7197 13.0473 -7.20609e-13
13.0473 -3.90022 -2.61628e-12
-7.20609e-13 -2.61628e-12 -26.7697

3.74112 0.0393915 3.00115e-12
0.0393915 -26.1889 2.69414e-13
3.00115e-12 2.69414e-13 -26.7729

144.096 -73.1288 -6.77384e-12
-73.1288 85.3513 -8.62125e-13
-6.77384e-12 -8.62125e-13 -8.19671

-21.3925 -23.4238 3.72176e-12
-23.4238 12.2481 -4.03588e-12
3.72176e-12 -4.03588e-12 -6.49063

89.3454 34.7288 2.00847e-12
34.7288 41.3895 3.6214e-12
2.00847e-12 3.6214e-12 -11.5481

72.1861 63.4904 4.12825e-12
63.4904 149.691 -8.76336e-13
4.12825e-12 -8.76336e-13 -9.67404

26.1643 21.63 6.36054e-12
21.63 100.132 -1.6153e-12
6.36054e-12 -1.6153e-12 -13.0316

73.8729 -65.9192 9.90023e-13
-65.9192 151.142 9.4739e-14
9.90023e-13 9.4739e-14 -9.40259

25.7687 -12.381 8.15229e-12
-12.381 105.011 -3.94114e-12
8.15229e-12 -3.94114e-12 -12.4286

-28.6639 6.84174 5.7078e-12
6.84174 3.10679 3.69926e-12
5.7078e-12 3.69926e-12 -37.8539

37.7425 -45.9743 -4.32721e-12
-45.9743 49.6688 1.88649e-12
-4.32721e-12 1.88649e-12 -15.5324

14.4435 47.5314 4.63511e-12
47.5314 94.8786 3.15244e-12
4.63511e-12 3.15244e-12 -22.1925

173.337 37.9111 5.00222e-12
37.9111 48.0408 5.40723e-12
5.00222e-12 5.40723e-12 -9.52268

7.0209 -29.2856 2.84276e-12
-29.2856 -14.3582 4.58448e-12
2.84276e-12 4.58448e-12 -7.15565

-38.4173 12.8967 1.17084e-12
12.8967 6.43531 -3.97963e-12
1.17084e-12 -3.97963e-12 -15.2904

88.5037 -38.1121 1.60346e-12
-38.1121 34.1625 -2.4419e-12
1.60346e-12 -2.4419e-12 -14.0998

6.04187 -28.802 -1.20023e-12
-28.802 -16.1716 -2.00728e-12
-1.20023e-12 -2.00728e-12 -8.0295

169.203 -36.343 -2.75691e-12
-36.343 34.9282 4.63807e-12
-2.75691e-12 4.63807e-12 -13.2905

-5.725 -28.3173 1.30207e-12
-28.3173 -14.4726 1.74616e-12
1.30207e-12 1.74616e-12 -9.30908

-17.7901 -25.2947 -1.48592e-12
-25.2947 12.0803 -9.19087e-12
-1.48592e-12 -9.19087e-12 -5.93378

118.874 69.4599 -2.60532e-12
69.4599 96.2176 3.57403e-12
-2.60532e-12 3.57403e-12 -11.4007

29.4126 -22.9325 -7.94624e-13
-22.9325 97.795 -5.22486e-12
-7.94624e-13 -5.22486e-12 -14.3402

117.957 -71.6918 9.4739e-14
-71.6918 93.6791 7.34227e-14
9.4739e-14 7.34227e-14 -12.4167

22.2643 50.7369 5.63697e-13
50.7369 73.7774 -4.55695e-12
5.63697e-13 -4.55695e-12 -24.7776

-1.5361 -30.212 -2.21512e-12
-30.212 -6.55228 8.7379e-12
-2.21512e-12 8.7379e-12 -6.99744

-7.04513 -14.6403 1.15374e-12
-14.6403 -21.9194 -1.74083e-12
1.15374e-12 -1.74083e-12 -32.6145

-11.892 11.0926 -7.02897e-12
11.0926 -16.4308 1.74468e-12
-7.02897e-12 1.74468e-12 -77.7948

-26.169 -5.16 3.93892e-12
-5.16 -6.38736 1.71026e-11
3.93892e-12 1.71026e-11 -77.6286

-38.9409 13.0836 -2.43981e-12
13.0836 13.7444 6.23028e-12
-2.43981e-12 6.23028e-12 -10.2385

-14.4805 -10.6669 -8.95728e-13
-10.6669 -17.3183 5.37007e-12
-8.95728e-13 5.37007e-12 -78.7576

-25.9028 4.09175 -9.85286e-13
4.09175 -5.91386 3.62458e-12
-9.85286e-13 3.62458e-12 -78.8998

-3.63381 7.43406 1.04327e-11
7.43406 -27.8606 -6.43589e-12
1.04327e-11 -6.43589e-12 -77.987

-43.9753 -12.1152 -3.07883e-12
-12.1152 2.91632 6.77947e-12
-3.07883e-12 6.77947e-12 -68.1585

11.9737 -30.4698 -7.94091e-12
-30.4698 76.1625 9.01679e-12
-7.94091e-12 9.01679e-12 -14.7009

0.521864 -12.9721 -7.29135e-12
-12.9721 -39.9907 1.72218e-12
-7.29135e-12 1.72218e-12 -45.2773

-16.3488 -34.4177 6.1379e-12
-34.4177 -22.0686 -8.30743e-13
6.1379e-12 -8.30743e-13 -23.5901

-2.4206 -18.1768 -2.2915e-12
-18.1768 -29.8953 -3.13616e-12
-2.2915e-12 -3.13616e-12 -33.6267

12.7383 15.4592 -1.02022e-12
15.4592 -37.716 -8.11321e-12
-1.02022e-12 -8.11321e-12 -9.62492

-46.9086 9.86423 3.46826e-12
9.86423 8.87764 -5.88729e-12
3.46826e-12 -5.88729e-12 -70.1542

3.46264 19.2276 -4.16556e-13
19.2276 -41.472 1.53259e-11
-4.16556e-13 1.53259e-11 -70.2701

1.47232 11.3063 4.0649e-13
11.3063 -23.9651 -7.34746e-12
4.0649e-13 -7.34746e-12 -31.8679

109.391 -15.3393 5.36697e-12
-15.3393 -12.5355 7.11016e-12
5.36697e-12 7.11016e-12 -25.0372

-14.3202 24.964 1.21977e-12
24.964 10.3862 9.55443e-12
1.21977e-12 9.55443e-12 -5.80429

76.6065 -61.3544 1.13687e-13
-61.3544 37.3651 -7.10543e-13
1.13687e-13 -7.10543e-13 -22.3953

76.1138 -57.457 5.39302e-12
-57.457 99.2279 -5.13959e-13
5.39302e-12 -5.13959e-13 -5.55533

118.196 -36.5439 7.6407e-12
-36.5439 40.6007 -8.9706e-12
7.6407e-12 -8.9706e-12 -7.37852

-51.1144 -5.15896 -4.27895e-12
-5.15896 3.34074 3.25251e-12
-4.27895e-12 3.25251e-12 -60.6607

-50.4784 2.89124 8.19789e-13
2.89124 3.13501 -2.5057e-12
8.19789e-13 -2.5057e-12 -60.1332

-11.9756 -24.4563 -1.07322e-12
-24.4563 -35.0035 -1.96139e-14
-1.07322e-12 -1.96139e-14 -59.1674

-8.99193 -21.7605 1.06484e-11
-21.7605 -37.8882 -4.76478e-12
1.06484e-11 -4.76478e-12 -59.4769

-14.7027 26.136 -1.21977e-12
26.136 -33.0278 -5.49472e-12
-1.21977e-12 -5.49472e-12 -60.7519

-18.1576 3.09946 5.2293e-12
3.09946 -13.1646 2.73237e-11
5.2293e-12 2.73237e-11 -75.4792

-9.94507 -20.5089 -3.04497e-12
-20.5089 -32.6509 6.20097e-13
-3.04497e-12 6.20097e-13 -56.7377

-26.6485 -18.5683 2.54567e-12
-18.5683 -14.1959 -5.60581e-12
2.54567e-12 -5.60581e-12 -71.273

-15.4791 2.43452 5.28703e-12
2.43452 -12.8526 8.51112e-12
5.28703e-12 8.51112e-12 -77.8738

-6.02754 -20.5263 -4.5135e-12
-20.5263 -41.4873 3.60837e-12
-4.5135e-12 3.60837e-12 -60.508

-6.75682 20.9558 6.51953e-12
20.9558 -40.1435 1.03029e-13
6.51953e-12 1.03029e-13 -60.0191

-14.3163 -3.45854 1.14553e-11
-3.45854 -11.3902 -5.60914e-12
1.14553e-11 -5.60914e-12 -76.8882

-11.2641 -3.11722 6.08313e-12
-3.11722 -17.6893 1.01208e-11
6.08313e-12 1.01208e-11 -74.051

-24.2041 12.1098 -7.38239e-12
12.1098 -13.4007 1.96521e-11
-7.38239e-12 1.96521e-11 -69.9692

-22.0826 26.9297 3.81828e-12
26.9297 -26.267 -2.66771e-12
3.81828e-12 -2.66771e-12 -57.5832

VECTORS fluid_flux_TPM float
-8.72093e-05 3.10246e-05 2.96207e-20
3.55911e-06 6.88172e-06 2.81945e-22
-1.27858e-05 -1.02243e-05 1.82141e-20
-4.17008e-06 4.25351e-06 2.35499e-21
2.2705e-05 -6.31254e-06 1.56278e-20
2.75725e-06 -1.59017e-05 1.73662e-20
-8.57853e-05 -3.10894e-05 4.52474e-21
-1.38907e-05 -1.04655e-05 9.11951e-21
2.21192e-05 9.45409e-07 1.63785e-20
1.13827e-05 -3.90763e-06 6.49015e-21
5.45947e-05 1.24826e-05 -2.549e-21
2.34659e-06 -1.7192e-05 1.34038e-20
1.36099e-05 1.12525e-05 -1.13411e-21
2.66177e-06 1.3783e-05 2.28301e-20
2.05786e-05 -2.9463e-06 3.58101e-20
-1.63304e-05 -2.72867e-07 1.68078e-20
2.7532e-06 1.40971e-05 8.38221e-21
1.01806e-05 -2.39161e-06 5.20838e-21
9.89746e-06 1.72207e-05 -4.00024e-21
-1.48467e-05 1.88524e-06 7.63856e-21
-3.60076e-06 -2.13016e-05 2.34592e-20
3.41076e-05 5.94117e-05 4.50654e-21
1.56957e-05 1.63112e-06 3.34697e-20
1.1226e-05 -1.12802e-05 1.21029e-20
-1.50767e-05 -3.33203e-06 1.16164e-20
-6.7715e-07 -1.11296e-05 1.19283e-20
6.28975e-05 -4.90801e-06 -4.77119e-21
1.40645e-05 1.02477e-05 3.08852e-20
-2.51471e-05 -2.06407e-05 1.47976e-21
4.91157e-05 -1.28127e-05 5.29538e-20
-1.65807e-05 -6.03769e-06 -6.36492e-21
5.53655e-06 -3.20338e-05 2.20705e-21
4.76503e-05 -4.80432e-05 2.52537e-21
-4.92293e-06 -4.12443e-05 9.52845e-22
-2.96708e-05 3.70022e-05 5.27357e-21
-3.82443e-05 -1.63937e-05 -3.36713e-20
3.26999e-05 4.32119e-05 -8.36642e-21
-4.47371e-05 -8.72515e-06 -5.21745e-21
1.43732e-05 -1.10808e-05 8.076e-21
4.64662e-05 5.01111e-05 1.56341e-21
3.21268e-05 -1.40209e-05 5.74073e-21
3.36373e-05 -4.23401e-05 -1.43321e-20
-1.98948e-05 -5.03744e-05 -1.5948e-20
-1.58966e-05 6.35623e-06 1.26853e-20
3.05229e-05 -2.9312e-05 4.83124e-21
-3.03301e-05 1.09893e-05 1.57515e-20
-4.04989e-06 -2.0369e-05 1.61584e-20
7.88549e-06 2.02102e-05 -1.02269e-20
-1.63412e-05 5.92738e-06 1.96839e-20
-1.78185e-05 2.87236e-05 -7.16376e-21
3.24062e-05 1.52897e-05 3.65344e-21
2.9363e-05 -1.00744e-05 1.90251e-20
-1.56652e-05 1.57593e-05 2.35095e-20
-2.35396e-05 -2.06888e-05 5.2772e-21
-2.11385e-05 -5.1321e-06 -5.45815e-21
-4.47885e-05 2.70742e-05 -1.53006e-21
-2.937e-05 -3.80207e-05 2.15483e-20
6.36302e-06 -3.06259e-05 7.82257e-21
-4.77048e-05 6.48248e-06 -9.75403e-21
6.07373e-06 1.36962e-05 -1.56869e-20
-5.5765e-06 -8.173e-06 3.21658e-21
-6.5832e-06 -1.79427e-05 -7.31687e-21
5.71411e-05 2.48584e-05 3.49943e-21
9.24238e-06 1.81434e-05 6.57534e-21
1.22959e-05 -1.44443e-05 -6.64536e-21
-1.64051e-06 -2.07516e-05 1.67104e-20
4.62088e-06 -8.80513e-06 -3.93719e-21
-1.00901e-05 -5.56464e-06 -6.1612e-21
-1.06022e-05 1.19288e-05 -1.55372e-20
2.55808e-06 -4.09242e-06 -4.13849e-21
-1.50428e-05 -1.58426e-05 3.61172e-20
-2.1364e-05 5.1657e-06 -1.35364e-21
-3.55668e-06 3.44799e-05 -6.45666e-23
-1.78711e-05 1.07104e-05 4.2995e-21
-9.07044e-06 1.46141e-05 1.53465e-20
-6.03524e-05 7.6918e-06 1.22042e-20
7.81774e-06 -2.16807e-05 3.07621e-21
-1.88794e-05 -8.89972e-06 -3.89929e-21
1.93364e-06 1.16236e-05 5.7086e-21
2.62999e-05 5.08945e-06 -5.64824e-21
3.41677e-05 -2.8974e-05 2.06825e-20
2.21455e-05 2.05554e-05 -9.17973e-22
1.1908e-05 -2.82222e-06 1.94071e-20
-3.21525e-05 2.40662e-05 1.88305e-20
3.7903e-05 4.84568e-06 1.49067e-21
-4.98067e-06 4.94128e-05 4.83942e-21
-1.74105e-06 -1.68565e-05 2.33743e-20
1.81232e-05 9.9543e-06 2.39397e-20
2.93164e-05 3.02847e-05 -2.36469e-21
5.50228e-05 3.80121e-05 3.65917e-20
-5.33116e-06 3.07717e-05 -1.53067e-21
5.91777e-05 -3.55112e-05 1.76211e-20
-2.71239e-05 5.34099e-06 -4.6475e-21
1.78387e-05 1.10015e-05 3.63738e-21
-2.96401e-05 9.90297e-06 1.36163e-20
1.66524e-05 2.85202e-05 3.87475e-21
1.01685e-05 -4.43851e-05 -4.83534e-22
1.91541e-06 1.16204e-05 1.23746e-20
-1.48002e-05 -1.76195e-05 -2.70545e-21
3.06979e-06 1.74741e-05 5.11591e-21
2.6406e-05 5.2573e-06 6.6096e-21
-1.54428e-05 3.321e-05 2.32346e-21
4.05508e-05 -1.33327e-05 1.70955e-20
-3.77294e-06 7.45478e-06 1.50254e-20
9.9525e-06 5.89911e-06 2.64908e-21
-2.2805e-06 -1.13242e-05 -4.43739e-21
3.22055e-06 -1.92512e-05 -1.91169e-20
1.74688e-05 3.89195e-06 1.51934e-20
-7.93693e-06 4.09712e-05 -3.78014e-21
-9.80529e-06 2.47917e-07 -7.02917e-21
9.3182e-06 1.18854e-05 3.9063e-21
-2.17726e-06 -4.17125e-05 -9.03429e-21
4.20215e-05 1.28646e-05 1.09444e-22
4.4224e-06 -7.45294e-06 2.35371e-20
-1.11448e-05 -3.55352e-06 1.61441e-20
-2.93246e-05 -1.24856e-05 2.09508e-20
1.58032e-05 4.11459e-05 1.00435e-20
-4.34834e-05 -1.55733e-05 2.26976e-20
1.6018e-05 -4.11224e-05 5.34175e-21
-3.69968e-06 -3.19191e-05 9.97777e-21
2.18381e-05 6.52143e-07 2.41449e-20
-7.17125e-06 1.8396e-05 1.24995e-20
-1.61114e-06 3.96943e-06 -1.13398e-20
-3.68585e-06 -1.65382e-05 -1.82353e-21
5.22981e-06 -8.30182e-06 4.55505e-21
9.35917e-06 1.5863e-05 -8.23757e-21
3.31e-05 1.0652e-05 -7.91191e-23
8.61517e-06 -7.45778e-06 5.87777e-21
-8.27064e-06 -4.51584e-05 5.96416e-21
2.55512e-05 -1.88192e-05 8.27458e-21
4.97775e-06 2.77703e-05 3.2563e-21
-2.81623e-06 -2.84151e-06 3.23782e-21
-8.62596e-06 -8.32555e-06 5.20686e-21
-4.77651e-06 4.41242e-08 1.30382e-20
-2.28718e-05 2.85931e-05 3.51854e-21
1.87624e-05 -3.73737e-05 -9.2544e-21
-2.65791e-05 4.27129e-05 1.49669e-20
-1.63712e-05 9.53491e-06 9.56183e-21
2.52786e-06 1.21984e-05 3.88992e-21
-2.29859e-05 -3.49881e-05 -1.87092e-20
1.39356e-05 3.34648e-05 4.34981e-21
1.75071e-05 9.36886e-06 5.96417e-21
2.28106e-05 -8.52234e-06 1.74262e-20
-1.25315e-06 -1.1265e-05 6.65872e-21
-3.39104e-05 -3.15567e-05 -7.27775e-21
-2.75138e-06 1.13029e-05 9.1386e-21
1.7246e-05 1.01713e-05 -1.2184e-21
1.88867e-05 -8.8205e-06 1.20811e-20
8.24285e-06 -1.43443e-05 1.80174e-20
2.4356e-05 -1.07949e-05 3.42365e-21
1.90088e-05 -8.99751e-06 2.11669e-20
4.64044e-06 2.05793e-07 1.4383e-20
2.57396e-05 2.02203e-05 -3.05892e-21
-2.74152e-06 -1.70292e-05 1.11192e-20
-1.04794e-05 -4.45681e-06 3.21114e-21
1.1258e-06 -3.88991e-06 1.06932e-20
-3.15493e-06 1.58463e-05 8.78571e-21
-3.48819e-05 2.76799e-06 -4.81273e-21
-1.2121e-05 -3.32568e-05 6.90579e-21
-7.87875e-06 9.7786e-06 7.20017e-21
1.35647e-05 1.66396e-05 -2.85731e-21
2.65674e-05 -1.87439e-05 1.96393e-20
-3.67907e-05 -2.03498e-05 1.21692e-21
1.74023e-05 -2.75064e-05 -2.30192e-21
2.2803e-05 -2.72154e-05 1.50451e-20
-1.09439e-05 3.78477e-06 2.58527e-20
-1.98281e-05 -2.88389e-05 1.67562e-20
-3.48783e-05 -5.79116e-06 3.89278e-22
-3.85229e-06 -3.17413e-05 4.89582e-21
1.5447e-05 -3.16978e-05 3.38727e-21
-9.10576e-06 -2.61984e-05 5.88473e-21
4.581e-06 3.14041e-05 5.30357e-21
-1.57517e-05 -2.85208e-05 1.01193e-20
2.93868e-06 -1.62915e-05 2.84314e-20
-2.47383e-05 1.82591e-05 2.49268e-20
-1.50301e-05 -1.21106e-05 5.86259e-21
-2.73517e-05 -5.17222e-06 -1.23273e-20
1.56674e-05 -9.1812e-06 9.5133e-21
-4.30675e-06 2.39515e-05 2.63817e-20
1.22321e-05 -9.32411e-06 8.6314e-21
-2.95846e-05 -1.31636e-05 3.04368e-20
-8.8313e-06 -7.45778e-06 5.87566e-21
9.08172e-06 7.54054e-06 4.86157e-21
2.14259e-05 2.86996e-05 7.03615e-21
-1.75081e-05 -1.08088e-05 8.54045e-21
-3.25048e-05 -7.5104e-07 1.73695e-20
-1.63361e-05 -5.01595e-06 4.82518e-21
-4.57794e-06 -1.65826e-05 5.4697e-21
1.7684e-05 2.12383e-05 -1.63404e-21
-1.09569e-05 5.87452e-06 1.2293e-20
6.36016e-07 -2.05545e-05 5.48304e-21
-4.1938e-05 1.08504e-05 -5.23139e-21
2.48595e-05 2.02455e-05 6.19608e-21
3.79433e-06 3.27841e-05 -2.70118e-21
-2.43187e-06 3.79705e-06 1.41148e-20
-9.05055e-06 2.51192e-07 6.28827e-21
4.35491e-06 7.75979e-06 -9.23717e-22
-1.16935e-05 3.40133e-06 -2.74362e-22
-2.0733e-06 -3.78478e-06 1.52083e-20
1.65972e-06 2.07591e-05 1.1376e-20
4.47223e-06 4.49683e-07 -1.05556e-20
-1.95374e-05 4.75646e-06 2.26546e-20
-1.72978e-05 1.93573e-05 -1.83517e-20
-3.10733e-06 1.15778e-05 1.26565e-20
-2.92159e-05 1.83936e-05 1.51246e-20
-9.34303e-06 8.979e-06 9.90743e-21
1.73106e-05 -1.16134e-05 -6.35426e-22
3.66029e-05 -3.56456e-06 1.31453e-21
-2.11399e-05 1.12969e-05 -1.34027e-21
2.23292e-06 4.49808e-06 5.01753e-22
2.17745e-05 -4.34474e-06 1.3325e-20
-1.72783e-05 1.03525e-05 -3.28052e-21
-9.87143e-06 5.53884e-06 2.94588e-20
1.1831e-05 3.74256e-06 2.68307e-20
2.18791e-05 -1.34707e-05 1.12153e-20
-1.73794e-05 9.95575e-06 1.70017e-21
-2.5036e-05 -5.30285e-06 -4.34797e-21
-1.67611e-05 -4.36232e-06 -1.38161e-20
9.87587e-06 6.23793e-09 2.89489e-20
1.01735e-05 1.95354e-07 7.74133e-21
4.39061e-06 8.31687e-06 5.91959e-21
4.82938e-06 -8.79745e-06 1.20472e-20
-5.01017e-06 8.41954e-06 1.47375e-20
-5.26649e-06 -8.65729e-06 -1.12801e-20
9.91065e-06 -7.40775e-06 9.92379e-21
-2.03268e-05 3.2348e-06 -7.8465e-21
-2.00592e-05 -3.28362e-06 -6.74964e-21
-1.28343e-05 1.58759e-05 2.45278e-20
-1.29141e-05 -1.59302e-05 5.13106e-21
7.486e-06 -1.9843e-05 -1.5499e-20
7.20576e-06 1.97631e-05 1.12841e-20
1.55773e-06 2.58841e-05 2.60567e-20
1.124e-05 -3.13672e-06 1.46326e-20
2.35981e-06 -3.86639e-06 1.00884e-20
-2.14105e-05 1.42163e-06 2.381e-20
7.6769e-06 -1.95123e-05 9.11555e-21
7.27316e-06 1.96608e-05 1.70046e-21
4.76862e-06 -5.27122e-08 -1.31725e-20
8.96784e-06 2.44022e-05 1.11371e-20
-2.24221e-06 -4.01617e-06 2.88752e-20
2.31766e-06 -1.13165e-05 1.52528e-20
-2.24295e-05 -1.2151e-05 2.51326e-20
-2.13572e-05 -1.14941e-05 6.40889e-21
-2.18916e-05 1.36279e-05 -5.32962e-21
3.25111e-06 -1.2287e-05 2.32382e-20
-1.56526e-06 3.38181e-06 1.11431e-20
-5.8733e-07 -2.55677e-05 9.761e-21
-7.71984e-06 -2.44215e-05 1.72895e-20
3.27021e-05 3.03608e-05 6.03904e-22
3.54512e-05 -1.81509e-06 7.53673e-22
-1.27104e-05 -3.63197e-06 -9.35686e-21
-2.28912e-05 -4.13834e-05 -1.08036e-20
8.30375e-06 1.37471e-05 -3.83015e-21
-2.52342e-05 3.03311e-06 9.99656e-21
2.00639e-05 5.78605e-06 6.28674e-21
-4.53285e-06 -3.27405e-08 1.28318e-20
-4.66491e-06 -8.41223e-06 7.43815e-21
-7.07247e-06 -3.93303e-05 2.94361e-20
-9.70775e-06 -8.39096e-08 1.76612e-20
-4.8671e-05 -1.8156e-06 9.6377e-22
1.73076e-05 -1.91041e-05 1.76508e-20
2.4292e-06 3.99882e-06 5.91803e-22
-1.20633e-07 -1.75125e-05 1.30418e-20
-9.8178e-06 2.40822e-05 -3.8135e-21
-4.37177e-06 8.62684e-06 7.42573e-21
2.05548e-05 -1.36051e-05 1.46662e-20
-3.76563e-05 -1.35505e-05 -2.25558e-20
-1.52647e-05 -2.03643e-05 2.52763e-20
4.97672e-06 8.38847e-06 -7.07645e-21
1.66299e-05 5.1602e-06 1.76066e-20
-4.76353e-06 -7.33773e-06 9.4439e-21
1.9795e-05 3.54691e-06 2.15047e-20
1.8187e-05 -9.82498e-06 5.67227e-22
-3.48794e-07 2.71704e-05 2.19176e-20
8.31963e-06 -1.36656e-05 4.21011e-20
4.87994e-05 2.20038e-06 -8.06872e-21
-4.23527e-05 1.14522e-05 1.79376e-20
2.28576e-05 1.1555e-05 4.5496e-21
-6.45225e-06 -1.71774e-05 2.68022e-20
-1.53482e-05 -8.61718e-06 7.39966e-21
2.87842e-05 -2.10522e-07 1.38101e-20
-6.91902e-07 -2.42521e-05 7.11921e-21
-1.26159e-05 -1.08728e-05 8.46345e-21
1.02227e-05 -2.34969e-05 -1.61035e-20
-4.96549e-07 2.05529e-05 2.71153e-20
7.91673e-06 2.60646e-05 1.43394e-20
1.72658e-05 -9.88306e-06 6.67417e-21
-1.89456e-05 1.92961e-05 4.95129e-21
1.65257e-05 2.00269e-05 1.38619e-20
-6.22228e-05 1.60199e-05 -1.11291e-21
-1.01079e-05 2.60129e-05 1.36606e-20
1.25174e-05 -1.52464e-05 -1.23591e-20
-7.0282e-06 -1.83955e-05 -4.85913e-21
-1.18521e-05 4.5051e-06 -1.33997e-21
-2.589e-05 -7.04489e-06 1.18677e-20
-6.38531e-06 3.88529e-05 1.53838e-20
-1.26043e-05 1.19009e-05 2.94509e-20
2.0774e-05 -4.47503e-06 1.68744e-20
-6.87159e-06 -2.57909e-05 9.2332e-21
-1.48669e-05 2.38879e-05 -3.27538e-21
-2.17861e-05 1.25632e-05 2.35651e-21
-2.05669e-05 -1.50535e-05 1.81232e-20
1.80263e-05 -2.06524e-05 -1.26328e-21
-2.75271e-05 -1.45606e-06 2.28613e-20
1.23655e-05 -4.0805e-05 2.49597e-21
1.93837e-05 -1.89107e-05 -3.44083e-22
2.47294e-05 4.30763e-05 -1.10352e-21
1.97087e-06 1.9864e-05 1.42549e-21
2.96071e-06 -2.54179e-05 9.25805e-21
-4.1631e-05 4.69559e-05 5.19624e-21
-1.27005e-05 -2.44084e-05 2.18918e-20
1.63647e-05 -6.41972e-06 1.44779e-20
-2.41059e-06 2.57689e-05 1.72022e-20
1.28813e-05 -1.18249e-05 1.86819e-20
1.38788e-05 2.43099e-05 -4.75355e-22
1.72277e-05 -1.40031e-06 2.30902e-20
2.21172e-05 -6.32085e-05 1.10664e-22
-5.87536e-06 -1.28575e-05 1.85919e-20
-2.31813e-05 1.00858e-05 8.20758e-21
-2.00174e-05 1.87166e-05 3.08273e-20
2.16095e-05 1.45658e-05 -1.70136e-20
1.86702e-05 -1.07553e-05 1.98706e-20
1.495e-05 1.25918e-05 1.68874e-22
-5.42744e-06 4.55074e-08 1.0957e-20
1.54016e-05 -2.30843e-05 3.09047e-21
-1.69881e-05 -2.04065e-05 2.67758e-20
2.2559e-05 9.77246e-06 5.5267e-21
1.2805e-05 -1.19882e-05 2.43662e-20
9.5527e-06 -2.48486e-05 -1.43645e-20
1.66571e-05 -6.932e-06 7.40631e-22
-1.58034e-05 -7.54366e-06 -3.62978e-21
1.29668e-06 -2.62996e-05 -5.53277e-22
-2.61034e-05 4.4725e-06 1.85525e-20
2.39009e-06 2.45396e-05 1.50724e-20
2.05823e-05 6.62662e-06 1.6494e-20
-2.17177e-05 -1.07005e-05 9.83482e-22
-8.97606e-06 2.56068e-05 -7.77313e-21
-1.4952e-06 -2.41849e-05 1.84467e-20
1.94639e-05 1.18359e-05 9.01279e-21
-1.76874e-06 1.80825e-05 9.66915e-21
-2.01362e-05 1.37009e-05 7.1456e-21
2.3508e-05 1.14138e-05 2.47282e-20
-1.71131e-05 -9.98438e-06 1.01875e-20
9.50913e-08 -1.98323e-05 2.54631e-20
1.83801e-05 1.99818e-05 -8.46495e-21
-2.21511e-05 -1.43019e-05 7.55455e-21
4.83453e-05 -3.39782e-05 3.78659e-22
1.78949e-05 -1.08212e-05 7.48392e-21
9.00083e-06 4.30822e-05 -3.34753e-21
1.70322e-05 -1.36771e-05 1.61199e-20
-1.98727e-05 8.70258e-05 1.35866e-20
-1.97629e-05 -8.65401e-05 -2.86126e-21
5.71781e-05 7.17098e-05 1.23082e-20
5.69156e-05 -7.13836e-05 3.40939e-21
9.06374e-05 -1.59978e-10 1.33514e-21
-7.81928e-05 3.76341e-05 -7.59699e-21
-7.74471e-05 -3.72784e-05 1.18443e-20
1.22326e-05 1.18174e-05 1.2636e-21
2.93649e-05 2.18901e-05 1.81675e-20
1.1447e-05 3.33248e-06 3.48155e-21
1.88538e-05 9.75053e-06 1.55793e-20
4.98873e-06 2.01681e-05 3.21567e-21
-1.883e-05 -1.49788e-05 5.40544e-21
1.70363e-05 -1.02132e-05 -5.068e-21
1.98506e-05 1.45479e-05 1.13809e-21
-3.16663e-06 2.43616e-05 5.67949e-21
2.94378e-05 -1.99909e-05 1.95532e-20
3.79353e-06 -2.37375e-05 7.07496e-21
2.19587e-05 5.22655e-06 8.9461e-21
2.9893e-05 1.10249e-05 2.28947e-20
1.42074e-05 1.41425e-05 -2.22491e-21
1.58817e-05 6.59307e-06 1.24097e-20
-1.8497e-05 1.09356e-05 2.1324e-20
-2.2561e-05 9.03578e-06 1.79195e-20
2.29273e-05 -1.12624e-05 3.86807e-21
-1.82662e-05 -9.99707e-06 1.5375e-20
-1.85527e-05 -1.05815e-05 8.57927e-21
-3.43824e-07 -2.07658e-05 1.42272e-20
-8.61427e-08 -2.11588e-05 1.52359e-20
-2.01252e-05 -1.00538e-06 9.40752e-21
2.66966e-05 -4.0188e-06 9.76918e-21
1.81104e-05 1.13411e-05 -9.41385e-21
-1.78626e-05 1.09441e-05 1.28478e-20
-1.53601e-05 1.66222e-05 1.49873e-20
1.60207e-05 -1.3752e-05 1.46826e-20
-1.10225e-05 1.74618e-05 -8.07932e-21
-1.42236e-05 -1.48883e-05 3.63716e-20
-1.15515e-06 2.12088e-05 1.30327e-20
-1.28757e-06 2.09664e-05 1.21084e-20
8.97134e-08 -1.98323e-05 8.81997e-21
6.11029e-06 -1.97356e-05 1.01709e-20
-1.71395e-05 -9.93463e-06 6.6939e-22
1.55855e-05 -5.48982e-06 1.4826e-20
6.63105e-07 2.1476e-05 -5.44907e-21
3.00816e-07 1.85059e-05 9.2241e-21
-2.34556e-06 1.68559e-05 1.71082e-20
2.19069e-05 -5.52696e-06 3.02901e-20
-1.65399e-05 5.37763e-06 -9.62061e-21
4.15711e-06 2.15157e-05 -7.31527e-22
-3.25557e-05 1.29182e-05 -1.00892e-21
9.76254e-06 4.17281e-05 -1.23582e-20
-1.70521e-05 4.56777e-06 1.78717e-21
1.96829e-05 -1.16292e-05 1.98274e-22
9.45694e-07 2.10178e-05 4.55064e-22
-2.04796e-05 6.6989e-06 2.05018e-20
2.4439e-06 -1.62612e-05 1.19865e-20
1.81899e-06 -5.80081e-05 1.38895e-20
2.00631e-06 1.74849e-05 -1.1395e-20
-1.69607e-05 1.40215e-05 2.52355e-21
1.78527e-05 6.39669e-05 8.11571e-22
4.57658e-05 3.7704e-05 2.23135e-20
5.2061e-05 -3.5253e-05 1.80643e-20
1.48143e-05 -1.01664e-05 5.81561e-21
-1.57843e-05 1.40366e-05 -5.93898e-21
-2.02154e-05 -7.92012e-06 1.41341e-20
-1.96442e-05 -6.82191e-06 -1.2072e-20
5.92628e-05 -2.46102e-05 2.61985e-20
5.74295e-05 2.38692e-05 1.51652e-20
1.08937e-05 3.81721e-06 -5.55427e-21
7.66578e-07 1.9578e-05 5.20504e-21
7.83516e-08 1.95593e-05 2.91526e-20
-4.83795e-05 -3.69161e-05 1.28706e-20
1.14244e-05 -1.71707e-05 1.9602e-20
1.17325e-05 1.24638e-05 -4.5226e-21
-2.14167e-05 -3.39551e-06 4.15959e-22
-1.4044e-05 1.72009e-05 -7.89984e-21
-1.88873e-05 9.16713e-06 1.74244e-20
4.76401e-05 3.36921e-05 -1.649e-20
1.58054e-05 7.06119e-06 1.5992e-20
-5.56639e-06 2.0029e-05 -8.80146e-21
-1.69769e-05 -1.17484e-05 1.57346e-20
1.85612e-06 -2.05415e-05 2.08286e-20
-8.94915e-06 -1.9266e-05 2.02844e-20
-1.7248e-05 -1.17728e-05 1.21478e-20
1.05789e-05 -1.89346e-05 1.77018e-20
1.41215e-05 -1.69882e-05 2.8047e-20
-2.44023e-06 -6.14335e-05 1.09149e-22
2.61786e-05 -4.11231e-05 -5.58155e-21
1.74738e-06 -2.07843e-05 1.6242e-20
1.79576e-05 1.13547e-05 9.64822e-21
-1.44755e-05 -1.49044e-05 2.97174e-20
-9.84047e-06 1.97089e-05 -1.24822e-20
-5.03912e-06 2.10054e-05 6.9972e-22
1.66262e-05 1.42429e-05 -1.32625e-20
6.05863e-06 -1.98602e-05 2.63101e-20
-1.34057e-05 -4.03555e-05 -1.55717e-20
-1.98826e-06 2.5039e-05 4.77909e-21
1.4791e-05 1.44543e-05 -1.27708e-20
-1.29575e-05 -1.02161e-05 -3.40756e-21
-1.35142e-05 1.06076e-05 -2.93777e-23
4.43402e-05 -1.89121e-05 1.66868e-20
7.5626e-06 -1.33994e-05 2.61707e-20
-8.31668e-06 -1.26263e-05 2.77117e-20
2.13293e-05 6.3631e-06 1.23164e-20
1.09937e-05 -5.0659e-05 2.00349e-20
-3.84492e-05 -3.4901e-05 -2.34328e-20
2.33054e-05 6.20704e-06 3.55752e-20
-9.32771e-06 -1.82801e-05 2.02723e-20
1.87046e-05 9.48225e-06 6.03269e-21
-2.85628e-05 -3.25494e-05 -5.35075e-22
9.68763e-06 5.0044e-05 1.46265e-20
3.43322e-05 -5.98563e-05 1.86919e-20
-3.47352e-05 -5.97732e-05 -2.42814e-20
2.78068e-05 -5.20193e-05 6.73662e-21
-1.26974e-05 4.36307e-05 1.7968e-20
-6.27572e-06 3.89752e-05 2.6715e-21
-1.87297e-05 8.94538e-06 1.31636e-21
5.97687e-06 2.42408e-05 2.40774e-21
-2.39144e-06 1.26533e-05 2.11576e-20
1.01196e-05 3.23296e-06 -3.38391e-21
-3.1883e-06 1.62046e-05 4.37194e-21
-2.47442e-07 2.09906e-05 1.33341e-20
1.66597e-05 9.75003e-06 1.20511e-20
1.7101e-06 5.77209e-05 3.86019e-21
-1.47164e-05 1.0732e-05 -7.88621e-21
1.59485e-05 -6.24626e-06 1.01024e-20
1.68709e-05 -4.50872e-06 1.7073e-20
-6.06591e-05 -8.76835e-06 8.31945e-21
-3.46037e-05 1.67405e-05 -9.63486e-21
-4.35121e-05 -5.25432e-05 8.68809e-21
8.65602e-06 8.34521e-06 -9.86132e-21
1.42091e-05 7.29213e-06 5.34177e-21
2.68032e-05 -4.19562e-06 2.5786e-20
-8.10392e-06 -1.32421e-05 1.04765e-20
1.72156e-05 8.42813e-06 1.0615e-20
7.33491e-06 -3.00329e-05 -1.98351e-20
-1.37129e-05 1.02044e-05 -3.93566e-21
-2.23731e-05 -2.14211e-05 -7.94141e-21
-5.83564e-06 1.62968e-05 1.08936e-20
-3.27081e-06 2.06773e-05 1.07763e-20
3.38478e-05 2.12952e-05 1.08606e-20
3.61111e-05 -1.92817e-05 1.54753e-20
-4.20679e-05 -1.16223e-05 1.33896e-20
7.63373e-06 7.68529e-06 -1.21654e-20
-4.05833e-06 0.000101355 -1.48581e-21
8.61674e-07 -0.000104461 1.06171e-20
5.24512e-05 8.76397e-05 1.16491e-20
-1.91018e-05 8.45739e-06 1.59709e-21
-2.6375e-05 5.65461e-05 1.30106e-20
5.30294e-05 -8.46345e-05 2.06213e-21
-1.17198e-05 -1.82812e-05 1.98743e-20
7.79953e-05 6.74936e-05 -5.05436e-21
2.39921e-05 -1.79757e-05 -1.81435e-20
-3.60722e-06 -2.98203e-05 -5.94932e-21
8.17738e-05 -6.58463e-05 3.42394e-21
-6.74422e-06 1.45174e-05 -1.21651e-20
-5.38287e-05 -3.48216e-05 2.26919e-20
-4.30106e-05 -9.3124e-05 1.20387e-20
-2.41111e-05 -5.78006e-05 -2.77729e-20
-4.39722e-05 9.4131e-05 -1.27783e-21
-1.00927e-05 6.40799e-05 -1.09515e-20
1.56318e-05 3.7106e-05 4.54717e-21
-2.79536e-05 3.72381e-05 3.34851e-20
-2.52714e-05 -5.51798e-05 5.62795e-21
0.000100359 1.73159e-05 -8.54105e-21
-1.69264e-05 1.07664e-05 1.85447e-21
-5.91198e-06 1.6332e-05 -2.19187e-21
-5.07548e-05 3.76372e-05 9.76069e-21
-1.72752e-05 9.9435e-06 5.44394e-21
9.91965e-05 -1.52624e-05 6.28036e-21
-1.53592e-05 7.79821e-06 -2.12045e-23
7.19216e-06 -1.4494e-05 3.15461e-20
-7.79645e-05 -6.09443e-05 1.4524e-20
-2.58773e-05 5.77135e-05 7.10436e-21
-7.91174e-05 6.03716e-05 2.13058e-20
2.45387e-05 5.1947e-05 1.64291e-20
-1.47666e-05 1.05818e-05 -4.15243e-21
-2.05286e-05 2.4475e-05 1.47617e-20
-2.85309e-05 4.98147e-05 1.50621e-20
-5.67724e-05 2.07976e-07 -1.37022e-22
-9.4405e-07 1.6295e-05 1.34071e-20
-2.88478e-05 -5.04033e-05 3.41078e-20
-5.81947e-05 -2.1979e-07 -1.04668e-20
-2.83477e-05 4.86932e-05 -5.02798e-21
-1.51893e-05 6.62619e-05 -6.44739e-21
-1.78637e-05 4.12579e-05 7.32355e-21
-3.38981e-05 2.71356e-05 3.84172e-21
2.43814e-05 -6.05656e-06 8.93607e-21
3.80003e-05 -2.19517e-06 -3.35603e-21
1.34815e-05 8.19979e-06 -1.38746e-20
-1.04685e-05 -7.39829e-05 9.24954e-22
-6.94445e-05 -2.79724e-05 -1.59019e-20
3.71299e-05 7.3269e-07 5.5543e-21
5.83624e-05 -1.08915e-05 -1.62556e-21
-1.0583e-05 -1.34962e-05 2.06003e-20
-5.08255e-05 3.7623e-05 3.2522e-20
-4.61307e-05 5.39966e-05 3.01151e-20
6.23587e-05 -2.2231e-05 -4.30948e-21
-2.81756e-05 -5.04939e-05 3.11044e-20
-2.87753e-05 4.97764e-05 1.13523e-20
-5.72508e-05 -1.17108e-06 8.82392e-21
-2.65717e-05 5.05946e-05 5.10197e-21
-5.79495e-05 -8.16961e-07 -1.03922e-20
6.6072e-05 1.73913e-05 2.84693e-20
5.63766e-05 1.29242e-06 -7.00765e-21
5.08969e-05 -2.9272e-05 1.81705e-20
2.49086e-05 -5.94234e-05 1.08724e-20
2.99166e-05 -4.88537e-05 1.79018e-20
2.91656e-05 4.86777e-05 -5.18405e-22
2.43435e-05 5.80857e-05 -7.14527e-21
7.57976e-05 -2.00363e-05 3.03268e-20
4.62634e-05 2.90614e-05 1.9823e-20
4.66213e-05 1.37446e-05 4.26119e-20
TENSORS solid_stress_TPM float
375.03 -24.9203 -5.42855e-12
-24.9203 238.569 -1.72543e-12
-5.42855e-12 -1.72543e-12 197.816

457.001 -21.3202 2.78947e-12
-21.3202 489.985 6.62581e-13
2.78947e-12 6.62581e-13 487.108

454.876 28.0431 1.893e-12
28.0431 463.706 2.88954e-13
1.893e-12 2.88954e-13 458.456

455.026 -29.8427 5.11739e-13
-29.8427 482.607 -1.50709e-12
5.11739e-13 -1.50709e-12 484.855

527.685 19.9309 -8.88178e-13
19.9309 548.455 4.56131e-12
-8.88178e-13 4.56131e-12 527.355

437.309 -18.0743 -1.57267e-12
-18.0743 480.336 -1.46786e-12
-1.57267e-12 -1.46786e-12 458.037

372.325 26.4845 -4.26326e-12
26.4845 239.089 3.43429e-14
-4.26326e-12 3.43429e-14 197.801

473.649 29.9578 4.20937e-12
29.9578 469.499 2.21512e-12
4.20937e-12 2.21512e-12 472.335

471.545 5.48311 -1.76096e-12
5.48311 417.82 1.6576e-12
-1.76096e-12 1.6576e-12 432.793

504.257 -7.47757 2.26841e-12
-7.47757 444.109 -2.35641e-12
2.26841e-12 -2.35641e-12 483.449

360.291 16.3084 -1.82373e-12
16.3084 247.654 3.81858e-12
-1.82373e-12 3.81858e-12 233.643

444.779 -13.4531 -1.75134e-12
-13.4531 498.383 -1.13805e-12
-1.75134e-12 -1.13805e-12 472.237

466.865 27.833 -1.69346e-13
27.833 468.299 -1.38437e-12
-1.69346e-13 -1.38437e-12 466.732

457.034 -14.34 -2.84126e-12
-14.34 500.431 3.75522e-12
-2.84126e-12 3.75522e-12 483.455

512.935 33.3114 1.15197e-12
33.3114 511.595 -2.41066e-13
1.15197e-12 -2.41066e-13 515.224

489.169 0.560969 2.16301e-12
0.560969 435.52 -1.49813e-12
2.16301e-12 -1.49813e-12 462.269

457.581 -17.9691 -3.56471e-12
-17.9691 512.883 -4.33431e-13
-3.56471e-12 -4.33431e-13 493.594

493.954 -2.6652 1.73284e-12
-2.6652 439.046 -1.82817e-13
1.73284e-12 -1.82817e-13 474.261

418.79 26.6735 6.57252e-13
26.6735 449.656 -2.69236e-12
6.57252e-13 -2.69236e-12 424.05

481.978 -4.19555 1.38733e-12
-4.19555 424.918 1.55801e-13
1.38733e-12 1.55801e-13 453.471

425.293 8.66854 -9.80845e-13
8.66854 481.899 5.23078e-12
-9.80845e-13 5.23078e-12 444.838

634.129 6.28769 6.85198e-12
6.28769 633.963 5.85028e-12
6.85198e-12 5.85028e-12 570.316

479.149 1.87597 7.33635e-13
1.87597 422.937 -5.1766e-13
7.33635e-13 -5.1766e-13 449.729

447.159 -27.715 4.54599e-12
-27.715 461.147 5.31131e-13
4.54599e-12 5.31131e-13 452.945

481.045 6.84935 -1.27898e-13
6.84935 425.437 -5.41049e-13
-1.27898e-13 -5.41049e-13 452.935

449.755 19.1128 -8.34074e-13
19.1128 490.314 2.31134e-12
-8.34074e-13 2.31134e-12 478.203

377.651 4.18134 -2.79006e-12
4.18134 291.652 1.30947e-12
-2.79006e-12 1.30947e-12 259

462.682 30.7457 -1.22865e-12
30.7457 460.711 -2.95142e-12
-1.22865e-12 -2.95142e-12 460.542

384.938 37.0741 3.77298e-12
37.0741 383.517 -1.55372e-12
3.77298e-12 -1.55372e-12 348.416

586.941 10.3235 5.56858e-12
10.3235 563.45 5.70003e-12
5.56858e-12 5.70003e-12 546.871

491.684 14.2168 9.62785e-13
14.2168 442.494 2.02653e-13
9.62785e-13 2.02653e-13 465.853

352.853 -17.7802 -6.93963e-13
-17.7802 416.72 3.73864e-12
-6.93963e-13 3.73864e-12 348.587

331.015 -42.1014 1.89004e-12
-42.1014 335.87 1.76451e-12
1.89004e-12 1.76451e-12 253.48

531.408 5.98677 5.24275e-13
5.98677 586.888 -2.21423e-12
5.24275e-13 -2.21423e-12 538.58

554.022 -4.8407 -8.70267e-13
-4.8407 582.07 2.4641e-12
-8.70267e-13 2.4641e-12 542.51

577.985 21.0279 -6.64594e-12
21.0279 539.945 2.60281e-12
-6.64594e-12 2.60281e-12 538.348

556.183 5.06752 -8.11795e-13
5.06752 600.673 5.63756e-12
-8.11795e-13 5.63756e-12 547.968

573.773 -9.16994 -2.81434e-12
-9.16994 555.763 -2.10748e-13
-2.81434e-12 -2.10748e-13 540.636

467.124 -27.998 -1.09956e-12
-27.998 466.488 1.43885e-12
-1.09956e-12 1.43885e-12 465.104

330.399 41.5207 -4.3201e-12
41.5207 337.968 -3.68535e-12
-4.3201e-12 -3.68535e-12 253.839

414.522 -17.9489 -2.75691e-12
-17.9489 354.484 -2.03748e-12
-2.75691e-12 -2.03748e-12 346.317

559.304 -3.70607 -1.52397e-12
-3.70607 599.923 -1.9611e-12
-1.52397e-12 -1.9611e-12 548.382

586.411 19.5556 -1.65712e-12
19.5556 572.453 -1.22332e-12
-1.65712e-12 -1.22332e-12 548.171

490.889 -12.2732 2.39098e-12
-12.2732 442.849 1.53329e-12
2.39098e-12 1.53329e-12 466.525

341.705 -43.2986 4.54392e-12
-43.2986 345.333 9.87654e-13
4.54392e-12 9.87654e-13 288.973

417.547 -18.0632 -3.90443e-12
-18.0632 357.102 3.77653e-12
-3.90443e-12 3.77653e-12 351.491

413.002 17.0855 1.92572e-12
17.0855 464.77 -1.46964e-12
1.92572e-12 -1.46964e-12 428.715

429.618 19.3388 -3.02543e-12
19.3388 466.5 -3.60304e-12
-3.02543e-12 -3.60304e-12 437.069

486.768 -16.3009 -5.90935e-13
-16.3009 432.863 -6.50295e-13
-5.90935e-13 -6.50295e-13 458.666

355.57 -34.185 4.48649e-12
-34.185 389.39 -3.9222e-12
4.48649e-12 -3.9222e-12 332.558

410.24 19.1816 -7.35412e-13
19.1816 350.691 1.22391e-12
-7.35412e-13 1.22391e-12 339.467

425.188 -25.2881 -3.64982e-12
-25.2881 383.81 -4.28191e-12
-3.64982e-12 -4.28191e-12 373.066

519.912 19.4857 -1.73683e-12
19.4857 547.522 9.43245e-13
-1.73683e-12 9.43245e-13 525.722

416.401 29.649 2.11623e-12
29.649 393.874 -7.80413e-13
2.11623e-12 -7.80413e-13 373.93

522.166 -21.8128 -3.15333e-12
-21.8128 541.388 4.81698e-13
-3.15333e-12 4.81698e-13 524.368

364.061 -42.7108 1.27898e-13
-42.7108 343.272 3.73035e-12
1.27898e-13 3.73035e-12 289.691

553.443 5.45972 -3.71111e-12
5.45972 583.862 -5.29502e-12
-3.71111e-12 -5.29502e-12 542.885

373.706 -5.32972 -4.18421e-12
-5.32972 436.651 -9.45022e-13
-4.18421e-12 -9.45022e-13 373.814

580.811 10.3842 5.94073e-12
10.3842 556.163 -3.93077e-12
5.94073e-12 -3.93077e-12 542.641

435.046 21.4129 -1.16055e-12
21.4129 473.75 5.76132e-13
-1.16055e-12 5.76132e-13 454.661

513.563 5.75387 -7.588e-13
5.75387 452.796 7.4829e-13
-7.588e-13 7.4829e-13 494.856

522.449 11.4589 2.17781e-12
11.4589 487.853 3.60482e-12
2.17781e-12 3.60482e-12 507.07

383.696 31.8195 -7.01779e-12
31.8195 315.186 -2.7119e-12
-7.01779e-12 -2.7119e-12 269.864

482.079 -6.03513 1.16233e-12
-6.03513 528.172 -1.16884e-12
1.16233e-12 -1.16884e-12 504.092

487.088 9.5197 -3.18604e-12
9.5197 523.681 4.93087e-12
-3.18604e-12 4.93087e-12 507.488

456.45 -2.88078 3.54709e-12
-2.88078 520.148 3.80318e-12
3.54709e-12 3.80318e-12 487.799

464.446 23.402 8.14164e-13
23.402 503.461 -1.64313e-13
8.14164e-13 -1.64313e-13 495.432

496.738 8.46348 -3.07843e-12
8.46348 444.39 -1.86917e-12
-3.07843e-12 -1.86917e-12 477.69

445.498 -28.2391 8.17124e-14
-28.2391 459.52 -1.63602e-12
8.17124e-14 -1.63602e-12 451.159

501.673 -1.71123 -1.55431e-14
-1.71123 444.908 -2.50903e-12
-1.55431e-14 -2.50903e-12 489.06

519.525 -19.2618 4.91459e-13
-19.2618 546.815 2.21985e-12
4.91459e-13 2.21985e-12 525.455

523.295 21.3078 -1.8634e-12
21.3078 542.913 -1.55288e-12
-1.8634e-12 -1.55288e-12 525.257

353.403 -16.5832 3.21387e-12
-16.5832 415.727 -3.10033e-12
3.21387e-12 -3.10033e-12 346.106

506.013 -27.936 -2.04518e-12
-27.936 485.302 -3.09205e-12
-2.04518e-12 -3.09205e-12 493.872

449.712 -25.1344 -2.0961e-13
-25.1344 471.212 2.94283e-13
-2.0961e-13 2.94283e-13 458.569

357.864 -31.7102 -4.26799e-12
-31.7102 285.671 -4.73162e-12
-4.26799e-12 -4.73162e-12 249.853

498.492 3.22261 1.85888e-12
3.22261 541.398 4.93353e-12
1.85888e-12 4.93353e-12 513.635

501.718 28.9438 -2.25479e-12
28.9438 474.542 3.49972e-12
-2.25479e-12 3.49972e-12 487.65

448.437 19.6641 2.71324e-12
19.6641 492.1 2.2089e-12
2.71324e-12 2.2089e-12 477.635

440.184 7.99944 -1.75978e-12
7.99944 373.031 1.5703e-12
-1.75978e-12 1.5703e-12 382.928

386.444 -33.9351 -1.63306e-12
-33.9351 360.2 -1.06818e-12
-1.63306e-12 -1.06818e-12 319.43

537.714 -10.5875 -5.0567e-12
-10.5875 556.132 6.88634e-13
-5.0567e-12 6.88634e-13 531.242

482.649 23.8995 -4.3047e-13
23.8995 504.552 1.2486e-12
-4.3047e-13 1.2486e-12 502.035

385.365 -32.3834 1.12739e-12
-32.3834 345.3 2.34361e-12
1.12739e-12 2.34361e-12 317.075

422.19 10.7909 1.36424e-12
10.7909 363.844 8.78112e-13
1.36424e-12 8.78112e-13 350.247

307.646 -21.2057 4.4856e-12
-21.2057 388.436 1.26927e-11
4.4856e-12 1.26927e-11 288.11

434.437 14.4256 -1.21902e-12
14.4256 488.661 2.72019e-12
-1.21902e-12 2.72019e-12 460.877

509.714 23.1429 -4.10338e-13
23.1429 475.165 -5.40989e-12
-4.10338e-13 -5.40989e-12 489.939

338.235 42.1981 4.73814e-12
42.1981 349.566 9.10679e-13
4.73814e-12 9.10679e-13 288.946

634.214 16.5071 4.78765e-12
16.5071 603.066 3.18486e-12
4.78765e-12 3.18486e-12 565.32

372.883 -4.1083 2.84632e-12
-4.1083 436.81 4.41721e-13
2.84632e-12 4.41721e-13 373.421

637.12 -16.6323 -1.26819e-11
-16.6323 599.536 6.22095e-12
-1.26819e-11 6.22095e-12 564.827

533.933 -27.3349 -9.38508e-13
-27.3349 507.233 -1.53596e-12
-9.38508e-13 -1.53596e-12 515.708

505.29 27.4245 -2.81257e-12
27.4245 466.328 4.28546e-12
-2.81257e-12 4.28546e-12 485.066

426.919 -24.4103 3.68061e-12
-24.4103 386.232 -5.02383e-12
3.68061e-12 -5.02383e-12 375.972

358.931 31.3228 -2.47447e-12
31.3228 395.998 -2.40045e-12
-2.47447e-12 -2.40045e-12 339.195

339.819 -10.705 1.10726e-12
-10.705 408.385 -5.28881e-12
1.10726e-12 -5.28881e-12 319.1

453.098 21.9707 4.60965e-13
21.9707 494.672 3.25044e-12
4.60965e-13 3.25044e-12 483.162

533.108 16.794 2.69325e-12
16.794 506.193 -1.99041e-12
2.69325e-12 -1.99041e-12 513.347

443.446 15.1537 2.15679e-13
15.1537 488.433 -2.21689e-12
2.15679e-13 -2.21689e-12 464.276

451.474 15.9537 1.16174e-12
15.9537 400.531 -1.0895e-13
1.16174e-12 -1.0895e-13 403.741

374.483 -21.4722 3.69364e-12
-21.4722 419.861 -4.83998e-12
3.69364e-12 -4.83998e-12 357.192

389.717 -29.3902 2.34716e-12
-29.3902 342.365 -9.65746e-13
2.34716e-12 -9.65746e-13 314.386

454.96 -24.5729 3.72887e-12
-24.5729 480.059 2.86882e-13
3.72887e-12 2.86882e-13 478.365

466.421 27.4508 -3.25488e-12
27.4508 478.737 1.89478e-14
-3.25488e-12 1.89478e-14 479.804

452.211 23.1875 3.5083e-14
23.1875 492.553 1.41605e-12
3.5083e-14 1.41605e-12 482.037

466.291 13.1692 -1.9634e-12
13.1692 529.771 8.13394e-12
-1.9634e-12 8.13394e-12 501.378

490.856 9.37222 1.54898e-12
9.37222 437.884 1.02096e-12
1.54898e-12 1.02096e-12 462.05

327.707 -4.665 1.85215e-12
-4.665 403.376 2.34005e-12
1.85215e-12 2.34005e-12 314.407

462.574 -36.8333 5.66451e-12
-36.8333 487.685 -4.17133e-12
5.66451e-12 -4.17133e-12 492.743

445.844 27.465 2.84128e-12
27.465 463.264 -2.3667e-12
2.84128e-12 -2.3667e-12 455.009

305.668 2.17031 1.97205e-12
2.17031 393.355 -3.55271e-12
1.97205e-12 -3.55271e-12 297.252

385.992 34.6099 2.179e-13
34.6099 332.444 -3.67114e-14
2.179e-13 -3.67114e-14 306.241

453.345 -22.9737 -2.35811e-12
-22.9737 480.064 9.48575e-13
-2.35811e-12 9.48575e-13 476.167

501.389 5.73296 -1.1496e-12
5.73296 441.31 -2.33968e-12
-1.1496e-12 -2.33968e-12 481.005

422.375 27.2037 -7.87518e-13
27.2037 389.762 1.04154e-12
-7.87518e-13 1.04154e-12 374.229

570.539 12.7455 5.15588e-13
12.7455 565.914 -3.94292e-12
5.15588e-13 -3.94292e-12 542.913

396.173 24.3302 -5.19407e-12
24.3302 349.644 4.53918e-12
-5.19407e-12 4.53918e-12 319.04

569.161 -13.055 4.07111e-12
-13.055 565.826 -2.89931e-12
4.07111e-12 -2.89931e-12 542.368

375.087 0.778524 4.12292e-12
0.778524 438.864 -5.85014e-13
4.12292e-12 -5.85014e-13 374.636

461.465 -2.23529 -8.37611e-12
-2.23529 399.298 -2.70317e-12
-8.37611e-12 -2.70317e-12 417.277

538.192 -15.768 -2.57157e-12
-15.768 480.627 -1.48385e-12
-2.57157e-12 -1.48385e-12 513.474

457.24 24.3881 -1.43131e-12
24.3881 487.78 8.87734e-13
-1.43131e-12 8.87734e-13 488.349

461.251 -13.535 7.49509e-13
-13.535 519.131 4.23365e-13
7.49509e-13 4.23365e-13 495.71

514.964 -7.99999 -1.20467e-12
-7.99999 438.186 9.03277e-13
-1.20467e-12 9.03277e-13 494.272

488.311 -22.2841 -3.43429e-14
-22.2841 541.599 -9.1808e-13
-3.43429e-14 -9.1808e-13 515.746

556.048 -6.59648 -6.25485e-12
-6.59648 560.391 -3.62299e-12
-6.25485e-12 -3.62299e-12 538.726

463.861 -29.9081 1.43322e-12
-29.9081 483.191 2.01883e-12
1.43322e-12 2.01883e-12 483.595

341.703 11.4535 -5.9727e-12
11.4535 406.189 -9.04758e-13
-5.9727e-12 -9.04758e-13 319.479

422.476 -28.1461 2.75691e-12
-28.1461 391.237 1.70234e-12
2.75691e-12 1.70234e-12 375.143

507.378 -13.7722 5.84643e-13
-13.7722 558.745 -3.43429e-14
5.84643e-13 -3.43429e-14 525.248

501.052 0.504422 3.12254e-12
0.504422 441.275 -2.31815e-12
3.12254e-12 -2.31815e-12 487.082

476.938 -21.5245 9.6619e-13
-21.5245 507.417 9.24298e-13
9.6619e-13 9.24298e-13 501.5

459.093 25.6977 1.2245e-12
25.6977 484.596 -2.52842e-12
1.2245e-12 -2.52842e-12 487.977

394.425 -31.4639 5.40368e-12
-31.4639 400.594 -4.583e-12
5.40368e-12 -4.583e-12 357.517

552.124 -7.08506 -1.59843e-12
-7.08506 585.293 1.02525e-12
-1.59843e-12 1.02525e-12 542.6

347.206 -33.0763 -3.48876e-12
-33.0763 382.603 9.15179e-12
-3.48876e-12 9.15179e-12 303.431

490.865 -19.1795 -6.03369e-13
-19.1795 448.383 2.63197e-13
-6.03369e-13 2.63197e-13 467.119

519.704 1.97026 1.26521e-12
1.97026 466.81 2.91323e-13
1.26521e-12 2.91323e-13 502.827

570.556 17.8751 1.31983e-12
17.8751 566.478 -9.49877e-12
1.31983e-12 -9.49877e-12 542.372

375.286 20.1825 -6.41324e-12
20.1825 424.026 1.66978e-12
-6.41324e-12 1.66978e-12 360.216

489.077 27.2103 -2.60059e-12
27.2103 468.535 -5.4771e-13
-2.60059e-12 -5.4771e-13 476.634

454.374 -24.5113 3.90799e-14
-24.5113 415.337 -7.62945e-13
3.90799e-14 -7.62945e-13 418.597

454.714 -17.8385 -1.51586e-12
-17.8385 494.901 1.05397e-13
-1.51586e-12 1.05397e-13 482.636

379.194 35.0677 2.56269e-12
35.0677 366.026 -4.35444e-12
2.56269e-12 -4.35444e-12 317.045

449.147 -21.831 1.10075e-12
-21.831 491.699 2.33147e-12
1.10075e-12 2.33147e-12 479.768

485.486 30.8503 -2.39927e-12
30.8503 465.131 -1.98241e-12
-2.39927e-12 -1.98241e-12 473.441

480.317 -25.2438 -6.98049e-12
-25.2438 442.362 -6.75016e-14
-6.98049e-12 -6.75016e-14 455.437

448.212 -25.1261 -2.63019e-12
-25.1261 469.762 -6.05086e-12
-2.63019e-12 -6.05086e-12 458.091

445.339 -18.6878 3.22586e-12
-18.6878 393.455 -1.02188e-11
3.22586e-12 -1.02188e-11 397.252

470.647 -18.8493 -5.57658e-12
-18.8493 422.847 -3.26968e-12
-5.57658e-12 -3.26968e-12 437.526

458.993 -25.3369 2.30068e-12
-25.3369 485.422 1.61123e-12
2.30068e-12 1.61123e-12 488.82

386.536 35.9687 -1.04331e-12
35.9687 381.982 2.57098e-12
-1.04331e-12 2.57098e-12 348.111

444.489 15.3766 -2.18729e-12
15.3766 491.526 1.13332e-12
-2.18729e-12 1.13332e-12 467.133

469.39 26.422 1.12207e-12
26.422 479.951 -5.03301e-13
1.12207e-12 -5.03301e-13 482.54

456.136 25.4736 -3.39127e-13
25.4736 486.64 2.11401e-12
-3.39127e-13 2.11401e-12 487.24

457.8 11.6214 -2.36299e-12
11.6214 506.933 7.15457e-12
-2.36299e-12 7.15457e-12 486.008

431.944 -8.22685 -2.05939e-12
-8.22685 370.749 -5.44305e-13
-2.05939e-12 -5.44305e-13 363.301

376.773 18.6061 2.44723e-12
18.6061 427.258 2.86112e-12
2.44723e-12 2.86112e-12 363.877

452.305 -24.3803 1.31184e-12
-24.3803 478.378 2.66572e-12
1.31184e-12 2.66572e-12 470.704

440.739 25.6655 1.90485e-12
25.6655 455.633 -3.31527e-12
1.90485e-12 -3.31527e-12 437.798

390.949 -35.6286 1.40924e-12
-35.6286 380.27 2.73144e-12
1.40924e-12 2.73144e-12 350.084

368.934 38.3159 4.62326e-12
38.3159 327.246 -4.63037e-13
4.62326e-12 -4.63037e-13 295.677

363.64 -33.3104 -1.71596e-12
-33.3104 394.428 4.58182e-12
-1.71596e-12 4.58182e-12 341.972

397.923 -31.159 9.10679e-13
-31.159 404.185 3.79311e-12
9.10679e-13 3.79311e-12 362.966

502.849 -6.83865 -8.60941e-13
-6.83865 442.242 1.09853e-12
-8.60941e-13 1.09853e-12 482.31

393.156 30.3411 6.79871e-12
30.3411 408.97 5.37526e-12
6.79871e-12 5.37526e-12 363.426

429.692 13.2944 1.74794e-12
13.2944 372.239 3.82538e-12
1.74794e-12 3.82538e-12 362.706

350.136 13.3786 -1.33197e-12
13.3786 418.505 4.58063e-12
-1.33197e-12 4.58063e-12 348.467

379.471 -22.3399 -2.53427e-12
-22.3399 423.504 1.4649e-12
-2.53427e-12 1.4649e-12 363.44

491.2 -1.09152 1.92202e-12
-1.09152 550.87 -3.29514e-12
1.92202e-12 -3.29514e-12 516.299

372.856 2.24656 -1.97442e-12
2.24656 437.778 -2.8848e-12
-1.97442e-12 -2.8848e-12 373.512

357.882 31.0886 3.32889e-12
31.0886 399.478 3.7564e-12
3.32889e-12 3.7564e-12 341.953

457.983 12.1078 1.76906e-12
12.1078 510.553 -3.24422e-12
1.76906e-12 -3.24422e-12 488.395

421.444 -27.6471 6.86858e-14
-27.6471 389.064 -6.97516e-12
6.86858e-14 -6.97516e-12 375.064

524.749 20.5569 5.03745e-12
20.5569 469.742 1.95074e-12
5.03745e-12 1.95074e-12 500.727

534.918 26.2704 -4.04417e-13
26.2704 506.852 4.95233e-12
-4.04417e-13 4.95233e-12 516.087

494.808 -18.5674 2.9825e-12
-18.5674 449.018 3.04882e-12
2.9825e-12 3.04882e-12 470.848

554.578 -1.80115 1.41058e-12
-1.80115 516.016 3.03994e-12
1.41058e-12 3.03994e-12 525.709

473.279 -31.8116 1.55757e-12
-31.8116 475.688 2.89546e-13
1.55757e-12 2.89546e-13 478.569

412.589 23.3273 9.00021e-13
23.3273 357.189 6.40495e-12
9.00021e-13 6.40495e-12 348.084

464.168 30.1621 1.17713e-12
30.1621 482.76 -3.95624e-12
1.17713e-12 -3.95624e-12 483.196

464.431 29.2058 -3.30994e-13
29.2058 482.233 -1.27483e-12
-3.30994e-13 -1.27483e-12 482.757

393.938 30.6603 1.08239e-12
30.6603 405.715 -5.35868e-12
1.08239e-12 -5.35868e-12 360.861

502.847 27.0849 -2.08959e-12
27.0849 482.658 -2.48068e-12
-2.08959e-12 -2.48068e-12 490.727

415.343 3.52508 -1.63662e-12
3.52508 339.01 -9.74517e-12
-1.63662e-12 -9.74517e-12 340.817

493.115 31.8172 2.64973e-13
31.8172 487.216 -9.31995e-13
2.64973e-13 -9.31995e-13 495.567

476.319 -12.5997 3.68054e-12
-12.5997 522.443 1.68458e-12
3.68054e-12 1.68458e-12 500.24

536.919 24.2782 -2.56299e-12
24.2782 507.395 2.32525e-12
-2.56299e-12 2.32525e-12 516.623

468.169 -29.5787 -2.5923e-12
-29.5787 479.962 -1.56171e-12
-2.5923e-12 -1.56171e-12 483.054

464.553 -4.89807 -5.36399e-12
-4.89807 521.548 2.46914e-13
-5.36399e-12 2.46914e-13 490.972

400.931 -24.5559 -1.63425e-13
-24.5559 349.016 4.65879e-12
-1.63425e-13 4.65879e-12 323.943

418.959 29.6926 2.16716e-12
29.6926 392.456 5.21183e-12
2.16716e-12 5.21183e-12 373.762

352.337 14.6962 -3.80821e-12
14.6962 417.204 7.74728e-12
-3.80821e-12 7.74728e-12 348.233

500.522 -1.13888 -5.64437e-13
-1.13888 442.787 8.4858e-13
-5.64437e-13 8.4858e-13 487.701

492.463 0.00222982 -8.74264e-13
0.00222982 438.095 -1.2403e-13
-8.74264e-13 -1.2403e-13 474.411

452.958 23.1238 2.70613e-12
23.1238 479.7 -3.53939e-12
2.70613e-12 -3.53939e-12 475.579

481.297 23.8709 -1.77636e-13
23.8709 502.867 -3.91004e-12
-1.77636e-13 -3.91004e-12 501.247

456.58 -24.3807 -3.82405e-12
-24.3807 487.345 -8.37108e-13
-3.82405e-12 -8.37108e-13 488.491

457.83 -0.67275 1.0165e-12
-0.67275 517.935 -1.1268e-12
1.0165e-12 -1.1268e-12 486.394

458.878 25.5903 7.40149e-14
25.5903 486.462 7.60355e-13
7.40149e-14 7.60355e-13 488.513

465.554 -10.3078 -2.79539e-12
-10.3078 408.079 1.08284e-12
-2.79539e-12 1.08284e-12 427.219

400.86 -32.833 -8.53243e-13
-32.833 414.951 2.64322e-12
-8.53243e-13 2.64322e-12 385.162

518.093 -2.30068 -3.80969e-12
-2.30068 465.736 6.06922e-13
-3.80969e-12 6.06922e-13 500.924

391.869 -34.5078 7.08766e-12
-34.5078 379.603 -5.319e-12
7.08766e-12 -5.319e-12 347.414

477.999 19.0861 3.53199e-13
19.0861 509.199 -3.27471e-12
3.53199e-13 -3.27471e-12 501.843

506.111 -26.4787 3.75996e-12
-26.4787 470.246 2.90405e-12
3.75996e-12 2.90405e-12 487.271

424.998 -9.69012 -1.49096e-12
-9.69012 366.728 1.81484e-12
-1.49096e-12 1.81484e-12 355.979

530.265 -23.1919 2.20624e-12
-23.1919 488.756 -1.01578e-12
2.20624e-12 -1.01578e-12 506.488

500.891 2.35827 5.3572e-12
2.35827 444.575 -9.20967e-13
5.3572e-12 -9.20967e-13 489.203

521.191 -23.3214 8.84626e-13
-23.3214 501.841 9.92391e-13
8.84626e-13 9.92391e-13 508.533

502.015 -25.8594 -2.10084e-12
-25.8594 461.49 1.35921e-12
-2.10084e-12 1.35921e-12 481.243

498.826 -8.54607 -3.02069e-12
-8.54607 445.135 7.51843e-13
-3.02069e-12 7.51843e-13 479.343

482.219 -23.0681 -8.18012e-13
-23.0681 504.992 -7.42665e-13
-8.18012e-13 -7.42665e-13 502.534

428.538 -31.3415 2.5698e-12
-31.3415 410.586 2.72967e-12
2.5698e-12 2.72967e-12 398.996

503.267 -24.5871 -4.40536e-12
-24.5871 464.712 1.33316e-12
-4.40536e-12 1.33316e-12 482.159

441.239 10.8643 -2.48572e-12
10.8643 378.479 1.19874e-12
-2.48572e-12 1.19874e-12 387.796

500.037 26.3402 -7.03141e-13
26.3402 498.583 3.5764e-12
-7.03141e-13 3.5764e-12 500.104

463.749 -37.6129 -5.53631e-13
-37.6129 488.388 -7.31859e-13
-5.53631e-13 -7.31859e-13 494.081

464.857 37.2652 1.03029e-12
37.2652 487.3 1.81018e-12
1.03029e-12 1.81018e-12 493.796

446.325 -28.5734 1.11514e-12
-28.5734 500.013 -2.57365e-12
1.11514e-12 -2.57365e-12 492.311

448.56 27.0641 -2.18344e-14
27.0641 500.705 -1.05101e-12
-2.18344e-14 -1.05101e-12 492.498

513.069 -8.52764 -2.51488e-12
-8.52764 436.404 2.93099e-13
-2.51488e-12 2.93099e-13 492.759

511.231 9.27365 2.61391e-12
9.27365 438.001 -1.03932e-12
2.61391e-12 -1.03932e-12 492.396

501.655 -9.84613 -9.03573e-13
-9.84613 451.741 -2.53634e-12
-9.03573e-13 -2.53634e-12 483.019

510.864 32.1162 -2.36848e-12
32.1162 510.39 -2.68603e-12
-2.36848e-12 -2.68603e-12 514.055

509.64 -32.8542 -3.81117e-12
-32.8542 510.067 1.70484e-13
-3.81117e-12 1.70484e-13 513.694

481.809 16.0685 4.61113e-13
16.0685 539.131 1.5706e-12
4.61113e-13 1.5706e-12 514.326

483.003 -15.801 -2.07686e-13
-15.801 538.721 3.606e-13
-2.07686e-13 3.606e-13 514.347

556.87 -3.7476 2.31992e-12
-3.7476 506.832 -1.78524e-13
2.31992e-12 -1.78524e-13 524.992

558.424 3.61037 3.85854e-12
3.61037 505.157 3.39225e-12
3.85854e-12 3.39225e-12 525.364

387.306 9.83679 -2.37987e-12
9.83679 449.194 -3.93167e-12
-2.37987e-12 -3.93167e-12 397.084

472.386 -24.774 -7.07582e-14
-24.774 480.752 -1.03887e-12
-7.07582e-14 -1.03887e-12 484.975

443.459 -36.3876 2.68245e-12
-36.3876 485.53 -7.51251e-13
2.68245e-12 -7.51251e-13 486.626

473.639 -4.66426 -6.64357e-13
-4.66426 420.434 1.05286e-12
-6.64357e-13 1.05286e-12 436.335

540.253 -16.6947 9.48871e-13
-16.6947 484.191 -1.46401e-12
9.48871e-13 -1.46401e-12 515.287

540.973 16.1757 6.21059e-12
16.1757 485.414 -1.40155e-12
6.21059e-12 -1.40155e-12 515.893

506.859 0.121882 2.85712e-12
0.121882 423.548 2.23715e-12
2.85712e-12 2.23715e-12 486.999

384.789 23.375 2.43953e-13
23.375 432.294 2.28676e-12
2.43953e-13 2.28676e-12 385.473

442.33 36.1715 -1.0764e-12
36.1715 485.208 3.33644e-12
-1.0764e-12 3.33644e-12 485.831

452.594 -23.3957 -5.12242e-12
-23.3957 494.95 1.64935e-12
-5.12242e-12 1.64935e-12 483.588

443.245 23.3526 2.44782e-12
23.3526 397.515 3.78127e-12
2.44782e-12 3.78127e-12 400.37

530.968 23.8582 3.71851e-13
23.8582 488.006 -9.88839e-13
3.71851e-13 -9.88839e-13 507.246

428.476 -31.3133 -4.0643e-12
-31.3133 410.871 1.84445e-12
-4.0643e-12 1.84445e-12 398.814

519.857 -3.23094 8.96172e-13
-3.23094 469.057 3.51452e-12
8.96172e-13 3.51452e-12 502.684

439.393 -34.161 -7.55914e-13
-34.161 485.501 -4.80949e-13
-7.55914e-13 -4.80949e-13 485.82

389.18 8.3199 1.95116e-12
8.3199 452.324 -4.59247e-12
1.95116e-12 -4.59247e-12 400.852

385.876 21.8114 -1.54632e-12
21.8114 435.769 -2.99494e-12
-1.54632e-12 -2.99494e-12 388.691

383.844 35.7755 -1.50043e-12
35.7755 362.328 -9.28443e-13
-1.50043e-12 -9.28443e-13 318.325

408.179 1.57874 -3.61785e-12
1.57874 332.153 1.76807e-12
-3.61785e-12 1.76807e-12 327.322

485.453 -22.8045 7.97081e-12
-22.8045 502.856 -1.57115e-12
7.97081e-12 -1.57115e-12 501.746

351.875 31.1836 -5.13604e-12
31.1836 388.828 -3.54087e-12
-5.13604e-12 -3.54087e-12 312.354

451.346 23.6098 5.33351e-12
23.6098 478.409 -3.64745e-13
5.33351e-12 -3.64745e-13 465.209

442.192 -5.34951 8.88178e-14
-5.34951 377.123 2.11016e-12
8.88178e-14 2.11016e-12 387.734

464.151 11.216 -2.30275e-12
11.216 407.296 -1.00157e-12
-2.30275e-12 -1.00157e-12 424.918

505.375 0.429905 -4.55339e-13
0.429905 421.568 3.32695e-12
-4.55339e-13 3.32695e-12 485.671

449.346 -29.0311 -3.09427e-12
-29.0311 501.994 6.09586e-13
-3.09427e-12 6.09586e-13 493.585

572.508 -6.31897 7.81331e-12
-6.31897 589.481 -6.61693e-12
7.81331e-12 -6.61693e-12 549.25

463.136 37.4116 -8.02321e-13
37.4116 487.023 -2.57838e-12
-8.02321e-13 -2.57838e-12 493.061

408.734 1.66328 1.80004e-13
1.66328 331.599 -4.17688e-12
1.80004e-13 -4.17688e-12 308.901

404.23 -32.7867 -5.45342e-13
-32.7867 415.505 5.42914e-12
-5.45342e-13 5.42914e-12 387.386

443.136 36.613 8.72857e-13
36.613 485.501 -1.014e-12
8.72857e-13 -1.014e-12 486.568

444.675 -11.1338 2.09281e-12
-11.1338 498.931 1.48918e-12
2.09281e-12 1.48918e-12 471.438

386.069 -25.5143 3.25221e-12
-25.5143 428.897 1.24108e-12
3.25221e-12 1.24108e-12 384.56

449.446 28.8301 -5.95746e-13
28.8301 501.627 -2.56299e-12
-5.95746e-13 -2.56299e-12 493.284

452.707 -26.1417 3.83219e-12
-26.1417 419.299 4.34615e-12
3.83219e-12 4.34615e-12 419.514

579.55 10.4834 -1.95488e-12
10.4834 582.161 1.23862e-11
-1.95488e-12 1.23862e-11 549.035

398.325 30.8717 -1.60405e-12
30.8717 422.054 1.68754e-12
-1.60405e-12 1.68754e-12 388.159

515.703 8.12674 2.96444e-12
8.12674 437.264 -1.83261e-13
2.96444e-12 -1.83261e-13 494.578

493.801 30.1906 -1.10726e-13
30.1906 484.744 -1.31687e-12
-1.10726e-13 -1.31687e-12 493.798

453.461 23.3318 1.68458e-12
23.3318 479.159 -2.68052e-12
1.68458e-12 -2.68052e-12 475.794

510.698 -32.4889 4.21085e-12
-32.4889 512.449 -3.91626e-12
4.21085e-12 -3.91626e-12 515.003

510.305 -23.1901 3.00915e-12
-23.1901 473.177 -4.79942e-12
3.00915e-12 -4.79942e-12 489.674

511.399 10.4707 4.10646e-12
10.4707 557.988 -4.91459e-13
4.10646e-12 -4.91459e-13 523.728

452.169 -23.4337 2.20831e-12
-23.4337 480.161 1.86932e-12
2.20831e-12 1.86932e-12 468.946

394.406 -9.70771 4.90748e-12
-9.70771 316.411 8.05874e-13
4.90748e-12 8.05874e-13 295.573

387.286 -14.2771 3.41534e-12
-14.2771 306.056 -5.97626e-12
3.41534e-12 -5.97626e-12 290.047

547.581 16.5294 -9.68114e-14
16.5294 507.76 1.70945e-12
-9.68114e-14 1.70945e-12 519.316

436.483 22.5015 3.56989e-12
22.5015 469.132 4.7784e-12
3.56989e-12 4.7784e-12 447.819

475.959 29.163 1.60168e-12
29.163 467.641 4.76152e-12
1.60168e-12 4.76152e-12 471.475

450.297 0.688666 1.7278e-12
0.688666 392.773 -1.33585e-12
1.7278e-12 -1.33585e-12 395.67

478.347 6.5712 -4.99392e-12
6.5712 541.275 9.93576e-13
-4.99392e-12 9.93576e-13 507.536

507.327 16.5408 -5.10407e-13
16.5408 461.131 1.06019e-12
-5.10407e-13 1.06019e-12 488.076

389.973 -25.7608 -3.87542e-12
-25.7608 430.032 -7.28306e-13
-3.87542e-12 -7.28306e-13 387.73

456.314 -2.57241 6.33615e-12
-2.57241 517.01 1.26181e-12
6.33615e-12 1.26181e-12 484.836

400.585 13.365 -2.14939e-13
13.365 452.981 -5.50789e-12
-2.14939e-13 -5.50789e-12 404.632

486.909 -29.7132 -4.36273e-12
-29.7132 465.81 -4.18154e-12
-4.36273e-12 -4.18154e-12 474.254

430.294 -29.9472 -8.65678e-13
-29.9472 423.624 6.12606e-12
-8.65678e-13 6.12606e-12 404.951

399.707 31.6225 5.47355e-12
31.6225 418.227 -1.14338e-12
5.47355e-12 -1.14338e-12 385.998

623.999 -15.0201 6.92868e-12
-15.0201 581.945 5.00526e-12
6.92868e-12 5.00526e-12 557.901

494.518 2.04128 -3.96601e-12
2.04128 552.139 -1.0966e-12
-3.96601e-12 -1.0966e-12 517.921

483.498 20.3001 -3.77165e-12
20.3001 542.038 -2.66069e-12
-3.77165e-12 -2.66069e-12 516.027

544.702 15.439 -3.04897e-12
15.439 479.966 1.66593e-12
-3.04897e-12 1.66593e-12 515.749

473.744 -26.1886 -3.93315e-12
-26.1886 479.752 5.65829e-12
-3.93315e-12 5.65829e-12 483.013

452.12 17.9571 3.74811e-12
17.9571 404.504 -5.16328e-13
3.74811e-12 -5.16328e-13 406.913

531.576 -5.2941 1.00649e-12
-5.2941 580.797 3.08198e-13
1.00649e-12 3.08198e-13 537.114

512.182 -18.9881 -1.12207e-12
-18.9881 464.789 -2.00403e-12
-1.12207e-12 -2.00403e-12 493.023

473.971 -15.5988 -3.75936e-12
-15.5988 423.172 -1.30503e-12
-3.75936e-12 -1.30503e-12 438.875

401.996 11.6031 -2.81908e-12
11.6031 455.953 -4.23247e-12
-2.81908e-12 -4.23247e-12 407.775

410.919 -25.7339 -6.6791e-13
-25.7339 435.576 2.93809e-12
-6.6791e-13 2.93809e-12 398.952

532.044 -25.2738 -3.05977e-12
-25.2738 523.189 -2.36255e-12
-3.05977e-12 -2.36255e-12 519.114

423.052 31.9592 -1.49392e-12
31.9592 417.244 -1.1191e-12
-1.49392e-12 -1.1191e-12 400.301

535.478 -25.1347 -6.63173e-14
-25.1347 505.784 -1.73136e-12
-6.63173e-14 -1.73136e-12 515.655

453.489 2.59734 -6.90411e-13
2.59734 397.015 -7.65832e-13
-6.90411e-13 -7.65832e-13 401.893

311.096 -28.9302 -6.73831e-13
-28.9302 376.593 -3.55035e-12
-6.73831e-13 -3.55035e-12 289.992

431.871 -29.2306 -6.57252e-14
-29.2306 424.043 6.27172e-12
-6.57252e-14 6.27172e-12 406.15

353.758 32.1586 3.4414e-12
32.1586 392.54 1.42109e-14
3.4414e-12 1.42109e-14 312.965

470.342 -11.8769 -5.33647e-13
-11.8769 529.548 3.31587e-14
-5.33647e-13 3.31587e-14 500.299

391.446 -13.8212 -3.77224e-12
-13.8212 449.249 -2.61243e-12
-3.77224e-12 -2.61243e-12 400.194

602.852 -23.9881 9.11863e-14
-23.9881 602.265 -4.02552e-12
9.11863e-14 -4.02552e-12 557.842

408.367 23.7705 -2.38861e-12
23.7705 441.935 -3.34074e-12
-2.38861e-12 -3.34074e-12 402.218

496.573 -32.7263 -2.94283e-12
-32.7263 490.636 2.17604e-13
-2.94283e-12 2.17604e-13 497.443

388.186 -11.963 6.67836e-13
-11.963 448.281 3.43903e-12
6.67836e-13 3.43903e-12 397.012

516.707 -19.1169 -2.29683e-12
-19.1169 465.749 2.89813e-12
-2.29683e-12 2.89813e-12 496.239

410.682 23.8768 3.31113e-12
23.8768 439.308 1.8486e-12
3.31113e-12 1.8486e-12 400.695

488.916 -4.97546 8.36072e-13
-4.97546 435.067 -2.54978e-12
8.36072e-13 -2.54978e-12 460.379

305.779 -30.3424 1.91491e-12
-30.3424 391.435 3.65219e-12
1.91491e-12 3.65219e-12 262.568

438.606 21.0139 3.41327e-12
21.0139 473.909 -1.74557e-12
3.41327e-12 -1.74557e-12 458.345

445.684 -19.3231 2.314e-12
-19.3231 393.974 -2.36729e-12
2.314e-12 -2.36729e-12 399.62

551.601 -21.4459 -7.63241e-13
-21.4459 499.514 1.45306e-12
-7.63241e-13 1.45306e-12 520.101

424.468 31.7536 -3.31823e-12
31.7536 413.32 -3.35258e-12
-3.31823e-12 -3.35258e-12 397.957

459.16 -29.9715 7.59689e-13
-29.9715 437.636 1.93919e-12
7.59689e-13 1.93919e-12 439.297

510.618 20.8852 -1.92439e-12
20.8852 476.071 4.12737e-12
-1.92439e-12 4.12737e-12 492.754

461.503 -28.0758 -2.12156e-12
-28.0758 485.739 -2.72567e-12
-2.12156e-12 -2.72567e-12 488.716

413.719 -26.2249 4.44089e-12
-26.2249 436.243 -1.70057e-12
4.44089e-12 -1.70057e-12 401.438

426.074 28.9808 -7.0699e-13
28.9808 429.896 8.5502e-13
-7.0699e-13 8.5502e-13 406.86

452.5 26.1911 -1.74912e-12
26.1911 418.226 1.3225e-12
-1.74912e-12 1.3225e-12 419.058

521.969 -14.6099 -2.09906e-12
-14.6099 477.177 -1.61056e-13
-2.09906e-12 -1.61056e-13 500.063

403.56 -16.6174 1.66978e-13
-16.6174 451.742 -1.61412e-12
1.66978e-13 -1.61412e-12 406.442

496.046 -17.5682 4.99748e-13
-17.5682 447.606 -2.69074e-12
4.99748e-13 -2.69074e-12 471.5

487.764 16.9083 -7.83373e-13
16.9083 436.258 6.03961e-13
-7.83373e-13 6.03961e-13 460.588

513.342 -9.38685 -1.61341e-12
-9.38685 555.778 -2.1636e-12
-1.61341e-12 -2.1636e-12 523.029

453.978 -13.4299 2.02978e-12
-13.4299 402.178 -1.36957e-12
2.02978e-12 -1.36957e-12 406.743

403.202 0.594016 -2.75335e-12
0.594016 465.725 2.0511e-12
-2.75335e-12 2.0511e-12 417.805

475.026 18.5548 -4.68129e-12
18.5548 428.772 -1.81544e-12
-4.68129e-12 -1.81544e-12 442.221

451.142 27.6037 -4.0643e-12
27.6037 421.839 -1.60997e-12
-4.0643e-12 -1.60997e-12 420.843

400.869 -15.6859 2.94934e-12
-15.6859 451.382 9.56864e-13
2.94934e-12 9.56864e-13 403.736

406 -1.20229 -1.65867e-13
-1.20229 468.034 -2.5544e-12
-1.65867e-13 -2.5544e-12 421.22

516.2 29.1343 4.92643e-12
29.1343 498.026 4.01161e-13
4.92643e-12 4.01161e-13 504.876

441.704 -10.922 3.01477e-12
-10.922 500.658 -3.32652e-12
3.01477e-12 -3.32652e-12 471.148

451.44 -26.715 -2.24413e-12
-26.715 418.766 -6.44818e-13
-2.24413e-12 -6.44818e-13 419.353

444.387 21.3323 -9.4739e-13
21.3323 395.298 -9.42653e-13
-9.4739e-13 -9.42653e-13 398.201

497.595 23.6652 -2.55203e-13
23.6652 458.09 -1.82373e-12
-2.55203e-13 -1.82373e-12 476.551

447.683 5.47073 9.89801e-13
5.47073 508.79 -3.42008e-12
9.89801e-13 -3.42008e-12 476.882

427.65 29.0652 -2.30038e-12
29.0652 426.435 -6.21133e-13
-2.30038e-12 -6.21133e-13 405.11

536.822 22.9638 1.35418e-12
22.9638 531.898 1.74823e-12
1.35418e-12 1.74823e-12 522.785

314.75 -59.6912 3.78956e-14
-59.6912 282.769 -2.78177e-12
3.78956e-14 -2.78177e-12 223.424

480.595 -25.0476 -4.61675e-12
-25.0476 445.072 1.72336e-12
-4.61675e-12 1.72336e-12 456.647

336.664 7.06983 -1.64609e-12
7.06983 409.155 9.4739e-15
-1.64609e-12 9.4739e-15 319.44

460.539 -28.889 -3.11455e-13
-28.889 444.737 -7.90479e-13
-3.11455e-13 -7.90479e-13 443.453

96.424 -52.701 -2.67282e-12
-52.701 306.618 2.75691e-12
-2.67282e-12 2.75691e-12 113.7

95.9579 51.4516 9.34364e-13
51.4516 306.883 -2.75217e-12
9.34364e-13 -2.75217e-12 114.488

181.517 117.154 -1.51582e-13
117.154 226.077 1.85215e-12
-1.51582e-13 1.85215e-12 113.588

182.815 -117.097 2.79954e-12
-117.097 223.312 -5.98277e-12
2.79954e-12 -5.98277e-12 113.562

321.583 -1.36336 2.73796e-12
-1.36336 84.6536 1.7833e-14
2.73796e-12 1.7833e-14 114.929

274.433 -91.1254 1.02318e-12
-91.1254 127.418 -4.12115e-13
1.02318e-12 -4.12115e-13 113.802

275.13 91.6533 -4.94064e-12
91.6533 128.251 -6.32146e-12
-4.94064e-12 -6.32146e-12 114.572

525.241 14.3302 -7.07286e-13
14.3302 474.712 3.15185e-12
-7.07286e-13 3.15185e-12 502.315

556.798 25.5366 6.08402e-13
25.5366 541.184 -3.73139e-12
6.08402e-13 -3.73139e-12 533.451

492.093 6.606 -1.21029e-12
6.606 439.121 2.81308e-12
-1.21029e-12 2.81308e-12 471.402

470.3 21.7844 1.88294e-13
21.7844 424.517 -8.65086e-13
1.88294e-13 -8.65086e-13 438.195

409.976 17.7443 -1.02007e-12
17.7443 461.073 -1.86991e-12
-1.02007e-12 -1.86991e-12 425.043

448.011 28.8983 7.59097e-13
28.8983 424.705 -3.6362e-12
7.59097e-13 -3.6362e-12 420.75

487.15 -29.6633 -3.59416e-13
-29.6633 465.628 -1.61796e-12
-3.59416e-13 -1.61796e-12 474.59

449.368 28.0276 -2.64618e-12
28.0276 421.071 -2.51414e-12
-2.64618e-12 -2.51414e-12 418.642

402.964 -2.84122 1.60361e-12
-2.84122 465.381 -7.6857e-13
1.60361e-12 -7.6857e-13 417.541

555.804 -26.0974 -1.47142e-12
-26.0974 543.377 -2.06353e-13
-1.47142e-12 -2.06353e-13 533.694

405.502 -4.86235 -3.28019e-12
-4.86235 467.12 -1.73965e-12
-3.28019e-12 -1.73965e-12 420.6

522.293 23.0162 2.78118e-12
23.0162 499.743 1.00601e-12
2.78118e-12 1.00601e-12 507.97

423.378 26.8705 2.67282e-12
26.8705 386.507 2.26189e-12
2.67282e-12 2.26189e-12 373.027

480.11 -13.2161 4.48278e-12
-13.2161 532.769 -1.0371e-12
4.48278e-12 -1.0371e-12 512.002

484.198 13.7279 5.9508e-13
13.7279 432.777 -1.82136e-12
5.9508e-13 -1.82136e-12 456.875

457.369 -29.9874 3.27915e-12
-29.9874 436.977 -3.71022e-12
3.27915e-12 -3.71022e-12 437.833

454.309 -24.7133 2.18492e-12
-24.7133 416.805 -1.5931e-12
2.18492e-12 -1.5931e-12 419.853

547.405 -16.0746 2.94609e-12
-16.0746 509.306 -2.05288e-12
2.94609e-12 -2.05288e-12 519.385

475.973 27.9288 -1.07174e-13
27.9288 449.706 8.60053e-13
-1.07174e-13 8.60053e-13 456.926

469.101 23.9773 2.13577e-12
23.9773 427.849 -6.93075e-13
2.13577e-12 -6.93075e-13 439.83

432.429 -2.79294 2.82148e-12
-2.79294 493.637 3.54324e-12
2.82148e-12 3.54324e-12 457.107

417.607 5.87333 1.94909e-12
5.87333 479.558 2.6071e-12
1.94909e-12 2.6071e-12 440.177

463.011 2.64669 -1.41812e-12
2.64669 402.28 2.62087e-13
-1.41812e-12 2.62087e-13 422.321

438.648 -7.2896 4.15075e-12
-7.2896 373.915 -1.69006e-12
4.15075e-12 -1.69006e-12 381.219

454.844 30.4845 2.5769e-12
30.4845 439.016 -6.6791e-13
2.5769e-12 -6.6791e-13 437.837

478.466 -26.1553 1.55727e-13
-26.1553 443.543 -4.89771e-12
1.55727e-13 -4.89771e-12 454.647

525.701 -21.2543 -4.93531e-13
-21.2543 497.83 -2.13548e-12
-4.93531e-13 -2.13548e-12 508.619

437.733 -31.6334 6.12014e-12
-31.6334 437.656 -9.2489e-13
6.12014e-12 -9.2489e-13 426.859

417.591 -27.7853 1.15463e-12
-27.7853 444.396 -4.56761e-12
1.15463e-12 -4.56761e-12 419.688

430.647 29.887 -1.64076e-12
29.887 442.745 -3.03698e-12
-1.64076e-12 -3.03698e-12 426.498

416.226 -9.57787 -1.5451e-12
-9.57787 475.212 2.71901e-12
-1.5451e-12 2.71901e-12 436.455

428.896 -1.54478 -4.11145e-12
-1.54478 491.869 -1.51109e-12
-4.11145e-12 -1.51109e-12 453.995

445.182 5.74794 -2.08962e-13
5.74794 508.044 -4.42135e-12
-2.08962e-13 -4.42135e-12 474.915

414.619 -21.0889 1.06877e-12
-21.0889 458.408 -4.10516e-12
1.06877e-12 -4.10516e-12 426.066

496.87 24.1111 -1.32457e-12
24.1111 455.697 8.49987e-13
-1.32457e-12 8.49987e-13 474.593

483.373 -9.58971 -1.81781e-13
-9.58971 430.113 8.10019e-13
-1.81781e-13 8.10019e-13 455.221

415.634 7.46524 2.52059e-12
7.46524 477.121 4.84886e-12
2.52059e-12 4.84886e-12 436.914

443.955 -9.70108 -4.12064e-12
-9.70108 501.504 -3.34902e-12
-4.12064e-12 -3.34902e-12 471.008

433.174 -16.3306 5.37318e-12
-16.3306 481.676 -4.58478e-12
5.37318e-12 -4.58478e-12 455.668

463.54 -8.23916 -5.42973e-12
-8.23916 406.336 -8.76632e-13
-5.42973e-12 -8.76632e-13 421.471

494.434 -32.3468 5.61477e-12
-32.3468 487.617 3.80644e-12
5.61477e-12 3.80644e-12 496.251

422.945 9.32082 -5.68138e-13
9.32082 479.092 3.85943e-12
-5.68138e-13 3.85943e-12 440.98

564.359 -18.2126 7.83373e-13
-18.2126 529.952 -2.50244e-12
7.83373e-13 -2.50244e-12 531.832

309.049 24.8226 -3.43547e-12
24.8226 379.423 -1.42582e-12
-3.43547e-12 -1.42582e-12 289.798

501.699 -26.6262 5.24973e-12
-26.6262 499.491 -1.09276e-12
5.24973e-12 -1.09276e-12 501.2

515.65 -30.2028 -1.7053e-12
-30.2028 498.405 -3.75255e-12
-1.7053e-12 -3.75255e-12 504.919

429.223 -0.701288 4.63999e-12
-0.701288 491.994 -1.59458e-12
4.63999e-12 -1.59458e-12 454.146

474.882 -16.6225 -1.32694e-12
-16.6225 428.338 -2.76668e-12
-1.32694e-12 -2.76668e-12 441.957

462.306 12.8416 3.84911e-12
12.8416 511.276 -2.99967e-12
3.84911e-12 -2.99967e-12 489.122

240.776 -3.18053 -1.97649e-12
-3.18053 360.688 6.34515e-12
-1.97649e-12 6.34515e-12 226.966

432.405 14.2736 -7.57402e-12
14.2736 485.357 -2.2086e-12
-7.57402e-12 -2.2086e-12 456.883

458.113 -29.4891 9.14824e-13
-29.4891 443.171 -7.93439e-13
9.14824e-13 -7.93439e-13 440.763

304.187 25.1056 -1.16411e-12
25.1056 394.585 5.51855e-12
-1.16411e-12 5.51855e-12 264.341

603.552 26.098 -1.68567e-11
26.098 597.957 -5.43521e-12
-1.68567e-11 -5.43521e-12 558.158

608.286 -27.8073 3.75403e-12
-27.8073 595.031 6.72795e-13
3.75403e-12 6.72795e-13 558.292

463.495 -30.419 1.60464e-13
-30.419 459.04 -4.14839e-12
1.60464e-13 -4.14839e-12 459.074

434.585 -31.1601 2.83566e-12
-31.1601 436.361 -2.27551e-12
2.83566e-12 -2.27551e-12 424.663

474.102 20.8274 1.08002e-12
20.8274 431.916 -2.19943e-12
1.08002e-12 -2.19943e-12 443.974

465.223 15.0061 2.34716e-12
15.0061 410.118 -2.35811e-12
2.34716e-12 -2.35811e-12 427.464

646.07 3.08352 -1.36307e-11
3.08352 645.729 2.9566e-12
-1.36307e-11 2.9566e-12 574.621

649.891 -7.00008 3.96298e-12
-7.00008 641.398 1.36291e-11
3.96298e-12 1.36291e-11 575.149

496.989 4.8243 1.36898e-12
4.8243 442.036 1.72307e-13
1.36898e-12 1.72307e-13 477.414

443.559 6.73098 -3.74974e-12
6.73098 502.99 -1.52707e-12
-3.74974e-12 -1.52707e-12 471.051

441.973 6.73632 3.65187e-12
6.73632 502.516 -7.5732e-13
3.65187e-12 -7.5732e-13 469.775

321.537 58.6342 -2.53664e-12
58.6342 281.123 3.54324e-12
-2.53664e-12 3.54324e-12 225.077

420.229 -28.1997 -3.38337e-12
-28.1997 444.024 3.91331e-12
-3.38337e-12 3.91331e-12 421.033

520.579 17.9745 1.34766e-12
17.9745 467.532 -2.00491e-12
1.34766e-12 -2.00491e-12 499.511

472.981 9.53973 -1.80004e-13
9.53973 421.198 -1.5962e-12
-1.80004e-13 -1.5962e-12 436.204

440.631 -26.7232 5.31131e-13
-26.7232 450.727 -2.39394e-12
5.31131e-13 -2.39394e-12 433.417

469.278 -20.2376 3.31883e-12
-20.2376 422.717 -2.4416e-12
3.31883e-12 -2.4416e-12 437.178

312.474 60.2321 -3.5764e-12
60.2321 281.373 -1.08026e-11
-3.5764e-12 -1.08026e-11 223.216

492.683 31.0691 4.44089e-15
31.0691 489.044 1.3598e-12
4.44089e-15 1.3598e-12 493.14

410.864 -19.786 -6.28534e-13
-19.786 457.883 2.60947e-12
-6.28534e-13 2.60947e-12 423.499

474.13 28.8576 8.70415e-13
28.8576 449.632 1.42227e-12
8.70415e-13 1.42227e-12 456.52

430.957 -4.14482 2.95911e-12
-4.14482 492.974 2.60414e-12
2.95911e-12 2.60414e-12 456.469

423.931 19.6091 -7.16168e-13
19.6091 465.713 5.69026e-13
-7.16168e-13 5.69026e-13 434.109

452.749 30.5187 3.62436e-12
30.5187 443.599 1.18246e-12
3.62436e-12 1.18246e-12 439.609

428.644 -22.4732 -3.28863e-12
-22.4732 461.138 -1.42345e-12
-3.28863e-12 -1.42345e-12 433.814

443.576 -27.3525 4.88261e-12
-27.3525 450.434 -8.65678e-13
4.88261e-12 -8.65678e-13 435.047

294.779 11.257 -6.43012e-12
11.257 372.586 8.83441e-13
-6.43012e-12 8.83441e-13 258.102

357.299 -33.4561 1.09779e-12
-33.4561 389.118 -2.58401e-12
1.09779e-12 -2.58401e-12 314.129

419.659 -11.6905 -1.48822e-12
-11.6905 476.362 -5.18282e-12
-1.48822e-12 -5.18282e-12 439.346

478.399 26.4845 1.99011e-12
26.4845 446.8 1.80241e-12
1.99011e-12 1.80241e-12 456.085

452.346 29.4779 2.33354e-12
29.4779 449.027 -5.21065e-14
2.33354e-12 -5.21065e-14 442.401

426.81 -21.4339 2.56565e-12
-21.4339 461.785 2.93513e-12
2.56565e-12 2.93513e-12 432.631

422.932 -11.7823 1.01963e-12
-11.7823 476.649 3.67528e-12
1.01963e-12 3.67528e-12 439.93

457.708 28.4095 2.70243e-12
28.4095 447.088 2.79895e-12
2.70243e-12 2.79895e-12 442.572

425.106 -13.8778 -8.52651e-14
-13.8778 476.42 -3.1027e-12
-8.52651e-14 -3.1027e-12 442.106

311.266 27.8549 1.98597e-12
27.8549 377.392 -2.6219e-12
1.98597e-12 -2.6219e-12 289.985

485.171 -4.04127 3.82676e-12
-4.04127 545.051 3.23415e-12
3.82676e-12 3.23415e-12 511.038

432.986 31.0275 -1.92675e-12
31.0275 439.629 2.89842e-12
-1.92675e-12 2.89842e-12 426.02

509.311 14.9012 -9.01205e-13
14.9012 463.163 -2.94875e-13
-9.01205e-13 -2.94875e-13 488.607

516.922 -15.9275 4.98564e-13
-15.9275 467.583 2.02505e-12
4.98564e-13 2.02505e-12 493.925

383.926 -24.2045 -9.00021e-14
-24.2045 305.949 -3.84167e-12
-9.00021e-14 -3.84167e-12 285.355

442.28 -21.2672 -4.83139e-12
-21.2672 476.001 -8.98244e-13
-4.83139e-12 -8.98244e-13 459.322

447.829 26.6982 1.21976e-13
26.6982 466.208 8.21447e-12
1.21976e-13 8.21447e-12 457.842

522.976 -21.7279 5.89484e-12
-21.7279 543.813 3.61822e-12
5.89484e-12 3.61822e-12 525.31

579.585 14.1066 -5.38517e-12
14.1066 617.622 3.65633e-12
-5.38517e-12 3.65633e-12 557.054

620.208 9.44534 1.53581e-12
9.44534 576.842 -9.10116e-12
1.53581e-12 -9.10116e-12 556.872

523.471 32.7055 -4.9664e-12
32.7055 520.653 -5.87767e-12
-4.9664e-12 -5.87767e-12 519.526

414.892 26.0003 -9.81141e-13
26.0003 448.906 -5.81461e-13
-9.81141e-13 -5.81461e-13 420.377

478.097 26.6614 4.15668e-13
26.6614 444.771 1.79619e-12
4.15668e-13 1.79619e-12 455.508

332.364 45.1859 -5.60145e-12
45.1859 349.49 -4.48116e-12
-5.60145e-12 -4.48116e-12 286.74

571.392 -11.3437 -5.91334e-12
-11.3437 614.472 5.87056e-12
-5.91334e-12 5.87056e-12 554.596

641.327 -3.43292 8.66537e-12
-3.43292 636.87 -1.09234e-11
8.66537e-12 -1.09234e-11 572.397

634.905 -0.210028 6.36972e-13
-0.210028 643.178 6.90618e-12
6.36972e-13 6.90618e-12 572.224

272.964 -53.8025 -3.02928e-12
-53.8025 316.448 -9.00021e-13
-3.02928e-12 -9.00021e-13 220.909

566.639 -11.6 2.551e-12
-11.6 562.126 7.18536e-13
2.551e-12 7.18536e-13 540.899

563.772 8.81301 5.17653e-12
8.81301 586.963 2.18877e-12
5.17653e-12 2.18877e-12 546.841

478.245 -26.1995 1.32457e-12
-26.1995 440.442 -1.32102e-12
1.32457e-12 -1.32102e-12 453.482

494.35 1.01106 4.66664e-14
1.01106 545.76 4.89446e-12
4.66664e-14 4.89446e-12 514.058

447.651 -20.2678 -2.00018e-12
-20.2678 484.159 2.20031e-12
-2.00018e-12 2.20031e-12 470.638

506.301 6.25533 1.28697e-12
6.25533 443.375 -1.59487e-12
1.28697e-12 -1.59487e-12 486.126

461.275 15.5963 -5.11965e-13
15.5963 521.253 -7.66794e-13
-5.11965e-13 -7.66794e-13 497.557

471.182 7.19161 3.81848e-12
7.19161 528.007 2.21749e-12
3.81848e-12 2.21749e-12 497.691

493.764 20.3928 -4.12352e-12
20.3928 451.518 3.51689e-12
-4.12352e-12 3.51689e-12 469.751

241.066 -3.1139 -3.40787e-12
-3.1139 358.56 6.40436e-12
-3.40787e-12 6.40436e-12 227.064

463.701 -27.6237 -3.69482e-12
-27.6237 463.392 -3.21284e-12
-3.69482e-12 -3.21284e-12 461.191

488.345 -26.1163 2.63493e-13
-26.1163 481.598 -3.57906e-12
2.63493e-13 -3.57906e-12 485.87

497.539 -31.4837 -1.4726e-12
-31.4837 489.959 1.36543e-12
-1.4726e-12 1.36543e-12 498.981

355.6 32.7495 3.13112e-12
32.7495 285.779 2.69325e-12
3.13112e-12 2.69325e-12 248.367

563.882 -20.1165 -1.31865e-12
-20.1165 569.615 1.72884e-12
-1.31865e-12 1.72884e-12 542.572

337.648 54.3222 -3.38692e-12
54.3222 356.658 3.56219e-12
-3.38692e-12 3.56219e-12 258.875

477.072 -21.4395 -3.18486e-12
-21.4395 506.49 -4.7482e-12
-3.18486e-12 -4.7482e-12 500.244

504.773 14.6504 -1.758e-12
14.6504 451.988 -1.78228e-12
-1.758e-12 -1.78228e-12 481.561

449.831 -14.5724 4.50129e-12
-14.5724 396.987 3.59623e-12
4.50129e-12 3.59623e-12 400.841

452.594 24.0467 3.0426e-12
24.0467 478.78 -6.77325e-12
3.0426e-12 -6.77325e-12 467.849

493.667 20.428 1.28786e-12
20.428 449.502 -3.57699e-12
1.28786e-12 -3.57699e-12 469.343

505.566 11.4006 3.06858e-12
11.4006 564.417 -3.90088e-12
3.06858e-12 -3.90088e-12 526.712

475.896 -31.5801 -6.60509e-13
-31.5801 470.357 -2.16775e-12
-6.60509e-13 -2.16775e-12 475.065

559.271 19.8124 3.25073e-13
19.8124 510.441 2.40992e-12
3.25073e-13 2.40992e-12 526.488

439.959 -18.4434 9.02981e-14
-18.4434 482.465 -5.22604e-12
9.02981e-14 -5.22604e-12 459.15

465.898 4.28317 3.21716e-12
4.28317 526.108 3.55271e-13
3.21716e-12 3.55271e-13 495.511

588.641 9.92676 -4.2446e-12
9.92676 552.463 -1.10771e-12
-4.2446e-12 -1.10771e-12 545.19

590.424 -8.51337 4.36036e-12
-8.51337 554.805 3.21846e-12
4.36036e-12 3.21846e-12 545.707

382.31 18.5123 -4.38168e-12
18.5123 302.288 6.73476e-12
-4.38168e-12 6.73476e-12 286.134

502.679 7.96501 -1.37756e-12
7.96501 453.601 -3.18708e-12
-1.37756e-12 -3.18708e-12 487.766

232.816 7.74045 -3.47899e-12
7.74045 381.516 -3.52903e-12
-3.47899e-12 -3.52903e-12 187.187

236.985 -11.3851 9.50684e-13
-11.3851 387.21 -3.15955e-12
9.50684e-13 -3.15955e-12 189.451

249.288 56.4066 3.67587e-12
56.4066 354.777 -4.48589e-12
3.67587e-12 -4.48589e-12 184.023

505.016 -28.9505 1.34115e-12
-28.9505 478.616 5.90402e-12
1.34115e-12 5.90402e-12 491.344

258.472 -49.1901 1.16055e-13
-49.1901 341.841 -2.55795e-12
1.16055e-13 -2.55795e-12 220.734

249.293 -55.9492 -2.65506e-12
-55.9492 344.752 -1.7953e-12
-2.65506e-12 -1.7953e-12 181.116

434.654 26.2199 -1.5099e-12
26.2199 454.393 -5.05077e-13
-1.5099e-12 -5.05077e-13 432.824

329.924 73.8434 1.00044e-11
73.8434 280.011 2.73322e-12
1.00044e-11 2.73322e-12 184.827

540.128 13.0473 -7.20609e-13
13.0473 554.947 -2.61628e-12
-7.20609e-13 -2.61628e-12 532.078

562.384 0.0393915 3.00115e-12
0.0393915 532.454 2.69414e-13
3.00115e-12 2.69414e-13 531.87

338.602 -73.1288 -6.77384e-12
-73.1288 279.858 -8.62125e-13
-6.77384e-12 -8.62125e-13 186.31

432.67 -23.4238 3.72176e-12
-23.4238 466.31 -4.03588e-12
3.72176e-12 -4.03588e-12 447.572

358.931 34.7288 2.00847e-12
34.7288 310.975 3.6214e-12
2.00847e-12 3.6214e-12 258.038

267.705 63.4904 4.12825e-12
63.4904 345.21 -8.76336e-13
4.12825e-12 -8.76336e-13 185.845

293.693 21.63 6.36054e-12
21.63 367.661 -1.6153e-12
6.36054e-12 -1.6153e-12 254.497

267.577 -65.9192 9.90023e-13
-65.9192 344.846 9.4739e-14
9.90023e-13 9.4739e-14 184.301

291.64 -12.381 8.15229e-12
-12.381 370.882 -3.94114e-12
8.15229e-12 -3.94114e-12 253.443

550.307 6.84174 5.7078e-12
6.84174 582.078 3.69926e-12
5.7078e-12 3.69926e-12 541.118

329.889 -45.9743 -4.32721e-12
-45.9743 341.816 1.88649e-12
-4.32721e-12 1.88649e-12 276.614

259.782 47.5314 4.63511e-12
47.5314 340.217 3.15244e-12
4.63511e-12 3.15244e-12 223.146

370.216 37.9111 5.00222e-12
37.9111 244.92 5.40723e-12
5.00222e-12 5.40723e-12 187.357

481.891 -29.2856 2.84276e-12
-29.2856 460.512 4.58448e-12
2.84276e-12 4.58448e-12 467.714

480.977 12.8967 1.17084e-12
12.8967 525.83 -3.97963e-12
1.17084e-12 -3.97963e-12 504.104

354.418 -38.1121 1.60346e-12
-38.1121 300.077 -2.4419e-12
1.60346e-12 -2.4419e-12 251.815

482.535 -28.802 -1.20023e-12
-28.802 460.321 -2.00728e-12
-1.20023e-12 -2.00728e-12 468.463

365.264 -36.343 -2.75691e-12
-36.343 230.989 4.63807e-12
-2.75691e-12 4.63807e-12 182.77

481.503 -28.3173 1.30207e-12
-28.3173 472.755 1.74616e-12
1.30207e-12 1.74616e-12 477.919

436.354 -25.2947 -1.48592e-12
-25.2947 466.224 -9.19087e-12
-1.48592e-12 -9.19087e-12 448.21

314.799 69.4599 -2.60532e-12
69.4599 292.142 3.57403e-12
-2.60532e-12 3.57403e-12 184.524

290.782 -22.9325 -7.94624e-13
-22.9325 359.164 -5.22486e-12
-7.94624e-13 -5.22486e-12 247.029

312.4 -71.6918 9.4739e-14
-71.6918 288.122 7.34227e-14
9.4739e-14 7.34227e-14 182.026

268.546 50.7369 5.63697e-13
50.7369 320.059 -4.55695e-12
5.63697e-13 -4.55695e-12 221.504

459.862 -30.212 -2.21512e-12
-30.212 454.845 8.7379e-12
-2.21512e-12 8.7379e-12 454.4

559.287 -14.6403 1.15374e-12
-14.6403 544.413 -1.74083e-12
1.15374e-12 -1.74083e-12 533.717

635.923 11.0926 -7.02897e-12
11.0926 631.384 1.74468e-12
-7.02897e-12 1.74468e-12 570.02

619.957 -5.16 3.93892e-12
-5.16 639.739 1.71026e-11
3.93892e-12 1.71026e-11 568.498

453.87 13.0836 -2.43981e-12
13.0836 506.555 6.23028e-12
-2.43981e-12 6.23028e-12 482.572

634.152 -10.6669 -8.95728e-13
-10.6669 631.314 5.37007e-12
-8.95728e-13 5.37007e-12 569.875

622.696 4.09175 -9.85286e-13
4.09175 642.685 3.62458e-12
-9.85286e-13 3.62458e-12 569.699

643.375 7.43406 1.04327e-11
7.43406 619.148 -6.43589e-12
1.04327e-11 -6.43589e-12 569.022

584.777 -12.1152 -3.07883e-12
-12.1152 631.668 6.77947e-12
-3.07883e-12 6.77947e-12 560.593

307.444 -30.4698 -7.94091e-12
-30.4698 371.633 9.01679e-12
-7.94091e-12 9.01679e-12 280.769

589.626 -12.9721 -7.29135e-12
-12.9721 549.113 1.72218e-12
-7.29135e-12 1.72218e-12 543.827

527.207 -34.4177 6.1379e-12
-34.4177 521.487 -8.30743e-13
6.1379e-12 -8.30743e-13 519.966

565.465 -18.1768 -2.2915e-12
-18.1768 537.99 -3.13616e-12
-2.2915e-12 -3.13616e-12 534.258

502.57 15.4592 -1.02022e-12
15.4592 452.116 -8.11321e-12
-1.02022e-12 -8.11321e-12 480.207

586.349 9.86423 3.46826e-12
9.86423 642.136 -5.88729e-12
3.46826e-12 -5.88729e-12 563.104

636.658 19.2276 -4.16556e-13
19.2276 591.723 1.53259e-11
-4.16556e-13 1.53259e-11 562.925

569.776 11.3063 4.0649e-13
11.3063 544.339 -7.34746e-12
4.0649e-13 -7.34746e-12 536.436

353.442 -15.3393 5.36697e-12
-15.3393 231.516 7.11016e-12
5.36697e-12 7.11016e-12 219.014

437.206 24.964 1.21977e-12
24.964 461.913 9.55443e-12
1.21977e-12 9.55443e-12 445.722

317.09 -61.3544 1.13687e-13
-61.3544 277.849 -7.10543e-13
1.13687e-13 -7.10543e-13 218.088

334.209 -57.457 5.39302e-12
-57.457 357.323 -5.13959e-13
5.39302e-12 -5.13959e-13 252.54

383.334 -36.5439 7.6407e-12
-36.5439 305.739 -8.9706e-12
7.6407e-12 -8.9706e-12 257.76

562.497 -5.15896 -4.27895e-12
-5.15896 616.952 3.25251e-12
-4.27895e-12 3.25251e-12 552.951

562.204 2.89124 8.19789e-13
2.89124 615.817 -2.5057e-12
8.19789e-13 -2.5057e-12 552.549

598.771 -24.4563 -1.07322e-12
-24.4563 575.743 -1.96139e-14
-1.07322e-12 -1.96139e-14 551.579

602.33 -21.7605 1.06484e-11
-21.7605 573.433 -4.76478e-12
1.06484e-11 -4.76478e-12 551.845

598.783 26.136 -1.21977e-12
26.136 580.458 -5.49472e-12
-1.21977e-12 -5.49472e-12 552.734

625.742 3.09946 5.2293e-12
3.09946 630.735 2.73237e-11
5.2293e-12 2.73237e-11 568.421

599.06 -20.5089 -3.04497e-12
-20.5089 576.354 6.20097e-13
-3.04497e-12 6.20097e-13 552.267

607.81 -18.5683 2.54567e-12
-18.5683 620.263 -5.60581e-12
2.54567e-12 -5.60581e-12 563.186

632.9 2.43452 5.28703e-12
2.43452 635.527 8.51112e-12
5.28703e-12 8.51112e-12 570.506

607.887 -20.5263 -4.5135e-12
-20.5263 572.427 3.60837e-12
-4.5135e-12 3.60837e-12 553.406

607.072 20.9558 6.51953e-12
20.9558 573.685 1.03029e-13
6.51953e-12 1.03029e-13 553.81

633.852 -3.45854 1.14553e-11
-3.45854 636.778 -5.60914e-12
1.14553e-11 -5.60914e-12 571.28

632.182 -3.11722 6.08313e-12
-3.11722 625.757 1.01208e-11
6.08313e-12 1.01208e-11 569.395

609.682 12.1098 -7.38239e-12
12.1098 620.485 1.96521e-11
-7.38239e-12 1.96521e-11 563.917

587.203 26.9297 3.81828e-12
26.9297 583.019 -2.66771e-12
3.81828e-12 -2.66771e-12 551.703

FIELD solute_concentration_TPM 2
S_ext 1 563 float
0.981648
0.981459
0.981479
0.981461
0.98143
0.981479
0.981648
0.98147
0.981496
0.981463
0.981609
0.98147
0.981474
0.981462
0.981437
0.981478
0.981454
0.981469
0.9815
0.981482
0.981488
0.981376
0.981484
0.981482
0.981483
0.981465
0.9816
0.981477
0.981547
0.981404
0.981475
0.981546
0.981605
0.981413
0.981412
0.981413
0.9814
0.981414
0.981476
0.981604
0.981547
0.981399
0.981399
0.981475
0.98158
0.981546
0.981498
0.981493
0.981479
0.981556
0.981551
0.981532
0.981428
0.981533
0.98143
0.981585
0.981411
0.981532
0.981411
0.981481
0.981453
0.981445
0.981596
0.981448
0.981445
0.981459
0.981453
0.981466
0.981483
0.981458
0.981428
0.981428
0.981548
0.981455
0.98148
0.981608
0.981439
0.981459
0.981466
0.981525
0.981565
0.981425
0.981449
0.981567
0.981546
0.981583
0.981477
0.981458
0.981579
0.981384
0.981532
0.981385
0.981437
0.981461
0.981532
0.981551
0.981566
0.981463
0.98144
0.981476
0.981514
0.981543
0.981566
0.981465
0.981465
0.981464
0.981448
0.981478
0.981567
0.981454
0.981481
0.981576
0.98157
0.981467
0.981464
0.981533
0.981414
0.981568
0.981415
0.981532
0.981504
0.981438
0.981458
0.981453
0.981453
0.981436
0.981418
0.981463
0.981567
0.981531
0.981426
0.981459
0.981449
0.981458
0.981544
0.981411
0.981577
0.981474
0.981448
0.981411
0.981541
0.981467
0.981504
0.981463
0.981569
0.981464
0.981469
0.981481
0.98148
0.981517
0.981492
0.981458
0.981545
0.981474
0.981463
0.981459
0.981461
0.981541
0.98154
0.981471
0.981493
0.981544
0.981579
0.981549
0.981539
0.981464
0.98154
0.981541
0.981547
0.981539
0.981436
0.981532
0.981551
0.981459
0.981532
0.981448
0.981436
0.981471
0.981429
0.981466
0.981548
0.981463
0.981463
0.98154
0.981457
0.981552
0.981453
0.98145
0.981437
0.981463
0.981457
0.981565
0.981532
0.981546
0.981459
0.981468
0.981467
0.981449
0.981458
0.98146
0.981458
0.981499
0.981525
0.981449
0.981549
0.981448
0.98146
0.981543
0.981444
0.981458
0.981445
0.981464
0.981465
0.981449
0.981516
0.981463
0.981524
0.98145
0.981453
0.981453
0.981453
0.981454
0.981454
0.981454
0.981463
0.981438
0.981438
0.981437
0.981438
0.98143
0.98143
0.981517
0.981461
0.981458
0.981495
0.981438
0.981437
0.981458
0.981523
0.981458
0.981463
0.981516
0.981443
0.981517
0.981449
0.981458
0.981515
0.981522
0.981565
0.981557
0.981449
0.981572
0.981475
0.981524
0.9815
0.981459
0.981453
0.981401
0.981453
0.981576
0.981522
0.981458
0.98147
0.981525
0.981453
0.981504
0.981401
0.981523
0.981453
0.981455
0.981467
0.981438
0.981458
0.98143
0.981473
0.981578
0.981583
0.981435
0.981487
0.98147
0.981519
0.981443
0.98146
0.981522
0.981461
0.981513
0.981469
0.981514
0.981523
0.98139
0.981434
0.981435
0.981436
0.981462
0.981513
0.981414
0.981456
0.981492
0.981512
0.981518
0.981434
0.981516
0.981438
0.981517
0.98158
0.981513
0.98157
0.981449
0.981515
0.98139
0.981516
0.981452
0.981517
0.981454
0.981516
0.981479
0.981603
0.981479
0.981517
0.981432
0.981516
0.981491
0.981456
0.981458
0.981516
0.981513
0.981504
0.981451
0.981512
0.981471
0.981478
0.981431
0.981513
0.981505
0.98149
0.981504
0.981514
0.981503
0.981446
0.98147
0.981505
0.981516
0.981467
0.981467
0.981513
0.981431
0.981616
0.981481
0.981565
0.981489
0.981674
0.981675
0.981672
0.981672
0.98167
0.981679
0.981679
0.981449
0.98142
0.98147
0.981492
0.981499
0.981504
0.981469
0.981504
0.981505
0.98142
0.981503
0.981445
0.981532
0.981439
0.98148
0.981493
0.981504
0.981436
0.98148
0.981491
0.98148
0.981491
0.981502
0.981526
0.981492
0.981482
0.981443
0.981499
0.981503
0.981499
0.981493
0.981482
0.981468
0.981499
0.981468
0.981481
0.981492
0.98147
0.981481
0.981502
0.981453
0.98149
0.981421
0.98158
0.981449
0.981447
0.981482
0.981491
0.981458
0.981616
0.981479
0.981491
0.981601
0.981394
0.981394
0.981479
0.9815
0.981489
0.981499
0.981376
0.981374
0.981467
0.981471
0.981471
0.981621
0.981502
0.981451
0.981495
0.981496
0.981493
0.981616
0.981455
0.981501
0.981481
0.98148
0.981495
0.981492
0.981495
0.981495
0.981603
0.981569
0.981491
0.981481
0.98149
0.981496
0.981491
0.98149
0.98149
0.981581
0.98144
0.981499
0.981459
0.981454
0.981582
0.981479
0.98148
0.981431
0.981388
0.981388
0.981434
0.981503
0.981481
0.981583
0.981391
0.981374
0.981374
0.981618
0.981413
0.981403
0.981483
0.981438
0.981471
0.981461
0.981451
0.981451
0.981472
0.981615
0.981478
0.981461
0.981452
0.981609
0.981408
0.981608
0.98145
0.981465
0.981515
0.981474
0.981472
0.981425
0.981468
0.981426
0.981479
0.981453
0.981407
0.981407
0.981585
0.981459
0.98165
0.981651
0.981651
0.981456
0.981622
0.981652
0.981497
0.981649
0.981424
0.981424
0.98165
0.981486
0.981606
0.981655
0.981605
0.981655
0.981605
0.981413
0.981589
0.981621
0.981648
0.981473
0.981447
0.981608
0.981472
0.981649
0.981466
0.981486
0.981656
0.981609
0.981656
0.981617
0.981481
0.98142
0.981374
0.981376
0.981462
0.981374
0.981374
0.981375
0.981386
0.981586
0.981407
0.981434
0.981421
0.981465
0.981384
0.981384
0.98142
0.981617
0.981487
0.981625
0.981612
0.981604
0.981392
0.981392
0.981394
0.981394
0.981392
0.981379
0.981398
0.981385
0.981378
0.981395
0.981395
0.981378
0.981378
0.981384
0.981397
P_ext 1 563 float
0.0197151
0.0197103
0.019711
0.0197104
0.0197085
0.019711
0.0197151
0.0197106
0.0197115
0.0197103
0.0197143
0.0197106
0.0197108
0.0197103
0.019709
0.019711
0.0197099
0.0197106
0.0197116
0.0197111
0.0197113
0.0197053
0.0197111
0.0197111
0.0197111
0.0197105
0.0197141
0.0197108
0.0197129
0.019707
0.0197108
0.0197129
0.0197142
0.0197075
0.0197075
0.0197076
0.0197069
0.0197077
0.0197108
0.0197142
0.0197129
0.0197068
0.0197068
0.0197108
0.0197136
0.0197129
0.0197116
0.0197114
0.019711
0.0197131
0.019713
0.0197125
0.0197085
0.0197126
0.0197086
0.0197138
0.0197075
0.0197125
0.0197075
0.019711
0.0197099
0.0197095
0.019714
0.0197096
0.0197095
0.0197101
0.0197099
0.0197105
0.0197111
0.0197102
0.0197085
0.0197085
0.0197129
0.0197099
0.019711
0.0197143
0.0197091
0.0197101
0.0197105
0.0197123
0.0197133
0.0197083
0.0197096
0.0197134
0.0197129
0.0197137
0.0197109
0.01971
0.0197136
0.0197055
0.0197125
0.0197055
0.019709
0.0197101
0.0197125
0.019713
0.0197134
0.0197104
0.0197091
0.0197108
0.019712
0.0197128
0.0197133
0.0197105
0.0197104
0.0197104
0.0197096
0.0197109
0.0197134
0.01971
0.019711
0.0197136
0.0197134
0.0197106
0.0197105
0.0197126
0.0197075
0.0197134
0.0197075
0.0197125
0.0197118
0.0197091
0.0197102
0.0197099
0.0197099
0.019709
0.0197077
0.0197104
0.0197134
0.0197125
0.0197084
0.0197103
0.0197097
0.0197102
0.0197128
0.0197074
0.0197136
0.0197107
0.0197096
0.0197074
0.0197127
0.0197104
0.0197117
0.0197103
0.0197134
0.0197105
0.0197105
0.019711
0.019711
0.0197121
0.0197114
0.0197102
0.0197129
0.0197108
0.0197104
0.0197103
0.0197102
0.0197128
0.0197127
0.0197107
0.0197114
0.0197128
0.0197136
0.019713
0.0197127
0.0197104
0.0197127
0.0197128
0.0197129
0.0197127
0.0197089
0.0197125
0.019713
0.0197102
0.0197125
0.0197096
0.0197089
0.0197106
0.0197086
0.0197104
0.0197129
0.0197104
0.0197104
0.0197127
0.01971
0.019713
0.0197099
0.0197097
0.0197089
0.0197104
0.01971
0.0197133
0.0197125
0.0197129
0.0197103
0.0197106
0.0197106
0.0197097
0.0197102
0.0197101
0.0197102
0.0197116
0.0197123
0.0197097
0.0197129
0.0197097
0.0197101
0.0197128
0.0197093
0.0197102
0.0197093
0.0197103
0.0197105
0.0197096
0.0197121
0.0197103
0.0197123
0.0197097
0.0197099
0.0197099
0.01971
0.01971
0.01971
0.01971
0.0197103
0.0197091
0.0197091
0.019709
0.019709
0.0197085
0.0197085
0.0197121
0.0197103
0.0197102
0.0197115
0.019709
0.019709
0.0197102
0.0197123
0.0197103
0.0197104
0.0197121
0.0197093
0.0197121
0.0197096
0.0197102
0.0197121
0.0197123
0.0197133
0.0197131
0.0197097
0.0197135
0.0197109
0.0197123
0.0197116
0.0197103
0.01971
0.0197068
0.01971
0.0197136
0.0197123
0.0197102
0.0197106
0.0197124
0.01971
0.0197117
0.0197068
0.0197123
0.0197099
0.0197099
0.0197106
0.019709
0.01971
0.0197085
0.0197108
0.0197136
0.0197138
0.0197088
0.0197113
0.0197106
0.0197122
0.0197093
0.0197102
0.0197123
0.0197101
0.019712
0.0197104
0.0197121
0.0197123
0.0197061
0.0197088
0.0197089
0.019709
0.0197103
0.019712
0.0197076
0.01971
0.0197114
0.019712
0.0197122
0.0197088
0.0197121
0.0197089
0.0197121
0.0197137
0.019712
0.0197134
0.0197096
0.0197121
0.0197061
0.0197121
0.0197097
0.0197121
0.0197098
0.0197121
0.0197109
0.0197142
0.019711
0.0197121
0.0197087
0.0197121
0.0197113
0.0197099
0.0197102
0.0197121
0.019712
0.0197117
0.0197096
0.019712
0.0197106
0.0197109
0.0197086
0.019712
0.0197118
0.0197113
0.0197118
0.0197121
0.0197117
0.0197094
0.0197106
0.0197118
0.0197121
0.0197105
0.0197104
0.019712
0.0197086
0.0197144
0.0197109
0.0197133
0.0197113
0.0197156
0.0197157
0.0197156
0.0197156
0.0197155
0.0197157
0.0197158
0.0197096
0.0197079
0.0197106
0.0197113
0.0197116
0.0197118
0.0197105
0.0197117
0.0197118
0.0197079
0.0197117
0.0197093
0.0197125
0.0197092
0.0197109
0.0197114
0.0197118
0.0197088
0.019711
0.0197114
0.0197109
0.0197113
0.0197117
0.0197124
0.0197113
0.019711
0.0197093
0.0197116
0.0197118
0.0197116
0.0197114
0.019711
0.0197104
0.0197116
0.0197105
0.019711
0.0197114
0.0197106
0.019711
0.0197117
0.0197099
0.0197113
0.019708
0.0197137
0.0197096
0.0197094
0.019711
0.0197114
0.0197101
0.0197144
0.019711
0.0197114
0.0197141
0.0197062
0.0197062
0.0197109
0.0197117
0.0197113
0.0197116
0.0197049
0.0197049
0.0197105
0.0197106
0.0197106
0.0197146
0.0197117
0.0197097
0.0197115
0.0197115
0.0197114
0.0197144
0.0197099
0.0197117
0.019711
0.019711
0.0197115
0.0197114
0.0197115
0.0197115
0.0197142
0.0197134
0.0197113
0.0197109
0.0197113
0.0197116
0.0197114
0.0197113
0.0197113
0.0197137
0.0197091
0.0197116
0.0197101
0.0197099
0.0197137
0.019711
0.019711
0.0197086
0.0197061
0.0197062
0.0197087
0.0197118
0.0197109
0.0197137
0.0197063
0.0197052
0.0197052
0.0197145
0.0197076
0.019707
0.019711
0.019709
0.0197107
0.0197103
0.0197098
0.0197097
0.0197106
0.0197144
0.0197109
0.0197102
0.0197098
0.0197143
0.0197073
0.0197143
0.0197098
0.0197104
0.0197121
0.0197108
0.0197106
0.0197083
0.0197106
0.0197083
0.019711
0.0197098
0.0197071
0.0197071
0.0197138
0.0197102
0.0197152
0.0197152
0.0197152
0.01971
0.0197146
0.0197152
0.0197116
0.0197151
0.0197083
0.0197083
0.0197151
0.0197112
0.0197142
0.0197152
0.0197142
0.0197153
0.0197142
0.0197076
0.0197139
0.0197145
0.0197151
0.0197107
0.0197095
0.0197143
0.0197107
0.0197151
0.0197104
0.0197112
0.0197153
0.0197143
0.0197153
0.0197145
0.019711
0.019708
0.0197052
0.0197053
0.0197103
0.0197052
0.0197052
0.0197053
0.0197059
0.0197138
0.0197072
0.0197087
0.0197079
0.0197103
0.0197057
0.0197057
0.0197079
0.0197145
0.0197113
0.0197146
0.0197144
0.0197142
0.0197064
0.0197064
0.0197065
0.0197065
0.0197064
0.0197053
0.0197065
0.0197057
0.0197052
0.0197064
0.0197064
0.0197052
0.0197053
0.0197057
0.0197065
FIELD solute_flux_TPM 2
S_ext 3 563 float
-5.36849e-05 1.79578e-05 4.33845e-18
2.34314e-06 4.49129e-06 -1.67692e-19
-8.31916e-06 -6.60654e-06 6.83041e-19
-2.74129e-06 2.76522e-06 -3.31549e-19
1.5192e-05 -4.34313e-06 1.61002e-20
1.80809e-06 -1.03827e-05 1.34264e-18
-5.28649e-05 -1.81763e-05 -3.04986e-19
-9.08768e-06 -6.76182e-06 -9.93695e-19
1.44809e-05 6.14276e-07 1.83006e-18
7.52641e-06 -2.64621e-06 3.39897e-19
3.57431e-05 8.32217e-06 -1.23549e-18
1.51882e-06 -1.12501e-05 1.01532e-18
8.98772e-06 7.32389e-06 -2.99768e-18
1.76094e-06 9.0005e-06 2.36457e-18
1.37736e-05 -2.02154e-06 3.5948e-18
-1.05591e-05 -1.72162e-07 1.71657e-20
1.84266e-06 9.27651e-06 -1.58628e-19
6.71106e-06 -1.60711e-06 -6.62065e-19
6.44787e-06 1.1242e-05 -2.13903e-18
-9.62242e-06 1.21741e-06 -1.6488e-18
-2.32814e-06 -1.38276e-05 2.00897e-18
2.86297e-05 4.03948e-05 1.41257e-18
1.03219e-05 1.05401e-06 4.99621e-18
7.38064e-06 -7.38001e-06 5.0754e-19
-9.76369e-06 -2.16099e-06 1.76993e-19
-4.23996e-07 -7.26519e-06 1.16289e-20
4.10177e-05 -3.21094e-06 -1.87888e-18
9.27301e-06 6.72448e-06 3.35302e-18
-1.62346e-05 -1.31804e-05 -1.12372e-18
3.24394e-05 -8.58674e-06 7.48788e-18
-1.07368e-05 -3.9535e-06 -2.83629e-18
3.467e-06 -2.08163e-05 -1.11799e-18
3.07753e-05 -3.1369e-05 -1.58013e-19
-3.45732e-06 -2.77154e-05 3.46064e-19
-1.95837e-05 2.43777e-05 -1.89287e-18
-2.57295e-05 -1.08532e-05 -4.33353e-18
2.15059e-05 2.81623e-05 -2.94989e-18
-2.96017e-05 -5.79728e-06 -2.41723e-18
9.50353e-06 -7.22641e-06 6.71122e-19
3.00658e-05 3.26875e-05 1.09742e-18
2.09594e-05 -9.17389e-06 -4.76986e-19
2.19329e-05 -2.71062e-05 -2.26435e-18
-1.25149e-05 -3.2527e-05 -1.22968e-18
-1.02891e-05 4.16304e-06 -9.88535e-19
1.96905e-05 -1.92596e-05 -4.70738e-19
-1.94416e-05 6.912e-06 1.94652e-18
-2.66885e-06 -1.31769e-05 1.00041e-18
5.13217e-06 1.3141e-05 -2.97996e-18
-1.06265e-05 3.85826e-06 1.01407e-18
-1.16864e-05 1.8377e-05 -2.56028e-18
2.11495e-05 9.96207e-06 6.47548e-19
1.91157e-05 -6.6349e-06 2.12369e-18
-1.03963e-05 1.04155e-05 1.38929e-18
-1.51353e-05 -1.31475e-05 -4.83445e-19
-1.40037e-05 -3.4285e-06 -3.24396e-18
-2.87042e-05 1.70946e-05 -2.05599e-18
-1.93873e-05 -2.50878e-05 4.16212e-18
3.99659e-06 -1.97912e-05 -4.76245e-19
-3.14282e-05 4.28783e-06 3.35988e-19
3.96326e-06 8.94896e-06 -5.15486e-18
-3.64036e-06 -5.39881e-06 1.7143e-19
-4.29298e-06 -1.18424e-05 -1.69813e-18
3.70601e-05 1.61509e-05 7.93027e-19
6.14921e-06 1.19356e-05 6.6543e-21
8.16183e-06 -9.51544e-06 -2.03472e-18
-1.12068e-06 -1.36419e-05 2.53411e-18
3.07783e-06 -5.79263e-06 -2.18727e-18
-6.55695e-06 -3.645e-06 -2.34233e-18
-6.92904e-06 7.71004e-06 -4.48462e-18
1.68123e-06 -2.76795e-06 -1.67701e-18
-9.96593e-06 -1.04771e-05 5.66677e-18
-1.41236e-05 3.43734e-06 8.52088e-19
-2.4903e-06 2.2174e-05 -8.00861e-19
-1.17344e-05 7.02884e-06 -1.50989e-18
-5.9209e-06 9.44677e-06 6.8108e-19
-3.82857e-05 4.76171e-06 7.88455e-19
5.22384e-06 -1.42907e-05 8.52597e-19
-1.24079e-05 -5.7683e-06 -1.51369e-18
1.25456e-06 7.61514e-06 -4.95698e-19
1.72044e-05 3.30352e-06 -2.43643e-18
2.21792e-05 -1.89021e-05 2.89015e-18
1.47493e-05 1.35725e-05 -1.20022e-18
7.96492e-06 -1.94345e-06 2.03051e-20
-2.06512e-05 1.51367e-05 2.56259e-18
2.46652e-05 3.16173e-06 -4.76798e-19
-3.55895e-06 3.17027e-05 1.64875e-19
-1.14593e-06 -1.09843e-05 2.0173e-18
1.20495e-05 6.54207e-06 2.37544e-18
1.89372e-05 1.98334e-05 1.60232e-19
4.2537e-05 2.6443e-05 4.41661e-18
-3.52402e-06 1.98891e-05 -1.28742e-18
4.44309e-05 -2.49687e-05 5.4485e-18
-1.79774e-05 3.47125e-06 -2.55182e-18
1.18518e-05 7.32674e-06 -1.50568e-18
-1.90022e-05 6.32402e-06 1.30633e-18
1.07193e-05 1.86004e-05 -1.6167e-19
6.37759e-06 -2.86146e-05 -1.59002e-18
1.26519e-06 7.61091e-06 1.79617e-19
-9.69602e-06 -1.16404e-05 6.76721e-19
1.98956e-06 1.14014e-05 -3.25996e-19
1.72356e-05 3.44685e-06 4.37122e-21
-1.00234e-05 2.13126e-05 -3.21794e-19
2.63478e-05 -8.78395e-06 1.60971e-18
-2.48664e-06 4.8324e-06 1.85063e-18
6.60435e-06 3.84342e-06 -2.67025e-18
-1.46633e-06 -7.3877e-06 -3.68091e-18
2.16e-06 -1.27126e-05 -4.06612e-18
1.14845e-05 2.56649e-06 3.47737e-19
-5.32911e-06 2.64759e-05 -2.064e-18
-6.50816e-06 1.22288e-07 -1.34693e-18
6.13251e-06 7.76627e-06 -2.15058e-18
-1.74826e-06 -2.6989e-05 -3.16331e-18
2.73261e-05 8.48276e-06 -1.58269e-19
2.94098e-06 -4.86334e-06 1.85434e-18
-7.24165e-06 -2.33427e-06 6.83979e-19
-1.87718e-05 -7.98575e-06 2.44696e-18
1.06359e-05 2.77577e-05 3.55864e-19
-2.76069e-05 -9.83581e-06 2.73064e-18
1.07844e-05 -2.78317e-05 2.42019e-18
-2.44081e-06 -2.06124e-05 -3.10263e-19
1.43091e-05 3.93433e-07 3.4694e-18
-4.7537e-06 1.22253e-05 -1.84873e-18
-1.04992e-06 2.58737e-06 -4.02524e-18
-2.45518e-06 -1.08939e-05 -1.01083e-18
3.48414e-06 -5.60858e-06 1.72058e-19
6.21078e-06 1.04798e-05 -3.40111e-18
2.23382e-05 7.29569e-06 -8.5863e-19
5.75897e-06 -4.85993e-06 -8.29848e-19
-5.46898e-06 -2.89624e-05 7.09726e-21
1.66471e-05 -1.22755e-05 3.3348e-19
3.30554e-06 1.84228e-05 -3.37936e-19
-1.82501e-06 -1.87056e-06 -1.83518e-18
-5.7073e-06 -5.47817e-06 4.96465e-21
-3.14774e-06 6.13322e-08 -4.88201e-19
-1.47406e-05 1.81985e-05 -4.76299e-19
1.29188e-05 -2.50022e-05 -1.38905e-18
-1.72168e-05 2.72115e-05 1.76412e-18
-1.06262e-05 6.19206e-06 -9.90979e-19
1.66206e-06 8.16625e-06 -1.1747e-18
-1.5164e-05 -2.36708e-05 -8.8129e-19
8.93891e-06 2.16702e-05 -3.15786e-19
1.1606e-05 6.09951e-06 -1.33014e-18
1.49131e-05 -5.63065e-06 2.64362e-18
-8.26355e-07 -7.3791e-06 -4.94552e-19
-2.16814e-05 -1.99398e-05 -2.55971e-18
-1.78315e-06 7.3876e-06 -3.23071e-19
1.14093e-05 6.73091e-06 -2.50596e-18
1.24303e-05 -5.86728e-06 2.00231e-18
5.44564e-06 -9.35318e-06 1.84025e-18
1.59241e-05 -7.06078e-06 -9.70482e-19
1.24876e-05 -5.91319e-06 2.82801e-18
3.13634e-06 1.95708e-07 6.8265e-19
1.67043e-05 1.32243e-05 -9.6601e-19
-1.75535e-06 -1.10759e-05 1.23976e-20
-6.87171e-06 -2.8683e-06 -2.17071e-18
7.54722e-07 -2.53938e-06 -1.15982e-18
-2.10828e-06 1.03875e-05 5.11654e-19
-2.22307e-05 1.75572e-06 -1.77936e-18
-7.86264e-06 -2.13257e-05 1.70441e-19
-5.15094e-06 6.34317e-06 -1.59386e-19
8.86323e-06 1.08256e-05 -2.47953e-18
1.72367e-05 -1.22926e-05 2.26537e-18
-2.36463e-05 -1.28196e-05 -1.41787e-18
1.1204e-05 -1.79638e-05 -1.28358e-18
1.4771e-05 -1.76908e-05 1.79284e-18
-7.12014e-06 2.50674e-06 1.94737e-19
-1.27738e-05 -1.83849e-05 1.63021e-18
-2.22126e-05 -3.69485e-06 -1.61275e-18
-2.68101e-06 -2.04466e-05 -9.58567e-19
9.91819e-06 -2.05292e-05 -8.00091e-19
-6.063e-06 -1.73425e-05 8.55003e-19
2.84563e-06 2.0294e-05 -4.78933e-19
-1.03161e-05 -1.82751e-05 8.11574e-19
1.98156e-06 -1.06794e-05 4.05364e-18
-1.59192e-05 1.15892e-05 3.74637e-18
-9.88514e-06 -8.00223e-06 1.35443e-18
-1.80958e-05 -3.36293e-06 -1.20133e-18
1.03592e-05 -6.08276e-06 1.50862e-18
-2.83689e-06 1.58583e-05 8.79826e-19
8.15843e-06 -6.12327e-06 5.08473e-19
-1.89753e-05 -8.3189e-06 4.20423e-18
-5.79361e-06 -4.83325e-06 -2.16614e-18
6.0371e-06 4.90815e-06 -2.3339e-18
1.38808e-05 1.86382e-05 3.29348e-19
-1.14434e-05 -7.09274e-06 1.52211e-18
-2.0811e-05 -5.02937e-07 1.6192e-18
-1.07701e-05 -3.23378e-06 -8.34323e-19
-3.02443e-06 -1.09066e-05 3.42683e-19
1.18367e-05 1.42698e-05 -2.38167e-18
-7.20785e-06 3.78755e-06 1.18049e-18
4.50528e-07 -1.34949e-05 5.11157e-19
-2.67253e-05 6.85295e-06 -2.23907e-18
1.61974e-05 1.31761e-05 1.68539e-19
2.34649e-06 2.12873e-05 -2.09118e-18
-1.5743e-06 2.51415e-06 -2.15932e-18
-5.8737e-06 1.64423e-07 -2.49416e-18
2.88494e-06 5.06153e-06 -3.16708e-18
-7.72197e-06 2.28294e-06 -1.68609e-19
-1.34314e-06 -2.46133e-06 1.35253e-18
1.12404e-06 1.36261e-05 1.79907e-19
3.00559e-06 2.45876e-07 -5.36154e-18
-1.26156e-05 3.04753e-06 1.66444e-18
-1.12439e-05 1.24238e-05 -5.37428e-18
-2.02373e-06 7.65727e-06 -2.68077e-18
-1.88253e-05 1.17302e-05 1.45786e-18
-6.19379e-06 5.91132e-06 -4.94731e-19
1.14951e-05 -7.79275e-06 -8.39398e-19
2.38193e-05 -2.36752e-06 -1.12864e-18
-1.39769e-05 7.41848e-06 -3.0458e-18
1.46421e-06 2.99145e-06 -1.83915e-18
1.45971e-05 -2.82434e-06 2.38531e-18
-1.13056e-05 6.81314e-06 -3.18508e-18
-6.43216e-06 3.6357e-06 1.6993e-18
7.95527e-06 2.56894e-06 4.23651e-18
1.4265e-05 -8.84582e-06 1.63811e-18
-1.13879e-05 6.47253e-06 -2.84765e-18
-1.6091e-05 -3.38311e-06 -2.60663e-18
-1.10144e-05 -2.82928e-06 -3.72245e-18
6.66036e-06 6.12848e-08 3.37813e-18
6.82274e-06 7.51986e-08 -1.83348e-18
2.91614e-06 5.48012e-06 1.34566e-18
3.21314e-06 -5.79575e-06 3.47417e-19
-3.2885e-06 5.58778e-06 -2.16215e-18
-3.44504e-06 -5.71783e-06 -3.52604e-18
6.55134e-06 -4.95877e-06 1.18065e-18
-1.34827e-05 2.16457e-06 -1.36205e-18
-1.3331e-05 -2.20717e-06 -2.3775e-18
-8.52358e-06 1.05315e-05 1.37805e-18
-8.57162e-06 -1.0572e-05 1.74536e-19
4.98605e-06 -1.33727e-05 -3.08436e-18
4.80384e-06 1.32587e-05 1.03577e-18
9.64729e-07 1.68103e-05 4.262e-18
7.49255e-06 -1.99935e-06 8.52821e-19
1.61942e-06 -2.51864e-06 9.73376e-21
-1.37774e-05 9.27802e-07 1.34096e-18
5.14707e-06 -1.31575e-05 1.36325e-18
4.877e-06 1.32049e-05 -6.75674e-19
3.16726e-06 -5.8845e-08 -4.01721e-18
5.77876e-06 1.58905e-05 9.83553e-19
-1.47426e-06 -2.62574e-06 2.19718e-18
1.54391e-06 -7.41392e-06 1.35111e-18
-1.44475e-05 -7.74838e-06 2.9576e-18
-1.411e-05 -7.55139e-06 2.20563e-18
-1.41396e-05 8.74487e-06 -2.61037e-18
2.14573e-06 -8.27063e-06 3.89686e-18
-1.04764e-06 2.19991e-06 2.51139e-18
-4.68662e-07 -1.65285e-05 6.87333e-21
-5.08374e-06 -1.57287e-05 1.31477e-18
2.12275e-05 1.97708e-05 1.55082e-19
2.31691e-05 -1.19717e-06 -6.37969e-19
-8.41283e-06 -2.44762e-06 -2.87211e-18
-1.47902e-05 -2.63384e-05 -2.70966e-18
5.45879e-06 8.96484e-06 -3.83127e-18
-1.62185e-05 1.91382e-06 1.73645e-19
1.31644e-05 3.77317e-06 -4.87841e-19
-2.96391e-06 -1.2446e-08 -1.48837e-18
-3.07317e-06 -5.55036e-06 3.41525e-19
-5.43565e-06 -2.58567e-05 5.91817e-18
-6.42486e-06 -2.37875e-08 1.69227e-18
-3.07438e-05 -1.1539e-06 -9.53989e-19
1.12429e-05 -1.24956e-05 2.12892e-18
1.64828e-06 2.6101e-06 -3.00225e-18
-7.88985e-08 -1.14579e-05 1.51257e-18
-6.45434e-06 1.55019e-05 -1.1438e-18
-2.89102e-06 5.69287e-06 -1.1647e-18
1.34623e-05 -8.89136e-06 2.15011e-18
-2.51065e-05 -8.20145e-06 -2.27355e-18
-9.91187e-06 -1.30844e-05 3.27126e-18
3.31734e-06 5.61834e-06 -3.18889e-18
1.10951e-05 3.3324e-06 1.66095e-20
-3.10989e-06 -4.76077e-06 -1.15845e-18
1.33153e-05 2.42982e-06 2.90184e-18
1.212e-05 -6.49932e-06 -6.70707e-19
-2.47596e-07 1.79574e-05 2.23955e-18
5.48441e-06 -8.91809e-06 5.53592e-18
3.17704e-05 1.35641e-06 -1.90637e-18
-2.69914e-05 7.0321e-06 2.37598e-18
1.53506e-05 7.6632e-06 -8.47532e-19
-4.19857e-06 -1.11038e-05 2.17605e-18
-1.00105e-05 -5.59206e-06 -8.26111e-19
1.87728e-05 -1.55061e-07 1.31726e-18
-4.80362e-07 -1.60407e-05 1.36152e-18
-8.21479e-06 -7.15441e-06 6.79674e-19
6.60475e-06 -1.53148e-05 -4.23986e-18
-3.67642e-07 1.34869e-05 3.21231e-18
5.08123e-06 1.68995e-05 2.14032e-18
1.14296e-05 -6.56373e-06 8.41732e-19
-1.22473e-05 1.23347e-05 -4.88089e-19
1.07265e-05 1.30739e-05 1.31184e-18
-4.3271e-05 1.03213e-05 -1.04706e-18
-6.73688e-06 1.72195e-05 -1.58162e-19
8.31349e-06 -1.00928e-05 -2.89484e-18
-4.62816e-06 -1.2173e-05 5.04542e-19
-7.79077e-06 2.89067e-06 -2.17541e-18
-1.65975e-05 -4.53078e-06 6.63295e-19
-4.46223e-06 2.60524e-05 7.03621e-19
-8.23849e-06 7.87583e-06 1.20659e-18
1.36237e-05 -2.99044e-06 2.16453e-18
-4.46123e-06 -1.6644e-05 -6.4746e-19
-9.6305e-06 1.53297e-05 -1.7958e-18
-1.4392e-05 8.29229e-06 -8.48994e-19
-1.32691e-05 -9.66944e-06 1.64758e-18
1.20822e-05 -1.39417e-05 -8.49541e-19
-1.76193e-05 -9.34914e-07 1.48978e-18
7.76402e-06 -2.66032e-05 -9.38454e-19
1.26444e-05 -1.23158e-05 -1.14607e-18
1.58909e-05 2.7917e-05 -3.27664e-19
1.2941e-06 1.30964e-05 -1.34876e-18
1.88836e-06 -1.65126e-05 1.1505e-20
-2.81484e-05 3.3044e-05 3.53475e-19
-8.21478e-06 -1.56747e-05 1.97735e-18
1.09699e-05 -4.23989e-06 2.53916e-18
-1.65882e-06 1.66446e-05 2.29947e-18
8.56693e-06 -7.96898e-06 2.54041e-18
8.99611e-06 1.57786e-05 -8.15604e-19
1.13183e-05 -9.62613e-07 3.67631e-18
1.39076e-05 -4.07271e-05 -9.38853e-19
-3.82723e-06 -8.34659e-06 1.17686e-18
-1.4932e-05 6.41467e-06 6.1667e-21
-1.327e-05 1.2408e-05 1.90212e-18
1.40789e-05 9.52532e-06 -4.25342e-18
1.22504e-05 -7.09212e-06 3.3231e-18
9.8959e-06 8.38413e-06 -1.34803e-18
-3.60243e-06 -1.20789e-08 2.01756e-18
9.99321e-06 -1.49988e-05 -8.16245e-19
-1.0971e-05 -1.30618e-05 3.46202e-18
1.4743e-05 6.4076e-06 -9.79235e-19
8.52734e-06 -8.02088e-06 4.07033e-18
6.15349e-06 -1.61208e-05 -4.42882e-18
1.09879e-05 -4.65295e-06 1.65969e-19
-1.02655e-05 -4.89196e-06 -1.66541e-18
8.79055e-07 -1.73736e-05 2.52116e-22
-1.67429e-05 2.87856e-06 1.16226e-18
1.4811e-06 1.59097e-05 1.98467e-18
1.34944e-05 4.36465e-06 1.17403e-18
-1.39907e-05 -6.89573e-06 -1.63985e-18
-5.83738e-06 1.65158e-05 -2.29346e-18
-9.82062e-07 -1.56857e-05 1.32929e-18
1.29896e-05 7.88895e-06 3.46425e-19
-1.12533e-06 1.18205e-05 -4.92671e-19
-1.30206e-05 8.75789e-06 1.70953e-19
1.53779e-05 7.44035e-06 2.79461e-18
-1.11334e-05 -6.55425e-06 1.68139e-18
1.09797e-07 -1.29779e-05 3.0333e-18
1.19797e-05 1.29944e-05 -2.62429e-18
-1.45943e-05 -9.43627e-06 2.39561e-18
3.14372e-05 -2.2494e-05 -6.1831e-19
1.18125e-05 -7.10529e-06 1.33524e-18
5.61125e-06 2.78027e-05 -1.59232e-18
1.12038e-05 -8.93537e-06 2.66479e-18
-1.46328e-05 5.6437e-05 2.36898e-18
-1.47088e-05 -5.59001e-05 -7.5207e-19
3.67376e-05 4.80225e-05 2.80733e-18
3.62957e-05 -4.80107e-05 5.96624e-19
5.99845e-05 -2.94139e-08 -3.03347e-19
-5.16162e-05 2.09135e-05 -1.93121e-18
-5.07787e-05 -2.11319e-05 1.48404e-18
8.15174e-06 7.87937e-06 -1.01132e-18
1.97514e-05 1.4708e-05 7.04197e-19
7.54711e-06 2.19954e-06 -8.29139e-19
1.23949e-05 6.37584e-06 1.00666e-18
3.22524e-06 1.31454e-05 1.56558e-21
-1.21734e-05 -9.58887e-06 -8.16826e-19
1.13302e-05 -6.70619e-06 -1.33986e-18
1.30007e-05 9.48132e-06 -1.31201e-18
-2.07739e-06 1.57966e-05 -3.21355e-19
1.98485e-05 -1.35045e-05 3.96339e-18
2.40319e-06 -1.54014e-05 -3.21302e-19
1.4679e-05 3.38507e-06 -4.99247e-19
1.94506e-05 7.22304e-06 3.9097e-18
9.4276e-06 9.35453e-06 -1.86266e-18
1.04592e-05 4.33535e-06 3.42597e-19
-1.19968e-05 7.0682e-06 2.16608e-18
-1.45438e-05 5.82411e-06 1.82257e-18
1.54141e-05 -7.51595e-06 1.70638e-18
-1.18434e-05 -6.49698e-06 1.34308e-18
-1.20199e-05 -6.80281e-06 -3.22276e-19
-2.09804e-07 -1.35396e-05 1.17628e-18
-9.9035e-08 -1.37505e-05 3.44705e-19
-1.29793e-05 -6.52767e-07 -9.76727e-19
1.74619e-05 -2.64858e-06 8.2041e-19
1.18717e-05 7.4411e-06 -2.65098e-18
-1.16287e-05 7.05136e-06 5.11975e-19
-1.00883e-05 1.09926e-05 -1.00028e-18
1.04824e-05 -9.01844e-06 1.82514e-18
-7.19584e-06 1.12609e-05 -2.96052e-18
-9.22523e-06 -9.59865e-06 4.8034e-18
-8.02634e-07 1.37626e-05 1.16846e-18
-8.2829e-07 1.36687e-05 1.79293e-19
3.14689e-08 -1.29816e-05 5.11541e-19
3.97357e-06 -1.28658e-05 5.06872e-19
-1.11967e-05 -6.44385e-06 -1.68682e-19
1.02559e-05 -3.63741e-06 2.66636e-18
4.18103e-07 1.39864e-05 -1.48959e-18
1.72888e-07 1.20839e-05 -9.90341e-19
-1.55253e-06 1.09523e-05 1.34385e-18
1.43415e-05 -3.62848e-06 5.11867e-18
-1.09358e-05 3.47163e-06 -3.54033e-18
2.66265e-06 1.39996e-05 -1.16349e-18
-2.17017e-05 8.50797e-06 -1.5445e-18
6.09302e-06 2.71801e-05 -2.53261e-18
-1.12383e-05 2.96159e-06 -1.51606e-18
1.31801e-05 -7.80019e-06 -5.07071e-19
5.67079e-07 1.37002e-05 -1.66021e-18
-1.32111e-05 4.34422e-06 1.67035e-18
1.62244e-06 -1.06534e-05 1.01838e-18
5.93082e-07 -3.76534e-05 1.71119e-18
1.29847e-06 1.14245e-05 -3.66173e-18
-1.10222e-05 9.00522e-06 -1.15392e-18
1.1209e-05 4.12536e-05 1.55321e-19
3.15093e-05 2.61326e-05 5.45089e-19
3.61217e-05 -2.47144e-05 4.20146e-18
9.7753e-06 -6.69237e-06 5.03609e-19
-1.02579e-05 9.04417e-06 -2.9651e-18
-1.30452e-05 -5.13847e-06 1.00803e-18
-1.26842e-05 -4.38032e-06 -4.28642e-18
4.44182e-05 -1.22056e-05 7.62068e-18
4.53085e-05 9.52738e-06 2.13445e-18
7.18032e-06 2.51318e-06 -2.17561e-18
4.56028e-07 1.28084e-05 -3.29926e-19
5.09289e-08 1.28002e-05 3.8646e-18
-3.13658e-05 -2.29531e-05 1.25132e-18
7.45032e-06 -1.12177e-05 2.31608e-18
7.80476e-06 8.34427e-06 -2.02497e-18
-1.37812e-05 -2.20526e-06 -1.9797e-18
-9.11948e-06 1.10599e-05 -3.30236e-18
-1.22312e-05 5.89012e-06 1.00433e-18
3.10459e-05 2.22689e-05 -2.63583e-18
1.05209e-05 4.65166e-06 -6.56804e-19
-3.66978e-06 1.29519e-05 -2.80082e-18
-1.10557e-05 -7.57051e-06 1.3473e-18
1.17229e-06 -1.34012e-05 2.3472e-18
-5.7973e-06 -1.24566e-05 1.33886e-18
-1.11713e-05 -7.6008e-06 1.75967e-19
6.88893e-06 -1.23212e-05 1.33826e-18
9.25575e-06 -1.10618e-05 4.15116e-18
-1.9158e-06 -3.94031e-05 -1.09278e-18
1.68114e-05 -2.66635e-05 -2.23575e-18
1.13355e-06 -1.35357e-05 1.33718e-18
1.18412e-05 7.41649e-06 -1.56812e-19
-9.40678e-06 -9.58319e-06 3.6616e-18
-6.39247e-06 1.2722e-05 -4.29881e-18
-3.27411e-06 1.36225e-05 -1.81721e-18
1.09187e-05 9.27321e-06 -3.98305e-18
3.91896e-06 -1.29311e-05 3.4973e-18
-9.02528e-06 -2.58464e-05 -3.16544e-18
-1.35984e-06 1.65699e-05 -1.66041e-19
9.66955e-06 9.45085e-06 -3.46615e-18
-8.45266e-06 -6.69037e-06 -1.00909e-18
-8.8743e-06 6.9616e-06 -3.53086e-18
2.89252e-05 -1.24303e-05 2.2195e-18
4.95471e-06 -8.74276e-06 3.01198e-18
-5.4312e-06 -8.16248e-06 2.34893e-18
1.43373e-05 4.37606e-06 1.88852e-18
8.81863e-06 -3.18148e-05 2.63249e-18
-2.31482e-05 -2.35242e-05 -1.41602e-18
1.56331e-05 4.09385e-06 3.26511e-18
-6.08007e-06 -1.17935e-05 1.00439e-18
1.23051e-05 6.2606e-06 -1.49018e-18
-1.86166e-05 -2.06728e-05 -1.25379e-18
7.14168e-06 3.23483e-05 7.10098e-19
3.13443e-05 -4.04834e-05 3.19126e-18
-1.93894e-05 -4.73765e-05 -2.66794e-18
1.75469e-05 -3.42993e-05 4.67722e-19
-8.41484e-06 2.88994e-05 1.88904e-19
-4.79532e-06 2.5594e-05 -8.62449e-19
-1.21638e-05 5.82782e-06 -2.15641e-18
4.00541e-06 1.60191e-05 -1.66192e-19
-1.56555e-06 8.22087e-06 1.6854e-18
6.69689e-06 2.15187e-06 -2.17757e-18
-2.13405e-06 1.0685e-05 -1.63914e-19
-1.59957e-07 1.38172e-05 1.36023e-18
1.10035e-05 6.41269e-06 -8.21633e-19
5.48744e-07 3.74753e-05 4.6785e-19
-9.59567e-06 6.91346e-06 -2.16911e-18
1.05943e-05 -4.08314e-06 6.80906e-19
1.13157e-05 -2.92953e-06 2.54174e-18
-3.84137e-05 -5.52046e-06 1.14044e-20
-2.2941e-05 1.09164e-05 -2.42385e-18
-2.78757e-05 -3.30531e-05 7.836e-19
5.72137e-06 5.4831e-06 -3.03868e-18
9.38787e-06 4.85786e-06 -3.29623e-19
1.74925e-05 -2.79321e-06 3.29244e-18
-5.27158e-06 -8.58128e-06 -8.23563e-19
1.13522e-05 5.58865e-06 -4.8966e-19
4.88227e-06 -1.99258e-05 -3.77586e-18
-9.00858e-06 6.60016e-06 -2.67545e-18
-1.48086e-05 -1.41889e-05 8.45994e-19
-3.79202e-06 1.05853e-05 -3.22421e-19
-2.203e-06 1.36137e-05 1.3573e-18
2.29164e-05 1.4232e-05 -5.07008e-19
2.44332e-05 -1.29648e-05 4.3351e-18
-2.68364e-05 -7.22663e-06 1.26975e-18
5.03781e-06 5.11599e-06 -2.85834e-18
-3.1415e-06 6.55121e-05 -3.27408e-19
-1.28648e-08 -6.72935e-05 1.39788e-18
3.31678e-05 5.67619e-05 2.46066e-18
-1.25863e-05 5.48797e-06 -2.1825e-18
-1.77944e-05 3.5931e-05 1.55466e-18
3.33718e-05 -5.47863e-05 2.5903e-21
-7.60314e-06 -1.17639e-05 1.33773e-18
5.07432e-05 4.41753e-05 -7.68993e-19
1.59549e-05 -1.18672e-05 -3.61782e-18
-2.31743e-06 -1.97405e-05 1.02237e-18
5.31678e-05 -4.31958e-05 6.16634e-19
-4.41625e-06 9.40466e-06 -4.47456e-18
-3.40735e-05 -2.16458e-05 2.83888e-18
-2.80589e-05 -5.85862e-05 1.71734e-18
-1.58868e-05 -3.70888e-05 -5.80999e-18
-2.88464e-05 5.9546e-05 -6.15656e-19
-6.83072e-06 4.12113e-05 -2.35489e-18
1.06885e-05 2.48138e-05 -3.40884e-19
-1.829e-05 2.35027e-05 4.73385e-18
-1.70273e-05 -3.49791e-05 6.2031e-19
6.52868e-05 1.14553e-05 -1.85292e-18
-1.10704e-05 6.94962e-06 -1.33149e-18
-3.92928e-06 1.07483e-05 -1.69058e-18
-3.23156e-05 2.32724e-05 3.21174e-19
-1.12717e-05 6.47207e-06 -1.16191e-18
6.46438e-05 -1.02131e-05 6.2126e-19
-1.00581e-05 5.0522e-06 -2.00666e-18
4.72135e-06 -9.47315e-06 4.66203e-18
-5.01957e-05 -3.82472e-05 1.70403e-18
-1.71154e-05 3.71215e-05 4.7499e-19
-5.13917e-05 3.79738e-05 3.2483e-18
1.55204e-05 3.41717e-05 3.09765e-18
-9.63412e-06 6.84353e-06 -2.32586e-18
-1.35662e-05 1.63051e-05 1.49253e-20
-2.41704e-05 3.03563e-05 2.83057e-18
-3.78986e-05 -4.88783e-06 -1.05481e-18
-6.36934e-07 1.06916e-05 2.02129e-18
-2.56008e-05 -3.04839e-05 6.71931e-18
-3.92118e-05 6.93506e-06 3.41782e-19
-1.49356e-05 3.46446e-05 -8.84269e-19
-1.15276e-05 4.61179e-05 -2.10213e-18
-1.19334e-05 2.64584e-05 3.21603e-19
-2.23634e-05 1.80189e-05 -1.72238e-18
1.64267e-05 -4.04011e-06 1.70966e-18
2.56737e-05 -1.38255e-06 -6.88516e-19
8.92913e-06 5.43363e-06 -4.36238e-18
-8.09911e-06 -5.30613e-05 1.76068e-19
-5.00116e-05 -1.95035e-05 -5.40809e-19
2.5e-05 3.3037e-07 -1.88474e-18
3.8225e-05 -7.37966e-06 -1.07543e-18
-6.87446e-06 -8.7277e-06 1.50773e-18
-3.31664e-05 2.33187e-05 4.96369e-18
-2.97235e-05 3.40486e-05 4.72341e-18
4.04077e-05 -1.45596e-05 -1.416e-18
-1.86871e-05 -3.16648e-05 5.41444e-18
-1.90214e-05 3.14199e-05 1.12417e-20
-3.69065e-05 -1.30649e-06 -6.855e-19
-1.67861e-05 3.30135e-05 -1.03603e-18
-3.67893e-05 3.81097e-07 3.37107e-19
4.576e-05 1.6387e-05 6.35407e-18
3.69367e-05 1.35869e-06 -1.04773e-18
3.4725e-05 -1.77907e-05 3.69256e-18
1.01277e-05 -4.8813e-05 4.5877e-18
1.83543e-05 -3.19724e-05 5.4037e-18
1.82297e-05 3.19687e-05 -8.68779e-19
9.91809e-06 4.76948e-05 -2.64812e-18
4.99737e-05 -1.40917e-05 3.54515e-18
3.20389e-05 1.58692e-05 1.94465e-18
3.07947e-05 8.41375e-06 4.20545e-18
P_ext 3 563 float
-1.06482e-06 3.6004e-07 7.4943e-20
1.00884e-09 3.94362e-08 -3.66074e-20
-9.81149e-08 -9.22679e-08 -6.18833e-20
-3.1037e-08 2.86492e-08 7.3096e-20
2.70757e-08 5.1804e-10 -1.03806e-19
3.22913e-08 -1.31052e-07 -5.4145e-20
-1.04838e-06 -3.64396e-07 -1.10485e-19
-7.69204e-08 -8.7261e-08 -3.89179e-20
2.13976e-07 3.79013e-09 -7.40647e-21
7.81212e-08 -7.33836e-09 1.06107e-20
6.93118e-07 1.62457e-07 -3.40042e-20
3.80943e-08 -1.11516e-07 -5.96895e-20
8.72998e-08 1.03917e-07 -2.3354e-20
-8.99359e-09 8.14047e-08 5.79894e-20
2.4455e-08 9.06068e-09 -2.84169e-20
-1.36785e-07 -2.23918e-09 -1.78616e-20
-1.70902e-08 5.3644e-08 5.52398e-20
8.24564e-08 -1.24415e-08 2.09218e-20
9.47105e-08 1.68908e-07 -7.96516e-20
-1.27067e-07 1.2814e-08 -1.02072e-20
-4.77031e-08 -1.79977e-07 9.61243e-20
1.57349e-09 3.22467e-10 -3.01614e-20
1.40736e-07 1.1458e-08 1.36187e-20
8.95975e-08 -1.03451e-07 3.64398e-20
-1.29802e-07 -2.09017e-08 -5.92892e-20
-2.44694e-08 -7.10325e-08 -5.71035e-20
7.96831e-07 -6.51846e-08 -1.47871e-20
9.76235e-08 8.23037e-08 -4.0921e-20
-2.91551e-07 -2.31591e-07 1.75858e-20
1.71313e-08 3.22301e-09 -4.37221e-21
-1.30332e-07 -2.32101e-08 -7.90179e-21
5.69808e-08 -3.70788e-07 -2.49502e-20
5.98785e-07 -6.13231e-07 -3.90177e-20
1.27532e-09 -2.812e-08 -2.69345e-21
-7.56716e-09 2.16257e-08 -4.57325e-20
-2.34734e-08 -1.54639e-08 -3.82851e-20
3.10777e-09 1.55274e-08 -3.53188e-20
-2.37331e-08 4.04168e-09 -5.46457e-21
9.4275e-08 -1.02534e-07 -2.32884e-20
5.84301e-07 6.39076e-07 1.23138e-20
3.73232e-07 -1.69098e-07 3.01972e-20
5.77319e-09 -1.42193e-08 -5.16834e-20
-9.34624e-09 -1.24528e-08 -4.63198e-20
-1.29472e-07 2.65948e-08 -1.28015e-20
3.7029e-07 -3.63641e-07 -8.83693e-20
-3.4503e-07 1.24193e-07 5.30161e-20
-4.35919e-08 -1.90222e-07 9.02185e-20
7.86542e-08 1.91063e-07 5.01408e-21
-1.24191e-07 3.24752e-08 1.07481e-20
-2.13703e-07 3.32383e-07 -4.4995e-20
3.78805e-07 1.85511e-07 -6.2539e-20
3.28923e-07 -1.08182e-07 4.85054e-20
-9.6899e-09 2.30291e-08 -1.28763e-20
-2.57405e-07 -2.30984e-07 -4.80513e-20
-2.52626e-08 3.33602e-09 -4.27272e-20
-5.52086e-07 3.24215e-07 5.65481e-20
-7.02654e-09 -2.15354e-08 9.20829e-20
7.32978e-08 -3.39916e-07 -7.46017e-21
-2.19483e-08 -4.78137e-09 1.59846e-20
5.75071e-08 1.15305e-07 -2.1062e-20
-3.06863e-08 -9.31162e-09 1.57819e-20
-3.24005e-08 -3.04336e-08 2.4908e-21
7.18462e-07 3.1631e-07 -1.69323e-20
-6.1828e-10 6.27458e-08 3.44317e-20
9.69688e-09 -4.18646e-08 8.43655e-20
1.62934e-08 -9.31403e-08 8.42795e-20
-6.46679e-09 -3.04959e-08 9.69192e-20
-7.45427e-08 -1.89438e-08 -3.92317e-20
-8.6774e-08 1.06173e-07 -9.85438e-20
2.32717e-08 -8.44959e-09 1.29838e-20
-9.55748e-09 -2.36923e-08 7.0043e-20
-2.49861e-08 -3.66258e-09 -2.70415e-21
-4.30102e-08 3.98471e-07 -6.26597e-20
-7.65592e-08 3.86698e-08 -5.77756e-20
-7.42754e-08 1.27044e-07 -7.44816e-21
-7.47112e-07 8.7817e-08 4.8912e-20
3.32736e-11 -5.9166e-08 8.01625e-21
-7.19253e-08 -6.02629e-08 -5.27339e-21
3.02871e-08 7.39064e-08 5.74806e-20
2.86341e-07 5.72451e-08 -5.84263e-20
4.10387e-07 -3.57069e-07 9.99764e-20
1.125e-08 2.75489e-08 -4.28521e-20
2.77597e-08 8.61527e-09 -9.6971e-20
-3.82385e-07 2.82905e-07 4.75506e-20
4.46353e-07 5.42661e-08 -2.27614e-20
-6.76537e-08 6.0498e-07 4.19739e-20
-2.34539e-08 -1.21247e-07 1.345e-20
8.23328e-08 5.79875e-08 -4.75914e-21
3.5617e-07 3.75609e-07 -8.37029e-20
6.45371e-09 2.87092e-09 9.65471e-20
-6.86459e-08 3.41837e-07 1.26404e-20
5.82962e-09 -3.1225e-09 3.47465e-22
-4.1218e-08 2.8111e-08 -4.7839e-20
8.89825e-08 3.62134e-08 9.95959e-20
-3.2915e-07 1.01755e-07 9.13054e-20
1.9104e-07 3.3569e-07 -6.74989e-20
1.18849e-07 -5.36599e-07 -7.45243e-21
2.79378e-08 7.32443e-08 9.95095e-20
-5.05506e-08 -3.00785e-08 -2.12871e-20
4.18858e-08 1.3396e-07 2.8679e-20
2.78503e-07 4.73924e-08 -5.60229e-20
-1.84878e-07 3.81948e-07 -1.51921e-20
4.91461e-07 -1.60624e-07 4.50598e-20
-2.72726e-08 5.95442e-08 3.68023e-20
5.22703e-08 5.30867e-08 -8.87061e-20
-3.10675e-08 -7.16693e-08 4.95178e-20
-1.24979e-08 -5.46058e-08 -5.63146e-21
1.44569e-07 1.73313e-08 3.14601e-20
-1.05447e-07 4.93248e-07 -1.73877e-20
-2.43882e-08 1.5046e-08 5.73885e-20
7.21102e-08 1.06864e-07 2.71137e-21
-3.56565e-08 -5.06173e-07 2.94334e-20
5.12055e-07 1.53746e-07 -2.22408e-20
3.48636e-08 -6.16074e-08 -1.51729e-20
-7.95952e-08 -9.10474e-09 9.42484e-20
-3.27505e-07 -1.31449e-07 -4.27182e-20
1.61954e-08 1.73225e-08 3.52472e-20
-5.20228e-07 -1.81936e-07 6.76878e-20
1.64416e-08 -1.72747e-08 3.24429e-20
-5.05858e-08 -3.55681e-07 3.06343e-20
2.19524e-07 8.33042e-09 1.84427e-20
-1.9553e-08 1.66841e-08 -5.0049e-21
5.24864e-09 2.39747e-08 1.80549e-20
1.46857e-08 -6.43104e-08 -7.0986e-20
2.55076e-08 -1.19284e-08 3.41045e-20
4.75321e-10 2.5836e-08 -3.19825e-20
2.23023e-08 -2.78445e-09 -2.67497e-21
4.16075e-08 -6.13829e-08 9.89863e-23
-1.06517e-07 -5.43275e-07 -2.71557e-20
2.81397e-07 -2.16622e-07 7.10185e-20
9.1054e-10 3.42832e-08 6.67028e-20
-2.37291e-08 -4.29189e-09 2.09411e-20
-7.72085e-09 -2.654e-08 -2.35619e-20
-1.95675e-08 -1.38127e-08 -1.28073e-20
-2.63069e-07 3.28736e-07 5.55675e-20
-3.02204e-10 -2.61105e-08 -1.6391e-20
-3.29061e-07 5.16678e-07 7.7624e-21
-1.23673e-07 5.68746e-08 2.10006e-20
1.73907e-08 1.87536e-08 8.16749e-20
-2.24797e-08 -1.31443e-08 6.16286e-20
1.60446e-07 3.87232e-07 1.51913e-20
9.2577e-08 8.25084e-08 -3.90196e-20
2.24702e-07 -7.41036e-08 3.36958e-20
1.26455e-08 -6.91423e-08 -1.04368e-19
-4.077e-07 -3.75689e-07 -5.19361e-21
-3.93127e-08 6.79398e-08 5.23376e-20
1.02081e-07 5.44518e-08 -4.96181e-20
1.49271e-07 -5.13902e-08 -2.56944e-20
6.44638e-08 -1.28777e-07 8.08462e-21
2.55543e-07 -1.17834e-07 1.288e-20
1.70022e-07 -8.02523e-08 9.32316e-20
1.70869e-08 -1.41624e-08 -1.2778e-20
2.96408e-07 2.34455e-07 -8.02997e-20
-4.29085e-08 -1.24085e-07 2.77907e-21
-5.27008e-08 -4.50896e-08 2.09655e-20
-8.61591e-09 -2.26166e-08 3.15474e-20
1.1837e-08 8.85347e-08 6.30345e-20
-3.96452e-07 2.84238e-08 -5.81091e-20
-1.4483e-07 -3.7845e-07 -9.31296e-20
-6.23742e-08 7.95064e-08 3.6547e-20
1.22654e-07 1.63463e-07 -6.45641e-20
3.05089e-07 -2.16389e-07 4.29262e-20
-4.45998e-07 -2.38455e-07 -2.95038e-20
1.98413e-07 -3.22999e-07 -3.25216e-20
2.58363e-07 -3.17806e-07 7.84111e-21
-7.6096e-08 7.53741e-09 1.04973e-19
-2.2681e-07 -3.28213e-07 -7.29573e-21
-3.97022e-07 -6.22245e-08 -5.09464e-21
-4.73161e-08 -3.62314e-07 -3.74075e-20
1.76617e-07 -3.65052e-07 2.59345e-21
3.69368e-09 -5.01855e-08 3.99253e-20
5.24842e-08 3.49529e-07 5.1393e-21
-1.86974e-07 -3.27089e-07 -7.33057e-21
-1.75399e-08 -8.02617e-08 8.96717e-20
-2.70285e-07 2.02347e-07 7.6458e-20
-5.29545e-08 -1.736e-08 2.64599e-20
-4.12557e-08 -2.83534e-08 2.62736e-20
1.07879e-07 -5.53244e-08 -3.10724e-20
-1.48449e-08 2.10181e-08 -9.28352e-20
5.73395e-08 -7.23755e-08 -2.45584e-21
-3.36323e-07 -1.49572e-07 4.31999e-20
-4.45524e-08 -6.00046e-08 5.49592e-20
4.65624e-08 6.36554e-08 4.18703e-20
2.43194e-07 3.35695e-07 -3.76001e-20
-8.60858e-08 -3.96974e-08 6.06085e-20
-3.74118e-07 -8.41737e-09 -9.60854e-21
-4.7956e-08 -4.44762e-08 4.21247e-20
-2.72938e-09 -6.44142e-08 2.64326e-20
4.69749e-08 2.36924e-08 5.83639e-20
-5.41756e-08 5.34015e-08 6.55637e-20
-9.04814e-09 -9.48223e-08 2.64542e-20
-4.99411e-07 1.23017e-07 -5.49992e-20
2.73768e-07 2.3355e-07 -1.51168e-20
3.65803e-08 3.80372e-07 -5.27173e-21
-2.20565e-08 7.58285e-09 1.09959e-19
-7.35827e-08 2.2865e-09 1.57369e-20
3.37819e-08 6.44973e-08 2.34225e-20
-2.67425e-08 -6.56692e-09 -5.52485e-20
3.16464e-09 -2.27995e-08 -8.06719e-20
-1.47149e-08 1.0037e-07 2.12076e-20
1.63057e-08 1.71811e-08 -5.77098e-20
-1.85865e-07 4.10857e-08 -3.29222e-20
-1.88498e-07 2.05673e-07 -4.18536e-22
-2.03514e-08 1.88843e-08 4.23128e-20
-3.41012e-07 2.05806e-07 1.08119e-19
-8.75483e-09 2.90609e-08 5.28255e-20
9.20395e-08 -3.29704e-08 -2.10044e-20
4.27471e-07 -3.93277e-08 -7.39748e-23
-5.35882e-08 3.39081e-08 -3.43854e-20
2.16717e-08 9.99067e-09 7.05611e-20
5.57757e-08 -3.49036e-08 6.6439e-20
-9.56874e-08 3.18922e-08 -4.45586e-20
-6.96371e-08 1.82557e-08 8.14791e-20
2.44876e-08 -7.15378e-09 7.94762e-20
2.26469e-07 -1.37729e-07 -4.85691e-21
-8.91304e-08 5.68298e-08 1.05081e-20
-2.66246e-07 -5.55203e-08 -4.57526e-20
-5.65889e-08 -2.97954e-08 1.81805e-20
2.16461e-08 -1.43709e-08 4.50754e-20
2.39782e-08 1.68465e-08 -1.1759e-19
-6.05277e-09 2.72607e-08 5.37349e-21
-2.45651e-09 -3.07579e-08 -5.00161e-21
-2.49597e-08 1.27582e-08 1.07239e-20
-2.7934e-08 -1.43103e-08 -1.06704e-20
6.99784e-08 -2.64477e-08 -5.00959e-21
-2.5606e-08 -7.04296e-09 -1.60331e-20
-2.55516e-08 6.78395e-09 -3.18873e-20
-6.29725e-09 2.53867e-08 3.75049e-20
-6.83664e-09 -2.59431e-08 2.39023e-20
1.6885e-08 -1.89058e-08 -8.55513e-20
1.62332e-08 1.80942e-08 8.81787e-20
9.79637e-09 2.70268e-07 4.37404e-20
5.24405e-08 -4.32583e-08 3.69018e-20
1.22392e-08 -2.30821e-08 -4.93298e-20
-2.03828e-07 7.53374e-09 -1.50639e-20
1.93546e-08 -1.83742e-08 5.31418e-20
1.80706e-08 1.866e-08 1.40452e-19
2.77239e-08 -6.0324e-10 -5.47955e-21
9.35633e-08 2.64848e-07 -9.84644e-21
-1.40271e-08 -2.29394e-08 1.62109e-20
3.03314e-08 -6.94219e-08 -1.04174e-19
-2.27461e-07 -1.25848e-07 -2.74936e-20
-4.99861e-08 -3.24481e-08 9.52855e-20
-2.28291e-07 1.35397e-07 2.52964e-20
2.02467e-08 -2.07584e-08 5.30777e-20
-9.70391e-09 2.15683e-08 3.14672e-20
-5.33884e-09 -2.61714e-07 1.29006e-20
-8.56819e-08 -2.59208e-07 -4.7259e-21
3.9283e-07 3.7388e-07 -6.96917e-20
4.20185e-07 -2.38611e-08 4.9462e-21
-2.98078e-08 6.49216e-09 2.08635e-20
-2.8102e-07 -4.96602e-07 -3.5051e-20
6.7009e-08 1.14894e-07 1.55166e-20
-2.69381e-07 3.17274e-08 1.03636e-20
1.93392e-07 5.40776e-08 -1.78682e-20
-2.64257e-08 -1.06886e-10 2.62949e-20
5.74125e-10 -2.74675e-08 -8.61958e-20
-2.40031e-09 -1.87898e-08 4.38827e-20
-2.34249e-08 -1.39372e-08 -3.1037e-20
-5.82669e-07 -2.20803e-08 -5.715e-20
1.83135e-07 -2.07126e-07 7.14089e-20
1.24536e-08 2.41564e-08 1.04208e-20
6.36643e-09 -1.15647e-07 -1.27484e-20
-1.09237e-07 2.58696e-07 -8.8761e-20
2.23875e-09 2.90637e-08 6.81515e-20
1.95418e-07 -1.39835e-07 6.95484e-20
-1.71915e-08 -7.51683e-09 -3.15724e-21
-1.66176e-07 -2.15981e-07 2.84833e-20
2.28987e-08 1.16534e-08 7.83915e-20
5.41907e-08 5.23881e-08 -1.46718e-19
-3.8555e-08 -6.00604e-08 -3.36563e-20
2.37252e-08 -7.67084e-09 1.01031e-19
8.02992e-08 -5.60578e-08 -3.41561e-20
-4.76974e-09 4.47762e-08 4.09071e-22
6.60577e-08 -1.11336e-07 1.12197e-20
6.03176e-07 3.03917e-08 -1.74145e-20
-5.10999e-07 1.352e-07 -3.42079e-20
4.27965e-08 2.98224e-08 5.06584e-20
-6.33104e-08 -1.52425e-07 7.29265e-20
-9.62373e-08 -6.27824e-08 -4.15092e-20
3.13232e-07 -3.14817e-09 9.95916e-20
2.67833e-09 -5.97717e-08 6.09537e-20
-7.82851e-08 -2.7642e-08 -7.6679e-21
1.0675e-07 -2.5505e-07 -7.13589e-20
8.51076e-09 1.02747e-07 2.40817e-20
8.7614e-08 2.71703e-07 1.81642e-20
1.05155e-07 -5.54151e-08 7.96396e-21
-1.9181e-07 2.04163e-07 6.12962e-20
1.76376e-07 2.17944e-07 4.5948e-20
-1.10962e-08 4.96134e-09 1.35976e-20
1.82555e-09 4.73489e-08 -5.2909e-20
3.57405e-09 -2.14857e-08 -1.882e-20
-1.70082e-08 -1.41096e-08 -1.06924e-20
-5.85801e-08 4.64476e-08 8.3623e-20
-2.68741e-07 -6.36727e-08 -1.50455e-20
9.40134e-10 3.02083e-08 3.28245e-22
-7.02886e-08 2.09831e-08 5.57307e-20
1.90413e-07 -2.76055e-08 -7.44688e-21
-8.14238e-08 -2.63675e-07 -2.03343e-20
-1.6037e-07 2.55401e-07 -1.60051e-22
-4.5287e-08 2.09318e-08 -5.04861e-20
-2.14932e-07 -1.5208e-07 3.56402e-22
4.86561e-08 -2.28208e-08 4.51034e-20
-2.91428e-07 -1.42701e-08 2.84548e-20
1.42662e-07 -5.03403e-07 -3.17553e-20
1.94925e-07 -2.04693e-07 1.26852e-20
2.98048e-07 5.28437e-07 -7.46273e-20
-2.79205e-09 6.38775e-08 2.63639e-20
2.55851e-08 -2.65494e-07 -9.96045e-21
-1.03695e-08 6.28063e-09 -3.26008e-20
-1.38176e-07 -2.57836e-07 -2.18532e-21
4.63663e-08 -3.96813e-08 4.23908e-20
-2.66573e-08 2.68557e-07 4.10951e-20
6.47231e-08 -1.90001e-08 7.13228e-20
1.47273e-07 2.62457e-07 -3.56987e-20
1.47508e-07 -3.44429e-09 -4.10705e-20
2.69221e-07 -7.94354e-07 -8.58252e-20
-5.70486e-08 -1.06207e-07 -5.66988e-20
-2.37917e-07 1.03666e-07 -3.29887e-20
-3.33401e-08 1.6383e-08 -2.86492e-20
2.2586e-07 1.51255e-07 -8.17953e-20
1.60989e-07 -8.8879e-08 1.07218e-20
8.51027e-08 3.73897e-08 -7.90393e-21
-1.74054e-08 1.47073e-08 9.9528e-20
1.61473e-07 -2.49451e-07 -1.01867e-20
-1.72147e-07 -2.14823e-07 2.86664e-20
2.22112e-07 8.76111e-08 -5.07771e-21
5.65066e-08 -3.49266e-08 2.41775e-20
1.03837e-07 -2.58082e-07 1.51036e-20
1.22028e-07 -2.31329e-08 -4.43196e-20
-1.18418e-07 -4.72448e-08 -4.42161e-20
-5.14925e-09 -4.807e-08 8.26336e-20
-2.71428e-07 3.76916e-08 3.62311e-22
2.85179e-08 2.3811e-07 5.92161e-20
1.8569e-07 4.33312e-08 -4.85059e-21
-2.1093e-07 -9.44108e-08 -9.2312e-20
-1.03717e-07 2.65945e-07 -1.12409e-19
-2.37064e-08 -2.31983e-07 8.05897e-21
6.13344e-08 2.9935e-08 -1.83461e-20
-3.98084e-08 1.12198e-07 6.79352e-20
-1.8968e-07 1.36041e-07 -6.13762e-20
2.436e-07 1.22872e-07 -2.75016e-20
-1.10903e-07 -3.48405e-08 4.19512e-20
-2.6892e-08 -1.14206e-07 8.30886e-21
1.86156e-07 2.16391e-07 -5.64054e-20
-4.37661e-08 -1.98529e-08 1.04113e-19
6.12094e-07 -4.40125e-07 -7.21231e-21
1.29632e-07 -9.06945e-08 5.31323e-21
1.05856e-07 5.18743e-07 2.99478e-20
1.3669e-07 -1.3141e-07 -9.98249e-21
-2.95506e-07 1.12537e-06 7.19125e-21
-2.97218e-07 -1.11441e-06 1.82557e-20
7.30235e-07 9.59858e-07 -8.52068e-20
7.21177e-07 -9.596e-07 2.76854e-20
1.19535e-06 -4.66149e-10 -2.28334e-20
-1.03044e-06 4.14566e-07 2.30993e-20
-1.01336e-06 -4.19074e-07 3.23733e-20
4.92854e-08 2.67368e-08 5.27467e-20
3.16247e-08 1.53556e-08 2.71627e-20
9.1856e-08 1.23704e-08 -1.03533e-20
1.62166e-07 8.66666e-08 2.88568e-21
4.81044e-08 1.91615e-07 1.80647e-20
-1.73852e-07 -1.49364e-07 -9.74364e-20
8.75543e-08 -8.07097e-08 -2.35599e-20
1.86803e-07 1.49917e-07 -8.20166e-20
-4.32002e-08 2.3584e-07 1.55125e-20
3.06726e-08 -1.50657e-08 3.5229e-20
4.39665e-08 -2.26323e-07 1.29945e-20
5.74505e-08 3.87371e-08 -1.83592e-20
3.36922e-07 1.18028e-07 -3.73877e-20
7.55548e-09 2.42566e-08 2.37144e-20
1.30222e-07 4.26225e-08 5.4045e-21
-1.61169e-07 8.91524e-08 -2.53238e-20
-2.20662e-07 7.63363e-08 3.61895e-20
4.36936e-08 -2.99345e-08 2.93331e-20
-1.40886e-07 -6.51949e-08 -1.26452e-20
-1.54795e-07 -9.16881e-08 -6.43686e-20
-1.35684e-08 -1.55394e-07 4.43456e-20
6.12199e-10 -1.78471e-07 7.2532e-20
-1.96495e-07 -8.49406e-09 -4.33807e-20
2.91637e-07 -4.52811e-08 -1.50331e-20
1.57337e-07 9.69663e-08 -1.23961e-19
-1.30198e-07 8.88175e-08 2.8813e-20
-5.87085e-08 2.87398e-08 1.08781e-20
1.4685e-07 -1.31582e-07 -2.23756e-21
-1.10335e-07 1.71796e-07 -3.60533e-20
-1.35915e-07 -1.43171e-07 3.40881e-20
-1.28802e-08 1.87131e-07 2.34475e-20
-2.79971e-08 1.5794e-07 1.06166e-20
4.61517e-09 -1.14665e-07 -2.85855e-20
5.91541e-08 -1.91191e-07 -7.44508e-21
-9.66896e-08 -6.20503e-08 -2.08523e-20
1.33959e-07 -3.82032e-08 -5.14723e-20
3.28009e-10 1.869e-07 -6.71154e-20
-4.04282e-09 1.19423e-07 1.58062e-20
-3.00125e-08 1.34331e-07 -1.00381e-20
2.19852e-07 -5.41053e-08 6.4732e-20
-4.61766e-08 4.40854e-08 1.41693e-19
4.98311e-08 1.87052e-07 -2.65309e-21
-3.01177e-08 1.90093e-08 1.06831e-20
1.1103e-07 5.14842e-07 -1.99282e-20
-5.4468e-08 2.94026e-08 3.95601e-20
5.77901e-08 -3.00822e-08 -1.58629e-20
1.66221e-08 1.58947e-07 -7.79649e-21
-1.86407e-07 4.42787e-08 -2.54651e-20
-5.7301e-09 -8.08084e-08 3.69802e-20
7.69037e-09 -7.34496e-07 4.11788e-20
2.23128e-08 1.34747e-07 3.34538e-20
-1.39257e-07 1.3248e-07 -4.12437e-20
2.16245e-07 8.04271e-07 -1.23256e-20
1.03876e-08 6.8404e-09 8.21414e-20
8.97485e-09 -6.52386e-09 4.93816e-20
1.04841e-07 -8.1757e-08 -2.48302e-21
-1.48815e-07 1.33243e-07 -4.63349e-20
-1.78624e-07 -5.27652e-08 -4.87607e-21
-1.83556e-07 -6.0286e-08 -3.10502e-20
-3.6553e-09 2.24957e-09 -4.08832e-20
-2.52463e-09 -1.21537e-09 -2.45888e-21
8.57414e-08 1.74221e-08 -1.31566e-20
2.72122e-08 1.25139e-07 -1.81648e-20
-3.14507e-09 1.24428e-07 1.35917e-20
-6.15199e-07 -4.46881e-07 -5.75548e-20
1.09205e-07 -1.71762e-07 3.63073e-20
5.52413e-08 1.98984e-08 3.67522e-20
-2.02595e-07 -2.17945e-08 -1.029e-20
-1.281e-07 1.69237e-07 -2.59098e-20
-1.65376e-07 7.77612e-08 2.87173e-20
6.0398e-07 4.3397e-07 -7.48967e-20
5.97746e-08 3.92915e-08 -4.69691e-20
-5.87908e-08 1.91881e-07 -1.23303e-19
-1.15897e-07 -9.92698e-08 -1.0083e-19
2.88305e-08 -1.51163e-07 3.14898e-20
-9.37809e-08 -1.78429e-07 6.48192e-20
-1.50279e-07 -1.03006e-07 -4.6217e-20
1.02997e-07 -1.82662e-07 1.57817e-20
1.2355e-07 -1.6979e-07 5.70563e-21
-3.91577e-08 -7.66457e-07 2.46003e-20
3.15131e-07 -5.04063e-07 -6.21669e-20
1.50551e-08 -1.83503e-07 6.99662e-20
1.29406e-07 9.85124e-08 -7.60291e-21
-1.16241e-07 -1.41101e-07 -6.14777e-20
-1.00814e-07 1.8795e-07 -1.16087e-19
-6.19373e-08 1.84213e-07 -5.16205e-20
1.3493e-07 1.3972e-07 -1.21681e-19
6.61497e-08 -1.72303e-07 1.34341e-20
-1.71028e-07 -4.87649e-07 -1.03727e-19
3.85482e-09 5.92586e-08 2.13036e-20
1.36602e-07 1.40563e-07 -1.56937e-19
-7.3641e-08 -3.62636e-08 -4.20095e-20
-6.11906e-08 3.34046e-08 -1.31446e-20
5.47579e-07 -2.39885e-07 1.50655e-20
6.80117e-08 -1.12403e-07 -7.32114e-21
-6.45528e-08 -1.10434e-07 3.1669e-20
2.45016e-08 -2.11876e-09 2.68931e-20
2.11411e-09 -9.28599e-09 2.76119e-20
-6.86998e-09 -6.79445e-09 -3.85788e-20
3.01679e-08 1.97772e-08 2.72733e-20
-9.45703e-08 -1.78522e-07 3.02178e-21
1.45527e-07 5.83628e-08 -5.44225e-20
-3.54115e-07 -3.89305e-07 -7.23327e-21
1.33641e-09 1.14141e-08 5.70664e-21
1.3216e-09 2.04029e-09 3.34182e-20
2.55222e-09 -3.35276e-10 -1.02392e-19
3.39808e-07 -6.71043e-07 -3.59825e-20
-1.41254e-08 1.6637e-08 -7.50513e-20
-3.23971e-09 2.01551e-08 -1.1885e-19
-1.46325e-07 5.20159e-08 -1.55301e-20
-5.05639e-09 5.94376e-08 1.59812e-20
-3.2148e-08 9.53191e-08 1.34079e-20
6.62698e-08 2.82602e-09 1.56019e-20
1.49466e-08 5.73021e-08 3.42656e-20
-3.9176e-09 7.9237e-08 1.86777e-20
1.13578e-07 6.17924e-08 8.1054e-20
8.09181e-09 7.31067e-07 -2.27226e-21
-1.05672e-07 9.9989e-08 -7.5502e-20
7.9235e-08 -5.32745e-08 8.04985e-21
4.57439e-08 -4.17672e-08 9.50212e-20
-7.49824e-07 -1.02953e-07 -9.41535e-21
-2.1373e-08 8.47227e-09 -1.36504e-20
-5.45987e-07 -6.45852e-07 3.44093e-20
9.9216e-09 2.65697e-08 1.15512e-19
9.577e-08 1.86223e-08 1.0592e-20
2.85121e-07 -3.70039e-08 1.33168e-19
-6.51795e-08 -1.07105e-07 1.32084e-20
1.24622e-07 3.57438e-08 3.6709e-20
6.48877e-10 -3.1717e-08 2.27091e-21
-7.02856e-08 8.13188e-08 -2.61345e-20
-2.68795e-08 -1.70996e-08 -4.01715e-20
-6.33507e-08 1.28703e-07 -3.86986e-20
1.14611e-08 8.12343e-08 -2.60666e-20
1.8626e-08 1.36523e-08 -1.0567e-20
1.84849e-08 -1.31151e-08 2.72922e-20
-5.08314e-07 -1.38474e-07 -4.88635e-20
5.59996e-08 2.08964e-08 -1.06968e-20
-6.74204e-08 1.30492e-06 -5.53824e-20
-4.68969e-09 -1.34067e-06 -1.1621e-20
6.599e-07 1.12967e-06 -1.17215e-20
-6.84906e-08 5.43344e-08 1.0538e-20
-3.49674e-07 7.03711e-07 9.66813e-21
6.63691e-07 -1.09034e-06 -9.63414e-21
-1.09751e-07 -1.77632e-07 -2.01957e-20
1.00784e-06 8.831e-07 -7.19215e-20
1.18498e-08 -2.10173e-08 -4.05332e-20
-1.23472e-08 -2.12965e-08 -8.58221e-20
1.05646e-06 -8.63438e-07 -2.88036e-20
-6.47399e-08 1.27317e-07 -8.02798e-20
-6.63626e-07 -4.22644e-07 -1.4087e-20
-5.59612e-07 -1.16639e-06 9.14144e-20
-3.13436e-07 -7.21067e-07 -7.37999e-20
-5.75295e-07 1.1858e-06 -5.52635e-20
-1.35955e-07 8.03579e-07 3.88826e-20
-9.58316e-10 2.81425e-08 8.16266e-21
-3.49073e-07 4.49422e-07 1.08444e-19
-3.34197e-07 -6.84e-07 1.94007e-20
1.29955e-06 2.26778e-07 -1.08074e-19
-1.01624e-07 8.63963e-08 -8.0712e-20
-2.38774e-09 5.70819e-08 -5.31721e-21
-6.28614e-07 4.55074e-07 6.84365e-20
-1.12702e-07 6.0151e-08 1.31401e-20
1.28675e-06 -2.0171e-07 1.68411e-20
-8.60179e-08 5.77422e-08 -3.65429e-20
6.26589e-08 -1.29586e-07 4.19806e-20
-1.00135e-06 -7.60538e-07 5.77853e-20
-3.37649e-07 7.23463e-07 5.01057e-21
-1.02562e-06 7.54952e-07 5.79659e-20
2.99672e-07 6.68541e-07 9.95806e-21
-1.10329e-07 8.7703e-08 -4.41725e-20
-3.06176e-08 1.73408e-08 -2.11455e-20
-1.67721e-09 -2.66674e-09 -2.45253e-21
4.24043e-10 -2.30145e-09 2.19726e-20
8.38771e-09 8.80736e-08 -1.02032e-20
-2.45987e-09 2.67093e-09 2.8158e-20
1.30072e-09 3.30471e-09 -2.95501e-21
2.22198e-09 -9.54815e-10 -2.48289e-20
-1.31254e-09 1.04339e-08 -4.10652e-20
-2.30588e-07 5.03091e-07 6.63987e-20
-1.73458e-08 1.24506e-08 -5.38449e-20
2.98946e-08 -1.88337e-08 4.26917e-20
2.9303e-08 -1.69748e-08 -3.75881e-20
8.44143e-08 3.29432e-08 -1.59752e-20
-7.94874e-10 -8.93005e-09 6.29027e-20
-7.97342e-09 -4.04178e-09 -1.39855e-20
2.92857e-08 1.70837e-08 -1.8662e-20
7.45193e-07 -1.4362e-07 -2.39985e-20
-9.65531e-08 -1.23071e-07 -2.17675e-21
-6.52428e-07 4.54857e-07 5.12272e-20
-5.84146e-07 6.6625e-07 2.98648e-20
7.87405e-07 -2.84362e-07 -8.56842e-20
-3.7787e-09 -1.0962e-08 4.13065e-20
-4.14969e-09 1.12603e-08 -4.86232e-20
-1.23753e-08 2.12484e-09 5.98461e-20
-8.11465e-09 8.27696e-09 -2.97333e-20
-1.12182e-08 -2.37674e-09 1.33742e-20
2.07733e-09 2.63668e-09 -2.18027e-21
1.20412e-08 -2.96258e-09 2.42853e-20
5.07718e-09 -3.57024e-09 -2.15113e-20
-3.55317e-09 -2.56262e-09 -2.45341e-20
7.70067e-09 -7.9188e-09 2.75082e-20
7.74339e-09 8.15459e-09 3.79829e-20
-3.57484e-09 2.25258e-09 -1.38936e-20
3.91801e-09 -7.84035e-10 6.08492e-21
6.49793e-09 3.59956e-09 9.61179e-20
1.40718e-08 5.02218e-09 4.69151e-20
SCALARS rr_necrosis float
LOOKUP_TABLE default
0
0
0
0
0
0
0
0
0
0
0
0
0
0
0
0
0
0
0
0
0
0
0
0
0
0
0
0
0
0
0
0
0
0
0
0
0
0
0
0
0
0
0
0
0
0
0
0
0
0
0
0
0
0
0
0
0
0
0
0
0
0
0
0
0
0
0
0
0
0
0
0
0
0
0
0
0
0
0
0
0
0
0
0
0
0
0
0
0
0
0
0
0
0
0
0
0
0
0
0
0
0
0
0
0
0
0
0
0
0
0
0
0
0
0
0
0
0
0
0
0
0
0
0
0
0
0
0
0
0
0
0
0
0
0
0
0
0
0
0
0
0
0
0
0
0
0
0
0
0
0
0
0
0
0
0
0
0
0
0
0
0
0
0
0
0
0
0
0
0
0
0
0
0
0
0
0
0
0
0
0
0
0
0
0
0
0
0
0
0
0
0
0
0
0
0
0
0
0
0
0
0
0
0
0
0
0
0
0
0
0
0
0
0
0
0
0
0
0
0
0
0
0
0
0
0
0
0
0
0
0
0
0
0
0
0
0
0
0
0
0
0
0
0
0
0
0
0
0
0
0
0
0
0
0
0
0
0
0
0
0
0
0
0
0
0
0
0
0
0
0
0
0
0
0
0
0
0
0
0
0
0
0
0
0
0
0
0
0
0
0
0
0
0
0
0
0
0
0
0
0
0
0
0
0
0
0
0
0
0
0
0
0
0
0
0
0
0
0
0
0
0
0
0
0
0
0
0
0
0
0
0
0
0
0
0
0
0
0
0
0
0
0
0
0
0
0
0
0
0
0
0
0
0
0
0
0
0
0
0
0
0
0
0
0
0
0
0
0
0
0
0
0
0
0
0
0
0
0
0
0
0
0
0
0
0
0
0
0
0
0
0
0
0
0
0
0
0
0
0
0
0
0
0
0
0
0
0
0
0
0
0
0
0
0
0
0
0
0
0
0
0
0
0
0
0
0
0
0
0
0
0
0
0
0
0
0
0
0
0
0
0
0
0
0
0
0
0
0
0
0
0
0
0
0
0
0
0
0
0
0
0
0
0
0
0
0
0
0
0
0
0
0
0
0
0
0
0
0
0
0
0
0
0
0
0
0
0
0
0
0
0
0
0
0
0
0
0
0
0
0
0
0
0
0
0
0
0
0
0
0
0
0
0
0
0
0
0
0
0
0
0
0
0
0
0
0
0
0
0
0
0
0
0
0
0
0
0
0
0
0
0
0
0
0
0
0
0
0
0
0
0
0
0
0
0
0
0
0
0
0
0
0
SCALARS rr_protein float
LOOKUP_TABLE default
1
1
1
1
1
1
1
1
1
1
1
1
1
1
1
1
1
1
1
1
1
1
1
1
1
1
1
1
1
1
1
1
1
1
1
1
1
1
1
1
1
1
1
1
1
1
1
1
1
1
1
1
1
1
1
1
1
1
1
1
1
1
1
1
1
1
1
1
1
1
1
1
1
1
1
1
1
1
1
1
1
1
1
1
1
1
1
1
1
1
1
1
1
1
1
1
1
1
1
1
1
1
1
1
1
1
1
1
1
1
1
1
1
1
1
1
1
1
1
1
1
1
1
1
1
1
1
1
1
1
1
1
1
1
1
1
1
1
1
1
1
1
1
1
1
1
1
1
1
1
1
1
1
1
1
1
1
1
1
1
1
1
1
1
1
1
1
1
1
1
1
1
1
1
1
1
1
1
1
1
1
1
1
1
1
1
1
1
1
1
1
1
1
1
1
1
1
1
1
1
1
1
1
1
1
1
1
1
1
1
1
1
1
1
1
1
1
1
1
1
1
1
1
1
1
1
1
1
1
1
1
1
1
1
1
1
1
1
1
1
1
1
1
1
1
1
1
1
1
1
1
1
1
1
1
1
1
1
1
1
1
1
1
1
1
1
1
1
1
1
1
1
1
1
1
1
1
1
1
1
1
1
1
1
1
1
1
1
1
1
1
1
1
1
1
1
1
1
1
1
1
1
1
1
1
1
1
1
1
1
1
1
1
1
1
1
1
1
1
1
1
1
1
1
1
1
1
1
1
1
1
1
1
1
1
1
1
1
1
1
1
1
1
1
1
1
1
1
1
1
1
1
1
1
1
1
1
1
1
1
1
1
1
1
1
1
1
1
1
1
1
1
1
1
1
1
1
1
1
1
1
1
1
1
1
1
1
1
1
1
1
1
1
1
1
1
1
1
1
1
1
1
1
1
1
1
1
1
1
1
1
1
1
1
1
1
1
1
1
1
1
1
1
1
1
1
1
1
1
1
1
1
1
1
1
1
1
1
1
1
1
1
1
1
1
1
1
1
1
1
1
1
1
1
1
1
1
1
1
1
1
1
1
1
1
1
1
1
1
1
1
1
1
1
1
1
1
1
1
1
1
1
1
1
1
1
1
1
1
1
1
1
1
1
1
1
1
1
1
1
1
1
1
1
1
1
1
1
1
1
1
1
1
1
1
1
1
1
1
1
1
1
1
1
1
1
1
1
1
1
1
1
1
1
1
1
1
1
1
1
1
1
1
1
1
1
1
1
1
1
1
1
1
1
1
1
1
1
1
1
1
1
1
SCALARS rr_(S_ext) float
LOOKUP_TABLE default
0.979635
0.979594
0.979601
0.979592
0.9796
0.979601
0.979635
0.979601
0.979606
0.979597
0.979605
0.979601
0.979602
0.979598
0.979595
0.979602
0.979595
0.979597
0.979603
0.979601
0.979605
0.979595
0.979601
0.979601
0.979601
0.979596
0.979617
0.979601
0.97961
0.979594
0.979602
0.979609
0.97962
0.979595
0.979598
0.979594
0.979592
0.979599
0.979602
0.97962
0.979609
0.979592
0.979591
0.979602
0.979609
0.979611
0.979604
0.979605
0.979601
0.979609
0.97961
0.97961
0.979596
0.979611
0.979597
0.979619
0.979598
0.97961
0.979598
0.9796
0.979593
0.979598
0.979623
0.979599
0.979597
0.9796
0.979593
0.979597
0.979601
0.979593
0.979597
0.979597
0.979611
0.9796
0.979602
0.979617
0.979599
0.9796
0.979596
0.979606
0.979615
0.9796
0.979595
0.979613
0.979613
0.979614
0.9796
0.979601
0.979609
0.979596
0.97961
0.979596
0.979597
0.9796
0.979611
0.979608
0.979617
0.979596
0.9796
0.979602
0.979608
0.979614
0.979612
0.979595
0.979597
0.979596
0.979596
0.979603
0.979613
0.97959
0.9796
0.97961
0.979611
0.979596
0.979596
0.979612
0.9796
0.979619
0.979601
0.979611
0.979604
0.979594
0.979592
0.979597
0.979591
0.979594
0.979599
0.979596
0.979617
0.97961
0.979594
0.979593
0.979594
0.979592
0.979615
0.979597
0.97962
0.979602
0.979594
0.979597
0.979613
0.979602
0.979606
0.979597
0.979619
0.979596
0.979601
0.979603
0.979601
0.979607
0.979604
0.979592
0.979608
0.979602
0.979596
0.979592
0.979599
0.979615
0.979614
0.979598
0.979605
0.979608
0.979612
0.979608
0.979613
0.979596
0.979614
0.979615
0.979609
0.979613
0.979597
0.97961
0.979609
0.979599
0.979611
0.979596
0.979597
0.979601
0.979598
0.979599
0.979611
0.979596
0.979596
0.979613
0.9796
0.979609
0.979597
0.979598
0.979599
0.979596
0.9796
0.979617
0.97961
0.979609
0.979593
0.979596
0.979596
0.979594
0.979592
0.9796
0.979592
0.979604
0.979607
0.979594
0.979612
0.979595
0.979601
0.979613
0.979598
0.979593
0.9796
0.9796
0.979597
0.979595
0.979606
0.979601
0.979607
0.979598
0.97959
0.97959
0.979589
0.97959
0.97959
0.97959
0.979598
0.979594
0.979593
0.979593
0.979594
0.979598
0.979597
0.979607
0.979597
0.979589
0.979606
0.979595
0.979595
0.979589
0.979606
0.979588
0.979596
0.979608
0.979597
0.979608
0.979596
0.979587
0.979607
0.979607
0.979616
0.979608
0.979595
0.979619
0.979601
0.979607
0.979603
0.979588
0.97959
0.979594
0.97959
0.979622
0.979606
0.979588
0.9796
0.979607
0.97959
0.979607
0.979594
0.979607
0.97959
0.979598
0.979596
0.979595
0.979601
0.979598
0.9796
0.979614
0.979614
0.9796
0.979603
0.979601
0.97961
0.979597
0.979599
0.979606
0.9796
0.979609
0.979602
0.979609
0.979606
0.979594
0.979597
0.979593
0.979593
0.979597
0.97961
0.979595
0.979598
0.979605
0.979609
0.97961
0.979598
0.979607
0.979599
0.979611
0.979609
0.979609
0.979619
0.979597
0.979607
0.979594
0.97961
0.979597
0.979607
0.979598
0.979609
0.979602
0.979627
0.979599
0.979608
0.979596
0.979606
0.979604
0.979601
0.979593
0.979609
0.979609
0.979606
0.979599
0.979609
0.979602
0.979601
0.979599
0.97961
0.979607
0.979605
0.979607
0.979609
0.979607
0.979599
0.9796
0.979607
0.979607
0.979601
0.979601
0.979608
0.979599
0.979607
0.979604
0.979616
0.979605
0.979585
0.979585
0.979584
0.979584
0.979581
0.97959
0.97959
0.979598
0.979597
0.979598
0.979604
0.979603
0.979607
0.979602
0.979606
0.979607
0.979597
0.979607
0.9796
0.97961
0.979593
0.979601
0.979604
0.979607
0.9796
0.979604
0.979604
0.979603
0.979604
0.979604
0.979607
0.979604
0.979604
0.979599
0.979604
0.979604
0.979604
0.979604
0.979603
0.979601
0.979604
0.979601
0.979601
0.979604
0.979601
0.979601
0.979605
0.979597
0.979605
0.979596
0.979609
0.979598
0.979599
0.979603
0.979606
0.979599
0.979609
0.979601
0.979605
0.979627
0.979597
0.979598
0.979601
0.979604
0.979605
0.979604
0.9796
0.979599
0.979598
0.979601
0.979601
0.979613
0.979603
0.979597
0.979606
0.979606
0.979604
0.979605
0.979598
0.979604
0.979603
0.979603
0.979605
0.979604
0.979605
0.979606
0.979619
0.979619
0.979604
0.979603
0.979605
0.979606
0.979605
0.979605
0.979604
0.979611
0.979597
0.979603
0.979599
0.979598
0.979611
0.979601
0.9796
0.979599
0.97959
0.97959
0.979596
0.979604
0.979603
0.979611
0.97959
0.979595
0.979595
0.979606
0.979598
0.979593
0.979603
0.979599
0.979599
0.979596
0.979596
0.979599
0.979602
0.979608
0.979602
0.9796
0.979598
0.979617
0.979594
0.979631
0.979595
0.9796
0.979608
0.9796
0.979602
0.979595
0.9796
0.979595
0.979602
0.979599
0.979595
0.979596
0.979613
0.979596
0.979635
0.979638
0.979631
0.9796
0.979613
0.979629
0.979606
0.979632
0.9796
0.9796
0.979635
0.979601
0.979623
0.979638
0.979619
0.979638
0.97962
0.979598
0.979612
0.979612
0.979632
0.979602
0.979598
0.97962
0.979602
0.979627
0.9796
0.979602
0.979637
0.979618
0.979635
0.979605
0.979602
0.979598
0.979593
0.979592
0.979598
0.979593
0.979592
0.979593
0.979593
0.979612
0.979594
0.979598
0.979599
0.979599
0.979594
0.979594
0.979601
0.979604
0.979602
0.979613
0.979633
0.979625
0.97959
0.979589
0.97959
0.979591
0.979589
0.979595
0.979594
0.979595
0.979597
0.979593
0.979592
0.979597
0.979594
0.979594
0.979592
SCALARS rr_(P_ext) float
LOOKUP_TABLE default
0.020879
0.0207803
0.020789
0.0207819
0.0207554
0.0207891
0.0208793
0.0207832
0.0207972
0.0207806
0.0208725
0.0207832
0.0207852
0.0207794
0.0207645
0.0207875
0.0207758
0.0207843
0.0208016
0.0207914
0.0207928
0.0207214
0.0207926
0.0207913
0.0207916
0.0207827
0.0208588
0.0207878
0.0208286
0.0207414
0.0207856
0.0208283
0.0208602
0.0207473
0.0207444
0.0207474
0.0207403
0.0207456
0.0207857
0.0208599
0.0208288
0.0207399
0.02074
0.0207855
0.0208507
0.0208272
0.0207996
0.0207956
0.0207887
0.0208347
0.0208311
0.0208185
0.0207567
0.0208183
0.0207575
0.0208477
0.0207441
0.0208182
0.0207442
0.0207909
0.0207761
0.020768
0.0208525
0.0207685
0.0207678
0.0207759
0.0207758
0.0207826
0.020792
0.0207799
0.0207569
0.020757
0.0208288
0.0207728
0.0207886
0.0208644
0.0207627
0.020776
0.0207827
0.0208163
0.0208367
0.0207523
0.020772
0.0208395
0.0208257
0.0208496
0.0207879
0.0207743
0.0208506
0.0207262
0.0208184
0.0207263
0.0207621
0.020777
0.0208175
0.020832
0.0208365
0.0207808
0.0207628
0.0207861
0.0208073
0.0208234
0.0208396
0.0207834
0.0207817
0.0207814
0.0207708
0.0207869
0.0208398
0.0207788
0.0207908
0.0208475
0.0208431
0.0207839
0.0207819
0.020818
0.0207443
0.020837
0.0207445
0.0208176
0.0208038
0.0207656
0.0207803
0.0207741
0.0207781
0.0207636
0.0207477
0.0207808
0.0208365
0.0208175
0.0207569
0.0207809
0.0207725
0.0207806
0.0208232
0.0207441
0.020842
0.0207846
0.0207719
0.0207442
0.0208221
0.0207804
0.0208023
0.0207806
0.0208374
0.0207823
0.0207818
0.0207888
0.0207891
0.0208102
0.0207958
0.0207803
0.0208285
0.0207851
0.0207806
0.0207808
0.0207779
0.0208212
0.0208209
0.0207853
0.0207954
0.0208278
0.0208482
0.0208311
0.0208212
0.0207814
0.0208212
0.0208214
0.0208285
0.020821
0.0207618
0.0208182
0.0208313
0.020777
0.020818
0.0207712
0.0207619
0.0207833
0.0207564
0.0207813
0.0208284
0.0207809
0.020781
0.0208219
0.0207741
0.0208319
0.0207741
0.0207707
0.0207615
0.0207808
0.020774
0.0208355
0.0208181
0.0208284
0.0207807
0.0207847
0.0207841
0.0207726
0.0207804
0.0207762
0.0207802
0.0208004
0.0208156
0.0207727
0.0208283
0.020772
0.020776
0.0208239
0.0207668
0.0207801
0.0207659
0.0207788
0.0207819
0.0207719
0.0208099
0.020778
0.0208146
0.0207707
0.0207782
0.0207783
0.0207794
0.0207789
0.0207789
0.020779
0.02078
0.0207652
0.0207654
0.0207651
0.020765
0.0207573
0.0207573
0.0208106
0.0207797
0.0207828
0.0207961
0.0207645
0.0207641
0.0207825
0.0208153
0.0207832
0.0207808
0.0208095
0.0207666
0.0208099
0.0207716
0.0207835
0.0208093
0.0208141
0.0208369
0.0208362
0.0207719
0.0208388
0.0207863
0.0208147
0.020801
0.0207833
0.0207784
0.0207394
0.0207787
0.0208395
0.0208146
0.0207828
0.0207832
0.0208158
0.0207785
0.0208018
0.0207395
0.0208144
0.020778
0.0207746
0.0207842
0.0207647
0.0207746
0.0207568
0.0207853
0.0208461
0.0208497
0.0207595
0.0207925
0.0207832
0.0208099
0.0207665
0.0207771
0.0208145
0.0207768
0.0208069
0.0207814
0.0208069
0.0208151
0.0207319
0.0207609
0.0207642
0.0207644
0.02078
0.0208062
0.0207484
0.020775
0.0207951
0.0208058
0.0208089
0.0207596
0.0208096
0.0207621
0.0208079
0.0208504
0.0208063
0.0208379
0.0207705
0.0208095
0.0207319
0.0208079
0.0207727
0.0208106
0.0207737
0.0208081
0.0207879
0.0208541
0.0207898
0.0208098
0.0207599
0.0208103
0.0207951
0.0207736
0.0207799
0.020808
0.0208063
0.0208021
0.0207706
0.0208064
0.0207832
0.0207878
0.020757
0.0208063
0.0208026
0.0207936
0.0208015
0.0208073
0.0208013
0.0207677
0.0207835
0.0208022
0.0208099
0.0207807
0.0207805
0.0208068
0.0207571
0.020876
0.0207882
0.0208368
0.0207932
0.0209282
0.0209281
0.0209275
0.0209277
0.0209274
0.0209284
0.020928
0.0207701
0.020751
0.020785
0.0207955
0.0208011
0.0208016
0.0207814
0.0208022
0.0208027
0.0207508
0.0208016
0.0207661
0.0208184
0.0207666
0.0207893
0.0207957
0.020802
0.0207593
0.0207882
0.020795
0.0207881
0.0207949
0.0208024
0.0208166
0.0207957
0.020789
0.0207658
0.0208001
0.0208033
0.0208006
0.0207963
0.0207893
0.0207813
0.0208006
0.0207814
0.0207901
0.0207961
0.020783
0.0207899
0.0208018
0.0207737
0.0207941
0.0207519
0.0208503
0.0207702
0.0207677
0.0207892
0.0207938
0.0207761
0.0208747
0.0207893
0.0207943
0.0208535
0.0207325
0.0207322
0.0207882
0.0208012
0.0207931
0.0208001
0.0207175
0.0207175
0.020783
0.0207829
0.0207833
0.020875
0.0208027
0.0207723
0.0207961
0.0207969
0.0207962
0.0208765
0.0207742
0.0208017
0.0207885
0.0207885
0.020797
0.0207951
0.020797
0.0207962
0.0208592
0.0208377
0.0207952
0.0207883
0.020794
0.0207974
0.0207947
0.0207934
0.020794
0.0208503
0.0207644
0.0208007
0.0207764
0.0207737
0.0208509
0.0207888
0.0207897
0.0207569
0.0207331
0.0207331
0.020761
0.0208029
0.0207887
0.0208519
0.020735
0.0207197
0.0207198
0.0208777
0.0207456
0.0207413
0.0207897
0.0207625
0.0207851
0.02078
0.0207734
0.020771
0.0207832
0.020875
0.0207873
0.0207771
0.0207725
0.020865
0.0207445
0.0208553
0.0207729
0.0207798
0.0208085
0.0207857
0.0207836
0.0207561
0.0207823
0.0207562
0.0207883
0.0207724
0.0207429
0.0207423
0.0208516
0.0207787
0.0208808
0.020879
0.020883
0.0207743
0.0208761
0.020885
0.0207973
0.020882
0.0207519
0.020752
0.0208804
0.0207935
0.020859
0.0208814
0.0208608
0.0208818
0.0208608
0.0207451
0.0208552
0.0208757
0.0208806
0.020784
0.0207689
0.0208624
0.0207838
0.0208844
0.0207807
0.0207929
0.0208825
0.0208638
0.0208839
0.0208776
0.0207901
0.0207503
0.0207215
0.0207227
0.020779
0.0207217
0.0207217
0.0207222
0.0207299
0.0208534
0.0207436
0.0207603
0.0207502
0.0207802
0.0207278
0.0207279
0.0207485
0.0208787
0.0207938
0.0208775
0.0208568
0.0208561
0.0207362
0.0207365
0.0207371
0.0207369
0.0207363
0.0207232
0.0207369
0.0207278
0.0207212
0.020736
0.0207359
0.0207208
0.0207229
0.0207275
0.0207377
SCALARS rr_(S) float
LOOKUP_TABLE default
0.956263
0.956168
0.95618
0.956168
0.956161
0.95618
0.956262
0.956176
0.956189
0.956172
0.956231
0.956176
0.956178
0.956172
0.956161
0.95618
0.956167
0.956174
0.956189
0.956181
0.956185
0.956139
0.956181
0.956181
0.956181
0.956172
0.956234
0.956179
0.956211
0.956148
0.956179
0.956209
0.956237
0.956152
0.956153
0.956152
0.956146
0.956155
0.956179
0.956237
0.95621
0.956145
0.956145
0.956179
0.956222
0.956211
0.956189
0.956188
0.95618
0.956213
0.956212
0.956204
0.956158
0.956206
0.956159
0.95623
0.956153
0.956205
0.956153
0.95618
0.956166
0.956166
0.956236
0.956167
0.956165
0.956172
0.956165
0.956173
0.956181
0.956168
0.956159
0.956159
0.956211
0.95617
0.956181
0.956237
0.956164
0.956172
0.956172
0.9562
0.95622
0.95616
0.956165
0.95622
0.956212
0.956226
0.956179
0.956172
0.956222
0.956142
0.956205
0.956143
0.956162
0.956173
0.956206
0.956211
0.956222
0.956171
0.956165
0.956179
0.956197
0.956211
0.956219
0.956171
0.956172
0.956171
0.956165
0.95618
0.95622
0.956164
0.95618
0.956221
0.95622
0.956173
0.956172
0.956207
0.956156
0.956223
0.956156
0.956206
0.956191
0.956161
0.956167
0.956168
0.956164
0.95616
0.956157
0.956171
0.956222
0.956205
0.956157
0.956168
0.956165
0.956167
0.956212
0.956152
0.956227
0.956179
0.956165
0.956152
0.95621
0.956176
0.956192
0.956171
0.956224
0.956171
0.956176
0.956182
0.95618
0.956198
0.956187
0.956167
0.956209
0.956179
0.956171
0.956167
0.956172
0.956211
0.95621
0.956175
0.956187
0.956208
0.956223
0.95621
0.956209
0.956171
0.95621
0.956211
0.95621
0.956209
0.956162
0.956205
0.956211
0.956171
0.956205
0.956165
0.956162
0.956177
0.95616
0.956174
0.956211
0.956171
0.956171
0.95621
0.956171
0.956212
0.956168
0.956167
0.956163
0.956171
0.956171
0.956221
0.956205
0.956209
0.956167
0.956173
0.956173
0.956165
0.956167
0.956172
0.956167
0.956189
0.9562
0.956165
0.956212
0.956165
0.956173
0.95621
0.956166
0.956167
0.956167
0.956174
0.956172
0.956165
0.956197
0.956174
0.9562
0.956168
0.956164
0.956164
0.956163
0.956164
0.956164
0.956164
0.956172
0.95616
0.95616
0.95616
0.95616
0.95616
0.956159
0.956197
0.956171
0.956165
0.956189
0.956161
0.956161
0.956165
0.956199
0.956165
0.956171
0.956197
0.956164
0.956198
0.956166
0.956164
0.956197
0.956199
0.95622
0.956213
0.956165
0.956225
0.956178
0.9562
0.956189
0.956165
0.956164
0.956147
0.956164
0.956228
0.956199
0.956164
0.956176
0.9562
0.956164
0.956192
0.956147
0.9562
0.956164
0.956169
0.956173
0.956161
0.956172
0.95616
0.956177
0.956224
0.956226
0.956163
0.956184
0.956176
0.9562
0.956164
0.956172
0.956199
0.956173
0.956197
0.956176
0.956198
0.956199
0.956144
0.956161
0.956159
0.956159
0.956172
0.956198
0.956152
0.956169
0.956187
0.956197
0.9562
0.956162
0.956197
0.956164
0.956199
0.956222
0.956197
0.956224
0.956167
0.956197
0.956143
0.956199
0.956168
0.956198
0.956169
0.956199
0.95618
0.956241
0.956179
0.956198
0.95616
0.956197
0.956186
0.956171
0.956167
0.956198
0.956197
0.956192
0.956169
0.956197
0.956177
0.956179
0.956161
0.956198
0.956193
0.956186
0.956193
0.956198
0.956192
0.956167
0.956176
0.956193
0.956197
0.956176
0.956175
0.956197
0.956161
0.956234
0.956182
0.956221
0.956186
0.956243
0.956243
0.956241
0.956241
0.956239
0.956248
0.956248
0.956167
0.956156
0.956175
0.956186
0.956189
0.956193
0.956176
0.956192
0.956193
0.956156
0.956192
0.956167
0.956205
0.95616
0.95618
0.956187
0.956193
0.956164
0.956182
0.956186
0.956182
0.956186
0.95619
0.9562
0.956186
0.956182
0.956165
0.956189
0.95619
0.956189
0.956186
0.956182
0.956176
0.956189
0.956176
0.956181
0.956186
0.956177
0.95618
0.956191
0.956168
0.956186
0.956156
0.956222
0.956167
0.956167
0.956182
0.956187
0.956171
0.956235
0.95618
0.956187
0.95624
0.956146
0.956147
0.95618
0.95619
0.956186
0.956189
0.956142
0.95614
0.956173
0.956177
0.956177
0.95624
0.95619
0.956168
0.956189
0.956189
0.956187
0.956233
0.956169
0.956189
0.956182
0.956182
0.956188
0.956186
0.956188
0.956189
0.956237
0.956224
0.956186
0.956182
0.956186
0.956189
0.956187
0.956186
0.956186
0.956224
0.956163
0.956188
0.956171
0.956169
0.956224
0.95618
0.95618
0.956161
0.95614
0.95614
0.95616
0.956191
0.956182
0.956224
0.956142
0.956138
0.956138
0.956234
0.956154
0.956147
0.956182
0.956163
0.956175
0.95617
0.956167
0.956169
0.956178
0.956234
0.95618
0.956173
0.956168
0.956238
0.95615
0.956245
0.956166
0.956174
0.956198
0.956178
0.956178
0.956156
0.956175
0.956156
0.95618
0.956169
0.95615
0.956151
0.956226
0.95617
0.956263
0.956266
0.956262
0.956171
0.95624
0.956261
0.956189
0.956261
0.956159
0.956159
0.956263
0.956182
0.95624
0.956267
0.956237
0.956267
0.956238
0.956154
0.956227
0.956239
0.956261
0.956179
0.956166
0.956239
0.956178
0.956258
0.956174
0.956183
0.956267
0.956238
0.956266
0.956233
0.956181
0.956157
0.956137
0.956137
0.956172
0.956137
0.956136
0.956137
0.956141
0.956226
0.95615
0.956161
0.956157
0.956173
0.956141
0.956141
0.956158
0.956233
0.956184
0.956241
0.956248
0.95624
0.956141
0.956141
0.956143
0.956143
0.956141
0.95614
0.956146
0.956142
0.956141
0.956144
0.956144
0.956141
0.956139
0.956141
0.956145
SCALARS rr_(P) float
LOOKUP_TABLE default
0.0238479
0.0237892
0.0237945
0.0237902
0.0237743
0.0237946
0.023848
0.0237911
0.0237995
0.0237895
0.0238437
0.0237911
0.0237923
0.0237887
0.0237797
0.0237937
0.0237865
0.0237917
0.023802
0.023796
0.0237968
0.0237535
0.0237967
0.0237958
0.023796
0.0237907
0.0238358
0.0237938
0.023818
0.0237656
0.0237925
0.0238178
0.0238366
0.0237692
0.0237676
0.0237693
0.0237649
0.0237684
0.0237926
0.0238365
0.0238181
0.0237647
0.0237648
0.0237925
0.0238309
0.0238172
0.0238008
0.0237985
0.0237944
0.0238215
0.0238194
0.0238121
0.023775
0.0238119
0.0237755
0.0238293
0.0237674
0.0238119
0.0237675
0.0237956
0.0237867
0.0237819
0.0238321
0.0237822
0.0237818
0.0237866
0.0237865
0.0237907
0.0237963
0.023789
0.0237751
0.0237752
0.0238181
0.0237848
0.0237943
0.0238391
0.0237787
0.0237867
0.0237907
0.0238107
0.0238228
0.0237724
0.0237842
0.0238244
0.0238163
0.0238304
0.0237938
0.0237857
0.0238309
0.0237564
0.023812
0.0237564
0.0237783
0.0237873
0.0238115
0.02382
0.0238227
0.0237896
0.0237788
0.0237928
0.0238054
0.023815
0.0238245
0.0237911
0.0237901
0.02379
0.0237835
0.0237933
0.0238246
0.0237882
0.0237956
0.0238291
0.0238265
0.0237915
0.0237903
0.0238118
0.0237675
0.023823
0.0237677
0.0238115
0.0238033
0.0237803
0.0237892
0.0237855
0.0237878
0.0237792
0.0237696
0.0237896
0.0238227
0.0238115
0.0237751
0.0237896
0.0237845
0.0237894
0.0238149
0.0237674
0.023826
0.0237919
0.0237842
0.0237674
0.0238142
0.0237894
0.0238025
0.0237894
0.0238233
0.0237905
0.0237902
0.0237944
0.0237946
0.0238071
0.0237986
0.0237892
0.0238179
0.0237922
0.0237895
0.0237895
0.0237879
0.0238137
0.0238135
0.0237923
0.0237984
0.0238175
0.0238296
0.0238194
0.0238137
0.0237899
0.0238137
0.0238138
0.0238179
0.0238136
0.0237781
0.0238119
0.0238195
0.0237873
0.0238118
0.0237837
0.0237782
0.0237911
0.0237749
0.0237899
0.0238179
0.0237897
0.0237897
0.0238141
0.0237856
0.0238199
0.0237856
0.0237835
0.0237779
0.0237896
0.0237855
0.0238221
0.0238118
0.0238179
0.0237894
0.0237919
0.0237916
0.0237846
0.0237893
0.0237869
0.0237892
0.0238013
0.0238103
0.0237847
0.0238178
0.0237843
0.0237867
0.0238153
0.0237811
0.0237891
0.0237806
0.0237884
0.0237903
0.0237842
0.0238069
0.023788
0.0238097
0.0237835
0.0237879
0.0237879
0.0237886
0.0237883
0.0237883
0.0237884
0.0237891
0.0237801
0.0237802
0.02378
0.02378
0.0237754
0.0237753
0.0238074
0.0237889
0.0237906
0.0237988
0.0237796
0.0237794
0.0237905
0.0238101
0.0237909
0.0237896
0.0238067
0.023781
0.023807
0.023784
0.0237911
0.0238066
0.0238095
0.0238229
0.0238224
0.0237842
0.0238241
0.0237929
0.0238098
0.0238017
0.0237909
0.023788
0.0237644
0.0237882
0.0238246
0.0238097
0.0237907
0.0237911
0.0238104
0.0237881
0.0238022
0.0237645
0.0238096
0.0237878
0.0237859
0.0237916
0.0237798
0.0237858
0.0237751
0.0237923
0.0238283
0.0238304
0.0237767
0.0237967
0.0237911
0.023807
0.0237809
0.0237874
0.0238097
0.0237872
0.0238052
0.02379
0.0238052
0.02381
0.0237598
0.0237776
0.0237795
0.0237796
0.0237891
0.0238048
0.0237699
0.0237861
0.0237982
0.0238046
0.0238064
0.0237768
0.0238068
0.0237783
0.0238058
0.0238308
0.0238049
0.0238235
0.0237834
0.0238067
0.0237599
0.0238058
0.0237847
0.0238074
0.0237853
0.0238059
0.0237939
0.0238332
0.023795
0.0238069
0.023777
0.0238071
0.0237981
0.0237853
0.023789
0.0238059
0.0238049
0.0238023
0.0237835
0.0238049
0.0237911
0.0237938
0.0237752
0.0238049
0.0238026
0.0237973
0.023802
0.0238055
0.0238019
0.0237817
0.0237912
0.0238024
0.023807
0.0237896
0.0237895
0.0238051
0.0237753
0.0238458
0.023794
0.0238229
0.0237971
0.0238764
0.0238763
0.0238759
0.0238761
0.0238759
0.0238766
0.0238763
0.0237831
0.0237715
0.0237921
0.0237984
0.0238017
0.0238021
0.02379
0.0238024
0.0238027
0.0237714
0.0238021
0.0237807
0.023812
0.023781
0.0237947
0.0237985
0.0238023
0.0237766
0.023794
0.0237981
0.023794
0.023798
0.0238025
0.0238109
0.0237985
0.0237946
0.0237806
0.0238011
0.023803
0.0238014
0.0237989
0.0237947
0.0237899
0.0238015
0.02379
0.0237952
0.0237987
0.0237909
0.0237951
0.0238022
0.0237853
0.0237976
0.0237721
0.0238308
0.0237832
0.0237817
0.0237947
0.0237975
0.0237868
0.0238451
0.0237947
0.0237977
0.0238328
0.0237603
0.0237601
0.023794
0.0238018
0.023797
0.0238012
0.0237511
0.0237511
0.0237909
0.0237909
0.0237911
0.0238453
0.0238027
0.0237845
0.0237988
0.0237993
0.0237988
0.0238461
0.0237856
0.0238021
0.0237942
0.0237942
0.0237993
0.0237982
0.0237993
0.0237989
0.0238361
0.0238234
0.0237982
0.0237941
0.0237975
0.0237996
0.0237979
0.0237972
0.0237975
0.0238308
0.0237797
0.0238015
0.0237869
0.0237853
0.0238311
0.0237944
0.0237949
0.0237752
0.0237605
0.0237606
0.0237775
0.0238028
0.0237943
0.0238317
0.0237617
0.0237525
0.0237526
0.0238468
0.0237683
0.0237656
0.023795
0.0237786
0.0237922
0.0237891
0.0237851
0.0237837
0.0237911
0.0238452
0.0237935
0.0237874
0.0237846
0.0238394
0.0237675
0.0238339
0.0237848
0.023789
0.0238061
0.0237926
0.0237913
0.0237746
0.0237905
0.0237747
0.0237941
0.0237846
0.0237665
0.0237662
0.0238316
0.0237883
0.0238489
0.0238479
0.0238502
0.0237857
0.023846
0.0238513
0.0237995
0.0238496
0.0237722
0.0237723
0.0238487
0.0237972
0.023836
0.0238493
0.023837
0.0238495
0.023837
0.023768
0.0238337
0.0238457
0.0238488
0.0237916
0.0237824
0.0238379
0.0237914
0.0238509
0.0237895
0.0237968
0.0238499
0.0238388
0.0238508
0.0238468
0.0237952
0.0237712
0.0237535
0.0237543
0.0237885
0.0237536
0.0237537
0.023754
0.0237586
0.0238326
0.023767
0.0237772
0.0237711
0.0237892
0.0237574
0.0237574
0.0237701
0.0238474
0.0237974
0.0238468
0.0238348
0.0238343
0.0237624
0.0237626
0.023763
0.0237629
0.0237625
0.0237545
0.0237629
0.0237573
0.0237534
0.0237623
0.0237622
0.0237532
0.0237544
0.0237571
0.0237633
SCALARS rr_(T) float
LOOKUP_TABLE default
0.138877
0.138904
0.138902
0.138903
0.138915
0.138902
0.138877
0.138904
0.138899
0.138904
0.138877
0.138904
0.138903
0.138905
0.138911
0.138902
0.138906
0.138903
0.138898
0.138901
0.138901
0.13893
0.138901
0.138901
0.138901
0.138904
0.138881
0.138902
0.13889
0.138921
0.138903
0.13889
0.138881
0.138919
0.13892
0.138919
0.138922
0.138919
0.138903
0.138881
0.13889
0.138922
0.138922
0.138903
0.138883
0.13889
0.138898
0.1389
0.138902
0.138888
0.138889
0.138893
0.138914
0.138893
0.138914
0.138885
0.13892
0.138893
0.13892
0.138901
0.138906
0.138909
0.138884
0.138909
0.13891
0.138907
0.138906
0.138904
0.138901
0.138904
0.138914
0.138914
0.13889
0.138908
0.138902
0.13888
0.138912
0.138907
0.138904
0.138893
0.138888
0.138916
0.138908
0.138887
0.138891
0.138884
0.138902
0.138907
0.138883
0.138929
0.138893
0.138929
0.138912
0.138906
0.138893
0.138889
0.138888
0.138904
0.138912
0.138903
0.138896
0.138892
0.138887
0.138903
0.138904
0.138904
0.138909
0.138902
0.138887
0.138905
0.138901
0.138884
0.138886
0.138903
0.138904
0.138893
0.13892
0.138888
0.13892
0.138893
0.138897
0.13891
0.138904
0.138907
0.138905
0.138911
0.138919
0.138904
0.138888
0.138893
0.138914
0.138904
0.138907
0.138904
0.138892
0.13892
0.138887
0.138903
0.138908
0.13892
0.138892
0.138905
0.138898
0.138904
0.138888
0.138904
0.138905
0.138902
0.138902
0.138895
0.1389
0.138904
0.13889
0.138903
0.138904
0.138904
0.138906
0.138892
0.138892
0.138903
0.1389
0.13889
0.138884
0.138889
0.138892
0.138904
0.138892
0.138892
0.13889
0.138892
0.138912
0.138893
0.138889
0.138906
0.138893
0.138908
0.138912
0.138904
0.138915
0.138904
0.13889
0.138904
0.138904
0.138892
0.138907
0.138889
0.138907
0.138909
0.138913
0.138904
0.138907
0.138888
0.138893
0.13889
0.138904
0.138903
0.138903
0.138907
0.138904
0.138907
0.138904
0.138898
0.138894
0.138907
0.13889
0.138908
0.138907
0.138891
0.13891
0.138904
0.138911
0.138906
0.138904
0.138908
0.138895
0.138906
0.138894
0.138909
0.138905
0.138905
0.138904
0.138904
0.138905
0.138904
0.138905
0.138911
0.13891
0.138911
0.138911
0.138914
0.138914
0.138895
0.138905
0.138903
0.1389
0.138911
0.138911
0.138903
0.138894
0.138903
0.138904
0.138896
0.13891
0.138895
0.138908
0.138902
0.138896
0.138894
0.138888
0.138888
0.138908
0.138887
0.138902
0.138894
0.138898
0.138903
0.138905
0.138922
0.138905
0.138887
0.138894
0.138903
0.138904
0.138894
0.138905
0.138898
0.138922
0.138894
0.138905
0.138907
0.138903
0.138911
0.138907
0.138915
0.138903
0.138885
0.138884
0.138914
0.138901
0.138904
0.138896
0.13891
0.138906
0.138894
0.138906
0.138896
0.138905
0.138896
0.138894
0.138926
0.138913
0.138911
0.138911
0.138905
0.138897
0.138918
0.138907
0.1389
0.138897
0.138896
0.138913
0.138895
0.138912
0.138896
0.138883
0.138897
0.138888
0.138909
0.138895
0.138926
0.138896
0.138908
0.138895
0.138907
0.138896
0.138902
0.138884
0.138901
0.138895
0.138913
0.138895
0.1389
0.138908
0.138904
0.138896
0.138897
0.138898
0.138909
0.138897
0.138904
0.138902
0.138914
0.138897
0.138898
0.1389
0.138898
0.138896
0.138898
0.13891
0.138904
0.138898
0.138895
0.138905
0.138905
0.138896
0.138914
0.138876
0.138902
0.138888
0.138901
0.138859
0.138859
0.138859
0.138859
0.138859
0.138859
0.138859
0.138909
0.138917
0.138903
0.1389
0.138898
0.138898
0.138905
0.138898
0.138898
0.138917
0.138898
0.138911
0.138893
0.13891
0.138902
0.1389
0.138898
0.138914
0.138902
0.1389
0.138902
0.1389
0.138897
0.138893
0.1389
0.138902
0.138911
0.138898
0.138897
0.138898
0.1389
0.138902
0.138905
0.138898
0.138905
0.138901
0.1389
0.138904
0.138901
0.138898
0.138907
0.1389
0.138917
0.138883
0.138909
0.13891
0.138902
0.1389
0.138906
0.138876
0.138902
0.1389
0.138884
0.138926
0.138926
0.138902
0.138898
0.138901
0.138898
0.138933
0.138933
0.138903
0.138904
0.138904
0.138876
0.138897
0.138908
0.1389
0.138899
0.1389
0.138876
0.138907
0.138898
0.138902
0.138902
0.138899
0.1389
0.138899
0.1389
0.138881
0.138888
0.1389
0.138902
0.1389
0.138899
0.1389
0.138901
0.1389
0.138884
0.138911
0.138898
0.138906
0.138907
0.138883
0.138902
0.138901
0.138915
0.138925
0.138925
0.138913
0.138897
0.138902
0.138883
0.138924
0.138931
0.138931
0.138875
0.138919
0.138921
0.138902
0.138912
0.138903
0.138904
0.138907
0.138909
0.138904
0.138876
0.138902
0.138906
0.138908
0.13888
0.13892
0.138883
0.138907
0.138905
0.138896
0.138903
0.138904
0.138915
0.138904
0.138915
0.138902
0.138908
0.138921
0.138921
0.138883
0.138905
0.138876
0.138877
0.138875
0.138907
0.138876
0.138875
0.138899
0.138876
0.138917
0.138917
0.138876
0.1389
0.138882
0.138876
0.138881
0.138876
0.138881
0.13892
0.138882
0.138876
0.138876
0.138904
0.138909
0.138881
0.138904
0.138875
0.138905
0.1389
0.138876
0.13888
0.138875
0.138875
0.138901
0.138917
0.13893
0.13893
0.138905
0.13893
0.13893
0.13893
0.138927
0.138883
0.13892
0.138913
0.138918
0.138905
0.138928
0.138928
0.138918
0.138875
0.1389
0.138876
0.138883
0.138883
0.138924
0.138923
0.138923
0.138923
0.138923
0.13893
0.138923
0.138928
0.138931
0.138924
0.138924
0.138931
0.13893
0.138928
0.138923
SCALARS rr_tsim float
LOOKUP_TABLE default
300
300
300
300
300
300
300
300
300
300
300
300
300
300
300
300
300
300
300
300
300
300
300
300
300
300
300
300
300
300
300
300
300
300
300
300
300
300
300
300
300
300
300
300
300
300
300
300
300
300
300
300
300
300
300
300
300
300
300
300
300
300
300
300
300
300
300
300
300
300
300
300
300
300
300
300
300
300
300
300
300
300
300
300
300
300
300
300
300
300
300
300
300
300
300
300
300
300
300
300
300
300
300
300
300
300
300
300
300
300
300
300
300
300
300
300
300
300
300
300
300
300
300
300
300
300
300
300
300
300
300
300
300
300
300
300
300
300
300
300
300
300
300
300
300
300
300
300
300
300
300
300
300
300
300
300
300
300
300
300
300
300
300
300
300
300
300
300
300
300
300
300
300
300
300
300
300
300
300
300
300
300
300
300
300
300
300
300
300
300
300
300
300
300
300
300
300
300
300
300
300
300
300
300
300
300
300
300
300
300
300
300
300
300
300
300
300
300
300
300
300
300
300
300
300
300
300
300
300
300
300
300
300
300
300
300
300
300
300
300
300
300
300
300
300
300
300
300
300
300
300
300
300
300
300
300
300
300
300
300
300
300
300
300
300
300
300
300
300
300
300
300
300
300
300
300
300
300
300
300
300
300
300
300
300
300
300
300
300
300
300
300
300
300
300
300
300
300
300
300
300
300
300
300
300
300
300
300
300
300
300
300
300
300
300
300
300
300
300
300
300
300
300
300
300
300
300
300
300
300
300
300
300
300
300
300
300
300
300
300
300
300
300
300
300
300
300
300
300
300
300
300
300
300
300
300
300
300
300
300
300
300
300
300
300
300
300
300
300
300
300
300
300
300
300
300
300
300
300
300
300
300
300
300
300
300
300
300
300
300
300
300
300
300
300
300
300
300
300
300
300
300
300
300
300
300
300
300
300
300
300
300
300
300
300
300
300
300
300
300
300
300
300
300
300
300
300
300
300
300
300
300
300
300
300
300
300
300
300
300
300
300
300
300
300
300
300
300
300
300
300
300
300
300
300
300
300
300
300
300
300
300
300
300
300
300
300
300
300
300
300
300
300
300
300
300
300
300
300
300
300
300
300
300
300
300
300
300
300
300
300
300
300
300
300
300
300
300
300
300
300
300
300
300
300
300
300
300
300
300
300
300
300
300
300
300
300
300
300
300
300
300
300
300
300
300
300
300
300
300
300
300
300
300
300
300
300
300
300
300
300
300
300
300
300
300
300
300
300
300
300
300
300
300
300
300
300
300
300
300
300
300
300
SCALARS rr_Vext float
LOOKUP_TABLE default
0.181359
0.449123
0.356048
0.468109
0.250492
0.377828
0.179274
0.465089
0.395106
0.504565
0.165389
0.466508
0.409826
0.435013
0.516135
0.424864
0.369043
0.414184
0.365531
0.360527
0.405109
0.0765106
0.41507
0.383014
0.347105
0.403471
0.15501
0.352834
0.267413
0.339246
0.361969
0.276485
0.17152
0.252901
0.249247
0.253452
0.330126
0.24949
0.36154
0.192836
0.224721
0.29105
0.29106
0.397272
0.216885
0.24412
0.344612
0.350183
0.330079
0.303761
0.312854
0.245236
0.401518
0.315207
0.369414
0.157754
0.266178
0.317516
0.26615
0.393185
0.470929
0.464872
0.153275
0.327641
0.445313
0.417374
0.455654
0.391905
0.357985
0.515556
0.435554
0.43079
0.277654
0.338744
0.353972
0.176426
0.372675
0.413477
0.395169
0.271132
0.24049
0.283506
0.527531
0.24025
0.32776
0.119292
0.40758
0.344609
0.229706
0.0374828
0.273092
0.0407607
0.316357
0.299312
0.258659
0.232983
0.220908
0.44293
0.37291
0.351855
0.293535
0.277769
0.230478
0.418575
0.426137
0.383831
0.340626
0.340847
0.244629
0.512518
0.326026
0.164038
0.220056
0.457878
0.429718
0.304482
0.30863
0.183508
0.320035
0.303366
0.266986
0.502648
0.51181
0.442039
0.484525
0.384951
0.220815
0.478209
0.200078
0.262279
0.227503
0.456394
0.449023
0.448248
0.288937
0.187537
0.190638
0.327439
0.404468
0.187459
0.241542
0.387289
0.287969
0.472757
0.223275
0.385189
0.349731
0.336127
0.214789
0.269546
0.304298
0.440626
0.248026
0.39741
0.461989
0.469242
0.307855
0.249008
0.247656
0.401135
0.333852
0.246117
0.160076
0.239704
0.240466
0.430955
0.252348
0.2551
0.27462
0.245939
0.386343
0.258183
0.226059
0.297713
0.272811
0.340306
0.382117
0.361132
0.313977
0.360845
0.266567
0.418245
0.448851
0.241614
0.442299
0.239439
0.436794
0.402737
0.378965
0.379414
0.446226
0.200774
0.266928
0.246016
0.447409
0.43902
0.407198
0.447893
0.452951
0.381864
0.466568
0.307715
0.27411
0.51273
0.285547
0.465953
0.369961
0.226654
0.286341
0.461724
0.389034
0.350307
0.450055
0.445255
0.278859
0.284221
0.267542
0.395452
0.433418
0.498091
0.478088
0.520369
0.471557
0.515286
0.432055
0.457201
0.46065
0.434354
0.456356
0.422918
0.416635
0.282411
0.38941
0.454294
0.31212
0.470272
0.432155
0.492658
0.288246
0.468275
0.448676
0.2845
0.406912
0.282469
0.455237
0.411288
0.296254
0.277677
0.235552
0.271097
0.455772
0.197501
0.34702
0.276527
0.313903
0.46867
0.455547
0.147788
0.457103
0.236431
0.261764
0.466269
0.379026
0.264585
0.522181
0.29123
0.147779
0.267724
0.406398
0.508921
0.382689
0.457754
0.425155
0.226614
0.216731
0.175978
0.201428
0.308134
0.229075
0.37198
0.227524
0.406391
0.287622
0.268101
0.323952
0.293521
0.398521
0.281486
0.287596
0.13637
0.303571
0.437809
0.438057
0.391524
0.281115
0.192358
0.545877
0.360488
0.298317
0.274291
0.284975
0.282729
0.358842
0.278091
0.192059
0.274791
0.183496
0.351067
0.279576
0.127091
0.263721
0.321337
0.279314
0.443668
0.290709
0.381467
0.138314
0.305661
0.287013
0.261624
0.269317
0.321991
0.308722
0.321045
0.266563
0.271163
0.293859
0.4036
0.276095
0.399021
0.358786
0.290796
0.286473
0.290122
0.323372
0.289912
0.270116
0.308528
0.333028
0.387865
0.290168
0.286353
0.425142
0.419247
0.276211
0.290834
0.117368
0.342062
0.227678
0.319679
0.126304
0.131123
0.117233
0.119129
0.126411
0.133076
0.137186
0.365817
0.275202
0.269662
0.305533
0.296206
0.292407
0.314709
0.285993
0.292386
0.310822
0.291313
0.368787
0.261063
0.378832
0.289102
0.277578
0.291595
0.322764
0.328992
0.304695
0.351048
0.32603
0.300389
0.213975
0.303859
0.298861
0.328279
0.305307
0.288518
0.275035
0.304062
0.31909
0.436159
0.283305
0.423999
0.438658
0.298863
0.422862
0.322474
0.255677
0.356792
0.307316
0.229504
0.18527
0.353348
0.377138
0.313431
0.259542
0.317012
0.138204
0.309863
0.289512
0.140569
0.0597485
0.0653752
0.268651
0.283293
0.331355
0.316585
0.0311308
0.0325286
0.318178
0.321541
0.304241
0.103723
0.264725
0.315902
0.31564
0.272074
0.240281
0.107863
0.464464
0.284944
0.352159
0.35767
0.255162
0.323444
0.249474
0.275479
0.129739
0.19938
0.323804
0.327749
0.280324
0.293562
0.303656
0.320503
0.306408
0.14396
0.275778
0.301351
0.290883
0.437485
0.143857
0.23373
0.240571
0.234522
0.155624
0.155628
0.267698
0.208506
0.301872
0.153855
0.185525
0.0614166
0.0614141
0.11231
0.199632
0.134971
0.256999
0.284536
0.297805
0.336998
0.307416
0.28523
0.222215
0.127171
0.278048
0.290579
0.282436
0.144129
0.147644
0.104628
0.281946
0.285969
0.224179
0.258248
0.238711
0.22379
0.292909
0.223756
0.257202
0.251385
0.158046
0.19524
0.165307
0.310644
0.112706
0.118918
0.115939
0.294532
0.10769
0.104732
0.200915
0.0979318
0.243154
0.243508
0.100659
0.255443
0.113722
0.110988
0.127154
0.105858
0.105723
0.174204
0.12624
0.112774
0.106277
0.235809
0.272657
0.118743
0.260315
0.0960765
0.264786
0.208171
0.100551
0.0864348
0.0948694
0.12646
0.22555
0.192179
0.0824424
0.0914071
0.253855
0.0775858
0.0775825
0.0878715
0.0979618
0.0995847
0.127333
0.207531
0.193793
0.253766
0.0775241
0.0775208
0.229251
0.0843464
0.178713
0.0765188
0.0783411
0.103271
0.198595
0.205595
0.218906
0.200659
0.198579
0.0438923
0.32038
0.0557536
0.0543417
0.259007
0.257238
0.0563344
0.0390571
0.0548043
0.238559
SCALARS rr_Vli float
LOOKUP_TABLE default
0.396486
0.903296
0.721402
0.942901
0.493002
0.765664
0.392034
0.937669
0.806266
1.01511
0.359835
0.940541
0.8277
0.874153
1.02412
0.859727
0.739393
0.835914
0.748795
0.732052
0.823479
0.146196
0.843736
0.777625
0.704886
0.813139
0.333348
0.714256
0.560607
0.6598
0.731224
0.579527
0.369271
0.494392
0.485904
0.495506
0.641456
0.486895
0.730481
0.415064
0.47121
0.565329
0.565389
0.802513
0.463322
0.511147
0.70466
0.71357
0.66868
0.640141
0.657314
0.509708
0.79128
0.654953
0.728498
0.336093
0.518807
0.659755
0.51879
0.798045
0.943863
0.925029
0.327839
0.652217
0.886009
0.836194
0.912998
0.789772
0.727288
1.0367
0.858505
0.849151
0.582209
0.676851
0.716967
0.381182
0.738158
0.828438
0.79642
0.562479
0.507623
0.556447
1.05351
0.508331
0.685383
0.254579
0.825074
0.689486
0.49066
0.0719434
0.567528
0.0782461
0.626349
0.600258
0.537107
0.489901
0.466216
0.891213
0.738706
0.711147
0.604216
0.579672
0.487749
0.844109
0.85808
0.772713
0.679545
0.689378
0.517758
1.02965
0.661677
0.349478
0.467059
0.923819
0.865434
0.632491
0.601612
0.38741
0.624001
0.62999
0.547959
0.998311
1.02947
0.884277
0.972855
0.763252
0.43175
0.962235
0.422252
0.544645
0.448452
0.918478
0.897109
0.901821
0.602898
0.365537
0.404181
0.66093
0.807731
0.365414
0.503537
0.778933
0.59024
0.951058
0.471531
0.776063
0.704321
0.680953
0.435246
0.556267
0.620246
0.886306
0.519981
0.802496
0.92944
0.94426
0.617852
0.518656
0.515712
0.810195
0.680205
0.515659
0.341238
0.503638
0.500927
0.867513
0.525644
0.531442
0.575695
0.512235
0.764767
0.536473
0.475014
0.597025
0.566758
0.6791
0.756451
0.728157
0.618511
0.726372
0.558759
0.841634
0.903303
0.503621
0.884781
0.503408
0.873806
0.803282
0.749915
0.763388
0.89254
0.423344
0.554569
0.51569
0.900208
0.886299
0.82171
0.894903
0.911195
0.76527
0.938415
0.629673
0.568291
1.02454
0.59847
0.930551
0.741277
0.47324
0.569198
0.928572
0.772727
0.703604
0.906434
0.889136
0.575328
0.57047
0.554199
0.788781
0.870376
1.00028
0.961014
1.04558
0.94745
1.03539
0.868711
0.907696
0.914768
0.862343
0.905931
0.833929
0.821515
0.583003
0.782793
0.915906
0.636237
0.93312
0.857209
0.993022
0.597475
0.944367
0.902754
0.586735
0.808801
0.582773
0.908854
0.829725
0.61088
0.57498
0.497305
0.572061
0.910101
0.417614
0.70148
0.572845
0.642711
0.945255
0.914966
0.286927
0.918293
0.500196
0.542258
0.940099
0.7642
0.548648
1.04887
0.596675
0.286927
0.5545
0.815976
1.01856
0.772233
0.908465
0.850822
0.4466
0.437752
0.374434
0.429883
0.608683
0.465559
0.749991
0.469384
0.807668
0.576816
0.55534
0.649546
0.603995
0.802276
0.579178
0.596019
0.263019
0.600442
0.86851
0.869129
0.787207
0.578062
0.376387
1.09285
0.734299
0.613258
0.565366
0.562958
0.583123
0.710459
0.572676
0.410196
0.565166
0.387691
0.700125
0.576599
0.245149
0.543076
0.642113
0.576619
0.887239
0.598797
0.772173
0.296222
0.619802
0.592061
0.51704
0.555816
0.655878
0.617314
0.645549
0.54901
0.557647
0.602196
0.804985
0.56787
0.804505
0.726242
0.573154
0.589127
0.594775
0.657842
0.593794
0.555994
0.631807
0.662546
0.782179
0.594651
0.590809
0.855286
0.843307
0.5683
0.573277
0.256088
0.692601
0.480627
0.650103
0.287606
0.29855
0.266803
0.271172
0.287682
0.303056
0.312311
0.729343
0.539723
0.544565
0.622603
0.6065
0.598932
0.633519
0.58613
0.599483
0.609469
0.596712
0.732658
0.542545
0.753106
0.586003
0.565698
0.597465
0.637466
0.666112
0.620591
0.710715
0.663996
0.615741
0.444039
0.619297
0.605571
0.652003
0.624636
0.591868
0.562871
0.620017
0.64672
0.877916
0.579857
0.853547
0.889738
0.609276
0.852428
0.653928
0.52384
0.713542
0.625424
0.450401
0.395665
0.704468
0.750312
0.6352
0.528048
0.635252
0.301236
0.62802
0.589264
0.300912
0.115298
0.126126
0.544003
0.580096
0.673736
0.647661
0.0592774
0.0619388
0.641396
0.648086
0.613481
0.226113
0.542804
0.631011
0.643416
0.555014
0.489877
0.235469
0.929282
0.583732
0.713231
0.724382
0.520582
0.658847
0.508989
0.561647
0.279101
0.421176
0.659631
0.663707
0.570433
0.599123
0.618255
0.651892
0.623522
0.307427
0.547096
0.616831
0.583014
0.874901
0.307367
0.473533
0.487753
0.46224
0.300515
0.300535
0.529553
0.427592
0.611535
0.329005
0.358876
0.117176
0.117176
0.245398
0.389619
0.262494
0.52105
0.563539
0.601411
0.677646
0.614656
0.569069
0.448036
0.27725
0.562546
0.582799
0.564247
0.311556
0.287924
0.224284
0.563451
0.574849
0.461942
0.521747
0.481453
0.440836
0.590093
0.440798
0.520821
0.502147
0.307811
0.380027
0.353393
0.623981
0.246785
0.25998
0.254334
0.589282
0.234981
0.230138
0.410009
0.214644
0.47712
0.477842
0.220334
0.51961
0.244574
0.243122
0.273901
0.231958
0.227739
0.339829
0.270697
0.245996
0.232677
0.475748
0.543002
0.256116
0.525107
0.211012
0.532688
0.423219
0.220454
0.186663
0.208255
0.276319
0.457466
0.376607
0.157552
0.174883
0.509986
0.148307
0.148306
0.168048
0.188628
0.213205
0.248113
0.410273
0.379761
0.51034
0.149004
0.149003
0.448511
0.184462
0.363609
0.167149
0.16815
0.221553
0.384549
0.398195
0.424214
0.388778
0.384539
0.0840102
0.620731
0.107163
0.103829
0.501444
0.497965
0.107596
0.0747329
0.105301
0.462542
SCALARS rr_S_ext' float
LOOKUP_TABLE default
-0.000317023
-0.000723939
-0.000578051
-0.000755648
-0.00039534
-0.000613513
-0.00031346
-0.000751443
-0.000645928
-0.000813549
-0.000287752
-0.000753744
-0.000663283
-0.000700601
-0.000821065
-0.000688913
-0.000592641
-0.000669875
-0.000599822
-0.00058655
-0.000659787
-0.000117323
-0.000676015
-0.000623066
-0.000564782
-0.000651649
-0.000266664
-0.000572337
-0.000448787
-0.000529253
-0.000585968
-0.000463935
-0.000295392
-0.000396521
-0.000389743
-0.000397414
-0.000514551
-0.000390528
-0.00058537
-0.000332026
-0.000377218
-0.000453489
-0.000453536
-0.000643096
-0.000370707
-0.000409207
-0.000564496
-0.000571689
-0.000535807
-0.000512381
-0.000526171
-0.000408139
-0.000634506
-0.000524446
-0.000584153
-0.000268933
-0.000416137
-0.000528291
-0.000416122
-0.000639432
-0.00075652
-0.000741569
-0.0002623
-0.000522859
-0.00071029
-0.000670233
-0.000731787
-0.000632925
-0.000582724
-0.000830861
-0.000688409
-0.000680907
-0.000466077
-0.000542554
-0.000574503
-0.000304888
-0.000591833
-0.000664015
-0.00063825
-0.000450416
-0.000406294
-0.000446249
-0.000844481
-0.000406833
-0.000548715
-0.000203697
-0.000661137
-0.000552662
-0.000392581
-5.77281e-05
-0.000454439
-6.27852e-05
-0.000502192
-0.000481111
-0.00043009
-0.00039215
-0.000373155
-0.000714248
-0.00059227
-0.000569872
-0.000483944
-0.00046411
-0.000390357
-0.000676456
-0.00068768
-0.000619269
-0.000544734
-0.000552417
-0.000414373
-0.000825221
-0.000530168
-0.000279642
-0.000373767
-0.000740326
-0.000693571
-0.000506464
-0.000482554
-0.000310077
-0.000500508
-0.000504465
-0.000438919
-0.000800352
-0.000825058
-0.000708799
-0.000779717
-0.000611932
-0.000346279
-0.000771166
-0.000337966
-0.000436125
-0.000359598
-0.000736093
-0.000719107
-0.000722749
-0.000482708
-0.000293197
-0.000323461
-0.00052965
-0.00064747
-0.000293098
-0.000403165
-0.000624273
-0.000472805
-0.000762214
-0.000377402
-0.000621941
-0.000564455
-0.000545642
-0.000348756
-0.000445507
-0.000496915
-0.000710318
-0.000416263
-0.000643089
-0.000744888
-0.000756757
-0.000495203
-0.000415281
-0.000412926
-0.000649253
-0.000544959
-0.00041281
-0.000273044
-0.000403155
-0.000401083
-0.000695246
-0.000420875
-0.000425516
-0.000460866
-0.00041014
-0.000613174
-0.000429574
-0.000380241
-0.00047852
-0.000453827
-0.000544372
-0.000606506
-0.000583539
-0.000495973
-0.000582133
-0.00044731
-0.000674512
-0.000723933
-0.000403234
-0.000709206
-0.000402964
-0.000700406
-0.000643928
-0.000601272
-0.000611806
-0.000715427
-0.000338849
-0.000444066
-0.00041283
-0.000721455
-0.000710247
-0.000658495
-0.000717338
-0.000730263
-0.000613381
-0.000752082
-0.000504415
-0.000455079
-0.000821247
-0.000479102
-0.000745922
-0.000594152
-0.00037889
-0.000456322
-0.000744196
-0.000619503
-0.000563921
-0.000726429
-0.000712725
-0.000460776
-0.000457226
-0.000443805
-0.000632304
-0.00069758
-0.000801695
-0.000770203
-0.00083799
-0.000759342
-0.000829818
-0.000696228
-0.000727714
-0.000733379
-0.000691353
-0.0007263
-0.000668695
-0.000658741
-0.000466916
-0.000627372
-0.000733992
-0.000509727
-0.000748108
-0.000687253
-0.000795797
-0.000478451
-0.000756795
-0.000723498
-0.000469918
-0.00064841
-0.00046674
-0.000728536
-0.000664916
-0.000489257
-0.000460451
-0.000398033
-0.00045787
-0.000729532
-0.000334236
-0.000562122
-0.000458736
-0.00051485
-0.000757505
-0.000733314
-0.000230166
-0.000735976
-0.000400326
-0.000434242
-0.000753379
-0.000612424
-0.000439347
-0.000840636
-0.000477965
-0.000230167
-0.000444048
-0.000653983
-0.000816423
-0.000618846
-0.000728337
-0.000681978
-0.000358117
-0.000350794
-0.000299622
-0.000343963
-0.000488057
-0.000373016
-0.000601038
-0.000375928
-0.000647504
-0.000462322
-0.000444719
-0.000520619
-0.000483771
-0.000642965
-0.000463896
-0.000477288
-0.000211024
-0.000481432
-0.000696311
-0.000696805
-0.000630908
-0.00046301
-0.00030187
-0.000875965
-0.000588301
-0.000491204
-0.000452811
-0.000451393
-0.000467024
-0.00056963
-0.000458678
-0.000328202
-0.000452678
-0.000310295
-0.000561237
-0.000461799
-0.000196685
-0.00043497
-0.000514705
-0.000461803
-0.00071118
-0.000479595
-0.000618748
-0.000236995
-0.000496628
-0.000474181
-0.000414569
-0.000445146
-0.000525472
-0.00049482
-0.000517372
-0.00043972
-0.000446657
-0.000482384
-0.000645294
-0.000454843
-0.000644725
-0.000581944
-0.000459596
-0.000471872
-0.000476435
-0.000527064
-0.000475662
-0.000445322
-0.000506114
-0.000531147
-0.000626829
-0.00047634
-0.000473175
-0.000685461
-0.000675863
-0.000455183
-0.000459694
-0.00020477
-0.000554983
-0.000384686
-0.000520868
-0.000229673
-0.000238413
-0.000213064
-0.000216551
-0.000229737
-0.000242011
-0.000249404
-0.000584662
-0.000432843
-0.00043639
-0.000498807
-0.000485842
-0.000479777
-0.000507719
-0.000469514
-0.000480205
-0.000488779
-0.000477997
-0.000587376
-0.000434434
-0.000603755
-0.000469551
-0.000453216
-0.000478597
-0.000511139
-0.000533758
-0.000497203
-0.0005695
-0.000531978
-0.000493231
-0.00035557
-0.000496156
-0.000485237
-0.000522719
-0.000500381
-0.000474097
-0.000450899
-0.000496727
-0.000518205
-0.000703587
-0.000464505
-0.000684055
-0.000712914
-0.000488125
-0.000683133
-0.000523972
-0.00041962
-0.00057195
-0.000501086
-0.000361203
-0.000316577
-0.000564723
-0.000601507
-0.000508975
-0.000423072
-0.000509169
-0.000240879
-0.00050322
-0.000472114
-0.000240751
-9.25042e-05
-0.000101192
-0.00043591
-0.000464691
-0.000539806
-0.000518828
-4.75746e-05
-4.97106e-05
-0.000514011
-0.000519377
-0.000491638
-0.000180808
-0.000434801
-0.000505812
-0.000515479
-0.000444645
-0.000392467
-0.000188281
-0.000744871
-0.000467598
-0.00057151
-0.000580446
-0.000417059
-0.000527851
-0.000407771
-0.000449966
-0.000223267
-0.000337097
-0.000528478
-0.000531829
-0.000457028
-0.000479977
-0.000495336
-0.0005223
-0.000499563
-0.000245977
-0.000438626
-0.000494122
-0.000467297
-0.00070129
-0.000245926
-0.000379437
-0.000390823
-0.000370657
-0.000241099
-0.000241115
-0.000424591
-0.000342512
-0.000490018
-0.000263232
-0.000287908
-9.40379e-05
-9.40374e-05
-0.000196215
-0.000312504
-0.000210558
-0.000417504
-0.000451829
-0.000481945
-0.000543096
-0.000492689
-0.000456175
-0.000359053
-0.000221698
-0.000450779
-0.000467117
-0.000452292
-0.000249194
-0.00023094
-0.000179436
-0.00045165
-0.000460716
-0.000369979
-0.000418101
-0.00038583
-0.000353497
-0.000472907
-0.000353466
-0.000417335
-0.000402516
-0.000246899
-0.00030483
-0.000282747
-0.000500102
-0.000197316
-0.000207875
-0.000203339
-0.000472343
-0.000187894
-0.000183986
-0.000328472
-0.000171612
-0.000382634
-0.000383213
-0.000176168
-0.000416312
-0.000195649
-0.000194385
-0.000219099
-0.000185457
-0.000182173
-0.000272572
-0.000216563
-0.000196704
-0.000186036
-0.000381255
-0.000435299
-0.000204864
-0.000420812
-0.000168697
-0.000426918
-0.000339089
-0.000176257
-0.000149304
-0.000166497
-0.000220938
-0.000366552
-0.000302036
-0.000126435
-0.000140339
-0.000408737
-0.000119015
-0.000119014
-0.000134856
-0.000151345
-0.000170576
-0.000199013
-0.00032896
-0.000304564
-0.00040901
-0.000119558
-0.000119557
-0.000359718
-0.000147487
-0.000291323
-0.00013365
-0.000134522
-0.000177247
-0.000308496
-0.000319442
-0.00034031
-0.000311885
-0.000308488
-6.74155e-05
-0.000497962
-8.59857e-05
-8.33228e-05
-0.000402275
-0.000399485
-8.63471e-05
-5.99712e-05
-8.44922e-05
-0.000371053
SCALARS rr_P_ext' float
LOOKUP_TABLE default
0.000180078
0.000415923
0.000331784
0.000434056
0.00022777
0.000352131
0.000178048
0.000431587
0.000370395
0.000467388
0.000163566
0.000432908
0.000380866
0.00040256
0.000472554
0.000395482
0.000340659
0.000384687
0.000343781
0.000336567
0.000378536
6.78461e-05
0.000387846
0.000357526
0.000324071
0.00037429
0.000151826
0.000328543
0.000256417
0.000305384
0.000336459
0.000265078
0.000168156
0.000228647
0.000224817
0.00022916
0.000296936
0.000225239
0.000336108
0.000189016
0.000215519
0.00026171
0.000261735
0.000369264
0.000211259
0.000233842
0.000323612
0.000327886
0.000307544
0.000292543
0.00030054
0.000233466
0.000365501
0.000300008
0.000336467
0.000153317
0.000240048
0.000302207
0.000240037
0.000366931
0.000434839
0.000426643
0.000149453
0.000300798
0.000408653
0.000385261
0.000420638
0.000363538
0.000334348
0.000477366
0.000396542
0.000392219
0.000266287
0.000311977
0.000329761
0.000173475
0.000340698
0.000381683
0.000366593
0.000257715
0.000231921
0.00025719
0.000485625
0.000232153
0.00031362
0.000116099
0.000379518
0.000317735
0.000223728
3.33649e-05
0.000259956
3.62871e-05
0.000289111
0.000276515
0.000246053
0.000223965
0.000213009
0.000410332
0.000340945
0.000327196
0.000277188
0.000265336
0.000222746
0.000388507
0.00039503
0.000355743
0.000313295
0.000317145
0.000236446
0.000474183
0.000304235
0.000159422
0.000213193
0.000425162
0.000398405
0.000289732
0.000278357
0.000176994
0.000288705
0.0002886
0.000251498
0.000460576
0.000474014
0.00040751
0.00044807
0.000352224
0.000199671
0.00044303
0.000192923
0.000249505
0.000207137
0.000422873
0.000413505
0.000415223
0.000275974
0.00016913
0.000184526
0.000304154
0.000372334
0.000169071
0.000230527
0.000358661
0.000270962
0.000437899
0.000215413
0.000357241
0.000324238
0.000313188
0.000200172
0.000255085
0.00028499
0.000408092
0.000237833
0.000369277
0.000427942
0.000434749
0.000284586
0.000237482
0.000236144
0.000372807
0.000312561
0.00023588
0.000155648
0.000230275
0.00022936
0.000399392
0.00024068
0.00024333
0.000263319
0.000234544
0.000353012
0.000245736
0.000217184
0.000275027
0.000259617
0.000313075
0.00034917
0.000335148
0.000285715
0.000334413
0.000255577
0.000387499
0.000415886
0.000230571
0.000407744
0.000230145
0.000402683
0.000370355
0.000346174
0.000351481
0.000411326
0.00019345
0.000254031
0.000235876
0.000414475
0.000407855
0.000378158
0.000412484
0.000419545
0.000352568
0.000432091
0.000289141
0.000260405
0.000472229
0.000273747
0.000428947
0.000341524
0.000216601
0.000262568
0.000427566
0.000356498
0.000324044
0.000417277
0.000409862
0.000263838
0.000262758
0.000253983
0.000363667
0.000400861
0.000460688
0.000442537
0.000481511
0.000436323
0.000476814
0.000400017
0.000418796
0.000422043
0.000397871
0.000417988
0.000385167
0.000379435
0.000267332
0.000360467
0.000421568
0.000292334
0.000430564
0.000395557
0.00045708
0.000273787
0.000434648
0.000415648
0.000269086
0.0003731
0.000267252
0.000418967
0.000381863
0.000280166
0.000263523
0.000227199
0.000261373
0.000419529
0.000190743
0.00032274
0.000262526
0.0002951
0.00043505
0.000421386
0.000132838
0.000422904
0.000228442
0.000248509
0.0004327
0.00035174
0.000251397
0.000483052
0.000273934
0.000132837
0.000254127
0.000375816
0.000469356
0.00035539
0.000419175
0.00039207
0.000206289
0.000201429
0.000170843
0.000196044
0.000281055
0.000214014
0.0003452
0.000215256
0.000372585
0.000265716
0.000254507
0.000299229
0.000277101
0.000369355
0.000265719
0.000273128
0.00012189
0.000277195
0.000400765
0.000401042
0.000362488
0.000265233
0.000174048
0.000503567
0.00033743
0.000281395
0.000259309
0.00025994
0.000267426
0.000327935
0.000262701
0.000187042
0.000259308
0.000177099
0.000322801
0.000264436
0.000113607
0.000249123
0.000295962
0.000264404
0.000408896
0.000274673
0.000355188
0.000135011
0.000285021
0.000271518
0.000238723
0.000254877
0.000301394
0.000284502
0.000297254
0.000251839
0.000255863
0.000276459
0.000371141
0.000260547
0.000370292
0.000334061
0.000264741
0.000270307
0.000273035
0.000302358
0.000272625
0.000255067
0.000290086
0.00030559
0.000360004
0.000272994
0.000270936
0.000393802
0.000388295
0.00026073
0.000264795
0.00011635
0.000318572
0.000219584
0.000298818
0.000129696
0.000134634
0.000120327
0.000122293
0.000129744
0.000136661
0.000140843
0.000336286
0.00024949
0.000250585
0.000286085
0.000278472
0.000274982
0.000291664
0.00026908
0.000275191
0.000281738
0.000273961
0.000338002
0.000248511
0.000347399
0.000269494
0.000259933
0.000274294
0.000294354
0.00030639
0.000285183
0.00032691
0.000305132
0.000282665
0.000203439
0.000284558
0.000278509
0.000300806
0.000286836
0.000271672
0.00025846
0.000284866
0.000297422
0.000404187
0.000266255
0.00039296
0.000409134
0.000279942
0.00039236
0.000300711
0.000240495
0.000328843
0.000287441
0.000208179
0.000180419
0.000324818
0.00034607
0.000292128
0.000242698
0.000292671
0.000136887
0.000288822
0.000270816
0.000137159
5.34283e-05
5.84479e-05
0.000250219
0.000266346
0.000309689
0.000297412
2.75236e-05
2.87594e-05
0.000295225
0.000298311
0.000282364
0.000102747
0.00024917
0.000290862
0.000295633
0.000254984
0.00022508
0.000106973
0.00042824
0.000267997
0.000328047
0.000333177
0.000239161
0.000302758
0.000233834
0.000258055
0.000127111
0.000192401
0.000303114
0.000305276
0.000262171
0.000275229
0.000284126
0.000299632
0.00028657
0.000140184
0.000252451
0.00028323
0.000268595
0.000403208
0.000140145
0.000217788
0.000224301
0.000213509
0.000139242
0.00013925
0.000244464
0.000196278
0.000281262
0.00014999
0.000166239
5.43911e-05
5.43905e-05
0.000111466
0.000180237
0.000121494
0.000239615
0.000260105
0.000276742
0.000312032
0.00028328
0.000262359
0.000206218
0.000125982
0.000258783
0.000268468
0.000260081
0.000141777
0.000133209
0.000102207
0.000259701
0.000264712
0.000211883
0.000240068
0.000221588
0.000203641
0.000271638
0.000203621
0.000239556
0.000231462
0.000142438
0.000175872
0.000161116
0.00028737
0.000112056
0.000118079
0.000115447
0.000271559
0.00010676
0.000104434
0.000188355
9.74458e-05
0.000220534
0.000220866
0.000100051
0.000238827
0.000111392
0.000110386
0.000124715
0.000105311
0.000103696
0.000157216
0.000123351
0.00011177
0.000105653
0.000218952
0.000250411
0.000116592
0.000241674
9.57626e-05
0.000245267
0.00019454
0.000100078
8.49566e-05
9.452e-05
0.000125511
0.000210362
0.000174109
7.31145e-05
8.11435e-05
0.000234865
6.88219e-05
6.88209e-05
7.79774e-05
8.74374e-05
9.71786e-05
0.000114805
0.000189418
0.000175568
0.00023499
6.90887e-05
6.90878e-05
0.000207404
8.37743e-05
0.000167119
7.5927e-05
7.66104e-05
0.000100949
0.000178104
0.000184418
0.000196452
0.000180047
0.000178098
3.89774e-05
0.000287467
4.96881e-05
4.8185e-05
0.000232251
0.000230643
4.99361e-05
3.46747e-05
4.88272e-05
0.000214185
SCALARS rr_S' float
LOOKUP_TABLE default
0.000100061
0.00022966
0.000183302
0.000239698
0.000125573
0.000194545
9.89345e-05
0.000238354
0.00020474
0.000258084
9.08477e-05
0.000239084
0.000210369
0.000222269
0.000260674
0.000218473
0.000188049
0.000212467
0.000190082
0.000185973
0.000209181
3.73259e-05
0.000214325
0.000197552
0.00017907
0.000206703
8.42537e-05
0.000181499
0.000142021
0.000168217
0.000185845
0.000146816
9.33239e-05
0.000125994
0.00012386
0.000126277
0.000163552
0.000124103
0.000185653
0.000104899
0.000119371
0.000144146
0.000144161
0.000203964
0.000117175
0.000129506
0.000178907
0.000181224
0.000169908
0.000162094
0.000166487
0.000129226
0.000201523
0.000166055
0.000185524
8.5021e-05
0.00013225
0.000167272
0.000132245
0.000202745
0.000240044
0.000235399
8.29035e-05
0.00016597
0.000225471
0.000212672
0.0002322
0.000200765
0.000184754
0.000263582
0.000218641
0.000216258
0.000147491
0.000172184
0.00018218
9.63019e-05
0.000187917
0.000210698
0.000202453
0.000142628
0.00012852
0.000141765
0.00026801
0.000128671
0.000173672
6.43899e-05
0.000209659
0.000175379
0.00012409
1.83615e-05
0.000143887
1.99698e-05
0.000159458
0.000152652
0.000136184
0.000124075
0.000118039
0.000226581
0.000188055
0.000180735
0.000153317
0.000146912
0.000123459
0.000214564
0.000218143
0.000196445
0.000172891
0.000175192
0.000131054
0.000261805
0.000168101
8.84056e-05
0.00011819
0.000234816
0.00022001
0.000160364
0.000153357
9.80841e-05
0.00015906
0.000159734
0.000139077
0.000254084
0.000261737
0.000224928
0.000247377
0.000194286
0.000110029
0.000244637
0.000106908
0.000138095
0.000114209
0.000233507
0.000228214
0.000229278
0.000152801
9.31788e-05
0.000102291
0.000167991
0.000205485
9.31469e-05
0.000127628
0.000198044
0.000149826
0.0002418
0.000119378
0.000197283
0.000179054
0.000173026
0.000110591
0.000141118
0.000157518
0.000225337
0.000131728
0.000203966
0.000236303
0.000240064
0.000157117
0.000131471
0.000130727
0.000205918
0.000172752
0.000130641
8.63168e-05
0.000127563
0.000126975
0.000220547
0.000133241
0.00013471
0.000145844
0.000129844
0.000194699
0.000136015
0.000120312
0.000151831
0.000143696
0.000172773
0.000192581
0.000185094
0.000157529
0.000184666
0.000141555
0.000213975
0.000229651
0.000127651
0.000225059
0.000127498
0.000222264
0.000204377
0.000190924
0.000194084
0.000227034
0.000107193
0.000140605
0.000130643
0.000228867
0.000225268
0.000208859
0.000227653
0.000231663
0.000194629
0.000238587
0.000159858
0.00014411
0.000260628
0.000151617
0.00023673
0.00018853
0.000119932
0.00014486
0.000236086
0.000196671
0.000178912
0.000230433
0.000226196
0.000145957
0.000145068
0.000140547
0.000200687
0.000221316
0.000254347
0.000244342
0.000265854
0.000240904
0.000263262
0.000220874
0.000231029
0.000232824
0.000219485
0.000230581
0.000212375
0.000209214
0.000147897
0.000199032
0.000232814
0.00016158
0.000237511
0.000218195
0.000252422
0.000151513
0.000240043
0.000229516
0.000148857
0.00020584
0.000147846
0.000231217
0.000210896
0.000154984
0.000145822
0.000125906
0.000144837
0.000231531
0.000105716
0.000178275
0.000145275
0.00016316
0.000240267
0.000232651
7.31629e-05
0.000233493
0.000126615
0.000137518
0.000238963
0.000194257
0.000139126
0.000266698
0.000151465
7.31628e-05
0.000140625
0.000207486
0.000259074
0.000196284
0.000231231
0.000216413
0.000113741
0.000111258
9.47303e-05
0.000108729
0.00015499
0.000118264
0.000190646
0.000119081
0.000205554
0.000146691
0.000140837
0.00016519
0.000153266
0.000203963
0.00014697
0.000151146
6.71024e-05
0.000152875
0.000221069
0.000221224
0.000200152
0.000146694
9.59138e-05
0.000277964
0.000186494
0.00015563
0.000143443
0.000143346
0.000147939
0.000180871
0.000145309
0.000103741
0.000143419
9.8148e-05
0.000178133
0.000146284
6.25426e-05
0.000137799
0.000163345
0.000146277
0.000225688
0.000151934
0.000196218
7.49e-05
0.000157475
0.000150205
0.000131649
0.000141003
0.000166577
0.000157029
0.000164132
0.000139302
0.000141512
0.000152864
0.000204811
0.000144105
0.000204503
0.000184547
0.00014597
0.000149501
0.000150975
0.000167095
0.000150738
0.000141082
0.00016039
0.000168606
0.000198824
0.000150948
0.000149884
0.000217452
0.000214409
0.000144209
0.000146001
6.46374e-05
0.000175994
0.000121685
0.000165134
7.22922e-05
7.50438e-05
6.70667e-05
6.81635e-05
7.2315e-05
7.61756e-05
7.85045e-05
0.000185571
0.000137511
0.000138407
0.00015812
0.000153966
0.000152042
0.00016106
0.000148784
0.000152168
0.000155283
0.000151477
0.00018647
0.000137552
0.000191661
0.000148892
0.000143667
0.000151665
0.000162322
0.000169264
0.000157616
0.000180599
0.000168641
0.000156298
0.000112592
0.000157278
0.00015387
0.000165946
0.000158582
0.000150228
0.000142897
0.000157455
0.000164322
0.000223195
0.000147208
0.000216998
0.000226053
0.00015473
0.000216688
0.000166145
0.000132975
0.000181504
0.000158855
0.000114747
0.000100067
0.000179242
0.00019094
0.000161396
0.000134126
0.000161562
7.60407e-05
0.00015957
0.000149669
7.6089e-05
2.94142e-05
3.21771e-05
0.000138233
0.000147263
0.00017114
0.000164429
1.51386e-05
1.58183e-05
0.000163042
0.000164746
0.000155944
5.70772e-05
0.00013778
0.000160526
0.000163403
0.000140943
0.000124407
5.94302e-05
0.000236373
0.000148181
0.000181233
0.000184066
0.000132197
0.000167331
0.000129253
0.000142634
7.05408e-05
0.000106627
0.000167529
0.00016865
0.000144889
0.000152138
0.000157028
0.000165586
0.000158373
7.77515e-05
0.000139258
0.000156594
0.000148275
0.000222549
7.77327e-05
0.000120321
0.000123926
0.000117723
7.66604e-05
7.66654e-05
0.000134824
0.000108534
0.000155388
8.31984e-05
9.15352e-05
2.99204e-05
2.99202e-05
6.1931e-05
9.93075e-05
6.69234e-05
0.000132387
0.000143464
0.000152855
0.000172292
0.000156352
0.000144784
0.000113889
6.99845e-05
0.000142956
0.000148212
0.00014354
7.87081e-05
7.3391e-05
5.67059e-05
0.000143333
0.000146162
0.000117205
0.000132604
0.000122381
0.000112275
0.00015001
0.000112265
0.000132343
0.000127744
7.84679e-05
9.68823e-05
8.93684e-05
0.000158663
6.22717e-05
6.56111e-05
6.41648e-05
0.000149891
5.93103e-05
5.80511e-05
0.000104116
5.41562e-05
0.000121558
0.000121741
5.55989e-05
0.000131983
6.18163e-05
6.13454e-05
6.92181e-05
5.85266e-05
5.75522e-05
8.66203e-05
6.84363e-05
6.20925e-05
5.87123e-05
0.000120928
0.000138172
6.47158e-05
0.000133476
5.32289e-05
0.000135433
0.000107505
5.5621e-05
4.71607e-05
5.25368e-05
6.97343e-05
0.000116228
9.5959e-05
4.02246e-05
4.46453e-05
0.000129676
3.78635e-05
3.78631e-05
4.2902e-05
4.81296e-05
5.39093e-05
6.32476e-05
0.000104461
9.67623e-05
0.000129754
3.80249e-05
3.80245e-05
0.000114296
4.65484e-05
9.23569e-05
4.21849e-05
4.25087e-05
5.60108e-05
9.80753e-05
0.000101554
0.000108185
9.91494e-05
9.80725e-05
2.1446e-05
0.000158305
2.73472e-05
2.6509e-05
0.00012789
0.000127004
2.74718e-05
1.90782e-05
2.68728e-05
0.000117954
SCALARS rr_P' float
LOOKUP_TABLE default
3.68839e-05
7.83555e-05
6.29647e-05
8.18941e-05
4.19978e-05
6.68376e-05
3.64779e-05
8.15018e-05
7.07927e-05
8.80777e-05
3.33386e-05
8.17522e-05
7.20488e-05
7.57722e-05
8.78374e-05
7.49573e-05
6.39325e-05
7.27208e-05
6.5959e-05
6.40095e-05
7.20699e-05
1.21506e-05
7.38434e-05
6.79879e-05
6.16405e-05
7.06556e-05
3.05846e-05
6.22947e-05
5.03492e-05
5.56524e-05
6.36637e-05
5.20408e-05
3.39127e-05
4.18792e-05
4.10654e-05
4.19762e-05
5.40625e-05
4.11857e-05
6.3608e-05
3.81105e-05
4.23279e-05
4.76323e-05
4.76402e-05
6.98685e-05
4.22732e-05
4.58591e-05
6.19769e-05
6.25786e-05
5.83554e-05
5.77443e-05
5.91435e-05
4.54468e-05
6.74815e-05
5.83835e-05
6.21618e-05
3.05958e-05
4.38389e-05
5.88118e-05
4.38401e-05
6.97564e-05
8.16366e-05
7.9527e-05
2.99431e-05
5.60912e-05
7.61651e-05
7.23004e-05
7.8949e-05
6.86212e-05
6.3622e-05
8.99131e-05
7.32251e-05
7.24297e-05
5.22993e-05
5.83924e-05
6.25611e-05
3.51106e-05
6.32173e-05
7.16335e-05
6.92038e-05
5.00735e-05
4.58523e-05
4.72939e-05
9.08458e-05
4.60084e-05
6.14234e-05
2.32079e-05
7.19594e-05
5.95486e-05
4.47637e-05
6.00171e-06
5.05963e-05
6.52827e-06
5.36231e-05
5.19437e-05
4.78527e-05
4.411e-05
4.21066e-05
7.73344e-05
6.32701e-05
6.19416e-05
5.34387e-05
5.18617e-05
4.41526e-05
7.33851e-05
7.45069e-05
6.70815e-05
5.85481e-05
6.00804e-05
4.6874e-05
8.92319e-05
5.78325e-05
3.18138e-05
4.23834e-05
8.03479e-05
7.51561e-05
5.6368e-05
5.08402e-05
3.49987e-05
5.27433e-05
5.61316e-05
4.83444e-05
8.56917e-05
8.93077e-05
7.63614e-05
8.42703e-05
6.5422e-05
3.65788e-05
8.35e-05
3.81356e-05
4.85258e-05
3.82522e-05
7.97129e-05
7.73874e-05
7.82481e-05
5.39338e-05
3.08883e-05
3.66443e-05
5.75044e-05
6.96514e-05
3.08798e-05
4.50095e-05
6.75679e-05
5.20169e-05
8.25153e-05
4.26108e-05
6.74173e-05
6.11632e-05
5.94281e-05
3.79927e-05
4.93042e-05
5.44071e-05
7.68889e-05
4.67016e-05
6.98454e-05
8.06429e-05
8.19451e-05
5.34996e-05
4.63276e-05
4.60551e-05
7.05283e-05
5.96461e-05
4.62892e-05
3.10791e-05
4.5317e-05
4.47486e-05
7.53066e-05
4.6954e-05
4.74769e-05
5.17026e-05
4.5752e-05
6.54629e-05
4.78225e-05
4.2745e-05
5.16619e-05
5.05139e-05
5.85236e-05
6.47546e-05
6.32967e-05
5.27296e-05
6.30539e-05
5.01775e-05
7.30388e-05
7.83963e-05
4.5012e-05
7.6404e-05
4.53209e-05
7.54588e-05
6.91966e-05
6.41739e-05
6.62407e-05
7.70671e-05
3.82058e-05
4.94301e-05
4.63104e-05
7.81137e-05
7.7123e-05
7.14774e-05
7.72008e-05
7.90551e-05
6.61838e-05
8.14041e-05
5.54155e-05
5.05639e-05
8.839e-05
5.37381e-05
8.02447e-05
6.40988e-05
4.23573e-05
4.88937e-05
8.05432e-05
6.63333e-05
6.09649e-05
7.87196e-05
7.66677e-05
5.09818e-05
4.94006e-05
4.92746e-05
6.79495e-05
7.54032e-05
8.66597e-05
8.33231e-05
9.06249e-05
8.21155e-05
8.97425e-05
7.5337e-05
7.78885e-05
7.85115e-05
7.39973e-05
7.77307e-05
7.11525e-05
7.00916e-05
5.16877e-05
6.78734e-05
7.96098e-05
5.58135e-05
8.00325e-05
7.35016e-05
8.6296e-05
5.31513e-05
8.21035e-05
7.83343e-05
5.19755e-05
6.94702e-05
5.16414e-05
7.83524e-05
7.21569e-05
5.41071e-05
5.11064e-05
4.49283e-05
5.16602e-05
7.84727e-05
3.77776e-05
6.11073e-05
5.09349e-05
5.65907e-05
8.21874e-05
7.92771e-05
2.41659e-05
7.95799e-05
4.52683e-05
4.82149e-05
8.17163e-05
6.6427e-05
4.88239e-05
9.08851e-05
5.25656e-05
2.41672e-05
4.92957e-05
7.06804e-05
8.79925e-05
6.71723e-05
7.79309e-05
7.34959e-05
3.80871e-05
3.81074e-05
3.40489e-05
3.91905e-05
5.20119e-05
4.07386e-05
6.51917e-05
4.15914e-05
6.9366e-05
4.99153e-05
4.93747e-05
5.61997e-05
5.34048e-05
6.96476e-05
5.12068e-05
5.30137e-05
2.20308e-05
5.13629e-05
7.44767e-05
7.45389e-05
6.82681e-05
5.1082e-05
3.1908e-05
9.44343e-05
6.43768e-05
5.41792e-05
5.00593e-05
4.81062e-05
5.16585e-05
6.08236e-05
5.06679e-05
3.74191e-05
4.99505e-05
3.50473e-05
6.03033e-05
5.10789e-05
2.05358e-05
4.80484e-05
5.53987e-05
5.11223e-05
7.65959e-05
5.29889e-05
6.73427e-05
2.70847e-05
5.41328e-05
5.24579e-05
4.41975e-05
4.92657e-05
5.75012e-05
5.32887e-05
5.59865e-05
4.85793e-05
4.92817e-05
5.3062e-05
6.93418e-05
5.01911e-05
6.99298e-05
6.33355e-05
4.88848e-05
5.20634e-05
5.24256e-05
5.76111e-05
5.22986e-05
4.91725e-05
5.56379e-05
5.69512e-05
6.80013e-05
5.23984e-05
5.23551e-05
7.42074e-05
7.31592e-05
5.02432e-05
4.88987e-05
2.37832e-05
6.04171e-05
4.34175e-05
5.69167e-05
2.76845e-05
2.87357e-05
2.56701e-05
2.60947e-05
2.76783e-05
2.91741e-05
3.00567e-05
6.28055e-05
4.58422e-05
4.73985e-05
5.46021e-05
5.34038e-05
5.27532e-05
5.4995e-05
5.16504e-05
5.28454e-05
5.17583e-05
5.2559e-05
6.29041e-05
4.83703e-05
6.4695e-05
5.11646e-05
4.96161e-05
5.26383e-05
5.4463e-05
5.81046e-05
5.44034e-05
6.19914e-05
5.82049e-05
5.42676e-05
3.95399e-05
5.43199e-05
5.28577e-05
5.59665e-05
5.4964e-05
5.21974e-05
4.95417e-05
5.44055e-05
5.6461e-05
7.62045e-05
5.10411e-05
7.4097e-05
7.77272e-05
5.34528e-05
7.40849e-05
5.71159e-05
4.61495e-05
6.16032e-05
5.479e-05
3.82769e-05
3.60912e-05
6.06625e-05
6.44964e-05
5.54516e-05
4.62485e-05
5.49356e-05
2.79519e-05
5.48286e-05
5.16278e-05
2.75029e-05
9.66175e-06
1.0567e-05
4.74579e-05
5.10817e-05
5.89776e-05
5.69865e-05
4.91234e-06
5.13289e-06
5.57435e-05
5.63188e-05
5.33308e-05
2.09837e-05
4.78515e-05
5.44234e-05
5.64434e-05
4.87181e-05
4.29799e-05
2.18778e-05
8.02584e-05
5.14206e-05
6.22304e-05
6.32025e-05
4.57008e-05
5.77622e-05
4.46838e-05
4.92774e-05
2.5615e-05
3.80686e-05
5.78346e-05
5.79032e-05
4.99683e-05
5.26103e-05
5.41826e-05
5.70817e-05
5.46195e-05
2.80412e-05
4.69162e-05
5.42985e-05
5.0427e-05
7.55326e-05
2.8048e-05
4.13277e-05
4.25952e-05
3.94249e-05
2.51966e-05
2.51992e-05
4.53036e-05
3.76995e-05
5.33683e-05
3.00436e-05
3.01334e-05
9.72637e-06
9.72662e-06
2.28176e-05
3.2959e-05
2.21399e-05
4.55023e-05
4.82595e-05
5.23474e-05
5.87715e-05
5.30558e-05
4.90324e-05
3.8945e-05
2.57311e-05
4.904e-05
5.04369e-05
4.86711e-05
2.87093e-05
2.434e-05
2.05229e-05
4.86157e-05
4.98428e-05
4.08917e-05
4.54294e-05
4.18612e-05
3.75814e-05
5.12585e-05
3.75801e-05
4.54356e-05
4.33097e-05
2.59932e-05
3.20758e-05
3.2263e-05
5.40688e-05
2.29878e-05
2.4185e-05
2.37276e-05
5.08937e-05
2.18239e-05
2.15007e-05
3.60012e-05
2.00101e-05
4.05428e-05
4.06061e-05
2.05181e-05
4.5502e-05
2.24407e-05
2.26542e-05
2.51654e-05
2.16197e-05
2.09244e-05
2.87357e-05
2.47762e-05
2.28408e-05
2.16712e-05
4.1376e-05
4.67158e-05
2.3557e-05
4.56628e-05
1.97055e-05
4.62177e-05
3.70441e-05
2.05573e-05
1.71868e-05
1.94398e-05
2.56928e-05
3.99626e-05
3.19672e-05
1.30959e-05
1.45502e-05
4.41964e-05
1.233e-05
1.23302e-05
1.39768e-05
1.5778e-05
1.94885e-05
2.09603e-05
3.50805e-05
3.2234e-05
4.42657e-05
1.24447e-05
1.2445e-05
3.80177e-05
1.71643e-05
3.18471e-05
1.55383e-05
1.5403e-05
2.02868e-05
3.23166e-05
3.34697e-05
3.56735e-05
3.26883e-05
3.23172e-05
6.99202e-06
5.21903e-05
8.95038e-06
8.62887e-06
4.21343e-05
4.18382e-05
8.93921e-06
6.21831e-06
8.7922e-06
3.89137e-05
SCALARS rr_T' float
LOOKUP_TABLE default
0.00020978
0.000477913
0.000381679
0.000498867
0.000260835
0.000405097
0.000207424
0.0004961
0.00042658
0.000537074
0.000190386
0.00049762
0.000437919
0.000462494
0.000541836
0.000454864
0.000391195
0.000442264
0.000396174
0.000387314
0.000435687
7.73475e-05
0.000446404
0.000411425
0.000372941
0.000430213
0.000176372
0.000377898
0.00029661
0.000349081
0.000386875
0.00030662
0.000195379
0.000261569
0.000257078
0.000262158
0.000339376
0.000257603
0.000386482
0.000219607
0.000249311
0.000299099
0.000299131
0.000424593
0.000245139
0.000270441
0.000372823
0.000377537
0.000353785
0.000338691
0.000347776
0.000269679
0.000418646
0.000346526
0.000385429
0.000177824
0.000274487
0.000349066
0.000274478
0.000422229
0.000499375
0.00048941
0.000173457
0.000345072
0.000468766
0.000442411
0.000483046
0.000417851
0.000384793
0.000548496
0.000454213
0.000449263
0.000308039
0.000358106
0.000379333
0.000201681
0.000390541
0.000438308
0.000421368
0.000297599
0.000268577
0.000294402
0.000557384
0.000268952
0.000362627
0.000134695
0.000436529
0.000364791
0.000259603
3.8063e-05
0.00030027
4.13976e-05
0.000331385
0.000317583
0.000284176
0.0002592
0.00024667
0.00047152
0.000390831
0.000376253
0.000319681
0.000306697
0.000258062
0.000446599
0.000453991
0.000408825
0.000359531
0.000364736
0.00027394
0.000544761
0.000350079
0.000184905
0.000247115
0.000488772
0.000457882
0.000334642
0.000318296
0.000204975
0.000330142
0.000333319
0.000289915
0.000528181
0.00054467
0.00046785
0.000514714
0.000403817
0.000228427
0.000509097
0.000223409
0.000288164
0.000237264
0.000485945
0.000474638
0.000477132
0.000318985
0.000193395
0.000213848
0.000349684
0.000427351
0.00019333
0.000266415
0.000412116
0.000312285
0.000503183
0.000249482
0.000410598
0.000372641
0.000360279
0.00023028
0.000294312
0.00032816
0.000468924
0.000275115
0.000424583
0.000491746
0.000499586
0.000326892
0.000274414
0.000272856
0.000428657
0.000359883
0.000272828
0.000180546
0.000266468
0.000265034
0.000458981
0.000278111
0.000281179
0.000304593
0.000271017
0.000404619
0.00028384
0.000251324
0.000315872
0.000299863
0.000359295
0.000400219
0.000385252
0.000327238
0.000384307
0.000295632
0.00044529
0.000477917
0.000266459
0.000468117
0.000266346
0.00046231
0.000424997
0.000396761
0.000403891
0.000472223
0.000223986
0.000293414
0.000272844
0.000476279
0.000468921
0.000434748
0.000473471
0.000482092
0.000404887
0.000496493
0.000333148
0.000300674
0.000542057
0.000316643
0.000492332
0.000392193
0.000250385
0.000301149
0.000491286
0.000408831
0.000372261
0.000479574
0.00047042
0.000304396
0.000301823
0.000293218
0.000417325
0.000460495
0.000529225
0.000508449
0.000553192
0.000501273
0.000547798
0.000459615
0.000480239
0.000483981
0.000456244
0.000479305
0.00044121
0.000434642
0.000308457
0.000414158
0.000484584
0.000336621
0.00049369
0.000453527
0.000525385
0.000316114
0.000499642
0.000477626
0.000310432
0.000427916
0.000308336
0.000480853
0.000438987
0.000323206
0.000304213
0.000263118
0.00030267
0.000481512
0.000220955
0.000371138
0.000303083
0.000340047
0.000500112
0.000484086
0.000151805
0.000485847
0.000264649
0.0002869
0.000497384
0.000404322
0.000290281
0.000554934
0.00031569
0.000151805
0.000293377
0.000431713
0.000538895
0.000408571
0.000480646
0.000450151
0.000236285
0.000231605
0.000198109
0.000227447
0.000322039
0.000246318
0.000396804
0.000248343
0.000427317
0.00030518
0.000293821
0.00034366
0.000319563
0.000424467
0.000306433
0.000315344
0.000139155
0.000317678
0.000459506
0.000459834
0.000416494
0.000305843
0.000199136
0.000578201
0.000388504
0.000324464
0.000299126
0.000297846
0.000308521
0.000375886
0.000302994
0.00021703
0.00029902
0.000205123
0.000370419
0.000305069
0.000129701
0.000287333
0.000339727
0.00030508
0.000469417
0.000316814
0.000408541
0.000156729
0.000327924
0.00031325
0.000273552
0.000294073
0.000347013
0.000326606
0.000341545
0.000290472
0.000295042
0.000318611
0.000425899
0.00030045
0.000425646
0.000384239
0.000303241
0.000311697
0.000314685
0.000348051
0.000314166
0.000294167
0.000334278
0.000350537
0.000413834
0.000314619
0.000312587
0.000452513
0.000446175
0.000300678
0.000303306
0.000135494
0.000366441
0.000254294
0.000343957
0.000152171
0.000157962
0.000141164
0.000143476
0.000152211
0.000160346
0.000165243
0.000385878
0.000285553
0.000288117
0.000329407
0.000320888
0.000316884
0.000335181
0.000310111
0.000317176
0.000322454
0.000315709
0.000387631
0.000287052
0.000398449
0.000310042
0.0002993
0.000316108
0.000337267
0.000352426
0.000328343
0.000376025
0.000351307
0.000325778
0.000234934
0.000327658
0.000320395
0.000344959
0.000330483
0.000313146
0.000297805
0.000328039
0.000342167
0.000464486
0.000306791
0.000451593
0.000470742
0.000322356
0.000451001
0.00034598
0.000277154
0.000377518
0.0003309
0.000238295
0.000209342
0.000372717
0.000396972
0.000336071
0.00027938
0.000336097
0.000159382
0.000332273
0.000311768
0.00015921
6.10008e-05
6.67295e-05
0.000287821
0.000306918
0.00035646
0.000342665
3.13618e-05
3.27699e-05
0.000339348
0.000342889
0.00032458
0.000119635
0.000287187
0.000333853
0.000340419
0.000293647
0.000259185
0.000124585
0.000491661
0.000308842
0.000377356
0.000383256
0.00027543
0.000348583
0.000269296
0.000297157
0.00014767
0.00022284
0.000348998
0.000351154
0.000301805
0.000316985
0.000327107
0.000344903
0.000329893
0.000162657
0.000289455
0.000326354
0.00030846
0.000462889
0.000162625
0.000250536
0.00025806
0.000244559
0.000158993
0.000159004
0.000280173
0.000226231
0.000323551
0.000174073
0.00018987
6.19942e-05
6.19939e-05
0.000129838
0.000206137
0.000138878
0.000275677
0.000298154
0.000318193
0.000358527
0.0003252
0.000301081
0.000237046
0.000146691
0.000297631
0.000308346
0.00029853
0.000164842
0.000152332
0.000118667
0.000298108
0.00030414
0.000244406
0.000276045
0.000254726
0.000233235
0.000312206
0.000233214
0.000275556
0.000265674
0.000162854
0.000201062
0.000186977
0.000330134
0.000130574
0.000137555
0.000134567
0.000311776
0.000124327
0.000121766
0.000216928
0.000113568
0.000252432
0.000252814
0.000116578
0.000274915
0.000129402
0.000128636
0.000144919
0.000122729
0.000120495
0.000179794
0.000143223
0.000130155
0.000123109
0.000251708
0.000287289
0.000135509
0.000277823
0.000111646
0.000281834
0.000223916
0.000116642
9.8762e-05
0.000110187
0.000146198
0.000242036
0.000199253
8.33555e-05
9.25248e-05
0.000269822
7.84645e-05
7.84638e-05
8.89091e-05
9.97974e-05
0.000112805
0.00013127
0.000217065
0.000200921
0.00027001
7.88335e-05
7.88329e-05
0.000237295
9.75972e-05
0.000192378
8.84374e-05
8.89673e-05
0.000117222
0.000203453
0.000210673
0.000224439
0.000205691
0.000203448
4.44472e-05
0.00032841
5.66967e-05
5.49324e-05
0.000265299
0.000263458
5.69257e-05
3.95388e-05
5.57114e-05
0.000244717
SCALARS rr_uec(SIM,_S_ext) float
LOOKUP_TABLE default
0.0134339
0.0306067
0.0244434
0.0319487
0.0167045
0.0259431
0.013283
0.0317712
0.0273188
0.0343954
0.0121923
0.0318685
0.0280451
0.0296192
0.0347007
0.0291303
0.0250531
0.0283235
0.0253715
0.0248043
0.027902
0.0049536
0.0285885
0.0263484
0.0238838
0.0275518
0.0112948
0.0242013
0.018995
0.0223563
0.0247762
0.0196361
0.0125119
0.0167517
0.016464
0.0167894
0.0217347
0.0164976
0.024751
0.0140635
0.015966
0.0191553
0.0191573
0.0271917
0.0156987
0.0173191
0.0238761
0.024178
0.022657
0.0216899
0.0222717
0.0172704
0.0268112
0.0221917
0.0246839
0.0113877
0.0175789
0.0223544
0.0175783
0.0270403
0.0319813
0.031343
0.0111081
0.0220992
0.0300209
0.028333
0.0309355
0.0267601
0.0246429
0.0351271
0.029089
0.028772
0.019727
0.0229339
0.0242931
0.0129155
0.0250112
0.0280701
0.0269854
0.0190585
0.0171997
0.0188542
0.0356963
0.0172237
0.0232227
0.00862585
0.0279562
0.023362
0.016625
0.00243768
0.0192295
0.00265124
0.0212228
0.0203387
0.0181988
0.0165993
0.0157967
0.0301972
0.0250297
0.0240959
0.0204726
0.0196409
0.0165263
0.0286012
0.0290746
0.0261821
0.0230253
0.0233583
0.0175431
0.034888
0.0224197
0.0118413
0.0158253
0.0313021
0.0293238
0.0214306
0.0203845
0.0131265
0.0211431
0.0213459
0.0185665
0.0338262
0.0348821
0.0299622
0.0329637
0.0258616
0.0146291
0.0326037
0.0143071
0.0184542
0.0151951
0.0311212
0.0303971
0.0305568
0.0204279
0.0123856
0.0136947
0.0223944
0.0273686
0.0123814
0.0170613
0.0263927
0.0199991
0.032225
0.0159767
0.0262956
0.0238647
0.0230728
0.0147475
0.018848
0.0210159
0.0300311
0.0176185
0.0271911
0.0314925
0.0319948
0.0209349
0.0175735
0.0174738
0.0274521
0.0230474
0.0174721
0.0115621
0.0170648
0.0169729
0.0293942
0.0178103
0.0180068
0.0195063
0.017356
0.0259128
0.0181773
0.0160949
0.0202291
0.0192034
0.0230102
0.0256311
0.0246723
0.0209572
0.0246118
0.0189324
0.0285174
0.0306069
0.0170641
0.0299792
0.0170569
0.0296074
0.0272178
0.0254095
0.0258661
0.0302421
0.014344
0.0187904
0.0174731
0.0305021
0.0300307
0.0278423
0.0303223
0.0308744
0.0259298
0.0317967
0.0213353
0.0192554
0.0347147
0.0202779
0.0315302
0.0251168
0.0160347
0.0192863
0.0314632
0.0261825
0.0238404
0.030713
0.0301269
0.0194939
0.0193294
0.0187779
0.0267265
0.0294914
0.0338931
0.0325626
0.035428
0.0321029
0.0350825
0.0294348
0.0307558
0.0309955
0.0292191
0.030696
0.0282563
0.0278357
0.0197539
0.0265236
0.0310341
0.0215577
0.0316172
0.0290451
0.0336471
0.0202443
0.0319985
0.0305883
0.0198804
0.0274048
0.0197461
0.030795
0.028114
0.0206985
0.0194821
0.0168501
0.0193831
0.0308373
0.0141499
0.0237684
0.0194097
0.0217771
0.0320286
0.0310022
0.00972205
0.031115
0.016948
0.0183734
0.0318539
0.0258935
0.0185899
0.0355396
0.0202172
0.00972207
0.0187881
0.0276481
0.0345121
0.0261658
0.0307819
0.0288286
0.0151323
0.0148324
0.0126869
0.0145657
0.0206241
0.0157746
0.0254121
0.0159041
0.0273665
0.0195444
0.0188166
0.0220087
0.0204651
0.0271837
0.0196243
0.020195
0.00891198
0.020345
0.0294281
0.0294491
0.0266732
0.0195864
0.0127533
0.0370293
0.0248803
0.020779
0.0191563
0.0190748
0.019758
0.0240727
0.0194039
0.0138987
0.0191495
0.013136
0.0237225
0.0195369
0.00830648
0.018401
0.0217569
0.0195376
0.0300626
0.020289
0.0261637
0.0100367
0.0210009
0.0200608
0.017519
0.0188328
0.0222232
0.0209166
0.0218734
0.0186021
0.0188947
0.0204042
0.0272755
0.0192411
0.0272592
0.0246074
0.0194203
0.0199614
0.0201528
0.0222897
0.0201195
0.0188387
0.0214075
0.0224492
0.0265027
0.0201486
0.0200184
0.0289798
0.0285739
0.0192557
0.0194245
0.00867703
0.0234675
0.016285
0.0220275
0.00974516
0.010116
0.00904028
0.0091883
0.00974776
0.0102686
0.0105822
0.0247125
0.0182876
0.0184516
0.0210957
0.0205501
0.0202936
0.0214656
0.0198599
0.0203123
0.0206508
0.0202184
0.0248248
0.018383
0.0255178
0.0198557
0.0191676
0.0202439
0.0215994
0.02257
0.0210276
0.0240813
0.0224983
0.0208632
0.0150454
0.0209837
0.0205186
0.022092
0.0211646
0.0200543
0.0190718
0.0210081
0.0219129
0.0297466
0.0196474
0.0289209
0.0301472
0.0206442
0.028883
0.0221572
0.0177493
0.0241772
0.0211913
0.0152611
0.0134063
0.0238697
0.025423
0.0215226
0.0178919
0.0215244
0.0102068
0.0212793
0.0199661
0.0101957
0.00390668
0.00427356
0.0184326
0.0196555
0.0228282
0.0219448
0.00200851
0.00209869
0.0217326
0.0219592
0.0207867
0.00766135
0.0183919
0.0213807
0.0218009
0.0188056
0.0165986
0.00797842
0.0314871
0.0197787
0.0241665
0.0245443
0.0176389
0.0223238
0.0172461
0.0190303
0.00945671
0.0142706
0.0223504
0.0224885
0.019328
0.0203001
0.0209484
0.0220881
0.0211269
0.0104165
0.0185374
0.0209002
0.0197544
0.0296445
0.0104145
0.0160448
0.0165266
0.0156622
0.0101825
0.0101832
0.017943
0.0144881
0.0207207
0.0111477
0.01216
0.00397032
0.0039703
0.00831485
0.0132016
0.00889419
0.0176548
0.0190945
0.0203778
0.0229609
0.0208266
0.0192819
0.0151809
0.00939408
0.0190608
0.0197471
0.0191185
0.0105564
0.00975584
0.00759927
0.0190916
0.0194777
0.015652
0.0176784
0.0163131
0.014937
0.0199943
0.0149357
0.0176471
0.0170144
0.0104297
0.0128766
0.011974
0.0211426
0.00836165
0.00880868
0.00861742
0.0199668
0.00796183
0.00779764
0.0138924
0.00727265
0.0161664
0.0161908
0.00746542
0.017606
0.0082868
0.00823751
0.00928051
0.00785924
0.00771641
0.0115145
0.009172
0.00833507
0.00788366
0.0161198
0.0183987
0.00867789
0.0177923
0.0071496
0.0180492
0.01434
0.00746948
0.00632465
0.00705614
0.00936253
0.0155004
0.0127607
0.00533839
0.00592562
0.01728
0.00502515
0.0050251
0.00569406
0.00639137
0.00722402
0.00840691
0.0139014
0.0128675
0.017292
0.00504877
0.00504873
0.015197
0.00625013
0.0123202
0.00566348
0.00569732
0.00750679
0.0130299
0.0134922
0.0143738
0.0131732
0.0130295
0.00284655
0.0210325
0.00363105
0.00351805
0.0169906
0.0168728
0.00364571
0.0025322
0.00356795
0.0156725
SCALARS rr_uec(PEX,_P_ext) float
LOOKUP_TABLE default
-0.0609858
-0.138992
-0.111
-0.145085
-0.075866
-0.11781
-0.0603009
-0.144279
-0.124054
-0.156197
-0.0553496
-0.144721
-0.127357
-0.134508
-0.157592
-0.132284
-0.113774
-0.128622
-0.115209
-0.112637
-0.126704
-0.0225003
-0.129821
-0.11965
-0.108457
-0.125118
-0.051278
-0.109901
-0.0862462
-0.101539
-0.112512
-0.089157
-0.0568036
-0.0760821
-0.0747767
-0.0762535
-0.0987165
-0.0749289
-0.112398
-0.0638479
-0.0724928
-0.0870011
-0.0870102
-0.123482
-0.0712736
-0.0786374
-0.108419
-0.109792
-0.102888
-0.0984798
-0.101123
-0.0784186
-0.121766
-0.100765
-0.112105
-0.0517024
-0.0798403
-0.101503
-0.0798377
-0.122792
-0.145236
-0.142342
-0.0504317
-0.100362
-0.136338
-0.128669
-0.140487
-0.121522
-0.111904
-0.15952
-0.132111
-0.130671
-0.0895694
-0.104151
-0.110318
-0.0586349
-0.113589
-0.127475
-0.122545
-0.0865381
-0.0780925
-0.0856303
-0.162109
-0.0782007
-0.105443
-0.0391624
-0.126952
-0.106095
-0.0754791
-0.0110723
-0.0873141
-0.0120422
-0.0963838
-0.0923638
-0.0826342
-0.0753675
-0.0717225
-0.137132
-0.113673
-0.109423
-0.0929624
-0.0891809
-0.0750343
-0.129883
-0.132033
-0.118898
-0.104566
-0.106073
-0.0796508
-0.158434
-0.101809
-0.0537614
-0.0718504
-0.142148
-0.133165
-0.0973088
-0.0925833
-0.059599
-0.0960286
-0.0969243
-0.084308
-0.15362
-0.158407
-0.136068
-0.149696
-0.11745
-0.066442
-0.14806
-0.0649591
-0.083794
-0.06901
-0.141327
-0.138044
-0.138765
-0.0927542
-0.0562533
-0.0621778
-0.101697
-0.124291
-0.0562343
-0.0774682
-0.119856
-0.0908138
-0.146341
-0.0725399
-0.119413
-0.108374
-0.104776
-0.0669698
-0.0855843
-0.0954327
-0.136377
-0.0799961
-0.123479
-0.143014
-0.145295
-0.0950708
-0.0797944
-0.0793416
-0.124664
-0.104658
-0.0793313
-0.0524937
-0.077481
-0.0770668
-0.133485
-0.0808695
-0.0817615
-0.0885674
-0.0788066
-0.117684
-0.0825364
-0.0730774
-0.0918662
-0.0871958
-0.104498
-0.116404
-0.112042
-0.0951796
-0.111768
-0.0859619
-0.129503
-0.138992
-0.0774811
-0.136146
-0.0774454
-0.134457
-0.123607
-0.115399
-0.117463
-0.13734
-0.0651273
-0.0853205
-0.079336
-0.138516
-0.136374
-0.126436
-0.137704
-0.140207
-0.117755
-0.144395
-0.0968816
-0.0874325
-0.157651
-0.0920713
-0.14319
-0.114063
-0.0728064
-0.0875877
-0.142881
-0.118907
-0.108265
-0.139474
-0.136817
-0.088517
-0.0877799
-0.0852647
-0.121375
-0.133927
-0.153916
-0.147873
-0.160886
-0.145786
-0.159317
-0.13367
-0.139676
-0.140765
-0.132698
-0.139405
-0.128329
-0.126419
-0.0896976
-0.12045
-0.140931
-0.0978931
-0.143589
-0.131908
-0.152797
-0.0919225
-0.14531
-0.138908
-0.0902721
-0.124458
-0.0896625
-0.139851
-0.12767
-0.093987
-0.0884621
-0.0765051
-0.0880058
-0.140043
-0.064245
-0.107935
-0.0881334
-0.0988875
-0.145446
-0.140788
-0.0441565
-0.1413
-0.0769492
-0.0834275
-0.144653
-0.117587
-0.0844103
-0.161393
-0.091804
-0.0441566
-0.085311
-0.125557
-0.15673
-0.118823
-0.139795
-0.13092
-0.068725
-0.0673563
-0.0576008
-0.0661299
-0.0936662
-0.071633
-0.115401
-0.072217
-0.124284
-0.0887567
-0.0854402
-0.099948
-0.0929285
-0.123447
-0.0891103
-0.0916987
-0.0404784
-0.0923975
-0.133647
-0.133742
-0.121129
-0.0889388
-0.0579222
-0.168162
-0.112982
-0.0943541
-0.0869846
-0.0866298
-0.0897164
-0.109327
-0.0881096
-0.0631012
-0.0869547
-0.059642
-0.107733
-0.0887126
-0.0377282
-0.0835555
-0.0988057
-0.0887154
-0.136524
-0.0921284
-0.118812
-0.0455678
-0.0953666
-0.0910915
-0.0795637
-0.0855149
-0.100916
-0.0949894
-0.0993317
-0.0844684
-0.0857978
-0.0926534
-0.123869
-0.0873706
-0.123789
-0.111745
-0.0881997
-0.0906413
-0.0915115
-0.101218
-0.0913609
-0.0855431
-0.0972096
-0.101952
-0.120354
-0.0914925
-0.0908988
-0.131604
-0.129761
-0.0874366
-0.0882186
-0.0393907
-0.106568
-0.0739394
-0.100028
-0.0442303
-0.0459134
-0.0410312
-0.0417029
-0.0442422
-0.0466063
-0.0480297
-0.112229
-0.083057
-0.0837916
-0.0957956
-0.0933159
-0.0921514
-0.0974801
-0.0901815
-0.0922358
-0.0937902
-0.0918097
-0.112741
-0.0834705
-0.115887
-0.0901662
-0.0870399
-0.0919255
-0.0980955
-0.102493
-0.0954862
-0.109356
-0.102165
-0.0947374
-0.0683158
-0.0952867
-0.0931772
-0.10033
-0.0961067
-0.0910639
-0.0866034
-0.0953974
-0.0995086
-0.135086
-0.0892168
-0.131336
-0.1369
-0.0937449
-0.131163
-0.100617
-0.0805977
-0.109797
-0.0962301
-0.0693111
-0.0608659
-0.108402
-0.115457
-0.097736
-0.0812475
-0.0977487
-0.0463355
-0.0966313
-0.0906664
-0.0462893
-0.0177442
-0.0194106
-0.0837042
-0.0892535
-0.103664
-0.0996493
-0.00912322
-0.00953284
-0.0986916
-0.0997211
-0.0943963
-0.0347802
-0.0835152
-0.0970975
-0.0989977
-0.0853956
-0.0753738
-0.0362192
-0.142993
-0.0898127
-0.109743
-0.111458
-0.0800978
-0.101372
-0.0783141
-0.0864164
-0.0429333
-0.0647933
-0.101493
-0.102123
-0.0877689
-0.0921822
-0.0951269
-0.100303
-0.0959375
-0.0472921
-0.0841875
-0.0949056
-0.0897107
-0.134626
-0.0472828
-0.072861
-0.0750487
-0.0711317
-0.0462488
-0.0462519
-0.081489
-0.0657888
-0.094095
-0.0506112
-0.05523
-0.0180341
-0.018034
-0.0377463
-0.059959
-0.0403962
-0.080172
-0.0867183
-0.0925384
-0.10427
-0.0945805
-0.0875665
-0.0689392
-0.0426461
-0.0865575
-0.0896773
-0.086824
-0.0479247
-0.0443092
-0.0345014
-0.0867015
-0.0884531
-0.0710723
-0.0802804
-0.074081
-0.0678382
-0.0907979
-0.0678323
-0.0801372
-0.0772683
-0.0473699
-0.0584836
-0.0543629
-0.0960135
-0.0379592
-0.0399889
-0.0391199
-0.0906758
-0.0361441
-0.035398
-0.0630847
-0.0330153
-0.0734229
-0.073534
-0.0338906
-0.0799493
-0.0376221
-0.0373957
-0.0421331
-0.0356784
-0.0350321
-0.0522969
-0.0416411
-0.0378385
-0.0357892
-0.0732031
-0.083556
-0.039397
-0.080798
-0.0324562
-0.0819655
-0.0651183
-0.0339089
-0.0287133
-0.0320323
-0.0425024
-0.0703885
-0.0579556
-0.024248
-0.0269152
-0.0784727
-0.0228252
-0.022825
-0.0258634
-0.0290299
-0.0327974
-0.0381827
-0.063134
-0.0584409
-0.0785269
-0.0229319
-0.0229318
-0.0690212
-0.0283731
-0.0559464
-0.0257102
-0.0258662
-0.0340813
-0.0591808
-0.0612808
-0.0652848
-0.0598315
-0.0591793
-0.0129295
-0.0955281
-0.0164926
-0.0159797
-0.0771706
-0.0766352
-0.0165596
-0.0115017
-0.016206
-0.0711833
SCALARS cell_type float
LOOKUP_TABLE default
0
0
0
0
0
0
0
0
0
0
0
0
0
0
0
0
0
0
0
0
0
1
0
0
0
0
0
0
0
0
0
0
0
0
0
0
0
0
0
0
0
0
0
0
0
0
0
0
0
0
0
0
0
0
0
0
0
0
0
0
0
0
0
0
0
0
0
0
0
0
0
0
0
0
0
0
0
0
0
0
0
0
0
0
0
0
0
0
0
0
0
0
0
0
0
0
0
0
0
0
0
0
0
0
0
0
0
0
0
0
0
0
0
0
0
0
0
0
0
0
0
0
0
0
0
0
0
0
0
0
0
0
0
0
0
0
0
0
0
0
0
0
0
0
0
0
0
0
0
0
0
0
0
0
0
0
0
0
0
0
0
0
0
0
0
0
0
0
0
0
0
0
0
0
0
0
0
0
0
0
0
0
0
0
0
0
0
0
0
0
0
0
0
0
0
0
0
0
0
0
0
0
0
0
0
0
0
0
0
0
0
0
0
0
0
0
0
0
0
0
0
0
0
0
0
0
0
0
0
0
0
0
0
0
0
0
0
0
0
0
0
0
0
0
0
0
0
0
0
0
0
0
0
0
0
0
0
0
0
0
0
0
0
0
0
0
0
0
0
0
0
0
0
0
0
0
0
0
0
0
0
0
0
0
0
0
0
0
0
0
0
0
0
0
0
0
0
0
0
0
0
0
0
0
0
0
0
0
0
0
0
0
0
0
0
0
0
0
0
0
0
0
0
0
0
0
0
0
0
0
0
0
0
0
0
0
0
0
0
0
0
0
0
0
0
0
0
0
0
0
2
2
2
2
2
2
2
0
0
0
0
0
0
0
0
0
0
0
0
0
0
0
0
0
0
0
0
0
0
0
0
0
0
0
0
0
0
0
0
0
0
0
0
0
0
0
0
0
0
0
0
0
0
0
0
0
0
0
0
0
0
0
0
0
0
0
1
1
0
0
0
0
0
0
0
0
0
0
0
0
0
0
0
0
0
0
0
0
0
0
0
0
0
0
0
0
0
0
0
0
0
0
0
0
0
0
0
0
0
0
0
1
1
0
0
0
0
0
0
0
0
0
0
0
0
0
0
0
0
0
0
0
0
0
0
0
0
0
0
0
0
0
0
0
0
0
0
0
0
0
0
0
0
0
0
0
0
0
0
0
0
0
0
0
0
0
0
0
0
0
0
0
0
0
0
0
0
0
1
1
0
0
0
0
0
0
0
0
0
0
0
0
0
0
0
0
0
0
0
0
0
0
0
0
0
0
0
0
0
0
0
0
0
TENSORS Lagrange_strain float
0.0305676 -0.00319822 9.43501e-08
-0.00319822 0.0133889 2.60029e-07
9.43501e-08 2.60029e-07 0.00740163

0.0291922 -0.0028011 5.88741e-08
-0.0028011 0.0335528 2.29382e-08
5.88741e-08 2.29382e-08 0.0331628

0.0300206 0.00367893 2.50003e-07
0.00367893 0.0311687 -1.055e-07
2.50003e-07 -1.055e-07 0.0304672

0.0291611 -0.00392475 8.42112e-08
-0.00392475 0.0327982 3.14856e-08
8.42112e-08 3.14856e-08 0.0330876

0.035366 0.00266972 -1.98445e-08
0.00266972 0.0380845 8.43747e-08
-1.98445e-08 8.43747e-08 0.0352916

0.0277347 -0.00236727 -1.05134e-07
-0.00236727 0.0333835 6.83965e-09
-1.05134e-07 6.83965e-09 0.0304382

0.0302615 0.00339403 1.00922e-07
0.00339403 0.0134944 -2.28532e-08
1.00922e-07 -2.28532e-08 0.00746303

0.0317539 0.00393958 -2.4495e-08
0.00393958 0.0311992 -1.66382e-07
-2.4495e-08 -1.66382e-07 0.03156

0.033241 0.000715347 3.76275e-08
0.000715347 0.0262207 -2.15424e-09
3.76275e-08 -2.15424e-09 0.0281414

0.0354666 -0.000991036 -4.37416e-08
-0.000991036 0.0275505 -4.51349e-08
-4.37416e-08 -4.51349e-08 0.0327203

0.0280608 0.00205109 1.01702e-07
0.00205109 0.0138087 2.79893e-07
1.01702e-07 2.79893e-07 0.0117533

0.0279526 -0.00176589 -4.47811e-08
-0.00176589 0.0350058 1.98661e-07
-4.47811e-08 1.98661e-07 0.0315485

0.0311205 0.00365708 -1.17336e-07
0.00365708 0.0312995 -2.44473e-08
-1.17336e-07 -2.44473e-08 0.0310788

0.0290686 -0.00187989 -1.06988e-07
-0.00187989 0.0347983 -2.50034e-08
-1.06988e-07 -2.50034e-08 0.0325458

0.034631 0.00441842 5.44987e-08
0.00441842 0.0343619 -3.51457e-08
5.44987e-08 -3.51457e-08 0.034884

0.0343269 7.3075e-05 -1.17657e-07
7.3075e-05 0.0272853 -5.43238e-08
-1.17657e-07 -5.43238e-08 0.0307777

0.0286923 -0.0023537 -1.24968e-07
-0.0023537 0.0360132 -8.67956e-08
-1.24968e-07 -8.67956e-08 0.0334494

0.0345724 -0.000352975 -5.22724e-08
-0.000352975 0.0273557 -3.43725e-08
-5.22724e-08 -3.43725e-08 0.0319764

0.0269194 0.00347803 1.64813e-07
0.00347803 0.0309442 9.56363e-08
1.64813e-07 9.56363e-08 0.027576

0.033884 -0.000550275 7.35039e-09
-0.000550275 0.0264087 1.26193e-07
7.35039e-09 1.26193e-07 0.0301336

0.0266214 0.0011351 -1.13196e-08
0.0011351 0.034033 -1.51798e-07
-1.13196e-08 -1.51798e-07 0.0291493

0.0452948 0.000853019 1.40487e-07
0.000853019 0.0452654 6.59695e-08
1.40487e-07 6.59695e-08 0.0366376

0.0336743 0.000247459 4.9712e-08
0.000247459 0.0263147 -3.42654e-09
4.9712e-08 -3.42654e-09 0.0298044

0.0293089 -0.00363195 9.81125e-08
-0.00363195 0.0311351 -1.97904e-07
9.81125e-08 -1.97904e-07 0.030046

0.0337791 0.000900073 -1.52378e-07
0.000900073 0.0264957 3.00909e-08
-1.52378e-07 3.00909e-08 0.0300805

0.0285454 0.00250737 8.66989e-08
0.00250737 0.033893 5.26597e-08
8.66989e-08 5.26597e-08 0.0322863

0.0286291 0.000526655 1.35359e-07
0.000526655 0.0176894 2.10669e-07
1.35359e-07 2.10669e-07 0.013171

0.0309134 0.00403453 -3.72481e-08
0.00403453 0.0306456 -2.02759e-07
-3.72481e-08 -2.02759e-07 0.03061

0.0259241 0.00477616 -1.3778e-07
0.00477616 0.0257324 -1.03313e-07
-1.3778e-07 -1.03313e-07 0.0211275

0.0415291 0.00137016 8.37551e-08
0.00137016 0.0383494 5.86046e-08
8.37551e-08 5.86046e-08 0.0361346

0.0344102 0.00187129 -1.49531e-07
0.00187129 0.0279518 3.54376e-08
-1.49531e-07 3.54376e-08 0.0309993

0.0217592 -0.00228778 2.1364e-08
-0.00228778 0.0299916 1.49382e-07
2.1364e-08 1.49382e-07 0.0211244

0.0228629 -0.00535226 1.62535e-07
-0.00535226 0.0234726 -1.93322e-07
1.62535e-07 -1.93322e-07 0.0125787

0.0348322 0.000800651 8.84805e-08
0.000800651 0.0422554 1.99364e-07
8.84805e-08 1.99364e-07 0.0357857

0.037453 -0.000661779 1.14827e-07
-0.000661779 0.0412017 -4.93316e-08
1.14827e-07 -4.93316e-08 0.0359004

0.0410751 0.0028132 1.30794e-07
0.0028132 0.035986 -1.15839e-07
1.30794e-07 -1.15839e-07 0.0357659

0.0372535 0.000705328 2.03681e-08
0.000705328 0.043215 -4.24825e-08
2.03681e-08 -4.24825e-08 0.0361411

0.0402605 -0.00121873 -1.42372e-07
-0.00121873 0.0378298 3.60196e-08
-1.42372e-07 3.60196e-08 0.0358076

0.0312148 -0.00367779 8.51563e-08
-0.00367779 0.0311226 -1.98857e-07
8.51563e-08 -1.98857e-07 0.0309248

0.022747 0.00527886 5.93973e-08
0.00527886 0.0237084 1.17674e-07
5.93973e-08 1.17674e-07 0.0125807

0.0297601 -0.00231584 2.86603e-07
-0.00231584 0.0220305 7.86492e-08
2.86603e-07 7.86492e-08 0.0208743

0.0376189 -0.000522793 6.16788e-08
-0.000522793 0.0430638 1.35648e-07
6.16788e-08 1.35648e-07 0.0361438

0.0412407 0.00263438 -2.16584e-07
0.00263438 0.0394148 1.36892e-07
-2.16584e-07 1.36892e-07 0.0361263

0.0343005 -0.00161719 7.01259e-08
-0.00161719 0.0279939 -1.38703e-07
7.01259e-08 -1.38703e-07 0.0310833

0.0231051 -0.00552558 1.6528e-08
-0.00552558 0.0235621 -3.38644e-08
1.6528e-08 -3.38644e-08 0.0162156

0.0299426 -0.00233212 1.24024e-07
-0.00233212 0.0221547 1.2659e-07
1.24024e-07 1.2659e-07 0.0213437

0.025893 0.00222732 -1.96716e-08
0.00222732 0.0326531 -1.34099e-07
-1.96716e-08 -1.34099e-07 0.0279146

0.0275501 0.0025289 1.64313e-07
0.0025289 0.0323726 9.6679e-08
1.64313e-07 9.6679e-08 0.0284901

0.0341743 -0.0021411 -2.23976e-09
-0.0021411 0.0271065 -2.07853e-07
-2.23976e-09 -2.07853e-07 0.0304714

0.022902 -0.0043923 -3.09153e-09
-0.0043923 0.0272481 -9.90809e-08
-3.09153e-09 -9.90809e-08 0.0198498

0.0294932 0.00247137 1.49919e-08
0.00247137 0.0218337 3.92166e-08
1.49919e-08 3.92166e-08 0.0202805

0.0298713 -0.00327082 1.57771e-07
-0.00327082 0.0245128 2.62162e-07
1.57771e-07 2.62162e-07 0.0230476

0.0344772 0.00257772 -6.15567e-08
0.00257772 0.0382028 2.1688e-07
-6.15567e-08 2.1688e-07 0.0352704

0.0286887 0.00383839 5.13938e-08
0.00383839 0.025779 -1.08401e-07
5.13938e-08 -1.08401e-07 0.0231162

0.0349278 -0.00291604 -7.89174e-08
-0.00291604 0.0374321 4.58072e-08
-7.89174e-08 4.58072e-08 0.0351887

0.0255794 -0.00545526 1.09978e-07
-0.00545526 0.0229019 2.03568e-07
1.09978e-07 2.03568e-07 0.0158192

0.0373466 0.000746125 -1.0637e-07
0.000746125 0.0414128 8.82287e-08
-1.0637e-07 8.82287e-08 0.0359208

0.0231671 -0.000693142 -3.59168e-08
-0.000693142 0.0313126 5.10912e-08
-3.59168e-08 5.10912e-08 0.0231022

0.0410301 0.00137978 4.2137e-08
0.00137978 0.0377066 -8.46608e-08
4.2137e-08 -8.46608e-08 0.035899

0.027675 0.00280522 1.29911e-07
0.00280522 0.0327485 -2.74096e-08
1.29911e-07 -2.74096e-08 0.0302305

0.0361387 0.000784858 -2.15755e-09
0.000784858 0.0281309 -7.97834e-08
-2.15755e-09 -7.97834e-08 0.0336726

0.0362539 0.00153404 2.79393e-08
0.00153404 0.0316927 2.17263e-07
2.79393e-08 2.17263e-07 0.0342202

0.0286367 0.00405693 -9.83871e-09
0.00405693 0.019897 -2.48283e-07
-9.83871e-09 -2.48283e-07 0.0137589

0.030972 -0.000783688 1.48974e-07
-0.000783688 0.0370847 8.38994e-08
1.48974e-07 8.38994e-08 0.033881

0.0315546 0.00124333 -1.49116e-08
0.00124333 0.0364204 -8.01625e-09
-1.49116e-08 -8.01625e-09 0.0342591

0.0285484 -0.000375144 -7.47511e-08
-0.000375144 0.0369557 1.29031e-08
-7.47511e-08 1.29031e-08 0.0326701

0.029602 0.00307126 1.33548e-07
0.00307126 0.0347905 -1.16673e-07
1.33548e-07 -1.16673e-07 0.0337084

0.0347184 0.00112208 1.83465e-09
0.00112208 0.0278381 4.68001e-08
1.83465e-09 4.68001e-08 0.032208

0.0291868 -0.00369877 -1.90557e-08
-0.00369877 0.0310204 -5.52594e-08
-1.90557e-08 -5.52594e-08 0.029909

0.0350538 -0.000236854 -8.55559e-08
-0.000236854 0.0275793 -4.59586e-08
-8.55559e-08 -4.59586e-08 0.0333925

0.0344519 -0.0025481 -1.60904e-07
-0.0025481 0.0381336 4.0417e-09
-1.60904e-07 4.0417e-09 0.0352604

0.0350102 0.00284937 3.16637e-08
0.00284937 0.0375698 -8.40641e-08
3.16637e-08 -8.40641e-08 0.0352403

0.0218882 -0.00213171 -6.95274e-08
-0.00213171 0.0299216 -1.67289e-07
-6.95274e-08 -1.67289e-07 0.0208508

0.0347007 -0.00369086 -1.81651e-07
-0.00369086 0.0319574 7.02703e-08
-1.81651e-07 7.02703e-08 0.0330785

0.0292914 -0.00329721 -8.59732e-09
-0.00329721 0.0321117 -3.68194e-08
-8.59732e-09 -3.68194e-08 0.0304328

0.0267791 -0.00401675 3.71048e-07
-0.00401675 0.017605 2.364e-08
3.71048e-07 2.364e-08 0.0127256

0.0324037 0.000418887 -2.50295e-08
0.000418887 0.0381044 -1.16099e-08
-2.50295e-08 -1.16099e-08 0.0344053

0.0345364 0.00381722 -1.12355e-07
0.00381722 0.0309411 -8.2389e-08
-1.12355e-07 -8.2389e-08 0.0326597

0.0283759 0.00258138 1.10845e-07
0.00258138 0.0341285 -3.52972e-09
1.10845e-07 -3.52972e-09 0.0322132

0.031541 0.00103786 -1.1619e-07
0.00103786 0.0228434 1.20223e-07
-1.1619e-07 1.20223e-07 0.0240687

0.0270968 -0.0043585 -2.02499e-07
-0.0043585 0.0237363 -5.31673e-08
-2.02499e-07 -5.31673e-08 0.0183231

0.0362599 -0.00140291 -2.62468e-08
-0.00140291 0.0387422 -1.41845e-07
-2.62468e-08 -1.41845e-07 0.0354007

0.0315558 0.00317065 -2.03665e-07
0.00317065 0.0344009 -3.11595e-08
-2.03665e-07 -3.11595e-08 0.0340898

0.0273007 -0.00415593 -1.4644e-07
-0.00415593 0.0221746 2.66024e-07
-1.4644e-07 2.66024e-07 0.018411

0.0303573 0.00139111 -2.67166e-08
0.00139111 0.02283 1.18111e-07
-2.67166e-08 1.18111e-07 0.0209541

0.0186017 -0.00269687 2.12729e-08
-0.00269687 0.0289276 3.09605e-07
2.12729e-08 3.09605e-07 0.0158926

0.0271994 0.00188886 5.14143e-08
0.00188886 0.0343195 -1.30492e-09
5.14143e-08 -1.30492e-09 0.030654

0.0353814 0.00305675 -1.17159e-07
0.00305675 0.0308194 1.34342e-07
-1.17159e-07 1.34342e-07 0.0327532

0.0226475 0.00538565 3.35401e-08
0.00538565 0.024088 8.79723e-08
3.35401e-08 8.79723e-08 0.0161982

0.0459502 0.00223847 7.80363e-07
0.00223847 0.0417503 -5.39573e-07
7.80363e-07 -5.39573e-07 0.0366386

0.0230808 -0.000534357 2.30512e-08
-0.000534357 0.0313533 2.79739e-08
2.30512e-08 2.79739e-08 0.023072

0.0463635 -0.00225609 -6.10241e-07
-0.00225609 0.0412937 -7.0149e-08
-6.10241e-07 -7.0149e-08 0.0365937

0.0370646 -0.00362428 9.56397e-08
-0.00362428 0.0334904 -2.56038e-07
9.56397e-08 -2.56038e-07 0.0346203

0.0351369 0.00361934 -5.9666e-08
0.00361934 0.0300035 -7.8235e-08
-5.9666e-08 -7.8235e-08 0.0324559

0.0299615 -0.00315879 2.18065e-07
-0.00315879 0.0246899 -1.96337e-08
2.18065e-07 -1.96337e-08 0.0232854

0.0230118 0.00402965 -1.95981e-07
0.00402965 0.0277785 -1.289e-07
-1.95981e-07 -1.289e-07 0.0203816

0.0210935 -0.00137847 1.32409e-07
-0.00137847 0.0298944 -1.48473e-07
1.32409e-07 -1.48473e-07 0.0182511

0.0287451 0.00288884 -1.43997e-07
0.00288884 0.0342263 -4.89306e-08
-1.43997e-07 -4.89306e-08 0.032699

0.0370112 0.0022361 -5.65077e-08
0.0022361 0.0334515 3.70058e-08
-5.65077e-08 3.70058e-08 0.0343836

0.0281477 0.00198809 1.10781e-07
0.00198809 0.0340594 -3.13271e-09
1.10781e-07 -3.13271e-09 0.0308648

0.0318816 0.00207297 -1.39117e-07
0.00207297 0.0252535 8.46916e-08
-1.39117e-07 8.46916e-08 0.0256169

0.0239071 -0.00277421 -3.70462e-08
-0.00277421 0.0297643 -1.63985e-07
-3.70462e-08 -1.63985e-07 0.021561

0.0278981 -0.00376364 -1.63277e-07
-0.00376364 0.0218147 4.32028e-08
-1.63277e-07 4.32028e-08 0.0180755

0.0293306 -0.00323163 7.21844e-08
-0.00323163 0.0326291 -6.78789e-08
7.21844e-08 -6.78789e-08 0.0324022

0.0306254 0.00361466 2.3001e-08
0.00361466 0.0322283 1.80346e-07
2.3001e-08 1.80346e-07 0.03237

0.0287074 0.00304791 -2.84294e-08
0.00304791 0.0340262 3.82177e-08
-2.84294e-08 3.82177e-08 0.0326295

0.0292063 0.00172517 -2.32867e-08
0.00172517 0.0376171 -1.25186e-08
-2.32867e-08 -1.25186e-08 0.0338455

0.0344765 0.0012325 8.27015e-08
0.0012325 0.0275231 3.83101e-08
8.27015e-08 3.83101e-08 0.0306741

0.0199603 -0.000605182 -1.18328e-07
-0.000605182 0.0296598 -9.37318e-08
-1.18328e-07 -9.37318e-08 0.0181035

0.0297967 -0.00486314 1.04785e-07
-0.00486314 0.0330481 -1.7664e-09
1.04785e-07 -1.7664e-09 0.0337409

0.0290807 0.00359975 -1.19621e-07
0.00359975 0.0313589 -2.40847e-08
-1.19621e-07 -2.40847e-08 0.0302633

0.0181052 0.000282829 -4.85401e-08
0.000282829 0.0293099 -1.08673e-07
-4.85401e-08 -1.08673e-07 0.016878

0.0278426 0.00442351 2.74416e-07
0.00442351 0.0209677 -2.51803e-08
2.74416e-07 -2.51803e-08 0.0174543

0.0291903 -0.0030203 8.86039e-08
-0.0030203 0.0327023 1.0872e-07
8.86039e-08 1.0872e-07 0.0321846

0.0352416 0.000759547 1.08178e-07
0.000759547 0.0273378 -1.54323e-07
1.08178e-07 -1.54323e-07 0.032552

0.0294264 0.00352003 8.92174e-08
0.00352003 0.0252006 -1.61983e-07
8.92174e-08 -1.61983e-07 0.0231106

0.0396355 0.0017099 2.22499e-07
0.0017099 0.0390391 1.73198e-07
2.22499e-07 1.73198e-07 0.0359394

0.028374 0.00312326 2.76616e-07
0.00312326 0.0224009 -2.834e-08
2.76616e-07 -2.834e-08 0.0182859

0.0394884 -0.00175075 6.18792e-08
-0.00175075 0.039065 2.46814e-08
6.18792e-08 2.46814e-08 0.0359045

0.0232604 0.000103582 -1.94065e-07
0.000103582 0.031517 3.06464e-08
-1.94065e-07 3.06464e-08 0.023119

0.0327577 -0.000288523 -1.53377e-07
-0.000288523 0.0246593 -2.00006e-07
-1.53377e-07 -2.00006e-07 0.0269655

0.0380536 -0.00212949 -6.63332e-08
-0.00212949 0.0304631 1.11536e-07
-6.63332e-08 1.11536e-07 0.0347925

0.0292373 0.00320577 -7.84439e-08
0.00320577 0.033277 9.37763e-08
-7.84439e-08 9.37763e-08 0.033342

0.0289497 -0.00177268 2.33563e-08
-0.00177268 0.0366082 -1.07235e-08
2.33563e-08 -1.07235e-08 0.0334988

0.0365827 -0.00108504 -9.88552e-08
-0.00108504 0.0264754 -2.51636e-08
-9.88552e-08 -2.51636e-08 0.0338592

0.0311795 -0.00292577 1.5694e-07
-0.00292577 0.0383053 -7.54756e-08
1.5694e-07 -7.54756e-08 0.0348429

0.0381648 -0.000884871 -1.74201e-07
-0.000884871 0.0387305 9.56437e-08
-1.74201e-07 9.56437e-08 0.0358346

0.0301789 -0.00393981 5.33274e-08
-0.00393981 0.0327096 1.08919e-07
5.33274e-08 1.08919e-07 0.0327625

0.0213322 0.00146954 -1.4088e-07
0.00146954 0.0296128 -1.61521e-07
-1.4088e-07 -1.61521e-07 0.018295

0.0293869 -0.00364548 3.96776e-08
-0.00364548 0.0253485 -9.18673e-09
3.96776e-08 -9.18673e-09 0.0231812

0.0328588 -0.00181727 -1.64765e-07
-0.00181727 0.0397171 -8.26393e-08
-1.64765e-07 -8.26393e-08 0.0352402

0.0350903 7.65155e-05 -1.15856e-07
7.65155e-05 0.0272212 -1.7375e-07
-1.15856e-07 -1.7375e-07 0.0332503

0.0308175 -0.00282896 3.52851e-08
-0.00282896 0.0348902 -3.07356e-08
3.52851e-08 -3.07356e-08 0.0340832

0.0295334 0.00338865 -6.66451e-08
0.00338865 0.0328704 7.95832e-08
-6.66451e-08 7.95832e-08 0.0333251

0.0264594 -0.0040632 -7.28511e-08
-0.0040632 0.0272607 -1.00759e-07
-7.28511e-08 -1.00759e-07 0.0215838

0.0371719 -0.000958762 -3.93467e-07
-0.000958762 0.0416098 1.19714e-07
-3.93467e-07 1.19714e-07 0.0358858

0.0227103 -0.00423754 -4.4492e-08
-0.00423754 0.0272428 -3.26612e-08
-4.4492e-08 -3.26612e-08 0.0168769

0.0341818 -0.00252475 -5.21181e-09
-0.00252475 0.0286057 8.8576e-08
-5.21181e-09 8.8576e-08 0.0310435

0.0364245 0.000289914 1.22363e-07
0.000289914 0.0294368 5.24365e-08
1.22363e-07 5.24365e-08 0.0341929

0.0396399 0.00239671 -9.34437e-09
0.00239671 0.0391129 5.43096e-08
-9.34437e-09 5.43096e-08 0.0358667

0.0238554 0.00260913 -1.65024e-07
0.00260913 0.0301506 -1.86454e-07
-1.65024e-07 -1.86454e-07 0.0217981

0.0334301 0.00358138 6.18268e-08
0.00358138 0.0307141 -2.27985e-07
6.18268e-08 -2.27985e-07 0.0317663

0.0316422 -0.00319422 2.28716e-07
-0.00319422 0.0265511 -1.86141e-08
2.28716e-07 -1.86141e-08 0.0269345

0.0289283 -0.00234103 4.85441e-08
-0.00234103 0.0342338 4.41911e-08
4.85441e-08 4.41911e-08 0.032605

0.0262436 0.00450129 -1.30359e-08
0.00450129 0.0245569 5.13972e-08
-1.30359e-08 5.13972e-08 0.0180805

0.0284218 -0.0028668 3.48788e-08
-0.0028668 0.034031 3.98632e-08
3.48788e-08 3.98632e-08 0.0324481

0.0331483 0.00405884 -4.96133e-08
0.00405884 0.0304637 1.17768e-07
-4.96133e-08 1.17768e-07 0.0315414

0.0333337 -0.00331192 -1.08491e-07
-0.00331192 0.0283562 7.22832e-09
-1.08491e-07 7.22832e-09 0.030045

0.0291599 -0.00329524 3.13643e-07
-0.00329524 0.0319868 2.39826e-08
3.13643e-07 2.39826e-08 0.0304364

0.0314544 -0.00242917 4.63651e-08
-0.00242917 0.024718 2.46999e-07
4.63651e-08 2.46999e-07 0.0251554

0.0329542 -0.0024667 -6.55136e-08
-0.0024667 0.0267087 -5.44657e-08
-6.55136e-08 -5.44657e-08 0.0285957

0.0294902 -0.0033418 1.22826e-07
-0.0033418 0.0329497 -2.42794e-08
1.22826e-07 -2.42794e-08 0.0334065

0.0261331 0.00463362 -4.42425e-09
0.00463362 0.0255404 -2.20962e-07
-4.42425e-09 -2.20962e-07 0.0210917

0.0281492 0.0020166 6.88684e-08
0.0020166 0.034335 1.76459e-09
6.88684e-08 1.76459e-09 0.0311086

0.0308857 0.00348107 3.44526e-08
0.00348107 0.0322544 -6.33143e-08
3.44526e-08 -6.33143e-08 0.0325994

0.0291564 0.00334793 -8.00414e-08
0.00334793 0.0331908 -7.45921e-08
-8.00414e-08 -7.45921e-08 0.0332596

0.0289834 0.00152279 -8.90118e-09
0.00152279 0.0354695 9.61448e-08
-8.90118e-09 9.61448e-08 0.0326947

0.0310517 -0.00106171 8.58143e-08
-0.00106171 0.0231408 5.79044e-08
8.58143e-08 5.79044e-08 0.0220772

0.0238832 0.00240545 1.96309e-07
0.00240545 0.0304096 -1.02583e-08
1.96309e-07 -1.02583e-08 0.0221123

0.0292127 -0.003204 -1.29586e-08
-0.003204 0.0326359 -1.93621e-08
-1.29586e-08 -1.93621e-08 0.0316176

0.0289866 0.00335652 9.14627e-09
0.00335652 0.0309319 1.20011e-07
9.14627e-09 1.20011e-07 0.0285673

0.0266119 -0.004591 -2.22341e-07
-0.004591 0.0252298 -2.74986e-08
-2.22341e-07 -2.74986e-08 0.021256

0.0262772 0.00489313 -5.17283e-08
0.00489313 0.0209457 2.03951e-07
-5.17283e-08 2.03951e-07 0.0167619

0.0235021 -0.00428671 -1.56084e-08
-0.00428671 0.0274639 -1.07274e-08
-1.56084e-08 -1.07274e-08 0.0206258

0.026671 -0.0040273 -2.19613e-07
-0.0040273 0.0274819 -2.09493e-08
-2.19613e-07 -2.09493e-08 0.0220494

0.0353641 -0.000906413 5.73213e-08
-0.000906413 0.0273897 1.85002e-07
5.73213e-08 1.85002e-07 0.0326543

0.0260444 0.00392139 -2.16052e-07
0.00392139 0.0280914 1.76226e-08
-2.16052e-07 1.76226e-08 0.0221019

0.0307873 0.00171646 9.18436e-08
0.00171646 0.0233597 -2.47688e-11
9.18436e-08 -2.47688e-11 0.0220249

0.0214304 0.00172209 -1.10274e-07
0.00172209 0.03024 -6.74253e-08
-1.10274e-07 -6.74253e-08 0.0211322

0.0242621 -0.00288942 5.88824e-08
-0.00288942 0.029951 1.50705e-07
5.88824e-08 1.50705e-07 0.0220856

0.0313453 -0.000130909 -9.86315e-08
-0.000130909 0.0392735 -1.05664e-07
-9.86315e-08 -1.05664e-07 0.0346705

0.0230578 0.000294705 9.23916e-08
0.000294705 0.0314597 3.2419e-08
9.23916e-08 3.2419e-08 0.0230616

0.0227766 0.00400121 1.51885e-07
0.00400121 0.0281266 4.77753e-08
1.51885e-07 4.77753e-08 0.0206375

0.0288877 0.00158559 1.50735e-07
0.00158559 0.0358322 -3.90359e-08
1.50735e-07 -3.90359e-08 0.0328932

0.0293154 -0.00357997 2.26428e-07
-0.00357997 0.0251291 -5.37488e-09
2.26428e-07 -5.37488e-09 0.0232392

0.0369764 0.002733 -6.66118e-08
0.002733 0.0297228 2.81609e-07
-6.66118e-08 2.81609e-07 0.0338014

0.0371757 0.00348328 8.97077e-08
0.00348328 0.0334227 1.51026e-08
8.97077e-08 1.51026e-08 0.034652

0.0345436 -0.00244663 -1.66643e-08
-0.00244663 0.0285295 1.72037e-08
-1.66643e-08 1.72037e-08 0.0313786

0.0390566 -0.000265567 -1.53646e-07
-0.000265567 0.0339247 -5.49091e-08
-1.53646e-07 -5.49091e-08 0.035208

0.031479 -0.00418767 -1.41651e-07
-0.00418767 0.0317815 -1.29002e-08
-1.41651e-07 -1.29002e-08 0.032156

0.0294615 0.00300749 1.30798e-07
0.00300749 0.0223269 -5.40986e-08
1.30798e-07 -5.40986e-08 0.0210661

0.0302294 0.00397307 -5.49559e-08
0.00397307 0.0326627 1.00994e-07
-5.49559e-08 1.00994e-07 0.0327197

0.0302766 0.00384705 1.58168e-07
0.00384705 0.0326067 -7.67545e-08
1.58168e-07 -7.67545e-08 0.0326745

0.0262437 0.00396153 -5.39235e-08
0.00396153 0.0277673 -1.23179e-07
-5.39235e-08 -1.23179e-07 0.0218644

0.0344498 0.0035765 -3.69792e-08
0.0035765 0.0317796 -1.87405e-07
-3.69792e-08 -1.87405e-07 0.0328312

0.030248 0.000452282 1.05446e-07
0.000452282 0.020428 2.88311e-08
1.05446e-07 2.88311e-08 0.0205729

0.0331857 0.00420075 -2.60087e-08
0.00420075 0.0323727 -6.92507e-08
-2.60087e-08 -6.92507e-08 0.0334836

0.0305007 -0.00165432 -5.57438e-08
-0.00165432 0.0366159 -1.44018e-08
-5.57438e-08 -1.44018e-08 0.0336626

0.03736 0.00323277 5.25329e-08
0.00323277 0.0334595 -7.91581e-08
5.25329e-08 -7.91581e-08 0.0346641

0.0307367 -0.00389605 2.27912e-08
-0.00389605 0.0322728 -7.86647e-08
2.27912e-08 -7.86647e-08 0.03268

0.0293738 -0.0006449 -8.84166e-08
-0.0006449 0.036903 1.17271e-08
-8.84166e-08 1.17271e-08 0.0328477

0.0288122 -0.00315216 -2.53013e-07
-0.00315216 0.0221397 1.22807e-07
-2.53013e-07 1.22807e-07 0.0187587

0.0290023 0.00384435 -1.20524e-07
0.00384435 0.0255775 -2.1853e-07
-1.20524e-07 -2.1853e-07 0.0230726

0.0217011 0.00189092 2.01285e-07
0.00189092 0.0300609 -1.60778e-07
2.01285e-07 -1.60778e-07 0.0210835

0.0349898 -0.000161213 -2.36762e-08
-0.000161213 0.0273894 1.85132e-07
-2.36762e-08 1.85132e-07 0.0333013

0.0344195 2.41184e-07 1.75068e-07
2.41184e-07 0.0272744 -3.34498e-08
1.75068e-07 -3.34498e-08 0.0320409

0.0291655 0.00303978 -1.34496e-07
0.00303978 0.0326795 -6.39123e-08
-1.34496e-07 -6.39123e-08 0.0321324

0.0314496 0.00316638 1.10952e-07
0.00316638 0.03425 1.7648e-07
1.10952e-07 1.7648e-07 0.034058

0.0291684 -0.00320402 1.15385e-07
-0.00320402 0.0332379 -6.20784e-08
1.15385e-07 -6.20784e-08 0.0333787

0.0287735 -8.55128e-05 -8.14346e-08
-8.55128e-05 0.0367045 -9.57086e-08
-8.14346e-08 -9.57086e-08 0.0325254

0.0294637 0.0033761 1.35291e-07
0.0033761 0.0330743 -1.12048e-07
1.35291e-07 -1.12048e-07 0.0333544

0.0328589 -0.00134646 -1.72189e-07
-0.00134646 0.0253616 -1.24207e-07
-1.72189e-07 -1.24207e-07 0.0278286

0.0263546 -0.00425448 -1.24654e-07
-0.00425448 0.0281792 -1.57202e-08
-1.24654e-07 -1.57202e-08 0.0242673

0.0362972 -0.000331593 7.68315e-08
-0.000331593 0.0293829 -1.29189e-07
7.68315e-08 -1.29189e-07 0.0340277

0.0267805 -0.00444545 -8.84581e-09
-0.00444545 0.0251902 2.53876e-09
-8.84581e-09 2.53876e-09 0.0209489

0.0308996 0.00250709 7.5499e-08
0.00250709 0.035063 -1.1431e-07
7.5499e-08 -1.1431e-07 0.0340675

0.0351128 -0.00349692 1.6382e-08
-0.00349692 0.0303882 -3.14358e-08
1.6382e-08 -3.14358e-08 0.0326146

0.0305016 -0.00124979 2.06824e-07
-0.00124979 0.0229782 -1.07233e-07
2.06824e-07 -1.07233e-07 0.0214781

0.0371473 -0.00307701 1.80944e-07
-0.00307701 0.0316532 4.35522e-09
1.80944e-07 4.35522e-09 0.0339878

0.0349691 0.000322014 3.93928e-08
0.000322014 0.0275545 -2.72409e-08
3.93928e-08 -2.72409e-08 0.0334297

0.035843 -0.00308835 -2.31831e-08
-0.00308835 0.033258 -3.55768e-08
-2.31831e-08 -3.55768e-08 0.0341433

0.0349283 -0.00341048 -1.06084e-07
-0.00341048 0.0295946 1.7928e-07
-1.06084e-07 1.7928e-07 0.0321778

0.0349088 -0.00113371 -1.25788e-07
-0.00113371 0.0278499 -1.11995e-07
-1.25788e-07 -1.11995e-07 0.0323412

0.0314895 -0.00306235 -6.16154e-08
-0.00306235 0.0344483 -1.53516e-07
-6.16154e-08 -1.53516e-07 0.0341463

0.0292351 -0.004071 1.1529e-07
-0.004071 0.0268995 -1.18599e-07
1.1529e-07 -1.18599e-07 0.0253459

0.0349924 -0.0032435 -1.47069e-07
-0.0032435 0.0299152 1.77126e-08
-1.47069e-07 1.77126e-08 0.032195

0.031462 0.00140901 -1.03859e-08
0.00140901 0.0233268 -5.21306e-09
-1.03859e-08 -5.21306e-09 0.0244834

0.0336644 0.00348414 -7.2353e-08
0.00348414 0.033444 2.51077e-09
-7.2353e-08 2.51077e-09 0.0336498

0.0298922 -0.00496733 7.21591e-09
-0.00496733 0.0330784 -1.96876e-08
7.21591e-09 -1.96876e-08 0.033857

0.0300431 0.00492046 -1.65148e-07
0.00492046 0.0329397 -9.91122e-08
-1.65148e-07 -9.91122e-08 0.0338239

0.0276878 -0.00374187 4.98079e-08
-0.00374187 0.0348072 7.18979e-09
4.98079e-08 7.18979e-09 0.0337665

0.0279254 0.0035471 -4.27029e-08
0.0035471 0.0348347 -1.24283e-07
-4.27029e-08 -1.24283e-07 0.0337313

0.0364295 -0.00115361 1.16239e-07
-0.00115361 0.0263416 -6.47004e-08
1.16239e-07 -6.47004e-08 0.0337576

0.0361986 0.00124756 -4.69466e-08
0.00124756 0.0265629 -1.0783e-08
-4.69466e-08 -1.0783e-08 0.0337205

0.035034 -0.00130671 2.05445e-10
-0.00130671 0.0284679 5.85241e-08
2.05445e-10 5.85241e-08 0.0325756

0.034436 0.00425922 -1.03892e-07
0.00425922 0.0342891 1.72666e-07
-1.03892e-07 1.72666e-07 0.0348123

0.0343118 -0.00435723 -9.00273e-08
-0.00435723 0.034281 2.64e-08
-9.00273e-08 2.64e-08 0.0348006

0.0305208 0.0020935 -9.17289e-08
0.0020935 0.0381652 2.15333e-07
-9.17289e-08 2.15333e-07 0.0348495

0.0306637 -0.00205941 4.92348e-08
-0.00205941 0.0380952 -6.11642e-09
4.92348e-08 -6.11642e-09 0.0348367

0.0395021 -0.000529118 4.7908e-08
-0.000529118 0.0328493 5.96228e-08
4.7908e-08 5.96228e-08 0.0352577

0.0397044 0.000513303 1.25749e-07
0.000513303 0.0326215 -6.85931e-08
1.25749e-07 -6.85931e-08 0.0353029

0.0239649 0.00127595 2.08608e-08
0.00127595 0.0320028 -9.93147e-08
2.08608e-08 -9.93147e-08 0.025184

0.0311621 -0.00326522 -1.15576e-07
-0.00326522 0.0322401 -1.71452e-07
-1.15576e-07 -1.71452e-07 0.0328016

0.0277794 -0.00478576 1.02059e-07
-0.00478576 0.0333113 -6.17764e-08
1.02059e-07 -6.17764e-08 0.033455

0.0333584 -0.000610233 -3.24223e-08
-0.000610233 0.0264029 1.23228e-07
-3.24223e-08 1.23228e-07 0.028448

0.038188 -0.00225199 -4.40578e-08
-0.00225199 0.0307943 -9.71537e-08
-4.40578e-08 -9.71537e-08 0.0348926

0.0382356 0.00218388 8.45974e-08
0.00218388 0.0309072 -7.19678e-09
8.45974e-08 -7.19678e-09 0.0349247

0.0360835 1.58517e-05 -1.8421e-08
1.58517e-05 0.0251256 7.54634e-08
-1.8421e-08 7.54634e-08 0.0334701

0.0242407 0.00302891 -8.0711e-08
0.00302891 0.0303974 -3.20205e-08
-8.0711e-08 -3.20205e-08 0.0242768

0.0276739 0.00475626 2.58954e-08
0.00475626 0.0333122 -7.01329e-08
2.58954e-08 -7.01329e-08 0.0333928

0.0286744 -0.00307576 5.36691e-08
-0.00307576 0.0342607 4.41039e-08
5.36691e-08 4.41039e-08 0.0327521

0.0310854 0.00303568 -1.29558e-07
0.00303568 0.0251465 -1.73589e-07
-1.29558e-07 -1.73589e-07 0.025467

0.0372278 0.00316551 1.49349e-07
0.00316551 0.0315406 -1.53974e-07
1.49349e-07 -1.53974e-07 0.0340756

0.0292267 -0.0040671 1.2821e-07
-0.0040671 0.0269355 1.54079e-07
1.2821e-07 1.54079e-07 0.0253211

0.0364017 -0.000453674 -9.39543e-08
-0.000453674 0.0296912 -1.54015e-08
-9.39543e-08 -1.54015e-08 0.0341308

0.0273443 -0.00449478 3.28483e-09
-0.00449478 0.033395 5.8992e-08
3.28483e-09 5.8992e-08 0.0334416

0.0240377 0.00107894 -1.24324e-07
0.00107894 0.0322437 1.74923e-07
-1.24324e-07 1.74923e-07 0.0255057

0.0242295 0.0028264 2.27367e-07
0.0028264 0.0307012 5.13155e-08
2.27367e-07 5.13155e-08 0.0245447

0.026792 0.00459421 2.11755e-07
0.00459421 0.0240415 9.30269e-08
2.11755e-07 9.30269e-08 0.0182134

0.0298505 0.000199942 3.39385e-09
0.000199942 0.0200882 1.98757e-07
3.39385e-09 1.98757e-07 0.0193622

0.0319085 -0.00302379 1.18479e-07
-0.00302379 0.0341624 1.67034e-08
1.18479e-07 1.67034e-08 0.0340354

0.0229184 0.00399945 3.73939e-08
0.00399945 0.02766 -1.57841e-07
3.73939e-08 -1.57841e-07 0.0176529

0.0292097 0.00310076 -1.14501e-07
0.00310076 0.0327627 -3.37228e-08
-1.14501e-07 -3.37228e-08 0.0310121

0.0315943 -0.000694451 -9.07115e-08
-0.000694451 0.0231599 5.33573e-08
-9.07115e-08 5.33573e-08 0.0244846

0.0327609 0.00146444 5.50511e-09
0.00146444 0.0253465 7.30863e-08
5.50511e-09 7.30863e-08 0.0276128

0.035978 5.62363e-05 -1.7214e-07
5.62363e-05 0.0249585 -8.26439e-08
-1.7214e-07 -8.26439e-08 0.033386

0.0279655 -0.00380529 1.31401e-07
-0.00380529 0.0349483 -3.34746e-08
1.31401e-07 -3.34746e-08 0.0338158

0.0393145 -0.000843768 2.36185e-07
-0.000843768 0.0416019 6.70698e-08
2.36185e-07 6.70698e-08 0.0361899

0.0298678 0.00493914 1.61689e-07
0.00493914 0.032956 8.59403e-08
1.61689e-07 8.59403e-08 0.0337789

0.030288 0.000214347 -6.99162e-08
0.000214347 0.0203967 1.72658e-08
-6.99162e-08 1.72658e-08 0.0172759

0.0266736 -0.00425016 -4.18131e-08
-0.00425016 0.0281328 -2.83623e-07
-4.18131e-08 -2.83623e-07 0.0244373

0.0277462 0.00481578 1.74533e-08
0.00481578 0.033315 9.49113e-08
1.74533e-08 9.49113e-08 0.0334551

0.0279449 -0.00145855 1.55079e-08
-0.00145855 0.035085 2.06396e-07
1.55079e-08 2.06396e-07 0.0314501

0.0244649 -0.00330498 -9.87731e-08
-0.00330498 0.0300152 -6.41542e-08
-9.87731e-08 -6.41542e-08 0.0242169

0.0279903 0.00377966 4.31493e-08
0.00377966 0.0349101 -1.12183e-07
4.31493e-08 -1.12183e-07 0.0337867

0.0313615 -0.00340946 1.8744e-07
-0.00340946 0.0270085 -1.11753e-07
1.8744e-07 -1.11753e-07 0.0269912

0.0402798 0.00140908 1.09113e-07
0.00140908 0.0406178 -2.19227e-07
1.09113e-07 -2.19227e-07 0.0361703

0.0258809 0.00400282 -7.85864e-08
0.00400282 0.0289544 2.73231e-07
-7.85864e-08 2.73231e-07 0.0245108

0.0366777 0.00110287 1.09614e-07
0.00110287 0.026352 7.18987e-08
1.09614e-07 7.18987e-08 0.0338976

0.0333421 0.00398385 -7.1012e-08
0.00398385 0.0321158 1.90734e-07
-7.1012e-08 1.90734e-07 0.0333155

0.0292279 0.00306733 -6.70117e-08
0.00306733 0.032605 1.00548e-07
-6.70117e-08 1.00548e-07 0.0321576

0.0343647 -0.00431059 -3.56049e-08
-0.00431059 0.0345049 -1.54228e-07
-3.56049e-08 -1.54228e-07 0.0348848

0.0354895 -0.00306344 6.91647e-08
-0.00306344 0.0305898 7.61774e-08
6.91647e-08 7.61774e-08 0.0327503

0.0333665 0.00138792 8.32049e-08
0.00138792 0.0395773 2.18193e-07
8.32049e-08 2.18193e-07 0.0350024

0.0291967 -0.00307902 2.88248e-07
-0.00307902 0.0328734 -2.09866e-07
2.88248e-07 -2.09866e-07 0.0313832

0.0292645 -0.00123215 1.02789e-07
-0.00123215 0.019287 2.27804e-07
1.02789e-07 2.27804e-07 0.016412

0.0287785 -0.00183228 -1.14533e-07
-0.00183228 0.0184139 -7.57141e-08
-1.14533e-07 -7.57141e-08 0.0161969

0.0385293 0.00220182 4.09621e-08
0.00220182 0.0332391 -5.75827e-08
4.09621e-08 -5.75827e-08 0.0347628

0.0280559 0.00294495 1.40375e-07
0.00294495 0.032335 2.05221e-07
1.40375e-07 2.05221e-07 0.0295181

0.0320672 0.00383423 -9.19463e-08
0.00383423 0.0309608 -8.06189e-08
-9.19463e-08 -8.06189e-08 0.0314544

0.0320498 8.98379e-05 4.63402e-08
8.98379e-05 0.0245769 -2.24174e-07
4.63402e-08 -2.24174e-07 0.024888

0.0302376 0.000866047 -1.05629e-07
0.000866047 0.0385808 -3.62673e-08
-1.05629e-07 -3.62673e-08 0.0340963

0.0354016 0.00219139 -7.14329e-08
0.00219139 0.0293229 -1.06388e-07
-7.14329e-08 -1.06388e-07 0.0328583

0.0248113 -0.00333888 3.46001e-08
-0.00333888 0.030006 1.89463e-07
3.46001e-08 1.89463e-07 0.02447

0.0286506 -0.000337962 1.58211e-07
-0.000337962 0.0366572 -7.27301e-08
1.58211e-07 -7.27301e-08 0.0323957

0.0252153 0.00174007 -3.75284e-08
0.00174007 0.0320295 -1.01114e-07
-3.75284e-08 -1.01114e-07 0.0256839

0.0332806 -0.00390962 -2.19867e-08
-0.00390962 0.0304967 7.06613e-08
-2.19867e-08 7.06613e-08 0.0315924

0.0290648 -0.00389605 4.31928e-08
-0.00389605 0.0282 -1.0166e-08
4.31928e-08 -1.0166e-08 0.0257136

0.0261492 0.00409886 4.1808e-08
0.00409886 0.0285464 4.57054e-08
4.1808e-08 4.57054e-08 0.0243181

0.0452873 -0.00201696 -1.48302e-07
-0.00201696 0.0396065 -1.44364e-07
-1.48302e-07 -1.44364e-07 0.036367

0.0316666 0.000256215 -7.08375e-08
0.000256215 0.039327 1.99404e-07
-7.08375e-08 1.99404e-07 0.0347691

0.0306166 0.00265097 -2.50761e-08
0.00265097 0.0384425 2.85383e-08
-2.50761e-08 2.85383e-08 0.0349577

0.0387659 0.00209483 -1.67481e-07
0.00209483 0.0302217 1.79923e-08
-1.67481e-07 1.79923e-08 0.0349426

0.0313706 -0.00345058 1.21561e-08
-0.00345058 0.0321408 -9.50375e-08
1.21561e-08 -9.50375e-08 0.0325727

0.0318179 0.00233615 -1.08862e-07
0.00233615 0.0256204 -2.04153e-07
-1.08862e-07 -2.04153e-07 0.0258796

0.0349938 -0.000708266 2.09668e-07
-0.000708266 0.0415752 -2.75152e-08
2.09668e-07 -2.75152e-08 0.0357277

0.0357879 -0.00251876 -1.21819e-07
-0.00251876 0.0295501 -1.21536e-07
-1.21819e-07 -1.21536e-07 0.033258

0.0332968 -0.00203965 -5.99186e-08
-0.00203965 0.0266527 -4.01503e-08
-5.99186e-08 -4.01503e-08 0.0286754

0.0252523 0.00151083 1.45581e-07
0.00151083 0.032274 1.85007e-07
1.45581e-07 1.85007e-07 0.02595

0.0268047 -0.0033445 -1.51582e-07
-0.0033445 0.0300095 -6.60824e-08
-1.51582e-07 -6.60824e-08 0.0251873

0.0364772 -0.00336036 2.24857e-07
-0.00336036 0.0352878 -8.07677e-08
2.24857e-07 -8.07677e-08 0.0347423

0.0284756 0.00415214 1.71717e-07
0.00415214 0.027716 1.1769e-07
1.71717e-07 1.1769e-07 0.0254677

0.0372435 -0.00334546 -2.10921e-08
-0.00334546 0.0333222 6.5195e-08
-2.10921e-08 6.5195e-08 0.0346116

0.0322059 0.000337891 -7.21884e-08
0.000337891 0.0248625 8.95657e-08
-7.21884e-08 8.95657e-08 0.0254375

0.0191609 -0.00368908 1.88314e-07
-0.00368908 0.0275257 -5.57028e-08
1.88314e-07 -5.57028e-08 0.0163108

0.0292099 -0.00380356 4.33563e-08
-0.00380356 0.0281924 -2.76374e-07
4.33563e-08 -2.76374e-07 0.0258077

0.0230458 0.00412733 -8.71773e-09
0.00412733 0.0280202 2.07819e-07
-8.71773e-09 2.07819e-07 0.0175921

0.0296909 -0.00155941 -1.69977e-07
-0.00155941 0.0375338 1.60858e-07
-1.69977e-07 1.60858e-07 0.0336484

0.0243601 -0.00179354 3.0844e-09
-0.00179354 0.0318722 -8.99163e-09
3.0844e-09 -8.99163e-09 0.0254478

0.0424367 -0.00323434 2.55017e-07
-0.00323434 0.0423764 4.61163e-07
2.55017e-07 4.61163e-07 0.0363752

0.0263365 0.00309101 6.1236e-08
0.00309101 0.0307014 5.13147e-08
6.1236e-08 5.13147e-08 0.0254777

0.0334768 -0.00432352 4.05452e-09
-0.00432352 0.0326596 -2.51578e-08
4.05452e-09 -2.51578e-08 0.0335663

0.0240804 -0.00155081 -1.19788e-07
-0.00155081 0.0318868 2.74393e-07
-1.19788e-07 2.74393e-07 0.0251766

0.0362222 -0.00253868 4.60531e-08
-0.00253868 0.0295109 -9.32764e-09
4.60531e-08 -9.32764e-09 0.0335192

0.0266735 0.00310465 9.13024e-08
0.00310465 0.0303943 -3.48044e-08
9.13024e-08 -3.48044e-08 0.025313

0.0343426 -0.000653753 5.77e-08
-0.000653753 0.0272765 -1.90501e-08
5.77e-08 -1.90501e-08 0.0305774

0.0188903 -0.00387152 1.04581e-07
-0.00387152 0.0298015 1.35911e-07
1.04581e-07 1.35911e-07 0.0129611

0.027999 0.00275447 1.06174e-07
0.00275447 0.0326286 -4.82235e-08
1.06174e-07 -4.82235e-08 0.0305733

0.031437 -0.00251232 6.09182e-08
-0.00251232 0.0247219 -2.3688e-08
6.09182e-08 -2.3688e-08 0.0254056

0.0391182 -0.00286939 8.7405e-08
-0.00286939 0.0322211 2.36456e-08
8.7405e-08 2.36456e-08 0.0349365

0.0287528 0.00412374 -3.35302e-08
0.00412374 0.0272995 -6.75281e-08
-3.35302e-08 -6.75281e-08 0.0252551

0.0313608 -0.00391907 3.04842e-08
-0.00391907 0.0285414 1.24361e-07
3.04842e-08 1.24361e-07 0.0287305

0.0354076 0.00276412 -1.10053e-07
0.00276412 0.0308554 -5.08333e-08
-1.10053e-07 -5.08333e-08 0.0330387

0.0297724 -0.00370368 -5.76695e-08
-0.00370368 0.0329369 6.02962e-09
-5.76695e-08 6.02962e-09 0.0333418

0.0270546 -0.00340996 1.8865e-07
-0.00340996 0.0299819 2.01455e-07
1.8865e-07 2.01455e-07 0.0253969

0.0284401 0.00377111 6.52218e-08
0.00377111 0.0289393 2.77646e-07
6.52218e-08 2.77646e-07 0.0258867

0.0313706 0.00341334 3.58458e-08
0.00341334 0.0268988 -1.50335e-07
3.58458e-08 -1.50335e-07 0.0269654

0.0365351 -0.00194419 3.63702e-08
-0.00194419 0.0306247 -2.98879e-08
3.63702e-08 -2.98879e-08 0.033635

0.025533 -0.00216324 -6.57881e-08
-0.00216324 0.0318009 -1.48497e-08
-6.57881e-08 -1.48497e-08 0.0258531

0.0346989 -0.00231407 1.59277e-09
-0.00231407 0.0283337 5.8556e-08
1.59277e-09 5.8556e-08 0.0314552

0.0341852 0.00222318 -3.39464e-08
0.00222318 0.0274313 -1.87321e-07
-3.39464e-08 -1.87321e-07 0.0306031

0.0336443 -0.00124606 -3.80783e-08
-0.00124606 0.0392993 -1.06397e-07
-3.80783e-08 -1.06397e-07 0.0349267

0.0320711 -0.00174666 1.25448e-08
-0.00174666 0.0253298 -1.16329e-07
1.25448e-08 -1.16329e-07 0.0258704

0.0250012 7.97569e-05 -2.86056e-08
7.97569e-05 0.0331502 -1.8845e-08
-2.86056e-08 -1.8845e-08 0.0268604

0.0332462 0.00242866 -6.02309e-08
0.00242866 0.0271929 -3.25867e-08
-6.02309e-08 -3.25867e-08 0.0289213

0.0311167 0.00359864 6.72114e-09
0.00359864 0.0272919 1.01655e-07
6.72114e-09 1.01655e-07 0.0271219

0.0252947 -0.00204106 8.90879e-08
-0.00204106 0.0318635 2.79322e-07
8.90879e-08 2.79322e-07 0.0256103

0.0252004 -0.000154801 -1.55136e-09
-0.000154801 0.033291 -1.36159e-08
-1.55136e-09 -1.36159e-08 0.0271433

0.0354122 0.00385801 -2.3896e-07
0.00385801 0.032995 -3.52426e-08
-2.3896e-07 -3.52426e-08 0.0338946

0.027585 -0.00143088 -3.68734e-08
-0.00143088 0.0353409 -9.35068e-08
-3.68734e-08 -9.35068e-08 0.0314412

0.0312329 -0.00348366 9.7175e-08
-0.00348366 0.0269768 1.53143e-07
9.7175e-08 1.53143e-07 0.027009

0.0312955 0.00277242 3.52899e-10
0.00277242 0.0249214 -2.10853e-07
3.52899e-10 -2.10853e-07 0.0252455

0.0345817 0.0031182 1.40287e-07
0.0031182 0.0293857 1.34757e-07
1.40287e-07 1.34757e-07 0.0317949

0.0279905 0.000716619 2.61341e-08
0.000716619 0.0360385 4.00529e-08
2.61341e-08 4.00529e-08 0.0318173

0.0287154 0.00378122 -1.0265e-07
0.00378122 0.0285585 4.87541e-08
-1.0265e-07 4.87541e-08 0.0257271

0.0367899 0.00305733 1.61616e-07
0.00305733 0.036125 -1.11666e-07
1.61616e-07 -1.11666e-07 0.0349063

0.0226795 -0.00754513 1.83914e-07
-0.00754513 0.0186872 2.99977e-07
1.83914e-07 2.99977e-07 0.0108448

0.0332903 -0.00328738 -5.37469e-08
-0.00328738 0.0286315 1.17665e-07
-5.37469e-08 1.17665e-07 0.0301232

0.0207263 0.000913313 2.58053e-07
0.000913313 0.0300303 -4.63371e-08
2.58053e-07 -4.63371e-08 0.0183459

0.0312994 -0.00378137 4.63752e-08
-0.00378137 0.0292304 1.52796e-07
4.63752e-08 1.52796e-07 0.0290307

0.00153954 -0.00651865 1.03267e-08
-0.00651865 0.0275677 -4.52442e-08
1.03267e-08 -4.52442e-08 0.00290824

0.00146993 0.00636821 3.40579e-08
0.00636821 0.0275856 1.49217e-07
3.40579e-08 1.49217e-07 0.00300119

0.0119843 0.0145047 -1.33176e-07
0.0145047 0.0175321 -1.66997e-07
-1.33176e-07 -1.66997e-07 0.00277112

0.0121657 -0.0144953 -1.36925e-07
-0.0144953 0.0172235 1.71699e-07
-1.36925e-07 1.71699e-07 0.00280373

0.02934 -0.000164085 -1.83854e-07
-0.000164085 0 0
-1.83854e-07 0 0.00295254

0.0235917 -0.0112824 -1.60252e-07
-0.0112824 0.00539536 7.7173e-08
-1.60252e-07 7.7173e-08 0.00297827

0.0236337 0.0113486 4.14762e-08
0.0113486 0.00544942 1.99739e-08
4.14762e-08 1.99739e-08 0.0030394

0.0369106 0.00191167 1.047e-07
0.00191167 0.0302416 1.08434e-08
1.047e-07 1.08434e-08 0.0338771

0.0387049 0.00340966 2.83211e-08
0.00340966 0.0366171 -7.76449e-08
2.83211e-08 -7.76449e-08 0.0355778

0.0344143 0.000872354 7.77112e-08
0.000872354 0.0274562 3.78715e-08
7.77112e-08 3.78715e-08 0.0316872

0.032872 0.00285027 5.41491e-09
0.00285027 0.0268887 -1.50844e-07
5.41491e-09 -1.50844e-07 0.0286457

0.0257001 0.00231314 5.946e-08
0.00231314 0.0323658 9.48217e-08
5.946e-08 9.48217e-08 0.0276349

0.030712 0.00376881 1.13849e-09
0.00376881 0.0276754 1.09923e-07
1.13849e-09 1.09923e-07 0.027117

0.033305 -0.00390294 -8.96969e-08
-0.00390294 0.0304654 -2.68336e-08
-8.96969e-08 -2.68336e-08 0.0316293

0.0309728 0.00365428 -1.12154e-08
0.00365428 0.0272862 -6.73281e-08
-1.12154e-08 -6.73281e-08 0.0269246

0.0249865 -0.000371515 -2.80718e-07
-0.000371515 0.0331213 -2.69304e-08
-2.80718e-07 -2.69304e-08 0.0268426

0.0385475 -0.00348458 1.26642e-07
-0.00348458 0.0368801 -2.26408e-08
1.26642e-07 -2.26408e-08 0.0355835

0.025175 -0.000635443 9.28513e-10
-0.000635443 0.0332097 -1.3405e-08
9.28513e-10 -1.3405e-08 0.0271021

0.036017 0.00304755 -2.15721e-07
0.00304755 0.0330103 -9.74257e-08
-2.15721e-07 -9.74257e-08 0.0340975

0.0296225 0.00347558 -1.29019e-07
0.00347558 0.0248458 -2.02939e-07
-1.29019e-07 -2.02939e-07 0.0230224

0.0304955 -0.00171393 -1.81386e-07
-0.00171393 0.0375123 4.79257e-08
-1.81386e-07 4.79257e-08 0.034736

0.0339198 0.00180448 1.23573e-07
0.00180448 0.0271811 -3.08985e-08
1.23573e-07 -3.08985e-08 0.0303199

0.0312005 -0.00392034 8.1464e-08
-0.00392034 0.0285307 1.79941e-07
8.1464e-08 1.79941e-07 0.028614

0.0315828 -0.00322131 3.12319e-08
-0.00322131 0.0266911 2.62686e-08
3.12319e-08 2.62686e-08 0.0270472

0.0384791 -0.00214128 1.25701e-08
-0.00214128 0.0334165 1.29478e-07
1.25701e-08 1.29478e-07 0.0347445

0.0326808 0.00366397 -5.86545e-08
0.00366397 0.0292315 1.66075e-07
-5.86545e-08 1.66075e-07 0.0301545

0.0326443 0.00313741 -9.22527e-08
0.00313741 0.0272519 9.77953e-08
-9.22527e-08 9.77953e-08 0.0287875

0.0269548 -0.000365162 -1.44798e-07
-0.000365162 0.0349862 -3.40247e-08
-1.44798e-07 -3.40247e-08 0.0301675

0.0258993 0.000765677 -6.64724e-08
0.000765677 0.0340032 -1.54065e-07
-6.64724e-08 -1.54065e-07 0.0288226

0.0327776 0.000345376 -1.64031e-08
0.000345376 0.0248613 9.31368e-08
-1.64031e-08 9.31368e-08 0.0274433

0.0313869 -0.000944817 1.08162e-07
-0.000944817 0.0230036 -1.11893e-07
1.08162e-07 -1.11893e-07 0.0238918

0.0308803 0.00398506 1.50686e-07
0.00398506 0.0288056 2.28687e-07
1.50686e-07 2.28687e-07 0.0286237

0.0331177 -0.00343153 -5.14282e-09
-0.00343153 0.0285402 1.79309e-07
-5.14282e-09 1.79309e-07 0.0299689

0.0364121 -0.00282362 1.64112e-07
-0.00282362 0.0327326 -1.10718e-08
1.64112e-07 -1.10718e-08 0.0341437

0.0292059 -0.00412758 -2.25152e-07
-0.00412758 0.029192 1.33489e-07
-2.25152e-07 1.33489e-07 0.0277535

0.0269717 -0.0036202 -1.90291e-07
-0.0036202 0.0304645 -2.01719e-09
-1.90291e-07 -2.01719e-09 0.027213

0.0283258 0.00389941 -1.76158e-07
0.00389941 0.0299006 -2.01723e-07
-1.76158e-07 -2.01723e-07 0.0277516

0.0259009 -0.00124895 -2.57809e-07
-0.00124895 0.033613 -6.38393e-08
-2.57809e-07 -6.38393e-08 0.0285156

0.0266541 -0.000202034 -1.90826e-07
-0.000202034 0.0349125 6.0255e-08
-1.90826e-07 6.0255e-08 0.0299194

0.027762 0.000753084 -1.10369e-07
0.000753084 0.0360379 4.10801e-08
-1.10369e-07 4.10801e-08 0.0316578

0.0262468 -0.00274943 2.89547e-08
-0.00274943 0.0319622 -1.56322e-07
2.89547e-08 -1.56322e-07 0.0277102

0.0345821 0.00317565 1.18013e-07
0.00317565 0.0291678 1.76647e-07
1.18013e-07 1.76647e-07 0.031634

0.0339087 -0.0012609 5.8336e-08
-0.0012609 0.02693 -1.74182e-08
5.8336e-08 -1.74182e-08 0.0302013

0.02579 0.000974369 9.07734e-08
0.000974369 0.0338292 1.9446e-07
9.07734e-08 1.9446e-07 0.0285415

0.0278236 -0.00126997 -8.61058e-08
-0.00126997 0.0353967 -1.03549e-07
-8.61058e-08 -1.03549e-07 0.0313656

0.0272927 -0.00213712 6.16584e-09
-0.00213712 0.0336563 -1.25259e-09
6.16584e-09 -1.25259e-09 0.0302253

0.0327763 -0.00107723 -1.56368e-07
-0.00107723 0.0253196 4.8983e-08
-1.56368e-07 4.8983e-08 0.027254

0.0333149 -0.00427104 1.80225e-07
-0.00427104 0.0323803 -1.26678e-07
1.80225e-07 -1.26678e-07 0.0335288

0.0264884 0.00121953 -7.26299e-10
0.00121953 0.0338353 1.93359e-07
-7.26299e-10 1.93359e-07 0.0288156

0.0398112 -0.00243151 -2.58182e-07
-0.00243151 0.0352184 -6.38365e-08
-2.58182e-07 -6.38365e-08 0.0354607

0.0188886 0.00316458 1.10148e-07
0.00316458 0.0278756 2.18759e-07
1.10148e-07 2.18759e-07 0.0162726

0.0338158 -0.00352247 9.90309e-08
-0.00352247 0.0334942 -2.56094e-07
9.90309e-08 -2.56094e-07 0.0337258

0.0353435 -0.00399937 2.39304e-08
-0.00399937 0.033046 1.30626e-07
2.39304e-08 1.30626e-07 0.0339036

0.0266855 -9.03541e-05 1.68124e-07
-9.03541e-05 0.0349176 6.84884e-08
1.68124e-07 6.84884e-08 0.0299276

0.0332425 -0.00217663 -1.44724e-07
-0.00217663 0.0271526 -1.80828e-07
-1.44724e-07 -1.80828e-07 0.0289023

0.0293472 0.00168466 -1.89818e-08
0.00168466 0.035819 -2.90915e-08
-1.89818e-08 -2.90915e-08 0.0328794

0.0132073 -0.000379133 1.43721e-07
-0.000379133 0.0283619 1.25371e-07
1.43721e-07 1.25371e-07 0.0111516

0.0271133 0.00186827 -1.04247e-07
0.00186827 0.0340613 -1.41246e-09
-1.04247e-07 -1.41246e-09 0.0303058

0.0311087 -0.00385847 3.67893e-08
-0.00385847 0.0291535 8.98723e-08
3.67893e-08 8.98723e-08 0.028806

0.0186195 0.00320452 3.8048e-08
0.00320452 0.0301391 2.03099e-08
3.8048e-08 2.03099e-08 0.0131266

0.0426002 0.00351784 2.03155e-07
0.00351784 0.0418486 -5.6065e-07
2.03155e-07 -5.6065e-07 0.03648

0.043206 -0.00374893 6.84601e-08
-0.00374893 0.0414168 -9.69964e-08
6.84601e-08 -9.69964e-08 0.0364625

0.0310647 -0.00399056 1.64556e-07
-0.00399056 0.0304709 -3.29631e-08
1.64556e-07 -3.29631e-08 0.0304606

0.0289215 -0.00406404 -1.67686e-08
-0.00406404 0.0291499 8.92799e-08
-1.67686e-08 8.92799e-08 0.0275939

0.0330502 0.00272692 7.99582e-08
0.00272692 0.0275281 -1.77093e-07
7.99582e-08 -1.77093e-07 0.029075

0.0327789 0.0019601 6.88663e-08
0.0019601 0.0255907 -1.97844e-07
6.88663e-08 -1.97844e-07 0.0278223

0.0464016 0.000418534 -6.14264e-07
0.000418534 0.046356 -6.23498e-07
-6.14264e-07 -6.23498e-07 0.0366943

0.0469203 -0.000951172 7.65392e-07
-0.000951172 0.0457687 -4.51207e-07
7.65392e-07 -4.51207e-07 0.0367654

0.0347989 0.000638325 -3.28051e-08
0.000638325 0.0275724 1.33976e-07
-3.28051e-08 1.33976e-07 0.032216

0.0277513 0.000882356 -9.56991e-08
0.000882356 0.0355695 -1.61271e-08
-9.56991e-08 -1.61271e-08 0.0313481

0.0276072 0.000882871 1.2201e-07
0.000882871 0.0355696 -9.90658e-09
1.2201e-07 -9.90658e-09 0.0312442

0.0234587 0.00739971 2.34388e-07
0.00739971 0.0183017 -1.65706e-07
2.34388e-07 -1.65706e-07 0.0109014

0.0272466 -0.0036754 1.28289e-07
-0.0036754 0.0303468 2.92076e-07
1.28289e-07 2.92076e-07 0.0273189

0.036567 0.00239166 7.34633e-08
0.00239166 0.0295757 5.07999e-08
7.34633e-08 5.07999e-08 0.0337839

0.0332731 0.00124749 -5.02036e-08
0.00124749 0.0265035 3.11831e-08
-5.02036e-08 3.11831e-08 0.0284312

0.0291519 -0.00349229 -6.08374e-08
-0.00349229 0.0304707 8.76806e-09
-6.08374e-08 8.76806e-09 0.0281727

0.0328107 -0.00264763 -1.14214e-08
-0.00264763 0.0267274 2.49101e-08
-1.14214e-08 2.49101e-08 0.0285861

0.0224597 0.00761267 8.96155e-08
0.00761267 0.0185901 -3.39239e-07
8.96155e-08 -3.39239e-07 0.0109038

0.0331445 0.00410238 9.1566e-08
0.00410238 0.0326374 -1.88317e-07
9.1566e-08 -1.88317e-07 0.033181

0.0258896 -0.00257823 1.54955e-07
-0.00257823 0.0320233 1.71916e-07
1.54955e-07 1.71916e-07 0.0275068

0.0324819 0.00378568 -2.49783e-09
0.00378568 0.0292675 8.98451e-08
-2.49783e-09 8.98451e-08 0.0301462

0.0268153 -0.000543527 1.51471e-07
-0.000543527 0.0349512 -3.74047e-09
1.51471e-07 -3.74047e-09 0.0301372

0.0269895 0.00256321 -2.11725e-07
0.00256321 0.0324475 -9.10988e-08
-2.11725e-07 -9.10988e-08 0.0282858

0.0305256 0.00399098 -9.30355e-09
0.00399098 0.0293226 8.90955e-08
-9.30355e-09 8.90955e-08 0.0287744

0.0276081 -0.00293721 -9.52946e-08
-0.00293721 0.0318527 -1.78447e-07
-9.52946e-08 -1.78447e-07 0.0282483

0.0294553 -0.00357575 -1.42752e-07
-0.00357575 0.0303505 2.74865e-07
-1.42752e-07 2.74865e-07 0.0283043

0.0181373 0.00142536 -4.72711e-08
0.00142536 0.0280357 -2.99606e-08
-4.72711e-08 -2.99606e-08 0.0131273

0.0234733 -0.00429382 1.03742e-08
-0.00429382 0.0275554 -5.09434e-08
1.03742e-08 -5.09434e-08 0.0177229

0.0262048 -0.0015258 8.969e-08
-0.0015258 0.0336229 -1.42399e-07
8.969e-08 -1.42399e-07 0.0287511

0.0330228 0.00347469 2.44594e-08
0.00347469 0.0288771 2.39779e-07
2.44594e-08 2.39779e-07 0.0300682

0.030321 0.0038574 2.24308e-07
0.0038574 0.0298859 -1.7491e-07
2.24308e-07 -1.7491e-07 0.0289896

0.0274137 -0.00280055 -1.09673e-07
-0.00280055 0.031983 1.52796e-07
-1.09673e-07 1.52796e-07 0.0281384

0.026554 -0.00154075 3.68384e-08
-0.00154075 0.0335814 -4.87782e-08
3.68384e-08 -4.87782e-08 0.0287456

0.0309556 0.00371833 1.90437e-07
0.00371833 0.0295627 1.50793e-07
1.90437e-07 1.50793e-07 0.0289405

0.0267586 -0.00181595 2.9476e-08
-0.00181595 0.0334733 -1.5532e-07
2.9476e-08 -1.5532e-07 0.0289536

0.0191657 0.00355446 -1.24983e-07
0.00355446 0.0276073 -1.75931e-07
-1.24983e-07 -1.75931e-07 0.0162918

0.0308728 -0.000534651 -1.63353e-08
-0.000534651 0.0388185 8.77585e-08
-1.63353e-08 8.77585e-08 0.0342936

0.0286555 0.00404769 -2.11608e-08
0.00404769 0.0295178 1.74245e-07
-2.11608e-08 1.74245e-07 0.0277138

0.0355791 0.00197492 -2.07295e-07
0.00197492 0.0295022 1.53016e-07
-2.07295e-07 1.53016e-07 0.0328419

0.0362583 -0.00211475 1.01064e-07
-0.00211475 0.0297545 1.92668e-07
1.01064e-07 1.92668e-07 0.0332171

0.0285097 -0.00309554 1.04238e-08
-0.00309554 0.0185685 -2.09493e-07
1.04238e-08 -2.09493e-07 0.0157295

0.0283528 -0.00279032 -1.92866e-07
-0.00279032 0.0327747 -3.88712e-08
-1.92866e-07 -3.88712e-08 0.0305708

0.0291902 0.00350094 -2.72922e-07
0.00350094 0.0315987 1.75018e-07
-2.72922e-07 1.75018e-07 0.0304867

0.0349586 -0.00290762 1.64936e-07
-0.00290762 0.0376747 2.20598e-07
1.64936e-07 2.20598e-07 0.0352354

0.0394598 0.00188458 -5.0784e-07
0.00188458 0.0446074 -7.73855e-08
-5.0784e-07 -7.73855e-08 0.0364323

0.0449431 0.00129034 -1.16594e-07
0.00129034 0.039116 5.44881e-08
-1.16594e-07 5.44881e-08 0.0364141

0.0355591 0.0043457 -2.21092e-08
0.0043457 0.0351342 4.30424e-08
-2.21092e-08 4.30424e-08 0.0350026

0.0265711 0.00338785 -1.32084e-07
0.00338785 0.0310052 -3.0019e-07
-1.32084e-07 -3.0019e-07 0.0272551

0.0330383 0.0034971 1.07514e-07
0.0034971 0.0286663 3.09574e-08
1.07514e-07 3.09574e-08 0.0300493

0.0220592 0.00576415 -1.06514e-07
0.00576415 0.0242368 6.82214e-08
-1.06514e-07 6.82214e-08 0.0160719

0.0386177 -0.00151272 -7.11726e-08
-0.00151272 0.0444322 -1.4797e-08
-7.11726e-08 -1.4797e-08 0.0363614

0.046048 -0.000465256 4.04178e-07
-0.000465256 0.0454378 -4.3401e-07
4.04178e-07 -4.3401e-07 0.0366903

0.0451791 -3.20329e-05 -5.10543e-08
-3.20329e-05 0.0463021 -3.76645e-07
-5.10543e-08 -3.76645e-07 0.0366723

0.0176405 -0.00679469 -8.40747e-08
-0.00679469 0.0231078 -2.41239e-07
-8.40747e-08 -2.41239e-07 0.0107382

0.0392916 -0.00155581 -1.04795e-07
-0.00155581 0.038714 -1.70733e-07
-1.04795e-07 -1.70733e-07 0.0358528

0.0383962 0.00117679 1.96706e-07
0.00117679 0.0415165 -4.21745e-08
1.96706e-07 -4.21745e-08 0.0361243

0.0331745 -0.00343557 -4.91736e-08
-0.00343557 0.028219 7.7679e-08
-4.91736e-08 7.7679e-08 0.0299027

0.0318439 0.000140301 -2.18121e-07
0.000140301 0.0386713 1.08278e-07
-2.18121e-07 1.08278e-07 0.0344496

0.028576 -0.00266031 2.44013e-08
-0.00266031 0.0333799 2.01298e-10
2.44013e-08 2.01298e-10 0.0315885

0.0356614 0.000831729 -1.97935e-07
0.000831729 0.0273768 1.01316e-08
-1.97935e-07 1.01316e-08 0.0329993

0.0288753 0.00204417 1.70036e-08
0.00204417 0.0368157 -1.83662e-07
1.70036e-08 -1.83662e-07 0.0336689

0.0298688 0.000946471 9.78981e-08
0.000946471 0.037388 -1.798e-07
9.78981e-08 -1.798e-07 0.0333627

0.0344006 0.00268496 5.05505e-08
0.00268496 0.0288509 3.8255e-08
5.05505e-08 3.8255e-08 0.0312255

0.0132789 -0.000409385 -5.0785e-08
-0.000409385 0.0281223 -1.46466e-08
-5.0785e-08 -1.46466e-08 0.0112011

0.0309637 -0.00362596 1.11737e-07
-0.00362596 0.0309146 -1.75734e-08
1.11737e-07 -1.75734e-08 0.0306088

0.0329278 -0.00344332 -1.02683e-07
-0.00344332 0.0320202 1.94311e-08
-1.02683e-07 1.94311e-08 0.0325785

0.0335705 -0.00415912 -3.87908e-08
-0.00415912 0.0325335 -1.90429e-07
-3.87908e-08 -1.90429e-07 0.0337349

0.0265614 0.00414857 -1.86679e-07
0.00414857 0.0176911 -2.76629e-07
-1.86679e-07 -2.76629e-07 0.0126049

0.0388279 -0.00269621 -2.13989e-07
-0.00269621 0.039576 -1.45984e-07
-2.13989e-07 -1.45984e-07 0.0359577

0.0230823 0.00692071 8.55223e-08
0.00692071 0.0255014 3.23897e-07
8.55223e-08 3.23897e-07 0.0126092

0.0308739 -0.00281763 -2.2039e-07
-0.00281763 0.0348072 7.18764e-09
-2.2039e-07 7.18764e-09 0.0339555

0.0354107 0.00193632 -5.99342e-08
0.00193632 0.028465 -1.5835e-07
-5.99342e-08 -1.5835e-07 0.0323439

0.0318206 -0.00189329 -1.29649e-08
-0.00189329 0.0249501 8.73453e-08
-1.29649e-08 8.73453e-08 0.0253949

0.0292915 0.00315917 -1.79597e-07
0.00315917 0.032731 -9.85459e-08
-1.79597e-07 -9.85459e-08 0.0312789

0.034436 0.00268863 9.57719e-08
0.00268863 0.0286338 -6.90803e-08
9.57719e-08 -6.90803e-08 0.0312202

0.0325181 0.00149917 -3.0774e-08
0.00149917 0.0403727 -1.13321e-07
-3.0774e-08 -1.13321e-07 0.0353359

0.0319393 -0.00415446 -3.99558e-08
-0.00415446 0.0312007 6.24906e-08
-3.99558e-08 6.24906e-08 0.0318099

0.0396756 0.0026555 -9.03517e-09
0.0026555 0.0331976 6.09858e-08
-9.03517e-09 6.09858e-08 0.0353152

0.0279707 -0.00241843 2.32029e-08
-0.00241843 0.0335501 1.44841e-09
2.32029e-08 1.44841e-09 0.0304699

0.0293502 0.000558563 1.00774e-07
0.000558563 0.0373117 -1.79476e-07
1.00774e-07 -1.79476e-07 0.0332519

0.0419426 0.00133736 5.09238e-07
0.00133736 0.0370997 -1.39982e-07
5.09238e-07 -1.39982e-07 0.0361156

0.0420973 -0.00114818 6.5257e-09
-0.00114818 0.0373255 -3.50838e-08
6.5257e-09 -3.50838e-08 0.0360975

0.0283824 0.002369 1.66391e-07
0.002369 0.0181813 -3.30257e-07
1.66391e-07 -3.30257e-07 0.0159495

0.0350256 0.00106109 -1.04376e-07
0.00106109 0.0285654 -1.55941e-07
-1.04376e-07 -1.55941e-07 0.0330583

0.0128668 0.000923326 -4.02788e-08
0.000923326 0.031626 -9.2374e-08
-4.02788e-08 -9.2374e-08 0.00612159

0.0131624 -0.00138811 1.41498e-07
-0.00138811 0.0321318 5.41798e-08
1.41498e-07 5.41798e-08 0.00611191

0.0152686 0.00715417 -1.63326e-07
0.00715417 0.0284526 -6.24293e-08
-1.63326e-07 -6.24293e-08 0.00598403

0.034764 -0.00382087 -1.27488e-07
-0.00382087 0.031267 1.69659e-07
-1.27488e-07 1.69659e-07 0.0329385

0.0155805 -0.00619423 -9.57146e-08
-0.00619423 0.0261523 5.39362e-08
-9.57146e-08 5.39362e-08 0.0104718

0.0155127 -0.0070867 -2.07789e-07
-0.0070867 0.0274232 -7.95628e-08
-2.07789e-07 -7.95628e-08 0.00591384

0.0284253 0.00342579 -1.03818e-07
0.00342579 0.0310055 -3.00337e-07
-1.03818e-07 -3.00337e-07 0.0281522

0.025193 0.00932577 1.87421e-07
0.00932577 0.0190206 -2.28354e-07
1.87421e-07 -2.28354e-07 0.00593374

0.0365375 0.00173202 1.17602e-07
0.00173202 0.0385507 -4.47255e-09
1.17602e-07 -4.47255e-09 0.0354746

0.0395347 2.52348e-05 -2.07425e-07
2.52348e-05 0.0355391 1.48269e-07
-2.07425e-07 1.48269e-07 0.0354552

0.0261068 -0.00924433 2.33881e-07
-0.00924433 0.0188123 2.50034e-07
2.33881e-07 2.50034e-07 0.00588791

0.0276893 -0.003065 3.53863e-09
-0.003065 0.0320941 -3.73343e-08
3.53863e-09 -3.73343e-08 0.0296223

0.0262548 0.00441795 -2.64653e-07
0.00441795 0.0201578 2.29512e-08
-2.64653e-07 2.29512e-08 0.0130444

0.017279 0.00797302 -3.61893e-07
0.00797302 0.0271486 3.2307e-08
-3.61893e-07 3.2307e-08 0.00598775

0.018196 0.00275508 -3.68392e-08
0.00275508 0.0275893 -3.16951e-08
-3.68392e-08 -3.16951e-08 0.0128498

0.0173039 -0.00827623 -5.90945e-08
-0.00827623 0.027152 -2.39519e-08
-5.90945e-08 -2.39519e-08 0.00581367

0.0179327 -0.00157099 1.75979e-07
-0.00157099 0.0280051 -1.3838e-07
1.75979e-07 -1.3838e-07 0.0126903

0.0370498 0.000922858 -7.57889e-08
0.000922858 0.0412996 -4.56407e-09
-7.57889e-08 -4.56407e-09 0.0358094

0.0221309 -0.00585508 -3.00608e-09
-0.00585508 0.0236644 1.35665e-07
-3.00608e-09 1.35665e-07 0.0151586

0.0156999 0.00598614 -2.09264e-07
0.00598614 0.0259019 3.64117e-07
-2.09264e-07 3.64117e-07 0.01075

0.0302082 0.00473002 -3.18107e-08
0.00473002 0.0143491 2.64346e-07
-3.18107e-08 2.64346e-07 0.00611573

0.0329379 -0.00384938 1.04514e-07
-0.00384938 0.0301232 -2.31802e-08
1.04514e-07 -2.31802e-08 0.0310507

0.0308881 0.00169373 9.62994e-08
0.00169373 0.0368422 -1.87132e-07
9.62994e-08 -1.87132e-07 0.0339496

0.0260895 -0.00484385 3.1406e-07
-0.00484385 0.0191969 -1.54987e-07
3.1406e-07 -1.54987e-07 0.0126948

0.0330001 -0.00378589 1.08773e-07
-0.00378589 0.0300747 -1.31003e-08
1.08773e-07 -1.31003e-08 0.031127

0.0300184 -0.00451981 2.44011e-08
-0.00451981 0.0130534 -3.61683e-07
2.44011e-08 -3.61683e-07 0.00603718

0.0324726 -0.00372727 1.56004e-08
-0.00372727 0.0313065 1.44006e-07
1.56004e-08 1.44006e-07 0.0319788

0.0280905 -0.00331142 -1.95484e-07
-0.00331142 0.0320031 -4.71782e-08
-1.95484e-07 -4.71782e-08 0.0296247

0.0234433 0.00874344 2.9958e-08
0.00874344 0.0204827 -3.29145e-07
2.9958e-08 -3.29145e-07 0.00602607

0.0181994 -0.00292061 -2.48712e-07
-0.00292061 0.0268662 -3.10577e-07
-2.48712e-07 -3.10577e-07 0.0122697

0.0233143 -0.00901911 -1.50787e-07
-0.00901911 0.0201519 -1.12218e-07
-1.50787e-07 -1.12218e-07 0.0058839

0.0170822 0.00640809 -1.8632e-08
0.00640809 0.0235656 1.23616e-07
-1.8632e-08 1.23616e-07 0.0108308

0.0308254 -0.00396004 1.09679e-07
-0.00396004 0.0301594 -2.36251e-08
1.09679e-07 -2.36251e-08 0.0300849

0.0389176 -0.00195883 6.7424e-08
-0.00195883 0.03694 2.47605e-07
6.7424e-08 2.47605e-07 0.0354989

0.045541 0.00150581 2.55412e-07
0.00150581 0.0449524 1.78372e-07
2.55412e-07 1.78372e-07 0.0366185

0.0435642 -0.00071153 -1.83322e-07
-0.00071153 0.0462302 -4.43394e-08
-1.83322e-07 -4.43394e-08 0.0365842

0.028615 0.00171595 -4.11711e-08
0.00171595 0.0355653 8.94342e-08
-4.11711e-08 8.94342e-08 0.032389

0.0453362 -0.00144722 -2.42966e-08
-0.00144722 0.0449791 -2.41619e-07
-2.42966e-08 -2.41619e-07 0.0366363

0.0438073 0.000568079 9.53886e-08
0.000568079 0.0465049 1.8844e-07
9.53886e-08 1.8844e-07 0.0366173

0.04668 0.000991804 4.49092e-07
0.000991804 0.043377 4.85781e-07
4.49092e-07 4.85781e-07 0.0365924

0.0397501 -0.00163951 1.62435e-07
-0.00163951 0.0460759 6.28714e-08
1.62435e-07 6.28714e-08 0.0364822

0.0190536 -0.00388705 -4.16195e-07
-0.00388705 0.0272302 3.11371e-08
-4.16195e-07 3.11371e-08 0.0154708

0.0421403 -0.00175032 3.61536e-07
-0.00175032 0.0367247 1.88394e-07
3.61536e-07 1.88394e-07 0.0360041

0.0359631 -0.00457336 2.79897e-07
-0.00457336 0.0351502 -2.33971e-07
2.79897e-07 -2.33971e-07 0.0349675

0.0397526 -0.00242134 -1.44242e-08
-0.00242134 0.0360638 -3.17302e-07
-1.44242e-08 -3.17302e-07 0.0355666

0.0351837 0.00204316 -1.20809e-07
0.00204316 0.0285484 -8.29675e-08
-1.20809e-07 -8.29675e-08 0.0322312

0.0396921 0.00133789 1.79467e-07
0.00133789 0.0472264 -5.05366e-07
1.79467e-07 -5.05366e-07 0.036548

0.0464955 0.00259367 -1.13245e-07
0.00259367 0.0404181 -3.19872e-07
-1.13245e-07 -3.19872e-07 0.0365292

0.0400867 0.0015052 -1.46267e-08
0.0015052 0.0366734 4.01005e-08
-1.46267e-08 4.01005e-08 0.0356146

0.0279142 -0.00191987 -2.7993e-07
-0.00191987 0.0125245 -3.3096e-07
-2.7993e-07 -3.3096e-07 0.0106243

0.0283181 0.00326769 3.9147e-08
0.00326769 0.0315488 2.95643e-07
3.9147e-08 2.95643e-07 0.0294101

0.0231878 -0.00773575 -1.82355e-08
-0.00773575 0.0181795 -2.19267e-07
-1.82355e-08 -2.19267e-07 0.0102892

0.0228305 -0.00731551 6.36403e-08
-0.00731551 0.025768 7.35862e-08
6.36403e-08 7.35862e-08 0.0119543

0.0290221 -0.00464679 -3.48799e-07
-0.00464679 0.0191279 -1.42041e-07
-3.48799e-07 -1.42041e-07 0.0126148

0.037574 -0.000660693 -7.70198e-08
-0.000660693 0.0449116 -2.34108e-07
-7.70198e-08 -2.34108e-07 0.0362932

0.0375716 0.000358452 1.28478e-07
0.000358452 0.04479 1.57671e-07
1.28478e-07 1.57671e-07 0.0362735

0.0426052 -0.00327434 -1.53643e-07
-0.00327434 0.0394495 4.27374e-08
-1.53643e-07 4.27374e-08 0.0362273

0.0429987 -0.00294469 -1.50251e-07
-0.00294469 0.0391683 -1.47715e-07
-1.50251e-07 -1.47715e-07 0.0362342

0.0425017 0.00350401 1.69333e-07
0.00350401 0.0399717 5.05066e-09
1.69333e-07 5.05066e-09 0.0362721

0.0443985 0.000417636 3.15262e-07
0.000417636 0.0450803 4.61359e-07
3.15262e-07 4.61359e-07 0.0366355

0.0426086 -0.00274487 4.50952e-08
-0.00274487 0.0395071 8.36675e-09
4.50952e-08 8.36675e-09 0.0362888

0.0426031 -0.00251216 9.43492e-08
-0.00251216 0.0442667 -2.27472e-07
9.43492e-08 -2.27472e-07 0.036563

0.0451167 0.000331137 5.73394e-08
0.000331137 0.0454673 3.91431e-07
5.73394e-08 3.91431e-07 0.0366537

0.0436365 -0.00278295 -8.02056e-08
-0.00278295 0.0389162 1.0449e-07
-8.02056e-08 1.0449e-07 0.0363294

0.0435121 0.00283899 -1.26361e-07
0.00283899 0.0390693 -2.52227e-08
-1.26361e-07 -2.52227e-08 0.0363676

0.0451927 -0.000470056 -1.83944e-07
-0.000470056 0.045582 8.58056e-08
-1.83944e-07 8.58056e-08 0.0367024

0.045227 -0.000426096 -2.41937e-07
-0.000426096 0.0443625 5.30426e-07
-2.41937e-07 5.30426e-07 0.0367207

0.042798 0.00163933 1.82379e-07
0.00163933 0.0442493 -1.79388e-07
1.82379e-07 -1.79388e-07 0.0366068

0.0411164 0.00361851 7.4703e-08
0.00361851 0.0405167 1.61613e-07
7.4703e-08 1.61613e-07 0.0363214

SCALARS pressure float
LOOKUP_TABLE default
-60.0509
19.3082
5.80336
21.2901
15.8788
5.88731
-58.6741
7.78309
-3.80491
15.1245
-24.4317
7.61724
5.59205
12.2792
23.3377
5.53893
18.5208
13.2072
-0.69291
6.75652
-0.904879
33.1347
5.80073
5.7968
6.6018
14.9028
-38.385
6.67165
-15.2423
30.6262
5.17628
-15.6571
-42.056
27.3261
20.7791
27.359
31.8845
19.809
4.85957
-42.5993
-17.4073
31.9053
31.9934
5.99353
-21.8049
-15.9758
-1.0525
-3.40553
6.54475
-16.2177
-18.9187
-15.3458
20.7556
-15.3731
20.3087
-33.1485
21.1296
-15.4602
21.1394
7.04486
21.7647
16.1188
-45.5618
12.7898
16.3621
10.9051
21.574
13.8281
5.77343
21.817
20.8117
20.7823
-17.6909
11.6005
3.97391
-31.6095
14.3567
10.9962
14.1461
-8.72004
-28.9446
14.9777
20.1631
-22.0378
-23.4294
-28.0918
7.09772
9.63236
-22.2156
37.7414
-15.5089
38.444
18.3045
10.7615
-15.1665
-15.8727
-30.2212
14.7534
14.3657
4.59866
-10.7663
-21.9394
-25.1014
16.2129
14.1001
14.9616
18.6975
3.77469
-24.5583
26.5131
7.21749
-21.4089
-24.6119
14.8378
15.078
-16.1456
20.1649
-29.1131
20.6285
-16.7292
-2.90479
23.8339
21.7271
16.0329
26.6797
22.6316
21.7856
15.7084
-29.7808
-16.0989
24.0917
21.6173
20.9893
22.0657
-22.0138
23.5871
-33.8372
5.46334
21.7543
23.6305
-21.9367
6.67639
-5.96678
15.0835
-30.4073
15.6239
7.83314
2.40751
5.1777
-9.39453
-0.458083
22.6415
-15.4545
5.29096
15.2041
21.5605
11.5081
-21.1132
-21.2637
10.7904
-2.84284
-15.1975
-21.2203
-15.1652
-20.9864
15.2796
-20.6358
-21.2015
-15.2078
-21.0637
19.0043
-15.9409
-14.8244
12.0644
-14.4847
18.8028
19.0534
7.47267
18.0479
11.773
-16.249
15.2881
14.9609
-21.5284
10.4265
-14.2213
16.0486
14.5955
17.0818
14.8351
10.3438
-26.9762
-16.0822
-15.9581
21.9069
14.5257
14.6246
20.9226
22.4869
9.50261
21.7337
-0.384819
-8.17093
20.7788
-17.8387
19.9456
10.3641
-21.5175
15.7211
22.5262
14.7312
9.3934
14.1898
21.0556
-7.83297
8.82749
-7.90878
14.6482
26.9277
26.5814
27.9605
26.3886
26.7243
26.291
13.8258
23.4303
24.0295
23.9737
23.4
21.1927
21.8573
-8.26304
15.9335
28.1911
-3.1889
23.5761
23.2053
27.8344
-8.49374
28.0965
15.3446
-7.5818
17.4921
-8.258
20.2272
29.6128
-7.48619
-8.10096
-29.5918
-18.189
19.5272
-31.9853
5.73413
-7.79415
-1.18974
28.2492
26.6403
30.4267
26.761
-34.8008
-8.17985
28.3374
8.07267
-8.29536
26.4459
-6.29552
30.4715
-7.95428
27.0471
14.566
14.7871
23.8451
10.0474
18.021
8.11686
-29.8598
-24.553
16.8068
1.75939
8.17932
-13.6089
17.4358
11.6997
-8.10171
9.452
-10.8235
7.51671
-10.7548
-8.48493
33.2646
19.1517
25.0883
25.3126
13.829
-10.4046
26.4299
14.6849
-1.65932
-10.274
-12.5643
17.5066
-7.48545
17.5745
-12.0413
-21.3503
-10.6084
-34.6811
15.5624
-7.76318
34.4426
-11.5781
16.8713
-8.40897
15.9727
-12.7584
4.28883
-51.118
8.5214
-7.74685
21.3338
-8.15237
-0.123218
10.7152
21.1241
-12.0608
-10.2009
-6.06858
14.3179
-10.1802
6.88765
6.38536
16.3054
-10.4197
-6.33069
-1.70269
-5.66078
-11.0786
-5.845
15.3054
7.80767
-5.55637
-8.96067
7.8051
7.69395
-10.6747
16.3093
-27.2134
2.29265
-28.4811
-0.957944
-8.87836
-8.09665
-11.7793
-10.9429
-9.88124
-7.77625
-7.89961
16.6377
24.7779
12.1157
-0.292064
-0.825614
-5.67495
7.30483
-6.32104
-6.31833
24.9237
-5.73037
14.1179
-15.9084
24.3253
5.96772
-0.391621
-5.64423
16.2749
2.47665
0.198596
2.44763
0.455466
-0.741307
-9.93049
-0.0960588
2.11281
15.0689
-1.28874
-1.40762
-0.999283
-0.389041
1.96484
8.05031
-1.19402
8.07776
5.58278
-0.436103
7.03486
5.48982
-3.8769
16.4765
-1.90385
23.0621
-21.9733
15.044
15.6822
2.03919
-1.99793
12.5427
-26.506
5.79181
-1.65837
-50.4824
30.4986
30.6353
5.82445
-1.14482
-1.04726
-0.850154
33.4192
33.2939
13.0946
6.0815
6.66198
-28.9621
-1.27989
16.5334
-3.18314
-4.34854
-0.0174093
-25.2707
14.3031
-1.28066
2.86133
2.69273
-2.7237
-0.0497902
-3.20993
-4.03399
-37.9819
-33.6831
-0.128497
1.87402
-0.534553
-3.74463
-1.93704
-1.87817
-0.924776
-21.9072
17.2495
-0.769791
12.5649
14.1835
-26.7638
6.28584
7.1364
18.4778
36.4284
36.4608
22.6387
-1.75627
2.59918
-20.9294
36.127
32.7606
32.8276
-24.808
21.7757
30.5238
2.59867
15.7239
10.3709
17.1642
17.726
12.5053
5.68096
-25.3975
4.25962
10.409
16.2439
-31.7093
28.3101
-52.7094
18.6848
10.2987
-10.6276
7.41694
5.45666
24.4746
9.41069
24.4076
4.10472
12.3996
30.641
29.4668
-22.9898
17.4353
-70.2285
-74.3749
-67.1725
11.6481
-31.2592
-63.6059
-3.80393
-69.9339
16.4632
16.4069
-73.75
5.21167
-39.729
-70.7345
-37.7549
-71.8708
-39.4504
21.137
-23.9596
-29.0432
-70.6184
4.83098
15.7574
-36.1888
6.05307
-63.6136
9.83557
3.88119
-67.897
-37.6225
-66.4065
-23.7547
5.0286
20.5263
35.3725
36.7283
11.8117
36.8521
36.9055
36.4938
36.4058
-24.4784
28.2487
20.6691
21.9809
11.5342
36.0617
36.0932
18.1202
-23.9395
3.24608
-30.5254
-56.5954
-50.4727
36.1448
35.8255
35.3821
35.4524
36.1608
35.6005
33.1112
37.3725
35.4018
36.0076
35.6398
34.1982
34.3348
35.858
35.3109
