# vtk DataFile Version 3.0
vtk output at time 480
ASCII
DATASET UNSTRUCTURED_GRID
POINTS 626 float
-3.68058e-05 0.000978749 0 3.68058e-05 0.000978749 0 -0.000829194 0.00052125 0 
-0.0008235 0.0005 0 -0.000866 0.0004575 0 -0.000866 -0.0004575 0 
-0.0008235 -0.0005 0 -0.000829194 -0.00052125 0 -3.68058e-05 -0.000978749 0 
3.68058e-05 -0.000978749 0 0.000829194 -0.00052125 0 0.000866 -0.0004575 0 
0.000866 0.0004575 0 0.000829194 0.00052125 0 8.5e-05 0 0 
-3.68058e-05 0.000978749 -0.001 3.68058e-05 0.000978749 -0.001 -0.000829194 0.00052125 -0.001 
-0.0008235 0.0005 -0.001 -0.000866 0.0004575 -0.001 -0.000866 -0.0004575 -0.001 
-0.0008235 -0.0005 -0.001 -0.000829194 -0.00052125 -0.001 -3.68058e-05 -0.000978749 -0.001 
3.68058e-05 -0.000978749 -0.001 0.000829194 -0.00052125 -0.001 0.000866 -0.0004575 -0.001 
0.000866 0.0004575 -0.001 0.000829194 0.00052125 -0.001 8.5e-05 0 -0.001 
8.46223e-17 0.0009575 0 -0.000715996 0.000586607 0 -0.000602797 0.000651965 0 
-0.000489599 0.000717321 0 -0.000376401 0.000782678 0 -0.000263202 0.000848036 0 
-0.000150004 0.000913393 0 -0.000835948 0.000469948 0 -0.000866 -0.000326786 0 
-0.000866 -0.000196071 0 -0.000866 -6.53571e-05 0 -0.000866 6.53571e-05 0 
-0.000866 0.000196071 0 -0.000866 0.000326786 0 -0.000835948 -0.000469948 0 
-0.000150004 -0.000913393 0 -0.000263202 -0.000848036 0 -0.000376401 -0.000782678 0 
-0.000489599 -0.000717321 0 -0.000602797 -0.000651965 0 -0.000715996 -0.000586607 0 
8.47648e-17 -0.0009575 0 0.000715996 -0.000586607 0 0.000602797 -0.000651965 0 
0.000489599 -0.000717321 0 0.000376401 -0.000782678 0 0.000263202 -0.000848036 0 
0.000150004 -0.000913393 0 0.000829194 -0.00047875 0 0.000866 0.000326786 0 
0.000866 0.000196071 0 0.000866 6.53571e-05 0 0.000866 -6.53571e-05 0 
0.000866 -0.000196071 0 0.000866 -0.000326786 0 0.000829194 0.00047875 0 
0.000150004 0.000913393 0 0.000263202 0.000848036 0 0.000376401 0.000782678 0 
0.000489599 0.000717321 0 0.000602797 0.000651965 0 0.000715996 0.000586607 0 
5.29966e-05 6.64557e-05 0 -1.89143e-05 8.28689e-05 0 -7.65824e-05 3.68801e-05 0 
-7.65824e-05 -3.68801e-05 0 -1.89143e-05 -8.28689e-05 0 5.29966e-05 -6.64557e-05 0 
8.46223e-17 0.0009575 -0.001 -0.000715996 0.000586607 -0.001 -0.000602797 0.000651965 -0.001 
-0.000489599 0.000717321 -0.001 -0.000376401 0.000782678 -0.001 -0.000263202 0.000848036 -0.001 
-0.000150004 0.000913393 -0.001 -0.000835948 0.000469948 -0.001 -0.000866 -0.000326786 -0.001 
-0.000866 -0.000196071 -0.001 -0.000866 -6.53571e-05 -0.001 -0.000866 6.53571e-05 -0.001 
-0.000866 0.000196071 -0.001 -0.000866 0.000326786 -0.001 -0.000835948 -0.000469948 -0.001 
-0.000150004 -0.000913393 -0.001 -0.000263202 -0.000848036 -0.001 -0.000376401 -0.000782678 -0.001 
-0.000489599 -0.000717321 -0.001 -0.000602797 -0.000651965 -0.001 -0.000715996 -0.000586607 -0.001 
8.47648e-17 -0.0009575 -0.001 0.000715996 -0.000586607 -0.001 0.000602797 -0.000651965 -0.001 
0.000489599 -0.000717321 -0.001 0.000376401 -0.000782678 -0.001 0.000263202 -0.000848036 -0.001 
0.000150004 -0.000913393 -0.001 0.000829194 -0.00047875 -0.001 0.000866 0.000326786 -0.001 
0.000866 0.000196071 -0.001 0.000866 6.53571e-05 -0.001 0.000866 -6.53571e-05 -0.001 
0.000866 -0.000196071 -0.001 0.000866 -0.000326786 -0.001 0.000829194 0.00047875 -0.001 
0.000150004 0.000913393 -0.001 0.000263202 0.000848036 -0.001 0.000376401 0.000782678 -0.001 
0.000489599 0.000717321 -0.001 0.000602797 0.000651965 -0.001 0.000715996 0.000586607 -0.001 
5.29966e-05 6.64557e-05 -0.001 -1.89143e-05 8.28689e-05 -0.001 -7.65824e-05 3.68801e-05 -0.001 
-7.65824e-05 -3.68801e-05 -0.001 -1.89143e-05 -8.28689e-05 -0.001 5.29966e-05 -6.64557e-05 -0.001 
0.000131234 6.38474e-05 0 0.00012964 -6.2443e-05 0 3.13827e-05 0.0001394 0 
3.12554e-05 -0.000136939 0 -0.000140461 8.25467e-19 0 -8.90565e-05 -0.000102707 0 
-9.04142e-05 0.000102872 0 -0.000765769 -0.00025965 0 -0.000756873 0.000262774 0 
-0.00015609 0.000787505 0 -0.000155807 -0.00079355 0 0.000605069 0.000528035 0 
0.000608694 -0.00052497 0 0.000744069 0.000116929 0 -0.000494418 0.000596218 0 
-0.000483866 -0.000584648 0 0.000269496 0.000702219 0 0.000263201 -0.000717324 0 
0.000754429 -0.000127825 0 -0.000748858 5.84659e-07 0 -0.000747838 0.000373886 0 
-0.0006542 0.000324842 0 -0.000645137 0.000210123 0 -0.000550884 0.000274171 0 
-0.000538857 0.000163195 0 -0.00045062 0.000224461 0 -0.000438393 0.000123907 0 
-0.000354088 0.000181668 0 -0.000363908 0.000282171 0 -0.000270361 0.000239477 0 
-0.000279138 0.000337653 0 -0.000188888 0.000294791 0 -0.000196448 0.000393271 0 
-0.000104767 0.000348259 0 -0.000113332 0.000449012 0 -2.01066e-05 0.000403223 0 
-2.89189e-05 0.000507105 0 6.9524e-05 0.000461596 0 -0.000213644 0.000490203 0 
7.33757e-05 0.000357726 0 0.000163331 0.00041299 0 0.000163359 0.000313022 0 
0.000248077 0.000366368 0 0.000250914 0.000265758 0 0.000335709 0.000322266 0 
0.000340555 0.000218148 0 0.000427299 0.000276717 0 0.000431508 0.000173093 0 
0.000328731 0.000425633 0 0.00034586 0.000114823 0 0.000435362 7.05241e-05 0 
0.000350892 1.5455e-05 0 0.000441547 -3.11896e-05 0 0.000353547 -8.47783e-05 0 
0.000445767 -0.000132964 0 0.000356135 -0.000186358 0 0.000449094 -0.000234674 0 
0.000359978 -0.000287876 0 0.00026856 -0.000240545 0 0.000271895 -0.000341045 0 
0.000181792 -0.00029305 0 0.00018533 -0.000392851 0 9.75701e-05 -0.00034483 0 
9.98764e-05 -0.000444884 0 8.75116e-06 -0.000396343 0 1.20916e-05 -0.000500496 0 
-7.83929e-05 -0.000449843 0 -8.1471e-05 -0.000347249 0 -0.000171566 -0.000403733 0 
-0.000169889 -0.000298891 0 -0.000259867 -0.000354132 0 -0.000257696 -0.000249137 0 
-0.00034313 -0.000299896 0 -0.000344514 -0.000199127 0 -0.000434309 -0.000250039 0 
-0.000169832 -0.000505815 0 -0.000435227 -0.000146227 0 0.000280331 -0.000442424 0 
-0.000340889 8.76793e-05 0 -0.000515252 4.06198e-05 0 6.50491e-05 0.000568253 0 
0.00053278 1.74743e-05 0 0.000522071 0.000229831 0 -0.00037162 0.000391659 0 
-0.000255272 -0.000150439 0 -0.000442893 -0.000350705 0 0.000450067 -0.000332559 0 
0.000545175 -0.000276306 0 -0.000527797 -0.000197598 0 0.000105306 -0.000551033 0 
1.45836e-05 -0.000609147 0 0.00017145 0.000214453 0 0.000515525 0.000341711 0 
0.000636086 0.000290368 0 -0.000558657 0.000404468 0 -4.01232e-05 0.000616718 0 
6.60192e-05 0.000696422 0 -0.000101806 0.0002546 0 0.000271142 -3.88908e-05 0 
0.000179455 -0.00018534 0 -8.79553e-05 -0.000254307 0 -0.000749267 -0.000373451 0 
-0.000655941 -0.000323397 0 0.000709746 0.000466718 0 0.000698426 -0.000473086 0 
-5.25801e-05 -0.00084886 0 -4.93005e-05 0.000848038 0 0.000617396 -0.000413362 0 
0.000702056 -0.000369817 0 0.000131459 -0.000679171 0 2.48171e-05 -0.000715924 0 
-0.000664217 -0.00042729 0 -0.000528828 -8.80444e-05 0 -0.000611101 -0.000136672 0 
-0.000426972 -4.45841e-05 0 0.000800669 0.000378216 0 0.000821144 -0.000415062 0 
7.2799e-05 0.00088254 0 6.81831e-05 -0.00087503 0 0.000104963 -0.000788946 0 
-7.40696e-05 -0.000660054 0 0.000126061 0.000809943 0 0.000764361 0.000295682 0 
0.000166862 0.000630623 0 0.000516462 -0.00046707 0 -0.000563585 -0.000389606 0 
-0.000622598 -1.40238e-05 0 0.000629891 0.000171529 0 2.5614e-06 -0.000299794 0 
8.6901e-05 -0.00024329 0 0.000272045 -0.000136982 0 -0.00075148 0.000138321 0 
0.000209366 -0.000599589 0 0.000324913 -0.000630055 0 0.000614044 0.00041245 0 
0.00049651 -0.000573327 0 0.000394822 -0.000507321 0 -0.000173714 -0.000206698 0 
0.000264897 5.63722e-05 0 0.000247997 0.000152811 0 -4.63327e-05 -0.000920208 0 
9.18688e-05 0.000258626 0 -5.54111e-06 0.000290558 0 -0.000184219 0.000201484 0 
-0.000263559 0.000142267 0 -0.000256427 5.13624e-05 0 -0.000336894 -2.06179e-06 0 
-0.000228499 -4.2388e-05 0 -0.00017589 0.000106626 0 -0.000769947 -0.000133367 0 
0.000767591 -0.000500293 0 -5.05874e-05 0.000737978 0 0.000754456 -3.51771e-06 0 
0.00064691 -6.15298e-05 0 0.000630483 -0.00018134 0 0.000749187 -0.000265543 0 
-0.000760805 -0.000462521 0 0.000638155 6.09315e-05 0 -4.46661e-05 0.000922995 0 
-2.37945e-05 0.000207237 0 0.000776979 0.000500181 0 -0.000605691 0.000527596 0 
-0.000377914 -0.000653727 0 -0.000372325 -0.000526022 0 -0.000275829 -0.000589621 0 
-0.000254285 -0.000710579 0 -0.000379307 0.000656222 0 -0.000379818 0.00052718 0 
-0.000266817 0.000721555 0 -0.000150544 0.000668174 0 0.000381963 0.00065079 0 
0.000493113 0.000590432 0 0.000505439 0.000463708 0 -0.000269094 0.000596608 0 
0.000385815 0.000532045 0 0.000283599 0.0005899 0 -0.000176405 -0.000108505 0 
-0.000278769 -0.000475415 0 0.000185395 2.33014e-06 0 0.000186773 0.000517571 0 
0.000540032 -8.68444e-05 0 -0.000600694 -0.000514877 0 -0.00063703 8.98033e-05 0 
-0.000459677 0.000335729 0 -0.000338836 -0.000100751 0 -0.000457327 0.000432721 0 
-8.72007e-06 -0.000210238 0 0.000156073 0.000129496 0 -7.70692e-05 -0.000555049 0 
0.00036091 -0.000389728 0 0.000531628 0.000120564 0 -0.000285451 0.000435562 0 
0.000192719 -0.000494604 0 0.00041642 0.00039368 0 -0.000135943 0.000554637 0 
-0.000170665 -0.000610079 0 -0.000666304 0.000434981 0 -0.000758736 0.000479231 0 
-0.000470189 -0.000458901 0 0.000203433 -8.59809e-05 0 0.000101846 0.000170114 0 
-0.00035513 -0.00040726 0 0.000100184 -0.000165831 0 2.96286e-05 0.00081537 0 
0.000720946 0.000381836 0 -0.000539809 -0.000292001 0 0.00052211 -0.000182426 0 
-6.41339e-05 -0.000753908 0 0.000638039 -0.000299861 0 -0.000605136 -0.000230182 0 
-3.41638e-05 -0.000145561 0 -0.000104037 0.000172396 0 -0.000808575 -0.00042774 0 
-0.000807207 -0.000465052 0 -0.00080817 0.000429771 0 -0.000806589 0.000469738 0 
-9.50634e-05 -0.000178909 0 0.000247777 0.000445058 0 1.48293e-05 -0.000814201 0 
-4.11555e-05 0.000140955 0 0.000276104 -0.000536845 0 0.000765969 -0.000436638 0 
0.000780871 -0.000362769 0 0.000424176 -0.000642018 0 0.00053413 -0.000368009 0 
-0.000416333 4.17911e-05 0 -0.000133891 -6.23822e-05 0 4.2574e-05 0.000206312 0 
0.000141163 -0.000121542 0 0.000707423 0.000212137 0 0.000172327 0.000723882 0 
7.72652e-06 -0.00090254 0 -0.000134435 5.66935e-05 0 -0.000188826 3.70894e-05 0 
0.000197119 8.09714e-05 0 1.27801e-05 0.000917296 0 0.000800767 0.00044758 0 
-0.000686682 0.000507104 0 9.35831e-05 0.000110457 0 -0.000696793 -0.000509595 0 
-0.00068446 -8.52012e-05 0 -0.000691033 -0.000201242 0 5.24052e-05 -0.000189075 0 
-0.000151818 -0.000701092 0 -0.000296988 0.000518087 0 9.31023e-05 -0.000108117 0 
0.00044261 -0.000416726 0 0.000197044 -0.000784423 0 -0.000516861 0.000504567 0 
0.000298997 0.000502377 0 0.000131234 6.38474e-05 -0.001 0.00012964 -6.2443e-05 -0.001 
3.13827e-05 0.0001394 -0.001 3.12554e-05 -0.000136939 -0.001 -0.000140461 8.25467e-19 -0.001 
-8.90565e-05 -0.000102707 -0.001 -9.04142e-05 0.000102872 -0.001 -0.000765769 -0.00025965 -0.001 
-0.000756873 0.000262774 -0.001 -0.00015609 0.000787505 -0.001 -0.000155807 -0.00079355 -0.001 
0.000605069 0.000528035 -0.001 0.000608694 -0.00052497 -0.001 0.000744069 0.000116929 -0.001 
-0.000494418 0.000596218 -0.001 -0.000483866 -0.000584648 -0.001 0.000269496 0.000702219 -0.001 
0.000263201 -0.000717324 -0.001 0.000754429 -0.000127825 -0.001 -0.000748858 5.84659e-07 -0.001 
-0.000747838 0.000373886 -0.001 -0.0006542 0.000324842 -0.001 -0.000645137 0.000210123 -0.001 
-0.000550884 0.000274171 -0.001 -0.000538857 0.000163195 -0.001 -0.00045062 0.000224461 -0.001 
-0.000438393 0.000123907 -0.001 -0.000354088 0.000181668 -0.001 -0.000363908 0.000282171 -0.001 
-0.000270361 0.000239477 -0.001 -0.000279138 0.000337653 -0.001 -0.000188888 0.000294791 -0.001 
-0.000196448 0.000393271 -0.001 -0.000104767 0.000348259 -0.001 -0.000113332 0.000449012 -0.001 
-2.01066e-05 0.000403223 -0.001 -2.89189e-05 0.000507105 -0.001 6.9524e-05 0.000461596 -0.001 
-0.000213644 0.000490203 -0.001 7.33757e-05 0.000357726 -0.001 0.000163331 0.00041299 -0.001 
0.000163359 0.000313022 -0.001 0.000248077 0.000366368 -0.001 0.000250914 0.000265758 -0.001 
0.000335709 0.000322266 -0.001 0.000340555 0.000218148 -0.001 0.000427299 0.000276717 -0.001 
0.000431508 0.000173093 -0.001 0.000328731 0.000425633 -0.001 0.00034586 0.000114823 -0.001 
0.000435362 7.05241e-05 -0.001 0.000350892 1.5455e-05 -0.001 0.000441547 -3.11896e-05 -0.001 
0.000353547 -8.47783e-05 -0.001 0.000445767 -0.000132964 -0.001 0.000356135 -0.000186358 -0.001 
0.000449094 -0.000234674 -0.001 0.000359978 -0.000287876 -0.001 0.00026856 -0.000240545 -0.001 
0.000271895 -0.000341045 -0.001 0.000181792 -0.00029305 -0.001 0.00018533 -0.000392851 -0.001 
9.75701e-05 -0.00034483 -0.001 9.98764e-05 -0.000444884 -0.001 8.75116e-06 -0.000396343 -0.001 
1.20916e-05 -0.000500496 -0.001 -7.83929e-05 -0.000449843 -0.001 -8.1471e-05 -0.000347249 -0.001 
-0.000171566 -0.000403733 -0.001 -0.000169889 -0.000298891 -0.001 -0.000259867 -0.000354132 -0.001 
-0.000257696 -0.000249137 -0.001 -0.00034313 -0.000299896 -0.001 -0.000344514 -0.000199127 -0.001 
-0.000434309 -0.000250039 -0.001 -0.000169832 -0.000505815 -0.001 -0.000435227 -0.000146227 -0.001 
0.000280331 -0.000442424 -0.001 -0.000340889 8.76793e-05 -0.001 -0.000515252 4.06198e-05 -0.001 
6.50491e-05 0.000568253 -0.001 0.00053278 1.74743e-05 -0.001 0.000522071 0.000229831 -0.001 
-0.00037162 0.000391659 -0.001 -0.000255272 -0.000150439 -0.001 -0.000442893 -0.000350705 -0.001 
0.000450067 -0.000332559 -0.001 0.000545175 -0.000276306 -0.001 -0.000527797 -0.000197598 -0.001 
0.000105306 -0.000551033 -0.001 1.45836e-05 -0.000609147 -0.001 0.00017145 0.000214453 -0.001 
0.000515525 0.000341711 -0.001 0.000636086 0.000290368 -0.001 -0.000558657 0.000404468 -0.001 
-4.01232e-05 0.000616718 -0.001 6.60192e-05 0.000696422 -0.001 -0.000101806 0.0002546 -0.001 
0.000271142 -3.88908e-05 -0.001 0.000179455 -0.00018534 -0.001 -8.79553e-05 -0.000254307 -0.001 
-0.000749267 -0.000373451 -0.001 -0.000655941 -0.000323397 -0.001 0.000709746 0.000466718 -0.001 
0.000698426 -0.000473086 -0.001 -5.25801e-05 -0.00084886 -0.001 -4.93005e-05 0.000848038 -0.001 
0.000617396 -0.000413362 -0.001 0.000702056 -0.000369817 -0.001 0.000131459 -0.000679171 -0.001 
2.48171e-05 -0.000715924 -0.001 -0.000664217 -0.00042729 -0.001 -0.000528828 -8.80444e-05 -0.001 
-0.000611101 -0.000136672 -0.001 -0.000426972 -4.45841e-05 -0.001 0.000800669 0.000378216 -0.001 
0.000821144 -0.000415062 -0.001 7.2799e-05 0.00088254 -0.001 6.81831e-05 -0.00087503 -0.001 
0.000104963 -0.000788946 -0.001 -7.40696e-05 -0.000660054 -0.001 0.000126061 0.000809943 -0.001 
0.000764361 0.000295682 -0.001 0.000166862 0.000630623 -0.001 0.000516462 -0.00046707 -0.001 
-0.000563585 -0.000389606 -0.001 -0.000622598 -1.40238e-05 -0.001 0.000629891 0.000171529 -0.001 
2.5614e-06 -0.000299794 -0.001 8.6901e-05 -0.00024329 -0.001 0.000272045 -0.000136982 -0.001 
-0.00075148 0.000138321 -0.001 0.000209366 -0.000599589 -0.001 0.000324913 -0.000630055 -0.001 
0.000614044 0.00041245 -0.001 0.00049651 -0.000573327 -0.001 0.000394822 -0.000507321 -0.001 
-0.000173714 -0.000206698 -0.001 0.000264897 5.63722e-05 -0.001 0.000247997 0.000152811 -0.001 
-4.63327e-05 -0.000920208 -0.001 9.18688e-05 0.000258626 -0.001 -5.54111e-06 0.000290558 -0.001 
-0.000184219 0.000201484 -0.001 -0.000263559 0.000142267 -0.001 -0.000256427 5.13624e-05 -0.001 
-0.000336894 -2.06179e-06 -0.001 -0.000228499 -4.2388e-05 -0.001 -0.00017589 0.000106626 -0.001 
-0.000769947 -0.000133367 -0.001 0.000767591 -0.000500293 -0.001 -5.05874e-05 0.000737978 -0.001 
0.000754456 -3.51771e-06 -0.001 0.00064691 -6.15298e-05 -0.001 0.000630483 -0.00018134 -0.001 
0.000749187 -0.000265543 -0.001 -0.000760805 -0.000462521 -0.001 0.000638155 6.09315e-05 -0.001 
-4.46661e-05 0.000922995 -0.001 -2.37945e-05 0.000207237 -0.001 0.000776979 0.000500181 -0.001 
-0.000605691 0.000527596 -0.001 -0.000377914 -0.000653727 -0.001 -0.000372325 -0.000526022 -0.001 
-0.000275829 -0.000589621 -0.001 -0.000254285 -0.000710579 -0.001 -0.000379307 0.000656222 -0.001 
-0.000379818 0.00052718 -0.001 -0.000266817 0.000721555 -0.001 -0.000150544 0.000668174 -0.001 
0.000381963 0.00065079 -0.001 0.000493113 0.000590432 -0.001 0.000505439 0.000463708 -0.001 
-0.000269094 0.000596608 -0.001 0.000385815 0.000532045 -0.001 0.000283599 0.0005899 -0.001 
-0.000176405 -0.000108505 -0.001 -0.000278769 -0.000475415 -0.001 0.000185395 2.33014e-06 -0.001 
0.000186773 0.000517571 -0.001 0.000540032 -8.68444e-05 -0.001 -0.000600694 -0.000514877 -0.001 
-0.00063703 8.98033e-05 -0.001 -0.000459677 0.000335729 -0.001 -0.000338836 -0.000100751 -0.001 
-0.000457327 0.000432721 -0.001 -8.72007e-06 -0.000210238 -0.001 0.000156073 0.000129496 -0.001 
-7.70692e-05 -0.000555049 -0.001 0.00036091 -0.000389728 -0.001 0.000531628 0.000120564 -0.001 
-0.000285451 0.000435562 -0.001 0.000192719 -0.000494604 -0.001 0.00041642 0.00039368 -0.001 
-0.000135943 0.000554637 -0.001 -0.000170665 -0.000610079 -0.001 -0.000666304 0.000434981 -0.001 
-0.000758736 0.000479231 -0.001 -0.000470189 -0.000458901 -0.001 0.000203433 -8.59809e-05 -0.001 
0.000101846 0.000170114 -0.001 -0.00035513 -0.00040726 -0.001 0.000100184 -0.000165831 -0.001 
2.96286e-05 0.00081537 -0.001 0.000720946 0.000381836 -0.001 -0.000539809 -0.000292001 -0.001 
0.00052211 -0.000182426 -0.001 -6.41339e-05 -0.000753908 -0.001 0.000638039 -0.000299861 -0.001 
-0.000605136 -0.000230182 -0.001 -3.41638e-05 -0.000145561 -0.001 -0.000104037 0.000172396 -0.001 
-0.000808575 -0.00042774 -0.001 -0.000807207 -0.000465052 -0.001 -0.00080817 0.000429771 -0.001 
-0.000806589 0.000469738 -0.001 -9.50634e-05 -0.000178909 -0.001 0.000247777 0.000445058 -0.001 
1.48293e-05 -0.000814201 -0.001 -4.11555e-05 0.000140955 -0.001 0.000276104 -0.000536845 -0.001 
0.000765969 -0.000436638 -0.001 0.000780871 -0.000362769 -0.001 0.000424176 -0.000642018 -0.001 
0.00053413 -0.000368009 -0.001 -0.000416333 4.17911e-05 -0.001 -0.000133891 -6.23822e-05 -0.001 
4.2574e-05 0.000206312 -0.001 0.000141163 -0.000121542 -0.001 0.000707423 0.000212137 -0.001 
0.000172327 0.000723882 -0.001 7.72652e-06 -0.00090254 -0.001 -0.000134435 5.66935e-05 -0.001 
-0.000188826 3.70894e-05 -0.001 0.000197119 8.09714e-05 -0.001 1.27801e-05 0.000917296 -0.001 
0.000800767 0.00044758 -0.001 -0.000686682 0.000507104 -0.001 9.35831e-05 0.000110457 -0.001 
-0.000696793 -0.000509595 -0.001 -0.00068446 -8.52012e-05 -0.001 -0.000691033 -0.000201242 -0.001 
5.24052e-05 -0.000189075 -0.001 -0.000151818 -0.000701092 -0.001 -0.000296988 0.000518087 -0.001 
9.31023e-05 -0.000108117 -0.001 0.00044261 -0.000416726 -0.001 0.000197044 -0.000784423 -0.001 
-0.000516861 0.000504567 -0.001 0.000298997 0.000502377 -0.001 

CELLS 563 3941
6 14 304 127 29 554 377 
6 143 259 55 393 509 103 
6 300 319 174 550 569 424 
6 259 349 55 509 599 103 
6 50 365 307 98 615 557 
6 299 320 164 549 570 414 
6 126 304 14 376 554 29 
6 298 319 300 548 569 550 
6 205 240 238 455 490 488 
6 257 308 145 507 558 395 
6 130 352 273 380 602 523 
6 295 320 299 545 570 549 
6 324 327 289 574 577 539 
6 235 258 143 485 508 393 
6 50 307 49 98 557 97 
6 207 283 279 457 533 529 
6 143 373 235 393 623 485 
6 145 308 252 395 558 502 
6 194 303 196 444 553 446 
6 279 306 207 529 556 457 
6 206 305 163 456 555 413 
6 51 357 9 99 607 24 
6 238 252 205 488 502 455 
6 293 317 209 543 567 459 
6 207 316 283 457 566 533 
6 142 301 249 392 551 499 
6 273 359 130 523 609 380 
6 211 327 324 461 577 574 
6 169 265 217 419 515 467 
6 7 365 50 22 615 98 
6 283 316 253 533 566 503 
6 159 268 223 409 518 473 
6 274 337 132 524 587 382 
6 232 361 329 482 611 579 
6 231 266 45 481 516 93 
6 229 362 330 479 612 580 
6 9 244 57 24 494 105 
6 230 276 52 480 526 100 
6 209 311 293 459 561 543 
6 131 342 302 381 592 552 
6 270 271 204 520 521 454 
6 66 243 1 114 493 16 
6 59 241 12 107 491 27 
6 280 306 279 530 556 529 
6 269 337 274 519 587 524 
6 179 256 224 429 506 474 
6 163 305 166 413 555 416 
6 201 303 194 451 553 444 
6 280 332 306 530 582 556 
6 186 255 225 436 505 475 
6 210 310 273 460 560 523 
6 153 270 204 403 520 454 
6 136 231 45 386 481 93 
6 171 265 169 421 515 419 
6 138 230 52 388 480 100 
6 225 354 325 475 604 575 
6 36 284 232 84 534 482 
6 161 268 159 411 518 409 
6 71 286 229 119 536 479 
6 290 303 201 540 553 451 
6 139 355 60 389 605 108 
6 60 355 248 108 605 498 
6 273 352 302 523 602 552 
6 235 373 245 485 623 495 
6 67 356 247 115 606 497 
6 221 295 277 471 545 527 
6 142 356 67 392 606 115 
6 139 283 253 389 533 503 
6 203 315 262 453 565 512 
6 41 257 145 89 507 395 
6 36 232 135 84 482 385 
6 71 229 137 119 479 387 
6 254 255 188 504 505 438 
6 233 350 334 483 600 584 
6 262 346 203 512 596 453 
6 304 325 127 554 575 377 
6 222 329 247 472 579 497 
6 218 298 260 468 548 510 
6 290 321 291 540 571 541 
6 272 310 240 522 560 490 
6 269 274 270 519 524 520 
6 244 245 57 494 495 105 
6 49 307 141 97 557 391 
6 225 325 256 475 575 506 
6 273 310 272 523 560 522 
6 312 368 255 562 618 505 
6 249 305 206 499 555 456 
6 228 331 251 478 581 501 
6 302 342 263 552 592 513 
6 338 339 44 588 589 92 
6 190 254 188 440 504 438 
6 37 341 340 85 591 590 
6 138 233 230 388 483 480 
6 228 335 331 478 585 581 
6 181 256 179 431 506 429 
6 195 263 226 445 513 476 
6 268 285 223 518 535 473 
6 290 291 288 540 541 538 
6 219 330 248 469 580 498 
6 201 321 290 451 571 540 
6 240 310 202 490 560 452 
6 188 255 186 438 505 436 
6 270 274 271 520 524 521 
6 262 349 259 512 599 509 
6 141 324 289 391 574 539 
6 296 301 142 546 551 392 
6 247 356 222 497 606 472 
6 239 252 238 489 502 488 
6 254 312 255 504 562 505 
6 54 261 53 102 511 101 
6 289 327 303 539 577 553 
6 268 353 285 518 603 535 
6 273 302 210 523 552 460 
6 292 299 293 542 549 543 
6 278 283 139 528 533 389 
6 175 265 171 425 515 421 
6 227 338 38 477 588 86 
6 264 360 265 514 610 515 
6 43 340 146 91 590 396 
6 165 268 161 415 518 411 
6 205 351 240 455 601 490 
6 64 281 63 112 531 111 
6 288 291 47 538 541 95 
6 135 295 294 385 545 544 
6 42 257 41 90 507 89 
6 245 373 57 495 623 105 
6 31 363 323 79 613 573 
6 292 293 140 542 543 390 
6 267 353 268 517 603 518 
6 155 270 153 405 520 403 
6 244 344 245 494 594 495 
6 61 278 139 109 528 389 
6 135 294 35 385 544 83 
6 69 297 296 117 547 546 
6 186 225 184 436 475 434 
6 329 361 243 579 611 493 
6 255 328 225 505 578 475 
6 213 332 280 463 582 530 
6 39 275 133 87 525 383 
6 330 362 241 580 612 491 
6 195 226 193 445 476 443 
6 211 324 251 461 574 501 
6 151 153 152 401 403 402 
6 295 299 294 545 549 544 
6 265 313 217 515 563 467 
6 258 259 143 508 509 393 
6 251 331 211 501 581 461 
6 149 151 150 399 401 400 
6 293 370 317 543 620 567 
6 153 204 152 403 454 402 
6 151 152 150 401 402 400 
6 33 292 140 81 542 390 
6 210 263 197 460 513 447 
6 301 305 249 551 555 499 
6 298 300 297 548 550 547 
6 68 296 142 116 546 392 
6 321 369 291 571 619 541 
6 179 224 177 429 474 427 
6 167 267 165 417 517 415 
6 259 346 262 509 596 512 
6 303 327 196 553 577 446 
6 269 270 155 519 520 405 
6 265 360 313 515 610 563 
6 223 269 157 473 519 407 
6 157 269 155 407 519 405 
6 144 279 278 394 529 528 
6 169 217 167 419 467 417 
6 177 264 175 427 514 425 
6 267 268 165 517 518 415 
6 159 223 157 409 473 407 
6 232 277 135 482 527 385 
6 193 254 190 443 504 440 
6 217 267 167 467 517 417 
6 249 356 142 499 606 392 
6 184 256 181 434 506 431 
6 248 355 219 498 605 469 
6 229 260 137 479 510 387 
6 149 150 148 399 400 398 
6 64 348 281 112 598 531 
6 311 374 293 561 624 543 
6 264 265 175 514 515 425 
6 297 300 296 547 550 546 
6 141 289 288 391 539 538 
6 197 263 195 447 513 445 
6 218 260 219 468 510 469 
6 224 264 177 474 514 427 
6 137 298 297 387 548 547 
6 277 295 135 527 545 385 
6 133 228 227 383 478 477 
6 261 349 262 511 599 512 
6 221 277 222 471 527 472 
6 256 325 224 506 575 474 
6 199 210 197 449 460 447 
6 226 254 193 476 504 443 
6 144 278 62 394 528 110 
6 279 283 278 529 533 528 
6 289 290 288 539 540 538 
6 137 297 70 387 547 118 
6 34 294 292 82 544 542 
6 235 236 216 485 486 466 
6 141 288 48 391 538 96 
6 178 306 180 428 556 430 
6 185 186 184 435 436 434 
6 63 281 144 111 531 394 
6 225 256 184 475 506 434 
6 46 291 136 94 541 386 
6 147 149 148 397 399 398 
6 271 272 204 521 522 454 
6 233 334 234 483 584 484 
6 145 275 40 395 525 88 
6 220 322 287 470 572 537 
6 280 334 213 530 584 463 
6 144 280 279 394 530 529 
6 140 287 32 390 537 80 
6 154 155 153 404 405 403 
6 334 350 213 584 600 463 
6 176 177 175 426 427 425 
6 260 298 137 510 548 387 
6 33 140 32 81 390 80 
6 49 141 48 97 391 96 
6 56 143 55 104 393 103 
6 68 142 67 116 392 115 
6 63 144 62 111 394 110 
6 61 139 60 109 389 108 
6 148 308 257 398 558 507 
6 71 137 70 119 387 118 
6 53 138 52 101 388 100 
6 46 136 45 94 386 93 
6 36 135 35 84 385 83 
6 43 146 134 91 396 384 
6 133 227 38 383 477 86 
6 192 193 190 442 443 440 
6 293 374 140 543 624 390 
6 34 292 33 82 542 81 
6 207 306 178 457 556 428 
6 43 134 42 91 384 90 
6 39 133 38 87 383 86 
6 41 145 40 89 395 88 
6 194 195 193 444 445 443 
6 69 296 68 117 546 116 
6 294 299 292 544 549 542 
6 173 175 171 423 425 421 
6 260 330 219 510 580 469 
6 183 184 181 433 434 431 
6 134 257 42 384 507 90 
6 55 349 54 103 599 102 
6 163 165 161 413 415 411 
6 166 167 165 416 417 415 
6 210 302 263 460 552 513 
6 271 273 272 521 523 522 
6 53 261 138 101 511 388 
6 217 326 267 467 576 517 
6 289 303 290 539 553 540 
6 178 179 177 428 429 427 
6 238 240 202 488 490 452 
6 62 278 61 110 528 109 
6 35 294 34 83 544 82 
6 284 361 232 534 611 482 
6 70 297 69 118 547 117 
6 224 304 264 474 554 514 
6 156 157 155 406 407 405 
6 48 288 47 96 538 95 
6 221 320 295 471 570 545 
6 187 188 186 437 438 436 
6 47 291 46 95 541 94 
6 151 154 153 401 404 403 
6 286 362 229 536 612 479 
6 168 169 167 418 419 417 
6 40 275 39 88 525 87 
6 307 324 141 557 574 391 
6 300 301 296 550 551 546 
6 32 287 31 80 537 79 
6 147 220 149 397 470 399 
6 333 344 231 583 594 481 
6 299 370 293 549 620 543 
6 271 359 273 521 609 523 
6 224 325 304 474 575 554 
6 228 237 227 478 487 477 
6 305 375 343 555 625 593 
6 218 319 298 468 569 548 
6 240 351 272 490 601 522 
6 277 329 222 527 579 472 
6 253 355 139 503 605 389 
6 158 159 157 408 409 407 
6 236 246 216 486 496 466 
6 192 194 193 442 444 443 
6 220 309 149 470 559 399 
6 183 185 184 433 435 434 
6 196 197 195 446 447 445 
6 276 347 58 526 597 106 
6 136 333 231 386 583 481 
6 67 247 66 115 497 114 
6 60 248 59 108 498 107 
6 261 262 250 511 512 500 
6 173 176 175 423 426 425 
6 344 357 231 594 607 481 
6 144 281 280 394 531 530 
6 152 205 150 402 455 400 
6 163 166 165 413 416 415 
6 185 187 186 435 437 436 
6 233 234 230 483 484 480 
6 170 171 169 420 421 419 
6 146 147 134 396 397 384 
6 176 178 177 426 428 427 
6 285 337 223 535 587 473 
6 154 156 155 404 406 405 
6 263 342 226 513 592 476 
6 235 245 236 485 495 486 
6 160 161 159 410 411 409 
6 58 347 242 106 597 492 
6 166 168 167 416 418 417 
6 287 374 220 537 624 470 
6 189 190 188 439 440 438 
6 148 257 134 398 507 384 
6 194 196 195 444 446 445 
6 252 308 205 502 558 455 
6 285 345 337 535 595 587 
6 301 375 305 551 625 555 
6 180 181 179 430 431 429 
6 281 348 234 531 598 484 
6 198 199 197 448 449 447 
6 151 309 154 401 559 404 
6 228 367 335 478 617 585 
6 54 349 261 102 599 511 
6 156 158 157 406 408 407 
6 168 170 169 418 420 419 
6 200 202 199 450 452 449 
6 147 148 134 397 398 384 
6 158 160 159 408 410 409 
6 150 308 148 400 558 398 
6 253 316 208 503 566 458 
6 232 329 277 482 579 527 
6 178 180 179 428 430 429 
6 191 192 190 441 442 440 
6 214 238 202 464 488 452 
6 172 173 171 422 423 421 
6 187 189 188 437 439 438 
6 162 163 161 412 413 411 
6 228 251 237 478 501 487 
6 215 258 235 465 508 485 
6 182 183 181 432 433 431 
6 202 310 199 452 560 449 
6 219 253 208 469 503 458 
6 222 249 206 472 499 456 
6 196 198 197 446 448 447 
6 229 330 260 479 580 510 
6 132 358 274 382 608 524 
6 149 309 151 399 559 401 
6 226 312 254 476 562 504 
6 154 309 209 404 559 459 
6 77 129 76 125 379 124 
6 73 128 72 121 378 120 
6 76 131 75 124 381 123 
6 74 132 73 122 382 121 
6 75 130 74 123 380 122 
6 14 127 77 29 377 125 
6 72 126 14 120 376 29 
6 133 367 228 383 617 478 
6 237 282 227 487 532 477 
6 239 366 252 489 616 502 
6 200 214 202 450 464 452 
6 192 201 194 442 451 444 
6 170 172 171 420 422 421 
6 220 311 309 470 561 559 
6 198 200 199 448 450 449 
6 189 191 190 439 441 440 
6 146 323 322 396 573 572 
6 160 162 161 410 412 411 
6 251 307 237 501 557 487 
6 199 310 210 449 560 460 
6 57 373 56 105 623 104 
6 214 239 238 464 489 488 
6 182 212 183 432 462 433 
6 180 182 181 430 432 431 
6 146 322 147 396 572 397 
6 172 218 208 422 468 458 
6 172 208 173 422 458 423 
6 162 221 206 412 471 456 
6 162 206 163 412 456 413 
6 176 207 178 426 457 428 
6 272 351 204 522 601 454 
6 198 211 200 448 461 450 
6 182 213 212 432 463 462 
6 234 334 281 484 584 531 
6 154 209 156 404 459 406 
6 185 203 187 435 453 437 
6 168 174 170 418 424 420 
6 189 215 191 439 465 441 
6 215 216 191 465 466 441 
6 221 222 206 471 472 456 
6 158 164 160 408 414 410 
6 218 219 208 468 469 458 
6 205 308 150 455 558 400 
6 191 314 192 441 564 442 
6 215 235 216 465 485 466 
6 215 318 258 465 568 508 
6 152 351 205 402 601 455 
6 138 261 250 388 511 500 
6 192 314 201 442 564 451 
6 234 347 230 484 597 480 
6 226 342 312 476 592 562 
6 138 250 233 388 500 483 
6 147 322 220 397 572 470 
6 216 314 191 466 564 441 
6 306 332 180 556 582 430 
6 222 356 249 472 606 499 
6 128 345 285 378 595 535 
6 314 321 201 564 571 451 
6 212 315 183 462 565 433 
6 312 342 336 562 592 586 
6 282 339 338 532 589 588 
6 340 341 323 590 591 573 
6 309 311 209 559 561 459 
6 183 315 185 433 565 435 
6 208 316 173 458 566 423 
6 173 316 176 423 566 426 
6 3 341 37 18 591 85 
6 44 339 6 92 589 21 
6 252 366 145 502 616 395 
6 246 321 314 496 571 564 
6 246 314 216 496 564 466 
6 126 364 313 376 614 563 
6 156 317 158 406 567 408 
6 275 367 133 525 617 383 
6 176 316 207 426 566 457 
6 185 315 203 435 565 453 
6 180 332 182 430 582 432 
6 302 352 131 552 602 381 
6 251 324 307 501 574 557 
6 187 318 189 437 568 439 
6 172 319 218 422 569 468 
6 162 320 221 412 570 471 
6 305 343 166 555 593 416 
6 170 319 172 420 569 422 
6 158 317 164 408 567 414 
6 209 317 156 459 567 406 
6 285 353 128 535 603 378 
6 223 337 269 473 587 519 
6 160 320 162 410 570 412 
6 211 331 200 461 581 450 
6 174 319 170 424 569 420 
6 203 318 187 453 568 437 
6 189 318 215 439 568 465 
6 198 327 211 448 577 461 
6 164 320 160 414 570 410 
6 326 353 267 576 603 517 
6 236 344 333 486 594 583 
6 196 327 198 446 577 448 
6 219 355 253 469 605 503 
6 281 334 280 531 584 530 
6 274 359 271 524 609 521 
6 164 370 299 414 620 549 
6 174 375 300 424 625 550 
6 287 363 31 537 613 79 
6 243 361 1 493 611 16 
6 241 362 12 491 612 27 
6 307 365 237 557 615 487 
6 166 343 168 416 593 418 
6 200 331 214 450 581 464 
6 313 326 217 563 576 467 
6 9 357 244 24 607 494 
6 1 361 30 16 611 78 
6 12 362 65 27 612 113 
6 337 345 132 587 595 382 
6 242 348 64 492 598 112 
6 231 357 266 481 607 516 
6 182 332 213 432 582 463 
6 245 344 236 495 594 486 
6 258 346 259 508 596 509 
6 145 366 275 395 616 525 
6 291 369 136 541 619 386 
6 236 333 246 486 583 496 
6 331 335 214 581 585 464 
6 312 336 129 562 586 379 
6 315 372 262 565 622 512 
6 220 374 311 470 624 561 
6 140 374 287 390 624 537 
6 126 360 304 376 610 554 
6 230 347 276 480 597 526 
6 313 364 326 563 614 576 
6 56 373 143 104 623 393 
6 239 367 366 489 617 616 
6 204 351 152 454 601 402 
6 300 375 301 550 625 551 
6 214 335 239 464 585 489 
6 247 329 243 497 579 493 
6 262 372 250 512 622 500 
6 248 330 241 498 580 491 
6 318 346 258 568 596 508 
6 333 369 246 583 619 496 
6 282 338 227 532 588 477 
6 146 340 323 396 590 573 
6 304 360 264 554 610 514 
6 366 367 275 616 617 525 
6 129 336 76 379 586 124 
6 73 345 128 121 595 378 
6 76 336 131 124 586 381 
6 250 350 233 500 600 483 
6 129 371 328 379 621 578 
6 132 345 73 382 595 121 
6 168 343 174 418 593 424 
6 131 352 75 381 602 123 
6 66 247 243 114 497 493 
6 59 248 241 107 498 491 
6 74 358 132 122 608 382 
6 203 346 318 453 596 568 
6 313 360 126 563 610 376 
6 128 364 72 378 614 120 
6 128 353 326 378 603 576 
6 77 371 129 125 621 379 
6 129 368 312 379 618 562 
6 244 357 344 494 607 594 
6 328 354 225 578 604 475 
6 326 364 128 576 614 378 
6 75 352 130 123 602 380 
6 350 372 212 600 622 462 
6 136 369 333 386 619 583 
6 325 354 127 575 604 377 
6 213 350 212 463 600 462 
6 130 358 74 380 608 122 
6 250 372 350 500 622 600 
6 317 370 164 567 620 414 
6 72 364 126 120 614 376 
6 328 368 129 578 618 379 
6 127 371 77 377 621 125 
6 336 342 131 586 592 381 
6 212 372 315 462 622 565 
6 234 348 347 484 598 597 
6 8 266 51 23 516 99 
6 10 276 58 25 526 106 
6 246 369 321 496 619 571 
6 30 284 0 78 534 15 
6 65 286 13 113 536 28 
6 58 242 11 106 492 26 
6 266 357 51 516 607 99 
6 255 368 328 505 618 578 
6 347 348 242 597 598 492 
6 322 363 287 572 613 537 
6 323 363 322 573 613 572 
6 335 367 239 585 617 489 
6 30 361 284 78 611 534 
6 65 362 286 113 612 536 
6 237 365 282 487 615 532 
6 130 359 358 380 609 608 
6 343 375 174 593 625 424 
6 354 371 127 604 621 377 
6 328 371 354 578 621 604 
6 358 359 274 608 609 524 
6 0 284 36 15 534 84 
6 45 266 8 93 516 23 
6 52 276 10 100 526 25 
6 11 242 64 26 492 112 
6 13 286 71 28 536 119 
6 2 323 3 17 573 18 
6 31 323 2 79 573 17 
6 323 341 3 573 591 18 
6 37 340 4 85 590 19 
6 4 340 43 19 590 91 
6 38 338 5 86 588 20 
6 5 338 44 20 588 92 
6 6 282 7 21 532 22 
6 6 339 282 21 589 532 
6 282 365 7 532 615 22 

CELL_TYPES 563
13
13
13
13
13
13
13
13
13
13
13
13
13
13
13
13
13
13
13
13
13
13
13
13
13
13
13
13
13
13
13
13
13
13
13
13
13
13
13
13
13
13
13
13
13
13
13
13
13
13
13
13
13
13
13
13
13
13
13
13
13
13
13
13
13
13
13
13
13
13
13
13
13
13
13
13
13
13
13
13
13
13
13
13
13
13
13
13
13
13
13
13
13
13
13
13
13
13
13
13
13
13
13
13
13
13
13
13
13
13
13
13
13
13
13
13
13
13
13
13
13
13
13
13
13
13
13
13
13
13
13
13
13
13
13
13
13
13
13
13
13
13
13
13
13
13
13
13
13
13
13
13
13
13
13
13
13
13
13
13
13
13
13
13
13
13
13
13
13
13
13
13
13
13
13
13
13
13
13
13
13
13
13
13
13
13
13
13
13
13
13
13
13
13
13
13
13
13
13
13
13
13
13
13
13
13
13
13
13
13
13
13
13
13
13
13
13
13
13
13
13
13
13
13
13
13
13
13
13
13
13
13
13
13
13
13
13
13
13
13
13
13
13
13
13
13
13
13
13
13
13
13
13
13
13
13
13
13
13
13
13
13
13
13
13
13
13
13
13
13
13
13
13
13
13
13
13
13
13
13
13
13
13
13
13
13
13
13
13
13
13
13
13
13
13
13
13
13
13
13
13
13
13
13
13
13
13
13
13
13
13
13
13
13
13
13
13
13
13
13
13
13
13
13
13
13
13
13
13
13
13
13
13
13
13
13
13
13
13
13
13
13
13
13
13
13
13
13
13
13
13
13
13
13
13
13
13
13
13
13
13
13
13
13
13
13
13
13
13
13
13
13
13
13
13
13
13
13
13
13
13
13
13
13
13
13
13
13
13
13
13
13
13
13
13
13
13
13
13
13
13
13
13
13
13
13
13
13
13
13
13
13
13
13
13
13
13
13
13
13
13
13
13
13
13
13
13
13
13
13
13
13
13
13
13
13
13
13
13
13
13
13
13
13
13
13
13
13
13
13
13
13
13
13
13
13
13
13
13
13
13
13
13
13
13
13
13
13
13
13
13
13
13
13
13
13
13
13
13
13
13
13
13
13
13
13
13
13
13
13
13
13
13
13
13
13
13
13
13
13
13
13
13
13
13
13
13
13
13
13
13
13
13
13
13
13
13
13
13
13
13
13
13
13
13
13
13
13
13
13
13
13
13
13
13
13
13
13
13
13
13
13
13
13
13
13
13
13
13
13
13
13
13
13
13
13
13
13
13
13
13
13
13

POINT_DATA 626
VECTORS displacement float
-1.74395e-06 3.0954e-05 1.80548e-05
1.73566e-06 3.0973e-05 1.80999e-05
-2.59859e-05 1.69926e-05 1.80869e-05
-2.58406e-05 1.60328e-05 1.80514e-05
-2.77203e-05 1.39726e-05 1.80689e-05
-2.77133e-05 -1.40189e-05 1.80943e-05
-2.58117e-05 -1.6071e-05 1.81057e-05
-2.59821e-05 -1.70107e-05 1.81669e-05
-1.67741e-06 -3.09578e-05 1.80512e-05
1.75546e-06 -3.09593e-05 1.81017e-05
2.59433e-05 -1.69805e-05 1.80433e-05
2.77167e-05 -1.39365e-05 1.80432e-05
2.76721e-05 1.39892e-05 1.80915e-05
2.59146e-05 1.69928e-05 1.80458e-05
0 0 0
-1.74395e-06 3.0954e-05 -1.80548e-05
1.73566e-06 3.0973e-05 -1.80999e-05
-2.59859e-05 1.69926e-05 -1.80869e-05
-2.58406e-05 1.60328e-05 -1.80514e-05
-2.77203e-05 1.39726e-05 -1.80689e-05
-2.77133e-05 -1.40189e-05 -1.80943e-05
-2.58117e-05 -1.6071e-05 -1.81057e-05
-2.59821e-05 -1.70107e-05 -1.81669e-05
-1.67741e-06 -3.09578e-05 -1.80512e-05
1.75546e-06 -3.09593e-05 -1.81017e-05
2.59433e-05 -1.69805e-05 -1.80433e-05
2.77167e-05 -1.39365e-05 -1.80432e-05
2.76721e-05 1.39892e-05 -1.80915e-05
2.59146e-05 1.69928e-05 -1.80458e-05
0 0 0
2.48961e-08 3.01539e-05 1.8034e-05
-2.11402e-05 1.87121e-05 1.75495e-05
-1.72322e-05 1.98335e-05 1.69206e-05
-1.40067e-05 2.10539e-05 1.65547e-05
-1.12067e-05 2.26644e-05 1.65485e-05
-8.52397e-06 2.48324e-05 1.69011e-05
-5.56775e-06 2.76213e-05 1.75372e-05
-2.64495e-05 1.46789e-05 1.80333e-05
-2.67683e-05 -9.01134e-06 1.75772e-05
-2.58058e-05 -5.03535e-06 1.69257e-05
-2.5254e-05 -1.63616e-06 1.65711e-05
-2.5257e-05 1.60781e-06 1.65741e-05
-2.57981e-05 5.02275e-06 1.69239e-05
-2.67545e-05 8.98443e-06 1.75637e-05
-2.64364e-05 -1.47253e-05 1.8062e-05
-5.54101e-06 -2.76357e-05 1.75294e-05
-8.47648e-06 -2.48414e-05 1.69004e-05
-1.11699e-05 -2.26839e-05 1.65559e-05
-1.39703e-05 -2.10869e-05 1.65593e-05
-1.72146e-05 -1.98689e-05 1.69364e-05
-2.11338e-05 -1.87489e-05 1.7562e-05
8.98422e-08 -3.01387e-05 1.80291e-05
2.11236e-05 -1.86246e-05 1.75112e-05
1.72444e-05 -1.97619e-05 1.68726e-05
1.40336e-05 -2.10108e-05 1.65113e-05
1.12249e-05 -2.25926e-05 1.65458e-05
8.58113e-06 -2.47796e-05 1.68739e-05
5.65464e-06 -2.7626e-05 1.75347e-05
2.61242e-05 -1.50595e-05 1.80282e-05
2.67164e-05 8.93821e-06 1.75013e-05
2.57216e-05 5.04947e-06 1.69081e-05
2.52061e-05 1.62328e-06 1.65229e-05
2.52032e-05 -1.59939e-06 1.65212e-05
2.57502e-05 -4.99726e-06 1.6888e-05
2.66985e-05 -8.91697e-06 1.75094e-05
2.61073e-05 1.50606e-05 1.80252e-05
5.6331e-06 2.76173e-05 1.75093e-05
8.5085e-06 2.48063e-05 1.69109e-05
1.12169e-05 2.26406e-05 1.65291e-05
1.40042e-05 2.10218e-05 1.65244e-05
1.72214e-05 1.97931e-05 1.68848e-05
2.11146e-05 1.86342e-05 1.75251e-05
0 0 0
0 0 0
0 0 0
0 0 0
0 0 0
0 0 0
2.48961e-08 3.01539e-05 -1.8034e-05
-2.11402e-05 1.87121e-05 -1.75495e-05
-1.72322e-05 1.98335e-05 -1.69206e-05
-1.40067e-05 2.10539e-05 -1.65547e-05
-1.12067e-05 2.26644e-05 -1.65485e-05
-8.52397e-06 2.48324e-05 -1.69011e-05
-5.56775e-06 2.76213e-05 -1.75372e-05
-2.64495e-05 1.46789e-05 -1.80333e-05
-2.67683e-05 -9.01134e-06 -1.75772e-05
-2.58058e-05 -5.03535e-06 -1.69257e-05
-2.5254e-05 -1.63616e-06 -1.65711e-05
-2.5257e-05 1.60781e-06 -1.65741e-05
-2.57981e-05 5.02275e-06 -1.69239e-05
-2.67545e-05 8.98443e-06 -1.75637e-05
-2.64364e-05 -1.47253e-05 -1.8062e-05
-5.54101e-06 -2.76357e-05 -1.75294e-05
-8.47648e-06 -2.48414e-05 -1.69004e-05
-1.11699e-05 -2.26839e-05 -1.65559e-05
-1.39703e-05 -2.10869e-05 -1.65593e-05
-1.72146e-05 -1.98689e-05 -1.69364e-05
-2.11338e-05 -1.87489e-05 -1.7562e-05
8.98422e-08 -3.01387e-05 -1.80291e-05
2.11236e-05 -1.86246e-05 -1.75112e-05
1.72444e-05 -1.97619e-05 -1.68726e-05
1.40336e-05 -2.10108e-05 -1.65113e-05
1.12249e-05 -2.25926e-05 -1.65458e-05
8.58113e-06 -2.47796e-05 -1.68739e-05
5.65464e-06 -2.7626e-05 -1.75347e-05
2.61242e-05 -1.50595e-05 -1.80282e-05
2.67164e-05 8.93821e-06 -1.75013e-05
2.57216e-05 5.04947e-06 -1.69081e-05
2.52061e-05 1.62328e-06 -1.65229e-05
2.52032e-05 -1.59939e-06 -1.65212e-05
2.57502e-05 -4.99726e-06 -1.6888e-05
2.66985e-05 -8.91697e-06 -1.75094e-05
2.61073e-05 1.50606e-05 -1.80252e-05
5.6331e-06 2.76173e-05 -1.75093e-05
8.5085e-06 2.48063e-05 -1.69109e-05
1.12169e-05 2.26406e-05 -1.65291e-05
1.40042e-05 2.10218e-05 -1.65244e-05
1.72214e-05 1.97931e-05 -1.68848e-05
2.11146e-05 1.86342e-05 -1.75251e-05
0 0 0
0 0 0
0 0 0
0 0 0
0 0 0
0 0 0
1.79365e-06 8.58733e-07 4.55216e-06
1.73779e-06 -8.25102e-07 4.46071e-06
4.31947e-07 1.8496e-06 4.49503e-06
4.36092e-07 -1.7806e-06 4.356e-06
-1.84746e-06 2.09627e-08 4.42228e-06
-1.12307e-06 -1.30885e-06 4.15092e-06
-1.15919e-06 1.30678e-06 4.1997e-06
-2.25126e-05 -7.28752e-06 1.69997e-05
-2.2196e-05 7.37141e-06 1.69683e-05
-4.86037e-06 2.28981e-05 1.69367e-05
-4.85788e-06 -2.31312e-05 1.69636e-05
1.74209e-05 1.56352e-05 1.69295e-05
1.75684e-05 -1.55362e-05 1.69388e-05
2.10731e-05 3.16381e-06 1.63241e-05
-1.39528e-05 1.71509e-05 1.64781e-05
-1.35909e-05 -1.67409e-05 1.64096e-05
7.7677e-06 1.98191e-05 1.63309e-05
7.68473e-06 -2.03095e-05 1.64022e-05
2.14719e-05 -3.44365e-06 1.63998e-05
-2.11023e-05 6.58808e-09 1.62463e-05
-2.242e-05 1.09995e-05 1.74533e-05
-1.87505e-05 9.25452e-06 1.66268e-05
-1.79824e-05 5.79533e-06 1.6036e-05
-1.49837e-05 7.44818e-06 1.5486e-05
-1.42242e-05 4.30763e-06 1.48293e-05
-1.15324e-05 5.74377e-06 1.40943e-05
-1.08578e-05 3.06867e-06 1.33732e-05
-8.40032e-06 4.30479e-06 1.2404e-05
-9.05862e-06 7.01326e-06 1.3456e-05
-6.20398e-06 5.4884e-06 1.16886e-05
-6.82816e-06 8.24927e-06 1.30796e-05
-4.28131e-06 6.67478e-06 1.14501e-05
-4.79991e-06 9.60973e-06 1.30935e-05
-2.40082e-06 7.99319e-06 1.17226e-05
-2.81279e-06 1.1167e-05 1.34745e-05
-4.754e-07 9.5951e-06 1.25006e-05
-7.38338e-07 1.29966e-05 1.41413e-05
1.73105e-06 1.15175e-05 1.35346e-05
-5.53457e-06 1.27001e-05 1.44365e-05
1.68505e-06 8.22381e-06 1.17472e-05
4.0041e-06 1.01207e-05 1.31505e-05
3.70528e-06 7.09781e-06 1.14779e-05
6.06728e-06 8.96649e-06 1.3113e-05
5.76671e-06 6.10667e-06 1.17352e-05
8.35791e-06 8.02016e-06 1.34916e-05
8.10549e-06 5.19516e-06 1.25e-05
1.09538e-05 7.09691e-06 1.41466e-05
1.07458e-05 4.32271e-06 1.34987e-05
8.53035e-06 1.10373e-05 1.44604e-05
7.93754e-06 2.64369e-06 1.1727e-05
1.06458e-05 1.73717e-06 1.31036e-05
7.94853e-06 3.58753e-07 1.14552e-05
1.08062e-05 -7.59097e-07 1.31237e-05
8.11148e-06 -1.93776e-06 1.17087e-05
1.1098e-05 -3.31278e-06 1.34835e-05
8.46957e-06 -4.42389e-06 1.24437e-05
1.15035e-05 -6.00276e-06 1.4109e-05
8.95539e-06 -7.13797e-06 1.34277e-05
6.1474e-06 -5.49431e-06 1.16409e-05
6.64437e-06 -8.3007e-06 1.30179e-05
4.10513e-06 -6.58838e-06 1.13106e-05
4.52327e-06 -9.55068e-06 1.29879e-05
2.24225e-06 -7.85814e-06 1.1597e-05
2.48479e-06 -1.10017e-05 1.33506e-05
2.25287e-07 -9.37351e-06 1.23532e-05
3.30008e-07 -1.27696e-05 1.40334e-05
-1.9154e-06 -1.11505e-05 1.33766e-05
-1.84103e-06 -7.92147e-06 1.15818e-05
-4.16782e-06 -9.87466e-06 1.30847e-05
-3.81387e-06 -6.73037e-06 1.13168e-05
-6.3455e-06 -8.66185e-06 1.30989e-05
-5.89119e-06 -5.6979e-06 1.16281e-05
-8.49956e-06 -7.43566e-06 1.33793e-05
-8.16739e-06 -4.72797e-06 1.24083e-05
-1.10954e-05 -6.40265e-06 1.40695e-05
-4.37157e-06 -1.31229e-05 1.44333e-05
-1.08086e-05 -3.65061e-06 1.34389e-05
7.22598e-06 -1.13725e-05 1.42726e-05
-7.74156e-06 1.98265e-06 1.14926e-05
-1.32159e-05 1.03504e-06 1.42106e-05
1.72909e-06 1.50825e-05 1.49519e-05
1.37678e-05 4.62228e-07 1.43874e-05
1.38429e-05 6.09999e-06 1.49314e-05
-9.69388e-06 1.01961e-05 1.45322e-05
-5.41592e-06 -3.1976e-06 1.01819e-05
-1.17134e-05 -9.29717e-06 1.48889e-05
1.18822e-05 -8.76005e-06 1.47868e-05
1.47815e-05 -7.47347e-06 1.5403e-05
-1.39595e-05 -5.2438e-06 1.48614e-05
2.79577e-06 -1.45159e-05 1.47959e-05
4.24557e-07 -1.64991e-05 1.53975e-05
3.51838e-06 4.39687e-06 9.5809e-06
1.40103e-05 9.29889e-06 1.54913e-05
1.79305e-05 8.14481e-06 1.63003e-05
-1.56752e-05 1.13951e-05 1.62332e-05
-1.09407e-06 1.67688e-05 1.5495e-05
1.90683e-06 1.96213e-05 1.63107e-05
-2.09184e-06 5.22e-06 9.5974e-06
5.55386e-06 -7.84591e-07 9.59394e-06
3.5859e-06 -3.68351e-06 9.08179e-06
-1.77961e-06 -5.17849e-06 9.44941e-06
-2.24684e-05 -1.10106e-05 1.74741e-05
-1.87979e-05 -9.24126e-06 1.66508e-05
2.11475e-05 1.41646e-05 1.75054e-05
2.07534e-05 -1.43174e-05 1.74353e-05
-1.76459e-06 -2.54461e-05 1.75107e-05
-1.68212e-06 2.54102e-05 1.75154e-05
1.77127e-05 -1.19067e-05 1.66869e-05
2.06454e-05 -1.07509e-05 1.71157e-05
3.77559e-06 -1.89848e-05 1.61391e-05
7.68522e-07 -2.03454e-05 1.64826e-05
-1.94048e-05 -1.26503e-05 1.71429e-05
-1.37308e-05 -2.30688e-06 1.44716e-05
-1.65924e-05 -3.70136e-06 1.54773e-05
-1.03756e-05 -1.09637e-06 1.29518e-05
2.44517e-05 1.10726e-05 1.76514e-05
2.54972e-05 -1.2403e-05 1.78479e-05
2.64923e-06 2.67256e-05 1.76603e-05
2.52099e-06 -2.64132e-05 1.76291e-05
3.33943e-06 -2.30315e-05 1.70288e-05
-2.05386e-06 -1.83196e-05 1.59506e-05
4.05902e-06 2.37909e-05 1.71301e-05
2.26138e-05 8.37909e-06 1.7119e-05
4.61352e-06 1.7313e-05 1.5727e-05
1.44267e-05 -1.31192e-05 1.61371e-05
-1.57874e-05 -1.09845e-05 1.62143e-05
-1.67995e-05 -3.8142e-07 1.5377e-05
1.73056e-05 4.68739e-06 1.57254e-05
6.55211e-08 -6.38719e-06 1.02672e-05
1.74168e-06 -4.84838e-06 9.09229e-06
5.85035e-06 -2.93546e-06 1.03779e-05
-2.14438e-05 3.75042e-06 1.64585e-05
5.72925e-06 -1.62742e-05 1.55074e-05
9.08328e-06 -1.74987e-05 1.59972e-05
1.75718e-05 1.18815e-05 1.6672e-05
1.39939e-05 -1.63819e-05 1.64009e-05
1.07398e-05 -1.37887e-05 1.55498e-05
-3.5479e-06 -4.22012e-06 9.50056e-06
5.39902e-06 1.13848e-06 9.49884e-06
5.21795e-06 3.22281e-06 1.0047e-05
-1.74978e-06 -2.8354e-05 1.78766e-05
1.89202e-06 5.29879e-06 9.58424e-06
-1.13821e-07 6.10489e-06 1.00385e-05
-3.78485e-06 4.12766e-06 9.5782e-06
-5.62257e-06 3.03413e-06 1.0285e-05
-5.16537e-06 1.04065e-06 9.21341e-06
-7.52709e-06 -6.17379e-08 1.11722e-05
-4.33429e-06 -8.10263e-07 8.38168e-06
-3.10853e-06 1.8723e-06 7.37391e-06
-2.20807e-05 -3.60767e-06 1.65155e-05
2.34058e-05 -1.56877e-05 1.78359e-05
-1.50717e-06 2.11675e-05 1.66818e-05
2.12612e-05 -8.45176e-08 1.62254e-05
1.76217e-05 -1.64676e-06 1.55811e-05
1.73473e-05 -4.94156e-06 1.57704e-05
2.18911e-05 -7.45095e-06 1.69133e-05
-2.31818e-05 -1.42543e-05 1.78324e-05
1.73242e-05 1.64883e-06 1.55082e-05
-1.73399e-06 2.84726e-05 1.78939e-05
-4.22064e-07 3.68335e-06 7.49514e-06
2.37715e-05 1.57421e-05 1.78843e-05
-1.7497e-05 1.56419e-05 1.69747e-05
-1.0626e-05 -1.84657e-05 1.62547e-05
-1.00993e-05 -1.4342e-05 1.55714e-05
-7.50761e-06 -1.60945e-05 1.56217e-05
-7.32198e-06 -2.01201e-05 1.6395e-05
-1.07042e-05 1.85348e-05 1.62665e-05
-1.03471e-05 1.43838e-05 1.5619e-05
-7.77249e-06 2.0492e-05 1.64439e-05
-4.25291e-06 1.86093e-05 1.60527e-05
1.07595e-05 1.8345e-05 1.62258e-05
1.38914e-05 1.69346e-05 1.64307e-05
1.40417e-05 1.29726e-05 1.6051e-05
-7.36142e-06 1.6288e-05 1.56382e-05
1.05249e-05 1.45467e-05 1.56449e-05
7.74859e-06 1.6092e-05 1.56136e-05
-3.11641e-06 -1.89873e-06 7.39303e-06
-7.25749e-06 -1.24217e-05 1.46249e-05
3.00861e-06 4.03595e-08 6.60085e-06
4.87248e-06 1.35225e-05 1.46178e-05
1.40757e-05 -2.26034e-06 1.45702e-05
-1.72894e-05 -1.52164e-05 1.69452e-05
-1.73661e-05 2.42025e-06 1.55975e-05
-1.22045e-05 8.91176e-06 1.49432e-05
-7.70548e-06 -2.29248e-06 1.15544e-05
-1.24495e-05 1.18124e-05 1.55397e-05
-1.42733e-07 -3.75416e-06 7.55403e-06
2.73019e-06 2.27204e-06 7.25179e-06
-2.00382e-06 -1.46502e-05 1.48078e-05
9.36491e-06 -1.0068e-05 1.43891e-05
1.38605e-05 3.15775e-06 1.45658e-05
-7.3399e-06 1.11992e-05 1.426e-05
4.99712e-06 -1.27745e-05 1.4369e-05
1.10317e-05 1.04303e-05 1.49194e-05
-3.59638e-06 1.4685e-05 1.49077e-05
-4.63538e-06 -1.66166e-05 1.55485e-05
-1.95067e-05 1.28922e-05 1.71611e-05
-2.31266e-05 1.48579e-05 1.78432e-05
-1.29047e-05 -1.26859e-05 1.58123e-05
3.76074e-06 -1.5861e-06 7.9068e-06
1.76437e-06 2.92224e-06 7.0843e-06
-9.23031e-06 -1.06093e-05 1.45315e-05
1.72772e-06 -2.82311e-06 6.93094e-06
9.94722e-07 2.41165e-05 1.73083e-05
2.13676e-05 1.11937e-05 1.72984e-05
-1.46644e-05 -7.95325e-06 1.54851e-05
1.37078e-05 -4.78623e-06 1.46904e-05
-1.90986e-06 -2.17626e-05 1.68025e-05
1.80601e-05 -8.41891e-06 1.63405e-05
-1.66786e-05 -6.32845e-06 1.57822e-05
-4.32895e-07 -1.9223e-06 4.79839e-06
-1.80534e-06 2.9954e-06 7.17705e-06
-2.50517e-05 -1.29816e-05 1.79221e-05
-2.51269e-05 -1.45071e-05 1.80019e-05
-2.50448e-05 1.30335e-05 1.79058e-05
-2.51177e-05 1.46498e-05 1.7982e-05
-1.64843e-06 -3.1248e-06 7.20978e-06
6.32784e-06 1.13682e-05 1.40763e-05
5.33707e-07 -2.40857e-05 1.7302e-05
-5.22771e-07 1.80952e-06 4.64493e-06
7.40733e-06 -1.43434e-05 1.51521e-05
2.33025e-05 -1.32091e-05 1.77286e-05
2.36323e-05 -1.05374e-05 1.74906e-05
1.19882e-05 -1.82106e-05 1.6293e-05
1.47299e-05 -1.01465e-05 1.57954e-05
-1.00269e-05 1.00123e-06 1.27544e-05
-1.73999e-06 -8.15892e-07 4.72337e-06
7.69053e-07 3.7083e-06 7.57301e-06
2.34304e-06 -1.99713e-06 6.55517e-06
2.01562e-05 5.89772e-06 1.64534e-05
5.07002e-06 2.05956e-05 1.64958e-05
3.42117e-07 -2.76796e-05 1.78538e-05
-1.73121e-06 7.09102e-07 4.60625e-06
-3.21146e-06 6.23039e-07 6.82402e-06
3.57716e-06 1.47539e-06 7.63649e-06
4.99224e-07 2.83234e-05 1.79271e-05
2.476e-05 1.37339e-05 1.79182e-05
-2.03281e-05 1.55356e-05 1.74288e-05
1.17869e-06 1.36446e-06 4.45978e-06
-2.06393e-05 -1.57282e-05 1.75274e-05
-1.89986e-05 -2.32214e-06 1.59459e-05
-1.95589e-05 -5.58489e-06 1.6332e-05
9.0567e-07 -3.24771e-06 7.00598e-06
-4.36596e-06 -1.9789e-05 1.63216e-05
-7.93715e-06 1.38342e-05 1.51008e-05
1.16573e-06 -1.30417e-06 4.33922e-06
1.19342e-05 -1.12282e-05 1.52919e-05
6.13299e-06 -2.26957e-05 1.68203e-05
-1.45219e-05 1.43551e-05 1.63234e-05
7.92894e-06 1.3321e-05 1.49478e-05
1.79365e-06 8.58733e-07 -4.55216e-06
1.73779e-06 -8.25102e-07 -4.46071e-06
4.31947e-07 1.8496e-06 -4.49503e-06
4.36092e-07 -1.7806e-06 -4.356e-06
-1.84746e-06 2.09627e-08 -4.42228e-06
-1.12307e-06 -1.30885e-06 -4.15092e-06
-1.15919e-06 1.30678e-06 -4.1997e-06
-2.25126e-05 -7.28752e-06 -1.69997e-05
-2.2196e-05 7.37141e-06 -1.69683e-05
-4.86037e-06 2.28981e-05 -1.69367e-05
-4.85788e-06 -2.31312e-05 -1.69636e-05
1.74209e-05 1.56352e-05 -1.69295e-05
1.75684e-05 -1.55362e-05 -1.69388e-05
2.10731e-05 3.16381e-06 -1.63241e-05
-1.39528e-05 1.71509e-05 -1.64781e-05
-1.35909e-05 -1.67409e-05 -1.64096e-05
7.7677e-06 1.98191e-05 -1.63309e-05
7.68473e-06 -2.03095e-05 -1.64022e-05
2.14719e-05 -3.44365e-06 -1.63998e-05
-2.11023e-05 6.58808e-09 -1.62463e-05
-2.242e-05 1.09995e-05 -1.74533e-05
-1.87505e-05 9.25452e-06 -1.66268e-05
-1.79824e-05 5.79533e-06 -1.6036e-05
-1.49837e-05 7.44818e-06 -1.5486e-05
-1.42242e-05 4.30763e-06 -1.48293e-05
-1.15324e-05 5.74377e-06 -1.40943e-05
-1.08578e-05 3.06867e-06 -1.33732e-05
-8.40032e-06 4.30479e-06 -1.2404e-05
-9.05862e-06 7.01326e-06 -1.3456e-05
-6.20398e-06 5.4884e-06 -1.16886e-05
-6.82816e-06 8.24927e-06 -1.30796e-05
-4.28131e-06 6.67478e-06 -1.14501e-05
-4.79991e-06 9.60973e-06 -1.30935e-05
-2.40082e-06 7.99319e-06 -1.17226e-05
-2.81279e-06 1.1167e-05 -1.34745e-05
-4.754e-07 9.5951e-06 -1.25006e-05
-7.38338e-07 1.29966e-05 -1.41413e-05
1.73105e-06 1.15175e-05 -1.35346e-05
-5.53457e-06 1.27001e-05 -1.44365e-05
1.68505e-06 8.22381e-06 -1.17472e-05
4.0041e-06 1.01207e-05 -1.31505e-05
3.70528e-06 7.09781e-06 -1.14779e-05
6.06728e-06 8.96649e-06 -1.3113e-05
5.76671e-06 6.10667e-06 -1.17352e-05
8.35791e-06 8.02016e-06 -1.34916e-05
8.10549e-06 5.19516e-06 -1.25e-05
1.09538e-05 7.09691e-06 -1.41466e-05
1.07458e-05 4.32271e-06 -1.34987e-05
8.53035e-06 1.10373e-05 -1.44604e-05
7.93754e-06 2.64369e-06 -1.1727e-05
1.06458e-05 1.73717e-06 -1.31036e-05
7.94853e-06 3.58753e-07 -1.14552e-05
1.08062e-05 -7.59097e-07 -1.31237e-05
8.11148e-06 -1.93776e-06 -1.17087e-05
1.1098e-05 -3.31278e-06 -1.34835e-05
8.46957e-06 -4.42389e-06 -1.24437e-05
1.15035e-05 -6.00276e-06 -1.4109e-05
8.95539e-06 -7.13797e-06 -1.34277e-05
6.1474e-06 -5.49431e-06 -1.16409e-05
6.64437e-06 -8.3007e-06 -1.30179e-05
4.10513e-06 -6.58838e-06 -1.13106e-05
4.52327e-06 -9.55068e-06 -1.29879e-05
2.24225e-06 -7.85814e-06 -1.1597e-05
2.48479e-06 -1.10017e-05 -1.33506e-05
2.25287e-07 -9.37351e-06 -1.23532e-05
3.30008e-07 -1.27696e-05 -1.40334e-05
-1.9154e-06 -1.11505e-05 -1.33766e-05
-1.84103e-06 -7.92147e-06 -1.15818e-05
-4.16782e-06 -9.87466e-06 -1.30847e-05
-3.81387e-06 -6.73037e-06 -1.13168e-05
-6.3455e-06 -8.66185e-06 -1.30989e-05
-5.89119e-06 -5.6979e-06 -1.16281e-05
-8.49956e-06 -7.43566e-06 -1.33793e-05
-8.16739e-06 -4.72797e-06 -1.24083e-05
-1.10954e-05 -6.40265e-06 -1.40695e-05
-4.37157e-06 -1.31229e-05 -1.44333e-05
-1.08086e-05 -3.65061e-06 -1.34389e-05
7.22598e-06 -1.13725e-05 -1.42726e-05
-7.74156e-06 1.98265e-06 -1.14926e-05
-1.32159e-05 1.03504e-06 -1.42106e-05
1.72909e-06 1.50825e-05 -1.49519e-05
1.37678e-05 4.62228e-07 -1.43874e-05
1.38429e-05 6.09999e-06 -1.49314e-05
-9.69388e-06 1.01961e-05 -1.45322e-05
-5.41592e-06 -3.1976e-06 -1.01819e-05
-1.17134e-05 -9.29717e-06 -1.48889e-05
1.18822e-05 -8.76005e-06 -1.47868e-05
1.47815e-05 -7.47347e-06 -1.5403e-05
-1.39595e-05 -5.2438e-06 -1.48614e-05
2.79577e-06 -1.45159e-05 -1.47959e-05
4.24557e-07 -1.64991e-05 -1.53975e-05
3.51838e-06 4.39687e-06 -9.5809e-06
1.40103e-05 9.29889e-06 -1.54913e-05
1.79305e-05 8.14481e-06 -1.63003e-05
-1.56752e-05 1.13951e-05 -1.62332e-05
-1.09407e-06 1.67688e-05 -1.5495e-05
1.90683e-06 1.96213e-05 -1.63107e-05
-2.09184e-06 5.22e-06 -9.5974e-06
5.55386e-06 -7.84591e-07 -9.59394e-06
3.5859e-06 -3.68351e-06 -9.08179e-06
-1.77961e-06 -5.17849e-06 -9.44941e-06
-2.24684e-05 -1.10106e-05 -1.74741e-05
-1.87979e-05 -9.24126e-06 -1.66508e-05
2.11475e-05 1.41646e-05 -1.75054e-05
2.07534e-05 -1.43174e-05 -1.74353e-05
-1.76459e-06 -2.54461e-05 -1.75107e-05
-1.68212e-06 2.54102e-05 -1.75154e-05
1.77127e-05 -1.19067e-05 -1.66869e-05
2.06454e-05 -1.07509e-05 -1.71157e-05
3.77559e-06 -1.89848e-05 -1.61391e-05
7.68522e-07 -2.03454e-05 -1.64826e-05
-1.94048e-05 -1.26503e-05 -1.71429e-05
-1.37308e-05 -2.30688e-06 -1.44716e-05
-1.65924e-05 -3.70136e-06 -1.54773e-05
-1.03756e-05 -1.09637e-06 -1.29518e-05
2.44517e-05 1.10726e-05 -1.76514e-05
2.54972e-05 -1.2403e-05 -1.78479e-05
2.64923e-06 2.67256e-05 -1.76603e-05
2.52099e-06 -2.64132e-05 -1.76291e-05
3.33943e-06 -2.30315e-05 -1.70288e-05
-2.05386e-06 -1.83196e-05 -1.59506e-05
4.05902e-06 2.37909e-05 -1.71301e-05
2.26138e-05 8.37909e-06 -1.7119e-05
4.61352e-06 1.7313e-05 -1.5727e-05
1.44267e-05 -1.31192e-05 -1.61371e-05
-1.57874e-05 -1.09845e-05 -1.62143e-05
-1.67995e-05 -3.8142e-07 -1.5377e-05
1.73056e-05 4.68739e-06 -1.57254e-05
6.55211e-08 -6.38719e-06 -1.02672e-05
1.74168e-06 -4.84838e-06 -9.09229e-06
5.85035e-06 -2.93546e-06 -1.03779e-05
-2.14438e-05 3.75042e-06 -1.64585e-05
5.72925e-06 -1.62742e-05 -1.55074e-05
9.08328e-06 -1.74987e-05 -1.59972e-05
1.75718e-05 1.18815e-05 -1.6672e-05
1.39939e-05 -1.63819e-05 -1.64009e-05
1.07398e-05 -1.37887e-05 -1.55498e-05
-3.5479e-06 -4.22012e-06 -9.50056e-06
5.39902e-06 1.13848e-06 -9.49884e-06
5.21795e-06 3.22281e-06 -1.0047e-05
-1.74978e-06 -2.8354e-05 -1.78766e-05
1.89202e-06 5.29879e-06 -9.58424e-06
-1.13821e-07 6.10489e-06 -1.00385e-05
-3.78485e-06 4.12766e-06 -9.5782e-06
-5.62257e-06 3.03413e-06 -1.0285e-05
-5.16537e-06 1.04065e-06 -9.21341e-06
-7.52709e-06 -6.17379e-08 -1.11722e-05
-4.33429e-06 -8.10263e-07 -8.38168e-06
-3.10853e-06 1.8723e-06 -7.37391e-06
-2.20807e-05 -3.60767e-06 -1.65155e-05
2.34058e-05 -1.56877e-05 -1.78359e-05
-1.50717e-06 2.11675e-05 -1.66818e-05
2.12612e-05 -8.45176e-08 -1.62254e-05
1.76217e-05 -1.64676e-06 -1.55811e-05
1.73473e-05 -4.94156e-06 -1.57704e-05
2.18911e-05 -7.45095e-06 -1.69133e-05
-2.31818e-05 -1.42543e-05 -1.78324e-05
1.73242e-05 1.64883e-06 -1.55082e-05
-1.73399e-06 2.84726e-05 -1.78939e-05
-4.22064e-07 3.68335e-06 -7.49514e-06
2.37715e-05 1.57421e-05 -1.78843e-05
-1.7497e-05 1.56419e-05 -1.69747e-05
-1.0626e-05 -1.84657e-05 -1.62547e-05
-1.00993e-05 -1.4342e-05 -1.55714e-05
-7.50761e-06 -1.60945e-05 -1.56217e-05
-7.32198e-06 -2.01201e-05 -1.6395e-05
-1.07042e-05 1.85348e-05 -1.62665e-05
-1.03471e-05 1.43838e-05 -1.5619e-05
-7.77249e-06 2.0492e-05 -1.64439e-05
-4.25291e-06 1.86093e-05 -1.60527e-05
1.07595e-05 1.8345e-05 -1.62258e-05
1.38914e-05 1.69346e-05 -1.64307e-05
1.40417e-05 1.29726e-05 -1.6051e-05
-7.36142e-06 1.6288e-05 -1.56382e-05
1.05249e-05 1.45467e-05 -1.56449e-05
7.74859e-06 1.6092e-05 -1.56136e-05
-3.11641e-06 -1.89873e-06 -7.39303e-06
-7.25749e-06 -1.24217e-05 -1.46249e-05
3.00861e-06 4.03595e-08 -6.60085e-06
4.87248e-06 1.35225e-05 -1.46178e-05
1.40757e-05 -2.26034e-06 -1.45702e-05
-1.72894e-05 -1.52164e-05 -1.69452e-05
-1.73661e-05 2.42025e-06 -1.55975e-05
-1.22045e-05 8.91176e-06 -1.49432e-05
-7.70548e-06 -2.29248e-06 -1.15544e-05
-1.24495e-05 1.18124e-05 -1.55397e-05
-1.42733e-07 -3.75416e-06 -7.55403e-06
2.73019e-06 2.27204e-06 -7.25179e-06
-2.00382e-06 -1.46502e-05 -1.48078e-05
9.36491e-06 -1.0068e-05 -1.43891e-05
1.38605e-05 3.15775e-06 -1.45658e-05
-7.3399e-06 1.11992e-05 -1.426e-05
4.99712e-06 -1.27745e-05 -1.4369e-05
1.10317e-05 1.04303e-05 -1.49194e-05
-3.59638e-06 1.4685e-05 -1.49077e-05
-4.63538e-06 -1.66166e-05 -1.55485e-05
-1.95067e-05 1.28922e-05 -1.71611e-05
-2.31266e-05 1.48579e-05 -1.78432e-05
-1.29047e-05 -1.26859e-05 -1.58123e-05
3.76074e-06 -1.5861e-06 -7.9068e-06
1.76437e-06 2.92224e-06 -7.0843e-06
-9.23031e-06 -1.06093e-05 -1.45315e-05
1.72772e-06 -2.82311e-06 -6.93094e-06
9.94722e-07 2.41165e-05 -1.73083e-05
2.13676e-05 1.11937e-05 -1.72984e-05
-1.46644e-05 -7.95325e-06 -1.54851e-05
1.37078e-05 -4.78623e-06 -1.46904e-05
-1.90986e-06 -2.17626e-05 -1.68025e-05
1.80601e-05 -8.41891e-06 -1.63405e-05
-1.66786e-05 -6.32845e-06 -1.57822e-05
-4.32895e-07 -1.9223e-06 -4.79839e-06
-1.80534e-06 2.9954e-06 -7.17705e-06
-2.50517e-05 -1.29816e-05 -1.79221e-05
-2.51269e-05 -1.45071e-05 -1.80019e-05
-2.50448e-05 1.30335e-05 -1.79058e-05
-2.51177e-05 1.46498e-05 -1.7982e-05
-1.64843e-06 -3.1248e-06 -7.20978e-06
6.32784e-06 1.13682e-05 -1.40763e-05
5.33707e-07 -2.40857e-05 -1.7302e-05
-5.22771e-07 1.80952e-06 -4.64493e-06
7.40733e-06 -1.43434e-05 -1.51521e-05
2.33025e-05 -1.32091e-05 -1.77286e-05
2.36323e-05 -1.05374e-05 -1.74906e-05
1.19882e-05 -1.82106e-05 -1.6293e-05
1.47299e-05 -1.01465e-05 -1.57954e-05
-1.00269e-05 1.00123e-06 -1.27544e-05
-1.73999e-06 -8.15892e-07 -4.72337e-06
7.69053e-07 3.7083e-06 -7.57301e-06
2.34304e-06 -1.99713e-06 -6.55517e-06
2.01562e-05 5.89772e-06 -1.64534e-05
5.07002e-06 2.05956e-05 -1.64958e-05
3.42117e-07 -2.76796e-05 -1.78538e-05
-1.73121e-06 7.09102e-07 -4.60625e-06
-3.21146e-06 6.23039e-07 -6.82402e-06
3.57716e-06 1.47539e-06 -7.63649e-06
4.99224e-07 2.83234e-05 -1.79271e-05
2.476e-05 1.37339e-05 -1.79182e-05
-2.03281e-05 1.55356e-05 -1.74288e-05
1.17869e-06 1.36446e-06 -4.45978e-06
-2.06393e-05 -1.57282e-05 -1.75274e-05
-1.89986e-05 -2.32214e-06 -1.59459e-05
-1.95589e-05 -5.58489e-06 -1.6332e-05
9.0567e-07 -3.24771e-06 -7.00598e-06
-4.36596e-06 -1.9789e-05 -1.63216e-05
-7.93715e-06 1.38342e-05 -1.51008e-05
1.16573e-06 -1.30417e-06 -4.33922e-06
1.19342e-05 -1.12282e-05 -1.52919e-05
6.13299e-06 -2.26957e-05 -1.68203e-05
-1.45219e-05 1.43551e-05 -1.63234e-05
7.92894e-06 1.3321e-05 -1.49478e-05
SCALARS effective_fluid_pressure_TPM float
LOOKUP_TABLE default
665
665
665
665
665
665
665
665
665
665
665
665
665
665
133
665
665
665
665
665
665
665
665
665
665
665
665
665
665
133
665
560.313
520.656
502.796
502.566
519.782
559.934
665
561.98
520.751
503.238
503.348
520.683
561.602
665
559.6
519.653
502.741
502.958
521.151
561.618
665
558.857
518.997
501.529
502.225
518.847
559.445
665
558.497
519.937
501.861
501.793
519.37
557.936
665
558.653
519.951
502.034
501.895
519.358
559.659
133
133
133
133
133
133
665
560.313
520.656
502.796
502.566
519.782
559.934
665
561.98
520.751
503.238
503.348
520.683
561.602
665
559.6
519.653
502.741
502.958
521.151
561.618
665
558.857
518.997
501.529
502.225
518.847
559.445
665
558.497
519.937
501.861
501.793
519.37
557.936
665
558.653
519.951
502.034
501.895
519.358
559.659
133
133
133
133
133
133
228.253
226.324
227.037
224.105
225.521
219.843
220.859
529.157
528.166
526.545
527.924
526.572
527.626
498.691
503.538
501.577
498.932
501.449
501.23
494.312
562.495
518.97
495.016
480.722
461.342
443.262
425.03
402.104
427.255
385.251
417.723
379.597
417.886
385.935
427.371
404.282
444.365
429.06
450.242
386.545
419.286
380.192
418.297
386.175
427.744
404.21
444.476
428.144
450.838
386.019
418.149
379.608
418.505
385.543
427.581
402.904
443.538
426.436
384.036
416.122
376.292
415.329
383.008
424.402
400.83
441.688
425.21
382.745
417.762
376.557
418.08
383.83
425.25
402.197
442.66
450.632
426.71
445.99
380.717
444.656
465.272
448.724
464.745
453.393
350.893
463.487
461.019
478.426
462.754
460.624
478.33
337.268
480.802
505.835
503.594
480.868
506.141
337.681
337.493
326.157
334.407
563.371
519.646
567.573
562.358
567.89
567.743
521.794
542.707
498.606
513.719
542.052
451.435
477.553
414.64
579.514
611.025
579.667
576.027
534.541
494.456
538.215
537.911
485.013
498.092
503.311
473.114
485.06
352.738
326.407
355.167
503.42
477.691
488.334
520.863
502.003
477.889
335.532
335.396
347.69
613.443
337.369
347.562
337.256
353.194
329.18
373.245
310.652
288.781
504.686
608.378
521.085
493.696
478.301
486.33
526.479
600.336
476.538
615.896
291.39
615.795
528.707
494.507
478.208
479.382
501.29
494.814
479.409
502.485
495.149
493.718
502.237
495.223
479.856
480.022
479.024
289.287
454.564
271.936
454.972
453.601
526.988
479.445
465.195
382.087
480.481
292.663
286.075
461.451
449.606
453.949
445.827
448.661
463.576
463.234
479.925
543.447
601.698
487.466
300.294
282.455
452.986
279.156
552.23
551.989
480.748
457.99
526.21
508.161
488.563
233.725
284.552
614.503
636.32
615.137
636.677
285.273
441.312
553.07
230.481
467.523
590.258
566.024
495.787
490.022
410.018
232.115
293.089
271.12
507.869
509.167
607.81
229.658
276.97
294.423
618.875
618.788
558.504
226.518
562.517
488.285
503.369
280.84
504.039
466.35
224.003
473.557
519.555
502.954
462.416
228.253
226.324
227.037
224.105
225.521
219.843
220.859
529.157
528.166
526.545
527.924
526.572
527.626
498.691
503.538
501.577
498.932
501.449
501.23
494.312
562.495
518.97
495.016
480.722
461.342
443.262
425.03
402.104
427.255
385.251
417.723
379.597
417.886
385.935
427.371
404.282
444.365
429.06
450.242
386.545
419.286
380.192
418.297
386.175
427.744
404.21
444.476
428.144
450.838
386.019
418.149
379.608
418.505
385.543
427.581
402.904
443.538
426.436
384.036
416.122
376.292
415.329
383.008
424.402
400.83
441.688
425.21
382.745
417.762
376.557
418.08
383.83
425.25
402.197
442.66
450.632
426.71
445.99
380.717
444.656
465.272
448.724
464.745
453.393
350.893
463.487
461.019
478.426
462.754
460.624
478.33
337.268
480.802
505.835
503.594
480.868
506.141
337.681
337.493
326.157
334.407
563.371
519.646
567.573
562.358
567.89
567.743
521.794
542.707
498.606
513.719
542.052
451.435
477.553
414.64
579.514
611.025
579.667
576.027
534.541
494.456
538.215
537.911
485.013
498.092
503.311
473.114
485.06
352.738
326.407
355.167
503.42
477.691
488.334
520.863
502.003
477.889
335.532
335.396
347.69
613.443
337.369
347.562
337.256
353.194
329.18
373.245
310.652
288.781
504.686
608.378
521.085
493.696
478.301
486.33
526.479
600.336
476.538
615.896
291.39
615.795
528.707
494.507
478.208
479.382
501.29
494.814
479.409
502.485
495.149
493.718
502.237
495.223
479.856
480.022
479.024
289.287
454.564
271.936
454.972
453.601
526.988
479.445
465.195
382.087
480.481
292.663
286.075
461.451
449.606
453.949
445.827
448.661
463.576
463.234
479.925
543.447
601.698
487.466
300.294
282.455
452.986
279.156
552.23
551.989
480.748
457.99
526.21
508.161
488.563
233.725
284.552
614.503
636.32
615.137
636.677
285.273
441.312
553.07
230.481
467.523
590.258
566.024
495.787
490.022
410.018
232.115
293.089
271.12
507.869
509.167
607.81
229.658
276.97
294.423
618.875
618.788
558.504
226.518
562.517
488.285
503.369
280.84
504.039
466.35
224.003
473.557
519.555
502.954
462.416

CELL_DATA 563
TENSORS stress float
164.608 -24.9202 1.38319e-12
-24.9202 28.1477 3.55271e-12
1.38319e-12 3.55271e-12 -12.6049

-40.3383 -21.3202 1.01141e-12
-21.3202 -7.35467 1.93593e-12
1.01141e-12 1.93593e-12 -10.2313

-9.93962 28.0428 4.31832e-12
28.0428 -1.11016 -3.05237e-13
4.31832e-12 -3.05237e-13 -6.35962

-40.4266 -29.8427 -2.06872e-12
-29.8427 -12.8459 -3.72739e-12
-2.06872e-12 -3.72739e-12 -10.5976

-22.6926 19.931 -1.2846e-12
19.931 -1.92203 1.92461e-12
-1.2846e-12 1.92461e-12 -23.0217

-27.1388 -18.0741 -3.25799e-12
-18.0741 15.8879 -1.74497e-12
-3.25799e-12 -1.74497e-12 -6.41039

161.259 26.4843 1.10371e-12
26.4843 28.0244 7.57912e-12
1.10371e-12 7.57912e-12 -13.2638

-5.96114 29.9576 -4.03233e-12
29.9576 -10.1118 -2.52095e-12
-4.03233e-12 -2.52095e-12 -7.27572

34.6308 5.48306 -1.52767e-13
5.48306 -19.0941 4.88942e-13
-1.52767e-13 4.88942e-13 -4.12146

11.8603 -7.47756 9.03277e-13
-7.47756 -48.2869 -1.71056e-12
9.03277e-13 -1.71056e-12 -8.9465

104.192 16.3082 9.56864e-13
16.3082 -8.44343 -3.75522e-12
9.56864e-13 -3.75522e-12 -22.4544

-34.637 -13.453 -1.32812e-12
-13.453 18.9658 -2.83625e-13
-1.32812e-12 -2.83625e-13 -7.17998

-6.02569 27.8328 -1.49273e-12
27.8328 -4.59136 1.52411e-12
-1.49273e-12 1.52411e-12 -6.15857

-35.5512 -14.3399 1.05199e-12
-14.3399 7.84496 5.16505e-12
1.05199e-12 5.16505e-12 -9.13084

-23.6537 33.3116 -1.41457e-12
33.3116 -24.9943 9.23312e-13
-1.41457e-12 9.23312e-13 -21.3652

21.3106 0.560957 -2.69059e-12
0.560957 -32.3379 3.29652e-12
-2.69059e-12 3.29652e-12 -5.58902

-48.9594 -17.9692 1.50875e-12
-17.9692 6.34302 -1.63662e-12
1.50875e-12 -1.63662e-12 -12.9458

11.6601 -2.6652 -6.29718e-13
-2.6652 -43.2481 5.01895e-13
-6.29718e-13 5.01895e-13 -8.0329

-11.3491 26.6732 -6.35344e-13
26.6732 19.5173 -1.53004e-12
-6.35344e-13 -1.53004e-12 -6.08872

21.7654 -4.1955 -1.24167e-12
-4.1955 -35.2937 2.77563e-12
-1.24167e-12 2.77563e-12 -6.74055

-24.4785 8.66842 -1.39e-13
8.66842 32.1273 1.09364e-12
-1.39e-13 1.09364e-12 -4.93363

-11.8088 6.28785 1.63209e-12
6.28785 -11.9744 1.72617e-12
1.63209e-12 1.72617e-12 -75.6228

22.7431 1.87596 -2.38032e-13
1.87596 -33.468 1.01622e-13
-2.38032e-13 1.01622e-13 -6.67652

-12.3875 -27.7147 5.5899e-12
-27.7147 1.59988 1.78524e-12
5.5899e-12 1.78524e-12 -6.60203

21.3042 6.84929 -1.17062e-12
6.84929 -34.3031 -8.23341e-13
-1.17062e-12 -8.23341e-13 -6.80578

-37.9047 19.1127 -1.4971e-12
19.1127 2.65399 -6.27557e-12
-1.4971e-12 -6.27557e-12 -9.45706

106.601 4.18129 9.42653e-13
4.18129 20.6024 3.67647e-12
9.42653e-13 3.67647e-12 -12.0494

-5.30148 30.7455 -2.28084e-12
30.7455 -7.27181 -5.03301e-13
-2.28084e-12 -5.03301e-13 -7.44091

27.8898 37.0736 -2.58638e-12
37.0736 26.469 -5.11591e-12
-2.58638e-12 -5.11591e-12 -8.63173

-9.43909 10.3235 3.1178e-12
10.3235 -32.9308 -3.86913e-13
3.1178e-12 -3.86913e-13 -49.5101

19.8306 14.2168 -1.83024e-12
14.2168 -29.3586 1.92957e-12
-1.83024e-12 1.92957e-12 -6.00029

-4.20972 -17.78 2.82441e-13
-17.78 59.6568 -6.05738e-12
2.82441e-13 -6.05738e-12 -8.47563

66.2819 -42.101 -8.78704e-13
-42.101 71.1371 3.76351e-12
-8.78704e-13 3.76351e-12 -11.2523

-48.2102 5.9869 -3.58175e-12
5.9869 7.26965 -8.68046e-13
-3.58175e-12 -8.68046e-13 -41.0385

-26.2913 -4.8409 7.44871e-12
-4.8409 1.75674 -3.89525e-12
7.44871e-12 -3.89525e-12 -37.8034

-1.46669 21.0279 -1.66297e-12
21.0279 -39.5068 5.49738e-12
-1.66297e-12 5.49738e-12 -41.1043

-43.9765 5.06771 -3.40779e-12
5.06771 0.514246 3.64449e-12
-3.40779e-12 3.64449e-12 -52.1925

-2.75992 -9.16985 -2.60828e-12
-9.16985 -20.77 7.16279e-13
-2.60828e-12 7.16279e-13 -35.8977

-3.9739 -27.9978 -3.11336e-12
-27.9978 -4.61035 -1.97176e-13
-3.11336e-12 -1.97176e-13 -5.9939

65.5957 41.5202 -2.6148e-12
41.5202 73.1647 1.56319e-13
-2.6148e-12 1.56319e-13 -10.964

60.1542 -17.9487 -4.45155e-12
-17.9487 0.117419 2.28439e-12
-4.45155e-12 2.28439e-12 -8.04963

-41.8043 -3.70624 5.01436e-12
-3.70624 -1.18565 4.88987e-12
5.01436e-12 4.88987e-12 -52.7274

-14.5942 19.5558 9.09125e-13
19.5558 -28.5519 1.22983e-12
9.09125e-13 1.22983e-12 -52.8356

18.1408 -12.2732 6.9574e-13
-12.2732 -29.8984 -3.69704e-12
6.9574e-13 -3.69704e-12 -6.22249

38.1726 -43.2981 4.29997e-12
-43.2981 41.8005 -4.25852e-12
4.29997e-12 -4.25852e-12 -14.5589

58.1429 -18.063 6.38304e-13
-18.063 -2.30222 2.6823e-12
6.38304e-13 2.6823e-12 -7.9132

-21.4411 17.0853 2.71087e-12
17.0853 30.3269 -4.08384e-12
2.71087e-12 -4.08384e-12 -5.72766

-11.3721 19.3386 -1.73284e-12
19.3386 25.5104 -4.54866e-12
-1.73284e-12 -4.54866e-12 -3.9211

20.7911 -16.3008 1.7953e-12
-16.3008 -33.1136 -7.72715e-13
1.7953e-12 -7.72715e-13 -7.31104

12.6154 -34.1846 1.9155e-12
-34.1846 46.4347 -2.65032e-12
1.9155e-12 -2.65032e-12 -10.3969

62.3589 19.1814 -1.23753e-12
19.1814 2.81062 2.23584e-12
-1.23753e-12 2.23584e-12 -8.4136

46.5128 -25.2878 -5.81698e-12
-25.2878 5.13439 9.09495e-13
-5.81698e-12 9.09495e-13 -5.60953

-31.8955 19.4859 6.26314e-13
19.4859 -4.2856 3.37389e-12
6.26314e-13 3.37389e-12 -26.0859

37.0386 29.6486 2.28203e-12
29.6486 14.5127 -2.86586e-12
2.28203e-12 -2.86586e-12 -5.43196

-27.4501 -21.8128 -1.02969e-12
-21.8128 -8.22807 2.24272e-12
-1.02969e-12 2.24272e-12 -25.2482

64.8675 -42.7103 -6.15093e-12
-42.7103 44.0793 8.17124e-14
-6.15093e-12 8.17124e-14 -9.50206

-27.7497 5.45992 -8.86254e-13
5.45992 2.66935 1.39829e-12
-8.86254e-13 1.39829e-12 -38.309

-5.55721 -5.32965 1.11762e-12
-5.32965 57.3871 2.23229e-12
1.11762e-12 2.23229e-12 -5.44899

-0.199976 10.3842 -2.61835e-12
10.3842 -24.8484 1.04527e-12
-2.61835e-12 1.04527e-12 -38.3706

-26.4844 21.4127 -2.22933e-13
21.4127 12.2196 6.46357e-12
-2.22933e-13 6.46357e-12 -6.86898

4.72654 5.75379 7.10691e-13
5.75379 -56.0399 -1.35447e-13
7.10691e-13 -1.35447e-13 -13.9805

0.539701 11.4589 1.72869e-12
11.4589 -34.0564 9.88246e-13
1.72869e-12 9.88246e-13 -14.8396

106.342 31.8193 1.86162e-12
31.8193 37.8323 2.77467e-12
1.86162e-12 2.77467e-12 -7.48977

-35.4915 -6.03504 -3.35983e-12
-6.03504 10.6012 -5.20532e-12
-3.35983e-12 -5.20532e-12 -13.4787

-35.3598 9.51962 6.16322e-12
9.51962 1.23357 -2.54996e-12
6.16322e-12 -2.54996e-12 -14.9599

-42.5872 -2.88071 2.37173e-12
-2.88071 21.1109 -5.16091e-12
2.37173e-12 -5.16091e-12 -11.2384

-44.9076 23.4021 -1.45513e-13
23.4021 -5.89261 4.31418e-12
-1.45513e-13 4.31418e-12 -13.9214

9.97105 8.46341 -1.15197e-12
8.46341 -42.3773 2.36433e-12
-1.15197e-12 2.36433e-12 -9.07729

-12.3339 -28.2388 2.77023e-12
-28.2388 1.68754 2.48335e-12
2.77023e-12 2.48335e-12 -6.67319

1.30886 -1.7112 -3.83693e-13
-1.7112 -55.456 -1.35751e-12
-3.83693e-13 -1.35751e-12 -11.3035

-31.885 -19.2619 -2.57424e-13
-19.2619 -4.59498 5.59256e-13
-2.57424e-13 5.59256e-13 -25.9552

-27.9756 21.3078 1.52115e-12
21.3078 -8.35792 2.22621e-12
1.52115e-12 2.22621e-12 -26.0136

-0.651313 -16.583 -7.38668e-13
-16.583 61.6725 -4.54392e-12
-7.38668e-13 -4.54392e-12 -7.94848

-0.650088 -27.9359 3.52074e-12
-27.9359 -21.3605 -4.66412e-12
3.52074e-12 -4.66412e-12 -12.7906

-14.0927 -25.1342 5.79092e-13
-25.1342 7.40687 2.42591e-12
5.79092e-13 2.42591e-12 -5.23531

91.676 -31.7099 9.23706e-14
-31.7099 19.4845 7.11786e-12
9.23706e-14 7.11786e-12 -16.3333

-33.7057 3.22257 2.28188e-13
3.22257 9.19925 3.36797e-12
2.28188e-13 3.36797e-12 -18.5635

2.75239 28.9437 4.73695e-14
28.9437 -24.4244 6.99885e-13
4.73695e-14 6.99885e-13 -11.3161

-38.4329 19.664 1.153e-12
19.664 5.22978 -8.62125e-13
1.153e-12 -8.62125e-13 -9.23453

50.1898 7.99934 -3.65219e-12
7.99934 -16.9629 -1.00512e-12
-3.65219e-12 -1.00512e-12 -7.06628

60.0304 -33.9347 9.61601e-13
-33.9347 33.7865 -6.95503e-12
9.61601e-13 -6.95503e-12 -6.98349

-18.9596 -10.5876 -4.1851e-12
-10.5876 -0.541869 -2.04873e-12
-4.1851e-12 -2.04873e-12 -25.4316

-33.9261 23.8994 -1.76392e-12
23.8994 -12.0229 4.49229e-13
-1.76392e-12 4.49229e-13 -14.5399

58.1552 -32.383 1.13332e-12
-32.383 18.0913 1.89478e-14
1.13332e-12 1.89478e-14 -10.1335

66.8584 10.7908 2.21097e-12
10.7908 8.51347 -3.15303e-14
2.21097e-12 -3.15303e-14 -5.08402

7.6742 -21.2055 8.73375e-14
-21.2055 88.4628 -1.61767e-12
8.73375e-14 -1.61767e-12 -11.8621

-33.985 14.4255 1.24234e-12
14.4255 20.2383 1.15463e-12
1.24234e-12 1.15463e-12 -7.54575

8.47561 23.1427 4.08562e-13
23.1427 -26.0735 -2.77556e-12
4.08562e-13 -2.77556e-12 -11.2987

34.8682 42.1977 -3.91746e-12
42.1977 46.1986 -5.36933e-12
-3.91746e-12 -5.36933e-12 -14.4203

-4.39443 16.5073 -5.43195e-13
16.5073 -35.5424 2.78207e-12
-5.43195e-13 2.78207e-12 -73.2893

-5.97929 -4.10824 3.73627e-12
-4.10824 57.9475 1.37253e-12
3.73627e-12 1.37253e-12 -5.44119

-1.81876 -16.6324 -7.46936e-12
-16.6324 -39.4026 -1.75651e-11
-7.46936e-12 -1.75651e-11 -74.1126

-3.3293 -27.335 1.83083e-12
-27.335 -30.0298 5.31797e-12
1.83083e-12 5.31797e-12 -21.5543

8.96723 27.4244 -3.04053e-12
27.4244 -29.9944 -2.11564e-12
-3.04053e-12 -2.11564e-12 -11.2567

45.7106 -24.41 -5.08038e-13
-24.41 5.02469 9.02981e-14
-5.08038e-13 9.02981e-14 -5.2356

10.0955 31.3224 -5.20946e-12
31.3224 47.1625 1.21266e-12
-5.20946e-12 1.21266e-12 -9.63992

14.2725 -10.7048 -1.50635e-12
-10.7048 82.8373 4.9738e-14
-1.50635e-12 4.9738e-14 -6.4468

-38.6329 21.9706 2.7122e-12
21.9706 2.94161 -1.05486e-12
2.7122e-12 -1.05486e-12 -8.56851

1.19263 16.7939 -6.17876e-13
16.7939 -25.7219 -1.33671e-12
-6.17876e-13 -1.33671e-12 -18.5677

-26.5373 15.1536 1.89952e-12
15.1536 18.4493 4.32543e-12
1.89952e-12 4.32543e-12 -5.70739

43.6582 15.9535 -1.57267e-12
15.9535 -7.28442 2.53723e-12
-1.57267e-12 2.53723e-12 -4.07456

12.5772 -21.472 -2.43479e-12
-21.472 57.9547 -2.76993e-12
-2.43479e-12 -2.76993e-12 -4.71362

65.9953 -29.3899 6.4162e-12
-29.3899 18.6435 2.61717e-12
6.4162e-12 2.61717e-12 -9.335

-32.3809 -24.5727 -1.61989e-12
-24.5727 -7.28149 2.04015e-12
-1.61989e-12 2.04015e-12 -8.97572

-22.6666 27.4507 -1.55757e-12
27.4507 -10.3498 -4.67774e-14
-1.55757e-12 -4.67774e-14 -9.28332

-38.351 23.1875 2.21319e-12
23.1875 1.99112 -6.81292e-12
2.21319e-12 -6.81292e-12 -8.5244

-51.5532 13.1692 2.76402e-12
13.1692 11.9271 1.36187e-13
2.76402e-12 1.36187e-13 -16.4661

23.4845 9.37217 -1.58037e-12
9.37217 -29.4871 -2.31104e-12
-1.58037e-12 -2.31104e-12 -5.32087

3.76896 -4.66495 -7.95512e-13
-4.66495 79.4366 1.16292e-12
-7.95512e-13 1.16292e-12 -9.53112

-44.94 -36.8334 -2.76283e-12
-36.8334 -19.8289 -2.32866e-12
-2.76283e-12 -2.32866e-12 -14.7703

-16.079 27.4648 3.78364e-12
27.4648 1.34127 -1.3299e-12
3.78364e-12 -1.3299e-12 -6.91398

-5.01483 2.17029 3.72546e-12
2.17029 82.6719 3.92693e-12
3.72546e-12 3.92693e-12 -13.4309

69.0442 34.6095 7.10543e-14
34.6095 15.4967 4.51668e-12
7.10543e-14 4.51668e-12 -10.7056

-31.3513 -22.9736 2.38713e-12
-22.9736 -4.6323 -1.78139e-12
2.38713e-12 -1.78139e-12 -8.5292

11.7429 5.73296 4.20404e-13
5.73296 -48.3357 1.91662e-12
4.20404e-13 1.91662e-12 -8.6408

43.0651 27.2034 -3.01033e-12
27.2034 10.4522 -7.84558e-13
-3.01033e-12 -7.84558e-13 -5.08035

-9.41502 12.7456 4.84205e-13
12.7456 -14.0389 1.99781e-12
4.84205e-13 1.99781e-12 -37.0414

70.3333 24.3299 -5.92119e-13
24.3299 23.8048 9.22521e-13
-5.92119e-13 9.22521e-13 -6.79928

-10.5862 -13.0551 -3.63043e-12
-13.0551 -13.9207 -5.84717e-13
-3.63043e-12 -5.84717e-13 -37.3792

-4.37898 0.778511 -4.62904e-12
0.778511 59.397 7.18832e-13
-4.62904e-12 7.18832e-13 -4.8302

38.3564 -2.23526 -8.82968e-12
-2.23526 -23.8098 -5.22715e-12
-8.82968e-12 -5.22715e-12 -5.83169

3.5938 -15.7681 1.53226e-12
-15.7681 -53.9715 1.45572e-12
1.53226e-12 1.45572e-12 -21.1243

-42.2768 24.3881 2.45585e-12
24.3881 -11.7369 -2.31785e-12
2.45585e-12 -2.31785e-12 -11.167

-46.8123 -13.535 6.21015e-13
-13.535 11.0674 1.22983e-12
6.21015e-13 1.22983e-12 -12.3535

5.81022 -8.00005 -3.09338e-12
-8.00005 -70.9679 -3.73035e-13
-3.09338e-12 -3.73035e-13 -14.8816

-49.5391 -22.2843 1.07573e-12
-22.2843 3.74867 -1.26388e-12
1.07573e-12 -1.26388e-12 -22.1042

-17.4594 -6.5963 4.58004e-13
-6.5963 -13.1158 -1.93079e-12
4.58004e-13 -1.93079e-12 -34.7822

-28.7295 -29.9081 -3.39935e-12
-29.9081 -9.39983 -1.58777e-12
-3.39935e-12 -1.58777e-12 -8.99554

15.6935 11.4534 -2.95082e-12
11.4534 80.1788 -1.79057e-12
-2.95082e-12 -1.79057e-12 -6.53046

42.2895 -28.1458 -2.53782e-12
-28.1458 11.0511 -2.93691e-12
-2.53782e-12 -2.93691e-12 -5.04358

-47.1705 -13.7724 -1.67644e-12
-13.7724 4.19613 -4.32721e-12
-1.67644e-12 -4.32721e-12 -29.301

2.96491 0.504371 2.23821e-12
0.504371 -56.8117 1.34885e-12
2.23821e-12 1.34885e-12 -11.0047

-39.3363 -21.5246 4.39856e-12
-21.5246 -8.85734 6.3712e-13
4.39856e-12 6.3712e-13 -14.774

-40.1948 25.6976 -2.52361e-12
25.6976 -14.6914 3.39147e-12
-2.52361e-12 3.39147e-12 -11.3104

32.2602 -31.4636 1.99426e-12
-31.4636 38.4289 -5.51855e-13
1.99426e-12 -5.51855e-13 -4.64779

-31.4688 -7.08527 -3.96623e-12
-7.08527 1.70017 1.14131e-12
-3.96623e-12 1.14131e-12 -40.9936

36.6295 -33.0759 1.89833e-12
-33.0759 72.026 -8.12387e-13
1.89833e-12 -8.12387e-13 -7.14461

16.6125 -19.1793 1.83379e-12
-19.1793 -25.8692 9.68381e-12
1.83379e-12 9.68381e-12 -7.13277

1.50262 1.97016 -1.4091e-12
1.97016 -51.3914 2.47979e-12
-1.4091e-12 2.47979e-12 -15.374

-12.8763 17.8751 3.62081e-13
17.8751 -16.9548 9.9328e-13
3.62081e-13 9.9328e-13 -41.0612

10.7133 20.1822 1.73017e-12
20.1822 59.4531 -6.11896e-12
1.73017e-12 -6.11896e-12 -4.35625

4.31855 27.2101 8.59165e-13
27.2101 -16.2234 -1.58096e-12
8.59165e-13 -1.58096e-12 -8.12379

30.9042 -24.511 3.27087e-12
-24.511 -8.13171 7.11194e-12
3.27087e-12 7.11194e-12 -4.8716

-37.7868 -17.8384 -5.55315e-13
-17.8384 2.40089 -5.07061e-12
-5.55315e-13 -5.07061e-12 -9.86393

55.5127 35.0673 -4.12825e-12
35.0673 42.3448 -3.61193e-12
-4.12825e-12 -3.61193e-12 -6.63609

-40.0147 -21.831 1.23013e-13
-21.831 2.53689 3.57462e-12
1.23013e-13 3.57462e-12 -9.39344

2.96671 30.8501 4.06608e-12
30.8501 -17.3877 -3.32238e-12
4.06608e-12 -3.32238e-12 -9.07777

18.5373 -25.2436 -1.34766e-12
-25.2436 -19.4172 8.64198e-13
-1.34766e-12 8.64198e-13 -6.34192

-15.6533 -25.1259 -5.17808e-12
-25.1259 5.8957 -3.57758e-12
-5.17808e-12 -3.57758e-12 -5.77494

42.7177 -18.6876 5.0863e-12
-18.6876 -9.16513 2.7119e-13
5.0863e-12 2.7119e-13 -5.36855

27.4317 -18.8492 -2.04636e-12
-18.8492 -20.3676 5.28585e-12
-2.04636e-12 5.28585e-12 -5.68916

-41.3937 -25.3369 -2.9153e-12
-25.3369 -14.964 -1.84367e-12
-2.9153e-12 -1.84367e-12 -11.5666

29.7806 35.9683 4.05246e-12
35.9683 25.2269 -8.01729e-13
4.05246e-12 -8.01729e-13 -8.64384

-28.5177 15.3764 4.58818e-12
15.3764 18.5188 1.22509e-12
4.58818e-12 1.22509e-12 -5.87341

-23.1077 26.4219 -3.05149e-12
26.4219 -12.5465 -3.64656e-12
-3.05149e-12 -3.64656e-12 -9.95757

-42.0963 25.4736 1.88867e-12
25.4736 -11.5925 -1.83823e-12
1.88867e-12 -1.83823e-12 -10.9923

-37.288 11.6213 -3.32045e-12
11.6213 11.8441 -7.44886e-13
-3.32045e-12 -7.44886e-13 -9.08003

64.3919 -8.22675 -2.89072e-12
-8.22675 3.1981 9.81437e-13
-2.89072e-12 9.81437e-13 -4.25036

8.73415 18.6058 4.52793e-12
18.6058 59.2189 6.4091e-12
4.52793e-12 6.4091e-12 -4.16184

-25.614 -24.3801 -2.33887e-14
-24.3801 0.458518 -2.8925e-12
-2.33887e-14 -2.8925e-12 -7.21496

-1.14124 25.6653 7.55544e-13
25.6653 13.7523 -1.38201e-12
7.55544e-13 -1.38201e-12 -4.08206

32.3783 -35.6282 -8.75152e-13
-35.6282 21.7 1.65201e-13
-8.75152e-13 1.65201e-13 -8.48555

59.535 38.3155 -4.3426e-12
38.3155 17.8476 2.089e-12
-4.3426e-12 2.089e-12 -13.722

12.1253 -33.31 4.55754e-12
-33.31 42.9127 -1.58925e-12
4.55754e-12 -1.58925e-12 -9.54219

30.551 -31.1586 -6.91003e-12
-31.1586 36.8131 -1.7657e-12
-6.91003e-12 -1.7657e-12 -4.40494

11.7688 -6.83866 1.30829e-12
-6.83866 -48.8377 -1.90662e-13
1.30829e-12 -1.90662e-13 -8.76964

25.2743 30.3408 -3.9968e-12
30.3408 41.0884 1.83083e-12
-3.9968e-12 1.83083e-12 -4.45544

62.6809 13.2942 -1.41753e-12
13.2942 5.22856 1.30562e-13
-1.41753e-12 1.30562e-13 -4.30495

-7.02507 13.3784 1.06655e-12
13.3784 61.343 3.7114e-12
1.06655e-12 3.7114e-12 -8.69441

11.7299 -22.3396 4.73518e-12
-22.3396 55.7622 -3.74811e-12
4.73518e-12 -3.74811e-12 -4.30091

-47.2606 -1.09144 -1.44003e-12
-1.09144 12.4097 1.46194e-12
-1.44003e-12 1.46194e-12 -22.1621

-5.9184 2.24653 -6.80641e-13
2.24653 59.0033 -2.75691e-12
-6.80641e-13 -2.75691e-12 -5.26191

6.26902 31.0883 3.63383e-12
31.0883 47.8643 4.54274e-12
3.63383e-12 4.54274e-12 -9.65998

-39.7251 12.1077 -3.49915e-12
12.1077 12.8449 -2.24472e-12
-3.49915e-12 -2.24472e-12 -9.31251

40.7377 -27.6467 -1.5028e-12
-27.6467 8.35785 -6.57489e-12
-1.5028e-12 -6.57489e-12 -5.64136

7.54016 20.5569 -1.93445e-12
20.5569 -47.4668 3.05948e-12
-1.93445e-12 3.05948e-12 -16.4815

-3.42098 26.2704 2.67756e-12
26.2704 -31.4867 1.21562e-12
2.67756e-12 1.21562e-12 -22.2526

15.7774 -18.5672 5.99165e-12
-18.5672 -30.0124 7.03733e-13
5.99165e-12 7.03733e-13 -8.18236

4.42881 -1.80097 -1.6828e-12
-1.80097 -34.133 -4.26059e-12
-1.6828e-12 -4.26059e-12 -24.4396

-14.3394 -31.8115 1.60612e-12
-31.8115 -11.93 1.09424e-12
1.60612e-12 1.09424e-12 -9.0489

56.2172 23.327 2.47269e-12
23.327 0.81731 7.79821e-13
2.47269e-12 7.79821e-13 -8.28744

-27.8279 30.162 -3.56811e-12
30.162 -9.23638 -2.01765e-12
-3.56811e-12 -2.01765e-12 -8.79979

-27.0034 29.2058 9.05646e-13
29.2058 -9.20175 3.78542e-12
9.05646e-13 3.78542e-12 -8.67706

28.6284 30.6599 4.02167e-12
30.6599 40.4053 3.53969e-12
4.02167e-12 3.53969e-12 -4.44847

0.343104 27.0848 -4.36984e-13
27.0848 -19.8454 1.68754e-14
-4.36984e-13 1.68754e-14 -11.7767

64.5068 3.52504 -1.7503e-12
3.52504 -11.825 -3.19578e-12
-1.7503e-12 -3.19578e-12 -10.0178

-14.8996 31.8172 4.90896e-12
31.8172 -20.7987 -2.43183e-12
4.90896e-12 -2.43183e-12 -12.4472

-37.9436 -12.5997 -3.69527e-12
-12.5997 8.18001 1.37016e-12
-3.69527e-12 1.37016e-12 -14.0225

-0.475065 24.2783 1.05693e-12
24.2783 -29.9989 -3.10685e-12
1.05693e-12 -3.10685e-12 -20.7715

-23.7272 -29.5786 -1.20407e-12
-29.5786 -11.9349 1.14605e-12
-1.20407e-12 1.14605e-12 -8.84272

-38.1477 -4.89813 -2.4122e-12
-4.89813 18.8465 -3.60364e-12
-2.4122e-12 -3.60364e-12 -11.7297

69.9433 -24.5556 5.77908e-13
-24.5556 18.0289 1.78228e-12
5.77908e-13 1.78228e-12 -7.04402

39.9816 29.6922 3.72561e-12
29.6922 13.4796 8.89363e-13
3.72561e-12 8.89363e-13 -5.21446

-4.29553 14.6961 9.33624e-13
14.6961 60.5703 -3.72916e-12
9.33624e-13 -3.72916e-12 -8.40035

1.61144 -1.13885 -5.81461e-13
-1.13885 -56.1231 3.95609e-13
-5.81461e-13 3.95609e-13 -11.2087

9.61413 0.00223511 -8.40513e-13
0.00223511 -44.7533 2.1072e-12
-8.40513e-13 2.1072e-12 -8.43727

-31.0783 23.1236 7.92699e-13
23.1236 -4.337 1.67362e-12
7.92699e-13 1.67362e-12 -8.45772

-34.7626 23.8709 2.0434e-12
23.8709 -13.1923 -1.80345e-12
2.0434e-12 -1.80345e-12 -14.8128

-43.3785 -24.3807 -2.62024e-12
-24.3807 -12.6139 1.87302e-12
-2.62024e-12 1.87302e-12 -11.4681

-39.0587 -0.672687 -3.88036e-12
-0.672687 21.0464 1.36069e-12
-3.88036e-12 1.36069e-12 -10.4951

-40.8066 25.5903 -2.02445e-12
25.5903 -13.2224 4.79764e-13
-2.02445e-12 4.79764e-13 -11.1718

32.3214 -10.3077 -9.88246e-13
-10.3077 -25.1527 2.7424e-12
-9.88246e-13 2.7424e-12 -6.0135

8.70699 -32.8326 -2.32703e-13
-32.8326 22.7976 5.13841e-12
-2.32703e-13 5.13841e-12 -6.99137

2.39689 -2.30057 1.51272e-12
-2.30057 -49.9606 2.36818e-12
1.51272e-12 2.36818e-12 -14.7724

36.7452 -34.5073 1.93623e-12
-34.5073 24.4795 -4.42668e-12
1.93623e-12 -4.42668e-12 -7.70865

-38.2937 19.0861 2.85268e-12
19.0861 -7.09372 9.36732e-13
2.85268e-12 9.36732e-13 -14.4492

7.87077 -26.4786 1.78879e-12
-26.4786 -27.9941 3.0731e-12
1.78879e-12 3.0731e-12 -10.9687

63.9464 -9.69 2.6148e-12
-9.69 5.67786 8.44066e-13
2.6148e-12 8.44066e-13 -5.07185

6.04096 -23.1918 -4.19812e-12
-23.1918 -35.468 -5.82645e-13
-4.19812e-12 -5.82645e-13 -17.736

0.141352 2.35825 5.42825e-13
2.35825 -56.1739 5.76576e-13
5.42825e-13 5.76576e-13 -11.5456

-4.06198 -23.3213 3.34666e-12
-23.3213 -23.4116 -1.80596e-14
3.34666e-12 -1.80596e-14 -16.7199

11.0389 -25.8593 8.8806e-12
-25.8593 -29.4854 -1.11111e-12
8.8806e-12 -1.11111e-12 -9.73316

10.2014 -8.54598 -6.15508e-13
-8.54598 -43.4894 -3.60068e-12
-6.15508e-13 -3.60068e-12 -9.28083

-35.4183 -23.0681 1.70767e-12
-23.0681 -12.6457 -2.05069e-12
1.70767e-12 -2.05069e-12 -15.1028

23.6642 -31.3412 -8.68046e-13
-31.3412 5.71277 -7.66143e-12
-8.68046e-13 -7.66143e-12 -5.8776

11.0599 -24.587 4.36096e-12
-24.587 -27.4942 -4.13891e-12
4.36096e-12 -4.13891e-12 -10.0477

46.6425 10.8642 -4.43852e-12
10.8642 -16.1164 3.59801e-12
-4.43852e-12 3.59801e-12 -6.79924

-14.1861 26.3401 1.44329e-12
26.3401 -15.6395 -8.79593e-13
1.44329e-12 -8.79593e-13 -14.1187

-45.2519 -37.6131 2.58134e-12
-37.6131 -20.6125 -2.56469e-12
2.58134e-12 -2.56469e-12 -14.9188

-43.7087 37.2654 -1.41753e-12
37.2654 -21.2663 -5.94783e-13
-1.41753e-12 -5.94783e-13 -14.7692

-61.1854 -28.5735 3.17124e-12
-28.5735 -7.49703 -3.31705e-12
3.17124e-12 -3.31705e-12 -15.1993

-58.4162 27.0642 7.13059e-13
27.0642 -6.27166 5.32345e-12
7.13059e-13 5.32345e-12 -14.4779

5.60069 -8.5277 1.15019e-12
-8.5277 -71.0643 1.36483e-13
1.15019e-12 1.36483e-13 -14.7094

4.3974 9.27372 6.44521e-13
9.27372 -68.833 9.41469e-13
6.44521e-13 9.41469e-13 -14.4374

9.02399 -9.84604 -6.45706e-13
-9.84604 -40.8895 -3.1483e-12
-6.45706e-13 -3.1483e-12 -9.61134

-24.3355 32.1164 1.90366e-12
32.1164 -24.8102 -2.33701e-12
1.90366e-12 -2.33701e-12 -21.1454

-25.523 -32.8544 2.13015e-12
-32.8544 -25.0962 2.42218e-12
2.13015e-12 2.42218e-12 -21.4695

-53.9203 16.0686 2.9489e-12
16.0686 3.40192 1.34589e-12
2.9489e-12 1.34589e-12 -21.403

-52.4211 -15.801 5.07609e-12
-15.801 3.29723 -2.06946e-13
5.07609e-12 -2.06946e-13 -21.0763

6.11242 -3.74743 2.3482e-12
-3.74743 -43.9253 -3.21076e-12
2.3482e-12 -3.21076e-12 -25.7654

6.9186 3.61021 1.56393e-12
3.61021 -46.3489 -4.37694e-12
1.56393e-12 -4.37694e-12 -26.1417

-15.6251 9.83667 -3.26605e-12
9.83667 46.2621 -1.63899e-12
-3.26605e-12 -1.63899e-12 -5.84741

-22.9184 -24.7739 2.0283e-12
-24.7739 -14.5521 2.30112e-12
2.0283e-12 2.30112e-12 -10.3294

-56.6038 -36.3877 -2.71664e-12
-36.3877 -14.5327 2.12082e-12
-2.71664e-12 2.12082e-12 -13.4368

33.3581 -4.66423 -5.08038e-12
-4.66423 -19.8463 5.48857e-12
-5.08038e-12 5.48857e-12 -3.94451

3.43347 -16.6949 2.19084e-13
-16.6949 -52.6291 -7.98768e-13
2.19084e-13 -7.98768e-13 -21.5328

3.67461 16.1759 -8.47174e-13
16.1759 -51.8848 1.59191e-12
-8.47174e-13 1.59191e-12 -21.4061

6.5558 0.121884 6.70279e-13
0.121884 -76.7552 4.70714e-13
6.70279e-13 4.70714e-13 -13.3036

-7.56897 23.3747 6.21932e-12
23.3747 39.9353 5.40012e-13
6.21932e-12 5.40012e-13 -6.8847

-56.8895 36.1717 2.03459e-12
36.1717 -14.0114 2.62013e-13
2.03459e-12 2.62013e-13 -13.3885

-39.7945 -23.3957 8.19937e-13
-23.3957 2.5616 -3.61785e-12
8.19937e-13 -3.61785e-12 -8.80042

37.1165 23.3523 8.08834e-13
23.3523 -8.61251 1.0593e-12
8.08834e-13 1.0593e-12 -5.75804

4.73549 23.8581 -1.03029e-13
23.8581 -38.2258 -3.4639e-13
-1.03029e-13 -3.4639e-13 -18.9858

24.0134 -31.313 -2.20268e-12
-31.313 6.40863 -5.33795e-12
-2.20268e-12 -5.33795e-12 -5.64758

2.43083 -3.23084 -5.59256e-13
-3.23084 -48.3697 4.76508e-12
-5.59256e-13 4.76508e-12 -14.7424

-60.4581 -34.1611 1.89012e-12
-34.1611 -14.3498 -3.4639e-12
1.89012e-12 -3.4639e-12 -14.0305

-17.4519 8.3198 -6.54643e-13
8.3198 45.6914 2.66454e-13
-6.54643e-13 2.66454e-13 -5.78044

-9.46819 21.8111 1.02141e-13
21.8111 40.4247 2.20505e-12
1.02141e-13 2.20505e-12 -6.65318

58.6029 35.7751 1.51582e-13
35.7751 37.0878 -2.56861e-12
1.51582e-13 -2.56861e-12 -6.91567

70.483 1.57872 3.50061e-12
1.57872 -5.54243 -3.09197e-12
3.50061e-12 -3.09197e-12 -10.3737

-30.7595 -22.8044 -4.23365e-13
-22.8044 -13.3562 4.47318e-12
-4.23365e-13 4.47318e-12 -14.4658

32.8411 31.1833 1.41516e-12
31.1833 69.7934 -8.0765e-13
1.41516e-12 -8.0765e-13 -6.67919

-19.3761 23.6097 3.67972e-12
23.6097 7.68696 6.05619e-12
3.67972e-12 6.05619e-12 -5.5127

47.6365 -5.34944 -2.7948e-13
-5.34944 -17.4324 1.2775e-13
-2.7948e-13 1.2775e-13 -6.82119

33.2193 11.2159 1.33582e-12
11.2159 -23.6361 4.28191e-12
1.33582e-12 4.28191e-12 -6.01327

6.25432 0.429907 1.76762e-12
0.429907 -77.5526 1.30749e-12
1.76762e-12 1.30749e-12 -13.4494

-58.9361 -29.0312 -2.81397e-12
-29.0312 -6.28806 -8.91435e-13
-2.81397e-12 -8.91435e-13 -14.6968

-28.3321 -6.31907 -9.48182e-12
-6.31907 -11.3587 1.27987e-12
-9.48182e-12 1.27987e-12 -51.5904

-44.6983 37.4118 -8.96764e-13
37.4118 -20.8116 3.96524e-12
-8.96764e-13 3.96524e-12 -14.7732

93.7892 1.66326 -2.28558e-12
1.66326 16.6554 -8.11573e-13
-2.28558e-12 -8.11573e-13 -6.04294

10.0367 -32.7863 -4.25319e-12
-32.7863 21.3109 1.21207e-12
-4.25319e-12 1.21207e-12 -6.80763

-56.9364 36.6132 1.88301e-12
36.6132 -14.5713 -3.18664e-12
1.88301e-12 -3.18664e-12 -13.5047

-35.0785 -11.1338 2.31115e-12
-11.1338 19.1771 1.05456e-12
2.31115e-12 1.05456e-12 -8.31594

-5.47693 -25.514 -5.50463e-12
-25.514 37.3499 3.55271e-12
-5.50463e-12 3.55271e-12 -6.98646

-58.4526 28.8302 -2.48386e-12
28.8302 -6.27143 4.78995e-12
-2.48386e-12 4.78995e-12 -14.6139

28.4958 -26.1414 -1.16647e-12
-26.1414 -4.91206 -5.57184e-12
-1.16647e-12 -5.57184e-12 -4.69664

-21.1709 10.4834 1.27246e-12
10.4834 -18.559 -1.13298e-11
1.27246e-12 -1.13298e-11 -51.686

3.43326 30.8713 -7.83433e-12
30.8713 27.1625 6.98108e-12
-7.83433e-12 6.98108e-12 -6.73241

6.14066 8.12679 1.3823e-12
8.12679 -72.2981 1.56571e-12
1.3823e-12 1.56571e-12 -14.984

-11.5455 30.1905 1.4803e-15
30.1905 -20.6032 2.57246e-12
1.4803e-15 2.57246e-12 -11.5489

-30.7972 23.3317 -4.07718e-12
23.3317 -5.09958 -4.53504e-12
-4.07718e-12 -4.53504e-12 -8.46378

-25.8638 -32.4891 -1.68251e-12
-32.4891 -24.113 -2.49217e-12
-1.68251e-12 -2.49217e-12 -21.559

9.20559 -23.1899 4.71741e-12
-23.1899 -27.9219 -1.05989e-12
4.71741e-12 -1.05989e-12 -11.4254

-37.6607 10.4709 3.10999e-12
10.4709 8.9289 1.97886e-12
3.10999e-12 1.97886e-12 -25.3314

-23.0401 -23.4335 -3.75107e-13
-23.4335 4.95254 4.2224e-12
-3.75107e-13 4.2224e-12 -6.26241

88.802 -9.70759 4.98801e-12
-9.70759 10.8074 3.41209e-14
4.98801e-12 3.41209e-14 -10.0307

84.0422 -14.2769 5.7554e-13
-14.2769 2.81292 1.80833e-12
5.7554e-13 1.80833e-12 -13.1967

5.88816 16.5292 8.4525e-13
16.5292 -33.9324 5.68434e-14
8.4525e-13 5.68434e-14 -22.3762

-16.4208 22.5013 2.42917e-12
22.5013 16.228 -2.71783e-13
2.42917e-12 -2.71783e-13 -5.08469

-3.91215 29.1628 -6.0029e-12
29.1628 -12.2294 -5.52447e-13
-6.0029e-12 -5.52447e-13 -8.39579

50.9921 0.68866 6.92779e-13
0.68866 -6.53121 -5.30863e-12
6.92779e-13 -5.30863e-12 -3.63389

-48.1409 6.57127 -1.49718e-12
6.57127 14.7862 2.23762e-12
-1.49718e-12 2.23762e-12 -18.9525

10.1157 16.5408 -2.28321e-12
16.5408 -36.0794 -2.04518e-12
-2.28321e-12 -2.04518e-12 -9.13505

-4.50314 -25.7605 1.51938e-12
-25.7605 35.5552 2.71664e-12
1.51938e-12 2.71664e-12 -6.74642

-39.1907 -2.57247 2.76623e-12
-2.57247 21.5042 2.01261e-12
2.76623e-12 2.01261e-12 -10.669

-7.99006 13.3649 6.26847e-12
13.3649 44.4048 -3.74693e-12
6.26847e-12 -3.74693e-12 -3.94375

3.73477 -29.713 -3.92634e-12
-29.713 -17.3642 -1.28519e-12
-3.92634e-12 -1.28519e-12 -8.92008

21.4259 -29.9468 7.87518e-13
-29.9468 14.7562 4.20937e-12
7.87518e-13 4.20937e-12 -3.91732

6.88125 31.6221 -1.76215e-12
31.6221 25.4016 -1.53892e-12
-1.76215e-12 -1.53892e-12 -6.82758

2.78571 -15.0202 6.3259e-12
-15.0202 -39.2679 5.83807e-12
6.3259e-12 5.83807e-12 -63.3132

-46.1597 2.04121 1.98093e-12
2.04121 11.4615 6.28238e-13
1.98093e-12 6.28238e-13 -22.757

-55.4452 20.3002 5.02206e-12
20.3002 3.09597 4.76389e-12
5.02206e-12 4.76389e-12 -22.9161

5.91701 15.4392 -2.74269e-12
15.4392 -58.819 -9.25186e-13
-2.74269e-12 -9.25186e-13 -23.0361

-18.9212 -26.1884 3.55271e-13
-26.1884 -12.9132 5.51559e-13
3.55271e-13 5.51559e-13 -9.65215

41.3456 17.9569 1.75978e-12
17.9569 -6.27043 2.80428e-12
1.75978e-12 2.80428e-12 -3.86086

-44.6829 -5.29422 8.67926e-13
-5.29422 4.53831 1.31776e-12
8.67926e-13 1.31776e-12 -39.1458

7.49924 -18.9882 -2.47032e-12
-18.9882 -39.8941 6.18468e-13
-2.47032e-12 6.18468e-13 -11.6596

30.2907 -15.5986 -6.41146e-12
-15.5986 -20.5078 -1.20274e-12
-6.41146e-12 -1.20274e-12 -4.80441

-9.63777 11.6029 1.48859e-12
11.6029 44.3187 -2.50466e-12
1.48859e-12 -2.50466e-12 -3.85851

8.33423 -25.7336 -1.95162e-12
-25.7336 32.9916 5.29828e-12
-1.95162e-12 5.29828e-12 -3.63248

-10.2448 -25.2738 -2.83507e-12
-25.2738 -19.1 -8.5798e-13
-2.83507e-12 -8.5798e-13 -23.175

17.0051 31.9588 1.83202e-12
31.9588 11.1974 -2.74447e-12
1.83202e-12 -2.74447e-12 -5.74574

-1.06931 -25.1348 -1.61796e-12
-25.1348 -30.7626 -2.08248e-12
-1.61796e-12 -2.08248e-12 -20.8917

48.0644 2.59732 -7.60281e-13
2.59732 -8.40905 -1.21029e-12
-7.60281e-13 -1.21029e-12 -3.53104

6.55274 -28.9299 -7.32688e-12
-28.9299 72.0491 1.04213e-13
-7.32688e-12 1.04213e-13 -14.5513

21.7915 -29.2303 2.4265e-12
-29.2303 13.9637 1.18424e-12
2.4265e-12 1.18424e-12 -3.9297

35.3509 32.1582 -4.09273e-12
32.1582 74.1331 5.41197e-12
-4.09273e-12 5.41197e-12 -5.44152

-45.2829 -11.877 -5.04915e-12
-11.877 13.9222 -4.358e-13
-5.04915e-12 -4.358e-13 -15.3261

-14.4197 -13.821 2.82322e-12
-13.821 43.3818 1.04923e-12
2.82322e-12 1.04923e-12 -5.67205

-19.2439 -23.9884 -1.67807e-12
-23.9884 -19.8306 6.23353e-13
-1.67807e-12 6.23353e-13 -64.255

2.43867 23.7702 -3.44199e-12
23.7702 36.0064 1.03266e-12
-3.44199e-12 1.03266e-12 -3.71048

-15.1823 -32.7262 -3.73864e-12
-32.7262 -21.1187 -1.95458e-12
-3.73864e-12 -1.95458e-12 -14.3126

-14.5643 -11.9628 1.99544e-12
-11.9628 45.5299 5.89158e-12
1.99544e-12 5.89158e-12 -5.73825

7.83564 -19.1169 -5.87915e-12
-19.1169 -43.1217 2.67667e-12
-5.87915e-12 2.67667e-12 -12.6317

6.546 23.8765 -2.09729e-12
23.8765 35.171 8.98837e-13
-2.09729e-12 8.98837e-13 -3.44146

23.1732 -4.97544 1.79945e-12
-4.97544 -30.6755 1.57581e-12
1.79945e-12 1.57581e-12 -5.36363

36.9697 -30.3422 -7.86334e-13
-30.3422 122.625 1.24345e-12
-7.86334e-13 1.24345e-12 -6.242

-26.8685 21.0137 3.23711e-12
21.0137 8.43432 4.93176e-12
3.23711e-12 4.93176e-12 -7.12925

40.3379 -19.3228 2.49164e-12
-19.3228 -11.3716 9.72555e-13
2.49164e-12 9.72555e-13 -5.72527

6.52876 -21.4459 2.80072e-13
-21.4459 -45.5583 -2.92566e-12
2.80072e-13 -2.92566e-12 -24.972

20.7051 31.7533 8.76336e-14
31.7533 9.55777 -6.38363e-12
8.76336e-14 -6.38363e-12 -5.80531

13.919 -29.9712 -3.4414e-12
-29.9712 -7.60512 -4.0347e-12
-3.4414e-12 -4.0347e-12 -5.94353

6.75481 20.8851 -1.89656e-12
20.8851 -27.7917 -1.70086e-12
-1.89656e-12 -1.70086e-12 -11.1084

-38.274 -28.0758 4.02967e-12
-28.0758 -14.0377 -1.84475e-12
4.02967e-12 -1.84475e-12 -11.0604

8.64666 -26.2246 -1.53063e-12
-26.2246 31.1706 5.39539e-12
-1.53063e-12 5.39539e-12 -3.6345

15.3315 28.9804 -5.92711e-12
28.9804 19.1538 5.43328e-12
-5.92711e-12 5.43328e-12 -3.88226

28.6401 26.1908 -6.11185e-12
26.1908 -5.63263 -3.25843e-12
-6.11185e-12 -3.25843e-12 -4.80123

7.91488 -14.6098 -6.21755e-12
-14.6098 -36.8772 9.33179e-13
-6.21755e-12 9.33179e-13 -13.9909

-6.84073 -16.6172 1.41339e-12
-16.6172 41.3404 3.19271e-12
1.41339e-12 3.19271e-12 -3.95869

17.4406 -17.5681 1.79353e-12
-17.5681 -30.9985 -3.77357e-12
1.79353e-12 -3.77357e-12 -7.10452

19.8419 16.9082 2.4869e-13
16.9082 -31.6635 -2.92892e-12
2.4869e-13 -2.92892e-12 -7.33372

-33.6793 -9.387 2.60532e-14
-9.387 8.75595 -2.72967e-13
2.60532e-14 -2.72967e-13 -23.993

43.4309 -13.4297 1.15937e-12
-13.4297 -8.36803 2.08278e-13
1.15937e-12 2.08278e-13 -3.80344

-19.3775 0.593992 -4.54259e-12
0.593992 43.1448 -7.1528e-13
-4.54259e-12 -7.1528e-13 -4.77469

28.0557 18.5547 -3.15777e-12
18.5547 -18.1981 -8.565e-13
-3.15777e-12 -8.565e-13 -4.74892

25.5282 27.6034 -1.1724e-13
27.6034 -3.77497 -3.24126e-12
-1.1724e-13 -3.24126e-12 -4.77038

-6.71453 -15.6857 -9.92095e-13
-15.6857 43.7979 4.11049e-12
-9.92095e-13 4.11049e-12 -3.84724

-19.9056 -1.2023 -8.5428e-13
-1.2023 42.1274 -1.88886e-12
-8.5428e-13 -1.88886e-12 -4.68625

-5.47319 29.1343 -1.96583e-13
29.1343 -23.6462 -2.02209e-13
-1.96583e-13 -2.02209e-13 -16.7967

-37.2731 -10.9219 3.18516e-12
-10.9219 21.68 2.93395e-12
3.18516e-12 2.93395e-12 -7.82931

27.1432 -26.7147 1.33523e-12
-26.7147 -5.53011 -2.63256e-12
1.33523e-12 -2.63256e-12 -4.94343

40.7186 21.3321 -2.25716e-12
21.3321 -8.36933 6.0704e-12
-2.25716e-12 6.0704e-12 -5.46679

12.378 23.6651 5.12479e-12
23.6651 -27.1265 -8.10907e-13
5.12479e-12 -8.10907e-13 -8.66633

-37.7959 5.47064 3.42852e-12
5.47064 23.3113 -3.05829e-12
3.42852e-12 -3.05829e-12 -8.59678

18.5931 29.0649 -3.01152e-12
29.0649 17.3778 -1.57622e-12
-3.01152e-12 -1.57622e-12 -3.94635

-9.98923 22.9638 2.14998e-12
22.9638 -14.9126 4.17784e-12
2.14998e-12 4.17784e-12 -24.0262

68.3152 -59.6907 -1.84031e-12
-59.6907 36.3345 7.22622e-12
-1.84031e-12 7.22622e-12 -23.0108

17.531 -25.0473 -1.03384e-12
-25.0473 -17.9914 -3.86032e-12
-1.03384e-12 -3.86032e-12 -6.41692

10.0586 7.06976 1.80804e-12
7.06976 82.5492 -1.7953e-12
1.80804e-12 -1.7953e-12 -7.16496

11.9205 -28.8887 -1.11496e-12
-28.8887 -3.8811 2.95467e-13
-1.11496e-12 2.95467e-13 -5.16501

-66.9451 -52.7006 5.92119e-15
-52.7006 143.248 2.68111e-12
5.92119e-15 2.68111e-12 -49.6697

-68.3883 51.4513 -2.65506e-12
51.4513 142.535 -4.59011e-12
-2.65506e-12 -4.59011e-12 -49.8588

19.5685 117.153 -3.77061e-12
117.153 64.1275 1.7953e-12
-3.77061e-12 1.7953e-12 -48.3604

20.5274 -117.096 2.75691e-12
-117.096 61.0244 -1.36898e-12
2.75691e-12 -1.36898e-12 -48.7251

157.741 -1.36335 9.00021e-14
-1.36335 -79.1872 3.19721e-14
9.00021e-14 3.19721e-14 -48.912

110.324 -91.1248 -3.68061e-12
-91.1248 -36.6905 3.64272e-12
-3.68061e-12 3.64272e-12 -50.3066

110.377 91.6527 6.12014e-12
91.6527 -36.5007 2.80428e-12
6.12014e-12 2.80428e-12 -50.1794

7.84718 14.3301 6.08343e-12
14.3301 -42.6813 1.40421e-12
6.08343e-12 1.40421e-12 -15.0788

-11.7911 25.5367 2.95112e-12
25.5367 -27.4046 -1.60183e-12
2.95112e-12 -1.60183e-12 -35.1386

12.4381 6.60593 5.875e-12
6.60593 -40.5329 -8.02469e-13
5.875e-12 -8.02469e-13 -8.25172

26.2547 21.7842 2.08426e-13
21.7842 -19.5277 -2.62723e-12
2.08426e-13 -2.62723e-12 -5.85007

-21.2291 17.7441 1.45143e-12
17.7441 29.8682 -4.43083e-12
1.45143e-12 -4.43083e-12 -6.16153

22.5303 28.8979 -1.8557e-12
28.8979 -0.77497 -3.39935e-12
-1.8557e-12 -3.39935e-12 -4.73001

4.05576 -29.6631 -3.27323e-12
-29.6631 -17.4659 -1.63395e-12
-3.27323e-12 -1.63395e-12 -8.50379

25.9952 28.0273 -5.76013e-12
28.0273 -2.30113 -5.32907e-12
-5.76013e-12 -5.32907e-12 -4.73041

-19.3461 -2.84117 -1.88323e-12
-2.84117 43.0709 -1.12976e-12
-1.88323e-12 -1.12976e-12 -4.76923

-13.4118 -26.0975 1.77932e-13
-26.0975 -25.8383 6.07514e-13
1.77932e-13 6.07514e-13 -35.5217

-19.8412 -4.86227 1.08358e-12
-4.86227 41.7759 -3.95062e-12
1.08358e-12 -3.95062e-12 -4.74309

-1.82676 23.016 -5.02117e-13
23.016 -24.377 1.78479e-12
-5.02117e-13 1.78479e-12 -16.1498

44.982 26.8701 -1.01371e-12
26.8701 8.1118 5.02176e-12
-1.01371e-12 5.02176e-12 -5.3685

-52.5092 -13.216 1.02821e-12
-13.216 0.150482 -9.55384e-13
1.02821e-12 -9.55384e-13 -20.6174

20.2804 13.7277 -3.77594e-12
13.7277 -31.1406 9.89135e-13
-3.77594e-12 9.89135e-13 -7.04222

13.7008 -29.9872 -3.9968e-13
-29.9872 -6.69086 3.04675e-12
-3.9968e-13 3.04675e-12 -5.83446

29.6306 -24.7131 4.74406e-12
-24.7131 -7.87304 -4.08888e-12
4.74406e-12 -4.08888e-12 -4.82438

5.76498 -16.0745 -1.83883e-12
-16.0745 -32.3342 -1.85215e-12
-1.83883e-12 -1.85215e-12 -22.2557

12.6277 27.9286 -3.26376e-12
27.9286 -13.6381 1.35891e-12
-3.26376e-12 1.35891e-12 -6.4189

23.309 23.9771 -5.18104e-13
23.9771 -17.9425 -2.45818e-12
-5.18104e-13 -2.45818e-12 -5.9616

-31.0761 -2.79295 -1.63528e-12
-2.79295 30.1316 7.41333e-13
-1.63528e-12 7.41333e-13 -6.39777

-28.6284 5.87329 1.37281e-13
5.87329 33.3212 7.79229e-13
1.37281e-13 7.79229e-13 -6.05856

34.5483 2.64666 3.58646e-12
2.64666 -26.1824 -7.74566e-13
3.58646e-12 -7.74566e-13 -6.14128

50.6507 -7.28951 2.61006e-12
-7.28951 -14.0809 7.84365e-12
2.61006e-12 7.84365e-12 -6.77799

11.0413 30.4842 -1.01844e-12
30.4842 -4.78705 9.6397e-13
-1.01844e-12 9.6397e-13 -5.9654

17.4676 -26.155 -4.9513e-12
-26.155 -17.4544 6.25811e-12
-4.9513e-12 6.25811e-12 -6.35103

-0.0845352 -21.2543 -1.90544e-12
-21.2543 -27.9556 -1.19904e-12
-1.90544e-12 -1.19904e-12 -17.1664

4.93935 -31.6331 4.72925e-12
-31.6331 4.86178 6.52515e-13
4.72925e-12 6.52515e-13 -5.93423

-8.22648 -27.785 2.73322e-12
-27.785 18.5789 -1.01608e-12
2.73322e-12 -1.01608e-12 -6.12884

-1.64978 29.8866 -7.04918e-12
29.8866 10.4476 2.71013e-12
-7.04918e-12 2.71013e-12 -5.79927

-26.0156 -9.57778 -5.87941e-12
-9.57778 32.9696 1.32871e-12
-5.87941e-12 1.32871e-12 -5.78622

-31.322 -1.54473 -4.09746e-12
-1.54473 31.6507 -2.99731e-12
-4.09746e-12 -2.99731e-12 -6.22259

-38.9146 5.74796 -3.39956e-12
5.74796 23.9465 -3.12816e-12
-3.39956e-12 -3.12816e-12 -9.18218

-17.2172 -21.0887 -8.04394e-13
-21.0887 26.5709 -5.82053e-13
-8.04394e-13 -5.82053e-13 -5.77093

13.072 24.1109 2.36078e-12
24.1109 -28.1006 1.17388e-12
2.36078e-12 1.17388e-12 -9.20406

21.5549 -9.58962 4.84945e-13
-9.58962 -31.7055 1.42597e-12
4.84945e-13 1.42597e-12 -6.59704

-27.1525 7.46518 1.09768e-12
7.46518 34.3344 5.3948e-12
1.09768e-12 5.3948e-12 -5.87295

-35.2349 -9.70105 -4.97434e-12
-9.70105 22.3135 -2.77112e-13
-4.97434e-12 -2.77112e-13 -8.18259

-29.1548 -16.3305 5.43536e-12
-16.3305 19.3467 -1.09187e-12
5.43536e-12 -1.09187e-12 -6.66072

36.9675 -8.23908 -5.40131e-12
-8.23908 -20.2358 -2.10913e-12
-5.40131e-12 -2.10913e-12 -5.10046

-14.8095 -32.3468 1.77428e-12
-32.3468 -21.6274 2.71042e-12
1.77428e-12 2.71042e-12 -12.9925

-22.8233 9.32069 1.88694e-12
9.32069 33.3232 3.54738e-12
1.88694e-12 3.54738e-12 -4.78781

-0.750895 -18.2126 3.10566e-13
-18.2126 -35.1577 8.51467e-13
3.10566e-13 8.51467e-13 -33.2782

4.93238 24.8223 -8.82257e-13
24.8223 75.3057 2.68585e-12
-8.82257e-13 2.68585e-12 -14.3187

-14.1417 -26.6261 6.82713e-13
-26.6261 -16.3497 2.41984e-12
6.82713e-13 2.41984e-12 -14.6403

-6.35702 -30.2028 7.69755e-13
-30.2028 -23.6019 -2.64648e-12
7.69755e-13 -2.64648e-12 -17.0875

-31.2698 -0.70132 3.67958e-12
-0.70132 31.5003 -3.24777e-12
3.67958e-12 -3.24777e-12 -6.34746

28.4875 -16.6224 -2.89724e-12
-16.6224 -18.0562 -4.40833e-13
-2.89724e-12 -4.40833e-13 -4.43702

-37.8043 12.8416 2.45109e-12
12.8416 11.1651 -3.04941e-13
2.45109e-12 -3.04941e-13 -10.9883

-8.8611 -3.18046 -5.42677e-12
-3.18046 111.05 -1.84031e-12
-5.42677e-12 -1.84031e-12 -22.6717

-31.6017 14.2735 -1.59458e-12
14.2735 21.3504 5.3942e-12
-1.59458e-12 5.3942e-12 -7.12343

12.4221 -29.4888 -5.36874e-12
-29.4888 -2.51918 8.49691e-13
-5.36874e-12 8.49691e-13 -4.92723

33.6317 25.1054 1.83853e-12
25.1054 124.028 4.63984e-12
1.83853e-12 4.63984e-12 -6.21433

-13.5028 26.0983 -9.7374e-13
26.0983 -19.0974 2.79332e-13
-9.7374e-13 2.79332e-13 -58.8969

-9.55284 -27.8076 1.44446e-11
-27.8076 -22.807 -1.72191e-11
1.44446e-11 -1.72191e-11 -59.5473

-2.86548 -30.4188 1.20733e-12
-30.4188 -7.32075 2.79895e-12
1.20733e-12 2.79895e-12 -7.28639

3.86064 -31.1598 2.87415e-12
-31.1598 5.63596 1.65201e-13
2.87415e-12 1.65201e-13 -6.06145

25.1519 20.8273 -2.69888e-12
20.8273 -17.0337 -6.15093e-12
-2.69888e-12 -6.15093e-12 -4.97592

31.805 15.0059 4.26444e-12
15.0059 -23.3001 1.06996e-12
4.26444e-12 1.06996e-12 -5.95374

-9.48896 3.0837 -2.91315e-12
3.0837 -9.8307 -5.49264e-13
-2.91315e-12 -5.49264e-13 -80.94

-5.54915 -7.00035 1.09749e-12
-7.00035 -14.042 1.05193e-11
1.09749e-12 1.05193e-11 -80.2927

11.7485 4.82431 2.05939e-12
4.82431 -43.205 6.52426e-12
2.05939e-12 6.52426e-12 -7.82666

-35.0561 6.73089 5.56666e-13
6.73089 24.3753 1.74379e-12
5.56666e-13 1.74379e-12 -7.56319

-36.1097 6.73631 4.46895e-12
6.73631 24.4326 1.32753e-12
4.46895e-12 1.32753e-12 -8.30816

74.5857 58.6336 7.14806e-12
58.6336 34.1723 -1.76215e-12
7.14806e-12 -1.76215e-12 -21.8731

-6.91928 -28.1994 2.08011e-12
-28.1994 16.8754 3.06007e-12
2.08011e-12 3.06007e-12 -6.11573

8.17207 17.9745 6.4313e-12
17.9745 -44.8757 2.36759e-12
6.4313e-12 2.36759e-12 -12.8963

32.7029 9.53966 1.29556e-12
9.53966 -19.0794 -1.6116e-12
1.29556e-12 -1.6116e-12 -4.07349

3.38818 -26.723 1.67866e-12
-26.723 13.4841 -3.70785e-12
1.67866e-12 -3.70785e-12 -3.82613

26.2375 -20.2374 -2.90908e-12
-20.2374 -20.3223 -2.53812e-12
-2.90908e-12 -2.53812e-12 -5.86232

65.3896 60.2315 -3.56456e-12
60.2315 34.289 3.61666e-12
-3.56456e-12 3.61666e-12 -23.8679

-13.2424 31.069 -2.39808e-14
31.069 -16.8809 -2.83684e-12
-2.39808e-14 -2.83684e-12 -12.7854

-18.6035 -19.7858 -6.03961e-13
-19.7858 28.4147 7.25346e-13
-6.03961e-13 7.25346e-13 -5.96858

11.1746 28.8574 -4.3876e-13
28.8574 -13.3227 4.39293e-12
-4.3876e-13 4.39293e-12 -6.43532

-31.8684 -4.14475 2.40682e-12
-4.14475 30.1479 1.55254e-12
2.40682e-12 1.55254e-12 -6.35703

-14.5957 19.6089 -1.34648e-12
19.6089 27.1852 3.19152e-13
-1.34648e-12 3.19152e-13 -4.41782

7.47953 30.5184 6.76437e-12
30.5184 -1.66991 4.87492e-12
6.76437e-12 4.87492e-12 -5.65961

-9.3443 -22.4729 -1.56556e-12
-22.4729 23.1492 9.59825e-13
-1.56556e-12 9.59825e-13 -4.17458

4.59092 -27.3522 3.38396e-12
-27.3522 11.4492 -1.60938e-12
3.38396e-12 -1.60938e-12 -3.93764

24.2717 11.2568 1.55698e-12
11.2568 102.078 6.28593e-12
1.55698e-12 6.28593e-12 -12.4051

37.4664 -33.4558 8.1144e-12
-33.4558 69.285 5.80277e-13
8.1144e-12 5.80277e-13 -5.7029

-25.3344 -11.6904 -1.55106e-12
-11.6904 31.3681 -1.893e-12
-1.55106e-12 -1.893e-12 -5.64751

16.0967 26.4843 6.35936e-13
26.4843 -15.5015 2.74329e-12
6.35936e-13 2.74329e-12 -6.21664

4.95613 29.4776 7.24043e-12
29.4776 1.63722 1.60168e-12
7.24043e-12 1.60168e-12 -4.9891

-9.85408 -21.4336 2.45167e-12
-21.4336 25.1209 -2.63789e-12
2.45167e-12 -2.63789e-12 -4.03237

-21.634 -11.7822 2.45433e-12
-11.7822 32.082 8.68638e-13
2.45433e-12 8.68638e-13 -4.63635

10.4632 28.4092 -2.66098e-12
28.4092 -0.156135 -4.1922e-13
-2.66098e-12 -4.1922e-13 -4.67205

-21.8461 -13.8776 -3.28389e-12
-13.8776 29.4673 -3.7487e-12
-3.28389e-12 -3.7487e-12 -4.84629

6.95883 27.8546 9.6397e-13
27.8546 73.0842 -7.09832e-12
9.6397e-13 -7.09832e-12 -14.3219

-45.8315 -4.04134 -7.12259e-13
-4.04134 14.048 6.63765e-13
-7.12259e-13 6.63765e-13 -19.9649

0.877586 31.0272 -3.96128e-12
31.0272 7.52067 -3.31587e-14
-3.96128e-12 -3.31587e-14 -6.08819

9.71931 14.9011 -4.80386e-12
14.9011 -36.4287 2.11179e-12
-4.80386e-12 2.11179e-12 -10.9848

9.9289 -15.9274 -5.05077e-12
-15.9274 -39.4102 -6.94259e-13
-5.05077e-12 -6.94259e-13 -13.0687

85.6124 -24.2042 1.80952e-12
-24.2042 7.63601 -1.26121e-12
1.80952e-12 -1.26121e-12 -12.9578

-23.2064 -21.267 8.5798e-13
-21.267 10.5139 9.10679e-13
8.5798e-13 9.10679e-13 -6.16444

-16.6004 26.698 -2.54315e-13
26.698 1.77878 1.98478e-12
-2.54315e-13 1.98478e-12 -6.58688

-26.2015 -21.7279 5.5896e-13
-21.7279 -5.3646 5.04663e-12
5.5896e-13 5.04663e-12 -23.8673

-41.5973 14.1069 -3.10537e-12
14.1069 -3.56018 4.9661e-12
-3.10537e-12 4.9661e-12 -64.1293

-0.893346 9.44535 -6.92305e-12
9.44535 -44.2601 1.95222e-12
-6.92305e-12 1.95222e-12 -64.2308

-20.3843 32.7056 -4.12825e-12
32.7056 -23.2023 1.26861e-13
-4.12825e-12 1.26861e-13 -24.3297

-11.4099 26 -3.45205e-12
26 22.6041 -6.64357e-13
-3.45205e-12 -6.64357e-13 -5.92481

16.0388 26.6613 2.63256e-12
26.6613 -17.2866 9.05942e-13
2.63256e-12 9.05942e-13 -6.5491

30.4281 45.1854 -1.27779e-12
45.1854 47.5544 -7.12793e-12
-1.27779e-12 -7.12793e-12 -15.1948

-44.8892 -11.3439 -2.6071e-12
-11.3439 -1.8081 3.01981e-12
-2.6071e-12 3.01981e-12 -61.6854

-8.29819 -3.43304 -3.16447e-12
-3.43304 -12.7555 1.16384e-11
-3.16447e-12 1.16384e-11 -77.23

-14.6918 -0.210127 -4.6918e-12
-0.210127 -6.41858 4.87166e-13
-4.6918e-12 4.87166e-13 -77.3743

27.6647 -53.802 -2.20387e-12
-53.802 71.1479 1.02318e-12
-2.20387e-12 1.02318e-12 -24.3897

-11.6915 -11.6001 -5.06336e-12
-11.6001 -16.2044 -6.35107e-12
-5.06336e-12 -6.35107e-12 -37.4318

-32.6105 8.81314 7.58726e-13
8.81314 -9.41971 -3.23297e-13
7.58726e-13 -3.23297e-13 -49.5425

18.2563 -26.1993 -7.07227e-12
-26.1993 -19.5458 6.49851e-13
-7.07227e-12 6.49851e-13 -6.50585

-39.4298 1.01115 -2.95293e-12
1.01115 11.9802 -1.79175e-12
-2.95293e-12 -1.79175e-12 -19.7219

-30.2019 -20.2677 5.81017e-13
-20.2677 6.30519 -4.91932e-12
5.81017e-13 -4.91932e-12 -7.21533

10.5366 6.25531 8.37256e-13
6.25531 -52.3898 1.34396e-12
8.37256e-13 1.34396e-12 -9.63909

-49.8126 15.5963 -1.57035e-12
15.5963 10.1655 -1.52471e-12
-1.57035e-12 -1.52471e-12 -13.5307

-40.2831 7.19166 -6.88153e-13
7.19166 16.5415 -5.70507e-12
-6.88153e-13 -5.70507e-12 -13.7739

16.405 20.3926 -2.2915e-13
20.3926 -25.8402 1.90692e-12
-2.2915e-13 1.90692e-12 -7.607

-9.10012 -3.1139 -5.27023e-12
-3.1139 108.393 6.44225e-12
-5.27023e-12 6.44225e-12 -23.102

-3.31976 -27.6234 4.06786e-12
-27.6234 -3.62925 1.79412e-12
4.06786e-12 1.79412e-12 -5.82927

-7.33481 -26.1161 2.17308e-12
-26.1161 -14.0816 -2.8478e-12
2.17308e-12 -2.8478e-12 -9.81019

-14.1981 -31.4837 -4.22418e-12
-31.4837 -21.7779 4.46517e-12
-4.22418e-12 4.46517e-12 -12.7553

90.7266 32.7492 -6.41383e-12
32.7492 20.9062 -2.74536e-12
-6.41383e-12 -2.74536e-12 -16.506

-23.1177 -20.1166 -2.66128e-12
-20.1166 -17.3849 5.24551e-12
-2.66128e-12 5.24551e-12 -44.4286

72.6296 54.3217 3.6285e-12
54.3217 91.6396 5.44986e-12
3.6285e-12 5.44986e-12 -6.14254

-36.2148 -21.4396 1.90322e-12
-21.4396 -6.79682 -2.9079e-12
1.90322e-12 -2.9079e-12 -13.0426

15.0339 14.6503 4.08088e-12
14.6503 -37.7513 -2.71679e-12
4.08088e-12 -2.71679e-12 -8.17816

44.5723 -14.5723 5.17512e-12
-14.5723 -8.27123 2.6669e-12
5.17512e-12 2.6669e-12 -4.41784

-21.2303 24.0465 1.59428e-12
24.0465 4.95565 2.58519e-12
1.59428e-12 2.58519e-12 -5.97564

17.3732 20.4279 1.25056e-12
20.4279 -26.7918 3.57462e-12
1.25056e-12 3.57462e-12 -6.9508

-51.1401 11.4007 2.23725e-12
11.4007 7.71057 -2.78059e-12
2.23725e-12 -2.78059e-12 -29.9945

-7.2867 -31.58 -1.63958e-12
-31.58 -12.8264 -1.23605e-12
-1.63958e-12 -1.23605e-12 -8.11842

2.79687 19.8124 -5.07772e-12
19.8124 -46.0335 9.8795e-13
-5.07772e-12 9.8795e-13 -29.9864

-24.6704 -18.4433 -3.76321e-12
-18.4433 17.8362 -8.76928e-13
-3.76321e-12 -8.76928e-13 -5.47933

-42.3402 4.2831 1.81531e-12
4.2831 17.8694 2.11386e-13
1.81531e-12 2.11386e-13 -12.7278

-4.09805 9.92667 5.31071e-12
9.92667 -40.2763 2.81256e-13
5.31071e-12 2.81256e-13 -47.5499

-2.68826 -8.51327 -6.70693e-12
-8.51327 -38.3075 -1.95236e-12
-6.70693e-12 -1.95236e-12 -47.4056

81.7215 18.5121 -1.81188e-12
18.5121 1.70043 -1.76155e-12
-1.81188e-12 -1.76155e-12 -14.453

3.89494 7.96494 4.70794e-12
7.96494 -45.1827 -1.57074e-12
4.70794e-12 -1.57074e-12 -11.0177

35.8708 7.74035 -8.3548e-13
7.74035 184.57 -8.14756e-13
-8.3548e-13 -8.14756e-13 -9.7581

40.1443 -11.385 -5.29247e-12
-11.385 190.368 -3.83693e-13
-5.29247e-12 -3.83693e-13 -7.38995

53.7636 56.4063 3.62377e-12
56.4063 159.252 -3.33955e-12
3.62377e-12 -3.33955e-12 -11.5008

1.70916 -28.9503 2.74684e-12
-28.9503 -24.6906 -2.37973e-12
2.74684e-12 -2.37973e-12 -11.9624

16.0485 -49.1897 -3.89614e-13
-49.1897 99.4172 5.40723e-12
-3.89614e-13 5.40723e-12 -21.6895

54.5114 -55.9488 -6.27646e-12
-55.9488 149.97 1.90899e-12
-6.27646e-12 1.90899e-12 -13.6656

-2.16521 26.2197 -3.60304e-12
26.2197 17.5727 1.10726e-13
-3.60304e-12 1.10726e-13 -3.99514

134.936 73.8429 -3.53377e-12
73.8429 85.023 1.7953e-12
-3.53377e-12 1.7953e-12 -10.1599

-18.7195 13.0474 8.08005e-12
13.0474 -3.90035 2.37973e-12
8.08005e-12 2.37973e-12 -26.77

3.74116 0.039192 -2.5994e-13
0.039192 -26.1888 2.0961e-13
-2.5994e-13 2.0961e-13 -26.7732

144.094 -73.1284 3.5385e-12
-73.1284 85.3505 5.43091e-12
3.5385e-12 5.43091e-12 -8.1972

-21.3921 -23.4236 -1.51375e-12
-23.4236 12.2482 4.06194e-13
-1.51375e-12 4.06194e-13 -6.49028

89.3446 34.7285 -4.42194e-12
34.7285 41.3892 4.39944e-12
-4.42194e-12 4.39944e-12 -11.5482

72.1852 63.49 1.4424e-12
63.49 149.69 -9.00021e-13
1.4424e-12 -9.00021e-13 -9.67451

26.1641 21.6298 4.52024e-12
21.6298 100.131 3.32534e-12
4.52024e-12 3.32534e-12 -13.0317

73.872 -65.9188 2.71901e-12
-65.9188 151.141 4.51905e-12
2.71901e-12 4.51905e-12 -9.40307

25.7685 -12.3809 -8.32519e-13
-12.3809 105.01 1.88531e-12
-8.32519e-13 1.88531e-12 -12.4287

-28.6639 6.84194 1.72136e-12
6.84194 3.1067 2.05909e-12
1.72136e-12 2.05909e-12 -37.8544

37.7422 -45.9738 2.80428e-12
-45.9738 49.6684 4.39352e-12
2.80428e-12 4.39352e-12 -15.5323

14.4433 47.531 4.66234e-12
47.531 94.8777 9.26311e-12
4.66234e-12 9.26311e-12 -22.1926

173.336 37.9108 -4.05009e-12
37.9108 48.0401 -5.319e-12
-4.05009e-12 -5.319e-12 -9.52314

7.02103 -29.2854 -1.0522e-12
-29.2854 -14.358 -2.46647e-12
-1.0522e-12 -2.46647e-12 -7.15539

-38.4171 12.8967 4.58056e-12
12.8967 6.43528 -7.25346e-14
4.58056e-12 -7.25346e-14 -15.2903

88.5028 -38.1117 -2.56743e-12
-38.1117 34.1622 -4.39115e-12
-2.56743e-12 -4.39115e-12 -14.0999

6.04194 -28.8019 -1.65675e-12
-28.8019 -16.1713 -1.3447e-12
-1.65675e-12 -1.3447e-12 -8.02924

169.202 -36.3427 1.87583e-12
-36.3427 34.9277 -4.30234e-12
1.87583e-12 -4.30234e-12 -13.2909

-5.72489 -28.3171 -2.14347e-13
-28.3171 -14.4724 1.46017e-12
-2.14347e-13 1.46017e-12 -9.30884

-17.7898 -25.2945 1.96435e-12
-25.2945 12.0804 -3.17613e-12
1.96435e-12 -3.17613e-12 -5.93345

118.873 69.4594 3.60956e-12
69.4594 96.2166 -1.80241e-12
3.60956e-12 -1.80241e-12 -11.4011

29.4123 -22.9323 -1.27069e-12
-22.9323 97.7941 9.6397e-13
-1.27069e-12 9.6397e-13 -14.3403

117.956 -71.6914 -1.77162e-12
-71.6914 93.6781 -5.41197e-12
-1.77162e-12 -5.41197e-12 -12.4171

22.264 50.7364 1.85215e-12
50.7364 73.7766 -1.77162e-12
1.85215e-12 -1.77162e-12 -24.7777

-1.53592 -30.2117 -6.38896e-13
-30.2117 -6.55205 -9.81437e-13
-6.38896e-13 -9.81437e-13 -6.99713

-7.0453 -14.6403 -6.24685e-13
-14.6403 -21.9193 -2.64855e-12
-6.24685e-13 -2.64855e-12 -32.6149

-11.8921 11.0928 -1.22261e-11
11.0928 -16.4312 1.07736e-12
-1.22261e-11 1.07736e-12 -77.7964

-26.1695 -5.15997 5.39864e-12
-5.15997 -6.38739 1.5502e-12
5.39864e-12 1.5502e-12 -77.6302

-38.9406 13.0836 -1.2235e-12
13.0836 13.7444 1.81721e-12
-1.2235e-12 1.81721e-12 -10.2383

-14.4806 -10.6671 1.81447e-11
-10.6671 -17.3187 -7.55396e-12
1.81447e-11 -7.55396e-12 -78.7592

-25.9033 4.09169 -8.05726e-13
4.09169 -5.91389 -2.42258e-12
-8.05726e-13 -2.42258e-12 -78.9014

-3.63394 7.43431 -1.04894e-11
7.43431 -27.8609 -7.71916e-12
-1.04894e-11 -7.71916e-12 -77.9886

-43.9757 -12.1154 -9.14961e-12
-12.1154 2.91635 7.6262e-12
-9.14961e-12 7.6262e-12 -68.1598

11.9737 -30.4695 3.64272e-12
-30.4695 76.1618 -7.69755e-13
3.64272e-12 -7.69755e-13 -14.7009

0.521982 -12.9721 -4.43142e-12
-12.9721 -39.991 -9.45022e-13
-4.43142e-12 -9.45022e-13 -45.278

-16.3488 -34.4179 3.33866e-12
-34.4179 -22.0684 8.30447e-13
3.33866e-12 8.30447e-13 -23.5902

-2.42051 -18.1768 4.31951e-12
-18.1768 -29.8954 4.27954e-13
4.31951e-12 4.27954e-13 -33.6272

12.7384 15.4591 -7.40149e-13
15.4591 -37.7157 5.9653e-12
-7.40149e-13 5.9653e-12 -9.62467

-46.9091 9.86439 -8.27668e-12
9.86439 8.87779 1.2457e-11
-8.27668e-12 1.2457e-11 -70.1556

3.46276 19.2278 1.43293e-13
19.2278 -41.4726 -4.66012e-12
1.43293e-13 -4.66012e-12 -70.2715

1.47245 11.3061 -3.2531e-12
11.3061 -23.9652 -4.18924e-13
-3.2531e-12 -4.18924e-13 -31.8683

109.39 -15.3391 -8.07413e-12
-15.3391 -12.5355 -4.31418e-12
-8.07413e-12 -4.31418e-12 -25.0373

-14.3198 24.9637 -5.74355e-14
24.9637 10.3863 3.32475e-12
-5.74355e-14 3.32475e-12 -5.80396

76.6058 -61.3538 -5.32907e-12
-61.3538 37.3646 -3.56692e-12
-5.32907e-12 -3.56692e-12 -22.3955

76.1131 -57.4565 3.6214e-12
-57.4565 99.2271 2.84928e-12
3.6214e-12 2.84928e-12 -5.55551

118.195 -36.5435 -7.21675e-12
-36.5435 40.6004 6.40791e-12
-7.21675e-12 6.40791e-12 -7.37865

-51.1151 -5.15898 1.98493e-12
-5.15898 3.34087 -7.49667e-12
1.98493e-12 -7.49667e-12 -60.6618

-50.479 2.89122 4.56094e-12
2.89122 3.13513 3.11499e-12
4.56094e-12 3.11499e-12 -60.1343

-11.9756 -24.4566 1.8936e-12
-24.4566 -35.004 -1.01652e-12
1.8936e-12 -1.01652e-12 -59.1685

-8.99203 -21.7609 -1.09248e-11
-21.7609 -37.8886 -7.72123e-13
-1.09248e-11 -7.72123e-13 -59.478

-14.7027 26.1363 -4.20493e-12
26.1363 -33.0283 2.11446e-12
-4.20493e-12 2.11446e-12 -60.753

-18.158 3.09968 1.38578e-11
3.09968 -13.1648 -4.16848e-12
1.38578e-11 -4.16848e-12 -75.4808

-9.9451 -20.5091 -2.41288e-12
-20.5091 -32.6513 1.07159e-12
-2.41288e-12 1.07159e-12 -56.7387

-26.6489 -18.5685 6.64032e-12
-18.5685 -14.196 -2.34727e-12
6.64032e-12 -2.34727e-12 -71.2744

-15.4794 2.43468 2.25553e-12
2.43468 -12.8528 -1.73593e-11
2.25553e-12 -1.73593e-11 -77.8754

-6.02759 -20.5266 4.70253e-12
-20.5266 -41.4878 -4.03529e-12
4.70253e-12 -4.03529e-12 -60.5091

-6.75688 20.9561 -4.24631e-12
20.9561 -40.144 -3.22646e-12
-4.24631e-12 -3.22646e-12 -60.0202

-14.3167 -3.45872 -9.83376e-12
-3.45872 -11.3903 2.05184e-12
-9.83376e-12 2.05184e-12 -76.8898

-11.2644 -3.11747 1.15481e-11
-3.11747 -17.6896 -6.28386e-12
1.15481e-11 -6.28386e-12 -74.0525

-24.2046 12.1098 4.65243e-12
12.1098 -13.4007 2.96415e-12
4.65243e-12 2.96415e-12 -69.9706

-22.0828 26.9299 1.59576e-12
26.9299 -26.2671 2.76567e-12
1.59576e-12 2.76567e-12 -57.5843

VECTORS fluid_flux_TPM float
-8.72056e-05 3.10232e-05 -1.73916e-20
3.55896e-06 6.88145e-06 -8.60381e-21
-1.27853e-05 -1.02239e-05 -2.97738e-21
-4.16992e-06 4.25334e-06 -6.87698e-21
2.27041e-05 -6.31229e-06 -8.1224e-21
2.75714e-06 -1.5901e-05 1.92658e-20
-8.57817e-05 -3.1088e-05 -1.81486e-20
-1.38901e-05 -1.04651e-05 2.24311e-21
2.21183e-05 9.45372e-07 9.93076e-21
1.13822e-05 -3.90748e-06 -3.80696e-20
5.45925e-05 1.24822e-05 -3.62646e-21
2.34649e-06 -1.71914e-05 2.50547e-20
1.36094e-05 1.1252e-05 2.19167e-20
2.66166e-06 1.37824e-05 -3.82904e-22
2.05778e-05 -2.94618e-06 -1.44409e-20
-1.63298e-05 -2.72857e-07 1.90998e-22
2.75309e-06 1.40966e-05 -4.22703e-21
1.01802e-05 -2.39151e-06 -2.13328e-20
9.89706e-06 1.722e-05 4.21671e-21
-1.48461e-05 1.88516e-06 4.26462e-21
-3.60063e-06 -2.13007e-05 1.22842e-21
3.41062e-05 5.94094e-05 2.59421e-20
1.56951e-05 1.63105e-06 -8.44314e-21
1.12256e-05 -1.12798e-05 5.35905e-21
-1.50761e-05 -3.33189e-06 3.72407e-21
-6.77127e-07 -1.11291e-05 -1.0153e-20
6.2895e-05 -4.90782e-06 -1.2005e-20
1.40639e-05 1.02473e-05 1.31458e-20
-2.51461e-05 -2.06399e-05 -1.86825e-20
4.91137e-05 -1.28122e-05 2.01817e-20
-1.658e-05 -6.03745e-06 6.03145e-21
5.53631e-06 -3.20326e-05 7.17985e-21
4.76483e-05 -4.80413e-05 -1.13917e-20
-4.92274e-06 -4.12427e-05 -9.44264e-21
-2.96697e-05 3.70008e-05 -1.89199e-20
-3.82427e-05 -1.63931e-05 -9.81348e-22
3.26986e-05 4.32102e-05 6.97765e-21
-4.47353e-05 -8.7248e-06 -8.7175e-21
1.43726e-05 -1.10804e-05 -1.69314e-20
4.64643e-05 5.01091e-05 3.23628e-21
3.21255e-05 -1.40203e-05 -1.08181e-20
3.36359e-05 -4.23384e-05 9.82981e-21
-1.9894e-05 -5.03723e-05 3.49258e-22
-1.58959e-05 6.35598e-06 1.88911e-20
3.05217e-05 -2.93108e-05 -2.30217e-20
-3.03288e-05 1.09889e-05 -9.88983e-21
-4.04973e-06 -2.03682e-05 -7.26504e-21
7.88517e-06 2.02094e-05 -2.92005e-20
-1.63406e-05 5.92714e-06 -1.01575e-20
-1.78178e-05 2.87224e-05 -2.20977e-20
3.24049e-05 1.52891e-05 6.56654e-21
2.93618e-05 -1.0074e-05 9.3681e-21
-1.56646e-05 1.57587e-05 -1.81371e-20
-2.35386e-05 -2.0688e-05 -1.57473e-20
-2.11376e-05 -5.13189e-06 -3.25144e-21
-4.47867e-05 2.70731e-05 -2.07092e-21
-2.93688e-05 -3.80191e-05 1.2069e-20
6.36275e-06 -3.06247e-05 -1.03755e-20
-4.77029e-05 6.48222e-06 -5.52852e-21
6.07349e-06 1.36957e-05 -2.43954e-20
-5.57628e-06 -8.17267e-06 2.24136e-20
-6.58294e-06 -1.79419e-05 3.1761e-20
5.71388e-05 2.48574e-05 1.40144e-20
9.24201e-06 1.81426e-05 -6.43042e-21
1.22954e-05 -1.44437e-05 2.9977e-21
-1.64045e-06 -2.07507e-05 1.38298e-20
4.62069e-06 -8.80478e-06 9.19954e-21
-1.00897e-05 -5.56442e-06 1.39571e-20
-1.06018e-05 1.19283e-05 1.12383e-20
2.55798e-06 -4.09226e-06 -3.25196e-20
-1.50422e-05 -1.58419e-05 1.65543e-20
-2.13631e-05 5.1655e-06 1.08948e-20
-3.55655e-06 3.44785e-05 -6.18092e-21
-1.78704e-05 1.071e-05 2.73554e-20
-9.07008e-06 1.46135e-05 1.02812e-20
-6.03499e-05 7.69147e-06 -2.66509e-20
7.81743e-06 -2.16798e-05 -1.55189e-21
-1.88786e-05 -8.89936e-06 -1.21329e-20
1.93356e-06 1.16231e-05 -1.23188e-20
2.62989e-05 5.08925e-06 1.30018e-20
3.41664e-05 -2.89729e-05 -9.72308e-21
2.21447e-05 2.05546e-05 1.28187e-20
1.19075e-05 -2.8221e-06 3.20595e-21
-3.21513e-05 2.40652e-05 -4.23703e-21
3.79015e-05 4.84549e-06 1.1402e-20
-4.9805e-06 4.94108e-05 -8.36765e-23
-1.74099e-06 -1.68558e-05 -1.21145e-21
1.81225e-05 9.95391e-06 1.75865e-21
2.93152e-05 3.02835e-05 2.2375e-20
5.50206e-05 3.80106e-05 2.04894e-20
-5.33096e-06 3.07705e-05 7.00916e-21
5.91753e-05 -3.55098e-05 -1.40326e-20
-2.71228e-05 5.34078e-06 1.1978e-20
1.78379e-05 1.1001e-05 -2.29557e-21
-2.96389e-05 9.90256e-06 -4.80576e-21
1.66518e-05 2.85191e-05 -7.37266e-21
1.01681e-05 -4.43833e-05 3.41758e-21
1.91533e-06 1.16199e-05 -8.19729e-21
-1.47996e-05 -1.76188e-05 8.5935e-21
3.06966e-06 1.74734e-05 -7.78679e-21
2.64049e-05 5.25709e-06 -8.18695e-21
-1.54422e-05 3.32087e-05 1.01136e-21
4.05492e-05 -1.33322e-05 -4.10242e-21
-3.77279e-06 7.45448e-06 8.84482e-21
9.95211e-06 5.89888e-06 1.97375e-20
-2.28042e-06 -1.13237e-05 -4.32615e-21
3.22042e-06 -1.92505e-05 1.11455e-20
1.74681e-05 3.8918e-06 -2.42474e-20
-7.93664e-06 4.09696e-05 -4.37073e-21
-9.8049e-06 2.47905e-07 8.38281e-21
9.31782e-06 1.18849e-05 -3.21658e-21
-2.17721e-06 -4.17108e-05 9.62487e-21
4.20199e-05 1.28641e-05 -2.596e-21
4.42222e-06 -7.45265e-06 -1.62767e-21
-1.11443e-05 -3.55338e-06 1.13059e-20
-2.93234e-05 -1.2485e-05 7.82154e-22
1.58026e-05 4.11442e-05 -2.61637e-22
-4.34817e-05 -1.55726e-05 -1.01027e-20
1.60174e-05 -4.11207e-05 -1.80532e-20
-3.69955e-06 -3.19178e-05 4.79788e-21
2.18372e-05 6.52117e-07 2.0124e-21
-7.17096e-06 1.83953e-05 2.27701e-20
-1.61108e-06 3.96928e-06 -1.88608e-20
-3.6857e-06 -1.65375e-05 2.91969e-20
5.2296e-06 -8.30149e-06 -2.67212e-20
9.35879e-06 1.58624e-05 3.71012e-21
3.30987e-05 1.06516e-05 -7.1265e-21
8.61483e-06 -7.45749e-06 8.67629e-21
-8.27032e-06 -4.51566e-05 2.10579e-21
2.55502e-05 -1.88185e-05 1.45592e-20
4.97755e-06 2.77692e-05 -7.80891e-21
-2.81612e-06 -2.8414e-06 -9.12798e-21
-8.62562e-06 -8.32523e-06 4.22916e-21
-4.77632e-06 4.41244e-08 5.11436e-22
-2.28709e-05 2.85919e-05 3.8799e-21
1.87617e-05 -3.73722e-05 1.1838e-20
-2.6578e-05 4.27111e-05 -2.02302e-21
-1.63705e-05 9.53453e-06 -1.91964e-21
2.52777e-06 1.2198e-05 -1.1409e-20
-2.2985e-05 -3.49867e-05 1.66368e-20
1.3935e-05 3.34635e-05 -1.71713e-21
1.75064e-05 9.36849e-06 -6.35038e-21
2.28097e-05 -8.522e-06 2.44776e-21
-1.2531e-06 -1.12645e-05 2.97523e-20
-3.3909e-05 -3.15554e-05 -1.74699e-20
-2.75127e-06 1.13024e-05 1.16924e-20
1.72453e-05 1.01709e-05 -1.44276e-21
1.88859e-05 -8.82015e-06 -1.52228e-20
8.24252e-06 -1.43437e-05 4.1949e-21
2.4355e-05 -1.07945e-05 1.05386e-20
1.9008e-05 -8.99715e-06 3.00407e-21
4.64025e-06 2.05783e-07 4.14884e-20
2.57386e-05 2.02195e-05 1.83141e-21
-2.74141e-06 -1.70285e-05 -7.16923e-21
-1.04789e-05 -4.45663e-06 -5.19927e-21
1.12575e-06 -3.88976e-06 -2.56445e-21
-3.15481e-06 1.58457e-05 -3.1852e-20
-3.48805e-05 2.76787e-06 -1.15439e-20
-1.21205e-05 -3.32555e-05 6.09573e-21
-7.87844e-06 9.77821e-06 -1.83991e-21
1.35641e-05 1.6639e-05 -5.61915e-21
2.65663e-05 -1.87432e-05 8.74266e-21
-3.67892e-05 -2.0349e-05 -6.83939e-21
1.74016e-05 -2.75053e-05 -6.66643e-22
2.2802e-05 -2.72143e-05 1.87023e-21
-1.09434e-05 3.78462e-06 3.32843e-21
-1.98273e-05 -2.88378e-05 -2.37651e-21
-3.48769e-05 -5.79092e-06 -1.13099e-20
-3.85215e-06 -3.174e-05 3.50276e-21
1.54463e-05 -3.16965e-05 -7.02279e-21
-9.10541e-06 -2.61973e-05 2.14128e-20
4.58081e-06 3.14028e-05 5.73344e-21
-1.57511e-05 -2.85196e-05 -1.76533e-21
2.93856e-06 -1.62909e-05 1.14696e-20
-2.47373e-05 1.82583e-05 -1.14747e-21
-1.50295e-05 -1.21101e-05 7.06737e-21
-2.73506e-05 -5.17201e-06 -3.50792e-21
1.56668e-05 -9.18084e-06 -8.0187e-21
-4.30658e-06 2.39506e-05 1.06438e-20
1.22316e-05 -9.32374e-06 5.03618e-21
-2.95834e-05 -1.31631e-05 -4.08575e-21
-8.83095e-06 -7.45748e-06 -1.0079e-20
9.08136e-06 7.54024e-06 -7.73708e-21
2.14251e-05 2.86984e-05 -9.04765e-21
-1.75074e-05 -1.08084e-05 8.12511e-21
-3.25035e-05 -7.51011e-07 -2.50077e-20
-1.63354e-05 -5.01575e-06 -4.61811e-21
-4.57776e-06 -1.65819e-05 1.50245e-20
1.76833e-05 2.12375e-05 -1.40195e-20
-1.09565e-05 5.87428e-06 -1.8554e-20
6.35987e-07 -2.05537e-05 2.21795e-20
-4.19363e-05 1.085e-05 -4.2628e-21
2.48586e-05 2.02447e-05 8.57379e-21
3.79416e-06 3.27828e-05 -1.54247e-20
-2.43178e-06 3.7969e-06 -8.43768e-21
-9.05019e-06 2.51181e-07 7.26594e-21
4.35474e-06 7.75949e-06 -4.45169e-21
-1.1693e-05 3.4012e-06 -2.42835e-21
-2.07322e-06 -3.78464e-06 9.63247e-21
1.65965e-06 2.07583e-05 -2.7003e-21
4.47205e-06 4.49666e-07 -1.43294e-20
-1.95366e-05 4.75627e-06 3.71649e-21
-1.72971e-05 1.93565e-05 3.03166e-22
-3.1072e-06 1.15773e-05 1.75835e-21
-2.92147e-05 1.83929e-05 -8.55408e-21
-9.34266e-06 8.97865e-06 -3.81474e-21
1.73099e-05 -1.16129e-05 -7.48362e-21
3.66014e-05 -3.56442e-06 8.08297e-21
-2.11391e-05 1.12965e-05 2.28932e-20
2.23284e-06 4.4979e-06 -1.99949e-20
2.17737e-05 -4.34457e-06 -8.26698e-21
-1.72776e-05 1.03521e-05 -1.44034e-21
-9.87103e-06 5.53861e-06 -5.35874e-21
1.18305e-05 3.74241e-06 3.64012e-21
2.18782e-05 -1.34701e-05 1.88505e-20
-1.73787e-05 9.95535e-06 -7.75677e-21
-2.5035e-05 -5.30263e-06 -2.53006e-20
-1.67605e-05 -4.36214e-06 -7.08435e-21
9.87547e-06 6.23581e-09 2.07807e-20
1.01731e-05 1.95347e-07 -1.28454e-20
4.39043e-06 8.31654e-06 -2.74669e-22
4.82919e-06 -8.7971e-06 -5.0025e-21
-5.00997e-06 8.4192e-06 -1.13305e-20
-5.26628e-06 -8.65695e-06 1.43609e-20
9.91026e-06 -7.40746e-06 -1.632e-20
-2.03259e-05 3.23467e-06 1.97803e-20
-2.00584e-05 -3.28349e-06 -3.78107e-21
-1.28338e-05 1.58753e-05 -9.05281e-21
-1.29136e-05 -1.59296e-05 1.88756e-20
7.4857e-06 -1.98422e-05 -4.59024e-21
7.20547e-06 1.97623e-05 -1.7432e-20
1.55766e-06 2.5883e-05 -2.67398e-22
1.12396e-05 -3.1366e-06 -1.30639e-20
2.35972e-06 -3.86624e-06 3.64164e-20
-2.14097e-05 1.42157e-06 8.54287e-21
7.67659e-06 -1.95115e-05 -2.07447e-20
7.27288e-06 1.96601e-05 -2.43563e-21
4.76844e-06 -5.27103e-08 -2.38263e-20
8.96747e-06 2.44012e-05 2.70786e-21
-2.24212e-06 -4.01601e-06 1.81383e-20
2.31756e-06 -1.13161e-05 2.83808e-20
-2.24286e-05 -1.21505e-05 3.14108e-21
-2.13563e-05 -1.14936e-05 -1.26568e-20
-2.18908e-05 1.36274e-05 -1.68983e-21
3.25098e-06 -1.22866e-05 -1.72892e-20
-1.5652e-06 3.38167e-06 2.2593e-20
-5.87317e-07 -2.55667e-05 -8.81178e-21
-7.71954e-06 -2.44205e-05 2.15274e-20
3.27008e-05 3.03596e-05 8.92849e-21
3.54498e-05 -1.81502e-06 4.54079e-21
-1.27099e-05 -3.63183e-06 1.14669e-20
-2.28903e-05 -4.13818e-05 1.03227e-20
8.30341e-06 1.37466e-05 -6.57202e-21
-2.52332e-05 3.03298e-06 -8.74508e-21
2.00631e-05 5.78582e-06 9.0283e-22
-4.53267e-06 -3.27397e-08 -7.46331e-21
-4.66473e-06 -8.4119e-06 1.61945e-20
-7.07219e-06 -3.93288e-05 -3.41514e-21
-9.70736e-06 -8.39044e-08 1.37246e-20
-4.8669e-05 -1.81552e-06 -1.57726e-23
1.73069e-05 -1.91033e-05 1.27512e-21
2.4291e-06 3.99867e-06 -3.92568e-20
-1.20633e-07 -1.75118e-05 3.2736e-20
-9.81741e-06 2.40813e-05 -7.64732e-21
-4.3716e-06 8.6265e-06 -1.40004e-21
2.0554e-05 -1.36046e-05 6.48781e-22
-3.76548e-05 -1.35499e-05 -7.33719e-21
-1.52641e-05 -2.03635e-05 1.62466e-20
4.97652e-06 8.38814e-06 -3.27511e-21
1.66293e-05 5.16e-06 -2.94707e-21
-4.76334e-06 -7.33743e-06 -6.53198e-21
1.97942e-05 3.54677e-06 -2.20278e-21
1.81863e-05 -9.82459e-06 -3.51337e-21
-3.48783e-07 2.71693e-05 -1.35099e-20
8.3193e-06 -1.3665e-05 -1.05786e-20
4.87974e-05 2.2003e-06 -8.65353e-21
-4.2351e-05 1.14517e-05 -1.1335e-20
2.28567e-05 1.15545e-05 -1.43354e-20
-6.452e-06 -1.71767e-05 8.67687e-21
-1.53476e-05 -8.61684e-06 -1.23085e-21
2.8783e-05 -2.10514e-07 2.93072e-20
-6.91878e-07 -2.42512e-05 2.33849e-20
-1.26154e-05 -1.08723e-05 9.33201e-21
1.02222e-05 -2.34959e-05 -1.91891e-20
-4.96533e-07 2.05521e-05 -4.11943e-20
7.91641e-06 2.60635e-05 -3.77137e-21
1.72651e-05 -9.88267e-06 -1.13796e-20
-1.89448e-05 1.92954e-05 -7.58972e-21
1.6525e-05 2.00261e-05 -2.53627e-21
-6.22203e-05 1.60193e-05 -1.03776e-20
-1.01075e-05 2.60119e-05 -1.95556e-20
1.25169e-05 -1.52457e-05 2.871e-20
-7.02792e-06 -1.83947e-05 6.39951e-21
-1.18516e-05 4.50492e-06 3.14866e-21
-2.5889e-05 -7.04461e-06 8.35399e-21
-6.38505e-06 3.88514e-05 9.33444e-21
-1.26038e-05 1.19005e-05 -4.12213e-21
2.07731e-05 -4.47486e-06 -1.8496e-21
-6.87132e-06 -2.57898e-05 8.16482e-21
-1.48663e-05 2.38869e-05 -1.13602e-20
-2.17853e-05 1.25627e-05 2.48456e-20
-2.0566e-05 -1.50528e-05 -8.39675e-21
1.80256e-05 -2.06516e-05 -1.89954e-20
-2.7526e-05 -1.456e-06 -2.09202e-20
1.2365e-05 -4.08034e-05 -1.94018e-22
1.9383e-05 -1.891e-05 1.75754e-20
2.47284e-05 4.30746e-05 -1.15521e-20
1.97079e-06 1.98632e-05 1.10528e-20
2.96058e-06 -2.54169e-05 -1.42957e-20
-4.16294e-05 4.6954e-05 -7.36023e-21
-1.27e-05 -2.44074e-05 2.4255e-20
1.63641e-05 -6.41946e-06 -1.25055e-20
-2.41051e-06 2.57679e-05 3.81745e-21
1.28808e-05 -1.18245e-05 -3.59123e-20
1.38782e-05 2.43089e-05 4.4738e-21
1.7227e-05 -1.40026e-06 -3.10988e-21
2.21163e-05 -6.32059e-05 -2.77273e-21
-5.87513e-06 -1.2857e-05 1.53674e-21
-2.31804e-05 1.00854e-05 -1.36075e-20
-2.00166e-05 1.87158e-05 1.3074e-20
2.16087e-05 1.45652e-05 1.44609e-21
1.86695e-05 -1.07549e-05 -1.78339e-20
1.49494e-05 1.25913e-05 -5.09348e-21
-5.42723e-06 4.55034e-08 1.3885e-22
1.5401e-05 -2.30834e-05 1.33062e-20
-1.69874e-05 -2.04057e-05 1.17337e-20
2.25581e-05 9.77208e-06 1.36782e-20
1.28045e-05 -1.19877e-05 -2.63532e-20
9.55231e-06 -2.48476e-05 -1.14651e-20
1.66564e-05 -6.93173e-06 -1.98588e-20
-1.58028e-05 -7.54335e-06 1.2551e-21
1.29662e-06 -2.62985e-05 3.81838e-21
-2.61024e-05 4.47232e-06 -5.69767e-21
2.38999e-06 2.45386e-05 7.2241e-21
2.05815e-05 6.62635e-06 -6.66508e-21
-2.17168e-05 -1.07e-05 -1.57339e-20
-8.97571e-06 2.56057e-05 -1.23209e-20
-1.49515e-06 -2.41839e-05 -5.29204e-21
1.94632e-05 1.18354e-05 -1.26201e-20
-1.76868e-06 1.80818e-05 9.56816e-21
-2.01354e-05 1.37003e-05 -1.53986e-20
2.3507e-05 1.14133e-05 2.65299e-21
-1.71124e-05 -9.98398e-06 2.4623e-21
9.50836e-08 -1.98315e-05 -8.13239e-21
1.83794e-05 1.9981e-05 1.14739e-20
-2.21502e-05 -1.43013e-05 4.09545e-21
4.83434e-05 -3.39769e-05 -3.98995e-21
1.78942e-05 -1.08208e-05 -1.879e-21
9.00045e-06 4.30805e-05 -2.46716e-21
1.70315e-05 -1.36765e-05 -4.71875e-21
-1.9872e-05 8.70223e-05 -2.0738e-20
-1.97623e-05 -8.65366e-05 4.94766e-22
5.71758e-05 7.1707e-05 -4.86458e-21
5.69133e-05 -7.13809e-05 8.84088e-21
9.06338e-05 -1.6176e-10 -4.83639e-21
-7.81897e-05 3.76323e-05 -2.16208e-20
-7.7444e-05 -3.72766e-05 -6.22669e-21
1.22321e-05 1.1817e-05 -2.47876e-20
2.93638e-05 2.18893e-05 -2.68058e-21
1.14465e-05 3.33235e-06 -2.80828e-20
1.88531e-05 9.75014e-06 1.57506e-20
4.98852e-06 2.01673e-05 1.05613e-20
-1.88292e-05 -1.49782e-05 1.45495e-20
1.70356e-05 -1.02128e-05 -9.96228e-21
1.98499e-05 1.45473e-05 -7.78496e-21
-3.16652e-06 2.43607e-05 -2.2604e-21
2.94366e-05 -1.99901e-05 1.32633e-21
3.79337e-06 -2.37366e-05 -7.38871e-21
2.19579e-05 5.22634e-06 -1.50994e-20
2.98918e-05 1.10245e-05 1.25816e-20
1.42068e-05 1.41419e-05 2.38014e-21
1.58811e-05 6.59281e-06 -6.32796e-21
-1.84963e-05 1.09351e-05 -1.3479e-20
-2.25601e-05 9.03542e-06 -1.59237e-20
2.29264e-05 -1.1262e-05 -2.09459e-20
-1.82654e-05 -9.99667e-06 1.01099e-20
-1.8552e-05 -1.0581e-05 -1.08235e-22
-3.43815e-07 -2.0765e-05 8.22304e-21
-8.61465e-08 -2.1158e-05 2.81549e-21
-2.01244e-05 -1.00534e-06 -5.55519e-21
2.66955e-05 -4.01864e-06 2.69149e-21
1.81097e-05 1.13407e-05 -3.17383e-21
-1.78619e-05 1.09436e-05 -1.06914e-20
-1.53594e-05 1.66215e-05 1.78327e-20
1.602e-05 -1.37515e-05 -1.22421e-20
-1.10221e-05 1.74611e-05 3.8808e-21
-1.42231e-05 -1.48877e-05 1.75074e-20
-1.15511e-06 2.12079e-05 1.26968e-20
-1.28752e-06 2.09656e-05 -2.33923e-21
8.97046e-08 -1.98315e-05 -2.15004e-21
6.11004e-06 -1.97348e-05 2.2504e-21
-1.71388e-05 -9.93423e-06 -9.74341e-21
1.55849e-05 -5.4896e-06 -1.04604e-20
6.63072e-07 2.14751e-05 -2.31528e-21
3.00799e-07 1.85052e-05 -2.46898e-21
-2.34547e-06 1.68552e-05 1.09124e-20
2.19061e-05 -5.52674e-06 1.97742e-20
-1.65393e-05 5.37741e-06 3.66586e-21
4.15694e-06 2.15148e-05 1.6798e-20
-3.25544e-05 1.29177e-05 -5.27598e-21
9.76212e-06 4.17265e-05 1.20719e-21
-1.70514e-05 4.56759e-06 8.07964e-21
1.96821e-05 -1.16287e-05 6.63051e-21
9.45651e-07 2.1017e-05 -1.07736e-20
-2.04788e-05 6.69862e-06 -1.4893e-20
2.4438e-06 -1.62605e-05 5.99057e-22
1.81886e-06 -5.80058e-05 -1.2497e-20
2.00622e-06 1.74842e-05 -5.98539e-21
-1.69601e-05 1.40209e-05 -1.85609e-20
1.7852e-05 6.39643e-05 5.60399e-21
4.5764e-05 3.77025e-05 1.09039e-20
5.20589e-05 -3.52516e-05 -7.8911e-21
1.48138e-05 -1.0166e-05 8.88181e-21
-1.57837e-05 1.4036e-05 1.28663e-20
-2.02146e-05 -7.9198e-06 2.10032e-21
-1.96434e-05 -6.82164e-06 -5.94627e-21
5.92604e-05 -2.46092e-05 -2.82977e-21
5.74272e-05 2.38683e-05 2.2124e-20
1.08933e-05 3.81706e-06 -2.38579e-20
7.66542e-07 1.95772e-05 -2.46694e-20
7.83435e-08 1.95585e-05 -1.9291e-20
-4.83776e-05 -3.69145e-05 -2.10948e-20
1.14239e-05 -1.71701e-05 -4.51381e-21
1.1732e-05 1.24633e-05 -1.36782e-20
-2.14158e-05 -3.39538e-06 7.35171e-22
-1.40435e-05 1.72002e-05 4.18033e-21
-1.88865e-05 9.16676e-06 -1.77015e-20
4.76382e-05 3.36908e-05 6.35978e-21
1.58048e-05 7.06091e-06 2.12609e-21
-5.56618e-06 2.00282e-05 7.25108e-21
-1.69763e-05 -1.1748e-05 3.05498e-21
1.85604e-06 -2.05407e-05 1.39122e-20
-8.9488e-06 -1.92653e-05 4.97791e-22
-1.72474e-05 -1.17723e-05 4.72178e-21
1.05785e-05 -1.89338e-05 1.07079e-21
1.4121e-05 -1.69876e-05 -9.51269e-21
-2.44017e-06 -6.1431e-05 -2.50808e-21
2.61775e-05 -4.11215e-05 -3.1335e-21
1.7473e-06 -2.07835e-05 1.16261e-20
1.79568e-05 1.13543e-05 -8.26608e-21
-1.44749e-05 -1.49038e-05 1.89481e-20
-9.84009e-06 1.97081e-05 2.98586e-21
-5.03892e-06 2.10046e-05 6.17332e-21
1.66256e-05 1.42423e-05 1.09958e-21
6.05838e-06 -1.98594e-05 6.04723e-21
-1.34052e-05 -4.03538e-05 -8.21879e-21
-1.98819e-06 2.5038e-05 -2.0299e-20
1.47904e-05 1.44537e-05 1.31234e-20
-1.2957e-05 -1.02157e-05 2.43608e-20
-1.35137e-05 1.06072e-05 2.67342e-20
4.43385e-05 -1.89114e-05 -9.98684e-21
7.5623e-06 -1.33989e-05 -9.65263e-22
-8.31636e-06 -1.26257e-05 6.94238e-22
2.13284e-05 6.36285e-06 -1.26508e-20
1.09933e-05 -5.0657e-05 4.7427e-21
-3.84477e-05 -3.48996e-05 -3.0841e-21
2.33045e-05 6.2068e-06 -1.45316e-20
-9.32734e-06 -1.82793e-05 2.11275e-21
1.87038e-05 9.48188e-06 -5.39512e-21
-2.85617e-05 -3.25481e-05 -9.25713e-21
9.68724e-06 5.0042e-05 1.52534e-20
3.43309e-05 -5.9854e-05 -2.461e-20
-3.47338e-05 -5.97708e-05 3.80714e-21
2.78057e-05 -5.20172e-05 -1.75926e-21
-1.26969e-05 4.3629e-05 -5.32448e-21
-6.27548e-06 3.89737e-05 1.99182e-22
-1.87289e-05 8.94502e-06 8.1151e-21
5.97663e-06 2.42399e-05 3.58734e-21
-2.39135e-06 1.26528e-05 1.69772e-21
1.01192e-05 3.23283e-06 -1.38695e-20
-3.18817e-06 1.6204e-05 -3.09401e-20
-2.47436e-07 2.09897e-05 -2.72712e-20
1.6659e-05 9.74965e-06 -1.03167e-20
1.70998e-06 5.77186e-05 -3.68072e-21
-1.47158e-05 1.07316e-05 -8.95821e-21
1.59479e-05 -6.24601e-06 8.84877e-21
1.68702e-05 -4.50854e-06 -4.63961e-21
-6.06566e-05 -8.76798e-06 -2.266e-20
-3.46024e-05 1.67398e-05 -1.60805e-20
-4.35104e-05 -5.2541e-05 -2.0573e-20
8.65568e-06 8.34488e-06 4.83546e-21
1.42085e-05 7.29184e-06 -2.49107e-20
2.68022e-05 -4.19546e-06 1.93853e-20
-8.1036e-06 -1.32415e-05 -9.94228e-21
1.72149e-05 8.4278e-06 -1.97973e-20
7.33461e-06 -3.00317e-05 -3.57642e-21
-1.37124e-05 1.0204e-05 3.90778e-21
-2.23722e-05 -2.14202e-05 -3.24694e-22
-5.83541e-06 1.62961e-05 2.85578e-22
-3.27068e-06 2.06765e-05 -2.51117e-20
3.38465e-05 2.12943e-05 5.36579e-23
3.61097e-05 -1.9281e-05 -2.26497e-21
-4.20662e-05 -1.16218e-05 -1.04049e-20
7.63343e-06 7.68499e-06 -1.85573e-20
-4.05823e-06 0.000101351 -8.43406e-22
8.61578e-07 -0.000104457 1.80384e-22
5.2449e-05 8.76362e-05 -7.80042e-21
-1.9101e-05 8.45705e-06 6.78907e-21
-2.6374e-05 5.65438e-05 -8.76357e-21
5.30272e-05 -8.46311e-05 1.16355e-21
-1.17193e-05 -1.82805e-05 -1.08017e-21
7.79922e-05 6.7491e-05 6.28457e-22
2.39912e-05 -1.7975e-05 8.03721e-21
-3.60708e-06 -2.98191e-05 1.39441e-20
8.17705e-05 -6.58438e-05 1.2096e-22
-6.74396e-06 1.45168e-05 7.1092e-21
-5.38265e-05 -3.48202e-05 -1.74959e-20
-4.30089e-05 -9.31201e-05 -1.18756e-20
-2.41102e-05 -5.77983e-05 -1.07805e-21
-4.39705e-05 9.41271e-05 -1.09485e-20
-1.00923e-05 6.40773e-05 -1.60814e-20
1.56311e-05 3.71045e-05 -2.46441e-21
-2.79525e-05 3.72366e-05 3.19234e-22
-2.52704e-05 -5.51776e-05 -1.97906e-20
0.000100355 1.73152e-05 -4.38013e-21
-1.69257e-05 1.07659e-05 -3.40999e-21
-5.91175e-06 1.63314e-05 -2.42371e-20
-5.07528e-05 3.76356e-05 -1.39055e-20
-1.72745e-05 9.9431e-06 -1.38003e-20
9.91926e-05 -1.52618e-05 4.31433e-21
-1.53586e-05 7.7979e-06 -9.7801e-22
7.19187e-06 -1.44934e-05 8.0976e-22
-7.79614e-05 -6.09417e-05 -2.30132e-20
-2.58763e-05 5.77112e-05 5.91049e-21
-7.91143e-05 6.03691e-05 -1.44573e-20
2.45376e-05 5.1945e-05 -1.99119e-21
-1.4766e-05 1.05813e-05 -3.35421e-21
-2.05278e-05 2.44741e-05 -3.33633e-21
-2.85297e-05 4.98127e-05 6.2464e-21
-5.67702e-05 2.07966e-07 1.13017e-20
-9.44017e-07 1.62944e-05 -1.93462e-20
-2.88467e-05 -5.04012e-05 -2.46573e-20
-5.81924e-05 -2.19776e-07 1.53171e-20
-2.83466e-05 4.86912e-05 -4.94825e-21
-1.51887e-05 6.62593e-05 7.912e-21
-1.7863e-05 4.12562e-05 -1.17983e-20
-3.38968e-05 2.71346e-05 -1.73798e-20
2.43804e-05 -6.05632e-06 -2.24402e-20
3.79988e-05 -2.19509e-06 -2.79033e-21
1.3481e-05 8.19947e-06 -3.13512e-20
-1.04681e-05 -7.398e-05 -3.48075e-20
-6.94417e-05 -2.79713e-05 -1.69584e-20
3.71284e-05 7.32664e-07 9.29138e-21
5.83601e-05 -1.0891e-05 -8.77874e-21
-1.05826e-05 -1.34957e-05 -1.01957e-20
-5.08235e-05 3.76214e-05 -4.42347e-21
-4.61288e-05 5.39944e-05 -1.638e-21
6.23562e-05 -2.22301e-05 1.00559e-21
-2.81745e-05 -5.04919e-05 -4.12637e-21
-2.87741e-05 4.97744e-05 -6.38555e-21
-5.72485e-05 -1.17103e-06 -1.30376e-20
-2.65706e-05 5.05926e-05 -2.4041e-21
-5.79472e-05 -8.1693e-07 6.71053e-21
6.60693e-05 1.73907e-05 -1.98482e-21
5.63744e-05 1.29236e-06 -1.11501e-20
5.08949e-05 -2.92709e-05 -1.2602e-20
2.49076e-05 -5.9421e-05 1.6051e-23
2.99154e-05 -4.88517e-05 -1.26547e-20
2.91644e-05 4.86757e-05 2.04969e-21
2.43425e-05 5.80834e-05 7.0134e-21
7.57945e-05 -2.00355e-05 4.71345e-20
4.62616e-05 2.90603e-05 2.668e-20
4.66195e-05 1.37441e-05 4.15028e-22
TENSORS solid_stress_TPM float
375.028 -24.9202 1.38319e-12
-24.9202 238.568 3.55271e-12
1.38319e-12 3.55271e-12 197.815

456.997 -21.3202 1.01141e-12
-21.3202 489.981 1.93593e-12
1.01141e-12 1.93593e-12 487.104

454.873 28.0428 4.31832e-12
28.0428 463.702 -3.05237e-13
4.31832e-12 -3.05237e-13 458.453

455.022 -29.8427 -2.06872e-12
-29.8427 482.603 -3.72739e-12
-2.06872e-12 -3.72739e-12 484.851

527.682 19.931 -1.2846e-12
19.931 548.452 1.92461e-12
-1.2846e-12 1.92461e-12 527.352

437.305 -18.0741 -3.25799e-12
-18.0741 480.332 -1.74497e-12
-3.25799e-12 -1.74497e-12 458.033

372.322 26.4843 1.10371e-12
26.4843 239.087 7.57912e-12
1.10371e-12 7.57912e-12 197.799

473.646 29.9576 -4.03233e-12
29.9576 469.495 -2.52095e-12
-4.03233e-12 -2.52095e-12 472.331

471.541 5.48306 -1.52767e-13
5.48306 417.816 4.88942e-13
-1.52767e-13 4.88942e-13 432.789

504.253 -7.47756 9.03277e-13
-7.47756 444.105 -1.71056e-12
9.03277e-13 -1.71056e-12 483.446

360.288 16.3082 9.56864e-13
16.3082 247.652 -3.75522e-12
9.56864e-13 -3.75522e-12 233.641

444.776 -13.453 -1.32812e-12
-13.453 498.379 -2.83625e-13
-1.32812e-12 -2.83625e-13 472.233

466.861 27.8328 -1.49273e-12
27.8328 468.295 1.52411e-12
-1.49273e-12 1.52411e-12 466.728

457.031 -14.3399 1.05199e-12
-14.3399 500.427 5.16505e-12
1.05199e-12 5.16505e-12 483.451

512.932 33.3116 -1.41457e-12
33.3116 511.591 9.23312e-13
-1.41457e-12 9.23312e-13 515.22

489.165 0.560957 -2.69059e-12
0.560957 435.516 3.29652e-12
-2.69059e-12 3.29652e-12 462.265

457.577 -17.9692 1.50875e-12
-17.9692 512.88 -1.63662e-12
1.50875e-12 -1.63662e-12 493.591

493.95 -2.6652 -6.29718e-13
-2.6652 439.042 5.01895e-13
-6.29718e-13 5.01895e-13 474.257

418.786 26.6732 -6.35344e-13
26.6732 449.653 -1.53004e-12
-6.35344e-13 -1.53004e-12 424.047

481.974 -4.1955 -1.24167e-12
-4.1955 424.915 2.77563e-12
-1.24167e-12 2.77563e-12 453.468

425.29 8.66842 -1.39e-13
8.66842 481.895 1.09364e-12
-1.39e-13 1.09364e-12 444.834

634.128 6.28785 1.63209e-12
6.28785 633.962 1.72617e-12
1.63209e-12 1.72617e-12 570.314

479.145 1.87596 -2.38032e-13
1.87596 422.934 1.01622e-13
-2.38032e-13 1.01622e-13 449.725

447.155 -27.7147 5.5899e-12
-27.7147 461.143 1.78524e-12
5.5899e-12 1.78524e-12 452.941

481.041 6.84929 -1.17062e-12
6.84929 425.434 -8.23341e-13
-1.17062e-12 -8.23341e-13 452.931

449.752 19.1127 -1.4971e-12
19.1127 490.31 -6.27557e-12
-1.4971e-12 -6.27557e-12 478.199

377.648 4.18129 9.42653e-13
4.18129 291.65 3.67647e-12
9.42653e-13 3.67647e-12 258.998

462.678 30.7455 -2.28084e-12
30.7455 460.708 -5.03301e-13
-2.28084e-12 -5.03301e-13 460.539

384.934 37.0736 -2.58638e-12
37.0736 383.514 -5.11591e-12
-2.58638e-12 -5.11591e-12 348.413

586.939 10.3235 3.1178e-12
10.3235 563.448 -3.86913e-13
3.1178e-12 -3.86913e-13 546.868

491.68 14.2168 -1.83024e-12
14.2168 442.491 1.92957e-12
-1.83024e-12 1.92957e-12 465.849

352.85 -17.78 2.82441e-13
-17.78 416.716 -6.05738e-12
2.82441e-13 -6.05738e-12 348.584

331.013 -42.101 -8.78704e-13
-42.101 335.868 3.76351e-12
-8.78704e-13 3.76351e-12 253.478

531.406 5.9869 -3.58175e-12
5.9869 586.886 -8.68046e-13
-3.58175e-12 -8.68046e-13 538.577

554.02 -4.8409 7.44871e-12
-4.8409 582.068 -3.89525e-12
7.44871e-12 -3.89525e-12 542.508

577.983 21.0279 -1.66297e-12
21.0279 539.943 5.49738e-12
-1.66297e-12 5.49738e-12 538.346

556.181 5.06771 -3.40779e-12
5.06771 600.672 3.64449e-12
-3.40779e-12 3.64449e-12 547.965

573.771 -9.16985 -2.60828e-12
-9.16985 555.761 7.16279e-13
-2.60828e-12 7.16279e-13 540.633

467.121 -27.9978 -3.11336e-12
-27.9978 466.484 -1.97176e-13
-3.11336e-12 -1.97176e-13 465.101

330.397 41.5202 -2.6148e-12
41.5202 337.966 1.56319e-13
-2.6148e-12 1.56319e-13 253.837

414.518 -17.9487 -4.45155e-12
-17.9487 354.481 2.28439e-12
-4.45155e-12 2.28439e-12 346.314

559.302 -3.70624 5.01436e-12
-3.70624 599.921 4.88987e-12
5.01436e-12 4.88987e-12 548.379

586.409 19.5558 9.09125e-13
19.5558 572.452 1.22983e-12
9.09125e-13 1.22983e-12 548.168

490.885 -12.2732 6.9574e-13
-12.2732 442.845 -3.69704e-12
6.9574e-13 -3.69704e-12 466.521

341.702 -43.2981 4.29997e-12
-43.2981 345.33 -4.25852e-12
4.29997e-12 -4.25852e-12 288.971

417.544 -18.063 6.38304e-13
-18.063 357.099 2.6823e-12
6.38304e-13 2.6823e-12 351.488

412.998 17.0853 2.71087e-12
17.0853 464.766 -4.08384e-12
2.71087e-12 -4.08384e-12 428.712

429.614 19.3386 -1.73284e-12
19.3386 466.496 -4.54866e-12
-1.73284e-12 -4.54866e-12 437.065

486.764 -16.3008 1.7953e-12
-16.3008 432.86 -7.72715e-13
1.7953e-12 -7.72715e-13 458.662

355.568 -34.1846 1.9155e-12
-34.1846 389.387 -2.65032e-12
1.9155e-12 -2.65032e-12 332.555

410.237 19.1814 -1.23753e-12
19.1814 350.688 2.23584e-12
-1.23753e-12 2.23584e-12 339.464

425.185 -25.2878 -5.81698e-12
-25.2878 383.806 9.09495e-13
-5.81698e-12 9.09495e-13 373.062

519.909 19.4859 6.26314e-13
19.4859 547.519 3.37389e-12
6.26314e-13 3.37389e-12 525.719

416.397 29.6486 2.28203e-12
29.6486 393.871 -2.86586e-12
2.28203e-12 -2.86586e-12 373.926

522.163 -21.8128 -1.02969e-12
-21.8128 541.385 2.24272e-12
-1.02969e-12 2.24272e-12 524.365

364.058 -42.7103 -6.15093e-12
-42.7103 343.27 8.17124e-14
-6.15093e-12 8.17124e-14 289.688

553.441 5.45992 -8.86254e-13
5.45992 583.86 1.39829e-12
-8.86254e-13 1.39829e-12 542.882

373.703 -5.32965 1.11762e-12
-5.32965 436.647 2.23229e-12
1.11762e-12 2.23229e-12 373.811

580.809 10.3842 -2.61835e-12
10.3842 556.161 1.04527e-12
-2.61835e-12 1.04527e-12 542.638

435.042 21.4127 -2.22933e-13
21.4127 473.746 6.46357e-12
-2.22933e-13 6.46357e-12 454.657

513.559 5.75379 7.10691e-13
5.75379 452.793 -1.35447e-13
7.10691e-13 -1.35447e-13 494.852

522.446 11.4589 1.72869e-12
11.4589 487.85 9.88246e-13
1.72869e-12 9.88246e-13 507.066

383.693 31.8193 1.86162e-12
31.8193 315.184 2.77467e-12
1.86162e-12 2.77467e-12 269.862

482.076 -6.03504 -3.35983e-12
-6.03504 528.168 -5.20532e-12
-3.35983e-12 -5.20532e-12 504.089

487.084 9.51962 6.16322e-12
9.51962 523.678 -2.54996e-12
6.16322e-12 -2.54996e-12 507.484

456.447 -2.88071 2.37173e-12
-2.88071 520.145 -5.16091e-12
2.37173e-12 -5.16091e-12 487.795

464.443 23.4021 -1.45513e-13
23.4021 503.458 4.31418e-12
-1.45513e-13 4.31418e-12 495.429

496.734 8.46341 -1.15197e-12
8.46341 444.386 2.36433e-12
-1.15197e-12 2.36433e-12 477.686

445.494 -28.2388 2.77023e-12
-28.2388 459.516 2.48335e-12
2.77023e-12 2.48335e-12 451.155

501.669 -1.7112 -3.83693e-13
-1.7112 444.904 -1.35751e-12
-3.83693e-13 -1.35751e-12 489.056

519.522 -19.2619 -2.57424e-13
-19.2619 546.812 5.59256e-13
-2.57424e-13 5.59256e-13 525.452

523.292 21.3078 1.52115e-12
21.3078 542.91 2.22621e-12
1.52115e-12 2.22621e-12 525.254

353.4 -16.583 -7.38668e-13
-16.583 415.724 -4.54392e-12
-7.38668e-13 -4.54392e-12 346.103

506.009 -27.9359 3.52074e-12
-27.9359 485.299 -4.66412e-12
3.52074e-12 -4.66412e-12 493.869

449.708 -25.1342 5.79092e-13
-25.1342 471.208 2.42591e-12
5.79092e-13 2.42591e-12 458.565

357.861 -31.7099 9.23706e-14
-31.7099 285.669 7.11786e-12
9.23706e-14 7.11786e-12 249.851

498.49 3.22257 2.28188e-13
3.22257 541.394 3.36797e-12
2.28188e-13 3.36797e-12 513.632

501.715 28.9437 4.73695e-14
28.9437 474.538 6.99885e-13
4.73695e-14 6.99885e-13 487.647

448.433 19.664 1.153e-12
19.664 492.096 -8.62125e-13
1.153e-12 -8.62125e-13 477.631

440.18 7.99934 -3.65219e-12
7.99934 373.028 -1.00512e-12
-3.65219e-12 -1.00512e-12 382.924

386.441 -33.9347 9.61601e-13
-33.9347 360.197 -6.95503e-12
9.61601e-13 -6.95503e-12 319.427

537.711 -10.5876 -4.1851e-12
-10.5876 556.129 -2.04873e-12
-4.1851e-12 -2.04873e-12 531.239

482.646 23.8994 -1.76392e-12
23.8994 504.549 4.49229e-13
-1.76392e-12 4.49229e-13 502.032

385.361 -32.383 1.13332e-12
-32.383 345.297 1.89478e-14
1.13332e-12 1.89478e-14 317.073

422.186 10.7908 2.21097e-12
10.7908 363.841 -3.15303e-14
2.21097e-12 -3.15303e-14 350.244

307.644 -21.2055 8.73375e-14
-21.2055 388.433 -1.61767e-12
8.73375e-14 -1.61767e-12 288.108

434.434 14.4255 1.24234e-12
14.4255 488.657 1.15463e-12
1.24234e-12 1.15463e-12 460.873

509.71 23.1427 4.08562e-13
23.1427 475.161 -2.77556e-12
4.08562e-13 -2.77556e-12 489.936

338.232 42.1977 -3.91746e-12
42.1977 349.563 -5.36933e-12
-3.91746e-12 -5.36933e-12 288.944

634.213 16.5073 -5.43195e-13
16.5073 603.065 2.78207e-12
-5.43195e-13 2.78207e-12 565.318

372.879 -4.10824 3.73627e-12
-4.10824 436.806 1.37253e-12
3.73627e-12 1.37253e-12 373.418

637.119 -16.6324 -7.46936e-12
-16.6324 599.535 -1.75651e-11
-7.46936e-12 -1.75651e-11 564.825

533.93 -27.335 1.83083e-12
-27.335 507.229 5.31797e-12
1.83083e-12 5.31797e-12 515.705

505.286 27.4244 -3.04053e-12
27.4244 466.324 -2.11564e-12
-3.04053e-12 -2.11564e-12 485.062

426.915 -24.41 -5.08038e-13
-24.41 386.229 9.02981e-14
-5.08038e-13 9.02981e-14 375.969

358.928 31.3224 -5.20946e-12
31.3224 395.995 1.21266e-12
-5.20946e-12 1.21266e-12 339.192

339.817 -10.7048 -1.50635e-12
-10.7048 408.382 4.9738e-14
-1.50635e-12 4.9738e-14 319.097

453.094 21.9706 2.7122e-12
21.9706 494.668 -1.05486e-12
2.7122e-12 -1.05486e-12 483.158

533.104 16.7939 -6.17876e-13
16.7939 506.19 -1.33671e-12
-6.17876e-13 -1.33671e-12 513.344

443.443 15.1536 1.89952e-12
15.1536 488.429 4.32543e-12
1.89952e-12 4.32543e-12 464.273

451.47 15.9535 -1.57267e-12
15.9535 400.528 2.53723e-12
-1.57267e-12 2.53723e-12 403.738

374.48 -21.472 -2.43479e-12
-21.472 419.857 -2.76993e-12
-2.43479e-12 -2.76993e-12 357.189

389.714 -29.3899 6.4162e-12
-29.3899 342.362 2.61717e-12
6.4162e-12 2.61717e-12 314.384

454.956 -24.5727 -1.61989e-12
-24.5727 480.055 2.04015e-12
-1.61989e-12 2.04015e-12 478.361

466.417 27.4507 -1.55757e-12
27.4507 478.734 -4.67774e-14
-1.55757e-12 -4.67774e-14 479.8

452.207 23.1875 2.21319e-12
23.1875 492.549 -6.81292e-12
2.21319e-12 -6.81292e-12 482.034

466.288 13.1692 2.76402e-12
13.1692 529.768 1.36187e-13
2.76402e-12 1.36187e-13 501.375

490.852 9.37217 -1.58037e-12
9.37217 437.88 -2.31104e-12
-1.58037e-12 -2.31104e-12 462.046

327.705 -4.66495 -7.95512e-13
-4.66495 403.372 1.16292e-12
-7.95512e-13 1.16292e-12 314.405

462.57 -36.8334 -2.76283e-12
-36.8334 487.681 -2.32866e-12
-2.76283e-12 -2.32866e-12 492.739

445.84 27.4648 3.78364e-12
27.4648 463.261 -1.3299e-12
3.78364e-12 -1.3299e-12 455.005

305.665 2.17029 3.72546e-12
2.17029 393.352 3.92693e-12
3.72546e-12 3.92693e-12 297.249

385.989 34.6095 7.10543e-14
34.6095 332.441 4.51668e-12
7.10543e-14 4.51668e-12 306.239

453.341 -22.9736 2.38713e-12
-22.9736 480.06 -1.78139e-12
2.38713e-12 -1.78139e-12 476.164

501.385 5.73296 4.20404e-13
5.73296 441.306 1.91662e-12
4.20404e-13 1.91662e-12 481.001

422.372 27.2034 -3.01033e-12
27.2034 389.759 -7.84558e-13
-3.01033e-12 -7.84558e-13 374.226

570.536 12.7456 4.84205e-13
12.7456 565.912 1.99781e-12
4.84205e-13 1.99781e-12 542.91

396.17 24.3299 -5.92119e-13
24.3299 349.641 9.22521e-13
-5.92119e-13 9.22521e-13 319.037

569.159 -13.0551 -3.63043e-12
-13.0551 565.824 -5.84717e-13
-3.63043e-12 -5.84717e-13 542.366

375.084 0.778511 -4.62904e-12
0.778511 438.86 7.18832e-13
-4.62904e-12 7.18832e-13 374.633

461.461 -2.23526 -8.82968e-12
-2.23526 399.295 -5.22715e-12
-8.82968e-12 -5.22715e-12 417.273

538.189 -15.7681 1.53226e-12
-15.7681 480.623 1.45572e-12
1.53226e-12 1.45572e-12 513.471

457.236 24.3881 2.45585e-12
24.3881 487.776 -2.31785e-12
2.45585e-12 -2.31785e-12 488.346

461.247 -13.535 6.21015e-13
-13.535 519.127 1.22983e-12
6.21015e-13 1.22983e-12 495.706

514.96 -8.00005 -3.09338e-12
-8.00005 438.182 -3.73035e-13
-3.09338e-12 -3.73035e-13 494.269

488.308 -22.2843 1.07573e-12
-22.2843 541.596 -1.26388e-12
1.07573e-12 -1.26388e-12 515.743

556.046 -6.5963 4.58004e-13
-6.5963 560.389 -1.93079e-12
4.58004e-13 -1.93079e-12 538.723

463.857 -29.9081 -3.39935e-12
-29.9081 483.187 -1.58777e-12
-3.39935e-12 -1.58777e-12 483.591

341.7 11.4534 -2.95082e-12
11.4534 406.185 -1.79057e-12
-2.95082e-12 -1.79057e-12 319.476

422.473 -28.1458 -2.53782e-12
-28.1458 391.234 -2.93691e-12
-2.53782e-12 -2.93691e-12 375.139

507.376 -13.7724 -1.67644e-12
-13.7724 558.742 -4.32721e-12
-1.67644e-12 -4.32721e-12 525.245

501.048 0.504371 2.23821e-12
0.504371 441.271 1.34885e-12
2.23821e-12 1.34885e-12 487.078

476.935 -21.5246 4.39856e-12
-21.5246 507.414 6.3712e-13
4.39856e-12 6.3712e-13 501.497

459.089 25.6976 -2.52361e-12
25.6976 484.592 3.39147e-12
-2.52361e-12 3.39147e-12 487.973

394.422 -31.4636 1.99426e-12
-31.4636 400.591 -5.51855e-13
1.99426e-12 -5.51855e-13 357.514

552.122 -7.08527 -3.96623e-12
-7.08527 585.291 1.14131e-12
-3.96623e-12 1.14131e-12 542.597

347.203 -33.0759 1.89833e-12
-33.0759 382.599 -8.12387e-13
1.89833e-12 -8.12387e-13 303.429

490.861 -19.1793 1.83379e-12
-19.1793 448.379 9.68381e-12
1.83379e-12 9.68381e-12 467.116

519.7 1.97016 -1.4091e-12
1.97016 466.806 2.47979e-12
-1.4091e-12 2.47979e-12 502.824

570.554 17.8751 3.62081e-13
17.8751 566.476 9.9328e-13
3.62081e-13 9.9328e-13 542.369

375.283 20.1822 1.73017e-12
20.1822 424.023 -6.11896e-12
1.73017e-12 -6.11896e-12 360.213

489.073 27.2101 8.59165e-13
27.2101 468.531 -1.58096e-12
8.59165e-13 -1.58096e-12 476.631

454.37 -24.511 3.27087e-12
-24.511 415.334 7.11194e-12
3.27087e-12 7.11194e-12 418.594

454.71 -17.8384 -5.55315e-13
-17.8384 494.898 -5.07061e-12
-5.55315e-13 -5.07061e-12 482.633

379.191 35.0673 -4.12825e-12
35.0673 366.023 -3.61193e-12
-4.12825e-12 -3.61193e-12 317.042

449.143 -21.831 1.23013e-13
-21.831 491.695 3.57462e-12
1.23013e-13 3.57462e-12 479.765

485.482 30.8501 4.06608e-12
30.8501 465.127 -3.32238e-12
4.06608e-12 -3.32238e-12 473.437

480.313 -25.2436 -1.34766e-12
-25.2436 442.358 8.64198e-13
-1.34766e-12 8.64198e-13 455.434

448.209 -25.1259 -5.17808e-12
-25.1259 469.758 -3.57758e-12
-5.17808e-12 -3.57758e-12 458.087

445.335 -18.6876 5.0863e-12
-18.6876 393.452 2.7119e-13
5.0863e-12 2.7119e-13 397.249

470.643 -18.8492 -2.04636e-12
-18.8492 422.844 5.28585e-12
-2.04636e-12 5.28585e-12 437.522

458.989 -25.3369 -2.9153e-12
-25.3369 485.419 -1.84367e-12
-2.9153e-12 -1.84367e-12 488.816

386.533 35.9683 4.05246e-12
35.9683 381.979 -8.01729e-13
4.05246e-12 -8.01729e-13 348.108

444.485 15.3764 4.58818e-12
15.3764 491.522 1.22509e-12
4.58818e-12 1.22509e-12 467.129

469.386 26.4219 -3.05149e-12
26.4219 479.947 -3.64656e-12
-3.05149e-12 -3.64656e-12 482.536

456.132 25.4736 1.88867e-12
25.4736 486.636 -1.83823e-12
1.88867e-12 -1.83823e-12 487.236

457.797 11.6213 -3.32045e-12
11.6213 506.929 -7.44886e-13
-3.32045e-12 -7.44886e-13 486.005

431.94 -8.22675 -2.89072e-12
-8.22675 370.746 9.81437e-13
-2.89072e-12 9.81437e-13 363.298

376.77 18.6058 4.52793e-12
18.6058 427.254 6.4091e-12
4.52793e-12 6.4091e-12 363.874

452.301 -24.3801 -2.33887e-14
-24.3801 478.374 -2.8925e-12
-2.33887e-14 -2.8925e-12 470.7

440.735 25.6653 7.55544e-13
25.6653 455.629 -1.38201e-12
7.55544e-13 -1.38201e-12 437.794

390.945 -35.6282 -8.75152e-13
-35.6282 380.267 1.65201e-13
-8.75152e-13 1.65201e-13 350.081

368.931 38.3155 -4.3426e-12
38.3155 327.244 2.089e-12
-4.3426e-12 2.089e-12 295.674

363.637 -33.31 4.55754e-12
-33.31 394.424 -1.58925e-12
4.55754e-12 -1.58925e-12 341.969

397.919 -31.1586 -6.91003e-12
-31.1586 404.181 -1.7657e-12
-6.91003e-12 -1.7657e-12 362.963

502.845 -6.83866 1.30829e-12
-6.83866 442.238 -1.90662e-13
1.30829e-12 -1.90662e-13 482.306

393.153 30.3408 -3.9968e-12
30.3408 408.967 1.83083e-12
-3.9968e-12 1.83083e-12 363.423

429.689 13.2942 -1.41753e-12
13.2942 372.236 1.30562e-13
-1.41753e-12 1.30562e-13 362.703

350.134 13.3784 1.06655e-12
13.3784 418.502 3.7114e-12
1.06655e-12 3.7114e-12 348.464

379.468 -22.3396 4.73518e-12
-22.3396 423.5 -3.74811e-12
4.73518e-12 -3.74811e-12 363.437

491.197 -1.09144 -1.44003e-12
-1.09144 550.867 1.46194e-12
-1.44003e-12 1.46194e-12 516.295

372.853 2.24653 -6.80641e-13
2.24653 437.774 -2.75691e-12
-6.80641e-13 -2.75691e-12 373.509

357.879 31.0883 3.63383e-12
31.0883 399.474 4.54274e-12
3.63383e-12 4.54274e-12 341.95

457.979 12.1077 -3.49915e-12
12.1077 510.549 -2.24472e-12
-3.49915e-12 -2.24472e-12 488.392

421.44 -27.6467 -1.5028e-12
-27.6467 389.06 -6.57489e-12
-1.5028e-12 -6.57489e-12 375.061

524.745 20.5569 -1.93445e-12
20.5569 469.738 3.05948e-12
-1.93445e-12 3.05948e-12 500.724

534.915 26.2704 2.67756e-12
26.2704 506.849 1.21562e-12
2.67756e-12 1.21562e-12 516.083

494.804 -18.5672 5.99165e-12
-18.5672 449.014 7.03733e-13
5.99165e-12 7.03733e-13 470.844

554.575 -1.80097 -1.6828e-12
-1.80097 516.013 -4.26059e-12
-1.6828e-12 -4.26059e-12 525.706

473.275 -31.8115 1.60612e-12
-31.8115 475.685 1.09424e-12
1.60612e-12 1.09424e-12 478.566

412.586 23.327 2.47269e-12
23.327 357.186 7.79821e-13
2.47269e-12 7.79821e-13 348.081

464.164 30.162 -3.56811e-12
30.162 482.756 -2.01765e-12
-3.56811e-12 -2.01765e-12 483.193

464.427 29.2058 9.05646e-13
29.2058 482.229 3.78542e-12
9.05646e-13 3.78542e-12 482.754

393.935 30.6599 4.02167e-12
30.6599 405.712 3.53969e-12
4.02167e-12 3.53969e-12 360.858

502.843 27.0848 -4.36984e-13
27.0848 482.655 1.68754e-14
-4.36984e-13 1.68754e-14 490.723

415.339 3.52504 -1.7503e-12
3.52504 339.007 -3.19578e-12
-1.7503e-12 -3.19578e-12 340.814

493.111 31.8172 4.90896e-12
31.8172 487.212 -2.43183e-12
4.90896e-12 -2.43183e-12 495.563

476.316 -12.5997 -3.69527e-12
-12.5997 522.44 1.37016e-12
-3.69527e-12 1.37016e-12 500.237

536.916 24.2783 1.05693e-12
24.2783 507.392 -3.10685e-12
1.05693e-12 -3.10685e-12 516.62

468.166 -29.5786 -1.20407e-12
-29.5786 479.958 1.14605e-12
-1.20407e-12 1.14605e-12 483.05

464.55 -4.89813 -2.4122e-12
-4.89813 521.544 -3.60364e-12
-2.4122e-12 -3.60364e-12 490.968

400.928 -24.5556 5.77908e-13
-24.5556 349.014 1.78228e-12
5.77908e-13 1.78228e-12 323.941

418.955 29.6922 3.72561e-12
29.6922 392.453 8.89363e-13
3.72561e-12 8.89363e-13 373.759

352.334 14.6961 9.33624e-13
14.6961 417.2 -3.72916e-12
9.33624e-13 -3.72916e-12 348.23

500.518 -1.13885 -5.81461e-13
-1.13885 442.783 3.95609e-13
-5.81461e-13 3.95609e-13 487.698

492.459 0.00223511 -8.40513e-13
0.00223511 438.092 2.1072e-12
-8.40513e-13 2.1072e-12 474.408

452.954 23.1236 7.92699e-13
23.1236 479.696 1.67362e-12
7.92699e-13 1.67362e-12 475.575

481.293 23.8709 2.0434e-12
23.8709 502.864 -1.80345e-12
2.0434e-12 -1.80345e-12 501.243

456.577 -24.3807 -2.62024e-12
-24.3807 487.341 1.87302e-12
-2.62024e-12 1.87302e-12 488.487

457.827 -0.672687 -3.88036e-12
-0.672687 517.932 1.36069e-12
-3.88036e-12 1.36069e-12 486.39

458.874 25.5903 -2.02445e-12
25.5903 486.458 4.79764e-13
-2.02445e-12 4.79764e-13 488.509

465.55 -10.3077 -9.88246e-13
-10.3077 408.076 2.7424e-12
-9.88246e-13 2.7424e-12 427.215

400.857 -32.8326 -2.32703e-13
-32.8326 414.948 5.13841e-12
-2.32703e-13 5.13841e-12 385.159

518.09 -2.30057 1.51272e-12
-2.30057 465.732 2.36818e-12
1.51272e-12 2.36818e-12 500.921

391.865 -34.5073 1.93623e-12
-34.5073 379.6 -4.42668e-12
1.93623e-12 -4.42668e-12 347.411

477.995 19.0861 2.85268e-12
19.0861 509.195 9.36732e-13
2.85268e-12 9.36732e-13 501.84

506.107 -26.4786 1.78879e-12
-26.4786 470.242 3.0731e-12
1.78879e-12 3.0731e-12 487.268

424.994 -9.69 2.6148e-12
-9.69 366.725 8.44066e-13
2.6148e-12 8.44066e-13 355.976

530.262 -23.1918 -4.19812e-12
-23.1918 488.753 -5.82645e-13
-4.19812e-12 -5.82645e-13 506.485

500.887 2.35825 5.42825e-13
2.35825 444.571 5.76576e-13
5.42825e-13 5.76576e-13 489.2

521.187 -23.3213 3.34666e-12
-23.3213 501.838 -1.80596e-14
3.34666e-12 -1.80596e-14 508.53

502.011 -25.8593 8.8806e-12
-25.8593 461.487 -1.11111e-12
8.8806e-12 -1.11111e-12 481.239

498.822 -8.54598 -6.15508e-13
-8.54598 445.131 -3.60068e-12
-6.15508e-13 -3.60068e-12 479.34

482.215 -23.0681 1.70767e-12
-23.0681 504.988 -2.05069e-12
1.70767e-12 -2.05069e-12 502.531

428.534 -31.3412 -8.68046e-13
-31.3412 410.583 -7.66143e-12
-8.68046e-13 -7.66143e-12 398.992

503.263 -24.587 4.36096e-12
-24.587 464.709 -4.13891e-12
4.36096e-12 -4.13891e-12 482.155

441.235 10.8642 -4.43852e-12
10.8642 378.476 3.59801e-12
-4.43852e-12 3.59801e-12 387.793

500.033 26.3401 1.44329e-12
26.3401 498.58 -8.79593e-13
1.44329e-12 -8.79593e-13 500.101

463.745 -37.6131 2.58134e-12
-37.6131 488.384 -2.56469e-12
2.58134e-12 -2.56469e-12 494.078

464.853 37.2654 -1.41753e-12
37.2654 487.296 -5.94783e-13
-1.41753e-12 -5.94783e-13 493.793

446.321 -28.5735 3.17124e-12
-28.5735 500.01 -3.31705e-12
3.17124e-12 -3.31705e-12 492.307

448.556 27.0642 7.13059e-13
27.0642 500.701 5.32345e-12
7.13059e-13 5.32345e-12 492.495

513.065 -8.5277 1.15019e-12
-8.5277 436.4 1.36483e-13
1.15019e-12 1.36483e-13 492.755

511.227 9.27372 6.44521e-13
9.27372 437.997 9.41469e-13
6.44521e-13 9.41469e-13 492.393

501.651 -9.84604 -6.45706e-13
-9.84604 451.738 -3.1483e-12
-6.45706e-13 -3.1483e-12 483.016

510.861 32.1164 1.90366e-12
32.1164 510.386 -2.33701e-12
1.90366e-12 -2.33701e-12 514.051

509.637 -32.8544 2.13015e-12
-32.8544 510.064 2.42218e-12
2.13015e-12 2.42218e-12 513.69

481.806 16.0686 2.9489e-12
16.0686 539.128 1.34589e-12
2.9489e-12 1.34589e-12 514.323

482.999 -15.801 5.07609e-12
-15.801 538.718 -2.06946e-13
5.07609e-12 -2.06946e-13 514.344

556.867 -3.74743 2.3482e-12
-3.74743 506.829 -3.21076e-12
2.3482e-12 -3.21076e-12 524.989

558.421 3.61021 1.56393e-12
3.61021 505.154 -4.37694e-12
1.56393e-12 -4.37694e-12 525.361

387.303 9.83667 -3.26605e-12
9.83667 449.19 -1.63899e-12
-3.26605e-12 -1.63899e-12 397.081

472.382 -24.7739 2.0283e-12
-24.7739 480.748 2.30112e-12
2.0283e-12 2.30112e-12 484.971

443.455 -36.3877 -2.71664e-12
-36.3877 485.526 2.12082e-12
-2.71664e-12 2.12082e-12 486.622

473.634 -4.66423 -5.08038e-12
-4.66423 420.43 5.48857e-12
-5.08038e-12 5.48857e-12 436.332

540.25 -16.6949 2.19084e-13
-16.6949 484.188 -7.98768e-13
2.19084e-13 -7.98768e-13 515.284

540.97 16.1759 -8.47174e-13
16.1759 485.411 1.59191e-12
-8.47174e-13 1.59191e-12 515.89

506.855 0.121884 6.70279e-13
0.121884 423.544 4.70714e-13
6.70279e-13 4.70714e-13 486.996

384.786 23.3747 6.21932e-12
23.3747 432.29 5.40012e-13
6.21932e-12 5.40012e-13 385.47

442.326 36.1717 2.03459e-12
36.1717 485.204 2.62013e-13
2.03459e-12 2.62013e-13 485.827

452.59 -23.3957 8.19937e-13
-23.3957 494.947 -3.61785e-12
8.19937e-13 -3.61785e-12 483.585

443.241 23.3523 8.08834e-13
23.3523 397.512 1.0593e-12
8.08834e-13 1.0593e-12 400.367

530.965 23.8581 -1.03029e-13
23.8581 488.003 -3.4639e-13
-1.03029e-13 -3.4639e-13 507.243

428.472 -31.313 -2.20268e-12
-31.313 410.867 -5.33795e-12
-2.20268e-12 -5.33795e-12 398.811

519.854 -3.23084 -5.59256e-13
-3.23084 469.053 4.76508e-12
-5.59256e-13 4.76508e-12 502.681

439.389 -34.1611 1.89012e-12
-34.1611 485.497 -3.4639e-12
1.89012e-12 -3.4639e-12 485.816

389.177 8.3198 -6.54643e-13
8.3198 452.32 2.66454e-13
-6.54643e-13 2.66454e-13 400.849

385.873 21.8111 1.02141e-13
21.8111 435.766 2.20505e-12
1.02141e-13 2.20505e-12 388.688

383.841 35.7751 1.51582e-13
35.7751 362.325 -2.56861e-12
1.51582e-13 -2.56861e-12 318.322

408.175 1.57872 3.50061e-12
1.57872 332.15 -3.09197e-12
3.50061e-12 -3.09197e-12 327.319

485.449 -22.8044 -4.23365e-13
-22.8044 502.852 4.47318e-12
-4.23365e-13 4.47318e-12 501.743

351.872 31.1833 1.41516e-12
31.1833 388.824 -8.0765e-13
1.41516e-12 -8.0765e-13 312.352

451.342 23.6097 3.67972e-12
23.6097 478.405 6.05619e-12
3.67972e-12 6.05619e-12 465.206

442.189 -5.34944 -2.7948e-13
-5.34944 377.12 1.2775e-13
-2.7948e-13 1.2775e-13 387.731

464.148 11.2159 1.33582e-12
11.2159 407.292 4.28191e-12
1.33582e-12 4.28191e-12 424.915

505.371 0.429907 1.76762e-12
0.429907 421.564 1.30749e-12
1.76762e-12 1.30749e-12 485.667

449.342 -29.0312 -2.81397e-12
-29.0312 501.99 -8.91435e-13
-2.81397e-12 -8.91435e-13 493.581

572.506 -6.31907 -9.48182e-12
-6.31907 589.479 1.27987e-12
-9.48182e-12 1.27987e-12 549.248

463.132 37.4118 -8.96764e-13
37.4118 487.019 3.96524e-12
-8.96764e-13 3.96524e-12 493.057

408.731 1.66326 -2.28558e-12
1.66326 331.597 -8.11573e-13
-2.28558e-12 -8.11573e-13 308.898

404.227 -32.7863 -4.25319e-12
-32.7863 415.501 1.21207e-12
-4.25319e-12 1.21207e-12 387.383

443.132 36.6132 1.88301e-12
36.6132 485.497 -3.18664e-12
1.88301e-12 -3.18664e-12 486.564

444.672 -11.1338 2.31115e-12
-11.1338 498.927 1.05456e-12
2.31115e-12 1.05456e-12 471.434

386.066 -25.514 -5.50463e-12
-25.514 428.893 3.55271e-12
-5.50463e-12 3.55271e-12 384.557

449.442 28.8302 -2.48386e-12
28.8302 501.623 4.78995e-12
-2.48386e-12 4.78995e-12 493.281

452.703 -26.1414 -1.16647e-12
-26.1414 419.295 -5.57184e-12
-1.16647e-12 -5.57184e-12 419.51

579.548 10.4834 1.27246e-12
10.4834 582.16 -1.13298e-11
1.27246e-12 -1.13298e-11 549.033

398.321 30.8713 -7.83433e-12
30.8713 422.051 6.98108e-12
-7.83433e-12 6.98108e-12 388.156

515.699 8.12679 1.3823e-12
8.12679 437.26 1.56571e-12
1.3823e-12 1.56571e-12 494.574

493.798 30.1905 1.4803e-15
30.1905 484.74 2.57246e-12
1.4803e-15 2.57246e-12 493.795

453.457 23.3317 -4.07718e-12
23.3317 479.155 -4.53504e-12
-4.07718e-12 -4.53504e-12 475.791

510.695 -32.4891 -1.68251e-12
-32.4891 512.446 -2.49217e-12
-1.68251e-12 -2.49217e-12 515

510.301 -23.1899 4.71741e-12
-23.1899 473.174 -1.05989e-12
4.71741e-12 -1.05989e-12 489.67

511.396 10.4709 3.10999e-12
10.4709 557.986 1.97886e-12
3.10999e-12 1.97886e-12 523.725

452.165 -23.4335 -3.75107e-13
-23.4335 480.158 4.2224e-12
-3.75107e-13 4.2224e-12 468.943

394.403 -9.70759 4.98801e-12
-9.70759 316.408 3.41209e-14
4.98801e-12 3.41209e-14 295.57

387.283 -14.2769 5.7554e-13
-14.2769 306.054 1.80833e-12
5.7554e-13 1.80833e-12 290.044

547.578 16.5292 8.4525e-13
16.5292 507.757 5.68434e-14
8.4525e-13 5.68434e-14 519.313

436.479 22.5013 2.42917e-12
22.5013 469.128 -2.71783e-13
2.42917e-12 -2.71783e-13 447.816

475.955 29.1628 -6.0029e-12
29.1628 467.638 -5.52447e-13
-6.0029e-12 -5.52447e-13 471.471

450.293 0.68866 6.92779e-13
0.68866 392.77 -5.30863e-12
6.92779e-13 -5.30863e-12 395.667

478.344 6.57127 -1.49718e-12
6.57127 541.271 2.23762e-12
-1.49718e-12 2.23762e-12 507.533

507.323 16.5408 -2.28321e-12
16.5408 461.128 -2.04518e-12
-2.28321e-12 -2.04518e-12 488.072

389.97 -25.7605 1.51938e-12
-25.7605 430.028 2.71664e-12
1.51938e-12 2.71664e-12 387.726

456.311 -2.57247 2.76623e-12
-2.57247 517.006 2.01261e-12
2.76623e-12 2.01261e-12 484.833

400.582 13.3649 6.26847e-12
13.3649 452.977 -3.74693e-12
6.26847e-12 -3.74693e-12 404.628

486.905 -29.713 -3.92634e-12
-29.713 465.806 -1.28519e-12
-3.92634e-12 -1.28519e-12 474.251

430.29 -29.9468 7.87518e-13
-29.9468 423.621 4.20937e-12
7.87518e-13 4.20937e-12 404.947

399.703 31.6221 -1.76215e-12
31.6221 418.224 -1.53892e-12
-1.76215e-12 -1.53892e-12 385.995

623.998 -15.0202 6.3259e-12
-15.0202 581.944 5.83807e-12
6.3259e-12 5.83807e-12 557.899

494.515 2.04121 1.98093e-12
2.04121 552.136 6.28238e-13
1.98093e-12 6.28238e-13 517.918

483.494 20.3002 5.02206e-12
20.3002 542.035 4.76389e-12
5.02206e-12 4.76389e-12 516.023

544.699 15.4392 -2.74269e-12
15.4392 479.963 -9.25186e-13
-2.74269e-12 -9.25186e-13 515.746

473.74 -26.1884 3.55271e-13
-26.1884 479.748 5.51559e-13
3.55271e-13 5.51559e-13 483.009

452.116 17.9569 1.75978e-12
17.9569 404.5 2.80428e-12
1.75978e-12 2.80428e-12 406.91

531.574 -5.29422 8.67926e-13
-5.29422 580.795 1.31776e-12
8.67926e-13 1.31776e-12 537.111

512.179 -18.9882 -2.47032e-12
-18.9882 464.785 6.18468e-13
-2.47032e-12 6.18468e-13 493.02

473.967 -15.5986 -6.41146e-12
-15.5986 423.168 -1.20274e-12
-6.41146e-12 -1.20274e-12 438.872

401.992 11.6029 1.48859e-12
11.6029 455.949 -2.50466e-12
1.48859e-12 -2.50466e-12 407.772

410.915 -25.7336 -1.95162e-12
-25.7336 435.573 5.29828e-12
-1.95162e-12 5.29828e-12 398.948

532.042 -25.2738 -2.83507e-12
-25.2738 523.186 -8.5798e-13
-2.83507e-12 -8.5798e-13 519.111

423.048 31.9588 1.83202e-12
31.9588 417.241 -2.74447e-12
1.83202e-12 -2.74447e-12 400.297

535.475 -25.1348 -1.61796e-12
-25.1348 505.781 -2.08248e-12
-1.61796e-12 -2.08248e-12 515.652

453.485 2.59732 -7.60281e-13
2.59732 397.012 -1.21029e-12
-7.60281e-13 -1.21029e-12 401.89

311.094 -28.9299 -7.32688e-12
-28.9299 376.59 1.04213e-13
-7.32688e-12 1.04213e-13 289.99

431.868 -29.2303 2.4265e-12
-29.2303 424.04 1.18424e-12
2.4265e-12 1.18424e-12 406.146

353.755 32.1582 -4.09273e-12
32.1582 392.537 5.41197e-12
-4.09273e-12 5.41197e-12 312.963

470.339 -11.877 -5.04915e-12
-11.877 529.544 -4.358e-13
-5.04915e-12 -4.358e-13 500.296

391.443 -13.821 2.82322e-12
-13.821 449.245 1.04923e-12
2.82322e-12 1.04923e-12 400.191

602.85 -23.9884 -1.67807e-12
-23.9884 602.264 6.23353e-13
-1.67807e-12 6.23353e-13 557.839

408.364 23.7702 -3.44199e-12
23.7702 441.931 1.03266e-12
-3.44199e-12 1.03266e-12 402.215

496.57 -32.7262 -3.73864e-12
-32.7262 490.633 -1.95458e-12
-3.73864e-12 -1.95458e-12 497.439

388.182 -11.9628 1.99544e-12
-11.9628 448.277 5.89158e-12
1.99544e-12 5.89158e-12 397.008

516.703 -19.1169 -5.87915e-12
-19.1169 465.746 2.67667e-12
-5.87915e-12 2.67667e-12 496.236

410.679 23.8765 -2.09729e-12
23.8765 439.304 8.98837e-13
-2.09729e-12 8.98837e-13 400.691

488.912 -4.97544 1.79945e-12
-4.97544 435.063 1.57581e-12
1.79945e-12 1.57581e-12 460.375

305.777 -30.3422 -7.86334e-13
-30.3422 391.432 1.24345e-12
-7.86334e-13 1.24345e-12 262.565

438.602 21.0137 3.23711e-12
21.0137 473.905 4.93176e-12
3.23711e-12 4.93176e-12 458.341

445.68 -19.3228 2.49164e-12
-19.3228 393.971 9.72555e-13
2.49164e-12 9.72555e-13 399.617

551.599 -21.4459 2.80072e-13
-21.4459 499.511 -2.92566e-12
2.80072e-13 -2.92566e-12 520.098

424.464 31.7533 8.76336e-14
31.7533 413.317 -6.38363e-12
8.76336e-14 -6.38363e-12 397.954

459.156 -29.9712 -3.4414e-12
-29.9712 437.632 -4.0347e-12
-3.4414e-12 -4.0347e-12 439.294

510.614 20.8851 -1.89656e-12
20.8851 476.068 -1.70086e-12
-1.89656e-12 -1.70086e-12 492.751

461.499 -28.0758 4.02967e-12
-28.0758 485.735 -1.84475e-12
4.02967e-12 -1.84475e-12 488.713

413.715 -26.2246 -1.53063e-12
-26.2246 436.239 5.39539e-12
-1.53063e-12 5.39539e-12 401.434

426.07 28.9804 -5.92711e-12
28.9804 429.893 5.43328e-12
-5.92711e-12 5.43328e-12 406.857

452.496 26.1908 -6.11185e-12
26.1908 418.223 -3.25843e-12
-6.11185e-12 -3.25843e-12 419.054

521.966 -14.6098 -6.21755e-12
-14.6098 477.174 9.33179e-13
-6.21755e-12 9.33179e-13 500.06

403.557 -16.6172 1.41339e-12
-16.6172 451.738 3.19271e-12
1.41339e-12 3.19271e-12 406.439

496.042 -17.5681 1.79353e-12
-17.5681 447.603 -3.77357e-12
1.79353e-12 -3.77357e-12 471.497

487.76 16.9082 2.4869e-13
16.9082 436.255 -2.92892e-12
2.4869e-13 -2.92892e-12 460.585

513.34 -9.387 2.60532e-14
-9.387 555.775 -2.72967e-13
2.60532e-14 -2.72967e-13 523.026

453.974 -13.4297 1.15937e-12
-13.4297 402.175 2.08278e-13
1.15937e-12 2.08278e-13 406.739

403.198 0.593992 -4.54259e-12
0.593992 465.721 -7.1528e-13
-4.54259e-12 -7.1528e-13 417.801

475.022 18.5547 -3.15777e-12
18.5547 428.768 -8.565e-13
-3.15777e-12 -8.565e-13 442.217

451.138 27.6034 -1.1724e-13
27.6034 421.835 -3.24126e-12
-1.1724e-13 -3.24126e-12 420.84

400.865 -15.6857 -9.92095e-13
-15.6857 451.378 4.11049e-12
-9.92095e-13 4.11049e-12 403.733

405.997 -1.2023 -8.5428e-13
-1.2023 468.03 -1.88886e-12
-8.5428e-13 -1.88886e-12 421.216

516.196 29.1343 -1.96583e-13
29.1343 498.023 -2.02209e-13
-1.96583e-13 -2.02209e-13 504.873

441.701 -10.9219 3.18516e-12
-10.9219 500.654 2.93395e-12
3.18516e-12 2.93395e-12 471.145

451.436 -26.7147 1.33523e-12
-26.7147 418.763 -2.63256e-12
1.33523e-12 -2.63256e-12 419.349

444.383 21.3321 -2.25716e-12
21.3321 395.295 6.0704e-12
-2.25716e-12 6.0704e-12 398.198

497.591 23.6651 5.12479e-12
23.6651 458.087 -8.10907e-13
5.12479e-12 -8.10907e-13 476.547

447.679 5.47064 3.42852e-12
5.47064 508.787 -3.05829e-12
3.42852e-12 -3.05829e-12 476.878

427.646 29.0649 -3.01152e-12
29.0649 426.431 -1.57622e-12
-3.01152e-12 -1.57622e-12 405.107

536.819 22.9638 2.14998e-12
22.9638 531.896 4.17784e-12
2.14998e-12 4.17784e-12 522.782

314.748 -59.6907 -1.84031e-12
-59.6907 282.767 7.22622e-12
-1.84031e-12 7.22622e-12 223.422

480.591 -25.0473 -1.03384e-12
-25.0473 445.069 -3.86032e-12
-1.03384e-12 -3.86032e-12 456.643

336.661 7.06976 1.80804e-12
7.06976 409.152 -1.7953e-12
1.80804e-12 -1.7953e-12 319.438

460.535 -28.8887 -1.11496e-12
-28.8887 444.733 2.95467e-13
-1.11496e-12 2.95467e-13 443.449

96.4234 -52.7006 5.92119e-15
-52.7006 306.616 2.68111e-12
5.92119e-15 2.68111e-12 113.699

95.9573 51.4513 -2.65506e-12
51.4513 306.881 -4.59011e-12
-2.65506e-12 -4.59011e-12 114.487

181.516 117.153 -3.77061e-12
117.153 226.075 1.7953e-12
-3.77061e-12 1.7953e-12 113.587

182.814 -117.096 2.75691e-12
-117.096 223.311 -1.36898e-12
2.75691e-12 -1.36898e-12 113.561

321.581 -1.36335 9.00021e-14
-1.36335 84.653 3.19721e-14
9.00021e-14 3.19721e-14 114.928

274.432 -91.1248 -3.68061e-12
-91.1248 127.417 3.64272e-12
-3.68061e-12 3.64272e-12 113.801

275.128 91.6527 6.12014e-12
91.6527 128.25 2.80428e-12
6.12014e-12 2.80428e-12 114.572

525.238 14.3301 6.08343e-12
14.3301 474.709 1.40421e-12
6.08343e-12 1.40421e-12 502.312

556.795 25.5367 2.95112e-12
25.5367 541.182 -1.60183e-12
2.95112e-12 -1.60183e-12 533.448

492.089 6.60593 5.875e-12
6.60593 439.118 -8.02469e-13
5.875e-12 -8.02469e-13 471.399

470.296 21.7842 2.08426e-13
21.7842 424.514 -2.62723e-12
2.08426e-13 -2.62723e-12 438.191

409.972 17.7441 1.45143e-12
17.7441 461.069 -4.43083e-12
1.45143e-12 -4.43083e-12 425.04

448.007 28.8979 -1.8557e-12
28.8979 424.702 -3.39935e-12
-1.8557e-12 -3.39935e-12 420.747

487.146 -29.6631 -3.27323e-12
-29.6631 465.624 -1.63395e-12
-3.27323e-12 -1.63395e-12 474.587

449.364 28.0273 -5.76013e-12
28.0273 421.068 -5.32907e-12
-5.76013e-12 -5.32907e-12 418.639

402.961 -2.84117 -1.88323e-12
-2.84117 465.377 -1.12976e-12
-1.88323e-12 -1.12976e-12 417.537

555.802 -26.0975 1.77932e-13
-26.0975 543.375 6.07514e-13
1.77932e-13 6.07514e-13 533.692

405.498 -4.86227 1.08358e-12
-4.86227 467.116 -3.95062e-12
1.08358e-12 -3.95062e-12 420.596

522.29 23.016 -5.02117e-13
23.016 499.74 1.78479e-12
-5.02117e-13 1.78479e-12 507.967

423.374 26.8701 -1.01371e-12
26.8701 386.504 5.02176e-12
-1.01371e-12 5.02176e-12 373.024

480.106 -13.216 1.02821e-12
-13.216 532.766 -9.55384e-13
1.02821e-12 -9.55384e-13 511.998

484.194 13.7277 -3.77594e-12
13.7277 432.773 9.89135e-13
-3.77594e-12 9.89135e-13 456.872

457.365 -29.9872 -3.9968e-13
-29.9872 436.973 3.04675e-12
-3.9968e-13 3.04675e-12 437.83

454.305 -24.7131 4.74406e-12
-24.7131 416.801 -4.08888e-12
4.74406e-12 -4.08888e-12 419.85

547.403 -16.0745 -1.83883e-12
-16.0745 509.303 -1.85215e-12
-1.83883e-12 -1.85215e-12 519.382

475.969 27.9286 -3.26376e-12
27.9286 449.703 1.35891e-12
-3.26376e-12 1.35891e-12 456.922

469.097 23.9771 -5.18104e-13
23.9771 427.846 -2.45818e-12
-5.18104e-13 -2.45818e-12 439.827

432.426 -2.79295 -1.63528e-12
-2.79295 493.633 7.41333e-13
-1.63528e-12 7.41333e-13 457.104

417.604 5.87329 1.37281e-13
5.87329 479.554 7.79229e-13
1.37281e-13 7.79229e-13 440.174

463.007 2.64666 3.58646e-12
2.64666 402.277 -7.74566e-13
3.58646e-12 -7.74566e-13 422.318

438.644 -7.28951 2.61006e-12
-7.28951 373.912 7.84365e-12
2.61006e-12 7.84365e-12 381.215

454.84 30.4842 -1.01844e-12
30.4842 439.012 9.6397e-13
-1.01844e-12 9.6397e-13 437.834

478.462 -26.155 -4.9513e-12
-26.155 443.54 6.25811e-12
-4.9513e-12 6.25811e-12 454.643

525.698 -21.2543 -1.90544e-12
-21.2543 497.827 -1.19904e-12
-1.90544e-12 -1.19904e-12 508.616

437.73 -31.6331 4.72925e-12
-31.6331 437.652 6.52515e-13
4.72925e-12 6.52515e-13 426.856

417.587 -27.785 2.73322e-12
-27.785 444.392 -1.01608e-12
2.73322e-12 -1.01608e-12 419.685

430.644 29.8866 -7.04918e-12
29.8866 442.741 2.71013e-12
-7.04918e-12 2.71013e-12 426.494

416.222 -9.57778 -5.87941e-12
-9.57778 475.208 1.32871e-12
-5.87941e-12 1.32871e-12 436.452

428.892 -1.54473 -4.09746e-12
-1.54473 491.865 -2.99731e-12
-4.09746e-12 -2.99731e-12 453.991

445.179 5.74796 -3.39956e-12
5.74796 508.04 -3.12816e-12
-3.39956e-12 -3.12816e-12 474.911

414.616 -21.0887 -8.04394e-13
-21.0887 458.404 -5.82053e-13
-8.04394e-13 -5.82053e-13 426.062

496.866 24.1109 2.36078e-12
24.1109 455.693 1.17388e-12
2.36078e-12 1.17388e-12 474.59

483.369 -9.58962 4.84945e-13
-9.58962 430.109 1.42597e-12
4.84945e-13 1.42597e-12 455.217

415.631 7.46518 1.09768e-12
7.46518 477.117 5.3948e-12
1.09768e-12 5.3948e-12 436.91

443.952 -9.70105 -4.97434e-12
-9.70105 501.5 -2.77112e-13
-4.97434e-12 -2.77112e-13 471.004

433.171 -16.3305 5.43536e-12
-16.3305 481.672 -1.09187e-12
5.43536e-12 -1.09187e-12 455.665

463.536 -8.23908 -5.40131e-12
-8.23908 406.332 -2.10913e-12
-5.40131e-12 -2.10913e-12 421.468

494.431 -32.3468 1.77428e-12
-32.3468 487.613 2.71042e-12
1.77428e-12 2.71042e-12 496.248

422.941 9.32069 1.88694e-12
9.32069 479.088 3.54738e-12
1.88694e-12 3.54738e-12 440.977

564.357 -18.2126 3.10566e-13
-18.2126 529.95 8.51467e-13
3.10566e-13 8.51467e-13 531.829

309.047 24.8223 -8.82257e-13
24.8223 379.42 2.68585e-12
-8.82257e-13 2.68585e-12 289.796

501.696 -26.6261 6.82713e-13
-26.6261 499.488 2.41984e-12
6.82713e-13 2.41984e-12 501.197

515.647 -30.2028 7.69755e-13
-30.2028 498.402 -2.64648e-12
7.69755e-13 -2.64648e-12 504.916

429.22 -0.70132 3.67958e-12
-0.70132 491.99 -3.24777e-12
3.67958e-12 -3.24777e-12 454.142

474.878 -16.6224 -2.89724e-12
-16.6224 428.334 -4.40833e-13
-2.89724e-12 -4.40833e-13 441.953

462.303 12.8416 2.45109e-12
12.8416 511.272 -3.04941e-13
2.45109e-12 -3.04941e-13 489.119

240.775 -3.18046 -5.42677e-12
-3.18046 360.685 -1.84031e-12
-5.42677e-12 -1.84031e-12 226.964

432.401 14.2735 -1.59458e-12
14.2735 485.353 5.3942e-12
-1.59458e-12 5.3942e-12 456.88

458.109 -29.4888 -5.36874e-12
-29.4888 443.167 8.49691e-13
-5.36874e-12 8.49691e-13 440.759

304.185 25.1054 1.83853e-12
25.1054 394.582 4.63984e-12
1.83853e-12 4.63984e-12 264.339

603.55 26.0983 -9.7374e-13
26.0983 597.956 2.79332e-13
-9.7374e-13 2.79332e-13 558.156

608.284 -27.8076 1.44446e-11
-27.8076 595.03 -1.72191e-11
1.44446e-11 -1.72191e-11 558.29

463.491 -30.4188 1.20733e-12
-30.4188 459.036 2.79895e-12
1.20733e-12 2.79895e-12 459.07

434.582 -31.1598 2.87415e-12
-31.1598 436.357 1.65201e-13
2.87415e-12 1.65201e-13 424.66

474.098 20.8273 -2.69888e-12
20.8273 431.913 -6.15093e-12
-2.69888e-12 -6.15093e-12 443.97

465.219 15.0059 4.26444e-12
15.0059 410.114 1.06996e-12
4.26444e-12 1.06996e-12 427.461

646.07 3.0837 -2.91315e-12
3.0837 645.728 -5.49264e-13
-2.91315e-12 -5.49264e-13 574.619

649.891 -7.00035 1.09749e-12
-7.00035 641.398 1.05193e-11
1.09749e-12 1.05193e-11 575.147

496.985 4.82431 2.05939e-12
4.82431 442.032 6.52426e-12
2.05939e-12 6.52426e-12 477.41

443.555 6.73089 5.56666e-13
6.73089 502.986 1.74379e-12
5.56666e-13 1.74379e-12 471.048

441.97 6.73631 4.46895e-12
6.73631 502.512 1.32753e-12
4.46895e-12 1.32753e-12 469.771

321.534 58.6336 7.14806e-12
58.6336 281.121 -1.76215e-12
7.14806e-12 -1.76215e-12 225.075

420.226 -28.1994 2.08011e-12
-28.1994 444.021 3.06007e-12
2.08011e-12 3.06007e-12 421.029

520.576 17.9745 6.4313e-12
17.9745 467.528 2.36759e-12
6.4313e-12 2.36759e-12 499.507

472.977 9.53966 1.29556e-12
9.53966 421.195 -1.6116e-12
1.29556e-12 -1.6116e-12 436.2

440.627 -26.723 1.67866e-12
-26.723 450.723 -3.70785e-12
1.67866e-12 -3.70785e-12 433.413

469.274 -20.2374 -2.90908e-12
-20.2374 422.714 -2.53812e-12
-2.90908e-12 -2.53812e-12 437.174

312.471 60.2315 -3.56456e-12
60.2315 281.371 3.61666e-12
-3.56456e-12 3.61666e-12 223.214

492.679 31.069 -2.39808e-14
31.069 489.041 -2.83684e-12
-2.39808e-14 -2.83684e-12 493.136

410.861 -19.7858 -6.03961e-13
-19.7858 457.879 7.25346e-13
-6.03961e-13 7.25346e-13 423.495

474.126 28.8574 -4.3876e-13
28.8574 449.629 4.39293e-12
-4.3876e-13 4.39293e-12 456.516

430.954 -4.14475 2.40682e-12
-4.14475 492.97 1.55254e-12
2.40682e-12 1.55254e-12 456.465

423.928 19.6089 -1.34648e-12
19.6089 465.709 3.19152e-13
-1.34648e-12 3.19152e-13 434.106

452.745 30.5184 6.76437e-12
30.5184 443.596 4.87492e-12
6.76437e-12 4.87492e-12 439.606

428.641 -22.4729 -1.56556e-12
-22.4729 461.134 9.59825e-13
-1.56556e-12 9.59825e-13 433.81

443.572 -27.3522 3.38396e-12
-27.3522 450.43 -1.60938e-12
3.38396e-12 -1.60938e-12 435.043

294.777 11.2568 1.55698e-12
11.2568 372.583 6.28593e-12
1.55698e-12 6.28593e-12 258.1

357.296 -33.4558 8.1144e-12
-33.4558 389.115 5.80277e-13
8.1144e-12 5.80277e-13 314.127

419.656 -11.6904 -1.55106e-12
-11.6904 476.358 -1.893e-12
-1.55106e-12 -1.893e-12 439.343

478.395 26.4843 6.35936e-13
26.4843 446.797 2.74329e-12
6.35936e-13 2.74329e-12 456.082

452.342 29.4776 7.24043e-12
29.4776 449.024 1.60168e-12
7.24043e-12 1.60168e-12 442.397

426.806 -21.4336 2.45167e-12
-21.4336 461.781 -2.63789e-12
2.45167e-12 -2.63789e-12 432.628

422.928 -11.7822 2.45433e-12
-11.7822 476.645 8.68638e-13
2.45433e-12 8.68638e-13 439.926

457.704 28.4092 -2.66098e-12
28.4092 447.085 -4.1922e-13
-2.66098e-12 -4.1922e-13 442.569

425.103 -13.8776 -3.28389e-12
-13.8776 476.416 -3.7487e-12
-3.28389e-12 -3.7487e-12 442.103

311.263 27.8546 9.6397e-13
27.8546 377.389 -7.09832e-12
9.6397e-13 -7.09832e-12 289.982

485.168 -4.04134 -7.12259e-13
-4.04134 545.048 6.63765e-13
-7.12259e-13 6.63765e-13 511.035

432.983 31.0272 -3.96128e-12
31.0272 439.626 -3.31587e-14
-3.96128e-12 -3.31587e-14 426.017

509.308 14.9011 -4.80386e-12
14.9011 463.16 2.11179e-12
-4.80386e-12 2.11179e-12 488.603

516.919 -15.9274 -5.05077e-12
-15.9274 467.58 -6.94259e-13
-5.05077e-12 -6.94259e-13 493.921

383.923 -24.2042 1.80952e-12
-24.2042 305.946 -1.26121e-12
1.80952e-12 -1.26121e-12 285.353

442.276 -21.267 8.5798e-13
-21.267 475.997 9.10679e-13
8.5798e-13 9.10679e-13 459.318

447.825 26.698 -2.54315e-13
26.698 466.204 1.98478e-12
-2.54315e-13 1.98478e-12 457.839

522.973 -21.7279 5.5896e-13
-21.7279 543.81 5.04663e-12
5.5896e-13 5.04663e-12 525.307

579.583 14.1069 -3.10537e-12
14.1069 617.62 4.9661e-12
-3.10537e-12 4.9661e-12 557.051

620.207 9.44535 -6.92305e-12
9.44535 576.841 1.95222e-12
-6.92305e-12 1.95222e-12 556.87

523.468 32.7056 -4.12825e-12
32.7056 520.65 1.26861e-13
-4.12825e-12 1.26861e-13 519.523

414.889 26 -3.45205e-12
26 448.903 -6.64357e-13
-3.45205e-12 -6.64357e-13 420.374

478.093 26.6613 2.63256e-12
26.6613 444.767 9.05942e-13
2.63256e-12 9.05942e-13 455.505

332.361 45.1854 -1.27779e-12
45.1854 349.487 -7.12793e-12
-1.27779e-12 -7.12793e-12 286.738

571.39 -11.3439 -2.6071e-12
-11.3439 614.471 3.01981e-12
-2.6071e-12 3.01981e-12 554.594

641.327 -3.43304 -3.16447e-12
-3.43304 636.87 1.16384e-11
-3.16447e-12 1.16384e-11 572.395

634.904 -0.210127 -4.6918e-12
-0.210127 643.177 4.87166e-13
-4.6918e-12 4.87166e-13 572.222

272.962 -53.802 -2.20387e-12
-53.802 316.445 1.02318e-12
-2.20387e-12 1.02318e-12 220.908

566.637 -11.6001 -5.06336e-12
-11.6001 562.124 -6.35107e-12
-5.06336e-12 -6.35107e-12 540.896

563.771 8.81314 7.58726e-13
8.81314 586.961 -3.23297e-13
7.58726e-13 -3.23297e-13 546.838

478.241 -26.1993 -7.07227e-12
-26.1993 440.439 6.49851e-13
-7.07227e-12 6.49851e-13 453.479

494.347 1.01115 -2.95293e-12
1.01115 545.757 -1.79175e-12
-2.95293e-12 -1.79175e-12 514.055

447.648 -20.2677 5.81017e-13
-20.2677 484.155 -4.91932e-12
5.81017e-13 -4.91932e-12 470.634

506.298 6.25531 8.37256e-13
6.25531 443.371 1.34396e-12
8.37256e-13 1.34396e-12 486.122

461.272 15.5963 -1.57035e-12
15.5963 521.25 -1.52471e-12
-1.57035e-12 -1.52471e-12 497.554

471.179 7.19166 -6.88153e-13
7.19166 528.003 -5.70507e-12
-6.88153e-13 -5.70507e-12 497.688

493.76 20.3926 -2.2915e-13
20.3926 451.515 1.90692e-12
-2.2915e-13 1.90692e-12 469.748

241.064 -3.1139 -5.27023e-12
-3.1139 358.558 6.44225e-12
-5.27023e-12 6.44225e-12 227.062

463.697 -27.6234 4.06786e-12
-27.6234 463.388 1.79412e-12
4.06786e-12 1.79412e-12 461.188

488.342 -26.1161 2.17308e-12
-26.1161 481.595 -2.8478e-12
2.17308e-12 -2.8478e-12 485.866

497.535 -31.4837 -4.22418e-12
-31.4837 489.955 4.46517e-12
-4.22418e-12 4.46517e-12 498.978

355.597 32.7492 -6.41383e-12
32.7492 285.777 -2.74536e-12
-6.41383e-12 -2.74536e-12 248.365

563.88 -20.1166 -2.66128e-12
-20.1166 569.613 5.24551e-12
-2.66128e-12 5.24551e-12 542.569

337.645 54.3217 3.6285e-12
54.3217 356.655 5.44986e-12
3.6285e-12 5.44986e-12 258.873

477.069 -21.4396 1.90322e-12
-21.4396 506.487 -2.9079e-12
1.90322e-12 -2.9079e-12 500.241

504.769 14.6503 4.08088e-12
14.6503 451.984 -2.71679e-12
4.08088e-12 -2.71679e-12 481.557

449.827 -14.5723 5.17512e-12
-14.5723 396.984 2.6669e-12
5.17512e-12 2.6669e-12 400.837

452.59 24.0465 1.59428e-12
24.0465 478.776 2.58519e-12
1.59428e-12 2.58519e-12 467.845

493.663 20.4279 1.25056e-12
20.4279 449.498 3.57462e-12
1.25056e-12 3.57462e-12 469.339

505.564 11.4007 2.23725e-12
11.4007 564.414 -2.78059e-12
2.23725e-12 -2.78059e-12 526.709

475.893 -31.58 -1.63958e-12
-31.58 470.353 -1.23605e-12
-1.63958e-12 -1.23605e-12 475.061

559.268 19.8124 -5.07772e-12
19.8124 510.438 9.8795e-13
-5.07772e-12 9.8795e-13 526.485

439.955 -18.4433 -3.76321e-12
-18.4433 482.461 -8.76928e-13
-3.76321e-12 -8.76928e-13 459.146

465.895 4.2831 1.81531e-12
4.2831 526.105 2.11386e-13
1.81531e-12 2.11386e-13 495.507

588.639 9.92667 5.31071e-12
9.92667 552.461 2.81256e-13
5.31071e-12 2.81256e-13 545.187

590.422 -8.51327 -6.70693e-12
-8.51327 554.803 -1.95236e-12
-6.70693e-12 -1.95236e-12 545.704

382.306 18.5121 -1.81188e-12
18.5121 302.285 -1.76155e-12
-1.81188e-12 -1.76155e-12 286.132

502.675 7.96494 4.70794e-12
7.96494 453.597 -1.57074e-12
4.70794e-12 -1.57074e-12 487.762

232.814 7.74035 -8.3548e-13
7.74035 381.514 -8.14756e-13
-8.3548e-13 -8.14756e-13 187.185

236.984 -11.385 -5.29247e-12
-11.385 387.207 -3.83693e-13
-5.29247e-12 -3.83693e-13 189.449

249.286 56.4063 3.62377e-12
56.4063 354.775 -3.33955e-12
3.62377e-12 -3.33955e-12 184.022

505.012 -28.9503 2.74684e-12
-28.9503 478.612 -2.37973e-12
2.74684e-12 -2.37973e-12 491.341

258.47 -49.1897 -3.89614e-13
-49.1897 341.839 5.40723e-12
-3.89614e-13 5.40723e-12 220.732

249.291 -55.9488 -6.27646e-12
-55.9488 344.75 1.90899e-12
-6.27646e-12 1.90899e-12 181.114

434.651 26.2197 -3.60304e-12
26.2197 454.389 1.10726e-13
-3.60304e-12 1.10726e-13 432.821

329.922 73.8429 -3.53377e-12
73.8429 280.009 1.7953e-12
-3.53377e-12 1.7953e-12 184.826

540.125 13.0474 8.08005e-12
13.0474 554.944 2.37973e-12
8.08005e-12 2.37973e-12 532.075

562.382 0.039192 -2.5994e-13
0.039192 532.452 2.0961e-13
-2.5994e-13 2.0961e-13 531.867

338.6 -73.1284 3.5385e-12
-73.1284 279.856 5.43091e-12
3.5385e-12 5.43091e-12 186.309

432.666 -23.4236 -1.51375e-12
-23.4236 466.306 4.06194e-13
-1.51375e-12 4.06194e-13 447.568

358.928 34.7285 -4.42194e-12
34.7285 310.973 4.39944e-12
-4.42194e-12 4.39944e-12 258.035

267.703 63.49 1.4424e-12
63.49 345.208 -9.00021e-13
1.4424e-12 -9.00021e-13 185.844

293.691 21.6298 4.52024e-12
21.6298 367.658 3.32534e-12
4.52024e-12 3.32534e-12 254.495

267.575 -65.9188 2.71901e-12
-65.9188 344.844 4.51905e-12
2.71901e-12 4.51905e-12 184.3

291.638 -12.3809 -8.32519e-13
-12.3809 370.879 1.88531e-12
-8.32519e-13 1.88531e-12 253.441

550.305 6.84194 1.72136e-12
6.84194 582.076 2.05909e-12
1.72136e-12 2.05909e-12 541.115

329.887 -45.9738 2.80428e-12
-45.9738 341.813 4.39352e-12
2.80428e-12 4.39352e-12 276.612

259.78 47.531 4.66234e-12
47.531 340.214 9.26311e-12
4.66234e-12 9.26311e-12 223.144

370.214 37.9108 -4.05009e-12
37.9108 244.919 -5.319e-12
-4.05009e-12 -5.319e-12 187.355

481.887 -29.2854 -1.0522e-12
-29.2854 460.508 -2.46647e-12
-1.0522e-12 -2.46647e-12 467.711

480.974 12.8967 4.58056e-12
12.8967 525.826 -7.25346e-14
4.58056e-12 -7.25346e-14 504.101

354.415 -38.1117 -2.56743e-12
-38.1117 300.075 -4.39115e-12
-2.56743e-12 -4.39115e-12 251.813

482.531 -28.8019 -1.65675e-12
-28.8019 460.318 -1.3447e-12
-1.65675e-12 -1.3447e-12 468.46

365.261 -36.3427 1.87583e-12
-36.3427 230.987 -4.30234e-12
1.87583e-12 -4.30234e-12 182.769

481.499 -28.3171 -2.14347e-13
-28.3171 472.752 1.46017e-12
-2.14347e-13 1.46017e-12 477.915

436.35 -25.2945 1.96435e-12
-25.2945 466.22 -3.17613e-12
1.96435e-12 -3.17613e-12 448.206

314.797 69.4594 3.60956e-12
69.4594 292.14 -1.80241e-12
3.60956e-12 -1.80241e-12 184.522

290.78 -22.9323 -1.27069e-12
-22.9323 359.161 9.6397e-13
-1.27069e-12 9.6397e-13 247.027

312.398 -71.6914 -1.77162e-12
-71.6914 288.12 -5.41197e-12
-1.77162e-12 -5.41197e-12 182.025

268.544 50.7364 1.85215e-12
50.7364 320.057 -1.77162e-12
1.85215e-12 -1.77162e-12 221.503

459.858 -30.2117 -6.38896e-13
-30.2117 454.842 -9.81437e-13
-6.38896e-13 -9.81437e-13 454.397

559.284 -14.6403 -6.24685e-13
-14.6403 544.41 -2.64855e-12
-6.24685e-13 -2.64855e-12 533.715

635.922 11.0928 -1.22261e-11
11.0928 631.383 1.07736e-12
-1.22261e-11 1.07736e-12 570.018

619.956 -5.15997 5.39864e-12
-5.15997 639.738 1.5502e-12
5.39864e-12 1.5502e-12 568.496

453.866 13.0836 -1.2235e-12
13.0836 506.551 1.81721e-12
-1.2235e-12 1.81721e-12 482.569

634.151 -10.6671 1.81447e-11
-10.6671 631.313 -7.55396e-12
1.81447e-11 -7.55396e-12 569.873

622.695 4.09169 -8.05726e-13
4.09169 642.684 -2.42258e-12
-8.05726e-13 -2.42258e-12 569.697

643.374 7.43431 -1.04894e-11
7.43431 619.147 -7.71916e-12
-1.04894e-11 -7.71916e-12 569.02

584.775 -12.1154 -9.14961e-12
-12.1154 631.667 7.6262e-12
-9.14961e-12 7.6262e-12 560.591

307.442 -30.4695 3.64272e-12
-30.4695 371.63 -7.69755e-13
3.64272e-12 -7.69755e-13 280.767

589.624 -12.9721 -4.43142e-12
-12.9721 549.111 -9.45022e-13
-4.43142e-12 -9.45022e-13 543.824

527.204 -34.4179 3.33866e-12
-34.4179 521.484 8.30447e-13
3.33866e-12 8.30447e-13 519.962

565.462 -18.1768 4.31951e-12
-18.1768 537.987 4.27954e-13
4.31951e-12 4.27954e-13 534.256

502.566 15.4591 -7.40149e-13
15.4591 452.112 5.9653e-12
-7.40149e-13 5.9653e-12 480.203

586.348 9.86439 -8.27668e-12
9.86439 642.135 1.2457e-11
-8.27668e-12 1.2457e-11 563.102

636.657 19.2278 1.43293e-13
19.2278 591.722 -4.66012e-12
1.43293e-13 -4.66012e-12 562.923

569.774 11.3061 -3.2531e-12
11.3061 544.337 -4.18924e-13
-3.2531e-12 -4.18924e-13 536.433

353.44 -15.3391 -8.07413e-12
-15.3391 231.514 -4.31418e-12
-8.07413e-12 -4.31418e-12 219.012

437.203 24.9637 -5.74355e-14
24.9637 461.909 3.32475e-12
-5.74355e-14 3.32475e-12 445.718

317.088 -61.3538 -5.32907e-12
-61.3538 277.847 -3.56692e-12
-5.32907e-12 -3.56692e-12 218.087

334.206 -57.4565 3.6214e-12
-57.4565 357.32 2.84928e-12
3.6214e-12 2.84928e-12 252.538

383.331 -36.5435 -7.21675e-12
-36.5435 305.737 6.40791e-12
-7.21675e-12 6.40791e-12 257.758

562.495 -5.15898 1.98493e-12
-5.15898 616.951 -7.49667e-12
1.98493e-12 -7.49667e-12 552.948

562.202 2.89122 4.56094e-12
2.89122 615.816 3.11499e-12
4.56094e-12 3.11499e-12 552.547

598.769 -24.4566 1.8936e-12
-24.4566 575.741 -1.01652e-12
1.8936e-12 -1.01652e-12 551.576

602.328 -21.7609 -1.09248e-11
-21.7609 573.432 -7.72123e-13
-1.09248e-11 -7.72123e-13 551.842

598.782 26.1363 -4.20493e-12
26.1363 580.456 2.11446e-12
-4.20493e-12 2.11446e-12 552.732

625.741 3.09968 1.38578e-11
3.09968 630.734 -4.16848e-12
1.38578e-11 -4.16848e-12 568.418

599.058 -20.5091 -2.41288e-12
-20.5091 576.352 1.07159e-12
-2.41288e-12 1.07159e-12 552.265

607.809 -18.5685 6.64032e-12
-18.5685 620.262 -2.34727e-12
6.64032e-12 -2.34727e-12 563.184

632.9 2.43468 2.25553e-12
2.43468 635.526 -1.73593e-11
2.25553e-12 -1.73593e-11 570.504

607.885 -20.5266 4.70253e-12
-20.5266 572.425 -4.03529e-12
4.70253e-12 -4.03529e-12 553.404

607.071 20.9561 -4.24631e-12
20.9561 573.684 -3.22646e-12
-4.24631e-12 -3.22646e-12 553.807

633.851 -3.45872 -9.83376e-12
-3.45872 636.777 2.05184e-12
-9.83376e-12 2.05184e-12 571.278

632.181 -3.11747 1.15481e-11
-3.11747 625.756 -6.28386e-12
1.15481e-11 -6.28386e-12 569.393

609.681 12.1098 4.65243e-12
12.1098 620.485 2.96415e-12
4.65243e-12 2.96415e-12 563.915

587.202 26.9299 1.59576e-12
26.9299 583.017 2.76567e-12
1.59576e-12 2.76567e-12 551.7

FIELD solute_concentration_TPM 2
S_ext 1 563 float
0.995324
0.995132
0.995152
0.995133
0.995101
0.995152
0.995323
0.995143
0.995169
0.995135
0.995284
0.995143
0.995147
0.995134
0.995109
0.99515
0.995126
0.995141
0.995173
0.995155
0.995161
0.995045
0.995157
0.995155
0.995155
0.995138
0.995274
0.99515
0.995221
0.995074
0.995148
0.99522
0.995279
0.995083
0.995082
0.995083
0.99507
0.995085
0.995148
0.995279
0.995221
0.995069
0.995069
0.995147
0.995254
0.99522
0.995171
0.995166
0.995152
0.99523
0.995225
0.995206
0.995099
0.995207
0.9951
0.99526
0.995082
0.995206
0.995082
0.995153
0.995125
0.995117
0.99527
0.995119
0.995117
0.995131
0.995124
0.995139
0.995156
0.99513
0.995099
0.995099
0.995222
0.995126
0.995152
0.995283
0.995111
0.995131
0.995138
0.995198
0.995239
0.995096
0.99512
0.995241
0.99522
0.995258
0.99515
0.99513
0.995254
0.995053
0.995206
0.995054
0.995108
0.995133
0.995206
0.995225
0.995241
0.995135
0.995111
0.995148
0.995187
0.995217
0.995241
0.995138
0.995137
0.995136
0.995119
0.99515
0.995242
0.995126
0.995153
0.995251
0.995245
0.99514
0.995137
0.995207
0.995084
0.995243
0.995085
0.995206
0.995178
0.99511
0.99513
0.995125
0.995125
0.995107
0.995088
0.995135
0.995241
0.995205
0.995097
0.995131
0.99512
0.995131
0.995218
0.995081
0.995251
0.995146
0.99512
0.995081
0.995215
0.99514
0.995177
0.995135
0.995244
0.995137
0.995141
0.995154
0.995152
0.99519
0.995165
0.99513
0.995219
0.995147
0.995135
0.995131
0.995133
0.995215
0.995214
0.995144
0.995166
0.995218
0.995253
0.995223
0.995213
0.995136
0.995214
0.995215
0.99522
0.995213
0.995107
0.995206
0.995225
0.995132
0.995206
0.99512
0.995107
0.995143
0.9951
0.995138
0.995222
0.995135
0.995135
0.995214
0.995129
0.995226
0.995125
0.995122
0.995109
0.995135
0.995129
0.995239
0.995205
0.99522
0.995131
0.995141
0.99514
0.99512
0.99513
0.995132
0.99513
0.995172
0.995198
0.995121
0.995223
0.99512
0.995132
0.995217
0.995116
0.99513
0.995116
0.995136
0.995137
0.99512
0.995189
0.995135
0.995197
0.995122
0.995125
0.995125
0.995125
0.995126
0.995126
0.995126
0.995135
0.995109
0.995109
0.995108
0.995109
0.995101
0.9951
0.99519
0.995134
0.99513
0.995168
0.995109
0.995109
0.99513
0.995197
0.995131
0.995135
0.99519
0.995115
0.99519
0.995121
0.99513
0.995188
0.995196
0.99524
0.995231
0.99512
0.995246
0.995148
0.995197
0.995173
0.995131
0.995125
0.99507
0.995125
0.99525
0.995196
0.99513
0.995143
0.995198
0.995125
0.995177
0.99507
0.995196
0.995125
0.995127
0.99514
0.995109
0.99513
0.9951
0.995145
0.995252
0.995258
0.995106
0.995159
0.995143
0.995192
0.995114
0.995132
0.995196
0.995133
0.995187
0.995141
0.995187
0.995197
0.99506
0.995105
0.995107
0.995107
0.995135
0.995187
0.995085
0.995128
0.995165
0.995185
0.995191
0.995105
0.995189
0.99511
0.99519
0.995254
0.995186
0.995244
0.99512
0.995189
0.995059
0.995189
0.995124
0.995191
0.995126
0.995189
0.995151
0.995278
0.995151
0.99519
0.995103
0.99519
0.995164
0.995128
0.99513
0.995189
0.995186
0.995177
0.995123
0.995186
0.995144
0.99515
0.995102
0.995187
0.995178
0.995163
0.995177
0.995188
0.995176
0.995118
0.995143
0.995178
0.99519
0.99514
0.995139
0.995186
0.995102
0.995291
0.995153
0.99524
0.995162
0.99535
0.99535
0.995348
0.995348
0.995345
0.995355
0.995355
0.99512
0.995091
0.995143
0.995165
0.995172
0.995177
0.995141
0.995177
0.995178
0.995091
0.995176
0.995116
0.995206
0.99511
0.995152
0.995165
0.995178
0.995107
0.995153
0.995164
0.995153
0.995163
0.995175
0.9952
0.995165
0.995155
0.995115
0.995172
0.995176
0.995173
0.995166
0.995154
0.99514
0.995172
0.99514
0.995154
0.995165
0.995143
0.995153
0.995175
0.995125
0.995163
0.995091
0.995254
0.995121
0.995118
0.995154
0.995164
0.99513
0.995291
0.995152
0.995164
0.995276
0.995063
0.995064
0.995151
0.995173
0.995162
0.995172
0.995044
0.995043
0.995139
0.995143
0.995143
0.995296
0.995175
0.995123
0.995168
0.995169
0.995166
0.995291
0.995127
0.995174
0.995153
0.995153
0.995168
0.995164
0.995168
0.995168
0.995278
0.995244
0.995164
0.995153
0.995163
0.995169
0.995164
0.995162
0.995163
0.995256
0.995111
0.995172
0.995131
0.995126
0.995257
0.995151
0.995152
0.995102
0.995058
0.995058
0.995105
0.995176
0.995153
0.995258
0.995061
0.995043
0.995043
0.995293
0.995084
0.995073
0.995155
0.99511
0.995144
0.995133
0.995123
0.995123
0.995144
0.99529
0.995151
0.995133
0.995124
0.995284
0.995079
0.995283
0.995122
0.995137
0.995189
0.995146
0.995145
0.995096
0.995141
0.995096
0.995152
0.995125
0.995077
0.995077
0.99526
0.995131
0.995326
0.995327
0.995326
0.995128
0.995297
0.995327
0.99517
0.995325
0.995095
0.995095
0.995325
0.995158
0.995281
0.99533
0.99528
0.995331
0.99528
0.995083
0.995264
0.995296
0.995323
0.995146
0.995118
0.995283
0.995145
0.995324
0.995138
0.995158
0.995331
0.995284
0.995331
0.995292
0.995154
0.995091
0.995043
0.995044
0.995134
0.995043
0.995043
0.995044
0.995055
0.995261
0.995077
0.995105
0.995092
0.995137
0.995053
0.995053
0.995091
0.995292
0.99516
0.9953
0.995287
0.995279
0.995062
0.995062
0.995064
0.995064
0.995062
0.995048
0.995067
0.995054
0.995047
0.995064
0.995064
0.995046
0.995046
0.995053
0.995066
P_ext 1 563 float
0.0203632
0.0203582
0.020359
0.0203583
0.0203564
0.0203589
0.0203632
0.0203586
0.0203595
0.0203583
0.0203624
0.0203586
0.0203587
0.0203583
0.0203569
0.0203589
0.0203579
0.0203585
0.0203596
0.0203591
0.0203592
0.0203531
0.0203591
0.020359
0.0203591
0.0203584
0.0203621
0.0203588
0.0203609
0.0203548
0.0203588
0.0203609
0.0203623
0.0203554
0.0203554
0.0203554
0.0203547
0.0203555
0.0203588
0.0203623
0.0203609
0.0203546
0.0203547
0.0203588
0.0203617
0.0203609
0.0203596
0.0203594
0.0203589
0.0203612
0.020361
0.0203605
0.0203564
0.0203606
0.0203565
0.0203618
0.0203553
0.0203605
0.0203554
0.020359
0.0203579
0.0203574
0.0203621
0.0203575
0.0203574
0.020358
0.0203578
0.0203585
0.0203591
0.0203581
0.0203564
0.0203564
0.020361
0.0203578
0.020359
0.0203624
0.020357
0.020358
0.0203584
0.0203603
0.0203613
0.0203562
0.0203576
0.0203614
0.0203609
0.0203618
0.0203588
0.0203579
0.0203617
0.0203533
0.0203606
0.0203533
0.0203569
0.020358
0.0203606
0.020361
0.0203614
0.0203583
0.020357
0.0203588
0.02036
0.0203608
0.0203614
0.0203585
0.0203584
0.0203584
0.0203575
0.0203589
0.0203614
0.0203579
0.020359
0.0203616
0.0203615
0.0203585
0.0203584
0.0203606
0.0203554
0.0203615
0.0203554
0.0203605
0.0203597
0.020357
0.0203581
0.0203578
0.0203578
0.0203569
0.0203556
0.0203583
0.0203614
0.0203605
0.0203563
0.0203582
0.0203576
0.0203582
0.0203609
0.0203553
0.0203617
0.0203587
0.0203575
0.0203553
0.0203608
0.0203584
0.0203597
0.0203583
0.0203615
0.0203584
0.0203584
0.0203589
0.020359
0.0203601
0.0203593
0.0203581
0.0203609
0.0203588
0.0203583
0.0203582
0.0203582
0.0203608
0.0203607
0.0203587
0.0203594
0.0203609
0.0203617
0.020361
0.0203607
0.0203584
0.0203608
0.0203608
0.0203609
0.0203607
0.0203568
0.0203605
0.020361
0.0203581
0.0203606
0.0203575
0.0203568
0.0203585
0.0203565
0.0203584
0.020361
0.0203584
0.0203583
0.0203607
0.0203579
0.0203611
0.0203578
0.0203576
0.0203568
0.0203583
0.0203579
0.0203614
0.0203605
0.0203609
0.0203582
0.0203586
0.0203585
0.0203576
0.0203581
0.0203581
0.0203581
0.0203596
0.0203604
0.0203576
0.020361
0.0203576
0.020358
0.0203608
0.0203573
0.0203581
0.0203572
0.0203583
0.0203584
0.0203575
0.0203601
0.0203582
0.0203603
0.0203576
0.0203578
0.0203579
0.0203579
0.0203579
0.0203579
0.020358
0.0203582
0.020357
0.020357
0.0203569
0.0203569
0.0203564
0.0203564
0.0203601
0.0203582
0.0203582
0.0203595
0.0203569
0.0203569
0.0203581
0.0203603
0.0203582
0.0203583
0.0203601
0.0203572
0.0203601
0.0203575
0.0203582
0.0203601
0.0203603
0.0203614
0.0203612
0.0203576
0.0203615
0.0203588
0.0203603
0.0203596
0.0203582
0.0203579
0.0203546
0.0203579
0.0203616
0.0203603
0.0203582
0.0203585
0.0203604
0.0203579
0.0203597
0.0203547
0.0203603
0.0203578
0.0203579
0.0203586
0.0203569
0.0203579
0.0203564
0.0203587
0.0203616
0.0203618
0.0203566
0.0203592
0.0203586
0.0203602
0.0203572
0.0203582
0.0203603
0.0203581
0.02036
0.0203584
0.0203601
0.0203603
0.020354
0.0203567
0.0203568
0.0203569
0.0203583
0.02036
0.0203555
0.0203579
0.0203593
0.02036
0.0203602
0.0203567
0.0203601
0.0203568
0.0203601
0.0203617
0.02036
0.0203615
0.0203575
0.0203601
0.0203539
0.0203601
0.0203576
0.0203601
0.0203578
0.0203601
0.0203589
0.0203622
0.020359
0.0203601
0.0203566
0.0203601
0.0203593
0.0203579
0.0203582
0.0203601
0.02036
0.0203597
0.0203576
0.02036
0.0203586
0.0203589
0.0203565
0.02036
0.0203598
0.0203593
0.0203597
0.0203601
0.0203597
0.0203573
0.0203586
0.0203598
0.0203601
0.0203584
0.0203584
0.02036
0.0203565
0.0203625
0.0203589
0.0203614
0.0203592
0.0203638
0.0203638
0.0203637
0.0203637
0.0203636
0.0203639
0.0203639
0.0203575
0.0203557
0.0203586
0.0203593
0.0203596
0.0203597
0.0203584
0.0203597
0.0203598
0.0203557
0.0203597
0.0203572
0.0203605
0.0203571
0.0203589
0.0203594
0.0203598
0.0203567
0.0203589
0.0203593
0.0203589
0.0203593
0.0203597
0.0203604
0.0203593
0.020359
0.0203572
0.0203596
0.0203598
0.0203596
0.0203594
0.020359
0.0203584
0.0203596
0.0203584
0.020359
0.0203594
0.0203585
0.020359
0.0203597
0.0203578
0.0203593
0.0203559
0.0203617
0.0203576
0.0203573
0.020359
0.0203593
0.020358
0.0203625
0.0203589
0.0203593
0.0203622
0.0203541
0.020354
0.0203588
0.0203597
0.0203593
0.0203596
0.0203527
0.0203527
0.0203585
0.0203585
0.0203585
0.0203626
0.0203597
0.0203577
0.0203595
0.0203595
0.0203594
0.0203625
0.0203578
0.0203597
0.0203589
0.0203589
0.0203595
0.0203593
0.0203595
0.0203595
0.0203622
0.0203615
0.0203593
0.0203589
0.0203593
0.0203595
0.0203594
0.0203593
0.0203593
0.0203617
0.020357
0.0203596
0.0203581
0.0203578
0.0203618
0.0203589
0.020359
0.0203564
0.0203539
0.020354
0.0203566
0.0203597
0.0203589
0.0203618
0.0203541
0.0203529
0.020353
0.0203626
0.0203555
0.0203548
0.020359
0.0203569
0.0203587
0.0203582
0.0203577
0.0203576
0.0203585
0.0203625
0.0203589
0.0203581
0.0203577
0.0203624
0.0203552
0.0203623
0.0203577
0.0203583
0.0203601
0.0203588
0.0203586
0.0203562
0.0203585
0.0203562
0.020359
0.0203577
0.0203549
0.0203549
0.0203618
0.0203581
0.0203633
0.0203633
0.0203633
0.0203579
0.0203627
0.0203633
0.0203595
0.0203632
0.0203561
0.0203562
0.0203632
0.0203592
0.0203623
0.0203633
0.0203623
0.0203634
0.0203623
0.0203554
0.0203619
0.0203626
0.0203632
0.0203587
0.0203574
0.0203623
0.0203586
0.0203632
0.0203584
0.0203592
0.0203634
0.0203624
0.0203634
0.0203625
0.020359
0.0203559
0.020353
0.0203531
0.0203582
0.020353
0.020353
0.020353
0.0203537
0.0203619
0.0203551
0.0203566
0.0203558
0.0203583
0.0203535
0.0203535
0.0203558
0.0203625
0.0203593
0.0203627
0.0203624
0.0203622
0.0203542
0.0203542
0.0203543
0.0203543
0.0203542
0.0203531
0.0203543
0.0203534
0.020353
0.0203542
0.0203542
0.020353
0.0203531
0.0203535
0.0203543
FIELD solute_flux_TPM 2
S_ext 3 563 float
-5.44308e-05 1.82101e-05 -3.55618e-18
2.34387e-06 4.51897e-06 -1.34546e-18
-8.388e-06 -6.67126e-06 -4.4938e-21
-2.76306e-06 2.78532e-06 -1.17614e-18
1.52111e-05 -4.34279e-06 3.33823e-19
1.83074e-06 -1.04747e-05 1.67999e-18
-5.35993e-05 -1.84317e-05 -3.56096e-18
-9.14167e-06 -6.82304e-06 1.17136e-18
1.4631e-05 6.16937e-07 1.49373e-18
7.58124e-06 -2.65137e-06 -4.8861e-18
3.62286e-05 8.43592e-06 -4.08541e-21
1.54553e-06 -1.13284e-05 1.86044e-18
9.04899e-06 7.39678e-06 4.68668e-18
1.75466e-06 9.05764e-06 8.35515e-19
1.37908e-05 -2.01521e-06 -8.6156e-19
-1.06551e-05 -1.73733e-07 -4.97736e-19
1.8307e-06 9.31418e-06 3.32486e-19
6.76892e-06 -1.61584e-06 -1.52315e-18
6.51428e-06 1.13605e-05 9.90224e-19
-9.71155e-06 1.22641e-06 6.66235e-19
-2.36159e-06 -1.39538e-05 3.3028e-19
2.86308e-05 4.03952e-05 2.66597e-18
1.04206e-05 1.06205e-06 -1.72351e-19
7.4435e-06 -7.45257e-06 5.4941e-21
-9.85474e-06 -2.17566e-06 3.34463e-19
-4.41144e-07 -7.31504e-06 -2.17853e-18
4.1576e-05 -3.25662e-06 -1.1048e-18
9.34152e-06 6.78222e-06 2.33992e-18
-1.6439e-05 -1.33427e-05 -3.06482e-18
3.24514e-05 -8.58448e-06 4.5155e-18
-1.08282e-05 -3.9698e-06 1.33788e-18
3.50693e-06 -2.10762e-05 5.54516e-21
3.11947e-05 -3.17986e-05 -2.51601e-18
-3.4564e-06 -2.77352e-05 -4.48391e-18
-1.9589e-05 2.43929e-05 -3.12479e-18
-2.5746e-05 -1.08641e-05 3.43404e-19
2.15081e-05 2.81732e-05 -3.39052e-19
-2.96184e-05 -5.79444e-06 -3.5378e-19
9.5697e-06 -7.29833e-06 -3.51098e-18
3.04752e-05 3.31352e-05 7.86223e-19
2.1221e-05 -9.2924e-06 -3.37972e-18
2.1937e-05 -2.71162e-05 8.75656e-19
-1.25214e-05 -3.25358e-05 -1.55895e-18
-1.038e-05 4.18172e-06 4.01433e-18
1.99499e-05 -1.95144e-05 -4.90702e-18
-1.96834e-05 6.99904e-06 -1.45319e-18
-2.69941e-06 -1.33103e-05 -3.37023e-19
5.18733e-06 1.3275e-05 -4.8166e-18
-1.07136e-05 3.88105e-06 -1.66952e-18
-1.18361e-05 1.86099e-05 -4.17709e-18
2.1415e-05 1.00921e-05 1.28011e-18
1.93463e-05 -6.71073e-06 3.34216e-19
-1.04032e-05 1.04317e-05 -2.40739e-18
-1.53158e-05 -1.33094e-05 -2.1215e-18
-1.40215e-05 -3.42616e-06 -6.85762e-19
-2.90911e-05 1.73217e-05 -4.41817e-21
-1.93923e-05 -2.5103e-05 1.85153e-19
4.04796e-06 -2.00294e-05 -2.43787e-18
-3.14436e-05 4.28447e-06 6.83625e-19
4.0036e-06 9.02984e-06 -2.51098e-18
-3.6619e-06 -5.40539e-06 3.8833e-18
-4.31574e-06 -1.18638e-05 5.43919e-18
3.75635e-05 1.63726e-05 3.00036e-18
6.14881e-06 1.19797e-05 -1.18903e-18
8.16868e-06 -9.54486e-06 -8.4267e-19
-1.10926e-06 -1.37073e-05 6.83811e-19
3.07332e-06 -5.81406e-06 9.44766e-21
-6.60925e-06 -3.65831e-06 2.1834e-18
-6.98992e-06 7.78451e-06 2.65782e-18
1.69756e-06 -2.7739e-06 -3.87829e-18
-9.97266e-06 -1.04938e-05 8.69225e-19
-1.41412e-05 3.43477e-06 3.42306e-18
-2.52045e-06 2.24533e-05 -9.70225e-19
-1.17882e-05 7.056e-06 4.91108e-18
-5.97301e-06 9.53589e-06 2.49847e-18
-3.8809e-05 4.82321e-06 -4.53811e-18
5.22388e-06 -1.43323e-05 -1.3602e-18
-1.24584e-05 -5.81059e-06 -1.8583e-18
1.2758e-06 7.66701e-06 1.32328e-18
1.74052e-05 3.34365e-06 2.28181e-18
2.24668e-05 -1.91523e-05 -2.7142e-18
1.47572e-05 1.35919e-05 2.0693e-18
7.98444e-06 -1.93742e-06 1.85502e-18
-2.09192e-05 1.53349e-05 -1.67452e-19
2.49781e-05 3.19976e-06 2.5867e-18
-3.60635e-06 3.21266e-05 3.14903e-19
-1.16238e-06 -1.10694e-05 4.95861e-19
1.21074e-05 6.58278e-06 5.04442e-19
1.91867e-05 2.00965e-05 4.43548e-18
4.25415e-05 2.64451e-05 3.17454e-18
-3.57214e-06 2.01287e-05 1.62506e-18
4.4435e-05 -2.4971e-05 3.36341e-19
-1.80064e-05 3.49099e-06 1.37032e-18
1.19143e-05 7.35217e-06 1.00334e-18
-1.92329e-05 6.39535e-06 -1.46152e-18
1.08532e-05 1.88357e-05 -4.91097e-19
6.46087e-06 -2.89906e-05 -4.69075e-19
1.28478e-06 7.66232e-06 2.163e-18
-9.73154e-06 -1.16615e-05 1.36986e-18
2.01894e-06 1.14954e-05 4.91858e-19
1.74309e-05 3.48008e-06 -1.80492e-18
-1.0153e-05 2.15803e-05 -3.26136e-19
2.66922e-05 -8.8965e-06 -1.43815e-18
-2.50577e-06 4.87418e-06 1.84402e-18
6.64105e-06 3.88066e-06 5.36477e-18
-1.48811e-06 -7.438e-06 -1.50748e-18
2.15126e-06 -1.27509e-05 6.84844e-19
1.15859e-05 2.57866e-06 -2.35117e-18
-5.403e-06 2.68216e-05 -1.64041e-19
-6.5253e-06 1.32834e-07 5.10857e-19
6.1831e-06 7.84123e-06 -1.67584e-19
-1.77325e-06 -2.73437e-05 1.11357e-18
2.76849e-05 8.59047e-06 -1.60346e-19
2.96544e-06 -4.90656e-06 -2.50124e-18
-7.29751e-06 -2.34067e-06 2.34986e-18
-1.90014e-05 -8.07789e-06 1.29763e-18
1.06473e-05 2.77699e-05 6.9019e-19
-2.79714e-05 -9.9633e-06 -1.44285e-18
1.0796e-05 -2.78438e-05 3.27003e-19
-2.47627e-06 -2.08617e-05 9.8008e-19
1.4463e-05 3.99275e-07 6.55696e-19
-4.76743e-06 1.22371e-05 5.10174e-18
-1.04625e-06 2.60419e-06 -3.5286e-19
-2.4449e-06 -1.09391e-05 2.88575e-18
3.50204e-06 -5.61698e-06 -2.53843e-18
6.21115e-06 1.0498e-05 1.02181e-18
2.23539e-05 7.29373e-06 -6.30143e-21
5.78818e-06 -4.90299e-06 -1.32778e-18
-5.54362e-06 -2.93431e-05 -1.57427e-19
1.68444e-05 -1.24273e-05 1.95756e-18
3.3062e-06 1.84469e-05 -1.71388e-18
-1.84166e-06 -1.87359e-06 -1.34602e-18
-5.71275e-06 -5.49682e-06 -1.67896e-18
-3.16148e-06 5.16525e-08 5.02215e-19
-1.4925e-05 1.84289e-05 4.84979e-19
1.29186e-05 -2.50206e-05 1.83384e-19
-1.74473e-05 2.75735e-05 -3.21737e-19
-1.07129e-05 6.23199e-06 -2.76009e-21
1.67427e-06 8.17946e-06 -3.48453e-19
-1.51799e-05 -2.36801e-05 2.77783e-18
9.05137e-06 2.19416e-05 -4.88978e-21
1.1671e-05 6.1574e-06 -1.50993e-18
1.50707e-05 -5.68263e-06 -9.8201e-19
-8.17501e-07 -7.42763e-06 2.7051e-18
-2.19671e-05 -2.0203e-05 -3.03921e-18
-1.81072e-06 7.43528e-06 2.18323e-18
1.14809e-05 6.76912e-06 -5.04194e-19
1.25351e-05 -5.90335e-06 -3.83371e-18
5.49086e-06 -9.44352e-06 -3.27679e-19
1.61032e-05 -7.14339e-06 4.98272e-19
1.26068e-05 -5.96948e-06 -9.85273e-19
3.14834e-06 1.85785e-07 3.38588e-18
1.6912e-05 1.33886e-05 9.6191e-19
-1.78544e-06 -1.1163e-05 -1.00579e-18
-6.90871e-06 -2.89993e-06 -3.39494e-19
7.48692e-07 -2.55525e-06 -2.17565e-18
-2.09999e-06 1.04497e-05 -3.04867e-18
-2.25086e-05 1.77564e-06 -1.95303e-18
-7.96416e-06 -2.1591e-05 1.29947e-18
-5.1947e-06 6.39894e-06 -6.88115e-23
8.94926e-06 1.09402e-05 -1.33093e-18
1.74505e-05 -1.24442e-05 6.53947e-19
-2.39587e-05 -1.29866e-05 -7.98623e-19
1.1343e-05 -1.81901e-05 -1.92151e-18
1.49521e-05 -1.79135e-05 -3.19081e-19
-7.17353e-06 2.51204e-06 1.50645e-18
-1.29328e-05 -1.86149e-05 -7.66434e-21
-2.24909e-05 -3.73847e-06 -1.14074e-18
-2.71417e-06 -2.07006e-05 4.83565e-19
1.0042e-05 -2.0785e-05 -2.75236e-18
-6.06043e-06 -1.73777e-05 1.20964e-18
2.88242e-06 2.0539e-05 1.46013e-18
-1.04471e-05 -1.85043e-05 -1.76101e-21
1.96929e-06 -1.07357e-05 1.01667e-18
-1.61086e-05 1.1731e-05 -4.91814e-19
-9.92232e-06 -8.01445e-06 1.52361e-18
-1.81248e-05 -3.38283e-06 1.65934e-19
1.04349e-05 -6.12159e-06 -1.00977e-18
-2.84735e-06 1.58731e-05 2.5717e-18
8.19869e-06 -6.17405e-06 -3.27764e-19
-1.9211e-05 -8.42372e-06 -1.68857e-19
-5.82489e-06 -4.87535e-06 -1.3481e-18
6.06979e-06 4.95281e-06 4.9445e-19
1.40512e-05 1.88735e-05 -6.58281e-19
-1.15039e-05 -7.12062e-06 1.52077e-18
-2.10731e-05 -5.08836e-07 -3.54912e-18
-1.08038e-05 -3.26498e-06 -3.40847e-19
-3.02637e-06 -1.09519e-05 3.52566e-19
1.18697e-05 1.42865e-05 -1.88178e-18
-7.24588e-06 3.82501e-06 -3.19498e-18
4.44181e-07 -1.35615e-05 2.37615e-18
-2.70753e-05 6.93916e-06 -3.24682e-19
1.63893e-05 1.33398e-05 1.9473e-18
2.37212e-06 2.15539e-05 -2.58281e-18
-1.58978e-06 2.51949e-06 -5.09968e-19
-5.92532e-06 1.66028e-07 1.83904e-18
2.90865e-06 5.10678e-06 1.49421e-18
-7.74078e-06 2.27835e-06 -2.71133e-21
-1.34094e-06 -2.47733e-06 -1.16073e-18
1.11373e-06 1.36966e-05 6.68558e-19
3.01705e-06 2.57918e-07 -3.47831e-19
-1.27459e-05 3.07634e-06 8.26756e-19
-1.13761e-05 1.2568e-05 -1.58716e-19
-2.03802e-06 7.67057e-06 1.01134e-18
-1.90642e-05 1.18744e-05 -1.93534e-18
-6.19997e-06 5.93174e-06 1.68078e-18
1.15597e-05 -7.81592e-06 -3.43497e-19
2.41189e-05 -2.39508e-06 9.75524e-19
-1.40145e-05 7.4423e-06 4.08397e-18
1.47941e-06 2.99848e-06 -6.87905e-19
1.46363e-05 -2.84884e-06 -2.88679e-18
-1.13728e-05 6.83555e-06 5.01791e-19
-6.48103e-06 3.64854e-06 -5.06579e-19
7.9725e-06 2.56394e-06 -2.35453e-18
1.44238e-05 -8.94239e-06 2.9513e-18
-1.14505e-05 6.51242e-06 -8.44976e-19
-1.62776e-05 -3.42203e-06 -4.08269e-18
-1.10542e-05 -2.85019e-06 -8.48528e-19
6.67559e-06 5.12145e-08 2.02231e-20
6.8396e-06 8.70052e-08 -1.01819e-18
2.91193e-06 5.49927e-06 1.66762e-19
3.21145e-06 -5.81736e-06 -3.01815e-18
-3.30602e-06 5.59677e-06 -1.35007e-18
-3.46465e-06 -5.72791e-06 2.52521e-18
6.60045e-06 -4.97735e-06 -1.187e-18
-1.35007e-05 2.15964e-06 4.93282e-18
-1.3349e-05 -2.20243e-06 -3.43793e-19
-8.52804e-06 1.05493e-05 4.98828e-19
-8.57646e-06 -1.05903e-05 1.20469e-18
4.99793e-06 -1.3386e-05 2.38354e-18
4.81527e-06 1.32715e-05 -3.42706e-18
9.716e-07 1.69998e-05 8.16984e-19
7.52937e-06 -2.02969e-06 -5.03254e-18
1.62801e-06 -2.53484e-06 3.20607e-18
-1.39203e-05 9.3309e-07 1.16659e-18
5.16066e-06 -1.31705e-05 -1.20583e-18
4.88969e-06 1.3218e-05 -1.70117e-21
3.18672e-06 -5.92675e-08 -1.52474e-18
5.84435e-06 1.60762e-05 9.74563e-19
-1.4841e-06 -2.64184e-06 2.18617e-18
1.56518e-06 -7.46264e-06 2.53491e-18
-1.46069e-05 -7.83661e-06 1.30623e-18
-1.41451e-05 -7.57419e-06 -2.38007e-18
-1.42996e-05 8.8398e-06 -1.14529e-18
2.15995e-06 -8.28524e-06 -5.234e-19
-1.05445e-06 2.21504e-06 3.52314e-18
-4.72405e-07 -1.6712e-05 -1.6407e-18
-5.1438e-06 -1.59104e-05 4.89562e-18
2.15028e-05 2.00328e-05 2.08446e-18
2.34635e-05 -1.21389e-06 1.12447e-18
-8.43379e-06 -2.44308e-06 1.86458e-18
-1.49871e-05 -2.66864e-05 2.24067e-18
5.50581e-06 9.04545e-06 9.91979e-19
-1.64074e-05 1.93606e-06 -2.11695e-18
1.33e-05 3.81109e-06 -6.54426e-19
-2.98245e-06 -1.2521e-08 1.59268e-19
-3.0728e-06 -5.56965e-06 1.61155e-20
-5.43736e-06 -2.58699e-05 -2.08208e-18
-6.44133e-06 -3.35551e-08 2.86011e-18
-3.11521e-05 -1.16937e-06 9.5561e-19
1.13713e-05 -1.26408e-05 -4.86503e-19
1.65703e-06 2.62706e-06 -4.87659e-18
-7.44414e-08 -1.1539e-05 3.86663e-18
-6.53091e-06 1.56833e-05 -1.63256e-18
-2.88947e-06 5.71328e-06 3.18002e-18
1.35994e-05 -8.98942e-06 -9.85191e-19
-2.51187e-05 -8.20674e-06 -8.74098e-19
-1.00284e-05 -1.32358e-05 3.42897e-18
3.33342e-06 5.62656e-06 1.83843e-18
1.11331e-05 3.36916e-06 1.00337e-18
-3.13694e-06 -4.8029e-06 -1.17277e-18
1.3332e-05 2.42446e-06 -2.37389e-18
1.21764e-05 -6.53867e-06 -8.41503e-19
-2.50959e-07 1.79889e-05 -1.71957e-18
5.53076e-06 -8.99621e-06 -3.67371e-18
3.21931e-05 1.37771e-06 -1.27107e-18
-2.73494e-05 7.12683e-06 -1.42435e-18
1.53806e-05 7.68417e-06 -1.88794e-18
-4.24298e-06 -1.12107e-05 1.99501e-18
-1.0078e-05 -5.63611e-06 1.63728e-19
1.89924e-05 -1.57267e-07 5.40829e-18
-4.78475e-07 -1.60827e-05 1.71683e-18
-8.26973e-06 -7.17385e-06 1.5183e-18
6.67959e-06 -1.54936e-05 -4.40432e-18
-3.61672e-07 1.35591e-05 -5.91051e-18
5.14266e-06 1.709e-05 -1.65497e-19
1.15034e-05 -6.60262e-06 -3.51638e-18
-1.23818e-05 1.24778e-05 -1.80547e-18
1.08502e-05 1.32267e-05 -3.29095e-19
-4.32788e-05 1.03248e-05 3.38127e-19
-6.73562e-06 1.72528e-05 -2.06065e-18
8.31605e-06 -1.0108e-05 2.91147e-18
-4.64011e-06 -1.21829e-05 -3.33012e-19
-7.8319e-06 2.92325e-06 1.00762e-18
-1.6786e-05 -4.57543e-06 2.78736e-18
-4.46155e-06 2.60736e-05 1.04095e-18
-8.28783e-06 7.8906e-06 -6.80872e-21
1.37572e-05 -3.00981e-06 -8.2974e-19
-4.51832e-06 -1.68289e-05 2.30012e-18
-9.74293e-06 1.55087e-05 -2.45528e-18
-1.44238e-05 8.307e-06 3.25843e-18
-1.34198e-05 -9.77606e-06 -1.14874e-18
1.21164e-05 -1.39578e-05 -5.2866e-19
-1.78236e-05 -9.44921e-07 -3.77498e-18
7.86396e-06 -2.69559e-05 -9.44107e-19
1.27811e-05 -1.24594e-05 3.28532e-18
1.60998e-05 2.82873e-05 -1.44484e-18
1.29216e-06 1.31413e-05 2.87906e-18
1.90629e-06 -1.66987e-05 -2.94848e-18
-2.81558e-05 3.30485e-05 -5.30139e-19
-8.31166e-06 -1.58554e-05 5.08828e-18
1.10025e-05 -4.26774e-06 -3.7135e-18
-1.67751e-06 1.68329e-05 8.18543e-19
8.61236e-06 -7.98236e-06 -4.07254e-18
9.09936e-06 1.59626e-05 8.19623e-19
1.14218e-05 -9.65036e-07 1.16055e-18
1.40963e-05 -4.12837e-05 -1.42056e-18
-3.86725e-06 -8.42109e-06 8.31067e-19
-1.50988e-05 6.48735e-06 -2.62325e-18
-1.32934e-05 1.24196e-05 2.90593e-18
1.42373e-05 9.63137e-06 8.16159e-19
1.23634e-05 -7.15446e-06 -4.47391e-18
9.95564e-06 8.4104e-06 6.69404e-19
-3.61466e-06 -1.7717e-09 -5.06516e-22
1.01064e-05 -1.51737e-05 1.8113e-18
-1.10917e-05 -1.32125e-05 3.12024e-18
1.48988e-05 6.46904e-06 2.47694e-18
8.56702e-06 -8.04543e-06 -2.89209e-18
6.22629e-06 -1.63018e-05 -2.7916e-18
1.10735e-05 -4.66921e-06 -2.52382e-18
-1.03486e-05 -4.92512e-06 6.66989e-19
8.75427e-07 -1.74074e-05 -2.38575e-18
-1.69332e-05 2.90499e-06 -8.24461e-19
1.50109e-06 1.60766e-05 2.30257e-18
1.36246e-05 4.39506e-06 -5.02916e-19
-1.41386e-05 -6.96195e-06 -1.98534e-18
-5.9101e-06 1.67022e-05 -1.97457e-18
-9.98682e-07 -1.58483e-05 -9.88444e-19
1.30326e-05 7.90998e-06 -1.53547e-18
-1.15324e-06 1.18993e-05 2.84507e-18
-1.31536e-05 8.85329e-06 -2.80705e-18
1.55487e-05 7.52649e-06 8.20192e-19
-1.12112e-05 -6.57873e-06 3.3685e-19
9.09473e-08 -1.30581e-05 -1.34246e-18
1.21102e-05 1.31462e-05 2.13453e-18
-1.4625e-05 -9.45023e-06 1.0272e-18
3.18659e-05 -2.28023e-05 -7.72406e-19
1.19035e-05 -7.16892e-06 -1.66086e-18
5.68543e-06 2.81662e-05 -2.03284e-21
1.12997e-05 -9.02754e-06 -1.49534e-18
-1.48397e-05 5.72248e-05 -3.56399e-18
-1.4917e-05 -5.66802e-05 -1.49651e-19
3.72488e-05 4.86946e-05 -7.44192e-19
3.68005e-05 -4.86826e-05 1.6277e-18
6.08213e-05 -2.97341e-08 -4.48168e-19
-5.23376e-05 2.12036e-05 -4.00899e-18
-5.14882e-05 -2.14252e-05 -8.99985e-19
8.18635e-06 7.89818e-06 -3.0619e-18
1.97737e-05 1.47188e-05 -6.88043e-19
7.61156e-06 2.20823e-06 -2.19244e-18
1.25087e-05 6.43663e-06 3.15091e-18
3.25897e-06 1.32798e-05 3.29501e-18
-1.22954e-05 -9.6936e-06 3.79158e-18
1.13917e-05 -6.76282e-06 -2.18318e-18
1.31317e-05 9.58644e-06 -1.15529e-18
-2.10767e-06 1.5962e-05 4.94037e-19
1.98701e-05 -1.35151e-05 2.40214e-18
2.43402e-06 -1.55601e-05 -2.631e-18
1.47194e-05 3.41226e-06 -2.72542e-18
1.96868e-05 7.30578e-06 2.43849e-18
9.43295e-06 9.37158e-06 6.81097e-19
1.05505e-05 4.36526e-06 1.58954e-19
-1.21098e-05 7.13074e-06 -2.81847e-18
-1.46985e-05 5.87764e-06 -2.3147e-18
1.54448e-05 -7.53699e-06 -2.06325e-18
-1.19422e-05 -6.54273e-06 2.99756e-18
-1.21285e-05 -6.86712e-06 6.58388e-19
-2.19316e-07 -1.36487e-05 6.71161e-19
-9.86036e-08 -1.38757e-05 3.31823e-19
-1.31171e-05 -6.58725e-07 -9.87692e-19
1.76664e-05 -2.68032e-06 6.52769e-19
1.19821e-05 7.50911e-06 -4.98533e-19
-1.172e-05 7.11367e-06 -1.1723e-18
-1.01295e-05 1.10128e-05 3.57442e-18
1.05854e-05 -9.11071e-06 -2.80848e-18
-7.27321e-06 1.13813e-05 1.31601e-18
-9.32055e-06 -9.69905e-06 3.46826e-18
-8.11663e-07 1.38938e-05 4.13548e-18
-8.47919e-07 1.37795e-05 1.32024e-18
3.47111e-08 -1.30621e-05 -8.38179e-19
4.01505e-06 -1.29999e-05 -3.28076e-19
-1.12646e-05 -6.4874e-06 -1.1802e-18
1.03499e-05 -3.66422e-06 -1.17086e-18
4.18335e-07 1.41175e-05 1.15257e-18
1.70063e-07 1.21677e-05 3.30435e-19
-1.57357e-06 1.10465e-05 3.4915e-18
1.44957e-05 -3.66643e-06 3.30126e-18
-1.09682e-05 3.50256e-06 6.76073e-19
2.6976e-06 1.41308e-05 4.47499e-18
-2.17229e-05 8.52135e-06 -3.48908e-19
6.1708e-06 2.75408e-05 9.4535e-19
-1.12766e-05 2.98223e-06 1.35847e-18
1.32207e-05 -7.82132e-06 1.02035e-18
5.78738e-07 1.38118e-05 -8.43096e-19
-1.33419e-05 4.37529e-06 -2.99389e-18
1.61845e-06 -1.07101e-05 -3.351e-19
5.98406e-07 -3.81679e-05 -3.10689e-18
1.31412e-06 1.1519e-05 6.59208e-19
-1.11199e-05 9.09814e-06 -3.49111e-18
1.13606e-05 4.18171e-05 2.045e-18
3.15166e-05 2.61374e-05 2.45108e-18
3.6128e-05 -2.4719e-05 2.78146e-18
9.84887e-06 -6.74972e-06 8.41068e-19
-1.03623e-05 9.13761e-06 1.98482e-18
-1.31705e-05 -5.1755e-06 8.28866e-19
-1.28129e-05 -4.4226e-06 -3.33463e-19
4.44158e-05 -1.22041e-05 3.52974e-18
4.53068e-05 9.52663e-06 4.79116e-18
7.24048e-06 2.52542e-06 -1.02511e-18
4.75108e-07 1.28963e-05 -1.86225e-18
4.87214e-08 1.28875e-05 -1.35315e-18
-3.17967e-05 -2.3266e-05 -4.18581e-18
7.5269e-06 -1.13382e-05 -1.31897e-18
7.84354e-06 8.35828e-06 1.54485e-19
-1.39233e-05 -2.22055e-06 4.96633e-19
-9.20933e-06 1.11785e-05 1.1608e-18
-1.23471e-05 5.94467e-06 -2.98879e-18
3.14689e-05 2.25729e-05 1.39102e-18
1.05629e-05 4.67923e-06 1.01173e-18
-3.71101e-06 1.30864e-05 2.30696e-18
-1.1137e-05 -7.64015e-06 1.49636e-18
1.19251e-06 -1.35073e-05 1.17595e-18
-5.86307e-06 -1.25817e-05 6.57814e-19
-1.12768e-05 -7.67305e-06 1.65628e-18
6.96117e-06 -1.24493e-05 -8.22951e-19
9.34242e-06 -1.11809e-05 -2.31968e-18
-1.94324e-06 -3.99401e-05 -6.25404e-19
1.70323e-05 -2.70167e-05 -1.75268e-18
1.14411e-06 -1.36644e-05 8.39872e-19
1.1932e-05 7.4856e-06 -1.33732e-18
-9.48832e-06 -9.68216e-06 3.98605e-18
-6.46316e-06 1.28538e-05 1.15765e-18
-3.31754e-06 1.37517e-05 2.81632e-18
1.10134e-05 9.3712e-06 -4.9555e-19
3.96535e-06 -1.3052e-05 -3.24204e-19
-9.1451e-06 -2.6188e-05 -1.42342e-18
-1.35714e-06 1.66115e-05 -2.73289e-18
9.76536e-06 9.54942e-06 1.81935e-18
-8.50435e-06 -6.71585e-06 4.38675e-18
-8.91726e-06 6.98507e-06 5.74473e-18
2.93089e-05 -1.25983e-05 -1.89656e-18
5.00242e-06 -8.82161e-06 -1.66099e-18
-5.47649e-06 -8.23995e-06 1.16212e-18
1.43545e-05 4.37458e-06 -2.23118e-18
8.82019e-06 -3.18213e-05 1.39712e-18
-2.3153e-05 -2.35291e-05 -3.54656e-21
1.56544e-05 4.10773e-06 -1.54375e-18
-6.14638e-06 -1.19187e-05 8.19895e-19
1.24072e-05 6.30156e-06 -3.36443e-19
-1.88646e-05 -2.09456e-05 -1.74255e-18
7.14268e-06 3.23564e-05 5.3651e-19
3.13452e-05 -4.04821e-05 -3.90273e-18
-1.93878e-05 -4.73768e-05 1.79936e-19
1.77849e-05 -3.47692e-05 -4.59094e-19
-8.42477e-06 2.89111e-05 -5.22059e-19
-4.79762e-06 2.56082e-05 -3.45855e-19
-1.22665e-05 5.86433e-06 2.32855e-18
4.00187e-06 1.60608e-05 1.70149e-18
-1.58809e-06 8.28775e-06 3.33523e-19
6.74339e-06 2.15388e-06 9.89396e-19
-2.12359e-06 1.07252e-05 -3.39515e-18
-1.6271e-07 1.38728e-05 -2.72467e-18
1.10832e-05 6.45606e-06 -8.43903e-19
5.54357e-07 3.79873e-05 -1.61474e-19
-9.66982e-06 6.9836e-06 -1.17142e-18
1.065e-05 -4.12051e-06 8.45684e-19
1.13478e-05 -2.95883e-06 -3.36954e-18
-3.8939e-05 -5.59256e-06 -4.2182e-18
-2.2956e-05 1.09223e-05 -1.39593e-18
-2.82583e-05 -3.35056e-05 -3.79032e-18
5.72837e-06 5.50178e-06 2.02385e-18
9.45508e-06 4.87096e-06 -2.03185e-18
1.76924e-05 -2.81916e-06 2.63179e-18
-5.31732e-06 -8.65643e-06 -1.34357e-18
1.14397e-05 5.61375e-06 -1.85515e-18
4.88276e-06 -1.99481e-05 -2.39442e-18
-9.05792e-06 6.65721e-06 1.3401e-18
-1.48275e-05 -1.42009e-05 5.11225e-19
-3.83645e-06 1.06756e-05 4.99105e-19
-2.19497e-06 1.36708e-05 -1.87822e-18
2.29296e-05 1.42416e-05 3.45529e-19
2.44462e-05 -1.29741e-05 3.10859e-18
-2.71925e-05 -7.32365e-06 -1.73113e-18
5.07711e-06 5.13069e-06 -3.53275e-19
-3.18882e-06 6.64263e-05 1.53595e-19
-1.6219e-08 -6.82328e-05 -1.54168e-19
3.36302e-05 5.75532e-05 -1.23502e-18
-1.26344e-05 5.5261e-06 1.01673e-18
-1.80393e-05 3.64239e-05 -1.55062e-18
3.38367e-05 -5.55501e-05 1.60826e-19
-7.68011e-06 -1.18885e-05 -4.94512e-19
5.14493e-05 4.4794e-05 4.62839e-19
1.59632e-05 -1.1882e-05 7.71069e-21
-2.32613e-06 -1.97555e-05 1.72757e-18
5.3908e-05 -4.38008e-05 3.0408e-19
-4.46165e-06 9.49396e-06 2.32015e-18
-3.45384e-05 -2.19419e-05 -3.29736e-18
-2.84509e-05 -5.94034e-05 -2.31637e-18
-1.61064e-05 -3.75939e-05 -4.69978e-19
-2.92494e-05 6.03768e-05 -2.16063e-18
-6.92597e-06 4.17743e-05 -2.67201e-18
1.06878e-05 2.48336e-05 -1.55472e-18
-1.85345e-05 2.38175e-05 -1.55873e-19
-1.72614e-05 -3.54582e-05 -3.40483e-18
6.61973e-05 1.16141e-05 -9.99647e-21
-1.11417e-05 7.01023e-06 -5.03948e-19
-3.93098e-06 1.07884e-05 -2.21942e-18
-3.27559e-05 2.35912e-05 -2.35429e-18
-1.13508e-05 6.51428e-06 -2.5141e-18
6.55453e-05 -1.03543e-05 1.23337e-18
-1.01185e-05 5.09271e-06 1.67423e-19
4.7653e-06 -9.56405e-06 -8.2705e-19
-5.08972e-05 -3.878e-05 -4.32445e-18
-1.7352e-05 3.76283e-05 1.56595e-18
-5.21103e-05 3.85026e-05 -3.06534e-18
1.57303e-05 3.46399e-05 -5.08843e-21
-9.71153e-06 6.90505e-06 -3.33902e-19
-1.35878e-05 1.63173e-05 6.82784e-19
-2.41716e-05 3.03546e-05 7.10546e-19
-3.78985e-05 -4.88941e-06 2.64827e-18
-6.31063e-07 1.07534e-05 -1.02535e-18
-2.56025e-05 -3.04821e-05 -4.42334e-18
-3.9211e-05 6.93733e-06 2.65437e-18
-1.49341e-05 3.4644e-05 -7.08519e-19
-1.15286e-05 4.61253e-05 -3.41394e-19
-1.20949e-05 2.68108e-05 -1.89693e-18
-2.23756e-05 1.80277e-05 -1.05312e-18
1.64478e-05 -4.05332e-06 -4.27513e-18
2.56943e-05 -1.39448e-06 5.12979e-19
8.98837e-06 5.45677e-06 -3.71049e-18
-8.0997e-06 -5.30676e-05 -4.75921e-18
-5.00172e-05 -1.95063e-05 -2.11681e-18
2.50206e-05 3.42395e-07 1.72829e-18
3.87469e-05 -7.4802e-06 -7.76539e-19
-6.94218e-06 -8.81402e-06 -1.82813e-18
-3.36235e-05 2.36372e-05 -1.39098e-18
-3.01328e-05 3.45155e-05 -4.64985e-19
4.09594e-05 -1.47588e-05 4.68351e-19
-1.86898e-05 -3.16725e-05 -1.39373e-18
-1.90243e-05 3.14278e-05 -1.74201e-18
-3.69152e-05 -1.30506e-06 -1.74909e-18
-1.67918e-05 3.30194e-05 8.66841e-19
-3.67972e-05 3.79493e-07 3.4803e-18
4.57616e-05 1.63888e-05 -1.77759e-19
3.69452e-05 1.35665e-06 -1.57294e-18
3.47286e-05 -1.77932e-05 1.73743e-18
1.01253e-05 -4.88148e-05 2.11227e-18
1.83597e-05 -3.1978e-05 3.35701e-19
1.82351e-05 3.19745e-05 6.96856e-19
9.91569e-06 4.76964e-05 1.5918e-18
4.99766e-05 -1.40921e-05 7.78126e-18
3.20436e-05 1.58717e-05 5.10339e-18
3.08046e-05 8.41723e-06 5.19747e-19
P_ext 3 563 float
-1.10024e-06 3.72021e-07 -2.22066e-20
1.04442e-09 4.07528e-08 -1.05991e-20
-1.01388e-07 -9.53448e-08 -3.38472e-20
-3.20724e-08 2.96053e-08 2.0726e-20
2.79848e-08 5.33814e-10 6.39054e-20
3.33677e-08 -1.35423e-07 7.56319e-20
-1.08326e-06 -3.76522e-07 -7.02013e-20
-7.94883e-08 -9.01717e-08 -1.068e-19
2.21109e-07 3.91682e-09 2.3399e-20
8.07282e-08 -7.58457e-09 3.58206e-20
7.16175e-07 1.6786e-07 9.85658e-21
3.9364e-08 -1.15238e-07 7.34947e-20
9.02135e-08 1.07383e-07 2.38762e-20
-9.29148e-09 8.41223e-08 -2.87863e-20
2.52753e-08 9.36129e-09 3.6765e-20
-1.41347e-07 -2.31387e-09 1.56007e-20
-1.7658e-08 5.54365e-08 -3.9413e-20
8.5207e-08 -1.28571e-08 1.25532e-20
9.78676e-08 1.74538e-07 -1.78399e-20
-1.31304e-07 1.32416e-08 -2.49863e-21
-4.92924e-08 -1.85979e-07 -1.02752e-20
1.62476e-09 3.40336e-10 1.97702e-20
1.45429e-07 1.18403e-08 3.60496e-20
9.25861e-08 -1.069e-07 1.06222e-19
-1.34131e-07 -2.15994e-08 2.08143e-20
-2.52841e-08 -7.34032e-08 -2.62576e-20
8.23344e-07 -6.73534e-08 -6.60506e-20
1.00881e-07 8.50486e-08 -4.88857e-21
-3.01258e-07 -2.39302e-07 3.72626e-20
1.77055e-08 3.32974e-09 2.74283e-20
-1.3468e-07 -2.3986e-08 2.87665e-20
5.88786e-08 -3.83134e-07 1.27449e-20
6.18708e-07 -6.33634e-07 7.79058e-20
1.31891e-09 -2.90614e-08 -7.27999e-20
-7.82148e-09 2.23499e-08 5.35147e-20
-2.42588e-08 -1.59822e-08 1.88048e-20
3.21416e-09 1.60465e-08 -7.55864e-20
-2.45285e-08 4.17643e-09 -1.9023e-20
9.74212e-08 -1.05953e-07 1.787e-20
6.03742e-07 6.60339e-07 -7.41836e-21
3.85659e-07 -1.74727e-07 1.9858e-20
5.96899e-09 -1.46945e-08 -5.38817e-20
-9.65719e-09 -1.28714e-08 3.07668e-23
-1.33791e-07 2.74836e-08 2.3798e-20
3.82612e-07 -3.75743e-07 1.4293e-20
-3.56519e-07 1.28329e-07 -3.03574e-20
-4.50444e-08 -1.96563e-07 -4.12507e-20
8.12763e-08 1.97433e-07 -3.92537e-20
-1.28333e-07 3.35595e-08 -2.77694e-21
-2.20817e-07 3.43448e-07 -8.03244e-20
3.91417e-07 1.91687e-07 2.50354e-20
3.39878e-07 -1.11786e-07 2.2959e-20
-1.00154e-08 2.38017e-08 -5.90569e-20
-2.65978e-07 -2.38677e-07 -1.80074e-20
-2.61104e-08 3.44722e-09 1.85595e-20
-5.70459e-07 3.35005e-07 -7.48795e-21
-7.26282e-09 -2.22566e-08 7.03404e-20
7.57388e-08 -3.51238e-07 3.02166e-20
-2.26839e-08 -4.94057e-09 1.0658e-20
5.94246e-08 1.1915e-07 -5.48887e-20
-3.17107e-08 -9.6254e-09 1.09919e-20
-3.34827e-08 -3.14535e-08 7.7233e-20
7.42372e-07 3.26837e-07 -3.14778e-20
-6.35994e-10 6.48431e-08 -5.03115e-20
1.00239e-08 -4.32647e-08 5.28959e-20
1.6836e-08 -9.62507e-08 6.84426e-20
-6.67999e-09 -3.15155e-08 -3.91385e-20
-7.70296e-08 -1.95776e-08 3.67782e-20
-8.96678e-08 1.09714e-07 1.57394e-20
2.40479e-08 -8.73292e-09 1.95165e-21
-9.87864e-09 -2.44869e-08 1.36832e-20
-2.58246e-08 -3.78483e-09 9.88752e-20
-4.44423e-08 4.11739e-07 -1.48601e-22
-7.91165e-08 3.99618e-08 1.37041e-20
-7.67527e-08 1.31281e-07 -1.79515e-20
-7.71968e-07 9.07388e-08 -1.19737e-19
3.60975e-11 -6.11447e-08 -7.99637e-21
-7.43281e-08 -6.2274e-08 -8.6749e-20
3.12966e-08 7.6373e-08 -4.71461e-20
2.95879e-07 5.91517e-08 -2.27041e-21
4.24048e-07 -3.68954e-07 2.46934e-20
1.16284e-08 2.84727e-08 -2.4227e-21
2.86896e-08 8.90122e-09 1.84813e-20
-3.95113e-07 2.92322e-07 -6.92244e-23
4.61215e-07 5.60732e-08 -1.47579e-20
-6.99049e-08 6.25113e-07 2.46205e-20
-2.42352e-08 -1.25292e-07 -5.98117e-23
8.50826e-08 5.99236e-08 6.56469e-20
3.68023e-07 3.88108e-07 6.69078e-20
6.66962e-09 2.9699e-09 -1.87413e-20
-7.09314e-08 3.53223e-07 3.05205e-20
6.02476e-09 -3.22959e-09 -3.04012e-20
-4.25975e-08 2.90496e-08 -3.69293e-20
9.19535e-08 3.74237e-08 1.25696e-19
-3.40113e-07 1.05144e-07 -3.05296e-20
1.97401e-07 3.46866e-07 -2.77851e-20
1.22805e-07 -5.54461e-07 -1.22864e-20
2.88692e-08 7.5689e-08 -4.97588e-20
-5.22403e-08 -3.10858e-08 -5.81562e-20
4.3282e-08 1.38429e-07 -3.39725e-20
2.87782e-07 4.89721e-08 -1.2981e-20
-1.91034e-07 3.94667e-07 2.00379e-20
5.0782e-07 -1.6597e-07 7.93041e-20
-2.81824e-08 6.15305e-08 -1.28214e-20
5.4016e-08 5.4857e-08 -1.78436e-20
-3.2103e-08 -7.40615e-08 3.64632e-20
-1.29129e-08 -5.64312e-08 6.34703e-20
1.49391e-07 1.79104e-08 3.84879e-20
-1.08957e-07 5.09666e-07 6.70393e-20
-2.52044e-08 1.55472e-08 -5.47697e-20
7.45158e-08 1.10428e-07 -1.56247e-20
-3.68431e-08 -5.23019e-07 4.4584e-20
5.29098e-07 1.58863e-07 -4.70146e-20
3.60267e-08 -6.36623e-08 2.86187e-20
-8.2251e-08 -9.4097e-09 2.83194e-21
-3.38413e-07 -1.35828e-07 1.02023e-20
1.67377e-08 1.79038e-08 6.73923e-20
-5.37544e-07 -1.87992e-07 -1.19616e-19
1.6992e-08 -1.78542e-08 -1.21652e-19
-5.22698e-08 -3.67528e-07 5.21878e-21
2.2684e-07 8.60791e-09 -1.53242e-20
-2.02064e-08 1.72455e-08 4.68085e-22
5.42273e-09 2.47749e-08 -1.34362e-20
1.51737e-08 -6.6459e-08 4.0002e-20
2.63592e-08 -1.23291e-08 8.05758e-20
4.94535e-10 2.67015e-08 -2.64193e-20
2.30507e-08 -2.87732e-09 -1.8931e-20
4.29974e-08 -6.34305e-08 7.06891e-20
-1.10062e-07 -5.6136e-07 -2.98949e-20
2.9077e-07 -2.23836e-07 -3.00712e-20
9.42957e-10 3.54308e-08 -6.94838e-20
-2.45205e-08 -4.43626e-09 -5.50179e-20
-7.98111e-09 -2.74276e-08 -3.67659e-20
-2.02213e-08 -1.42726e-08 -6.52969e-20
-2.71829e-07 3.39682e-07 -3.01639e-20
-3.12291e-10 -2.69863e-08 5.41676e-20
-3.40013e-07 5.33875e-07 7.25839e-21
-1.27799e-07 5.87731e-08 -4.16898e-20
1.79715e-08 1.9383e-08 7.67014e-21
-2.32337e-08 -1.35851e-08 6.77447e-20
1.65789e-07 4.00127e-07 -1.52515e-20
9.5668e-08 8.52605e-08 -6.01916e-20
2.32191e-07 -7.6574e-08 5.18278e-21
1.30661e-08 -7.14501e-08 6.06657e-20
-4.21271e-07 -3.88194e-07 -1.78063e-20
-4.06228e-08 7.02075e-08 2.11265e-20
1.05489e-07 5.62692e-08 3.38196e-20
1.5425e-07 -5.31053e-08 -4.44376e-20
6.66142e-08 -1.33071e-07 6.49718e-20
2.64057e-07 -1.2176e-07 3.58725e-20
1.7569e-07 -8.2928e-08 2.32817e-20
1.76583e-08 -1.46338e-08 5.04811e-20
3.06277e-07 2.42262e-07 -7.26727e-20
-4.43383e-08 -1.28225e-07 -1.05176e-20
-5.44608e-08 -4.65932e-08 -6.80106e-20
-8.90205e-09 -2.33716e-08 2.3455e-20
1.22302e-08 9.14905e-08 -3.24867e-21
-4.09655e-07 2.93705e-08 -4.05872e-20
-1.49653e-07 -3.91054e-07 -2.25843e-20
-6.44548e-08 8.21585e-08 7.7893e-21
1.26744e-07 1.68912e-07 -7.85883e-21
3.15248e-07 -2.23595e-07 -2.99166e-20
-4.6084e-07 -2.46391e-07 -2.48049e-20
2.05019e-07 -3.33753e-07 -7.54406e-21
2.66967e-07 -3.28389e-07 -2.76725e-20
-7.86353e-08 7.79029e-09 4.96991e-20
-2.34363e-07 -3.39143e-07 -3.79442e-20
-4.10243e-07 -6.4297e-08 -8.59516e-20
-4.88915e-08 -3.74378e-07 2.01314e-20
1.82499e-07 -3.77209e-07 1.75048e-20
3.8155e-09 -5.18637e-08 -2.34502e-20
5.42322e-08 3.6117e-07 7.59976e-20
-1.93199e-07 -3.37979e-07 2.24808e-20
-1.81227e-08 -8.29421e-08 -3.91097e-20
-2.79288e-07 2.09087e-07 -2.60225e-21
-5.47233e-08 -1.79425e-08 -5.25091e-20
-4.26362e-08 -2.93e-08 -5.05002e-20
1.11479e-07 -5.71711e-08 -5.74915e-20
-1.53427e-08 2.17239e-08 -7.7772e-21
5.92547e-08 -7.47896e-08 -2.07766e-20
-3.47521e-07 -1.54552e-07 -3.26864e-20
-4.60402e-08 -6.20064e-08 -5.76652e-20
4.81175e-08 6.57787e-08 -2.36648e-20
2.51293e-07 3.46874e-07 -1.11001e-19
-8.89606e-08 -4.10236e-08 -6.0216e-20
-3.86574e-07 -8.69771e-09 -6.29915e-20
-4.95596e-08 -4.59597e-08 -4.47596e-20
-2.8219e-09 -6.65667e-08 2.92912e-20
4.8545e-08 2.44864e-08 1.03617e-20
-5.59849e-08 5.51826e-08 -6.56473e-20
-9.34966e-09 -9.79891e-08 5.30106e-20
-5.16036e-07 1.27113e-07 -2.55489e-21
2.82887e-07 2.41329e-07 -2.26456e-20
3.77989e-08 3.93037e-07 -7.8248e-21
-2.27921e-08 7.83726e-09 1.02804e-20
-7.60371e-08 2.36277e-09 4.96115e-20
3.49091e-08 6.66485e-08 -7.30027e-20
-2.7638e-08 -6.78473e-09 1.57271e-20
3.26912e-09 -2.35605e-08 -5.98824e-20
-1.52044e-08 1.03721e-07 1.30624e-20
1.68511e-08 1.77532e-08 -4.73133e-20
-1.92061e-07 4.24555e-08 -5.3822e-20
-1.94776e-07 2.12524e-07 -1.51359e-20
-2.1031e-08 1.9518e-08 -4.20358e-20
-3.52366e-07 2.12659e-07 -5.18964e-21
-9.0497e-09 3.00327e-08 -7.94925e-21
9.51123e-08 -3.40729e-08 -5.51739e-20
4.41705e-07 -4.06375e-08 5.23778e-21
-5.53797e-08 3.50418e-08 -8.94201e-20
2.23945e-08 1.03256e-08 -1.60939e-20
5.76413e-08 -3.60686e-08 -1.33532e-20
-9.88815e-08 3.29587e-08 -8.10968e-20
-7.19606e-08 1.88666e-08 -1.24303e-22
2.53083e-08 -7.39098e-09 8.16467e-20
2.34014e-07 -1.42318e-07 -3.26962e-20
-9.21062e-08 5.87271e-08 -5.37642e-21
-2.75115e-07 -5.73699e-08 1.21385e-20
-5.84807e-08 -3.07899e-08 -9.49591e-20
2.23712e-08 -1.48493e-08 -4.81222e-21
2.47812e-08 1.74074e-08 1.28177e-20
-6.25225e-09 2.81721e-08 5.24732e-21
-2.53605e-09 -3.1786e-08 1.82196e-20
-2.57929e-08 1.31868e-08 -5.7769e-20
-2.88665e-08 -1.47907e-08 -1.53752e-20
7.23135e-08 -2.73321e-08 4.14951e-20
-2.64646e-08 -7.27642e-09 1.32772e-19
-2.64085e-08 7.00879e-09 -8.53572e-23
-6.51073e-09 2.62365e-08 2.89531e-20
-7.0681e-09 -2.68116e-08 6.9215e-20
1.74507e-08 -1.95408e-08 8.24913e-20
1.67771e-08 1.8702e-08 4.23322e-20
1.01234e-08 2.79273e-07 -2.03013e-20
5.41924e-08 -4.47004e-08 -3.16591e-20
1.2648e-08 -2.38524e-08 -5.92268e-20
-2.10623e-07 7.78528e-09 -6.41923e-20
2.00012e-08 -1.89918e-08 6.57785e-20
1.86743e-08 1.92873e-08 4.76789e-20
2.86493e-08 -6.233e-10 -8.39083e-20
9.66804e-08 2.7367e-07 -8.61899e-20
-1.44951e-08 -2.37052e-08 -4.83765e-21
3.13427e-08 -7.17391e-08 7.10599e-20
-2.35039e-07 -1.30041e-07 1.27844e-20
-5.16572e-08 -3.35331e-08 -2.40041e-20
-2.35897e-07 1.39909e-07 2.53112e-20
2.09229e-08 -2.14546e-08 1.23322e-19
-1.00276e-08 2.22882e-08 2.12966e-20
-5.51676e-09 -2.70435e-07 -1.54718e-20
-8.85359e-08 -2.67844e-07 1.81817e-20
4.05907e-07 3.86325e-07 -3.21144e-20
4.34173e-07 -2.46552e-08 4.49455e-20
-3.08057e-08 6.70747e-09 -2.08186e-20
-2.90373e-07 -5.13132e-07 2.5103e-20
6.92445e-08 1.18726e-07 1.54469e-20
-2.78355e-07 3.27843e-08 -2.56298e-20
1.99838e-07 5.58802e-08 3.59157e-20
-2.73077e-08 -1.10455e-10 -2.62062e-20
5.91369e-10 -2.83857e-08 -1.53699e-20
-2.48179e-09 -1.94209e-08 4.05334e-20
-2.4209e-08 -1.44013e-08 -2.32484e-20
-6.02064e-07 -2.28153e-08 -3.46713e-20
1.89236e-07 -2.14025e-07 6.09116e-20
1.28696e-08 2.49625e-08 -1.64277e-20
6.5783e-09 -1.19506e-07 7.62389e-20
-1.12875e-07 2.67313e-07 -3.30858e-20
2.31157e-09 3.00351e-08 4.70516e-20
2.01932e-07 -1.44495e-07 5.16421e-21
-1.77696e-08 -7.76848e-09 -1.64001e-20
-1.71711e-07 -2.23176e-07 6.63544e-20
2.36632e-08 1.2045e-08 -2.88724e-20
5.60025e-08 5.41353e-08 -4.4636e-20
-3.98409e-08 -6.20638e-08 -5.31749e-21
2.45214e-08 -7.92505e-09 3.70128e-20
8.29812e-08 -5.79294e-08 -3.41627e-20
-4.92982e-09 4.6275e-08 -5.09017e-20
6.82615e-08 -1.1505e-07 -5.74448e-20
6.23251e-07 3.14031e-08 -1.98229e-20
-5.28004e-07 1.397e-07 -3.71385e-20
4.42281e-08 3.08202e-08 -9.07932e-20
-6.54209e-08 -1.57508e-07 -1.79263e-20
-9.94492e-08 -6.48769e-08 -3.13466e-20
3.23667e-07 -3.25293e-09 3.3676e-20
2.76823e-09 -6.17701e-08 2.16262e-20
-8.08979e-08 -2.85674e-08 -3.65195e-20
1.10306e-07 -2.63546e-07 1.98964e-20
8.7946e-09 1.06178e-07 -4.53938e-20
9.05331e-08 2.80757e-07 1.52941e-20
1.08665e-07 -5.72646e-08 -3.15499e-20
-1.98201e-07 2.10965e-07 -2.67239e-21
1.82251e-07 2.25205e-07 -8.11956e-20
-1.14689e-08 5.12871e-09 -5.19845e-20
1.88488e-09 4.89323e-08 -6.68156e-20
3.69705e-09 -2.22057e-08 3.22332e-21
-1.75766e-08 -1.45851e-08 2.7617e-21
-6.05365e-08 4.79965e-08 -7.83535e-20
-2.77696e-07 -6.57951e-08 3.08219e-20
9.72278e-10 3.12196e-08 5.54775e-21
-7.26349e-08 2.16866e-08 -4.47388e-20
1.96762e-07 -2.85267e-08 -1.29425e-20
-8.41361e-08 -2.72461e-07 9.50367e-23
-1.65712e-07 2.6391e-07 4.80867e-21
-4.68022e-08 2.16318e-08 -2.61054e-20
-2.22093e-07 -1.57147e-07 -2.72322e-21
5.02824e-08 -2.35856e-08 6.06551e-20
-3.01138e-07 -1.47457e-08 -4.13293e-20
1.4741e-07 -5.20156e-07 3.92457e-20
2.01421e-07 -2.11513e-07 6.93126e-20
3.07969e-07 5.46026e-07 -2.70605e-21
-2.88365e-09 6.60125e-08 -2.60675e-20
2.64381e-08 -2.74339e-07 -4.35441e-20
-1.07182e-08 6.49161e-09 -2.73994e-20
-1.42779e-07 -2.66426e-07 6.17691e-20
4.79172e-08 -4.10051e-08 -6.85794e-20
-2.75452e-08 2.77505e-07 1.53153e-20
6.68841e-08 -1.96375e-08 1.50718e-20
1.5218e-07 2.71201e-07 -5.85514e-20
1.52428e-07 -3.55969e-09 -1.55885e-20
2.7818e-07 -8.20789e-07 7.85413e-20
-5.89505e-08 -1.09749e-07 1.29959e-20
-2.45844e-07 1.0712e-07 -8.43988e-20
-3.44547e-08 1.69334e-08 -2.89843e-20
2.33385e-07 1.56295e-07 1.01747e-20
1.66357e-07 -9.18427e-08 -8.8099e-20
8.79439e-08 3.86401e-08 1.02404e-19
-1.79876e-08 1.5197e-08 -3.65884e-20
1.66853e-07 -2.57761e-07 8.4463e-20
-1.77884e-07 -2.21981e-07 -3.54993e-20
2.29515e-07 9.05317e-08 5.42194e-21
5.83942e-08 -3.60949e-08 6.53238e-20
1.07297e-07 -2.66682e-07 4.81698e-21
1.26099e-07 -2.39065e-08 -5.51656e-20
-1.22368e-07 -4.88217e-08 -1.03539e-20
-5.32179e-09 -4.96788e-08 -1.32508e-20
-2.80472e-07 3.89481e-08 -1.12572e-19
2.94682e-08 2.46046e-07 6.41768e-20
1.91882e-07 4.4777e-08 -4.40265e-20
-2.1796e-07 -9.75582e-08 -1.82994e-20
-1.07172e-07 2.74807e-07 -7.85534e-21
-2.44958e-08 -2.39715e-07 -1.035e-20
6.33847e-08 3.09356e-08 -6.36527e-20
-4.11346e-08 1.15943e-07 2.36788e-20
-1.96002e-07 1.40575e-07 -6.44312e-20
2.51717e-07 1.26966e-07 3.32663e-20
-1.14604e-07 -3.60052e-08 -4.69599e-20
-2.77875e-08 -1.18018e-07 -7.59079e-20
1.92359e-07 2.236e-07 7.83666e-21
-4.52311e-08 -2.0517e-08 5.60863e-20
6.32454e-07 -4.54767e-07 -2.4657e-21
1.33956e-07 -9.37193e-08 -5.25087e-21
1.0938e-07 5.36011e-07 -3.98779e-20
1.41249e-07 -1.35791e-07 -1.30816e-20
-3.0533e-07 1.16278e-06 -3.73396e-20
-3.071e-07 -1.15145e-06 5.08927e-20
7.54511e-07 9.9177e-07 2.28719e-21
7.45152e-07 -9.91504e-07 5.31575e-20
1.23509e-06 -4.8125e-10 4.61141e-20
-1.0647e-06 4.28345e-07 -5.01771e-21
-1.04705e-06 -4.33003e-07 -7.40474e-20
5.0932e-08 2.76321e-08 2.12014e-21
3.26835e-08 1.58689e-08 -2.68215e-20
9.49201e-08 1.27841e-08 5.14813e-20
1.67573e-07 8.95562e-08 6.73425e-20
4.97079e-08 1.98002e-07 -3.82479e-20
-1.79647e-07 -1.54342e-07 -3.05095e-20
9.04777e-08 -8.3402e-08 -1.17643e-19
1.93029e-07 1.54913e-07 -5.39938e-20
-4.4639e-08 2.437e-07 2.56312e-20
3.16998e-08 -1.55695e-08 -2.40669e-20
4.54316e-08 -2.33867e-07 1.33304e-19
5.9372e-08 4.00302e-08 -5.63406e-21
3.48143e-07 1.21959e-07 -4.26684e-20
7.8114e-09 2.50687e-08 2.91424e-20
1.34566e-07 4.40449e-08 8.02234e-20
-1.66543e-07 9.21253e-08 -2.34528e-20
-2.28016e-07 7.88813e-08 -1.00326e-19
4.51554e-08 -3.0936e-08 -2.96944e-20
-1.45585e-07 -6.73703e-08 -6.21398e-20
-1.59957e-07 -9.47454e-08 -3.35568e-20
-1.40202e-08 -1.60578e-07 7.28134e-20
6.32752e-10 -1.84422e-07 5.94043e-20
-2.03044e-07 -8.77731e-09 -4.20848e-23
3.01352e-07 -4.67893e-08 -2.02144e-20
1.62584e-07 1.00199e-07 -3.3532e-20
-1.34541e-07 9.17799e-08 -5.72674e-20
-6.067e-08 2.97021e-08 -2.61106e-20
1.51746e-07 -1.35968e-07 3.82908e-20
-1.14012e-07 1.77522e-07 -2.81309e-20
-1.40445e-07 -1.47943e-07 -2.7879e-20
-1.33093e-08 1.93371e-07 3.36628e-20
-2.89296e-08 1.63209e-07 -2.08631e-20
4.76941e-09 -1.18492e-07 -1.0494e-20
6.11259e-08 -1.97563e-07 1.80192e-20
-9.99169e-08 -6.41215e-08 -1.54197e-19
1.38427e-07 -3.94779e-08 -4.16992e-20
3.39456e-10 1.93132e-07 -1.29152e-20
-4.17682e-09 1.23408e-07 -3.14276e-20
-3.10124e-08 1.38812e-07 -3.34488e-20
2.27179e-07 -5.59086e-08 8.75764e-20
-4.77209e-08 4.55559e-08 -6.29846e-20
5.1492e-08 1.93289e-07 2.91359e-21
-3.11261e-08 1.9646e-08 -1.88414e-20
1.14725e-07 5.31975e-07 -2.46165e-20
-5.62891e-08 3.0384e-08 -3.41039e-20
5.97221e-08 -3.10875e-08 2.91832e-20
1.71762e-08 1.64249e-07 1.7894e-20
-1.92622e-07 4.5756e-08 -5.45439e-20
-5.91943e-09 -8.3507e-08 3.4141e-23
7.94431e-09 -7.58929e-07 9.37088e-21
2.30566e-08 1.39242e-07 1.28602e-20
-1.43901e-07 1.36897e-07 -9.33646e-20
2.23442e-07 8.31035e-07 2.21977e-20
1.07374e-08 7.06993e-09 5.19717e-20
9.27714e-09 -6.74282e-09 4.06971e-20
1.08339e-07 -8.44837e-08 4.42886e-20
-1.53775e-07 1.37684e-07 7.21719e-20
-1.8458e-07 -5.45258e-08 5.13136e-23
-1.89675e-07 -6.22959e-08 5.03938e-21
-3.77171e-09 2.3204e-09 -2.76582e-20
-2.60369e-09 -1.25027e-09 -2.99044e-20
8.86019e-08 1.80043e-08 -4.71901e-22
2.8119e-08 1.29316e-07 7.31731e-21
-3.24979e-09 1.2858e-07 -2.1257e-20
-6.35665e-07 -4.61744e-07 2.85502e-20
1.12845e-07 -1.77486e-07 5.88005e-20
5.70859e-08 2.05661e-08 1.55063e-20
-2.09349e-07 -2.25217e-08 -1.80283e-20
-1.3237e-07 1.74878e-07 -2.82044e-20
-1.7089e-07 8.03542e-08 -8.54231e-20
6.2407e-07 4.48407e-07 -3.36437e-20
6.17724e-08 4.06026e-08 2.71728e-21
-6.07499e-08 1.98276e-07 5.2339e-21
-1.19764e-07 -1.02581e-07 -7.72987e-21
2.97915e-08 -1.56206e-07 1.09282e-19
-9.69065e-08 -1.84377e-07 -5.15996e-21
-1.55289e-07 -1.06441e-07 -5.41034e-20
1.0643e-07 -1.88751e-07 4.12577e-20
1.2767e-07 -1.7545e-07 7.71157e-20
-4.04606e-08 -7.91959e-07 -3.67705e-20
3.25621e-07 -5.20841e-07 5.95833e-20
1.55572e-08 -1.89621e-07 1.26683e-19
1.33723e-07 1.01798e-07 -5.36737e-21
-1.20118e-07 -1.45805e-07 3.01727e-21
-1.04174e-07 1.94215e-07 -4.88252e-20
-6.4001e-08 1.90356e-07 -6.43768e-20
1.3943e-07 1.44378e-07 -2.322e-20
6.83546e-08 -1.78048e-07 5.95423e-20
-1.76719e-07 -5.03877e-07 -3.94793e-20
3.98356e-09 6.124e-08 -1.36417e-20
1.41156e-07 1.45248e-07 3.10146e-20
-7.60993e-08 -3.74761e-08 5.0286e-20
-6.3234e-08 3.4522e-08 5.8648e-22
5.65801e-07 -2.47868e-07 -9.88021e-21
7.02799e-08 -1.16152e-07 -1.03865e-20
-6.67059e-08 -1.14117e-07 -5.17066e-21
2.53243e-08 -2.18896e-09 7.70466e-21
2.18912e-09 -9.59936e-09 2.18735e-20
-7.10005e-09 -7.02672e-09 -2.45739e-20
3.11791e-08 2.04373e-08 2.89421e-20
-9.77219e-08 -1.84472e-07 2.56276e-21
1.50381e-07 6.03104e-08 -1.04739e-20
-3.65899e-07 -4.0226e-07 -7.64096e-21
1.3847e-09 1.1798e-08 -5.94681e-20
1.36443e-09 2.10135e-09 1.87769e-20
2.63063e-09 -3.48821e-10 -6.05194e-20
3.51113e-07 -6.93363e-07 4.57697e-20
-1.45979e-08 1.71949e-08 -9.43377e-20
-3.34939e-09 2.08312e-08 -1.89123e-20
-1.51205e-07 5.3752e-08 -1.02662e-20
-5.22392e-09 6.14253e-08 2.71046e-21
-3.32192e-08 9.84992e-08 -1.03932e-20
6.84815e-08 2.92174e-09 5.98019e-20
1.54433e-08 5.92169e-08 -3.25603e-21
-4.04845e-09 8.18844e-08 3.36752e-20
1.17368e-07 6.38548e-08 1.5447e-20
8.35929e-09 7.55385e-07 1.6717e-20
-1.09197e-07 1.03323e-07 -5.4741e-20
8.18815e-08 -5.50515e-08 -9.41891e-20
4.72742e-08 -4.316e-08 -3.16278e-20
-7.74769e-07 -1.06379e-07 -1.24414e-19
-2.20899e-08 8.75477e-09 -3.80666e-20
-5.64156e-07 -6.67345e-07 3.13595e-20
1.0256e-08 2.74585e-08 -3.67335e-20
9.89661e-08 1.92459e-08 9.09877e-20
2.94621e-07 -3.82374e-08 1.8295e-20
-6.73537e-08 -1.10677e-07 -2.88522e-20
1.2878e-07 3.69381e-08 7.77613e-20
6.72831e-10 -3.27785e-08 -5.61103e-20
-7.26324e-08 8.40314e-08 -8.86198e-20
-2.7778e-08 -1.76737e-08 5.60135e-20
-6.54625e-08 1.32996e-07 -4.67381e-20
1.18423e-08 8.3948e-08 -5.31209e-20
1.92502e-08 1.41108e-08 -6.20671e-20
1.91046e-08 -1.35556e-08 6.74817e-20
-5.25229e-07 -1.43082e-07 -1.10726e-19
5.78682e-08 2.1596e-08 8.33352e-20
-6.96658e-08 1.34833e-06 -1.43582e-20
-4.84777e-09 -1.38527e-06 7.50707e-21
6.81856e-07 1.16725e-06 9.36561e-21
-7.07791e-08 5.61477e-08 -3.66328e-20
-3.61303e-07 7.27121e-07 -5.06645e-20
6.85771e-07 -1.12661e-06 -1.17048e-20
-1.13409e-07 -1.83554e-07 4.37576e-20
1.04137e-06 9.12482e-07 -7.0211e-21
1.2248e-08 -2.17229e-08 -8.82316e-20
-1.27616e-08 -2.20116e-08 -2.38497e-20
1.09161e-06 -8.92167e-07 -1.231e-20
-6.68981e-08 1.31563e-07 -5.66595e-20
-6.85707e-07 -4.36706e-07 -1.24842e-19
-5.78228e-07 -1.20519e-06 -1.95835e-20
-3.23864e-07 -7.45058e-07 -1.9636e-20
-5.94432e-07 1.22525e-06 -2.44942e-20
-1.40478e-07 8.30315e-07 -4.18597e-20
-9.90088e-10 2.90861e-08 -6.73928e-20
-3.60688e-07 4.64377e-07 -2.68519e-20
-3.45312e-07 -7.06754e-07 -1.9692e-20
1.34279e-06 2.3432e-07 -3.24306e-22
-1.05015e-07 8.92783e-08 -8.33991e-20
-2.46899e-09 5.899e-08 -6.11855e-20
-6.49528e-07 4.70214e-07 -3.43739e-20
-1.16463e-07 6.21585e-08 -9.66991e-20
1.32956e-06 -2.08417e-07 1.21821e-20
-8.88896e-08 5.96687e-08 -1.09716e-19
6.47485e-08 -1.33907e-07 -1.29227e-20
-1.03467e-06 -7.85837e-07 -6.75914e-20
-3.48883e-07 7.47532e-07 4.39455e-20
-1.05974e-06 7.80065e-07 -7.44616e-20
3.09642e-07 6.90778e-07 3.85492e-20
-1.14009e-07 9.06279e-08 -4.15084e-20
-3.16429e-08 1.79223e-08 -5.63747e-20
-1.73444e-09 -2.7483e-09 5.51247e-20
4.30944e-10 -2.37635e-09 -3.54886e-20
8.66663e-09 9.10141e-08 -5.6307e-21
-2.54296e-09 2.7528e-09 5.1731e-20
1.33726e-09 3.41226e-09 2.23068e-20
2.29085e-09 -9.80975e-10 -1.48486e-19
-1.35672e-09 1.07839e-08 6.02007e-20
-2.38261e-07 5.19832e-07 -1.24937e-20
-1.79257e-08 1.28697e-08 -5.4283e-20
3.08966e-08 -1.94621e-08 -1.11009e-20
3.02846e-08 -1.75425e-08 6.43223e-20
8.72316e-08 3.40443e-08 8.03428e-20
-8.22876e-10 -9.22973e-09 2.66318e-20
-8.24173e-09 -4.17614e-09 -8.23689e-20
3.0267e-08 1.76558e-08 8.61632e-20
7.69981e-07 -1.48395e-07 -3.62891e-20
-9.97722e-08 -1.27175e-07 -7.96438e-21
-6.74132e-07 4.69986e-07 -4.573e-20
-6.03585e-07 6.88421e-07 -2.19108e-20
8.13609e-07 -2.93824e-07 -5.63911e-20
-3.90911e-09 -1.13274e-08 7.86077e-20
-4.29234e-09 1.16355e-08 3.51523e-20
-1.279e-08 2.19202e-09 5.12473e-20
-8.38274e-09 8.5568e-09 -2.71616e-20
-1.15945e-08 -2.45205e-09 4.0838e-20
2.15215e-09 2.72112e-09 1.36824e-20
1.24455e-08 -3.05845e-09 -5.17471e-20
5.25079e-09 -3.68881e-09 5.44138e-20
-3.6656e-09 -2.65092e-09 2.75034e-21
7.95618e-09 -8.18663e-09 -7.08221e-20
8.00029e-09 8.43033e-09 -8.09675e-21
-3.68795e-09 2.33103e-09 7.16834e-20
4.05415e-09 -8.04827e-10 2.01912e-20
6.72011e-09 3.72054e-09 3.28001e-21
1.45455e-08 5.18732e-09 1.35469e-20
SCALARS rr_necrosis float
LOOKUP_TABLE default
0
0
0
0
0
0
0
0
0
0
0
0
0
0
0
0
0
0
0
0
0
0
0
0
0
0
0
0
0
0
0
0
0
0
0
0
0
0
0
0
0
0
0
0
0
0
0
0
0
0
0
0
0
0
0
0
0
0
0
0
0
0
0
0
0
0
0
0
0
0
0
0
0
0
0
0
0
0
0
0
0
0
0
0
0
0
0
0
0
0
0
0
0
0
0
0
0
0
0
0
0
0
0
0
0
0
0
0
0
0
0
0
0
0
0
0
0
0
0
0
0
0
0
0
0
0
0
0
0
0
0
0
0
0
0
0
0
0
0
0
0
0
0
0
0
0
0
0
0
0
0
0
0
0
0
0
0
0
0
0
0
0
0
0
0
0
0
0
0
0
0
0
0
0
0
0
0
0
0
0
0
0
0
0
0
0
0
0
0
0
0
0
0
0
0
0
0
0
0
0
0
0
0
0
0
0
0
0
0
0
0
0
0
0
0
0
0
0
0
0
0
0
0
0
0
0
0
0
0
0
0
0
0
0
0
0
0
0
0
0
0
0
0
0
0
0
0
0
0
0
0
0
0
0
0
0
0
0
0
0
0
0
0
0
0
0
0
0
0
0
0
0
0
0
0
0
0
0
0
0
0
0
0
0
0
0
0
0
0
0
0
0
0
0
0
0
0
0
0
0
0
0
0
0
0
0
0
0
0
0
0
0
0
0
0
0
0
0
0
0
0
0
0
0
0
0
0
0
0
0
0
0
0
0
0
0
0
0
0
0
0
0
0
0
0
0
0
0
0
0
0
0
0
0
0
0
0
0
0
0
0
0
0
0
0
0
0
0
0
0
0
0
0
0
0
0
0
0
0
0
0
0
0
0
0
0
0
0
0
0
0
0
0
0
0
0
0
0
0
0
0
0
0
0
0
0
0
0
0
0
0
0
0
0
0
0
0
0
0
0
0
0
0
0
0
0
0
0
0
0
0
0
0
0
0
0
0
0
0
0
0
0
0
0
0
0
0
0
0
0
0
0
0
0
0
0
0
0
0
0
0
0
0
0
0
0
0
0
0
0
0
0
0
0
0
0
0
0
0
0
0
0
0
0
0
0
0
0
0
0
0
0
0
0
0
0
0
0
0
0
0
0
0
0
0
0
0
0
0
0
0
0
0
0
0
0
0
0
0
0
0
0
0
0
0
0
0
0
0
0
0
0
0
0
0
0
0
0
0
0
0
0
0
0
0
0
0
0
0
0
0
0
0
0
0
0
0
0
0
0
0
0
0
SCALARS rr_protein float
LOOKUP_TABLE default
1
1
1
1
1
1
1
1
1
1
1
1
1
1
1
1
1
1
1
1
1
1
1
1
1
1
1
1
1
1
1
1
1
1
1
1
1
1
1
1
1
1
1
1
1
1
1
1
1
1
1
1
1
1
1
1
1
1
1
1
1
1
1
1
1
1
1
1
1
1
1
1
1
1
1
1
1
1
1
1
1
1
1
1
1
1
1
1
1
1
1
1
1
1
1
1
1
1
1
1
1
1
1
1
1
1
1
1
1
1
1
1
1
1
1
1
1
1
1
1
1
1
1
1
1
1
1
1
1
1
1
1
1
1
1
1
1
1
1
1
1
1
1
1
1
1
1
1
1
1
1
1
1
1
1
1
1
1
1
1
1
1
1
1
1
1
1
1
1
1
1
1
1
1
1
1
1
1
1
1
1
1
1
1
1
1
1
1
1
1
1
1
1
1
1
1
1
1
1
1
1
1
1
1
1
1
1
1
1
1
1
1
1
1
1
1
1
1
1
1
1
1
1
1
1
1
1
1
1
1
1
1
1
1
1
1
1
1
1
1
1
1
1
1
1
1
1
1
1
1
1
1
1
1
1
1
1
1
1
1
1
1
1
1
1
1
1
1
1
1
1
1
1
1
1
1
1
1
1
1
1
1
1
1
1
1
1
1
1
1
1
1
1
1
1
1
1
1
1
1
1
1
1
1
1
1
1
1
1
1
1
1
1
1
1
1
1
1
1
1
1
1
1
1
1
1
1
1
1
1
1
1
1
1
1
1
1
1
1
1
1
1
1
1
1
1
1
1
1
1
1
1
1
1
1
1
1
1
1
1
1
1
1
1
1
1
1
1
1
1
1
1
1
1
1
1
1
1
1
1
1
1
1
1
1
1
1
1
1
1
1
1
1
1
1
1
1
1
1
1
1
1
1
1
1
1
1
1
1
1
1
1
1
1
1
1
1
1
1
1
1
1
1
1
1
1
1
1
1
1
1
1
1
1
1
1
1
1
1
1
1
1
1
1
1
1
1
1
1
1
1
1
1
1
1
1
1
1
1
1
1
1
1
1
1
1
1
1
1
1
1
1
1
1
1
1
1
1
1
1
1
1
1
1
1
1
1
1
1
1
1
1
1
1
1
1
1
1
1
1
1
1
1
1
1
1
1
1
1
1
1
1
1
1
1
1
1
1
1
1
1
1
1
1
1
1
1
1
1
1
1
1
1
1
1
1
1
1
1
1
1
1
1
1
1
1
1
1
1
1
1
1
1
1
1
1
1
1
1
1
1
1
1
SCALARS rr_(S_ext) float
LOOKUP_TABLE default
0.994024
0.993935
0.993946
0.993934
0.993929
0.993946
0.994024
0.993943
0.993955
0.993938
0.993991
0.993943
0.993945
0.993939
0.993928
0.993946
0.993934
0.99394
0.993954
0.993947
0.993952
0.993907
0.993948
0.993947
0.993947
0.993938
0.993996
0.993945
0.993975
0.993916
0.993946
0.993973
0.994
0.993919
0.993921
0.993919
0.993913
0.993923
0.993946
0.994
0.993974
0.993912
0.993912
0.993945
0.993984
0.993975
0.993954
0.993954
0.993946
0.993977
0.993975
0.993969
0.993926
0.993971
0.993927
0.993993
0.993921
0.99397
0.993921
0.993946
0.993932
0.993933
0.993999
0.993934
0.993932
0.993938
0.993932
0.993939
0.993947
0.993934
0.993926
0.993926
0.993975
0.993937
0.993947
0.993999
0.993932
0.993939
0.993939
0.993964
0.993984
0.993927
0.993932
0.993983
0.993976
0.993989
0.993945
0.993939
0.993984
0.99391
0.99397
0.99391
0.993929
0.993939
0.993971
0.993974
0.993986
0.993938
0.993932
0.993946
0.993963
0.993976
0.993982
0.993938
0.993939
0.993938
0.993932
0.993947
0.993983
0.99393
0.993946
0.993984
0.993983
0.993939
0.993938
0.993971
0.993924
0.993987
0.993924
0.993971
0.993957
0.993927
0.993933
0.993935
0.99393
0.993927
0.993924
0.993938
0.993986
0.993969
0.993924
0.993934
0.993931
0.993933
0.993977
0.99392
0.993991
0.993945
0.993931
0.99392
0.993975
0.993943
0.993958
0.993938
0.993988
0.993938
0.993943
0.993948
0.993947
0.993963
0.993953
0.993933
0.993973
0.993945
0.993938
0.993934
0.993938
0.993976
0.993975
0.993942
0.993954
0.993972
0.993986
0.993974
0.993974
0.993938
0.993975
0.993976
0.993974
0.993974
0.993929
0.99397
0.993975
0.993938
0.99397
0.993932
0.993929
0.993944
0.993928
0.99394
0.993976
0.993938
0.993938
0.993974
0.993938
0.993976
0.993935
0.993934
0.993931
0.993938
0.993938
0.993985
0.993969
0.993973
0.993934
0.99394
0.993939
0.993931
0.993933
0.993939
0.993933
0.993955
0.993965
0.993932
0.993976
0.993931
0.99394
0.993975
0.993933
0.993933
0.993934
0.993941
0.993939
0.993932
0.993962
0.993941
0.993965
0.993935
0.99393
0.99393
0.993929
0.99393
0.99393
0.99393
0.993939
0.993927
0.993927
0.993927
0.993927
0.993928
0.993927
0.993962
0.993937
0.993931
0.993955
0.993928
0.993928
0.993931
0.993964
0.99393
0.993938
0.993963
0.993931
0.993963
0.993932
0.99393
0.993962
0.993964
0.993984
0.993977
0.993932
0.993989
0.993945
0.993965
0.993955
0.993931
0.99393
0.993914
0.99393
0.993992
0.993964
0.99393
0.993943
0.993965
0.99393
0.993958
0.993914
0.993964
0.99393
0.993936
0.993939
0.993928
0.993939
0.993927
0.993944
0.993987
0.993989
0.99393
0.99395
0.993943
0.993965
0.993931
0.993939
0.993964
0.993939
0.993963
0.993943
0.993963
0.993964
0.993911
0.993928
0.993926
0.993926
0.993938
0.993963
0.99392
0.993936
0.993953
0.993962
0.993965
0.993929
0.993963
0.993931
0.993965
0.993984
0.993962
0.993988
0.993934
0.993962
0.993911
0.993964
0.993935
0.993963
0.993935
0.993964
0.993947
0.994004
0.993945
0.993963
0.993927
0.993962
0.993952
0.993938
0.993934
0.993964
0.993963
0.993958
0.993936
0.993962
0.993944
0.993946
0.993929
0.993963
0.993958
0.993952
0.993959
0.993963
0.993958
0.993934
0.993943
0.993959
0.993962
0.993942
0.993942
0.993962
0.993929
0.993994
0.993948
0.993984
0.993952
0.993998
0.993998
0.993996
0.993996
0.993994
0.994002
0.994003
0.993934
0.993923
0.993941
0.993952
0.993954
0.993958
0.993943
0.993958
0.993958
0.993924
0.993958
0.993934
0.993969
0.993927
0.993946
0.993953
0.993959
0.993931
0.993948
0.993952
0.993948
0.993952
0.993956
0.993965
0.993952
0.993949
0.993933
0.993955
0.993956
0.993955
0.993953
0.993948
0.993942
0.993955
0.993942
0.993947
0.993952
0.993943
0.993947
0.993957
0.993934
0.993952
0.993923
0.993984
0.993934
0.993934
0.993948
0.993953
0.993938
0.993996
0.993946
0.993953
0.994003
0.993914
0.993915
0.993946
0.993955
0.993952
0.993955
0.99391
0.993909
0.99394
0.993944
0.993943
0.994
0.993955
0.993934
0.993955
0.993956
0.993953
0.993993
0.993936
0.993955
0.993948
0.993948
0.993955
0.993952
0.993955
0.993955
0.993999
0.993988
0.993952
0.993948
0.993952
0.993955
0.993953
0.993952
0.993952
0.993986
0.99393
0.993954
0.993938
0.993936
0.993987
0.993946
0.993946
0.993929
0.993908
0.993908
0.993927
0.993956
0.993948
0.993987
0.993909
0.993906
0.993906
0.993994
0.993922
0.993915
0.993949
0.993931
0.993942
0.993936
0.993933
0.993936
0.993944
0.993994
0.993947
0.99394
0.993935
0.993999
0.993917
0.994008
0.993932
0.993941
0.993963
0.993944
0.993945
0.993923
0.993942
0.993924
0.993947
0.993936
0.993917
0.993918
0.993989
0.993936
0.994025
0.994027
0.994022
0.993938
0.994
0.994021
0.993955
0.994022
0.993927
0.993927
0.994024
0.993948
0.994002
0.994028
0.993999
0.994028
0.994
0.993922
0.993989
0.993999
0.994022
0.993945
0.993933
0.994001
0.993945
0.994019
0.993941
0.993949
0.994028
0.994
0.994027
0.993993
0.993947
0.993924
0.993905
0.993905
0.993939
0.993904
0.993904
0.993905
0.993908
0.993988
0.993917
0.993929
0.993925
0.99394
0.993909
0.993908
0.993926
0.993992
0.99395
0.994002
0.994011
0.994003
0.993909
0.993909
0.99391
0.99391
0.993909
0.993908
0.993914
0.99391
0.993909
0.993912
0.993911
0.993909
0.993907
0.993909
0.993912
SCALARS rr_(P_ext) float
LOOKUP_TABLE default
0.021565
0.0214636
0.0214726
0.0214654
0.0214381
0.0214728
0.0215653
0.0214667
0.0214811
0.021464
0.0215583
0.0214667
0.0214688
0.0214627
0.0214474
0.0214711
0.0214591
0.0214678
0.0214856
0.0214751
0.0214765
0.0214032
0.0214764
0.0214749
0.0214753
0.0214661
0.0215442
0.0214714
0.0215132
0.0214237
0.0214691
0.021513
0.0215457
0.0214298
0.0214268
0.0214299
0.0214226
0.0214281
0.0214693
0.0215454
0.0215135
0.0214222
0.0214223
0.0214691
0.0215359
0.0215118
0.0214835
0.0214794
0.0214724
0.0215195
0.0215158
0.0215029
0.0214395
0.0215027
0.0214403
0.0215329
0.0214266
0.0215026
0.0214267
0.0214746
0.0214594
0.0214511
0.0215377
0.0214516
0.0214509
0.0214591
0.0214591
0.0214661
0.0214757
0.0214633
0.0214397
0.0214398
0.0215135
0.021456
0.0214723
0.02155
0.0214456
0.0214592
0.0214661
0.0215006
0.0215216
0.0214349
0.0214552
0.0215244
0.0215103
0.0215348
0.0214715
0.0214576
0.0215358
0.0214082
0.0215028
0.0214083
0.021445
0.0214603
0.0215019
0.0215168
0.0215214
0.0214642
0.0214458
0.0214697
0.0214914
0.0215079
0.0215246
0.0214669
0.0214651
0.0214649
0.021454
0.0214705
0.0215248
0.0214621
0.0214745
0.0215327
0.0215281
0.0214674
0.0214653
0.0215023
0.0214267
0.0215219
0.021427
0.021502
0.0214878
0.0214486
0.0214637
0.0214573
0.0214614
0.0214466
0.0214302
0.0214642
0.0215214
0.0215019
0.0214396
0.0214643
0.0214557
0.021464
0.0215078
0.0214265
0.021527
0.0214681
0.0214551
0.0214266
0.0215066
0.0214638
0.0214863
0.021464
0.0215223
0.0214658
0.0214653
0.0214724
0.0214727
0.0214944
0.0214796
0.0214637
0.0215132
0.0214686
0.021464
0.0214642
0.0214612
0.0215056
0.0215053
0.0214688
0.0214792
0.0215125
0.0215334
0.0215158
0.0215057
0.0214648
0.0215057
0.0215059
0.0215132
0.0215055
0.0214447
0.0215026
0.021516
0.0214603
0.0215024
0.0214543
0.0214448
0.0214667
0.0214391
0.0214647
0.0215131
0.0214644
0.0214644
0.0215064
0.0214574
0.0215167
0.0214573
0.0214538
0.0214444
0.0214642
0.0214572
0.0215204
0.0215025
0.0215131
0.0214641
0.0214682
0.0214676
0.0214558
0.0214638
0.0214595
0.0214636
0.0214843
0.0214999
0.0214559
0.021513
0.0214552
0.0214592
0.0215084
0.0214498
0.0214634
0.0214489
0.0214622
0.0214654
0.0214551
0.0214941
0.0214614
0.0214989
0.0214539
0.0214616
0.0214616
0.0214627
0.0214623
0.0214622
0.0214623
0.0214633
0.0214481
0.0214484
0.0214481
0.021448
0.0214401
0.0214401
0.0214948
0.021463
0.0214663
0.0214799
0.0214474
0.0214471
0.021466
0.0214996
0.0214666
0.0214642
0.0214937
0.0214496
0.0214941
0.0214548
0.021467
0.0214934
0.0214984
0.0215218
0.021521
0.0214551
0.0215238
0.0214699
0.021499
0.021485
0.0214667
0.0214618
0.0214217
0.0214621
0.0215245
0.0214989
0.0214663
0.0214667
0.0215001
0.0214619
0.0214858
0.0214218
0.0214987
0.0214614
0.0214579
0.0214676
0.0214477
0.0214578
0.0214396
0.0214688
0.0215312
0.0215349
0.0214423
0.0214763
0.0214667
0.0214941
0.0214495
0.0214604
0.0214988
0.0214601
0.021491
0.0214649
0.021491
0.0214994
0.021414
0.0214438
0.0214471
0.0214473
0.0214634
0.0214903
0.0214309
0.0214583
0.0214789
0.0214899
0.0214931
0.0214424
0.0214937
0.021445
0.021492
0.0215357
0.0214904
0.0215228
0.0214536
0.0214937
0.021414
0.021492
0.0214559
0.0214948
0.0214569
0.0214922
0.0214715
0.0215394
0.0214735
0.021494
0.0214428
0.0214944
0.0214789
0.0214569
0.0214633
0.0214921
0.0214904
0.0214861
0.0214538
0.0214905
0.0214667
0.0214714
0.0214398
0.0214904
0.0214866
0.0214774
0.0214855
0.0214914
0.0214853
0.0214507
0.021467
0.0214862
0.0214941
0.0214641
0.0214639
0.0214909
0.0214399
0.0215619
0.0214718
0.0215217
0.021477
0.0216155
0.0216154
0.0216147
0.021615
0.0216147
0.0216157
0.0216153
0.0214533
0.0214336
0.0214685
0.0214793
0.021485
0.0214856
0.0214648
0.0214862
0.0214867
0.0214334
0.0214856
0.0214491
0.0215028
0.0214497
0.021473
0.0214795
0.0214859
0.0214421
0.0214718
0.0214788
0.0214717
0.0214787
0.0214864
0.021501
0.0214795
0.0214727
0.0214488
0.0214841
0.0214873
0.0214845
0.0214801
0.0214729
0.0214647
0.0214846
0.0214649
0.0214738
0.0214799
0.0214665
0.0214735
0.0214858
0.021457
0.0214779
0.0214345
0.0215356
0.0214533
0.0214507
0.0214728
0.0214776
0.0214594
0.0215606
0.0214729
0.021478
0.0215389
0.0214146
0.0214143
0.0214718
0.0214851
0.0214768
0.021484
0.0213992
0.0213992
0.0214664
0.0214664
0.0214668
0.0215609
0.0214867
0.0214555
0.0214799
0.0214807
0.02148
0.0215625
0.0214575
0.0214856
0.0214721
0.0214721
0.0214809
0.0214789
0.0214809
0.02148
0.0215447
0.0215226
0.021479
0.0214719
0.0214778
0.0214813
0.0214784
0.0214772
0.0214778
0.0215356
0.0214474
0.0214846
0.0214596
0.021457
0.0215362
0.0214725
0.0214733
0.0214397
0.0214152
0.0214153
0.0214438
0.0214869
0.0214723
0.0215372
0.0214172
0.0214015
0.0214015
0.0215636
0.0214281
0.0214237
0.0214734
0.0214455
0.0214686
0.0214634
0.0214566
0.0214542
0.0214667
0.0215609
0.0214709
0.0214604
0.0214557
0.0215506
0.0214269
0.0215406
0.0214561
0.0214631
0.0214926
0.0214692
0.0214671
0.0214388
0.0214658
0.0214389
0.0214719
0.0214556
0.0214253
0.0214247
0.0215369
0.0214621
0.0215669
0.021565
0.0215691
0.0214575
0.0215621
0.0215712
0.0214812
0.021568
0.0214346
0.0214347
0.0215665
0.0214772
0.0215444
0.0215675
0.0215463
0.0215679
0.0215463
0.0214275
0.0215406
0.0215616
0.0215667
0.0214675
0.021452
0.0215479
0.0214673
0.0215705
0.0214641
0.0214766
0.0215686
0.0215494
0.02157
0.0215636
0.0214738
0.0214329
0.0214033
0.0214046
0.0214624
0.0214035
0.0214036
0.0214041
0.0214119
0.0215387
0.021426
0.0214432
0.0214328
0.0214636
0.0214098
0.0214099
0.021431
0.0215647
0.0214775
0.0215634
0.0215422
0.0215415
0.0214184
0.0214187
0.0214194
0.0214192
0.0214185
0.021405
0.0214192
0.0214098
0.021403
0.0214182
0.0214181
0.0214026
0.0214047
0.0214094
0.0214199
SCALARS rr_(S) float
LOOKUP_TABLE default
0.977329
0.977194
0.97721
0.977194
0.977177
0.97721
0.977329
0.977204
0.977222
0.977198
0.977294
0.977204
0.977206
0.977198
0.97718
0.977209
0.977191
0.977202
0.977223
0.977211
0.977217
0.97714
0.977213
0.977212
0.977212
0.977199
0.977292
0.977208
0.977256
0.977158
0.977207
0.977255
0.977296
0.977164
0.977164
0.977164
0.977155
0.977166
0.977208
0.977296
0.977256
0.977154
0.977154
0.977207
0.977276
0.977256
0.977223
0.97722
0.977209
0.977261
0.977258
0.977246
0.977174
0.977248
0.977176
0.977283
0.977164
0.977247
0.977164
0.97721
0.97719
0.977187
0.977291
0.977188
0.977186
0.977196
0.977189
0.9772
0.977212
0.977193
0.977175
0.977175
0.977257
0.977193
0.97721
0.977297
0.977183
0.977196
0.977199
0.97724
0.977269
0.977174
0.977188
0.97727
0.977257
0.97728
0.977208
0.977196
0.977276
0.977145
0.977247
0.977146
0.977181
0.977197
0.977247
0.977257
0.977271
0.977197
0.977183
0.977208
0.977234
0.977255
0.977269
0.977199
0.977199
0.977198
0.977187
0.977209
0.97727
0.977189
0.97721
0.977274
0.977271
0.9772
0.977198
0.977248
0.977167
0.977272
0.977167
0.977247
0.977227
0.97718
0.977193
0.977191
0.977189
0.977179
0.977169
0.977197
0.977271
0.977246
0.977173
0.977194
0.977187
0.977193
0.977256
0.977163
0.977278
0.977206
0.977187
0.977163
0.977253
0.977202
0.977227
0.977197
0.977273
0.977198
0.977203
0.977212
0.97721
0.977236
0.977219
0.977193
0.977254
0.977207
0.977197
0.977193
0.977197
0.977254
0.977253
0.977203
0.97722
0.977254
0.977277
0.977257
0.977252
0.977198
0.977253
0.977254
0.977255
0.977252
0.97718
0.977247
0.977258
0.977196
0.977247
0.977188
0.97718
0.977204
0.977176
0.9772
0.977257
0.977197
0.977197
0.977253
0.977195
0.977259
0.977191
0.977189
0.977182
0.977197
0.977195
0.97727
0.977246
0.977255
0.977193
0.977201
0.9772
0.977187
0.977193
0.977197
0.977193
0.977223
0.97724
0.977188
0.977257
0.977187
0.977197
0.977254
0.977186
0.977193
0.977187
0.977199
0.977199
0.977188
0.977235
0.977199
0.97724
0.97719
0.977189
0.977189
0.977188
0.977189
0.977189
0.977189
0.977198
0.97718
0.97718
0.977179
0.97718
0.977177
0.977176
0.977236
0.977196
0.977192
0.977221
0.977181
0.97718
0.977192
0.977239
0.977192
0.977197
0.977235
0.977185
0.977236
0.977188
0.977191
0.977234
0.977239
0.977269
0.977262
0.977188
0.977275
0.977207
0.97724
0.977223
0.977192
0.977189
0.977156
0.977189
0.977278
0.977239
0.977191
0.977203
0.97724
0.977189
0.977227
0.977156
0.977239
0.977189
0.977193
0.9772
0.977181
0.977196
0.977176
0.977205
0.977277
0.97728
0.97718
0.977215
0.977204
0.977238
0.977185
0.977196
0.977239
0.977197
0.977234
0.977203
0.977235
0.977239
0.977149
0.977179
0.977178
0.977178
0.977197
0.977234
0.977165
0.977193
0.977219
0.977233
0.977237
0.977179
0.977235
0.977182
0.977237
0.977276
0.977234
0.977274
0.977189
0.977235
0.977149
0.977236
0.977191
0.977236
0.977192
0.977236
0.97721
0.977298
0.977209
0.977236
0.977177
0.977235
0.977218
0.977195
0.977193
0.977236
0.977234
0.977227
0.977191
0.977233
0.977205
0.977209
0.977178
0.977234
0.977228
0.977218
0.977227
0.977235
0.977227
0.977187
0.977204
0.977228
0.977235
0.977202
0.977202
0.977234
0.977178
0.977298
0.977211
0.97727
0.977217
0.977327
0.977328
0.977325
0.977325
0.977323
0.977332
0.977332
0.977189
0.977169
0.977203
0.977218
0.977223
0.977227
0.977203
0.977227
0.977228
0.97717
0.977227
0.977187
0.977246
0.97718
0.97721
0.977219
0.977228
0.977181
0.977211
0.977218
0.977211
0.977218
0.977225
0.977241
0.977218
0.977212
0.977186
0.977223
0.977226
0.977224
0.977219
0.977212
0.977202
0.977223
0.977202
0.977211
0.977219
0.977204
0.97721
0.977226
0.977191
0.977218
0.97717
0.977276
0.977189
0.977188
0.977212
0.977219
0.977195
0.977299
0.977209
0.977219
0.977296
0.977152
0.977153
0.977209
0.977224
0.977218
0.977223
0.977141
0.97714
0.977201
0.977204
0.977204
0.977304
0.977225
0.97719
0.977221
0.977222
0.977219
0.977297
0.977193
0.977224
0.977211
0.977211
0.977221
0.977219
0.977221
0.977221
0.977294
0.977273
0.977218
0.977211
0.977218
0.977222
0.977219
0.977218
0.977218
0.977278
0.977183
0.977223
0.977195
0.977192
0.977279
0.977209
0.977209
0.977178
0.977146
0.977146
0.977178
0.977226
0.977211
0.977279
0.977148
0.977139
0.977139
0.977299
0.977165
0.977157
0.977212
0.977182
0.977203
0.977196
0.97719
0.977191
0.977205
0.977298
0.977209
0.977198
0.977191
0.977298
0.977161
0.977302
0.977189
0.9772
0.977235
0.977206
0.977206
0.977172
0.977202
0.977172
0.97721
0.977192
0.97716
0.977161
0.977281
0.977195
0.97733
0.977332
0.977329
0.977194
0.977304
0.977329
0.977222
0.977329
0.977173
0.977173
0.97733
0.977214
0.977298
0.977334
0.977296
0.977334
0.977296
0.977165
0.977283
0.977303
0.977328
0.977206
0.977187
0.977298
0.977205
0.977326
0.977201
0.977214
0.977334
0.977298
0.977334
0.977298
0.977211
0.97717
0.977138
0.977139
0.977198
0.977138
0.977138
0.977139
0.977145
0.977281
0.97716
0.977179
0.977171
0.977199
0.977145
0.977145
0.977171
0.977298
0.977215
0.977306
0.977305
0.977297
0.977149
0.977149
0.97715
0.97715
0.977149
0.977142
0.977154
0.977146
0.977142
0.977151
0.977151
0.977142
0.977141
0.977145
0.977153
SCALARS rr_(P) float
LOOKUP_TABLE default
0.0246142
0.0245538
0.0245593
0.0245549
0.0245384
0.0245594
0.0246144
0.0245558
0.0245644
0.0245541
0.02461
0.0245557
0.024557
0.0245533
0.024544
0.0245584
0.0245511
0.0245564
0.024567
0.0245608
0.0245616
0.024517
0.0245615
0.0245607
0.0245609
0.0245553
0.0246018
0.0245586
0.0245834
0.0245295
0.0245572
0.0245833
0.0246027
0.0245332
0.0245315
0.0245333
0.0245288
0.0245323
0.0245573
0.0246025
0.0245836
0.0245285
0.0245286
0.0245572
0.0245968
0.0245826
0.0245658
0.0245634
0.0245591
0.0245871
0.024585
0.0245774
0.0245392
0.0245772
0.0245397
0.0245952
0.0245314
0.0245772
0.0245314
0.0245604
0.0245513
0.0245463
0.024598
0.0245466
0.0245462
0.0245512
0.024551
0.0245553
0.0245612
0.0245536
0.0245393
0.0245394
0.0245836
0.0245493
0.0245591
0.0246052
0.024543
0.0245512
0.0245553
0.0245759
0.0245884
0.0245365
0.0245487
0.0245901
0.0245817
0.0245962
0.0245586
0.0245502
0.0245967
0.02452
0.0245773
0.02452
0.0245426
0.0245518
0.0245768
0.0245855
0.0245884
0.0245542
0.0245431
0.0245575
0.0245705
0.0245804
0.0245902
0.0245558
0.0245547
0.0245546
0.024548
0.024558
0.0245903
0.0245528
0.0245604
0.0245949
0.0245922
0.0245561
0.0245549
0.0245771
0.0245315
0.0245886
0.0245316
0.0245768
0.0245684
0.0245447
0.0245538
0.02455
0.0245524
0.0245435
0.0245336
0.0245542
0.0245884
0.0245768
0.0245392
0.0245542
0.024549
0.024554
0.0245803
0.0245313
0.0245917
0.0245566
0.0245486
0.0245314
0.0245796
0.024554
0.0245675
0.024554
0.0245889
0.0245551
0.0245549
0.0245592
0.0245594
0.0245723
0.0245635
0.0245538
0.0245834
0.0245569
0.0245541
0.0245542
0.0245524
0.024579
0.0245788
0.024557
0.0245633
0.024583
0.0245954
0.024585
0.0245791
0.0245546
0.0245791
0.0245792
0.0245834
0.0245789
0.0245424
0.0245772
0.0245851
0.0245519
0.0245771
0.0245482
0.0245425
0.0245557
0.024539
0.0245545
0.0245834
0.0245543
0.0245543
0.0245795
0.0245501
0.0245855
0.0245501
0.0245479
0.0245422
0.0245542
0.02455
0.0245877
0.0245771
0.0245833
0.0245541
0.0245566
0.0245563
0.0245491
0.0245539
0.0245514
0.0245538
0.0245663
0.0245756
0.0245491
0.0245833
0.0245487
0.0245512
0.0245806
0.0245455
0.0245537
0.0245449
0.024553
0.0245549
0.0245486
0.0245721
0.0245525
0.024575
0.024548
0.0245525
0.0245525
0.0245532
0.0245529
0.0245529
0.024553
0.0245537
0.0245444
0.0245446
0.0245444
0.0245443
0.0245396
0.0245395
0.0245725
0.0245535
0.0245553
0.0245637
0.024544
0.0245437
0.0245551
0.0245754
0.0245555
0.0245542
0.0245719
0.0245454
0.0245721
0.0245485
0.0245557
0.0245717
0.0245747
0.0245886
0.024588
0.0245487
0.0245898
0.0245577
0.024575
0.0245666
0.0245556
0.0245526
0.0245283
0.0245528
0.0245902
0.0245749
0.0245553
0.0245557
0.0245757
0.0245527
0.0245672
0.0245283
0.0245749
0.0245523
0.0245504
0.0245563
0.0245441
0.0245504
0.0245393
0.024557
0.0245941
0.0245963
0.024541
0.0245615
0.0245557
0.0245721
0.0245453
0.024552
0.0245749
0.0245517
0.0245703
0.0245546
0.0245703
0.0245752
0.0245236
0.0245418
0.0245438
0.0245439
0.0245537
0.0245699
0.0245339
0.0245506
0.0245631
0.0245697
0.0245716
0.024541
0.0245719
0.0245426
0.0245709
0.0245967
0.02457
0.0245892
0.0245478
0.0245719
0.0245236
0.0245709
0.0245492
0.0245726
0.0245498
0.0245711
0.0245586
0.0245991
0.0245598
0.024572
0.0245412
0.0245723
0.024563
0.0245498
0.0245536
0.024571
0.0245699
0.0245673
0.0245479
0.02457
0.0245557
0.0245586
0.0245394
0.02457
0.0245676
0.0245622
0.024567
0.0245706
0.0245669
0.024546
0.0245559
0.0245674
0.0245721
0.0245542
0.0245541
0.0245702
0.0245395
0.0246121
0.0245588
0.0245885
0.0245619
0.0246436
0.0246435
0.0246431
0.0246433
0.0246431
0.0246438
0.0246435
0.0245476
0.0245356
0.0245568
0.0245633
0.0245667
0.0245671
0.0245546
0.0245674
0.0245677
0.0245354
0.0245671
0.0245451
0.0245773
0.0245453
0.0245595
0.0245634
0.0245673
0.0245408
0.0245588
0.024563
0.0245587
0.0245629
0.0245675
0.0245762
0.0245634
0.0245593
0.0245449
0.0245661
0.024568
0.0245664
0.0245638
0.0245595
0.0245545
0.0245664
0.0245546
0.02456
0.0245636
0.0245556
0.0245598
0.0245672
0.0245498
0.0245625
0.0245362
0.0245966
0.0245476
0.024546
0.0245594
0.0245623
0.0245513
0.0246114
0.0245594
0.0245626
0.0245987
0.024524
0.0245238
0.0245588
0.0245668
0.0245619
0.0245661
0.0245146
0.0245146
0.0245555
0.0245555
0.0245558
0.0246116
0.0245677
0.0245489
0.0245637
0.0245642
0.0245637
0.0246124
0.0245501
0.0245671
0.024559
0.024559
0.0245643
0.0245631
0.0245643
0.0245638
0.0246021
0.024589
0.0245631
0.0245589
0.0245624
0.0245645
0.0245628
0.024562
0.0245624
0.0245966
0.024544
0.0245664
0.0245515
0.0245498
0.024597
0.0245592
0.0245597
0.0245394
0.0245243
0.0245243
0.0245418
0.0245678
0.0245591
0.0245976
0.0245255
0.024516
0.024516
0.0246131
0.0245323
0.0245295
0.0245597
0.0245429
0.0245569
0.0245537
0.0245496
0.0245482
0.0245557
0.0246115
0.0245583
0.024552
0.0245491
0.0246056
0.0245315
0.0245998
0.0245493
0.0245536
0.0245713
0.0245573
0.024556
0.0245388
0.0245552
0.0245388
0.0245589
0.024549
0.0245305
0.0245301
0.0245975
0.0245529
0.0246154
0.0246143
0.0246166
0.0245502
0.0246123
0.0246178
0.0245645
0.024616
0.0245363
0.0245364
0.0246151
0.024562
0.024602
0.0246157
0.0246031
0.024616
0.0246031
0.024532
0.0245996
0.024612
0.0246152
0.0245563
0.0245468
0.024604
0.0245561
0.0246174
0.0245541
0.0245617
0.0246164
0.0246049
0.0246172
0.0246131
0.02456
0.0245352
0.024517
0.0245178
0.0245531
0.0245172
0.0245172
0.0245175
0.0245223
0.0245985
0.0245309
0.0245414
0.0245351
0.0245538
0.024521
0.0245211
0.0245341
0.0246137
0.0245622
0.0246131
0.0246008
0.0246003
0.0245262
0.0245264
0.0245268
0.0245267
0.0245263
0.0245181
0.0245267
0.024521
0.0245169
0.0245261
0.024526
0.0245167
0.0245179
0.0245208
0.0245271
SCALARS rr_(T) float
LOOKUP_TABLE default
0.233811
0.233834
0.233832
0.233833
0.233844
0.233832
0.233811
0.233833
0.23383
0.233834
0.233809
0.233833
0.233833
0.233834
0.23384
0.233832
0.233835
0.233833
0.233828
0.233831
0.233831
0.233858
0.233831
0.233831
0.233831
0.233833
0.233814
0.233832
0.233821
0.233849
0.233833
0.233821
0.233814
0.233847
0.233848
0.233847
0.23385
0.233848
0.233833
0.233814
0.233821
0.23385
0.23385
0.233833
0.233816
0.233822
0.233829
0.23383
0.233832
0.23382
0.233821
0.233824
0.233843
0.233824
0.233843
0.233817
0.233848
0.233824
0.233848
0.233831
0.233835
0.233839
0.233816
0.233839
0.233839
0.233836
0.233835
0.233833
0.233831
0.233834
0.233843
0.233843
0.233821
0.233837
0.233832
0.233813
0.233841
0.233836
0.233833
0.233824
0.23382
0.233845
0.233837
0.233819
0.233822
0.233816
0.233832
0.233837
0.233816
0.233856
0.233824
0.233856
0.233841
0.233836
0.233824
0.23382
0.23382
0.233834
0.233841
0.233833
0.233827
0.233823
0.233819
0.233833
0.233834
0.233833
0.233838
0.233832
0.233819
0.233834
0.233831
0.233816
0.233818
0.233833
0.233833
0.233824
0.233848
0.23382
0.233848
0.233824
0.233828
0.233839
0.233833
0.233836
0.233834
0.23384
0.233847
0.233834
0.23382
0.233824
0.233843
0.233833
0.233837
0.233833
0.233823
0.233848
0.233819
0.233833
0.233837
0.233848
0.233823
0.233835
0.233828
0.233834
0.23382
0.233833
0.233834
0.233832
0.233832
0.233826
0.23383
0.233833
0.233821
0.233833
0.233834
0.233833
0.233835
0.233824
0.233824
0.233832
0.23383
0.233821
0.233816
0.233821
0.233824
0.233833
0.233824
0.233824
0.233821
0.233824
0.233841
0.233824
0.233821
0.233835
0.233824
0.233837
0.233841
0.233834
0.233843
0.233834
0.233822
0.233834
0.233834
0.233823
0.233837
0.23382
0.233836
0.233838
0.233841
0.233834
0.233837
0.23382
0.233824
0.233821
0.233833
0.233832
0.233833
0.233837
0.233833
0.233836
0.233834
0.233829
0.233825
0.233837
0.233822
0.233837
0.233836
0.233823
0.233839
0.233834
0.23384
0.233835
0.233834
0.233837
0.233826
0.233835
0.233825
0.233838
0.233834
0.233834
0.233833
0.233834
0.233834
0.233834
0.233834
0.233839
0.233839
0.233839
0.233839
0.233843
0.233843
0.233826
0.233834
0.233832
0.23383
0.23384
0.23384
0.233832
0.233825
0.233832
0.233834
0.233826
0.233839
0.233826
0.233837
0.233832
0.233826
0.233825
0.23382
0.233819
0.233837
0.23382
0.233832
0.233825
0.233828
0.233832
0.233834
0.23385
0.233834
0.23382
0.233825
0.233832
0.233834
0.233824
0.233834
0.233828
0.23385
0.233825
0.233834
0.233836
0.233833
0.23384
0.233837
0.233843
0.233833
0.233817
0.233816
0.233842
0.233831
0.233834
0.233826
0.233839
0.233835
0.233825
0.233836
0.233827
0.233834
0.233827
0.233825
0.233853
0.233841
0.23384
0.23384
0.233834
0.233827
0.233847
0.233836
0.23383
0.233827
0.233827
0.233842
0.233826
0.233841
0.233827
0.233816
0.233827
0.23382
0.233838
0.233826
0.233853
0.233827
0.233837
0.233826
0.233837
0.233827
0.233832
0.233816
0.233831
0.233826
0.233842
0.233826
0.23383
0.233837
0.233834
0.233827
0.233827
0.233828
0.233838
0.233827
0.233834
0.233832
0.233843
0.233827
0.233828
0.233831
0.233829
0.233827
0.233829
0.233839
0.233833
0.233828
0.233826
0.233834
0.233834
0.233827
0.233843
0.233809
0.233832
0.23382
0.233831
0.233793
0.233793
0.233793
0.233793
0.233793
0.233793
0.233793
0.233838
0.233846
0.233833
0.23383
0.233828
0.233828
0.233834
0.233828
0.233828
0.233846
0.233828
0.23384
0.233824
0.233839
0.233832
0.23383
0.233828
0.233842
0.233832
0.23383
0.233832
0.23383
0.233828
0.233824
0.23383
0.233832
0.23384
0.233829
0.233828
0.233828
0.23383
0.233832
0.233834
0.233828
0.233834
0.233831
0.23383
0.233834
0.233831
0.233828
0.233836
0.23383
0.233845
0.233816
0.233838
0.233839
0.233832
0.233831
0.233836
0.233809
0.233832
0.23383
0.233817
0.233853
0.233854
0.233832
0.233828
0.233831
0.233829
0.23386
0.23386
0.233833
0.233834
0.233834
0.23381
0.233828
0.233837
0.23383
0.23383
0.23383
0.233808
0.233837
0.233828
0.233832
0.233832
0.23383
0.23383
0.23383
0.23383
0.233814
0.23382
0.23383
0.233832
0.23383
0.233829
0.23383
0.233831
0.23383
0.233816
0.23384
0.233828
0.233836
0.233837
0.233816
0.233832
0.233831
0.233843
0.233853
0.233853
0.233842
0.233828
0.233832
0.233815
0.233852
0.233858
0.233858
0.233808
0.233848
0.233849
0.233832
0.233841
0.233832
0.233834
0.233836
0.233838
0.233834
0.233809
0.233832
0.233836
0.233837
0.233813
0.233848
0.233816
0.233837
0.233834
0.233827
0.233832
0.233834
0.233843
0.233834
0.233843
0.233832
0.233837
0.233849
0.233849
0.233816
0.233835
0.23381
0.233811
0.233809
0.233837
0.233809
0.233809
0.23383
0.23381
0.233845
0.233845
0.23381
0.23383
0.233815
0.23381
0.233814
0.23381
0.233814
0.233848
0.233815
0.233809
0.23381
0.233833
0.233838
0.233813
0.233834
0.233809
0.233834
0.23383
0.23381
0.233813
0.233809
0.233808
0.233831
0.233846
0.233858
0.233857
0.233835
0.233857
0.233857
0.233857
0.233854
0.233815
0.233848
0.233842
0.233846
0.233834
0.233855
0.233855
0.233847
0.233808
0.23383
0.233809
0.233816
0.233816
0.233851
0.233851
0.233851
0.233851
0.233851
0.233857
0.233851
0.233855
0.233858
0.233852
0.233852
0.233858
0.233857
0.233855
0.233851
SCALARS rr_tsim float
LOOKUP_TABLE default
480
480
480
480
480
480
480
480
480
480
480
480
480
480
480
480
480
480
480
480
480
480
480
480
480
480
480
480
480
480
480
480
480
480
480
480
480
480
480
480
480
480
480
480
480
480
480
480
480
480
480
480
480
480
480
480
480
480
480
480
480
480
480
480
480
480
480
480
480
480
480
480
480
480
480
480
480
480
480
480
480
480
480
480
480
480
480
480
480
480
480
480
480
480
480
480
480
480
480
480
480
480
480
480
480
480
480
480
480
480
480
480
480
480
480
480
480
480
480
480
480
480
480
480
480
480
480
480
480
480
480
480
480
480
480
480
480
480
480
480
480
480
480
480
480
480
480
480
480
480
480
480
480
480
480
480
480
480
480
480
480
480
480
480
480
480
480
480
480
480
480
480
480
480
480
480
480
480
480
480
480
480
480
480
480
480
480
480
480
480
480
480
480
480
480
480
480
480
480
480
480
480
480
480
480
480
480
480
480
480
480
480
480
480
480
480
480
480
480
480
480
480
480
480
480
480
480
480
480
480
480
480
480
480
480
480
480
480
480
480
480
480
480
480
480
480
480
480
480
480
480
480
480
480
480
480
480
480
480
480
480
480
480
480
480
480
480
480
480
480
480
480
480
480
480
480
480
480
480
480
480
480
480
480
480
480
480
480
480
480
480
480
480
480
480
480
480
480
480
480
480
480
480
480
480
480
480
480
480
480
480
480
480
480
480
480
480
480
480
480
480
480
480
480
480
480
480
480
480
480
480
480
480
480
480
480
480
480
480
480
480
480
480
480
480
480
480
480
480
480
480
480
480
480
480
480
480
480
480
480
480
480
480
480
480
480
480
480
480
480
480
480
480
480
480
480
480
480
480
480
480
480
480
480
480
480
480
480
480
480
480
480
480
480
480
480
480
480
480
480
480
480
480
480
480
480
480
480
480
480
480
480
480
480
480
480
480
480
480
480
480
480
480
480
480
480
480
480
480
480
480
480
480
480
480
480
480
480
480
480
480
480
480
480
480
480
480
480
480
480
480
480
480
480
480
480
480
480
480
480
480
480
480
480
480
480
480
480
480
480
480
480
480
480
480
480
480
480
480
480
480
480
480
480
480
480
480
480
480
480
480
480
480
480
480
480
480
480
480
480
480
480
480
480
480
480
480
480
480
480
480
480
480
480
480
480
480
480
480
480
480
480
480
480
480
480
480
480
480
480
480
480
480
480
480
480
480
480
480
480
480
480
480
480
480
480
480
480
480
480
480
480
480
480
480
480
480
480
480
480
480
480
480
SCALARS rr_Vext float
LOOKUP_TABLE default
0.181358
0.449122
0.356048
0.468108
0.250492
0.377827
0.179274
0.465088
0.395105
0.504564
0.165389
0.466507
0.409825
0.435012
0.516134
0.424863
0.369043
0.414183
0.36553
0.360526
0.405108
0.0765106
0.415069
0.383013
0.347104
0.40347
0.15501
0.352833
0.267412
0.339246
0.361968
0.276484
0.17152
0.252901
0.249247
0.253451
0.330126
0.24949
0.361539
0.192836
0.22472
0.29105
0.291059
0.397271
0.216885
0.244119
0.344611
0.350183
0.330078
0.30376
0.312853
0.245236
0.401517
0.315206
0.369413
0.157753
0.266178
0.317515
0.26615
0.393184
0.470928
0.464871
0.153275
0.327641
0.445312
0.417373
0.455653
0.391904
0.357985
0.515555
0.435553
0.43079
0.277653
0.338744
0.353971
0.176426
0.372675
0.413476
0.395168
0.271132
0.24049
0.283506
0.52753
0.24025
0.32776
0.119291
0.407579
0.344608
0.229705
0.0374828
0.273092
0.0407607
0.316356
0.299311
0.258658
0.232982
0.220908
0.442929
0.37291
0.351854
0.293535
0.277769
0.230478
0.418574
0.426136
0.38383
0.340625
0.340847
0.244628
0.512517
0.326025
0.164038
0.220056
0.457877
0.429717
0.304481
0.30863
0.183508
0.320034
0.303365
0.266985
0.502647
0.511808
0.442038
0.484524
0.384951
0.220814
0.478208
0.200078
0.262278
0.227502
0.456393
0.449022
0.448247
0.288936
0.187537
0.190638
0.327439
0.404467
0.187459
0.241541
0.387288
0.287968
0.472756
0.223275
0.385188
0.34973
0.336126
0.214789
0.269545
0.304298
0.440625
0.248026
0.397409
0.461988
0.469241
0.307855
0.249007
0.247656
0.401134
0.333851
0.246116
0.160076
0.239703
0.240466
0.430954
0.252348
0.2551
0.274619
0.245938
0.386342
0.258183
0.226058
0.297713
0.272811
0.340305
0.382117
0.361131
0.313976
0.360844
0.266566
0.418244
0.44885
0.241614
0.442298
0.239439
0.436793
0.402736
0.378964
0.379413
0.446225
0.200774
0.266927
0.246016
0.447408
0.439019
0.407197
0.447892
0.45295
0.381863
0.466567
0.307714
0.274109
0.512729
0.285546
0.465952
0.36996
0.226654
0.286341
0.461723
0.389033
0.350306
0.450054
0.445254
0.278858
0.28422
0.267542
0.395451
0.433417
0.49809
0.478087
0.520368
0.471556
0.515285
0.432054
0.4572
0.460649
0.434353
0.456355
0.422917
0.416634
0.28241
0.389409
0.454293
0.312119
0.470271
0.432154
0.492657
0.288245
0.468274
0.448675
0.284499
0.406912
0.282468
0.455236
0.411287
0.296254
0.277677
0.235552
0.271096
0.455771
0.1975
0.347019
0.276527
0.313902
0.468669
0.455546
0.147788
0.457102
0.23643
0.261763
0.466268
0.379025
0.264584
0.52218
0.29123
0.147779
0.267723
0.406397
0.50892
0.382688
0.457753
0.425154
0.226614
0.21673
0.175978
0.201427
0.308133
0.229074
0.37198
0.227523
0.406391
0.287621
0.2681
0.323952
0.293521
0.39852
0.281485
0.287595
0.13637
0.30357
0.437808
0.438056
0.391523
0.281115
0.192358
0.545875
0.360487
0.298316
0.27429
0.284975
0.282728
0.358841
0.27809
0.192059
0.27479
0.183495
0.351066
0.279575
0.127091
0.26372
0.321336
0.279314
0.443668
0.290709
0.381466
0.138314
0.30566
0.287013
0.261623
0.269317
0.32199
0.308721
0.321044
0.266563
0.271162
0.293858
0.4036
0.276094
0.39902
0.358786
0.290795
0.286473
0.290121
0.323371
0.289911
0.270116
0.308528
0.333028
0.387864
0.290168
0.286352
0.425141
0.419246
0.27621
0.290834
0.117368
0.342062
0.227677
0.319679
0.126304
0.131123
0.117233
0.119129
0.126411
0.133076
0.137186
0.365817
0.275202
0.269662
0.305532
0.296205
0.292406
0.314708
0.285992
0.292385
0.310822
0.291313
0.368786
0.261062
0.378831
0.289102
0.277577
0.291594
0.322764
0.328992
0.304694
0.351047
0.326029
0.300388
0.213974
0.303858
0.29886
0.328279
0.305307
0.288517
0.275034
0.304061
0.31909
0.436159
0.283304
0.423998
0.438657
0.298863
0.422861
0.322473
0.255676
0.356791
0.307316
0.229503
0.185269
0.353347
0.377137
0.31343
0.259541
0.317011
0.138204
0.309862
0.289511
0.140568
0.0597484
0.0653752
0.26865
0.283292
0.331354
0.316584
0.0311308
0.0325286
0.318178
0.32154
0.30424
0.103723
0.264725
0.315901
0.315639
0.272073
0.24028
0.107863
0.464463
0.284944
0.352158
0.357669
0.255161
0.323443
0.249474
0.275478
0.129738
0.19938
0.323803
0.327748
0.280323
0.293561
0.303655
0.320502
0.306407
0.14396
0.275777
0.301351
0.290882
0.437485
0.143857
0.23373
0.24057
0.234521
0.155624
0.155628
0.267697
0.208506
0.301871
0.153855
0.185525
0.0614166
0.0614141
0.112309
0.199632
0.134971
0.256998
0.284536
0.297804
0.336997
0.307415
0.28523
0.222214
0.127171
0.278047
0.290578
0.282436
0.144129
0.147644
0.104628
0.281945
0.285968
0.224179
0.258248
0.23871
0.223789
0.292909
0.223756
0.257201
0.251384
0.158046
0.195239
0.165307
0.310643
0.112706
0.118918
0.115939
0.294531
0.10769
0.104732
0.200915
0.0979317
0.243153
0.243507
0.100659
0.255443
0.113722
0.110988
0.127154
0.105858
0.105723
0.174204
0.12624
0.112774
0.106277
0.235808
0.272656
0.118743
0.260314
0.0960764
0.264786
0.20817
0.100551
0.0864347
0.0948693
0.12646
0.22555
0.192178
0.0824423
0.091407
0.253854
0.0775857
0.0775824
0.0878714
0.0979617
0.0995845
0.127333
0.207531
0.193793
0.253766
0.0775241
0.0775207
0.229251
0.0843463
0.178712
0.0765187
0.078341
0.10327
0.198595
0.205595
0.218905
0.200658
0.198579
0.0438923
0.32038
0.0557535
0.0543416
0.259007
0.257237
0.0563344
0.0390571
0.0548043
0.238559
SCALARS rr_Vli float
LOOKUP_TABLE default
0.396486
0.903295
0.721401
0.9429
0.493002
0.765663
0.392034
0.937668
0.806265
1.01511
0.359835
0.94054
0.8277
0.874152
1.02412
0.859726
0.739393
0.835913
0.748795
0.732052
0.823478
0.146196
0.843736
0.777624
0.704886
0.813138
0.333348
0.714255
0.560607
0.6598
0.731223
0.579527
0.369271
0.494391
0.485903
0.495506
0.641456
0.486895
0.73048
0.415064
0.471209
0.565329
0.565389
0.802512
0.463322
0.511146
0.70466
0.71357
0.668679
0.640141
0.657313
0.509708
0.79128
0.654952
0.728497
0.336093
0.518807
0.659754
0.51879
0.798044
0.943862
0.925028
0.327839
0.652216
0.886008
0.836193
0.912998
0.789772
0.727288
1.0367
0.858505
0.84915
0.582209
0.67685
0.716967
0.381182
0.738158
0.828437
0.796419
0.562479
0.507622
0.556447
1.0535
0.508331
0.685382
0.254579
0.825073
0.689485
0.49066
0.0719434
0.567527
0.0782461
0.626349
0.600258
0.537107
0.489901
0.466216
0.891212
0.738705
0.711147
0.604216
0.579672
0.487748
0.844108
0.858079
0.772712
0.679545
0.689378
0.517758
1.02964
0.661676
0.349478
0.467058
0.923819
0.865434
0.63249
0.601612
0.38741
0.624
0.62999
0.547958
0.99831
1.02947
0.884276
0.972854
0.763251
0.431749
0.962234
0.422252
0.544645
0.448452
0.918477
0.897108
0.90182
0.602898
0.365537
0.404181
0.66093
0.80773
0.365414
0.503537
0.778932
0.590239
0.951058
0.47153
0.776063
0.704321
0.680953
0.435246
0.556267
0.620245
0.886305
0.519981
0.802495
0.929439
0.94426
0.617852
0.518655
0.515712
0.810195
0.680204
0.515658
0.341238
0.503637
0.500927
0.867512
0.525644
0.531442
0.575695
0.512235
0.764766
0.536472
0.475014
0.597024
0.566757
0.679099
0.75645
0.728157
0.61851
0.726371
0.558759
0.841634
0.903302
0.503621
0.884781
0.503407
0.873805
0.803282
0.749914
0.763387
0.89254
0.423343
0.554569
0.51569
0.900207
0.886298
0.821709
0.894902
0.911194
0.765269
0.938414
0.629673
0.568291
1.02453
0.59847
0.93055
0.741276
0.473239
0.569197
0.928571
0.772726
0.703604
0.906433
0.889135
0.575328
0.57047
0.554199
0.788781
0.870375
1.00028
0.961013
1.04558
0.947449
1.03539
0.86871
0.907695
0.914768
0.862343
0.90593
0.833929
0.821515
0.583003
0.782793
0.915905
0.636237
0.933119
0.857208
0.993022
0.597474
0.944367
0.902753
0.586735
0.8088
0.582773
0.908853
0.829724
0.610879
0.57498
0.497304
0.572061
0.9101
0.417613
0.70148
0.572845
0.642711
0.945255
0.914965
0.286927
0.918292
0.500196
0.542257
0.940098
0.764199
0.548648
1.04887
0.596675
0.286927
0.554499
0.815976
1.01856
0.772232
0.908464
0.850821
0.4466
0.437752
0.374434
0.429883
0.608683
0.465558
0.749991
0.469384
0.807667
0.576816
0.555339
0.649546
0.603994
0.802276
0.579177
0.596019
0.263019
0.600442
0.868509
0.869128
0.787207
0.578061
0.376387
1.09285
0.734298
0.613257
0.565365
0.562957
0.583122
0.710459
0.572676
0.410196
0.565166
0.387691
0.700125
0.576598
0.245149
0.543076
0.642112
0.576619
0.887239
0.598796
0.772172
0.296222
0.619802
0.592061
0.517039
0.555816
0.655878
0.617313
0.645548
0.549009
0.557646
0.602196
0.804985
0.567869
0.804504
0.726241
0.573154
0.589127
0.594775
0.657841
0.593794
0.555993
0.631806
0.662545
0.782179
0.59465
0.590809
0.855286
0.843306
0.568299
0.573277
0.256087
0.6926
0.480627
0.650102
0.287606
0.29855
0.266803
0.271172
0.287682
0.303056
0.312311
0.729342
0.539723
0.544564
0.622603
0.606499
0.598932
0.633518
0.58613
0.599483
0.609469
0.596711
0.732657
0.542544
0.753106
0.586002
0.565698
0.597464
0.637465
0.666111
0.620591
0.710714
0.663996
0.615741
0.444039
0.619296
0.605571
0.652003
0.624635
0.591867
0.56287
0.620017
0.64672
0.877916
0.579856
0.853547
0.889737
0.609276
0.852427
0.653928
0.523839
0.713542
0.625424
0.4504
0.395665
0.704467
0.750312
0.6352
0.528048
0.635251
0.301236
0.62802
0.589264
0.300912
0.115298
0.126126
0.544003
0.580096
0.673735
0.64766
0.0592774
0.0619388
0.641395
0.648086
0.613481
0.226113
0.542803
0.631011
0.643415
0.555013
0.489877
0.235469
0.929281
0.583732
0.713231
0.724381
0.520581
0.658847
0.508988
0.561646
0.279101
0.421176
0.659631
0.663707
0.570432
0.599123
0.618255
0.651891
0.623522
0.307427
0.547096
0.61683
0.583014
0.8749
0.307367
0.473532
0.487752
0.46224
0.300515
0.300535
0.529553
0.427592
0.611535
0.329005
0.358876
0.117176
0.117176
0.245398
0.389619
0.262494
0.52105
0.563538
0.60141
0.677645
0.614656
0.569069
0.448035
0.27725
0.562545
0.582799
0.564246
0.311556
0.287924
0.224284
0.563451
0.574849
0.461941
0.521746
0.481453
0.440836
0.590093
0.440797
0.520821
0.502146
0.307811
0.380027
0.353393
0.623981
0.246785
0.259979
0.254333
0.589282
0.234981
0.230138
0.410008
0.214644
0.47712
0.477842
0.220334
0.519609
0.244574
0.243122
0.273901
0.231958
0.227739
0.339829
0.270697
0.245996
0.232677
0.475748
0.543001
0.256116
0.525107
0.211011
0.532688
0.423218
0.220454
0.186663
0.208255
0.276319
0.457466
0.376607
0.157552
0.174883
0.509985
0.148307
0.148306
0.168048
0.188628
0.213205
0.248113
0.410273
0.37976
0.51034
0.149004
0.149003
0.448511
0.184461
0.363609
0.167149
0.16815
0.221553
0.384549
0.398195
0.424213
0.388778
0.384539
0.0840102
0.620731
0.107163
0.103829
0.501444
0.497965
0.107596
0.0747328
0.105301
0.462542
SCALARS rr_S_ext' float
LOOKUP_TABLE default
-0.000223206
-0.000509942
-0.000407161
-0.000532274
-0.00027851
-0.000432139
-0.000220698
-0.000529307
-0.000454953
-0.000573062
-0.000202605
-0.000530928
-0.000467204
-0.000493504
-0.000578402
-0.000485252
-0.000417465
-0.00047185
-0.00042247
-0.000413142
-0.000464725
-8.26653e-05
-0.000476156
-0.000438864
-0.00039781
-0.000459015
-0.000187768
-0.000403139
-0.000316053
-0.000372876
-0.000412744
-0.000326721
-0.000207995
-0.000279353
-0.000274581
-0.000279982
-0.000362519
-0.000275133
-0.000412322
-0.00023379
-0.000265651
-0.000319499
-0.000319532
-0.000452984
-0.000261039
-0.00028818
-0.000397593
-0.000402667
-0.000377406
-0.000360827
-0.000370545
-0.00028744
-0.000446995
-0.000369352
-0.000411521
-0.000189376
-0.000293177
-0.000372059
-0.000293166
-0.000450392
-0.000532902
-0.00052239
-0.0001847
-0.000368321
-0.000500356
-0.00047212
-0.000515481
-0.000445826
-0.000410447
-0.000585259
-0.000484968
-0.000479683
-0.000328228
-0.000382187
-0.000404662
-0.000214677
-0.000416921
-0.00046774
-0.000449577
-0.000317218
-0.000286116
-0.000314379
-0.000594875
-0.000286492
-0.00038643
-0.000143437
-0.000465687
-0.000389305
-0.000276442
-4.06743e-05
-0.000320048
-4.42374e-05
-0.000353774
-0.000338899
-0.000302901
-0.000276162
-0.000262779
-0.000503114
-0.000417229
-0.000401405
-0.000340845
-0.000326851
-0.00027489
-0.000476488
-0.000484398
-0.00043621
-0.000383727
-0.000389109
-0.000291802
-0.00058129
-0.000373431
-0.000196917
-0.000263203
-0.000521475
-0.000488547
-0.000356688
-0.000339969
-0.000218359
-0.000352618
-0.000355281
-0.000309139
-0.000563808
-0.000581171
-0.000499292
-0.000549239
-0.000431079
-0.000243957
-0.000543207
-0.000237999
-0.000307151
-0.000253329
-0.000518502
-0.000506557
-0.000509104
-0.000339949
-0.000206564
-0.000227778
-0.000373076
-0.000456096
-0.000206494
-0.000283932
-0.000439736
-0.000333008
-0.000536902
-0.000265769
-0.00043809
-0.000397598
-0.000384333
-0.000245653
-0.00031377
-0.00035
-0.000500348
-0.000293148
-0.00045298
-0.000524697
-0.000533058
-0.000348824
-0.000292466
-0.000290808
-0.000457322
-0.00038384
-0.000290717
-0.00019227
-0.000283913
-0.000282467
-0.000489728
-0.000296406
-0.000299674
-0.000324559
-0.000288846
-0.000431957
-0.000302536
-0.000267777
-0.000337073
-0.000319617
-0.000383472
-0.000427259
-0.000411038
-0.000349402
-0.000410051
-0.000315012
-0.000475124
-0.000509936
-0.000283981
-0.000499578
-0.000283778
-0.000493379
-0.000453603
-0.000423573
-0.000430954
-0.000503961
-0.000238622
-0.000312743
-0.00029073
-0.000508192
-0.000500286
-0.000463834
-0.000505311
-0.000514397
-0.000432072
-0.000529767
-0.000355274
-0.000320503
-0.000578506
-0.000337402
-0.000525447
-0.000418528
-0.000266834
-0.000321453
-0.000524212
-0.000436407
-0.000397227
-0.000511691
-0.000502063
-0.000324524
-0.000322073
-0.000312565
-0.000445414
-0.00049138
-0.00056472
-0.000542534
-0.000590284
-0.000534885
-0.000584528
-0.000490423
-0.000512638
-0.000516628
-0.000487024
-0.000511643
-0.00047108
-0.000464067
-0.000328847
-0.000441922
-0.000517019
-0.000359023
-0.000527007
-0.000484139
-0.000560554
-0.000336964
-0.00053308
-0.00050963
-0.000330963
-0.000456769
-0.000328724
-0.000513201
-0.000468361
-0.000344584
-0.000324289
-0.000280298
-0.000322438
-0.000513902
-0.00023537
-0.000395946
-0.00032308
-0.000362624
-0.00053358
-0.000516551
-0.000162161
-0.000518426
-0.000281909
-0.000305829
-0.000530675
-0.000431384
-0.000309423
-0.000592149
-0.000336643
-0.000162161
-0.000312735
-0.000460671
-0.000575103
-0.000435906
-0.000513079
-0.000480397
-0.000252285
-0.000247093
-0.000210988
-0.000242208
-0.000343821
-0.000262736
-0.000423364
-0.000264766
-0.000456131
-0.000325664
-0.000313208
-0.000366729
-0.000340724
-0.0004529
-0.000326726
-0.000336145
-0.00014868
-0.000339151
-0.000490519
-0.000490867
-0.000444411
-0.000326103
-0.000212669
-0.000617044
-0.000414368
-0.000345961
-0.000318915
-0.000317992
-0.000328925
-0.000401281
-0.000323049
-0.000231109
-0.000318826
-0.000218511
-0.000395353
-0.000325245
-0.000138577
-0.000306351
-0.000362571
-0.000325246
-0.00050097
-0.000337781
-0.000435829
-0.000166881
-0.000349808
-0.000333965
-0.000292051
-0.000313515
-0.000370115
-0.000348561
-0.000364437
-0.000309697
-0.000314585
-0.000339755
-0.000454565
-0.00032035
-0.000454136
-0.000409905
-0.000323775
-0.000332344
-0.000335564
-0.000371239
-0.000335021
-0.000313643
-0.00035647
-0.000374161
-0.00044153
-0.000335498
-0.000333256
-0.000482836
-0.000476076
-0.000320589
-0.000323843
-0.000144176
-0.000390914
-0.000270899
-0.000366876
-0.000161671
-0.000167824
-0.00014998
-0.000152435
-0.000161717
-0.000170356
-0.00017556
-0.000411855
-0.000304937
-0.000307386
-0.000351333
-0.000342192
-0.000337919
-0.000357634
-0.00033069
-0.000338219
-0.000344345
-0.000336666
-0.000413774
-0.000305959
-0.000425313
-0.000330737
-0.000319221
-0.000337088
-0.000360081
-0.000375964
-0.000350204
-0.000401139
-0.000374698
-0.000347394
-0.00025042
-0.000349465
-0.000341785
-0.000368227
-0.000352434
-0.000333916
-0.000317582
-0.000349866
-0.000365007
-0.000495603
-0.000327164
-0.000481844
-0.000502152
-0.000343808
-0.000481191
-0.000369068
-0.000295549
-0.000402893
-0.00035294
-0.000254465
-0.000222923
-0.000397809
-0.000423726
-0.000358506
-0.000297992
-0.000358665
-0.0001696
-0.000354452
-0.000332533
-0.000169525
-6.51748e-05
-7.12961e-05
-0.000307042
-0.000327295
-0.000380215
-0.000365426
-3.35216e-05
-3.50267e-05
-0.000362064
-0.000365843
-0.000346304
-0.000127304
-0.00030624
-0.000356307
-0.000363074
-0.000313182
-0.000276432
-0.000132565
-0.000524701
-0.000329341
-0.000402555
-0.000408848
-0.000293752
-0.00037179
-0.00028721
-0.000316931
-0.00015721
-0.000237385
-0.000372232
-0.000374605
-0.000321908
-0.000338067
-0.00034889
-0.000367883
-0.000351868
-0.000173209
-0.000308991
-0.000348025
-0.000329169
-0.000494003
-0.000173172
-0.000267263
-0.000275283
-0.000261119
-0.000169869
-0.00016988
-0.00029911
-0.000241239
-0.000345154
-0.000185358
-0.000202847
-6.62595e-05
-6.62591e-05
-0.000138151
-0.000220164
-0.000148344
-0.000294076
-0.000318294
-0.000339473
-0.000382557
-0.000347061
-0.000321343
-0.000252912
-0.000156095
-0.000317517
-0.000329041
-0.000318606
-0.000175462
-0.000162702
-0.000126349
-0.000318153
-0.000324529
-0.000260577
-0.000294502
-0.000271773
-0.000249032
-0.000333111
-0.00024901
-0.000293958
-0.000283542
-0.000173947
-0.000214761
-0.0001991
-0.000352274
-0.000138923
-0.000146359
-0.000143162
-0.000332727
-0.000132293
-0.000129535
-0.000231356
-0.000120825
-0.000269563
-0.000269971
-0.000124034
-0.000293231
-0.000137764
-0.000136859
-0.000154274
-0.000130573
-0.000128273
-0.000192032
-0.000152493
-0.000138496
-0.000130982
-0.00026855
-0.00030664
-0.00014425
-0.000296414
-0.000118772
-0.000300719
-0.000238839
-0.000124095
-0.000105128
-0.000117222
-0.000155558
-0.000258186
-0.000212784
-8.9086e-05
-9.88822e-05
-0.000287916
-8.38581e-05
-8.38572e-05
-9.50192e-05
-0.000106633
-0.000120112
-0.000140209
-0.000231741
-0.000214566
-0.000288106
-8.42381e-05
-8.42374e-05
-0.000253423
-0.000103842
-0.000205194
-9.41002e-05
-9.47226e-05
-0.000124807
-0.000217351
-0.000225062
-0.000239764
-0.000219737
-0.000217345
-4.75005e-05
-0.000350838
-6.05837e-05
-5.87093e-05
-0.000283423
-0.000281458
-6.08403e-05
-4.22554e-05
-5.95314e-05
-0.000261423
SCALARS rr_P_ext' float
LOOKUP_TABLE default
0.000184462
0.000426017
0.000339838
0.00044459
0.000233293
0.000360679
0.000182382
0.000442061
0.000379388
0.00047873
0.000167546
0.000443415
0.00039011
0.000412329
0.000484016
0.000405082
0.000348925
0.000394024
0.000352129
0.000344738
0.000387726
6.94895e-05
0.000397262
0.000366205
0.000331938
0.000383374
0.00015552
0.000336518
0.000262649
0.000312786
0.000344626
0.00027152
0.000172247
0.000234191
0.000230267
0.000234716
0.000304133
0.000230699
0.000344266
0.000193614
0.000220757
0.000268053
0.000268078
0.000378226
0.000216397
0.000239524
0.00033147
0.000335847
0.000315009
0.000299655
0.000307845
0.000239139
0.000374364
0.000307297
0.000344626
0.000157045
0.000245867
0.00030955
0.000245856
0.000375839
0.00044539
0.000436993
0.000153088
0.000308095
0.000418567
0.000394609
0.000430845
0.000372361
0.000342465
0.00048895
0.000406159
0.000401731
0.000272759
0.000319546
0.000337766
0.000177696
0.000348962
0.000390945
0.00037549
0.000263977
0.000237559
0.000263426
0.000497408
0.000237797
0.00032124
0.000118923
0.00038873
0.000325444
0.000229169
3.41733e-05
0.000266272
3.71663e-05
0.000296123
0.000283224
0.000252031
0.000229409
0.000218187
0.000420291
0.000349215
0.000335138
0.000283921
0.000271783
0.000228161
0.000397936
0.000404617
0.000364376
0.000320896
0.000324843
0.000242194
0.00048569
0.00031162
0.000163299
0.000218377
0.000435481
0.000408074
0.000296771
0.000285105
0.000181297
0.000295703
0.000295612
0.000257606
0.000471749
0.000485517
0.000417397
0.000458943
0.000360767
0.000204512
0.000453781
0.000197613
0.000255567
0.00021216
0.000433135
0.000423537
0.0004253
0.000282679
0.00017323
0.000189013
0.000311537
0.000381367
0.00017317
0.000236128
0.000367365
0.000277542
0.000448526
0.00022065
0.000365911
0.000332108
0.00032079
0.000205032
0.000261281
0.00029191
0.000417996
0.000243614
0.00037824
0.000438327
0.000445299
0.000291492
0.000243252
0.000241881
0.000381856
0.000320149
0.000241613
0.000159433
0.000235872
0.000234932
0.000409085
0.000246527
0.000249241
0.000269719
0.000240243
0.000361574
0.000251707
0.000222463
0.000281701
0.000265925
0.000320671
0.000357639
0.000343282
0.000292643
0.000342529
0.000261789
0.000396903
0.000425979
0.000236173
0.000417637
0.000235739
0.000412453
0.00037934
0.00035457
0.000360011
0.000421306
0.000198153
0.000260203
0.000241609
0.000424533
0.000417755
0.000387337
0.000422492
0.000429727
0.000361123
0.000442577
0.000296162
0.000266732
0.000483686
0.0002804
0.000439354
0.000349811
0.000221863
0.000268937
0.000437942
0.000365146
0.000331908
0.000427404
0.000419806
0.000270246
0.000269134
0.000260154
0.00037249
0.000410588
0.000471867
0.000453276
0.000493196
0.000446911
0.000488385
0.000409725
0.000428955
0.00043228
0.000407522
0.000428127
0.000394508
0.000388637
0.000273825
0.000369215
0.000431799
0.000299432
0.000441008
0.000405151
0.000468173
0.000280439
0.000445197
0.000425735
0.000275622
0.000382151
0.000273744
0.000429132
0.000391131
0.000286971
0.000269925
0.000232723
0.000267727
0.000429707
0.00019538
0.000330574
0.000268904
0.000302266
0.000445609
0.000431612
0.000136057
0.000433166
0.000233996
0.000254546
0.000443201
0.000360277
0.000257504
0.000494774
0.000280587
0.000136056
0.0002603
0.000384936
0.000480745
0.000364015
0.000429342
0.000401583
0.000211292
0.000206318
0.000174998
0.000200812
0.000287871
0.00021921
0.000353578
0.000220484
0.000381623
0.000272163
0.00026069
0.00030649
0.000283831
0.000378318
0.000272173
0.000279764
0.000124844
0.000283918
0.000410486
0.000410769
0.000371285
0.000271675
0.000178268
0.000515786
0.000345623
0.00028823
0.000265608
0.000266244
0.000273922
0.000335889
0.000269081
0.000191591
0.000265606
0.000181405
0.000330632
0.000270859
0.00011636
0.000255174
0.000303142
0.000270826
0.000418817
0.000281344
0.000363809
0.000138295
0.00029194
0.000278113
0.000244512
0.000261068
0.000308712
0.000291405
0.000304468
0.000257956
0.000262077
0.000283173
0.000380146
0.000266875
0.000379279
0.00034217
0.000271161
0.000276872
0.000279666
0.000309699
0.000279245
0.000261262
0.000297131
0.000313003
0.000368741
0.000279623
0.000277517
0.000403359
0.000397718
0.000267063
0.000271216
0.000119182
0.000326305
0.000224922
0.000306073
0.000132858
0.000137916
0.000123261
0.000125274
0.000132907
0.000139993
0.000144277
0.000344445
0.000255539
0.000256667
0.000293031
0.000285234
0.00028166
0.000298742
0.000275614
0.000281874
0.000288569
0.000280614
0.000346201
0.000254549
0.000355826
0.000276036
0.000266244
0.000280955
0.000301493
0.000313827
0.000292107
0.000334845
0.000312541
0.00028953
0.000208381
0.000291467
0.00028527
0.000308102
0.000293801
0.000278269
0.000264737
0.000291783
0.000304642
0.000413997
0.000272721
0.000402497
0.000419066
0.000286739
0.000401883
0.000308011
0.000246335
0.000336822
0.000294419
0.000213226
0.000184807
0.000332698
0.000354465
0.000299219
0.000248591
0.000299772
0.000140218
0.000295833
0.000277392
0.000140495
5.47229e-05
5.98642e-05
0.000256293
0.000272814
0.000317208
0.000304635
2.81902e-05
2.94559e-05
0.00030239
0.000305552
0.000289217
0.000105248
0.000255221
0.000297919
0.000302811
0.000261176
0.000230545
0.000109576
0.00043863
0.000274505
0.000336011
0.000341265
0.000244968
0.000310108
0.000239512
0.00026432
0.000130204
0.000197079
0.000310474
0.000312686
0.000268536
0.000281912
0.000291024
0.000306907
0.000293528
0.000143594
0.000258575
0.000290108
0.000275113
0.000412991
0.000143554
0.000223074
0.000229746
0.000218687
0.000142616
0.000142625
0.000250393
0.000201045
0.000288089
0.000153638
0.000170268
5.57085e-05
5.5708e-05
0.000114179
0.000184607
0.000124439
0.000245431
0.000266414
0.000283459
0.000319605
0.000290153
0.000268724
0.000211223
0.000129049
0.000265065
0.000274983
0.000266392
0.000145227
0.000136438
0.000104694
0.000266002
0.000271136
0.000217029
0.000245895
0.000226966
0.000208579
0.000278231
0.000208559
0.000245371
0.000237078
0.000145891
0.000180135
0.000165035
0.000294344
0.000114784
0.000120954
0.000118258
0.000278148
0.000109358
0.000106976
0.000192928
9.98182e-05
0.000225881
0.000226221
0.000102487
0.000244625
0.000114102
0.000113073
0.00012775
0.000107875
0.000106219
0.000161027
0.000126351
0.000114491
0.000108225
0.000224266
0.000256486
0.000119428
0.000247539
9.80941e-05
0.000251219
0.000199263
0.000102515
8.70237e-05
9.68213e-05
0.000128566
0.000215468
0.000178331
7.48856e-05
8.31092e-05
0.000240565
7.0489e-05
7.0488e-05
7.98663e-05
8.9556e-05
9.95423e-05
0.000117588
0.000194012
0.000179825
0.000240693
7.07626e-05
7.07617e-05
0.000212432
8.58136e-05
0.000171176
7.77752e-05
7.84741e-05
0.000103405
0.000182421
0.000188887
0.000201213
0.00018441
0.000182415
3.99216e-05
0.000294434
5.0892e-05
4.93521e-05
0.000237879
0.000236232
5.11457e-05
3.55146e-05
5.00102e-05
0.000219376
SCALARS rr_S' float
LOOKUP_TABLE default
4.62643e-06
1.19849e-05
9.47364e-06
1.24841e-05
6.73567e-06
1.00524e-05
4.57237e-06
1.23997e-05
1.04813e-05
1.34629e-05
4.23284e-06
1.24375e-05
1.09187e-05
1.16125e-05
1.38409e-05
1.13107e-05
9.86234e-06
1.10377e-05
9.68006e-06
9.58419e-06
1.07646e-05
2.07396e-06
1.10289e-05
1.01824e-05
9.22691e-06
1.07582e-05
3.99837e-06
9.39145e-06
7.00165e-06
9.15418e-06
9.64287e-06
7.23981e-06
4.42109e-06
6.81424e-06
6.72143e-06
6.82895e-06
8.91039e-06
6.72596e-06
9.63072e-06
4.9713e-06
5.88313e-06
7.85648e-06
7.85659e-06
1.05834e-05
5.61758e-06
6.39601e-06
9.13357e-06
9.29541e-06
8.7832e-06
7.93063e-06
8.18161e-06
6.44983e-06
1.07919e-05
8.29134e-06
9.92696e-06
4.09292e-06
7.17842e-06
8.35202e-06
7.17753e-06
1.0454e-05
1.25833e-05
1.24544e-05
3.96725e-06
8.77672e-06
1.19308e-05
1.11544e-05
1.21764e-05
1.04502e-05
9.51444e-06
1.37585e-05
1.17061e-05
1.15779e-05
7.26891e-06
9.06196e-06
9.41966e-06
4.53698e-06
1.00003e-05
1.105e-05
1.05368e-05
7.13746e-06
6.27325e-06
7.63002e-06
1.41146e-05
6.25843e-06
8.59335e-06
3.0918e-06
1.08487e-05
9.21435e-06
5.95002e-06
1.01494e-06
7.183e-06
1.10366e-06
8.49012e-06
7.99615e-06
6.80611e-06
6.09015e-06
5.76302e-06
1.18178e-05
1.00062e-05
9.37151e-06
7.75646e-06
7.29047e-06
6.00315e-06
1.11582e-05
1.13664e-05
1.02389e-05
9.11722e-06
9.07578e-06
6.37132e-06
1.3682e-05
8.66871e-06
4.25582e-06
5.72195e-06
1.22035e-05
1.14612e-05
8.01039e-06
8.32309e-06
4.7865e-06
8.63e-06
7.98215e-06
7.06433e-06
1.34749e-05
1.3657e-05
1.182e-05
1.29375e-05
1.03258e-05
5.94952e-06
1.27589e-05
5.21966e-06
6.90116e-06
6.11421e-06
1.2176e-05
1.20121e-05
1.196e-05
7.58412e-06
5.05749e-06
4.96039e-06
8.72582e-06
1.08219e-05
5.0553e-06
6.34307e-06
1.03352e-05
7.62423e-06
1.26145e-05
5.8226e-06
1.02719e-05
9.32811e-06
8.94407e-06
5.71474e-06
7.11384e-06
8.07634e-06
1.17574e-05
6.49387e-06
1.05887e-05
1.2327e-05
1.25191e-05
8.22206e-06
6.54209e-06
6.50739e-06
1.06868e-05
8.86238e-06
6.44602e-06
4.15158e-06
6.26853e-06
6.31721e-06
1.14963e-05
6.62963e-06
6.70154e-06
7.19045e-06
6.46157e-06
1.0369e-05
6.7913e-06
5.91141e-06
7.95359e-06
7.17681e-06
9.10773e-06
1.02553e-05
9.62767e-06
8.44024e-06
9.62617e-06
6.98003e-06
1.11588e-05
1.19749e-05
6.34539e-06
1.18273e-05
6.25945e-06
1.16797e-05
1.07807e-05
1.01721e-05
1.01233e-05
1.19327e-05
5.24042e-06
7.02176e-06
6.4418e-06
1.19372e-05
1.16982e-05
1.0852e-05
1.19817e-05
1.20858e-05
1.02043e-05
1.24501e-05
8.15302e-06
7.21818e-06
1.37157e-05
7.47754e-06
1.24669e-05
9.88689e-06
5.94726e-06
7.67412e-06
1.23213e-05
1.04292e-05
9.35315e-06
1.20035e-05
1.19135e-05
7.36057e-06
7.59067e-06
7.04825e-06
1.05856e-05
1.15722e-05
1.32988e-05
1.276e-05
1.38908e-05
1.25881e-05
1.3755e-05
1.15309e-05
1.22582e-05
1.23496e-05
1.16455e-05
1.22359e-05
1.1365e-05
1.11962e-05
7.45223e-06
1.03936e-05
1.21109e-05
8.2838e-06
1.2611e-05
1.15902e-05
1.31349e-05
7.59116e-06
1.24822e-05
1.19713e-05
7.51095e-06
1.09058e-05
7.45595e-06
1.21816e-05
1.09616e-05
7.82183e-06
7.31655e-06
6.14372e-06
7.07254e-06
1.21952e-05
5.14684e-06
9.24212e-06
7.28473e-06
8.31471e-06
1.24923e-05
1.21623e-05
3.98989e-06
1.22028e-05
6.15955e-06
6.89578e-06
1.24299e-05
1.01049e-05
6.96669e-06
1.39409e-05
7.71203e-06
3.98958e-06
7.05347e-06
1.08514e-05
1.3606e-05
1.0199e-05
1.22745e-05
1.13671e-05
6.09094e-06
5.77402e-06
4.5692e-06
5.22045e-06
8.27572e-06
6.08746e-06
9.91712e-06
6.00587e-06
1.08922e-05
7.68388e-06
7.06301e-06
8.65511e-06
7.75728e-06
1.0631e-05
7.43955e-06
7.57471e-06
3.68811e-06
8.1496e-06
1.17414e-05
1.17474e-05
1.04493e-05
7.43188e-06
5.18153e-06
1.45924e-05
9.57037e-06
7.88765e-06
7.24343e-06
7.65364e-06
7.46394e-06
9.63032e-06
7.34695e-06
4.97523e-06
7.26397e-06
4.78403e-06
9.39798e-06
7.3808e-06
3.43704e-06
6.96733e-06
8.59587e-06
7.3705e-06
1.1865e-05
7.67945e-06
1.01539e-05
3.57724e-06
8.1302e-06
7.57644e-06
7.02542e-06
7.10766e-06
8.54833e-06
8.25658e-06
8.56783e-06
7.04191e-06
7.16845e-06
7.78083e-06
1.08039e-05
7.2983e-06
1.06381e-05
9.5503e-06
7.81577e-06
7.57325e-06
7.68053e-06
8.58978e-06
7.67821e-06
7.13779e-06
8.17192e-06
8.92277e-06
1.03397e-05
7.68307e-06
7.55827e-06
1.13442e-05
1.11875e-05
7.30023e-06
7.81662e-06
2.9979e-06
9.10404e-06
5.93871e-06
8.49295e-06
3.11608e-06
3.23525e-06
2.89375e-06
2.94002e-06
3.12033e-06
3.28294e-06
3.38537e-06
9.79379e-06
7.40799e-06
7.1846e-06
8.11e-06
7.84584e-06
7.74414e-06
8.39541e-06
7.57224e-06
7.7401e-06
8.3673e-06
7.71503e-06
9.88574e-06
6.86645e-06
1.01523e-05
7.69098e-06
7.36767e-06
7.7215e-06
8.66921e-06
8.75637e-06
8.08951e-06
9.34364e-06
8.65617e-06
7.95273e-06
5.63196e-06
8.06495e-06
7.95189e-06
8.80074e-06
8.08982e-06
7.63575e-06
7.28672e-06
8.06867e-06
8.48925e-06
1.16358e-05
7.50546e-06
1.13108e-05
1.16664e-05
7.93149e-06
1.12744e-05
8.57728e-06
6.77046e-06
9.5415e-06
8.16196e-06
6.17666e-06
4.7996e-06
9.46009e-06
1.01045e-05
8.33894e-06
6.894e-06
8.47151e-06
3.5327e-06
8.24363e-06
7.6887e-06
3.63657e-06
1.61569e-06
1.76796e-06
7.14986e-06
7.50363e-06
8.80383e-06
8.38898e-06
8.44535e-07
8.82453e-07
8.4832e-06
8.57349e-06
8.1108e-06
2.65114e-06
7.00754e-06
8.45168e-06
8.37721e-06
7.21867e-06
6.37663e-06
2.75409e-06
1.2419e-05
7.54587e-06
9.37179e-06
9.51849e-06
6.76952e-06
8.5869e-06
6.61856e-06
7.31073e-06
3.34582e-06
5.19869e-06
8.59615e-06
8.7226e-06
7.4454e-06
7.78719e-06
8.0632e-06
8.51422e-06
8.1381e-06
3.72958e-06
7.39608e-06
7.9833e-06
7.77268e-06
1.16996e-05
3.72572e-06
6.2192e-06
6.39925e-06
6.30324e-06
4.20744e-06
4.20751e-06
7.18617e-06
5.51904e-06
8.03266e-06
3.98261e-06
5.01354e-06
1.6654e-06
1.66532e-06
2.86579e-06
5.38171e-06
3.64208e-06
6.8364e-06
7.63533e-06
7.93441e-06
8.99357e-06
8.22168e-06
7.63448e-06
5.92431e-06
3.25015e-06
7.40266e-06
7.7626e-06
7.55595e-06
3.70522e-06
3.98102e-06
2.70451e-06
7.54188e-06
7.63288e-06
5.92083e-06
6.87941e-06
6.3633e-06
6.01572e-06
7.8115e-06
6.01472e-06
6.84524e-06
6.72564e-06
4.26302e-06
5.26718e-06
4.27985e-06
8.29365e-06
2.87192e-06
3.03367e-06
2.95028e-06
7.87539e-06
2.75068e-06
2.66179e-06
5.3298e-06
2.49366e-06
6.5445e-06
6.55393e-06
2.56557e-06
6.78553e-06
2.93337e-06
2.82738e-06
3.27639e-06
2.69606e-06
2.72414e-06
4.69687e-06
3.2622e-06
2.88119e-06
2.70831e-06
6.2852e-06
7.30259e-06
3.05708e-06
6.93877e-06
2.44268e-06
7.06536e-06
5.5311e-06
2.55983e-06
2.22346e-06
2.41299e-06
3.22684e-06
5.99882e-06
5.17447e-06
2.23466e-06
2.47698e-06
6.77725e-06
2.10288e-06
2.10278e-06
2.38141e-06
2.65044e-06
2.57591e-06
3.43418e-06
5.57228e-06
5.21795e-06
6.77216e-06
2.09845e-06
2.09834e-06
6.17581e-06
2.15088e-06
4.74686e-06
1.95299e-06
2.0234e-06
2.66798e-06
5.36526e-06
5.55404e-06
5.91274e-06
5.42017e-06
5.36477e-06
1.1893e-06
8.65418e-06
1.50914e-06
1.47305e-06
6.9977e-06
6.9501e-06
1.5272e-06
1.05837e-06
1.48358e-06
6.44267e-06
SCALARS rr_P' float
LOOKUP_TABLE default
3.41178e-05
7.19405e-05
5.7849e-05
7.51998e-05
3.84814e-05
6.14083e-05
3.3743e-05
7.48458e-05
6.50836e-05
8.08689e-05
3.08255e-05
7.50758e-05
6.61755e-05
6.9563e-05
8.05445e-05
6.88591e-05
5.86774e-05
6.67884e-05
6.06611e-05
5.88206e-05
6.62343e-05
1.11018e-05
6.78643e-05
6.24759e-05
5.66443e-05
6.48831e-05
2.82505e-05
5.72288e-05
4.64022e-05
5.09354e-05
5.84752e-05
4.79605e-05
3.13277e-05
3.83482e-05
3.75931e-05
3.84374e-05
4.94758e-05
3.77071e-05
5.8425e-05
3.52048e-05
3.90104e-05
4.35897e-05
4.35973e-05
6.41741e-05
3.90243e-05
4.226e-05
5.69894e-05
5.75243e-05
5.36134e-05
5.32422e-05
5.45177e-05
4.18515e-05
6.1839e-05
5.37634e-05
5.69678e-05
2.82376e-05
4.01314e-05
5.41578e-05
4.01328e-05
6.40993e-05
7.49287e-05
7.29434e-05
2.76448e-05
5.14496e-05
6.98591e-05
6.63572e-05
7.24601e-05
6.30145e-05
5.84674e-05
8.25503e-05
6.71035e-05
6.63749e-05
4.82003e-05
5.35791e-05
5.74765e-05
3.24443e-05
5.79588e-05
6.57455e-05
6.35501e-05
4.61044e-05
4.22835e-05
4.33228e-05
8.33533e-05
4.24364e-05
5.65973e-05
2.14223e-05
6.61076e-05
5.46468e-05
4.13231e-05
5.48607e-06
4.65931e-05
5.96748e-06
4.91609e-05
4.76782e-05
4.40633e-05
4.0663e-05
3.88288e-05
7.10057e-05
5.80079e-05
5.68961e-05
4.9168e-05
4.77772e-05
4.07254e-05
6.73936e-05
6.84144e-05
6.15949e-05
5.37142e-05
5.519e-05
4.3236e-05
8.19179e-05
5.31419e-05
2.93617e-05
3.91037e-05
7.37912e-05
6.90115e-05
5.19061e-05
4.6541e-05
3.22751e-05
4.82844e-05
5.1687e-05
4.4469e-05
7.8584e-05
8.19967e-05
7.00746e-05
7.73589e-05
5.99859e-05
3.34953e-05
7.6667e-05
3.51669e-05
4.46834e-05
3.50545e-05
7.31908e-05
7.10077e-05
7.1844e-05
4.96855e-05
2.82761e-05
3.38054e-05
5.28139e-05
6.39068e-05
2.82686e-05
4.14608e-05
6.2036e-05
4.78412e-05
7.57613e-05
3.92961e-05
6.19077e-05
5.61625e-05
5.45991e-05
3.49063e-05
4.53745e-05
5.00141e-05
7.05947e-05
4.30407e-05
6.41507e-05
7.40425e-05
7.52399e-05
4.91098e-05
4.26716e-05
4.24196e-05
6.47793e-05
5.48281e-05
4.26584e-05
2.86852e-05
4.17727e-05
4.12177e-05
6.91467e-05
4.32488e-05
4.37309e-05
4.76494e-05
4.21412e-05
6.00143e-05
4.40381e-05
3.94022e-05
4.74193e-05
4.65158e-05
5.36931e-05
5.93653e-05
5.8128e-05
4.83188e-05
5.78961e-05
4.62435e-05
6.70622e-05
7.1982e-05
4.14625e-05
7.01135e-05
4.17787e-05
6.92464e-05
6.34822e-05
5.88308e-05
6.08196e-05
7.07213e-05
3.52288e-05
4.5518e-05
4.26795e-05
7.17211e-05
7.08334e-05
6.56457e-05
7.08369e-05
7.25842e-05
6.0745e-05
7.47397e-05
5.09593e-05
4.65532e-05
8.11044e-05
4.95244e-05
7.36266e-05
5.88304e-05
3.90239e-05
4.48418e-05
7.39485e-05
6.08317e-05
5.59666e-05
7.2284e-05
7.03441e-05
4.69173e-05
4.53475e-05
4.53626e-05
6.23383e-05
6.922e-05
7.95537e-05
7.64974e-05
8.31979e-05
7.53855e-05
8.2388e-05
6.91671e-05
7.14254e-05
7.19983e-05
6.78571e-05
7.12801e-05
6.52066e-05
6.42342e-05
4.75694e-05
6.23135e-05
7.31084e-05
5.13073e-05
7.33876e-05
6.73969e-05
7.92469e-05
4.89345e-05
7.54005e-05
7.19236e-05
4.783e-05
6.37126e-05
4.75243e-05
7.18882e-05
6.62681e-05
4.97909e-05
4.70475e-05
4.14321e-05
4.76381e-05
7.19999e-05
3.48426e-05
5.61305e-05
4.68914e-05
5.20428e-05
7.54782e-05
7.27774e-05
2.21139e-05
7.30569e-05
4.17534e-05
4.43874e-05
7.50433e-05
6.10024e-05
4.4952e-05
8.34343e-05
4.83441e-05
2.21152e-05
4.53816e-05
6.48835e-05
8.07517e-05
6.16916e-05
7.14619e-05
6.74473e-05
3.49025e-05
3.50012e-05
3.1421e-05
3.61754e-05
4.76735e-05
3.74392e-05
5.9868e-05
3.82752e-05
6.36163e-05
4.58164e-05
4.54547e-05
5.15838e-05
4.91354e-05
6.3951e-05
4.71127e-05
4.8807e-05
2.01474e-05
4.70843e-05
6.82917e-05
6.83497e-05
6.26771e-05
4.69953e-05
2.92203e-05
8.66658e-05
5.91753e-05
4.98434e-05
4.60643e-05
4.40937e-05
4.75386e-05
5.57621e-05
4.66204e-05
3.45426e-05
4.59551e-05
3.23222e-05
5.53226e-05
4.70051e-05
1.87805e-05
4.42101e-05
5.08325e-05
4.70491e-05
7.02876e-05
4.87571e-05
6.1866e-05
2.50086e-05
4.97383e-05
4.8275e-05
4.05127e-05
4.53392e-05
5.28552e-05
4.88994e-05
5.14017e-05
4.46992e-05
4.53394e-05
4.88016e-05
6.36153e-05
4.61766e-05
6.42191e-05
5.81845e-05
4.47979e-05
4.78985e-05
4.82181e-05
5.295e-05
4.80972e-05
4.52426e-05
5.11674e-05
5.22356e-05
6.24494e-05
4.81914e-05
4.81812e-05
6.81335e-05
6.71702e-05
4.62259e-05
4.48109e-05
2.19959e-05
5.5505e-05
4.00386e-05
5.23101e-05
2.56968e-05
2.66723e-05
2.38259e-05
2.42204e-05
2.56898e-05
2.70797e-05
2.78981e-05
5.76167e-05
4.19899e-05
4.35343e-05
5.01923e-05
4.91123e-05
4.85154e-05
5.04966e-05
4.75037e-05
4.86047e-05
4.74081e-05
4.8337e-05
5.7688e-05
4.45433e-05
5.93341e-05
4.70095e-05
4.56094e-05
4.84112e-05
4.99193e-05
5.33803e-05
5.00074e-05
5.69508e-05
5.35013e-05
4.99116e-05
3.64067e-05
4.99336e-05
4.85635e-05
5.13243e-05
5.05434e-05
4.8011e-05
4.55584e-05
5.00146e-05
5.18752e-05
6.99706e-05
4.69377e-05
6.80363e-05
7.14192e-05
4.91377e-05
6.80339e-05
5.24795e-05
4.24433e-05
5.65299e-05
5.0359e-05
3.50625e-05
3.33165e-05
5.56506e-05
5.91561e-05
5.09475e-05
4.25071e-05
5.04207e-05
2.58489e-05
5.03754e-05
4.7453e-05
2.53937e-05
8.83622e-06
9.66389e-06
4.35998e-05
4.6977e-05
5.42034e-05
5.24029e-05
4.48684e-06
4.68828e-06
5.11905e-05
5.17181e-05
4.89761e-05
1.94052e-05
4.40118e-05
4.99359e-05
5.18864e-05
4.47878e-05
3.95105e-05
2.02345e-05
7.36518e-05
4.72906e-05
5.71722e-05
5.80653e-05
4.20144e-05
5.30952e-05
4.10795e-05
4.52997e-05
2.36609e-05
3.5108e-05
5.31621e-05
5.31961e-05
4.59267e-05
4.8368e-05
4.98027e-05
5.24626e-05
5.02019e-05
2.58853e-05
4.30201e-05
4.99335e-05
4.62835e-05
6.9312e-05
2.58928e-05
3.79697e-05
3.91369e-05
3.61289e-05
2.30453e-05
2.30477e-05
4.15303e-05
3.46748e-05
4.90316e-05
2.77371e-05
2.75651e-05
8.88557e-06
8.88583e-06
2.11054e-05
3.01754e-05
2.02633e-05
4.18079e-05
4.42449e-05
4.80798e-05
5.39588e-05
4.86854e-05
4.49844e-05
3.57647e-05
2.37957e-05
4.50496e-05
4.62956e-05
4.46585e-05
2.65303e-05
2.22827e-05
1.89513e-05
4.4609e-05
4.57598e-05
3.76274e-05
4.17274e-05
3.84439e-05
3.44377e-05
4.70691e-05
3.44367e-05
4.17418e-05
3.97386e-05
2.37932e-05
2.93593e-05
2.97853e-05
4.96362e-05
2.12667e-05
2.23713e-05
2.19546e-05
4.67042e-05
2.01838e-05
1.98969e-05
3.30979e-05
1.85135e-05
3.71377e-05
3.71958e-05
1.89813e-05
4.18203e-05
2.07282e-05
2.09588e-05
2.32483e-05
2.00022e-05
1.93303e-05
2.63076e-05
2.28796e-05
2.11238e-05
2.00485e-05
3.79994e-05
4.28518e-05
2.17649e-05
4.19358e-05
1.82348e-05
4.24348e-05
3.40451e-05
1.90203e-05
1.5881e-05
1.79882e-05
2.37648e-05
3.67192e-05
2.92787e-05
1.19657e-05
1.3296e-05
4.05737e-05
1.12662e-05
1.12664e-05
1.27715e-05
1.44268e-05
1.79942e-05
1.91871e-05
3.21568e-05
2.9523e-05
4.06412e-05
1.1377e-05
1.13773e-05
3.48149e-05
1.58775e-05
2.92708e-05
1.43719e-05
1.42251e-05
1.87346e-05
2.95651e-05
3.06207e-05
3.26386e-05
2.99069e-05
2.95658e-05
6.38957e-06
4.77494e-05
8.18252e-06
7.88406e-06
3.85463e-05
3.8275e-05
8.16732e-06
5.68236e-06
8.03763e-06
3.56049e-05
SCALARS rr_T' float
LOOKUP_TABLE default
0.000208052
0.000473971
0.000378531
0.000494752
0.000258683
0.000401756
0.000205716
0.000492009
0.000423062
0.000532644
0.000188818
0.000493516
0.000434307
0.00045868
0.000537366
0.000451112
0.000387969
0.000438616
0.000392907
0.00038412
0.000432094
7.6709e-05
0.000442722
0.000408032
0.000369865
0.000426665
0.000174919
0.000374781
0.000294165
0.0003462
0.000383684
0.000304093
0.000193769
0.00025941
0.000254957
0.000259995
0.000336575
0.000255477
0.000383294
0.000217798
0.000247256
0.00029663
0.000296662
0.000421091
0.000243119
0.000268212
0.000369748
0.000374423
0.000350867
0.000335899
0.00034491
0.000267456
0.000415191
0.000343669
0.000382249
0.000176359
0.000272221
0.000346189
0.000272212
0.000418747
0.000495256
0.000485373
0.000172028
0.000342226
0.000464898
0.000438762
0.000479061
0.000414404
0.00038162
0.000543972
0.000450465
0.000445557
0.0003055
0.000355152
0.000376204
0.000200019
0.000387319
0.000434692
0.000417893
0.000295145
0.000266364
0.000291972
0.000552786
0.000266736
0.000359638
0.000133585
0.000432929
0.000361782
0.000257464
3.77488e-05
0.000297795
4.10559e-05
0.000328651
0.000314963
0.000281833
0.000257064
0.000244637
0.000467631
0.000387607
0.00037315
0.000317045
0.000304169
0.000255936
0.000442915
0.000450246
0.000405453
0.000356565
0.000361728
0.000271683
0.000540267
0.000347192
0.000183381
0.000245079
0.000484741
0.000454105
0.000331883
0.00031567
0.000203285
0.000327417
0.000330571
0.000287525
0.000523823
0.000540177
0.000463991
0.000510468
0.000400485
0.000226542
0.000504897
0.000221568
0.000285788
0.000235306
0.000481937
0.000470723
0.000473197
0.000316356
0.000191799
0.000212086
0.0003468
0.000423825
0.000191735
0.000264219
0.000408717
0.00030971
0.000499033
0.000247426
0.000407211
0.000369568
0.000357307
0.00022838
0.000291885
0.000325454
0.000465056
0.000272847
0.000421082
0.00048769
0.000495465
0.000324195
0.000272152
0.000270607
0.000425121
0.000356916
0.000270579
0.000179058
0.000264272
0.000262849
0.000455196
0.000275818
0.000278861
0.000302082
0.000268782
0.00040128
0.0002815
0.000249252
0.000313267
0.000297391
0.000356331
0.000396917
0.000382075
0.000324538
0.000381137
0.000293195
0.000441617
0.000473975
0.000264262
0.000464256
0.000264151
0.000458496
0.000421492
0.000393488
0.00040056
0.000468327
0.00022214
0.000290995
0.000270596
0.000472351
0.000465054
0.000431163
0.000469566
0.000478115
0.000401547
0.000492398
0.000330401
0.000298195
0.000537585
0.000314033
0.00048827
0.000388958
0.000248321
0.000298664
0.000487233
0.000405458
0.000369191
0.000475618
0.00046654
0.000301887
0.000299334
0.000290801
0.000413883
0.000456696
0.00052486
0.000504255
0.000548629
0.000497138
0.00054328
0.000455824
0.000476277
0.000479988
0.00045248
0.000475351
0.00043757
0.000431056
0.000305914
0.000410742
0.000480587
0.000333845
0.000489617
0.000449786
0.000521051
0.000313508
0.000495521
0.000473687
0.000307872
0.000424386
0.000305794
0.000476886
0.000435367
0.000320541
0.000301705
0.00026095
0.000300176
0.00047754
0.000219134
0.000368077
0.000300584
0.000337243
0.000495987
0.000480093
0.000150552
0.000481839
0.000262468
0.000284535
0.000493282
0.000400987
0.000287888
0.000550357
0.000313087
0.000150552
0.000290958
0.000428152
0.00053445
0.000405201
0.00047668
0.000446437
0.000234335
0.000229695
0.000196477
0.000225573
0.000319382
0.000244287
0.000393531
0.000246296
0.000423792
0.000302663
0.000291399
0.000340826
0.000316929
0.000420966
0.000303907
0.000312744
0.000138007
0.000315057
0.000455715
0.00045604
0.000413058
0.000303321
0.000197493
0.000573432
0.0003853
0.000321789
0.00029666
0.000295389
0.000305977
0.000372785
0.000300495
0.000215242
0.000296554
0.000203433
0.000367364
0.000302553
0.00012863
0.000284964
0.000336924
0.000302564
0.000465545
0.000314201
0.000405171
0.000155438
0.00032522
0.000310667
0.000271295
0.000291649
0.000344151
0.000323912
0.000338727
0.000288077
0.000292609
0.000315984
0.000422385
0.000297973
0.000422136
0.00038107
0.000300739
0.000309127
0.00031209
0.000345181
0.000311575
0.000291742
0.000331521
0.000347645
0.000410421
0.000312025
0.00031001
0.000448781
0.000442495
0.000298199
0.000300804
0.000134378
0.000363419
0.000252199
0.00034112
0.000150919
0.000156662
0.000140003
0.000142295
0.000150959
0.000159027
0.000163883
0.000382694
0.000283197
0.000285741
0.000326691
0.000318242
0.000314271
0.000332416
0.000307554
0.00031456
0.000319793
0.000313106
0.000384433
0.000284686
0.000395162
0.000307485
0.000296832
0.000313501
0.000334484
0.00034952
0.000325635
0.000372924
0.00034841
0.000323091
0.000232997
0.000324956
0.000317753
0.000342113
0.000327758
0.000310564
0.000295349
0.000325334
0.000339345
0.000460655
0.000304262
0.000447868
0.00046686
0.000319698
0.000447281
0.000343127
0.000274869
0.000374404
0.000328171
0.000236329
0.000207617
0.000369642
0.000393697
0.0003333
0.000277076
0.000333325
0.000158069
0.000329532
0.000309197
0.000157899
6.04974e-05
6.61788e-05
0.000285447
0.000304388
0.000353521
0.00033984
3.11029e-05
3.24994e-05
0.000336549
0.00034006
0.000321903
0.000118649
0.000284819
0.000331099
0.000337612
0.000291226
0.000257047
0.000123559
0.000487606
0.000306295
0.000374244
0.000380095
0.000273159
0.000345709
0.000267076
0.000294706
0.000146454
0.000221003
0.00034612
0.000348258
0.000299316
0.000314371
0.00032441
0.000342059
0.000327173
0.000161316
0.000287067
0.000323663
0.000305915
0.000459071
0.000161285
0.00024847
0.000255932
0.000242541
0.000157681
0.000157692
0.000277861
0.000224366
0.000320882
0.000172639
0.000188303
6.14824e-05
6.14821e-05
0.000128769
0.000204436
0.000137732
0.000273404
0.000295694
0.000315569
0.000355569
0.000322517
0.000298597
0.000235091
0.000145483
0.000295177
0.000305803
0.000296067
0.000163484
0.000151075
0.00011769
0.000295649
0.000301631
0.000242391
0.000273768
0.000252626
0.00023131
0.00030963
0.00023129
0.000273283
0.000263482
0.00016151
0.000199402
0.000185436
0.000327411
0.000129498
0.000136422
0.000133459
0.000309204
0.000123303
0.000120763
0.000215139
0.000112632
0.000250349
0.000250728
0.000115618
0.000272648
0.000128336
0.000127576
0.000143725
0.000121718
0.000119502
0.000178311
0.000142043
0.000129083
0.000122095
0.000249632
0.000284919
0.000134393
0.000275532
0.000110726
0.000279509
0.00022207
0.000115682
9.79484e-05
0.00010928
0.000144994
0.00024004
0.000197609
8.26674e-05
9.17611e-05
0.000267596
7.78168e-05
7.7816e-05
8.81751e-05
9.89737e-05
0.000111875
0.000130186
0.000215274
0.000199263
0.000267782
7.81828e-05
7.81822e-05
0.000235337
9.67934e-05
0.000190792
8.7709e-05
8.82344e-05
0.000116257
0.000201774
0.000208934
0.000222586
0.000203993
0.000201769
4.40802e-05
0.0003257
5.62287e-05
5.4479e-05
0.000263109
0.000261284
5.64558e-05
3.92124e-05
5.52515e-05
0.000242698
SCALARS rr_uec(SIM,_S_ext) float
LOOKUP_TABLE default
0.0132791
0.0302553
0.0241626
0.0315818
0.0165128
0.0256451
0.01313
0.0314064
0.0270049
0.0340004
0.0120519
0.0315026
0.027723
0.029279
0.0343024
0.0287957
0.0247655
0.0279982
0.02508
0.0245193
0.0275815
0.00489684
0.0282601
0.0260457
0.0236094
0.0272354
0.0111647
0.0239233
0.0187766
0.0220999
0.0244916
0.0194103
0.0123678
0.0165595
0.0162752
0.0165968
0.0214855
0.0163084
0.0244667
0.0139016
0.0157823
0.0189356
0.0189376
0.0268794
0.015518
0.0171199
0.0236017
0.0239002
0.0223968
0.0214404
0.0220155
0.0170718
0.0265036
0.0219365
0.0244007
0.0112567
0.0173773
0.0220974
0.0173767
0.0267297
0.0316141
0.0309832
0.0109802
0.0218455
0.0296763
0.0280076
0.0305803
0.0264528
0.0243598
0.0347237
0.0287552
0.0284419
0.0195001
0.0226706
0.0240141
0.0127668
0.0247241
0.0277479
0.0266754
0.0188394
0.0170018
0.0186379
0.0352865
0.0170255
0.0229557
0.00852657
0.027635
0.0230938
0.0164337
0.00240974
0.0190084
0.00262085
0.0209792
0.0201051
0.0179895
0.0164084
0.0156149
0.0298505
0.0247425
0.0238192
0.0202373
0.0194151
0.0163362
0.0282728
0.0287407
0.0258814
0.0227609
0.02309
0.0173413
0.0344874
0.0221622
0.0117051
0.0156432
0.0309426
0.028987
0.0211842
0.0201508
0.0129755
0.0209007
0.0211005
0.0183532
0.0334379
0.0344815
0.0296182
0.0325852
0.0255647
0.0144613
0.0322293
0.0141425
0.018242
0.0150207
0.0307638
0.0300481
0.0302059
0.020193
0.0122435
0.0135372
0.0221372
0.0270545
0.0122394
0.0168651
0.0260896
0.0197693
0.031855
0.0157929
0.0259936
0.0235906
0.0228078
0.0145781
0.0186314
0.0207744
0.0296862
0.0174159
0.0268788
0.0311309
0.0316274
0.0206945
0.0173714
0.0172729
0.0271368
0.0227826
0.0172711
0.0114291
0.0168685
0.0167777
0.0290567
0.0176055
0.0177997
0.0192819
0.0171564
0.0256154
0.0179683
0.0159098
0.0199969
0.0189826
0.022746
0.0253369
0.0243889
0.0207167
0.0243292
0.0187146
0.0281899
0.0302554
0.0168679
0.029635
0.0168607
0.0292675
0.0269054
0.0251179
0.0255691
0.0298949
0.014179
0.0185744
0.0172721
0.0301519
0.0296858
0.0275225
0.0299742
0.0305199
0.0256321
0.0314316
0.0210901
0.0190341
0.0343162
0.0200447
0.0311682
0.0248284
0.0158503
0.0190649
0.0311019
0.025882
0.0235666
0.0303603
0.0297811
0.0192698
0.0191074
0.0185621
0.0264197
0.0291527
0.0335039
0.0321886
0.0350212
0.0317343
0.0346797
0.0290968
0.0304028
0.0306397
0.0288838
0.0303437
0.027932
0.0275163
0.0195269
0.0262191
0.0306777
0.02131
0.0312544
0.0287118
0.0332607
0.0200115
0.031631
0.030237
0.0196518
0.0270903
0.0195191
0.0304415
0.0277912
0.0204605
0.0192581
0.0166562
0.0191601
0.0304832
0.0139871
0.0234954
0.0191866
0.0215268
0.0316608
0.0306463
0.00961057
0.0307577
0.016753
0.0181621
0.0314881
0.0255962
0.0183761
0.0351315
0.0199848
0.00961059
0.0185721
0.0273307
0.0341158
0.0258653
0.0304286
0.0284976
0.0149586
0.0146621
0.0125409
0.014398
0.0203875
0.0155934
0.0251203
0.0157213
0.0270524
0.01932
0.0186003
0.021756
0.0202299
0.0268715
0.0193987
0.0199628
0.00880981
0.0201115
0.0290903
0.0291111
0.0263669
0.0193613
0.012607
0.0366042
0.0245945
0.0205402
0.0189361
0.018856
0.0195309
0.0237964
0.0191809
0.0137387
0.0189294
0.0129849
0.0234502
0.0193123
0.00821126
0.0181895
0.0215071
0.019313
0.0297174
0.0200558
0.0258631
0.0099212
0.0207597
0.0198302
0.017318
0.0186163
0.0219679
0.0206764
0.0216222
0.0183883
0.0186776
0.0201698
0.0269624
0.01902
0.0269461
0.0243247
0.0191975
0.019732
0.0199212
0.0220336
0.0198883
0.0186222
0.0211615
0.0221915
0.0261984
0.019917
0.0197883
0.028647
0.0282458
0.0190344
0.0192016
0.00857707
0.0231979
0.0160976
0.0217744
0.0096327
0.00999923
0.00893595
0.00908226
0.00963527
0.0101501
0.0104601
0.0244288
0.0180778
0.0182397
0.0208534
0.020314
0.0200604
0.0212191
0.0196317
0.0200789
0.0204139
0.0199861
0.0245399
0.0181717
0.0252249
0.0196276
0.0189474
0.0200113
0.0213515
0.0223107
0.020786
0.0238046
0.0222398
0.0206235
0.0148724
0.0207426
0.0202829
0.0218384
0.0209214
0.0198239
0.0188527
0.0207667
0.0216612
0.029405
0.0194216
0.0285888
0.0298008
0.020407
0.0285513
0.0219027
0.0175453
0.0238996
0.0209478
0.015086
0.013252
0.0235957
0.0251312
0.0212753
0.0176863
0.0212773
0.0100892
0.0210349
0.0197367
0.0100783
0.0038619
0.00422457
0.0182208
0.0194296
0.022566
0.0216926
0.00198549
0.00207464
0.021483
0.021707
0.020548
0.0075731
0.0181805
0.0211353
0.0215504
0.0185895
0.0164079
0.00788651
0.0311256
0.0195514
0.0238889
0.0242624
0.0174362
0.0220673
0.017048
0.0188117
0.00934783
0.0141064
0.0220936
0.0222302
0.019106
0.0200669
0.0207077
0.0218344
0.0208841
0.0102966
0.0183247
0.02066
0.0195276
0.0293041
0.0102946
0.0158605
0.0163368
0.0154825
0.0100658
0.0100664
0.0177371
0.0143216
0.0204827
0.0110193
0.0120205
0.00392482
0.00392481
0.00821905
0.0130502
0.0087922
0.017452
0.0188754
0.0201437
0.0226972
0.0205875
0.0190606
0.0150065
0.00928587
0.0188419
0.0195204
0.018899
0.0104348
0.00964395
0.00751179
0.0188724
0.0192541
0.0154721
0.0174754
0.0161258
0.0147656
0.0197647
0.0147643
0.0174444
0.016819
0.0103101
0.0127289
0.0118361
0.0208998
0.00826531
0.00870719
0.00851813
0.0197376
0.00787011
0.00770778
0.0137327
0.00718885
0.0159809
0.0160051
0.0073794
0.0174038
0.00819139
0.0081426
0.00917365
0.00776868
0.00762756
0.0113825
0.00906641
0.00823906
0.00779283
0.0159347
0.0181875
0.00857797
0.017588
0.00706721
0.0178419
0.0141753
0.00738341
0.00625182
0.00697484
0.00925467
0.0153224
0.0126143
0.00527721
0.00585772
0.0170816
0.00496756
0.00496752
0.0056288
0.00631811
0.00714086
0.0083105
0.0137419
0.0127199
0.0170934
0.0049909
0.00499086
0.0150227
0.00617813
0.0121787
0.00559823
0.00563173
0.00742037
0.0128805
0.0133375
0.014209
0.0130221
0.0128801
0.00281392
0.0207913
0.00358943
0.00347774
0.0167958
0.0166793
0.00360393
0.00250318
0.00352705
0.0154928
SCALARS rr_uec(PEX,_P_ext) float
LOOKUP_TABLE default
-0.0608316
-0.138641
-0.11072
-0.144719
-0.075675
-0.117513
-0.0601484
-0.143915
-0.123741
-0.155803
-0.0552097
-0.144356
-0.127036
-0.134169
-0.157195
-0.131951
-0.113487
-0.128297
-0.114919
-0.112353
-0.126385
-0.0224437
-0.129494
-0.119348
-0.108184
-0.124803
-0.0511485
-0.109624
-0.0860286
-0.101284
-0.112229
-0.088932
-0.0566601
-0.0758906
-0.0745885
-0.0760616
-0.0984681
-0.0747404
-0.112115
-0.0636865
-0.0723099
-0.0867822
-0.0867913
-0.12317
-0.0710936
-0.0784389
-0.108146
-0.109515
-0.102628
-0.0982313
-0.100868
-0.0782207
-0.12146
-0.10051
-0.111822
-0.0515718
-0.0796394
-0.101247
-0.0796368
-0.122482
-0.14487
-0.141984
-0.0503044
-0.100109
-0.135994
-0.128344
-0.140133
-0.121216
-0.111622
-0.159118
-0.131778
-0.130342
-0.0893434
-0.103889
-0.110039
-0.0584867
-0.113303
-0.127154
-0.122237
-0.0863198
-0.0778953
-0.0854147
-0.161701
-0.0780033
-0.105177
-0.0390635
-0.126632
-0.105827
-0.0752885
-0.0110444
-0.0870938
-0.012012
-0.0961411
-0.0921311
-0.0824258
-0.0751773
-0.0715415
-0.136786
-0.113387
-0.109147
-0.092728
-0.0889559
-0.0748448
-0.129556
-0.131701
-0.118598
-0.104303
-0.105806
-0.0794497
-0.158035
-0.101553
-0.0536256
-0.071669
-0.141789
-0.132829
-0.0970633
-0.0923503
-0.0594486
-0.095787
-0.0966798
-0.0840954
-0.153233
-0.158007
-0.135725
-0.149319
-0.117154
-0.0662748
-0.147687
-0.0647951
-0.0835826
-0.0688363
-0.140971
-0.137696
-0.138415
-0.0925202
-0.0561117
-0.0620208
-0.101441
-0.123978
-0.0560928
-0.0772727
-0.119554
-0.0905848
-0.145972
-0.0723568
-0.119112
-0.108101
-0.104512
-0.066801
-0.0853684
-0.0951921
-0.136034
-0.0797942
-0.123168
-0.142654
-0.144928
-0.0948312
-0.079593
-0.0791414
-0.12435
-0.104395
-0.0791311
-0.0523611
-0.0772855
-0.0768724
-0.133149
-0.0806654
-0.0815552
-0.0883439
-0.0786078
-0.117388
-0.0823281
-0.072893
-0.0916348
-0.0869758
-0.104234
-0.116111
-0.111759
-0.09494
-0.111486
-0.0857449
-0.129177
-0.138642
-0.0772856
-0.135803
-0.0772499
-0.134118
-0.123295
-0.115108
-0.117168
-0.136994
-0.0649629
-0.0851053
-0.0791357
-0.138167
-0.13603
-0.126117
-0.137357
-0.139854
-0.117458
-0.144032
-0.0966374
-0.087212
-0.157254
-0.0918389
-0.142829
-0.113776
-0.0726227
-0.0873671
-0.142521
-0.118608
-0.107993
-0.139122
-0.136472
-0.0882937
-0.0875588
-0.0850496
-0.12107
-0.13359
-0.153528
-0.147501
-0.160481
-0.145419
-0.158916
-0.133333
-0.139325
-0.14041
-0.132363
-0.139054
-0.128006
-0.1261
-0.0894714
-0.120146
-0.140575
-0.0976463
-0.143227
-0.131576
-0.152412
-0.0916907
-0.144944
-0.138558
-0.0900445
-0.124144
-0.0894363
-0.139499
-0.127348
-0.0937499
-0.0882389
-0.076312
-0.0877836
-0.13969
-0.0640828
-0.107663
-0.0879111
-0.0986381
-0.14508
-0.140433
-0.0440455
-0.140944
-0.0767549
-0.0832171
-0.144289
-0.117291
-0.0841974
-0.160986
-0.0915725
-0.0440455
-0.0850958
-0.12524
-0.156336
-0.118524
-0.139443
-0.13059
-0.068552
-0.0671866
-0.0574553
-0.0659629
-0.0934304
-0.0714525
-0.11511
-0.0720348
-0.123971
-0.0885331
-0.0852247
-0.0996962
-0.0926941
-0.123136
-0.0888856
-0.0914674
-0.0403766
-0.0921649
-0.13331
-0.133405
-0.120824
-0.0887145
-0.0577764
-0.167738
-0.112697
-0.0941161
-0.0867652
-0.0864117
-0.0894901
-0.109052
-0.0878874
-0.0629418
-0.0867354
-0.0594914
-0.107462
-0.0884888
-0.0376333
-0.0833448
-0.0985568
-0.0884916
-0.13618
-0.091896
-0.118513
-0.0454527
-0.0951262
-0.0908618
-0.0793634
-0.0852992
-0.100661
-0.0947501
-0.0990814
-0.0842553
-0.0855814
-0.0924198
-0.123557
-0.0871503
-0.123477
-0.111463
-0.0879777
-0.0904127
-0.0912808
-0.100963
-0.0911305
-0.0853274
-0.0969645
-0.101695
-0.12005
-0.0912617
-0.0906695
-0.131272
-0.129434
-0.0872161
-0.0879965
-0.0392912
-0.1063
-0.0737528
-0.0997754
-0.0441184
-0.0457971
-0.0409273
-0.0415974
-0.0441301
-0.0464883
-0.047908
-0.111947
-0.0828479
-0.0835804
-0.0955541
-0.0930806
-0.091919
-0.0972345
-0.0899541
-0.0920032
-0.0935541
-0.0915782
-0.112457
-0.0832599
-0.115596
-0.0899389
-0.0868205
-0.0916937
-0.0978485
-0.102234
-0.0952455
-0.10908
-0.101907
-0.0944985
-0.0681435
-0.0950465
-0.0929423
-0.100077
-0.0958643
-0.0908343
-0.086385
-0.0951569
-0.0992578
-0.134745
-0.0889918
-0.131005
-0.136555
-0.0935086
-0.130833
-0.100364
-0.0803944
-0.10952
-0.0959875
-0.0691367
-0.0607122
-0.108129
-0.115166
-0.0974897
-0.0810427
-0.0975024
-0.0462184
-0.0963878
-0.0904378
-0.0461724
-0.0176996
-0.0193618
-0.0834933
-0.0890284
-0.103403
-0.0993981
-0.00910028
-0.00950887
-0.0984429
-0.0994698
-0.0941584
-0.0346923
-0.0833046
-0.0968529
-0.0987481
-0.0851803
-0.0751837
-0.0361276
-0.142633
-0.0895863
-0.109466
-0.111178
-0.0798959
-0.101117
-0.0781167
-0.0861985
-0.0428248
-0.0646298
-0.101237
-0.101865
-0.0875477
-0.0919498
-0.0948871
-0.10005
-0.0956957
-0.0471727
-0.0839755
-0.0946663
-0.0894846
-0.134286
-0.0471634
-0.0726773
-0.0748595
-0.0709526
-0.0461324
-0.0461355
-0.0812838
-0.0656229
-0.0938578
-0.0504834
-0.0550911
-0.0179888
-0.0179887
-0.0376509
-0.0598081
-0.0402946
-0.07997
-0.0864999
-0.0923052
-0.104008
-0.0943423
-0.087346
-0.0687655
-0.0425383
-0.0863394
-0.0894514
-0.0866053
-0.0478036
-0.0441977
-0.0344142
-0.0864831
-0.0882302
-0.0708931
-0.0800781
-0.0738943
-0.0676674
-0.0905691
-0.0676615
-0.0799352
-0.0770737
-0.0472507
-0.0583364
-0.0542256
-0.0957716
-0.0378632
-0.0398878
-0.039021
-0.0904474
-0.0360527
-0.0353085
-0.0629257
-0.0329318
-0.0732381
-0.0733489
-0.0338049
-0.0797478
-0.037527
-0.0373011
-0.0420266
-0.0355882
-0.0349436
-0.0521653
-0.0415359
-0.0377429
-0.0356987
-0.0730186
-0.0833456
-0.0392975
-0.0805944
-0.0323742
-0.081759
-0.0649542
-0.0338232
-0.0286407
-0.0319513
-0.0423949
-0.0702111
-0.0578097
-0.024187
-0.0268475
-0.078275
-0.0227678
-0.0227676
-0.0257984
-0.0289569
-0.0327146
-0.0380867
-0.0629751
-0.0582938
-0.078329
-0.0228743
-0.0228741
-0.0688475
-0.0283014
-0.0558053
-0.0256453
-0.0258009
-0.0339952
-0.0590319
-0.0611266
-0.0651206
-0.059681
-0.0590304
-0.012897
-0.0952878
-0.0164511
-0.0159396
-0.0769765
-0.0764424
-0.016518
-0.0114728
-0.0161652
-0.0710042
SCALARS cell_type float
LOOKUP_TABLE default
0
0
0
0
0
0
0
0
0
0
0
0
0
0
0
0
0
0
0
0
0
1
0
0
0
0
0
0
0
0
0
0
0
0
0
0
0
0
0
0
0
0
0
0
0
0
0
0
0
0
0
0
0
0
0
0
0
0
0
0
0
0
0
0
0
0
0
0
0
0
0
0
0
0
0
0
0
0
0
0
0
0
0
0
0
0
0
0
0
0
0
0
0
0
0
0
0
0
0
0
0
0
0
0
0
0
0
0
0
0
0
0
0
0
0
0
0
0
0
0
0
0
0
0
0
0
0
0
0
0
0
0
0
0
0
0
0
0
0
0
0
0
0
0
0
0
0
0
0
0
0
0
0
0
0
0
0
0
0
0
0
0
0
0
0
0
0
0
0
0
0
0
0
0
0
0
0
0
0
0
0
0
0
0
0
0
0
0
0
0
0
0
0
0
0
0
0
0
0
0
0
0
0
0
0
0
0
0
0
0
0
0
0
0
0
0
0
0
0
0
0
0
0
0
0
0
0
0
0
0
0
0
0
0
0
0
0
0
0
0
0
0
0
0
0
0
0
0
0
0
0
0
0
0
0
0
0
0
0
0
0
0
0
0
0
0
0
0
0
0
0
0
0
0
0
0
0
0
0
0
0
0
0
0
0
0
0
0
0
0
0
0
0
0
0
0
0
0
0
0
0
0
0
0
0
0
0
0
0
0
0
0
0
0
0
0
0
0
0
0
0
0
0
0
0
0
0
0
0
0
0
0
0
0
0
0
0
0
0
0
0
0
0
0
0
0
0
0
0
0
2
2
2
2
2
2
2
0
0
0
0
0
0
0
0
0
0
0
0
0
0
0
0
0
0
0
0
0
0
0
0
0
0
0
0
0
0
0
0
0
0
0
0
0
0
0
0
0
0
0
0
0
0
0
0
0
0
0
0
0
0
0
0
0
0
0
1
1
0
0
0
0
0
0
0
0
0
0
0
0
0
0
0
0
0
0
0
0
0
0
0
0
0
0
0
0
0
0
0
0
0
0
0
0
0
0
0
0
0
0
0
1
1
0
0
0
0
0
0
0
0
0
0
0
0
0
0
0
0
0
0
0
0
0
0
0
0
0
0
0
0
0
0
0
0
0
0
0
0
0
0
0
0
0
0
0
0
0
0
0
0
0
0
0
0
0
0
0
0
0
0
0
0
0
0
0
0
0
1
1
0
0
0
0
0
0
0
0
0
0
0
0
0
0
0
0
0
0
0
0
0
0
0
0
0
0
0
0
0
0
0
0
0
TENSORS Lagrange_strain float
0.0305673 -0.0031982 -4.44493e-08
-0.0031982 0.0133887 -1.49158e-07
-4.44493e-08 -1.49158e-07 0.00740156

0.0291919 -0.00280096 4.85708e-08
-0.00280096 0.0335526 1.94623e-08
4.85708e-08 1.94623e-08 0.0331625

0.0300203 0.00367889 -1.24513e-07
0.00367889 0.0311687 -1.9511e-07
-1.24513e-07 -1.9511e-07 0.0304669

0.0291607 -0.00392483 8.42112e-08
-0.00392483 0.0327978 3.14856e-08
8.42112e-08 3.14856e-08 0.0330874

0.0353659 0.00266934 -3.91647e-08
0.00266934 0.0380845 8.91922e-08
-3.91647e-08 8.91922e-08 0.0352914

0.0277345 -0.00236709 -1.00036e-07
-0.00236709 0.0333831 6.92316e-10
-1.00036e-07 6.92316e-10 0.030438

0.0302612 0.00339402 -4.615e-08
0.00339402 0.0134943 -7.60057e-08
-4.615e-08 -7.60057e-08 0.007463

0.0317536 0.00393954 -1.99536e-08
0.00393954 0.0311992 -1.72155e-07
-1.99536e-08 -1.72155e-07 0.0315597

0.0332407 0.000715383 6.08404e-08
0.000715383 0.0262206 -2.78743e-09
6.08404e-08 -2.78743e-09 0.0281412

0.035466 -0.000991012 -4.9098e-08
-0.000991012 0.0275502 -3.8421e-08
-4.9098e-08 -3.8421e-08 0.0327201

0.0280605 0.00205106 9.44812e-08
0.00205106 0.0138086 -1.79954e-07
9.44812e-08 -1.79954e-07 0.0117531

0.0279524 -0.00176576 -3.74408e-08
-0.00176576 0.0350053 1.99605e-07
-3.74408e-08 1.99605e-07 0.0315483

0.0311203 0.00365703 -1.15537e-07
0.00365703 0.0312992 -1.4842e-08
-1.15537e-07 -1.4842e-08 0.0310786

0.0290683 -0.00188004 -1.11094e-07
-0.00188004 0.0347977 -2.68809e-08
-1.11094e-07 -2.68809e-08 0.0325455

0.0346304 0.00441842 3.37144e-08
0.00441842 0.0343619 -2.79649e-08
3.37144e-08 -2.79649e-08 0.0348838

0.0343264 7.30302e-05 -1.25668e-07
7.30302e-05 0.027285 -5.10705e-08
-1.25668e-07 -5.10705e-08 0.0307774

0.028692 -0.0023537 -1.32472e-07
-0.0023537 0.0360132 -1.00397e-07
-1.32472e-07 -1.00397e-07 0.0334492

0.0345724 -0.000353266 -5.22723e-08
-0.000353266 0.0273554 -3.43725e-08
-5.22723e-08 -3.43725e-08 0.0319761

0.0269193 0.00347798 1.73322e-07
0.00347798 0.030944 1.15493e-07
1.73322e-07 1.15493e-07 0.0275757

0.0338834 -0.000550299 -5.05723e-09
-0.000550299 0.0264085 1.23086e-07
-5.05723e-09 1.23086e-07 0.0301333

0.0266211 0.00113504 -1.88516e-08
0.00113504 0.0340327 -1.65273e-07
-1.88516e-08 -1.65273e-07 0.0291491

0.0452949 0.000852706 1.43171e-07
0.000852706 0.0452644 4.84481e-08
1.43171e-07 4.84481e-08 0.0366374

0.0336738 0.000247478 6.25582e-08
0.000247478 0.0263145 -2.96298e-09
6.25582e-08 -2.96298e-09 0.0298042

0.0293086 -0.00363196 -4.26898e-09
-0.00363196 0.0311351 8.37901e-09
-4.26898e-09 8.37901e-09 0.0300457

0.0337785 0.000900033 -1.59945e-07
0.000900033 0.0264954 3.22773e-08
-1.59945e-07 3.22773e-08 0.0300803

0.0285452 0.00250753 8.24954e-08
0.00250753 0.0338925 5.21319e-08
8.24954e-08 5.21319e-08 0.032286

0.0286288 0.00052663 3.97237e-08
0.00052663 0.0176893 -6.62018e-08
3.97237e-08 -6.62018e-08 0.0131709

0.0309132 0.00403441 -3.47438e-08
0.00403441 0.0306456 -1.94732e-07
-3.47438e-08 -1.94732e-07 0.0306098

0.0259239 0.00477639 -1.78574e-07
0.00477639 0.0257324 -1.35143e-07
-1.78574e-07 -1.35143e-07 0.0211273

0.0415291 0.00136976 5.46641e-08
0.00136976 0.0383494 6.58585e-08
5.46641e-08 6.58585e-08 0.0361344

0.0344096 0.00187124 -1.56238e-07
0.00187124 0.0279516 3.91738e-08
-1.56238e-07 3.91738e-08 0.0309991

0.0217591 -0.00228784 3.10455e-08
-0.00228784 0.0299912 9.76406e-08
3.10455e-08 9.76406e-08 0.0211242

0.0228628 -0.00535218 -8.26068e-08
-0.00535218 0.0234723 8.14976e-08
-8.26068e-08 8.14976e-08 0.0125785

0.034832 0.000800933 -4.97395e-08
0.000800933 0.0422549 -9.1354e-08
-4.97395e-08 -9.1354e-08 0.0357855

0.0374528 -0.000662029 1.35919e-07
-0.000662029 0.0412025 -7.38786e-08
1.35919e-07 -7.38786e-08 0.0359001

0.0410751 0.00281316 -1.85964e-07
0.00281316 0.0359856 -1.4654e-07
-1.85964e-07 -1.4654e-07 0.0357657

0.0372534 0.000705292 9.66324e-10
0.000705292 0.043215 -5.93135e-08
9.66324e-10 -5.93135e-08 0.0361408

0.0402605 -0.00121873 -1.13383e-07
-0.00121873 0.0378298 4.05064e-08
-1.13383e-07 4.05064e-08 0.0358074

0.0312144 -0.0036778 1.92893e-07
-0.0036778 0.0311226 2.03124e-08
1.92893e-07 2.03124e-08 0.0309245

0.0227467 0.00527878 1.41805e-07
0.00527878 0.0237083 2.06343e-07
1.41805e-07 2.06343e-07 0.0125807

0.0297599 -0.00231561 -2.33344e-08
-0.00231561 0.0220304 2.88041e-08
-2.33344e-08 2.88041e-08 0.0208742

0.0376187 -0.000523037 4.2559e-08
-0.000523037 0.043063 1.52967e-07
4.2559e-08 1.52967e-07 0.0361436

0.0412402 0.00263452 -2.11148e-07
0.00263452 0.0394146 1.62109e-07
-2.11148e-07 1.62109e-07 0.036126

0.0342999 -0.00161715 5.84443e-08
-0.00161715 0.0279936 -1.44925e-07
5.84443e-08 -1.44925e-07 0.031083

0.023105 -0.00552553 7.20041e-08
-0.00552553 0.023562 -8.74469e-08
7.20041e-08 -8.74469e-08 0.0162154

0.0299421 -0.00233225 7.64753e-08
-0.00233225 0.0221545 1.47454e-07
7.64753e-08 1.47454e-07 0.0213434

0.0258928 0.0022272 -2.45426e-08
0.0022272 0.0326529 -1.53113e-07
-2.45426e-08 -1.53113e-07 0.0279144

0.0275499 0.00252886 1.73762e-07
0.00252886 0.0323723 1.15159e-07
1.73762e-07 1.15159e-07 0.0284899

0.0341743 -0.00214078 -8.71051e-09
-0.00214078 0.0271063 -2.0909e-07
-8.71051e-09 -2.0909e-07 0.0304712

0.0229018 -0.00439215 -3.23439e-08
-0.00439215 0.0272479 -5.23611e-08
-3.23439e-08 -5.23611e-08 0.0198496

0.0294927 0.00247153 6.86903e-08
0.00247153 0.0218335 6.88425e-08
6.86903e-08 6.88425e-08 0.0202802

0.0298713 -0.00327075 -1.44166e-07
-0.00327075 0.0245128 1.99964e-07
-1.44166e-07 1.99964e-07 0.0230474

0.034477 0.00257787 -4.67981e-08
0.00257787 0.0382023 2.0189e-07
-4.67981e-08 2.0189e-07 0.0352701

0.0286885 0.00383844 1.3658e-08
0.00383844 0.025779 -1.40373e-07
1.3658e-08 -1.40373e-07 0.023116

0.0349272 -0.00291609 -5.4855e-08
-0.00291609 0.0374321 4.95313e-08
-5.4855e-08 4.95313e-08 0.0351884

0.0255792 -0.00545521 2.21895e-07
-0.00545521 0.0229017 -9.3061e-08
2.21895e-07 -9.3061e-08 0.015819

0.0373463 0.000746108 -8.56236e-08
0.000746108 0.0414128 1.05789e-07
-8.56236e-08 1.05789e-07 0.0359206

0.0231669 -0.000693228 -2.39838e-08
-0.000693228 0.0313123 3.09206e-09
-2.39838e-08 3.09206e-09 0.023102

0.0410301 0.00137978 7.28989e-08
0.00137978 0.0377066 -9.01912e-08
7.28989e-08 -9.01912e-08 0.0358988

0.0276749 0.00280514 1.35969e-07
0.00280514 0.032748 -2.1103e-08
1.35969e-07 -2.1103e-08 0.0302302

0.0361383 0.000784769 3.52589e-08
0.000784769 0.0281307 2.60299e-07
3.52589e-08 2.60299e-07 0.0336723

0.0362536 0.00153415 -7.45969e-10
0.00153415 0.0316923 -9.51386e-08
-7.45969e-10 -9.51386e-08 0.0342199

0.0286364 0.0040569 2.0305e-07
0.0040569 0.0198969 3.3254e-07
2.0305e-07 3.3254e-07 0.0137588

0.0309718 -0.000784011 1.34544e-07
-0.000784011 0.0370843 6.59791e-08
1.34544e-07 6.59791e-08 0.0338808

0.0315542 0.00124349 -2.91386e-08
0.00124349 0.0364197 6.18363e-09
-2.91386e-08 6.18363e-09 0.0342588

0.0285482 -0.000374988 -6.91131e-08
-0.000374988 0.0369552 2.50019e-08
-6.91131e-08 2.50019e-08 0.0326698

0.0296018 0.00307121 1.21803e-07
0.00307121 0.0347901 -1.04292e-07
1.21803e-07 -1.04292e-07 0.0337081

0.0347184 0.00112206 -3.22927e-10
0.00112206 0.0278379 5.0881e-08
-3.22927e-10 5.0881e-08 0.0322077

0.0291864 -0.00369879 1.50557e-07
-0.00369879 0.0310201 2.58399e-07
1.50557e-07 2.58399e-07 0.0299087

0.0350538 -0.000236849 -8.17447e-08
-0.000236849 0.027579 -3.90659e-08
-8.17447e-08 -3.90659e-08 0.0333923

0.0344517 -0.00254824 -1.40085e-07
-0.00254824 0.0381332 2.17229e-08
-1.40085e-07 2.17229e-08 0.0352601

0.0350096 0.00284967 5.56024e-08
0.00284967 0.0375697 -8.92364e-08
5.56024e-08 -8.92364e-08 0.03524

0.021888 -0.0021317 7.14962e-08
-0.0021317 0.029921 1.97207e-07
7.14962e-08 1.97207e-07 0.0208507

0.0347007 -0.00369109 2.68027e-08
-0.00369109 0.0319573 -2.40681e-07
2.68027e-08 -2.40681e-07 0.0330782

0.0292909 -0.00329719 -1.10924e-08
-0.00329719 0.0321117 -2.67866e-08
-1.10924e-08 -2.67866e-08 0.0304325

0.0267789 -0.00401678 -1.64657e-07
-0.00401678 0.0176049 -4.66667e-08
-1.64657e-07 -4.66667e-08 0.0127255

0.0324035 0.000418598 -3.38192e-08
0.000418598 0.0381042 5.46319e-09
-3.38192e-08 5.46319e-09 0.0344051

0.0345364 0.00381724 -1.00753e-07
0.00381724 0.0309406 -8.52771e-08
-1.00753e-07 -8.52771e-08 0.0326595

0.0283757 0.00258124 1.15467e-07
0.00258124 0.0341285 -2.7066e-09
1.15467e-07 -2.7066e-09 0.032213

0.0315408 0.00103768 -7.7826e-08
0.00103768 0.0228433 1.26544e-07
-7.7826e-08 1.26544e-07 0.0240685

0.0270963 -0.00435847 2.05473e-07
-0.00435847 0.0237361 -7.59193e-08
2.05473e-07 -7.59193e-08 0.0183229

0.0362597 -0.00140296 -4.65057e-08
-0.00140296 0.0387422 -1.60522e-07
-4.65057e-08 -1.60522e-07 0.0354005

0.0315553 0.00317091 3.55923e-08
0.00317091 0.0344009 -2.79733e-08
3.55923e-08 -2.79733e-08 0.0340895

0.0273007 -0.00415586 -2.49665e-08
-0.00415586 0.0221743 -3.35877e-08
-2.49665e-08 -3.35877e-08 0.0184108

0.0303571 0.00139097 3.96563e-08
0.00139097 0.0228299 1.23861e-07
3.96563e-08 1.23861e-07 0.0209539

0.0186016 -0.00269685 1.67366e-07
-0.00269685 0.0289276 -4.68702e-08
1.67366e-07 -4.68702e-08 0.0158925

0.0271991 0.00188872 4.74758e-08
0.00188872 0.0343189 -6.14249e-09
4.74758e-08 -6.14249e-09 0.0306537

0.035381 0.00305649 -1.24421e-07
0.00305649 0.0308194 1.31302e-07
-1.24421e-07 1.31302e-07 0.0327529

0.0226473 0.00538557 -1.80705e-07
0.00538557 0.0240878 -1.66119e-07
-1.80705e-07 -1.66119e-07 0.016198

0.0459502 0.00223795 7.825e-07
0.00223795 0.0417503 -5.52121e-07
7.825e-07 -5.52121e-07 0.0366384

0.0230807 -0.000534267 -1.38122e-07
-0.000534267 0.031353 -2.44911e-07
-1.38122e-07 -2.44911e-07 0.0230718

0.0463635 -0.00225557 4.16479e-07
-0.00225557 0.0412944 -9.8993e-08
4.16479e-07 -9.8993e-08 0.0365935

0.0370642 -0.00362445 -4.27457e-08
-0.00362445 0.0334901 2.86125e-08
-4.27457e-08 2.86125e-08 0.03462

0.0351365 0.00361918 -6.43556e-08
0.00361918 0.0300032 -9.07819e-08
-6.43556e-08 -9.07819e-08 0.0324556

0.0299607 -0.00315882 1.75708e-07
-0.00315882 0.0246898 -6.97332e-09
1.75708e-07 -6.97332e-09 0.0232852

0.0230116 0.00402956 -1.67478e-07
0.00402956 0.0277782 -8.24286e-08
-1.67478e-07 -8.24286e-08 0.0203814

0.0210933 -0.00137856 7.21181e-09
-0.00137856 0.0298941 1.60948e-07
7.21181e-09 1.60948e-07 0.0182509

0.0287447 0.00288895 -1.43996e-07
0.00288895 0.0342264 -4.89306e-08
-1.43996e-07 -4.89306e-08 0.0326988

0.0370112 0.00223599 -4.61805e-08
0.00223599 0.0334514 5.31236e-08
-4.61805e-08 5.31236e-08 0.0343834

0.0281476 0.00198804 1.16539e-07
0.00198804 0.0340588 3.56242e-09
1.16539e-07 3.56242e-09 0.0308645

0.0318816 0.00207294 -1.02254e-07
0.00207294 0.0252533 8.85787e-08
-1.02254e-07 8.85787e-08 0.0256167

0.0239068 -0.00277422 1.00166e-07
-0.00277422 0.0297637 2.00349e-07
1.00166e-07 2.00349e-07 0.0215608

0.0278977 -0.00376351 2.56896e-07
-0.00376351 0.0218147 5.07071e-08
2.56896e-07 5.07071e-08 0.0180754

0.0293303 -0.00323169 7.26156e-08
-0.00323169 0.0326287 -6.43012e-08
7.26156e-08 -6.43012e-08 0.0324019

0.0306254 0.00361457 -1.33888e-07
0.00361457 0.0322276 -4.14109e-08
-1.33888e-07 -4.14109e-08 0.0323697

0.0287068 0.00304774 -3.28568e-08
0.00304774 0.0340257 3.76618e-08
-3.28568e-08 3.76618e-08 0.0326292

0.029206 0.00172534 -3.21214e-08
0.00172534 0.0376165 4.57167e-09
-3.21214e-08 4.57167e-09 0.0338452

0.0344758 0.00123244 8.96776e-08
0.00123244 0.0275229 3.13245e-08
8.96776e-08 3.13245e-08 0.0306738

0.0199601 -0.000605245 1.90467e-07
-0.000605245 0.0296595 1.88244e-08
1.90467e-07 1.88244e-08 0.0181033

0.0297962 -0.00486313 1.15654e-07
-0.00486313 0.0330481 9.74834e-10
1.15654e-07 9.74834e-10 0.0337406

0.0290801 0.00359973 -1.1726e-07
0.00359973 0.0313586 -1.45684e-08
-1.1726e-07 -1.45684e-08 0.0302631

0.0181051 0.000282822 -4.80962e-08
0.000282822 0.0293095 1.72849e-07
-4.80962e-08 1.72849e-07 0.0168779

0.0278425 0.00442354 -8.4529e-08
0.00442354 0.0209675 1.06574e-07
-8.4529e-08 1.06574e-07 0.0174541

0.0291899 -0.00302031 -3.47002e-08
-0.00302031 0.0327019 -1.27112e-07
-3.47002e-08 -1.27112e-07 0.0321843

0.0352413 0.000759799 1.06207e-07
0.000759799 0.0273375 -1.50597e-07
1.06207e-07 -1.50597e-07 0.0325517

0.0294264 0.00352002 -1.54509e-07
0.00352002 0.0252004 9.7858e-08
-1.54509e-07 9.7858e-08 0.0231104

0.0396355 0.0017099 2.15654e-07
0.0017099 0.0390391 1.45987e-07
2.15654e-07 1.45987e-07 0.0359392

0.0283739 0.00312311 1.98084e-07
0.00312311 0.0224006 -5.65043e-08
1.98084e-07 -5.65043e-08 0.0182857

0.039488 -0.00175087 5.24884e-08
-0.00175087 0.0390646 4.82403e-08
5.24884e-08 4.82403e-08 0.0359043

0.0232602 0.000103512 -2.03866e-07
0.000103512 0.0315167 -2.01633e-08
-2.03866e-07 -2.01633e-08 0.0231188

0.0327574 -0.000288503 -1.27445e-07
-0.000288503 0.0246591 -1.97795e-07
-1.27445e-07 -1.97795e-07 0.0269653

0.0380534 -0.00212919 -5.9407e-08
-0.00212919 0.0304628 8.63507e-08
-5.9407e-08 8.63507e-08 0.0347922

0.0292372 0.00320602 -7.84439e-08
0.00320602 0.0332765 9.37763e-08
-7.84439e-08 9.37763e-08 0.0333418

0.0289495 -0.00177242 3.30242e-08
-0.00177242 0.0366083 1.53492e-09
3.30242e-08 1.53492e-09 0.0334985

0.0365824 -0.00108481 -9.752e-08
-0.00108481 0.0264751 -1.43792e-08
-9.752e-08 -1.43792e-08 0.0338589

0.0311793 -0.00292616 1.42432e-07
-0.00292616 0.0383051 -9.20646e-08
1.42432e-07 -9.20646e-08 0.0348426

0.0381645 -0.000884906 -1.99077e-07
-0.000884906 0.0387302 9.23928e-08
-1.99077e-07 9.23928e-08 0.0358344

0.0301788 -0.00393983 -9.28627e-08
-0.00393983 0.0327091 -1.26951e-07
-9.28627e-08 -1.26951e-07 0.0327621

0.021332 0.00146945 -1.26621e-08
0.00146945 0.0296124 1.93361e-07
-1.26621e-08 1.93361e-07 0.0182949

0.0293869 -0.00364549 -2.58896e-07
-0.00364549 0.025348 -6.35749e-08
-2.58896e-07 -6.35749e-08 0.0231811

0.0328586 -0.00181693 -1.73856e-07
-0.00181693 0.0397168 -1.06083e-07
-1.73856e-07 -1.06083e-07 0.03524

0.03509 7.67466e-05 1.37689e-07
7.67466e-05 0.0272208 -1.47987e-07
1.37689e-07 -1.47987e-07 0.03325

0.0308172 -0.00282883 4.58028e-08
-0.00282883 0.0348906 -1.98884e-08
4.58028e-08 -1.98884e-08 0.0340829

0.0295334 0.00338879 -6.01058e-08
0.00338879 0.0328699 7.6063e-08
-6.01058e-08 7.6063e-08 0.0333248

0.0264592 -0.00406305 -1.11749e-07
-0.00406305 0.0272605 -5.41699e-08
-1.11749e-07 -5.41699e-08 0.0215836

0.0371718 -0.000958388 -3.58928e-08
-0.000958388 0.0416093 -8.90729e-08
-3.58928e-08 -8.90729e-08 0.0358856

0.0227101 -0.00423746 -9.36886e-08
-0.00423746 0.0272426 4.5912e-08
-9.36886e-08 4.5912e-08 0.0168767

0.0341818 -0.00252475 -1.17075e-08
-0.00252475 0.0286052 8.94762e-08
-1.17075e-08 8.94762e-08 0.0310433

0.0364245 0.000289838 1.24675e-07
0.000289838 0.0294363 3.39024e-08
1.24675e-07 3.39024e-08 0.0341926

0.0396399 0.0023967 -1.04263e-08
0.0023967 0.0391125 -3.597e-07
-1.04263e-08 -3.597e-07 0.0358665

0.0238552 0.00260899 -1.41955e-07
0.00260899 0.0301503 -1.29863e-07
-1.41955e-07 -1.29863e-07 0.0217979

0.0334294 0.00358133 5.45557e-08
0.00358133 0.0307141 -2.17482e-07
5.45557e-08 -2.17482e-07 0.0317661

0.0316416 -0.00319424 2.53947e-07
-0.00319424 0.0265509 -2.71525e-08
2.53947e-07 -2.71525e-08 0.0269343

0.0289281 -0.00234088 5.42574e-08
-0.00234088 0.0342333 4.78432e-08
5.42574e-08 4.78432e-08 0.0326047

0.0262432 0.00450126 -7.40995e-08
0.00450126 0.0245567 -5.65846e-09
-7.40995e-08 -5.65846e-09 0.0180803

0.0284215 -0.00286664 2.56426e-08
-0.00286664 0.0340307 3.56399e-08
2.56426e-08 3.56399e-08 0.0324479

0.0331477 0.0040586 -5.21489e-08
0.0040586 0.0304637 1.13582e-07
-5.21489e-08 1.13582e-07 0.0315412

0.0333333 -0.00331162 -1.02451e-07
-0.00331162 0.028356 9.99244e-09
-1.02451e-07 9.99244e-09 0.0300448

0.02916 -0.00329546 -5.26112e-08
-0.00329546 0.0319859 -4.14088e-08
-5.26112e-08 -4.14088e-08 0.0304361

0.0314538 -0.00242928 7.64118e-08
-0.00242928 0.0247179 2.31385e-07
7.64118e-08 2.31385e-07 0.0251552

0.0329542 -0.0024666 -5.07408e-08
-0.0024666 0.0267084 -6.42942e-08
-5.07408e-08 -6.42942e-08 0.0285955

0.0294902 -0.00334194 -1.50117e-07
-0.00334194 0.0329492 -1.72977e-08
-1.50117e-07 -1.72977e-08 0.0334062

0.0261331 0.00463362 3.90949e-08
0.00463362 0.0255404 -1.86754e-07
3.90949e-08 -1.86754e-07 0.0210915

0.028149 0.00201676 6.30498e-08
0.00201676 0.0343345 -3.40586e-09
6.30498e-08 -3.40586e-09 0.0311083

0.0308854 0.00348106 4.05209e-08
0.00348106 0.0322544 -6.64277e-08
4.05209e-08 -6.64277e-08 0.0325991

0.029156 0.00334804 -8.26389e-08
0.00334804 0.0331908 -7.11408e-08
-8.26389e-08 -7.11408e-08 0.0332593

0.028983 0.00152275 5.51963e-09
0.00152275 0.0354695 8.88165e-08
5.51963e-09 8.88165e-08 0.0326945

0.0310513 -0.00106169 -1.39353e-07
-0.00106169 0.0231405 -2.40125e-07
-1.39353e-07 -2.40125e-07 0.0220771

0.023883 0.00240553 1.75319e-07
0.00240553 0.0304093 -6.80999e-08
1.75319e-07 -6.80999e-08 0.0221121

0.0292121 -0.0032039 -1.40656e-08
-0.0032039 0.0326353 -1.49112e-08
-1.40656e-08 -1.49112e-08 0.0316174

0.0289863 0.00335662 2.03846e-08
0.00335662 0.0309316 1.39462e-07
2.03846e-08 1.39462e-07 0.028567

0.0266115 -0.00459093 1.7401e-07
-0.00459093 0.0252293 -3.32001e-08
1.7401e-07 -3.32001e-08 0.0212558

0.0262767 0.00489312 -1.1782e-07
0.00489312 0.0209455 1.671e-07
-1.1782e-07 1.671e-07 0.0167617

0.023502 -0.00428662 1.38904e-08
-0.00428662 0.0274636 -5.64966e-08
1.38904e-08 -5.64966e-08 0.0206256

0.0266707 -0.0040272 1.67228e-07
-0.0040272 0.0274816 -4.89018e-08
1.67228e-07 -4.89018e-08 0.0220492

0.0353638 -0.000906625 6.13952e-08
-0.000906625 0.0273893 1.7745e-07
6.13952e-08 1.7745e-07 0.032654

0.0260444 0.00392153 -2.46904e-07
0.00392153 0.0280913 -2.96959e-08
-2.46904e-07 -2.96959e-08 0.0221016

0.0307867 0.00171658 -3.2129e-07
0.00171658 0.0233595 -2.79616e-08
-3.2129e-07 -2.79616e-08 0.0220248

0.0214302 0.00172202 -1.16394e-07
0.00172202 0.0302396 -1.22442e-07
-1.16394e-07 -1.22442e-07 0.021132

0.024262 -0.00288928 8.59271e-08
-0.00288928 0.0299507 9.94649e-08
8.59271e-08 9.94649e-08 0.0220854

0.0313451 -0.000131054 -8.46679e-08
-0.000131054 0.039273 -7.59181e-08
-8.46679e-08 -7.59181e-08 0.0346702

0.0230575 0.000294788 -7.16621e-08
0.000294788 0.0314594 -2.40648e-07
-7.16621e-08 -2.40648e-07 0.0230615

0.0227764 0.00400125 1.2282e-07
0.00400125 0.0281264 6.66378e-10
1.2282e-07 6.66378e-10 0.0206373

0.0288876 0.0015856 1.38643e-07
0.0015856 0.0358322 -2.82594e-08
1.38643e-07 -2.82594e-08 0.032893

0.0293149 -0.0035799 1.93122e-07
-0.0035799 0.0251288 2.26976e-08
1.93122e-07 2.26976e-08 0.023239

0.0369764 0.00273289 -4.11565e-08
0.00273289 0.0297226 -6.75604e-08
-4.11565e-08 -6.75604e-08 0.0338011

0.0371751 0.00348331 1.17946e-07
0.00348331 0.033422 1.72953e-08
1.17946e-07 1.72953e-08 0.0346518

0.0345433 -0.00244633 -1.80012e-08
-0.00244633 0.0285294 1.9171e-08
-1.80012e-08 1.9171e-08 0.0313783

0.0390559 -0.000265709 -1.44657e-07
-0.000265709 0.0339241 -7.61751e-08
-1.44657e-07 -7.61751e-08 0.0352078

0.0314783 -0.00418755 4.5065e-08
-0.00418755 0.0317815 1.41819e-07
4.5065e-08 1.41819e-07 0.0321557

0.0294614 0.00300732 -2.44235e-07
0.00300732 0.0223267 -1.34259e-07
-2.44235e-07 -1.34259e-07 0.0210659

0.0302292 0.00397307 -4.85434e-08
0.00397307 0.0326622 9.72487e-08
-4.85434e-08 9.72487e-08 0.0327194

0.0302766 0.00384677 -1.21795e-07
0.00384677 0.0326067 -6.45036e-08
-1.21795e-07 -6.45036e-08 0.0326742

0.0262437 0.00396161 -1.677e-08
0.00396161 0.027767 -7.62842e-08
-1.677e-08 -7.62842e-08 0.0218642

0.0344495 0.00357666 -3.0987e-08
0.00357666 0.0317793 -1.82478e-07
-3.0987e-08 -1.82478e-07 0.032831

0.0302474 0.000452415 -3.05498e-07
0.000452415 0.0204279 4.32718e-09
-3.05498e-07 4.32718e-09 0.0205727

0.0331857 0.00420047 -1.04485e-08
0.00420047 0.0323726 -7.14439e-08
-1.04485e-08 -7.14439e-08 0.0334834

0.0305005 -0.00165432 -5.00757e-08
-0.00165432 0.0366159 -2.32746e-09
-5.00757e-08 -2.32746e-09 0.0336623

0.0373598 0.00323301 3.47634e-08
0.00323301 0.0334595 -1.02396e-07
3.47634e-08 -1.02396e-07 0.0346638

0.0307367 -0.00389588 3.0802e-08
-0.00389588 0.0322724 -7.34343e-08
3.0802e-08 -7.34343e-08 0.0326797

0.0293736 -0.000645001 -8.82998e-08
-0.000645001 0.0369025 2.33513e-08
-8.82998e-08 2.33513e-08 0.0328474

0.028812 -0.00315224 1.09562e-07
-0.00315224 0.0221395 1.47395e-07
1.09562e-07 1.47395e-07 0.0187585

0.0290017 0.00384436 -8.46007e-08
0.00384436 0.0255775 -1.84068e-07
-8.46007e-08 -1.84068e-07 0.0230723

0.0217009 0.00189096 -1.34184e-07
0.00189096 0.0300606 -1.29239e-07
-1.34184e-07 -1.29239e-07 0.0210833

0.0349895 -0.000161457 -2.78648e-08
-0.000161457 0.027389 1.77577e-07
-2.78648e-08 1.77577e-07 0.0333011

0.034419 2.38434e-07 1.73078e-07
2.38434e-07 0.0272741 -2.97615e-08
1.73078e-07 -2.97615e-08 0.0320407

0.0291649 0.00304009 -1.34496e-07
0.00304009 0.0326794 -6.39123e-08
-1.34496e-07 -6.39123e-08 0.0321322

0.0314493 0.00316587 1.23646e-07
0.00316587 0.03425 1.69128e-07
1.23646e-07 1.69128e-07 0.0340577

0.029168 -0.0032044 1.21662e-07
-0.0032044 0.0332379 -5.85085e-08
1.21662e-07 -5.85085e-08 0.0333785

0.0287732 -8.54207e-05 -8.98157e-08
-8.54207e-05 0.0367039 -1.09697e-07
-8.98157e-08 -1.09697e-07 0.0325252

0.0294634 0.00337561 9.62724e-10
0.00337561 0.0330743 1.2386e-07
9.62724e-10 1.2386e-07 0.0333542

0.0328585 -0.00134645 -1.90065e-07
-0.00134645 0.0253614 -1.18061e-07
-1.90065e-07 -1.18061e-07 0.0278284

0.0263544 -0.00425449 -1.51667e-07
-0.00425449 0.0281792 1.11836e-08
-1.51667e-07 1.11836e-08 0.0242671

0.0362972 -0.00033156 7.69047e-08
-0.00033156 0.0293828 -1.42842e-07
7.69047e-08 -1.42842e-07 0.0340275

0.0267804 -0.00444523 -5.88631e-08
-0.00444523 0.0251899 3.11146e-08
-5.88631e-08 3.11146e-08 0.0209487

0.0308992 0.00250722 9.17241e-08
0.00250722 0.035063 -1.2904e-07
9.17241e-08 -1.2904e-07 0.0340673

0.0351128 -0.00349683 1.1105e-08
-0.00349683 0.030388 -2.36702e-08
1.1105e-08 -2.36702e-08 0.0326144

0.0305013 -0.00124976 -9.08837e-08
-0.00124976 0.022978 -1.28245e-07
-9.08837e-08 -1.28245e-07 0.021478

0.0371473 -0.00307693 -4.36745e-08
-0.00307693 0.0316529 -2.28064e-07
-4.36745e-08 -2.28064e-07 0.0339875

0.0349688 0.000321776 4.15586e-08
0.000321776 0.0275542 -3.10884e-08
4.15586e-08 -3.10884e-08 0.0334295

0.0358425 -0.00308831 -4.03419e-08
-0.00308831 0.0332571 -3.44968e-08
-4.03419e-08 -3.44968e-08 0.034143

0.0349283 -0.00341066 -9.88759e-08
-0.00341066 0.0295945 1.67865e-07
-9.88759e-08 1.67865e-07 0.0321776

0.0349088 -0.00113366 -1.22194e-07
-0.00113366 0.0278496 -1.2032e-07
-1.22194e-07 -1.2032e-07 0.0323409

0.0314892 -0.00306231 4.46246e-08
-0.00306231 0.0344483 7.83262e-08
4.46246e-08 7.83262e-08 0.034146

0.0292349 -0.00407093 -1.88245e-07
-0.00407093 0.0268992 -1.66808e-07
-1.88245e-07 -1.66808e-07 0.0253457

0.0349924 -0.0032437 -1.38524e-07
-0.0032437 0.0299149 1.15674e-08
-1.38524e-07 1.15674e-08 0.0321948

0.0314618 0.00140914 2.95623e-07
0.00140914 0.0233266 3.25379e-09
2.95623e-07 3.25379e-09 0.0244832

0.0336644 0.00348409 -5.8882e-08
0.00348409 0.0334432 3.55681e-09
-5.8882e-08 3.55681e-09 0.0336496

0.0298922 -0.00496718 -7.48578e-09
-0.00496718 0.0330779 -2.29827e-08
-7.48578e-09 -2.29827e-08 0.0338566

0.0300428 0.0049205 -5.16702e-08
0.0049205 0.0329397 1.26189e-07
-5.16702e-08 1.26189e-07 0.0338236

0.0276876 -0.00374173 3.7356e-08
-0.00374173 0.0348067 4.74108e-13
3.7356e-08 4.74108e-13 0.0337662

0.0279251 0.00354725 -5.20979e-08
0.00354725 0.0348343 -1.118e-07
-5.20979e-08 -1.118e-07 0.0337311

0.0364292 -0.00115386 1.15866e-07
-0.00115386 0.0263413 -7.90782e-08
1.15866e-07 -7.90782e-08 0.0337574

0.0361981 0.00124756 2.0189e-07
0.00124756 0.0265626 3.59434e-09
2.0189e-07 3.59434e-09 0.0337201

0.0350337 -0.00130644 -3.13051e-09
-0.00130644 0.0284676 7.00014e-08
-3.13051e-09 7.00014e-08 0.0325753

0.0344357 0.00425924 -7.89264e-08
0.00425924 0.0342891 1.65533e-07
-7.89264e-08 1.65533e-07 0.034812

0.0343115 -0.00435712 -6.45374e-08
-0.00435712 0.0342806 3.26232e-08
-6.45374e-08 3.26232e-08 0.0348004

0.0305205 0.00209362 -7.54068e-08
0.00209362 0.0381647 2.00425e-07
-7.54068e-08 2.00425e-07 0.0348492

0.0306635 -0.00205953 6.37847e-08
-0.00205953 0.0380948 1.18605e-08
6.37847e-08 1.18605e-08 0.0348365

0.0395016 -0.00052904 3.91857e-08
-0.00052904 0.032849 8.15048e-08
3.91857e-08 8.15048e-08 0.0352575

0.0397046 0.000513586 1.21255e-07
0.000513586 0.0326215 -8.9918e-08
1.21255e-07 -8.9918e-08 0.0353027

0.0239646 0.00127604 2.39536e-08
0.00127604 0.0320025 -6.51512e-08
2.39536e-08 -6.51512e-08 0.0251838

0.0311615 -0.00326547 5.02548e-08
-0.00326547 0.0322401 1.10619e-07
5.02548e-08 1.10619e-07 0.0328013

0.0277792 -0.00478588 -1.69252e-07
-0.00478588 0.0333113 -5.18267e-08
-1.69252e-07 -5.18267e-08 0.0334547

0.0333581 -0.000610239 -5.59751e-08
-0.000610239 0.0264027 1.1935e-07
-5.59751e-08 1.1935e-07 0.0284477

0.0381874 -0.00225192 -4.87228e-08
-0.00225192 0.030794 -6.83674e-08
-4.87228e-08 -6.83674e-08 0.0348923

0.0382359 0.00218415 8.2698e-08
0.00218415 0.0309071 -3.23855e-08
8.2698e-08 -3.23855e-08 0.0349245

0.0360832 1.5622e-05 -1.8421e-08
1.5622e-05 0.0251252 7.54634e-08
-1.8421e-08 7.54634e-08 0.0334698

0.0242406 0.00302877 -6.80736e-08
0.00302877 0.0303971 5.53016e-09
-6.80736e-08 5.53016e-09 0.0242765

0.0276738 0.00475637 2.80029e-08
0.00475637 0.0333122 -6.64827e-08
2.80029e-08 -6.64827e-08 0.0333926

0.0286739 -0.00307588 5.98987e-08
-0.00307588 0.0342602 4.77472e-08
5.98987e-08 4.77472e-08 0.0327518

0.0310847 0.00303561 -9.21816e-09
0.00303561 0.0251462 1.05555e-07
-9.21816e-09 1.05555e-07 0.0254668

0.0372274 0.00316568 1.69057e-07
0.00316568 0.0315403 -1.46566e-07
1.69057e-07 -1.46566e-07 0.0340754

0.0292263 -0.00406718 1.01504e-07
-0.00406718 0.0269352 1.71434e-07
1.01504e-07 1.71434e-07 0.0253209

0.0364011 -0.000453649 -9.03621e-08
-0.000453649 0.0296911 -1.39304e-10
-9.03621e-08 -1.39304e-10 0.0341306

0.0273441 -0.00449503 8.44646e-09
-0.00449503 0.0333947 5.72389e-08
8.44646e-09 5.72389e-08 0.0334413

0.0240374 0.00107894 -1.2466e-07
0.00107894 0.0322437 1.43492e-07
-1.2466e-07 1.43492e-07 0.0255055

0.0242293 0.00282649 2.1777e-07
0.00282649 0.0307009 1.63683e-08
2.1777e-07 1.63683e-08 0.0245444

0.026792 0.00459416 5.71451e-08
0.00459416 0.0240413 -1.59913e-07
5.71451e-08 -1.59913e-07 0.0182132

0.0298503 0.000199832 -6.7197e-08
0.000199832 0.0200881 -1.63384e-07
-6.7197e-08 -1.63384e-07 0.0193621

0.0319083 -0.00302371 1.32323e-07
-0.00302371 0.0341619 2.3462e-08
1.32323e-07 2.3462e-08 0.0340351

0.0229182 0.00399939 1.92929e-07
0.00399939 0.0276594 1.27607e-07
1.92929e-07 1.27607e-07 0.0176527

0.0292091 0.00310089 -1.10374e-07
0.00310089 0.0327622 -2.74614e-08
-1.10374e-07 -2.74614e-08 0.0310118

0.0315943 -0.000694462 5.08706e-08
-0.000694462 0.0231596 -2.35632e-07
5.08706e-08 -2.35632e-07 0.0244844

0.0327606 0.00146447 2.62124e-08
0.00146447 0.0253464 7.82984e-08
2.62124e-08 7.82984e-08 0.0276125

0.035978 5.62375e-05 -4.46481e-08
5.62375e-05 0.0249581 1.47322e-07
-4.46481e-08 1.47322e-07 0.0333857

0.0279652 -0.00380543 1.4174e-07
-0.00380543 0.0349488 -2.26251e-08
1.4174e-07 -2.26251e-08 0.0338155

0.0393145 -0.00084379 -2.834e-07
-0.00084379 0.0416019 1.18042e-07
-2.834e-07 1.18042e-07 0.0361897

0.0298673 0.004939 1.72171e-07
0.004939 0.0329555 8.25277e-08
1.72171e-07 8.25277e-08 0.0337786

0.0302878 0.000214505 1.98637e-07
0.000214505 0.0203965 3.72985e-08
1.98637e-07 3.72985e-08 0.0172758

0.0266733 -0.00425018 1.3272e-07
-0.00425018 0.0281328 2.37717e-09
1.3272e-07 2.37717e-09 0.0244371

0.0277455 0.00481575 1.74533e-08
0.00481575 0.0333145 9.49112e-08
1.74533e-08 9.49112e-08 0.0334549

0.0279447 -0.00145841 1.55079e-08
-0.00145841 0.0350845 2.06396e-07
1.55079e-08 2.06396e-07 0.0314499

0.0244647 -0.00330514 2.33169e-07
-0.00330514 0.0300149 -1.50621e-08
2.33169e-07 -1.50621e-08 0.0242167

0.0279902 0.00377978 5.15436e-08
0.00377978 0.0349101 -1.26401e-07
5.15436e-08 -1.26401e-07 0.0337864

0.031361 -0.00340932 2.09161e-07
-0.00340932 0.0270082 -1.28212e-07
2.09161e-07 -1.28212e-07 0.0269909

0.0402798 0.00140908 -1.00792e-07
0.00140908 0.0406178 2.588e-07
-1.00792e-07 2.588e-07 0.0361701

0.0258807 0.00400268 -1.00483e-07
0.00400268 0.0289538 2.42523e-07
-1.00483e-07 2.42523e-07 0.0245106

0.0366777 0.00110277 1.0687e-07
0.00110277 0.0263516 6.11139e-08
1.0687e-07 6.11139e-08 0.0338974

0.0333416 0.00398391 1.76554e-08
0.00398391 0.0321151 -5.7944e-08
1.76554e-08 -5.7944e-08 0.0333152

0.0292275 0.00306705 -6.92897e-08
0.00306705 0.0326045 9.65237e-08
-6.92897e-08 9.65237e-08 0.0321573

0.0343639 -0.00431109 6.72351e-08
-0.00431109 0.0345049 7.7855e-08
6.72351e-08 7.7855e-08 0.0348846

0.0354893 -0.00306358 6.16242e-08
-0.00306358 0.0305895 7.93301e-08
6.16242e-08 7.93301e-08 0.0327501

0.0333663 0.0013875 8.62261e-08
0.0013875 0.0395772 1.98744e-07
8.62261e-08 1.98744e-07 0.0350022

0.0291967 -0.00307955 -5.7973e-08
-0.00307955 0.0328736 -8.98583e-08
-5.7973e-08 -8.98583e-08 0.0313829

0.0292645 -0.00123222 1.20991e-07
-0.00123222 0.0192869 -1.06915e-07
1.20991e-07 -1.06915e-07 0.0164119

0.0287781 -0.00183229 1.932e-07
-0.00183229 0.0184138 2.63799e-08
1.932e-07 2.63799e-08 0.0161968

0.0385293 0.0022019 1.69858e-08
0.0022019 0.0332388 -6.92529e-08
1.69858e-08 -6.92529e-08 0.0347626

0.0280555 0.00294485 1.34683e-07
0.00294485 0.0323345 1.93978e-07
1.34683e-07 1.93978e-07 0.0295178

0.0320669 0.0038344 -8.91078e-08
0.0038344 0.0309603 -8.42271e-08
-8.91078e-08 -8.42271e-08 0.0314541

0.0320495 8.98506e-05 8.7571e-08
8.98506e-05 0.0245767 -2.23859e-07
8.7571e-08 -2.23859e-07 0.0248878

0.0302374 0.000866061 -1.02251e-07
0.000866061 0.0385808 -1.54772e-08
-1.02251e-07 -1.54772e-08 0.0340961

0.0354016 0.00219136 1.14257e-07
0.00219136 0.0293226 2.90518e-07
1.14257e-07 2.90518e-07 0.032858

0.0248111 -0.00333872 4.9384e-08
-0.00333872 0.0300057 1.57493e-07
4.9384e-08 1.57493e-07 0.0244697

0.0286504 -0.000337813 1.6037e-07
-0.000337813 0.0366567 -8.57072e-08
1.6037e-07 -8.57072e-08 0.0323955

0.025215 0.00173999 -2.29451e-08
0.00173999 0.0320292 -6.65896e-08
-2.29451e-08 -6.65896e-08 0.0256837

0.0332803 -0.00390979 -2.67926e-08
-0.00390979 0.0304965 7.39733e-08
-2.67926e-08 7.39733e-08 0.0315921

0.0290645 -0.00389605 2.15291e-08
-0.00389605 0.0282 1.69536e-08
2.15291e-08 1.69536e-08 0.0257134

0.0261491 0.00409872 6.71959e-08
0.00409872 0.0285459 7.17918e-08
6.71959e-08 7.17918e-08 0.0243179

0.0452876 -0.00201735 -1.30581e-07
-0.00201735 0.039606 -1.51311e-07
-1.30581e-07 -1.51311e-07 0.0363667

0.0316665 0.000256537 -5.78249e-08
0.000256537 0.0393271 1.81175e-07
-5.78249e-08 1.81175e-07 0.0347688

0.0306163 0.00265093 -4.01218e-08
0.00265093 0.0384425 4.56613e-08
-4.01218e-08 4.56613e-08 0.0349575

0.0387654 0.00209487 -9.08289e-08
0.00209487 0.0302215 -1.87119e-07
-9.08289e-08 -1.87119e-07 0.0349423

0.0313706 -0.00345056 1.88256e-08
-0.00345056 0.0321399 -9.18729e-08
1.88256e-08 -9.18729e-08 0.0325724

0.0318174 0.00233597 1.96792e-07
0.00233597 0.0256201 -1.97215e-07
1.96792e-07 -1.97215e-07 0.0258794

0.0349936 -0.000708738 2.13815e-07
-0.000708738 0.0415753 -4.91627e-08
2.13815e-07 -4.91627e-08 0.0357274

0.0357879 -0.00251874 -1.15831e-07
-0.00251874 0.02955 -1.35404e-07
-1.15831e-07 -1.35404e-07 0.0332577

0.0332968 -0.00203955 -4.05912e-08
-0.00203955 0.0266524 -3.83357e-08
-4.05912e-08 -3.83357e-08 0.0286751

0.0252521 0.00151083 1.34045e-07
0.00151083 0.032274 1.53148e-07
1.34045e-07 1.53148e-07 0.0259498

0.0268045 -0.00334466 -1.73476e-07
-0.00334466 0.0300092 -2.94993e-08
-1.73476e-07 -2.94993e-08 0.025187

0.0364772 -0.00336028 -1.21122e-07
-0.00336028 0.0352875 -7.77135e-08
-1.21122e-07 -7.77135e-08 0.034742

0.0284753 0.004152 1.41854e-07
0.004152 0.0277158 1.00629e-07
1.41854e-07 1.00629e-07 0.0254675

0.0372435 -0.00334552 -3.93614e-08
-0.00334552 0.0333219 8.78404e-08
-3.93614e-08 8.78404e-08 0.0346114

0.0322059 0.000337886 2.27735e-07
0.000337886 0.0248623 1.07802e-07
2.27735e-07 1.07802e-07 0.0254373

0.0191608 -0.00368908 -1.62736e-07
-0.00368908 0.0275257 -1.19255e-07
-1.62736e-07 -1.19255e-07 0.0163106

0.0292096 -0.00380357 -1.21455e-07
-0.00380357 0.0281924 -2.03577e-08
-1.21455e-07 -2.03577e-08 0.0258075

0.0230456 0.00412727 -1.937e-07
0.00412727 0.02802 -1.30252e-07
-1.937e-07 -1.30252e-07 0.0175919

0.0296907 -0.00155931 -1.76349e-07
-0.00155931 0.0375332 1.40998e-07
-1.76349e-07 1.40998e-07 0.0336482

0.0243598 -0.00179359 6.17101e-09
-0.00179359 0.0318719 -4.34311e-08
6.17101e-09 -4.34311e-08 0.0254476

0.0424378 -0.00323401 -7.55663e-08
-0.00323401 0.0423765 -6.87141e-08
-7.55663e-08 -6.87141e-08 0.0363751

0.0263361 0.00309093 4.19918e-08
0.00309093 0.0307011 1.63337e-08
4.19918e-08 1.63337e-08 0.0254774

0.0334769 -0.00432298 -1.72284e-08
-0.00432298 0.032659 -2.56573e-08
-1.72284e-08 -2.56573e-08 0.033566

0.0240803 -0.00155077 -2.85022e-07
-0.00155077 0.0318868 7.40434e-09
-2.85022e-07 7.40434e-09 0.0251764

0.0362222 -0.00253871 4.04407e-08
-0.00253871 0.0295107 5.527e-09
4.04407e-08 5.527e-09 0.0335189

0.0266732 0.0031045 1.09725e-07
0.0031045 0.0303941 2.69113e-09
1.09725e-07 2.69113e-09 0.0253127

0.0343424 -0.00065405 6.99265e-08
-0.00065405 0.0272763 -1.73505e-08
6.99265e-08 -1.73505e-08 0.0305772

0.0188901 -0.00387144 -2.71899e-07
-0.00387144 0.0298012 1.33758e-07
-2.71899e-07 1.33758e-07 0.012961

0.0279986 0.00275461 1.01156e-07
0.00275461 0.0326286 -5.44587e-08
1.01156e-07 -5.44587e-08 0.030573

0.031437 -0.0025123 2.72244e-08
-0.0025123 0.0247218 -1.07791e-08
2.72244e-08 -1.07791e-08 0.0254053

0.0391182 -0.00286917 1.01105e-07
-0.00286917 0.0322206 3.92085e-09
1.01105e-07 3.92085e-09 0.0349363

0.0287523 0.0041238 -6.5533e-09
0.0041238 0.0272992 -4.86561e-08
-6.5533e-09 -4.86561e-08 0.0252548

0.0313605 -0.00391912 4.46957e-08
-0.00391912 0.0285413 1.19214e-07
4.46957e-08 1.19214e-07 0.0287303

0.0354074 0.00276388 -1.18972e-07
0.00276388 0.030855 -6.1083e-08
-1.18972e-07 -6.1083e-08 0.0330384

0.0297724 -0.00370368 -4.73087e-08
-0.00370368 0.0329369 8.79403e-09
-4.73087e-08 8.79403e-09 0.0333415

0.0270544 -0.00340997 2.12522e-07
-0.00340997 0.0299816 1.70153e-07
2.12522e-07 1.70153e-07 0.0253967

0.02844 0.00377098 4.44417e-08
0.00377098 0.0289387 2.4693e-07
4.44417e-08 2.4693e-07 0.0258865

0.0313704 0.00341311 6.04924e-08
0.00341311 0.0268985 -1.43371e-07
6.04924e-08 -1.43371e-07 0.0269652

0.0365351 -0.00194425 2.72777e-08
-0.00194425 0.0306244 -2.2416e-08
2.72777e-08 -2.2416e-08 0.0336348

0.0255328 -0.00216311 -5.17249e-08
-0.00216311 0.0318006 -4.83695e-08
-5.17249e-08 -4.83695e-08 0.0258529

0.0346985 -0.00231383 4.63927e-09
-0.00231383 0.0283333 7.0451e-08
4.63927e-09 7.0451e-08 0.031455

0.0341846 0.00222315 -3.85069e-08
0.00222315 0.027431 -1.8772e-07
-3.85069e-08 -1.8772e-07 0.0306028

0.0336442 -0.00124581 -4.35476e-08
-0.00124581 0.0392987 -7.64173e-08
-4.35476e-08 -7.64173e-08 0.0349264

0.0320711 -0.00174668 -2.51368e-08
-0.00174668 0.0253295 -1.11018e-07
-2.51368e-08 -1.11018e-07 0.0258702

0.0250009 7.98394e-05 -2.25057e-08
7.98394e-05 0.03315 1.04829e-08
-2.25057e-08 1.04829e-08 0.0268602

0.0332459 0.00242865 -4.39736e-08
0.00242865 0.0271927 -3.45682e-08
-4.39736e-08 -3.45682e-08 0.0289211

0.0311162 0.00359873 -1.50324e-08
0.00359873 0.0272917 9.4013e-08
-1.50324e-08 9.4013e-08 0.0271216

0.0252946 -0.00204102 2.52566e-07
-0.00204102 0.0318635 1.98016e-08
2.52566e-07 1.98016e-08 0.0256101

0.0252002 -0.000154703 -4.65409e-09
-0.000154703 0.0332907 -4.08476e-08
-4.65409e-09 -4.08476e-08 0.027143

0.0354121 0.00385791 -2.52975e-07
0.00385791 0.0329947 -4.76953e-08
-2.52975e-07 -4.76953e-08 0.0338944

0.0275847 -0.00143101 -4.1853e-08
-0.00143101 0.0353404 -9.45231e-08
-4.1853e-08 -9.45231e-08 0.0314409

0.0312329 -0.00348366 7.61894e-08
-0.00348366 0.0269765 1.70744e-07
7.61894e-08 1.70744e-07 0.0270087

0.0312955 0.00277238 3.09275e-08
0.00277238 0.0249212 -1.93666e-07
3.09275e-08 -1.93666e-07 0.0252452

0.0345811 0.00311825 1.42283e-07
0.00311825 0.0293855 1.46492e-07
1.42283e-07 1.46492e-07 0.0317947

0.0279902 0.000716467 1.58142e-08
0.000716467 0.036038 4.56198e-08
1.58142e-08 4.56198e-08 0.0318171

0.0287152 0.00378107 -7.99974e-08
0.00378107 0.0285579 7.49327e-08
-7.99974e-08 7.49327e-08 0.0257269

0.0367893 0.00305724 1.83205e-07
0.00305724 0.0361246 -9.77348e-08
1.83205e-07 -9.77348e-08 0.0349061

0.0226794 -0.00754497 -8.84581e-08
-0.00754497 0.0186871 -5.50296e-08
-8.84581e-08 -5.50296e-08 0.0108447

0.0332897 -0.00328736 -5.21415e-08
-0.00328736 0.0286314 1.11483e-07
-5.21415e-08 1.11483e-07 0.0301229

0.0207261 0.000913397 -7.64965e-08
0.000913397 0.0300299 -1.48065e-08
-7.64965e-08 -1.48065e-08 0.0183457

0.0312991 -0.00378154 5.54659e-08
-0.00378154 0.0292298 1.38484e-07
5.54659e-08 1.38484e-07 0.0290304

0.00153952 -0.00651859 -2.30364e-08
-0.00651859 0.0275675 1.00929e-07
-2.30364e-08 1.00929e-07 0.00290823

0.00146992 0.00636816 7.65346e-10
0.00636816 0.0275854 3.3532e-09
7.65346e-10 3.3532e-09 0.00300118

0.0119843 0.0145046 -3.71933e-08
0.0145046 0.017532 -4.66389e-08
-3.71933e-08 -4.66389e-08 0.0027711

0.0121656 -0.0144952 -4.13136e-08
-0.0144952 0.0172234 5.18057e-08
-4.13136e-08 5.18057e-08 0.00280371

0.0293398 -0.000164083 -3.21298e-08
-0.000164083 0 0
-3.21298e-08 0 0.00295253

0.0235915 -0.0112823 9.76771e-08
-0.0112823 0.00539531 -4.70388e-08
9.76771e-08 -4.70388e-08 0.00297822

0.0236335 0.0113485 -9.03589e-08
0.0113485 0.00544937 -4.35145e-08
-9.03589e-08 -4.35145e-08 0.00303939

0.0369096 0.00191115 9.42064e-08
0.00191115 0.0302411 1.35403e-10
9.42064e-08 1.35403e-10 0.0338768

0.0387049 0.00340972 2.01555e-07
0.00340972 0.0366167 2.22238e-07
2.01555e-07 2.22238e-07 0.0355776

0.0344143 0.000872331 -3.5226e-07
0.000872331 0.027456 -1.00785e-08
-3.5226e-07 -1.00785e-08 0.0316869

0.0328718 0.00285012 1.67636e-08
0.00285012 0.0268884 -1.43987e-07
1.67636e-08 -1.43987e-07 0.0286454

0.0256999 0.00231307 6.60673e-08
0.00231307 0.0323655 1.13239e-07
6.60673e-08 1.13239e-07 0.0276347

0.0307117 0.00376877 -1.46803e-08
0.00376877 0.0276753 9.34912e-08
-1.46803e-08 9.34912e-08 0.0271168

0.033305 -0.00390301 -9.83364e-08
-0.00390301 0.0304647 -2.90414e-08
-9.83364e-08 -2.90414e-08 0.031629

0.0309723 0.00365434 6.73191e-09
0.00365434 0.0272859 -4.85508e-08
6.73191e-09 -4.85508e-08 0.0269244

0.0249863 -0.000371597 -2.88383e-07
-0.000371597 0.033121 1.95554e-09
-2.88383e-07 1.95554e-09 0.0268424

0.0385475 -0.00348468 1.0125e-07
-0.00348468 0.0368804 -1.18645e-08
1.0125e-07 -1.18645e-08 0.0355832

0.0251748 -0.000635511 8.01168e-09
-0.000635511 0.0332094 -3.97716e-08
8.01168e-09 -3.97716e-08 0.0271019

0.036017 0.00304744 -2.33573e-07
0.00304744 0.0330102 -9.96409e-08
-2.33573e-07 -9.96409e-08 0.0340972

0.0296218 0.00347564 -8.31699e-08
0.00347564 0.0248456 -1.86674e-07
-8.31699e-08 -1.86674e-07 0.0230221

0.0304951 -0.00171382 -2.02223e-07
-0.00171382 0.0375117 3.36472e-08
-2.02223e-07 3.36472e-08 0.0347358

0.0339191 0.00180447 1.27659e-07
0.00180447 0.0271809 -3.29974e-08
1.27659e-07 -3.29974e-08 0.0303197

0.0312004 -0.00392014 6.81973e-08
-0.00392014 0.0285302 1.84586e-07
6.81973e-08 1.84586e-07 0.0286137

0.0315828 -0.00322127 3.00292e-09
-0.00322127 0.026691 2.99354e-08
3.00292e-09 2.99354e-08 0.0270469

0.0384791 -0.00214128 -1.22853e-08
-0.00214128 0.0334165 1.39556e-07
-1.22853e-08 1.39556e-07 0.0347442

0.0326805 0.00366396 -6.66985e-08
0.00366396 0.0292315 1.6979e-07
-6.66985e-08 1.6979e-07 0.0301543

0.0326441 0.00313751 -1.05742e-07
0.00313751 0.0272517 9.04779e-08
-1.05742e-07 9.04779e-08 0.0287873

0.0269545 -0.000365157 -1.4556e-07
-0.000365157 0.0349862 -4.05107e-08
-1.4556e-07 -4.05107e-08 0.0301673

0.025899 0.000765761 -6.29846e-08
0.000765761 0.034003 -1.67074e-07
-6.29846e-08 -1.67074e-07 0.0288223

0.0327772 0.000345364 -4.11961e-08
0.000345364 0.0248611 9.16293e-08
-4.11961e-08 9.16293e-08 0.0274431

0.0313865 -0.000944846 1.45809e-07
-0.000944846 0.0230034 -1.17998e-07
1.45809e-07 -1.17998e-07 0.0238916

0.0308798 0.00398515 1.61676e-07
0.00398515 0.0288054 2.34717e-07
1.61676e-07 2.34717e-07 0.0286235

0.0331169 -0.00343125 -1.28491e-08
-0.00343125 0.0285398 1.84015e-07
-1.28491e-08 1.84015e-07 0.0299686

0.0364121 -0.00282357 1.73879e-07
-0.00282357 0.0327323 -2.9009e-08
1.73879e-07 -2.9009e-08 0.0341435

0.0292055 -0.00412742 -2.13174e-07
-0.00412742 0.0291915 1.19398e-07
-2.13174e-07 1.19398e-07 0.0277533

0.0269714 -0.00362021 -2.0342e-07
-0.00362021 0.0304639 1.99205e-08
-2.0342e-07 1.99205e-08 0.0272128

0.0283258 0.00389943 -3.9222e-08
0.00389943 0.0299 8.09678e-08
-3.9222e-08 8.09678e-08 0.0277513

0.0259007 -0.00124903 -2.58302e-07
-0.00124903 0.0336127 -4.62466e-08
-2.58302e-07 -4.62466e-08 0.0285153

0.0266539 -0.000202027 -1.96266e-07
-0.000202027 0.0349125 6.87478e-08
-1.96266e-07 6.87478e-08 0.0299192

0.0277618 0.000752977 -1.05628e-07
0.000752977 0.0360375 4.65321e-08
-1.05628e-07 4.65321e-08 0.0316576

0.0262466 -0.00274935 3.58628e-08
-0.00274935 0.0319619 -1.79195e-07
3.58628e-08 -1.79195e-07 0.02771

0.0345816 0.00317563 1.23832e-07
0.00317563 0.0291678 1.81179e-07
1.23832e-07 1.81179e-07 0.0316337

0.0339087 -0.0012609 7.00083e-08
-0.0012609 0.0269297 -1.70805e-08
7.00083e-08 -1.70805e-08 0.0302011

0.0257897 0.000974293 8.78821e-08
0.000974293 0.0338284 2.07756e-07
8.78821e-08 2.07756e-07 0.0285413

0.0278234 -0.00126983 -8.61058e-08
-0.00126983 0.0353962 -1.03549e-07
-8.61058e-08 -1.03549e-07 0.0313654

0.0272924 -0.00213707 4.67755e-09
-0.00213707 0.0336563 5.20227e-09
4.67755e-09 5.20227e-09 0.030225

0.032776 -0.00107709 -1.30351e-07
-0.00107709 0.0253195 4.45983e-08
-1.30351e-07 4.45983e-08 0.0272537

0.0333149 -0.00427113 1.96376e-07
-0.00427113 0.0323795 -1.2529e-07
1.96376e-07 -1.2529e-07 0.0335286

0.0264881 0.00121962 8.93699e-09
0.00121962 0.0338344 2.06816e-07
8.93699e-09 2.06816e-07 0.0288154

0.0398103 -0.00243164 -2.31862e-07
-0.00243164 0.0352181 -7.38757e-08
-2.31862e-07 -7.38757e-08 0.0354605

0.0188884 0.00316462 -2.12409e-08
0.00316462 0.0278754 -1.13851e-07
-2.12409e-08 -1.13851e-07 0.0162725

0.0338155 -0.00352265 2.77358e-07
-0.00352265 0.033494 3.63111e-09
2.77358e-07 3.63111e-09 0.0337255

0.0353429 -0.0039994 9.65262e-09
-0.0039994 0.033046 1.41856e-07
9.65262e-09 1.41856e-07 0.0339034

0.0266852 -9.06816e-05 1.68103e-07
-9.06816e-05 0.0349176 7.71055e-08
1.68103e-07 7.71055e-08 0.0299273

0.0332418 -0.00217623 -1.59794e-07
-0.00217623 0.0271523 -1.80449e-07
-1.59794e-07 -1.80449e-07 0.028902

0.0293469 0.00168467 -2.61063e-08
0.00168467 0.035819 -1.86061e-08
-2.61063e-08 -1.86061e-08 0.0328791

0.0132072 -0.000379122 1.4788e-07
-0.000379122 0.0283616 2.36982e-08
1.4788e-07 2.36982e-08 0.0111516

0.0271131 0.00186844 -9.81728e-08
0.00186844 0.0340608 5.2766e-09
-9.81728e-08 5.2766e-09 0.0303055

0.0311084 -0.00385837 -1.17265e-07
-0.00385837 0.0291532 -1.89327e-07
-1.17265e-07 -1.89327e-07 0.0288057

0.0186194 0.00320456 6.93142e-08
0.00320456 0.030139 1.35889e-07
6.93142e-08 1.35889e-07 0.0131265

0.0426002 0.00351817 -4.64816e-07
0.00351817 0.0418487 -5.97762e-07
-4.64816e-07 -5.97762e-07 0.0364798

0.043206 -0.00374868 4.62607e-08
-0.00374868 0.0414175 -8.43319e-08
4.62607e-08 -8.43319e-08 0.0364622

0.0310643 -0.0039907 1.66114e-07
-0.0039907 0.0304703 -3.54155e-08
1.66114e-07 -3.54155e-08 0.0304603

0.0289212 -0.00406395 1.44526e-07
-0.00406395 0.0291496 -1.86718e-07
1.44526e-07 -1.86718e-07 0.0275936

0.0330502 0.00272692 6.28189e-08
0.00272692 0.0275278 -1.78592e-07
6.28189e-08 -1.78592e-07 0.0290747

0.0327787 0.00195995 4.97663e-08
0.00195995 0.0255904 -2.03117e-07
4.97663e-08 -2.03117e-07 0.027822

0.0464016 0.00042006 4.16889e-07
0.00042006 0.0463556 -4.72623e-08
4.16889e-07 -4.72623e-08 0.0366941

0.0469206 -0.000952612 7.67887e-07
-0.000952612 0.0457683 -4.65853e-07
7.67887e-07 -4.65853e-07 0.0367651

0.0347989 0.000638328 -7.71548e-08
0.000638328 0.0275722 -2.49337e-07
-7.71548e-08 -2.49337e-07 0.0322157

0.0277511 0.000882187 -8.58473e-08
0.000882187 0.03557 -1.58456e-08
-8.58473e-08 -1.58456e-08 0.0313478

0.0276069 0.000882705 1.16808e-07
0.000882705 0.0355702 -1.00552e-08
1.16808e-07 -1.00552e-08 0.031244

0.0234586 0.00739966 -5.26534e-09
0.00739966 0.0183014 2.76823e-07
-5.26534e-09 2.76823e-07 0.0109012

0.0272464 -0.00367538 1.41758e-07
-0.00367538 0.0303462 2.7625e-07
1.41758e-07 2.7625e-07 0.0273187

0.0365655 0.00239151 6.92505e-08
0.00239151 0.0295752 3.2057e-08
6.92505e-08 3.2057e-08 0.0337836

0.0332728 0.00124748 -7.31027e-08
0.00124748 0.0265032 3.31947e-08
-7.31027e-08 3.31947e-08 0.0284309

0.0291515 -0.0034923 2.79679e-07
-0.0034923 0.0304701 6.01558e-08
2.79679e-07 6.01558e-08 0.0281724

0.0328095 -0.0026476 -2.40214e-08
-0.0026476 0.0267272 2.90949e-08
-2.40214e-08 2.90949e-08 0.0285858

0.0224594 0.00761258 1.28722e-07
0.00761258 0.01859 3.99606e-07
1.28722e-07 3.99606e-07 0.0109037

0.0331439 0.00410238 7.46397e-08
0.00410238 0.0326373 -1.908e-07
7.46397e-08 -1.908e-07 0.0331808

0.0258895 -0.00257807 1.48144e-07
-0.00257807 0.032023 1.92078e-07
1.48144e-07 1.92078e-07 0.0275066

0.0324816 0.00378584 -1.94466e-09
0.00378584 0.029267 8.18897e-08
-1.94466e-09 8.18897e-08 0.030146

0.0268151 -0.000543521 1.55365e-07
-0.000543521 0.0349512 -9.75025e-09
1.55365e-07 -9.75025e-09 0.030137

0.0269891 0.00256323 -2.24553e-07
0.00256323 0.0324472 -1.08337e-07
-2.24553e-07 -1.08337e-07 0.0282855

0.0305253 0.00399083 -2.15036e-08
0.00399083 0.0293221 7.99642e-08
-2.15036e-08 7.99642e-08 0.0287742

0.0276079 -0.00293712 -8.4865e-08
-0.00293712 0.0318524 -2.00707e-07
-8.4865e-08 -2.00707e-07 0.0282481

0.029455 -0.0035756 -1.31883e-07
-0.0035756 0.0303499 2.58856e-07
-1.31883e-07 2.58856e-07 0.0283041

0.0181372 0.00142537 -5.22668e-08
0.00142537 0.0280355 -1.39283e-07
-5.22668e-08 -1.39283e-07 0.0131272

0.0234731 -0.00429382 5.8378e-08
-0.00429382 0.0275554 -1.25424e-07
5.8378e-08 -1.25424e-07 0.0177227

0.0262046 -0.00152589 8.93278e-08
-0.00152589 0.0336226 -1.57972e-07
8.93278e-08 -1.57972e-07 0.0287509

0.0330227 0.00347476 2.84779e-08
0.00347476 0.0288768 2.46414e-07
2.84779e-08 2.46414e-07 0.0300679

0.0303207 0.00385728 -2.34127e-08
0.00385728 0.0298853 8.21331e-08
-2.34127e-08 8.21331e-08 0.0289893

0.0274134 -0.0028004 -1.2403e-07
-0.0028004 0.0319827 1.72422e-07
-1.2403e-07 1.72422e-07 0.0281381

0.0265537 -0.00154067 2.84157e-08
-0.00154067 0.0335812 -3.15873e-08
2.84157e-08 -3.15873e-08 0.0287453

0.0309554 0.00371811 1.97117e-07
0.00371811 0.0295624 1.65294e-07
1.97117e-07 1.65294e-07 0.0289402

0.0267584 -0.00181586 4.03908e-08
-0.00181586 0.033473 -1.68482e-07
4.03908e-08 -1.68482e-07 0.0289533

0.0191655 0.00355442 7.14298e-08
0.00355442 0.0276068 1.13772e-07
7.14298e-08 1.13772e-07 0.0162916

0.0308726 -0.000535013 -1.67083e-08
-0.000535013 0.0388186 6.38802e-08
-1.67083e-08 6.38802e-08 0.0342934

0.0286553 0.00404764 -6.68339e-09
0.00404764 0.0295175 1.87856e-07
-6.68339e-09 1.87856e-07 0.0277136

0.0355791 0.00197485 1.90937e-07
0.00197485 0.029502 1.44107e-07
1.90937e-07 1.44107e-07 0.0328416

0.0362583 -0.00211473 1.08807e-07
-0.00211473 0.0297543 1.81275e-07
1.08807e-07 1.81275e-07 0.0332168

0.0285096 -0.00309563 1.78189e-07
-0.00309563 0.0185684 1.64444e-07
1.78189e-07 1.64444e-07 0.0157294

0.0283522 -0.00279008 -1.86222e-07
-0.00279008 0.0327745 -4.42142e-08
-1.86222e-07 -4.42142e-08 0.0305706

0.0291903 0.00350077 -1.57966e-07
0.00350077 0.0315987 -1.77169e-07
-1.57966e-07 -1.77169e-07 0.0304864

0.0349584 -0.00290761 1.42312e-07
-0.00290761 0.0376745 2.18175e-07
1.42312e-07 2.18175e-07 0.0352351

0.0394597 0.00188501 1.21372e-07
0.00188501 0.0446071 1.82489e-07
1.21372e-07 1.82489e-07 0.0364321

0.0449431 0.00129037 4.23067e-07
0.00129037 0.0391156 -3.60493e-07
4.23067e-07 -3.60493e-07 0.0364139

0.0355591 0.0043457 -4.18869e-08
0.0043457 0.0351342 3.94399e-08
-4.18869e-08 3.94399e-08 0.0350024

0.0265708 0.00338784 -1.43534e-07
0.00338784 0.0310052 -3.21004e-07
-1.43534e-07 -3.21004e-07 0.0272548

0.0330383 0.00349705 1.14526e-07
0.00349705 0.0286658 3.00652e-08
1.14526e-07 3.00652e-08 0.030049

0.022059 0.0057639 3.23184e-07
0.0057639 0.0242367 -7.75285e-08
3.23184e-07 -7.75285e-08 0.0160718

0.0386177 -0.00151218 -7.726e-08
-0.00151218 0.0444319 -3.56605e-08
-7.726e-08 -3.56605e-08 0.0363612

0.046048 -0.00046524 4.34238e-08
-0.00046524 0.0454378 2.13018e-07
4.34238e-08 2.13018e-07 0.0366901

0.0451791 -3.20329e-05 3.28902e-07
-3.20329e-05 0.0463021 2.59284e-07
3.28902e-07 2.59284e-07 0.0366721

0.0176404 -0.00679461 -3.2071e-07
-0.00679461 0.0231075 3.46674e-08
-3.2071e-07 3.46674e-08 0.0107382

0.0392911 -0.00155615 -2.77043e-07
-0.00155615 0.0387137 2.36769e-07
-2.77043e-07 2.36769e-07 0.0358526

0.0383961 0.00117668 1.96626e-07
0.00117668 0.0415173 -6.85809e-08
1.96626e-07 -6.85809e-08 0.036124

0.0331735 -0.00343555 -5.88703e-08
-0.00343555 0.0282186 7.779e-08
-5.88703e-08 7.779e-08 0.0299024

0.0318436 0.000140638 -2.27329e-07
0.000140638 0.0386712 8.52945e-08
-2.27329e-07 8.52945e-08 0.0344494

0.0285758 -0.00266 1.6524e-08
-0.00266 0.0333794 1.10691e-09
1.6524e-08 1.10691e-09 0.0315882

0.0356609 0.000831563 1.83919e-07
0.000831563 0.0273766 -5.34913e-08
1.83919e-07 -5.34913e-08 0.032999

0.0288749 0.00204426 3.22307e-08
0.00204426 0.0368157 -1.99563e-07
3.22307e-08 -1.99563e-07 0.0336686

0.0298685 0.000946435 9.59725e-08
0.000946435 0.0373867 -2.00021e-07
9.59725e-08 -2.00021e-07 0.0333625

0.0344006 0.00268496 5.69545e-08
0.00268496 0.0288504 3.74402e-08
5.69545e-08 3.74402e-08 0.0312253

0.0132788 -0.000409371 -4.86659e-08
-0.000409371 0.0281221 8.92722e-08
-4.86659e-08 8.92722e-08 0.011201

0.0309634 -0.00362592 -2.0029e-07
-0.00362592 0.0309143 1.57361e-07
-2.0029e-07 1.57361e-07 0.0306085

0.0329276 -0.0034431 -1.10208e-07
-0.0034431 0.03202 1.31957e-08
-1.10208e-07 1.31957e-08 0.0325783

0.0335703 -0.00415911 2.00455e-08
-0.00415911 0.0325333 1.18124e-07
2.00455e-08 1.18124e-07 0.0337346

0.0265612 0.00414855 7.15003e-08
0.00414855 0.017691 2.7398e-08
7.15003e-08 2.7398e-08 0.0126048

0.0388275 -0.00269678 -1.89424e-07
-0.00269678 0.0395756 -1.52754e-07
-1.89424e-07 -1.52754e-07 0.0359574

0.0230822 0.00692052 1.66176e-07
0.00692052 0.0255014 -2.85435e-07
1.66176e-07 -2.85435e-07 0.0126091

0.0308737 -0.0028174 -2.34407e-07
-0.0028174 0.0348067 -2.97504e-12
-2.34407e-07 -2.97504e-12 0.0339553

0.0354111 0.00193655 -2.74895e-07
0.00193655 0.0284648 1.00488e-07
-2.74895e-07 1.00488e-07 0.0323436

0.03182 -0.00189324 2.21811e-08
-0.00189324 0.02495 8.54332e-08
2.21811e-08 8.54332e-08 0.0253947

0.0292914 0.00315934 -1.82964e-07
0.00315934 0.032731 -1.04494e-07
-1.82964e-07 -1.04494e-07 0.0312786

0.0344358 0.00268892 1.01674e-07
0.00268892 0.0286335 -6.87038e-08
1.01674e-07 -6.87038e-08 0.0312199

0.0325179 0.00149888 -3.9051e-08
0.00149888 0.0403731 -8.69855e-08
-3.9051e-08 -8.69855e-08 0.0353356

0.0319393 -0.00415454 -3.47645e-08
-0.00415454 0.0312005 7.01058e-08
-3.47645e-08 7.01058e-08 0.0318097

0.0396756 0.0026555 9.59313e-09
0.0026555 0.0331976 8.12964e-08
9.59313e-09 8.12964e-08 0.035315

0.0279706 -0.00241837 1.16194e-08
-0.00241837 0.0335501 6.30404e-09
1.16194e-08 6.30404e-09 0.0304696

0.0293499 0.00055854 1.1078e-07
0.00055854 0.0373104 -1.98432e-07
1.1078e-07 -1.98432e-07 0.0332517

0.0419426 0.00133754 1.38298e-07
0.00133754 0.0370993 2.30557e-07
1.38298e-07 2.30557e-07 0.0361154

0.0420973 -0.00114776 -1.42642e-08
-0.00114776 0.0373259 -2.38249e-08
-1.42642e-08 -2.38249e-08 0.0360973

0.0283824 0.00236902 2.2005e-07
0.00236902 0.0181811 5.37593e-09
2.2005e-07 5.37593e-09 0.0159493

0.0350246 0.00106139 1.09405e-07
0.00106139 0.0285652 7.87758e-08
1.09405e-07 7.87758e-08 0.033058

0.0128667 0.000923326 -4.71243e-08
0.000923326 0.0316257 7.89691e-08
-4.71243e-08 7.89691e-08 0.00612157

0.0131623 -0.0013881 1.43985e-07
-0.0013881 0.0321315 -1.2406e-07
1.43985e-07 -1.2406e-07 0.00611188

0.0152685 0.00715413 -7.47792e-08
0.00715413 0.0284524 8.56869e-08
-7.47792e-08 8.56869e-08 0.005984

0.0347637 -0.00382123 2.19187e-07
-0.00382123 0.0312673 1.12567e-07
2.19187e-07 1.12567e-07 0.0329382

0.0155804 -0.00619417 8.2391e-08
-0.00619417 0.0261523 -3.28249e-07
8.2391e-08 -3.28249e-07 0.0104717

0.0155126 -0.00708666 -1.18829e-07
-0.00708666 0.0274229 -2.24657e-07
-1.18829e-07 -2.24657e-07 0.00591381

0.0284253 0.0034256 2.55243e-07
0.0034256 0.0310055 -3.19757e-07
2.55243e-07 -3.19757e-07 0.0281519

0.0251928 0.00932569 -2.37517e-07
0.00932569 0.0190205 -8.84625e-09
-2.37517e-07 -8.84625e-09 0.00593367

0.0365373 0.00173154 9.81585e-08
0.00173154 0.0385509 1.36748e-08
9.81585e-08 1.36748e-08 0.0354743

0.039534 2.53843e-05 -2.01456e-07
2.53843e-05 0.0355391 1.74152e-07
-2.01456e-07 1.74152e-07 0.035455

0.0261069 -0.00924425 -1.71409e-07
-0.00924425 0.0188122 2.47229e-08
-1.71409e-07 2.47229e-08 0.00588784

0.0276891 -0.003065 -5.27162e-09
-0.003065 0.0320941 -2.70263e-08
-5.27162e-09 -2.70263e-08 0.029622

0.0262545 0.00441798 7.84651e-09
0.00441798 0.0201575 2.72437e-07
7.84651e-09 2.72437e-07 0.0130443

0.0172789 0.00797292 1.10461e-07
0.00797292 0.0271484 3.5866e-08
1.10461e-07 3.5866e-08 0.00598768

0.0181959 0.00275515 -8.02369e-08
0.00275515 0.0275891 -1.34565e-07
-8.02369e-08 -1.34565e-07 0.0128498

0.0173038 -0.00827613 -1.33262e-07
-0.00827613 0.0271518 1.352e-07
-1.33262e-07 1.352e-07 0.00581364

0.0179326 -0.00157094 1.58927e-07
-0.00157094 0.0280049 -2.38523e-08
1.58927e-07 -2.38523e-08 0.0126902

0.0370497 0.000923372 -8.18857e-08
0.000923372 0.0412996 -2.53895e-08
-8.18857e-08 -2.53895e-08 0.0358091

0.0221307 -0.00585493 -1.88266e-07
-0.00585493 0.0236642 -3.39101e-07
-1.88266e-07 -3.39101e-07 0.0151585

0.0156998 0.00598609 -2.6e-08
0.00598609 0.0259019 -2.58342e-07
-2.6e-08 -2.58342e-07 0.0107499

0.0302079 0.00472997 -1.5041e-07
0.00472997 0.014349 -2.04693e-07
-1.5041e-07 -2.04693e-07 0.00611567

0.0329372 -0.00384918 1.06777e-07
-0.00384918 0.0301232 -1.78125e-08
1.06777e-07 -1.78125e-08 0.0310504

0.0308878 0.00169415 1.08242e-07
0.00169415 0.0368422 -2.02895e-07
1.08242e-07 -2.02895e-07 0.0339493

0.0260893 -0.00484389 -3.58033e-08
-0.00484389 0.0191967 3.57281e-07
-3.58033e-08 3.57281e-07 0.0126947

0.0329994 -0.00378574 1.06721e-07
-0.00378574 0.0300743 -1.79641e-08
1.06721e-07 -1.79641e-08 0.0311267

0.0300183 -0.00451992 -1.24919e-07
-0.00451992 0.0130533 1.60545e-07
-1.24919e-07 1.60545e-07 0.00603711

0.0324723 -0.00372745 1.84784e-08
-0.00372745 0.0313068 1.48228e-07
1.84784e-08 1.48228e-07 0.0319785

0.0280901 -0.00331101 -1.91624e-07
-0.00331101 0.0320025 -6.08167e-08
-1.91624e-07 -6.08167e-08 0.0296245

0.0234431 0.00874339 -8.20557e-08
0.00874339 0.0204824 2.13448e-07
-8.20557e-08 2.13448e-07 0.00602601

0.0181992 -0.00292068 2.20927e-07
-0.00292068 0.0268659 1.33525e-09
2.20927e-07 1.33525e-09 0.0122696

0.0233141 -0.00901906 7.77737e-08
-0.00901906 0.0201516 3.38373e-07
7.77737e-08 3.38373e-07 0.00588384

0.0170821 0.00640807 2.5599e-08
0.00640807 0.0235655 2.15132e-07
2.5599e-08 2.15132e-07 0.0108308

0.030825 -0.00396002 -2.47671e-07
-0.00396002 0.0301594 1.35984e-08
-2.47671e-07 1.35984e-08 0.0300847

0.0389176 -0.00195823 8.13262e-08
-0.00195823 0.0369403 2.25688e-07
8.13262e-08 2.25688e-07 0.0354986

0.045541 0.00150615 2.52206e-07
0.00150615 0.0449514 1.61755e-07
2.52206e-07 1.61755e-07 0.0366183

0.0435642 -0.000711784 -1.68028e-07
-0.000711784 0.0462317 -4.43393e-08
-1.68028e-07 -4.43393e-08 0.036584

0.0286147 0.00171558 -3.62646e-08
0.00171558 0.0355652 8.01387e-08
-3.62646e-08 8.01387e-08 0.0323887

0.0453362 -0.00144726 -1.97854e-08
-0.00144726 0.0449791 -2.33805e-07
-1.97854e-08 -2.33805e-07 0.036636

0.0438067 0.000567664 1.08961e-07
0.000567664 0.0465063 1.99525e-07
1.08961e-07 1.99525e-07 0.0366171

0.0466785 0.00099171 -5.16603e-08
0.00099171 0.043377 -6.57044e-08
-5.16603e-08 -6.57044e-08 0.0365923

0.03975 -0.00163932 1.59174e-07
-0.00163932 0.0460747 4.61884e-08
1.59174e-07 4.61884e-08 0.036482

0.0190534 -0.00388715 2.26679e-07
-0.00388715 0.02723 -9.06855e-09
2.26679e-07 -9.06855e-09 0.0154706

0.0421412 -0.00174979 -2.14004e-07
-0.00174979 0.036725 2.85381e-07
-2.14004e-07 2.85381e-07 0.0360039

0.0359632 -0.00457365 2.55136e-07
-0.00457365 0.0351497 -2.27923e-07
2.55136e-07 -2.27923e-07 0.0349672

0.0397526 -0.00242164 -4.25284e-08
-0.00242164 0.0360632 -3.12191e-07
-4.25284e-08 -3.12191e-07 0.0355663

0.0351839 0.00204352 -1.26391e-07
0.00204352 0.0285481 -8.33236e-08
-1.26391e-07 -8.33236e-08 0.032231

0.039692 0.0013379 -2.84417e-07
0.0013379 0.0472264 1.08778e-07
-2.84417e-07 1.08778e-07 0.0365478

0.0464955 0.00259367 1.86688e-07
0.00259367 0.0404181 3.88905e-07
1.86688e-07 3.88905e-07 0.036529

0.0400867 0.0015052 3.20562e-07
0.0015052 0.0366734 -1.04004e-07
3.20562e-07 -1.04004e-07 0.0356144

0.0279138 -0.00191996 1.88357e-07
-0.00191996 0.0125244 1.27913e-07
1.88357e-07 1.27913e-07 0.0106242

0.028318 0.00326727 3.35781e-07
0.00326727 0.0315487 1.42482e-08
3.35781e-07 1.42482e-08 0.0294098

0.0231877 -0.00773578 3.91228e-08
-0.00773578 0.0181794 3.71034e-07
3.91228e-08 3.71034e-07 0.0102892

0.0228303 -0.00731545 -1.64935e-07
-0.00731545 0.025768 -3.5909e-07
-1.64935e-07 -3.5909e-07 0.0119542

0.0290216 -0.00464682 1.75695e-07
-0.00464682 0.0191278 1.6431e-07
1.75695e-07 1.6431e-07 0.0126147

0.0375737 -0.000660709 -5.51541e-08
-0.000660709 0.0449116 -2.28743e-07
-5.51541e-08 -2.28743e-07 0.036293

0.0375714 0.00035817 1.50368e-07
0.00035817 0.0447888 1.45143e-07
1.50368e-07 1.45143e-07 0.0362732

0.0426052 -0.00327475 -1.34768e-07
-0.00327475 0.03945 5.32786e-08
-1.34768e-07 5.32786e-08 0.036227

0.0429973 -0.00294479 6.84447e-08
-0.00294479 0.039168 6.12475e-08
6.84447e-08 6.12475e-08 0.0362341

0.0425008 0.00350414 1.91932e-07
0.00350414 0.0399723 -6.24933e-09
1.91932e-07 -6.24933e-09 0.0362718

0.0443965 0.000416443 3.07124e-07
0.000416443 0.0450806 4.81348e-07
3.07124e-07 4.81348e-07 0.0366352

0.0426089 -0.00274443 2.25476e-08
-0.00274443 0.0395064 4.18337e-09
2.25476e-08 4.18337e-09 0.0362886

0.0426027 -0.00251089 7.66252e-08
-0.00251089 0.0442661 -2.37376e-07
7.66252e-08 -2.37376e-07 0.0365628

0.0451167 0.000331137 -4.84734e-07
0.000331137 0.0454673 -7.22108e-07
-4.84734e-07 -7.22108e-07 0.0366535

0.0436363 -0.00278323 -7.97115e-08
-0.00278323 0.038916 1.22506e-07
-7.97115e-08 1.22506e-07 0.0363292

0.0435121 0.00283879 -1.29693e-07
0.00283879 0.039069 -5.04454e-08
-1.29693e-07 -5.04454e-08 0.0363674

0.0451927 -0.000470172 -1.99946e-07
-0.000470172 0.0455815 8.50212e-08
-1.99946e-07 8.50212e-08 0.0367022

0.0452238 -0.000424233 -8.25697e-07
-0.000424233 0.0443625 6.64678e-07
-8.25697e-07 6.64678e-07 0.0367205

0.0427981 0.0016388 -5.04424e-07
0.0016388 0.0442481 1.27326e-07
-5.04424e-07 1.27326e-07 0.0366066

0.0411164 0.00361851 9.64815e-08
0.00361851 0.0405167 -4.0907e-07
9.64815e-08 -4.0907e-07 0.0363212

SCALARS pressure float
LOOKUP_TABLE default
-60.0502
19.3081
5.80313
21.29
15.8788
5.88709
-58.6733
7.7829
-3.8051
15.1244
-24.4314
7.61705
5.59187
12.279
23.3377
5.53875
18.5207
13.207
-0.693142
6.75626
-0.905072
33.1353
5.80048
5.79656
6.60155
14.9026
-38.3846
6.6714
-15.2424
30.6267
5.1761
-15.6571
-42.0556
27.3264
20.7793
27.3593
31.8849
19.8092
4.85939
-42.5988
-17.4073
31.9058
31.9939
5.99335
-21.8047
-15.9758
-1.05272
-3.4057
6.54451
-16.2177
-18.9187
-15.3459
20.7557
-15.3731
20.3088
-33.1482
21.1298
-15.4603
21.1396
7.04461
21.7646
16.1187
-45.5614
12.7897
16.362
10.9049
21.5739
13.8279
5.77319
21.8169
20.8117
20.7824
-17.6909
11.6004
3.97372
-31.6091
14.3566
10.996
14.1459
-8.72019
-28.9445
14.9777
20.163
-22.0377
-23.4293
-28.0916
7.09748
9.63221
-22.2155
37.7421
-15.509
38.4447
18.3045
10.7613
-15.1666
-15.8727
-30.221
14.7533
14.3656
4.59847
-10.7664
-21.9394
-25.1013
16.2127
14.0999
14.9614
18.6974
3.77449
-24.5581
26.5131
7.21724
-21.4087
-24.6117
14.8376
15.0779
-16.1457
20.1651
-29.1129
20.6287
-16.7293
-2.905
23.834
21.7269
16.0328
26.6798
22.6316
21.7858
15.7083
-29.7806
-16.099
24.0918
21.6172
20.9892
22.0656
-22.0138
23.5874
-33.8369
5.46315
21.7543
23.6308
-21.9367
6.67623
-5.96696
15.0833
-30.4072
15.6237
7.83293
2.4073
5.1775
-9.39468
-0.458297
22.6414
-15.4546
5.29078
15.2039
21.5604
11.508
-21.1132
-21.2637
10.7902
-2.84302
-15.1976
-21.2202
-15.1653
-20.9864
15.2795
-20.6358
-21.2015
-15.2078
-21.0637
19.0044
-15.941
-14.8245
12.0642
-14.4847
18.8027
19.0534
7.47246
18.0479
11.7728
-16.249
15.288
14.9607
-21.5284
10.4263
-14.2213
16.0485
14.5954
17.0818
14.8349
10.3436
-26.976
-16.0822
-15.9581
21.9068
14.5255
14.6243
20.9225
22.4868
9.50246
21.7336
-0.385047
-8.17108
20.7787
-17.8387
19.9455
10.364
-21.5175
15.721
22.5261
14.7312
9.39322
14.1896
21.0556
-7.83314
8.82733
-7.90894
14.6481
26.9277
26.5814
27.9606
26.3886
26.7244
26.291
13.8256
23.4304
24.0296
23.9738
23.4001
21.1928
21.8573
-8.26319
15.9333
28.1911
-3.18907
23.5762
23.2054
27.8344
-8.49389
28.0965
15.3444
-7.58197
17.492
-8.25816
20.2271
29.6128
-7.48636
-8.10112
-29.5917
-18.189
19.5272
-31.9851
5.73395
-7.79431
-1.18997
28.2492
26.6403
30.4271
26.761
-34.8005
-8.18001
28.3374
8.07246
-8.29551
26.446
-6.29569
30.472
-7.95444
27.0472
14.5659
14.7869
23.8452
10.0472
18.021
8.11666
-29.8596
-24.5528
16.8068
1.75918
8.17911
-13.609
17.4357
11.6996
-8.10187
9.45184
-10.8237
7.51652
-10.7549
-8.48508
33.2651
19.1517
25.0884
25.3127
13.8289
-10.4048
26.4301
14.6848
-1.65952
-10.2741
-12.5644
17.5066
-7.48561
17.5745
-12.0414
-21.3502
-10.6085
-34.6808
15.5623
-7.76334
34.4432
-11.5782
16.8712
-8.40912
15.9726
-12.7585
4.28865
-51.1175
8.52116
-7.74701
21.3339
-8.15252
-0.123437
10.7151
21.124
-12.0609
-10.201
-6.06875
14.3178
-10.1803
6.88747
6.38512
16.3054
-10.4198
-6.33086
-1.70288
-5.66096
-11.0787
-5.84517
15.3054
7.80749
-5.55655
-8.96082
7.80493
7.69378
-10.6749
16.3093
-27.213
2.29245
-28.4809
-0.958137
-8.87766
-8.09595
-11.7785
-10.9422
-9.88054
-7.77555
-7.89891
16.6376
24.7781
12.1155
-0.292284
-0.825844
-5.67512
7.30465
-6.32121
-6.31851
24.9239
-5.73055
14.1179
-15.9084
24.3254
5.96748
-0.391839
-5.64441
16.2749
2.47644
0.198375
2.44743
0.455242
-0.741537
-9.93062
-0.0962825
2.1126
15.0688
-1.28896
-1.40785
-0.999506
-0.389258
1.96463
8.05011
-1.19424
8.07756
5.58255
-0.436321
7.03466
5.48958
-3.8771
16.4764
-1.90404
23.0623
-21.9731
15.0439
15.6822
2.03899
-1.99811
12.5425
-26.5056
5.79157
-1.65856
-50.4819
30.499
30.6357
5.82421
-1.14505
-1.04745
-0.850383
33.4199
33.2946
13.0944
6.08132
6.66177
-28.9616
-1.28012
16.5333
-3.18332
-4.34872
-0.0176299
-25.2703
14.3029
-1.28088
2.86113
2.69252
-2.7239
-0.0500065
-3.21012
-4.03417
-37.9815
-33.6828
-0.128712
1.87382
-0.534753
-3.74481
-1.93723
-1.87835
-0.924975
-21.9071
17.2495
-0.770022
12.5647
14.1833
-26.7635
6.28563
7.13617
18.4778
36.4289
36.4614
22.6387
-1.75649
2.59896
-20.9292
36.1275
32.7612
32.8282
-24.8076
21.7759
30.5242
2.59845
15.7239
10.3707
17.1641
17.726
12.5052
5.68076
-25.3971
4.25943
10.4089
16.2438
-31.7089
28.3104
-52.7089
18.6847
10.2985
-10.6277
7.41676
5.45646
24.4747
9.41049
24.4077
4.10452
12.3995
30.6414
29.4671
-22.9896
17.4352
-70.2276
-74.374
-67.1717
11.6479
-31.2587
-63.6051
-3.80411
-69.9331
16.4633
16.407
-73.7491
5.21141
-39.7285
-70.7336
-37.7545
-71.8699
-39.4499
21.1372
-23.9594
-29.0428
-70.6175
4.83079
15.7574
-36.1884
6.05286
-63.6128
9.83538
3.88094
-67.8962
-37.622
-66.4057
-23.7543
5.02837
20.5265
35.3732
36.729
11.8115
36.8529
36.9062
36.4945
36.4064
-24.4782
28.249
20.6691
21.981
11.534
36.0623
36.0938
18.1204
-23.9391
3.24584
-30.525
-56.5949
-50.4722
36.1453
35.8261
35.3827
35.4529
36.1613
35.6012
33.1117
37.3731
35.4025
36.0082
35.6404
34.1989
34.3355
35.8586
35.3114
