# vtk DataFile Version 3.0
vtk output at time 390
ASCII
DATASET UNSTRUCTURED_GRID
POINTS 626 float
-3.68058e-05 0.000978749 0 3.68058e-05 0.000978749 0 -0.000829194 0.00052125 0 
-0.0008235 0.0005 0 -0.000866 0.0004575 0 -0.000866 -0.0004575 0 
-0.0008235 -0.0005 0 -0.000829194 -0.00052125 0 -3.68058e-05 -0.000978749 0 
3.68058e-05 -0.000978749 0 0.000829194 -0.00052125 0 0.000866 -0.0004575 0 
0.000866 0.0004575 0 0.000829194 0.00052125 0 8.5e-05 0 0 
-3.68058e-05 0.000978749 -0.001 3.68058e-05 0.000978749 -0.001 -0.000829194 0.00052125 -0.001 
-0.0008235 0.0005 -0.001 -0.000866 0.0004575 -0.001 -0.000866 -0.0004575 -0.001 
-0.0008235 -0.0005 -0.001 -0.000829194 -0.00052125 -0.001 -3.68058e-05 -0.000978749 -0.001 
3.68058e-05 -0.000978749 -0.001 0.000829194 -0.00052125 -0.001 0.000866 -0.0004575 -0.001 
0.000866 0.0004575 -0.001 0.000829194 0.00052125 -0.001 8.5e-05 0 -0.001 
8.46223e-17 0.0009575 0 -0.000715996 0.000586607 0 -0.000602797 0.000651965 0 
-0.000489599 0.000717321 0 -0.000376401 0.000782678 0 -0.000263202 0.000848036 0 
-0.000150004 0.000913393 0 -0.000835948 0.000469948 0 -0.000866 -0.000326786 0 
-0.000866 -0.000196071 0 -0.000866 -6.53571e-05 0 -0.000866 6.53571e-05 0 
-0.000866 0.000196071 0 -0.000866 0.000326786 0 -0.000835948 -0.000469948 0 
-0.000150004 -0.000913393 0 -0.000263202 -0.000848036 0 -0.000376401 -0.000782678 0 
-0.000489599 -0.000717321 0 -0.000602797 -0.000651965 0 -0.000715996 -0.000586607 0 
8.47648e-17 -0.0009575 0 0.000715996 -0.000586607 0 0.000602797 -0.000651965 0 
0.000489599 -0.000717321 0 0.000376401 -0.000782678 0 0.000263202 -0.000848036 0 
0.000150004 -0.000913393 0 0.000829194 -0.00047875 0 0.000866 0.000326786 0 
0.000866 0.000196071 0 0.000866 6.53571e-05 0 0.000866 -6.53571e-05 0 
0.000866 -0.000196071 0 0.000866 -0.000326786 0 0.000829194 0.00047875 0 
0.000150004 0.000913393 0 0.000263202 0.000848036 0 0.000376401 0.000782678 0 
0.000489599 0.000717321 0 0.000602797 0.000651965 0 0.000715996 0.000586607 0 
5.29966e-05 6.64557e-05 0 -1.89143e-05 8.28689e-05 0 -7.65824e-05 3.68801e-05 0 
-7.65824e-05 -3.68801e-05 0 -1.89143e-05 -8.28689e-05 0 5.29966e-05 -6.64557e-05 0 
8.46223e-17 0.0009575 -0.001 -0.000715996 0.000586607 -0.001 -0.000602797 0.000651965 -0.001 
-0.000489599 0.000717321 -0.001 -0.000376401 0.000782678 -0.001 -0.000263202 0.000848036 -0.001 
-0.000150004 0.000913393 -0.001 -0.000835948 0.000469948 -0.001 -0.000866 -0.000326786 -0.001 
-0.000866 -0.000196071 -0.001 -0.000866 -6.53571e-05 -0.001 -0.000866 6.53571e-05 -0.001 
-0.000866 0.000196071 -0.001 -0.000866 0.000326786 -0.001 -0.000835948 -0.000469948 -0.001 
-0.000150004 -0.000913393 -0.001 -0.000263202 -0.000848036 -0.001 -0.000376401 -0.000782678 -0.001 
-0.000489599 -0.000717321 -0.001 -0.000602797 -0.000651965 -0.001 -0.000715996 -0.000586607 -0.001 
8.47648e-17 -0.0009575 -0.001 0.000715996 -0.000586607 -0.001 0.000602797 -0.000651965 -0.001 
0.000489599 -0.000717321 -0.001 0.000376401 -0.000782678 -0.001 0.000263202 -0.000848036 -0.001 
0.000150004 -0.000913393 -0.001 0.000829194 -0.00047875 -0.001 0.000866 0.000326786 -0.001 
0.000866 0.000196071 -0.001 0.000866 6.53571e-05 -0.001 0.000866 -6.53571e-05 -0.001 
0.000866 -0.000196071 -0.001 0.000866 -0.000326786 -0.001 0.000829194 0.00047875 -0.001 
0.000150004 0.000913393 -0.001 0.000263202 0.000848036 -0.001 0.000376401 0.000782678 -0.001 
0.000489599 0.000717321 -0.001 0.000602797 0.000651965 -0.001 0.000715996 0.000586607 -0.001 
5.29966e-05 6.64557e-05 -0.001 -1.89143e-05 8.28689e-05 -0.001 -7.65824e-05 3.68801e-05 -0.001 
-7.65824e-05 -3.68801e-05 -0.001 -1.89143e-05 -8.28689e-05 -0.001 5.29966e-05 -6.64557e-05 -0.001 
0.000131234 6.38474e-05 0 0.00012964 -6.2443e-05 0 3.13827e-05 0.0001394 0 
3.12554e-05 -0.000136939 0 -0.000140461 8.25467e-19 0 -8.90565e-05 -0.000102707 0 
-9.04142e-05 0.000102872 0 -0.000765769 -0.00025965 0 -0.000756873 0.000262774 0 
-0.00015609 0.000787505 0 -0.000155807 -0.00079355 0 0.000605069 0.000528035 0 
0.000608694 -0.00052497 0 0.000744069 0.000116929 0 -0.000494418 0.000596218 0 
-0.000483866 -0.000584648 0 0.000269496 0.000702219 0 0.000263201 -0.000717324 0 
0.000754429 -0.000127825 0 -0.000748858 5.84659e-07 0 -0.000747838 0.000373886 0 
-0.0006542 0.000324842 0 -0.000645137 0.000210123 0 -0.000550884 0.000274171 0 
-0.000538857 0.000163195 0 -0.00045062 0.000224461 0 -0.000438393 0.000123907 0 
-0.000354088 0.000181668 0 -0.000363908 0.000282171 0 -0.000270361 0.000239477 0 
-0.000279138 0.000337653 0 -0.000188888 0.000294791 0 -0.000196448 0.000393271 0 
-0.000104767 0.000348259 0 -0.000113332 0.000449012 0 -2.01066e-05 0.000403223 0 
-2.89189e-05 0.000507105 0 6.9524e-05 0.000461596 0 -0.000213644 0.000490203 0 
7.33757e-05 0.000357726 0 0.000163331 0.00041299 0 0.000163359 0.000313022 0 
0.000248077 0.000366368 0 0.000250914 0.000265758 0 0.000335709 0.000322266 0 
0.000340555 0.000218148 0 0.000427299 0.000276717 0 0.000431508 0.000173093 0 
0.000328731 0.000425633 0 0.00034586 0.000114823 0 0.000435362 7.05241e-05 0 
0.000350892 1.5455e-05 0 0.000441547 -3.11896e-05 0 0.000353547 -8.47783e-05 0 
0.000445767 -0.000132964 0 0.000356135 -0.000186358 0 0.000449094 -0.000234674 0 
0.000359978 -0.000287876 0 0.00026856 -0.000240545 0 0.000271895 -0.000341045 0 
0.000181792 -0.00029305 0 0.00018533 -0.000392851 0 9.75701e-05 -0.00034483 0 
9.98764e-05 -0.000444884 0 8.75116e-06 -0.000396343 0 1.20916e-05 -0.000500496 0 
-7.83929e-05 -0.000449843 0 -8.1471e-05 -0.000347249 0 -0.000171566 -0.000403733 0 
-0.000169889 -0.000298891 0 -0.000259867 -0.000354132 0 -0.000257696 -0.000249137 0 
-0.00034313 -0.000299896 0 -0.000344514 -0.000199127 0 -0.000434309 -0.000250039 0 
-0.000169832 -0.000505815 0 -0.000435227 -0.000146227 0 0.000280331 -0.000442424 0 
-0.000340889 8.76793e-05 0 -0.000515252 4.06198e-05 0 6.50491e-05 0.000568253 0 
0.00053278 1.74743e-05 0 0.000522071 0.000229831 0 -0.00037162 0.000391659 0 
-0.000255272 -0.000150439 0 -0.000442893 -0.000350705 0 0.000450067 -0.000332559 0 
0.000545175 -0.000276306 0 -0.000527797 -0.000197598 0 0.000105306 -0.000551033 0 
1.45836e-05 -0.000609147 0 0.00017145 0.000214453 0 0.000515525 0.000341711 0 
0.000636086 0.000290368 0 -0.000558657 0.000404468 0 -4.01232e-05 0.000616718 0 
6.60192e-05 0.000696422 0 -0.000101806 0.0002546 0 0.000271142 -3.88908e-05 0 
0.000179455 -0.00018534 0 -8.79553e-05 -0.000254307 0 -0.000749267 -0.000373451 0 
-0.000655941 -0.000323397 0 0.000709746 0.000466718 0 0.000698426 -0.000473086 0 
-5.25801e-05 -0.00084886 0 -4.93005e-05 0.000848038 0 0.000617396 -0.000413362 0 
0.000702056 -0.000369817 0 0.000131459 -0.000679171 0 2.48171e-05 -0.000715924 0 
-0.000664217 -0.00042729 0 -0.000528828 -8.80444e-05 0 -0.000611101 -0.000136672 0 
-0.000426972 -4.45841e-05 0 0.000800669 0.000378216 0 0.000821144 -0.000415062 0 
7.2799e-05 0.00088254 0 6.81831e-05 -0.00087503 0 0.000104963 -0.000788946 0 
-7.40696e-05 -0.000660054 0 0.000126061 0.000809943 0 0.000764361 0.000295682 0 
0.000166862 0.000630623 0 0.000516462 -0.00046707 0 -0.000563585 -0.000389606 0 
-0.000622598 -1.40238e-05 0 0.000629891 0.000171529 0 2.5614e-06 -0.000299794 0 
8.6901e-05 -0.00024329 0 0.000272045 -0.000136982 0 -0.00075148 0.000138321 0 
0.000209366 -0.000599589 0 0.000324913 -0.000630055 0 0.000614044 0.00041245 0 
0.00049651 -0.000573327 0 0.000394822 -0.000507321 0 -0.000173714 -0.000206698 0 
0.000264897 5.63722e-05 0 0.000247997 0.000152811 0 -4.63327e-05 -0.000920208 0 
9.18688e-05 0.000258626 0 -5.54111e-06 0.000290558 0 -0.000184219 0.000201484 0 
-0.000263559 0.000142267 0 -0.000256427 5.13624e-05 0 -0.000336894 -2.06179e-06 0 
-0.000228499 -4.2388e-05 0 -0.00017589 0.000106626 0 -0.000769947 -0.000133367 0 
0.000767591 -0.000500293 0 -5.05874e-05 0.000737978 0 0.000754456 -3.51771e-06 0 
0.00064691 -6.15298e-05 0 0.000630483 -0.00018134 0 0.000749187 -0.000265543 0 
-0.000760805 -0.000462521 0 0.000638155 6.09315e-05 0 -4.46661e-05 0.000922995 0 
-2.37945e-05 0.000207237 0 0.000776979 0.000500181 0 -0.000605691 0.000527596 0 
-0.000377914 -0.000653727 0 -0.000372325 -0.000526022 0 -0.000275829 -0.000589621 0 
-0.000254285 -0.000710579 0 -0.000379307 0.000656222 0 -0.000379818 0.00052718 0 
-0.000266817 0.000721555 0 -0.000150544 0.000668174 0 0.000381963 0.00065079 0 
0.000493113 0.000590432 0 0.000505439 0.000463708 0 -0.000269094 0.000596608 0 
0.000385815 0.000532045 0 0.000283599 0.0005899 0 -0.000176405 -0.000108505 0 
-0.000278769 -0.000475415 0 0.000185395 2.33014e-06 0 0.000186773 0.000517571 0 
0.000540032 -8.68444e-05 0 -0.000600694 -0.000514877 0 -0.00063703 8.98033e-05 0 
-0.000459677 0.000335729 0 -0.000338836 -0.000100751 0 -0.000457327 0.000432721 0 
-8.72007e-06 -0.000210238 0 0.000156073 0.000129496 0 -7.70692e-05 -0.000555049 0 
0.00036091 -0.000389728 0 0.000531628 0.000120564 0 -0.000285451 0.000435562 0 
0.000192719 -0.000494604 0 0.00041642 0.00039368 0 -0.000135943 0.000554637 0 
-0.000170665 -0.000610079 0 -0.000666304 0.000434981 0 -0.000758736 0.000479231 0 
-0.000470189 -0.000458901 0 0.000203433 -8.59809e-05 0 0.000101846 0.000170114 0 
-0.00035513 -0.00040726 0 0.000100184 -0.000165831 0 2.96286e-05 0.00081537 0 
0.000720946 0.000381836 0 -0.000539809 -0.000292001 0 0.00052211 -0.000182426 0 
-6.41339e-05 -0.000753908 0 0.000638039 -0.000299861 0 -0.000605136 -0.000230182 0 
-3.41638e-05 -0.000145561 0 -0.000104037 0.000172396 0 -0.000808575 -0.00042774 0 
-0.000807207 -0.000465052 0 -0.00080817 0.000429771 0 -0.000806589 0.000469738 0 
-9.50634e-05 -0.000178909 0 0.000247777 0.000445058 0 1.48293e-05 -0.000814201 0 
-4.11555e-05 0.000140955 0 0.000276104 -0.000536845 0 0.000765969 -0.000436638 0 
0.000780871 -0.000362769 0 0.000424176 -0.000642018 0 0.00053413 -0.000368009 0 
-0.000416333 4.17911e-05 0 -0.000133891 -6.23822e-05 0 4.2574e-05 0.000206312 0 
0.000141163 -0.000121542 0 0.000707423 0.000212137 0 0.000172327 0.000723882 0 
7.72652e-06 -0.00090254 0 -0.000134435 5.66935e-05 0 -0.000188826 3.70894e-05 0 
0.000197119 8.09714e-05 0 1.27801e-05 0.000917296 0 0.000800767 0.00044758 0 
-0.000686682 0.000507104 0 9.35831e-05 0.000110457 0 -0.000696793 -0.000509595 0 
-0.00068446 -8.52012e-05 0 -0.000691033 -0.000201242 0 5.24052e-05 -0.000189075 0 
-0.000151818 -0.000701092 0 -0.000296988 0.000518087 0 9.31023e-05 -0.000108117 0 
0.00044261 -0.000416726 0 0.000197044 -0.000784423 0 -0.000516861 0.000504567 0 
0.000298997 0.000502377 0 0.000131234 6.38474e-05 -0.001 0.00012964 -6.2443e-05 -0.001 
3.13827e-05 0.0001394 -0.001 3.12554e-05 -0.000136939 -0.001 -0.000140461 8.25467e-19 -0.001 
-8.90565e-05 -0.000102707 -0.001 -9.04142e-05 0.000102872 -0.001 -0.000765769 -0.00025965 -0.001 
-0.000756873 0.000262774 -0.001 -0.00015609 0.000787505 -0.001 -0.000155807 -0.00079355 -0.001 
0.000605069 0.000528035 -0.001 0.000608694 -0.00052497 -0.001 0.000744069 0.000116929 -0.001 
-0.000494418 0.000596218 -0.001 -0.000483866 -0.000584648 -0.001 0.000269496 0.000702219 -0.001 
0.000263201 -0.000717324 -0.001 0.000754429 -0.000127825 -0.001 -0.000748858 5.84659e-07 -0.001 
-0.000747838 0.000373886 -0.001 -0.0006542 0.000324842 -0.001 -0.000645137 0.000210123 -0.001 
-0.000550884 0.000274171 -0.001 -0.000538857 0.000163195 -0.001 -0.00045062 0.000224461 -0.001 
-0.000438393 0.000123907 -0.001 -0.000354088 0.000181668 -0.001 -0.000363908 0.000282171 -0.001 
-0.000270361 0.000239477 -0.001 -0.000279138 0.000337653 -0.001 -0.000188888 0.000294791 -0.001 
-0.000196448 0.000393271 -0.001 -0.000104767 0.000348259 -0.001 -0.000113332 0.000449012 -0.001 
-2.01066e-05 0.000403223 -0.001 -2.89189e-05 0.000507105 -0.001 6.9524e-05 0.000461596 -0.001 
-0.000213644 0.000490203 -0.001 7.33757e-05 0.000357726 -0.001 0.000163331 0.00041299 -0.001 
0.000163359 0.000313022 -0.001 0.000248077 0.000366368 -0.001 0.000250914 0.000265758 -0.001 
0.000335709 0.000322266 -0.001 0.000340555 0.000218148 -0.001 0.000427299 0.000276717 -0.001 
0.000431508 0.000173093 -0.001 0.000328731 0.000425633 -0.001 0.00034586 0.000114823 -0.001 
0.000435362 7.05241e-05 -0.001 0.000350892 1.5455e-05 -0.001 0.000441547 -3.11896e-05 -0.001 
0.000353547 -8.47783e-05 -0.001 0.000445767 -0.000132964 -0.001 0.000356135 -0.000186358 -0.001 
0.000449094 -0.000234674 -0.001 0.000359978 -0.000287876 -0.001 0.00026856 -0.000240545 -0.001 
0.000271895 -0.000341045 -0.001 0.000181792 -0.00029305 -0.001 0.00018533 -0.000392851 -0.001 
9.75701e-05 -0.00034483 -0.001 9.98764e-05 -0.000444884 -0.001 8.75116e-06 -0.000396343 -0.001 
1.20916e-05 -0.000500496 -0.001 -7.83929e-05 -0.000449843 -0.001 -8.1471e-05 -0.000347249 -0.001 
-0.000171566 -0.000403733 -0.001 -0.000169889 -0.000298891 -0.001 -0.000259867 -0.000354132 -0.001 
-0.000257696 -0.000249137 -0.001 -0.00034313 -0.000299896 -0.001 -0.000344514 -0.000199127 -0.001 
-0.000434309 -0.000250039 -0.001 -0.000169832 -0.000505815 -0.001 -0.000435227 -0.000146227 -0.001 
0.000280331 -0.000442424 -0.001 -0.000340889 8.76793e-05 -0.001 -0.000515252 4.06198e-05 -0.001 
6.50491e-05 0.000568253 -0.001 0.00053278 1.74743e-05 -0.001 0.000522071 0.000229831 -0.001 
-0.00037162 0.000391659 -0.001 -0.000255272 -0.000150439 -0.001 -0.000442893 -0.000350705 -0.001 
0.000450067 -0.000332559 -0.001 0.000545175 -0.000276306 -0.001 -0.000527797 -0.000197598 -0.001 
0.000105306 -0.000551033 -0.001 1.45836e-05 -0.000609147 -0.001 0.00017145 0.000214453 -0.001 
0.000515525 0.000341711 -0.001 0.000636086 0.000290368 -0.001 -0.000558657 0.000404468 -0.001 
-4.01232e-05 0.000616718 -0.001 6.60192e-05 0.000696422 -0.001 -0.000101806 0.0002546 -0.001 
0.000271142 -3.88908e-05 -0.001 0.000179455 -0.00018534 -0.001 -8.79553e-05 -0.000254307 -0.001 
-0.000749267 -0.000373451 -0.001 -0.000655941 -0.000323397 -0.001 0.000709746 0.000466718 -0.001 
0.000698426 -0.000473086 -0.001 -5.25801e-05 -0.00084886 -0.001 -4.93005e-05 0.000848038 -0.001 
0.000617396 -0.000413362 -0.001 0.000702056 -0.000369817 -0.001 0.000131459 -0.000679171 -0.001 
2.48171e-05 -0.000715924 -0.001 -0.000664217 -0.00042729 -0.001 -0.000528828 -8.80444e-05 -0.001 
-0.000611101 -0.000136672 -0.001 -0.000426972 -4.45841e-05 -0.001 0.000800669 0.000378216 -0.001 
0.000821144 -0.000415062 -0.001 7.2799e-05 0.00088254 -0.001 6.81831e-05 -0.00087503 -0.001 
0.000104963 -0.000788946 -0.001 -7.40696e-05 -0.000660054 -0.001 0.000126061 0.000809943 -0.001 
0.000764361 0.000295682 -0.001 0.000166862 0.000630623 -0.001 0.000516462 -0.00046707 -0.001 
-0.000563585 -0.000389606 -0.001 -0.000622598 -1.40238e-05 -0.001 0.000629891 0.000171529 -0.001 
2.5614e-06 -0.000299794 -0.001 8.6901e-05 -0.00024329 -0.001 0.000272045 -0.000136982 -0.001 
-0.00075148 0.000138321 -0.001 0.000209366 -0.000599589 -0.001 0.000324913 -0.000630055 -0.001 
0.000614044 0.00041245 -0.001 0.00049651 -0.000573327 -0.001 0.000394822 -0.000507321 -0.001 
-0.000173714 -0.000206698 -0.001 0.000264897 5.63722e-05 -0.001 0.000247997 0.000152811 -0.001 
-4.63327e-05 -0.000920208 -0.001 9.18688e-05 0.000258626 -0.001 -5.54111e-06 0.000290558 -0.001 
-0.000184219 0.000201484 -0.001 -0.000263559 0.000142267 -0.001 -0.000256427 5.13624e-05 -0.001 
-0.000336894 -2.06179e-06 -0.001 -0.000228499 -4.2388e-05 -0.001 -0.00017589 0.000106626 -0.001 
-0.000769947 -0.000133367 -0.001 0.000767591 -0.000500293 -0.001 -5.05874e-05 0.000737978 -0.001 
0.000754456 -3.51771e-06 -0.001 0.00064691 -6.15298e-05 -0.001 0.000630483 -0.00018134 -0.001 
0.000749187 -0.000265543 -0.001 -0.000760805 -0.000462521 -0.001 0.000638155 6.09315e-05 -0.001 
-4.46661e-05 0.000922995 -0.001 -2.37945e-05 0.000207237 -0.001 0.000776979 0.000500181 -0.001 
-0.000605691 0.000527596 -0.001 -0.000377914 -0.000653727 -0.001 -0.000372325 -0.000526022 -0.001 
-0.000275829 -0.000589621 -0.001 -0.000254285 -0.000710579 -0.001 -0.000379307 0.000656222 -0.001 
-0.000379818 0.00052718 -0.001 -0.000266817 0.000721555 -0.001 -0.000150544 0.000668174 -0.001 
0.000381963 0.00065079 -0.001 0.000493113 0.000590432 -0.001 0.000505439 0.000463708 -0.001 
-0.000269094 0.000596608 -0.001 0.000385815 0.000532045 -0.001 0.000283599 0.0005899 -0.001 
-0.000176405 -0.000108505 -0.001 -0.000278769 -0.000475415 -0.001 0.000185395 2.33014e-06 -0.001 
0.000186773 0.000517571 -0.001 0.000540032 -8.68444e-05 -0.001 -0.000600694 -0.000514877 -0.001 
-0.00063703 8.98033e-05 -0.001 -0.000459677 0.000335729 -0.001 -0.000338836 -0.000100751 -0.001 
-0.000457327 0.000432721 -0.001 -8.72007e-06 -0.000210238 -0.001 0.000156073 0.000129496 -0.001 
-7.70692e-05 -0.000555049 -0.001 0.00036091 -0.000389728 -0.001 0.000531628 0.000120564 -0.001 
-0.000285451 0.000435562 -0.001 0.000192719 -0.000494604 -0.001 0.00041642 0.00039368 -0.001 
-0.000135943 0.000554637 -0.001 -0.000170665 -0.000610079 -0.001 -0.000666304 0.000434981 -0.001 
-0.000758736 0.000479231 -0.001 -0.000470189 -0.000458901 -0.001 0.000203433 -8.59809e-05 -0.001 
0.000101846 0.000170114 -0.001 -0.00035513 -0.00040726 -0.001 0.000100184 -0.000165831 -0.001 
2.96286e-05 0.00081537 -0.001 0.000720946 0.000381836 -0.001 -0.000539809 -0.000292001 -0.001 
0.00052211 -0.000182426 -0.001 -6.41339e-05 -0.000753908 -0.001 0.000638039 -0.000299861 -0.001 
-0.000605136 -0.000230182 -0.001 -3.41638e-05 -0.000145561 -0.001 -0.000104037 0.000172396 -0.001 
-0.000808575 -0.00042774 -0.001 -0.000807207 -0.000465052 -0.001 -0.00080817 0.000429771 -0.001 
-0.000806589 0.000469738 -0.001 -9.50634e-05 -0.000178909 -0.001 0.000247777 0.000445058 -0.001 
1.48293e-05 -0.000814201 -0.001 -4.11555e-05 0.000140955 -0.001 0.000276104 -0.000536845 -0.001 
0.000765969 -0.000436638 -0.001 0.000780871 -0.000362769 -0.001 0.000424176 -0.000642018 -0.001 
0.00053413 -0.000368009 -0.001 -0.000416333 4.17911e-05 -0.001 -0.000133891 -6.23822e-05 -0.001 
4.2574e-05 0.000206312 -0.001 0.000141163 -0.000121542 -0.001 0.000707423 0.000212137 -0.001 
0.000172327 0.000723882 -0.001 7.72652e-06 -0.00090254 -0.001 -0.000134435 5.66935e-05 -0.001 
-0.000188826 3.70894e-05 -0.001 0.000197119 8.09714e-05 -0.001 1.27801e-05 0.000917296 -0.001 
0.000800767 0.00044758 -0.001 -0.000686682 0.000507104 -0.001 9.35831e-05 0.000110457 -0.001 
-0.000696793 -0.000509595 -0.001 -0.00068446 -8.52012e-05 -0.001 -0.000691033 -0.000201242 -0.001 
5.24052e-05 -0.000189075 -0.001 -0.000151818 -0.000701092 -0.001 -0.000296988 0.000518087 -0.001 
9.31023e-05 -0.000108117 -0.001 0.00044261 -0.000416726 -0.001 0.000197044 -0.000784423 -0.001 
-0.000516861 0.000504567 -0.001 0.000298997 0.000502377 -0.001 

CELLS 563 3941
6 14 304 127 29 554 377 
6 143 259 55 393 509 103 
6 300 319 174 550 569 424 
6 259 349 55 509 599 103 
6 50 365 307 98 615 557 
6 299 320 164 549 570 414 
6 126 304 14 376 554 29 
6 298 319 300 548 569 550 
6 205 240 238 455 490 488 
6 257 308 145 507 558 395 
6 130 352 273 380 602 523 
6 295 320 299 545 570 549 
6 324 327 289 574 577 539 
6 235 258 143 485 508 393 
6 50 307 49 98 557 97 
6 207 283 279 457 533 529 
6 143 373 235 393 623 485 
6 145 308 252 395 558 502 
6 194 303 196 444 553 446 
6 279 306 207 529 556 457 
6 206 305 163 456 555 413 
6 51 357 9 99 607 24 
6 238 252 205 488 502 455 
6 293 317 209 543 567 459 
6 207 316 283 457 566 533 
6 142 301 249 392 551 499 
6 273 359 130 523 609 380 
6 211 327 324 461 577 574 
6 169 265 217 419 515 467 
6 7 365 50 22 615 98 
6 283 316 253 533 566 503 
6 159 268 223 409 518 473 
6 274 337 132 524 587 382 
6 232 361 329 482 611 579 
6 231 266 45 481 516 93 
6 229 362 330 479 612 580 
6 9 244 57 24 494 105 
6 230 276 52 480 526 100 
6 209 311 293 459 561 543 
6 131 342 302 381 592 552 
6 270 271 204 520 521 454 
6 66 243 1 114 493 16 
6 59 241 12 107 491 27 
6 280 306 279 530 556 529 
6 269 337 274 519 587 524 
6 179 256 224 429 506 474 
6 163 305 166 413 555 416 
6 201 303 194 451 553 444 
6 280 332 306 530 582 556 
6 186 255 225 436 505 475 
6 210 310 273 460 560 523 
6 153 270 204 403 520 454 
6 136 231 45 386 481 93 
6 171 265 169 421 515 419 
6 138 230 52 388 480 100 
6 225 354 325 475 604 575 
6 36 284 232 84 534 482 
6 161 268 159 411 518 409 
6 71 286 229 119 536 479 
6 290 303 201 540 553 451 
6 139 355 60 389 605 108 
6 60 355 248 108 605 498 
6 273 352 302 523 602 552 
6 235 373 245 485 623 495 
6 67 356 247 115 606 497 
6 221 295 277 471 545 527 
6 142 356 67 392 606 115 
6 139 283 253 389 533 503 
6 203 315 262 453 565 512 
6 41 257 145 89 507 395 
6 36 232 135 84 482 385 
6 71 229 137 119 479 387 
6 254 255 188 504 505 438 
6 233 350 334 483 600 584 
6 262 346 203 512 596 453 
6 304 325 127 554 575 377 
6 222 329 247 472 579 497 
6 218 298 260 468 548 510 
6 290 321 291 540 571 541 
6 272 310 240 522 560 490 
6 269 274 270 519 524 520 
6 244 245 57 494 495 105 
6 49 307 141 97 557 391 
6 225 325 256 475 575 506 
6 273 310 272 523 560 522 
6 312 368 255 562 618 505 
6 249 305 206 499 555 456 
6 228 331 251 478 581 501 
6 302 342 263 552 592 513 
6 338 339 44 588 589 92 
6 190 254 188 440 504 438 
6 37 341 340 85 591 590 
6 138 233 230 388 483 480 
6 228 335 331 478 585 581 
6 181 256 179 431 506 429 
6 195 263 226 445 513 476 
6 268 285 223 518 535 473 
6 290 291 288 540 541 538 
6 219 330 248 469 580 498 
6 201 321 290 451 571 540 
6 240 310 202 490 560 452 
6 188 255 186 438 505 436 
6 270 274 271 520 524 521 
6 262 349 259 512 599 509 
6 141 324 289 391 574 539 
6 296 301 142 546 551 392 
6 247 356 222 497 606 472 
6 239 252 238 489 502 488 
6 254 312 255 504 562 505 
6 54 261 53 102 511 101 
6 289 327 303 539 577 553 
6 268 353 285 518 603 535 
6 273 302 210 523 552 460 
6 292 299 293 542 549 543 
6 278 283 139 528 533 389 
6 175 265 171 425 515 421 
6 227 338 38 477 588 86 
6 264 360 265 514 610 515 
6 43 340 146 91 590 396 
6 165 268 161 415 518 411 
6 205 351 240 455 601 490 
6 64 281 63 112 531 111 
6 288 291 47 538 541 95 
6 135 295 294 385 545 544 
6 42 257 41 90 507 89 
6 245 373 57 495 623 105 
6 31 363 323 79 613 573 
6 292 293 140 542 543 390 
6 267 353 268 517 603 518 
6 155 270 153 405 520 403 
6 244 344 245 494 594 495 
6 61 278 139 109 528 389 
6 135 294 35 385 544 83 
6 69 297 296 117 547 546 
6 186 225 184 436 475 434 
6 329 361 243 579 611 493 
6 255 328 225 505 578 475 
6 213 332 280 463 582 530 
6 39 275 133 87 525 383 
6 330 362 241 580 612 491 
6 195 226 193 445 476 443 
6 211 324 251 461 574 501 
6 151 153 152 401 403 402 
6 295 299 294 545 549 544 
6 265 313 217 515 563 467 
6 258 259 143 508 509 393 
6 251 331 211 501 581 461 
6 149 151 150 399 401 400 
6 293 370 317 543 620 567 
6 153 204 152 403 454 402 
6 151 152 150 401 402 400 
6 33 292 140 81 542 390 
6 210 263 197 460 513 447 
6 301 305 249 551 555 499 
6 298 300 297 548 550 547 
6 68 296 142 116 546 392 
6 321 369 291 571 619 541 
6 179 224 177 429 474 427 
6 167 267 165 417 517 415 
6 259 346 262 509 596 512 
6 303 327 196 553 577 446 
6 269 270 155 519 520 405 
6 265 360 313 515 610 563 
6 223 269 157 473 519 407 
6 157 269 155 407 519 405 
6 144 279 278 394 529 528 
6 169 217 167 419 467 417 
6 177 264 175 427 514 425 
6 267 268 165 517 518 415 
6 159 223 157 409 473 407 
6 232 277 135 482 527 385 
6 193 254 190 443 504 440 
6 217 267 167 467 517 417 
6 249 356 142 499 606 392 
6 184 256 181 434 506 431 
6 248 355 219 498 605 469 
6 229 260 137 479 510 387 
6 149 150 148 399 400 398 
6 64 348 281 112 598 531 
6 311 374 293 561 624 543 
6 264 265 175 514 515 425 
6 297 300 296 547 550 546 
6 141 289 288 391 539 538 
6 197 263 195 447 513 445 
6 218 260 219 468 510 469 
6 224 264 177 474 514 427 
6 137 298 297 387 548 547 
6 277 295 135 527 545 385 
6 133 228 227 383 478 477 
6 261 349 262 511 599 512 
6 221 277 222 471 527 472 
6 256 325 224 506 575 474 
6 199 210 197 449 460 447 
6 226 254 193 476 504 443 
6 144 278 62 394 528 110 
6 279 283 278 529 533 528 
6 289 290 288 539 540 538 
6 137 297 70 387 547 118 
6 34 294 292 82 544 542 
6 235 236 216 485 486 466 
6 141 288 48 391 538 96 
6 178 306 180 428 556 430 
6 185 186 184 435 436 434 
6 63 281 144 111 531 394 
6 225 256 184 475 506 434 
6 46 291 136 94 541 386 
6 147 149 148 397 399 398 
6 271 272 204 521 522 454 
6 233 334 234 483 584 484 
6 145 275 40 395 525 88 
6 220 322 287 470 572 537 
6 280 334 213 530 584 463 
6 144 280 279 394 530 529 
6 140 287 32 390 537 80 
6 154 155 153 404 405 403 
6 334 350 213 584 600 463 
6 176 177 175 426 427 425 
6 260 298 137 510 548 387 
6 33 140 32 81 390 80 
6 49 141 48 97 391 96 
6 56 143 55 104 393 103 
6 68 142 67 116 392 115 
6 63 144 62 111 394 110 
6 61 139 60 109 389 108 
6 148 308 257 398 558 507 
6 71 137 70 119 387 118 
6 53 138 52 101 388 100 
6 46 136 45 94 386 93 
6 36 135 35 84 385 83 
6 43 146 134 91 396 384 
6 133 227 38 383 477 86 
6 192 193 190 442 443 440 
6 293 374 140 543 624 390 
6 34 292 33 82 542 81 
6 207 306 178 457 556 428 
6 43 134 42 91 384 90 
6 39 133 38 87 383 86 
6 41 145 40 89 395 88 
6 194 195 193 444 445 443 
6 69 296 68 117 546 116 
6 294 299 292 544 549 542 
6 173 175 171 423 425 421 
6 260 330 219 510 580 469 
6 183 184 181 433 434 431 
6 134 257 42 384 507 90 
6 55 349 54 103 599 102 
6 163 165 161 413 415 411 
6 166 167 165 416 417 415 
6 210 302 263 460 552 513 
6 271 273 272 521 523 522 
6 53 261 138 101 511 388 
6 217 326 267 467 576 517 
6 289 303 290 539 553 540 
6 178 179 177 428 429 427 
6 238 240 202 488 490 452 
6 62 278 61 110 528 109 
6 35 294 34 83 544 82 
6 284 361 232 534 611 482 
6 70 297 69 118 547 117 
6 224 304 264 474 554 514 
6 156 157 155 406 407 405 
6 48 288 47 96 538 95 
6 221 320 295 471 570 545 
6 187 188 186 437 438 436 
6 47 291 46 95 541 94 
6 151 154 153 401 404 403 
6 286 362 229 536 612 479 
6 168 169 167 418 419 417 
6 40 275 39 88 525 87 
6 307 324 141 557 574 391 
6 300 301 296 550 551 546 
6 32 287 31 80 537 79 
6 147 220 149 397 470 399 
6 333 344 231 583 594 481 
6 299 370 293 549 620 543 
6 271 359 273 521 609 523 
6 224 325 304 474 575 554 
6 228 237 227 478 487 477 
6 305 375 343 555 625 593 
6 218 319 298 468 569 548 
6 240 351 272 490 601 522 
6 277 329 222 527 579 472 
6 253 355 139 503 605 389 
6 158 159 157 408 409 407 
6 236 246 216 486 496 466 
6 192 194 193 442 444 443 
6 220 309 149 470 559 399 
6 183 185 184 433 435 434 
6 196 197 195 446 447 445 
6 276 347 58 526 597 106 
6 136 333 231 386 583 481 
6 67 247 66 115 497 114 
6 60 248 59 108 498 107 
6 261 262 250 511 512 500 
6 173 176 175 423 426 425 
6 344 357 231 594 607 481 
6 144 281 280 394 531 530 
6 152 205 150 402 455 400 
6 163 166 165 413 416 415 
6 185 187 186 435 437 436 
6 233 234 230 483 484 480 
6 170 171 169 420 421 419 
6 146 147 134 396 397 384 
6 176 178 177 426 428 427 
6 285 337 223 535 587 473 
6 154 156 155 404 406 405 
6 263 342 226 513 592 476 
6 235 245 236 485 495 486 
6 160 161 159 410 411 409 
6 58 347 242 106 597 492 
6 166 168 167 416 418 417 
6 287 374 220 537 624 470 
6 189 190 188 439 440 438 
6 148 257 134 398 507 384 
6 194 196 195 444 446 445 
6 252 308 205 502 558 455 
6 285 345 337 535 595 587 
6 301 375 305 551 625 555 
6 180 181 179 430 431 429 
6 281 348 234 531 598 484 
6 198 199 197 448 449 447 
6 151 309 154 401 559 404 
6 228 367 335 478 617 585 
6 54 349 261 102 599 511 
6 156 158 157 406 408 407 
6 168 170 169 418 420 419 
6 200 202 199 450 452 449 
6 147 148 134 397 398 384 
6 158 160 159 408 410 409 
6 150 308 148 400 558 398 
6 253 316 208 503 566 458 
6 232 329 277 482 579 527 
6 178 180 179 428 430 429 
6 191 192 190 441 442 440 
6 214 238 202 464 488 452 
6 172 173 171 422 423 421 
6 187 189 188 437 439 438 
6 162 163 161 412 413 411 
6 228 251 237 478 501 487 
6 215 258 235 465 508 485 
6 182 183 181 432 433 431 
6 202 310 199 452 560 449 
6 219 253 208 469 503 458 
6 222 249 206 472 499 456 
6 196 198 197 446 448 447 
6 229 330 260 479 580 510 
6 132 358 274 382 608 524 
6 149 309 151 399 559 401 
6 226 312 254 476 562 504 
6 154 309 209 404 559 459 
6 77 129 76 125 379 124 
6 73 128 72 121 378 120 
6 76 131 75 124 381 123 
6 74 132 73 122 382 121 
6 75 130 74 123 380 122 
6 14 127 77 29 377 125 
6 72 126 14 120 376 29 
6 133 367 228 383 617 478 
6 237 282 227 487 532 477 
6 239 366 252 489 616 502 
6 200 214 202 450 464 452 
6 192 201 194 442 451 444 
6 170 172 171 420 422 421 
6 220 311 309 470 561 559 
6 198 200 199 448 450 449 
6 189 191 190 439 441 440 
6 146 323 322 396 573 572 
6 160 162 161 410 412 411 
6 251 307 237 501 557 487 
6 199 310 210 449 560 460 
6 57 373 56 105 623 104 
6 214 239 238 464 489 488 
6 182 212 183 432 462 433 
6 180 182 181 430 432 431 
6 146 322 147 396 572 397 
6 172 218 208 422 468 458 
6 172 208 173 422 458 423 
6 162 221 206 412 471 456 
6 162 206 163 412 456 413 
6 176 207 178 426 457 428 
6 272 351 204 522 601 454 
6 198 211 200 448 461 450 
6 182 213 212 432 463 462 
6 234 334 281 484 584 531 
6 154 209 156 404 459 406 
6 185 203 187 435 453 437 
6 168 174 170 418 424 420 
6 189 215 191 439 465 441 
6 215 216 191 465 466 441 
6 221 222 206 471 472 456 
6 158 164 160 408 414 410 
6 218 219 208 468 469 458 
6 205 308 150 455 558 400 
6 191 314 192 441 564 442 
6 215 235 216 465 485 466 
6 215 318 258 465 568 508 
6 152 351 205 402 601 455 
6 138 261 250 388 511 500 
6 192 314 201 442 564 451 
6 234 347 230 484 597 480 
6 226 342 312 476 592 562 
6 138 250 233 388 500 483 
6 147 322 220 397 572 470 
6 216 314 191 466 564 441 
6 306 332 180 556 582 430 
6 222 356 249 472 606 499 
6 128 345 285 378 595 535 
6 314 321 201 564 571 451 
6 212 315 183 462 565 433 
6 312 342 336 562 592 586 
6 282 339 338 532 589 588 
6 340 341 323 590 591 573 
6 309 311 209 559 561 459 
6 183 315 185 433 565 435 
6 208 316 173 458 566 423 
6 173 316 176 423 566 426 
6 3 341 37 18 591 85 
6 44 339 6 92 589 21 
6 252 366 145 502 616 395 
6 246 321 314 496 571 564 
6 246 314 216 496 564 466 
6 126 364 313 376 614 563 
6 156 317 158 406 567 408 
6 275 367 133 525 617 383 
6 176 316 207 426 566 457 
6 185 315 203 435 565 453 
6 180 332 182 430 582 432 
6 302 352 131 552 602 381 
6 251 324 307 501 574 557 
6 187 318 189 437 568 439 
6 172 319 218 422 569 468 
6 162 320 221 412 570 471 
6 305 343 166 555 593 416 
6 170 319 172 420 569 422 
6 158 317 164 408 567 414 
6 209 317 156 459 567 406 
6 285 353 128 535 603 378 
6 223 337 269 473 587 519 
6 160 320 162 410 570 412 
6 211 331 200 461 581 450 
6 174 319 170 424 569 420 
6 203 318 187 453 568 437 
6 189 318 215 439 568 465 
6 198 327 211 448 577 461 
6 164 320 160 414 570 410 
6 326 353 267 576 603 517 
6 236 344 333 486 594 583 
6 196 327 198 446 577 448 
6 219 355 253 469 605 503 
6 281 334 280 531 584 530 
6 274 359 271 524 609 521 
6 164 370 299 414 620 549 
6 174 375 300 424 625 550 
6 287 363 31 537 613 79 
6 243 361 1 493 611 16 
6 241 362 12 491 612 27 
6 307 365 237 557 615 487 
6 166 343 168 416 593 418 
6 200 331 214 450 581 464 
6 313 326 217 563 576 467 
6 9 357 244 24 607 494 
6 1 361 30 16 611 78 
6 12 362 65 27 612 113 
6 337 345 132 587 595 382 
6 242 348 64 492 598 112 
6 231 357 266 481 607 516 
6 182 332 213 432 582 463 
6 245 344 236 495 594 486 
6 258 346 259 508 596 509 
6 145 366 275 395 616 525 
6 291 369 136 541 619 386 
6 236 333 246 486 583 496 
6 331 335 214 581 585 464 
6 312 336 129 562 586 379 
6 315 372 262 565 622 512 
6 220 374 311 470 624 561 
6 140 374 287 390 624 537 
6 126 360 304 376 610 554 
6 230 347 276 480 597 526 
6 313 364 326 563 614 576 
6 56 373 143 104 623 393 
6 239 367 366 489 617 616 
6 204 351 152 454 601 402 
6 300 375 301 550 625 551 
6 214 335 239 464 585 489 
6 247 329 243 497 579 493 
6 262 372 250 512 622 500 
6 248 330 241 498 580 491 
6 318 346 258 568 596 508 
6 333 369 246 583 619 496 
6 282 338 227 532 588 477 
6 146 340 323 396 590 573 
6 304 360 264 554 610 514 
6 366 367 275 616 617 525 
6 129 336 76 379 586 124 
6 73 345 128 121 595 378 
6 76 336 131 124 586 381 
6 250 350 233 500 600 483 
6 129 371 328 379 621 578 
6 132 345 73 382 595 121 
6 168 343 174 418 593 424 
6 131 352 75 381 602 123 
6 66 247 243 114 497 493 
6 59 248 241 107 498 491 
6 74 358 132 122 608 382 
6 203 346 318 453 596 568 
6 313 360 126 563 610 376 
6 128 364 72 378 614 120 
6 128 353 326 378 603 576 
6 77 371 129 125 621 379 
6 129 368 312 379 618 562 
6 244 357 344 494 607 594 
6 328 354 225 578 604 475 
6 326 364 128 576 614 378 
6 75 352 130 123 602 380 
6 350 372 212 600 622 462 
6 136 369 333 386 619 583 
6 325 354 127 575 604 377 
6 213 350 212 463 600 462 
6 130 358 74 380 608 122 
6 250 372 350 500 622 600 
6 317 370 164 567 620 414 
6 72 364 126 120 614 376 
6 328 368 129 578 618 379 
6 127 371 77 377 621 125 
6 336 342 131 586 592 381 
6 212 372 315 462 622 565 
6 234 348 347 484 598 597 
6 8 266 51 23 516 99 
6 10 276 58 25 526 106 
6 246 369 321 496 619 571 
6 30 284 0 78 534 15 
6 65 286 13 113 536 28 
6 58 242 11 106 492 26 
6 266 357 51 516 607 99 
6 255 368 328 505 618 578 
6 347 348 242 597 598 492 
6 322 363 287 572 613 537 
6 323 363 322 573 613 572 
6 335 367 239 585 617 489 
6 30 361 284 78 611 534 
6 65 362 286 113 612 536 
6 237 365 282 487 615 532 
6 130 359 358 380 609 608 
6 343 375 174 593 625 424 
6 354 371 127 604 621 377 
6 328 371 354 578 621 604 
6 358 359 274 608 609 524 
6 0 284 36 15 534 84 
6 45 266 8 93 516 23 
6 52 276 10 100 526 25 
6 11 242 64 26 492 112 
6 13 286 71 28 536 119 
6 2 323 3 17 573 18 
6 31 323 2 79 573 17 
6 323 341 3 573 591 18 
6 37 340 4 85 590 19 
6 4 340 43 19 590 91 
6 38 338 5 86 588 20 
6 5 338 44 20 588 92 
6 6 282 7 21 532 22 
6 6 339 282 21 589 532 
6 282 365 7 532 615 22 

CELL_TYPES 563
13
13
13
13
13
13
13
13
13
13
13
13
13
13
13
13
13
13
13
13
13
13
13
13
13
13
13
13
13
13
13
13
13
13
13
13
13
13
13
13
13
13
13
13
13
13
13
13
13
13
13
13
13
13
13
13
13
13
13
13
13
13
13
13
13
13
13
13
13
13
13
13
13
13
13
13
13
13
13
13
13
13
13
13
13
13
13
13
13
13
13
13
13
13
13
13
13
13
13
13
13
13
13
13
13
13
13
13
13
13
13
13
13
13
13
13
13
13
13
13
13
13
13
13
13
13
13
13
13
13
13
13
13
13
13
13
13
13
13
13
13
13
13
13
13
13
13
13
13
13
13
13
13
13
13
13
13
13
13
13
13
13
13
13
13
13
13
13
13
13
13
13
13
13
13
13
13
13
13
13
13
13
13
13
13
13
13
13
13
13
13
13
13
13
13
13
13
13
13
13
13
13
13
13
13
13
13
13
13
13
13
13
13
13
13
13
13
13
13
13
13
13
13
13
13
13
13
13
13
13
13
13
13
13
13
13
13
13
13
13
13
13
13
13
13
13
13
13
13
13
13
13
13
13
13
13
13
13
13
13
13
13
13
13
13
13
13
13
13
13
13
13
13
13
13
13
13
13
13
13
13
13
13
13
13
13
13
13
13
13
13
13
13
13
13
13
13
13
13
13
13
13
13
13
13
13
13
13
13
13
13
13
13
13
13
13
13
13
13
13
13
13
13
13
13
13
13
13
13
13
13
13
13
13
13
13
13
13
13
13
13
13
13
13
13
13
13
13
13
13
13
13
13
13
13
13
13
13
13
13
13
13
13
13
13
13
13
13
13
13
13
13
13
13
13
13
13
13
13
13
13
13
13
13
13
13
13
13
13
13
13
13
13
13
13
13
13
13
13
13
13
13
13
13
13
13
13
13
13
13
13
13
13
13
13
13
13
13
13
13
13
13
13
13
13
13
13
13
13
13
13
13
13
13
13
13
13
13
13
13
13
13
13
13
13
13
13
13
13
13
13
13
13
13
13
13
13
13
13
13
13
13
13
13
13
13
13
13
13
13
13
13
13
13
13
13
13
13
13
13
13
13
13
13
13
13
13
13
13
13
13
13
13
13
13
13
13
13
13
13
13
13
13
13
13
13
13
13
13
13
13
13
13
13
13
13
13
13
13
13
13
13
13
13
13
13
13
13
13
13
13
13
13
13
13
13
13
13
13
13
13
13
13
13
13
13
13
13
13
13
13
13
13
13
13
13
13
13
13
13
13
13
13

POINT_DATA 626
VECTORS displacement float
-1.74395e-06 3.09541e-05 1.80548e-05
1.73566e-06 3.09731e-05 1.80999e-05
-2.5986e-05 1.69927e-05 1.80869e-05
-2.58406e-05 1.60328e-05 1.80515e-05
-2.77204e-05 1.39726e-05 1.80689e-05
-2.77133e-05 -1.40189e-05 1.80943e-05
-2.58118e-05 -1.6071e-05 1.81057e-05
-2.59822e-05 -1.70107e-05 1.81669e-05
-1.67741e-06 -3.09578e-05 1.80512e-05
1.75545e-06 -3.09593e-05 1.81017e-05
2.59433e-05 -1.69805e-05 1.80433e-05
2.77167e-05 -1.39365e-05 1.80432e-05
2.76721e-05 1.39892e-05 1.80915e-05
2.59146e-05 1.69928e-05 1.80459e-05
0 0 0
-1.74395e-06 3.09541e-05 -1.80548e-05
1.73566e-06 3.09731e-05 -1.80999e-05
-2.5986e-05 1.69927e-05 -1.80869e-05
-2.58406e-05 1.60328e-05 -1.80515e-05
-2.77204e-05 1.39726e-05 -1.80689e-05
-2.77133e-05 -1.40189e-05 -1.80943e-05
-2.58118e-05 -1.6071e-05 -1.81057e-05
-2.59822e-05 -1.70107e-05 -1.81669e-05
-1.67741e-06 -3.09578e-05 -1.80512e-05
1.75545e-06 -3.09593e-05 -1.81017e-05
2.59433e-05 -1.69805e-05 -1.80433e-05
2.77167e-05 -1.39365e-05 -1.80432e-05
2.76721e-05 1.39892e-05 -1.80915e-05
2.59146e-05 1.69928e-05 -1.80459e-05
0 0 0
2.48958e-08 3.0154e-05 1.8034e-05
-2.11403e-05 1.87122e-05 1.75495e-05
-1.72322e-05 1.98335e-05 1.69206e-05
-1.40067e-05 2.10539e-05 1.65547e-05
-1.12067e-05 2.26645e-05 1.65485e-05
-8.52398e-06 2.48325e-05 1.69011e-05
-5.56776e-06 2.76213e-05 1.75372e-05
-2.64495e-05 1.46789e-05 1.80333e-05
-2.67684e-05 -9.01136e-06 1.75772e-05
-2.58059e-05 -5.03536e-06 1.69257e-05
-2.52541e-05 -1.63617e-06 1.65712e-05
-2.5257e-05 1.60781e-06 1.65741e-05
-2.57981e-05 5.02276e-06 1.69239e-05
-2.67546e-05 8.98445e-06 1.75637e-05
-2.64364e-05 -1.47253e-05 1.80621e-05
-5.54102e-06 -2.76358e-05 1.75294e-05
-8.4765e-06 -2.48415e-05 1.69004e-05
-1.11699e-05 -2.26839e-05 1.65559e-05
-1.39704e-05 -2.10869e-05 1.65593e-05
-1.72147e-05 -1.98689e-05 1.69364e-05
-2.11339e-05 -1.8749e-05 1.7562e-05
8.98419e-08 -3.01387e-05 1.80292e-05
2.11237e-05 -1.86246e-05 1.75112e-05
1.72444e-05 -1.97619e-05 1.68726e-05
1.40336e-05 -2.10109e-05 1.65113e-05
1.12249e-05 -2.25926e-05 1.65459e-05
8.58114e-06 -2.47797e-05 1.68739e-05
5.65464e-06 -2.7626e-05 1.75348e-05
2.61242e-05 -1.50595e-05 1.80282e-05
2.67165e-05 8.93824e-06 1.75013e-05
2.57217e-05 5.04949e-06 1.69081e-05
2.52062e-05 1.62328e-06 1.65229e-05
2.52033e-05 -1.59939e-06 1.65212e-05
2.57503e-05 -4.99728e-06 1.68881e-05
2.66985e-05 -8.91699e-06 1.75095e-05
2.61073e-05 1.50606e-05 1.80252e-05
5.6331e-06 2.76174e-05 1.75093e-05
8.50852e-06 2.48064e-05 1.69109e-05
1.12169e-05 2.26407e-05 1.65291e-05
1.40043e-05 2.10218e-05 1.65245e-05
1.72214e-05 1.97932e-05 1.68848e-05
2.11147e-05 1.86342e-05 1.75252e-05
0 0 0
0 0 0
0 0 0
0 0 0
0 0 0
0 0 0
2.48958e-08 3.0154e-05 -1.8034e-05
-2.11403e-05 1.87122e-05 -1.75495e-05
-1.72322e-05 1.98335e-05 -1.69206e-05
-1.40067e-05 2.10539e-05 -1.65547e-05
-1.12067e-05 2.26645e-05 -1.65485e-05
-8.52398e-06 2.48325e-05 -1.69011e-05
-5.56776e-06 2.76213e-05 -1.75372e-05
-2.64495e-05 1.46789e-05 -1.80333e-05
-2.67684e-05 -9.01136e-06 -1.75772e-05
-2.58059e-05 -5.03536e-06 -1.69257e-05
-2.52541e-05 -1.63617e-06 -1.65712e-05
-2.5257e-05 1.60781e-06 -1.65741e-05
-2.57981e-05 5.02276e-06 -1.69239e-05
-2.67546e-05 8.98445e-06 -1.75637e-05
-2.64364e-05 -1.47253e-05 -1.80621e-05
-5.54102e-06 -2.76358e-05 -1.75294e-05
-8.4765e-06 -2.48415e-05 -1.69004e-05
-1.11699e-05 -2.26839e-05 -1.65559e-05
-1.39704e-05 -2.10869e-05 -1.65593e-05
-1.72147e-05 -1.98689e-05 -1.69364e-05
-2.11339e-05 -1.8749e-05 -1.7562e-05
8.98419e-08 -3.01387e-05 -1.80292e-05
2.11237e-05 -1.86246e-05 -1.75112e-05
1.72444e-05 -1.97619e-05 -1.68726e-05
1.40336e-05 -2.10109e-05 -1.65113e-05
1.12249e-05 -2.25926e-05 -1.65459e-05
8.58114e-06 -2.47797e-05 -1.68739e-05
5.65464e-06 -2.7626e-05 -1.75348e-05
2.61242e-05 -1.50595e-05 -1.80282e-05
2.67165e-05 8.93824e-06 -1.75013e-05
2.57217e-05 5.04949e-06 -1.69081e-05
2.52062e-05 1.62328e-06 -1.65229e-05
2.52033e-05 -1.59939e-06 -1.65212e-05
2.57503e-05 -4.99728e-06 -1.68881e-05
2.66985e-05 -8.91699e-06 -1.75095e-05
2.61073e-05 1.50606e-05 -1.80252e-05
5.6331e-06 2.76174e-05 -1.75093e-05
8.50852e-06 2.48064e-05 -1.69109e-05
1.12169e-05 2.26407e-05 -1.65291e-05
1.40043e-05 2.10218e-05 -1.65245e-05
1.72214e-05 1.97932e-05 -1.68848e-05
2.11147e-05 1.86342e-05 -1.75252e-05
0 0 0
0 0 0
0 0 0
0 0 0
0 0 0
0 0 0
1.79366e-06 8.58735e-07 4.55217e-06
1.7378e-06 -8.25104e-07 4.46072e-06
4.31948e-07 1.8496e-06 4.49504e-06
4.36092e-07 -1.78061e-06 4.35601e-06
-1.84746e-06 2.09628e-08 4.42229e-06
-1.12307e-06 -1.30886e-06 4.15093e-06
-1.15919e-06 1.30678e-06 4.19971e-06
-2.25127e-05 -7.28754e-06 1.69997e-05
-2.2196e-05 7.37143e-06 1.69683e-05
-4.86038e-06 2.28981e-05 1.69368e-05
-4.85789e-06 -2.31312e-05 1.69636e-05
1.74209e-05 1.56352e-05 1.69296e-05
1.75685e-05 -1.55362e-05 1.69389e-05
2.10731e-05 3.16382e-06 1.63241e-05
-1.39529e-05 1.7151e-05 1.64781e-05
-1.35909e-05 -1.6741e-05 1.64096e-05
7.76772e-06 1.98192e-05 1.63309e-05
7.68474e-06 -2.03096e-05 1.64022e-05
2.14719e-05 -3.44366e-06 1.63999e-05
-2.11023e-05 6.58808e-09 1.62464e-05
-2.242e-05 1.09996e-05 1.74534e-05
-1.87506e-05 9.25454e-06 1.66268e-05
-1.79824e-05 5.79534e-06 1.6036e-05
-1.49837e-05 7.4482e-06 1.5486e-05
-1.42242e-05 4.30764e-06 1.48293e-05
-1.15324e-05 5.74378e-06 1.40944e-05
-1.08578e-05 3.06868e-06 1.33732e-05
-8.40034e-06 4.3048e-06 1.2404e-05
-9.05864e-06 7.01328e-06 1.3456e-05
-6.20399e-06 5.48841e-06 1.16887e-05
-6.82818e-06 8.24929e-06 1.30796e-05
-4.28132e-06 6.67479e-06 1.14502e-05
-4.79992e-06 9.60975e-06 1.30935e-05
-2.40083e-06 7.9932e-06 1.17226e-05
-2.8128e-06 1.1167e-05 1.34745e-05
-4.75401e-07 9.59512e-06 1.25006e-05
-7.3834e-07 1.29967e-05 1.41414e-05
1.73105e-06 1.15176e-05 1.35346e-05
-5.53458e-06 1.27001e-05 1.44366e-05
1.68505e-06 8.22383e-06 1.17472e-05
4.00411e-06 1.01207e-05 1.31506e-05
3.70529e-06 7.09783e-06 1.14779e-05
6.0673e-06 8.96651e-06 1.3113e-05
5.76672e-06 6.10668e-06 1.17352e-05
8.35793e-06 8.02018e-06 1.34917e-05
8.10551e-06 5.19517e-06 1.25e-05
1.09538e-05 7.09692e-06 1.41466e-05
1.07458e-05 4.32272e-06 1.34987e-05
8.53037e-06 1.10373e-05 1.44604e-05
7.93755e-06 2.6437e-06 1.17271e-05
1.06458e-05 1.73717e-06 1.31037e-05
7.94855e-06 3.58754e-07 1.14552e-05
1.08062e-05 -7.59099e-07 1.31238e-05
8.1115e-06 -1.93777e-06 1.17088e-05
1.10981e-05 -3.31279e-06 1.34835e-05
8.46959e-06 -4.4239e-06 1.24437e-05
1.15035e-05 -6.00277e-06 1.4109e-05
8.95541e-06 -7.13798e-06 1.34277e-05
6.14742e-06 -5.49432e-06 1.1641e-05
6.64438e-06 -8.30072e-06 1.30179e-05
4.10513e-06 -6.5884e-06 1.13106e-05
4.52328e-06 -9.5507e-06 1.29879e-05
2.24226e-06 -7.85815e-06 1.1597e-05
2.48479e-06 -1.10017e-05 1.33506e-05
2.25288e-07 -9.37353e-06 1.23533e-05
3.30009e-07 -1.27696e-05 1.40335e-05
-1.9154e-06 -1.11505e-05 1.33767e-05
-1.84104e-06 -7.92149e-06 1.15819e-05
-4.16783e-06 -9.87468e-06 1.30847e-05
-3.81388e-06 -6.73039e-06 1.13168e-05
-6.34551e-06 -8.66187e-06 1.3099e-05
-5.8912e-06 -5.69792e-06 1.16281e-05
-8.49958e-06 -7.43567e-06 1.33793e-05
-8.16741e-06 -4.72798e-06 1.24083e-05
-1.10955e-05 -6.40266e-06 1.40696e-05
-4.37158e-06 -1.3123e-05 1.44333e-05
-1.08087e-05 -3.65062e-06 1.34389e-05
7.226e-06 -1.13726e-05 1.42726e-05
-7.74158e-06 1.98265e-06 1.14926e-05
-1.32159e-05 1.03504e-06 1.42106e-05
1.7291e-06 1.50826e-05 1.49519e-05
1.37678e-05 4.62229e-07 1.43875e-05
1.38429e-05 6.1e-06 1.49314e-05
-9.6939e-06 1.01961e-05 1.45322e-05
-5.41593e-06 -3.19761e-06 1.01819e-05
-1.17134e-05 -9.29719e-06 1.48889e-05
1.18822e-05 -8.76007e-06 1.47868e-05
1.47815e-05 -7.47348e-06 1.54031e-05
-1.39595e-05 -5.24381e-06 1.48614e-05
2.79578e-06 -1.45159e-05 1.47959e-05
4.24558e-07 -1.64992e-05 1.53975e-05
3.51839e-06 4.39688e-06 9.58092e-06
1.40104e-05 9.29891e-06 1.54913e-05
1.79305e-05 8.14483e-06 1.63003e-05
-1.56752e-05 1.13952e-05 1.62332e-05
-1.09407e-06 1.67688e-05 1.5495e-05
1.90684e-06 1.96213e-05 1.63107e-05
-2.09184e-06 5.22001e-06 9.59742e-06
5.55387e-06 -7.84593e-07 9.59397e-06
3.58591e-06 -3.68351e-06 9.08181e-06
-1.77961e-06 -5.1785e-06 9.44944e-06
-2.24685e-05 -1.10107e-05 1.74741e-05
-1.87979e-05 -9.24128e-06 1.66508e-05
2.11475e-05 1.41646e-05 1.75054e-05
2.07535e-05 -1.43174e-05 1.74354e-05
-1.76459e-06 -2.54462e-05 1.75107e-05
-1.68212e-06 2.54102e-05 1.75154e-05
1.77127e-05 -1.19067e-05 1.66869e-05
2.06454e-05 -1.07509e-05 1.71158e-05
3.77559e-06 -1.89848e-05 1.61392e-05
7.68523e-07 -2.03455e-05 1.64826e-05
-1.94048e-05 -1.26504e-05 1.71429e-05
-1.37309e-05 -2.30689e-06 1.44716e-05
-1.65924e-05 -3.70137e-06 1.54773e-05
-1.03757e-05 -1.09637e-06 1.29518e-05
2.44517e-05 1.10726e-05 1.76514e-05
2.54973e-05 -1.24031e-05 1.7848e-05
2.64923e-06 2.67256e-05 1.76603e-05
2.52099e-06 -2.64132e-05 1.76292e-05
3.33943e-06 -2.30316e-05 1.70289e-05
-2.05386e-06 -1.83196e-05 1.59506e-05
4.05903e-06 2.3791e-05 1.71302e-05
2.26138e-05 8.37911e-06 1.7119e-05
4.61353e-06 1.73131e-05 1.5727e-05
1.44268e-05 -1.31192e-05 1.61371e-05
-1.57874e-05 -1.09846e-05 1.62143e-05
-1.67995e-05 -3.81421e-07 1.53771e-05
1.73056e-05 4.6874e-06 1.57254e-05
6.55212e-08 -6.38721e-06 1.02672e-05
1.74169e-06 -4.84838e-06 9.09232e-06
5.85037e-06 -2.93546e-06 1.0378e-05
-2.14438e-05 3.75043e-06 1.64586e-05
5.72926e-06 -1.62742e-05 1.55074e-05
9.0833e-06 -1.74987e-05 1.59972e-05
1.75719e-05 1.18815e-05 1.66721e-05
1.3994e-05 -1.6382e-05 1.6401e-05
1.07398e-05 -1.37887e-05 1.55498e-05
-3.54791e-06 -4.22012e-06 9.50058e-06
5.39903e-06 1.13848e-06 9.49886e-06
5.21796e-06 3.22282e-06 1.0047e-05
-1.74978e-06 -2.83541e-05 1.78766e-05
1.89203e-06 5.2988e-06 9.58426e-06
-1.13821e-07 6.1049e-06 1.00385e-05
-3.78486e-06 4.12767e-06 9.57822e-06
-5.62258e-06 3.03413e-06 1.0285e-05
-5.16538e-06 1.04066e-06 9.21343e-06
-7.52711e-06 -6.1738e-08 1.11722e-05
-4.3343e-06 -8.10265e-07 8.38169e-06
-3.10854e-06 1.87231e-06 7.37392e-06
-2.20807e-05 -3.60767e-06 1.65155e-05
2.34058e-05 -1.56877e-05 1.78359e-05
-1.50717e-06 2.11675e-05 1.66818e-05
2.12612e-05 -8.45178e-08 1.62255e-05
1.76217e-05 -1.64677e-06 1.55811e-05
1.73474e-05 -4.94158e-06 1.57704e-05
2.18912e-05 -7.45096e-06 1.69133e-05
-2.31818e-05 -1.42543e-05 1.78325e-05
1.73243e-05 1.64884e-06 1.55083e-05
-1.73399e-06 2.84726e-05 1.78939e-05
-4.22065e-07 3.68336e-06 7.49516e-06
2.37716e-05 1.57421e-05 1.78843e-05
-1.7497e-05 1.5642e-05 1.69747e-05
-1.0626e-05 -1.84658e-05 1.62548e-05
-1.00994e-05 -1.4342e-05 1.55714e-05
-7.50763e-06 -1.60945e-05 1.56218e-05
-7.322e-06 -2.01201e-05 1.6395e-05
-1.07042e-05 1.85349e-05 1.62665e-05
-1.03471e-05 1.43838e-05 1.56191e-05
-7.77251e-06 2.0492e-05 1.6444e-05
-4.25292e-06 1.86093e-05 1.60527e-05
1.07595e-05 1.83451e-05 1.62259e-05
1.38914e-05 1.69346e-05 1.64307e-05
1.40417e-05 1.29726e-05 1.6051e-05
-7.36144e-06 1.6288e-05 1.56382e-05
1.05249e-05 1.45468e-05 1.56449e-05
7.74861e-06 1.6092e-05 1.56137e-05
-3.11642e-06 -1.89874e-06 7.39305e-06
-7.25751e-06 -1.24218e-05 1.46249e-05
3.00862e-06 4.03596e-08 6.60086e-06
4.87249e-06 1.35225e-05 1.46178e-05
1.40758e-05 -2.26035e-06 1.45702e-05
-1.72895e-05 -1.52165e-05 1.69452e-05
-1.73662e-05 2.42026e-06 1.55975e-05
-1.22045e-05 8.91178e-06 1.49432e-05
-7.7055e-06 -2.29248e-06 1.15544e-05
-1.24496e-05 1.18124e-05 1.55397e-05
-1.42733e-07 -3.75417e-06 7.55405e-06
2.73019e-06 2.27205e-06 7.2518e-06
-2.00383e-06 -1.46502e-05 1.48078e-05
9.36493e-06 -1.00681e-05 1.43891e-05
1.38605e-05 3.15776e-06 1.45658e-05
-7.33991e-06 1.11992e-05 1.426e-05
4.99713e-06 -1.27746e-05 1.4369e-05
1.10317e-05 1.04303e-05 1.49194e-05
-3.59638e-06 1.4685e-05 1.49078e-05
-4.63539e-06 -1.66166e-05 1.55486e-05
-1.95068e-05 1.28923e-05 1.71611e-05
-2.31266e-05 1.4858e-05 1.78432e-05
-1.29047e-05 -1.26859e-05 1.58123e-05
3.76075e-06 -1.5861e-06 7.90682e-06
1.76437e-06 2.92224e-06 7.08432e-06
-9.23033e-06 -1.06093e-05 1.45315e-05
1.72772e-06 -2.82312e-06 6.93095e-06
9.94723e-07 2.41165e-05 1.73083e-05
2.13677e-05 1.11937e-05 1.72985e-05
-1.46644e-05 -7.95326e-06 1.54851e-05
1.37078e-05 -4.78624e-06 1.46904e-05
-1.90986e-06 -2.17626e-05 1.68025e-05
1.80601e-05 -8.41893e-06 1.63405e-05
-1.66787e-05 -6.32847e-06 1.57822e-05
-4.32895e-07 -1.9223e-06 4.7984e-06
-1.80535e-06 2.9954e-06 7.17706e-06
-2.50517e-05 -1.29816e-05 1.79221e-05
-2.51269e-05 -1.45071e-05 1.80019e-05
-2.50449e-05 1.30335e-05 1.79059e-05
-2.51177e-05 1.46498e-05 1.7982e-05
-1.64843e-06 -3.12481e-06 7.2098e-06
6.32785e-06 1.13682e-05 1.40763e-05
5.33707e-07 -2.40858e-05 1.73021e-05
-5.22772e-07 1.80952e-06 4.64494e-06
7.40735e-06 -1.43435e-05 1.51521e-05
2.33026e-05 -1.32092e-05 1.77287e-05
2.36324e-05 -1.05374e-05 1.74907e-05
1.19882e-05 -1.82107e-05 1.62931e-05
1.47299e-05 -1.01465e-05 1.57954e-05
-1.00269e-05 1.00123e-06 1.27544e-05
-1.73999e-06 -8.15893e-07 4.72338e-06
7.69055e-07 3.70831e-06 7.57303e-06
2.34305e-06 -1.99714e-06 6.55519e-06
2.01562e-05 5.89773e-06 1.64534e-05
5.07003e-06 2.05957e-05 1.64958e-05
3.42117e-07 -2.76797e-05 1.78539e-05
-1.73121e-06 7.09104e-07 4.60626e-06
-3.21147e-06 6.23041e-07 6.82404e-06
3.57717e-06 1.47539e-06 7.63651e-06
4.99224e-07 2.83235e-05 1.79271e-05
2.47601e-05 1.37339e-05 1.79183e-05
-2.03281e-05 1.55356e-05 1.74289e-05
1.17869e-06 1.36446e-06 4.45979e-06
-2.06393e-05 -1.57282e-05 1.75275e-05
-1.89986e-05 -2.32215e-06 1.5946e-05
-1.95589e-05 -5.5849e-06 1.63321e-05
9.05672e-07 -3.24772e-06 7.006e-06
-4.36597e-06 -1.9789e-05 1.63217e-05
-7.93717e-06 1.38342e-05 1.51009e-05
1.16574e-06 -1.30417e-06 4.33923e-06
1.19343e-05 -1.12282e-05 1.5292e-05
6.133e-06 -2.26958e-05 1.68203e-05
-1.45219e-05 1.43552e-05 1.63235e-05
7.92896e-06 1.3321e-05 1.49478e-05
1.79366e-06 8.58735e-07 -4.55217e-06
1.7378e-06 -8.25104e-07 -4.46072e-06
4.31948e-07 1.8496e-06 -4.49504e-06
4.36092e-07 -1.78061e-06 -4.35601e-06
-1.84746e-06 2.09628e-08 -4.42229e-06
-1.12307e-06 -1.30886e-06 -4.15093e-06
-1.15919e-06 1.30678e-06 -4.19971e-06
-2.25127e-05 -7.28754e-06 -1.69997e-05
-2.2196e-05 7.37143e-06 -1.69683e-05
-4.86038e-06 2.28981e-05 -1.69368e-05
-4.85789e-06 -2.31312e-05 -1.69636e-05
1.74209e-05 1.56352e-05 -1.69296e-05
1.75685e-05 -1.55362e-05 -1.69389e-05
2.10731e-05 3.16382e-06 -1.63241e-05
-1.39529e-05 1.7151e-05 -1.64781e-05
-1.35909e-05 -1.6741e-05 -1.64096e-05
7.76772e-06 1.98192e-05 -1.63309e-05
7.68474e-06 -2.03096e-05 -1.64022e-05
2.14719e-05 -3.44366e-06 -1.63999e-05
-2.11023e-05 6.58808e-09 -1.62464e-05
-2.242e-05 1.09996e-05 -1.74534e-05
-1.87506e-05 9.25454e-06 -1.66268e-05
-1.79824e-05 5.79534e-06 -1.6036e-05
-1.49837e-05 7.4482e-06 -1.5486e-05
-1.42242e-05 4.30764e-06 -1.48293e-05
-1.15324e-05 5.74378e-06 -1.40944e-05
-1.08578e-05 3.06868e-06 -1.33732e-05
-8.40034e-06 4.3048e-06 -1.2404e-05
-9.05864e-06 7.01328e-06 -1.3456e-05
-6.20399e-06 5.48841e-06 -1.16887e-05
-6.82818e-06 8.24929e-06 -1.30796e-05
-4.28132e-06 6.67479e-06 -1.14502e-05
-4.79992e-06 9.60975e-06 -1.30935e-05
-2.40083e-06 7.9932e-06 -1.17226e-05
-2.8128e-06 1.1167e-05 -1.34745e-05
-4.75401e-07 9.59512e-06 -1.25006e-05
-7.3834e-07 1.29967e-05 -1.41414e-05
1.73105e-06 1.15176e-05 -1.35346e-05
-5.53458e-06 1.27001e-05 -1.44366e-05
1.68505e-06 8.22383e-06 -1.17472e-05
4.00411e-06 1.01207e-05 -1.31506e-05
3.70529e-06 7.09783e-06 -1.14779e-05
6.0673e-06 8.96651e-06 -1.3113e-05
5.76672e-06 6.10668e-06 -1.17352e-05
8.35793e-06 8.02018e-06 -1.34917e-05
8.10551e-06 5.19517e-06 -1.25e-05
1.09538e-05 7.09692e-06 -1.41466e-05
1.07458e-05 4.32272e-06 -1.34987e-05
8.53037e-06 1.10373e-05 -1.44604e-05
7.93755e-06 2.6437e-06 -1.17271e-05
1.06458e-05 1.73717e-06 -1.31037e-05
7.94855e-06 3.58754e-07 -1.14552e-05
1.08062e-05 -7.59099e-07 -1.31238e-05
8.1115e-06 -1.93777e-06 -1.17088e-05
1.10981e-05 -3.31279e-06 -1.34835e-05
8.46959e-06 -4.4239e-06 -1.24437e-05
1.15035e-05 -6.00277e-06 -1.4109e-05
8.95541e-06 -7.13798e-06 -1.34277e-05
6.14742e-06 -5.49432e-06 -1.1641e-05
6.64438e-06 -8.30072e-06 -1.30179e-05
4.10513e-06 -6.5884e-06 -1.13106e-05
4.52328e-06 -9.5507e-06 -1.29879e-05
2.24226e-06 -7.85815e-06 -1.1597e-05
2.48479e-06 -1.10017e-05 -1.33506e-05
2.25288e-07 -9.37353e-06 -1.23533e-05
3.30009e-07 -1.27696e-05 -1.40335e-05
-1.9154e-06 -1.11505e-05 -1.33767e-05
-1.84104e-06 -7.92149e-06 -1.15819e-05
-4.16783e-06 -9.87468e-06 -1.30847e-05
-3.81388e-06 -6.73039e-06 -1.13168e-05
-6.34551e-06 -8.66187e-06 -1.3099e-05
-5.8912e-06 -5.69792e-06 -1.16281e-05
-8.49958e-06 -7.43567e-06 -1.33793e-05
-8.16741e-06 -4.72798e-06 -1.24083e-05
-1.10955e-05 -6.40266e-06 -1.40696e-05
-4.37158e-06 -1.3123e-05 -1.44333e-05
-1.08087e-05 -3.65062e-06 -1.34389e-05
7.226e-06 -1.13726e-05 -1.42726e-05
-7.74158e-06 1.98265e-06 -1.14926e-05
-1.32159e-05 1.03504e-06 -1.42106e-05
1.7291e-06 1.50826e-05 -1.49519e-05
1.37678e-05 4.62229e-07 -1.43875e-05
1.38429e-05 6.1e-06 -1.49314e-05
-9.6939e-06 1.01961e-05 -1.45322e-05
-5.41593e-06 -3.19761e-06 -1.01819e-05
-1.17134e-05 -9.29719e-06 -1.48889e-05
1.18822e-05 -8.76007e-06 -1.47868e-05
1.47815e-05 -7.47348e-06 -1.54031e-05
-1.39595e-05 -5.24381e-06 -1.48614e-05
2.79578e-06 -1.45159e-05 -1.47959e-05
4.24558e-07 -1.64992e-05 -1.53975e-05
3.51839e-06 4.39688e-06 -9.58092e-06
1.40104e-05 9.29891e-06 -1.54913e-05
1.79305e-05 8.14483e-06 -1.63003e-05
-1.56752e-05 1.13952e-05 -1.62332e-05
-1.09407e-06 1.67688e-05 -1.5495e-05
1.90684e-06 1.96213e-05 -1.63107e-05
-2.09184e-06 5.22001e-06 -9.59742e-06
5.55387e-06 -7.84593e-07 -9.59397e-06
3.58591e-06 -3.68351e-06 -9.08181e-06
-1.77961e-06 -5.1785e-06 -9.44944e-06
-2.24685e-05 -1.10107e-05 -1.74741e-05
-1.87979e-05 -9.24128e-06 -1.66508e-05
2.11475e-05 1.41646e-05 -1.75054e-05
2.07535e-05 -1.43174e-05 -1.74354e-05
-1.76459e-06 -2.54462e-05 -1.75107e-05
-1.68212e-06 2.54102e-05 -1.75154e-05
1.77127e-05 -1.19067e-05 -1.66869e-05
2.06454e-05 -1.07509e-05 -1.71158e-05
3.77559e-06 -1.89848e-05 -1.61392e-05
7.68523e-07 -2.03455e-05 -1.64826e-05
-1.94048e-05 -1.26504e-05 -1.71429e-05
-1.37309e-05 -2.30689e-06 -1.44716e-05
-1.65924e-05 -3.70137e-06 -1.54773e-05
-1.03757e-05 -1.09637e-06 -1.29518e-05
2.44517e-05 1.10726e-05 -1.76514e-05
2.54973e-05 -1.24031e-05 -1.7848e-05
2.64923e-06 2.67256e-05 -1.76603e-05
2.52099e-06 -2.64132e-05 -1.76292e-05
3.33943e-06 -2.30316e-05 -1.70289e-05
-2.05386e-06 -1.83196e-05 -1.59506e-05
4.05903e-06 2.3791e-05 -1.71302e-05
2.26138e-05 8.37911e-06 -1.7119e-05
4.61353e-06 1.73131e-05 -1.5727e-05
1.44268e-05 -1.31192e-05 -1.61371e-05
-1.57874e-05 -1.09846e-05 -1.62143e-05
-1.67995e-05 -3.81421e-07 -1.53771e-05
1.73056e-05 4.6874e-06 -1.57254e-05
6.55212e-08 -6.38721e-06 -1.02672e-05
1.74169e-06 -4.84838e-06 -9.09232e-06
5.85037e-06 -2.93546e-06 -1.0378e-05
-2.14438e-05 3.75043e-06 -1.64586e-05
5.72926e-06 -1.62742e-05 -1.55074e-05
9.0833e-06 -1.74987e-05 -1.59972e-05
1.75719e-05 1.18815e-05 -1.66721e-05
1.3994e-05 -1.6382e-05 -1.6401e-05
1.07398e-05 -1.37887e-05 -1.55498e-05
-3.54791e-06 -4.22012e-06 -9.50058e-06
5.39903e-06 1.13848e-06 -9.49886e-06
5.21796e-06 3.22282e-06 -1.0047e-05
-1.74978e-06 -2.83541e-05 -1.78766e-05
1.89203e-06 5.2988e-06 -9.58426e-06
-1.13821e-07 6.1049e-06 -1.00385e-05
-3.78486e-06 4.12767e-06 -9.57822e-06
-5.62258e-06 3.03413e-06 -1.0285e-05
-5.16538e-06 1.04066e-06 -9.21343e-06
-7.52711e-06 -6.1738e-08 -1.11722e-05
-4.3343e-06 -8.10265e-07 -8.38169e-06
-3.10854e-06 1.87231e-06 -7.37392e-06
-2.20807e-05 -3.60767e-06 -1.65155e-05
2.34058e-05 -1.56877e-05 -1.78359e-05
-1.50717e-06 2.11675e-05 -1.66818e-05
2.12612e-05 -8.45178e-08 -1.62255e-05
1.76217e-05 -1.64677e-06 -1.55811e-05
1.73474e-05 -4.94158e-06 -1.57704e-05
2.18912e-05 -7.45096e-06 -1.69133e-05
-2.31818e-05 -1.42543e-05 -1.78325e-05
1.73243e-05 1.64884e-06 -1.55083e-05
-1.73399e-06 2.84726e-05 -1.78939e-05
-4.22065e-07 3.68336e-06 -7.49516e-06
2.37716e-05 1.57421e-05 -1.78843e-05
-1.7497e-05 1.5642e-05 -1.69747e-05
-1.0626e-05 -1.84658e-05 -1.62548e-05
-1.00994e-05 -1.4342e-05 -1.55714e-05
-7.50763e-06 -1.60945e-05 -1.56218e-05
-7.322e-06 -2.01201e-05 -1.6395e-05
-1.07042e-05 1.85349e-05 -1.62665e-05
-1.03471e-05 1.43838e-05 -1.56191e-05
-7.77251e-06 2.0492e-05 -1.6444e-05
-4.25292e-06 1.86093e-05 -1.60527e-05
1.07595e-05 1.83451e-05 -1.62259e-05
1.38914e-05 1.69346e-05 -1.64307e-05
1.40417e-05 1.29726e-05 -1.6051e-05
-7.36144e-06 1.6288e-05 -1.56382e-05
1.05249e-05 1.45468e-05 -1.56449e-05
7.74861e-06 1.6092e-05 -1.56137e-05
-3.11642e-06 -1.89874e-06 -7.39305e-06
-7.25751e-06 -1.24218e-05 -1.46249e-05
3.00862e-06 4.03596e-08 -6.60086e-06
4.87249e-06 1.35225e-05 -1.46178e-05
1.40758e-05 -2.26035e-06 -1.45702e-05
-1.72895e-05 -1.52165e-05 -1.69452e-05
-1.73662e-05 2.42026e-06 -1.55975e-05
-1.22045e-05 8.91178e-06 -1.49432e-05
-7.7055e-06 -2.29248e-06 -1.15544e-05
-1.24496e-05 1.18124e-05 -1.55397e-05
-1.42733e-07 -3.75417e-06 -7.55405e-06
2.73019e-06 2.27205e-06 -7.2518e-06
-2.00383e-06 -1.46502e-05 -1.48078e-05
9.36493e-06 -1.00681e-05 -1.43891e-05
1.38605e-05 3.15776e-06 -1.45658e-05
-7.33991e-06 1.11992e-05 -1.426e-05
4.99713e-06 -1.27746e-05 -1.4369e-05
1.10317e-05 1.04303e-05 -1.49194e-05
-3.59638e-06 1.4685e-05 -1.49078e-05
-4.63539e-06 -1.66166e-05 -1.55486e-05
-1.95068e-05 1.28923e-05 -1.71611e-05
-2.31266e-05 1.4858e-05 -1.78432e-05
-1.29047e-05 -1.26859e-05 -1.58123e-05
3.76075e-06 -1.5861e-06 -7.90682e-06
1.76437e-06 2.92224e-06 -7.08432e-06
-9.23033e-06 -1.06093e-05 -1.45315e-05
1.72772e-06 -2.82312e-06 -6.93095e-06
9.94723e-07 2.41165e-05 -1.73083e-05
2.13677e-05 1.11937e-05 -1.72985e-05
-1.46644e-05 -7.95326e-06 -1.54851e-05
1.37078e-05 -4.78624e-06 -1.46904e-05
-1.90986e-06 -2.17626e-05 -1.68025e-05
1.80601e-05 -8.41893e-06 -1.63405e-05
-1.66787e-05 -6.32847e-06 -1.57822e-05
-4.32895e-07 -1.9223e-06 -4.7984e-06
-1.80535e-06 2.9954e-06 -7.17706e-06
-2.50517e-05 -1.29816e-05 -1.79221e-05
-2.51269e-05 -1.45071e-05 -1.80019e-05
-2.50449e-05 1.30335e-05 -1.79059e-05
-2.51177e-05 1.46498e-05 -1.7982e-05
-1.64843e-06 -3.12481e-06 -7.2098e-06
6.32785e-06 1.13682e-05 -1.40763e-05
5.33707e-07 -2.40858e-05 -1.73021e-05
-5.22772e-07 1.80952e-06 -4.64494e-06
7.40735e-06 -1.43435e-05 -1.51521e-05
2.33026e-05 -1.32092e-05 -1.77287e-05
2.36324e-05 -1.05374e-05 -1.74907e-05
1.19882e-05 -1.82107e-05 -1.62931e-05
1.47299e-05 -1.01465e-05 -1.57954e-05
-1.00269e-05 1.00123e-06 -1.27544e-05
-1.73999e-06 -8.15893e-07 -4.72338e-06
7.69055e-07 3.70831e-06 -7.57303e-06
2.34305e-06 -1.99714e-06 -6.55519e-06
2.01562e-05 5.89773e-06 -1.64534e-05
5.07003e-06 2.05957e-05 -1.64958e-05
3.42117e-07 -2.76797e-05 -1.78539e-05
-1.73121e-06 7.09104e-07 -4.60626e-06
-3.21147e-06 6.23041e-07 -6.82404e-06
3.57717e-06 1.47539e-06 -7.63651e-06
4.99224e-07 2.83235e-05 -1.79271e-05
2.47601e-05 1.37339e-05 -1.79183e-05
-2.03281e-05 1.55356e-05 -1.74289e-05
1.17869e-06 1.36446e-06 -4.45979e-06
-2.06393e-05 -1.57282e-05 -1.75275e-05
-1.89986e-05 -2.32215e-06 -1.5946e-05
-1.95589e-05 -5.5849e-06 -1.63321e-05
9.05672e-07 -3.24772e-06 -7.006e-06
-4.36597e-06 -1.9789e-05 -1.63217e-05
-7.93717e-06 1.38342e-05 -1.51009e-05
1.16574e-06 -1.30417e-06 -4.33923e-06
1.19343e-05 -1.12282e-05 -1.5292e-05
6.133e-06 -2.26958e-05 -1.68203e-05
-1.45219e-05 1.43552e-05 -1.63235e-05
7.92896e-06 1.3321e-05 -1.49478e-05
SCALARS effective_fluid_pressure_TPM float
LOOKUP_TABLE default
665
665
665
665
665
665
665
665
665
665
665
665
665
665
133
665
665
665
665
665
665
665
665
665
665
665
665
665
665
133
665
560.314
520.657
502.797
502.567
519.783
559.934
665
561.98
520.752
503.239
503.349
520.684
561.602
665
559.601
519.654
502.742
502.959
521.152
561.618
665
558.857
518.998
501.53
502.226
518.848
559.446
665
558.497
519.938
501.862
501.794
519.371
557.937
665
558.654
519.952
502.035
501.896
519.359
559.66
133
133
133
133
133
133
665
560.314
520.657
502.797
502.567
519.783
559.934
665
561.98
520.752
503.239
503.349
520.684
561.602
665
559.601
519.654
502.742
502.959
521.152
561.618
665
558.857
518.998
501.53
502.226
518.848
559.446
665
558.497
519.938
501.862
501.794
519.371
557.937
665
558.654
519.952
502.035
501.896
519.359
559.66
133
133
133
133
133
133
228.253
226.324
227.037
224.106
225.521
219.843
220.859
529.157
528.167
526.546
527.925
526.573
527.627
498.692
503.539
501.578
498.933
501.45
501.231
494.313
562.496
518.971
495.017
480.723
461.343
443.263
425.031
402.105
427.256
385.252
417.724
379.598
417.887
385.936
427.372
404.283
444.366
429.061
450.243
386.546
419.287
380.193
418.298
386.176
427.745
404.211
444.477
428.145
450.839
386.02
418.15
379.609
418.506
385.543
427.581
402.905
443.539
426.437
384.037
416.123
376.293
415.33
383.009
424.403
400.831
441.689
425.211
382.746
417.763
376.558
418.081
383.831
425.251
402.198
442.661
450.633
426.71
445.991
380.718
444.657
465.273
448.725
464.746
453.394
350.894
463.488
461.02
478.427
462.755
460.625
478.331
337.269
480.803
505.836
503.595
480.869
506.142
337.682
337.494
326.158
334.408
563.372
519.647
567.573
562.359
567.89
567.744
521.795
542.708
498.607
513.72
542.052
451.436
477.554
414.641
579.515
611.026
579.667
576.028
534.541
494.457
538.215
537.912
485.014
498.093
503.312
473.115
485.061
352.739
326.408
355.168
503.421
477.692
488.335
520.864
502.004
477.89
335.533
335.396
347.691
613.443
337.37
347.562
337.257
353.195
329.181
373.245
310.653
288.782
504.687
608.378
521.085
493.697
478.302
486.331
526.479
600.337
476.539
615.897
291.39
615.795
528.708
494.508
478.209
479.383
501.291
494.815
479.41
502.486
495.15
493.719
502.238
495.224
479.857
480.023
479.025
289.288
454.565
271.937
454.973
453.602
526.989
479.446
465.196
382.088
480.482
292.663
286.076
461.452
449.607
453.95
445.828
448.662
463.577
463.235
479.926
543.448
601.698
487.467
300.295
282.455
452.987
279.157
552.23
551.99
480.749
457.991
526.211
508.162
488.564
233.725
284.552
614.503
636.32
615.137
636.677
285.274
441.313
553.071
230.481
467.524
590.258
566.024
495.788
490.023
410.019
232.115
293.089
271.12
507.87
509.168
607.811
229.659
276.97
294.424
618.875
618.789
558.505
226.518
562.518
488.286
503.37
280.841
504.04
466.351
224.003
473.558
519.556
502.955
462.417
228.253
226.324
227.037
224.106
225.521
219.843
220.859
529.157
528.167
526.546
527.925
526.573
527.627
498.692
503.539
501.578
498.933
501.45
501.231
494.313
562.496
518.971
495.017
480.723
461.343
443.263
425.031
402.105
427.256
385.252
417.724
379.598
417.887
385.936
427.372
404.283
444.366
429.061
450.243
386.546
419.287
380.193
418.298
386.176
427.745
404.211
444.477
428.145
450.839
386.02
418.15
379.609
418.506
385.543
427.581
402.905
443.539
426.437
384.037
416.123
376.293
415.33
383.009
424.403
400.831
441.689
425.211
382.746
417.763
376.558
418.081
383.831
425.251
402.198
442.661
450.633
426.71
445.991
380.718
444.657
465.273
448.725
464.746
453.394
350.894
463.488
461.02
478.427
462.755
460.625
478.331
337.269
480.803
505.836
503.595
480.869
506.142
337.682
337.494
326.158
334.408
563.372
519.647
567.573
562.359
567.89
567.744
521.795
542.708
498.607
513.72
542.052
451.436
477.554
414.641
579.515
611.026
579.667
576.028
534.541
494.457
538.215
537.912
485.014
498.093
503.312
473.115
485.061
352.739
326.408
355.168
503.421
477.692
488.335
520.864
502.004
477.89
335.533
335.396
347.691
613.443
337.37
347.562
337.257
353.195
329.181
373.245
310.653
288.782
504.687
608.378
521.085
493.697
478.302
486.331
526.479
600.337
476.539
615.897
291.39
615.795
528.708
494.508
478.209
479.383
501.291
494.815
479.41
502.486
495.15
493.719
502.238
495.224
479.857
480.023
479.025
289.288
454.565
271.937
454.973
453.602
526.989
479.446
465.196
382.088
480.482
292.663
286.076
461.452
449.607
453.95
445.828
448.662
463.577
463.235
479.926
543.448
601.698
487.467
300.295
282.455
452.987
279.157
552.23
551.99
480.749
457.991
526.211
508.162
488.564
233.725
284.552
614.503
636.32
615.137
636.677
285.274
441.313
553.071
230.481
467.524
590.258
566.024
495.788
490.023
410.019
232.115
293.089
271.12
507.87
509.168
607.811
229.659
276.97
294.424
618.875
618.789
558.505
226.518
562.518
488.286
503.37
280.841
504.04
466.351
224.003
473.558
519.556
502.955
462.417

CELL_DATA 563
TENSORS stress float
164.608 -24.9202 -1.90899e-12
-24.9202 28.1478 8.59757e-13
-1.90899e-12 8.59757e-13 -12.6048

-40.3383 -21.3202 2.61287e-12
-21.3202 -7.35467 3.64301e-12
2.61287e-12 3.64301e-12 -10.2314

-9.93968 28.0429 -5.41848e-12
28.0429 -1.11019 -7.17648e-13
-5.41848e-12 -7.17648e-13 -6.3597

-40.4266 -29.8427 8.29115e-13
-29.8427 -12.8459 1.06922e-12
8.29115e-13 1.06922e-12 -10.5977

-22.6926 19.9309 -2.10824e-12
19.9309 -1.92212 -3.10973e-12
-2.10824e-12 -3.10973e-12 -23.0217

-27.1389 -18.0742 -1.48178e-13
-18.0742 15.8879 6.71463e-13
-1.48178e-13 6.71463e-13 -6.41047

161.26 26.4844 -1.68635e-12
26.4844 28.0245 -8.72783e-13
-1.68635e-12 -8.72783e-13 -13.2637

-5.96118 29.9577 5.12361e-12
29.9577 -10.1119 9.78773e-13
5.12361e-12 9.78773e-13 -7.27579

34.6309 5.48308 -4.79616e-13
5.48308 -19.0942 2.23525e-13
-4.79616e-13 2.23525e-13 -4.12154

11.8603 -7.47756 1.79146e-12
-7.47756 -48.287 1.31006e-13
1.79146e-12 1.31006e-13 -8.94656

104.192 16.3083 -2.59111e-12
16.3083 -8.44344 5.10407e-13
-2.59111e-12 5.10407e-13 -22.4544

-34.6371 -13.453 -3.31439e-13
-13.453 18.9658 -6.08106e-13
-3.31439e-13 -6.08106e-13 -7.18005

-6.02574 27.8329 2.78296e-13
27.8329 -4.59138 2.18492e-13
2.78296e-13 2.18492e-13 -6.15864

-35.5513 -14.3399 -3.12524e-12
-14.3399 7.84497 4.86663e-12
-3.12524e-12 4.86663e-12 -9.1309

-23.6537 33.3115 4.24845e-13
33.3115 -24.9943 -2.01392e-12
4.24845e-13 -2.01392e-12 -21.3652

21.3106 0.56096 -2.61717e-13
0.56096 -32.3379 -7.47458e-14
-2.61717e-13 -7.47458e-14 -5.58909

-48.9594 -17.9692 -6.2088e-12
-17.9692 6.343 1.34648e-12
-6.2088e-12 1.34648e-12 -12.9458

11.6601 -2.6652 -1.75267e-13
-2.6652 -43.2482 1.0257e-12
-1.75267e-13 1.0257e-12 -8.03298

-11.3492 26.6733 -1.28756e-12
26.6733 19.5173 1.86517e-13
-1.28756e-12 1.86517e-13 -6.0888

21.7654 -4.19551 -1.14634e-12
-4.19551 -35.2938 -9.82325e-13
-1.14634e-12 -9.82325e-13 -6.74063

-24.4785 8.66845 3.60008e-13
8.66845 32.1273 3.60541e-12
3.60008e-13 3.60541e-12 -4.9337

-11.8088 6.28781 -1.45588e-12
6.28781 -11.9743 -3.72443e-13
-1.45588e-12 -3.72443e-13 -75.6224

22.7431 1.87596 4.45629e-12
1.87596 -33.4681 -2.2693e-13
4.45629e-12 -2.2693e-13 -6.67661

-12.3876 -27.7148 -1.12088e-12
-27.7148 1.59985 1.0066e-13
-1.12088e-12 1.0066e-13 -6.60211

21.3043 6.84931 2.29742e-13
6.84931 -34.3032 -1.21947e-12
2.29742e-13 -1.21947e-12 -6.80586

-37.9048 19.1127 1.73491e-12
19.1127 2.65399 9.30515e-13
1.73491e-12 9.30515e-13 -9.45713

106.601 4.1813 -8.83441e-13
4.1813 20.6024 -5.21065e-13
-8.83441e-13 -5.21065e-13 -12.0494

-5.30153 30.7455 -2.1713e-12
30.7455 -7.27187 8.23637e-13
-2.1713e-12 8.23637e-13 -7.44099

27.8898 37.0738 9.27258e-13
37.0738 26.469 1.16411e-12
9.27258e-13 1.16411e-12 -8.63178

-9.43909 10.3235 1.98656e-13
10.3235 -32.9307 -9.14232e-13
1.98656e-13 -9.14232e-13 -49.5099

19.8306 14.2168 -1.94807e-13
14.2168 -29.3586 -2.67963e-12
-1.94807e-13 -2.67963e-12 -6.00037

-4.20981 -17.7801 3.47041e-12
-17.7801 59.6569 -5.36578e-12
3.47041e-12 -5.36578e-12 -8.47569

66.2821 -42.1011 -1.83083e-12
-42.1011 71.1372 -2.7498e-12
-1.83083e-12 -2.7498e-12 -11.2522

-48.2102 5.98687 -4.78444e-12
5.98687 7.26963 4.01605e-12
-4.78444e-12 4.01605e-12 -41.0383

-26.2913 -4.84085 -2.45433e-13
-4.84085 1.75673 -1.93652e-12
-2.45433e-13 -1.93652e-12 -37.8032

-1.46671 21.0279 1.41191e-12
21.0279 -39.5067 -2.07168e-12
1.41191e-12 -2.07168e-12 -41.1042

-43.9764 5.06766 1.17328e-12
5.06766 0.514241 -1.3074e-12
1.17328e-12 -1.3074e-12 -52.1923

-2.75996 -9.16988 6.80552e-12
-9.16988 -20.77 -5.38551e-14
6.80552e-12 -5.38551e-14 -35.8975

-3.97395 -27.9978 2.78474e-12
-27.9978 -4.61038 -1.44122e-12
2.78474e-12 -1.44122e-12 -5.99398

65.5959 41.5203 -2.64796e-12
41.5203 73.1649 -5.23196e-12
-2.64796e-12 -5.23196e-12 -10.964

60.1543 -17.9488 -6.29422e-12
-17.9488 0.117349 2.26545e-12
-6.29422e-12 2.26545e-12 -8.04968

-41.8042 -3.7062 4.76863e-12
-3.7062 -1.18565 2.65802e-12
4.76863e-12 2.65802e-12 -52.7271

-14.5941 19.5558 -4.19413e-12
19.5558 -28.5518 5.84244e-12
-4.19413e-12 5.84244e-12 -52.8353

18.1409 -12.2732 2.36848e-14
-12.2732 -29.8985 -8.51319e-13
2.36848e-14 -8.51319e-13 -6.22256

38.1726 -43.2983 -1.93978e-12
-43.2983 41.8005 2.4869e-14
-1.93978e-12 2.4869e-14 -14.5589

58.143 -18.0631 3.83575e-12
-18.0631 -2.3023 5.20117e-12
3.83575e-12 5.20117e-12 -7.91326

-21.4412 17.0854 1.30695e-12
17.0854 30.3269 1.12503e-12
1.30695e-12 1.12503e-12 -5.72774

-11.3722 19.3387 -2.37114e-12
19.3387 25.5104 6.0929e-13
-2.37114e-12 6.0929e-13 -3.92118

20.7911 -16.3009 4.43734e-12
-16.3009 -33.1137 1.61456e-12
4.43734e-12 1.61456e-12 -7.31112

12.6154 -34.1847 2.76638e-12
-34.1847 46.4348 1.00897e-12
2.76638e-12 1.00897e-12 -10.397

62.3591 19.1814 8.89363e-13
19.1814 2.81056 5.55408e-12
8.89363e-13 5.55408e-12 -8.41364

46.5129 -25.2879 -1.85807e-12
-25.2879 5.13433 -4.46635e-12
-1.85807e-12 -4.46635e-12 -5.60959

-31.8956 19.4859 -6.16396e-13
19.4859 -4.28558 2.56536e-12
-6.16396e-13 2.56536e-12 -26.0858

37.0387 29.6487 1.44595e-12
29.6487 14.5127 2.21334e-12
1.44595e-12 2.21334e-12 -5.43202

-27.4501 -21.8128 -8.1366e-12
-21.8128 -8.22813 -4.0603e-12
-8.1366e-12 -4.0603e-12 -25.2481

64.8676 -42.7104 2.84217e-14
-42.7104 44.0794 -2.14584e-12
2.84217e-14 -2.14584e-12 -9.50207

-27.7497 5.45987 -3.53954e-12
5.45987 2.66934 -8.06259e-12
-3.53954e-12 -8.06259e-12 -38.3088

-5.5573 -5.32967 3.4713e-12
-5.32967 57.3872 2.39571e-12
3.4713e-12 2.39571e-12 -5.44906

-0.200018 10.3842 -7.78903e-12
10.3842 -24.8483 4.51255e-13
-7.78903e-12 4.51255e-13 -38.3704

-26.4845 21.4127 -3.56189e-12
21.4127 12.2196 3.35021e-12
-3.56189e-12 3.35021e-12 -6.86906

4.72652 5.75381 1.61945e-13
5.75381 -56.0399 -4.88794e-13
1.61945e-13 -4.88794e-13 -13.9805

0.539719 11.4589 -2.10498e-13
11.4589 -34.0564 -3.85706e-12
-2.10498e-13 -3.85706e-12 -14.8396

106.342 31.8193 -8.19493e-13
31.8193 37.8324 -9.82917e-13
-8.19493e-13 -9.82917e-13 -7.48975

-35.4916 -6.03506 -1.00719e-12
-6.03506 10.6012 -9.61601e-13
-1.00719e-12 -9.61601e-13 -13.4787

-35.3598 9.51964 7.38372e-13
9.51964 1.23358 -3.8319e-12
7.38372e-13 -3.8319e-12 -14.9599

-42.5873 -2.88073 -1.84534e-12
-2.88073 21.1109 -3.44021e-13
-1.84534e-12 -3.44021e-13 -11.2385

-44.9076 23.4021 -1.09701e-12
23.4021 -5.89261 -1.56083e-12
-1.09701e-12 -1.56083e-12 -13.9214

9.97105 8.46343 -3.91391e-13
8.46343 -42.3774 -1.38008e-12
-3.91391e-13 -1.38008e-12 -9.07736

-12.334 -28.2389 3.05089e-12
-28.2389 1.6875 9.89431e-13
3.05089e-12 9.89431e-13 -6.67328

1.30886 -1.71121 -1.11037e-12
-1.71121 -55.4561 1.41169e-12
-1.11037e-12 1.41169e-12 -11.3035

-31.8851 -19.2619 2.99494e-12
-19.2619 -4.59496 2.56121e-12
2.99494e-12 2.56121e-12 -25.9551

-27.9755 21.3078 8.67454e-13
21.3078 -8.35798 -6.16456e-13
8.67454e-13 -6.16456e-13 -26.0135

-0.651385 -16.5831 -1.1382e-12
-16.5831 61.6727 4.53682e-12
-1.1382e-12 4.53682e-12 -7.94853

-0.650094 -27.9359 -2.29742e-13
-27.9359 -21.3605 -2.36255e-13
-2.29742e-13 -2.36255e-13 -12.7907

-14.0928 -25.1343 4.26326e-13
-25.1343 7.40686 -1.02673e-12
4.26326e-13 -1.02673e-12 -5.23539

91.6763 -31.71 -7.88702e-13
-31.71 19.4845 3.34429e-12
-7.88702e-13 3.34429e-12 -16.3333

-33.7057 3.22258 -7.47994e-13
3.22258 9.19927 -2.34124e-12
-7.47994e-13 -2.34124e-12 -18.5635

2.75235 28.9437 -2.15058e-12
28.9437 -24.4245 1.01904e-12
-2.15058e-12 1.01904e-12 -11.3161

-38.433 19.6641 2.20327e-12
19.6641 5.22977 -3.12639e-13
2.20327e-12 -3.12639e-13 -9.2346

50.1898 7.99937 -3.66877e-12
7.99937 -16.963 1.12947e-12
-3.66877e-12 1.12947e-12 -7.06635

60.0305 -33.9348 -6.15804e-14
-33.9348 33.7865 8.66862e-13
-6.15804e-14 8.66862e-13 -6.98351

-18.9597 -10.5875 -3.33807e-12
-10.5875 -0.541841 2.62575e-12
-3.33807e-12 2.62575e-12 -25.4316

-33.9261 23.8994 -1.49806e-12
23.8994 -12.0229 -1.80225e-12
-1.49806e-12 -1.80225e-12 -14.54

58.1553 -32.3831 -1.03775e-11
-32.3831 18.0913 -4.63037e-12
-1.03775e-11 -4.63037e-12 -10.1335

66.8586 10.7908 4.35326e-12
10.7908 8.51342 4.18066e-12
4.35326e-12 4.18066e-12 -5.08406

7.67417 -21.2055 8.06762e-12
-21.2055 88.463 1.65793e-13
8.06762e-12 1.65793e-13 -11.8622

-33.9851 14.4255 -4.53859e-13
14.4255 20.2383 -1.893e-12
-4.53859e-13 -1.893e-12 -7.54583

8.47558 23.1427 4.84353e-13
23.1427 -26.0736 -4.83761e-13
4.84353e-13 -4.83761e-13 -11.2988

34.8683 42.1978 -2.58874e-12
42.1978 46.1986 7.83966e-13
-2.58874e-12 7.83966e-13 -14.4203

-4.39443 16.5072 3.01166e-12
16.5072 -35.5423 1.91898e-11
3.01166e-12 1.91898e-11 -73.289

-5.97938 -4.10826 -5.08245e-12
-4.10826 57.9476 -6.75016e-14
-5.08245e-12 -6.75016e-14 -5.44125

-1.81877 -16.6324 -3.67462e-12
-16.6324 -39.4025 -7.66365e-12
-3.67462e-12 -7.66365e-12 -74.1123

-3.32932 -27.335 -5.43269e-12
-27.335 -30.0298 1.19756e-13
-5.43269e-12 1.19756e-13 -21.5543

8.96721 27.4244 -3.41653e-13
27.4244 -29.9944 -3.29041e-12
-3.41653e-13 -3.29041e-12 -11.2568

45.7107 -24.4101 7.79584e-12
-24.4101 5.02463 -9.73147e-13
7.79584e-12 -9.73147e-13 -5.23566

10.0955 31.3225 9.02981e-13
31.3225 47.1626 5.75895e-12
9.02981e-13 5.75895e-12 -9.63997

14.2725 -10.7049 -5.37111e-12
-10.7049 82.8375 3.99088e-12
-5.37111e-12 3.99088e-12 -6.44682

-38.6329 21.9706 8.48062e-13
21.9706 2.9416 3.55271e-13
8.48062e-13 3.55271e-13 -8.56857

1.19264 16.794 -3.59949e-12
16.794 -25.7219 -3.91095e-13
-3.59949e-12 -3.91095e-13 -18.5677

-26.5374 15.1536 1.63528e-12
15.1536 18.4493 8.70415e-14
1.63528e-12 8.70415e-14 -5.70746

43.6583 15.9535 -1.0966e-12
15.9535 -7.28451 5.87086e-13
-1.0966e-12 5.87086e-13 -4.07464

12.5771 -21.472 5.4623e-12
-21.472 57.9548 2.48335e-12
5.4623e-12 2.48335e-12 -4.71366

65.9954 -29.39 2.9298e-12
-29.39 18.6435 5.1544e-12
2.9298e-12 5.1544e-12 -9.33503

-32.3809 -24.5728 1.49584e-12
-24.5728 -7.28151 -1.05486e-12
1.49584e-12 -1.05486e-12 -8.97579

-22.6667 27.4507 -7.07582e-13
27.4507 -10.3499 -1.26921e-12
-7.07582e-13 -1.26921e-12 -9.28339

-38.3511 23.1875 -9.67226e-13
23.1875 1.99111 -2.28055e-12
-9.67226e-13 -2.28055e-12 -8.52446

-51.5532 13.1692 -2.03917e-12
13.1692 11.9271 6.44818e-13
-2.03917e-12 6.44818e-13 -16.4661

23.4845 9.37218 4.3355e-12
9.37218 -29.4872 1.36187e-14
4.3355e-12 1.36187e-14 -5.32095

3.76891 -4.66497 2.77585e-12
-4.66497 79.4367 -9.61601e-13
2.77585e-12 -9.61601e-13 -9.53115

-44.94 -36.8334 2.67608e-12
-36.8334 -19.8289 -1.56023e-12
2.67608e-12 -1.56023e-12 -14.7704

-16.0791 27.4648 2.57128e-12
27.4648 1.34123 -1.6757e-12
2.57128e-12 -1.6757e-12 -6.91406

-5.0149 2.1703 3.42422e-12
2.1703 82.6721 4.9288e-12
3.42422e-12 4.9288e-12 -13.4309

69.0443 34.6096 3.16192e-12
34.6096 15.4966 5.21716e-12
3.16192e-12 5.21716e-12 -10.7057

-31.3514 -22.9736 1.16633e-12
-22.9736 -4.63233 -7.6709e-13
1.16633e-12 -7.6709e-13 -8.52928

11.7429 5.73296 -7.52583e-13
5.73296 -48.3357 4.17784e-12
-7.52583e-13 4.17784e-12 -8.64086

43.0651 27.2034 8.14756e-13
27.2034 10.4522 -1.74379e-12
8.14756e-13 -1.74379e-12 -5.08041

-9.41496 12.7455 -1.32161e-12
12.7455 -14.0389 -3.99769e-12
-1.32161e-12 -3.99769e-12 -37.0413

70.3334 24.33 -2.65032e-12
24.33 23.8048 -8.59165e-13
-2.65032e-12 -8.59165e-13 -6.7993

-10.5862 -13.0551 -5.74947e-13
-13.0551 -13.9208 -3.28922e-13
-5.74947e-13 -3.28922e-13 -37.3791

-4.37906 0.778514 -9.78329e-13
0.778514 59.3972 9.46206e-13
-9.78329e-13 9.46206e-13 -4.83026

38.3565 -2.23527 -3.40705e-12
-2.23527 -23.8099 -2.86364e-12
-3.40705e-12 -2.86364e-12 -5.83177

3.59378 -15.7681 -1.16425e-12
-15.7681 -53.9714 -4.40329e-12
-1.16425e-12 -4.40329e-12 -21.1243

-42.2768 24.3881 -1.14596e-13
24.3881 -11.7369 -3.41001e-12
-1.14596e-13 -3.41001e-12 -11.1671

-46.8123 -13.535 -2.43162e-12
-13.535 11.0674 -2.37558e-12
-2.43162e-12 -2.37558e-12 -12.3536

5.81021 -8.00003 1.85185e-13
-8.00003 -70.9678 -2.11727e-12
1.85185e-13 -2.11727e-12 -14.8817

-49.5391 -22.2842 5.15884e-13
-22.2842 3.74864 -4.13891e-13
5.15884e-13 -4.13891e-13 -22.1042

-17.4593 -6.59635 4.22388e-12
-6.59635 -13.1158 -2.2247e-12
4.22388e-12 -2.2247e-12 -34.782

-28.7296 -29.9081 -9.45614e-13
-29.9081 -9.39984 -1.28194e-12
-9.45614e-13 -1.28194e-12 -8.9956

15.6935 11.4534 5.17186e-12
11.4534 80.179 5.17512e-12
5.17186e-12 5.17512e-12 -6.53048

42.2895 -28.1458 3.47929e-12
-28.1458 11.051 2.18196e-12
3.47929e-12 2.18196e-12 -5.04365

-47.1705 -13.7723 2.95941e-12
-13.7723 4.19613 1.81336e-12
2.95941e-12 1.81336e-12 -29.301

2.9649 0.504384 -8.52207e-13
0.504384 -56.8117 2.33961e-12
-8.52207e-13 2.33961e-12 -11.0048

-39.3364 -21.5246 -4.23247e-12
-21.5246 -8.85733 1.49954e-12
-4.23247e-12 1.49954e-12 -14.774

-40.1948 25.6976 1.38867e-12
25.6976 -14.6914 -2.31922e-12
1.38867e-12 -2.31922e-12 -11.3105

32.2602 -31.4637 -5.14907e-12
-31.4637 38.4289 2.15294e-12
-5.14907e-12 2.15294e-12 -4.64784

-31.4688 -7.08521 -5.72808e-12
-7.08521 1.7002 5.49516e-12
-5.72808e-12 5.49516e-12 -40.9934

36.6295 -33.076 6.29659e-12
-33.076 72.0261 -2.449e-12
6.29659e-12 -2.449e-12 -7.14462

16.6125 -19.1794 4.01279e-12
-19.1794 -25.8693 6.161e-13
4.01279e-12 6.161e-13 -7.13284

1.50261 1.97019 6.61027e-13
1.97019 -51.3914 1.62744e-12
6.61027e-13 1.62744e-12 -15.374

-12.8763 17.8751 9.11863e-13
17.8751 -16.9548 -1.26003e-12
9.11863e-13 -1.26003e-12 -41.061

10.7133 20.1823 8.47322e-13
20.1823 59.4532 1.68991e-12
8.47322e-13 1.68991e-12 -4.3563

4.31852 27.2102 6.8449e-13
27.2102 -16.2235 3.15747e-12
6.8449e-13 3.15747e-12 -8.12385

30.9042 -24.5111 -1.68162e-13
-24.5111 -8.1318 1.61441e-12
-1.68162e-13 1.61441e-12 -4.87168

-37.7869 -17.8384 -3.3677e-12
-17.8384 2.40088 1.74083e-13
-3.3677e-12 1.74083e-13 -9.864

55.5128 35.0674 -3.59298e-12
35.0674 42.3449 1.79294e-12
-3.59298e-12 1.79294e-12 -6.63611

-40.0147 -21.831 -1.58984e-12
-21.831 2.53688 3.85825e-12
-1.58984e-12 3.85825e-12 -9.39351

2.96669 30.8501 9.01797e-13
30.8501 -17.3878 -1.0895e-12
9.01797e-13 -1.0895e-12 -9.07783

18.5373 -25.2437 -2.16893e-12
-25.2437 -19.4173 6.81233e-13
-2.16893e-12 6.81233e-13 -6.342

-15.6533 -25.126 3.74811e-13
-25.126 5.89569 -8.51467e-13
3.74811e-13 -8.51467e-13 -5.77501

42.7178 -18.6877 4.14957e-12
-18.6877 -9.16522 -8.7752e-13
4.14957e-12 -8.7752e-13 -5.36862

27.4317 -18.8492 7.6857e-13
-18.8492 -20.3677 2.31282e-12
7.6857e-13 2.31282e-12 -5.68924

-41.3937 -25.3369 -3.39195e-12
-25.3369 -14.964 2.61883e-12
-3.39195e-12 2.61883e-12 -11.5667

29.7807 35.9684 2.21689e-12
35.9684 25.2269 -5.40486e-12
2.21689e-12 -5.40486e-12 -8.6439

-28.5177 15.3765 1.25218e-12
15.3765 18.5188 -1.69997e-12
1.25218e-12 -1.69997e-12 -5.87348

-23.1078 26.4219 5.00044e-13
26.4219 -12.5465 -1.55994e-12
5.00044e-13 -1.55994e-12 -9.95763

-42.0963 25.4736 1.10283e-12
25.4736 -11.5925 2.50585e-12
1.10283e-12 2.50585e-12 -10.9923

-37.2881 11.6213 1.09824e-12
11.6213 11.8441 -2.43183e-12
1.09824e-12 -2.43183e-12 -9.08009

64.392 -8.22678 1.01844e-12
-8.22678 3.19804 6.11008e-12
1.01844e-12 6.11008e-12 -4.25041

8.73411 18.6059 3.05711e-12
18.6059 59.219 -1.49688e-12
3.05711e-12 -1.49688e-12 -4.16189

-25.6141 -24.3802 1.9534e-12
-24.3802 0.458505 4.15668e-13
1.9534e-12 4.15668e-13 -7.21503

-1.14129 25.6653 6.69094e-14
25.6653 13.7523 -1.0966e-12
6.69094e-14 -1.0966e-12 -4.08213

32.3783 -35.6283 -4.02049e-12
-35.6283 21.7 6.21251e-12
-4.02049e-12 6.21251e-12 -8.48561

59.5352 38.3156 -1.80359e-12
38.3156 17.8476 -2.72375e-14
-1.80359e-12 -2.72375e-14 -13.722

12.1252 -33.3101 -3.21698e-12
-33.3101 42.9128 6.03132e-12
-3.21698e-12 6.03132e-12 -9.54224

30.5511 -31.1587 -2.60651e-12
-31.1587 36.8131 3.49232e-12
-2.60651e-12 3.49232e-12 -4.40499

11.7688 -6.83866 4.01753e-13
-6.83866 -48.8378 -3.16354e-12
4.01753e-13 -3.16354e-12 -8.7697

25.2743 30.3409 -9.15416e-13
30.3409 41.0885 1.06581e-13
-9.15416e-13 1.06581e-13 -4.45549

62.681 13.2943 7.58149e-12
13.2943 5.2285 -8.10907e-13
7.58149e-12 -8.10907e-13 -4.30501

-7.02516 13.3784 4.7183e-12
13.3784 61.3431 -1.59872e-12
4.7183e-12 -1.59872e-12 -8.69447

11.7298 -22.3397 -3.46034e-12
-22.3397 55.7623 -5.76842e-12
-3.46034e-12 -5.76842e-12 -4.30096

-47.2606 -1.09146 4.60965e-12
-1.09146 12.4097 1.13687e-12
4.60965e-12 1.13687e-12 -22.1621

-5.91849 2.24654 1.00142e-12
2.24654 59.0034 -1.56675e-12
1.00142e-12 -1.56675e-12 -5.26197

6.26897 31.0884 -4.07082e-12
31.0884 47.8644 -5.83829e-13
-4.07082e-12 -5.83829e-13 -9.66004

-39.7251 12.1077 -7.73409e-13
12.1077 12.8448 3.79134e-12
-7.73409e-13 3.79134e-12 -9.31257

40.7377 -27.6468 9.01205e-12
-27.6468 8.35781 -5.77553e-12
9.01205e-12 -5.77553e-12 -5.64142

7.54012 20.5569 -6.45706e-13
20.5569 -47.4668 -2.48157e-12
-6.45706e-13 -2.48157e-12 -16.4815

-3.421 26.2704 4.27747e-12
26.2704 -31.4867 -7.01069e-13
4.27747e-12 -7.01069e-13 -22.2526

15.7774 -18.5673 -5.80869e-13
-18.5673 -30.0125 2.45848e-12
-5.80869e-13 2.45848e-12 -8.18243

4.42878 -1.80101 -1.46401e-13
-1.80101 -34.133 -1.45513e-12
-1.46401e-13 -1.45513e-12 -24.4396

-14.3394 -31.8116 -1.74142e-12
-31.8116 -11.9301 5.75954e-12
-1.74142e-12 5.75954e-12 -9.04897

56.2173 23.3271 2.63256e-12
23.3271 0.81724 3.18678e-12
2.63256e-12 3.18678e-12 -8.28749

-27.8279 30.162 7.1824e-13
30.162 -9.23638 -1.75563e-12
7.1824e-13 -1.75563e-12 -8.79985

-27.0035 29.2058 1.56675e-12
29.2058 -9.20175 5.34979e-13
1.56675e-12 5.34979e-13 -8.67713

28.6284 30.66 -2.66098e-12
30.66 40.4053 6.07988e-12
-2.66098e-12 6.07988e-12 -4.44852

0.343102 27.0848 -3.67114e-14
27.0848 -19.8455 1.03029e-13
-3.67114e-14 1.03029e-13 -11.7767

64.5069 3.52505 5.33854e-12
3.52505 -11.8251 -3.50405e-12
5.33854e-12 -3.50405e-12 -10.0179

-14.8996 31.8172 -8.58572e-14
31.8172 -20.7987 -2.14258e-12
-8.58572e-14 -2.14258e-12 -12.4472

-37.9437 -12.5997 5.74059e-13
-12.5997 8.18002 -6.51331e-13
5.74059e-13 -6.51331e-13 -14.0225

-0.475057 24.2783 4.08562e-13
24.2783 -29.999 -1.95814e-12
4.08562e-13 -1.95814e-12 -20.7714

-23.7273 -29.5786 5.83237e-13
-29.5786 -11.9349 -2.84069e-12
5.83237e-13 -2.84069e-12 -8.84278

-38.1478 -4.89811 -3.19004e-13
-4.89811 18.8465 2.45137e-12
-3.19004e-13 2.45137e-12 -11.7298

69.9434 -24.5557 -2.93691e-13
-24.5557 18.0288 7.93913e-12
-2.93691e-13 7.93913e-12 -7.04405

39.9817 29.6923 -3.99088e-13
29.6923 13.4796 -4.56997e-12
-3.99088e-13 -4.56997e-12 -5.21452

-4.29561 14.6961 1.80537e-12
14.6961 60.5704 7.96992e-13
1.80537e-12 7.96992e-13 -8.40041

1.61143 -1.13886 5.43772e-12
-1.13886 -56.1232 -2.49334e-12
5.43772e-12 -2.49334e-12 -11.2087

9.61413 0.00223378 -1.25411e-12
0.00223378 -44.7534 6.55032e-13
-1.25411e-12 6.55032e-13 -8.43735

-31.0784 23.1236 3.06422e-14
23.1236 -4.33702 3.8843e-13
3.06422e-14 3.8843e-13 -8.45779

-34.7625 23.8709 1.76896e-12
23.8709 -13.1923 1.61073e-12
1.76896e-12 1.61073e-12 -14.8128

-43.3785 -24.3807 2.66056e-12
-24.3807 -12.6139 1.20319e-12
2.66056e-12 1.20319e-12 -11.4682

-39.0587 -0.672703 3.66092e-12
-0.672703 21.0464 1.43589e-12
3.66092e-12 1.43589e-12 -10.4951

-40.8066 25.5903 7.83817e-13
25.5903 -13.2224 3.59194e-13
7.83817e-13 3.59194e-13 -11.1718

32.3214 -10.3077 -2.53664e-12
-10.3077 -25.1528 -1.10726e-13
-2.53664e-12 -1.10726e-13 -6.01358

8.70694 -32.8327 -2.5917e-12
-32.8327 22.7976 4.29286e-12
-2.5917e-12 4.29286e-12 -6.99145

2.39688 -2.3006 -3.99902e-12
-2.3006 -49.9606 -3.20928e-13
-3.99902e-12 -3.20928e-13 -14.7724

36.7453 -34.5074 -5.17157e-12
-34.5074 24.4796 -5.41197e-12
-5.17157e-12 -5.41197e-12 -7.7087

-38.2937 19.0861 3.5835e-12
19.0861 -7.09371 1.24552e-12
3.5835e-12 1.24552e-12 -14.4492

7.87077 -26.4786 -4.84353e-13
-26.4786 -27.9941 3.44021e-12
-4.84353e-13 3.44021e-12 -10.9687

63.9465 -9.69003 -1.02555e-12
-9.69003 5.6778 1.62226e-12
-1.02555e-12 1.62226e-12 -5.0719

6.04092 -23.1919 2.38387e-12
-23.1919 -35.468 -2.28824e-12
2.38387e-12 -2.28824e-12 -17.736

0.141354 2.35826 2.56151e-12
2.35826 -56.174 -6.35048e-14
2.56151e-12 -6.35048e-14 -11.5456

-4.06199 -23.3213 -7.51991e-13
-23.3213 -23.4116 1.07603e-12
-7.51991e-13 1.07603e-12 -16.7199

11.0389 -25.8593 1.62241e-13
-25.8593 -29.4854 9.29627e-13
1.62241e-13 9.29627e-13 -9.73321

10.2014 -8.546 3.11987e-12
-8.546 -43.4895 2.96059e-16
3.11987e-12 2.96059e-16 -9.2809

-35.4182 -23.0681 9.9328e-13
-23.0681 -12.6457 -1.6878e-12
9.9328e-13 -1.6878e-12 -15.1029

23.6642 -31.3413 8.18782e-12
-31.3413 5.71272 -3.61666e-12
8.18782e-12 -3.61666e-12 -5.87768

11.0599 -24.587 -6.0929e-12
-24.587 -27.4943 1.5099e-14
-6.0929e-12 1.5099e-14 -10.0477

46.6426 10.8642 -9.96063e-12
10.8642 -16.1165 -2.6219e-12
-9.96063e-12 -2.6219e-12 -6.79931

-14.1861 26.3401 -1.09956e-12
26.3401 -15.6395 2.42621e-13
-1.09956e-12 2.42621e-13 -14.1188

-45.2519 -37.6131 2.92003e-12
-37.6131 -20.6125 2.88066e-12
2.92003e-12 2.88066e-12 -14.9188

-43.7086 37.2653 -1.12295e-12
37.2653 -21.2663 -7.32747e-15
-1.12295e-12 -7.32747e-15 -14.7692

-61.1853 -28.5735 -5.56e-13
-28.5735 -7.49703 -3.46301e-12
-5.56e-13 -3.46301e-12 -15.1993

-58.4162 27.0642 1.47867e-12
27.0642 -6.27167 -4.34911e-13
1.47867e-12 -4.34911e-13 -14.4779

5.60068 -8.52769 -4.35207e-14
-8.52769 -71.0643 1.48518e-12
-4.35207e-14 1.48518e-12 -14.7095

4.3974 9.2737 -7.12911e-13
9.2737 -68.8329 4.08991e-12
-7.12911e-13 4.08991e-12 -14.4374

9.02399 -9.84606 1.43826e-12
-9.84606 -40.8896 -3.18027e-12
1.43826e-12 -3.18027e-12 -9.61141

-24.3355 32.1163 2.19972e-13
32.1163 -24.8102 -1.14852e-12
2.19972e-13 -1.14852e-12 -21.1454

-25.5229 -32.8544 -3.328e-12
-32.8544 -25.0962 9.04841e-13
-3.328e-12 9.04841e-13 -21.4695

-53.9202 16.0686 7.00773e-13
16.0686 3.40189 3.34074e-12
7.00773e-13 3.34074e-12 -21.403

-52.4211 -15.801 -2.91352e-12
-15.801 3.2972 2.8173e-12
-2.91352e-12 2.8173e-12 -21.0762

6.11238 -3.74747 -7.16612e-13
-3.74747 -43.9253 1.49599e-12
-7.16612e-13 1.49599e-12 -25.7653

6.91856 3.61025 1.33153e-12
3.61025 -46.3489 -6.38304e-13
1.33153e-12 -6.38304e-13 -26.1417

-15.6252 9.8367 1.82795e-12
9.8367 46.2621 -4.16496e-12
1.82795e-12 -4.16496e-12 -5.84748

-22.9184 -24.7739 -1.12473e-12
-24.7739 -14.5521 -2.05066e-12
-1.12473e-12 -2.05066e-12 -10.3295

-56.6038 -36.3877 -1.37608e-12
-36.3877 -14.5327 2.0434e-12
-1.37608e-12 2.0434e-12 -13.4368

33.3581 -4.66424 -4.27155e-12
-4.66424 -19.8464 9.65228e-13
-4.27155e-12 9.65228e-13 -3.94459

3.43346 -16.6949 -4.69402e-13
-16.6949 -52.629 3.55242e-12
-4.69402e-13 3.55242e-12 -21.5328

3.67459 16.1758 -2.94875e-13
16.1758 -51.8847 -8.81665e-13
-2.94875e-13 -8.81665e-13 -21.4061

6.55579 0.121883 7.99065e-13
0.121883 -76.7552 3.2121e-12
7.99065e-13 3.2121e-12 -13.3037

-7.56907 23.3748 8.84626e-13
23.3748 39.9354 2.29742e-13
8.84626e-13 2.29742e-13 -6.88477

-56.8895 36.1716 -3.18664e-12
36.1716 -14.0114 4.01442e-12
-3.18664e-12 4.01442e-12 -13.3885

-39.7945 -23.3957 1.72262e-12
-23.3957 2.5616 1.56379e-12
1.72262e-12 1.56379e-12 -8.80048

37.1165 23.3524 -8.64494e-13
23.3524 -8.6126 2.0132e-14
-8.64494e-13 2.0132e-14 -5.75811

4.73545 23.8581 -7.44886e-13
23.8581 -38.2258 -8.28374e-13
-7.44886e-13 -8.28374e-13 -18.9858

24.0134 -31.3131 5.99224e-13
-31.3131 6.40858 1.49984e-12
5.99224e-13 1.49984e-12 -5.64766

2.43082 -3.23086 6.52811e-13
-3.23086 -48.3697 -3.6889e-13
6.52811e-13 -3.6889e-13 -14.7425

-60.458 -34.1611 2.40437e-12
-34.1611 -14.3498 3.40143e-12
2.40437e-12 3.40143e-12 -14.0305

-17.452 8.31983 -3.58108e-12
8.31983 45.6915 -1.68162e-13
-3.58108e-12 -1.68162e-13 -5.78052

-9.46829 21.8112 -9.4739e-15
21.8112 40.4248 -1.18542e-12
-9.4739e-15 -1.18542e-12 -6.65325

58.603 35.7752 8.51467e-12
35.7752 37.0878 -6.63173e-14
8.51467e-12 -6.63173e-14 -6.9157

70.4832 1.57873 2.49164e-12
1.57873 -5.54251 -4.33883e-12
2.49164e-12 -4.33883e-12 -10.3737

-30.7595 -22.8044 3.67647e-12
-22.8044 -13.3563 6.47242e-13
3.67647e-12 6.47242e-13 -14.4658

32.8411 31.1833 -1.85096e-12
31.1833 69.7935 5.45223e-12
-1.85096e-12 5.45223e-12 -6.67921

-19.3762 23.6097 3.61785e-13
23.6097 7.68695 9.70483e-13
3.61785e-13 9.70483e-13 -5.51278

47.6366 -5.34946 4.85538e-13
-5.34946 -17.4326 1.68073e-12
4.85538e-13 1.68073e-12 -6.82126

33.2193 11.2159 -1.92972e-12
11.2159 -23.6362 -2.05199e-12
-1.92972e-12 -2.05199e-12 -6.01335

6.25431 0.429906 4.04284e-12
0.429906 -77.5525 -3.30979e-12
4.04284e-12 -3.30979e-12 -13.4494

-58.936 -29.0312 8.1705e-13
-29.0312 -6.28806 -9.34956e-13
8.1705e-13 -9.34956e-13 -14.6969

-28.332 -6.31905 1.8842e-12
-6.31905 -11.3587 -5.33618e-12
1.8842e-12 -5.33618e-12 -51.5902

-44.6983 37.4117 1.82787e-12
37.4117 -20.8115 -2.81504e-12
1.82787e-12 -2.81504e-12 -14.7733

93.7894 1.66326 1.40687e-12
1.66326 16.6554 -2.62893e-12
1.40687e-12 -2.62893e-12 -6.04295

10.0367 -32.7864 -2.22163e-12
-32.7864 21.3109 -9.23706e-13
-2.22163e-12 -9.23706e-13 -6.8077

-56.9363 36.6131 4.16001e-12
36.6131 -14.5712 -4.21115e-12
4.16001e-12 -4.21115e-12 -13.5047

-35.0786 -11.1338 -4.25332e-12
-11.1338 19.1771 -3.75403e-12
-4.25332e-12 -3.75403e-12 -8.31601

-5.47701 -25.5141 5.25742e-12
-25.5141 37.35 5.63934e-12
5.25742e-12 5.63934e-12 -6.98654

-58.4525 28.8302 -4.4604e-12
28.8302 -6.27144 1.59517e-12
-4.4604e-12 1.59517e-12 -14.6139

28.4958 -26.1414 -2.53782e-12
-26.1414 -4.91212 -6.39488e-13
-2.53782e-12 -6.39488e-13 -4.69672

-21.1708 10.4834 9.58345e-13
10.4834 -18.559 -1.39218e-11
9.58345e-13 -1.39218e-11 -51.6858

3.4332 30.8714 -8.43769e-13
30.8714 27.1625 -1.46609e-12
-8.43769e-13 -1.46609e-12 -6.73249

6.14064 8.12678 3.68002e-13
8.12678 -72.2981 -2.11357e-12
3.68002e-13 -2.11357e-12 -14.9841

-11.5456 30.1905 1.16174e-12
30.1905 -20.6032 -1.59635e-12
1.16174e-12 -1.59635e-12 -11.5489

-30.7973 23.3317 -1.83246e-12
23.3317 -5.0996 -5.13071e-12
-1.83246e-12 -5.13071e-12 -8.46386

-25.8637 -32.489 -4.48234e-13
-32.489 -24.1129 -9.85841e-13
-4.48234e-13 -9.85841e-13 -21.559

9.20556 -23.19 1.38201e-12
-23.19 -27.922 -1.81218e-12
1.38201e-12 -1.81218e-12 -11.4254

-37.6607 10.4708 1.1708e-12
10.4708 8.9289 4.07378e-12
1.1708e-12 4.07378e-12 -25.3313

-23.0402 -23.4336 2.39808e-14
-23.4336 4.95253 1.45069e-13
2.39808e-14 1.45069e-13 -6.26249

88.8022 -9.70762 7.3328e-12
-9.70762 10.8074 -3.64916e-12
7.3328e-12 -3.64916e-12 -10.0307

84.0424 -14.277 1.8711e-12
-14.277 2.81288 1.78524e-12
1.8711e-12 1.78524e-12 -13.1967

5.88812 16.5293 -1.24286e-12
16.5293 -33.9324 2.78266e-12
-1.24286e-12 2.78266e-12 -22.3762

-16.4209 22.5013 -6.75608e-13
22.5013 16.228 -3.22764e-12
-6.75608e-13 -3.22764e-12 -5.08477

-3.91218 29.1629 5.32019e-12
29.1629 -12.2295 2.08071e-12
5.32019e-12 2.08071e-12 -8.39585

50.9922 0.688662 2.5769e-12
0.688662 -6.5313 -4.2127e-12
2.5769e-12 -4.2127e-12 -3.63395

-48.1409 6.57125 -2.40396e-12
6.57125 14.7862 -4.35563e-12
-2.40396e-12 -4.35563e-12 -18.9525

10.1157 16.5408 5.1692e-12
16.5408 -36.0794 7.20905e-13
5.1692e-12 7.20905e-13 -9.13511

-4.50323 -25.7606 -6.58259e-12
-25.7606 35.5552 -2.66572e-12
-6.58259e-12 -2.66572e-12 -6.74649

-39.1908 -2.57245 -4.45829e-13
-2.57245 21.5042 2.17071e-12
-4.45829e-13 2.17071e-12 -10.6691

-7.99015 13.3649 3.0879e-12
13.3649 44.4049 -4.80919e-12
3.0879e-12 -4.80919e-12 -3.94383

3.73476 -29.713 -1.22273e-12
-29.713 -17.3643 6.71167e-13
-1.22273e-12 6.71167e-13 -8.92014

21.4259 -29.9469 4.95959e-12
-29.9469 14.7561 3.22468e-12
4.95959e-12 3.22468e-12 -3.91739

6.8812 31.6222 -4.41958e-12
31.6222 25.4016 3.33363e-12
-4.41958e-12 3.33363e-12 -6.82765

2.78568 -15.0202 -2.17544e-12
-15.0202 -39.2678 -1.06204e-11
-2.17544e-12 -1.06204e-11 -63.3129

-46.1597 2.04123 -3.27494e-12
2.04123 11.4615 6.44166e-12
-3.27494e-12 6.44166e-12 -22.7569

-55.4451 20.3002 1.84741e-13
20.3002 3.09593 3.44317e-12
1.84741e-13 3.44317e-12 -22.916

5.91697 15.4391 -2.24813e-12
15.4391 -58.819 -4.4326e-12
-2.24813e-12 -4.4326e-12 -23.0361

-18.9213 -26.1885 -2.56151e-12
-26.1885 -12.9132 -1.46461e-12
-2.56151e-12 -1.46461e-12 -9.65221

41.3456 17.957 -2.32466e-12
17.957 -6.27051 2.6373e-12
-2.32466e-12 2.6373e-12 -3.86093

-44.6828 -5.29419 7.45811e-13
-5.29419 4.53831 3.21254e-12
7.45811e-13 3.21254e-12 -39.1457

7.49925 -18.9882 -8.54132e-13
-18.9882 -39.8941 -9.02685e-13
-8.54132e-13 -9.02685e-13 -11.6596

30.2908 -15.5987 -1.7953e-12
-15.5987 -20.5079 -2.38269e-12
-1.7953e-12 -2.38269e-12 -4.80449

-9.63786 11.603 -1.82402e-12
11.603 44.3187 -6.8449e-13
-1.82402e-12 -6.8449e-13 -3.85858

8.33418 -25.7337 -2.67164e-12
-25.7337 32.9916 2.01557e-12
-2.67164e-12 2.01557e-12 -3.63255

-10.2448 -25.2738 -3.76203e-12
-25.2738 -19.1 5.03804e-12
-3.76203e-12 5.03804e-12 -23.1749

17.0051 31.9589 -6.71463e-13
31.9589 11.1974 -3.56929e-12
-6.71463e-13 -3.56929e-12 -5.74581

-1.0693 -25.1348 1.98804e-12
-25.1348 -30.7627 2.6518e-12
1.98804e-12 2.6518e-12 -20.8916

48.0645 2.59732 -8.95284e-13
2.59732 -8.40915 -8.24289e-12
-8.95284e-13 -8.24289e-12 -3.53111

6.55272 -28.93 -2.7273e-12
-28.93 72.0493 5.93066e-12
-2.7273e-12 5.93066e-12 -14.5513

21.7915 -29.2304 3.55153e-12
-29.2304 13.9637 -4.91459e-14
3.55153e-12 -4.91459e-14 -3.92978

35.3509 32.1583 1.10489e-12
32.1583 74.1333 -1.09897e-12
1.10489e-12 -1.09897e-12 -5.44154

-45.283 -11.877 4.25907e-12
-11.877 13.9222 -9.78773e-13
4.25907e-12 -9.78773e-13 -15.3261

-14.4198 -13.8211 3.89022e-12
-13.8211 43.3818 9.81733e-13
3.89022e-12 9.81733e-13 -5.67213

-19.2438 -23.9883 6.52545e-12
-23.9883 -19.8305 2.55514e-12
6.52545e-12 2.55514e-12 -64.2547

2.43861 23.7703 -2.62546e-12
23.7703 36.0064 2.62901e-13
-2.62546e-12 2.62901e-13 -3.71055

-15.1823 -32.7262 2.61657e-12
-32.7262 -21.1187 2.35634e-12
2.61657e-12 2.35634e-12 -14.3127

-14.5644 -11.9629 -1.16655e-12
-11.9629 45.53 -1.72899e-12
-1.16655e-12 -1.72899e-12 -5.73833

7.83564 -19.1169 -1.3601e-12
-19.1169 -43.1217 3.55271e-14
-1.3601e-12 3.55271e-14 -12.6317

6.54595 23.8766 -2.65684e-12
23.8766 35.171 1.71478e-12
-2.65684e-12 1.71478e-12 -3.44153

23.1732 -4.97544 -3.62969e-13
-4.97544 -30.6756 -7.65795e-13
-3.62969e-13 -7.65795e-13 -5.36371

36.9698 -30.3422 1.7432e-12
-30.3422 122.625 4.35089e-12
1.7432e-12 4.35089e-12 -6.24196

-26.8686 21.0138 -1.87761e-12
21.0138 8.43431 1.61589e-12
-1.87761e-12 1.61589e-12 -7.12933

40.338 -19.3229 7.23688e-12
-19.3229 -11.3717 -1.03354e-12
7.23688e-12 -1.03354e-12 -5.72535

6.52872 -21.4459 6.26462e-13
-21.4459 -45.5583 -1.83586e-12
6.26462e-13 -1.83586e-12 -24.972

20.7051 31.7534 3.40705e-12
31.7534 9.55773 -3.54561e-12
3.40705e-12 -3.54561e-12 -5.80539

13.9189 -29.9713 -1.34174e-12
-29.9713 -7.60519 3.64627e-12
-1.34174e-12 3.64627e-12 -5.9436

6.75482 20.8852 -6.57252e-12
20.8852 -27.7917 -1.55846e-12
-6.57252e-12 -1.55846e-12 -11.1084

-38.274 -28.0758 -1.6905e-12
-28.0758 -14.0377 -7.91515e-13
-1.6905e-12 -7.91515e-13 -11.0604

8.64662 -26.2247 4.43971e-12
-26.2247 31.1706 7.17648e-13
4.43971e-12 7.17648e-13 -3.63457

15.3315 28.9805 -8.56204e-12
28.9805 19.1538 6.59621e-13
-8.56204e-12 6.59621e-13 -3.88233

28.6401 26.1909 -5.55763e-12
26.1909 -5.6327 2.44604e-12
-5.55763e-12 2.44604e-12 -4.80131

7.91486 -14.6098 1.67244e-12
-14.6098 -36.8773 2.7125e-12
1.67244e-12 2.7125e-12 -13.991

-6.84081 -16.6172 -3.07487e-12
-16.6172 41.3404 2.41111e-12
-3.07487e-12 2.41111e-12 -3.95876

17.4406 -17.5682 -1.11318e-12
-17.5682 -30.9986 -3.71658e-12
-1.11318e-12 -3.71658e-12 -7.10458

19.8419 16.9082 -1.78228e-13
16.9082 -31.6636 2.54108e-12
-1.78228e-13 2.54108e-12 -7.33379

-33.6793 -9.38697 -8.32564e-12
-9.38697 8.75597 3.48758e-13
-8.32564e-12 3.48758e-13 -23.9929

43.431 -13.4298 4.56524e-12
-13.4298 -8.36812 6.52071e-13
4.56524e-12 6.52071e-13 -3.80351

-19.3777 0.593998 -2.0699e-12
0.593998 43.1449 7.56728e-13
-2.0699e-12 7.56728e-13 -4.77476

28.0557 18.5547 -4.7186e-12
18.5547 -18.1982 2.35575e-12
-4.7186e-12 2.35575e-12 -4.74899

25.5282 27.6035 1.73491e-12
27.6035 -3.77505 2.43805e-12
1.73491e-12 2.43805e-12 -4.77045

-6.71461 -15.6858 3.20928e-12
-15.6858 43.798 -2.64322e-12
3.20928e-12 -2.64322e-12 -3.84731

-19.9057 -1.2023 8.58276e-13
-1.2023 42.1274 -8.75744e-12
8.58276e-13 -8.75744e-12 -4.68632

-5.4732 29.1343 -1.44359e-12
29.1343 -23.6462 9.10087e-13
-1.44359e-12 9.10087e-13 -16.7967

-37.2732 -10.922 -7.86186e-13
-10.922 21.68 -2.04281e-12
-7.86186e-13 -2.04281e-12 -7.82938

27.1432 -26.7148 -1.16588e-12
-26.7148 -5.53018 -2.72967e-12
-1.16588e-12 -2.72967e-12 -4.9435

40.7186 21.3321 -3.73035e-13
21.3321 -8.36942 -1.18128e-12
-3.73035e-13 -1.18128e-12 -5.46686

12.378 23.6652 8.04098e-13
23.6652 -27.1265 9.69299e-13
8.04098e-13 9.69299e-13 -8.66639

-37.796 5.47066 -2.50977e-12
5.47066 23.3113 -5.85606e-13
-2.50977e-12 -5.85606e-13 -8.59684

18.5931 29.065 -3.90443e-12
29.065 17.3778 3.42955e-12
-3.90443e-12 3.42955e-12 -3.94642

-9.9892 22.9638 5.34683e-13
22.9638 -14.9126 2.04311e-12
5.34683e-13 2.04311e-12 -24.0262

68.3154 -59.6908 9.4739e-14
-59.6908 36.3346 -1.35441e-11
9.4739e-14 -1.35441e-11 -23.0108

17.5309 -25.0474 -2.11386e-12
-25.0474 -17.9915 1.52471e-12
-2.11386e-12 1.52471e-12 -6.41699

10.0586 7.06978 -2.13844e-12
7.06978 82.5493 -1.8332e-12
-2.13844e-12 -1.8332e-12 -7.16498

11.9205 -28.8888 -1.81129e-12
-28.8888 -3.88115 4.17029e-12
-1.81129e-12 4.17029e-12 -5.16508

-66.945 -52.7007 -3.19744e-14
-52.7007 143.248 -1.02318e-12
-3.19744e-14 -1.02318e-12 -49.6696

-68.3883 51.4514 9.13047e-13
51.4514 142.535 -9.56864e-13
9.13047e-13 -9.56864e-13 -49.8587

19.5687 117.154 -1.08713e-12
117.154 64.1278 9.4739e-13
-1.08713e-12 9.4739e-13 -48.3603

20.5276 -117.096 8.95284e-13
-117.096 61.0246 -2.33058e-12
8.95284e-13 -2.33058e-12 -48.725

157.741 -1.36335 -5.03538e-12
-1.36335 -79.1872 -5.5569e-15
-5.03538e-12 -5.5569e-15 -48.9119

110.324 -91.125 -3.68061e-12
-91.125 -36.6904 3.59298e-12
-3.68061e-12 3.59298e-12 -50.3065

110.377 91.6528 -3.12165e-12
91.6528 -36.5006 -4.52379e-12
-3.12165e-12 -4.52379e-12 -50.1793

7.84715 14.3302 9.27554e-13
14.3302 -42.6813 1.4951e-12
9.27554e-13 1.4951e-12 -15.0788

-11.7911 25.5367 -7.95808e-13
25.5367 -27.4046 3.17095e-12
-7.95808e-13 3.17095e-12 -35.1385

12.4381 6.60595 4.22773e-13
6.60595 -40.533 -1.13909e-12
4.22773e-13 -1.13909e-12 -8.25179

26.2547 21.7843 2.14347e-13
21.7843 -19.5278 3.21905e-12
2.14347e-13 3.21905e-12 -5.85015

-21.2292 17.7441 4.38434e-12
17.7441 29.8682 -2.0132e-13
4.38434e-12 -2.0132e-13 -6.16162

22.5303 28.898 5.91172e-12
28.898 -0.775025 -5.33025e-12
5.91172e-12 -5.33025e-12 -4.73008

4.05573 -29.6632 2.54019e-13
-29.6632 -17.4659 -6.33271e-13
2.54019e-13 -6.33271e-13 -8.50385

25.9952 28.0273 4.1099e-12
28.0273 -2.30119 -1.22569e-12
4.1099e-12 -1.22569e-12 -4.73049

-19.3462 -2.84118 1.85674e-12
-2.84118 43.0709 -1.02318e-12
1.85674e-12 -1.02318e-12 -4.7693

-13.4117 -26.0975 1.66356e-12
-26.0975 -25.8383 4.583e-13
1.66356e-12 4.583e-13 -35.5216

-19.8413 -4.86229 1.30266e-12
-4.86229 41.776 -5.61566e-12
1.30266e-12 -5.61566e-12 -4.74317

-1.82678 23.0161 -5.53039e-13
23.0161 -24.377 -7.175e-13
-5.53039e-13 -7.175e-13 -16.1498

44.9821 26.8702 -5.69026e-12
26.8702 8.11175 -1.59458e-12
-5.69026e-12 -1.59458e-12 -5.36856

-52.5091 -13.2161 -3.42659e-12
-13.2161 0.150467 -5.05077e-13
-3.42659e-12 -5.05077e-13 -20.6174

20.2804 13.7278 4.14483e-14
13.7278 -31.1408 1.13835e-12
4.14483e-14 1.13835e-12 -7.0423

13.7008 -29.9872 -6.39488e-13
-29.9872 -6.69094 -1.90662e-13
-6.39488e-13 -1.90662e-13 -5.83454

29.6307 -24.7131 2.81612e-12
-24.7131 -7.87312 9.40877e-13
2.81612e-12 9.40877e-13 -4.82446

5.76495 -16.0745 2.99612e-13
-16.0745 -32.3342 -3.36649e-12
2.99612e-13 -3.36649e-12 -22.2556

12.6277 27.9286 -2.67579e-12
27.9286 -13.6382 2.45996e-12
-2.67579e-12 2.45996e-12 -6.41897

23.309 23.9771 -4.26148e-12
23.9771 -17.9426 8.17124e-13
-4.26148e-12 8.17124e-13 -5.96168

-31.0762 -2.79295 8.49913e-13
-2.79295 30.1316 2.36729e-12
8.49913e-13 2.36729e-12 -6.39784

-28.6285 5.8733 4.31276e-12
5.8733 33.3212 1.6301e-12
4.31276e-12 1.6301e-12 -6.05863

34.5483 2.64667 -4.82044e-12
2.64667 -26.1825 -3.62162e-12
-4.82044e-12 -3.62162e-12 -6.14136

50.6508 -7.28953 3.45561e-12
-7.28953 -14.081 1.54661e-12
3.45561e-12 1.54661e-12 -6.77806

11.0413 30.4843 6.25929e-12
30.4843 -4.78712 -3.87542e-12
6.25929e-12 -3.87542e-12 -5.96548

17.4676 -26.1551 -3.71732e-12
-26.1551 -17.4544 -1.56763e-12
-3.71732e-12 -1.56763e-12 -6.3511

-0.0845158 -21.2543 5.42736e-12
-21.2543 -27.9557 -1.54513e-12
5.42736e-12 -1.54513e-12 -17.1664

4.9393 -31.6332 4.46221e-12
-31.6332 4.86173 3.35021e-12
4.46221e-12 3.35021e-12 -5.93432

-8.22657 -27.7851 -1.94393e-12
-27.7851 18.5789 -1.44773e-12
-1.94393e-12 -1.44773e-12 -6.12892

-1.64984 29.8867 -4.75708e-12
29.8867 10.4475 6.53581e-12
-4.75708e-12 6.53581e-12 -5.79936

-26.0157 -9.5778 -9.53237e-13
-9.5778 32.9696 1.00956e-12
-9.53237e-13 1.00956e-12 -5.7863

-31.3221 -1.54474 2.52539e-12
-1.54474 31.6507 2.84454e-12
2.52539e-12 2.84454e-12 -6.22266

-38.9147 5.74795 8.91361e-13
5.74795 23.9465 1.67451e-12
8.91361e-13 1.67451e-12 -9.18224

-17.2174 -21.0887 -4.4705e-14
-21.0887 26.5709 -3.24126e-12
-4.4705e-14 -3.24126e-12 -5.77101

13.072 24.111 4.09746e-13
24.111 -28.1007 1.86221e-12
4.09746e-13 1.86221e-12 -9.20412

21.5549 -9.58965 -1.23812e-12
-9.58965 -31.7056 -4.56997e-12
-1.23812e-12 -4.56997e-12 -6.59712

-27.1526 7.46519 2.19338e-12
7.46519 34.3345 3.46567e-12
2.19338e-12 3.46567e-12 -5.87303

-35.235 -9.70106 -1.43964e-13
-9.70106 22.3135 -1.70471e-12
-1.43964e-13 -1.70471e-12 -8.18266

-29.1549 -16.3305 1.60227e-12
-16.3305 19.3467 1.14871e-13
1.60227e-12 1.14871e-13 -6.6608

36.9676 -8.2391 -6.26462e-12
-8.2391 -20.2359 -1.35122e-12
-6.26462e-12 -1.35122e-12 -5.10054

-14.8095 -32.3468 5.97034e-12
-32.3468 -21.6274 -6.32709e-12
5.97034e-12 -6.32709e-12 -12.9925

-22.8234 9.32072 3.43473e-12
9.32072 33.3232 6.44818e-13
3.43473e-12 6.44818e-13 -4.78789

-0.750915 -18.2126 -4.29671e-12
-18.2126 -35.1577 5.03168e-12
-4.29671e-12 5.03168e-12 -33.2781

4.93235 24.8224 9.53312e-13
24.8224 75.3059 3.83693e-12
9.53312e-13 3.83693e-12 -14.3188

-14.1417 -26.6261 3.45442e-12
-26.6261 -16.3497 -2.15975e-12
3.45442e-12 -2.15975e-12 -14.6403

-6.35703 -30.2028 -1.73017e-12
-30.2028 -23.602 -4.75827e-12
-1.73017e-12 -4.75827e-12 -17.0876

-31.2699 -0.701312 -2.63693e-12
-0.701312 31.5003 1.10253e-12
-2.63693e-12 1.10253e-12 -6.34753

28.4875 -16.6224 -4.82695e-12
-16.6224 -18.0562 -4.14483e-14
-4.82695e-12 -4.14483e-14 -4.43709

-37.8044 12.8416 -4.2466e-14
12.8416 11.1651 1.1943e-12
-4.2466e-14 1.1943e-12 -10.9884

-8.86111 -3.18048 4.51883e-12
-3.18048 111.05 3.42245e-12
4.51883e-12 3.42245e-12 -22.6717

-31.6018 14.2735 2.46144e-12
14.2735 21.3504 -3.42778e-12
2.46144e-12 -3.42778e-12 -7.12351

12.4221 -29.4889 2.67046e-13
-29.4889 -2.51923 4.21648e-12
2.67046e-13 4.21648e-12 -4.92731

33.6317 25.1054 -3.46449e-12
25.1054 124.029 5.25091e-12
-3.46449e-12 5.25091e-12 -6.2143

-13.5028 26.0982 -1.88738e-12
26.0982 -19.0974 1.17049e-11
-1.88738e-12 1.17049e-11 -58.8966

-9.55282 -27.8076 3.41149e-12
-27.8076 -22.8069 -8.98052e-12
3.41149e-12 -8.98052e-12 -59.547

-2.86552 -30.4188 -7.94624e-13
-30.4188 -7.32081 -4.8012e-12
-7.94624e-13 -4.8012e-12 -7.28646

3.86059 -31.1599 4.43438e-12
-31.1599 5.63592 2.2992e-12
4.43438e-12 2.2992e-12 -6.06154

25.1519 20.8273 -4.42727e-12
20.8273 -17.0337 -5.97448e-13
-4.42727e-12 -5.97448e-13 -4.97599

31.805 15.0059 -2.79954e-12
15.0059 -23.3002 1.73639e-12
-2.79954e-12 1.73639e-12 -5.95382

-9.48891 3.08366 -5.21672e-12
3.08366 -9.83067 -2.53886e-12
-5.21672e-12 -2.53886e-12 -80.9396

-5.54912 -7.00028 -1.30392e-12
-7.00028 -14.0419 -8.82168e-12
-1.30392e-12 -8.82168e-12 -80.2923

11.7485 4.82431 -8.37848e-13
4.82431 -43.2051 -7.29639e-13
-8.37848e-13 -7.29639e-13 -7.82673

-35.0561 6.73091 -7.82337e-14
6.73091 24.3753 -8.08242e-13
-7.82337e-14 -8.08242e-13 -7.56326

-36.1098 6.73632 -1.80427e-12
6.73632 24.4326 4.87314e-13
-1.80427e-12 4.87314e-13 -8.30823

74.5859 58.6338 -7.19543e-12
58.6338 34.1724 4.47168e-12
-7.19543e-12 4.47168e-12 -21.8731

-6.91936 -28.1995 2.78533e-12
-28.1995 16.8753 -1.7053e-13
2.78533e-12 -1.7053e-13 -6.11582

8.17206 17.9745 1.21828e-12
17.9745 -44.8757 1.7734e-13
1.21828e-12 1.7734e-13 -12.8963

32.7029 9.53967 -2.34005e-12
9.53967 -19.0795 -9.71075e-13
-2.34005e-12 -9.71075e-13 -4.07357

3.38813 -26.723 -7.964e-13
-26.723 13.4841 -1.88708e-12
-7.964e-13 -1.88708e-12 -3.82621

26.2375 -20.2375 -3.96305e-12
-20.2375 -20.3224 4.27036e-12
-3.96305e-12 4.27036e-12 -5.8624

65.3898 60.2317 -6.21014e-12
60.2317 34.2891 5.25565e-12
-6.21014e-12 5.25565e-12 -23.8678

-13.2424 31.069 -1.79797e-12
31.069 -16.881 4.03529e-13
-1.79797e-12 4.03529e-13 -12.7854

-18.6036 -19.7859 1.7207e-12
-19.7859 28.4147 -1.00542e-12
1.7207e-12 -1.00542e-12 -5.96867

11.1746 28.8575 1.79057e-12
28.8575 -13.3228 -3.91746e-12
1.79057e-12 -3.91746e-12 -6.43539

-31.8685 -4.14477 -3.41105e-12
-4.14477 30.1479 -1.18009e-12
-3.41105e-12 -1.18009e-12 -6.3571

-14.5958 19.609 2.14554e-12
19.609 27.1852 8.73375e-13
2.14554e-12 8.73375e-13 -4.4179

7.4795 30.5185 3.91035e-12
30.5185 -1.66996 -3.33422e-12
3.91035e-12 -3.33422e-12 -5.65968

-9.34438 -22.473 1.80241e-12
-22.473 23.1493 -2.80428e-12
1.80241e-12 -2.80428e-12 -4.17465

4.59087 -27.3523 -7.33043e-13
-27.3523 11.4492 -2.74092e-12
-7.33043e-13 -2.74092e-12 -3.93772

24.2717 11.2569 -7.24606e-13
11.2569 102.078 -4.5001e-14
-7.24606e-13 -4.5001e-14 -12.405

37.4665 -33.4559 8.51467e-13
-33.4559 69.2851 6.98227e-12
8.51467e-13 6.98227e-12 -5.70292

-25.3345 -11.6904 -3.4864e-12
-11.6904 31.3681 1.94689e-12
-3.4864e-12 1.94689e-12 -5.64759

16.0967 26.4843 1.37076e-12
26.4843 -15.5016 -1.09779e-12
1.37076e-12 -1.09779e-12 -6.21671

4.95609 29.4777 -2.63552e-12
29.4777 1.63719 3.38278e-12
-2.63552e-12 3.38278e-12 -4.98918

-9.85415 -21.4337 -3.97164e-12
-21.4337 25.1209 -1.68754e-13
-3.97164e-12 -1.68754e-13 -4.03245

-21.6341 -11.7822 2.49785e-12
-11.7822 32.0821 2.46914e-12
2.49785e-12 2.46914e-12 -4.63643

10.4632 28.4093 5.11117e-12
28.4093 -0.156169 4.30056e-12
5.11117e-12 4.30056e-12 -4.67212

-21.8462 -13.8777 9.51239e-13
-13.8777 29.4674 -5.06854e-13
9.51239e-13 -5.06854e-13 -4.84636

6.95881 27.8547 6.55416e-12
27.8547 73.0844 2.00373e-12
6.55416e-12 2.00373e-12 -14.3219

-45.8315 -4.04133 -4.29543e-12
-4.04133 14.048 -3.33126e-12
-4.29543e-12 -3.33126e-12 -19.9649

0.87753 31.0272 -3.16606e-12
31.0272 7.52064 2.35782e-12
-3.16606e-12 2.35782e-12 -6.08827

9.7193 14.9011 2.75987e-12
14.9011 -36.4288 2.87089e-12
2.75987e-12 2.87089e-12 -10.9849

9.92887 -15.9274 2.77052e-12
-15.9274 -39.4102 4.21766e-12
2.77052e-12 4.21766e-12 -13.0687

85.6126 -24.2043 6.21251e-12
-24.2043 7.63599 -7.85623e-12
6.21251e-12 -7.85623e-12 -12.9578

-23.2065 -21.2671 -2.34065e-12
-21.2671 10.5139 2.51769e-12
-2.34065e-12 2.51769e-12 -6.16452

-16.6005 26.6981 0
26.6981 1.77876 -8.28967e-14
0 -8.28967e-14 -6.58696

-26.2015 -21.7279 -1.34589e-12
-21.7279 -5.36468 -2.72012e-12
-1.34589e-12 -2.72012e-12 -23.8673

-41.5972 14.1068 -1.11135e-11
14.1068 -3.56016 -1.51168e-12
-1.11135e-11 -1.51168e-12 -64.129

-0.893362 9.44535 2.03393e-13
9.44535 -44.2599 -5.53572e-12
2.03393e-13 -5.53572e-12 -64.2305

-20.3842 32.7056 -7.49623e-13
32.7056 -23.2023 -1.28371e-12
-7.49623e-13 -1.28371e-12 -24.3297

-11.4099 26.0001 2.73618e-12
26.0001 22.6042 3.52311e-13
2.73618e-12 3.52311e-13 -5.9249

16.0388 26.6613 6.54291e-13
26.6613 -17.2867 1.43204e-12
6.54291e-13 1.43204e-12 -6.54917

30.4282 45.1855 1.32753e-12
45.1855 47.5545 -8.08834e-13
1.32753e-12 -8.08834e-13 -15.1949

-44.889 -11.3438 1.04657e-12
-11.3438 -1.80809 -1.94778e-12
1.04657e-12 -1.94778e-12 -61.6851

-8.29819 -3.43301 -7.97848e-12
-3.43301 -12.7554 1.36631e-13
-7.97848e-12 1.36631e-13 -77.2296

-14.6917 -0.210102 1.83735e-12
-0.210102 -6.41858 -1.39265e-11
1.83735e-12 -1.39265e-11 -77.3738

27.6648 -53.8021 -1.77162e-12
-53.8021 71.1481 -6.44699e-12
-1.77162e-12 -6.44699e-12 -24.3897

-11.6914 -11.6001 -1.31628e-12
-11.6001 -16.2045 3.31912e-12
-1.31628e-12 3.31912e-12 -37.4317

-32.6104 8.81311 3.33985e-12
8.81311 -9.41965 2.72671e-13
3.33985e-12 2.72671e-13 -49.5423

18.2563 -26.1994 -1.12621e-12
-26.1994 -19.5458 -6.05382e-12
-1.12621e-12 -6.05382e-12 -6.50592

-39.4299 1.01112 1.43859e-12
1.01112 11.9802 -1.06522e-12
1.43859e-12 -1.06522e-12 -19.7219

-30.202 -20.2677 -1.39133e-12
-20.2677 6.30518 -2.8025e-12
-1.39133e-12 -2.8025e-12 -7.2154

10.5366 6.25531 -3.45501e-13
6.25531 -52.3898 -2.4832e-13
-3.45501e-13 -2.4832e-13 -9.63915

-49.8126 15.5963 -3.09378e-13
15.5963 10.1654 -2.82678e-12
-3.09378e-13 -2.82678e-12 -13.5308

-40.2832 7.19164 -1.24432e-12
7.19164 16.5415 -2.59348e-12
-1.24432e-12 -2.59348e-12 -13.7739

16.405 20.3926 6.47719e-12
20.3926 -25.8403 1.60731e-12
6.47719e-12 1.60731e-12 -7.60707

-9.10013 -3.1139 -5.31812e-12
-3.1139 108.394 1.17832e-11
-5.31812e-12 1.17832e-11 -23.102

-3.31981 -27.6235 4.71504e-12
-27.6235 -3.62928 -7.40149e-14
4.71504e-12 -7.40149e-14 -5.82935

-7.33483 -26.1161 -4.95544e-12
-26.1161 -14.0816 8.37552e-13
-4.95544e-12 8.37552e-13 -9.81025

-14.1981 -31.4837 -2.73855e-13
-31.4837 -21.7779 -3.45057e-12
-2.73855e-13 -3.45057e-12 -12.7553

90.7268 32.7493 2.69059e-12
32.7493 20.9062 5.32108e-12
2.69059e-12 5.32108e-12 -16.506

-23.1176 -20.1166 4.24283e-12
-20.1166 -17.3849 -8.77727e-12
4.24283e-12 -8.77727e-12 -44.4284

72.6298 54.3218 -4.91696e-12
54.3218 91.6398 -4.36036e-12
-4.91696e-12 -4.36036e-12 -6.14251

-36.2148 -21.4396 -6.63218e-12
-21.4396 -6.79682 -1.92261e-12
-6.63218e-12 -1.92261e-12 -13.0426

15.0339 14.6504 -1.05397e-13
14.6504 -37.7513 -7.64278e-13
-1.05397e-13 -7.64278e-13 -8.17822

44.5724 -14.5723 3.8464e-12
-14.5723 -8.27132 1.56527e-12
3.8464e-12 1.56527e-12 -4.41791

-21.2303 24.0466 3.43547e-12
24.0466 4.95564 -4.49418e-13
3.43547e-12 -4.49418e-13 -5.97572

17.3732 20.4279 6.73121e-12
20.4279 -26.7919 7.12615e-13
6.73121e-12 7.12615e-13 -6.95087

-51.1401 11.4006 1.12406e-12
11.4006 7.71055 -3.39876e-12
1.12406e-12 -3.39876e-12 -29.9944

-7.28674 -31.58 -6.30547e-12
-31.58 -12.8264 7.65018e-12
-6.30547e-12 7.65018e-12 -8.11849

2.79684 19.8124 2.35427e-12
19.8124 -46.0335 6.35255e-12
2.35427e-12 6.35255e-12 -29.9863

-24.6705 -18.4433 -1.89567e-12
-18.4433 17.8362 7.89295e-13
-1.89567e-12 7.89295e-13 -5.47941

-42.3402 4.28312 2.23357e-12
4.28312 17.8694 -1.66622e-12
2.23357e-12 -1.66622e-12 -12.7278

-4.09805 9.92669 -9.24683e-12
9.92669 -40.2762 -2.58608e-13
-9.24683e-12 -2.58608e-13 -47.5497

-2.68826 -8.5133 -2.13548e-12
-8.5133 -38.3074 -5.21642e-12
-2.13548e-12 -5.21642e-12 -47.4054

81.7217 18.5122 -3.60956e-12
18.5122 1.70039 2.63197e-12
-3.60956e-12 2.63197e-12 -14.453

3.89495 7.96496 1.68784e-12
7.96496 -45.1828 -6.43929e-13
1.68784e-12 -6.43929e-13 -11.0177

35.871 7.74038 1.75859e-12
7.74038 184.571 -5.38118e-12
1.75859e-12 -5.38118e-12 -9.75798

40.1444 -11.385 1.79908e-12
-11.385 190.368 -1.36898e-12
1.79908e-12 -1.36898e-12 -7.38983

53.7638 56.4064 1.79767e-12
56.4064 159.253 -5.41907e-12
1.79767e-12 -5.41907e-12 -11.5007

1.70912 -28.9504 2.41407e-12
-28.9504 -24.6906 4.05957e-12
2.41407e-12 4.05957e-12 -11.9625

16.0486 -49.1898 -1.75622e-12
-49.1898 99.4174 3.6285e-12
-1.75622e-12 3.6285e-12 -21.6895

54.5116 -55.9489 -5.38355e-12
-55.9489 149.97 -7.28543e-12
-5.38355e-12 -7.28543e-12 -13.6655

-2.16527 26.2197 7.4607e-14
26.2197 17.5727 -9.78773e-13
7.4607e-14 -9.78773e-13 -3.99522

134.936 73.843 -2.63848e-12
73.843 85.0232 7.79229e-13
-2.63848e-12 7.79229e-13 -10.1598

-18.7195 13.0474 5.42736e-12
13.0474 -3.90032 6.39785e-13
5.42736e-12 6.39785e-13 -26.7699

3.74115 0.0392423 -1.44551e-12
0.0392423 -26.1889 3.0805e-12
-1.44551e-12 3.0805e-12 -26.7731

144.094 -73.1285 -9.05705e-12
-73.1285 85.3507 -2.69769e-12
-9.05705e-12 -2.69769e-12 -8.19707

-21.3922 -23.4236 -1.13983e-13
-23.4236 12.2482 -2.4496e-12
-1.13983e-13 -2.4496e-12 -6.49037

89.3448 34.7286 1.81662e-12
34.7286 41.3893 9.11863e-13
1.81662e-12 9.11863e-13 -11.5482

72.1855 63.4901 2.26426e-12
63.4901 149.69 9.28443e-13
2.26426e-12 9.28443e-13 -9.67439

26.1641 21.6298 2.58756e-12
21.6298 100.131 -5.59434e-12
2.58756e-12 -5.59434e-12 -13.0317

73.8722 -65.9189 8.69231e-13
-65.9189 151.141 2.79006e-12
8.69231e-13 2.79006e-12 -9.40295

25.7686 -12.3809 7.13326e-12
-12.3809 105.01 7.24043e-12
7.13326e-12 7.24043e-12 -12.4286

-28.6639 6.84189 -2.13407e-12
6.84189 3.10672 -1.32605e-12
-2.13407e-12 -1.32605e-12 -37.8543

37.7423 -45.974 4.50958e-12
-45.974 49.6685 2.25005e-14
4.50958e-12 2.25005e-14 -15.5323

14.4433 47.5311 5.21065e-14
47.5311 94.8779 3.07902e-12
5.21065e-14 3.07902e-12 -22.1926

173.336 37.9109 -3.02691e-12
37.9109 48.0403 3.4864e-12
-3.02691e-12 3.4864e-12 -9.52302

7.021 -29.2854 -8.41993e-13
-29.2854 -14.358 -3.57551e-12
-8.41993e-13 -3.57551e-12 -7.15545

-38.4171 12.8967 9.50129e-13
12.8967 6.43529 -6.59324e-13
9.50129e-13 -6.59324e-13 -15.2903

88.5031 -38.1118 -4.42668e-12
-38.1118 34.1623 -8.85336e-12
-4.42668e-12 -8.85336e-12 -14.0999

6.04192 -28.8019 7.02845e-13
-28.8019 -16.1713 -1.57652e-12
7.02845e-13 -1.57652e-12 -8.02931

169.202 -36.3428 -6.34751e-12
-36.3428 34.9278 6.39548e-12
-6.34751e-12 6.39548e-12 -13.2908

-5.72492 -28.3172 -7.56373e-12
-28.3172 -14.4725 2.83684e-12
-7.56373e-12 2.83684e-12 -9.3089

-17.7899 -25.2945 1.71537e-12
-25.2945 12.0804 -2.01084e-12
1.71537e-12 -2.01084e-12 -5.93353

118.873 69.4595 -8.43177e-13
69.4595 96.2169 8.14282e-12
-8.43177e-13 8.14282e-12 -11.401

29.4124 -22.9324 2.60532e-14
-22.9324 97.7943 1.02318e-12
2.60532e-14 1.02318e-12 -14.3403

117.956 -71.6915 -8.8581e-13
-71.6915 93.6783 -1.8332e-12
-8.8581e-13 -1.8332e-12 -12.417

22.2641 50.7365 2.31637e-12
50.7365 73.7768 -1.06581e-13
2.31637e-12 -1.06581e-13 -24.7776

-1.53596 -30.2118 8.06644e-12
-30.2118 -6.55211 -6.11955e-13
8.06644e-12 -6.11955e-13 -6.99721

-7.04526 -14.6403 -3.71851e-13
-14.6403 -21.9193 6.6193e-12
-3.71851e-13 6.6193e-12 -32.6148

-11.8921 11.0927 8.17124e-14
11.0927 -16.4311 -8.71895e-13
8.17124e-14 -8.71895e-13 -77.796

-26.1694 -5.15998 -4.99467e-12
-5.15998 -6.38738 -1.09137e-11
-4.99467e-12 -1.09137e-11 -77.6298

-38.9406 13.0836 -9.05572e-13
13.0836 13.7444 -9.3614e-13
-9.05572e-13 -9.3614e-13 -10.2383

-14.4806 -10.6671 6.56009e-12
-10.6671 -17.3186 -3.64627e-12
6.56009e-12 -3.64627e-12 -78.7588

-25.9031 4.09171 7.18122e-12
4.09171 -5.91388 -3.19293e-12
7.18122e-12 -3.19293e-12 -78.901

-3.63391 7.43424 -3.88682e-12
7.43424 -27.8608 -2.94831e-12
-3.88682e-12 -2.94831e-12 -77.9882

-43.9756 -12.1153 2.22148e-12
-12.1153 2.91634 -8.00841e-13
2.22148e-12 -8.00841e-13 -68.1594

11.9737 -30.4696 -4.3503e-12
-30.4696 76.162 4.59247e-12
-4.3503e-12 4.59247e-12 -14.7009

0.521952 -12.9721 -4.97084e-13
-12.9721 -39.9909 1.07535e-11
-4.97084e-13 1.07535e-11 -45.2778

-16.3488 -34.4178 -2.19469e-12
-34.4178 -22.0685 4.91548e-12
-2.19469e-12 4.91548e-12 -23.5902

-2.42053 -18.1768 4.0495e-12
-18.1768 -29.8954 3.20558e-12
4.0495e-12 3.20558e-12 -33.627

12.7383 15.4591 -3.71673e-12
15.4591 -37.7158 4.10427e-12
-3.71673e-12 4.10427e-12 -9.62473

-46.909 9.86435 -3.46723e-13
9.86435 8.87775 -3.96142e-12
-3.46723e-13 -3.96142e-12 -70.1553

3.46273 19.2278 1.24493e-13
19.2278 -41.4724 -2.67035e-12
1.24493e-13 -2.67035e-12 -70.2711

1.47242 11.3062 3.25665e-15
11.3062 -23.9652 2.29372e-12
3.25665e-15 2.29372e-12 -31.8682

109.39 -15.3391 -3.64745e-12
-15.3391 -12.5355 8.7456e-13
-3.64745e-12 8.7456e-13 -25.0373

-14.3199 24.9638 1.87583e-12
24.9638 10.3863 -2.72789e-12
1.87583e-12 -2.72789e-12 -5.80404

76.606 -61.3539 5.09222e-13
-61.3539 37.3647 -7.13148e-12
5.09222e-13 -7.13148e-12 -22.3954

76.1133 -57.4566 5.31012e-12
-57.4566 99.2273 9.18969e-13
5.31012e-12 9.18969e-13 -5.55546

118.195 -36.5436 8.50993e-12
-36.5436 40.6005 -7.20017e-12
8.50993e-12 -7.20017e-12 -7.37861

-51.1149 -5.15897 2.41866e-12
-5.15897 3.34083 -6.05915e-12
2.41866e-12 -6.05915e-12 -60.6615

-50.4788 2.89123 -1.66193e-12
2.89123 3.1351 -4.68218e-12
-1.66193e-12 -4.68218e-12 -60.1341

-11.9756 -24.4565 -4.30293e-12
-24.4565 -35.0038 6.29563e-12
-4.30293e-12 6.29563e-12 -59.1682

-8.992 -21.7608 3.41138e-12
-21.7608 -37.8885 3.13527e-12
3.41138e-12 3.13527e-12 -59.4778

-14.7027 26.1362 1.39681e-12
26.1362 -33.0281 7.76075e-12
1.39681e-12 7.76075e-12 -60.7527

-18.1579 3.09963 -7.27033e-12
3.09963 -13.1647 -1.04114e-11
-7.27033e-12 -1.04114e-11 -75.4804

-9.94509 -20.5091 3.92575e-13
-20.5091 -32.6512 -1.56778e-12
3.92575e-13 -1.56778e-12 -56.7384

-26.6488 -18.5684 3.09678e-13
-18.5684 -14.1959 8.10548e-12
3.09678e-13 8.10548e-12 -71.274

-15.4793 2.43464 4.75634e-12
2.43464 -12.8527 -1.16186e-11
4.75634e-12 -1.16186e-11 -77.875

-6.02757 -20.5265 -5.23581e-13
-20.5265 -41.4876 -2.62249e-12
-5.23581e-13 -2.62249e-12 -60.5088

-6.75687 20.956 1.0373e-11
20.956 -40.1439 1.40391e-12
1.0373e-11 1.40391e-12 -60.02

-14.3166 -3.45867 1.87228e-12
-3.45867 -11.3903 8.34296e-12
1.87228e-12 8.34296e-12 -76.8894

-11.2643 -3.1174 -4.46458e-12
-3.1174 -17.6896 1.33887e-11
-4.46458e-12 1.33887e-11 -74.0522

-24.2044 12.1098 9.4369e-13
12.1098 -13.4007 -2.02867e-12
9.4369e-13 -2.02867e-12 -69.9702

-22.0827 26.9299 -1.30148e-12
26.9299 -26.2671 -2.1073e-13
-1.30148e-12 -2.1073e-13 -57.584

VECTORS fluid_flux_TPM float
-8.72065e-05 3.10236e-05 1.91321e-20
3.559e-06 6.88152e-06 1.01024e-20
-1.27855e-05 -1.0224e-05 -8.27063e-21
-4.16996e-06 4.25338e-06 1.38002e-21
2.27043e-05 -6.31235e-06 -1.51079e-20
2.75717e-06 -1.59012e-05 -2.0845e-20
-8.57826e-05 -3.10884e-05 -1.35697e-21
-1.38903e-05 -1.04652e-05 -7.53e-21
2.21185e-05 9.45381e-07 -6.37495e-21
1.13823e-05 -3.90752e-06 1.87274e-20
5.45931e-05 1.24823e-05 -8.93061e-21
2.34651e-06 -1.71915e-05 2.18779e-20
1.36095e-05 1.12521e-05 -2.77044e-20
2.66168e-06 1.37826e-05 -6.39678e-21
2.0578e-05 -2.94621e-06 -1.09415e-20
-1.63299e-05 -2.72859e-07 -9.7425e-21
2.75312e-06 1.40967e-05 -1.32783e-20
1.01803e-05 -2.39154e-06 4.39133e-21
9.89716e-06 1.72202e-05 1.04671e-20
-1.48463e-05 1.88518e-06 -2.4787e-20
-3.60066e-06 -2.13009e-05 -6.75299e-21
3.41066e-05 5.941e-05 -8.43985e-22
1.56952e-05 1.63107e-06 9.41234e-21
1.12257e-05 -1.12799e-05 6.2758e-21
-1.50762e-05 -3.33193e-06 4.73724e-21
-6.77133e-07 -1.11292e-05 2.86792e-22
6.28956e-05 -4.90787e-06 1.30846e-21
1.40641e-05 1.02474e-05 -3.26205e-21
-2.51464e-05 -2.06401e-05 -9.67912e-21
4.91142e-05 -1.28123e-05 -1.07199e-21
-1.65802e-05 -6.03751e-06 -5.86351e-21
5.53637e-06 -3.20329e-05 -1.00011e-20
4.76488e-05 -4.80418e-05 1.04804e-21
-4.92279e-06 -4.12431e-05 1.5452e-20
-2.967e-05 3.70012e-05 2.9373e-20
-3.82431e-05 -1.63932e-05 -2.18081e-20
3.26989e-05 4.32106e-05 8.14058e-21
-4.47357e-05 -8.72488e-06 -1.74641e-20
1.43728e-05 -1.10805e-05 -6.62718e-21
4.64648e-05 5.01096e-05 8.17878e-21
3.21258e-05 -1.40205e-05 4.90824e-21
3.36363e-05 -4.23388e-05 -1.13941e-20
-1.98942e-05 -5.03729e-05 -4.046e-20
-1.58961e-05 6.35604e-06 -2.08713e-20
3.0522e-05 -2.93111e-05 1.57767e-21
-3.03291e-05 1.0989e-05 1.26902e-20
-4.04977e-06 -2.03684e-05 1.75231e-22
7.88525e-06 2.02096e-05 -1.04319e-21
-1.63407e-05 5.9272e-06 -1.68232e-20
-1.7818e-05 2.87227e-05 3.44334e-21
3.24053e-05 1.52893e-05 3.48822e-21
2.93621e-05 -1.00741e-05 1.16414e-22
-1.56648e-05 1.57589e-05 1.79383e-21
-2.35389e-05 -2.06882e-05 -5.00039e-21
-2.11378e-05 -5.13194e-06 -7.60549e-21
-4.47871e-05 2.70734e-05 2.59512e-20
-2.93691e-05 -3.80195e-05 1.09739e-20
6.36282e-06 -3.0625e-05 -7.6546e-21
-4.77034e-05 6.48228e-06 -1.38874e-20
6.07355e-06 1.36958e-05 -4.38165e-21
-5.57634e-06 -8.17276e-06 -1.94344e-20
-6.583e-06 -1.79421e-05 -2.30063e-20
5.71394e-05 2.48577e-05 -7.25714e-21
9.2421e-06 1.81428e-05 -9.73279e-21
1.22956e-05 -1.44439e-05 -1.42549e-21
-1.64047e-06 -2.0751e-05 9.22499e-21
4.62074e-06 -8.80487e-06 3.37482e-21
-1.00898e-05 -5.56447e-06 5.22503e-21
-1.06019e-05 1.19284e-05 9.12829e-21
2.55801e-06 -4.0923e-06 4.31797e-21
-1.50423e-05 -1.58421e-05 6.2258e-21
-2.13634e-05 5.16555e-06 -9.04658e-22
-3.55659e-06 3.44789e-05 1.40502e-20
-1.78706e-05 1.07101e-05 8.13875e-21
-9.07017e-06 1.46136e-05 2.83428e-20
-6.03505e-05 7.69156e-06 1.56333e-20
7.8175e-06 -2.168e-05 1.49066e-21
-1.88788e-05 -8.89945e-06 -9.56211e-21
1.93358e-06 1.16232e-05 -1.85046e-20
2.62992e-05 5.0893e-06 1.92352e-20
3.41667e-05 -2.89732e-05 -1.07229e-20
2.21449e-05 2.05548e-05 -5.17562e-21
1.19076e-05 -2.82213e-06 -1.60053e-20
-3.21516e-05 2.40654e-05 4.22972e-20
3.79019e-05 4.84553e-06 1.84285e-20
-4.98054e-06 4.94113e-05 1.2136e-20
-1.741e-06 -1.6856e-05 -3.8023e-21
1.81227e-05 9.95401e-06 1.86625e-20
2.93155e-05 3.02838e-05 -1.45767e-20
5.50211e-05 3.80109e-05 1.47332e-20
-5.33101e-06 3.07708e-05 -1.46986e-20
5.91759e-05 -3.55102e-05 -1.73347e-20
-2.71231e-05 5.34083e-06 6.7445e-21
1.78381e-05 1.10011e-05 6.88031e-21
-2.96392e-05 9.90266e-06 1.01966e-20
1.66519e-05 2.85194e-05 1.04492e-20
1.01682e-05 -4.43838e-05 -8.26729e-21
1.91535e-06 1.16201e-05 -1.435e-20
-1.47998e-05 -1.7619e-05 -1.25007e-20
3.06969e-06 1.74736e-05 -8.23305e-21
2.64052e-05 5.25714e-06 -8.33611e-21
-1.54423e-05 3.3209e-05 -3.16504e-22
4.05496e-05 -1.33323e-05 1.61393e-20
-3.77283e-06 7.45456e-06 -7.27594e-21
9.95221e-06 5.89894e-06 -1.25413e-20
-2.28044e-06 -1.13238e-05 8.06872e-21
3.22045e-06 -1.92507e-05 -8.24881e-21
1.74683e-05 3.89184e-06 1.9651e-21
-7.93671e-06 4.097e-05 1.05889e-20
-9.805e-06 2.47908e-07 1.90101e-22
9.31792e-06 1.1885e-05 -1.6246e-20
-2.17722e-06 -4.17112e-05 2.72061e-21
4.20203e-05 1.28642e-05 6.5996e-21
4.42227e-06 -7.45272e-06 9.81707e-21
-1.11444e-05 -3.55342e-06 1.79442e-21
-2.93237e-05 -1.24852e-05 4.22918e-22
1.58028e-05 4.11446e-05 5.40209e-21
-4.34821e-05 -1.55728e-05 1.07502e-20
1.60175e-05 -4.11212e-05 -2.07674e-20
-3.69958e-06 -3.19181e-05 3.58826e-21
2.18375e-05 6.52124e-07 -9.04825e-21
-7.17103e-06 1.83954e-05 6.28855e-21
-1.61109e-06 3.96932e-06 -3.89315e-20
-3.68574e-06 -1.65377e-05 1.18262e-20
5.22965e-06 -8.30157e-06 -3.20869e-21
9.35889e-06 1.58625e-05 -6.29005e-21
3.3099e-05 1.06517e-05 1.26574e-20
8.61491e-06 -7.45756e-06 -1.64407e-21
-8.2704e-06 -4.5157e-05 -5.18713e-21
2.55504e-05 -1.88186e-05 -8.49709e-21
4.9776e-06 2.77695e-05 -2.82305e-21
-2.81615e-06 -2.84143e-06 1.36787e-21
-8.6257e-06 -8.32531e-06 4.95737e-21
-4.77637e-06 4.41244e-08 -4.45925e-21
-2.28711e-05 2.85922e-05 -4.10029e-21
1.87619e-05 -3.73726e-05 -2.30738e-21
-2.65783e-05 4.27116e-05 1.73595e-20
-1.63707e-05 9.53462e-06 1.03992e-20
2.52779e-06 1.21981e-05 3.94203e-21
-2.29853e-05 -3.4987e-05 -3.1028e-20
1.39352e-05 3.34638e-05 1.87477e-21
1.75066e-05 9.36858e-06 -1.41579e-21
2.28099e-05 -8.52208e-06 5.86168e-21
-1.25311e-06 -1.12646e-05 1.39437e-20
-3.39093e-05 -3.15558e-05 2.32115e-20
-2.7513e-06 1.13026e-05 -3.39513e-21
1.72455e-05 1.0171e-05 3.99873e-21
1.88861e-05 -8.82024e-06 3.32328e-21
8.2426e-06 -1.43439e-05 3.91628e-21
2.43552e-05 -1.07946e-05 -1.23151e-20
1.90082e-05 -8.99724e-06 2.36462e-20
4.6403e-06 2.05785e-07 -6.71662e-21
2.57388e-05 2.02197e-05 -3.20929e-21
-2.74144e-06 -1.70287e-05 7.87075e-21
-1.04791e-05 -4.45668e-06 -5.09377e-21
1.12577e-06 -3.8898e-06 3.13836e-21
-3.15484e-06 1.58458e-05 4.60839e-21
-3.48809e-05 2.7679e-06 1.32559e-20
-1.21206e-05 -3.32558e-05 9.97624e-21
-7.87852e-06 9.77831e-06 4.30373e-21
1.35643e-05 1.66391e-05 4.19731e-21
2.65666e-05 -1.87434e-05 -3.093e-20
-3.67896e-05 -2.03492e-05 8.51468e-21
1.74017e-05 -2.75056e-05 -2.1612e-20
2.28023e-05 -2.72146e-05 -1.50921e-20
-1.09436e-05 3.78465e-06 3.75469e-21
-1.98275e-05 -2.88381e-05 3.49155e-21
-3.48772e-05 -5.79098e-06 4.19095e-21
-3.85218e-06 -3.17403e-05 -8.97666e-22
1.54465e-05 -3.16968e-05 -1.05234e-20
-9.1055e-06 -2.61976e-05 1.10931e-20
4.58086e-06 3.14031e-05 -6.78058e-21
-1.57513e-05 -2.85199e-05 1.36036e-20
2.93859e-06 -1.62911e-05 -1.02179e-20
-2.47375e-05 1.82585e-05 7.53273e-21
-1.50297e-05 -1.21103e-05 1.22918e-20
-2.73509e-05 -5.17206e-06 -9.7998e-21
1.5667e-05 -9.18093e-06 3.74649e-21
-4.30662e-06 2.39508e-05 5.53583e-22
1.22317e-05 -9.32383e-06 4.71146e-21
-2.95837e-05 -1.31632e-05 7.75041e-21
-8.83104e-06 -7.45756e-06 8.25972e-21
9.08145e-06 7.54031e-06 -2.02981e-20
2.14253e-05 2.86987e-05 -8.28002e-21
-1.75076e-05 -1.08085e-05 7.89349e-21
-3.25038e-05 -7.51019e-07 1.94137e-20
-1.63356e-05 -5.0158e-06 8.6902e-21
-4.57781e-06 -1.65821e-05 1.5325e-20
1.76835e-05 2.12377e-05 6.79331e-21
-1.09566e-05 5.87434e-06 -2.73453e-21
6.35994e-07 -2.05539e-05 7.41813e-21
-4.19367e-05 1.08501e-05 2.05867e-20
2.48588e-05 2.02449e-05 1.70773e-21
3.7942e-06 3.27831e-05 -1.54032e-20
-2.4318e-06 3.79694e-06 -6.93035e-22
-9.05028e-06 2.51184e-07 4.42165e-21
4.35478e-06 7.75956e-06 -1.60468e-20
-1.16932e-05 3.40123e-06 4.35938e-22
-2.07324e-06 -3.78467e-06 3.68193e-21
1.65967e-06 2.07585e-05 1.58645e-21
4.47209e-06 4.4967e-07 -8.21186e-21
-1.95368e-05 4.75632e-06 -2.13482e-20
-1.72973e-05 1.93567e-05 -8.09994e-21
-3.10723e-06 1.15774e-05 8.51711e-21
-2.9215e-05 1.83931e-05 2.40967e-20
-9.34276e-06 8.97874e-06 -7.35296e-21
1.731e-05 -1.1613e-05 -6.12818e-21
3.66018e-05 -3.56446e-06 2.08025e-20
-2.11393e-05 1.12966e-05 7.97932e-22
2.23286e-06 4.49795e-06 -3.24236e-21
2.17739e-05 -4.34461e-06 -8.28731e-21
-1.72778e-05 1.03522e-05 8.08571e-21
-9.87113e-06 5.53867e-06 6.89487e-21
1.18306e-05 3.74245e-06 6.15246e-23
2.18784e-05 -1.34703e-05 -2.93142e-20
-1.73789e-05 9.95545e-06 -1.84869e-21
-2.50352e-05 -5.30269e-06 1.32453e-21
-1.67606e-05 -4.36219e-06 -5.39694e-21
9.87557e-06 6.23634e-09 -1.78191e-20
1.01732e-05 1.95349e-07 -3.0419e-20
4.39048e-06 8.31663e-06 1.01954e-20
4.82924e-06 -8.79719e-06 8.80904e-21
-5.01003e-06 8.41929e-06 1.2163e-20
-5.26633e-06 -8.65704e-06 -1.157e-20
9.91036e-06 -7.40753e-06 9.88194e-21
-2.03262e-05 3.2347e-06 -2.02455e-21
-2.00586e-05 -3.28352e-06 -9.30837e-21
-1.28339e-05 1.58754e-05 7.71311e-21
-1.29137e-05 -1.59297e-05 2.36687e-20
7.48578e-06 -1.98424e-05 -1.4119e-20
7.20554e-06 1.97625e-05 7.98989e-21
1.55767e-06 2.58833e-05 8.24668e-21
1.12397e-05 -3.13663e-06 1.57236e-20
2.35974e-06 -3.86627e-06 6.34522e-21
-2.14099e-05 1.42159e-06 1.69681e-21
7.67667e-06 -1.95117e-05 -1.51189e-21
7.27295e-06 1.96603e-05 -1.14348e-20
4.76848e-06 -5.27108e-08 -1.25058e-20
8.96756e-06 2.44015e-05 -1.32695e-20
-2.24214e-06 -4.01605e-06 -1.1355e-20
2.31759e-06 -1.13162e-05 1.1191e-20
-2.24288e-05 -1.21507e-05 1.20881e-20
-2.13565e-05 -1.14938e-05 -2.01896e-20
-2.1891e-05 1.36275e-05 2.76701e-20
3.25101e-06 -1.22867e-05 4.95067e-22
-1.56522e-06 3.38171e-06 -3.41149e-21
-5.8732e-07 -2.55669e-05 1.96299e-21
-7.71962e-06 -2.44208e-05 1.33544e-20
3.27012e-05 3.03599e-05 -2.88672e-21
3.54501e-05 -1.81504e-06 1.45031e-20
-1.271e-05 -3.63187e-06 6.15243e-21
-2.28905e-05 -4.13822e-05 9.89469e-21
8.3035e-06 1.37467e-05 -1.48326e-20
-2.52334e-05 3.03302e-06 1.14766e-20
2.00633e-05 5.78588e-06 5.80772e-21
-4.53271e-06 -3.27399e-08 2.31927e-20
-4.66478e-06 -8.41198e-06 -1.81588e-22
-7.07226e-06 -3.93292e-05 1.15078e-20
-9.70746e-06 -8.39057e-08 -3.42001e-21
-4.86695e-05 -1.81554e-06 1.74414e-20
1.73071e-05 -1.91035e-05 -2.48662e-20
2.42912e-06 3.99871e-06 -1.57261e-20
-1.20633e-07 -1.7512e-05 9.88649e-21
-9.81751e-06 2.40815e-05 -5.12954e-21
-4.37164e-06 8.62659e-06 -1.10904e-20
2.05542e-05 -1.36047e-05 3.39453e-21
-3.76552e-05 -1.35501e-05 -3.81693e-20
-1.52643e-05 -2.03637e-05 -4.9443e-21
4.97657e-06 8.38822e-06 -1.26089e-20
1.66294e-05 5.16005e-06 2.47713e-21
-4.76339e-06 -7.33751e-06 5.96081e-21
1.97944e-05 3.5468e-06 3.82804e-21
1.81864e-05 -9.82469e-06 -7.26959e-21
-3.48786e-07 2.71696e-05 2.36044e-20
8.31938e-06 -1.36652e-05 8.97518e-21
4.87979e-05 2.20032e-06 6.20609e-21
-4.23514e-05 1.14518e-05 2.11172e-20
2.28569e-05 1.15547e-05 1.41902e-20
-6.45206e-06 -1.71768e-05 -1.18895e-20
-1.53477e-05 -8.61692e-06 -6.08482e-21
2.87833e-05 -2.10516e-07 2.08699e-21
-6.91884e-07 -2.42514e-05 -9.56362e-21
-1.26155e-05 -1.08725e-05 -1.09627e-20
1.02223e-05 -2.34962e-05 4.68874e-21
-4.96537e-07 2.05523e-05 -1.65867e-20
7.91649e-06 2.60638e-05 -5.30506e-23
1.72653e-05 -9.88277e-06 -9.12799e-21
-1.8945e-05 1.92956e-05 1.82226e-20
1.65252e-05 2.00263e-05 1.59086e-20
-6.22209e-05 1.60194e-05 -2.11503e-20
-1.01076e-05 2.60121e-05 1.05034e-20
1.25171e-05 -1.52459e-05 -2.05858e-20
-7.02799e-06 -1.83949e-05 -6.72632e-21
-1.18517e-05 4.50496e-06 3.09865e-21
-2.58893e-05 -7.04468e-06 1.99452e-21
-6.38512e-06 3.88517e-05 2.94046e-20
-1.26039e-05 1.19006e-05 1.1399e-21
2.07734e-05 -4.4749e-06 8.90242e-21
-6.87139e-06 -2.57901e-05 -5.1962e-22
-1.48664e-05 2.38871e-05 -1.10843e-20
-2.17855e-05 1.25628e-05 7.53516e-21
-2.05662e-05 -1.5053e-05 1.58404e-21
1.80258e-05 -2.06518e-05 -1.22318e-20
-2.75263e-05 -1.45602e-06 -8.42494e-21
1.23651e-05 -4.08038e-05 1.84412e-20
1.93832e-05 -1.89101e-05 -7.69704e-21
2.47286e-05 4.30751e-05 5.43969e-21
1.97081e-06 1.98634e-05 -9.78251e-21
2.96062e-06 -2.54172e-05 6.68659e-21
-4.16298e-05 4.69545e-05 -9.87285e-21
-1.27001e-05 -2.44077e-05 -1.63163e-20
1.63643e-05 -6.41953e-06 3.93809e-21
-2.41053e-06 2.57682e-05 4.39255e-21
1.28809e-05 -1.18246e-05 4.02632e-21
1.38784e-05 2.43091e-05 2.07577e-21
1.72272e-05 -1.40027e-06 5.47272e-21
2.21165e-05 -6.32066e-05 -9.32594e-21
-5.87519e-06 -1.28572e-05 2.2898e-21
-2.31806e-05 1.00855e-05 -7.72129e-21
-2.00168e-05 1.8716e-05 -9.90984e-21
2.16089e-05 1.45654e-05 -3.64433e-21
1.86697e-05 -1.0755e-05 8.1824e-21
1.49496e-05 1.25915e-05 5.376e-21
-5.42728e-06 4.55044e-08 7.15288e-21
1.54012e-05 -2.30836e-05 -5.30239e-22
-1.69876e-05 -2.04059e-05 -1.55432e-21
2.25583e-05 9.77217e-06 7.93321e-21
1.28046e-05 -1.19878e-05 -1.50388e-20
9.55241e-06 -2.48478e-05 -5.4709e-21
1.66566e-05 -6.9318e-06 1.82853e-20
-1.58029e-05 -7.54343e-06 8.15811e-22
1.29664e-06 -2.62988e-05 2.75606e-21
-2.61026e-05 4.47236e-06 -2.03957e-20
2.39001e-06 2.45389e-05 5.50486e-21
2.05817e-05 6.62642e-06 1.42184e-20
-2.1717e-05 -1.07002e-05 1.39971e-20
-8.9758e-06 2.5606e-05 1.35784e-20
-1.49516e-06 -2.41842e-05 -1.14657e-20
1.94634e-05 1.18356e-05 1.15494e-20
-1.76869e-06 1.80819e-05 5.02343e-22
-2.01356e-05 1.37004e-05 9.25561e-21
2.35073e-05 1.14134e-05 -4.14153e-21
-1.71126e-05 -9.98408e-06 9.87705e-22
9.50855e-08 -1.98317e-05 -1.39243e-20
1.83796e-05 1.99812e-05 1.97469e-20
-2.21505e-05 -1.43015e-05 -1.70333e-20
4.83438e-05 -3.39772e-05 3.55794e-21
1.78944e-05 -1.08209e-05 -8.50983e-21
9.00054e-06 4.30809e-05 1.27644e-20
1.70317e-05 -1.36767e-05 5.97294e-21
-1.98722e-05 8.70232e-05 2.16484e-20
-1.97624e-05 -8.65375e-05 -3.6789e-21
5.71763e-05 7.17077e-05 5.77043e-21
5.69139e-05 -7.13815e-05 -1.45398e-21
9.06347e-05 -1.6131e-10 -1.06596e-20
-7.81905e-05 3.76327e-05 1.31334e-20
-7.74448e-05 -3.72771e-05 1.35866e-20
1.22322e-05 1.18171e-05 7.86195e-21
2.93641e-05 2.18895e-05 1.85703e-20
1.14467e-05 3.33238e-06 2.29304e-20
1.88533e-05 9.75024e-06 2.83761e-22
4.98858e-06 2.01675e-05 -1.39825e-20
-1.88294e-05 -1.49784e-05 8.18434e-24
1.70358e-05 -1.02129e-05 4.90948e-23
1.98501e-05 1.45475e-05 -1.2685e-20
-3.16655e-06 2.43609e-05 2.39203e-20
2.94369e-05 -1.99903e-05 -2.04315e-20
3.79341e-06 -2.37368e-05 -1.19692e-20
2.19581e-05 5.22639e-06 6.97187e-21
2.98921e-05 1.10246e-05 2.56357e-21
1.42069e-05 1.4142e-05 7.91745e-21
1.58812e-05 6.59287e-06 7.71219e-21
-1.84965e-05 1.09352e-05 -3.88414e-21
-2.25603e-05 9.03551e-06 -1.7321e-20
2.29267e-05 -1.12621e-05 3.76227e-21
-1.82656e-05 -9.99677e-06 4.32312e-21
-1.85521e-05 -1.05811e-05 2.14183e-20
-3.43818e-07 -2.07652e-05 -1.69781e-20
-8.61455e-08 -2.11582e-05 -5.79075e-21
-2.01246e-05 -1.00535e-06 4.57505e-21
2.66958e-05 -4.01868e-06 1.0444e-21
1.81099e-05 1.13408e-05 1.35242e-21
-1.78621e-05 1.09438e-05 5.9496e-21
-1.53596e-05 1.66217e-05 9.52856e-22
1.60202e-05 -1.37516e-05 -1.84415e-21
-1.10222e-05 1.74613e-05 9.50421e-21
-1.42232e-05 -1.48878e-05 -1.62627e-20
-1.15512e-06 2.12081e-05 2.21292e-20
-1.28753e-06 2.09658e-05 9.86497e-21
8.97069e-08 -1.98317e-05 9.84677e-21
6.1101e-06 -1.9735e-05 -1.06353e-20
-1.7139e-05 -9.93433e-06 -1.62105e-20
1.5585e-05 -5.48965e-06 1.4557e-20
6.6308e-07 2.14753e-05 2.16899e-20
3.00803e-07 1.85054e-05 -8.49346e-21
-2.34549e-06 1.68554e-05 -1.3412e-21
2.19063e-05 -5.52679e-06 -6.72661e-21
-1.65395e-05 5.37746e-06 -5.011e-21
4.15699e-06 2.1515e-05 3.12714e-21
-3.25548e-05 1.29178e-05 -4.18661e-22
9.76223e-06 4.17269e-05 -1.24964e-21
-1.70516e-05 4.56763e-06 1.5422e-21
1.96823e-05 -1.16288e-05 -4.72028e-21
9.45662e-07 2.10172e-05 1.57039e-21
-2.0479e-05 6.69869e-06 -9.30414e-22
2.44383e-06 -1.62607e-05 2.8364e-21
1.81889e-06 -5.80063e-05 1.34311e-20
2.00624e-06 1.74844e-05 3.17503e-21
-1.69602e-05 1.40211e-05 2.44748e-20
1.78522e-05 6.3965e-05 1.40847e-20
4.57644e-05 3.77028e-05 2.80033e-20
5.20595e-05 -3.52519e-05 3.94356e-21
1.48139e-05 -1.01661e-05 -5.83926e-21
-1.57838e-05 1.40361e-05 1.62778e-20
-2.02148e-05 -7.91988e-06 1.46488e-21
-1.96436e-05 -6.82171e-06 1.56906e-20
5.9261e-05 -2.46094e-05 -1.00766e-20
5.74278e-05 2.38685e-05 1.73247e-20
1.08934e-05 3.81709e-06 1.95568e-20
7.66551e-07 1.95774e-05 -7.47482e-21
7.83455e-08 1.95587e-05 -6.08149e-22
-4.83781e-05 -3.69149e-05 2.4767e-20
1.1424e-05 -1.71702e-05 3.15231e-21
1.17321e-05 1.24634e-05 2.33415e-20
-2.1416e-05 -3.39541e-06 -3.64768e-21
-1.40436e-05 1.72004e-05 2.5538e-20
-1.88867e-05 9.16686e-06 -1.66146e-20
4.76387e-05 3.36911e-05 -1.96086e-21
1.58049e-05 7.06098e-06 2.07211e-21
-5.56623e-06 2.00284e-05 2.27379e-22
-1.69764e-05 -1.17481e-05 -1.17049e-20
1.85606e-06 -2.05409e-05 -1.47965e-20
-8.94889e-06 -1.92655e-05 1.5046e-21
-1.72475e-05 -1.17724e-05 -1.4852e-21
1.05786e-05 -1.8934e-05 2.27464e-21
1.41211e-05 -1.69877e-05 -1.24965e-21
-2.44019e-06 -6.14316e-05 7.3063e-22
2.61778e-05 -4.11219e-05 4.32585e-21
1.74732e-06 -2.07837e-05 -9.14253e-21
1.7957e-05 1.13544e-05 -2.17702e-21
-1.4475e-05 -1.49039e-05 -6.72055e-21
-9.84018e-06 1.97083e-05 2.72151e-21
-5.03897e-06 2.10048e-05 5.89443e-21
1.66257e-05 1.42425e-05 2.71454e-21
6.05845e-06 -1.98596e-05 -5.99993e-21
-1.34053e-05 -4.03543e-05 1.84173e-21
-1.98821e-06 2.50382e-05 -1.53085e-22
1.47905e-05 1.44538e-05 5.54798e-22
-1.29572e-05 -1.02158e-05 4.36461e-23
-1.35138e-05 1.06073e-05 7.08315e-21
4.43389e-05 -1.89116e-05 1.3512e-20
7.56237e-06 -1.3399e-05 -2.7688e-21
-8.31644e-06 -1.26259e-05 -4.37467e-21
2.13286e-05 6.36291e-06 -1.51546e-20
1.09934e-05 -5.06575e-05 7.13342e-22
-3.84481e-05 -3.48999e-05 -2.55195e-20
2.33047e-05 6.20686e-06 7.08495e-21
-9.32744e-06 -1.82795e-05 2.09244e-21
1.8704e-05 9.48197e-06 1.34481e-20
-2.8562e-05 -3.25484e-05 1.56475e-20
9.68734e-06 5.00425e-05 9.65945e-21
3.43312e-05 -5.98546e-05 -6.40898e-22
-3.47342e-05 -5.97714e-05 -3.22485e-20
2.78059e-05 -5.20177e-05 -2.35164e-21
-1.2697e-05 4.36294e-05 3.69255e-21
-6.27554e-06 3.89741e-05 3.40236e-20
-1.87291e-05 8.94511e-06 -6.38798e-21
5.97669e-06 2.42401e-05 -2.1949e-21
-2.39137e-06 1.26529e-05 1.48887e-20
1.01193e-05 3.23286e-06 1.20259e-20
-3.18821e-06 1.62041e-05 -6.40405e-21
-2.47437e-07 2.09899e-05 -1.97248e-20
1.66592e-05 9.74974e-06 2.93766e-21
1.71001e-06 5.77192e-05 6.8309e-21
-1.4716e-05 1.07317e-05 9.92409e-21
1.5948e-05 -6.24607e-06 3.62401e-21
1.68704e-05 -4.50859e-06 -6.81606e-21
-6.06573e-05 -8.76807e-06 8.699e-21
-3.46027e-05 1.674e-05 -5.9875e-22
-4.35108e-05 -5.25416e-05 2.48319e-20
8.65577e-06 8.34496e-06 1.94147e-21
1.42087e-05 7.29191e-06 1.40107e-20
2.68024e-05 -4.1955e-06 -8.29367e-21
-8.10368e-06 -1.32417e-05 3.97175e-21
1.72151e-05 8.42788e-06 -4.4547e-21
7.33469e-06 -3.0032e-05 -1.40477e-20
-1.37125e-05 1.02041e-05 1.84454e-20
-2.23724e-05 -2.14204e-05 -3.43901e-20
-5.83547e-06 1.62963e-05 7.48665e-21
-3.27071e-06 2.06767e-05 -8.12268e-21
3.38468e-05 2.12945e-05 6.45286e-21
3.611e-05 -1.92812e-05 -1.52922e-20
-4.20666e-05 -1.16219e-05 1.58576e-20
7.63351e-06 7.68506e-06 2.51929e-21
-4.05826e-06 0.000101352 1.51891e-20
8.61602e-07 -0.000104458 3.09529e-22
5.24495e-05 8.76371e-05 1.06838e-20
-1.91012e-05 8.45714e-06 1.09806e-20
-2.63742e-05 5.65444e-05 9.77433e-21
5.30277e-05 -8.4632e-05 -6.90305e-21
-1.17195e-05 -1.82807e-05 2.82367e-21
7.7993e-05 6.74916e-05 -6.81089e-21
2.39914e-05 -1.79752e-05 -3.48239e-20
-3.60711e-06 -2.98194e-05 -1.42594e-20
8.17713e-05 -6.58444e-05 -6.03268e-23
-6.74402e-06 1.4517e-05 1.60122e-20
-5.38271e-05 -3.48206e-05 2.4456e-20
-4.30094e-05 -9.31211e-05 1.18807e-20
-2.41104e-05 -5.77989e-05 1.33056e-20
-4.39709e-05 9.41281e-05 2.83198e-20
-1.00924e-05 6.40779e-05 6.24883e-21
1.56313e-05 3.71049e-05 2.58445e-20
-2.79528e-05 3.7237e-05 8.83634e-21
-2.52707e-05 -5.51781e-05 1.83375e-20
0.000100356 1.73154e-05 -5.53306e-21
-1.69259e-05 1.0766e-05 7.82164e-21
-5.91181e-06 1.63315e-05 2.85032e-23
-5.07533e-05 3.7636e-05 1.68396e-20
-1.72747e-05 9.9432e-06 1.08036e-20
9.91936e-05 -1.52619e-05 -3.12863e-22
-1.53588e-05 7.79798e-06 -3.2475e-21
7.19194e-06 -1.44936e-05 -7.18348e-21
-7.79621e-05 -6.09424e-05 2.12091e-20
-2.58766e-05 5.77118e-05 7.97474e-21
-7.91151e-05 6.03697e-05 1.27396e-20
2.45379e-05 5.19455e-05 -1.4048e-20
-1.47662e-05 1.05814e-05 2.00528e-20
-2.0528e-05 2.44743e-05 -1.49205e-20
-2.853e-05 4.98132e-05 2.56762e-20
-5.67707e-05 2.07969e-07 -2.25912e-20
-9.44025e-07 1.62946e-05 -1.17734e-20
-2.88469e-05 -5.04018e-05 -2.54464e-20
-5.8193e-05 -2.1978e-07 -4.41102e-22
-2.83469e-05 4.86917e-05 -4.24884e-21
-1.51889e-05 6.62599e-05 1.26981e-20
-1.78632e-05 4.12566e-05 -2.29797e-22
-3.38971e-05 2.71348e-05 -1.23573e-20
2.43806e-05 -6.05638e-06 -5.882e-21
3.79992e-05 -2.19511e-06 -9.47358e-21
1.34811e-05 8.19955e-06 1.98436e-20
-1.04682e-05 -7.39807e-05 -8.45133e-21
-6.94424e-05 -2.79716e-05 -3.32208e-20
3.71288e-05 7.32671e-07 8.99611e-21
5.83607e-05 -1.08911e-05 -8.62199e-21
-1.05827e-05 -1.34958e-05 3.30934e-21
-5.0824e-05 3.76218e-05 3.18944e-20
-4.61293e-05 5.39949e-05 1.96605e-20
6.23568e-05 -2.22304e-05 2.04e-21
-2.81748e-05 -5.04924e-05 -5.84799e-22
-2.87744e-05 4.97749e-05 2.89598e-20
-5.72491e-05 -1.17105e-06 -1.99237e-20
-2.65709e-05 5.05931e-05 7.0983e-21
-5.79478e-05 -8.16938e-07 1.41667e-21
6.607e-05 1.73908e-05 -1.72003e-20
5.6375e-05 1.29238e-06 4.04301e-21
5.08954e-05 -2.92711e-05 -6.98248e-21
2.49079e-05 -5.94216e-05 -2.29611e-20
2.99157e-05 -4.88522e-05 -2.18103e-20
2.91647e-05 4.86762e-05 7.68431e-21
2.43428e-05 5.8084e-05 7.16379e-21
7.57953e-05 -2.00357e-05 2.4935e-20
4.6262e-05 2.90606e-05 4.02621e-20
4.66199e-05 1.37442e-05 2.53458e-20
TENSORS solid_stress_TPM float
375.028 -24.9202 -1.90899e-12
-24.9202 238.568 8.59757e-13
-1.90899e-12 8.59757e-13 197.815

456.998 -21.3202 2.61287e-12
-21.3202 489.982 3.64301e-12
2.61287e-12 3.64301e-12 487.105

454.873 28.0429 -5.41848e-12
28.0429 463.703 -7.17648e-13
-5.41848e-12 -7.17648e-13 458.453

455.023 -29.8427 8.29115e-13
-29.8427 482.604 1.06922e-12
8.29115e-13 1.06922e-12 484.852

527.682 19.9309 -2.10824e-12
19.9309 548.453 -3.10973e-12
-2.10824e-12 -3.10973e-12 527.353

437.306 -18.0742 -1.48178e-13
-18.0742 480.333 6.71463e-13
-1.48178e-13 6.71463e-13 458.034

372.323 26.4844 -1.68635e-12
26.4844 239.088 -8.72783e-13
-1.68635e-12 -8.72783e-13 197.8

473.647 29.9577 5.12361e-12
29.9577 469.496 9.78773e-13
5.12361e-12 9.78773e-13 472.332

471.542 5.48308 -4.79616e-13
5.48308 417.817 2.23525e-13
-4.79616e-13 2.23525e-13 432.79

504.254 -7.47756 1.79146e-12
-7.47756 444.106 1.31006e-13
1.79146e-12 1.31006e-13 483.447

360.289 16.3083 -2.59111e-12
16.3083 247.653 5.10407e-13
-2.59111e-12 5.10407e-13 233.642

444.777 -13.453 -3.31439e-13
-13.453 498.38 -6.08106e-13
-3.31439e-13 -6.08106e-13 472.234

466.862 27.8329 2.78296e-13
27.8329 468.296 2.18492e-13
2.78296e-13 2.18492e-13 466.729

457.032 -14.3399 -3.12524e-12
-14.3399 500.428 4.86663e-12
-3.12524e-12 4.86663e-12 483.452

512.933 33.3115 4.24845e-13
33.3115 511.592 -2.01392e-12
4.24845e-13 -2.01392e-12 515.221

489.166 0.56096 -2.61717e-13
0.56096 435.517 -7.47458e-14
-2.61717e-13 -7.47458e-14 462.266

457.578 -17.9692 -6.2088e-12
-17.9692 512.881 1.34648e-12
-6.2088e-12 1.34648e-12 493.592

493.951 -2.6652 -1.75267e-13
-2.6652 439.043 1.0257e-12
-1.75267e-13 1.0257e-12 474.258

418.787 26.6733 -1.28756e-12
26.6733 449.653 1.86517e-13
-1.28756e-12 1.86517e-13 424.047

481.975 -4.19551 -1.14634e-12
-4.19551 424.916 -9.82325e-13
-1.14634e-12 -9.82325e-13 453.469

425.29 8.66845 3.60008e-13
8.66845 481.896 3.60541e-12
3.60008e-13 3.60541e-12 444.835

634.128 6.28781 -1.45588e-12
6.28781 633.963 -3.72443e-13
-1.45588e-12 -3.72443e-13 570.315

479.146 1.87596 4.45629e-12
1.87596 422.935 -2.2693e-13
4.45629e-12 -2.2693e-13 449.726

447.156 -27.7148 -1.12088e-12
-27.7148 461.144 1.0066e-13
-1.12088e-12 1.0066e-13 452.942

481.042 6.84931 2.29742e-13
6.84931 425.435 -1.21947e-12
2.29742e-13 -1.21947e-12 452.932

449.753 19.1127 1.73491e-12
19.1127 490.311 9.30515e-13
1.73491e-12 9.30515e-13 478.2

377.649 4.1813 -8.83441e-13
4.1813 291.65 -5.21065e-13
-8.83441e-13 -5.21065e-13 258.999

462.679 30.7455 -2.1713e-12
30.7455 460.709 8.23637e-13
-2.1713e-12 8.23637e-13 460.539

384.935 37.0738 9.27258e-13
37.0738 383.514 1.16411e-12
9.27258e-13 1.16411e-12 348.414

586.94 10.3235 1.98656e-13
10.3235 563.448 -9.14232e-13
1.98656e-13 -9.14232e-13 546.869

491.681 14.2168 -1.94807e-13
14.2168 442.492 -2.67963e-12
-1.94807e-13 -2.67963e-12 465.85

352.85 -17.7801 3.47041e-12
-17.7801 416.717 -5.36578e-12
3.47041e-12 -5.36578e-12 348.585

331.013 -42.1011 -1.83083e-12
-42.1011 335.868 -2.7498e-12
-1.83083e-12 -2.7498e-12 253.479

531.406 5.98687 -4.78444e-12
5.98687 586.886 4.01605e-12
-4.78444e-12 4.01605e-12 538.578

554.02 -4.84085 -2.45433e-13
-4.84085 582.068 -1.93652e-12
-2.45433e-13 -1.93652e-12 542.508

577.984 21.0279 1.41191e-12
21.0279 539.944 -2.07168e-12
1.41191e-12 -2.07168e-12 538.346

556.182 5.06766 1.17328e-12
5.06766 600.672 -1.3074e-12
1.17328e-12 -1.3074e-12 547.966

573.771 -9.16988 6.80552e-12
-9.16988 555.761 -5.38551e-14
6.80552e-12 -5.38551e-14 540.634

467.121 -27.9978 2.78474e-12
-27.9978 466.485 -1.44122e-12
2.78474e-12 -1.44122e-12 465.101

330.398 41.5203 -2.64796e-12
41.5203 337.967 -5.23196e-12
-2.64796e-12 -5.23196e-12 253.838

414.519 -17.9488 -6.29422e-12
-17.9488 354.482 2.26545e-12
-6.29422e-12 2.26545e-12 346.315

559.303 -3.7062 4.76863e-12
-3.7062 599.921 2.65802e-12
4.76863e-12 2.65802e-12 548.38

586.41 19.5558 -4.19413e-12
19.5558 572.452 5.84244e-12
-4.19413e-12 5.84244e-12 548.169

490.886 -12.2732 2.36848e-14
-12.2732 442.846 -8.51319e-13
2.36848e-14 -8.51319e-13 466.522

341.703 -43.2983 -1.93978e-12
-43.2983 345.331 2.4869e-14
-1.93978e-12 2.4869e-14 288.971

417.545 -18.0631 3.83575e-12
-18.0631 357.099 5.20117e-12
3.83575e-12 5.20117e-12 351.488

412.999 17.0854 1.30695e-12
17.0854 464.767 1.12503e-12
1.30695e-12 1.12503e-12 428.713

429.615 19.3387 -2.37114e-12
19.3387 466.497 6.0929e-13
-2.37114e-12 6.0929e-13 437.066

486.765 -16.3009 4.43734e-12
-16.3009 432.861 1.61456e-12
4.43734e-12 1.61456e-12 458.663

355.568 -34.1847 2.76638e-12
-34.1847 389.388 1.00897e-12
2.76638e-12 1.00897e-12 332.556

410.237 19.1814 8.89363e-13
19.1814 350.689 5.55408e-12
8.89363e-13 5.55408e-12 339.465

425.186 -25.2879 -1.85807e-12
-25.2879 383.807 -4.46635e-12
-1.85807e-12 -4.46635e-12 373.063

519.91 19.4859 -6.16396e-13
19.4859 547.52 2.56536e-12
-6.16396e-13 2.56536e-12 525.72

416.398 29.6487 1.44595e-12
29.6487 393.872 2.21334e-12
1.44595e-12 2.21334e-12 373.927

522.164 -21.8128 -8.1366e-12
-21.8128 541.386 -4.0603e-12
-8.1366e-12 -4.0603e-12 524.366

364.059 -42.7104 2.84217e-14
-42.7104 343.27 -2.14584e-12
2.84217e-14 -2.14584e-12 289.689

553.442 5.45987 -3.53954e-12
5.45987 583.861 -8.06259e-12
-3.53954e-12 -8.06259e-12 542.883

373.703 -5.32967 3.4713e-12
-5.32967 436.648 2.39571e-12
3.4713e-12 2.39571e-12 373.812

580.809 10.3842 -7.78903e-12
10.3842 556.161 4.51255e-13
-7.78903e-12 4.51255e-13 542.639

435.043 21.4127 -3.56189e-12
21.4127 473.747 3.35021e-12
-3.56189e-12 3.35021e-12 454.658

513.56 5.75381 1.61945e-13
5.75381 452.794 -4.88794e-13
1.61945e-13 -4.88794e-13 494.853

522.447 11.4589 -2.10498e-13
11.4589 487.85 -3.85706e-12
-2.10498e-13 -3.85706e-12 507.067

383.694 31.8193 -8.19493e-13
31.8193 315.184 -9.82917e-13
-8.19493e-13 -9.82917e-13 269.862

482.077 -6.03506 -1.00719e-12
-6.03506 528.169 -9.61601e-13
-1.00719e-12 -9.61601e-13 504.089

487.085 9.51964 7.38372e-13
9.51964 523.679 -3.8319e-12
7.38372e-13 -3.8319e-12 507.485

456.447 -2.88073 -1.84534e-12
-2.88073 520.146 -3.44021e-13
-1.84534e-12 -3.44021e-13 487.796

464.443 23.4021 -1.09701e-12
23.4021 503.458 -1.56083e-12
-1.09701e-12 -1.56083e-12 495.43

496.735 8.46343 -3.91391e-13
8.46343 444.387 -1.38008e-12
-3.91391e-13 -1.38008e-12 477.687

445.495 -28.2389 3.05089e-12
-28.2389 459.517 9.89431e-13
3.05089e-12 9.89431e-13 451.156

501.67 -1.71121 -1.11037e-12
-1.71121 444.905 1.41169e-12
-1.11037e-12 1.41169e-12 489.057

519.523 -19.2619 2.99494e-12
-19.2619 546.813 2.56121e-12
2.99494e-12 2.56121e-12 525.453

523.293 21.3078 8.67454e-13
21.3078 542.911 -6.16456e-13
8.67454e-13 -6.16456e-13 525.255

353.401 -16.5831 -1.1382e-12
-16.5831 415.725 4.53682e-12
-1.1382e-12 4.53682e-12 346.103

506.01 -27.9359 -2.29742e-13
-27.9359 485.3 -2.36255e-13
-2.29742e-13 -2.36255e-13 493.87

449.709 -25.1343 4.26326e-13
-25.1343 471.209 -1.02673e-12
4.26326e-13 -1.02673e-12 458.566

357.861 -31.71 -7.88702e-13
-31.71 285.67 3.34429e-12
-7.88702e-13 3.34429e-12 249.852

498.49 3.22258 -7.47994e-13
3.22258 541.395 -2.34124e-12
-7.47994e-13 -2.34124e-12 513.633

501.716 28.9437 -2.15058e-12
28.9437 474.539 1.01904e-12
-2.15058e-12 1.01904e-12 487.647

448.434 19.6641 2.20327e-12
19.6641 492.097 -3.12639e-13
2.20327e-12 -3.12639e-13 477.632

440.181 7.99937 -3.66877e-12
7.99937 373.028 1.12947e-12
-3.66877e-12 1.12947e-12 382.925

386.442 -33.9348 -6.15804e-14
-33.9348 360.198 8.66862e-13
-6.15804e-14 8.66862e-13 319.428

537.712 -10.5875 -3.33807e-12
-10.5875 556.13 2.62575e-12
-3.33807e-12 2.62575e-12 531.24

482.647 23.8994 -1.49806e-12
23.8994 504.55 -1.80225e-12
-1.49806e-12 -1.80225e-12 502.033

385.362 -32.3831 -1.03775e-11
-32.3831 345.298 -4.63037e-12
-1.03775e-11 -4.63037e-12 317.073

422.187 10.7908 4.35326e-12
10.7908 363.842 4.18066e-12
4.35326e-12 4.18066e-12 350.245

307.645 -21.2055 8.06762e-12
-21.2055 388.434 1.65793e-13
8.06762e-12 1.65793e-13 288.108

434.435 14.4255 -4.53859e-13
14.4255 488.658 -1.893e-12
-4.53859e-13 -1.893e-12 460.874

509.711 23.1427 4.84353e-13
23.1427 475.162 -4.83761e-13
4.84353e-13 -4.83761e-13 489.937

338.233 42.1978 -2.58874e-12
42.1978 349.564 7.83966e-13
-2.58874e-12 7.83966e-13 288.945

634.213 16.5072 3.01166e-12
16.5072 603.065 1.91898e-11
3.01166e-12 1.91898e-11 565.319

372.88 -4.10826 -5.08245e-12
-4.10826 436.807 -6.75016e-14
-5.08245e-12 -6.75016e-14 373.418

637.119 -16.6324 -3.67462e-12
-16.6324 599.536 -7.66365e-12
-3.67462e-12 -7.66365e-12 564.826

533.931 -27.335 -5.43269e-12
-27.335 507.23 1.19756e-13
-5.43269e-12 1.19756e-13 515.706

505.287 27.4244 -3.41653e-13
27.4244 466.325 -3.29041e-12
-3.41653e-13 -3.29041e-12 485.063

426.916 -24.4101 7.79584e-12
-24.4101 386.23 -9.73147e-13
7.79584e-12 -9.73147e-13 375.97

358.928 31.3225 9.02981e-13
31.3225 395.995 5.75895e-12
9.02981e-13 5.75895e-12 339.193

339.817 -10.7049 -5.37111e-12
-10.7049 408.382 3.99088e-12
-5.37111e-12 3.99088e-12 319.098

453.095 21.9706 8.48062e-13
21.9706 494.669 3.55271e-13
8.48062e-13 3.55271e-13 483.159

533.105 16.794 -3.59949e-12
16.794 506.191 -3.91095e-13
-3.59949e-12 -3.91095e-13 513.345

443.444 15.1536 1.63528e-12
15.1536 488.43 8.70415e-14
1.63528e-12 8.70415e-14 464.274

451.471 15.9535 -1.0966e-12
15.9535 400.529 5.87086e-13
-1.0966e-12 5.87086e-13 403.739

374.481 -21.472 5.4623e-12
-21.472 419.858 2.48335e-12
5.4623e-12 2.48335e-12 357.19

389.715 -29.39 2.9298e-12
-29.39 342.363 5.1544e-12
2.9298e-12 5.1544e-12 314.384

454.957 -24.5728 1.49584e-12
-24.5728 480.056 -1.05486e-12
1.49584e-12 -1.05486e-12 478.362

466.418 27.4507 -7.07582e-13
27.4507 478.735 -1.26921e-12
-7.07582e-13 -1.26921e-12 479.801

452.208 23.1875 -9.67226e-13
23.1875 492.55 -2.28055e-12
-9.67226e-13 -2.28055e-12 482.035

466.289 13.1692 -2.03917e-12
13.1692 529.769 6.44818e-13
-2.03917e-12 6.44818e-13 501.376

490.853 9.37218 4.3355e-12
9.37218 437.881 1.36187e-14
4.3355e-12 1.36187e-14 462.047

327.706 -4.66497 2.77585e-12
-4.66497 403.373 -9.61601e-13
2.77585e-12 -9.61601e-13 314.405

462.571 -36.8334 2.67608e-12
-36.8334 487.682 -1.56023e-12
2.67608e-12 -1.56023e-12 492.74

445.841 27.4648 2.57128e-12
27.4648 463.262 -1.6757e-12
2.57128e-12 -1.6757e-12 455.006

305.666 2.1703 3.42422e-12
2.1703 393.353 4.9288e-12
3.42422e-12 4.9288e-12 297.25

385.989 34.6096 3.16192e-12
34.6096 332.442 5.21716e-12
3.16192e-12 5.21716e-12 306.239

453.342 -22.9736 1.16633e-12
-22.9736 480.061 -7.6709e-13
1.16633e-12 -7.6709e-13 476.165

501.386 5.73296 -7.52583e-13
5.73296 441.307 4.17784e-12
-7.52583e-13 4.17784e-12 481.002

422.373 27.2034 8.14756e-13
27.2034 389.76 -1.74379e-12
8.14756e-13 -1.74379e-12 374.227

570.537 12.7455 -1.32161e-12
12.7455 565.913 -3.99769e-12
-1.32161e-12 -3.99769e-12 542.911

396.17 24.33 -2.65032e-12
24.33 349.642 -8.59165e-13
-2.65032e-12 -8.59165e-13 319.038

569.159 -13.0551 -5.74947e-13
-13.0551 565.825 -3.28922e-13
-5.74947e-13 -3.28922e-13 542.366

375.085 0.778514 -9.78329e-13
0.778514 438.861 9.46206e-13
-9.78329e-13 9.46206e-13 374.633

461.462 -2.23527 -3.40705e-12
-2.23527 399.296 -2.86364e-12
-3.40705e-12 -2.86364e-12 417.274

538.189 -15.7681 -1.16425e-12
-15.7681 480.624 -4.40329e-12
-1.16425e-12 -4.40329e-12 513.471

457.237 24.3881 -1.14596e-13
24.3881 487.777 -3.41001e-12
-1.14596e-13 -3.41001e-12 488.346

461.248 -13.535 -2.43162e-12
-13.535 519.128 -2.37558e-12
-2.43162e-12 -2.37558e-12 495.707

514.961 -8.00003 1.85185e-13
-8.00003 438.183 -2.11727e-12
1.85185e-13 -2.11727e-12 494.27

488.309 -22.2842 5.15884e-13
-22.2842 541.596 -4.13891e-13
5.15884e-13 -4.13891e-13 515.743

556.046 -6.59635 4.22388e-12
-6.59635 560.39 -2.2247e-12
4.22388e-12 -2.2247e-12 538.723

463.858 -29.9081 -9.45614e-13
-29.9081 483.188 -1.28194e-12
-9.45614e-13 -1.28194e-12 483.592

341.701 11.4534 5.17186e-12
11.4534 406.186 5.17512e-12
5.17186e-12 5.17512e-12 319.477

422.473 -28.1458 3.47929e-12
-28.1458 391.235 2.18196e-12
3.47929e-12 2.18196e-12 375.14

507.376 -13.7723 2.95941e-12
-13.7723 558.743 1.81336e-12
2.95941e-12 1.81336e-12 525.246

501.049 0.504384 -8.52207e-13
0.504384 441.272 2.33961e-12
-8.52207e-13 2.33961e-12 487.079

476.935 -21.5246 -4.23247e-12
-21.5246 507.414 1.49954e-12
-4.23247e-12 1.49954e-12 501.498

459.09 25.6976 1.38867e-12
25.6976 484.593 -2.31922e-12
1.38867e-12 -2.31922e-12 487.974

394.423 -31.4637 -5.14907e-12
-31.4637 400.592 2.15294e-12
-5.14907e-12 2.15294e-12 357.515

552.122 -7.08521 -5.72808e-12
-7.08521 585.291 5.49516e-12
-5.72808e-12 5.49516e-12 542.598

347.204 -33.076 6.29659e-12
-33.076 382.6 -2.449e-12
6.29659e-12 -2.449e-12 303.43

490.862 -19.1794 4.01279e-12
-19.1794 448.38 6.161e-13
4.01279e-12 6.161e-13 467.117

519.701 1.97019 6.61027e-13
1.97019 466.807 1.62744e-12
6.61027e-13 1.62744e-12 502.825

570.555 17.8751 9.11863e-13
17.8751 566.476 -1.26003e-12
9.11863e-13 -1.26003e-12 542.37

375.284 20.1823 8.47322e-13
20.1823 424.024 1.68991e-12
8.47322e-13 1.68991e-12 360.214

489.074 27.2102 6.8449e-13
27.2102 468.532 3.15747e-12
6.8449e-13 3.15747e-12 476.632

454.371 -24.5111 -1.68162e-13
-24.5111 415.335 1.61441e-12
-1.68162e-13 1.61441e-12 418.595

454.711 -17.8384 -3.3677e-12
-17.8384 494.899 1.74083e-13
-3.3677e-12 1.74083e-13 482.634

379.191 35.0674 -3.59298e-12
35.0674 366.024 1.79294e-12
-3.59298e-12 1.79294e-12 317.043

449.144 -21.831 -1.58984e-12
-21.831 491.696 3.85825e-12
-1.58984e-12 3.85825e-12 479.765

485.483 30.8501 9.01797e-13
30.8501 465.128 -1.0895e-12
9.01797e-13 -1.0895e-12 473.438

480.314 -25.2437 -2.16893e-12
-25.2437 442.359 6.81233e-13
-2.16893e-12 6.81233e-13 455.434

448.21 -25.126 3.74811e-13
-25.126 469.759 -8.51467e-13
3.74811e-13 -8.51467e-13 458.088

445.336 -18.6877 4.14957e-12
-18.6877 393.453 -8.7752e-13
4.14957e-12 -8.7752e-13 397.25

470.644 -18.8492 7.6857e-13
-18.8492 422.845 2.31282e-12
7.6857e-13 2.31282e-12 437.523

458.99 -25.3369 -3.39195e-12
-25.3369 485.419 2.61883e-12
-3.39195e-12 2.61883e-12 488.817

386.533 35.9684 2.21689e-12
35.9684 381.98 -5.40486e-12
2.21689e-12 -5.40486e-12 348.109

444.486 15.3765 1.25218e-12
15.3765 491.523 -1.69997e-12
1.25218e-12 -1.69997e-12 467.13

469.387 26.4219 5.00044e-13
26.4219 479.948 -1.55994e-12
5.00044e-13 -1.55994e-12 482.537

456.133 25.4736 1.10283e-12
25.4736 486.637 2.50585e-12
1.10283e-12 2.50585e-12 487.237

457.798 11.6213 1.09824e-12
11.6213 506.93 -2.43183e-12
1.09824e-12 -2.43183e-12 486.006

431.941 -8.22678 1.01844e-12
-8.22678 370.747 6.11008e-12
1.01844e-12 6.11008e-12 363.298

376.77 18.6059 3.05711e-12
18.6059 427.255 -1.49688e-12
3.05711e-12 -1.49688e-12 363.874

452.302 -24.3802 1.9534e-12
-24.3802 478.375 4.15668e-13
1.9534e-12 4.15668e-13 470.701

440.736 25.6653 6.69094e-14
25.6653 455.63 -1.0966e-12
6.69094e-14 -1.0966e-12 437.795

390.946 -35.6283 -4.02049e-12
-35.6283 380.268 6.21251e-12
-4.02049e-12 6.21251e-12 350.082

368.932 38.3156 -1.80359e-12
38.3156 327.244 -2.72375e-14
-1.80359e-12 -2.72375e-14 295.675

363.638 -33.3101 -3.21698e-12
-33.3101 394.425 6.03132e-12
-3.21698e-12 6.03132e-12 341.97

397.92 -31.1587 -2.60651e-12
-31.1587 404.182 3.49232e-12
-2.60651e-12 3.49232e-12 362.964

502.846 -6.83866 4.01753e-13
-6.83866 442.239 -3.16354e-12
4.01753e-13 -3.16354e-12 482.307

393.154 30.3409 -9.15416e-13
30.3409 408.968 1.06581e-13
-9.15416e-13 1.06581e-13 363.424

429.69 13.2943 7.58149e-12
13.2943 372.237 -8.10907e-13
7.58149e-12 -8.10907e-13 362.704

350.134 13.3784 4.7183e-12
13.3784 418.503 -1.59872e-12
4.7183e-12 -1.59872e-12 348.465

379.469 -22.3397 -3.46034e-12
-22.3397 423.501 -5.76842e-12
-3.46034e-12 -5.76842e-12 363.438

491.198 -1.09146 4.60965e-12
-1.09146 550.868 1.13687e-12
4.60965e-12 1.13687e-12 516.296

372.853 2.24654 1.00142e-12
2.24654 437.775 -1.56675e-12
1.00142e-12 -1.56675e-12 373.51

357.88 31.0884 -4.07082e-12
31.0884 399.475 -5.83829e-13
-4.07082e-12 -5.83829e-13 341.951

457.98 12.1077 -7.73409e-13
12.1077 510.55 3.79134e-12
-7.73409e-13 3.79134e-12 488.392

421.441 -27.6468 9.01205e-12
-27.6468 389.061 -5.77553e-12
9.01205e-12 -5.77553e-12 375.062

524.746 20.5569 -6.45706e-13
20.5569 469.739 -2.48157e-12
-6.45706e-13 -2.48157e-12 500.724

534.916 26.2704 4.27747e-12
26.2704 506.85 -7.01069e-13
4.27747e-12 -7.01069e-13 516.084

494.805 -18.5673 -5.80869e-13
-18.5673 449.015 2.45848e-12
-5.80869e-13 2.45848e-12 470.845

554.576 -1.80101 -1.46401e-13
-1.80101 516.014 -1.45513e-12
-1.46401e-13 -1.45513e-12 525.707

473.276 -31.8116 -1.74142e-12
-31.8116 475.686 5.75954e-12
-1.74142e-12 5.75954e-12 478.567

412.586 23.3271 2.63256e-12
23.3271 357.186 3.18678e-12
2.63256e-12 3.18678e-12 348.082

464.165 30.162 7.1824e-13
30.162 482.757 -1.75563e-12
7.1824e-13 -1.75563e-12 483.193

464.428 29.2058 1.56675e-12
29.2058 482.23 5.34979e-13
1.56675e-12 5.34979e-13 482.755

393.936 30.66 -2.66098e-12
30.66 405.713 6.07988e-12
-2.66098e-12 6.07988e-12 360.859

502.844 27.0848 -3.67114e-14
27.0848 482.655 1.03029e-13
-3.67114e-14 1.03029e-13 490.724

415.34 3.52505 5.33854e-12
3.52505 339.008 -3.50405e-12
5.33854e-12 -3.50405e-12 340.815

493.112 31.8172 -8.58572e-14
31.8172 487.213 -2.14258e-12
-8.58572e-14 -2.14258e-12 495.564

476.317 -12.5997 5.74059e-13
-12.5997 522.44 -6.51331e-13
5.74059e-13 -6.51331e-13 500.238

536.917 24.2783 4.08562e-13
24.2783 507.393 -1.95814e-12
4.08562e-13 -1.95814e-12 516.621

468.167 -29.5786 5.83237e-13
-29.5786 479.959 -2.84069e-12
5.83237e-13 -2.84069e-12 483.051

464.551 -4.89811 -3.19004e-13
-4.89811 521.545 2.45137e-12
-3.19004e-13 2.45137e-12 490.969

400.929 -24.5557 -2.93691e-13
-24.5557 349.014 7.93913e-12
-2.93691e-13 7.93913e-12 323.941

418.956 29.6923 -3.99088e-13
29.6923 392.454 -4.56997e-12
-3.99088e-13 -4.56997e-12 373.76

352.335 14.6961 1.80537e-12
14.6961 417.201 7.96992e-13
1.80537e-12 7.96992e-13 348.23

500.519 -1.13886 5.43772e-12
-1.13886 442.784 -2.49334e-12
5.43772e-12 -2.49334e-12 487.699

492.46 0.00223378 -1.25411e-12
0.00223378 438.093 6.55032e-13
-1.25411e-12 6.55032e-13 474.409

452.955 23.1236 3.06422e-14
23.1236 479.697 3.8843e-13
3.06422e-14 3.8843e-13 475.576

481.294 23.8709 1.76896e-12
23.8709 502.864 1.61073e-12
1.76896e-12 1.61073e-12 501.244

456.578 -24.3807 2.66056e-12
-24.3807 487.342 1.20319e-12
2.66056e-12 1.20319e-12 488.488

457.827 -0.672703 3.66092e-12
-0.672703 517.932 1.43589e-12
3.66092e-12 1.43589e-12 486.391

458.875 25.5903 7.83817e-13
25.5903 486.459 3.59194e-13
7.83817e-13 3.59194e-13 488.51

465.551 -10.3077 -2.53664e-12
-10.3077 408.077 -1.10726e-13
-2.53664e-12 -1.10726e-13 427.216

400.858 -32.8327 -2.5917e-12
-32.8327 414.949 4.29286e-12
-2.5917e-12 4.29286e-12 385.159

518.091 -2.3006 -3.99902e-12
-2.3006 465.733 -3.20928e-13
-3.99902e-12 -3.20928e-13 500.922

391.866 -34.5074 -5.17157e-12
-34.5074 379.6 -5.41197e-12
-5.17157e-12 -5.41197e-12 347.412

477.996 19.0861 3.5835e-12
19.0861 509.196 1.24552e-12
3.5835e-12 1.24552e-12 501.841

506.108 -26.4786 -4.84353e-13
-26.4786 470.243 3.44021e-12
-4.84353e-13 3.44021e-12 487.268

424.995 -9.69003 -1.02555e-12
-9.69003 366.726 1.62226e-12
-1.02555e-12 1.62226e-12 355.976

530.263 -23.1919 2.38387e-12
-23.1919 488.754 -2.28824e-12
2.38387e-12 -2.28824e-12 506.486

500.888 2.35826 2.56151e-12
2.35826 444.572 -6.35048e-14
2.56151e-12 -6.35048e-14 489.201

521.188 -23.3213 -7.51991e-13
-23.3213 501.839 1.07603e-12
-7.51991e-13 1.07603e-12 508.53

502.012 -25.8593 1.62241e-13
-25.8593 461.488 9.29627e-13
1.62241e-13 9.29627e-13 481.24

498.823 -8.546 3.11987e-12
-8.546 445.132 2.96059e-16
3.11987e-12 2.96059e-16 479.34

482.216 -23.0681 9.9328e-13
-23.0681 504.989 -1.6878e-12
9.9328e-13 -1.6878e-12 502.532

428.535 -31.3413 8.18782e-12
-31.3413 410.584 -3.61666e-12
8.18782e-12 -3.61666e-12 398.993

503.264 -24.587 -6.0929e-12
-24.587 464.71 1.5099e-14
-6.0929e-12 1.5099e-14 482.156

441.236 10.8642 -9.96063e-12
10.8642 378.477 -2.6219e-12
-9.96063e-12 -2.6219e-12 387.794

500.034 26.3401 -1.09956e-12
26.3401 498.581 2.42621e-13
-1.09956e-12 2.42621e-13 500.102

463.746 -37.6131 2.92003e-12
-37.6131 488.385 2.88066e-12
2.92003e-12 2.88066e-12 494.079

464.854 37.2653 -1.12295e-12
37.2653 487.297 -7.32747e-15
-1.12295e-12 -7.32747e-15 493.794

446.322 -28.5735 -5.56e-13
-28.5735 500.011 -3.46301e-12
-5.56e-13 -3.46301e-12 492.308

448.557 27.0642 1.47867e-12
27.0642 500.702 -4.34911e-13
1.47867e-12 -4.34911e-13 492.496

513.066 -8.52769 -4.35207e-14
-8.52769 436.401 1.48518e-12
-4.35207e-14 1.48518e-12 492.756

511.228 9.2737 -7.12911e-13
9.2737 437.998 4.08991e-12
-7.12911e-13 4.08991e-12 492.393

501.652 -9.84606 1.43826e-12
-9.84606 451.738 -3.18027e-12
1.43826e-12 -3.18027e-12 483.017

510.862 32.1163 2.19972e-13
32.1163 510.387 -1.14852e-12
2.19972e-13 -1.14852e-12 514.052

509.638 -32.8544 -3.328e-12
-32.8544 510.064 9.04841e-13
-3.328e-12 9.04841e-13 513.691

481.806 16.0686 7.00773e-13
16.0686 539.129 3.34074e-12
7.00773e-13 3.34074e-12 514.324

483 -15.801 -2.91352e-12
-15.801 538.718 2.8173e-12
-2.91352e-12 2.8173e-12 514.345

556.867 -3.74747 -7.16612e-13
-3.74747 506.83 1.49599e-12
-7.16612e-13 1.49599e-12 524.99

558.422 3.61025 1.33153e-12
3.61025 505.154 -6.38304e-13
1.33153e-12 -6.38304e-13 525.362

387.304 9.8367 1.82795e-12
9.8367 449.191 -4.16496e-12
1.82795e-12 -4.16496e-12 397.082

472.383 -24.7739 -1.12473e-12
-24.7739 480.749 -2.05066e-12
-1.12473e-12 -2.05066e-12 484.972

443.456 -36.3877 -1.37608e-12
-36.3877 485.527 2.0434e-12
-1.37608e-12 2.0434e-12 486.623

473.635 -4.66424 -4.27155e-12
-4.66424 420.431 9.65228e-13
-4.27155e-12 9.65228e-13 436.333

540.251 -16.6949 -4.69402e-13
-16.6949 484.189 3.55242e-12
-4.69402e-13 3.55242e-12 515.285

540.971 16.1758 -2.94875e-13
16.1758 485.412 -8.81665e-13
-2.94875e-13 -8.81665e-13 515.89

506.856 0.121883 7.99065e-13
0.121883 423.545 3.2121e-12
7.99065e-13 3.2121e-12 486.997

384.786 23.3748 8.84626e-13
23.3748 432.291 2.29742e-13
8.84626e-13 2.29742e-13 385.471

442.327 36.1716 -3.18664e-12
36.1716 485.205 4.01442e-12
-3.18664e-12 4.01442e-12 485.828

452.591 -23.3957 1.72262e-12
-23.3957 494.948 1.56379e-12
1.72262e-12 1.56379e-12 483.585

443.242 23.3524 -8.64494e-13
23.3524 397.513 2.0132e-14
-8.64494e-13 2.0132e-14 400.367

530.965 23.8581 -7.44886e-13
23.8581 488.004 -8.28374e-13
-7.44886e-13 -8.28374e-13 507.244

428.473 -31.3131 5.99224e-13
-31.3131 410.868 1.49984e-12
5.99224e-13 1.49984e-12 398.812

519.855 -3.23086 6.52811e-13
-3.23086 469.054 -3.6889e-13
6.52811e-13 -3.6889e-13 502.681

439.39 -34.1611 2.40437e-12
-34.1611 485.498 3.40143e-12
2.40437e-12 3.40143e-12 485.817

389.178 8.31983 -3.58108e-12
8.31983 452.321 -1.68162e-13
-3.58108e-12 -1.68162e-13 400.849

385.873 21.8112 -9.4739e-15
21.8112 435.767 -1.18542e-12
-9.4739e-15 -1.18542e-12 388.689

383.841 35.7752 8.51467e-12
35.7752 362.326 -6.63173e-14
8.51467e-12 -6.63173e-14 318.323

408.176 1.57873 2.49164e-12
1.57873 332.151 -4.33883e-12
2.49164e-12 -4.33883e-12 327.319

485.45 -22.8044 3.67647e-12
-22.8044 502.853 6.47242e-13
3.67647e-12 6.47242e-13 501.744

351.873 31.1833 -1.85096e-12
31.1833 388.825 5.45223e-12
-1.85096e-12 5.45223e-12 312.352

451.343 23.6097 3.61785e-13
23.6097 478.406 9.70483e-13
3.61785e-13 9.70483e-13 465.207

442.19 -5.34946 4.85538e-13
-5.34946 377.12 1.68073e-12
4.85538e-13 1.68073e-12 387.732

464.148 11.2159 -1.92972e-12
11.2159 407.293 -2.05199e-12
-1.92972e-12 -2.05199e-12 424.916

505.372 0.429906 4.04284e-12
0.429906 421.565 -3.30979e-12
4.04284e-12 -3.30979e-12 485.668

449.343 -29.0312 8.1705e-13
-29.0312 501.991 -9.34956e-13
8.1705e-13 -9.34956e-13 493.582

572.506 -6.31905 1.8842e-12
-6.31905 589.48 -5.33618e-12
1.8842e-12 -5.33618e-12 549.248

463.133 37.4117 1.82787e-12
37.4117 487.02 -2.81504e-12
1.82787e-12 -2.81504e-12 493.058

408.731 1.66326 1.40687e-12
1.66326 331.598 -2.62893e-12
1.40687e-12 -2.62893e-12 308.899

404.228 -32.7864 -2.22163e-12
-32.7864 415.502 -9.23706e-13
-2.22163e-12 -9.23706e-13 387.383

443.133 36.6131 4.16001e-12
36.6131 485.498 -4.21115e-12
4.16001e-12 -4.21115e-12 486.565

444.673 -11.1338 -4.25332e-12
-11.1338 498.928 -3.75403e-12
-4.25332e-12 -3.75403e-12 471.435

386.067 -25.5141 5.25742e-12
-25.5141 428.894 5.63934e-12
5.25742e-12 5.63934e-12 384.558

449.443 28.8302 -4.4604e-12
28.8302 501.624 1.59517e-12
-4.4604e-12 1.59517e-12 493.282

452.704 -26.1414 -2.53782e-12
-26.1414 419.296 -6.39488e-13
-2.53782e-12 -6.39488e-13 419.511

579.548 10.4834 9.58345e-13
10.4834 582.16 -1.39218e-11
9.58345e-13 -1.39218e-11 549.033

398.322 30.8714 -8.43769e-13
30.8714 422.051 -1.46609e-12
-8.43769e-13 -1.46609e-12 388.156

515.7 8.12678 3.68002e-13
8.12678 437.261 -2.11357e-12
3.68002e-13 -2.11357e-12 494.575

493.799 30.1905 1.16174e-12
30.1905 484.741 -1.59635e-12
1.16174e-12 -1.59635e-12 493.795

453.458 23.3317 -1.83246e-12
23.3317 479.156 -5.13071e-12
-1.83246e-12 -5.13071e-12 475.792

510.696 -32.489 -4.48234e-13
-32.489 512.447 -9.85841e-13
-4.48234e-13 -9.85841e-13 515

510.302 -23.19 1.38201e-12
-23.19 473.175 -1.81218e-12
1.38201e-12 -1.81218e-12 489.671

511.397 10.4708 1.1708e-12
10.4708 557.986 4.07378e-12
1.1708e-12 4.07378e-12 523.726

452.166 -23.4336 2.39808e-14
-23.4336 480.159 1.45069e-13
2.39808e-14 1.45069e-13 468.943

394.404 -9.70762 7.3328e-12
-9.70762 316.409 -3.64916e-12
7.3328e-12 -3.64916e-12 295.571

387.284 -14.277 1.8711e-12
-14.277 306.055 1.78524e-12
1.8711e-12 1.78524e-12 290.045

547.578 16.5293 -1.24286e-12
16.5293 507.758 2.78266e-12
-1.24286e-12 2.78266e-12 519.314

436.48 22.5013 -6.75608e-13
22.5013 469.129 -3.22764e-12
-6.75608e-13 -3.22764e-12 447.816

475.956 29.1629 5.32019e-12
29.1629 467.638 2.08071e-12
5.32019e-12 2.08071e-12 471.472

450.294 0.688662 2.5769e-12
0.688662 392.77 -4.2127e-12
2.5769e-12 -4.2127e-12 395.668

478.345 6.57125 -2.40396e-12
6.57125 541.272 -4.35563e-12
-2.40396e-12 -4.35563e-12 507.534

507.324 16.5408 5.1692e-12
16.5408 461.129 7.20905e-13
5.1692e-12 7.20905e-13 488.073

389.971 -25.7606 -6.58259e-12
-25.7606 430.029 -2.66572e-12
-6.58259e-12 -2.66572e-12 387.727

456.312 -2.57245 -4.45829e-13
-2.57245 517.007 2.17071e-12
-4.45829e-13 2.17071e-12 484.834

400.583 13.3649 3.0879e-12
13.3649 452.978 -4.80919e-12
3.0879e-12 -4.80919e-12 404.629

486.906 -29.713 -1.22273e-12
-29.713 465.807 6.71167e-13
-1.22273e-12 6.71167e-13 474.251

430.291 -29.9469 4.95959e-12
-29.9469 423.622 3.22468e-12
4.95959e-12 3.22468e-12 404.948

399.704 31.6222 -4.41958e-12
31.6222 418.225 3.33363e-12
-4.41958e-12 3.33363e-12 385.995

623.998 -15.0202 -2.17544e-12
-15.0202 581.944 -1.06204e-11
-2.17544e-12 -1.06204e-11 557.899

494.516 2.04123 -3.27494e-12
2.04123 552.137 6.44166e-12
-3.27494e-12 6.44166e-12 517.919

483.495 20.3002 1.84741e-13
20.3002 542.036 3.44317e-12
1.84741e-13 3.44317e-12 516.024

544.699 15.4391 -2.24813e-12
15.4391 479.964 -4.4326e-12
-2.24813e-12 -4.4326e-12 515.746

473.741 -26.1885 -2.56151e-12
-26.1885 479.749 -1.46461e-12
-2.56151e-12 -1.46461e-12 483.01

452.117 17.957 -2.32466e-12
17.957 404.501 2.6373e-12
-2.32466e-12 2.6373e-12 406.911

531.575 -5.29419 7.45811e-13
-5.29419 580.796 3.21254e-12
7.45811e-13 3.21254e-12 537.112

512.18 -18.9882 -8.54132e-13
-18.9882 464.786 -9.02685e-13
-8.54132e-13 -9.02685e-13 493.021

473.968 -15.5987 -1.7953e-12
-15.5987 423.169 -2.38269e-12
-1.7953e-12 -2.38269e-12 438.873

401.993 11.603 -1.82402e-12
11.603 455.95 -6.8449e-13
-1.82402e-12 -6.8449e-13 407.773

410.916 -25.7337 -2.67164e-12
-25.7337 435.573 2.01557e-12
-2.67164e-12 2.01557e-12 398.949

532.042 -25.2738 -3.76203e-12
-25.2738 523.187 5.03804e-12
-3.76203e-12 5.03804e-12 519.112

423.049 31.9589 -6.71463e-13
31.9589 417.241 -3.56929e-12
-6.71463e-13 -3.56929e-12 400.298

535.475 -25.1348 1.98804e-12
-25.1348 505.782 2.6518e-12
1.98804e-12 2.6518e-12 515.653

453.486 2.59732 -8.95284e-13
2.59732 397.013 -8.24289e-12
-8.95284e-13 -8.24289e-12 401.891

311.094 -28.93 -2.7273e-12
-28.93 376.591 5.93066e-12
-2.7273e-12 5.93066e-12 289.99

431.868 -29.2304 3.55153e-12
-29.2304 424.041 -4.91459e-14
3.55153e-12 -4.91459e-14 406.147

353.756 32.1583 1.10489e-12
32.1583 392.538 -1.09897e-12
1.10489e-12 -1.09897e-12 312.963

470.34 -11.877 4.25907e-12
-11.877 529.545 -9.78773e-13
4.25907e-12 -9.78773e-13 500.297

391.444 -13.8211 3.89022e-12
-13.8211 449.246 9.81733e-13
3.89022e-12 9.81733e-13 400.192

602.851 -23.9883 6.52545e-12
-23.9883 602.264 2.55514e-12
6.52545e-12 2.55514e-12 557.84

408.365 23.7703 -2.62546e-12
23.7703 441.932 2.62901e-13
-2.62546e-12 2.62901e-13 402.215

496.57 -32.7262 2.61657e-12
-32.7262 490.634 2.35634e-12
2.61657e-12 2.35634e-12 497.44

388.183 -11.9629 -1.16655e-12
-11.9629 448.278 -1.72899e-12
-1.16655e-12 -1.72899e-12 397.009

516.704 -19.1169 -1.3601e-12
-19.1169 465.747 3.55271e-14
-1.3601e-12 3.55271e-14 496.237

410.68 23.8766 -2.65684e-12
23.8766 439.305 1.71478e-12
-2.65684e-12 1.71478e-12 400.692

488.913 -4.97544 -3.62969e-13
-4.97544 435.064 -7.65795e-13
-3.62969e-13 -7.65795e-13 460.376

305.778 -30.3422 1.7432e-12
-30.3422 391.433 4.35089e-12
1.7432e-12 4.35089e-12 262.566

438.603 21.0138 -1.87761e-12
21.0138 473.906 1.61589e-12
-1.87761e-12 1.61589e-12 458.342

445.681 -19.3229 7.23688e-12
-19.3229 393.972 -1.03354e-12
7.23688e-12 -1.03354e-12 399.618

551.599 -21.4459 6.26462e-13
-21.4459 499.512 -1.83586e-12
6.26462e-13 -1.83586e-12 520.099

424.465 31.7534 3.40705e-12
31.7534 413.318 -3.54561e-12
3.40705e-12 -3.54561e-12 397.954

459.157 -29.9713 -1.34174e-12
-29.9713 437.633 3.64627e-12
-1.34174e-12 3.64627e-12 439.295

510.615 20.8852 -6.57252e-12
20.8852 476.068 -1.55846e-12
-6.57252e-12 -1.55846e-12 492.752

461.5 -28.0758 -1.6905e-12
-28.0758 485.736 -7.91515e-13
-1.6905e-12 -7.91515e-13 488.713

413.716 -26.2247 4.43971e-12
-26.2247 436.24 7.17648e-13
4.43971e-12 7.17648e-13 401.435

426.071 28.9805 -8.56204e-12
28.9805 429.893 6.59621e-13
-8.56204e-12 6.59621e-13 406.857

452.497 26.1909 -5.55763e-12
26.1909 418.224 2.44604e-12
-5.55763e-12 2.44604e-12 419.055

521.967 -14.6098 1.67244e-12
-14.6098 477.174 2.7125e-12
1.67244e-12 2.7125e-12 500.061

403.558 -16.6172 -3.07487e-12
-16.6172 451.739 2.41111e-12
-3.07487e-12 2.41111e-12 406.44

496.043 -17.5682 -1.11318e-12
-17.5682 447.603 -3.71658e-12
-1.11318e-12 -3.71658e-12 471.497

487.761 16.9082 -1.78228e-13
16.9082 436.256 2.54108e-12
-1.78228e-13 2.54108e-12 460.585

513.34 -9.38697 -8.32564e-12
-9.38697 555.776 3.48758e-13
-8.32564e-12 3.48758e-13 523.027

453.975 -13.4298 4.56524e-12
-13.4298 402.176 6.52071e-13
4.56524e-12 6.52071e-13 406.74

403.199 0.593998 -2.0699e-12
0.593998 465.722 7.56728e-13
-2.0699e-12 7.56728e-13 417.802

475.023 18.5547 -4.7186e-12
18.5547 428.769 2.35575e-12
-4.7186e-12 2.35575e-12 442.218

451.139 27.6035 1.73491e-12
27.6035 421.836 2.43805e-12
1.73491e-12 2.43805e-12 420.841

400.866 -15.6858 3.20928e-12
-15.6858 451.379 -2.64322e-12
3.20928e-12 -2.64322e-12 403.733

405.998 -1.2023 8.58276e-13
-1.2023 468.031 -8.75744e-12
8.58276e-13 -8.75744e-12 421.217

516.197 29.1343 -1.44359e-12
29.1343 498.024 9.10087e-13
-1.44359e-12 9.10087e-13 504.874

441.702 -10.922 -7.86186e-13
-10.922 500.655 -2.04281e-12
-7.86186e-13 -2.04281e-12 471.146

451.437 -26.7148 -1.16588e-12
-26.7148 418.763 -2.72967e-12
-1.16588e-12 -2.72967e-12 419.35

444.384 21.3321 -3.73035e-13
21.3321 395.296 -1.18128e-12
-3.73035e-13 -1.18128e-12 398.199

497.592 23.6652 8.04098e-13
23.6652 458.088 9.69299e-13
8.04098e-13 9.69299e-13 476.548

447.68 5.47066 -2.50977e-12
5.47066 508.788 -5.85606e-13
-2.50977e-12 -5.85606e-13 476.879

427.647 29.065 -3.90443e-12
29.065 426.432 3.42955e-12
-3.90443e-12 3.42955e-12 405.108

536.82 22.9638 5.34683e-13
22.9638 531.896 2.04311e-12
5.34683e-13 2.04311e-12 522.783

314.749 -59.6908 9.4739e-14
-59.6908 282.768 -1.35441e-11
9.4739e-14 -1.35441e-11 223.422

480.592 -25.0474 -2.11386e-12
-25.0474 445.069 1.52471e-12
-2.11386e-12 1.52471e-12 456.644

336.662 7.06978 -2.13844e-12
7.06978 409.153 -1.8332e-12
-2.13844e-12 -1.8332e-12 319.438

460.536 -28.8888 -1.81129e-12
-28.8888 444.734 4.17029e-12
-1.81129e-12 4.17029e-12 443.45

96.4235 -52.7007 -3.19744e-14
-52.7007 306.617 -1.02318e-12
-3.19744e-14 -1.02318e-12 113.699

95.9574 51.4514 9.13047e-13
51.4514 306.881 -9.56864e-13
9.13047e-13 -9.56864e-13 114.487

181.516 117.154 -1.08713e-12
117.154 226.076 9.4739e-13
-1.08713e-12 9.4739e-13 113.587

182.814 -117.096 8.95284e-13
-117.096 223.311 -2.33058e-12
8.95284e-13 -2.33058e-12 113.561

321.582 -1.36335 -5.03538e-12
-1.36335 84.6532 -5.5569e-15
-5.03538e-12 -5.5569e-15 114.928

274.432 -91.125 -3.68061e-12
-91.125 127.418 3.59298e-12
-3.68061e-12 3.59298e-12 113.802

275.128 91.6528 -3.12165e-12
91.6528 128.251 -4.52379e-12
-3.12165e-12 -4.52379e-12 114.572

525.238 14.3302 9.27554e-13
14.3302 474.71 1.4951e-12
9.27554e-13 1.4951e-12 502.312

556.796 25.5367 -7.95808e-13
25.5367 541.182 3.17095e-12
-7.95808e-13 3.17095e-12 533.449

492.09 6.60595 4.22773e-13
6.60595 439.119 -1.13909e-12
4.22773e-13 -1.13909e-12 471.4

470.297 21.7843 2.14347e-13
21.7843 424.514 3.21905e-12
2.14347e-13 3.21905e-12 438.192

409.973 17.7441 4.38434e-12
17.7441 461.07 -2.0132e-13
4.38434e-12 -2.0132e-13 425.041

448.008 28.898 5.91172e-12
28.898 424.703 -5.33025e-12
5.91172e-12 -5.33025e-12 420.748

487.147 -29.6632 2.54019e-13
-29.6632 465.625 -6.33271e-13
2.54019e-13 -6.33271e-13 474.587

449.365 28.0273 4.1099e-12
28.0273 421.069 -1.22569e-12
4.1099e-12 -1.22569e-12 418.64

402.961 -2.84118 1.85674e-12
-2.84118 465.378 -1.02318e-12
1.85674e-12 -1.02318e-12 417.538

555.802 -26.0975 1.66356e-12
-26.0975 543.376 4.583e-13
1.66356e-12 4.583e-13 533.692

405.499 -4.86229 1.30266e-12
-4.86229 467.117 -5.61566e-12
1.30266e-12 -5.61566e-12 420.597

522.291 23.0161 -5.53039e-13
23.0161 499.741 -7.175e-13
-5.53039e-13 -7.175e-13 507.968

423.375 26.8702 -5.69026e-12
26.8702 386.505 -1.59458e-12
-5.69026e-12 -1.59458e-12 373.025

480.107 -13.2161 -3.42659e-12
-13.2161 532.767 -5.05077e-13
-3.42659e-12 -5.05077e-13 511.999

484.195 13.7278 4.14483e-14
13.7278 432.774 1.13835e-12
4.14483e-14 1.13835e-12 456.873

457.366 -29.9872 -6.39488e-13
-29.9872 436.974 -1.90662e-13
-6.39488e-13 -1.90662e-13 437.831

454.306 -24.7131 2.81612e-12
-24.7131 416.802 9.40877e-13
2.81612e-12 9.40877e-13 419.851

547.403 -16.0745 2.99612e-13
-16.0745 509.304 -3.36649e-12
2.99612e-13 -3.36649e-12 519.383

475.97 27.9286 -2.67579e-12
27.9286 449.704 2.45996e-12
-2.67579e-12 2.45996e-12 456.923

469.098 23.9771 -4.26148e-12
23.9771 427.847 8.17124e-13
-4.26148e-12 8.17124e-13 439.828

432.426 -2.79295 8.49913e-13
-2.79295 493.634 2.36729e-12
8.49913e-13 2.36729e-12 457.105

417.605 5.8733 4.31276e-12
5.8733 479.555 1.6301e-12
4.31276e-12 1.6301e-12 440.175

463.008 2.64667 -4.82044e-12
2.64667 402.278 -3.62162e-12
-4.82044e-12 -3.62162e-12 422.319

438.645 -7.28953 3.45561e-12
-7.28953 373.913 1.54661e-12
3.45561e-12 1.54661e-12 381.216

454.841 30.4843 6.25929e-12
30.4843 439.013 -3.87542e-12
6.25929e-12 -3.87542e-12 437.835

478.463 -26.1551 -3.71732e-12
-26.1551 443.541 -1.56763e-12
-3.71732e-12 -1.56763e-12 454.644

525.699 -21.2543 5.42736e-12
-21.2543 497.827 -1.54513e-12
5.42736e-12 -1.54513e-12 508.617

437.73 -31.6332 4.46221e-12
-31.6332 437.653 3.35021e-12
4.46221e-12 3.35021e-12 426.857

417.588 -27.7851 -1.94393e-12
-27.7851 444.393 -1.44773e-12
-1.94393e-12 -1.44773e-12 419.686

430.644 29.8867 -4.75708e-12
29.8867 442.742 6.53581e-12
-4.75708e-12 6.53581e-12 426.495

416.223 -9.5778 -9.53237e-13
-9.5778 475.209 1.00956e-12
-9.53237e-13 1.00956e-12 436.453

428.893 -1.54474 2.52539e-12
-1.54474 491.866 2.84454e-12
2.52539e-12 2.84454e-12 453.992

445.18 5.74795 8.91361e-13
5.74795 508.041 1.67451e-12
8.91361e-13 1.67451e-12 474.912

414.617 -21.0887 -4.4705e-14
-21.0887 458.405 -3.24126e-12
-4.4705e-14 -3.24126e-12 426.063

496.867 24.111 4.09746e-13
24.111 455.694 1.86221e-12
4.09746e-13 1.86221e-12 474.591

483.37 -9.58965 -1.23812e-12
-9.58965 430.11 -4.56997e-12
-1.23812e-12 -4.56997e-12 455.218

415.631 7.46519 2.19338e-12
7.46519 477.118 3.46567e-12
2.19338e-12 3.46567e-12 436.911

443.953 -9.70106 -1.43964e-13
-9.70106 501.501 -1.70471e-12
-1.43964e-13 -1.70471e-12 471.005

433.172 -16.3305 1.60227e-12
-16.3305 481.673 1.14871e-13
1.60227e-12 1.14871e-13 455.666

463.537 -8.2391 -6.26462e-12
-8.2391 406.333 -1.35122e-12
-6.26462e-12 -1.35122e-12 421.469

494.432 -32.3468 5.97034e-12
-32.3468 487.614 -6.32709e-12
5.97034e-12 -6.32709e-12 496.249

422.942 9.32072 3.43473e-12
9.32072 479.089 6.44818e-13
3.43473e-12 6.44818e-13 440.978

564.357 -18.2126 -4.29671e-12
-18.2126 529.951 5.03168e-12
-4.29671e-12 5.03168e-12 531.83

309.047 24.8224 9.53312e-13
24.8224 379.421 3.83693e-12
9.53312e-13 3.83693e-12 289.796

501.697 -26.6261 3.45442e-12
-26.6261 499.489 -2.15975e-12
3.45442e-12 -2.15975e-12 501.198

515.648 -30.2028 -1.73017e-12
-30.2028 498.403 -4.75827e-12
-1.73017e-12 -4.75827e-12 504.917

429.221 -0.701312 -2.63693e-12
-0.701312 491.991 1.10253e-12
-2.63693e-12 1.10253e-12 454.143

474.879 -16.6224 -4.82695e-12
-16.6224 428.335 -4.14483e-14
-4.82695e-12 -4.14483e-14 441.954

462.304 12.8416 -4.2466e-14
12.8416 511.273 1.1943e-12
-4.2466e-14 1.1943e-12 489.12

240.775 -3.18048 4.51883e-12
-3.18048 360.686 3.42245e-12
4.51883e-12 3.42245e-12 226.965

432.402 14.2735 2.46144e-12
14.2735 485.354 -3.42778e-12
2.46144e-12 -3.42778e-12 456.881

458.11 -29.4889 2.67046e-13
-29.4889 443.168 4.21648e-12
2.67046e-13 4.21648e-12 440.76

304.186 25.1054 -3.46449e-12
25.1054 394.583 5.25091e-12
-3.46449e-12 5.25091e-12 264.34

603.551 26.0982 -1.88738e-12
26.0982 597.956 1.17049e-11
-1.88738e-12 1.17049e-11 558.157

608.285 -27.8076 3.41149e-12
-27.8076 595.03 -8.98052e-12
3.41149e-12 -8.98052e-12 558.29

463.492 -30.4188 -7.94624e-13
-30.4188 459.037 -4.8012e-12
-7.94624e-13 -4.8012e-12 459.071

434.583 -31.1599 4.43438e-12
-31.1599 436.358 2.2992e-12
4.43438e-12 2.2992e-12 424.66

474.099 20.8273 -4.42727e-12
20.8273 431.914 -5.97448e-13
-4.42727e-12 -5.97448e-13 443.971

465.22 15.0059 -2.79954e-12
15.0059 410.115 1.73639e-12
-2.79954e-12 1.73639e-12 427.461

646.07 3.08366 -5.21672e-12
3.08366 645.728 -2.53886e-12
-5.21672e-12 -2.53886e-12 574.619

649.891 -7.00028 -1.30392e-12
-7.00028 641.398 -8.82168e-12
-1.30392e-12 -8.82168e-12 575.148

496.986 4.82431 -8.37848e-13
4.82431 442.033 -7.29639e-13
-8.37848e-13 -7.29639e-13 477.411

443.556 6.73091 -7.82337e-14
6.73091 502.987 -8.08242e-13
-7.82337e-14 -8.08242e-13 471.049

441.97 6.73632 -1.80427e-12
6.73632 502.513 4.87314e-13
-1.80427e-12 4.87314e-13 469.772

321.535 58.6338 -7.19543e-12
58.6338 281.121 4.47168e-12
-7.19543e-12 4.47168e-12 225.076

420.227 -28.1995 2.78533e-12
-28.1995 444.021 -1.7053e-13
2.78533e-12 -1.7053e-13 421.03

520.577 17.9745 1.21828e-12
17.9745 467.529 1.7734e-13
1.21828e-12 1.7734e-13 499.508

472.978 9.53967 -2.34005e-12
9.53967 421.195 -9.71075e-13
-2.34005e-12 -9.71075e-13 436.201

440.628 -26.723 -7.964e-13
-26.723 450.724 -1.88708e-12
-7.964e-13 -1.88708e-12 433.414

469.275 -20.2375 -3.96305e-12
-20.2375 422.715 4.27036e-12
-3.96305e-12 4.27036e-12 437.175

312.472 60.2317 -6.21014e-12
60.2317 281.371 5.25565e-12
-6.21014e-12 5.25565e-12 223.214

492.68 31.069 -1.79797e-12
31.069 489.041 4.03529e-13
-1.79797e-12 4.03529e-13 493.137

410.861 -19.7859 1.7207e-12
-19.7859 457.88 -1.00542e-12
1.7207e-12 -1.00542e-12 423.496

474.127 28.8575 1.79057e-12
28.8575 449.63 -3.91746e-12
1.79057e-12 -3.91746e-12 456.517

430.955 -4.14477 -3.41105e-12
-4.14477 492.971 -1.18009e-12
-3.41105e-12 -1.18009e-12 456.466

423.929 19.609 2.14554e-12
19.609 465.71 8.73375e-13
2.14554e-12 8.73375e-13 434.106

452.746 30.5185 3.91035e-12
30.5185 443.597 -3.33422e-12
3.91035e-12 -3.33422e-12 439.607

428.642 -22.473 1.80241e-12
-22.473 461.135 -2.80428e-12
1.80241e-12 -2.80428e-12 433.811

443.573 -27.3523 -7.33043e-13
-27.3523 450.431 -2.74092e-12
-7.33043e-13 -2.74092e-12 435.044

294.777 11.2569 -7.24606e-13
11.2569 372.584 -4.5001e-14
-7.24606e-13 -4.5001e-14 258.101

357.297 -33.4559 8.51467e-13
-33.4559 389.115 6.98227e-12
8.51467e-13 6.98227e-12 314.127

419.656 -11.6904 -3.4864e-12
-11.6904 476.359 1.94689e-12
-3.4864e-12 1.94689e-12 439.343

478.396 26.4843 1.37076e-12
26.4843 446.798 -1.09779e-12
1.37076e-12 -1.09779e-12 456.083

452.343 29.4777 -2.63552e-12
29.4777 449.025 3.38278e-12
-2.63552e-12 3.38278e-12 442.398

426.807 -21.4337 -3.97164e-12
-21.4337 461.782 -1.68754e-13
-3.97164e-12 -1.68754e-13 432.629

422.929 -11.7822 2.49785e-12
-11.7822 476.646 2.46914e-12
2.49785e-12 2.46914e-12 439.927

457.705 28.4093 5.11117e-12
28.4093 447.086 4.30056e-12
5.11117e-12 4.30056e-12 442.57

425.104 -13.8777 9.51239e-13
-13.8777 476.417 -5.06854e-13
9.51239e-13 -5.06854e-13 442.104

311.264 27.8547 6.55416e-12
27.8547 377.389 2.00373e-12
6.55416e-12 2.00373e-12 289.983

485.169 -4.04133 -4.29543e-12
-4.04133 545.048 -3.33126e-12
-4.29543e-12 -3.33126e-12 511.036

432.984 31.0272 -3.16606e-12
31.0272 439.627 2.35782e-12
-3.16606e-12 2.35782e-12 426.018

509.308 14.9011 2.75987e-12
14.9011 463.16 2.87089e-12
2.75987e-12 2.87089e-12 488.604

516.92 -15.9274 2.77052e-12
-15.9274 467.581 4.21766e-12
2.77052e-12 4.21766e-12 493.922

383.924 -24.2043 6.21251e-12
-24.2043 305.947 -7.85623e-12
6.21251e-12 -7.85623e-12 285.353

442.277 -21.2671 -2.34065e-12
-21.2671 475.998 2.51769e-12
-2.34065e-12 2.51769e-12 459.319

447.826 26.6981 0
26.6981 466.205 -8.28967e-14
0 -8.28967e-14 457.84

522.974 -21.7279 -1.34589e-12
-21.7279 543.811 -2.72012e-12
-1.34589e-12 -2.72012e-12 525.308

579.584 14.1068 -1.11135e-11
14.1068 617.621 -1.51168e-12
-1.11135e-11 -1.51168e-12 557.052

620.208 9.44535 2.03393e-13
9.44535 576.841 -5.53572e-12
2.03393e-13 -5.53572e-12 556.871

523.469 32.7056 -7.49623e-13
32.7056 520.651 -1.28371e-12
-7.49623e-13 -1.28371e-12 519.523

414.889 26.0001 2.73618e-12
26.0001 448.904 3.52311e-13
2.73618e-12 3.52311e-13 420.375

478.094 26.6613 6.54291e-13
26.6613 444.768 1.43204e-12
6.54291e-13 1.43204e-12 455.506

332.362 45.1855 1.32753e-12
45.1855 349.488 -8.08834e-13
1.32753e-12 -8.08834e-13 286.739

571.391 -11.3438 1.04657e-12
-11.3438 614.471 -1.94778e-12
1.04657e-12 -1.94778e-12 554.594

641.327 -3.43301 -7.97848e-12
-3.43301 636.87 1.36631e-13
-7.97848e-12 1.36631e-13 572.396

634.904 -0.210102 1.83735e-12
-0.210102 643.178 -1.39265e-11
1.83735e-12 -1.39265e-11 572.222

272.962 -53.8021 -1.77162e-12
-53.8021 316.446 -6.44699e-12
-1.77162e-12 -6.44699e-12 220.908

566.637 -11.6001 -1.31628e-12
-11.6001 562.124 3.31912e-12
-1.31628e-12 3.31912e-12 540.897

563.771 8.81311 3.33985e-12
8.81311 586.962 2.72671e-13
3.33985e-12 2.72671e-13 546.839

478.242 -26.1994 -1.12621e-12
-26.1994 440.44 -6.05382e-12
-1.12621e-12 -6.05382e-12 453.48

494.348 1.01112 1.43859e-12
1.01112 545.758 -1.06522e-12
1.43859e-12 -1.06522e-12 514.055

447.649 -20.2677 -1.39133e-12
-20.2677 484.156 -2.8025e-12
-1.39133e-12 -2.8025e-12 470.635

506.299 6.25531 -3.45501e-13
6.25531 443.372 -2.4832e-13
-3.45501e-13 -2.4832e-13 486.123

461.273 15.5963 -3.09378e-13
15.5963 521.251 -2.82678e-12
-3.09378e-13 -2.82678e-12 497.555

471.179 7.19164 -1.24432e-12
7.19164 528.004 -2.59348e-12
-1.24432e-12 -2.59348e-12 497.689

493.761 20.3926 6.47719e-12
20.3926 451.516 1.60731e-12
6.47719e-12 1.60731e-12 469.749

241.065 -3.1139 -5.31812e-12
-3.1139 358.558 1.17832e-11
-5.31812e-12 1.17832e-11 227.063

463.698 -27.6235 4.71504e-12
-27.6235 463.389 -7.40149e-14
4.71504e-12 -7.40149e-14 461.189

488.343 -26.1161 -4.95544e-12
-26.1161 481.596 8.37552e-13
-4.95544e-12 8.37552e-13 485.867

497.536 -31.4837 -2.73855e-13
-31.4837 489.956 -3.45057e-12
-2.73855e-13 -3.45057e-12 498.979

355.598 32.7493 2.69059e-12
32.7493 285.777 5.32108e-12
2.69059e-12 5.32108e-12 248.365

563.881 -20.1166 4.24283e-12
-20.1166 569.613 -8.77727e-12
4.24283e-12 -8.77727e-12 542.57

337.646 54.3218 -4.91696e-12
54.3218 356.656 -4.36036e-12
-4.91696e-12 -4.36036e-12 258.874

477.07 -21.4396 -6.63218e-12
-21.4396 506.488 -1.92261e-12
-6.63218e-12 -1.92261e-12 500.242

504.77 14.6504 -1.05397e-13
14.6504 451.985 -7.64278e-13
-1.05397e-13 -7.64278e-13 481.558

449.828 -14.5723 3.8464e-12
-14.5723 396.985 1.56527e-12
3.8464e-12 1.56527e-12 400.838

452.591 24.0466 3.43547e-12
24.0466 478.777 -4.49418e-13
3.43547e-12 -4.49418e-13 467.846

493.664 20.4279 6.73121e-12
20.4279 449.499 7.12615e-13
6.73121e-12 7.12615e-13 469.34

505.564 11.4006 1.12406e-12
11.4006 564.415 -3.39876e-12
1.12406e-12 -3.39876e-12 526.71

475.894 -31.58 -6.30547e-12
-31.58 470.354 7.65018e-12
-6.30547e-12 7.65018e-12 475.062

559.269 19.8124 2.35427e-12
19.8124 510.439 6.35255e-12
2.35427e-12 6.35255e-12 526.486

439.956 -18.4433 -1.89567e-12
-18.4433 482.462 7.89295e-13
-1.89567e-12 7.89295e-13 459.147

465.896 4.28312 2.23357e-12
4.28312 526.106 -1.66622e-12
2.23357e-12 -1.66622e-12 495.508

588.639 9.92669 -9.24683e-12
9.92669 552.461 -2.58608e-13
-9.24683e-12 -2.58608e-13 545.188

590.422 -8.5133 -2.13548e-12
-8.5133 554.803 -5.21642e-12
-2.13548e-12 -5.21642e-12 545.705

382.307 18.5122 -3.60956e-12
18.5122 302.286 2.63197e-12
-3.60956e-12 2.63197e-12 286.133

502.676 7.96496 1.68784e-12
7.96496 453.598 -6.43929e-13
1.68784e-12 -6.43929e-13 487.763

232.815 7.74038 1.75859e-12
7.74038 381.514 -5.38118e-12
1.75859e-12 -5.38118e-12 187.186

236.984 -11.385 1.79908e-12
-11.385 387.208 -1.36898e-12
1.79908e-12 -1.36898e-12 189.45

249.287 56.4064 1.79767e-12
56.4064 354.775 -5.41907e-12
1.79767e-12 -5.41907e-12 184.022

505.013 -28.9504 2.41407e-12
-28.9504 478.613 4.05957e-12
2.41407e-12 4.05957e-12 491.341

258.471 -49.1898 -1.75622e-12
-49.1898 341.839 3.6285e-12
-1.75622e-12 3.6285e-12 220.733

249.292 -55.9489 -5.38355e-12
-55.9489 344.75 -7.28543e-12
-5.38355e-12 -7.28543e-12 181.115

434.652 26.2197 7.4607e-14
26.2197 454.39 -9.78773e-13
7.4607e-14 -9.78773e-13 432.822

329.922 73.843 -2.63848e-12
73.843 280.009 7.79229e-13
-2.63848e-12 7.79229e-13 184.826

540.126 13.0474 5.42736e-12
13.0474 554.945 6.39785e-13
5.42736e-12 6.39785e-13 532.076

562.382 0.0392423 -1.44551e-12
0.0392423 532.452 3.0805e-12
-1.44551e-12 3.0805e-12 531.868

338.601 -73.1285 -9.05705e-12
-73.1285 279.857 -2.69769e-12
-9.05705e-12 -2.69769e-12 186.309

432.667 -23.4236 -1.13983e-13
-23.4236 466.307 -2.4496e-12
-1.13983e-13 -2.4496e-12 447.569

358.929 34.7286 1.81662e-12
34.7286 310.974 9.11863e-13
1.81662e-12 9.11863e-13 258.036

267.704 63.4901 2.26426e-12
63.4901 345.209 9.28443e-13
2.26426e-12 9.28443e-13 185.844

293.691 21.6298 2.58756e-12
21.6298 367.659 -5.59434e-12
2.58756e-12 -5.59434e-12 254.496

267.575 -65.9189 8.69231e-13
-65.9189 344.844 2.79006e-12
8.69231e-13 2.79006e-12 184.3

291.638 -12.3809 7.13326e-12
-12.3809 370.88 7.24043e-12
7.13326e-12 7.24043e-12 253.441

550.306 6.84189 -2.13407e-12
6.84189 582.077 -1.32605e-12
-2.13407e-12 -1.32605e-12 541.116

329.887 -45.974 4.50958e-12
-45.974 341.814 2.25005e-14
4.50958e-12 2.25005e-14 276.613

259.78 47.5311 5.21065e-14
47.5311 340.215 3.07902e-12
5.21065e-14 3.07902e-12 223.144

370.215 37.9109 -3.02691e-12
37.9109 244.919 3.4864e-12
-3.02691e-12 3.4864e-12 187.356

481.888 -29.2854 -8.41993e-13
-29.2854 460.509 -3.57551e-12
-8.41993e-13 -3.57551e-12 467.712

480.975 12.8967 9.50129e-13
12.8967 525.827 -6.59324e-13
9.50129e-13 -6.59324e-13 504.102

354.416 -38.1118 -4.42668e-12
-38.1118 300.075 -8.85336e-12
-4.42668e-12 -8.85336e-12 251.813

482.532 -28.8019 7.02845e-13
-28.8019 460.318 -1.57652e-12
7.02845e-13 -1.57652e-12 468.461

365.262 -36.3428 -6.34751e-12
-36.3428 230.988 6.39548e-12
-6.34751e-12 6.39548e-12 182.769

481.5 -28.3172 -7.56373e-12
-28.3172 472.752 2.83684e-12
-7.56373e-12 2.83684e-12 477.916

436.351 -25.2945 1.71537e-12
-25.2945 466.221 -2.01084e-12
1.71537e-12 -2.01084e-12 448.207

314.797 69.4595 -8.43177e-13
69.4595 292.141 8.14282e-12
-8.43177e-13 8.14282e-12 184.523

290.78 -22.9324 2.60532e-14
-22.9324 359.162 1.02318e-12
2.60532e-14 1.02318e-12 247.028

312.399 -71.6915 -8.8581e-13
-71.6915 288.121 -1.8332e-12
-8.8581e-13 -1.8332e-12 182.025

268.545 50.7365 2.31637e-12
50.7365 320.057 -1.06581e-13
2.31637e-12 -1.06581e-13 221.503

459.859 -30.2118 8.06644e-12
-30.2118 454.843 -6.11955e-13
8.06644e-12 -6.11955e-13 454.398

559.285 -14.6403 -3.71851e-13
-14.6403 544.411 6.6193e-12
-3.71851e-13 6.6193e-12 533.715

635.922 11.0927 8.17124e-14
11.0927 631.383 -8.71895e-13
8.17124e-14 -8.71895e-13 570.018

619.957 -5.15998 -4.99467e-12
-5.15998 639.739 -1.09137e-11
-4.99467e-12 -1.09137e-11 568.496

453.867 13.0836 -9.05572e-13
13.0836 506.552 -9.3614e-13
-9.05572e-13 -9.3614e-13 482.57

634.152 -10.6671 6.56009e-12
-10.6671 631.314 -3.64627e-12
6.56009e-12 -3.64627e-12 569.873

622.695 4.09171 7.18122e-12
4.09171 642.685 -3.19293e-12
7.18122e-12 -3.19293e-12 569.697

643.375 7.43424 -3.88682e-12
7.43424 619.148 -2.94831e-12
-3.88682e-12 -2.94831e-12 569.02

584.776 -12.1153 2.22148e-12
-12.1153 631.668 -8.00841e-13
2.22148e-12 -8.00841e-13 560.592

307.442 -30.4696 -4.3503e-12
-30.4696 371.63 4.59247e-12
-4.3503e-12 4.59247e-12 280.768

589.625 -12.9721 -4.97084e-13
-12.9721 549.112 1.07535e-11
-4.97084e-13 1.07535e-11 543.825

527.205 -34.4178 -2.19469e-12
-34.4178 521.485 4.91548e-12
-2.19469e-12 4.91548e-12 519.963

565.463 -18.1768 4.0495e-12
-18.1768 537.988 3.20558e-12
4.0495e-12 3.20558e-12 534.256

502.567 15.4591 -3.71673e-12
15.4591 452.113 4.10427e-12
-3.71673e-12 4.10427e-12 480.204

586.348 9.86435 -3.46723e-13
9.86435 642.135 -3.96142e-12
-3.46723e-13 -3.96142e-12 563.102

636.657 19.2278 1.24493e-13
19.2278 591.722 -2.67035e-12
1.24493e-13 -2.67035e-12 562.923

569.775 11.3062 3.25665e-15
11.3062 544.337 2.29372e-12
3.25665e-15 2.29372e-12 536.434

353.44 -15.3391 -3.64745e-12
-15.3391 231.515 8.7456e-13
-3.64745e-12 8.7456e-13 219.013

437.203 24.9638 1.87583e-12
24.9638 461.91 -2.72789e-12
1.87583e-12 -2.72789e-12 445.719

317.089 -61.3539 5.09222e-13
-61.3539 277.847 -7.13148e-12
5.09222e-13 -7.13148e-12 218.087

334.207 -57.4566 5.31012e-12
-57.4566 357.321 9.18969e-13
5.31012e-12 9.18969e-13 252.538

383.332 -36.5436 8.50993e-12
-36.5436 305.737 -7.20017e-12
8.50993e-12 -7.20017e-12 257.758

562.495 -5.15897 2.41866e-12
-5.15897 616.951 -6.05915e-12
2.41866e-12 -6.05915e-12 552.949

562.202 2.89123 -1.66193e-12
2.89123 615.816 -4.68218e-12
-1.66193e-12 -4.68218e-12 552.547

598.769 -24.4565 -4.30293e-12
-24.4565 575.741 6.29563e-12
-4.30293e-12 6.29563e-12 551.577

602.329 -21.7608 3.41138e-12
-21.7608 573.432 3.13527e-12
3.41138e-12 3.13527e-12 551.843

598.782 26.1362 1.39681e-12
26.1362 580.457 7.76075e-12
1.39681e-12 7.76075e-12 552.732

625.741 3.09963 -7.27033e-12
3.09963 630.735 -1.04114e-11
-7.27033e-12 -1.04114e-11 568.419

599.059 -20.5091 3.92575e-13
-20.5091 576.353 -1.56778e-12
3.92575e-13 -1.56778e-12 552.266

607.809 -18.5684 3.09678e-13
-18.5684 620.262 8.10548e-12
3.09678e-13 8.10548e-12 563.184

632.9 2.43464 4.75634e-12
2.43464 635.526 -1.16186e-11
4.75634e-12 -1.16186e-11 570.504

607.886 -20.5265 -5.23581e-13
-20.5265 572.426 -2.62249e-12
-5.23581e-13 -2.62249e-12 553.404

607.071 20.956 1.0373e-11
20.956 573.684 1.40391e-12
1.0373e-11 1.40391e-12 553.808

633.851 -3.45867 1.87228e-12
-3.45867 636.778 8.34296e-12
1.87228e-12 8.34296e-12 571.278

632.181 -3.1174 -4.46458e-12
-3.1174 625.756 1.33887e-11
-4.46458e-12 1.33887e-11 569.393

609.681 12.1098 9.4369e-13
12.1098 620.485 -2.02867e-12
9.4369e-13 -2.02867e-12 563.915

587.202 26.9299 -1.30148e-12
26.9299 583.018 -2.1073e-13
-1.30148e-12 -2.1073e-13 551.701

FIELD solute_concentration_TPM 2
S_ext 1 563 float
0.991869
0.991678
0.991698
0.991679
0.991647
0.991698
0.991869
0.991689
0.991715
0.991682
0.99183
0.991689
0.991693
0.991681
0.991655
0.991696
0.991672
0.991688
0.991719
0.991701
0.991707
0.991592
0.991703
0.991701
0.991702
0.991684
0.99182
0.991696
0.991767
0.991621
0.991694
0.991766
0.991825
0.99163
0.991629
0.99163
0.991617
0.991631
0.991694
0.991825
0.991767
0.991616
0.991616
0.991693
0.9918
0.991766
0.991717
0.991712
0.991698
0.991776
0.991771
0.991751
0.991645
0.991753
0.991647
0.991806
0.991628
0.991752
0.991629
0.9917
0.991671
0.991663
0.991816
0.991666
0.991663
0.991677
0.991671
0.991685
0.991702
0.991677
0.991646
0.991646
0.991768
0.991673
0.991699
0.991829
0.991657
0.991677
0.991684
0.991744
0.991785
0.991643
0.991667
0.991787
0.991766
0.991803
0.991696
0.991676
0.9918
0.9916
0.991752
0.991601
0.991654
0.991679
0.991752
0.991771
0.991786
0.991681
0.991658
0.991694
0.991733
0.991763
0.991786
0.991684
0.991683
0.991682
0.991666
0.991696
0.991787
0.991672
0.991699
0.991796
0.991791
0.991686
0.991683
0.991753
0.991631
0.991788
0.991632
0.991752
0.991724
0.991656
0.991676
0.991672
0.991672
0.991654
0.991635
0.991681
0.991787
0.991751
0.991644
0.991678
0.991667
0.991677
0.991764
0.991628
0.991797
0.991693
0.991666
0.991628
0.991761
0.991686
0.991723
0.991681
0.991789
0.991683
0.991687
0.9917
0.991699
0.991736
0.991711
0.991677
0.991765
0.991693
0.991681
0.991677
0.991679
0.991761
0.991759
0.99169
0.991712
0.991764
0.991799
0.991769
0.991759
0.991682
0.99176
0.991761
0.991766
0.991759
0.991654
0.991752
0.99177
0.991678
0.991752
0.991666
0.991654
0.99169
0.991647
0.991684
0.991768
0.991681
0.991682
0.99176
0.991675
0.991772
0.991672
0.991668
0.991655
0.991681
0.991675
0.991785
0.991751
0.991766
0.991677
0.991687
0.991686
0.991667
0.991677
0.991678
0.991677
0.991718
0.991744
0.991667
0.991768
0.991666
0.991678
0.991762
0.991662
0.991676
0.991663
0.991682
0.991684
0.991667
0.991735
0.991682
0.991743
0.991668
0.991672
0.991671
0.991672
0.991672
0.991672
0.991672
0.991682
0.991655
0.991656
0.991655
0.991655
0.991648
0.991647
0.991736
0.99168
0.991677
0.991714
0.991656
0.991655
0.991677
0.991743
0.991677
0.991681
0.991736
0.991661
0.991736
0.991667
0.991676
0.991735
0.991742
0.991785
0.991777
0.991667
0.991792
0.991694
0.991743
0.991719
0.991677
0.991672
0.991617
0.991672
0.991796
0.991742
0.991676
0.991689
0.991744
0.991671
0.991723
0.991617
0.991742
0.991671
0.991674
0.991686
0.991656
0.991677
0.991647
0.991692
0.991798
0.991804
0.991653
0.991705
0.991689
0.991738
0.991661
0.991678
0.991742
0.991679
0.991733
0.991687
0.991733
0.991742
0.991607
0.991652
0.991653
0.991653
0.991681
0.991733
0.991631
0.991674
0.991711
0.991731
0.991737
0.991652
0.991735
0.991656
0.991736
0.9918
0.991732
0.99179
0.991667
0.991735
0.991606
0.991735
0.99167
0.991737
0.991672
0.991735
0.991698
0.991823
0.991698
0.991736
0.99165
0.991736
0.99171
0.991675
0.991676
0.991735
0.991732
0.991723
0.991669
0.991732
0.99169
0.991696
0.991649
0.991733
0.991724
0.991709
0.991723
0.991734
0.991722
0.991664
0.991689
0.991724
0.991736
0.991686
0.991685
0.991732
0.991649
0.991837
0.991699
0.991785
0.991708
0.991895
0.991896
0.991893
0.991893
0.991891
0.9919
0.991901
0.991667
0.991637
0.991689
0.991711
0.991718
0.991723
0.991687
0.991723
0.991724
0.991638
0.991723
0.991663
0.991751
0.991657
0.991699
0.991712
0.991724
0.991653
0.991699
0.99171
0.991699
0.99171
0.991721
0.991745
0.991711
0.991701
0.991661
0.991718
0.991722
0.991719
0.991712
0.991701
0.991686
0.991718
0.991687
0.9917
0.991711
0.991689
0.991699
0.991722
0.991671
0.991709
0.991638
0.9918
0.991667
0.991665
0.9917
0.99171
0.991676
0.991837
0.991698
0.99171
0.991822
0.99161
0.991611
0.991697
0.99172
0.991708
0.991718
0.991591
0.99159
0.991686
0.991689
0.99169
0.991841
0.991721
0.99167
0.991714
0.991715
0.991712
0.991836
0.991673
0.99172
0.9917
0.991699
0.991714
0.991711
0.991715
0.991714
0.991823
0.991789
0.99171
0.9917
0.991709
0.991715
0.99171
0.991709
0.991709
0.991801
0.991658
0.991718
0.991677
0.991673
0.991803
0.991698
0.991698
0.991649
0.991605
0.991605
0.991651
0.991722
0.9917
0.991804
0.991608
0.99159
0.99159
0.991838
0.99163
0.99162
0.991701
0.991656
0.99169
0.991679
0.99167
0.991669
0.99169
0.991836
0.991697
0.99168
0.99167
0.99183
0.991625
0.991829
0.991668
0.991683
0.991735
0.991692
0.991691
0.991643
0.991687
0.991643
0.991698
0.991671
0.991624
0.991624
0.991805
0.991678
0.991871
0.991872
0.991872
0.991675
0.991843
0.991873
0.991716
0.99187
0.991642
0.991642
0.991871
0.991705
0.991826
0.991876
0.991826
0.991876
0.991826
0.99163
0.99181
0.991841
0.991869
0.991692
0.991665
0.991829
0.991691
0.99187
0.991684
0.991705
0.991876
0.991829
0.991877
0.991837
0.9917
0.991637
0.99159
0.991592
0.991681
0.99159
0.99159
0.991591
0.991602
0.991807
0.991624
0.991652
0.991638
0.991683
0.9916
0.9916
0.991637
0.991838
0.991706
0.991845
0.991833
0.991824
0.991609
0.991609
0.991611
0.991611
0.991609
0.991595
0.991614
0.991601
0.991594
0.991611
0.991611
0.991594
0.991594
0.9916
0.991613
P_ext 1 563 float
0.0202028
0.0201979
0.0201986
0.0201979
0.0201961
0.0201986
0.0202028
0.0201982
0.0201991
0.0201979
0.020202
0.0201982
0.0201984
0.0201979
0.0201965
0.0201986
0.0201975
0.0201982
0.0201993
0.0201987
0.0201989
0.0201927
0.0201987
0.0201987
0.0201987
0.0201981
0.0202018
0.0201985
0.0202006
0.0201945
0.0201984
0.0202005
0.0202019
0.0201951
0.020195
0.0201951
0.0201944
0.0201952
0.0201984
0.0202019
0.0202005
0.0201943
0.0201943
0.0201984
0.0202013
0.0202005
0.0201992
0.0201991
0.0201986
0.0202008
0.0202006
0.0202001
0.020196
0.0202002
0.0201961
0.0202015
0.020195
0.0202002
0.020195
0.0201987
0.0201975
0.0201971
0.0202017
0.0201972
0.020197
0.0201977
0.0201975
0.0201981
0.0201988
0.0201978
0.020196
0.0201961
0.0202006
0.0201974
0.0201986
0.020202
0.0201967
0.0201977
0.0201981
0.0202
0.020201
0.0201959
0.0201972
0.020201
0.0202005
0.0202014
0.0201985
0.0201975
0.0202013
0.020193
0.0202002
0.020193
0.0201965
0.0201977
0.0202002
0.0202006
0.020201
0.020198
0.0201967
0.0201985
0.0201996
0.0202005
0.020201
0.0201981
0.020198
0.020198
0.0201971
0.0201985
0.020201
0.0201976
0.0201986
0.0202013
0.0202011
0.0201982
0.0201981
0.0202002
0.020195
0.0202011
0.020195
0.0202002
0.0201994
0.0201967
0.0201978
0.0201975
0.0201975
0.0201965
0.0201953
0.020198
0.020201
0.0202001
0.0201959
0.0201979
0.0201972
0.0201978
0.0202005
0.0201949
0.0202013
0.0201983
0.0201972
0.020195
0.0202004
0.020198
0.0201994
0.0201979
0.0202011
0.0201981
0.0201981
0.0201986
0.0201986
0.0201997
0.020199
0.0201978
0.0202005
0.0201984
0.020198
0.0201979
0.0201978
0.0202004
0.0202004
0.0201983
0.020199
0.0202005
0.0202013
0.0202006
0.0202003
0.020198
0.0202004
0.0202004
0.0202005
0.0202004
0.0201965
0.0202002
0.0202007
0.0201978
0.0202002
0.0201972
0.0201965
0.0201982
0.0201961
0.020198
0.0202006
0.020198
0.020198
0.0202004
0.0201976
0.0202007
0.0201975
0.0201972
0.0201965
0.020198
0.0201975
0.020201
0.0202001
0.0202005
0.0201979
0.0201983
0.0201982
0.0201973
0.0201978
0.0201977
0.0201978
0.0201993
0.0202
0.0201973
0.0202006
0.0201972
0.0201976
0.0202004
0.0201969
0.0201978
0.0201969
0.0201979
0.0201981
0.0201972
0.0201997
0.0201979
0.0202
0.0201973
0.0201975
0.0201975
0.0201976
0.0201976
0.0201976
0.0201976
0.0201979
0.0201966
0.0201966
0.0201966
0.0201966
0.020196
0.020196
0.0201998
0.0201978
0.0201978
0.0201991
0.0201965
0.0201965
0.0201978
0.0201999
0.0201979
0.020198
0.0201998
0.0201969
0.0201998
0.0201972
0.0201978
0.0201997
0.0201999
0.020201
0.0202008
0.0201973
0.0202012
0.0201985
0.0202
0.0201992
0.0201979
0.0201975
0.0201943
0.0201976
0.0202012
0.0201999
0.0201978
0.0201982
0.0202
0.0201975
0.0201993
0.0201944
0.0201999
0.0201975
0.0201975
0.0201982
0.0201966
0.0201976
0.0201961
0.0201984
0.0202013
0.0202014
0.0201963
0.0201989
0.0201982
0.0201998
0.0201968
0.0201978
0.0201999
0.0201977
0.0201997
0.020198
0.0201997
0.0201999
0.0201936
0.0201964
0.0201965
0.0201965
0.0201979
0.0201997
0.0201952
0.0201976
0.020199
0.0201996
0.0201998
0.0201963
0.0201997
0.0201965
0.0201998
0.0202013
0.0201996
0.0202011
0.0201972
0.0201997
0.0201936
0.0201997
0.0201973
0.0201998
0.0201974
0.0201997
0.0201985
0.0202018
0.0201986
0.0201998
0.0201963
0.0201997
0.0201989
0.0201975
0.0201978
0.0201997
0.0201997
0.0201993
0.0201972
0.0201996
0.0201982
0.0201985
0.0201962
0.0201997
0.0201994
0.0201989
0.0201994
0.0201997
0.0201993
0.0201969
0.0201982
0.0201994
0.0201997
0.0201981
0.020198
0.0201996
0.0201962
0.0202021
0.0201985
0.020201
0.0201989
0.0202034
0.0202034
0.0202033
0.0202033
0.0202033
0.0202035
0.0202035
0.0201971
0.0201954
0.0201982
0.0201989
0.0201992
0.0201994
0.0201981
0.0201994
0.0201994
0.0201954
0.0201994
0.0201969
0.0202002
0.0201967
0.0201985
0.020199
0.0201994
0.0201963
0.0201986
0.020199
0.0201986
0.0201989
0.0201994
0.0202
0.020199
0.0201986
0.0201969
0.0201992
0.0201994
0.0201993
0.020199
0.0201986
0.020198
0.0201992
0.0201981
0.0201986
0.020199
0.0201982
0.0201986
0.0201993
0.0201974
0.0201989
0.0201956
0.0202013
0.0201972
0.0201969
0.0201986
0.020199
0.0201977
0.0202021
0.0201986
0.020199
0.0202018
0.0201937
0.0201937
0.0201985
0.0201993
0.0201989
0.0201993
0.0201924
0.0201924
0.0201981
0.0201982
0.0201982
0.0202022
0.0201993
0.0201973
0.0201991
0.0201992
0.020199
0.0202021
0.0201975
0.0201993
0.0201986
0.0201986
0.0201991
0.020199
0.0201991
0.0201991
0.0202018
0.0202011
0.020199
0.0201985
0.020199
0.0201992
0.020199
0.0201989
0.0201989
0.0202014
0.0201967
0.0201992
0.0201977
0.0201975
0.0202014
0.0201986
0.0201986
0.0201961
0.0201936
0.0201936
0.0201963
0.0201994
0.0201985
0.0202014
0.0201938
0.0201926
0.0201926
0.0202022
0.0201951
0.0201945
0.0201987
0.0201966
0.0201983
0.0201979
0.0201974
0.0201973
0.0201982
0.0202021
0.0201985
0.0201978
0.0201974
0.020202
0.0201948
0.020202
0.0201974
0.020198
0.0201997
0.0201984
0.0201982
0.0201959
0.0201982
0.0201959
0.0201986
0.0201974
0.0201946
0.0201946
0.0202015
0.0201977
0.0202029
0.0202029
0.0202029
0.0201976
0.0202023
0.0202029
0.0201992
0.0202028
0.0201958
0.0201958
0.0202028
0.0201988
0.0202019
0.020203
0.0202019
0.020203
0.0202019
0.0201951
0.0202016
0.0202022
0.0202028
0.0201983
0.0201971
0.020202
0.0201983
0.0202028
0.020198
0.0201988
0.020203
0.020202
0.020203
0.0202021
0.0201986
0.0201955
0.0201927
0.0201928
0.0201978
0.0201927
0.0201927
0.0201927
0.0201933
0.0202015
0.0201948
0.0201963
0.0201954
0.0201979
0.0201932
0.0201932
0.0201954
0.0202022
0.0201989
0.0202023
0.0202021
0.0202019
0.0201939
0.0201939
0.020194
0.020194
0.0201939
0.0201928
0.020194
0.0201931
0.0201926
0.0201939
0.0201939
0.0201927
0.0201928
0.0201932
0.020194
FIELD solute_flux_TPM 2
S_ext 3 563 float
-5.42424e-05 1.81464e-05 3.56623e-18
2.34369e-06 4.51198e-06 6.79418e-19
-8.37061e-06 -6.65491e-06 -8.377e-19
-2.75756e-06 2.78025e-06 -1.50018e-18
1.52062e-05 -4.34287e-06 -1.04066e-18
1.82502e-06 -1.04514e-05 -4.00258e-18
-5.34138e-05 -1.83672e-05 1.54664e-19
-9.12803e-06 -6.80758e-06 -6.73812e-19
1.45931e-05 6.16265e-07 -6.62321e-19
7.56739e-06 -2.65007e-06 4.02989e-18
3.6106e-05 8.40719e-06 -1.86903e-18
1.53879e-06 -1.13086e-05 3.85832e-18
9.03352e-06 7.37837e-06 -3.69075e-18
1.75625e-06 9.04321e-06 -5.07619e-19
1.37864e-05 -2.01681e-06 6.67635e-19
-1.06308e-05 -1.73336e-07 -1.17116e-18
1.83372e-06 9.30467e-06 -2.53165e-18
6.7543e-06 -1.61364e-06 1.50336e-18
6.49751e-06 1.13306e-05 1.98008e-18
-9.68904e-06 1.22413e-06 -5.15908e-18
-2.35314e-06 -1.39219e-05 -6.69111e-19
2.86305e-05 4.03951e-05 -3.16914e-18
1.03957e-05 1.06002e-06 1.99552e-18
7.42763e-06 -7.43424e-06 1.49727e-18
-9.83174e-06 -2.17196e-06 1.66121e-18
-4.36813e-07 -7.30245e-06 1.66869e-19
4.1435e-05 -3.24508e-06 -1.22979e-21
9.32421e-06 6.76763e-06 -3.3398e-19
-1.63874e-05 -1.33017e-05 -2.57698e-18
3.24484e-05 -8.58505e-06 -3.46227e-19
-1.08051e-05 -3.96569e-06 -1.71249e-19
3.49684e-06 -2.10105e-05 -1.61733e-18
3.10888e-05 -3.16901e-05 -1.47683e-19
-3.45664e-06 -2.77302e-05 3.63044e-18
-1.95877e-05 2.43891e-05 2.96227e-18
-2.57419e-05 -1.08613e-05 -3.11864e-18
2.15075e-05 2.81704e-05 1.80357e-19
-2.96142e-05 -5.79515e-06 -1.91317e-18
9.55298e-06 -7.28016e-06 -5.87658e-21
3.03718e-05 3.30221e-05 3.2049e-19
2.11549e-05 -9.26247e-06 3.20194e-19
2.1936e-05 -2.71136e-05 -2.26282e-18
-1.25198e-05 -3.25336e-05 -7.1391e-18
-1.0357e-05 4.177e-06 -4.67787e-18
1.98844e-05 -1.945e-05 1.60225e-19
-1.96223e-05 6.97706e-06 2.74116e-18
-2.69169e-06 -1.32766e-05 -1.66e-19
5.1734e-06 1.32411e-05 -9.19628e-22
-1.06916e-05 3.87529e-06 -4.00149e-18
-1.17983e-05 1.85511e-05 3.17354e-19
2.13479e-05 1.00592e-05 1.77438e-21
1.9288e-05 -6.69158e-06 1.64359e-19
-1.04014e-05 1.04276e-05 -6.80906e-19
-1.52702e-05 -1.32685e-05 -1.6233e-18
-1.4017e-05 -3.42675e-06 -8.59694e-19
-2.89934e-05 1.72643e-05 4.60889e-18
-1.9391e-05 -2.50992e-05 1.56373e-18
4.03499e-06 -1.99693e-05 -1.62309e-18
-3.14397e-05 4.28532e-06 -1.41429e-20
3.99341e-06 9.00941e-06 6.60523e-19
-3.65646e-06 -5.40373e-06 -2.20127e-18
-4.30999e-06 -1.18584e-05 -2.39058e-18
3.74364e-05 1.63166e-05 -2.36271e-18
6.14891e-06 1.19686e-05 -1.70004e-18
8.16695e-06 -9.53743e-06 1.35028e-18
-1.11214e-06 -1.36908e-05 1.85325e-18
3.07446e-06 -5.80865e-06 1.85066e-18
-6.59604e-06 -3.65495e-06 1.84013e-18
-6.97454e-06 7.7657e-06 1.00468e-18
1.69344e-06 -2.77239e-06 1.34218e-18
-9.97096e-06 -1.04896e-05 -8.4725e-19
-1.41367e-05 3.43542e-06 1.70592e-18
-2.51283e-06 2.23827e-05 2.9018e-18
-1.17746e-05 7.04914e-06 1.18465e-18
-5.95985e-06 9.51339e-06 4.67933e-18
-3.86768e-05 4.80767e-06 2.66035e-18
5.22387e-06 -1.43218e-05 1.70807e-19
-1.24456e-05 -5.79991e-06 -1.35206e-18
1.27043e-06 7.65391e-06 -1.51956e-18
1.73545e-05 3.33352e-06 3.74848e-18
2.23942e-05 -1.90891e-05 -2.56831e-18
1.47552e-05 1.3587e-05 -1.54701e-18
7.97951e-06 -1.93894e-06 1.83597e-18
-2.08515e-05 1.52849e-05 7.35426e-18
2.4899e-05 3.19015e-06 2.75825e-18
-3.59438e-06 3.20195e-05 2.53299e-18
-1.15822e-06 -1.10479e-05 3.29879e-19
1.20928e-05 6.5725e-06 4.89426e-18
1.91237e-05 2.00301e-05 -3.79593e-18
4.25404e-05 2.64446e-05 7.15821e-19
-3.55998e-06 2.00682e-05 -2.44237e-18
4.44339e-05 -2.49704e-05 -1.94443e-18
-1.79991e-05 3.486e-06 1.02393e-18
1.18985e-05 7.34575e-06 2.18534e-18
-1.91746e-05 6.37733e-06 1.95847e-18
1.08194e-05 1.87763e-05 1.60509e-18
6.43984e-06 -2.88957e-05 -1.76509e-18
1.27983e-06 7.64933e-06 8.20309e-19
-9.72257e-06 -1.16562e-05 -6.93744e-19
2.01152e-06 1.14716e-05 1.58675e-19
1.73815e-05 3.47169e-06 -1.80774e-18
-1.01203e-05 2.15126e-05 -4.21538e-21
2.66052e-05 -8.86807e-06 2.24224e-18
-2.50094e-06 4.86362e-06 -2.3425e-18
6.63178e-06 3.87125e-06 9.90492e-19
-1.48261e-06 -7.4253e-06 2.01203e-18
2.15346e-06 -1.27412e-05 -8.51035e-19
1.15603e-05 2.57559e-06 1.49932e-18
-5.38434e-06 2.67343e-05 2.38879e-18
-6.52097e-06 1.3017e-07 -2.00881e-18
6.17032e-06 7.8223e-06 -1.67443e-18
-1.76694e-06 -2.72541e-05 -7.90743e-19
2.75942e-05 8.56327e-06 1.68991e-19
2.95926e-06 -4.89564e-06 2.51108e-18
-7.2834e-06 -2.33905e-06 1.1713e-18
-1.89434e-05 -8.05462e-06 -3.22553e-19
1.06444e-05 2.77669e-05 6.96079e-19
-2.78794e-05 -9.9311e-06 1.44529e-18
1.0793e-05 -2.78408e-05 -2.60755e-18
-2.46731e-06 -2.07987e-05 4.96883e-19
1.44241e-05 3.97799e-07 -1.31859e-18
-4.76396e-06 1.22341e-05 -1.64684e-19
-1.04718e-06 2.59994e-06 -3.55018e-18
-2.4475e-06 -1.09277e-05 6.84385e-19
3.49752e-06 -5.61486e-06 -1.00731e-18
6.21106e-06 1.04934e-05 -2.04236e-18
2.23499e-05 7.29422e-06 1.56048e-18
5.7808e-06 -4.89212e-06 1.33626e-18
-5.52477e-06 -2.92469e-05 -1.9211e-18
1.67945e-05 -1.23889e-05 -1.30853e-18
3.30603e-06 1.84408e-05 -2.73288e-18
-1.83745e-06 -1.87282e-06 8.37113e-19
-5.71138e-06 -5.49211e-06 -1.67829e-18
-3.15801e-06 5.40973e-08 -8.40133e-19
-1.48784e-05 1.83707e-05 -1.45195e-18
1.29187e-05 -2.5016e-05 -1.03761e-18
-1.73891e-05 2.74821e-05 3.03278e-18
-1.0691e-05 6.2219e-06 1.34273e-18
1.67119e-06 8.17612e-06 2.52976e-18
-1.51759e-05 -2.36777e-05 -5.0346e-18
9.02296e-06 2.18731e-05 -1.64206e-19
1.16545e-05 6.14278e-06 8.35165e-19
1.50309e-05 -5.6695e-06 1.1548e-18
-8.19738e-07 -7.41538e-06 2.01905e-18
-2.18949e-05 -2.01365e-05 4.00065e-18
-1.80376e-06 7.42324e-06 -1.00383e-18
1.14628e-05 6.75947e-06 1.50751e-18
1.25086e-05 -5.89424e-06 1.49866e-18
5.47944e-06 -9.4207e-06 9.99598e-19
1.6058e-05 -7.12253e-06 -1.96902e-18
1.25767e-05 -5.95526e-06 5.30354e-18
3.14531e-06 1.88292e-07 4.94708e-19
1.68596e-05 1.33471e-05 -1.44545e-18
-1.77784e-06 -1.1141e-05 2.17252e-18
-6.89937e-06 -2.89194e-06 -1.7292e-19
7.50215e-07 -2.55124e-06 8.3906e-19
-2.10209e-06 1.0434e-05 2.18394e-18
-2.24384e-05 1.77061e-06 2.59473e-18
-7.93852e-06 -2.1524e-05 9.78788e-19
-5.18365e-06 6.38486e-06 -3.29022e-19
8.92753e-06 1.09113e-05 6.61486e-19
1.73965e-05 -1.24059e-05 -5.96691e-18
-2.38798e-05 -1.29444e-05 1.2707e-18
1.13079e-05 -1.8133e-05 -3.38346e-18
1.49064e-05 -1.78572e-05 -1.95036e-18
-7.16005e-06 2.5107e-06 1.00732e-18
-1.28926e-05 -1.85568e-05 -3.2158e-19
-2.24206e-05 -3.72745e-06 1.61847e-19
-2.70579e-06 -2.06364e-05 -6.42532e-19
1.00107e-05 -2.07204e-05 -1.29965e-18
-6.06108e-06 -1.73688e-05 1.54069e-18
2.87313e-06 2.04772e-05 -1.1392e-18
-1.0414e-05 -1.84464e-05 1.7743e-18
1.97239e-06 -1.07215e-05 -1.35325e-18
-1.60608e-05 1.16952e-05 1.14376e-18
-9.91293e-06 -8.01136e-06 4.22398e-18
-1.81175e-05 -3.3778e-06 -6.88124e-19
1.04157e-05 -6.11178e-06 2.1705e-18
-2.84471e-06 1.58694e-05 -3.41738e-19
8.18852e-06 -6.16122e-06 3.01319e-18
-1.91514e-05 -8.39725e-06 3.27512e-19
-5.81699e-06 -4.86472e-06 1.51235e-18
6.06154e-06 4.94153e-06 1.47716e-19
1.40082e-05 1.8814e-05 -2.5941e-18
-1.14886e-05 -7.11358e-06 2.1945e-18
-2.10069e-05 -5.07346e-07 3.21942e-18
-1.07953e-05 -3.2571e-06 2.19301e-18
-3.02588e-06 -1.09405e-05 1.70102e-18
1.18614e-05 1.42823e-05 8.5631e-19
-7.23628e-06 3.81555e-06 -2.00945e-18
4.45784e-07 -1.35447e-05 2.02545e-18
-2.69869e-05 6.91738e-06 3.53453e-18
1.63408e-05 1.32984e-05 -4.83507e-19
2.36565e-06 2.14866e-05 -2.90302e-18
-1.58587e-06 2.51814e-06 -1.02712e-21
-5.91228e-06 1.65622e-07 1.17173e-18
2.90266e-06 5.09535e-06 6.51992e-19
-7.73603e-06 2.27951e-06 1.68419e-18
-1.34149e-06 -2.47329e-06 1.17327e-18
1.11633e-06 1.36788e-05 8.39598e-19
3.01416e-06 2.54876e-07 3.50379e-18
-1.2713e-05 3.06906e-06 -4.29759e-18
-1.13427e-05 1.25315e-05 -2.44086e-18
-2.03441e-06 7.66721e-06 1.01922e-18
-1.90039e-05 1.1838e-05 4.03369e-18
-6.19841e-06 5.92658e-06 -5.12791e-19
1.15434e-05 -7.81007e-06 4.96984e-19
2.40432e-05 -2.38812e-06 3.24035e-18
-1.4005e-05 7.43629e-06 -3.37263e-19
1.47557e-06 2.99671e-06 1.00047e-18
1.46264e-05 -2.84265e-06 -6.84312e-19
-1.13558e-05 6.82989e-06 1.75445e-19
-6.46868e-06 3.6453e-06 8.41187e-19
7.96815e-06 2.5652e-06 2.18997e-18
1.43837e-05 -8.918e-06 -5.07767e-18
-1.14347e-05 6.50234e-06 -6.72493e-19
-1.62305e-05 -3.4122e-06 1.3136e-21
-1.10441e-05 -2.84491e-06 -6.80439e-19
6.67174e-06 5.3758e-08 -1.02225e-18
6.83534e-06 8.40231e-08 -6.99298e-19
2.91299e-06 5.49444e-06 8.46971e-19
3.21188e-06 -5.8119e-06 2.51971e-18
-3.3016e-06 5.5945e-06 2.02062e-18
-3.4597e-06 -5.72537e-06 -1.18328e-18
6.58805e-06 -4.97266e-06 3.02079e-18
-1.34962e-05 2.16089e-06 1.69377e-18
-1.33444e-05 -2.20363e-06 -1.19577e-18
-8.52691e-06 1.05448e-05 1.02447e-18
-8.57524e-06 -1.05857e-05 1.88733e-18
4.99493e-06 -1.33826e-05 -1.89062e-18
4.81238e-06 1.32683e-05 2.2256e-18
9.69864e-07 1.6952e-05 9.83581e-19
7.52007e-06 -2.02203e-06 4.70349e-18
1.62584e-06 -2.53075e-06 2.84225e-18
-1.38842e-05 9.31755e-07 1.68629e-19
5.15723e-06 -1.31672e-05 5.08115e-19
4.88649e-06 1.32147e-05 -5.19769e-19
3.1818e-06 -5.91608e-08 -6.79862e-19
5.82779e-06 1.60293e-05 -2.93145e-18
-1.48162e-06 -2.63778e-06 -1.84588e-18
1.55981e-06 -7.45033e-06 2.18449e-18
-1.45667e-05 -7.81433e-06 2.29417e-18
-1.41363e-05 -7.56843e-06 -2.22078e-18
-1.42592e-05 8.81582e-06 5.08221e-18
2.15636e-06 -8.28155e-06 1.69308e-19
-1.05273e-06 2.21122e-06 -2.67033e-18
-4.71459e-07 -1.66656e-05 3.28725e-19
-5.12863e-06 -1.58645e-05 1.79736e-18
2.14332e-05 1.99666e-05 -1.91277e-18
2.33892e-05 -1.20967e-06 1.44675e-18
-8.42849e-06 -2.44422e-06 3.42463e-19
-1.49373e-05 -2.65985e-05 1.27969e-18
5.49394e-06 9.02509e-06 -6.80355e-19
-1.63597e-05 1.93044e-06 2.60547e-18
1.32658e-05 3.80151e-06 1.31883e-18
-2.97777e-06 -1.2502e-08 5.02578e-18
-3.07289e-06 -5.56478e-06 -1.00494e-18
-5.43693e-06 -2.58666e-05 2.43626e-18
-6.43717e-06 -3.1088e-08 3.31058e-19
-3.10489e-05 -1.16546e-06 3.03362e-18
1.13388e-05 -1.26041e-05 -3.75778e-18
1.65482e-06 2.62277e-06 1.15263e-18
-7.55671e-08 -1.15185e-05 2.5116e-18
-6.51157e-06 1.56374e-05 -1.4638e-18
-2.88986e-06 5.70813e-06 1.57382e-19
1.35648e-05 -8.96465e-06 1.15186e-18
-2.51156e-05 -8.2054e-06 -4.54169e-18
-9.99894e-06 -1.31976e-05 -1.7928e-18
3.32936e-06 5.62448e-06 -1.20178e-20
1.11235e-05 3.35987e-06 3.8683e-18
-3.1301e-06 -4.79226e-06 1.67198e-18
1.33278e-05 2.42581e-06 2.54564e-18
1.21621e-05 -6.52873e-06 1.63006e-19
-2.5011e-07 1.79809e-05 1.9013e-18
5.51906e-06 -8.97648e-06 2.00738e-18
3.20863e-05 1.37233e-06 6.60775e-21
-2.72589e-05 7.1029e-06 3.95691e-18
1.53731e-05 7.67888e-06 2.22743e-18
-4.23176e-06 -1.11837e-05 -1.83132e-18
-1.0061e-05 -5.62499e-06 -6.73773e-19
1.89369e-05 -1.5671e-07 2.12954e-21
-4.78952e-07 -1.6072e-05 -2.03946e-18
-8.25585e-06 -7.16894e-06 -1.03147e-20
6.66069e-06 -1.54485e-05 8.18425e-19
-3.6318e-07 1.35408e-05 -3.20314e-18
5.12714e-06 1.70418e-05 -3.27269e-19
1.14848e-05 -6.59279e-06 -7.51775e-21
-1.23478e-05 1.24417e-05 2.95945e-18
1.0819e-05 1.31881e-05 2.61015e-18
-4.32768e-05 1.03239e-05 -3.15921e-18
-6.73594e-06 1.72444e-05 5.2189e-19
8.3154e-06 -1.01041e-05 -2.90197e-18
-4.63709e-06 -1.21804e-05 -5.15857e-19
-7.82151e-06 2.91502e-06 2.31468e-21
-1.67384e-05 -4.56415e-06 3.27742e-19
-4.46172e-06 2.60682e-05 2.43578e-18
-8.27537e-06 7.88687e-06 -3.36094e-19
1.37235e-05 -3.00492e-06 2.31941e-18
-4.5039e-06 -1.67822e-05 -4.90399e-19
-9.71454e-06 1.54635e-05 -2.7816e-18
-1.44158e-05 8.30328e-06 6.87636e-19
-1.33818e-05 -9.74913e-06 3.09914e-21
1.21077e-05 -1.39537e-05 -1.37165e-18
-1.7772e-05 -9.42393e-07 -1.47972e-18
7.83872e-06 -2.68668e-05 3.47971e-18
1.27465e-05 -1.24231e-05 -9.81864e-19
1.6047e-05 2.81938e-05 3.25661e-19
1.29265e-06 1.313e-05 -1.69653e-18
1.90176e-06 -1.66517e-05 1.47105e-18
-2.81539e-05 3.30473e-05 -2.79913e-18
-8.28719e-06 -1.58098e-05 -3.77035e-18
1.09943e-05 -4.2607e-06 2.19167e-18
-1.67279e-06 1.67853e-05 6.55908e-19
8.60089e-06 -7.97898e-06 2.02436e-18
9.07328e-06 1.59161e-05 4.90269e-19
1.13957e-05 -9.64424e-07 1.66647e-18
1.40486e-05 -4.11431e-05 -1.73595e-18
-3.85714e-06 -8.40228e-06 9.97633e-19
-1.50566e-05 6.46899e-06 -1.80269e-18
-1.32875e-05 1.24166e-05 -1.71074e-18
1.41973e-05 9.60458e-06 -1.63694e-18
1.23348e-05 -7.13871e-06 2.32091e-18
9.94055e-06 8.40377e-06 2.36023e-18
-3.61157e-06 -4.37505e-09 -6.62014e-19
1.00778e-05 -1.51295e-05 4.87866e-19
-1.10612e-05 -1.31744e-05 -8.15731e-19
1.48594e-05 6.45352e-06 1.15459e-18
8.557e-06 -8.03923e-06 -2.03864e-18
6.2079e-06 -1.62561e-05 -1.31907e-18
1.10519e-05 -4.6651e-06 4.85467e-18
-1.03276e-05 -4.91675e-06 6.66896e-19
8.76343e-07 -1.73989e-05 8.55632e-19
-1.68851e-05 2.89831e-06 -3.4542e-18
1.49604e-06 1.60345e-05 5.02822e-19
1.35917e-05 4.38738e-06 3.153e-18
-1.41013e-05 -6.94522e-06 2.64189e-18
-5.89173e-06 1.66552e-05 2.14015e-18
-9.94484e-07 -1.58072e-05 -1.98418e-18
1.30218e-05 7.90467e-06 2.37857e-18
-1.14619e-06 1.18794e-05 1.63446e-19
-1.312e-05 8.8292e-06 1.81575e-18
1.55056e-05 7.50473e-06 -9.81535e-19
-1.11915e-05 -6.57254e-06 8.38344e-19
9.57084e-08 -1.30378e-05 -1.68435e-18
1.20772e-05 1.31078e-05 2.47003e-18
-1.46173e-05 -9.4467e-06 -1.72292e-18
3.17577e-05 -2.27244e-05 1.64542e-19
1.18805e-05 -7.15285e-06 -1.00691e-18
5.66669e-06 2.80744e-05 2.39533e-18
1.12755e-05 -9.00426e-06 1.98699e-18
-1.47874e-05 5.70258e-05 3.85928e-18
-1.48644e-05 -5.64832e-05 -7.33947e-19
3.71197e-05 4.85248e-05 8.91057e-19
3.6673e-05 -4.85129e-05 -2.94673e-19
6.061e-05 -2.96532e-08 -1.93847e-18
-5.21554e-05 2.11303e-05 2.3726e-18
-5.1309e-05 -2.13511e-05 2.68154e-18
8.17761e-06 7.89343e-06 2.87384e-18
1.97681e-05 1.4716e-05 2.24827e-18
7.59528e-06 2.20604e-06 5.18561e-18
1.24799e-05 6.42127e-06 1.65028e-19
3.25045e-06 1.32459e-05 -2.64292e-18
-1.22646e-05 -9.66715e-06 1.63832e-19
1.13761e-05 -6.74852e-06 2.17444e-18
1.30986e-05 9.55989e-06 -3.29412e-18
-2.10002e-06 1.59202e-05 3.96077e-18
1.98646e-05 -1.35124e-05 -4.30862e-18
2.42623e-06 -1.552e-05 -1.98536e-18
1.47092e-05 3.40539e-06 1.70145e-18
1.96271e-05 7.28488e-06 -6.41389e-19
9.4316e-06 9.36728e-06 6.84961e-19
1.05275e-05 4.35771e-06 2.16547e-18
-1.20813e-05 7.11494e-06 -9.94015e-19
-1.46595e-05 5.86412e-06 -2.6449e-18
1.54371e-05 -7.53168e-06 5.15552e-19
-1.19173e-05 -6.53118e-06 1.33268e-18
-1.2101e-05 -6.85088e-06 4.81031e-18
-2.16914e-07 -1.36211e-05 -2.00586e-18
-9.87126e-08 -1.3844e-05 -5.01583e-19
-1.30823e-05 -6.5722e-07 1.15214e-18
1.76147e-05 -2.67231e-06 -1.59876e-19
1.19542e-05 7.49193e-06 -6.59814e-19
-1.1697e-05 7.09793e-06 1.33535e-18
-1.01191e-05 1.10077e-05 -1.01428e-18
1.05594e-05 -9.0874e-06 1.60609e-19
-7.25367e-06 1.13509e-05 1.15461e-18
-9.29647e-06 -9.67369e-06 -2.80899e-18
-8.09382e-07 1.38607e-05 4.47362e-18
-8.42961e-07 1.37515e-05 2.16648e-18
3.38922e-08 -1.30418e-05 3.01746e-18
4.00458e-06 -1.29661e-05 -1.32453e-18
-1.12474e-05 -6.4764e-06 -2.01903e-18
1.03261e-05 -3.65745e-06 4.65965e-18
4.18276e-07 1.40844e-05 3.15997e-18
1.70777e-07 1.21465e-05 -6.75723e-19
-1.56825e-06 1.10227e-05 -4.98419e-19
1.44567e-05 -3.65684e-06 -1.31703e-18
-1.096e-05 3.49475e-06 -1.34839e-18
2.68877e-06 1.40976e-05 6.66581e-19
-2.17176e-05 8.51797e-06 -1.19976e-18
6.15115e-06 2.74497e-05 -9.44959e-19
-1.12669e-05 2.97702e-06 5.05675e-19
1.32104e-05 -7.81598e-06 5.03844e-19
5.75793e-07 1.37836e-05 1.67132e-19
-1.33089e-05 4.36744e-06 1.64481e-19
1.61946e-06 -1.06958e-05 1.51344e-18
5.97061e-07 -3.8038e-05 2.33442e-18
1.31017e-06 1.14951e-05 1.66152e-18
-1.10952e-05 9.07467e-06 4.31909e-18
1.13223e-05 4.16748e-05 1.89574e-18
3.15147e-05 2.61362e-05 3.16491e-18
3.61264e-05 -2.47178e-05 5.26939e-19
9.83029e-06 -6.73524e-06 6.58138e-19
-1.03359e-05 9.11401e-06 1.98419e-18
-1.31388e-05 -5.16614e-06 1.32273e-18
-1.27804e-05 -4.41192e-06 3.13947e-18
4.44164e-05 -1.22045e-05 -5.39918e-19
4.53072e-05 9.52681e-06 1.43026e-18
7.22529e-06 2.52233e-06 4.52347e-18
4.70289e-07 1.28741e-05 -1.01015e-18
4.9279e-08 1.28655e-05 -1.91993e-21
-3.16879e-05 -2.3187e-05 4.50439e-18
7.50756e-06 -1.13077e-05 3.3058e-19
7.83374e-06 8.35474e-06 5.5775e-18
-1.38874e-05 -2.21669e-06 -6.25272e-21
-9.18664e-06 1.11486e-05 3.98398e-18
-1.23179e-05 5.93089e-06 -3.14911e-18
3.1362e-05 2.24961e-05 -9.33425e-19
1.05523e-05 4.67226e-06 2.52464e-18
-3.70059e-06 1.30524e-05 -6.53335e-19
-1.11165e-05 -7.62256e-06 -2.17087e-18
1.1874e-06 -1.34805e-05 -3.16677e-18
-5.84646e-06 -1.25501e-05 8.28338e-19
-1.12501e-05 -7.6548e-06 -5.00101e-19
6.94292e-06 -1.2417e-05 4.96597e-19
9.32053e-06 -1.11508e-05 3.29192e-19
-1.93631e-06 -3.98044e-05 -3.04939e-19
1.69765e-05 -2.69275e-05 1.12198e-18
1.14144e-06 -1.36319e-05 -1.32927e-18
1.19091e-05 7.46815e-06 -8.31252e-19
-9.46773e-06 -9.65716e-06 -1.16205e-18
-6.44531e-06 1.28205e-05 4.27311e-21
-3.30657e-06 1.37191e-05 3.36029e-19
1.09895e-05 9.34645e-06 -3.23862e-19
3.95363e-06 -1.30215e-05 -6.65523e-19
-9.11483e-06 -2.61017e-05 -3.12232e-19
-1.35782e-06 1.6601e-05 -1.6946e-18
9.74116e-06 9.52453e-06 -6.56247e-19
-8.4913e-06 -6.70941e-06 1.17622e-18
-8.90641e-06 6.97914e-06 -1.59968e-19
2.9212e-05 -1.25559e-05 1.58971e-18
4.99037e-06 -8.80169e-06 -4.99165e-19
-5.46505e-06 -8.22038e-06 -3.36457e-19
1.43502e-05 4.37495e-06 -2.40361e-18
8.81979e-06 -3.18197e-05 5.23979e-19
-2.31518e-05 -2.35278e-05 -3.85713e-18
1.5649e-05 4.10423e-06 1.5373e-18
-6.12963e-06 -1.18871e-05 3.30366e-19
1.23814e-05 6.29121e-06 2.67003e-18
-1.8802e-05 -2.08767e-05 2.37127e-18
7.14243e-06 3.23543e-05 -1.20793e-18
3.1345e-05 -4.04824e-05 8.80708e-19
-1.93882e-05 -4.73767e-05 -6.37764e-18
1.77248e-05 -3.46505e-05 -6.13378e-19
-8.42226e-06 2.89082e-05 -3.41249e-19
-4.79704e-06 2.56046e-05 2.97302e-18
-1.22406e-05 5.85511e-06 -1.16709e-18
4.00276e-06 1.60503e-05 -1.87041e-18
-1.58239e-06 8.27086e-06 1.84602e-18
6.73165e-06 2.15337e-06 3.69011e-18
-2.12623e-06 1.0715e-05 -5.11571e-19
-1.62015e-07 1.38588e-05 -4.4024e-18
1.10631e-05 6.44511e-06 5.05098e-19
5.5294e-07 3.7858e-05 1.08842e-18
-9.65109e-06 6.96588e-06 2.16871e-18
1.06359e-05 -4.11107e-06 2.51914e-18
1.13397e-05 -2.95143e-06 4.99046e-19
-3.88063e-05 -5.57435e-06 2.03329e-18
-2.29522e-05 1.09208e-05 -1.35532e-21
-2.81617e-05 -3.33913e-05 4.41979e-18
5.7266e-06 5.49706e-06 -1.66977e-19
9.4381e-06 4.86765e-06 3.85987e-18
1.76419e-05 -2.8126e-06 -1.80278e-18
-5.30577e-06 -8.63745e-06 1.66994e-18
1.14176e-05 5.60741e-06 -5.69217e-21
4.88264e-06 -1.99424e-05 -2.91637e-18
-9.04546e-06 6.6428e-06 4.35883e-18
-1.48228e-05 -1.41979e-05 -5.83915e-18
-3.82523e-06 1.06528e-05 5.06757e-19
-2.197e-06 1.36564e-05 -1.85898e-18
2.29262e-05 1.42391e-05 3.51744e-19
2.44429e-05 -1.29718e-05 -2.60593e-18
-2.71025e-05 -7.29914e-06 2.69075e-18
5.06718e-06 5.12698e-06 1.67659e-18
-3.17687e-06 6.61954e-05 2.62247e-18
-1.53717e-08 -6.79955e-05 3.07522e-19
3.35134e-05 5.73534e-05 1.53575e-18
-1.26222e-05 5.51647e-06 2.36468e-18
-1.79774e-05 3.62994e-05 1.39443e-18
3.37193e-05 -5.53572e-05 -1.38809e-18
-7.66067e-06 -1.1857e-05 4.97858e-19
5.12709e-05 4.46377e-05 -1.39285e-18
1.59611e-05 -1.18783e-05 -6.20498e-18
-2.32394e-06 -1.97517e-05 -1.21329e-18
5.3721e-05 -4.36479e-05 -3.16194e-19
-4.45018e-06 9.47141e-06 2.49792e-18
-3.4421e-05 -2.18671e-05 4.87433e-18
-2.83519e-05 -5.9197e-05 1.69449e-18
-1.60509e-05 -3.74663e-05 1.89233e-18
-2.91476e-05 6.01669e-05 5.2457e-18
-6.90191e-06 4.16321e-05 7.88784e-19
1.0688e-05 2.48286e-05 1.57694e-18
-1.84727e-05 2.3738e-05 1.25878e-18
-1.72023e-05 -3.53372e-05 2.94742e-18
6.59673e-05 1.1574e-05 -7.70225e-19
-1.11237e-05 6.99492e-06 1.34182e-18
-3.93055e-06 1.07783e-05 -6.75987e-19
-3.26447e-05 2.35107e-05 2.81177e-18
-1.13308e-05 6.50362e-06 2.17723e-18
6.53176e-05 -1.03187e-05 -3.07361e-19
-1.01033e-05 5.08248e-06 -3.36962e-19
4.7542e-06 -9.54109e-06 -1.32728e-18
-5.072e-05 -3.86454e-05 3.70678e-18
-1.72922e-05 3.75003e-05 7.87874e-19
-5.19288e-05 3.8369e-05 2.30106e-18
1.56773e-05 3.45216e-05 -3.55116e-18
-9.69198e-06 6.88951e-06 3.50199e-18
-1.35823e-05 1.63142e-05 -3.61938e-18
-2.41713e-05 3.0355e-05 7.2939e-19
-3.78985e-05 -4.88901e-06 -1.95591e-18
-6.32546e-07 1.07378e-05 -2.02021e-18
-2.56021e-05 -3.04826e-05 -4.77592e-18
-3.92112e-05 6.93676e-06 -3.5242e-19
-1.49345e-05 3.46442e-05 -2.46603e-18
-1.15283e-05 4.61234e-05 -1.38457e-18
-1.20541e-05 2.67218e-05 -3.17242e-19
-2.23725e-05 1.80255e-05 -2.6012e-18
1.64425e-05 -4.04999e-06 -3.46286e-19
2.56891e-05 -1.39147e-06 -1.89712e-18
8.97341e-06 5.45093e-06 4.70152e-18
-8.09955e-06 -5.3066e-05 -3.58394e-19
-5.00158e-05 -1.95056e-05 -5.63236e-18
2.50154e-05 3.39358e-07 5.23863e-19
3.86151e-05 -7.45481e-06 -1.85428e-18
-6.92508e-06 -8.79222e-06 8.30269e-19
-3.3508e-05 2.35568e-05 5.88461e-18
-3.00294e-05 3.43975e-05 3.46925e-18
4.08201e-05 -1.47085e-05 -1.53536e-19
-1.86891e-05 -3.16706e-05 -6.94814e-19
-1.90236e-05 3.14258e-05 1.41805e-18
-3.6913e-05 -1.30542e-06 -3.66883e-19
-1.67904e-05 3.30179e-05 3.54294e-19
-3.67952e-05 3.79899e-07 2.08506e-18
4.57612e-05 1.63884e-05 -4.23472e-18
3.69431e-05 1.35717e-06 -8.63416e-19
3.47277e-05 -1.77926e-05 -1.4068e-18
1.01259e-05 -4.88144e-05 -1.95921e-18
1.83584e-05 -3.19766e-05 -1.75883e-18
1.82338e-05 3.1973e-05 7.02236e-19
9.9163e-06 4.7696e-05 6.75739e-21
4.99759e-05 -1.4092e-05 1.43049e-18
3.20424e-05 1.58711e-05 4.59167e-18
3.08021e-05 8.41635e-06 3.49437e-18
P_ext 3 563 float
-1.09148e-06 3.69057e-07 -4.24368e-21
1.03562e-09 4.04271e-08 8.04643e-21
-1.00578e-07 -9.45834e-08 1.80178e-20
-3.18162e-08 2.93687e-08 5.2226e-20
2.77598e-08 5.29909e-10 -6.97077e-20
3.31014e-08 -1.34342e-07 2.54857e-20
-1.07463e-06 -3.73522e-07 -4.56649e-20
-7.88529e-08 -8.94515e-08 -2.61985e-20
2.19344e-07 3.88547e-09 5.14214e-20
8.00832e-08 -7.52365e-09 5.52259e-20
7.1047e-07 1.66523e-07 -6.31905e-20
3.90498e-08 -1.14317e-07 1.28165e-19
8.94926e-08 1.06525e-07 -7.34183e-20
-9.21777e-09 8.34499e-08 -2.10381e-20
2.50723e-08 9.28691e-09 2.36262e-20
-1.40219e-07 -2.29539e-09 1.0216e-20
-1.75175e-08 5.4993e-08 1.28431e-20
8.45264e-08 -1.27542e-08 7.55806e-20
9.70864e-08 1.73145e-07 -3.57768e-20
-1.30256e-07 1.31358e-08 3.83514e-20
-4.88992e-08 -1.84494e-07 -5.95451e-20
1.61207e-09 3.35927e-10 -9.90091e-20
1.44267e-07 1.17457e-08 7.00026e-20
9.18466e-08 -1.06047e-07 4.41286e-20
-1.3306e-07 -2.14268e-08 4.67046e-20
-2.50825e-08 -7.28166e-08 5.7338e-20
8.16784e-07 -6.68168e-08 -1.95491e-20
1.00075e-07 8.43694e-08 1.02971e-20
-2.98856e-07 -2.37394e-07 -4.79069e-20
1.75634e-08 3.30333e-09 1.08041e-20
-1.33604e-07 -2.3794e-08 -1.31132e-20
5.8409e-08 -3.80079e-07 -2.79549e-21
6.13778e-07 -6.28586e-07 -2.19283e-20
1.30813e-09 -2.88285e-08 6.75423e-20
-7.75855e-09 2.21707e-08 1.13773e-20
-2.40645e-08 -1.5854e-08 -3.0014e-20
3.18784e-09 1.59181e-08 3.25899e-20
-2.43317e-08 4.14309e-09 -9.19188e-20
9.66427e-08 -1.05107e-07 2.06441e-20
5.98931e-07 6.55078e-07 3.44973e-20
3.82584e-07 -1.73334e-07 -2.4955e-20
5.92055e-09 -1.45769e-08 4.3025e-20
-9.58024e-09 -1.27678e-08 -7.38723e-20
-1.32722e-07 2.72637e-08 -3.41976e-20
3.79563e-07 -3.72748e-07 2.02005e-23
-3.53676e-07 1.27305e-07 -5.75162e-20
-4.4685e-08 -1.94994e-07 -2.56903e-20
8.06275e-08 1.95857e-07 -5.41447e-20
-1.27308e-07 3.32912e-08 -1.14469e-19
-2.19057e-07 3.4071e-07 -4.97444e-21
3.88296e-07 1.90159e-07 -8.51315e-20
3.37167e-07 -1.10894e-07 5.07439e-21
-9.93489e-09 2.36105e-08 -3.99596e-20
-2.63857e-07 -2.36774e-07 -3.55741e-20
-2.59006e-08 3.4197e-09 -4.01269e-20
-5.65913e-07 3.32335e-07 -1.8852e-21
-7.20436e-09 -2.20782e-08 8.11021e-20
7.51348e-08 -3.48436e-07 -2.65057e-21
-2.25019e-08 -4.90118e-09 7.52048e-20
5.89501e-08 1.18199e-07 -4.40067e-20
-3.14572e-08 -9.54776e-09 2.84494e-20
-3.32149e-08 -3.12012e-08 -2.95021e-20
7.36456e-07 3.24232e-07 -3.45762e-20
-6.31607e-10 6.43241e-08 2.09586e-20
9.94302e-09 -4.29182e-08 -2.64737e-20
1.67017e-08 -9.54811e-08 3.42889e-20
-6.62723e-09 -3.12632e-08 2.10602e-20
-7.64143e-08 -1.94208e-08 8.09476e-20
-8.89518e-08 1.08838e-07 -5.00735e-21
2.38558e-08 -8.66282e-09 -2.52396e-21
-9.79917e-09 -2.42903e-08 7.47904e-20
-2.56171e-08 -3.75458e-09 -2.13205e-20
-4.40879e-08 4.08456e-07 8.80463e-20
-7.84837e-08 3.96421e-08 4.75012e-20
-7.61397e-08 1.30232e-07 2.6532e-20
-7.65818e-07 9.00158e-08 6.12331e-20
3.54016e-11 -6.06551e-08 -1.854e-20
-7.37335e-08 -6.17763e-08 1.81734e-20
3.10468e-08 7.57627e-08 1.52635e-20
2.93519e-07 5.86799e-08 3.92189e-22
4.20668e-07 -3.66013e-07 9.71192e-21
1.15348e-08 2.82441e-08 -1.08352e-20
2.84595e-08 8.83046e-09 5.75367e-20
-3.91964e-07 2.89992e-07 7.77707e-20
4.57538e-07 5.56261e-08 -6.73668e-20
-6.93479e-08 6.20131e-07 2.24604e-20
-2.40418e-08 -1.24291e-07 -1.56257e-20
8.44022e-08 5.94445e-08 6.0749e-20
3.6509e-07 3.85015e-07 -1.98611e-20
6.61619e-09 2.94542e-09 -5.17694e-21
-7.03658e-08 3.50405e-07 9.8569e-21
5.97648e-09 -3.2031e-09 -3.04636e-20
-4.22561e-08 2.88173e-08 -1.31342e-20
9.12184e-08 3.71243e-08 2.90057e-20
-3.374e-07 1.04306e-07 5.24678e-21
1.95827e-07 3.441e-07 -1.73679e-20
1.21826e-07 -5.50041e-07 4.96546e-20
2.86387e-08 7.50841e-08 -5.53087e-21
-5.18222e-08 -3.08365e-08 4.75014e-20
4.29366e-08 1.37324e-07 -2.35553e-20
2.85486e-07 4.85812e-08 -4.35098e-20
-1.89511e-07 3.9152e-07 1.50682e-20
5.03772e-07 -1.64648e-07 1.51296e-20
-2.79572e-08 6.1039e-08 -1.05872e-20
5.3584e-08 5.4419e-08 1.01863e-20
-3.18468e-08 -7.34696e-08 1.84344e-20
-1.28102e-08 -5.59795e-08 -7.65552e-20
1.48198e-07 1.77671e-08 2.60163e-20
-1.08088e-07 5.05603e-07 -4.94153e-20
-2.50024e-08 1.54232e-08 7.84638e-21
7.39206e-08 1.09546e-07 -3.36494e-22
-3.65495e-08 -5.18851e-07 9.86864e-21
5.24881e-07 1.57597e-07 -1.23874e-20
3.57389e-08 -6.31538e-08 1.58592e-20
-8.15939e-08 -9.33424e-09 2.87122e-20
-3.35714e-07 -1.34744e-07 2.79135e-20
1.66035e-08 1.776e-08 4.05506e-20
-5.33259e-07 -1.86494e-07 3.01553e-20
1.68558e-08 -1.77108e-08 -1.6602e-20
-5.18531e-08 -3.64596e-07 -1.00006e-20
2.2503e-07 8.53924e-09 -5.24729e-21
-2.00447e-08 1.71066e-08 -2.37071e-20
5.37965e-09 2.45769e-08 -3.3837e-21
1.50529e-08 -6.59273e-08 1.07935e-19
2.61485e-08 -1.22299e-08 -3.89555e-23
4.89786e-10 2.64873e-08 1.27084e-19
2.28655e-08 -2.85434e-09 7.28112e-20
4.26535e-08 -6.29238e-08 -3.92187e-20
-1.09185e-07 -5.56885e-07 -2.00899e-20
2.8845e-07 -2.22051e-07 -2.04791e-20
9.34938e-10 3.51468e-08 1.05963e-20
-2.43247e-08 -4.40054e-09 1.04716e-20
-7.91671e-09 -2.7208e-08 8.42395e-20
-2.00595e-08 -1.41588e-08 -2.71072e-21
-2.69661e-07 3.36974e-07 1.7557e-20
-3.09795e-10 -2.67696e-08 -8.15011e-21
-3.37303e-07 5.2962e-07 4.25256e-20
-1.26778e-07 5.83033e-08 2.62472e-20
1.78278e-08 1.92273e-08 -2.55613e-21
-2.30471e-08 -1.3476e-08 -3.02883e-20
1.64467e-07 3.96936e-07 -4.54461e-20
9.49032e-08 8.45795e-08 -1.57008e-20
2.30338e-07 -7.59627e-08 2.84183e-20
1.2962e-08 -7.08791e-08 3.68507e-20
-4.17913e-07 -3.851e-07 5.51206e-20
-4.02987e-08 6.96464e-08 -3.91938e-20
1.04646e-07 5.58195e-08 2.61785e-20
1.53018e-07 -5.26809e-08 1.5658e-20
6.60821e-08 -1.32008e-07 -1.55116e-20
2.6195e-07 -1.20788e-07 -8.68533e-20
1.74288e-07 -8.22659e-08 4.67923e-20
1.75169e-08 -1.45171e-08 -3.9331e-20
3.03835e-07 2.4033e-07 -5.52192e-20
-4.39845e-08 -1.272e-07 -2.5869e-20
-5.40253e-08 -4.62212e-08 -1.57935e-20
-8.83125e-09 -2.31848e-08 2.09662e-20
1.21329e-08 9.07591e-08 4.46245e-20
-4.06388e-07 2.91362e-08 2.80166e-20
-1.48459e-07 -3.87935e-07 -7.33178e-21
-6.394e-08 8.15022e-08 -1.02916e-20
1.25732e-07 1.67564e-07 -4.90491e-20
3.12734e-07 -2.21812e-07 -6.58448e-20
-4.57168e-07 -2.44427e-07 5.43579e-20
2.03385e-07 -3.31092e-07 1.95142e-20
2.64838e-07 -3.25771e-07 -3.0523e-20
-7.8007e-08 7.72772e-09 -4.95632e-20
-2.32494e-07 -3.36438e-07 -4.78796e-20
-4.06972e-07 -6.37842e-08 -2.51308e-20
-4.85017e-08 -3.71393e-07 -1.25442e-20
1.81043e-07 -3.74201e-07 -5.06848e-20
3.78536e-09 -5.14485e-08 7.1939e-20
5.37996e-08 3.5829e-07 -5.57367e-20
-1.91659e-07 -3.35285e-07 -1.47121e-20
-1.79785e-08 -8.22789e-08 -2.11864e-20
-2.7706e-07 2.07419e-07 1.7834e-20
-5.42856e-08 -1.77984e-08 -1.81988e-20
-4.22946e-08 -2.90658e-08 -7.71881e-20
1.10588e-07 -5.67142e-08 -5.14741e-21
-1.52195e-08 2.15493e-08 -1.44026e-19
5.87808e-08 -7.41922e-08 -1.12144e-19
-3.4475e-07 -1.5332e-07 2.78296e-20
-4.5672e-08 -6.15111e-08 3.40995e-20
4.77327e-08 6.52533e-08 4.78545e-21
2.49288e-07 3.44108e-07 -6.56448e-20
-8.82492e-08 -4.06954e-08 4.4875e-20
-3.83492e-07 -8.62834e-09 1.28398e-20
-4.91628e-08 -4.55926e-08 -1.82053e-20
-2.79901e-09 -6.60341e-08 3.7176e-20
4.81565e-08 2.429e-08 1.37897e-22
-5.55372e-08 5.47419e-08 8.35046e-20
-9.27505e-09 -9.72055e-08 1.3294e-20
-5.11922e-07 1.26099e-07 7.02404e-20
2.8063e-07 2.39404e-07 -5.81705e-20
3.74973e-08 3.89903e-07 -4.54943e-20
-2.26101e-08 7.77431e-09 -4.7014e-20
-7.54298e-08 2.3439e-09 5.47524e-20
3.46302e-08 6.61162e-08 2.27771e-21
-2.74164e-08 -6.73083e-09 -6.83967e-20
3.24327e-09 -2.33722e-08 9.6733e-20
-1.50833e-08 1.02892e-07 2.36054e-20
1.67161e-08 1.76117e-08 2.33446e-20
-1.90528e-07 4.21165e-08 5.60657e-20
-1.93223e-07 2.10829e-07 -1.9424e-22
-2.08629e-08 1.93612e-08 -6.81887e-20
-3.49556e-07 2.10963e-07 6.068e-20
-8.97674e-09 2.97923e-08 -5.8038e-20
9.4352e-08 -3.38001e-08 -4.73167e-20
4.38183e-07 -4.03134e-08 -6.99878e-20
-5.49364e-08 3.47613e-08 4.2334e-20
2.22156e-08 1.02427e-08 -7.91261e-21
5.71797e-08 -3.57803e-08 -2.13252e-20
-9.80911e-08 3.26948e-08 -1.29196e-20
-7.13857e-08 1.87155e-08 -4.42253e-20
2.51052e-08 -7.33229e-09 -2.36586e-20
2.32147e-07 -1.41182e-07 -5.66289e-20
-9.13698e-08 5.82576e-08 -1.5745e-20
-2.72921e-07 -5.69122e-08 -3.30883e-20
-5.80126e-08 -3.05438e-08 -5.41937e-21
2.21918e-08 -1.4731e-08 -1.34401e-20
2.45825e-08 1.72686e-08 -3.72612e-20
-6.20289e-09 2.79466e-08 5.7735e-20
-2.51636e-09 -3.15316e-08 3.41523e-20
-2.55867e-08 1.30807e-08 -4.1594e-20
-2.86357e-08 -1.46718e-08 2.06973e-20
7.17357e-08 -2.71133e-08 2.11159e-20
-2.62521e-08 -7.21865e-09 -2.64438e-20
-2.61964e-08 6.95316e-09 -6.37419e-20
-6.45792e-09 2.60263e-08 2.66366e-20
-7.01084e-09 -2.65967e-08 -2.06686e-20
1.73108e-08 -1.93837e-08 -1.09753e-20
1.66425e-08 1.85516e-08 -3.44575e-20
1.00425e-08 2.77045e-07 -2.53691e-20
5.37589e-08 -4.43436e-08 -2.84319e-20
1.25468e-08 -2.36618e-08 3.66164e-20
-2.08941e-07 7.72304e-09 -7.67501e-21
1.98412e-08 -1.8839e-08 2.62962e-21
1.85249e-08 1.91321e-08 5.0425e-21
2.84203e-08 -6.18335e-10 1.27795e-20
9.59091e-08 2.71487e-07 -1.37113e-19
-1.43793e-08 -2.35157e-08 4.4064e-20
3.10924e-08 -7.11657e-08 4.72659e-20
-2.33164e-07 -1.29004e-07 2.65407e-21
-5.12437e-08 -3.32646e-08 -3.21174e-20
-2.34015e-07 1.38793e-07 8.1575e-21
2.07556e-08 -2.12823e-08 2.66035e-21
-9.94751e-09 2.211e-08 1.81551e-20
-5.47273e-09 -2.68277e-07 -8.4062e-20
-8.78297e-08 -2.65707e-07 4.60095e-20
4.02671e-07 3.83246e-07 -4.48949e-20
4.30712e-07 -2.44587e-08 -1.72239e-20
-3.05588e-08 6.65419e-09 5.38088e-21
-2.88059e-07 -5.09041e-07 -4.45105e-20
6.86914e-08 1.17778e-07 -1.58706e-20
-2.76135e-07 3.25228e-08 1.61734e-22
1.98243e-07 5.54341e-08 -1.78594e-20
-2.70894e-08 -1.0957e-10 8.90568e-20
5.871e-10 -2.81585e-08 4.44586e-20
-2.46163e-09 -1.92648e-08 1.49107e-19
-2.4015e-08 -1.42864e-08 -3.41109e-20
-5.97265e-07 -2.26334e-08 2.74987e-20
1.87726e-07 -2.12318e-07 -1.12171e-19
1.27666e-08 2.47631e-08 2.83521e-20
6.52588e-09 -1.18552e-07 -2.44718e-21
-1.11975e-07 2.65181e-07 1.50979e-20
2.29354e-09 2.97947e-08 9.9188e-20
2.0032e-07 -1.43342e-07 -1.27593e-20
-1.76265e-08 -7.70622e-09 -9.5492e-20
-1.70341e-07 -2.21395e-07 -5.33922e-20
2.34741e-08 1.19481e-08 1.28269e-20
5.55542e-08 5.3703e-08 2.89049e-20
-3.95227e-08 -6.15681e-08 -5.71845e-20
2.43244e-08 -7.86215e-09 3.98273e-20
8.23176e-08 -5.74663e-08 -1.85402e-20
-4.89021e-09 4.59041e-08 3.2475e-20
6.77162e-08 -1.14131e-07 4.44129e-20
6.18284e-07 3.11528e-08 -5.67186e-20
-5.23796e-07 1.38586e-07 8.89959e-20
4.38738e-08 3.05733e-08 -1.30031e-20
-6.48986e-08 -1.5625e-07 -6.74468e-20
-9.86545e-08 -6.43586e-08 -1.83649e-20
3.21085e-07 -3.22701e-09 -5.02957e-21
2.74599e-09 -6.12756e-08 -3.71566e-20
-8.02514e-08 -2.83384e-08 -2.86671e-21
1.09426e-07 -2.61444e-07 -3.03607e-20
8.72437e-09 1.05329e-07 5.20452e-20
8.98108e-08 2.78516e-07 -5.37238e-20
1.07797e-07 -5.68069e-08 -4.45624e-20
-1.96619e-07 2.09282e-07 3.0994e-20
1.80797e-07 2.23408e-07 -5.29082e-20
-1.13767e-08 5.0873e-09 -5.76498e-20
1.8702e-09 4.85405e-08 -3.69888e-20
3.66662e-09 -2.20275e-08 -7.19349e-20
-1.74359e-08 -1.44674e-08 1.08478e-19
-6.00524e-08 4.76132e-08 -3.91413e-20
-2.7548e-07 -6.52699e-08 2.44484e-21
9.64325e-10 3.09694e-08 -7.46129e-20
-7.20544e-08 2.15126e-08 -8.40057e-20
1.95191e-07 -2.82988e-08 2.33782e-20
-8.3465e-08 -2.70287e-07 -6.64884e-20
-1.6439e-07 2.61804e-07 -6.13159e-20
-4.64273e-08 2.14586e-08 6.13417e-20
-2.20321e-07 -1.55893e-07 -2.7958e-20
4.988e-08 -2.33963e-08 -5.06728e-20
-2.98735e-07 -1.4628e-08 -5.12591e-20
1.46235e-07 -5.1601e-07 4.72271e-20
1.99813e-07 -2.09825e-07 -3.84547e-20
3.05514e-07 5.41674e-07 -1.21579e-20
-2.86098e-09 6.54842e-08 1.03388e-20
2.62271e-08 -2.72151e-07 1.54066e-20
-1.06319e-08 6.43941e-09 -6.01251e-20
-1.4164e-07 -2.64301e-07 4.77922e-21
4.75335e-08 -4.06776e-08 6.84578e-20
-2.73255e-08 2.75291e-07 7.60547e-21
6.63493e-08 -1.94798e-08 2.37395e-20
1.50966e-07 2.69037e-07 -6.37425e-20
1.51211e-07 -3.53114e-09 1.3511e-19
2.75963e-07 -8.14248e-07 -9.82607e-20
-5.84799e-08 -1.08873e-07 -2.84647e-20
-2.43882e-07 1.06265e-07 2.39431e-21
-3.41789e-08 1.67972e-08 -1.17167e-19
2.31523e-07 1.55048e-07 1.77612e-20
1.65029e-07 -9.11094e-08 3.63265e-20
8.72409e-08 3.83307e-08 -6.03528e-20
-1.78435e-08 1.50758e-08 6.80941e-20
1.65522e-07 -2.55705e-07 -6.8971e-20
-1.76464e-07 -2.2021e-07 -4.8522e-20
2.27683e-07 8.9809e-08 -7.67843e-20
5.79271e-08 -3.58058e-08 -3.72083e-20
1.06441e-07 -2.64554e-07 -1.38092e-19
1.25092e-07 -2.37151e-08 1.12449e-19
-1.21391e-07 -4.84315e-08 2.85806e-20
-5.2791e-09 -4.92808e-08 4.00611e-20
-2.78234e-07 3.86372e-08 -5.15393e-20
2.9233e-08 2.44082e-07 -6.65427e-20
1.9035e-07 4.44193e-08 4.15672e-20
-2.16221e-07 -9.67794e-08 3.61859e-20
-1.06317e-07 2.72614e-07 3.85519e-20
-2.43005e-08 -2.37802e-07 -4.13046e-20
6.28774e-08 3.0688e-08 2.13783e-20
-4.08064e-08 1.15016e-07 -2.87241e-20
-1.94438e-07 1.39453e-07 -4.08152e-20
2.49709e-07 1.25953e-07 -7.88858e-20
-1.13688e-07 -3.5717e-08 -3.65322e-20
-2.75659e-08 -1.17075e-07 -5.4952e-21
1.90824e-07 2.21816e-07 3.0982e-20
-4.48686e-08 -2.03527e-08 -3.50053e-20
6.27416e-07 -4.51144e-07 4.94572e-21
1.32886e-07 -9.29708e-08 3.61249e-20
1.08508e-07 5.31738e-07 1.00784e-20
1.4012e-07 -1.34707e-07 5.24674e-21
-3.02899e-07 1.15352e-06 -1.81887e-21
-3.04655e-07 -1.14229e-06 4.80001e-21
7.48504e-07 9.83874e-07 -2.53323e-20
7.39219e-07 -9.8361e-07 -2.54099e-20
1.22526e-06 -4.77507e-10 -3.01145e-20
-1.05622e-06 4.24935e-07 -4.47044e-21
-1.03871e-06 -4.29556e-07 9.40783e-21
5.05246e-08 2.74106e-08 -3.93616e-20
3.24215e-08 1.57419e-08 -1.30311e-20
9.41619e-08 1.26818e-08 9.67452e-20
1.66235e-07 8.88412e-08 -4.12547e-20
4.93112e-08 1.96422e-07 -9.7772e-20
-1.78214e-07 -1.5311e-07 -3.33499e-20
8.97543e-08 -8.27358e-08 -2.60483e-20
1.91488e-07 1.53677e-07 -7.71867e-20
-4.4283e-08 2.41755e-07 -2.00638e-20
3.14456e-08 -1.54448e-08 -1.64918e-20
4.50691e-08 -2.32e-07 4.84973e-20
5.88966e-08 3.97102e-08 2.39714e-20
3.45366e-07 1.20986e-07 -4.03614e-20
7.74808e-09 2.48677e-08 4.24464e-20
1.33491e-07 4.36929e-08 3.90849e-20
-1.65213e-07 9.13897e-08 -1.04245e-20
-2.26196e-07 7.82515e-08 -9.26779e-20
4.47937e-08 -3.06882e-08 2.66971e-20
-1.44422e-07 -6.6832e-08 3.12099e-20
-1.5868e-07 -9.39889e-08 -1.76096e-20
-1.39084e-08 -1.59295e-07 -4.96419e-20
6.27667e-10 -1.82949e-07 7.68369e-21
-2.01424e-07 -8.70722e-09 -4.34438e-20
2.98948e-07 -4.64161e-08 -7.57759e-21
1.61286e-07 9.93995e-08 6.44601e-20
-1.33467e-07 9.10469e-08 4.42367e-20
-6.01847e-08 2.9464e-08 -1.31749e-20
1.50534e-07 -1.34883e-07 -2.83298e-20
-1.13102e-07 1.76105e-07 5.28194e-21
-1.39324e-07 -1.46762e-07 -4.9086e-20
-1.32031e-08 1.91827e-07 5.62849e-21
-2.86988e-08 1.61905e-07 3.13469e-20
4.73124e-09 -1.17545e-07 -5.20082e-20
6.0638e-08 -1.95986e-07 -7.46272e-20
-9.91183e-08 -6.3609e-08 1.27492e-20
1.37321e-07 -3.91625e-08 5.46735e-20
3.36622e-10 1.9159e-07 3.4015e-20
-4.14366e-09 1.22422e-07 -3.14739e-20
-3.0765e-08 1.37703e-07 -1.04064e-20
2.25366e-07 -5.54624e-08 -1.03894e-20
-4.73388e-08 4.51921e-08 -4.47375e-20
5.1081e-08 1.91746e-07 -4.37274e-20
-3.08766e-08 1.94885e-08 -2.68781e-21
1.1381e-07 5.27735e-07 -1.46361e-20
-5.58385e-08 3.01411e-08 -1.31441e-20
5.92441e-08 -3.08387e-08 -4.76319e-20
1.70391e-08 1.62937e-07 3.11426e-20
-1.91084e-07 4.53905e-08 -3.36225e-20
-5.87258e-09 -8.28393e-08 -2.0928e-20
7.88148e-09 -7.52883e-07 2.73704e-21
2.28726e-08 1.3813e-07 -1.80712e-20
-1.42752e-07 1.35804e-07 8.25131e-21
2.21661e-07 8.24413e-07 -6.11912e-20
1.06509e-08 7.01314e-09 1.69033e-20
9.20235e-09 -6.68865e-09 3.27643e-20
1.07474e-07 -8.3809e-08 -5.46769e-20
-1.52548e-07 1.36585e-07 3.3716e-20
-1.83106e-07 -5.40902e-08 -1.03163e-20
-1.88161e-07 -6.17986e-08 -9.94376e-21
-3.74289e-09 2.30286e-09 -5.72674e-21
-2.58412e-09 -1.24162e-09 7.21073e-20
8.78941e-08 1.78603e-08 2.38451e-20
2.78946e-08 1.28282e-07 -4.19151e-20
-3.22388e-09 1.27553e-07 3.64905e-20
-6.306e-07 -4.58066e-07 4.15136e-20
1.11944e-07 -1.7607e-07 -9.73336e-20
5.66295e-08 2.04009e-08 1.36169e-20
-2.07678e-07 -2.23418e-08 -1.03821e-20
-1.31314e-07 1.73482e-07 -2.5189e-20
-1.69525e-07 7.97126e-08 -5.18468e-20
6.19099e-07 4.44835e-07 1.46033e-20
6.12781e-08 4.02782e-08 -3.41146e-20
-6.02651e-08 1.96694e-07 2.58045e-20
-1.18807e-07 -1.01761e-07 -2.35624e-20
2.95537e-08 -1.54958e-07 3.344e-20
-9.61331e-08 -1.82905e-07 3.86985e-20
-1.54049e-07 -1.05591e-07 -7.78539e-21
1.05581e-07 -1.87245e-07 -2.30999e-20
1.2665e-07 -1.7405e-07 -5.16223e-21
-4.01382e-08 -7.85648e-07 -4.76123e-21
3.23025e-07 -5.1669e-07 1.73302e-20
1.54329e-08 -1.88107e-07 7.5789e-21
1.32655e-07 1.00985e-07 4.92639e-20
-1.19158e-07 -1.44641e-07 2.05527e-20
-1.03342e-07 1.92665e-07 1.29647e-20
-6.34904e-08 1.88836e-07 4.91808e-20
1.38317e-07 1.43225e-07 -1.53884e-20
6.7809e-08 -1.76627e-07 6.44886e-20
-1.75311e-07 -4.99862e-07 -1.71936e-20
3.9517e-09 6.07497e-08 2.91412e-20
1.40029e-07 1.44089e-07 -3.59412e-20
-7.5491e-08 -3.71761e-08 -1.04581e-20
-6.27284e-08 3.42455e-08 -2.09105e-20
5.61292e-07 -2.45892e-07 -1.44877e-20
6.97187e-08 -1.15224e-07 1.8103e-20
-6.61731e-08 -1.13206e-07 -2.59814e-20
2.51207e-08 -2.17159e-09 1.03715e-20
2.17056e-09 -9.52183e-09 7.8929e-20
-7.04312e-09 -6.96925e-09 -1.12074e-19
3.09289e-08 2.02739e-08 -1.58129e-20
-9.69421e-08 -1.83e-07 -2.55065e-20
1.4918e-07 5.98285e-08 -1.26695e-20
-3.62983e-07 -3.99054e-07 5.44391e-20
1.37276e-09 1.1703e-08 -1.24788e-19
1.35383e-09 2.08623e-09 1.65128e-20
2.61121e-09 -3.45473e-10 -3.40308e-21
3.48316e-07 -6.8784e-07 -3.61143e-20
-1.4481e-08 1.70569e-08 -7.5324e-20
-3.32226e-09 2.06639e-08 -3.17538e-20
-1.49997e-07 5.33224e-08 -7.89127e-21
-5.18247e-09 6.09335e-08 6.36142e-20
-3.29542e-08 9.77123e-08 8.11492e-21
6.79343e-08 2.89806e-09 2.48473e-22
1.53204e-08 5.87431e-08 1.04021e-20
-4.01607e-09 8.12293e-08 -2.9373e-20
1.1643e-07 6.33445e-08 -1.553e-20
8.2931e-09 7.49368e-07 -4.315e-20
-1.08325e-07 1.02498e-07 -5.43245e-20
8.12267e-08 -5.46118e-08 -3.66112e-20
4.68956e-08 -4.28154e-08 -6.06108e-20
-7.68597e-07 -1.05531e-07 1.19987e-22
-2.19125e-08 8.68487e-09 -6.2e-20
-5.5966e-07 -6.62027e-07 4.22894e-20
1.01733e-08 2.72386e-08 1.1573e-19
9.81752e-08 1.90916e-08 -1.28191e-20
2.9227e-07 -3.79322e-08 -2.70686e-21
-6.68157e-08 -1.09793e-07 -8.05575e-20
1.27751e-07 3.66426e-08 -1.57245e-20
6.66908e-10 -3.25159e-08 -4.56214e-20
-7.20517e-08 8.33602e-08 -7.52844e-20
-2.75557e-08 -1.75316e-08 -9.93969e-20
-6.49399e-08 1.31934e-07 -1.28279e-20
1.1748e-08 8.32765e-08 -6.59311e-20
1.90957e-08 1.39973e-08 2.82893e-21
1.89512e-08 -1.34466e-08 -1.64936e-20
-5.21043e-07 -1.41942e-07 -2.18278e-21
5.74058e-08 2.14229e-08 -5.74762e-20
-6.91102e-08 1.33759e-06 1.22524e-20
-4.80865e-09 -1.37424e-06 -3.60302e-20
6.76423e-07 1.15795e-06 -1.65905e-20
-7.02128e-08 5.5699e-08 1.72982e-22
-3.58426e-07 7.21328e-07 2.19368e-20
6.80307e-07 -1.11764e-06 -8.61341e-20
-1.12504e-07 -1.82089e-07 2.57973e-20
1.03307e-06 9.05211e-07 -3.85405e-20
1.21494e-08 -2.15484e-08 -8.63913e-20
-1.26591e-08 -2.18347e-08 -1.90215e-20
1.08291e-06 -8.85058e-07 -2.16587e-20
-6.63641e-08 1.30512e-07 2.93052e-21
-6.80243e-07 -4.33227e-07 3.72126e-20
-5.73621e-07 -1.19559e-06 4.56955e-20
-3.21283e-07 -7.39122e-07 3.20399e-20
-5.89697e-07 1.21549e-06 1.98157e-20
-1.39358e-07 8.23699e-07 9.28984e-20
-9.82227e-10 2.88526e-08 -1.83546e-20
-3.57814e-07 4.60676e-07 7.10923e-20
-3.42562e-07 -7.01123e-07 -1.16294e-20
1.33209e-06 2.32454e-07 1.69011e-20
-1.04176e-07 8.85652e-08 1.05463e-20
-2.44889e-09 5.85178e-08 -1.58303e-20
-6.44353e-07 4.66468e-07 3.45067e-20
-1.15532e-07 6.16618e-08 3.14361e-20
1.31896e-06 -2.06757e-07 -2.49428e-21
-8.8179e-08 5.9192e-08 -5.22748e-20
6.42314e-08 -1.32838e-07 -7.89089e-21
-1.02642e-06 -7.79577e-07 3.16617e-20
-3.46103e-07 7.41576e-07 1.24378e-19
-1.05129e-06 7.73851e-07 5.06043e-21
3.07175e-07 6.85276e-07 4.68897e-21
-1.13098e-07 8.99042e-08 1.33755e-20
-3.13892e-08 1.77784e-08 -5.39419e-20
-1.72028e-09 -2.7281e-09 2.80208e-20
4.29224e-10 -2.35781e-09 -1.69309e-20
8.59761e-09 9.02865e-08 -8.08592e-21
-2.5224e-09 2.73253e-09 2.1474e-20
1.32821e-09 3.38565e-09 4.67248e-20
2.2738e-09 -9.74491e-10 3.5643e-20
-1.34579e-09 1.06973e-08 -7.34224e-20
-2.36362e-07 5.1569e-07 8.33868e-20
-1.77822e-08 1.2766e-08 -2.44954e-20
3.06487e-08 -1.93066e-08 -4.79752e-20
3.00417e-08 -1.7402e-08 -8.86986e-20
8.65345e-08 3.37718e-08 8.13527e-20
-8.15949e-10 -9.15558e-09 7.36509e-20
-8.17534e-09 -4.14289e-09 -2.2542e-20
3.00242e-08 1.75142e-08 -5.89274e-20
7.63847e-07 -1.47214e-07 5.74674e-20
-9.89757e-08 -1.26159e-07 -4.12488e-20
-6.68761e-07 4.66242e-07 6.55891e-20
-5.98775e-07 6.82935e-07 7.15859e-20
8.07125e-07 -2.91483e-07 -2.69331e-20
-3.87685e-09 -1.1237e-08 -1.35893e-20
-4.25705e-09 1.15427e-08 -1.84037e-20
-1.26874e-08 2.17539e-09 -4.10546e-20
-8.31639e-09 8.48756e-09 -2.6971e-20
-1.15014e-08 -2.4334e-09 3.52802e-20
2.13365e-09 2.70022e-09 -6.62499e-20
1.23454e-08 -3.03472e-09 4.34735e-20
5.20784e-09 -3.65947e-09 -3.29394e-20
-3.63777e-09 -2.62908e-09 5.03797e-21
7.89296e-09 -8.12036e-09 4.84324e-20
7.93672e-09 8.36211e-09 9.51581e-20
-3.65995e-09 2.31163e-09 2.76544e-20
4.02048e-09 -7.99673e-10 2.52251e-20
6.66514e-09 3.69061e-09 6.30082e-21
1.44283e-08 5.14645e-09 1.1348e-20
SCALARS rr_necrosis float
LOOKUP_TABLE default
0
0
0
0
0
0
0
0
0
0
0
0
0
0
0
0
0
0
0
0
0
0
0
0
0
0
0
0
0
0
0
0
0
0
0
0
0
0
0
0
0
0
0
0
0
0
0
0
0
0
0
0
0
0
0
0
0
0
0
0
0
0
0
0
0
0
0
0
0
0
0
0
0
0
0
0
0
0
0
0
0
0
0
0
0
0
0
0
0
0
0
0
0
0
0
0
0
0
0
0
0
0
0
0
0
0
0
0
0
0
0
0
0
0
0
0
0
0
0
0
0
0
0
0
0
0
0
0
0
0
0
0
0
0
0
0
0
0
0
0
0
0
0
0
0
0
0
0
0
0
0
0
0
0
0
0
0
0
0
0
0
0
0
0
0
0
0
0
0
0
0
0
0
0
0
0
0
0
0
0
0
0
0
0
0
0
0
0
0
0
0
0
0
0
0
0
0
0
0
0
0
0
0
0
0
0
0
0
0
0
0
0
0
0
0
0
0
0
0
0
0
0
0
0
0
0
0
0
0
0
0
0
0
0
0
0
0
0
0
0
0
0
0
0
0
0
0
0
0
0
0
0
0
0
0
0
0
0
0
0
0
0
0
0
0
0
0
0
0
0
0
0
0
0
0
0
0
0
0
0
0
0
0
0
0
0
0
0
0
0
0
0
0
0
0
0
0
0
0
0
0
0
0
0
0
0
0
0
0
0
0
0
0
0
0
0
0
0
0
0
0
0
0
0
0
0
0
0
0
0
0
0
0
0
0
0
0
0
0
0
0
0
0
0
0
0
0
0
0
0
0
0
0
0
0
0
0
0
0
0
0
0
0
0
0
0
0
0
0
0
0
0
0
0
0
0
0
0
0
0
0
0
0
0
0
0
0
0
0
0
0
0
0
0
0
0
0
0
0
0
0
0
0
0
0
0
0
0
0
0
0
0
0
0
0
0
0
0
0
0
0
0
0
0
0
0
0
0
0
0
0
0
0
0
0
0
0
0
0
0
0
0
0
0
0
0
0
0
0
0
0
0
0
0
0
0
0
0
0
0
0
0
0
0
0
0
0
0
0
0
0
0
0
0
0
0
0
0
0
0
0
0
0
0
0
0
0
0
0
0
0
0
0
0
0
0
0
0
0
0
0
0
0
0
0
0
0
0
0
0
0
0
0
0
0
0
0
0
0
0
0
0
0
0
0
0
0
0
0
0
0
0
0
0
0
0
0
0
0
0
0
0
0
0
0
0
0
0
0
0
0
0
0
0
0
0
0
0
0
0
0
0
0
SCALARS rr_protein float
LOOKUP_TABLE default
1
1
1
1
1
1
1
1
1
1
1
1
1
1
1
1
1
1
1
1
1
1
1
1
1
1
1
1
1
1
1
1
1
1
1
1
1
1
1
1
1
1
1
1
1
1
1
1
1
1
1
1
1
1
1
1
1
1
1
1
1
1
1
1
1
1
1
1
1
1
1
1
1
1
1
1
1
1
1
1
1
1
1
1
1
1
1
1
1
1
1
1
1
1
1
1
1
1
1
1
1
1
1
1
1
1
1
1
1
1
1
1
1
1
1
1
1
1
1
1
1
1
1
1
1
1
1
1
1
1
1
1
1
1
1
1
1
1
1
1
1
1
1
1
1
1
1
1
1
1
1
1
1
1
1
1
1
1
1
1
1
1
1
1
1
1
1
1
1
1
1
1
1
1
1
1
1
1
1
1
1
1
1
1
1
1
1
1
1
1
1
1
1
1
1
1
1
1
1
1
1
1
1
1
1
1
1
1
1
1
1
1
1
1
1
1
1
1
1
1
1
1
1
1
1
1
1
1
1
1
1
1
1
1
1
1
1
1
1
1
1
1
1
1
1
1
1
1
1
1
1
1
1
1
1
1
1
1
1
1
1
1
1
1
1
1
1
1
1
1
1
1
1
1
1
1
1
1
1
1
1
1
1
1
1
1
1
1
1
1
1
1
1
1
1
1
1
1
1
1
1
1
1
1
1
1
1
1
1
1
1
1
1
1
1
1
1
1
1
1
1
1
1
1
1
1
1
1
1
1
1
1
1
1
1
1
1
1
1
1
1
1
1
1
1
1
1
1
1
1
1
1
1
1
1
1
1
1
1
1
1
1
1
1
1
1
1
1
1
1
1
1
1
1
1
1
1
1
1
1
1
1
1
1
1
1
1
1
1
1
1
1
1
1
1
1
1
1
1
1
1
1
1
1
1
1
1
1
1
1
1
1
1
1
1
1
1
1
1
1
1
1
1
1
1
1
1
1
1
1
1
1
1
1
1
1
1
1
1
1
1
1
1
1
1
1
1
1
1
1
1
1
1
1
1
1
1
1
1
1
1
1
1
1
1
1
1
1
1
1
1
1
1
1
1
1
1
1
1
1
1
1
1
1
1
1
1
1
1
1
1
1
1
1
1
1
1
1
1
1
1
1
1
1
1
1
1
1
1
1
1
1
1
1
1
1
1
1
1
1
1
1
1
1
1
1
1
1
1
1
1
1
1
1
1
1
1
1
1
1
1
1
1
1
1
1
1
1
1
1
1
1
1
1
1
1
1
1
1
1
1
1
1
SCALARS rr_(S_ext) float
LOOKUP_TABLE default
0.99039
0.990312
0.990323
0.990311
0.99031
0.990323
0.990389
0.99032
0.99033
0.990315
0.990357
0.99032
0.990322
0.990316
0.990307
0.990323
0.990312
0.990317
0.990329
0.990323
0.990328
0.990291
0.990323
0.990323
0.990323
0.990316
0.990364
0.990322
0.990346
0.990298
0.990322
0.990345
0.990367
0.990301
0.990303
0.990301
0.990295
0.990304
0.990323
0.990367
0.990345
0.990295
0.990295
0.990322
0.990353
0.990346
0.990329
0.990329
0.990322
0.990348
0.990347
0.990342
0.990306
0.990344
0.990307
0.990362
0.990303
0.990343
0.990303
0.990322
0.99031
0.990312
0.990367
0.990313
0.990311
0.990316
0.99031
0.990316
0.990323
0.990311
0.990306
0.990306
0.990347
0.990316
0.990324
0.990366
0.990311
0.990317
0.990316
0.990337
0.990354
0.990308
0.99031
0.990353
0.990348
0.990358
0.990322
0.990317
0.990353
0.990294
0.990343
0.990295
0.990309
0.990317
0.990343
0.990345
0.990356
0.990315
0.990312
0.990322
0.990337
0.990348
0.990352
0.990315
0.990316
0.990315
0.990311
0.990323
0.990353
0.990308
0.990322
0.990353
0.990352
0.990316
0.990315
0.990344
0.990305
0.990358
0.990306
0.990343
0.990331
0.990307
0.990311
0.990313
0.990308
0.990306
0.990306
0.990315
0.990356
0.990342
0.990304
0.990311
0.99031
0.990311
0.990349
0.990302
0.99036
0.990322
0.99031
0.990302
0.990347
0.99032
0.990333
0.990315
0.990358
0.990315
0.99032
0.990325
0.990323
0.990337
0.990328
0.990311
0.990344
0.990322
0.990315
0.990311
0.990316
0.990348
0.990347
0.990319
0.990329
0.990344
0.990355
0.990345
0.990346
0.990315
0.990348
0.990349
0.990345
0.990347
0.990308
0.990343
0.990346
0.990316
0.990343
0.990311
0.990309
0.990321
0.990308
0.990318
0.990347
0.990315
0.990315
0.990347
0.990317
0.990347
0.990313
0.990313
0.990311
0.990315
0.990316
0.990356
0.990342
0.990345
0.990311
0.990317
0.990316
0.99031
0.990311
0.990317
0.990311
0.99033
0.990338
0.99031
0.990348
0.99031
0.990318
0.990347
0.990312
0.990311
0.990313
0.990318
0.990316
0.99031
0.990336
0.990318
0.990338
0.990313
0.990308
0.990308
0.990307
0.990308
0.990308
0.990308
0.990316
0.990307
0.990306
0.990306
0.990307
0.990308
0.990307
0.990336
0.990315
0.990308
0.99033
0.990308
0.990307
0.990308
0.990337
0.990308
0.990315
0.990337
0.990311
0.990337
0.990311
0.990307
0.990336
0.990337
0.990355
0.990347
0.99031
0.990359
0.990322
0.990338
0.990329
0.990308
0.990308
0.990297
0.990307
0.990362
0.990337
0.990307
0.99032
0.990338
0.990307
0.990333
0.990297
0.990338
0.990308
0.990314
0.990316
0.990307
0.990318
0.990308
0.99032
0.990356
0.990358
0.99031
0.990326
0.99032
0.990339
0.99031
0.990316
0.990337
0.990317
0.990337
0.99032
0.990338
0.990337
0.990295
0.990308
0.990305
0.990305
0.990316
0.990338
0.990301
0.990314
0.990329
0.990337
0.990339
0.990309
0.990336
0.990311
0.990339
0.990353
0.990337
0.990358
0.990312
0.990336
0.990294
0.990338
0.990313
0.990336
0.990314
0.990338
0.990323
0.990373
0.990321
0.990337
0.990307
0.990336
0.990328
0.990317
0.990311
0.990338
0.990337
0.990333
0.990314
0.990336
0.990321
0.990322
0.990309
0.990338
0.990333
0.990328
0.990333
0.990337
0.990333
0.990313
0.99032
0.990333
0.990336
0.99032
0.990319
0.990336
0.990309
0.99036
0.990325
0.990355
0.990328
0.990357
0.990357
0.990355
0.990355
0.990353
0.990362
0.990362
0.990312
0.990304
0.990318
0.990328
0.990329
0.990333
0.99032
0.990333
0.990333
0.990305
0.990333
0.990313
0.990342
0.990306
0.990323
0.990328
0.990333
0.990311
0.990325
0.990328
0.990324
0.990327
0.990331
0.990338
0.990328
0.990325
0.990312
0.99033
0.990331
0.99033
0.990328
0.990325
0.990319
0.99033
0.99032
0.990323
0.990328
0.99032
0.990323
0.990331
0.990313
0.990328
0.990304
0.990353
0.990313
0.990313
0.990325
0.990329
0.990315
0.990361
0.990322
0.990329
0.990372
0.990298
0.990298
0.990323
0.99033
0.990328
0.99033
0.990295
0.990294
0.990317
0.990321
0.99032
0.990366
0.99033
0.990313
0.99033
0.990331
0.990328
0.990359
0.990314
0.99033
0.990325
0.990324
0.99033
0.990328
0.99033
0.99033
0.990366
0.990358
0.990328
0.990325
0.990328
0.99033
0.990329
0.990328
0.990328
0.990355
0.99031
0.990329
0.990316
0.990314
0.990355
0.990322
0.990322
0.990309
0.990291
0.990291
0.990307
0.990331
0.990324
0.990355
0.990292
0.990291
0.990291
0.99036
0.990303
0.990297
0.990325
0.99031
0.990319
0.990314
0.990311
0.990314
0.990321
0.99036
0.990323
0.990318
0.990313
0.990366
0.990299
0.990377
0.990311
0.990318
0.990337
0.990321
0.990322
0.990304
0.990319
0.990304
0.990323
0.990314
0.990299
0.990301
0.990357
0.990314
0.99039
0.990393
0.990387
0.990316
0.990366
0.990386
0.990331
0.990387
0.990308
0.990308
0.99039
0.990324
0.99037
0.990393
0.990367
0.990393
0.990367
0.990303
0.990358
0.990365
0.990387
0.990322
0.990312
0.990368
0.990322
0.990383
0.990318
0.990325
0.990393
0.990367
0.990391
0.990359
0.990324
0.990305
0.990289
0.99029
0.990316
0.990289
0.990289
0.99029
0.990292
0.990357
0.990299
0.990309
0.990306
0.990317
0.990293
0.990292
0.990307
0.990358
0.990325
0.990367
0.990379
0.990371
0.990292
0.990292
0.990293
0.990293
0.990291
0.990292
0.990297
0.990294
0.990294
0.990295
0.990294
0.990294
0.990292
0.990293
0.990295
SCALARS rr_(P_ext) float
LOOKUP_TABLE default
0.0213952
0.0212945
0.0213034
0.0212963
0.0212691
0.0213036
0.0213955
0.0212976
0.0213118
0.0212949
0.0213886
0.0212975
0.0212996
0.0212936
0.0212784
0.0213019
0.02129
0.0212987
0.0213163
0.0213059
0.0213073
0.0212345
0.0213072
0.0213057
0.0213061
0.021297
0.0213746
0.0213023
0.0213438
0.0212548
0.0213
0.0213436
0.021376
0.0212609
0.0212579
0.021261
0.0212537
0.0212592
0.0213001
0.0213757
0.021344
0.0212533
0.0212534
0.0212999
0.0213663
0.0213424
0.0213142
0.0213102
0.0213032
0.02135
0.0213464
0.0213336
0.0212705
0.0213333
0.0212713
0.0213633
0.0212577
0.0213333
0.0212578
0.0213054
0.0212903
0.021282
0.0213682
0.0212825
0.0212819
0.0212901
0.02129
0.0212969
0.0213066
0.0212942
0.0212707
0.0212708
0.0213441
0.0212869
0.0213031
0.0213803
0.0212766
0.0212901
0.021297
0.0213312
0.0213521
0.021266
0.0212861
0.0213549
0.0213409
0.0213653
0.0213023
0.0212885
0.0213662
0.0212394
0.0213334
0.0212395
0.021276
0.0212912
0.0213325
0.0213473
0.0213519
0.0212951
0.0212768
0.0213005
0.0213221
0.0213385
0.0213551
0.0212977
0.021296
0.0212957
0.0212849
0.0213013
0.0213553
0.021293
0.0213053
0.0213631
0.0213586
0.0212983
0.0212962
0.021333
0.0212578
0.0213524
0.0212581
0.0213326
0.0213185
0.0212796
0.0212946
0.0212882
0.0212923
0.0212776
0.0212613
0.0212951
0.0213519
0.0213325
0.0212707
0.0212952
0.0212866
0.0212948
0.0213384
0.0212576
0.0213575
0.021299
0.021286
0.0212577
0.0213372
0.0212947
0.021317
0.0212948
0.0213528
0.0212966
0.0212962
0.0213032
0.0213035
0.0213251
0.0213104
0.0212946
0.0213438
0.0212995
0.0212949
0.0212951
0.0212921
0.0213363
0.0213359
0.0212996
0.02131
0.021343
0.0213639
0.0213464
0.0213363
0.0212957
0.0213363
0.0213365
0.0213437
0.0213361
0.0212758
0.0213333
0.0213466
0.0212912
0.0213331
0.0212852
0.0212758
0.0212976
0.0212702
0.0212956
0.0213437
0.0212952
0.0212953
0.021337
0.0212883
0.0213472
0.0212883
0.0212848
0.0212754
0.0212951
0.0212881
0.0213509
0.0213331
0.0213436
0.021295
0.021299
0.0212985
0.0212867
0.0212947
0.0212904
0.0212945
0.0213151
0.0213305
0.0212868
0.0213435
0.0212862
0.0212902
0.021339
0.0212808
0.0212943
0.0212799
0.0212931
0.0212963
0.021286
0.0213247
0.0212923
0.0213295
0.0212848
0.0212925
0.0212925
0.0212936
0.0212932
0.0212931
0.0212932
0.0212942
0.0212791
0.0212794
0.0212791
0.021279
0.0212712
0.0212711
0.0213255
0.0212939
0.0212971
0.0213107
0.0212784
0.021278
0.0212968
0.0213303
0.0212975
0.0212951
0.0213244
0.0212806
0.0213248
0.0212857
0.0212978
0.0213241
0.0213291
0.0213523
0.0213516
0.021286
0.0213543
0.0213007
0.0213296
0.0213157
0.0212976
0.0212927
0.0212528
0.021293
0.021355
0.0213295
0.0212972
0.0212976
0.0213308
0.0212928
0.0213165
0.0212529
0.0213294
0.0212923
0.0212888
0.0212985
0.0212786
0.0212887
0.0212706
0.0212997
0.0213616
0.0213653
0.0212734
0.0213071
0.0212976
0.0213248
0.0212804
0.0212913
0.0213295
0.021291
0.0213218
0.0212957
0.0213217
0.02133
0.0212452
0.0212748
0.0212781
0.0212783
0.0212942
0.021321
0.021262
0.0212892
0.0213097
0.0213206
0.0213238
0.0212734
0.0213244
0.021276
0.0213227
0.0213661
0.0213211
0.0213533
0.0212846
0.0213244
0.0212452
0.0213227
0.0212869
0.0213255
0.0212878
0.0213229
0.0213023
0.0213698
0.0213043
0.0213246
0.0212738
0.0213251
0.0213096
0.0212878
0.0212942
0.0213228
0.0213211
0.0213168
0.0212847
0.0213212
0.0212976
0.0213022
0.0212708
0.0213211
0.0213173
0.0213082
0.0213162
0.0213221
0.021316
0.0212817
0.0212978
0.0213169
0.0213248
0.021295
0.0212948
0.0213216
0.0212709
0.0213921
0.0213026
0.0213522
0.0213077
0.0214454
0.0214453
0.0214447
0.0214449
0.0214446
0.0214456
0.0214452
0.0212842
0.0212647
0.0212994
0.0213101
0.0213158
0.0213163
0.0212957
0.0213169
0.0213174
0.0212645
0.0213163
0.0212801
0.0213334
0.0212806
0.0213038
0.0213103
0.0213167
0.0212732
0.0213026
0.0213096
0.0213025
0.0213095
0.0213171
0.0213316
0.0213103
0.0213035
0.0212798
0.0213148
0.021318
0.0213152
0.0213109
0.0213038
0.0212956
0.0213153
0.0212957
0.0213046
0.0213106
0.0212974
0.0213044
0.0213165
0.0212879
0.0213087
0.0212656
0.021366
0.0212843
0.0212817
0.0213037
0.0213084
0.0212903
0.0213909
0.0213037
0.0213088
0.0213693
0.0212458
0.0212455
0.0213026
0.0213159
0.0213076
0.0213148
0.0212305
0.0212305
0.0212973
0.0212972
0.0212977
0.0213912
0.0213174
0.0212865
0.0213107
0.0213115
0.0213107
0.0213927
0.0212884
0.0213164
0.0213029
0.0213029
0.0213116
0.0213097
0.0213116
0.0213108
0.0213751
0.0213531
0.0213098
0.0213027
0.0213086
0.021312
0.0213092
0.021308
0.0213086
0.021366
0.0212783
0.0213154
0.0212906
0.0212879
0.0213666
0.0213033
0.0213042
0.0212708
0.0212464
0.0212465
0.0212748
0.0213176
0.0213032
0.0213676
0.0212484
0.0212328
0.0212328
0.0213939
0.0212592
0.0212548
0.0213042
0.0212765
0.0212995
0.0212943
0.0212876
0.0212851
0.0212976
0.0213911
0.0213017
0.0212914
0.0212866
0.0213809
0.0212581
0.021371
0.021287
0.021294
0.0213233
0.0213001
0.021298
0.0212699
0.0212966
0.02127
0.0213028
0.0212865
0.0212564
0.0212558
0.0213673
0.021293
0.0213971
0.0213953
0.0213993
0.0212885
0.0213923
0.0214014
0.021312
0.0213982
0.0212656
0.0212657
0.0213967
0.021308
0.0213748
0.0213977
0.0213767
0.0213981
0.0213767
0.0212587
0.021371
0.0213919
0.0213969
0.0212984
0.0212829
0.0213783
0.0212982
0.0214007
0.021295
0.0213074
0.0213988
0.0213798
0.0214003
0.0213938
0.0213046
0.021264
0.0212345
0.0212358
0.0212933
0.0212348
0.0212348
0.0212354
0.0212431
0.0213691
0.0212571
0.0212742
0.0212639
0.0212945
0.0212411
0.0212411
0.0212621
0.0213949
0.0213083
0.0213937
0.0213726
0.0213719
0.0212496
0.0212499
0.0212505
0.0212503
0.0212497
0.0212363
0.0212503
0.021241
0.0212343
0.0212494
0.0212493
0.0212339
0.021236
0.0212407
0.0212511
SCALARS rr_(S) float
LOOKUP_TABLE default
0.971985
0.97186
0.971875
0.97186
0.971846
0.971875
0.971984
0.971869
0.971886
0.971864
0.97195
0.971869
0.971872
0.971864
0.971848
0.971874
0.971857
0.971867
0.971887
0.971876
0.971881
0.971812
0.971877
0.971876
0.971876
0.971865
0.971949
0.971873
0.971917
0.971828
0.971873
0.971916
0.971953
0.971833
0.971834
0.971833
0.971825
0.971836
0.971873
0.971953
0.971916
0.971824
0.971824
0.971872
0.971935
0.971917
0.971886
0.971884
0.971874
0.971922
0.971919
0.971908
0.971843
0.97191
0.971844
0.971942
0.971834
0.971909
0.971834
0.971875
0.971856
0.971854
0.97195
0.971856
0.971853
0.971862
0.971856
0.971865
0.971877
0.971859
0.971843
0.971843
0.971918
0.97186
0.971875
0.971954
0.971851
0.971862
0.971865
0.971902
0.971929
0.971843
0.971854
0.971929
0.971918
0.971939
0.971873
0.971862
0.971935
0.971817
0.971909
0.971818
0.971848
0.971864
0.971909
0.971918
0.971931
0.971863
0.971851
0.971873
0.971897
0.971916
0.971929
0.971864
0.971864
0.971864
0.971854
0.971874
0.97193
0.971855
0.971875
0.971933
0.971931
0.971866
0.971864
0.97191
0.971837
0.971932
0.971837
0.971909
0.97189
0.971848
0.971859
0.971858
0.971855
0.971847
0.971838
0.971863
0.971931
0.971908
0.971841
0.97186
0.971854
0.971859
0.971917
0.971833
0.971938
0.971872
0.971854
0.971833
0.971915
0.971868
0.971891
0.971863
0.971933
0.971864
0.971868
0.971877
0.971875
0.971899
0.971883
0.971859
0.971915
0.971872
0.971863
0.971859
0.971863
0.971915
0.971914
0.971869
0.971884
0.971915
0.971936
0.971917
0.971914
0.971864
0.971915
0.971916
0.971916
0.971914
0.971848
0.971909
0.971918
0.971862
0.971909
0.971855
0.971848
0.97187
0.971845
0.971866
0.971918
0.971863
0.971863
0.971914
0.971861
0.971919
0.971858
0.971856
0.97185
0.971863
0.971861
0.97193
0.971908
0.971916
0.971859
0.971867
0.971866
0.971854
0.971859
0.971863
0.971859
0.971887
0.971903
0.971854
0.971918
0.971854
0.971863
0.971915
0.971853
0.971859
0.971854
0.971865
0.971865
0.971854
0.971898
0.971865
0.971902
0.971857
0.971855
0.971855
0.971855
0.971855
0.971855
0.971856
0.971864
0.971848
0.971847
0.971847
0.971848
0.971845
0.971844
0.971898
0.971862
0.971857
0.971886
0.971848
0.971848
0.971858
0.971902
0.971857
0.971863
0.971898
0.971852
0.971899
0.971855
0.971857
0.971897
0.971901
0.971929
0.971922
0.971854
0.971935
0.971872
0.971902
0.971887
0.971857
0.971855
0.971826
0.971855
0.971938
0.971901
0.971857
0.971869
0.971903
0.971855
0.971891
0.971826
0.971902
0.971855
0.971859
0.971866
0.971848
0.971863
0.971845
0.971871
0.971936
0.971939
0.971848
0.97188
0.971869
0.971901
0.971852
0.971863
0.971901
0.971864
0.971897
0.971869
0.971898
0.971901
0.97182
0.971847
0.971846
0.971846
0.971863
0.971898
0.971834
0.97186
0.971883
0.971897
0.9719
0.971847
0.971898
0.97185
0.9719
0.971935
0.971897
0.971934
0.971856
0.971897
0.97182
0.971899
0.971857
0.971899
0.971859
0.971899
0.971875
0.971956
0.971874
0.971899
0.971845
0.971898
0.971883
0.971861
0.971859
0.971899
0.971897
0.971891
0.971858
0.971897
0.97187
0.971874
0.971846
0.971898
0.971891
0.971882
0.971891
0.971898
0.97189
0.971855
0.971869
0.971891
0.971898
0.971868
0.971867
0.971897
0.971846
0.971955
0.971876
0.97193
0.971882
0.971978
0.971978
0.971976
0.971976
0.971974
0.971983
0.971983
0.971856
0.971838
0.971868
0.971883
0.971887
0.971891
0.971869
0.971891
0.971892
0.971839
0.971891
0.971854
0.971908
0.971848
0.971875
0.971883
0.971891
0.971849
0.971876
0.971883
0.971876
0.971882
0.971889
0.971903
0.971883
0.971877
0.971853
0.971887
0.971889
0.971887
0.971883
0.971877
0.971868
0.971887
0.971868
0.971876
0.971883
0.971869
0.971875
0.971889
0.971857
0.971882
0.971839
0.971935
0.971856
0.971855
0.971877
0.971883
0.971861
0.971955
0.971874
0.971883
0.971955
0.971823
0.971824
0.971874
0.971888
0.971882
0.971887
0.971814
0.971813
0.971866
0.97187
0.97187
0.97196
0.971889
0.971857
0.971886
0.971886
0.971884
0.971954
0.971859
0.971888
0.971876
0.971876
0.971886
0.971883
0.971886
0.971886
0.971952
0.971933
0.971883
0.971876
0.971882
0.971886
0.971883
0.971882
0.971882
0.971936
0.97185
0.971887
0.971862
0.971859
0.971937
0.971874
0.971874
0.971846
0.971817
0.971817
0.971846
0.971889
0.971876
0.971938
0.971819
0.971811
0.971811
0.971955
0.971835
0.971827
0.971877
0.97185
0.971869
0.971862
0.971856
0.971858
0.971871
0.971954
0.971874
0.971864
0.971857
0.971955
0.971831
0.97196
0.971855
0.971866
0.971898
0.971871
0.971871
0.971841
0.971868
0.971841
0.971875
0.971859
0.97183
0.971831
0.97194
0.971861
0.971986
0.971988
0.971984
0.971861
0.97196
0.971984
0.971887
0.971984
0.971842
0.971842
0.971985
0.971878
0.971955
0.971989
0.971954
0.97199
0.971954
0.971835
0.971942
0.971959
0.971983
0.971872
0.971854
0.971955
0.971871
0.971981
0.971866
0.971878
0.97199
0.971955
0.971989
0.971954
0.971876
0.971839
0.97181
0.971811
0.971864
0.97181
0.97181
0.971811
0.971817
0.97194
0.97183
0.971847
0.97184
0.971865
0.971816
0.971816
0.97184
0.971954
0.97188
0.971962
0.971963
0.971955
0.971819
0.971819
0.971821
0.971821
0.971819
0.971814
0.971824
0.971817
0.971814
0.971822
0.971822
0.971814
0.971813
0.971816
0.971823
SCALARS rr_(P) float
LOOKUP_TABLE default
0.0244245
0.0243645
0.02437
0.0243656
0.0243493
0.02437
0.0244247
0.0243665
0.024375
0.0243648
0.0244203
0.0243664
0.0243677
0.024364
0.0243548
0.0243691
0.0243618
0.0243671
0.0243776
0.0243714
0.0243723
0.024328
0.0243722
0.0243713
0.0243715
0.024366
0.0244122
0.0243692
0.0243939
0.0243404
0.0243679
0.0243938
0.024413
0.0243441
0.0243424
0.0243442
0.0243397
0.0243432
0.024368
0.0244129
0.0243941
0.0243395
0.0243395
0.0243679
0.0244072
0.0243931
0.0243764
0.024374
0.0243698
0.0243976
0.0243955
0.0243879
0.02435
0.0243878
0.0243505
0.0244056
0.0243423
0.0243878
0.0243423
0.0243711
0.024362
0.0243571
0.0244084
0.0243574
0.024357
0.0243619
0.0243618
0.024366
0.0243718
0.0243643
0.0243501
0.0243502
0.0243941
0.02436
0.0243698
0.0244155
0.0243538
0.024362
0.024366
0.0243865
0.0243989
0.0243474
0.0243594
0.0244005
0.0243922
0.0244066
0.0243693
0.0243609
0.0244071
0.0243309
0.0243879
0.024331
0.0243534
0.0243626
0.0243873
0.024396
0.0243988
0.0243649
0.0243539
0.0243682
0.0243811
0.0243909
0.0244006
0.0243665
0.0243654
0.0243653
0.0243587
0.0243687
0.0244007
0.0243635
0.024371
0.0244053
0.0244027
0.0243668
0.0243656
0.0243876
0.0243423
0.0243991
0.0243425
0.0243874
0.024379
0.0243555
0.0243645
0.0243608
0.0243631
0.0243543
0.0243444
0.0243649
0.0243988
0.0243873
0.0243501
0.0243649
0.0243597
0.0243647
0.0243908
0.0243422
0.0244021
0.0243673
0.0243594
0.0243422
0.0243901
0.0243647
0.0243781
0.0243648
0.0243993
0.0243658
0.0243656
0.0243698
0.02437
0.0243829
0.0243741
0.0243645
0.0243939
0.0243676
0.0243648
0.0243649
0.0243632
0.0243896
0.0243894
0.0243677
0.0243739
0.0243935
0.0244058
0.0243954
0.0243896
0.0243653
0.0243896
0.0243897
0.0243939
0.0243895
0.0243532
0.0243878
0.0243956
0.0243626
0.0243876
0.0243589
0.0243533
0.0243664
0.0243499
0.0243652
0.0243939
0.024365
0.024365
0.02439
0.0243609
0.024396
0.0243608
0.0243587
0.024353
0.0243649
0.0243608
0.0243982
0.0243876
0.0243938
0.0243648
0.0243673
0.0243669
0.0243598
0.0243646
0.0243621
0.0243645
0.0243769
0.0243861
0.0243599
0.0243938
0.0243595
0.024362
0.0243912
0.0243563
0.0243644
0.0243557
0.0243637
0.0243656
0.0243594
0.0243827
0.0243632
0.0243855
0.0243587
0.0243632
0.0243632
0.0243639
0.0243636
0.0243636
0.0243637
0.0243644
0.0243552
0.0243553
0.0243552
0.0243551
0.0243504
0.0243503
0.0243831
0.0243642
0.024366
0.0243743
0.0243548
0.0243545
0.0243658
0.0243859
0.0243662
0.0243649
0.0243825
0.0243561
0.0243827
0.0243592
0.0243664
0.0243823
0.0243852
0.024399
0.0243985
0.0243594
0.0244002
0.0243683
0.0243856
0.0243773
0.0243663
0.0243633
0.0243392
0.0243635
0.0244007
0.0243855
0.024366
0.0243664
0.0243862
0.0243634
0.0243778
0.0243392
0.0243854
0.0243631
0.0243611
0.024367
0.0243549
0.0243611
0.0243501
0.0243677
0.0244045
0.0244067
0.0243518
0.0243722
0.0243664
0.0243827
0.024356
0.0243627
0.0243855
0.0243625
0.0243809
0.0243653
0.0243809
0.0243858
0.0243345
0.0243526
0.0243546
0.0243547
0.0243644
0.0243805
0.0243448
0.0243614
0.0243737
0.0243803
0.0243822
0.0243518
0.0243825
0.0243534
0.0243815
0.0244071
0.0243806
0.0243996
0.0243585
0.0243824
0.0243345
0.0243815
0.0243599
0.0243831
0.0243605
0.0243816
0.0243693
0.0244095
0.0243705
0.0243826
0.024352
0.0243829
0.0243737
0.0243605
0.0243643
0.0243816
0.0243805
0.0243779
0.0243587
0.0243806
0.0243664
0.0243692
0.0243502
0.0243806
0.0243783
0.0243728
0.0243776
0.0243812
0.0243775
0.0243568
0.0243666
0.024378
0.0243827
0.0243649
0.0243648
0.0243808
0.0243503
0.0244224
0.0243695
0.024399
0.0243726
0.0244537
0.0244536
0.0244532
0.0244534
0.0244531
0.0244539
0.0244536
0.0243583
0.0243464
0.0243675
0.0243739
0.0243773
0.0243777
0.0243653
0.024378
0.0243783
0.0243463
0.0243777
0.0243559
0.0243878
0.0243561
0.0243702
0.0243741
0.0243779
0.0243517
0.0243695
0.0243737
0.0243694
0.0243736
0.0243781
0.0243867
0.0243741
0.02437
0.0243557
0.0243767
0.0243787
0.024377
0.0243744
0.0243702
0.0243652
0.0243771
0.0243653
0.0243706
0.0243743
0.0243663
0.0243705
0.0243778
0.0243606
0.0243731
0.024347
0.024407
0.0243584
0.0243568
0.0243701
0.024373
0.024362
0.0244217
0.0243701
0.0243732
0.0244091
0.0243349
0.0243348
0.0243695
0.0243774
0.0243725
0.0243768
0.0243256
0.0243256
0.0243662
0.0243662
0.0243665
0.0244219
0.0243783
0.0243597
0.0243743
0.0243749
0.0243743
0.0244227
0.0243608
0.0243777
0.0243697
0.0243697
0.0243749
0.0243737
0.0243749
0.0243744
0.0244125
0.0243995
0.0243738
0.0243696
0.0243731
0.0243752
0.0243735
0.0243727
0.024373
0.024407
0.0243548
0.0243771
0.0243622
0.0243606
0.0244074
0.0243699
0.0243704
0.0243502
0.0243352
0.0243352
0.0243526
0.0243784
0.0243698
0.024408
0.0243364
0.024327
0.024327
0.0244234
0.0243432
0.0243404
0.0243704
0.0243537
0.0243676
0.0243644
0.0243603
0.0243589
0.0243664
0.0244218
0.024369
0.0243627
0.0243598
0.0244159
0.0243424
0.0244102
0.02436
0.0243643
0.0243819
0.024368
0.0243667
0.0243496
0.0243659
0.0243496
0.0243696
0.0243598
0.0243413
0.024341
0.0244079
0.0243636
0.0244256
0.0244246
0.0244269
0.024361
0.0244226
0.0244281
0.0243751
0.0244263
0.0243471
0.0243472
0.0244254
0.0243727
0.0244124
0.024426
0.0244134
0.0244262
0.0244134
0.0243428
0.02441
0.0244223
0.0244255
0.024367
0.0243576
0.0244144
0.0243668
0.0244277
0.0243649
0.0243723
0.0244266
0.0244152
0.0244275
0.0244234
0.0243706
0.0243461
0.024328
0.0243288
0.0243638
0.0243282
0.0243282
0.0243285
0.0243332
0.0244089
0.0243418
0.0243522
0.024346
0.0243645
0.024332
0.024332
0.024345
0.024424
0.0243729
0.0244234
0.0244112
0.0244106
0.0243371
0.0243373
0.0243377
0.0243376
0.0243372
0.0243291
0.0243376
0.0243319
0.0243279
0.024337
0.0243369
0.0243277
0.0243289
0.0243317
0.024338
SCALARS rr_(T) float
LOOKUP_TABLE default
0.18645
0.186475
0.186473
0.186474
0.186486
0.186473
0.18645
0.186475
0.18647
0.186475
0.186449
0.186475
0.186474
0.186476
0.186481
0.186473
0.186477
0.186474
0.186469
0.186472
0.186472
0.1865
0.186472
0.186472
0.186472
0.186474
0.186454
0.186473
0.186462
0.186491
0.186474
0.186462
0.186454
0.186489
0.18649
0.186489
0.186492
0.18649
0.186474
0.186454
0.186462
0.186492
0.186492
0.186474
0.186455
0.186462
0.18647
0.186471
0.186473
0.18646
0.186461
0.186465
0.186485
0.186465
0.186485
0.186457
0.18649
0.186465
0.18649
0.186472
0.186477
0.18648
0.186456
0.18648
0.18648
0.186477
0.186477
0.186475
0.186472
0.186475
0.186485
0.186485
0.186462
0.186479
0.186473
0.186452
0.186483
0.186477
0.186475
0.186465
0.18646
0.186487
0.186478
0.186459
0.186463
0.186456
0.186473
0.186478
0.186455
0.186498
0.186465
0.186498
0.186483
0.186477
0.186465
0.186461
0.18646
0.186475
0.186482
0.186474
0.186468
0.186463
0.186459
0.186474
0.186475
0.186475
0.186479
0.186473
0.186459
0.186475
0.186472
0.186456
0.186458
0.186474
0.186475
0.186465
0.18649
0.18646
0.18649
0.186465
0.186468
0.186481
0.186475
0.186478
0.186476
0.186482
0.186489
0.186475
0.18646
0.186465
0.186485
0.186475
0.186478
0.186475
0.186463
0.18649
0.186459
0.186474
0.186478
0.18649
0.186464
0.186476
0.186469
0.186475
0.18646
0.186474
0.186475
0.186473
0.186473
0.186467
0.186471
0.186475
0.186462
0.186474
0.186475
0.186475
0.186476
0.186464
0.186464
0.186474
0.186471
0.186462
0.186456
0.186461
0.186464
0.186475
0.186464
0.186464
0.186462
0.186464
0.186483
0.186465
0.186461
0.186477
0.186465
0.186479
0.186483
0.186475
0.186485
0.186475
0.186462
0.186475
0.186475
0.186464
0.186478
0.186461
0.186478
0.186479
0.186483
0.186475
0.186478
0.18646
0.186465
0.186462
0.186475
0.186474
0.186474
0.186478
0.186475
0.186477
0.186475
0.186469
0.186465
0.186478
0.186462
0.186478
0.186478
0.186463
0.186481
0.186475
0.186481
0.186476
0.186475
0.186478
0.186467
0.186477
0.186465
0.186479
0.186476
0.186475
0.186475
0.186475
0.186475
0.186475
0.186476
0.186481
0.186481
0.186481
0.186481
0.186485
0.186485
0.186467
0.186476
0.186474
0.186471
0.186482
0.186482
0.186474
0.186465
0.186473
0.186475
0.186467
0.186481
0.186467
0.186479
0.186473
0.186467
0.186466
0.18646
0.186459
0.186478
0.186459
0.186473
0.186465
0.186469
0.186473
0.186475
0.186492
0.186475
0.186459
0.186465
0.186474
0.186475
0.186465
0.186475
0.186469
0.186492
0.186465
0.186476
0.186478
0.186474
0.186481
0.186478
0.186485
0.186474
0.186457
0.186456
0.186484
0.186472
0.186475
0.186467
0.186481
0.186477
0.186465
0.186477
0.186468
0.186476
0.186468
0.186465
0.186496
0.186483
0.186481
0.186481
0.186476
0.186468
0.186488
0.186477
0.186471
0.186468
0.186467
0.186484
0.186467
0.186483
0.186468
0.186455
0.186468
0.18646
0.186479
0.186467
0.186496
0.186468
0.186479
0.186467
0.186478
0.186467
0.186473
0.186456
0.186472
0.186467
0.186484
0.186467
0.186471
0.186478
0.186475
0.186467
0.186468
0.186469
0.186479
0.186468
0.186475
0.186473
0.186485
0.186468
0.186469
0.186472
0.186469
0.186468
0.186469
0.186481
0.186475
0.186469
0.186467
0.186476
0.186476
0.186468
0.186485
0.186448
0.186473
0.18646
0.186472
0.186432
0.186432
0.186432
0.186432
0.186432
0.186432
0.186432
0.18648
0.186488
0.186474
0.186471
0.186469
0.186469
0.186476
0.186469
0.186469
0.186488
0.186469
0.186481
0.186465
0.18648
0.186473
0.186471
0.186469
0.186484
0.186473
0.186471
0.186473
0.186471
0.186469
0.186465
0.186471
0.186473
0.186481
0.18647
0.186468
0.186469
0.186471
0.186473
0.186476
0.186469
0.186476
0.186472
0.186471
0.186475
0.186472
0.186469
0.186478
0.186471
0.186487
0.186455
0.186479
0.186481
0.186473
0.186471
0.186477
0.186449
0.186473
0.186471
0.186456
0.186496
0.186496
0.186473
0.186469
0.186472
0.18647
0.186502
0.186502
0.186474
0.186475
0.186475
0.186449
0.186469
0.186478
0.186471
0.186471
0.186471
0.186448
0.186478
0.186469
0.186473
0.186473
0.18647
0.186471
0.18647
0.186471
0.186454
0.18646
0.186471
0.186473
0.186471
0.18647
0.186471
0.186472
0.186471
0.186456
0.186482
0.186469
0.186477
0.186478
0.186456
0.186473
0.186472
0.186485
0.186495
0.186495
0.186483
0.186469
0.186473
0.186455
0.186494
0.186501
0.186501
0.186448
0.18649
0.186491
0.186473
0.186483
0.186474
0.186475
0.186478
0.186479
0.186475
0.186448
0.186473
0.186477
0.186478
0.186452
0.18649
0.186456
0.186478
0.186476
0.186467
0.186474
0.186475
0.186485
0.186475
0.186485
0.186473
0.186479
0.186491
0.186491
0.186455
0.186476
0.186449
0.18645
0.186448
0.186478
0.186449
0.186448
0.18647
0.186449
0.186487
0.186487
0.186449
0.186471
0.186454
0.186449
0.186453
0.186449
0.186453
0.18649
0.186454
0.186449
0.186449
0.186475
0.18648
0.186453
0.186475
0.186448
0.186476
0.186472
0.186449
0.186452
0.186448
0.186448
0.186472
0.186488
0.1865
0.1865
0.186476
0.1865
0.1865
0.1865
0.186497
0.186455
0.186491
0.186484
0.186488
0.186476
0.186498
0.186497
0.186489
0.186447
0.186471
0.186448
0.186456
0.186455
0.186493
0.186493
0.186493
0.186493
0.186493
0.1865
0.186493
0.186498
0.186501
0.186494
0.186494
0.186501
0.1865
0.186498
0.186493
SCALARS rr_tsim float
LOOKUP_TABLE default
390
390
390
390
390
390
390
390
390
390
390
390
390
390
390
390
390
390
390
390
390
390
390
390
390
390
390
390
390
390
390
390
390
390
390
390
390
390
390
390
390
390
390
390
390
390
390
390
390
390
390
390
390
390
390
390
390
390
390
390
390
390
390
390
390
390
390
390
390
390
390
390
390
390
390
390
390
390
390
390
390
390
390
390
390
390
390
390
390
390
390
390
390
390
390
390
390
390
390
390
390
390
390
390
390
390
390
390
390
390
390
390
390
390
390
390
390
390
390
390
390
390
390
390
390
390
390
390
390
390
390
390
390
390
390
390
390
390
390
390
390
390
390
390
390
390
390
390
390
390
390
390
390
390
390
390
390
390
390
390
390
390
390
390
390
390
390
390
390
390
390
390
390
390
390
390
390
390
390
390
390
390
390
390
390
390
390
390
390
390
390
390
390
390
390
390
390
390
390
390
390
390
390
390
390
390
390
390
390
390
390
390
390
390
390
390
390
390
390
390
390
390
390
390
390
390
390
390
390
390
390
390
390
390
390
390
390
390
390
390
390
390
390
390
390
390
390
390
390
390
390
390
390
390
390
390
390
390
390
390
390
390
390
390
390
390
390
390
390
390
390
390
390
390
390
390
390
390
390
390
390
390
390
390
390
390
390
390
390
390
390
390
390
390
390
390
390
390
390
390
390
390
390
390
390
390
390
390
390
390
390
390
390
390
390
390
390
390
390
390
390
390
390
390
390
390
390
390
390
390
390
390
390
390
390
390
390
390
390
390
390
390
390
390
390
390
390
390
390
390
390
390
390
390
390
390
390
390
390
390
390
390
390
390
390
390
390
390
390
390
390
390
390
390
390
390
390
390
390
390
390
390
390
390
390
390
390
390
390
390
390
390
390
390
390
390
390
390
390
390
390
390
390
390
390
390
390
390
390
390
390
390
390
390
390
390
390
390
390
390
390
390
390
390
390
390
390
390
390
390
390
390
390
390
390
390
390
390
390
390
390
390
390
390
390
390
390
390
390
390
390
390
390
390
390
390
390
390
390
390
390
390
390
390
390
390
390
390
390
390
390
390
390
390
390
390
390
390
390
390
390
390
390
390
390
390
390
390
390
390
390
390
390
390
390
390
390
390
390
390
390
390
390
390
390
390
390
390
390
390
390
390
390
390
390
390
390
390
390
390
390
390
390
390
390
390
390
390
390
390
390
390
390
390
390
390
390
390
390
390
390
390
390
390
390
390
390
390
390
390
390
390
390
390
390
390
390
390
390
390
390
390
390
SCALARS rr_Vext float
LOOKUP_TABLE default
0.181359
0.449122
0.356048
0.468108
0.250492
0.377827
0.179274
0.465088
0.395106
0.504564
0.165389
0.466508
0.409825
0.435012
0.516134
0.424863
0.369043
0.414183
0.36553
0.360526
0.405108
0.0765106
0.415069
0.383013
0.347105
0.403471
0.15501
0.352834
0.267412
0.339246
0.361968
0.276485
0.17152
0.252901
0.249247
0.253451
0.330126
0.24949
0.361539
0.192836
0.224721
0.29105
0.291059
0.397271
0.216885
0.244119
0.344611
0.350183
0.330079
0.30376
0.312853
0.245236
0.401517
0.315206
0.369414
0.157753
0.266178
0.317516
0.26615
0.393184
0.470928
0.464871
0.153275
0.327641
0.445312
0.417373
0.455654
0.391904
0.357985
0.515555
0.435554
0.43079
0.277654
0.338744
0.353971
0.176426
0.372675
0.413476
0.395168
0.271132
0.24049
0.283506
0.527531
0.24025
0.32776
0.119291
0.407579
0.344608
0.229706
0.0374828
0.273092
0.0407607
0.316357
0.299312
0.258658
0.232982
0.220908
0.442929
0.37291
0.351855
0.293535
0.277769
0.230478
0.418575
0.426137
0.383831
0.340626
0.340847
0.244628
0.512517
0.326025
0.164038
0.220056
0.457877
0.429717
0.304481
0.30863
0.183508
0.320034
0.303365
0.266985
0.502648
0.511809
0.442039
0.484524
0.384951
0.220815
0.478209
0.200078
0.262278
0.227503
0.456393
0.449022
0.448248
0.288936
0.187537
0.190638
0.327439
0.404467
0.187459
0.241541
0.387289
0.287969
0.472756
0.223275
0.385188
0.34973
0.336127
0.214789
0.269545
0.304298
0.440625
0.248026
0.397409
0.461988
0.469241
0.307855
0.249007
0.247656
0.401135
0.333852
0.246116
0.160076
0.239704
0.240466
0.430954
0.252348
0.2551
0.274619
0.245938
0.386343
0.258183
0.226058
0.297713
0.272811
0.340305
0.382117
0.361132
0.313976
0.360844
0.266566
0.418245
0.44885
0.241614
0.442299
0.239439
0.436793
0.402736
0.378964
0.379413
0.446226
0.200774
0.266927
0.246016
0.447408
0.439019
0.407198
0.447893
0.45295
0.381864
0.466568
0.307715
0.274109
0.512729
0.285547
0.465952
0.36996
0.226654
0.286341
0.461723
0.389033
0.350307
0.450054
0.445254
0.278858
0.28422
0.267542
0.395451
0.433417
0.49809
0.478087
0.520369
0.471556
0.515285
0.432054
0.4572
0.460649
0.434353
0.456355
0.422917
0.416634
0.28241
0.389409
0.454293
0.312119
0.470271
0.432154
0.492658
0.288245
0.468275
0.448676
0.284499
0.406912
0.282468
0.455236
0.411288
0.296254
0.277677
0.235552
0.271096
0.455771
0.1975
0.347019
0.276527
0.313902
0.468669
0.455546
0.147788
0.457103
0.23643
0.261764
0.466268
0.379026
0.264584
0.52218
0.29123
0.147779
0.267723
0.406397
0.50892
0.382688
0.457753
0.425154
0.226614
0.21673
0.175978
0.201427
0.308133
0.229074
0.37198
0.227524
0.406391
0.287621
0.268101
0.323952
0.293521
0.39852
0.281485
0.287595
0.13637
0.30357
0.437809
0.438056
0.391523
0.281115
0.192358
0.545876
0.360487
0.298316
0.27429
0.284975
0.282728
0.358841
0.27809
0.192059
0.274791
0.183495
0.351066
0.279575
0.127091
0.263721
0.321336
0.279314
0.443668
0.290709
0.381466
0.138314
0.305661
0.287013
0.261623
0.269317
0.32199
0.308721
0.321044
0.266563
0.271162
0.293858
0.4036
0.276094
0.399021
0.358786
0.290795
0.286473
0.290121
0.323371
0.289911
0.270116
0.308528
0.333028
0.387864
0.290168
0.286352
0.425141
0.419246
0.276211
0.290834
0.117368
0.342062
0.227677
0.319679
0.126304
0.131123
0.117233
0.119129
0.126411
0.133076
0.137186
0.365817
0.275202
0.269662
0.305533
0.296206
0.292406
0.314708
0.285992
0.292386
0.310822
0.291313
0.368786
0.261062
0.378831
0.289102
0.277577
0.291595
0.322764
0.328992
0.304694
0.351047
0.326029
0.300388
0.213974
0.303858
0.29886
0.328279
0.305307
0.288517
0.275034
0.304062
0.31909
0.436159
0.283304
0.423999
0.438657
0.298863
0.422861
0.322473
0.255676
0.356791
0.307316
0.229503
0.18527
0.353347
0.377137
0.31343
0.259541
0.317011
0.138204
0.309862
0.289511
0.140568
0.0597484
0.0653752
0.26865
0.283292
0.331355
0.316584
0.0311308
0.0325286
0.318178
0.32154
0.30424
0.103723
0.264725
0.315901
0.31564
0.272074
0.24028
0.107863
0.464464
0.284944
0.352158
0.357669
0.255161
0.323443
0.249474
0.275478
0.129739
0.19938
0.323803
0.327748
0.280323
0.293561
0.303656
0.320503
0.306407
0.14396
0.275777
0.301351
0.290882
0.437485
0.143857
0.23373
0.24057
0.234521
0.155624
0.155628
0.267697
0.208506
0.301871
0.153855
0.185525
0.0614166
0.0614141
0.112309
0.199632
0.134971
0.256998
0.284536
0.297804
0.336998
0.307415
0.28523
0.222214
0.127171
0.278048
0.290578
0.282436
0.144129
0.147644
0.104628
0.281945
0.285969
0.224179
0.258248
0.238711
0.223789
0.292909
0.223756
0.257202
0.251385
0.158046
0.19524
0.165307
0.310643
0.112706
0.118918
0.115939
0.294531
0.10769
0.104732
0.200915
0.0979317
0.243153
0.243507
0.100659
0.255443
0.113722
0.110988
0.127154
0.105858
0.105723
0.174204
0.12624
0.112774
0.106277
0.235808
0.272657
0.118743
0.260314
0.0960764
0.264786
0.20817
0.100551
0.0864347
0.0948693
0.12646
0.22555
0.192178
0.0824423
0.091407
0.253854
0.0775857
0.0775825
0.0878715
0.0979617
0.0995845
0.127333
0.207531
0.193793
0.253766
0.0775241
0.0775208
0.229251
0.0843463
0.178712
0.0765187
0.0783411
0.103271
0.198595
0.205595
0.218906
0.200659
0.198579
0.0438923
0.32038
0.0557535
0.0543417
0.259007
0.257237
0.0563344
0.0390571
0.0548043
0.238559
SCALARS rr_Vli float
LOOKUP_TABLE default
0.396486
0.903296
0.721402
0.942901
0.493002
0.765663
0.392034
0.937668
0.806265
1.01511
0.359835
0.940541
0.8277
0.874152
1.02412
0.859727
0.739393
0.835913
0.748795
0.732052
0.823478
0.146196
0.843736
0.777624
0.704886
0.813138
0.333348
0.714255
0.560607
0.6598
0.731223
0.579527
0.369271
0.494391
0.485904
0.495506
0.641456
0.486895
0.73048
0.415064
0.471209
0.565329
0.565389
0.802512
0.463322
0.511146
0.70466
0.71357
0.668679
0.640141
0.657313
0.509708
0.79128
0.654952
0.728498
0.336093
0.518807
0.659755
0.51879
0.798044
0.943862
0.925028
0.327839
0.652216
0.886008
0.836193
0.912998
0.789772
0.727288
1.0367
0.858505
0.84915
0.582209
0.67685
0.716967
0.381182
0.738158
0.828437
0.79642
0.562479
0.507622
0.556447
1.0535
0.508331
0.685383
0.254579
0.825073
0.689485
0.49066
0.0719434
0.567527
0.0782461
0.626349
0.600258
0.537107
0.489901
0.466216
0.891212
0.738706
0.711147
0.604216
0.579672
0.487749
0.844108
0.858079
0.772712
0.679545
0.689378
0.517758
1.02965
0.661676
0.349478
0.467058
0.923819
0.865434
0.63249
0.601612
0.38741
0.624
0.62999
0.547958
0.99831
1.02947
0.884276
0.972854
0.763251
0.431749
0.962234
0.422252
0.544645
0.448452
0.918478
0.897108
0.901821
0.602898
0.365537
0.404181
0.66093
0.80773
0.365414
0.503537
0.778932
0.59024
0.951058
0.47153
0.776063
0.704321
0.680953
0.435246
0.556267
0.620245
0.886305
0.519981
0.802495
0.92944
0.94426
0.617852
0.518656
0.515712
0.810195
0.680204
0.515658
0.341238
0.503637
0.500927
0.867512
0.525644
0.531442
0.575695
0.512235
0.764766
0.536472
0.475014
0.597024
0.566757
0.679099
0.75645
0.728157
0.61851
0.726371
0.558759
0.841634
0.903302
0.503621
0.884781
0.503407
0.873805
0.803282
0.749914
0.763387
0.89254
0.423343
0.554569
0.51569
0.900208
0.886298
0.821709
0.894902
0.911194
0.765269
0.938414
0.629673
0.568291
1.02453
0.59847
0.93055
0.741276
0.473239
0.569197
0.928572
0.772726
0.703604
0.906433
0.889136
0.575328
0.57047
0.554199
0.788781
0.870375
1.00028
0.961013
1.04558
0.94745
1.03539
0.86871
0.907695
0.914768
0.862343
0.90593
0.833929
0.821515
0.583003
0.782793
0.915905
0.636237
0.93312
0.857208
0.993022
0.597475
0.944367
0.902753
0.586735
0.8088
0.582773
0.908854
0.829724
0.610879
0.57498
0.497305
0.572061
0.9101
0.417613
0.70148
0.572845
0.642711
0.945255
0.914965
0.286927
0.918292
0.500196
0.542258
0.940099
0.764199
0.548648
1.04887
0.596675
0.286927
0.554499
0.815976
1.01856
0.772232
0.908465
0.850822
0.4466
0.437752
0.374434
0.429883
0.608683
0.465559
0.749991
0.469384
0.807668
0.576816
0.555339
0.649546
0.603994
0.802276
0.579178
0.596019
0.263019
0.600442
0.868509
0.869128
0.787207
0.578062
0.376387
1.09285
0.734299
0.613257
0.565365
0.562957
0.583122
0.710459
0.572676
0.410196
0.565166
0.387691
0.700125
0.576598
0.245149
0.543076
0.642112
0.576619
0.887239
0.598797
0.772172
0.296222
0.619802
0.592061
0.51704
0.555816
0.655878
0.617313
0.645548
0.549009
0.557646
0.602196
0.804985
0.56787
0.804505
0.726241
0.573154
0.589127
0.594775
0.657842
0.593794
0.555993
0.631806
0.662546
0.782179
0.59465
0.590809
0.855286
0.843306
0.568299
0.573277
0.256088
0.6926
0.480627
0.650102
0.287606
0.29855
0.266803
0.271172
0.287682
0.303056
0.312311
0.729342
0.539723
0.544564
0.622603
0.606499
0.598932
0.633518
0.58613
0.599483
0.609469
0.596711
0.732657
0.542544
0.753106
0.586003
0.565698
0.597464
0.637466
0.666111
0.620591
0.710715
0.663996
0.615741
0.444039
0.619296
0.605571
0.652003
0.624635
0.591867
0.562871
0.620017
0.64672
0.877916
0.579856
0.853547
0.889737
0.609276
0.852427
0.653928
0.523839
0.713542
0.625424
0.450401
0.395665
0.704467
0.750312
0.6352
0.528048
0.635251
0.301236
0.62802
0.589264
0.300912
0.115298
0.126126
0.544003
0.580096
0.673735
0.647661
0.0592774
0.0619388
0.641395
0.648086
0.613481
0.226113
0.542803
0.631011
0.643416
0.555013
0.489877
0.235469
0.929282
0.583732
0.713231
0.724382
0.520581
0.658847
0.508989
0.561646
0.279101
0.421176
0.659631
0.663707
0.570432
0.599123
0.618255
0.651892
0.623522
0.307427
0.547096
0.616831
0.583014
0.8749
0.307367
0.473533
0.487753
0.46224
0.300515
0.300535
0.529553
0.427592
0.611535
0.329005
0.358876
0.117176
0.117176
0.245398
0.389619
0.262494
0.52105
0.563539
0.60141
0.677645
0.614656
0.569069
0.448035
0.27725
0.562545
0.582799
0.564246
0.311556
0.287924
0.224284
0.563451
0.574849
0.461941
0.521746
0.481453
0.440836
0.590093
0.440798
0.520821
0.502146
0.307811
0.380027
0.353393
0.623981
0.246785
0.259979
0.254333
0.589282
0.234981
0.230138
0.410009
0.214644
0.47712
0.477842
0.220334
0.51961
0.244574
0.243122
0.273901
0.231958
0.227739
0.339829
0.270697
0.245996
0.232677
0.475748
0.543001
0.256116
0.525107
0.211011
0.532688
0.423218
0.220454
0.186663
0.208255
0.276319
0.457466
0.376607
0.157552
0.174883
0.509985
0.148307
0.148306
0.168048
0.188628
0.213205
0.248113
0.410273
0.37976
0.51034
0.149004
0.149003
0.448511
0.184461
0.363609
0.167149
0.16815
0.221553
0.384549
0.398195
0.424213
0.388778
0.384539
0.0840102
0.620731
0.107163
0.103829
0.501444
0.497965
0.107596
0.0747328
0.105301
0.462542
SCALARS rr_S_ext' float
LOOKUP_TABLE default
-0.000246961
-0.000564121
-0.000450427
-0.000588828
-0.000308088
-0.00047806
-0.000244185
-0.000585547
-0.000503304
-0.000633948
-0.000224164
-0.000587341
-0.000516848
-0.000545937
-0.000639838
-0.000536815
-0.000461816
-0.000521986
-0.000467373
-0.000457046
-0.000514111
-9.14394e-05
-0.000526756
-0.0004855
-0.000440084
-0.000507786
-0.000207745
-0.000445976
-0.00034966
-0.000412466
-0.000456601
-0.000361462
-0.000230124
-0.000309017
-0.000303737
-0.000309712
-0.000401009
-0.000304347
-0.000456134
-0.000258663
-0.000293898
-0.000353422
-0.000353458
-0.000501117
-0.000288806
-0.000318823
-0.00043985
-0.00044546
-0.00041751
-0.000399199
-0.000409948
-0.000317999
-0.000494468
-0.00040862
-0.000455227
-0.000209519
-0.000324307
-0.000411615
-0.000324295
-0.000498253
-0.000589518
-0.000577881
-0.000204348
-0.000407447
-0.000553507
-0.000522278
-0.000570245
-0.000493196
-0.000454064
-0.00064744
-0.000536474
-0.000530628
-0.00036313
-0.000422788
-0.000447662
-0.000237518
-0.000461204
-0.000517433
-0.000497345
-0.000350942
-0.000316544
-0.000347765
-0.00065807
-0.000316961
-0.000427519
-0.000158694
-0.000515171
-0.000430664
-0.000305848
-4.49918e-05
-0.000354074
-4.89331e-05
-0.00039135
-0.000374904
-0.000335104
-0.000305529
-0.000290725
-0.000556569
-0.000461545
-0.000444058
-0.000377076
-0.000361604
-0.000304125
-0.000527116
-0.000535865
-0.000482557
-0.00042449
-0.000430455
-0.000322836
-0.000643048
-0.000413114
-0.000217862
-0.000291197
-0.000576884
-0.000540455
-0.000394609
-0.000376067
-0.000241581
-0.000390059
-0.000393053
-0.000341997
-0.000623695
-0.000642918
-0.000552334
-0.000607591
-0.000476867
-0.000269862
-0.000600922
-0.00026331
-0.000339806
-0.000280234
-0.000573592
-0.00056037
-0.000563194
-0.000376094
-0.000228497
-0.000252004
-0.000412718
-0.000504548
-0.00022842
-0.00031412
-0.000486457
-0.000368402
-0.000593946
-0.000294033
-0.000484638
-0.000439843
-0.000425174
-0.000271756
-0.000347124
-0.000387196
-0.000553508
-0.00032432
-0.000501111
-0.000580445
-0.000589694
-0.000385884
-0.000323561
-0.000321727
-0.000505915
-0.000424632
-0.00032163
-0.000212722
-0.000314104
-0.000312499
-0.000541761
-0.00032792
-0.000331536
-0.00035907
-0.000319556
-0.000477837
-0.000334701
-0.000296251
-0.000372885
-0.000353597
-0.000424208
-0.00047264
-0.000454712
-0.00038651
-0.000453619
-0.000348508
-0.000525605
-0.000564116
-0.000314174
-0.000552651
-0.000313954
-0.000545794
-0.000501789
-0.000468562
-0.000476742
-0.000557499
-0.000263998
-0.000345992
-0.000321645
-0.000562186
-0.000553444
-0.000513118
-0.000558991
-0.00056905
-0.000477976
-0.000586052
-0.000393034
-0.000354576
-0.000639963
-0.000373279
-0.000581266
-0.000462993
-0.000295205
-0.000355599
-0.000579907
-0.000482762
-0.000439431
-0.000566058
-0.000555398
-0.000359021
-0.000356291
-0.000345793
-0.00049273
-0.000543586
-0.000624717
-0.000600175
-0.000652998
-0.000591713
-0.00064663
-0.000542528
-0.00056709
-0.000571504
-0.000538755
-0.000565989
-0.000521111
-0.000513354
-0.000363804
-0.000488874
-0.000571952
-0.000397179
-0.000582984
-0.000535562
-0.000620113
-0.000372787
-0.00058972
-0.000563777
-0.000366144
-0.000505288
-0.000363668
-0.000567719
-0.000518124
-0.000381213
-0.000358763
-0.000310108
-0.000356728
-0.000568495
-0.000260402
-0.000438019
-0.000357426
-0.000401165
-0.000590273
-0.000571431
-0.000179378
-0.000573505
-0.000311891
-0.000338341
-0.000587059
-0.00047722
-0.000342318
-0.000655061
-0.000372423
-0.000179378
-0.000345982
-0.000509613
-0.0006362
-0.000482223
-0.000567577
-0.000531433
-0.000279079
-0.000273348
-0.00023343
-0.000267971
-0.000380338
-0.000290657
-0.000468347
-0.00029291
-0.000504582
-0.000360263
-0.000346505
-0.00040569
-0.000376941
-0.000501021
-0.000361455
-0.000371881
-0.000164463
-0.000375173
-0.000542621
-0.000543005
-0.000491628
-0.000360765
-0.000235252
-0.000682597
-0.000458405
-0.000382734
-0.000352816
-0.000351766
-0.000363889
-0.000443903
-0.000357388
-0.000255692
-0.000352715
-0.00024175
-0.000437351
-0.000359818
-0.000153289
-0.000338916
-0.000401088
-0.00035982
-0.00055419
-0.000373686
-0.000482141
-0.000184633
-0.00038698
-0.000369465
-0.000323069
-0.000346842
-0.000409449
-0.000385591
-0.000403157
-0.000342617
-0.000348023
-0.000375867
-0.000502853
-0.000354402
-0.00050239
-0.000453462
-0.000358161
-0.00036767
-0.00037123
-0.000410691
-0.000370629
-0.000346982
-0.000394357
-0.000413906
-0.000488444
-0.000371157
-0.000368682
-0.000534137
-0.000526658
-0.000354666
-0.000358237
-0.000159518
-0.000432453
-0.000299709
-0.000405864
-0.00017889
-0.000185698
-0.000165954
-0.00016867
-0.00017894
-0.0001885
-0.000194258
-0.000455606
-0.000337319
-0.000340047
-0.000388671
-0.000378562
-0.000373835
-0.000395633
-0.000365838
-0.000374167
-0.000380912
-0.000372449
-0.000457726
-0.000338487
-0.00047049
-0.000365882
-0.000353146
-0.000372915
-0.000398325
-0.000415914
-0.000387421
-0.000443765
-0.000414519
-0.000384318
-0.000277043
-0.000386605
-0.000378104
-0.000407341
-0.000389892
-0.000369408
-0.000351336
-0.000387049
-0.000403794
-0.00054826
-0.000361937
-0.00053304
-0.000555513
-0.000380347
-0.000532319
-0.000408287
-0.000326962
-0.000445694
-0.000390448
-0.000281489
-0.000246635
-0.000440068
-0.000468736
-0.000396602
-0.00032966
-0.000396769
-0.000187648
-0.000392117
-0.000367873
-0.000187559
-7.20938e-05
-7.88648e-05
-0.000339669
-0.000362081
-0.00042062
-0.000404265
-3.70793e-05
-3.87441e-05
-0.000400534
-0.000404715
-0.000383099
-0.000140851
-0.00033879
-0.000394158
-0.00040166
-0.000346466
-0.00030581
-0.000146672
-0.000580443
-0.000364346
-0.000445331
-0.000452294
-0.000324971
-0.000411302
-0.000317734
-0.000350613
-0.000173936
-0.000262631
-0.00041179
-0.000414411
-0.000356118
-0.000373996
-0.000385967
-0.000406979
-0.000389262
-0.000191633
-0.000341811
-0.000385014
-0.00036414
-0.000546483
-0.000191593
-0.000295663
-0.000304535
-0.000288851
-0.000187902
-0.000187914
-0.000330878
-0.00026688
-0.000381831
-0.000205075
-0.000224382
-7.32921e-05
-7.32917e-05
-0.000152852
-0.000243542
-0.000164095
-0.000325326
-0.000352102
-0.000375544
-0.000423202
-0.00038393
-0.000355479
-0.000279785
-0.000172705
-0.000351256
-0.000363999
-0.000352452
-0.000194131
-0.000179978
-0.000139791
-0.000351952
-0.000359008
-0.000288276
-0.000325795
-0.00030065
-0.00027548
-0.000368505
-0.000275456
-0.000325195
-0.000313664
-0.000192416
-0.000237564
-0.000220279
-0.000389701
-0.000153708
-0.000161935
-0.000158399
-0.000368075
-0.000146371
-0.000143322
-0.000255944
-0.000133685
-0.00029819
-0.00029864
-0.000137234
-0.000324393
-0.00015242
-0.000151425
-0.000170688
-0.00014447
-0.000141921
-0.000212422
-0.000168715
-0.000153234
-0.000144921
-0.000297085
-0.000339214
-0.000159598
-0.000327909
-0.000131413
-0.00033267
-0.00026422
-0.000137302
-0.000116313
-0.000129699
-0.000172112
-0.000285622
-0.00023538
-9.85415e-05
-0.000109378
-0.000318505
-9.27588e-05
-9.27578e-05
-0.000105105
-0.000117953
-0.00013289
-0.000155097
-0.000256354
-0.000237351
-0.000318716
-9.31801e-05
-9.31793e-05
-0.000280334
-0.000114893
-0.000227
-0.000104114
-0.0001048
-0.000138085
-0.000240426
-0.000248956
-0.000265219
-0.000243066
-0.00024042
-5.25423e-05
-0.000388085
-6.70147e-05
-6.49406e-05
-0.000313513
-0.000311339
-6.72978e-05
-4.67404e-05
-6.58507e-05
-0.000289178
SCALARS rr_P_ext' float
LOOKUP_TABLE default
0.000183375
0.000423514
0.000337841
0.000441979
0.000231924
0.00035856
0.000181308
0.000439465
0.000377159
0.000475919
0.00016656
0.00044081
0.000387818
0.000409907
0.000481175
0.000402703
0.000346876
0.00039171
0.00035006
0.000342712
0.000385448
6.90821e-05
0.000394928
0.000364054
0.000329988
0.000381122
0.000154604
0.000334541
0.000261104
0.000310951
0.000342602
0.000269923
0.000171232
0.000232817
0.000228916
0.000233339
0.000302349
0.000229346
0.000342244
0.000192474
0.000219459
0.000266481
0.000266506
0.000376005
0.000215123
0.000238115
0.000329522
0.000333873
0.000313159
0.000297892
0.000306035
0.000237733
0.000372167
0.00030549
0.000342604
0.000156121
0.000244424
0.000307729
0.000244414
0.00037363
0.000442775
0.000434427
0.000152187
0.000306286
0.000416109
0.000392292
0.000428314
0.000370174
0.000340453
0.000486079
0.000403775
0.000399373
0.000271155
0.00031767
0.000335782
0.00017665
0.000346913
0.000388649
0.000373285
0.000262424
0.000236162
0.00026188
0.000494487
0.000236398
0.00031935
0.000118223
0.000386447
0.000323533
0.00022782
3.39729e-05
0.000264706
3.69483e-05
0.000294385
0.000281561
0.00025055
0.00022806
0.000216904
0.000417822
0.000347165
0.000333169
0.000282252
0.000270186
0.000226819
0.000395599
0.00040224
0.000362236
0.000319012
0.000322935
0.000240769
0.000482838
0.000309789
0.000162338
0.000217092
0.000432923
0.000405677
0.000295026
0.000283432
0.000180231
0.000293968
0.000293874
0.000256092
0.000468979
0.000482665
0.000414946
0.000456247
0.000358649
0.000203312
0.000451116
0.00019645
0.000254064
0.000210915
0.000430591
0.00042105
0.000422802
0.000281018
0.000172214
0.0001879
0.000309707
0.000379128
0.000172154
0.00023474
0.000365207
0.000275911
0.000445892
0.000219352
0.000363762
0.000330157
0.000318905
0.000203827
0.000259745
0.000290194
0.000415541
0.000242181
0.000376018
0.000435753
0.000442684
0.00028978
0.000241822
0.000240459
0.000379613
0.000318268
0.000240192
0.000158495
0.000234484
0.000233551
0.000406682
0.000245077
0.000247776
0.000268132
0.00023883
0.000359452
0.000250227
0.000221154
0.000280046
0.000264361
0.000318788
0.000355539
0.000341266
0.000290926
0.000340517
0.000260249
0.000394572
0.000423477
0.000234784
0.000415185
0.000234353
0.000410031
0.000377113
0.000352489
0.000357897
0.000418833
0.000196987
0.000258673
0.000240188
0.00042204
0.000415301
0.000385061
0.000420011
0.000427203
0.000359002
0.000439978
0.000294421
0.000265164
0.000480846
0.00027875
0.000436774
0.000347757
0.000220559
0.000267358
0.00043537
0.000363002
0.000329958
0.000424893
0.000417341
0.000268658
0.000267554
0.000258624
0.000370303
0.000408177
0.000469096
0.000450614
0.000490299
0.000444287
0.000485517
0.000407318
0.000426436
0.000429743
0.000405129
0.000425614
0.000392193
0.000386356
0.000272216
0.000367046
0.000429263
0.000297673
0.000438419
0.000402773
0.000465423
0.00027879
0.000442582
0.000423234
0.000274002
0.000379907
0.000272135
0.000426612
0.000388833
0.000285284
0.000268338
0.000231353
0.000266152
0.000427184
0.000194231
0.000328632
0.000267323
0.00030049
0.000442992
0.000429077
0.000135259
0.000430622
0.000232619
0.000253049
0.000440598
0.000358161
0.00025599
0.000491869
0.000278938
0.000135258
0.00025877
0.000382675
0.000477922
0.000361877
0.000426822
0.000399225
0.000210052
0.000205106
0.000173968
0.00019963
0.000286182
0.000217922
0.000351502
0.000219188
0.000379382
0.000270565
0.000259158
0.00030469
0.000282163
0.000376096
0.000270573
0.000278119
0.000124112
0.000282251
0.000408076
0.000408358
0.000369104
0.000270079
0.000177222
0.000512757
0.000343592
0.000286536
0.000264046
0.000264682
0.000272312
0.000333917
0.0002675
0.000190463
0.000264045
0.000180337
0.000328691
0.000269267
0.000115678
0.000253674
0.000301362
0.000269234
0.000416358
0.000279691
0.000361672
0.000137481
0.000290225
0.000276479
0.000243077
0.000259533
0.000306898
0.000289694
0.000302679
0.000256439
0.000260536
0.000281508
0.000377914
0.000265307
0.000377051
0.00034016
0.00026957
0.000275245
0.000278022
0.000307879
0.000277604
0.000259727
0.000295384
0.000311165
0.000366575
0.00027798
0.000275885
0.000400989
0.000395382
0.000265493
0.000269624
0.00011848
0.000324388
0.000223599
0.000304274
0.000132074
0.000137102
0.000122533
0.000124535
0.000132123
0.000139167
0.000143426
0.000342423
0.000254039
0.000255159
0.000291309
0.000283558
0.000280004
0.000296988
0.000273994
0.000280217
0.000286876
0.000278965
0.000344168
0.000253052
0.000353737
0.000274414
0.000264679
0.000279304
0.000299723
0.000311983
0.00029039
0.000332878
0.000310704
0.000287828
0.000207156
0.000289754
0.000283594
0.000306294
0.000292074
0.000276634
0.000263181
0.000290068
0.000302853
0.000411565
0.000271118
0.000400133
0.000416604
0.000285054
0.000399522
0.000306202
0.000244887
0.000334844
0.000292689
0.000211975
0.000183719
0.000330745
0.000352384
0.000297461
0.00024713
0.000298012
0.000139392
0.000294095
0.000275762
0.000139668
5.4402e-05
5.95131e-05
0.000254787
0.000271211
0.000315344
0.000302844
2.8025e-05
2.92832e-05
0.000300614
0.000303757
0.000287518
0.000104628
0.000253721
0.00029617
0.000301031
0.000259641
0.00022919
0.000108931
0.000436054
0.000272892
0.000334037
0.00033926
0.000243528
0.000308286
0.000238104
0.000262767
0.000129437
0.000195919
0.000308649
0.000310849
0.000266959
0.000280255
0.000289314
0.000305103
0.000291803
0.000142749
0.000257057
0.000288403
0.000273497
0.000410566
0.000142709
0.000221764
0.000228397
0.000217404
0.00014178
0.000141788
0.000248923
0.000199863
0.000286397
0.000152734
0.000169269
5.53819e-05
5.53814e-05
0.000113507
0.000183523
0.000123709
0.00024399
0.00026485
0.000281794
0.000317728
0.00028845
0.000267146
0.000209983
0.000128289
0.000263507
0.000273368
0.000264827
0.000144371
0.000135638
0.000104077
0.00026444
0.000269543
0.000215754
0.000244451
0.000225633
0.000207355
0.000276596
0.000207335
0.00024393
0.000235686
0.000145035
0.000179078
0.000164063
0.000292615
0.000114108
0.000120241
0.000117561
0.000276514
0.000108714
0.000106346
0.000191795
9.92301e-05
0.000224556
0.000224893
0.000101883
0.000243188
0.00011343
0.000112407
0.000126997
0.000107239
0.000105594
0.000160082
0.000125607
0.000113817
0.000107587
0.000222948
0.00025498
0.000118725
0.000246085
9.75162e-05
0.000249744
0.000198092
0.000101911
8.65113e-05
9.62508e-05
0.000127809
0.000214202
0.000177284
7.44466e-05
8.26219e-05
0.000239152
7.00757e-05
7.00747e-05
7.93981e-05
8.90308e-05
9.89564e-05
0.000116898
0.000192873
0.00017877
0.000239279
7.03477e-05
7.03468e-05
0.000211186
8.53081e-05
0.000170171
7.73171e-05
7.80121e-05
0.000102796
0.000181351
0.00018778
0.000200033
0.000183329
0.000181345
3.96876e-05
0.000292707
5.05936e-05
4.90628e-05
0.000236484
0.000234847
5.08459e-05
3.53064e-05
4.9717e-05
0.000218089
SCALARS rr_S' float
LOOKUP_TABLE default
2.87868e-05
6.70876e-05
5.34772e-05
7.00016e-05
3.68178e-05
5.67556e-05
2.84613e-05
6.95984e-05
5.96571e-05
7.53868e-05
2.61603e-05
6.98113e-05
6.14082e-05
6.49386e-05
7.6324e-05
6.37526e-05
5.49689e-05
6.20282e-05
5.53482e-05
5.42361e-05
6.09927e-05
1.09973e-05
6.24922e-05
5.76141e-05
5.22218e-05
6.03603e-05
2.43156e-05
5.29594e-05
4.11821e-05
4.94184e-05
5.42473e-05
4.25738e-05
2.69276e-05
3.69829e-05
3.63734e-05
3.70656e-05
4.80556e-05
3.64382e-05
5.41896e-05
3.02689e-05
3.46128e-05
4.23561e-05
4.23598e-05
5.95364e-05
3.3859e-05
3.75614e-05
5.2111e-05
5.28184e-05
4.95709e-05
4.69575e-05
4.8257e-05
3.75306e-05
5.90732e-05
4.82291e-05
5.43772e-05
2.45803e-05
3.88384e-05
4.85825e-05
3.88365e-05
5.91313e-05
7.0163e-05
6.88906e-05
2.39505e-05
4.85685e-05
6.59864e-05
6.21667e-05
6.78734e-05
5.8627e-05
5.38755e-05
7.69993e-05
6.40892e-05
6.33902e-05
4.27664e-05
5.03549e-05
5.3153e-05
2.77681e-05
5.5038e-05
6.15892e-05
5.91189e-05
4.14367e-05
3.72205e-05
4.15846e-05
7.83858e-05
3.72478e-05
5.03831e-05
1.86098e-05
6.11764e-05
5.12774e-05
3.58578e-05
5.4059e-06
4.17896e-05
5.87928e-06
4.67059e-05
4.46147e-05
3.95582e-05
3.59583e-05
3.41861e-05
6.61835e-05
5.50774e-05
5.27509e-05
4.46048e-05
4.26358e-05
3.57376e-05
6.26489e-05
6.37105e-05
5.73756e-05
5.05749e-05
5.1127e-05
3.79352e-05
7.64924e-05
4.90282e-05
2.55588e-05
3.41938e-05
6.85564e-05
6.42538e-05
4.65786e-05
4.50362e-05
2.84051e-05
4.67092e-05
4.6398e-05
4.04829e-05
7.43826e-05
7.64564e-05
6.57663e-05
7.22839e-05
5.68934e-05
3.22958e-05
7.14569e-05
3.09625e-05
4.01128e-05
3.3477e-05
6.82043e-05
6.67417e-05
6.69723e-05
4.43458e-05
2.73641e-05
2.96e-05
4.90427e-05
6.0099e-05
2.73544e-05
3.70465e-05
5.78522e-05
4.36221e-05
7.0631e-05
3.45695e-05
5.76124e-05
5.22929e-05
5.04805e-05
3.22635e-05
4.10368e-05
4.59068e-05
6.58234e-05
3.81972e-05
5.95409e-05
6.90248e-05
7.01202e-05
4.59136e-05
3.81679e-05
3.79537e-05
6.01082e-05
5.03503e-05
3.78861e-05
2.49522e-05
3.69745e-05
3.68618e-05
6.4416e-05
3.86814e-05
3.91069e-05
4.22908e-05
3.76958e-05
5.70301e-05
3.95043e-05
3.48722e-05
4.43749e-05
4.17366e-05
5.05381e-05
5.64091e-05
5.40458e-05
4.61801e-05
5.39361e-05
4.1048e-05
6.25e-05
6.70779e-05
3.7054e-05
6.58049e-05
3.69512e-05
6.49872e-05
5.97877e-05
5.59274e-05
5.66915e-05
6.63837e-05
3.10501e-05
4.08382e-05
3.78836e-05
6.68512e-05
6.5762e-05
6.09761e-05
6.65767e-05
6.767e-05
5.68899e-05
6.96949e-05
4.65567e-05
4.18723e-05
7.62192e-05
4.39668e-05
6.92371e-05
5.51087e-05
3.48026e-05
4.24014e-05
6.89656e-05
5.75744e-05
5.22756e-05
6.72972e-05
6.6157e-05
4.2446e-05
4.23918e-05
4.08434e-05
5.8708e-05
6.4667e-05
7.43181e-05
7.13832e-05
7.76732e-05
7.03843e-05
7.69156e-05
6.45244e-05
6.76377e-05
6.81603e-05
6.42579e-05
6.75077e-05
6.22482e-05
6.13219e-05
4.30055e-05
5.81459e-05
6.79803e-05
4.70899e-05
6.9542e-05
6.38899e-05
7.37085e-05
4.40249e-05
7.00876e-05
6.70409e-05
4.32923e-05
6.02513e-05
4.29955e-05
6.76283e-05
6.15736e-05
4.50756e-05
4.23791e-05
3.64619e-05
4.1948e-05
6.77179e-05
3.06063e-05
5.20317e-05
4.22169e-05
4.75131e-05
7.01518e-05
6.79771e-05
2.15e-05
6.82205e-05
3.66535e-05
3.99626e-05
6.9775e-05
5.67217e-05
4.04228e-05
7.79244e-05
4.41026e-05
2.14997e-05
4.0867e-05
6.06278e-05
7.5744e-05
5.7305e-05
6.77011e-05
6.32726e-05
3.33411e-05
3.24767e-05
2.7394e-05
3.14242e-05
4.54147e-05
3.44843e-05
5.56673e-05
3.46307e-05
6.01687e-05
4.28724e-05
4.09277e-05
4.82806e-05
4.45923e-05
5.95714e-05
4.27613e-05
4.39197e-05
1.97403e-05
4.47851e-05
6.47304e-05
6.47742e-05
5.8471e-05
4.26858e-05
2.81491e-05
8.12626e-05
5.43578e-05
4.52882e-05
4.1722e-05
4.20027e-05
4.3025e-05
5.2978e-05
4.22718e-05
2.99784e-05
4.17313e-05
2.84195e-05
5.21116e-05
4.25439e-05
1.83986e-05
4.0087e-05
4.77692e-05
4.25344e-05
6.59922e-05
4.41971e-05
5.72549e-05
2.16331e-05
4.59359e-05
4.36825e-05
3.85724e-05
4.1003e-05
4.85525e-05
4.59169e-05
4.79476e-05
4.05233e-05
4.11773e-05
4.4508e-05
5.99148e-05
4.19305e-05
5.97136e-05
5.38496e-05
4.27879e-05
4.3502e-05
4.3955e-05
4.87145e-05
4.38933e-05
4.10454e-05
4.67055e-05
4.93448e-05
5.80532e-05
4.39502e-05
4.35878e-05
6.35189e-05
6.26315e-05
4.19584e-05
4.27963e-05
1.86026e-05
5.13512e-05
3.52402e-05
4.81457e-05
2.06295e-05
2.14152e-05
1.91405e-05
1.94527e-05
2.06385e-05
2.17373e-05
2.24034e-05
5.42899e-05
4.03417e-05
4.04026e-05
4.60844e-05
4.48358e-05
4.42726e-05
4.70413e-05
4.33196e-05
4.43016e-05
4.5557e-05
4.4108e-05
5.45862e-05
3.99496e-05
5.60992e-05
4.34353e-05
4.18713e-05
4.41603e-05
4.75645e-05
4.93879e-05
4.59415e-05
5.26958e-05
4.91556e-05
4.55058e-05
3.27088e-05
4.58376e-05
4.48902e-05
4.85805e-05
4.61862e-05
4.37324e-05
4.16161e-05
4.58851e-05
4.79374e-05
6.51905e-05
4.28706e-05
6.3379e-05
6.59371e-05
4.50929e-05
6.32734e-05
4.84646e-05
3.87188e-05
5.30721e-05
4.63092e-05
3.36599e-05
2.89171e-05
5.24388e-05
5.58812e-05
4.70844e-05
3.91021e-05
4.72252e-05
2.18889e-05
4.65509e-05
4.36304e-05
2.19784e-05
8.6524e-06
9.46552e-06
4.03328e-05
4.28833e-05
4.98983e-05
4.78898e-05
4.4628e-06
4.66317e-06
4.76087e-05
4.81075e-05
4.55336e-05
1.64297e-05
4.01121e-05
4.69479e-05
4.76212e-05
4.10704e-05
3.62556e-05
1.71023e-05
6.91109e-05
4.3147e-05
5.28773e-05
5.37041e-05
3.8521e-05
4.87722e-05
3.76629e-05
4.15672e-05
2.03568e-05
3.08756e-05
4.88292e-05
4.92073e-05
4.22385e-05
4.4329e-05
4.5773e-05
4.82761e-05
4.61693e-05
2.24687e-05
4.07756e-05
4.56034e-05
4.33395e-05
6.50744e-05
2.24611e-05
3.51034e-05
3.61505e-05
3.45077e-05
2.25477e-05
2.2549e-05
3.94962e-05
3.15971e-05
4.53347e-05
2.40366e-05
2.69151e-05
8.81762e-06
8.8175e-06
1.78188e-05
2.91577e-05
1.96608e-05
3.86189e-05
4.20188e-05
4.46202e-05
5.03314e-05
4.57196e-05
4.23525e-05
3.32549e-05
2.01447e-05
4.17171e-05
4.33161e-05
4.1979e-05
2.26929e-05
2.15511e-05
1.63754e-05
4.19162e-05
4.27004e-05
3.40921e-05
3.87056e-05
3.57323e-05
3.29141e-05
4.3808e-05
3.29107e-05
3.86142e-05
3.73604e-05
2.30469e-05
2.84582e-05
2.58206e-05
4.63583e-05
1.79097e-05
1.88759e-05
1.84475e-05
4.38254e-05
1.70694e-05
1.66843e-05
3.03372e-05
1.55727e-05
3.56585e-05
3.5712e-05
1.59916e-05
3.84787e-05
1.78401e-05
1.7642e-05
1.99701e-05
1.68303e-05
1.66043e-05
2.54346e-05
1.97615e-05
1.78712e-05
1.68864e-05
3.53061e-05
4.04308e-05
1.86665e-05
3.89707e-05
1.52999e-05
3.95607e-05
3.13452e-05
1.5993e-05
1.35997e-05
1.51025e-05
2.0064e-05
3.39027e-05
2.81553e-05
1.18511e-05
1.31511e-05
3.7888e-05
1.1155e-05
1.11548e-05
1.26384e-05
1.41627e-05
1.55713e-05
1.85751e-05
3.06049e-05
2.83912e-05
3.79042e-05
1.11926e-05
1.11924e-05
3.35449e-05
1.33906e-05
2.69249e-05
1.21382e-05
1.22726e-05
1.61721e-05
2.88333e-05
2.98548e-05
3.18012e-05
2.91462e-05
2.88322e-05
6.31691e-06
4.65358e-05
8.04958e-06
7.81041e-06
3.75996e-05
3.73397e-05
8.09457e-06
5.61975e-06
7.9104e-06
3.46701e-05
SCALARS rr_P' float
LOOKUP_TABLE default
3.47985e-05
7.35193e-05
5.9108e-05
7.68473e-05
3.93469e-05
6.27445e-05
3.4416e-05
7.64839e-05
6.64886e-05
8.26431e-05
3.14439e-05
7.67189e-05
6.7621e-05
7.10911e-05
8.23394e-05
7.03599e-05
5.99707e-05
6.82485e-05
6.1965e-05
6.00976e-05
6.76705e-05
1.13599e-05
6.93358e-05
6.38324e-05
5.78739e-05
6.63038e-05
2.88249e-05
5.84756e-05
4.73735e-05
5.20964e-05
5.97521e-05
4.89647e-05
3.19638e-05
3.92173e-05
3.84477e-05
3.93083e-05
5.06047e-05
3.85633e-05
5.97006e-05
3.59198e-05
3.98269e-05
4.45847e-05
4.45923e-05
6.55756e-05
3.98239e-05
4.31459e-05
5.82169e-05
5.87682e-05
5.47805e-05
5.43502e-05
5.56561e-05
4.27363e-05
6.32277e-05
5.49004e-05
5.82461e-05
2.8818e-05
4.10439e-05
5.53032e-05
4.10452e-05
6.54916e-05
7.65796e-05
7.45637e-05
2.82104e-05
5.2592e-05
7.14111e-05
6.78199e-05
7.40571e-05
6.43944e-05
5.9736e-05
8.43623e-05
6.86101e-05
6.78651e-05
4.92091e-05
5.47637e-05
5.87279e-05
3.31004e-05
5.9253e-05
6.71946e-05
6.49415e-05
4.70812e-05
4.31617e-05
4.43002e-05
8.51973e-05
4.33155e-05
5.77855e-05
2.18618e-05
6.75478e-05
5.58532e-05
4.21698e-05
5.61298e-06
4.75783e-05
6.10551e-06
5.02591e-05
4.8728e-05
4.49959e-05
4.15113e-05
3.96354e-05
7.25633e-05
5.9303e-05
5.81378e-05
5.0219e-05
4.87818e-05
4.15689e-05
6.88682e-05
6.99138e-05
6.29452e-05
5.49038e-05
5.63936e-05
4.41313e-05
8.3718e-05
5.42963e-05
2.99652e-05
3.99108e-05
7.54049e-05
7.05238e-05
5.30042e-05
4.75991e-05
3.29454e-05
4.93818e-05
5.27808e-05
4.54227e-05
8.03333e-05
8.3796e-05
7.16219e-05
7.90599e-05
6.13238e-05
3.42542e-05
7.83487e-05
3.58975e-05
4.5629e-05
3.58415e-05
7.4796e-05
7.25779e-05
7.34201e-05
5.07303e-05
2.8919e-05
3.45041e-05
5.39683e-05
6.53207e-05
2.89113e-05
4.23343e-05
6.33975e-05
4.88689e-05
7.74235e-05
4.01118e-05
6.32637e-05
5.73932e-05
5.57876e-05
3.56659e-05
4.63416e-05
5.10953e-05
7.21438e-05
4.39416e-05
6.55522e-05
7.56669e-05
7.68901e-05
5.01902e-05
4.35715e-05
4.33145e-05
6.61942e-05
5.60138e-05
4.3552e-05
2.92743e-05
4.26449e-05
4.20868e-05
7.06628e-05
4.41609e-05
4.4653e-05
4.86469e-05
4.303e-05
6.13553e-05
4.49695e-05
4.02249e-05
4.84635e-05
4.74997e-05
5.4882e-05
6.06917e-05
5.94001e-05
4.94044e-05
5.91655e-05
4.72117e-05
6.85331e-05
7.35606e-05
4.23362e-05
7.16617e-05
4.26504e-05
7.07754e-05
6.48886e-05
6.01458e-05
6.21538e-05
7.22831e-05
3.59614e-05
4.64808e-05
4.35731e-05
7.32944e-05
7.23813e-05
6.70809e-05
7.24031e-05
7.41768e-05
6.20835e-05
7.63799e-05
5.2056e-05
4.75403e-05
8.28975e-05
5.05614e-05
7.52554e-05
6.0127e-05
3.98438e-05
4.5839e-05
7.55715e-05
6.21857e-05
5.71967e-05
7.38679e-05
7.19004e-05
4.79176e-05
4.6345e-05
4.63254e-05
6.37193e-05
7.07418e-05
8.13026e-05
7.81773e-05
8.50258e-05
7.70418e-05
8.4198e-05
7.06856e-05
7.30161e-05
7.36013e-05
6.93683e-05
7.28677e-05
6.667e-05
6.56758e-05
4.85829e-05
6.36818e-05
7.47085e-05
5.24163e-05
7.5023e-05
6.88994e-05
8.09817e-05
4.99722e-05
7.70502e-05
7.35014e-05
4.88503e-05
6.51297e-05
4.85375e-05
7.34791e-05
6.77174e-05
5.08531e-05
4.80464e-05
4.22925e-05
4.86279e-05
7.35929e-05
3.55649e-05
5.73553e-05
4.78866e-05
5.31621e-05
7.71294e-05
7.4377e-05
2.2619e-05
7.46623e-05
4.26184e-05
4.53293e-05
7.66856e-05
6.23375e-05
4.59049e-05
8.5268e-05
4.9383e-05
2.26203e-05
4.63448e-05
6.63102e-05
8.25338e-05
6.30405e-05
7.30541e-05
6.8936e-05
3.56863e-05
3.57657e-05
3.20677e-05
3.69174e-05
4.87413e-05
3.82512e-05
6.11782e-05
3.90914e-05
6.50314e-05
4.68252e-05
4.64195e-05
5.27199e-05
5.01861e-05
6.5353e-05
4.81203e-05
4.98423e-05
2.0611e-05
4.81373e-05
6.98139e-05
6.98729e-05
6.40531e-05
4.80011e-05
2.98818e-05
8.85777e-05
6.04554e-05
5.09104e-05
4.70475e-05
4.50813e-05
4.85525e-05
5.70079e-05
4.76165e-05
3.52505e-05
4.69384e-05
3.29929e-05
5.65484e-05
4.80076e-05
1.92125e-05
4.51548e-05
5.19563e-05
4.80515e-05
7.18402e-05
4.97985e-05
6.32139e-05
2.55195e-05
5.08199e-05
4.93044e-05
4.14196e-05
4.63056e-05
5.39986e-05
4.99797e-05
5.25301e-05
4.56541e-05
4.63096e-05
4.98502e-05
6.50247e-05
4.71646e-05
6.56246e-05
5.94522e-05
4.58037e-05
4.89235e-05
4.92536e-05
5.40972e-05
4.91312e-05
4.62098e-05
5.22676e-05
5.33962e-05
6.38158e-05
4.92268e-05
4.92085e-05
6.96283e-05
6.86442e-05
4.72146e-05
4.5817e-05
2.24357e-05
5.67139e-05
4.08701e-05
5.34438e-05
2.61859e-05
2.718e-05
2.42797e-05
2.46816e-05
2.61791e-05
2.75951e-05
2.84293e-05
5.88937e-05
4.29381e-05
4.44853e-05
5.12776e-05
5.01684e-05
4.95584e-05
5.16037e-05
4.85243e-05
4.96484e-05
4.84788e-05
4.9376e-05
5.89718e-05
4.54851e-05
6.06535e-05
4.80321e-05
4.65955e-05
4.94515e-05
5.10376e-05
5.4543e-05
5.10893e-05
5.81913e-05
5.46589e-05
5.09837e-05
3.71778e-05
5.10131e-05
4.96203e-05
5.24668e-05
5.16313e-05
4.90413e-05
4.65387e-05
5.10952e-05
5.30038e-05
7.15048e-05
4.79476e-05
6.9528e-05
7.29717e-05
5.01997e-05
6.95231e-05
5.36205e-05
4.33554e-05
5.77785e-05
5.14495e-05
3.58536e-05
3.39994e-05
5.68841e-05
6.04704e-05
5.2056e-05
4.34279e-05
5.15319e-05
2.63664e-05
5.14714e-05
4.84804e-05
2.59128e-05
9.0394e-06
9.88617e-06
4.45493e-05
4.79872e-05
5.53784e-05
5.3531e-05
4.59157e-06
4.79772e-06
5.2311e-05
5.28504e-05
5.00479e-05
1.97936e-05
4.49568e-05
5.10403e-05
5.3008e-05
4.57551e-05
4.03644e-05
2.06389e-05
7.52778e-05
4.8307e-05
5.84171e-05
5.93296e-05
4.29216e-05
5.42438e-05
4.19666e-05
4.62786e-05
2.41418e-05
3.58366e-05
5.43121e-05
5.43546e-05
4.69214e-05
4.94121e-05
5.08806e-05
5.35994e-05
5.12891e-05
2.64159e-05
4.3979e-05
5.10077e-05
4.73033e-05
7.0843e-05
2.64232e-05
3.87962e-05
3.9988e-05
3.69401e-05
2.35748e-05
2.35773e-05
4.24589e-05
3.54192e-05
5.00989e-05
2.83047e-05
2.81973e-05
9.09251e-06
9.09277e-06
2.15268e-05
3.08605e-05
2.07252e-05
4.27171e-05
4.5233e-05
4.91301e-05
5.51433e-05
4.9761e-05
4.59807e-05
3.65474e-05
2.4272e-05
4.60317e-05
4.73148e-05
4.5646e-05
2.70665e-05
2.2789e-05
1.9338e-05
4.55951e-05
4.67647e-05
3.84307e-05
4.26385e-05
3.9285e-05
3.52114e-05
4.81002e-05
3.52103e-05
4.26509e-05
4.06175e-05
2.43347e-05
3.00279e-05
3.0395e-05
5.07271e-05
2.16902e-05
2.28176e-05
2.23909e-05
4.77353e-05
2.05874e-05
2.02916e-05
3.38125e-05
1.88818e-05
3.79757e-05
3.80351e-05
1.93595e-05
4.27264e-05
2.11496e-05
2.1376e-05
2.37201e-05
2.04002e-05
1.97226e-05
2.69052e-05
2.33463e-05
2.15463e-05
2.04478e-05
3.88304e-05
4.38028e-05
2.22059e-05
4.2853e-05
1.85967e-05
4.33658e-05
3.47832e-05
1.93985e-05
1.62023e-05
1.83454e-05
2.42393e-05
3.75175e-05
2.99404e-05
1.22439e-05
1.36047e-05
4.14653e-05
1.1528e-05
1.15282e-05
1.30682e-05
1.47594e-05
1.8362e-05
1.96235e-05
3.28763e-05
3.01903e-05
4.15333e-05
1.16398e-05
1.16401e-05
3.56032e-05
1.61942e-05
2.99049e-05
1.4659e-05
1.4515e-05
1.91166e-05
3.02423e-05
3.13219e-05
3.33856e-05
3.05915e-05
3.0243e-05
6.53785e-06
4.88424e-05
8.37151e-06
8.06738e-06
3.94294e-05
3.9152e-05
8.3573e-06
5.81427e-06
8.22335e-06
3.64193e-05
SCALARS rr_T' float
LOOKUP_TABLE default
0.0002092
0.000476586
0.000380619
0.000497482
0.00026011
0.000403972
0.00020685
0.000494723
0.000425396
0.000535583
0.000189859
0.000496238
0.000436703
0.00046121
0.000540331
0.000453601
0.000390109
0.000441036
0.000395075
0.000386239
0.000434477
7.71323e-05
0.000445165
0.000410283
0.000371906
0.000429019
0.000175884
0.000376849
0.000295788
0.000348111
0.000385801
0.00030577
0.000194838
0.000260842
0.000256364
0.00026143
0.000338432
0.000256887
0.000385409
0.000218999
0.00024862
0.000298267
0.000298299
0.000423414
0.00024446
0.000269691
0.000371788
0.000376489
0.000352803
0.000337752
0.000346812
0.000268931
0.000417482
0.000345565
0.000384358
0.000177331
0.000273724
0.000348099
0.000273715
0.000421057
0.000497988
0.000488051
0.000172977
0.000344114
0.000467463
0.000441183
0.000481704
0.000416691
0.000383725
0.000546973
0.000452951
0.000448015
0.000307185
0.000357112
0.00037828
0.000201122
0.000389456
0.00043709
0.000420198
0.000296773
0.000267833
0.000293583
0.000555836
0.000268207
0.000361622
0.000134322
0.000435318
0.000363778
0.000258884
3.79572e-05
0.000299438
4.12824e-05
0.000330465
0.000316701
0.000283388
0.000258482
0.000245986
0.000470211
0.000389745
0.000375209
0.000318794
0.000305846
0.000257347
0.000445359
0.00045273
0.00040769
0.000358532
0.000363723
0.000273181
0.000543248
0.000349108
0.000184393
0.000246431
0.000487415
0.000456611
0.000333714
0.000317412
0.000204407
0.000329224
0.000332394
0.000289111
0.000526713
0.000543157
0.000466551
0.000513285
0.000402695
0.000227792
0.000507683
0.00022279
0.000287365
0.000236605
0.000484596
0.00047332
0.000475808
0.000318101
0.000192858
0.000213256
0.000348714
0.000426164
0.000192793
0.000265676
0.000410972
0.000311419
0.000501786
0.000248791
0.000409458
0.000371606
0.000359279
0.00022964
0.000293495
0.000327249
0.000467622
0.000274352
0.000423405
0.00049038
0.000498199
0.000325984
0.000273653
0.0002721
0.000427467
0.000358885
0.000272072
0.000180045
0.000265729
0.000264299
0.000457707
0.00027734
0.000280399
0.000303748
0.000270265
0.000403495
0.000283053
0.000250627
0.000314995
0.000299032
0.000358297
0.000399107
0.000384183
0.000326329
0.00038324
0.000294813
0.000444053
0.00047659
0.00026572
0.000466817
0.000265608
0.000461026
0.000423817
0.000395659
0.00040277
0.000470911
0.000223366
0.000292601
0.000272088
0.000474957
0.000467619
0.000433541
0.000472156
0.000480753
0.000403763
0.000495115
0.000332224
0.00029984
0.000540551
0.000315765
0.000490964
0.000391104
0.00024969
0.000300312
0.000489922
0.000407695
0.000371228
0.000478242
0.000469114
0.000303552
0.000300985
0.000292405
0.000416166
0.000459216
0.000527755
0.000507037
0.000551656
0.000499881
0.000546277
0.000458339
0.000478905
0.000482636
0.000454976
0.000477973
0.000439984
0.000433435
0.000307602
0.000413008
0.000483239
0.000335687
0.000492319
0.000452268
0.000523926
0.000315238
0.000498255
0.0004763
0.000309571
0.000426728
0.000307481
0.000479517
0.000437769
0.00032231
0.000303369
0.000262389
0.000301831
0.000480175
0.000220343
0.000370108
0.000302243
0.000339103
0.000498724
0.000482742
0.000151383
0.000484497
0.000263916
0.000286104
0.000496003
0.000403199
0.000289476
0.000553393
0.000314814
0.000151383
0.000292563
0.000430515
0.000537399
0.000407437
0.000479311
0.0004489
0.000235628
0.000230962
0.00019756
0.000226817
0.000321144
0.000245634
0.000395702
0.000247655
0.00042613
0.000304333
0.000293006
0.000342706
0.000318677
0.000423288
0.000305583
0.00031447
0.000138768
0.000316796
0.00045823
0.000458556
0.000415337
0.000304994
0.000198583
0.000576596
0.000387425
0.000323564
0.000298296
0.000297019
0.000307665
0.000374842
0.000302153
0.000216429
0.00029819
0.000204555
0.000369391
0.000304222
0.00012934
0.000286536
0.000338783
0.000304233
0.000468114
0.000315935
0.000407407
0.000156295
0.000327014
0.000312381
0.000272792
0.000293257
0.00034605
0.000325699
0.000340596
0.000289666
0.000294223
0.000317727
0.000424716
0.000299617
0.000424465
0.000383173
0.000302399
0.000310833
0.000313812
0.000347085
0.000313294
0.000293351
0.00033335
0.000349563
0.000412685
0.000313746
0.00031172
0.000451257
0.000444936
0.000299844
0.000302464
0.000135119
0.000365424
0.00025359
0.000343002
0.000151751
0.000157525
0.000140774
0.000143079
0.000151791
0.000159903
0.000164786
0.000384806
0.000284759
0.000287317
0.000328493
0.000319997
0.000316005
0.00033425
0.000309251
0.000316296
0.000321558
0.000314833
0.000386555
0.000286256
0.000397343
0.000309181
0.000298469
0.000315231
0.00033633
0.000351448
0.000327432
0.000374981
0.000350333
0.000324874
0.000234283
0.000326749
0.000319506
0.000344001
0.000329566
0.000312278
0.000296978
0.000327129
0.000341217
0.000463197
0.00030594
0.000450339
0.000469435
0.000321462
0.000449749
0.00034502
0.000276385
0.00037647
0.000329982
0.000237633
0.000208762
0.000371682
0.00039587
0.000335139
0.000278605
0.000335164
0.000158941
0.00033135
0.000310903
0.00015877
6.08312e-05
6.6544e-05
0.000287022
0.000306067
0.000355471
0.000341715
3.12745e-05
3.26787e-05
0.000338406
0.000341937
0.000323679
0.000119304
0.000286391
0.000332926
0.000339475
0.000292833
0.000258465
0.00012424
0.000490296
0.000307985
0.000376309
0.000382192
0.000274666
0.000347616
0.000268549
0.000296332
0.000147261
0.000222222
0.00034803
0.000350179
0.000300967
0.000316105
0.000326199
0.000343946
0.000328978
0.000162206
0.000288651
0.000325448
0.000307603
0.000461604
0.000162175
0.000249841
0.000257344
0.00024388
0.000158551
0.000158562
0.000279395
0.000225603
0.000322653
0.000173591
0.000189342
6.18217e-05
6.18214e-05
0.000129479
0.000205564
0.000138492
0.000274912
0.000297326
0.00031731
0.000357531
0.000324297
0.000300245
0.000236388
0.000146285
0.000296805
0.00030749
0.0002977
0.000164386
0.000151909
0.000118339
0.00029728
0.000303295
0.000243728
0.000275279
0.000254019
0.000232587
0.000311339
0.000232566
0.000274791
0.000264936
0.000162401
0.000200503
0.000186459
0.000329217
0.000130212
0.000137174
0.000134195
0.00031091
0.000123983
0.000121429
0.000216326
0.000113254
0.00025173
0.000252111
0.000116256
0.000274152
0.000129044
0.00012828
0.000144518
0.000122389
0.000120161
0.000179295
0.000142827
0.000129795
0.000122769
0.00025101
0.000286491
0.000135134
0.000277052
0.000111337
0.000281051
0.000223295
0.000116319
9.84886e-05
0.000109882
0.000145794
0.000241364
0.000198699
8.31236e-05
9.22675e-05
0.000269073
7.82462e-05
7.82455e-05
8.86618e-05
9.95199e-05
0.000112492
0.000130905
0.000216462
0.000200363
0.00026926
7.86142e-05
7.86137e-05
0.000236636
9.73271e-05
0.000191845
8.81927e-05
8.8721e-05
0.000116898
0.000202887
0.000210087
0.000223815
0.000205119
0.000202882
4.43235e-05
0.000327497
5.6539e-05
5.47796e-05
0.000264561
0.000262726
5.67673e-05
3.94288e-05
5.55564e-05
0.000244037
SCALARS rr_uec(SIM,_S_ext) float
LOOKUP_TABLE default
0.0133179
0.0303433
0.024233
0.0316738
0.0165609
0.0257198
0.0131683
0.0314978
0.0270835
0.0340994
0.0120871
0.0315943
0.0278037
0.0293643
0.0344022
0.0288795
0.0248376
0.0280797
0.025153
0.0245907
0.0276618
0.00491106
0.0283424
0.0261216
0.0236782
0.0273147
0.0111973
0.0239929
0.0188313
0.0221641
0.0245629
0.0194668
0.0124039
0.0166077
0.0163225
0.0166451
0.021548
0.0163558
0.0245379
0.0139421
0.0158284
0.0189907
0.0189927
0.0269576
0.0155633
0.0171699
0.0236705
0.0239698
0.022462
0.0215029
0.0220797
0.0171216
0.0265807
0.0220005
0.0244716
0.0112895
0.0174278
0.0221618
0.0174272
0.0268075
0.0317061
0.0310734
0.0110122
0.0219091
0.0297626
0.0280891
0.0306693
0.0265298
0.0244307
0.0348248
0.0288389
0.0285246
0.0195569
0.0227366
0.024084
0.012804
0.0247961
0.0278286
0.0267531
0.0188943
0.0170514
0.0186921
0.0353892
0.0170752
0.0230226
0.00855144
0.0277155
0.023161
0.0164816
0.00241674
0.0190638
0.00262846
0.0210402
0.0201637
0.0180419
0.0164562
0.0156605
0.0299374
0.0248145
0.0238885
0.0202963
0.0194717
0.0163838
0.0283551
0.0288243
0.0259567
0.0228272
0.0231572
0.0173919
0.0345878
0.0222267
0.0117392
0.0156888
0.0310326
0.0290714
0.0212459
0.0202093
0.0130133
0.0209614
0.021162
0.0184066
0.0335352
0.0345819
0.0297044
0.03268
0.0256391
0.0145033
0.0323231
0.0141837
0.0182952
0.0150644
0.0308533
0.0301355
0.0302938
0.0202518
0.0122791
0.0135766
0.0222017
0.0271332
0.012275
0.0169142
0.0261656
0.0198269
0.0319477
0.015839
0.0260693
0.0236593
0.0228742
0.0146206
0.0186856
0.0208349
0.0297726
0.0174667
0.026957
0.0312215
0.0317194
0.0207547
0.0174221
0.0173232
0.0272158
0.022849
0.0173215
0.0114624
0.0169176
0.0168266
0.0291412
0.0176568
0.0178516
0.0193381
0.0172064
0.02569
0.0180206
0.0159561
0.0200551
0.0190379
0.0228122
0.0254106
0.0244599
0.0207769
0.0244
0.0187692
0.0282719
0.0303435
0.0169171
0.0297213
0.0169099
0.0293527
0.0269837
0.025191
0.0256435
0.0299819
0.0142204
0.0186285
0.0173225
0.0302396
0.0297723
0.0276026
0.0300614
0.0306087
0.0257067
0.0315231
0.0211516
0.0190895
0.034416
0.0201031
0.0312589
0.0249007
0.0158965
0.0191204
0.0311924
0.0259573
0.0236352
0.0304486
0.0298677
0.0193259
0.019163
0.0186162
0.0264966
0.0292376
0.0336014
0.0322823
0.0351231
0.0318267
0.0347806
0.0291815
0.0304913
0.0307288
0.0289678
0.030432
0.0280133
0.0275963
0.0195837
0.0262954
0.030767
0.021372
0.0313453
0.0287953
0.0333575
0.0200698
0.0317231
0.030325
0.0197091
0.0271691
0.019576
0.0305301
0.0278721
0.0205202
0.0193142
0.0167048
0.019216
0.0305719
0.0140279
0.0235638
0.0192425
0.0215895
0.0317529
0.0307354
0.0096385
0.0308472
0.0168018
0.018215
0.0315797
0.0256707
0.0184297
0.0352337
0.020043
0.00963852
0.0186263
0.0274102
0.0342151
0.0259406
0.0305171
0.0285805
0.0150022
0.0147048
0.0125775
0.01444
0.0204468
0.0156388
0.0251934
0.0157671
0.027131
0.0193762
0.0186545
0.0218193
0.0202889
0.0269497
0.0194552
0.020021
0.00883541
0.02017
0.0291749
0.0291958
0.0264436
0.0194177
0.0126436
0.0367107
0.0246661
0.0206
0.0189912
0.0189108
0.0195878
0.0238656
0.0192368
0.0137788
0.0189846
0.0130228
0.0235185
0.0193686
0.00823511
0.0182425
0.0215697
0.0193693
0.0298039
0.0201142
0.0259384
0.00995015
0.0208201
0.019888
0.0173684
0.0186705
0.0220319
0.0207366
0.0216852
0.0184418
0.018732
0.0202285
0.0270408
0.0190754
0.0270246
0.0243956
0.0192533
0.0197894
0.0199792
0.0220978
0.0199463
0.0186764
0.0212232
0.0222561
0.0262746
0.019975
0.019846
0.0287304
0.028328
0.0190898
0.0192575
0.00860211
0.0232655
0.0161446
0.0218378
0.00966087
0.0100285
0.00896209
0.00910883
0.00966345
0.0101798
0.0104907
0.0244999
0.0181304
0.0182928
0.0209141
0.0203731
0.0201189
0.0212809
0.0196888
0.0201374
0.0204733
0.0200443
0.0246113
0.0182246
0.0252983
0.0196847
0.0190026
0.0200696
0.0214136
0.0223757
0.0208465
0.023874
0.0223045
0.0206836
0.0149158
0.020803
0.020342
0.021902
0.0209823
0.0198816
0.0189076
0.0208272
0.0217243
0.0294906
0.0194782
0.028672
0.0298876
0.0204664
0.0286344
0.0219664
0.0175964
0.0239691
0.0210088
0.0151299
0.0132907
0.0236643
0.0252043
0.0213373
0.0177378
0.0213392
0.0101187
0.0210962
0.0197942
0.0101077
0.00387312
0.00423685
0.0182739
0.0194862
0.0226317
0.0217558
0.00199126
0.00208067
0.0215455
0.0217702
0.0206078
0.00759521
0.0182335
0.0211968
0.0216132
0.0186436
0.0164556
0.00790954
0.0312162
0.0196083
0.0239585
0.024333
0.017487
0.0221316
0.0170976
0.0188664
0.00937511
0.0141475
0.0221579
0.0222949
0.0191616
0.0201253
0.020768
0.0218979
0.020945
0.0103267
0.018378
0.0207202
0.0195844
0.0293894
0.0103247
0.0159067
0.0163844
0.0155275
0.010095
0.0100957
0.0177887
0.0143634
0.0205424
0.0110515
0.0120555
0.00393622
0.0039362
0.00824305
0.0130881
0.00881775
0.0175028
0.0189303
0.0202023
0.0227633
0.0206474
0.019116
0.0150502
0.00931298
0.0188967
0.0195772
0.018954
0.0104653
0.00967199
0.00753371
0.0189273
0.0193101
0.0155171
0.0175263
0.0161727
0.0148086
0.0198222
0.0148073
0.0174952
0.016868
0.01034
0.0127659
0.0118707
0.0209606
0.00828945
0.00873262
0.00854301
0.019795
0.00789309
0.00773029
0.0137727
0.00720985
0.0160274
0.0160516
0.00740095
0.0174545
0.00821529
0.00816638
0.00920042
0.00779137
0.00764982
0.0114156
0.00909287
0.00826311
0.00781558
0.0159811
0.0182404
0.008603
0.0176392
0.00708785
0.0178939
0.0142165
0.00740497
0.00627006
0.00699521
0.0092817
0.015367
0.012651
0.00529254
0.00587473
0.0171313
0.00498199
0.00498195
0.00564515
0.00633647
0.00716169
0.00833465
0.0137818
0.0127569
0.0171432
0.0050054
0.00500536
0.0150663
0.00619617
0.0122142
0.00561458
0.00564816
0.00744203
0.0129179
0.0133763
0.0142503
0.01306
0.0129176
0.0028221
0.0208517
0.00359986
0.00348784
0.0168446
0.0167278
0.0036144
0.00251045
0.0035373
0.0155378
SCALARS rr_uec(PEX,_P_ext) float
LOOKUP_TABLE default
-0.0608697
-0.138728
-0.110789
-0.14481
-0.0757222
-0.117586
-0.0601861
-0.144005
-0.123818
-0.155901
-0.0552443
-0.144446
-0.127116
-0.134253
-0.157293
-0.132033
-0.113558
-0.128377
-0.114991
-0.112424
-0.126464
-0.0224577
-0.129575
-0.119422
-0.108252
-0.12488
-0.0511805
-0.109692
-0.0860823
-0.101347
-0.112299
-0.0889875
-0.0566956
-0.0759379
-0.074635
-0.076109
-0.0985295
-0.0747869
-0.112185
-0.0637264
-0.0723551
-0.0868362
-0.0868454
-0.123247
-0.0711381
-0.0784879
-0.108214
-0.109584
-0.102692
-0.0982927
-0.100931
-0.0782696
-0.121535
-0.100573
-0.111892
-0.051604
-0.0796891
-0.101311
-0.0796864
-0.122559
-0.14496
-0.142072
-0.0503358
-0.100172
-0.136079
-0.128424
-0.14022
-0.121292
-0.111692
-0.159217
-0.131861
-0.130424
-0.0893992
-0.103953
-0.110108
-0.0585233
-0.113374
-0.127233
-0.122313
-0.0863737
-0.077944
-0.085468
-0.161802
-0.0780521
-0.105243
-0.0390879
-0.126711
-0.105893
-0.0753356
-0.0110513
-0.0871482
-0.0120194
-0.0962011
-0.0921886
-0.0824772
-0.0752242
-0.0715862
-0.136872
-0.113458
-0.109215
-0.0927859
-0.0890115
-0.0748916
-0.129636
-0.131783
-0.118672
-0.104368
-0.105872
-0.0794994
-0.158134
-0.101616
-0.0536592
-0.0717138
-0.141878
-0.132912
-0.097124
-0.0924079
-0.0594857
-0.0958467
-0.0967402
-0.0841479
-0.153329
-0.158106
-0.13581
-0.149412
-0.117227
-0.0663161
-0.147779
-0.0648356
-0.0836348
-0.0688792
-0.141059
-0.137782
-0.138501
-0.092578
-0.0561467
-0.0620596
-0.101504
-0.124055
-0.0561277
-0.077321
-0.119628
-0.0906413
-0.146063
-0.072402
-0.119187
-0.108169
-0.104577
-0.0668427
-0.0854217
-0.0952516
-0.136119
-0.0798441
-0.123245
-0.142743
-0.145019
-0.0948904
-0.0796428
-0.0791909
-0.124427
-0.10446
-0.0791806
-0.0523939
-0.0773338
-0.0769204
-0.133232
-0.0807158
-0.0816061
-0.0883991
-0.0786569
-0.117461
-0.0823796
-0.0729386
-0.0916919
-0.0870301
-0.104299
-0.116183
-0.111829
-0.0949992
-0.111555
-0.0857985
-0.129258
-0.138729
-0.0773339
-0.135888
-0.0772982
-0.134202
-0.123372
-0.11518
-0.117241
-0.137079
-0.0650035
-0.0851585
-0.0791852
-0.138253
-0.136115
-0.126196
-0.137443
-0.139941
-0.117532
-0.144121
-0.0966977
-0.0872665
-0.157352
-0.0918963
-0.142918
-0.113847
-0.0726681
-0.0874216
-0.14261
-0.118682
-0.10806
-0.139209
-0.136558
-0.0883489
-0.0876134
-0.0851028
-0.121145
-0.133673
-0.153624
-0.147593
-0.160581
-0.14551
-0.159015
-0.133416
-0.139412
-0.140498
-0.132446
-0.139141
-0.128086
-0.126179
-0.0895272
-0.120221
-0.140663
-0.0977073
-0.143317
-0.131658
-0.152507
-0.0917479
-0.145034
-0.138644
-0.0901007
-0.124222
-0.0894922
-0.139586
-0.127427
-0.0938085
-0.088294
-0.0763597
-0.0878385
-0.139777
-0.0641229
-0.107731
-0.087966
-0.0986997
-0.14517
-0.140521
-0.0440729
-0.141032
-0.0768029
-0.0832691
-0.144379
-0.117364
-0.08425
-0.161087
-0.0916297
-0.044073
-0.085149
-0.125318
-0.156433
-0.118597
-0.13953
-0.130672
-0.0685947
-0.0672285
-0.0574912
-0.0660041
-0.0934886
-0.0714971
-0.115182
-0.0720798
-0.124048
-0.0885883
-0.0852779
-0.0997584
-0.092752
-0.123213
-0.0889411
-0.0915245
-0.0404017
-0.0922224
-0.133393
-0.133488
-0.120899
-0.0887699
-0.0578124
-0.167843
-0.112767
-0.0941749
-0.0868194
-0.0864656
-0.089546
-0.10912
-0.0879423
-0.0629812
-0.0867896
-0.0595286
-0.107529
-0.0885441
-0.0376567
-0.0833968
-0.0986183
-0.0885469
-0.136265
-0.0919534
-0.118587
-0.0454811
-0.0951856
-0.0909185
-0.0794129
-0.0853525
-0.100724
-0.0948092
-0.0991433
-0.084308
-0.0856348
-0.0924775
-0.123634
-0.0872047
-0.123554
-0.111533
-0.0880325
-0.0904691
-0.0913378
-0.101026
-0.0911874
-0.0853807
-0.097025
-0.101758
-0.120125
-0.0913187
-0.0907262
-0.131354
-0.129515
-0.0872706
-0.0880514
-0.0393157
-0.106366
-0.0737989
-0.0998377
-0.044146
-0.0458259
-0.0409529
-0.0416234
-0.0441578
-0.0465175
-0.0479381
-0.112016
-0.0828996
-0.0836326
-0.0956137
-0.0931388
-0.0919764
-0.0972952
-0.0900103
-0.0920606
-0.0936124
-0.0916354
-0.112527
-0.0833119
-0.115668
-0.0899951
-0.0868747
-0.0917509
-0.0979095
-0.102298
-0.0953049
-0.109148
-0.101971
-0.0945575
-0.0681861
-0.0951058
-0.0930003
-0.10014
-0.0959242
-0.090891
-0.0864389
-0.0952163
-0.0993197
-0.13483
-0.0890474
-0.131087
-0.136641
-0.0935669
-0.130914
-0.100426
-0.0804446
-0.109588
-0.0960474
-0.0691798
-0.0607501
-0.108196
-0.115238
-0.0975505
-0.0810933
-0.0975633
-0.0462473
-0.0964479
-0.0904943
-0.0462013
-0.0177106
-0.0193739
-0.0835454
-0.089084
-0.103467
-0.0994601
-0.00910595
-0.00951479
-0.0985043
-0.0995319
-0.0942171
-0.034714
-0.0833566
-0.0969134
-0.0988097
-0.0852335
-0.0752307
-0.0361502
-0.142722
-0.0896422
-0.109534
-0.111247
-0.0799458
-0.10118
-0.0781654
-0.0862523
-0.0428516
-0.0646702
-0.1013
-0.101929
-0.0876023
-0.0920072
-0.0949463
-0.100112
-0.0957554
-0.0472022
-0.0840279
-0.0947254
-0.0895405
-0.13437
-0.0471929
-0.0727227
-0.0749063
-0.0709969
-0.0461612
-0.0461643
-0.0813345
-0.0656638
-0.0939164
-0.0505149
-0.0551254
-0.018
-0.0179999
-0.0376744
-0.0598454
-0.0403197
-0.0800199
-0.0865539
-0.0923628
-0.104073
-0.0944011
-0.0874004
-0.0688084
-0.0425649
-0.0863933
-0.0895072
-0.0866593
-0.0478336
-0.0442252
-0.0344358
-0.086537
-0.0882853
-0.0709373
-0.080128
-0.0739404
-0.0677096
-0.0906257
-0.0677037
-0.0799851
-0.0771218
-0.0472802
-0.0583728
-0.0542595
-0.0958314
-0.0378869
-0.0399128
-0.0390454
-0.0905038
-0.0360753
-0.0353307
-0.062965
-0.0329524
-0.0732838
-0.0733946
-0.0338261
-0.0797975
-0.0375505
-0.0373245
-0.0420529
-0.0356104
-0.0349655
-0.0521978
-0.0415619
-0.0377665
-0.0357211
-0.0730642
-0.0833975
-0.0393221
-0.0806447
-0.0323944
-0.08181
-0.0649947
-0.0338443
-0.0286586
-0.0319713
-0.0424214
-0.0702549
-0.0578457
-0.0242021
-0.0268642
-0.0783238
-0.022782
-0.0227817
-0.0258145
-0.028975
-0.032735
-0.0381104
-0.0630143
-0.0583301
-0.0783779
-0.0228885
-0.0228883
-0.0688904
-0.0283191
-0.0558402
-0.0256613
-0.025817
-0.0340164
-0.0590687
-0.0611647
-0.0651611
-0.0597182
-0.0590672
-0.012905
-0.0953472
-0.0164613
-0.0159495
-0.0770244
-0.07649
-0.0165283
-0.0114799
-0.0161753
-0.0710484
SCALARS cell_type float
LOOKUP_TABLE default
0
0
0
0
0
0
0
0
0
0
0
0
0
0
0
0
0
0
0
0
0
1
0
0
0
0
0
0
0
0
0
0
0
0
0
0
0
0
0
0
0
0
0
0
0
0
0
0
0
0
0
0
0
0
0
0
0
0
0
0
0
0
0
0
0
0
0
0
0
0
0
0
0
0
0
0
0
0
0
0
0
0
0
0
0
0
0
0
0
0
0
0
0
0
0
0
0
0
0
0
0
0
0
0
0
0
0
0
0
0
0
0
0
0
0
0
0
0
0
0
0
0
0
0
0
0
0
0
0
0
0
0
0
0
0
0
0
0
0
0
0
0
0
0
0
0
0
0
0
0
0
0
0
0
0
0
0
0
0
0
0
0
0
0
0
0
0
0
0
0
0
0
0
0
0
0
0
0
0
0
0
0
0
0
0
0
0
0
0
0
0
0
0
0
0
0
0
0
0
0
0
0
0
0
0
0
0
0
0
0
0
0
0
0
0
0
0
0
0
0
0
0
0
0
0
0
0
0
0
0
0
0
0
0
0
0
0
0
0
0
0
0
0
0
0
0
0
0
0
0
0
0
0
0
0
0
0
0
0
0
0
0
0
0
0
0
0
0
0
0
0
0
0
0
0
0
0
0
0
0
0
0
0
0
0
0
0
0
0
0
0
0
0
0
0
0
0
0
0
0
0
0
0
0
0
0
0
0
0
0
0
0
0
0
0
0
0
0
0
0
0
0
0
0
0
0
0
0
0
0
0
0
0
0
0
0
0
0
0
0
0
0
0
0
0
0
0
0
0
0
2
2
2
2
2
2
2
0
0
0
0
0
0
0
0
0
0
0
0
0
0
0
0
0
0
0
0
0
0
0
0
0
0
0
0
0
0
0
0
0
0
0
0
0
0
0
0
0
0
0
0
0
0
0
0
0
0
0
0
0
0
0
0
0
0
0
1
1
0
0
0
0
0
0
0
0
0
0
0
0
0
0
0
0
0
0
0
0
0
0
0
0
0
0
0
0
0
0
0
0
0
0
0
0
0
0
0
0
0
0
0
1
1
0
0
0
0
0
0
0
0
0
0
0
0
0
0
0
0
0
0
0
0
0
0
0
0
0
0
0
0
0
0
0
0
0
0
0
0
0
0
0
0
0
0
0
0
0
0
0
0
0
0
0
0
0
0
0
0
0
0
0
0
0
0
0
0
0
1
1
0
0
0
0
0
0
0
0
0
0
0
0
0
0
0
0
0
0
0
0
0
0
0
0
0
0
0
0
0
0
0
0
0
TENSORS Lagrange_strain float
0.0305674 -0.00319815 -6.49799e-09
-0.00319815 0.0133887 -1.62376e-07
-6.49799e-09 -1.62376e-07 0.00740157

0.0291917 -0.0028009 5.15165e-08
-0.0028009 0.0335526 1.73793e-08
5.15165e-08 1.73793e-08 0.0331626

0.0300206 0.00367889 -3.57392e-08
0.00367889 0.0311685 4.11806e-08
-3.57392e-08 4.11806e-08 0.030467

0.0291608 -0.00392473 8.38247e-08
-0.00392473 0.0327978 2.82786e-08
8.38247e-08 2.82786e-08 0.0330874

0.0353659 0.00266905 -5.55327e-08
0.00266905 0.0380855 -2.97749e-07
-5.55327e-08 -2.97749e-07 0.0352915

0.0277344 -0.00236704 -1.02141e-07
-0.00236704 0.0333831 -4.04401e-10
-1.02141e-07 -4.04401e-10 0.030438

0.0302614 0.00339396 -8.83365e-09
0.00339396 0.0134944 -6.17693e-08
-8.83365e-09 -6.17693e-08 0.007463

0.0317533 0.00393958 1.2186e-07
0.00393958 0.031199 7.60908e-08
1.2186e-07 7.60908e-08 0.0315598

0.0332408 0.000715586 5.60355e-08
0.000715586 0.0262206 -2.28042e-09
5.60355e-08 -2.28042e-09 0.0281412

0.0354664 -0.000991237 -4.90981e-08
-0.000991237 0.0275503 -3.8421e-08
-4.90981e-08 -3.8421e-08 0.0327201

0.0280606 0.00205097 -1.46225e-07
0.00205097 0.0138086 2.63003e-07
-1.46225e-07 2.63003e-07 0.0117532

0.0279523 -0.0017657 -1.25429e-07
-0.0017657 0.0350053 -7.39465e-08
-1.25429e-07 -7.39465e-08 0.0315483

0.0311203 0.00365697 1.63935e-07
0.00365697 0.0312995 -6.1225e-08
1.63935e-07 -6.1225e-08 0.0310786

0.0290684 -0.00188 -1.11094e-07
-0.00188 0.0347983 -2.68809e-08
-1.11094e-07 -2.68809e-08 0.0325456

0.0346304 0.00441856 -2.25754e-07
0.00441856 0.0343614 -2.39841e-08
-2.25754e-07 -2.39841e-08 0.0348839

0.0343269 7.306e-05 -1.25668e-07
7.306e-05 0.0272851 -5.10705e-08
-1.25668e-07 -5.10705e-08 0.0307775

0.0286922 -0.00235376 -1.30895e-07
-0.00235376 0.0360125 -9.49519e-08
-1.30895e-07 -9.49519e-08 0.0334492

0.0345719 -0.000353004 -5.22723e-08
-0.000353004 0.0273555 -3.43725e-08
-5.22723e-08 -3.43725e-08 0.0319762

0.0269191 0.00347815 -1.40973e-07
0.00347815 0.0309439 1.58699e-07
-1.40973e-07 1.58699e-07 0.0275758

0.0338836 -0.000550591 -3.4251e-09
-0.000550591 0.0264085 1.25444e-07
-3.4251e-09 1.25444e-07 0.0301333

0.0266212 0.0011352 -1.79223e-08
0.0011352 0.0340324 -1.63041e-07
-1.79223e-08 -1.63041e-07 0.0291491

0.0452949 0.000852412 -9.02906e-07
0.000852412 0.0452634 -3.44524e-07
-9.02906e-07 -3.44524e-07 0.0366375

0.0336741 0.000247709 6.02541e-08
0.000247709 0.0263145 -2.71985e-09
6.02541e-08 -2.71985e-09 0.0298042

0.0293089 -0.00363189 -5.12278e-09
-0.00363189 0.0311349 1.00548e-08
-5.12278e-09 1.00548e-08 0.0300459

0.0337789 0.000900332 -1.59945e-07
0.000900332 0.0264956 3.22773e-08
-1.59945e-07 3.22773e-08 0.0300803

0.0285452 0.00250749 8.24954e-08
0.00250749 0.033893 5.21319e-08
8.24954e-08 5.21319e-08 0.032286

0.0286288 0.000526644 1.09069e-08
0.000526644 0.0176893 -6.34104e-08
1.09069e-08 -6.34104e-08 0.0131709

0.0309132 0.00403441 1.17653e-07
0.00403441 0.0306456 4.17586e-08
1.17653e-07 4.17586e-08 0.0306099

0.0259239 0.00477621 2.14103e-07
0.00477621 0.0257322 -1.37061e-07
2.14103e-07 -1.37061e-07 0.0211274

0.0415287 0.00136978 -1.31934e-07
0.00136978 0.0383502 -2.78944e-07
-1.31934e-07 -2.78944e-07 0.0361345

0.0344096 0.00187119 -1.56238e-07
0.00187119 0.0279515 3.91738e-08
-1.56238e-07 3.91738e-08 0.0309991

0.0217591 -0.00228769 1.43586e-07
-0.00228769 0.0299912 -2.03649e-07
1.43586e-07 -2.03649e-07 0.0211242

0.0228628 -0.00535223 2.25793e-07
-0.00535223 0.0234724 -2.55432e-07
2.25793e-07 -2.55432e-07 0.0125786

0.0348321 0.000800937 -4.53893e-08
0.000800937 0.0422549 -9.52534e-08
-4.53893e-08 -9.52534e-08 0.0357856

0.0374529 -0.000662024 1.27221e-07
-0.000662024 0.0412025 -6.80418e-08
1.27221e-07 -6.80418e-08 0.0359001

0.0410751 0.00281316 -1.15724e-07
0.00281316 0.0359856 2.12104e-07
-1.15724e-07 2.12104e-07 0.0357658

0.0372534 0.000705171 1.22142e-07
0.000705171 0.0432145 1.99134e-07
1.22142e-07 1.99134e-07 0.0361409

0.0402605 -0.00121855 2.32037e-07
-0.00121855 0.0378296 -1.71426e-07
2.32037e-07 -1.71426e-07 0.0358074

0.0312144 -0.00367785 -1.69433e-07
-0.00367785 0.0311223 1.24314e-10
-1.69433e-07 1.24314e-10 0.0309246

0.0227469 0.00527882 1.20897e-07
0.00527882 0.0237083 1.83822e-07
1.20897e-07 1.83822e-07 0.0125807

0.0297602 -0.00231564 -3.81239e-08
-0.00231564 0.0220304 3.27496e-08
-3.81239e-08 3.27496e-08 0.0208742

0.0376188 -0.000523116 4.42605e-08
-0.000523116 0.0430635 1.48709e-07
4.42605e-08 1.48709e-07 0.0361436

0.0412402 0.00263461 7.01853e-08
0.00263461 0.0394148 -7.56511e-08
7.01853e-08 -7.56511e-08 0.0361262

0.0342999 -0.00161716 -5.7737e-10
-0.00161716 0.0279937 1.1352e-07
-5.7737e-10 1.1352e-07 0.0310831

0.0231049 -0.00552552 -2.06567e-07
-0.00552552 0.0235621 2.16894e-07
-2.06567e-07 2.16894e-07 0.0162155

0.0299424 -0.00233229 -8.29171e-08
-0.00233229 0.0221545 -1.64082e-07
-8.29171e-08 -1.64082e-07 0.0213435

0.0258928 0.00222734 -1.77573e-07
0.00222734 0.0326531 1.71609e-07
-1.77573e-07 1.71609e-07 0.0279144

0.0275498 0.0025288 8.81352e-08
0.0025288 0.0323729 -1.83988e-07
8.81352e-08 -1.83988e-07 0.0284899

0.0341743 -0.00214078 -9.6934e-09
-0.00214078 0.0271063 1.04729e-07
-9.6934e-09 1.04729e-07 0.0304713

0.0229019 -0.00439223 -2.68374e-08
-0.00439223 0.0272481 -6.51565e-08
-2.68374e-08 -6.51565e-08 0.0198496

0.0294929 0.00247139 5.58705e-08
0.00247139 0.0218336 6.12861e-08
5.58705e-08 6.12861e-08 0.0202803

0.0298715 -0.0032706 4.67052e-08
-0.0032706 0.0245127 -8.74633e-08
4.67052e-08 -8.74633e-08 0.0230475

0.0344771 0.00257788 1.07268e-07
0.00257788 0.0382023 -3.79927e-08
1.07268e-07 -3.79927e-08 0.0352702

0.0286884 0.00383836 2.30919e-08
0.00383836 0.0257788 -1.3238e-07
2.30919e-08 -1.3238e-07 0.023116

0.0349278 -0.00291582 8.10994e-08
-0.00291582 0.0374319 -1.94667e-07
8.10994e-08 -1.94667e-07 0.0351886

0.0255794 -0.00545511 2.4372e-07
-0.00545511 0.0229016 -1.05301e-07
2.4372e-07 -1.05301e-07 0.0158191

0.0373463 0.000746133 1.93626e-07
0.000746133 0.0414128 8.22425e-08
1.93626e-07 8.22425e-08 0.0359206

0.0231669 -0.000693071 1.30688e-07
-0.000693071 0.0313123 -2.26685e-07
1.30688e-07 -2.26685e-07 0.0231021

0.0410292 0.00137964 6.37035e-08
0.00137964 0.0377064 -8.5785e-08
6.37035e-08 -8.5785e-08 0.0358988

0.0276747 0.00280504 1.33804e-07
0.00280504 0.0327483 -2.11587e-08
1.33804e-07 -2.11587e-08 0.0302303

0.0361383 0.000784769 1.96575e-09
0.000784769 0.0281307 -6.83272e-08
1.96575e-09 -6.83272e-08 0.0336724

0.0362536 0.00153416 3.28448e-08
0.00153416 0.0316925 2.36425e-07
3.28448e-08 2.36425e-07 0.03422

0.0286366 0.00405699 -1.96637e-07
0.00405699 0.0198968 2.63386e-08
-1.96637e-07 2.63386e-08 0.0137588

0.0309718 -0.000783655 1.39283e-07
-0.000783655 0.0370841 7.33965e-08
1.39283e-07 7.33965e-08 0.0338808

0.0315543 0.00124341 -2.48362e-08
0.00124341 0.0364197 3.03447e-09
-2.48362e-08 3.03447e-09 0.0342588

0.0285481 -0.000375274 2.12452e-07
-0.000375274 0.0369552 4.5429e-08
2.12452e-07 4.5429e-08 0.0326699

0.0296019 0.00307111 1.25959e-07
0.00307111 0.0347901 -1.07335e-07
1.25959e-07 -1.07335e-07 0.0337082

0.0347184 0.00112211 -3.22927e-10
0.00112211 0.0278378 5.0881e-08
-3.22927e-10 5.0881e-08 0.0322078

0.0291865 -0.00369883 -2.34366e-08
-0.00369883 0.0310199 -4.85606e-08
-2.34366e-08 -4.85606e-08 0.0299088

0.035054 -0.000237067 -8.17447e-08
-0.000237067 0.0275791 -3.90659e-08
-8.17447e-08 -3.90659e-08 0.0333923

0.0344517 -0.00254819 1.42958e-07
-0.00254819 0.0381332 4.30106e-09
1.42958e-07 4.30106e-09 0.0352603

0.0350102 0.00284944 4.91099e-08
0.00284944 0.0375695 -8.49736e-08
4.91099e-08 -8.49736e-08 0.0352401

0.021888 -0.00213163 7.23672e-08
-0.00213163 0.0299213 1.83586e-07
7.23672e-08 1.83586e-07 0.0208507

0.0347007 -0.00369103 -1.78571e-07
-0.00369103 0.0319575 6.5573e-08
-1.78571e-07 6.5573e-08 0.0330783

0.0292912 -0.00329698 -1.24635e-08
-0.00329698 0.032112 -2.92055e-08
-1.24635e-08 -2.92055e-08 0.0304326

0.0267791 -0.00401676 -1.37731e-07
-0.00401676 0.0176049 -5.02927e-08
-1.37731e-07 -5.02927e-08 0.0127255

0.0324035 0.000418566 -3.40455e-08
0.000418566 0.0381042 1.44151e-09
-3.40455e-08 1.44151e-09 0.0344051

0.0345364 0.00381716 -1.03361e-07
0.00381716 0.0309408 -8.16453e-08
-1.03361e-07 -8.16453e-08 0.0326595

0.0283756 0.00258135 1.15467e-07
0.00258135 0.0341285 -2.7066e-09
1.15467e-07 -2.7066e-09 0.032213

0.0315408 0.0010377 -8.82598e-08
0.0010377 0.0228433 1.2675e-07
-8.82598e-08 1.2675e-07 0.0240685

0.0270963 -0.00435841 -2.80463e-08
-0.00435841 0.0237362 2.33048e-07
-2.80463e-08 2.33048e-07 0.018323

0.0362597 -0.00140293 -4.43705e-08
-0.00140293 0.0387422 -1.55967e-07
-4.43705e-08 -1.55967e-07 0.0354005

0.0315553 0.00317078 3.95787e-08
0.00317078 0.0344004 -2.80345e-08
3.95787e-08 -2.80345e-08 0.0340896

0.0273005 -0.00415584 -9.34459e-09
-0.00415584 0.0221743 -4.43481e-08
-9.34459e-09 -4.43481e-08 0.0184108

0.0303572 0.00139095 2.26517e-08
0.00139095 0.0228299 1.24195e-07
2.26517e-08 1.24195e-07 0.0209539

0.0186016 -0.00269675 1.70578e-07
-0.00269675 0.0289277 -7.25166e-08
1.70578e-07 -7.25166e-08 0.0158925

0.0271992 0.001889 4.84067e-08
0.001889 0.034319 -3.90657e-09
4.84067e-08 -3.90657e-09 0.0306538

0.0353814 0.00305675 1.52502e-07
0.00305675 0.0308194 6.3845e-08
1.52502e-07 6.3845e-08 0.032753

0.0226474 0.00538564 -1.93632e-07
0.00538564 0.024088 -1.79413e-07
-1.93632e-07 -1.79413e-07 0.0161981

0.0459502 0.00223795 -3.96853e-07
0.00223795 0.0417503 2.12724e-07
-3.96853e-07 2.12724e-07 0.0366384

0.0230807 -0.000534267 1.54696e-08
-0.000534267 0.031353 6.36188e-08
1.54696e-08 6.36188e-08 0.0230719

0.0463614 -0.00225604 4.16479e-07
-0.00225604 0.0412937 -9.8993e-08
4.16479e-07 -9.8993e-08 0.0365935

0.0370646 -0.0036241 -4.56823e-08
-0.0036241 0.0334903 2.46282e-08
-4.56823e-08 2.46282e-08 0.0346202

0.0351369 0.00361937 1.35195e-07
0.00361937 0.0300034 1.27687e-07
1.35195e-07 1.27687e-07 0.0324557

0.0299611 -0.00315884 -1.75239e-07
-0.00315884 0.0246898 -2.04936e-08
-1.75239e-07 -2.04936e-08 0.0232853

0.0230118 0.0040296 8.37551e-09
0.0040296 0.027778 2.34339e-07
8.37551e-09 2.34339e-07 0.0203815

0.0210933 -0.00137842 4.30288e-10
-0.00137842 0.0298942 1.79104e-07
4.30288e-10 1.79104e-07 0.018251

0.0287448 0.00288882 -1.43996e-07
0.00288882 0.0342263 -4.89306e-08
-1.43996e-07 -4.89306e-08 0.0326988

0.0370112 0.0022361 1.97975e-07
0.0022361 0.0334515 -1.78532e-07
1.97975e-07 -1.78532e-07 0.0343835

0.0281474 0.00198804 1.16103e-07
0.00198804 0.0340588 1.31886e-09
1.16103e-07 1.31886e-09 0.0308646

0.0318816 0.00207299 -1.12314e-07
0.00207299 0.0252534 8.93956e-08
-1.12314e-07 8.93956e-08 0.0256167

0.023907 -0.0027743 1.055e-07
-0.0027743 0.029764 1.87187e-07
1.055e-07 1.87187e-07 0.0215608

0.0278977 -0.00376347 -1.11837e-07
-0.00376347 0.0218147 2.68703e-08
-1.11837e-07 2.68703e-08 0.0180754

0.0293303 -0.00323166 7.26156e-08
-0.00323166 0.0326291 -6.43012e-08
7.26156e-08 -6.43012e-08 0.032402

0.0306256 0.00361462 1.56138e-07
0.00361462 0.0322278 -7.29571e-08
1.56138e-07 -7.29571e-08 0.0323698

0.0287069 0.00304801 -3.28568e-08
0.00304801 0.0340262 3.76618e-08
-3.28568e-08 3.76618e-08 0.0326292

0.0292061 0.00172528 -3.0883e-08
0.00172528 0.0376165 -2.22514e-10
-3.0883e-08 -2.22514e-10 0.0338453

0.0344758 0.00123244 9.02361e-08
0.00123244 0.0275229 3.51966e-08
9.02361e-08 3.51966e-08 0.0306738

0.0199601 -0.000605133 1.95648e-07
-0.000605133 0.0296597 -1.1985e-09
1.95648e-07 -1.1985e-09 0.0181034

0.0297965 -0.00486293 -1.61824e-07
-0.00486293 0.0330481 1.42928e-08
-1.61824e-07 1.42928e-08 0.0337407

0.0290805 0.00359981 -1.19219e-07
0.00359981 0.0313588 -2.01995e-08
-1.19219e-07 -2.01995e-08 0.0302631

0.0181051 0.000282829 -4.78647e-08
0.000282829 0.0293097 1.89446e-07
-4.78647e-08 1.89446e-07 0.0168779

0.0278423 0.00442356 -1.03309e-07
0.00442356 0.0209676 1.00523e-07
-1.03309e-07 1.00523e-07 0.0174542

0.0291902 -0.00302018 8.86038e-08
-0.00302018 0.0327023 1.0872e-07
8.86038e-08 1.0872e-07 0.0321844

0.0352413 0.000759801 -1.98884e-08
0.000759801 0.0273377 8.79039e-08
-1.98884e-08 8.79039e-08 0.0325518

0.0294261 0.00351999 -1.43027e-07
0.00351999 0.0252004 1.02949e-07
-1.43027e-07 1.02949e-07 0.0231104

0.0396358 0.00171029 -1.18835e-07
0.00171029 0.0390391 -3.4951e-08
-1.18835e-07 -3.4951e-08 0.0359392

0.028374 0.00312324 -1.29606e-07
0.00312324 0.0224008 1.98127e-07
-1.29606e-07 1.98127e-07 0.0182858

0.039488 -0.00175078 5.20505e-08
-0.00175078 0.0390648 3.93434e-08
5.20505e-08 3.93434e-08 0.0359043

0.0232602 0.000103507 9.26868e-10
0.000103507 0.0315167 -2.43465e-07
9.26868e-10 -2.43465e-07 0.0231188

0.0327574 -0.00028833 -1.34503e-07
-0.00028833 0.0246592 -1.99629e-07
-1.34503e-07 -1.99629e-07 0.0269653

0.0380539 -0.00212922 -6.15468e-08
-0.00212922 0.0304627 8.99486e-08
-6.15468e-08 8.99486e-08 0.0347923

0.0292372 0.00320588 -7.84439e-08
0.00320588 0.033277 9.37763e-08
-7.84439e-08 9.37763e-08 0.0333418

0.0289494 -0.00177248 -2.33016e-07
-0.00177248 0.0366083 -1.47667e-08
-2.33016e-07 -1.47667e-08 0.0334986

0.0365824 -0.0010848 -9.752e-08
-0.0010848 0.0264752 -1.43792e-08
-9.752e-08 -1.43792e-08 0.033859

0.0311793 -0.00292579 1.47268e-07
-0.00292579 0.0383053 -8.65349e-08
1.47268e-07 -8.65349e-08 0.0348427

0.0381645 -0.000885036 -1.85637e-07
-0.000885036 0.0387309 9.14272e-08
-1.85637e-07 9.14272e-08 0.0358344

0.0301785 -0.00393969 4.9241e-08
-0.00393969 0.0327096 1.08935e-07
4.9241e-08 1.08935e-07 0.0327622

0.021332 0.00146929 -8.93644e-09
0.00146929 0.0296124 2.11976e-07
-8.93644e-09 2.11976e-07 0.0182949

0.0293868 -0.00364558 7.02611e-08
-0.00364558 0.0253484 -3.33654e-08
7.02611e-08 -3.33654e-08 0.0231811

0.0328586 -0.0018169 -1.69666e-07
-0.0018169 0.0397168 -1.02408e-07
-1.69666e-07 -1.02408e-07 0.03524

0.03509 7.67424e-05 -4.6053e-09
7.67424e-05 0.027221 8.92806e-08
-4.6053e-09 8.92806e-08 0.0332501

0.0308173 -0.00282894 -2.32623e-07
-0.00282894 0.0348906 -1.56483e-08
-2.32623e-07 -1.56483e-08 0.034083

0.0295331 0.00338865 -6.01058e-08
0.00338865 0.0328704 7.6063e-08
-6.01058e-08 7.6063e-08 0.0333249

0.0264593 -0.00406296 -1.01381e-07
-0.00406296 0.0272607 -6.68813e-08
-1.01381e-07 -6.68813e-08 0.0215836

0.0371718 -0.000958388 -3.88506e-08
-0.000958388 0.0416093 -9.41807e-08
-3.88506e-08 -9.41807e-08 0.0358856

0.0227102 -0.00423742 -8.18325e-08
-0.00423742 0.0272426 2.29871e-08
-8.18325e-08 2.29871e-08 0.0168767

0.0341818 -0.00252475 -6.33272e-09
-0.00252475 0.0286054 -2.31189e-07
-6.33272e-09 -2.31189e-07 0.0310434

0.0364245 0.000289876 1.19918e-07
0.000289876 0.0294364 4.11892e-08
1.19918e-07 4.11892e-08 0.0341927

0.0396399 0.00239652 3.08132e-09
0.00239652 0.0391129 6.78663e-08
3.08132e-09 6.78663e-08 0.0358666

0.0238554 0.00260904 2.0054e-07
0.00260904 0.0301503 -1.18464e-07
2.0054e-07 -1.18464e-07 0.0217979

0.0334297 0.00358129 -3.98956e-08
0.00358129 0.0307141 8.15832e-08
-3.98956e-08 8.15832e-08 0.0317662

0.0316419 -0.00319427 -7.97763e-08
-0.00319427 0.026551 -6.54122e-08
-7.97763e-08 -6.54122e-08 0.0269344

0.0289281 -0.00234088 -2.01938e-07
-0.00234088 0.0342333 5.2512e-08
-2.01938e-07 5.2512e-08 0.0326048

0.0262435 0.00450133 2.80455e-07
0.00450133 0.0245567 -5.34858e-08
2.80455e-07 -5.34858e-08 0.0180804

0.0284216 -0.0028669 2.56426e-08
-0.0028669 0.034031 3.56399e-08
2.56426e-08 3.56399e-08 0.0324479

0.0331478 0.0040589 -5.0041e-08
0.0040589 0.0304637 1.13068e-07
-5.0041e-08 1.13068e-07 0.0315412

0.0333336 -0.00331156 -1.03556e-07
-0.00331156 0.0283559 7.76313e-09
-1.03556e-07 7.76313e-09 0.0300448

0.0291599 -0.00329526 -5.22948e-08
-0.00329526 0.0319864 -3.85267e-08
-5.22948e-08 -3.85267e-08 0.0304363

0.0314539 -0.00242908 -5.45817e-08
-0.00242908 0.0247179 -1.01877e-07
-5.45817e-08 -1.01877e-07 0.0251553

0.0329545 -0.00246663 -5.46727e-08
-0.00246663 0.0267085 -6.24473e-08
-5.46727e-08 -6.24473e-08 0.0285955

0.0294902 -0.00334192 1.18659e-07
-0.00334192 0.0329492 -2.41136e-08
1.18659e-07 -2.41136e-08 0.0334063

0.0261329 0.00463357 2.31308e-07
0.00463357 0.0255403 1.0015e-07
2.31308e-07 1.0015e-07 0.0210916

0.0281489 0.00201648 6.38203e-08
0.00201648 0.0343344 -1.19732e-09
6.38203e-08 -1.19732e-09 0.0311083

0.0308852 0.00348111 4.05209e-08
0.00348111 0.0322542 -6.64277e-08
4.05209e-08 -6.64277e-08 0.0325992

0.029156 0.00334804 -8.26389e-08
0.00334804 0.0331908 -7.11408e-08
-8.26389e-08 -7.11408e-08 0.0332593

0.0289831 0.00152276 5.56533e-10
0.00152276 0.0354695 9.2946e-08
5.56533e-10 9.2946e-08 0.0326945

0.0310517 -0.00106171 4.26476e-08
-0.00106171 0.0231406 6.13971e-08
4.26476e-08 6.13971e-08 0.0220772

0.023883 0.00240543 -1.84106e-07
0.00240543 0.0304096 -1.21105e-07
-1.84106e-07 -1.21105e-07 0.0221122

0.0292124 -0.00320376 -1.63663e-08
-0.00320376 0.0326356 -1.36007e-08
-1.63663e-08 -1.36007e-08 0.0316174

0.0289866 0.00335659 1.85412e-08
0.00335659 0.0309316 1.33967e-07
1.85412e-08 1.33967e-07 0.028567

0.0266118 -0.0045911 1.66147e-07
-0.0045911 0.0252296 -2.65857e-08
1.66147e-07 -2.65857e-08 0.0212558

0.026277 0.00489321 2.92084e-07
0.00489321 0.0209456 -1.00676e-07
2.92084e-07 -1.00676e-07 0.0167617

0.023502 -0.00428665 7.68012e-09
-0.00428665 0.0274634 -4.6861e-08
7.68012e-09 -4.6861e-08 0.0206256

0.026671 -0.00402732 1.60688e-07
-0.00402732 0.0274814 -3.92691e-08
1.60688e-07 -3.92691e-08 0.0220492

0.0353638 -0.000906624 -8.75859e-08
-0.000906624 0.0273894 -6.41701e-08
-8.75859e-08 -6.41701e-08 0.0326541

0.0260443 0.0039214 1.17955e-07
0.0039214 0.0280912 1.20396e-08
1.17955e-07 1.20396e-08 0.0221017

0.030787 0.00171645 4.80387e-08
0.00171645 0.0233596 -6.9193e-09
4.80387e-08 -6.9193e-09 0.0220248

0.0214302 0.00172191 -1.14025e-07
0.00172191 0.0302399 -1.07945e-07
-1.14025e-07 -1.07945e-07 0.021132

0.024262 -0.00288928 -6.78144e-08
-0.00288928 0.0299507 -2.10525e-07
-6.78144e-08 -2.10525e-07 0.0220854

0.0313452 -0.000131211 1.95047e-07
-0.000131211 0.0392735 -8.77342e-08
1.95047e-07 -8.77342e-08 0.0346703

0.0230576 0.000294619 -2.39782e-07
0.000294619 0.0314594 4.7254e-08
-2.39782e-07 4.7254e-08 0.0230615

0.0227765 0.00400124 -2.61333e-07
0.00400124 0.0281263 -1.90978e-08
-2.61333e-07 -1.90978e-08 0.0206374

0.0288877 0.00158559 1.42304e-07
0.00158559 0.0358322 -3.3508e-08
1.42304e-07 -3.3508e-08 0.032893

0.0293151 -0.00358004 -1.47103e-07
-0.00358004 0.0251288 2.74106e-08
-1.47103e-07 2.74106e-08 0.023239

0.0369764 0.002733 1.84979e-07
0.002733 0.0297227 1.32641e-07
1.84979e-07 1.32641e-07 0.0338013

0.0371757 0.00348335 1.08533e-07
0.00348335 0.0334225 1.65644e-08
1.08533e-07 1.65644e-08 0.0346518

0.0345433 -0.00244636 -1.66643e-08
-0.00244636 0.0285292 1.72037e-08
-1.66643e-08 1.72037e-08 0.0313783

0.0390566 -0.00026551 4.93736e-08
-0.00026551 0.0339245 3.01595e-07
4.93736e-08 3.01595e-07 0.0352078

0.0314785 -0.00418762 -1.47674e-07
-0.00418762 0.0317811 -1.78912e-08
-1.47674e-07 -1.78912e-08 0.0321558

0.0294612 0.00300745 -1.03734e-07
0.00300745 0.0223268 2.03252e-07
-1.03734e-07 2.03252e-07 0.021066

0.030229 0.00397294 -4.85435e-08
0.00397294 0.0326627 9.72487e-08
-4.85435e-08 9.72487e-08 0.0327195

0.0302769 0.00384689 1.56191e-07
0.00384689 0.0326062 -7.29925e-08
1.56191e-07 -7.29925e-08 0.0326742

0.0262436 0.00396156 1.60353e-07
0.00396156 0.0277668 2.40976e-07
1.60353e-07 2.40976e-07 0.0218643

0.0344498 0.00357644 -1.87411e-07
0.00357644 0.0317793 3.53778e-08
-1.87411e-07 3.53778e-08 0.0328311

0.0302478 0.000452427 6.48708e-08
0.000452427 0.0204279 2.86067e-08
6.48708e-08 2.86067e-08 0.0205728

0.0331857 0.00420068 -1.48846e-08
0.00420068 0.0323724 -7.18754e-08
-1.48846e-08 -7.18754e-08 0.0334834

0.0305006 -0.00165468 2.39384e-07
-0.00165468 0.0366159 7.18932e-09
2.39384e-07 7.18932e-09 0.0336624

0.0373595 0.00323272 -8.95465e-08
0.00323272 0.0334595 1.4817e-07
-8.95465e-08 1.4817e-07 0.0346639

0.030737 -0.00389602 3.0802e-08
-0.00389602 0.0322728 -7.34343e-08
3.0802e-08 -7.34343e-08 0.0326798

0.0293737 -0.00064473 -8.97233e-08
-0.00064473 0.0369025 1.93571e-08
-8.97233e-08 1.93571e-08 0.0328474

0.0288118 -0.00315224 -9.81405e-08
-0.00315224 0.0221395 -1.63817e-07
-9.81405e-08 -1.63817e-07 0.0187586

0.029002 0.00384431 7.87163e-08
0.00384431 0.0255773 1.04099e-07
7.87163e-08 1.04099e-07 0.0230724

0.0217009 0.00189083 -1.32715e-07
0.00189083 0.0300605 -1.41624e-07
-1.32715e-07 -1.41624e-07 0.0210834

0.0349895 -0.000161456 1.07534e-07
-0.000161456 0.0273891 -6.42506e-08
1.07534e-07 -6.42506e-08 0.0333011

0.034419 2.39147e-07 -9.571e-08
2.39147e-07 0.0272742 -4.89787e-08
-9.571e-08 -4.89787e-08 0.0320407

0.0291652 0.00303993 -1.36868e-07
0.00303993 0.032679 -6.01349e-08
-1.36868e-07 -6.01349e-08 0.0321322

0.0314496 0.00316638 -1.51251e-08
0.00316638 0.03425 -7.23311e-08
-1.51251e-08 -7.23311e-08 0.0340578

0.0291683 -0.0032044 1.19617e-07
-0.0032044 0.0332379 -6.21756e-08
1.19617e-07 -6.21756e-08 0.0333785

0.0287734 -8.55134e-05 9.1776e-08
-8.55134e-05 0.0367045 1.93394e-07
9.1776e-08 1.93394e-07 0.0325252

0.0294637 0.00337588 1.33224e-07
0.00337588 0.0330743 -1.08418e-07
1.33224e-07 -1.08418e-07 0.0333542

0.032859 -0.00134633 -1.65153e-08
-0.00134633 0.0253613 1.80654e-07
-1.65153e-08 1.80654e-07 0.0278285

0.0263544 -0.00425417 -1.46288e-07
-0.00425417 0.0281792 6.7287e-09
-1.46288e-07 6.7287e-09 0.0242671

0.0362974 -0.00033138 7.48282e-08
-0.00033138 0.0293827 -1.3935e-07
7.48282e-08 -1.3935e-07 0.0340275

0.0267804 -0.00444537 -4.5083e-08
-0.00444537 0.0251899 2.39277e-08
-4.5083e-08 2.39277e-08 0.0209488

0.0308991 0.00250711 -2.48664e-08
0.00250711 0.035063 1.00768e-07
-2.48664e-08 1.00768e-07 0.0340674

0.0351128 -0.00349687 1.1105e-08
-0.00349687 0.0303878 -2.36702e-08
1.1105e-08 -2.36702e-08 0.0326144

0.0305016 -0.00124978 -1.06567e-07
-0.00124978 0.0229781 -1.26356e-07
-1.06567e-07 -1.26356e-07 0.021478

0.0371473 -0.00307701 1.95541e-07
-0.00307701 0.0316532 -2.44013e-09
1.95541e-07 -2.44013e-09 0.0339876

0.0349691 0.000321979 4.15586e-08
0.000321979 0.0275543 -3.10884e-08
4.15586e-08 -3.10884e-08 0.0334295

0.035843 -0.00308842 2.77925e-07
-0.00308842 0.0332574 8.70792e-08
2.77925e-07 8.70792e-08 0.0341431

0.0349283 -0.00341052 -1.68307e-07
-0.00341052 0.0295944 -8.59389e-08
-1.68307e-07 -8.59389e-08 0.0321777

0.0349088 -0.00113367 2.0308e-08
-0.00113367 0.0278497 1.10791e-07
2.0308e-08 1.10791e-07 0.032341

0.0314895 -0.00306235 -7.40282e-08
-0.00306235 0.0344483 -1.60786e-07
-7.40282e-08 -1.60786e-07 0.0341461

0.0292346 -0.00407078 -5.61651e-08
-0.00407078 0.0268992 1.49885e-07
-5.61651e-08 1.49885e-07 0.0253458

0.0349924 -0.00324354 -1.43426e-07
-0.00324354 0.0299148 1.21578e-08
-1.43426e-07 1.21578e-08 0.0321948

0.031462 0.00140902 -3.67844e-08
0.00140902 0.0233267 -1.12371e-08
-3.67844e-08 -1.12371e-08 0.0244833

0.0336644 0.00348407 -6.33724e-08
0.00348407 0.0334438 3.20813e-09
-6.33724e-08 3.20813e-09 0.0336496

0.029892 -0.0049677 -1.28139e-09
-0.0049677 0.033078 -1.93495e-08
-1.28139e-09 -1.93495e-08 0.0338568

0.0300428 0.00492024 8.38898e-08
0.00492024 0.0329397 -1.06332e-07
8.38898e-08 -1.06332e-07 0.0338237

0.0276873 -0.00374173 4.15066e-08
-0.00374173 0.0348067 5.26702e-13
4.15066e-08 5.26702e-13 0.0337663

0.0279253 0.00354715 -4.97492e-08
0.00354715 0.0348343 -1.14921e-07
-4.97492e-08 -1.14921e-07 0.0337311

0.0364292 -0.00115384 1.13854e-07
-0.00115384 0.0263413 -7.54837e-08
1.13854e-07 -7.54837e-08 0.0337574

0.0361981 0.00124754 -4.23858e-08
0.00124754 0.0265627 -2.29081e-16
-4.23858e-08 -2.29081e-16 0.0337202

0.035034 -0.0013067 -4.83273e-09
-0.0013067 0.0284676 6.5986e-08
-4.83273e-09 6.5986e-08 0.0325754

0.034436 0.00425922 4.19076e-08
0.00425922 0.0342891 -7.13368e-08
4.19076e-08 -7.13368e-08 0.0348121

0.0343118 -0.00435709 2.04419e-07
-0.00435709 0.0342806 2.01359e-08
2.04419e-07 2.01359e-08 0.0348005

0.0305203 0.00209362 4.70231e-08
0.00209362 0.0381647 -4.0893e-08
4.70231e-08 -4.0893e-08 0.0348493

0.0306637 -0.00205948 -2.11817e-07
-0.00205948 0.0380948 2.14489e-08
-2.11817e-07 2.14489e-08 0.0348366

0.0395016 -0.000528963 3.68149e-08
-0.000528963 0.0328492 7.7463e-08
3.68149e-08 7.7463e-08 0.0352575

0.0397044 0.000513303 -4.28211e-08
0.000513303 0.0326215 1.55042e-07
-4.28211e-08 1.55042e-07 0.0353027

0.0239647 0.00127587 -1.5234e-07
0.00127587 0.0320025 2.08939e-07
-1.5234e-07 2.08939e-07 0.0251839

0.0311616 -0.00326516 -1.21834e-07
-0.00326516 0.0322401 -1.75041e-07
-1.21834e-07 -1.75041e-07 0.0328014

0.0277795 -0.00478561 9.78541e-08
-0.00478561 0.0333113 -6.16797e-08
9.78541e-08 -6.16797e-08 0.0334548

0.0333581 -0.000610526 -4.9716e-08
-0.000610526 0.0264027 1.22026e-07
-4.9716e-08 1.22026e-07 0.0284478

0.0381874 -0.00225195 -5.29442e-08
-0.00225195 0.0307939 -7.55639e-08
-5.29442e-08 -7.55639e-08 0.0348923

0.0382356 0.00218392 7.78775e-08
0.00218392 0.0309071 -2.51887e-08
7.78775e-08 -2.51887e-08 0.0349245

0.0360837 1.56217e-05 -1.8421e-08
1.56217e-05 0.0251253 7.54634e-08
-1.8421e-08 7.54634e-08 0.0334698

0.0242406 0.00302877 2.61246e-07
0.00302877 0.0303971 -8.61944e-09
2.61246e-07 -8.61944e-09 0.0242767

0.0276735 0.00475637 2.80029e-08
0.00475637 0.0333122 -6.64828e-08
2.80029e-08 -6.64828e-08 0.0333926

0.0286741 -0.00307588 5.56813e-08
-0.00307588 0.0342602 4.7824e-08
5.56813e-08 4.7824e-08 0.0327519

0.0310851 0.00303564 -1.66548e-09
0.00303564 0.0251463 1.10454e-07
-1.66548e-09 1.10454e-07 0.0254668

0.0372278 0.00316562 -5.78881e-08
0.00316562 0.0315404 5.88442e-08
-5.78881e-08 5.88442e-08 0.0340755

0.0292263 -0.00406718 -4.83018e-08
-0.00406718 0.0269352 -1.32687e-07
-4.83018e-08 -1.32687e-07 0.025321

0.0364011 -0.00045368 -9.42561e-08
-0.00045368 0.029691 -7.86131e-09
-9.42561e-08 -7.86131e-09 0.0341306

0.0273439 -0.0044949 5.68315e-09
-0.0044949 0.0333947 5.48381e-08
5.68315e-09 5.48381e-08 0.0334414

0.0240375 0.00107897 1.99748e-07
0.00107897 0.0322437 1.64499e-07
1.99748e-07 1.64499e-07 0.0255055

0.0242293 0.0028264 -1.11514e-07
0.0028264 0.0307012 2.55948e-08
-1.11514e-07 2.55948e-08 0.0245446

0.0267918 0.00459421 4.22434e-08
0.00459421 0.0240415 -1.73288e-07
4.22434e-08 -1.73288e-07 0.0182133

0.0298505 0.000199936 -8.3329e-08
0.000199936 0.0200881 -1.60774e-07
-8.3329e-08 -1.60774e-07 0.0193621

0.031908 -0.00302394 -1.45543e-07
-0.00302394 0.0341619 3.6363e-08
-1.45543e-07 3.6363e-08 0.0340353

0.0229184 0.0039995 -1.93959e-07
0.0039995 0.0276595 1.00986e-07
-1.93959e-07 1.00986e-07 0.0176528

0.0292094 0.00310098 -1.15314e-07
0.00310098 0.0327625 -2.75886e-08
-1.15314e-07 -2.75886e-08 0.0310119

0.0315943 -0.000694463 2.16416e-07
-0.000694463 0.0231597 6.6138e-08
2.16416e-07 6.6138e-08 0.0244845

0.0327609 0.00146442 2.14615e-08
0.00146442 0.0253465 7.86842e-08
2.14615e-08 7.86842e-08 0.0276126

0.035978 5.62367e-05 9.934e-08
5.62367e-05 0.0249583 -7.90507e-08
9.934e-08 -7.90507e-08 0.0333859

0.0279654 -0.00380555 1.39701e-07
-0.00380555 0.0349488 -2.62818e-08
1.39701e-07 -2.62818e-08 0.0338156

0.0393145 -0.000843765 -2.75872e-07
-0.000843765 0.0416019 1.11294e-07
-2.75872e-07 1.11294e-07 0.0361898

0.0298678 0.00493914 -9.77924e-08
0.00493914 0.032956 7.50525e-08
-9.77924e-08 7.50525e-08 0.0337787

0.0302876 0.000214499 -1.36941e-07
0.000214499 0.0203965 1.52997e-08
-1.36941e-07 1.52997e-08 0.0172759

0.0266734 -0.00425019 1.26647e-07
-0.00425019 0.0281328 1.13219e-08
1.26647e-07 1.13219e-08 0.0244371

0.0277458 0.00481589 1.74533e-08
0.00481589 0.033315 9.49112e-08
1.74533e-08 9.49112e-08 0.0334549

0.0279447 -0.00145863 1.74587e-07
-0.00145863 0.0350844 -3.53578e-08
1.74587e-07 -3.53578e-08 0.0314499

0.0244647 -0.00330506 5.64153e-08
-0.00330506 0.0300149 2.67939e-07
5.64153e-08 2.67939e-07 0.0242167

0.0279903 0.00377966 -8.48645e-08
0.00377966 0.0349101 1.04635e-07
-8.48645e-08 1.04635e-07 0.0337865

0.0313613 -0.00340939 1.90277e-08
-0.00340939 0.0270082 1.57475e-07
1.90277e-08 1.57475e-07 0.026991

0.0402795 0.00140837 -1.06509e-07
0.00140837 0.0406172 2.56214e-07
-1.06509e-07 2.56214e-07 0.0361702

0.0258809 0.00400292 8.9331e-08
0.00400292 0.0289541 -4.14604e-08
8.9331e-08 -4.14604e-08 0.0245107

0.0366777 0.00110279 1.0687e-07
0.00110279 0.0263518 6.11139e-08
1.0687e-07 6.11139e-08 0.0338974

0.0333417 0.00398409 2.14302e-08
0.00398409 0.0321153 -5.83545e-08
2.14302e-08 -5.83545e-08 0.0333154

0.0292278 0.0030672 -6.92897e-08
0.0030672 0.032605 9.65237e-08
-6.92897e-08 9.65237e-08 0.0321573

0.0343642 -0.00431085 -5.22364e-08
-0.00431085 0.0345049 -1.61405e-07
-5.22364e-08 -1.61405e-07 0.0348846

0.0354895 -0.00306329 6.16242e-08
-0.00306329 0.0305898 7.93301e-08
6.16242e-08 7.93301e-08 0.0327501

0.0333663 0.00138753 2.37246e-07
0.00138753 0.0395772 -9.49824e-08
2.37246e-07 -9.49824e-08 0.0350022

0.0291967 -0.00307902 -1.75987e-08
-0.00307902 0.0328734 2.77906e-07
-1.75987e-08 2.77906e-07 0.031383

0.0292643 -0.00123217 9.71237e-08
-0.00123217 0.0192869 -1.0663e-07
9.71237e-08 -1.0663e-07 0.016412

0.0287779 -0.00183231 -1.71693e-07
-0.00183231 0.0184138 -5.7304e-08
-1.71693e-07 -5.7304e-08 0.0161969

0.0385287 0.00220192 2.49779e-08
0.00220192 0.0332388 -6.53628e-08
2.49779e-08 -6.53628e-08 0.0347627

0.0280557 0.00294506 1.37036e-07
0.00294506 0.032335 1.95958e-07
1.37036e-07 1.95958e-07 0.0295179

0.0320666 0.00383429 2.24535e-07
0.00383429 0.0309605 -5.44528e-08
2.24535e-07 -5.44528e-08 0.0314542

0.0320493 9.0034e-05 7.79392e-08
9.0034e-05 0.0245767 -2.25369e-07
7.79392e-08 -2.25369e-07 0.0248878

0.0302375 0.000866333 -1.03831e-07
0.000866333 0.038581 -1.9912e-08
-1.03831e-07 -1.9912e-08 0.0340961

0.0354016 0.00219144 -7.06923e-08
0.00219144 0.0293227 -9.6241e-08
-7.06923e-08 -9.6241e-08 0.0328581

0.0248112 -0.00333889 -1.08133e-07
-0.00333889 0.030006 -1.47815e-07
-1.08133e-07 -1.47815e-07 0.0244699

0.0286505 -0.000337967 9.9146e-09
-0.000337967 0.0366572 1.85526e-07
9.9146e-09 1.85526e-07 0.0323956

0.0252151 0.00174 1.20005e-07
0.00174 0.0320292 2.17211e-07
1.20005e-07 2.17211e-07 0.0256838

0.0332803 -0.00390963 -2.43216e-08
-0.00390963 0.0304967 7.41207e-08
-2.43216e-08 7.41207e-08 0.0315922

0.0290647 -0.0038959 2.68696e-08
-0.0038959 0.0282 1.24911e-08
2.68696e-08 1.24911e-08 0.0257134

0.0261489 0.0040988 -9.81276e-08
0.0040988 0.0285462 -2.15296e-07
-9.81276e-08 -2.15296e-07 0.024318

0.0452876 -0.00201775 -1.38159e-07
-0.00201775 0.0396055 -1.51504e-07
-1.38159e-07 -1.51504e-07 0.0363667

0.0316666 0.000256566 6.5489e-08
0.000256566 0.0393271 -1.15855e-07
6.5489e-08 -1.15855e-07 0.0347689

0.0306163 0.002651 -3.51066e-08
0.002651 0.0384425 3.99537e-08
-3.51066e-08 3.99537e-08 0.0349575

0.0387654 0.00209474 -1.63731e-07
0.00209474 0.0302214 3.59845e-08
-1.63731e-07 3.59845e-08 0.0349423

0.0313709 -0.00345069 1.627e-08
-0.00345069 0.0321405 -9.58099e-08
1.627e-08 -9.58099e-08 0.0325725

0.0318178 0.00233599 1.28595e-08
0.00233599 0.0256201 8.91472e-08
1.28595e-08 8.91472e-08 0.0258795

0.0349937 -0.00070874 3.09166e-08
-0.00070874 0.0415753 3.06567e-07
3.09166e-08 3.06567e-07 0.0357275

0.0357877 -0.00251849 1.29218e-07
-0.00251849 0.0295499 -1.41322e-07
1.29218e-07 -1.41322e-07 0.0332578

0.0332969 -0.00203985 -4.56247e-08
-0.00203985 0.0266525 -3.9305e-08
-4.56247e-08 -3.9305e-08 0.0286752

0.0252521 0.00151086 -1.88181e-07
0.00151086 0.032274 1.5018e-07
-1.88181e-07 1.5018e-07 0.0259498

0.0268044 -0.00334442 -8.374e-09
-0.00334442 0.0300092 2.65888e-07
-8.374e-09 2.65888e-07 0.0251871

0.0364772 -0.00336028 8.82717e-08
-0.00336028 0.0352875 2.06379e-07
8.82717e-08 2.06379e-07 0.0347421

0.0284753 0.00415205 1.49624e-07
0.00415205 0.0277157 1.05468e-07
1.49624e-07 1.05468e-07 0.0254675

0.0372435 -0.00334561 -3.18543e-08
-0.00334561 0.0333222 8.2998e-08
-3.18543e-08 8.2998e-08 0.0346114

0.0322059 0.000337894 8.2553e-08
0.000337894 0.0248624 -1.94348e-07
8.2553e-08 -1.94348e-07 0.0254373

0.0191608 -0.00368899 4.64171e-08
-0.00368899 0.0275255 2.54515e-07
4.64171e-08 2.54515e-07 0.0163107

0.0292094 -0.00380326 -1.29928e-07
-0.00380326 0.0281924 -1.16152e-08
-1.29928e-07 -1.16152e-08 0.0258075

0.0230457 0.00412731 -2.04485e-07
0.00412731 0.02802 -1.49678e-07
-2.04485e-07 -1.49678e-07 0.0175919

0.0296908 -0.00155929 1.32764e-07
-0.00155929 0.0375332 7.49466e-08
1.32764e-07 7.49466e-08 0.0336483

0.0243598 -0.00179355 -1.765e-07
-0.00179355 0.0318722 2.46417e-07
-1.765e-07 2.46417e-07 0.0254477

0.0424378 -0.0032341 -7.83221e-08
-0.0032341 0.0423769 -6.16672e-08
-7.83221e-08 -6.16672e-08 0.0363751

0.0263365 0.00309101 4.71236e-08
0.00309101 0.0307014 2.56619e-08
4.71236e-08 2.56619e-08 0.0254776

0.0334768 -0.00432359 -1.13588e-08
-0.00432359 0.032659 -2.34151e-08
-1.13588e-08 -2.34151e-08 0.0335661

0.0240803 -0.00155072 4.77814e-08
-0.00155072 0.0318865 8.08843e-09
4.77814e-08 8.08843e-09 0.0251765

0.0362222 -0.00253867 4.1101e-08
-0.00253867 0.0295106 -1.99331e-09
4.1101e-08 -1.99331e-09 0.033519

0.026673 0.00310467 -2.30054e-07
0.00310467 0.0303941 -7.66777e-10
-2.30054e-07 -7.66777e-10 0.0253128

0.0343426 -0.000653742 6.78888e-08
-0.000653742 0.0272763 -1.76338e-08
6.78888e-08 -1.76338e-08 0.0305772

0.0188902 -0.00387152 1.33083e-07
-0.00387152 0.0298015 5.37433e-08
1.33083e-07 5.37433e-08 0.0129611

0.0279987 0.00275439 1.03294e-07
0.00275439 0.0326279 -5.40826e-08
1.03294e-07 -5.40826e-08 0.0305731

0.0314366 -0.00251228 3.76018e-08
-0.00251228 0.0247218 -1.51038e-08
3.76018e-08 -1.51038e-08 0.0254055

0.0391175 -0.00286931 -2.97355e-07
-0.00286931 0.0322209 1.88532e-07
-2.97355e-07 1.88532e-07 0.0349363

0.0287525 0.00412374 -1.19447e-08
0.00412374 0.0272995 -5.33556e-08
-1.19447e-08 -5.33556e-08 0.025255

0.0313608 -0.00391915 4.33691e-08
-0.00391915 0.0285412 1.21207e-07
4.33691e-08 1.21207e-07 0.0287303

0.0354076 0.00276417 -2.11574e-08
0.00276417 0.0308551 2.13014e-07
-2.11574e-08 2.13014e-07 0.0330385

0.0297724 -0.00370347 -4.73087e-08
-0.00370347 0.0329369 8.79403e-09
-4.73087e-08 8.79403e-09 0.0333416

0.0270543 -0.00341015 5.71467e-08
-0.00341015 0.0299819 -1.3525e-07
5.71467e-08 -1.3525e-07 0.0253968

0.0284398 0.00377103 2.44745e-07
0.00377103 0.028939 -3.71368e-08
2.44745e-07 -3.71368e-08 0.0258866

0.0313704 0.00341324 -1.08368e-07
0.00341324 0.0268986 1.407e-07
-1.08368e-07 1.407e-07 0.0269653

0.0365351 -0.00194421 3.16447e-08
-0.00194421 0.0306243 -2.20709e-08
3.16447e-08 -2.20709e-08 0.0336348

0.025533 -0.00216324 9.68329e-08
-0.00216324 0.0318009 2.69753e-07
9.68329e-08 2.69753e-07 0.025853

0.0346983 -0.00231407 5.1393e-09
-0.00231407 0.0283334 6.65881e-08
5.1393e-09 6.65881e-08 0.031455

0.0341849 0.00222281 -3.85069e-08
0.00222281 0.027431 -1.8772e-07
-3.85069e-08 -1.8772e-07 0.0306029

0.0336442 -0.0012457 -4.11377e-08
-0.0012457 0.0392993 -8.49929e-08
-4.11377e-08 -8.49929e-08 0.0349265

0.032071 -0.0017465 1.43191e-07
-0.0017465 0.0253295 1.86939e-07
1.43191e-07 1.86939e-07 0.0258703

0.025001 7.95848e-05 -2.6338e-08
7.95848e-05 0.0331502 3.63718e-09
-2.6338e-08 3.63718e-09 0.0268603

0.0332462 0.00242862 -4.89999e-08
0.00242862 0.0271928 -3.46156e-08
-4.89999e-08 -3.46156e-08 0.0289211

0.0311165 0.0035987 -9.79338e-09
0.0035987 0.0272916 9.42258e-08
-9.79338e-09 9.42258e-08 0.0271217

0.0252945 -0.00204114 -8.75972e-08
-0.00204114 0.0318632 4.97083e-09
-8.75972e-08 4.97083e-09 0.0256102

0.0252003 -0.00015461 1.34534e-07
-0.00015461 0.0332905 2.65366e-07
1.34534e-07 2.65366e-07 0.0271431

0.0354121 0.00385791 5.81336e-08
0.00385791 0.0329947 -6.79522e-08
5.81336e-08 -6.79522e-08 0.0338945

0.0275847 -0.00143071 -4.03066e-08
-0.00143071 0.0353405 -9.60369e-08
-4.03066e-08 -9.60369e-08 0.031441

0.0312326 -0.00348367 -7.46141e-08
-0.00348367 0.0269765 -1.33893e-07
-7.46141e-08 -1.33893e-07 0.0270089

0.0312955 0.00277246 -1.23777e-07
0.00277246 0.0249212 1.13744e-07
-1.23777e-07 1.13744e-07 0.0252453

0.0345817 0.00311817 7.37989e-09
0.00311817 0.0293856 -1.02991e-07
7.37989e-09 -1.02991e-07 0.0317948

0.0279903 0.000716649 1.92542e-08
0.000716649 0.0360385 4.37642e-08
1.92542e-08 4.37642e-08 0.0318171

0.0287152 0.00378116 8.66934e-08
0.00378116 0.0285582 -2.19409e-07
8.66934e-08 -2.19409e-07 0.025727

0.0367899 0.00305742 -1.01184e-08
0.00305742 0.0361247 2.25855e-07
-1.01184e-08 2.25855e-07 0.0349061

0.0226794 -0.00754497 2.20912e-07
-0.00754497 0.0186872 -3.5741e-07
2.20912e-07 -3.5741e-07 0.0108448

0.03329 -0.0032873 -5.10545e-08
-0.0032873 0.0286312 1.13676e-07
-5.10545e-08 1.13676e-07 0.0301229

0.0207261 0.000913265 -7.94e-08
0.000913265 0.0300301 -3.58527e-08
-7.94e-08 -3.58527e-08 0.0183458

0.0312992 -0.00378159 -1.05013e-07
-0.00378159 0.0292301 -1.4411e-07
-1.05013e-07 -1.4411e-07 0.0290305

0.00153952 -0.00651859 -1.46957e-08
-0.00651859 0.0275675 6.43859e-08
-1.46957e-08 6.43859e-08 0.00290823

0.00146992 0.00636819 9.18415e-09
0.00636819 0.0275856 4.02384e-08
9.18415e-09 4.02384e-08 0.00300118

0.0119843 0.0145046 -6.11889e-08
0.0145046 0.017532 -7.67285e-08
-6.11889e-08 -7.67285e-08 0.00277111

0.0121656 -0.0144953 -6.49214e-08
-0.0144953 0.0172235 8.14089e-08
-6.49214e-08 8.14089e-08 0.00280372

0.02934 -0.000164084 -6.96146e-08
-0.000164084 0 0
-6.96146e-08 0 0.00295253

0.0235915 -0.0112823 1.31254e-07
-0.0112823 0.00539531 -6.32084e-08
1.31254e-07 -6.32084e-08 0.00297823

0.0236335 0.0113486 -5.62891e-08
0.0113486 0.00544942 -2.71074e-08
-5.62891e-08 -2.71074e-08 0.00303939

0.0369099 0.00191149 -5.77875e-08
0.00191149 0.0302413 2.02664e-07
-5.77875e-08 2.02664e-07 0.0338769

0.0387046 0.00341008 8.81812e-09
0.00341008 0.0366167 -9.09704e-08
8.81812e-09 -9.09704e-08 0.0355777

0.0344143 0.000872328 8.16821e-08
0.000872328 0.0274559 3.44203e-08
8.16821e-08 3.44203e-08 0.031687

0.0328721 0.00285008 -1.46211e-07
0.00285008 0.0268885 1.40591e-07
-1.46211e-07 1.40591e-07 0.0286455

0.0256999 0.00231321 -7.98561e-08
0.00231321 0.0323661 -1.86692e-07
-7.98561e-08 -1.86692e-07 0.0276348

0.030712 0.00376874 -1.23972e-08
0.00376874 0.0276751 9.80819e-08
-1.23972e-08 9.80819e-08 0.0271168

0.0333047 -0.00390305 -9.43559e-08
-0.00390305 0.0304651 -2.67206e-08
-9.43559e-08 -2.67206e-08 0.0316291

0.0309725 0.00365427 1.60026e-09
0.00365427 0.0272862 -5.3254e-08
1.60026e-09 -5.3254e-08 0.0269245

0.0249864 -0.00037135 4.67274e-08
-0.00037135 0.0331213 5.98045e-09
4.67274e-08 5.98045e-09 0.0268425

0.0385475 -0.00348458 -2.33147e-07
-0.00348458 0.0368801 -5.09248e-08
-2.33147e-07 -5.09248e-08 0.0355833

0.0251748 -0.000635582 -1.80804e-07
-0.000635582 0.0332091 2.38606e-07
-1.80804e-07 2.38606e-07 0.027102

0.036017 0.00304739 6.74693e-09
0.00304739 0.0330104 6.92866e-08
6.74693e-09 6.92866e-08 0.0340973

0.0296222 0.00347555 7.99869e-08
0.00347555 0.0248456 1.01758e-07
7.99869e-08 1.01758e-07 0.0230222

0.0304954 -0.00171397 -1.91769e-07
-0.00171397 0.0375123 3.71271e-08
-1.91769e-07 3.71271e-08 0.0347358

0.0339191 0.00180443 1.3049e-07
0.00180443 0.027181 -3.29708e-08
1.3049e-07 -3.29708e-08 0.0303197

0.0312002 -0.00392038 -8.01619e-08
-0.00392038 0.0285305 -1.24994e-07
-8.01619e-08 -1.24994e-07 0.0286138

0.0315825 -0.00322127 1.06669e-08
-0.00322127 0.026691 3.01862e-08
1.06669e-08 3.01862e-08 0.0270471

0.0384791 -0.00214137 -1.55872e-07
-0.00214137 0.0334168 -1.53767e-07
-1.55872e-07 -1.53767e-07 0.0347443

0.0326801 0.00366399 -6.37427e-08
0.00366399 0.0292313 1.65778e-07
-6.37427e-08 1.65778e-07 0.0301543

0.0326438 0.00313755 -1.00706e-07
0.00313755 0.0272516 9.06824e-08
-1.00706e-07 9.06824e-08 0.0287873

0.0269545 -0.000365164 -1.46864e-07
-0.000365164 0.0349862 -3.85079e-08
-1.46864e-07 -3.85079e-08 0.0301673

0.0258991 0.000765817 -6.43733e-08
0.000765817 0.0340027 -1.64939e-07
-6.43733e-08 -1.64939e-07 0.0288224

0.0327769 0.000345346 1.18075e-07
0.000345346 0.0248612 -1.92569e-07
1.18075e-07 -1.92569e-07 0.0274432

0.0313861 -0.000944856 1.38266e-07
-0.000944856 0.0230034 -1.1574e-07
1.38266e-07 -1.1574e-07 0.0238916

0.0308801 0.00398513 2.70472e-09
0.00398513 0.0288054 -5.13246e-08
2.70472e-09 -5.13246e-08 0.0286236

0.0331174 -0.00343149 1.71e-07
-0.00343149 0.0285401 -1.22656e-07
1.71e-07 -1.22656e-07 0.0299687

0.0364117 -0.00282381 1.72261e-07
-0.00282381 0.0327326 -2.37704e-08
1.72261e-07 -2.37704e-08 0.0341435

0.0292057 -0.00412746 -4.62802e-08
-0.00412746 0.0291918 -1.39808e-07
-4.62802e-08 -1.39808e-07 0.0277533

0.0269714 -0.00362013 1.28121e-07
-0.00362013 0.0304642 3.82981e-08
1.28121e-07 3.82981e-08 0.0272129

0.0283255 0.00389932 1.67224e-07
0.00389932 0.0299003 -1.921e-07
1.67224e-07 -1.921e-07 0.0277514

0.0259008 -0.00124887 7.1981e-08
-0.00124887 0.0336133 -3.37561e-08
7.1981e-08 -3.37561e-08 0.0285154

0.026654 -0.000202183 -2.20019e-08
-0.000202183 0.0349119 -2.07326e-07
-2.20019e-08 -2.07326e-07 0.0299193

0.0277619 0.000753114 -1.08689e-07
0.000753114 0.0360379 4.47259e-08
-1.08689e-07 4.47259e-08 0.0316576

0.0262467 -0.00274944 1.70655e-07
-0.00274944 0.0319622 1.60405e-07
1.70655e-07 1.60405e-07 0.0277101

0.0345821 0.00317562 -1.33282e-07
0.00317562 0.0291677 1.61946e-07
-1.33282e-07 1.61946e-07 0.0316338

0.0339085 -0.00126116 6.79235e-08
-0.00126116 0.0269297 -1.7482e-08
6.79235e-08 -1.7482e-08 0.0302011

0.0257898 0.00097412 -7.37188e-08
0.00097412 0.033829 -8.09211e-08
-7.37188e-08 -8.09211e-08 0.0285414

0.0278235 -0.00127014 -8.73544e-08
-0.00127014 0.0353961 -1.05633e-07
-8.73544e-08 -1.05633e-07 0.0313654

0.0272924 -0.00213683 5.98361e-09
-0.00213683 0.0336564 3.17908e-09
5.98361e-09 3.17908e-09 0.0302251

0.032776 -0.00107727 -1.37443e-07
-0.00107727 0.0253195 4.55364e-08
-1.37443e-07 4.55364e-08 0.0272538

0.0333143 -0.00427121 -9.76956e-08
-0.00427121 0.0323801 -7.44943e-08
-9.76956e-08 -7.44943e-08 0.0335286

0.0264882 0.00121978 -1.44263e-07
0.00121978 0.033835 -8.18294e-08
-1.44263e-07 -8.18294e-08 0.0288155

0.0398103 -0.00243164 5.51461e-08
-0.00243164 0.0352181 2.07684e-07
5.51461e-08 2.07684e-07 0.0354606

0.0188884 0.00316448 -2.53777e-08
0.00316448 0.0278754 -1.32627e-07
-2.53777e-08 -1.32627e-07 0.0162725

0.0338152 -0.0035226 -3.59665e-08
-0.0035226 0.0334943 2.3853e-08
-3.59665e-08 2.3853e-08 0.0337256

0.0353435 -0.00399933 2.21383e-07
-0.00399933 0.0330462 -1.12198e-07
2.21383e-07 -1.12198e-07 0.0339034

0.0266853 -9.05177e-05 3.10966e-09
-9.05177e-05 0.034917 -2.06752e-07
3.10966e-09 -2.06752e-07 0.0299274

0.0332425 -0.00217636 2.38566e-08
-0.00217636 0.0271524 9.82857e-08
2.38566e-08 9.82857e-08 0.0289021

0.029347 0.00168467 -2.47861e-08
0.00168467 0.035819 -2.37174e-08
-2.47861e-08 -2.37174e-08 0.0328791

0.0132072 -0.000379031 1.46859e-07
-0.000379031 0.0283618 4.99787e-08
1.46859e-07 4.99787e-08 0.0111516

0.0271132 0.00186844 -9.93597e-08
0.00186844 0.0340608 3.04021e-09
-9.93597e-08 3.04021e-09 0.0303056

0.0311085 -0.00385832 3.20792e-08
-0.00385832 0.0291535 1.01308e-07
3.20792e-08 1.01308e-07 0.0288058

0.0186195 0.00320453 6.11208e-08
0.00320453 0.0301391 1.05956e-07
6.11208e-08 1.05956e-07 0.0131266

0.0426002 0.00351817 1.49729e-07
0.00351817 0.0418487 2.32728e-07
1.49729e-07 2.32728e-07 0.0364799

0.043206 -0.00374861 4.62607e-08
-0.00374861 0.0414168 -8.43319e-08
4.62607e-08 -8.43319e-08 0.0364623

0.0310643 -0.00399062 -1.81196e-07
-0.00399062 0.0304706 -2.45843e-08
-1.81196e-07 -2.45843e-08 0.0304604

0.0289214 -0.00406389 -2.62886e-08
-0.00406389 0.0291499 1.00659e-07
-2.62886e-08 1.00659e-07 0.0275937

0.0330502 0.00272664 6.77158e-08
0.00272664 0.0275278 -1.78164e-07
6.77158e-08 -1.78164e-07 0.0290748

0.032779 0.00195997 2.11781e-07
0.00195997 0.0255905 9.67852e-08
2.11781e-07 9.67852e-08 0.0278221

0.0463995 0.000418963 4.16889e-07
0.000418963 0.046357 -4.72623e-08
4.16889e-07 -4.72623e-08 0.0366941

0.0469206 -0.000952693 -3.74311e-07
-0.000952693 0.0457693 8.01318e-08
-3.74311e-07 8.01318e-08 0.0367652

0.0347985 0.000638512 -3.28051e-08
0.000638512 0.0275722 1.33976e-07
-3.28051e-08 1.33976e-07 0.0322158

0.0277511 0.000882354 -8.9601e-08
0.000882354 0.0355695 -1.37207e-08
-8.9601e-08 -1.37207e-08 0.0313479

0.027607 0.000882868 1.20749e-07
0.000882868 0.0355696 -7.71061e-09
1.20749e-07 -7.71061e-09 0.031244

0.0234586 0.00739971 -3.61802e-07
0.00739971 0.0183015 -1.36511e-08
-3.61802e-07 -1.36511e-08 0.0109013

0.0272462 -0.00367538 -1.09535e-08
-0.00367538 0.0303462 -3.40949e-08
-1.09535e-08 -3.40949e-08 0.0273188

0.0365662 0.00239158 6.971e-08
0.00239158 0.0295753 3.95136e-08
6.971e-08 3.95136e-08 0.0337837

0.0332728 0.00124777 2.4315e-07
0.00124777 0.0265034 3.67285e-08
2.4315e-07 3.67285e-08 0.028431

0.0291515 -0.00349239 -6.94155e-08
-0.00349239 0.0304704 2.1885e-08
-6.94155e-08 2.1885e-08 0.0281725

0.0328103 -0.00264768 -2.08928e-08
-0.00264768 0.0267272 2.91973e-08
-2.08928e-08 2.91973e-08 0.028586

0.0224596 0.00761267 1.52462e-07
0.00761267 0.01859 -2.95012e-07
1.52462e-07 -2.95012e-07 0.0109037

0.0331442 0.00410242 -3.91173e-08
0.00410242 0.0326374 8.28121e-08
-3.91173e-08 8.28121e-08 0.0331809

0.0258894 -0.00257816 -1.28784e-08
-0.00257816 0.0320227 -1.1799e-07
-1.28784e-08 -1.1799e-07 0.0275066

0.0324813 0.00378574 1.71943e-07
0.00378574 0.0292673 -1.54153e-07
1.71943e-07 -1.54153e-07 0.030146

0.0268152 -0.000543818 1.56359e-07
-0.000543818 0.0349511 -7.51275e-09
1.56359e-07 -7.51275e-09 0.030137

0.0269891 0.00256325 4.81258e-08
0.00256325 0.0324475 1.21065e-07
4.81258e-08 1.21065e-07 0.0282856

0.0305256 0.00399091 -1.52849e-07
0.00399091 0.0293223 -1.84143e-07
-1.52849e-07 -1.84143e-07 0.0287742

0.0276078 -0.00293705 7.3295e-08
-0.00293705 0.0318528 1.432e-07
7.3295e-08 1.432e-07 0.0282482

0.0294553 -0.00357559 1.64854e-08
-0.00357559 0.0303499 -3.2357e-08
1.64854e-08 -3.2357e-08 0.0283042

0.0181372 0.00142537 -5.18835e-08
0.00142537 0.0280355 -1.11808e-07
-5.18835e-08 -1.11808e-07 0.0131272

0.0234731 -0.00429381 -1.90873e-07
-0.00429381 0.0275552 2.61303e-07
-1.90873e-07 2.61303e-07 0.0177228

0.0262047 -0.00152616 9.04142e-08
-0.00152616 0.0336228 -1.55526e-07
9.04142e-08 -1.55526e-07 0.0287509

0.0330224 0.00347477 -1.4202e-07
0.00347477 0.0288768 -3.9054e-08
-1.4202e-07 -3.9054e-08 0.030068

0.030321 0.00385735 -1.28025e-07
0.00385735 0.0298856 -2.12271e-07
-1.28025e-07 -2.12271e-07 0.0289894

0.0274134 -0.00280048 4.89689e-08
-0.00280048 0.0319824 -1.13569e-07
4.89689e-08 -1.13569e-07 0.0281382

0.0265536 -0.00154051 3.11687e-08
-0.00154051 0.0335817 -3.58519e-08
3.11687e-08 -3.58519e-08 0.0287454

0.0309556 0.00371824 2.69013e-08
0.00371824 0.0295624 -9.88483e-08
2.69013e-08 -9.88483e-08 0.0289403

0.0267585 -0.00181599 3.62755e-08
-0.00181599 0.0334733 -1.67149e-07
3.62755e-08 -1.67149e-07 0.0289533

0.0191655 0.00355428 7.62785e-08
0.00355428 0.0276068 1.31286e-07
7.62785e-08 1.31286e-07 0.0162917

0.0308726 -0.000535005 1.21197e-07
-0.000535005 0.0388186 -2.46696e-07
1.21197e-07 -2.46696e-07 0.0342935

0.0286555 0.00404777 1.56309e-07
0.00404777 0.0295175 -1.13202e-07
1.56309e-07 -1.13202e-07 0.0277136

0.0355791 0.00197495 -6.9193e-08
0.00197495 0.029502 -9.90999e-08
-6.9193e-08 -9.90999e-08 0.0328417

0.0362577 -0.00211472 1.84393e-07
-0.00211472 0.0297542 -6.35271e-08
1.84393e-07 -6.35271e-08 0.0332169

0.0285095 -0.0030955 6.95007e-08
-0.0030955 0.0185685 -2.37086e-07
6.95007e-08 -2.37086e-07 0.0157294

0.0283525 -0.00278994 2.4946e-07
-0.00278994 0.0327745 1.82827e-07
2.4946e-07 1.82827e-07 0.0305706

0.0291902 0.00350058 -2.76765e-07
0.00350058 0.0315988 1.70477e-07
-2.76765e-07 1.70477e-07 0.0304864

0.0349584 -0.00290736 1.48995e-07
-0.00290736 0.0376754 2.14721e-07
1.48995e-07 2.14721e-07 0.0352352

0.0394597 0.00188524 1.17753e-07
0.00188524 0.0446079 1.76239e-07
1.17753e-07 1.76239e-07 0.0364321

0.0449431 0.00129034 -1.04215e-07
0.00129034 0.039116 6.80518e-08
-1.04215e-07 6.80518e-08 0.0364141

0.0355591 0.00434538 -3.70962e-08
0.00434538 0.035134 3.75437e-08
-3.70962e-08 3.75437e-08 0.0350025

0.0265709 0.00338766 6.91187e-08
0.00338766 0.0310052 6.55418e-08
6.91187e-08 6.55418e-08 0.0272549

0.0330383 0.0034967 -1.85689e-07
0.0034967 0.028666 7.07448e-08
-1.85689e-07 7.07448e-08 0.0300491

0.0220592 0.00576409 -1.44341e-07
0.00576409 0.0242367 2.34063e-08
-1.44341e-07 2.34063e-08 0.0160719

0.0386177 -0.00151202 3.45177e-07
-0.00151202 0.0444312 1.3171e-07
3.45177e-07 1.3171e-07 0.0363613

0.0460479 -0.000463476 4.91403e-08
-0.000463476 0.0454374 2.03117e-07
4.91403e-08 2.03117e-07 0.0366902

0.0451791 -3.19451e-05 -2.07749e-07
-3.19451e-05 0.046301 7.48697e-07
-2.07749e-07 7.48697e-07 0.0366722

0.0176405 -0.00679476 -4.83214e-08
-0.00679476 0.0231076 -3.08604e-07
-4.83214e-08 -3.08604e-07 0.0107382

0.039292 -0.00155625 1.70823e-07
-0.00155625 0.038714 1.45237e-08
1.70823e-07 1.45237e-08 0.0358527

0.0383961 0.00117668 -3.38971e-07
0.00117668 0.0415173 -1.08879e-07
-3.38971e-07 -1.08879e-07 0.0361241

0.0331742 -0.0034356 1.39601e-07
-0.0034356 0.0282187 -1.95089e-07
1.39601e-07 -1.95089e-07 0.0299025

0.0318437 0.000140644 -1.36416e-07
0.000140644 0.0386712 -2.20549e-07
-1.36416e-07 -2.20549e-07 0.0344495

0.0285758 -0.00266045 1.72934e-08
-0.00266045 0.0333791 4.02505e-09
1.72934e-08 4.02505e-09 0.0315883

0.0356606 0.000831871 -2.01794e-07
0.000831871 0.0273767 7.23416e-09
-2.01794e-07 7.23416e-09 0.0329991

0.028875 0.00204425 -2.60136e-09
0.00204425 0.0368157 1.27146e-07
-2.60136e-09 1.27146e-07 0.0336687

0.0298686 0.000946267 -3.18682e-08
0.000946267 0.0373873 1.11726e-07
-3.18682e-08 1.11726e-07 0.0333626

0.0344001 0.00268464 5.26473e-08
0.00268464 0.0288506 4.04708e-08
5.26473e-08 4.04708e-08 0.0312253

0.0132788 -0.000409385 -4.86667e-08
-0.000409385 0.0281223 6.2612e-08
-4.86667e-08 6.2612e-08 0.011201

0.0309637 -0.00362605 1.14647e-07
-0.00362605 0.030914 -8.76662e-09
1.14647e-07 -8.76662e-09 0.0306086

0.0329275 -0.00344332 -1.06446e-07
-0.00344332 0.0320197 1.63134e-08
-1.06446e-07 1.63134e-08 0.0325783

0.0335705 -0.00415912 -5.49608e-08
-0.00415912 0.0325335 -1.91596e-07
-5.49608e-08 -1.91596e-07 0.0337347

0.0265613 0.00414844 9.6785e-08
0.00414844 0.0176911 3.09473e-08
9.6785e-08 3.09473e-08 0.0126048

0.0388275 -0.00269665 2.43766e-07
-0.00269665 0.0395751 -1.41715e-07
2.43766e-07 -1.41715e-07 0.0359575

0.0230822 0.00692061 -3.07226e-07
0.00692061 0.0255013 -1.94782e-07
-3.07226e-07 -1.94782e-07 0.0126091

0.0308739 -0.00281786 -2.27304e-07
-0.00281786 0.0348067 -2.88485e-12
-2.27304e-07 -2.88485e-12 0.0339553

0.0354107 0.00193634 -5.92398e-08
0.00193634 0.0284649 -1.66477e-07
-5.92398e-08 -1.66477e-07 0.0323437

0.0318199 -0.00189341 1.53862e-08
-0.00189341 0.02495 8.64463e-08
1.53862e-08 8.64463e-08 0.0253947

0.0292915 0.00315896 -1.82964e-07
0.00315896 0.0327303 -1.04494e-07
-1.82964e-07 -1.04494e-07 0.0312787

0.0344353 0.00268855 1.0078e-07
0.00268855 0.0286336 -7.37735e-08
1.0078e-07 -7.37735e-08 0.0312199

0.0325179 0.00149888 -3.94315e-08
0.00149888 0.0403731 -9.37463e-08
-3.94315e-08 -9.37463e-08 0.0353357

0.0319396 -0.00415455 -3.94354e-08
-0.00415455 0.0312001 7.25696e-08
-3.94354e-08 7.25696e-08 0.0318097

0.0396756 0.00265531 -1.29426e-08
0.00265531 0.0331974 -2.85063e-07
-1.29426e-08 -2.85063e-07 0.0353151

0.0279705 -0.00241884 1.64985e-08
-0.00241884 0.03355 4.84692e-09
1.64985e-08 4.84692e-09 0.0304697

0.0293501 0.000558714 -5.18117e-08
0.000558714 0.0373111 1.09602e-07
-5.18117e-08 1.09602e-07 0.0332518

0.041943 0.00133785 -7.78125e-08
0.00133785 0.0370993 -7.9793e-08
-7.78125e-08 -7.9793e-08 0.0361155

0.0420973 -0.0011479 -1.02116e-08
-0.0011479 0.0373255 -2.78755e-08
-1.02116e-08 -2.78755e-08 0.0360973

0.0283823 0.0023689 -1.75065e-07
0.0023689 0.0181812 7.16229e-08
-1.75065e-07 7.16229e-08 0.0159494

0.0350249 0.00106117 -1.05339e-07
0.00106117 0.0285653 -1.63979e-07
-1.05339e-07 -1.63979e-07 0.0330581

0.0128667 0.000923326 -4.50234e-08
0.000923326 0.0316257 3.64947e-08
-4.50234e-08 3.64947e-08 0.00612157

0.0131623 -0.001388 1.43374e-07
-0.001388 0.0321316 -7.90038e-08
1.43374e-07 -7.90038e-08 0.00611189

0.0152685 0.00715413 -9.70545e-08
0.00715413 0.0284524 4.91476e-08
-9.70545e-08 4.91476e-08 0.00598401

0.0347637 -0.00382131 -1.17643e-07
-0.00382131 0.031267 1.77382e-07
-1.17643e-07 1.77382e-07 0.0329383

0.0155805 -0.00619419 9.37967e-08
-0.00619419 0.0261522 -3.52724e-07
9.37967e-08 -3.52724e-07 0.0104717

0.0155126 -0.00708672 -1.40467e-07
-0.00708672 0.0274229 -1.87661e-07
-1.40467e-07 -1.87661e-07 0.00591382

0.0284252 0.00342541 -2.18702e-08
0.00342541 0.0310055 6.52504e-08
-2.18702e-08 6.52504e-08 0.028152

0.0251928 0.00932569 2.87134e-07
0.00932569 0.0190205 -1.43013e-07
2.87134e-07 -1.43013e-07 0.00593372

0.0365374 0.0017316 1.00162e-07
0.0017316 0.0385509 8.66203e-09
1.00162e-07 8.66203e-09 0.0354744

0.039534 2.52783e-05 -7.37292e-08
2.52783e-05 0.0355388 -2.58359e-07
-7.37292e-08 -2.58359e-07 0.035455

0.0261069 -0.00924423 -2.076e-07
-0.00924423 0.0188123 5.17943e-08
-2.076e-07 5.17943e-08 0.00588785

0.0276891 -0.00306527 -1.01093e-09
-0.00306527 0.0320945 -2.96954e-08
-1.01093e-09 -2.96954e-08 0.0296221

0.0262545 0.00441796 1.59797e-07
0.00441796 0.0201576 -2.11321e-07
1.59797e-07 -2.11321e-07 0.0130443

0.0172789 0.00797291 1.29078e-07
0.00797291 0.0271486 7.5875e-08
1.29078e-07 7.5875e-08 0.00598769

0.0181959 0.00275503 -7.02687e-08
0.00275503 0.0275891 -1.087e-07
-7.02687e-08 -1.087e-07 0.0128498

0.0173039 -0.00827622 -1.1472e-07
-0.00827622 0.0271518 9.54121e-08
-1.1472e-07 9.54121e-08 0.00581365

0.0179326 -0.00157083 1.63357e-07
-0.00157083 0.0280049 -5.29682e-08
1.63357e-07 -5.29682e-08 0.0126902

0.0370497 0.000923372 2.74295e-07
0.000923372 0.0412996 2.87022e-07
2.74295e-07 2.87022e-07 0.0358092

0.0221308 -0.00585507 -1.75082e-07
-0.00585507 0.0236639 -3.56511e-07
-1.75082e-07 -3.56511e-07 0.0151585

0.0156998 0.00598601 -1.50544e-08
0.00598601 0.0259018 -2.34819e-07
-1.50544e-08 -2.34819e-07 0.0107499

0.030208 0.00472985 9.58412e-08
0.00472985 0.014349 2.86956e-07
9.58412e-08 2.86956e-07 0.00611571

0.0329376 -0.00384919 1.08333e-07
-0.00384919 0.0301232 -2.07344e-08
1.08333e-07 -2.07344e-08 0.0310504

0.030888 0.00169414 -4.03212e-08
0.00169414 0.0368422 1.28807e-07
-4.03212e-08 1.28807e-07 0.0339494

0.0260895 -0.00484383 -1.24853e-08
-0.00484383 0.019197 3.42348e-07
-1.24853e-08 3.42348e-07 0.0126947

0.0329997 -0.00378576 1.09374e-07
-0.00378576 0.0300743 -1.82837e-08
1.09374e-07 -1.82837e-08 0.0311268

0.0300184 -0.00451979 -1.67458e-07
-0.00451979 0.0130533 1.69101e-07
-1.67458e-07 1.69101e-07 0.00603712

0.0324726 -0.00372739 1.56935e-08
-0.00372739 0.0313064 1.5346e-07
1.56935e-08 1.5346e-07 0.0319786

0.0280901 -0.00331113 1.86406e-07
-0.00331113 0.0320029 -5.1325e-09
1.86406e-07 -5.1325e-09 0.0296246

0.0234431 0.00874344 -4.75871e-08
0.00874344 0.0204825 2.38837e-07
-4.75871e-08 2.38837e-07 0.00602602

0.0181994 -0.00292065 2.3147e-07
-0.00292065 0.0268659 -2.52883e-08
2.3147e-07 -2.52883e-08 0.0122697

0.0233141 -0.00901915 1.11896e-07
-0.00901915 0.0201518 3.1358e-07
1.11896e-07 3.1358e-07 0.00588384

0.0170821 0.00640812 1.3771e-08
0.00640812 0.0235655 1.91937e-07
1.3771e-08 1.91937e-07 0.0108308

0.0308254 -0.00396004 1.10572e-07
-0.00396004 0.0301594 -2.09227e-08
1.10572e-07 -2.09227e-08 0.0300847

0.0389169 -0.00195857 -2.71293e-07
-0.00195857 0.0369404 -1.04542e-07
-2.71293e-07 -1.04542e-07 0.0354987

0.045541 0.00150735 2.52206e-07
0.00150735 0.0449528 1.61755e-07
2.52206e-07 1.61755e-07 0.0366183

0.0435642 -0.000712024 -1.75675e-07
-0.000712024 0.0462302 -4.43393e-08
-1.75675e-07 -4.43393e-08 0.036584

0.0286148 0.00171594 -3.87179e-08
0.00171594 0.0355653 8.47865e-08
-3.87179e-08 8.47865e-08 0.0323888

0.0453362 -0.00144849 -1.97854e-08
-0.00144849 0.0449806 -2.33805e-07
-1.97854e-08 -2.33805e-07 0.0366361

0.0438079 0.000567661 -1.82216e-07
0.000567661 0.0465063 -5.09897e-07
-1.82216e-07 -5.09897e-07 0.0366172

0.0466785 0.000991967 -5.56405e-08
0.000991967 0.0433775 -5.88107e-08
-5.56405e-08 -5.88107e-08 0.0365923

0.03975 -0.00163913 -2.31241e-07
-0.00163913 0.0460735 -4.38881e-07
-2.31241e-07 -4.38881e-07 0.036482

0.0190535 -0.00388712 2.35116e-07
-0.00388712 0.02723 -3.13788e-08
2.35116e-07 -3.13788e-08 0.0154707

0.0421415 -0.00175024 -4.35209e-08
-0.00175024 0.0367251 -1.50568e-07
-4.35209e-08 -1.50568e-07 0.036004

0.0359631 -0.00457326 1.6199e-07
-0.00457326 0.0351495 1.63162e-07
1.6199e-07 1.63162e-07 0.0349673

0.0397526 -0.00242157 -1.76391e-07
-0.00242157 0.0360628 6.76233e-08
-1.76391e-07 6.76233e-08 0.0355664

0.0351837 0.00204322 -1.22536e-07
0.00204322 0.0285482 -8.80951e-08
-1.22536e-07 -8.80951e-08 0.032231

0.039692 0.00133782 -2.7715e-07
0.00133782 0.0472248 9.93714e-08
-2.7715e-07 9.93714e-08 0.0365479

0.0464963 0.00259314 1.86688e-07
0.00259314 0.0404174 3.88905e-07
1.86688e-07 3.88905e-07 0.0365291

0.0400867 0.00150528 -3.82264e-08
0.00150528 0.036673 3.80041e-08
-3.82264e-08 3.80041e-08 0.0356145

0.027914 -0.00191984 1.62678e-07
-0.00191984 0.0125244 1.34695e-07
1.62678e-07 1.34695e-07 0.0106242

0.0283181 0.00326753 3.19679e-08
0.00326753 0.0315491 2.89812e-07
3.19679e-08 2.89812e-07 0.0294099

0.0231875 -0.00773584 6.11823e-08
-0.00773584 0.0181796 3.55901e-07
6.11823e-08 3.55901e-07 0.0102892

0.0228302 -0.00731556 -1.45166e-07
-0.00731556 0.0257678 -3.82576e-07
-1.45166e-07 -3.82576e-07 0.0119542

0.0290218 -0.00464675 3.13184e-07
-0.00464675 0.0191279 -2.81739e-07
3.13184e-07 -2.81739e-07 0.0126147

0.0375737 -0.000660757 2.25654e-07
-0.000660757 0.0449127 -2.68332e-07
2.25654e-07 -2.68332e-07 0.036293

0.0375715 0.000358179 1.41184e-07
0.000358179 0.0447899 1.43649e-07
1.41184e-07 1.43649e-07 0.0362733

0.0426052 -0.00327475 -1.42663e-07
-0.00327475 0.03945 5.2542e-08
-1.42663e-07 5.2542e-08 0.0362271

0.0429973 -0.00294468 6.47631e-08
-0.00294468 0.0391683 6.84531e-08
6.47631e-08 6.84531e-08 0.0362341

0.0425015 0.00350473 -2.6081e-07
0.00350473 0.0399723 -3.14811e-07
-2.6081e-07 -3.14811e-07 0.0362719

0.0443965 0.00041593 3.07124e-07
0.00041593 0.0450803 4.81348e-07
3.07124e-07 4.81348e-07 0.0366353

0.0426089 -0.00274464 2.46615e-08
-0.00274464 0.0395071 7.72801e-09
2.46615e-08 7.72801e-09 0.0362886

0.0426027 -0.00251107 7.66252e-08
-0.00251107 0.0442679 -2.37376e-07
7.66252e-08 -2.37376e-07 0.0365628

0.0451178 0.000332266 2.95217e-07
0.000332266 0.0454673 -1.82855e-07
2.95217e-07 -1.82855e-07 0.0366536

0.0436363 -0.00278318 3.27493e-07
-0.00278318 0.0389162 -1.153e-07
3.27493e-07 -1.153e-07 0.0363293

0.0435119 0.00283902 -1.33428e-07
0.00283902 0.039069 -4.32389e-08
-1.33428e-07 -4.32389e-08 0.0363674

0.0451927 -0.000470172 -1.99946e-07
-0.000470172 0.0455815 8.50212e-08
-1.99946e-07 8.50212e-08 0.0367022

0.0452258 -0.000424639 7.74941e-07
-0.000424639 0.0443589 -1.18319e-06
7.74941e-07 -1.18319e-06 0.0367206

0.0427981 0.00163877 1.71962e-07
0.00163877 0.044249 -1.74531e-07
1.71962e-07 -1.74531e-07 0.0366067

0.041116 0.00361825 -1.46862e-07
0.00361825 0.0405161 -1.09662e-07
-1.46862e-07 -1.09662e-07 0.0363212

SCALARS pressure float
LOOKUP_TABLE default
-60.0503
19.3081
5.80319
21.2901
15.8788
5.88714
-58.6735
7.78295
-3.80505
15.1244
-24.4315
7.6171
5.59192
12.2791
23.3377
5.5388
18.5207
13.207
-0.693084
6.75632
-0.905023
33.1352
5.80054
5.79662
6.60161
14.9026
-38.3847
6.67146
-15.2424
30.6265
5.17614
-15.6571
-42.0557
27.3263
20.7792
27.3592
31.8848
19.8092
4.85943
-42.5989
-17.4073
31.9056
31.9938
5.99339
-21.8048
-15.9758
-1.05266
-3.40566
6.54457
-16.2177
-18.9187
-15.3459
20.7556
-15.3731
20.3088
-33.1483
21.1297
-15.4603
21.1396
7.04467
21.7646
16.1187
-45.5615
12.7897
16.362
10.9049
21.5739
13.8279
5.77325
21.8169
20.8117
20.7824
-17.6909
11.6004
3.97377
-31.6092
14.3567
10.9961
14.1459
-8.72015
-28.9445
14.9777
20.163
-22.0377
-23.4293
-28.0917
7.09754
9.63225
-22.2155
37.7419
-15.509
38.4445
18.3045
10.7613
-15.1665
-15.8727
-30.221
14.7533
14.3657
4.59852
-10.7664
-21.9394
-25.1013
16.2127
14.1
14.9615
18.6974
3.77454
-24.5582
26.5131
7.2173
-21.4088
-24.6118
14.8377
15.0779
-16.1456
20.1651
-29.113
20.6287
-16.7293
-2.90495
23.834
21.727
16.0328
26.6798
22.6316
21.7857
15.7083
-29.7807
-16.099
24.0918
21.6172
20.9892
22.0656
-22.0138
23.5874
-33.837
5.4632
21.7543
23.6307
-21.9367
6.67627
-5.96692
15.0833
-30.4072
15.6238
7.83298
2.40736
5.17755
-9.39464
-0.458243
22.6415
-15.4546
5.29082
15.204
21.5604
11.508
-21.1132
-21.2637
10.7902
-2.84297
-15.1976
-21.2202
-15.1653
-20.9864
15.2795
-20.6358
-21.2015
-15.2078
-21.0637
19.0043
-15.941
-14.8245
12.0643
-14.4847
18.8027
19.0534
7.47251
18.0479
11.7728
-16.249
15.2881
14.9608
-21.5284
10.4264
-14.2213
16.0485
14.5954
17.0818
14.835
10.3437
-26.9761
-16.0822
-15.9581
21.9068
14.5255
14.6244
20.9226
22.4869
9.5025
21.7336
-0.38499
-8.17104
20.7787
-17.8387
19.9455
10.364
-21.5175
15.721
22.5261
14.7312
9.39326
14.1897
21.0556
-7.8331
8.82737
-7.9089
14.6481
26.9277
26.5814
27.9606
26.3886
26.7244
26.291
13.8257
23.4304
24.0296
23.9738
23.4
21.1928
21.8573
-8.26315
15.9333
28.1911
-3.18903
23.5761
23.2054
27.8344
-8.49385
28.0965
15.3445
-7.58193
17.4921
-8.25812
20.2271
29.6128
-7.48632
-8.10108
-29.5917
-18.189
19.5272
-31.9852
5.734
-7.79427
-1.18991
28.2492
26.6403
30.427
26.761
-34.8006
-8.17997
28.3374
8.07252
-8.29548
26.446
-6.29564
30.4719
-7.9544
27.0472
14.5659
14.7869
23.8452
10.0473
18.021
8.11671
-29.8596
-24.5529
16.8068
1.75923
8.17916
-13.609
17.4357
11.6996
-8.10183
9.45189
-10.8236
7.51657
-10.7549
-8.48505
33.265
19.1517
25.0884
25.3127
13.8289
-10.4047
26.4301
14.6848
-1.65947
-10.2741
-12.5644
17.5066
-7.48557
17.5745
-12.0414
-21.3502
-10.6085
-34.6809
15.5623
-7.7633
34.443
-11.5782
16.8712
-8.40908
15.9726
-12.7585
4.28869
-51.1176
8.52122
-7.74697
21.3339
-8.15248
-0.123382
10.7151
21.124
-12.0609
-10.201
-6.06871
14.3178
-10.1803
6.88751
6.38518
16.3054
-10.4198
-6.33081
-1.70283
-5.66091
-11.0787
-5.84513
15.3054
7.80753
-5.55651
-8.96078
7.80497
7.69383
-10.6748
16.3093
-27.2131
2.2925
-28.481
-0.958089
-8.87784
-8.09613
-11.7787
-10.9424
-9.88071
-7.77572
-7.89909
16.6377
24.7781
12.1156
-0.292229
-0.825786
-5.67508
7.30469
-6.32117
-6.31846
24.9239
-5.73051
14.1179
-15.9084
24.3253
5.96754
-0.391784
-5.64436
16.2749
2.4765
0.198431
2.44748
0.455299
-0.741479
-9.93059
-0.0962261
2.11265
15.0688
-1.28891
-1.40779
-0.99945
-0.389203
1.96469
8.05016
-1.19419
8.07761
5.58261
-0.436266
7.03471
5.48964
-3.87705
16.4765
-1.90399
23.0622
-21.9732
15.0439
15.6822
2.03904
-1.99807
12.5425
-26.5057
5.79163
-1.65852
-50.482
30.4989
30.6356
5.82427
-1.14499
-1.0474
-0.850325
33.4197
33.2944
13.0944
6.08136
6.66183
-28.9617
-1.28006
16.5333
-3.18328
-4.34867
-0.0175743
-25.2704
14.3029
-1.28083
2.86118
2.69257
-2.72385
-0.049952
-3.21007
-4.03412
-37.9816
-33.6829
-0.128658
1.87387
-0.534702
-3.74476
-1.93718
-1.8783
-0.924925
-21.9071
17.2495
-0.769964
12.5648
14.1834
-26.7636
6.28569
7.13623
18.4778
36.4288
36.4613
22.6387
-1.75644
2.59902
-20.9293
36.1274
32.7611
32.8281
-24.8077
21.7758
30.5241
2.5985
15.7239
10.3707
17.1641
17.726
12.5052
5.68081
-25.3972
4.25948
10.4089
16.2438
-31.709
28.3103
-52.709
18.6848
10.2985
-10.6277
7.4168
5.45651
24.4747
9.41054
24.4077
4.10457
12.3995
30.6413
29.467
-22.9897
17.4352
-70.2278
-74.3743
-67.1719
11.648
-31.2588
-63.6053
-3.80407
-69.9333
16.4632
16.4069
-73.7494
5.21147
-39.7286
-70.7338
-37.7546
-71.8702
-39.4501
21.1372
-23.9595
-29.0429
-70.6177
4.83083
15.7574
-36.1885
6.05291
-63.613
9.83543
3.88101
-67.8964
-37.6222
-66.4059
-23.7544
5.02843
20.5265
35.3731
36.7288
11.8115
36.8527
36.906
36.4943
36.4062
-24.4783
28.2489
20.6691
21.981
11.5341
36.0622
36.0936
18.1203
-23.9392
3.2459
-30.5251
-56.595
-50.4723
36.1452
35.8259
35.3825
35.4528
36.1612
35.601
33.1116
37.3729
35.4024
36.008
35.6402
34.1988
34.3353
35.8584
35.3113
