# vtk DataFile Version 3.0
vtk output at time 240
ASCII
DATASET UNSTRUCTURED_GRID
POINTS 626 float
-3.68058e-05 0.000978749 0 3.68058e-05 0.000978749 0 -0.000829194 0.00052125 0 
-0.0008235 0.0005 0 -0.000866 0.0004575 0 -0.000866 -0.0004575 0 
-0.0008235 -0.0005 0 -0.000829194 -0.00052125 0 -3.68058e-05 -0.000978749 0 
3.68058e-05 -0.000978749 0 0.000829194 -0.00052125 0 0.000866 -0.0004575 0 
0.000866 0.0004575 0 0.000829194 0.00052125 0 8.5e-05 0 0 
-3.68058e-05 0.000978749 -0.001 3.68058e-05 0.000978749 -0.001 -0.000829194 0.00052125 -0.001 
-0.0008235 0.0005 -0.001 -0.000866 0.0004575 -0.001 -0.000866 -0.0004575 -0.001 
-0.0008235 -0.0005 -0.001 -0.000829194 -0.00052125 -0.001 -3.68058e-05 -0.000978749 -0.001 
3.68058e-05 -0.000978749 -0.001 0.000829194 -0.00052125 -0.001 0.000866 -0.0004575 -0.001 
0.000866 0.0004575 -0.001 0.000829194 0.00052125 -0.001 8.5e-05 0 -0.001 
8.46223e-17 0.0009575 0 -0.000715996 0.000586607 0 -0.000602797 0.000651965 0 
-0.000489599 0.000717321 0 -0.000376401 0.000782678 0 -0.000263202 0.000848036 0 
-0.000150004 0.000913393 0 -0.000835948 0.000469948 0 -0.000866 -0.000326786 0 
-0.000866 -0.000196071 0 -0.000866 -6.53571e-05 0 -0.000866 6.53571e-05 0 
-0.000866 0.000196071 0 -0.000866 0.000326786 0 -0.000835948 -0.000469948 0 
-0.000150004 -0.000913393 0 -0.000263202 -0.000848036 0 -0.000376401 -0.000782678 0 
-0.000489599 -0.000717321 0 -0.000602797 -0.000651965 0 -0.000715996 -0.000586607 0 
8.47648e-17 -0.0009575 0 0.000715996 -0.000586607 0 0.000602797 -0.000651965 0 
0.000489599 -0.000717321 0 0.000376401 -0.000782678 0 0.000263202 -0.000848036 0 
0.000150004 -0.000913393 0 0.000829194 -0.00047875 0 0.000866 0.000326786 0 
0.000866 0.000196071 0 0.000866 6.53571e-05 0 0.000866 -6.53571e-05 0 
0.000866 -0.000196071 0 0.000866 -0.000326786 0 0.000829194 0.00047875 0 
0.000150004 0.000913393 0 0.000263202 0.000848036 0 0.000376401 0.000782678 0 
0.000489599 0.000717321 0 0.000602797 0.000651965 0 0.000715996 0.000586607 0 
5.29966e-05 6.64557e-05 0 -1.89143e-05 8.28689e-05 0 -7.65824e-05 3.68801e-05 0 
-7.65824e-05 -3.68801e-05 0 -1.89143e-05 -8.28689e-05 0 5.29966e-05 -6.64557e-05 0 
8.46223e-17 0.0009575 -0.001 -0.000715996 0.000586607 -0.001 -0.000602797 0.000651965 -0.001 
-0.000489599 0.000717321 -0.001 -0.000376401 0.000782678 -0.001 -0.000263202 0.000848036 -0.001 
-0.000150004 0.000913393 -0.001 -0.000835948 0.000469948 -0.001 -0.000866 -0.000326786 -0.001 
-0.000866 -0.000196071 -0.001 -0.000866 -6.53571e-05 -0.001 -0.000866 6.53571e-05 -0.001 
-0.000866 0.000196071 -0.001 -0.000866 0.000326786 -0.001 -0.000835948 -0.000469948 -0.001 
-0.000150004 -0.000913393 -0.001 -0.000263202 -0.000848036 -0.001 -0.000376401 -0.000782678 -0.001 
-0.000489599 -0.000717321 -0.001 -0.000602797 -0.000651965 -0.001 -0.000715996 -0.000586607 -0.001 
8.47648e-17 -0.0009575 -0.001 0.000715996 -0.000586607 -0.001 0.000602797 -0.000651965 -0.001 
0.000489599 -0.000717321 -0.001 0.000376401 -0.000782678 -0.001 0.000263202 -0.000848036 -0.001 
0.000150004 -0.000913393 -0.001 0.000829194 -0.00047875 -0.001 0.000866 0.000326786 -0.001 
0.000866 0.000196071 -0.001 0.000866 6.53571e-05 -0.001 0.000866 -6.53571e-05 -0.001 
0.000866 -0.000196071 -0.001 0.000866 -0.000326786 -0.001 0.000829194 0.00047875 -0.001 
0.000150004 0.000913393 -0.001 0.000263202 0.000848036 -0.001 0.000376401 0.000782678 -0.001 
0.000489599 0.000717321 -0.001 0.000602797 0.000651965 -0.001 0.000715996 0.000586607 -0.001 
5.29966e-05 6.64557e-05 -0.001 -1.89143e-05 8.28689e-05 -0.001 -7.65824e-05 3.68801e-05 -0.001 
-7.65824e-05 -3.68801e-05 -0.001 -1.89143e-05 -8.28689e-05 -0.001 5.29966e-05 -6.64557e-05 -0.001 
0.000131234 6.38474e-05 0 0.00012964 -6.2443e-05 0 3.13827e-05 0.0001394 0 
3.12554e-05 -0.000136939 0 -0.000140461 8.25467e-19 0 -8.90565e-05 -0.000102707 0 
-9.04142e-05 0.000102872 0 -0.000765769 -0.00025965 0 -0.000756873 0.000262774 0 
-0.00015609 0.000787505 0 -0.000155807 -0.00079355 0 0.000605069 0.000528035 0 
0.000608694 -0.00052497 0 0.000744069 0.000116929 0 -0.000494418 0.000596218 0 
-0.000483866 -0.000584648 0 0.000269496 0.000702219 0 0.000263201 -0.000717324 0 
0.000754429 -0.000127825 0 -0.000748858 5.84659e-07 0 -0.000747838 0.000373886 0 
-0.0006542 0.000324842 0 -0.000645137 0.000210123 0 -0.000550884 0.000274171 0 
-0.000538857 0.000163195 0 -0.00045062 0.000224461 0 -0.000438393 0.000123907 0 
-0.000354088 0.000181668 0 -0.000363908 0.000282171 0 -0.000270361 0.000239477 0 
-0.000279138 0.000337653 0 -0.000188888 0.000294791 0 -0.000196448 0.000393271 0 
-0.000104767 0.000348259 0 -0.000113332 0.000449012 0 -2.01066e-05 0.000403223 0 
-2.89189e-05 0.000507105 0 6.9524e-05 0.000461596 0 -0.000213644 0.000490203 0 
7.33757e-05 0.000357726 0 0.000163331 0.00041299 0 0.000163359 0.000313022 0 
0.000248077 0.000366368 0 0.000250914 0.000265758 0 0.000335709 0.000322266 0 
0.000340555 0.000218148 0 0.000427299 0.000276717 0 0.000431508 0.000173093 0 
0.000328731 0.000425633 0 0.00034586 0.000114823 0 0.000435362 7.05241e-05 0 
0.000350892 1.5455e-05 0 0.000441547 -3.11896e-05 0 0.000353547 -8.47783e-05 0 
0.000445767 -0.000132964 0 0.000356135 -0.000186358 0 0.000449094 -0.000234674 0 
0.000359978 -0.000287876 0 0.00026856 -0.000240545 0 0.000271895 -0.000341045 0 
0.000181792 -0.00029305 0 0.00018533 -0.000392851 0 9.75701e-05 -0.00034483 0 
9.98764e-05 -0.000444884 0 8.75116e-06 -0.000396343 0 1.20916e-05 -0.000500496 0 
-7.83929e-05 -0.000449843 0 -8.1471e-05 -0.000347249 0 -0.000171566 -0.000403733 0 
-0.000169889 -0.000298891 0 -0.000259867 -0.000354132 0 -0.000257696 -0.000249137 0 
-0.00034313 -0.000299896 0 -0.000344514 -0.000199127 0 -0.000434309 -0.000250039 0 
-0.000169832 -0.000505815 0 -0.000435227 -0.000146227 0 0.000280331 -0.000442424 0 
-0.000340889 8.76793e-05 0 -0.000515252 4.06198e-05 0 6.50491e-05 0.000568253 0 
0.00053278 1.74743e-05 0 0.000522071 0.000229831 0 -0.00037162 0.000391659 0 
-0.000255272 -0.000150439 0 -0.000442893 -0.000350705 0 0.000450067 -0.000332559 0 
0.000545175 -0.000276306 0 -0.000527797 -0.000197598 0 0.000105306 -0.000551033 0 
1.45836e-05 -0.000609147 0 0.00017145 0.000214453 0 0.000515525 0.000341711 0 
0.000636086 0.000290368 0 -0.000558657 0.000404468 0 -4.01232e-05 0.000616718 0 
6.60192e-05 0.000696422 0 -0.000101806 0.0002546 0 0.000271142 -3.88908e-05 0 
0.000179455 -0.00018534 0 -8.79553e-05 -0.000254307 0 -0.000749267 -0.000373451 0 
-0.000655941 -0.000323397 0 0.000709746 0.000466718 0 0.000698426 -0.000473086 0 
-5.25801e-05 -0.00084886 0 -4.93005e-05 0.000848038 0 0.000617396 -0.000413362 0 
0.000702056 -0.000369817 0 0.000131459 -0.000679171 0 2.48171e-05 -0.000715924 0 
-0.000664217 -0.00042729 0 -0.000528828 -8.80444e-05 0 -0.000611101 -0.000136672 0 
-0.000426972 -4.45841e-05 0 0.000800669 0.000378216 0 0.000821144 -0.000415062 0 
7.2799e-05 0.00088254 0 6.81831e-05 -0.00087503 0 0.000104963 -0.000788946 0 
-7.40696e-05 -0.000660054 0 0.000126061 0.000809943 0 0.000764361 0.000295682 0 
0.000166862 0.000630623 0 0.000516462 -0.00046707 0 -0.000563585 -0.000389606 0 
-0.000622598 -1.40238e-05 0 0.000629891 0.000171529 0 2.5614e-06 -0.000299794 0 
8.6901e-05 -0.00024329 0 0.000272045 -0.000136982 0 -0.00075148 0.000138321 0 
0.000209366 -0.000599589 0 0.000324913 -0.000630055 0 0.000614044 0.00041245 0 
0.00049651 -0.000573327 0 0.000394822 -0.000507321 0 -0.000173714 -0.000206698 0 
0.000264897 5.63722e-05 0 0.000247997 0.000152811 0 -4.63327e-05 -0.000920208 0 
9.18688e-05 0.000258626 0 -5.54111e-06 0.000290558 0 -0.000184219 0.000201484 0 
-0.000263559 0.000142267 0 -0.000256427 5.13624e-05 0 -0.000336894 -2.06179e-06 0 
-0.000228499 -4.2388e-05 0 -0.00017589 0.000106626 0 -0.000769947 -0.000133367 0 
0.000767591 -0.000500293 0 -5.05874e-05 0.000737978 0 0.000754456 -3.51771e-06 0 
0.00064691 -6.15298e-05 0 0.000630483 -0.00018134 0 0.000749187 -0.000265543 0 
-0.000760805 -0.000462521 0 0.000638155 6.09315e-05 0 -4.46661e-05 0.000922995 0 
-2.37945e-05 0.000207237 0 0.000776979 0.000500181 0 -0.000605691 0.000527596 0 
-0.000377914 -0.000653727 0 -0.000372325 -0.000526022 0 -0.000275829 -0.000589621 0 
-0.000254285 -0.000710579 0 -0.000379307 0.000656222 0 -0.000379818 0.00052718 0 
-0.000266817 0.000721555 0 -0.000150544 0.000668174 0 0.000381963 0.00065079 0 
0.000493113 0.000590432 0 0.000505439 0.000463708 0 -0.000269094 0.000596608 0 
0.000385815 0.000532045 0 0.000283599 0.0005899 0 -0.000176405 -0.000108505 0 
-0.000278769 -0.000475415 0 0.000185395 2.33014e-06 0 0.000186773 0.000517571 0 
0.000540032 -8.68444e-05 0 -0.000600694 -0.000514877 0 -0.00063703 8.98033e-05 0 
-0.000459677 0.000335729 0 -0.000338836 -0.000100751 0 -0.000457327 0.000432721 0 
-8.72007e-06 -0.000210238 0 0.000156073 0.000129496 0 -7.70692e-05 -0.000555049 0 
0.00036091 -0.000389728 0 0.000531628 0.000120564 0 -0.000285451 0.000435562 0 
0.000192719 -0.000494604 0 0.00041642 0.00039368 0 -0.000135943 0.000554637 0 
-0.000170665 -0.000610079 0 -0.000666304 0.000434981 0 -0.000758736 0.000479231 0 
-0.000470189 -0.000458901 0 0.000203433 -8.59809e-05 0 0.000101846 0.000170114 0 
-0.00035513 -0.00040726 0 0.000100184 -0.000165831 0 2.96286e-05 0.00081537 0 
0.000720946 0.000381836 0 -0.000539809 -0.000292001 0 0.00052211 -0.000182426 0 
-6.41339e-05 -0.000753908 0 0.000638039 -0.000299861 0 -0.000605136 -0.000230182 0 
-3.41638e-05 -0.000145561 0 -0.000104037 0.000172396 0 -0.000808575 -0.00042774 0 
-0.000807207 -0.000465052 0 -0.00080817 0.000429771 0 -0.000806589 0.000469738 0 
-9.50634e-05 -0.000178909 0 0.000247777 0.000445058 0 1.48293e-05 -0.000814201 0 
-4.11555e-05 0.000140955 0 0.000276104 -0.000536845 0 0.000765969 -0.000436638 0 
0.000780871 -0.000362769 0 0.000424176 -0.000642018 0 0.00053413 -0.000368009 0 
-0.000416333 4.17911e-05 0 -0.000133891 -6.23822e-05 0 4.2574e-05 0.000206312 0 
0.000141163 -0.000121542 0 0.000707423 0.000212137 0 0.000172327 0.000723882 0 
7.72652e-06 -0.00090254 0 -0.000134435 5.66935e-05 0 -0.000188826 3.70894e-05 0 
0.000197119 8.09714e-05 0 1.27801e-05 0.000917296 0 0.000800767 0.00044758 0 
-0.000686682 0.000507104 0 9.35831e-05 0.000110457 0 -0.000696793 -0.000509595 0 
-0.00068446 -8.52012e-05 0 -0.000691033 -0.000201242 0 5.24052e-05 -0.000189075 0 
-0.000151818 -0.000701092 0 -0.000296988 0.000518087 0 9.31023e-05 -0.000108117 0 
0.00044261 -0.000416726 0 0.000197044 -0.000784423 0 -0.000516861 0.000504567 0 
0.000298997 0.000502377 0 0.000131234 6.38474e-05 -0.001 0.00012964 -6.2443e-05 -0.001 
3.13827e-05 0.0001394 -0.001 3.12554e-05 -0.000136939 -0.001 -0.000140461 8.25467e-19 -0.001 
-8.90565e-05 -0.000102707 -0.001 -9.04142e-05 0.000102872 -0.001 -0.000765769 -0.00025965 -0.001 
-0.000756873 0.000262774 -0.001 -0.00015609 0.000787505 -0.001 -0.000155807 -0.00079355 -0.001 
0.000605069 0.000528035 -0.001 0.000608694 -0.00052497 -0.001 0.000744069 0.000116929 -0.001 
-0.000494418 0.000596218 -0.001 -0.000483866 -0.000584648 -0.001 0.000269496 0.000702219 -0.001 
0.000263201 -0.000717324 -0.001 0.000754429 -0.000127825 -0.001 -0.000748858 5.84659e-07 -0.001 
-0.000747838 0.000373886 -0.001 -0.0006542 0.000324842 -0.001 -0.000645137 0.000210123 -0.001 
-0.000550884 0.000274171 -0.001 -0.000538857 0.000163195 -0.001 -0.00045062 0.000224461 -0.001 
-0.000438393 0.000123907 -0.001 -0.000354088 0.000181668 -0.001 -0.000363908 0.000282171 -0.001 
-0.000270361 0.000239477 -0.001 -0.000279138 0.000337653 -0.001 -0.000188888 0.000294791 -0.001 
-0.000196448 0.000393271 -0.001 -0.000104767 0.000348259 -0.001 -0.000113332 0.000449012 -0.001 
-2.01066e-05 0.000403223 -0.001 -2.89189e-05 0.000507105 -0.001 6.9524e-05 0.000461596 -0.001 
-0.000213644 0.000490203 -0.001 7.33757e-05 0.000357726 -0.001 0.000163331 0.00041299 -0.001 
0.000163359 0.000313022 -0.001 0.000248077 0.000366368 -0.001 0.000250914 0.000265758 -0.001 
0.000335709 0.000322266 -0.001 0.000340555 0.000218148 -0.001 0.000427299 0.000276717 -0.001 
0.000431508 0.000173093 -0.001 0.000328731 0.000425633 -0.001 0.00034586 0.000114823 -0.001 
0.000435362 7.05241e-05 -0.001 0.000350892 1.5455e-05 -0.001 0.000441547 -3.11896e-05 -0.001 
0.000353547 -8.47783e-05 -0.001 0.000445767 -0.000132964 -0.001 0.000356135 -0.000186358 -0.001 
0.000449094 -0.000234674 -0.001 0.000359978 -0.000287876 -0.001 0.00026856 -0.000240545 -0.001 
0.000271895 -0.000341045 -0.001 0.000181792 -0.00029305 -0.001 0.00018533 -0.000392851 -0.001 
9.75701e-05 -0.00034483 -0.001 9.98764e-05 -0.000444884 -0.001 8.75116e-06 -0.000396343 -0.001 
1.20916e-05 -0.000500496 -0.001 -7.83929e-05 -0.000449843 -0.001 -8.1471e-05 -0.000347249 -0.001 
-0.000171566 -0.000403733 -0.001 -0.000169889 -0.000298891 -0.001 -0.000259867 -0.000354132 -0.001 
-0.000257696 -0.000249137 -0.001 -0.00034313 -0.000299896 -0.001 -0.000344514 -0.000199127 -0.001 
-0.000434309 -0.000250039 -0.001 -0.000169832 -0.000505815 -0.001 -0.000435227 -0.000146227 -0.001 
0.000280331 -0.000442424 -0.001 -0.000340889 8.76793e-05 -0.001 -0.000515252 4.06198e-05 -0.001 
6.50491e-05 0.000568253 -0.001 0.00053278 1.74743e-05 -0.001 0.000522071 0.000229831 -0.001 
-0.00037162 0.000391659 -0.001 -0.000255272 -0.000150439 -0.001 -0.000442893 -0.000350705 -0.001 
0.000450067 -0.000332559 -0.001 0.000545175 -0.000276306 -0.001 -0.000527797 -0.000197598 -0.001 
0.000105306 -0.000551033 -0.001 1.45836e-05 -0.000609147 -0.001 0.00017145 0.000214453 -0.001 
0.000515525 0.000341711 -0.001 0.000636086 0.000290368 -0.001 -0.000558657 0.000404468 -0.001 
-4.01232e-05 0.000616718 -0.001 6.60192e-05 0.000696422 -0.001 -0.000101806 0.0002546 -0.001 
0.000271142 -3.88908e-05 -0.001 0.000179455 -0.00018534 -0.001 -8.79553e-05 -0.000254307 -0.001 
-0.000749267 -0.000373451 -0.001 -0.000655941 -0.000323397 -0.001 0.000709746 0.000466718 -0.001 
0.000698426 -0.000473086 -0.001 -5.25801e-05 -0.00084886 -0.001 -4.93005e-05 0.000848038 -0.001 
0.000617396 -0.000413362 -0.001 0.000702056 -0.000369817 -0.001 0.000131459 -0.000679171 -0.001 
2.48171e-05 -0.000715924 -0.001 -0.000664217 -0.00042729 -0.001 -0.000528828 -8.80444e-05 -0.001 
-0.000611101 -0.000136672 -0.001 -0.000426972 -4.45841e-05 -0.001 0.000800669 0.000378216 -0.001 
0.000821144 -0.000415062 -0.001 7.2799e-05 0.00088254 -0.001 6.81831e-05 -0.00087503 -0.001 
0.000104963 -0.000788946 -0.001 -7.40696e-05 -0.000660054 -0.001 0.000126061 0.000809943 -0.001 
0.000764361 0.000295682 -0.001 0.000166862 0.000630623 -0.001 0.000516462 -0.00046707 -0.001 
-0.000563585 -0.000389606 -0.001 -0.000622598 -1.40238e-05 -0.001 0.000629891 0.000171529 -0.001 
2.5614e-06 -0.000299794 -0.001 8.6901e-05 -0.00024329 -0.001 0.000272045 -0.000136982 -0.001 
-0.00075148 0.000138321 -0.001 0.000209366 -0.000599589 -0.001 0.000324913 -0.000630055 -0.001 
0.000614044 0.00041245 -0.001 0.00049651 -0.000573327 -0.001 0.000394822 -0.000507321 -0.001 
-0.000173714 -0.000206698 -0.001 0.000264897 5.63722e-05 -0.001 0.000247997 0.000152811 -0.001 
-4.63327e-05 -0.000920208 -0.001 9.18688e-05 0.000258626 -0.001 -5.54111e-06 0.000290558 -0.001 
-0.000184219 0.000201484 -0.001 -0.000263559 0.000142267 -0.001 -0.000256427 5.13624e-05 -0.001 
-0.000336894 -2.06179e-06 -0.001 -0.000228499 -4.2388e-05 -0.001 -0.00017589 0.000106626 -0.001 
-0.000769947 -0.000133367 -0.001 0.000767591 -0.000500293 -0.001 -5.05874e-05 0.000737978 -0.001 
0.000754456 -3.51771e-06 -0.001 0.00064691 -6.15298e-05 -0.001 0.000630483 -0.00018134 -0.001 
0.000749187 -0.000265543 -0.001 -0.000760805 -0.000462521 -0.001 0.000638155 6.09315e-05 -0.001 
-4.46661e-05 0.000922995 -0.001 -2.37945e-05 0.000207237 -0.001 0.000776979 0.000500181 -0.001 
-0.000605691 0.000527596 -0.001 -0.000377914 -0.000653727 -0.001 -0.000372325 -0.000526022 -0.001 
-0.000275829 -0.000589621 -0.001 -0.000254285 -0.000710579 -0.001 -0.000379307 0.000656222 -0.001 
-0.000379818 0.00052718 -0.001 -0.000266817 0.000721555 -0.001 -0.000150544 0.000668174 -0.001 
0.000381963 0.00065079 -0.001 0.000493113 0.000590432 -0.001 0.000505439 0.000463708 -0.001 
-0.000269094 0.000596608 -0.001 0.000385815 0.000532045 -0.001 0.000283599 0.0005899 -0.001 
-0.000176405 -0.000108505 -0.001 -0.000278769 -0.000475415 -0.001 0.000185395 2.33014e-06 -0.001 
0.000186773 0.000517571 -0.001 0.000540032 -8.68444e-05 -0.001 -0.000600694 -0.000514877 -0.001 
-0.00063703 8.98033e-05 -0.001 -0.000459677 0.000335729 -0.001 -0.000338836 -0.000100751 -0.001 
-0.000457327 0.000432721 -0.001 -8.72007e-06 -0.000210238 -0.001 0.000156073 0.000129496 -0.001 
-7.70692e-05 -0.000555049 -0.001 0.00036091 -0.000389728 -0.001 0.000531628 0.000120564 -0.001 
-0.000285451 0.000435562 -0.001 0.000192719 -0.000494604 -0.001 0.00041642 0.00039368 -0.001 
-0.000135943 0.000554637 -0.001 -0.000170665 -0.000610079 -0.001 -0.000666304 0.000434981 -0.001 
-0.000758736 0.000479231 -0.001 -0.000470189 -0.000458901 -0.001 0.000203433 -8.59809e-05 -0.001 
0.000101846 0.000170114 -0.001 -0.00035513 -0.00040726 -0.001 0.000100184 -0.000165831 -0.001 
2.96286e-05 0.00081537 -0.001 0.000720946 0.000381836 -0.001 -0.000539809 -0.000292001 -0.001 
0.00052211 -0.000182426 -0.001 -6.41339e-05 -0.000753908 -0.001 0.000638039 -0.000299861 -0.001 
-0.000605136 -0.000230182 -0.001 -3.41638e-05 -0.000145561 -0.001 -0.000104037 0.000172396 -0.001 
-0.000808575 -0.00042774 -0.001 -0.000807207 -0.000465052 -0.001 -0.00080817 0.000429771 -0.001 
-0.000806589 0.000469738 -0.001 -9.50634e-05 -0.000178909 -0.001 0.000247777 0.000445058 -0.001 
1.48293e-05 -0.000814201 -0.001 -4.11555e-05 0.000140955 -0.001 0.000276104 -0.000536845 -0.001 
0.000765969 -0.000436638 -0.001 0.000780871 -0.000362769 -0.001 0.000424176 -0.000642018 -0.001 
0.00053413 -0.000368009 -0.001 -0.000416333 4.17911e-05 -0.001 -0.000133891 -6.23822e-05 -0.001 
4.2574e-05 0.000206312 -0.001 0.000141163 -0.000121542 -0.001 0.000707423 0.000212137 -0.001 
0.000172327 0.000723882 -0.001 7.72652e-06 -0.00090254 -0.001 -0.000134435 5.66935e-05 -0.001 
-0.000188826 3.70894e-05 -0.001 0.000197119 8.09714e-05 -0.001 1.27801e-05 0.000917296 -0.001 
0.000800767 0.00044758 -0.001 -0.000686682 0.000507104 -0.001 9.35831e-05 0.000110457 -0.001 
-0.000696793 -0.000509595 -0.001 -0.00068446 -8.52012e-05 -0.001 -0.000691033 -0.000201242 -0.001 
5.24052e-05 -0.000189075 -0.001 -0.000151818 -0.000701092 -0.001 -0.000296988 0.000518087 -0.001 
9.31023e-05 -0.000108117 -0.001 0.00044261 -0.000416726 -0.001 0.000197044 -0.000784423 -0.001 
-0.000516861 0.000504567 -0.001 0.000298997 0.000502377 -0.001 

CELLS 563 3941
6 14 304 127 29 554 377 
6 143 259 55 393 509 103 
6 300 319 174 550 569 424 
6 259 349 55 509 599 103 
6 50 365 307 98 615 557 
6 299 320 164 549 570 414 
6 126 304 14 376 554 29 
6 298 319 300 548 569 550 
6 205 240 238 455 490 488 
6 257 308 145 507 558 395 
6 130 352 273 380 602 523 
6 295 320 299 545 570 549 
6 324 327 289 574 577 539 
6 235 258 143 485 508 393 
6 50 307 49 98 557 97 
6 207 283 279 457 533 529 
6 143 373 235 393 623 485 
6 145 308 252 395 558 502 
6 194 303 196 444 553 446 
6 279 306 207 529 556 457 
6 206 305 163 456 555 413 
6 51 357 9 99 607 24 
6 238 252 205 488 502 455 
6 293 317 209 543 567 459 
6 207 316 283 457 566 533 
6 142 301 249 392 551 499 
6 273 359 130 523 609 380 
6 211 327 324 461 577 574 
6 169 265 217 419 515 467 
6 7 365 50 22 615 98 
6 283 316 253 533 566 503 
6 159 268 223 409 518 473 
6 274 337 132 524 587 382 
6 232 361 329 482 611 579 
6 231 266 45 481 516 93 
6 229 362 330 479 612 580 
6 9 244 57 24 494 105 
6 230 276 52 480 526 100 
6 209 311 293 459 561 543 
6 131 342 302 381 592 552 
6 270 271 204 520 521 454 
6 66 243 1 114 493 16 
6 59 241 12 107 491 27 
6 280 306 279 530 556 529 
6 269 337 274 519 587 524 
6 179 256 224 429 506 474 
6 163 305 166 413 555 416 
6 201 303 194 451 553 444 
6 280 332 306 530 582 556 
6 186 255 225 436 505 475 
6 210 310 273 460 560 523 
6 153 270 204 403 520 454 
6 136 231 45 386 481 93 
6 171 265 169 421 515 419 
6 138 230 52 388 480 100 
6 225 354 325 475 604 575 
6 36 284 232 84 534 482 
6 161 268 159 411 518 409 
6 71 286 229 119 536 479 
6 290 303 201 540 553 451 
6 139 355 60 389 605 108 
6 60 355 248 108 605 498 
6 273 352 302 523 602 552 
6 235 373 245 485 623 495 
6 67 356 247 115 606 497 
6 221 295 277 471 545 527 
6 142 356 67 392 606 115 
6 139 283 253 389 533 503 
6 203 315 262 453 565 512 
6 41 257 145 89 507 395 
6 36 232 135 84 482 385 
6 71 229 137 119 479 387 
6 254 255 188 504 505 438 
6 233 350 334 483 600 584 
6 262 346 203 512 596 453 
6 304 325 127 554 575 377 
6 222 329 247 472 579 497 
6 218 298 260 468 548 510 
6 290 321 291 540 571 541 
6 272 310 240 522 560 490 
6 269 274 270 519 524 520 
6 244 245 57 494 495 105 
6 49 307 141 97 557 391 
6 225 325 256 475 575 506 
6 273 310 272 523 560 522 
6 312 368 255 562 618 505 
6 249 305 206 499 555 456 
6 228 331 251 478 581 501 
6 302 342 263 552 592 513 
6 338 339 44 588 589 92 
6 190 254 188 440 504 438 
6 37 341 340 85 591 590 
6 138 233 230 388 483 480 
6 228 335 331 478 585 581 
6 181 256 179 431 506 429 
6 195 263 226 445 513 476 
6 268 285 223 518 535 473 
6 290 291 288 540 541 538 
6 219 330 248 469 580 498 
6 201 321 290 451 571 540 
6 240 310 202 490 560 452 
6 188 255 186 438 505 436 
6 270 274 271 520 524 521 
6 262 349 259 512 599 509 
6 141 324 289 391 574 539 
6 296 301 142 546 551 392 
6 247 356 222 497 606 472 
6 239 252 238 489 502 488 
6 254 312 255 504 562 505 
6 54 261 53 102 511 101 
6 289 327 303 539 577 553 
6 268 353 285 518 603 535 
6 273 302 210 523 552 460 
6 292 299 293 542 549 543 
6 278 283 139 528 533 389 
6 175 265 171 425 515 421 
6 227 338 38 477 588 86 
6 264 360 265 514 610 515 
6 43 340 146 91 590 396 
6 165 268 161 415 518 411 
6 205 351 240 455 601 490 
6 64 281 63 112 531 111 
6 288 291 47 538 541 95 
6 135 295 294 385 545 544 
6 42 257 41 90 507 89 
6 245 373 57 495 623 105 
6 31 363 323 79 613 573 
6 292 293 140 542 543 390 
6 267 353 268 517 603 518 
6 155 270 153 405 520 403 
6 244 344 245 494 594 495 
6 61 278 139 109 528 389 
6 135 294 35 385 544 83 
6 69 297 296 117 547 546 
6 186 225 184 436 475 434 
6 329 361 243 579 611 493 
6 255 328 225 505 578 475 
6 213 332 280 463 582 530 
6 39 275 133 87 525 383 
6 330 362 241 580 612 491 
6 195 226 193 445 476 443 
6 211 324 251 461 574 501 
6 151 153 152 401 403 402 
6 295 299 294 545 549 544 
6 265 313 217 515 563 467 
6 258 259 143 508 509 393 
6 251 331 211 501 581 461 
6 149 151 150 399 401 400 
6 293 370 317 543 620 567 
6 153 204 152 403 454 402 
6 151 152 150 401 402 400 
6 33 292 140 81 542 390 
6 210 263 197 460 513 447 
6 301 305 249 551 555 499 
6 298 300 297 548 550 547 
6 68 296 142 116 546 392 
6 321 369 291 571 619 541 
6 179 224 177 429 474 427 
6 167 267 165 417 517 415 
6 259 346 262 509 596 512 
6 303 327 196 553 577 446 
6 269 270 155 519 520 405 
6 265 360 313 515 610 563 
6 223 269 157 473 519 407 
6 157 269 155 407 519 405 
6 144 279 278 394 529 528 
6 169 217 167 419 467 417 
6 177 264 175 427 514 425 
6 267 268 165 517 518 415 
6 159 223 157 409 473 407 
6 232 277 135 482 527 385 
6 193 254 190 443 504 440 
6 217 267 167 467 517 417 
6 249 356 142 499 606 392 
6 184 256 181 434 506 431 
6 248 355 219 498 605 469 
6 229 260 137 479 510 387 
6 149 150 148 399 400 398 
6 64 348 281 112 598 531 
6 311 374 293 561 624 543 
6 264 265 175 514 515 425 
6 297 300 296 547 550 546 
6 141 289 288 391 539 538 
6 197 263 195 447 513 445 
6 218 260 219 468 510 469 
6 224 264 177 474 514 427 
6 137 298 297 387 548 547 
6 277 295 135 527 545 385 
6 133 228 227 383 478 477 
6 261 349 262 511 599 512 
6 221 277 222 471 527 472 
6 256 325 224 506 575 474 
6 199 210 197 449 460 447 
6 226 254 193 476 504 443 
6 144 278 62 394 528 110 
6 279 283 278 529 533 528 
6 289 290 288 539 540 538 
6 137 297 70 387 547 118 
6 34 294 292 82 544 542 
6 235 236 216 485 486 466 
6 141 288 48 391 538 96 
6 178 306 180 428 556 430 
6 185 186 184 435 436 434 
6 63 281 144 111 531 394 
6 225 256 184 475 506 434 
6 46 291 136 94 541 386 
6 147 149 148 397 399 398 
6 271 272 204 521 522 454 
6 233 334 234 483 584 484 
6 145 275 40 395 525 88 
6 220 322 287 470 572 537 
6 280 334 213 530 584 463 
6 144 280 279 394 530 529 
6 140 287 32 390 537 80 
6 154 155 153 404 405 403 
6 334 350 213 584 600 463 
6 176 177 175 426 427 425 
6 260 298 137 510 548 387 
6 33 140 32 81 390 80 
6 49 141 48 97 391 96 
6 56 143 55 104 393 103 
6 68 142 67 116 392 115 
6 63 144 62 111 394 110 
6 61 139 60 109 389 108 
6 148 308 257 398 558 507 
6 71 137 70 119 387 118 
6 53 138 52 101 388 100 
6 46 136 45 94 386 93 
6 36 135 35 84 385 83 
6 43 146 134 91 396 384 
6 133 227 38 383 477 86 
6 192 193 190 442 443 440 
6 293 374 140 543 624 390 
6 34 292 33 82 542 81 
6 207 306 178 457 556 428 
6 43 134 42 91 384 90 
6 39 133 38 87 383 86 
6 41 145 40 89 395 88 
6 194 195 193 444 445 443 
6 69 296 68 117 546 116 
6 294 299 292 544 549 542 
6 173 175 171 423 425 421 
6 260 330 219 510 580 469 
6 183 184 181 433 434 431 
6 134 257 42 384 507 90 
6 55 349 54 103 599 102 
6 163 165 161 413 415 411 
6 166 167 165 416 417 415 
6 210 302 263 460 552 513 
6 271 273 272 521 523 522 
6 53 261 138 101 511 388 
6 217 326 267 467 576 517 
6 289 303 290 539 553 540 
6 178 179 177 428 429 427 
6 238 240 202 488 490 452 
6 62 278 61 110 528 109 
6 35 294 34 83 544 82 
6 284 361 232 534 611 482 
6 70 297 69 118 547 117 
6 224 304 264 474 554 514 
6 156 157 155 406 407 405 
6 48 288 47 96 538 95 
6 221 320 295 471 570 545 
6 187 188 186 437 438 436 
6 47 291 46 95 541 94 
6 151 154 153 401 404 403 
6 286 362 229 536 612 479 
6 168 169 167 418 419 417 
6 40 275 39 88 525 87 
6 307 324 141 557 574 391 
6 300 301 296 550 551 546 
6 32 287 31 80 537 79 
6 147 220 149 397 470 399 
6 333 344 231 583 594 481 
6 299 370 293 549 620 543 
6 271 359 273 521 609 523 
6 224 325 304 474 575 554 
6 228 237 227 478 487 477 
6 305 375 343 555 625 593 
6 218 319 298 468 569 548 
6 240 351 272 490 601 522 
6 277 329 222 527 579 472 
6 253 355 139 503 605 389 
6 158 159 157 408 409 407 
6 236 246 216 486 496 466 
6 192 194 193 442 444 443 
6 220 309 149 470 559 399 
6 183 185 184 433 435 434 
6 196 197 195 446 447 445 
6 276 347 58 526 597 106 
6 136 333 231 386 583 481 
6 67 247 66 115 497 114 
6 60 248 59 108 498 107 
6 261 262 250 511 512 500 
6 173 176 175 423 426 425 
6 344 357 231 594 607 481 
6 144 281 280 394 531 530 
6 152 205 150 402 455 400 
6 163 166 165 413 416 415 
6 185 187 186 435 437 436 
6 233 234 230 483 484 480 
6 170 171 169 420 421 419 
6 146 147 134 396 397 384 
6 176 178 177 426 428 427 
6 285 337 223 535 587 473 
6 154 156 155 404 406 405 
6 263 342 226 513 592 476 
6 235 245 236 485 495 486 
6 160 161 159 410 411 409 
6 58 347 242 106 597 492 
6 166 168 167 416 418 417 
6 287 374 220 537 624 470 
6 189 190 188 439 440 438 
6 148 257 134 398 507 384 
6 194 196 195 444 446 445 
6 252 308 205 502 558 455 
6 285 345 337 535 595 587 
6 301 375 305 551 625 555 
6 180 181 179 430 431 429 
6 281 348 234 531 598 484 
6 198 199 197 448 449 447 
6 151 309 154 401 559 404 
6 228 367 335 478 617 585 
6 54 349 261 102 599 511 
6 156 158 157 406 408 407 
6 168 170 169 418 420 419 
6 200 202 199 450 452 449 
6 147 148 134 397 398 384 
6 158 160 159 408 410 409 
6 150 308 148 400 558 398 
6 253 316 208 503 566 458 
6 232 329 277 482 579 527 
6 178 180 179 428 430 429 
6 191 192 190 441 442 440 
6 214 238 202 464 488 452 
6 172 173 171 422 423 421 
6 187 189 188 437 439 438 
6 162 163 161 412 413 411 
6 228 251 237 478 501 487 
6 215 258 235 465 508 485 
6 182 183 181 432 433 431 
6 202 310 199 452 560 449 
6 219 253 208 469 503 458 
6 222 249 206 472 499 456 
6 196 198 197 446 448 447 
6 229 330 260 479 580 510 
6 132 358 274 382 608 524 
6 149 309 151 399 559 401 
6 226 312 254 476 562 504 
6 154 309 209 404 559 459 
6 77 129 76 125 379 124 
6 73 128 72 121 378 120 
6 76 131 75 124 381 123 
6 74 132 73 122 382 121 
6 75 130 74 123 380 122 
6 14 127 77 29 377 125 
6 72 126 14 120 376 29 
6 133 367 228 383 617 478 
6 237 282 227 487 532 477 
6 239 366 252 489 616 502 
6 200 214 202 450 464 452 
6 192 201 194 442 451 444 
6 170 172 171 420 422 421 
6 220 311 309 470 561 559 
6 198 200 199 448 450 449 
6 189 191 190 439 441 440 
6 146 323 322 396 573 572 
6 160 162 161 410 412 411 
6 251 307 237 501 557 487 
6 199 310 210 449 560 460 
6 57 373 56 105 623 104 
6 214 239 238 464 489 488 
6 182 212 183 432 462 433 
6 180 182 181 430 432 431 
6 146 322 147 396 572 397 
6 172 218 208 422 468 458 
6 172 208 173 422 458 423 
6 162 221 206 412 471 456 
6 162 206 163 412 456 413 
6 176 207 178 426 457 428 
6 272 351 204 522 601 454 
6 198 211 200 448 461 450 
6 182 213 212 432 463 462 
6 234 334 281 484 584 531 
6 154 209 156 404 459 406 
6 185 203 187 435 453 437 
6 168 174 170 418 424 420 
6 189 215 191 439 465 441 
6 215 216 191 465 466 441 
6 221 222 206 471 472 456 
6 158 164 160 408 414 410 
6 218 219 208 468 469 458 
6 205 308 150 455 558 400 
6 191 314 192 441 564 442 
6 215 235 216 465 485 466 
6 215 318 258 465 568 508 
6 152 351 205 402 601 455 
6 138 261 250 388 511 500 
6 192 314 201 442 564 451 
6 234 347 230 484 597 480 
6 226 342 312 476 592 562 
6 138 250 233 388 500 483 
6 147 322 220 397 572 470 
6 216 314 191 466 564 441 
6 306 332 180 556 582 430 
6 222 356 249 472 606 499 
6 128 345 285 378 595 535 
6 314 321 201 564 571 451 
6 212 315 183 462 565 433 
6 312 342 336 562 592 586 
6 282 339 338 532 589 588 
6 340 341 323 590 591 573 
6 309 311 209 559 561 459 
6 183 315 185 433 565 435 
6 208 316 173 458 566 423 
6 173 316 176 423 566 426 
6 3 341 37 18 591 85 
6 44 339 6 92 589 21 
6 252 366 145 502 616 395 
6 246 321 314 496 571 564 
6 246 314 216 496 564 466 
6 126 364 313 376 614 563 
6 156 317 158 406 567 408 
6 275 367 133 525 617 383 
6 176 316 207 426 566 457 
6 185 315 203 435 565 453 
6 180 332 182 430 582 432 
6 302 352 131 552 602 381 
6 251 324 307 501 574 557 
6 187 318 189 437 568 439 
6 172 319 218 422 569 468 
6 162 320 221 412 570 471 
6 305 343 166 555 593 416 
6 170 319 172 420 569 422 
6 158 317 164 408 567 414 
6 209 317 156 459 567 406 
6 285 353 128 535 603 378 
6 223 337 269 473 587 519 
6 160 320 162 410 570 412 
6 211 331 200 461 581 450 
6 174 319 170 424 569 420 
6 203 318 187 453 568 437 
6 189 318 215 439 568 465 
6 198 327 211 448 577 461 
6 164 320 160 414 570 410 
6 326 353 267 576 603 517 
6 236 344 333 486 594 583 
6 196 327 198 446 577 448 
6 219 355 253 469 605 503 
6 281 334 280 531 584 530 
6 274 359 271 524 609 521 
6 164 370 299 414 620 549 
6 174 375 300 424 625 550 
6 287 363 31 537 613 79 
6 243 361 1 493 611 16 
6 241 362 12 491 612 27 
6 307 365 237 557 615 487 
6 166 343 168 416 593 418 
6 200 331 214 450 581 464 
6 313 326 217 563 576 467 
6 9 357 244 24 607 494 
6 1 361 30 16 611 78 
6 12 362 65 27 612 113 
6 337 345 132 587 595 382 
6 242 348 64 492 598 112 
6 231 357 266 481 607 516 
6 182 332 213 432 582 463 
6 245 344 236 495 594 486 
6 258 346 259 508 596 509 
6 145 366 275 395 616 525 
6 291 369 136 541 619 386 
6 236 333 246 486 583 496 
6 331 335 214 581 585 464 
6 312 336 129 562 586 379 
6 315 372 262 565 622 512 
6 220 374 311 470 624 561 
6 140 374 287 390 624 537 
6 126 360 304 376 610 554 
6 230 347 276 480 597 526 
6 313 364 326 563 614 576 
6 56 373 143 104 623 393 
6 239 367 366 489 617 616 
6 204 351 152 454 601 402 
6 300 375 301 550 625 551 
6 214 335 239 464 585 489 
6 247 329 243 497 579 493 
6 262 372 250 512 622 500 
6 248 330 241 498 580 491 
6 318 346 258 568 596 508 
6 333 369 246 583 619 496 
6 282 338 227 532 588 477 
6 146 340 323 396 590 573 
6 304 360 264 554 610 514 
6 366 367 275 616 617 525 
6 129 336 76 379 586 124 
6 73 345 128 121 595 378 
6 76 336 131 124 586 381 
6 250 350 233 500 600 483 
6 129 371 328 379 621 578 
6 132 345 73 382 595 121 
6 168 343 174 418 593 424 
6 131 352 75 381 602 123 
6 66 247 243 114 497 493 
6 59 248 241 107 498 491 
6 74 358 132 122 608 382 
6 203 346 318 453 596 568 
6 313 360 126 563 610 376 
6 128 364 72 378 614 120 
6 128 353 326 378 603 576 
6 77 371 129 125 621 379 
6 129 368 312 379 618 562 
6 244 357 344 494 607 594 
6 328 354 225 578 604 475 
6 326 364 128 576 614 378 
6 75 352 130 123 602 380 
6 350 372 212 600 622 462 
6 136 369 333 386 619 583 
6 325 354 127 575 604 377 
6 213 350 212 463 600 462 
6 130 358 74 380 608 122 
6 250 372 350 500 622 600 
6 317 370 164 567 620 414 
6 72 364 126 120 614 376 
6 328 368 129 578 618 379 
6 127 371 77 377 621 125 
6 336 342 131 586 592 381 
6 212 372 315 462 622 565 
6 234 348 347 484 598 597 
6 8 266 51 23 516 99 
6 10 276 58 25 526 106 
6 246 369 321 496 619 571 
6 30 284 0 78 534 15 
6 65 286 13 113 536 28 
6 58 242 11 106 492 26 
6 266 357 51 516 607 99 
6 255 368 328 505 618 578 
6 347 348 242 597 598 492 
6 322 363 287 572 613 537 
6 323 363 322 573 613 572 
6 335 367 239 585 617 489 
6 30 361 284 78 611 534 
6 65 362 286 113 612 536 
6 237 365 282 487 615 532 
6 130 359 358 380 609 608 
6 343 375 174 593 625 424 
6 354 371 127 604 621 377 
6 328 371 354 578 621 604 
6 358 359 274 608 609 524 
6 0 284 36 15 534 84 
6 45 266 8 93 516 23 
6 52 276 10 100 526 25 
6 11 242 64 26 492 112 
6 13 286 71 28 536 119 
6 2 323 3 17 573 18 
6 31 323 2 79 573 17 
6 323 341 3 573 591 18 
6 37 340 4 85 590 19 
6 4 340 43 19 590 91 
6 38 338 5 86 588 20 
6 5 338 44 20 588 92 
6 6 282 7 21 532 22 
6 6 339 282 21 589 532 
6 282 365 7 532 615 22 

CELL_TYPES 563
13
13
13
13
13
13
13
13
13
13
13
13
13
13
13
13
13
13
13
13
13
13
13
13
13
13
13
13
13
13
13
13
13
13
13
13
13
13
13
13
13
13
13
13
13
13
13
13
13
13
13
13
13
13
13
13
13
13
13
13
13
13
13
13
13
13
13
13
13
13
13
13
13
13
13
13
13
13
13
13
13
13
13
13
13
13
13
13
13
13
13
13
13
13
13
13
13
13
13
13
13
13
13
13
13
13
13
13
13
13
13
13
13
13
13
13
13
13
13
13
13
13
13
13
13
13
13
13
13
13
13
13
13
13
13
13
13
13
13
13
13
13
13
13
13
13
13
13
13
13
13
13
13
13
13
13
13
13
13
13
13
13
13
13
13
13
13
13
13
13
13
13
13
13
13
13
13
13
13
13
13
13
13
13
13
13
13
13
13
13
13
13
13
13
13
13
13
13
13
13
13
13
13
13
13
13
13
13
13
13
13
13
13
13
13
13
13
13
13
13
13
13
13
13
13
13
13
13
13
13
13
13
13
13
13
13
13
13
13
13
13
13
13
13
13
13
13
13
13
13
13
13
13
13
13
13
13
13
13
13
13
13
13
13
13
13
13
13
13
13
13
13
13
13
13
13
13
13
13
13
13
13
13
13
13
13
13
13
13
13
13
13
13
13
13
13
13
13
13
13
13
13
13
13
13
13
13
13
13
13
13
13
13
13
13
13
13
13
13
13
13
13
13
13
13
13
13
13
13
13
13
13
13
13
13
13
13
13
13
13
13
13
13
13
13
13
13
13
13
13
13
13
13
13
13
13
13
13
13
13
13
13
13
13
13
13
13
13
13
13
13
13
13
13
13
13
13
13
13
13
13
13
13
13
13
13
13
13
13
13
13
13
13
13
13
13
13
13
13
13
13
13
13
13
13
13
13
13
13
13
13
13
13
13
13
13
13
13
13
13
13
13
13
13
13
13
13
13
13
13
13
13
13
13
13
13
13
13
13
13
13
13
13
13
13
13
13
13
13
13
13
13
13
13
13
13
13
13
13
13
13
13
13
13
13
13
13
13
13
13
13
13
13
13
13
13
13
13
13
13
13
13
13
13
13
13
13
13
13
13
13
13
13
13
13
13
13
13
13
13
13
13
13
13
13
13
13
13
13
13
13
13
13
13
13
13
13
13
13
13
13
13
13
13
13
13
13
13
13
13
13
13
13
13
13
13
13
13
13
13
13
13
13
13
13
13
13
13
13
13
13
13
13
13
13
13
13
13
13
13
13
13
13

POINT_DATA 626
VECTORS displacement float
-1.74395e-06 3.09545e-05 1.8055e-05
1.73566e-06 3.09735e-05 1.81001e-05
-2.59863e-05 1.69929e-05 1.80871e-05
-2.5841e-05 1.6033e-05 1.80517e-05
-2.77207e-05 1.39728e-05 1.80691e-05
-2.77137e-05 -1.40191e-05 1.80945e-05
-2.58122e-05 -1.60712e-05 1.81059e-05
-2.59825e-05 -1.70109e-05 1.81671e-05
-1.6774e-06 -3.09582e-05 1.80514e-05
1.75545e-06 -3.09597e-05 1.81019e-05
2.59437e-05 -1.69807e-05 1.80435e-05
2.77171e-05 -1.39367e-05 1.80434e-05
2.76725e-05 1.39894e-05 1.80917e-05
2.5915e-05 1.6993e-05 1.8046e-05
0 0 0
-1.74395e-06 3.09545e-05 -1.8055e-05
1.73566e-06 3.09735e-05 -1.81001e-05
-2.59863e-05 1.69929e-05 -1.80871e-05
-2.5841e-05 1.6033e-05 -1.80517e-05
-2.77207e-05 1.39728e-05 -1.80691e-05
-2.77137e-05 -1.40191e-05 -1.80945e-05
-2.58122e-05 -1.60712e-05 -1.81059e-05
-2.59825e-05 -1.70109e-05 -1.81671e-05
-1.6774e-06 -3.09582e-05 -1.80514e-05
1.75545e-06 -3.09597e-05 -1.81019e-05
2.59437e-05 -1.69807e-05 -1.80435e-05
2.77171e-05 -1.39367e-05 -1.80434e-05
2.76725e-05 1.39894e-05 -1.80917e-05
2.5915e-05 1.6993e-05 -1.8046e-05
0 0 0
2.4894e-08 3.01544e-05 1.80342e-05
-2.11406e-05 1.87124e-05 1.75497e-05
-1.72325e-05 1.98338e-05 1.69208e-05
-1.4007e-05 2.10543e-05 1.65549e-05
-1.12069e-05 2.26649e-05 1.65488e-05
-8.52409e-06 2.48329e-05 1.69013e-05
-5.5678e-06 2.76218e-05 1.75374e-05
-2.64499e-05 1.46791e-05 1.80335e-05
-2.67688e-05 -9.01155e-06 1.75774e-05
-2.58063e-05 -5.03548e-06 1.6926e-05
-2.52545e-05 -1.63621e-06 1.65714e-05
-2.52575e-05 1.60785e-06 1.65744e-05
-2.57985e-05 5.02288e-06 1.69242e-05
-2.6755e-05 8.98463e-06 1.75639e-05
-2.64368e-05 -1.47255e-05 1.80623e-05
-5.54106e-06 -2.76362e-05 1.75297e-05
-8.47661e-06 -2.48419e-05 1.69007e-05
-1.11701e-05 -2.26843e-05 1.65562e-05
-1.39706e-05 -2.10873e-05 1.65595e-05
-1.7215e-05 -1.98692e-05 1.69367e-05
-2.11342e-05 -1.87492e-05 1.75622e-05
8.98395e-08 -3.01392e-05 1.80294e-05
2.1124e-05 -1.86249e-05 1.75115e-05
1.72447e-05 -1.97622e-05 1.68728e-05
1.40339e-05 -2.10112e-05 1.65116e-05
1.12251e-05 -2.2593e-05 1.65461e-05
8.58125e-06 -2.47801e-05 1.68742e-05
5.65468e-06 -2.76265e-05 1.7535e-05
2.61246e-05 -1.50597e-05 1.80284e-05
2.67169e-05 8.93842e-06 1.75015e-05
2.57221e-05 5.0496e-06 1.69084e-05
2.52066e-05 1.62332e-06 1.65232e-05
2.52037e-05 -1.59943e-06 1.65215e-05
2.57507e-05 -4.99739e-06 1.68883e-05
2.66989e-05 -8.91717e-06 1.75097e-05
2.61077e-05 1.50608e-05 1.80254e-05
5.63314e-06 2.76178e-05 1.75096e-05
8.50863e-06 2.48068e-05 1.69112e-05
1.12171e-05 2.26411e-05 1.65294e-05
1.40045e-05 2.10222e-05 1.65247e-05
1.72217e-05 1.97935e-05 1.68851e-05
2.1115e-05 1.86345e-05 1.75254e-05
0 0 0
0 0 0
0 0 0
0 0 0
0 0 0
0 0 0
2.4894e-08 3.01544e-05 -1.80342e-05
-2.11406e-05 1.87124e-05 -1.75497e-05
-1.72325e-05 1.98338e-05 -1.69208e-05
-1.4007e-05 2.10543e-05 -1.65549e-05
-1.12069e-05 2.26649e-05 -1.65488e-05
-8.52409e-06 2.48329e-05 -1.69013e-05
-5.5678e-06 2.76218e-05 -1.75374e-05
-2.64499e-05 1.46791e-05 -1.80335e-05
-2.67688e-05 -9.01155e-06 -1.75774e-05
-2.58063e-05 -5.03548e-06 -1.6926e-05
-2.52545e-05 -1.63621e-06 -1.65714e-05
-2.52575e-05 1.60785e-06 -1.65744e-05
-2.57985e-05 5.02288e-06 -1.69242e-05
-2.6755e-05 8.98463e-06 -1.75639e-05
-2.64368e-05 -1.47255e-05 -1.80623e-05
-5.54106e-06 -2.76362e-05 -1.75297e-05
-8.47661e-06 -2.48419e-05 -1.69007e-05
-1.11701e-05 -2.26843e-05 -1.65562e-05
-1.39706e-05 -2.10873e-05 -1.65595e-05
-1.7215e-05 -1.98692e-05 -1.69367e-05
-2.11342e-05 -1.87492e-05 -1.75622e-05
8.98395e-08 -3.01392e-05 -1.80294e-05
2.1124e-05 -1.86249e-05 -1.75115e-05
1.72447e-05 -1.97622e-05 -1.68728e-05
1.40339e-05 -2.10112e-05 -1.65116e-05
1.12251e-05 -2.2593e-05 -1.65461e-05
8.58125e-06 -2.47801e-05 -1.68742e-05
5.65468e-06 -2.76265e-05 -1.7535e-05
2.61246e-05 -1.50597e-05 -1.80284e-05
2.67169e-05 8.93842e-06 -1.75015e-05
2.57221e-05 5.0496e-06 -1.69084e-05
2.52066e-05 1.62332e-06 -1.65232e-05
2.52037e-05 -1.59943e-06 -1.65215e-05
2.57507e-05 -4.99739e-06 -1.68883e-05
2.66989e-05 -8.91717e-06 -1.75097e-05
2.61077e-05 1.50608e-05 -1.80254e-05
5.63314e-06 2.76178e-05 -1.75096e-05
8.50863e-06 2.48068e-05 -1.69112e-05
1.12171e-05 2.26411e-05 -1.65294e-05
1.40045e-05 2.10222e-05 -1.65247e-05
1.72217e-05 1.97935e-05 -1.68851e-05
2.1115e-05 1.86345e-05 -1.75254e-05
0 0 0
0 0 0
0 0 0
0 0 0
0 0 0
0 0 0
1.79368e-06 8.58746e-07 4.55225e-06
1.73782e-06 -8.25114e-07 4.4608e-06
4.31954e-07 1.84962e-06 4.49512e-06
4.36098e-07 -1.78063e-06 4.35609e-06
-1.84749e-06 2.09631e-08 4.42236e-06
-1.12309e-06 -1.30887e-06 4.151e-06
-1.15921e-06 1.3068e-06 4.19978e-06
-2.25131e-05 -7.28768e-06 1.69999e-05
-2.21964e-05 7.37157e-06 1.69686e-05
-4.86044e-06 2.28985e-05 1.6937e-05
-4.85796e-06 -2.31316e-05 1.69639e-05
1.74212e-05 1.56355e-05 1.69298e-05
1.75688e-05 -1.55364e-05 1.69391e-05
2.10735e-05 3.16388e-06 1.63244e-05
-1.39531e-05 1.71513e-05 1.64783e-05
-1.35912e-05 -1.67413e-05 1.64099e-05
7.76785e-06 1.98195e-05 1.63312e-05
7.68487e-06 -2.03099e-05 1.64025e-05
2.14723e-05 -3.44373e-06 1.64001e-05
-2.11027e-05 6.58809e-09 1.62466e-05
-2.24204e-05 1.09997e-05 1.74536e-05
-1.87509e-05 9.25469e-06 1.6627e-05
-1.79828e-05 5.79545e-06 1.60362e-05
-1.49839e-05 7.44833e-06 1.54863e-05
-1.42244e-05 4.30772e-06 1.48296e-05
-1.15326e-05 5.74388e-06 1.40946e-05
-1.0858e-05 3.06873e-06 1.33734e-05
-8.40048e-06 4.30487e-06 1.24042e-05
-9.0588e-06 7.0134e-06 1.34562e-05
-6.2041e-06 5.4885e-06 1.16889e-05
-6.8283e-06 8.24944e-06 1.30798e-05
-4.28139e-06 6.6749e-06 1.14504e-05
-4.80001e-06 9.60992e-06 1.30938e-05
-2.40087e-06 7.99334e-06 1.17228e-05
-2.81285e-06 1.11672e-05 1.34748e-05
-4.7541e-07 9.59529e-06 1.25008e-05
-7.38354e-07 1.29969e-05 1.41416e-05
1.73108e-06 1.15178e-05 1.35349e-05
-5.53468e-06 1.27004e-05 1.44368e-05
1.68508e-06 8.22397e-06 1.17474e-05
4.00418e-06 1.01209e-05 1.31508e-05
3.70535e-06 7.09795e-06 1.14781e-05
6.0674e-06 8.96666e-06 1.31132e-05
5.76682e-06 6.10679e-06 1.17354e-05
8.35808e-06 8.02032e-06 1.34919e-05
8.10565e-06 5.19526e-06 1.25002e-05
1.0954e-05 7.09705e-06 1.41468e-05
1.0746e-05 4.32279e-06 1.34989e-05
8.53052e-06 1.10375e-05 1.44606e-05
7.93769e-06 2.64374e-06 1.17273e-05
1.0646e-05 1.7372e-06 1.31039e-05
7.94868e-06 3.5876e-07 1.14554e-05
1.08064e-05 -7.59112e-07 1.3124e-05
8.11164e-06 -1.9378e-06 1.1709e-05
1.10983e-05 -3.31285e-06 1.34838e-05
8.46973e-06 -4.42398e-06 1.24439e-05
1.15037e-05 -6.00288e-06 1.41093e-05
8.95557e-06 -7.13811e-06 1.34279e-05
6.14752e-06 -5.49441e-06 1.16412e-05
6.6445e-06 -8.30086e-06 1.30181e-05
4.1052e-06 -6.58851e-06 1.13108e-05
4.52336e-06 -9.55087e-06 1.29882e-05
2.24229e-06 -7.85829e-06 1.15972e-05
2.48483e-06 -1.10019e-05 1.33508e-05
2.25291e-07 -9.37369e-06 1.23535e-05
3.30014e-07 -1.27698e-05 1.40337e-05
-1.91544e-06 -1.11507e-05 1.33769e-05
-1.84107e-06 -7.92162e-06 1.15821e-05
-4.1679e-06 -9.87485e-06 1.30849e-05
-3.81394e-06 -6.7305e-06 1.1317e-05
-6.34562e-06 -8.66202e-06 1.30992e-05
-5.8913e-06 -5.69801e-06 1.16283e-05
-8.49972e-06 -7.4358e-06 1.33796e-05
-8.16755e-06 -4.72806e-06 1.24085e-05
-1.10957e-05 -6.40277e-06 1.40698e-05
-4.37166e-06 -1.31232e-05 1.44336e-05
-1.08089e-05 -3.65068e-06 1.34391e-05
7.22612e-06 -1.13728e-05 1.42729e-05
-7.74171e-06 1.98269e-06 1.14928e-05
-1.32161e-05 1.03506e-06 1.42109e-05
1.72912e-06 1.50828e-05 1.49522e-05
1.37681e-05 4.62238e-07 1.43877e-05
1.38432e-05 6.10011e-06 1.49317e-05
-9.69407e-06 1.01963e-05 1.45324e-05
-5.41602e-06 -3.19766e-06 1.01821e-05
-1.17136e-05 -9.29735e-06 1.48892e-05
1.18824e-05 -8.76022e-06 1.47871e-05
1.47818e-05 -7.47362e-06 1.54033e-05
-1.39598e-05 -5.2439e-06 1.48616e-05
2.79583e-06 -1.45162e-05 1.47962e-05
4.24564e-07 -1.64994e-05 1.53977e-05
3.51844e-06 4.39695e-06 9.5811e-06
1.40106e-05 9.29907e-06 1.54916e-05
1.79308e-05 8.14497e-06 1.63006e-05
-1.56755e-05 1.13954e-05 1.62335e-05
-1.09409e-06 1.67691e-05 1.54953e-05
1.90686e-06 1.96217e-05 1.6311e-05
-2.09187e-06 5.22009e-06 9.59759e-06
5.55396e-06 -7.84605e-07 9.59414e-06
3.58596e-06 -3.68357e-06 9.08198e-06
-1.77964e-06 -5.17859e-06 9.44961e-06
-2.24688e-05 -1.10108e-05 1.74743e-05
-1.87982e-05 -9.24144e-06 1.66511e-05
2.11479e-05 1.41648e-05 1.75056e-05
2.07538e-05 -1.43176e-05 1.74356e-05
-1.76461e-06 -2.54466e-05 1.7511e-05
-1.68214e-06 2.54106e-05 1.75156e-05
1.7713e-05 -1.19069e-05 1.66872e-05
2.06458e-05 -1.07511e-05 1.7116e-05
3.77565e-06 -1.89852e-05 1.61394e-05
7.68533e-07 -2.03458e-05 1.64829e-05
-1.94051e-05 -1.26506e-05 1.71432e-05
-1.37311e-05 -2.30693e-06 1.44719e-05
-1.65927e-05 -3.70144e-06 1.54775e-05
-1.03758e-05 -1.09639e-06 1.29521e-05
2.44521e-05 1.10728e-05 1.76516e-05
2.54976e-05 -1.24033e-05 1.78482e-05
2.64925e-06 2.6726e-05 1.76605e-05
2.52101e-06 -2.64136e-05 1.76294e-05
3.33947e-06 -2.30319e-05 1.70291e-05
-2.0539e-06 -1.83199e-05 1.59509e-05
4.05907e-06 2.37914e-05 1.71304e-05
2.26142e-05 8.37926e-06 1.71193e-05
4.61361e-06 1.73134e-05 1.57273e-05
1.4427e-05 -1.31195e-05 1.61374e-05
-1.57877e-05 -1.09847e-05 1.62146e-05
-1.67998e-05 -3.81428e-07 1.53773e-05
1.73059e-05 4.68748e-06 1.57256e-05
6.5522e-08 -6.38731e-06 1.02674e-05
1.74171e-06 -4.84846e-06 9.09248e-06
5.85046e-06 -2.93551e-06 1.03782e-05
-2.14442e-05 3.75051e-06 1.64588e-05
5.72936e-06 -1.62745e-05 1.55077e-05
9.08346e-06 -1.7499e-05 1.59975e-05
1.75722e-05 1.18817e-05 1.66723e-05
1.39942e-05 -1.63822e-05 1.64012e-05
1.074e-05 -1.3789e-05 1.55501e-05
-3.54797e-06 -4.22019e-06 9.50075e-06
5.39911e-06 1.1385e-06 9.49904e-06
5.21805e-06 3.22287e-06 1.00472e-05
-1.74979e-06 -2.83545e-05 1.78769e-05
1.89206e-06 5.29889e-06 9.58443e-06
-1.13823e-07 6.105e-06 1.00387e-05
-3.78492e-06 4.12774e-06 9.57839e-06
-5.62267e-06 3.03418e-06 1.02852e-05
-5.16547e-06 1.04067e-06 9.2136e-06
-7.52724e-06 -6.17391e-08 1.11724e-05
-4.33437e-06 -8.10277e-07 8.38184e-06
-3.10858e-06 1.87233e-06 7.37405e-06
-2.20811e-05 -3.60775e-06 1.65158e-05
2.34062e-05 -1.5688e-05 1.78361e-05
-1.5072e-06 2.11679e-05 1.6682e-05
2.12616e-05 -8.45195e-08 1.62257e-05
1.7622e-05 -1.6468e-06 1.55814e-05
1.73477e-05 -4.94167e-06 1.57706e-05
2.18915e-05 -7.4511e-06 1.69136e-05
-2.31822e-05 -1.42546e-05 1.78327e-05
1.73246e-05 1.64887e-06 1.55085e-05
-1.734e-06 2.8473e-05 1.78941e-05
-4.22071e-07 3.68341e-06 7.49529e-06
2.37719e-05 1.57423e-05 1.78845e-05
-1.74973e-05 1.56422e-05 1.69749e-05
-1.06262e-05 -1.84661e-05 1.6255e-05
-1.00995e-05 -1.43423e-05 1.55716e-05
-7.50776e-06 -1.60948e-05 1.5622e-05
-7.32212e-06 -2.01205e-05 1.63953e-05
-1.07044e-05 1.85352e-05 1.62668e-05
-1.03473e-05 1.43841e-05 1.56193e-05
-7.77263e-06 2.04924e-05 1.64442e-05
-4.25299e-06 1.86097e-05 1.60529e-05
1.07597e-05 1.83454e-05 1.62261e-05
1.38916e-05 1.69349e-05 1.6431e-05
1.40419e-05 1.29729e-05 1.60513e-05
-7.36157e-06 1.62883e-05 1.56385e-05
1.05251e-05 1.4547e-05 1.56452e-05
7.74874e-06 1.60923e-05 1.56139e-05
-3.11646e-06 -1.89876e-06 7.39318e-06
-7.25764e-06 -1.2422e-05 1.46251e-05
3.00866e-06 4.03602e-08 6.60098e-06
4.87257e-06 1.35227e-05 1.46181e-05
1.4076e-05 -2.26039e-06 1.45704e-05
-1.72898e-05 -1.52167e-05 1.69455e-05
-1.73665e-05 2.4203e-06 1.55978e-05
-1.22047e-05 8.91193e-06 1.49435e-05
-7.70563e-06 -2.29252e-06 1.15546e-05
-1.24498e-05 1.18126e-05 1.554e-05
-1.42735e-07 -3.75423e-06 7.55418e-06
2.73023e-06 2.27208e-06 7.25193e-06
-2.00386e-06 -1.46505e-05 1.4808e-05
9.36509e-06 -1.00682e-05 1.43894e-05
1.38607e-05 3.15781e-06 1.45661e-05
-7.34004e-06 1.11994e-05 1.42603e-05
4.99722e-06 -1.27748e-05 1.43693e-05
1.10319e-05 1.04305e-05 1.49196e-05
-3.59645e-06 1.46853e-05 1.4908e-05
-4.63547e-06 -1.66169e-05 1.55488e-05
-1.95071e-05 1.28925e-05 1.71613e-05
-2.3127e-05 1.48582e-05 1.78434e-05
-1.29049e-05 -1.26861e-05 1.58125e-05
3.7608e-06 -1.58613e-06 7.90696e-06
1.7644e-06 2.92229e-06 7.08444e-06
-9.23049e-06 -1.06095e-05 1.45318e-05
1.72774e-06 -2.82316e-06 6.93107e-06
9.94733e-07 2.41169e-05 1.73085e-05
2.1368e-05 1.11939e-05 1.72987e-05
-1.46646e-05 -7.9534e-06 1.54854e-05
1.37081e-05 -4.78633e-06 1.46907e-05
-1.90989e-06 -2.1763e-05 1.68028e-05
1.80604e-05 -8.41908e-06 1.63407e-05
-1.6679e-05 -6.32858e-06 1.57825e-05
-4.32901e-07 -1.92233e-06 4.79848e-06
-1.80537e-06 2.99545e-06 7.17719e-06
-2.50521e-05 -1.29818e-05 1.79223e-05
-2.51273e-05 -1.45073e-05 1.80021e-05
-2.50452e-05 1.30337e-05 1.79061e-05
-2.51181e-05 1.465e-05 1.79822e-05
-1.64846e-06 -3.12485e-06 7.20993e-06
6.32796e-06 1.13684e-05 1.40766e-05
5.33712e-07 -2.40862e-05 1.73023e-05
-5.22779e-07 1.80955e-06 4.64502e-06
7.40748e-06 -1.43437e-05 1.51524e-05
2.33029e-05 -1.32094e-05 1.77289e-05
2.36328e-05 -1.05376e-05 1.74909e-05
1.19884e-05 -1.8211e-05 1.62933e-05
1.47302e-05 -1.01467e-05 1.57956e-05
-1.00271e-05 1.00125e-06 1.27547e-05
-1.74002e-06 -8.15904e-07 4.72347e-06
7.69066e-07 3.70836e-06 7.57316e-06
2.34308e-06 -1.99716e-06 6.5553e-06
2.01566e-05 5.89784e-06 1.64537e-05
5.0701e-06 2.0596e-05 1.64961e-05
3.42118e-07 -2.76801e-05 1.78541e-05
-1.73123e-06 7.09113e-07 4.60634e-06
-3.21152e-06 6.2305e-07 6.82416e-06
3.57722e-06 1.47542e-06 7.63664e-06
4.99226e-07 2.83239e-05 1.79273e-05
2.47604e-05 1.37341e-05 1.79185e-05
-2.03284e-05 1.55359e-05 1.74291e-05
1.17871e-06 1.36448e-06 4.45987e-06
-2.06397e-05 -1.57285e-05 1.75277e-05
-1.8999e-05 -2.32219e-06 1.59462e-05
-1.95592e-05 -5.58501e-06 1.63323e-05
9.05685e-07 -3.24776e-06 7.00612e-06
-4.36604e-06 -1.97894e-05 1.63219e-05
-7.93731e-06 1.38345e-05 1.51011e-05
1.16575e-06 -1.30419e-06 4.33931e-06
1.19345e-05 -1.12284e-05 1.52922e-05
6.13309e-06 -2.26962e-05 1.68205e-05
-1.45222e-05 1.43554e-05 1.63237e-05
7.9291e-06 1.33213e-05 1.4948e-05
1.79368e-06 8.58746e-07 -4.55225e-06
1.73782e-06 -8.25114e-07 -4.4608e-06
4.31954e-07 1.84962e-06 -4.49512e-06
4.36098e-07 -1.78063e-06 -4.35609e-06
-1.84749e-06 2.09631e-08 -4.42236e-06
-1.12309e-06 -1.30887e-06 -4.151e-06
-1.15921e-06 1.3068e-06 -4.19978e-06
-2.25131e-05 -7.28768e-06 -1.69999e-05
-2.21964e-05 7.37157e-06 -1.69686e-05
-4.86044e-06 2.28985e-05 -1.6937e-05
-4.85796e-06 -2.31316e-05 -1.69639e-05
1.74212e-05 1.56355e-05 -1.69298e-05
1.75688e-05 -1.55364e-05 -1.69391e-05
2.10735e-05 3.16388e-06 -1.63244e-05
-1.39531e-05 1.71513e-05 -1.64783e-05
-1.35912e-05 -1.67413e-05 -1.64099e-05
7.76785e-06 1.98195e-05 -1.63312e-05
7.68487e-06 -2.03099e-05 -1.64025e-05
2.14723e-05 -3.44373e-06 -1.64001e-05
-2.11027e-05 6.58809e-09 -1.62466e-05
-2.24204e-05 1.09997e-05 -1.74536e-05
-1.87509e-05 9.25469e-06 -1.6627e-05
-1.79828e-05 5.79545e-06 -1.60362e-05
-1.49839e-05 7.44833e-06 -1.54863e-05
-1.42244e-05 4.30772e-06 -1.48296e-05
-1.15326e-05 5.74388e-06 -1.40946e-05
-1.0858e-05 3.06873e-06 -1.33734e-05
-8.40048e-06 4.30487e-06 -1.24042e-05
-9.0588e-06 7.0134e-06 -1.34562e-05
-6.2041e-06 5.4885e-06 -1.16889e-05
-6.8283e-06 8.24944e-06 -1.30798e-05
-4.28139e-06 6.6749e-06 -1.14504e-05
-4.80001e-06 9.60992e-06 -1.30938e-05
-2.40087e-06 7.99334e-06 -1.17228e-05
-2.81285e-06 1.11672e-05 -1.34748e-05
-4.7541e-07 9.59529e-06 -1.25008e-05
-7.38354e-07 1.29969e-05 -1.41416e-05
1.73108e-06 1.15178e-05 -1.35349e-05
-5.53468e-06 1.27004e-05 -1.44368e-05
1.68508e-06 8.22397e-06 -1.17474e-05
4.00418e-06 1.01209e-05 -1.31508e-05
3.70535e-06 7.09795e-06 -1.14781e-05
6.0674e-06 8.96666e-06 -1.31132e-05
5.76682e-06 6.10679e-06 -1.17354e-05
8.35808e-06 8.02032e-06 -1.34919e-05
8.10565e-06 5.19526e-06 -1.25002e-05
1.0954e-05 7.09705e-06 -1.41468e-05
1.0746e-05 4.32279e-06 -1.34989e-05
8.53052e-06 1.10375e-05 -1.44606e-05
7.93769e-06 2.64374e-06 -1.17273e-05
1.0646e-05 1.7372e-06 -1.31039e-05
7.94868e-06 3.5876e-07 -1.14554e-05
1.08064e-05 -7.59112e-07 -1.3124e-05
8.11164e-06 -1.9378e-06 -1.1709e-05
1.10983e-05 -3.31285e-06 -1.34838e-05
8.46973e-06 -4.42398e-06 -1.24439e-05
1.15037e-05 -6.00288e-06 -1.41093e-05
8.95557e-06 -7.13811e-06 -1.34279e-05
6.14752e-06 -5.49441e-06 -1.16412e-05
6.6445e-06 -8.30086e-06 -1.30181e-05
4.1052e-06 -6.58851e-06 -1.13108e-05
4.52336e-06 -9.55087e-06 -1.29882e-05
2.24229e-06 -7.85829e-06 -1.15972e-05
2.48483e-06 -1.10019e-05 -1.33508e-05
2.25291e-07 -9.37369e-06 -1.23535e-05
3.30014e-07 -1.27698e-05 -1.40337e-05
-1.91544e-06 -1.11507e-05 -1.33769e-05
-1.84107e-06 -7.92162e-06 -1.15821e-05
-4.1679e-06 -9.87485e-06 -1.30849e-05
-3.81394e-06 -6.7305e-06 -1.1317e-05
-6.34562e-06 -8.66202e-06 -1.30992e-05
-5.8913e-06 -5.69801e-06 -1.16283e-05
-8.49972e-06 -7.4358e-06 -1.33796e-05
-8.16755e-06 -4.72806e-06 -1.24085e-05
-1.10957e-05 -6.40277e-06 -1.40698e-05
-4.37166e-06 -1.31232e-05 -1.44336e-05
-1.08089e-05 -3.65068e-06 -1.34391e-05
7.22612e-06 -1.13728e-05 -1.42729e-05
-7.74171e-06 1.98269e-06 -1.14928e-05
-1.32161e-05 1.03506e-06 -1.42109e-05
1.72912e-06 1.50828e-05 -1.49522e-05
1.37681e-05 4.62238e-07 -1.43877e-05
1.38432e-05 6.10011e-06 -1.49317e-05
-9.69407e-06 1.01963e-05 -1.45324e-05
-5.41602e-06 -3.19766e-06 -1.01821e-05
-1.17136e-05 -9.29735e-06 -1.48892e-05
1.18824e-05 -8.76022e-06 -1.47871e-05
1.47818e-05 -7.47362e-06 -1.54033e-05
-1.39598e-05 -5.2439e-06 -1.48616e-05
2.79583e-06 -1.45162e-05 -1.47962e-05
4.24564e-07 -1.64994e-05 -1.53977e-05
3.51844e-06 4.39695e-06 -9.5811e-06
1.40106e-05 9.29907e-06 -1.54916e-05
1.79308e-05 8.14497e-06 -1.63006e-05
-1.56755e-05 1.13954e-05 -1.62335e-05
-1.09409e-06 1.67691e-05 -1.54953e-05
1.90686e-06 1.96217e-05 -1.6311e-05
-2.09187e-06 5.22009e-06 -9.59759e-06
5.55396e-06 -7.84605e-07 -9.59414e-06
3.58596e-06 -3.68357e-06 -9.08198e-06
-1.77964e-06 -5.17859e-06 -9.44961e-06
-2.24688e-05 -1.10108e-05 -1.74743e-05
-1.87982e-05 -9.24144e-06 -1.66511e-05
2.11479e-05 1.41648e-05 -1.75056e-05
2.07538e-05 -1.43176e-05 -1.74356e-05
-1.76461e-06 -2.54466e-05 -1.7511e-05
-1.68214e-06 2.54106e-05 -1.75156e-05
1.7713e-05 -1.19069e-05 -1.66872e-05
2.06458e-05 -1.07511e-05 -1.7116e-05
3.77565e-06 -1.89852e-05 -1.61394e-05
7.68533e-07 -2.03458e-05 -1.64829e-05
-1.94051e-05 -1.26506e-05 -1.71432e-05
-1.37311e-05 -2.30693e-06 -1.44719e-05
-1.65927e-05 -3.70144e-06 -1.54775e-05
-1.03758e-05 -1.09639e-06 -1.29521e-05
2.44521e-05 1.10728e-05 -1.76516e-05
2.54976e-05 -1.24033e-05 -1.78482e-05
2.64925e-06 2.6726e-05 -1.76605e-05
2.52101e-06 -2.64136e-05 -1.76294e-05
3.33947e-06 -2.30319e-05 -1.70291e-05
-2.0539e-06 -1.83199e-05 -1.59509e-05
4.05907e-06 2.37914e-05 -1.71304e-05
2.26142e-05 8.37926e-06 -1.71193e-05
4.61361e-06 1.73134e-05 -1.57273e-05
1.4427e-05 -1.31195e-05 -1.61374e-05
-1.57877e-05 -1.09847e-05 -1.62146e-05
-1.67998e-05 -3.81428e-07 -1.53773e-05
1.73059e-05 4.68748e-06 -1.57256e-05
6.5522e-08 -6.38731e-06 -1.02674e-05
1.74171e-06 -4.84846e-06 -9.09248e-06
5.85046e-06 -2.93551e-06 -1.03782e-05
-2.14442e-05 3.75051e-06 -1.64588e-05
5.72936e-06 -1.62745e-05 -1.55077e-05
9.08346e-06 -1.7499e-05 -1.59975e-05
1.75722e-05 1.18817e-05 -1.66723e-05
1.39942e-05 -1.63822e-05 -1.64012e-05
1.074e-05 -1.3789e-05 -1.55501e-05
-3.54797e-06 -4.22019e-06 -9.50075e-06
5.39911e-06 1.1385e-06 -9.49904e-06
5.21805e-06 3.22287e-06 -1.00472e-05
-1.74979e-06 -2.83545e-05 -1.78769e-05
1.89206e-06 5.29889e-06 -9.58443e-06
-1.13823e-07 6.105e-06 -1.00387e-05
-3.78492e-06 4.12774e-06 -9.57839e-06
-5.62267e-06 3.03418e-06 -1.02852e-05
-5.16547e-06 1.04067e-06 -9.2136e-06
-7.52724e-06 -6.17391e-08 -1.11724e-05
-4.33437e-06 -8.10277e-07 -8.38184e-06
-3.10858e-06 1.87233e-06 -7.37405e-06
-2.20811e-05 -3.60775e-06 -1.65158e-05
2.34062e-05 -1.5688e-05 -1.78361e-05
-1.5072e-06 2.11679e-05 -1.6682e-05
2.12616e-05 -8.45195e-08 -1.62257e-05
1.7622e-05 -1.6468e-06 -1.55814e-05
1.73477e-05 -4.94167e-06 -1.57706e-05
2.18915e-05 -7.4511e-06 -1.69136e-05
-2.31822e-05 -1.42546e-05 -1.78327e-05
1.73246e-05 1.64887e-06 -1.55085e-05
-1.734e-06 2.8473e-05 -1.78941e-05
-4.22071e-07 3.68341e-06 -7.49529e-06
2.37719e-05 1.57423e-05 -1.78845e-05
-1.74973e-05 1.56422e-05 -1.69749e-05
-1.06262e-05 -1.84661e-05 -1.6255e-05
-1.00995e-05 -1.43423e-05 -1.55716e-05
-7.50776e-06 -1.60948e-05 -1.5622e-05
-7.32212e-06 -2.01205e-05 -1.63953e-05
-1.07044e-05 1.85352e-05 -1.62668e-05
-1.03473e-05 1.43841e-05 -1.56193e-05
-7.77263e-06 2.04924e-05 -1.64442e-05
-4.25299e-06 1.86097e-05 -1.60529e-05
1.07597e-05 1.83454e-05 -1.62261e-05
1.38916e-05 1.69349e-05 -1.6431e-05
1.40419e-05 1.29729e-05 -1.60513e-05
-7.36157e-06 1.62883e-05 -1.56385e-05
1.05251e-05 1.4547e-05 -1.56452e-05
7.74874e-06 1.60923e-05 -1.56139e-05
-3.11646e-06 -1.89876e-06 -7.39318e-06
-7.25764e-06 -1.2422e-05 -1.46251e-05
3.00866e-06 4.03602e-08 -6.60098e-06
4.87257e-06 1.35227e-05 -1.46181e-05
1.4076e-05 -2.26039e-06 -1.45704e-05
-1.72898e-05 -1.52167e-05 -1.69455e-05
-1.73665e-05 2.4203e-06 -1.55978e-05
-1.22047e-05 8.91193e-06 -1.49435e-05
-7.70563e-06 -2.29252e-06 -1.15546e-05
-1.24498e-05 1.18126e-05 -1.554e-05
-1.42735e-07 -3.75423e-06 -7.55418e-06
2.73023e-06 2.27208e-06 -7.25193e-06
-2.00386e-06 -1.46505e-05 -1.4808e-05
9.36509e-06 -1.00682e-05 -1.43894e-05
1.38607e-05 3.15781e-06 -1.45661e-05
-7.34004e-06 1.11994e-05 -1.42603e-05
4.99722e-06 -1.27748e-05 -1.43693e-05
1.10319e-05 1.04305e-05 -1.49196e-05
-3.59645e-06 1.46853e-05 -1.4908e-05
-4.63547e-06 -1.66169e-05 -1.55488e-05
-1.95071e-05 1.28925e-05 -1.71613e-05
-2.3127e-05 1.48582e-05 -1.78434e-05
-1.29049e-05 -1.26861e-05 -1.58125e-05
3.7608e-06 -1.58613e-06 -7.90696e-06
1.7644e-06 2.92229e-06 -7.08444e-06
-9.23049e-06 -1.06095e-05 -1.45318e-05
1.72774e-06 -2.82316e-06 -6.93107e-06
9.94733e-07 2.41169e-05 -1.73085e-05
2.1368e-05 1.11939e-05 -1.72987e-05
-1.46646e-05 -7.9534e-06 -1.54854e-05
1.37081e-05 -4.78633e-06 -1.46907e-05
-1.90989e-06 -2.1763e-05 -1.68028e-05
1.80604e-05 -8.41908e-06 -1.63407e-05
-1.6679e-05 -6.32858e-06 -1.57825e-05
-4.32901e-07 -1.92233e-06 -4.79848e-06
-1.80537e-06 2.99545e-06 -7.17719e-06
-2.50521e-05 -1.29818e-05 -1.79223e-05
-2.51273e-05 -1.45073e-05 -1.80021e-05
-2.50452e-05 1.30337e-05 -1.79061e-05
-2.51181e-05 1.465e-05 -1.79822e-05
-1.64846e-06 -3.12485e-06 -7.20993e-06
6.32796e-06 1.13684e-05 -1.40766e-05
5.33712e-07 -2.40862e-05 -1.73023e-05
-5.22779e-07 1.80955e-06 -4.64502e-06
7.40748e-06 -1.43437e-05 -1.51524e-05
2.33029e-05 -1.32094e-05 -1.77289e-05
2.36328e-05 -1.05376e-05 -1.74909e-05
1.19884e-05 -1.8211e-05 -1.62933e-05
1.47302e-05 -1.01467e-05 -1.57956e-05
-1.00271e-05 1.00125e-06 -1.27547e-05
-1.74002e-06 -8.15904e-07 -4.72347e-06
7.69066e-07 3.70836e-06 -7.57316e-06
2.34308e-06 -1.99716e-06 -6.5553e-06
2.01566e-05 5.89784e-06 -1.64537e-05
5.0701e-06 2.0596e-05 -1.64961e-05
3.42118e-07 -2.76801e-05 -1.78541e-05
-1.73123e-06 7.09113e-07 -4.60634e-06
-3.21152e-06 6.2305e-07 -6.82416e-06
3.57722e-06 1.47542e-06 -7.63664e-06
4.99226e-07 2.83239e-05 -1.79273e-05
2.47604e-05 1.37341e-05 -1.79185e-05
-2.03284e-05 1.55359e-05 -1.74291e-05
1.17871e-06 1.36448e-06 -4.45987e-06
-2.06397e-05 -1.57285e-05 -1.75277e-05
-1.8999e-05 -2.32219e-06 -1.59462e-05
-1.95592e-05 -5.58501e-06 -1.63323e-05
9.05685e-07 -3.24776e-06 -7.00612e-06
-4.36604e-06 -1.97894e-05 -1.63219e-05
-7.93731e-06 1.38345e-05 -1.51011e-05
1.16575e-06 -1.30419e-06 -4.33931e-06
1.19345e-05 -1.12284e-05 -1.52922e-05
6.13309e-06 -2.26962e-05 -1.68205e-05
-1.45222e-05 1.43554e-05 -1.63237e-05
7.9291e-06 1.33213e-05 -1.4948e-05
SCALARS effective_fluid_pressure_TPM float
LOOKUP_TABLE default
665
665
665
665
665
665
665
665
665
665
665
665
665
665
133
665
665
665
665
665
665
665
665
665
665
665
665
665
665
133
665
560.319
520.664
502.804
502.575
519.79
559.939
665
561.985
520.758
503.247
503.357
520.69
561.607
665
559.606
519.661
502.749
502.967
521.159
561.623
665
558.862
519.005
501.538
502.233
518.855
559.451
665
558.503
519.945
501.87
501.801
519.378
557.942
665
558.659
519.959
502.043
501.904
519.366
559.665
133
133
133
133
133
133
665
560.319
520.664
502.804
502.575
519.79
559.939
665
561.985
520.758
503.247
503.357
520.69
561.607
665
559.606
519.661
502.749
502.967
521.159
561.623
665
558.862
519.005
501.538
502.233
518.855
559.451
665
558.503
519.945
501.87
501.801
519.378
557.942
665
558.659
519.959
502.043
501.904
519.366
559.665
133
133
133
133
133
133
228.256
226.327
227.04
224.108
225.524
219.846
220.862
529.164
528.173
526.552
527.932
526.58
527.633
498.7
503.547
501.585
498.941
501.457
501.239
494.321
562.501
518.978
495.024
480.731
461.351
443.271
425.039
402.112
427.263
385.258
417.731
379.605
417.894
385.943
427.38
404.29
444.374
429.069
450.251
386.552
419.294
380.2
418.306
386.183
427.753
404.218
444.484
428.153
450.847
386.027
418.157
379.616
418.513
385.55
427.589
402.912
443.547
426.444
384.044
416.13
376.3
415.337
383.016
424.41
400.838
441.696
425.218
382.753
417.77
376.565
418.088
383.838
425.258
402.205
442.669
450.641
426.718
445.999
380.725
444.665
465.28
448.732
464.754
453.402
350.9
463.495
461.027
478.434
462.763
460.633
478.339
337.275
480.81
505.843
503.602
480.876
506.149
337.688
337.499
326.163
334.413
563.377
519.653
567.578
562.363
567.895
567.748
521.802
542.713
498.615
513.727
542.058
451.444
477.561
414.649
579.519
611.028
579.672
576.032
534.548
494.465
538.221
537.918
485.021
498.101
503.319
473.123
485.069
352.745
326.413
355.174
503.429
477.7
488.343
520.871
502.011
477.897
335.539
335.402
347.697
613.445
337.376
347.568
337.263
353.201
329.187
373.252
310.658
288.786
504.694
608.381
521.092
493.705
478.31
486.338
526.486
600.34
476.547
615.899
291.395
615.798
528.714
494.516
478.217
479.391
501.298
494.823
479.418
502.494
495.157
493.727
502.246
495.231
479.865
480.031
479.033
289.293
454.573
271.941
454.981
453.609
526.995
479.454
465.204
382.095
480.49
292.668
286.08
461.46
449.614
453.958
445.836
448.67
463.585
463.242
479.934
543.453
601.701
487.474
300.3
282.46
452.994
279.161
552.236
551.995
480.756
457.999
526.217
508.169
488.571
233.728
284.557
614.506
636.321
615.14
636.678
285.278
441.321
553.076
230.484
467.532
590.262
566.029
495.796
490.031
410.026
232.118
293.094
271.124
507.877
509.175
607.814
229.662
276.974
294.428
618.878
618.791
558.51
226.521
562.523
488.294
503.377
280.845
504.047
466.359
224.006
473.566
519.563
502.962
462.425
228.256
226.327
227.04
224.108
225.524
219.846
220.862
529.164
528.173
526.552
527.932
526.58
527.633
498.7
503.547
501.585
498.941
501.457
501.239
494.321
562.501
518.978
495.024
480.731
461.351
443.271
425.039
402.112
427.263
385.258
417.731
379.605
417.894
385.943
427.38
404.29
444.374
429.069
450.251
386.552
419.294
380.2
418.306
386.183
427.753
404.218
444.484
428.153
450.847
386.027
418.157
379.616
418.513
385.55
427.589
402.912
443.547
426.444
384.044
416.13
376.3
415.337
383.016
424.41
400.838
441.696
425.218
382.753
417.77
376.565
418.088
383.838
425.258
402.205
442.669
450.641
426.718
445.999
380.725
444.665
465.28
448.732
464.754
453.402
350.9
463.495
461.027
478.434
462.763
460.633
478.339
337.275
480.81
505.843
503.602
480.876
506.149
337.688
337.499
326.163
334.413
563.377
519.653
567.578
562.363
567.895
567.748
521.802
542.713
498.615
513.727
542.058
451.444
477.561
414.649
579.519
611.028
579.672
576.032
534.548
494.465
538.221
537.918
485.021
498.101
503.319
473.123
485.069
352.745
326.413
355.174
503.429
477.7
488.343
520.871
502.011
477.897
335.539
335.402
347.697
613.445
337.376
347.568
337.263
353.201
329.187
373.252
310.658
288.786
504.694
608.381
521.092
493.705
478.31
486.338
526.486
600.34
476.547
615.899
291.395
615.798
528.714
494.516
478.217
479.391
501.298
494.823
479.418
502.494
495.157
493.727
502.246
495.231
479.865
480.031
479.033
289.293
454.573
271.941
454.981
453.609
526.995
479.454
465.204
382.095
480.49
292.668
286.08
461.46
449.614
453.958
445.836
448.67
463.585
463.242
479.934
543.453
601.701
487.474
300.3
282.46
452.994
279.161
552.236
551.995
480.756
457.999
526.217
508.169
488.571
233.728
284.557
614.506
636.321
615.14
636.678
285.278
441.321
553.076
230.484
467.532
590.262
566.029
495.796
490.031
410.026
232.118
293.094
271.124
507.877
509.175
607.814
229.662
276.974
294.428
618.878
618.791
558.51
226.521
562.523
488.294
503.377
280.845
504.047
466.359
224.006
473.566
519.563
502.962
462.425

CELL_DATA 563
TENSORS stress float
164.611 -24.9205 3.64745e-13
-24.9205 28.1487 3.57521e-12
3.64745e-13 3.57521e-12 -12.6041

-40.3386 -21.3203 -1.97272e-12
-21.3203 -7.35471 3.29899e-12
-1.97272e-12 3.29899e-12 -10.2319

-9.94014 28.0434 -3.56989e-12
28.0434 -1.11043 1.68754e-13
-3.56989e-12 1.68754e-13 -6.36032

-40.4268 -29.8427 3.38929e-12
-29.8427 -12.8459 3.4525e-12
3.38929e-12 3.4525e-12 -10.5982

-22.6923 19.9309 1.15019e-12
19.9309 -1.92287 -5.07594e-13
1.15019e-12 -5.07594e-13 -23.0214

-27.1396 -18.0745 4.32247e-13
-18.0745 15.8879 5.91408e-12
4.32247e-13 5.91408e-12 -6.4111

161.263 26.4846 2.86586e-12
26.4846 28.0253 -2.65625e-12
2.86586e-12 -2.65625e-12 -13.263

-5.96151 29.958 1.0522e-12
29.958 -10.1121 1.13953e-12
1.0522e-12 1.13953e-12 -7.27633

34.6312 5.48317 -3.54087e-13
5.48317 -19.095 1.11181e-12
-3.54087e-13 1.11181e-12 -4.12215

11.8602 -7.47757 1.86873e-12
-7.47757 -48.2872 1.10149e-12
1.86873e-12 1.10149e-12 -8.94706

104.194 16.3086 2.60532e-14
16.3086 -8.44352 5.00992e-12
2.60532e-14 5.00992e-12 -22.4543

-34.6376 -13.4532 1.2587e-12
-13.4532 18.9658 -3.92752e-12
1.2587e-12 -3.92752e-12 -7.18059

-6.02609 27.8333 -3.78956e-14
27.8333 -4.59152 4.79616e-13
-3.78956e-14 4.79616e-13 -6.15921

-35.5518 -14.3401 2.35145e-13
-14.3401 7.84498 4.00865e-12
2.35145e-13 4.00865e-12 -9.13138

-23.6537 33.3111 -1.52767e-13
33.3111 -24.994 1.30707e-12
-1.52767e-13 1.30707e-12 -21.365

21.3108 0.560982 -3.22113e-13
0.560982 -32.3386 -1.35568e-12
-3.22113e-13 -1.35568e-12 -5.58969

-48.9596 -17.9691 -5.35368e-13
-17.9691 6.34288 -2.21512e-12
-5.35368e-13 -2.21512e-12 -12.9461

11.6601 -2.6652 3.32208e-12
-2.6652 -43.2489 -1.69931e-12
3.32208e-12 -1.69931e-12 -8.03359

-11.3499 26.6739 -1.03739e-12
26.6739 19.5173 1.78938e-12
-1.03739e-12 1.78938e-12 -6.08946

21.7655 -4.19561 -2.30986e-12
-4.19561 -35.2947 -3.53325e-12
-2.30986e-12 -3.53325e-12 -6.74129

-24.4793 8.66867 2.52524e-12
8.66867 32.1275 -9.30219e-13
2.52524e-12 -9.30219e-13 -4.93429

-11.8087 6.2875 -8.18505e-12
6.2875 -11.9735 -6.68206e-13
-8.18505e-12 -6.68206e-13 -75.6194

22.7432 1.87599 -6.22672e-12
1.87599 -33.4691 -1.24937e-13
-6.22672e-12 -1.24937e-13 -6.67727

-12.3881 -27.7153 2.10913e-12
-27.7153 1.5996 8.42585e-13
2.10913e-12 8.42585e-13 -6.60276

21.3044 6.84942 -2.03215e-12
6.84942 -34.3042 2.17278e-12
-2.03215e-12 2.17278e-12 -6.80652

-37.9053 19.1129 -1.33575e-12
19.1129 2.65394 -6.0929e-13
-1.33575e-12 -6.0929e-13 -9.45768

106.603 4.1814 9.04758e-13
4.1814 20.6026 3.18057e-12
9.04758e-13 3.18057e-12 -12.0492

-5.30189 30.746 3.32771e-13
30.746 -7.27235 -2.61065e-12
3.32771e-13 -2.61065e-12 -7.4416

27.89 37.0747 2.65861e-12
37.0747 26.4691 -5.32197e-12
2.65861e-12 -5.32197e-12 -8.63222

-9.43911 10.3235 -1.42938e-12
10.3235 -32.9297 -2.23784e-12
-1.42938e-12 -2.23784e-12 -49.5082

19.8307 14.2169 -4.67656e-12
14.2169 -29.3593 -6.79456e-14
-4.67656e-12 -6.79456e-14 -6.00093

-4.21045 -17.7805 1.36779e-13
-17.7805 59.6578 -4.45984e-12
1.36779e-13 -4.45984e-12 -8.47612

66.2833 -42.1019 9.40285e-13
-42.1019 71.1385 -8.40809e-13
9.40285e-13 -8.40809e-13 -11.252

-48.2098 5.98662 2.69969e-13
5.98662 7.26953 -3.17346e-12
2.69969e-13 -3.17346e-12 -41.0372

-26.2911 -4.84047 7.79377e-13
-4.84047 1.75671 -1.01548e-12
7.79377e-13 -1.01548e-12 -37.8021

-1.4669 21.0278 -8.11203e-13
21.0278 -39.5062 -5.94902e-12
-8.11203e-13 -5.94902e-12 -41.103

-43.9755 5.06729 -1.3484e-12
5.06729 0.514205 -3.06688e-12
-1.3484e-12 -3.06688e-12 -52.1905

-2.76019 -9.17005 -1.33878e-12
-9.17005 -20.7696 -1.0658e-12
-1.33878e-12 -1.0658e-12 -35.8965

-3.97431 -27.9982 -4.1401e-12
-27.9982 -4.61054 3.54383e-12
-4.1401e-12 3.54383e-12 -5.99454

65.5971 41.5212 -2.69296e-12
41.5212 73.1662 -6.04435e-12
-2.69296e-12 -6.04435e-12 -10.9637

60.1552 -17.9492 4.59366e-12
-17.9492 0.116799 -3.2531e-12
4.59366e-12 -3.2531e-12 -8.05009

-41.8032 -3.70587 -1.23131e-12
-3.70587 -1.18565 -5.96856e-13
-1.23131e-12 -5.96856e-13 -52.7253

-14.5936 19.5552 -6.3094e-12
19.5552 -28.5514 -1.95814e-12
-6.3094e-12 -1.95814e-12 -52.8335

18.141 -12.2733 -1.37372e-13
-12.2733 -29.8991 4.27895e-12
-1.37372e-13 4.27895e-12 -6.22312

38.1731 -43.2992 3.63324e-12
-43.2992 41.8011 -1.71122e-12
3.63324e-12 -1.71122e-12 -14.559

58.1438 -18.0635 1.09068e-12
-18.0635 -2.30293 6.63173e-14
1.09068e-12 6.63173e-14 -7.91369

-21.4421 17.0858 2.3402e-12
17.0858 30.3271 9.31995e-13
2.3402e-12 9.31995e-13 -5.72838

-11.3728 19.3391 -2.2462e-12
19.3391 25.5105 -8.30743e-13
-2.2462e-12 -8.30743e-13 -3.92178

20.7911 -16.3011 -2.69829e-12
-16.3011 -33.1145 -1.47438e-13
-2.69829e-12 -1.47438e-13 -7.31173

12.6151 -34.1855 2.13222e-12
-34.1855 46.4354 5.00577e-12
2.13222e-12 5.00577e-12 -10.3973

62.36 19.1819 -1.81307e-12
19.1819 2.81011 -7.96992e-13
-1.81307e-12 -7.96992e-13 -8.41401

46.5134 -25.2885 -1.73609e-12
-25.2885 5.13388 3.63295e-12
-1.73609e-12 3.63295e-12 -5.61007

-31.8958 19.4855 3.20514e-12
19.4855 -4.28544 -1.80774e-12
3.20514e-12 -1.80774e-12 -26.0854

37.039 29.6494 -2.98191e-12
29.6494 14.5125 -3.32179e-12
-2.98191e-12 -3.32179e-12 -5.4325

-27.4497 -21.8128 -1.27868e-12
-21.8128 -8.22858 1.6431e-12
-1.27868e-12 1.6431e-12 -25.2478

64.8686 -42.7113 -1.73846e-12
-42.7113 44.08 3.43429e-14
-1.73846e-12 3.43429e-14 -9.50211

-27.7495 5.45947 5.10555e-13
5.45947 2.66929 1.12207e-13
5.10555e-13 1.12207e-13 -38.3077

-5.55798 -5.32981 1.92291e-12
-5.32981 57.388 -9.39101e-13
1.92291e-12 -9.39101e-13 -5.44953

-0.20035 10.3843 5.15143e-13
10.3843 -24.8478 1.97913e-12
5.15143e-13 1.97913e-12 -38.3693

-26.4853 21.4131 2.10143e-12
21.4131 12.2195 3.61785e-12
2.10143e-12 3.61785e-12 -6.86971

4.72635 5.75397 2.6182e-12
5.75397 -56.04 -3.32046e-12
2.6182e-12 -3.32046e-12 -13.9808

0.539861 11.4589 2.09166e-12
11.4589 -34.0566 1.47674e-12
2.09166e-12 1.47674e-12 -14.8397

106.344 31.8199 -4.00509e-12
31.8199 37.8329 -2.65506e-12
-4.00509e-12 -2.65506e-12 -7.4896

-35.4918 -6.03524 4.25571e-12
-6.03524 10.6012 -3.37567e-12
4.25571e-12 -3.37567e-12 -13.4789

-35.36 9.51979 -5.72431e-13
9.51979 1.23365 1.2849e-13
-5.72431e-13 1.2849e-13 -14.96

-42.5878 -2.88087 -5.49597e-13
-2.88087 21.1109 2.14051e-12
-5.49597e-13 2.14051e-12 -11.2388

-44.9079 23.4019 -6.80493e-13
23.4019 -5.89262 3.67114e-14
-6.80493e-13 3.67114e-14 -13.9218

9.97103 8.46356 1.09453e-12
8.46356 -42.3781 -1.13539e-13
1.09453e-12 -1.13539e-13 -9.07791

-12.3345 -28.2394 9.87358e-13
-28.2394 1.68724 -2.57335e-12
9.87358e-13 -2.57335e-12 -6.67392

1.30885 -1.71126 -9.43986e-13
-1.71126 -55.4563 -3.54013e-13
-9.43986e-13 -3.54013e-13 -11.304

-31.8853 -19.2615 -1.00557e-12
-19.2615 -4.5948 2.75424e-12
-1.00557e-12 2.75424e-12 -25.9547

-27.9752 21.3078 2.45729e-14
21.3078 -8.3584 8.5916e-13
2.45729e-14 8.5916e-13 -26.0131

-0.651945 -16.5835 8.43177e-13
-16.5835 61.6736 -7.69755e-14
8.43177e-13 -7.69755e-14 -7.94893

-0.650145 -27.9361 3.37685e-12
-27.9361 -21.361 -9.76108e-13
3.37685e-12 -9.76108e-13 -12.7909

-14.0932 -25.1347 1.0442e-12
-25.1347 7.40677 -2.77645e-12
1.0442e-12 -2.77645e-12 -5.23599

91.678 -31.7106 1.89478e-13
-31.7106 19.4848 3.328e-12
1.89478e-13 3.328e-12 -16.3331

-33.7061 3.22266 2.88318e-12
3.22266 9.19944 1.51642e-12
2.88318e-12 1.51642e-12 -18.5634

2.75207 28.9439 5.3646e-13
28.9439 -24.4247 1.73994e-12
5.3646e-13 1.73994e-12 -11.3165

-38.4336 19.6642 2.37321e-12
19.6642 5.2297 -3.8467e-12
2.37321e-12 -3.8467e-12 -9.23516

50.1905 7.99955 7.33043e-13
7.99955 -16.964 -5.87678e-13
7.33043e-13 -5.87678e-13 -7.06691

60.0314 -33.9356 3.63087e-12
-33.9356 33.7868 -6.35936e-12
3.63087e-12 -6.35936e-12 -6.98371

-18.9602 -10.5874 1.91432e-12
-10.5874 -0.541622 3.51778e-12
1.91432e-12 3.51778e-12 -25.4311

-33.9261 23.8995 2.15975e-12
23.8995 -12.0233 -5.60501e-13
2.15975e-12 -5.60501e-13 -14.5402

58.1562 -32.3838 -6.07159e-12
-32.3838 18.0913 -2.62546e-12
-6.07159e-12 -2.62546e-12 -10.1337

66.8596 10.7911 2.52361e-12
10.7911 8.51306 1.82269e-12
2.52361e-12 1.82269e-12 -5.0844

7.67399 -21.206 2.59526e-12
-21.206 88.4646 3.55271e-14
2.59526e-12 3.55271e-14 -11.8622

-33.9859 14.4257 3.54546e-12
14.4257 20.2383 -2.32111e-12
3.54546e-12 -2.32111e-12 -7.54643

8.47542 23.1431 -1.45661e-12
23.1431 -26.0739 -2.72967e-12
-1.45661e-12 -2.72967e-12 -11.2991

34.8687 42.1987 1.87465e-12
42.1987 46.1993 3.63916e-12
1.87465e-12 3.63916e-12 -14.4205

-4.39442 16.5069 -3.75396e-12
16.5069 -35.5414 -7.25346e-12
-3.75396e-12 -7.25346e-12 -73.2861

-5.98008 -4.10836 3.56041e-12
-4.10836 57.9484 3.14415e-12
3.56041e-12 3.14415e-12 -5.44173

-1.81886 -16.6321 4.04491e-12
-16.6321 -39.4014 4.58581e-12
4.04491e-12 4.58581e-12 -74.1094

-3.32954 -27.3349 -3.76824e-12
-27.3349 -30.0297 1.97383e-12
-3.76824e-12 1.97383e-12 -21.5541

8.96707 27.4246 -3.76824e-12
27.4246 -29.9949 2.23939e-12
-3.76824e-12 2.23939e-12 -11.2571

45.7112 -24.4106 -5.96856e-13
-24.4106 5.02418 -1.73402e-12
-5.96856e-13 -1.73402e-12 -5.23615

10.0952 31.3233 -2.76638e-12
31.3233 47.1632 -2.5319e-12
-2.76638e-12 -2.5319e-12 -9.64038

14.2723 -10.7051 -1.62833e-12
-10.7051 82.8389 -1.8332e-12
-1.62833e-12 -1.8332e-12 -6.44701

-38.6331 21.9707 -3.36116e-12
21.9707 2.94152 -4.08118e-12
-3.36116e-12 -4.08118e-12 -8.56908

1.19274 16.7942 1.21236e-12
16.7942 -25.7223 2.04429e-12
1.21236e-12 2.04429e-12 -18.5676

-26.538 15.1539 3.37715e-12
15.1539 18.4493 3.49942e-12
3.37715e-12 3.49942e-12 -5.70804

43.6588 15.9539 -1.52885e-12
15.9539 -7.28521 -3.45309e-12
-1.52885e-12 -3.45309e-12 -4.07519

12.5769 -21.4725 -1.74912e-12
-21.4725 57.9556 -2.22755e-12
-1.74912e-12 -2.22755e-12 -4.71404

65.9964 -29.3907 1.57504e-12
-29.3907 18.6435 -8.64494e-14
1.57504e-12 -8.64494e-14 -9.33525

-32.3812 -24.573 4.32395e-12
-24.573 -7.28171 -6.34455e-13
4.32395e-12 -6.34455e-13 -8.97636

-22.667 27.451 -6.84667e-12
27.451 -10.3503 -4.71919e-13
-6.84667e-12 -4.71919e-13 -9.28395

-38.3512 23.1876 3.54487e-12
23.1876 1.99104 -1.73876e-12
3.54487e-12 -1.73876e-12 -8.52498

-51.5533 13.1691 3.68668e-13
13.1691 11.9269 1.56675e-12
3.68668e-13 1.56675e-12 -16.4663

23.4847 9.37228 -2.49993e-12
9.37228 -29.4879 1.32516e-12
-2.49993e-12 1.32516e-12 -5.32155

3.76852 -4.66506 -6.9574e-14
-4.66506 79.4381 -7.22385e-13
-6.9574e-14 -7.22385e-13 -9.53138

-44.9397 -36.8331 3.39639e-12
-36.8331 -19.8288 -8.31631e-13
3.39639e-12 -8.31631e-13 -14.7707

-16.0796 27.4653 5.33351e-12
27.4653 1.34095 -8.941e-14
5.33351e-12 -8.941e-14 -6.91472

-5.01541 2.17032 1.02562e-12
2.17032 82.6736 5.21065e-14
1.02562e-12 5.21065e-14 -13.4311

69.0454 34.6104 -2.59585e-12
34.6104 15.4966 -3.91983e-13
-2.59585e-12 -3.91983e-13 -10.7059

-31.3519 -22.9739 7.84854e-13
-22.9739 -4.6325 1.68784e-12
7.84854e-13 1.68784e-12 -8.52989

11.743 5.73296 1.1271e-12
5.73296 -48.336 1.12569e-12
1.1271e-12 1.12569e-12 -8.64137

43.0656 27.2041 -3.92101e-12
27.2041 10.4519 1.92675e-12
-3.92101e-12 1.92675e-12 -5.08087

-9.41455 12.7454 3.87394e-13
12.7454 -14.0392 2.76608e-12
3.87394e-13 2.76608e-12 -37.0402

70.3345 24.3305 4.38642e-12
24.3305 23.8048 2.73914e-12
4.38642e-12 2.73914e-12 -6.79949

-10.5857 -13.055 -2.72079e-12
-13.055 -13.9211 -3.14386e-12
-2.72079e-12 -3.14386e-12 -37.3779

-4.37972 0.778541 -7.43701e-13
0.778541 59.398 -4.07378e-12
-7.43701e-13 -4.07378e-12 -4.83072

38.3569 -2.23532 3.67351e-12
-2.23532 -23.8109 1.84419e-12
3.67351e-12 1.84419e-12 -5.83241

3.59366 -15.7678 1.28638e-12
-15.7678 -53.9709 -5.50671e-13
1.28638e-12 -5.50671e-13 -21.1241

-42.2771 24.3881 5.42221e-13
24.3881 -11.737 2.3442e-12
5.42221e-13 2.3442e-12 -11.1676

-46.8124 -13.535 2.64313e-13
-13.535 11.0673 1.10608e-12
2.64313e-13 1.10608e-12 -12.3539

5.81011 -7.99993 -2.12615e-12
-7.99993 -70.9673 1.16943e-13
-2.12615e-12 1.16943e-13 -14.8819

-49.539 -22.2839 8.54428e-13
-22.2839 3.74838 1.19608e-12
8.54428e-13 1.19608e-12 -22.1041

-17.4592 -6.5967 -4.49152e-12
-6.5967 -13.1157 3.91609e-12
-4.49152e-12 3.91609e-12 -34.7811

-28.7297 -29.9082 -2.0138e-12
-29.9082 -9.39988 2.03689e-13
-2.0138e-12 2.03689e-13 -8.9961

15.6933 11.4536 -6.92898e-12
11.4536 80.1803 -2.97244e-12
-6.92898e-12 -2.97244e-12 -6.53067

42.2899 -28.1465 1.87228e-12
-28.1465 11.0508 2.14051e-12
1.87228e-12 2.14051e-12 -5.04412

-47.1705 -13.772 -5.1806e-12
-13.772 4.19616 -2.91323e-13
-5.1806e-12 -2.91323e-13 -29.3004

2.96482 0.504484 2.69029e-12
0.504484 -56.8119 2.4043e-12
2.69029e-12 2.4043e-12 -11.0053

-39.3366 -21.5245 -5.34979e-13
-21.5245 -8.85723 2.89813e-12
-5.34979e-13 2.89813e-12 -14.7742

-40.1949 25.6977 -2.11431e-12
25.6977 -14.6915 1.45428e-12
-2.11431e-12 1.45428e-12 -11.311

32.2604 -31.4644 -1.73846e-12
-31.4644 38.4293 8.06821e-12
-1.73846e-12 8.06821e-12 -4.64822

-31.4687 -7.0848 4.59196e-12
-7.0848 1.70044 -5.01229e-13
4.59196e-12 -5.01229e-13 -40.9922

36.6299 -33.0767 6.14383e-12
-33.0767 72.0272 -2.34005e-12
6.14383e-12 -2.34005e-12 -7.14471

16.6126 -19.1797 -3.58942e-12
-19.1797 -25.87 3.51127e-13
-3.58942e-12 3.51127e-13 -7.13336

1.50256 1.97038 -1.68606e-12
1.97038 -51.3914 -7.25938e-13
-1.68606e-12 -7.25938e-13 -15.3742

-12.8757 17.875 2.94964e-12
17.875 -16.955 -1.66681e-12
2.94964e-12 -1.66681e-12 -41.0597

10.713 20.1828 1.17476e-12
20.1828 59.454 -5.91172e-12
1.17476e-12 -5.91172e-12 -4.35669

4.31827 27.2105 -2.73737e-12
27.2105 -16.2237 -4.11345e-12
-2.73737e-12 -4.11345e-12 -8.1243

30.9044 -24.5116 1.12739e-12
-24.5116 -8.13246 -1.59487e-12
1.12739e-12 -1.59487e-12 -4.87227

-37.7875 -17.8386 -2.29465e-13
-17.8386 2.40085 2.27078e-13
-2.29465e-13 2.27078e-13 -9.86451

55.5136 35.0681 7.0474e-12
35.0681 42.3454 9.00021e-14
7.0474e-12 9.00021e-14 -6.63628

-40.015 -21.831 -2.0175e-12
-21.831 2.53685 4.89357e-12
-2.0175e-12 4.89357e-12 -9.39402

2.96651 30.8504 -3.42837e-13
30.8504 -17.3884 -7.46988e-12
-3.42837e-13 -7.46988e-12 -9.07832

18.5373 -25.244 3.54679e-13
-25.244 -19.418 -2.56861e-12
3.54679e-13 -2.56861e-12 -6.34256

-15.6538 -25.1264 -1.24789e-12
-25.1264 5.8956 9.21337e-13
-1.24789e-12 9.21337e-13 -5.77562

42.7182 -18.6881 -8.7456e-12
-18.6881 -9.16596 1.82965e-13
-8.7456e-12 1.82965e-13 -5.36919

27.4319 -18.8496 -3.30639e-12
-18.8496 -20.3685 -1.89893e-12
-3.30639e-12 -1.89893e-12 -5.68985

-41.3938 -25.337 1.19756e-12
-25.337 -14.9641 -1.89615e-12
1.19756e-12 -1.89615e-12 -11.5671

29.7808 35.9693 -4.46458e-13
35.9693 25.227 7.23569e-12
-4.46458e-13 7.23569e-12 -8.64433

-28.5183 15.3767 4.01457e-13
15.3767 18.5188 -2.23999e-12
4.01457e-13 -2.23999e-12 -5.87405

-23.108 26.4222 -2.36522e-12
26.4222 -12.5468 -3.82627e-12
-2.36522e-12 -3.82627e-12 -9.95814

-42.0966 25.4736 2.43118e-12
25.4736 -11.5925 -3.31601e-12
2.43118e-12 -3.31601e-12 -10.9928

-37.2885 11.6215 -2.69406e-12
11.6215 11.8441 2.51828e-12
-2.69406e-12 2.51828e-12 -9.08053

64.393 -8.22697 3.2685e-13
-8.22697 3.19753 6.15434e-12
3.2685e-13 6.15434e-12 -4.25082

8.73375 18.6064 1.60405e-12
18.6064 59.2198 2.4265e-12
1.60405e-12 2.4265e-12 -4.16229

-25.6147 -24.3805 -1.42878e-12
-24.3805 0.458408 2.10113e-12
-1.42878e-12 2.10113e-12 -7.21564

-1.1417 25.6658 4.37576e-12
25.6658 13.7523 1.02673e-12
4.37576e-12 1.02673e-12 -4.08274

32.3785 -35.6292 -3.96601e-12
-35.6292 21.7 2.64322e-12
-3.96601e-12 2.64322e-12 -8.48605

59.5361 38.3165 7.05214e-12
38.3165 17.8476 3.12165e-12
7.05214e-12 3.12165e-12 -13.7222

12.125 -33.3109 5.25032e-12
-33.3109 42.9133 4.59129e-12
5.25032e-12 4.59129e-12 -9.54266

30.5512 -31.1594 -4.40655e-12
-31.1594 36.8134 4.34378e-12
-4.40655e-12 4.34378e-12 -4.4054

11.7689 -6.83865 7.91367e-13
-6.83865 -48.838 2.43324e-12
7.91367e-13 2.43324e-12 -8.77021

25.2744 30.3416 3.63206e-12
30.3416 41.0889 3.66403e-12
3.63206e-12 3.66403e-12 -4.4559

62.682 13.2946 1.69346e-13
13.2946 5.22805 -2.49104e-12
1.69346e-13 -2.49104e-12 -4.3054

-7.02588 13.3788 -4.60372e-13
13.3788 61.344 -8.7752e-13
-4.60372e-13 -8.7752e-13 -8.69491

11.7295 -22.3402 5.36637e-12
-22.3402 55.7631 -9.21574e-12
5.36637e-12 -9.21574e-12 -4.30136

-47.2605 -1.09161 2.96074e-12
-1.09161 12.4095 -2.34479e-13
2.96074e-12 -2.34479e-13 -22.1619

-5.91918 2.2466 -4.75975e-12
2.2466 59.0042 1.75622e-12
-4.75975e-12 1.75622e-12 -5.26244

6.26859 31.0891 1.55727e-13
31.0891 47.865 1.94097e-12
1.55727e-13 1.94097e-12 -9.66046

-39.7254 12.1079 -2.47701e-12
12.1079 12.8447 -2.7119e-13
-2.47701e-12 -2.7119e-13 -9.31299

40.7381 -27.6475 2.81257e-12
-27.6475 8.35747 -7.92255e-13
2.81257e-12 -7.92255e-13 -5.64191

7.53985 20.557 -7.09359e-13
20.557 -47.4669 2.97303e-12
-7.09359e-13 2.97303e-12 -16.4817

-3.42121 26.2704 5.81461e-13
26.2704 -31.4865 -2.54137e-12
5.81461e-13 -2.54137e-12 -22.2523

15.7773 -18.5676 3.08494e-13
-18.5676 -30.0131 -1.71626e-12
3.08494e-13 -1.71626e-12 -8.18295

4.4286 -1.80137 4.53163e-12
-1.80137 -34.133 6.29482e-12
4.53163e-12 6.29482e-12 -24.4392

-14.3397 -31.8118 -1.24256e-12
-31.8118 -11.9304 -3.11662e-12
-1.24256e-12 -3.11662e-12 -9.04949

56.2181 23.3277 -3.61193e-12
23.3277 0.816695 1.74675e-13
-3.61193e-12 1.74675e-13 -8.28792

-27.8281 30.1621 -2.87711e-12
30.1621 -9.23644 1.51819e-12
-2.87711e-12 1.51819e-12 -8.80035

-27.0037 29.2059 -4.74879e-13
29.2059 -9.20179 -1.2926e-12
-4.74879e-13 -1.2926e-12 -8.67763

28.6285 30.6607 3.32771e-13
30.6607 40.4057 -1.53122e-12
3.32771e-13 -1.53122e-12 -4.44891

0.343093 27.085 3.22053e-12
27.085 -19.846 -1.27246e-12
3.22053e-12 -1.27246e-12 -11.777

64.5079 3.52513 2.23821e-13
3.52513 -11.8259 2.51847e-12
2.23821e-13 2.51847e-12 -10.0183

-14.8998 31.8172 -4.23661e-13
31.8172 -20.7988 -1.91284e-12
-4.23661e-13 -1.91284e-12 -12.4475

-37.9442 -12.5996 7.74566e-13
-12.5996 8.18006 -1.79412e-12
7.74566e-13 -1.79412e-12 -14.0228

-0.474995 24.2781 2.77112e-13
24.2781 -29.9992 -2.68082e-12
2.77112e-13 -2.68082e-12 -20.7713

-23.7275 -29.5787 1.13924e-12
-29.5787 -11.9349 -2.28824e-12
1.13924e-12 -2.28824e-12 -8.84328

-38.1484 -4.89801 -9.22003e-13
-4.89801 18.8466 -1.45306e-12
-9.22003e-13 -1.45306e-12 -11.7301

69.9446 -24.5562 -2.03689e-12
-24.5562 18.0288 6.63173e-14
-2.03689e-12 6.63173e-14 -7.04429

39.982 29.693 -1.73846e-12
29.693 13.4793 7.19069e-12
-1.73846e-12 7.19069e-12 -5.21499

-4.29626 14.6965 1.72233e-12
14.6965 60.5713 -5.48657e-12
1.72233e-12 -5.48657e-12 -8.40083

1.61141 -1.13892 -2.38239e-12
-1.13892 -56.1234 1.29585e-12
-2.38239e-12 1.29585e-12 -11.2092

9.61414 0.00222341 1.00098e-12
0.00222341 -44.7541 -1.54317e-12
1.00098e-12 -1.54317e-12 -8.43796

-31.0789 23.1239 -1.03192e-12
23.1239 -4.3372 2.87178e-13
-1.03192e-12 2.87178e-13 -8.4584

-34.7625 23.871 1.78909e-12
23.871 -13.1926 3.47278e-13
1.78909e-12 3.47278e-13 -14.8131

-43.3787 -24.3807 9.22595e-14
-24.3807 -12.6139 -4.27332e-12
9.22595e-14 -4.27332e-12 -11.4687

-39.0593 -0.672827 -9.40155e-13
-0.672827 21.0463 9.82917e-13
-9.40155e-13 9.82917e-13 -10.4955

-40.8067 25.5904 -1.35891e-12
25.5904 -13.2225 4.00102e-12
-1.35891e-12 4.00102e-12 -11.1723

32.3217 -10.3079 5.65947e-12
-10.3079 -25.1538 1.66371e-12
5.65947e-12 1.66371e-12 -6.01423

8.70659 -32.8335 1.7882e-12
-32.8335 22.7976 -1.74201e-12
1.7882e-12 -1.74201e-12 -6.99202

2.39681 -2.30082 2.97392e-12
-2.30082 -49.9607 -8.98244e-13
2.97392e-12 -8.98244e-13 -14.7726

36.7456 -34.5083 -5.29354e-12
-34.5083 24.4796 -1.74438e-12
-5.29354e-12 -1.74438e-12 -7.7091

-38.294 19.0861 -1.72159e-12
19.0861 -7.09362 8.88178e-13
-1.72159e-12 8.88178e-13 -14.4494

7.87072 -26.4787 -6.03606e-12
-26.4787 -27.9946 2.77023e-12
-6.03606e-12 2.77023e-12 -10.9691

63.9474 -9.69027 5.82645e-12
-9.69027 5.67736 -7.88702e-13
5.82645e-12 -7.88702e-13 -5.07228

6.04062 -23.192 5.20295e-12
-23.192 -35.4682 -2.31074e-12
5.20295e-12 -2.31074e-12 -17.736

0.141373 2.35828 -4.05379e-12
2.35828 -56.1741 -1.26025e-12
-4.05379e-12 -1.26025e-12 -11.5461

-4.0621 -23.3215 -1.77044e-12
-23.3215 -23.4117 -1.08476e-12
-1.77044e-12 -1.08476e-12 -16.7199

11.0387 -25.8595 -2.30275e-12
-25.8595 -29.486 -3.63591e-12
-2.30275e-12 -3.63591e-12 -9.73364

10.2013 -8.54618 -7.94032e-13
-8.54618 -43.4901 2.53294e-12
-7.94032e-13 2.53294e-12 -9.28145

-35.4181 -23.0682 1.63691e-12
-23.0682 -12.6459 3.59712e-13
1.63691e-12 3.59712e-13 -15.1031

23.6643 -31.342 4.29168e-12
-31.342 5.71232 -6.91003e-13
4.29168e-12 -6.91003e-13 -5.87826

11.0598 -24.5874 -3.09086e-13
-24.5874 -27.4947 -1.90425e-12
-3.09086e-13 -1.90425e-12 -10.0481

46.6431 10.8645 4.53563e-13
10.8645 -16.1175 -5.18045e-12
4.53563e-13 -5.18045e-12 -6.79989

-14.1862 26.3403 3.75403e-13
26.3403 -15.64 -1.73476e-12
3.75403e-13 -1.73476e-12 -14.119

-45.2517 -37.6127 -2.05169e-12
-37.6127 -20.6123 -3.55368e-12
-2.05169e-12 -3.55368e-12 -14.9191

-43.7084 37.2651 2.4493e-12
37.2651 -21.2661 9.80697e-13
2.4493e-12 9.80697e-13 -14.7695

-61.1848 -28.5733 -2.6232e-12
-28.5733 -7.49707 -6.0929e-13
-2.6232e-12 -6.0929e-13 -15.1996

-58.4158 27.0641 -1.21925e-12
27.0641 -6.27169 2.19824e-12
-1.21925e-12 2.19824e-12 -14.4782

5.60061 -8.52757 9.73592e-13
-8.52757 -71.0638 -3.19389e-12
9.73592e-13 -3.19389e-12 -14.7097

4.39736 9.27358 -3.12639e-13
9.27358 -68.8325 -2.34183e-13
-3.12639e-13 -2.34183e-13 -14.4377

9.02395 -9.84623 2.01853e-12
-9.84623 -40.8901 -2.30053e-12
2.01853e-12 -2.30053e-12 -9.61192

-24.3355 32.116 2.02209e-12
32.116 -24.8099 5.28392e-13
2.02209e-12 5.28392e-13 -21.1452

-25.5229 -32.854 -2.9002e-12
-32.854 -25.0959 -3.52062e-12
-2.9002e-12 -3.52062e-12 -21.4694

-53.9196 16.0685 -4.93235e-13
16.0685 3.40164 -6.43041e-13
-4.93235e-13 -6.43041e-13 -21.4028

-52.4205 -15.8009 -1.1567e-12
-15.8009 3.29697 2.26249e-12
-1.1567e-12 2.26249e-12 -21.0761

6.11209 -3.74779 -3.23993e-12
-3.74779 -43.9251 -1.48533e-12
-3.23993e-12 -1.48533e-12 -25.7649

6.91823 3.61056 -1.99914e-12
3.61056 -46.3486 -2.85609e-12
-1.99914e-12 -2.85609e-12 -26.1413

-15.6261 9.83692 -8.60053e-13
9.83692 46.2627 5.8454e-12
-8.60053e-13 5.8454e-12 -5.84806

-22.9187 -24.7742 -1.33582e-12
-24.7742 -14.5523 2.82322e-12
-1.33582e-12 2.82322e-12 -10.33

-56.6035 -36.3874 1.88397e-12
-36.3874 -14.5326 -2.24132e-12
1.88397e-12 -2.24132e-12 -13.4372

33.3585 -4.6643 2.90138e-13
-4.6643 -19.8472 -7.35523e-13
2.90138e-13 -7.35523e-13 -3.94519

3.43334 -16.6945 -1.0892e-12
-16.6945 -52.6286 3.69009e-12
-1.0892e-12 3.69009e-12 -21.5326

3.67448 16.1755 8.34888e-14
16.1755 -51.8843 -6.61989e-13
8.34888e-14 -6.61989e-13 -21.4059

6.55571 0.12188 -3.40557e-12
0.12188 -76.7547 -1.0577e-12
-3.40557e-12 -1.0577e-12 -13.3041

-7.56979 23.3753 3.35317e-12
23.3753 39.9358 -3.18205e-12
3.35317e-12 -3.18205e-12 -6.88535

-56.8891 36.1714 2.94875e-12
36.1714 -14.0113 -1.80345e-12
2.94875e-12 -1.80345e-12 -13.3889

-39.7947 -23.3958 -2.35101e-12
-23.3958 2.56153 2.99612e-13
-2.35101e-12 2.99612e-13 -8.80098

37.1168 23.3529 -3.55627e-12
23.3529 -8.61331 1.96228e-12
-3.55627e-12 1.96228e-12 -5.7587

4.73518 23.8583 1.80537e-12
23.8583 -38.2259 -2.63493e-14
1.80537e-12 -2.63493e-14 -18.9858

24.0135 -31.3138 -7.50807e-13
-31.3138 6.40821 -3.42955e-12
-7.50807e-13 -3.42955e-12 -5.64824

2.43076 -3.23106 -8.65678e-13
-3.23106 -48.3699 2.11386e-13
-8.65678e-13 2.11386e-13 -14.7427

-60.4576 -34.1609 3.28722e-12
-34.1609 -14.3498 2.081e-12
3.28722e-12 2.081e-12 -14.0309

-17.4529 8.32001 -6.8621e-13
8.32001 45.692 1.25056e-12
-6.8621e-13 1.25056e-12 -5.78111

-9.46905 21.8117 -1.5629e-12
21.8117 40.4252 3.60245e-12
-1.5629e-12 3.60245e-12 -6.65383

58.6038 35.776 -1.62714e-12
35.776 37.0881 1.05279e-12
-1.62714e-12 1.05279e-12 -6.91589

70.4844 1.57877 1.68991e-12
1.57877 -5.54316 2.26878e-12
1.68991e-12 2.26878e-12 -10.374

-30.7594 -22.8045 7.72419e-13
-22.8045 -13.3565 -2.42286e-12
7.72419e-13 -2.42286e-12 -14.4661

32.8414 31.184 -1.30977e-12
31.184 69.7946 -8.70652e-12
-1.30977e-12 -8.70652e-12 -6.67935

-19.3766 23.6101 4.29701e-12
23.6101 7.6869 5.02946e-12
4.29701e-12 5.02946e-12 -5.51338

47.6372 -5.34958 -4.11286e-12
-5.34958 -17.4335 3.44776e-12
-4.11286e-12 3.44776e-12 -6.82184

33.2196 11.2161 3.31764e-12
11.2161 -23.6372 -3.30698e-12
3.31764e-12 -3.30698e-12 -6.01399

6.25423 0.429902 -1.45809e-13
0.429902 -77.552 3.32839e-12
-1.45809e-13 3.32839e-12 -13.4498

-58.9356 -29.031 4.31825e-12
-29.031 -6.28812 -5.89454e-13
4.31825e-12 -5.89454e-13 -14.6971

-28.3319 -6.31885 -4.65413e-12
-6.31885 -11.3581 3.47307e-12
-4.65413e-12 3.47307e-12 -51.5884

-44.698 37.4114 -1.06404e-12
37.4114 -20.8114 3.78952e-12
-1.06404e-12 3.78952e-12 -14.7735

93.791 1.6633 -8.10019e-13
1.6633 16.6553 1.9047e-12
-8.10019e-13 1.9047e-12 -6.04306

10.0363 -32.7871 -2.62842e-12
-32.7871 21.3109 -1.56438e-12
-2.62842e-12 -1.56438e-12 -6.80828

-56.936 36.6129 -1.16189e-12
36.6129 -14.5712 2.55618e-12
-1.16189e-12 2.55618e-12 -13.5051

-35.0794 -11.1339 -1.39548e-12
-11.1339 19.1771 -2.20683e-12
-1.39548e-12 -2.20683e-12 -8.31653

-5.47769 -25.5147 2.15117e-12
-25.5147 37.3503 -5.12183e-12
2.15117e-12 -5.12183e-12 -6.98711

-58.4521 28.83 4.70735e-14
28.83 -6.27149 4.8909e-13
4.70735e-14 4.8909e-13 -14.6142

28.4959 -26.142 -6.16396e-13
-26.142 -4.91265 -2.03393e-12
-6.16396e-13 -2.03393e-12 -4.6973

-21.1702 10.4835 3.606e-13
10.4835 -18.5589 -9.21352e-12
3.606e-13 -9.21352e-12 -51.684

3.43273 30.8722 1.91254e-13
30.8722 27.1626 -2.55085e-12
1.91254e-13 -2.55085e-12 -6.73307

6.14052 8.12667 -1.76836e-12
8.12667 -72.2975 3.6023e-12
-1.76836e-12 3.6023e-12 -14.9843

-11.5458 30.1906 7.13207e-13
30.1906 -20.6032 -2.93395e-12
7.13207e-13 -2.93395e-12 -11.5492

-30.7977 23.332 -3.50238e-13
23.332 -5.09976 -2.13163e-13
-3.50238e-13 -2.13163e-13 -8.46445

-25.8637 -32.4886 -1.16174e-12
-32.4886 -24.1126 1.24367e-12
-1.16174e-12 1.24367e-12 -21.5588

9.20536 -23.1903 -1.38141e-12
-23.1903 -27.9223 -3.70074e-14
-1.38141e-12 -3.70074e-14 -11.4257

-37.6609 10.4705 3.38788e-12
10.4705 8.92892 -3.98911e-12
3.38788e-12 -3.98911e-12 -25.3309

-23.0406 -23.4339 -4.03529e-13
-23.4339 4.95243 5.76605e-12
-4.03529e-13 5.76605e-12 -6.26309

88.8038 -9.70786 -3.71851e-13
-9.70786 10.8072 4.44785e-12
-3.71851e-13 4.44785e-12 -10.0309

84.0439 -14.2773 -3.37034e-12
-14.2773 2.81256 -8.05282e-13
-3.37034e-12 -8.05282e-13 -13.1968

5.88785 16.5296 2.72789e-12
16.5296 -33.9324 3.14445e-12
2.72789e-12 3.14445e-12 -22.3759

-16.4215 22.5018 3.52311e-14
22.5018 16.228 3.88075e-12
3.52311e-14 3.88075e-12 -5.0854

-3.91241 29.1633 8.941e-14
29.1633 -12.2299 9.43245e-13
8.941e-14 9.43245e-13 -8.39637

50.9929 0.688673 1.62714e-12
0.688673 -6.53201 3.25368e-12
1.62714e-12 3.25368e-12 -3.63448

-48.1412 6.57111 -2.22873e-12
6.57111 14.7861 1.42878e-12
-2.22873e-12 1.42878e-12 -18.9524

10.1157 16.5407 1.09128e-12
16.5407 -36.0798 -2.78148e-12
1.09128e-12 -2.78148e-12 -9.13554

-4.50387 -25.7612 -4.81393e-12
-25.7612 35.5555 5.29828e-12
-4.81393e-12 5.29828e-12 -6.74707

-39.1914 -2.57235 -5.16328e-13
-2.57235 21.5043 3.03106e-12
-5.16328e-13 3.03106e-12 -10.6694

-7.99082 13.3652 -1.49451e-12
13.3652 44.4054 5.42855e-12
-1.49451e-12 5.42855e-12 -3.94438

3.73464 -29.7134 -1.37431e-12
-29.7134 -17.3649 3.45205e-12
-1.37431e-12 3.45205e-12 -8.92062

21.4258 -29.9476 1.06759e-12
-29.9476 14.756 -1.70353e-12
1.06759e-12 -1.70353e-12 -3.91795

6.88082 31.623 5.82053e-13
31.623 25.4017 -5.83533e-12
5.82053e-13 -5.83533e-12 -6.82822

2.78546 -15.02 4.35059e-12
-15.02 -39.2668 -1.67296e-12
4.35059e-12 -1.67296e-12 -63.3105

-46.1596 2.04137 -8.19271e-13
2.04137 11.4614 7.15872e-13
-8.19271e-13 7.15872e-13 -22.7567

-55.4445 20.2999 -6.73683e-13
20.2999 3.09563 4.52971e-14
-6.73683e-13 4.52971e-14 -22.9158

5.91666 15.4389 -2.25553e-12
15.4389 -58.8183 -9.87062e-13
-2.25553e-12 -9.87062e-13 -23.0359

-18.9216 -26.1888 2.64855e-12
-26.1888 -12.9135 1.12088e-12
2.64855e-12 1.12088e-12 -9.65271

41.3461 17.9573 9.81733e-13
17.9573 -6.27117 -5.86967e-12
9.81733e-13 -5.86967e-12 -3.86148

-44.6826 -5.29395 4.35395e-12
-5.29395 4.53834 4.89653e-12
4.35395e-12 4.89653e-12 -39.1446

7.49929 -18.9881 2.96356e-13
-18.9881 -39.8944 -1.58303e-12
2.96356e-13 -1.58303e-12 -11.66

30.291 -15.5989 5.04249e-12
-15.5989 -20.5087 4.08207e-12
5.04249e-12 4.08207e-12 -4.8051

-9.63856 11.6033 -1.58273e-12
11.6033 44.3192 8.52651e-14
-1.58273e-12 8.52651e-14 -3.85914

8.33384 -25.7343 7.99361e-14
-25.7343 32.9919 -1.73728e-12
7.99361e-14 -1.73728e-12 -3.63308

-10.2446 -25.2738 5.54815e-13
-25.2738 -19.1004 1.54158e-12
5.54815e-13 1.54158e-12 -23.1746

17.005 31.9596 9.82325e-13
31.9596 11.1972 3.86654e-13
9.82325e-13 3.86654e-13 -5.7464

-1.06924 -25.1346 2.28854e-12
-25.1346 -30.7628 -2.17929e-12
2.28854e-12 -2.17929e-12 -20.8915

48.0651 2.59738 -5.84895e-12
2.59738 -8.40987 3.52599e-12
-5.84895e-12 3.52599e-12 -3.53165

6.55253 -28.9306 1.39326e-12
-28.9306 72.0505 4.63037e-12
1.39326e-12 4.63037e-12 -14.5515

21.7915 -29.231 2.18433e-12
-29.231 13.9635 1.19312e-12
2.18433e-12 1.19312e-12 -3.93033

35.3513 32.159 -2.53427e-13
32.159 74.1344 3.78956e-14
-2.53427e-13 3.78956e-14 -5.44165

-45.2834 -11.8768 -2.67423e-12
-11.8768 13.9221 -1.92439e-12
-2.67423e-12 -1.92439e-12 -15.3263

-14.4206 -13.8214 5.00044e-13
-13.8214 43.3823 -6.27646e-14
5.00044e-13 -6.27646e-14 -5.67271

-19.2431 -23.9878 5.85413e-12
-23.9878 -19.8304 -9.82177e-13
5.85413e-12 -9.82177e-13 -64.2523

2.43816 23.7709 1.75859e-13
23.7709 36.0067 2.68704e-12
1.75859e-13 2.68704e-12 -3.7111

-15.1824 -32.7263 3.54117e-12
-32.7263 -21.1191 3.07014e-13
3.54117e-12 3.07014e-13 -14.3129

-14.5653 -11.9632 2.71131e-12
-11.9632 45.5305 2.4265e-12
2.71131e-12 2.4265e-12 -5.7389

7.83557 -19.1169 2.83921e-13
-19.1169 -43.1219 6.64061e-13
2.83921e-13 6.64061e-13 -12.632

6.54558 23.8771 -6.35462e-12
23.8771 35.1713 -4.10694e-12
-6.35462e-12 -4.10694e-12 -3.44206

23.1734 -4.97549 -2.82678e-12
-4.97549 -30.6763 -4.71597e-12
-2.82678e-12 -4.71597e-12 -5.36431

36.9703 -30.3427 9.23706e-13
-30.3427 122.627 7.96518e-12
9.23706e-13 7.96518e-12 -6.24172

-26.8693 21.0141 -2.645e-12
21.0141 8.43423 -6.74423e-13
-2.645e-12 -6.74423e-13 -7.12997

40.3384 -19.3233 -6.987e-13
-19.3233 -11.3725 -1.74379e-12
-6.987e-13 -1.74379e-12 -5.72593

6.52834 -21.4458 -8.13275e-12
-21.4458 -45.5581 9.26074e-13
-8.13275e-12 9.26074e-13 -24.9716

20.705 31.7541 -2.06886e-12
31.7541 9.55743 2.46203e-12
-2.06886e-12 2.46203e-12 -5.80596

13.9188 -29.9718 -1.45128e-12
-29.9718 -7.60576 1.29822e-12
-1.45128e-12 1.29822e-12 -5.94421

6.7549 20.8853 1.53833e-12
20.8853 -27.7922 -4.06253e-12
1.53833e-12 -4.06253e-12 -11.1088

-38.2741 -28.0759 -1.74527e-13
-28.0759 -14.0378 6.32309e-13
-1.74527e-13 6.32309e-13 -11.0609

8.64628 -26.2253 8.2423e-13
-26.2253 31.1708 5.48421e-12
8.2423e-13 5.48421e-12 -3.63511

15.3313 28.9812 1.50872e-12
28.9812 19.1538 -7.6857e-13
1.50872e-12 -7.6857e-13 -3.88289

28.6403 26.1914 -4.65642e-12
26.1914 -5.63331 -1.39414e-12
-4.65642e-12 -1.39414e-12 -4.8019

7.9147 -14.6101 6.96628e-13
-14.6101 -36.8776 2.44575e-12
6.96628e-13 2.44575e-12 -13.9912

-6.84146 -16.6176 -5.18755e-12
-16.6176 41.3409 9.29627e-13
-5.18755e-12 9.29627e-13 -3.95933

17.4407 -17.5683 2.88836e-12
-17.5683 -30.9992 -1.08876e-12
2.88836e-12 -1.08876e-12 -7.10512

19.8418 16.9085 4.18628e-13
16.9085 -31.6644 -4.83051e-12
4.18628e-13 -4.83051e-12 -7.33439

-33.6797 -9.38667 1.59913e-12
-9.38667 8.75605 -1.44595e-12
1.59913e-12 -1.44595e-12 -23.9926

43.4315 -13.4301 2.20624e-12
-13.4301 -8.36882 -1.68103e-12
2.20624e-12 -1.68103e-12 -3.80407

-19.3785 0.594044 7.72123e-13
0.594044 43.1453 3.78364e-12
7.72123e-13 3.78364e-12 -4.77535

28.0559 18.555 4.77189e-12
18.555 -18.199 -2.71487e-13
4.77189e-12 -2.71487e-13 -4.74959

25.5283 27.604 -6.86147e-12
27.604 -3.7756 -8.82257e-13
-6.86147e-12 -8.82257e-13 -4.77104

-6.71526 -15.6862 1.87021e-12
-15.6862 43.7985 -1.96228e-12
1.87021e-12 -1.96228e-12 -3.84786

-19.9066 -1.20229 8.83812e-13
-1.20229 42.1278 3.36679e-12
8.83812e-13 3.36679e-12 -4.68691

-5.47321 29.1343 1.49806e-12
29.1343 -23.6467 -8.52355e-13
1.49806e-12 -8.52355e-13 -16.7968

-37.2737 -10.9221 6.99441e-12
-10.9221 21.6799 2.8629e-12
6.99441e-12 2.8629e-12 -7.8299

27.1433 -26.7154 -3.74693e-12
-26.7154 -5.53072 -2.58993e-12
-3.74693e-12 -2.58993e-12 -4.94409

40.719 21.3326 5.30539e-13
21.3326 -8.37013 1.05397e-13
5.30539e-13 1.05397e-13 -5.46743

12.378 23.6653 3.01566e-12
23.6653 -27.1271 1.06581e-13
3.01566e-12 1.06581e-13 -8.66685

-37.7965 5.47083 -6.77902e-13
5.47083 23.3113 -8.34296e-13
-6.77902e-13 -8.34296e-13 -8.59729

18.593 29.0656 -2.27374e-13
29.0656 17.3777 -8.49395e-12
-2.27374e-13 -8.49395e-12 -3.94698

-9.98897 22.9638 -1.1644e-12
22.9638 -14.9131 -5.42337e-12
-1.1644e-12 -5.42337e-12 -24.0258

68.3168 -59.6919 3.66403e-12
-59.6919 36.3353 8.62125e-13
3.66403e-12 8.62125e-13 -23.0106

17.5308 -25.0478 5.59908e-12
-25.0478 -17.992 2.61835e-12
5.59908e-12 2.61835e-12 -6.41755

10.0583 7.06993 6.53729e-12
7.06993 82.5507 2.5248e-12
6.53729e-12 2.5248e-12 -7.16519

11.9203 -28.8893 -1.40747e-12
-28.8893 -3.8815 1.21384e-13
-1.40747e-12 1.21384e-13 -5.16567

-66.9447 -52.7014 8.5502e-13
-52.7014 143.251 4.44326e-12
8.5502e-13 4.44326e-12 -49.6688

-68.388 51.452 -8.36072e-13
51.452 142.538 2.76638e-12
-8.36072e-13 2.76638e-12 -49.8579

19.5701 117.155 1.65793e-12
117.155 64.1298 2.80428e-12
1.65793e-12 2.80428e-12 -48.3595

20.529 -117.098 9.66338e-13
-117.098 61.0266 -4.45273e-13
9.66338e-13 -4.45273e-13 -48.7242

157.744 -1.36337 5.06854e-13
-1.36337 -79.187 3.35507e-14
5.06854e-13 3.35507e-14 -48.9111

110.327 -91.1262 2.81849e-12
-91.1262 -36.6896 8.69231e-13
2.81849e-12 8.69231e-13 -50.3057

110.38 91.654 -4.95485e-12
91.654 -36.4999 -9.23706e-13
-4.95485e-12 -9.23706e-13 -50.1785

7.84691 14.3304 2.8096e-13
14.3304 -42.6816 -2.20712e-12
2.8096e-13 -2.20712e-12 -15.079

-11.7908 25.5365 2.1038e-12
25.5365 -27.4047 1.66889e-12
2.1038e-12 1.66889e-12 -35.1376

12.4381 6.60607 -1.63425e-13
6.60607 -40.5338 1.89101e-12
-1.63425e-13 1.89101e-12 -8.25239

26.2548 21.7847 1.78879e-12
21.7847 -19.5286 1.76748e-13
1.78879e-12 1.76748e-13 -5.85076

-21.2301 17.7445 -3.61888e-12
17.7445 29.8684 1.54543e-13
-3.61888e-12 1.54543e-13 -6.16226

22.5303 28.8986 -5.875e-12
28.8986 -0.775448 -1.83616e-12
-5.875e-12 -1.83616e-12 -4.73068

4.05545 -29.6635 1.17832e-13
-29.6635 -17.4663 2.54197e-12
1.17832e-13 2.54197e-12 -8.50432

25.9952 28.0279 -2.68052e-12
28.0279 -2.30166 2.78947e-12
-2.68052e-12 2.78947e-12 -4.73108

-19.3471 -2.84128 4.79557e-12
-2.84128 43.0713 3.56456e-12
4.79557e-12 3.56456e-12 -4.7699

-13.4114 -26.0973 3.69512e-12
-26.0973 -25.8384 -1.75563e-13
3.69512e-12 -1.75563e-13 -35.5207

-19.8422 -4.86244 1.53507e-13
-4.86244 41.7764 2.03452e-12
1.53507e-13 2.03452e-12 -4.74376

-1.82694 23.0163 2.33769e-12
23.0163 -24.3771 -2.24235e-12
2.33769e-12 -2.24235e-12 -16.1498

44.9826 26.8708 -3.54087e-13
26.8708 8.11138 -3.81739e-12
-3.54087e-13 -3.81739e-12 -5.36904

-52.5085 -13.2161 2.03763e-12
-13.2161 0.150354 1.93564e-12
2.03763e-12 1.93564e-12 -20.6172

20.2805 13.728 -2.51414e-12
13.728 -31.1416 -1.41605e-12
-2.51414e-12 -1.41605e-12 -7.04291

13.7007 -29.9878 -4.29938e-12
-29.9878 -6.69149 -3.81917e-13
-4.29938e-12 -3.81917e-13 -5.83514

29.6309 -24.7136 1.35003e-13
-24.7136 -7.87377 -1.7885e-12
1.35003e-13 -1.7885e-12 -4.82505

5.7647 -16.0748 7.83551e-12
-16.0748 -32.3342 4.5001e-13
7.83551e-12 4.5001e-13 -22.2554

12.6276 27.929 -5.05255e-12
27.929 -13.6388 3.23297e-13
-5.05255e-12 3.23297e-13 -6.41953

23.309 23.9776 1.01489e-12
23.9776 -17.9433 1.77221e-12
1.01489e-12 1.77221e-12 -5.96229

-31.077 -2.79292 -1.48418e-12
-2.79292 30.1318 -1.84386e-12
-1.48418e-12 -1.84386e-12 -6.3984

-28.6294 5.87337 -2.38578e-12
5.87337 33.3215 -2.61124e-12
-2.38578e-12 -2.61124e-12 -6.05925

34.5486 2.64672 -2.8925e-12
2.64672 -26.1835 2.58171e-12
-2.8925e-12 2.58171e-12 -6.14201

50.6515 -7.28971 -2.66927e-12
-7.28971 -14.0819 -4.26992e-12
-2.66927e-12 -4.26992e-12 -6.77861

11.0411 30.4849 -2.16597e-12
30.4849 -4.78764 6.35936e-12
-2.16597e-12 6.35936e-12 -5.9661

17.4675 -26.1556 1.90899e-12
-26.1556 -17.455 4.20523e-12
1.90899e-12 4.20523e-12 -6.35166

-0.0843653 -21.2544 3.41949e-13
-21.2544 -27.956 -3.09234e-12
3.41949e-13 -3.09234e-12 -17.1664

4.93896 -31.6338 5.35335e-12
-31.6338 4.86139 -2.17308e-12
5.35335e-12 -2.17308e-12 -5.93495

-8.22722 -27.7857 -8.57388e-13
-27.7857 18.5788 1.42997e-12
-8.57388e-13 1.42997e-12 -6.12957

-1.65032 29.8874 7.17293e-12
29.8874 10.4474 -5.67842e-13
7.17293e-12 -5.67842e-13 -5.8

-26.0166 -9.57798 2.46136e-12
-9.57798 32.9699 5.54638e-12
2.46136e-12 5.54638e-12 -5.78692

-31.3229 -1.54484 -2.77896e-12
-1.54484 31.6508 -5.30006e-12
-2.77896e-12 -5.30006e-12 -6.22323

-38.9155 5.74792 -2.30651e-12
5.74792 23.9465 5.85014e-13
-2.30651e-12 5.85014e-13 -9.18271

-17.2182 -21.0892 -7.78044e-13
-21.0892 26.5711 -4.02937e-12
-7.78044e-13 -4.02937e-12 -5.77165

13.0718 24.1113 3.0956e-12
24.1113 -28.1012 2.01735e-12
3.0956e-12 2.01735e-12 -9.20459

21.5551 -9.58981 -3.2229e-12
-9.58981 -31.7065 3.68002e-12
-3.2229e-12 3.68002e-12 -6.59775

-27.1535 7.46531 -4.13625e-12
7.46531 34.3347 -4.02463e-12
-4.13625e-12 -4.02463e-12 -5.87364

-35.2358 -9.70112 -2.76556e-12
-9.70112 22.3136 1.55905e-12
-2.76556e-12 1.55905e-12 -8.18317

-29.1557 -16.3308 6.73476e-12
-16.3308 19.3468 -2.02445e-12
6.73476e-12 -2.02445e-12 -6.66142

36.968 -8.23927 2.0061e-12
-8.23927 -20.2368 3.62081e-13
2.0061e-12 3.62081e-13 -5.10116

-14.8097 -32.3468 -2.88066e-13
-32.3468 -21.6274 8.36664e-13
-2.88066e-13 8.36664e-13 -12.9928

-22.8241 9.32097 7.11431e-13
9.32097 33.3234 -7.01898e-12
7.11431e-13 -7.01898e-12 -4.78848

-0.751074 -18.2127 -1.59991e-12
-18.2127 -35.1574 3.31838e-12
-1.59991e-12 3.31838e-12 -33.2773

4.93211 24.8229 5.21242e-12
24.8229 75.3072 3.36324e-12
5.21242e-12 3.36324e-12 -14.3189

-14.1418 -26.6263 1.13095e-13
-26.6263 -16.3502 2.83403e-12
1.13095e-13 2.83403e-12 -14.6405

-6.35706 -30.2029 -1.80952e-12
-30.2029 -23.6024 2.94283e-13
-1.80952e-12 2.94283e-13 -17.0876

-31.2707 -0.701249 -5.36534e-12
-0.701249 31.5005 -4.36036e-12
-5.36534e-12 -4.36036e-12 -6.3481

28.4878 -16.6227 4.70024e-12
-16.6227 -18.057 9.87062e-13
4.70024e-12 9.87062e-13 -4.43769

-37.805 12.8417 1.80008e-12
12.8417 11.1651 6.83305e-13
1.80008e-12 6.83305e-13 -10.9888

-8.86117 -3.1806 8.15155e-12
-3.1806 111.052 9.73444e-13
8.15155e-12 9.73444e-13 -22.6715

-31.6026 14.2738 2.91767e-12
14.2738 21.3504 4.64754e-12
2.91767e-12 4.64754e-12 -7.12412

12.4219 -29.4895 -2.57986e-12
-29.4895 -2.51957 5.17394e-12
-2.57986e-12 5.17394e-12 -4.9279

33.6322 25.1059 2.18788e-12
25.1059 124.031 -6.25278e-12
2.18788e-12 -6.25278e-12 -6.21407

-13.5025 26.0976 -3.52651e-12
26.0976 -19.0972 -8.36131e-12
-3.52651e-12 -8.36131e-12 -58.8945

-9.55266 -27.807 -1.29069e-11
-27.807 -22.8067 6.52796e-12
-1.29069e-11 6.52796e-12 -59.5448

-2.86586 -30.4193 -1.37727e-12
-30.4193 -7.32129 5.93599e-13
-1.37727e-12 5.93599e-13 -7.28706

3.86022 -31.1605 8.76336e-14
-31.1605 5.63561 2.85105e-12
8.76336e-14 2.85105e-12 -6.06217

25.1521 20.8276 7.59689e-13
20.8276 -17.0344 -5.56769e-12
7.59689e-13 -5.56769e-12 -4.97658

31.8052 15.0062 3.93049e-12
15.0062 -23.3011 -6.02511e-12
3.93049e-12 -6.02511e-12 -5.95446

-9.48851 3.08331 -1.2863e-12
3.08331 -9.83041 -1.78022e-11
-1.2863e-12 -1.78022e-11 -80.9363

-5.54885 -6.99977 -5.36045e-12
-6.99977 -14.0415 1.074e-11
-5.36045e-12 1.074e-11 -80.289

11.7486 4.82429 4.00095e-12
4.82429 -43.2056 -9.13344e-13
4.00095e-12 -9.13344e-13 -7.8273

-35.0568 6.73109 4.55761e-12
6.73109 24.3754 3.79548e-12
4.55761e-12 3.79548e-12 -7.56376

-36.1106 6.73633 -1.02273e-12
6.73633 24.4326 6.33567e-12
-1.02273e-12 6.33567e-12 -8.30874

74.5873 58.6349 3.59771e-12
58.6349 34.1732 2.73085e-12
3.59771e-12 2.73085e-12 -21.8728

-6.91997 -28.2001 2.75927e-12
-28.2001 16.8753 4.56524e-13
2.75927e-12 4.56524e-13 -6.11647

8.172 17.9745 -4.59218e-12
17.9745 -44.8758 2.17544e-12
-4.59218e-12 2.17544e-12 -12.8966

32.7033 9.53982 -4.54511e-12
9.53982 -19.0803 2.59067e-12
-4.54511e-12 2.59067e-12 -4.07418

3.38777 -26.7236 -1.04687e-12
-26.7236 13.484 8.76336e-13
-1.04687e-12 8.76336e-13 -3.82681

26.2376 -20.2379 3.12639e-12
-20.2379 -20.3232 7.68274e-13
3.12639e-12 7.68274e-13 -5.86302

65.3912 60.2328 -1.88057e-12
60.2328 34.2899 -2.73441e-12
-1.88057e-12 -2.73441e-12 -23.8676

-13.2425 31.0692 -1.0442e-12
31.0692 -16.8815 1.45957e-13
-1.0442e-12 1.45957e-13 -12.7858

-18.6044 -19.7863 -1.75504e-12
-19.7863 28.4149 5.16328e-12
-1.75504e-12 5.16328e-12 -5.96931

11.1744 28.8579 1.84563e-12
28.8579 -13.3232 1.70057e-12
1.84563e-12 1.70057e-12 -6.43596

-31.8693 -4.1449 -2.00691e-12
-4.1449 30.148 -2.93454e-12
-2.00691e-12 -2.93454e-12 -6.35767

-14.5964 19.6094 -1.34352e-12
19.6094 27.1854 5.55763e-12
-1.34352e-12 5.55763e-12 -4.41852

7.47927 30.5191 -6.20541e-13
30.5191 -1.67039 2.09551e-12
-6.20541e-13 2.09551e-12 -5.6603

-9.34496 -22.4735 6.24567e-12
-22.4735 23.1493 -6.03843e-12
6.24567e-12 -6.03843e-12 -4.17527

4.59053 -27.3528 1.04923e-12
-27.3528 11.4491 -5.77908e-12
1.04923e-12 -5.77908e-12 -3.93832

24.272 11.2571 4.18939e-12
11.2571 102.08 -1.6532e-12
4.18939e-12 -1.6532e-12 -12.4049

37.4668 -33.4566 7.1149e-12
-33.4566 69.2862 2.8398e-12
7.1149e-12 2.8398e-12 -5.70305

-25.3354 -11.6906 -6.10253e-13
-11.6906 31.3683 3.10448e-12
-6.10253e-13 3.10448e-12 -5.6482

16.0965 26.4848 4.62978e-12
26.4848 -15.5021 3.90266e-12
4.62978e-12 3.90266e-12 -6.21726

4.95577 29.4782 -5.89573e-12
29.4782 1.63694 2.46085e-12
-5.89573e-12 2.46085e-12 -4.98978

-9.85473 -21.4342 -3.86476e-12
-21.4342 25.121 4.39767e-12
-3.86476e-12 4.39767e-12 -4.03306

-21.6348 -11.7825 -1.47526e-12
-11.7825 32.0823 5.44039e-12
-1.47526e-12 5.44039e-12 -4.63703

10.463 28.4098 6.25278e-13
28.4098 -0.156435 -1.01904e-12
6.25278e-13 -1.01904e-12 -4.67271

-21.8469 -13.878 1.18246e-12
-13.878 29.4675 4.50247e-12
1.18246e-12 4.50247e-12 -4.84697

6.95861 27.8553 -7.47432e-12
27.8553 73.0856 -2.45137e-12
-7.47432e-12 -2.45137e-12 -14.3221

-45.8317 -4.04118 2.56845e-12
-4.04118 14.0479 -1.23634e-12
2.56845e-12 -1.23634e-12 -19.9648

0.877096 31.0279 7.15635e-12
31.0279 7.52036 -1.49214e-12
7.15635e-12 -1.49214e-12 -6.08892

9.71921 14.9013 -2.33709e-12
14.9013 -36.4293 2.06176e-12
-2.33709e-12 2.06176e-12 -10.9852

9.92865 -15.9276 1.60168e-12
-15.9276 -39.4105 -2.09669e-12
1.60168e-12 -2.09669e-12 -13.069

85.6141 -24.2048 -9.00021e-13
-24.2048 7.63583 -1.52885e-12
-9.00021e-13 -1.52885e-12 -12.9579

-23.207 -21.2674 2.75306e-12
-21.2674 10.5139 3.55627e-12
2.75306e-12 3.55627e-12 -6.16514

-16.601 26.6985 -6.1083e-12
26.6985 1.77855 -5.56533e-12
-6.1083e-12 -5.56533e-12 -6.5876

-26.2012 -21.7278 -6.91891e-13
-21.7278 -5.36523 4.69672e-12
-6.91891e-13 4.69672e-12 -23.867

-41.5964 14.1063 8.06851e-12
14.1063 -3.56001 7.12023e-13
8.06851e-12 7.12023e-13 -64.1267

-0.893482 9.44532 -1.34337e-12
9.44532 -44.2589 -7.83492e-12
-1.34337e-12 -7.83492e-12 -64.2281

-20.384 32.7054 4.67537e-12
32.7054 -23.2026 2.40252e-12
4.67537e-12 2.40252e-12 -24.3294

-11.4107 26.0007 -2.0739e-12
26.0007 22.6042 -6.14619e-13
-2.0739e-12 -6.14619e-13 -5.92555

16.0388 26.6617 2.93454e-12
26.6617 -17.2873 -5.26394e-13
2.93454e-12 -5.26394e-13 -6.54974

30.4285 45.1865 -3.55863e-12
45.1865 47.5552 -2.50585e-12
-3.55863e-12 -2.50585e-12 -15.195

-44.8882 -11.3434 -5.74947e-13
-11.3434 -1.80801 -1.53359e-13
-5.74947e-13 -1.53359e-13 -61.6828

-8.29815 -3.43279 3.81351e-12
-3.43279 -12.7547 3.38766e-12
3.81351e-12 3.38766e-12 -77.2265

-14.691 -0.209909 -7.85653e-12
-0.209909 -6.41856 1.74714e-11
-7.85653e-12 1.74714e-11 -77.3707

27.6654 -53.8031 -3.99325e-12
-53.8031 71.1496 9.71075e-13
-3.99325e-12 9.71075e-13 -24.3894

-11.6909 -11.5999 3.9857e-12
-11.5999 -16.2046 1.17062e-12
3.9857e-12 1.17062e-12 -37.4306

-32.6102 8.81285 -7.97806e-13
8.81285 -9.41917 -1.66622e-12
-7.97806e-13 -1.66622e-12 -49.5406

18.2562 -26.1997 2.55499e-12
-26.1997 -19.5465 7.52287e-13
2.55499e-12 7.52287e-13 -6.5065

-39.4301 1.01096 -2.65473e-12
1.01096 11.9802 -2.09492e-12
-2.65473e-12 -2.09492e-12 -19.7218

-30.2026 -20.268 -1.8554e-12
-20.268 6.3051 -1.7882e-12
-1.8554e-12 -1.7882e-12 -7.21601

10.5365 6.25535 8.30447e-13
6.25535 -52.39 -2.30342e-12
8.30447e-13 -2.30342e-12 -9.63965

-49.8127 15.5963 -4.13776e-12
15.5963 10.1653 4.38997e-12
-4.13776e-12 4.38997e-12 -13.531

-40.2838 7.19155 -4.80819e-13
7.19155 16.5414 -1.28253e-12
-4.80819e-13 -1.28253e-12 -13.7742

16.4049 20.393 2.00136e-13
20.393 -25.841 7.32599e-12
2.00136e-13 7.32599e-12 -7.60759

-9.1002 -3.1139 -3.57225e-12
-3.1139 108.396 -1.90189e-12
-3.57225e-12 -1.90189e-12 -23.1018

-3.32019 -27.624 -4.03825e-13
-27.624 -3.62946 -2.72908e-12
-4.03825e-13 -2.72908e-12 -5.82993

-7.33503 -26.1165 5.8975e-13
-26.1165 -14.0819 -8.54428e-13
5.8975e-13 -8.54428e-13 -9.81065

-14.1983 -31.4837 -1.50724e-12
-31.4837 -21.7779 7.56136e-12
-1.50724e-12 7.56136e-12 -12.7556

90.7286 32.7499 1.31214e-12
32.7499 20.9066 -8.90399e-12
1.31214e-12 -8.90399e-12 -16.5059

-23.1171 -20.1164 -3.0201e-12
-20.1164 -17.3851 -1.84763e-12
-3.0201e-12 -1.84763e-12 -44.427

72.6309 54.3228 -3.12402e-12
54.3228 91.6413 3.75403e-12
-3.12402e-12 3.75403e-12 -6.14223

-36.2152 -21.4395 8.12535e-13
-21.4395 -6.79682 -1.50457e-12
8.12535e-13 -1.50457e-12 -13.0429

15.034 14.6504 -8.39033e-13
14.6504 -37.7518 3.84951e-12
-8.39033e-13 3.84951e-12 -8.17871

44.5729 -14.5726 -6.06448e-12
-14.5726 -8.27205 5.41419e-12
-6.06448e-12 5.41419e-12 -4.41847

-21.2308 24.0469 4.24549e-13
24.0469 4.95555 -2.6444e-12
4.24549e-13 -2.6444e-12 -5.97632

17.3732 20.4281 1.18128e-12
20.4281 -26.7925 -2.38802e-12
1.18128e-12 -2.38802e-12 -6.95141

-51.1399 11.4004 3.51371e-12
11.4004 7.7104 1.04331e-12
3.51371e-12 1.04331e-12 -29.9939

-7.28707 -31.5803 1.59102e-12
-31.5803 -12.8267 -4.93975e-12
1.59102e-12 -4.93975e-12 -8.11901

2.79656 19.8124 1.25648e-12
19.8124 -46.0331 2.923e-12
1.25648e-12 2.923e-12 -29.9858

-24.6711 -18.4436 4.61172e-12
-18.4436 17.8362 -4.74169e-12
4.61172e-12 -4.74169e-12 -5.48001

-42.3406 4.28326 2.90396e-12
4.28326 17.8694 1.02673e-12
2.90396e-12 1.02673e-12 -12.7281

-4.09805 9.92686 -3.27738e-13
9.92686 -40.2756 6.11836e-12
-3.27738e-13 6.11836e-12 -47.5482

-2.6883 -8.5135 4.18036e-13
-8.5135 -38.3068 -1.55979e-12
4.18036e-13 -1.55979e-12 -47.4039

81.7232 18.5125 3.5764e-12
18.5125 1.70007 -4.59899e-12
3.5764e-12 -4.59899e-12 -14.4531

3.89497 7.96509 -1.2399e-12
7.96509 -45.1832 4.49004e-12
-1.2399e-12 4.49004e-12 -11.0182

35.8721 7.74057 -3.5311e-12
7.74057 184.574 9.09495e-13
-3.5311e-12 9.09495e-13 -9.75708

40.1456 -11.3852 4.50417e-12
-11.3852 190.371 -3.13586e-12
4.50417e-12 -3.13586e-12 -7.38889

53.7651 56.4071 6.30488e-12
56.4071 159.255 1.89004e-12
6.30488e-12 1.89004e-12 -11.4998

1.70885 -28.9506 -9.92983e-13
-28.9506 -24.6908 -2.56624e-12
-9.92983e-13 -2.56624e-12 -11.9628

16.0491 -49.1907 1.77636e-14
-49.1907 99.4193 5.42381e-12
1.77636e-14 5.42381e-12 -21.6892

54.5129 -55.9496 -2.67164e-12
-55.9496 149.973 -1.75267e-12
-2.67164e-12 -1.75267e-12 -13.6647

-2.16574 26.2203 7.92729e-12
26.2203 17.5727 -5.17512e-13
7.92729e-12 -5.17512e-13 -3.99583

134.939 73.844 8.17598e-12
73.844 85.0249 9.00021e-13
8.17598e-12 9.00021e-13 -10.1589

-18.72 13.0472 -2.19469e-12
13.0472 -3.90007 2.68378e-12
-2.19469e-12 2.68378e-12 -26.7693

3.74107 0.0396334 -1.35995e-12
0.0396334 -26.189 2.58016e-12
-1.35995e-12 2.58016e-12 -26.7726

144.097 -73.1294 3.78956e-14
-73.1294 85.3524 9.14232e-13
3.78956e-14 9.14232e-13 -8.19612

-21.393 -23.4241 1.6378e-12
-23.4241 12.2481 -5.99343e-12
1.6378e-12 -5.99343e-12 -6.49104

89.3464 34.7293 -2.77112e-12
34.7293 41.39 -8.39625e-13
-2.77112e-12 -8.39625e-13 -11.548

72.1871 63.4909 -3.99325e-12
63.4909 149.693 1.84267e-12
-3.99325e-12 1.84267e-12 -9.67347

26.1645 21.6303 -8.41993e-13
21.6303 100.133 -4.73695e-14
-8.41993e-13 -4.73695e-14 -13.0315

73.8739 -65.9198 -8.17124e-13
-65.9198 151.144 -8.3844e-13
-8.17124e-13 -8.3844e-13 -9.40201

25.769 -12.3811 2.6521e-12
-12.3811 105.012 -7.69518e-12
2.6521e-12 -7.69518e-12 -12.4284

-28.6639 6.84151 -6.3319e-12
6.84151 3.10689 2.91441e-12
-6.3319e-12 2.91441e-12 -37.8532

37.7428 -45.9749 5.38236e-12
-45.9749 49.6693 3.47929e-12
5.38236e-12 3.47929e-12 -15.5324

14.4438 47.532 -5.31249e-12
47.532 94.8797 3.47219e-12
-5.31249e-12 3.47219e-12 -22.1924

173.339 37.9114 4.09746e-12
37.9114 48.0416 5.3948e-12
4.09746e-12 5.3948e-12 -9.52212

7.02075 -29.2858 2.08307e-12
-29.2858 -14.3584 -8.17124e-14
2.08307e-12 -8.17124e-14 -7.15597

-38.4176 12.8966 -8.18234e-13
12.8966 6.43535 4.90274e-12
-8.18234e-13 4.90274e-12 -15.2905

88.5047 -38.1125 -2.98191e-12
-38.1125 34.1629 -8.0315e-12
-2.98191e-12 -8.0315e-12 -14.0997

6.04178 -28.8023 5.08867e-12
-28.8023 -16.1719 -1.13065e-12
5.08867e-12 -1.13065e-12 -8.02982

169.205 -36.3433 1.82846e-12
-36.3433 34.9289 1.92675e-12
1.82846e-12 1.92675e-12 -13.29

-5.72513 -28.3175 4.69195e-12
-28.3175 -14.4729 1.67481e-12
4.69195e-12 1.67481e-12 -9.30937

-17.7906 -25.295 -6.30903e-13
-25.295 12.0803 -1.60227e-12
-6.30903e-13 -1.60227e-12 -5.93419

118.875 69.4604 -9.4739e-15
69.4604 96.2188 -3.59535e-12
-9.4739e-15 -3.59535e-12 -11.4001

29.4129 -22.9328 -2.23821e-12
-22.9328 97.7962 -6.26936e-12
-2.23821e-12 -6.26936e-12 -14.34

117.959 -71.6924 4.64695e-12
-71.6924 93.6803 2.71664e-12
4.64695e-12 2.71664e-12 -12.4161

22.2646 50.7375 1.32398e-12
50.7375 73.7784 -1.85452e-12
1.32398e-12 -1.85452e-12 -24.7774

-1.53631 -30.2123 -1.93623e-13
-30.2123 -6.55255 1.38053e-12
-1.93623e-13 1.38053e-12 -6.99781

-7.04492 -14.6404 -7.0545e-12
-14.6404 -21.9195 -2.61154e-12
-7.0545e-12 -2.61154e-12 -32.614

-11.892 11.0924 5.56658e-12
11.0924 -16.4303 7.79258e-12
5.56658e-12 7.79258e-12 -77.7929

-26.1684 -5.16004 -1.74571e-12
-5.16004 -6.38734 6.37238e-12
-1.74571e-12 6.37238e-12 -77.6266

-38.9413 13.0836 7.20738e-13
13.0836 13.7444 2.44545e-13
7.20738e-13 2.44545e-13 -10.2388

-14.4804 -10.6667 -4.87899e-12
-10.6667 -17.3177 1.94067e-12
-4.87899e-12 1.94067e-12 -78.7556

-25.9021 4.09181 4.74361e-12
4.09181 -5.91383 -1.02192e-12
4.74361e-12 -1.02192e-12 -78.8978

-3.63364 7.43377 8.33496e-12
7.43377 -27.8601 -5.18667e-12
8.33496e-12 -5.18667e-12 -77.9851

-43.9747 -12.1149 2.76497e-12
-12.1149 2.91628 -3.42348e-12
2.76497e-12 -3.42348e-12 -68.1569

11.9736 -30.4702 -1.15617e-11
-30.4702 76.1633 -1.73609e-12
-1.15617e-11 -1.73609e-12 -14.701

0.521722 -12.9721 4.76271e-12
-12.9721 -39.9904 -1.96643e-12
4.76271e-12 -1.96643e-12 -45.2764

-16.3488 -34.4175 2.92092e-12
-34.4175 -22.0687 -2.34168e-12
2.92092e-12 -2.34168e-12 -23.5899

-2.42072 -18.1769 5.65947e-12
-18.1769 -29.8951 -5.33973e-12
5.65947e-12 -5.33973e-12 -33.6262

12.7382 15.4593 3.56278e-12
15.4593 -37.7164 -3.5086e-12
3.56278e-12 -3.5086e-12 -9.62523

-46.9079 9.86403 -6.51001e-12
9.86403 8.87746 1.68413e-12
-6.51001e-12 1.68413e-12 -70.1526

3.46251 19.2273 4.62104e-12
19.2273 -41.4714 -2.34342e-12
4.62104e-12 -2.34342e-12 -70.2684

1.47215 11.3065 -4.88202e-13
11.3065 -23.965 1.15596e-12
-4.88202e-13 1.15596e-12 -31.8674

109.392 -15.3395 -5.39302e-12
-15.3395 -12.5355 1.8557e-12
-5.39302e-12 1.8557e-12 -25.0371

-14.3205 24.9643 1.058e-11
24.9643 10.3862 1.61056e-13
1.058e-11 1.61056e-13 -5.80469

76.6074 -61.355 5.99224e-12
-61.355 37.3656 -7.2049e-12
5.99224e-12 -7.2049e-12 -22.3952

76.1145 -57.4576 1.07197e-11
-57.4576 99.2289 3.94114e-12
1.07197e-11 3.94114e-12 -5.55512

118.197 -36.5443 -8.71599e-13
-36.5443 40.6011 -2.61598e-12
-8.71599e-13 -2.61598e-12 -7.37836

-51.1136 -5.15893 -5.13219e-13
-5.15893 3.3406 3.96572e-13
-5.13219e-13 3.96572e-13 -60.6593

-50.4776 2.89125 2.179e-12
2.89125 3.13486 5.77938e-12
2.179e-12 5.77938e-12 -60.1319

-11.9755 -24.4559 -9.99793e-13
-24.4559 -35.0029 -1.84519e-13
-9.99793e-13 -1.84519e-13 -59.166

-8.99182 -21.7601 -1.21074e-12
-21.7601 -37.8877 1.5925e-12
-1.21074e-12 1.5925e-12 -59.4756

-14.7025 26.1356 -2.55618e-12
26.1356 -33.0273 2.78577e-12
-2.55618e-12 2.78577e-12 -60.7505

-18.1572 3.09919 3.43992e-12
3.09919 -13.1643 -8.61903e-14
3.43992e-12 -8.61903e-14 -75.4773

-9.94502 -20.5086 -1.57652e-12
-20.5086 -32.6503 3.08457e-12
-1.57652e-12 3.08457e-12 -56.7364

-26.6479 -18.5681 -6.99885e-13
-18.5681 -14.1959 -1.58582e-11
-6.99885e-13 -1.58582e-11 -71.2713

-15.4786 2.43432 3.81606e-12
2.43432 -12.8525 -9.01945e-13
3.81606e-12 -9.01945e-13 -77.8718

-6.02747 -20.5259 -6.80937e-13
-20.5259 -41.4867 -5.65414e-12
-6.80937e-13 -5.65414e-12 -60.5066

-6.75675 20.9555 -3.98489e-12
20.9555 -40.143 -6.86562e-13
-3.98489e-12 -6.86562e-13 -60.0178

-14.3158 -3.45832 -1.02422e-12
-3.45832 -11.3901 -8.36294e-12
-1.02422e-12 -8.36294e-12 -76.8863

-11.2639 -3.11691 2.17092e-11
-3.11691 -17.6889 -2.35828e-11
2.17092e-11 -2.35828e-11 -74.0491

-24.2035 12.1097 -3.91257e-12
12.1097 -13.4006 9.95197e-12
-3.91257e-12 9.95197e-12 -69.9675

-22.0822 26.9293 -1.35003e-12
26.9293 -26.2668 -1.58732e-12
-1.35003e-12 -1.58732e-12 -57.582

VECTORS fluid_flux_TPM float
-8.72137e-05 3.10263e-05 2.78124e-21
3.55929e-06 6.88206e-06 -1.10391e-20
-1.27865e-05 -1.02248e-05 -2.23717e-20
-4.17028e-06 4.25372e-06 -4.76424e-21
2.27061e-05 -6.31285e-06 1.38977e-20
2.75739e-06 -1.59024e-05 -6.61083e-21
-8.57897e-05 -3.10911e-05 -6.58534e-21
-1.38914e-05 -1.0466e-05 -1.56336e-20
2.21203e-05 9.45455e-07 -9.46904e-21
1.13832e-05 -3.90782e-06 6.0967e-22
5.45973e-05 1.24832e-05 -2.10569e-20
2.3467e-06 -1.71929e-05 -8.31218e-21
1.36106e-05 1.1253e-05 6.02076e-22
2.6619e-06 1.37836e-05 -5.8905e-21
2.05796e-05 -2.94645e-06 2.90865e-20
-1.63312e-05 -2.7288e-07 2.01808e-20
2.75334e-06 1.40978e-05 -4.09092e-21
1.01811e-05 -2.39172e-06 2.37651e-21
9.89794e-06 1.72216e-05 4.5444e-22
-1.48475e-05 1.88533e-06 -1.41759e-21
-3.60093e-06 -2.13026e-05 -1.63445e-20
3.41093e-05 5.94146e-05 -7.36934e-21
1.56965e-05 1.6312e-06 -1.72325e-20
1.12266e-05 -1.12807e-05 -1.73419e-20
-1.50774e-05 -3.33219e-06 6.79937e-21
-6.77179e-07 -1.11301e-05 -2.85651e-20
6.29005e-05 -4.90824e-06 -1.83842e-20
1.40652e-05 1.02482e-05 1.32986e-20
-2.51483e-05 -2.06418e-05 -2.00743e-20
4.9118e-05 -1.28133e-05 1.82939e-20
-1.65815e-05 -6.03798e-06 3.11044e-20
5.53684e-06 -3.20354e-05 -1.41026e-20
4.76526e-05 -4.80455e-05 4.92066e-21
-4.92317e-06 -4.12463e-05 6.67781e-21
-2.96723e-05 3.7004e-05 -1.77312e-20
-3.82461e-05 -1.63945e-05 -1.20569e-20
3.27014e-05 4.3214e-05 -3.00879e-20
-4.47392e-05 -8.72557e-06 2.83972e-21
1.43739e-05 -1.10814e-05 -2.17078e-20
4.64684e-05 5.01135e-05 -7.2902e-21
3.21283e-05 -1.40215e-05 -1.47505e-20
3.36389e-05 -4.23421e-05 -5.00728e-20
-1.98958e-05 -5.03768e-05 -1.82353e-21
-1.58973e-05 6.35654e-06 -1.78381e-21
3.05244e-05 -2.93134e-05 1.95844e-21
-3.03315e-05 1.09899e-05 -2.89066e-21
-4.05008e-06 -2.037e-05 -1.50106e-20
7.88587e-06 2.02112e-05 -4.85246e-21
-1.6342e-05 5.92767e-06 -1.66571e-20
-1.78194e-05 2.8725e-05 1.39574e-20
3.24078e-05 1.52905e-05 -1.71903e-20
2.93644e-05 -1.00749e-05 -3.61983e-22
-1.5666e-05 1.57601e-05 -1.50027e-20
-2.35407e-05 -2.06898e-05 -6.11695e-21
-2.11395e-05 -5.13234e-06 9.90134e-21
-4.47907e-05 2.70756e-05 7.76101e-21
-2.93714e-05 -3.80225e-05 -1.4246e-23
6.36334e-06 -3.06274e-05 -1.8972e-20
-4.77071e-05 6.48279e-06 -2.00768e-20
6.07403e-06 1.36969e-05 -5.88716e-21
-5.57677e-06 -8.17339e-06 1.24731e-20
-6.58351e-06 -1.79435e-05 -1.15936e-20
5.71438e-05 2.48596e-05 -1.71731e-20
9.24283e-06 1.81442e-05 1.36269e-20
1.22965e-05 -1.4445e-05 -2.88683e-20
-1.64059e-06 -2.07526e-05 -1.20984e-20
4.6211e-06 -8.80556e-06 -2.54516e-20
-1.00905e-05 -5.56491e-06 2.82853e-20
-1.06027e-05 1.19293e-05 -6.96279e-21
2.55821e-06 -4.09262e-06 3.88961e-21
-1.50435e-05 -1.58433e-05 -2.20464e-20
-2.1365e-05 5.16595e-06 -5.69374e-21
-3.55683e-06 3.44816e-05 5.6725e-21
-1.7872e-05 1.07109e-05 -1.29939e-20
-9.07087e-06 1.46148e-05 -6.16395e-21
-6.03554e-05 7.6922e-06 2.19977e-21
7.81812e-06 -2.16817e-05 -2.94879e-20
-1.88803e-05 -8.90015e-06 -5.68707e-21
1.93374e-06 1.16241e-05 8.70979e-22
2.63012e-05 5.08969e-06 4.86275e-21
3.41694e-05 -2.89754e-05 -2.26646e-21
2.21466e-05 2.05564e-05 -2.30863e-20
1.19086e-05 -2.82236e-06 2.13288e-20
-3.21541e-05 2.40674e-05 -2.9983e-21
3.79048e-05 4.84591e-06 1.16627e-21
-4.98087e-06 4.94152e-05 -4.23793e-21
-1.74113e-06 -1.68573e-05 -2.61252e-20
1.81241e-05 9.95478e-06 1.07905e-20
2.93178e-05 3.02861e-05 3.78167e-21
5.50254e-05 3.80139e-05 -1.57512e-20
-5.3314e-06 3.07732e-05 -9.57182e-21
5.91805e-05 -3.55129e-05 -2.09032e-20
-2.71252e-05 5.34125e-06 2.47552e-20
1.78395e-05 1.1002e-05 -8.09964e-21
-2.96415e-05 9.90346e-06 -4.55535e-21
1.66532e-05 2.85216e-05 -1.99665e-21
1.0169e-05 -4.43873e-05 -1.19759e-20
1.9155e-06 1.1621e-05 4.67767e-22
-1.48009e-05 -1.76204e-05 -1.84039e-20
3.06994e-06 1.74749e-05 1.41759e-21
2.64072e-05 5.25755e-06 5.84531e-21
-1.54435e-05 3.32117e-05 4.91368e-21
4.05528e-05 -1.33333e-05 1.96748e-22
-3.77312e-06 7.45515e-06 -2.02296e-20
9.95299e-06 5.8994e-06 3.50094e-21
-2.28061e-06 -1.13247e-05 -2.97608e-20
3.22071e-06 -1.92522e-05 -8.96429e-21
1.74696e-05 3.89214e-06 2.34194e-21
-7.93729e-06 4.09732e-05 -2.51899e-21
-9.80575e-06 2.47931e-07 -3.15352e-21
9.31865e-06 1.18859e-05 6.65439e-22
-2.17733e-06 -4.17145e-05 -2.18942e-20
4.20236e-05 1.28652e-05 -1.50973e-20
4.42262e-06 -7.4533e-06 -1.66968e-20
-1.11453e-05 -3.55369e-06 2.2315e-20
-2.9326e-05 -1.24862e-05 -3.3242e-21
1.5804e-05 4.11478e-05 -1.36484e-21
-4.34856e-05 -1.5574e-05 2.76486e-21
1.60188e-05 -4.11244e-05 -1.52637e-20
-3.69985e-06 -3.19206e-05 -6.82092e-21
2.18392e-05 6.52175e-07 -1.43254e-20
-7.17159e-06 1.83969e-05 -6.19973e-21
-1.61121e-06 3.96962e-06 -1.2662e-20
-3.68602e-06 -1.6539e-05 -8.86484e-21
5.23006e-06 -8.30222e-06 2.59945e-20
9.35962e-06 1.58638e-05 -2.15153e-20
3.31016e-05 1.06525e-05 -1.70501e-21
8.61559e-06 -7.45814e-06 -1.76469e-20
-8.27102e-06 -4.51606e-05 3.35814e-21
2.55524e-05 -1.88201e-05 4.18033e-21
4.97799e-06 2.77716e-05 2.35678e-21
-2.81637e-06 -2.84165e-06 1.45037e-20
-8.62637e-06 -8.32595e-06 1.11654e-21
-4.77673e-06 4.4124e-08 -2.01796e-20
-2.28729e-05 2.85945e-05 2.96616e-21
1.87633e-05 -3.73755e-05 -2.38924e-20
-2.65803e-05 4.2715e-05 -3.10016e-21
-1.6372e-05 9.53537e-06 -6.54017e-21
2.52799e-06 1.2199e-05 6.34222e-21
-2.2987e-05 -3.49898e-05 3.52853e-21
1.39363e-05 3.34664e-05 -3.32694e-21
1.75079e-05 9.36931e-06 5.26324e-21
2.28117e-05 -8.52274e-06 -1.91176e-21
-1.2532e-06 -1.12655e-05 -1.03422e-20
-3.3912e-05 -3.15583e-05 -2.03972e-20
-2.75151e-06 1.13034e-05 -8.41829e-21
1.72469e-05 1.01718e-05 -1.38546e-21
1.88876e-05 -8.82092e-06 9.06758e-22
8.24325e-06 -1.4345e-05 -6.02177e-21
2.43571e-05 -1.07954e-05 -2.03714e-20
1.90097e-05 -8.99794e-06 1.32431e-20
4.64067e-06 2.05804e-07 -1.83154e-20
2.57408e-05 2.02213e-05 -1.08487e-20
-2.74164e-06 -1.703e-05 -2.19888e-20
-1.04799e-05 -4.45703e-06 -1.9163e-20
1.12586e-06 -3.8901e-06 -2.21523e-20
-3.15508e-06 1.58471e-05 7.42357e-21
-3.48836e-05 2.76813e-06 3.07319e-21
-1.21216e-05 -3.32585e-05 -2.04724e-20
-7.87912e-06 9.77908e-06 -7.34508e-21
1.35653e-05 1.66404e-05 3.50579e-21
2.65687e-05 -1.87448e-05 -7.03554e-21
-3.67925e-05 -2.03508e-05 -1.21475e-20
1.74031e-05 -2.75077e-05 6.57857e-22
2.28041e-05 -2.72167e-05 -3.57614e-21
-1.09444e-05 3.78495e-06 -6.09299e-21
-1.98291e-05 -2.88404e-05 -6.16608e-21
-3.488e-05 -5.79144e-06 -5.67887e-21
-3.85245e-06 -3.17428e-05 5.12934e-22
1.54477e-05 -3.16993e-05 2.72543e-21
-9.1062e-06 -2.61996e-05 -3.24507e-21
4.58124e-06 3.14056e-05 -8.4978e-22
-1.57525e-05 -2.85222e-05 -2.77245e-21
2.93883e-06 -1.62923e-05 -1.52434e-20
-2.47395e-05 1.826e-05 1.11707e-20
-1.50309e-05 -1.21112e-05 9.27047e-21
-2.7353e-05 -5.17247e-06 -1.4199e-20
1.56682e-05 -9.18164e-06 1.25922e-20
-4.30695e-06 2.39527e-05 -1.58134e-20
1.22327e-05 -9.32455e-06 -3.24963e-21
-2.95861e-05 -1.31643e-05 -1.13638e-20
-8.83172e-06 -7.45814e-06 -1.57109e-20
9.08216e-06 7.5409e-06 -1.60253e-20
2.1427e-05 2.87009e-05 2.78296e-22
-1.7509e-05 -1.08094e-05 1.35384e-20
-3.25064e-05 -7.51076e-07 9.88256e-21
-1.63368e-05 -5.0162e-06 -5.83077e-21
-4.57816e-06 -1.65834e-05 7.38174e-21
1.76848e-05 2.12394e-05 1.52874e-20
-1.09574e-05 5.87481e-06 -1.1057e-20
6.36052e-07 -2.05555e-05 6.60836e-21
-4.19401e-05 1.0851e-05 1.98321e-20
2.48607e-05 2.02465e-05 -3.45001e-21
3.79453e-06 3.27857e-05 2.01086e-20
-2.43199e-06 3.79724e-06 1.66938e-20
-9.05099e-06 2.51205e-07 -1.99359e-21
4.35513e-06 7.76016e-06 -2.68182e-20
-1.16941e-05 3.40149e-06 -3.95631e-21
-2.0734e-06 -3.78496e-06 -9.68278e-21
1.6598e-06 2.07601e-05 -1.2243e-20
4.47245e-06 4.49702e-07 -4.26825e-21
-1.95383e-05 4.75669e-06 6.23185e-21
-1.72986e-05 1.93582e-05 -8.17423e-21
-3.10747e-06 1.15783e-05 -1.34802e-20
-2.92173e-05 1.83945e-05 -4.98887e-21
-9.34348e-06 8.97943e-06 1.11958e-20
1.73114e-05 -1.16139e-05 -1.24673e-20
3.66046e-05 -3.56473e-06 -7.40511e-21
-2.11409e-05 1.12975e-05 -6.90397e-21
2.23303e-06 4.4983e-06 -8.97881e-21
2.17756e-05 -4.34495e-06 6.63868e-21
-1.72791e-05 1.0353e-05 -2.01059e-21
-9.8719e-06 5.5391e-06 -3.48973e-21
1.18316e-05 3.74274e-06 -3.07894e-21
2.18801e-05 -1.34713e-05 -8.01567e-21
-1.73802e-05 9.95624e-06 9.84345e-21
-2.50372e-05 -5.30311e-06 -6.67568e-22
-1.67619e-05 -4.36253e-06 -1.60011e-21
9.87634e-06 6.24048e-09 -1.6239e-20
1.0174e-05 1.95361e-07 1.2454e-20
4.39083e-06 8.31728e-06 5.78809e-23
4.82962e-06 -8.79788e-06 -4.24564e-20
-5.01042e-06 8.41994e-06 -2.73788e-21
-5.26674e-06 -8.65771e-06 2.58418e-20
9.91113e-06 -7.4081e-06 9.40993e-21
-2.03277e-05 3.23495e-06 1.43366e-20
-2.00601e-05 -3.28377e-06 -1.7797e-20
-1.28349e-05 1.58767e-05 -2.50763e-20
-1.29147e-05 -1.5931e-05 -4.65115e-21
7.48636e-06 -1.9844e-05 1.1278e-20
7.2061e-06 1.97641e-05 3.16201e-21
1.55782e-06 2.58853e-05 1.8644e-22
1.12406e-05 -3.13687e-06 -6.24065e-21
2.35993e-06 -3.86657e-06 -1.27811e-20
-2.14116e-05 1.4217e-06 5.9678e-21
7.67727e-06 -1.95133e-05 4.75272e-21
7.27351e-06 1.96618e-05 -3.58624e-22
4.76885e-06 -5.27145e-08 6.72056e-21
8.96828e-06 2.44034e-05 -1.74897e-21
-2.24231e-06 -4.01637e-06 -2.16141e-20
2.31777e-06 -1.13171e-05 -2.52184e-20
-2.24306e-05 -1.21516e-05 1.00117e-20
-2.13582e-05 -1.14947e-05 6.05479e-21
-2.18927e-05 1.36286e-05 6.26247e-21
3.25126e-06 -1.22876e-05 3.44729e-21
-1.56533e-06 3.38197e-06 -6.13272e-21
-5.87346e-07 -2.55689e-05 -1.79907e-20
-7.7202e-06 -2.44227e-05 -1.3147e-20
3.27037e-05 3.03623e-05 -4.31919e-21
3.54529e-05 -1.81518e-06 -2.59806e-20
-1.2711e-05 -3.63215e-06 -2.01607e-20
-2.28923e-05 -4.13855e-05 4.95006e-21
8.30415e-06 1.37478e-05 -5.46394e-21
-2.52354e-05 3.03326e-06 6.04298e-21
2.00649e-05 5.78633e-06 6.0933e-21
-4.53307e-06 -3.27415e-08 1.37076e-20
-4.66513e-06 -8.41263e-06 1.96086e-21
-7.0728e-06 -3.93322e-05 -9.9353e-21
-9.70821e-06 -8.39158e-08 -4.13639e-21
-4.86734e-05 -1.81569e-06 9.74985e-22
1.73085e-05 -1.9105e-05 -4.59901e-21
2.42932e-06 3.99902e-06 -2.39683e-21
-1.20633e-07 -1.75134e-05 -8.58685e-21
-9.81826e-06 2.40834e-05 9.42264e-21
-4.37197e-06 8.62726e-06 -1.06018e-21
2.05558e-05 -1.36058e-05 -1.15894e-20
-3.76581e-05 -1.35511e-05 -1.87735e-20
-1.52654e-05 -2.03653e-05 4.51622e-21
4.97696e-06 8.38887e-06 2.62664e-21
1.66307e-05 5.16045e-06 -5.90988e-21
-4.76375e-06 -7.33809e-06 -1.98688e-20
1.97959e-05 3.54708e-06 2.75334e-21
1.81879e-05 -9.82545e-06 -3.1132e-21
-3.48807e-07 2.71717e-05 2.10092e-21
8.32004e-06 -1.36662e-05 7.83405e-21
4.88017e-05 2.20049e-06 -2.02644e-20
-4.23548e-05 1.14528e-05 8.5929e-21
2.28587e-05 1.15555e-05 4.65055e-21
-6.45256e-06 -1.71782e-05 -2.28595e-20
-1.53489e-05 -8.6176e-06 -1.58895e-20
2.87855e-05 -2.10531e-07 5.4039e-21
-6.91931e-07 -2.42533e-05 -1.59134e-20
-1.26165e-05 -1.08733e-05 2.75771e-20
1.02232e-05 -2.3498e-05 -1.99282e-20
-4.96567e-07 2.05539e-05 5.22017e-21
7.91713e-06 2.60658e-05 3.04528e-21
1.72666e-05 -9.88354e-06 -3.14109e-21
-1.89465e-05 1.92971e-05 -8.02598e-21
1.65265e-05 2.00279e-05 4.25946e-21
-6.22258e-05 1.60207e-05 -1.95711e-20
-1.01084e-05 2.60142e-05 7.87893e-21
1.25181e-05 -1.52471e-05 -4.30724e-20
-7.02854e-06 -1.83964e-05 -1.55643e-21
-1.18526e-05 4.50532e-06 -2.96374e-21
-2.58913e-05 -7.04524e-06 1.76259e-21
-6.38561e-06 3.88548e-05 -6.37768e-21
-1.26049e-05 1.19015e-05 -2.72515e-20
2.0775e-05 -4.47525e-06 -1.74533e-21
-6.87191e-06 -2.57921e-05 3.81318e-21
-1.48676e-05 2.3889e-05 6.06904e-21
-2.17872e-05 1.25638e-05 -9.76311e-21
-2.05678e-05 -1.50542e-05 -1.00187e-20
1.80272e-05 -2.06534e-05 5.01828e-21
-2.75284e-05 -1.45613e-06 8.42342e-21
1.23662e-05 -4.0807e-05 8.019e-21
1.93847e-05 -1.89116e-05 -1.80626e-21
2.47306e-05 4.30784e-05 3.40059e-21
1.97097e-06 1.98649e-05 1.2286e-20
2.96087e-06 -2.54192e-05 -8.1791e-21
-4.1633e-05 4.69581e-05 -6.32523e-21
-1.27011e-05 -2.44096e-05 -1.51391e-20
1.63655e-05 -6.42002e-06 -2.16587e-20
-2.4107e-06 2.57702e-05 -1.49818e-20
1.28819e-05 -1.18255e-05 -6.67562e-22
1.38795e-05 2.4311e-05 2.56962e-21
1.72285e-05 -1.40038e-06 -1.6665e-21
2.21183e-05 -6.32115e-05 7.17281e-22
-5.87564e-06 -1.28582e-05 -2.01071e-20
-2.31825e-05 1.00863e-05 -1.90199e-20
-2.00183e-05 1.87175e-05 6.36936e-22
2.16106e-05 1.45665e-05 1.15924e-20
1.86711e-05 -1.07558e-05 -2.09432e-20
1.49508e-05 1.25924e-05 -1.1472e-20
-5.42769e-06 4.55122e-08 -3.11835e-21
1.54024e-05 -2.30854e-05 -1.38771e-20
-1.69889e-05 -2.04075e-05 -4.97343e-21
2.256e-05 9.77293e-06 1.035e-20
1.28056e-05 -1.19888e-05 -7.23442e-21
9.55317e-06 -2.48498e-05 -1.69657e-20
1.66579e-05 -6.93233e-06 -1.74624e-21
-1.58042e-05 -7.54402e-06 2.05685e-20
1.29675e-06 -2.63009e-05 -3.09591e-21
-2.61047e-05 4.47272e-06 -3.04862e-21
2.39022e-06 2.45408e-05 -5.19503e-21
2.05833e-05 6.62693e-06 -1.30572e-21
-2.17187e-05 -1.0701e-05 3.37057e-21
-8.97649e-06 2.5608e-05 -1.91103e-20
-1.49526e-06 -2.41861e-05 7.06645e-22
1.94649e-05 1.18365e-05 8.32217e-21
-1.76882e-06 1.80834e-05 3.57368e-21
-2.01372e-05 1.37015e-05 -1.2223e-20
2.35091e-05 1.14143e-05 1.3925e-20
-1.71139e-05 -9.98486e-06 2.19797e-20
9.51006e-08 -1.98333e-05 -1.00536e-20
1.8381e-05 1.99828e-05 -7.88106e-21
-2.21522e-05 -1.43026e-05 -7.42906e-21
4.83476e-05 -3.39798e-05 -3.99025e-21
1.78958e-05 -1.08217e-05 -1.05841e-20
9.00128e-06 4.30843e-05 -8.97069e-22
1.7033e-05 -1.36777e-05 -1.8045e-20
-1.98735e-05 8.70301e-05 3.04984e-21
-1.97637e-05 -8.65444e-05 -4.56353e-21
5.7181e-05 7.17132e-05 -7.65096e-21
5.69185e-05 -7.13869e-05 9.46479e-22
9.06417e-05 -1.57818e-10 -1.27068e-20
-7.81965e-05 3.76363e-05 -1.16427e-20
-7.74509e-05 -3.72805e-05 -7.48149e-21
1.22332e-05 1.1818e-05 1.16048e-20
2.93664e-05 2.18912e-05 8.50772e-21
1.14475e-05 3.33264e-06 -5.01131e-21
1.88547e-05 9.751e-06 9.08251e-21
4.98898e-06 2.01691e-05 6.21487e-21
-1.88309e-05 -1.49796e-05 -4.67087e-21
1.70371e-05 -1.02137e-05 -6.70601e-21
1.98516e-05 1.45486e-05 1.2357e-20
-3.16678e-06 2.43628e-05 -2.19233e-20
2.94392e-05 -1.99918e-05 9.14676e-21
3.79372e-06 -2.37387e-05 -2.04269e-20
2.19598e-05 5.2268e-06 5.02556e-21
2.98944e-05 1.10254e-05 2.38863e-21
1.4208e-05 1.41431e-05 -9.68582e-21
1.58824e-05 6.59339e-06 -1.03706e-20
-1.84979e-05 1.09361e-05 -1.6698e-20
-2.25621e-05 9.03623e-06 -1.62366e-20
2.29284e-05 -1.1263e-05 -1.60638e-20
-1.82671e-05 -9.99756e-06 5.51334e-21
-1.85536e-05 -1.0582e-05 9.03065e-21
-3.43834e-07 -2.07668e-05 -8.45558e-21
-8.61382e-08 -2.11598e-05 -7.3363e-21
-2.01262e-05 -1.00543e-06 -5.39512e-21
2.66979e-05 -4.01899e-06 -4.16488e-21
1.81113e-05 1.13417e-05 2.23244e-20
-1.78635e-05 1.09446e-05 -9.75553e-21
-1.53608e-05 1.6623e-05 -1.97224e-20
1.60214e-05 -1.37527e-05 -1.79019e-20
-1.1023e-05 1.74627e-05 -1.28111e-20
-1.42243e-05 -1.4889e-05 -8.57867e-21
-1.15519e-06 2.12098e-05 -1.10992e-20
-1.28762e-06 2.09674e-05 -2.80376e-20
8.97241e-08 -1.98332e-05 -1.05629e-20
6.1106e-06 -1.97366e-05 -2.03257e-20
-1.71403e-05 -9.93511e-06 1.01948e-20
1.55862e-05 -5.49008e-06 -5.51397e-21
6.63145e-07 2.1477e-05 6.52318e-21
3.00836e-07 1.85068e-05 1.23083e-21
-2.34566e-06 1.68567e-05 1.54514e-20
2.1908e-05 -5.52722e-06 -5.57278e-21
-1.65407e-05 5.37789e-06 1.05962e-20
4.15732e-06 2.15167e-05 -3.10142e-22
-3.25573e-05 1.29188e-05 6.80298e-22
9.76304e-06 4.17301e-05 9.40355e-21
-1.70529e-05 4.56799e-06 -1.59768e-20
1.96838e-05 -1.16297e-05 3.17473e-21
9.45747e-07 2.10188e-05 -2.14913e-20
-2.04806e-05 6.69922e-06 -4.24036e-21
2.44403e-06 -1.6262e-05 -1.04862e-20
1.81915e-06 -5.80109e-05 -1.26135e-20
2.00641e-06 1.74858e-05 -1.57736e-20
-1.69616e-05 1.40222e-05 -2.4121e-20
1.78536e-05 6.397e-05 -9.10281e-21
4.5768e-05 3.77058e-05 5.2761e-23
5.20635e-05 -3.52547e-05 -6.8091e-21
1.48151e-05 -1.01669e-05 -1.32113e-20
-1.57851e-05 1.40373e-05 4.65043e-22
-2.02164e-05 -7.92051e-06 1.32374e-20
-1.96452e-05 -6.82225e-06 2.15228e-20
5.92656e-05 -2.46114e-05 -2.77659e-20
5.74323e-05 2.38703e-05 -3.20011e-20
1.08943e-05 3.81739e-06 -1.49384e-20
7.66621e-07 1.95789e-05 1.55583e-21
7.83613e-08 1.95602e-05 -9.47663e-21
-4.83818e-05 -3.6918e-05 6.36342e-21
1.14249e-05 -1.71716e-05 -1.01221e-20
1.1733e-05 1.24644e-05 1.28755e-21
-2.14177e-05 -3.39568e-06 7.7246e-22
-1.40447e-05 1.72018e-05 -5.97993e-21
-1.88882e-05 9.16758e-06 -2.31563e-20
4.76424e-05 3.36937e-05 -6.74541e-21
1.58062e-05 7.06153e-06 2.2419e-21
-5.56665e-06 2.003e-05 -6.51259e-21
-1.69778e-05 -1.1749e-05 -5.19352e-21
1.85622e-06 -2.05425e-05 -6.25036e-21
-8.94958e-06 -1.9267e-05 -2.32882e-20
-1.72489e-05 -1.17733e-05 -1.42533e-20
1.05794e-05 -1.89355e-05 -2.01835e-20
1.41222e-05 -1.69891e-05 -2.39512e-20
-2.44031e-06 -6.14365e-05 1.1793e-21
2.61798e-05 -4.11251e-05 2.80608e-21
1.74747e-06 -2.07853e-05 -1.01815e-20
1.79584e-05 1.13553e-05 -7.69123e-22
-1.44762e-05 -1.49051e-05 -7.24201e-21
-9.84094e-06 1.97099e-05 -1.23588e-20
-5.03935e-06 2.10065e-05 -8.35553e-21
1.6627e-05 1.42436e-05 1.04276e-20
6.05893e-06 -1.98612e-05 -2.13734e-20
-1.34063e-05 -4.03575e-05 4.29038e-21
-1.98836e-06 2.50402e-05 4.99493e-21
1.47917e-05 1.4455e-05 4.53201e-21
-1.29582e-05 -1.02166e-05 2.01392e-20
-1.35149e-05 1.06081e-05 -9.7616e-21
4.43424e-05 -1.8913e-05 -1.311e-20
7.56297e-06 -1.34e-05 -1.21921e-20
-8.31708e-06 -1.26269e-05 -1.55893e-20
2.13303e-05 6.36341e-06 -5.89503e-21
1.09942e-05 -5.06615e-05 -1.34275e-20
-3.84511e-05 -3.49026e-05 -5.32114e-21
2.33065e-05 6.20734e-06 2.09844e-20
-9.32816e-06 -1.8281e-05 -2.60528e-20
1.87055e-05 9.48271e-06 1.10125e-20
-2.85642e-05 -3.2551e-05 5.15349e-21
9.6881e-06 5.00464e-05 -4.90219e-21
3.43339e-05 -5.98592e-05 -2.32758e-20
-3.47369e-05 -5.97761e-05 -3.86958e-21
2.78082e-05 -5.20218e-05 8.0378e-21
-1.2698e-05 4.36328e-05 -1.88408e-20
-6.27602e-06 3.89771e-05 -1.44561e-20
-1.87306e-05 8.94582e-06 -1.11901e-20
5.97716e-06 2.4242e-05 3.51305e-21
-2.39155e-06 1.26539e-05 -5.04164e-21
1.01201e-05 3.23311e-06 -6.88576e-21
-3.18845e-06 1.62054e-05 1.50914e-21
-2.47449e-07 2.09916e-05 -4.03452e-21
1.66605e-05 9.7505e-06 4.25492e-21
1.71026e-06 5.77237e-05 -2.43622e-21
-1.47171e-05 1.07326e-05 -2.3183e-21
1.59493e-05 -6.24656e-06 2.34133e-21
1.68717e-05 -4.50893e-06 -9.43237e-21
-6.06621e-05 -8.76879e-06 -2.56386e-21
-3.46054e-05 1.67413e-05 -1.0049e-20
-4.35142e-05 -5.25458e-05 1.86079e-20
8.65645e-06 8.34561e-06 2.72937e-21
1.42098e-05 7.29248e-06 3.57794e-23
2.68045e-05 -4.19582e-06 -2.69934e-23
-8.10431e-06 -1.32427e-05 -2.52348e-20
1.72164e-05 8.42853e-06 -6.75601e-21
7.33526e-06 -3.00343e-05 -9.30656e-21
-1.37136e-05 1.02049e-05 -9.7498e-22
-2.23741e-05 -2.14221e-05 -2.74522e-20
-5.83592e-06 1.62976e-05 4.4089e-21
-3.27096e-06 2.06783e-05 -9.64034e-21
3.38494e-05 2.12962e-05 -1.20749e-21
3.61129e-05 -1.92827e-05 5.28838e-21
-4.207e-05 -1.16229e-05 9.19498e-21
7.6341e-06 7.68566e-06 8.10814e-21
-4.05846e-06 0.00010136 6.33315e-22
8.61791e-07 -0.000104467 -4.14486e-21
5.24537e-05 8.76439e-05 5.99051e-22
-1.91027e-05 8.45781e-06 -2.82732e-21
-2.63762e-05 5.65489e-05 1.9736e-21
5.3032e-05 -8.46386e-05 -3.84414e-22
-1.17204e-05 -1.82821e-05 -1.92936e-21
7.7999e-05 6.74968e-05 -1.28054e-20
2.39933e-05 -1.79766e-05 -3.84571e-20
-3.60739e-06 -2.98218e-05 1.66864e-23
8.17777e-05 -6.58494e-05 -3.29146e-21
-6.74454e-06 1.45181e-05 -8.60897e-21
-5.38314e-05 -3.48234e-05 1.03834e-21
-4.30127e-05 -9.31286e-05 -1.16797e-20
-2.41122e-05 -5.78035e-05 1.00514e-20
-4.39743e-05 9.41356e-05 1.28963e-20
-1.00931e-05 6.4083e-05 -2.33588e-21
1.56325e-05 3.71077e-05 -1.75062e-20
-2.79549e-05 3.724e-05 -4.44682e-21
-2.52726e-05 -5.51826e-05 2.77165e-20
0.000100364 1.73167e-05 -1.16151e-20
-1.69272e-05 1.07669e-05 -1.06832e-20
-5.91226e-06 1.63328e-05 -8.35674e-21
-5.07573e-05 3.76392e-05 -4.2158e-21
-1.7276e-05 9.94398e-06 4.11515e-21
9.92012e-05 -1.52631e-05 2.05757e-21
-1.536e-05 7.79859e-06 6.0572e-22
7.19251e-06 -1.44947e-05 -3.06351e-20
-7.79682e-05 -6.09473e-05 7.45602e-21
-2.58785e-05 5.77164e-05 -6.92912e-21
-7.91212e-05 6.03746e-05 8.06691e-21
2.45399e-05 5.19495e-05 1.65607e-20
-1.47673e-05 1.05823e-05 5.85401e-22
-2.05296e-05 2.44762e-05 -1.57931e-20
-2.85323e-05 4.98171e-05 2.0215e-21
-5.67752e-05 2.07989e-07 -1.14599e-20
-9.4409e-07 1.62958e-05 -2.79064e-21
-2.88492e-05 -5.04057e-05 -1.45804e-20
-5.81975e-05 -2.19806e-07 -1.37191e-20
-2.83491e-05 4.86955e-05 -1.224e-20
-1.51901e-05 6.62651e-05 -1.93343e-20
-1.78645e-05 4.12599e-05 -6.79937e-21
-3.38997e-05 2.7137e-05 -1.91533e-20
2.43825e-05 -6.05685e-06 1.01044e-21
3.80021e-05 -2.19527e-06 -3.9175e-21
1.34821e-05 8.20018e-06 -8.77051e-22
-1.0469e-05 -7.39865e-05 -1.14996e-20
-6.94479e-05 -2.79738e-05 1.88991e-21
3.71317e-05 7.32722e-07 2.62207e-21
5.83652e-05 -1.0892e-05 -2.81109e-20
-1.05835e-05 -1.34969e-05 -1.36018e-20
-5.0828e-05 3.76249e-05 -4.09029e-21
-4.61329e-05 5.39992e-05 1.07948e-20
6.23617e-05 -2.22321e-05 -1.48354e-20
-2.8177e-05 -5.04963e-05 -6.26731e-21
-2.87766e-05 4.97788e-05 -1.7405e-20
-5.72536e-05 -1.17114e-06 -5.6707e-21
-2.65729e-05 5.0597e-05 -1.45204e-20
-5.79523e-05 -8.16999e-07 -1.00096e-20
6.60751e-05 1.73922e-05 -8.32338e-21
5.63794e-05 1.29249e-06 1.60028e-20
5.08994e-05 -2.92734e-05 -2.08602e-20
2.49098e-05 -5.94262e-05 4.14001e-21
2.99181e-05 -4.8856e-05 4.68844e-21
2.9167e-05 4.868e-05 -2.32797e-20
2.43447e-05 5.80885e-05 -4.9363e-20
7.58012e-05 -2.00373e-05 1.11604e-20
4.62656e-05 2.90628e-05 4.70482e-21
4.66236e-05 1.37453e-05 3.28539e-20
TENSORS solid_stress_TPM float
375.033 -24.9205 3.64745e-13
-24.9205 238.571 3.57521e-12
3.64745e-13 3.57521e-12 197.818

457.006 -21.3203 -1.97272e-12
-21.3203 489.99 3.29899e-12
-1.97272e-12 3.29899e-12 487.113

454.881 28.0434 -3.56989e-12
28.0434 463.711 1.68754e-13
-3.56989e-12 1.68754e-13 458.461

455.031 -29.8427 3.38929e-12
-29.8427 482.612 3.4525e-12
3.38929e-12 3.4525e-12 484.859

527.688 19.9309 1.15019e-12
19.9309 548.458 -5.07594e-13
1.15019e-12 -5.07594e-13 527.359

437.313 -18.0745 4.32247e-13
-18.0745 480.341 5.91408e-12
4.32247e-13 5.91408e-12 458.042

372.328 26.4846 2.86586e-12
26.4846 239.091 -2.65625e-12
2.86586e-12 -2.65625e-12 197.803

473.654 29.958 1.0522e-12
29.958 469.503 1.13953e-12
1.0522e-12 1.13953e-12 472.339

471.55 5.48317 -3.54087e-13
5.48317 417.824 1.11181e-12
-3.54087e-13 1.11181e-12 432.797

504.261 -7.47757 1.86873e-12
-7.47757 444.114 1.10149e-12
1.86873e-12 1.10149e-12 483.454

360.294 16.3086 2.60532e-14
16.3086 247.656 5.00992e-12
2.60532e-14 5.00992e-12 233.646

444.784 -13.4532 1.2587e-12
-13.4532 498.387 -3.92752e-12
1.2587e-12 -3.92752e-12 472.241

466.869 27.8333 -3.78956e-14
27.8333 468.304 4.79616e-13
-3.78956e-14 4.79616e-13 466.736

457.039 -14.3401 2.35145e-13
-14.3401 500.436 4.00865e-12
2.35145e-13 4.00865e-12 483.459

512.939 33.3111 -1.52767e-13
33.3111 511.599 1.30707e-12
-1.52767e-13 1.30707e-12 515.227

489.174 0.560982 -3.22113e-13
0.560982 435.525 -1.35568e-12
-3.22113e-13 -1.35568e-12 462.273

457.585 -17.9691 -5.35368e-13
-17.9691 512.888 -2.21512e-12
-5.35368e-13 -2.21512e-12 493.599

493.959 -2.6652 3.32208e-12
-2.6652 439.05 -1.69931e-12
3.32208e-12 -1.69931e-12 474.266

418.794 26.6739 -1.03739e-12
26.6739 449.661 1.78938e-12
-1.03739e-12 1.78938e-12 424.054

481.983 -4.19561 -2.30986e-12
-4.19561 424.923 -3.53325e-12
-2.30986e-12 -3.53325e-12 453.476

425.297 8.66867 2.52524e-12
8.66867 481.904 -9.30219e-13
2.52524e-12 -9.30219e-13 444.842

634.129 6.2875 -8.18505e-12
6.2875 633.964 -6.68206e-13
-8.18505e-12 -6.68206e-13 570.318

479.154 1.87599 -6.22672e-12
1.87599 422.941 -1.24937e-13
-6.22672e-12 -1.24937e-13 449.733

447.164 -27.7153 2.10913e-12
-27.7153 461.151 8.42585e-13
2.10913e-12 8.42585e-13 452.949

481.05 6.84942 -2.03215e-12
6.84942 425.442 2.17278e-12
-2.03215e-12 2.17278e-12 452.939

449.76 19.1129 -1.33575e-12
19.1129 490.319 -6.0929e-13
-1.33575e-12 -6.0929e-13 478.207

377.655 4.1814 9.04758e-13
4.1814 291.655 3.18057e-12
9.04758e-13 3.18057e-12 259.003

462.686 30.746 3.32771e-13
30.746 460.716 -2.61065e-12
3.32771e-13 -2.61065e-12 460.546

384.942 37.0747 2.65861e-12
37.0747 383.521 -5.32197e-12
2.65861e-12 -5.32197e-12 348.419

586.943 10.3235 -1.42938e-12
10.3235 563.452 -2.23784e-12
-1.42938e-12 -2.23784e-12 546.874

491.689 14.2169 -4.67656e-12
14.2169 442.499 -6.79456e-14
-4.67656e-12 -6.79456e-14 465.857

352.856 -17.7805 1.36779e-13
-17.7805 416.724 -4.45984e-12
1.36779e-13 -4.45984e-12 348.59

331.018 -42.1019 9.40285e-13
-42.1019 335.873 -8.40809e-13
9.40285e-13 -8.40809e-13 253.483

531.411 5.98662 2.69969e-13
5.98662 586.89 -3.17346e-12
2.69969e-13 -3.17346e-12 538.583

554.024 -4.84047 7.79377e-13
-4.84047 582.072 -1.01548e-12
7.79377e-13 -1.01548e-12 542.513

577.988 21.0278 -8.11203e-13
21.0278 539.948 -5.94902e-12
-8.11203e-13 -5.94902e-12 538.352

556.186 5.06729 -1.3484e-12
5.06729 600.675 -3.06688e-12
-1.3484e-12 -3.06688e-12 547.971

573.775 -9.17005 -1.33878e-12
-9.17005 555.766 -1.0658e-12
-1.33878e-12 -1.0658e-12 540.639

467.129 -27.9982 -4.1401e-12
-27.9982 466.493 3.54383e-12
-4.1401e-12 3.54383e-12 465.109

330.403 41.5212 -2.69296e-12
41.5212 337.972 -6.04435e-12
-2.69296e-12 -6.04435e-12 253.842

414.526 -17.9492 4.59366e-12
-17.9492 354.488 -3.2531e-12
4.59366e-12 -3.2531e-12 346.321

559.307 -3.70587 -1.23131e-12
-3.70587 599.924 -5.96856e-13
-1.23131e-12 -5.96856e-13 548.385

586.413 19.5552 -6.3094e-12
19.5552 572.456 -1.95814e-12
-6.3094e-12 -1.95814e-12 548.174

490.894 -12.2733 -1.37372e-13
-12.2733 442.853 4.27895e-12
-1.37372e-13 4.27895e-12 466.529

341.708 -43.2992 3.63324e-12
-43.2992 345.336 -1.71122e-12
3.63324e-12 -1.71122e-12 288.976

417.552 -18.0635 1.09068e-12
-18.0635 357.105 6.63173e-14
1.09068e-12 6.63173e-14 351.494

413.006 17.0858 2.3402e-12
17.0858 464.775 9.31995e-13
2.3402e-12 9.31995e-13 428.72

429.622 19.3391 -2.2462e-12
19.3391 466.505 -8.30743e-13
-2.2462e-12 -8.30743e-13 437.073

486.773 -16.3011 -2.69829e-12
-16.3011 432.868 -1.47438e-13
-2.69829e-12 -1.47438e-13 458.67

355.574 -34.1855 2.13222e-12
-34.1855 389.394 5.00577e-12
2.13222e-12 5.00577e-12 332.561

410.244 19.1819 -1.81307e-12
19.1819 350.694 -7.96992e-13
-1.81307e-12 -7.96992e-13 339.47

425.193 -25.2885 -1.73609e-12
-25.2885 383.813 3.63295e-12
-1.73609e-12 3.63295e-12 373.069

519.915 19.4855 3.20514e-12
19.4855 547.525 -1.80774e-12
3.20514e-12 -1.80774e-12 525.726

416.405 29.6494 -2.98191e-12
29.6494 393.878 -3.32179e-12
-2.98191e-12 -3.32179e-12 373.933

522.17 -21.8128 -1.27868e-12
-21.8128 541.391 1.6431e-12
-1.27868e-12 1.6431e-12 524.372

364.064 -42.7113 -1.73846e-12
-42.7113 343.276 3.43429e-14
-1.73846e-12 3.43429e-14 289.694

553.446 5.45947 5.10555e-13
5.45947 583.865 1.12207e-13
5.10555e-13 1.12207e-13 542.888

373.709 -5.32981 1.92291e-12
-5.32981 436.655 -9.39101e-13
1.92291e-12 -9.39101e-13 373.818

580.813 10.3843 5.15143e-13
10.3843 556.166 1.97913e-12
5.15143e-13 1.97913e-12 542.644

435.05 21.4131 2.10143e-12
21.4131 473.755 3.61785e-12
2.10143e-12 3.61785e-12 454.665

513.567 5.75397 2.6182e-12
5.75397 452.801 -3.32046e-12
2.6182e-12 -3.32046e-12 494.86

522.453 11.4589 2.09166e-12
11.4589 487.857 1.47674e-12
2.09166e-12 1.47674e-12 507.074

383.7 31.8199 -4.00509e-12
31.8199 315.189 -2.65506e-12
-4.00509e-12 -2.65506e-12 269.867

482.083 -6.03524 4.25571e-12
-6.03524 528.176 -3.37567e-12
4.25571e-12 -3.37567e-12 504.096

487.092 9.51979 -5.72431e-13
9.51979 523.685 1.2849e-13
-5.72431e-13 1.2849e-13 507.492

456.454 -2.88087 -5.49597e-13
-2.88087 520.153 2.14051e-12
-5.49597e-13 2.14051e-12 487.803

464.45 23.4019 -6.80493e-13
23.4019 503.466 3.67114e-14
-6.80493e-13 3.67114e-14 495.437

496.743 8.46356 1.09453e-12
8.46356 444.394 -1.13539e-13
1.09453e-12 -1.13539e-13 477.694

445.502 -28.2394 9.87358e-13
-28.2394 459.524 -2.57335e-12
9.87358e-13 -2.57335e-12 451.163

501.677 -1.71126 -9.43986e-13
-1.71126 444.912 -3.54013e-13
-9.43986e-13 -3.54013e-13 489.065

519.528 -19.2615 -1.00557e-12
-19.2615 546.819 2.75424e-12
-1.00557e-12 2.75424e-12 525.459

523.299 21.3078 2.45729e-14
21.3078 542.916 8.5916e-13
2.45729e-14 8.5916e-13 525.261

353.406 -16.5835 8.43177e-13
-16.5835 415.732 -7.69755e-14
8.43177e-13 -7.69755e-14 346.109

506.017 -27.9361 3.37685e-12
-27.9361 485.306 -9.76108e-13
3.37685e-12 -9.76108e-13 493.876

449.716 -25.1347 1.0442e-12
-25.1347 471.216 -2.77645e-12
1.0442e-12 -2.77645e-12 458.574

357.867 -31.7106 1.89478e-13
-31.7106 285.674 3.328e-12
1.89478e-13 3.328e-12 249.856

498.496 3.22266 2.88318e-12
3.22266 541.402 1.51642e-12
2.88318e-12 1.51642e-12 513.639

501.723 28.9439 5.3646e-13
28.9439 474.546 1.73994e-12
5.3646e-13 1.73994e-12 487.654

448.441 19.6642 2.37321e-12
19.6642 492.104 -3.8467e-12
2.37321e-12 -3.8467e-12 477.639

440.189 7.99955 7.33043e-13
7.99955 373.034 -5.87678e-13
7.33043e-13 -5.87678e-13 382.931

386.448 -33.9356 3.63087e-12
-33.9356 360.203 -6.35936e-12
3.63087e-12 -6.35936e-12 319.433

537.717 -10.5874 1.91432e-12
-10.5874 556.135 3.51778e-12
1.91432e-12 3.51778e-12 531.246

482.654 23.8995 2.15975e-12
23.8995 504.557 -5.60501e-13
2.15975e-12 -5.60501e-13 502.04

385.369 -32.3838 -6.07159e-12
-32.3838 345.304 -2.62546e-12
-6.07159e-12 -2.62546e-12 317.079

422.195 10.7911 2.52361e-12
10.7911 363.848 1.82269e-12
2.52361e-12 1.82269e-12 350.25

307.649 -21.206 2.59526e-12
-21.206 388.44 3.55271e-14
2.59526e-12 3.55271e-14 288.113

434.442 14.4257 3.54546e-12
14.4257 488.666 -2.32111e-12
3.54546e-12 -2.32111e-12 460.881

509.718 23.1431 -1.45661e-12
23.1431 475.169 -2.72967e-12
-1.45661e-12 -2.72967e-12 489.944

338.238 42.1987 1.87465e-12
42.1987 349.569 3.63916e-12
1.87465e-12 3.63916e-12 288.949

634.215 16.5069 -3.75396e-12
16.5069 603.068 -7.25346e-12
-3.75396e-12 -7.25346e-12 565.323

372.886 -4.10836 3.56041e-12
-4.10836 436.815 3.14415e-12
3.56041e-12 3.14415e-12 373.425

637.12 -16.6321 4.04491e-12
-16.6321 599.538 4.58581e-12
4.04491e-12 4.58581e-12 564.83

533.936 -27.3349 -3.76824e-12
-27.3349 507.236 1.97383e-12
-3.76824e-12 1.97383e-12 515.712

505.294 27.4246 -3.76824e-12
27.4246 466.332 2.23939e-12
-3.76824e-12 2.23939e-12 485.07

426.923 -24.4106 -5.96856e-13
-24.4106 386.236 -1.73402e-12
-5.96856e-13 -1.73402e-12 375.976

358.934 31.3233 -2.76638e-12
31.3233 396.002 -2.5319e-12
-2.76638e-12 -2.5319e-12 339.198

339.823 -10.7051 -1.62833e-12
-10.7051 408.389 -1.8332e-12
-1.62833e-12 -1.8332e-12 319.103

453.102 21.9707 -3.36116e-12
21.9707 494.677 -4.08118e-12
-3.36116e-12 -4.08118e-12 483.166

533.111 16.7942 1.21236e-12
16.7942 506.196 2.04429e-12
1.21236e-12 2.04429e-12 513.351

443.451 15.1539 3.37715e-12
15.1539 488.438 3.49942e-12
3.37715e-12 3.49942e-12 464.281

451.479 15.9539 -1.52885e-12
15.9539 400.535 -3.45309e-12
-1.52885e-12 -3.45309e-12 403.745

374.487 -21.4725 -1.74912e-12
-21.4725 419.865 -2.22755e-12
-1.74912e-12 -2.22755e-12 357.196

389.721 -29.3907 1.57504e-12
-29.3907 342.368 -8.64494e-14
1.57504e-12 -8.64494e-14 314.389

454.964 -24.573 4.32395e-12
-24.573 480.064 -6.34455e-13
4.32395e-12 -6.34455e-13 478.369

466.425 27.451 -6.84667e-12
27.451 478.742 -4.71919e-13
-6.84667e-12 -4.71919e-13 479.808

452.216 23.1876 3.54487e-12
23.1876 492.558 -1.73876e-12
3.54487e-12 -1.73876e-12 482.042

466.295 13.1691 3.68668e-13
13.1691 529.775 1.56675e-12
3.68668e-13 1.56675e-12 501.382

490.861 9.37228 -2.49993e-12
9.37228 437.888 1.32516e-12
-2.49993e-12 1.32516e-12 462.054

327.711 -4.66506 -6.9574e-14
-4.66506 403.38 -7.22385e-13
-6.9574e-14 -7.22385e-13 314.411

462.578 -36.8331 3.39639e-12
-36.8331 487.689 -8.31631e-13
3.39639e-12 -8.31631e-13 492.747

445.849 27.4653 5.33351e-12
27.4653 463.269 -8.941e-14
5.33351e-12 -8.941e-14 455.013

305.67 2.17032 1.02562e-12
2.17032 393.359 5.21065e-14
1.02562e-12 5.21065e-14 297.255

385.996 34.6104 -2.59585e-12
34.6104 332.447 -3.91983e-13
-2.59585e-12 -3.91983e-13 306.244

453.35 -22.9739 7.84854e-13
-22.9739 480.069 1.68784e-12
7.84854e-13 1.68784e-12 476.172

501.394 5.73296 1.1271e-12
5.73296 441.315 1.12569e-12
1.1271e-12 1.12569e-12 481.009

422.38 27.2041 -3.92101e-12
27.2041 389.766 1.92675e-12
-3.92101e-12 1.92675e-12 374.233

570.542 12.7454 3.87394e-13
12.7454 565.917 2.76608e-12
3.87394e-13 2.76608e-12 542.916

396.177 24.3305 4.38642e-12
24.3305 349.647 2.73914e-12
4.38642e-12 2.73914e-12 319.043

569.164 -13.055 -2.72079e-12
-13.055 565.828 -3.14386e-12
-2.72079e-12 -3.14386e-12 542.371

375.091 0.778541 -7.43701e-13
0.778541 438.868 -4.07378e-12
-7.43701e-13 -4.07378e-12 374.64

461.47 -2.23532 3.67351e-12
-2.23532 399.302 1.84419e-12
3.67351e-12 1.84419e-12 417.281

538.196 -15.7678 1.28638e-12
-15.7678 480.631 -5.50671e-13
1.28638e-12 -5.50671e-13 513.478

457.244 24.3881 5.42221e-13
24.3881 487.784 2.3442e-12
5.42221e-13 2.3442e-12 488.354

461.255 -13.535 2.64313e-13
-13.535 519.135 1.10608e-12
2.64313e-13 1.10608e-12 495.714

514.969 -7.99993 -2.12615e-12
-7.99993 438.191 1.16943e-13
-2.12615e-12 1.16943e-13 494.277

488.315 -22.2839 8.54428e-13
-22.2839 541.602 1.19608e-12
8.54428e-13 1.19608e-12 515.75

556.051 -6.5967 -4.49152e-12
-6.5967 560.394 3.91609e-12
-4.49152e-12 3.91609e-12 538.729

463.866 -29.9082 -2.0138e-12
-29.9082 483.196 2.03689e-13
-2.0138e-12 2.03689e-13 483.6

341.706 11.4536 -6.92898e-12
11.4536 406.193 -2.97244e-12
-6.92898e-12 -2.97244e-12 319.482

422.481 -28.1465 1.87228e-12
-28.1465 391.241 2.14051e-12
1.87228e-12 2.14051e-12 375.146

507.381 -13.772 -5.1806e-12
-13.772 558.748 -2.91323e-13
-5.1806e-12 -2.91323e-13 525.252

501.056 0.504484 2.69029e-12
0.504484 441.28 2.4043e-12
2.69029e-12 2.4043e-12 487.086

476.942 -21.5245 -5.34979e-13
-21.5245 507.422 2.89813e-12
-5.34979e-13 2.89813e-12 501.505

459.097 25.6977 -2.11431e-12
25.6977 484.601 1.45428e-12
-2.11431e-12 1.45428e-12 487.981

394.429 -31.4644 -1.73846e-12
-31.4644 400.598 8.06821e-12
-1.73846e-12 8.06821e-12 357.521

552.126 -7.0848 4.59196e-12
-7.0848 585.295 -5.01229e-13
4.59196e-12 -5.01229e-13 542.603

347.209 -33.0767 6.14383e-12
-33.0767 382.607 -2.34005e-12
6.14383e-12 -2.34005e-12 303.435

490.87 -19.1797 -3.58942e-12
-19.1797 448.387 3.51127e-13
-3.58942e-12 3.51127e-13 467.124

519.708 1.97038 -1.68606e-12
1.97038 466.814 -7.25938e-13
-1.68606e-12 -7.25938e-13 502.831

570.559 17.875 2.94964e-12
17.875 566.48 -1.66681e-12
2.94964e-12 -1.66681e-12 542.375

375.29 20.1828 1.17476e-12
20.1828 424.031 -5.91172e-12
1.17476e-12 -5.91172e-12 360.22

489.081 27.2105 -2.73737e-12
27.2105 468.539 -4.11345e-12
-2.73737e-12 -4.11345e-12 476.639

454.378 -24.5116 1.12739e-12
-24.5116 415.341 -1.59487e-12
1.12739e-12 -1.59487e-12 418.602

454.718 -17.8386 -2.29465e-13
-17.8386 494.906 2.27078e-13
-2.29465e-13 2.27078e-13 482.641

379.198 35.0681 7.0474e-12
35.0681 366.029 9.00021e-14
7.0474e-12 9.00021e-14 317.048

449.152 -21.831 -2.0175e-12
-21.831 491.704 4.89357e-12
-2.0175e-12 4.89357e-12 479.773

485.49 30.8504 -3.42837e-13
30.8504 465.135 -7.46988e-12
-3.42837e-13 -7.46988e-12 473.445

480.321 -25.244 3.54679e-13
-25.244 442.366 -2.56861e-12
3.54679e-13 -2.56861e-12 455.441

448.217 -25.1264 -1.24789e-12
-25.1264 469.766 9.21337e-13
-1.24789e-12 9.21337e-13 458.095

445.344 -18.6881 -8.7456e-12
-18.6881 393.459 1.82965e-13
-8.7456e-12 1.82965e-13 397.256

470.652 -18.8496 -3.30639e-12
-18.8496 422.851 -1.89893e-12
-3.30639e-12 -1.89893e-12 437.53

458.997 -25.337 1.19756e-12
-25.337 485.427 -1.89615e-12
1.19756e-12 -1.89615e-12 488.824

386.54 35.9693 -4.46458e-13
35.9693 381.986 7.23569e-12
-4.46458e-13 7.23569e-12 348.115

444.493 15.3767 4.01457e-13
15.3767 491.53 -2.23999e-12
4.01457e-13 -2.23999e-12 467.138

469.394 26.4222 -2.36522e-12
26.4222 479.956 -3.82627e-12
-2.36522e-12 -3.82627e-12 482.544

456.14 25.4736 2.43118e-12
25.4736 486.644 -3.31601e-12
2.43118e-12 -3.31601e-12 487.244

457.805 11.6215 -2.69406e-12
11.6215 506.937 2.51828e-12
-2.69406e-12 2.51828e-12 486.013

431.948 -8.22697 3.2685e-13
-8.22697 370.753 6.15434e-12
3.2685e-13 6.15434e-12 363.304

376.777 18.6064 1.60405e-12
18.6064 427.263 2.4265e-12
1.60405e-12 2.4265e-12 363.88

452.31 -24.3805 -1.42878e-12
-24.3805 478.383 2.10113e-12
-1.42878e-12 2.10113e-12 470.709

440.743 25.6658 4.37576e-12
25.6658 455.637 1.02673e-12
4.37576e-12 1.02673e-12 437.802

390.953 -35.6292 -3.96601e-12
-35.6292 380.274 2.64322e-12
-3.96601e-12 2.64322e-12 350.088

368.938 38.3165 7.05214e-12
38.3165 327.25 3.12165e-12
7.05214e-12 3.12165e-12 295.68

363.643 -33.3109 5.25032e-12
-33.3109 394.432 4.59129e-12
5.25032e-12 4.59129e-12 341.976

397.927 -31.1594 -4.40655e-12
-31.1594 404.189 4.34378e-12
-4.40655e-12 4.34378e-12 362.97

502.853 -6.83865 7.91367e-13
-6.83865 442.247 2.43324e-12
7.91367e-13 2.43324e-12 482.314

393.16 30.3416 3.63206e-12
30.3416 408.975 3.66403e-12
3.63206e-12 3.66403e-12 363.43

429.697 13.2946 1.69346e-13
13.2946 372.243 -2.49104e-12
1.69346e-13 -2.49104e-12 362.71

350.14 13.3788 -4.60372e-13
13.3788 418.51 -8.7752e-13
-4.60372e-13 -8.7752e-13 348.471

379.475 -22.3402 5.36637e-12
-22.3402 423.508 -9.21574e-12
5.36637e-12 -9.21574e-12 363.444

491.204 -1.09161 2.96074e-12
-1.09161 550.874 -2.34479e-13
2.96074e-12 -2.34479e-13 516.302

372.859 2.2466 -4.75975e-12
2.2466 437.783 1.75622e-12
-4.75975e-12 1.75622e-12 373.516

357.886 31.0891 1.55727e-13
31.0891 399.482 1.94097e-12
1.55727e-13 1.94097e-12 341.957

457.987 12.1079 -2.47701e-12
12.1079 510.557 -2.7119e-13
-2.47701e-12 -2.7119e-13 488.4

421.448 -27.6475 2.81257e-12
-27.6475 389.067 -7.92255e-13
2.81257e-12 -7.92255e-13 375.068

524.753 20.557 -7.09359e-13
20.557 469.746 2.97303e-12
-7.09359e-13 2.97303e-12 500.731

534.921 26.2704 5.81461e-13
26.2704 506.856 -2.54137e-12
5.81461e-13 -2.54137e-12 516.09

494.813 -18.5676 3.08494e-13
-18.5676 449.022 -1.71626e-12
3.08494e-13 -1.71626e-12 470.852

554.581 -1.80137 4.53163e-12
-1.80137 516.019 6.29482e-12
4.53163e-12 6.29482e-12 525.713

473.284 -31.8118 -1.24256e-12
-31.8118 475.693 -3.11662e-12
-1.24256e-12 -3.11662e-12 478.574

412.594 23.3277 -3.61193e-12
23.3277 357.192 1.74675e-13
-3.61193e-12 1.74675e-13 348.087

464.173 30.1621 -2.87711e-12
30.1621 482.765 1.51819e-12
-2.87711e-12 1.51819e-12 483.201

464.436 29.2059 -4.74879e-13
29.2059 482.238 -1.2926e-12
-4.74879e-13 -1.2926e-12 482.762

393.942 30.6607 3.32771e-13
30.6607 405.719 -1.53122e-12
3.32771e-13 -1.53122e-12 360.865

502.851 27.085 3.22053e-12
27.085 482.662 -1.27246e-12
3.22053e-12 -1.27246e-12 490.731

415.347 3.52513 2.23821e-13
3.52513 339.013 2.51847e-12
2.23821e-13 2.51847e-12 340.821

493.119 31.8172 -4.23661e-13
31.8172 487.22 -1.91284e-12
-4.23661e-13 -1.91284e-12 495.571

476.323 -12.5996 7.74566e-13
-12.5996 522.447 -1.79412e-12
7.74566e-13 -1.79412e-12 500.245

536.923 24.2781 2.77112e-13
24.2781 507.399 -2.68082e-12
2.77112e-13 -2.68082e-12 516.627

468.174 -29.5787 1.13924e-12
-29.5787 479.967 -2.28824e-12
1.13924e-12 -2.28824e-12 483.058

464.557 -4.89801 -9.22003e-13
-4.89801 521.552 -1.45306e-12
-9.22003e-13 -1.45306e-12 490.976

400.936 -24.5562 -2.03689e-12
-24.5562 349.02 6.63173e-14
-2.03689e-12 6.63173e-14 323.947

418.963 29.693 -1.73846e-12
29.693 392.46 7.19069e-12
-1.73846e-12 7.19069e-12 373.766

352.341 14.6965 1.72233e-12
14.6965 417.208 -5.48657e-12
1.72233e-12 -5.48657e-12 348.236

500.526 -1.13892 -2.38239e-12
-1.13892 442.792 1.29585e-12
-2.38239e-12 1.29585e-12 487.706

492.468 0.00222341 1.00098e-12
0.00222341 438.1 -1.54317e-12
1.00098e-12 -1.54317e-12 474.416

452.963 23.1239 -1.03192e-12
23.1239 479.704 2.87178e-13
-1.03192e-12 2.87178e-13 475.583

481.301 23.871 1.78909e-12
23.871 502.871 3.47278e-13
1.78909e-12 3.47278e-13 501.251

456.585 -24.3807 9.22595e-14
-24.3807 487.35 -4.27332e-12
9.22595e-14 -4.27332e-12 488.495

457.834 -0.672827 -9.40155e-13
-0.672827 517.94 9.82917e-13
-9.40155e-13 9.82917e-13 486.398

458.883 25.5904 -1.35891e-12
25.5904 486.467 4.00102e-12
-1.35891e-12 4.00102e-12 488.517

465.559 -10.3079 5.65947e-12
-10.3079 408.083 1.66371e-12
5.65947e-12 1.66371e-12 427.223

400.865 -32.8335 1.7882e-12
-32.8335 414.956 -1.74201e-12
1.7882e-12 -1.74201e-12 385.166

518.098 -2.30082 2.97392e-12
-2.30082 465.74 -8.98244e-13
2.97392e-12 -8.98244e-13 500.928

391.873 -34.5083 -5.29354e-12
-34.5083 379.607 -1.74438e-12
-5.29354e-12 -1.74438e-12 347.418

478.003 19.0861 -1.72159e-12
19.0861 509.203 8.88178e-13
-1.72159e-12 8.88178e-13 501.848

506.115 -26.4787 -6.03606e-12
-26.4787 470.25 2.77023e-12
-6.03606e-12 2.77023e-12 487.275

425.002 -9.69027 5.82645e-12
-9.69027 366.732 -7.88702e-13
5.82645e-12 -7.88702e-13 355.982

530.269 -23.192 5.20295e-12
-23.192 488.76 -2.31074e-12
5.20295e-12 -2.31074e-12 506.492

500.895 2.35828 -4.05379e-12
2.35828 444.58 -1.26025e-12
-4.05379e-12 -1.26025e-12 489.208

521.194 -23.3215 -1.77044e-12
-23.3215 501.845 -1.08476e-12
-1.77044e-12 -1.08476e-12 508.537

502.019 -25.8595 -2.30275e-12
-25.8595 461.495 -3.63591e-12
-2.30275e-12 -3.63591e-12 481.247

498.83 -8.54618 -7.94032e-13
-8.54618 445.139 2.53294e-12
-7.94032e-13 2.53294e-12 479.348

482.223 -23.0682 1.63691e-12
-23.0682 504.996 3.59712e-13
1.63691e-12 3.59712e-13 502.539

428.542 -31.342 4.29168e-12
-31.342 410.59 -6.91003e-13
4.29168e-12 -6.91003e-13 399

503.271 -24.5874 -3.09086e-13
-24.5874 464.717 -1.90425e-12
-3.09086e-13 -1.90425e-12 482.163

441.243 10.8645 4.53563e-13
10.8645 378.483 -5.18045e-12
4.53563e-13 -5.18045e-12 387.8

500.041 26.3403 3.75403e-13
26.3403 498.587 -1.73476e-12
3.75403e-13 -1.73476e-12 500.108

463.753 -37.6127 -2.05169e-12
-37.6127 488.393 -3.55368e-12
-2.05169e-12 -3.55368e-12 494.086

464.862 37.2651 2.4493e-12
37.2651 487.304 9.80697e-13
2.4493e-12 9.80697e-13 493.801

446.33 -28.5733 -2.6232e-12
-28.5733 500.018 -6.0929e-13
-2.6232e-12 -6.0929e-13 492.316

448.565 27.0641 -1.21925e-12
27.0641 500.709 2.19824e-12
-1.21925e-12 2.19824e-12 492.503

513.073 -8.52757 9.73592e-13
-8.52757 436.409 -3.19389e-12
9.73592e-13 -3.19389e-12 492.763

511.236 9.27358 -3.12639e-13
9.27358 438.006 -2.34183e-13
-3.12639e-13 -2.34183e-13 492.401

501.66 -9.84623 2.01853e-12
-9.84623 451.745 -2.30053e-12
2.01853e-12 -2.30053e-12 483.024

510.868 32.116 2.02209e-12
32.116 510.394 5.28392e-13
2.02209e-12 5.28392e-13 514.058

509.644 -32.854 -2.9002e-12
-32.854 510.071 -3.52062e-12
-2.9002e-12 -3.52062e-12 513.698

481.813 16.0685 -4.93235e-13
16.0685 539.135 -6.43041e-13
-4.93235e-13 -6.43041e-13 514.33

483.007 -15.8009 -1.1567e-12
-15.8009 538.724 2.26249e-12
-1.1567e-12 2.26249e-12 514.351

556.873 -3.74779 -3.23993e-12
-3.74779 506.835 -1.48533e-12
-3.23993e-12 -1.48533e-12 524.996

558.427 3.61056 -1.99914e-12
3.61056 505.16 -2.85609e-12
-1.99914e-12 -2.85609e-12 525.367

387.31 9.83692 -8.60053e-13
9.83692 449.199 5.8454e-12
-8.60053e-13 5.8454e-12 397.088

472.39 -24.7742 -1.33582e-12
-24.7742 480.757 2.82322e-12
-1.33582e-12 2.82322e-12 484.979

443.464 -36.3874 1.88397e-12
-36.3874 485.535 -2.24132e-12
1.88397e-12 -2.24132e-12 486.63

473.643 -4.6643 2.90138e-13
-4.6643 420.438 -7.35523e-13
2.90138e-13 -7.35523e-13 436.34

540.257 -16.6945 -1.0892e-12
-16.6945 484.195 3.69009e-12
-1.0892e-12 3.69009e-12 515.291

540.977 16.1755 8.34888e-14
16.1755 485.418 -6.61989e-13
8.34888e-14 -6.61989e-13 515.897

506.864 0.12188 -3.40557e-12
0.12188 423.553 -1.0577e-12
-3.40557e-12 -1.0577e-12 487.004

384.793 23.3753 3.35317e-12
23.3753 432.298 -3.18205e-12
3.35317e-12 -3.18205e-12 385.477

442.335 36.1714 2.94875e-12
36.1714 485.213 -1.80345e-12
2.94875e-12 -1.80345e-12 485.836

452.599 -23.3958 -2.35101e-12
-23.3958 494.955 2.99612e-13
-2.35101e-12 2.99612e-13 483.593

443.25 23.3529 -3.55627e-12
23.3529 397.519 1.96228e-12
-3.55627e-12 1.96228e-12 400.374

530.971 23.8583 1.80537e-12
23.8583 488.01 -2.63493e-14
1.80537e-12 -2.63493e-14 507.25

428.48 -31.3138 -7.50807e-13
-31.3138 410.875 -3.42955e-12
-7.50807e-13 -3.42955e-12 398.818

519.862 -3.23106 -8.65678e-13
-3.23106 469.061 2.11386e-13
-8.65678e-13 2.11386e-13 502.688

439.398 -34.1609 3.28722e-12
-34.1609 485.506 2.081e-12
3.28722e-12 2.081e-12 485.825

389.184 8.32001 -6.8621e-13
8.32001 452.329 1.25056e-12
-6.8621e-13 1.25056e-12 400.856

385.88 21.8117 -1.5629e-12
21.8117 435.774 3.60245e-12
-1.5629e-12 3.60245e-12 388.695

383.848 35.776 -1.62714e-12
35.776 362.332 1.05279e-12
-1.62714e-12 1.05279e-12 318.328

408.183 1.57877 1.68991e-12
1.57877 332.156 2.26878e-12
1.68991e-12 2.26878e-12 327.325

485.457 -22.8045 7.72419e-13
-22.8045 502.86 -2.42286e-12
7.72419e-13 -2.42286e-12 501.75

351.878 31.184 -1.30977e-12
31.184 388.832 -8.70652e-12
-1.30977e-12 -8.70652e-12 312.358

451.351 23.6101 4.29701e-12
23.6101 478.414 5.02946e-12
4.29701e-12 5.02946e-12 465.214

442.197 -5.34958 -4.11286e-12
-5.34958 377.126 3.44776e-12
-4.11286e-12 3.44776e-12 387.738

464.156 11.2161 3.31764e-12
11.2161 407.3 -3.30698e-12
3.31764e-12 -3.30698e-12 424.923

505.38 0.429902 -1.45809e-13
0.429902 421.573 3.32839e-12
-1.45809e-13 3.32839e-12 485.676

449.351 -29.031 4.31825e-12
-29.031 501.998 -5.89454e-13
4.31825e-12 -5.89454e-13 493.589

572.51 -6.31885 -4.65413e-12
-6.31885 589.484 3.47307e-12
-4.65413e-12 3.47307e-12 549.253

463.141 37.4114 -1.06404e-12
37.4114 487.027 3.78952e-12
-1.06404e-12 3.78952e-12 493.065

408.738 1.6633 -8.10019e-13
1.6633 331.603 1.9047e-12
-8.10019e-13 1.9047e-12 308.904

404.234 -32.7871 -2.62842e-12
-32.7871 415.509 -1.56438e-12
-2.62842e-12 -1.56438e-12 387.39

443.142 36.6129 -1.16189e-12
36.6129 485.506 2.55618e-12
-1.16189e-12 2.55618e-12 486.572

444.679 -11.1339 -1.39548e-12
-11.1339 498.936 -2.20683e-12
-1.39548e-12 -2.20683e-12 471.442

386.073 -25.5147 2.15117e-12
-25.5147 428.901 -5.12183e-12
2.15117e-12 -5.12183e-12 384.564

449.451 28.83 4.70735e-14
28.83 501.631 4.8909e-13
4.70735e-14 4.8909e-13 493.289

452.711 -26.142 -6.16396e-13
-26.142 419.303 -2.03393e-12
-6.16396e-13 -2.03393e-12 419.518

579.552 10.4835 3.606e-13
10.4835 582.163 -9.21352e-12
3.606e-13 -9.21352e-12 549.038

398.329 30.8722 1.91254e-13
30.8722 422.059 -2.55085e-12
1.91254e-13 -2.55085e-12 388.163

515.707 8.12667 -1.76836e-12
8.12667 437.269 3.6023e-12
-1.76836e-12 3.6023e-12 494.582

493.806 30.1906 7.13207e-13
30.1906 484.748 -2.93395e-12
7.13207e-13 -2.93395e-12 493.802

453.466 23.332 -3.50238e-13
23.332 479.164 -2.13163e-13
-3.50238e-13 -2.13163e-13 475.799

510.702 -32.4886 -1.16174e-12
-32.4886 512.453 1.24367e-12
-1.16174e-12 1.24367e-12 515.007

510.309 -23.1903 -1.38141e-12
-23.1903 473.181 -3.70074e-14
-1.38141e-12 -3.70074e-14 489.678

511.402 10.4705 3.38788e-12
10.4705 557.992 -3.98911e-12
3.38788e-12 -3.98911e-12 523.732

452.173 -23.4339 -4.03529e-13
-23.4339 480.166 5.76605e-12
-4.03529e-13 5.76605e-12 468.951

394.41 -9.70786 -3.71851e-13
-9.70786 316.414 4.44785e-12
-3.71851e-13 4.44785e-12 295.576

387.29 -14.2773 -3.37034e-12
-14.2773 306.059 -8.05282e-13
-3.37034e-12 -8.05282e-13 290.05

547.584 16.5296 2.72789e-12
16.5296 507.764 3.14445e-12
2.72789e-12 3.14445e-12 519.32

436.488 22.5018 3.52311e-14
22.5018 469.137 3.88075e-12
3.52311e-14 3.88075e-12 447.824

475.963 29.1633 8.941e-14
29.1633 467.645 9.43245e-13
8.941e-14 9.43245e-13 471.479

450.302 0.688673 1.62714e-12
0.688673 392.777 3.25368e-12
1.62714e-12 3.25368e-12 395.674

478.351 6.57111 -2.22873e-12
6.57111 541.278 1.42878e-12
-2.22873e-12 1.42878e-12 507.54

507.331 16.5407 1.09128e-12
16.5407 461.136 -2.78148e-12
1.09128e-12 -2.78148e-12 488.08

389.977 -25.7612 -4.81393e-12
-25.7612 430.036 5.29828e-12
-4.81393e-12 5.29828e-12 387.734

456.319 -2.57235 -5.16328e-13
-2.57235 517.014 3.03106e-12
-5.16328e-13 3.03106e-12 484.84

400.589 13.3652 -1.49451e-12
13.3652 452.986 5.42855e-12
-1.49451e-12 5.42855e-12 404.636

486.914 -29.7134 -1.37431e-12
-29.7134 465.814 3.45205e-12
-1.37431e-12 3.45205e-12 474.258

430.299 -29.9476 1.06759e-12
-29.9476 423.629 -1.70353e-12
1.06759e-12 -1.70353e-12 404.955

399.711 31.623 5.82053e-13
31.623 418.232 -5.83533e-12
5.82053e-13 -5.83533e-12 386.002

624 -15.02 4.35059e-12
-15.02 581.947 -1.67296e-12
4.35059e-12 -1.67296e-12 557.904

494.522 2.04137 -8.19271e-13
2.04137 552.143 7.15872e-13
-8.19271e-13 7.15872e-13 517.925

483.502 20.2999 -6.73683e-13
20.2999 542.042 4.52971e-14
-6.73683e-13 4.52971e-14 516.031

544.705 15.4389 -2.25553e-12
15.4389 479.97 -9.87062e-13
-2.25553e-12 -9.87062e-13 515.753

473.748 -26.1888 2.64855e-12
-26.1888 479.756 1.12088e-12
2.64855e-12 1.12088e-12 483.017

452.125 17.9573 9.81733e-13
17.9573 404.508 -5.86967e-12
9.81733e-13 -5.86967e-12 406.918

531.579 -5.29395 4.35395e-12
-5.29395 580.8 4.89653e-12
4.35395e-12 4.89653e-12 537.117

512.187 -18.9881 2.96356e-13
-18.9881 464.793 -1.58303e-12
2.96356e-13 -1.58303e-12 493.028

473.976 -15.5989 5.04249e-12
-15.5989 423.176 4.08207e-12
5.04249e-12 4.08207e-12 438.88

402 11.6033 -1.58273e-12
11.6033 455.958 8.52651e-14
-1.58273e-12 8.52651e-14 407.779

410.923 -25.7343 7.99361e-14
-25.7343 435.581 -1.73728e-12
7.99361e-14 -1.73728e-12 398.956

532.048 -25.2738 5.54815e-13
-25.2738 523.192 1.54158e-12
5.54815e-13 1.54158e-12 519.118

423.056 31.9596 9.82325e-13
31.9596 417.248 3.86654e-13
9.82325e-13 3.86654e-13 400.305

535.482 -25.1346 2.28854e-12
-25.1346 505.788 -2.17929e-12
2.28854e-12 -2.17929e-12 515.659

453.494 2.59738 -5.84895e-12
2.59738 397.019 3.52599e-12
-5.84895e-12 3.52599e-12 401.897

311.099 -28.9306 1.39326e-12
-28.9306 376.597 4.63037e-12
1.39326e-12 4.63037e-12 289.995

431.876 -29.231 2.18433e-12
-29.231 424.048 1.19312e-12
2.18433e-12 1.19312e-12 406.154

353.761 32.159 -2.53427e-13
32.159 392.544 3.78956e-14
-2.53427e-13 3.78956e-14 312.968

470.346 -11.8768 -2.67423e-12
-11.8768 529.552 -1.92439e-12
-2.67423e-12 -1.92439e-12 500.303

391.45 -13.8214 5.00044e-13
-13.8214 449.253 -6.27646e-14
5.00044e-13 -6.27646e-14 400.198

602.854 -23.9878 5.85413e-12
-23.9878 602.266 -9.82177e-13
5.85413e-12 -9.82177e-13 557.844

408.371 23.7709 1.75859e-13
23.7709 441.94 2.68704e-12
1.75859e-13 2.68704e-12 402.222

496.577 -32.7263 3.54117e-12
-32.7263 490.641 3.07014e-13
3.54117e-12 3.07014e-13 497.447

388.189 -11.9632 2.71131e-12
-11.9632 448.285 2.4265e-12
2.71131e-12 2.4265e-12 397.016

516.711 -19.1169 2.83921e-13
-19.1169 465.754 6.64061e-13
2.83921e-13 6.64061e-13 496.243

410.686 23.8771 -6.35462e-12
23.8771 439.312 -4.10694e-12
-6.35462e-12 -4.10694e-12 400.699

488.921 -4.97549 -2.82678e-12
-4.97549 435.071 -4.71597e-12
-2.82678e-12 -4.71597e-12 460.383

305.782 -30.3427 9.23706e-13
-30.3427 391.439 7.96518e-12
9.23706e-13 7.96518e-12 262.57

438.61 21.0141 -2.645e-12
21.0141 473.914 -6.74423e-13
-2.645e-12 -6.74423e-13 458.35

445.689 -19.3233 -6.987e-13
-19.3233 393.978 -1.74379e-12
-6.987e-13 -1.74379e-12 399.624

551.604 -21.4458 -8.13275e-12
-21.4458 499.518 9.26074e-13
-8.13275e-12 9.26074e-13 520.104

424.472 31.7541 -2.06886e-12
31.7541 413.324 2.46203e-12
-2.06886e-12 2.46203e-12 397.961

459.165 -29.9718 -1.45128e-12
-29.9718 437.64 1.29822e-12
-1.45128e-12 1.29822e-12 439.302

510.622 20.8853 1.53833e-12
20.8853 476.075 -4.06253e-12
1.53833e-12 -4.06253e-12 492.758

461.508 -28.0759 -1.74527e-13
-28.0759 485.744 6.32309e-13
-1.74527e-13 6.32309e-13 488.721

413.723 -26.2253 8.2423e-13
-26.2253 436.248 5.48421e-12
8.2423e-13 5.48421e-12 401.442

426.078 28.9812 1.50872e-12
28.9812 429.901 -7.6857e-13
1.50872e-12 -7.6857e-13 406.864

452.504 26.1914 -4.65642e-12
26.1914 418.231 -1.39414e-12
-4.65642e-12 -1.39414e-12 419.062

521.973 -14.6101 6.96628e-13
-14.6101 477.181 2.44575e-12
6.96628e-13 2.44575e-12 500.067

403.564 -16.6176 -5.18755e-12
-16.6176 451.747 9.29627e-13
-5.18755e-12 9.29627e-13 406.446

496.05 -17.5683 2.88836e-12
-17.5683 447.61 -1.08876e-12
2.88836e-12 -1.08876e-12 471.505

487.769 16.9085 4.18628e-13
16.9085 436.263 -4.83051e-12
4.18628e-13 -4.83051e-12 460.593

513.346 -9.38667 1.59913e-12
-9.38667 555.781 -1.44595e-12
1.59913e-12 -1.44595e-12 523.033

453.982 -13.4301 2.20624e-12
-13.4301 402.182 -1.68103e-12
2.20624e-12 -1.68103e-12 406.747

403.206 0.594044 7.72123e-13
0.594044 465.729 3.78364e-12
7.72123e-13 3.78364e-12 417.809

475.031 18.555 4.77189e-12
18.555 428.776 -2.71487e-13
4.77189e-12 -2.71487e-13 442.225

451.147 27.604 -6.86147e-12
27.604 421.843 -8.82257e-13
-6.86147e-12 -8.82257e-13 420.847

400.873 -15.6862 1.87021e-12
-15.6862 451.386 -1.96228e-12
1.87021e-12 -1.96228e-12 403.74

406.004 -1.20229 8.83812e-13
-1.20229 468.039 3.36679e-12
8.83812e-13 3.36679e-12 421.224

516.204 29.1343 1.49806e-12
29.1343 498.03 -8.52355e-13
1.49806e-12 -8.52355e-13 504.88

441.709 -10.9221 6.99441e-12
-10.9221 500.662 2.8629e-12
6.99441e-12 2.8629e-12 471.153

451.444 -26.7154 -3.74693e-12
-26.7154 418.77 -2.58993e-12
-3.74693e-12 -2.58993e-12 419.357

444.392 21.3326 5.30539e-13
21.3326 395.302 1.05397e-13
5.30539e-13 1.05397e-13 398.205

497.6 23.6653 3.01566e-12
23.6653 458.095 1.06581e-13
3.01566e-12 1.06581e-13 476.555

447.687 5.47083 -6.77902e-13
5.47083 508.795 -8.34296e-13
-6.77902e-13 -8.34296e-13 476.886

427.654 29.0656 -2.27374e-13
29.0656 426.439 -8.49395e-12
-2.27374e-13 -8.49395e-12 405.114

536.826 22.9638 -1.1644e-12
22.9638 531.901 -5.42337e-12
-1.1644e-12 -5.42337e-12 522.789

314.753 -59.6919 3.66403e-12
-59.6919 282.772 8.62125e-13
3.66403e-12 8.62125e-13 223.426

480.599 -25.0478 5.59908e-12
-25.0478 445.076 2.61835e-12
5.59908e-12 2.61835e-12 456.651

336.667 7.06993 6.53729e-12
7.06993 409.159 2.5248e-12
6.53729e-12 2.5248e-12 319.444

460.543 -28.8893 -1.40747e-12
-28.8893 444.742 1.21384e-13
-1.40747e-12 1.21384e-13 443.457

96.4248 -52.7014 8.5502e-13
-52.7014 306.621 4.44326e-12
8.5502e-13 4.44326e-12 113.701

95.9587 51.452 -8.36072e-13
51.452 306.885 2.76638e-12
-8.36072e-13 2.76638e-12 114.489

181.519 117.155 1.65793e-12
117.155 226.078 2.80428e-12
1.65793e-12 2.80428e-12 113.589

182.816 -117.098 9.66338e-13
-117.098 223.314 -4.45273e-13
9.66338e-13 -4.45273e-13 113.563

321.586 -1.36337 5.06854e-13
-1.36337 84.6542 3.35507e-14
5.06854e-13 3.35507e-14 114.93

274.436 -91.1262 2.81849e-12
-91.1262 127.419 8.69231e-13
2.81849e-12 8.69231e-13 113.803

275.132 91.654 -4.95485e-12
91.654 128.252 -9.23706e-13
-4.95485e-12 -9.23706e-13 114.573

525.245 14.3304 2.8096e-13
14.3304 474.716 -2.20712e-12
2.8096e-13 -2.20712e-12 502.319

556.801 25.5365 2.1038e-12
25.5365 541.187 1.66889e-12
2.1038e-12 1.66889e-12 533.454

492.097 6.60607 -1.63425e-13
6.60607 439.126 1.89101e-12
-1.63425e-13 1.89101e-12 471.407

470.305 21.7847 1.78879e-12
21.7847 424.521 1.76748e-13
1.78879e-12 1.76748e-13 438.199

409.98 17.7445 -3.61888e-12
17.7445 461.078 1.54543e-13
-3.61888e-12 1.54543e-13 425.048

448.016 28.8986 -5.875e-12
28.8986 424.71 -1.83616e-12
-5.875e-12 -1.83616e-12 420.754

487.154 -29.6635 1.17832e-13
-29.6635 465.632 2.54197e-12
1.17832e-13 2.54197e-12 474.594

449.373 28.0279 -2.68052e-12
28.0279 421.076 2.78947e-12
-2.68052e-12 2.78947e-12 418.646

402.968 -2.84128 4.79557e-12
-2.84128 465.386 3.56456e-12
4.79557e-12 3.56456e-12 417.545

555.807 -26.0973 3.69512e-12
-26.0973 543.38 -1.75563e-13
3.69512e-12 -1.75563e-13 533.698

405.506 -4.86244 1.53507e-13
-4.86244 467.124 2.03452e-12
1.53507e-13 2.03452e-12 420.604

522.297 23.0163 2.33769e-12
23.0163 499.747 -2.24235e-12
2.33769e-12 -2.24235e-12 507.974

423.383 26.8708 -3.54087e-13
26.8708 386.511 -3.81739e-12
-3.54087e-13 -3.81739e-12 373.031

480.114 -13.2161 2.03763e-12
-13.2161 532.773 1.93564e-12
2.03763e-12 1.93564e-12 512.006

484.203 13.728 -2.51414e-12
13.728 432.781 -1.41605e-12
-2.51414e-12 -1.41605e-12 456.88

457.374 -29.9878 -4.29938e-12
-29.9878 436.981 -3.81917e-13
-4.29938e-12 -3.81917e-13 437.838

454.314 -24.7136 1.35003e-13
-24.7136 416.809 -1.7885e-12
1.35003e-13 -1.7885e-12 419.858

547.409 -16.0748 7.83551e-12
-16.0748 509.31 4.5001e-13
7.83551e-12 4.5001e-13 519.389

475.977 27.929 -5.05255e-12
27.929 449.711 3.23297e-13
-5.05255e-12 3.23297e-13 456.93

469.106 23.9776 1.01489e-12
23.9776 427.854 1.77221e-12
1.01489e-12 1.77221e-12 439.835

432.433 -2.79292 -1.48418e-12
-2.79292 493.642 -1.84386e-12
-1.48418e-12 -1.84386e-12 457.112

417.612 5.87337 -2.38578e-12
5.87337 479.562 -2.61124e-12
-2.38578e-12 -2.61124e-12 440.182

463.016 2.64672 -2.8925e-12
2.64672 402.284 2.58171e-12
-2.8925e-12 2.58171e-12 422.326

438.653 -7.28971 -2.66927e-12
-7.28971 373.919 -4.26992e-12
-2.66927e-12 -4.26992e-12 381.222

454.849 30.4849 -2.16597e-12
30.4849 439.02 6.35936e-12
-2.16597e-12 6.35936e-12 437.841

478.47 -26.1556 1.90899e-12
-26.1556 443.548 4.20523e-12
1.90899e-12 4.20523e-12 454.651

525.705 -21.2544 3.41949e-13
-21.2544 497.834 -3.09234e-12
3.41949e-13 -3.09234e-12 508.623

437.738 -31.6338 5.35335e-12
-31.6338 437.66 -2.17308e-12
5.35335e-12 -2.17308e-12 426.864

417.595 -27.7857 -8.57388e-13
-27.7857 444.401 1.42997e-12
-8.57388e-13 1.42997e-12 419.693

430.652 29.8874 7.17293e-12
29.8874 442.749 -5.67842e-13
7.17293e-12 -5.67842e-13 426.502

416.23 -9.57798 2.46136e-12
-9.57798 475.216 5.54638e-12
2.46136e-12 5.54638e-12 436.46

428.9 -1.54484 -2.77896e-12
-1.54484 491.873 -5.30006e-12
-2.77896e-12 -5.30006e-12 453.999

445.186 5.74792 -2.30651e-12
5.74792 508.048 5.85014e-13
-2.30651e-12 5.85014e-13 474.919

414.623 -21.0892 -7.78044e-13
-21.0892 458.413 -4.02937e-12
-7.78044e-13 -4.02937e-12 426.07

496.874 24.1113 3.0956e-12
24.1113 455.701 2.01735e-12
3.0956e-12 2.01735e-12 474.598

483.378 -9.58981 -3.2229e-12
-9.58981 430.117 3.68002e-12
-3.2229e-12 3.68002e-12 455.225

415.638 7.46531 -4.13625e-12
7.46531 477.126 -4.02463e-12
-4.13625e-12 -4.02463e-12 436.918

443.96 -9.70112 -2.76556e-12
-9.70112 501.509 1.55905e-12
-2.76556e-12 1.55905e-12 471.012

433.179 -16.3308 6.73476e-12
-16.3308 481.681 -2.02445e-12
6.73476e-12 -2.02445e-12 455.673

463.545 -8.23927 2.0061e-12
-8.23927 406.34 3.62081e-13
2.0061e-12 3.62081e-13 421.475

494.439 -32.3468 -2.88066e-13
-32.3468 487.621 8.36664e-13
-2.88066e-13 8.36664e-13 496.256

422.949 9.32097 7.11431e-13
9.32097 479.097 -7.01898e-12
7.11431e-13 -7.01898e-12 440.985

564.362 -18.2127 -1.59991e-12
-18.2127 529.956 3.31838e-12
-1.59991e-12 3.31838e-12 531.836

309.052 24.8229 5.21242e-12
24.8229 379.427 3.36324e-12
5.21242e-12 3.36324e-12 289.801

501.703 -26.6263 1.13095e-13
-26.6263 499.495 2.83403e-12
1.13095e-13 2.83403e-12 501.205

515.654 -30.2029 -1.80952e-12
-30.2029 498.409 2.94283e-13
-1.80952e-12 2.94283e-13 504.923

429.228 -0.701249 -5.36534e-12
-0.701249 491.999 -4.36036e-12
-5.36534e-12 -4.36036e-12 454.15

474.887 -16.6227 4.70024e-12
-16.6227 428.342 9.87062e-13
4.70024e-12 9.87062e-13 441.961

462.31 12.8417 1.80008e-12
12.8417 511.28 6.83305e-13
1.80008e-12 6.83305e-13 489.126

240.779 -3.1806 8.15155e-12
-3.1806 360.692 9.73444e-13
8.15155e-12 9.73444e-13 226.968

432.409 14.2738 2.91767e-12
14.2738 485.362 4.64754e-12
2.91767e-12 4.64754e-12 456.888

458.117 -29.4895 -2.57986e-12
-29.4895 443.176 5.17394e-12
-2.57986e-12 5.17394e-12 440.767

304.19 25.1059 2.18788e-12
25.1059 394.589 -6.25278e-12
2.18788e-12 -6.25278e-12 264.344

603.553 26.0976 -3.52651e-12
26.0976 597.958 -8.36131e-12
-3.52651e-12 -8.36131e-12 558.161

608.287 -27.807 -1.29069e-11
-27.807 595.033 6.52796e-12
-1.29069e-11 6.52796e-12 558.295

463.499 -30.4193 -1.37727e-12
-30.4193 459.044 5.93599e-13
-1.37727e-12 5.93599e-13 459.078

434.59 -31.1605 8.76336e-14
-31.1605 436.365 2.85105e-12
8.76336e-14 2.85105e-12 424.667

474.107 20.8276 7.59689e-13
20.8276 431.92 -5.56769e-12
7.59689e-13 -5.56769e-12 443.978

465.228 15.0062 3.93049e-12
15.0062 410.122 -6.02511e-12
3.93049e-12 -6.02511e-12 427.468

646.071 3.08331 -1.2863e-12
3.08331 645.729 -1.78022e-11
-1.2863e-12 -1.78022e-11 574.623

649.892 -6.99977 -5.36045e-12
-6.99977 641.399 1.074e-11
-5.36045e-12 1.074e-11 575.151

496.994 4.82429 4.00095e-12
4.82429 442.04 -9.13344e-13
4.00095e-12 -9.13344e-13 477.418

443.563 6.73109 4.55761e-12
6.73109 502.995 3.79548e-12
4.55761e-12 3.79548e-12 471.056

441.977 6.73633 -1.02273e-12
6.73633 502.52 6.33567e-12
-1.02273e-12 6.33567e-12 469.779

321.54 58.6349 3.59771e-12
58.6349 281.125 2.73085e-12
3.59771e-12 2.73085e-12 225.079

420.234 -28.2001 2.75927e-12
-28.2001 444.029 4.56524e-13
2.75927e-12 4.56524e-13 421.037

520.584 17.9745 -4.59218e-12
17.9745 467.536 2.17544e-12
-4.59218e-12 2.17544e-12 499.515

472.986 9.53982 -4.54511e-12
9.53982 421.202 2.59067e-12
-4.54511e-12 2.59067e-12 436.208

440.636 -26.7236 -1.04687e-12
-26.7236 450.732 8.76336e-13
-1.04687e-12 8.76336e-13 433.421

469.282 -20.2379 3.12639e-12
-20.2379 422.722 7.68274e-13
3.12639e-12 7.68274e-13 437.182

312.477 60.2328 -1.88057e-12
60.2328 281.375 -2.73441e-12
-1.88057e-12 -2.73441e-12 223.218

492.687 31.0692 -1.0442e-12
31.0692 489.048 1.45957e-13
-1.0442e-12 1.45957e-13 493.144

410.868 -19.7863 -1.75504e-12
-19.7863 457.887 5.16328e-12
-1.75504e-12 5.16328e-12 423.503

474.134 28.8579 1.84563e-12
28.8579 449.637 1.70057e-12
1.84563e-12 1.70057e-12 456.524

430.962 -4.1449 -2.00691e-12
-4.1449 492.979 -2.93454e-12
-2.00691e-12 -2.93454e-12 456.473

423.936 19.6094 -1.34352e-12
19.6094 465.717 5.55763e-12
-1.34352e-12 5.55763e-12 434.113

452.753 30.5191 -6.20541e-13
30.5191 443.604 2.09551e-12
-6.20541e-13 2.09551e-12 439.614

428.649 -22.4735 6.24567e-12
-22.4735 461.143 -6.03843e-12
6.24567e-12 -6.03843e-12 433.818

443.58 -27.3528 1.04923e-12
-27.3528 450.439 -5.77908e-12
1.04923e-12 -5.77908e-12 435.051

294.782 11.2571 4.18939e-12
11.2571 372.59 -1.6532e-12
4.18939e-12 -1.6532e-12 258.105

357.303 -33.4566 7.1149e-12
-33.4566 389.122 2.8398e-12
7.1149e-12 2.8398e-12 314.133

419.663 -11.6906 -6.10253e-13
-11.6906 476.367 3.10448e-12
-6.10253e-13 3.10448e-12 439.35

478.403 26.4848 4.62978e-12
26.4848 446.805 3.90266e-12
4.62978e-12 3.90266e-12 456.089

452.351 29.4782 -5.89573e-12
29.4782 449.032 2.46085e-12
-5.89573e-12 2.46085e-12 442.405

426.814 -21.4342 -3.86476e-12
-21.4342 461.79 4.39767e-12
-3.86476e-12 4.39767e-12 432.636

422.936 -11.7825 -1.47526e-12
-11.7825 476.653 5.44039e-12
-1.47526e-12 5.44039e-12 439.934

457.712 28.4098 6.25278e-13
28.4098 447.093 -1.01904e-12
6.25278e-13 -1.01904e-12 442.577

425.111 -13.878 1.18246e-12
-13.878 476.425 4.50247e-12
1.18246e-12 4.50247e-12 442.111

311.268 27.8553 -7.47432e-12
27.8553 377.396 -2.45137e-12
-7.47432e-12 -2.45137e-12 289.988

485.175 -4.04118 2.56845e-12
-4.04118 545.055 -1.23634e-12
2.56845e-12 -1.23634e-12 511.042

432.991 31.0279 7.15635e-12
31.0279 439.634 -1.49214e-12
7.15635e-12 -1.49214e-12 426.025

509.316 14.9013 -2.33709e-12
14.9013 463.167 2.06176e-12
-2.33709e-12 2.06176e-12 488.611

516.926 -15.9276 1.60168e-12
-15.9276 467.587 -2.09669e-12
1.60168e-12 -2.09669e-12 493.929

383.93 -24.2048 -9.00021e-13
-24.2048 305.952 -1.52885e-12
-9.00021e-13 -1.52885e-12 285.358

442.284 -21.2674 2.75306e-12
-21.2674 476.005 3.55627e-12
2.75306e-12 3.55627e-12 459.326

447.833 26.6985 -6.1083e-12
26.6985 466.213 -5.56533e-12
-6.1083e-12 -5.56533e-12 457.847

522.98 -21.7278 -6.91891e-13
-21.7278 543.816 4.69672e-12
-6.91891e-13 4.69672e-12 525.314

579.587 14.1063 8.06851e-12
14.1063 617.623 7.12023e-13
8.06851e-12 7.12023e-13 557.056

620.21 9.44532 -1.34337e-12
9.44532 576.844 -7.83492e-12
-1.34337e-12 -7.83492e-12 556.875

523.475 32.7054 4.67537e-12
32.7054 520.656 2.40252e-12
4.67537e-12 2.40252e-12 519.529

414.896 26.0007 -2.0739e-12
26.0007 448.911 -6.14619e-13
-2.0739e-12 -6.14619e-13 420.381

478.101 26.6617 2.93454e-12
26.6617 444.775 -5.26394e-13
2.93454e-12 -5.26394e-13 455.513

332.367 45.1865 -3.55863e-12
45.1865 349.493 -2.50585e-12
-3.55863e-12 -2.50585e-12 286.743

571.394 -11.3434 -5.74947e-13
-11.3434 614.474 -1.53359e-13
-5.74947e-13 -1.53359e-13 554.599

641.328 -3.43279 3.81351e-12
-3.43279 636.871 3.38766e-12
3.81351e-12 3.38766e-12 572.399

634.906 -0.209909 -7.85653e-12
-0.209909 643.178 1.74714e-11
-7.85653e-12 1.74714e-11 572.226

272.966 -53.8031 -3.99325e-12
-53.8031 316.451 9.71075e-13
-3.99325e-12 9.71075e-13 220.911

566.642 -11.5999 3.9857e-12
-11.5999 562.128 1.17062e-12
3.9857e-12 1.17062e-12 540.902

563.774 8.81285 -7.97806e-13
8.81285 586.966 -1.66622e-12
-7.97806e-13 -1.66622e-12 546.844

478.249 -26.1997 2.55499e-12
-26.1997 440.447 7.52287e-13
2.55499e-12 7.52287e-13 453.487

494.353 1.01096 -2.65473e-12
1.01096 545.764 -2.09492e-12
-2.65473e-12 -2.09492e-12 514.062

447.656 -20.268 -1.8554e-12
-20.268 484.164 -1.7882e-12
-1.8554e-12 -1.7882e-12 470.642

506.306 6.25535 8.30447e-13
6.25535 443.38 -2.30342e-12
8.30447e-13 -2.30342e-12 486.13

461.28 15.5963 -4.13776e-12
15.5963 521.258 4.38997e-12
-4.13776e-12 4.38997e-12 497.561

471.186 7.19155 -4.80819e-13
7.19155 528.011 -1.28253e-12
-4.80819e-13 -1.28253e-12 497.695

493.768 20.393 2.00136e-13
20.393 451.522 7.32599e-12
2.00136e-13 7.32599e-12 469.756

241.068 -3.1139 -3.57225e-12
-3.1139 358.564 -1.90189e-12
-3.57225e-12 -1.90189e-12 227.066

463.706 -27.624 -4.03825e-13
-27.624 463.396 -2.72908e-12
-4.03825e-13 -2.72908e-12 461.196

488.35 -26.1165 5.8975e-13
-26.1165 481.603 -8.54428e-13
5.8975e-13 -8.54428e-13 485.874

497.543 -31.4837 -1.50724e-12
-31.4837 489.963 7.56136e-12
-1.50724e-12 7.56136e-12 498.986

355.604 32.7499 1.31214e-12
32.7499 285.782 -8.90399e-12
1.31214e-12 -8.90399e-12 248.369

563.885 -20.1164 -3.0201e-12
-20.1164 569.617 -1.84763e-12
-3.0201e-12 -1.84763e-12 542.575

337.651 54.3228 -3.12402e-12
54.3228 356.661 3.75403e-12
-3.12402e-12 3.75403e-12 258.878

477.076 -21.4395 8.12535e-13
-21.4395 506.495 -1.50457e-12
8.12535e-13 -1.50457e-12 500.249

504.778 14.6504 -8.39033e-13
14.6504 451.992 3.84951e-12
-8.39033e-13 3.84951e-12 481.565

449.836 -14.5726 -6.06448e-12
-14.5726 396.991 5.41419e-12
-6.06448e-12 5.41419e-12 400.845

452.599 24.0469 4.24549e-13
24.0469 478.785 -2.6444e-12
4.24549e-13 -2.6444e-12 467.853

493.672 20.4281 1.18128e-12
20.4281 449.506 -2.38802e-12
1.18128e-12 -2.38802e-12 469.347

505.57 11.4004 3.51371e-12
11.4004 564.42 1.04331e-12
3.51371e-12 1.04331e-12 526.716

475.901 -31.5803 1.59102e-12
-31.5803 470.361 -4.93975e-12
1.59102e-12 -4.93975e-12 475.069

559.274 19.8124 1.25648e-12
19.8124 510.444 2.923e-12
1.25648e-12 2.923e-12 526.492

439.963 -18.4436 4.61172e-12
-18.4436 482.47 -4.74169e-12
4.61172e-12 -4.74169e-12 459.154

465.902 4.28326 2.90396e-12
4.28326 526.112 1.02673e-12
2.90396e-12 1.02673e-12 495.515

588.643 9.92686 -3.27738e-13
9.92686 552.465 6.11836e-12
-3.27738e-13 6.11836e-12 545.193

590.426 -8.5135 4.18036e-13
-8.5135 554.807 -1.55979e-12
4.18036e-13 -1.55979e-12 545.71

382.314 18.5125 3.5764e-12
18.5125 302.29 -4.59899e-12
3.5764e-12 -4.59899e-12 286.137

502.683 7.96509 -1.2399e-12
7.96509 453.605 4.49004e-12
-1.2399e-12 4.49004e-12 487.77

232.818 7.74057 -3.5311e-12
7.74057 381.519 9.09495e-13
-3.5311e-12 9.09495e-13 187.188

236.987 -11.3852 4.50417e-12
-11.3852 387.213 -3.13586e-12
4.50417e-12 -3.13586e-12 189.452

249.29 56.4071 6.30488e-12
56.4071 354.78 1.89004e-12
6.30488e-12 1.89004e-12 184.025

505.02 -28.9506 -9.92983e-13
-28.9506 478.62 -2.56624e-12
-9.92983e-13 -2.56624e-12 491.348

258.474 -49.1907 1.77636e-14
-49.1907 341.844 5.42381e-12
1.77636e-14 5.42381e-12 220.736

249.295 -55.9496 -2.67164e-12
-55.9496 344.755 -1.75267e-12
-2.67164e-12 -1.75267e-12 181.117

434.659 26.2203 7.92729e-12
26.2203 454.397 -5.17512e-13
7.92729e-12 -5.17512e-13 432.829

329.927 73.844 8.17598e-12
73.844 280.013 9.00021e-13
8.17598e-12 9.00021e-13 184.829

540.131 13.0472 -2.19469e-12
13.0472 554.95 2.68378e-12
-2.19469e-12 2.68378e-12 532.081

562.388 0.0396334 -1.35995e-12
0.0396334 532.457 2.58016e-12
-1.35995e-12 2.58016e-12 531.874

338.605 -73.1294 3.78956e-14
-73.1294 279.86 9.14232e-13
3.78956e-14 9.14232e-13 186.312

432.674 -23.4241 1.6378e-12
-23.4241 466.315 -5.99343e-12
1.6378e-12 -5.99343e-12 447.576

358.935 34.7293 -2.77112e-12
34.7293 310.978 -8.39625e-13
-2.77112e-12 -8.39625e-13 258.04

267.707 63.4909 -3.99325e-12
63.4909 345.213 1.84267e-12
-3.99325e-12 1.84267e-12 185.847

293.696 21.6303 -8.41993e-13
21.6303 367.664 -4.73695e-14
-8.41993e-13 -4.73695e-14 254.5

267.579 -65.9198 -8.17124e-13
-65.9198 344.849 -8.3844e-13
-8.17124e-13 -8.3844e-13 184.303

291.643 -12.3811 2.6521e-12
-12.3811 370.886 -7.69518e-12
2.6521e-12 -7.69518e-12 253.445

550.31 6.84151 -6.3319e-12
6.84151 582.081 2.91441e-12
-6.3319e-12 2.91441e-12 541.121

329.892 -45.9749 5.38236e-12
-45.9749 341.819 3.47929e-12
5.38236e-12 3.47929e-12 276.617

259.784 47.532 -5.31249e-12
47.532 340.22 3.47219e-12
-5.31249e-12 3.47219e-12 223.148

370.219 37.9114 4.09746e-12
37.9114 244.922 5.3948e-12
4.09746e-12 5.3948e-12 187.358

481.895 -29.2858 2.08307e-12
-29.2858 460.516 -8.17124e-14
2.08307e-12 -8.17124e-14 467.719

480.981 12.8966 -8.18234e-13
12.8966 525.834 4.90274e-12
-8.18234e-13 4.90274e-12 504.108

354.422 -38.1125 -2.98191e-12
-38.1125 300.08 -8.0315e-12
-2.98191e-12 -8.0315e-12 251.817

482.539 -28.8023 5.08867e-12
-28.8023 460.325 -1.13065e-12
5.08867e-12 -1.13065e-12 468.467

365.267 -36.3433 1.82846e-12
-36.3433 230.991 1.92675e-12
1.82846e-12 1.92675e-12 182.772

481.507 -28.3175 4.69195e-12
-28.3175 472.759 1.67481e-12
4.69195e-12 1.67481e-12 477.923

436.358 -25.295 -6.30903e-13
-25.295 466.229 -1.60227e-12
-6.30903e-13 -1.60227e-12 448.214

314.801 69.4604 -9.4739e-15
69.4604 292.144 -3.59535e-12
-9.4739e-15 -3.59535e-12 184.526

290.784 -22.9328 -2.23821e-12
-22.9328 359.168 -6.26936e-12
-2.23821e-12 -6.26936e-12 247.032

312.403 -71.6924 4.64695e-12
-71.6924 288.125 2.71664e-12
4.64695e-12 2.71664e-12 182.028

268.549 50.7375 1.32398e-12
50.7375 320.062 -1.85452e-12
1.32398e-12 -1.85452e-12 221.507

459.866 -30.2123 -1.93623e-13
-30.2123 454.85 1.38053e-12
-1.93623e-13 1.38053e-12 454.405

559.29 -14.6404 -7.0545e-12
-14.6404 544.415 -2.61154e-12
-7.0545e-12 -2.61154e-12 533.721

635.923 11.0924 5.56658e-12
11.0924 631.385 7.79258e-12
5.56658e-12 7.79258e-12 570.022

619.959 -5.16004 -1.74571e-12
-5.16004 639.74 6.37238e-12
-1.74571e-12 6.37238e-12 568.5

453.874 13.0836 7.20738e-13
13.0836 506.56 2.44545e-13
7.20738e-13 2.44545e-13 482.577

634.153 -10.6667 -4.87899e-12
-10.6667 631.315 1.94067e-12
-4.87899e-12 1.94067e-12 569.877

622.697 4.09181 4.74361e-12
4.09181 642.685 -1.02192e-12
4.74361e-12 -1.02192e-12 569.701

643.376 7.43377 8.33496e-12
7.43377 619.149 -5.18667e-12
8.33496e-12 -5.18667e-12 569.024

584.778 -12.1149 2.76497e-12
-12.1149 631.669 -3.42348e-12
2.76497e-12 -3.42348e-12 560.596

307.447 -30.4702 -1.15617e-11
-30.4702 371.637 -1.73609e-12
-1.15617e-11 -1.73609e-12 280.772

589.628 -12.9721 4.76271e-12
-12.9721 549.116 -1.96643e-12
4.76271e-12 -1.96643e-12 543.83

527.21 -34.4175 2.92092e-12
-34.4175 521.49 -2.34168e-12
2.92092e-12 -2.34168e-12 519.969

565.467 -18.1769 5.65947e-12
-18.1769 537.993 -5.33973e-12
5.65947e-12 -5.33973e-12 534.262

502.575 15.4593 3.56278e-12
15.4593 452.12 -3.5086e-12
3.56278e-12 -3.5086e-12 480.211

586.351 9.86403 -6.51001e-12
9.86403 642.136 1.68413e-12
-6.51001e-12 1.68413e-12 563.106

636.659 19.2273 4.62104e-12
19.2273 591.725 -2.34342e-12
4.62104e-12 -2.34342e-12 562.928

569.779 11.3065 -4.88202e-13
11.3065 544.342 1.15596e-12
-4.88202e-13 1.15596e-12 536.439

353.446 -15.3395 -5.39302e-12
-15.3395 231.518 1.8557e-12
-5.39302e-12 1.8557e-12 219.016

437.211 24.9643 1.058e-11
24.9643 461.917 1.61056e-13
1.058e-11 1.61056e-13 445.726

317.093 -61.355 5.99224e-12
-61.355 277.851 -7.2049e-12
5.99224e-12 -7.2049e-12 218.091

334.212 -57.4576 1.07197e-11
-57.4576 357.326 3.94114e-12
1.07197e-11 3.94114e-12 252.542

383.338 -36.5443 -8.71599e-13
-36.5443 305.742 -2.61598e-12
-8.71599e-13 -2.61598e-12 257.762

562.499 -5.15893 -5.13219e-13
-5.15893 616.953 3.96572e-13
-5.13219e-13 3.96572e-13 552.953

562.206 2.89125 2.179e-12
2.89125 615.819 5.77938e-12
2.179e-12 5.77938e-12 552.552

598.772 -24.4559 -9.99793e-13
-24.4559 575.745 -1.84519e-13
-9.99793e-13 -1.84519e-13 551.582

602.331 -21.7601 -1.21074e-12
-21.7601 573.436 1.5925e-12
-1.21074e-12 1.5925e-12 551.848

598.785 26.1356 -2.55618e-12
26.1356 580.46 2.78577e-12
-2.55618e-12 2.78577e-12 552.737

625.743 3.09919 3.43992e-12
3.09919 630.736 -8.61903e-14
3.43992e-12 -8.61903e-14 568.423

599.062 -20.5086 -1.57652e-12
-20.5086 576.356 3.08457e-12
-1.57652e-12 3.08457e-12 552.27

607.812 -18.5681 -6.99885e-13
-18.5681 620.264 -1.58582e-11
-6.99885e-13 -1.58582e-11 563.188

632.901 2.43432 3.81606e-12
2.43432 635.527 -9.01945e-13
3.81606e-12 -9.01945e-13 570.508

607.888 -20.5259 -6.80937e-13
-20.5259 572.429 -5.65414e-12
-6.80937e-13 -5.65414e-12 553.409

607.074 20.9555 -3.98489e-12
20.9555 573.687 -6.86562e-13
-3.98489e-12 -6.86562e-13 553.813

633.853 -3.45832 -1.02422e-12
-3.45832 636.779 -8.36294e-12
-1.02422e-12 -8.36294e-12 571.282

632.183 -3.11691 2.17092e-11
-3.11691 625.758 -2.35828e-11
2.17092e-11 -2.35828e-11 569.397

609.683 12.1097 -3.91257e-12
12.1097 620.486 9.95197e-12
-3.91257e-12 9.95197e-12 563.92

587.205 26.9293 -1.35003e-12
26.9293 583.021 -1.58732e-12
-1.35003e-12 -1.58732e-12 551.706

FIELD solute_concentration_TPM 2
S_ext 1 563 float
0.965091
0.964905
0.964925
0.964907
0.964877
0.964925
0.96509
0.964916
0.964941
0.964909
0.965052
0.964916
0.96492
0.964908
0.964885
0.964923
0.9649
0.964915
0.964945
0.964928
0.964934
0.964826
0.96493
0.964928
0.964928
0.964911
0.965043
0.964923
0.964991
0.964853
0.964921
0.96499
0.965047
0.964861
0.96486
0.964861
0.964849
0.964863
0.964921
0.965047
0.964991
0.964848
0.964848
0.96492
0.965023
0.96499
0.964943
0.964938
0.964924
0.965
0.964995
0.964976
0.964875
0.964977
0.964877
0.965029
0.96486
0.964976
0.96486
0.964926
0.964899
0.964892
0.965039
0.964894
0.964892
0.964905
0.964899
0.964912
0.964929
0.964905
0.964876
0.964876
0.964992
0.964901
0.964925
0.965051
0.964887
0.964905
0.964912
0.964969
0.965008
0.964873
0.964895
0.96501
0.96499
0.965026
0.964923
0.964904
0.965023
0.964834
0.964976
0.964835
0.964884
0.964907
0.964976
0.964994
0.96501
0.964909
0.964887
0.964921
0.964958
0.964987
0.96501
0.964911
0.964911
0.96491
0.964894
0.964923
0.965011
0.9649
0.964926
0.96502
0.965014
0.964913
0.96491
0.964978
0.964862
0.965012
0.964863
0.964976
0.964949
0.964885
0.964904
0.9649
0.9649
0.964883
0.964866
0.964909
0.96501
0.964975
0.964874
0.964905
0.964895
0.964904
0.964988
0.964859
0.96502
0.96492
0.964895
0.964859
0.964985
0.964913
0.964949
0.964909
0.965013
0.96491
0.964915
0.964927
0.964925
0.964962
0.964938
0.964904
0.964989
0.96492
0.964909
0.964905
0.964907
0.964985
0.964984
0.964917
0.964938
0.964989
0.965022
0.964993
0.964983
0.964909
0.964984
0.964985
0.96499
0.964983
0.964883
0.964976
0.964994
0.964906
0.964976
0.964895
0.964883
0.964917
0.964877
0.964912
0.964992
0.964909
0.964909
0.964984
0.964903
0.964996
0.9649
0.964896
0.964885
0.964909
0.964903
0.965008
0.964976
0.96499
0.964905
0.964914
0.964913
0.964895
0.964904
0.964906
0.964904
0.964944
0.964969
0.964896
0.964992
0.964895
0.964906
0.964987
0.964891
0.964904
0.964892
0.96491
0.964911
0.964895
0.96496
0.964909
0.964968
0.964897
0.9649
0.964899
0.9649
0.9649
0.9649
0.9649
0.964909
0.964885
0.964885
0.964884
0.964885
0.964878
0.964877
0.964962
0.964907
0.964904
0.96494
0.964885
0.964885
0.964904
0.964968
0.964904
0.964909
0.964961
0.96489
0.964962
0.964895
0.964904
0.96496
0.964967
0.965009
0.965001
0.964895
0.965015
0.964921
0.964968
0.964945
0.964905
0.9649
0.96485
0.9649
0.965019
0.964967
0.964904
0.964916
0.964969
0.964899
0.964949
0.96485
0.964967
0.964899
0.964902
0.964913
0.964885
0.964905
0.964877
0.964919
0.965021
0.965027
0.964882
0.964932
0.964916
0.964963
0.96489
0.964906
0.964967
0.964907
0.964958
0.964915
0.964959
0.964967
0.96484
0.964882
0.964883
0.964883
0.964908
0.964958
0.964863
0.964902
0.964937
0.964957
0.964962
0.964881
0.964961
0.964886
0.964961
0.965023
0.964957
0.965014
0.964895
0.96496
0.96484
0.96496
0.964899
0.964962
0.9649
0.964961
0.964924
0.965046
0.964924
0.964961
0.96488
0.964961
0.964936
0.964903
0.964904
0.96496
0.964958
0.964949
0.964898
0.964957
0.964917
0.964923
0.964878
0.964958
0.96495
0.964935
0.964949
0.964959
0.964948
0.964893
0.964916
0.964949
0.964961
0.964913
0.964913
0.964958
0.964879
0.965059
0.964926
0.965009
0.964934
0.965116
0.965116
0.965114
0.965114
0.965111
0.965121
0.965121
0.964895
0.964868
0.964916
0.964937
0.964944
0.964949
0.964915
0.964949
0.96495
0.964869
0.964948
0.964892
0.964976
0.964886
0.964925
0.964938
0.964949
0.964883
0.964926
0.964936
0.964926
0.964936
0.964947
0.96497
0.964937
0.964927
0.96489
0.964944
0.964948
0.964944
0.964938
0.964927
0.964914
0.964944
0.964914
0.964927
0.964938
0.964916
0.964926
0.964947
0.964899
0.964936
0.964869
0.965023
0.964896
0.964893
0.964927
0.964936
0.964904
0.965059
0.964925
0.964936
0.965044
0.964844
0.964844
0.964924
0.964945
0.964935
0.964944
0.964826
0.964825
0.964913
0.964916
0.964917
0.965063
0.964947
0.964898
0.96494
0.964941
0.964938
0.965058
0.964902
0.964946
0.964926
0.964926
0.96494
0.964937
0.964941
0.96494
0.965046
0.965013
0.964936
0.964926
0.964935
0.964941
0.964937
0.964935
0.964935
0.965024
0.964887
0.964944
0.964905
0.964901
0.965026
0.964924
0.964925
0.964879
0.964838
0.964838
0.964881
0.964948
0.964926
0.965027
0.964841
0.964825
0.964824
0.96506
0.964862
0.964852
0.964928
0.964885
0.964917
0.964907
0.964898
0.964898
0.964918
0.965058
0.964924
0.964908
0.964899
0.965052
0.964857
0.965051
0.964897
0.964911
0.96496
0.964919
0.964918
0.964873
0.964914
0.964873
0.964925
0.9649
0.964856
0.964856
0.965028
0.964906
0.965093
0.965093
0.965093
0.964903
0.965064
0.965094
0.964942
0.965092
0.964872
0.964872
0.965092
0.964931
0.965049
0.965097
0.965048
0.965097
0.965048
0.964861
0.965033
0.965063
0.96509
0.964919
0.964893
0.965051
0.964918
0.965091
0.964912
0.964931
0.965097
0.965052
0.965098
0.965059
0.964927
0.964868
0.964824
0.964826
0.964908
0.964825
0.964824
0.964826
0.964836
0.96503
0.964856
0.964882
0.964869
0.964911
0.964834
0.964834
0.964868
0.96506
0.964933
0.965067
0.965055
0.965047
0.964842
0.964842
0.964844
0.964844
0.964841
0.964829
0.964847
0.964835
0.964828
0.964844
0.964844
0.964828
0.964828
0.964834
0.964846
P_ext 1 563 float
0.0189137
0.018909
0.0189097
0.0189091
0.0189073
0.0189097
0.0189137
0.0189094
0.0189102
0.0189091
0.0189129
0.0189094
0.0189095
0.0189091
0.0189078
0.0189097
0.0189087
0.0189093
0.0189103
0.0189098
0.01891
0.0189042
0.0189099
0.0189098
0.0189098
0.0189092
0.0189127
0.0189096
0.0189116
0.0189059
0.0189096
0.0189115
0.0189128
0.0189064
0.0189064
0.0189064
0.0189057
0.0189065
0.0189095
0.0189128
0.0189115
0.0189057
0.0189057
0.0189096
0.0189123
0.0189115
0.0189103
0.0189102
0.0189097
0.0189118
0.0189116
0.0189112
0.0189073
0.0189112
0.0189074
0.0189124
0.0189064
0.0189112
0.0189064
0.0189098
0.0189087
0.0189083
0.0189126
0.0189084
0.0189083
0.0189088
0.0189087
0.0189093
0.0189099
0.0189089
0.0189073
0.0189074
0.0189116
0.0189086
0.0189098
0.0189129
0.0189079
0.0189089
0.0189092
0.018911
0.0189119
0.0189072
0.0189084
0.018912
0.0189115
0.0189124
0.0189096
0.0189087
0.0189123
0.0189045
0.0189112
0.0189045
0.0189078
0.0189089
0.0189112
0.0189116
0.018912
0.0189091
0.0189079
0.0189096
0.0189107
0.0189115
0.018912
0.0189093
0.0189092
0.0189092
0.0189083
0.0189096
0.018912
0.0189088
0.0189098
0.0189122
0.0189121
0.0189093
0.0189092
0.0189112
0.0189064
0.018912
0.0189064
0.0189112
0.0189105
0.0189079
0.018909
0.0189087
0.0189087
0.0189078
0.0189066
0.0189091
0.018912
0.0189112
0.0189072
0.0189091
0.0189085
0.018909
0.0189115
0.0189063
0.0189122
0.0189095
0.0189084
0.0189063
0.0189114
0.0189092
0.0189104
0.0189091
0.0189121
0.0189092
0.0189092
0.0189097
0.0189097
0.0189108
0.0189101
0.0189089
0.0189115
0.0189095
0.0189091
0.018909
0.018909
0.0189114
0.0189114
0.0189095
0.0189101
0.0189115
0.0189123
0.0189116
0.0189114
0.0189092
0.0189114
0.0189114
0.0189115
0.0189114
0.0189077
0.0189112
0.0189116
0.018909
0.0189112
0.0189084
0.0189077
0.0189093
0.0189074
0.0189092
0.0189116
0.0189092
0.0189091
0.0189114
0.0189088
0.0189117
0.0189087
0.0189084
0.0189077
0.0189092
0.0189087
0.018912
0.0189112
0.0189115
0.018909
0.0189094
0.0189093
0.0189085
0.018909
0.0189089
0.018909
0.0189103
0.018911
0.0189085
0.0189116
0.0189084
0.0189088
0.0189114
0.0189081
0.0189089
0.0189081
0.0189091
0.0189092
0.0189084
0.0189108
0.018909
0.018911
0.0189085
0.0189087
0.0189087
0.0189088
0.0189088
0.0189088
0.0189088
0.0189091
0.0189079
0.0189079
0.0189078
0.0189079
0.0189073
0.0189073
0.0189108
0.018909
0.018909
0.0189102
0.0189078
0.0189078
0.018909
0.018911
0.018909
0.0189091
0.0189108
0.0189081
0.0189108
0.0189084
0.018909
0.0189108
0.018911
0.018912
0.0189118
0.0189085
0.0189121
0.0189096
0.018911
0.0189103
0.018909
0.0189087
0.0189057
0.0189088
0.0189122
0.0189109
0.018909
0.0189093
0.018911
0.0189087
0.0189104
0.0189057
0.018911
0.0189087
0.0189087
0.0189094
0.0189078
0.0189087
0.0189074
0.0189095
0.0189122
0.0189124
0.0189076
0.01891
0.0189094
0.0189108
0.0189081
0.018909
0.018911
0.0189089
0.0189107
0.0189092
0.0189107
0.018911
0.0189051
0.0189076
0.0189078
0.0189078
0.0189091
0.0189107
0.0189065
0.0189088
0.0189101
0.0189107
0.0189109
0.0189076
0.0189108
0.0189078
0.0189108
0.0189123
0.0189107
0.0189121
0.0189084
0.0189108
0.018905
0.0189108
0.0189085
0.0189108
0.0189086
0.0189108
0.0189097
0.0189128
0.0189097
0.0189108
0.0189075
0.0189108
0.01891
0.0189087
0.018909
0.0189108
0.0189107
0.0189104
0.0189084
0.0189107
0.0189094
0.0189096
0.0189074
0.0189107
0.0189105
0.01891
0.0189105
0.0189108
0.0189104
0.0189082
0.0189094
0.0189105
0.0189108
0.0189092
0.0189092
0.0189107
0.0189075
0.018913
0.0189097
0.018912
0.01891
0.0189142
0.0189142
0.0189141
0.0189141
0.0189141
0.0189143
0.0189143
0.0189083
0.0189067
0.0189094
0.01891
0.0189103
0.0189105
0.0189092
0.0189104
0.0189105
0.0189067
0.0189104
0.0189081
0.0189112
0.018908
0.0189097
0.0189101
0.0189105
0.0189076
0.0189097
0.0189101
0.0189097
0.01891
0.0189104
0.018911
0.0189101
0.0189097
0.0189081
0.0189103
0.0189105
0.0189103
0.0189101
0.0189097
0.0189092
0.0189103
0.0189092
0.0189097
0.0189101
0.0189093
0.0189098
0.0189104
0.0189086
0.01891
0.0189069
0.0189123
0.0189084
0.0189082
0.0189097
0.0189101
0.0189088
0.018913
0.0189097
0.0189101
0.0189127
0.0189052
0.0189051
0.0189096
0.0189104
0.01891
0.0189103
0.0189039
0.0189039
0.0189093
0.0189093
0.0189093
0.0189131
0.0189104
0.0189085
0.0189102
0.0189103
0.0189101
0.018913
0.0189086
0.0189104
0.0189097
0.0189097
0.0189102
0.0189101
0.0189102
0.0189102
0.0189128
0.0189121
0.0189101
0.0189097
0.0189101
0.0189103
0.0189101
0.01891
0.01891
0.0189123
0.0189079
0.0189103
0.0189089
0.0189087
0.0189123
0.0189097
0.0189098
0.0189074
0.0189051
0.0189051
0.0189075
0.0189105
0.0189097
0.0189124
0.0189052
0.0189041
0.0189041
0.0189131
0.0189065
0.0189059
0.0189098
0.0189078
0.0189095
0.018909
0.0189086
0.0189085
0.0189093
0.018913
0.0189097
0.0189089
0.0189086
0.0189129
0.0189062
0.0189129
0.0189086
0.0189091
0.0189107
0.0189096
0.0189094
0.0189072
0.0189093
0.0189072
0.0189097
0.0189086
0.018906
0.018906
0.0189124
0.0189089
0.0189137
0.0189137
0.0189137
0.0189087
0.0189132
0.0189137
0.0189103
0.0189137
0.0189071
0.0189071
0.0189137
0.0189099
0.0189128
0.0189138
0.0189128
0.0189138
0.0189128
0.0189064
0.0189125
0.0189131
0.0189137
0.0189095
0.0189083
0.0189129
0.0189094
0.0189137
0.0189092
0.0189099
0.0189138
0.0189129
0.0189138
0.018913
0.0189098
0.0189069
0.0189042
0.0189043
0.018909
0.0189042
0.0189042
0.0189042
0.0189048
0.0189124
0.0189061
0.0189076
0.0189068
0.0189091
0.0189047
0.0189047
0.0189067
0.0189131
0.01891
0.0189132
0.018913
0.0189128
0.0189053
0.0189053
0.0189054
0.0189054
0.0189053
0.0189043
0.0189054
0.0189046
0.0189041
0.0189053
0.0189053
0.0189042
0.0189043
0.0189046
0.0189054
FIELD solute_flux_TPM 2
S_ext 3 563 float
-5.27814e-05 1.76522e-05 -1.54178e-19
2.34225e-06 4.45776e-06 -3.44186e-19
-8.23577e-06 -6.52814e-06 -3.00974e-18
-2.71491e-06 2.74087e-06 9.96722e-19
1.51689e-05 -4.34355e-06 1.38098e-18
1.78066e-06 -1.02714e-05 1.65575e-18
-5.19754e-05 -1.7867e-05 -1.37876e-18
-9.02227e-06 -6.68767e-06 -1.84941e-18
1.42991e-05 6.11051e-07 -1.16265e-18
7.46e-06 -2.63995e-06 -6.69806e-19
3.51551e-05 8.18439e-06 -3.58548e-18
1.48646e-06 -1.11553e-05 6.58502e-19
8.9135e-06 7.23559e-06 1.16761e-18
1.76855e-06 8.93128e-06 1.16527e-18
1.37527e-05 -2.02922e-06 3.5872e-18
-1.04429e-05 -1.70259e-07 2.84517e-18
1.85715e-06 9.23087e-06 1.00178e-18
6.64099e-06 -1.59652e-06 -3.55939e-22
6.36742e-06 1.10986e-05 4.92526e-19
-9.51446e-06 1.20652e-06 -8.30124e-19
-2.28763e-06 -1.36746e-05 1.14303e-18
2.86284e-05 4.03944e-05 5.21059e-19
1.02023e-05 1.04427e-06 -2.66442e-18
7.3045e-06 -7.29212e-06 -1.83779e-18
-9.6534e-06 -2.14322e-06 9.97166e-19
-4.03225e-07 -7.2048e-06 -2.69711e-18
4.03416e-05 -3.15562e-06 -2.8284e-18
9.19003e-06 6.65455e-06 3.00249e-18
-1.59872e-05 -1.29838e-05 -3.06664e-18
3.24248e-05 -8.58947e-06 2.09276e-18
-1.0626e-05 -3.93375e-06 5.19212e-18
3.41863e-06 -2.05016e-05 -8.199e-19
3.02672e-05 -3.08487e-05 9.3987e-19
-3.45842e-06 -2.76914e-05 1.79306e-19
-1.95772e-05 2.43593e-05 -2.25974e-18
-2.57095e-05 -1.084e-05 1.60016e-19
2.15032e-05 2.81491e-05 -4.35732e-18
-2.95815e-05 -5.80072e-06 2.58796e-18
9.42339e-06 -7.13928e-06 -2.84729e-18
2.957e-05 3.21452e-05 -1.25179e-18
2.06426e-05 -9.03035e-06 -1.61573e-18
2.1928e-05 -2.70941e-05 -3.16541e-18
-1.2507e-05 -3.25164e-05 -1.04097e-18
-1.01791e-05 4.14041e-06 -1.49902e-18
1.93763e-05 -1.8951e-05 7.87223e-19
-1.91487e-05 6.80658e-06 -1.60834e-18
-2.63183e-06 -1.30153e-05 3.16424e-19
5.06535e-06 1.29787e-05 -9.2446e-22
-1.05209e-05 3.83064e-06 -3.16865e-18
-1.1505e-05 1.80949e-05 3.68436e-18
2.08279e-05 9.8046e-06 -2.73061e-18
1.88364e-05 -6.54305e-06 4.8473e-19
-1.03881e-05 1.03958e-05 -1.89319e-18
-1.49168e-05 -1.29514e-05 -6.54106e-19
-1.39821e-05 -3.43134e-06 3.42052e-18
-2.82357e-05 1.68194e-05 1.26728e-18
-1.93813e-05 -2.50695e-05 -3.45729e-19
3.93435e-06 -1.95026e-05 -1.15063e-18
-3.14095e-05 4.29189e-06 -2.08997e-18
3.9144e-06 8.85098e-06 -3.36924e-19
-3.61427e-06 -5.39085e-06 1.79693e-19
-4.26542e-06 -1.18165e-05 -4.06788e-18
3.64504e-05 1.58825e-05 -3.0087e-18
6.14969e-06 1.18822e-05 4.4053e-18
8.15353e-06 -9.4798e-06 -5.35395e-19
-1.13451e-06 -1.35627e-05 -1.02018e-18
3.08328e-06 -5.76668e-06 -5.27988e-19
-6.4936e-06 -3.62887e-06 4.19928e-18
-6.85531e-06 7.61983e-06 -9.74103e-21
1.66146e-06 -2.76074e-06 -6.65019e-19
-9.95777e-06 -1.04569e-05 -4.45776e-18
-1.41023e-05 3.44046e-06 -4.8074e-21
-2.4538e-06 2.18358e-05 1.92765e-18
-1.16693e-05 6.99594e-06 -1.86382e-18
-5.85779e-06 9.33882e-06 -1.73805e-19
-3.76518e-05 4.68722e-06 -4.59574e-19
5.22379e-06 -1.42404e-05 -3.08526e-18
-1.23467e-05 -5.71707e-06 -6.75341e-19
1.22884e-06 7.55231e-06 1.67263e-18
1.69613e-05 3.25492e-06 1.46372e-18
2.18309e-05 -1.8599e-05 3.16113e-19
1.47397e-05 1.3549e-05 -2.07961e-18
7.94126e-06 -1.95075e-06 2.5469e-18
-2.03267e-05 1.48966e-05 -4.80959e-19
2.42863e-05 3.11566e-06 3.21108e-19
-3.50154e-06 3.11893e-05 -9.4526e-19
-1.12602e-06 -1.08813e-05 -1.51992e-18
1.19795e-05 6.49275e-06 1.69141e-18
1.8635e-05 1.95146e-05 1.41568e-18
4.25315e-05 2.64405e-05 -3.87024e-18
-3.46574e-06 1.95989e-05 -8.1351e-19
4.44259e-05 -2.4966e-05 -1.07157e-18
-1.79423e-05 3.44735e-06 4.78149e-18
1.17761e-05 7.29592e-06 -2.18698e-18
-1.87227e-05 6.23762e-06 -1.13899e-18
1.05572e-05 1.83155e-05 9.59519e-19
6.27671e-06 -2.81592e-05 -6.52346e-19
1.24146e-06 7.54864e-06 2.0088e-18
-9.65299e-06 -1.16148e-05 -3.07778e-18
1.95398e-06 1.12875e-05 8.314e-19
1.69991e-05 3.4066e-06 8.25076e-19
-9.86645e-06 2.09883e-05 1.931e-18
2.59307e-05 -8.64763e-06 7.93687e-19
-2.46346e-06 4.7818e-06 -2.68772e-18
6.5599e-06 3.79831e-06 8.38502e-19
-1.43994e-06 -7.32677e-06 -2.53481e-18
2.17059e-06 -1.26661e-05 1.17244e-18
1.13616e-05 2.55174e-06 5.01274e-19
-5.2396e-06 2.60573e-05 -6.34392e-19
-6.48739e-06 1.09515e-07 -3.47113e-21
6.07123e-06 7.67548e-06 9.9446e-19
-1.71799e-06 -2.65595e-05 -2.70119e-18
2.68915e-05 8.35229e-06 -1.91578e-18
2.91135e-06 -4.81099e-06 -1.51656e-18
-7.174e-06 -2.32651e-06 2.69545e-18
-1.84937e-05 -7.87414e-06 -3.22677e-19
1.06221e-05 2.7743e-05 -6.91748e-19
-2.71654e-05 -9.6814e-06 1.58458e-19
1.07704e-05 -2.78169e-05 -3.29232e-18
-2.39787e-06 -2.03104e-05 1.29218e-18
1.41226e-05 3.86357e-07 -1.48999e-18
-4.73706e-06 1.22111e-05 5.0099e-19
-1.05436e-06 2.56698e-06 -1.01475e-18
-2.46763e-06 -1.08392e-05 -7.70935e-21
3.46245e-06 -5.5984e-06 3.04092e-18
6.21032e-06 1.04578e-05 -2.73605e-18
2.23192e-05 7.29806e-06 1.03017e-18
5.72357e-06 -4.80776e-06 -1.35327e-18
-5.37857e-06 -2.85013e-05 2.54934e-18
1.64082e-05 -1.20915e-05 9.77483e-19
3.30473e-06 1.83936e-05 2.73127e-18
-1.80485e-06 -1.86689e-06 1.39947e-20
-5.70069e-06 -5.45557e-06 1.68435e-18
-3.13109e-06 7.30567e-08 -1.69046e-18
-1.45172e-05 1.79195e-05 1.12868e-18
1.29191e-05 -2.498e-05 -3.30093e-18
-1.69375e-05 2.6773e-05 -6.37079e-19
-1.0521e-05 6.14371e-06 -1.33809e-18
1.64727e-06 8.15025e-06 -1.17276e-18
-1.51449e-05 -2.36596e-05 1.38353e-18
8.80269e-06 2.13415e-05 4.81921e-19
1.15272e-05 6.02939e-06 8.42749e-19
1.47223e-05 -5.5677e-06 4.92315e-19
-8.37078e-07 -7.32032e-06 -9.85612e-21
-2.13354e-05 -1.96209e-05 -3.52662e-18
-1.74976e-06 7.32984e-06 1.1602e-18
1.13225e-05 6.68462e-06 -8.37148e-19
1.23035e-05 -5.82359e-06 9.97718e-19
5.39085e-06 -9.24376e-06 8.24366e-19
1.57071e-05 -6.96071e-06 -2.62998e-18
1.23431e-05 -5.845e-06 3.80896e-18
3.1218e-06 2.07728e-07 -1.02034e-18
1.64527e-05 1.30252e-05 -1.29459e-18
-1.71891e-06 -1.09704e-05 -1.1849e-18
-6.82689e-06 -2.82999e-06 -2.02364e-18
7.62024e-07 -2.52015e-06 -1.88918e-19
-2.11831e-06 1.03123e-05 3.02432e-18
-2.18941e-05 1.73159e-06 -6.39663e-19
-7.73969e-06 -2.10044e-05 -1.47401e-18
-5.09793e-06 6.2756e-06 -7.3097e-21
8.75902e-06 1.06867e-05 1.32683e-18
1.69777e-05 -1.21089e-05 -1.12736e-18
-2.32678e-05 -1.26172e-05 -2.38337e-18
1.10355e-05 -1.76896e-05 1.2774e-18
1.45517e-05 -1.74209e-05 4.85125e-19
-7.05545e-06 2.50031e-06 -2.17793e-18
-1.25812e-05 -1.81062e-05 4.77193e-19
-2.18756e-05 -3.64202e-06 -1.78122e-18
-2.64085e-06 -2.01391e-05 2.40648e-18
9.76824e-06 -2.02192e-05 2.26025e-18
-6.06612e-06 -1.72998e-05 -8.5296e-19
2.80107e-06 1.99973e-05 9.74016e-19
-1.01574e-05 -1.79975e-05 8.01292e-19
1.99643e-06 -1.06111e-05 1.32753e-18
-1.56897e-05 1.14174e-05 1.6296e-18
-9.8401e-06 -7.98742e-06 6.82331e-19
-1.80607e-05 -3.33881e-06 -1.54324e-18
1.02675e-05 -6.03572e-06 2.84867e-18
-2.82423e-06 1.58404e-05 -1.21075e-18
8.10966e-06 -6.06177e-06 9.99518e-19
-1.86898e-05 -8.19193e-06 -2.41787e-18
-5.75572e-06 -4.78226e-06 -1.01784e-18
5.9975e-06 4.85405e-06 -3.02346e-18
1.36743e-05 1.83532e-05 1.13018e-18
-1.13702e-05 -7.05897e-06 2.36907e-18
-2.04934e-05 -4.95791e-07 1.44759e-18
-1.07293e-05 -3.19598e-06 3.29516e-19
-3.02209e-06 -1.08518e-05 2.19953e-18
1.17967e-05 1.42496e-05 2.22376e-18
-7.16177e-06 3.74217e-06 -1.34793e-18
4.58217e-07 -1.34143e-05 2.86694e-18
-2.63015e-05 6.74854e-06 2.72837e-18
1.59649e-05 1.29778e-05 -3.19963e-19
2.31544e-06 2.09644e-05 4.83389e-18
-1.55556e-06 2.50768e-06 2.69101e-18
-5.81117e-06 1.6248e-07 -2.16752e-18
2.85623e-06 5.00672e-06 -4.19324e-18
-7.69918e-06 2.2885e-06 1.17529e-18
-1.34581e-06 -2.44195e-06 -6.77779e-19
1.13653e-06 1.35407e-05 -3.48622e-19
2.99171e-06 2.3129e-07 -1.34189e-18
-1.24577e-05 3.01262e-06 8.27334e-19
-1.10839e-05 1.22491e-05 -8.20044e-19
-2.00642e-06 7.64116e-06 -1.35994e-18
-1.85358e-05 1.15555e-05 -1.12848e-18
-6.1863e-06 5.88658e-06 4.05152e-18
1.14168e-05 -7.76469e-06 -2.19668e-18
2.34564e-05 -2.33413e-06 -9.93806e-21
-1.39313e-05 7.38962e-06 -1.19145e-18
1.44579e-06 2.98294e-06 -2.68385e-18
1.45497e-05 -2.79466e-06 2.54518e-18
-1.12243e-05 6.786e-06 -3.36866e-19
-6.37298e-06 3.62016e-06 -6.70961e-19
7.9344e-06 2.575e-06 -3.70425e-21
1.40727e-05 -8.72886e-06 -9.84114e-19
-1.13121e-05 6.4242e-06 1.85367e-18
-1.58649e-05 -3.33597e-06 -1.6181e-19
-1.09663e-05 -2.80395e-06 6.72754e-19
6.64192e-06 7.34821e-08 -1.35524e-18
6.80231e-06 6.0898e-08 2.02261e-18
2.92125e-06 5.45693e-06 2.84509e-18
3.21519e-06 -5.76958e-06 -2.88633e-18
-3.26728e-06 5.57689e-06 -3.37017e-19
-3.42129e-06 -5.70562e-06 2.36891e-18
6.49186e-06 -4.93625e-06 1.17947e-18
-1.34608e-05 2.17053e-06 4.41761e-18
-1.33092e-05 -2.21291e-06 -2.89671e-18
-8.51817e-06 1.05098e-05 -3.58259e-18
-8.56575e-06 -1.05499e-05 -5.12408e-19
4.97165e-06 -1.33565e-05 8.63344e-19
4.79e-06 1.32433e-05 -1.67275e-19
9.56406e-07 1.65808e-05 6.47548e-19
7.44794e-06 -1.9626e-06 -1.75032e-19
1.60901e-06 -2.49902e-06 3.20772e-19
-1.36042e-05 9.21397e-07 6.64692e-19
5.1306e-06 -1.31418e-05 -8.42241e-19
4.86163e-06 1.31889e-05 -2.37614e-18
3.14369e-06 -5.83333e-08 -1.606e-19
5.69932e-06 1.56657e-05 9.72011e-19
-1.46234e-06 -2.60624e-06 -6.87155e-19
1.51814e-06 -7.35489e-06 -3.20077e-18
-1.42543e-05 -7.64151e-06 2.6187e-18
-1.40675e-05 -7.52377e-06 2.03415e-18
-1.39457e-05 8.62989e-06 1.31078e-18
2.12851e-06 -8.25292e-06 -6.69489e-19
-1.0394e-06 2.18157e-06 -3.38575e-19
-4.64128e-07 -1.63062e-05 -1.76791e-19
-5.01099e-06 -1.55086e-05 -1.78649e-19
2.08941e-05 1.94534e-05 1.51205e-19
2.28125e-05 -1.17692e-06 -3.37029e-18
-8.38743e-06 -2.45311e-06 -3.38815e-18
-1.45516e-05 -2.59169e-05 1.59792e-18
5.40184e-06 8.8672e-06 3.28792e-19
-1.59898e-05 1.88688e-06 4.90816e-19
1.30001e-05 3.72723e-06 1.64524e-18
-2.94144e-06 -1.23552e-08 6.80181e-19
-3.07363e-06 -5.52699e-06 1.67706e-18
-5.43358e-06 -2.58406e-05 -2.434e-18
-6.40491e-06 -1.19565e-08 1.00039e-18
-3.02492e-05 -1.13515e-06 -7.94469e-19
1.10874e-05 -1.23197e-05 3.1622e-19
1.63769e-06 2.58957e-06 8.31703e-19
-8.42973e-08 -1.13596e-05 8.25216e-19
-6.36159e-06 1.52823e-05 2.76313e-18
-2.89289e-06 5.66814e-06 1.84072e-18
1.32963e-05 -8.77259e-06 -1.49127e-18
-2.50919e-05 -8.19505e-06 -2.09678e-18
-9.77077e-06 -1.2901e-05 2.76557e-18
3.29787e-06 5.60839e-06 -1.83961e-18
1.10489e-05 3.28788e-06 -1.85268e-18
-3.07712e-06 -4.70973e-06 -1.68599e-18
1.32951e-05 2.43631e-06 3.42902e-19
1.20517e-05 -6.45164e-06 1.65092e-19
-2.43521e-07 1.79192e-05 1.36718e-18
5.42827e-06 -8.82347e-06 4.00277e-18
3.12585e-05 1.3306e-06 -3.01717e-18
-2.65577e-05 6.91736e-06 6.36342e-19
1.53141e-05 7.6378e-06 5.45347e-21
-4.14479e-06 -1.09743e-05 -1.84303e-18
-9.92866e-06 -5.53871e-06 -1.85108e-18
1.85068e-05 -1.52389e-07 1.63915e-18
-4.82649e-07 -1.59898e-05 -1.70885e-18
-8.14823e-06 -7.13087e-06 3.71484e-18
6.51411e-06 -1.50983e-05 -1.15585e-18
-3.74875e-07 1.33995e-05 2.85608e-18
5.00682e-06 1.66687e-05 1.31017e-18
1.13402e-05 -6.51662e-06 -3.79807e-21
-1.20844e-05 1.21613e-05 -9.88947e-19
1.05768e-05 1.28888e-05 1.29898e-18
-4.32615e-05 1.0317e-05 -2.28559e-18
-6.73841e-06 1.71792e-05 2.21733e-18
8.31039e-06 -1.00745e-05 -2.07634e-18
-4.61369e-06 -1.21609e-05 -2.20604e-18
-7.74094e-06 2.85121e-06 -3.38133e-19
-1.63693e-05 -4.4767e-06 8.18074e-19
-4.46305e-06 2.60266e-05 1.65817e-19
-8.17873e-06 7.85794e-06 -4.05844e-18
1.34619e-05 -2.96697e-06 9.91339e-19
-4.39209e-06 -1.64201e-05 3.60615e-18
-9.49431e-06 1.51128e-05 2.2885e-18
-1.43534e-05 8.27447e-06 -1.37126e-18
-1.30866e-05 -9.54029e-06 -3.34256e-19
1.20408e-05 -1.39223e-05 1.36379e-18
-1.73718e-05 -9.22793e-07 1.47753e-18
7.64297e-06 -2.6176e-05 1.89729e-18
1.24788e-05 -1.2142e-05 6.52653e-19
1.5638e-05 2.74685e-05 1.27726e-18
1.29645e-06 1.30421e-05 4.90456e-18
1.86663e-06 -1.62871e-05 1.2999e-18
-2.81396e-05 3.30387e-05 -7.03028e-19
-8.09744e-06 -1.54557e-05 -8.30005e-19
1.09305e-05 -4.20617e-06 -3.38798e-18
-1.63619e-06 1.64165e-05 -1.31697e-18
8.51189e-06 -7.95278e-06 -8.42004e-19
8.87103e-06 1.55557e-05 8.19808e-19
1.1193e-05 -9.59678e-07 8.28022e-19
1.36792e-05 -4.0053e-05 7.91105e-19
-3.77877e-06 -8.25634e-06 -1.67868e-18
-1.47299e-05 6.32664e-06 -4.0919e-18
-1.32416e-05 1.2394e-05 1.534e-18
1.38871e-05 9.39687e-06 1.64298e-18
1.21137e-05 -7.0166e-06 -2.82191e-18
9.82353e-06 8.3523e-06 -3.20642e-18
-3.58761e-06 -2.45635e-08 -2.87795e-21
9.85608e-06 -1.47869e-05 -1.1576e-18
-1.08248e-05 -1.28794e-05 9.73722e-19
1.45544e-05 6.33317e-06 1.16187e-18
8.47928e-06 -7.99114e-06 -1.18909e-18
6.0653e-06 -1.59017e-05 -6.69876e-19
1.08841e-05 -4.63326e-06 8.30705e-19
-1.01649e-05 -4.8518e-06 3.8413e-18
8.83449e-07 -1.73327e-05 -8.56191e-19
-1.65123e-05 2.84654e-06 -9.81524e-19
1.45687e-06 1.57074e-05 -4.95605e-19
1.33366e-05 4.32782e-06 -8.25144e-19
-1.38116e-05 -6.81553e-06 1.97154e-18
-5.74931e-06 1.62899e-05 -2.47045e-18
-9.61933e-07 -1.54886e-05 3.77987e-18
1.29374e-05 7.86348e-06 1.19227e-18
-1.09153e-06 1.17252e-05 3.17151e-18
-1.28595e-05 8.64234e-06 -1.98297e-18
1.51711e-05 7.336e-06 2.13664e-18
-1.10391e-05 -6.5246e-06 3.53514e-18
1.32629e-07 -1.28808e-05 1.82829e-18
1.18216e-05 1.28107e-05 -2.13097e-18
-1.4557e-05 -9.41937e-06 -6.31256e-21
3.0918e-05 -2.21206e-05 -4.6864e-19
1.17024e-05 -7.02822e-06 -6.74914e-19
5.5214e-06 2.73624e-05 4.76256e-19
1.10877e-05 -8.82373e-06 -2.33261e-18
-1.43821e-05 5.54828e-05 1.41688e-19
-1.44568e-05 -5.49552e-05 -8.8047e-19
3.61185e-05 4.72085e-05 -1.19277e-18
3.56842e-05 -4.7197e-05 1.45484e-19
5.89708e-05 -2.90265e-08 -2.37491e-18
-5.07425e-05 2.05621e-05 -2.51367e-18
-4.99195e-05 -2.07767e-05 -1.34716e-18
8.10981e-06 7.85659e-06 1.69692e-18
1.97245e-05 1.46949e-05 -3.33767e-19
7.46905e-06 2.18901e-06 -1.00388e-18
1.22571e-05 6.3022e-06 1.16635e-18
3.18438e-06 1.29827e-05 1.32106e-18
-1.20258e-05 -9.462e-06 8.16061e-19
1.12558e-05 -6.6376e-06 1.60891e-19
1.2842e-05 9.35398e-06 1.48822e-18
-2.0407e-06 1.55963e-05 -2.642e-18
1.98223e-05 -1.34917e-05 3.95394e-18
2.36585e-06 -1.52092e-05 -6.73824e-19
1.46301e-05 3.35213e-06 4.20307e-21
1.91645e-05 7.12283e-06 4.93915e-19
9.42112e-06 9.33386e-06 4.96831e-19
1.03485e-05 4.29911e-06 -2.00137e-18
-1.18598e-05 6.99246e-06 -2.49072e-18
-1.43564e-05 5.75926e-06 -2.97089e-18
1.53769e-05 -7.49045e-06 -1.54635e-18
-1.17237e-05 -6.44157e-06 1.49948e-18
-1.18884e-05 -6.72491e-06 2.65015e-18
-1.98282e-07 -1.34076e-05 1.15618e-18
-9.95577e-08 -1.35988e-05 1.97386e-18
-1.28124e-05 -6.4555e-07 -3.33457e-19
1.72143e-05 -2.61014e-06 3.20695e-19
1.1738e-05 7.35872e-06 3.81491e-18
-1.1518e-05 6.97588e-06 -1.6677e-18
-1.00383e-05 1.09682e-05 -2.2203e-18
1.03577e-05 -8.90667e-06 -2.48657e-18
-7.10213e-06 1.1115e-05 -9.97581e-19
-9.10978e-06 -9.47704e-06 9.77215e-19
-7.91699e-07 1.36036e-05 -3.43629e-19
-8.04516e-07 1.35345e-05 -2.84705e-18
2.75412e-08 -1.28841e-05 1.32752e-18
3.92333e-06 -1.27034e-05 -1.66397e-18
-1.11145e-05 -6.39109e-06 1.67828e-18
1.01421e-05 -3.60494e-06 6.58884e-19
4.17821e-07 1.38276e-05 1.82228e-18
1.76309e-07 1.19823e-05 2.5048e-18
-1.52704e-06 1.08382e-05 5.6537e-18
1.41547e-05 -3.58252e-06 3.22251e-19
-1.08965e-05 3.43416e-06 2.36505e-18
2.62033e-06 1.38406e-05 4.94736e-19
-2.16761e-05 8.49177e-06 3.43078e-19
5.99881e-06 2.67433e-05 1.89791e-18
-1.11919e-05 2.9366e-06 -2.88325e-18
1.31309e-05 -7.77459e-06 2.03198e-18
5.52958e-07 1.35652e-05 -2.67521e-18
-1.30528e-05 4.30658e-06 -1.16206e-18
1.62728e-06 -1.05847e-05 1.3338e-18
5.86633e-07 -3.70303e-05 -1.40155e-18
1.27952e-06 1.131e-05 -2.83625e-18
-1.09039e-05 8.89267e-06 -3.65819e-18
1.10255e-05 4.0571e-05 -2.3661e-18
3.15004e-05 2.61267e-05 -1.21974e-18
3.6114e-05 -2.47088e-05 2.25964e-18
9.68619e-06 -6.6229e-06 -6.77747e-19
-1.01315e-05 8.931e-06 1.47911e-18
-1.28934e-05 -5.09362e-06 3.15478e-18
-1.25283e-05 -4.3291e-06 4.78834e-18
4.44212e-05 -1.22074e-05 -1.96985e-18
4.53105e-05 9.52828e-06 -7.2726e-18
7.10745e-06 2.49836e-06 -3.18477e-18
4.32917e-07 1.2702e-05 1.66859e-18
5.36027e-08 1.26944e-05 -6.73943e-19
-3.08438e-05 -2.2574e-05 1.24157e-18
7.35756e-06 -1.10718e-05 -6.6471e-19
7.75778e-06 8.32729e-06 -1.00928e-18
-1.36091e-05 -2.18673e-06 4.95105e-19
-9.01066e-06 1.09161e-05 3.23995e-19
-1.20907e-05 5.82405e-06 -5.13531e-18
3.05335e-05 2.19007e-05 -1.0893e-18
1.04701e-05 4.61826e-06 2.04418e-21
-3.61986e-06 1.27889e-05 6.50937e-19
-1.09572e-05 -7.48616e-06 1.63359e-19
1.1478e-06 -1.32727e-05 1.65409e-18
-5.71764e-06 -1.2305e-05 -2.16681e-18
-1.10437e-05 -7.51329e-06 -1.00573e-18
6.80144e-06 -1.21661e-05 -1.99635e-18
9.15078e-06 -1.09176e-05 -3.48728e-18
-1.88256e-06 -3.87528e-05 7.80594e-19
1.6544e-05 -2.62357e-05 1.11371e-18
1.12076e-06 -1.33798e-05 1.14862e-18
1.17313e-05 7.33278e-06 -8.29749e-19
-9.30801e-06 -9.46332e-06 6.54876e-19
-6.30683e-06 1.25623e-05 -5.09842e-19
-3.22151e-06 1.3466e-05 4.89307e-19
1.08041e-05 9.15451e-06 1.99569e-18
3.86277e-06 -1.27847e-05 -1.17631e-18
-8.88016e-06 -2.54326e-05 1.42484e-18
-1.36312e-06 1.65195e-05 2.03883e-18
9.55351e-06 9.33146e-06 4.96789e-19
-8.39005e-06 -6.6595e-06 3.03939e-18
-8.82226e-06 6.93315e-06 -6.82798e-19
2.84606e-05 -1.22267e-05 -1.58455e-18
4.89692e-06 -8.64724e-06 -5.12294e-19
-5.37635e-06 -8.06865e-06 -1.50932e-18
1.43164e-05 4.37786e-06 -1.02863e-18
8.81674e-06 -3.18068e-05 -1.23193e-18
-2.31423e-05 -2.35183e-05 -8.75984e-19
1.56074e-05 4.07704e-06 3.25147e-18
-5.99974e-06 -1.16419e-05 -2.64932e-18
1.21814e-05 6.21099e-06 1.34061e-18
-1.83161e-05 -2.03425e-05 1.1043e-18
7.14048e-06 3.23385e-05 1.21294e-18
3.13432e-05 -4.0485e-05 -3.72448e-18
-1.93914e-05 -4.73762e-05 -2.47176e-18
1.72586e-05 -3.373e-05 1.70033e-18
-8.40281e-06 2.88853e-05 -2.2587e-18
-4.79253e-06 2.55768e-05 -1.39776e-18
-1.20395e-05 5.7836e-06 -2.00143e-18
4.00969e-06 1.59685e-05 2.55163e-18
-1.53825e-06 8.13985e-06 6.61031e-19
6.64055e-06 2.14945e-06 -3.18413e-18
-2.14672e-06 1.06362e-05 1.68439e-18
-1.56621e-07 1.37498e-05 5.0145e-19
1.09069e-05 6.36015e-06 -1.63302e-19
5.41944e-07 3.68551e-05 -1.07934e-18
-9.50585e-06 6.8285e-06 -3.33178e-19
1.05269e-05 -4.03786e-06 1.34337e-18
1.12767e-05 -2.89404e-06 -3.47088e-19
-3.77776e-05 -5.43312e-06 -7.87411e-19
-2.29228e-05 1.09092e-05 -1.38963e-18
-2.74124e-05 -3.25049e-05 3.46836e-18
5.71288e-06 5.46048e-06 3.20163e-18
9.30645e-06 4.842e-06 -6.69699e-19
1.72503e-05 -2.76178e-06 1.46872e-18
-5.21619e-06 -8.49026e-06 -3.52059e-18
1.12463e-05 5.55824e-06 -2.17618e-18
4.88168e-06 -1.98988e-05 3.32972e-19
-8.94881e-06 6.53105e-06 1.64735e-19
-1.47858e-05 -1.41743e-05 -4.46418e-18
-3.73821e-06 1.0476e-05 2.99226e-18
-2.21272e-06 1.35446e-05 -6.84615e-19
2.29006e-05 1.42203e-05 -1.90123e-18
2.44174e-05 -1.29536e-05 3.1157e-18
-2.64051e-05 -7.10912e-06 1.10824e-18
4.99021e-06 5.09819e-06 6.77305e-19
-3.0842e-06 6.44048e-05 -3.07837e-19
-8.80284e-09 -6.61559e-05 -7.72969e-19
3.26079e-05 5.58034e-05 2.99891e-19
-1.2528e-05 5.44178e-06 1.6645e-19
-1.74978e-05 3.5334e-05 1.88871e-21
3.28086e-05 -5.38612e-05 1.12057e-20
-7.50991e-06 -1.1613e-05 1.81143e-18
4.98881e-05 4.34258e-05 -2.31595e-18
1.59447e-05 -1.18492e-05 -2.26493e-18
-2.30689e-06 -1.97223e-05 -1.5435e-18
5.22714e-05 -4.2463e-05 -4.66671e-19
-4.36125e-06 9.29649e-06 -9.88778e-21
-3.35104e-05 -2.12872e-05 3.14976e-19
-2.75841e-05 -5.75965e-05 -2.46408e-18
-1.56208e-05 -3.6477e-05 2.03726e-18
-2.83583e-05 5.85398e-05 1.99851e-18
-6.71536e-06 4.05295e-05 -9.39529e-19
1.06893e-05 2.47898e-05 -1.05185e-18
-1.79938e-05 2.31213e-05 -7.87362e-19
-1.67439e-05 -3.43988e-05 4.96097e-18
6.41841e-05 1.12629e-05 -2.15204e-18
-1.0984e-05 6.87619e-06 -1.17602e-18
-3.92723e-06 1.06997e-05 -6.84081e-19
-3.17822e-05 2.28863e-05 -1.41026e-18
-1.11759e-05 6.42093e-06 1.00529e-18
6.3552e-05 -1.0042e-05 7.69671e-19
-9.98498e-06 5.00312e-06 3.33824e-19
4.66811e-06 -9.36306e-06 -3.83257e-18
-4.9346e-05 -3.7602e-05 1.70136e-18
-1.68289e-05 3.65077e-05 -1.87894e-18
-5.05215e-05 3.73333e-05 9.12662e-19
1.52662e-05 3.36045e-05 3.09821e-18
-9.54036e-06 6.76901e-06 1.16077e-18
-1.35401e-05 1.62903e-05 -2.07488e-18
-2.4169e-05 3.03584e-05 1.05772e-18
-3.78988e-05 -4.88592e-06 -1.59315e-18
-6.44045e-07 1.06167e-05 1.00165e-18
-2.55987e-05 -3.0486e-05 -2.82936e-18
-3.92128e-05 6.93232e-06 -3.65075e-19
-1.49374e-05 3.46453e-05 -3.0016e-18
-1.15265e-05 4.6109e-05 -2.98752e-18
-1.17377e-05 2.60315e-05 -1.58198e-18
-2.23487e-05 1.80083e-05 -2.60826e-18
1.64013e-05 -4.0241e-06 8.51483e-19
2.56487e-05 -1.36809e-06 5.10747e-19
8.85737e-06 5.4056e-06 -5.02975e-19
-8.09841e-06 -5.30537e-05 -2.46091e-18
-5.00048e-05 -1.95001e-05 2.45138e-18
2.4975e-05 3.15803e-07 3.53924e-21
3.75928e-05 -7.25789e-06 -4.79412e-18
-6.79243e-06 -8.62314e-06 -8.39469e-19
-3.26129e-05 2.29329e-05 -1.54339e-18
-2.92277e-05 3.34832e-05 1.42263e-18
3.97394e-05 -1.43182e-05 -2.36844e-18
-1.86838e-05 -3.16555e-05 -1.9163e-18
-1.90177e-05 3.14104e-05 -3.48922e-18
-3.68959e-05 -1.30823e-06 -3.53644e-19
-1.67793e-05 3.30064e-05 -2.79189e-18
-3.67797e-05 3.83037e-07 -8.86736e-21
4.57581e-05 1.63849e-05 -1.06224e-18
3.69264e-05 1.36115e-06 4.00929e-18
3.47206e-05 -1.77877e-05 -5.45122e-19
1.01306e-05 -4.88107e-05 1.05983e-18
1.83478e-05 -3.19656e-05 5.25147e-19
1.82232e-05 3.19617e-05 -5.23478e-18
9.92098e-06 4.76928e-05 -1.02609e-17
4.99703e-05 -1.40911e-05 -3.85631e-18
3.20333e-05 1.58661e-05 -5.21038e-19
3.07826e-05 8.40953e-06 4.36849e-18
P_ext 3 563 float
-1.02101e-06 3.45222e-07 -1.91618e-20
9.64817e-10 3.78078e-08 -1.32803e-20
-9.4067e-08 -8.84625e-08 -1.59603e-20
-2.97565e-08 2.74668e-08 3.38311e-20
2.59512e-08 4.98543e-10 5.60426e-21
3.09599e-08 -1.25646e-07 -3.6403e-20
-1.00525e-06 -3.49399e-07 -2.28987e-21
-7.37445e-08 -8.36611e-08 -2.58091e-22
2.05154e-07 3.63343e-09 6.6763e-20
7.48969e-08 -7.03383e-09 7.84471e-21
6.64601e-07 1.55776e-07 -6.58213e-20
3.65239e-08 -1.06914e-07 -1.57948e-20
8.3696e-08 9.96312e-08 -5.71947e-20
-8.62518e-09 7.80436e-08 5.74213e-20
2.34405e-08 8.68889e-09 7.20322e-20
-1.31143e-07 -2.1468e-09 1.8585e-20
-1.63881e-08 5.14269e-08 1.10057e-19
7.90545e-08 -1.19276e-08 3.9099e-20
9.08059e-08 1.61945e-07 -4.37046e-20
-1.21826e-07 1.22852e-08 -2.07682e-20
-4.57373e-08 -1.72554e-07 -2.86735e-21
1.51008e-09 3.0031e-10 2.18743e-20
1.34932e-07 1.09852e-08 -2.61586e-20
8.59012e-08 -9.91845e-08 2.22995e-21
-1.24449e-07 -2.00389e-08 3.11605e-20
-2.34617e-08 -6.81004e-08 -8.37092e-21
7.6404e-07 -6.25024e-08 -6.14465e-20
9.35947e-08 7.89088e-08 1.58168e-20
-2.79545e-07 -2.22053e-07 2.46239e-20
1.64212e-08 3.09103e-09 -2.38638e-21
-1.24955e-07 -2.22504e-08 3.96422e-20
5.46337e-08 -3.55519e-07 -7.03844e-20
5.74145e-07 -5.87997e-07 -1.71572e-20
1.22141e-09 -2.69557e-08 -1.32962e-20
-7.25261e-09 2.073e-08 -8.42698e-21
-2.25019e-08 -1.48228e-08 -5.62206e-21
2.97616e-09 1.48853e-08 2.6484e-20
-2.27494e-08 3.87502e-09 2.96601e-20
9.03837e-08 -9.83047e-08 -1.07762e-20
5.60257e-07 6.12778e-07 2.36113e-21
3.57862e-07 -1.62135e-07 -9.30243e-20
5.53101e-09 -1.36316e-08 -1.98751e-20
-8.96166e-09 -1.19352e-08 -7.30751e-20
-1.24131e-07 2.54955e-08 -2.08198e-20
3.55049e-07 -3.48675e-07 -5.89004e-20
-3.30821e-07 1.19079e-07 2.75943e-20
-4.17954e-08 -1.8238e-07 2.80545e-20
7.54112e-08 1.83185e-07 -9.81457e-20
-1.19067e-07 3.11341e-08 -9.36486e-20
-2.04904e-07 3.18697e-07 -7.14232e-21
3.63207e-07 1.77873e-07 -9.28698e-20
3.15374e-07 -1.03725e-07 4.55747e-20
-9.28726e-09 2.20736e-08 3.43821e-20
-2.46801e-07 -2.2147e-07 7.50432e-21
-2.42141e-08 3.19849e-09 5.34572e-20
-5.29362e-07 3.10871e-07 4.44516e-20
-6.7343e-09 -2.06435e-08 2.68648e-21
7.02787e-08 -3.25914e-07 9.75154e-21
-2.10386e-08 -4.58448e-09 -1.11544e-20
5.51354e-08 1.10549e-07 -8.03375e-20
-2.94192e-08 -8.92352e-09 -4.43246e-20
-3.10621e-08 -2.9172e-08 -6.889e-20
6.88891e-07 3.03291e-07 -5.30589e-21
-5.96393e-10 6.01518e-08 1.29591e-19
9.29235e-09 -4.01329e-08 2.32205e-20
1.56223e-08 -8.92932e-08 -6.05886e-20
-6.20312e-09 -2.92347e-08 1.78778e-20
-7.14669e-08 -1.816e-08 -9.90493e-21
-8.31949e-08 1.01795e-07 -4.92828e-20
2.23117e-08 -8.09916e-09 -2.60621e-20
-9.16027e-09 -2.27094e-08 -2.44307e-20
-2.39491e-08 -3.51137e-09 -1.34421e-20
-4.1239e-08 3.82063e-07 7.65041e-21
-7.33963e-08 3.70717e-08 2.86866e-20
-7.12116e-08 1.21803e-07 -1.05067e-20
-7.16371e-07 8.42034e-08 9.73402e-21
2.97671e-11 -5.67187e-08 3.39481e-20
-6.89534e-08 -5.77755e-08 6.54333e-20
2.90386e-08 7.08559e-08 2.35331e-20
2.74544e-07 5.4887e-08 1.01961e-20
3.93491e-07 -3.42369e-07 -4.80807e-21
1.07819e-08 2.64062e-08 -1.91951e-20
2.66096e-08 8.26162e-09 6.88413e-20
-3.66643e-07 2.71259e-07 4.95925e-20
4.27972e-07 5.20311e-08 -2.26009e-20
-6.48694e-08 5.8008e-07 -2.59544e-21
-2.24877e-08 -1.16244e-07 -8.2566e-21
7.89318e-08 5.55929e-08 -2.86662e-20
3.41511e-07 3.60149e-07 5.90787e-20
6.18666e-09 2.74847e-09 -1.31725e-19
-6.58192e-08 3.27756e-07 7.45844e-21
5.58826e-09 -2.99003e-09 -3.87172e-20
-3.95118e-08 2.69502e-08 9.60194e-20
8.5308e-08 3.47165e-08 -5.51747e-20
-3.15592e-07 9.75622e-08 1.50855e-20
1.83174e-07 3.21867e-07 6.99118e-20
1.13955e-07 -5.14507e-07 -2.27526e-20
2.67858e-08 7.02207e-08 -3.39202e-20
-4.84606e-08 -2.88327e-08 -3.74893e-20
4.01589e-08 1.28433e-07 2.08142e-20
2.67026e-07 4.54387e-08 9.46855e-20
-1.77265e-07 3.66218e-07 -3.52429e-20
4.71229e-07 -1.54011e-07 -5.21316e-20
-2.61474e-08 5.70876e-08 -3.16398e-20
5.01111e-08 5.08973e-08 3.13878e-20
-2.97869e-08 -6.87107e-08 3.3386e-20
-1.19847e-08 -5.23481e-08 1.02596e-19
1.38605e-07 1.66151e-08 2.34013e-20
-1.01107e-07 4.72942e-07 7.35781e-21
-2.33786e-08 1.44263e-08 -5.312e-21
6.9135e-08 1.02457e-07 -1.06154e-19
-3.4189e-08 -4.85339e-07 -4.73143e-20
4.90976e-07 1.47417e-07 -6.23051e-20
3.3425e-08 -5.9066e-08 3.35541e-20
-7.63105e-08 -8.72756e-09 -2.30491e-20
-3.14015e-07 -1.26034e-07 -2.55537e-21
1.55247e-08 1.66036e-08 -8.09129e-20
-4.98811e-07 -1.74445e-07 4.99751e-20
1.57608e-08 -1.6558e-08 -3.26484e-20
-4.8503e-08 -3.4103e-07 2.26738e-20
2.10475e-07 7.98722e-09 3.81151e-20
-1.8745e-08 1.59898e-08 3.68978e-20
5.03332e-09 2.29851e-08 -4.72574e-20
1.40822e-08 -6.1653e-08 -5.53466e-20
2.44543e-08 -1.14328e-08 2.14353e-20
4.51531e-10 2.47656e-08 6.05442e-20
2.13767e-08 -2.66958e-09 5.37253e-20
3.98885e-08 -5.88505e-08 2.83668e-20
-1.02132e-07 -5.20909e-07 -1.23983e-20
2.69805e-07 -2.07699e-07 1.34248e-19
8.70429e-10 3.28638e-08 9.06599e-20
-2.27502e-08 -4.11333e-09 2.37737e-20
-7.39894e-09 -2.54422e-08 -2.3645e-20
-1.87589e-08 -1.32438e-08 -7.09067e-20
-2.52235e-07 3.15197e-07 -2.01499e-20
-2.89728e-10 -2.50273e-08 -3.81988e-20
-3.15516e-07 4.9541e-07 -1.49929e-20
-1.18571e-07 5.45266e-08 2.85271e-20
1.66724e-08 1.79751e-08 -9.46278e-20
-2.1547e-08 -1.25992e-08 2.97305e-20
1.53838e-07 3.71284e-07 1.51013e-20
8.87539e-08 7.91045e-08 -9.13535e-20
2.1544e-07 -7.10482e-08 -1.54524e-20
1.21254e-08 -6.62879e-08 -3.67893e-20
-3.90916e-07 -3.60222e-07 6.18099e-20
-3.76924e-08 6.51351e-08 5.19779e-20
9.78669e-08 5.2204e-08 -4.70146e-20
1.43113e-07 -4.92689e-08 -2.33082e-20
6.18042e-08 -1.23465e-07 2.48478e-21
2.45012e-07 -1.12979e-07 -9.2047e-20
1.6301e-07 -7.6943e-08 -7.44965e-20
1.63802e-08 -1.35794e-08 4.66815e-20
2.84201e-07 2.248e-07 -5.29963e-20
-4.11402e-08 -1.18964e-07 3.34147e-20
-5.05241e-08 -4.323e-08 -1.60168e-20
-8.26202e-09 -2.16828e-08 1.52456e-20
1.13508e-08 8.48789e-08 -2.49347e-21
-3.80124e-07 2.72528e-08 6.31462e-20
-1.38865e-07 -3.62863e-07 1.22024e-20
-5.98009e-08 7.62263e-08 -3.13761e-20
1.17596e-07 1.56724e-07 -4.1217e-20
2.92525e-07 -2.07478e-07 8.26399e-20
-4.27641e-07 -2.2864e-07 -2.73999e-20
1.90242e-07 -3.09699e-07 -1.50122e-20
2.47721e-07 -3.04717e-07 7.56054e-20
-7.29555e-08 7.22465e-09 5.09321e-21
-2.17469e-07 -3.14695e-07 5.7832e-20
-3.8067e-07 -5.96613e-08 1.99477e-20
-4.53677e-08 -3.47393e-07 -1.4317e-23
1.69343e-07 -3.50017e-07 -4.02878e-20
3.54301e-09 -4.81099e-08 -1.06745e-20
5.03223e-08 3.35131e-07 1.76828e-20
-1.79275e-07 -3.1362e-07 4.24837e-20
-1.68191e-08 -7.69467e-08 2.85399e-20
-2.59151e-07 1.94012e-07 1.79538e-20
-5.07669e-08 -1.66396e-08 -2.43298e-21
-3.95482e-08 -2.71826e-08 -2.73403e-22
1.03427e-07 -5.30403e-08 -3.10321e-20
-1.42293e-08 2.01452e-08 5.04027e-20
5.49707e-08 -6.93897e-08 2.34576e-20
-3.22473e-07 -1.43412e-07 1.97684e-20
-4.27123e-08 -5.75288e-08 2.30529e-21
4.46389e-08 6.10293e-08 -6.29427e-20
2.33177e-07 3.2187e-07 -1.02032e-20
-8.25302e-08 -3.80571e-08 4.489e-20
-3.58713e-07 -8.07064e-09 6.0136e-20
-4.59726e-08 -4.26413e-08 1.82795e-20
-2.61494e-09 -6.17519e-08 2.79117e-21
4.5033e-08 2.27103e-08 -7.9387e-20
-5.19379e-08 5.11986e-08 -2.10079e-22
-8.67522e-09 -9.09056e-08 2.64546e-20
-4.78851e-07 1.17952e-07 5.76798e-20
2.6249e-07 2.23931e-07 -7.58568e-20
3.50731e-08 3.64708e-07 6.30952e-20
-2.11467e-08 7.26818e-09 4.47181e-20
-7.05472e-08 2.19218e-09 -2.0866e-20
3.23879e-08 6.18366e-08 -7.60231e-20
-2.56349e-08 -6.29755e-09 3.67533e-20
3.03542e-09 -2.18584e-08 -1.84683e-20
-1.41094e-08 9.62243e-08 6.2679e-20
1.56312e-08 1.64735e-08 1.29937e-20
-1.78203e-07 3.93916e-08 -5.13371e-20
-1.80732e-07 1.97199e-07 -5.84926e-20
-1.95109e-08 1.81005e-08 4.97181e-20
-3.26969e-07 1.9733e-07 -2.51545e-20
-8.39013e-09 2.78589e-08 -1.55794e-20
8.8239e-08 -3.16069e-08 -5.27222e-20
4.09866e-07 -3.77078e-08 -1.0597e-19
-5.13724e-08 3.25059e-08 8.18397e-20
2.07778e-08 9.57643e-09 -3.414e-20
5.34684e-08 -3.34627e-08 5.42376e-21
-9.17369e-08 3.05732e-08 1.04368e-20
-6.67635e-08 1.75002e-08 3.38547e-20
2.34725e-08 -6.86042e-09 1.04552e-20
2.17136e-07 -1.32053e-07 4.05644e-20
-8.545e-08 5.44832e-08 6.56801e-20
-2.55277e-07 -5.32327e-08 1.01307e-20
-5.42492e-08 -2.85655e-08 4.73654e-20
2.07492e-08 -1.37793e-08 2.84702e-20
2.29852e-08 1.61527e-08 5.25986e-20
-5.80608e-09 2.61336e-08 -2.6113e-21
-2.35815e-09 -2.94862e-08 -3.22006e-20
-2.39291e-08 1.22283e-08 5.48835e-20
-2.67807e-08 -1.37162e-08 5.02221e-22
6.70904e-08 -2.53539e-08 1.84612e-20
-2.4544e-08 -6.75422e-09 4.78855e-20
-2.44918e-08 6.50588e-09 -1.09393e-20
-6.03321e-09 2.43355e-08 -5.07583e-20
-6.55035e-09 -2.48689e-08 -1.59708e-20
1.61854e-08 -1.81205e-08 5.61661e-20
1.55604e-08 1.73423e-08 -9.05474e-20
9.39186e-09 2.59131e-07 4.32399e-20
5.02738e-08 -4.14747e-08 3.90877e-20
1.17335e-08 -2.21293e-08 -2.8925e-20
-1.95424e-07 7.22262e-09 -3.854e-20
1.85548e-08 -1.76103e-08 -3.96262e-20
1.73239e-08 1.78842e-08 -1.03361e-19
2.65793e-08 -5.7843e-10 -3.1151e-20
8.9708e-08 2.53936e-07 -3.81093e-20
-1.34483e-08 -2.19923e-08 -6.03398e-20
2.90806e-08 -6.6556e-08 -5.27473e-20
-2.18087e-07 -1.20662e-07 2.05986e-20
-4.79193e-08 -3.11061e-08 -1.04605e-20
-2.18884e-07 1.29817e-07 4.34649e-20
1.94104e-08 -1.98972e-08 -8.6808e-20
-9.30357e-09 2.06781e-08 -3.39794e-20
-5.1188e-09 -2.50929e-07 2.23231e-21
-8.2152e-08 -2.48528e-07 8.09164e-20
3.76657e-07 3.58488e-07 7.19827e-20
4.02885e-07 -2.28791e-08 -1.34931e-19
-2.85734e-08 6.22587e-09 6.01497e-20
-2.69451e-07 -4.76158e-07 1.34261e-19
6.42442e-08 1.10154e-07 -1.01481e-19
-2.58283e-07 3.04203e-08 2.79772e-20
1.85419e-07 5.18482e-08 1.00174e-19
-2.53348e-08 -1.02474e-10 -2.32058e-20
5.52804e-10 -2.6332e-08 -1.04293e-20
-2.29954e-09 -1.80091e-08 -1.10032e-20
-2.24552e-08 -1.33631e-08 -3.14599e-20
-5.58683e-07 -2.11713e-08 5.05238e-21
1.75589e-07 -1.98592e-07 4.55076e-20
1.19391e-08 2.31594e-08 -5.73838e-20
6.10438e-09 -1.10874e-07 -1.0593e-20
-1.04737e-07 2.48038e-07 -2.25999e-20
2.14869e-09 2.78623e-08 -2.35605e-20
1.87362e-07 -1.34071e-07 -1.05314e-20
-1.64766e-08 -7.20558e-09 -6.80204e-20
-1.59329e-07 -2.07082e-07 -2.4615e-21
2.19531e-08 1.1169e-08 -4.181e-20
5.19497e-08 5.02272e-08 5.14942e-21
-3.69645e-08 -5.75826e-08 -5.59337e-21
2.27404e-08 -7.35644e-09 4.77329e-20
7.69821e-08 -5.37431e-08 -6.56557e-20
-4.57175e-09 4.29225e-08 5.87018e-20
6.33321e-08 -1.06743e-07 3.39593e-20
5.78349e-07 2.91408e-08 2.18907e-21
-4.89967e-07 1.29636e-07 4.94043e-20
4.10259e-08 2.85882e-08 -4.24826e-20
-6.07001e-08 -1.46139e-07 -3.92618e-20
-9.22648e-08 -6.01919e-08 -2.11434e-20
3.00326e-07 -3.0186e-09 3.83855e-20
2.56714e-09 -5.73001e-08 -2.93774e-20
-7.50535e-08 -2.64974e-08 -5.19153e-20
1.02351e-07 -2.44542e-07 -2.5758e-20
8.15971e-09 9.85043e-08 -2.51442e-21
8.40037e-08 2.60506e-07 -2.29396e-20
1.00814e-07 -5.31276e-08 -2.67893e-21
-1.83905e-07 1.9575e-07 -2.5711e-20
1.69109e-07 2.08965e-07 -3.03459e-20
-1.06351e-08 4.75431e-09 -3.66036e-22
1.75217e-09 4.53904e-08 1.09084e-19
3.4219e-09 -2.05951e-08 -1.14235e-20
-1.63052e-08 -1.35216e-08 5.25742e-21
-5.61603e-08 4.45319e-08 7.31576e-20
-2.57666e-07 -6.10478e-08 -5.1144e-21
9.00368e-10 2.89575e-08 7.23892e-20
-6.73866e-08 2.0113e-08 -5.74429e-21
1.82562e-07 -2.64661e-08 -5.41893e-20
-7.80693e-08 -2.52808e-07 4.19463e-23
-1.53762e-07 2.44877e-07 -1.26782e-20
-4.3413e-08 2.00659e-08 4.23788e-20
-2.06075e-07 -1.45812e-07 -2.81697e-20
4.66448e-08 -2.18748e-08 1.3366e-20
-2.79419e-07 -1.36819e-08 2.74559e-21
1.3679e-07 -4.82684e-07 7.44275e-21
1.86891e-07 -1.96258e-07 3.56434e-20
2.85778e-07 5.06682e-07 1.75255e-20
-2.67877e-09 6.12369e-08 6.8769e-20
2.45301e-08 -2.54553e-07 3.29694e-20
-9.93817e-09 6.01968e-09 6.5265e-20
-1.32482e-07 -2.47211e-07 -4.36807e-20
4.44482e-08 -3.80439e-08 -5.82444e-20
-2.5559e-08 2.57491e-07 -5.12291e-20
6.20504e-08 -1.82119e-08 5.22943e-21
1.41204e-07 2.51642e-07 8.26817e-23
1.41423e-07 -3.30156e-09 -2.68394e-21
2.5814e-07 -7.61661e-07 4.97163e-21
-5.46964e-08 -1.01826e-07 1.00213e-20
-2.28113e-07 9.93938e-08 -3.08722e-20
-3.19616e-08 1.57023e-08 7.71452e-20
2.16552e-07 1.45022e-07 -5.57614e-20
1.5435e-07 -8.52136e-08 -4.6784e-20
8.15886e-08 3.58432e-08 -2.39006e-20
-1.66854e-08 1.41015e-08 6.78939e-20
1.54818e-07 -2.39172e-07 -3.59573e-20
-1.65053e-07 -2.0597e-07 -7.41944e-20
2.12956e-07 8.39989e-08 6.69315e-20
5.41721e-08 -3.34815e-08 4.46362e-20
9.95581e-08 -2.47446e-07 -3.60749e-20
1.16993e-07 -2.21761e-08 -5.21396e-20
-1.13533e-07 -4.52944e-08 -1.52009e-20
-4.93585e-09 -4.60802e-08 2.1281e-20
-2.60242e-07 3.61375e-08 -1.54066e-20
2.73426e-08 2.28295e-07 -3.08537e-20
1.78033e-07 4.1543e-08 2.57888e-21
-2.02235e-07 -9.05181e-08 -1.53247e-20
-9.94441e-08 2.54986e-07 -7.70026e-20
-2.27301e-08 -2.2242e-07 1.79567e-20
5.87987e-08 2.86974e-08 -1.30586e-20
-3.81683e-08 1.07567e-07 7.3046e-20
-1.8186e-07 1.30433e-07 -3.61513e-20
2.33562e-07 1.17809e-07 6.15061e-20
-1.06326e-07 -3.34e-08 2.39214e-20
-2.57845e-08 -1.09491e-07 2.59347e-20
1.78484e-07 2.07474e-07 -4.09019e-20
-4.19542e-08 -1.90315e-08 5.05351e-20
5.86913e-07 -4.22015e-07 5.26759e-20
1.24283e-07 -8.69535e-08 -1.05937e-20
1.01498e-07 4.97387e-07 4.7186e-20
1.31051e-07 -1.25991e-07 -5.49229e-21
-2.83355e-07 1.0791e-06 -4.6216e-20
-2.84997e-07 -1.06859e-06 4.61499e-20
7.00211e-07 9.2039e-07 -1.42307e-20
6.91526e-07 -9.20143e-07 2.08381e-20
1.1462e-06 -4.4748e-10 1.82178e-20
-9.88073e-07 3.97524e-07 -1.3862e-20
-9.71692e-07 -4.01846e-07 3.43682e-20
4.72489e-08 2.56295e-08 -5.51588e-20
3.03152e-08 1.47207e-08 1.89473e-20
8.80662e-08 1.18588e-08 1.55265e-20
1.55479e-07 8.30927e-08 8.01179e-20
4.61211e-08 1.83716e-07 -3.07148e-20
-1.66685e-07 -1.43207e-07 2.30162e-20
8.39385e-08 -7.73799e-08 -3.15046e-20
1.79102e-07 1.43738e-07 7.20698e-20
-4.14208e-08 2.26118e-07 -9.00953e-20
2.94021e-08 -1.44427e-08 5.10781e-20
4.21546e-08 -2.16993e-07 -8.02511e-21
5.50741e-08 3.71377e-08 -2.90178e-20
3.23043e-07 1.13165e-07 -6.3081e-20
7.23892e-09 2.32522e-08 6.06147e-20
1.24851e-07 4.08632e-08 -4.16627e-20
-1.54523e-07 8.54755e-08 -8.0229e-20
-2.11566e-07 7.31886e-08 -1.0548e-19
4.18857e-08 -2.86959e-08 2.35205e-21
-1.35074e-07 -6.25044e-08 1.56844e-20
-1.48411e-07 -8.79068e-08 -2.04709e-20
-1.30096e-08 -1.48983e-07 4.39686e-20
5.86772e-10 -1.7111e-07 2.43746e-21
-1.88395e-07 -8.14374e-09 -1.02896e-20
2.79623e-07 -4.34158e-08 -2.54202e-20
1.50849e-07 9.29676e-08 5.71728e-20
-1.24827e-07 8.51537e-08 -4.94384e-20
-5.62825e-08 2.75495e-08 3.40214e-20
1.40796e-07 -1.26158e-07 -5.5028e-21
-1.05787e-07 1.64714e-07 -7.70937e-20
-1.30312e-07 -1.37268e-07 -4.37992e-20
-1.23496e-08 1.79415e-07 -9.04235e-20
-2.68438e-08 1.51425e-07 -9.12452e-20
4.4244e-09 -1.09931e-07 2.59152e-20
5.67153e-08 -1.83309e-07 -2.99971e-21
-9.2698e-08 -5.94887e-08 1.06293e-20
1.28434e-07 -3.66267e-08 -5.19596e-20
3.1384e-10 1.79193e-07 -7.59112e-21
-3.87711e-09 1.14493e-07 5.22127e-20
-2.87759e-08 1.2879e-07 2.88531e-20
2.10789e-07 -5.18751e-08 -2.57131e-20
-4.42666e-08 4.22667e-08 8.4283e-20
4.77769e-08 1.79338e-07 -7.74689e-21
-2.88704e-08 1.82218e-08 1.07117e-19
1.06459e-07 4.93652e-07 4.92801e-20
-5.22156e-08 2.81888e-08 1.02339e-20
5.54006e-08 -2.88388e-08 4.23388e-20
1.59368e-08 1.5239e-07 -9.88661e-20
-1.7872e-07 4.24514e-08 -4.91465e-20
-5.49596e-09 -7.74706e-08 -2.37583e-20
7.37625e-09 -7.04278e-07 1.89493e-20
2.13927e-08 1.29188e-07 -7.8083e-20
-1.33514e-07 1.27018e-07 -1.07815e-20
2.07345e-07 7.71169e-07 4.89554e-20
9.95497e-09 6.5565e-09 -7.07997e-20
8.60095e-09 -6.25305e-09 -2.19212e-20
1.00515e-07 -7.83848e-08 -3.65919e-20
-1.4268e-07 1.2775e-07 -2.55898e-20
-1.71258e-07 -5.05877e-08 2.05188e-22
-1.75989e-07 -5.78002e-08 3.63498e-20
-3.51139e-09 2.162e-09 -1.98439e-20
-2.4269e-09 -1.17226e-09 -2.46229e-19
8.22035e-08 1.67021e-08 -2.89629e-20
2.60906e-08 1.19974e-07 -6.25462e-20
-3.01556e-09 1.19292e-07 -7.99978e-21
-5.89887e-07 -4.28498e-07 1.06206e-19
1.04702e-07 -1.64682e-07 2.03134e-20
5.29599e-08 1.90727e-08 -1.07844e-19
-1.94242e-07 -2.0895e-08 -1.03283e-20
-1.22818e-07 1.62259e-07 -1.28893e-20
-1.58556e-07 7.45543e-08 -7.77485e-20
5.79134e-07 4.16114e-07 1.43873e-20
5.73037e-08 3.76699e-08 -5.51275e-20
-5.63679e-08 1.83971e-07 -1.28418e-19
-1.11115e-07 -9.51751e-08 2.32818e-20
2.76421e-08 -1.44926e-07 3.88108e-20
-8.99153e-08 -1.71071e-07 7.28907e-21
-1.44081e-07 -9.87583e-08 1.26101e-20
9.87501e-08 -1.75131e-07 -3.4982e-22
1.18455e-07 -1.62791e-07 -1.08036e-20
-3.75464e-08 -7.34917e-07 3.41125e-20
3.02158e-07 -4.83312e-07 -4.90752e-21
1.44341e-08 -1.75936e-07 1.01532e-20
1.24066e-07 9.44491e-08 4.92892e-20
-1.11447e-07 -1.35283e-07 -2.0771e-20
-9.66582e-08 1.80201e-07 -5.70045e-20
-5.93849e-08 1.76616e-07 -5.432e-20
1.29364e-07 1.33959e-07 2.08049e-20
6.34226e-08 -1.65197e-07 -3.3945e-20
-1.63989e-07 -4.67578e-07 5.06171e-21
3.69559e-09 5.68079e-08 6.36934e-20
1.3097e-07 1.34768e-07 2.3209e-20
-7.06006e-08 -3.47638e-08 -2.58604e-20
-5.86633e-08 3.20225e-08 9.70287e-20
5.25042e-07 -2.30012e-07 -2.98462e-20
6.52064e-08 -1.07766e-07 1.01139e-20
-6.18898e-08 -1.05879e-07 3.59709e-20
2.3484e-08 -2.03195e-09 6.12276e-20
2.0213e-09 -8.89839e-09 -8.41359e-21
-6.58542e-09 -6.50713e-09 -5.45381e-20
2.89172e-08 1.89609e-08 -1.55566e-20
-9.06725e-08 -1.71163e-07 -1.0301e-19
1.39523e-07 5.59539e-08 2.35288e-20
-3.39541e-07 -3.73282e-07 1.50097e-19
1.27665e-09 1.09391e-08 7.05458e-20
1.26864e-09 1.96483e-09 -4.35394e-22
2.45529e-09 -3.18506e-10 -8.82138e-20
3.25827e-07 -6.43439e-07 -1.67306e-20
-1.35411e-08 1.59469e-08 5.61809e-20
-3.10404e-09 1.93188e-08 4.29479e-20
-1.40289e-07 4.98688e-08 -4.94546e-20
-4.8492e-09 5.69791e-08 1.06206e-19
-3.08231e-08 9.13859e-08 4.67536e-20
6.35344e-08 2.70761e-09 -1.32151e-20
1.43323e-08 5.49339e-08 2.6322e-20
-3.75576e-09 7.59626e-08 3.15686e-20
1.08891e-07 5.92416e-08 -2.33816e-20
7.76093e-09 7.0099e-07 -1.44179e-20
-1.01311e-07 9.58651e-08 4.41165e-20
7.59619e-08 -5.10768e-08 -2.35465e-20
4.38512e-08 -4.00445e-08 2.87437e-20
-7.18971e-07 -9.87166e-08 -7.5564e-20
-2.04863e-08 8.12288e-09 -1.90636e-20
-5.23515e-07 -6.1927e-07 1.10764e-19
9.508e-09 2.54704e-08 6.05579e-20
9.18171e-08 1.78511e-08 -4.70543e-20
2.73372e-07 -3.54783e-08 -9.44034e-20
-6.24906e-08 -1.02686e-07 1.51297e-20
1.19479e-07 3.42668e-08 -2.73229e-21
6.19232e-10 -3.04041e-08 1.11881e-19
-6.7383e-08 7.79639e-08 -1.04817e-20
-2.57681e-08 -1.63896e-08 -4.31964e-20
-6.07389e-08 1.23393e-07 -4.40054e-20
1.09897e-08 7.7878e-08 2.3504e-20
1.78541e-08 1.30853e-08 -9.44718e-20
1.77184e-08 -1.25703e-08 4.3312e-20
-4.87393e-07 -1.32774e-07 -9.64752e-21
5.36884e-08 2.00312e-08 -4.95742e-20
-6.46434e-08 1.25123e-06 -8.42472e-20
-4.49423e-09 -1.28551e-06 4.31671e-20
6.32746e-07 1.08319e-06 4.87756e-21
-6.56602e-08 5.20916e-08 -5.29577e-21
-3.3529e-07 6.74758e-07 -7.21879e-20
6.36382e-07 -1.04549e-06 7.65751e-20
-1.05226e-07 -1.70309e-07 -4.12032e-20
9.66376e-07 8.46761e-07 -2.72568e-21
1.13573e-08 -2.01446e-08 4.21045e-20
-1.18348e-08 -2.0412e-08 2.94365e-20
1.01299e-06 -8.27907e-07 2.16033e-20
-6.20707e-08 1.22066e-07 -3.3764e-20
-6.36317e-07 -4.05252e-07 -3.18157e-20
-5.3659e-07 -1.11839e-06 8.12403e-20
-3.00539e-07 -6.91396e-07 6.59761e-20
-5.51627e-07 1.13701e-06 -5.03798e-20
-1.3036e-07 7.70512e-07 2.39653e-21
-9.19022e-10 2.69753e-08 -1.37892e-20
-3.34708e-07 4.30926e-07 -9.51143e-23
-3.20451e-07 -6.55858e-07 1.3526e-19
1.24608e-06 2.1745e-07 -1.69509e-20
-9.74287e-08 8.28319e-08 7.53607e-20
-2.28723e-09 5.4722e-08 -2.78911e-21
-6.02747e-07 4.36348e-07 9.7171e-21
-1.0805e-07 5.76681e-08 2.61041e-20
1.23381e-06 -1.93414e-07 1.44392e-20
-8.24662e-08 5.53595e-08 8.87869e-20
6.00745e-08 -1.24242e-07 -2.90095e-20
-9.60151e-07 -7.29248e-07 6.72602e-20
-3.23756e-07 6.93695e-07 -3.89794e-20
-9.83417e-07 7.23893e-07 1.67806e-20
2.87343e-07 6.41039e-07 5.02039e-21
-1.05777e-07 8.40855e-08 6.99666e-20
-2.93495e-08 1.66215e-08 6.94147e-20
-1.60642e-09 -2.56592e-09 -5.49606e-20
4.15564e-10 -2.20883e-09 5.19639e-20
8.04274e-09 8.44369e-08 -4.45412e-20
-2.3571e-09 2.56975e-09 5.22591e-21
1.25558e-09 3.17172e-09 -1.56959e-19
2.13685e-09 -9.22504e-10 -2.77039e-20
-1.2579e-09 1.00009e-08 -7.40518e-20
-2.21098e-07 4.82386e-07 -3.45366e-20
-1.66285e-08 1.19323e-08 -5.77366e-21
2.86552e-08 -1.80566e-08 3.45794e-20
2.80889e-08 -1.62726e-08 9.10711e-20
8.09298e-08 3.15814e-08 -4.4458e-20
-7.60234e-10 -8.55939e-09 -1.1154e-20
-7.64155e-09 -3.8756e-09 -3.82495e-20
2.8072e-08 1.6376e-08 -7.98589e-21
7.14536e-07 -1.37715e-07 -1.7314e-20
-9.25717e-08 -1.17996e-07 1.52394e-20
-6.25585e-07 4.36147e-07 -2.4074e-20
-5.60104e-07 6.38829e-07 7.50756e-21
7.54998e-07 -2.72659e-07 -1.74677e-20
-3.61739e-09 -1.051e-08 2.97673e-20
-3.97322e-09 1.07962e-08 -1.93192e-20
-1.18625e-08 2.04177e-09 -2.82141e-21
-7.7831e-09 7.93084e-09 8.65078e-20
-1.07529e-08 -2.28363e-09 -6.8056e-20
1.98475e-09 2.53227e-09 7.94687e-20
1.15412e-08 -2.84404e-09 1.14228e-19
4.86242e-09 -3.4236e-09 6.52201e-20
-3.41417e-09 -2.45339e-09 3.30788e-20
7.38466e-09 -7.58752e-09 2.45225e-20
7.42568e-09 7.81352e-09 -1.11756e-19
-3.43501e-09 2.15554e-09 -1.60521e-19
3.74958e-09 -7.58362e-10 -9.59206e-20
6.22309e-09 3.44992e-09 -5.73444e-20
1.34859e-08 4.81797e-09 -3.73342e-20
SCALARS rr_necrosis float
LOOKUP_TABLE default
0
0
0
0
0
0
0
0
0
0
0
0
0
0
0
0
0
0
0
0
0
0
0
0
0
0
0
0
0
0
0
0
0
0
0
0
0
0
0
0
0
0
0
0
0
0
0
0
0
0
0
0
0
0
0
0
0
0
0
0
0
0
0
0
0
0
0
0
0
0
0
0
0
0
0
0
0
0
0
0
0
0
0
0
0
0
0
0
0
0
0
0
0
0
0
0
0
0
0
0
0
0
0
0
0
0
0
0
0
0
0
0
0
0
0
0
0
0
0
0
0
0
0
0
0
0
0
0
0
0
0
0
0
0
0
0
0
0
0
0
0
0
0
0
0
0
0
0
0
0
0
0
0
0
0
0
0
0
0
0
0
0
0
0
0
0
0
0
0
0
0
0
0
0
0
0
0
0
0
0
0
0
0
0
0
0
0
0
0
0
0
0
0
0
0
0
0
0
0
0
0
0
0
0
0
0
0
0
0
0
0
0
0
0
0
0
0
0
0
0
0
0
0
0
0
0
0
0
0
0
0
0
0
0
0
0
0
0
0
0
0
0
0
0
0
0
0
0
0
0
0
0
0
0
0
0
0
0
0
0
0
0
0
0
0
0
0
0
0
0
0
0
0
0
0
0
0
0
0
0
0
0
0
0
0
0
0
0
0
0
0
0
0
0
0
0
0
0
0
0
0
0
0
0
0
0
0
0
0
0
0
0
0
0
0
0
0
0
0
0
0
0
0
0
0
0
0
0
0
0
0
0
0
0
0
0
0
0
0
0
0
0
0
0
0
0
0
0
0
0
0
0
0
0
0
0
0
0
0
0
0
0
0
0
0
0
0
0
0
0
0
0
0
0
0
0
0
0
0
0
0
0
0
0
0
0
0
0
0
0
0
0
0
0
0
0
0
0
0
0
0
0
0
0
0
0
0
0
0
0
0
0
0
0
0
0
0
0
0
0
0
0
0
0
0
0
0
0
0
0
0
0
0
0
0
0
0
0
0
0
0
0
0
0
0
0
0
0
0
0
0
0
0
0
0
0
0
0
0
0
0
0
0
0
0
0
0
0
0
0
0
0
0
0
0
0
0
0
0
0
0
0
0
0
0
0
0
0
0
0
0
0
0
0
0
0
0
0
0
0
0
0
0
0
0
0
0
0
0
0
0
0
0
0
0
0
0
0
0
0
0
0
0
0
0
0
0
0
0
0
0
0
0
0
0
0
0
0
0
0
0
0
0
0
0
0
0
0
0
0
0
0
0
0
0
0
0
0
0
0
0
0
0
SCALARS rr_protein float
LOOKUP_TABLE default
1
1
1
1
1
1
1
1
1
1
1
1
1
1
1
1
1
1
1
1
1
1
1
1
1
1
1
1
1
1
1
1
1
1
1
1
1
1
1
1
1
1
1
1
1
1
1
1
1
1
1
1
1
1
1
1
1
1
1
1
1
1
1
1
1
1
1
1
1
1
1
1
1
1
1
1
1
1
1
1
1
1
1
1
1
1
1
1
1
1
1
1
1
1
1
1
1
1
1
1
1
1
1
1
1
1
1
1
1
1
1
1
1
1
1
1
1
1
1
1
1
1
1
1
1
1
1
1
1
1
1
1
1
1
1
1
1
1
1
1
1
1
1
1
1
1
1
1
1
1
1
1
1
1
1
1
1
1
1
1
1
1
1
1
1
1
1
1
1
1
1
1
1
1
1
1
1
1
1
1
1
1
1
1
1
1
1
1
1
1
1
1
1
1
1
1
1
1
1
1
1
1
1
1
1
1
1
1
1
1
1
1
1
1
1
1
1
1
1
1
1
1
1
1
1
1
1
1
1
1
1
1
1
1
1
1
1
1
1
1
1
1
1
1
1
1
1
1
1
1
1
1
1
1
1
1
1
1
1
1
1
1
1
1
1
1
1
1
1
1
1
1
1
1
1
1
1
1
1
1
1
1
1
1
1
1
1
1
1
1
1
1
1
1
1
1
1
1
1
1
1
1
1
1
1
1
1
1
1
1
1
1
1
1
1
1
1
1
1
1
1
1
1
1
1
1
1
1
1
1
1
1
1
1
1
1
1
1
1
1
1
1
1
1
1
1
1
1
1
1
1
1
1
1
1
1
1
1
1
1
1
1
1
1
1
1
1
1
1
1
1
1
1
1
1
1
1
1
1
1
1
1
1
1
1
1
1
1
1
1
1
1
1
1
1
1
1
1
1
1
1
1
1
1
1
1
1
1
1
1
1
1
1
1
1
1
1
1
1
1
1
1
1
1
1
1
1
1
1
1
1
1
1
1
1
1
1
1
1
1
1
1
1
1
1
1
1
1
1
1
1
1
1
1
1
1
1
1
1
1
1
1
1
1
1
1
1
1
1
1
1
1
1
1
1
1
1
1
1
1
1
1
1
1
1
1
1
1
1
1
1
1
1
1
1
1
1
1
1
1
1
1
1
1
1
1
1
1
1
1
1
1
1
1
1
1
1
1
1
1
1
1
1
1
1
1
1
1
1
1
1
1
1
1
1
1
1
1
1
1
1
1
1
1
1
1
1
1
1
1
1
1
1
1
1
1
1
1
1
1
1
1
1
SCALARS rr_(S_ext) float
LOOKUP_TABLE default
0.962213
0.962229
0.962231
0.962227
0.96225
0.962231
0.962212
0.962234
0.962231
0.962232
0.962187
0.962234
0.962234
0.962234
0.962239
0.962233
0.962233
0.96223
0.962226
0.962229
0.962233
0.962265
0.962229
0.96223
0.962229
0.96223
0.962206
0.962231
0.962217
0.962252
0.962234
0.962216
0.962208
0.96225
0.962255
0.962249
0.962251
0.962255
0.962234
0.962209
0.962216
0.962251
0.962251
0.962234
0.962203
0.962219
0.962228
0.962232
0.962231
0.962213
0.962215
0.962223
0.962246
0.962224
0.962246
0.962215
0.962255
0.962223
0.962255
0.962229
0.962231
0.96224
0.962216
0.962242
0.96224
0.962238
0.962231
0.962231
0.962229
0.962229
0.962246
0.962246
0.962217
0.96224
0.962232
0.962203
0.962245
0.962238
0.96223
0.96222
0.962218
0.962252
0.962235
0.962214
0.962222
0.962209
0.962231
0.96224
0.962203
0.962264
0.962223
0.962264
0.962243
0.962237
0.962225
0.962213
0.962219
0.962231
0.962245
0.962234
0.962228
0.962224
0.962213
0.962229
0.962231
0.962231
0.962237
0.962234
0.962214
0.962226
0.962229
0.962206
0.96221
0.962229
0.962231
0.962225
0.962257
0.962221
0.962257
0.962225
0.962226
0.962238
0.962228
0.962236
0.962227
0.962239
0.962254
0.962231
0.96222
0.962224
0.962244
0.962228
0.962234
0.962227
0.962225
0.962254
0.962219
0.962235
0.962235
0.962254
0.962224
0.962237
0.962229
0.962232
0.962221
0.96223
0.962235
0.962234
0.962232
0.962225
0.96223
0.962228
0.962215
0.962234
0.962232
0.962227
0.962235
0.962226
0.962226
0.962231
0.962231
0.962216
0.962207
0.962214
0.962224
0.962231
0.962225
0.962226
0.962216
0.962225
0.962243
0.962223
0.962215
0.962236
0.962224
0.962237
0.962243
0.962235
0.962248
0.962234
0.962218
0.962231
0.962231
0.962224
0.962239
0.962215
0.962236
0.962239
0.962246
0.962232
0.962239
0.96222
0.962223
0.962216
0.962228
0.962229
0.962229
0.962234
0.962227
0.962238
0.962228
0.962227
0.962221
0.962234
0.962219
0.962235
0.962239
0.962222
0.962242
0.962228
0.962244
0.962237
0.962231
0.962235
0.962224
0.962238
0.962222
0.962239
0.962227
0.962227
0.962225
0.962226
0.962226
0.962226
0.962233
0.962238
0.962238
0.962238
0.962238
0.962247
0.962246
0.962224
0.962232
0.962222
0.962232
0.96224
0.96224
0.962223
0.962221
0.962222
0.962231
0.962226
0.962241
0.962226
0.962236
0.962221
0.962225
0.962222
0.962218
0.962211
0.962235
0.96222
0.962233
0.962222
0.962227
0.962222
0.962226
0.962253
0.962226
0.962223
0.962221
0.962222
0.962234
0.962221
0.962226
0.962229
0.962253
0.962222
0.962227
0.962237
0.962229
0.962239
0.96224
0.962247
0.962232
0.962211
0.962209
0.962247
0.962231
0.962234
0.962228
0.962241
0.962236
0.962221
0.962238
0.962228
0.962236
0.962229
0.962221
0.962258
0.962243
0.962238
0.962238
0.962233
0.96223
0.962249
0.962236
0.962231
0.962229
0.962229
0.962246
0.962225
0.962245
0.96223
0.962203
0.962229
0.96222
0.962239
0.962225
0.962258
0.962229
0.962237
0.962224
0.962237
0.962228
0.962233
0.962219
0.962229
0.962226
0.962243
0.962224
0.962231
0.96224
0.962228
0.962228
0.962229
0.962229
0.96224
0.962228
0.962235
0.962232
0.962248
0.96223
0.962229
0.962232
0.96223
0.962228
0.96223
0.962242
0.962234
0.962229
0.962225
0.962236
0.962236
0.962228
0.962248
0.962186
0.962234
0.962218
0.962232
0.962134
0.962135
0.962133
0.962133
0.962131
0.962139
0.96214
0.962239
0.962249
0.96223
0.96223
0.962226
0.96223
0.962236
0.962229
0.962229
0.96225
0.962229
0.962243
0.962223
0.962236
0.962231
0.962231
0.96223
0.962248
0.962234
0.962231
0.962234
0.96223
0.962226
0.96222
0.96223
0.962234
0.962243
0.962227
0.962226
0.962227
0.96223
0.962233
0.962235
0.962227
0.962236
0.962231
0.96223
0.962234
0.962231
0.962228
0.962236
0.962232
0.962248
0.962204
0.962239
0.962242
0.962233
0.962233
0.962236
0.962189
0.962231
0.962232
0.962219
0.962261
0.962262
0.962232
0.962227
0.962233
0.962228
0.962273
0.962272
0.962231
0.962235
0.962234
0.962193
0.962226
0.962237
0.962232
0.962232
0.96223
0.962184
0.962237
0.962226
0.962234
0.962233
0.962231
0.962231
0.962231
0.962232
0.962208
0.96222
0.96223
0.962234
0.962232
0.962231
0.962232
0.962232
0.962232
0.962205
0.962242
0.962226
0.962236
0.962237
0.962205
0.962231
0.96223
0.962249
0.962254
0.962254
0.962243
0.962226
0.962233
0.962204
0.962253
0.962267
0.962267
0.962184
0.962254
0.962252
0.962233
0.962244
0.962231
0.962231
0.962235
0.96224
0.962236
0.962188
0.962233
0.962238
0.962238
0.962203
0.962251
0.962222
0.962235
0.962235
0.962227
0.962233
0.962235
0.962244
0.962234
0.962244
0.962233
0.962239
0.962252
0.962254
0.962207
0.962232
0.962211
0.962216
0.962207
0.962238
0.962192
0.962203
0.962231
0.962208
0.962252
0.962252
0.962211
0.962228
0.962212
0.962214
0.962207
0.962214
0.962208
0.962254
0.962203
0.962191
0.962209
0.962236
0.96224
0.962207
0.962235
0.962202
0.962235
0.96223
0.962213
0.962205
0.96221
0.962183
0.962231
0.962251
0.962263
0.962262
0.962234
0.962263
0.962263
0.962263
0.962258
0.962204
0.962252
0.962245
0.962252
0.962234
0.96226
0.96226
0.962255
0.962182
0.962229
0.962192
0.962223
0.962216
0.962251
0.962251
0.962251
0.962252
0.962251
0.962264
0.962255
0.962261
0.962268
0.962254
0.962254
0.962268
0.962264
0.962261
0.962253
SCALARS rr_(P_ext) float
LOOKUP_TABLE default
0.0200306
0.0199351
0.0199435
0.0199368
0.0199111
0.0199437
0.0200309
0.019938
0.0199516
0.0199355
0.0200243
0.019938
0.01994
0.0199343
0.0199199
0.0199422
0.0199308
0.0199391
0.0199558
0.0199459
0.0199472
0.0198782
0.0199471
0.0199458
0.0199461
0.0199375
0.0200111
0.0199425
0.0199819
0.0198975
0.0199403
0.0199816
0.0200124
0.0199032
0.0199004
0.0199033
0.0198964
0.0199016
0.0199404
0.0200122
0.0199821
0.0198961
0.0198962
0.0199402
0.0200032
0.0199805
0.0199538
0.01995
0.0199433
0.0199878
0.0199843
0.0199721
0.0199124
0.0199719
0.0199131
0.0200004
0.0199002
0.0199719
0.0199003
0.0199454
0.0199312
0.0199233
0.020005
0.0199238
0.0199231
0.0199309
0.0199308
0.0199374
0.0199465
0.0199348
0.0199126
0.0199126
0.0199821
0.0199279
0.0199432
0.0200165
0.0199181
0.019931
0.0199375
0.01997
0.0199897
0.0199081
0.0199271
0.0199924
0.0199791
0.0200022
0.0199425
0.0199294
0.0200031
0.0198829
0.019972
0.019883
0.0199176
0.0199319
0.0199712
0.0199852
0.0199896
0.0199357
0.0199183
0.0199408
0.0199613
0.0199768
0.0199926
0.0199382
0.0199365
0.0199363
0.019926
0.0199416
0.0199928
0.0199337
0.0199453
0.0200002
0.0199959
0.0199387
0.0199367
0.0199716
0.0199003
0.01999
0.0199006
0.0199713
0.0199579
0.0199209
0.0199352
0.0199291
0.019933
0.0199191
0.0199036
0.0199357
0.0199896
0.0199712
0.0199125
0.0199358
0.0199276
0.0199354
0.0199767
0.0199001
0.0199949
0.0199393
0.0199271
0.0199002
0.0199756
0.0199353
0.0199565
0.0199354
0.0199904
0.0199371
0.0199367
0.0199434
0.0199437
0.0199641
0.0199502
0.0199352
0.0199818
0.0199398
0.0199355
0.0199357
0.0199329
0.0199747
0.0199744
0.01994
0.0199498
0.0199811
0.0200009
0.0199843
0.0199748
0.0199362
0.0199747
0.0199749
0.0199818
0.0199746
0.0199173
0.0199719
0.0199845
0.019932
0.0199717
0.0199263
0.0199174
0.019938
0.019912
0.0199362
0.0199817
0.0199358
0.0199359
0.0199755
0.0199292
0.0199851
0.0199292
0.0199259
0.019917
0.0199356
0.0199291
0.0199886
0.0199717
0.0199817
0.0199355
0.0199394
0.0199389
0.0199277
0.0199353
0.0199312
0.0199351
0.0199546
0.0199693
0.0199278
0.0199816
0.0199272
0.019931
0.0199773
0.0199221
0.0199349
0.0199212
0.0199338
0.0199368
0.0199271
0.0199638
0.019933
0.0199683
0.0199259
0.0199332
0.0199332
0.0199343
0.0199339
0.0199338
0.0199339
0.0199348
0.0199205
0.0199208
0.0199205
0.0199204
0.019913
0.0199129
0.0199645
0.0199346
0.0199376
0.0199504
0.0199199
0.0199195
0.0199373
0.019969
0.0199379
0.0199356
0.0199634
0.0199219
0.0199639
0.0199268
0.0199383
0.0199632
0.0199679
0.01999
0.0199892
0.0199271
0.0199918
0.019941
0.0199684
0.0199552
0.0199381
0.0199334
0.0198956
0.0199336
0.0199925
0.0199683
0.0199376
0.019938
0.0199695
0.0199335
0.019956
0.0198957
0.0199682
0.019933
0.0199297
0.0199389
0.0199201
0.0199296
0.0199124
0.01994
0.0199988
0.0200023
0.0199151
0.019947
0.019938
0.0199638
0.0199218
0.0199321
0.0199683
0.0199318
0.0199609
0.0199363
0.0199609
0.0199688
0.0198883
0.0199164
0.0199196
0.0199198
0.0199349
0.0199602
0.0199043
0.0199301
0.0199495
0.0199599
0.0199629
0.0199151
0.0199635
0.0199176
0.0199619
0.020003
0.0199604
0.0199909
0.0199257
0.0199634
0.0198884
0.0199618
0.0199279
0.0199645
0.0199287
0.0199621
0.0199425
0.0200066
0.0199444
0.0199637
0.0199155
0.0199641
0.0199495
0.0199287
0.0199348
0.019962
0.0199603
0.0199562
0.0199258
0.0199604
0.019938
0.0199424
0.0199126
0.0199603
0.0199567
0.0199481
0.0199557
0.0199613
0.0199555
0.019923
0.0199383
0.0199563
0.0199638
0.0199356
0.0199354
0.0199608
0.0199127
0.0200277
0.0199428
0.0199898
0.0199477
0.0200783
0.0200782
0.0200776
0.0200778
0.0200775
0.0200785
0.0200781
0.0199253
0.0199068
0.0199397
0.0199499
0.0199553
0.0199558
0.0199362
0.0199564
0.0199569
0.0199066
0.0199558
0.0199215
0.019972
0.019922
0.0199439
0.0199501
0.0199561
0.0199149
0.0199428
0.0199494
0.0199427
0.0199493
0.0199565
0.0199703
0.0199501
0.0199436
0.0199212
0.0199544
0.0199574
0.0199548
0.0199507
0.0199439
0.0199361
0.0199548
0.0199363
0.0199447
0.0199504
0.0199378
0.0199445
0.019956
0.0199288
0.0199485
0.0199077
0.0200029
0.0199254
0.019923
0.0199438
0.0199483
0.0199311
0.0200265
0.0199438
0.0199487
0.020006
0.019889
0.0198887
0.0199428
0.0199554
0.0199475
0.0199543
0.0198744
0.0198744
0.0199377
0.0199377
0.0199381
0.0200268
0.0199568
0.0199275
0.0199504
0.0199512
0.0199505
0.0200283
0.0199293
0.0199559
0.0199431
0.0199431
0.0199514
0.0199495
0.0199514
0.0199506
0.0200115
0.0199907
0.0199496
0.0199429
0.0199484
0.0199517
0.0199491
0.0199479
0.0199484
0.0200029
0.0199198
0.0199549
0.0199314
0.0199288
0.0200035
0.0199434
0.0199443
0.0199126
0.0198895
0.0198896
0.0199165
0.019957
0.0199433
0.0200045
0.0198914
0.0198766
0.0198766
0.0200294
0.0199017
0.0198975
0.0199443
0.019918
0.0199398
0.0199349
0.0199285
0.0199262
0.019938
0.0200268
0.019942
0.0199321
0.0199277
0.0200171
0.0199006
0.0200077
0.019928
0.0199347
0.0199625
0.0199404
0.0199384
0.0199118
0.0199371
0.0199119
0.0199429
0.0199276
0.019899
0.0198984
0.0200042
0.0199337
0.0200324
0.0200307
0.0200345
0.0199294
0.0200279
0.0200365
0.0199517
0.0200335
0.0199077
0.0199078
0.020032
0.0199479
0.0200113
0.020033
0.0200131
0.0200333
0.0200131
0.0199011
0.0200077
0.0200275
0.0200322
0.0199388
0.0199241
0.0200146
0.0199386
0.0200358
0.0199355
0.0199473
0.020034
0.020016
0.0200354
0.0200293
0.0199447
0.0199062
0.0198783
0.0198795
0.0199339
0.0198785
0.0198785
0.019879
0.0198864
0.0200058
0.0198997
0.0199158
0.0199061
0.0199351
0.0198845
0.0198845
0.0199044
0.0200303
0.0199482
0.0200292
0.0200092
0.0200085
0.0198925
0.0198928
0.0198934
0.0198932
0.0198926
0.0198799
0.0198932
0.0198844
0.019878
0.0198923
0.0198922
0.0198777
0.0198796
0.0198841
0.019894
SCALARS rr_(S) float
LOOKUP_TABLE default
0.931078
0.93103
0.931037
0.931029
0.931035
0.931037
0.931078
0.931036
0.931042
0.931033
0.93105
0.931036
0.931037
0.931034
0.93103
0.931038
0.931031
0.931034
0.93104
0.931037
0.931041
0.931029
0.931037
0.931037
0.931037
0.931032
0.931059
0.931037
0.931049
0.931029
0.931038
0.931048
0.931062
0.931029
0.931032
0.931029
0.931027
0.931033
0.931038
0.931062
0.931049
0.931026
0.931026
0.931038
0.931051
0.93105
0.931041
0.931042
0.931037
0.931049
0.931049
0.931048
0.931031
0.93105
0.931032
0.93106
0.931032
0.931049
0.931032
0.931036
0.931029
0.931033
0.931064
0.931034
0.931033
0.931035
0.931029
0.931033
0.931037
0.931029
0.931031
0.931031
0.93105
0.931035
0.931038
0.93106
0.931034
0.931035
0.931033
0.931044
0.931055
0.931035
0.931031
0.931054
0.931052
0.931055
0.931037
0.931036
0.931051
0.93103
0.931049
0.931031
0.931032
0.931036
0.931049
0.931048
0.931057
0.931032
0.931034
0.931038
0.931046
0.931053
0.931053
0.931032
0.931033
0.931032
0.931031
0.931039
0.931053
0.931026
0.931036
0.931052
0.931052
0.931033
0.931033
0.93105
0.931035
0.931058
0.931035
0.93105
0.931041
0.931029
0.931029
0.931032
0.931027
0.93103
0.931034
0.931032
0.931057
0.931049
0.93103
0.931029
0.93103
0.931029
0.931053
0.931032
0.93106
0.931038
0.93103
0.931031
0.931052
0.931037
0.931043
0.931033
0.931059
0.931032
0.931037
0.93104
0.931038
0.931045
0.931041
0.931029
0.931048
0.931038
0.931032
0.931029
0.931034
0.931053
0.931052
0.931034
0.931042
0.931048
0.931053
0.931048
0.931051
0.931032
0.931052
0.931053
0.931049
0.931052
0.931032
0.931049
0.931049
0.931034
0.931049
0.931031
0.931032
0.931037
0.931033
0.931035
0.93105
0.931032
0.931032
0.931051
0.931036
0.931049
0.931032
0.931034
0.931034
0.931032
0.931036
0.931057
0.931048
0.931048
0.931029
0.931033
0.931032
0.93103
0.931029
0.931036
0.931029
0.931041
0.931045
0.93103
0.931051
0.93103
0.931036
0.931051
0.931033
0.931029
0.931035
0.931036
0.931033
0.931031
0.931044
0.931036
0.931045
0.931034
0.931027
0.931027
0.931025
0.931026
0.931027
0.931027
0.931034
0.931029
0.931029
0.931029
0.931029
0.931033
0.931032
0.931044
0.931033
0.931026
0.931043
0.931031
0.931031
0.931026
0.931044
0.931025
0.931032
0.931045
0.931033
0.931045
0.931031
0.931024
0.931044
0.931045
0.931055
0.931049
0.931031
0.931059
0.931037
0.931045
0.931041
0.931025
0.931027
0.931028
0.931026
0.931062
0.931044
0.931025
0.931036
0.931045
0.931026
0.931044
0.931028
0.931045
0.931027
0.931033
0.931032
0.93103
0.931037
0.931033
0.931036
0.931055
0.931056
0.931034
0.931039
0.931036
0.931047
0.931032
0.931035
0.931044
0.931036
0.931046
0.931037
0.931047
0.931044
0.931029
0.931032
0.931029
0.931028
0.931033
0.931047
0.931029
0.931033
0.931041
0.931046
0.931047
0.931033
0.931045
0.931034
0.931048
0.931051
0.931046
0.931059
0.931033
0.931044
0.931028
0.931047
0.931033
0.931045
0.931033
0.931047
0.931038
0.931068
0.931036
0.931045
0.931031
0.931044
0.931041
0.931036
0.931029
0.931047
0.931046
0.931043
0.931035
0.931046
0.931037
0.931037
0.931034
0.931047
0.931043
0.931041
0.931044
0.931046
0.931044
0.931034
0.931036
0.931044
0.931045
0.931037
0.931037
0.931046
0.931034
0.931052
0.93104
0.931055
0.931041
0.931037
0.931038
0.931036
0.931036
0.931034
0.931042
0.931042
0.931033
0.931031
0.931034
0.93104
0.93104
0.931044
0.931037
0.931043
0.931044
0.931032
0.931043
0.931035
0.931048
0.931028
0.931037
0.931041
0.931044
0.931035
0.93104
0.931041
0.931039
0.93104
0.931041
0.931045
0.93104
0.93104
0.931034
0.931041
0.931041
0.931041
0.93104
0.931039
0.931036
0.931041
0.931037
0.931038
0.93104
0.931037
0.931037
0.931042
0.931032
0.931041
0.931031
0.931051
0.931033
0.931034
0.931039
0.931042
0.931034
0.931053
0.931037
0.931042
0.931068
0.931031
0.931032
0.931038
0.931041
0.931041
0.931041
0.931034
0.931032
0.931034
0.931037
0.931037
0.931057
0.931041
0.931033
0.931043
0.931043
0.931041
0.93105
0.931034
0.931041
0.931039
0.931039
0.931042
0.931041
0.931042
0.931042
0.931061
0.931058
0.93104
0.93104
0.931041
0.931042
0.931041
0.931041
0.931041
0.931053
0.931033
0.93104
0.931034
0.931034
0.931053
0.931037
0.931037
0.931034
0.931025
0.931025
0.931031
0.931041
0.931039
0.931053
0.931025
0.931029
0.931029
0.931051
0.931032
0.931028
0.931039
0.931033
0.931035
0.931032
0.931031
0.931034
0.931038
0.931052
0.931038
0.931036
0.931033
0.93106
0.931029
0.931072
0.931031
0.931036
0.931046
0.931036
0.931038
0.93103
0.931036
0.93103
0.931038
0.931034
0.93103
0.931031
0.931055
0.931032
0.931078
0.931081
0.931075
0.931035
0.931057
0.931073
0.931043
0.931076
0.931034
0.931034
0.931078
0.931037
0.931065
0.931081
0.931062
0.931081
0.931062
0.931032
0.931054
0.931056
0.931076
0.931038
0.931033
0.931062
0.931038
0.931071
0.931036
0.931038
0.931081
0.931061
0.931079
0.93105
0.931038
0.931032
0.931027
0.931027
0.931034
0.931027
0.931027
0.931027
0.931027
0.931054
0.931029
0.931033
0.931033
0.931035
0.931028
0.931028
0.931035
0.931049
0.931039
0.931058
0.931073
0.931066
0.931025
0.931024
0.931025
0.931026
0.931024
0.931029
0.931029
0.931029
0.931031
0.931028
0.931027
0.931031
0.931029
0.931029
0.931027
SCALARS rr_(P) float
LOOKUP_TABLE default
0.0229007
0.0228443
0.0228493
0.0228452
0.0228299
0.0228494
0.0229009
0.022846
0.0228541
0.0228445
0.0228967
0.022846
0.0228472
0.0228438
0.0228351
0.0228485
0.0228417
0.0228466
0.0228566
0.0228507
0.0228516
0.0228099
0.0228514
0.0228506
0.0228508
0.0228457
0.0228891
0.0228487
0.022872
0.0228215
0.0228474
0.0228718
0.0228899
0.022825
0.0228234
0.0228251
0.0228209
0.0228242
0.0228475
0.0228898
0.0228721
0.0228207
0.0228207
0.0228474
0.0228844
0.0228712
0.0228554
0.0228532
0.0228492
0.0228754
0.0228734
0.0228662
0.0228306
0.0228661
0.0228311
0.0228829
0.0228233
0.0228661
0.0228234
0.0228504
0.0228419
0.0228372
0.0228856
0.0228375
0.0228371
0.0228418
0.0228417
0.0228457
0.0228511
0.022844
0.0228307
0.0228308
0.0228721
0.02284
0.0228492
0.0228923
0.0228341
0.0228418
0.0228457
0.0228649
0.0228766
0.0228281
0.0228395
0.0228781
0.0228703
0.0228839
0.0228487
0.0228409
0.0228844
0.0228126
0.0228662
0.0228127
0.0228338
0.0228424
0.0228657
0.0228739
0.0228765
0.0228446
0.0228342
0.0228477
0.0228599
0.0228691
0.0228782
0.0228461
0.0228451
0.022845
0.0228388
0.0228482
0.0228783
0.0228433
0.0228504
0.0228826
0.0228801
0.0228464
0.0228453
0.022866
0.0228234
0.0228768
0.0228235
0.0228658
0.0228578
0.0228357
0.0228442
0.0228407
0.0228429
0.0228346
0.0228253
0.0228446
0.0228765
0.0228657
0.0228306
0.0228446
0.0228397
0.0228444
0.022869
0.0228232
0.0228796
0.0228468
0.0228394
0.0228233
0.0228683
0.0228444
0.022857
0.0228445
0.022877
0.0228455
0.0228452
0.0228492
0.0228494
0.0228615
0.0228533
0.0228442
0.0228719
0.0228471
0.0228445
0.0228446
0.022843
0.0228678
0.0228676
0.0228472
0.0228531
0.0228715
0.0228831
0.0228734
0.0228678
0.0228449
0.0228678
0.0228679
0.0228719
0.0228677
0.0228336
0.0228661
0.0228735
0.0228424
0.022866
0.022839
0.0228336
0.022846
0.0228304
0.0228449
0.0228719
0.0228447
0.0228447
0.0228682
0.0228408
0.0228738
0.0228407
0.0228387
0.0228334
0.0228446
0.0228407
0.0228759
0.022866
0.0228718
0.0228445
0.0228468
0.0228465
0.0228398
0.0228443
0.022842
0.0228442
0.0228559
0.0228646
0.0228399
0.0228718
0.0228395
0.0228418
0.0228693
0.0228365
0.0228441
0.022836
0.0228435
0.0228453
0.0228394
0.0228613
0.022843
0.022864
0.0228388
0.022843
0.022843
0.0228436
0.0228434
0.0228434
0.0228434
0.0228441
0.0228355
0.0228356
0.0228354
0.0228354
0.0228309
0.0228309
0.0228617
0.0228439
0.0228456
0.0228535
0.022835
0.0228348
0.0228455
0.0228644
0.0228458
0.0228446
0.0228611
0.0228364
0.0228614
0.0228393
0.022846
0.022861
0.0228637
0.0228767
0.0228762
0.0228394
0.0228778
0.0228478
0.022864
0.0228562
0.0228459
0.0228431
0.0228204
0.0228433
0.0228783
0.022864
0.0228456
0.022846
0.0228647
0.0228432
0.0228567
0.0228205
0.0228639
0.0228429
0.022841
0.0228465
0.0228352
0.022841
0.0228307
0.0228473
0.0228819
0.0228839
0.0228322
0.0228514
0.022846
0.0228614
0.0228363
0.0228425
0.0228639
0.0228423
0.0228597
0.022845
0.0228597
0.0228643
0.022816
0.0228331
0.0228349
0.022835
0.0228441
0.0228593
0.0228257
0.0228413
0.0228529
0.022859
0.0228608
0.0228323
0.0228612
0.0228337
0.0228602
0.0228843
0.0228593
0.0228773
0.0228386
0.0228611
0.022816
0.0228602
0.0228399
0.0228617
0.0228405
0.0228603
0.0228487
0.0228866
0.0228498
0.0228613
0.0228325
0.0228615
0.0228528
0.0228405
0.0228441
0.0228603
0.0228593
0.0228569
0.0228387
0.0228594
0.022846
0.0228487
0.0228308
0.0228593
0.0228572
0.022852
0.0228566
0.0228599
0.0228564
0.022837
0.0228462
0.0228569
0.0228613
0.0228446
0.0228445
0.0228596
0.0228309
0.0228987
0.0228489
0.0228767
0.0228518
0.0229282
0.0229281
0.0229277
0.0229279
0.0229277
0.0229283
0.0229281
0.0228384
0.0228272
0.022847
0.0228531
0.0228563
0.0228566
0.022845
0.0228569
0.0228572
0.0228271
0.0228566
0.0228361
0.0228662
0.0228363
0.0228495
0.0228532
0.0228568
0.0228321
0.0228489
0.0228528
0.0228488
0.0228527
0.022857
0.0228651
0.0228532
0.0228494
0.0228359
0.0228557
0.0228575
0.022856
0.0228536
0.0228495
0.0228449
0.022856
0.022845
0.02285
0.0228534
0.0228459
0.0228499
0.0228567
0.0228405
0.0228523
0.0228278
0.0228842
0.0228385
0.022837
0.0228495
0.0228522
0.0228419
0.0228981
0.0228495
0.0228524
0.0228862
0.0228164
0.0228162
0.0228489
0.0228563
0.0228517
0.0228557
0.0228076
0.0228076
0.0228459
0.0228458
0.0228461
0.0228983
0.0228572
0.0228397
0.0228535
0.022854
0.0228535
0.022899
0.0228408
0.0228566
0.0228491
0.0228491
0.022854
0.0228529
0.022854
0.0228535
0.0228894
0.0228772
0.0228529
0.022849
0.0228523
0.0228542
0.0228526
0.0228519
0.0228523
0.0228843
0.0228351
0.022856
0.0228421
0.0228405
0.0228846
0.0228493
0.0228498
0.0228308
0.0228167
0.0228167
0.022833
0.0228573
0.0228492
0.0228852
0.0228178
0.0228089
0.022809
0.0228997
0.0228242
0.0228215
0.0228498
0.022834
0.0228471
0.0228441
0.0228403
0.022839
0.022846
0.0228982
0.0228484
0.0228425
0.0228398
0.0228926
0.0228234
0.0228873
0.02284
0.022844
0.0228605
0.0228475
0.0228463
0.0228302
0.0228455
0.0228302
0.022849
0.0228398
0.0228224
0.0228221
0.022885
0.0228434
0.0229018
0.0229008
0.022903
0.0228409
0.0228989
0.0229041
0.0228542
0.0229024
0.0228279
0.0228279
0.0229015
0.0228519
0.0228893
0.0229021
0.0228903
0.0229023
0.0228903
0.0228238
0.022887
0.0228987
0.0229016
0.0228465
0.0228377
0.0228912
0.0228464
0.0229037
0.0228446
0.0228516
0.0229027
0.022892
0.0229035
0.0228997
0.02285
0.0228269
0.0228099
0.0228106
0.0228436
0.02281
0.0228101
0.0228104
0.0228148
0.022886
0.0228229
0.0228327
0.0228268
0.0228442
0.0228136
0.0228137
0.0228258
0.0229002
0.0228521
0.0228997
0.0228882
0.0228877
0.0228185
0.0228186
0.022819
0.0228189
0.0228185
0.0228109
0.0228189
0.0228136
0.0228098
0.0228184
0.0228183
0.0228096
0.0228107
0.0228134
0.0228193
SCALARS rr_(T) float
LOOKUP_TABLE default
0.107162
0.107191
0.107188
0.10719
0.107202
0.107188
0.107162
0.10719
0.107186
0.107191
0.107163
0.10719
0.107189
0.107191
0.107198
0.107188
0.107193
0.10719
0.107184
0.107187
0.107187
0.107217
0.107187
0.107187
0.107187
0.10719
0.107167
0.107189
0.107176
0.107208
0.107189
0.107176
0.107167
0.107206
0.107207
0.107206
0.107209
0.107206
0.107189
0.107167
0.107176
0.107209
0.107209
0.107189
0.107169
0.107176
0.107185
0.107186
0.107188
0.107174
0.107175
0.107179
0.107201
0.107179
0.107201
0.107171
0.107207
0.107179
0.107207
0.107187
0.107193
0.107196
0.10717
0.107196
0.107196
0.107193
0.107193
0.10719
0.107187
0.107191
0.107201
0.107201
0.107176
0.107194
0.107188
0.107166
0.107199
0.107193
0.10719
0.10718
0.107174
0.107203
0.107194
0.107173
0.107177
0.10717
0.107189
0.107194
0.107169
0.107216
0.107179
0.107216
0.107199
0.107193
0.107179
0.107175
0.107174
0.107191
0.107199
0.107189
0.107183
0.107178
0.107173
0.10719
0.107191
0.10719
0.107195
0.107189
0.107173
0.107191
0.107187
0.10717
0.107172
0.10719
0.10719
0.107179
0.107207
0.107174
0.107207
0.107179
0.107183
0.107197
0.107191
0.107194
0.107192
0.107198
0.107205
0.107191
0.107174
0.107179
0.107201
0.10719
0.107194
0.107191
0.107178
0.107207
0.107172
0.10719
0.107194
0.107207
0.107178
0.107191
0.107184
0.107191
0.107174
0.10719
0.107191
0.107189
0.107188
0.107182
0.107186
0.107191
0.107176
0.107189
0.107191
0.10719
0.107192
0.107178
0.107179
0.107189
0.107186
0.107176
0.10717
0.107175
0.107178
0.10719
0.107178
0.107178
0.107176
0.107178
0.107199
0.107179
0.107175
0.107192
0.107179
0.107195
0.107199
0.10719
0.107201
0.107191
0.107176
0.107191
0.107191
0.107178
0.107194
0.107175
0.107194
0.107195
0.107199
0.107191
0.107194
0.107174
0.107179
0.107176
0.107191
0.107189
0.10719
0.107194
0.107191
0.107193
0.107191
0.107184
0.10718
0.107194
0.107176
0.107194
0.107193
0.107178
0.107197
0.107191
0.107197
0.107192
0.10719
0.107194
0.107182
0.107192
0.10718
0.107195
0.107191
0.107191
0.107191
0.107191
0.107191
0.107191
0.107191
0.107197
0.107197
0.107197
0.107197
0.107201
0.107201
0.107181
0.107191
0.107189
0.107186
0.107198
0.107198
0.10719
0.10718
0.107189
0.107191
0.107182
0.107197
0.107182
0.107195
0.107189
0.107182
0.10718
0.107174
0.107174
0.107194
0.107173
0.107189
0.10718
0.107184
0.107189
0.107191
0.107209
0.107191
0.107173
0.10718
0.107189
0.10719
0.10718
0.107191
0.107184
0.107209
0.10718
0.107192
0.107193
0.107189
0.107198
0.107194
0.107201
0.107189
0.107171
0.10717
0.1072
0.107187
0.10719
0.107182
0.107197
0.107192
0.10718
0.107193
0.107183
0.107191
0.107183
0.10718
0.107213
0.107199
0.107198
0.107198
0.107191
0.107183
0.107205
0.107193
0.107186
0.107183
0.107182
0.1072
0.107182
0.107199
0.107182
0.107169
0.107183
0.107174
0.107195
0.107182
0.107213
0.107182
0.107194
0.107181
0.107194
0.107182
0.107188
0.107169
0.107188
0.107182
0.1072
0.107182
0.107186
0.107194
0.107191
0.107182
0.107183
0.107184
0.107195
0.107183
0.10719
0.107189
0.107201
0.107183
0.107184
0.107187
0.107184
0.107182
0.107184
0.107197
0.10719
0.107184
0.107182
0.107191
0.107191
0.107183
0.107201
0.107162
0.107189
0.107174
0.107187
0.107145
0.107145
0.107145
0.107145
0.107145
0.107145
0.107145
0.107195
0.107204
0.107189
0.107186
0.107184
0.107184
0.107191
0.107184
0.107184
0.107204
0.107184
0.107197
0.107179
0.107196
0.107188
0.107186
0.107184
0.1072
0.107189
0.107186
0.107189
0.107186
0.107184
0.10718
0.107186
0.107188
0.107197
0.107185
0.107184
0.107184
0.107186
0.107188
0.107191
0.107184
0.107191
0.107188
0.107186
0.10719
0.107188
0.107184
0.107194
0.107187
0.107203
0.107169
0.107195
0.107197
0.107188
0.107187
0.107193
0.107162
0.107188
0.107187
0.107169
0.107213
0.107213
0.107189
0.107184
0.107187
0.107185
0.10722
0.10722
0.10719
0.10719
0.10719
0.107162
0.107184
0.107194
0.107186
0.107186
0.107186
0.107161
0.107194
0.107184
0.107189
0.107189
0.107186
0.107186
0.107186
0.107186
0.107167
0.107174
0.107186
0.107189
0.107187
0.107185
0.107186
0.107187
0.107187
0.10717
0.107198
0.107184
0.107193
0.107194
0.107169
0.107188
0.107188
0.107201
0.107212
0.107212
0.107199
0.107184
0.107189
0.107169
0.107211
0.107218
0.107218
0.107161
0.107206
0.107208
0.107188
0.107199
0.107189
0.107191
0.107194
0.107195
0.10719
0.107162
0.107189
0.107193
0.107194
0.107165
0.107207
0.107169
0.107194
0.107191
0.107182
0.107189
0.10719
0.107202
0.10719
0.107201
0.107188
0.107194
0.107208
0.107208
0.107169
0.107192
0.107162
0.107163
0.107161
0.107194
0.107162
0.10716
0.107185
0.107161
0.107203
0.107203
0.107162
0.107187
0.107168
0.107162
0.107167
0.107162
0.107167
0.107206
0.107168
0.107162
0.107162
0.10719
0.107196
0.107166
0.10719
0.10716
0.107191
0.107187
0.107161
0.107166
0.107161
0.107161
0.107188
0.107204
0.107217
0.107217
0.107192
0.107217
0.107217
0.107217
0.107214
0.107169
0.107207
0.1072
0.107204
0.107191
0.107215
0.107215
0.107205
0.107161
0.107186
0.107161
0.107169
0.107169
0.10721
0.10721
0.10721
0.10721
0.10721
0.107217
0.10721
0.107215
0.107218
0.107211
0.107211
0.107218
0.107217
0.107215
0.10721
SCALARS rr_tsim float
LOOKUP_TABLE default
240
240
240
240
240
240
240
240
240
240
240
240
240
240
240
240
240
240
240
240
240
240
240
240
240
240
240
240
240
240
240
240
240
240
240
240
240
240
240
240
240
240
240
240
240
240
240
240
240
240
240
240
240
240
240
240
240
240
240
240
240
240
240
240
240
240
240
240
240
240
240
240
240
240
240
240
240
240
240
240
240
240
240
240
240
240
240
240
240
240
240
240
240
240
240
240
240
240
240
240
240
240
240
240
240
240
240
240
240
240
240
240
240
240
240
240
240
240
240
240
240
240
240
240
240
240
240
240
240
240
240
240
240
240
240
240
240
240
240
240
240
240
240
240
240
240
240
240
240
240
240
240
240
240
240
240
240
240
240
240
240
240
240
240
240
240
240
240
240
240
240
240
240
240
240
240
240
240
240
240
240
240
240
240
240
240
240
240
240
240
240
240
240
240
240
240
240
240
240
240
240
240
240
240
240
240
240
240
240
240
240
240
240
240
240
240
240
240
240
240
240
240
240
240
240
240
240
240
240
240
240
240
240
240
240
240
240
240
240
240
240
240
240
240
240
240
240
240
240
240
240
240
240
240
240
240
240
240
240
240
240
240
240
240
240
240
240
240
240
240
240
240
240
240
240
240
240
240
240
240
240
240
240
240
240
240
240
240
240
240
240
240
240
240
240
240
240
240
240
240
240
240
240
240
240
240
240
240
240
240
240
240
240
240
240
240
240
240
240
240
240
240
240
240
240
240
240
240
240
240
240
240
240
240
240
240
240
240
240
240
240
240
240
240
240
240
240
240
240
240
240
240
240
240
240
240
240
240
240
240
240
240
240
240
240
240
240
240
240
240
240
240
240
240
240
240
240
240
240
240
240
240
240
240
240
240
240
240
240
240
240
240
240
240
240
240
240
240
240
240
240
240
240
240
240
240
240
240
240
240
240
240
240
240
240
240
240
240
240
240
240
240
240
240
240
240
240
240
240
240
240
240
240
240
240
240
240
240
240
240
240
240
240
240
240
240
240
240
240
240
240
240
240
240
240
240
240
240
240
240
240
240
240
240
240
240
240
240
240
240
240
240
240
240
240
240
240
240
240
240
240
240
240
240
240
240
240
240
240
240
240
240
240
240
240
240
240
240
240
240
240
240
240
240
240
240
240
240
240
240
240
240
240
240
240
240
240
240
240
240
240
240
240
240
240
240
240
240
240
240
240
240
240
240
240
240
240
240
240
240
240
240
240
240
240
240
240
240
240
240
240
240
240
240
240
240
240
240
240
240
240
240
240
SCALARS rr_Vext float
LOOKUP_TABLE default
0.181359
0.449124
0.356049
0.46811
0.250493
0.377829
0.179275
0.46509
0.395107
0.504567
0.165389
0.46651
0.409827
0.435014
0.516136
0.424865
0.369044
0.414185
0.365532
0.360528
0.40511
0.0765107
0.415071
0.383015
0.347106
0.403472
0.15501
0.352835
0.267413
0.339247
0.36197
0.276486
0.17152
0.252901
0.249247
0.253452
0.330127
0.249491
0.361541
0.192836
0.224721
0.29105
0.29106
0.397273
0.216886
0.24412
0.344613
0.350184
0.33008
0.303761
0.312854
0.245237
0.401518
0.315207
0.369415
0.157754
0.266179
0.317517
0.266151
0.393186
0.47093
0.464873
0.153276
0.327642
0.445314
0.417375
0.455656
0.391906
0.357986
0.515558
0.435555
0.430791
0.277655
0.338745
0.353973
0.176426
0.372676
0.413478
0.39517
0.271133
0.240491
0.283507
0.527533
0.240251
0.327761
0.119292
0.407581
0.34461
0.229706
0.0374829
0.273093
0.0407607
0.316358
0.299313
0.258659
0.232983
0.220909
0.442931
0.372911
0.351856
0.293536
0.27777
0.230479
0.418577
0.426139
0.383832
0.340627
0.340848
0.244629
0.51252
0.326027
0.164039
0.220057
0.457879
0.429719
0.304482
0.308631
0.183509
0.320035
0.303367
0.266986
0.502649
0.511811
0.442041
0.484526
0.384952
0.220815
0.478211
0.200079
0.262279
0.227503
0.456395
0.449024
0.44825
0.288938
0.187537
0.190639
0.32744
0.404469
0.18746
0.241542
0.38729
0.28797
0.472758
0.223276
0.38519
0.349732
0.336128
0.21479
0.269546
0.304299
0.440627
0.248027
0.397411
0.46199
0.469244
0.307856
0.249008
0.247657
0.401136
0.333853
0.246117
0.160076
0.239704
0.240467
0.430956
0.252349
0.255101
0.27462
0.245939
0.386344
0.258184
0.226059
0.297714
0.272812
0.340307
0.382118
0.361133
0.313977
0.360846
0.266567
0.418247
0.448852
0.241615
0.4423
0.23944
0.436795
0.402737
0.378966
0.379415
0.446227
0.200774
0.266928
0.246017
0.44741
0.439021
0.407199
0.447895
0.452952
0.381865
0.46657
0.307716
0.27411
0.512732
0.285548
0.465954
0.369961
0.226655
0.286342
0.461725
0.389035
0.350308
0.450056
0.445256
0.278859
0.284221
0.267543
0.395453
0.433419
0.498092
0.478089
0.520371
0.471558
0.515287
0.432056
0.457202
0.460651
0.434355
0.456357
0.422919
0.416635
0.282411
0.389411
0.454295
0.312121
0.470273
0.432156
0.49266
0.288246
0.468277
0.448678
0.2845
0.406913
0.282469
0.455238
0.41129
0.296255
0.277678
0.235553
0.271097
0.455773
0.197501
0.347021
0.276528
0.313903
0.468672
0.455549
0.147788
0.457105
0.236431
0.261765
0.46627
0.379027
0.264585
0.522182
0.291231
0.14778
0.267724
0.406399
0.508922
0.38269
0.457755
0.425156
0.226615
0.216731
0.175979
0.201428
0.308134
0.229075
0.371981
0.227525
0.406392
0.287623
0.268102
0.323953
0.293522
0.398522
0.281487
0.287596
0.13637
0.303571
0.43781
0.438058
0.391525
0.281116
0.192359
0.545878
0.360489
0.298318
0.274291
0.284976
0.282729
0.358843
0.278091
0.192059
0.274792
0.183496
0.351067
0.279577
0.127091
0.263722
0.321338
0.279315
0.44367
0.29071
0.381468
0.138315
0.305662
0.287014
0.261624
0.269318
0.321992
0.308722
0.321046
0.266564
0.271164
0.293859
0.403601
0.276095
0.399022
0.358787
0.290796
0.286474
0.290123
0.323373
0.289912
0.270117
0.308529
0.333029
0.387866
0.290169
0.286353
0.425143
0.419248
0.276212
0.290835
0.117369
0.342063
0.227678
0.31968
0.126304
0.131123
0.117233
0.119129
0.126411
0.133076
0.137186
0.365818
0.275203
0.269663
0.305534
0.296207
0.292408
0.314709
0.285993
0.292387
0.310823
0.291314
0.368788
0.261063
0.378833
0.289103
0.277578
0.291596
0.322765
0.328993
0.304696
0.351049
0.32603
0.300389
0.213975
0.303859
0.298862
0.32828
0.305308
0.288518
0.275035
0.304063
0.319091
0.436161
0.283306
0.424
0.438659
0.298864
0.422863
0.322475
0.255677
0.356793
0.307317
0.229504
0.18527
0.353348
0.377138
0.313432
0.259542
0.317012
0.138204
0.309863
0.289512
0.140569
0.0597486
0.0653753
0.268651
0.283294
0.331356
0.316586
0.0311308
0.0325286
0.318179
0.321542
0.304241
0.103724
0.264726
0.315903
0.315641
0.272075
0.240281
0.107863
0.464465
0.284945
0.35216
0.357671
0.255162
0.323444
0.249475
0.275479
0.129739
0.199381
0.323805
0.327749
0.280324
0.293562
0.303657
0.320504
0.306408
0.14396
0.275778
0.301352
0.290884
0.437487
0.143857
0.233731
0.240571
0.234522
0.155625
0.155628
0.267698
0.208507
0.301872
0.153856
0.185525
0.0614167
0.0614142
0.11231
0.199633
0.134971
0.257
0.284537
0.297806
0.336999
0.307417
0.285231
0.222215
0.127171
0.278049
0.29058
0.282437
0.144129
0.147645
0.104629
0.281947
0.28597
0.22418
0.258249
0.238712
0.22379
0.29291
0.223757
0.257203
0.251386
0.158046
0.19524
0.165308
0.310645
0.112706
0.118918
0.115939
0.294532
0.10769
0.104733
0.200916
0.0979319
0.243154
0.243508
0.100659
0.255444
0.113722
0.110989
0.127154
0.105858
0.105723
0.174205
0.12624
0.112774
0.106277
0.235809
0.272658
0.118743
0.260315
0.0960766
0.264787
0.208171
0.100551
0.086435
0.0948695
0.12646
0.225551
0.192179
0.0824424
0.0914072
0.253856
0.0775858
0.0775826
0.0878716
0.0979619
0.0995848
0.127334
0.207532
0.193794
0.253767
0.0775242
0.0775209
0.229251
0.0843465
0.178713
0.0765189
0.0783413
0.103271
0.198595
0.205595
0.218906
0.200659
0.19858
0.0438923
0.32038
0.0557536
0.0543417
0.259008
0.257238
0.0563345
0.0390571
0.0548044
0.23856
SCALARS rr_Vli float
LOOKUP_TABLE default
0.396486
0.903297
0.721403
0.942902
0.493003
0.765664
0.392034
0.93767
0.806267
1.01512
0.359835
0.940542
0.827701
0.874153
1.02412
0.859728
0.739394
0.835915
0.748796
0.732053
0.82348
0.146196
0.843737
0.777626
0.704887
0.813139
0.333349
0.714256
0.560608
0.659801
0.731225
0.579528
0.369272
0.494392
0.485904
0.495506
0.641457
0.486896
0.730481
0.415064
0.47121
0.565329
0.565389
0.802514
0.463322
0.511147
0.704661
0.713571
0.66868
0.640142
0.657314
0.509709
0.791281
0.654953
0.728498
0.336094
0.518808
0.659755
0.518791
0.798046
0.943863
0.925029
0.327839
0.652217
0.886009
0.836195
0.912999
0.789773
0.727289
1.03671
0.858506
0.849151
0.58221
0.676851
0.716968
0.381182
0.738159
0.828439
0.796421
0.56248
0.507623
0.556448
1.05351
0.508332
0.685383
0.254579
0.825075
0.689486
0.49066
0.0719434
0.567528
0.0782461
0.62635
0.600259
0.537108
0.489901
0.466216
0.891213
0.738707
0.711148
0.604217
0.579673
0.487749
0.84411
0.85808
0.772713
0.679546
0.689379
0.517759
1.02965
0.661677
0.349478
0.467059
0.92382
0.865435
0.632491
0.601612
0.387411
0.624001
0.629991
0.547959
0.998311
1.02947
0.884277
0.972856
0.763252
0.43175
0.962236
0.422252
0.544646
0.448452
0.918479
0.89711
0.901822
0.602899
0.365537
0.404181
0.660931
0.807732
0.365414
0.503538
0.778933
0.59024
0.951059
0.471531
0.776064
0.704322
0.680954
0.435246
0.556268
0.620246
0.886307
0.519982
0.802496
0.929441
0.944261
0.617853
0.518656
0.515713
0.810196
0.680206
0.515659
0.341238
0.503638
0.500928
0.867514
0.525644
0.531443
0.575696
0.512236
0.764767
0.536473
0.475014
0.597025
0.566758
0.6791
0.756451
0.728158
0.618511
0.726372
0.55876
0.841635
0.903304
0.503621
0.884782
0.503408
0.873806
0.803283
0.749915
0.763389
0.892541
0.423344
0.554569
0.51569
0.900209
0.8863
0.821711
0.894904
0.911195
0.76527
0.938416
0.629674
0.568292
1.02454
0.598471
0.930552
0.741277
0.47324
0.569198
0.928573
0.772727
0.703605
0.906435
0.889137
0.575329
0.570471
0.5542
0.788782
0.870377
1.00028
0.961015
1.04558
0.947451
1.03539
0.868712
0.907697
0.914769
0.862344
0.905932
0.83393
0.821516
0.583004
0.782794
0.915907
0.636238
0.933121
0.857209
0.993023
0.597475
0.944368
0.902754
0.586736
0.808801
0.582774
0.908855
0.829725
0.61088
0.574981
0.497305
0.572061
0.910101
0.417614
0.701481
0.572845
0.642712
0.945256
0.914967
0.286927
0.918294
0.500197
0.542258
0.9401
0.7642
0.548649
1.04888
0.596675
0.286927
0.5545
0.815977
1.01856
0.772233
0.908466
0.850823
0.4466
0.437752
0.374434
0.429883
0.608683
0.465559
0.749992
0.469384
0.807669
0.576817
0.55534
0.649547
0.603995
0.802277
0.579178
0.59602
0.263019
0.600442
0.86851
0.86913
0.787208
0.578062
0.376388
1.09285
0.7343
0.613258
0.565366
0.562958
0.583123
0.71046
0.572677
0.410196
0.565167
0.387691
0.700126
0.576599
0.245149
0.543077
0.642113
0.576619
0.88724
0.598797
0.772173
0.296222
0.619803
0.592062
0.51704
0.555817
0.655879
0.617314
0.645549
0.54901
0.557647
0.602197
0.804986
0.56787
0.804506
0.726242
0.573155
0.589128
0.594776
0.657842
0.593795
0.555994
0.631807
0.662546
0.78218
0.594651
0.59081
0.855287
0.843308
0.5683
0.573278
0.256088
0.692601
0.480627
0.650103
0.287606
0.29855
0.266803
0.271172
0.287682
0.303056
0.312311
0.729343
0.539723
0.544565
0.622604
0.6065
0.598933
0.633519
0.586131
0.599483
0.60947
0.596712
0.732658
0.542545
0.753107
0.586003
0.565699
0.597465
0.637466
0.666112
0.620592
0.710716
0.663997
0.615742
0.444039
0.619297
0.605572
0.652004
0.624636
0.591868
0.562871
0.620018
0.646721
0.877917
0.579857
0.853548
0.889739
0.609277
0.852428
0.653929
0.52384
0.713543
0.625425
0.450401
0.395665
0.704468
0.750313
0.635201
0.528049
0.635252
0.301236
0.628021
0.589265
0.300912
0.115298
0.126126
0.544004
0.580097
0.673736
0.647662
0.0592774
0.0619389
0.641396
0.648087
0.613482
0.226113
0.542804
0.631012
0.643417
0.555014
0.489878
0.235469
0.929283
0.583733
0.713232
0.724383
0.520582
0.658848
0.508989
0.561647
0.279101
0.421176
0.659632
0.663708
0.570433
0.599124
0.618256
0.651893
0.623523
0.307427
0.547097
0.616831
0.583015
0.874901
0.307368
0.473533
0.487753
0.46224
0.300515
0.300535
0.529554
0.427592
0.611536
0.329005
0.358876
0.117176
0.117176
0.245398
0.389619
0.262494
0.521051
0.563539
0.601411
0.677646
0.614657
0.569069
0.448036
0.277251
0.562546
0.5828
0.564247
0.311557
0.287924
0.224284
0.563452
0.57485
0.461942
0.521747
0.481453
0.440836
0.590094
0.440798
0.520822
0.502147
0.307811
0.380027
0.353393
0.623982
0.246785
0.25998
0.254334
0.589283
0.234981
0.230138
0.410009
0.214644
0.477121
0.477843
0.220334
0.51961
0.244574
0.243122
0.273901
0.231958
0.227739
0.33983
0.270697
0.245997
0.232678
0.475749
0.543002
0.256116
0.525108
0.211012
0.532689
0.423219
0.220454
0.186663
0.208255
0.276319
0.457467
0.376608
0.157552
0.174883
0.509986
0.148307
0.148306
0.168049
0.188628
0.213205
0.248113
0.410273
0.379761
0.510341
0.149004
0.149003
0.448511
0.184462
0.36361
0.167149
0.16815
0.221554
0.384549
0.398195
0.424214
0.388779
0.384539
0.0840102
0.620731
0.107163
0.103829
0.501444
0.497965
0.107596
0.0747329
0.105301
0.462542
SCALARS rr_S_ext' float
LOOKUP_TABLE default
-0.000429827
-0.000981301
-0.000783567
-0.00102429
-0.000535853
-0.000831638
-0.000424997
-0.00101859
-0.000875594
-0.00110277
-0.000390133
-0.00102171
-0.000899094
-0.000949665
-0.00111291
-0.000933841
-0.000803318
-0.000908027
-0.000813102
-0.000795092
-0.000894372
-0.000159008
-0.000916368
-0.000844591
-0.000765585
-0.000883317
-0.000361531
-0.00077582
-0.000608403
-0.000717335
-0.000794293
-0.000628938
-0.000400481
-0.000537441
-0.000528251
-0.000538652
-0.000697406
-0.000529317
-0.000793482
-0.000450147
-0.00051138
-0.000614644
-0.000614708
-0.000871731
-0.000502577
-0.000554743
-0.000765212
-0.000774955
-0.000726304
-0.000694624
-0.000713313
-0.000553285
-0.000860025
-0.000710954
-0.000791777
-0.000364599
-0.000564025
-0.000716165
-0.000564006
-0.000866775
-0.00102545
-0.00100517
-0.000355609
-0.000708717
-0.000962771
-0.000908494
-0.000991928
-0.000857937
-0.000789907
-0.00112623
-0.000933087
-0.00092292
-0.000631843
-0.000735421
-0.000778757
-0.000413358
-0.000802197
-0.000900066
-0.000865155
-0.000610594
-0.000550807
-0.000604851
-0.00114467
-0.000551541
-0.000743866
-0.000276157
-0.00089619
-0.000749125
-0.000532233
-7.82402e-05
-0.00061605
-8.50942e-05
-0.000680693
-0.000652142
-0.000583042
-0.000531626
-0.000505881
-0.000968167
-0.000802791
-0.000772475
-0.000656031
-0.000629169
-0.000529205
-0.000916945
-0.000932156
-0.000839424
-0.000738371
-0.000748816
-0.000561764
-0.00111858
-0.000718664
-0.000379115
-0.000506717
-0.00100352
-0.000940142
-0.000686576
-0.000654046
-0.000420368
-0.000678382
-0.000683866
-0.00059499
-0.00108484
-0.00111837
-0.000960765
-0.0010569
-0.000829442
-0.000469345
-0.00104532
-0.000458176
-0.000591223
-0.000487409
-0.000997778
-0.000974733
-0.000979689
-0.000654381
-0.000397395
-0.000438517
-0.00071795
-0.00087763
-0.000397261
-0.000546547
-0.000846205
-0.000640923
-0.00103318
-0.000511639
-0.000843047
-0.000765124
-0.000739635
-0.00047275
-0.000603931
-0.000673596
-0.000962837
-0.000564311
-0.00087172
-0.0010097
-0.00102579
-0.000671245
-0.00056297
-0.000559778
-0.000880076
-0.000738722
-0.000559629
-0.000370172
-0.000546544
-0.000543724
-0.000942411
-0.000570554
-0.000576846
-0.000624777
-0.000556001
-0.000831123
-0.000582342
-0.000515481
-0.00064863
-0.00061522
-0.000737882
-0.000822084
-0.000790996
-0.000672255
-0.000789085
-0.0006064
-0.000914306
-0.000981296
-0.000546639
-0.000961318
-0.000546286
-0.000949388
-0.000872827
-0.00081499
-0.000829306
-0.00096975
-0.000459371
-0.000601987
-0.000559657
-0.000977935
-0.000962752
-0.0008926
-0.000972335
-0.000989873
-0.000831432
-0.00101945
-0.000683769
-0.000616914
-0.00111318
-0.000649499
-0.00101108
-0.000805368
-0.000513641
-0.000618526
-0.00100876
-0.000839709
-0.000764395
-0.000984681
-0.000966082
-0.000624629
-0.000619769
-0.00060163
-0.00085707
-0.000945565
-0.00108669
-0.00104401
-0.00113589
-0.00102929
-0.00112482
-0.000943739
-0.000986382
-0.00099406
-0.000937096
-0.000984465
-0.000906368
-0.000892875
-0.000632952
-0.000850404
-0.000994933
-0.000690964
-0.00101402
-0.000931537
-0.00107871
-0.000648597
-0.00102584
-0.000980705
-0.000637021
-0.000878894
-0.000632713
-0.000987512
-0.000901301
-0.000663236
-0.000624194
-0.000539608
-0.000620727
-0.000988863
-0.000453122
-0.000761971
-0.00062187
-0.000697916
-0.00102681
-0.000994003
-0.00031196
-0.000997613
-0.00054272
-0.000588664
-0.00102121
-0.000830149
-0.000595587
-0.00113948
-0.000647917
-0.00031196
-0.000601957
-0.000886469
-0.00110665
-0.000838855
-0.000987225
-0.000924412
-0.000485401
-0.000475509
-0.000406203
-0.00046632
-0.00066153
-0.00050564
-0.000814715
-0.000509609
-0.000877665
-0.000626675
-0.000602867
-0.000705695
-0.000655796
-0.000871544
-0.000628853
-0.00064702
-0.000286009
-0.000652552
-0.000943814
-0.000944484
-0.000855197
-0.000627651
-0.000409153
-0.00118736
-0.000797473
-0.000665871
-0.00061383
-0.000611834
-0.000633097
-0.000772101
-0.000621782
-0.000444953
-0.000613645
-0.000420663
-0.000760741
-0.000626014
-0.000266576
-0.000589643
-0.000697672
-0.000626021
-0.000963991
-0.000650137
-0.000838731
-0.000321305
-0.000673197
-0.0006428
-0.000561922
-0.00060344
-0.000712305
-0.00067072
-0.000701299
-0.000596083
-0.000605483
-0.000653909
-0.000874678
-0.00061658
-0.000873934
-0.000788842
-0.00062295
-0.000639665
-0.000645845
-0.000714461
-0.000644795
-0.000603675
-0.000686075
-0.000719949
-0.000849676
-0.000645716
-0.000641436
-0.000929147
-0.000916136
-0.000617042
-0.000623082
-0.000277629
-0.000752296
-0.000521513
-0.000706062
-0.000311428
-0.00032328
-0.000288906
-0.000293635
-0.000311514
-0.000328158
-0.000338183
-0.000792492
-0.000586677
-0.000591535
-0.00067616
-0.000658594
-0.000650374
-0.000688217
-0.000636462
-0.000650955
-0.000662494
-0.000647961
-0.000796163
-0.00058893
-0.000818364
-0.000636492
-0.00061436
-0.000648774
-0.000692815
-0.000723526
-0.000673984
-0.000771974
-0.000721124
-0.000668612
-0.000482019
-0.000672566
-0.000657755
-0.000708522
-0.000678301
-0.000642676
-0.000611226
-0.000673341
-0.000702445
-0.000953718
-0.000629669
-0.000927243
-0.000966381
-0.000661681
-0.000925996
-0.000710263
-0.000568826
-0.000775267
-0.000679247
-0.000489578
-0.000429192
-0.000765465
-0.00081532
-0.000689933
-0.000573496
-0.000690174
-0.000326585
-0.000682132
-0.000639974
-0.000326395
-0.000125375
-0.00013715
-0.000590889
-0.000629922
-0.000731733
-0.000703307
-6.44775e-05
-6.73724e-05
-0.000696748
-0.000704022
-0.000666423
-0.00024514
-0.000589406
-0.000685616
-0.000698761
-0.000602743
-0.000532011
-0.000255272
-0.00100966
-0.000633864
-0.000774701
-0.000786812
-0.000565348
-0.00071553
-0.000552758
-0.000609954
-0.000302696
-0.000456998
-0.000716379
-0.00072091
-0.000619525
-0.000650639
-0.000671454
-0.000708002
-0.000677182
-0.000333478
-0.000594536
-0.000669818
-0.000633417
-0.000950587
-0.000333409
-0.000514338
-0.000529774
-0.000502399
-0.000326772
-0.000326794
-0.000575508
-0.000464302
-0.000664235
-0.000356872
-0.000390217
-0.00012745
-0.000127449
-0.00026603
-0.000423564
-0.000285384
-0.000565942
-0.000612429
-0.000653286
-0.000736168
-0.00066783
-0.000618333
-0.000486701
-0.000300579
-0.000611043
-0.000633174
-0.000613072
-0.000337851
-0.000313013
-0.00024327
-0.000612202
-0.000624502
-0.000501543
-0.000566746
-0.000522998
-0.000479139
-0.00064103
-0.000479096
-0.00056571
-0.000545602
-0.000334642
-0.000413159
-0.000383329
-0.000677887
-0.000267526
-0.000281842
-0.000275694
-0.000640254
-0.000254748
-0.000249455
-0.000445264
-0.000232677
-0.000518627
-0.000519411
-0.000238854
-0.000564331
-0.000265253
-0.000263553
-0.000297046
-0.000251448
-0.000246983
-0.000369441
-0.000293604
-0.000266692
-0.000252233
-0.000516798
-0.000590033
-0.000277748
-0.000570418
-0.000228725
-0.00057869
-0.00045965
-0.000238974
-0.000202422
-0.000225742
-0.00029955
-0.000496875
-0.00040938
-0.000171358
-0.000190203
-0.000554044
-0.000161302
-0.000161301
-0.000182772
-0.000205123
-0.000231257
-0.000269738
-0.000445884
-0.000412808
-0.000554415
-0.000162041
-0.000162039
-0.000487561
-0.000199965
-0.000394902
-0.000181205
-0.000182379
-0.000240302
-0.000418122
-0.000432957
-0.000461242
-0.000422715
-0.000418111
-9.1369e-05
-0.000674917
-0.000116539
-0.000112928
-0.000545225
-0.000541444
-0.000117027
-8.12796e-05
-0.000114514
-0.00050291
SCALARS rr_P_ext' float
LOOKUP_TABLE default
0.000174662
0.000403449
0.000321831
0.000421038
0.000220944
0.000341567
0.000172692
0.000418642
0.00035928
0.00045337
0.000158646
0.000419924
0.000369442
0.000390487
0.000458389
0.000383619
0.000330444
0.000373149
0.000333464
0.00032647
0.000367179
6.5815e-05
0.00037621
0.0003468
0.000314349
0.000363064
0.000147262
0.000318688
0.000248717
0.000296236
0.000326367
0.000257118
0.0001631
0.000221797
0.000218082
0.000222294
0.000288042
0.000218491
0.000326027
0.000183333
0.000209048
0.000253871
0.000253895
0.000358187
0.000204909
0.00022682
0.000313901
0.000318048
0.000298318
0.000283755
0.000291514
0.000226456
0.000354547
0.000291
0.000326383
0.000148709
0.000232857
0.000293133
0.000232847
0.000355923
0.0004218
0.000413852
0.000144961
0.00029178
0.000396402
0.000373708
0.000408024
0.000352635
0.000324317
0.000463049
0.000384658
0.000380465
0.000258291
0.000302623
0.000319869
0.000168259
0.000330486
0.000370238
0.000355598
0.000249978
0.000224954
0.000249483
0.000471065
0.000225178
0.000304202
0.00011261
0.000368133
0.000308207
0.000217004
3.2366e-05
0.00025215
3.52007e-05
0.000280445
0.000268223
0.000238666
0.000217238
0.00020661
0.000398026
0.000330725
0.000317381
0.000268868
0.000257369
0.000216053
0.000376854
0.000383182
0.000345074
0.000303902
0.000307632
0.000229342
0.000459963
0.000295107
0.000154631
0.000206787
0.000412409
0.000386456
0.000281033
0.000270018
0.000171677
0.000280056
0.000279935
0.00024395
0.00044677
0.000459798
0.00039529
0.000434633
0.000341666
0.000193689
0.000429743
0.000187127
0.000242014
0.00020093
0.00041019
0.000401106
0.00040277
0.000267687
0.000164064
0.000178981
0.000295031
0.00036117
0.000164006
0.000223605
0.000347904
0.00026283
0.000424766
0.000208942
0.000346526
0.000314514
0.000303792
0.000194168
0.000247428
0.000276439
0.000395853
0.000230692
0.000358201
0.000415108
0.00042171
0.000276052
0.000230351
0.000229053
0.000361625
0.000303182
0.000228798
0.00015097
0.000223359
0.000222473
0.000387414
0.000233453
0.000236023
0.000255412
0.000227502
0.000342431
0.000238358
0.000210661
0.000266779
0.000251822
0.000303689
0.000338704
0.000325096
0.000277152
0.000324384
0.000247903
0.000375878
0.000403413
0.000223647
0.000395518
0.000223233
0.000390608
0.000359251
0.000335798
0.00034094
0.000398993
0.000187638
0.000246404
0.000228794
0.000402044
0.000395622
0.000366816
0.000400117
0.000406963
0.000341996
0.000419132
0.000280464
0.000252587
0.00045807
0.000265526
0.000416086
0.000331283
0.000210097
0.000254696
0.000414743
0.000345811
0.000314326
0.000404762
0.000397573
0.000255918
0.000254878
0.000246358
0.000352764
0.00038884
0.000446873
0.000429266
0.000467071
0.000423238
0.000462515
0.000388021
0.000406242
0.000409391
0.000385944
0.000405458
0.000373624
0.000368064
0.000259307
0.000349657
0.000408924
0.000283563
0.000417658
0.0003837
0.000443371
0.000265567
0.000421612
0.000403182
0.000261009
0.000361915
0.00025923
0.000406405
0.000370409
0.000271756
0.000255612
0.000220374
0.000253521
0.00040695
0.000185012
0.000313059
0.000254645
0.000286244
0.000422002
0.000408749
0.000128859
0.000410221
0.000221579
0.000241048
0.000419722
0.00034119
0.000243849
0.000468566
0.000265713
0.000128858
0.000246497
0.000364546
0.000455283
0.00034473
0.000406609
0.000380313
0.000200107
0.000195387
0.000165709
0.000190152
0.000272632
0.000207593
0.000334847
0.000208794
0.000361415
0.000257747
0.000246867
0.000290256
0.000268784
0.000358277
0.000257744
0.000264928
0.00011824
0.000268886
0.000388752
0.00038902
0.000351617
0.000257273
0.000168833
0.000488467
0.000327306
0.00027295
0.000251526
0.000252149
0.000259399
0.000318105
0.000254815
0.00018142
0.000251525
0.000171779
0.000313123
0.000256498
0.000110205
0.000241645
0.000287088
0.000256467
0.000396636
0.000266428
0.000344533
0.000130952
0.00027647
0.000263368
0.000231568
0.000247226
0.000292351
0.000275972
0.000288339
0.00024428
0.000248183
0.000268162
0.000360014
0.000252727
0.000359186
0.00032404
0.000256807
0.000262194
0.000264841
0.000293287
0.000264443
0.000247411
0.000281381
0.000296429
0.000349206
0.000264801
0.000262803
0.000381991
0.000376649
0.000252904
0.000256859
0.00011285
0.000309015
0.000212987
0.000289853
0.000125789
0.000130578
0.000116702
0.000118609
0.000125835
0.000132544
0.0001366
0.000326204
0.000242014
0.000243069
0.000277501
0.000270115
0.00026673
0.000282916
0.000261004
0.000266932
0.000273296
0.000265739
0.000327869
0.000241049
0.000336985
0.00026141
0.000252133
0.000266062
0.000285532
0.000297199
0.000276626
0.000317103
0.000295977
0.000274182
0.000197331
0.00027602
0.000270154
0.000291788
0.000278228
0.000263518
0.000250704
0.000276319
0.0002885
0.000392065
0.000258265
0.000381175
0.00039686
0.000271542
0.000380592
0.00029169
0.000233278
0.000318983
0.000278817
0.000201941
0.000174996
0.000315079
0.000335695
0.000283364
0.000235417
0.000283895
0.000132769
0.000280158
0.000262691
0.000133036
5.18283e-05
5.66976e-05
0.000242713
0.000258353
0.000300398
0.000288487
2.66997e-05
2.78985e-05
0.00028637
0.000289364
0.000273895
9.96568e-05
0.000241692
0.000282141
0.000286762
0.000247333
0.000218326
0.000103755
0.000415399
0.000259954
0.000318207
0.000323182
0.000231984
0.000293673
0.000226818
0.000250312
0.00012329
0.000186621
0.000294019
0.000296118
0.000254305
0.00026697
0.000275601
0.000290642
0.000277972
0.000135971
0.000244884
0.000274731
0.000260541
0.000391118
0.000135933
0.000211254
0.000217573
0.000207111
0.000135072
0.00013508
0.000237137
0.000190388
0.000272824
0.000145482
0.000161261
5.27629e-05
5.27623e-05
0.000108113
0.000174838
0.000117855
0.000232426
0.000252309
0.000268441
0.000302674
0.000274786
0.000254493
0.000200033
0.000122193
0.00025102
0.000260417
0.000252283
0.000137514
0.000129219
9.91351e-05
0.000251914
0.000256773
0.000205523
0.000232867
0.000214942
0.000197538
0.000263491
0.000197519
0.00023237
0.000224522
0.000138171
0.000170603
0.000156273
0.000278752
0.000108685
0.000114527
0.000111974
0.000263416
0.000103548
0.000101292
0.000182703
9.45143e-05
0.000213926
0.000214247
9.70417e-05
0.000231661
0.000108043
0.000107065
0.000120966
0.000102143
0.000100579
0.000152506
0.000119643
0.000108409
0.000102474
0.000212384
0.000242904
0.000113086
0.000234425
9.28815e-05
0.000237911
0.000188703
9.70675e-05
8.24022e-05
9.16763e-05
0.000121735
0.000204051
0.000168893
7.09257e-05
7.87142e-05
0.000227822
6.67616e-05
6.67606e-05
7.56429e-05
8.48191e-05
9.42577e-05
0.000111366
0.000183741
0.000170307
0.000227942
6.702e-05
6.70192e-05
0.00020119
8.12543e-05
0.000162105
7.36431e-05
7.43075e-05
9.79146e-05
0.00017277
0.000178895
0.000190568
0.000174654
0.000172764
3.78105e-05
0.000278858
4.82004e-05
4.67425e-05
0.000225295
0.000223735
4.84413e-05
3.36366e-05
4.73652e-05
0.000207769
SCALARS rr_S' float
LOOKUP_TABLE default
0.000214861
0.000491562
0.000392444
0.000513076
0.000268562
0.000416518
0.000212445
0.000510216
0.00043846
0.000552406
0.00019504
0.000511778
0.00045034
0.000475727
0.000557667
0.000467723
0.000402442
0.000454821
0.000407128
0.000398196
0.000447906
7.97454e-05
0.00045892
0.000422986
0.000383417
0.000442459
0.000180799
0.000388572
0.000304457
0.000359613
0.000397845
0.000314734
0.000200271
0.000269398
0.00026481
0.000270004
0.000349629
0.000265338
0.000397437
0.000225109
0.000255903
0.000308141
0.000308172
0.000436633
0.000251377
0.000277614
0.000383166
0.000388078
0.000363766
0.000347557
0.000356936
0.000276935
0.000431018
0.000355856
0.000396809
0.000182378
0.000282744
0.000358465
0.000282734
0.000434099
0.000513722
0.000503648
0.000177863
0.000355105
0.000482405
0.000455135
0.000496929
0.000429747
0.000395594
0.000564164
0.000467633
0.000462537
0.000316185
0.000368453
0.000390039
0.000206691
0.000401991
0.000450912
0.000433361
0.000305634
0.000275587
0.000303163
0.000573497
0.000275937
0.00037227
0.000138131
0.00044886
0.000375307
0.000266211
3.92348e-05
0.000308353
4.26716e-05
0.000341106
0.000326701
0.000291837
0.000266016
0.000253111
0.000484979
0.000402288
0.000386912
0.000328442
0.000314886
0.000264761
0.000459296
0.000466932
0.000420484
0.000369943
0.000375056
0.00028105
0.000560343
0.000359923
0.000189638
0.000253491
0.000502657
0.000470931
0.000343657
0.000327871
0.000210324
0.000340068
0.000342303
0.000297903
0.000543589
0.000560221
0.000481338
0.000529451
0.000415631
0.000235264
0.000523626
0.000229243
0.000295931
0.000244272
0.000499808
0.000488349
0.00049075
0.000327505
0.000199212
0.00021938
0.000359614
0.000439704
0.000199145
0.000273543
0.000423891
0.000320912
0.00051755
0.000255988
0.00042229
0.000383263
0.000370443
0.000236773
0.000302339
0.000337317
0.000482311
0.000282392
0.000436631
0.000505785
0.00051384
0.000336265
0.000281769
0.000280173
0.000440813
0.000369934
0.000280054
0.000185162
0.000273485
0.000272135
0.000472072
0.000285564
0.000288713
0.000312651
0.000278281
0.00041649
0.000291482
0.000257942
0.000324942
0.00030794
0.000369696
0.000411961
0.000396211
0.000336917
0.000395269
0.000303456
0.000457998
0.000491553
0.00027359
0.000481617
0.000273352
0.000475638
0.000437312
0.000408409
0.000415421
0.000485842
0.000229846
0.000301315
0.000280064
0.000489871
0.000482229
0.000447094
0.000487147
0.000495852
0.000416526
0.00051067
0.000342379
0.000308803
0.000557712
0.000325025
0.000506564
0.00040347
0.000257063
0.000309924
0.000505316
0.00042076
0.000382922
0.00049324
0.00048402
0.000312702
0.000310477
0.000301159
0.000429418
0.000473676
0.000544372
0.000522978
0.000569012
0.000515609
0.000563463
0.000472751
0.000494258
0.000498102
0.000469561
0.000493298
0.000454237
0.000447475
0.000316865
0.000425998
0.000498358
0.000346015
0.000508114
0.000466785
0.000540325
0.000324664
0.000513838
0.00049126
0.00031891
0.000440387
0.00031675
0.00049476
0.000451451
0.000332035
0.000312457
0.000269983
0.000310572
0.000495435
0.000226703
0.000381649
0.00031129
0.000349457
0.000514319
0.000497939
0.000156397
0.000499744
0.000271527
0.000294668
0.000511521
0.000415824
0.000298126
0.000570812
0.000324417
0.000156397
0.000301324
0.000444073
0.000554419
0.000420175
0.000494684
0.000463122
0.000243268
0.000238173
0.000203195
0.000233249
0.000331521
0.000253228
0.000408093
0.000255122
0.000439773
0.000313943
0.000301778
0.000353531
0.000328328
0.000436574
0.00031484
0.000323875
0.000143409
0.000327011
0.000472936
0.00047327
0.000428398
0.000314243
0.000205088
0.00059485
0.000399358
0.00033338
0.000307305
0.000306616
0.000316945
0.000386912
0.000311293
0.000222556
0.000307228
0.000210467
0.000381155
0.000313399
0.000133664
0.000295203
0.000349538
0.000313395
0.000482958
0.000325487
0.000420083
0.0001607
0.000337159
0.000321801
0.0002816
0.000302093
0.000356707
0.000336031
0.000351303
0.000298425
0.000303143
0.000327415
0.00043824
0.000308698
0.000437755
0.000395096
0.000312203
0.000320257
0.000323375
0.000357798
0.000322857
0.000302231
0.000343528
0.000360737
0.000425603
0.000323313
0.000321116
0.000465437
0.00045892
0.000308926
0.000312269
0.000138785
0.000376789
0.00026093
0.000353595
0.000155497
0.000161415
0.000144254
0.000146614
0.000155542
0.00016385
0.000168857
0.000397066
0.000294057
0.000296289
0.000338603
0.000329768
0.00032565
0.000344742
0.000318679
0.000325933
0.000332059
0.000324441
0.000398939
0.000294778
0.000410054
0.000318779
0.000307655
0.000324847
0.000347201
0.00036238
0.000337518
0.000386646
0.000361125
0.000334775
0.000241274
0.000336802
0.000329432
0.000355026
0.000339642
0.000321783
0.000306054
0.000337186
0.000351813
0.000477739
0.000315288
0.000464475
0.000483992
0.000331349
0.000463835
0.000355723
0.000284815
0.000388407
0.00034016
0.000245385
0.000214673
0.000383525
0.000408523
0.000345547
0.000287203
0.00034576
0.000163263
0.000341638
0.000320492
0.000163248
6.2864e-05
6.87684e-05
0.000295947
0.000315411
0.000366453
0.000352164
3.23392e-05
3.37911e-05
0.000349003
0.000352649
0.000333812
0.000122548
0.000295114
0.000343502
0.000349919
0.000301831
0.000266414
0.000127608
0.000505832
0.000317381
0.000388008
0.000394074
0.000283104
0.000358323
0.000276799
0.000305446
0.000151374
0.000228648
0.000358747
0.000361068
0.000310253
0.000325811
0.000336254
0.000354565
0.000339127
0.0001668
0.000297917
0.00033539
0.000317325
0.000476243
0.000166763
0.000257603
0.000265329
0.000251786
0.000163843
0.000163853
0.000288401
0.000232474
0.000332679
0.000178494
0.000195646
6.39205e-05
6.39202e-05
0.000132982
0.000212325
0.000143068
0.000283444
0.000306896
0.000327219
0.00036877
0.000334583
0.000309802
0.00024379
0.000150261
0.000306048
0.000317198
0.000307155
0.000168933
0.00015691
0.000121669
0.000306717
0.000312837
0.000251091
0.00028387
0.000261969
0.000240131
0.0003211
0.00024011
0.000283336
0.000273353
0.000167757
0.00020712
0.000191729
0.000339584
0.000133725
0.000140887
0.0001378
0.000320764
0.000127348
0.000124679
0.000222969
0.000116302
0.000259947
0.00026034
0.000119394
0.000282614
0.000132651
0.000131737
0.000148544
0.000125686
0.000123509
0.000185196
0.00014684
0.00013332
0.00012608
0.000258862
0.000295635
0.000138889
0.00028572
0.00011432
0.000289882
0.000230194
0.000119449
0.000101218
0.000112831
0.000149738
0.00024885
0.000205196
8.59388e-05
9.53872e-05
0.000277545
8.08951e-05
8.08943e-05
9.16614e-05
0.000102855
0.000115663
0.000135219
0.000223447
0.000206913
0.000277724
8.12554e-05
8.12548e-05
0.000244392
9.99551e-05
0.000197764
9.05809e-05
9.12115e-05
0.000120181
0.000209632
0.000217069
0.000231247
0.000211932
0.000209627
4.58214e-05
0.000338377
5.84383e-05
5.66353e-05
0.000273358
0.000271463
5.86915e-05
4.07619e-05
5.74238e-05
0.000252134
SCALARS rr_P' float
LOOKUP_TABLE default
4.03046e-05
8.62894e-05
6.92914e-05
9.01732e-05
4.63469e-05
7.35522e-05
3.98599e-05
8.97335e-05
7.78533e-05
9.69931e-05
3.64463e-05
9.00091e-05
7.93126e-05
8.34515e-05
9.68569e-05
8.24991e-05
7.04318e-05
8.00577e-05
7.25111e-05
7.04268e-05
7.92871e-05
1.34476e-05
8.1238e-05
7.48048e-05
6.78195e-05
7.77946e-05
3.3471e-05
6.85599e-05
5.5229e-05
6.14863e-05
7.00805e-05
5.70852e-05
3.71094e-05
4.62462e-05
4.53598e-05
4.6353e-05
5.97352e-05
4.5488e-05
7.00181e-05
4.17038e-05
4.64291e-05
5.26322e-05
5.26406e-05
7.69109e-05
4.6291e-05
5.03093e-05
6.81451e-05
6.88293e-05
6.42199e-05
6.33118e-05
6.4863e-05
4.98932e-05
7.44599e-05
6.40973e-05
6.85857e-05
3.3512e-05
4.84243e-05
6.45674e-05
4.84253e-05
7.67528e-05
8.99325e-05
8.76693e-05
3.27852e-05
6.18317e-05
8.39641e-05
7.96507e-05
8.69741e-05
7.55551e-05
6.99967e-05
9.9019e-05
8.07961e-05
7.99182e-05
5.73666e-05
6.43452e-05
6.88493e-05
3.84078e-05
6.97207e-05
7.89155e-05
7.6196e-05
5.49821e-05
5.02658e-05
5.22053e-05
0.000100112
5.04257e-05
6.73941e-05
2.5416e-05
7.91967e-05
6.5611e-05
4.90187e-05
6.63945e-06
5.55472e-05
7.22186e-06
5.91419e-05
5.7219e-05
5.2539e-05
4.83721e-05
4.61602e-05
8.51615e-05
6.97782e-05
6.81815e-05
5.87203e-05
5.69131e-05
4.83909e-05
8.07951e-05
8.20418e-05
7.38671e-05
6.45264e-05
6.61285e-05
5.13729e-05
9.82774e-05
6.36334e-05
3.48461e-05
4.64394e-05
8.84568e-05
8.27553e-05
6.18861e-05
5.61573e-05
3.83669e-05
5.82581e-05
6.16282e-05
5.31372e-05
9.44823e-05
9.83495e-05
8.41367e-05
9.28178e-05
7.2145e-05
4.03923e-05
9.19507e-05
4.1807e-05
5.32778e-05
4.22069e-05
8.77791e-05
8.52775e-05
8.61685e-05
5.91877e-05
3.4119e-05
4.01551e-05
6.33053e-05
7.6756e-05
3.41094e-05
4.93993e-05
7.44095e-05
5.71809e-05
9.08682e-05
4.671e-05
7.42312e-05
6.73477e-05
6.54002e-05
4.18097e-05
5.4164e-05
5.98399e-05
8.46733e-05
5.12275e-05
7.68882e-05
8.88059e-05
9.02378e-05
5.89287e-05
5.085e-05
5.0552e-05
7.76383e-05
6.56047e-05
5.07781e-05
3.40396e-05
4.96993e-05
4.91163e-05
8.29248e-05
5.15373e-05
5.21106e-05
5.67139e-05
5.02184e-05
7.22015e-05
5.25025e-05
4.68782e-05
5.69088e-05
5.54584e-05
6.44977e-05
7.14198e-05
6.9689e-05
5.81848e-05
6.94326e-05
5.50411e-05
8.04303e-05
8.63292e-05
4.94025e-05
8.41838e-05
4.97007e-05
8.3142e-05
7.62639e-05
7.07822e-05
7.29452e-05
8.49152e-05
4.18874e-05
5.42682e-05
5.07991e-05
8.60197e-05
8.49016e-05
7.86898e-05
8.50714e-05
8.70578e-05
7.29103e-05
8.96463e-05
6.09264e-05
5.55239e-05
9.74006e-05
5.89477e-05
8.84296e-05
7.06146e-05
4.64808e-05
5.39049e-05
8.8699e-05
7.31374e-05
6.71465e-05
8.66787e-05
8.44884e-05
5.60085e-05
5.44133e-05
5.41125e-05
7.48892e-05
8.30501e-05
9.54479e-05
9.17647e-05
9.98101e-05
9.04387e-05
9.88381e-05
8.29675e-05
8.58818e-05
8.65666e-05
8.15911e-05
8.57086e-05
7.85062e-05
7.73358e-05
5.67807e-05
7.47495e-05
8.76503e-05
6.13864e-05
8.82506e-05
8.10516e-05
9.50138e-05
5.83662e-05
9.03934e-05
8.62628e-05
5.71022e-05
7.6591e-05
5.67331e-05
8.63469e-05
7.94399e-05
5.9445e-05
5.61261e-05
4.92518e-05
5.66342e-05
8.64779e-05
4.14071e-05
6.72622e-05
5.59355e-05
6.2215e-05
9.04849e-05
8.73155e-05
2.67037e-05
8.76473e-05
4.96151e-05
5.29485e-05
8.99691e-05
7.31358e-05
5.36123e-05
0.0001001
5.77864e-05
2.6705e-05
5.41364e-05
7.78496e-05
9.69476e-05
7.39504e-05
8.59316e-05
8.09765e-05
4.20257e-05
4.1949e-05
3.72987e-05
4.29191e-05
5.73774e-05
4.4819e-05
7.17758e-05
4.56924e-05
7.6477e-05
5.49846e-05
5.42226e-05
6.19084e-05
5.86849e-05
7.66928e-05
5.62701e-05
5.82162e-05
2.43602e-05
5.66544e-05
8.21261e-05
8.21936e-05
7.51827e-05
5.61362e-05
3.5232e-05
0.000104042
7.08095e-05
5.95414e-05
5.49999e-05
5.30686e-05
5.67536e-05
6.70835e-05
5.56734e-05
4.09763e-05
5.48917e-05
3.84174e-05
6.64632e-05
5.6117e-05
2.27069e-05
5.27952e-05
6.10459e-05
5.61595e-05
8.43977e-05
5.82224e-05
7.4116e-05
2.9652e-05
5.95676e-05
5.76309e-05
4.87548e-05
5.41215e-05
6.32469e-05
5.87171e-05
6.16567e-05
5.33778e-05
5.41572e-05
5.83309e-05
7.64241e-05
5.51559e-05
7.69925e-05
6.97059e-05
5.39394e-05
5.72142e-05
5.76292e-05
6.33757e-05
5.74946e-05
5.40327e-05
6.11667e-05
6.27833e-05
7.48677e-05
5.76013e-05
5.7517e-05
8.17192e-05
8.0566e-05
5.52113e-05
5.39543e-05
2.59935e-05
6.6492e-05
4.75962e-05
6.26138e-05
3.01424e-05
3.12871e-05
2.79505e-05
2.84123e-05
3.01371e-05
3.1764e-05
3.27258e-05
6.92228e-05
5.06066e-05
5.21776e-05
6.00559e-05
5.87113e-05
5.7994e-05
6.05583e-05
5.67786e-05
5.809e-05
5.71386e-05
5.77804e-05
6.93552e-05
5.31032e-05
7.13252e-05
5.63034e-05
5.45713e-05
5.78659e-05
6.00825e-05
6.39473e-05
5.98402e-05
6.82254e-05
6.4022e-05
5.96547e-05
4.34146e-05
5.97446e-05
5.81685e-05
6.17077e-05
6.0431e-05
5.73748e-05
5.44678e-05
5.9836e-05
6.21324e-05
8.39142e-05
5.61158e-05
8.15926e-05
8.55285e-05
5.87894e-05
8.15685e-05
6.28498e-05
5.0733e-05
6.78775e-05
6.027e-05
4.22523e-05
3.95225e-05
6.6861e-05
7.1101e-05
6.10221e-05
5.08756e-05
6.05193e-05
3.05524e-05
6.0336e-05
5.67908e-05
3.01111e-05
1.06828e-05
1.16839e-05
5.22294e-05
5.6158e-05
6.48821e-05
6.26552e-05
5.43861e-06
5.68279e-06
6.13744e-05
6.20086e-05
5.87163e-05
2.29356e-05
5.26002e-05
5.99734e-05
6.20792e-05
5.35788e-05
4.72707e-05
2.39099e-05
8.84292e-05
5.65283e-05
6.8486e-05
6.95559e-05
5.02598e-05
6.35339e-05
4.91413e-05
5.41967e-05
2.80316e-05
4.17299e-05
6.36131e-05
6.37246e-05
5.49665e-05
5.78568e-05
5.95993e-05
6.27943e-05
6.0083e-05
3.07074e-05
5.17347e-05
5.96967e-05
5.55513e-05
8.32259e-05
3.07133e-05
4.54807e-05
4.68722e-05
4.35014e-05
2.78574e-05
2.78602e-05
4.99702e-05
4.14401e-05
5.87317e-05
3.2896e-05
3.33099e-05
1.07663e-05
1.07665e-05
2.4935e-05
3.64017e-05
2.44609e-05
5.00714e-05
5.32245e-05
5.76253e-05
6.47237e-05
5.84609e-05
5.40389e-05
4.28783e-05
2.81245e-05
5.3975e-05
5.55587e-05
5.36337e-05
3.1404e-05
2.68845e-05
2.24664e-05
5.3571e-05
5.48923e-05
4.49288e-05
5.00078e-05
4.60875e-05
4.14695e-05
5.64397e-05
4.14679e-05
5.00037e-05
4.77263e-05
2.87141e-05
3.54354e-05
3.5327e-05
5.95507e-05
2.51161e-05
2.6428e-05
2.59201e-05
5.6075e-05
2.3852e-05
2.34838e-05
3.95917e-05
2.18609e-05
4.47542e-05
4.48238e-05
2.24185e-05
5.00553e-05
2.45585e-05
2.47508e-05
2.75363e-05
2.36198e-05
2.28957e-05
3.17387e-05
2.71217e-05
2.49641e-05
2.3678e-05
4.5552e-05
5.14946e-05
2.57733e-05
5.02722e-05
2.1524e-05
5.08962e-05
4.07532e-05
2.2458e-05
1.88016e-05
2.12348e-05
2.80769e-05
4.39737e-05
3.52922e-05
1.44936e-05
1.61014e-05
4.86767e-05
1.36457e-05
1.36459e-05
1.54675e-05
1.7449e-05
2.13365e-05
2.31533e-05
3.86965e-05
3.55869e-05
4.87482e-05
1.37652e-05
1.37655e-05
4.19789e-05
1.87555e-05
3.50332e-05
1.69805e-05
1.68597e-05
2.22063e-05
3.57196e-05
3.69933e-05
3.94269e-05
3.61284e-05
3.57201e-05
7.73713e-06
5.76828e-05
9.90007e-06
9.55007e-06
4.65719e-05
4.62451e-05
9.8939e-06
6.88117e-06
9.72545e-06
4.30058e-05
SCALARS rr_T' float
LOOKUP_TABLE default
0.000209135
0.00047645
0.00038051
0.00049734
0.000260037
0.000403856
0.000206786
0.000494581
0.000425273
0.00053543
0.0001898
0.000496096
0.000436578
0.000461079
0.000540179
0.000453471
0.000389998
0.000440909
0.000394959
0.000386127
0.000434352
7.71114e-05
0.000445036
0.000410165
0.000371799
0.000428896
0.00017583
0.00037674
0.000295699
0.000348015
0.00038569
0.000305679
0.000194778
0.000260769
0.000256293
0.000261357
0.000338339
0.000256816
0.000385298
0.000218932
0.000248545
0.000298185
0.000298217
0.000423292
0.000244385
0.000269611
0.00037168
0.00037638
0.000352701
0.000337651
0.000346708
0.000268852
0.000417365
0.000345463
0.000384251
0.000177278
0.000273648
0.000347996
0.000273639
0.000420936
0.000497847
0.000487913
0.000172924
0.000344016
0.000467331
0.000441057
0.000481567
0.000416571
0.000383615
0.000546817
0.000452824
0.00044789
0.000307094
0.00035701
0.000378171
0.00020106
0.000389347
0.000436966
0.000420078
0.000296686
0.000267753
0.000293502
0.000555678
0.000268126
0.000361514
0.000134281
0.000435192
0.000363675
0.000258805
3.79468e-05
0.000299349
4.12712e-05
0.000330372
0.000316611
0.000283304
0.000258404
0.000245912
0.000470077
0.000389636
0.000375101
0.0003187
0.000305756
0.00025727
0.000445232
0.000452601
0.000407573
0.000358431
0.000363619
0.000273099
0.000543093
0.000349007
0.000184337
0.000246356
0.000487276
0.00045648
0.000333615
0.000317324
0.000204345
0.000329133
0.000332296
0.000289026
0.000526565
0.000543002
0.000466418
0.000513139
0.000402582
0.000227729
0.000507538
0.000222723
0.00028728
0.000236539
0.000484458
0.000473186
0.000475672
0.000318007
0.000192804
0.000213191
0.000348614
0.000426043
0.000192739
0.000265597
0.000410855
0.000311328
0.000501643
0.000248716
0.00040934
0.0003715
0.000359175
0.000229574
0.000293409
0.000327155
0.000467488
0.00027427
0.000423283
0.00049024
0.000498056
0.000325891
0.000273572
0.000272019
0.000427344
0.000358781
0.00027199
0.000179991
0.00026565
0.00026422
0.000457576
0.000277258
0.000280316
0.000303658
0.000270185
0.000403381
0.000282969
0.000250552
0.000314905
0.000298943
0.000358196
0.000398995
0.000384073
0.000326237
0.00038313
0.000294725
0.000443926
0.000476454
0.000265641
0.000466685
0.000265529
0.000460895
0.000423697
0.000395547
0.000402655
0.000470777
0.000223299
0.000292514
0.000272007
0.000474821
0.000467485
0.000433417
0.000472022
0.000480616
0.000403648
0.000494973
0.000332127
0.000299752
0.000540398
0.000315671
0.000490825
0.000390992
0.000249616
0.000300227
0.000489782
0.00040758
0.000371122
0.000478106
0.000468981
0.000303463
0.000300899
0.000292319
0.000416048
0.000459085
0.000527605
0.000506893
0.000551499
0.000499738
0.000546121
0.000458208
0.00047877
0.0004825
0.000454848
0.000477839
0.000439861
0.000433313
0.000307511
0.00041289
0.0004831
0.00033559
0.00049218
0.00045214
0.000523776
0.000315145
0.000498112
0.000476164
0.00030948
0.000426607
0.00030739
0.000479381
0.000437643
0.000322215
0.00030328
0.00026231
0.000301741
0.000480039
0.000220276
0.000370002
0.000302154
0.000339004
0.000498581
0.000482604
0.000151341
0.000484359
0.000263836
0.00028602
0.000495861
0.000403083
0.000289391
0.000553236
0.000314722
0.000151341
0.000292477
0.000430392
0.000537246
0.00040732
0.000479176
0.000448773
0.000235562
0.000230896
0.0001975
0.000226748
0.000321054
0.000245563
0.000395589
0.000247582
0.00042601
0.000304246
0.00029292
0.000342608
0.000318584
0.000423167
0.000305494
0.000314377
0.00013873
0.000316707
0.0004581
0.000458427
0.000415219
0.000304905
0.000198528
0.000576432
0.000387313
0.00032347
0.000298209
0.000296936
0.000307575
0.000374736
0.000302065
0.000216363
0.000298103
0.000204493
0.000369286
0.000304133
0.000129305
0.000286452
0.000338687
0.000304144
0.000467981
0.000315842
0.000407289
0.000156247
0.00032692
0.000312289
0.000272716
0.000293171
0.000345949
0.000325607
0.000340499
0.000289581
0.000294137
0.000317635
0.000424595
0.000299529
0.000424343
0.000383063
0.000302314
0.000310742
0.00031372
0.000346985
0.000313203
0.000293265
0.000333253
0.000349465
0.000412567
0.000313655
0.000311629
0.000451128
0.000444809
0.000299756
0.000302379
0.000135077
0.000365319
0.000253513
0.000342903
0.000151702
0.000157474
0.000140729
0.000143033
0.000151742
0.000159851
0.000164733
0.000384697
0.00028468
0.000287235
0.000328398
0.000319904
0.000315913
0.000334155
0.000309161
0.000316204
0.000321468
0.000314742
0.000386445
0.000286172
0.00039723
0.000309092
0.000298383
0.000315139
0.000336236
0.000351347
0.000327337
0.000374873
0.000350231
0.000324779
0.000234213
0.000326654
0.000319414
0.000343904
0.00032947
0.000312186
0.000296892
0.000327034
0.000341118
0.000463064
0.000305851
0.000450211
0.0004693
0.000321369
0.00044962
0.00034492
0.000276305
0.000376363
0.000329886
0.000237566
0.000208699
0.000371576
0.000395758
0.000335042
0.000278524
0.000335068
0.000158891
0.000331255
0.000310813
0.000158721
6.08145e-05
6.65258e-05
0.000286939
0.000305978
0.000355368
0.000341615
3.12661e-05
3.26699e-05
0.000338309
0.000341839
0.000323586
0.000119267
0.000286307
0.000332831
0.000339376
0.000292748
0.00025839
0.000124202
0.000490157
0.000307895
0.0003762
0.000382082
0.000274586
0.000347515
0.000268471
0.000296246
0.000147216
0.000222155
0.000347929
0.000350079
0.00030088
0.000316014
0.000326105
0.000343847
0.000328883
0.000162157
0.000288569
0.000325353
0.000307515
0.000461473
0.000162125
0.000249769
0.000257269
0.000243811
0.000158508
0.000158518
0.000279316
0.000225538
0.00032256
0.000173538
0.00018929
6.1805e-05
6.18047e-05
0.000129439
0.000205507
0.000138454
0.000274833
0.000297242
0.000317219
0.000357429
0.000324205
0.00030016
0.00023632
0.00014624
0.00029672
0.000307402
0.000297616
0.000164335
0.000151867
0.000118303
0.000297196
0.000303209
0.000243656
0.0002752
0.000253946
0.000232521
0.00031125
0.000232501
0.000274712
0.000264861
0.000162356
0.000200447
0.000186402
0.000329123
0.000130172
0.000137131
0.000134153
0.000310821
0.000123944
0.000121391
0.000216263
0.000113218
0.00025166
0.000252041
0.000116219
0.000274073
0.000129004
0.00012824
0.000144473
0.000122351
0.000120124
0.000179245
0.000142783
0.000129755
0.00012273
0.000250938
0.00028641
0.000135092
0.000276972
0.000111302
0.000280971
0.00022323
0.000116283
9.84583e-05
0.000109848
0.000145748
0.000241295
0.000198644
8.31011e-05
9.22424e-05
0.000268996
7.8225e-05
7.82243e-05
8.86377e-05
9.94927e-05
0.000112458
0.000130868
0.000216401
0.000200307
0.000269183
7.85928e-05
7.85922e-05
0.00023657
9.72968e-05
0.000191789
8.81653e-05
8.86938e-05
0.000116862
0.000202832
0.000210029
0.000223753
0.000205063
0.000202827
4.43115e-05
0.000327407
5.65236e-05
5.47648e-05
0.000264489
0.000262654
5.67519e-05
3.94181e-05
5.55413e-05
0.00024397
SCALARS rr_uec(SIM,_S_ext) float
LOOKUP_TABLE default
0.0136259
0.0310428
0.0247918
0.0324039
0.0169423
0.0263129
0.0134729
0.0322239
0.0277082
0.0348855
0.0123666
0.0323226
0.0284448
0.0300411
0.0351948
0.0295454
0.02541
0.0287271
0.0257333
0.0251578
0.0282997
0.00502403
0.028996
0.0267239
0.0242242
0.0279444
0.0114561
0.0245462
0.0192661
0.0226743
0.0251292
0.0199163
0.0126906
0.01699
0.0166983
0.0170283
0.022044
0.0167323
0.0251037
0.0142644
0.0161938
0.0194278
0.0194299
0.0275792
0.0159229
0.0175663
0.0242165
0.0245226
0.0229799
0.0219995
0.0225896
0.0175168
0.0271929
0.0225083
0.0250353
0.0115504
0.017829
0.0226733
0.0178284
0.0274257
0.0324369
0.0317894
0.0112667
0.0224139
0.0304484
0.0287365
0.0313762
0.0271414
0.0249941
0.0356276
0.0295031
0.0291816
0.0200085
0.0232605
0.0246393
0.0131
0.0253673
0.02847
0.0273698
0.0193304
0.0174452
0.0191226
0.0362047
0.0174696
0.0235541
0.00874903
0.0283545
0.0236947
0.0168625
0.00247234
0.0195038
0.00268894
0.0215249
0.0206284
0.0184584
0.0168362
0.0160222
0.0306275
0.0253861
0.0244393
0.0207646
0.0199212
0.0167623
0.0290088
0.0294888
0.0265551
0.0233532
0.0236912
0.0177936
0.035385
0.0227393
0.0120104
0.0160513
0.0317481
0.0297416
0.0217363
0.0206746
0.0133139
0.021444
0.0216504
0.0188313
0.0343078
0.035379
0.030389
0.0334333
0.0262298
0.0148373
0.0330682
0.0145113
0.0187174
0.0154114
0.0315646
0.03083
0.0309921
0.0207194
0.0125618
0.0138903
0.0227135
0.0277585
0.0125576
0.0173047
0.0267687
0.0202843
0.0326841
0.0162048
0.0266703
0.0242047
0.0234016
0.0149577
0.0191168
0.0213154
0.0304589
0.01787
0.0275786
0.0319412
0.0324506
0.0212331
0.0178242
0.0177231
0.0278432
0.023376
0.0177214
0.0117272
0.0173083
0.017215
0.029813
0.0180644
0.0182637
0.0197846
0.0176036
0.0262818
0.0184366
0.0163246
0.0205173
0.0194774
0.0233379
0.025996
0.0250238
0.0212555
0.0249625
0.0192026
0.0289237
0.031043
0.0173076
0.0304062
0.0173004
0.0300292
0.0276055
0.0257713
0.0262346
0.0306729
0.0145488
0.0190585
0.0177225
0.0309367
0.0304587
0.028239
0.0307542
0.0313143
0.0262992
0.0322497
0.0216395
0.0195301
0.0352092
0.0205673
0.0319793
0.0254746
0.0162635
0.0195609
0.0319115
0.0265553
0.02418
0.0311506
0.030556
0.0197719
0.0196047
0.0190458
0.0271071
0.0299115
0.0343759
0.0330265
0.0359327
0.0325603
0.0355823
0.0298541
0.0311938
0.0314368
0.0296352
0.0311331
0.0286585
0.0282319
0.0200356
0.0269015
0.0314763
0.021865
0.0320674
0.0294587
0.0341265
0.020533
0.0324545
0.0310241
0.0201639
0.0277951
0.0200277
0.0312336
0.0285146
0.0209936
0.01976
0.0170906
0.0196598
0.0312765
0.0143519
0.0241071
0.0196866
0.0220876
0.032485
0.0314439
0.00986036
0.0315583
0.0171899
0.0186354
0.0323078
0.0262625
0.018855
0.0360459
0.0205054
0.00986038
0.0190561
0.028042
0.0350037
0.0265386
0.0312202
0.0292392
0.0153477
0.0150438
0.012868
0.0147737
0.0209178
0.0159994
0.0257742
0.0161309
0.0277562
0.0198228
0.019085
0.0223222
0.020757
0.027571
0.0199041
0.020483
0.00903872
0.0206346
0.0298471
0.0298684
0.0270532
0.0198657
0.0129348
0.0375568
0.025235
0.0210753
0.0194294
0.0193464
0.0200397
0.0244154
0.0196807
0.0140971
0.0194226
0.0133235
0.0240604
0.0198155
0.00842462
0.0186634
0.0220668
0.0198162
0.0304908
0.0205783
0.0265365
0.0101801
0.0213002
0.0203469
0.0177684
0.0191013
0.02254
0.0212145
0.022185
0.0188674
0.0191642
0.0206952
0.027664
0.0195155
0.0276476
0.0249581
0.0196968
0.020246
0.0204401
0.0226074
0.0204064
0.0191074
0.0217127
0.0227689
0.0268804
0.0204358
0.0203039
0.0293927
0.028981
0.0195303
0.019701
0.00880105
0.0238019
0.0165174
0.0223415
0.0098847
0.0102608
0.00916972
0.00931986
0.00988733
0.0104157
0.0107337
0.0250645
0.0185479
0.0187146
0.0213964
0.0208431
0.020583
0.0217715
0.020143
0.0206019
0.0209447
0.0205067
0.0251783
0.0186453
0.0258812
0.0201386
0.0194408
0.0205325
0.0219069
0.0228916
0.0213273
0.0244244
0.022819
0.0211607
0.01526
0.0212828
0.0208111
0.0224066
0.0214663
0.0203403
0.0193437
0.0213076
0.0222252
0.0301704
0.0199275
0.029333
0.0305768
0.0209385
0.0292945
0.022473
0.0180024
0.0245215
0.0214934
0.0154783
0.0135978
0.0242096
0.0257851
0.0218293
0.0181469
0.021831
0.0103527
0.0215826
0.0202507
0.0103413
0.00396225
0.00433434
0.0186952
0.0199357
0.0231536
0.0222576
0.00203706
0.00212852
0.0220422
0.0222721
0.0210829
0.00777085
0.0186541
0.0216853
0.0221117
0.0190736
0.0168352
0.00809247
0.0319356
0.0200607
0.0245109
0.0248941
0.0178904
0.022642
0.017492
0.0193016
0.0095918
0.0144743
0.022669
0.022809
0.0196035
0.0205895
0.021247
0.0224029
0.021428
0.0105653
0.0188014
0.0211981
0.0200358
0.0300667
0.0105632
0.0162735
0.0167622
0.0158851
0.0103273
0.010328
0.0181985
0.0146947
0.021016
0.0113069
0.0123329
0.00402676
0.00402674
0.0084337
0.0133894
0.00902073
0.0179064
0.0193664
0.0206681
0.023288
0.0211232
0.0195565
0.0153972
0.00952835
0.0193324
0.0200284
0.0193908
0.0107072
0.00989466
0.00770781
0.0193635
0.0197552
0.0158752
0.0179304
0.0165456
0.0151496
0.0202792
0.0151483
0.0178986
0.0172567
0.0105781
0.0130598
0.012145
0.0214438
0.00848119
0.00893459
0.00874062
0.0202512
0.00807563
0.00790912
0.0140904
0.00737662
0.0163965
0.0164213
0.00757214
0.017857
0.00840518
0.00835527
0.00941309
0.00797159
0.00782664
0.0116784
0.00930301
0.00845421
0.00799636
0.0163495
0.0186607
0.00880187
0.0180458
0.00725182
0.0183064
0.0145444
0.00757626
0.00641501
0.00715702
0.00949636
0.0157213
0.0129423
0.00541428
0.00600987
0.0175262
0.00509659
0.00509655
0.00577501
0.00648227
0.00732719
0.00852653
0.0140993
0.0130507
0.0175383
0.00512056
0.00512052
0.0154133
0.00633948
0.0124958
0.00574444
0.0057787
0.00761402
0.0132152
0.0136842
0.0145783
0.0133605
0.0132149
0.00288702
0.0213316
0.00368268
0.00356807
0.0172323
0.0171128
0.00369754
0.0025682
0.00361868
0.0158955
SCALARS rr_uec(PEX,_P_ext) float
LOOKUP_TABLE default
-0.0611775
-0.139427
-0.111348
-0.145539
-0.0761035
-0.118179
-0.0604905
-0.144731
-0.124443
-0.156686
-0.0555236
-0.145175
-0.127756
-0.134929
-0.158086
-0.132699
-0.11413
-0.129025
-0.115571
-0.112991
-0.127101
-0.0225706
-0.130228
-0.120025
-0.108797
-0.12551
-0.0514391
-0.110245
-0.0865169
-0.101857
-0.112865
-0.0894368
-0.0569821
-0.0763202
-0.0750107
-0.0764922
-0.0990253
-0.0751634
-0.11275
-0.0640485
-0.0727204
-0.0872733
-0.0872825
-0.123869
-0.0714975
-0.0788842
-0.108759
-0.110136
-0.10321
-0.098789
-0.10144
-0.0786646
-0.122147
-0.101081
-0.112456
-0.0518647
-0.0800902
-0.101822
-0.0800875
-0.123177
-0.145691
-0.142788
-0.0505902
-0.100676
-0.136765
-0.129072
-0.140927
-0.121903
-0.112255
-0.16002
-0.132525
-0.131081
-0.0898506
-0.104477
-0.110663
-0.0588192
-0.113945
-0.127874
-0.122929
-0.0868096
-0.0783376
-0.0858983
-0.162617
-0.0784463
-0.105774
-0.0392854
-0.12735
-0.106427
-0.0757162
-0.0111069
-0.0875881
-0.0120799
-0.0966856
-0.0926532
-0.0828935
-0.0756041
-0.0719477
-0.137562
-0.114029
-0.109766
-0.093254
-0.0894608
-0.0752699
-0.13029
-0.132447
-0.119271
-0.104894
-0.106406
-0.0799009
-0.158931
-0.102128
-0.0539302
-0.0720761
-0.142593
-0.133582
-0.0976142
-0.092873
-0.0597861
-0.0963291
-0.0972284
-0.0845724
-0.154101
-0.158903
-0.136494
-0.150165
-0.117818
-0.0666499
-0.148524
-0.065163
-0.0840569
-0.0692261
-0.14177
-0.138476
-0.139199
-0.0930453
-0.0564293
-0.0623731
-0.102016
-0.12468
-0.0564103
-0.0777113
-0.120231
-0.0910986
-0.146799
-0.0727677
-0.119787
-0.108714
-0.105105
-0.0671797
-0.0858527
-0.095732
-0.136805
-0.0802472
-0.123866
-0.143462
-0.14575
-0.0953687
-0.0800448
-0.0795906
-0.125054
-0.104986
-0.0795803
-0.0526586
-0.0777242
-0.0773087
-0.133903
-0.0811232
-0.082018
-0.0888454
-0.0790539
-0.118052
-0.0827953
-0.0733068
-0.0921541
-0.0874694
-0.104825
-0.116769
-0.112393
-0.0954776
-0.112118
-0.0862317
-0.129909
-0.139428
-0.0777242
-0.136572
-0.0776885
-0.134878
-0.123994
-0.11576
-0.117832
-0.13777
-0.0653318
-0.0855882
-0.079585
-0.13895
-0.136801
-0.126832
-0.138135
-0.140646
-0.118124
-0.144848
-0.0971854
-0.0877069
-0.158145
-0.0923603
-0.143638
-0.114421
-0.0730349
-0.087862
-0.143329
-0.119279
-0.108605
-0.139911
-0.137246
-0.0887947
-0.088055
-0.0855322
-0.121756
-0.134347
-0.154398
-0.148337
-0.16139
-0.146243
-0.159817
-0.134089
-0.140114
-0.141205
-0.133113
-0.139841
-0.128731
-0.126814
-0.089979
-0.120827
-0.141372
-0.0982001
-0.144039
-0.132321
-0.153276
-0.0922109
-0.145765
-0.139343
-0.0905553
-0.124848
-0.0899437
-0.140289
-0.12807
-0.0942818
-0.0887396
-0.0767453
-0.0882821
-0.140482
-0.0644467
-0.108274
-0.0884099
-0.0991976
-0.145902
-0.141229
-0.0442947
-0.141743
-0.0771908
-0.0836893
-0.145107
-0.117956
-0.0846752
-0.161899
-0.0920919
-0.0442948
-0.0855787
-0.12595
-0.157221
-0.119195
-0.140233
-0.13133
-0.0689402
-0.0675674
-0.0577817
-0.0663376
-0.0939595
-0.0718576
-0.115763
-0.0724435
-0.124673
-0.0890348
-0.0857083
-0.100261
-0.09322
-0.123834
-0.0893898
-0.0919864
-0.040605
-0.0926869
-0.134065
-0.134161
-0.121509
-0.0892178
-0.0581034
-0.168689
-0.113336
-0.09465
-0.0872574
-0.086901
-0.0899978
-0.109669
-0.088386
-0.0632994
-0.0872274
-0.0598292
-0.108071
-0.0889909
-0.0378462
-0.0838176
-0.0991152
-0.0889936
-0.136952
-0.0924174
-0.119185
-0.0457109
-0.0956656
-0.0913773
-0.0798128
-0.0857831
-0.101232
-0.095287
-0.099643
-0.0847333
-0.0860669
-0.092944
-0.124257
-0.0876447
-0.124177
-0.112095
-0.0884759
-0.0909256
-0.0917985
-0.101536
-0.0916474
-0.0858114
-0.0975144
-0.102271
-0.120731
-0.0917794
-0.0911839
-0.132016
-0.130167
-0.0877109
-0.0884948
-0.0395145
-0.106903
-0.0741716
-0.100341
-0.0443696
-0.046058
-0.0411604
-0.0418343
-0.0443815
-0.0467531
-0.0481809
-0.112581
-0.083317
-0.0840542
-0.0960959
-0.0936086
-0.0924404
-0.0977856
-0.0904643
-0.092525
-0.0940837
-0.0920976
-0.113094
-0.0837324
-0.11625
-0.0904488
-0.0873128
-0.0922137
-0.0984026
-0.102814
-0.0957856
-0.109698
-0.102485
-0.0950345
-0.0685302
-0.0955855
-0.0934692
-0.100644
-0.096408
-0.0913495
-0.0868749
-0.0956965
-0.0998205
-0.135509
-0.0894966
-0.131748
-0.13733
-0.0940388
-0.131574
-0.100933
-0.0808504
-0.11014
-0.0965318
-0.0695281
-0.061057
-0.108741
-0.115819
-0.0980424
-0.0815023
-0.098055
-0.0464812
-0.0969342
-0.0909506
-0.0464347
-0.0177997
-0.0194714
-0.0839666
-0.0895334
-0.103989
-0.0999618
-0.00915174
-0.00956264
-0.0990009
-0.100034
-0.0946921
-0.0348895
-0.0837771
-0.0974017
-0.0993081
-0.0856634
-0.0756101
-0.036333
-0.143441
-0.0900944
-0.110087
-0.111808
-0.080349
-0.10169
-0.0785596
-0.0866873
-0.0430682
-0.0649968
-0.101811
-0.102443
-0.0880441
-0.0924713
-0.0954252
-0.100617
-0.0962383
-0.0474407
-0.0844511
-0.0952032
-0.0899917
-0.135047
-0.0474313
-0.0730893
-0.075284
-0.0713544
-0.0463934
-0.0463965
-0.0817441
-0.0659951
-0.0943899
-0.0507702
-0.0554028
-0.0180905
-0.0180904
-0.0378649
-0.0601466
-0.0405226
-0.0804233
-0.0869898
-0.0928284
-0.104597
-0.0948768
-0.0878408
-0.0691553
-0.0427801
-0.0868289
-0.0899583
-0.087096
-0.0480753
-0.0444478
-0.0346098
-0.0869731
-0.0887303
-0.0712952
-0.080532
-0.0743132
-0.0680506
-0.0910825
-0.0680446
-0.0803884
-0.0775104
-0.0475181
-0.0586665
-0.0545336
-0.0963144
-0.0380785
-0.0401146
-0.0392429
-0.0909599
-0.0362577
-0.0355094
-0.0632825
-0.0331191
-0.0736528
-0.0737642
-0.0339972
-0.0801999
-0.0377403
-0.0375132
-0.0422655
-0.0357905
-0.0351422
-0.0524605
-0.0417719
-0.0379575
-0.0359017
-0.0734325
-0.0838177
-0.0395208
-0.0810512
-0.0325583
-0.0822224
-0.0653225
-0.0340155
-0.0288035
-0.032133
-0.042636
-0.0706092
-0.058137
-0.0243238
-0.0269993
-0.0787186
-0.0228965
-0.0228963
-0.0259443
-0.0291207
-0.0329004
-0.0383022
-0.0633317
-0.0586238
-0.0787729
-0.0230037
-0.0230035
-0.0692372
-0.0284623
-0.0561218
-0.0257911
-0.0259475
-0.0341883
-0.0593659
-0.0614725
-0.065489
-0.0600187
-0.0593644
-0.0129699
-0.095827
-0.0165441
-0.0160297
-0.077412
-0.0768749
-0.0166114
-0.0115377
-0.0162566
-0.071406
SCALARS cell_type float
LOOKUP_TABLE default
0
0
0
0
0
0
0
0
0
0
0
0
0
0
0
0
0
0
0
0
0
1
0
0
0
0
0
0
0
0
0
0
0
0
0
0
0
0
0
0
0
0
0
0
0
0
0
0
0
0
0
0
0
0
0
0
0
0
0
0
0
0
0
0
0
0
0
0
0
0
0
0
0
0
0
0
0
0
0
0
0
0
0
0
0
0
0
0
0
0
0
0
0
0
0
0
0
0
0
0
0
0
0
0
0
0
0
0
0
0
0
0
0
0
0
0
0
0
0
0
0
0
0
0
0
0
0
0
0
0
0
0
0
0
0
0
0
0
0
0
0
0
0
0
0
0
0
0
0
0
0
0
0
0
0
0
0
0
0
0
0
0
0
0
0
0
0
0
0
0
0
0
0
0
0
0
0
0
0
0
0
0
0
0
0
0
0
0
0
0
0
0
0
0
0
0
0
0
0
0
0
0
0
0
0
0
0
0
0
0
0
0
0
0
0
0
0
0
0
0
0
0
0
0
0
0
0
0
0
0
0
0
0
0
0
0
0
0
0
0
0
0
0
0
0
0
0
0
0
0
0
0
0
0
0
0
0
0
0
0
0
0
0
0
0
0
0
0
0
0
0
0
0
0
0
0
0
0
0
0
0
0
0
0
0
0
0
0
0
0
0
0
0
0
0
0
0
0
0
0
0
0
0
0
0
0
0
0
0
0
0
0
0
0
0
0
0
0
0
0
0
0
0
0
0
0
0
0
0
0
0
0
0
0
0
0
0
0
0
0
0
0
0
0
0
0
0
0
0
0
2
2
2
2
2
2
2
0
0
0
0
0
0
0
0
0
0
0
0
0
0
0
0
0
0
0
0
0
0
0
0
0
0
0
0
0
0
0
0
0
0
0
0
0
0
0
0
0
0
0
0
0
0
0
0
0
0
0
0
0
0
0
0
0
0
0
1
1
0
0
0
0
0
0
0
0
0
0
0
0
0
0
0
0
0
0
0
0
0
0
0
0
0
0
0
0
0
0
0
0
0
0
0
0
0
0
0
0
0
0
0
1
1
0
0
0
0
0
0
0
0
0
0
0
0
0
0
0
0
0
0
0
0
0
0
0
0
0
0
0
0
0
0
0
0
0
0
0
0
0
0
0
0
0
0
0
0
0
0
0
0
0
0
0
0
0
0
0
0
0
0
0
0
0
0
0
0
0
1
1
0
0
0
0
0
0
0
0
0
0
0
0
0
0
0
0
0
0
0
0
0
0
0
0
0
0
0
0
0
0
0
0
0
TENSORS Lagrange_strain float
0.0305679 -0.00319823 -1.12212e-08
-0.00319823 0.013389 -8.02204e-09
-1.12212e-08 -8.02204e-09 0.00740171

0.0291924 -0.00280102 6.91775e-08
-0.00280102 0.0335533 2.64141e-08
6.91775e-08 2.64141e-08 0.0331631

0.030021 0.00367906 -3.19356e-08
0.00367906 0.0311692 5.89481e-08
-3.19356e-08 5.89481e-08 0.0304675

0.0291617 -0.00392473 8.42113e-08
-0.00392473 0.0327986 3.14856e-08
8.42113e-08 3.14856e-08 0.0330879

0.0353665 0.00266898 -7.23207e-09
0.00266898 0.0380855 -3.09793e-07
-7.23207e-09 -3.09793e-07 0.035292

0.027735 -0.00236725 -1.09401e-07
-0.00236725 0.0333835 1.56205e-08
-1.09401e-07 1.56205e-08 0.0304385

0.0302618 0.00339404 -6.47923e-09
0.00339404 0.0134945 -2.12363e-07
-6.47923e-09 -2.12363e-07 0.00746315

0.0317545 0.0039395 1.10506e-07
0.0039395 0.0311996 9.05231e-08
1.10506e-07 9.05231e-08 0.0315603

0.0332414 0.000715578 1.12007e-08
0.000715578 0.0262211 6.34335e-10
1.12007e-08 6.34335e-10 0.0281417

0.0354666 -0.000991032 -4.66545e-08
-0.000991032 0.0275508 -5.20061e-08
-4.66545e-08 -5.20061e-08 0.0327206

0.0280611 0.00205112 -1.19141e-07
0.00205112 0.0138088 -2.30105e-07
-1.19141e-07 -2.30105e-07 0.0117534

0.027953 -0.00176578 -1.38953e-07
-0.00176578 0.0350063 -7.77507e-08
-1.38953e-07 -7.77507e-08 0.0315488

0.031121 0.00365706 1.6403e-07
0.00365706 0.0313 -7.50508e-08
1.6403e-07 -7.50508e-08 0.0310791

0.0290689 -0.00187987 -9.74452e-08
-0.00187987 0.0347989 -1.66537e-08
-9.74452e-08 -1.66537e-08 0.0325461

0.0346309 0.00441828 -1.75949e-07
0.00441828 0.0343623 -3.84721e-08
-1.75949e-07 -3.84721e-08 0.0348844

0.0343269 7.3057e-05 1.72344e-07
7.3057e-05 0.0272856 -2.97639e-08
1.72344e-07 -2.97639e-08 0.030778

0.0286926 -0.00235366 -1.1469e-07
-0.00235366 0.0360132 -7.59284e-08
-1.1469e-07 -7.59284e-08 0.0334497

0.0345728 -0.000353232 -5.65794e-08
-0.000353232 0.027356 -3.94889e-08
-5.65794e-08 -3.94889e-08 0.0319767

0.0269197 0.0034782 -1.59429e-07
0.0034782 0.0309444 1.21134e-07
-1.59429e-07 1.21134e-07 0.0275763

0.033884 -0.000550306 8.18017e-08
-0.000550306 0.026409 -1.60393e-07
8.18017e-08 -1.60393e-07 0.0301339

0.0266217 0.00113514 -2.85831e-09
0.00113514 0.0340332 -1.36092e-07
-2.85831e-09 -1.36092e-07 0.0291496

0.0452949 0.00085274 1.54219e-07
0.00085274 0.0452644 8.97549e-08
1.54219e-07 8.97549e-08 0.0366379

0.0336747 0.000247674 3.58873e-08
0.000247674 0.026315 -1.96775e-09
3.58873e-08 -1.96775e-09 0.0298047

0.0293093 -0.00363194 -1.62963e-08
-0.00363194 0.0311357 2.66534e-08
-1.62963e-08 2.66534e-08 0.0300464

0.0337791 0.000900039 1.45246e-07
0.000900039 0.026496 3.56875e-08
1.45246e-07 3.56875e-08 0.0300809

0.0285458 0.00250749 -3.95685e-09
0.00250749 0.0338936 -2.30253e-07
-3.95685e-09 -2.30253e-07 0.0322866

0.0286295 0.000526665 -2.07573e-07
0.000526665 0.0176896 -4.70962e-08
-2.07573e-07 -4.70962e-08 0.0131712

0.030914 0.00403453 1.15148e-07
0.00403453 0.0306459 3.3731e-08
1.15148e-07 3.3731e-08 0.0306104

0.0259244 0.00477627 -8.59088e-08
0.00477627 0.0257329 -6.14931e-08
-8.59088e-08 -6.14931e-08 0.0211278

0.0415291 0.00136972 -8.46609e-08
0.00136972 0.0383502 -2.90731e-07
-8.46609e-08 -2.90731e-07 0.0361349

0.0344102 0.00187122 1.50654e-07
0.00187122 0.027952 4.51544e-08
1.50654e-07 4.51544e-08 0.0309996

0.0217595 -0.00228784 9.49079e-09
-0.00228784 0.0299919 2.13446e-07
9.49079e-09 2.13446e-07 0.0211246

0.0228631 -0.00535238 6.07263e-08
-0.00535238 0.0234728 -8.90963e-08
6.07263e-08 -8.90963e-08 0.0125789

0.0348324 0.000800638 -4.44044e-08
0.000800638 0.0422554 -1.50512e-07
-4.44044e-08 -1.50512e-07 0.035786

0.0374532 -0.000661769 9.37352e-08
-0.000661769 0.0412026 -2.47847e-08
9.37352e-08 -2.47847e-08 0.0359006

0.0410752 0.00281356 -1.61876e-07
0.00281356 0.035986 1.89377e-07
-1.61876e-07 1.89377e-07 0.0357663

0.0372537 0.000705367 4.16341e-08
0.000705367 0.043215 -2.16754e-08
4.16341e-08 -2.16754e-08 0.0361413

0.0402605 -0.00121862 -1.7861e-07
-0.00121862 0.0378303 3.04111e-08
-1.7861e-07 3.04111e-08 0.0358079

0.0312151 -0.00367779 -1.66533e-07
-0.00367779 0.0311232 1.75885e-08
-1.66533e-07 1.75885e-08 0.0309251

0.0227472 0.00527893 -4.01453e-08
0.00527893 0.0237087 9.20685e-09
-4.01453e-08 9.20685e-09 0.0125809

0.0297604 -0.0023158 2.22887e-07
-0.0023158 0.0220307 1.09391e-07
2.22887e-07 1.09391e-07 0.0208745

0.037619 -0.000522989 8.61046e-08
-0.000522989 0.0430643 1.20313e-07
8.61046e-08 1.20313e-07 0.0361441

0.0412407 0.00263438 2.40813e-07
0.00263438 0.0394148 1.04471e-07
2.40813e-07 1.04471e-07 0.0361266

0.0343005 -0.00161723 1.46789e-08
-0.00161723 0.0279942 1.23164e-07
1.46789e-08 1.23164e-07 0.0310836

0.0231054 -0.0055257 -4.82338e-08
-0.0055257 0.0235624 2.98628e-08
-4.82338e-08 2.98628e-08 0.0162158

0.0299432 -0.00233225 1.87241e-07
-0.00233225 0.0221549 1.03502e-07
1.87241e-07 1.03502e-07 0.0213439

0.0258933 0.00222735 -1.67831e-07
0.00222735 0.0326537 2.09637e-07
-1.67831e-07 2.09637e-07 0.0279149

0.0275505 0.00252875 6.92376e-08
0.00252875 0.0323735 -2.20948e-07
6.92376e-08 -2.20948e-07 0.0284904

0.0341748 -0.00214084 1.05839e-09
-0.00214084 0.0271069 1.10064e-07
1.05839e-09 1.10064e-07 0.0304718

0.0229022 -0.00439223 3.41388e-08
-0.00439223 0.0272484 -1.58542e-07
3.41388e-08 -1.58542e-07 0.0198501

0.0294933 0.00247145 9.17879e-08
0.00247145 0.0218339 2.47724e-07
9.17879e-08 2.47724e-07 0.0202807

0.0298717 -0.00327081 3.0698e-07
-0.00327081 0.0245132 -8.84835e-09
3.0698e-07 -8.84835e-09 0.0230479

0.0344774 0.0025778 7.99107e-08
0.0025778 0.0382033 -3.98262e-09
7.99107e-08 -3.98262e-09 0.0352707

0.028689 0.00383836 9.45237e-08
0.00383836 0.0257795 -6.62734e-08
9.45237e-08 -6.62734e-08 0.0231164

0.0349284 -0.00291583 2.00205e-07
-0.00291583 0.0374327 8.90077e-08
2.00205e-07 8.90077e-08 0.035189

0.0255799 -0.00545515 2.03437e-07
-0.00545515 0.022902 1.43826e-07
2.03437e-07 1.43826e-07 0.0158194

0.0373466 0.000746148 1.61123e-07
0.000746148 0.0414128 4.65665e-08
1.61123e-07 4.65665e-08 0.0359211

0.0231673 -0.000693144 -5.14974e-08
-0.000693144 0.0313131 1.0894e-07
-5.14974e-08 1.0894e-07 0.0231024

0.0410301 0.00137965 1.1375e-08
0.00137965 0.0377071 -7.91304e-08
1.1375e-08 -7.91304e-08 0.0358993

0.0276754 0.00280502 1.21687e-07
0.00280502 0.032749 -3.37719e-08
1.21687e-07 -3.37719e-08 0.0302308

0.0361387 0.000784879 -4.23837e-09
0.000784879 0.0281313 -1.00323e-07
-4.23837e-09 -1.00323e-07 0.0336729

0.0362539 0.00153405 2.58066e-08
0.00153405 0.0316928 1.96212e-07
2.58066e-08 1.96212e-07 0.0342205

0.028637 0.00405696 -2.11228e-08
0.00405696 0.0198971 2.34347e-07
-2.11228e-08 2.34347e-07 0.013759

0.0309723 -0.00078366 1.68567e-07
-0.00078366 0.0370847 1.00573e-07
1.68567e-07 1.00573e-07 0.0338813

0.0315547 0.00124354 7.92016e-09
0.00124354 0.0364206 -2.85145e-08
7.92016e-09 -2.85145e-08 0.0342593

0.0285487 -0.000375431 1.96748e-07
-0.000375431 0.0369556 2.08492e-08
1.96748e-07 2.08492e-08 0.0326704

0.0296024 0.00307122 -1.20742e-07
0.00307122 0.034791 6.56736e-08
-1.20742e-07 6.56736e-08 0.0337087

0.034719 0.00112213 4.04604e-09
0.00112213 0.0278384 3.42391e-08
4.04604e-09 3.42391e-08 0.0322083

0.029187 -0.00369902 -1.49284e-08
-0.00369902 0.0310208 -6.60125e-08
-1.49284e-08 -6.60125e-08 0.0299093

0.0350543 -0.000236855 1.74026e-07
-0.000236855 0.0275797 -4.78389e-08
1.74026e-07 -4.78389e-08 0.0333929

0.0344521 -0.00254798 1.1038e-07
-0.00254798 0.0381336 -3.14993e-08
1.1038e-07 -3.14993e-08 0.0352607

0.0350107 0.0028495 3.36333e-09
0.0028495 0.0375702 -7.86645e-08
3.36333e-09 -7.86645e-08 0.0352405

0.0218885 -0.00213186 -2.45412e-07
-0.00213186 0.0299219 3.36361e-08
-2.45412e-07 3.36361e-08 0.0208511

0.0347014 -0.00369102 -1.94994e-07
-0.00369102 0.0319577 7.68339e-08
-1.94994e-07 7.68339e-08 0.0330788

0.0292917 -0.00329729 -5.47846e-09
-0.00329729 0.0321123 -4.93605e-08
-5.47846e-09 -4.93605e-08 0.0304331

0.0267795 -0.00401682 7.14425e-08
-0.00401682 0.0176051 -7.92692e-08
7.14425e-08 -7.92692e-08 0.0127258

0.0324041 0.00041893 -1.6466e-08
0.00041893 0.038105 -3.27047e-08
-1.6466e-08 -3.27047e-08 0.0344056

0.0345372 0.0038175 -1.39084e-08
0.0038175 0.0309411 1.71981e-07
-1.39084e-08 1.71981e-07 0.03266

0.0283763 0.00258134 1.02384e-07
0.00258134 0.034129 -1.15799e-09
1.02384e-07 -1.15799e-09 0.0322135

0.0315415 0.00103771 -1.63863e-07
0.00103771 0.0228437 1.11726e-07
-1.63863e-07 1.11726e-07 0.0240689

0.0270971 -0.00435856 -2.75865e-07
-0.00435856 0.0237365 9.94602e-09
-2.75865e-07 9.94602e-09 0.0183233

0.0362601 -0.00140287 -3.85264e-09
-0.00140287 0.0387422 -1.18615e-07
-3.85264e-09 -1.18615e-07 0.035401

0.0315558 0.00317079 6.73409e-08
0.00317079 0.0344013 -4.21741e-08
6.73409e-08 -4.21741e-08 0.0340901

0.027301 -0.00415593 -7.83826e-08
-0.00415593 0.0221748 2.12318e-07
-7.83826e-08 2.12318e-07 0.0184112

0.0303576 0.00139097 1.67488e-07
0.00139097 0.0228302 1.04883e-07
1.67488e-07 1.04883e-07 0.0209543

0.0186019 -0.00269697 3.22327e-08
-0.00269697 0.0289281 2.01559e-07
3.22327e-08 2.01559e-07 0.0158929

0.0271997 0.00188883 5.53529e-08
0.00188883 0.0343195 3.53265e-09
5.53529e-08 3.53265e-09 0.0306543

0.0353816 0.00305638 1.72745e-07
0.00305638 0.0308197 6.37232e-08
1.72745e-07 6.37232e-08 0.0327535

0.0226477 0.00538569 -2.85979e-08
0.00538569 0.0240883 2.2744e-08
-2.85979e-08 2.2744e-08 0.0161984

0.0459502 0.00223795 7.94516e-07
0.00223795 0.0417503 -5.26428e-07
7.94516e-07 -5.26428e-07 0.0366389

0.0230812 -0.000534441 -1.35879e-07
-0.000534441 0.0313536 2.65884e-07
-1.35879e-07 2.65884e-07 0.0230723

0.0463635 -0.00225609 -5.942e-07
-0.00225609 0.0412944 -7.07838e-08
-5.942e-07 -7.07838e-08 0.0365939

0.0370653 -0.00362412 2.50657e-07
-0.00362412 0.0334909 1.52106e-09
2.50657e-07 1.52106e-09 0.0346206

0.0351369 0.00361932 1.49314e-07
0.00361932 0.0300037 1.50198e-07
1.49314e-07 1.50198e-07 0.0324562

0.0299618 -0.00315879 9.26222e-08
-0.00315879 0.0246902 2.51959e-07
9.26222e-08 2.51959e-07 0.0232857

0.0230121 0.0040297 1.25516e-07
0.0040297 0.0277787 -1.73432e-07
1.25516e-07 -1.73432e-07 0.0203818

0.0210937 -0.00137855 1.0877e-07
-0.00137855 0.0298948 -5.30006e-08
1.0877e-07 -5.30006e-08 0.0182513

0.0287455 0.00288888 1.10209e-07
0.00288888 0.0342269 2.26866e-10
1.10209e-07 2.26866e-10 0.0326994

0.0370117 0.00223587 1.73731e-07
0.00223587 0.0334519 -2.12577e-07
1.73731e-07 -2.12577e-07 0.034384

0.0281481 0.00198809 1.01011e-07
0.00198809 0.0340594 -7.54871e-09
1.01011e-07 -7.54871e-09 0.0308651

0.0318822 0.00207299 -1.83525e-07
0.00207299 0.0252538 8.14171e-08
-1.83525e-07 8.14171e-08 0.0256172

0.0239072 -0.0027742 1.57319e-07
-0.0027742 0.0297646 7.59933e-08
1.57319e-07 7.59933e-08 0.0215613

0.0278984 -0.00376363 -2.50571e-07
-0.00376363 0.0218149 7.19986e-08
-2.50571e-07 7.19986e-08 0.0180757

0.0293312 -0.00323167 7.17533e-08
-0.00323167 0.0326291 -7.14566e-08
7.17533e-08 -7.14566e-08 0.0324025

0.0306261 0.00361468 1.62681e-07
0.00361468 0.0322285 -7.74003e-08
1.62681e-07 -7.74003e-08 0.0323703

0.0287076 0.00304806 1.27583e-07
0.00304806 0.0340268 -2.13811e-07
1.27583e-07 -2.13811e-07 0.0326298

0.0292065 0.00172549 -8.09425e-09
0.00172549 0.0376173 -3.71109e-08
-8.09425e-09 -3.71109e-08 0.0338458

0.0344765 0.00123249 6.97716e-08
0.00123249 0.0275235 4.09179e-08
6.97716e-08 4.09179e-08 0.0306743

0.0199604 -0.000605282 -1.00404e-07
-0.000605282 0.0296601 -1.8193e-07
-1.00404e-07 -1.8193e-07 0.0181037

0.0297967 -0.00486299 -1.87831e-07
-0.00486299 0.0330485 9.01525e-09
-1.87831e-07 9.01525e-09 0.0337412

0.0290807 0.00359995 -1.21981e-07
0.00359995 0.0313593 -3.3601e-08
-1.21981e-07 -3.3601e-08 0.0302636

0.0181054 0.00028294 -4.38134e-08
0.00028294 0.0293102 -1.95347e-08
-4.38134e-08 -1.95347e-08 0.0168782

0.0278429 0.00442358 1.72262e-08
0.00442358 0.0209679 2.65463e-07
1.72262e-08 2.65463e-07 0.0174545

0.0291906 -0.0030203 8.63185e-08
-0.0030203 0.0327023 1.12365e-07
8.63185e-08 1.12365e-07 0.0321849

0.0352421 0.000759591 -2.01858e-08
0.000759591 0.0273382 8.00854e-08
-2.01858e-08 8.00854e-08 0.0325523

0.0294267 0.00352009 -4.89944e-08
0.00352009 0.0252009 1.37038e-07
-4.89944e-08 1.37038e-07 0.0231109

0.0396362 0.00171017 2.34564e-07
0.00171017 0.0390394 2.03379e-07
2.34564e-07 2.03379e-07 0.0359397

0.0283745 0.00312331 -9.98567e-08
0.00312331 0.0224011 -7.75092e-08
-9.98567e-08 -7.75092e-08 0.0182861

0.0394884 -0.00175075 7.59653e-08
-0.00175075 0.039065 -1.06571e-08
7.59653e-08 -1.06571e-08 0.0359048

0.0232606 0.000103373 -1.84213e-07
0.000103373 0.0315175 9.17841e-08
-1.84213e-07 9.17841e-08 0.0231192

0.032758 -0.000288388 -1.86366e-07
-0.000288388 0.0246596 -2.0405e-07
-1.86366e-07 -2.0405e-07 0.0269658

0.0380539 -0.0021293 6.36866e-08
-0.0021293 0.0304634 -9.35466e-08
6.36866e-08 -9.35466e-08 0.0347928

0.0292378 0.00320577 4.84612e-08
0.00320577 0.033277 -1.34192e-07
4.84612e-08 -1.34192e-07 0.0333424

0.0289501 -0.0017724 1.18419e-08
-0.0017724 0.0366083 -2.70042e-08
1.18419e-08 -2.70042e-08 0.0334992

0.0365829 -0.00108483 2.45112e-08
-0.00108483 0.0264758 1.8693e-07
2.45112e-08 1.8693e-07 0.0338595

0.0311798 -0.00292571 1.76285e-07
-0.00292571 0.0383053 -5.33569e-08
1.76285e-07 -5.33569e-08 0.0348431

0.0381645 -0.000885036 -1.45611e-07
-0.000885036 0.0387309 1.06185e-07
-1.45611e-07 1.06185e-07 0.0358349

0.0301794 -0.00393981 5.95999e-08
-0.00393981 0.0327096 1.12532e-07
5.95999e-08 1.12532e-07 0.0327627

0.0213325 0.00146941 -1.20589e-07
0.00146941 0.0296128 -6.33756e-08
-1.20589e-07 -6.33756e-08 0.0182953

0.0293872 -0.00364548 1.96045e-07
-0.00364548 0.0253488 -2.63825e-07
1.96045e-07 -2.63825e-07 0.0231815

0.032859 -0.00181724 -1.57414e-07
-0.00181724 0.0397171 -5.29867e-08
-1.57414e-07 -5.29867e-08 0.0352405

0.0350903 7.65537e-05 -4.03104e-09
7.65537e-05 0.0272215 8.15321e-08
-4.03104e-09 8.15321e-08 0.0332506

0.0308179 -0.00282898 -1.23652e-07
-0.00282898 0.0348911 2.00477e-07
-1.23652e-07 2.00477e-07 0.0340836

0.029534 0.00338852 -6.88944e-08
0.00338852 0.0328708 8.32223e-08
-6.88944e-08 8.32223e-08 0.0333254

0.0264598 -0.00406328 -2.62263e-08
-0.00406328 0.027261 -1.60118e-07
-2.62263e-08 -1.60118e-07 0.021584

0.0371722 -0.000958218 -2.22993e-08
-0.000958218 0.04161 -1.46871e-07
-2.22993e-08 -1.46871e-07 0.035886

0.0227105 -0.00423751 -2.54886e-07
-0.00423751 0.0272432 3.03365e-07
-2.54886e-07 3.03365e-07 0.0168771

0.0341824 -0.00252469 4.42685e-09
-0.00252469 0.0286057 -2.2605e-07
4.42685e-09 -2.2605e-07 0.0310439

0.0364254 0.000289693 1.24841e-07
0.000289693 0.029437 7.11291e-08
1.24841e-07 7.11291e-08 0.0341932

0.0396407 0.00239671 -2.8291e-08
0.00239671 0.0391129 2.7188e-08
-2.8291e-08 2.7188e-08 0.0358671

0.0238557 0.00260906 -1.31925e-08
0.00260906 0.0301509 8.15517e-08
-1.31925e-08 8.15517e-08 0.0217983

0.0334298 0.00358136 -2.8395e-08
0.00358136 0.0307144 7.00129e-08
-2.8395e-08 7.00129e-08 0.0317667

0.0316425 -0.00319429 -1.29859e-07
-0.00319429 0.0265514 -5.29318e-08
-1.29859e-07 -5.29318e-08 0.0269348

0.0289287 -0.00234078 -6.66237e-08
-0.00234078 0.0342338 -1.9787e-07
-6.66237e-08 -1.9787e-07 0.0326053

0.026244 0.0045013 5.92831e-08
0.0045013 0.0245572 1.18675e-07
5.92831e-08 1.18675e-07 0.0180807

0.028422 -0.0028668 4.06919e-08
-0.0028668 0.0340316 4.65071e-08
4.06919e-08 4.65071e-08 0.0324484

0.0331483 0.00405848 -4.32895e-08
0.00405848 0.030464 1.16227e-07
-4.32895e-08 1.16227e-07 0.0315417

0.0333339 -0.0033116 -1.19467e-07
-0.0033116 0.0283566 3.92938e-09
-1.19467e-07 3.92938e-09 0.0300453

0.0291603 -0.00329558 -5.51901e-08
-0.00329558 0.0319867 -1.33912e-08
-5.51901e-08 -1.33912e-08 0.0304368

0.0314547 -0.00242925 -1.18746e-07
-0.00242925 0.0247183 -6.87408e-08
-1.18746e-07 -6.87408e-08 0.0251557

0.0329548 -0.0024666 -8.36842e-08
-0.0024666 0.026709 -4.73755e-08
-8.36842e-08 -4.73755e-08 0.028596

0.0294907 -0.00334182 1.2703e-07
-0.00334182 0.0329497 -1.66898e-08
1.2703e-07 -1.66898e-08 0.0334068

0.0261337 0.00463378 -5.55278e-08
0.00463378 0.0255407 -2.6204e-07
-5.55278e-08 -2.6204e-07 0.021092

0.0281495 0.00201657 7.89647e-08
0.00201657 0.034335 7.6884e-09
7.89647e-08 7.6884e-09 0.0311088

0.0308862 0.00348098 2.64703e-08
0.00348098 0.0322549 -5.66835e-08
2.64703e-08 -5.66835e-08 0.0325997

0.0291567 0.00334805 1.96715e-07
0.00334805 0.0331912 -6.29194e-08
1.96715e-07 -6.29194e-08 0.0332599

0.0289835 0.00152278 -1.83589e-08
0.00152278 0.0354702 9.93436e-08
-1.83589e-08 9.93436e-08 0.032695

0.0310524 -0.00106169 -8.54307e-09
-0.00106169 0.023141 -2.48251e-07
-8.54307e-09 -2.48251e-07 0.0220775

0.0238835 0.00240571 2.2115e-07
0.00240571 0.03041 5.53358e-08
2.2115e-07 5.53358e-08 0.0221126

0.0292129 -0.00320394 -1.18517e-08
-0.00320394 0.0326359 -2.38131e-08
-1.18517e-08 -2.38131e-08 0.0316179

0.0289868 0.00335673 -5.11266e-09
0.00335673 0.0309321 9.71747e-08
-5.11266e-09 9.71747e-08 0.0285675

0.0266121 -0.00459101 -5.93353e-08
-0.00459101 0.0252301 -2.81183e-07
-5.93353e-08 -2.81183e-07 0.0212562

0.0262774 0.00489331 1.54574e-07
0.00489331 0.0209458 -2.57483e-07
1.54574e-07 -2.57483e-07 0.016762

0.0235024 -0.00428667 -4.85902e-08
-0.00428667 0.027464 4.48139e-08
-4.85902e-08 4.48139e-08 0.020626

0.0266712 -0.00402735 8.7528e-08
-0.00402735 0.0274821 5.16898e-08
8.7528e-08 5.16898e-08 0.0220497

0.0353647 -0.000906378 -8.93321e-08
-0.000906378 0.0273899 -5.28424e-08
-8.93321e-08 -5.28424e-08 0.0326546

0.0260447 0.00392161 -1.75767e-07
0.00392161 0.0280919 7.75014e-08
-1.75767e-07 7.75014e-08 0.0221021

0.0307877 0.00171649 -1.89875e-07
0.00171649 0.0233599 -7.27798e-09
-1.89875e-07 -7.27798e-09 0.0220252

0.0214306 0.00172197 -1.01701e-07
0.00172197 0.0302402 -4.92409e-09
-1.01701e-07 -4.92409e-09 0.0211324

0.0242624 -0.00288934 2.95243e-08
-0.00288934 0.0299513 2.14276e-07
2.95243e-08 2.14276e-07 0.0220858

0.0313456 -0.000131051 1.68671e-07
-0.000131051 0.0392741 -1.34425e-07
1.68671e-07 -1.34425e-07 0.0346708

0.023058 0.000294792 -8.28809e-08
0.000294792 0.0314601 2.69279e-07
-8.28809e-08 2.69279e-07 0.0230619

0.0227767 0.00400152 1.81684e-07
0.00400152 0.0281271 1.06714e-07
1.81684e-07 1.06714e-07 0.0206378

0.0288882 0.00158565 -1.42399e-07
0.00158565 0.0358329 -3.19286e-08
-1.42399e-07 -3.19286e-08 0.0328936

0.0293158 -0.00357998 -7.36478e-08
-0.00357998 0.0251294 -3.12106e-08
-7.36478e-08 -3.12106e-08 0.0232395

0.0369769 0.00273283 1.60511e-07
0.00273283 0.029723 1.04323e-07
1.60511e-07 1.04323e-07 0.0338017

0.037176 0.00348303 5.92599e-08
0.00348303 0.0334227 1.68067e-08
5.92599e-08 1.68067e-08 0.0346523

0.0345439 -0.00244632 -1.99602e-08
-0.00244632 0.0285299 1.47344e-08
-1.99602e-08 1.47344e-08 0.0313788

0.0390566 -0.000265624 -4.14562e-08
-0.000265624 0.033925 -2.94176e-07
-4.14562e-08 -2.94176e-07 0.0352083

0.0314789 -0.0041873 1.21734e-07
-0.0041873 0.0317818 -2.19087e-07
1.21734e-07 -2.19087e-07 0.0321564

0.0294618 0.00300756 -1.34495e-07
0.00300756 0.0223271 -8.37398e-08
-1.34495e-07 -8.37398e-08 0.0210664

0.0302299 0.00397294 -5.92547e-08
0.00397294 0.0326632 1.00854e-07
-5.92547e-08 1.00854e-07 0.03272

0.0302773 0.00384703 3.98824e-08
0.00384703 0.0326072 1.56298e-07
3.98824e-08 1.56298e-07 0.0326748

0.0262444 0.00396167 -9.56781e-08
0.00396167 0.0277675 -1.82862e-07
-9.56781e-08 -1.82862e-07 0.0218646

0.0344506 0.00357674 6.27996e-08
0.00357674 0.0317798 6.51726e-08
6.27996e-08 6.51726e-08 0.0328316

0.0302485 0.000452459 -1.82578e-07
0.000452459 0.0204282 7.51441e-09
-1.82578e-07 7.51441e-09 0.0205731

0.0331857 0.00420061 -4.8257e-08
0.00420061 0.0323731 -6.40013e-08
-4.8257e-08 -6.40013e-08 0.0334839

0.030501 -0.00165461 2.23496e-07
-0.00165461 0.0366159 -1.7171e-08
2.23496e-07 -1.7171e-08 0.0336629

0.03736 0.00323285 -2.30966e-07
0.00323285 0.0334598 -9.54743e-08
-2.30966e-07 -9.54743e-08 0.0346644

0.0307372 -0.00389611 2.01566e-08
-0.00389611 0.0322728 -8.27235e-08
2.01566e-08 -8.27235e-08 0.0326803

0.0293741 -0.000644905 -8.58032e-08
-0.000644905 0.036903 -3.53302e-09
-8.58032e-08 -3.53302e-09 0.0328479

0.0288122 -0.00315234 -1.61925e-07
-0.00315234 0.0221399 1.00035e-07
-1.61925e-07 1.00035e-07 0.0187589

0.0290025 0.00384459 -1.65746e-07
0.00384459 0.0255778 -2.59832e-07
-1.65746e-07 -2.59832e-07 0.0230728

0.0217013 0.00189101 2.16608e-08
0.00189101 0.0300612 8.39269e-08
2.16608e-08 8.39269e-08 0.0210837

0.0349903 -0.000161278 1.09607e-07
-0.000161278 0.0273896 -5.29167e-08
1.09607e-07 -5.29167e-08 0.0333016

0.0344201 2.76336e-07 -9.15103e-08
2.76336e-07 0.0272747 -4.86785e-08
-9.15103e-08 -4.86785e-08 0.0320412

0.0291657 0.00304004 1.14104e-08
0.00304004 0.0326799 1.57464e-07
1.14104e-08 1.57464e-07 0.0321328

0.0314496 0.00316625 -4.68899e-08
0.00316625 0.0342505 -6.15364e-08
-4.68899e-08 -6.15364e-08 0.0340583

0.0291687 -0.0032043 -1.63913e-07
-0.0032043 0.0332389 -5.56596e-08
-1.63913e-07 -5.56596e-08 0.0333791

0.0287738 -8.55984e-05 1.02951e-07
-8.55984e-05 0.036705 2.12046e-07
1.02951e-07 2.12046e-07 0.0325257

0.029464 0.00337574 -1.29947e-07
0.00337574 0.0330747 -1.04127e-07
-1.29947e-07 -1.04127e-07 0.0333548

0.0328595 -0.00134646 2.43225e-08
-0.00134646 0.0253618 1.73166e-07
2.43225e-08 1.73166e-07 0.0278289

0.0263549 -0.00425457 -9.35178e-08
-0.00425457 0.0281795 -4.94372e-08
-9.35178e-08 -4.94372e-08 0.0242676

0.0362977 -0.00033167 -6.02925e-08
-0.00033167 0.0293833 1.14909e-07
-6.02925e-08 1.14909e-07 0.0340281

0.0267809 -0.00444553 5.104e-08
-0.00444553 0.0251905 -3.53334e-08
5.104e-08 -3.53334e-08 0.0209492

0.0308997 0.00250727 -5.37292e-08
0.00250727 0.0350634 1.23156e-07
-5.37292e-08 1.23156e-07 0.0340679

0.0351134 -0.00349683 2.48485e-08
-0.00349683 0.0303885 -5.12231e-08
2.48485e-08 -5.12231e-08 0.0326149

0.030502 -0.00124976 1.31745e-07
-0.00124976 0.0229784 -1.02812e-07
1.31745e-07 -1.02812e-07 0.0214784

0.037148 -0.00307716 1.54099e-07
-0.00307716 0.0316535 1.33782e-08
1.54099e-07 1.33782e-08 0.033988

0.0349691 0.000321981 3.72949e-08
0.000321981 0.0275549 -1.63911e-08
3.72949e-08 -1.63911e-08 0.03343

0.035843 -0.00308839 8.14263e-08
-0.00308839 0.0332577 2.41055e-07
8.14263e-08 2.41055e-07 0.0341436

0.034929 -0.0034106 -1.77588e-07
-0.0034106 0.0295949 -6.27804e-08
-1.77588e-07 -6.27804e-08 0.0321782

0.0349094 -0.00113369 1.894e-08
-0.00113369 0.0278502 1.22728e-07
1.894e-08 1.22728e-07 0.0323415

0.0314898 -0.00306247 -4.49171e-08
-0.00306247 0.0344488 -1.46346e-07
-4.49171e-08 -1.46346e-07 0.0341466

0.0292355 -0.00407105 -1.11457e-07
-0.00407105 0.0268999 1.81587e-07
-1.11457e-07 1.81587e-07 0.0253462

0.034993 -0.00324366 -1.56874e-07
-0.00324366 0.0299155 1.88935e-08
-1.56874e-07 1.88935e-08 0.0321953

0.0314623 0.00140904 3.05463e-08
0.00140904 0.0233271 3.89053e-09
3.05463e-08 3.89053e-09 0.0244837

0.0336648 0.00348389 -9.28134e-08
0.00348389 0.033444 4.98654e-09
-9.28134e-08 4.98654e-09 0.0336501

0.0298927 -0.00496734 2.38734e-08
-0.00496734 0.0330784 -1.25902e-08
2.38734e-08 -1.25902e-08 0.0338573

0.0300433 0.00492036 1.08249e-07
0.00492036 0.0329402 -1.14467e-07
1.08249e-07 -1.14467e-07 0.0338242

0.0276881 -0.00374187 6.22598e-08
-0.00374187 0.0348072 1.43791e-08
6.22598e-08 1.43791e-08 0.0337668

0.0279258 0.00354713 9.30528e-08
0.00354713 0.0348352 7.49023e-08
9.30528e-08 7.49023e-08 0.0337316

0.03643 -0.0011537 -2.06136e-08
-0.0011537 0.0263419 1.79723e-07
-2.06136e-08 1.79723e-07 0.033758

0.0361986 0.0012476 -5.06946e-08
0.0012476 0.0265633 -2.87547e-08
-5.06946e-08 -2.87547e-08 0.0337208

0.0350343 -0.00130647 -1.49678e-09
-0.00130647 0.0284681 5.45087e-08
-1.49678e-09 5.45087e-08 0.0325759

0.0344365 0.00425937 -6.03823e-09
0.00425937 0.0342895 -6.08305e-08
-6.03823e-09 -6.08305e-08 0.0348126

0.0343124 -0.00435724 1.5344e-07
-0.00435724 0.034281 7.68942e-09
1.5344e-07 7.68942e-09 0.034801

0.030521 0.00209359 1.24355e-08
0.00209359 0.0381657 -7.24692e-09
1.24355e-08 -7.24692e-09 0.0348498

0.0306643 -0.00205958 -2.45191e-07
-0.00205958 0.0380952 -1.42982e-08
-2.45191e-07 -1.42982e-08 0.0348371

0.0395021 -0.000529173 5.66303e-08
-0.000529173 0.0328495 3.77408e-08
5.66303e-08 3.77408e-08 0.035258

0.039705 0.0005134 1.36277e-07
0.0005134 0.0326218 -4.22586e-08
1.36277e-07 -4.22586e-08 0.0353032

0.0239651 0.00127607 -1.53274e-07
0.00127607 0.0320031 1.4077e-07
-1.53274e-07 1.4077e-07 0.0251844

0.0311622 -0.00326539 6.54608e-08
-0.00326539 0.0322407 1.22261e-07
6.54608e-08 1.22261e-07 0.032802

0.0277799 -0.00478551 1.02059e-07
-0.00478551 0.0333123 -6.17764e-08
1.02059e-07 -6.17764e-08 0.0334553

0.033359 -0.000610211 -1.74122e-07
-0.000610211 0.0264032 -1.77922e-07
-1.74122e-07 -1.77922e-07 0.0284483

0.038188 -0.00225203 -3.72821e-08
-0.00225203 0.0307946 -1.22342e-07
-3.72821e-08 -1.22342e-07 0.0348928

0.0382365 0.00218369 9.34721e-08
0.00218369 0.0309076 2.15904e-08
9.34721e-08 2.15904e-08 0.034925

0.0360837 1.56203e-05 1.15052e-07
1.56203e-05 0.0251259 -1.5452e-07
1.15052e-07 -1.5452e-07 0.0334704

0.0242411 0.00302882 5.57505e-08
0.00302882 0.0303977 2.07859e-07
5.57505e-08 2.07859e-07 0.0242771

0.0276745 0.00475614 2.58954e-08
0.00475614 0.0333127 -7.01329e-08
2.58954e-08 -7.01329e-08 0.0333931

0.0286747 -0.00307576 -8.13429e-08
-0.00307576 0.0342607 -1.9763e-07
-8.13429e-08 -1.9763e-07 0.0327524

0.0310854 0.00303567 5.26863e-08
0.00303567 0.0251468 1.42572e-07
5.26863e-08 1.42572e-07 0.0254673

0.0372274 0.00316575 -9.49917e-08
0.00316575 0.0315409 3.6746e-08
-9.49917e-08 3.6746e-08 0.034076

0.029227 -0.00406714 8.92258e-09
-0.00406714 0.026936 -1.64957e-07
8.92258e-09 -1.64957e-07 0.0253214

0.0364017 -0.000453714 -8.88529e-08
-0.000453714 0.0296916 -3.78402e-08
-8.88529e-08 -3.78402e-08 0.0341311

0.0273448 -0.00449492 3.28483e-09
-0.00449492 0.0333956 5.8992e-08
3.28483e-09 5.8992e-08 0.0334419

0.0240379 0.00107887 -1.24618e-07
0.00107887 0.0322445 2.15307e-07
-1.24618e-07 2.15307e-07 0.025506

0.0242298 0.00282664 9.22738e-08
0.00282664 0.0307015 -2.04982e-07
9.22738e-08 -2.04982e-07 0.024545

0.0267924 0.00459423 1.43861e-07
0.00459423 0.0240418 2.75169e-08
1.43861e-07 2.75169e-08 0.0182136

0.0298509 0.000199928 1.0496e-07
0.000199928 0.0200884 -6.26617e-08
1.0496e-07 -6.26617e-08 0.0193624

0.0319085 -0.00302379 -1.77506e-07
-0.00302379 0.0341624 2.30442e-08
-1.77506e-07 2.30442e-08 0.0340357

0.0229185 0.0039996 8.5366e-08
0.0039996 0.02766 -6.61779e-08
8.5366e-08 -6.61779e-08 0.0176531

0.0292097 0.00310094 -1.18628e-07
0.00310094 0.0327633 -3.99842e-08
-1.18628e-07 -3.99842e-08 0.0310124

0.0315946 -0.00069446 1.30753e-07
-0.00069446 0.02316 -2.45133e-07
1.30753e-07 -2.45133e-07 0.0244849

0.0327615 0.00146444 -1.75776e-08
0.00146444 0.0253469 6.8067e-08
-1.75776e-08 6.8067e-08 0.0276131

0.0359783 5.60038e-05 9.51294e-08
5.60038e-05 0.0249589 -7.90507e-08
9.51294e-08 -7.90507e-08 0.0333864

0.0279658 -0.00380558 -2.27358e-08
-0.00380558 0.0349493 1.97544e-07
-2.27358e-08 1.97544e-07 0.0338161

0.0393147 -0.000843748 -2.95884e-07
-0.000843748 0.0416019 7.48363e-08
-2.95884e-07 7.48363e-08 0.0361902

0.0298678 0.00493902 -1.27193e-07
0.00493902 0.0329564 8.16442e-08
-1.27193e-07 8.16442e-08 0.0337792

0.0302882 0.000214511 3.47042e-08
0.000214511 0.0203969 2.16965e-08
3.47042e-08 2.16965e-08 0.0172761

0.0266738 -0.00425026 7.94323e-08
-0.00425026 0.0281331 6.40267e-08
7.94323e-08 6.40267e-08 0.0244376

0.0277462 0.00481578 -1.11767e-07
0.00481578 0.033315 -1.36086e-07
-1.11767e-07 -1.36086e-07 0.0334555

0.0279452 -0.00145869 1.69047e-07
-0.00145869 0.0350855 -3.81349e-08
1.69047e-07 -3.81349e-08 0.0314504

0.0244651 -0.00330504 8.36953e-08
-0.00330504 0.0300155 1.96589e-07
8.36953e-08 1.96589e-07 0.0242172

0.0279908 0.00377952 -1.05458e-07
0.00377952 0.0349106 1.2648e-07
-1.05458e-07 1.2648e-07 0.033787

0.0313618 -0.0034095 -2.18882e-08
-0.0034095 0.0270089 1.90639e-07
-2.18882e-08 1.90639e-07 0.0269915

0.0402798 0.00140908 -1.50168e-07
0.00140908 0.0406178 2.45424e-07
-1.50168e-07 2.45424e-07 0.0361706

0.025881 0.00400283 -2.13863e-07
0.00400283 0.0289544 7.859e-09
-2.13863e-07 7.859e-09 0.0245111

0.036678 0.00110305 1.12557e-07
0.00110305 0.0263524 8.98734e-08
1.12557e-07 8.98734e-08 0.0338979

0.0333422 0.00398403 5.33092e-08
0.00398403 0.032116 -6.5557e-08
5.33092e-08 -6.5557e-08 0.0333159

0.0292282 0.00306748 -6.70117e-08
0.00306748 0.0326055 1.00548e-07
-6.70117e-08 1.00548e-07 0.0321579

0.0343644 -0.00431097 -6.33847e-09
-0.00431097 0.0345053 -1.47345e-07
-6.33847e-09 -1.47345e-07 0.0348851

0.0354899 -0.00306354 -3.04221e-08
-0.00306354 0.0305902 -1.6393e-07
-3.04221e-08 -1.6393e-07 0.0327506

0.0333667 0.00138776 2.35374e-07
0.00138776 0.0395779 -5.06241e-08
2.35374e-07 -5.06241e-08 0.0350027

0.0291971 -0.00307939 -2.24152e-08
-0.00307939 0.0328743 2.85588e-07
-2.24152e-08 2.85588e-07 0.0313835

0.0292649 -0.00123217 -7.21695e-08
-0.00123217 0.0192872 -1.15161e-07
-7.21695e-08 -1.15161e-07 0.0164122

0.0287784 -0.00183238 -2.33148e-08
-0.00183238 0.0184141 -9.89402e-08
-2.33148e-08 -9.89402e-08 0.0161971

0.038529 0.00220221 -2.71966e-07
0.00220221 0.0332393 -1.90778e-08
-2.71966e-07 -1.90778e-08 0.0347632

0.0280562 0.00294511 -1.52274e-07
0.00294511 0.0323355 -3.13007e-08
-1.52274e-07 -3.13007e-08 0.0295184

0.0320675 0.00383449 4.28699e-08
0.00383449 0.0309608 1.76479e-07
4.28699e-08 1.76479e-07 0.0314547

0.03205 8.99975e-05 -4.52249e-09
8.99975e-05 0.0245771 -2.26001e-07
-4.52249e-09 -2.26001e-07 0.0248883

0.0302379 0.000866157 -1.06064e-07
0.000866157 0.0385813 -6.01083e-08
-1.06064e-07 -6.01083e-08 0.0340966

0.0354022 0.00219159 -7.29141e-08
0.00219159 0.0293233 -1.26681e-07
-7.29141e-08 -1.26681e-07 0.0328586

0.0248116 -0.00333887 2.01362e-07
-0.00333887 0.0300063 -5.54809e-08
2.01362e-07 -5.54809e-08 0.0244703

0.0286509 -0.000337792 5.36407e-09
-0.000337792 0.0366578 2.02668e-07
5.36407e-09 2.02668e-07 0.0323961

0.0252155 0.00174002 9.33787e-08
0.00174002 0.0320298 1.48239e-07
9.33787e-08 1.48239e-07 0.0256842

0.0332809 -0.00390983 1.29778e-07
-0.00390983 0.0304971 -1.54197e-07
1.29778e-07 -1.54197e-07 0.0315927

0.0290652 -0.00389613 7.15699e-08
-0.00389613 0.0282003 -4.40224e-08
7.15699e-08 -4.40224e-08 0.0257139

0.0261496 0.00409879 1.4073e-08
0.00409879 0.0285467 1.07971e-08
1.4073e-08 1.07971e-08 0.0243184

0.0452876 -0.00201735 -1.73601e-07
-0.00201735 0.039606 -1.37609e-07
-1.73601e-07 -1.37609e-07 0.0363672

0.031667 0.000256397 4.23029e-08
0.000256397 0.0393277 -7.40996e-08
4.23029e-08 -7.40996e-08 0.0347694

0.0306168 0.00265095 -2.69944e-09
0.00265095 0.038443 9.71862e-09
-2.69944e-09 9.71862e-09 0.034958

0.0387659 0.00209493 -1.73656e-07
0.00209493 0.0302221 -7.1969e-09
-1.73656e-07 -7.1969e-09 0.0349428

0.0313711 -0.00345055 4.48942e-09
-0.00345055 0.032141 -1.06849e-07
4.48942e-09 -1.06849e-07 0.032573

0.0318181 0.00233602 7.96508e-08
0.00233602 0.0256206 1.03024e-07
7.96508e-08 1.03024e-07 0.0258799

0.034994 -0.000708443 2.0709e-07
-0.000708443 0.0415759 4.66314e-09
2.0709e-07 4.66314e-09 0.0357279

0.0357884 -0.00251875 2.37948e-08
-0.00251875 0.0295506 1.11627e-07
2.37948e-08 1.11627e-07 0.0332583

0.0332972 -0.0020398 -8.17628e-08
-0.0020398 0.026653 -4.24496e-08
-8.17628e-08 -4.24496e-08 0.0286757

0.0252526 0.00151094 -1.65109e-07
0.00151094 0.0322749 2.13898e-07
-1.65109e-07 2.13898e-07 0.0259503

0.0268049 -0.00334474 3.66812e-08
-0.00334474 0.0300098 1.95102e-07
3.66812e-08 1.95102e-07 0.0251876

0.0364779 -0.00336037 1.97457e-07
-0.00336037 0.0352878 -7.06966e-08
1.97457e-07 -7.06966e-08 0.0347426

0.028476 0.00415205 4.91875e-08
0.00415205 0.0277162 -1.52184e-07
4.91875e-08 -1.52184e-07 0.025468

0.0372441 -0.00334557 -7.6393e-09
-0.00334557 0.0333225 4.29411e-08
-7.6393e-09 4.29411e-08 0.0346119

0.0322062 0.000337916 1.58307e-07
0.000337916 0.0248628 -1.92034e-07
1.58307e-07 -1.92034e-07 0.0254378

0.0191612 -0.00368916 1.61067e-07
-0.00368916 0.0275261 3.35739e-08
1.61067e-07 3.35739e-08 0.016311

0.0292103 -0.00380364 -1.75566e-07
-0.00380364 0.0281927 4.13049e-08
-1.75566e-07 4.13049e-08 0.025808

0.0230459 0.00412737 7.34481e-08
0.00412737 0.0280206 -2.6615e-07
7.34481e-08 -2.6615e-07 0.0175923

0.0296912 -0.00155938 1.39115e-07
-0.00155938 0.0375338 1.07651e-07
1.39115e-07 1.07651e-07 0.0336487

0.0243603 -0.00179358 -1.6632e-09
-0.00179358 0.0318728 3.2247e-08
-1.6632e-09 3.2247e-08 0.0254481

0.0424378 -0.00323401 -1.05614e-07
-0.00323401 0.0423765 -3.55356e-08
-1.05614e-07 -3.55356e-08 0.0363755

0.0263367 0.00309092 -7.98887e-08
0.00309092 0.0307017 -2.05213e-07
-7.98887e-08 -2.05213e-07 0.025478

0.0334775 -0.00432341 -2.85929e-07
-0.00432341 0.0326593 1.00614e-07
-2.85929e-07 1.00614e-07 0.0335666

0.0240808 -0.00155089 5.27803e-08
-0.00155089 0.0318871 -5.9338e-08
5.27803e-08 -5.9338e-08 0.0251769

0.0362227 -0.00253872 5.66175e-08
-0.00253872 0.0295112 -3.15166e-08
5.66175e-08 -3.15166e-08 0.0335194

0.0266736 0.00310473 -1.08632e-07
0.00310473 0.0303946 2.10694e-07
-1.08632e-07 2.10694e-07 0.0253133

0.0343434 -0.000653983 4.76185e-08
-0.000653983 0.0272768 -2.49633e-08
4.76185e-08 -2.49633e-08 0.0305777

0.0188906 -0.00387161 2.74142e-07
-0.00387161 0.0298017 -2.28159e-07
2.74142e-07 -2.28159e-07 0.0129613

0.0279992 0.00275449 -1.12457e-07
0.00275449 0.0326286 2.63886e-07
-1.12457e-07 2.63886e-07 0.0305736

0.0314373 -0.00251232 -7.76004e-08
-0.00251232 0.0247222 2.48128e-07
-7.76004e-08 2.48128e-07 0.0254059

0.0391182 -0.0028694 9.39701e-08
-0.0028694 0.0322214 -2.49972e-07
9.39701e-08 -2.49972e-07 0.0349368

0.0287528 0.00412383 1.04619e-07
0.00412383 0.0272998 2.09578e-07
1.04619e-07 2.09578e-07 0.0252554

0.0313612 -0.00391911 1.7504e-08
-0.00391911 0.0285418 1.3171e-07
1.7504e-08 1.3171e-07 0.0287308

0.0354082 0.00276398 2.83009e-07
0.00276398 0.0308555 7.74561e-08
2.83009e-07 7.74561e-08 0.0330391

0.0297728 -0.00370389 -6.12272e-08
-0.00370389 0.0329373 2.93869e-09
-6.12272e-08 2.93869e-09 0.0333421

0.0270547 -0.00341013 1.59287e-08
-0.00341013 0.0299822 -6.97792e-08
1.59287e-08 -6.97792e-08 0.0253972

0.0284405 0.00377112 -6.03821e-08
0.00377112 0.0289393 1.2204e-08
-6.03821e-08 1.2204e-08 0.0258871

0.0313709 0.00341339 1.73417e-07
0.00341339 0.0268992 1.29699e-07
1.73417e-07 1.29699e-07 0.0269657

0.0365357 -0.00194424 4.8184e-08
-0.00194424 0.0306249 -4.94305e-08
4.8184e-08 -4.94305e-08 0.0336353

0.0255334 -0.00216311 2.55473e-07
-0.00216311 0.0318015 5.41175e-08
2.55473e-07 5.41175e-08 0.0258534

0.0346991 -0.00231383 -2.45379e-09
-0.00231383 0.0283339 5.43868e-08
-2.45379e-09 5.43868e-08 0.0314555

0.0341854 0.00222288 1.22851e-07
0.00222288 0.0274314 9.8634e-08
1.22851e-07 9.8634e-08 0.0306034

0.0336446 -0.00124593 -3.67793e-08
-0.00124593 0.0392998 -1.32055e-07
-3.67793e-08 -1.32055e-07 0.0349269

0.0320715 -0.00174668 -1.20158e-07
-0.00174668 0.02533 1.66855e-07
-1.20158e-07 1.66855e-07 0.0258707

0.0250015 7.96611e-05 -3.73321e-08
7.96611e-05 0.0331511 -4.82571e-08
-3.73321e-08 -4.82571e-08 0.0268608

0.0332469 0.00242867 -8.0336e-08
0.00242867 0.0271932 -3.2776e-08
-8.0336e-08 -3.2776e-08 0.0289216

0.0311169 0.00359881 3.74723e-08
0.00359881 0.0272923 1.11916e-07
3.74723e-08 1.11916e-07 0.0271221

0.025295 -0.00204097 -5.77847e-08
-0.00204097 0.0318638 -6.19115e-08
-5.77847e-08 -6.19115e-08 0.0256107

0.0252007 -0.000154638 5.10108e-09
-0.000154638 0.033291 1.61644e-08
5.10108e-09 1.61644e-08 0.0271435

0.0354132 0.00385821 9.27228e-08
0.00385821 0.0329953 -4.80923e-08
9.27228e-08 -4.80923e-08 0.033895

0.0275853 -0.00143079 -2.34809e-08
-0.00143079 0.0353414 -8.8944e-08
-2.34809e-08 -8.8944e-08 0.0314415

0.0312333 -0.00348371 -3.6547e-08
-0.00348371 0.0269773 -1.66944e-07
-3.6547e-08 -1.66944e-07 0.0270093

0.031296 0.00277259 -3.65289e-08
0.00277259 0.0249217 -2.30044e-07
-3.65289e-08 -2.30044e-07 0.0252457

0.0345822 0.00311822 5.42379e-09
0.00311822 0.0293861 -1.18674e-07
5.42379e-09 -1.18674e-07 0.0317952

0.0279908 0.000716618 3.87059e-08
0.000716618 0.0360385 3.08099e-08
3.87059e-08 3.08099e-08 0.0318176

0.0287156 0.00378116 2.25411e-07
0.00378116 0.0285588 6.44329e-09
2.25411e-07 6.44329e-09 0.0257274

0.0367895 0.00305766 -4.70745e-08
0.00305766 0.036125 2.04355e-07
-4.70745e-08 2.04355e-07 0.0349066

0.0226797 -0.00754521 5.40682e-08
-0.00754521 0.0186875 -2.38177e-07
5.40682e-08 -2.38177e-07 0.010845

0.0332903 -0.00328735 -5.91317e-08
-0.00328735 0.0286319 1.25644e-07
-5.91317e-08 1.25644e-07 0.0301234

0.0207264 0.000913406 -1.12683e-07
0.000913406 0.0300306 -1.83516e-07
-1.12683e-07 -1.83516e-07 0.018346

0.0312996 -0.00378166 -1.21896e-07
-0.00378166 0.0292304 -1.1753e-07
-1.21896e-07 -1.1753e-07 0.029031

0.00153955 -0.0065187 -5.0839e-08
-0.0065187 0.0275679 2.2274e-07
-5.0839e-08 2.2274e-07 0.00290829

0.00146993 0.00636824 -2.3343e-08
0.00636824 0.0275858 -1.02273e-07
-2.3343e-08 -1.02273e-07 0.00300124

0.0119844 0.0145047 5.75896e-08
0.0145047 0.0175322 7.22151e-08
5.75896e-08 7.22151e-08 0.00277117

0.0121658 -0.0144954 4.95764e-08
-0.0144954 0.0172237 -6.21668e-08
4.95764e-08 -6.21668e-08 0.00280378

0.0293402 -0.000164087 8.92495e-08
-0.000164087 0 0
8.92495e-08 0 0.0029526

0.0235919 -0.0112825 7.1003e-18
-0.0112825 0.00539541 -7.77269e-20
7.1003e-18 -7.77269e-20 0.00297829

0.0236339 0.0113487 -1.79236e-07
0.0113487 0.00544946 -8.63157e-08
-1.79236e-07 -8.63157e-08 0.00303946

0.0369102 0.00191142 -2.13202e-07
0.00191142 0.0302417 -6.50931e-08
-2.13202e-07 -6.50931e-08 0.0338774

0.0387046 0.00341011 -7.34381e-08
0.00341011 0.0366174 2.9485e-07
-7.34381e-08 2.9485e-07 0.0355781

0.0344152 0.000872358 7.37404e-08
0.000872358 0.0274565 4.13227e-08
7.37404e-08 4.13227e-08 0.0316875

0.0328726 0.00285023 -1.68908e-07
0.00285023 0.0268891 1.26878e-07
-1.68908e-07 1.26878e-07 0.028646

0.0257004 0.0023132 -9.05427e-08
0.0023132 0.0323667 -2.23483e-07
-9.05427e-08 -2.23483e-07 0.0276353

0.0307124 0.0037689 2.10873e-07
0.0037689 0.0276757 -1.449e-07
2.10873e-07 -1.449e-07 0.0271173

0.0333054 -0.00390325 2.16442e-07
-0.00390325 0.0304654 -2.94179e-08
2.16442e-07 -2.94179e-08 0.0316296

0.0309732 0.00365436 1.27751e-07
0.00365436 0.0272865 2.10226e-07
1.27751e-07 2.10226e-07 0.026925

0.0249868 -0.000371453 6.04882e-08
-0.000371453 0.0331222 -4.51191e-08
6.04882e-08 -4.51191e-08 0.026843

0.0385482 -0.00348458 -1.8997e-07
-0.00348458 0.0368807 -7.77322e-08
-1.8997e-07 -7.77322e-08 0.0355838

0.0251753 -0.000635609 -1.0229e-08
-0.000635609 0.0332096 1.48633e-08
-1.0229e-08 1.48633e-08 0.0271024

0.0360181 0.00304753 4.77048e-08
0.00304753 0.0330109 7.2161e-08
4.77048e-08 7.2161e-08 0.0340978

0.0296227 0.00347579 -1.86989e-07
0.00347579 0.0248461 -2.20869e-07
-1.86989e-07 -2.20869e-07 0.0230226

0.030496 -0.00171391 -1.55357e-07
-0.00171391 0.0375123 6.76035e-08
-1.55357e-07 6.76035e-08 0.0347363

0.0339198 0.00180449 1.12251e-07
0.00180449 0.0271814 -3.10051e-08
1.12251e-07 -3.10051e-08 0.0303202

0.0312009 -0.00392031 -5.4819e-08
-0.00392031 0.0285308 -1.36684e-07
-5.4819e-08 -1.36684e-07 0.0286143

0.0315832 -0.00322135 5.95884e-08
-0.00322135 0.0266916 1.80155e-08
5.95884e-08 1.80155e-08 0.0270476

0.0384797 -0.00214126 -1.19776e-07
-0.00214126 0.0334171 -1.7115e-07
-1.19776e-07 -1.7115e-07 0.0347448

0.0326808 0.00366394 -1.86424e-07
0.00366394 0.029232 -1.07169e-07
-1.86424e-07 -1.07169e-07 0.0301548

0.0326445 0.00313751 -8.01421e-08
0.00313751 0.0272523 1.07313e-07
-8.01421e-08 1.07313e-07 0.0287878

0.026955 -0.000365033 -1.39363e-07
-0.000365033 0.0349868 -2.70612e-08
-1.39363e-07 -2.70612e-08 0.0301678

0.0258995 0.00076587 -6.65043e-08
0.00076587 0.0340035 -1.3872e-07
-6.65043e-08 -1.3872e-07 0.0288229

0.0327782 0.000345389 -1.55942e-07
0.000345389 0.0248616 -2.11526e-07
-1.55942e-07 -2.11526e-07 0.0274437

0.0313869 -0.000944844 6.15031e-08
-0.000944844 0.0230038 -1.06189e-07
6.15031e-08 -1.06189e-07 0.0238921

0.0308807 0.00398527 -2.29377e-08
0.00398527 0.0288059 -6.53953e-08
-2.29377e-08 -6.53953e-08 0.0286241

0.0331177 -0.00343142 1.78032e-07
-0.00343142 0.0285404 -1.34543e-07
1.78032e-07 -1.34543e-07 0.0299692

0.0364127 -0.00282381 -5.82908e-08
-0.00282381 0.0327329 -1.80998e-07
-5.82908e-08 -1.80998e-07 0.034144

0.0292064 -0.0041277 -7.41704e-08
-0.0041277 0.029192 -1.14036e-07
-7.41704e-08 -1.14036e-07 0.0277538

0.0269719 -0.00362043 1.5301e-07
-0.00362043 0.0304648 1.21776e-09
1.5301e-07 1.21776e-09 0.0272133

0.0283262 0.0038995 -7.7652e-09
0.0038995 0.0299009 1.1699e-07
-7.7652e-09 1.1699e-07 0.027752

0.0259012 -0.00124878 7.41956e-08
-0.00124878 0.0336136 -6.66765e-08
7.41956e-08 -6.66765e-08 0.0285159

0.0266544 -0.00020203 -8.75602e-09
-0.00020203 0.0349125 -2.19949e-07
-8.75602e-09 -2.19949e-07 0.0299197

0.0277623 0.000753083 -1.12348e-07
0.000753083 0.0360379 3.19485e-08
-1.12348e-07 3.19485e-08 0.0316581

0.0262472 -0.00274943 1.5866e-07
-0.00274943 0.0319631 1.99245e-07
1.5866e-07 1.99245e-07 0.0277105

0.0345826 0.00317565 -6.20281e-09
0.00317565 0.0291684 -9.67603e-08
-6.20281e-09 -9.67603e-08 0.0316344

0.0339096 -0.00126108 5.08332e-08
-0.00126108 0.0269302 -1.69529e-08
5.08332e-08 -1.69529e-08 0.0302016

0.0257903 0.000974036 -7.17909e-08
0.000974036 0.0338292 -1.09784e-07
-7.17909e-08 -1.09784e-07 0.0285419

0.027824 -0.00127013 -8.48572e-08
-0.00127013 0.0353971 -1.01465e-07
-8.48572e-08 -1.01465e-07 0.0313659

0.027293 -0.00213703 1.26961e-08
-0.00213703 0.033657 -1.13685e-08
1.26961e-08 -1.13685e-08 0.0302256

0.0327766 -0.00107739 -1.8951e-07
-0.00107739 0.02532 5.71402e-08
-1.8951e-07 5.71402e-08 0.0272542

0.0333149 -0.00427111 -1.3248e-07
-0.00427111 0.0323806 -8.12257e-08
-1.3248e-07 -8.12257e-08 0.0335291

0.0264886 0.00121986 -1.59701e-07
0.00121986 0.0338353 -1.10918e-07
-1.59701e-07 -1.10918e-07 0.028816

0.0398103 -0.00243172 -2.91604e-07
-0.00243172 0.0352184 -5.35476e-08
-2.91604e-07 -5.35476e-08 0.035461

0.0188887 0.00316466 -5.95165e-08
0.00316466 0.027876 -2.78337e-07
-5.95165e-08 -2.78337e-07 0.0162728

0.0338158 -0.00352247 -6.51046e-08
-0.00352247 0.0334948 2.61251e-08
-6.51046e-08 2.61251e-08 0.0337261

0.0353435 -0.00399929 -3.26681e-08
-0.00399929 0.0330465 -1.61452e-07
-3.26681e-08 -1.61452e-07 0.033904

0.0266858 -9.06837e-05 -4.62489e-09
-9.06837e-05 0.0349176 -2.19856e-07
-4.62489e-09 -2.19856e-07 0.0299279

0.0332428 -0.00217641 6.08732e-08
-0.00217641 0.027153 9.86849e-08
6.08732e-08 9.86849e-08 0.0289026

0.0293475 0.00168486 -7.37341e-09
0.00168486 0.0358197 -3.98395e-08
-7.37341e-09 -3.98395e-08 0.0328796

0.0132074 -0.000379137 -2.71213e-07
-0.000379137 0.0283621 -8.50416e-08
-2.71213e-07 -8.50416e-08 0.0111518

0.0271136 0.00186859 -1.04108e-07
0.00186859 0.0340613 -5.90532e-09
-1.04108e-07 -5.90532e-09 0.0303061

0.031109 -0.00385839 4.96412e-08
-0.00385839 0.0291538 7.39193e-08
4.96412e-08 7.39193e-08 0.0288063

0.0186197 0.00320458 -1.50877e-09
0.00320458 0.0301394 -1.18118e-07
-1.50877e-09 -1.18118e-07 0.0131268

0.0426002 0.00351784 -4.25666e-07
0.00351784 0.0418486 -5.71078e-07
-4.25666e-07 -5.71078e-07 0.0364803

0.043206 -0.00374868 7.83815e-08
-0.00374868 0.0414175 -9.7389e-08
7.83815e-08 -9.7389e-08 0.0364627

0.0310649 -0.00399089 -1.84312e-07
-0.00399089 0.0304709 -1.96796e-08
-1.84312e-07 -1.96796e-08 0.0304609

0.0289219 -0.00406413 7.78786e-10
-0.00406413 0.0291502 7.33883e-08
7.78786e-10 7.33883e-08 0.0275942

0.0330509 0.00272671 -6.43696e-08
0.00272671 0.0275282 8.21323e-08
-6.43696e-08 8.21323e-08 0.0290753

0.0327796 0.00196003 -5.58556e-08
0.00196003 0.025591 9.81171e-08
-5.58556e-08 9.81171e-08 0.0278226

0.0464016 0.00041954 -5.98377e-07
0.00041954 0.046355 -6.45756e-07
-5.98377e-07 -6.45756e-07 0.0366945

0.0469203 -0.000951666 7.78211e-07
-0.000951666 0.0457683 -4.30219e-07
7.78211e-07 -4.30219e-07 0.0367656

0.0347994 0.000638521 -3.61815e-08
0.000638521 0.0275727 1.36911e-07
-3.61815e-08 1.36911e-07 0.0322163

0.0277516 0.000882309 -1.02034e-07
0.000882309 0.0355706 -9.6114e-09
-1.02034e-07 -9.6114e-09 0.0313484

0.0276074 0.00088285 1.23429e-07
0.00088285 0.0355708 -3.17006e-09
1.23429e-07 -3.17006e-09 0.0312445

0.0234589 0.00739984 -1.9323e-07
0.00739984 0.0183018 1.15124e-07
-1.9323e-07 1.15124e-07 0.0109015

0.0272468 -0.00367564 -3.28462e-08
-0.00367564 0.0303471 2.65201e-09
-3.28462e-08 2.65201e-09 0.0273192

0.0365666 0.00239142 -3.08417e-07
0.00239142 0.0295759 5.67673e-08
-3.08417e-07 5.67673e-08 0.0337842

0.0332737 0.00124751 -2.24057e-08
0.00124751 0.0265039 3.37612e-08
-2.24057e-08 3.37612e-08 0.0284316

0.0291521 -0.00349252 -4.78614e-08
-0.00349252 0.030471 -1.55085e-08
-4.78614e-08 -1.55085e-08 0.028173

0.0328107 -0.00264768 7.52137e-09
-0.00264768 0.0267278 1.63357e-08
7.52137e-09 1.63357e-08 0.0285865

0.0224599 0.00761276 -5.71916e-08
0.00761276 0.0185902 2.66995e-07
-5.71916e-08 2.66995e-07 0.0109039

0.0331445 0.00410263 -1.35087e-08
0.00410263 0.0326379 9.02205e-08
-1.35087e-08 9.02205e-08 0.0331814

0.0258899 -0.00257806 7.43242e-10
-0.00257806 0.0320236 -1.58315e-07
7.43242e-10 -1.58315e-07 0.0275071

0.0324819 0.00378575 -1.39329e-07
0.00378575 0.0292678 -1.71096e-07
-1.39329e-07 -1.71096e-07 0.0301466

0.0268157 -0.000543694 1.42994e-07
-0.000543694 0.0349517 1.80083e-09
1.42994e-07 1.80083e-09 0.0301375

0.0269896 0.00256334 7.07557e-08
0.00256334 0.032448 1.56219e-07
7.07557e-08 1.56219e-07 0.0282861

0.030526 0.00399107 2.14772e-07
0.00399107 0.0293229 -1.37954e-07
2.14772e-07 -1.37954e-07 0.0287748

0.0276084 -0.0029372 5.155e-08
-0.0029372 0.0318536 1.80331e-07
5.155e-08 1.80331e-07 0.0282487

0.0294558 -0.00357579 -4.98112e-09
-0.00357579 0.0303508 4.4531e-09
-4.98112e-09 4.4531e-09 0.0283047

0.0181375 0.00142552 -4.19641e-08
0.00142552 0.0280362 1.01686e-07
-4.19641e-08 1.01686e-07 0.0131274

0.0234736 -0.00429385 -4.49269e-08
-0.00429385 0.0275557 3.92156e-08
-4.49269e-08 3.92156e-08 0.0177232

0.0262051 -0.00152608 8.63101e-08
-0.00152608 0.0336231 -1.25413e-07
8.63101e-08 -1.25413e-07 0.0287514

0.0330233 0.00347476 -1.46803e-07
0.00347476 0.0288774 -5.49256e-08
-1.46803e-07 -5.49256e-08 0.0300685

0.0303214 0.00385747 -1.0734e-08
0.00385747 0.0298862 1.16927e-07
-1.0734e-08 1.16927e-07 0.0289899

0.0274141 -0.00280055 7.25685e-08
-0.00280055 0.0319833 -1.53194e-07
7.25685e-08 -1.53194e-07 0.0281387

0.0265541 -0.00154059 4.9227e-08
-0.00154059 0.033582 -6.79691e-08
4.9227e-08 -6.79691e-08 0.0287459

0.0309562 0.00371838 9.74673e-09
0.00371838 0.029563 -1.29604e-07
9.74673e-09 -1.29604e-07 0.0289408

0.026759 -0.00181607 1.9558e-08
-0.00181607 0.0334735 -1.3973e-07
1.9558e-08 -1.3973e-07 0.0289538

0.0191659 0.00355438 -9.56977e-08
0.00355438 0.0276073 -8.6488e-08
-9.56977e-08 -8.6488e-08 0.016292

0.0308731 -0.000535008 1.18554e-07
-0.000535008 0.0388186 -2.03378e-07
1.18554e-07 -2.03378e-07 0.034294

0.0286559 0.00404775 1.28648e-07
0.00404775 0.0295181 -1.42745e-07
1.28648e-07 -1.42745e-07 0.0277141

0.0355799 0.001975 -7.93593e-08
0.001975 0.0295025 -1.14371e-07
-7.93593e-08 -1.14371e-07 0.0328422

0.0362588 -0.00211477 -9.62782e-08
-0.00211477 0.0297547 -5.7647e-08
-9.62782e-08 -5.7647e-08 0.0332174

0.0285101 -0.00309559 -8.37964e-08
-0.00309559 0.0185687 -1.7038e-07
-8.37964e-08 -1.7038e-07 0.0157297

0.028353 -0.00278991 2.33662e-07
-0.00278991 0.0327752 1.94406e-07
2.33662e-07 1.94406e-07 0.0305711

0.0291905 0.00350089 1.54267e-07
0.00350089 0.0315994 -4.09376e-08
1.54267e-07 -4.09376e-08 0.030487

0.0349591 -0.00290724 1.96817e-07
-0.00290724 0.0376754 2.32353e-07
1.96817e-07 2.32353e-07 0.0352356

0.0394599 0.00188539 1.45291e-07
0.00188539 0.0446087 1.42479e-07
1.45291e-07 1.42479e-07 0.0364325

0.0449431 0.00129034 3.35304e-07
0.00129034 0.039116 2.66908e-08
3.35304e-07 2.66908e-08 0.0364145

0.0355597 0.00434527 1.2348e-08
0.00434527 0.0351344 4.65501e-08
1.2348e-08 4.65501e-08 0.035003

0.0265713 0.00338788 9.0384e-08
0.00338788 0.031006 1.04196e-07
9.0384e-08 1.04196e-07 0.0272554

0.0330389 0.00349699 -1.98415e-07
0.00349699 0.0286666 7.48439e-08
-1.98415e-07 7.48439e-08 0.0300496

0.0220594 0.00576413 -4.42284e-08
0.00576413 0.0242372 1.37159e-07
-4.42284e-08 1.37159e-07 0.0160721

0.0386179 -0.00151209 -5.84472e-08
-0.00151209 0.0444319 8.59947e-09
-5.84472e-08 8.59947e-09 0.0363616

0.046048 -0.000463894 3.32254e-08
-0.000463894 0.0454387 1.8634e-07
3.32254e-08 1.8634e-07 0.0366906

0.0451791 -3.20329e-05 3.03368e-07
-3.20329e-05 0.0463021 2.37227e-07
3.03368e-07 2.37227e-07 0.0366726

0.0176407 -0.00679485 3.73573e-07
-0.00679485 0.023108 -2.76147e-08
3.73573e-07 -2.76147e-08 0.0107384

0.0392916 -0.00155581 -2.91666e-07
-0.00155581 0.038714 2.97529e-07
-2.91666e-07 2.97529e-07 0.0358531

0.0383964 0.00117664 1.88318e-07
0.00117664 0.0415173 -1.65096e-08
1.88318e-07 -1.65096e-08 0.0361245

0.0331745 -0.00343548 1.54442e-07
-0.00343548 0.028219 -1.8895e-07
1.54442e-07 -1.8895e-07 0.029903

0.0318442 0.000140295 -1.21989e-07
0.000140295 0.0386713 -1.7896e-07
-1.21989e-07 -1.7896e-07 0.03445

0.0285763 -0.00266023 2.75705e-08
-0.00266023 0.0333799 -3.16965e-09
2.75705e-08 -3.16965e-09 0.0315888

0.0356614 0.000831831 -1.92382e-07
0.000831831 0.0273772 1.97728e-08
-1.92382e-07 1.97728e-08 0.0329996

0.0288755 0.00204416 -2.38487e-08
0.00204416 0.0368157 1.58551e-07
-2.38487e-08 1.58551e-07 0.0336692

0.029869 0.00094629 -2.89798e-08
0.00094629 0.0373873 1.42057e-07
-2.89798e-08 1.42057e-07 0.0333631

0.0344006 0.00268499 4.83401e-08
0.00268499 0.0288512 4.35015e-08
4.83401e-08 4.35015e-08 0.0312258

0.013279 -0.000409399 -5.37957e-08
-0.000409399 0.0281225 -1.38467e-07
-5.37957e-08 -1.38467e-07 0.0112012

0.030964 -0.00362615 1.20047e-07
-0.00362615 0.0309151 -2.7128e-08
1.20047e-07 -2.7128e-08 0.0306091

0.0329279 -0.00344317 2.41806e-07
-0.00344317 0.03202 -1.19718e-07
2.41806e-07 -1.19718e-07 0.0325789

0.033571 -0.00415943 -2.59692e-07
-0.00415943 0.0325341 2.02005e-07
-2.59692e-07 2.02005e-07 0.0337353

0.0265617 0.00414859 3.09806e-07
0.00414859 0.0176913 6.50583e-08
3.09806e-07 6.50583e-08 0.012605

0.0388275 -0.00269678 -2.4543e-07
-0.00269678 0.0395756 -1.39389e-07
-2.4543e-07 -1.39389e-07 0.0359579

0.0230825 0.00692069 -1.54963e-07
0.00692069 0.0255018 -1.13391e-08
-1.54963e-07 -1.13391e-08 0.0126094

0.0308744 -0.00281764 -2.06373e-07
-0.00281764 0.0348072 1.43783e-08
-2.06373e-07 1.43783e-08 0.0339558

0.0354115 0.0019363 1.16738e-07
0.0019363 0.0284654 1.02565e-07
1.16738e-07 1.02565e-07 0.0323442

0.0318208 -0.00189353 -5.90451e-08
-0.00189353 0.0249505 9.19969e-08
-5.90451e-08 9.19969e-08 0.0253952

0.0292919 0.0031592 4.09203e-08
0.0031592 0.032731 2.91059e-07
4.09203e-08 2.91059e-07 0.0312792

0.034436 0.00268866 9.16587e-08
0.00268866 0.0286341 -5.93175e-08
9.16587e-08 -5.93175e-08 0.0312204

0.0325184 0.00149913 -2.28774e-08
0.00149913 0.0403736 -1.46417e-07
-2.28774e-08 -1.46417e-07 0.0353362

0.0319399 -0.00415454 -5.18931e-08
-0.00415454 0.031201 6.36108e-08
-5.18931e-08 6.36108e-08 0.0318102

0.0396763 0.00265535 -4.4159e-08
0.00265535 0.033198 -3.2264e-07
-4.4159e-08 -3.2264e-07 0.0353156

0.0279712 -0.0024187 3.23289e-08
-0.0024187 0.0335506 -8.2585e-09
3.23289e-08 -8.2585e-09 0.0304702

0.0293506 0.000558743 -7.25408e-08
0.000558743 0.0373111 1.37431e-07
-7.25408e-08 1.37431e-07 0.0332523

0.041943 0.00133779 1.80936e-07
0.00133779 0.0371 2.6204e-07
1.80936e-07 2.6204e-07 0.0361159

0.0420973 -0.00114789 3.5421e-08
-0.00114789 0.0373261 -5.44439e-08
3.5421e-08 -5.44439e-08 0.0360977

0.0283828 0.00236898 -2.94626e-08
0.00236898 0.0181814 1.15999e-07
-2.94626e-08 1.15999e-07 0.0159496

0.0350256 0.00106118 -2.50812e-07
0.00106118 0.0285658 1.23459e-07
-2.50812e-07 1.23459e-07 0.0330586

0.0128669 0.000923325 -9.56716e-08
0.000923325 0.0316262 1.82003e-07
-9.56716e-08 1.82003e-07 0.0061217

0.0131624 -0.00138813 -2.65639e-07
-0.00138813 0.032132 1.12923e-07
-2.65639e-07 1.12923e-07 0.00611198

0.0152687 0.00715421 3.58413e-08
0.00715421 0.0284528 1.49991e-07
3.58413e-08 1.49991e-07 0.00598414

0.0347643 -0.00382122 -1.42905e-07
-0.00382122 0.0312676 1.72409e-07
-1.42905e-07 1.72409e-07 0.0329388

0.0155807 -0.00619425 4.11076e-07
-0.00619425 0.0261527 -1.32473e-08
4.11076e-07 -1.32473e-08 0.0104719

0.0155128 -0.00708679 1.42472e-07
-0.00708679 0.0274234 2.69148e-07
1.42472e-07 2.69148e-07 0.00591391

0.0284257 0.0034257 1.84833e-09
0.0034257 0.0310062 1.03947e-07
1.84833e-09 1.03947e-07 0.0281525

0.0251932 0.00932585 -1.88714e-07
0.00932585 0.0190207 1.1915e-07
-1.88714e-07 1.1915e-07 0.00593381

0.0365377 0.00173173 1.43761e-07
0.00173173 0.0385514 -2.41744e-08
1.43761e-07 -2.41744e-08 0.0354748

0.0395347 2.53408e-05 -8.23341e-08
2.53408e-05 0.0355394 -3.05891e-07
-8.23341e-08 -3.05891e-07 0.0354555

0.0261071 -0.00924439 -9.71279e-08
-0.00924439 0.0188125 -9.31383e-08
-9.71279e-08 -9.31383e-08 0.00588798

0.0276898 -0.00306521 1.11212e-08
-0.00306521 0.0320948 -5.00657e-08
1.11212e-08 -5.00657e-08 0.0296226

0.026255 0.00441807 3.50368e-07
0.00441807 0.0201579 -9.04665e-08
3.50368e-07 -9.04665e-08 0.0130446

0.0172793 0.00797305 5.50159e-08
0.00797305 0.0271488 -7.9337e-08
5.50159e-08 -7.9337e-08 0.00598782

0.0181962 0.00275513 1.36661e-08
0.00275513 0.0275897 9.2356e-08
1.36661e-08 9.2356e-08 0.01285

0.0173041 -0.00827628 3.57697e-07
-0.00827628 0.0271523 9.7321e-08
3.57697e-07 9.7321e-08 0.00581374

0.0179328 -0.00157104 1.97103e-07
-0.00157104 0.0280054 -2.75545e-07
1.97103e-07 -2.75545e-07 0.0126905

0.03705 0.000923223 -6.66439e-08
0.000923223 0.0413003 2.66741e-08
-6.66439e-08 2.66741e-08 0.0358096

0.022131 -0.00585515 -3.79749e-07
-0.00585515 0.0236644 -2.06226e-07
-3.79749e-07 -2.06226e-07 0.0151588

0.0157001 0.00598616 7.24589e-08
0.00598616 0.0259023 -4.27788e-08
7.24589e-08 -4.27788e-08 0.0107501

0.0302084 0.00473007 -3.76747e-08
0.00473007 0.0143492 -2.20325e-07
-3.76747e-08 -2.20325e-07 0.0061158

0.0329379 -0.00384924 9.84311e-08
-0.00384924 0.0301239 -3.09936e-08
9.84311e-08 -3.09936e-08 0.0310509

0.0308884 0.00169405 -5.89829e-08
0.00169405 0.0368422 1.60108e-07
-5.89829e-08 1.60108e-07 0.0339499

0.0260899 -0.0048438 1.64093e-07
-0.0048438 0.0191972 2.11202e-07
1.64093e-07 2.11202e-07 0.012695

0.0330001 -0.00378582 1.0612e-07
-0.00378582 0.030075 -1.27808e-08
1.0612e-07 -1.27808e-08 0.0311273

0.0300187 -0.00451987 -7.61661e-09
-0.00451987 0.0130535 1.6825e-07
-7.61661e-09 1.6825e-07 0.00603725

0.032473 -0.00372742 4.27455e-09
-0.00372742 0.031307 1.46026e-07
4.27455e-09 1.46026e-07 0.0319791

0.0280907 -0.00331103 1.74745e-07
-0.00331103 0.0320032 1.8758e-08
1.74745e-07 1.8758e-08 0.0296251

0.0234435 0.00874357 -1.72529e-07
0.00874357 0.0204828 1.30548e-07
-1.72529e-07 1.30548e-07 0.00602615

0.0181996 -0.00292067 3.23401e-07
-0.00292067 0.0268665 -2.24164e-07
3.23401e-07 -2.24164e-07 0.0122699

0.0233145 -0.00901925 1.23128e-08
-0.00901925 0.020152 -2.35182e-07
1.23128e-08 -2.35182e-07 0.00588393

0.0170823 0.00640818 -7.24731e-08
0.00640818 0.0235658 1.17449e-08
-7.24731e-08 1.17449e-08 0.010831

0.0308258 -0.00396012 1.18136e-07
-0.00396012 0.0301601 -3.27191e-08
1.18136e-07 -3.27191e-08 0.0300852

0.0389176 -0.00195843 4.7441e-08
-0.00195843 0.0369404 2.70749e-07
4.7441e-08 2.70749e-07 0.0354991

0.045541 0.00150598 2.35217e-07
0.00150598 0.0449514 1.9118e-07
2.35217e-07 1.9118e-07 0.0366188

0.0435642 -0.000711784 -2.06264e-07
-0.000711784 0.0462317 -4.43397e-08
-2.06264e-07 -4.43397e-08 0.0365845

0.0286153 0.00171583 -4.90651e-08
0.00171583 0.0355659 9.29554e-08
-4.90651e-08 9.29554e-08 0.0323893

0.0453362 -0.00144712 -2.59937e-08
-0.00144712 0.0449791 -2.66729e-07
-2.59937e-08 -2.66729e-07 0.0366365

0.0438073 0.000568377 7.28709e-08
0.000568377 0.0465063 1.99525e-07
7.28709e-08 1.99525e-07 0.0366176

0.04668 0.00099142 7.03809e-07
0.00099142 0.0433769 6.67708e-08
7.03809e-07 6.67708e-08 0.0365927

0.0397503 -0.00163931 1.53627e-07
-0.00163931 0.0460747 8.98219e-08
1.53627e-07 8.98219e-08 0.0364824

0.0190537 -0.00388717 9.69656e-08
-0.00388717 0.0272306 2.42672e-07
9.69656e-08 2.42672e-07 0.015471

0.0421412 -0.00174979 -2.4877e-07
-0.00174979 0.036725 3.30638e-07
-2.4877e-07 3.30638e-07 0.0360044

0.035964 -0.0045736 2.16933e-07
-0.0045736 0.0351499 1.52598e-07
2.16933e-07 1.52598e-07 0.0349678

0.0397529 -0.00242202 -1.26071e-07
-0.00242202 0.0360632 5.57384e-08
-1.26071e-07 5.57384e-08 0.0355669

0.0351844 0.00204324 2.39898e-07
0.00204324 0.0285487 -4.99233e-08
2.39898e-07 -4.99233e-08 0.0322316

0.0396922 0.00133789 -2.95285e-07
0.00133789 0.0472264 8.18897e-08
-2.95285e-07 8.18897e-08 0.0365483

0.0464955 0.00259367 1.4689e-07
0.00259367 0.0404181 3.79863e-07
1.4689e-07 3.79863e-07 0.0365295

0.0400867 0.00150538 1.79253e-08
0.00150538 0.0366733 4.4372e-08
1.79253e-08 4.4372e-08 0.035615

0.0279145 -0.0019199 -3.8878e-08
-0.0019199 0.0125246 1.7233e-07
-3.8878e-08 1.7233e-07 0.0106244

0.0283186 0.00326767 -5.21047e-08
0.00326767 0.0315495 -1.20793e-07
-5.21047e-08 -1.20793e-07 0.0294104

0.0231878 -0.00773594 -4.07157e-07
-0.00773594 0.0181798 9.94049e-08
-4.07157e-07 9.94049e-08 0.0102893

0.0228305 -0.0073157 -4.69547e-07
-0.0073157 0.0257683 -1.21402e-07
-4.69547e-07 -1.21402e-07 0.0119544

0.0290224 -0.00464686 9.65812e-08
-0.00464686 0.0191282 -2.03372e-07
9.65812e-08 -2.03372e-07 0.012615

0.037574 -0.000660596 1.92541e-07
-0.000660596 0.0449116 -2.97452e-07
1.92541e-07 -2.97452e-07 0.0362935

0.0375718 0.00035834 1.06588e-07
0.00035834 0.0447889 1.70198e-07
1.06588e-07 1.70198e-07 0.0362737

0.0426052 -0.00327466 -1.80414e-07
-0.00327466 0.0394506 3.14595e-08
-1.80414e-07 3.14595e-08 0.0362275

0.0429987 -0.00294491 5.2794e-07
-0.00294491 0.0391685 -1.18892e-07
5.2794e-07 -1.18892e-07 0.0362345

0.0425017 0.00350435 1.46734e-07
0.00350435 0.0399729 1.63507e-08
1.46734e-07 1.63507e-08 0.0362723

0.0443965 0.000416939 3.39137e-07
0.000416939 0.0450837 4.67757e-07
3.39137e-07 4.67757e-07 0.0366357

0.0426089 -0.00274464 7.18707e-08
-0.00274464 0.0395071 1.96394e-08
7.18707e-08 1.96394e-08 0.0362891

0.0426027 -0.00251089 1.08771e-07
-0.00251089 0.0442661 -2.50546e-07
1.08771e-07 -2.50546e-07 0.0365633

0.0451167 0.000331017 7.33019e-08
0.000331017 0.0454679 3.90742e-07
7.33019e-08 3.90742e-07 0.0366539

0.0436365 -0.00278315 -7.77383e-08
-0.00278315 0.0389165 7.56654e-08
-7.77383e-08 7.56654e-08 0.0363297

0.0435121 0.00283873 -1.23029e-07
0.00283873 0.0390693 0
-1.23029e-07 0 0.0363678

0.0451927 -0.000470172 -1.76655e-07
-0.000470172 0.0455815 1.03403e-07
-1.76655e-07 1.03403e-07 0.0367027

0.045227 -0.000426384 -7.7884e-07
-0.000426384 0.0443626 6.74294e-07
-7.7884e-07 6.74294e-07 0.036721

0.042798 0.00163935 -4.65017e-07
0.00163935 0.0442484 1.49394e-07
-4.65017e-07 1.49394e-07 0.036607

0.0411164 0.00361853 -1.00057e-07
0.00361853 0.0405161 -1.1605e-07
-1.00057e-07 -1.1605e-07 0.0363217

SCALARS pressure float
LOOKUP_TABLE default
-60.0518
19.3084
5.80363
21.2903
15.8789
5.88759
-58.675
7.78332
-3.80469
15.1247
-24.4322
7.61747
5.59227
12.2794
23.3376
5.53916
18.5209
13.2075
-0.692629
6.75683
-0.904644
33.1339
5.80104
5.79709
6.60211
14.903
-38.3855
6.67194
-15.2423
30.6257
5.17651
-15.6571
-42.0566
27.3258
20.7788
27.3587
31.8839
19.8088
4.8598
-42.5999
-17.4073
31.9047
31.9928
5.99374
-21.8051
-15.9757
-1.05223
-3.40531
6.54505
-16.2177
-18.9187
-15.3457
20.7555
-15.373
20.3087
-33.1488
21.1293
-15.4601
21.1391
7.04516
21.7648
16.1188
-45.5623
12.7898
16.3621
10.9052
21.5741
13.8283
5.77373
21.8172
20.8116
20.7822
-17.6909
11.6007
3.97414
-31.6099
14.3567
10.9964
14.1463
-8.71986
-28.9448
14.9776
20.1632
-22.0379
-23.4294
-28.0921
7.09802
9.63253
-22.2158
37.7406
-15.5089
38.4432
18.3044
10.7617
-15.1664
-15.8727
-30.2214
14.7535
14.3657
4.59889
-10.7661
-21.9395
-25.1016
16.2131
14.1004
14.9617
18.6976
3.77493
-24.5584
26.5131
7.2178
-21.409
-24.6121
14.8381
15.0781
-16.1455
20.1646
-29.1133
20.6282
-16.7292
-2.90453
23.8338
21.7272
16.033
26.6797
22.6316
21.7853
15.7086
-29.781
-16.0989
24.0916
21.6175
20.9894
22.0658
-22.0138
23.5868
-33.8375
5.46356
21.7544
23.6302
-21.9368
6.67658
-5.96657
15.0837
-30.4076
15.6241
7.8334
2.40776
5.17794
-9.39436
-0.457824
22.6417
-15.4545
5.29117
15.2043
21.5607
11.5083
-21.1132
-21.2638
10.7906
-2.84262
-15.1975
-21.2205
-15.1652
-20.9864
15.2798
-20.6358
-21.2015
-15.2078
-21.0637
19.0043
-15.9409
-14.8244
12.0645
-14.4846
18.8029
19.0534
7.47292
18.0479
11.7732
-16.249
15.2883
14.961
-21.5284
10.4266
-14.2212
16.0487
14.5956
17.0818
14.8352
10.344
-26.9763
-16.0821
-15.9581
21.9071
14.526
14.6248
20.9227
22.4871
9.5028
21.7339
-0.384542
-8.17074
20.7788
-17.8387
19.9457
10.3643
-21.5175
15.7212
22.5263
14.7312
9.39362
14.1901
21.0557
-7.83278
8.82769
-7.90859
14.6484
26.9277
26.5813
27.9605
26.3885
26.7243
26.2909
13.826
23.4302
24.0294
23.9736
23.3999
21.1927
21.8572
-8.26284
15.9337
28.1911
-3.18868
23.576
23.2052
27.8344
-8.49355
28.0964
15.3447
-7.5816
17.4922
-8.25781
20.2273
29.6128
-7.48599
-8.10077
-29.592
-18.1891
19.5273
-31.9855
5.73436
-7.79396
-1.18947
28.2492
26.6403
30.4261
26.761
-34.8011
-8.17966
28.3374
8.07293
-8.29518
26.4459
-6.29531
30.471
-7.95409
27.0471
14.5661
14.7873
23.845
10.0476
18.021
8.1171
-29.86
-24.5532
16.8068
1.75965
8.17957
-13.6088
17.4358
11.6999
-8.10152
9.4522
-10.8234
7.51695
-10.7546
-8.48475
33.2639
19.1516
25.0882
25.3125
13.8292
-10.4045
26.4296
14.685
-1.65907
-10.2738
-12.5642
17.5066
-7.48524
17.5745
-12.0412
-21.3505
-10.6082
-34.6813
15.5625
-7.76299
34.4419
-11.5779
16.8715
-8.40878
15.9728
-12.7583
4.28905
-51.1186
8.52169
-7.74665
21.3338
-8.15217
-0.122953
10.7154
21.1243
-12.0607
-10.2007
-6.06836
14.318
-10.18
6.88788
6.38565
16.3054
-10.4195
-6.33048
-1.70245
-5.66057
-11.0785
-5.84479
15.3056
7.8079
-5.55616
-8.96049
7.80531
7.69416
-10.6746
16.3093
-27.2139
2.2929
-28.4813
-0.95771
-8.8792
-8.09748
-11.7801
-10.9438
-9.88209
-7.77709
-7.90046
16.6379
24.7777
12.116
-0.291798
-0.825334
-5.67473
7.30505
-6.32083
-6.31812
24.9235
-5.73015
14.118
-15.9083
24.3251
5.96801
-0.391356
-5.64402
16.275
2.4769
0.198864
2.44788
0.455737
-0.741028
-9.93033
-0.095788
2.11306
15.0689
-1.28847
-1.40735
-0.999012
-0.38878
1.96509
8.05055
-1.19375
8.078
5.58307
-0.435837
7.03511
5.4901
-3.87667
16.4766
-1.90361
23.0619
-21.9735
15.0442
15.6824
2.03945
-1.99771
12.5429
-26.5064
5.7921
-1.65814
-50.483
30.498
30.6347
5.82474
-1.14455
-1.04703
-0.849877
33.4184
33.2931
13.0948
6.08172
6.66223
-28.9626
-1.27961
16.5335
-3.18292
-4.34834
-0.0171415
-25.2711
14.3033
-1.28039
2.86159
2.69298
-2.72347
-0.049528
-3.20971
-4.03378
-37.9824
-33.6833
-0.128235
1.87426
-0.53431
-3.74441
-1.93681
-1.87794
-0.924533
-21.9074
17.2495
-0.769511
12.5651
14.1836
-26.764
6.28609
7.13667
18.4778
36.4277
36.4602
22.6387
-1.756
2.59944
-20.9296
36.1263
32.7598
32.8267
-24.8085
21.7754
30.5233
2.59893
15.7239
10.3712
17.1644
17.7262
12.5055
5.68121
-25.3979
4.25986
10.4092
16.244
-31.7098
28.3097
-52.71
18.685
10.2989
-10.6275
7.41717
5.45689
24.4744
9.41093
24.4075
4.10496
12.3997
30.6406
29.4663
-22.99
17.4355
-70.2295
-74.376
-67.1736
11.6482
-31.2597
-63.6069
-3.80371
-69.935
16.4631
16.4068
-73.7511
5.21198
-39.7295
-70.7355
-37.7554
-71.8719
-39.4509
21.1367
-23.9599
-29.0437
-70.6194
4.83121
15.7576
-36.1893
6.05332
-63.6146
9.8358
3.88149
-67.898
-37.623
-66.4076
-23.7552
5.02889
20.5261
35.3717
36.7274
11.8119
36.8513
36.9046
36.4929
36.4051
-24.4787
28.2484
20.6691
21.9807
11.5345
36.061
36.0924
18.1201
-23.94
3.24636
-30.526
-56.5961
-50.4732
36.1441
35.8249
35.3815
35.4517
36.1601
35.5996
33.1106
37.3717
35.401
36.0069
35.6392
34.1974
34.334
35.8572
35.3103
