# vtk DataFile Version 3.0
vtk output at time 230
ASCII
DATASET UNSTRUCTURED_GRID
POINTS 626 float
-3.68058e-05 0.000978749 0 3.68058e-05 0.000978749 0 -0.000829194 0.00052125 0 
-0.0008235 0.0005 0 -0.000866 0.0004575 0 -0.000866 -0.0004575 0 
-0.0008235 -0.0005 0 -0.000829194 -0.00052125 0 -3.68058e-05 -0.000978749 0 
3.68058e-05 -0.000978749 0 0.000829194 -0.00052125 0 0.000866 -0.0004575 0 
0.000866 0.0004575 0 0.000829194 0.00052125 0 8.5e-05 0 0 
-3.68058e-05 0.000978749 -0.001 3.68058e-05 0.000978749 -0.001 -0.000829194 0.00052125 -0.001 
-0.0008235 0.0005 -0.001 -0.000866 0.0004575 -0.001 -0.000866 -0.0004575 -0.001 
-0.0008235 -0.0005 -0.001 -0.000829194 -0.00052125 -0.001 -3.68058e-05 -0.000978749 -0.001 
3.68058e-05 -0.000978749 -0.001 0.000829194 -0.00052125 -0.001 0.000866 -0.0004575 -0.001 
0.000866 0.0004575 -0.001 0.000829194 0.00052125 -0.001 8.5e-05 0 -0.001 
8.46223e-17 0.0009575 0 -0.000715996 0.000586607 0 -0.000602797 0.000651965 0 
-0.000489599 0.000717321 0 -0.000376401 0.000782678 0 -0.000263202 0.000848036 0 
-0.000150004 0.000913393 0 -0.000835948 0.000469948 0 -0.000866 -0.000326786 0 
-0.000866 -0.000196071 0 -0.000866 -6.53571e-05 0 -0.000866 6.53571e-05 0 
-0.000866 0.000196071 0 -0.000866 0.000326786 0 -0.000835948 -0.000469948 0 
-0.000150004 -0.000913393 0 -0.000263202 -0.000848036 0 -0.000376401 -0.000782678 0 
-0.000489599 -0.000717321 0 -0.000602797 -0.000651965 0 -0.000715996 -0.000586607 0 
8.47648e-17 -0.0009575 0 0.000715996 -0.000586607 0 0.000602797 -0.000651965 0 
0.000489599 -0.000717321 0 0.000376401 -0.000782678 0 0.000263202 -0.000848036 0 
0.000150004 -0.000913393 0 0.000829194 -0.00047875 0 0.000866 0.000326786 0 
0.000866 0.000196071 0 0.000866 6.53571e-05 0 0.000866 -6.53571e-05 0 
0.000866 -0.000196071 0 0.000866 -0.000326786 0 0.000829194 0.00047875 0 
0.000150004 0.000913393 0 0.000263202 0.000848036 0 0.000376401 0.000782678 0 
0.000489599 0.000717321 0 0.000602797 0.000651965 0 0.000715996 0.000586607 0 
5.29966e-05 6.64557e-05 0 -1.89143e-05 8.28689e-05 0 -7.65824e-05 3.68801e-05 0 
-7.65824e-05 -3.68801e-05 0 -1.89143e-05 -8.28689e-05 0 5.29966e-05 -6.64557e-05 0 
8.46223e-17 0.0009575 -0.001 -0.000715996 0.000586607 -0.001 -0.000602797 0.000651965 -0.001 
-0.000489599 0.000717321 -0.001 -0.000376401 0.000782678 -0.001 -0.000263202 0.000848036 -0.001 
-0.000150004 0.000913393 -0.001 -0.000835948 0.000469948 -0.001 -0.000866 -0.000326786 -0.001 
-0.000866 -0.000196071 -0.001 -0.000866 -6.53571e-05 -0.001 -0.000866 6.53571e-05 -0.001 
-0.000866 0.000196071 -0.001 -0.000866 0.000326786 -0.001 -0.000835948 -0.000469948 -0.001 
-0.000150004 -0.000913393 -0.001 -0.000263202 -0.000848036 -0.001 -0.000376401 -0.000782678 -0.001 
-0.000489599 -0.000717321 -0.001 -0.000602797 -0.000651965 -0.001 -0.000715996 -0.000586607 -0.001 
8.47648e-17 -0.0009575 -0.001 0.000715996 -0.000586607 -0.001 0.000602797 -0.000651965 -0.001 
0.000489599 -0.000717321 -0.001 0.000376401 -0.000782678 -0.001 0.000263202 -0.000848036 -0.001 
0.000150004 -0.000913393 -0.001 0.000829194 -0.00047875 -0.001 0.000866 0.000326786 -0.001 
0.000866 0.000196071 -0.001 0.000866 6.53571e-05 -0.001 0.000866 -6.53571e-05 -0.001 
0.000866 -0.000196071 -0.001 0.000866 -0.000326786 -0.001 0.000829194 0.00047875 -0.001 
0.000150004 0.000913393 -0.001 0.000263202 0.000848036 -0.001 0.000376401 0.000782678 -0.001 
0.000489599 0.000717321 -0.001 0.000602797 0.000651965 -0.001 0.000715996 0.000586607 -0.001 
5.29966e-05 6.64557e-05 -0.001 -1.89143e-05 8.28689e-05 -0.001 -7.65824e-05 3.68801e-05 -0.001 
-7.65824e-05 -3.68801e-05 -0.001 -1.89143e-05 -8.28689e-05 -0.001 5.29966e-05 -6.64557e-05 -0.001 
0.000131234 6.38474e-05 0 0.00012964 -6.2443e-05 0 3.13827e-05 0.0001394 0 
3.12554e-05 -0.000136939 0 -0.000140461 8.25467e-19 0 -8.90565e-05 -0.000102707 0 
-9.04142e-05 0.000102872 0 -0.000765769 -0.00025965 0 -0.000756873 0.000262774 0 
-0.00015609 0.000787505 0 -0.000155807 -0.00079355 0 0.000605069 0.000528035 0 
0.000608694 -0.00052497 0 0.000744069 0.000116929 0 -0.000494418 0.000596218 0 
-0.000483866 -0.000584648 0 0.000269496 0.000702219 0 0.000263201 -0.000717324 0 
0.000754429 -0.000127825 0 -0.000748858 5.84659e-07 0 -0.000747838 0.000373886 0 
-0.0006542 0.000324842 0 -0.000645137 0.000210123 0 -0.000550884 0.000274171 0 
-0.000538857 0.000163195 0 -0.00045062 0.000224461 0 -0.000438393 0.000123907 0 
-0.000354088 0.000181668 0 -0.000363908 0.000282171 0 -0.000270361 0.000239477 0 
-0.000279138 0.000337653 0 -0.000188888 0.000294791 0 -0.000196448 0.000393271 0 
-0.000104767 0.000348259 0 -0.000113332 0.000449012 0 -2.01066e-05 0.000403223 0 
-2.89189e-05 0.000507105 0 6.9524e-05 0.000461596 0 -0.000213644 0.000490203 0 
7.33757e-05 0.000357726 0 0.000163331 0.00041299 0 0.000163359 0.000313022 0 
0.000248077 0.000366368 0 0.000250914 0.000265758 0 0.000335709 0.000322266 0 
0.000340555 0.000218148 0 0.000427299 0.000276717 0 0.000431508 0.000173093 0 
0.000328731 0.000425633 0 0.00034586 0.000114823 0 0.000435362 7.05241e-05 0 
0.000350892 1.5455e-05 0 0.000441547 -3.11896e-05 0 0.000353547 -8.47783e-05 0 
0.000445767 -0.000132964 0 0.000356135 -0.000186358 0 0.000449094 -0.000234674 0 
0.000359978 -0.000287876 0 0.00026856 -0.000240545 0 0.000271895 -0.000341045 0 
0.000181792 -0.00029305 0 0.00018533 -0.000392851 0 9.75701e-05 -0.00034483 0 
9.98764e-05 -0.000444884 0 8.75116e-06 -0.000396343 0 1.20916e-05 -0.000500496 0 
-7.83929e-05 -0.000449843 0 -8.1471e-05 -0.000347249 0 -0.000171566 -0.000403733 0 
-0.000169889 -0.000298891 0 -0.000259867 -0.000354132 0 -0.000257696 -0.000249137 0 
-0.00034313 -0.000299896 0 -0.000344514 -0.000199127 0 -0.000434309 -0.000250039 0 
-0.000169832 -0.000505815 0 -0.000435227 -0.000146227 0 0.000280331 -0.000442424 0 
-0.000340889 8.76793e-05 0 -0.000515252 4.06198e-05 0 6.50491e-05 0.000568253 0 
0.00053278 1.74743e-05 0 0.000522071 0.000229831 0 -0.00037162 0.000391659 0 
-0.000255272 -0.000150439 0 -0.000442893 -0.000350705 0 0.000450067 -0.000332559 0 
0.000545175 -0.000276306 0 -0.000527797 -0.000197598 0 0.000105306 -0.000551033 0 
1.45836e-05 -0.000609147 0 0.00017145 0.000214453 0 0.000515525 0.000341711 0 
0.000636086 0.000290368 0 -0.000558657 0.000404468 0 -4.01232e-05 0.000616718 0 
6.60192e-05 0.000696422 0 -0.000101806 0.0002546 0 0.000271142 -3.88908e-05 0 
0.000179455 -0.00018534 0 -8.79553e-05 -0.000254307 0 -0.000749267 -0.000373451 0 
-0.000655941 -0.000323397 0 0.000709746 0.000466718 0 0.000698426 -0.000473086 0 
-5.25801e-05 -0.00084886 0 -4.93005e-05 0.000848038 0 0.000617396 -0.000413362 0 
0.000702056 -0.000369817 0 0.000131459 -0.000679171 0 2.48171e-05 -0.000715924 0 
-0.000664217 -0.00042729 0 -0.000528828 -8.80444e-05 0 -0.000611101 -0.000136672 0 
-0.000426972 -4.45841e-05 0 0.000800669 0.000378216 0 0.000821144 -0.000415062 0 
7.2799e-05 0.00088254 0 6.81831e-05 -0.00087503 0 0.000104963 -0.000788946 0 
-7.40696e-05 -0.000660054 0 0.000126061 0.000809943 0 0.000764361 0.000295682 0 
0.000166862 0.000630623 0 0.000516462 -0.00046707 0 -0.000563585 -0.000389606 0 
-0.000622598 -1.40238e-05 0 0.000629891 0.000171529 0 2.5614e-06 -0.000299794 0 
8.6901e-05 -0.00024329 0 0.000272045 -0.000136982 0 -0.00075148 0.000138321 0 
0.000209366 -0.000599589 0 0.000324913 -0.000630055 0 0.000614044 0.00041245 0 
0.00049651 -0.000573327 0 0.000394822 -0.000507321 0 -0.000173714 -0.000206698 0 
0.000264897 5.63722e-05 0 0.000247997 0.000152811 0 -4.63327e-05 -0.000920208 0 
9.18688e-05 0.000258626 0 -5.54111e-06 0.000290558 0 -0.000184219 0.000201484 0 
-0.000263559 0.000142267 0 -0.000256427 5.13624e-05 0 -0.000336894 -2.06179e-06 0 
-0.000228499 -4.2388e-05 0 -0.00017589 0.000106626 0 -0.000769947 -0.000133367 0 
0.000767591 -0.000500293 0 -5.05874e-05 0.000737978 0 0.000754456 -3.51771e-06 0 
0.00064691 -6.15298e-05 0 0.000630483 -0.00018134 0 0.000749187 -0.000265543 0 
-0.000760805 -0.000462521 0 0.000638155 6.09315e-05 0 -4.46661e-05 0.000922995 0 
-2.37945e-05 0.000207237 0 0.000776979 0.000500181 0 -0.000605691 0.000527596 0 
-0.000377914 -0.000653727 0 -0.000372325 -0.000526022 0 -0.000275829 -0.000589621 0 
-0.000254285 -0.000710579 0 -0.000379307 0.000656222 0 -0.000379818 0.00052718 0 
-0.000266817 0.000721555 0 -0.000150544 0.000668174 0 0.000381963 0.00065079 0 
0.000493113 0.000590432 0 0.000505439 0.000463708 0 -0.000269094 0.000596608 0 
0.000385815 0.000532045 0 0.000283599 0.0005899 0 -0.000176405 -0.000108505 0 
-0.000278769 -0.000475415 0 0.000185395 2.33014e-06 0 0.000186773 0.000517571 0 
0.000540032 -8.68444e-05 0 -0.000600694 -0.000514877 0 -0.00063703 8.98033e-05 0 
-0.000459677 0.000335729 0 -0.000338836 -0.000100751 0 -0.000457327 0.000432721 0 
-8.72007e-06 -0.000210238 0 0.000156073 0.000129496 0 -7.70692e-05 -0.000555049 0 
0.00036091 -0.000389728 0 0.000531628 0.000120564 0 -0.000285451 0.000435562 0 
0.000192719 -0.000494604 0 0.00041642 0.00039368 0 -0.000135943 0.000554637 0 
-0.000170665 -0.000610079 0 -0.000666304 0.000434981 0 -0.000758736 0.000479231 0 
-0.000470189 -0.000458901 0 0.000203433 -8.59809e-05 0 0.000101846 0.000170114 0 
-0.00035513 -0.00040726 0 0.000100184 -0.000165831 0 2.96286e-05 0.00081537 0 
0.000720946 0.000381836 0 -0.000539809 -0.000292001 0 0.00052211 -0.000182426 0 
-6.41339e-05 -0.000753908 0 0.000638039 -0.000299861 0 -0.000605136 -0.000230182 0 
-3.41638e-05 -0.000145561 0 -0.000104037 0.000172396 0 -0.000808575 -0.00042774 0 
-0.000807207 -0.000465052 0 -0.00080817 0.000429771 0 -0.000806589 0.000469738 0 
-9.50634e-05 -0.000178909 0 0.000247777 0.000445058 0 1.48293e-05 -0.000814201 0 
-4.11555e-05 0.000140955 0 0.000276104 -0.000536845 0 0.000765969 -0.000436638 0 
0.000780871 -0.000362769 0 0.000424176 -0.000642018 0 0.00053413 -0.000368009 0 
-0.000416333 4.17911e-05 0 -0.000133891 -6.23822e-05 0 4.2574e-05 0.000206312 0 
0.000141163 -0.000121542 0 0.000707423 0.000212137 0 0.000172327 0.000723882 0 
7.72652e-06 -0.00090254 0 -0.000134435 5.66935e-05 0 -0.000188826 3.70894e-05 0 
0.000197119 8.09714e-05 0 1.27801e-05 0.000917296 0 0.000800767 0.00044758 0 
-0.000686682 0.000507104 0 9.35831e-05 0.000110457 0 -0.000696793 -0.000509595 0 
-0.00068446 -8.52012e-05 0 -0.000691033 -0.000201242 0 5.24052e-05 -0.000189075 0 
-0.000151818 -0.000701092 0 -0.000296988 0.000518087 0 9.31023e-05 -0.000108117 0 
0.00044261 -0.000416726 0 0.000197044 -0.000784423 0 -0.000516861 0.000504567 0 
0.000298997 0.000502377 0 0.000131234 6.38474e-05 -0.001 0.00012964 -6.2443e-05 -0.001 
3.13827e-05 0.0001394 -0.001 3.12554e-05 -0.000136939 -0.001 -0.000140461 8.25467e-19 -0.001 
-8.90565e-05 -0.000102707 -0.001 -9.04142e-05 0.000102872 -0.001 -0.000765769 -0.00025965 -0.001 
-0.000756873 0.000262774 -0.001 -0.00015609 0.000787505 -0.001 -0.000155807 -0.00079355 -0.001 
0.000605069 0.000528035 -0.001 0.000608694 -0.00052497 -0.001 0.000744069 0.000116929 -0.001 
-0.000494418 0.000596218 -0.001 -0.000483866 -0.000584648 -0.001 0.000269496 0.000702219 -0.001 
0.000263201 -0.000717324 -0.001 0.000754429 -0.000127825 -0.001 -0.000748858 5.84659e-07 -0.001 
-0.000747838 0.000373886 -0.001 -0.0006542 0.000324842 -0.001 -0.000645137 0.000210123 -0.001 
-0.000550884 0.000274171 -0.001 -0.000538857 0.000163195 -0.001 -0.00045062 0.000224461 -0.001 
-0.000438393 0.000123907 -0.001 -0.000354088 0.000181668 -0.001 -0.000363908 0.000282171 -0.001 
-0.000270361 0.000239477 -0.001 -0.000279138 0.000337653 -0.001 -0.000188888 0.000294791 -0.001 
-0.000196448 0.000393271 -0.001 -0.000104767 0.000348259 -0.001 -0.000113332 0.000449012 -0.001 
-2.01066e-05 0.000403223 -0.001 -2.89189e-05 0.000507105 -0.001 6.9524e-05 0.000461596 -0.001 
-0.000213644 0.000490203 -0.001 7.33757e-05 0.000357726 -0.001 0.000163331 0.00041299 -0.001 
0.000163359 0.000313022 -0.001 0.000248077 0.000366368 -0.001 0.000250914 0.000265758 -0.001 
0.000335709 0.000322266 -0.001 0.000340555 0.000218148 -0.001 0.000427299 0.000276717 -0.001 
0.000431508 0.000173093 -0.001 0.000328731 0.000425633 -0.001 0.00034586 0.000114823 -0.001 
0.000435362 7.05241e-05 -0.001 0.000350892 1.5455e-05 -0.001 0.000441547 -3.11896e-05 -0.001 
0.000353547 -8.47783e-05 -0.001 0.000445767 -0.000132964 -0.001 0.000356135 -0.000186358 -0.001 
0.000449094 -0.000234674 -0.001 0.000359978 -0.000287876 -0.001 0.00026856 -0.000240545 -0.001 
0.000271895 -0.000341045 -0.001 0.000181792 -0.00029305 -0.001 0.00018533 -0.000392851 -0.001 
9.75701e-05 -0.00034483 -0.001 9.98764e-05 -0.000444884 -0.001 8.75116e-06 -0.000396343 -0.001 
1.20916e-05 -0.000500496 -0.001 -7.83929e-05 -0.000449843 -0.001 -8.1471e-05 -0.000347249 -0.001 
-0.000171566 -0.000403733 -0.001 -0.000169889 -0.000298891 -0.001 -0.000259867 -0.000354132 -0.001 
-0.000257696 -0.000249137 -0.001 -0.00034313 -0.000299896 -0.001 -0.000344514 -0.000199127 -0.001 
-0.000434309 -0.000250039 -0.001 -0.000169832 -0.000505815 -0.001 -0.000435227 -0.000146227 -0.001 
0.000280331 -0.000442424 -0.001 -0.000340889 8.76793e-05 -0.001 -0.000515252 4.06198e-05 -0.001 
6.50491e-05 0.000568253 -0.001 0.00053278 1.74743e-05 -0.001 0.000522071 0.000229831 -0.001 
-0.00037162 0.000391659 -0.001 -0.000255272 -0.000150439 -0.001 -0.000442893 -0.000350705 -0.001 
0.000450067 -0.000332559 -0.001 0.000545175 -0.000276306 -0.001 -0.000527797 -0.000197598 -0.001 
0.000105306 -0.000551033 -0.001 1.45836e-05 -0.000609147 -0.001 0.00017145 0.000214453 -0.001 
0.000515525 0.000341711 -0.001 0.000636086 0.000290368 -0.001 -0.000558657 0.000404468 -0.001 
-4.01232e-05 0.000616718 -0.001 6.60192e-05 0.000696422 -0.001 -0.000101806 0.0002546 -0.001 
0.000271142 -3.88908e-05 -0.001 0.000179455 -0.00018534 -0.001 -8.79553e-05 -0.000254307 -0.001 
-0.000749267 -0.000373451 -0.001 -0.000655941 -0.000323397 -0.001 0.000709746 0.000466718 -0.001 
0.000698426 -0.000473086 -0.001 -5.25801e-05 -0.00084886 -0.001 -4.93005e-05 0.000848038 -0.001 
0.000617396 -0.000413362 -0.001 0.000702056 -0.000369817 -0.001 0.000131459 -0.000679171 -0.001 
2.48171e-05 -0.000715924 -0.001 -0.000664217 -0.00042729 -0.001 -0.000528828 -8.80444e-05 -0.001 
-0.000611101 -0.000136672 -0.001 -0.000426972 -4.45841e-05 -0.001 0.000800669 0.000378216 -0.001 
0.000821144 -0.000415062 -0.001 7.2799e-05 0.00088254 -0.001 6.81831e-05 -0.00087503 -0.001 
0.000104963 -0.000788946 -0.001 -7.40696e-05 -0.000660054 -0.001 0.000126061 0.000809943 -0.001 
0.000764361 0.000295682 -0.001 0.000166862 0.000630623 -0.001 0.000516462 -0.00046707 -0.001 
-0.000563585 -0.000389606 -0.001 -0.000622598 -1.40238e-05 -0.001 0.000629891 0.000171529 -0.001 
2.5614e-06 -0.000299794 -0.001 8.6901e-05 -0.00024329 -0.001 0.000272045 -0.000136982 -0.001 
-0.00075148 0.000138321 -0.001 0.000209366 -0.000599589 -0.001 0.000324913 -0.000630055 -0.001 
0.000614044 0.00041245 -0.001 0.00049651 -0.000573327 -0.001 0.000394822 -0.000507321 -0.001 
-0.000173714 -0.000206698 -0.001 0.000264897 5.63722e-05 -0.001 0.000247997 0.000152811 -0.001 
-4.63327e-05 -0.000920208 -0.001 9.18688e-05 0.000258626 -0.001 -5.54111e-06 0.000290558 -0.001 
-0.000184219 0.000201484 -0.001 -0.000263559 0.000142267 -0.001 -0.000256427 5.13624e-05 -0.001 
-0.000336894 -2.06179e-06 -0.001 -0.000228499 -4.2388e-05 -0.001 -0.00017589 0.000106626 -0.001 
-0.000769947 -0.000133367 -0.001 0.000767591 -0.000500293 -0.001 -5.05874e-05 0.000737978 -0.001 
0.000754456 -3.51771e-06 -0.001 0.00064691 -6.15298e-05 -0.001 0.000630483 -0.00018134 -0.001 
0.000749187 -0.000265543 -0.001 -0.000760805 -0.000462521 -0.001 0.000638155 6.09315e-05 -0.001 
-4.46661e-05 0.000922995 -0.001 -2.37945e-05 0.000207237 -0.001 0.000776979 0.000500181 -0.001 
-0.000605691 0.000527596 -0.001 -0.000377914 -0.000653727 -0.001 -0.000372325 -0.000526022 -0.001 
-0.000275829 -0.000589621 -0.001 -0.000254285 -0.000710579 -0.001 -0.000379307 0.000656222 -0.001 
-0.000379818 0.00052718 -0.001 -0.000266817 0.000721555 -0.001 -0.000150544 0.000668174 -0.001 
0.000381963 0.00065079 -0.001 0.000493113 0.000590432 -0.001 0.000505439 0.000463708 -0.001 
-0.000269094 0.000596608 -0.001 0.000385815 0.000532045 -0.001 0.000283599 0.0005899 -0.001 
-0.000176405 -0.000108505 -0.001 -0.000278769 -0.000475415 -0.001 0.000185395 2.33014e-06 -0.001 
0.000186773 0.000517571 -0.001 0.000540032 -8.68444e-05 -0.001 -0.000600694 -0.000514877 -0.001 
-0.00063703 8.98033e-05 -0.001 -0.000459677 0.000335729 -0.001 -0.000338836 -0.000100751 -0.001 
-0.000457327 0.000432721 -0.001 -8.72007e-06 -0.000210238 -0.001 0.000156073 0.000129496 -0.001 
-7.70692e-05 -0.000555049 -0.001 0.00036091 -0.000389728 -0.001 0.000531628 0.000120564 -0.001 
-0.000285451 0.000435562 -0.001 0.000192719 -0.000494604 -0.001 0.00041642 0.00039368 -0.001 
-0.000135943 0.000554637 -0.001 -0.000170665 -0.000610079 -0.001 -0.000666304 0.000434981 -0.001 
-0.000758736 0.000479231 -0.001 -0.000470189 -0.000458901 -0.001 0.000203433 -8.59809e-05 -0.001 
0.000101846 0.000170114 -0.001 -0.00035513 -0.00040726 -0.001 0.000100184 -0.000165831 -0.001 
2.96286e-05 0.00081537 -0.001 0.000720946 0.000381836 -0.001 -0.000539809 -0.000292001 -0.001 
0.00052211 -0.000182426 -0.001 -6.41339e-05 -0.000753908 -0.001 0.000638039 -0.000299861 -0.001 
-0.000605136 -0.000230182 -0.001 -3.41638e-05 -0.000145561 -0.001 -0.000104037 0.000172396 -0.001 
-0.000808575 -0.00042774 -0.001 -0.000807207 -0.000465052 -0.001 -0.00080817 0.000429771 -0.001 
-0.000806589 0.000469738 -0.001 -9.50634e-05 -0.000178909 -0.001 0.000247777 0.000445058 -0.001 
1.48293e-05 -0.000814201 -0.001 -4.11555e-05 0.000140955 -0.001 0.000276104 -0.000536845 -0.001 
0.000765969 -0.000436638 -0.001 0.000780871 -0.000362769 -0.001 0.000424176 -0.000642018 -0.001 
0.00053413 -0.000368009 -0.001 -0.000416333 4.17911e-05 -0.001 -0.000133891 -6.23822e-05 -0.001 
4.2574e-05 0.000206312 -0.001 0.000141163 -0.000121542 -0.001 0.000707423 0.000212137 -0.001 
0.000172327 0.000723882 -0.001 7.72652e-06 -0.00090254 -0.001 -0.000134435 5.66935e-05 -0.001 
-0.000188826 3.70894e-05 -0.001 0.000197119 8.09714e-05 -0.001 1.27801e-05 0.000917296 -0.001 
0.000800767 0.00044758 -0.001 -0.000686682 0.000507104 -0.001 9.35831e-05 0.000110457 -0.001 
-0.000696793 -0.000509595 -0.001 -0.00068446 -8.52012e-05 -0.001 -0.000691033 -0.000201242 -0.001 
5.24052e-05 -0.000189075 -0.001 -0.000151818 -0.000701092 -0.001 -0.000296988 0.000518087 -0.001 
9.31023e-05 -0.000108117 -0.001 0.00044261 -0.000416726 -0.001 0.000197044 -0.000784423 -0.001 
-0.000516861 0.000504567 -0.001 0.000298997 0.000502377 -0.001 

CELLS 563 3941
6 14 304 127 29 554 377 
6 143 259 55 393 509 103 
6 300 319 174 550 569 424 
6 259 349 55 509 599 103 
6 50 365 307 98 615 557 
6 299 320 164 549 570 414 
6 126 304 14 376 554 29 
6 298 319 300 548 569 550 
6 205 240 238 455 490 488 
6 257 308 145 507 558 395 
6 130 352 273 380 602 523 
6 295 320 299 545 570 549 
6 324 327 289 574 577 539 
6 235 258 143 485 508 393 
6 50 307 49 98 557 97 
6 207 283 279 457 533 529 
6 143 373 235 393 623 485 
6 145 308 252 395 558 502 
6 194 303 196 444 553 446 
6 279 306 207 529 556 457 
6 206 305 163 456 555 413 
6 51 357 9 99 607 24 
6 238 252 205 488 502 455 
6 293 317 209 543 567 459 
6 207 316 283 457 566 533 
6 142 301 249 392 551 499 
6 273 359 130 523 609 380 
6 211 327 324 461 577 574 
6 169 265 217 419 515 467 
6 7 365 50 22 615 98 
6 283 316 253 533 566 503 
6 159 268 223 409 518 473 
6 274 337 132 524 587 382 
6 232 361 329 482 611 579 
6 231 266 45 481 516 93 
6 229 362 330 479 612 580 
6 9 244 57 24 494 105 
6 230 276 52 480 526 100 
6 209 311 293 459 561 543 
6 131 342 302 381 592 552 
6 270 271 204 520 521 454 
6 66 243 1 114 493 16 
6 59 241 12 107 491 27 
6 280 306 279 530 556 529 
6 269 337 274 519 587 524 
6 179 256 224 429 506 474 
6 163 305 166 413 555 416 
6 201 303 194 451 553 444 
6 280 332 306 530 582 556 
6 186 255 225 436 505 475 
6 210 310 273 460 560 523 
6 153 270 204 403 520 454 
6 136 231 45 386 481 93 
6 171 265 169 421 515 419 
6 138 230 52 388 480 100 
6 225 354 325 475 604 575 
6 36 284 232 84 534 482 
6 161 268 159 411 518 409 
6 71 286 229 119 536 479 
6 290 303 201 540 553 451 
6 139 355 60 389 605 108 
6 60 355 248 108 605 498 
6 273 352 302 523 602 552 
6 235 373 245 485 623 495 
6 67 356 247 115 606 497 
6 221 295 277 471 545 527 
6 142 356 67 392 606 115 
6 139 283 253 389 533 503 
6 203 315 262 453 565 512 
6 41 257 145 89 507 395 
6 36 232 135 84 482 385 
6 71 229 137 119 479 387 
6 254 255 188 504 505 438 
6 233 350 334 483 600 584 
6 262 346 203 512 596 453 
6 304 325 127 554 575 377 
6 222 329 247 472 579 497 
6 218 298 260 468 548 510 
6 290 321 291 540 571 541 
6 272 310 240 522 560 490 
6 269 274 270 519 524 520 
6 244 245 57 494 495 105 
6 49 307 141 97 557 391 
6 225 325 256 475 575 506 
6 273 310 272 523 560 522 
6 312 368 255 562 618 505 
6 249 305 206 499 555 456 
6 228 331 251 478 581 501 
6 302 342 263 552 592 513 
6 338 339 44 588 589 92 
6 190 254 188 440 504 438 
6 37 341 340 85 591 590 
6 138 233 230 388 483 480 
6 228 335 331 478 585 581 
6 181 256 179 431 506 429 
6 195 263 226 445 513 476 
6 268 285 223 518 535 473 
6 290 291 288 540 541 538 
6 219 330 248 469 580 498 
6 201 321 290 451 571 540 
6 240 310 202 490 560 452 
6 188 255 186 438 505 436 
6 270 274 271 520 524 521 
6 262 349 259 512 599 509 
6 141 324 289 391 574 539 
6 296 301 142 546 551 392 
6 247 356 222 497 606 472 
6 239 252 238 489 502 488 
6 254 312 255 504 562 505 
6 54 261 53 102 511 101 
6 289 327 303 539 577 553 
6 268 353 285 518 603 535 
6 273 302 210 523 552 460 
6 292 299 293 542 549 543 
6 278 283 139 528 533 389 
6 175 265 171 425 515 421 
6 227 338 38 477 588 86 
6 264 360 265 514 610 515 
6 43 340 146 91 590 396 
6 165 268 161 415 518 411 
6 205 351 240 455 601 490 
6 64 281 63 112 531 111 
6 288 291 47 538 541 95 
6 135 295 294 385 545 544 
6 42 257 41 90 507 89 
6 245 373 57 495 623 105 
6 31 363 323 79 613 573 
6 292 293 140 542 543 390 
6 267 353 268 517 603 518 
6 155 270 153 405 520 403 
6 244 344 245 494 594 495 
6 61 278 139 109 528 389 
6 135 294 35 385 544 83 
6 69 297 296 117 547 546 
6 186 225 184 436 475 434 
6 329 361 243 579 611 493 
6 255 328 225 505 578 475 
6 213 332 280 463 582 530 
6 39 275 133 87 525 383 
6 330 362 241 580 612 491 
6 195 226 193 445 476 443 
6 211 324 251 461 574 501 
6 151 153 152 401 403 402 
6 295 299 294 545 549 544 
6 265 313 217 515 563 467 
6 258 259 143 508 509 393 
6 251 331 211 501 581 461 
6 149 151 150 399 401 400 
6 293 370 317 543 620 567 
6 153 204 152 403 454 402 
6 151 152 150 401 402 400 
6 33 292 140 81 542 390 
6 210 263 197 460 513 447 
6 301 305 249 551 555 499 
6 298 300 297 548 550 547 
6 68 296 142 116 546 392 
6 321 369 291 571 619 541 
6 179 224 177 429 474 427 
6 167 267 165 417 517 415 
6 259 346 262 509 596 512 
6 303 327 196 553 577 446 
6 269 270 155 519 520 405 
6 265 360 313 515 610 563 
6 223 269 157 473 519 407 
6 157 269 155 407 519 405 
6 144 279 278 394 529 528 
6 169 217 167 419 467 417 
6 177 264 175 427 514 425 
6 267 268 165 517 518 415 
6 159 223 157 409 473 407 
6 232 277 135 482 527 385 
6 193 254 190 443 504 440 
6 217 267 167 467 517 417 
6 249 356 142 499 606 392 
6 184 256 181 434 506 431 
6 248 355 219 498 605 469 
6 229 260 137 479 510 387 
6 149 150 148 399 400 398 
6 64 348 281 112 598 531 
6 311 374 293 561 624 543 
6 264 265 175 514 515 425 
6 297 300 296 547 550 546 
6 141 289 288 391 539 538 
6 197 263 195 447 513 445 
6 218 260 219 468 510 469 
6 224 264 177 474 514 427 
6 137 298 297 387 548 547 
6 277 295 135 527 545 385 
6 133 228 227 383 478 477 
6 261 349 262 511 599 512 
6 221 277 222 471 527 472 
6 256 325 224 506 575 474 
6 199 210 197 449 460 447 
6 226 254 193 476 504 443 
6 144 278 62 394 528 110 
6 279 283 278 529 533 528 
6 289 290 288 539 540 538 
6 137 297 70 387 547 118 
6 34 294 292 82 544 542 
6 235 236 216 485 486 466 
6 141 288 48 391 538 96 
6 178 306 180 428 556 430 
6 185 186 184 435 436 434 
6 63 281 144 111 531 394 
6 225 256 184 475 506 434 
6 46 291 136 94 541 386 
6 147 149 148 397 399 398 
6 271 272 204 521 522 454 
6 233 334 234 483 584 484 
6 145 275 40 395 525 88 
6 220 322 287 470 572 537 
6 280 334 213 530 584 463 
6 144 280 279 394 530 529 
6 140 287 32 390 537 80 
6 154 155 153 404 405 403 
6 334 350 213 584 600 463 
6 176 177 175 426 427 425 
6 260 298 137 510 548 387 
6 33 140 32 81 390 80 
6 49 141 48 97 391 96 
6 56 143 55 104 393 103 
6 68 142 67 116 392 115 
6 63 144 62 111 394 110 
6 61 139 60 109 389 108 
6 148 308 257 398 558 507 
6 71 137 70 119 387 118 
6 53 138 52 101 388 100 
6 46 136 45 94 386 93 
6 36 135 35 84 385 83 
6 43 146 134 91 396 384 
6 133 227 38 383 477 86 
6 192 193 190 442 443 440 
6 293 374 140 543 624 390 
6 34 292 33 82 542 81 
6 207 306 178 457 556 428 
6 43 134 42 91 384 90 
6 39 133 38 87 383 86 
6 41 145 40 89 395 88 
6 194 195 193 444 445 443 
6 69 296 68 117 546 116 
6 294 299 292 544 549 542 
6 173 175 171 423 425 421 
6 260 330 219 510 580 469 
6 183 184 181 433 434 431 
6 134 257 42 384 507 90 
6 55 349 54 103 599 102 
6 163 165 161 413 415 411 
6 166 167 165 416 417 415 
6 210 302 263 460 552 513 
6 271 273 272 521 523 522 
6 53 261 138 101 511 388 
6 217 326 267 467 576 517 
6 289 303 290 539 553 540 
6 178 179 177 428 429 427 
6 238 240 202 488 490 452 
6 62 278 61 110 528 109 
6 35 294 34 83 544 82 
6 284 361 232 534 611 482 
6 70 297 69 118 547 117 
6 224 304 264 474 554 514 
6 156 157 155 406 407 405 
6 48 288 47 96 538 95 
6 221 320 295 471 570 545 
6 187 188 186 437 438 436 
6 47 291 46 95 541 94 
6 151 154 153 401 404 403 
6 286 362 229 536 612 479 
6 168 169 167 418 419 417 
6 40 275 39 88 525 87 
6 307 324 141 557 574 391 
6 300 301 296 550 551 546 
6 32 287 31 80 537 79 
6 147 220 149 397 470 399 
6 333 344 231 583 594 481 
6 299 370 293 549 620 543 
6 271 359 273 521 609 523 
6 224 325 304 474 575 554 
6 228 237 227 478 487 477 
6 305 375 343 555 625 593 
6 218 319 298 468 569 548 
6 240 351 272 490 601 522 
6 277 329 222 527 579 472 
6 253 355 139 503 605 389 
6 158 159 157 408 409 407 
6 236 246 216 486 496 466 
6 192 194 193 442 444 443 
6 220 309 149 470 559 399 
6 183 185 184 433 435 434 
6 196 197 195 446 447 445 
6 276 347 58 526 597 106 
6 136 333 231 386 583 481 
6 67 247 66 115 497 114 
6 60 248 59 108 498 107 
6 261 262 250 511 512 500 
6 173 176 175 423 426 425 
6 344 357 231 594 607 481 
6 144 281 280 394 531 530 
6 152 205 150 402 455 400 
6 163 166 165 413 416 415 
6 185 187 186 435 437 436 
6 233 234 230 483 484 480 
6 170 171 169 420 421 419 
6 146 147 134 396 397 384 
6 176 178 177 426 428 427 
6 285 337 223 535 587 473 
6 154 156 155 404 406 405 
6 263 342 226 513 592 476 
6 235 245 236 485 495 486 
6 160 161 159 410 411 409 
6 58 347 242 106 597 492 
6 166 168 167 416 418 417 
6 287 374 220 537 624 470 
6 189 190 188 439 440 438 
6 148 257 134 398 507 384 
6 194 196 195 444 446 445 
6 252 308 205 502 558 455 
6 285 345 337 535 595 587 
6 301 375 305 551 625 555 
6 180 181 179 430 431 429 
6 281 348 234 531 598 484 
6 198 199 197 448 449 447 
6 151 309 154 401 559 404 
6 228 367 335 478 617 585 
6 54 349 261 102 599 511 
6 156 158 157 406 408 407 
6 168 170 169 418 420 419 
6 200 202 199 450 452 449 
6 147 148 134 397 398 384 
6 158 160 159 408 410 409 
6 150 308 148 400 558 398 
6 253 316 208 503 566 458 
6 232 329 277 482 579 527 
6 178 180 179 428 430 429 
6 191 192 190 441 442 440 
6 214 238 202 464 488 452 
6 172 173 171 422 423 421 
6 187 189 188 437 439 438 
6 162 163 161 412 413 411 
6 228 251 237 478 501 487 
6 215 258 235 465 508 485 
6 182 183 181 432 433 431 
6 202 310 199 452 560 449 
6 219 253 208 469 503 458 
6 222 249 206 472 499 456 
6 196 198 197 446 448 447 
6 229 330 260 479 580 510 
6 132 358 274 382 608 524 
6 149 309 151 399 559 401 
6 226 312 254 476 562 504 
6 154 309 209 404 559 459 
6 77 129 76 125 379 124 
6 73 128 72 121 378 120 
6 76 131 75 124 381 123 
6 74 132 73 122 382 121 
6 75 130 74 123 380 122 
6 14 127 77 29 377 125 
6 72 126 14 120 376 29 
6 133 367 228 383 617 478 
6 237 282 227 487 532 477 
6 239 366 252 489 616 502 
6 200 214 202 450 464 452 
6 192 201 194 442 451 444 
6 170 172 171 420 422 421 
6 220 311 309 470 561 559 
6 198 200 199 448 450 449 
6 189 191 190 439 441 440 
6 146 323 322 396 573 572 
6 160 162 161 410 412 411 
6 251 307 237 501 557 487 
6 199 310 210 449 560 460 
6 57 373 56 105 623 104 
6 214 239 238 464 489 488 
6 182 212 183 432 462 433 
6 180 182 181 430 432 431 
6 146 322 147 396 572 397 
6 172 218 208 422 468 458 
6 172 208 173 422 458 423 
6 162 221 206 412 471 456 
6 162 206 163 412 456 413 
6 176 207 178 426 457 428 
6 272 351 204 522 601 454 
6 198 211 200 448 461 450 
6 182 213 212 432 463 462 
6 234 334 281 484 584 531 
6 154 209 156 404 459 406 
6 185 203 187 435 453 437 
6 168 174 170 418 424 420 
6 189 215 191 439 465 441 
6 215 216 191 465 466 441 
6 221 222 206 471 472 456 
6 158 164 160 408 414 410 
6 218 219 208 468 469 458 
6 205 308 150 455 558 400 
6 191 314 192 441 564 442 
6 215 235 216 465 485 466 
6 215 318 258 465 568 508 
6 152 351 205 402 601 455 
6 138 261 250 388 511 500 
6 192 314 201 442 564 451 
6 234 347 230 484 597 480 
6 226 342 312 476 592 562 
6 138 250 233 388 500 483 
6 147 322 220 397 572 470 
6 216 314 191 466 564 441 
6 306 332 180 556 582 430 
6 222 356 249 472 606 499 
6 128 345 285 378 595 535 
6 314 321 201 564 571 451 
6 212 315 183 462 565 433 
6 312 342 336 562 592 586 
6 282 339 338 532 589 588 
6 340 341 323 590 591 573 
6 309 311 209 559 561 459 
6 183 315 185 433 565 435 
6 208 316 173 458 566 423 
6 173 316 176 423 566 426 
6 3 341 37 18 591 85 
6 44 339 6 92 589 21 
6 252 366 145 502 616 395 
6 246 321 314 496 571 564 
6 246 314 216 496 564 466 
6 126 364 313 376 614 563 
6 156 317 158 406 567 408 
6 275 367 133 525 617 383 
6 176 316 207 426 566 457 
6 185 315 203 435 565 453 
6 180 332 182 430 582 432 
6 302 352 131 552 602 381 
6 251 324 307 501 574 557 
6 187 318 189 437 568 439 
6 172 319 218 422 569 468 
6 162 320 221 412 570 471 
6 305 343 166 555 593 416 
6 170 319 172 420 569 422 
6 158 317 164 408 567 414 
6 209 317 156 459 567 406 
6 285 353 128 535 603 378 
6 223 337 269 473 587 519 
6 160 320 162 410 570 412 
6 211 331 200 461 581 450 
6 174 319 170 424 569 420 
6 203 318 187 453 568 437 
6 189 318 215 439 568 465 
6 198 327 211 448 577 461 
6 164 320 160 414 570 410 
6 326 353 267 576 603 517 
6 236 344 333 486 594 583 
6 196 327 198 446 577 448 
6 219 355 253 469 605 503 
6 281 334 280 531 584 530 
6 274 359 271 524 609 521 
6 164 370 299 414 620 549 
6 174 375 300 424 625 550 
6 287 363 31 537 613 79 
6 243 361 1 493 611 16 
6 241 362 12 491 612 27 
6 307 365 237 557 615 487 
6 166 343 168 416 593 418 
6 200 331 214 450 581 464 
6 313 326 217 563 576 467 
6 9 357 244 24 607 494 
6 1 361 30 16 611 78 
6 12 362 65 27 612 113 
6 337 345 132 587 595 382 
6 242 348 64 492 598 112 
6 231 357 266 481 607 516 
6 182 332 213 432 582 463 
6 245 344 236 495 594 486 
6 258 346 259 508 596 509 
6 145 366 275 395 616 525 
6 291 369 136 541 619 386 
6 236 333 246 486 583 496 
6 331 335 214 581 585 464 
6 312 336 129 562 586 379 
6 315 372 262 565 622 512 
6 220 374 311 470 624 561 
6 140 374 287 390 624 537 
6 126 360 304 376 610 554 
6 230 347 276 480 597 526 
6 313 364 326 563 614 576 
6 56 373 143 104 623 393 
6 239 367 366 489 617 616 
6 204 351 152 454 601 402 
6 300 375 301 550 625 551 
6 214 335 239 464 585 489 
6 247 329 243 497 579 493 
6 262 372 250 512 622 500 
6 248 330 241 498 580 491 
6 318 346 258 568 596 508 
6 333 369 246 583 619 496 
6 282 338 227 532 588 477 
6 146 340 323 396 590 573 
6 304 360 264 554 610 514 
6 366 367 275 616 617 525 
6 129 336 76 379 586 124 
6 73 345 128 121 595 378 
6 76 336 131 124 586 381 
6 250 350 233 500 600 483 
6 129 371 328 379 621 578 
6 132 345 73 382 595 121 
6 168 343 174 418 593 424 
6 131 352 75 381 602 123 
6 66 247 243 114 497 493 
6 59 248 241 107 498 491 
6 74 358 132 122 608 382 
6 203 346 318 453 596 568 
6 313 360 126 563 610 376 
6 128 364 72 378 614 120 
6 128 353 326 378 603 576 
6 77 371 129 125 621 379 
6 129 368 312 379 618 562 
6 244 357 344 494 607 594 
6 328 354 225 578 604 475 
6 326 364 128 576 614 378 
6 75 352 130 123 602 380 
6 350 372 212 600 622 462 
6 136 369 333 386 619 583 
6 325 354 127 575 604 377 
6 213 350 212 463 600 462 
6 130 358 74 380 608 122 
6 250 372 350 500 622 600 
6 317 370 164 567 620 414 
6 72 364 126 120 614 376 
6 328 368 129 578 618 379 
6 127 371 77 377 621 125 
6 336 342 131 586 592 381 
6 212 372 315 462 622 565 
6 234 348 347 484 598 597 
6 8 266 51 23 516 99 
6 10 276 58 25 526 106 
6 246 369 321 496 619 571 
6 30 284 0 78 534 15 
6 65 286 13 113 536 28 
6 58 242 11 106 492 26 
6 266 357 51 516 607 99 
6 255 368 328 505 618 578 
6 347 348 242 597 598 492 
6 322 363 287 572 613 537 
6 323 363 322 573 613 572 
6 335 367 239 585 617 489 
6 30 361 284 78 611 534 
6 65 362 286 113 612 536 
6 237 365 282 487 615 532 
6 130 359 358 380 609 608 
6 343 375 174 593 625 424 
6 354 371 127 604 621 377 
6 328 371 354 578 621 604 
6 358 359 274 608 609 524 
6 0 284 36 15 534 84 
6 45 266 8 93 516 23 
6 52 276 10 100 526 25 
6 11 242 64 26 492 112 
6 13 286 71 28 536 119 
6 2 323 3 17 573 18 
6 31 323 2 79 573 17 
6 323 341 3 573 591 18 
6 37 340 4 85 590 19 
6 4 340 43 19 590 91 
6 38 338 5 86 588 20 
6 5 338 44 20 588 92 
6 6 282 7 21 532 22 
6 6 339 282 21 589 532 
6 282 365 7 532 615 22 

CELL_TYPES 563
13
13
13
13
13
13
13
13
13
13
13
13
13
13
13
13
13
13
13
13
13
13
13
13
13
13
13
13
13
13
13
13
13
13
13
13
13
13
13
13
13
13
13
13
13
13
13
13
13
13
13
13
13
13
13
13
13
13
13
13
13
13
13
13
13
13
13
13
13
13
13
13
13
13
13
13
13
13
13
13
13
13
13
13
13
13
13
13
13
13
13
13
13
13
13
13
13
13
13
13
13
13
13
13
13
13
13
13
13
13
13
13
13
13
13
13
13
13
13
13
13
13
13
13
13
13
13
13
13
13
13
13
13
13
13
13
13
13
13
13
13
13
13
13
13
13
13
13
13
13
13
13
13
13
13
13
13
13
13
13
13
13
13
13
13
13
13
13
13
13
13
13
13
13
13
13
13
13
13
13
13
13
13
13
13
13
13
13
13
13
13
13
13
13
13
13
13
13
13
13
13
13
13
13
13
13
13
13
13
13
13
13
13
13
13
13
13
13
13
13
13
13
13
13
13
13
13
13
13
13
13
13
13
13
13
13
13
13
13
13
13
13
13
13
13
13
13
13
13
13
13
13
13
13
13
13
13
13
13
13
13
13
13
13
13
13
13
13
13
13
13
13
13
13
13
13
13
13
13
13
13
13
13
13
13
13
13
13
13
13
13
13
13
13
13
13
13
13
13
13
13
13
13
13
13
13
13
13
13
13
13
13
13
13
13
13
13
13
13
13
13
13
13
13
13
13
13
13
13
13
13
13
13
13
13
13
13
13
13
13
13
13
13
13
13
13
13
13
13
13
13
13
13
13
13
13
13
13
13
13
13
13
13
13
13
13
13
13
13
13
13
13
13
13
13
13
13
13
13
13
13
13
13
13
13
13
13
13
13
13
13
13
13
13
13
13
13
13
13
13
13
13
13
13
13
13
13
13
13
13
13
13
13
13
13
13
13
13
13
13
13
13
13
13
13
13
13
13
13
13
13
13
13
13
13
13
13
13
13
13
13
13
13
13
13
13
13
13
13
13
13
13
13
13
13
13
13
13
13
13
13
13
13
13
13
13
13
13
13
13
13
13
13
13
13
13
13
13
13
13
13
13
13
13
13
13
13
13
13
13
13
13
13
13
13
13
13
13
13
13
13
13
13
13
13
13
13
13
13
13
13
13
13
13
13
13
13
13
13
13
13
13
13
13
13
13
13
13
13
13
13
13
13
13
13
13
13
13
13
13
13
13
13
13
13
13
13
13
13
13
13
13
13
13
13
13
13
13
13
13
13
13
13

POINT_DATA 626
VECTORS displacement float
-1.74395e-06 3.09546e-05 1.80551e-05
1.73565e-06 3.09736e-05 1.81002e-05
-2.59864e-05 1.69929e-05 1.80871e-05
-2.5841e-05 1.60331e-05 1.80517e-05
-2.77208e-05 1.39729e-05 1.80691e-05
-2.77137e-05 -1.40191e-05 1.80946e-05
-2.58122e-05 -1.60712e-05 1.81059e-05
-2.59826e-05 -1.7011e-05 1.81671e-05
-1.6774e-06 -3.09583e-05 1.80515e-05
1.75545e-06 -3.09598e-05 1.81019e-05
2.59437e-05 -1.69808e-05 1.80435e-05
2.77171e-05 -1.39367e-05 1.80434e-05
2.76726e-05 1.39895e-05 1.80917e-05
2.59151e-05 1.6993e-05 1.80461e-05
0 0 0
-1.74395e-06 3.09546e-05 -1.80551e-05
1.73565e-06 3.09736e-05 -1.81002e-05
-2.59864e-05 1.69929e-05 -1.80871e-05
-2.5841e-05 1.60331e-05 -1.80517e-05
-2.77208e-05 1.39729e-05 -1.80691e-05
-2.77137e-05 -1.40191e-05 -1.80946e-05
-2.58122e-05 -1.60712e-05 -1.81059e-05
-2.59826e-05 -1.7011e-05 -1.81671e-05
-1.6774e-06 -3.09583e-05 -1.80515e-05
1.75545e-06 -3.09598e-05 -1.81019e-05
2.59437e-05 -1.69808e-05 -1.80435e-05
2.77171e-05 -1.39367e-05 -1.80434e-05
2.76726e-05 1.39895e-05 -1.80917e-05
2.59151e-05 1.6993e-05 -1.80461e-05
0 0 0
2.48937e-08 3.01545e-05 1.80343e-05
-2.11407e-05 1.87125e-05 1.75498e-05
-1.72326e-05 1.98339e-05 1.69209e-05
-1.4007e-05 2.10543e-05 1.6555e-05
-1.12069e-05 2.26649e-05 1.65488e-05
-8.52411e-06 2.4833e-05 1.69014e-05
-5.56781e-06 2.76218e-05 1.75375e-05
-2.64499e-05 1.46792e-05 1.80335e-05
-2.67688e-05 -9.01158e-06 1.75774e-05
-2.58063e-05 -5.0355e-06 1.6926e-05
-2.52546e-05 -1.63622e-06 1.65714e-05
-2.52575e-05 1.60786e-06 1.65744e-05
-2.57986e-05 5.0229e-06 1.69242e-05
-2.6755e-05 8.98466e-06 1.7564e-05
-2.64369e-05 -1.47255e-05 1.80623e-05
-5.54107e-06 -2.76363e-05 1.75297e-05
-8.47663e-06 -2.4842e-05 1.69007e-05
-1.11701e-05 -2.26844e-05 1.65562e-05
-1.39707e-05 -2.10873e-05 1.65596e-05
-1.7215e-05 -1.98693e-05 1.69367e-05
-2.11343e-05 -1.87492e-05 1.75623e-05
8.98391e-08 -3.01392e-05 1.80294e-05
2.11241e-05 -1.86249e-05 1.75115e-05
1.72448e-05 -1.97623e-05 1.68729e-05
1.40339e-05 -2.10113e-05 1.65116e-05
1.12251e-05 -2.25931e-05 1.65462e-05
8.58127e-06 -2.47802e-05 1.68742e-05
5.65469e-06 -2.76265e-05 1.7535e-05
2.61247e-05 -1.50597e-05 1.80284e-05
2.67169e-05 8.93845e-06 1.75015e-05
2.57222e-05 5.04962e-06 1.69084e-05
2.52067e-05 1.62333e-06 1.65232e-05
2.52038e-05 -1.59944e-06 1.65215e-05
2.57508e-05 -4.99741e-06 1.68884e-05
2.6699e-05 -8.9172e-06 1.75097e-05
2.61077e-05 1.50609e-05 1.80254e-05
5.63315e-06 2.76179e-05 1.75096e-05
8.50864e-06 2.48069e-05 1.69112e-05
1.12171e-05 2.26411e-05 1.65294e-05
1.40046e-05 2.10222e-05 1.65248e-05
1.72218e-05 1.97935e-05 1.68851e-05
2.11151e-05 1.86345e-05 1.75254e-05
0 0 0
0 0 0
0 0 0
0 0 0
0 0 0
0 0 0
2.48937e-08 3.01545e-05 -1.80343e-05
-2.11407e-05 1.87125e-05 -1.75498e-05
-1.72326e-05 1.98339e-05 -1.69209e-05
-1.4007e-05 2.10543e-05 -1.6555e-05
-1.12069e-05 2.26649e-05 -1.65488e-05
-8.52411e-06 2.4833e-05 -1.69014e-05
-5.56781e-06 2.76218e-05 -1.75375e-05
-2.64499e-05 1.46792e-05 -1.80335e-05
-2.67688e-05 -9.01158e-06 -1.75774e-05
-2.58063e-05 -5.0355e-06 -1.6926e-05
-2.52546e-05 -1.63622e-06 -1.65714e-05
-2.52575e-05 1.60786e-06 -1.65744e-05
-2.57986e-05 5.0229e-06 -1.69242e-05
-2.6755e-05 8.98466e-06 -1.7564e-05
-2.64369e-05 -1.47255e-05 -1.80623e-05
-5.54107e-06 -2.76363e-05 -1.75297e-05
-8.47663e-06 -2.4842e-05 -1.69007e-05
-1.11701e-05 -2.26844e-05 -1.65562e-05
-1.39707e-05 -2.10873e-05 -1.65596e-05
-1.7215e-05 -1.98693e-05 -1.69367e-05
-2.11343e-05 -1.87492e-05 -1.75623e-05
8.98391e-08 -3.01392e-05 -1.80294e-05
2.11241e-05 -1.86249e-05 -1.75115e-05
1.72448e-05 -1.97623e-05 -1.68729e-05
1.40339e-05 -2.10113e-05 -1.65116e-05
1.12251e-05 -2.25931e-05 -1.65462e-05
8.58127e-06 -2.47802e-05 -1.68742e-05
5.65469e-06 -2.76265e-05 -1.7535e-05
2.61247e-05 -1.50597e-05 -1.80284e-05
2.67169e-05 8.93845e-06 -1.75015e-05
2.57222e-05 5.04962e-06 -1.69084e-05
2.52067e-05 1.62333e-06 -1.65232e-05
2.52038e-05 -1.59944e-06 -1.65215e-05
2.57508e-05 -4.99741e-06 -1.68884e-05
2.6699e-05 -8.9172e-06 -1.75097e-05
2.61077e-05 1.50609e-05 -1.80254e-05
5.63315e-06 2.76179e-05 -1.75096e-05
8.50864e-06 2.48069e-05 -1.69112e-05
1.12171e-05 2.26411e-05 -1.65294e-05
1.40046e-05 2.10222e-05 -1.65248e-05
1.72218e-05 1.97935e-05 -1.68851e-05
2.11151e-05 1.86345e-05 -1.75254e-05
0 0 0
0 0 0
0 0 0
0 0 0
0 0 0
0 0 0
1.79368e-06 8.58748e-07 4.55226e-06
1.73782e-06 -8.25116e-07 4.46081e-06
4.31954e-07 1.84963e-06 4.49513e-06
4.36099e-07 -1.78063e-06 4.3561e-06
-1.84749e-06 2.09632e-08 4.42237e-06
-1.12309e-06 -1.30888e-06 4.15101e-06
-1.15921e-06 1.3068e-06 4.19979e-06
-2.25131e-05 -7.2877e-06 1.7e-05
-2.21965e-05 7.37159e-06 1.69686e-05
-4.86045e-06 2.28986e-05 1.6937e-05
-4.85797e-06 -2.31317e-05 1.69639e-05
1.74213e-05 1.56355e-05 1.69299e-05
1.75688e-05 -1.55365e-05 1.69391e-05
2.10736e-05 3.16389e-06 1.63244e-05
-1.39532e-05 1.71513e-05 1.64784e-05
-1.35912e-05 -1.67413e-05 1.64099e-05
7.76787e-06 1.98196e-05 1.63312e-05
7.68488e-06 -2.031e-05 1.64025e-05
2.14724e-05 -3.44374e-06 1.64002e-05
-2.11028e-05 6.58809e-09 1.62467e-05
-2.24204e-05 1.09998e-05 1.74536e-05
-1.8751e-05 9.25472e-06 1.66271e-05
-1.79828e-05 5.79546e-06 1.60363e-05
-1.4984e-05 7.44835e-06 1.54863e-05
-1.42245e-05 4.30773e-06 1.48296e-05
-1.15326e-05 5.7439e-06 1.40947e-05
-1.0858e-05 3.06874e-06 1.33735e-05
-8.4005e-06 4.30488e-06 1.24043e-05
-9.05882e-06 7.01342e-06 1.34563e-05
-6.20411e-06 5.48852e-06 1.16889e-05
-6.82831e-06 8.24946e-06 1.30799e-05
-4.2814e-06 6.67492e-06 1.14504e-05
-4.80002e-06 9.60994e-06 1.30938e-05
-2.40088e-06 7.99336e-06 1.17229e-05
-2.81286e-06 1.11672e-05 1.34748e-05
-4.75411e-07 9.59531e-06 1.25009e-05
-7.38356e-07 1.29969e-05 1.41416e-05
1.73108e-06 1.15178e-05 1.35349e-05
-5.5347e-06 1.27004e-05 1.44368e-05
1.68508e-06 8.22399e-06 1.17475e-05
4.00419e-06 1.01209e-05 1.31508e-05
3.70536e-06 7.09796e-06 1.14782e-05
6.06742e-06 8.96669e-06 1.31133e-05
5.76683e-06 6.1068e-06 1.17355e-05
8.3581e-06 8.02034e-06 1.34919e-05
8.10567e-06 5.19528e-06 1.25003e-05
1.0954e-05 7.09707e-06 1.41469e-05
1.0746e-05 4.3228e-06 1.3499e-05
8.53054e-06 1.10375e-05 1.44607e-05
7.93771e-06 2.64375e-06 1.17273e-05
1.0646e-05 1.7372e-06 1.31039e-05
7.9487e-06 3.58761e-07 1.14555e-05
1.08064e-05 -7.59114e-07 1.3124e-05
8.11166e-06 -1.93781e-06 1.1709e-05
1.10983e-05 -3.31286e-06 1.34838e-05
8.46975e-06 -4.42399e-06 1.2444e-05
1.15037e-05 -6.0029e-06 1.41093e-05
8.95559e-06 -7.13813e-06 1.3428e-05
6.14754e-06 -5.49443e-06 1.16412e-05
6.64451e-06 -8.30088e-06 1.30182e-05
4.10521e-06 -6.58853e-06 1.13108e-05
4.52337e-06 -9.55089e-06 1.29882e-05
2.2423e-06 -7.85831e-06 1.15973e-05
2.48484e-06 -1.10019e-05 1.33509e-05
2.25291e-07 -9.37371e-06 1.23535e-05
3.30014e-07 -1.27698e-05 1.40338e-05
-1.91544e-06 -1.11507e-05 1.33769e-05
-1.84107e-06 -7.92164e-06 1.15821e-05
-4.16791e-06 -9.87488e-06 1.3085e-05
-3.81395e-06 -6.73052e-06 1.1317e-05
-6.34564e-06 -8.66205e-06 1.30992e-05
-5.89132e-06 -5.69803e-06 1.16283e-05
-8.49975e-06 -7.43582e-06 1.33796e-05
-8.16757e-06 -4.72807e-06 1.24086e-05
-1.10957e-05 -6.40279e-06 1.40698e-05
-4.37167e-06 -1.31232e-05 1.44336e-05
-1.08089e-05 -3.65069e-06 1.34392e-05
7.22614e-06 -1.13728e-05 1.42729e-05
-7.74173e-06 1.98269e-06 1.14929e-05
-1.32162e-05 1.03506e-06 1.42109e-05
1.72913e-06 1.50829e-05 1.49522e-05
1.37681e-05 4.62239e-07 1.43878e-05
1.38432e-05 6.10013e-06 1.49317e-05
-9.6941e-06 1.01963e-05 1.45325e-05
-5.41603e-06 -3.19767e-06 1.01821e-05
-1.17136e-05 -9.29738e-06 1.48892e-05
1.18824e-05 -8.76025e-06 1.47871e-05
1.47818e-05 -7.47364e-06 1.54034e-05
-1.39598e-05 -5.24392e-06 1.48617e-05
2.79583e-06 -1.45162e-05 1.47962e-05
4.24565e-07 -1.64995e-05 1.53978e-05
3.51845e-06 4.39696e-06 9.58112e-06
1.40106e-05 9.2991e-06 1.54916e-05
1.79309e-05 8.145e-06 1.63006e-05
-1.56755e-05 1.13954e-05 1.62335e-05
-1.09409e-06 1.67692e-05 1.54953e-05
1.90687e-06 1.96217e-05 1.6311e-05
-2.09188e-06 5.2201e-06 9.59762e-06
5.55397e-06 -7.84607e-07 9.59417e-06
3.58597e-06 -3.68358e-06 9.082e-06
-1.77965e-06 -5.1786e-06 9.44963e-06
-2.24689e-05 -1.10109e-05 1.74744e-05
-1.87983e-05 -9.24146e-06 1.66511e-05
2.11479e-05 1.41649e-05 1.75057e-05
2.07539e-05 -1.43177e-05 1.74356e-05
-1.76461e-06 -2.54466e-05 1.7511e-05
-1.68214e-06 2.54107e-05 1.75156e-05
1.77131e-05 -1.19069e-05 1.66872e-05
2.06458e-05 -1.07511e-05 1.7116e-05
3.77566e-06 -1.89852e-05 1.61394e-05
7.68534e-07 -2.03459e-05 1.64829e-05
-1.94052e-05 -1.26506e-05 1.71432e-05
-1.37312e-05 -2.30694e-06 1.44719e-05
-1.65928e-05 -3.70145e-06 1.54776e-05
-1.03759e-05 -1.09639e-06 1.29521e-05
2.44522e-05 1.10728e-05 1.76517e-05
2.54977e-05 -1.24033e-05 1.78482e-05
2.64926e-06 2.67261e-05 1.76605e-05
2.52101e-06 -2.64137e-05 1.76294e-05
3.33948e-06 -2.3032e-05 1.70291e-05
-2.0539e-06 -1.832e-05 1.59509e-05
4.05908e-06 2.37914e-05 1.71304e-05
2.26142e-05 8.37929e-06 1.71193e-05
4.61362e-06 1.73134e-05 1.57273e-05
1.4427e-05 -1.31195e-05 1.61374e-05
-1.57877e-05 -1.09848e-05 1.62146e-05
-1.67998e-05 -3.81429e-07 1.53774e-05
1.7306e-05 4.68749e-06 1.57257e-05
6.55221e-08 -6.38733e-06 1.02674e-05
1.74172e-06 -4.84847e-06 9.0925e-06
5.85048e-06 -2.93552e-06 1.03782e-05
-2.14442e-05 3.75052e-06 1.64589e-05
5.72938e-06 -1.62745e-05 1.55077e-05
9.08348e-06 -1.74991e-05 1.59975e-05
1.75722e-05 1.18817e-05 1.66723e-05
1.39943e-05 -1.63823e-05 1.64013e-05
1.074e-05 -1.3789e-05 1.55501e-05
-3.54798e-06 -4.2202e-06 9.50078e-06
5.39913e-06 1.1385e-06 9.49906e-06
5.21806e-06 3.22288e-06 1.00472e-05
-1.74979e-06 -2.83546e-05 1.78769e-05
1.89206e-06 5.2989e-06 9.58446e-06
-1.13824e-07 6.10502e-06 1.00388e-05
-3.78493e-06 4.12775e-06 9.57842e-06
-5.62269e-06 3.03419e-06 1.02853e-05
-5.16548e-06 1.04067e-06 9.21362e-06
-7.52725e-06 -6.17393e-08 1.11724e-05
-4.33438e-06 -8.10279e-07 8.38187e-06
-3.10859e-06 1.87234e-06 7.37408e-06
-2.20812e-05 -3.60776e-06 1.65158e-05
2.34062e-05 -1.5688e-05 1.78361e-05
-1.5072e-06 2.11679e-05 1.66821e-05
2.12617e-05 -8.45198e-08 1.62258e-05
1.76221e-05 -1.6468e-06 1.55814e-05
1.73477e-05 -4.94168e-06 1.57707e-05
2.18916e-05 -7.45112e-06 1.69136e-05
-2.31822e-05 -1.42546e-05 1.78327e-05
1.73246e-05 1.64887e-06 1.55085e-05
-1.734e-06 2.84731e-05 1.78941e-05
-4.22072e-07 3.68342e-06 7.49531e-06
2.3772e-05 1.57424e-05 1.78846e-05
-1.74974e-05 1.56423e-05 1.6975e-05
-1.06262e-05 -1.84661e-05 1.62551e-05
-1.00996e-05 -1.43423e-05 1.55717e-05
-7.50778e-06 -1.60949e-05 1.56221e-05
-7.32214e-06 -2.01205e-05 1.63953e-05
-1.07045e-05 1.85353e-05 1.62668e-05
-1.03473e-05 1.43841e-05 1.56194e-05
-7.77265e-06 2.04924e-05 1.64442e-05
-4.253e-06 1.86097e-05 1.6053e-05
1.07597e-05 1.83455e-05 1.62262e-05
1.38917e-05 1.69349e-05 1.6431e-05
1.4042e-05 1.29729e-05 1.60513e-05
-7.36159e-06 1.62883e-05 1.56385e-05
1.05251e-05 1.45471e-05 1.56452e-05
7.74876e-06 1.60923e-05 1.5614e-05
-3.11647e-06 -1.89877e-06 7.3932e-06
-7.25766e-06 -1.2422e-05 1.46252e-05
3.00867e-06 4.03603e-08 6.601e-06
4.87259e-06 1.35228e-05 1.46181e-05
1.4076e-05 -2.26039e-06 1.45705e-05
-1.72898e-05 -1.52167e-05 1.69455e-05
-1.73665e-05 2.42031e-06 1.55978e-05
-1.22047e-05 8.91196e-06 1.49435e-05
-7.70565e-06 -2.29253e-06 1.15547e-05
-1.24498e-05 1.18127e-05 1.554e-05
-1.42736e-07 -3.75423e-06 7.5542e-06
2.73024e-06 2.27208e-06 7.25195e-06
-2.00387e-06 -1.46505e-05 1.48081e-05
9.36512e-06 -1.00683e-05 1.43894e-05
1.38608e-05 3.15782e-06 1.45661e-05
-7.34006e-06 1.11994e-05 1.42603e-05
4.99724e-06 -1.27748e-05 1.43693e-05
1.10319e-05 1.04305e-05 1.49197e-05
-3.59646e-06 1.46853e-05 1.49081e-05
-4.63548e-06 -1.66169e-05 1.55489e-05
-1.95071e-05 1.28925e-05 1.71613e-05
-2.3127e-05 1.48582e-05 1.78435e-05
-1.2905e-05 -1.26861e-05 1.58126e-05
3.76081e-06 -1.58613e-06 7.90698e-06
1.7644e-06 2.92229e-06 7.08446e-06
-9.23052e-06 -1.06095e-05 1.45318e-05
1.72775e-06 -2.82317e-06 6.93109e-06
9.94734e-07 2.4117e-05 1.73086e-05
2.13681e-05 1.11939e-05 1.72987e-05
-1.46647e-05 -7.95342e-06 1.54854e-05
1.37081e-05 -4.78634e-06 1.46907e-05
-1.90989e-06 -2.17631e-05 1.68028e-05
1.80605e-05 -8.4191e-06 1.63408e-05
-1.6679e-05 -6.3286e-06 1.57825e-05
-4.32902e-07 -1.92233e-06 4.7985e-06
-1.80538e-06 2.99545e-06 7.17721e-06
-2.50521e-05 -1.29819e-05 1.79224e-05
-2.51273e-05 -1.45074e-05 1.80022e-05
-2.50453e-05 1.30338e-05 1.79061e-05
-2.51182e-05 1.465e-05 1.79822e-05
-1.64846e-06 -3.12486e-06 7.20995e-06
6.32798e-06 1.13684e-05 1.40766e-05
5.33712e-07 -2.40862e-05 1.73023e-05
-5.2278e-07 1.80955e-06 4.64503e-06
7.4075e-06 -1.43437e-05 1.51524e-05
2.3303e-05 -1.32094e-05 1.77289e-05
2.36328e-05 -1.05376e-05 1.74909e-05
1.19885e-05 -1.8211e-05 1.62934e-05
1.47302e-05 -1.01467e-05 1.57957e-05
-1.00271e-05 1.00125e-06 1.27547e-05
-1.74002e-06 -8.15906e-07 4.72348e-06
7.69068e-07 3.70837e-06 7.57318e-06
2.34308e-06 -1.99717e-06 6.55532e-06
2.01566e-05 5.89786e-06 1.64537e-05
5.07012e-06 2.05961e-05 1.64961e-05
3.42118e-07 -2.76802e-05 1.78541e-05
-1.73124e-06 7.09115e-07 4.60635e-06
-3.21152e-06 6.23051e-07 6.82418e-06
3.57723e-06 1.47542e-06 7.63666e-06
4.99226e-07 2.8324e-05 1.79274e-05
2.47605e-05 1.37342e-05 1.79185e-05
-2.03285e-05 1.55359e-05 1.74291e-05
1.17871e-06 1.36448e-06 4.45988e-06
-2.06397e-05 -1.57285e-05 1.75277e-05
-1.8999e-05 -2.3222e-06 1.59463e-05
-1.95593e-05 -5.58502e-06 1.63324e-05
9.05687e-07 -3.24777e-06 7.00614e-06
-4.36605e-06 -1.97894e-05 1.63219e-05
-7.93733e-06 1.38345e-05 1.51012e-05
1.16575e-06 -1.30419e-06 4.33932e-06
1.19345e-05 -1.12284e-05 1.52923e-05
6.1331e-06 -2.26962e-05 1.68206e-05
-1.45222e-05 1.43555e-05 1.63237e-05
7.92912e-06 1.33213e-05 1.49481e-05
1.79368e-06 8.58748e-07 -4.55226e-06
1.73782e-06 -8.25116e-07 -4.46081e-06
4.31954e-07 1.84963e-06 -4.49513e-06
4.36099e-07 -1.78063e-06 -4.3561e-06
-1.84749e-06 2.09632e-08 -4.42237e-06
-1.12309e-06 -1.30888e-06 -4.15101e-06
-1.15921e-06 1.3068e-06 -4.19979e-06
-2.25131e-05 -7.2877e-06 -1.7e-05
-2.21965e-05 7.37159e-06 -1.69686e-05
-4.86045e-06 2.28986e-05 -1.6937e-05
-4.85797e-06 -2.31317e-05 -1.69639e-05
1.74213e-05 1.56355e-05 -1.69299e-05
1.75688e-05 -1.55365e-05 -1.69391e-05
2.10736e-05 3.16389e-06 -1.63244e-05
-1.39532e-05 1.71513e-05 -1.64784e-05
-1.35912e-05 -1.67413e-05 -1.64099e-05
7.76787e-06 1.98196e-05 -1.63312e-05
7.68488e-06 -2.031e-05 -1.64025e-05
2.14724e-05 -3.44374e-06 -1.64002e-05
-2.11028e-05 6.58809e-09 -1.62467e-05
-2.24204e-05 1.09998e-05 -1.74536e-05
-1.8751e-05 9.25472e-06 -1.66271e-05
-1.79828e-05 5.79546e-06 -1.60363e-05
-1.4984e-05 7.44835e-06 -1.54863e-05
-1.42245e-05 4.30773e-06 -1.48296e-05
-1.15326e-05 5.7439e-06 -1.40947e-05
-1.0858e-05 3.06874e-06 -1.33735e-05
-8.4005e-06 4.30488e-06 -1.24043e-05
-9.05882e-06 7.01342e-06 -1.34563e-05
-6.20411e-06 5.48852e-06 -1.16889e-05
-6.82831e-06 8.24946e-06 -1.30799e-05
-4.2814e-06 6.67492e-06 -1.14504e-05
-4.80002e-06 9.60994e-06 -1.30938e-05
-2.40088e-06 7.99336e-06 -1.17229e-05
-2.81286e-06 1.11672e-05 -1.34748e-05
-4.75411e-07 9.59531e-06 -1.25009e-05
-7.38356e-07 1.29969e-05 -1.41416e-05
1.73108e-06 1.15178e-05 -1.35349e-05
-5.5347e-06 1.27004e-05 -1.44368e-05
1.68508e-06 8.22399e-06 -1.17475e-05
4.00419e-06 1.01209e-05 -1.31508e-05
3.70536e-06 7.09796e-06 -1.14782e-05
6.06742e-06 8.96669e-06 -1.31133e-05
5.76683e-06 6.1068e-06 -1.17355e-05
8.3581e-06 8.02034e-06 -1.34919e-05
8.10567e-06 5.19528e-06 -1.25003e-05
1.0954e-05 7.09707e-06 -1.41469e-05
1.0746e-05 4.3228e-06 -1.3499e-05
8.53054e-06 1.10375e-05 -1.44607e-05
7.93771e-06 2.64375e-06 -1.17273e-05
1.0646e-05 1.7372e-06 -1.31039e-05
7.9487e-06 3.58761e-07 -1.14555e-05
1.08064e-05 -7.59114e-07 -1.3124e-05
8.11166e-06 -1.93781e-06 -1.1709e-05
1.10983e-05 -3.31286e-06 -1.34838e-05
8.46975e-06 -4.42399e-06 -1.2444e-05
1.15037e-05 -6.0029e-06 -1.41093e-05
8.95559e-06 -7.13813e-06 -1.3428e-05
6.14754e-06 -5.49443e-06 -1.16412e-05
6.64451e-06 -8.30088e-06 -1.30182e-05
4.10521e-06 -6.58853e-06 -1.13108e-05
4.52337e-06 -9.55089e-06 -1.29882e-05
2.2423e-06 -7.85831e-06 -1.15973e-05
2.48484e-06 -1.10019e-05 -1.33509e-05
2.25291e-07 -9.37371e-06 -1.23535e-05
3.30014e-07 -1.27698e-05 -1.40338e-05
-1.91544e-06 -1.11507e-05 -1.33769e-05
-1.84107e-06 -7.92164e-06 -1.15821e-05
-4.16791e-06 -9.87488e-06 -1.3085e-05
-3.81395e-06 -6.73052e-06 -1.1317e-05
-6.34564e-06 -8.66205e-06 -1.30992e-05
-5.89132e-06 -5.69803e-06 -1.16283e-05
-8.49975e-06 -7.43582e-06 -1.33796e-05
-8.16757e-06 -4.72807e-06 -1.24086e-05
-1.10957e-05 -6.40279e-06 -1.40698e-05
-4.37167e-06 -1.31232e-05 -1.44336e-05
-1.08089e-05 -3.65069e-06 -1.34392e-05
7.22614e-06 -1.13728e-05 -1.42729e-05
-7.74173e-06 1.98269e-06 -1.14929e-05
-1.32162e-05 1.03506e-06 -1.42109e-05
1.72913e-06 1.50829e-05 -1.49522e-05
1.37681e-05 4.62239e-07 -1.43878e-05
1.38432e-05 6.10013e-06 -1.49317e-05
-9.6941e-06 1.01963e-05 -1.45325e-05
-5.41603e-06 -3.19767e-06 -1.01821e-05
-1.17136e-05 -9.29738e-06 -1.48892e-05
1.18824e-05 -8.76025e-06 -1.47871e-05
1.47818e-05 -7.47364e-06 -1.54034e-05
-1.39598e-05 -5.24392e-06 -1.48617e-05
2.79583e-06 -1.45162e-05 -1.47962e-05
4.24565e-07 -1.64995e-05 -1.53978e-05
3.51845e-06 4.39696e-06 -9.58112e-06
1.40106e-05 9.2991e-06 -1.54916e-05
1.79309e-05 8.145e-06 -1.63006e-05
-1.56755e-05 1.13954e-05 -1.62335e-05
-1.09409e-06 1.67692e-05 -1.54953e-05
1.90687e-06 1.96217e-05 -1.6311e-05
-2.09188e-06 5.2201e-06 -9.59762e-06
5.55397e-06 -7.84607e-07 -9.59417e-06
3.58597e-06 -3.68358e-06 -9.082e-06
-1.77965e-06 -5.1786e-06 -9.44963e-06
-2.24689e-05 -1.10109e-05 -1.74744e-05
-1.87983e-05 -9.24146e-06 -1.66511e-05
2.11479e-05 1.41649e-05 -1.75057e-05
2.07539e-05 -1.43177e-05 -1.74356e-05
-1.76461e-06 -2.54466e-05 -1.7511e-05
-1.68214e-06 2.54107e-05 -1.75156e-05
1.77131e-05 -1.19069e-05 -1.66872e-05
2.06458e-05 -1.07511e-05 -1.7116e-05
3.77566e-06 -1.89852e-05 -1.61394e-05
7.68534e-07 -2.03459e-05 -1.64829e-05
-1.94052e-05 -1.26506e-05 -1.71432e-05
-1.37312e-05 -2.30694e-06 -1.44719e-05
-1.65928e-05 -3.70145e-06 -1.54776e-05
-1.03759e-05 -1.09639e-06 -1.29521e-05
2.44522e-05 1.10728e-05 -1.76517e-05
2.54977e-05 -1.24033e-05 -1.78482e-05
2.64926e-06 2.67261e-05 -1.76605e-05
2.52101e-06 -2.64137e-05 -1.76294e-05
3.33948e-06 -2.3032e-05 -1.70291e-05
-2.0539e-06 -1.832e-05 -1.59509e-05
4.05908e-06 2.37914e-05 -1.71304e-05
2.26142e-05 8.37929e-06 -1.71193e-05
4.61362e-06 1.73134e-05 -1.57273e-05
1.4427e-05 -1.31195e-05 -1.61374e-05
-1.57877e-05 -1.09848e-05 -1.62146e-05
-1.67998e-05 -3.81429e-07 -1.53774e-05
1.7306e-05 4.68749e-06 -1.57257e-05
6.55221e-08 -6.38733e-06 -1.02674e-05
1.74172e-06 -4.84847e-06 -9.0925e-06
5.85048e-06 -2.93552e-06 -1.03782e-05
-2.14442e-05 3.75052e-06 -1.64589e-05
5.72938e-06 -1.62745e-05 -1.55077e-05
9.08348e-06 -1.74991e-05 -1.59975e-05
1.75722e-05 1.18817e-05 -1.66723e-05
1.39943e-05 -1.63823e-05 -1.64013e-05
1.074e-05 -1.3789e-05 -1.55501e-05
-3.54798e-06 -4.2202e-06 -9.50078e-06
5.39913e-06 1.1385e-06 -9.49906e-06
5.21806e-06 3.22288e-06 -1.00472e-05
-1.74979e-06 -2.83546e-05 -1.78769e-05
1.89206e-06 5.2989e-06 -9.58446e-06
-1.13824e-07 6.10502e-06 -1.00388e-05
-3.78493e-06 4.12775e-06 -9.57842e-06
-5.62269e-06 3.03419e-06 -1.02853e-05
-5.16548e-06 1.04067e-06 -9.21362e-06
-7.52725e-06 -6.17393e-08 -1.11724e-05
-4.33438e-06 -8.10279e-07 -8.38187e-06
-3.10859e-06 1.87234e-06 -7.37408e-06
-2.20812e-05 -3.60776e-06 -1.65158e-05
2.34062e-05 -1.5688e-05 -1.78361e-05
-1.5072e-06 2.11679e-05 -1.66821e-05
2.12617e-05 -8.45198e-08 -1.62258e-05
1.76221e-05 -1.6468e-06 -1.55814e-05
1.73477e-05 -4.94168e-06 -1.57707e-05
2.18916e-05 -7.45112e-06 -1.69136e-05
-2.31822e-05 -1.42546e-05 -1.78327e-05
1.73246e-05 1.64887e-06 -1.55085e-05
-1.734e-06 2.84731e-05 -1.78941e-05
-4.22072e-07 3.68342e-06 -7.49531e-06
2.3772e-05 1.57424e-05 -1.78846e-05
-1.74974e-05 1.56423e-05 -1.6975e-05
-1.06262e-05 -1.84661e-05 -1.62551e-05
-1.00996e-05 -1.43423e-05 -1.55717e-05
-7.50778e-06 -1.60949e-05 -1.56221e-05
-7.32214e-06 -2.01205e-05 -1.63953e-05
-1.07045e-05 1.85353e-05 -1.62668e-05
-1.03473e-05 1.43841e-05 -1.56194e-05
-7.77265e-06 2.04924e-05 -1.64442e-05
-4.253e-06 1.86097e-05 -1.6053e-05
1.07597e-05 1.83455e-05 -1.62262e-05
1.38917e-05 1.69349e-05 -1.6431e-05
1.4042e-05 1.29729e-05 -1.60513e-05
-7.36159e-06 1.62883e-05 -1.56385e-05
1.05251e-05 1.45471e-05 -1.56452e-05
7.74876e-06 1.60923e-05 -1.5614e-05
-3.11647e-06 -1.89877e-06 -7.3932e-06
-7.25766e-06 -1.2422e-05 -1.46252e-05
3.00867e-06 4.03603e-08 -6.601e-06
4.87259e-06 1.35228e-05 -1.46181e-05
1.4076e-05 -2.26039e-06 -1.45705e-05
-1.72898e-05 -1.52167e-05 -1.69455e-05
-1.73665e-05 2.42031e-06 -1.55978e-05
-1.22047e-05 8.91196e-06 -1.49435e-05
-7.70565e-06 -2.29253e-06 -1.15547e-05
-1.24498e-05 1.18127e-05 -1.554e-05
-1.42736e-07 -3.75423e-06 -7.5542e-06
2.73024e-06 2.27208e-06 -7.25195e-06
-2.00387e-06 -1.46505e-05 -1.48081e-05
9.36512e-06 -1.00683e-05 -1.43894e-05
1.38608e-05 3.15782e-06 -1.45661e-05
-7.34006e-06 1.11994e-05 -1.42603e-05
4.99724e-06 -1.27748e-05 -1.43693e-05
1.10319e-05 1.04305e-05 -1.49197e-05
-3.59646e-06 1.46853e-05 -1.49081e-05
-4.63548e-06 -1.66169e-05 -1.55489e-05
-1.95071e-05 1.28925e-05 -1.71613e-05
-2.3127e-05 1.48582e-05 -1.78435e-05
-1.2905e-05 -1.26861e-05 -1.58126e-05
3.76081e-06 -1.58613e-06 -7.90698e-06
1.7644e-06 2.92229e-06 -7.08446e-06
-9.23052e-06 -1.06095e-05 -1.45318e-05
1.72775e-06 -2.82317e-06 -6.93109e-06
9.94734e-07 2.4117e-05 -1.73086e-05
2.13681e-05 1.11939e-05 -1.72987e-05
-1.46647e-05 -7.95342e-06 -1.54854e-05
1.37081e-05 -4.78634e-06 -1.46907e-05
-1.90989e-06 -2.17631e-05 -1.68028e-05
1.80605e-05 -8.4191e-06 -1.63408e-05
-1.6679e-05 -6.3286e-06 -1.57825e-05
-4.32902e-07 -1.92233e-06 -4.7985e-06
-1.80538e-06 2.99545e-06 -7.17721e-06
-2.50521e-05 -1.29819e-05 -1.79224e-05
-2.51273e-05 -1.45074e-05 -1.80022e-05
-2.50453e-05 1.30338e-05 -1.79061e-05
-2.51182e-05 1.465e-05 -1.79822e-05
-1.64846e-06 -3.12486e-06 -7.20995e-06
6.32798e-06 1.13684e-05 -1.40766e-05
5.33712e-07 -2.40862e-05 -1.73023e-05
-5.2278e-07 1.80955e-06 -4.64503e-06
7.4075e-06 -1.43437e-05 -1.51524e-05
2.3303e-05 -1.32094e-05 -1.77289e-05
2.36328e-05 -1.05376e-05 -1.74909e-05
1.19885e-05 -1.8211e-05 -1.62934e-05
1.47302e-05 -1.01467e-05 -1.57957e-05
-1.00271e-05 1.00125e-06 -1.27547e-05
-1.74002e-06 -8.15906e-07 -4.72348e-06
7.69068e-07 3.70837e-06 -7.57318e-06
2.34308e-06 -1.99717e-06 -6.55532e-06
2.01566e-05 5.89786e-06 -1.64537e-05
5.07012e-06 2.05961e-05 -1.64961e-05
3.42118e-07 -2.76802e-05 -1.78541e-05
-1.73124e-06 7.09115e-07 -4.60635e-06
-3.21152e-06 6.23051e-07 -6.82418e-06
3.57723e-06 1.47542e-06 -7.63666e-06
4.99226e-07 2.8324e-05 -1.79274e-05
2.47605e-05 1.37342e-05 -1.79185e-05
-2.03285e-05 1.55359e-05 -1.74291e-05
1.17871e-06 1.36448e-06 -4.45988e-06
-2.06397e-05 -1.57285e-05 -1.75277e-05
-1.8999e-05 -2.3222e-06 -1.59463e-05
-1.95593e-05 -5.58502e-06 -1.63324e-05
9.05687e-07 -3.24777e-06 -7.00614e-06
-4.36605e-06 -1.97894e-05 -1.63219e-05
-7.93733e-06 1.38345e-05 -1.51012e-05
1.16575e-06 -1.30419e-06 -4.33932e-06
1.19345e-05 -1.12284e-05 -1.52923e-05
6.1331e-06 -2.26962e-05 -1.68206e-05
-1.45222e-05 1.43555e-05 -1.63237e-05
7.92912e-06 1.33213e-05 -1.49481e-05
SCALARS effective_fluid_pressure_TPM float
LOOKUP_TABLE default
665
665
665
665
665
665
665
665
665
665
665
665
665
665
133
665
665
665
665
665
665
665
665
665
665
665
665
665
665
133
665
560.32
520.665
502.806
502.576
519.791
559.94
665
561.986
520.76
503.248
503.358
520.692
561.608
665
559.607
519.662
502.75
502.968
521.16
561.624
665
558.863
519.006
501.539
502.235
518.856
559.452
665
558.503
519.946
501.871
501.803
519.379
557.943
665
558.66
519.96
502.044
501.905
519.367
559.666
133
133
133
133
133
133
665
560.32
520.665
502.806
502.576
519.791
559.94
665
561.986
520.76
503.248
503.358
520.692
561.608
665
559.607
519.662
502.75
502.968
521.16
561.624
665
558.863
519.006
501.539
502.235
518.856
559.452
665
558.503
519.946
501.871
501.803
519.379
557.943
665
558.66
519.96
502.044
501.905
519.367
559.666
133
133
133
133
133
133
228.257
226.327
227.04
224.109
225.524
219.846
220.862
529.165
528.174
526.553
527.933
526.581
527.634
498.701
503.548
501.586
498.942
501.459
501.24
494.322
562.502
518.979
495.025
480.732
461.352
443.272
425.04
402.113
427.264
385.259
417.732
379.606
417.895
385.944
427.381
404.291
444.375
429.07
450.252
386.553
419.295
380.201
418.307
386.184
427.754
404.219
444.486
428.154
450.848
386.028
418.159
379.617
418.515
385.551
427.59
402.913
443.548
426.445
384.045
416.131
376.301
415.338
383.017
424.412
400.839
441.698
425.219
382.754
417.771
376.566
418.089
383.839
425.259
402.206
442.67
450.642
426.719
446
380.726
444.666
465.281
448.734
464.755
453.403
350.901
463.497
461.028
478.435
462.764
460.634
478.34
337.276
480.812
505.844
503.603
480.877
506.15
337.689
337.5
326.164
334.414
563.378
519.654
567.578
562.364
567.896
567.749
521.803
542.714
498.616
513.728
542.059
451.445
477.562
414.65
579.519
611.029
579.672
576.033
534.548
494.466
538.222
537.919
485.023
498.102
503.32
473.124
485.07
352.746
326.414
355.175
503.43
477.701
488.344
520.872
502.012
477.899
335.54
335.403
347.698
613.446
337.377
347.569
337.264
353.202
329.188
373.253
310.659
288.787
504.696
608.381
521.093
493.706
478.311
486.339
526.487
600.34
476.548
615.899
291.396
615.798
528.715
494.517
478.218
479.393
501.3
494.824
479.419
502.495
495.159
493.728
502.247
495.232
479.866
480.032
479.034
289.293
454.574
271.941
454.982
453.611
526.996
479.455
465.205
382.096
480.491
292.668
286.081
461.461
449.615
453.959
445.837
448.671
463.586
463.243
479.935
543.454
601.702
487.476
300.3
282.46
452.996
279.162
552.237
551.996
480.757
458
526.218
508.17
488.573
233.729
284.557
614.506
636.322
615.14
636.678
285.279
441.322
553.077
230.485
467.534
590.263
566.03
495.797
490.032
410.027
232.118
293.095
271.125
507.879
509.176
607.814
229.662
276.975
294.429
618.878
618.791
558.511
226.521
562.524
488.295
503.378
280.846
504.048
466.36
224.006
473.567
519.564
502.963
462.426
228.257
226.327
227.04
224.109
225.524
219.846
220.862
529.165
528.174
526.553
527.933
526.581
527.634
498.701
503.548
501.586
498.942
501.459
501.24
494.322
562.502
518.979
495.025
480.732
461.352
443.272
425.04
402.113
427.264
385.259
417.732
379.606
417.895
385.944
427.381
404.291
444.375
429.07
450.252
386.553
419.295
380.201
418.307
386.184
427.754
404.219
444.486
428.154
450.848
386.028
418.159
379.617
418.515
385.551
427.59
402.913
443.548
426.445
384.045
416.131
376.301
415.338
383.017
424.412
400.839
441.698
425.219
382.754
417.771
376.566
418.089
383.839
425.259
402.206
442.67
450.642
426.719
446
380.726
444.666
465.281
448.734
464.755
453.403
350.901
463.497
461.028
478.435
462.764
460.634
478.34
337.276
480.812
505.844
503.603
480.877
506.15
337.689
337.5
326.164
334.414
563.378
519.654
567.578
562.364
567.896
567.749
521.803
542.714
498.616
513.728
542.059
451.445
477.562
414.65
579.519
611.029
579.672
576.033
534.548
494.466
538.222
537.919
485.023
498.102
503.32
473.124
485.07
352.746
326.414
355.175
503.43
477.701
488.344
520.872
502.012
477.899
335.54
335.403
347.698
613.446
337.377
347.569
337.264
353.202
329.188
373.253
310.659
288.787
504.696
608.381
521.093
493.706
478.311
486.339
526.487
600.34
476.548
615.899
291.396
615.798
528.715
494.517
478.218
479.393
501.3
494.824
479.419
502.495
495.159
493.728
502.247
495.232
479.866
480.032
479.034
289.293
454.574
271.941
454.982
453.611
526.996
479.455
465.205
382.096
480.491
292.668
286.081
461.461
449.615
453.959
445.837
448.671
463.586
463.243
479.935
543.454
601.702
487.476
300.3
282.46
452.996
279.162
552.237
551.996
480.757
458
526.218
508.17
488.573
233.729
284.557
614.506
636.322
615.14
636.678
285.279
441.322
553.077
230.485
467.534
590.263
566.03
495.797
490.032
410.027
232.118
293.095
271.125
507.879
509.176
607.814
229.662
276.975
294.429
618.878
618.791
558.511
226.521
562.524
488.295
503.378
280.846
504.048
466.36
224.006
473.567
519.564
502.963
462.426

CELL_DATA 563
TENSORS stress float
164.611 -24.9205 -7.24754e-13
-24.9205 28.1488 -4.44326e-12
-7.24754e-13 -4.44326e-12 -12.604

-40.3386 -21.3203 -3.99221e-12
-21.3203 -7.35472 1.63454e-12
-3.99221e-12 1.63454e-12 -10.2319

-9.94021 28.0435 -1.80952e-12
28.0435 -1.11047 -2.2468e-12
-1.80952e-12 -2.2468e-12 -6.36042

-40.4268 -29.8426 -3.28996e-12
-29.8426 -12.8459 1.56719e-12
-3.28996e-12 1.56719e-12 -10.5982

-22.6923 19.9309 -1.61204e-12
19.9309 -1.92298 1.36972e-12
-1.61204e-12 1.36972e-12 -23.0213

-27.1397 -18.0746 -3.65574e-12
-18.0746 15.8879 -4.89623e-12
-3.65574e-12 -4.89623e-12 -6.41119

161.263 26.4846 1.7053e-13
26.4846 28.0254 1.80241e-12
1.7053e-13 1.80241e-12 -13.2629

-5.96156 29.958 -6.86266e-13
29.958 -10.1122 -2.77437e-12
-6.86266e-13 -2.77437e-12 -7.27641

34.6313 5.48318 3.62495e-12
5.48318 -19.0951 4.26159e-12
3.62495e-12 4.26159e-12 -4.12224

11.8602 -7.47758 2.66483e-12
-7.47758 -48.2873 6.84193e-13
2.66483e-12 6.84193e-13 -8.94714

104.195 16.3087 2.89191e-12
16.3087 -8.44353 -1.69879e-12
2.89191e-12 -1.69879e-12 -22.4542

-34.6377 -13.4533 -6.15064e-13
-13.4533 18.9658 -1.11141e-12
-6.15064e-13 -1.11141e-12 -7.18067

-6.02614 27.8333 -3.13823e-14
27.8333 -4.59155 -7.64426e-13
-3.13823e-14 -7.64426e-13 -6.15929

-35.5519 -14.3402 3.87485e-12
-14.3402 7.84499 7.28898e-13
3.87485e-12 7.28898e-13 -9.13146

-23.6537 33.311 -1.19608e-13
33.311 -24.994 -3.39094e-12
-1.19608e-13 -3.39094e-12 -21.365

21.3108 0.560986 2.48275e-12
0.560986 -32.3387 -9.75063e-13
2.48275e-12 -9.75063e-13 -5.58978

-48.9596 -17.9691 2.18279e-12
-17.9691 6.34286 -2.179e-13
2.18279e-12 -2.179e-13 -12.9462

11.6601 -2.6652 2.2693e-12
-2.6652 -43.249 1.94881e-12
2.2693e-12 1.94881e-12 -8.03368

-11.35 26.674 -2.57098e-12
26.674 19.5173 2.19617e-12
-2.57098e-12 2.19617e-12 -6.08956

21.7655 -4.19562 1.40155e-12
-4.19562 -35.2949 2.0887e-13
1.40155e-12 2.0887e-13 -6.7414

-24.4794 8.66871 1.0516e-12
8.66871 32.1276 9.43838e-13
1.0516e-12 9.43838e-13 -4.93439

-11.8087 6.28745 -1.85169e-12
6.28745 -11.9734 -4.22699e-12
-1.85169e-12 -4.22699e-12 -75.6189

22.7432 1.87599 -2.73796e-12
1.87599 -33.4692 4.71527e-12
-2.73796e-12 4.71527e-12 -6.67737

-12.3882 -27.7154 1.04687e-12
-27.7154 1.59957 2.48098e-13
1.04687e-12 2.48098e-13 -6.60286

21.3044 6.84943 -1.45898e-12
6.84943 -34.3043 -3.00796e-13
-1.45898e-12 -3.00796e-13 -6.80662

-37.9054 19.113 -2.14243e-12
19.113 2.65393 2.4493e-12
-2.14243e-12 2.4493e-12 -9.45777

106.603 4.18142 -4.39826e-12
4.18142 20.6027 7.66794e-14
-4.39826e-12 7.66794e-14 -12.0492

-5.30194 30.7461 6.56068e-13
30.7461 -7.27242 9.79957e-14
6.56068e-13 9.79957e-14 -7.44169

27.89 37.0748 2.70598e-12
37.0748 26.4691 1.82373e-13
2.70598e-12 1.82373e-13 -8.63228

-9.43911 10.3235 1.96169e-12
10.3235 -32.9295 -2.73651e-12
1.96169e-12 -2.73651e-12 -49.5079

19.8307 14.2169 -1.33227e-12
14.2169 -29.3594 -3.2269e-12
-1.33227e-12 -3.2269e-12 -6.00102

-4.21055 -17.7806 -5.6352e-12
-17.7806 59.6579 -9.91207e-13
-5.6352e-12 -9.91207e-13 -8.47618

66.2835 -42.102 -7.87992e-12
-42.102 71.1387 1.82136e-12
-7.87992e-12 1.82136e-12 -11.2519

-48.2097 5.98658 2.18453e-12
5.98658 7.26952 -2.60828e-12
2.18453e-12 -2.60828e-12 -41.037

-26.2911 -4.84041 -6.24404e-12
-4.84041 1.7567 1.19342e-12
-6.24404e-12 1.19342e-12 -37.8019

-1.46693 21.0278 -6.39755e-12
21.0278 -39.5061 -1.52515e-12
-6.39755e-12 -1.52515e-12 -41.1028

-43.9753 5.06723 -1.77887e-12
5.06723 0.514199 2.93602e-12
-1.77887e-12 2.93602e-12 -52.1902

-2.76023 -9.17007 6.17876e-13
-9.17007 -20.7696 -1.70849e-12
6.17876e-13 -1.70849e-12 -35.8964

-3.97437 -27.9983 1.65853e-12
-27.9983 -4.61057 3.97312e-13
1.65853e-12 3.97312e-13 -5.99463

65.5973 41.5213 -8.02913e-13
41.5213 73.1664 -1.67214e-12
-8.02913e-13 -1.67214e-12 -10.9637

60.1553 -17.9493 -5.09933e-12
-17.9493 0.116713 -1.26832e-12
-5.09933e-12 -1.26832e-12 -8.05015

-41.8031 -3.70582 2.74299e-12
-3.70582 -1.18565 2.48394e-13
2.74299e-12 2.48394e-13 -52.725

-14.5936 19.5551 -1.70353e-12
19.5551 -28.5513 8.21565e-13
-1.70353e-12 8.21565e-13 -52.8332

18.141 -12.2733 3.25251e-12
-12.2733 -29.8992 2.51503e-13
3.25251e-12 2.51503e-13 -6.22321

38.1732 -43.2994 -1.26358e-12
-43.2994 41.8012 -7.10069e-12
-1.26358e-12 -7.10069e-12 -14.5591

58.144 -18.0635 9.04758e-13
-18.0635 -2.30302 2.59585e-12
9.04758e-13 2.59585e-12 -7.91376

-21.4422 17.0858 9.92687e-13
17.0858 30.3272 3.66166e-12
9.92687e-13 3.66166e-12 -5.72848

-11.3729 19.3392 1.2473e-12
19.3392 25.5105 -2.60355e-12
1.2473e-12 -2.60355e-12 -3.92188

20.7911 -16.3011 3.81502e-12
-16.3011 -33.1146 2.63493e-14
3.81502e-12 2.63493e-14 -7.31182

12.6151 -34.1857 2.54493e-12
-34.1857 46.4355 -3.95535e-12
2.54493e-12 -3.95535e-12 -10.3974

62.3602 19.182 -6.61989e-13
19.182 2.81004 5.7175e-12
-6.61989e-13 5.7175e-12 -8.41406

46.5135 -25.2886 -2.46677e-12
-25.2886 5.13381 -7.86038e-13
-2.46677e-12 -7.86038e-13 -5.61015

-31.8958 19.4855 -7.03141e-13
19.4855 -4.28542 -2.69414e-12
-7.03141e-13 -2.69414e-12 -26.0853

37.039 29.6495 -1.34648e-12
29.6495 14.5125 5.92119e-13
-1.34648e-12 5.92119e-13 -5.43257

-27.4497 -21.8128 -1.78672e-12
-21.8128 -8.22865 9.45975e-13
-1.78672e-12 9.45975e-13 -25.2477

64.8687 -42.7115 -7.05806e-12
-42.7115 44.0801 5.02117e-12
-7.05806e-12 5.02117e-12 -9.50212

-27.7494 5.45941 -1.39e-13
5.45941 2.66928 4.34615e-13
-1.39e-13 4.34615e-13 -38.3075

-5.55808 -5.32983 -2.47091e-12
-5.32983 57.3881 -1.06345e-12
-2.47091e-12 -1.06345e-12 -5.44961

-0.200402 10.3843 1.40924e-13
10.3843 -24.8477 3.18016e-12
1.40924e-13 3.18016e-12 -38.3691

-26.4854 21.4132 9.11567e-13
21.4132 12.2195 3.94351e-13
9.11567e-13 3.94351e-13 -6.86981

4.72632 5.754 -1.20955e-12
5.754 -56.04 -2.55351e-13
-1.20955e-12 -2.55351e-13 -13.9809

0.539883 11.4589 -5.56888e-13
11.4589 -34.0567 1.80596e-12
-5.56888e-13 1.80596e-12 -14.8397

106.344 31.82 -1.62477e-12
31.82 37.8329 1.80241e-12
-1.62477e-12 1.80241e-12 -7.48958

-35.4919 -6.03527 -1.72055e-12
-6.03527 10.6012 -2.86763e-12
-1.72055e-12 -2.86763e-12 -13.4789

-35.36 9.51982 6.26462e-13
9.51982 1.23366 -1.53744e-12
6.26462e-13 -1.53744e-12 -14.96

-42.5878 -2.88089 1.29804e-12
-2.88089 21.1109 1.63839e-12
1.29804e-12 1.63839e-12 -11.2389

-44.9079 23.4019 -2.17311e-12
23.4019 -5.89262 -1.8859e-12
-2.17311e-12 -1.8859e-12 -13.9218

9.97103 8.46358 -3.46686e-13
8.46358 -42.3782 -4.47331e-12
-3.46686e-13 -4.47331e-12 -9.078

-12.3346 -28.2395 -5.32907e-15
-28.2395 1.68719 1.54839e-12
-5.32907e-15 1.54839e-12 -6.67403

1.30885 -1.71127 7.04177e-13
-1.71127 -55.4563 1.43322e-12
7.04177e-13 1.43322e-12 -11.3041

-31.8853 -19.2615 5.32167e-13
-19.2615 -4.59477 -1.92468e-12
5.32167e-13 -1.92468e-12 -25.9546

-27.9751 21.3078 -1.24375e-12
21.3078 -8.35847 6.80271e-13
-1.24375e-12 6.80271e-13 -26.013

-0.652032 -16.5835 3.46316e-12
-16.5835 61.6737 1.82728e-12
3.46316e-12 1.82728e-12 -7.94899

-0.650153 -27.9362 4.89742e-12
-27.9362 -21.3611 4.41721e-13
4.89742e-12 4.41721e-13 -12.791

-14.0933 -25.1348 -8.58572e-13
-25.1348 7.40676 6.33567e-13
-8.58572e-13 6.33567e-13 -5.23609

91.6783 -31.7107 -3.35139e-12
-31.7107 19.4849 -4.02345e-13
-3.35139e-12 -4.02345e-13 -16.3331

-33.7062 3.22268 -1.56497e-12
3.22268 9.19947 3.32771e-12
-1.56497e-12 3.32771e-12 -18.5634

2.75203 28.944 9.61601e-13
28.944 -24.4247 -5.18104e-14
9.61601e-13 -5.18104e-14 -11.3165

-38.4336 19.6642 3.34059e-12
19.6642 5.22969 1.26506e-12
3.34059e-12 1.26506e-12 -9.23525

50.1906 7.99958 -1.46017e-12
7.99958 -16.9641 1.62685e-12
-1.46017e-12 1.62685e-12 -7.067

60.0316 -33.9357 1.98123e-12
-33.9357 33.7868 -5.33262e-12
1.98123e-12 -5.33262e-12 -6.98374

-18.9603 -10.5874 4.9738e-14
-10.5874 -0.541588 4.6807e-13
4.9738e-14 4.6807e-13 -25.431

-33.926 23.8996 -4.23809e-12
23.8996 -12.0233 -2.58665e-12
-4.23809e-12 -2.58665e-12 -14.5403

58.1563 -32.384 -3.42008e-12
-32.384 18.0913 1.30266e-12
-3.42008e-12 1.30266e-12 -10.1338

66.8598 10.7911 -5.86198e-13
10.7911 8.51301 -1.82343e-12
-5.86198e-13 -1.82343e-12 -5.08445

7.67396 -21.2061 4.00184e-12
-21.2061 88.4648 -9.63259e-12
4.00184e-12 -9.63259e-12 -11.8623

-33.986 14.4257 3.62266e-12
14.4257 20.2383 2.09255e-12
3.62266e-12 2.09255e-12 -7.54652

8.47539 23.1431 -2.93632e-12
23.1431 -26.074 -5.62602e-12
-2.93632e-12 -5.62602e-12 -11.2991

34.8688 42.1989 -3.32771e-13
42.1989 46.1994 -8.06466e-13
-3.32771e-13 -8.06466e-13 -14.4205

-4.39441 16.5068 9.47346e-12
16.5068 -35.5412 -1.39e-12
9.47346e-12 -1.39e-12 -73.2857

-5.98019 -4.10838 8.79001e-13
-4.10838 57.9485 4.59484e-13
8.79001e-13 4.59484e-13 -5.4418

-1.81888 -16.632 -3.40417e-12
-16.632 -39.4012 2.88288e-12
-3.40417e-12 2.88288e-12 -74.1089

-3.32957 -27.3349 4.85597e-12
-27.3349 -30.0297 -1.62522e-12
4.85597e-12 -1.62522e-12 -21.554

8.96705 27.4246 -6.21725e-12
27.4246 -29.995 1.05693e-12
-6.21725e-12 1.05693e-12 -11.2572

45.7113 -24.4107 2.77112e-12
-24.4107 5.02411 -1.77784e-12
2.77112e-12 -1.77784e-12 -5.23622

10.0952 31.3234 -9.4739e-15
31.3234 47.1633 -1.70057e-12
-9.4739e-15 -1.70057e-12 -9.64044

14.2723 -10.7052 -1.70175e-12
-10.7052 82.8391 -3.25429e-12
-1.70175e-12 -3.25429e-12 -6.44704

-38.6331 21.9708 4.24105e-13
21.9708 2.9415 2.7951e-12
4.24105e-13 2.7951e-12 -8.56916

1.19275 16.7942 4.49122e-12
16.7942 -25.7223 -1.15197e-12
4.49122e-12 -1.15197e-12 -18.5675

-26.538 15.154 -3.74515e-14
15.154 18.4493 -5.8679e-13
-3.74515e-14 -5.8679e-13 -5.70813

43.6589 15.9539 -4.79616e-13
15.9539 -7.28532 -1.97264e-12
-4.79616e-13 -1.97264e-12 -4.07528

12.5768 -21.4726 7.14688e-13
-21.4726 57.9557 1.38556e-12
7.14688e-13 1.38556e-12 -4.7141

65.9966 -29.3908 5.45697e-12
-29.3908 18.6435 -1.75919e-12
5.45697e-12 -1.75919e-12 -9.33528

-32.3812 -24.5731 -5.43713e-12
-24.5731 -7.28174 5.86198e-13
-5.43713e-12 5.86198e-13 -8.97645

-22.6671 27.4511 2.4268e-12
27.4511 -10.3503 1.26033e-12
2.4268e-12 1.26033e-12 -9.28403

-38.3512 23.1876 -2.22222e-12
23.1876 1.99103 2.55203e-13
-2.22222e-12 2.55203e-13 -8.52505

-51.5534 13.1691 1.0999e-12
13.1691 11.9268 1.32753e-12
1.0999e-12 1.32753e-12 -16.4663

23.4847 9.37229 -4.99097e-12
9.37229 -29.488 1.78331e-12
-4.99097e-12 1.78331e-12 -5.32164

3.76846 -4.66507 5.27608e-12
-4.66507 79.4383 5.19644e-12
5.27608e-12 5.19644e-12 -9.53142

-44.9397 -36.8331 -1.40273e-12
-36.8331 -19.8288 -2.57564e-12
-1.40273e-12 -2.57564e-12 -14.7707

-16.0797 27.4654 -2.52243e-12
27.4654 1.34091 -2.10794e-12
-2.52243e-12 -2.10794e-12 -6.91482

-5.01549 2.17033 9.38509e-14
2.17033 82.6738 -6.71226e-12
9.38509e-14 -6.71226e-12 -13.4311

69.0456 34.6105 1.94926e-12
34.6105 15.4966 2.269e-12
1.94926e-12 2.269e-12 -10.7059

-31.352 -22.9739 1.4729e-13
-22.9739 -4.63252 -1.73787e-12
1.4729e-13 -1.73787e-12 -8.52998

11.743 5.73296 -5.45046e-13
5.73296 -48.336 1.5948e-12
-5.45046e-13 1.5948e-12 -8.64145

43.0657 27.2042 -3.246e-12
27.2042 10.4519 1.55135e-13
-3.246e-12 1.55135e-13 -5.08095

-9.41449 12.7454 -3.87468e-12
12.7454 -14.0393 1.76096e-12
-3.87468e-12 1.76096e-12 -37.04

70.3347 24.3306 5.56355e-12
24.3306 23.8048 3.9672e-14
5.56355e-12 3.9672e-14 -6.79952

-10.5857 -13.0549 2.43923e-12
-13.0549 -13.9211 1.49362e-12
2.43923e-12 1.49362e-12 -37.3778

-4.37982 0.778545 -5.60293e-12
0.778545 59.3981 -1.18424e-15
-5.60293e-12 -1.18424e-15 -4.8308

38.357 -2.23533 -1.13095e-12
-2.23533 -23.8111 1.5226e-12
-1.13095e-12 1.5226e-12 -5.83251

3.59364 -15.7678 -1.50043e-12
-15.7678 -53.9708 -7.0847e-13
-1.50043e-12 -7.0847e-13 -21.1241

-42.2771 24.3882 -6.22229e-13
24.3882 -11.737 2.08529e-12
-6.22229e-13 2.08529e-12 -11.1677

-46.8124 -13.535 -4.07615e-12
-13.535 11.0673 4.89505e-12
-4.07615e-12 4.89505e-12 -12.3539

5.81009 -7.99991 -8.42881e-13
-7.99991 -70.9673 1.90366e-13
-8.42881e-13 1.90366e-13 -14.882

-49.539 -22.2838 1.24937e-12
-22.2838 3.74834 -3.97904e-13
1.24937e-12 -3.97904e-13 -22.1041

-17.4591 -6.59675 4.86722e-12
-6.59675 -13.1157 -3.3887e-12
4.86722e-12 -3.3887e-12 -34.7809

-28.7298 -29.9082 -4.16585e-12
-29.9082 -9.39989 -1.72662e-12
-4.16585e-12 -1.72662e-12 -8.99618

15.6933 11.4537 9.11863e-14
11.4537 80.1805 -3.01981e-12
9.11863e-14 -3.01981e-12 -6.5307

42.29 -28.1466 2.07597e-12
-28.1466 11.0507 -1.42345e-12
2.07597e-12 -1.42345e-12 -5.04419

-47.1704 -13.772 1.75267e-12
-13.772 4.19616 -3.6365e-12
1.75267e-12 -3.6365e-12 -29.3003

2.96481 0.504499 2.3781e-12
0.504499 -56.812 -1.01104e-12
2.3781e-12 -1.01104e-12 -11.0054

-39.3367 -21.5245 2.17456e-13
-21.5245 -8.85721 -3.64153e-14
2.17456e-13 -3.64153e-14 -14.7743

-40.195 25.6977 4.68662e-13
25.6977 -14.6916 -1.42849e-14
4.68662e-13 -1.42849e-14 -11.311

32.2604 -31.4645 2.66572e-12
-31.4645 38.4294 -2.97717e-12
2.66572e-12 -2.97717e-12 -4.64827

-31.4687 -7.08474 -8.11203e-13
-7.08474 1.70048 -7.18536e-13
-8.11203e-13 -7.18536e-13 -40.992

36.63 -33.0769 -8.52651e-13
-33.0769 72.0274 -4.37457e-12
-8.52651e-13 -4.37457e-12 -7.14473

16.6126 -19.1797 2.78e-12
-19.1797 -25.8701 1.22065e-12
2.78e-12 1.22065e-12 -7.13344

1.50255 1.97042 6.92705e-13
1.97042 -51.3914 8.32223e-13
6.92705e-13 8.32223e-13 -15.3743

-12.8756 17.875 -2.2764e-12
17.875 -16.9551 1.1345e-12
-2.2764e-12 1.1345e-12 -41.0595

10.7129 20.1829 -3.57995e-12
20.1829 59.4542 -1.01489e-12
-3.57995e-12 -1.01489e-12 -4.35675

4.31823 27.2106 8.8581e-13
27.2106 -16.2237 -1.23753e-12
8.8581e-13 -1.23753e-12 -8.12437

30.9045 -24.5116 9.5568e-13
-24.5116 -8.13257 1.72484e-12
9.5568e-13 1.72484e-12 -4.87237

-37.7876 -17.8386 -4.54507e-12
-17.8386 2.40085 1.26181e-12
-4.54507e-12 1.26181e-12 -9.86459

55.5137 35.0683 6.62226e-12
35.0683 42.3454 1.69938e-12
6.62226e-12 1.69938e-12 -6.63631

-40.0151 -21.8311 -1.99248e-13
-21.8311 2.53684 1.03798e-12
-1.99248e-13 1.03798e-12 -9.3941

2.96648 30.8505 1.62892e-12
30.8505 -17.3885 -5.06765e-12
1.62892e-12 -5.06765e-12 -9.07839

18.5373 -25.2441 6.05146e-13
-25.2441 -19.4181 -4.65257e-12
6.05146e-13 -4.65257e-12 -6.34265

-15.6539 -25.1264 -3.15244e-12
-25.1264 5.89558 -2.89724e-12
-3.15244e-12 -2.89724e-12 -5.77572

42.7183 -18.6882 3.66285e-12
-18.6882 -9.16607 -4.25734e-12
3.66285e-12 -4.25734e-12 -5.36927

27.4319 -18.8496 -9.38153e-12
-18.8496 -20.3687 3.63709e-12
-9.38153e-12 3.63709e-12 -5.68994

-41.3938 -25.337 -1.63765e-12
-25.337 -14.9641 -3.89041e-12
-1.63765e-12 -3.89041e-12 -11.5672

29.7809 35.9694 4.00272e-12
35.9694 25.227 3.78956e-14
4.00272e-12 3.78956e-14 -8.6444

-28.5183 15.3768 2.04281e-14
15.3768 18.5188 2.96059e-14
2.04281e-14 2.96059e-14 -5.87414

-23.1081 26.4222 6.59324e-13
26.4222 -12.5468 2.37529e-12
6.59324e-13 2.37529e-12 -9.95822

-42.0966 25.4736 3.35815e-13
25.4736 -11.5925 4.70883e-12
3.35815e-13 4.70883e-12 -10.9929

-37.2886 11.6215 1.13932e-13
11.6215 11.8441 4.44208e-12
1.13932e-13 4.44208e-12 -9.0806

64.3931 -8.227 -2.68585e-12
-8.227 3.19746 9.00021e-14
-2.68585e-12 9.00021e-14 -4.25088

8.73369 18.6064 5.08156e-12
18.6064 59.22 -3.43903e-12
5.08156e-12 -3.43903e-12 -4.16236

-25.6147 -24.3805 1.80004e-13
-24.3805 0.458393 -2.02801e-13
1.80004e-13 -2.02801e-13 -7.21574

-1.14177 25.6659 -2.69414e-13
25.6659 13.7523 3.27264e-12
-2.69414e-13 3.27264e-12 -4.08283

32.3786 -35.6293 -2.65269e-13
-35.6293 21.7 1.7959e-12
-2.65269e-13 1.7959e-12 -8.48612

59.5362 38.3166 2.14347e-13
38.3166 17.8476 1.20674e-12
2.14347e-13 1.20674e-12 -13.7222

12.1249 -33.311 5.74888e-12
-33.311 42.9133 1.86044e-12
5.74888e-12 1.86044e-12 -9.54273

30.5512 -31.1596 -6.83305e-13
-31.1596 36.8135 -2.12926e-12
-6.83305e-13 -2.12926e-12 -4.40546

11.7689 -6.83865 4.5001e-13
-6.83865 -48.838 1.98834e-12
4.5001e-13 1.98834e-12 -8.77028

25.2744 30.3417 1.37253e-12
30.3417 41.0889 2.81967e-12
1.37253e-12 2.81967e-12 -4.45596

62.6821 13.2946 -2.83625e-12
13.2946 5.22798 -4.26592e-12
-2.83625e-12 -4.26592e-12 -4.30547

-7.02599 13.3788 9.77292e-13
13.3788 61.3442 -1.78583e-12
9.77292e-13 -1.78583e-12 -8.69497

11.7295 -22.3403 5.35631e-12
-22.3403 55.7632 -2.68111e-12
5.35631e-12 -2.68111e-12 -4.30143

-47.2605 -1.09164 1.88501e-12
-1.09164 12.4095 1.24227e-12
1.88501e-12 1.24227e-12 -22.1619

-5.91929 2.24661 -9.16156e-12
2.24661 59.0044 -4.45629e-12
-9.16156e-12 -4.45629e-12 -5.26252

6.26853 31.0892 -5.91527e-13
31.0892 47.8651 3.63087e-12
-5.91527e-13 3.63087e-12 -9.66052

-39.7254 12.1079 -6.74081e-13
12.1079 12.8447 3.87483e-12
-6.74081e-13 3.87483e-12 -9.31306

40.7382 -27.6476 9.45022e-13
-27.6476 8.35741 -4.51846e-12
9.45022e-13 -4.51846e-12 -5.64198

7.53981 20.557 2.37055e-12
20.557 -47.4669 1.44625e-12
2.37055e-12 1.44625e-12 -16.4817

-3.42124 26.2704 -1.43293e-13
26.2704 -31.4865 -3.70918e-12
-1.43293e-13 -3.70918e-12 -22.2523

15.7773 -18.5676 4.65583e-12
-18.5676 -30.0132 -2.97066e-12
4.65583e-12 -2.97066e-12 -8.18304

4.42857 -1.80143 4.00302e-12
-1.80143 -34.133 4.52172e-12
4.00302e-12 4.52172e-12 -24.4392

-14.3398 -31.8118 -1.66978e-12
-31.8118 -11.9305 3.12668e-12
-1.66978e-12 3.12668e-12 -9.04957

56.2183 23.3277 -2.85164e-12
23.3277 0.816611 -2.52657e-12
-2.85164e-12 -2.52657e-12 -8.28798

-27.8281 30.1621 1.40332e-12
30.1621 -9.23644 5.96264e-13
1.40332e-12 5.96264e-13 -8.80043

-27.0037 29.2059 2.25153e-12
29.2059 -9.20179 1.61204e-12
2.25153e-12 1.61204e-12 -8.67771

28.6285 30.6608 4.81866e-12
30.6608 40.4058 -2.74151e-12
4.81866e-12 -2.74151e-12 -4.44898

0.343092 27.0851 -2.73559e-12
27.0851 -19.8461 4.78551e-12
-2.73559e-12 4.78551e-12 -11.7771

64.5081 3.52515 7.11727e-13
3.52515 -11.826 -2.26804e-12
7.11727e-13 -2.26804e-12 -10.0184

-14.8998 31.8172 -1.87554e-12
31.8172 -20.7988 2.04814e-12
-1.87554e-12 2.04814e-12 -12.4475

-37.9443 -12.5996 9.72851e-13
-12.5996 8.18007 4.60254e-12
9.72851e-13 4.60254e-12 -14.0228

-0.474986 24.2781 -6.53995e-13
24.2781 -29.9992 4.12588e-12
-6.53995e-13 4.12588e-12 -20.7712

-23.7275 -29.5787 5.30183e-12
-29.5787 -11.9349 6.44225e-13
5.30183e-12 6.44225e-13 -8.84336

-38.1485 -4.89799 6.44762e-13
-4.89799 18.8466 2.09965e-12
6.44762e-13 2.09965e-12 -11.7301

69.9447 -24.5563 -2.06531e-12
-24.5563 18.0287 3.46982e-12
-2.06531e-12 3.46982e-12 -7.04432

39.9821 29.6931 -4.20523e-12
29.6931 13.4793 -9.85286e-13
-4.20523e-12 -9.85286e-13 -5.21506

-4.29636 14.6965 -4.86455e-12
14.6965 60.5714 -5.66066e-12
-4.86455e-12 -5.66066e-12 -8.4009

1.6114 -1.13893 -1.16322e-12
-1.13893 -56.1234 2.56536e-13
-1.16322e-12 2.56536e-13 -11.2093

9.61414 0.0022218 -1.27098e-12
0.0022218 -44.7542 -2.12971e-12
-1.27098e-12 -2.12971e-12 -8.43805

-31.079 23.124 2.55485e-12
23.124 -4.33722 4.04121e-13
2.55485e-12 4.04121e-13 -8.4585

-34.7624 23.871 8.88771e-13
23.871 -13.1926 3.57729e-12
8.88771e-13 3.57729e-12 -14.8131

-43.3787 -24.3808 2.07014e-12
-24.3808 -12.6139 2.04488e-12
2.07014e-12 2.04488e-12 -11.4687

-39.0593 -0.672847 -5.56962e-13
-0.672847 21.0463 -6.66134e-13
-5.56962e-13 -6.66134e-13 -10.4956

-40.8067 25.5904 -1.06389e-12
25.5904 -13.2226 -2.39712e-12
-1.06389e-12 -2.39712e-12 -11.1724

32.3217 -10.308 1.73905e-12
-10.308 -25.154 4.63333e-14
1.73905e-12 4.63333e-14 -6.01433

8.70654 -32.8336 -2.77941e-12
-32.8336 22.7976 4.40833e-12
-2.77941e-12 4.40833e-12 -6.99211

2.3968 -2.30086 -2.21601e-12
-2.30086 -49.9607 2.67342e-13
-2.21601e-12 2.67342e-13 -14.7727

36.7456 -34.5084 3.58469e-12
-34.5084 24.4796 -6.27054e-12
3.58469e-12 -6.27054e-12 -7.70916

-38.294 19.0861 -3.52266e-12
19.0861 -7.09361 -5.27637e-12
-3.52266e-12 -5.27637e-12 -14.4495

7.87072 -26.4788 -3.85351e-12
-26.4788 -27.9947 6.81973e-12
-3.85351e-12 6.81973e-12 -10.9691

63.9476 -9.6903 -2.32466e-12
-9.6903 5.67729 5.36253e-12
-2.32466e-12 5.36253e-12 -5.07234

6.04057 -23.192 -4.31773e-12
-23.192 -35.4682 2.56299e-12
-4.31773e-12 2.56299e-12 -17.736

0.141376 2.35829 1.97131e-12
2.35829 -56.1741 -3.655e-12
1.97131e-12 -3.655e-12 -11.5462

-4.06212 -23.3216 -1.18246e-12
-23.3216 -23.4117 -1.75756e-12
-1.18246e-12 -1.75756e-12 -16.7199

11.0387 -25.8595 1.24878e-12
-25.8595 -29.486 -6.9574e-13
1.24878e-12 -6.9574e-13 -9.73371

10.2013 -8.54621 6.54587e-13
-8.54621 -43.4902 2.91026e-13
6.54587e-13 2.91026e-13 -9.28154

-35.4181 -23.0682 2.27492e-12
-23.0682 -12.646 2.8403e-12
2.27492e-12 2.8403e-12 -15.1031

23.6643 -31.3421 -4.80801e-13
-31.3421 5.71226 9.23113e-13
-4.80801e-13 9.23113e-13 -5.87835

11.0597 -24.5874 -8.39625e-13
-24.5874 -27.4948 4.60284e-12
-8.39625e-13 4.60284e-12 -10.0482

46.6432 10.8645 1.96583e-12
10.8645 -16.1176 -3.36116e-12
1.96583e-12 -3.36116e-12 -6.79998

-14.1862 26.3403 1.2097e-12
26.3403 -15.64 -2.08826e-12
1.2097e-12 -2.08826e-12 -14.119

-45.2516 -37.6127 3.45797e-13
-37.6127 -20.6123 -6.72259e-12
3.45797e-13 -6.72259e-12 -14.9191

-43.7084 37.265 -1.18483e-12
37.265 -21.2661 -3.48247e-12
-1.18483e-12 -3.48247e-12 -14.7696

-61.1848 -28.5733 -4.31755e-12
-28.5733 -7.49707 1.40214e-12
-4.31755e-12 1.40214e-12 -15.1996

-58.4157 27.064 4.98897e-12
27.064 -6.2717 -2.35871e-12
4.98897e-12 -2.35871e-12 -14.4782

5.6006 -8.52755 3.83397e-13
-8.52755 -71.0637 5.95228e-13
3.83397e-13 5.95228e-13 -14.7098

4.39736 9.27356 -2.20268e-13
9.27356 -68.8324 -9.4591e-14
-2.20268e-13 -9.4591e-14 -14.4378

9.02394 -9.84626 2.96356e-13
-9.84626 -40.8902 -2.93617e-12
2.96356e-13 -2.93617e-12 -9.61199

-24.3355 32.1159 -1.62803e-12
32.1159 -24.8098 3.73238e-12
-1.62803e-12 3.73238e-12 -21.1452

-25.5229 -32.8539 3.33659e-13
-32.8539 -25.0959 -1.64082e-12
3.33659e-13 -1.64082e-12 -21.4693

-53.9195 16.0684 -3.2235e-12
16.0684 3.4016 -3.59209e-12
-3.2235e-12 -3.59209e-12 -21.4028

-52.4204 -15.8009 6.762e-13
-15.8009 3.29693 -1.11822e-12
6.762e-13 -1.11822e-12 -21.0761

6.11204 -3.74784 3.98851e-12
-3.74784 -43.9251 6.31199e-13
3.98851e-12 6.31199e-13 -25.7649

6.91818 3.6106 -2.11016e-12
3.6106 -46.3486 8.01433e-13
-2.11016e-12 8.01433e-13 -26.1412

-15.6262 9.83696 -5.18304e-12
9.83696 46.2627 2.16716e-13
-5.18304e-12 2.16716e-13 -5.84815

-22.9187 -24.7743 -2.15206e-12
-24.7743 -14.5524 5.33958e-12
-2.15206e-12 5.33958e-12 -10.33

-56.6034 -36.3874 3.90369e-12
-36.3874 -14.5326 2.33428e-12
3.90369e-12 2.33428e-12 -13.4373

33.3585 -4.66432 3.67114e-13
-4.66432 -19.8473 3.51611e-12
3.67114e-13 3.51611e-12 -3.94529

3.43333 -16.6945 1.08358e-12
-16.6945 -52.6285 -1.22746e-12
1.08358e-12 -1.22746e-12 -21.5326

3.67446 16.1755 -9.8721e-13
16.1755 -51.8842 1.25766e-12
-9.8721e-13 1.25766e-12 -21.4059

6.5557 0.121879 -1.18823e-12
0.121879 -76.7546 3.17073e-12
-1.18823e-12 3.17073e-12 -13.3041

-7.5699 23.3754 8.86402e-13
23.3754 39.9359 1.75741e-12
8.86402e-13 1.75741e-12 -6.88543

-56.8891 36.1714 -8.87808e-13
36.1714 -14.0113 4.98757e-12
-8.87808e-13 4.98757e-12 -13.389

-39.7947 -23.3958 1.65172e-12
-23.3958 2.56152 3.38603e-12
1.65172e-12 3.38603e-12 -8.80106

37.1169 23.353 4.34497e-12
23.353 -8.61342 1.89419e-12
4.34497e-12 1.89419e-12 -5.75879

4.73514 23.8583 -1.36187e-12
23.8583 -38.2259 5.43684e-12
-1.36187e-12 5.43684e-12 -18.9858

24.0135 -31.3139 -3.81325e-12
-31.3139 6.40815 3.36205e-12
-3.81325e-12 3.36205e-12 -5.64833

2.43075 -3.23109 -3.97016e-13
-3.23109 -48.3699 -6.987e-13
-3.97016e-13 -6.987e-13 -14.7427

-60.4575 -34.1609 8.46826e-12
-34.1609 -14.3498 -4.00998e-12
8.46826e-12 -4.00998e-12 -14.031

-17.453 8.32004 1.0526e-12
8.32004 45.692 3.23652e-12
1.0526e-12 3.23652e-12 -5.7812

-9.46917 21.8118 7.13237e-12
21.8118 40.4253 1.06581e-13
7.13237e-12 1.06581e-13 -6.65392

58.604 35.7762 4.98919e-12
35.7762 37.0882 -7.70939e-13
4.98919e-12 -7.70939e-13 -6.91592

70.4846 1.57877 2.97244e-12
1.57877 -5.54326 2.47994e-12
2.97244e-12 2.47994e-12 -10.3741

-30.7594 -22.8046 -9.91799e-14
-22.8046 -13.3565 -2.45056e-12
-9.91799e-14 -2.45056e-12 -14.4661

32.8414 31.1841 -2.00965e-12
31.1841 69.7948 2.69769e-12
-2.00965e-12 2.69769e-12 -6.67938

-19.3767 23.6101 5.17512e-13
23.6101 7.68689 -6.4541e-13
5.17512e-13 -6.4541e-13 -5.51347

47.6373 -5.3496 -3.91983e-13
-5.3496 -17.4337 3.59268e-12
-3.91983e-13 3.59268e-12 -6.82193

33.2196 11.2162 2.57039e-12
11.2162 -23.6373 -2.81493e-12
2.57039e-12 -2.81493e-12 -6.01409

6.25422 0.429901 -7.11283e-13
0.429901 -77.5519 2.00436e-12
-7.11283e-13 2.00436e-12 -13.4499

-58.9355 -29.031 -9.27406e-14
-29.031 -6.28812 -1.27335e-12
-9.27406e-14 -1.27335e-12 -14.6972

-28.3319 -6.31882 -3.91901e-12
-6.31882 -11.358 5.1544e-13
-3.91901e-12 5.1544e-13 -51.5882

-44.698 37.4114 6.54587e-13
37.4114 -20.8114 8.70304e-13
6.54587e-13 8.70304e-13 -14.7736

93.7912 1.6633 -2.1861e-12
1.6633 16.6553 -2.59326e-12
-2.1861e-12 -2.59326e-12 -6.04307

10.0363 -32.7873 8.75744e-13
-32.7873 21.3109 -3.27797e-12
8.75744e-13 -3.27797e-12 -6.80837

-56.9359 36.6128 -2.45344e-12
36.6128 -14.5712 1.48163e-12
-2.45344e-12 1.48163e-12 -13.5052

-35.0795 -11.1339 -1.0571e-12
-11.1339 19.1771 1.35418e-12
-1.0571e-12 1.35418e-12 -8.31661

-5.4778 -25.5148 3.31498e-12
-25.5148 37.3504 1.91254e-12
3.31498e-12 1.91254e-12 -6.9872

-58.452 28.8299 1.42086e-12
28.8299 -6.2715 -3.2833e-12
1.42086e-12 -3.2833e-12 -14.6143

28.4959 -26.1421 2.6894e-12
-26.1421 -4.91274 1.61175e-12
2.6894e-12 1.61175e-12 -4.69739

-21.1701 10.4835 -2.36907e-12
10.4835 -18.5589 2.37699e-12
-2.36907e-12 2.37699e-12 -51.6837

3.43266 30.8723 -6.70871e-13
30.8723 27.1626 -3.42245e-13
-6.70871e-13 -3.42245e-13 -6.73316

6.1405 8.12665 4.3275e-12
8.12665 -72.2975 -4.82444e-12
4.3275e-12 -4.82444e-12 -14.9844

-11.5458 30.1907 1.15078e-12
30.1907 -20.6032 9.47094e-13
1.15078e-12 9.47094e-13 -11.5493

-30.7978 23.332 -2.41792e-12
23.332 -5.09978 -1.60494e-12
-2.41792e-12 -1.60494e-12 -8.46455

-25.8637 -32.4885 1.41812e-12
-32.4885 -24.1126 1.36334e-12
1.41812e-12 1.36334e-12 -21.5588

9.20533 -23.1904 -1.90899e-12
-23.1904 -27.9224 1.16943e-12
-1.90899e-12 1.16943e-12 -11.4258

-37.661 10.4705 3.92471e-12
10.4705 8.92892 2.39749e-12
3.92471e-12 2.39749e-12 -25.3308

-23.0407 -23.4339 -1.33937e-12
-23.4339 4.95241 6.29067e-12
-1.33937e-12 6.29067e-12 -6.26319

88.804 -9.7079 2.45374e-12
-9.7079 10.8072 9.89579e-14
2.45374e-12 9.89579e-14 -10.0309

84.0441 -14.2773 2.89901e-12
-14.2773 2.81251 -3.50061e-12
2.89901e-12 -3.50061e-12 -13.1968

5.88781 16.5296 7.37484e-13
16.5296 -33.9324 -6.81825e-13
7.37484e-13 -6.81825e-13 -22.3759

-16.4216 22.5019 -3.34873e-12
22.5019 16.228 -4.10338e-13
-3.34873e-12 -4.10338e-13 -5.0855

-3.91245 29.1633 -1.02141e-12
29.1633 -12.23 -2.73737e-12
-1.02141e-12 -2.73737e-12 -8.39646

50.993 0.688675 -1.46135e-12
0.688675 -6.53212 1.86233e-12
-1.46135e-12 1.86233e-12 -3.63456

-48.1412 6.57109 -2.54519e-13
6.57109 14.7861 4.30648e-12
-2.54519e-13 4.30648e-12 -18.9524

10.1157 16.5407 7.06635e-12
16.5407 -36.0799 1.91787e-12
7.06635e-12 1.91787e-12 -9.13561

-4.50397 -25.7613 -1.26536e-12
-25.7613 35.5556 3.55035e-12
-1.26536e-12 3.55035e-12 -6.74716

-39.1915 -2.57233 1.83512e-12
-2.57233 21.5043 7.76268e-13
1.83512e-12 7.76268e-13 -10.6695

-7.99092 13.3653 4.97676e-13
13.3653 44.4055 1.54069e-12
4.97676e-13 1.54069e-12 -3.94446

3.73462 -29.7134 2.97125e-12
-29.7134 -17.365 2.43065e-12
2.97125e-12 2.43065e-12 -8.92069

21.4258 -29.9477 -4.66886e-12
-29.9477 14.756 1.59991e-12
-4.66886e-12 1.59991e-12 -3.91803

6.88076 31.6231 1.66208e-12
31.6231 25.4017 -3.46686e-12
1.66208e-12 -3.46686e-12 -6.82831

2.78543 -15.02 -2.03097e-13
-15.02 -39.2666 3.64686e-12
-2.03097e-13 3.64686e-12 -63.3101

-46.1596 2.04139 3.52237e-13
2.04139 11.4614 -1.22983e-12
3.52237e-13 -1.22983e-12 -22.7566

-55.4444 20.2999 -3.20025e-12
20.2999 3.09559 1.3148e-12
-3.20025e-12 1.3148e-12 -22.9158

5.91661 15.4388 -3.67839e-12
15.4388 -58.8183 -8.04986e-13
-3.67839e-12 -8.04986e-13 -23.0359

-18.9216 -26.1888 9.82325e-13
-26.1888 -12.9135 -5.93747e-12
9.82325e-13 -5.93747e-12 -9.65278

41.3462 17.9574 3.45324e-12
17.9574 -6.27128 2.22933e-13
3.45324e-12 2.22933e-13 -3.86157

-44.6825 -5.29391 -2.31482e-14
-5.29391 4.53834 2.4715e-12
-2.31482e-14 2.4715e-12 -39.1444

7.4993 -18.9881 -1.01548e-13
-18.9881 -39.8944 -1.65734e-12
-1.01548e-13 -1.65734e-12 -11.66

30.291 -15.5989 -3.77772e-13
-15.5989 -20.5088 2.26337e-13
-3.77772e-13 2.26337e-13 -4.80519

-9.63866 11.6033 2.22637e-12
11.6033 44.3193 5.3196e-12
2.22637e-12 5.3196e-12 -3.85923

8.33379 -25.7344 -4.06667e-12
-25.7344 32.9919 1.0066e-13
-4.06667e-12 1.0066e-13 -3.63317

-10.2446 -25.2738 4.09036e-12
-25.2738 -19.1005 -7.46366e-13
4.09036e-12 -7.46366e-13 -23.1746

17.005 31.9597 2.54552e-12
31.9597 11.1971 2.93573e-12
2.54552e-12 2.93573e-12 -5.74649

-1.06923 -25.1346 -6.46594e-13
-25.1346 -30.7629 2.0733e-12
-6.46594e-13 2.0733e-12 -20.8914

48.0652 2.59738 -8.86994e-13
2.59738 -8.40999 1.63388e-12
-8.86994e-13 1.63388e-12 -3.53174

6.5525 -28.9307 -8.42585e-13
-28.9307 72.0507 2.5248e-12
-8.42585e-13 2.5248e-12 -14.5515

21.7915 -29.2312 -4.49477e-12
-29.2312 13.9635 -2.42295e-12
-4.49477e-12 -2.42295e-12 -3.93042

35.3513 32.1592 1.32279e-12
32.1592 74.1346 -9.4739e-15
1.32279e-12 -9.4739e-15 -5.44167

-45.2834 -11.8768 -7.61872e-13
-11.8768 13.9221 -3.53613e-12
-7.61872e-13 -3.53613e-12 -15.3264

-14.4208 -13.8214 -2.94017e-12
-13.8214 43.3824 -9.73444e-13
-2.94017e-12 -9.73444e-13 -5.6728

-19.243 -23.9877 1.38008e-12
-23.9877 -19.8303 1.12997e-11
1.38008e-12 1.12997e-11 -64.2519

2.43808 23.771 2.42177e-13
23.771 36.0068 -1.73846e-12
2.42177e-13 -1.73846e-12 -3.71119

-15.1824 -32.7263 3.76203e-12
-32.7263 -21.1191 -5.50078e-13
3.76203e-12 -5.50078e-13 -14.313

-14.5654 -11.9632 3.06436e-12
-11.9632 45.5306 -9.03573e-13
3.06436e-12 -9.03573e-13 -5.73899

7.83556 -19.1168 -3.20692e-12
-19.1168 -43.1219 3.40705e-12
-3.20692e-12 3.40705e-12 -12.6321

6.54552 23.8772 -3.09264e-12
23.8772 35.1714 8.04098e-13
-3.09264e-12 8.04098e-13 -3.44215

23.1734 -4.9755 -1.91254e-13
-4.9755 -30.6764 9.42098e-13
-1.91254e-13 9.42098e-13 -5.3644

36.9704 -30.3428 2.76164e-12
-30.3428 122.627 -3.1477e-12
2.76164e-12 -3.1477e-12 -6.24168

-26.8694 21.0142 -1.0069e-12
21.0142 8.43422 -1.03621e-13
-1.0069e-12 -1.03621e-13 -7.13007

40.3384 -19.3234 9.71075e-13
-19.3234 -11.3726 -3.49528e-12
9.71075e-13 -3.49528e-12 -5.72602

6.52828 -21.4458 -6.06567e-12
-21.4458 -45.5581 -3.48462e-13
-6.06567e-12 -3.48462e-13 -24.9716

20.705 31.7542 -1.5774e-12
31.7542 9.55739 -3.02632e-12
-1.5774e-12 -3.02632e-12 -5.80605

13.9188 -29.9719 -1.86814e-12
-29.9719 -7.60585 5.03686e-12
-1.86814e-12 5.03686e-12 -5.94431

6.75492 20.8853 1.72307e-13
20.8853 -27.7923 1.05012e-12
1.72307e-13 1.05012e-12 -11.1088

-38.2742 -28.0759 5.4771e-12
-28.0759 -14.0379 -2.06938e-12
5.4771e-12 -2.06938e-12 -11.061

8.64623 -26.2254 3.4935e-12
-26.2254 31.1709 4.46813e-12
3.4935e-12 4.46813e-12 -3.63519

15.3313 28.9813 2.74625e-12
28.9813 19.1538 -1.73372e-12
2.74625e-12 -1.73372e-12 -3.88298

28.6403 26.1915 -9.2489e-13
26.1915 -5.63341 -1.06877e-13
-9.2489e-13 -1.06877e-13 -4.80199

7.91468 -14.6101 -2.05199e-12
-14.6101 -36.8777 6.17254e-12
-2.05199e-12 6.17254e-12 -13.9912

-6.84156 -16.6177 -2.50999e-12
-16.6177 41.3409 1.202e-12
-2.50999e-12 1.202e-12 -3.95942

17.4407 -17.5683 3.91213e-12
-17.5683 -30.9993 -3.68772e-12
3.91213e-12 -3.68772e-12 -7.1052

19.8418 16.9085 -5.06617e-12
16.9085 -31.6645 -3.00589e-12
-5.06617e-12 -3.00589e-12 -7.33448

-33.6797 -9.38662 -2.78592e-13
-9.38662 8.75606 -2.05347e-12
-2.78592e-13 -2.05347e-12 -23.9925

43.4316 -13.4301 1.92557e-12
-13.4301 -8.36893 1.18202e-12
1.92557e-12 1.18202e-12 -3.80416

-19.3787 0.594051 -1.23398e-12
0.594051 43.1454 -5.39302e-12
-1.23398e-12 -5.39302e-12 -4.77544

28.0559 18.555 4.22003e-12
18.555 -18.1991 -4.02907e-12
4.22003e-12 -4.02907e-12 -4.74969

25.5284 27.6041 2.49993e-12
27.6041 -3.77569 2.18818e-12
2.49993e-12 2.18818e-12 -4.77114

-6.71536 -15.6862 8.58572e-13
-15.6862 43.7986 -1.78228e-12
8.58572e-13 -1.78228e-12 -3.84795

-19.9067 -1.20229 1.06315e-12
-1.20229 42.1279 1.05752e-12
1.06315e-12 1.05752e-12 -4.68701

-5.47322 29.1344 -6.2883e-13
29.1344 -23.6467 -1.06137e-12
-6.2883e-13 -1.06137e-12 -16.7968

-37.2738 -10.9222 6.6939e-13
-10.9222 21.6799 1.42405e-12
6.6939e-13 1.42405e-12 -7.82998

27.1433 -26.7154 -9.71075e-13
-26.7154 -5.5308 -9.8647e-13
-9.71075e-13 -9.8647e-13 -4.94419

40.7191 21.3327 -9.4739e-13
21.3327 -8.37024 -1.94097e-12
-9.4739e-13 -1.94097e-12 -5.46752

12.378 23.6654 -1.06463e-12
23.6654 -27.1272 -1.77192e-12
-1.06463e-12 -1.77192e-12 -8.66692

-37.7966 5.47086 3.15895e-12
5.47086 23.3113 4.51787e-13
3.15895e-12 4.51787e-13 -8.59737

18.593 29.0657 -3.20336e-13
29.0657 17.3777 -3.34251e-12
-3.20336e-13 -3.34251e-12 -3.94706

-9.98893 22.9638 -3.26139e-12
22.9638 -14.9132 -1.84386e-12
-3.26139e-12 -1.84386e-12 -24.0258

68.317 -59.6921 -1.16482e-11
-59.6921 36.3355 1.08251e-11
-1.16482e-11 1.08251e-11 -23.0105

17.5308 -25.0479 1.92024e-12
-25.0479 -17.9921 3.23504e-12
1.92024e-12 3.23504e-12 -6.41763

10.0583 7.06995 -6.23057e-12
7.06995 82.551 7.06043e-12
-6.23057e-12 7.06043e-12 -7.16522

11.9203 -28.8894 -1.87939e-12
-28.8894 -3.88155 -1.77458e-12
-1.87939e-12 -1.77458e-12 -5.16576

-66.9446 -52.7015 9.87654e-13
-52.7015 143.252 -7.51754e-12
9.87654e-13 -7.51754e-12 -49.6687

-68.3879 51.4521 2.77704e-12
51.4521 142.539 2.78059e-12
2.77704e-12 2.78059e-12 -49.8578

19.5703 117.155 -1.09424e-12
117.155 64.1301 2.7948e-12
-1.09424e-12 2.7948e-12 -48.3593

20.5292 -117.098 1.99663e-12
-117.098 61.0269 -7.73544e-12
1.99663e-12 -7.73544e-12 -48.7241

157.745 -1.36338 4.20641e-12
-1.36338 -79.187 4.7388e-14
4.20641e-12 4.7388e-14 -48.911

110.327 -91.1263 7.42754e-12
-91.1263 -36.6895 -1.88768e-12
7.42754e-12 -1.88768e-12 -50.3056

110.38 91.6542 3.33481e-12
91.6542 -36.4998 -8.26598e-13
3.33481e-12 -8.26598e-13 -50.1784

7.84688 14.3304 -1.35151e-12
14.3304 -42.6816 2.76816e-12
-1.35151e-12 2.76816e-12 -15.079

-11.7908 25.5364 -1.3752e-12
25.5364 -27.4047 -7.44294e-12
-1.3752e-12 -7.44294e-12 -35.1374

12.4381 6.60609 3.93167e-13
6.60609 -40.5339 1.16277e-12
3.93167e-13 1.16277e-12 -8.25249

26.2548 21.7848 -4.87314e-13
21.7848 -19.5287 6.03961e-13
-4.87314e-13 6.03961e-13 -5.85086

-21.2303 17.7446 -3.84463e-12
17.7446 29.8684 6.57844e-13
-3.84463e-12 6.57844e-13 -6.16236

22.5303 28.8987 1.71714e-12
28.8987 -0.775513 2.57809e-12
1.71714e-12 2.57809e-12 -4.73077

4.05541 -29.6636 -3.26258e-13
-29.6636 -17.4663 -3.69009e-12
-3.26258e-13 -3.69009e-12 -8.5044

25.9952 28.028 4.92051e-13
28.028 -2.30173 -1.04805e-12
4.92051e-13 -1.04805e-12 -4.73117

-19.3472 -2.8413 1.36158e-12
-2.8413 43.0714 -5.32433e-12
1.36158e-12 -5.32433e-12 -4.76999

-13.4114 -26.0973 4.25378e-12
-26.0973 -25.8384 -1.44373e-12
4.25378e-12 -1.44373e-12 -35.5205

-19.8423 -4.86246 -2.00876e-12
-4.86246 41.7765 6.14619e-13
-2.00876e-12 6.14619e-13 -4.74385

-1.82697 23.0164 -3.05711e-12
23.0164 -24.3771 9.01649e-13
-3.05711e-12 9.01649e-13 -16.1498

44.9827 26.8709 -7.0474e-12
26.8709 8.11132 2.0961e-12
-7.0474e-12 2.0961e-12 -5.36911

-52.5084 -13.2161 1.81795e-12
-13.2161 0.150336 -3.48758e-13
1.81795e-12 -3.48758e-13 -20.6172

20.2805 13.728 -1.83912e-12
13.728 -31.1417 -4.35178e-12
-1.83912e-12 -4.35178e-12 -7.04301

13.7007 -29.9879 3.42837e-13
-29.9879 -6.69157 2.95793e-12
3.42837e-13 2.95793e-12 -5.83524

29.6309 -24.7137 -6.75016e-13
-24.7137 -7.87387 1.28105e-12
-6.75016e-13 1.28105e-12 -4.82514

5.76466 -16.0748 3.27146e-13
-16.0748 -32.3342 -7.4607e-13
3.27146e-13 -7.4607e-13 -22.2553

12.6276 27.9291 -5.62572e-12
27.9291 -13.6389 2.35663e-12
-5.62572e-12 2.35663e-12 -6.41961

23.309 23.9776 -4.11286e-12
23.9776 -17.9434 8.29559e-13
-4.11286e-12 8.29559e-13 -5.96238

-31.0771 -2.79292 1.07555e-12
-2.79292 30.1318 -2.11386e-12
1.07555e-12 -2.11386e-12 -6.39848

-28.6296 5.87338 5.97262e-13
5.87338 33.3215 -2.57572e-13
5.97262e-13 -2.57572e-13 -6.05934

34.5487 2.64673 7.4903e-13
2.64673 -26.1837 9.97461e-13
7.4903e-13 9.97461e-13 -6.14212

50.6516 -7.28973 -5.61329e-13
-7.28973 -14.082 7.96104e-13
-5.61329e-13 7.96104e-13 -6.7787

11.0411 30.485 3.42422e-12
30.485 -4.78772 -1.69346e-13
3.42422e-12 -1.69346e-13 -5.96619

17.4675 -26.1556 -2.84809e-13
-26.1556 -17.4551 1.84593e-12
-2.84809e-13 1.84593e-12 -6.35175

-0.0843419 -21.2544 -2.05436e-12
-21.2544 -27.956 -2.2915e-13
-2.05436e-12 -2.2915e-13 -17.1664

4.93891 -31.6339 -3.65101e-12
-31.6339 4.86134 -1.0368e-12
-3.65101e-12 -1.0368e-12 -5.93505

-8.22732 -27.7858 -3.68298e-12
-27.7858 18.5788 -3.08672e-12
-3.68298e-12 -3.08672e-12 -6.12967

-1.6504 29.8875 1.10549e-12
29.8875 10.4473 -3.32179e-13
1.10549e-12 -3.32179e-13 -5.8001

-26.0167 -9.578 -1.80581e-12
-9.578 32.9699 2.6219e-12
-1.80581e-12 2.6219e-12 -5.78701

-31.323 -1.54486 8.47248e-13
-1.54486 31.6509 1.43648e-12
8.47248e-13 1.43648e-12 -6.22332

-38.9156 5.74791 -6.69983e-13
5.74791 23.9465 -5.79092e-13
-6.69983e-13 -5.79092e-13 -9.18278

-17.2183 -21.0893 -8.35776e-13
-21.0893 26.5711 -7.21911e-12
-8.35776e-13 -7.21911e-12 -5.77175

13.0717 24.1114 -2.56802e-12
24.1114 -28.1013 1.1123e-12
-2.56802e-12 1.1123e-12 -9.20466

21.5551 -9.58984 -1.84682e-12
-9.58984 -31.7066 2.37736e-12
-1.84682e-12 2.37736e-12 -6.59785

-27.1537 7.46533 4.40636e-12
7.46533 34.3347 1.65793e-14
4.40636e-12 1.65793e-14 -5.87374

-35.2359 -9.70113 -1.78572e-12
-9.70113 22.3136 2.03097e-12
-1.78572e-12 2.03097e-12 -8.18324

-29.1558 -16.3308 -3.08553e-12
-16.3308 19.3468 -1.71418e-12
-3.08553e-12 -1.71418e-12 -6.66151

36.968 -8.23929 1.29082e-12
-8.23929 -20.2369 -2.55233e-12
1.29082e-12 -2.55233e-12 -5.10126

-14.8097 -32.3468 1.12799e-12
-32.3468 -21.6274 -4.1925e-12
1.12799e-12 -4.1925e-12 -12.9928

-22.8242 9.32101 -8.09871e-13
9.32101 33.3235 -8.48506e-13
-8.09871e-13 -8.48506e-13 -4.78857

-0.751099 -18.2127 -2.64944e-12
-18.2127 -35.1574 1.08225e-12
-2.64944e-12 1.08225e-12 -33.2772

4.93207 24.823 8.65086e-13
24.823 75.3074 1.42582e-12
8.65086e-13 1.42582e-12 -14.3189

-14.1418 -26.6263 -4.02937e-13
-26.6263 -16.3502 -2.09462e-13
-4.02937e-13 -2.09462e-13 -14.6406

-6.35706 -30.2029 -1.94097e-12
-30.2029 -23.6025 -3.62673e-13
-1.94097e-12 -3.62673e-13 -17.0876

-31.2709 -0.701239 1.75571e-12
-0.701239 31.5005 -2.05465e-13
1.75571e-12 -2.05465e-13 -6.34819

28.4878 -16.6227 -4.0649e-12
-16.6227 -18.0571 -2.28558e-13
-4.0649e-12 -2.28558e-13 -4.43778

-37.805 12.8417 1.5555e-12
12.8417 11.1651 1.59694e-12
1.5555e-12 1.59694e-12 -10.9888

-8.86117 -3.18062 -1.92046e-12
-3.18062 111.052 1.77873e-12
-1.92046e-12 1.77873e-12 -22.6715

-31.6027 14.2738 -4.37724e-13
14.2738 21.3504 -3.33245e-12
-4.37724e-13 -3.33245e-12 -7.12421

12.4218 -29.4896 6.05146e-13
-29.4896 -2.51962 -1.77458e-12
6.05146e-13 -1.77458e-12 -4.928

33.6322 25.1059 5.22249e-13
25.1059 124.031 3.71851e-12
5.22249e-13 3.71851e-12 -6.21403

-13.5024 26.0976 8.69971e-12
26.0976 -19.0972 -5.66495e-12
8.69971e-12 -5.66495e-12 -58.8941

-9.55263 -27.8069 -8.15274e-12
-27.8069 -22.8066 9.60624e-12
-8.15274e-12 9.60624e-12 -59.5445

-2.86592 -30.4194 -3.14534e-12
-30.4194 -7.32137 -5.86168e-12
-3.14534e-12 -5.86168e-12 -7.28715

3.86016 -31.1606 1.02022e-12
-31.1606 5.63556 -1.91018e-12
1.02022e-12 -1.91018e-12 -6.06227

25.1521 20.8277 2.00136e-12
20.8277 -17.0346 -3.23978e-12
2.00136e-12 -3.23978e-12 -4.97668

31.8053 15.0063 2.21156e-12
15.0063 -23.3013 -7.38964e-13
2.21156e-12 -7.38964e-13 -5.95456

-9.48845 3.08325 3.80037e-12
3.08325 -9.83037 6.52234e-12
3.80037e-12 6.52234e-12 -80.9357

-5.54881 -6.99969 1.3351e-11
-6.99969 -14.0414 -1.93362e-11
1.3351e-11 -1.93362e-11 -80.2885

11.7486 4.82429 2.54611e-12
4.82429 -43.2057 1.98656e-13
2.54611e-12 1.98656e-13 -7.82739

-35.0569 6.73112 -8.3733e-13
6.73112 24.3754 2.76934e-12
-8.3733e-13 2.76934e-12 -7.56384

-36.1107 6.73634 2.62239e-12
6.73634 24.4326 2.61835e-12
2.62239e-12 2.61835e-12 -8.30882

74.5875 58.6351 1.91373e-12
58.6351 34.1733 -2.77822e-12
1.91373e-12 -2.77822e-12 -21.8728

-6.92007 -28.2002 5.09755e-12
-28.2002 16.8753 3.45324e-12
5.09755e-12 3.45324e-12 -6.11657

8.172 17.9745 -2.22666e-12
17.9745 -44.8758 -2.1109e-13
-2.22666e-12 -2.1109e-13 -12.8966

32.7033 9.53984 3.27679e-12
9.53984 -19.0804 -7.39112e-13
3.27679e-12 -7.39112e-13 -4.07427

3.38772 -26.7237 -1.12384e-12
-26.7237 13.484 -4.4255e-12
-1.12384e-12 -4.4255e-12 -3.8269

26.2376 -20.2379 -3.61074e-12
-20.2379 -20.3233 -6.09882e-14
-3.61074e-12 -6.09882e-14 -5.86311

65.3914 60.2329 -2.65032e-12
60.2329 34.29 -9.0831e-13
-2.65032e-12 -9.0831e-13 -23.8676

-13.2425 31.0692 -9.46502e-13
31.0692 -16.8816 8.53836e-13
-9.46502e-13 8.53836e-13 -12.7858

-18.6045 -19.7864 8.37256e-13
-19.7864 28.4149 7.66616e-12
8.37256e-13 7.66616e-12 -5.96941

11.1744 28.858 -9.80549e-13
28.858 -13.3233 -7.09951e-13
-9.80549e-13 -7.09951e-13 -6.43605

-31.8694 -4.14493 2.8925e-12
-4.14493 30.148 6.86858e-14
2.8925e-12 6.86858e-14 -6.35776

-14.5966 19.6095 -9.07718e-13
19.6095 27.1854 1.71122e-13
-9.07718e-13 1.71122e-13 -4.41862

7.47923 30.5192 3.69127e-12
30.5192 -1.67046 -1.05338e-12
3.69127e-12 -1.05338e-12 -5.66039

-9.34505 -22.4735 1.67629e-12
-22.4735 23.1494 -4.73044e-12
1.67629e-12 -4.73044e-12 -4.17537

4.59048 -27.3529 3.35139e-13
-27.3529 11.4491 1.76451e-12
3.35139e-13 1.76451e-12 -3.93841

24.2721 11.2571 -2.01217e-12
11.2571 102.08 -4.26326e-14
-2.01217e-12 -4.26326e-14 -12.4048

37.4669 -33.4567 1.9161e-12
-33.4567 69.2864 1.54661e-12
1.9161e-12 1.54661e-12 -5.70307

-25.3356 -11.6907 1.04561e-12
-11.6907 31.3684 -1.01075e-12
1.04561e-12 -1.01075e-12 -5.6483

16.0965 26.4848 4.38583e-12
26.4848 -15.5021 -1.08772e-12
4.38583e-12 -1.08772e-12 -6.21735

4.95572 29.4783 1.99544e-12
29.4783 1.6369 -3.79548e-13
1.99544e-12 -3.79548e-13 -4.98988

-9.85482 -21.4342 2.17041e-12
-21.4342 25.121 5.07979e-12
2.17041e-12 5.07979e-12 -4.03316

-21.6349 -11.7826 -5.0863e-13
-11.7826 32.0823 8.33111e-13
-5.0863e-13 8.33111e-13 -4.63712

10.4629 28.4099 1.72603e-12
28.4099 -0.156477 1.69583e-12
1.72603e-12 1.69583e-12 -4.6728

-21.8471 -13.878 -2.76845e-12
-13.878 29.4675 -2.1565e-12
-2.76845e-12 -2.1565e-12 -4.84707

6.95858 27.8554 -2.91915e-12
27.8554 73.0858 5.4996e-12
-2.91915e-12 5.4996e-12 -14.3221

-45.8317 -4.04116 3.59027e-12
-4.04116 14.0479 1.37135e-12
3.59027e-12 1.37135e-12 -19.9648

0.877029 31.028 3.10448e-12
31.028 7.52031 1.06818e-12
3.10448e-12 1.06818e-12 -6.08902

9.7192 14.9014 8.23993e-12
14.9014 -36.4293 -2.47062e-12
8.23993e-12 -2.47062e-12 -10.9853

9.92861 -15.9277 -5.0034e-14
-15.9277 -39.4106 -4.88498e-13
-5.0034e-14 -4.88498e-13 -13.0691

85.6144 -24.2049 1.03739e-12
-24.2049 7.63581 5.82527e-12
1.03739e-12 5.82527e-12 -12.9579

-23.2071 -21.2675 3.10241e-12
-21.2675 10.5139 1.08476e-12
3.10241e-12 1.08476e-12 -6.16523

-16.6011 26.6986 -4.5904e-12
26.6986 1.77852 -3.32771e-12
-4.5904e-12 -3.32771e-12 -6.5877

-26.2012 -21.7278 -1.96199e-12
-21.7278 -5.36532 -3.80992e-12
-1.96199e-12 -3.80992e-12 -23.8669

-41.5963 14.1063 -1.06137e-12
14.1063 -3.55999 3.20692e-12
-1.06137e-12 3.20692e-12 -64.1263

-0.8935 9.44532 7.13355e-13
9.44532 -44.2587 -7.58208e-13
7.13355e-13 -7.58208e-13 -64.2277

-20.384 32.7053 -3.49617e-12
32.7053 -23.2026 -5.06854e-13
-3.49617e-12 -5.06854e-13 -24.3293

-11.4108 26.0008 1.24345e-13
26.0008 22.6042 4.51787e-12
1.24345e-13 4.51787e-12 -5.92565

16.0388 26.6617 4.24312e-12
26.6617 -17.2874 3.18057e-12
4.24312e-12 3.18057e-12 -6.54983

30.4286 45.1867 3.86535e-12
45.1867 47.5553 4.46931e-12
3.86535e-12 4.46931e-12 -15.195

-44.8881 -11.3434 5.03597e-12
-11.3434 -1.80799 4.50899e-13
5.03597e-12 4.50899e-13 -61.6825

-8.29815 -3.43275 6.38624e-12
-3.43275 -12.7545 -2.83492e-12
6.38624e-12 -2.83492e-12 -77.226

-14.6909 -0.209879 8.61533e-14
-0.209879 -6.41855 -2.55122e-12
8.61533e-14 -2.55122e-12 -77.3702

27.6655 -53.8032 5.90579e-12
-53.8032 71.1498 1.71951e-12
5.90579e-12 1.71951e-12 -24.3894

-11.6909 -11.5999 4.31255e-12
-11.5999 -16.2047 -8.1067e-12
4.31255e-12 -8.1067e-12 -37.4304

-32.6102 8.8128 4.16519e-12
8.8128 -9.4191 3.20958e-12
4.16519e-12 3.20958e-12 -49.5404

18.2562 -26.1998 1.23516e-12
-26.1998 -19.5466 -1.25144e-12
1.23516e-12 -1.25144e-12 -6.50659

-39.4302 1.01093 1.14312e-12
1.01093 11.9802 -1.1724e-12
1.14312e-12 -1.1724e-12 -19.7218

-30.2027 -20.2681 8.42437e-13
-20.2681 6.30508 -1.31273e-12
8.42437e-13 -1.31273e-12 -7.2161

10.5365 6.25536 6.30015e-13
6.25536 -52.39 -2.84669e-12
6.30015e-13 -2.84669e-12 -9.63973

-49.8127 15.5963 3.29921e-14
15.5963 10.1652 3.12135e-12
3.29921e-14 3.12135e-12 -13.5311

-40.2838 7.19154 1.46827e-12
7.19154 16.5414 -1.68695e-12
1.46827e-12 -1.68695e-12 -13.7742

16.4049 20.393 -3.72443e-12
20.393 -25.8411 5.1017e-12
-3.72443e-12 5.1017e-12 -7.60767

-9.10021 -3.1139 -1.73646e-12
-3.1139 108.396 9.66575e-12
-1.73646e-12 9.66575e-12 -23.1018

-3.32024 -27.624 1.53596e-12
-27.624 -3.62949 1.03443e-12
1.53596e-12 1.03443e-12 -5.83002

-7.33506 -26.1166 -1.99722e-12
-26.1166 -14.082 1.8631e-12
-1.99722e-12 1.8631e-12 -9.81072

-14.1984 -31.4837 -4.76656e-13
-31.4837 -21.7779 -3.99976e-13
-4.76656e-13 -3.99976e-13 -12.7556

90.7288 32.75 -3.24244e-12
32.75 20.9066 -2.72375e-14
-3.24244e-12 -2.72375e-14 -16.5058

-23.117 -20.1164 -3.72147e-13
-20.1164 -17.3851 1.92594e-12
-3.72147e-13 1.92594e-12 -44.4268

72.6311 54.3229 -3.87483e-12
54.3229 91.6415 -3.63561e-12
-3.87483e-12 -3.63561e-12 -6.14219

-36.2152 -21.4394 1.77236e-12
-21.4394 -6.79682 1.35595e-13
1.77236e-12 1.35595e-13 -13.043

15.034 14.6504 -2.51118e-12
14.6504 -37.7519 1.21384e-13
-2.51118e-12 1.21384e-13 -8.17879

44.573 -14.5726 8.24703e-12
-14.5726 -8.27217 7.9714e-13
8.24703e-12 7.9714e-13 -4.41855

-21.2308 24.0469 2.73263e-13
24.0469 4.95554 9.84102e-13
2.73263e-13 9.84102e-13 -5.97641

17.3732 20.4281 1.70589e-12
20.4281 -26.7926 -8.80185e-13
1.70589e-12 -8.80185e-13 -6.95149

-51.1398 11.4004 -2.48853e-12
11.4004 7.71037 7.31267e-14
-2.48853e-12 7.31267e-14 -29.9938

-7.28712 -31.5804 1.56142e-12
-31.5804 -12.8268 3.66137e-12
1.56142e-12 3.66137e-12 -8.1191

2.79652 19.8123 1.25884e-12
19.8123 -46.0331 6.72055e-13
1.25884e-12 6.72055e-13 -29.9857

-24.6712 -18.4437 3.80318e-12
-18.4437 17.8362 -2.62723e-12
3.80318e-12 -2.62723e-12 -5.4801

-42.3406 4.28328 -3.2672e-13
4.28328 17.8694 8.17716e-13
-3.2672e-13 8.17716e-13 -12.7281

-4.09805 9.92689 9.444e-12
9.92689 -40.2755 -5.67176e-12
9.444e-12 -5.67176e-12 -47.5479

-2.6883 -8.51353 -3.24244e-12
-8.51353 -38.3067 1.59073e-12
-3.24244e-12 1.59073e-12 -47.4037

81.7234 18.5126 2.59585e-12
18.5126 1.70002 -3.39935e-12
2.59585e-12 -3.39935e-12 -14.4532

3.89497 7.96511 -5.6577e-13
7.96511 -45.1833 -3.6815e-13
-5.6577e-13 -3.6815e-13 -11.0183

35.8723 7.74059 9.29331e-13
7.74059 184.574 -6.24804e-12
9.29331e-13 -6.24804e-12 -9.75694

40.1458 -11.3853 -5.25724e-12
-11.3853 190.372 4.92643e-13
-5.25724e-12 4.92643e-13 -7.38875

53.7653 56.4072 5.34328e-12
56.4072 159.256 -3.45324e-12
5.34328e-12 -3.45324e-12 -11.4996

1.70881 -28.9506 -2.76283e-12
-28.9506 -24.6908 -3.03491e-12
-2.76283e-12 -3.03491e-12 -11.9628

16.0492 -49.1908 -7.0249e-12
-49.1908 99.4196 -1.79767e-12
-7.0249e-12 -1.79767e-12 -21.6891

54.5131 -55.9497 -2.6669e-12
-55.9497 149.973 7.29964e-12
-2.6669e-12 7.29964e-12 -13.6645

-2.16581 26.2204 -2.4342e-12
26.2204 17.5727 1.54543e-13
-2.4342e-12 1.54543e-13 -3.99592

134.939 73.8441 4.5759e-12
73.8441 85.0252 2.71427e-12
4.5759e-12 2.71427e-12 -10.1587

-18.7201 13.0472 -5.98632e-13
13.0472 -3.90003 9.0831e-13
-5.98632e-13 9.0831e-13 -26.7692

3.74105 0.0396943 -1.28697e-12
0.0396943 -26.189 -1.43441e-12
-1.28697e-12 -1.43441e-12 -26.7725

144.098 -73.1295 -6.96332e-13
-73.1295 85.3526 -4.34852e-12
-6.96332e-13 -4.34852e-12 -8.19597

-21.3931 -23.4242 4.1999e-12
-23.4242 12.2481 -9.8351e-13
4.1999e-12 -9.8351e-13 -6.49114

89.3467 34.7294 -1.6082e-12
34.7294 41.3901 2.63256e-12
-1.6082e-12 2.63256e-12 -11.548

72.1874 63.4911 -1.26713e-12
63.4911 149.693 4.73695e-15
-1.26713e-12 4.73695e-15 -9.67333

26.1646 21.6303 -7.87992e-12
21.6303 100.134 1.11792e-12
-7.87992e-12 1.11792e-12 -13.0314

73.8742 -65.9199 -6.15093e-12
-65.9199 151.144 -6.2812e-12
-6.15093e-12 -6.2812e-12 -9.40186

25.7691 -12.3812 -3.55863e-12
-12.3812 105.013 1.26808e-11
-3.55863e-12 1.26808e-11 -12.4284

-28.6639 6.84145 6.85392e-12
6.84145 3.10692 5.41197e-13
6.85392e-12 5.41197e-13 -37.853

37.7429 -45.9751 4.47642e-12
-45.9751 49.6694 6.21843e-12
4.47642e-12 6.21843e-12 -15.5324

14.4439 47.5321 -1.60583e-12
47.5321 94.88 2.49637e-12
-1.60583e-12 2.49637e-12 -22.1923

173.339 37.9115 5.77908e-13
37.9115 48.0418 -1.7355e-12
5.77908e-13 -1.7355e-12 -9.52198

7.02071 -29.2859 -3.12106e-12
-29.2859 -14.3585 -2.53782e-12
-3.12106e-12 -2.53782e-12 -7.15605

-38.4176 12.8966 5.36001e-12
12.8966 6.43536 1.33641e-12
5.36001e-12 1.33641e-12 -15.2905

88.505 -38.1127 -3.88667e-12
-38.1127 34.163 1.90899e-12
-3.88667e-12 1.90899e-12 -14.0996

6.04176 -28.8023 -2.5544e-12
-28.8023 -16.172 3.04172e-12
-2.5544e-12 3.04172e-12 -8.0299

169.205 -36.3434 5.5375e-12
-36.3434 34.9291 3.77772e-12
5.5375e-12 3.77772e-12 -13.2898

-5.72517 -28.3176 -2.97125e-12
-28.3176 -14.473 -1.09542e-13
-2.97125e-12 -1.09542e-13 -9.30944

-17.7907 -25.2951 -7.52583e-13
-25.2951 12.0803 -5.02176e-12
-7.52583e-13 -5.02176e-12 -5.9343

118.876 69.4606 -1.75267e-12
69.4606 96.2191 -1.84741e-12
-1.75267e-12 -1.84741e-12 -11.4

29.413 -22.9329 -1.7882e-12
-22.9329 97.7964 1.62738e-11
-1.7882e-12 1.62738e-11 -14.34

117.959 -71.6926 6.37594e-12
-71.6926 93.6806 3.54324e-12
6.37594e-12 3.54324e-12 -12.416

22.2647 50.7376 4.0797e-12
50.7376 73.7786 -8.31335e-13
4.0797e-12 -8.31335e-13 -24.7774

-1.53637 -30.2124 2.60532e-14
-30.2124 -6.55262 1.58392e-12
2.60532e-14 1.58392e-12 -6.99791

-7.04487 -14.6404 -2.22874e-12
-14.6404 -21.9195 -3.93581e-12
-2.22874e-12 -3.93581e-12 -32.6139

-11.8919 11.0923 3.29292e-12
11.0923 -16.4301 -1.40613e-12
3.29292e-12 -1.40613e-12 -77.7924

-26.1682 -5.16005 -7.80709e-13
-5.16005 -6.38733 -5.21781e-12
-7.80709e-13 -5.21781e-12 -77.6261

-38.9414 13.0837 -1.68959e-12
13.0837 13.7444 1.78405e-12
-1.68959e-12 1.78405e-12 -10.2389

-14.4804 -10.6667 -8.27538e-12
-10.6667 -17.3176 -7.39394e-12
-8.27538e-12 -7.39394e-12 -78.7551

-25.902 4.09183 4.24845e-14
4.09183 -5.91382 1.29965e-11
4.24845e-14 1.29965e-11 -78.8973

-3.6336 7.4337 2.93824e-12
7.4337 -27.86 4.24712e-12
2.93824e-12 4.24712e-12 -77.9846

-43.9745 -12.1148 6.64243e-12
-12.1148 2.91627 -3.5083e-13
6.64243e-12 -3.5083e-13 -68.1564

11.9736 -30.4703 8.87053e-12
-30.4703 76.1635 -1.71004e-12
8.87053e-12 -1.71004e-12 -14.701

0.521686 -12.9721 1.22036e-12
-12.9721 -39.9903 -8.09427e-13
1.22036e-12 -8.09427e-13 -45.2762

-16.3487 -34.4175 -1.43056e-12
-34.4175 -22.0688 -5.6198e-12
-1.43056e-12 -5.6198e-12 -23.5899

-2.42075 -18.1769 7.68215e-12
-18.1769 -29.895 -2.13533e-12
7.68215e-12 -2.13533e-12 -33.6261

12.7382 15.4594 -6.68502e-13
15.4594 -37.7165 -2.83003e-12
-6.68502e-13 -2.83003e-12 -9.6253

-46.9077 9.86398 -6.26184e-12
9.86398 8.87742 5.96264e-13
-6.26184e-12 5.96264e-13 -70.1522

3.46247 19.2273 -8.29263e-12
19.2273 -41.4713 3.90536e-12
-8.29263e-12 3.90536e-12 -70.268

1.47211 11.3066 -2.17367e-12
11.3066 -23.9649 2.06724e-12
-2.17367e-12 2.06724e-12 -31.8673

109.393 -15.3395 -6.1912e-12
-15.3395 -12.5355 -1.66385e-12
-6.1912e-12 -1.66385e-12 -25.037

-14.3206 24.9643 -9.9328e-13
24.9643 10.3861 -3.70903e-12
-9.9328e-13 -3.70903e-12 -5.80479

76.6076 -61.3552 1.17263e-11
-61.3552 37.3658 8.47914e-13
1.17263e-11 8.47914e-13 -22.3951

76.1147 -57.4577 8.93389e-12
-57.4577 99.2292 -3.07902e-14
8.93389e-12 -3.07902e-14 -5.55506

118.197 -36.5444 -5.30065e-12
-36.5444 40.6012 6.28712e-12
-5.30065e-12 6.28712e-12 -7.37832

-51.1134 -5.15892 3.099e-12
-5.15892 3.34056 -5.47236e-12
3.099e-12 -5.47236e-12 -60.659

-50.4774 2.89126 -4.55073e-12
2.89126 3.13482 -5.34373e-12
-4.55073e-12 -5.34373e-12 -60.1315

-11.9755 -24.4558 5.70507e-13
-24.4558 -35.0028 -3.63531e-12
5.70507e-13 -3.63531e-12 -59.1657

-8.99179 -21.76 -4.23602e-12
-21.76 -37.8876 1.05338e-12
-4.23602e-12 1.05338e-12 -59.4753

-14.7025 26.1354 -2.48749e-12
26.1354 -33.0271 3.17361e-12
-2.48749e-12 3.17361e-12 -60.7502

-18.1571 3.09912 -1.02728e-11
3.09912 -13.1643 -1.38937e-11
-1.02728e-11 -1.38937e-11 -75.4769

-9.94501 -20.5085 2.72878e-12
-20.5085 -32.6502 -1.71663e-12
2.72878e-12 -1.71663e-12 -56.7361

-26.6477 -18.568 -6.64017e-12
-18.568 -14.1959 -8.8061e-12
-6.64017e-12 -8.8061e-12 -71.2709

-15.4785 2.43426 1.57111e-11
2.43426 -12.8525 2.98472e-12
1.57111e-11 2.98472e-12 -77.8713

-6.02746 -20.5258 2.80287e-12
-20.5258 -41.4866 -1.33079e-12
2.80287e-12 -1.33079e-12 -60.5063

-6.75673 20.9554 -7.54456e-12
20.9554 -40.1429 9.23706e-13
-7.54456e-12 9.23706e-13 -60.0175

-14.3157 -3.45827 -1.78921e-11
-3.45827 -11.3901 9.97706e-12
-1.78921e-11 9.97706e-12 -76.8858

-11.2638 -3.11684 -1.08941e-11
-3.11684 -17.6888 3.7073e-11
-1.08941e-11 3.7073e-11 -74.0487

-24.2034 12.1097 1.12257e-11
12.1097 -13.4006 -1.66812e-11
1.12257e-11 -1.66812e-11 -69.9671

-22.0822 26.9292 1.76896e-12
26.9292 -26.2667 4.44683e-12
1.76896e-12 4.44683e-12 -57.5817

VECTORS fluid_flux_TPM float
-8.72148e-05 3.10267e-05 1.75984e-20
3.55933e-06 6.88214e-06 3.34906e-21
-1.27866e-05 -1.02249e-05 -1.75214e-20
-4.17033e-06 4.25377e-06 3.98176e-21
2.27064e-05 -6.31293e-06 -2.90144e-20
2.75743e-06 -1.59026e-05 5.78431e-22
-8.57908e-05 -3.10915e-05 3.30164e-20
-1.38915e-05 -1.04662e-05 8.05355e-21
2.21205e-05 9.45466e-07 -8.80094e-22
1.13834e-05 -3.90787e-06 3.32874e-21
5.4598e-05 1.24834e-05 4.4898e-22
2.34673e-06 -1.71931e-05 -1.52798e-20
1.36107e-05 1.12532e-05 -1.6695e-20
2.66193e-06 1.37838e-05 -1.32825e-20
2.05798e-05 -2.94648e-06 -1.38977e-20
-1.63314e-05 -2.72883e-07 7.58816e-22
2.75337e-06 1.4098e-05 9.58242e-21
1.01812e-05 -2.39175e-06 -4.72816e-21
9.89807e-06 1.72218e-05 2.50109e-21
-1.48476e-05 1.88536e-06 -3.46274e-21
-3.60097e-06 -2.13029e-05 -1.8825e-20
3.41097e-05 5.94153e-05 2.19352e-20
1.56966e-05 1.63122e-06 6.08814e-21
1.12267e-05 -1.12809e-05 -1.11904e-20
-1.50776e-05 -3.33223e-06 6.07328e-21
-6.77186e-07 -1.11302e-05 -8.66777e-21
6.29012e-05 -4.9083e-06 5.64185e-22
1.40653e-05 1.02484e-05 -2.73955e-20
-2.51486e-05 -2.0642e-05 -1.11055e-20
4.91186e-05 -1.28135e-05 -3.79107e-21
-1.65817e-05 -6.03805e-06 -1.22639e-20
5.53691e-06 -3.20358e-05 -1.35342e-20
4.76532e-05 -4.80461e-05 -5.53003e-21
-4.92323e-06 -4.12468e-05 -3.64525e-20
-2.96726e-05 3.70045e-05 1.55711e-20
-3.82466e-05 -1.63947e-05 -1.61105e-20
3.27018e-05 4.32145e-05 3.77138e-22
-4.47398e-05 -8.72567e-06 9.52037e-23
1.43741e-05 -1.10815e-05 -6.10453e-21
4.6469e-05 5.01141e-05 7.29565e-21
3.21287e-05 -1.40217e-05 -1.11225e-20
3.36393e-05 -4.23426e-05 -2.54061e-20
-1.9896e-05 -5.03774e-05 -2.41658e-20
-1.58975e-05 6.35662e-06 -8.25547e-21
3.05248e-05 -2.93137e-05 6.11785e-21
-3.03319e-05 1.099e-05 -4.75514e-21
-4.05012e-06 -2.03702e-05 1.77294e-20
7.88597e-06 2.02114e-05 -4.18702e-21
-1.63422e-05 5.92774e-06 4.02027e-21
-1.78196e-05 2.87253e-05 1.15463e-20
3.24082e-05 1.52906e-05 1.37776e-20
2.93648e-05 -1.0075e-05 -9.28382e-21
-1.56662e-05 1.57603e-05 1.64591e-20
-2.3541e-05 -2.06901e-05 -2.23008e-21
-2.11397e-05 -5.13241e-06 -6.83318e-22
-4.47912e-05 2.70759e-05 1.88135e-20
-2.93718e-05 -3.8023e-05 -2.65266e-20
6.36342e-06 -3.06278e-05 -1.35866e-20
-4.77077e-05 6.48287e-06 -2.05734e-20
6.07411e-06 1.3697e-05 -4.27372e-21
-5.57684e-06 -8.17349e-06 -2.47388e-20
-6.58359e-06 -1.79437e-05 -1.39353e-20
5.71445e-05 2.48599e-05 1.84017e-22
9.24294e-06 1.81445e-05 1.24588e-20
1.22967e-05 -1.44452e-05 -5.62643e-21
-1.6406e-06 -2.07528e-05 -8.69083e-21
4.62116e-06 -8.80566e-06 -7.77768e-21
-1.00907e-05 -5.56497e-06 -1.21378e-20
-1.06028e-05 1.19295e-05 -1.22263e-20
2.55824e-06 -4.09266e-06 -1.17246e-20
-1.50437e-05 -1.58435e-05 -6.52441e-21
-2.13653e-05 5.16601e-06 -7.25414e-21
-3.55687e-06 3.4482e-05 2.79426e-21
-1.78722e-05 1.07111e-05 4.30917e-21
-9.07098e-06 1.4615e-05 7.28412e-21
-6.03561e-05 7.6923e-06 1.75469e-20
7.81822e-06 -2.1682e-05 -1.1878e-21
-1.88805e-05 -8.90026e-06 3.13501e-21
1.93376e-06 1.16243e-05 -9.92379e-21
2.63015e-05 5.08975e-06 -1.33423e-20
3.41698e-05 -2.89757e-05 -1.95826e-20
2.21469e-05 2.05566e-05 7.69584e-21
1.19087e-05 -2.82239e-06 -3.22495e-20
-3.21545e-05 2.40677e-05 8.9294e-21
3.79053e-05 4.84597e-06 -9.72583e-21
-4.98092e-06 4.94159e-05 -7.21381e-21
-1.74115e-06 -1.68575e-05 -8.77449e-21
1.81243e-05 9.9549e-06 -1.95171e-20
2.93182e-05 3.02865e-05 6.42345e-21
5.50261e-05 3.80144e-05 8.23002e-21
-5.33147e-06 3.07736e-05 2.77426e-20
5.91812e-05 -3.55134e-05 -1.08178e-20
-2.71255e-05 5.34131e-06 2.70838e-20
1.78397e-05 1.10021e-05 -8.27852e-21
-2.96419e-05 9.90358e-06 -1.44428e-21
1.66535e-05 2.85219e-05 -1.46735e-20
1.01691e-05 -4.43878e-05 -7.12406e-21
1.91553e-06 1.16211e-05 -2.20704e-21
-1.48011e-05 -1.76206e-05 -1.5573e-20
3.06998e-06 1.74751e-05 -1.47635e-20
2.64076e-05 5.25761e-06 -1.96632e-20
-1.54437e-05 3.32121e-05 6.73873e-21
4.05533e-05 -1.33335e-05 -5.88261e-21
-3.77316e-06 7.45524e-06 1.16048e-20
9.95311e-06 5.89947e-06 -3.21934e-20
-2.28064e-06 -1.13248e-05 -1.24134e-20
3.22075e-06 -1.92524e-05 -6.66113e-21
1.74698e-05 3.89219e-06 -1.24216e-20
-7.93738e-06 4.09737e-05 3.93142e-21
-9.80587e-06 2.47935e-07 -8.41373e-21
9.31876e-06 1.18861e-05 -1.24125e-20
-2.17734e-06 -4.1715e-05 -2.35137e-20
4.20241e-05 1.28653e-05 5.29013e-22
4.42267e-06 -7.45339e-06 -1.65728e-20
-1.11455e-05 -3.55374e-06 -4.09576e-21
-2.93264e-05 -1.24863e-05 -2.25639e-20
1.58042e-05 4.11483e-05 1.29415e-20
-4.34861e-05 -1.55742e-05 3.21385e-21
1.6019e-05 -4.11249e-05 -1.88423e-20
-3.69989e-06 -3.1921e-05 -3.74105e-21
2.18394e-05 6.52183e-07 -1.06836e-21
-7.17168e-06 1.83971e-05 7.43086e-21
-1.61123e-06 3.96967e-06 -5.04558e-21
-3.68606e-06 -1.65392e-05 -1.78913e-20
5.23012e-06 -8.30232e-06 -2.45281e-20
9.35974e-06 1.58639e-05 2.89795e-20
3.3102e-05 1.06527e-05 1.85758e-20
8.61569e-06 -7.45823e-06 -1.19138e-20
-8.27111e-06 -4.51611e-05 1.3201e-20
2.55528e-05 -1.88203e-05 -1.0953e-20
4.97805e-06 2.7772e-05 2.42226e-20
-2.8164e-06 -2.84168e-06 -7.09679e-21
-8.62647e-06 -8.32605e-06 -1.3868e-20
-4.77679e-06 4.41239e-08 1.5747e-20
-2.28732e-05 2.85948e-05 1.11704e-20
1.87636e-05 -3.7376e-05 -1.43121e-20
-2.65807e-05 4.27155e-05 -7.76149e-23
-1.63722e-05 9.53549e-06 -7.082e-22
2.52802e-06 1.21992e-05 5.53969e-21
-2.29873e-05 -3.49902e-05 -1.08442e-20
1.39365e-05 3.34668e-05 6.59685e-21
1.75081e-05 9.36942e-06 -2.00049e-20
2.2812e-05 -8.52284e-06 -4.50625e-21
-1.25322e-06 -1.12656e-05 -8.99672e-21
-3.39124e-05 -3.15587e-05 9.5894e-21
-2.75154e-06 1.13036e-05 -1.59919e-21
1.72471e-05 1.01719e-05 -2.26391e-20
1.88878e-05 -8.82102e-06 5.52152e-21
8.24335e-06 -1.43452e-05 -2.17815e-20
2.43574e-05 -1.07956e-05 -1.85856e-22
1.90099e-05 -8.99805e-06 -7.5961e-21
4.64072e-06 2.05807e-07 -2.4174e-20
2.57412e-05 2.02215e-05 5.60848e-22
-2.74168e-06 -1.70302e-05 -1.52992e-20
-1.048e-05 -4.45708e-06 -5.86805e-21
1.12587e-06 -3.89015e-06 1.39301e-20
-3.15512e-06 1.58473e-05 8.1139e-21
-3.48841e-05 2.76816e-06 -1.27118e-21
-1.21217e-05 -3.32589e-05 2.26276e-20
-7.87922e-06 9.7792e-06 2.07031e-21
1.35655e-05 1.66406e-05 -2.46694e-20
2.6569e-05 -1.8745e-05 -1.84891e-20
-3.6793e-05 -2.03511e-05 1.81574e-20
1.74033e-05 -2.75081e-05 -8.30004e-21
2.28043e-05 -2.7217e-05 -1.29054e-20
-1.09445e-05 3.785e-06 -1.77676e-20
-1.98293e-05 -2.88407e-05 1.2072e-21
-3.48804e-05 -5.79152e-06 -1.84921e-20
-3.85249e-06 -3.17432e-05 9.74522e-21
1.54479e-05 -3.16997e-05 -2.01659e-20
-9.10631e-06 -2.62e-05 -1.0592e-20
4.5813e-06 3.1406e-05 3.62614e-21
-1.57527e-05 -2.85225e-05 8.45228e-22
2.93887e-06 -1.62925e-05 4.8282e-21
-2.47398e-05 1.82602e-05 7.86409e-21
-1.5031e-05 -1.21113e-05 -1.35918e-20
-2.73533e-05 -5.17253e-06 -1.46999e-20
1.56684e-05 -9.18175e-06 -3.92417e-21
-4.307e-06 2.3953e-05 -1.40523e-20
1.22328e-05 -9.32467e-06 -1.94607e-20
-2.95864e-05 -1.31645e-05 -2.14474e-20
-8.83183e-06 -7.45823e-06 -4.4744e-21
9.08227e-06 7.54099e-06 -1.02151e-20
2.14272e-05 2.87013e-05 -1.35518e-20
-1.75092e-05 -1.08095e-05 -9.91653e-21
-3.25068e-05 -7.51084e-07 -3.26144e-21
-1.6337e-05 -5.01626e-06 -5.99144e-21
-4.57821e-06 -1.65836e-05 -6.34707e-21
1.76851e-05 2.12396e-05 3.29812e-21
-1.09575e-05 5.87488e-06 -8.25275e-21
6.3606e-07 -2.05557e-05 3.47273e-21
-4.19406e-05 1.08511e-05 1.18146e-20
2.4861e-05 2.02467e-05 4.31523e-21
3.79458e-06 3.27861e-05 2.70028e-21
-2.43202e-06 3.79728e-06 -6.7551e-21
-9.0511e-06 2.51208e-07 -6.24489e-21
4.35518e-06 7.76026e-06 -1.19974e-20
-1.16942e-05 3.40153e-06 -1.03067e-20
-2.07342e-06 -3.78501e-06 -1.33741e-20
1.65982e-06 2.07604e-05 1.85009e-20
4.4725e-06 4.49707e-07 -1.43179e-20
-1.95385e-05 4.75675e-06 2.8549e-21
-1.72988e-05 1.93584e-05 2.45481e-20
-3.10751e-06 1.15785e-05 -6.29885e-21
-2.92177e-05 1.83948e-05 1.64012e-20
-9.34359e-06 8.97954e-06 -9.6294e-21
1.73116e-05 -1.16141e-05 -3.6868e-21
3.66051e-05 -3.56477e-06 -1.76609e-20
-2.11412e-05 1.12976e-05 -7.34599e-21
2.23306e-06 4.49835e-06 -7.97658e-21
2.17758e-05 -4.345e-06 1.78254e-20
-1.72793e-05 1.03531e-05 -5.51517e-21
-9.87202e-06 5.53917e-06 -9.25713e-21
1.18317e-05 3.74279e-06 3.08682e-21
2.18804e-05 -1.34715e-05 -5.00223e-21
-1.73804e-05 9.95636e-06 -5.37663e-21
-2.50375e-05 -5.30317e-06 -2.02405e-20
-1.67621e-05 -4.36259e-06 -9.37417e-21
9.87646e-06 6.24112e-09 -2.42137e-21
1.01741e-05 1.95363e-07 -3.70055e-20
4.39088e-06 8.31738e-06 1.31546e-20
4.82968e-06 -8.79799e-06 -2.15177e-20
-5.01048e-06 8.42004e-06 2.83773e-22
-5.2668e-06 -8.65782e-06 -1.16764e-20
9.91125e-06 -7.40819e-06 -4.06271e-21
-2.0328e-05 3.23499e-06 -1.56465e-21
-2.00604e-05 -3.28381e-06 -1.57088e-20
-1.28351e-05 1.58769e-05 4.59174e-21
-1.29149e-05 -1.59312e-05 -1.78285e-20
7.48645e-06 -1.98442e-05 -4.61628e-21
7.20619e-06 1.97643e-05 -6.61203e-21
1.55784e-06 2.58856e-05 2.17439e-20
1.12407e-05 -3.13691e-06 -1.09573e-20
2.35996e-06 -3.86662e-06 -1.21699e-20
-2.14118e-05 1.42172e-06 3.27236e-21
7.67736e-06 -1.95135e-05 -5.99961e-21
7.2736e-06 1.9662e-05 -1.15336e-20
4.76891e-06 -5.27151e-08 -1.59829e-21
8.9684e-06 2.44037e-05 6.94367e-21
-2.24234e-06 -4.01642e-06 1.38007e-20
2.3178e-06 -1.13172e-05 -6.25581e-21
-2.24309e-05 -1.21518e-05 -3.6602e-20
-2.13584e-05 -1.14948e-05 -1.75517e-20
-2.1893e-05 1.36288e-05 8.96396e-21
3.2513e-06 -1.22878e-05 2.80972e-21
-1.56535e-06 3.38201e-06 -4.41953e-21
-5.8735e-07 -2.55692e-05 -4.20701e-21
-7.72029e-06 -2.4423e-05 2.44503e-21
3.27041e-05 3.03626e-05 -3.30995e-21
3.54533e-05 -1.8152e-06 5.10285e-21
-1.27112e-05 -3.63219e-06 -1.20083e-20
-2.28926e-05 -4.1386e-05 1.16118e-20
8.30425e-06 1.37479e-05 -1.71615e-20
-2.52357e-05 3.0333e-06 -2.11033e-21
2.00651e-05 5.7864e-06 -9.91651e-21
-4.53312e-06 -3.27417e-08 -1.04558e-20
-4.66519e-06 -8.41274e-06 -4.26706e-21
-7.07289e-06 -3.93327e-05 -1.64509e-20
-9.70833e-06 -8.39174e-08 1.75178e-20
-4.8674e-05 -1.81571e-06 1.29642e-20
1.73087e-05 -1.91052e-05 -2.22159e-20
2.42935e-06 3.99906e-06 -8.08541e-21
-1.20632e-07 -1.75136e-05 -4.78607e-21
-9.81837e-06 2.40837e-05 1.70409e-20
-4.37203e-06 8.62736e-06 -7.40631e-21
2.05561e-05 -1.36059e-05 4.18639e-21
-3.76586e-05 -1.35513e-05 -2.21386e-20
-1.52656e-05 -2.03655e-05 8.30063e-22
4.97702e-06 8.38897e-06 1.81586e-20
1.66309e-05 5.16051e-06 -2.89449e-20
-4.76381e-06 -7.33818e-06 -4.96188e-21
1.97961e-05 3.54713e-06 1.77482e-20
1.81881e-05 -9.82557e-06 1.24581e-22
-3.4881e-07 2.71721e-05 -3.36806e-22
8.32014e-06 -1.36664e-05 -4.66586e-22
4.88023e-05 2.20052e-06 -2.22495e-20
-4.23553e-05 1.14529e-05 9.83799e-21
2.2859e-05 1.15557e-05 -4.68116e-21
-6.45264e-06 -1.71784e-05 9.14527e-21
-1.53491e-05 -8.61771e-06 8.62077e-21
2.87859e-05 -2.10534e-07 -1.28199e-20
-6.91938e-07 -2.42536e-05 -2.8925e-21
-1.26167e-05 -1.08734e-05 -4.33406e-21
1.02233e-05 -2.34983e-05 -1.52513e-20
-4.96572e-07 2.05542e-05 -5.59883e-21
7.91723e-06 2.60661e-05 1.50848e-20
1.72669e-05 -9.88366e-06 5.33143e-21
-1.89467e-05 1.92973e-05 3.11914e-20
1.65267e-05 2.00281e-05 1.50694e-20
-6.22265e-05 1.60209e-05 -1.02724e-20
-1.01085e-05 2.60145e-05 -4.76149e-21
1.25182e-05 -1.52473e-05 -1.53459e-20
-7.02862e-06 -1.83966e-05 -3.00385e-20
-1.18528e-05 4.50538e-06 5.19313e-22
-2.58916e-05 -7.04532e-06 -3.26793e-20
-6.38569e-06 3.88552e-05 1.33708e-20
-1.2605e-05 1.19017e-05 -1.03688e-20
2.07752e-05 -4.4753e-06 7.20408e-21
-6.87199e-06 -2.57924e-05 9.90863e-21
-1.48678e-05 2.38893e-05 2.46924e-20
-2.17874e-05 1.25639e-05 1.31385e-20
-2.05681e-05 -1.50544e-05 4.24728e-22
1.80274e-05 -2.06536e-05 -3.04681e-21
-2.75288e-05 -1.45615e-06 -4.2152e-21
1.23663e-05 -4.08075e-05 -2.5273e-20
1.93849e-05 -1.89118e-05 1.79472e-21
2.47309e-05 4.30789e-05 2.1464e-20
1.97099e-06 1.98652e-05 8.76479e-21
2.96091e-06 -2.54195e-05 -1.07726e-20
-4.16335e-05 4.69587e-05 -3.63725e-20
-1.27012e-05 -2.44099e-05 8.33763e-21
1.63657e-05 -6.4201e-06 1.09057e-20
-2.41072e-06 2.57705e-05 -1.62255e-21
1.28821e-05 -1.18257e-05 -2.50262e-21
1.38796e-05 2.43113e-05 1.91084e-21
1.72287e-05 -1.4004e-06 -1.05519e-20
2.21186e-05 -6.32123e-05 -3.38575e-21
-5.87571e-06 -1.28583e-05 -1.31846e-20
-2.31828e-05 1.00864e-05 -1.35903e-20
-2.00186e-05 1.87177e-05 -1.32762e-20
2.16108e-05 1.45667e-05 -7.16924e-21
1.86714e-05 -1.07559e-05 -7.97203e-21
1.49509e-05 1.25926e-05 -6.24489e-21
-5.42776e-06 4.55134e-08 -2.28413e-20
1.54026e-05 -2.30857e-05 -1.85782e-20
-1.69891e-05 -2.04078e-05 -1.71988e-20
2.25603e-05 9.77305e-06 -7.69705e-21
1.28057e-05 -1.19889e-05 8.68748e-21
9.55329e-06 -2.48501e-05 -2.52536e-20
1.66581e-05 -6.93242e-06 1.15533e-20
-1.58044e-05 -7.54412e-06 9.64547e-21
1.29676e-06 -2.63012e-05 -9.93197e-21
-2.6105e-05 4.47277e-06 -4.93916e-21
2.39025e-06 2.45411e-05 1.04637e-20
2.05836e-05 6.62701e-06 -2.26491e-20
-2.1719e-05 -1.07011e-05 -3.65823e-20
-8.9766e-06 2.56083e-05 3.51579e-21
-1.49528e-06 -2.41864e-05 8.21364e-21
1.94651e-05 1.18366e-05 1.23902e-21
-1.76884e-06 1.80836e-05 -6.07542e-21
-2.01375e-05 1.37017e-05 2.28253e-21
2.35094e-05 1.14144e-05 -1.67489e-20
-1.71141e-05 -9.98498e-06 -9.64004e-21
9.5103e-08 -1.98335e-05 -1.2119e-20
1.83812e-05 1.9983e-05 -5.61007e-21
-2.21524e-05 -1.43028e-05 -1.67138e-20
4.83482e-05 -3.39802e-05 3.27114e-21
1.7896e-05 -1.08219e-05 -3.1981e-21
9.0014e-06 4.30848e-05 -8.01992e-21
1.70332e-05 -1.36779e-05 6.82179e-21
-1.98737e-05 8.70312e-05 -8.86968e-21
-1.97639e-05 -8.65455e-05 1.76402e-20
5.71817e-05 7.1714e-05 2.95364e-20
5.69192e-05 -7.13878e-05 -4.93218e-21
9.06428e-05 -1.57275e-10 -9.74249e-21
-7.81975e-05 3.76368e-05 1.39968e-20
-7.74518e-05 -3.72811e-05 1.9136e-20
1.22333e-05 1.18182e-05 -1.32516e-20
2.93667e-05 2.18915e-05 1.75517e-20
1.14477e-05 3.33268e-06 -5.43787e-21
1.88549e-05 9.75111e-06 -5.39603e-21
4.98904e-06 2.01693e-05 8.09721e-21
-1.88311e-05 -1.49798e-05 -2.473e-20
1.70373e-05 -1.02138e-05 -3.14656e-21
1.98518e-05 1.45488e-05 -1.09442e-20
-3.16681e-06 2.43631e-05 5.42596e-23
2.94395e-05 -1.99921e-05 2.51353e-21
3.79377e-06 -2.3739e-05 -1.16934e-20
2.19601e-05 5.22686e-06 -2.02747e-20
2.98948e-05 1.10256e-05 -1.1064e-20
1.42082e-05 1.41433e-05 2.70028e-21
1.58826e-05 6.59346e-06 -1.73253e-20
-1.84981e-05 1.09362e-05 -2.42392e-20
-2.25624e-05 9.03634e-06 4.89216e-21
2.29287e-05 -1.12631e-05 -8.09177e-21
-1.82673e-05 -9.99768e-06 -2.04015e-20
-1.85538e-05 -1.05821e-05 -2.02559e-20
-3.43836e-07 -2.07671e-05 -1.0568e-20
-8.6137e-08 -2.11601e-05 2.55537e-21
-2.01264e-05 -1.00544e-06 -1.09837e-21
2.66982e-05 -4.01904e-06 -8.14059e-21
1.81115e-05 1.13418e-05 6.31945e-21
-1.78637e-05 1.09448e-05 -1.65294e-20
-1.5361e-05 1.66232e-05 -1.82014e-20
1.60216e-05 -1.37528e-05 -1.38425e-20
-1.10232e-05 1.74629e-05 1.23676e-20
-1.42245e-05 -1.48892e-05 -2.08689e-20
-1.15521e-06 2.121e-05 3.03407e-21
-1.28764e-06 2.09677e-05 -9.40721e-22
8.97268e-08 -1.98335e-05 -8.88272e-21
6.11067e-06 -1.97368e-05 -1.8572e-21
-1.71405e-05 -9.93523e-06 -2.32282e-20
1.55864e-05 -5.49014e-06 -1.14536e-21
6.63155e-07 2.14773e-05 4.62446e-21
3.00841e-07 1.85071e-05 1.20514e-20
-2.34569e-06 1.68569e-05 -8.56561e-21
2.19083e-05 -5.52729e-06 -8.95761e-21
-1.65409e-05 5.37795e-06 1.91839e-20
4.15738e-06 2.1517e-05 1.67952e-21
-3.25577e-05 1.2919e-05 7.16833e-21
9.76317e-06 4.17306e-05 8.23333e-21
-1.70531e-05 4.56805e-06 -2.35042e-21
1.96841e-05 -1.16299e-05 -7.88563e-21
9.45761e-07 2.10191e-05 7.86772e-21
-2.04809e-05 6.6993e-06 1.23994e-21
2.44406e-06 -1.62622e-05 -1.26808e-20
1.81919e-06 -5.80116e-05 -1.77915e-20
2.00644e-06 1.7486e-05 5.70555e-21
-1.69618e-05 1.40224e-05 3.37634e-21
1.78539e-05 6.39707e-05 5.81457e-22
4.57686e-05 3.77062e-05 1.17485e-20
5.20642e-05 -3.52551e-05 -4.14366e-21
1.48152e-05 -1.0167e-05 -5.4015e-21
-1.57853e-05 1.40374e-05 4.52655e-21
-2.02166e-05 -7.9206e-06 -4.32496e-21
-1.96454e-05 -6.82233e-06 -1.42372e-20
5.92663e-05 -2.46117e-05 -9.73856e-21
5.7433e-05 2.38706e-05 2.2466e-20
1.08944e-05 3.81744e-06 -4.44137e-21
7.66632e-07 1.95792e-05 6.2664e-22
7.83638e-08 1.95605e-05 5.77286e-21
-4.83824e-05 -3.69185e-05 1.82729e-20
1.14251e-05 -1.71718e-05 -8.2482e-21
1.17332e-05 1.24645e-05 -1.69016e-21
-2.1418e-05 -3.39572e-06 -8.01446e-21
-1.40449e-05 1.7202e-05 1.13893e-20
-1.88884e-05 9.1677e-06 -8.03235e-21
4.7643e-05 3.36941e-05 1.5381e-20
1.58064e-05 7.06161e-06 -3.47848e-20
-5.56672e-06 2.00303e-05 1.94632e-21
-1.6978e-05 -1.17491e-05 -1.57603e-20
1.85624e-06 -2.05428e-05 -3.64586e-21
-8.94968e-06 -1.92672e-05 -6.46254e-21
-1.72491e-05 -1.17735e-05 -3.26605e-20
1.05795e-05 -1.89357e-05 -2.71444e-20
1.41224e-05 -1.69893e-05 6.71235e-21
-2.44033e-06 -6.14372e-05 -1.66862e-20
2.61802e-05 -4.11256e-05 -2.2459e-20
1.7475e-06 -2.07856e-05 -9.84891e-21
1.79586e-05 1.13554e-05 -1.25104e-20
-1.44763e-05 -1.49053e-05 -2.33679e-20
-9.84106e-06 1.97101e-05 1.02015e-21
-5.03941e-06 2.10067e-05 5.5994e-22
1.66272e-05 1.42437e-05 -1.46374e-20
6.05901e-06 -1.98614e-05 -3.63136e-20
-1.34065e-05 -4.0358e-05 1.04407e-20
-1.98838e-06 2.50405e-05 6.5229e-21
1.47919e-05 1.44551e-05 1.38363e-21
-1.29583e-05 -1.02167e-05 -2.50923e-20
-1.3515e-05 1.06082e-05 5.68221e-21
4.43429e-05 -1.89132e-05 -2.00959e-20
7.56307e-06 -1.34002e-05 -1.03673e-20
-8.31718e-06 -1.2627e-05 -1.17885e-20
2.13306e-05 6.36349e-06 1.37033e-20
1.09944e-05 -5.06621e-05 -3.59435e-20
-3.84516e-05 -3.49031e-05 -9.62608e-21
2.33068e-05 6.20741e-06 -1.19047e-20
-9.32827e-06 -1.82812e-05 6.82697e-21
1.87057e-05 9.48282e-06 -6.39162e-21
-2.85646e-05 -3.25514e-05 1.76402e-20
9.68822e-06 5.0047e-05 2.01968e-20
3.43343e-05 -5.986e-05 -2.60764e-20
-3.47373e-05 -5.97768e-05 2.13755e-20
2.78086e-05 -5.20224e-05 -6.76754e-21
-1.26982e-05 4.36334e-05 -6.69995e-21
-6.2761e-06 3.89776e-05 1.70415e-20
-1.87308e-05 8.94593e-06 -1.33635e-20
5.97724e-06 2.42423e-05 9.56485e-21
-2.39158e-06 1.26541e-05 -8.69537e-21
1.01202e-05 3.23315e-06 4.90518e-21
-3.18848e-06 1.62056e-05 -1.60583e-20
-2.47451e-07 2.09918e-05 -3.15533e-21
1.66607e-05 9.75062e-06 -1.26265e-20
1.7103e-06 5.77244e-05 -7.4527e-21
-1.47173e-05 1.07327e-05 6.57857e-22
1.59495e-05 -6.24663e-06 5.61125e-21
1.68719e-05 -4.50899e-06 4.32494e-21
-6.06629e-05 -8.7689e-06 1.28663e-20
-3.46058e-05 1.67415e-05 -1.04379e-21
-4.35148e-05 -5.25464e-05 7.49695e-21
8.65655e-06 8.34572e-06 -9.32898e-21
1.42099e-05 7.29257e-06 5.82803e-21
2.68048e-05 -4.19587e-06 4.95339e-21
-8.1044e-06 -1.32429e-05 -1.3054e-20
1.72166e-05 8.42864e-06 -1.76557e-20
7.33535e-06 -3.00347e-05 -9.20831e-21
-1.37137e-05 1.0205e-05 -8.74933e-21
-2.23744e-05 -2.14224e-05 -3.98598e-20
-5.83599e-06 1.62978e-05 -1.80395e-20
-3.271e-06 2.06786e-05 5.06383e-23
3.38498e-05 2.12965e-05 1.64649e-21
3.61133e-05 -1.92829e-05 3.89929e-21
-4.20705e-05 -1.1623e-05 5.78013e-21
7.63419e-06 7.68575e-06 -3.28146e-21
-4.05849e-06 0.000101361 9.02398e-21
8.6182e-07 -0.000104468 -8.84333e-22
5.24544e-05 8.7645e-05 1.38185e-20
-1.9103e-05 8.45791e-06 -1.19911e-20
-2.63765e-05 5.65496e-05 -7.39691e-21
5.30327e-05 -8.46396e-05 -8.94578e-21
-1.17205e-05 -1.82824e-05 -9.88952e-21
7.8e-05 6.74976e-05 8.93546e-21
2.39936e-05 -1.79768e-05 -1.40735e-20
-3.60743e-06 -2.98221e-05 -3.74657e-20
8.17787e-05 -6.58502e-05 -4.39528e-21
-6.74462e-06 1.45183e-05 1.69038e-20
-5.38321e-05 -3.48239e-05 2.11342e-20
-4.30132e-05 -9.31298e-05 6.57533e-21
-2.41125e-05 -5.78042e-05 5.34722e-21
-4.39748e-05 9.41368e-05 -1.42608e-21
-1.00932e-05 6.40838e-05 -5.49577e-21
1.56327e-05 3.71082e-05 6.05632e-21
-2.79553e-05 3.72404e-05 -2.87097e-21
-2.52729e-05 -5.51833e-05 -1.02318e-21
0.000100365 1.73169e-05 -7.62337e-21
-1.69274e-05 1.0767e-05 6.43253e-21
-5.91233e-06 1.6333e-05 6.50775e-21
-5.0758e-05 3.76396e-05 8.84785e-21
-1.72762e-05 9.94411e-06 -6.57019e-21
9.92024e-05 -1.52633e-05 -1.07787e-20
-1.53602e-05 7.79869e-06 -8.88454e-21
7.1926e-06 -1.44949e-05 -1.49484e-20
-7.79692e-05 -6.09481e-05 2.48183e-20
-2.58788e-05 5.77171e-05 6.17121e-21
-7.91222e-05 6.03754e-05 5.69952e-23
2.45402e-05 5.19501e-05 1.91087e-20
-1.47675e-05 1.05824e-05 -6.6242e-22
-2.05298e-05 2.44765e-05 -8.05115e-21
-2.85326e-05 4.98177e-05 1.93828e-20
-5.67758e-05 2.07992e-07 -5.68707e-21
-9.441e-07 1.6296e-05 4.64418e-21
-2.88495e-05 -5.04063e-05 -2.53158e-20
-5.81982e-05 -2.1981e-07 -8.55621e-21
-2.83494e-05 4.86961e-05 -1.18195e-20
-1.51902e-05 6.62659e-05 3.50216e-21
-1.78647e-05 4.12604e-05 -8.10632e-21
-3.39002e-05 2.71373e-05 -2.92211e-20
2.43828e-05 -6.05692e-06 6.54955e-21
3.80026e-05 -2.1953e-06 7.89894e-21
1.34823e-05 8.20028e-06 -8.45011e-21
-1.04691e-05 -7.39874e-05 -2.0721e-20
-6.94487e-05 -2.79741e-05 -1.46883e-21
3.71321e-05 7.3273e-07 -7.23835e-21
5.83659e-05 -1.08921e-05 -1.2615e-20
-1.05837e-05 -1.3497e-05 -1.42254e-20
-5.08286e-05 3.76254e-05 2.53384e-21
-4.61334e-05 5.39999e-05 -7.55791e-22
6.23624e-05 -2.22323e-05 4.25943e-22
-2.81773e-05 -5.04969e-05 -2.8388e-20
-2.8777e-05 4.97794e-05 2.1532e-20
-5.72543e-05 -1.17116e-06 5.61672e-21
-2.65733e-05 5.05976e-05 3.67283e-21
-5.7953e-05 -8.17008e-07 -4.92251e-21
6.60759e-05 1.73924e-05 1.61729e-20
5.638e-05 1.2925e-06 6.07147e-21
5.09e-05 -2.92738e-05 -7.00924e-22
2.49102e-05 -5.9427e-05 -7.45636e-21
2.99184e-05 -4.88566e-05 -1.63836e-20
2.91673e-05 4.86806e-05 -1.10052e-20
2.4345e-05 5.80892e-05 8.16514e-21
7.58021e-05 -2.00375e-05 5.96447e-21
4.62662e-05 2.90632e-05 -4.60474e-21
4.66241e-05 1.37454e-05 2.18166e-20
TENSORS solid_stress_TPM float
375.034 -24.9205 -7.24754e-13
-24.9205 238.572 -4.44326e-12
-7.24754e-13 -4.44326e-12 197.819

457.007 -21.3203 -3.99221e-12
-21.3203 489.991 1.63454e-12
-3.99221e-12 1.63454e-12 487.114

454.882 28.0435 -1.80952e-12
28.0435 463.712 -2.2468e-12
-1.80952e-12 -2.2468e-12 458.462

455.032 -29.8426 -3.28996e-12
-29.8426 482.613 1.56719e-12
-3.28996e-12 1.56719e-12 484.86

527.689 19.9309 -1.61204e-12
19.9309 548.458 1.36972e-12
-1.61204e-12 1.36972e-12 527.36

437.314 -18.0746 -3.65574e-12
-18.0746 480.342 -4.89623e-12
-3.65574e-12 -4.89623e-12 458.043

372.329 26.4846 1.7053e-13
26.4846 239.091 1.80241e-12
1.7053e-13 1.80241e-12 197.803

473.655 29.958 -6.86266e-13
29.958 469.505 -2.77437e-12
-6.86266e-13 -2.77437e-12 472.34

471.552 5.48318 3.62495e-12
5.48318 417.825 4.26159e-12
3.62495e-12 4.26159e-12 432.798

504.262 -7.47758 2.66483e-12
-7.47758 444.115 6.84193e-13
2.66483e-12 6.84193e-13 483.455

360.295 16.3087 2.89191e-12
16.3087 247.657 -1.69879e-12
2.89191e-12 -1.69879e-12 233.646

444.785 -13.4533 -6.15064e-13
-13.4533 498.388 -1.11141e-12
-6.15064e-13 -1.11141e-12 472.242

466.87 27.8333 -3.13823e-14
27.8333 468.305 -7.64426e-13
-3.13823e-14 -7.64426e-13 466.737

457.04 -14.3402 3.87485e-12
-14.3402 500.437 7.28898e-13
3.87485e-12 7.28898e-13 483.46

512.94 33.311 -1.19608e-13
33.311 511.599 -3.39094e-12
-1.19608e-13 -3.39094e-12 515.228

489.175 0.560986 2.48275e-12
0.560986 435.526 -9.75063e-13
2.48275e-12 -9.75063e-13 462.275

457.586 -17.9691 2.18279e-12
-17.9691 512.889 -2.179e-13
2.18279e-12 -2.179e-13 493.6

493.96 -2.6652 2.2693e-12
-2.6652 439.051 1.94881e-12
2.2693e-12 1.94881e-12 474.267

418.795 26.674 -2.57098e-12
26.674 449.662 2.19617e-12
-2.57098e-12 2.19617e-12 424.055

481.984 -4.19562 1.40155e-12
-4.19562 424.924 2.0887e-13
1.40155e-12 2.0887e-13 453.477

425.298 8.66871 1.0516e-12
8.66871 481.905 9.43838e-13
1.0516e-12 9.43838e-13 444.843

634.129 6.28745 -1.85169e-12
6.28745 633.965 -4.22699e-12
-1.85169e-12 -4.22699e-12 570.319

479.155 1.87599 -2.73796e-12
1.87599 422.943 4.71527e-12
-2.73796e-12 4.71527e-12 449.734

447.165 -27.7154 1.04687e-12
-27.7154 461.153 2.48098e-13
1.04687e-12 2.48098e-13 452.95

481.051 6.84943 -1.45898e-12
6.84943 425.443 -3.00796e-13
-1.45898e-12 -3.00796e-13 452.94

449.761 19.113 -2.14243e-12
19.113 490.32 2.4493e-12
-2.14243e-12 2.4493e-12 478.208

377.656 4.18142 -4.39826e-12
4.18142 291.655 7.66794e-14
-4.39826e-12 7.66794e-14 259.003

462.687 30.7461 6.56068e-13
30.7461 460.717 9.79957e-14
6.56068e-13 9.79957e-14 460.548

384.943 37.0748 2.70598e-12
37.0748 383.522 1.82373e-13
2.70598e-12 1.82373e-13 348.42

586.943 10.3235 1.96169e-12
10.3235 563.453 -2.73651e-12
1.96169e-12 -2.73651e-12 546.875

491.69 14.2169 -1.33227e-12
14.2169 442.5 -3.2269e-12
-1.33227e-12 -3.2269e-12 465.858

352.857 -17.7806 -5.6352e-12
-17.7806 416.725 -9.91207e-13
-5.6352e-12 -9.91207e-13 348.591

331.019 -42.102 -7.87992e-12
-42.102 335.874 1.82136e-12
-7.87992e-12 1.82136e-12 253.484

531.411 5.98658 2.18453e-12
5.98658 586.891 -2.60828e-12
2.18453e-12 -2.60828e-12 538.584

554.025 -4.84041 -6.24404e-12
-4.84041 582.073 1.19342e-12
-6.24404e-12 1.19342e-12 542.514

577.988 21.0278 -6.39755e-12
21.0278 539.949 -1.52515e-12
-6.39755e-12 -1.52515e-12 538.352

556.186 5.06723 -1.77887e-12
5.06723 600.676 2.93602e-12
-1.77887e-12 2.93602e-12 547.971

573.776 -9.17007 6.17876e-13
-9.17007 555.767 -1.70849e-12
6.17876e-13 -1.70849e-12 540.64

467.13 -27.9983 1.65853e-12
-27.9983 466.494 3.97312e-13
1.65853e-12 3.97312e-13 465.11

330.403 41.5213 -8.02913e-13
41.5213 337.972 -1.67214e-12
-8.02913e-13 -1.67214e-12 253.842

414.527 -17.9493 -5.09933e-12
-17.9493 354.489 -1.26832e-12
-5.09933e-12 -1.26832e-12 346.322

559.307 -3.70582 2.74299e-12
-3.70582 599.925 2.48394e-13
2.74299e-12 2.48394e-13 548.386

586.414 19.5551 -1.70353e-12
19.5551 572.456 8.21565e-13
-1.70353e-12 8.21565e-13 548.174

490.895 -12.2733 3.25251e-12
-12.2733 442.855 2.51503e-13
3.25251e-12 2.51503e-13 466.531

341.709 -43.2994 -1.26358e-12
-43.2994 345.337 -7.10069e-12
-1.26358e-12 -7.10069e-12 288.977

417.553 -18.0635 9.04758e-13
-18.0635 357.106 2.59585e-12
9.04758e-13 2.59585e-12 351.495

413.007 17.0858 9.92687e-13
17.0858 464.776 3.66166e-12
9.92687e-13 3.66166e-12 428.721

429.623 19.3392 1.2473e-12
19.3392 466.507 -2.60355e-12
1.2473e-12 -2.60355e-12 437.074

486.774 -16.3011 3.81502e-12
-16.3011 432.869 2.63493e-14
3.81502e-12 2.63493e-14 458.671

355.575 -34.1857 2.54493e-12
-34.1857 389.395 -3.95535e-12
2.54493e-12 -3.95535e-12 332.562

410.245 19.182 -6.61989e-13
19.182 350.695 5.7175e-12
-6.61989e-13 5.7175e-12 339.471

425.194 -25.2886 -2.46677e-12
-25.2886 383.814 -7.86038e-13
-2.46677e-12 -7.86038e-13 373.07

519.916 19.4855 -7.03141e-13
19.4855 547.526 -2.69414e-12
-7.03141e-13 -2.69414e-12 525.726

416.406 29.6495 -1.34648e-12
29.6495 393.879 5.92119e-13
-1.34648e-12 5.92119e-13 373.934

522.171 -21.8128 -1.78672e-12
-21.8128 541.392 9.45975e-13
-1.78672e-12 9.45975e-13 524.373

364.065 -42.7115 -7.05806e-12
-42.7115 343.277 5.02117e-12
-7.05806e-12 5.02117e-12 289.694

553.447 5.45941 -1.39e-13
5.45941 583.865 4.34615e-13
-1.39e-13 4.34615e-13 542.889

373.71 -5.32983 -2.47091e-12
-5.32983 436.656 -1.06345e-12
-2.47091e-12 -1.06345e-12 373.819

580.814 10.3843 1.40924e-13
10.3843 556.166 3.18016e-12
1.40924e-13 3.18016e-12 542.645

435.051 21.4132 9.11567e-13
21.4132 473.756 3.94351e-13
9.11567e-13 3.94351e-13 454.667

513.568 5.754 -1.20955e-12
5.754 452.802 -2.55351e-13
-1.20955e-12 -2.55351e-13 494.861

522.454 11.4589 -5.56888e-13
11.4589 487.858 1.80596e-12
-5.56888e-13 1.80596e-12 507.075

383.701 31.82 -1.62477e-12
31.82 315.19 1.80241e-12
-1.62477e-12 1.80241e-12 269.867

482.084 -6.03527 -1.72055e-12
-6.03527 528.177 -2.86763e-12
-1.72055e-12 -2.86763e-12 504.097

487.093 9.51982 6.26462e-13
9.51982 523.687 -1.53744e-12
6.26462e-13 -1.53744e-12 507.493

456.455 -2.88089 1.29804e-12
-2.88089 520.154 1.63839e-12
1.29804e-12 1.63839e-12 487.804

464.452 23.4019 -2.17311e-12
23.4019 503.467 -1.8859e-12
-2.17311e-12 -1.8859e-12 495.438

496.744 8.46358 -3.46686e-13
8.46358 444.395 -4.47331e-12
-3.46686e-13 -4.47331e-12 477.695

445.504 -28.2395 -5.32907e-15
-28.2395 459.525 1.54839e-12
-5.32907e-15 1.54839e-12 451.164

501.679 -1.71127 7.04177e-13
-1.71127 444.913 1.43322e-12
7.04177e-13 1.43322e-12 489.066

519.529 -19.2615 5.32167e-13
-19.2615 546.819 -1.92468e-12
5.32167e-13 -1.92468e-12 525.46

523.3 21.3078 -1.24375e-12
21.3078 542.917 6.80271e-13
-1.24375e-12 6.80271e-13 525.262

353.407 -16.5835 3.46316e-12
-16.5835 415.733 1.82728e-12
3.46316e-12 1.82728e-12 346.11

506.018 -27.9362 4.89742e-12
-27.9362 485.307 4.41721e-13
4.89742e-12 4.41721e-13 493.877

449.718 -25.1348 -8.58572e-13
-25.1348 471.218 6.33567e-13
-8.58572e-13 6.33567e-13 458.575

357.868 -31.7107 -3.35139e-12
-31.7107 285.674 -4.02345e-13
-3.35139e-12 -4.02345e-13 249.857

498.497 3.22268 -1.56497e-12
3.22268 541.403 3.32771e-12
-1.56497e-12 3.32771e-12 513.64

501.724 28.944 9.61601e-13
28.944 474.547 -5.18104e-14
9.61601e-13 -5.18104e-14 487.655

448.442 19.6642 3.34059e-12
19.6642 492.105 1.26506e-12
3.34059e-12 1.26506e-12 477.641

440.19 7.99958 -1.46017e-12
7.99958 373.035 1.62685e-12
-1.46017e-12 1.62685e-12 382.932

386.449 -33.9357 1.98123e-12
-33.9357 360.204 -5.33262e-12
1.98123e-12 -5.33262e-12 319.434

537.717 -10.5874 4.9738e-14
-10.5874 556.136 4.6807e-13
4.9738e-14 4.6807e-13 531.247

482.655 23.8996 -4.23809e-12
23.8996 504.558 -2.58665e-12
-4.23809e-12 -2.58665e-12 502.041

385.37 -32.384 -3.42008e-12
-32.384 345.305 1.30266e-12
-3.42008e-12 1.30266e-12 317.079

422.196 10.7911 -5.86198e-13
10.7911 363.849 -1.82343e-12
-5.86198e-13 -1.82343e-12 350.251

307.65 -21.2061 4.00184e-12
-21.2061 388.441 -9.63259e-12
4.00184e-12 -9.63259e-12 288.114

434.443 14.4257 3.62266e-12
14.4257 488.667 2.09255e-12
3.62266e-12 2.09255e-12 460.882

509.719 23.1431 -2.93632e-12
23.1431 475.17 -5.62602e-12
-2.93632e-12 -5.62602e-12 489.945

338.239 42.1989 -3.32771e-13
42.1989 349.57 -8.06466e-13
-3.32771e-13 -8.06466e-13 288.95

634.215 16.5068 9.47346e-12
16.5068 603.068 -1.39e-12
9.47346e-12 -1.39e-12 565.324

372.887 -4.10838 8.79001e-13
-4.10838 436.816 4.59484e-13
8.79001e-13 4.59484e-13 373.426

637.121 -16.632 -3.40417e-12
-16.632 599.538 2.88288e-12
-3.40417e-12 2.88288e-12 564.831

533.937 -27.3349 4.85597e-12
-27.3349 507.237 -1.62522e-12
4.85597e-12 -1.62522e-12 515.713

505.295 27.4246 -6.21725e-12
27.4246 466.333 1.05693e-12
-6.21725e-12 1.05693e-12 485.071

426.925 -24.4107 2.77112e-12
-24.4107 386.237 -1.77784e-12
2.77112e-12 -1.77784e-12 375.977

358.935 31.3234 -9.4739e-15
31.3234 396.003 -1.70057e-12
-9.4739e-15 -1.70057e-12 339.199

339.824 -10.7052 -1.70175e-12
-10.7052 408.39 -3.25429e-12
-1.70175e-12 -3.25429e-12 319.104

453.103 21.9708 4.24105e-13
21.9708 494.678 2.7951e-12
4.24105e-13 2.7951e-12 483.167

533.112 16.7942 4.49122e-12
16.7942 506.197 -1.15197e-12
4.49122e-12 -1.15197e-12 513.352

443.452 15.154 -3.74515e-14
15.154 488.439 -5.8679e-13
-3.74515e-14 -5.8679e-13 464.282

451.48 15.9539 -4.79616e-13
15.9539 400.536 -1.97264e-12
-4.79616e-13 -1.97264e-12 403.746

374.488 -21.4726 7.14688e-13
-21.4726 419.866 1.38556e-12
7.14688e-13 1.38556e-12 357.197

389.722 -29.3908 5.45697e-12
-29.3908 342.369 -1.75919e-12
5.45697e-12 -1.75919e-12 314.39

454.965 -24.5731 -5.43713e-12
-24.5731 480.065 5.86198e-13
-5.43713e-12 5.86198e-13 478.37

466.426 27.4511 2.4268e-12
27.4511 478.743 1.26033e-12
2.4268e-12 1.26033e-12 479.809

452.217 23.1876 -2.22222e-12
23.1876 492.559 2.55203e-13
-2.22222e-12 2.55203e-13 482.043

466.296 13.1691 1.0999e-12
13.1691 529.776 1.32753e-12
1.0999e-12 1.32753e-12 501.383

490.862 9.37229 -4.99097e-12
9.37229 437.889 1.78331e-12
-4.99097e-12 1.78331e-12 462.055

327.711 -4.66507 5.27608e-12
-4.66507 403.381 5.19644e-12
5.27608e-12 5.19644e-12 314.411

462.579 -36.8331 -1.40273e-12
-36.8331 487.69 -2.57564e-12
-1.40273e-12 -2.57564e-12 492.748

445.85 27.4654 -2.52243e-12
27.4654 463.27 -2.10794e-12
-2.52243e-12 -2.10794e-12 455.015

305.671 2.17033 9.38509e-14
2.17033 393.36 -6.71226e-12
9.38509e-14 -6.71226e-12 297.255

385.997 34.6105 1.94926e-12
34.6105 332.448 2.269e-12
1.94926e-12 2.269e-12 306.245

453.351 -22.9739 1.4729e-13
-22.9739 480.07 -1.73787e-12
1.4729e-13 -1.73787e-12 476.173

501.395 5.73296 -5.45046e-13
5.73296 441.316 1.5948e-12
-5.45046e-13 1.5948e-12 481.01

422.381 27.2042 -3.246e-12
27.2042 389.767 1.55135e-13
-3.246e-12 1.55135e-13 374.234

570.542 12.7454 -3.87468e-12
12.7454 565.917 1.76096e-12
-3.87468e-12 1.76096e-12 542.917

396.178 24.3306 5.56355e-12
24.3306 349.648 3.9672e-14
5.56355e-12 3.9672e-14 319.044

569.164 -13.0549 2.43923e-12
-13.0549 565.829 1.49362e-12
2.43923e-12 1.49362e-12 542.372

375.092 0.778545 -5.60293e-12
0.778545 438.87 -1.18424e-15
-5.60293e-12 -1.18424e-15 374.641

461.471 -2.23533 -1.13095e-12
-2.23533 399.303 1.5226e-12
-1.13095e-12 1.5226e-12 417.282

538.196 -15.7678 -1.50043e-12
-15.7678 480.632 -7.0847e-13
-1.50043e-12 -7.0847e-13 513.479

457.245 24.3882 -6.22229e-13
24.3882 487.786 2.08529e-12
-6.22229e-13 2.08529e-12 488.355

461.257 -13.535 -4.07615e-12
-13.535 519.136 4.89505e-12
-4.07615e-12 4.89505e-12 495.715

514.97 -7.99991 -8.42881e-13
-7.99991 438.192 1.90366e-13
-8.42881e-13 1.90366e-13 494.278

488.316 -22.2838 1.24937e-12
-22.2838 541.603 -3.97904e-13
1.24937e-12 -3.97904e-13 515.751

556.051 -6.59675 4.86722e-12
-6.59675 560.395 -3.3887e-12
4.86722e-12 -3.3887e-12 538.73

463.867 -29.9082 -4.16585e-12
-29.9082 483.197 -1.72662e-12
-4.16585e-12 -1.72662e-12 483.601

341.707 11.4537 9.11863e-14
11.4537 406.194 -3.01981e-12
9.11863e-14 -3.01981e-12 319.483

422.482 -28.1466 2.07597e-12
-28.1466 391.242 -1.42345e-12
2.07597e-12 -1.42345e-12 375.147

507.382 -13.772 1.75267e-12
-13.772 558.749 -3.6365e-12
1.75267e-12 -3.6365e-12 525.252

501.058 0.504499 2.3781e-12
0.504499 441.281 -1.01104e-12
2.3781e-12 -1.01104e-12 487.087

476.943 -21.5245 2.17456e-13
-21.5245 507.423 -3.64153e-14
2.17456e-13 -3.64153e-14 501.506

459.098 25.6977 4.68662e-13
25.6977 484.602 -1.42849e-14
4.68662e-13 -1.42849e-14 487.982

394.43 -31.4645 2.66572e-12
-31.4645 400.599 -2.97717e-12
2.66572e-12 -2.97717e-12 357.522

552.127 -7.08474 -8.11203e-13
-7.08474 585.296 -7.18536e-13
-8.11203e-13 -7.18536e-13 542.604

347.21 -33.0769 -8.52651e-13
-33.0769 382.607 -4.37457e-12
-8.52651e-13 -4.37457e-12 303.435

490.871 -19.1797 2.78e-12
-19.1797 448.388 1.22065e-12
2.78e-12 1.22065e-12 467.125

519.709 1.97042 6.92705e-13
1.97042 466.815 8.32223e-13
6.92705e-13 8.32223e-13 502.832

570.56 17.875 -2.2764e-12
17.875 566.48 1.1345e-12
-2.2764e-12 1.1345e-12 542.376

375.291 20.1829 -3.57995e-12
20.1829 424.032 -1.01489e-12
-3.57995e-12 -1.01489e-12 360.221

489.082 27.2106 8.8581e-13
27.2106 468.54 -1.23753e-12
8.8581e-13 -1.23753e-12 476.64

454.379 -24.5116 9.5568e-13
-24.5116 415.342 1.72484e-12
9.5568e-13 1.72484e-12 418.603

454.719 -17.8386 -4.54507e-12
-17.8386 494.907 1.26181e-12
-4.54507e-12 1.26181e-12 482.642

379.199 35.0683 6.62226e-12
35.0683 366.03 1.69938e-12
6.62226e-12 1.69938e-12 317.049

449.153 -21.8311 -1.99248e-13
-21.8311 491.705 1.03798e-12
-1.99248e-13 1.03798e-12 479.774

485.491 30.8505 1.62892e-12
30.8505 465.136 -5.06765e-12
1.62892e-12 -5.06765e-12 473.446

480.322 -25.2441 6.05146e-13
-25.2441 442.367 -4.65257e-12
6.05146e-13 -4.65257e-12 455.443

448.218 -25.1264 -3.15244e-12
-25.1264 469.768 -2.89724e-12
-3.15244e-12 -2.89724e-12 458.096

445.345 -18.6882 3.66285e-12
-18.6882 393.46 -4.25734e-12
3.66285e-12 -4.25734e-12 397.257

470.653 -18.8496 -9.38153e-12
-18.8496 422.852 3.63709e-12
-9.38153e-12 3.63709e-12 437.531

458.999 -25.337 -1.63765e-12
-25.337 485.428 -3.89041e-12
-1.63765e-12 -3.89041e-12 488.825

386.541 35.9694 4.00272e-12
35.9694 381.987 3.78956e-14
4.00272e-12 3.78956e-14 348.115

444.495 15.3768 2.04281e-14
15.3768 491.532 2.96059e-14
2.04281e-14 2.96059e-14 467.139

469.396 26.4222 6.59324e-13
26.4222 479.957 2.37529e-12
6.59324e-13 2.37529e-12 482.545

456.141 25.4736 3.35815e-13
25.4736 486.646 4.70883e-12
3.35815e-13 4.70883e-12 487.245

457.806 11.6215 1.13932e-13
11.6215 506.939 4.44208e-12
1.13932e-13 4.44208e-12 486.014

431.949 -8.227 -2.68585e-12
-8.227 370.754 9.00021e-14
-2.68585e-12 9.00021e-14 363.305

376.777 18.6064 5.08156e-12
18.6064 427.264 -3.43903e-12
5.08156e-12 -3.43903e-12 363.881

452.311 -24.3805 1.80004e-13
-24.3805 478.384 -2.02801e-13
1.80004e-13 -2.02801e-13 470.71

440.745 25.6659 -2.69414e-13
25.6659 455.639 3.27264e-12
-2.69414e-13 3.27264e-12 437.803

390.954 -35.6293 -2.65269e-13
-35.6293 380.275 1.7959e-12
-2.65269e-13 1.7959e-12 350.089

368.939 38.3166 2.14347e-13
38.3166 327.25 1.20674e-12
2.14347e-13 1.20674e-12 295.68

363.644 -33.311 5.74888e-12
-33.311 394.433 1.86044e-12
5.74888e-12 1.86044e-12 341.977

397.928 -31.1596 -6.83305e-13
-31.1596 404.19 -2.12926e-12
-6.83305e-13 -2.12926e-12 362.971

502.855 -6.83865 4.5001e-13
-6.83865 442.248 1.98834e-12
4.5001e-13 1.98834e-12 482.315

393.161 30.3417 1.37253e-12
30.3417 408.976 2.81967e-12
1.37253e-12 2.81967e-12 363.431

429.698 13.2946 -2.83625e-12
13.2946 372.244 -4.26592e-12
-2.83625e-12 -4.26592e-12 362.711

350.141 13.3788 9.77292e-13
13.3788 418.511 -1.78583e-12
9.77292e-13 -1.78583e-12 348.472

379.476 -22.3403 5.35631e-12
-22.3403 423.51 -2.68111e-12
5.35631e-12 -2.68111e-12 363.445

491.205 -1.09164 1.88501e-12
-1.09164 550.875 1.24227e-12
1.88501e-12 1.24227e-12 516.303

372.86 2.24661 -9.16156e-12
2.24661 437.784 -4.45629e-12
-9.16156e-12 -4.45629e-12 373.517

357.886 31.0892 -5.91527e-13
31.0892 399.483 3.63087e-12
-5.91527e-13 3.63087e-12 341.957

457.988 12.1079 -6.74081e-13
12.1079 510.558 3.87483e-12
-6.74081e-13 3.87483e-12 488.401

421.449 -27.6476 9.45022e-13
-27.6476 389.068 -4.51846e-12
9.45022e-13 -4.51846e-12 375.069

524.754 20.557 2.37055e-12
20.557 469.747 1.44625e-12
2.37055e-12 1.44625e-12 500.732

534.922 26.2704 -1.43293e-13
26.2704 506.857 -3.70918e-12
-1.43293e-13 -3.70918e-12 516.091

494.814 -18.5676 4.65583e-12
-18.5676 449.023 -2.97066e-12
4.65583e-12 -2.97066e-12 470.853

554.582 -1.80143 4.00302e-12
-1.80143 516.02 4.52172e-12
4.00302e-12 4.52172e-12 525.714

473.285 -31.8118 -1.66978e-12
-31.8118 475.694 3.12668e-12
-1.66978e-12 3.12668e-12 478.575

412.595 23.3277 -2.85164e-12
23.3277 357.193 -2.52657e-12
-2.85164e-12 -2.52657e-12 348.088

464.174 30.1621 1.40332e-12
30.1621 482.766 5.96264e-13
1.40332e-12 5.96264e-13 483.202

464.437 29.2059 2.25153e-12
29.2059 482.239 1.61204e-12
2.25153e-12 1.61204e-12 482.763

393.943 30.6608 4.81866e-12
30.6608 405.72 -2.74151e-12
4.81866e-12 -2.74151e-12 360.866

502.852 27.0851 -2.73559e-12
27.0851 482.663 4.78551e-12
-2.73559e-12 4.78551e-12 490.732

415.348 3.52515 7.11727e-13
3.52515 339.014 -2.26804e-12
7.11727e-13 -2.26804e-12 340.822

493.12 31.8172 -1.87554e-12
31.8172 487.221 2.04814e-12
-1.87554e-12 2.04814e-12 495.572

476.324 -12.5996 9.72851e-13
-12.5996 522.448 4.60254e-12
9.72851e-13 4.60254e-12 500.246

536.924 24.2781 -6.53995e-13
24.2781 507.4 4.12588e-12
-6.53995e-13 4.12588e-12 516.628

468.175 -29.5787 5.30183e-12
-29.5787 479.968 6.44225e-13
5.30183e-12 6.44225e-13 483.059

464.558 -4.89799 6.44762e-13
-4.89799 521.554 2.09965e-12
6.44762e-13 2.09965e-12 490.977

400.937 -24.5563 -2.06531e-12
-24.5563 349.021 3.46982e-12
-2.06531e-12 3.46982e-12 323.948

418.964 29.6931 -4.20523e-12
29.6931 392.461 -9.85286e-13
-4.20523e-12 -9.85286e-13 373.767

352.342 14.6965 -4.86455e-12
14.6965 417.209 -5.66066e-12
-4.86455e-12 -5.66066e-12 348.237

500.528 -1.13893 -1.16322e-12
-1.13893 442.793 2.56536e-13
-1.16322e-12 2.56536e-13 487.707

492.469 0.0022218 -1.27098e-12
0.0022218 438.101 -2.12971e-12
-1.27098e-12 -2.12971e-12 474.417

452.964 23.124 2.55485e-12
23.124 479.706 4.04121e-13
2.55485e-12 4.04121e-13 475.584

481.302 23.871 8.88771e-13
23.871 502.872 3.57729e-12
8.88771e-13 3.57729e-12 501.252

456.586 -24.3808 2.07014e-12
-24.3808 487.351 2.04488e-12
2.07014e-12 2.04488e-12 488.496

457.835 -0.672847 -5.56962e-13
-0.672847 517.941 -6.66134e-13
-5.56962e-13 -6.66134e-13 486.399

458.884 25.5904 -1.06389e-12
25.5904 486.468 -2.39712e-12
-1.06389e-12 -2.39712e-12 488.518

465.56 -10.308 1.73905e-12
-10.308 408.084 4.63333e-14
1.73905e-12 4.63333e-14 427.224

400.866 -32.8336 -2.77941e-12
-32.8336 414.957 4.40833e-12
-2.77941e-12 4.40833e-12 385.167

518.099 -2.30086 -2.21601e-12
-2.30086 465.741 2.67342e-13
-2.21601e-12 2.67342e-13 500.929

391.874 -34.5084 3.58469e-12
-34.5084 379.608 -6.27054e-12
3.58469e-12 -6.27054e-12 347.419

478.004 19.0861 -3.52266e-12
19.0861 509.205 -5.27637e-12
-3.52266e-12 -5.27637e-12 501.849

506.116 -26.4788 -3.85351e-12
-26.4788 470.251 6.81973e-12
-3.85351e-12 6.81973e-12 487.276

425.003 -9.6903 -2.32466e-12
-9.6903 366.733 5.36253e-12
-2.32466e-12 5.36253e-12 355.983

530.27 -23.192 -4.31773e-12
-23.192 488.761 2.56299e-12
-4.31773e-12 2.56299e-12 506.493

500.897 2.35829 1.97131e-12
2.35829 444.581 -3.655e-12
1.97131e-12 -3.655e-12 489.209

521.195 -23.3216 -1.18246e-12
-23.3216 501.846 -1.75756e-12
-1.18246e-12 -1.75756e-12 508.538

502.02 -25.8595 1.24878e-12
-25.8595 461.496 -6.9574e-13
1.24878e-12 -6.9574e-13 481.248

498.832 -8.54621 6.54587e-13
-8.54621 445.14 2.91026e-13
6.54587e-13 2.91026e-13 479.349

482.225 -23.0682 2.27492e-12
-23.0682 504.997 2.8403e-12
2.27492e-12 2.8403e-12 502.54

428.543 -31.3421 -4.80801e-13
-31.3421 410.591 9.23113e-13
-4.80801e-13 9.23113e-13 399.001

503.272 -24.5874 -8.39625e-13
-24.5874 464.718 4.60284e-12
-8.39625e-13 4.60284e-12 482.164

441.245 10.8645 1.96583e-12
10.8645 378.484 -3.36116e-12
1.96583e-12 -3.36116e-12 387.801

500.042 26.3403 1.2097e-12
26.3403 498.588 -2.08826e-12
1.2097e-12 -2.08826e-12 500.109

463.754 -37.6127 3.45797e-13
-37.6127 488.394 -6.72259e-12
3.45797e-13 -6.72259e-12 494.087

464.863 37.265 -1.18483e-12
37.265 487.305 -3.48247e-12
-1.18483e-12 -3.48247e-12 493.802

446.332 -28.5733 -4.31755e-12
-28.5733 500.019 1.40214e-12
-4.31755e-12 1.40214e-12 492.317

448.566 27.064 4.98897e-12
27.064 500.71 -2.35871e-12
4.98897e-12 -2.35871e-12 492.504

513.075 -8.52755 3.83397e-13
-8.52755 436.41 5.95228e-13
3.83397e-13 5.95228e-13 492.764

511.237 9.27356 -2.20268e-13
9.27356 438.007 -9.4591e-14
-2.20268e-13 -9.4591e-14 492.402

501.661 -9.84626 2.96356e-13
-9.84626 451.747 -2.93617e-12
2.96356e-13 -2.93617e-12 483.025

510.869 32.1159 -1.62803e-12
32.1159 510.395 3.73238e-12
-1.62803e-12 3.73238e-12 514.059

509.645 -32.8539 3.33659e-13
-32.8539 510.072 -1.64082e-12
3.33659e-13 -1.64082e-12 513.699

481.814 16.0684 -3.2235e-12
16.0684 539.135 -3.59209e-12
-3.2235e-12 -3.59209e-12 514.331

483.008 -15.8009 6.762e-13
-15.8009 538.725 -1.11822e-12
6.762e-13 -1.11822e-12 514.352

556.873 -3.74784 3.98851e-12
-3.74784 506.836 6.31199e-13
3.98851e-12 6.31199e-13 524.997

558.428 3.6106 -2.11016e-12
3.6106 505.161 8.01433e-13
-2.11016e-12 8.01433e-13 525.368

387.311 9.83696 -5.18304e-12
9.83696 449.2 2.16716e-13
-5.18304e-12 2.16716e-13 397.089

472.391 -24.7743 -2.15206e-12
-24.7743 480.758 5.33958e-12
-2.15206e-12 5.33958e-12 484.98

443.465 -36.3874 3.90369e-12
-36.3874 485.536 2.33428e-12
3.90369e-12 2.33428e-12 486.631

473.645 -4.66432 3.67114e-13
-4.66432 420.439 3.51611e-12
3.67114e-13 3.51611e-12 436.341

540.258 -16.6945 1.08358e-12
-16.6945 484.196 -1.22746e-12
1.08358e-12 -1.22746e-12 515.292

540.978 16.1755 -9.8721e-13
16.1755 485.419 1.25766e-12
-9.8721e-13 1.25766e-12 515.898

506.865 0.121879 -1.18823e-12
0.121879 423.555 3.17073e-12
-1.18823e-12 3.17073e-12 487.005

384.794 23.3754 8.86402e-13
23.3754 432.299 1.75741e-12
8.86402e-13 1.75741e-12 385.478

442.337 36.1714 -8.87808e-13
36.1714 485.214 4.98757e-12
-8.87808e-13 4.98757e-12 485.837

452.6 -23.3958 1.65172e-12
-23.3958 494.956 3.38603e-12
1.65172e-12 3.38603e-12 483.594

443.251 23.353 4.34497e-12
23.353 397.52 1.89419e-12
4.34497e-12 1.89419e-12 400.375

530.972 23.8583 -1.36187e-12
23.8583 488.011 5.43684e-12
-1.36187e-12 5.43684e-12 507.251

428.481 -31.3139 -3.81325e-12
-31.3139 410.876 3.36205e-12
-3.81325e-12 3.36205e-12 398.819

519.863 -3.23109 -3.97016e-13
-3.23109 469.062 -6.987e-13
-3.97016e-13 -6.987e-13 502.689

439.399 -34.1609 8.46826e-12
-34.1609 485.507 -4.00998e-12
8.46826e-12 -4.00998e-12 485.826

389.185 8.32004 1.0526e-12
8.32004 452.33 3.23652e-12
1.0526e-12 3.23652e-12 400.857

385.881 21.8118 7.13237e-12
21.8118 435.775 1.06581e-13
7.13237e-12 1.06581e-13 388.696

383.849 35.7762 4.98919e-12
35.7762 362.333 -7.70939e-13
4.98919e-12 -7.70939e-13 318.329

408.184 1.57877 2.97244e-12
1.57877 332.157 2.47994e-12
2.97244e-12 2.47994e-12 327.326

485.458 -22.8046 -9.91799e-14
-22.8046 502.861 -2.45056e-12
-9.91799e-14 -2.45056e-12 501.752

351.879 31.1841 -2.00965e-12
31.1841 388.832 2.69769e-12
-2.00965e-12 2.69769e-12 312.358

451.352 23.6101 5.17512e-13
23.6101 478.415 -6.4541e-13
5.17512e-13 -6.4541e-13 465.215

442.198 -5.3496 -3.91983e-13
-5.3496 377.127 3.59268e-12
-3.91983e-13 3.59268e-12 387.739

464.158 11.2162 2.57039e-12
11.2162 407.301 -2.81493e-12
2.57039e-12 -2.81493e-12 424.924

505.381 0.429901 -7.11283e-13
0.429901 421.575 2.00436e-12
-7.11283e-13 2.00436e-12 485.677

449.352 -29.031 -9.27406e-14
-29.031 501.999 -1.27335e-12
-9.27406e-14 -1.27335e-12 493.59

572.51 -6.31882 -3.91901e-12
-6.31882 589.484 5.1544e-13
-3.91901e-12 5.1544e-13 549.254

463.142 37.4114 6.54587e-13
37.4114 487.028 8.70304e-13
6.54587e-13 8.70304e-13 493.066

408.739 1.6633 -2.1861e-12
1.6633 331.603 -2.59326e-12
-2.1861e-12 -2.59326e-12 308.905

404.236 -32.7873 8.75744e-13
-32.7873 415.51 -3.27797e-12
8.75744e-13 -3.27797e-12 387.391

443.143 36.6128 -2.45344e-12
36.6128 485.508 1.48163e-12
-2.45344e-12 1.48163e-12 486.574

444.68 -11.1339 -1.0571e-12
-11.1339 498.937 1.35418e-12
-1.0571e-12 1.35418e-12 471.443

386.074 -25.5148 3.31498e-12
-25.5148 428.903 1.91254e-12
3.31498e-12 1.91254e-12 384.565

449.452 28.8299 1.42086e-12
28.8299 501.633 -3.2833e-12
1.42086e-12 -3.2833e-12 493.29

452.712 -26.1421 2.6894e-12
-26.1421 419.304 1.61175e-12
2.6894e-12 1.61175e-12 419.519

579.552 10.4835 -2.36907e-12
10.4835 582.164 2.37699e-12
-2.36907e-12 2.37699e-12 549.039

398.33 30.8723 -6.70871e-13
30.8723 422.06 -3.42245e-13
-6.70871e-13 -3.42245e-13 388.164

515.708 8.12665 4.3275e-12
8.12665 437.27 -4.82444e-12
4.3275e-12 -4.82444e-12 494.583

493.807 30.1907 1.15078e-12
30.1907 484.749 9.47094e-13
1.15078e-12 9.47094e-13 493.803

453.467 23.332 -2.41792e-12
23.332 479.165 -1.60494e-12
-2.41792e-12 -1.60494e-12 475.8

510.703 -32.4885 1.41812e-12
-32.4885 512.454 1.36334e-12
1.41812e-12 1.36334e-12 515.008

510.31 -23.1904 -1.90899e-12
-23.1904 473.182 1.16943e-12
-1.90899e-12 1.16943e-12 489.679

511.403 10.4705 3.92471e-12
10.4705 557.993 2.39749e-12
3.92471e-12 2.39749e-12 523.733

452.174 -23.4339 -1.33937e-12
-23.4339 480.167 6.29067e-12
-1.33937e-12 6.29067e-12 468.952

394.411 -9.7079 2.45374e-12
-9.7079 316.414 9.89579e-14
2.45374e-12 9.89579e-14 295.576

387.291 -14.2773 2.89901e-12
-14.2773 306.06 -3.50061e-12
2.89901e-12 -3.50061e-12 290.05

547.585 16.5296 7.37484e-13
16.5296 507.765 -6.81825e-13
7.37484e-13 -6.81825e-13 519.321

436.489 22.5019 -3.34873e-12
22.5019 469.138 -4.10338e-13
-3.34873e-12 -4.10338e-13 447.825

475.964 29.1633 -1.02141e-12
29.1633 467.647 -2.73737e-12
-1.02141e-12 -2.73737e-12 471.48

450.303 0.688675 -1.46135e-12
0.688675 392.778 1.86233e-12
-1.46135e-12 1.86233e-12 395.675

478.352 6.57109 -2.54519e-13
6.57109 541.279 4.30648e-12
-2.54519e-13 4.30648e-12 507.541

507.332 16.5407 7.06635e-12
16.5407 461.137 1.91787e-12
7.06635e-12 1.91787e-12 488.081

389.978 -25.7613 -1.26536e-12
-25.7613 430.037 3.55035e-12
-1.26536e-12 3.55035e-12 387.735

456.32 -2.57233 1.83512e-12
-2.57233 517.015 7.76268e-13
1.83512e-12 7.76268e-13 484.842

400.59 13.3653 4.97676e-13
13.3653 452.987 1.54069e-12
4.97676e-13 1.54069e-12 404.637

486.915 -29.7134 2.97125e-12
-29.7134 465.815 2.43065e-12
2.97125e-12 2.43065e-12 474.259

430.3 -29.9477 -4.66886e-12
-29.9477 423.63 1.59991e-12
-4.66886e-12 1.59991e-12 404.956

399.712 31.6231 1.66208e-12
31.6231 418.233 -3.46686e-12
1.66208e-12 -3.46686e-12 386.003

624 -15.02 -2.03097e-13
-15.02 581.948 3.64686e-12
-2.03097e-13 3.64686e-12 557.904

494.523 2.04139 3.52237e-13
2.04139 552.144 -1.22983e-12
3.52237e-13 -1.22983e-12 517.926

483.503 20.2999 -3.20025e-12
20.2999 542.043 1.3148e-12
-3.20025e-12 1.3148e-12 516.031

544.706 15.4388 -3.67839e-12
15.4388 479.971 -8.04986e-13
-3.67839e-12 -8.04986e-13 515.754

473.749 -26.1888 9.82325e-13
-26.1888 479.757 -5.93747e-12
9.82325e-13 -5.93747e-12 483.018

452.126 17.9574 3.45324e-12
17.9574 404.509 2.22933e-13
3.45324e-12 2.22933e-13 406.919

531.58 -5.29391 -2.31482e-14
-5.29391 580.801 2.4715e-12
-2.31482e-14 2.4715e-12 537.118

512.188 -18.9881 -1.01548e-13
-18.9881 464.794 -1.65734e-12
-1.01548e-13 -1.65734e-12 493.029

473.977 -15.5989 -3.77772e-13
-15.5989 423.177 2.26337e-13
-3.77772e-13 2.26337e-13 438.881

402.001 11.6033 2.22637e-12
11.6033 455.959 5.3196e-12
2.22637e-12 5.3196e-12 407.78

410.924 -25.7344 -4.06667e-12
-25.7344 435.582 1.0066e-13
-4.06667e-12 1.0066e-13 398.957

532.049 -25.2738 4.09036e-12
-25.2738 523.193 -7.46366e-13
4.09036e-12 -7.46366e-13 519.119

423.057 31.9597 2.54552e-12
31.9597 417.249 2.93573e-12
2.54552e-12 2.93573e-12 400.306

535.482 -25.1346 -6.46594e-13
-25.1346 505.789 2.0733e-12
-6.46594e-13 2.0733e-12 515.66

453.495 2.59738 -8.86994e-13
2.59738 397.02 1.63388e-12
-8.86994e-13 1.63388e-12 401.898

311.1 -28.9307 -8.42585e-13
-28.9307 376.598 2.5248e-12
-8.42585e-13 2.5248e-12 289.996

431.877 -29.2312 -4.49477e-12
-29.2312 424.049 -2.42295e-12
-4.49477e-12 -2.42295e-12 406.155

353.762 32.1592 1.32279e-12
32.1592 392.546 -9.4739e-15
1.32279e-12 -9.4739e-15 312.969

470.347 -11.8768 -7.61872e-13
-11.8768 529.553 -3.53613e-12
-7.61872e-13 -3.53613e-12 500.304

391.451 -13.8214 -2.94017e-12
-13.8214 449.255 -9.73444e-13
-2.94017e-12 -9.73444e-13 400.199

602.854 -23.9877 1.38008e-12
-23.9877 602.267 1.12997e-11
1.38008e-12 1.12997e-11 557.845

408.372 23.771 2.42177e-13
23.771 441.941 -1.73846e-12
2.42177e-13 -1.73846e-12 402.223

496.578 -32.7263 3.76203e-12
-32.7263 490.642 -5.50078e-13
3.76203e-12 -5.50078e-13 497.448

388.19 -11.9632 3.06436e-12
-11.9632 448.287 -9.03573e-13
3.06436e-12 -9.03573e-13 397.017

516.712 -19.1168 -3.20692e-12
-19.1168 465.755 3.40705e-12
-3.20692e-12 3.40705e-12 496.245

410.688 23.8772 -3.09264e-12
23.8772 439.313 8.04098e-13
-3.09264e-12 8.04098e-13 400.7

488.922 -4.9755 -1.91254e-13
-4.9755 435.072 9.42098e-13
-1.91254e-13 9.42098e-13 460.384

305.783 -30.3428 2.76164e-12
-30.3428 391.44 -3.1477e-12
2.76164e-12 -3.1477e-12 262.571

438.611 21.0142 -1.0069e-12
21.0142 473.915 -1.03621e-13
-1.0069e-12 -1.03621e-13 458.351

445.69 -19.3234 9.71075e-13
-19.3234 393.979 -3.49528e-12
9.71075e-13 -3.49528e-12 399.626

551.605 -21.4458 -6.06567e-12
-21.4458 499.519 -3.48462e-13
-6.06567e-12 -3.48462e-13 520.105

424.473 31.7542 -1.5774e-12
31.7542 413.325 -3.02632e-12
-1.5774e-12 -3.02632e-12 397.962

459.166 -29.9719 -1.86814e-12
-29.9719 437.641 5.03686e-12
-1.86814e-12 5.03686e-12 439.303

510.623 20.8853 1.72307e-13
20.8853 476.076 1.05012e-12
1.72307e-13 1.05012e-12 492.759

461.509 -28.0759 5.4771e-12
-28.0759 485.745 -2.06938e-12
5.4771e-12 -2.06938e-12 488.722

413.724 -26.2254 3.4935e-12
-26.2254 436.249 4.46813e-12
3.4935e-12 4.46813e-12 401.443

426.079 28.9813 2.74625e-12
28.9813 429.902 -1.73372e-12
2.74625e-12 -1.73372e-12 406.865

452.505 26.1915 -9.2489e-13
26.1915 418.232 -1.06877e-13
-9.2489e-13 -1.06877e-13 419.063

521.974 -14.6101 -2.05199e-12
-14.6101 477.182 6.17254e-12
-2.05199e-12 6.17254e-12 500.068

403.565 -16.6177 -2.50999e-12
-16.6177 451.748 1.202e-12
-2.50999e-12 1.202e-12 406.447

496.051 -17.5683 3.91213e-12
-17.5683 447.612 -3.68772e-12
3.91213e-12 -3.68772e-12 471.506

487.77 16.9085 -5.06617e-12
16.9085 436.264 -3.00589e-12
-5.06617e-12 -3.00589e-12 460.594

513.346 -9.38662 -2.78592e-13
-9.38662 555.782 -2.05347e-12
-2.78592e-13 -2.05347e-12 523.034

453.984 -13.4301 1.92557e-12
-13.4301 402.183 1.18202e-12
1.92557e-12 1.18202e-12 406.748

403.207 0.594051 -1.23398e-12
0.594051 465.731 -5.39302e-12
-1.23398e-12 -5.39302e-12 417.81

475.032 18.555 4.22003e-12
18.555 428.777 -4.02907e-12
4.22003e-12 -4.02907e-12 442.226

451.148 27.6041 2.49993e-12
27.6041 421.844 2.18818e-12
2.49993e-12 2.18818e-12 420.849

400.874 -15.6862 8.58572e-13
-15.6862 451.388 -1.78228e-12
8.58572e-13 -1.78228e-12 403.741

406.005 -1.20229 1.06315e-12
-1.20229 468.04 1.05752e-12
1.06315e-12 1.05752e-12 421.225

516.205 29.1344 -6.2883e-13
29.1344 498.031 -1.06137e-12
-6.2883e-13 -1.06137e-12 504.881

441.71 -10.9222 6.6939e-13
-10.9222 500.664 1.42405e-12
6.6939e-13 1.42405e-12 471.154

451.445 -26.7154 -9.71075e-13
-26.7154 418.771 -9.8647e-13
-9.71075e-13 -9.8647e-13 419.358

444.393 21.3327 -9.4739e-13
21.3327 395.303 -1.94097e-12
-9.4739e-13 -1.94097e-12 398.206

497.601 23.6654 -1.06463e-12
23.6654 458.096 -1.77192e-12
-1.06463e-12 -1.77192e-12 476.556

447.688 5.47086 3.15895e-12
5.47086 508.796 4.51787e-13
3.15895e-12 4.51787e-13 476.887

427.655 29.0657 -3.20336e-13
29.0657 426.44 -3.34251e-12
-3.20336e-13 -3.34251e-12 405.115

536.826 22.9638 -3.26139e-12
22.9638 531.902 -1.84386e-12
-3.26139e-12 -1.84386e-12 522.79

314.754 -59.6921 -1.16482e-11
-59.6921 282.773 1.08251e-11
-1.16482e-11 1.08251e-11 223.427

480.6 -25.0479 1.92024e-12
-25.0479 445.078 3.23504e-12
1.92024e-12 3.23504e-12 456.652

336.668 7.06995 -6.23057e-12
7.06995 409.161 7.06043e-12
-6.23057e-12 7.06043e-12 319.444

460.544 -28.8894 -1.87939e-12
-28.8894 444.743 -1.77458e-12
-1.87939e-12 -1.77458e-12 443.458

96.425 -52.7015 9.87654e-13
-52.7015 306.621 -7.51754e-12
9.87654e-13 -7.51754e-12 113.701

95.9588 51.4521 2.77704e-12
51.4521 306.886 2.78059e-12
2.77704e-12 2.78059e-12 114.489

181.519 117.155 -1.09424e-12
117.155 226.079 2.7948e-12
-1.09424e-12 2.7948e-12 113.589

182.817 -117.098 1.99663e-12
-117.098 223.314 -7.73544e-12
1.99663e-12 -7.73544e-12 113.563

321.586 -1.36338 4.20641e-12
-1.36338 84.6544 4.7388e-14
4.20641e-12 4.7388e-14 114.93

274.436 -91.1263 7.42754e-12
-91.1263 127.42 -1.88768e-12
7.42754e-12 -1.88768e-12 113.803

275.132 91.6542 3.33481e-12
91.6542 128.252 -8.26598e-13
3.33481e-12 -8.26598e-13 114.574

525.246 14.3304 -1.35151e-12
14.3304 474.717 2.76816e-12
-1.35151e-12 2.76816e-12 502.32

556.802 25.5364 -1.3752e-12
25.5364 541.188 -7.44294e-12
-1.3752e-12 -7.44294e-12 533.455

492.099 6.60609 3.93167e-13
6.60609 439.127 1.16277e-12
3.93167e-13 1.16277e-12 471.408

470.306 21.7848 -4.87314e-13
21.7848 424.522 6.03961e-13
-4.87314e-13 6.03961e-13 438.2

409.981 17.7446 -3.84463e-12
17.7446 461.079 6.57844e-13
-3.84463e-12 6.57844e-13 425.049

448.017 28.8987 1.71714e-12
28.8987 424.711 2.57809e-12
1.71714e-12 2.57809e-12 420.756

487.155 -29.6636 -3.26258e-13
-29.6636 465.633 -3.69009e-12
-3.26258e-13 -3.69009e-12 474.595

449.374 28.028 4.92051e-13
28.028 421.077 -1.04805e-12
4.92051e-13 -1.04805e-12 418.647

402.969 -2.8413 1.36158e-12
-2.8413 465.388 -5.32433e-12
1.36158e-12 -5.32433e-12 417.546

555.808 -26.0973 4.25378e-12
-26.0973 543.381 -1.44373e-12
4.25378e-12 -1.44373e-12 533.699

405.507 -4.86246 -2.00876e-12
-4.86246 467.126 6.14619e-13
-2.00876e-12 6.14619e-13 420.605

522.298 23.0164 -3.05711e-12
23.0164 499.748 9.01649e-13
-3.05711e-12 9.01649e-13 507.975

423.384 26.8709 -7.0474e-12
26.8709 386.512 2.0961e-12
-7.0474e-12 2.0961e-12 373.032

480.115 -13.2161 1.81795e-12
-13.2161 532.774 -3.48758e-13
1.81795e-12 -3.48758e-13 512.007

484.204 13.728 -1.83912e-12
13.728 432.782 -4.35178e-12
-1.83912e-12 -4.35178e-12 456.881

457.375 -29.9879 3.42837e-13
-29.9879 436.982 2.95793e-12
3.42837e-13 2.95793e-12 437.839

454.315 -24.7137 -6.75016e-13
-24.7137 416.81 1.28105e-12
-6.75016e-13 1.28105e-12 419.859

547.41 -16.0748 3.27146e-13
-16.0748 509.311 -7.4607e-13
3.27146e-13 -7.4607e-13 519.39

475.978 27.9291 -5.62572e-12
27.9291 449.712 2.35663e-12
-5.62572e-12 2.35663e-12 456.931

469.107 23.9776 -4.11286e-12
23.9776 427.855 8.29559e-13
-4.11286e-12 8.29559e-13 439.836

432.434 -2.79292 1.07555e-12
-2.79292 493.643 -2.11386e-12
1.07555e-12 -2.11386e-12 457.113

417.613 5.87338 5.97262e-13
5.87338 479.564 -2.57572e-13
5.97262e-13 -2.57572e-13 440.183

463.018 2.64673 7.4903e-13
2.64673 402.285 9.97461e-13
7.4903e-13 9.97461e-13 422.327

438.654 -7.28973 -5.61329e-13
-7.28973 373.92 7.96104e-13
-5.61329e-13 7.96104e-13 381.223

454.85 30.485 3.42422e-12
30.485 439.021 -1.69346e-13
3.42422e-12 -1.69346e-13 437.842

478.471 -26.1556 -2.84809e-13
-26.1556 443.549 1.84593e-12
-2.84809e-13 1.84593e-12 454.652

525.706 -21.2544 -2.05436e-12
-21.2544 497.834 -2.2915e-13
-2.05436e-12 -2.2915e-13 508.624

437.739 -31.6339 -3.65101e-12
-31.6339 437.661 -1.0368e-12
-3.65101e-12 -1.0368e-12 426.865

417.596 -27.7858 -3.68298e-12
-27.7858 444.402 -3.08672e-12
-3.68298e-12 -3.08672e-12 419.694

430.653 29.8875 1.10549e-12
29.8875 442.75 -3.32179e-13
1.10549e-12 -3.32179e-13 426.503

416.231 -9.578 -1.80581e-12
-9.578 475.218 2.6219e-12
-1.80581e-12 2.6219e-12 436.461

428.901 -1.54486 8.47248e-13
-1.54486 491.875 1.43648e-12
8.47248e-13 1.43648e-12 454

445.187 5.74791 -6.69983e-13
5.74791 508.05 -5.79092e-13
-6.69983e-13 -5.79092e-13 474.92

414.624 -21.0893 -8.35776e-13
-21.0893 458.414 -7.21911e-12
-8.35776e-13 -7.21911e-12 426.071

496.875 24.1114 -2.56802e-12
24.1114 455.702 1.1123e-12
-2.56802e-12 1.1123e-12 474.599

483.38 -9.58984 -1.84682e-12
-9.58984 430.118 2.37736e-12
-1.84682e-12 2.37736e-12 455.227

415.639 7.46533 4.40636e-12
7.46533 477.127 1.65793e-14
4.40636e-12 1.65793e-14 436.919

443.961 -9.70113 -1.78572e-12
-9.70113 501.51 2.03097e-12
-1.78572e-12 2.03097e-12 471.013

433.18 -16.3308 -3.08553e-12
-16.3308 481.682 -1.71418e-12
-3.08553e-12 -1.71418e-12 455.674

463.546 -8.23929 1.29082e-12
-8.23929 406.341 -2.55233e-12
1.29082e-12 -2.55233e-12 421.477

494.44 -32.3468 1.12799e-12
-32.3468 487.622 -4.1925e-12
1.12799e-12 -4.1925e-12 496.257

422.95 9.32101 -8.09871e-13
9.32101 479.098 -8.48506e-13
-8.09871e-13 -8.48506e-13 440.986

564.363 -18.2127 -2.64944e-12
-18.2127 529.956 1.08225e-12
-2.64944e-12 1.08225e-12 531.836

309.053 24.823 8.65086e-13
24.823 379.428 1.42582e-12
8.65086e-13 1.42582e-12 289.802

501.704 -26.6263 -4.02937e-13
-26.6263 499.496 -2.09462e-13
-4.02937e-13 -2.09462e-13 501.206

515.655 -30.2029 -1.94097e-12
-30.2029 498.41 -3.62673e-13
-1.94097e-12 -3.62673e-13 504.924

429.229 -0.701239 1.75571e-12
-0.701239 492 -2.05465e-13
1.75571e-12 -2.05465e-13 454.151

474.888 -16.6227 -4.0649e-12
-16.6227 428.343 -2.28558e-13
-4.0649e-12 -2.28558e-13 441.962

462.311 12.8417 1.5555e-12
12.8417 511.281 1.59694e-12
1.5555e-12 1.59694e-12 489.128

240.779 -3.18062 -1.92046e-12
-3.18062 360.693 1.77873e-12
-1.92046e-12 1.77873e-12 226.969

432.41 14.2738 -4.37724e-13
14.2738 485.363 -3.33245e-12
-4.37724e-13 -3.33245e-12 456.889

458.118 -29.4896 6.05146e-13
-29.4896 443.177 -1.77458e-12
6.05146e-13 -1.77458e-12 440.768

304.191 25.1059 5.22249e-13
25.1059 394.59 3.71851e-12
5.22249e-13 3.71851e-12 264.345

603.554 26.0976 8.69971e-12
26.0976 597.959 -5.66495e-12
8.69971e-12 -5.66495e-12 558.162

608.287 -27.8069 -8.15274e-12
-27.8069 595.033 9.60624e-12
-8.15274e-12 9.60624e-12 558.296

463.5 -30.4194 -3.14534e-12
-30.4194 459.045 -5.86168e-12
-3.14534e-12 -5.86168e-12 459.079

434.591 -31.1606 1.02022e-12
-31.1606 436.366 -1.91018e-12
1.02022e-12 -1.91018e-12 424.668

474.108 20.8277 2.00136e-12
20.8277 431.921 -3.23978e-12
2.00136e-12 -3.23978e-12 443.979

465.229 15.0063 2.21156e-12
15.0063 410.123 -7.38964e-13
2.21156e-12 -7.38964e-13 427.469

646.071 3.08325 3.80037e-12
3.08325 645.729 6.52234e-12
3.80037e-12 6.52234e-12 574.624

649.892 -6.99969 1.3351e-11
-6.99969 641.399 -1.93362e-11
1.3351e-11 -1.93362e-11 575.152

496.996 4.82429 2.54611e-12
4.82429 442.041 1.98656e-13
2.54611e-12 1.98656e-13 477.42

443.564 6.73112 -8.3733e-13
6.73112 502.996 2.76934e-12
-8.3733e-13 2.76934e-12 471.057

441.978 6.73634 2.62239e-12
6.73634 502.522 2.61835e-12
2.62239e-12 2.61835e-12 469.78

321.54 58.6351 1.91373e-12
58.6351 281.126 -2.77822e-12
1.91373e-12 -2.77822e-12 225.08

420.235 -28.2002 5.09755e-12
-28.2002 444.03 3.45324e-12
5.09755e-12 3.45324e-12 421.038

520.585 17.9745 -2.22666e-12
17.9745 467.537 -2.1109e-13
-2.22666e-12 -2.1109e-13 499.516

472.987 9.53984 3.27679e-12
9.53984 421.203 -7.39112e-13
3.27679e-12 -7.39112e-13 436.21

440.637 -26.7237 -1.12384e-12
-26.7237 450.733 -4.4255e-12
-1.12384e-12 -4.4255e-12 433.422

469.284 -20.2379 -3.61074e-12
-20.2379 422.723 -6.09882e-14
-3.61074e-12 -6.09882e-14 437.183

312.477 60.2329 -2.65032e-12
60.2329 281.376 -9.0831e-13
-2.65032e-12 -9.0831e-13 223.218

492.688 31.0692 -9.46502e-13
31.0692 489.049 8.53836e-13
-9.46502e-13 8.53836e-13 493.145

410.869 -19.7864 8.37256e-13
-19.7864 457.889 7.66616e-12
8.37256e-13 7.66616e-12 423.504

474.135 28.858 -9.80549e-13
28.858 449.638 -7.09951e-13
-9.80549e-13 -7.09951e-13 456.525

430.963 -4.14493 2.8925e-12
-4.14493 492.98 6.86858e-14
2.8925e-12 6.86858e-14 456.474

423.937 19.6095 -9.07718e-13
19.6095 465.719 1.71122e-13
-9.07718e-13 1.71122e-13 434.115

452.755 30.5192 3.69127e-12
30.5192 443.605 -1.05338e-12
3.69127e-12 -1.05338e-12 439.615

428.65 -22.4735 1.67629e-12
-22.4735 461.144 -4.73044e-12
1.67629e-12 -4.73044e-12 433.819

443.581 -27.3529 3.35139e-13
-27.3529 450.44 1.76451e-12
3.35139e-13 1.76451e-12 435.052

294.782 11.2571 -2.01217e-12
11.2571 372.591 -4.26326e-14
-2.01217e-12 -4.26326e-14 258.105

357.303 -33.4567 1.9161e-12
-33.4567 389.123 1.54661e-12
1.9161e-12 1.54661e-12 314.133

419.664 -11.6907 1.04561e-12
-11.6907 476.368 -1.01075e-12
1.04561e-12 -1.01075e-12 439.352

478.404 26.4848 4.38583e-12
26.4848 446.806 -1.08772e-12
4.38583e-12 -1.08772e-12 456.091

452.352 29.4783 1.99544e-12
29.4783 449.033 -3.79548e-13
1.99544e-12 -3.79548e-13 442.406

426.815 -21.4342 2.17041e-12
-21.4342 461.791 5.07979e-12
2.17041e-12 5.07979e-12 432.637

422.937 -11.7826 -5.0863e-13
-11.7826 476.655 8.33111e-13
-5.0863e-13 8.33111e-13 439.935

457.713 28.4099 1.72603e-12
28.4099 447.094 1.69583e-12
1.72603e-12 1.69583e-12 442.578

425.112 -13.878 -2.76845e-12
-13.878 476.426 -2.1565e-12
-2.76845e-12 -2.1565e-12 442.112

311.269 27.8554 -2.91915e-12
27.8554 377.396 5.4996e-12
-2.91915e-12 5.4996e-12 289.989

485.176 -4.04116 3.59027e-12
-4.04116 545.055 1.37135e-12
3.59027e-12 1.37135e-12 511.043

432.992 31.028 3.10448e-12
31.028 439.635 1.06818e-12
3.10448e-12 1.06818e-12 426.026

509.317 14.9014 8.23993e-12
14.9014 463.168 -2.47062e-12
8.23993e-12 -2.47062e-12 488.612

516.927 -15.9277 -5.0034e-14
-15.9277 467.588 -4.88498e-13
-5.0034e-14 -4.88498e-13 493.93

383.931 -24.2049 1.03739e-12
-24.2049 305.952 5.82527e-12
1.03739e-12 5.82527e-12 285.359

442.286 -21.2675 3.10241e-12
-21.2675 476.007 1.08476e-12
3.10241e-12 1.08476e-12 459.328

447.834 26.6986 -4.5904e-12
26.6986 466.214 -3.32771e-12
-4.5904e-12 -3.32771e-12 457.848

522.981 -21.7278 -1.96199e-12
-21.7278 543.817 -3.80992e-12
-1.96199e-12 -3.80992e-12 525.315

579.587 14.1063 -1.06137e-12
14.1063 617.623 3.20692e-12
-1.06137e-12 3.20692e-12 557.057

620.21 9.44532 7.13355e-13
9.44532 576.845 -7.58208e-13
7.13355e-13 -7.58208e-13 556.876

523.476 32.7053 -3.49617e-12
32.7053 520.657 -5.06854e-13
-3.49617e-12 -5.06854e-13 519.53

414.897 26.0008 1.24345e-13
26.0008 448.912 4.51787e-12
1.24345e-13 4.51787e-12 420.382

478.102 26.6617 4.24312e-12
26.6617 444.776 3.18057e-12
4.24312e-12 3.18057e-12 455.514

332.368 45.1867 3.86535e-12
45.1867 349.494 4.46931e-12
3.86535e-12 4.46931e-12 286.744

571.394 -11.3434 5.03597e-12
-11.3434 614.474 4.50899e-13
5.03597e-12 4.50899e-13 554.6

641.328 -3.43275 6.38624e-12
-3.43275 636.871 -2.83492e-12
6.38624e-12 -2.83492e-12 572.4

634.906 -0.209879 8.61533e-14
-0.209879 643.178 -2.55122e-12
8.61533e-14 -2.55122e-12 572.227

272.967 -53.8032 5.90579e-12
-53.8032 316.451 1.71951e-12
5.90579e-12 1.71951e-12 220.912

566.643 -11.5999 4.31255e-12
-11.5999 562.129 -8.1067e-12
4.31255e-12 -8.1067e-12 540.903

563.775 8.8128 4.16519e-12
8.8128 586.966 3.20958e-12
4.16519e-12 3.20958e-12 546.845

478.251 -26.1998 1.23516e-12
-26.1998 440.448 -1.25144e-12
1.23516e-12 -1.25144e-12 453.488

494.354 1.01093 1.14312e-12
1.01093 545.765 -1.1724e-12
1.14312e-12 -1.1724e-12 514.063

447.657 -20.2681 8.42437e-13
-20.2681 484.165 -1.31273e-12
8.42437e-13 -1.31273e-12 470.644

506.307 6.25536 6.30015e-13
6.25536 443.381 -2.84669e-12
6.30015e-13 -2.84669e-12 486.131

461.281 15.5963 3.29921e-14
15.5963 521.259 3.12135e-12
3.29921e-14 3.12135e-12 497.562

471.187 7.19154 1.46827e-12
7.19154 528.012 -1.68695e-12
1.46827e-12 -1.68695e-12 497.696

493.769 20.393 -3.72443e-12
20.393 451.523 5.1017e-12
-3.72443e-12 5.1017e-12 469.757

241.068 -3.1139 -1.73646e-12
-3.1139 358.565 9.66575e-12
-1.73646e-12 9.66575e-12 227.067

463.707 -27.624 1.53596e-12
-27.624 463.398 1.03443e-12
1.53596e-12 1.03443e-12 461.197

488.351 -26.1166 -1.99722e-12
-26.1166 481.604 1.8631e-12
-1.99722e-12 1.8631e-12 485.875

497.544 -31.4837 -4.76656e-13
-31.4837 489.964 -3.99976e-13
-4.76656e-13 -3.99976e-13 498.987

355.604 32.75 -3.24244e-12
32.75 285.782 -2.72375e-14
-3.24244e-12 -2.72375e-14 248.37

563.886 -20.1164 -3.72147e-13
-20.1164 569.617 1.92594e-12
-3.72147e-13 1.92594e-12 542.576

337.652 54.3229 -3.87483e-12
54.3229 356.662 -3.63561e-12
-3.87483e-12 -3.63561e-12 258.879

477.077 -21.4394 1.77236e-12
-21.4394 506.496 1.35595e-13
1.77236e-12 1.35595e-13 500.25

504.779 14.6504 -2.51118e-12
14.6504 451.993 1.21384e-13
-2.51118e-12 1.21384e-13 481.566

449.837 -14.5726 8.24703e-12
-14.5726 396.992 7.9714e-13
8.24703e-12 7.9714e-13 400.846

452.6 24.0469 2.73263e-13
24.0469 478.786 9.84102e-13
2.73263e-13 9.84102e-13 467.854

493.673 20.4281 1.70589e-12
20.4281 449.507 -8.80185e-13
1.70589e-12 -8.80185e-13 469.348

505.571 11.4004 -2.48853e-12
11.4004 564.421 7.31267e-14
-2.48853e-12 7.31267e-14 526.717

475.902 -31.5804 1.56142e-12
-31.5804 470.362 3.66137e-12
1.56142e-12 3.66137e-12 475.07

559.275 19.8123 1.25884e-12
19.8123 510.445 6.72055e-13
1.25884e-12 6.72055e-13 526.492

439.964 -18.4437 3.80318e-12
-18.4437 482.472 -2.62723e-12
3.80318e-12 -2.62723e-12 459.155

465.903 4.28328 -3.2672e-13
4.28328 526.113 8.17716e-13
-3.2672e-13 8.17716e-13 495.516

588.643 9.92689 9.444e-12
9.92689 552.466 -5.67176e-12
9.444e-12 -5.67176e-12 545.193

590.426 -8.51353 -3.24244e-12
-8.51353 554.808 1.59073e-12
-3.24244e-12 1.59073e-12 545.711

382.315 18.5126 2.59585e-12
18.5126 302.291 -3.39935e-12
2.59585e-12 -3.39935e-12 286.138

502.685 7.96511 -5.6577e-13
7.96511 453.606 -3.6815e-13
-5.6577e-13 -3.6815e-13 487.771

232.818 7.74059 9.29331e-13
7.74059 381.52 -6.24804e-12
9.29331e-13 -6.24804e-12 187.189

236.987 -11.3853 -5.25724e-12
-11.3853 387.213 4.92643e-13
-5.25724e-12 4.92643e-13 189.453

249.29 56.4072 5.34328e-12
56.4072 354.781 -3.45324e-12
5.34328e-12 -3.45324e-12 184.025

505.021 -28.9506 -2.76283e-12
-28.9506 478.621 -3.03491e-12
-2.76283e-12 -3.03491e-12 491.349

258.475 -49.1908 -7.0249e-12
-49.1908 341.845 -1.79767e-12
-7.0249e-12 -1.79767e-12 220.737

249.295 -55.9497 -2.6669e-12
-55.9497 344.755 7.29964e-12
-2.6669e-12 7.29964e-12 181.118

434.66 26.2204 -2.4342e-12
26.2204 454.399 1.54543e-13
-2.4342e-12 1.54543e-13 432.83

329.927 73.8441 4.5759e-12
73.8441 280.013 2.71427e-12
4.5759e-12 2.71427e-12 184.829

540.131 13.0472 -5.98632e-13
13.0472 554.951 9.0831e-13
-5.98632e-13 9.0831e-13 532.082

562.388 0.0396943 -1.28697e-12
0.0396943 532.458 -1.43441e-12
-1.28697e-12 -1.43441e-12 531.875

338.606 -73.1295 -6.96332e-13
-73.1295 279.861 -4.34852e-12
-6.96332e-13 -4.34852e-12 186.312

432.675 -23.4242 4.1999e-12
-23.4242 466.316 -9.8351e-13
4.1999e-12 -9.8351e-13 447.577

358.935 34.7294 -1.6082e-12
34.7294 310.979 2.63256e-12
-1.6082e-12 2.63256e-12 258.041

267.708 63.4911 -1.26713e-12
63.4911 345.214 4.73695e-15
-1.26713e-12 4.73695e-15 185.847

293.696 21.6303 -7.87992e-12
21.6303 367.665 1.11792e-12
-7.87992e-12 1.11792e-12 254.5

267.579 -65.9199 -6.15093e-12
-65.9199 344.849 -6.2812e-12
-6.15093e-12 -6.2812e-12 184.303

291.643 -12.3812 -3.55863e-12
-12.3812 370.887 1.26808e-11
-3.55863e-12 1.26808e-11 253.446

550.311 6.84145 6.85392e-12
6.84145 582.081 5.41197e-13
6.85392e-12 5.41197e-13 541.122

329.893 -45.9751 4.47642e-12
-45.9751 341.82 6.21843e-12
4.47642e-12 6.21843e-12 276.618

259.784 47.5321 -1.60583e-12
47.5321 340.221 2.49637e-12
-1.60583e-12 2.49637e-12 223.148

370.22 37.9115 5.77908e-13
37.9115 244.923 -1.7355e-12
5.77908e-13 -1.7355e-12 187.359

481.896 -29.2859 -3.12106e-12
-29.2859 460.517 -2.53782e-12
-3.12106e-12 -2.53782e-12 467.72

480.982 12.8966 5.36001e-12
12.8966 525.835 1.33641e-12
5.36001e-12 1.33641e-12 504.109

354.422 -38.1127 -3.88667e-12
-38.1127 300.08 1.90899e-12
-3.88667e-12 1.90899e-12 251.818

482.54 -28.8023 -2.5544e-12
-28.8023 460.326 3.04172e-12
-2.5544e-12 3.04172e-12 468.469

365.267 -36.3434 5.5375e-12
-36.3434 230.991 3.77772e-12
5.5375e-12 3.77772e-12 182.772

481.508 -28.3176 -2.97125e-12
-28.3176 472.76 -1.09542e-13
-2.97125e-12 -1.09542e-13 477.924

436.359 -25.2951 -7.52583e-13
-25.2951 466.23 -5.02176e-12
-7.52583e-13 -5.02176e-12 448.215

314.802 69.4606 -1.75267e-12
69.4606 292.145 -1.84741e-12
-1.75267e-12 -1.84741e-12 184.526

290.785 -22.9329 -1.7882e-12
-22.9329 359.169 1.62738e-11
-1.7882e-12 1.62738e-11 247.032

312.403 -71.6926 6.37594e-12
-71.6926 288.125 3.54324e-12
6.37594e-12 3.54324e-12 182.029

268.549 50.7376 4.0797e-12
50.7376 320.063 -8.31335e-13
4.0797e-12 -8.31335e-13 221.507

459.867 -30.2124 2.60532e-14
-30.2124 454.851 1.58392e-12
2.60532e-14 1.58392e-12 454.406

559.291 -14.6404 -2.22874e-12
-14.6404 544.416 -3.93581e-12
-2.22874e-12 -3.93581e-12 533.722

635.923 11.0923 3.29292e-12
11.0923 631.385 -1.40613e-12
3.29292e-12 -1.40613e-12 570.023

619.959 -5.16005 -7.80709e-13
-5.16005 639.74 -5.21781e-12
-7.80709e-13 -5.21781e-12 568.501

453.875 13.0837 -1.68959e-12
13.0837 506.561 1.78405e-12
-1.68959e-12 1.78405e-12 482.578

634.153 -10.6667 -8.27538e-12
-10.6667 631.315 -7.39394e-12
-8.27538e-12 -7.39394e-12 569.878

622.697 4.09183 4.24845e-14
4.09183 642.685 1.29965e-11
4.24845e-14 1.29965e-11 569.702

643.376 7.4337 2.93824e-12
7.4337 619.15 4.24712e-12
2.93824e-12 4.24712e-12 569.025

584.779 -12.1148 6.64243e-12
-12.1148 631.67 -3.5083e-13
6.64243e-12 -3.5083e-13 560.597

307.448 -30.4703 8.87053e-12
-30.4703 371.637 -1.71004e-12
8.87053e-12 -1.71004e-12 280.773

589.629 -12.9721 1.22036e-12
-12.9721 549.117 -8.09427e-13
1.22036e-12 -8.09427e-13 543.831

527.211 -34.4175 -1.43056e-12
-34.4175 521.491 -5.6198e-12
-1.43056e-12 -5.6198e-12 519.97

565.468 -18.1769 7.68215e-12
-18.1769 537.994 -2.13533e-12
7.68215e-12 -2.13533e-12 534.263

502.576 15.4594 -6.68502e-13
15.4594 452.121 -2.83003e-12
-6.68502e-13 -2.83003e-12 480.212

586.351 9.86398 -6.26184e-12
9.86398 642.137 5.96264e-13
-6.26184e-12 5.96264e-13 563.107

636.659 19.2273 -8.29263e-12
19.2273 591.725 3.90536e-12
-8.29263e-12 3.90536e-12 562.928

569.78 11.3066 -2.17367e-12
11.3066 544.343 2.06724e-12
-2.17367e-12 2.06724e-12 536.44

353.446 -15.3395 -6.1912e-12
-15.3395 231.518 -1.66385e-12
-6.1912e-12 -1.66385e-12 219.017

437.212 24.9643 -9.9328e-13
24.9643 461.918 -3.70903e-12
-9.9328e-13 -3.70903e-12 445.728

317.094 -61.3552 1.17263e-11
-61.3552 277.852 8.47914e-13
1.17263e-11 8.47914e-13 218.091

334.212 -57.4577 8.93389e-12
-57.4577 357.327 -3.07902e-14
8.93389e-12 -3.07902e-14 252.543

383.339 -36.5444 -5.30065e-12
-36.5444 305.742 6.28712e-12
-5.30065e-12 6.28712e-12 257.763

562.5 -5.15892 3.099e-12
-5.15892 616.954 -5.47236e-12
3.099e-12 -5.47236e-12 552.954

562.207 2.89126 -4.55073e-12
2.89126 615.819 -5.34373e-12
-4.55073e-12 -5.34373e-12 552.553

598.773 -24.4558 5.70507e-13
-24.4558 575.745 -3.63531e-12
5.70507e-13 -3.63531e-12 551.582

602.332 -21.76 -4.23602e-12
-21.76 573.436 1.05338e-12
-4.23602e-12 1.05338e-12 551.848

598.785 26.1354 -2.48749e-12
26.1354 580.461 3.17361e-12
-2.48749e-12 3.17361e-12 552.738

625.743 3.09912 -1.02728e-11
3.09912 630.736 -1.38937e-11
-1.02728e-11 -1.38937e-11 568.424

599.062 -20.5085 2.72878e-12
-20.5085 576.357 -1.71663e-12
2.72878e-12 -1.71663e-12 552.271

607.812 -18.568 -6.64017e-12
-18.568 620.264 -8.8061e-12
-6.64017e-12 -8.8061e-12 563.189

632.902 2.43426 1.57111e-11
2.43426 635.528 2.98472e-12
1.57111e-11 2.98472e-12 570.509

607.889 -20.5258 2.80287e-12
-20.5258 572.43 -1.33079e-12
2.80287e-12 -1.33079e-12 553.41

607.074 20.9554 -7.54456e-12
20.9554 573.688 9.23706e-13
-7.54456e-12 9.23706e-13 553.813

633.853 -3.45827 -1.78921e-11
-3.45827 636.779 9.97706e-12
-1.78921e-11 9.97706e-12 571.283

632.183 -3.11684 -1.08941e-11
-3.11684 625.758 3.7073e-11
-1.08941e-11 3.7073e-11 569.398

609.684 12.1097 1.12257e-11
12.1097 620.487 -1.66812e-11
1.12257e-11 -1.66812e-11 563.92

587.206 26.9292 1.76896e-12
26.9292 583.021 4.44683e-12
1.76896e-12 4.44683e-12 551.706

FIELD solute_concentration_TPM 2
S_ext 1 563 float
0.960926
0.960742
0.960761
0.960743
0.960714
0.960761
0.960926
0.960753
0.960777
0.960746
0.960888
0.960753
0.960756
0.960745
0.960721
0.96076
0.960737
0.960751
0.960781
0.960764
0.96077
0.960664
0.960766
0.960764
0.960765
0.960748
0.960879
0.960759
0.960827
0.96069
0.960757
0.960826
0.960883
0.960698
0.960697
0.960698
0.960686
0.9607
0.960758
0.960883
0.960827
0.960686
0.960686
0.960757
0.960859
0.960826
0.960779
0.960775
0.960761
0.960836
0.960831
0.960812
0.960712
0.960814
0.960714
0.960864
0.960697
0.960813
0.960697
0.960763
0.960736
0.960729
0.960875
0.960731
0.960729
0.960742
0.960736
0.960749
0.960765
0.960741
0.960713
0.960713
0.960828
0.960738
0.960762
0.960887
0.960723
0.960742
0.960748
0.960805
0.960844
0.96071
0.960732
0.960846
0.960826
0.960862
0.960759
0.960741
0.960859
0.960672
0.960813
0.960672
0.960721
0.960744
0.960812
0.960831
0.960846
0.960745
0.960724
0.960758
0.960795
0.960824
0.960846
0.960748
0.960747
0.960746
0.960731
0.96076
0.960847
0.960737
0.960763
0.960856
0.96085
0.96075
0.960747
0.960814
0.9607
0.960848
0.9607
0.960813
0.960786
0.960722
0.960741
0.960737
0.960737
0.96072
0.960703
0.960745
0.960846
0.960811
0.960711
0.960742
0.960732
0.960741
0.960824
0.960696
0.960856
0.960756
0.960732
0.960696
0.960821
0.96075
0.960786
0.960745
0.960849
0.960747
0.960751
0.960763
0.960762
0.960798
0.960774
0.960741
0.960826
0.960756
0.960745
0.960742
0.960744
0.960821
0.96082
0.960753
0.960774
0.960825
0.960858
0.960829
0.960819
0.960746
0.96082
0.960822
0.960827
0.960819
0.96072
0.960813
0.96083
0.960742
0.960813
0.960732
0.96072
0.960754
0.960714
0.960749
0.960828
0.960745
0.960746
0.96082
0.96074
0.960832
0.960737
0.960733
0.960722
0.960745
0.96074
0.960844
0.960812
0.960826
0.960742
0.960751
0.96075
0.960732
0.960741
0.960743
0.960741
0.960781
0.960805
0.960732
0.960829
0.960732
0.960743
0.960823
0.960728
0.960741
0.960728
0.960747
0.960748
0.960732
0.960797
0.960746
0.960804
0.960733
0.960736
0.960736
0.960736
0.960737
0.960737
0.960737
0.960746
0.960722
0.960722
0.960721
0.960722
0.960715
0.960714
0.960798
0.960744
0.960741
0.960776
0.960722
0.960722
0.960741
0.960804
0.960741
0.960745
0.960797
0.960727
0.960798
0.960732
0.960741
0.960796
0.960803
0.960845
0.960837
0.960732
0.960851
0.960757
0.960804
0.960781
0.960741
0.960736
0.960687
0.960736
0.960855
0.960803
0.960741
0.960753
0.960805
0.960736
0.960785
0.960687
0.960804
0.960736
0.960738
0.96075
0.960722
0.960742
0.960714
0.960755
0.960857
0.960863
0.960719
0.960768
0.960753
0.9608
0.960727
0.960743
0.960803
0.960744
0.960794
0.960751
0.960795
0.960804
0.960678
0.960719
0.96072
0.96072
0.960745
0.960794
0.9607
0.960739
0.960774
0.960793
0.960799
0.960718
0.960797
0.960723
0.960797
0.960859
0.960794
0.96085
0.960732
0.960796
0.960677
0.960797
0.960735
0.960798
0.960737
0.960797
0.960761
0.960882
0.960761
0.960797
0.960717
0.960797
0.960773
0.96074
0.960741
0.960797
0.960794
0.960785
0.960734
0.960793
0.960754
0.96076
0.960715
0.960794
0.960786
0.960772
0.960785
0.960795
0.960784
0.96073
0.960753
0.960786
0.960797
0.96075
0.960749
0.960794
0.960716
0.960895
0.960763
0.960845
0.960771
0.960952
0.960952
0.960949
0.96095
0.960947
0.960956
0.960956
0.960732
0.960705
0.960753
0.960773
0.960781
0.960785
0.960751
0.960785
0.960786
0.960706
0.960785
0.960728
0.960812
0.960723
0.960762
0.960774
0.960786
0.96072
0.960763
0.960773
0.960762
0.960772
0.960783
0.960807
0.960773
0.960764
0.960727
0.96078
0.960784
0.960781
0.960774
0.960764
0.96075
0.960781
0.960751
0.960763
0.960774
0.960753
0.960763
0.960784
0.960736
0.960772
0.960706
0.960859
0.960732
0.96073
0.960764
0.960773
0.960741
0.960895
0.960761
0.960773
0.96088
0.960681
0.960681
0.960761
0.960782
0.960771
0.96078
0.960664
0.960663
0.96075
0.960753
0.960753
0.960899
0.960783
0.960735
0.960776
0.960778
0.960775
0.960894
0.960738
0.960782
0.960763
0.960762
0.960777
0.960773
0.960777
0.960776
0.960881
0.960849
0.960773
0.960763
0.960772
0.960778
0.960773
0.960771
0.960772
0.96086
0.960724
0.96078
0.960742
0.960738
0.960862
0.960761
0.960761
0.960716
0.960675
0.960675
0.960718
0.960784
0.960763
0.960863
0.960678
0.960662
0.960662
0.960896
0.960699
0.960689
0.960765
0.960722
0.960753
0.960744
0.960735
0.960735
0.960754
0.960894
0.96076
0.960744
0.960735
0.960888
0.960694
0.960887
0.960733
0.960747
0.960796
0.960756
0.960755
0.96071
0.960751
0.96071
0.960761
0.960736
0.960693
0.960694
0.960864
0.960742
0.960928
0.960929
0.960928
0.960739
0.9609
0.960929
0.960778
0.960927
0.960709
0.960709
0.960928
0.960767
0.960885
0.960932
0.960884
0.960933
0.960884
0.960698
0.960869
0.960899
0.960926
0.960756
0.96073
0.960887
0.960755
0.960926
0.960748
0.960767
0.960933
0.960887
0.960933
0.960895
0.960763
0.960705
0.960662
0.960664
0.960745
0.960662
0.960662
0.960663
0.960673
0.960866
0.960693
0.960719
0.960706
0.960747
0.960672
0.960672
0.960705
0.960896
0.960769
0.960903
0.960891
0.960882
0.960679
0.960679
0.960681
0.960681
0.960679
0.960667
0.960684
0.960673
0.960666
0.960682
0.960681
0.960666
0.960666
0.960672
0.960684
P_ext 1 563 float
0.0187121
0.0187075
0.0187082
0.0187076
0.0187058
0.0187082
0.0187121
0.0187079
0.0187087
0.0187076
0.0187113
0.0187078
0.018708
0.0187075
0.0187063
0.0187082
0.0187072
0.0187078
0.0187088
0.0187083
0.0187084
0.0187028
0.0187083
0.0187083
0.0187083
0.0187077
0.0187111
0.018708
0.01871
0.0187044
0.018708
0.01871
0.0187112
0.0187049
0.0187049
0.0187049
0.0187043
0.018705
0.018708
0.0187112
0.01871
0.0187042
0.0187042
0.018708
0.0187107
0.01871
0.0187087
0.0187086
0.0187081
0.0187102
0.0187101
0.0187096
0.0187058
0.0187097
0.0187059
0.0187108
0.0187049
0.0187096
0.0187049
0.0187082
0.0187072
0.0187068
0.018711
0.0187068
0.0187067
0.0187073
0.0187071
0.0187077
0.0187083
0.0187074
0.0187058
0.0187058
0.01871
0.0187071
0.0187082
0.0187113
0.0187064
0.0187073
0.0187077
0.0187094
0.0187104
0.0187056
0.0187069
0.0187104
0.01871
0.0187108
0.0187081
0.0187072
0.0187107
0.018703
0.0187097
0.018703
0.0187063
0.0187073
0.0187097
0.0187101
0.0187104
0.0187076
0.0187064
0.018708
0.0187092
0.0187099
0.0187104
0.0187077
0.0187076
0.0187077
0.0187068
0.0187081
0.0187105
0.0187072
0.0187082
0.0187106
0.0187105
0.0187078
0.0187077
0.0187097
0.0187049
0.0187105
0.0187049
0.0187096
0.0187089
0.0187064
0.0187074
0.0187071
0.0187071
0.0187062
0.0187051
0.0187076
0.0187104
0.0187096
0.0187057
0.0187075
0.0187069
0.0187075
0.0187099
0.0187048
0.0187107
0.0187079
0.0187069
0.0187048
0.0187099
0.0187076
0.0187089
0.0187076
0.0187105
0.0187077
0.0187077
0.0187081
0.0187082
0.0187092
0.0187085
0.0187074
0.01871
0.018708
0.0187076
0.0187075
0.0187075
0.0187099
0.0187098
0.0187079
0.0187086
0.0187099
0.0187107
0.01871
0.0187098
0.0187077
0.0187098
0.0187099
0.01871
0.0187098
0.0187062
0.0187096
0.0187101
0.0187074
0.0187097
0.0187069
0.0187062
0.0187078
0.0187059
0.0187076
0.01871
0.0187076
0.0187076
0.0187098
0.0187072
0.0187101
0.0187072
0.0187069
0.0187062
0.0187076
0.0187072
0.0187104
0.0187096
0.01871
0.0187075
0.0187079
0.0187078
0.018707
0.0187074
0.0187074
0.0187074
0.0187088
0.0187095
0.018707
0.01871
0.0187069
0.0187073
0.0187099
0.0187066
0.0187074
0.0187066
0.0187075
0.0187077
0.0187069
0.0187092
0.0187075
0.0187094
0.0187069
0.0187072
0.0187072
0.0187072
0.0187072
0.0187072
0.0187073
0.0187075
0.0187064
0.0187064
0.0187063
0.0187063
0.0187058
0.0187058
0.0187093
0.0187075
0.0187074
0.0187087
0.0187063
0.0187063
0.0187074
0.0187094
0.0187075
0.0187076
0.0187092
0.0187066
0.0187093
0.0187069
0.0187075
0.0187092
0.0187094
0.0187104
0.0187102
0.0187069
0.0187106
0.0187081
0.0187095
0.0187088
0.0187075
0.0187072
0.0187042
0.0187072
0.0187106
0.0187094
0.0187074
0.0187078
0.0187095
0.0187072
0.0187089
0.0187042
0.0187094
0.0187071
0.0187072
0.0187078
0.0187063
0.0187072
0.0187059
0.018708
0.0187107
0.0187108
0.0187061
0.0187084
0.0187078
0.0187093
0.0187065
0.0187075
0.0187094
0.0187074
0.0187092
0.0187077
0.0187092
0.0187094
0.0187036
0.0187061
0.0187062
0.0187063
0.0187076
0.0187092
0.018705
0.0187072
0.0187085
0.0187091
0.0187093
0.0187061
0.0187092
0.0187062
0.0187093
0.0187107
0.0187091
0.0187105
0.0187069
0.0187092
0.0187036
0.0187092
0.018707
0.0187093
0.0187071
0.0187092
0.0187081
0.0187112
0.0187082
0.0187093
0.018706
0.0187092
0.0187085
0.0187072
0.0187075
0.0187092
0.0187092
0.0187089
0.0187069
0.0187091
0.0187078
0.0187081
0.0187059
0.0187092
0.0187089
0.0187085
0.0187089
0.0187092
0.0187089
0.0187066
0.0187078
0.0187089
0.0187092
0.0187077
0.0187077
0.0187091
0.0187059
0.0187115
0.0187081
0.0187104
0.0187084
0.0187126
0.0187126
0.0187126
0.0187126
0.0187125
0.0187127
0.0187127
0.0187068
0.0187052
0.0187078
0.0187085
0.0187088
0.0187089
0.0187077
0.0187089
0.0187089
0.0187052
0.0187089
0.0187066
0.0187096
0.0187064
0.0187081
0.0187086
0.0187089
0.0187061
0.0187082
0.0187085
0.0187081
0.0187085
0.0187089
0.0187095
0.0187085
0.0187082
0.0187066
0.0187087
0.0187089
0.0187088
0.0187086
0.0187082
0.0187077
0.0187088
0.0187077
0.0187082
0.0187086
0.0187078
0.0187082
0.0187088
0.0187071
0.0187085
0.0187054
0.0187107
0.0187069
0.0187066
0.0187082
0.0187085
0.0187073
0.0187115
0.0187081
0.0187085
0.0187112
0.0187037
0.0187037
0.0187081
0.0187088
0.0187085
0.0187088
0.0187024
0.0187024
0.0187077
0.0187078
0.0187078
0.0187116
0.0187089
0.018707
0.0187087
0.0187087
0.0187086
0.0187114
0.0187071
0.0187088
0.0187082
0.0187082
0.0187087
0.0187085
0.0187087
0.0187086
0.0187112
0.0187105
0.0187085
0.0187081
0.0187085
0.0187087
0.0187085
0.0187085
0.0187085
0.0187107
0.0187064
0.0187088
0.0187073
0.0187071
0.0187108
0.0187082
0.0187082
0.0187059
0.0187036
0.0187036
0.018706
0.0187089
0.0187081
0.0187108
0.0187037
0.0187026
0.0187027
0.0187115
0.018705
0.0187044
0.0187082
0.0187063
0.0187079
0.0187075
0.018707
0.018707
0.0187078
0.0187114
0.0187081
0.0187074
0.018707
0.0187113
0.0187047
0.0187113
0.018707
0.0187076
0.0187092
0.018708
0.0187079
0.0187056
0.0187078
0.0187057
0.0187082
0.0187071
0.0187045
0.0187045
0.0187108
0.0187074
0.0187121
0.0187122
0.0187121
0.0187072
0.0187116
0.0187122
0.0187087
0.0187121
0.0187056
0.0187056
0.0187121
0.0187084
0.0187113
0.0187122
0.0187112
0.0187122
0.0187112
0.0187049
0.0187109
0.0187116
0.0187121
0.0187079
0.0187068
0.0187113
0.0187079
0.0187121
0.0187076
0.0187084
0.0187122
0.0187113
0.0187122
0.0187115
0.0187082
0.0187053
0.0187027
0.0187028
0.0187075
0.0187027
0.0187027
0.0187027
0.0187033
0.0187109
0.0187046
0.018706
0.0187053
0.0187075
0.0187032
0.0187032
0.0187052
0.0187115
0.0187085
0.0187116
0.0187114
0.0187112
0.0187038
0.0187038
0.0187039
0.0187039
0.0187038
0.0187028
0.0187039
0.0187031
0.0187027
0.0187038
0.0187038
0.0187027
0.0187028
0.0187031
0.0187039
FIELD solute_flux_TPM 2
S_ext 3 563 float
-5.25542e-05 1.75754e-05 2.79035e-18
2.34203e-06 4.44932e-06 3.37232e-19
-8.21479e-06 -6.50842e-06 -2.83933e-18
-2.70827e-06 2.73474e-06 6.70984e-19
1.51631e-05 -4.34365e-06 -4.46962e-18
1.77376e-06 -1.02433e-05 8.30247e-19
-5.17516e-05 -1.77892e-05 5.72319e-18
-9.00582e-06 -6.66901e-06 2.84202e-18
1.42534e-05 6.1024e-07 6.57988e-19
7.4433e-06 -2.63837e-06 1.17414e-18
3.50072e-05 8.14973e-06 7.71297e-19
1.47832e-06 -1.11314e-05 -1.18231e-18
8.89483e-06 7.21337e-06 -1.18479e-18
1.77047e-06 8.91387e-06 -2.35536e-18
1.37475e-05 -2.03115e-06 1.34234e-18
-1.04136e-05 -1.6978e-07 6.64633e-19
1.86079e-06 9.21938e-06 1.85549e-18
6.62336e-06 -1.59386e-06 -3.50765e-21
6.34718e-06 1.10625e-05 2.296e-18
-9.4873e-06 1.20378e-06 -6.67051e-19
-2.27743e-06 -1.36362e-05 -3.65932e-18
2.86281e-05 4.03943e-05 3.7178e-18
1.01722e-05 1.04182e-06 1.66023e-18
7.28535e-06 -7.27001e-06 -3.38563e-19
-9.62566e-06 -2.13875e-06 2.15865e-18
-3.98e-07 -7.18961e-06 -1.6761e-18
4.01715e-05 -3.1417e-06 4.63474e-19
9.16915e-06 6.63695e-06 -4.01468e-18
-1.59249e-05 -1.29344e-05 -2.09772e-18
3.24211e-05 -8.59015e-06 -6.96861e-19
-1.05981e-05 -3.92878e-06 -1.03997e-20
3.40646e-06 -2.04224e-05 -1.775e-18
3.01394e-05 -3.07178e-05 -5.3753e-21
-3.4587e-06 -2.76854e-05 -7.60536e-18
-1.95756e-05 2.43547e-05 8.78199e-19
-2.57045e-05 -1.08367e-05 -1.87126e-19
2.15025e-05 2.81458e-05 6.36613e-22
-2.95764e-05 -5.80158e-06 -1.37934e-18
9.40323e-06 -7.11736e-06 6.60337e-19
2.94453e-05 3.20088e-05 1.56104e-18
2.05629e-05 -8.99424e-06 -9.73955e-19
2.19267e-05 -2.7091e-05 -5.91132e-18
-1.2505e-05 -3.25137e-05 -4.69739e-18
-1.01514e-05 4.13472e-06 -1.6728e-18
1.92972e-05 -1.88734e-05 2.05378e-18
-1.9075e-05 6.78005e-06 -3.05137e-21
-2.62252e-06 -1.29747e-05 1.82637e-18
5.04854e-06 1.29378e-05 8.22269e-19
-1.04944e-05 3.82369e-06 5.02923e-19
-1.14594e-05 1.80239e-05 2.72232e-18
2.07471e-05 9.76499e-06 3.6941e-18
1.87662e-05 -6.51994e-06 -1.69205e-19
-1.0386e-05 1.03909e-05 6.98361e-19
-1.48618e-05 -1.29021e-05 1.60794e-19
-1.39767e-05 -3.43205e-06 -2.04789e-18
-2.81178e-05 1.67502e-05 4.27914e-18
-1.93798e-05 -2.50649e-05 -5.02979e-18
3.9187e-06 -1.943e-05 -2.28051e-18
-3.14048e-05 4.29291e-06 -1.92123e-19
3.90211e-06 8.82634e-06 3.281e-19
-3.6077e-06 -5.38884e-06 -1.86923e-18
-4.25849e-06 -1.18099e-05 3.25081e-19
3.6297e-05 1.58149e-05 4.72212e-19
6.14981e-06 1.18688e-05 2.54539e-18
8.15145e-06 -9.47083e-06 -1.35701e-18
-1.13799e-06 -1.35428e-05 -7.02473e-21
3.08465e-06 -5.76015e-06 -2.02163e-18
-6.47766e-06 -3.62481e-06 3.23116e-19
-6.83676e-06 7.59714e-06 -1.66592e-18
1.65648e-06 -2.75893e-06 -8.47301e-19
-9.95571e-06 -1.04518e-05 -1.76313e-19
-1.40969e-05 3.44125e-06 1.69848e-18
-2.44461e-06 2.17507e-05 1.60971e-18
-1.16529e-05 6.98767e-06 2.0241e-18
-5.84191e-06 9.31166e-06 2.49747e-18
-3.74923e-05 4.66848e-06 3.12546e-18
5.22377e-06 -1.42277e-05 -6.78752e-19
-1.23313e-05 -5.70418e-06 2.52034e-18
1.22236e-06 7.53651e-06 -1.17801e-18
1.69001e-05 3.24269e-06 -1.46926e-18
2.17433e-05 -1.85228e-05 -3.20356e-18
1.47372e-05 1.35431e-05 6.93084e-19
7.93531e-06 -1.95258e-06 -2.22103e-18
-2.02451e-05 1.48362e-05 2.07644e-18
2.4191e-05 3.10407e-06 -6.5558e-19
-3.4871e-06 3.10602e-05 3.09422e-19
-1.12101e-06 -1.08553e-05 -1.66854e-18
1.19619e-05 6.48035e-06 -2.3707e-18
1.8559e-05 1.94345e-05 1.42122e-18
4.25301e-05 2.64399e-05 -1.67138e-19
-3.45108e-06 1.95258e-05 6.33724e-18
4.44247e-05 -2.49653e-05 1.64841e-19
-1.79335e-05 3.44133e-06 3.76352e-18
1.17571e-05 7.28817e-06 -7.18124e-21
-1.86524e-05 6.21589e-06 8.06717e-19
1.05164e-05 1.82438e-05 -2.0921e-18
6.25134e-06 -2.80446e-05 -1.12452e-18
1.23549e-06 7.53297e-06 4.98982e-19
-9.64217e-06 -1.16083e-05 1.55018e-19
1.94503e-06 1.12589e-05 -1.67976e-18
1.69396e-05 3.39647e-06 -3.44525e-18
-9.82697e-06 2.09067e-05 2.25605e-18
2.58258e-05 -8.61334e-06 -1.69012e-19
-2.45763e-06 4.76907e-06 3.01241e-18
6.54871e-06 3.78697e-06 -3.70547e-18
-1.4333e-06 -7.31144e-06 -3.6874e-18
2.17325e-06 -1.26544e-05 -1.69221e-18
1.13307e-05 2.54803e-06 -1.17543e-18
-5.21709e-06 2.5952e-05 2.07308e-18
-6.48216e-06 1.06302e-07 -6.77984e-19
6.05581e-06 7.65264e-06 -8.41073e-19
-1.71038e-06 -2.64514e-05 -3.65276e-18
2.67821e-05 8.31947e-06 1.11898e-18
2.9039e-06 -4.79782e-06 -1.01575e-18
-7.15698e-06 -2.32456e-06 6.65245e-19
-1.84238e-05 -7.84607e-06 -3.58687e-18
1.06186e-05 2.77393e-05 4.15211e-18
-2.70543e-05 -9.64255e-06 3.17273e-19
1.07669e-05 -2.78132e-05 -2.95076e-18
-2.38706e-06 -2.02344e-05 -1.14135e-18
1.40757e-05 3.84577e-07 3.26819e-19
-4.73288e-06 1.22075e-05 1.70064e-18
-1.05548e-06 2.56186e-06 4.9698e-19
-2.47076e-06 -1.08255e-05 -1.53211e-18
3.45699e-06 -5.59583e-06 -3.70891e-18
6.2102e-06 1.04523e-05 5.45712e-18
2.23144e-05 7.29866e-06 4.66258e-18
5.71467e-06 -4.79464e-06 -1.34659e-18
-5.35583e-06 -2.83853e-05 2.55946e-18
1.63481e-05 -1.20453e-05 -4.91018e-19
3.30452e-06 1.83862e-05 2.24078e-18
-1.79977e-06 -1.86597e-06 4.94366e-19
-5.69903e-06 -5.44989e-06 -8.55418e-19
-3.1269e-06 7.60062e-08 1.18567e-18
-1.44611e-05 1.78492e-05 1.94492e-18
1.29192e-05 -2.49744e-05 -2.77511e-18
-1.68672e-05 2.66627e-05 4.79821e-19
-1.04946e-05 6.13154e-06 8.31329e-19
1.64355e-06 8.14622e-06 4.88995e-18
-1.514e-05 -2.36568e-05 -6.99204e-19
8.76843e-06 2.12588e-05 2.26677e-18
1.15074e-05 6.01175e-06 -2.52688e-18
1.46742e-05 -5.55187e-06 9.7844e-19
-8.39776e-07 -7.30553e-06 3.26189e-19
-2.12483e-05 -1.95407e-05 1.44062e-18
-1.74136e-06 7.31531e-06 -5.02251e-19
1.13006e-05 6.67297e-06 -2.85973e-18
1.22716e-05 -5.8126e-06 2.99404e-18
5.37707e-06 -9.21623e-06 -2.6763e-18
1.56525e-05 -6.93554e-06 1.79021e-18
1.23068e-05 -5.82785e-06 3.25338e-19
3.11814e-06 2.10751e-07 -3.36664e-18
1.63894e-05 1.29752e-05 7.98719e-19
-1.70974e-06 -1.09439e-05 -2.84833e-18
-6.81561e-06 -2.82036e-06 -1.0083e-18
7.63861e-07 -2.51531e-06 8.48669e-19
-2.12083e-06 1.02933e-05 1.18013e-18
-2.18095e-05 1.72552e-06 6.43993e-19
-7.70875e-06 -2.09236e-05 4.22109e-18
-5.08459e-06 6.2586e-06 8.34965e-19
8.7328e-06 1.06518e-05 -3.16303e-18
1.69126e-05 -1.20627e-05 -1.94189e-18
-2.31726e-05 -1.25663e-05 2.69728e-18
1.09932e-05 -1.76206e-05 -9.64986e-19
1.44965e-05 -1.73531e-05 -9.80091e-19
-7.03918e-06 2.49869e-06 -3.35812e-18
-1.25328e-05 -1.80361e-05 3.2357e-19
-2.17908e-05 -3.62873e-06 -2.11853e-18
-2.63074e-06 -2.00617e-05 2.25267e-18
9.73052e-06 -2.01413e-05 -3.24862e-18
-6.06691e-06 -1.7289e-05 -1.20036e-18
2.78986e-06 1.99226e-05 1.62451e-18
-1.01175e-05 -1.79276e-05 -4.81098e-19
2.00017e-06 -1.05939e-05 6.74912e-19
-1.56319e-05 1.13742e-05 1.29841e-18
-9.82876e-06 -7.98369e-06 9.99218e-19
-1.80519e-05 -3.33275e-06 4.96027e-19
1.02444e-05 -6.02388e-06 -1.70582e-19
-2.82104e-06 1.58359e-05 -1.03889e-18
8.09739e-06 -6.04629e-06 -1.52182e-18
-1.8618e-05 -8.15999e-06 -3.23297e-18
-5.74619e-06 -4.76943e-06 -1.34144e-18
5.98754e-06 4.84044e-06 4.90595e-19
1.36224e-05 1.82815e-05 -1.79183e-18
-1.13518e-05 -7.05048e-06 1.57355e-19
-2.04135e-05 -4.93994e-07 -4.82437e-19
-1.0719e-05 -3.18647e-06 -8.45786e-19
-3.0215e-06 -1.0838e-05 8.3719e-19
1.17867e-05 1.42445e-05 1.8737e-18
-7.15018e-06 3.73075e-06 -1.17945e-18
4.60151e-07 -1.3394e-05 2.52537e-18
-2.61948e-05 6.72228e-06 2.72348e-18
1.59064e-05 1.29279e-05 2.10782e-18
2.30762e-06 2.08832e-05 1.28391e-18
-1.55085e-06 2.50605e-06 -2.0126e-18
-5.79544e-06 1.61991e-07 -4.37883e-21
2.84901e-06 4.99293e-06 -3.44712e-19
-7.69345e-06 2.2899e-06 -1.69274e-18
-1.34648e-06 -2.43707e-06 -5.14278e-19
1.13967e-06 1.35193e-05 3.54103e-18
2.98822e-06 2.27621e-07 8.2246e-19
-1.2418e-05 3.00384e-06 3.31097e-19
-1.10436e-05 1.22052e-05 4.40725e-18
-2.00207e-06 7.63711e-06 -1.18402e-18
-1.8463e-05 1.15116e-05 3.07254e-18
-6.18442e-06 5.88035e-06 -2.70386e-18
1.13971e-05 -7.75763e-06 1.00089e-18
2.33651e-05 -2.32573e-06 -1.30575e-18
-1.39198e-05 7.38235e-06 -1.76139e-19
1.44116e-06 2.98079e-06 6.61583e-19
1.45377e-05 -2.78719e-06 4.9254e-18
-1.12038e-05 6.77917e-06 -5.07652e-19
-6.35809e-06 3.61625e-06 -1.846e-18
7.92914e-06 2.57652e-06 5.08228e-19
1.40243e-05 -8.69944e-06 6.49795e-19
-1.1293e-05 6.41205e-06 -1.72876e-19
-1.5808e-05 -3.32411e-06 -2.61579e-18
-1.09541e-05 -2.79758e-06 8.35468e-19
6.63728e-06 7.65506e-08 -1.00689e-18
6.79717e-06 5.73004e-08 -2.38049e-18
2.92253e-06 5.45109e-06 1.685e-18
3.21571e-06 -5.76299e-06 -4.87422e-18
-3.26194e-06 5.57415e-06 -1.17091e-18
-3.41532e-06 -5.70255e-06 -1.79611e-19
6.47689e-06 -4.93059e-06 -5.06503e-19
-1.34554e-05 2.17203e-06 1.86235e-18
-1.33037e-05 -2.21436e-06 -3.91114e-18
-8.5168e-06 1.05044e-05 -3.34334e-19
-8.56428e-06 -1.05444e-05 -2.21805e-18
4.96803e-06 -1.33525e-05 -1.37009e-18
4.78652e-06 1.32394e-05 5.056e-19
9.54313e-07 1.65231e-05 4.90795e-18
7.43672e-06 -1.95336e-06 -3.46691e-19
1.60639e-06 -2.49408e-06 -1.01235e-18
-1.35607e-05 9.19785e-07 3.35135e-19
5.12646e-06 -1.31379e-05 -2.37773e-18
4.85776e-06 1.31849e-05 1.34324e-18
3.13776e-06 -5.82046e-08 9.99026e-19
5.67933e-06 1.56091e-05 2.60732e-18
-1.45934e-06 -2.60133e-06 8.47068e-19
1.51166e-06 -7.34004e-06 6.61596e-19
-1.42057e-05 -7.61462e-06 -5.57996e-18
-1.40568e-05 -7.51682e-06 1.5368e-19
-1.38969e-05 8.60096e-06 1.80161e-18
2.12418e-06 -8.24847e-06 1.18236e-18
-1.03732e-06 2.17696e-06 -1.33721e-18
-4.62988e-07 -1.62503e-05 -1.47042e-18
-4.99269e-06 -1.54532e-05 -1.59876e-19
2.08102e-05 1.93736e-05 4.59594e-21
2.27228e-05 -1.17182e-06 2.39375e-18
-8.38104e-06 -2.4545e-06 -2.3699e-18
-1.44916e-05 -2.58109e-05 1.91056e-18
5.38752e-06 8.84264e-06 -2.01099e-18
-1.59322e-05 1.8801e-06 -3.08126e-22
1.29588e-05 3.71567e-06 -1.15742e-18
-2.93579e-06 -1.23323e-08 -1.67788e-18
-3.07374e-06 -5.5211e-06 1.16764e-18
-5.43306e-06 -2.58366e-05 -3.307e-18
-6.39989e-06 -8.98017e-09 2.1941e-18
-3.01248e-05 -1.13044e-06 2.55184e-18
1.10482e-05 -1.22755e-05 -2.77744e-18
1.63503e-06 2.5844e-06 8.26429e-19
-8.56555e-08 -1.13348e-05 1.16424e-18
-6.33826e-06 1.5227e-05 3.74894e-18
-2.89336e-06 5.66192e-06 -1.17817e-18
1.32546e-05 -8.74271e-06 1.97128e-18
-2.50882e-05 -8.19344e-06 -1.75293e-18
-9.73527e-06 -1.28549e-05 3.26176e-19
3.29297e-06 5.60589e-06 6.7185e-18
1.10373e-05 3.27669e-06 -3.21941e-18
-3.06888e-06 -4.69689e-06 -2.00479e-18
1.329e-05 2.43794e-06 3.06702e-18
1.20345e-05 -6.43965e-06 2.35115e-18
-2.42495e-07 1.79096e-05 -1.19401e-18
5.41415e-06 -8.79967e-06 1.83101e-18
3.11298e-05 1.32411e-06 -3.34276e-18
-2.64487e-05 6.8885e-06 2.05645e-18
1.5305e-05 7.63141e-06 -5.15561e-19
-4.13126e-06 -1.09417e-05 5.05011e-19
-9.90808e-06 -5.52528e-06 3.51146e-18
1.84399e-05 -1.51717e-07 -1.15694e-18
-4.83224e-07 -1.5977e-05 -4.57614e-21
-8.13149e-06 -7.12494e-06 2.00769e-18
6.49131e-06 -1.50438e-05 -2.44783e-18
-3.76694e-07 1.33776e-05 -2.18483e-18
4.9881e-06 1.66107e-05 3.93658e-18
1.13177e-05 -6.50476e-06 3.6818e-18
-1.20434e-05 1.21177e-05 5.74919e-18
1.05391e-05 1.28423e-05 3.90934e-18
-4.32591e-05 1.0316e-05 -3.32323e-18
-6.7388e-06 1.7169e-05 -2.55518e-18
8.30961e-06 -1.00699e-05 -4.25274e-18
-4.61005e-06 -1.21578e-05 -2.40215e-18
-7.72841e-06 2.84128e-06 1.00379e-18
-1.63119e-05 -4.46309e-06 -4.77766e-18
-4.46325e-06 2.60202e-05 2.24733e-18
-8.1637e-06 7.85344e-06 -1.68971e-18
1.34212e-05 -2.96107e-06 2.81566e-18
-4.37469e-06 -1.63637e-05 1.31589e-18
-9.46005e-06 1.50582e-05 4.58904e-18
-1.43437e-05 8.26999e-06 2.39792e-18
-1.30407e-05 -9.5078e-06 6.51387e-19
1.20304e-05 -1.39174e-05 -2.60022e-21
-1.73095e-05 -9.19744e-07 -3.33056e-19
7.61252e-06 -2.60685e-05 -3.48611e-18
1.24372e-05 -1.20983e-05 1.47257e-18
1.55743e-05 2.73557e-05 4.3144e-18
1.29704e-06 1.30284e-05 8.51179e-19
1.86116e-06 -1.62304e-05 -1.96847e-18
-2.81373e-05 3.30373e-05 -6.6612e-18
-8.06792e-06 -1.54006e-05 1.15241e-18
1.09205e-05 -4.19768e-06 4.05008e-18
-1.63049e-06 1.63591e-05 8.12897e-19
8.49804e-06 -7.9487e-06 -3.39977e-19
8.83957e-06 1.54996e-05 1.31171e-18
1.11614e-05 -9.5894e-07 -2.00328e-18
1.36217e-05 -3.98834e-05 1.52333e-19
-3.76658e-06 -8.23364e-06 -2.99897e-18
-1.46791e-05 6.30449e-06 -2.29744e-18
-1.32345e-05 1.23905e-05 -1.20467e-18
1.38389e-05 9.36456e-06 -3.34607e-19
1.20792e-05 -6.9976e-06 1.57177e-19
9.80532e-06 8.34429e-06 -6.65072e-21
-3.58388e-06 -2.77042e-08 -4.03576e-18
9.82158e-06 -1.47336e-05 -2.62729e-18
-1.0788e-05 -1.28335e-05 -3.28662e-18
1.45069e-05 6.31445e-06 -3.3523e-19
8.46718e-06 -7.98366e-06 1.69547e-18
6.04312e-06 -1.58465e-05 -3.7891e-18
1.08581e-05 -4.62831e-06 2.68096e-18
-1.01396e-05 -4.84169e-06 3.3347e-18
8.84555e-07 -1.73224e-05 -1.37601e-18
-1.64543e-05 2.83849e-06 -4.95913e-19
1.45078e-06 1.56565e-05 2.14378e-18
1.32969e-05 4.31856e-06 -3.32812e-18
-1.37665e-05 -6.79536e-06 -5.61924e-18
-5.72715e-06 1.62331e-05 1.63723e-18
-9.56868e-07 -1.5439e-05 8.2947e-19
1.29242e-05 7.85707e-06 1.35377e-18
-1.08302e-06 1.17012e-05 -8.3858e-19
-1.28189e-05 8.61327e-06 3.32697e-19
1.5119e-05 7.30975e-06 -2.29777e-18
-1.10154e-05 -6.51714e-06 3.2548e-19
1.38372e-07 -1.28564e-05 -1.18162e-18
1.17818e-05 1.27644e-05 3.23475e-19
-1.45476e-05 -9.41512e-06 3.26128e-19
3.07874e-05 -2.20266e-05 1.23429e-18
1.16746e-05 -7.00883e-06 1.32531e-18
5.4988e-06 2.72516e-05 -7.96823e-19
1.10584e-05 -8.79564e-06 2.82253e-18
-1.43191e-05 5.52427e-05 -1.92248e-18
-1.43933e-05 -5.47175e-05 3.10725e-18
3.59627e-05 4.70038e-05 5.50524e-18
3.55304e-05 -4.69923e-05 -7.42588e-19
5.87158e-05 -2.89291e-08 -1.63404e-18
-5.05227e-05 2.04737e-05 2.38605e-18
-4.97034e-05 -2.06873e-05 3.56548e-18
8.09926e-06 7.85086e-06 -8.55664e-19
1.97177e-05 1.46916e-05 2.58908e-18
7.44941e-06 2.18636e-06 -5.20432e-21
1.22225e-05 6.28368e-06 -5.02933e-19
3.1741e-06 1.29417e-05 2.63331e-18
-1.19886e-05 -9.43008e-06 -3.80068e-18
1.1237e-05 -6.62034e-06 1.66865e-18
1.28021e-05 9.32195e-06 -5.05956e-19
-2.03147e-06 1.55459e-05 8.23446e-19
1.98158e-05 -1.34885e-05 1.0316e-18
2.35645e-06 -1.51608e-05 -2.30721e-18
1.46178e-05 3.34384e-06 -1.88291e-18
1.90926e-05 7.09762e-06 -9.82987e-19
9.41949e-06 9.32867e-06 6.79853e-19
1.03207e-05 4.29e-06 -2.00792e-18
-1.18254e-05 6.9734e-06 -3.4897e-18
-1.43092e-05 5.74294e-06 9.88186e-19
1.53675e-05 -7.48404e-06 -3.47231e-19
-1.16935e-05 -6.42763e-06 -1.34732e-18
-1.18553e-05 -6.70531e-06 -2.00223e-18
-1.95383e-07 -1.33744e-05 -1.33903e-18
-9.96892e-08 -1.35607e-05 5.00241e-19
-1.27704e-05 -6.43734e-07 3.25697e-19
1.7152e-05 -2.60046e-06 4.80304e-19
1.17044e-05 7.33799e-06 2.64684e-18
-1.14902e-05 6.95689e-06 -2.17381e-18
-1.00258e-05 1.0962e-05 -2.38771e-18
1.03263e-05 -8.87855e-06 -1.65634e-18
-7.07856e-06 1.10783e-05 2.47387e-18
-9.08073e-06 -9.44645e-06 -3.80201e-18
-7.88948e-07 1.35636e-05 3.34919e-19
-7.98535e-07 1.35007e-05 -1.45667e-21
2.65531e-08 -1.28596e-05 -1.01019e-18
3.91069e-06 -1.26626e-05 9.85232e-19
-1.10938e-05 -6.37782e-06 -2.02594e-18
1.01134e-05 -3.59677e-06 8.278e-19
4.1775e-07 1.37877e-05 1.48855e-18
1.7717e-07 1.19568e-05 2.84848e-18
-1.52063e-06 1.08094e-05 -1.16938e-18
1.41078e-05 -3.57096e-06 -6.64014e-19
-1.08866e-05 3.42474e-06 3.04568e-18
2.60968e-06 1.38007e-05 9.91724e-19
-2.16696e-05 8.48769e-06 8.64968e-19
5.97511e-06 2.66334e-05 2.05187e-18
-1.11803e-05 2.93031e-06 -1.69041e-18
1.31185e-05 -7.76815e-06 1.00445e-18
5.49406e-07 1.35312e-05 1.99703e-18
-1.30129e-05 4.29712e-06 1.66559e-19
1.6285e-06 -1.05674e-05 -2.19399e-18
5.85011e-07 -3.68736e-05 -2.95394e-18
1.27476e-06 1.12812e-05 2.16445e-18
-1.08741e-05 8.86435e-06 1.1588e-18
1.09793e-05 4.03993e-05 1.56467e-18
3.14981e-05 2.61253e-05 7.08385e-19
3.61121e-05 -2.47074e-05 -3.52684e-19
9.66377e-06 -6.60542e-06 1.1562e-18
-1.00997e-05 8.90253e-06 8.25385e-19
-1.28553e-05 -5.08234e-06 9.88104e-19
-1.2489e-05 -4.31622e-06 -1.65556e-18
4.44219e-05 -1.22078e-05 -8.92476e-19
4.5311e-05 9.52851e-06 3.74826e-19
7.08912e-06 2.49463e-06 1.61397e-19
4.27103e-07 1.26753e-05 1.6726e-19
5.42753e-08 1.26678e-05 8.41049e-19
-3.07125e-05 -2.24787e-05 3.25468e-18
7.33422e-06 -1.10351e-05 -3.34685e-19
7.74596e-06 8.32302e-06 1.85204e-18
-1.35658e-05 -2.18207e-06 -1.16422e-18
-8.98328e-06 1.08799e-05 2.97771e-18
-1.20553e-05 5.80743e-06 -8.33098e-19
3.04046e-05 2.18081e-05 3.24401e-18
1.04573e-05 4.60986e-06 -4.40721e-18
-3.60729e-06 1.27479e-05 3.32802e-19
-1.09324e-05 -7.46494e-06 -1.34217e-18
1.14164e-06 -1.32404e-05 3.30749e-19
-5.6976e-06 -1.22668e-05 -2.47729e-18
-1.10115e-05 -7.49128e-06 -4.98292e-18
6.77942e-06 -1.2127e-05 -4.31063e-18
9.12437e-06 -1.08813e-05 2.31233e-18
-1.8742e-06 -3.85892e-05 -2.99227e-18
1.64767e-05 -2.6128e-05 -3.20038e-18
1.11754e-06 -1.33406e-05 -1.49381e-18
1.17036e-05 7.31172e-06 -1.50651e-18
-9.28316e-06 -9.43316e-06 -3.49271e-18
-6.28529e-06 1.25222e-05 3.34157e-19
-3.20827e-06 1.34266e-05 6.59072e-19
1.07752e-05 9.12464e-06 -1.33701e-18
3.84863e-06 -1.27479e-05 -5.98364e-18
-8.84365e-06 -2.53285e-05 1.74321e-18
-1.36395e-06 1.65068e-05 -5.02614e-19
9.52432e-06 9.30142e-06 1.80805e-18
-8.3743e-06 -6.65173e-06 -1.53479e-18
-8.80917e-06 6.926e-06 1.5182e-18
2.83437e-05 -1.21755e-05 -3.17084e-18
4.88238e-06 -8.62321e-06 -1.00607e-18
-5.36255e-06 -8.04504e-06 -2.50063e-18
1.43111e-05 4.37831e-06 3.59697e-18
8.81627e-06 -3.18048e-05 -6.82778e-18
-2.31409e-05 -2.35168e-05 -1.75053e-18
1.56009e-05 4.07281e-06 -1.032e-18
-5.97954e-06 -1.16038e-05 1.70426e-19
1.21503e-05 6.19851e-06 -5.03539e-19
-1.82405e-05 -2.02594e-05 3.00366e-18
7.14017e-06 3.23361e-05 3.67156e-18
3.13429e-05 -4.04854e-05 -4.60859e-18
-1.93919e-05 -4.73761e-05 1.25451e-18
1.71861e-05 -3.35868e-05 -6.25317e-19
-8.39978e-06 2.88817e-05 3.37851e-19
-4.79183e-06 2.55724e-05 1.91838e-18
-1.20082e-05 5.77248e-06 -2.16884e-18
4.01077e-06 1.59557e-05 5.18148e-19
-1.53138e-06 8.11947e-06 -8.41412e-19
6.62638e-06 2.14884e-06 2.84832e-18
-2.1499e-06 1.06239e-05 -4.55754e-18
-1.55782e-07 1.37328e-05 -1.68963e-18
1.08827e-05 6.34694e-06 -1.34511e-18
5.40234e-07 3.66991e-05 -1.62924e-19
-9.48325e-06 6.80713e-06 1.33383e-18
1.051e-05 -4.02647e-06 3.52757e-18
1.12669e-05 -2.88511e-06 1.68785e-18
-3.76175e-05 -5.41115e-06 1.87876e-18
-2.29182e-05 1.09074e-05 -6.91269e-19
-2.72958e-05 -3.23671e-05 1.10655e-18
5.71074e-06 5.45479e-06 -1.35461e-18
9.28597e-06 4.83801e-06 1.84523e-18
1.71894e-05 -2.75387e-06 2.12817e-18
-5.20226e-06 -8.46736e-06 -3.17487e-18
1.12197e-05 5.55059e-06 -2.01637e-18
4.88153e-06 -1.9892e-05 -2.0574e-18
-8.93377e-06 6.51366e-06 -6.75897e-19
-1.478e-05 -1.41706e-05 -3.62375e-18
-3.72467e-06 1.04484e-05 -2.67579e-18
-2.21516e-06 1.35273e-05 -1.17947e-18
2.28966e-05 1.42174e-05 -3.44519e-19
2.44134e-05 -1.29508e-05 1.55894e-18
-2.62965e-05 -7.07956e-06 1.41843e-18
4.97823e-06 5.09371e-06 6.67795e-19
-3.06978e-06 6.41263e-05 2.31487e-18
-7.78113e-09 -6.58697e-05 1.61082e-19
3.2467e-05 5.55623e-05 3.54505e-18
-1.25133e-05 5.43015e-06 -1.86114e-18
-1.74232e-05 3.51838e-05 -1.24129e-18
3.26669e-05 -5.36285e-05 -1.38998e-18
-7.48645e-06 -1.15751e-05 -2.64683e-18
4.9673e-05 4.32373e-05 2.00982e-18
1.59422e-05 -1.18447e-05 -3.09846e-18
-2.30423e-06 -1.97177e-05 -4.83461e-18
5.20459e-05 -4.22786e-05 -4.75056e-19
-4.34742e-06 9.26928e-06 4.31404e-18
-3.33687e-05 -2.1197e-05 4.08363e-18
-2.74647e-05 -5.73475e-05 1.23266e-18
-1.55539e-05 -3.63231e-05 6.24047e-19
-2.82355e-05 5.82867e-05 -6.15751e-19
-6.68633e-06 4.0358e-05 -1.57471e-19
1.06895e-05 2.47837e-05 6.0798e-21
-1.79193e-05 2.30254e-05 -3.18529e-19
-1.66726e-05 -3.42528e-05 -4.63523e-19
6.39066e-05 1.12146e-05 -1.06983e-18
-1.09623e-05 6.85772e-06 2.50656e-18
-3.92671e-06 1.06875e-05 -1.00806e-18
-3.1648e-05 2.27892e-05 2.34599e-18
-1.11518e-05 6.40807e-06 -7.16357e-21
6.32773e-05 -9.99899e-06 -1.39296e-18
-9.96658e-06 4.99078e-06 -1.34615e-18
4.65472e-06 -9.33536e-06 -2.32913e-18
-4.91322e-05 -3.74397e-05 4.47488e-18
-1.67568e-05 3.63533e-05 1.25748e-18
-5.03026e-05 3.71722e-05 2.86348e-22
1.52022e-05 3.34619e-05 4.17827e-18
-9.51677e-06 6.75026e-06 4.9725e-19
-1.35336e-05 1.62866e-05 -6.94446e-19
-2.41686e-05 3.03589e-05 1.95468e-18
-3.78989e-05 -4.88544e-06 -7.0911e-19
-6.45834e-07 1.05978e-05 1.71987e-19
-2.55981e-05 -3.04865e-05 -1.95952e-18
-3.9213e-05 6.93163e-06 -1.23979e-18
-1.49378e-05 3.46455e-05 -2.8255e-18
-1.15262e-05 4.61068e-05 7.01775e-19
-1.16885e-05 2.59241e-05 -9.54935e-19
-2.2345e-05 1.80056e-05 -3.82492e-18
1.63949e-05 -4.02007e-06 2.55755e-18
2.56424e-05 -1.36445e-06 3.26957e-18
8.83931e-06 5.39854e-06 -5.10574e-19
-8.09823e-06 -5.30517e-05 -3.6946e-18
-5.00031e-05 -1.94992e-05 -1.76288e-19
2.49687e-05 3.12138e-07 -1.38297e-18
3.74338e-05 -7.22725e-06 -2.01464e-18
-6.77179e-06 -8.59684e-06 -3.48513e-18
-3.24737e-05 2.28358e-05 7.71883e-19
-2.9103e-05 3.3341e-05 2.05334e-21
3.95713e-05 -1.42575e-05 4.6915e-19
-1.86829e-05 -3.16532e-05 -4.02203e-18
-1.90168e-05 3.1408e-05 1.23585e-18
-3.68933e-05 -1.30866e-06 1.7426e-18
-1.67776e-05 3.30046e-05 1.044e-18
-3.67773e-05 3.83525e-07 2.2524e-18
4.57576e-05 1.63843e-05 3.88146e-18
3.69239e-05 1.36177e-06 1.91487e-18
3.47195e-05 -1.77869e-05 8.74493e-19
1.01313e-05 -4.88102e-05 1.9294e-18
1.83462e-05 -3.19639e-05 -1.92663e-18
1.82215e-05 3.196e-05 -1.4007e-18
9.92171e-06 4.76923e-05 7.12035e-19
4.99694e-05 -1.4091e-05 -3.45922e-19
3.20319e-05 1.58653e-05 -4.38015e-18
3.07796e-05 8.40847e-06 2.9686e-18
P_ext 3 563 float
-1.00999e-06 3.41495e-07 7.47594e-20
9.53745e-10 3.73982e-08 7.92057e-21
-9.30488e-08 -8.75053e-08 -1.85212e-20
-2.94344e-08 2.71693e-08 3.66054e-20
2.56684e-08 4.93638e-10 -1.10031e-19
3.06251e-08 -1.24287e-07 4.14744e-20
-9.944e-07 -3.45626e-07 1.64062e-19
-7.29456e-08 -8.27556e-08 3.40299e-20
2.02935e-07 3.59402e-09 3.34905e-20
7.40859e-08 -6.95724e-09 -1.03806e-20
6.57428e-07 1.54095e-07 -1.68501e-20
3.61289e-08 -1.05756e-07 -2.88175e-21
8.27896e-08 9.85531e-08 2.82415e-20
-8.53251e-09 7.71981e-08 -2.37966e-20
2.31854e-08 8.59537e-09 1.55909e-20
-1.29723e-07 -2.12357e-09 4.93224e-20
-1.62115e-08 5.08693e-08 1.06621e-20
7.81988e-08 -1.17983e-08 -7.29885e-20
8.98237e-08 1.60194e-07 2.5712e-20
-1.20508e-07 1.21522e-08 -2.59702e-20
-4.52429e-08 -1.70687e-07 -8.051e-20
1.49413e-09 2.94739e-10 4.9919e-20
1.33472e-07 1.08663e-08 6.73275e-20
8.49715e-08 -9.81115e-08 2.04835e-20
-1.23102e-07 -1.98218e-08 2.34655e-20
-2.32083e-08 -6.73629e-08 -1.84012e-20
7.55792e-07 -6.18277e-08 4.16371e-20
9.25813e-08 7.80549e-08 -3.09757e-21
-2.76525e-07 -2.19654e-07 -7.54616e-20
1.62426e-08 3.05783e-09 -1.32489e-19
-1.23602e-07 -2.20091e-08 -1.32374e-20
5.40433e-08 -3.51678e-07 -2.72529e-21
5.67947e-07 -5.81649e-07 -4.15044e-20
1.20784e-09 -2.66628e-08 -4.37064e-20
-7.1735e-09 2.05047e-08 3.80313e-20
-2.22575e-08 -1.46615e-08 1.04519e-19
2.94306e-09 1.47238e-08 -5.40835e-20
-2.25019e-08 3.8331e-09 1.45401e-19
8.94049e-08 -9.7241e-08 2.07264e-20
5.54209e-07 6.06163e-07 -2.19426e-20
3.53996e-07 -1.60384e-07 -5.03654e-20
5.47009e-09 -1.34837e-08 -5.18614e-20
-8.86493e-09 -1.1805e-08 -1.08643e-19
-1.22787e-07 2.5219e-08 2.44211e-21
3.51216e-07 -3.4491e-07 7.94584e-23
-3.27247e-07 1.17792e-07 -1.26608e-20
-4.13435e-08 -1.80407e-07 1.31485e-20
7.45955e-08 1.81204e-07 -3.87404e-20
-1.17779e-07 3.07967e-08 -1.8048e-20
-2.02691e-07 3.15255e-07 8.99654e-20
3.59283e-07 1.75952e-07 3.52824e-20
3.11966e-07 -1.02604e-07 7.41135e-21
-9.18598e-09 2.18333e-08 2.96421e-20
-2.44134e-07 -2.19077e-07 5.00019e-21
-2.39504e-08 3.16389e-09 1.22581e-19
-5.23647e-07 3.07514e-07 7.68373e-20
-6.6608e-09 -2.04191e-08 -1.05649e-19
6.95193e-08 -3.22392e-07 -5.31398e-21
-2.08097e-08 -4.53496e-09 -4.89017e-20
5.45389e-08 1.09353e-07 4.91087e-20
-2.91005e-08 -8.8259e-09 2.57673e-20
-3.07254e-08 -2.88547e-08 5.78246e-20
6.81453e-07 3.00016e-07 -2.49534e-21
-5.90886e-10 5.94993e-08 -2.088e-20
9.1906e-09 -3.96974e-08 2.36745e-20
1.54535e-08 -8.83256e-08 -1.85059e-20
-6.13679e-09 -2.89175e-08 7.59277e-20
-7.06932e-08 -1.79628e-08 7.5988e-21
-8.22946e-08 1.00693e-07 -7.52974e-20
2.20703e-08 -8.01102e-09 1.54596e-20
-9.06036e-09 -2.24622e-08 -8.81013e-20
-2.36882e-08 -3.47334e-09 -7.47661e-20
-4.07935e-08 3.77935e-07 4.77944e-20
-7.26007e-08 3.66698e-08 -1.56903e-20
-7.0441e-08 1.20485e-07 -2.32429e-20
-7.08639e-07 8.32944e-08 7.57761e-20
2.88858e-11 -5.61032e-08 5.83916e-20
-6.82059e-08 -5.71499e-08 -7.80436e-21
2.87245e-08 7.00885e-08 5.02746e-21
2.71576e-07 5.42939e-08 1.49659e-20
3.89241e-07 -3.38671e-07 -1.52228e-20
1.06642e-08 2.61188e-08 -7.21434e-20
2.63203e-08 8.17267e-09 3.09834e-20
-3.62684e-07 2.68329e-07 1.24297e-19
4.23349e-07 5.14689e-08 5.26134e-20
-6.41691e-08 5.73817e-07 2.19805e-20
-2.22446e-08 -1.14985e-07 -7.95154e-21
7.80763e-08 5.49906e-08 4.69296e-20
3.37823e-07 3.56261e-07 2.47702e-20
6.11949e-09 2.71767e-09 -7.92402e-20
-6.51082e-08 3.24214e-07 9.66647e-20
5.52755e-09 -2.95671e-09 -8.41635e-21
-3.90826e-08 2.66582e-08 1.09334e-19
8.43837e-08 3.43399e-08 2.46314e-21
-3.12181e-07 9.65077e-08 -5.12842e-21
1.81195e-07 3.1839e-07 -3.77786e-20
1.12725e-07 -5.08951e-07 1.73012e-20
2.6496e-08 6.94602e-08 2.08507e-20
-4.79349e-08 -2.85194e-08 -2.14839e-20
3.97246e-08 1.27043e-07 1.5321e-20
2.64139e-07 4.49473e-08 -6.16326e-20
-1.7535e-07 3.62261e-07 7.56447e-20
4.6614e-07 -1.52348e-07 -9.44141e-20
-2.58644e-08 5.64696e-08 -4.4048e-20
4.9568e-08 5.03466e-08 2.01249e-21
-2.94647e-08 -6.79665e-08 -1.59192e-20
-1.18556e-08 -5.17803e-08 4.20538e-20
1.37104e-07 1.64349e-08 3.8762e-20
-1.00015e-07 4.67834e-07 -1.47827e-20
-2.31247e-08 1.42704e-08 1.8138e-20
6.83866e-08 1.01349e-07 2.3633e-21
-3.38199e-08 -4.80098e-07 -4.23414e-20
4.85674e-07 1.45825e-07 -2.21839e-20
3.30631e-08 -5.84267e-08 -4.71875e-20
-7.54842e-08 -8.63269e-09 1.56065e-20
-3.10622e-07 -1.24671e-07 1.98104e-20
1.5356e-08 1.64228e-08 -1.0561e-20
-4.93424e-07 -1.72561e-07 2.73748e-20
1.55895e-08 -1.63777e-08 -3.47323e-22
-4.79791e-08 -3.37344e-07 -1.02695e-20
2.08199e-07 7.90089e-09 2.43361e-23
-1.85418e-08 1.58152e-08 -4.48199e-20
4.97917e-09 2.27362e-08 -4.97482e-20
1.39304e-08 -6.09846e-08 1.27761e-20
2.41894e-08 -1.13081e-08 2.14891e-21
4.45549e-10 2.44963e-08 -1.53782e-20
2.11438e-08 -2.64069e-09 -1.84461e-20
3.94561e-08 -5.82135e-08 -1.58559e-20
-1.01029e-07 -5.15283e-07 -1.46306e-20
2.66889e-07 -2.05455e-07 7.36369e-21
8.60341e-10 3.25067e-08 1.2575e-19
-2.2504e-08 -4.06842e-09 -8.63143e-20
-7.31797e-09 -2.5166e-08 -7.39046e-20
-1.85555e-08 -1.31007e-08 6.82049e-20
-2.49509e-07 3.11792e-07 7.56877e-20
-2.86589e-10 -2.47549e-08 2.93935e-20
-3.12109e-07 4.9006e-07 5.46151e-20
-1.17287e-07 5.39359e-08 -3.12684e-20
1.64917e-08 1.77793e-08 9.7449e-20
-2.13124e-08 -1.24621e-08 1.0223e-19
1.52176e-07 3.67272e-07 1.53094e-20
8.77923e-08 7.82483e-08 1.27069e-20
2.1311e-07 -7.02797e-08 -1.03756e-20
1.19946e-08 -6.55699e-08 1.02711e-20
-3.86694e-07 -3.56332e-07 3.25105e-20
-3.72848e-08 6.44296e-08 3.38877e-20
9.68069e-08 5.16386e-08 -4.22003e-20
1.41564e-07 -4.87353e-08 -7.65493e-21
6.11352e-08 -1.22129e-07 -2.89105e-20
2.42364e-07 -1.11758e-07 2.80383e-20
1.61247e-07 -7.61106e-08 4.10986e-20
1.62024e-08 -1.34328e-08 -6.0531e-20
2.81131e-07 2.22372e-07 4.95279e-21
-4.06954e-08 -1.17676e-07 -4.45706e-20
-4.99766e-08 -4.27622e-08 -9.7077e-23
-8.17301e-09 -2.14479e-08 8.64348e-20
1.12286e-08 8.39594e-08 4.20321e-20
-3.76017e-07 2.69583e-08 3.28242e-20
-1.37365e-07 -3.58942e-07 4.57991e-20
-5.91537e-08 7.54013e-08 -3.89781e-20
1.16324e-07 1.55028e-07 -3.01729e-21
2.89365e-07 -2.05236e-07 -5.29838e-20
-4.23023e-07 -2.26171e-07 8.16001e-20
1.88187e-07 -3.06353e-07 2.98939e-20
2.45044e-07 -3.01425e-07 -6.32389e-20
-7.21655e-08 7.14597e-09 -2.90307e-20
-2.15119e-07 -3.11294e-07 -3.02459e-20
-3.76557e-07 -5.90166e-08 1.22561e-20
-4.48777e-08 -3.4364e-07 -1.24289e-20
1.67513e-07 -3.46235e-07 2.48412e-20
3.50511e-09 -4.75878e-08 -3.73871e-20
4.97786e-08 3.31509e-07 5.83001e-20
-1.77339e-07 -3.10232e-07 5.08431e-21
-1.66379e-08 -7.61128e-08 -1.56352e-20
-2.5635e-07 1.91916e-07 5.07625e-20
-5.02166e-08 -1.64584e-08 -1.34272e-20
-3.91187e-08 -2.68882e-08 -7.45724e-20
1.02307e-07 -5.24658e-08 -8.25818e-23
-1.40744e-08 1.99256e-08 -1.09375e-20
5.43748e-08 -6.86387e-08 -2.1228e-20
-3.18989e-07 -1.41863e-07 -1.28847e-20
-4.22495e-08 -5.69061e-08 2.53295e-21
4.41551e-08 6.03688e-08 -1.84748e-20
2.30657e-07 3.18392e-07 -3.80763e-20
-8.16359e-08 -3.76445e-08 -1.60013e-20
-3.54839e-07 -7.98345e-09 5.99646e-20
-4.54737e-08 -4.21798e-08 -2.90289e-20
-2.58616e-09 -6.10823e-08 -1.21638e-22
4.45446e-08 2.24633e-08 7.17859e-20
-5.13751e-08 5.06445e-08 -5.36423e-21
-8.58142e-09 -8.99204e-08 -2.60176e-21
-4.73679e-07 1.16678e-07 1.12382e-19
2.59653e-07 2.21511e-07 1.52539e-20
3.4694e-08 3.60768e-07 2.50243e-21
-2.09179e-08 7.18903e-09 -5.3469e-21
-6.97836e-08 2.16845e-09 2.48669e-21
3.20372e-08 6.11674e-08 1.54077e-20
-2.53563e-08 -6.22979e-09 -3.43769e-20
3.00291e-09 -2.16217e-08 -8.07931e-21
-1.39571e-08 9.51816e-08 1.60727e-20
1.54616e-08 1.62955e-08 -3.16231e-20
-1.76275e-07 3.89654e-08 2.62554e-21
-1.78779e-07 1.95068e-07 8.41529e-20
-1.92995e-08 1.79033e-08 -5.53433e-20
-3.23437e-07 1.95198e-07 7.05181e-20
-8.2984e-09 2.75565e-08 -3.96374e-20
8.7283e-08 -3.12639e-08 -2.69399e-21
4.05438e-07 -3.73003e-08 -2.29651e-20
-5.0815e-08 3.21532e-08 -2.92205e-20
2.0553e-08 9.47224e-09 5.4722e-20
5.28881e-08 -3.31003e-08 1.61888e-20
-9.07433e-08 3.02414e-08 -9.78879e-23
-6.60407e-08 1.73102e-08 -8.01454e-21
2.32172e-08 -6.78663e-09 1.58651e-20
2.14789e-07 -1.30625e-07 -1.01942e-20
-8.45242e-08 5.3893e-08 2.34736e-20
-2.52517e-07 -5.26573e-08 1.47802e-20
-5.36606e-08 -2.82561e-08 -4.49759e-20
2.05236e-08 -1.36305e-08 3.39886e-20
2.27354e-08 1.59782e-08 2.02415e-20
-5.74402e-09 2.585e-08 8.08273e-21
-2.33341e-09 -2.91664e-08 -2.98905e-21
-2.36699e-08 1.20949e-08 -5.23087e-20
-2.64906e-08 -1.35668e-08 -1.85292e-20
6.63639e-08 -2.50787e-08 -2.35988e-20
-2.42769e-08 -6.68159e-09 -9.79861e-20
-2.42252e-08 6.43593e-09 8.44166e-20
-5.96679e-09 2.40711e-08 -1.58014e-20
-6.47835e-09 -2.45987e-08 -9.56266e-20
1.60094e-08 -1.7923e-08 -6.13824e-20
1.53911e-08 1.71532e-08 1.58385e-20
9.29011e-09 2.5633e-07 9.46236e-20
4.97288e-08 -4.1026e-08 -2.89762e-20
1.16064e-08 -2.18897e-08 2.32404e-20
-1.9331e-07 7.14436e-09 5.67752e-20
1.83536e-08 -1.74182e-08 -5.37104e-21
1.71361e-08 1.76891e-08 5.27644e-20
2.62914e-08 -5.7219e-10 4.16698e-20
8.87383e-08 2.51192e-07 -1.50875e-20
-1.33027e-08 -2.17541e-08 2.6308e-20
2.8766e-08 -6.58351e-08 5.47116e-20
-2.15729e-07 -1.19358e-07 -3.23101e-21
-4.73994e-08 -3.07685e-08 2.35014e-20
-2.16517e-07 1.28414e-07 -2.02019e-20
1.92001e-08 -1.96806e-08 -2.0994e-20
-9.20287e-09 2.04542e-08 4.68158e-20
-5.06346e-09 -2.48216e-07 2.79701e-20
-8.12642e-08 -2.45842e-07 2.28321e-20
3.72589e-07 3.54616e-07 -4.97052e-21
3.98534e-07 -2.2632e-08 -4.88003e-21
-2.8263e-08 6.15889e-09 4.71258e-20
-2.66541e-07 -4.71015e-07 -2.46032e-20
6.35487e-08 1.08962e-07 1.0092e-20
-2.55491e-07 3.00915e-08 4.81498e-20
1.83414e-07 5.12874e-08 -2.57494e-20
-2.50604e-08 -1.01366e-10 -6.53344e-20
5.47439e-10 -2.60464e-08 -2.88574e-20
-2.27419e-09 -1.78128e-08 -8.69291e-20
-2.22112e-08 -1.32187e-08 2.91032e-20
-5.5265e-07 -2.09426e-08 4.73166e-20
1.73691e-07 -1.96446e-07 -6.63176e-20
1.18097e-08 2.29086e-08 -3.66459e-20
6.03846e-09 -1.09674e-07 -3.91747e-20
-1.03605e-07 2.45357e-07 1.27074e-19
2.12603e-09 2.75601e-08 -5.7689e-20
1.85336e-07 -1.32622e-07 7.7264e-21
-1.62968e-08 -7.12729e-09 -5.72342e-20
-1.57607e-07 -2.04844e-07 2.0337e-20
2.17152e-08 1.10472e-08 5.5305e-20
5.13861e-08 4.96837e-08 5.19782e-20
-3.65645e-08 -5.69594e-08 7.54362e-20
2.24927e-08 -7.27736e-09 -2.31535e-21
7.61477e-08 -5.31609e-08 -1.31549e-20
-4.52195e-09 4.24563e-08 -1.86667e-20
6.26465e-08 -1.05588e-07 2.59856e-21
5.72104e-07 2.88261e-08 -9.18436e-20
-4.84677e-07 1.28236e-07 8.63427e-20
4.05806e-08 2.82777e-08 -5.5945e-20
-6.00435e-08 -1.44558e-07 -2.57048e-20
-9.12656e-08 -5.95403e-08 1.0595e-20
2.97079e-07 -2.98601e-09 6.85115e-20
2.53917e-09 -5.66784e-08 5.0163e-20
-7.42407e-08 -2.62095e-08 4.18275e-20
1.01245e-07 -2.41899e-07 -2.31494e-20
8.07141e-09 9.7437e-08 1.03761e-20
8.30955e-08 2.5769e-07 7.68858e-20
9.97223e-08 -5.25522e-08 -2.59777e-20
-1.81916e-07 1.93633e-07 6.19117e-20
1.67281e-07 2.06707e-07 -2.25918e-20
-1.05191e-08 4.70224e-09 3.25035e-20
1.73371e-09 4.48978e-08 -5.42684e-21
3.38363e-09 -2.03711e-08 3.41512e-20
-1.61284e-08 -1.33737e-08 -6.15209e-20
-5.55517e-08 4.40501e-08 -3.91616e-20
-2.5488e-07 -6.03876e-08 -4.66564e-20
8.90366e-10 2.86429e-08 -2.12399e-20
-6.66566e-08 1.98941e-08 -4.74123e-20
1.80587e-07 -2.61795e-08 -1.2766e-20
-7.72255e-08 -2.50074e-07 5.34044e-21
-1.521e-07 2.4223e-07 1.91683e-19
-4.29416e-08 1.98481e-08 2.68765e-20
-2.03847e-07 -1.44236e-07 2.80884e-20
4.61389e-08 -2.16369e-08 -1.5973e-20
-2.76398e-07 -1.3534e-08 7.12889e-20
1.35313e-07 -4.77473e-07 9.39992e-21
1.8487e-07 -1.94136e-07 -2.54596e-20
2.82691e-07 5.0121e-07 6.01165e-20
-2.65028e-09 6.05727e-08 -1.30262e-20
2.42647e-08 -2.51801e-07 4.90311e-21
-9.82968e-09 5.95405e-09 -4.4279e-20
-1.3105e-07 -2.44538e-07 8.6914e-20
4.39657e-08 -3.7632e-08 5.54513e-20
-2.52828e-08 2.54707e-07 8.64339e-20
6.13781e-08 -1.80136e-08 -6.04888e-20
1.39678e-07 2.48922e-07 3.32054e-20
1.39893e-07 -3.26566e-09 -4.69619e-20
2.55353e-07 -7.53437e-07 3.93362e-20
-5.41047e-08 -1.00724e-07 -5.72842e-20
-2.25646e-07 9.83192e-08 9.92805e-21
-3.16148e-08 1.55311e-08 -4.28089e-20
2.14211e-07 1.43454e-07 -5.25933e-21
1.5268e-07 -8.42916e-08 3.08053e-20
8.07047e-08 3.54542e-08 2.5159e-21
-1.65043e-08 1.39491e-08 3.35471e-20
1.53145e-07 -2.36586e-07 -1.31184e-20
-1.63268e-07 -2.03743e-07 -7.9629e-21
2.10653e-07 8.30903e-08 -3.34843e-20
5.35849e-08 -3.31181e-08 -1.03825e-20
9.84817e-08 -2.44771e-07 -1.2826e-19
1.15726e-07 -2.19355e-08 -4.93024e-20
-1.12304e-07 -4.48038e-08 3.13222e-20
-4.88217e-09 -4.55797e-08 3.97912e-20
-2.57429e-07 3.57466e-08 -1.02904e-20
2.7047e-08 2.25826e-07 8.99058e-20
1.76107e-07 4.10933e-08 -2.94073e-21
-2.00048e-07 -8.9539e-08 -3.15198e-20
-9.83693e-08 2.52229e-07 8.4291e-20
-2.24846e-08 -2.20015e-07 2.69769e-21
5.81608e-08 2.83861e-08 7.88891e-21
-3.77557e-08 1.06402e-07 5.19981e-20
-1.79894e-07 1.29023e-07 -2.49067e-21
2.31037e-07 1.16536e-07 -2.84007e-20
-1.05174e-07 -3.30377e-08 -2.62919e-20
-2.5506e-08 -1.08305e-07 -2.89526e-20
1.76554e-07 2.05231e-07 -3.33065e-20
-4.14985e-08 -1.88249e-08 6.63455e-20
5.8058e-07 -4.1746e-07 -3.85073e-20
1.22938e-07 -8.60125e-08 2.85206e-20
1.00401e-07 4.92015e-07 4.92372e-21
1.29633e-07 -1.24629e-07 5.32964e-21
-2.80299e-07 1.06746e-06 4.81045e-21
-2.81923e-07 -1.05706e-06 6.47646e-20
6.92659e-07 9.10463e-07 5.60756e-20
6.84068e-07 -9.10218e-07 1.14792e-20
1.13384e-06 -4.42793e-10 4.3986e-21
-9.77416e-07 3.93237e-07 8.33118e-20
-9.61212e-07 -3.97512e-07 8.11115e-20
4.67367e-08 2.53509e-08 2.34886e-20
2.99858e-08 1.4561e-08 -2.34072e-21
8.7113e-08 1.17301e-08 7.69085e-21
1.53796e-07 8.21937e-08 -7.80934e-21
4.56222e-08 1.81729e-07 1.29576e-20
-1.64882e-07 -1.41659e-07 2.77086e-20
8.3029e-08 -7.65423e-08 3.38474e-20
1.77164e-07 1.42183e-07 2.54356e-20
-4.09732e-08 2.23673e-07 -2.6103e-21
2.90825e-08 -1.42859e-08 1.88061e-20
4.16988e-08 -2.14647e-07 -1.81619e-20
5.44763e-08 3.67354e-08 -5.5939e-20
3.19552e-07 1.11942e-07 -2.30088e-20
7.1593e-09 2.29995e-08 -2.59503e-21
1.23499e-07 4.04207e-08 4.11584e-20
-1.52851e-07 8.45506e-08 -5.58512e-21
-2.09278e-07 7.23969e-08 -7.59098e-21
4.14309e-08 -2.83844e-08 -1.87749e-20
-1.33612e-07 -6.18277e-08 -1.22362e-19
-1.46806e-07 -8.69558e-08 -8.0373e-20
-1.28691e-08 -1.4737e-07 -2.87243e-20
5.80375e-10 -1.69259e-07 2.63538e-21
-1.86358e-07 -8.05563e-09 -3.85349e-20
2.766e-07 -4.29466e-08 -2.55027e-20
1.49217e-07 9.19618e-08 3.36482e-20
-1.23476e-07 8.42321e-08 -1.84795e-20
-5.56723e-08 2.72501e-08 -5.621e-21
1.39273e-07 -1.24794e-07 -2.07835e-20
-1.04644e-07 1.62933e-07 8.98327e-20
-1.28902e-07 -1.35784e-07 1.75207e-20
-1.22162e-08 1.77474e-07 7.22514e-20
-2.65537e-08 1.49786e-07 6.47611e-20
4.37641e-09 -1.0874e-07 -4.19521e-20
5.61018e-08 -1.81326e-07 -7.6986e-20
-9.1694e-08 -5.88444e-08 -8.13634e-20
1.27044e-07 -3.62301e-08 -5.70573e-20
3.10277e-10 1.77255e-07 2.58373e-20
-3.83542e-09 1.13254e-07 5.2315e-20
-2.84648e-08 1.27396e-07 -5.37083e-21
2.0851e-07 -5.13141e-08 2.43024e-21
-4.37862e-08 4.18092e-08 1.02852e-19
4.72603e-08 1.77398e-07 7.22707e-20
-2.85567e-08 1.80237e-08 1.3522e-20
1.0531e-07 4.88322e-07 -1.45891e-20
-5.16491e-08 2.78835e-08 6.05908e-20
5.47996e-08 -2.8526e-08 2.47659e-21
1.57644e-08 1.5074e-07 4.16425e-20
-1.76787e-07 4.19918e-08 -5.18867e-21
-5.43707e-09 -7.66311e-08 -3.17006e-20
7.29722e-09 -6.96677e-07 -3.40184e-20
2.11613e-08 1.2779e-07 -2.06243e-20
-1.32069e-07 1.25644e-07 6.46362e-20
2.05106e-07 7.62843e-07 -1.97644e-20
9.84614e-09 6.48509e-09 -7.95351e-21
8.5069e-09 -6.18493e-09 -1.09756e-20
9.94268e-08 -7.75365e-08 2.84947e-20
-1.41137e-07 1.26368e-07 4.88675e-20
-1.69405e-07 -5.004e-08 -5.22705e-21
-1.74085e-07 -5.71749e-08 -5.35919e-21
-3.47518e-09 2.13997e-09 -6.3657e-20
-2.40231e-09 -1.16142e-09 -1.89003e-20
8.13137e-08 1.6521e-08 -1.57325e-20
2.58085e-08 1.18675e-07 -2.56286e-21
-2.98298e-09 1.18e-07 1.57665e-20
-5.8352e-07 -4.23874e-07 9.19894e-20
1.0357e-07 -1.62901e-07 -1.80433e-20
5.23861e-08 1.8865e-08 1.07853e-19
-1.92141e-07 -2.06687e-08 -2.08217e-20
-1.2149e-07 1.60504e-07 4.14141e-20
-1.56841e-07 7.37477e-08 2.43051e-21
5.72884e-07 4.11622e-07 3.15293e-20
5.66821e-08 3.72621e-08 -7.15773e-20
-5.57585e-08 1.81981e-07 4.10953e-20
-1.09912e-07 -9.41452e-08 -6.77215e-20
2.73431e-08 -1.43358e-07 -1.56273e-20
-8.89429e-08 -1.69221e-07 -3.36114e-20
-1.42523e-07 -9.76899e-08 -7.28323e-20
9.7682e-08 -1.73237e-07 -7.51605e-20
1.17174e-07 -1.6103e-07 2.33787e-20
-3.71411e-08 -7.26984e-07 2.90024e-20
2.98894e-07 -4.78092e-07 1.95701e-20
1.42779e-08 -1.74032e-07 -3.88766e-20
1.22723e-07 9.3427e-08 2.5678e-20
-1.10241e-07 -1.3382e-07 -5.2126e-20
-9.56129e-08 1.78252e-07 4.38036e-20
-5.87429e-08 1.74706e-07 7.77066e-21
1.27964e-07 1.3251e-07 3.58715e-20
6.27367e-08 -1.6341e-07 -6.77699e-20
-1.62219e-07 -4.6253e-07 7.15489e-20
3.65553e-09 5.61915e-08 3.18927e-20
1.29553e-07 1.33311e-07 6.16611e-20
-6.98359e-08 -3.43866e-08 -2.14343e-20
-5.80276e-08 3.16749e-08 1.85164e-20
5.19373e-07 -2.27529e-07 -1.01296e-19
6.45007e-08 -1.066e-07 7.57958e-21
-6.122e-08 -1.04734e-07 -2.84792e-21
2.32281e-08 -2.01011e-09 -3.97511e-20
1.99795e-09 -8.8009e-09 1.83748e-20
-6.51384e-09 -6.43486e-09 1.06981e-20
2.86027e-08 1.87555e-08 -5.33678e-20
-8.9692e-08 -1.69312e-07 1.80622e-20
1.38013e-07 5.5348e-08 1.28467e-20
-3.35875e-07 -3.69252e-07 6.66177e-20
1.26162e-09 1.08196e-08 1.12577e-20
1.25531e-09 1.94585e-09 -1.7022e-20
2.43091e-09 -3.1429e-10 -3.26532e-20
3.2231e-07 -6.36495e-07 2.32131e-21
-1.33941e-08 1.57734e-08 -1.24038e-22
-3.06991e-09 1.91085e-08 3.19165e-22
-1.3877e-07 4.93287e-08 -1.06413e-20
-4.79708e-09 5.63608e-08 -3.69561e-20
-3.04899e-08 9.03966e-08 -5.36002e-21
6.28464e-08 2.67783e-09 6.28272e-20
1.41778e-08 5.43382e-08 -4.49754e-20
-3.71506e-09 7.5139e-08 -1.05834e-20
1.07712e-07 5.85999e-08 -3.41136e-20
7.6777e-09 6.93425e-07 -1.72071e-20
-1.00215e-07 9.48278e-08 -1.55908e-20
7.51386e-08 -5.05239e-08 2.72771e-21
4.33751e-08 -3.96112e-08 2.63942e-20
-7.11211e-07 -9.7651e-08 6.82409e-20
-2.02632e-08 8.035e-09 5.6573e-20
-5.17863e-07 -6.12584e-07 5.63382e-20
9.40397e-09 2.51939e-08 -3.17211e-20
9.08228e-08 1.76571e-08 1.05736e-20
2.70417e-07 -3.50946e-08 1.79928e-20
-6.18142e-08 -1.01574e-07 -6.00411e-20
1.18186e-07 3.38953e-08 4.91318e-21
6.11776e-10 -3.00738e-08 5.16177e-21
-6.66529e-08 7.712e-08 -5.23308e-20
-2.54886e-08 -1.6211e-08 6.5965e-20
-6.0082e-08 1.22058e-07 -3.14933e-20
1.08711e-08 7.70338e-08 -2.59617e-21
1.76599e-08 1.29427e-08 -7.82309e-20
1.75256e-08 -1.24332e-08 5.4476e-21
-4.82131e-07 -1.31341e-07 -9.78568e-21
5.31071e-08 1.98136e-08 -1.05274e-20
-6.39449e-08 1.23772e-06 5.8035e-20
-4.44507e-09 -1.27163e-06 -7.07563e-21
6.25916e-07 1.0715e-06 2.67439e-20
-6.49482e-08 5.15275e-08 -2.3855e-20
-3.31672e-07 6.67475e-07 1.1882e-20
6.29513e-07 -1.0342e-06 -5.04562e-20
-1.04088e-07 -1.68467e-07 6.93261e-20
9.55946e-07 8.3762e-07 -6.96364e-21
1.12334e-08 -1.99251e-08 -4.84761e-20
-1.17059e-08 -2.01896e-08 -3.81814e-20
1.00206e-06 -8.1897e-07 4.66713e-21
-6.13993e-08 1.20746e-07 -4.84344e-21
-6.29448e-07 -4.00877e-07 7.36136e-20
-5.30799e-07 -1.10632e-06 4.07646e-20
-2.97295e-07 -6.83933e-07 -4.80182e-21
-5.45674e-07 1.12474e-06 6.70661e-20
-1.28953e-07 7.62195e-07 2.91893e-20
-9.09138e-10 2.66818e-08 2.43486e-20
-3.31094e-07 4.26274e-07 9.79238e-21
-3.16993e-07 -6.48779e-07 2.15711e-20
1.23263e-06 2.15103e-07 -1.92589e-20
-9.63736e-08 8.19353e-08 -5.09852e-21
-2.26195e-09 5.41284e-08 3.70426e-20
-5.96241e-07 4.31638e-07 8.54731e-20
-1.0688e-07 5.70436e-08 -1.6829e-22
1.22049e-06 -1.91327e-07 -1.94952e-20
-8.15729e-08 5.47602e-08 -3.6752e-20
5.94244e-08 -1.22898e-07 2.037e-20
-9.49788e-07 -7.21378e-07 9.65738e-20
-3.20262e-07 6.86207e-07 1.46172e-19
-9.72803e-07 7.16081e-07 -1.90363e-20
2.84241e-07 6.34122e-07 4.12762e-20
-1.04632e-07 8.31756e-08 4.92047e-20
-2.90305e-08 1.64406e-08 2.93468e-20
-1.58861e-09 -2.54056e-09 -3.53828e-20
4.13429e-10 -2.18554e-09 6.85498e-20
7.95597e-09 8.35221e-08 -1.29941e-20
-2.33126e-09 2.54429e-09 -1.35177e-19
1.24422e-09 3.13827e-09 -1.07376e-19
2.11544e-09 -9.14376e-10 -4.14353e-20
-1.24416e-09 9.89197e-09 -3.26805e-20
-2.18711e-07 4.77178e-07 3.65553e-20
-1.64481e-08 1.18019e-08 2.15054e-21
2.83435e-08 -1.78611e-08 5.32835e-20
2.77835e-08 -1.6096e-08 2.96683e-20
8.00534e-08 3.12388e-08 7.68258e-21
-7.51521e-10 -8.46616e-09 -5.78006e-20
-7.55807e-09 -3.83381e-09 -7.93178e-20
2.77667e-08 1.6198e-08 -5.38775e-20
7.06825e-07 -1.36229e-07 -3.14295e-20
-9.15702e-08 -1.16719e-07 -7.00134e-20
-6.18833e-07 4.3144e-07 3.84661e-20
-5.54057e-07 6.31932e-07 5.14244e-20
7.46846e-07 -2.69715e-07 -3.19357e-20
-3.57681e-09 -1.03964e-08 -5.21001e-20
-3.92884e-09 1.06795e-08 -3.21645e-20
-1.17335e-08 2.02088e-09 1.38415e-19
-7.69971e-09 7.84378e-09 -3.51999e-20
-1.06359e-08 -2.26021e-09 -1.22209e-19
1.96147e-09 2.50601e-09 5.24642e-20
1.14154e-08 -2.81423e-09 2.99626e-20
4.80841e-09 -3.38672e-09 -6.56288e-20
-3.3792e-09 -2.42592e-09 1.36144e-20
7.30518e-09 -7.50419e-09 -2.7444e-20
7.34576e-09 7.72773e-09 -5.72174e-20
-3.39983e-09 2.13113e-09 -7.41378e-20
3.70722e-09 -7.51904e-10 -9.32768e-20
6.15397e-09 3.41228e-09 -7.94032e-20
1.33385e-08 4.7666e-09 -6.73582e-20
SCALARS rr_necrosis float
LOOKUP_TABLE default
0
0
0
0
0
0
0
0
0
0
0
0
0
0
0
0
0
0
0
0
0
0
0
0
0
0
0
0
0
0
0
0
0
0
0
0
0
0
0
0
0
0
0
0
0
0
0
0
0
0
0
0
0
0
0
0
0
0
0
0
0
0
0
0
0
0
0
0
0
0
0
0
0
0
0
0
0
0
0
0
0
0
0
0
0
0
0
0
0
0
0
0
0
0
0
0
0
0
0
0
0
0
0
0
0
0
0
0
0
0
0
0
0
0
0
0
0
0
0
0
0
0
0
0
0
0
0
0
0
0
0
0
0
0
0
0
0
0
0
0
0
0
0
0
0
0
0
0
0
0
0
0
0
0
0
0
0
0
0
0
0
0
0
0
0
0
0
0
0
0
0
0
0
0
0
0
0
0
0
0
0
0
0
0
0
0
0
0
0
0
0
0
0
0
0
0
0
0
0
0
0
0
0
0
0
0
0
0
0
0
0
0
0
0
0
0
0
0
0
0
0
0
0
0
0
0
0
0
0
0
0
0
0
0
0
0
0
0
0
0
0
0
0
0
0
0
0
0
0
0
0
0
0
0
0
0
0
0
0
0
0
0
0
0
0
0
0
0
0
0
0
0
0
0
0
0
0
0
0
0
0
0
0
0
0
0
0
0
0
0
0
0
0
0
0
0
0
0
0
0
0
0
0
0
0
0
0
0
0
0
0
0
0
0
0
0
0
0
0
0
0
0
0
0
0
0
0
0
0
0
0
0
0
0
0
0
0
0
0
0
0
0
0
0
0
0
0
0
0
0
0
0
0
0
0
0
0
0
0
0
0
0
0
0
0
0
0
0
0
0
0
0
0
0
0
0
0
0
0
0
0
0
0
0
0
0
0
0
0
0
0
0
0
0
0
0
0
0
0
0
0
0
0
0
0
0
0
0
0
0
0
0
0
0
0
0
0
0
0
0
0
0
0
0
0
0
0
0
0
0
0
0
0
0
0
0
0
0
0
0
0
0
0
0
0
0
0
0
0
0
0
0
0
0
0
0
0
0
0
0
0
0
0
0
0
0
0
0
0
0
0
0
0
0
0
0
0
0
0
0
0
0
0
0
0
0
0
0
0
0
0
0
0
0
0
0
0
0
0
0
0
0
0
0
0
0
0
0
0
0
0
0
0
0
0
0
0
0
0
0
0
0
0
0
0
0
0
0
0
0
0
0
0
0
0
0
0
0
0
0
0
0
0
0
0
0
0
0
0
0
0
0
0
0
0
0
0
0
0
0
0
0
0
SCALARS rr_protein float
LOOKUP_TABLE default
1
1
1
1
1
1
1
1
1
1
1
1
1
1
1
1
1
1
1
1
1
1
1
1
1
1
1
1
1
1
1
1
1
1
1
1
1
1
1
1
1
1
1
1
1
1
1
1
1
1
1
1
1
1
1
1
1
1
1
1
1
1
1
1
1
1
1
1
1
1
1
1
1
1
1
1
1
1
1
1
1
1
1
1
1
1
1
1
1
1
1
1
1
1
1
1
1
1
1
1
1
1
1
1
1
1
1
1
1
1
1
1
1
1
1
1
1
1
1
1
1
1
1
1
1
1
1
1
1
1
1
1
1
1
1
1
1
1
1
1
1
1
1
1
1
1
1
1
1
1
1
1
1
1
1
1
1
1
1
1
1
1
1
1
1
1
1
1
1
1
1
1
1
1
1
1
1
1
1
1
1
1
1
1
1
1
1
1
1
1
1
1
1
1
1
1
1
1
1
1
1
1
1
1
1
1
1
1
1
1
1
1
1
1
1
1
1
1
1
1
1
1
1
1
1
1
1
1
1
1
1
1
1
1
1
1
1
1
1
1
1
1
1
1
1
1
1
1
1
1
1
1
1
1
1
1
1
1
1
1
1
1
1
1
1
1
1
1
1
1
1
1
1
1
1
1
1
1
1
1
1
1
1
1
1
1
1
1
1
1
1
1
1
1
1
1
1
1
1
1
1
1
1
1
1
1
1
1
1
1
1
1
1
1
1
1
1
1
1
1
1
1
1
1
1
1
1
1
1
1
1
1
1
1
1
1
1
1
1
1
1
1
1
1
1
1
1
1
1
1
1
1
1
1
1
1
1
1
1
1
1
1
1
1
1
1
1
1
1
1
1
1
1
1
1
1
1
1
1
1
1
1
1
1
1
1
1
1
1
1
1
1
1
1
1
1
1
1
1
1
1
1
1
1
1
1
1
1
1
1
1
1
1
1
1
1
1
1
1
1
1
1
1
1
1
1
1
1
1
1
1
1
1
1
1
1
1
1
1
1
1
1
1
1
1
1
1
1
1
1
1
1
1
1
1
1
1
1
1
1
1
1
1
1
1
1
1
1
1
1
1
1
1
1
1
1
1
1
1
1
1
1
1
1
1
1
1
1
1
1
1
1
1
1
1
1
1
1
1
1
1
1
1
1
1
1
1
1
1
1
1
1
1
1
1
1
1
1
1
1
1
1
1
1
1
1
1
1
1
1
1
1
1
1
1
1
1
1
1
1
1
1
1
1
1
1
1
1
1
1
1
1
1
1
1
1
1
1
1
1
1
1
1
SCALARS rr_(S_ext) float
LOOKUP_TABLE default
0.957831
0.957862
0.957863
0.957859
0.957887
0.957862
0.95783
0.957866
0.957861
0.957865
0.957806
0.957866
0.957866
0.957867
0.957874
0.957864
0.957866
0.957862
0.957855
0.95786
0.957863
0.957907
0.957859
0.957861
0.95786
0.957862
0.957827
0.957863
0.957843
0.957891
0.957866
0.957842
0.957829
0.957887
0.957892
0.957887
0.957889
0.957892
0.957866
0.957829
0.957842
0.95789
0.957889
0.957866
0.957825
0.957844
0.957858
0.957862
0.957863
0.957837
0.95784
0.957849
0.957882
0.957851
0.957882
0.957838
0.957893
0.95785
0.957893
0.95786
0.957864
0.957875
0.957838
0.957876
0.957875
0.957871
0.957864
0.957863
0.95786
0.957861
0.957882
0.957882
0.957843
0.957873
0.957864
0.957823
0.95788
0.957871
0.957863
0.957847
0.957842
0.957889
0.957869
0.957838
0.957848
0.957831
0.957863
0.957873
0.957825
0.957904
0.95785
0.957904
0.957879
0.95787
0.957852
0.957838
0.957844
0.957864
0.95788
0.957865
0.957856
0.95785
0.957837
0.957861
0.957864
0.957863
0.957871
0.957865
0.957837
0.957859
0.95786
0.957829
0.957833
0.957861
0.957863
0.957852
0.957895
0.957845
0.957895
0.957852
0.957855
0.957873
0.95786
0.957869
0.95786
0.957874
0.957891
0.957864
0.957844
0.957851
0.95788
0.95786
0.957868
0.95786
0.957851
0.957892
0.957842
0.957867
0.957869
0.957892
0.957851
0.95787
0.957858
0.957864
0.957845
0.957862
0.957868
0.957865
0.957863
0.957853
0.95786
0.95786
0.957841
0.957866
0.957864
0.95786
0.957868
0.957853
0.957852
0.957862
0.957862
0.957841
0.95783
0.957839
0.957851
0.957864
0.957852
0.957853
0.957842
0.957851
0.957878
0.95785
0.95784
0.957869
0.957851
0.95787
0.957878
0.957867
0.957884
0.957866
0.957844
0.957864
0.957864
0.95785
0.957873
0.957839
0.957869
0.957873
0.957881
0.957864
0.957873
0.957844
0.95785
0.957842
0.95786
0.957861
0.957861
0.957868
0.95786
0.957871
0.95786
0.957857
0.957849
0.957868
0.957844
0.957869
0.957872
0.957848
0.957876
0.957861
0.957879
0.957869
0.957864
0.957869
0.957852
0.95787
0.95785
0.957873
0.95786
0.957859
0.957857
0.957859
0.957859
0.957859
0.957866
0.957873
0.957872
0.957872
0.957873
0.957883
0.957882
0.957852
0.957865
0.957855
0.957862
0.957875
0.957875
0.957855
0.957848
0.957854
0.957864
0.957854
0.957875
0.957854
0.95787
0.957853
0.957853
0.95785
0.957842
0.957835
0.957869
0.957844
0.957864
0.95785
0.957856
0.957854
0.957859
0.957892
0.957859
0.957847
0.957849
0.957854
0.957866
0.957848
0.957859
0.957859
0.957892
0.95785
0.95786
0.95787
0.957861
0.957874
0.957873
0.957883
0.957864
0.957834
0.957831
0.957883
0.957862
0.957866
0.957856
0.957875
0.957869
0.957849
0.957871
0.957857
0.957869
0.957858
0.957848
0.957898
0.957879
0.957873
0.957873
0.957865
0.957858
0.957886
0.95787
0.957862
0.957858
0.957857
0.957882
0.957854
0.95788
0.957858
0.957826
0.957857
0.957844
0.957873
0.957853
0.957898
0.957857
0.957871
0.957852
0.957871
0.957857
0.957864
0.957841
0.95786
0.957854
0.957879
0.957852
0.957861
0.957873
0.957861
0.957857
0.957858
0.957858
0.957874
0.957857
0.957867
0.957864
0.957884
0.957858
0.957858
0.957863
0.957859
0.957857
0.957859
0.957876
0.957866
0.957859
0.957853
0.957869
0.957869
0.957857
0.957884
0.957805
0.957866
0.957842
0.957863
0.957745
0.957746
0.957744
0.957744
0.957742
0.95775
0.957751
0.957873
0.957886
0.957862
0.95786
0.957856
0.957859
0.957869
0.957858
0.957858
0.957887
0.957859
0.957878
0.95785
0.957871
0.957862
0.957861
0.957859
0.957884
0.957866
0.957861
0.957865
0.957861
0.957856
0.957848
0.95786
0.957865
0.957877
0.957857
0.957855
0.957857
0.95786
0.957864
0.957868
0.957857
0.957868
0.957862
0.95786
0.957867
0.957862
0.957857
0.957869
0.957862
0.957885
0.957826
0.957873
0.957876
0.957864
0.957864
0.95787
0.957808
0.957862
0.957863
0.957841
0.9579
0.957901
0.957863
0.957856
0.957864
0.957858
0.957915
0.957914
0.957864
0.957867
0.957867
0.957812
0.957855
0.957871
0.957862
0.957862
0.95786
0.957803
0.957871
0.957856
0.957865
0.957865
0.957861
0.957861
0.957861
0.957862
0.957829
0.957844
0.957861
0.957865
0.957862
0.957861
0.957862
0.957863
0.957862
0.957828
0.957877
0.957856
0.95787
0.957871
0.957827
0.957862
0.957861
0.957885
0.957893
0.957893
0.957878
0.957855
0.957865
0.957826
0.957892
0.957908
0.957908
0.957803
0.957891
0.95789
0.957864
0.957879
0.957863
0.957864
0.957869
0.957874
0.957868
0.957806
0.957865
0.957871
0.957871
0.957823
0.957889
0.957844
0.957869
0.957868
0.957855
0.957864
0.957867
0.95788
0.957866
0.95788
0.957864
0.957873
0.957891
0.957892
0.957829
0.957865
0.957829
0.957834
0.957824
0.957872
0.95781
0.957821
0.957861
0.957825
0.957889
0.957889
0.957829
0.957859
0.957833
0.957832
0.957828
0.957831
0.957828
0.957892
0.957825
0.95781
0.957827
0.957868
0.957874
0.957828
0.957867
0.957819
0.957867
0.95786
0.95783
0.957825
0.957827
0.957802
0.957862
0.957888
0.957904
0.957903
0.957867
0.957904
0.957904
0.957904
0.957898
0.957826
0.95789
0.95788
0.957889
0.957867
0.957901
0.9579
0.957892
0.9578
0.95786
0.95781
0.957844
0.957838
0.95789
0.95789
0.95789
0.957891
0.95789
0.957906
0.957894
0.957902
0.957909
0.957894
0.957893
0.95791
0.957905
0.957901
0.957892
SCALARS rr_(P_ext) float
LOOKUP_TABLE default
0.0198172
0.0197226
0.0197309
0.0197242
0.0196987
0.0197311
0.0198175
0.0197254
0.0197388
0.0197229
0.019811
0.0197254
0.0197273
0.0197217
0.0197074
0.0197295
0.0197183
0.0197264
0.019743
0.0197333
0.0197346
0.0196661
0.0197344
0.0197331
0.0197334
0.0197249
0.0197978
0.0197298
0.0197689
0.0196853
0.0197277
0.0197687
0.0197992
0.0196909
0.0196881
0.019691
0.0196842
0.0196894
0.0197278
0.0197989
0.0197691
0.0196838
0.0196839
0.0197276
0.0197901
0.0197675
0.0197411
0.0197373
0.0197307
0.0197747
0.0197713
0.0197592
0.0197
0.019759
0.0197008
0.0197873
0.0196879
0.019759
0.019688
0.0197328
0.0197186
0.0197108
0.0197918
0.0197113
0.0197107
0.0197183
0.0197183
0.0197248
0.0197339
0.0197222
0.0197002
0.0197002
0.0197692
0.0197154
0.0197306
0.0198032
0.0197057
0.0197184
0.0197249
0.0197571
0.0197767
0.0196957
0.0197146
0.0197793
0.0197661
0.0197891
0.0197298
0.0197169
0.01979
0.0196707
0.0197591
0.0196709
0.0197052
0.0197194
0.0197583
0.0197722
0.0197765
0.0197231
0.0197058
0.0197282
0.0197485
0.0197639
0.0197795
0.0197256
0.0197239
0.0197237
0.0197135
0.0197289
0.0197797
0.0197211
0.0197327
0.0197871
0.0197828
0.0197261
0.0197241
0.0197587
0.019688
0.0197769
0.0196883
0.0197584
0.0197451
0.0197085
0.0197226
0.0197166
0.0197204
0.0197066
0.0196913
0.0197231
0.0197765
0.0197583
0.0197001
0.0197232
0.0197151
0.0197228
0.0197638
0.0196879
0.0197818
0.0197267
0.0197146
0.019688
0.0197627
0.0197227
0.0197437
0.0197228
0.0197774
0.0197245
0.0197241
0.0197307
0.019731
0.0197513
0.0197375
0.0197226
0.0197689
0.0197272
0.0197229
0.0197231
0.0197203
0.0197618
0.0197615
0.0197274
0.0197371
0.0197682
0.0197878
0.0197713
0.0197619
0.0197236
0.0197618
0.019762
0.0197688
0.0197617
0.0197049
0.019759
0.0197715
0.0197194
0.0197588
0.0197138
0.019705
0.0197254
0.0196997
0.0197236
0.0197688
0.0197232
0.0197233
0.0197625
0.0197167
0.0197721
0.0197167
0.0197134
0.0197046
0.0197231
0.0197166
0.0197755
0.0197588
0.0197687
0.019723
0.0197268
0.0197263
0.0197152
0.0197227
0.0197187
0.0197225
0.0197419
0.0197564
0.0197153
0.0197686
0.0197147
0.0197184
0.0197644
0.0197096
0.0197224
0.0197088
0.0197212
0.0197242
0.0197145
0.019751
0.0197204
0.0197555
0.0197134
0.0197206
0.0197207
0.0197217
0.0197213
0.0197212
0.0197213
0.0197223
0.0197081
0.0197083
0.019708
0.0197079
0.0197006
0.0197005
0.0197517
0.019722
0.019725
0.0197377
0.0197074
0.0197071
0.0197247
0.0197562
0.0197253
0.019723
0.0197506
0.0197095
0.019751
0.0197143
0.0197257
0.0197504
0.019755
0.0197769
0.0197762
0.0197146
0.0197787
0.0197283
0.0197555
0.0197425
0.0197255
0.0197208
0.0196834
0.0197211
0.0197794
0.0197555
0.019725
0.0197254
0.0197566
0.0197209
0.0197433
0.0196834
0.0197553
0.0197204
0.0197172
0.0197263
0.0197076
0.0197171
0.0197001
0.0197274
0.0197857
0.0197891
0.0197027
0.0197343
0.0197254
0.019751
0.0197093
0.0197195
0.0197554
0.0197192
0.0197482
0.0197237
0.0197481
0.0197559
0.0196762
0.019704
0.0197071
0.0197073
0.0197223
0.0197474
0.019692
0.0197175
0.0197368
0.0197471
0.0197501
0.0197027
0.0197507
0.0197051
0.0197491
0.0197899
0.0197476
0.0197778
0.0197132
0.0197506
0.0196762
0.019749
0.0197153
0.0197517
0.0197162
0.0197493
0.0197299
0.0197934
0.0197317
0.0197509
0.0197031
0.0197513
0.0197368
0.0197162
0.0197223
0.0197492
0.0197475
0.0197435
0.0197133
0.0197476
0.0197254
0.0197298
0.0197002
0.0197475
0.019744
0.0197354
0.019743
0.0197485
0.0197427
0.0197105
0.0197256
0.0197436
0.019751
0.019723
0.0197228
0.019748
0.0197004
0.0198143
0.0197301
0.0197768
0.019735
0.0198645
0.0198644
0.0198638
0.019864
0.0198637
0.0198647
0.0198643
0.0197128
0.0196945
0.0197271
0.0197372
0.0197425
0.019743
0.0197236
0.0197436
0.0197441
0.0196943
0.019743
0.019709
0.0197591
0.0197095
0.0197313
0.0197374
0.0197434
0.0197025
0.0197301
0.0197367
0.01973
0.0197366
0.0197438
0.0197574
0.0197374
0.019731
0.0197087
0.0197416
0.0197446
0.019742
0.019738
0.0197312
0.0197235
0.0197421
0.0197237
0.019732
0.0197377
0.0197252
0.0197318
0.0197432
0.0197163
0.0197358
0.0196953
0.0197898
0.0197129
0.0197105
0.0197311
0.0197356
0.0197186
0.0198132
0.0197312
0.019736
0.0197928
0.0196768
0.0196765
0.0197302
0.0197426
0.0197349
0.0197416
0.0196624
0.0196624
0.0197251
0.0197251
0.0197255
0.0198135
0.0197441
0.019715
0.0197377
0.0197385
0.0197378
0.0198149
0.0197168
0.0197431
0.0197305
0.0197304
0.0197386
0.0197368
0.0197386
0.0197379
0.0197983
0.0197776
0.0197369
0.0197303
0.0197357
0.019739
0.0197364
0.0197352
0.0197357
0.0197898
0.0197073
0.0197421
0.0197188
0.0197163
0.0197903
0.0197308
0.0197316
0.0197002
0.0196773
0.0196774
0.019704
0.0197443
0.0197307
0.0197913
0.0196792
0.0196645
0.0196646
0.019816
0.0196894
0.0196852
0.0197316
0.0197056
0.0197272
0.0197223
0.019716
0.0197137
0.0197254
0.0198134
0.0197293
0.0197196
0.0197151
0.0198038
0.0196883
0.0197945
0.0197155
0.0197221
0.0197496
0.0197277
0.0197258
0.0196994
0.0197245
0.0196995
0.0197303
0.019715
0.0196868
0.0196862
0.019791
0.0197211
0.019819
0.0198173
0.0198211
0.0197169
0.0198145
0.019823
0.0197389
0.0198201
0.0196954
0.0196955
0.0198186
0.0197352
0.0197981
0.0198196
0.0197998
0.0198199
0.0197998
0.0196888
0.0197945
0.0198141
0.0198188
0.0197262
0.0197117
0.0198013
0.019726
0.0198224
0.019723
0.0197346
0.0198206
0.0198027
0.019822
0.019816
0.019732
0.0196938
0.0196662
0.0196674
0.0197214
0.0196664
0.0196665
0.0196669
0.0196742
0.0197927
0.0196874
0.0197034
0.0196937
0.0197225
0.0196723
0.0196724
0.0196921
0.019817
0.0197355
0.0198158
0.019796
0.0197953
0.0196803
0.0196806
0.0196812
0.019681
0.0196804
0.0196678
0.019681
0.0196723
0.0196659
0.0196801
0.01968
0.0196656
0.0196675
0.0196719
0.0196817
SCALARS rr_(S) float
LOOKUP_TABLE default
0.924799
0.924762
0.924768
0.924761
0.92477
0.924768
0.924798
0.924768
0.924772
0.924765
0.924772
0.924768
0.924769
0.924766
0.924764
0.924769
0.924763
0.924765
0.92477
0.924768
0.924771
0.924768
0.924768
0.924768
0.924768
0.924764
0.924782
0.924768
0.924776
0.924765
0.924769
0.924775
0.924785
0.924765
0.924768
0.924765
0.924763
0.924769
0.924769
0.924785
0.924775
0.924763
0.924763
0.924769
0.924775
0.924777
0.924771
0.924772
0.924768
0.924775
0.924776
0.924776
0.924766
0.924777
0.924766
0.924784
0.924769
0.924776
0.924768
0.924767
0.924762
0.924766
0.924787
0.924768
0.924766
0.924768
0.924762
0.924765
0.924768
0.924762
0.924766
0.924766
0.924776
0.924768
0.924769
0.924782
0.924768
0.924768
0.924764
0.924772
0.924781
0.92477
0.924764
0.924779
0.924779
0.924779
0.924768
0.924769
0.924775
0.924769
0.924776
0.924769
0.924767
0.924768
0.924777
0.924774
0.924782
0.924764
0.924768
0.924769
0.924774
0.92478
0.924778
0.924763
0.924765
0.924764
0.924764
0.92477
0.924779
0.924759
0.924767
0.924776
0.924777
0.924764
0.924764
0.924778
0.924771
0.924784
0.924771
0.924777
0.924771
0.924763
0.924761
0.924765
0.92476
0.924764
0.92477
0.924764
0.924783
0.924776
0.924764
0.924761
0.924763
0.924761
0.92478
0.924768
0.924785
0.924769
0.924763
0.924768
0.924779
0.924769
0.924773
0.924765
0.924784
0.924764
0.924769
0.92477
0.924769
0.924773
0.924771
0.924761
0.924774
0.924769
0.924764
0.924761
0.924767
0.92478
0.92478
0.924766
0.924772
0.924774
0.924778
0.924774
0.924779
0.924764
0.92478
0.92478
0.924775
0.924779
0.924766
0.924776
0.924775
0.924767
0.924777
0.924764
0.924766
0.924769
0.924768
0.924767
0.924777
0.924764
0.924764
0.924779
0.924768
0.924775
0.924765
0.924767
0.924768
0.924764
0.924768
0.924782
0.924776
0.924775
0.924761
0.924764
0.924764
0.924763
0.924761
0.924768
0.924761
0.924771
0.924773
0.924763
0.924777
0.924763
0.924769
0.924778
0.924767
0.924761
0.924769
0.924768
0.924765
0.924764
0.924773
0.924769
0.924773
0.924767
0.924759
0.924759
0.924758
0.924759
0.924759
0.924759
0.924766
0.924763
0.924763
0.924763
0.924763
0.924768
0.924767
0.924773
0.924765
0.924757
0.924773
0.924765
0.924764
0.924758
0.924772
0.924757
0.924764
0.924774
0.924766
0.924774
0.924764
0.924756
0.924773
0.924773
0.924781
0.924774
0.924764
0.924784
0.924768
0.924773
0.92477
0.924757
0.924759
0.924765
0.924759
0.924787
0.924772
0.924757
0.924768
0.924773
0.924759
0.924773
0.924765
0.924773
0.924759
0.924766
0.924764
0.924764
0.924769
0.924767
0.924767
0.924779
0.92478
0.924769
0.92477
0.924768
0.924776
0.924766
0.924767
0.924772
0.924768
0.924775
0.924769
0.924775
0.924772
0.924766
0.924766
0.924762
0.924762
0.924765
0.924776
0.924765
0.924766
0.924771
0.924775
0.924776
0.924767
0.924773
0.924768
0.924776
0.924775
0.924775
0.924784
0.924766
0.924773
0.924766
0.924776
0.924766
0.924773
0.924766
0.924775
0.924769
0.924792
0.924767
0.924774
0.924765
0.924773
0.924771
0.924769
0.924761
0.924775
0.924775
0.924773
0.924768
0.924775
0.924769
0.924768
0.924769
0.924776
0.924773
0.924772
0.924773
0.924775
0.924773
0.924768
0.924768
0.924773
0.924773
0.924769
0.924769
0.924774
0.924768
0.924773
0.924771
0.924781
0.924771
0.924753
0.924753
0.924752
0.924752
0.92475
0.924757
0.924758
0.924766
0.924767
0.924766
0.924771
0.92477
0.924773
0.924769
0.924773
0.924773
0.924767
0.924773
0.924768
0.924776
0.924762
0.924768
0.924771
0.924773
0.92477
0.924771
0.924771
0.92477
0.92477
0.924771
0.924773
0.92477
0.924771
0.924768
0.924771
0.92477
0.924771
0.92477
0.92477
0.924768
0.92477
0.924769
0.924768
0.92477
0.924768
0.924768
0.924772
0.924765
0.924771
0.924766
0.924775
0.924767
0.924768
0.92477
0.924772
0.924767
0.924775
0.924768
0.924772
0.924791
0.924769
0.92477
0.924769
0.924771
0.924772
0.924771
0.924773
0.924772
0.924765
0.924769
0.924768
0.924779
0.92477
0.924766
0.924773
0.924773
0.924771
0.924772
0.924767
0.92477
0.92477
0.92477
0.924772
0.924771
0.924772
0.924773
0.924784
0.924784
0.924771
0.924771
0.924771
0.924772
0.924772
0.924772
0.924771
0.924777
0.924766
0.92477
0.924767
0.924767
0.924777
0.924768
0.924767
0.924769
0.924763
0.924762
0.924765
0.924771
0.92477
0.924776
0.924763
0.924768
0.924768
0.924772
0.924768
0.924765
0.92477
0.924767
0.924766
0.924764
0.924764
0.924767
0.924769
0.924774
0.924769
0.924768
0.924766
0.924782
0.924765
0.924795
0.924764
0.924768
0.924774
0.924768
0.924769
0.924765
0.924767
0.924765
0.924769
0.924767
0.924766
0.924767
0.924779
0.924764
0.924798
0.924802
0.924796
0.924768
0.924778
0.924794
0.924773
0.924796
0.924769
0.924769
0.924799
0.924768
0.924788
0.924802
0.924784
0.924801
0.924784
0.924768
0.924778
0.924777
0.924796
0.92477
0.924766
0.924785
0.924769
0.924792
0.924767
0.924769
0.924801
0.924783
0.924799
0.924771
0.924769
0.924768
0.924766
0.924766
0.924766
0.924766
0.924766
0.924766
0.924765
0.924777
0.924765
0.924767
0.924769
0.924767
0.924766
0.924766
0.924771
0.92477
0.924769
0.924779
0.924797
0.92479
0.924762
0.924762
0.924762
0.924763
0.924762
0.924768
0.924766
0.924767
0.92477
0.924765
0.924765
0.92477
0.924767
0.924767
0.924764
SCALARS rr_(P) float
LOOKUP_TABLE default
0.0226625
0.0226066
0.0226117
0.0226076
0.0225924
0.0226118
0.0226627
0.0226084
0.0226164
0.0226069
0.0226586
0.0226084
0.0226096
0.0226062
0.0225975
0.0226109
0.0226041
0.022609
0.0226188
0.0226131
0.0226139
0.0225726
0.0226137
0.022613
0.0226131
0.022608
0.022651
0.022611
0.0226341
0.0225841
0.0226098
0.0226339
0.0226518
0.0225876
0.022586
0.0225877
0.0225835
0.0225868
0.0226098
0.0226517
0.0226342
0.0225833
0.0225833
0.0226097
0.0226464
0.0226333
0.0226177
0.0226155
0.0226115
0.0226375
0.0226355
0.0226284
0.0225931
0.0226283
0.0225936
0.0226449
0.0225859
0.0226283
0.0225859
0.0226128
0.0226043
0.0225997
0.0226475
0.0226
0.0225996
0.0226042
0.0226041
0.022608
0.0226134
0.0226064
0.0225932
0.0225933
0.0226342
0.0226024
0.0226115
0.0226542
0.0225966
0.0226042
0.022608
0.0226271
0.0226386
0.0225906
0.0226019
0.0226402
0.0226325
0.0226459
0.022611
0.0226033
0.0226464
0.0225753
0.0226284
0.0225754
0.0225962
0.0226048
0.0226279
0.022636
0.0226386
0.022607
0.0225967
0.0226101
0.0226221
0.0226312
0.0226403
0.0226084
0.0226075
0.0226074
0.0226012
0.0226105
0.0226404
0.0226057
0.0226127
0.0226447
0.0226422
0.0226088
0.0226076
0.0226281
0.022586
0.0226388
0.0225861
0.0226279
0.0226201
0.0225982
0.0226066
0.0226031
0.0226053
0.0225971
0.0225879
0.022607
0.0226386
0.0226279
0.0225931
0.022607
0.0226022
0.0226068
0.0226311
0.0225858
0.0226417
0.0226092
0.0226018
0.0225859
0.0226305
0.0226068
0.0226193
0.0226068
0.0226391
0.0226078
0.0226076
0.0226116
0.0226117
0.0226237
0.0226156
0.0226066
0.022634
0.0226095
0.0226069
0.0226069
0.0226053
0.02263
0.0226298
0.0226096
0.0226154
0.0226336
0.0226451
0.0226355
0.02263
0.0226073
0.02263
0.0226301
0.022634
0.0226299
0.0225961
0.0226283
0.0226356
0.0226048
0.0226282
0.0226014
0.0225961
0.0226084
0.022593
0.0226073
0.022634
0.0226071
0.0226071
0.0226304
0.0226032
0.0226359
0.0226031
0.0226012
0.0225959
0.022607
0.0226031
0.022638
0.0226282
0.022634
0.0226069
0.0226092
0.0226089
0.0226022
0.0226067
0.0226044
0.0226066
0.0226182
0.0226267
0.0226023
0.0226339
0.0226019
0.0226042
0.0226315
0.0225989
0.0226065
0.0225984
0.0226059
0.0226076
0.0226018
0.0226235
0.0226054
0.0226262
0.0226012
0.0226054
0.0226054
0.022606
0.0226058
0.0226058
0.0226058
0.0226065
0.0225979
0.0225981
0.0225979
0.0225978
0.0225935
0.0225934
0.0226239
0.0226063
0.022608
0.0226158
0.0225975
0.0225973
0.0226078
0.0226266
0.0226082
0.022607
0.0226233
0.0225988
0.0226236
0.0226017
0.0226084
0.0226232
0.0226259
0.0226388
0.0226383
0.0226019
0.0226399
0.0226102
0.0226262
0.0226185
0.0226083
0.0226055
0.022583
0.0226057
0.0226403
0.0226262
0.022608
0.0226084
0.0226269
0.0226056
0.022619
0.0225831
0.0226261
0.0226053
0.0226034
0.0226089
0.0225976
0.0226034
0.0225932
0.0226096
0.0226439
0.0226459
0.0225947
0.0226137
0.0226084
0.0226236
0.0225987
0.0226049
0.0226261
0.0226047
0.0226219
0.0226074
0.0226219
0.0226264
0.0225787
0.0225955
0.0225973
0.0225975
0.0226065
0.0226215
0.0225882
0.0226037
0.0226152
0.0226213
0.022623
0.0225948
0.0226234
0.0225962
0.0226225
0.0226463
0.0226216
0.0226394
0.022601
0.0226233
0.0225787
0.0226224
0.0226023
0.022624
0.0226029
0.0226226
0.0226111
0.0226485
0.0226121
0.0226235
0.022595
0.0226237
0.0226151
0.0226029
0.0226064
0.0226225
0.0226215
0.0226191
0.0226011
0.0226216
0.0226084
0.022611
0.0225933
0.0226215
0.0226194
0.0226143
0.0226188
0.0226221
0.0226187
0.0225994
0.0226085
0.0226192
0.0226236
0.022607
0.0226069
0.0226218
0.0225934
0.0226606
0.0226112
0.0226387
0.0226141
0.0226897
0.0226897
0.0226893
0.0226895
0.0226892
0.0226899
0.0226897
0.0226008
0.0225898
0.0226094
0.0226154
0.0226185
0.0226189
0.0226073
0.0226192
0.0226195
0.0225896
0.0226189
0.0225986
0.0226283
0.0225988
0.0226119
0.0226155
0.0226191
0.0225946
0.0226112
0.0226151
0.0226112
0.022615
0.0226193
0.0226273
0.0226155
0.0226117
0.0225984
0.022618
0.0226198
0.0226183
0.0226159
0.0226119
0.0226073
0.0226183
0.0226074
0.0226123
0.0226157
0.0226083
0.0226122
0.022619
0.0226029
0.0226146
0.0225903
0.0226462
0.0226009
0.0225994
0.0226118
0.0226145
0.0226043
0.0226599
0.0226118
0.0226147
0.0226482
0.0225791
0.0225789
0.0226112
0.0226186
0.0226141
0.022618
0.0225704
0.0225704
0.0226082
0.0226082
0.0226085
0.0226601
0.0226194
0.0226021
0.0226158
0.0226162
0.0226158
0.0226609
0.0226032
0.0226189
0.0226114
0.0226114
0.0226163
0.0226152
0.0226163
0.0226158
0.0226513
0.0226392
0.0226152
0.0226113
0.0226146
0.0226165
0.0226149
0.0226142
0.0226146
0.0226462
0.0225975
0.0226183
0.0226045
0.0226029
0.0226466
0.0226116
0.0226121
0.0225933
0.0225793
0.0225794
0.0225955
0.0226196
0.0226115
0.0226471
0.0225804
0.0225717
0.0225717
0.0226615
0.0225867
0.0225841
0.0226121
0.0225965
0.0226095
0.0226065
0.0226027
0.0226014
0.0226084
0.02266
0.0226108
0.0226049
0.0226022
0.0226545
0.022586
0.0226492
0.0226024
0.0226064
0.0226228
0.0226098
0.0226086
0.0225927
0.0226079
0.0225928
0.0226113
0.0226022
0.022585
0.0225847
0.022647
0.0226058
0.0226636
0.0226626
0.0226648
0.0226033
0.0226607
0.0226659
0.0226165
0.0226642
0.0225904
0.0225905
0.0226633
0.0226142
0.0226512
0.0226639
0.0226522
0.0226641
0.0226522
0.0225864
0.022649
0.0226605
0.0226634
0.0226089
0.0226001
0.0226531
0.0226087
0.0226655
0.0226069
0.0226139
0.0226645
0.0226539
0.0226653
0.0226615
0.0226123
0.0225894
0.0225726
0.0225733
0.022606
0.0225728
0.0225728
0.0225731
0.0225775
0.022648
0.0225855
0.0225952
0.0225893
0.0226066
0.0225763
0.0225764
0.0225884
0.0226621
0.0226144
0.0226615
0.0226501
0.0226496
0.0225811
0.0225813
0.0225817
0.0225815
0.0225812
0.0225736
0.0225816
0.0225763
0.0225725
0.022581
0.0225809
0.0225723
0.0225735
0.0225761
0.022582
SCALARS rr_(T) float
LOOKUP_TABLE default
0.101891
0.101919
0.101917
0.101919
0.101931
0.101917
0.101891
0.101919
0.101914
0.101919
0.101891
0.101919
0.101918
0.10192
0.101926
0.101917
0.101921
0.101918
0.101913
0.101916
0.101916
0.101946
0.101916
0.101916
0.101916
0.101919
0.101896
0.101917
0.101905
0.101937
0.101918
0.101905
0.101896
0.101934
0.101935
0.101934
0.101937
0.101935
0.101918
0.101896
0.101905
0.101937
0.101937
0.101918
0.101898
0.101905
0.101913
0.101915
0.101917
0.101903
0.101904
0.101908
0.10193
0.101908
0.10193
0.101899
0.101936
0.101908
0.101935
0.101916
0.101921
0.101925
0.101898
0.101925
0.101925
0.101922
0.101921
0.101919
0.101916
0.10192
0.10193
0.10193
0.101905
0.101923
0.101917
0.101894
0.101927
0.101922
0.101919
0.101908
0.101902
0.101932
0.101923
0.101901
0.101906
0.101898
0.101917
0.101923
0.101898
0.101944
0.101908
0.101944
0.101928
0.101922
0.101908
0.101903
0.101903
0.101919
0.101927
0.101918
0.101911
0.101906
0.101901
0.101918
0.101919
0.101919
0.101924
0.101918
0.101901
0.10192
0.101916
0.101899
0.1019
0.101918
0.101919
0.101908
0.101936
0.101902
0.101936
0.101908
0.101912
0.101926
0.101919
0.101922
0.10192
0.101927
0.101934
0.101919
0.101903
0.101908
0.10193
0.101919
0.101923
0.101919
0.101906
0.101936
0.101901
0.101918
0.101923
0.101936
0.101907
0.10192
0.101913
0.10192
0.101902
0.101919
0.10192
0.101917
0.101917
0.10191
0.101915
0.101919
0.101905
0.101918
0.10192
0.101919
0.101921
0.101907
0.101907
0.101918
0.101915
0.101905
0.101899
0.101904
0.101907
0.101919
0.101907
0.101907
0.101905
0.101907
0.101928
0.101908
0.101904
0.101921
0.101908
0.101924
0.101928
0.101919
0.10193
0.10192
0.101905
0.101919
0.101919
0.101907
0.101923
0.101904
0.101922
0.101924
0.101928
0.101919
0.101923
0.101903
0.101908
0.101905
0.101919
0.101918
0.101918
0.101923
0.101919
0.101922
0.101919
0.101913
0.101908
0.101923
0.101905
0.101923
0.101922
0.101906
0.101926
0.101919
0.101926
0.101921
0.101919
0.101923
0.10191
0.101921
0.101909
0.101924
0.10192
0.10192
0.10192
0.10192
0.10192
0.10192
0.10192
0.101926
0.101926
0.101926
0.101926
0.10193
0.10193
0.10191
0.10192
0.101918
0.101915
0.101926
0.101926
0.101918
0.101909
0.101918
0.101919
0.10191
0.101926
0.10191
0.101923
0.101918
0.10191
0.101909
0.101902
0.101902
0.101923
0.101902
0.101918
0.101909
0.101913
0.101918
0.10192
0.101938
0.10192
0.101902
0.101909
0.101918
0.101919
0.101908
0.10192
0.101913
0.101938
0.101909
0.10192
0.101922
0.101918
0.101926
0.101923
0.10193
0.101918
0.1019
0.101898
0.101929
0.101916
0.101919
0.10191
0.101926
0.101921
0.101909
0.101922
0.101911
0.10192
0.101911
0.101909
0.101941
0.101928
0.101926
0.101926
0.10192
0.101911
0.101934
0.101922
0.101915
0.101912
0.101911
0.101929
0.10191
0.101928
0.101911
0.101898
0.101911
0.101902
0.101924
0.10191
0.101941
0.101911
0.101923
0.10191
0.101922
0.101911
0.101917
0.101898
0.101916
0.10191
0.101929
0.10191
0.101915
0.101923
0.10192
0.101911
0.101911
0.101913
0.101924
0.101911
0.101919
0.101917
0.10193
0.101911
0.101913
0.101915
0.101913
0.101911
0.101913
0.101925
0.101919
0.101913
0.10191
0.10192
0.10192
0.101911
0.10193
0.10189
0.101917
0.101902
0.101916
0.101873
0.101873
0.101873
0.101873
0.101873
0.101873
0.101874
0.101924
0.101933
0.101918
0.101915
0.101913
0.101913
0.10192
0.101913
0.101913
0.101933
0.101913
0.101926
0.101908
0.101925
0.101917
0.101915
0.101913
0.101929
0.101917
0.101915
0.101917
0.101915
0.101912
0.101908
0.101915
0.101917
0.101926
0.101913
0.101912
0.101913
0.101915
0.101917
0.10192
0.101913
0.10192
0.101916
0.101915
0.101919
0.101916
0.101913
0.101922
0.101915
0.101932
0.101898
0.101924
0.101925
0.101917
0.101915
0.101922
0.101891
0.101917
0.101915
0.101898
0.101941
0.101941
0.101917
0.101913
0.101916
0.101913
0.101948
0.101948
0.101919
0.101919
0.101919
0.101891
0.101912
0.101923
0.101915
0.101914
0.101915
0.10189
0.101923
0.101913
0.101917
0.101917
0.101914
0.101915
0.101914
0.101915
0.101896
0.101902
0.101915
0.101917
0.101915
0.101914
0.101915
0.101916
0.101915
0.101898
0.101927
0.101913
0.101922
0.101923
0.101898
0.101917
0.101916
0.10193
0.101941
0.101941
0.101928
0.101912
0.101917
0.101898
0.10194
0.101947
0.101947
0.10189
0.101935
0.101937
0.101917
0.101927
0.101918
0.10192
0.101922
0.101924
0.101919
0.101891
0.101917
0.101921
0.101923
0.101894
0.101935
0.101898
0.101923
0.10192
0.101911
0.101918
0.101919
0.10193
0.101919
0.10193
0.101917
0.101923
0.101936
0.101937
0.101898
0.10192
0.10189
0.101891
0.10189
0.101922
0.10189
0.101889
0.101914
0.10189
0.101932
0.101932
0.101891
0.101915
0.101896
0.10189
0.101895
0.10189
0.101895
0.101935
0.101897
0.101891
0.10189
0.101919
0.101925
0.101895
0.101919
0.101889
0.10192
0.101915
0.10189
0.101894
0.101889
0.10189
0.101917
0.101933
0.101946
0.101946
0.101921
0.101946
0.101946
0.101946
0.101942
0.101897
0.101936
0.101928
0.101933
0.10192
0.101943
0.101943
0.101934
0.101889
0.101915
0.10189
0.101897
0.101897
0.101939
0.101939
0.101939
0.101939
0.101939
0.101945
0.101939
0.101943
0.101946
0.101939
0.101939
0.101947
0.101945
0.101943
0.101939
SCALARS rr_tsim float
LOOKUP_TABLE default
230
230
230
230
230
230
230
230
230
230
230
230
230
230
230
230
230
230
230
230
230
230
230
230
230
230
230
230
230
230
230
230
230
230
230
230
230
230
230
230
230
230
230
230
230
230
230
230
230
230
230
230
230
230
230
230
230
230
230
230
230
230
230
230
230
230
230
230
230
230
230
230
230
230
230
230
230
230
230
230
230
230
230
230
230
230
230
230
230
230
230
230
230
230
230
230
230
230
230
230
230
230
230
230
230
230
230
230
230
230
230
230
230
230
230
230
230
230
230
230
230
230
230
230
230
230
230
230
230
230
230
230
230
230
230
230
230
230
230
230
230
230
230
230
230
230
230
230
230
230
230
230
230
230
230
230
230
230
230
230
230
230
230
230
230
230
230
230
230
230
230
230
230
230
230
230
230
230
230
230
230
230
230
230
230
230
230
230
230
230
230
230
230
230
230
230
230
230
230
230
230
230
230
230
230
230
230
230
230
230
230
230
230
230
230
230
230
230
230
230
230
230
230
230
230
230
230
230
230
230
230
230
230
230
230
230
230
230
230
230
230
230
230
230
230
230
230
230
230
230
230
230
230
230
230
230
230
230
230
230
230
230
230
230
230
230
230
230
230
230
230
230
230
230
230
230
230
230
230
230
230
230
230
230
230
230
230
230
230
230
230
230
230
230
230
230
230
230
230
230
230
230
230
230
230
230
230
230
230
230
230
230
230
230
230
230
230
230
230
230
230
230
230
230
230
230
230
230
230
230
230
230
230
230
230
230
230
230
230
230
230
230
230
230
230
230
230
230
230
230
230
230
230
230
230
230
230
230
230
230
230
230
230
230
230
230
230
230
230
230
230
230
230
230
230
230
230
230
230
230
230
230
230
230
230
230
230
230
230
230
230
230
230
230
230
230
230
230
230
230
230
230
230
230
230
230
230
230
230
230
230
230
230
230
230
230
230
230
230
230
230
230
230
230
230
230
230
230
230
230
230
230
230
230
230
230
230
230
230
230
230
230
230
230
230
230
230
230
230
230
230
230
230
230
230
230
230
230
230
230
230
230
230
230
230
230
230
230
230
230
230
230
230
230
230
230
230
230
230
230
230
230
230
230
230
230
230
230
230
230
230
230
230
230
230
230
230
230
230
230
230
230
230
230
230
230
230
230
230
230
230
230
230
230
230
230
230
230
230
230
230
230
230
230
230
230
230
230
230
230
230
230
230
230
230
230
230
230
230
230
230
230
230
230
230
230
230
230
230
230
230
230
230
230
230
230
230
230
230
230
230
230
230
SCALARS rr_Vext float
LOOKUP_TABLE default
0.181359
0.449125
0.35605
0.468111
0.250493
0.377829
0.179275
0.46509
0.395108
0.504567
0.165389
0.46651
0.409827
0.435014
0.516136
0.424866
0.369045
0.414185
0.365532
0.360528
0.40511
0.0765107
0.415071
0.383015
0.347106
0.403473
0.15501
0.352835
0.267414
0.339247
0.36197
0.276486
0.17152
0.252901
0.249248
0.253452
0.330127
0.249491
0.361541
0.192836
0.224722
0.291051
0.29106
0.397273
0.216886
0.24412
0.344613
0.350185
0.33008
0.303762
0.312854
0.245237
0.401519
0.315208
0.369415
0.157754
0.266179
0.317517
0.266151
0.393186
0.47093
0.464873
0.153276
0.327642
0.445315
0.417375
0.455656
0.391906
0.357987
0.515558
0.435555
0.430791
0.277655
0.338745
0.353973
0.176426
0.372676
0.413478
0.39517
0.271133
0.240491
0.283507
0.527533
0.240251
0.327761
0.119292
0.407581
0.34461
0.229706
0.0374829
0.273093
0.0407608
0.316358
0.299313
0.25866
0.232983
0.220909
0.442932
0.372911
0.351856
0.293536
0.27777
0.230479
0.418577
0.426139
0.383833
0.340627
0.340849
0.244629
0.51252
0.326027
0.164039
0.220057
0.45788
0.429719
0.304483
0.308631
0.183509
0.320035
0.303367
0.266986
0.50265
0.511811
0.442041
0.484527
0.384952
0.220815
0.478211
0.200079
0.262279
0.227503
0.456396
0.449024
0.44825
0.288938
0.187537
0.190639
0.327441
0.404469
0.18746
0.241542
0.38729
0.28797
0.472759
0.223276
0.38519
0.349732
0.336128
0.21479
0.269546
0.304299
0.440627
0.248027
0.397411
0.461991
0.469244
0.307856
0.249008
0.247657
0.401137
0.333853
0.246118
0.160077
0.239705
0.240467
0.430956
0.252349
0.255101
0.27462
0.245939
0.386344
0.258184
0.226059
0.297714
0.272812
0.340307
0.382118
0.361133
0.313978
0.360846
0.266567
0.418247
0.448853
0.241615
0.442301
0.23944
0.436796
0.402738
0.378966
0.379415
0.446228
0.200775
0.266929
0.246017
0.44741
0.439021
0.4072
0.447895
0.452953
0.381866
0.46657
0.307716
0.27411
0.512732
0.285548
0.465954
0.369962
0.226655
0.286342
0.461725
0.389035
0.350308
0.450057
0.445256
0.278859
0.284222
0.267543
0.395453
0.43342
0.498093
0.478089
0.520371
0.471559
0.515288
0.432056
0.457202
0.460651
0.434355
0.456357
0.422919
0.416636
0.282412
0.389411
0.454296
0.312121
0.470273
0.432156
0.49266
0.288247
0.468277
0.448678
0.284501
0.406914
0.28247
0.455239
0.41129
0.296255
0.277678
0.235553
0.271098
0.455774
0.197501
0.347021
0.276528
0.313904
0.468672
0.455549
0.147789
0.457105
0.236431
0.261765
0.466271
0.379028
0.264585
0.522183
0.291231
0.14778
0.267724
0.406399
0.508922
0.38269
0.457755
0.425156
0.226615
0.216732
0.175979
0.201428
0.308135
0.229076
0.371982
0.227525
0.406392
0.287623
0.268102
0.323953
0.293522
0.398522
0.281487
0.287597
0.13637
0.303572
0.43781
0.438058
0.391525
0.281116
0.192359
0.545878
0.360489
0.298318
0.274292
0.284976
0.28273
0.358843
0.278092
0.192059
0.274792
0.183496
0.351068
0.279577
0.127091
0.263722
0.321338
0.279315
0.44367
0.29071
0.381468
0.138315
0.305662
0.287014
0.261624
0.269318
0.321992
0.308723
0.321046
0.266564
0.271164
0.293859
0.403602
0.276096
0.399023
0.358788
0.290797
0.286474
0.290123
0.323373
0.289913
0.270117
0.308529
0.333029
0.387866
0.290169
0.286353
0.425143
0.419249
0.276212
0.290835
0.117369
0.342063
0.227678
0.319681
0.126304
0.131123
0.117233
0.119129
0.126411
0.133076
0.137186
0.365819
0.275203
0.269663
0.305534
0.296207
0.292408
0.31471
0.285994
0.292387
0.310823
0.291314
0.368788
0.261064
0.378833
0.289103
0.277579
0.291596
0.322765
0.328994
0.304696
0.351049
0.326031
0.30039
0.213975
0.30386
0.298862
0.32828
0.305308
0.288519
0.275036
0.304063
0.319092
0.436161
0.283306
0.424001
0.438659
0.298864
0.422863
0.322475
0.255678
0.356793
0.307317
0.229504
0.18527
0.353349
0.377139
0.313432
0.259543
0.317013
0.138204
0.309864
0.289513
0.140569
0.0597486
0.0653753
0.268651
0.283294
0.331356
0.316586
0.0311308
0.0325286
0.318179
0.321542
0.304242
0.103724
0.264726
0.315903
0.315641
0.272075
0.240281
0.107863
0.464466
0.284945
0.35216
0.357671
0.255162
0.323445
0.249475
0.27548
0.129739
0.199381
0.323805
0.32775
0.280325
0.293563
0.303657
0.320504
0.306409
0.14396
0.275778
0.301352
0.290884
0.437487
0.143857
0.233731
0.240572
0.234522
0.155625
0.155628
0.267699
0.208507
0.301873
0.153856
0.185525
0.0614167
0.0614142
0.11231
0.199633
0.134971
0.257
0.284537
0.297806
0.336999
0.307417
0.285231
0.222215
0.127171
0.278049
0.29058
0.282437
0.144129
0.147645
0.104629
0.281947
0.28597
0.22418
0.258249
0.238712
0.22379
0.29291
0.223757
0.257203
0.251386
0.158046
0.19524
0.165308
0.310645
0.112706
0.118918
0.115939
0.294533
0.10769
0.104733
0.200916
0.097932
0.243154
0.243508
0.100659
0.255444
0.113722
0.110989
0.127154
0.105858
0.105723
0.174205
0.126241
0.112774
0.106277
0.23581
0.272658
0.118743
0.260316
0.0960766
0.264787
0.208171
0.100551
0.086435
0.0948695
0.12646
0.225551
0.192179
0.0824424
0.0914072
0.253856
0.0775859
0.0775826
0.0878716
0.0979619
0.0995849
0.127334
0.207532
0.193794
0.253767
0.0775242
0.0775209
0.229251
0.0843465
0.178713
0.0765189
0.0783413
0.103271
0.198595
0.205596
0.218906
0.200659
0.19858
0.0438924
0.32038
0.0557537
0.0543417
0.259008
0.257238
0.0563345
0.0390572
0.0548044
0.23856
SCALARS rr_Vli float
LOOKUP_TABLE default
0.396487
0.903297
0.721403
0.942902
0.493003
0.765664
0.392034
0.93767
0.806267
1.01512
0.359835
0.940542
0.827701
0.874154
1.02412
0.859728
0.739394
0.835915
0.748796
0.732053
0.82348
0.146196
0.843737
0.777626
0.704887
0.81314
0.333349
0.714257
0.560608
0.659801
0.731225
0.579528
0.369272
0.494392
0.485904
0.495506
0.641457
0.486896
0.730482
0.415064
0.47121
0.56533
0.565389
0.802514
0.463322
0.511147
0.704661
0.713571
0.668681
0.640142
0.657314
0.509709
0.791281
0.654953
0.728499
0.336094
0.518808
0.659756
0.518791
0.798046
0.943864
0.92503
0.32784
0.652217
0.88601
0.836195
0.912999
0.789773
0.727289
1.03671
0.858506
0.849152
0.58221
0.676852
0.716968
0.381182
0.738159
0.828439
0.796421
0.56248
0.507623
0.556448
1.05351
0.508332
0.685384
0.254579
0.825075
0.689487
0.490661
0.0719434
0.567528
0.0782461
0.62635
0.600259
0.537108
0.489902
0.466217
0.891214
0.738707
0.711148
0.604217
0.579673
0.487749
0.84411
0.858081
0.772714
0.679546
0.689379
0.517759
1.02965
0.661677
0.349478
0.467059
0.92382
0.865436
0.632491
0.601613
0.387411
0.624001
0.629991
0.547959
0.998312
1.02947
0.884278
0.972856
0.763252
0.43175
0.962236
0.422252
0.544646
0.448453
0.918479
0.89711
0.901822
0.602899
0.365537
0.404181
0.660931
0.807732
0.365414
0.503538
0.778933
0.590241
0.95106
0.471531
0.776064
0.704322
0.680954
0.435246
0.556268
0.620247
0.886307
0.519982
0.802497
0.929441
0.944261
0.617853
0.518656
0.515713
0.810196
0.680206
0.515659
0.341238
0.503638
0.500928
0.867514
0.525644
0.531443
0.575696
0.512236
0.764767
0.536473
0.475015
0.597025
0.566758
0.6791
0.756452
0.728158
0.618511
0.726372
0.55876
0.841635
0.903304
0.503622
0.884782
0.503408
0.873807
0.803283
0.749915
0.763389
0.892541
0.423344
0.55457
0.51569
0.900209
0.8863
0.821711
0.894904
0.911196
0.765271
0.938416
0.629674
0.568292
1.02454
0.598471
0.930552
0.741278
0.47324
0.569198
0.928573
0.772728
0.703605
0.906435
0.889137
0.575329
0.570471
0.5542
0.788782
0.870377
1.00028
0.961015
1.04558
0.947451
1.03539
0.868712
0.907697
0.914769
0.862344
0.905932
0.83393
0.821516
0.583004
0.782794
0.915907
0.636238
0.933121
0.85721
0.993024
0.597475
0.944369
0.902755
0.586736
0.808801
0.582774
0.908855
0.829726
0.61088
0.574981
0.497305
0.572061
0.910102
0.417614
0.701481
0.572846
0.642712
0.945257
0.914967
0.286927
0.918294
0.500197
0.542258
0.9401
0.764201
0.548649
1.04888
0.596676
0.286928
0.5545
0.815977
1.01856
0.772234
0.908466
0.850823
0.4466
0.437752
0.374434
0.429883
0.608683
0.465559
0.749992
0.469385
0.807669
0.576817
0.55534
0.649547
0.603995
0.802277
0.579179
0.59602
0.263019
0.600443
0.86851
0.86913
0.787208
0.578063
0.376388
1.09285
0.7343
0.613258
0.565366
0.562958
0.583123
0.71046
0.572677
0.410196
0.565167
0.387691
0.700126
0.576599
0.245149
0.543077
0.642114
0.57662
0.88724
0.598798
0.772174
0.296222
0.619803
0.592062
0.51704
0.555817
0.655879
0.617314
0.64555
0.54901
0.557647
0.602197
0.804986
0.56787
0.804506
0.726243
0.573155
0.589128
0.594776
0.657843
0.593795
0.555994
0.631807
0.662547
0.78218
0.594651
0.59081
0.855287
0.843308
0.5683
0.573278
0.256088
0.692601
0.480627
0.650103
0.287606
0.29855
0.266803
0.271172
0.287682
0.303056
0.312311
0.729344
0.539723
0.544565
0.622604
0.606501
0.598933
0.633519
0.586131
0.599484
0.60947
0.596712
0.732658
0.542545
0.753107
0.586004
0.565699
0.597465
0.637466
0.666113
0.620592
0.710716
0.663997
0.615742
0.44404
0.619297
0.605572
0.652004
0.624636
0.591868
0.562872
0.620018
0.646721
0.877917
0.579857
0.853548
0.889739
0.609277
0.852429
0.653929
0.52384
0.713543
0.625425
0.450401
0.395665
0.704468
0.750313
0.635201
0.528049
0.635252
0.301236
0.628021
0.589265
0.300912
0.115298
0.126126
0.544004
0.580097
0.673736
0.647662
0.0592774
0.0619389
0.641396
0.648087
0.613482
0.226113
0.542804
0.631012
0.643417
0.555014
0.489878
0.235469
0.929283
0.583733
0.713232
0.724383
0.520582
0.658848
0.508989
0.561647
0.279101
0.421177
0.659632
0.663708
0.570433
0.599124
0.618256
0.651893
0.623523
0.307427
0.547097
0.616832
0.583015
0.874901
0.307368
0.473533
0.487753
0.46224
0.300515
0.300535
0.529554
0.427592
0.611536
0.329006
0.358876
0.117176
0.117176
0.245398
0.389619
0.262494
0.521051
0.563539
0.601411
0.677646
0.614657
0.56907
0.448036
0.277251
0.562546
0.5828
0.564247
0.311557
0.287924
0.224284
0.563452
0.57485
0.461942
0.521747
0.481453
0.440837
0.590094
0.440798
0.520822
0.502147
0.307811
0.380027
0.353393
0.623982
0.246785
0.25998
0.254334
0.589283
0.234981
0.230138
0.410009
0.214644
0.477121
0.477843
0.220334
0.51961
0.244574
0.243122
0.273901
0.231958
0.227739
0.33983
0.270697
0.245997
0.232678
0.475749
0.543002
0.256116
0.525108
0.211012
0.532689
0.423219
0.220454
0.186663
0.208255
0.276319
0.457467
0.376608
0.157552
0.174883
0.509986
0.148307
0.148306
0.168049
0.188628
0.213205
0.248113
0.410273
0.379761
0.510341
0.149004
0.149003
0.448511
0.184462
0.36361
0.167149
0.16815
0.221554
0.384549
0.398195
0.424214
0.388779
0.38454
0.0840102
0.620731
0.107163
0.103829
0.501445
0.497965
0.107596
0.0747329
0.105301
0.462542
SCALARS rr_S_ext' float
LOOKUP_TABLE default
-0.000458061
-0.00104573
-0.000835013
-0.00109153
-0.000571029
-0.00088624
-0.000452913
-0.00108547
-0.000933085
-0.00117517
-0.000415758
-0.00108879
-0.000958125
-0.00101201
-0.00118597
-0.000995154
-0.000856057
-0.000967644
-0.000866491
-0.000847296
-0.000953094
-0.000169444
-0.000976535
-0.000900045
-0.000815851
-0.00094131
-0.000385277
-0.000826757
-0.000648357
-0.00076442
-0.000846442
-0.00067024
-0.000426785
-0.00057272
-0.000562926
-0.00057401
-0.000743182
-0.000564062
-0.000845578
-0.000479713
-0.000544962
-0.000654988
-0.000655056
-0.000928965
-0.000535585
-0.000591173
-0.000815456
-0.000825838
-0.00077399
-0.000740241
-0.000760157
-0.000589617
-0.000916482
-0.00075764
-0.000843753
-0.000388544
-0.000601048
-0.000763193
-0.000601028
-0.000923685
-0.00109278
-0.00107116
-0.000378965
-0.000755244
-0.00102598
-0.000968138
-0.00105705
-0.000914264
-0.000841771
-0.00120017
-0.00099434
-0.000983505
-0.000673336
-0.000783701
-0.000829887
-0.000440508
-0.000854859
-0.000959157
-0.000921956
-0.000650689
-0.00058698
-0.000644556
-0.00121982
-0.000587763
-0.000792715
-0.000294294
-0.000955031
-0.000798306
-0.000567189
-8.33753e-05
-0.000656504
-9.06792e-05
-0.000725378
-0.000694957
-0.000621328
-0.000566539
-0.000539103
-0.00103173
-0.000855492
-0.000823192
-0.000699108
-0.000670485
-0.00056396
-0.000977147
-0.000993356
-0.000894536
-0.000786845
-0.00079798
-0.000598657
-0.00119202
-0.000765849
-0.000404014
-0.000539996
-0.00106941
-0.00100187
-0.000731661
-0.000696978
-0.000447975
-0.000722911
-0.000728773
-0.000634058
-0.00115606
-0.00119179
-0.00102384
-0.00112629
-0.000883893
-0.000500154
-0.00111395
-0.000488266
-0.000630046
-0.000519404
-0.00106329
-0.00103872
-0.00104401
-0.000697353
-0.00042348
-0.000467317
-0.000765087
-0.000935246
-0.000423337
-0.000582438
-0.000901761
-0.000683007
-0.00110102
-0.000545241
-0.000898397
-0.000815358
-0.000788197
-0.000503789
-0.000643587
-0.000717824
-0.00102605
-0.00060137
-0.000928953
-0.00107599
-0.00109313
-0.000715314
-0.000599939
-0.000596538
-0.000937858
-0.000787225
-0.00059638
-0.000394483
-0.000582436
-0.000579429
-0.00100428
-0.000608021
-0.000614727
-0.000665806
-0.000592512
-0.000885683
-0.000620583
-0.000549333
-0.000691214
-0.000655619
-0.000786324
-0.000876052
-0.000842928
-0.000716385
-0.000840892
-0.000646222
-0.000974333
-0.00104572
-0.000582536
-0.00102443
-0.000582161
-0.00101172
-0.000930128
-0.000868491
-0.000883753
-0.00103342
-0.00048954
-0.000641518
-0.00059641
-0.00104214
-0.00102596
-0.000951203
-0.00103617
-0.00105486
-0.000886017
-0.00108638
-0.000728666
-0.000657424
-0.00118626
-0.000692152
-0.00107746
-0.000858242
-0.000547371
-0.000659131
-0.00107499
-0.000894834
-0.00081458
-0.00104933
-0.0010295
-0.000665644
-0.000660458
-0.000641136
-0.000913337
-0.00100764
-0.00115804
-0.00111255
-0.00121047
-0.00109686
-0.00119866
-0.0010057
-0.00105114
-0.00105932
-0.000998614
-0.00104909
-0.000965866
-0.000951488
-0.000674515
-0.000906236
-0.00106025
-0.000736333
-0.00108059
-0.00099269
-0.00114953
-0.000691188
-0.00109319
-0.00104509
-0.00067885
-0.000936591
-0.00067426
-0.00105234
-0.000960475
-0.000706787
-0.000665182
-0.000575046
-0.000661492
-0.00105378
-0.00048288
-0.000811998
-0.000662706
-0.000743742
-0.00109422
-0.00105926
-0.000332436
-0.00106311
-0.000578363
-0.000627319
-0.00108826
-0.000884652
-0.000634697
-0.00121429
-0.00069046
-0.000332437
-0.000641485
-0.000944668
-0.0011793
-0.00089393
-0.00105203
-0.000985101
-0.000517265
-0.000506729
-0.00043288
-0.000496946
-0.000704957
-0.00053884
-0.000868205
-0.000543072
-0.000935282
-0.000667818
-0.000642455
-0.000752025
-0.000698858
-0.000928764
-0.000670146
-0.000689507
-0.000304781
-0.00069539
-0.00100577
-0.00100649
-0.000911344
-0.000668865
-0.000436011
-0.00126531
-0.000849834
-0.000709593
-0.000654136
-0.000651998
-0.000674669
-0.000822787
-0.00066261
-0.000474176
-0.000653939
-0.00044829
-0.000810683
-0.000667121
-0.000284073
-0.000628361
-0.000743475
-0.000667128
-0.00102728
-0.000692828
-0.000893799
-0.000342408
-0.000717397
-0.000685008
-0.00059881
-0.000643064
-0.000759074
-0.000714753
-0.000747341
-0.000635223
-0.000645241
-0.000696845
-0.0009321
-0.000657067
-0.000931311
-0.000840634
-0.000663843
-0.000681667
-0.000688252
-0.000761371
-0.000687133
-0.000643314
-0.000731123
-0.000767213
-0.000905462
-0.000688114
-0.000683555
-0.000990149
-0.000976283
-0.000657558
-0.000663985
-0.000295865
-0.000801689
-0.000555763
-0.00075242
-0.00033189
-0.00034452
-0.000307888
-0.000312927
-0.000331982
-0.000349719
-0.000360403
-0.000844519
-0.000625188
-0.000630373
-0.000720556
-0.000701838
-0.000693078
-0.000733401
-0.000678253
-0.000693698
-0.000705982
-0.000690507
-0.00084843
-0.000627603
-0.000872088
-0.000678282
-0.000654698
-0.000691374
-0.000738296
-0.00077103
-0.000718237
-0.000822659
-0.000768472
-0.000712514
-0.000513671
-0.000716726
-0.00070094
-0.000755036
-0.000722839
-0.000684875
-0.000651359
-0.000717552
-0.000748565
-0.00101633
-0.000671013
-0.00098812
-0.00102983
-0.000705126
-0.000986792
-0.000756897
-0.000606176
-0.000826164
-0.000723845
-0.000521715
-0.00045738
-0.000815718
-0.000868844
-0.000735232
-0.00061115
-0.000735485
-0.000348036
-0.000726918
-0.000681994
-0.000347833
-0.000133604
-0.000146152
-0.000629684
-0.000671284
-0.000779777
-0.000749486
-6.87092e-05
-7.17941e-05
-0.000742492
-0.000750244
-0.000710176
-0.000261242
-0.000628107
-0.000730627
-0.000744641
-0.000642319
-0.000566943
-0.00027204
-0.00107595
-0.000675484
-0.000825565
-0.000838471
-0.000602468
-0.000762511
-0.000589051
-0.000650003
-0.000322577
-0.000487011
-0.000763416
-0.000768243
-0.000660202
-0.000693359
-0.000715541
-0.000754488
-0.000721645
-0.00035538
-0.000633566
-0.000713798
-0.000675002
-0.00101299
-0.000355306
-0.000548108
-0.000564558
-0.000535378
-0.00034822
-0.000348243
-0.000613288
-0.000494789
-0.000707846
-0.000380311
-0.000415829
-0.000135814
-0.000135814
-0.000283505
-0.000451367
-0.000304116
-0.0006031
-0.000652633
-0.000696177
-0.0007845
-0.000711673
-0.000658927
-0.000518655
-0.000320322
-0.000651162
-0.000674743
-0.000653321
-0.000360042
-0.000333559
-0.000259248
-0.000652394
-0.000665503
-0.000534475
-0.000603955
-0.000557336
-0.000510591
-0.000683117
-0.000510546
-0.000602852
-0.000581421
-0.000356608
-0.000440278
-0.000408506
-0.000722392
-0.000285099
-0.000300356
-0.000293804
-0.000682288
-0.000271481
-0.000265841
-0.0004745
-0.000247961
-0.000552671
-0.000553507
-0.000254544
-0.000601384
-0.000282675
-0.000280865
-0.000316556
-0.000267965
-0.000263205
-0.000393691
-0.000312888
-0.00028421
-0.000268801
-0.000550728
-0.000628768
-0.000295991
-0.000607868
-0.00024375
-0.000616683
-0.00048983
-0.000254672
-0.000215718
-0.000240571
-0.000319226
-0.000529498
-0.000436253
-0.000182605
-0.000202686
-0.000590418
-0.000171889
-0.000171887
-0.000194767
-0.000218586
-0.000246445
-0.000287444
-0.000475155
-0.000439905
-0.000590814
-0.000172676
-0.000172675
-0.000519565
-0.0002131
-0.000420831
-0.000193107
-0.000194357
-0.000256085
-0.000445566
-0.000461375
-0.000491516
-0.000450461
-0.000445554
-9.73657e-05
-0.000719217
-0.000124188
-0.00012034
-0.000581012
-0.000576982
-0.000124707
-8.66142e-05
-0.00012203
-0.00053592
SCALARS rr_P_ext' float
LOOKUP_TABLE default
0.000173298
0.000400308
0.000319325
0.00041776
0.000219225
0.000338907
0.000171344
0.000415382
0.000356482
0.000449841
0.000157408
0.000416654
0.000366565
0.000387447
0.000454822
0.000380632
0.000327872
0.000370244
0.000330866
0.000323927
0.000364319
6.53035e-05
0.00037328
0.000344099
0.0003119
0.000360237
0.000146113
0.000316206
0.000246779
0.000293933
0.000323826
0.000255114
0.000161827
0.000220072
0.000216386
0.000220566
0.000285802
0.000216792
0.000323488
0.000181903
0.000207418
0.000251897
0.000251921
0.000355398
0.000203311
0.000225052
0.000311456
0.00031557
0.000295995
0.000281542
0.000289241
0.000224691
0.000351789
0.000288732
0.000323844
0.000147549
0.000231046
0.000290848
0.000231036
0.000353151
0.000418516
0.000410632
0.00014383
0.000289509
0.000393317
0.000370799
0.000404848
0.000349889
0.000321791
0.000459445
0.000381666
0.000377505
0.000256277
0.000300267
0.000317378
0.000166946
0.000327914
0.000367356
0.000352829
0.00024803
0.000223199
0.000247543
0.000467399
0.000223422
0.000301831
0.000111731
0.000365267
0.000305808
0.000215311
3.21144e-05
0.000250185
3.49271e-05
0.000278263
0.000266135
0.000236806
0.000215544
0.000204999
0.000394927
0.000328152
0.00031491
0.000266773
0.000255363
0.000214368
0.00037392
0.000380199
0.000342387
0.000301536
0.000305236
0.000227553
0.000456382
0.000292809
0.000153425
0.000205174
0.000409198
0.000383447
0.000278842
0.000267918
0.000170338
0.000277878
0.000277753
0.000242049
0.000443293
0.000456218
0.000392214
0.000431249
0.000339007
0.000192182
0.000426397
0.000185667
0.000240127
0.000199366
0.000406997
0.000397984
0.000399634
0.000265601
0.000162788
0.000177585
0.000292734
0.000358359
0.000162731
0.000221862
0.000345196
0.000260782
0.000421459
0.000207312
0.000343828
0.000312065
0.000301427
0.000192655
0.0002455
0.000274286
0.000392772
0.000228893
0.000355412
0.000411876
0.000418427
0.000273903
0.000228556
0.000227268
0.000358809
0.000300821
0.000227014
0.000149793
0.000221617
0.000220738
0.000384397
0.000231633
0.000234183
0.000253422
0.000225728
0.000339767
0.0002365
0.000209019
0.000264703
0.000249859
0.000301325
0.000336069
0.000322565
0.000274996
0.000321858
0.00024597
0.000372951
0.000400273
0.000221904
0.000392439
0.000221492
0.000387568
0.000356455
0.000333185
0.000338286
0.000395887
0.000186175
0.000244483
0.00022701
0.000398914
0.000392542
0.00036396
0.000397002
0.000403794
0.000339333
0.000415869
0.000278279
0.000250619
0.000454504
0.000263456
0.000412847
0.000328704
0.000208459
0.000252714
0.000411514
0.00034312
0.000311879
0.00040161
0.000394479
0.000253924
0.000252894
0.000244438
0.000350018
0.000385813
0.000443394
0.000425924
0.000463435
0.000419943
0.000458914
0.000385
0.000403081
0.000406206
0.000382941
0.000402303
0.000370717
0.000365201
0.000257286
0.000346934
0.00040574
0.000281354
0.000414408
0.000380714
0.000439919
0.000263498
0.000418329
0.000400043
0.000258975
0.000359099
0.00025721
0.000403242
0.000367525
0.000269639
0.00025362
0.000218655
0.000251544
0.000403782
0.000183569
0.000310621
0.00025266
0.000284014
0.000418716
0.000405567
0.000127857
0.000407028
0.00021985
0.000239169
0.000416454
0.000338534
0.000241949
0.000464918
0.000263643
0.000127856
0.000244576
0.000361708
0.000451739
0.000342046
0.000403445
0.000377353
0.00019855
0.000193865
0.000164417
0.000188668
0.00027051
0.000205976
0.000332239
0.000207167
0.000358603
0.000255741
0.000244943
0.000287996
0.000266689
0.000355488
0.000255736
0.000262864
0.000117321
0.000266794
0.000385727
0.000385993
0.000348879
0.000255268
0.00016752
0.000484665
0.000324756
0.000270823
0.000249566
0.000250188
0.000257378
0.00031563
0.00025283
0.000180005
0.000249566
0.000170439
0.000310686
0.000254499
0.000109348
0.000239763
0.000284853
0.000254468
0.000393549
0.000264352
0.00034185
0.000129931
0.000274317
0.000261316
0.000229766
0.0002453
0.000290074
0.000273823
0.000286094
0.000242376
0.000246249
0.000266073
0.000357212
0.000250758
0.000356389
0.000321517
0.000254809
0.000260151
0.000262777
0.000291003
0.000262383
0.000245484
0.000279189
0.000294122
0.000346487
0.000262738
0.000260755
0.000379017
0.000373717
0.000250934
0.000254861
0.000111969
0.000306609
0.000211326
0.000287595
0.000124805
0.000129556
0.000115789
0.000117681
0.000124851
0.000131507
0.000135532
0.000323665
0.000240132
0.000241176
0.00027534
0.000268011
0.000264652
0.000280714
0.000258971
0.000264853
0.000271171
0.000263669
0.000325318
0.00023917
0.000334362
0.000259374
0.00025017
0.000263989
0.00028331
0.000294884
0.000274471
0.000314634
0.000293672
0.000272046
0.000195793
0.00027387
0.00026805
0.000289518
0.000276061
0.000261465
0.000248751
0.000274167
0.000286253
0.000389013
0.000256253
0.000378207
0.00039377
0.000269427
0.000377629
0.000289419
0.00023146
0.0003165
0.000276645
0.00020037
0.000173631
0.000312627
0.000333083
0.000281158
0.000233583
0.000281685
0.000131733
0.000277976
0.000260645
0.000131998
5.14254e-05
5.62569e-05
0.000240823
0.00025634
0.000298058
0.00028624
2.64923e-05
2.76817e-05
0.000284141
0.000287111
0.000271762
9.88786e-05
0.000239809
0.000279945
0.000284529
0.000245407
0.000216626
0.000102945
0.000412165
0.000257929
0.000315729
0.000320666
0.000230177
0.000291386
0.000225051
0.000248362
0.000122328
0.000185165
0.000291729
0.000293812
0.000252325
0.000264891
0.000273454
0.000288379
0.000275807
0.00013491
0.000242978
0.000272591
0.000258513
0.000388074
0.000134872
0.000209609
0.000215878
0.0002055
0.000134022
0.00013403
0.000235292
0.000188904
0.0002707
0.000144347
0.000160007
5.23528e-05
5.23523e-05
0.000107269
0.000173478
0.000116938
0.000230616
0.000250345
0.000266351
0.000300318
0.000272647
0.000252512
0.000198476
0.000121239
0.000249066
0.00025839
0.00025032
0.00013644
0.000128214
9.83615e-05
0.000249954
0.000254774
0.000203921
0.000231054
0.000213268
0.000196001
0.000261439
0.000195982
0.00023056
0.000222775
0.000137097
0.000169277
0.000155054
0.000276582
0.000107837
0.000113633
0.000111099
0.000261365
0.00010274
0.000100501
0.00018128
9.37762e-05
0.000212262
0.000212581
9.62838e-05
0.000229857
0.0001072
0.000106229
0.000120022
0.000101345
9.97936e-05
0.00015132
0.000118709
0.000107562
0.000101674
0.000210731
0.000241013
0.000112204
0.0002326
9.2156e-05
0.000236059
0.000187234
9.63094e-05
8.1759e-05
9.09603e-05
0.000120785
0.000202462
0.000167579
7.03745e-05
7.81025e-05
0.000226048
6.62428e-05
6.62418e-05
7.50551e-05
8.41598e-05
9.35222e-05
0.0001105
0.000182311
0.000168983
0.000226168
6.64991e-05
6.64983e-05
0.000199625
8.06198e-05
0.000160842
7.30681e-05
7.37276e-05
9.71505e-05
0.000171427
0.000177504
0.000189086
0.000173297
0.000171421
3.75166e-05
0.000276689
4.78257e-05
4.63792e-05
0.000223543
0.000221996
4.80648e-05
3.33752e-05
4.69971e-05
0.000206154
SCALARS rr_S' float
LOOKUP_TABLE default
0.000243604
0.000557145
0.000444815
0.000581532
0.000304369
0.000472102
0.000240864
0.000578292
0.000496984
0.000626107
0.000221127
0.000580062
0.000510431
0.000539195
0.000632039
0.000530137
0.000456128
0.000515508
0.000461476
0.000451337
0.000507683
9.03684e-05
0.000520167
0.000479436
0.000434586
0.000501494
0.000204972
0.000440424
0.00034513
0.000407542
0.000450932
0.000356779
0.000227049
0.000305309
0.000300106
0.000305997
0.000396227
0.000300706
0.000450469
0.000255208
0.00029009
0.000349208
0.000349244
0.000494894
0.000284979
0.000314699
0.000434313
0.000439875
0.000412309
0.000393995
0.000404622
0.000313921
0.000488487
0.000403382
0.000449718
0.000206754
0.000320431
0.000406338
0.00032042
0.000492031
0.000582253
0.000570821
0.000201639
0.000402467
0.000546744
0.00051585
0.00056322
0.000487085
0.000448389
0.000639432
0.000529984
0.000524209
0.000358425
0.0004176
0.000442087
0.00023433
0.000455598
0.000511064
0.000491182
0.00034645
0.000312411
0.00034358
0.000649994
0.000312811
0.000421998
0.000156595
0.000508757
0.000425371
0.000301796
4.4462e-05
0.000349534
4.83568e-05
0.000386593
0.000370284
0.000330812
0.000301556
0.000286931
0.000549684
0.000455934
0.00043854
0.000372294
0.000356946
0.000300141
0.000520579
0.000529231
0.000476585
0.000419287
0.000425103
0.000318607
0.0006351
0.000407956
0.000214985
0.000287369
0.000569726
0.000533763
0.000389553
0.000371573
0.000238427
0.000385396
0.000388018
0.000337673
0.000616085
0.000634964
0.000545545
0.000600084
0.000471059
0.000266625
0.000593488
0.000259874
0.000335453
0.000276842
0.000566492
0.000553489
0.000556225
0.00037125
0.000225765
0.000248698
0.000407597
0.000498354
0.000225689
0.000310079
0.000480445
0.000363752
0.0005866
0.000290193
0.000478633
0.000434398
0.000419877
0.00026837
0.000342708
0.000382339
0.000546659
0.000320117
0.000494892
0.000573266
0.000582396
0.000381125
0.000319403
0.000317593
0.000499632
0.000419309
0.000317465
0.000209911
0.000310023
0.000308482
0.000535056
0.000323705
0.000327274
0.000354418
0.000315449
0.00047203
0.00033041
0.000292403
0.00036829
0.000349066
0.000419007
0.000466896
0.000449076
0.000381839
0.000448006
0.000343995
0.000519103
0.000557136
0.000310132
0.000545862
0.000309873
0.000539085
0.000495642
0.000462871
0.000470845
0.000550651
0.000260557
0.000341557
0.000317478
0.000555229
0.000546573
0.00050675
0.000552127
0.000562008
0.000472092
0.000578802
0.000388082
0.000350041
0.000632105
0.000368445
0.000574133
0.000457293
0.0002914
0.000351259
0.000572733
0.000476875
0.000434008
0.00055905
0.000548582
0.000354455
0.000351897
0.000341375
0.000486694
0.000536869
0.000616997
0.00059275
0.000644925
0.000584398
0.000638636
0.000535823
0.000560174
0.000564531
0.000532183
0.000559086
0.000514803
0.00050714
0.000359174
0.000482832
0.000564853
0.000392198
0.000575877
0.000529036
0.000612418
0.00036802
0.000582399
0.000556803
0.000361491
0.000499121
0.000359043
0.000560754
0.000511688
0.000376368
0.000354182
0.000306058
0.00035207
0.00056152
0.000256996
0.000432575
0.00035286
0.000396106
0.000582944
0.000564369
0.000177241
0.000566416
0.000307811
0.000334018
0.000579771
0.000471305
0.000337939
0.000646965
0.000367725
0.000177241
0.000341562
0.000503317
0.000628376
0.000476239
0.000560656
0.000524901
0.000275704
0.000269954
0.000230353
0.000264427
0.000375727
0.000287024
0.000462543
0.000289186
0.000498424
0.000355824
0.000342077
0.000400693
0.000372163
0.000494822
0.000356874
0.000367126
0.000162517
0.000370618
0.000536007
0.000536386
0.000485553
0.000356197
0.000232427
0.000674201
0.00045266
0.000377888
0.000348336
0.000347501
0.000359264
0.000438507
0.000352855
0.000252305
0.000348246
0.000238591
0.000431994
0.000355244
0.000151475
0.000334616
0.000396163
0.000355241
0.000547381
0.000368944
0.00047614
0.000182183
0.000382153
0.000364768
0.00031915
0.000342429
0.000404316
0.000380855
0.000398172
0.00033827
0.000343615
0.000371123
0.000496693
0.000349912
0.000496164
0.000447818
0.00035383
0.000363014
0.000366544
0.000405551
0.000365956
0.000342582
0.000389386
0.00040885
0.00048239
0.000366474
0.000363992
0.000527534
0.000520148
0.000350171
0.000353906
0.00015735
0.000427069
0.000295796
0.000400786
0.000176328
0.000183038
0.000163578
0.000166255
0.000176379
0.0001858
0.000191478
0.000450026
0.000333259
0.000335824
0.000383797
0.000373789
0.000369121
0.000390738
0.000361221
0.000369444
0.000376327
0.000367752
0.000452143
0.000334146
0.000464742
0.00036132
0.000348718
0.000368211
0.000393498
0.000410737
0.000382566
0.000438241
0.000409324
0.000379466
0.000273495
0.000381756
0.000373394
0.000402374
0.00038498
0.00036474
0.000346909
0.000382192
0.000398761
0.000541478
0.000357375
0.000526446
0.000548582
0.000375575
0.000525723
0.000403195
0.000322836
0.000440218
0.00038556
0.000278099
0.000243369
0.00043468
0.000463009
0.000391659
0.000325535
0.000391884
0.000185101
0.000387229
0.000363267
0.000185071
7.12406e-05
7.79317e-05
0.000335439
0.000357516
0.00041536
0.000399173
3.66467e-05
3.8292e-05
0.000395569
0.000399701
0.000378351
0.00013894
0.000334511
0.000389321
0.000396624
0.000342118
0.000301973
0.000144677
0.000573308
0.000359749
0.000439786
0.000446661
0.000320891
0.000406147
0.000313745
0.000346215
0.000171614
0.0002592
0.000406629
0.000409251
0.000351661
0.0003693
0.000381133
0.000401887
0.000384389
0.000189096
0.000337648
0.000380161
0.000359656
0.00053977
0.000189054
0.000291979
0.000300738
0.000285358
0.000185675
0.000185687
0.000326859
0.000263509
0.000377074
0.000202355
0.000221718
7.24351e-05
7.24347e-05
0.000150771
0.000240627
0.000162137
0.00032127
0.000347822
0.000370881
0.00041797
0.000379213
0.000351124
0.000276318
0.000170361
0.000346887
0.000359513
0.000348127
0.000191524
0.000177824
0.000137934
0.00034763
0.000354573
0.000284616
0.000321749
0.000296923
0.000272148
0.000363942
0.000272124
0.000321146
0.000309815
0.000190116
0.000234726
0.000217359
0.000384888
0.000151615
0.000159734
0.000156237
0.000363552
0.000144382
0.000141361
0.000252731
0.000131861
0.000294602
0.000295047
0.000135366
0.000320333
0.000150386
0.000149362
0.000168405
0.000142501
0.000140023
0.000209881
0.00016647
0.000151153
0.000142948
0.000293401
0.000335065
0.00015746
0.000323844
0.000129615
0.000328557
0.000260915
0.00013543
0.000114753
0.000127927
0.000169768
0.000282059
0.000232551
9.73869e-05
0.000108094
0.000314573
9.16714e-05
9.16705e-05
0.000103872
0.000116559
0.000131125
0.000153242
0.000253243
0.000234497
0.000314777
9.20815e-05
9.20807e-05
0.000276971
0.000113327
0.000224159
0.000102698
0.000103406
0.000136248
0.000237569
0.000245996
0.000262065
0.000240176
0.000237562
5.19256e-05
0.000383471
6.62243e-05
6.41798e-05
0.000309787
0.000307639
6.65098e-05
4.6192e-05
6.50745e-05
0.000285736
SCALARS rr_P' float
LOOKUP_TABLE default
4.11598e-05
8.82734e-05
7.08735e-05
9.22435e-05
4.74345e-05
7.52314e-05
4.07054e-05
9.17921e-05
7.96189e-05
9.92225e-05
3.72232e-05
9.20739e-05
8.1129e-05
8.53719e-05
9.91125e-05
8.43851e-05
7.20571e-05
8.18924e-05
7.41495e-05
7.20315e-05
8.10918e-05
1.3772e-05
8.30872e-05
7.65095e-05
6.93647e-05
7.95798e-05
3.41927e-05
7.01266e-05
5.64485e-05
6.29453e-05
7.16851e-05
5.83463e-05
3.79087e-05
4.73383e-05
4.64338e-05
4.74476e-05
6.11539e-05
4.6564e-05
7.1621e-05
4.26023e-05
4.74548e-05
5.38826e-05
5.38911e-05
7.8672e-05
4.72956e-05
5.14225e-05
6.96876e-05
7.03924e-05
6.56864e-05
6.47037e-05
6.62931e-05
5.1005e-05
7.6205e-05
6.5526e-05
7.01922e-05
3.42412e-05
4.9571e-05
6.60066e-05
4.9572e-05
7.85023e-05
9.20071e-05
8.97055e-05
3.34959e-05
6.32673e-05
8.59145e-05
8.14888e-05
8.8981e-05
7.72891e-05
7.15909e-05
0.000101296
8.26895e-05
8.17909e-05
5.8634e-05
6.58339e-05
7.04218e-05
3.92322e-05
7.13471e-05
8.07366e-05
7.79445e-05
5.62095e-05
5.13693e-05
5.34336e-05
0.000102429
5.15303e-05
6.88864e-05
2.59681e-05
8.10065e-05
6.7127e-05
5.00825e-05
6.79894e-06
5.67852e-05
7.39533e-06
6.05221e-05
5.85382e-05
5.37108e-05
4.9438e-05
4.71738e-05
8.71188e-05
7.14058e-05
6.97419e-05
6.00411e-05
5.81764e-05
4.94507e-05
8.26481e-05
8.39261e-05
7.5564e-05
6.60215e-05
6.76409e-05
5.24979e-05
0.000100539
6.5084e-05
3.56043e-05
4.74535e-05
9.04846e-05
8.46557e-05
6.32659e-05
5.74871e-05
3.92091e-05
5.96373e-05
6.30026e-05
5.43357e-05
9.66807e-05
0.000100611
8.60811e-05
9.49554e-05
7.38263e-05
4.13461e-05
9.4064e-05
4.2725e-05
5.44661e-05
4.31959e-05
8.97962e-05
8.72506e-05
8.81491e-05
6.05017e-05
3.49269e-05
4.10329e-05
6.47559e-05
7.85327e-05
3.49171e-05
5.04969e-05
7.61204e-05
5.84723e-05
9.2957e-05
4.7735e-05
7.59352e-05
6.88943e-05
6.68937e-05
4.27642e-05
5.53792e-05
6.11985e-05
8.66199e-05
5.23592e-05
7.86493e-05
9.08472e-05
9.23116e-05
6.02864e-05
5.19808e-05
5.16764e-05
7.94163e-05
6.70947e-05
5.19004e-05
3.47798e-05
5.07952e-05
5.02084e-05
8.48299e-05
5.26833e-05
5.32692e-05
5.79662e-05
5.13353e-05
7.38867e-05
5.36728e-05
4.79118e-05
5.82209e-05
5.66948e-05
6.59917e-05
7.30867e-05
7.12875e-05
5.95491e-05
7.10278e-05
5.6257e-05
8.22787e-05
8.8313e-05
5.05004e-05
8.61293e-05
5.07959e-05
8.50633e-05
7.80313e-05
7.24347e-05
7.46218e-05
8.68779e-05
4.28079e-05
5.54779e-05
5.19215e-05
8.79968e-05
8.68468e-05
8.04934e-05
8.70396e-05
8.90591e-05
7.45924e-05
9.17075e-05
6.23045e-05
5.67642e-05
9.96539e-05
6.02505e-05
9.04764e-05
7.22441e-05
4.7512e-05
5.51581e-05
9.07386e-05
7.4839e-05
6.86924e-05
8.86691e-05
8.64442e-05
5.72654e-05
5.56668e-05
5.53222e-05
7.66246e-05
8.49624e-05
9.76456e-05
9.38757e-05
0.000102107
9.25202e-05
0.000101113
8.48757e-05
8.78808e-05
8.85811e-05
8.34902e-05
8.77037e-05
8.03452e-05
7.91475e-05
5.80542e-05
7.6469e-05
8.9661e-05
6.278e-05
9.03057e-05
8.29398e-05
9.71939e-05
5.96702e-05
9.24664e-05
8.82455e-05
5.83842e-05
7.83718e-05
5.80063e-05
8.83462e-05
8.12612e-05
6.07797e-05
5.73813e-05
5.03329e-05
5.78778e-05
8.84798e-05
4.23147e-05
6.88014e-05
5.7186e-05
6.36215e-05
9.25599e-05
8.93257e-05
2.73385e-05
8.96647e-05
5.0702e-05
5.41322e-05
9.20329e-05
7.48134e-05
5.48096e-05
0.000102404
5.9092e-05
2.73397e-05
5.53468e-05
7.96424e-05
9.91871e-05
7.56454e-05
8.79324e-05
8.28472e-05
4.30107e-05
4.29096e-05
3.81113e-05
4.38514e-05
5.87193e-05
4.58394e-05
7.34223e-05
4.67179e-05
7.82553e-05
5.62523e-05
5.54348e-05
6.3336e-05
6.00052e-05
7.84546e-05
5.75361e-05
5.9517e-05
2.49427e-05
5.79777e-05
8.4039e-05
8.41078e-05
7.69119e-05
5.74e-05
3.60634e-05
0.000106445
7.24181e-05
6.08822e-05
5.62353e-05
5.43097e-05
5.80276e-05
6.8649e-05
5.6925e-05
4.18658e-05
5.61272e-05
3.92601e-05
6.80036e-05
5.73768e-05
2.32499e-05
5.39821e-05
6.24581e-05
5.74191e-05
8.63488e-05
5.95311e-05
7.58098e-05
3.02939e-05
6.09267e-05
5.89245e-05
4.98945e-05
5.53357e-05
6.46838e-05
6.00746e-05
6.30747e-05
5.45777e-05
5.53764e-05
5.96485e-05
7.81953e-05
5.63973e-05
7.87586e-05
7.1299e-05
5.52035e-05
5.85022e-05
5.89304e-05
6.48172e-05
5.87939e-05
5.5248e-05
6.25492e-05
6.42418e-05
7.65848e-05
5.89023e-05
5.88077e-05
8.35977e-05
8.24182e-05
5.64536e-05
5.52186e-05
2.65461e-05
6.80112e-05
4.8641e-05
6.40384e-05
3.07568e-05
3.1925e-05
2.85206e-05
2.89917e-05
3.07518e-05
3.24115e-05
3.33931e-05
7.08276e-05
5.17982e-05
5.33727e-05
6.14197e-05
6.00385e-05
5.93046e-05
6.19496e-05
5.8061e-05
5.94015e-05
5.84842e-05
5.9086e-05
7.09685e-05
5.42867e-05
7.29833e-05
5.75885e-05
5.58105e-05
5.91732e-05
6.14878e-05
6.54083e-05
6.11997e-05
6.97844e-05
6.54766e-05
6.10018e-05
4.43835e-05
6.11011e-05
5.94966e-05
6.31435e-05
6.17981e-05
5.86694e-05
5.56997e-05
6.11939e-05
6.35507e-05
8.58422e-05
5.73848e-05
8.3467e-05
8.74793e-05
6.01239e-05
8.344e-05
6.42837e-05
5.18791e-05
6.94466e-05
6.16404e-05
4.32465e-05
4.03804e-05
6.8411e-05
7.27527e-05
6.24151e-05
5.20326e-05
6.19156e-05
3.12026e-05
6.17132e-05
5.80819e-05
3.07633e-05
1.09381e-05
1.19633e-05
5.34226e-05
5.74274e-05
6.63586e-05
6.40728e-05
5.57023e-06
5.82032e-06
6.27825e-05
6.34314e-05
6.0063e-05
2.34237e-05
5.37876e-05
6.13614e-05
6.34885e-05
5.47943e-05
4.83436e-05
2.44179e-05
9.04725e-05
5.78056e-05
7.00503e-05
7.11447e-05
5.13998e-05
6.49773e-05
5.02559e-05
5.54269e-05
2.86358e-05
4.26454e-05
6.50581e-05
6.51803e-05
5.62164e-05
5.91687e-05
6.09538e-05
6.42228e-05
6.14492e-05
3.1374e-05
5.29398e-05
6.10466e-05
5.68328e-05
8.51498e-05
3.13797e-05
4.65192e-05
4.79418e-05
4.45209e-05
2.85229e-05
2.85257e-05
5.11373e-05
4.23755e-05
6.00729e-05
3.36092e-05
3.41043e-05
1.10264e-05
1.10266e-05
2.54643e-05
3.72627e-05
2.50413e-05
5.12139e-05
5.44662e-05
5.89452e-05
6.62121e-05
5.98126e-05
5.52908e-05
4.38619e-05
2.87229e-05
5.52091e-05
5.68395e-05
5.48748e-05
3.20777e-05
2.75208e-05
2.29523e-05
5.48102e-05
5.61551e-05
4.59383e-05
5.11527e-05
4.71444e-05
4.24419e-05
5.77353e-05
4.24401e-05
5.11461e-05
4.88308e-05
2.93945e-05
3.62756e-05
3.60931e-05
6.09216e-05
2.56482e-05
2.69888e-05
2.64683e-05
5.73707e-05
2.4359e-05
2.39797e-05
4.04895e-05
2.23236e-05
4.58075e-05
4.58786e-05
2.28936e-05
5.11939e-05
2.5088e-05
2.52749e-05
2.8129e-05
2.41199e-05
2.33885e-05
3.24897e-05
2.77081e-05
2.5495e-05
2.41797e-05
4.65963e-05
5.26896e-05
2.63274e-05
5.14248e-05
2.19787e-05
5.20661e-05
4.16807e-05
2.29332e-05
1.92054e-05
2.16836e-05
2.8673e-05
4.49768e-05
3.61238e-05
1.48432e-05
1.64894e-05
4.97971e-05
1.39747e-05
1.39749e-05
1.58403e-05
1.7867e-05
2.17985e-05
2.37017e-05
3.96008e-05
3.64254e-05
4.98691e-05
1.40955e-05
1.40957e-05
4.29696e-05
1.91534e-05
3.58299e-05
1.73411e-05
1.72239e-05
2.26862e-05
3.65707e-05
3.78746e-05
4.03657e-05
3.69888e-05
3.65711e-05
7.92348e-06
5.90565e-05
1.01376e-05
9.78046e-06
4.76818e-05
4.73473e-05
1.01327e-05
7.04696e-06
9.95885e-06
4.40293e-05
SCALARS rr_T' float
LOOKUP_TABLE default
0.000208864
0.000475836
0.000380019
0.000496699
0.000259702
0.000403335
0.000206519
0.000493944
0.000424725
0.000534739
0.000189555
0.000495457
0.000436015
0.000460484
0.000539483
0.000452886
0.000389496
0.000440341
0.00039445
0.000385629
0.000433792
7.70122e-05
0.000444462
0.000409636
0.000371319
0.000428343
0.000175602
0.000376255
0.000295318
0.000347567
0.000385193
0.000305284
0.000194526
0.000260434
0.000255963
0.000261021
0.000337903
0.000256485
0.000384802
0.000218649
0.000248224
0.000297801
0.000297833
0.000422747
0.00024407
0.000269263
0.000371201
0.000375894
0.000352246
0.000337215
0.000346261
0.000268505
0.000416828
0.000345017
0.000383756
0.000177049
0.000273295
0.000347547
0.000273287
0.000420393
0.000497205
0.000487284
0.000172701
0.000343573
0.000466729
0.000440489
0.000480946
0.000416035
0.00038312
0.000546112
0.000452241
0.000447313
0.000306697
0.00035655
0.000377683
0.0002008
0.000388845
0.000436403
0.000419536
0.000296303
0.000267407
0.000293124
0.000554962
0.00026778
0.000361047
0.000134108
0.000434631
0.000363206
0.000258471
3.7898e-05
0.000298963
4.12181e-05
0.000329946
0.000316203
0.000282938
0.000258071
0.000245595
0.000469471
0.000389134
0.000374617
0.000318289
0.000305361
0.000256937
0.000444658
0.000452017
0.000407048
0.000357969
0.00036315
0.000272746
0.000542393
0.000348557
0.000184099
0.000246038
0.000486647
0.000455892
0.000333184
0.000316915
0.000204081
0.000328709
0.000331867
0.000288654
0.000525887
0.000542302
0.000465817
0.000512477
0.000402063
0.000227436
0.000506884
0.000222435
0.000286909
0.000236234
0.000483833
0.000472576
0.000475059
0.000317596
0.000192556
0.000212916
0.000348164
0.000425494
0.000192491
0.000265254
0.000410325
0.000310927
0.000500996
0.000248395
0.000408813
0.000371021
0.000358712
0.000229278
0.000293031
0.000326733
0.000466885
0.000273916
0.000422738
0.000489608
0.000497415
0.000325471
0.000273219
0.000271668
0.000426793
0.000358318
0.000271639
0.000179758
0.000265307
0.000263879
0.000456986
0.0002769
0.000279954
0.000303266
0.000269836
0.000402861
0.000282604
0.000250229
0.000314499
0.000298557
0.000357734
0.000398481
0.000383578
0.000325817
0.000382637
0.000294344
0.000443354
0.00047584
0.000265298
0.000466083
0.000265186
0.000460301
0.000423151
0.000395038
0.000402136
0.000470171
0.00022301
0.000292137
0.000271656
0.000474209
0.000466883
0.000432858
0.000471414
0.000479996
0.000403127
0.000494335
0.000331699
0.000299365
0.000539701
0.000315263
0.000490193
0.000390488
0.000249294
0.00029984
0.00048915
0.000407055
0.000370643
0.000477489
0.000468376
0.000303072
0.000300511
0.000291941
0.000415512
0.000458494
0.000526925
0.000506239
0.000550788
0.000499094
0.000545417
0.000457618
0.000478153
0.000481878
0.000454262
0.000477223
0.000439295
0.000432755
0.000307115
0.000412358
0.000482478
0.000335157
0.000491546
0.000451558
0.000523101
0.000314738
0.00049747
0.00047555
0.000309081
0.000426058
0.000306994
0.000478764
0.000437079
0.000321799
0.000302888
0.000261972
0.000301351
0.00047942
0.000219992
0.000369525
0.000301764
0.000338567
0.000497938
0.000481982
0.000151146
0.000483735
0.000263495
0.000285651
0.000495222
0.000402564
0.000289017
0.000552522
0.000314316
0.000151146
0.0002921
0.000429837
0.000536553
0.000406795
0.000478558
0.000448194
0.000235259
0.000230598
0.000197245
0.000226455
0.00032064
0.000245247
0.000395079
0.000247263
0.000425461
0.000303854
0.000292542
0.000342167
0.000318173
0.000422622
0.0003051
0.000313971
0.000138552
0.000316299
0.00045751
0.000457836
0.000414683
0.000304512
0.000198272
0.000575689
0.000386814
0.000323052
0.000297824
0.000296553
0.000307178
0.000374254
0.000301675
0.000216084
0.000297719
0.000204229
0.00036881
0.000303741
0.000129138
0.000286082
0.000338251
0.000303752
0.000467378
0.000315435
0.000406764
0.000156046
0.000326498
0.000311886
0.000272365
0.000292793
0.000345503
0.000325187
0.00034006
0.000289208
0.000293758
0.000317225
0.000424048
0.000299143
0.000423796
0.000382569
0.000301924
0.000310341
0.000313316
0.000346538
0.000312799
0.000292887
0.000332823
0.000349014
0.000412035
0.00031325
0.000311227
0.000450546
0.000444236
0.000299369
0.000301989
0.000134902
0.000364848
0.000253186
0.000342461
0.000151505
0.00015727
0.000140547
0.000142848
0.000151545
0.000159644
0.00016452
0.000384201
0.000284313
0.000286865
0.000327974
0.000319492
0.000315506
0.000333724
0.000308762
0.000315796
0.000321054
0.000314336
0.000385948
0.000285802
0.000396719
0.000308694
0.000297998
0.000314732
0.000335803
0.000350894
0.000326915
0.00037439
0.000349779
0.00032436
0.000233911
0.000326233
0.000319002
0.000343461
0.000329045
0.000311784
0.000296509
0.000326612
0.000340679
0.000462467
0.000305457
0.00044963
0.000468695
0.000320954
0.000449041
0.000344475
0.000275948
0.000375878
0.000329461
0.00023726
0.000208429
0.000371098
0.000395248
0.00033461
0.000278165
0.000334637
0.000158686
0.000330828
0.000310412
0.000158516
6.07363e-05
6.64401e-05
0.000286569
0.000305583
0.00035491
0.000341175
3.12259e-05
3.26279e-05
0.000337873
0.000341398
0.000323169
0.000119113
0.000285938
0.000332402
0.000338939
0.00029237
0.000258057
0.000124041
0.000489525
0.000307498
0.000375715
0.000381589
0.000274232
0.000347067
0.000268125
0.000295864
0.000147026
0.000221869
0.00034748
0.000349627
0.000300492
0.000315606
0.000325684
0.000343403
0.000328459
0.000161947
0.000288198
0.000324934
0.000307119
0.000460878
0.000161916
0.000249447
0.000256938
0.000243497
0.000158304
0.000158314
0.000278956
0.000225247
0.000322144
0.000173314
0.000189047
6.17254e-05
6.17251e-05
0.000129271
0.000205242
0.000138275
0.000274478
0.000296859
0.00031681
0.000356968
0.000323787
0.000299773
0.000236016
0.000146051
0.000296337
0.000307006
0.000297233
0.000164123
0.000151671
0.00011815
0.000296813
0.000302818
0.000243342
0.000274845
0.000253619
0.000232222
0.000310848
0.000232202
0.000274358
0.00026452
0.000162147
0.000200189
0.000186161
0.000328699
0.000130003
0.000136954
0.00013398
0.000310421
0.000123784
0.000121234
0.000215984
0.000113072
0.000251336
0.000251716
0.000116069
0.000273719
0.000128838
0.000128074
0.000144287
0.000122193
0.000119969
0.000179014
0.000142598
0.000129587
0.000122572
0.000250614
0.000286041
0.000134918
0.000276615
0.000111158
0.000280609
0.000222943
0.000116133
9.8331e-05
0.000109706
0.00014556
0.000240984
0.000198388
8.29942e-05
9.21237e-05
0.000268649
7.81244e-05
7.81236e-05
8.85237e-05
9.93647e-05
0.000112313
0.0001307
0.000216122
0.000200049
0.000268836
7.84917e-05
7.84911e-05
0.000236265
9.7171e-05
0.000191542
8.80513e-05
8.85792e-05
0.000116711
0.000202571
0.000209759
0.000223465
0.000204799
0.000202565
4.42545e-05
0.000326986
5.64509e-05
5.46943e-05
0.000264148
0.000262315
5.66789e-05
3.93674e-05
5.54698e-05
0.000243656
SCALARS rr_uec(SIM,_S_ext) float
LOOKUP_TABLE default
0.013675
0.0311543
0.0248809
0.0325204
0.0170031
0.0264074
0.0135215
0.0323397
0.0278078
0.0350108
0.0124111
0.0324388
0.028547
0.0301491
0.0353211
0.0296516
0.0255013
0.0288303
0.0258258
0.0252482
0.0284014
0.00504204
0.0291002
0.02682
0.0243113
0.0280448
0.0114974
0.0246344
0.0193354
0.0227557
0.0252195
0.019988
0.0127364
0.017051
0.0167582
0.0170894
0.022123
0.0167924
0.0251939
0.0143158
0.0162521
0.0194975
0.0194996
0.0276783
0.0159803
0.0176295
0.0243035
0.0246108
0.0230625
0.0220787
0.0226709
0.0175798
0.0272905
0.0225893
0.0251252
0.011592
0.017893
0.0227549
0.0178924
0.0275243
0.0325534
0.0319035
0.0113073
0.0224944
0.0305578
0.0288398
0.0314889
0.0272389
0.0250839
0.0357556
0.029609
0.0292864
0.0200805
0.0233441
0.0247279
0.0131472
0.0254584
0.0285723
0.0274682
0.0193999
0.017508
0.0191912
0.0363347
0.0175325
0.0236389
0.00878054
0.0284565
0.0237799
0.0169232
0.00248121
0.019574
0.00269858
0.0216022
0.0207025
0.0185248
0.0168968
0.0160799
0.0307375
0.0254773
0.0245271
0.0208393
0.0199929
0.0168226
0.029113
0.0295948
0.0266505
0.0234371
0.0237763
0.0178576
0.0355122
0.022821
0.0120537
0.016109
0.0318622
0.0298485
0.0218145
0.0207488
0.0133618
0.0215209
0.0217283
0.018899
0.034431
0.0355062
0.0304982
0.0335534
0.026324
0.0148905
0.033187
0.0145635
0.0187848
0.0154667
0.031678
0.0309408
0.0311035
0.0207939
0.0126069
0.0139403
0.0227951
0.0278582
0.0126027
0.017367
0.0268649
0.0203572
0.0328016
0.0162631
0.0267661
0.0242916
0.0234858
0.0150114
0.0191856
0.0213921
0.0305684
0.0179343
0.0276777
0.032056
0.0325672
0.0213094
0.0178884
0.0177869
0.0279433
0.02346
0.0177852
0.0117695
0.0173706
0.0172769
0.0299201
0.0181294
0.0183294
0.0198558
0.017667
0.0263761
0.0185029
0.0163834
0.020591
0.0195474
0.0234217
0.0260893
0.0251138
0.0213318
0.0250522
0.0192717
0.0290276
0.0311545
0.0173699
0.0305155
0.0173627
0.030137
0.0277046
0.0258638
0.0263289
0.0307831
0.0146012
0.0191271
0.0177862
0.0310479
0.0305681
0.0283405
0.0308647
0.0314268
0.0263936
0.0323656
0.0217173
0.0196004
0.0353356
0.0206413
0.0320941
0.0255661
0.016322
0.0196312
0.0320261
0.0266507
0.0242669
0.0312625
0.0306658
0.019843
0.0196752
0.0191143
0.0272045
0.030019
0.0344994
0.0331451
0.0360618
0.0326773
0.0357102
0.0299614
0.0313058
0.0315497
0.0297416
0.0312449
0.0287614
0.0283333
0.0201077
0.0269982
0.0315894
0.0219436
0.0321826
0.0295645
0.0342491
0.0206069
0.0325711
0.0311356
0.0202364
0.0278949
0.0200998
0.0313458
0.0286171
0.0210691
0.019831
0.0171521
0.0197306
0.0313888
0.0144035
0.0241937
0.0197574
0.022167
0.0326017
0.0315569
0.00989574
0.0316716
0.0172518
0.0187025
0.0324239
0.0263569
0.0189229
0.0361754
0.0205791
0.00989575
0.0191247
0.0281427
0.0351294
0.026634
0.0313323
0.0293442
0.0154028
0.0150979
0.0129144
0.0148269
0.0209929
0.0160569
0.0258668
0.016189
0.0278558
0.019894
0.0191537
0.0224024
0.0208316
0.02767
0.0199757
0.0205567
0.00907114
0.0207087
0.0299543
0.0299756
0.0271504
0.0199372
0.0129812
0.0376917
0.0253257
0.0211511
0.0194993
0.0194159
0.0201118
0.0245031
0.0197514
0.0141479
0.0194924
0.0133715
0.0241468
0.0198868
0.00845483
0.0187306
0.022146
0.0198875
0.0306003
0.0206524
0.0266319
0.0102168
0.0213768
0.0204201
0.0178322
0.01917
0.022621
0.0212907
0.0222647
0.0189352
0.0192331
0.0207696
0.0277633
0.0195857
0.0277469
0.0250478
0.0197675
0.0203188
0.0205136
0.0226887
0.0204798
0.0191761
0.0217908
0.0228507
0.026977
0.0205093
0.0203769
0.0294983
0.0290852
0.0196005
0.0197717
0.00883278
0.0238874
0.0165769
0.0224218
0.00992039
0.0102979
0.00920283
0.00935351
0.00992304
0.0104533
0.0107725
0.0251545
0.0186144
0.0187818
0.0214734
0.020918
0.020657
0.0218497
0.0202155
0.020676
0.0210199
0.0205804
0.0252687
0.0187123
0.0259741
0.020211
0.0195107
0.0206064
0.0219855
0.0229739
0.021404
0.0245122
0.022901
0.0212368
0.0153149
0.0213593
0.0208858
0.022487
0.0215435
0.0204134
0.0194133
0.0213842
0.0223051
0.0302788
0.0199991
0.0294384
0.0306867
0.0210137
0.0293998
0.0225537
0.0180671
0.0246096
0.0215706
0.0155338
0.0136467
0.0242966
0.0258777
0.0219078
0.0182121
0.0219094
0.01039
0.0216602
0.0203235
0.0103785
0.00397646
0.00434989
0.0187624
0.0200074
0.0232368
0.0223377
0.00204436
0.00213615
0.0221214
0.0223521
0.0211586
0.00779887
0.0187212
0.0217632
0.0221912
0.0191422
0.0168957
0.00812164
0.0320503
0.0201328
0.024599
0.0249836
0.0179547
0.0227234
0.0175548
0.019371
0.00962635
0.0145264
0.0227504
0.0228909
0.019674
0.0206635
0.0213234
0.0224835
0.021505
0.0106033
0.0188689
0.0212744
0.0201078
0.0301747
0.0106013
0.016332
0.0168224
0.0159422
0.0103644
0.0103651
0.0182638
0.0147476
0.0210916
0.0113476
0.0123772
0.0040412
0.00404118
0.0084641
0.0134375
0.0090531
0.0179708
0.0194359
0.0207424
0.0233717
0.0211991
0.0196268
0.0154525
0.0095627
0.0194019
0.0201004
0.0194605
0.0107458
0.00993016
0.00773558
0.0194331
0.0198262
0.0159323
0.0179948
0.016605
0.015204
0.020352
0.0152027
0.0179629
0.0173187
0.010616
0.0131066
0.0121887
0.0215208
0.00851176
0.0089668
0.00877214
0.0203239
0.00810474
0.00793764
0.014141
0.00740322
0.0164553
0.0164802
0.00759943
0.0179212
0.00843546
0.00838539
0.009447
0.00800033
0.00785484
0.0117203
0.00933652
0.00848468
0.00802519
0.0164083
0.0187277
0.00883359
0.0181107
0.00727796
0.0183721
0.0145967
0.00760358
0.00643813
0.00718283
0.0095306
0.0157778
0.0129888
0.0054337
0.00603142
0.0175891
0.00511487
0.00511482
0.00579572
0.00650551
0.00735359
0.00855712
0.0141499
0.0130975
0.0176014
0.00513892
0.00513889
0.0154686
0.00636233
0.0125408
0.00576514
0.00579952
0.00764145
0.0132626
0.0137333
0.0146306
0.0134085
0.0132623
0.00289737
0.0214082
0.00369589
0.00358086
0.0172941
0.0171741
0.00371079
0.00257741
0.00363166
0.0159525
SCALARS rr_uec(PEX,_P_ext) float
LOOKUP_TABLE default
-0.061226
-0.139537
-0.111436
-0.145654
-0.0761635
-0.118273
-0.0605383
-0.144845
-0.124541
-0.15681
-0.0555675
-0.145289
-0.127857
-0.135036
-0.15821
-0.132803
-0.11422
-0.129126
-0.115662
-0.11308
-0.127202
-0.0225884
-0.130331
-0.120119
-0.108883
-0.125609
-0.0514798
-0.110332
-0.0865853
-0.101937
-0.112954
-0.0895075
-0.0570272
-0.0763803
-0.0750698
-0.0765524
-0.0991033
-0.0752226
-0.112839
-0.0640991
-0.0727778
-0.087342
-0.0873512
-0.123966
-0.071554
-0.0789465
-0.108845
-0.110223
-0.103292
-0.0988671
-0.101521
-0.0787268
-0.122244
-0.101161
-0.112544
-0.0519057
-0.0801533
-0.101902
-0.0801506
-0.123274
-0.145806
-0.1429
-0.0506302
-0.100756
-0.136873
-0.129174
-0.141038
-0.121999
-0.112344
-0.160146
-0.132629
-0.131184
-0.0899216
-0.10456
-0.110751
-0.0588657
-0.114034
-0.127975
-0.123026
-0.0868782
-0.0783996
-0.085966
-0.162746
-0.0785083
-0.105858
-0.0393165
-0.12745
-0.106511
-0.0757761
-0.0111156
-0.0876573
-0.0120894
-0.0967618
-0.0927263
-0.082959
-0.0756638
-0.0720046
-0.13767
-0.114119
-0.109853
-0.0933276
-0.0895315
-0.0753294
-0.130393
-0.132552
-0.119365
-0.104977
-0.10649
-0.0799641
-0.159056
-0.102209
-0.0539729
-0.072133
-0.142706
-0.133688
-0.0976913
-0.0929462
-0.0598334
-0.096405
-0.0973052
-0.0846391
-0.154223
-0.159028
-0.136602
-0.150283
-0.117911
-0.0667024
-0.148641
-0.0652145
-0.0841233
-0.0692806
-0.141882
-0.138585
-0.139309
-0.0931188
-0.0564737
-0.0624224
-0.102096
-0.124778
-0.0564547
-0.0777726
-0.120326
-0.0911705
-0.146915
-0.0728252
-0.119882
-0.1088
-0.105187
-0.0672328
-0.0859205
-0.0958075
-0.136913
-0.0803106
-0.123964
-0.143576
-0.145865
-0.0954439
-0.080108
-0.0796534
-0.125153
-0.105069
-0.0796432
-0.0527002
-0.0777856
-0.0773697
-0.134009
-0.0811873
-0.0820828
-0.0889156
-0.0791164
-0.118145
-0.0828607
-0.0733648
-0.0922267
-0.0875385
-0.104908
-0.116861
-0.112481
-0.0955528
-0.112206
-0.0862998
-0.130012
-0.139538
-0.0777856
-0.13668
-0.0777499
-0.134985
-0.124092
-0.115851
-0.117925
-0.137879
-0.0653834
-0.0856558
-0.0796479
-0.13906
-0.136909
-0.126932
-0.138244
-0.140757
-0.118217
-0.144962
-0.0972622
-0.0877761
-0.15827
-0.0924333
-0.143752
-0.114511
-0.0730926
-0.0879313
-0.143442
-0.119373
-0.10869
-0.140021
-0.137354
-0.0888648
-0.0881244
-0.0855998
-0.121852
-0.134453
-0.15452
-0.148454
-0.161518
-0.146359
-0.159943
-0.134195
-0.140224
-0.141317
-0.133218
-0.139952
-0.128832
-0.126914
-0.09005
-0.120923
-0.141484
-0.0982776
-0.144152
-0.132425
-0.153396
-0.0922838
-0.14588
-0.139453
-0.0906268
-0.124946
-0.0900148
-0.1404
-0.128171
-0.0943562
-0.0888097
-0.076806
-0.0883519
-0.140592
-0.0644977
-0.108359
-0.0884797
-0.0992759
-0.146017
-0.141341
-0.0443296
-0.141855
-0.0772518
-0.0837554
-0.145221
-0.118049
-0.084742
-0.162027
-0.0921646
-0.0443296
-0.0856462
-0.126049
-0.157345
-0.119289
-0.140343
-0.131434
-0.0689945
-0.0676207
-0.0578273
-0.06639
-0.0940335
-0.0719143
-0.115854
-0.0725007
-0.124771
-0.089105
-0.085776
-0.10034
-0.0932935
-0.123932
-0.0894604
-0.092059
-0.040637
-0.0927599
-0.134171
-0.134267
-0.121604
-0.0892882
-0.0581492
-0.168822
-0.113425
-0.0947247
-0.0873263
-0.0869695
-0.0900688
-0.109756
-0.0884558
-0.0633494
-0.0872963
-0.0598765
-0.108156
-0.0890611
-0.037876
-0.0838838
-0.0991934
-0.0890639
-0.13706
-0.0924903
-0.119279
-0.0457471
-0.095741
-0.0914494
-0.0798757
-0.0858509
-0.101312
-0.0953621
-0.0997216
-0.0848002
-0.0861348
-0.0930173
-0.124355
-0.0877139
-0.124275
-0.112184
-0.0885456
-0.0909973
-0.091871
-0.101616
-0.0917197
-0.0858792
-0.0975914
-0.102352
-0.120826
-0.0918518
-0.0912559
-0.132121
-0.13027
-0.0877801
-0.0885646
-0.0395458
-0.106987
-0.0742302
-0.10042
-0.0444048
-0.0460945
-0.041193
-0.0418674
-0.0444167
-0.0467901
-0.0482191
-0.11267
-0.0833826
-0.0841205
-0.0961717
-0.0936825
-0.0925134
-0.0978627
-0.0905358
-0.0925981
-0.0941579
-0.0921704
-0.113183
-0.0837985
-0.116342
-0.0905202
-0.0873817
-0.0922865
-0.0984802
-0.102895
-0.0958611
-0.109785
-0.102566
-0.0951095
-0.0685843
-0.0956609
-0.093543
-0.100724
-0.0964841
-0.0914216
-0.0869435
-0.095772
-0.0998992
-0.135616
-0.0895672
-0.131852
-0.137438
-0.094113
-0.131678
-0.101012
-0.0809142
-0.110227
-0.096608
-0.0695829
-0.0611053
-0.108827
-0.11591
-0.0981198
-0.0815666
-0.0981323
-0.0465179
-0.0970107
-0.0910224
-0.0464714
-0.0178138
-0.0194867
-0.0840329
-0.089604
-0.104071
-0.100041
-0.00915894
-0.00957016
-0.099079
-0.100113
-0.0947668
-0.0349171
-0.0838432
-0.0974785
-0.0993865
-0.085731
-0.0756698
-0.0363618
-0.143554
-0.0901655
-0.110174
-0.111896
-0.0804124
-0.10177
-0.0786216
-0.0867557
-0.0431022
-0.0650482
-0.101891
-0.102524
-0.0881136
-0.0925443
-0.0955005
-0.100697
-0.0963142
-0.0474782
-0.0845177
-0.0952784
-0.0900627
-0.135154
-0.0474688
-0.073147
-0.0753434
-0.0714107
-0.04643
-0.0464331
-0.0818086
-0.0660472
-0.0944644
-0.0508103
-0.0554464
-0.0181047
-0.0181046
-0.0378949
-0.060194
-0.0405545
-0.0804868
-0.0870584
-0.0929016
-0.10468
-0.0949516
-0.0879101
-0.0692098
-0.042814
-0.0868974
-0.0900293
-0.0871647
-0.0481134
-0.0444829
-0.0346371
-0.0870417
-0.0888003
-0.0713515
-0.0805955
-0.0743718
-0.0681042
-0.0911543
-0.0680983
-0.0804518
-0.0775715
-0.0475556
-0.0587128
-0.0545768
-0.0963903
-0.0381087
-0.0401464
-0.039274
-0.0910316
-0.0362864
-0.0355375
-0.0633325
-0.0331453
-0.0737108
-0.0738223
-0.0340241
-0.0802632
-0.0377701
-0.0375429
-0.0422989
-0.0358189
-0.03517
-0.0525019
-0.0418049
-0.0379875
-0.0359302
-0.0734905
-0.0838838
-0.0395521
-0.0811152
-0.0325841
-0.0822872
-0.065374
-0.0340424
-0.0288263
-0.0321584
-0.0426697
-0.0706649
-0.0581828
-0.0243429
-0.0270206
-0.0787807
-0.0229146
-0.0229143
-0.0259647
-0.0291437
-0.0329265
-0.0383324
-0.0633816
-0.05867
-0.0788351
-0.0230218
-0.0230216
-0.0692918
-0.0284848
-0.056166
-0.0258115
-0.025968
-0.0342154
-0.0594127
-0.0615209
-0.0655406
-0.0600659
-0.0594111
-0.0129801
-0.0959024
-0.0165572
-0.0160423
-0.077473
-0.0769355
-0.0166244
-0.0115467
-0.0162694
-0.0714622
SCALARS cell_type float
LOOKUP_TABLE default
0
0
0
0
0
0
0
0
0
0
0
0
0
0
0
0
0
0
0
0
0
1
0
0
0
0
0
0
0
0
0
0
0
0
0
0
0
0
0
0
0
0
0
0
0
0
0
0
0
0
0
0
0
0
0
0
0
0
0
0
0
0
0
0
0
0
0
0
0
0
0
0
0
0
0
0
0
0
0
0
0
0
0
0
0
0
0
0
0
0
0
0
0
0
0
0
0
0
0
0
0
0
0
0
0
0
0
0
0
0
0
0
0
0
0
0
0
0
0
0
0
0
0
0
0
0
0
0
0
0
0
0
0
0
0
0
0
0
0
0
0
0
0
0
0
0
0
0
0
0
0
0
0
0
0
0
0
0
0
0
0
0
0
0
0
0
0
0
0
0
0
0
0
0
0
0
0
0
0
0
0
0
0
0
0
0
0
0
0
0
0
0
0
0
0
0
0
0
0
0
0
0
0
0
0
0
0
0
0
0
0
0
0
0
0
0
0
0
0
0
0
0
0
0
0
0
0
0
0
0
0
0
0
0
0
0
0
0
0
0
0
0
0
0
0
0
0
0
0
0
0
0
0
0
0
0
0
0
0
0
0
0
0
0
0
0
0
0
0
0
0
0
0
0
0
0
0
0
0
0
0
0
0
0
0
0
0
0
0
0
0
0
0
0
0
0
0
0
0
0
0
0
0
0
0
0
0
0
0
0
0
0
0
0
0
0
0
0
0
0
0
0
0
0
0
0
0
0
0
0
0
0
0
0
0
0
0
0
0
0
0
0
0
0
0
0
0
0
0
0
2
2
2
2
2
2
2
0
0
0
0
0
0
0
0
0
0
0
0
0
0
0
0
0
0
0
0
0
0
0
0
0
0
0
0
0
0
0
0
0
0
0
0
0
0
0
0
0
0
0
0
0
0
0
0
0
0
0
0
0
0
0
0
0
0
0
1
1
0
0
0
0
0
0
0
0
0
0
0
0
0
0
0
0
0
0
0
0
0
0
0
0
0
0
0
0
0
0
0
0
0
0
0
0
0
0
0
0
0
0
0
1
1
0
0
0
0
0
0
0
0
0
0
0
0
0
0
0
0
0
0
0
0
0
0
0
0
0
0
0
0
0
0
0
0
0
0
0
0
0
0
0
0
0
0
0
0
0
0
0
0
0
0
0
0
0
0
0
0
0
0
0
0
0
0
0
0
0
1
1
0
0
0
0
0
0
0
0
0
0
0
0
0
0
0
0
0
0
0
0
0
0
0
0
0
0
0
0
0
0
0
0
0
TENSORS Lagrange_strain float
0.0305679 -0.00319823 3.47524e-08
-0.00319823 0.013389 -2.28415e-08
3.47524e-08 -2.28415e-08 0.00740172

0.0291924 -0.00280102 -2.60528e-07
-0.00280102 0.0335533 -8.48136e-08
-2.60528e-07 -8.48136e-08 0.0331632

0.030021 0.00367902 -2.83598e-08
0.00367902 0.031169 6.14317e-08
-2.83598e-08 6.14317e-08 0.0304675

0.0291617 -0.00392473 8.42113e-08
-0.00392473 0.0327986 3.14856e-08
8.42113e-08 3.14856e-08 0.0330881

0.0353665 0.00266898 2.32949e-08
0.00266898 0.0380855 6.75082e-08
2.32949e-08 6.75082e-08 0.0352921

0.0277349 -0.00236693 1.58707e-07
-0.00236693 0.0333838 1.57537e-07
1.58707e-07 1.57537e-07 0.0304386

0.0302618 0.00339404 3.87899e-08
0.00339404 0.0134945 -1.9671e-07
3.87899e-08 -1.9671e-07 0.00746316

0.0317542 0.00393968 -1.80009e-07
0.00393968 0.0311995 2.79579e-08
-1.80009e-07 2.79579e-08 0.0315604

0.0332413 0.000715356 2.40244e-09
0.000715356 0.0262211 -2.53506e-10
2.40244e-09 -2.53506e-10 0.0281418

0.0354671 -0.000991037 2.16507e-07
-0.000991037 0.0275509 -5.04061e-08
2.16507e-07 -5.04061e-08 0.0327207

0.0280611 0.00205102 1.68526e-07
0.00205102 0.0138089 -2.035e-07
1.68526e-07 -2.035e-07 0.0117534

0.0279528 -0.00176564 9.34238e-08
-0.00176564 0.0350058 -4.99308e-08
9.34238e-08 -4.99308e-08 0.0315489

0.031121 0.003657 -1.12884e-07
0.003657 0.0313003 -3.89038e-08
-1.12884e-07 -3.89038e-08 0.0310793

0.029069 -0.00187991 1.65347e-07
-0.00187991 0.0347989 1.03509e-07
1.65347e-07 1.03509e-07 0.0325462

0.034631 0.00441842 9.39122e-08
0.00441842 0.0343619 -4.60433e-08
9.39122e-08 -4.60433e-08 0.0348844

0.0343275 7.30782e-05 7.64126e-08
7.30782e-05 0.0272857 2.0824e-07
7.64126e-08 2.0824e-07 0.0307781

0.0286928 -0.00235362 1.65319e-07
-0.00235362 0.0360132 1.03014e-07
1.65319e-07 1.03014e-07 0.0334498

0.0345729 -0.00035294 -2.63551e-08
-0.00035294 0.0273561 2.53847e-07
-2.63551e-08 2.53847e-07 0.0319768

0.0269197 0.00347807 1.91491e-08
0.00347807 0.0309444 -1.5897e-07
1.91491e-08 -1.5897e-07 0.0275763

0.0338841 -0.0005506 -1.90264e-07
-0.0005506 0.0264091 -1.77064e-07
-1.90264e-07 -1.77064e-07 0.030134

0.0266218 0.00113498 -1.30427e-07
0.00113498 0.0340335 1.43658e-07
-1.30427e-07 1.43658e-07 0.0291497

0.0452949 0.000850919 -8.96436e-07
0.000850919 0.0452638 -3.11146e-07
-8.96436e-07 -3.11146e-07 0.036638

0.0336749 0.00024742 3.22577e-08
0.00024742 0.0263151 -3.40384e-09
3.22577e-08 -3.40384e-09 0.0298049

0.0293093 -0.00363188 -1.71501e-08
-0.00363188 0.0311355 2.83292e-08
-1.71501e-08 2.83292e-08 0.0300464

0.0337797 0.000900073 1.4839e-07
0.000900073 0.026496 3.34517e-08
1.4839e-07 3.34517e-08 0.0300809

0.0285459 0.0025075 9.77852e-08
0.0025075 0.0338936 4.98743e-08
9.77852e-08 4.98743e-08 0.0322867

0.0286292 0.000526735 -3.65093e-08
0.000526735 0.0176896 2.22554e-07
-3.65093e-08 2.22554e-07 0.0131712

0.030914 0.00403446 -1.787e-07
0.00403446 0.0306462 1.07864e-07
-1.787e-07 1.07864e-07 0.0306104

0.0259245 0.00477635 -7.48316e-08
0.00477635 0.0257328 -5.15031e-08
-7.48316e-08 -5.15031e-08 0.0211278

0.0415291 0.00136949 -1.15695e-07
0.00136949 0.0383504 1.02223e-07
-1.15695e-07 1.02223e-07 0.036135

0.0344108 0.0018713 -3.18743e-09
0.0018713 0.0279521 -2.37526e-07
-3.18743e-09 -2.37526e-07 0.0309997

0.0217595 -0.00228775 1.24968e-07
-0.00228775 0.0299922 -8.27945e-08
1.24968e-07 -8.27945e-08 0.0211247

0.0228632 -0.00535232 3.48796e-08
-0.00535232 0.0234728 -6.43589e-08
3.48796e-08 -6.43589e-08 0.0125789

0.0348324 0.000800642 -4.64564e-08
0.000800642 0.0422554 -1.5547e-07
-4.64564e-08 -1.5547e-07 0.0357861

0.0374532 -0.000661796 8.9604e-08
-0.000661796 0.0412026 -1.85479e-08
8.9604e-08 -1.85479e-08 0.0359006

0.0410752 0.00281343 -1.68395e-07
0.00281343 0.0359863 1.82972e-07
-1.68395e-07 1.82972e-07 0.0357663

0.0372537 0.000705488 4.34983e-08
0.000705488 0.0432156 -1.76992e-08
4.34983e-08 -1.76992e-08 0.0361415

0.0402605 -0.00121873 2.77976e-07
-0.00121873 0.0378298 1.01078e-07
2.77976e-07 1.01078e-07 0.035808

0.0312151 -0.00367785 1.91868e-07
-0.00367785 0.031123 4.0997e-08
1.91868e-07 4.0997e-08 0.0309252

0.0227472 0.00527898 -6.60497e-08
0.00527898 0.0237088 -1.74519e-08
-6.60497e-08 -1.74519e-08 0.0125809

0.0297608 -0.00231578 5.92709e-08
-0.00231578 0.0220308 -2.20005e-07
5.92709e-08 -2.20005e-07 0.0208746

0.0376192 -0.000522846 8.95077e-08
-0.000522846 0.0430638 1.11798e-07
8.95077e-08 1.11798e-07 0.0361441

0.0412407 0.00263447 5.64774e-08
0.00263447 0.0394151 -1.29688e-07
5.64774e-08 -1.29688e-07 0.0361266

0.0343005 -0.00161723 -2.10524e-07
-0.00161723 0.0279943 -9.24007e-08
-2.10524e-07 -9.24007e-08 0.0310837

0.0231054 -0.00552568 -6.46226e-08
-0.00552568 0.0235625 4.4255e-08
-6.46226e-08 4.4255e-08 0.0162159

0.0299432 -0.0023323 -1.60916e-07
-0.0023323 0.0221549 9.55627e-08
-1.60916e-07 9.55627e-08 0.021344

0.0258934 0.00222726 -1.18465e-08
0.00222726 0.0326535 -1.04577e-07
-1.18465e-08 -1.04577e-07 0.027915

0.0275503 0.00252885 -1.28634e-07
0.00252885 0.0323732 6.19332e-08
-1.28634e-07 6.19332e-08 0.0284905

0.0341748 -0.00214084 1.05839e-09
-0.00214084 0.027107 1.10064e-07
1.05839e-09 1.10064e-07 0.0304718

0.0229023 -0.00439235 4.34464e-08
-0.00439235 0.0272485 -1.73408e-07
4.34464e-08 -1.73408e-07 0.0198501

0.0294936 0.0024714 -6.69595e-08
0.0024714 0.021834 -5.81297e-10
-6.69595e-08 -5.81297e-10 0.0202807

0.029872 -0.00327077 -5.73619e-08
-0.00327077 0.0245132 -5.5067e-08
-5.73619e-08 -5.5067e-08 0.0230479

0.0344775 0.00257774 7.73909e-08
0.00257774 0.0382033 -1.78542e-10
7.73909e-08 -1.78542e-10 0.0352707

0.0286892 0.00383854 1.05036e-07
0.00383854 0.0257793 -5.62492e-08
1.05036e-07 -5.62492e-08 0.0231165

0.0349284 -0.00291569 -1.12605e-07
-0.00291569 0.0374322 4.05933e-08
-1.12605e-07 4.05933e-08 0.0351891

0.0255797 -0.00545529 2.29563e-07
-0.00545529 0.0229022 1.30548e-07
2.29563e-07 1.30548e-07 0.0158194

0.0373468 0.00074588 1.53285e-07
0.00074588 0.0414128 3.44892e-08
1.53285e-07 3.44892e-08 0.0359211

0.0231674 -0.000693229 1.03174e-07
-0.000693229 0.0313128 -1.20837e-07
1.03174e-07 -1.20837e-07 0.0231025

0.0410301 0.00137978 2.17961e-09
0.00137978 0.0377066 -7.47242e-08
2.17961e-09 -7.47242e-08 0.0358993

0.0276753 0.0028052 -1.58164e-07
0.0028052 0.0327493 -4.30248e-08
-1.58164e-07 -4.30248e-08 0.0302308

0.036139 0.000784626 -7.32125e-09
0.000784626 0.0281313 -1.01509e-07
-7.32125e-09 -1.01509e-07 0.0336729

0.0362544 0.00153428 -1.21565e-08
0.00153428 0.031693 -1.49251e-07
-1.21565e-08 -1.49251e-07 0.0342206

0.028637 0.00405699 2.07886e-07
0.00405699 0.0198973 -1.92179e-08
2.07886e-07 -1.92179e-08 0.0137591

0.0309724 -0.000783635 -1.43596e-07
-0.000783635 0.0370847 -8.94779e-08
-1.43596e-07 -8.94779e-08 0.0338814

0.0315549 0.00124352 1.22225e-08
0.00124352 0.0364206 -3.16636e-08
1.22225e-08 -3.16636e-08 0.0342594

0.0285488 -0.000375142 -8.66972e-08
-0.000375142 0.0369557 -3.61082e-09
-8.66972e-08 -3.61082e-09 0.0326705

0.0296025 0.00307122 -1.16585e-07
0.00307122 0.034791 6.2631e-08
-1.16585e-07 6.2631e-08 0.0337087

0.034719 0.00112215 1.42131e-07
0.00112215 0.0278384 -2.26938e-07
1.42131e-07 -2.26938e-07 0.0322084

0.0291873 -0.0036989 -1.13892e-08
-0.0036989 0.0310206 -6.69824e-08
-1.13892e-08 -6.69824e-08 0.0299093

0.0350543 -0.000236857 -8.31684e-08
-0.000236857 0.0275798 -5.61432e-08
-8.31684e-08 -5.61432e-08 0.033393

0.0344522 -0.00254813 1.08028e-07
-0.00254813 0.0381341 -3.51232e-08
1.08028e-07 -3.51232e-08 0.0352608

0.0350107 0.00284936 -3.12912e-09
0.00284936 0.0375698 -7.44016e-08
-3.12912e-09 -7.44016e-08 0.0352406

0.0218885 -0.00213166 8.33574e-08
-0.00213166 0.0299219 5.21829e-08
8.33574e-08 5.21829e-08 0.0208511

0.0347014 -0.00369102 1.25169e-07
-0.00369102 0.0319577 2.27415e-08
1.25169e-07 2.27415e-08 0.0330788

0.0292918 -0.00329724 1.72642e-07
-0.00329724 0.0321126 2.57662e-07
1.72642e-07 2.57662e-07 0.0304331

0.0267795 -0.00401686 1.07047e-07
-0.00401686 0.0176052 -8.50335e-08
1.07047e-07 -8.50335e-08 0.0127258

0.032404 0.000418898 -1.1958e-08
0.000418898 0.038105 -3.92304e-08
-1.1958e-08 -3.92304e-08 0.0344056

0.034537 0.00381716 1.52982e-07
0.00381716 0.0309413 -6.04514e-08
1.52982e-07 -6.04514e-08 0.0326601

0.0283762 0.00258146 -1.4258e-07
0.00258146 0.034129 2.07331e-07
-1.4258e-07 2.07331e-07 0.0322136

0.0315415 0.00103771 1.59224e-07
0.00103771 0.0228437 1.00651e-07
1.59224e-07 1.00651e-07 0.024069

0.027097 -0.00435854 5.53224e-08
-0.00435854 0.0237367 5.48881e-08
5.53224e-08 5.48881e-08 0.0183234

0.0362601 -0.00140283 1.37073e-07
-0.00140283 0.0387422 1.81957e-07
1.37073e-07 1.81957e-07 0.0354011

0.0315558 0.00317091 7.32849e-08
0.00317091 0.0344009 -4.56937e-08
7.32849e-08 -4.56937e-08 0.0340902

0.0273013 -0.00415597 -6.27607e-08
-0.00415597 0.0221748 2.01558e-07
-6.27607e-08 2.01558e-07 0.0184112

0.0303579 0.00139096 -1.23328e-07
0.00139096 0.0228303 1.05902e-07
-1.23328e-07 1.05902e-07 0.0209544

0.0186019 -0.00269692 3.54445e-08
-0.00269692 0.0289282 1.75912e-07
3.54445e-08 1.75912e-07 0.0158929

0.0271998 0.00188868 -2.09311e-07
0.00188868 0.0343199 -4.51508e-08
-2.09311e-07 -4.51508e-08 0.0306544

0.035382 0.00305664 -1.21656e-08
0.00305664 0.0308197 -1.94215e-07
-1.21656e-08 -1.94215e-07 0.0327536

0.0226477 0.00538575 -4.50655e-08
0.00538575 0.0240883 6.9995e-09
-4.50655e-08 6.9995e-09 0.0161984

0.0459502 0.00223795 -3.84838e-07
0.00223795 0.0417503 2.38417e-07
-3.84838e-07 2.38417e-07 0.0366389

0.0230811 -0.000534283 3.70367e-08
-0.000534283 0.0313537 -4.58003e-08
3.70367e-08 -4.58003e-08 0.0230724

0.0463635 -0.00225609 4.32352e-07
-0.00225609 0.0412944 -1.23196e-07
4.32352e-07 -1.23196e-07 0.036594

0.0370653 -0.0036242 -1.06048e-07
-0.0036242 0.0334911 2.93353e-08
-1.06048e-07 2.93353e-08 0.0346207

0.0351375 0.00361913 -4.86906e-08
0.00361913 0.0300039 -5.90454e-08
-4.86906e-08 -5.90454e-08 0.0324563

0.0299618 -0.00315886 -6.798e-08
-0.00315886 0.0246903 -4.98198e-08
-6.798e-08 -4.98198e-08 0.0232858

0.0230122 0.00402984 -5.44405e-08
0.00402984 0.0277788 1.2606e-07
-5.44405e-08 1.2606e-07 0.0203819

0.0210938 -0.00137842 1.04966e-07
-0.00137842 0.0298949 -2.99411e-08
1.04966e-07 -2.99411e-08 0.0182514

0.0287456 0.00288901 -3.22524e-08
0.00288901 0.0342269 2.27088e-07
-3.22524e-08 2.27088e-07 0.0326994

0.0370117 0.00223587 -7.35719e-08
0.00223587 0.0334519 6.5793e-09
-7.35719e-08 6.5793e-09 0.0343841

0.028148 0.00198815 -1.84579e-07
0.00198815 0.0340599 -9.75964e-09
-1.84579e-07 -9.75964e-09 0.0308652

0.0318822 0.002073 -4.84345e-08
0.002073 0.0252539 -2.25423e-07
-4.84345e-08 -2.25423e-07 0.0256173

0.0239073 -0.00277432 1.66564e-07
-0.00277432 0.0297646 6.09554e-08
1.66564e-07 6.09554e-08 0.0215613

0.0278982 -0.0037637 -5.99995e-08
-0.0037637 0.0218151 -2.28758e-07
-5.99995e-08 -2.28758e-07 0.0180758

0.0293312 -0.00323165 9.93483e-08
-0.00323165 0.0326296 1.57516e-07
9.93483e-08 1.57516e-07 0.0324026

0.0306263 0.00361457 -1.20803e-07
0.00361457 0.0322283 -5.02973e-08
-1.20803e-07 -5.02973e-08 0.0323704

0.0287076 0.00304806 -2.60292e-08
0.00304806 0.0340268 3.43404e-08
-2.60292e-08 3.43404e-08 0.0326299

0.0292067 0.00172543 -6.85587e-09
0.00172543 0.0376173 -4.19051e-08
-6.85587e-09 -4.19051e-08 0.0338458

0.0344772 0.00123249 -1.41324e-07
0.00123249 0.0275234 -2.23334e-07
-1.41324e-07 -2.23334e-07 0.0306745

0.0199605 -0.00060517 2.3397e-08
-0.00060517 0.0296603 1.41216e-07
2.3397e-08 1.41216e-07 0.0181037

0.029797 -0.00486292 8.30466e-08
-0.00486292 0.033049 -7.24886e-09
8.30466e-08 -7.24886e-09 0.0337413

0.029081 0.00360002 2.25198e-07
0.00360002 0.0313595 -8.78109e-08
2.25198e-07 -8.78109e-08 0.0302637

0.0181055 0.000282828 -4.35047e-08
0.000282828 0.0293104 2.59433e-09
-4.35047e-08 2.59433e-09 0.0168782

0.0278429 0.0044236 1.60806e-07
0.0044236 0.0209679 -5.69702e-08
1.60806e-07 -5.69702e-08 0.0174545

0.0291909 -0.00302045 -3.92709e-08
-0.00302045 0.0327028 -1.19822e-07
-3.92709e-08 -1.19822e-07 0.032185

0.0352421 0.000759593 -2.01858e-08
0.000759593 0.0273383 8.00854e-08
-2.01858e-08 8.00854e-08 0.0325523

0.029427 0.00352008 -3.50874e-08
0.00352008 0.0252009 1.42253e-07
-3.50874e-08 1.42253e-07 0.0231109

0.0396362 0.00171017 -9.47049e-08
0.00171017 0.0390394 2.54104e-08
-9.47049e-08 2.54104e-08 0.0359397

0.0283746 0.00312322 -7.33939e-08
0.00312322 0.0224012 -7.04715e-08
-7.33939e-08 -7.04715e-08 0.0182861

0.0394884 -0.00175075 7.31797e-08
-0.00175075 0.039065 -1.36643e-08
7.31797e-08 -1.36643e-08 0.0359048

0.0232607 0.000103476 2.05799e-08
0.000103476 0.0315173 -1.31517e-07
2.05799e-08 -1.31517e-07 0.0231193

0.0327584 -0.000288389 1.04935e-07
-0.000288389 0.0246597 1.05983e-07
1.04935e-07 1.05983e-07 0.0269659

0.0380539 -0.0021293 6.34331e-08
-0.0021293 0.0304634 -8.63508e-08
6.34331e-08 -8.63508e-08 0.0347929

0.0292378 0.00320588 -9.20384e-08
0.00320588 0.0332775 9.7259e-08
-9.20384e-08 9.7259e-08 0.0333425

0.02895 -0.00177255 5.86725e-09
-0.00177255 0.0366088 -3.12183e-08
5.86725e-09 -3.12183e-08 0.0334992

0.0365832 -0.00108505 -8.92162e-08
-0.00108505 0.0264759 -4.67325e-08
-8.92162e-08 -4.67325e-08 0.0338596

0.0311799 -0.00292566 -1.51921e-07
-0.00292566 0.0383053 7.72919e-08
-1.51921e-07 7.72919e-08 0.0348433

0.0381645 -0.00088467 -1.34176e-07
-0.00088467 0.0387311 1.10402e-07
-1.34176e-07 1.10402e-07 0.0358349

0.0301791 -0.00393993 -8.03177e-08
-0.00393993 0.0327101 -1.19725e-07
-8.03177e-08 -1.19725e-07 0.0327628

0.0213324 0.00146945 -1.17571e-07
0.00146945 0.0296133 -3.9669e-08
-1.17571e-07 -3.9669e-08 0.0182953

0.0293874 -0.00364559 -1.72636e-08
-0.00364559 0.025349 3.70738e-08
-1.72636e-08 3.70738e-08 0.0231816

0.0328591 -0.00181721 1.1321e-07
-0.00181721 0.0397171 1.92116e-07
1.1321e-07 1.92116e-07 0.0352406

0.0350903 7.65495e-05 -4.03104e-09
7.65495e-05 0.0272216 8.15321e-08
-4.03104e-09 8.15321e-08 0.0332507

0.0308178 -0.00282898 1.40646e-08
-0.00282898 0.0348911 -4.49929e-08
1.40646e-08 -4.49929e-08 0.0340836

0.0295337 0.00338851 7.50625e-08
0.00338851 0.0328708 -1.49675e-07
7.50625e-08 -1.49675e-07 0.0333255

0.0264599 -0.00406315 -1.45701e-08
-0.00406315 0.0272612 -1.74957e-07
-1.45701e-08 -1.74957e-07 0.0215841

0.0371722 -0.000958218 -1.65829e-08
-0.000958218 0.04161 -1.50545e-07
-1.65829e-08 -1.50545e-07 0.0358861

0.0227106 -0.00423754 2.77328e-08
-0.00423754 0.027243 -1.48013e-07
2.77328e-08 -1.48013e-07 0.0168772

0.0341824 -0.00252469 1.23396e-09
-0.00252469 0.0286059 9.26557e-08
1.23396e-09 9.26557e-08 0.0310439

0.0364251 0.000290002 -1.81692e-07
0.000290002 0.029437 6.84304e-08
-1.81692e-07 6.84304e-08 0.0341933

0.0396407 0.00239671 -3.45039e-08
0.00239671 0.0391129 2.04097e-08
-3.45039e-08 2.04097e-08 0.0358671

0.0238558 0.00260924 -2.04087e-08
0.00260924 0.0301509 6.35542e-08
-2.04087e-08 6.35542e-08 0.0217984

0.0334301 0.00358142 -2.41654e-08
0.00358142 0.0307146 6.89458e-08
-2.41654e-08 6.89458e-08 0.0317667

0.0316425 -0.00319426 -1.36438e-07
-0.00319426 0.0265516 -5.14106e-08
-1.36438e-07 -5.14106e-08 0.0269349

0.0289286 -0.00234092 3.88278e-08
-0.00234092 0.0342343 4.06118e-08
3.88278e-08 4.06118e-08 0.0326054

0.0262439 0.00450145 7.72401e-08
0.00450145 0.0245574 1.3722e-07
7.72401e-08 1.3722e-07 0.0180808

0.0284221 -0.00286684 -2.54866e-07
-0.00286684 0.0340316 -8.86373e-08
-2.54866e-07 -8.86373e-08 0.0324485

0.0331483 0.00405892 6.67828e-08
0.00405892 0.030464 -2.13221e-07
6.67828e-08 -2.13221e-07 0.0315418

0.0333343 -0.00331154 1.93903e-07
-0.00331154 0.0283564 3.789e-08
1.93903e-07 3.789e-08 0.0300454

0.0291603 -0.00329519 -5.80616e-08
-0.00329519 0.0319871 -1.37926e-08
-5.80616e-08 -1.37926e-08 0.0304368

0.0314547 -0.0024292 -1.26888e-07
-0.0024292 0.0247184 -6.49258e-08
-1.26888e-07 -6.49258e-08 0.0251558

0.0329551 -0.00246663 2.25117e-07
-0.00246663 0.0267091 -7.50006e-09
2.25117e-07 -7.50006e-09 0.0285961

0.0294907 -0.00334206 -1.39644e-07
-0.00334206 0.0329497 -6.07905e-09
-1.39644e-07 -6.07905e-09 0.0334069

0.0261335 0.00463383 1.35482e-07
0.00463383 0.0255409 2.72454e-08
1.35482e-07 2.72454e-08 0.021092

0.0281497 0.00201668 8.2472e-08
0.00201668 0.0343356 6.23323e-09
8.2472e-08 6.23323e-09 0.031109

0.030886 0.00348123 -9.7942e-08
0.00348123 0.0322549 1.71952e-07
-9.7942e-08 1.71952e-07 0.0325997

0.0291567 0.00334805 -7.57836e-08
0.00334805 0.0331912 -7.44125e-08
-7.57836e-08 -7.44125e-08 0.03326

0.0289837 0.00152279 2.98811e-07
0.00152279 0.0354702 -1.59885e-07
2.98811e-07 -1.59885e-07 0.0326951

0.0310523 -0.00106186 -1.89976e-07
-0.00106186 0.0231411 4.36464e-08
-1.89976e-07 4.36464e-08 0.0220776

0.0238835 0.00240556 -1.34146e-07
0.00240556 0.0304099 5.4464e-09
-1.34146e-07 5.4464e-09 0.0221126

0.0292129 -0.00320372 2.14107e-07
-0.00320372 0.0326361 9.19924e-08
2.14107e-07 9.19924e-08 0.031618

0.028987 0.00335659 1.43739e-07
0.00335659 0.0309321 -1.78534e-07
1.43739e-07 -1.78534e-07 0.0285677

0.0266123 -0.00459121 6.46644e-08
-0.00459121 0.0252302 4.27359e-08
6.46644e-08 4.27359e-08 0.0212563

0.0262775 0.00489325 1.74203e-07
0.00489325 0.0209459 -2.45643e-07
1.74203e-07 -2.45643e-07 0.0167621

0.0235024 -0.00428689 -5.94581e-08
-0.00428689 0.0274642 6.16762e-08
-5.94581e-08 6.16762e-08 0.0206261

0.0266715 -0.00402748 7.60833e-08
-0.00402748 0.0274822 6.8547e-08
7.60833e-08 6.8547e-08 0.0220497

0.0353647 -0.000906376 1.90015e-07
-0.000906376 0.02739 -5.29017e-08
1.90015e-07 -5.29017e-08 0.0326547

0.026045 0.0039215 1.72184e-08
0.0039215 0.0280918 -1.94231e-07
1.72184e-08 -1.94231e-07 0.0221022

0.0307875 0.00171664 -1.73265e-07
0.00171664 0.02336 -6.43679e-09
-1.73265e-07 -6.43679e-09 0.0220253

0.0214306 0.00172201 -1.01052e-07
0.00172201 0.0302402 1.15935e-08
-1.01052e-07 1.15935e-08 0.0211325

0.0242625 -0.00288944 -1.30016e-07
-0.00288944 0.0299517 -9.09359e-08
-1.30016e-07 -9.09359e-08 0.0220859

0.0313457 -0.000131051 1.30769e-08
-0.000131051 0.0392741 1.323e-07
1.30769e-08 1.323e-07 0.0346709

0.0230581 0.000294617 8.23411e-08
0.000294617 0.03146 -4.28953e-08
8.23411e-08 -4.28953e-08 0.023062

0.0227769 0.00400131 1.77306e-08
0.00400131 0.0281269 -1.93914e-07
1.77306e-08 -1.93914e-07 0.0206378

0.0288883 0.00158565 -6.67277e-08
0.00158565 0.0358329 2.85814e-07
-6.67277e-08 2.85814e-07 0.0328936

0.0293158 -0.00358007 -6.25459e-08
-0.00358007 0.0251294 -4.05681e-08
-6.25459e-08 -4.05681e-08 0.0232395

0.0369769 0.0027332 -6.86742e-08
0.0027332 0.0297232 -1.10672e-07
-6.86742e-08 -1.10672e-07 0.0338018

0.0371763 0.00348338 4.73505e-08
0.00348338 0.033423 1.18135e-08
4.73505e-08 1.18135e-08 0.0346523

0.0345439 -0.00244635 -1.99602e-08
-0.00244635 0.0285298 1.47344e-08
-1.99602e-08 1.47344e-08 0.031379

0.0390566 -0.000265624 1.52575e-07
-0.000265624 0.033925 8.35944e-08
1.52575e-07 8.35944e-08 0.0352084

0.0314792 -0.00418763 6.503e-08
-0.00418763 0.0317818 1.45303e-07
6.503e-08 1.45303e-07 0.0321564

0.029462 0.00300741 -1.20767e-07
0.00300741 0.0223272 -7.89274e-08
-1.20767e-07 -7.89274e-08 0.0210664

0.0302297 0.00397308 7.60215e-08
0.00397308 0.0326637 -1.47746e-07
7.60215e-08 -1.47746e-07 0.0327201

0.0302775 0.00384674 -1.09226e-07
0.00384674 0.0326072 -7.24045e-08
-1.09226e-07 -7.24045e-08 0.0326749

0.0262442 0.00396171 8.2692e-08
0.00396171 0.0277676 1.31931e-07
8.2692e-08 1.31931e-07 0.0218647

0.0344504 0.00357647 6.27996e-08
0.00357647 0.0317798 6.51726e-08
6.27996e-08 6.51726e-08 0.0328316

0.0302482 0.000452446 -1.65869e-07
0.000452446 0.0204283 8.60973e-09
-1.65869e-07 8.60973e-09 0.0205732

0.0331863 0.00420064 8.48494e-08
0.00420064 0.0323731 1.89882e-07
8.48494e-08 1.89882e-07 0.033484

0.0305011 -0.00165448 -6.51908e-08
-0.00165448 0.0366164 -3.45258e-08
-6.51908e-08 -3.45258e-08 0.033663

0.0373603 0.00323254 7.08651e-08
0.00323254 0.03346 -4.75746e-08
7.08651e-08 -4.75746e-08 0.0346645

0.0307375 -0.0038959 -1.60691e-07
-0.0038959 0.0322733 1.00883e-07
-1.60691e-07 1.00883e-07 0.0326804

0.0293742 -0.000644901 1.8003e-07
-0.000644901 0.036903 1.94072e-08
1.8003e-07 1.94072e-08 0.0328481

0.0288127 -0.00315228 -1.41668e-07
-0.00315228 0.0221399 9.54991e-08
-1.41668e-07 9.54991e-08 0.0187589

0.0290029 0.00384454 -6.37336e-09
0.00384454 0.0255779 3.07883e-08
-6.37336e-09 3.07883e-08 0.0230729

0.0217014 0.00189085 2.05289e-08
0.00189085 0.0300612 6.63658e-08
2.05289e-08 6.63658e-08 0.0210839

0.0349903 -0.000161244 -1.59828e-07
-0.000161244 0.0273897 -5.28595e-08
-1.59828e-07 -5.28595e-08 0.0333017

0.0344201 2.7705e-07 4.99483e-08
2.7705e-07 0.0272748 2.06589e-07
4.99483e-08 2.06589e-07 0.0320413

0.029166 0.00304004 1.63223e-07
0.00304004 0.0326799 -8.42873e-08
1.63223e-07 -8.42873e-08 0.0321328

0.0314501 0.00316625 -5.3237e-08
0.00316625 0.0342505 -5.78604e-08
-5.3237e-08 -5.78604e-08 0.0340583

0.0291689 -0.00320431 -3.30033e-08
-0.00320431 0.0332389 1.79038e-07
-3.30033e-08 1.79038e-07 0.0333791

0.028774 -8.5597e-05 -6.87934e-08
-8.5597e-05 0.036705 -8.13115e-08
-6.87934e-08 -8.13115e-08 0.0325259

0.0294643 0.0033756 1.37186e-08
0.0033756 0.0330752 1.16229e-07
1.37186e-08 1.16229e-07 0.0333549

0.0328598 -0.00134644 1.68743e-07
-0.00134644 0.0253619 -1.16956e-07
1.68743e-07 -1.16956e-07 0.027829

0.0263551 -0.00425449 -8.67644e-08
-0.00425449 0.0281798 -5.61631e-08
-8.67644e-08 -5.61631e-08 0.0242676

0.0362977 -0.000331703 -6.03292e-08
-0.000331703 0.0293834 1.21736e-07
-6.03292e-08 1.21736e-07 0.0340281

0.026781 -0.00444545 6.60115e-08
-0.00444545 0.0251905 -4.48014e-08
6.60115e-08 -4.48014e-08 0.0209492

0.0308999 0.00250726 5.65425e-08
0.00250726 0.0350634 -1.02823e-07
5.65425e-08 -1.02823e-07 0.034068

0.0351134 -0.00349695 -1.41376e-07
-0.00349695 0.0303886 1.93393e-07
-1.41376e-07 1.93393e-07 0.032615

0.0305023 -0.00124976 1.11591e-07
-0.00124976 0.0229785 -9.85337e-08
1.11591e-07 -9.85337e-08 0.0214784

0.037148 -0.00307716 -2.40181e-07
-0.00307716 0.0316535 8.92281e-08
-2.40181e-07 8.92281e-08 0.0339881

0.0349691 0.000322016 3.95287e-08
0.000322016 0.0275549 -1.32363e-08
3.95287e-08 -1.32363e-08 0.0334302

0.035843 -0.00308835 8.66507e-09
-0.00308835 0.033258 -3.10456e-08
8.66507e-09 -3.10456e-08 0.0341437

0.034929 -0.00341058 1.51054e-07
-0.00341058 0.029595 -4.18289e-08
1.51054e-07 -4.18289e-08 0.0321782

0.0349094 -0.00113371 1.36195e-07
-0.00113371 0.0278502 -1.40082e-07
1.36195e-07 -1.40082e-07 0.0323416

0.0314903 -0.00306248 8.42277e-08
-0.00306248 0.0344488 9.63011e-08
8.42277e-08 9.63011e-08 0.0341467

0.0292355 -0.00407091 -1.19672e-07
-0.00407091 0.0268998 1.85422e-07
-1.19672e-07 1.85422e-07 0.0253463

0.034993 -0.00324366 1.55615e-07
-0.00324366 0.0299155 -2.38579e-08
1.55615e-07 -2.38579e-08 0.0321954

0.0314625 0.00140921 4.12215e-08
0.00140921 0.0233271 4.43116e-09
4.12215e-08 4.43116e-09 0.0244838

0.033665 0.00348408 1.92577e-07
0.00348408 0.0334443 2.30829e-08
1.92577e-07 2.30829e-08 0.0336502

0.029893 -0.0049676 2.8122e-08
-0.0049676 0.0330784 -1.27592e-08
2.8122e-08 -1.27592e-08 0.0338573

0.0300433 0.00492023 -1.92113e-08
0.00492023 0.0329406 1.17703e-07
-1.92113e-08 1.17703e-07 0.0338243

0.0276882 -0.00374175 -2.01308e-07
-0.00374175 0.0348072 1.79704e-08
-2.01308e-07 1.79704e-08 0.0337669

0.0279258 0.00354713 -1.77023e-07
0.00354713 0.0348352 6.0024e-08
-1.77023e-07 6.0024e-08 0.0337317

0.03643 -0.0011537 -1.63342e-07
-0.0011537 0.0263421 -4.67281e-08
-1.63342e-07 -4.67281e-08 0.033758

0.0361986 0.00124758 -5.22149e-08
0.00124758 0.0265633 -3.23491e-08
-5.22149e-08 -3.23491e-08 0.0337208

0.0350346 -0.00130673 1.58023e-07
-0.00130673 0.0284682 -1.88288e-07
1.58023e-07 -1.88288e-07 0.032576

0.0344365 0.0042591 -1.22221e-08
0.0042591 0.0342895 -5.71489e-08
-1.22221e-08 -5.71489e-08 0.0348126

0.0343123 -0.00435697 -1.26128e-07
-0.00435697 0.034281 1.6966e-08
-1.26128e-07 1.6966e-08 0.034801

0.0305212 0.00209354 6.21774e-09
0.00209354 0.0381657 -3.62346e-09
6.21774e-09 -3.62346e-09 0.0348499

0.0306642 -0.00205944 2.20263e-08
-0.00205944 0.0380957 -3.09534e-08
2.20263e-08 -3.09534e-08 0.0348372

0.0395021 -0.000529173 5.77484e-08
-0.000529173 0.0328495 2.49463e-08
5.77484e-08 2.49463e-08 0.035258

0.0397047 0.000513173 -1.35814e-07
0.000513173 0.0326221 -7.7579e-08
-1.35814e-07 -7.7579e-08 0.0353033

0.0239652 0.00127595 2.2214e-08
0.00127595 0.0320034 -1.53787e-07
2.2214e-08 -1.53787e-07 0.0251844

0.0311623 -0.0032653 6.81497e-08
-0.0032653 0.0322408 1.26724e-07
6.81497e-08 1.26724e-07 0.032802

0.0277802 -0.00478551 -3.70401e-08
-0.00478551 0.0333123 1.79144e-07
-3.70401e-08 1.79144e-07 0.0334554

0.033359 -0.000610493 1.48365e-07
-0.000610493 0.0264033 -1.5326e-07
1.48365e-07 -1.5326e-07 0.0284484

0.0381882 -0.00225176 1.022e-07
-0.00225176 0.0307947 1.00752e-07
1.022e-07 1.00752e-07 0.0348929

0.0382359 0.0021838 -2.06992e-07
0.0021838 0.0309077 2.87871e-08
-2.06992e-07 2.87871e-08 0.0349251

0.0360837 1.562e-05 -1.04013e-08
1.562e-05 0.025126 7.54634e-08
-1.04013e-08 7.54634e-08 0.0334705

0.0242411 0.00302899 -1.00573e-07
0.00302899 0.0303977 -8.27803e-08
-1.00573e-07 -8.27803e-08 0.0242772

0.0276742 0.00475613 2.58954e-08
0.00475613 0.0333127 -7.01329e-08
2.58954e-08 -7.01329e-08 0.0333933

0.028675 -0.00307591 4.74394e-08
-0.00307591 0.0342612 4.04606e-08
4.74394e-08 4.04606e-08 0.0327525

0.0310854 0.00303569 6.0239e-08
0.00303569 0.0251468 1.47471e-07
6.0239e-08 1.47471e-07 0.0254673

0.0372278 0.00316554 -1.04264e-07
0.00316554 0.0315409 3.50718e-08
-1.04264e-07 3.50718e-08 0.034076

0.029227 -0.00406718 1.82872e-08
-0.00406718 0.0269358 -1.7149e-07
1.82872e-08 -1.7149e-07 0.0253215

0.0364022 -0.000453672 3.80048e-08
-0.000453672 0.0296917 2.05585e-07
3.80048e-08 2.05585e-07 0.0341312

0.0273444 -0.00449486 3.28483e-09
-0.00449486 0.0333956 5.8992e-08
3.28483e-09 5.8992e-08 0.033442

0.024038 0.001079 5.74191e-08
0.001079 0.0322445 -5.62191e-08
5.74191e-08 -5.62191e-08 0.0255061

0.0242298 0.00282663 -8.62584e-08
0.00282663 0.0307018 1.0248e-07
-8.62584e-08 1.0248e-07 0.0245451

0.0267923 0.00459433 1.24409e-07
0.00459433 0.0240418 1.16608e-08
1.24409e-07 1.16608e-08 0.0182137

0.0298512 0.000199973 -8.75817e-08
0.000199973 0.0200885 2.01317e-07
-8.75817e-08 2.01317e-07 0.0193625

0.0319085 -0.00302406 9.34385e-08
-0.00302406 0.0341624 6.76389e-09
9.34385e-08 6.76389e-09 0.0340358

0.0229187 0.00399962 1.00075e-07
0.00399962 0.0276603 -4.49163e-08
1.00075e-07 -4.49163e-08 0.0176531

0.02921 0.00310103 1.9618e-07
0.00310103 0.0327635 -3.39336e-08
1.9618e-07 -3.39336e-08 0.0310124

0.0315948 -0.000694615 -3.70526e-08
-0.000694615 0.0231601 4.78085e-08
-3.70526e-08 4.78085e-08 0.024485

0.0327612 0.00146444 1.03944e-07
0.00146444 0.025347 -2.38233e-07
1.03944e-07 -2.38233e-07 0.0276132

0.0359783 5.60206e-05 -4.68668e-08
5.60206e-05 0.024959 1.50915e-07
-4.68668e-08 1.50915e-07 0.0333864

0.027966 -0.00380558 -1.55312e-07
-0.00380558 0.0349493 -4.01418e-08
-1.55312e-07 -4.01418e-08 0.0338162

0.0393147 -0.000843722 -2.88975e-07
-0.000843722 0.0416019 6.18442e-08
-2.88975e-07 6.18442e-08 0.0361903

0.0298683 0.00493902 -4.9693e-10
0.00493902 0.0329564 -1.51832e-07
-4.9693e-10 -1.51832e-07 0.0337793

0.0302885 0.000214532 6.2553e-08
0.000214532 0.0203969 2.35221e-08
6.2553e-08 2.35221e-08 0.0172762

0.026674 -0.00425025 7.33596e-08
-0.00425025 0.0281331 7.29715e-08
7.33596e-08 7.29715e-08 0.0244376

0.0277464 0.00481565 2.37485e-08
0.00481565 0.0333154 9.86277e-08
2.37485e-08 9.86277e-08 0.0334556

0.0279453 -0.00145853 -1.21034e-07
-0.00145853 0.035085 -7.75054e-08
-1.21034e-07 -7.75054e-08 0.0314505

0.0244652 -0.00330514 9.07134e-08
-0.00330514 0.0300155 1.85174e-07
9.07134e-08 1.85174e-07 0.0242172

0.0279908 0.00377977 2.48508e-08
0.00377977 0.0349105 -1.00741e-07
2.48508e-08 -1.00741e-07 0.0337871

0.0313618 -0.00340954 -2.73187e-08
-0.00340954 0.0270088 1.94754e-07
-2.73187e-08 1.94754e-07 0.0269915

0.0402798 0.00140896 -1.55885e-07
0.00140896 0.0406183 2.42838e-07
-1.55885e-07 2.42838e-07 0.0361707

0.0258814 0.00400291 1.36931e-07
0.00400291 0.0289547 2.7007e-08
1.36931e-07 2.7007e-08 0.0245112

0.036678 0.00110311 -4.78029e-08
0.00110311 0.0263525 -1.36608e-07
-4.78029e-08 -1.36608e-07 0.033898

0.0333424 0.00398432 5.87644e-08
0.00398432 0.0321158 -6.98852e-08
5.87644e-08 -6.98852e-08 0.0333159

0.0292282 0.00306733 8.64312e-08
0.00306733 0.032606 -1.47329e-07
8.64312e-08 -1.47329e-07 0.032158

0.0343644 -0.00431097 -1.41777e-07
-0.00431097 0.0345053 1.01627e-07
-1.41777e-07 1.01627e-07 0.0348852

0.0354899 -0.00306363 -2.10614e-07
-0.00306363 0.0305905 5.22819e-08
-2.10614e-07 5.22819e-08 0.0327507

0.0333668 0.00138774 -1.89729e-07
0.00138774 0.0395779 -9.24423e-08
-1.89729e-07 -9.24423e-08 0.0350028

0.0291971 -0.0030789 -6.51978e-08
-0.0030789 0.0328734 -7.83362e-08
-6.51978e-08 -7.83362e-08 0.0313836

0.0292649 -0.00123219 -2.73334e-08
-0.00123219 0.0192873 2.18618e-07
-2.73334e-08 2.18618e-07 0.0164123

0.0287788 -0.00183232 -4.11067e-10
-0.00183232 0.0184142 -1.07343e-07
-4.11067e-10 -1.07343e-07 0.0161972

0.0385293 0.0022019 6.76665e-08
0.0022019 0.0332393 -4.1603e-08
6.76665e-08 -4.1603e-08 0.0347632

0.0280563 0.00294503 8.86517e-08
0.00294503 0.032335 -2.38423e-07
8.86517e-08 -2.38423e-07 0.0295185

0.0320675 0.00383431 -9.44189e-08
0.00383431 0.030961 -8.08233e-08
-9.44189e-08 -8.08233e-08 0.0314548

0.03205 8.99965e-05 1.60193e-07
8.99965e-05 0.0245772 9.89416e-08
1.60193e-07 9.89416e-08 0.0248884

0.030238 0.000866138 1.80302e-07
0.000866138 0.0385813 1.95994e-08
1.80302e-07 1.95994e-08 0.0340967

0.0354018 0.00219121 2.49588e-07
0.00219121 0.0293233 -2.54798e-09
2.49588e-07 -2.54798e-09 0.0328586

0.0248117 -0.00333887 -1.40793e-07
-0.00333887 0.0300063 -7.46542e-08
-1.40793e-07 -7.46542e-08 0.0244703

0.028651 -0.000337792 -1.70051e-07
-0.000337792 0.0366578 -9.1007e-08
-1.70051e-07 -9.1007e-08 0.0323961

0.0252157 0.00174006 -5.47658e-08
0.00174006 0.0320301 -1.5617e-07
-5.47658e-08 -1.5617e-07 0.0256843

0.0332812 -0.00390974 -1.73171e-08
-0.00390974 0.0304974 6.37426e-08
-1.73171e-08 6.37426e-08 0.0315928

0.0290652 -0.00389606 8.08781e-08
-0.00389606 0.0282006 -5.06732e-08
8.08781e-08 -5.06732e-08 0.0257139

0.0261495 0.00409893 7.86294e-09
0.00409893 0.0285467 -1.62539e-10
7.86294e-09 -1.62539e-10 0.0243185

0.0452876 -0.00201743 -1.81179e-07
-0.00201743 0.0396065 -1.37803e-07
-1.81179e-07 -1.37803e-07 0.0363672

0.0316671 0.000256384 4.31071e-08
0.000256384 0.0393277 -6.40959e-08
4.31071e-08 -6.40959e-08 0.0347694

0.030617 0.002651 2.31579e-09
0.002651 0.038443 4.01095e-09
2.31579e-09 4.01095e-09 0.034958

0.0387659 0.00209491 1.16574e-07
0.00209491 0.0302222 -1.79923e-08
1.16574e-07 -1.79923e-08 0.0349429

0.0313714 -0.00345066 -9.68045e-08
-0.00345066 0.0321408 1.9927e-07
-9.68045e-08 1.9927e-07 0.0325731

0.0318181 0.00233604 9.02696e-08
0.00233604 0.0256206 1.03423e-07
9.02696e-08 1.03423e-07 0.02588

0.0349941 -0.000708446 -2.64804e-07
-0.000708446 0.0415759 5.32624e-08
-2.64804e-07 5.32624e-08 0.035728

0.0357884 -0.00251877 2.46532e-08
-0.00251877 0.0295507 1.18415e-07
2.46532e-08 1.18415e-07 0.0332584

0.0332975 -0.00203982 2.35349e-07
-0.00203982 0.0266531 1.86195e-08
2.35349e-07 1.86195e-08 0.0286758

0.0252527 0.00151091 1.22505e-08
0.00151091 0.0322749 -5.79187e-08
1.22505e-08 -5.79187e-08 0.0259504

0.0268052 -0.00334466 4.08869e-08
-0.00334466 0.0300098 1.83576e-07
4.08869e-08 1.83576e-07 0.0251876

0.0364779 -0.00336045 -1.66993e-07
-0.00336045 0.0352881 -5.33313e-08
-1.66993e-07 -5.33313e-08 0.0347427

0.028476 0.00415218 5.81773e-08
0.00415218 0.0277164 -1.45049e-07
5.81773e-08 -1.45049e-07 0.0254681

0.0372441 -0.00334557 -4.3842e-09
-0.00334557 0.0333225 2.99805e-08
-4.3842e-09 2.99805e-08 0.0346119

0.0322066 0.000337924 -1.50135e-08
0.000337924 0.024863 9.07506e-08
-1.50135e-08 9.07506e-08 0.0254379

0.0191612 -0.00368911 1.56176e-07
-0.00368911 0.0275261 5.4787e-08
1.56176e-07 5.4787e-08 0.016311

0.0292103 -0.00380347 -1.8144e-07
-0.00380347 0.0281927 5.02798e-08
-1.8144e-07 5.02798e-08 0.025808

0.023046 0.00412741 -7.43231e-08
0.00412741 0.0280204 8.96431e-08
-7.43231e-08 8.96431e-08 0.0175923

0.0296913 -0.00155936 -5.90581e-08
-0.00155936 0.0375338 -1.09856e-07
-5.90581e-08 -1.09856e-07 0.0336488

0.0243604 -0.00179375 -2.13841e-09
-0.00179375 0.0318728 4.14604e-08
-2.13841e-09 4.14604e-08 0.0254482

0.0424378 -0.0032341 -1.0837e-07
-0.0032341 0.0423769 -2.84886e-08
-1.0837e-07 -2.84886e-08 0.0363756

0.0263369 0.00309108 8.9461e-08
0.00309108 0.030702 1.0262e-07
8.9461e-08 1.0262e-07 0.0254781

0.0334775 -0.00432338 2.53375e-08
-0.00432338 0.0326596 -2.46583e-08
2.53375e-08 -2.46583e-08 0.0335667

0.0240808 -0.00155085 5.3011e-08
-0.00155085 0.0318874 -7.33068e-08
5.3011e-08 -7.33068e-08 0.025177

0.0362227 -0.00253876 -1.03663e-07
-0.00253876 0.0295113 1.99329e-07
-1.03663e-07 1.99329e-07 0.0335196

0.0266738 0.00310473 6.02226e-08
0.00310473 0.0303946 -8.54351e-08
6.02226e-08 -8.54351e-08 0.0253134

0.0343431 -0.000653726 -9.37316e-08
-0.000653726 0.0272769 2.44143e-07
-9.37316e-08 2.44143e-07 0.0305778

0.0188905 -0.00387154 4.579e-08
-0.00387154 0.0298019 3.07665e-07
4.579e-08 3.07665e-07 0.0129613

0.0279994 0.00275455 1.1584e-07
0.00275455 0.0326293 -3.84946e-08
1.1584e-07 -3.84946e-08 0.0305737

0.0314373 -0.00251234 1.05121e-07
-0.00251234 0.0247223 -4.55073e-08
1.05121e-07 -4.55073e-08 0.025406

0.0391182 -0.0028694 6.08461e-08
-0.0028694 0.0322214 5.36934e-08
6.08461e-08 5.36934e-08 0.0349369

0.0287532 0.00412379 -7.9407e-08
0.00412379 0.0272999 -9.59104e-08
-7.9407e-08 -9.59104e-08 0.0252555

0.0313612 -0.00391923 1.83432e-07
-0.00391923 0.0285419 -1.21658e-07
1.83432e-07 -1.21658e-07 0.0287309

0.0354082 0.00276401 -1.02884e-07
0.00276401 0.0308556 -2.95553e-08
-1.02884e-07 -2.95553e-08 0.0330391

0.0297728 -0.00370346 -6.47849e-08
-0.00370346 0.0329377 -1.52241e-10
-6.47849e-08 -1.52241e-10 0.0333422

0.0270549 -0.00341013 8.70721e-09
-0.00341013 0.0299822 -6.32334e-08
8.70721e-09 -6.32334e-08 0.0253973

0.0284405 0.0037712 -5.295e-08
0.0037712 0.0289396 2.16844e-08
-5.295e-08 2.16844e-08 0.0258871

0.0313709 0.00341335 -1.64153e-07
0.00341335 0.026899 1.24467e-07
-1.64153e-07 1.24467e-07 0.0269658

0.0365357 -0.00194428 -1.05036e-07
-0.00194428 0.0306251 1.9646e-07
-1.05036e-07 1.9646e-07 0.0336354

0.0255335 -0.0021631 -8.74758e-08
-0.0021631 0.0318015 3.42223e-08
-8.74758e-08 3.42223e-08 0.0258535

0.0346989 -0.00231407 -1.17716e-07
-0.00231407 0.028334 -2.06657e-07
-1.17716e-07 -2.06657e-07 0.0314556

0.0341858 0.00222321 -1.64459e-07
0.00222321 0.0274316 7.35047e-08
-1.64459e-07 7.35047e-08 0.0306035

0.0336446 -0.00124593 7.23629e-08
-0.00124593 0.0392998 1.31639e-07
7.23629e-08 1.31639e-07 0.034927

0.0320715 -0.00174669 6.57337e-08
-0.00174669 0.0253301 -1.20997e-07
6.57337e-08 -1.20997e-07 0.0258709

0.0250015 7.97481e-05 -3.71885e-08
7.97481e-05 0.0331508 -5.72163e-08
-3.71885e-08 -5.72163e-08 0.0268608

0.0332465 0.00242865 2.33807e-07
0.00242865 0.0271933 -2.98183e-08
2.33807e-07 -2.98183e-08 0.0289217

0.0311169 0.00359878 -1.01936e-07
0.00359878 0.0272921 -1.7987e-07
-1.01936e-07 -1.7987e-07 0.0271222

0.025295 -0.0020411 -5.20804e-08
-0.0020411 0.0318641 -7.576e-08
-5.20804e-08 -7.576e-08 0.0256107

0.0252007 -0.000154657 5.87676e-09
-0.000154657 0.0332916 2.29723e-08
5.87676e-09 2.29723e-08 0.0271437

0.0354128 0.00385793 9.57901e-08
0.00385793 0.0329953 -4.38137e-08
9.57901e-08 -4.38137e-08 0.033895

0.0275853 -0.00143082 1.00375e-07
-0.00143082 0.0353414 1.66837e-07
1.00375e-07 1.66837e-07 0.0314416

0.0312333 -0.00348375 -2.99582e-08
-0.00348375 0.0269771 -1.73593e-07
-2.99582e-08 -1.73593e-07 0.0270094

0.031296 0.00277261 -1.91233e-07
0.00277261 0.0249218 7.7366e-08
-1.91233e-07 7.7366e-08 0.0252458

0.0345822 0.00311825 -1.30341e-07
0.00311825 0.0293862 1.37025e-07
-1.30341e-07 1.37025e-07 0.0317953

0.0279909 0.000716618 -2.57477e-07
0.000716618 0.0360385 3.30516e-08
-2.57477e-07 3.30516e-08 0.0318177

0.0287158 0.0037813 -1.38148e-07
0.0037813 0.0285588 2.85575e-09
-1.38148e-07 2.85575e-09 0.0257275

0.0367901 0.00305775 -5.7869e-08
0.00305775 0.0361254 1.9739e-07
-5.7869e-08 1.9739e-07 0.0349066

0.0226798 -0.00754517 2.80513e-08
-0.00754517 0.0186875 -2.18353e-07
2.80513e-08 -2.18353e-07 0.010845

0.0332906 -0.00328723 1.11836e-07
-0.00328723 0.0286321 -1.27666e-07
1.11836e-07 -1.27666e-07 0.0301236

0.0207265 0.000913274 6.05448e-08
0.000913274 0.0300307 1.45928e-07
6.05448e-08 1.45928e-07 0.0183461

0.0312996 -0.00378175 2.02162e-07
-0.00378175 0.0292306 -8.82938e-08
2.02162e-07 -8.82938e-08 0.0290311

0.00153955 -0.0065187 -4.05124e-08
-0.0065187 0.0275679 1.77496e-07
-4.05124e-08 1.77496e-07 0.0029083

0.00146994 0.00636829 -1.33935e-08
0.00636829 0.027586 -5.8681e-08
-1.33935e-08 -5.8681e-08 0.00300125

0.0119844 0.0145048 2.87948e-08
0.0145048 0.0175323 3.61075e-08
2.87948e-08 3.61075e-08 0.00277117

0.0121659 -0.0144955 2.00666e-08
-0.0144955 0.0172237 -2.51628e-08
2.00666e-08 -2.51628e-08 0.00280378

0.0293405 -0.000164087 4.28398e-08
-0.000164087 0 0
4.28398e-08 0 0.0029526

0.0235919 -0.0112825 3.96813e-08
-0.0112825 0.00539541 -1.91095e-08
3.96813e-08 -1.91095e-08 0.00297829

0.0236339 0.0113487 -1.39242e-07
0.0113487 0.00544946 -6.70552e-08
-1.39242e-07 -6.70552e-08 0.00303946

0.0369109 0.00191139 1.18098e-07
0.00191139 0.0302418 3.39259e-08
1.18098e-07 3.39259e-08 0.0338775

0.0387053 0.00341007 5.91214e-08
0.00341007 0.0366174 -5.52148e-08
5.91214e-08 -5.52148e-08 0.0355782

0.0344143 0.000872365 -1.03194e-07
0.000872365 0.0274565 -2.1996e-07
-1.03194e-07 -2.1996e-07 0.0316875

0.0328723 0.00285027 1.46496e-07
0.00285027 0.026889 1.27414e-07
1.46496e-07 1.27414e-07 0.028646

0.0257005 0.00231313 5.47274e-08
0.00231313 0.0323664 6.49962e-08
5.47274e-08 6.49962e-08 0.0276353

0.0307124 0.00376876 -1.197e-07
0.00376876 0.0276759 -1.5356e-07
-1.197e-07 -1.5356e-07 0.0271174

0.0333057 -0.00390326 -7.37751e-08
-0.00390326 0.0304654 -1.75503e-08
-7.37751e-08 -1.75503e-08 0.0316297

0.0309732 0.00365424 -3.94259e-08
0.00365424 0.0272866 -9.55118e-08
-3.94259e-08 -9.55118e-08 0.0269251

0.0249869 -0.00037153 6.34478e-08
-0.00037153 0.0331219 -5.39878e-08
6.34478e-08 -5.39878e-08 0.026843

0.0385481 -0.00348448 -1.81506e-07
-0.00348448 0.0368804 -8.13243e-08
-1.81506e-07 -8.13243e-08 0.0355838

0.0251754 -0.000635627 -1.19998e-08
-0.000635627 0.0332102 2.1455e-08
-1.19998e-08 2.1455e-08 0.0271026

0.0360175 0.00304758 5.2958e-08
0.00304758 0.0330111 7.06048e-08
5.2958e-08 7.06048e-08 0.0340978

0.029623 0.00347576 -2.65224e-08
0.00347576 0.0248462 6.77194e-08
-2.65224e-08 6.77194e-08 0.0230227

0.0304959 -0.00171383 1.89244e-07
-0.00171383 0.0375123 -4.71456e-08
1.89244e-07 -4.71456e-08 0.0347364

0.0339205 0.00180443 -2.52879e-07
0.00180443 0.0271815 -3.44428e-08
-2.52879e-07 -3.44428e-08 0.0303203

0.0312009 -0.00392043 -5.22111e-08
-0.00392043 0.028531 -1.36658e-07
-5.22111e-08 -1.36658e-07 0.0286143

0.0315832 -0.00322135 6.85935e-08
-0.00322135 0.0266916 1.60149e-08
6.85935e-08 1.60149e-08 0.0270476

0.0384797 -0.00214126 -1.1149e-07
-0.00214126 0.0334171 -1.74509e-07
-1.1149e-07 -1.74509e-07 0.0347448

0.0326811 0.00366407 1.41764e-07
0.00366407 0.0292322 -8.79696e-08
1.41764e-07 -8.79696e-08 0.0301549

0.0326448 0.00313756 9.99794e-08
0.00313756 0.0272522 -1.71946e-07
9.99794e-08 -1.71946e-07 0.0287879

0.0269551 -0.000365037 1.60707e-07
-0.000365037 0.0349868 5.74703e-09
1.60707e-07 5.74703e-09 0.0301679

0.0258996 0.000765817 6.54388e-08
0.000765817 0.0340038 1.5183e-07
6.54388e-08 1.5183e-07 0.028823

0.0327779 0.000345381 1.7014e-08
0.000345381 0.0248617 9.28728e-08
1.7014e-08 9.28728e-08 0.0274438

0.0313869 -0.000944846 4.94205e-08
-0.000944846 0.0230039 -1.0154e-07
4.94205e-08 -1.0154e-07 0.0238921

0.0308807 0.00398511 -2.4151e-08
0.00398511 0.0288059 -6.76143e-08
-2.4151e-08 -6.76143e-08 0.0286241

0.033118 -0.00343147 -1.35175e-07
-0.00343147 0.0285405 -1.37658e-07
-1.35175e-07 -1.37658e-07 0.0299693

0.0364127 -0.00282381 -1.66725e-07
-0.00282381 0.0327329 1.56493e-07
-1.66725e-07 1.56493e-07 0.0341441

0.0292064 -0.00412761 -7.8175e-08
-0.00412761 0.0291923 -1.07918e-07
-7.8175e-08 -1.07918e-07 0.0277539

0.0269721 -0.00362027 1.54379e-07
-0.00362027 0.0304648 -5.57736e-09
1.54379e-07 -5.57736e-09 0.0272134

0.0283262 0.0038995 -3.82847e-09
0.0038995 0.0299009 1.19515e-07
-3.82847e-09 1.19515e-07 0.027752

0.0259013 -0.00124903 7.29676e-08
-0.00124903 0.0336138 -6.89416e-08
7.29676e-08 -6.89416e-08 0.0285159

0.0266545 -0.000202205 1.42634e-07
-0.000202205 0.034913 5.92857e-08
1.42634e-07 5.92857e-08 0.0299198

0.0277624 0.000753083 1.72012e-07
0.000753083 0.0360379 2.97963e-08
1.72012e-07 2.97963e-08 0.0316582

0.0262472 -0.00274933 1.8781e-08
-0.00274933 0.0319628 -1.2439e-07
1.8781e-08 -1.2439e-07 0.0277107

0.0345826 0.00317568 -6.20281e-09
0.00317568 0.0291685 -9.67603e-08
-6.20281e-09 -9.67603e-08 0.0316344

0.033909 -0.00126113 -2.20194e-07
-0.00126113 0.0269303 -6.91471e-08
-2.20194e-07 -6.91471e-08 0.0302017

0.0257903 0.00097432 -6.90926e-08
0.00097432 0.0338295 -1.14194e-07
-6.90926e-08 -1.14194e-07 0.0285419

0.0278241 -0.00127014 7.70429e-08
-0.00127014 0.0353971 1.62065e-07
7.70429e-08 1.62065e-07 0.031366

0.027293 -0.00213702 1.64321e-08
-0.00213702 0.033657 -1.30064e-08
1.64321e-08 -1.30064e-08 0.0302256

0.0327769 -0.00107733 1.04573e-07
-0.00107733 0.02532 1.38984e-07
1.04573e-07 1.38984e-07 0.0272543

0.0333149 -0.00427133 1.97777e-08
-0.00427133 0.0323804 1.77542e-07
1.97777e-08 1.77542e-07 0.0335292

0.0264887 0.00121964 1.62753e-07
0.00121964 0.0338356 -1.11306e-07
1.62753e-07 -1.11306e-07 0.028816

0.0398103 -0.00243157 1.53321e-07
-0.00243157 0.0352186 -6.46309e-08
1.53321e-07 -6.46309e-08 0.0354611

0.0188888 0.00316463 8.33656e-08
0.00316463 0.0278758 1.04386e-07
8.33656e-08 1.04386e-07 0.0162728

0.0338158 -0.00352254 -7.48172e-08
-0.00352254 0.0334951 2.68824e-08
-7.48172e-08 2.68824e-08 0.0337261

0.0353435 -0.00399929 -2.94108e-08
-0.00399929 0.0330465 -1.65361e-07
-2.94108e-08 -1.65361e-07 0.033904

0.0266859 -9.05169e-05 -1.71017e-07
-9.05169e-05 0.0349181 5.20922e-08
-1.71017e-07 5.20922e-08 0.029928

0.0332432 -0.00217642 6.36045e-08
-0.00217642 0.0271531 9.81727e-08
6.36045e-08 9.81727e-08 0.0289027

0.0293476 0.00168486 -9.18719e-08
0.00168486 0.0358197 2.87284e-07
-9.18719e-08 2.87284e-07 0.0328797

0.0132075 -0.000379032 1.39168e-07
-0.000379032 0.0283623 2.82642e-07
1.39168e-07 2.82642e-07 0.0111518

0.0271136 0.00186842 2.15268e-07
0.00186842 0.0340619 -1.29504e-08
2.15268e-07 -1.29504e-08 0.0303062

0.031109 -0.00385849 4.99608e-08
-0.00385849 0.0291541 6.93306e-08
4.99608e-08 6.93306e-08 0.0288063

0.0186198 0.00320465 -9.65359e-09
0.00320465 0.0301397 -1.51594e-07
-9.65359e-09 -1.51594e-07 0.0131268

0.0426002 0.00351784 1.88879e-07
0.00351784 0.0418486 2.59412e-07
1.88879e-07 2.59412e-07 0.0364804

0.043206 -0.003749 8.07381e-08
-0.003749 0.0414175 -1.09268e-07
8.07381e-08 -1.09268e-07 0.0364628

0.0310649 -0.00399089 1.61027e-07
-0.00399089 0.0304709 -2.32191e-08
1.61027e-07 -2.32191e-08 0.030461

0.0289219 -0.00406405 8.80611e-09
-0.00406405 0.0291505 6.88753e-08
8.80611e-09 6.88753e-08 0.0275942

0.0330509 0.00272694 -5.94726e-08
0.00272694 0.0275284 8.25606e-08
-5.94726e-08 8.25606e-08 0.0290753

0.0327793 0.00195996 -5.10951e-08
0.00195996 0.025591 9.8296e-08
-5.10951e-08 9.8296e-08 0.0278226

0.0464016 0.000419543 4.32777e-07
0.000419543 0.046356 -6.95207e-08
4.32777e-07 -6.95207e-08 0.0366946

0.0469206 -0.000952693 -3.61492e-07
-0.000952693 0.0457693 1.0112e-07
-3.61492e-07 1.0112e-07 0.0367657

0.0347993 0.000638135 -8.32146e-08
0.000638135 0.0275728 -2.37479e-07
-8.32146e-08 -2.37479e-07 0.0322164

0.0277517 0.000882311 2.10878e-07
0.000882311 0.0355706 -5.13705e-09
2.10878e-07 -5.13705e-09 0.0313484

0.0276075 0.000882851 -2.1218e-07
0.000882851 0.0355708 -1.72212e-08
-2.1218e-07 -1.72212e-08 0.0312446

0.0234589 0.00739977 -1.66063e-07
0.00739977 0.0183019 1.34603e-07
-1.66063e-07 1.34603e-07 0.0109015

0.027247 -0.00367564 -4.0165e-08
-0.00367564 0.0303471 9.33484e-09
-4.0165e-08 9.33484e-09 0.0273193

0.036567 0.00239157 8.42639e-08
0.00239157 0.0295759 7.72022e-08
8.42639e-08 7.72022e-08 0.0337843

0.0332734 0.00124748 -1.64056e-08
0.00124748 0.0265039 3.15608e-08
-1.64056e-08 3.15608e-08 0.0284316

0.0291522 -0.00349237 -4.08219e-08
-0.00349237 0.030471 -2.1838e-08
-4.08219e-08 -2.1838e-08 0.028173

0.0328111 -0.00264768 9.12852e-09
-0.00264768 0.0267278 1.40897e-08
9.12852e-09 1.40897e-08 0.0285865

0.0224599 0.00761275 -8.3626e-08
0.00761275 0.0185904 2.49004e-07
-8.3626e-08 2.49004e-07 0.0109039

0.0331447 0.00410267 -9.38673e-09
0.00410267 0.0326381 8.89994e-08
-9.38673e-09 8.89994e-08 0.0331814

0.0258899 -0.00257822 2.14109e-09
-0.00257822 0.0320239 -1.65099e-07
2.14109e-09 -1.65099e-07 0.0275072

0.0324822 0.00378584 1.6395e-09
0.00378584 0.029268 1.0224e-07
1.6395e-09 1.0224e-07 0.0301467

0.0268158 -0.000543696 -1.53925e-07
-0.000543696 0.0349517 -2.64134e-08
-1.53925e-07 -2.64134e-08 0.0301376

0.0269898 0.00256338 1.92757e-07
0.00256338 0.0324477 -1.50476e-07
1.92757e-07 -1.50476e-07 0.0282862

0.030526 0.00399096 7.65812e-09
0.00399096 0.0293231 1.02668e-07
7.65812e-09 1.02668e-07 0.0287748

0.0276086 -0.00293727 -1.15058e-07
-0.00293727 0.0318533 -1.48198e-07
-1.15058e-07 -1.48198e-07 0.0282488

0.0294558 -0.00357579 -8.51371e-09
-0.00357579 0.0303508 1.13867e-08
-8.51371e-09 1.13867e-08 0.0283047

0.0181376 0.0014254 -4.1485e-08
0.0014254 0.028036 1.3603e-07
-4.1485e-08 1.3603e-07 0.0131275

0.0234735 -0.00429399 -5.87742e-08
-0.00429399 0.0275557 6.07004e-08
-5.87742e-08 6.07004e-08 0.0177232

0.0262052 -0.00152603 -8.52236e-08
-0.00152603 0.0336234 1.27859e-07
-8.52236e-08 1.27859e-07 0.0287515

0.033023 0.00347492 1.45869e-07
0.00347492 0.0288774 -8.22068e-08
1.45869e-07 -8.22068e-08 0.0300686

0.0303214 0.00385747 -7.15444e-09
0.00385747 0.0298862 1.19431e-07
-7.15444e-09 1.19431e-07 0.02899

0.027414 -0.00280055 7.39451e-08
-0.00280055 0.0319836 -1.59983e-07
7.39451e-08 -1.59983e-07 0.0281387

0.0265542 -0.00154068 5.31929e-08
-0.00154068 0.0335823 -6.99689e-08
5.31929e-08 -6.99689e-08 0.0287459

0.0309562 0.00371822 -1.42131e-07
0.00371822 0.029563 1.64005e-07
-1.42131e-07 1.64005e-07 0.0289409

0.0267591 -0.00181587 1.4247e-07
-0.00181587 0.0334739 1.76629e-07
1.4247e-07 1.76629e-07 0.0289539

0.0191658 0.00355449 -8.9137e-08
0.00355449 0.0276077 -6.61706e-08
-8.9137e-08 -6.61706e-08 0.016292

0.0308732 -0.000535004 -2.5757e-08
-0.000535004 0.0388186 1.22199e-07
-2.5757e-08 1.22199e-07 0.0342941

0.0286559 0.00404775 -4.09223e-08
0.00404775 0.0295181 1.52521e-07
-4.09223e-08 1.52521e-07 0.0277142

0.0355791 0.00197498 1.85025e-07
0.00197498 0.0295027 1.20714e-07
1.85025e-07 1.20714e-07 0.0328423

0.0362588 -0.00211479 -1.00422e-07
-0.00211479 0.0297548 -5.79111e-08
-1.00422e-07 -5.79111e-08 0.0332175

0.0285101 -0.00309572 -1.07098e-07
-0.00309572 0.0185688 -1.59403e-07
-1.07098e-07 -1.59403e-07 0.0157297

0.0283533 -0.0027902 -2.01129e-07
-0.0027902 0.0327747 -2.99699e-08
-2.01129e-07 -2.99699e-08 0.0305712

0.0291905 0.00350094 1.52425e-07
0.00350094 0.031599 -3.55477e-08
1.52425e-07 -3.55477e-08 0.030487

0.0349591 -0.00290724 -1.37937e-07
-0.00290724 0.0376754 1.08925e-07
-1.37937e-07 1.08925e-07 0.0352357

0.0394599 0.00188515 1.48071e-07
0.00188515 0.0446079 1.33728e-07
1.48071e-07 1.33728e-07 0.0364326

0.0449431 0.00129057 -1.25873e-07
0.00129057 0.039116 2.05485e-08
-1.25873e-07 2.05485e-08 0.0364145

0.0355597 0.00434564 2.22368e-08
0.00434564 0.0351348 4.83514e-08
2.22368e-08 4.83514e-08 0.035003

0.0265715 0.00338788 9.36556e-08
0.00338788 0.031006 1.10143e-07
9.36556e-08 1.10143e-07 0.0272554

0.0330386 0.00349713 9.73857e-08
0.00349713 0.0286667 3.96858e-08
9.73857e-08 3.96858e-08 0.0300497

0.0220595 0.00576426 -2.8005e-08
0.00576426 0.0242373 1.55975e-07
-2.8005e-08 1.55975e-07 0.0160721

0.0386179 -0.00151225 -5.18092e-08
-0.00151225 0.0444325 1.11324e-08
-5.18092e-08 1.11324e-08 0.0363618

0.046048 -0.000463525 3.89419e-08
-0.000463525 0.0454374 1.76438e-07
3.89419e-08 1.76438e-07 0.0366907

0.0451791 -3.16737e-05 -2.35952e-07
-3.16737e-05 0.0463005 7.44189e-07
-2.35952e-07 7.44189e-07 0.0366726

0.0176407 -0.0067948 -1.5891e-07
-0.0067948 0.023108 -1.02203e-07
-1.5891e-07 -1.02203e-07 0.0107384

0.0392916 -0.00155581 1.56201e-07
-0.00155581 0.038714 7.52833e-08
1.56201e-07 7.52833e-08 0.0358532

0.0383964 0.00117661 -3.64215e-07
0.00117661 0.0415173 -5.82908e-08
-3.64215e-07 -5.82908e-08 0.0361246

0.0331749 -0.00343549 -3.97851e-08
-0.00343549 0.0282192 8.24789e-08
-3.97851e-08 8.24789e-08 0.0299031

0.0318442 0.000140301 1.37316e-07
0.000140301 0.0386713 1.05643e-07
1.37316e-07 1.05643e-07 0.03445

0.0285764 -0.00266019 -2.74516e-07
-0.00266019 0.0333799 -1.63869e-07
-2.74516e-07 -1.63869e-07 0.0315889

0.0356621 0.000831722 1.85138e-07
0.000831722 0.0273772 -3.61576e-08
1.85138e-07 -3.61576e-08 0.0329997

0.0288756 0.00204416 2.70294e-07
0.00204416 0.0368157 1.50941e-07
2.70294e-07 1.50941e-07 0.0336693

0.0298691 0.000946295 -3.60761e-08
0.000946295 0.0373873 1.4631e-07
-3.60761e-08 1.4631e-07 0.0333631

0.0344014 0.0026849 5.04369e-08
0.0026849 0.0288514 4.57174e-08
5.04369e-08 4.57174e-08 0.031226

0.013279 -0.000409406 -5.50217e-08
-0.000409406 0.0281227 -1.69164e-07
-5.50217e-08 -1.69164e-07 0.0112013

0.0309644 -0.00362614 -2.89469e-07
-0.00362614 0.0309148 -1.47219e-07
-2.89469e-07 -1.47219e-07 0.0306092

0.0329283 -0.00344329 -8.46745e-08
-0.00344329 0.0320204 2.1289e-08
-8.46745e-08 2.1289e-08 0.0325789

0.0335711 -0.00415912 6.48319e-08
-0.00415912 0.0325341 1.27662e-07
6.48319e-08 1.27662e-07 0.0337353

0.0265619 0.00414867 3.41965e-07
0.00414867 0.0176913 6.90464e-08
3.41965e-07 6.90464e-08 0.0126051

0.0388275 -0.00269669 1.8776e-07
-0.00269669 0.039576 -1.28349e-07
1.8776e-07 -1.28349e-07 0.035958

0.0230825 0.00692065 -1.3078e-07
0.00692065 0.0255017 1.81137e-08
-1.3078e-07 1.81137e-08 0.0126094

0.0308744 -0.00281752 2.51692e-07
-0.00281752 0.0348072 1.79793e-08
2.51692e-07 1.79793e-08 0.0339559

0.0354111 0.00193664 1.2289e-07
0.00193664 0.0284655 1.02217e-07
1.2289e-07 1.02217e-07 0.0323442

0.0318208 -0.0018935 -6.84955e-08
-0.0018935 0.0249505 9.22966e-08
-6.84955e-08 9.22966e-08 0.0253952

0.0292919 0.00315909 1.51412e-07
0.00315909 0.0327317 -3.22753e-08
1.51412e-07 -3.22753e-08 0.0312793

0.0344368 0.00268866 -3.90704e-08
0.00268866 0.0286343 2.58165e-07
-3.90704e-08 2.58165e-07 0.0312206

0.0325184 0.00149913 -1.81682e-08
0.00149913 0.0403736 -1.49444e-07
-1.81682e-08 -1.49444e-07 0.0353362

0.0319401 -0.0041545 8.2995e-08
-0.0041545 0.0312007 -3.44032e-07
8.2995e-08 -3.44032e-07 0.0318103

0.0396763 0.00265535 -3.42113e-08
0.00265535 0.033198 2.64525e-08
-3.42113e-08 2.64525e-08 0.0353157

0.0279714 -0.00241868 -3.59807e-07
-0.00241868 0.0335506 -7.2669e-08
-3.59807e-07 -7.2669e-08 0.0304702

0.0293507 0.000558748 -6.93216e-08
0.000558748 0.0373111 1.42775e-07
-6.93216e-08 1.42775e-07 0.0332523

0.041943 0.00133779 -3.16572e-08
0.00133779 0.0371 -4.34789e-08
-3.16572e-08 -4.34789e-08 0.036116

0.0420973 -0.00114803 3.08418e-08
-0.00114803 0.0373258 -5.93875e-08
3.08418e-08 -5.93875e-08 0.0360978

0.0283831 0.00236908 -3.79884e-09
0.00236908 0.0181814 1.20985e-07
-3.79884e-09 1.20985e-07 0.0159497

0.035026 0.00106137 1.06622e-07
0.00106137 0.0285659 1.03212e-07
1.06622e-07 1.03212e-07 0.0330587

0.0128669 0.000923325 -9.38866e-08
0.000923325 0.0316262 1.28658e-07
-9.38866e-08 1.28658e-07 0.00612171

0.0131625 -0.00138804 1.28485e-07
-0.00138804 0.0321321 -1.85131e-07
1.28485e-07 -1.85131e-07 0.00611203

0.0152687 0.00715427 9.88676e-09
0.00715427 0.0284528 1.03401e-07
9.88676e-09 1.03401e-07 0.00598415

0.0347643 -0.00382122 2.51388e-08
-0.00382122 0.0312676 -1.60883e-07
2.51388e-08 -1.60883e-07 0.0329388

0.0155807 -0.00619437 2.00508e-07
-0.00619437 0.026153 4.38597e-07
2.00508e-07 4.38597e-07 0.0104719

0.0155129 -0.0070868 -4.29543e-08
-0.0070868 0.0274234 -2.5073e-07
-4.29543e-08 -2.5073e-07 0.00591396

0.0284257 0.0034257 3.27478e-09
0.0034257 0.0310062 1.09892e-07
3.27478e-09 1.09892e-07 0.0281525

0.0251932 0.00932582 -2.29471e-07
0.00932582 0.0190208 8.51792e-08
-2.29471e-07 8.51792e-08 0.00593382

0.0365378 0.00173178 1.45764e-07
0.00173178 0.0385514 -2.91872e-08
1.45764e-07 -2.91872e-08 0.0354749

0.0395347 2.53408e-05 1.24376e-07
2.53408e-05 0.0355394 -4.33117e-08
1.24376e-07 -4.33117e-08 0.0354556

0.0261073 -0.00924442 -1.38641e-07
-0.00924442 0.0188125 -5.85178e-08
-1.38641e-07 -5.85178e-08 0.00588799

0.0276898 -0.00306529 -1.84221e-07
-0.00306529 0.0320951 2.73435e-07
-1.84221e-07 2.73435e-07 0.0296226

0.0262552 0.00441803 3.78604e-07
0.00441803 0.0201579 -7.13288e-08
3.78604e-07 -7.13288e-08 0.0130446

0.0172792 0.00797305 7.70179e-08
0.00797305 0.027149 -3.20537e-08
7.70179e-08 -3.20537e-08 0.00598783

0.0181961 0.00275507 2.74482e-08
0.00275507 0.0275895 1.24466e-07
2.74482e-08 1.24466e-07 0.01285

0.0173041 -0.00827628 3.80654e-07
-0.00827628 0.0271523 4.80597e-08
3.80654e-07 4.80597e-08 0.00581374

0.0179328 -0.00157093 2.03545e-07
-0.00157093 0.0280054 -3.10469e-07
2.03545e-07 -3.10469e-07 0.0126905

0.03705 0.000923223 -6.35955e-08
0.000923223 0.0413003 3.70868e-08
-6.35955e-08 3.70868e-08 0.0358098

0.0221311 -0.00585509 7.30644e-08
-0.00585509 0.0236646 3.66192e-08
7.30644e-08 3.66192e-08 0.0151588

0.0157 0.00598608 8.67723e-08
0.00598608 0.0259022 -1.20184e-08
8.67723e-08 -1.20184e-08 0.0107501

0.0302085 0.00472995 -8.94981e-08
0.00472995 0.0143492 -2.29449e-07
-8.94981e-08 -2.29449e-07 0.00611581

0.0329381 -0.00384942 -9.52777e-08
-0.00384942 0.0301239 3.42533e-07
-9.52777e-08 3.42533e-07 0.0310511

0.0308885 0.00169405 -5.5999e-08
0.00169405 0.0368422 1.65062e-07
-5.5999e-08 1.65062e-07 0.03395

0.0260899 -0.00484399 1.94742e-07
-0.00484399 0.0191972 1.89907e-07
1.94742e-07 1.89907e-07 0.012695

0.0330004 -0.00378584 -2.30208e-07
-0.00378584 0.030075 2.26148e-08
-2.30208e-07 2.26148e-08 0.0311274

0.0300189 -0.00451988 -5.84528e-08
-0.00451988 0.0130535 1.75671e-07
-5.84528e-08 1.75671e-07 0.00603726

0.032473 -0.00372742 1.88172e-07
-0.00372742 0.031307 -1.8982e-07
1.88172e-07 -1.8982e-07 0.0319792

0.0280909 -0.00331133 -2.0229e-07
-0.00331133 0.0320035 -3.39515e-08
-2.0229e-07 -3.39515e-08 0.0296252

0.0234435 0.00874357 -1.32052e-07
0.00874357 0.0204829 1.60792e-07
-1.32052e-07 1.60792e-07 0.00602615

0.0181997 -0.00292078 -1.78304e-07
-0.00292078 0.0268663 -4.65212e-07
-1.78304e-07 -4.65212e-07 0.0122699

0.0233145 -0.00901925 5.2801e-08
-0.00901925 0.020152 -2.67572e-07
5.2801e-08 -2.67572e-07 0.00588394

0.0170824 0.00640832 -8.36841e-08
0.00640832 0.0235659 -1.60231e-08
-8.36841e-08 -1.60231e-08 0.010831

0.030826 -0.00396031 -1.26695e-07
-0.00396031 0.0301601 3.45013e-07
-1.26695e-07 3.45013e-07 0.0300853

0.0389176 -0.00195843 7.79128e-08
-0.00195843 0.0369404 -1.36765e-07
7.79128e-08 -1.36765e-07 0.0354993

0.045541 0.00150722 2.38424e-07
0.00150722 0.0449528 2.07797e-07
2.38424e-07 2.07797e-07 0.0366188

0.0435642 -0.00071153 -2.13911e-07
-0.00071153 0.0462302 -4.43397e-08
-2.13911e-07 -4.43397e-08 0.0365845

0.0286154 0.00171584 1.10931e-07
0.00171584 0.0355659 -1.98727e-07
1.10931e-07 -1.98727e-07 0.0323893

0.0453362 -0.00144835 -2.59937e-08
-0.00144835 0.0449806 -2.66729e-07
-2.59937e-08 -2.66729e-07 0.0366366

0.0438073 0.000567794 -2.13833e-07
0.000567794 0.0465063 -5.20982e-07
-2.13833e-07 -5.20982e-07 0.0366177

0.04668 0.000991677 -6.36124e-08
0.000991677 0.0433774 -2.28342e-08
-6.36124e-08 -2.28342e-08 0.0365928

0.0397503 -0.00163911 -2.52119e-07
-0.00163911 0.0460735 -4.01664e-07
-2.52119e-07 -4.01664e-07 0.0364825

0.0190539 -0.0038873 -3.66891e-07
-0.0038873 0.0272304 -8.01442e-08
-3.66891e-07 -8.01442e-08 0.015471

0.0421412 -0.00174979 -7.82863e-08
-0.00174979 0.036725 -1.05311e-07
-7.82863e-08 -1.05311e-07 0.0360045

0.035964 -0.00457365 -1.24548e-07
-0.00457365 0.0351502 5.61176e-08
-1.24548e-07 5.61176e-08 0.0349679

0.0397529 -0.00242172 -1.14294e-07
-0.00242172 0.0360638 5.90657e-08
-1.14294e-07 5.90657e-08 0.0355669

0.0351844 0.00204327 -5.06024e-09
0.00204327 0.0285489 2.60583e-07
-5.06024e-09 2.60583e-07 0.0322316

0.0396922 0.00133781 -2.88018e-07
0.00133781 0.0472248 7.24828e-08
-2.88018e-07 7.24828e-08 0.0365484

0.0464955 0.0025931 1.57968e-07
0.0025931 0.0404182 3.84873e-07
1.57968e-07 3.84873e-07 0.0365296

0.0400871 0.00150559 2.11826e-08
0.00150559 0.0366737 4.88013e-08
2.11826e-08 4.88013e-08 0.035615

0.0279142 -0.00191989 -7.03871e-08
-0.00191989 0.0125246 1.77706e-07
-7.03871e-08 1.77706e-07 0.0106244

0.0283186 0.00326761 -5.04917e-08
0.00326761 0.0315491 -1.14071e-07
-5.04917e-08 -1.14071e-07 0.0294104

0.0231881 -0.00773604 -3.79812e-07
-0.00773604 0.0181798 7.75294e-08
-3.79812e-07 7.75294e-08 0.0102894

0.0228308 -0.00731571 -2.96474e-07
-0.00731571 0.0257686 3.78212e-07
-2.96474e-07 3.78212e-07 0.0119544

0.0290222 -0.00464695 6.22645e-08
-0.00464695 0.0191282 -1.90367e-07
6.22645e-08 -1.90367e-07 0.012615

0.0375742 -0.000660947 1.83483e-07
-0.000660947 0.0449128 -2.96175e-07
1.83483e-07 -2.96175e-07 0.0362935

0.0375718 0.000358373 1.03065e-07
0.000358373 0.04479 1.85715e-07
1.03065e-07 1.85715e-07 0.0362738

0.0426052 -0.00327434 -8.95917e-08
-0.00327434 0.0394495 3.20901e-07
-8.95917e-08 3.20901e-07 0.0362276

0.0429987 -0.00294491 7.04883e-08
-0.00294491 0.0391685 1.18892e-07
7.04883e-08 1.18892e-07 0.0362346

0.0425017 0.00350401 -3.06007e-07
0.00350401 0.0399717 -2.92212e-07
-3.06007e-07 -2.92212e-07 0.0362724

0.0443965 0.00041593 3.39137e-07
0.00041593 0.0450803 4.67757e-07
3.39137e-07 4.67757e-07 0.0366357

0.0426089 -0.00274451 7.60985e-08
-0.00274451 0.0395076 2.67287e-08
7.60985e-08 2.67287e-08 0.0362891

0.0426027 -0.00251126 1.08771e-07
-0.00251126 0.0442667 -2.50546e-07
1.08771e-07 -2.50546e-07 0.0365633

0.0451167 0.000331017 3.18731e-07
0.000331017 0.0454679 -2.01776e-07
3.18731e-07 -2.01776e-07 0.0366541

0.0436365 -0.00278315 3.3761e-07
-0.00278315 0.0389165 -1.6214e-07
3.3761e-07 -1.6214e-07 0.0363298

0.0435121 0.00283873 -1.20429e-07
0.00283873 0.0390693 1.08097e-08
-1.20429e-07 1.08097e-08 0.0363679

0.0451927 -0.000470172 -1.64297e-07
-0.000470172 0.0455815 9.53888e-08
-1.64297e-07 9.53888e-08 0.0367027

0.0452238 -0.00042322 8.12849e-07
-0.00042322 0.0443591 -1.17118e-06
8.12849e-07 -1.17118e-06 0.036721

0.0427981 0.00163844 2.12123e-07
0.00163844 0.0442493 -1.66294e-07
2.12123e-07 -1.66294e-07 0.0366072

0.0411164 0.0036183 -9.688e-08
0.0036183 0.0405161 -1.1173e-07
-9.688e-08 -1.1173e-07 0.0363217

SCALARS pressure float
LOOKUP_TABLE default
-60.052
19.3084
5.8037
21.2903
15.8789
5.88766
-58.6752
7.78337
-3.80463
15.1247
-24.4323
7.61753
5.59233
12.2795
23.3376
5.53921
18.521
13.2075
-0.692558
6.75691
-0.904585
33.1337
5.80112
5.79716
6.60218
14.9031
-38.3856
6.67202
-15.2423
30.6255
5.17656
-15.6571
-42.0567
27.3257
20.7788
27.3586
31.8838
19.8087
4.85986
-42.6
-17.4073
31.9046
31.9927
5.99379
-21.8051
-15.9757
-1.05216
-3.40526
6.54512
-16.2177
-18.9187
-15.3457
20.7555
-15.373
20.3087
-33.1489
21.1292
-15.4601
21.1391
7.04524
21.7649
16.1188
-45.5624
12.7899
16.3621
10.9053
21.5741
13.8284
5.77381
21.8172
20.8116
20.7822
-17.6909
11.6007
3.9742
-31.61
14.3567
10.9964
14.1464
-8.71982
-28.9449
14.9776
20.1632
-22.0379
-23.4294
-28.0922
7.09809
9.63257
-22.2159
37.7404
-15.5088
38.443
18.3044
10.7617
-15.1664
-15.8727
-30.2214
14.7536
14.3657
4.59894
-10.7661
-21.9395
-25.1016
16.2131
14.1005
14.9618
18.6976
3.77499
-24.5584
26.5131
7.21788
-21.4091
-24.6121
14.8382
15.0782
-16.1455
20.1646
-29.1133
20.6282
-16.7292
-2.90447
23.8338
21.7272
16.033
26.6797
22.6316
21.7853
15.7086
-29.781
-16.0988
24.0915
21.6175
20.9894
22.0658
-22.0138
23.5867
-33.8376
5.46362
21.7544
23.6301
-21.9368
6.67663
-5.96651
15.0838
-30.4076
15.6241
7.83347
2.40783
5.178
-9.39432
-0.457758
22.6417
-15.4545
5.29123
15.2044
21.5607
11.5083
-21.1132
-21.2638
10.7907
-2.84256
-15.1975
-21.2206
-15.1652
-20.9864
15.2798
-20.6358
-21.2015
-15.2077
-21.0637
19.0043
-15.9409
-14.8244
12.0646
-14.4845
18.8029
19.0533
7.47298
18.0479
11.7733
-16.249
15.2883
14.9611
-21.5284
10.4267
-14.2212
16.0487
14.5957
17.0818
14.8353
10.344
-26.9764
-16.0821
-15.9581
21.9071
14.526
14.6249
20.9227
22.4871
9.50285
21.7339
-0.384472
-8.17069
20.7789
-17.8387
19.9457
10.3644
-21.5175
15.7212
22.5263
14.7312
9.39368
14.1901
21.0557
-7.83273
8.82774
-7.90854
14.6484
26.9277
26.5813
27.9605
26.3885
26.7243
26.2909
13.8261
23.4302
24.0294
23.9736
23.3998
21.1926
21.8572
-8.2628
15.9337
28.1911
-3.18863
23.5759
23.2052
27.8344
-8.49351
28.0964
15.3447
-7.58155
17.4922
-8.25776
20.2273
29.6128
-7.48594
-8.10072
-29.5921
-18.1891
19.5274
-31.9856
5.73441
-7.79391
-1.1894
28.2492
26.6403
30.426
26.761
-34.8011
-8.17961
28.3374
8.07299
-8.29513
26.4459
-6.29526
30.4709
-7.95404
27.0471
14.5661
14.7874
23.845
10.0476
18.021
8.11716
-29.8601
-24.5533
16.8068
1.75972
8.17964
-13.6088
17.4359
11.6999
-8.10147
9.45224
-10.8234
7.51701
-10.7546
-8.4847
33.2638
19.1516
25.0882
25.3125
13.8293
-10.4044
26.4295
14.685
-1.65901
-10.2738
-12.5642
17.5065
-7.48519
17.5745
-12.0412
-21.3506
-10.6082
-34.6814
15.5626
-7.76294
34.4418
-11.5779
16.8715
-8.40873
15.9728
-12.7582
4.28911
-51.1187
8.52176
-7.7466
21.3338
-8.15213
-0.122886
10.7154
21.1243
-12.0606
-10.2007
-6.06831
14.3181
-10.18
6.88793
6.38572
16.3054
-10.4195
-6.33043
-1.70239
-5.66051
-11.0784
-5.84474
15.3056
7.80796
-5.5561
-8.96044
7.80536
7.69421
-10.6745
16.3093
-27.214
2.29297
-28.4813
-0.957651
-8.87942
-8.09769
-11.7804
-10.944
-9.88231
-7.7773
-7.90067
16.6379
24.7777
12.1161
-0.291731
-0.825264
-5.67468
7.3051
-6.32078
-6.31807
24.9235
-5.7301
14.118
-15.9083
24.3251
5.96808
-0.391289
-5.64396
16.275
2.47696
0.198932
2.44795
0.455805
-0.740957
-9.93029
-0.0957201
2.11312
15.0689
-1.2884
-1.40728
-0.998944
-0.388714
1.96515
8.05061
-1.19368
8.07806
5.58314
-0.435771
7.03517
5.49017
-3.87661
16.4767
-1.90356
23.0619
-21.9735
15.0442
15.6824
2.03951
-1.99765
12.5429
-26.5066
5.79217
-1.65808
-50.4831
30.4979
30.6346
5.82481
-1.14448
-1.04697
-0.849809
33.4182
33.2929
13.0948
6.08178
6.6623
-28.9627
-1.27954
16.5335
-3.18286
-4.34828
-0.0170746
-25.2713
14.3033
-1.28032
2.86165
2.69305
-2.72341
-0.049462
-3.20965
-4.03373
-37.9825
-33.6834
-0.128168
1.87432
-0.534249
-3.74435
-1.93675
-1.87789
-0.924472
-21.9074
17.2495
-0.769441
12.5652
14.1837
-26.7641
6.28616
7.13674
18.4778
36.4275
36.46
22.6386
-1.75593
2.5995
-20.9296
36.1262
32.7595
32.8265
-24.8086
21.7753
30.5232
2.59899
15.7239
10.3712
17.1644
17.7262
12.5055
5.68127
-25.398
4.25992
10.4093
16.244
-31.7099
28.3096
-52.7101
18.685
10.2989
-10.6274
7.41723
5.45695
24.4744
9.41099
24.4074
4.10502
12.3998
30.6405
29.4662
-22.9901
17.4355
-70.2298
-74.3763
-67.1738
11.6483
-31.2599
-63.6072
-3.80365
-69.9352
16.4631
16.4068
-73.7514
5.21206
-39.7296
-70.7358
-37.7556
-71.8722
-39.4511
21.1367
-23.96
-29.0438
-70.6197
4.83126
15.7576
-36.1894
6.05338
-63.6149
9.83585
3.88157
-67.8983
-37.6231
-66.4078
-23.7553
5.02897
20.5261
35.3715
36.7272
11.812
36.851
36.9044
36.4927
36.4049
-24.4787
28.2483
20.6691
21.9806
11.5345
36.0608
36.0923
18.12
-23.9401
3.24643
-30.5261
-56.5963
-50.4734
36.144
35.8247
35.3813
35.4515
36.1599
35.5994
33.1104
37.3715
35.4008
36.0068
35.639
34.1972
34.3338
35.857
35.3102
