# vtk DataFile Version 3.0
vtk output at time 340
ASCII
DATASET UNSTRUCTURED_GRID
POINTS 626 float
-3.68058e-05 0.000978749 0 3.68058e-05 0.000978749 0 -0.000829194 0.00052125 0 
-0.0008235 0.0005 0 -0.000866 0.0004575 0 -0.000866 -0.0004575 0 
-0.0008235 -0.0005 0 -0.000829194 -0.00052125 0 -3.68058e-05 -0.000978749 0 
3.68058e-05 -0.000978749 0 0.000829194 -0.00052125 0 0.000866 -0.0004575 0 
0.000866 0.0004575 0 0.000829194 0.00052125 0 8.5e-05 0 0 
-3.68058e-05 0.000978749 -0.001 3.68058e-05 0.000978749 -0.001 -0.000829194 0.00052125 -0.001 
-0.0008235 0.0005 -0.001 -0.000866 0.0004575 -0.001 -0.000866 -0.0004575 -0.001 
-0.0008235 -0.0005 -0.001 -0.000829194 -0.00052125 -0.001 -3.68058e-05 -0.000978749 -0.001 
3.68058e-05 -0.000978749 -0.001 0.000829194 -0.00052125 -0.001 0.000866 -0.0004575 -0.001 
0.000866 0.0004575 -0.001 0.000829194 0.00052125 -0.001 8.5e-05 0 -0.001 
8.46223e-17 0.0009575 0 -0.000715996 0.000586607 0 -0.000602797 0.000651965 0 
-0.000489599 0.000717321 0 -0.000376401 0.000782678 0 -0.000263202 0.000848036 0 
-0.000150004 0.000913393 0 -0.000835948 0.000469948 0 -0.000866 -0.000326786 0 
-0.000866 -0.000196071 0 -0.000866 -6.53571e-05 0 -0.000866 6.53571e-05 0 
-0.000866 0.000196071 0 -0.000866 0.000326786 0 -0.000835948 -0.000469948 0 
-0.000150004 -0.000913393 0 -0.000263202 -0.000848036 0 -0.000376401 -0.000782678 0 
-0.000489599 -0.000717321 0 -0.000602797 -0.000651965 0 -0.000715996 -0.000586607 0 
8.47648e-17 -0.0009575 0 0.000715996 -0.000586607 0 0.000602797 -0.000651965 0 
0.000489599 -0.000717321 0 0.000376401 -0.000782678 0 0.000263202 -0.000848036 0 
0.000150004 -0.000913393 0 0.000829194 -0.00047875 0 0.000866 0.000326786 0 
0.000866 0.000196071 0 0.000866 6.53571e-05 0 0.000866 -6.53571e-05 0 
0.000866 -0.000196071 0 0.000866 -0.000326786 0 0.000829194 0.00047875 0 
0.000150004 0.000913393 0 0.000263202 0.000848036 0 0.000376401 0.000782678 0 
0.000489599 0.000717321 0 0.000602797 0.000651965 0 0.000715996 0.000586607 0 
5.29966e-05 6.64557e-05 0 -1.89143e-05 8.28689e-05 0 -7.65824e-05 3.68801e-05 0 
-7.65824e-05 -3.68801e-05 0 -1.89143e-05 -8.28689e-05 0 5.29966e-05 -6.64557e-05 0 
8.46223e-17 0.0009575 -0.001 -0.000715996 0.000586607 -0.001 -0.000602797 0.000651965 -0.001 
-0.000489599 0.000717321 -0.001 -0.000376401 0.000782678 -0.001 -0.000263202 0.000848036 -0.001 
-0.000150004 0.000913393 -0.001 -0.000835948 0.000469948 -0.001 -0.000866 -0.000326786 -0.001 
-0.000866 -0.000196071 -0.001 -0.000866 -6.53571e-05 -0.001 -0.000866 6.53571e-05 -0.001 
-0.000866 0.000196071 -0.001 -0.000866 0.000326786 -0.001 -0.000835948 -0.000469948 -0.001 
-0.000150004 -0.000913393 -0.001 -0.000263202 -0.000848036 -0.001 -0.000376401 -0.000782678 -0.001 
-0.000489599 -0.000717321 -0.001 -0.000602797 -0.000651965 -0.001 -0.000715996 -0.000586607 -0.001 
8.47648e-17 -0.0009575 -0.001 0.000715996 -0.000586607 -0.001 0.000602797 -0.000651965 -0.001 
0.000489599 -0.000717321 -0.001 0.000376401 -0.000782678 -0.001 0.000263202 -0.000848036 -0.001 
0.000150004 -0.000913393 -0.001 0.000829194 -0.00047875 -0.001 0.000866 0.000326786 -0.001 
0.000866 0.000196071 -0.001 0.000866 6.53571e-05 -0.001 0.000866 -6.53571e-05 -0.001 
0.000866 -0.000196071 -0.001 0.000866 -0.000326786 -0.001 0.000829194 0.00047875 -0.001 
0.000150004 0.000913393 -0.001 0.000263202 0.000848036 -0.001 0.000376401 0.000782678 -0.001 
0.000489599 0.000717321 -0.001 0.000602797 0.000651965 -0.001 0.000715996 0.000586607 -0.001 
5.29966e-05 6.64557e-05 -0.001 -1.89143e-05 8.28689e-05 -0.001 -7.65824e-05 3.68801e-05 -0.001 
-7.65824e-05 -3.68801e-05 -0.001 -1.89143e-05 -8.28689e-05 -0.001 5.29966e-05 -6.64557e-05 -0.001 
0.000131234 6.38474e-05 0 0.00012964 -6.2443e-05 0 3.13827e-05 0.0001394 0 
3.12554e-05 -0.000136939 0 -0.000140461 8.25467e-19 0 -8.90565e-05 -0.000102707 0 
-9.04142e-05 0.000102872 0 -0.000765769 -0.00025965 0 -0.000756873 0.000262774 0 
-0.00015609 0.000787505 0 -0.000155807 -0.00079355 0 0.000605069 0.000528035 0 
0.000608694 -0.00052497 0 0.000744069 0.000116929 0 -0.000494418 0.000596218 0 
-0.000483866 -0.000584648 0 0.000269496 0.000702219 0 0.000263201 -0.000717324 0 
0.000754429 -0.000127825 0 -0.000748858 5.84659e-07 0 -0.000747838 0.000373886 0 
-0.0006542 0.000324842 0 -0.000645137 0.000210123 0 -0.000550884 0.000274171 0 
-0.000538857 0.000163195 0 -0.00045062 0.000224461 0 -0.000438393 0.000123907 0 
-0.000354088 0.000181668 0 -0.000363908 0.000282171 0 -0.000270361 0.000239477 0 
-0.000279138 0.000337653 0 -0.000188888 0.000294791 0 -0.000196448 0.000393271 0 
-0.000104767 0.000348259 0 -0.000113332 0.000449012 0 -2.01066e-05 0.000403223 0 
-2.89189e-05 0.000507105 0 6.9524e-05 0.000461596 0 -0.000213644 0.000490203 0 
7.33757e-05 0.000357726 0 0.000163331 0.00041299 0 0.000163359 0.000313022 0 
0.000248077 0.000366368 0 0.000250914 0.000265758 0 0.000335709 0.000322266 0 
0.000340555 0.000218148 0 0.000427299 0.000276717 0 0.000431508 0.000173093 0 
0.000328731 0.000425633 0 0.00034586 0.000114823 0 0.000435362 7.05241e-05 0 
0.000350892 1.5455e-05 0 0.000441547 -3.11896e-05 0 0.000353547 -8.47783e-05 0 
0.000445767 -0.000132964 0 0.000356135 -0.000186358 0 0.000449094 -0.000234674 0 
0.000359978 -0.000287876 0 0.00026856 -0.000240545 0 0.000271895 -0.000341045 0 
0.000181792 -0.00029305 0 0.00018533 -0.000392851 0 9.75701e-05 -0.00034483 0 
9.98764e-05 -0.000444884 0 8.75116e-06 -0.000396343 0 1.20916e-05 -0.000500496 0 
-7.83929e-05 -0.000449843 0 -8.1471e-05 -0.000347249 0 -0.000171566 -0.000403733 0 
-0.000169889 -0.000298891 0 -0.000259867 -0.000354132 0 -0.000257696 -0.000249137 0 
-0.00034313 -0.000299896 0 -0.000344514 -0.000199127 0 -0.000434309 -0.000250039 0 
-0.000169832 -0.000505815 0 -0.000435227 -0.000146227 0 0.000280331 -0.000442424 0 
-0.000340889 8.76793e-05 0 -0.000515252 4.06198e-05 0 6.50491e-05 0.000568253 0 
0.00053278 1.74743e-05 0 0.000522071 0.000229831 0 -0.00037162 0.000391659 0 
-0.000255272 -0.000150439 0 -0.000442893 -0.000350705 0 0.000450067 -0.000332559 0 
0.000545175 -0.000276306 0 -0.000527797 -0.000197598 0 0.000105306 -0.000551033 0 
1.45836e-05 -0.000609147 0 0.00017145 0.000214453 0 0.000515525 0.000341711 0 
0.000636086 0.000290368 0 -0.000558657 0.000404468 0 -4.01232e-05 0.000616718 0 
6.60192e-05 0.000696422 0 -0.000101806 0.0002546 0 0.000271142 -3.88908e-05 0 
0.000179455 -0.00018534 0 -8.79553e-05 -0.000254307 0 -0.000749267 -0.000373451 0 
-0.000655941 -0.000323397 0 0.000709746 0.000466718 0 0.000698426 -0.000473086 0 
-5.25801e-05 -0.00084886 0 -4.93005e-05 0.000848038 0 0.000617396 -0.000413362 0 
0.000702056 -0.000369817 0 0.000131459 -0.000679171 0 2.48171e-05 -0.000715924 0 
-0.000664217 -0.00042729 0 -0.000528828 -8.80444e-05 0 -0.000611101 -0.000136672 0 
-0.000426972 -4.45841e-05 0 0.000800669 0.000378216 0 0.000821144 -0.000415062 0 
7.2799e-05 0.00088254 0 6.81831e-05 -0.00087503 0 0.000104963 -0.000788946 0 
-7.40696e-05 -0.000660054 0 0.000126061 0.000809943 0 0.000764361 0.000295682 0 
0.000166862 0.000630623 0 0.000516462 -0.00046707 0 -0.000563585 -0.000389606 0 
-0.000622598 -1.40238e-05 0 0.000629891 0.000171529 0 2.5614e-06 -0.000299794 0 
8.6901e-05 -0.00024329 0 0.000272045 -0.000136982 0 -0.00075148 0.000138321 0 
0.000209366 -0.000599589 0 0.000324913 -0.000630055 0 0.000614044 0.00041245 0 
0.00049651 -0.000573327 0 0.000394822 -0.000507321 0 -0.000173714 -0.000206698 0 
0.000264897 5.63722e-05 0 0.000247997 0.000152811 0 -4.63327e-05 -0.000920208 0 
9.18688e-05 0.000258626 0 -5.54111e-06 0.000290558 0 -0.000184219 0.000201484 0 
-0.000263559 0.000142267 0 -0.000256427 5.13624e-05 0 -0.000336894 -2.06179e-06 0 
-0.000228499 -4.2388e-05 0 -0.00017589 0.000106626 0 -0.000769947 -0.000133367 0 
0.000767591 -0.000500293 0 -5.05874e-05 0.000737978 0 0.000754456 -3.51771e-06 0 
0.00064691 -6.15298e-05 0 0.000630483 -0.00018134 0 0.000749187 -0.000265543 0 
-0.000760805 -0.000462521 0 0.000638155 6.09315e-05 0 -4.46661e-05 0.000922995 0 
-2.37945e-05 0.000207237 0 0.000776979 0.000500181 0 -0.000605691 0.000527596 0 
-0.000377914 -0.000653727 0 -0.000372325 -0.000526022 0 -0.000275829 -0.000589621 0 
-0.000254285 -0.000710579 0 -0.000379307 0.000656222 0 -0.000379818 0.00052718 0 
-0.000266817 0.000721555 0 -0.000150544 0.000668174 0 0.000381963 0.00065079 0 
0.000493113 0.000590432 0 0.000505439 0.000463708 0 -0.000269094 0.000596608 0 
0.000385815 0.000532045 0 0.000283599 0.0005899 0 -0.000176405 -0.000108505 0 
-0.000278769 -0.000475415 0 0.000185395 2.33014e-06 0 0.000186773 0.000517571 0 
0.000540032 -8.68444e-05 0 -0.000600694 -0.000514877 0 -0.00063703 8.98033e-05 0 
-0.000459677 0.000335729 0 -0.000338836 -0.000100751 0 -0.000457327 0.000432721 0 
-8.72007e-06 -0.000210238 0 0.000156073 0.000129496 0 -7.70692e-05 -0.000555049 0 
0.00036091 -0.000389728 0 0.000531628 0.000120564 0 -0.000285451 0.000435562 0 
0.000192719 -0.000494604 0 0.00041642 0.00039368 0 -0.000135943 0.000554637 0 
-0.000170665 -0.000610079 0 -0.000666304 0.000434981 0 -0.000758736 0.000479231 0 
-0.000470189 -0.000458901 0 0.000203433 -8.59809e-05 0 0.000101846 0.000170114 0 
-0.00035513 -0.00040726 0 0.000100184 -0.000165831 0 2.96286e-05 0.00081537 0 
0.000720946 0.000381836 0 -0.000539809 -0.000292001 0 0.00052211 -0.000182426 0 
-6.41339e-05 -0.000753908 0 0.000638039 -0.000299861 0 -0.000605136 -0.000230182 0 
-3.41638e-05 -0.000145561 0 -0.000104037 0.000172396 0 -0.000808575 -0.00042774 0 
-0.000807207 -0.000465052 0 -0.00080817 0.000429771 0 -0.000806589 0.000469738 0 
-9.50634e-05 -0.000178909 0 0.000247777 0.000445058 0 1.48293e-05 -0.000814201 0 
-4.11555e-05 0.000140955 0 0.000276104 -0.000536845 0 0.000765969 -0.000436638 0 
0.000780871 -0.000362769 0 0.000424176 -0.000642018 0 0.00053413 -0.000368009 0 
-0.000416333 4.17911e-05 0 -0.000133891 -6.23822e-05 0 4.2574e-05 0.000206312 0 
0.000141163 -0.000121542 0 0.000707423 0.000212137 0 0.000172327 0.000723882 0 
7.72652e-06 -0.00090254 0 -0.000134435 5.66935e-05 0 -0.000188826 3.70894e-05 0 
0.000197119 8.09714e-05 0 1.27801e-05 0.000917296 0 0.000800767 0.00044758 0 
-0.000686682 0.000507104 0 9.35831e-05 0.000110457 0 -0.000696793 -0.000509595 0 
-0.00068446 -8.52012e-05 0 -0.000691033 -0.000201242 0 5.24052e-05 -0.000189075 0 
-0.000151818 -0.000701092 0 -0.000296988 0.000518087 0 9.31023e-05 -0.000108117 0 
0.00044261 -0.000416726 0 0.000197044 -0.000784423 0 -0.000516861 0.000504567 0 
0.000298997 0.000502377 0 0.000131234 6.38474e-05 -0.001 0.00012964 -6.2443e-05 -0.001 
3.13827e-05 0.0001394 -0.001 3.12554e-05 -0.000136939 -0.001 -0.000140461 8.25467e-19 -0.001 
-8.90565e-05 -0.000102707 -0.001 -9.04142e-05 0.000102872 -0.001 -0.000765769 -0.00025965 -0.001 
-0.000756873 0.000262774 -0.001 -0.00015609 0.000787505 -0.001 -0.000155807 -0.00079355 -0.001 
0.000605069 0.000528035 -0.001 0.000608694 -0.00052497 -0.001 0.000744069 0.000116929 -0.001 
-0.000494418 0.000596218 -0.001 -0.000483866 -0.000584648 -0.001 0.000269496 0.000702219 -0.001 
0.000263201 -0.000717324 -0.001 0.000754429 -0.000127825 -0.001 -0.000748858 5.84659e-07 -0.001 
-0.000747838 0.000373886 -0.001 -0.0006542 0.000324842 -0.001 -0.000645137 0.000210123 -0.001 
-0.000550884 0.000274171 -0.001 -0.000538857 0.000163195 -0.001 -0.00045062 0.000224461 -0.001 
-0.000438393 0.000123907 -0.001 -0.000354088 0.000181668 -0.001 -0.000363908 0.000282171 -0.001 
-0.000270361 0.000239477 -0.001 -0.000279138 0.000337653 -0.001 -0.000188888 0.000294791 -0.001 
-0.000196448 0.000393271 -0.001 -0.000104767 0.000348259 -0.001 -0.000113332 0.000449012 -0.001 
-2.01066e-05 0.000403223 -0.001 -2.89189e-05 0.000507105 -0.001 6.9524e-05 0.000461596 -0.001 
-0.000213644 0.000490203 -0.001 7.33757e-05 0.000357726 -0.001 0.000163331 0.00041299 -0.001 
0.000163359 0.000313022 -0.001 0.000248077 0.000366368 -0.001 0.000250914 0.000265758 -0.001 
0.000335709 0.000322266 -0.001 0.000340555 0.000218148 -0.001 0.000427299 0.000276717 -0.001 
0.000431508 0.000173093 -0.001 0.000328731 0.000425633 -0.001 0.00034586 0.000114823 -0.001 
0.000435362 7.05241e-05 -0.001 0.000350892 1.5455e-05 -0.001 0.000441547 -3.11896e-05 -0.001 
0.000353547 -8.47783e-05 -0.001 0.000445767 -0.000132964 -0.001 0.000356135 -0.000186358 -0.001 
0.000449094 -0.000234674 -0.001 0.000359978 -0.000287876 -0.001 0.00026856 -0.000240545 -0.001 
0.000271895 -0.000341045 -0.001 0.000181792 -0.00029305 -0.001 0.00018533 -0.000392851 -0.001 
9.75701e-05 -0.00034483 -0.001 9.98764e-05 -0.000444884 -0.001 8.75116e-06 -0.000396343 -0.001 
1.20916e-05 -0.000500496 -0.001 -7.83929e-05 -0.000449843 -0.001 -8.1471e-05 -0.000347249 -0.001 
-0.000171566 -0.000403733 -0.001 -0.000169889 -0.000298891 -0.001 -0.000259867 -0.000354132 -0.001 
-0.000257696 -0.000249137 -0.001 -0.00034313 -0.000299896 -0.001 -0.000344514 -0.000199127 -0.001 
-0.000434309 -0.000250039 -0.001 -0.000169832 -0.000505815 -0.001 -0.000435227 -0.000146227 -0.001 
0.000280331 -0.000442424 -0.001 -0.000340889 8.76793e-05 -0.001 -0.000515252 4.06198e-05 -0.001 
6.50491e-05 0.000568253 -0.001 0.00053278 1.74743e-05 -0.001 0.000522071 0.000229831 -0.001 
-0.00037162 0.000391659 -0.001 -0.000255272 -0.000150439 -0.001 -0.000442893 -0.000350705 -0.001 
0.000450067 -0.000332559 -0.001 0.000545175 -0.000276306 -0.001 -0.000527797 -0.000197598 -0.001 
0.000105306 -0.000551033 -0.001 1.45836e-05 -0.000609147 -0.001 0.00017145 0.000214453 -0.001 
0.000515525 0.000341711 -0.001 0.000636086 0.000290368 -0.001 -0.000558657 0.000404468 -0.001 
-4.01232e-05 0.000616718 -0.001 6.60192e-05 0.000696422 -0.001 -0.000101806 0.0002546 -0.001 
0.000271142 -3.88908e-05 -0.001 0.000179455 -0.00018534 -0.001 -8.79553e-05 -0.000254307 -0.001 
-0.000749267 -0.000373451 -0.001 -0.000655941 -0.000323397 -0.001 0.000709746 0.000466718 -0.001 
0.000698426 -0.000473086 -0.001 -5.25801e-05 -0.00084886 -0.001 -4.93005e-05 0.000848038 -0.001 
0.000617396 -0.000413362 -0.001 0.000702056 -0.000369817 -0.001 0.000131459 -0.000679171 -0.001 
2.48171e-05 -0.000715924 -0.001 -0.000664217 -0.00042729 -0.001 -0.000528828 -8.80444e-05 -0.001 
-0.000611101 -0.000136672 -0.001 -0.000426972 -4.45841e-05 -0.001 0.000800669 0.000378216 -0.001 
0.000821144 -0.000415062 -0.001 7.2799e-05 0.00088254 -0.001 6.81831e-05 -0.00087503 -0.001 
0.000104963 -0.000788946 -0.001 -7.40696e-05 -0.000660054 -0.001 0.000126061 0.000809943 -0.001 
0.000764361 0.000295682 -0.001 0.000166862 0.000630623 -0.001 0.000516462 -0.00046707 -0.001 
-0.000563585 -0.000389606 -0.001 -0.000622598 -1.40238e-05 -0.001 0.000629891 0.000171529 -0.001 
2.5614e-06 -0.000299794 -0.001 8.6901e-05 -0.00024329 -0.001 0.000272045 -0.000136982 -0.001 
-0.00075148 0.000138321 -0.001 0.000209366 -0.000599589 -0.001 0.000324913 -0.000630055 -0.001 
0.000614044 0.00041245 -0.001 0.00049651 -0.000573327 -0.001 0.000394822 -0.000507321 -0.001 
-0.000173714 -0.000206698 -0.001 0.000264897 5.63722e-05 -0.001 0.000247997 0.000152811 -0.001 
-4.63327e-05 -0.000920208 -0.001 9.18688e-05 0.000258626 -0.001 -5.54111e-06 0.000290558 -0.001 
-0.000184219 0.000201484 -0.001 -0.000263559 0.000142267 -0.001 -0.000256427 5.13624e-05 -0.001 
-0.000336894 -2.06179e-06 -0.001 -0.000228499 -4.2388e-05 -0.001 -0.00017589 0.000106626 -0.001 
-0.000769947 -0.000133367 -0.001 0.000767591 -0.000500293 -0.001 -5.05874e-05 0.000737978 -0.001 
0.000754456 -3.51771e-06 -0.001 0.00064691 -6.15298e-05 -0.001 0.000630483 -0.00018134 -0.001 
0.000749187 -0.000265543 -0.001 -0.000760805 -0.000462521 -0.001 0.000638155 6.09315e-05 -0.001 
-4.46661e-05 0.000922995 -0.001 -2.37945e-05 0.000207237 -0.001 0.000776979 0.000500181 -0.001 
-0.000605691 0.000527596 -0.001 -0.000377914 -0.000653727 -0.001 -0.000372325 -0.000526022 -0.001 
-0.000275829 -0.000589621 -0.001 -0.000254285 -0.000710579 -0.001 -0.000379307 0.000656222 -0.001 
-0.000379818 0.00052718 -0.001 -0.000266817 0.000721555 -0.001 -0.000150544 0.000668174 -0.001 
0.000381963 0.00065079 -0.001 0.000493113 0.000590432 -0.001 0.000505439 0.000463708 -0.001 
-0.000269094 0.000596608 -0.001 0.000385815 0.000532045 -0.001 0.000283599 0.0005899 -0.001 
-0.000176405 -0.000108505 -0.001 -0.000278769 -0.000475415 -0.001 0.000185395 2.33014e-06 -0.001 
0.000186773 0.000517571 -0.001 0.000540032 -8.68444e-05 -0.001 -0.000600694 -0.000514877 -0.001 
-0.00063703 8.98033e-05 -0.001 -0.000459677 0.000335729 -0.001 -0.000338836 -0.000100751 -0.001 
-0.000457327 0.000432721 -0.001 -8.72007e-06 -0.000210238 -0.001 0.000156073 0.000129496 -0.001 
-7.70692e-05 -0.000555049 -0.001 0.00036091 -0.000389728 -0.001 0.000531628 0.000120564 -0.001 
-0.000285451 0.000435562 -0.001 0.000192719 -0.000494604 -0.001 0.00041642 0.00039368 -0.001 
-0.000135943 0.000554637 -0.001 -0.000170665 -0.000610079 -0.001 -0.000666304 0.000434981 -0.001 
-0.000758736 0.000479231 -0.001 -0.000470189 -0.000458901 -0.001 0.000203433 -8.59809e-05 -0.001 
0.000101846 0.000170114 -0.001 -0.00035513 -0.00040726 -0.001 0.000100184 -0.000165831 -0.001 
2.96286e-05 0.00081537 -0.001 0.000720946 0.000381836 -0.001 -0.000539809 -0.000292001 -0.001 
0.00052211 -0.000182426 -0.001 -6.41339e-05 -0.000753908 -0.001 0.000638039 -0.000299861 -0.001 
-0.000605136 -0.000230182 -0.001 -3.41638e-05 -0.000145561 -0.001 -0.000104037 0.000172396 -0.001 
-0.000808575 -0.00042774 -0.001 -0.000807207 -0.000465052 -0.001 -0.00080817 0.000429771 -0.001 
-0.000806589 0.000469738 -0.001 -9.50634e-05 -0.000178909 -0.001 0.000247777 0.000445058 -0.001 
1.48293e-05 -0.000814201 -0.001 -4.11555e-05 0.000140955 -0.001 0.000276104 -0.000536845 -0.001 
0.000765969 -0.000436638 -0.001 0.000780871 -0.000362769 -0.001 0.000424176 -0.000642018 -0.001 
0.00053413 -0.000368009 -0.001 -0.000416333 4.17911e-05 -0.001 -0.000133891 -6.23822e-05 -0.001 
4.2574e-05 0.000206312 -0.001 0.000141163 -0.000121542 -0.001 0.000707423 0.000212137 -0.001 
0.000172327 0.000723882 -0.001 7.72652e-06 -0.00090254 -0.001 -0.000134435 5.66935e-05 -0.001 
-0.000188826 3.70894e-05 -0.001 0.000197119 8.09714e-05 -0.001 1.27801e-05 0.000917296 -0.001 
0.000800767 0.00044758 -0.001 -0.000686682 0.000507104 -0.001 9.35831e-05 0.000110457 -0.001 
-0.000696793 -0.000509595 -0.001 -0.00068446 -8.52012e-05 -0.001 -0.000691033 -0.000201242 -0.001 
5.24052e-05 -0.000189075 -0.001 -0.000151818 -0.000701092 -0.001 -0.000296988 0.000518087 -0.001 
9.31023e-05 -0.000108117 -0.001 0.00044261 -0.000416726 -0.001 0.000197044 -0.000784423 -0.001 
-0.000516861 0.000504567 -0.001 0.000298997 0.000502377 -0.001 

CELLS 563 3941
6 14 304 127 29 554 377 
6 143 259 55 393 509 103 
6 300 319 174 550 569 424 
6 259 349 55 509 599 103 
6 50 365 307 98 615 557 
6 299 320 164 549 570 414 
6 126 304 14 376 554 29 
6 298 319 300 548 569 550 
6 205 240 238 455 490 488 
6 257 308 145 507 558 395 
6 130 352 273 380 602 523 
6 295 320 299 545 570 549 
6 324 327 289 574 577 539 
6 235 258 143 485 508 393 
6 50 307 49 98 557 97 
6 207 283 279 457 533 529 
6 143 373 235 393 623 485 
6 145 308 252 395 558 502 
6 194 303 196 444 553 446 
6 279 306 207 529 556 457 
6 206 305 163 456 555 413 
6 51 357 9 99 607 24 
6 238 252 205 488 502 455 
6 293 317 209 543 567 459 
6 207 316 283 457 566 533 
6 142 301 249 392 551 499 
6 273 359 130 523 609 380 
6 211 327 324 461 577 574 
6 169 265 217 419 515 467 
6 7 365 50 22 615 98 
6 283 316 253 533 566 503 
6 159 268 223 409 518 473 
6 274 337 132 524 587 382 
6 232 361 329 482 611 579 
6 231 266 45 481 516 93 
6 229 362 330 479 612 580 
6 9 244 57 24 494 105 
6 230 276 52 480 526 100 
6 209 311 293 459 561 543 
6 131 342 302 381 592 552 
6 270 271 204 520 521 454 
6 66 243 1 114 493 16 
6 59 241 12 107 491 27 
6 280 306 279 530 556 529 
6 269 337 274 519 587 524 
6 179 256 224 429 506 474 
6 163 305 166 413 555 416 
6 201 303 194 451 553 444 
6 280 332 306 530 582 556 
6 186 255 225 436 505 475 
6 210 310 273 460 560 523 
6 153 270 204 403 520 454 
6 136 231 45 386 481 93 
6 171 265 169 421 515 419 
6 138 230 52 388 480 100 
6 225 354 325 475 604 575 
6 36 284 232 84 534 482 
6 161 268 159 411 518 409 
6 71 286 229 119 536 479 
6 290 303 201 540 553 451 
6 139 355 60 389 605 108 
6 60 355 248 108 605 498 
6 273 352 302 523 602 552 
6 235 373 245 485 623 495 
6 67 356 247 115 606 497 
6 221 295 277 471 545 527 
6 142 356 67 392 606 115 
6 139 283 253 389 533 503 
6 203 315 262 453 565 512 
6 41 257 145 89 507 395 
6 36 232 135 84 482 385 
6 71 229 137 119 479 387 
6 254 255 188 504 505 438 
6 233 350 334 483 600 584 
6 262 346 203 512 596 453 
6 304 325 127 554 575 377 
6 222 329 247 472 579 497 
6 218 298 260 468 548 510 
6 290 321 291 540 571 541 
6 272 310 240 522 560 490 
6 269 274 270 519 524 520 
6 244 245 57 494 495 105 
6 49 307 141 97 557 391 
6 225 325 256 475 575 506 
6 273 310 272 523 560 522 
6 312 368 255 562 618 505 
6 249 305 206 499 555 456 
6 228 331 251 478 581 501 
6 302 342 263 552 592 513 
6 338 339 44 588 589 92 
6 190 254 188 440 504 438 
6 37 341 340 85 591 590 
6 138 233 230 388 483 480 
6 228 335 331 478 585 581 
6 181 256 179 431 506 429 
6 195 263 226 445 513 476 
6 268 285 223 518 535 473 
6 290 291 288 540 541 538 
6 219 330 248 469 580 498 
6 201 321 290 451 571 540 
6 240 310 202 490 560 452 
6 188 255 186 438 505 436 
6 270 274 271 520 524 521 
6 262 349 259 512 599 509 
6 141 324 289 391 574 539 
6 296 301 142 546 551 392 
6 247 356 222 497 606 472 
6 239 252 238 489 502 488 
6 254 312 255 504 562 505 
6 54 261 53 102 511 101 
6 289 327 303 539 577 553 
6 268 353 285 518 603 535 
6 273 302 210 523 552 460 
6 292 299 293 542 549 543 
6 278 283 139 528 533 389 
6 175 265 171 425 515 421 
6 227 338 38 477 588 86 
6 264 360 265 514 610 515 
6 43 340 146 91 590 396 
6 165 268 161 415 518 411 
6 205 351 240 455 601 490 
6 64 281 63 112 531 111 
6 288 291 47 538 541 95 
6 135 295 294 385 545 544 
6 42 257 41 90 507 89 
6 245 373 57 495 623 105 
6 31 363 323 79 613 573 
6 292 293 140 542 543 390 
6 267 353 268 517 603 518 
6 155 270 153 405 520 403 
6 244 344 245 494 594 495 
6 61 278 139 109 528 389 
6 135 294 35 385 544 83 
6 69 297 296 117 547 546 
6 186 225 184 436 475 434 
6 329 361 243 579 611 493 
6 255 328 225 505 578 475 
6 213 332 280 463 582 530 
6 39 275 133 87 525 383 
6 330 362 241 580 612 491 
6 195 226 193 445 476 443 
6 211 324 251 461 574 501 
6 151 153 152 401 403 402 
6 295 299 294 545 549 544 
6 265 313 217 515 563 467 
6 258 259 143 508 509 393 
6 251 331 211 501 581 461 
6 149 151 150 399 401 400 
6 293 370 317 543 620 567 
6 153 204 152 403 454 402 
6 151 152 150 401 402 400 
6 33 292 140 81 542 390 
6 210 263 197 460 513 447 
6 301 305 249 551 555 499 
6 298 300 297 548 550 547 
6 68 296 142 116 546 392 
6 321 369 291 571 619 541 
6 179 224 177 429 474 427 
6 167 267 165 417 517 415 
6 259 346 262 509 596 512 
6 303 327 196 553 577 446 
6 269 270 155 519 520 405 
6 265 360 313 515 610 563 
6 223 269 157 473 519 407 
6 157 269 155 407 519 405 
6 144 279 278 394 529 528 
6 169 217 167 419 467 417 
6 177 264 175 427 514 425 
6 267 268 165 517 518 415 
6 159 223 157 409 473 407 
6 232 277 135 482 527 385 
6 193 254 190 443 504 440 
6 217 267 167 467 517 417 
6 249 356 142 499 606 392 
6 184 256 181 434 506 431 
6 248 355 219 498 605 469 
6 229 260 137 479 510 387 
6 149 150 148 399 400 398 
6 64 348 281 112 598 531 
6 311 374 293 561 624 543 
6 264 265 175 514 515 425 
6 297 300 296 547 550 546 
6 141 289 288 391 539 538 
6 197 263 195 447 513 445 
6 218 260 219 468 510 469 
6 224 264 177 474 514 427 
6 137 298 297 387 548 547 
6 277 295 135 527 545 385 
6 133 228 227 383 478 477 
6 261 349 262 511 599 512 
6 221 277 222 471 527 472 
6 256 325 224 506 575 474 
6 199 210 197 449 460 447 
6 226 254 193 476 504 443 
6 144 278 62 394 528 110 
6 279 283 278 529 533 528 
6 289 290 288 539 540 538 
6 137 297 70 387 547 118 
6 34 294 292 82 544 542 
6 235 236 216 485 486 466 
6 141 288 48 391 538 96 
6 178 306 180 428 556 430 
6 185 186 184 435 436 434 
6 63 281 144 111 531 394 
6 225 256 184 475 506 434 
6 46 291 136 94 541 386 
6 147 149 148 397 399 398 
6 271 272 204 521 522 454 
6 233 334 234 483 584 484 
6 145 275 40 395 525 88 
6 220 322 287 470 572 537 
6 280 334 213 530 584 463 
6 144 280 279 394 530 529 
6 140 287 32 390 537 80 
6 154 155 153 404 405 403 
6 334 350 213 584 600 463 
6 176 177 175 426 427 425 
6 260 298 137 510 548 387 
6 33 140 32 81 390 80 
6 49 141 48 97 391 96 
6 56 143 55 104 393 103 
6 68 142 67 116 392 115 
6 63 144 62 111 394 110 
6 61 139 60 109 389 108 
6 148 308 257 398 558 507 
6 71 137 70 119 387 118 
6 53 138 52 101 388 100 
6 46 136 45 94 386 93 
6 36 135 35 84 385 83 
6 43 146 134 91 396 384 
6 133 227 38 383 477 86 
6 192 193 190 442 443 440 
6 293 374 140 543 624 390 
6 34 292 33 82 542 81 
6 207 306 178 457 556 428 
6 43 134 42 91 384 90 
6 39 133 38 87 383 86 
6 41 145 40 89 395 88 
6 194 195 193 444 445 443 
6 69 296 68 117 546 116 
6 294 299 292 544 549 542 
6 173 175 171 423 425 421 
6 260 330 219 510 580 469 
6 183 184 181 433 434 431 
6 134 257 42 384 507 90 
6 55 349 54 103 599 102 
6 163 165 161 413 415 411 
6 166 167 165 416 417 415 
6 210 302 263 460 552 513 
6 271 273 272 521 523 522 
6 53 261 138 101 511 388 
6 217 326 267 467 576 517 
6 289 303 290 539 553 540 
6 178 179 177 428 429 427 
6 238 240 202 488 490 452 
6 62 278 61 110 528 109 
6 35 294 34 83 544 82 
6 284 361 232 534 611 482 
6 70 297 69 118 547 117 
6 224 304 264 474 554 514 
6 156 157 155 406 407 405 
6 48 288 47 96 538 95 
6 221 320 295 471 570 545 
6 187 188 186 437 438 436 
6 47 291 46 95 541 94 
6 151 154 153 401 404 403 
6 286 362 229 536 612 479 
6 168 169 167 418 419 417 
6 40 275 39 88 525 87 
6 307 324 141 557 574 391 
6 300 301 296 550 551 546 
6 32 287 31 80 537 79 
6 147 220 149 397 470 399 
6 333 344 231 583 594 481 
6 299 370 293 549 620 543 
6 271 359 273 521 609 523 
6 224 325 304 474 575 554 
6 228 237 227 478 487 477 
6 305 375 343 555 625 593 
6 218 319 298 468 569 548 
6 240 351 272 490 601 522 
6 277 329 222 527 579 472 
6 253 355 139 503 605 389 
6 158 159 157 408 409 407 
6 236 246 216 486 496 466 
6 192 194 193 442 444 443 
6 220 309 149 470 559 399 
6 183 185 184 433 435 434 
6 196 197 195 446 447 445 
6 276 347 58 526 597 106 
6 136 333 231 386 583 481 
6 67 247 66 115 497 114 
6 60 248 59 108 498 107 
6 261 262 250 511 512 500 
6 173 176 175 423 426 425 
6 344 357 231 594 607 481 
6 144 281 280 394 531 530 
6 152 205 150 402 455 400 
6 163 166 165 413 416 415 
6 185 187 186 435 437 436 
6 233 234 230 483 484 480 
6 170 171 169 420 421 419 
6 146 147 134 396 397 384 
6 176 178 177 426 428 427 
6 285 337 223 535 587 473 
6 154 156 155 404 406 405 
6 263 342 226 513 592 476 
6 235 245 236 485 495 486 
6 160 161 159 410 411 409 
6 58 347 242 106 597 492 
6 166 168 167 416 418 417 
6 287 374 220 537 624 470 
6 189 190 188 439 440 438 
6 148 257 134 398 507 384 
6 194 196 195 444 446 445 
6 252 308 205 502 558 455 
6 285 345 337 535 595 587 
6 301 375 305 551 625 555 
6 180 181 179 430 431 429 
6 281 348 234 531 598 484 
6 198 199 197 448 449 447 
6 151 309 154 401 559 404 
6 228 367 335 478 617 585 
6 54 349 261 102 599 511 
6 156 158 157 406 408 407 
6 168 170 169 418 420 419 
6 200 202 199 450 452 449 
6 147 148 134 397 398 384 
6 158 160 159 408 410 409 
6 150 308 148 400 558 398 
6 253 316 208 503 566 458 
6 232 329 277 482 579 527 
6 178 180 179 428 430 429 
6 191 192 190 441 442 440 
6 214 238 202 464 488 452 
6 172 173 171 422 423 421 
6 187 189 188 437 439 438 
6 162 163 161 412 413 411 
6 228 251 237 478 501 487 
6 215 258 235 465 508 485 
6 182 183 181 432 433 431 
6 202 310 199 452 560 449 
6 219 253 208 469 503 458 
6 222 249 206 472 499 456 
6 196 198 197 446 448 447 
6 229 330 260 479 580 510 
6 132 358 274 382 608 524 
6 149 309 151 399 559 401 
6 226 312 254 476 562 504 
6 154 309 209 404 559 459 
6 77 129 76 125 379 124 
6 73 128 72 121 378 120 
6 76 131 75 124 381 123 
6 74 132 73 122 382 121 
6 75 130 74 123 380 122 
6 14 127 77 29 377 125 
6 72 126 14 120 376 29 
6 133 367 228 383 617 478 
6 237 282 227 487 532 477 
6 239 366 252 489 616 502 
6 200 214 202 450 464 452 
6 192 201 194 442 451 444 
6 170 172 171 420 422 421 
6 220 311 309 470 561 559 
6 198 200 199 448 450 449 
6 189 191 190 439 441 440 
6 146 323 322 396 573 572 
6 160 162 161 410 412 411 
6 251 307 237 501 557 487 
6 199 310 210 449 560 460 
6 57 373 56 105 623 104 
6 214 239 238 464 489 488 
6 182 212 183 432 462 433 
6 180 182 181 430 432 431 
6 146 322 147 396 572 397 
6 172 218 208 422 468 458 
6 172 208 173 422 458 423 
6 162 221 206 412 471 456 
6 162 206 163 412 456 413 
6 176 207 178 426 457 428 
6 272 351 204 522 601 454 
6 198 211 200 448 461 450 
6 182 213 212 432 463 462 
6 234 334 281 484 584 531 
6 154 209 156 404 459 406 
6 185 203 187 435 453 437 
6 168 174 170 418 424 420 
6 189 215 191 439 465 441 
6 215 216 191 465 466 441 
6 221 222 206 471 472 456 
6 158 164 160 408 414 410 
6 218 219 208 468 469 458 
6 205 308 150 455 558 400 
6 191 314 192 441 564 442 
6 215 235 216 465 485 466 
6 215 318 258 465 568 508 
6 152 351 205 402 601 455 
6 138 261 250 388 511 500 
6 192 314 201 442 564 451 
6 234 347 230 484 597 480 
6 226 342 312 476 592 562 
6 138 250 233 388 500 483 
6 147 322 220 397 572 470 
6 216 314 191 466 564 441 
6 306 332 180 556 582 430 
6 222 356 249 472 606 499 
6 128 345 285 378 595 535 
6 314 321 201 564 571 451 
6 212 315 183 462 565 433 
6 312 342 336 562 592 586 
6 282 339 338 532 589 588 
6 340 341 323 590 591 573 
6 309 311 209 559 561 459 
6 183 315 185 433 565 435 
6 208 316 173 458 566 423 
6 173 316 176 423 566 426 
6 3 341 37 18 591 85 
6 44 339 6 92 589 21 
6 252 366 145 502 616 395 
6 246 321 314 496 571 564 
6 246 314 216 496 564 466 
6 126 364 313 376 614 563 
6 156 317 158 406 567 408 
6 275 367 133 525 617 383 
6 176 316 207 426 566 457 
6 185 315 203 435 565 453 
6 180 332 182 430 582 432 
6 302 352 131 552 602 381 
6 251 324 307 501 574 557 
6 187 318 189 437 568 439 
6 172 319 218 422 569 468 
6 162 320 221 412 570 471 
6 305 343 166 555 593 416 
6 170 319 172 420 569 422 
6 158 317 164 408 567 414 
6 209 317 156 459 567 406 
6 285 353 128 535 603 378 
6 223 337 269 473 587 519 
6 160 320 162 410 570 412 
6 211 331 200 461 581 450 
6 174 319 170 424 569 420 
6 203 318 187 453 568 437 
6 189 318 215 439 568 465 
6 198 327 211 448 577 461 
6 164 320 160 414 570 410 
6 326 353 267 576 603 517 
6 236 344 333 486 594 583 
6 196 327 198 446 577 448 
6 219 355 253 469 605 503 
6 281 334 280 531 584 530 
6 274 359 271 524 609 521 
6 164 370 299 414 620 549 
6 174 375 300 424 625 550 
6 287 363 31 537 613 79 
6 243 361 1 493 611 16 
6 241 362 12 491 612 27 
6 307 365 237 557 615 487 
6 166 343 168 416 593 418 
6 200 331 214 450 581 464 
6 313 326 217 563 576 467 
6 9 357 244 24 607 494 
6 1 361 30 16 611 78 
6 12 362 65 27 612 113 
6 337 345 132 587 595 382 
6 242 348 64 492 598 112 
6 231 357 266 481 607 516 
6 182 332 213 432 582 463 
6 245 344 236 495 594 486 
6 258 346 259 508 596 509 
6 145 366 275 395 616 525 
6 291 369 136 541 619 386 
6 236 333 246 486 583 496 
6 331 335 214 581 585 464 
6 312 336 129 562 586 379 
6 315 372 262 565 622 512 
6 220 374 311 470 624 561 
6 140 374 287 390 624 537 
6 126 360 304 376 610 554 
6 230 347 276 480 597 526 
6 313 364 326 563 614 576 
6 56 373 143 104 623 393 
6 239 367 366 489 617 616 
6 204 351 152 454 601 402 
6 300 375 301 550 625 551 
6 214 335 239 464 585 489 
6 247 329 243 497 579 493 
6 262 372 250 512 622 500 
6 248 330 241 498 580 491 
6 318 346 258 568 596 508 
6 333 369 246 583 619 496 
6 282 338 227 532 588 477 
6 146 340 323 396 590 573 
6 304 360 264 554 610 514 
6 366 367 275 616 617 525 
6 129 336 76 379 586 124 
6 73 345 128 121 595 378 
6 76 336 131 124 586 381 
6 250 350 233 500 600 483 
6 129 371 328 379 621 578 
6 132 345 73 382 595 121 
6 168 343 174 418 593 424 
6 131 352 75 381 602 123 
6 66 247 243 114 497 493 
6 59 248 241 107 498 491 
6 74 358 132 122 608 382 
6 203 346 318 453 596 568 
6 313 360 126 563 610 376 
6 128 364 72 378 614 120 
6 128 353 326 378 603 576 
6 77 371 129 125 621 379 
6 129 368 312 379 618 562 
6 244 357 344 494 607 594 
6 328 354 225 578 604 475 
6 326 364 128 576 614 378 
6 75 352 130 123 602 380 
6 350 372 212 600 622 462 
6 136 369 333 386 619 583 
6 325 354 127 575 604 377 
6 213 350 212 463 600 462 
6 130 358 74 380 608 122 
6 250 372 350 500 622 600 
6 317 370 164 567 620 414 
6 72 364 126 120 614 376 
6 328 368 129 578 618 379 
6 127 371 77 377 621 125 
6 336 342 131 586 592 381 
6 212 372 315 462 622 565 
6 234 348 347 484 598 597 
6 8 266 51 23 516 99 
6 10 276 58 25 526 106 
6 246 369 321 496 619 571 
6 30 284 0 78 534 15 
6 65 286 13 113 536 28 
6 58 242 11 106 492 26 
6 266 357 51 516 607 99 
6 255 368 328 505 618 578 
6 347 348 242 597 598 492 
6 322 363 287 572 613 537 
6 323 363 322 573 613 572 
6 335 367 239 585 617 489 
6 30 361 284 78 611 534 
6 65 362 286 113 612 536 
6 237 365 282 487 615 532 
6 130 359 358 380 609 608 
6 343 375 174 593 625 424 
6 354 371 127 604 621 377 
6 328 371 354 578 621 604 
6 358 359 274 608 609 524 
6 0 284 36 15 534 84 
6 45 266 8 93 516 23 
6 52 276 10 100 526 25 
6 11 242 64 26 492 112 
6 13 286 71 28 536 119 
6 2 323 3 17 573 18 
6 31 323 2 79 573 17 
6 323 341 3 573 591 18 
6 37 340 4 85 590 19 
6 4 340 43 19 590 91 
6 38 338 5 86 588 20 
6 5 338 44 20 588 92 
6 6 282 7 21 532 22 
6 6 339 282 21 589 532 
6 282 365 7 532 615 22 

CELL_TYPES 563
13
13
13
13
13
13
13
13
13
13
13
13
13
13
13
13
13
13
13
13
13
13
13
13
13
13
13
13
13
13
13
13
13
13
13
13
13
13
13
13
13
13
13
13
13
13
13
13
13
13
13
13
13
13
13
13
13
13
13
13
13
13
13
13
13
13
13
13
13
13
13
13
13
13
13
13
13
13
13
13
13
13
13
13
13
13
13
13
13
13
13
13
13
13
13
13
13
13
13
13
13
13
13
13
13
13
13
13
13
13
13
13
13
13
13
13
13
13
13
13
13
13
13
13
13
13
13
13
13
13
13
13
13
13
13
13
13
13
13
13
13
13
13
13
13
13
13
13
13
13
13
13
13
13
13
13
13
13
13
13
13
13
13
13
13
13
13
13
13
13
13
13
13
13
13
13
13
13
13
13
13
13
13
13
13
13
13
13
13
13
13
13
13
13
13
13
13
13
13
13
13
13
13
13
13
13
13
13
13
13
13
13
13
13
13
13
13
13
13
13
13
13
13
13
13
13
13
13
13
13
13
13
13
13
13
13
13
13
13
13
13
13
13
13
13
13
13
13
13
13
13
13
13
13
13
13
13
13
13
13
13
13
13
13
13
13
13
13
13
13
13
13
13
13
13
13
13
13
13
13
13
13
13
13
13
13
13
13
13
13
13
13
13
13
13
13
13
13
13
13
13
13
13
13
13
13
13
13
13
13
13
13
13
13
13
13
13
13
13
13
13
13
13
13
13
13
13
13
13
13
13
13
13
13
13
13
13
13
13
13
13
13
13
13
13
13
13
13
13
13
13
13
13
13
13
13
13
13
13
13
13
13
13
13
13
13
13
13
13
13
13
13
13
13
13
13
13
13
13
13
13
13
13
13
13
13
13
13
13
13
13
13
13
13
13
13
13
13
13
13
13
13
13
13
13
13
13
13
13
13
13
13
13
13
13
13
13
13
13
13
13
13
13
13
13
13
13
13
13
13
13
13
13
13
13
13
13
13
13
13
13
13
13
13
13
13
13
13
13
13
13
13
13
13
13
13
13
13
13
13
13
13
13
13
13
13
13
13
13
13
13
13
13
13
13
13
13
13
13
13
13
13
13
13
13
13
13
13
13
13
13
13
13
13
13
13
13
13
13
13
13
13
13
13
13
13
13
13
13
13
13
13
13
13
13
13
13
13
13
13
13
13
13
13
13
13
13
13
13
13
13
13
13
13
13
13
13
13
13
13
13
13
13
13
13
13
13
13
13
13
13
13
13
13
13
13
13
13
13
13
13
13
13

POINT_DATA 626
VECTORS displacement float
-1.74395e-06 3.09542e-05 1.80549e-05
1.73566e-06 3.09732e-05 1.81e-05
-2.5986e-05 1.69927e-05 1.80869e-05
-2.58407e-05 1.60329e-05 1.80515e-05
-2.77204e-05 1.39726e-05 1.80689e-05
-2.77134e-05 -1.40189e-05 1.80944e-05
-2.58119e-05 -1.6071e-05 1.81057e-05
-2.59822e-05 -1.70108e-05 1.81669e-05
-1.67741e-06 -3.09579e-05 1.80513e-05
1.75545e-06 -3.09594e-05 1.81017e-05
2.59434e-05 -1.69805e-05 1.80434e-05
2.77168e-05 -1.39365e-05 1.80432e-05
2.76722e-05 1.39893e-05 1.80915e-05
2.59147e-05 1.69928e-05 1.80459e-05
0 0 0
-1.74395e-06 3.09542e-05 -1.80549e-05
1.73566e-06 3.09732e-05 -1.81e-05
-2.5986e-05 1.69927e-05 -1.80869e-05
-2.58407e-05 1.60329e-05 -1.80515e-05
-2.77204e-05 1.39726e-05 -1.80689e-05
-2.77134e-05 -1.40189e-05 -1.80944e-05
-2.58119e-05 -1.6071e-05 -1.81057e-05
-2.59822e-05 -1.70108e-05 -1.81669e-05
-1.67741e-06 -3.09579e-05 -1.80513e-05
1.75545e-06 -3.09594e-05 -1.81017e-05
2.59434e-05 -1.69805e-05 -1.80434e-05
2.77168e-05 -1.39365e-05 -1.80432e-05
2.76722e-05 1.39893e-05 -1.80915e-05
2.59147e-05 1.69928e-05 -1.80459e-05
0 0 0
2.48956e-08 3.0154e-05 1.80341e-05
-2.11403e-05 1.87122e-05 1.75496e-05
-1.72323e-05 1.98336e-05 1.69206e-05
-1.40068e-05 2.1054e-05 1.65547e-05
-1.12067e-05 2.26645e-05 1.65486e-05
-8.524e-06 2.48325e-05 1.69011e-05
-5.56776e-06 2.76214e-05 1.75373e-05
-2.64496e-05 1.4679e-05 1.80333e-05
-2.67685e-05 -9.01139e-06 1.75772e-05
-2.58059e-05 -5.03538e-06 1.69258e-05
-2.52541e-05 -1.63618e-06 1.65712e-05
-2.52571e-05 1.60782e-06 1.65741e-05
-2.57982e-05 5.02278e-06 1.6924e-05
-2.67546e-05 8.98448e-06 1.75637e-05
-2.64365e-05 -1.47253e-05 1.80621e-05
-5.54102e-06 -2.76359e-05 1.75295e-05
-8.47652e-06 -2.48416e-05 1.69005e-05
-1.11699e-05 -2.2684e-05 1.65559e-05
-1.39704e-05 -2.1087e-05 1.65593e-05
-1.72147e-05 -1.9869e-05 1.69365e-05
-2.11339e-05 -1.8749e-05 1.7562e-05
8.98415e-08 -3.01388e-05 1.80292e-05
2.11237e-05 -1.86246e-05 1.75113e-05
1.72445e-05 -1.9762e-05 1.68726e-05
1.40337e-05 -2.10109e-05 1.65114e-05
1.12249e-05 -2.25927e-05 1.65459e-05
8.58116e-06 -2.47798e-05 1.6874e-05
5.65465e-06 -2.76261e-05 1.75348e-05
2.61243e-05 -1.50595e-05 1.80282e-05
2.67165e-05 8.93827e-06 1.75013e-05
2.57217e-05 5.0495e-06 1.69082e-05
2.52062e-05 1.62329e-06 1.6523e-05
2.52033e-05 -1.5994e-06 1.65213e-05
2.57504e-05 -4.99729e-06 1.68881e-05
2.66986e-05 -8.91702e-06 1.75095e-05
2.61074e-05 1.50607e-05 1.80252e-05
5.63311e-06 2.76175e-05 1.75094e-05
8.50853e-06 2.48065e-05 1.6911e-05
1.12169e-05 2.26407e-05 1.65291e-05
1.40043e-05 2.10219e-05 1.65245e-05
1.72215e-05 1.97932e-05 1.68849e-05
2.11147e-05 1.86342e-05 1.75252e-05
0 0 0
0 0 0
0 0 0
0 0 0
0 0 0
0 0 0
2.48956e-08 3.0154e-05 -1.80341e-05
-2.11403e-05 1.87122e-05 -1.75496e-05
-1.72323e-05 1.98336e-05 -1.69206e-05
-1.40068e-05 2.1054e-05 -1.65547e-05
-1.12067e-05 2.26645e-05 -1.65486e-05
-8.524e-06 2.48325e-05 -1.69011e-05
-5.56776e-06 2.76214e-05 -1.75373e-05
-2.64496e-05 1.4679e-05 -1.80333e-05
-2.67685e-05 -9.01139e-06 -1.75772e-05
-2.58059e-05 -5.03538e-06 -1.69258e-05
-2.52541e-05 -1.63618e-06 -1.65712e-05
-2.52571e-05 1.60782e-06 -1.65741e-05
-2.57982e-05 5.02278e-06 -1.6924e-05
-2.67546e-05 8.98448e-06 -1.75637e-05
-2.64365e-05 -1.47253e-05 -1.80621e-05
-5.54102e-06 -2.76359e-05 -1.75295e-05
-8.47652e-06 -2.48416e-05 -1.69005e-05
-1.11699e-05 -2.2684e-05 -1.65559e-05
-1.39704e-05 -2.1087e-05 -1.65593e-05
-1.72147e-05 -1.9869e-05 -1.69365e-05
-2.11339e-05 -1.8749e-05 -1.7562e-05
8.98415e-08 -3.01388e-05 -1.80292e-05
2.11237e-05 -1.86246e-05 -1.75113e-05
1.72445e-05 -1.9762e-05 -1.68726e-05
1.40337e-05 -2.10109e-05 -1.65114e-05
1.12249e-05 -2.25927e-05 -1.65459e-05
8.58116e-06 -2.47798e-05 -1.6874e-05
5.65465e-06 -2.76261e-05 -1.75348e-05
2.61243e-05 -1.50595e-05 -1.80282e-05
2.67165e-05 8.93827e-06 -1.75013e-05
2.57217e-05 5.0495e-06 -1.69082e-05
2.52062e-05 1.62329e-06 -1.6523e-05
2.52033e-05 -1.5994e-06 -1.65213e-05
2.57504e-05 -4.99729e-06 -1.68881e-05
2.66986e-05 -8.91702e-06 -1.75095e-05
2.61074e-05 1.50607e-05 -1.80252e-05
5.63311e-06 2.76175e-05 -1.75094e-05
8.50853e-06 2.48065e-05 -1.6911e-05
1.12169e-05 2.26407e-05 -1.65291e-05
1.40043e-05 2.10219e-05 -1.65245e-05
1.72215e-05 1.97932e-05 -1.68849e-05
2.11147e-05 1.86342e-05 -1.75252e-05
0 0 0
0 0 0
0 0 0
0 0 0
0 0 0
0 0 0
1.79366e-06 8.58737e-07 4.55218e-06
1.7378e-06 -8.25105e-07 4.46074e-06
4.31949e-07 1.8496e-06 4.49505e-06
4.36093e-07 -1.78061e-06 4.35602e-06
-1.84747e-06 2.09628e-08 4.4223e-06
-1.12308e-06 -1.30886e-06 4.15094e-06
-1.1592e-06 1.30678e-06 4.19972e-06
-2.25128e-05 -7.28756e-06 1.69997e-05
-2.21961e-05 7.37145e-06 1.69684e-05
-4.86039e-06 2.28982e-05 1.69368e-05
-4.8579e-06 -2.31313e-05 1.69637e-05
1.7421e-05 1.56353e-05 1.69296e-05
1.75685e-05 -1.55362e-05 1.69389e-05
2.10732e-05 3.16383e-06 1.63241e-05
-1.39529e-05 1.7151e-05 1.64781e-05
-1.3591e-05 -1.6741e-05 1.64097e-05
7.76774e-06 1.98192e-05 1.63309e-05
7.68476e-06 -2.03096e-05 1.64022e-05
2.1472e-05 -3.44367e-06 1.63999e-05
-2.11024e-05 6.58808e-09 1.62464e-05
-2.24201e-05 1.09996e-05 1.74534e-05
-1.87506e-05 9.25456e-06 1.66268e-05
-1.79825e-05 5.79536e-06 1.6036e-05
-1.49837e-05 7.44822e-06 1.54861e-05
-1.42242e-05 4.30765e-06 1.48294e-05
-1.15324e-05 5.7438e-06 1.40944e-05
-1.08579e-05 3.06869e-06 1.33732e-05
-8.40036e-06 4.30481e-06 1.2404e-05
-9.05866e-06 7.0133e-06 1.3456e-05
-6.20401e-06 5.48843e-06 1.16887e-05
-6.8282e-06 8.24932e-06 1.30796e-05
-4.28133e-06 6.67481e-06 1.14502e-05
-4.79994e-06 9.60978e-06 1.30936e-05
-2.40084e-06 7.99323e-06 1.17227e-05
-2.81281e-06 1.11671e-05 1.34746e-05
-4.75403e-07 9.59515e-06 1.25007e-05
-7.38342e-07 1.29967e-05 1.41414e-05
1.73105e-06 1.15176e-05 1.35347e-05
-5.5346e-06 1.27002e-05 1.44366e-05
1.68505e-06 8.22385e-06 1.17473e-05
4.00412e-06 1.01207e-05 1.31506e-05
3.7053e-06 7.09785e-06 1.14779e-05
6.06731e-06 8.96653e-06 1.3113e-05
5.76674e-06 6.1067e-06 1.17353e-05
8.35796e-06 8.0202e-06 1.34917e-05
8.10553e-06 5.19519e-06 1.25e-05
1.09538e-05 7.09694e-06 1.41466e-05
1.07458e-05 4.32273e-06 1.34987e-05
8.53039e-06 1.10373e-05 1.44604e-05
7.93758e-06 2.64371e-06 1.17271e-05
1.06459e-05 1.73717e-06 1.31037e-05
7.94857e-06 3.58755e-07 1.14553e-05
1.08062e-05 -7.59101e-07 1.31238e-05
8.11152e-06 -1.93777e-06 1.17088e-05
1.10981e-05 -3.3128e-06 1.34836e-05
8.46961e-06 -4.42391e-06 1.24437e-05
1.15035e-05 -6.00279e-06 1.41091e-05
8.95544e-06 -7.138e-06 1.34277e-05
6.14743e-06 -5.49434e-06 1.1641e-05
6.6444e-06 -8.30074e-06 1.30179e-05
4.10515e-06 -6.58842e-06 1.13106e-05
4.52329e-06 -9.55073e-06 1.2988e-05
2.24226e-06 -7.85817e-06 1.15971e-05
2.4848e-06 -1.10017e-05 1.33506e-05
2.25288e-07 -9.37355e-06 1.23533e-05
3.30009e-07 -1.27696e-05 1.40335e-05
-1.91541e-06 -1.11505e-05 1.33767e-05
-1.84104e-06 -7.92151e-06 1.15819e-05
-4.16784e-06 -9.87471e-06 1.30847e-05
-3.81389e-06 -6.73041e-06 1.13168e-05
-6.34553e-06 -8.6619e-06 1.3099e-05
-5.89122e-06 -5.69793e-06 1.16281e-05
-8.4996e-06 -7.43569e-06 1.33794e-05
-8.16743e-06 -4.72799e-06 1.24083e-05
-1.10955e-05 -6.40268e-06 1.40696e-05
-4.37159e-06 -1.3123e-05 1.44334e-05
-1.08087e-05 -3.65063e-06 1.34389e-05
7.22602e-06 -1.13726e-05 1.42727e-05
-7.7416e-06 1.98266e-06 1.14927e-05
-1.32159e-05 1.03504e-06 1.42106e-05
1.7291e-06 1.50826e-05 1.49519e-05
1.37679e-05 4.62231e-07 1.43875e-05
1.3843e-05 6.10002e-06 1.49314e-05
-9.69393e-06 1.01961e-05 1.45322e-05
-5.41594e-06 -3.19762e-06 1.01819e-05
-1.17134e-05 -9.29722e-06 1.4889e-05
1.18822e-05 -8.76009e-06 1.47869e-05
1.47816e-05 -7.47351e-06 1.54031e-05
-1.39596e-05 -5.24382e-06 1.48614e-05
2.79579e-06 -1.4516e-05 1.4796e-05
4.24559e-07 -1.64992e-05 1.53975e-05
3.51839e-06 4.39689e-06 9.58095e-06
1.40104e-05 9.29894e-06 1.54914e-05
1.79306e-05 8.14486e-06 1.63004e-05
-1.56753e-05 1.13952e-05 1.62333e-05
-1.09407e-06 1.67689e-05 1.54951e-05
1.90684e-06 1.96214e-05 1.63108e-05
-2.09185e-06 5.22002e-06 9.59745e-06
5.55388e-06 -7.84595e-07 9.59399e-06
3.58591e-06 -3.68352e-06 9.08184e-06
-1.77962e-06 -5.17852e-06 9.44946e-06
-2.24685e-05 -1.10107e-05 1.74742e-05
-1.8798e-05 -9.24131e-06 1.66509e-05
2.11476e-05 1.41646e-05 1.75054e-05
2.07535e-05 -1.43175e-05 1.74354e-05
-1.76459e-06 -2.54462e-05 1.75108e-05
-1.68212e-06 2.54103e-05 1.75154e-05
1.77128e-05 -1.19067e-05 1.6687e-05
2.06455e-05 -1.0751e-05 1.71158e-05
3.7756e-06 -1.89849e-05 1.61392e-05
7.68524e-07 -2.03455e-05 1.64827e-05
-1.94049e-05 -1.26504e-05 1.7143e-05
-1.37309e-05 -2.3069e-06 1.44717e-05
-1.65925e-05 -3.70138e-06 1.54773e-05
-1.03757e-05 -1.09637e-06 1.29519e-05
2.44518e-05 1.10727e-05 1.76515e-05
2.54973e-05 -1.24031e-05 1.7848e-05
2.64924e-06 2.67257e-05 1.76603e-05
2.52099e-06 -2.64133e-05 1.76292e-05
3.33944e-06 -2.30316e-05 1.70289e-05
-2.05387e-06 -1.83197e-05 1.59507e-05
4.05903e-06 2.37911e-05 1.71302e-05
2.26139e-05 8.37913e-06 1.71191e-05
4.61355e-06 1.73131e-05 1.57271e-05
1.44268e-05 -1.31193e-05 1.61372e-05
-1.57875e-05 -1.09846e-05 1.62143e-05
-1.67995e-05 -3.81422e-07 1.53771e-05
1.73057e-05 4.68741e-06 1.57254e-05
6.55213e-08 -6.38722e-06 1.02673e-05
1.74169e-06 -4.8484e-06 9.09234e-06
5.85038e-06 -2.93547e-06 1.0378e-05
-2.14439e-05 3.75044e-06 1.64586e-05
5.72928e-06 -1.62742e-05 1.55075e-05
9.08333e-06 -1.74988e-05 1.59973e-05
1.75719e-05 1.18815e-05 1.66721e-05
1.3994e-05 -1.6382e-05 1.6401e-05
1.07398e-05 -1.37888e-05 1.55499e-05
-3.54792e-06 -4.22013e-06 9.50061e-06
5.39904e-06 1.13848e-06 9.49889e-06
5.21798e-06 3.22283e-06 1.00471e-05
-1.74978e-06 -2.83542e-05 1.78767e-05
1.89203e-06 5.29882e-06 9.58429e-06
-1.13822e-07 6.10492e-06 1.00386e-05
-3.78487e-06 4.12768e-06 9.57825e-06
-5.6226e-06 3.03414e-06 1.02851e-05
-5.1654e-06 1.04066e-06 9.21346e-06
-7.52713e-06 -6.17382e-08 1.11722e-05
-4.33431e-06 -8.10267e-07 8.38172e-06
-3.10855e-06 1.87231e-06 7.37395e-06
-2.20808e-05 -3.60769e-06 1.65156e-05
2.34059e-05 -1.56878e-05 1.78359e-05
-1.50718e-06 2.11676e-05 1.66818e-05
2.12613e-05 -8.45181e-08 1.62255e-05
1.76218e-05 -1.64677e-06 1.55812e-05
1.73474e-05 -4.94159e-06 1.57704e-05
2.18912e-05 -7.45099e-06 1.69134e-05
-2.31819e-05 -1.42544e-05 1.78325e-05
1.73243e-05 1.64884e-06 1.55083e-05
-1.73399e-06 2.84727e-05 1.78939e-05
-4.22066e-07 3.68337e-06 7.49518e-06
2.37716e-05 1.57421e-05 1.78844e-05
-1.74971e-05 1.5642e-05 1.69747e-05
-1.0626e-05 -1.84658e-05 1.62548e-05
-1.00994e-05 -1.43421e-05 1.55714e-05
-7.50765e-06 -1.60946e-05 1.56218e-05
-7.32202e-06 -2.01202e-05 1.6395e-05
-1.07043e-05 1.85349e-05 1.62665e-05
-1.03472e-05 1.43839e-05 1.56191e-05
-7.77253e-06 2.04921e-05 1.6444e-05
-4.25293e-06 1.86094e-05 1.60527e-05
1.07595e-05 1.83451e-05 1.62259e-05
1.38914e-05 1.69346e-05 1.64308e-05
1.40417e-05 1.29727e-05 1.60511e-05
-7.36146e-06 1.6288e-05 1.56383e-05
1.0525e-05 1.45468e-05 1.5645e-05
7.74863e-06 1.6092e-05 1.56137e-05
-3.11642e-06 -1.89874e-06 7.39307e-06
-7.25753e-06 -1.24218e-05 1.46249e-05
3.00862e-06 4.03597e-08 6.60088e-06
4.8725e-06 1.35225e-05 1.46179e-05
1.40758e-05 -2.26035e-06 1.45702e-05
-1.72895e-05 -1.52165e-05 1.69453e-05
-1.73662e-05 2.42027e-06 1.55976e-05
-1.22045e-05 8.9118e-06 1.49433e-05
-7.70552e-06 -2.29249e-06 1.15545e-05
-1.24496e-05 1.18125e-05 1.55398e-05
-1.42734e-07 -3.75418e-06 7.55407e-06
2.7302e-06 2.27205e-06 7.25182e-06
-2.00383e-06 -1.46503e-05 1.48078e-05
9.36495e-06 -1.00681e-05 1.43892e-05
1.38605e-05 3.15777e-06 1.45659e-05
-7.33993e-06 1.11992e-05 1.42601e-05
4.99715e-06 -1.27746e-05 1.43691e-05
1.10317e-05 1.04304e-05 1.49194e-05
-3.59639e-06 1.46851e-05 1.49078e-05
-4.6354e-06 -1.66166e-05 1.55486e-05
-1.95068e-05 1.28923e-05 1.71611e-05
-2.31267e-05 1.4858e-05 1.78433e-05
-1.29048e-05 -1.26859e-05 1.58123e-05
3.76076e-06 -1.58611e-06 7.90684e-06
1.76437e-06 2.92225e-06 7.08434e-06
-9.23035e-06 -1.06093e-05 1.45316e-05
1.72772e-06 -2.82313e-06 6.93097e-06
9.94724e-07 2.41166e-05 1.73083e-05
2.13677e-05 1.11937e-05 1.72985e-05
-1.46644e-05 -7.95329e-06 1.54852e-05
1.37079e-05 -4.78626e-06 1.46904e-05
-1.90986e-06 -2.17627e-05 1.68026e-05
1.80602e-05 -8.41896e-06 1.63405e-05
-1.66787e-05 -6.32849e-06 1.57822e-05
-4.32896e-07 -1.9223e-06 4.79841e-06
-1.80535e-06 2.99541e-06 7.17708e-06
-2.50518e-05 -1.29817e-05 1.79222e-05
-2.5127e-05 -1.45071e-05 1.8002e-05
-2.50449e-05 1.30336e-05 1.79059e-05
-2.51178e-05 1.46498e-05 1.7982e-05
-1.64844e-06 -3.12481e-06 7.20982e-06
6.32787e-06 1.13682e-05 1.40764e-05
5.33708e-07 -2.40858e-05 1.73021e-05
-5.22773e-07 1.80953e-06 4.64495e-06
7.40737e-06 -1.43435e-05 1.51522e-05
2.33026e-05 -1.32092e-05 1.77287e-05
2.36324e-05 -1.05374e-05 1.74907e-05
1.19883e-05 -1.82107e-05 1.62931e-05
1.473e-05 -1.01465e-05 1.57954e-05
-1.0027e-05 1.00123e-06 1.27545e-05
-1.74e-06 -8.15895e-07 4.7234e-06
7.69057e-07 3.70832e-06 7.57305e-06
2.34305e-06 -1.99714e-06 6.55521e-06
2.01563e-05 5.89775e-06 1.64535e-05
5.07004e-06 2.05957e-05 1.64959e-05
3.42117e-07 -2.76798e-05 1.78539e-05
-1.73121e-06 7.09105e-07 4.60627e-06
-3.21148e-06 6.23042e-07 6.82406e-06
3.57718e-06 1.4754e-06 7.63653e-06
4.99225e-07 2.83236e-05 1.79272e-05
2.47601e-05 1.3734e-05 1.79183e-05
-2.03282e-05 1.55357e-05 1.74289e-05
1.1787e-06 1.36446e-06 4.4598e-06
-2.06394e-05 -1.57283e-05 1.75275e-05
-1.89987e-05 -2.32215e-06 1.5946e-05
-1.95589e-05 -5.58492e-06 1.63321e-05
9.05674e-07 -3.24772e-06 7.00602e-06
-4.36598e-06 -1.97891e-05 1.63217e-05
-7.93719e-06 1.38342e-05 1.51009e-05
1.16574e-06 -1.30417e-06 4.33924e-06
1.19343e-05 -1.12282e-05 1.5292e-05
6.13302e-06 -2.26958e-05 1.68203e-05
-1.4522e-05 1.43552e-05 1.63235e-05
7.92898e-06 1.33211e-05 1.49478e-05
1.79366e-06 8.58737e-07 -4.55218e-06
1.7378e-06 -8.25105e-07 -4.46074e-06
4.31949e-07 1.8496e-06 -4.49505e-06
4.36093e-07 -1.78061e-06 -4.35602e-06
-1.84747e-06 2.09628e-08 -4.4223e-06
-1.12308e-06 -1.30886e-06 -4.15094e-06
-1.1592e-06 1.30678e-06 -4.19972e-06
-2.25128e-05 -7.28756e-06 -1.69997e-05
-2.21961e-05 7.37145e-06 -1.69684e-05
-4.86039e-06 2.28982e-05 -1.69368e-05
-4.8579e-06 -2.31313e-05 -1.69637e-05
1.7421e-05 1.56353e-05 -1.69296e-05
1.75685e-05 -1.55362e-05 -1.69389e-05
2.10732e-05 3.16383e-06 -1.63241e-05
-1.39529e-05 1.7151e-05 -1.64781e-05
-1.3591e-05 -1.6741e-05 -1.64097e-05
7.76774e-06 1.98192e-05 -1.63309e-05
7.68476e-06 -2.03096e-05 -1.64022e-05
2.1472e-05 -3.44367e-06 -1.63999e-05
-2.11024e-05 6.58808e-09 -1.62464e-05
-2.24201e-05 1.09996e-05 -1.74534e-05
-1.87506e-05 9.25456e-06 -1.66268e-05
-1.79825e-05 5.79536e-06 -1.6036e-05
-1.49837e-05 7.44822e-06 -1.54861e-05
-1.42242e-05 4.30765e-06 -1.48294e-05
-1.15324e-05 5.7438e-06 -1.40944e-05
-1.08579e-05 3.06869e-06 -1.33732e-05
-8.40036e-06 4.30481e-06 -1.2404e-05
-9.05866e-06 7.0133e-06 -1.3456e-05
-6.20401e-06 5.48843e-06 -1.16887e-05
-6.8282e-06 8.24932e-06 -1.30796e-05
-4.28133e-06 6.67481e-06 -1.14502e-05
-4.79994e-06 9.60978e-06 -1.30936e-05
-2.40084e-06 7.99323e-06 -1.17227e-05
-2.81281e-06 1.11671e-05 -1.34746e-05
-4.75403e-07 9.59515e-06 -1.25007e-05
-7.38342e-07 1.29967e-05 -1.41414e-05
1.73105e-06 1.15176e-05 -1.35347e-05
-5.5346e-06 1.27002e-05 -1.44366e-05
1.68505e-06 8.22385e-06 -1.17473e-05
4.00412e-06 1.01207e-05 -1.31506e-05
3.7053e-06 7.09785e-06 -1.14779e-05
6.06731e-06 8.96653e-06 -1.3113e-05
5.76674e-06 6.1067e-06 -1.17353e-05
8.35796e-06 8.0202e-06 -1.34917e-05
8.10553e-06 5.19519e-06 -1.25e-05
1.09538e-05 7.09694e-06 -1.41466e-05
1.07458e-05 4.32273e-06 -1.34987e-05
8.53039e-06 1.10373e-05 -1.44604e-05
7.93758e-06 2.64371e-06 -1.17271e-05
1.06459e-05 1.73717e-06 -1.31037e-05
7.94857e-06 3.58755e-07 -1.14553e-05
1.08062e-05 -7.59101e-07 -1.31238e-05
8.11152e-06 -1.93777e-06 -1.17088e-05
1.10981e-05 -3.3128e-06 -1.34836e-05
8.46961e-06 -4.42391e-06 -1.24437e-05
1.15035e-05 -6.00279e-06 -1.41091e-05
8.95544e-06 -7.138e-06 -1.34277e-05
6.14743e-06 -5.49434e-06 -1.1641e-05
6.6444e-06 -8.30074e-06 -1.30179e-05
4.10515e-06 -6.58842e-06 -1.13106e-05
4.52329e-06 -9.55073e-06 -1.2988e-05
2.24226e-06 -7.85817e-06 -1.15971e-05
2.4848e-06 -1.10017e-05 -1.33506e-05
2.25288e-07 -9.37355e-06 -1.23533e-05
3.30009e-07 -1.27696e-05 -1.40335e-05
-1.91541e-06 -1.11505e-05 -1.33767e-05
-1.84104e-06 -7.92151e-06 -1.15819e-05
-4.16784e-06 -9.87471e-06 -1.30847e-05
-3.81389e-06 -6.73041e-06 -1.13168e-05
-6.34553e-06 -8.6619e-06 -1.3099e-05
-5.89122e-06 -5.69793e-06 -1.16281e-05
-8.4996e-06 -7.43569e-06 -1.33794e-05
-8.16743e-06 -4.72799e-06 -1.24083e-05
-1.10955e-05 -6.40268e-06 -1.40696e-05
-4.37159e-06 -1.3123e-05 -1.44334e-05
-1.08087e-05 -3.65063e-06 -1.34389e-05
7.22602e-06 -1.13726e-05 -1.42727e-05
-7.7416e-06 1.98266e-06 -1.14927e-05
-1.32159e-05 1.03504e-06 -1.42106e-05
1.7291e-06 1.50826e-05 -1.49519e-05
1.37679e-05 4.62231e-07 -1.43875e-05
1.3843e-05 6.10002e-06 -1.49314e-05
-9.69393e-06 1.01961e-05 -1.45322e-05
-5.41594e-06 -3.19762e-06 -1.01819e-05
-1.17134e-05 -9.29722e-06 -1.4889e-05
1.18822e-05 -8.76009e-06 -1.47869e-05
1.47816e-05 -7.47351e-06 -1.54031e-05
-1.39596e-05 -5.24382e-06 -1.48614e-05
2.79579e-06 -1.4516e-05 -1.4796e-05
4.24559e-07 -1.64992e-05 -1.53975e-05
3.51839e-06 4.39689e-06 -9.58095e-06
1.40104e-05 9.29894e-06 -1.54914e-05
1.79306e-05 8.14486e-06 -1.63004e-05
-1.56753e-05 1.13952e-05 -1.62333e-05
-1.09407e-06 1.67689e-05 -1.54951e-05
1.90684e-06 1.96214e-05 -1.63108e-05
-2.09185e-06 5.22002e-06 -9.59745e-06
5.55388e-06 -7.84595e-07 -9.59399e-06
3.58591e-06 -3.68352e-06 -9.08184e-06
-1.77962e-06 -5.17852e-06 -9.44946e-06
-2.24685e-05 -1.10107e-05 -1.74742e-05
-1.8798e-05 -9.24131e-06 -1.66509e-05
2.11476e-05 1.41646e-05 -1.75054e-05
2.07535e-05 -1.43175e-05 -1.74354e-05
-1.76459e-06 -2.54462e-05 -1.75108e-05
-1.68212e-06 2.54103e-05 -1.75154e-05
1.77128e-05 -1.19067e-05 -1.6687e-05
2.06455e-05 -1.0751e-05 -1.71158e-05
3.7756e-06 -1.89849e-05 -1.61392e-05
7.68524e-07 -2.03455e-05 -1.64827e-05
-1.94049e-05 -1.26504e-05 -1.7143e-05
-1.37309e-05 -2.3069e-06 -1.44717e-05
-1.65925e-05 -3.70138e-06 -1.54773e-05
-1.03757e-05 -1.09637e-06 -1.29519e-05
2.44518e-05 1.10727e-05 -1.76515e-05
2.54973e-05 -1.24031e-05 -1.7848e-05
2.64924e-06 2.67257e-05 -1.76603e-05
2.52099e-06 -2.64133e-05 -1.76292e-05
3.33944e-06 -2.30316e-05 -1.70289e-05
-2.05387e-06 -1.83197e-05 -1.59507e-05
4.05903e-06 2.37911e-05 -1.71302e-05
2.26139e-05 8.37913e-06 -1.71191e-05
4.61355e-06 1.73131e-05 -1.57271e-05
1.44268e-05 -1.31193e-05 -1.61372e-05
-1.57875e-05 -1.09846e-05 -1.62143e-05
-1.67995e-05 -3.81422e-07 -1.53771e-05
1.73057e-05 4.68741e-06 -1.57254e-05
6.55213e-08 -6.38722e-06 -1.02673e-05
1.74169e-06 -4.8484e-06 -9.09234e-06
5.85038e-06 -2.93547e-06 -1.0378e-05
-2.14439e-05 3.75044e-06 -1.64586e-05
5.72928e-06 -1.62742e-05 -1.55075e-05
9.08333e-06 -1.74988e-05 -1.59973e-05
1.75719e-05 1.18815e-05 -1.66721e-05
1.3994e-05 -1.6382e-05 -1.6401e-05
1.07398e-05 -1.37888e-05 -1.55499e-05
-3.54792e-06 -4.22013e-06 -9.50061e-06
5.39904e-06 1.13848e-06 -9.49889e-06
5.21798e-06 3.22283e-06 -1.00471e-05
-1.74978e-06 -2.83542e-05 -1.78767e-05
1.89203e-06 5.29882e-06 -9.58429e-06
-1.13822e-07 6.10492e-06 -1.00386e-05
-3.78487e-06 4.12768e-06 -9.57825e-06
-5.6226e-06 3.03414e-06 -1.02851e-05
-5.1654e-06 1.04066e-06 -9.21346e-06
-7.52713e-06 -6.17382e-08 -1.11722e-05
-4.33431e-06 -8.10267e-07 -8.38172e-06
-3.10855e-06 1.87231e-06 -7.37395e-06
-2.20808e-05 -3.60769e-06 -1.65156e-05
2.34059e-05 -1.56878e-05 -1.78359e-05
-1.50718e-06 2.11676e-05 -1.66818e-05
2.12613e-05 -8.45181e-08 -1.62255e-05
1.76218e-05 -1.64677e-06 -1.55812e-05
1.73474e-05 -4.94159e-06 -1.57704e-05
2.18912e-05 -7.45099e-06 -1.69134e-05
-2.31819e-05 -1.42544e-05 -1.78325e-05
1.73243e-05 1.64884e-06 -1.55083e-05
-1.73399e-06 2.84727e-05 -1.78939e-05
-4.22066e-07 3.68337e-06 -7.49518e-06
2.37716e-05 1.57421e-05 -1.78844e-05
-1.74971e-05 1.5642e-05 -1.69747e-05
-1.0626e-05 -1.84658e-05 -1.62548e-05
-1.00994e-05 -1.43421e-05 -1.55714e-05
-7.50765e-06 -1.60946e-05 -1.56218e-05
-7.32202e-06 -2.01202e-05 -1.6395e-05
-1.07043e-05 1.85349e-05 -1.62665e-05
-1.03472e-05 1.43839e-05 -1.56191e-05
-7.77253e-06 2.04921e-05 -1.6444e-05
-4.25293e-06 1.86094e-05 -1.60527e-05
1.07595e-05 1.83451e-05 -1.62259e-05
1.38914e-05 1.69346e-05 -1.64308e-05
1.40417e-05 1.29727e-05 -1.60511e-05
-7.36146e-06 1.6288e-05 -1.56383e-05
1.0525e-05 1.45468e-05 -1.5645e-05
7.74863e-06 1.6092e-05 -1.56137e-05
-3.11642e-06 -1.89874e-06 -7.39307e-06
-7.25753e-06 -1.24218e-05 -1.46249e-05
3.00862e-06 4.03597e-08 -6.60088e-06
4.8725e-06 1.35225e-05 -1.46179e-05
1.40758e-05 -2.26035e-06 -1.45702e-05
-1.72895e-05 -1.52165e-05 -1.69453e-05
-1.73662e-05 2.42027e-06 -1.55976e-05
-1.22045e-05 8.9118e-06 -1.49433e-05
-7.70552e-06 -2.29249e-06 -1.15545e-05
-1.24496e-05 1.18125e-05 -1.55398e-05
-1.42734e-07 -3.75418e-06 -7.55407e-06
2.7302e-06 2.27205e-06 -7.25182e-06
-2.00383e-06 -1.46503e-05 -1.48078e-05
9.36495e-06 -1.00681e-05 -1.43892e-05
1.38605e-05 3.15777e-06 -1.45659e-05
-7.33993e-06 1.11992e-05 -1.42601e-05
4.99715e-06 -1.27746e-05 -1.43691e-05
1.10317e-05 1.04304e-05 -1.49194e-05
-3.59639e-06 1.46851e-05 -1.49078e-05
-4.6354e-06 -1.66166e-05 -1.55486e-05
-1.95068e-05 1.28923e-05 -1.71611e-05
-2.31267e-05 1.4858e-05 -1.78433e-05
-1.29048e-05 -1.26859e-05 -1.58123e-05
3.76076e-06 -1.58611e-06 -7.90684e-06
1.76437e-06 2.92225e-06 -7.08434e-06
-9.23035e-06 -1.06093e-05 -1.45316e-05
1.72772e-06 -2.82313e-06 -6.93097e-06
9.94724e-07 2.41166e-05 -1.73083e-05
2.13677e-05 1.11937e-05 -1.72985e-05
-1.46644e-05 -7.95329e-06 -1.54852e-05
1.37079e-05 -4.78626e-06 -1.46904e-05
-1.90986e-06 -2.17627e-05 -1.68026e-05
1.80602e-05 -8.41896e-06 -1.63405e-05
-1.66787e-05 -6.32849e-06 -1.57822e-05
-4.32896e-07 -1.9223e-06 -4.79841e-06
-1.80535e-06 2.99541e-06 -7.17708e-06
-2.50518e-05 -1.29817e-05 -1.79222e-05
-2.5127e-05 -1.45071e-05 -1.8002e-05
-2.50449e-05 1.30336e-05 -1.79059e-05
-2.51178e-05 1.46498e-05 -1.7982e-05
-1.64844e-06 -3.12481e-06 -7.20982e-06
6.32787e-06 1.13682e-05 -1.40764e-05
5.33708e-07 -2.40858e-05 -1.73021e-05
-5.22773e-07 1.80953e-06 -4.64495e-06
7.40737e-06 -1.43435e-05 -1.51522e-05
2.33026e-05 -1.32092e-05 -1.77287e-05
2.36324e-05 -1.05374e-05 -1.74907e-05
1.19883e-05 -1.82107e-05 -1.62931e-05
1.473e-05 -1.01465e-05 -1.57954e-05
-1.0027e-05 1.00123e-06 -1.27545e-05
-1.74e-06 -8.15895e-07 -4.7234e-06
7.69057e-07 3.70832e-06 -7.57305e-06
2.34305e-06 -1.99714e-06 -6.55521e-06
2.01563e-05 5.89775e-06 -1.64535e-05
5.07004e-06 2.05957e-05 -1.64959e-05
3.42117e-07 -2.76798e-05 -1.78539e-05
-1.73121e-06 7.09105e-07 -4.60627e-06
-3.21148e-06 6.23042e-07 -6.82406e-06
3.57718e-06 1.4754e-06 -7.63653e-06
4.99225e-07 2.83236e-05 -1.79272e-05
2.47601e-05 1.3734e-05 -1.79183e-05
-2.03282e-05 1.55357e-05 -1.74289e-05
1.1787e-06 1.36446e-06 -4.4598e-06
-2.06394e-05 -1.57283e-05 -1.75275e-05
-1.89987e-05 -2.32215e-06 -1.5946e-05
-1.95589e-05 -5.58492e-06 -1.63321e-05
9.05674e-07 -3.24772e-06 -7.00602e-06
-4.36598e-06 -1.97891e-05 -1.63217e-05
-7.93719e-06 1.38342e-05 -1.51009e-05
1.16574e-06 -1.30417e-06 -4.33924e-06
1.19343e-05 -1.12282e-05 -1.5292e-05
6.13302e-06 -2.26958e-05 -1.68203e-05
-1.4522e-05 1.43552e-05 -1.63235e-05
7.92898e-06 1.33211e-05 -1.49478e-05
SCALARS effective_fluid_pressure_TPM float
LOOKUP_TABLE default
665
665
665
665
665
665
665
665
665
665
665
665
665
665
133
665
665
665
665
665
665
665
665
665
665
665
665
665
665
133
665
560.315
520.658
502.798
502.569
519.784
559.935
665
561.981
520.753
503.241
503.35
520.685
561.603
665
559.602
519.655
502.743
502.96
521.153
561.619
665
558.858
518.999
501.531
502.227
518.849
559.447
665
558.498
519.939
501.863
501.795
519.372
557.937
665
558.654
519.953
502.036
501.897
519.36
559.661
133
133
133
133
133
133
665
560.315
520.658
502.798
502.569
519.784
559.935
665
561.981
520.753
503.241
503.35
520.685
561.603
665
559.602
519.655
502.743
502.96
521.153
561.619
665
558.858
518.999
501.531
502.227
518.849
559.447
665
558.498
519.939
501.863
501.795
519.372
557.937
665
558.654
519.953
502.036
501.897
519.36
559.661
133
133
133
133
133
133
228.254
226.324
227.038
224.106
225.521
219.844
220.86
529.159
528.168
526.547
527.926
526.574
527.628
498.694
503.54
501.579
498.935
501.451
501.233
494.314
562.497
518.972
495.018
480.725
461.344
443.264
425.032
402.106
427.257
385.253
417.725
379.599
417.888
385.937
427.373
404.284
444.368
429.063
450.244
386.547
419.288
380.194
418.299
386.177
427.746
404.212
444.478
428.146
450.841
386.021
418.151
379.61
418.507
385.545
427.583
402.906
443.541
426.438
384.038
416.124
376.294
415.331
383.01
424.404
400.832
441.69
425.212
382.747
417.764
376.559
418.082
383.832
425.252
402.199
442.663
450.635
426.712
445.993
380.719
444.659
465.274
448.726
464.747
453.395
350.895
463.489
461.021
478.428
462.756
460.626
478.332
337.27
480.804
505.837
503.596
480.87
506.143
337.683
337.494
326.159
334.409
563.373
519.648
567.574
562.359
567.891
567.744
521.796
542.709
498.608
513.721
542.053
451.437
477.555
414.642
579.515
611.026
579.668
576.029
534.542
494.458
538.216
537.913
485.015
498.094
503.313
473.116
485.063
352.74
326.409
355.169
503.422
477.694
488.336
520.865
502.005
477.891
335.534
335.397
347.692
613.443
337.371
347.563
337.258
353.196
329.182
373.246
310.654
288.782
504.688
608.378
521.086
493.698
478.303
486.332
526.48
600.337
476.54
615.897
291.391
615.796
528.709
494.51
478.21
479.385
501.292
494.816
479.411
502.487
495.151
493.72
502.239
495.225
479.858
480.024
479.026
289.289
454.567
271.937
454.974
453.603
526.99
479.447
465.198
382.089
480.483
292.664
286.076
461.454
449.608
453.952
445.829
448.663
463.579
463.236
479.928
543.448
601.699
487.468
300.296
282.456
452.988
279.158
552.231
551.991
480.75
457.992
526.212
508.163
488.565
233.726
284.553
614.504
636.32
615.138
636.677
285.274
441.315
553.072
230.482
467.526
590.259
566.025
495.789
490.024
410.02
232.115
293.09
271.121
507.871
509.169
607.811
229.659
276.971
294.425
618.876
618.789
558.505
226.518
562.519
488.287
503.371
280.841
504.041
466.352
224.004
473.559
519.557
502.956
462.419
228.254
226.324
227.038
224.106
225.521
219.844
220.86
529.159
528.168
526.547
527.926
526.574
527.628
498.694
503.54
501.579
498.935
501.451
501.233
494.314
562.497
518.972
495.018
480.725
461.344
443.264
425.032
402.106
427.257
385.253
417.725
379.599
417.888
385.937
427.373
404.284
444.368
429.063
450.244
386.547
419.288
380.194
418.299
386.177
427.746
404.212
444.478
428.146
450.841
386.021
418.151
379.61
418.507
385.545
427.583
402.906
443.541
426.438
384.038
416.124
376.294
415.331
383.01
424.404
400.832
441.69
425.212
382.747
417.764
376.559
418.082
383.832
425.252
402.199
442.663
450.635
426.712
445.993
380.719
444.659
465.274
448.726
464.747
453.395
350.895
463.489
461.021
478.428
462.756
460.626
478.332
337.27
480.804
505.837
503.596
480.87
506.143
337.683
337.494
326.159
334.409
563.373
519.648
567.574
562.359
567.891
567.744
521.796
542.709
498.608
513.721
542.053
451.437
477.555
414.642
579.515
611.026
579.668
576.029
534.542
494.458
538.216
537.913
485.015
498.094
503.313
473.116
485.063
352.74
326.409
355.169
503.422
477.694
488.336
520.865
502.005
477.891
335.534
335.397
347.692
613.443
337.371
347.563
337.258
353.196
329.182
373.246
310.654
288.782
504.688
608.378
521.086
493.698
478.303
486.332
526.48
600.337
476.54
615.897
291.391
615.796
528.709
494.51
478.21
479.385
501.292
494.816
479.411
502.487
495.151
493.72
502.239
495.225
479.858
480.024
479.026
289.289
454.567
271.937
454.974
453.603
526.99
479.447
465.198
382.089
480.483
292.664
286.076
461.454
449.608
453.952
445.829
448.663
463.579
463.236
479.928
543.448
601.699
487.468
300.296
282.456
452.988
279.158
552.231
551.991
480.75
457.992
526.212
508.163
488.565
233.726
284.553
614.504
636.32
615.138
636.677
285.274
441.315
553.072
230.482
467.526
590.259
566.025
495.789
490.024
410.02
232.115
293.09
271.121
507.871
509.169
607.811
229.659
276.971
294.425
618.876
618.789
558.505
226.518
562.519
488.287
503.371
280.841
504.041
466.352
224.004
473.559
519.557
502.956
462.419

CELL_DATA 563
TENSORS stress float
164.609 -24.9203 1.98478e-12
-24.9203 28.148 1.78465e-12
1.98478e-12 1.78465e-12 -12.6047

-40.3384 -21.3202 -3.59683e-12
-21.3202 -7.35468 6.54884e-13
-3.59683e-12 6.54884e-13 -10.2314

-9.93975 28.043 -2.37144e-12
28.043 -1.11023 9.54496e-13
-2.37144e-12 9.54496e-13 -6.3598

-40.4266 -29.8427 -3.51141e-12
-29.8427 -12.8459 2.38639e-12
-3.51141e-12 2.38639e-12 -10.5977

-22.6925 19.9309 -4.00361e-12
19.9309 -1.92224 -1.07758e-12
-4.00361e-12 -1.07758e-12 -23.0216

-27.139 -18.0742 -2.09225e-12
-18.0742 15.8879 5.66362e-12
-2.09225e-12 5.66362e-12 -6.41057

161.26 26.4844 1.90899e-12
26.4844 28.0246 -1.32398e-12
1.90899e-12 -1.32398e-12 -13.2636

-5.96123 29.9577 3.30106e-12
29.9577 -10.1119 2.01676e-12
3.30106e-12 2.01676e-12 -7.27587

34.6309 5.48309 -4.17562e-12
5.48309 -19.0943 -2.61953e-12
-4.17562e-12 -2.61953e-12 -4.12164

11.8603 -7.47756 3.44613e-13
-7.47756 -48.287 -1.67074e-12
3.44613e-13 -1.67074e-12 -8.94664

104.193 16.3083 -2.5769e-12
16.3083 -8.44345 3.53199e-12
-2.5769e-12 3.53199e-12 -22.4544

-34.6371 -13.4531 -1.59724e-13
-13.4531 18.9658 -1.24937e-12
-1.59724e-13 -1.24937e-12 -7.18013

-6.02579 27.8329 4.90867e-13
27.8329 -4.5914 6.08698e-13
4.90867e-13 6.08698e-13 -6.15873

-35.5514 -14.34 9.63007e-13
-14.34 7.84497 3.9441e-12
9.63007e-13 3.9441e-12 -9.13098

-23.6537 33.3115 -4.11404e-12
33.3115 -24.9943 -3.5198e-12
-4.11404e-12 -3.5198e-12 -21.3652

21.3107 0.560964 1.31924e-12
0.560964 -32.338 -2.54602e-13
1.31924e-12 -2.54602e-13 -5.58919

-48.9595 -17.9692 1.98482e-12
-17.9692 6.34298 1.36602e-12
1.98482e-12 1.36602e-12 -12.9459

11.6601 -2.6652 1.58096e-12
-2.6652 -43.2483 4.6807e-13
1.58096e-12 4.6807e-13 -8.03308

-11.3493 26.6734 -7.09655e-13
26.6734 19.5173 -1.26121e-13
-7.09655e-13 -1.26121e-13 -6.08891

21.7655 -4.19553 8.7456e-13
-4.19553 -35.2939 -8.38514e-13
8.7456e-13 -8.38514e-13 -6.74074

-24.4787 8.66849 -1.1835e-12
8.66849 32.1274 3.61962e-12
-1.1835e-12 3.61962e-12 -4.9338

-11.8088 6.28776 4.11507e-12
6.28776 -11.9742 -3.22276e-12
4.11507e-12 -3.22276e-12 -75.6219

22.7431 1.87597 2.17544e-12
1.87597 -33.4683 -2.58712e-12
2.17544e-12 -2.58712e-12 -6.67671

-12.3877 -27.7149 -2.77023e-12
-27.7149 1.59981 -2.34598e-12
-2.77023e-12 -2.34598e-12 -6.60222

21.3043 6.84932 -1.00009e-12
6.84932 -34.3034 3.69245e-12
-1.00009e-12 3.69245e-12 -6.80597

-37.9049 19.1128 2.61909e-12
19.1128 2.65398 5.27282e-12
2.61909e-12 5.27282e-12 -9.45722

106.601 4.18132 4.56642e-12
4.18132 20.6024 -3.2457e-12
4.56642e-12 -3.2457e-12 -12.0494

-5.30159 30.7456 3.97608e-12
30.7456 -7.27195 -1.94274e-12
3.97608e-12 -1.94274e-12 -7.44109

27.8899 37.0739 3.50653e-12
37.0739 26.469 4.47287e-12
3.50653e-12 4.47287e-12 -8.63185

-9.4391 10.3235 1.20763e-12
10.3235 -32.9305 1.54476e-12
1.20763e-12 1.54476e-12 -49.5096

19.8306 14.2168 -1.32043e-12
14.2168 -29.3587 9.5346e-13
-1.32043e-12 9.5346e-13 -6.00046

-4.20991 -17.7801 -2.05998e-12
-17.7801 59.657 1.56912e-12
-2.05998e-12 1.56912e-12 -8.47576

66.2823 -42.1012 1.01134e-12
-42.1012 71.1374 -6.43278e-12
1.01134e-12 -6.43278e-12 -11.2522

-48.2101 5.98682 2.27767e-12
5.98682 7.26962 -1.77725e-12
2.27767e-12 -1.77725e-12 -41.0382

-26.2912 -4.84079 -4.95071e-12
-4.84079 1.75673 6.96628e-13
-4.95071e-12 6.96628e-13 -37.803

-1.46674 21.0279 -8.14164e-13
21.0279 -39.5066 3.25591e-12
-8.14164e-13 3.25591e-12 -41.104

-43.9763 5.0676 -3.71066e-12
5.0676 0.514235 -2.57453e-12
-3.71066e-12 -2.57453e-12 -52.192

-2.75999 -9.1699 1.78169e-12
-9.1699 -20.7699 4.40611e-13
1.78169e-12 4.40611e-13 -35.8974

-3.97401 -27.9979 -2.92803e-12
-27.9979 -4.6104 -3.69305e-12
-2.92803e-12 -3.69305e-12 -5.99407

65.5961 41.5205 -2.64559e-12
41.5205 73.1651 2.90849e-12
-2.64559e-12 2.90849e-12 -10.9639

60.1544 -17.9488 -1.02437e-12
-17.9488 0.11726 1.64135e-12
-1.02437e-12 1.64135e-12 -8.04975

-41.804 -3.70615 -2.38328e-13
-3.70615 -1.18565 2.54937e-12
-2.38328e-13 2.54937e-12 -52.7268

-14.5941 19.5557 -2.93765e-13
19.5557 -28.5518 1.02229e-12
-2.93765e-13 1.02229e-12 -52.835

18.1409 -12.2732 1.12147e-12
-12.2732 -29.8986 -2.66157e-13
1.12147e-12 -2.66157e-13 -6.22265

38.1727 -43.2984 -3.81325e-12
-43.2984 41.8006 -1.84741e-13
-3.81325e-12 -1.84741e-13 -14.5589

58.1431 -18.0631 9.59233e-14
-18.0631 -2.3024 -1.79649e-12
9.59233e-14 -1.79649e-12 -7.91333

-21.4413 17.0854 -3.80881e-13
17.0854 30.3269 -9.64562e-13
-3.80881e-13 -9.64562e-13 -5.72784

-11.3723 19.3387 -5.63549e-12
19.3387 25.5104 3.34902e-12
-5.63549e-12 3.34902e-12 -3.92127

20.7911 -16.3009 -2.85993e-13
-16.3009 -33.1138 -4.33431e-12
-2.85993e-13 -4.33431e-12 -7.31122

12.6153 -34.1848 1.71063e-12
-34.1848 46.4349 -2.61598e-12
1.71063e-12 -2.61598e-12 -10.397

62.3592 19.1815 2.33887e-12
19.1815 2.81049 -3.79015e-12
2.33887e-12 -3.79015e-12 -8.4137

46.513 -25.288 -1.00542e-12
-25.288 5.13426 -2.88155e-12
-1.00542e-12 -2.88155e-12 -5.60967

-31.8956 19.4858 1.64313e-13
19.4858 -4.28556 -1.4954e-12
1.64313e-13 -1.4954e-12 -26.0857

37.0387 29.6488 -1.34293e-12
29.6488 14.5127 3.15481e-12
-1.34293e-12 3.15481e-12 -5.4321

-27.45 -21.8128 -3.50979e-12
-21.8128 -8.2282 4.61964e-13
-3.50979e-12 4.61964e-13 -25.2481

64.8678 -42.7106 1.7503e-12
-42.7106 44.0795 6.72292e-12
1.7503e-12 6.72292e-12 -9.50207

-27.7496 5.4598 1.46076e-12
5.4598 2.66934 -6.68798e-13
1.46076e-12 -6.68798e-13 -38.3087

-5.55741 -5.32969 -2.55914e-12
-5.32969 57.3873 -1.6603e-12
-2.55914e-12 -1.6603e-12 -5.44913

-0.200072 10.3842 -1.98537e-12
10.3842 -24.8482 1.02988e-12
-1.98537e-12 1.02988e-12 -38.3702

-26.4846 21.4128 -2.94934e-12
21.4128 12.2196 2.31222e-12
-2.94934e-12 2.31222e-12 -6.86916

4.72649 5.75384 -2.37173e-12
5.75384 -56.04 1.37327e-12
-2.37173e-12 1.37327e-12 -13.9805

0.539742 11.4589 -2.94091e-12
11.4589 -34.0564 7.37484e-13
-2.94091e-12 7.37484e-13 -14.8396

106.342 31.8194 -1.48977e-12
31.8194 37.8325 -2.75691e-12
-1.48977e-12 -2.75691e-12 -7.48973

-35.4916 -6.03509 -2.36122e-12
-6.03509 10.6012 -2.6971e-12
-2.36122e-12 -2.6971e-12 -13.4788

-35.3599 9.51966 -2.6823e-13
9.51966 1.23359 7.93143e-13
-2.6823e-13 7.93143e-13 -14.9599

-42.5874 -2.88075 7.0736e-13
-2.88075 21.1109 -2.21689e-12
7.0736e-13 -2.21689e-12 -11.2385

-44.9077 23.4021 2.8294e-12
23.4021 -5.89261 5.64881e-13
2.8294e-12 5.64881e-13 -13.9215

9.97104 8.46345 -2.58815e-12
8.46345 -42.3775 2.27596e-12
-2.58815e-12 2.27596e-12 -9.07745

-12.3341 -28.239 -1.34648e-12
-28.239 1.68746 -3.64745e-12
-1.34648e-12 -3.64745e-12 -6.67338

1.30886 -1.71122 -1.83705e-12
-1.71122 -55.4561 1.62093e-14
-1.83705e-12 1.62093e-14 -11.3036

-31.8851 -19.2618 2.69725e-12
-19.2618 -4.59493 4.60076e-13
2.69725e-12 4.60076e-13 -25.9551

-27.9755 21.3078 1.42612e-12
21.3078 -8.35804 4.4971e-13
1.42612e-12 4.4971e-13 -26.0135

-0.651475 -16.5831 -1.7016e-12
-16.5831 61.6728 -5.57776e-13
-1.7016e-12 -5.57776e-13 -7.9486

-0.650103 -27.936 5.95672e-13
-27.936 -21.3606 -3.34399e-12
5.95672e-13 -3.34399e-12 -12.7907

-14.0928 -25.1344 1.28875e-12
-25.1344 7.40685 -9.4739e-14
1.28875e-12 -9.4739e-14 -5.23548

91.6765 -31.7101 3.66403e-12
-31.7101 19.4846 4.22181e-13
3.66403e-12 4.22181e-13 -16.3332

-33.7058 3.22259 2.02927e-12
3.22259 9.1993 -1.35062e-12
2.02927e-12 -1.35062e-12 -18.5635

2.75231 28.9437 -3.74397e-12
28.9437 -24.4245 5.21065e-13
-3.74397e-12 5.21065e-13 -11.3162

-38.4331 19.6641 1.79841e-12
19.6641 5.22976 -2.90967e-12
1.79841e-12 -2.90967e-12 -9.23469

50.1899 7.9994 1.66859e-12
7.9994 -16.9632 -3.21373e-12
1.66859e-12 -3.21373e-12 -7.06644

60.0307 -33.9349 -3.42837e-12
-33.9349 33.7866 1.7882e-13
-3.42837e-12 1.7882e-13 -6.98354

-18.9598 -10.5875 -3.15511e-12
-10.5875 -0.541806 2.4869e-14
-3.15511e-12 2.4869e-14 -25.4315

-33.9261 23.8994 2.35486e-12
23.8994 -12.023 -2.11721e-12
2.35486e-12 -2.11721e-12 -14.54

58.1555 -32.3832 3.62969e-12
-32.3832 18.0913 1.9386e-12
3.62969e-12 1.9386e-12 -10.1335

66.8587 10.7909 2.72138e-12
10.7909 8.51336 2.2838e-12
2.72138e-12 2.2838e-12 -5.08412

7.67414 -21.2056 -6.27646e-14
-21.2056 88.4633 8.23045e-12
-6.27646e-14 8.23045e-12 -11.8622

-33.9852 14.4255 -7.82041e-13
14.4255 20.2383 8.09427e-13
-7.82041e-13 8.09427e-13 -7.54592

8.47556 23.1428 -1.21444e-12
23.1428 -26.0736 1.22983e-12
-1.21444e-12 1.22983e-12 -11.2988

34.8683 42.1979 -3.01389e-12
42.1979 46.1987 1.74557e-12
-3.01389e-12 1.74557e-12 -14.4204

-4.39443 16.5072 6.56482e-12
16.5072 -35.5421 1.54949e-11
6.56482e-12 1.54949e-11 -73.2885

-5.97949 -4.10827 -7.0699e-13
-4.10827 57.9477 -2.0961e-12
-7.0699e-13 -2.0961e-12 -5.44133

-1.81879 -16.6323 -6.20637e-12
-16.6323 -39.4023 -5.7628e-12
-6.20637e-12 -5.7628e-12 -74.1118

-3.32936 -27.3349 -4.64044e-12
-27.3349 -30.0298 1.4353e-12
-4.64044e-12 1.4353e-12 -21.5542

8.96719 27.4245 4.02759e-12
27.4245 -29.9945 -5.55585e-12
4.02759e-12 -5.55585e-12 -11.2568

45.7108 -24.4102 -3.291e-12
-24.4102 5.02456 4.42727e-12
-3.291e-12 4.42727e-12 -5.23574

10.0954 31.3226 -6.00882e-12
31.3226 47.1627 2.57216e-12
-6.00882e-12 2.57216e-12 -9.64004

14.2724 -10.7049 1.88945e-12
-10.7049 82.8377 -4.83169e-13
1.88945e-12 -4.83169e-13 -6.44685

-38.6329 21.9706 -6.52811e-13
21.9706 2.94158 -6.51153e-12
-6.52811e-13 -6.51153e-12 -8.56865

1.19265 16.794 -4.74287e-13
16.794 -25.722 -6.17254e-12
-4.74287e-13 -6.17254e-12 -18.5676

-26.5375 15.1537 9.14824e-13
15.1537 18.4493 -1.60109e-12
9.14824e-13 -1.60109e-12 -5.70756

43.6584 15.9536 3.03875e-12
15.9536 -7.28462 -4.8761e-12
3.03875e-12 -4.8761e-12 -4.07473

12.5771 -21.4721 2.64855e-12
-21.4721 57.9549 -3.8014e-13
2.64855e-12 -3.8014e-13 -4.71373

65.9956 -29.3901 -4.42905e-13
-29.3901 18.6435 -2.81256e-13
-4.42905e-13 -2.81256e-13 -9.33506

-32.3809 -24.5728 6.76496e-14
-24.5728 -7.28154 1.40628e-12
6.76496e-14 1.40628e-12 -8.97588

-22.6667 27.4508 -3.15481e-12
27.4508 -10.35 -3.95713e-12
-3.15481e-12 -3.95713e-12 -9.28348

-38.3511 23.1875 -1.76348e-12
23.1875 1.9911 3.39136e-12
-1.76348e-12 3.39136e-12 -8.52454

-51.5532 13.1692 -2.18176e-12
13.1692 11.927 2.2767e-12
-2.18176e-12 2.2767e-12 -16.4662

23.4845 9.3722 3.52548e-12
9.3722 -29.4873 2.07138e-12
3.52548e-12 2.07138e-12 -5.32105

3.76885 -4.66498 -3.54206e-12
-4.66498 79.437 -1.32161e-12
-3.54206e-12 -1.32161e-12 -9.53119

-44.94 -36.8333 1.48355e-12
-36.8333 -19.8289 -1.35395e-12
1.48355e-12 -1.35395e-12 -14.7704

-16.0792 27.4649 -5.52447e-13
27.4649 1.34119 1.28904e-12
-5.52447e-13 1.28904e-12 -6.91417

-5.01498 2.1703 2.78599e-12
2.1703 82.6723 7.72123e-13
2.78599e-12 7.72123e-13 -13.4309

69.0445 34.6097 -1.73846e-12
34.6097 15.4966 7.59097e-13
-1.73846e-12 7.59097e-13 -10.7057

-31.3515 -22.9737 8.63309e-13
-22.9737 -4.63235 2.03748e-12
8.63309e-13 2.03748e-12 -8.52938

11.7429 5.73296 1.12118e-12
5.73296 -48.3358 -3.85048e-12
1.12118e-12 -3.85048e-12 -8.64095

43.0652 27.2035 1.36187e-12
27.2035 10.4522 -1.61826e-12
1.36187e-12 -1.61826e-12 -5.08048

-9.4149 12.7455 -8.85218e-13
12.7455 -14.039 -2.57957e-12
-8.85218e-13 -2.57957e-12 -37.0411

70.3336 24.33 1.11555e-12
24.33 23.8048 2.73263e-12
1.11555e-12 2.73263e-12 -6.79933

-10.5861 -13.0551 -2.11312e-12
-13.0551 -13.9208 -3.90058e-12
-2.11312e-12 -3.90058e-12 -37.3789

-4.37917 0.778519 -6.15226e-12
0.778519 59.3973 -2.77704e-12
-6.15226e-12 -2.77704e-12 -4.83033

38.3566 -2.23528 -2.00965e-12
-2.23528 -23.8101 1.30003e-12
-2.00965e-12 1.30003e-12 -5.83188

3.59376 -15.7681 1.30237e-12
-15.7681 -53.9713 -1.48711e-12
1.30237e-12 -1.48711e-12 -21.1243

-42.2769 24.3881 2.91606e-12
24.3881 -11.7369 9.66782e-13
2.91606e-12 9.66782e-13 -11.1672

-46.8123 -13.535 1.16996e-12
-13.535 11.0674 9.32587e-13
1.16996e-12 9.32587e-13 -12.3536

5.81019 -8.00002 -1.4125e-12
-8.00002 -70.9677 -2.68615e-12
-1.4125e-12 -2.68615e-12 -14.8817

-49.5391 -22.2842 -2.05199e-12
-22.2842 3.7486 -5.27874e-13
-2.05199e-12 -5.27874e-13 -22.1042

-17.4593 -6.59641 3.27294e-12
-6.59641 -13.1158 -1.03166e-12
3.27294e-12 -1.03166e-12 -34.7819

-28.7296 -29.9081 4.08059e-12
-29.9081 -9.39985 1.50517e-12
4.08059e-12 1.50517e-12 -8.99568

15.6935 11.4534 -7.41066e-12
11.4534 80.1792 1.33582e-12
-7.41066e-12 1.33582e-12 -6.53051

42.2896 -28.1459 2.82204e-12
-28.1459 11.051 5.56769e-12
2.82204e-12 5.56769e-12 -5.04372

-47.1705 -13.7723 6.12843e-13
-13.7723 4.19614 -2.55973e-12
6.12843e-13 -2.55973e-12 -29.3009

2.96488 0.5044 7.75084e-13
0.5044 -56.8117 -4.50565e-12
7.75084e-13 -4.50565e-12 -11.0049

-39.3364 -21.5246 9.542e-13
-21.5246 -8.85731 2.89783e-12
9.542e-13 2.89783e-12 -14.774

-40.1948 25.6976 1.56157e-12
25.6976 -14.6914 -3.56789e-13
1.56157e-12 -3.56789e-13 -11.3106

32.2602 -31.4638 -2.36848e-14
-31.4638 38.429 -3.90799e-14
-2.36848e-14 -3.90799e-14 -4.6479

-31.4688 -7.08515 -3.36457e-12
-7.08515 1.70024 -3.38455e-12
-3.36457e-12 -3.38455e-12 -40.9932

36.6296 -33.0761 2.64559e-12
-33.0761 72.0263 -6.27409e-12
2.64559e-12 -6.27409e-12 -7.14464

16.6126 -19.1794 -3.04941e-13
-19.1794 -25.8694 -1.37224e-12
-3.04941e-13 -1.37224e-12 -7.13292

1.5026 1.97022 1.36987e-12
1.97022 -51.3914 -2.43242e-12
1.36987e-12 -2.43242e-12 -15.3741

-12.8762 17.8751 -5.13071e-13
17.8751 -16.9548 4.15223e-12
-5.13071e-13 4.15223e-12 -41.0608

10.7133 20.1824 -1.27128e-12
20.1824 59.4533 -2.80546e-12
-1.27128e-12 -2.80546e-12 -4.35636

4.31848 27.2102 -1.72011e-12
27.2102 -16.2235 -6.1758e-13
-1.72011e-12 -6.1758e-13 -8.12392

30.9043 -24.5112 -2.19084e-12
-24.5112 -8.1319 1.57622e-12
-2.19084e-12 1.57622e-12 -4.87178

-37.787 -17.8384 1.00771e-12
-17.8384 2.40088 -1.76333e-12
1.00771e-12 -1.76333e-12 -9.86408

55.513 35.0675 -4.42905e-13
35.0675 42.345 -3.51482e-12
-4.42905e-13 -3.51482e-12 -6.63614

-40.0148 -21.831 -2.58934e-12
-21.831 2.53688 8.64198e-13
-2.58934e-12 8.64198e-13 -9.39359

2.96666 30.8502 -2.72375e-12
30.8502 -17.3879 3.76321e-12
-2.72375e-12 3.76321e-12 -9.07791

18.5373 -25.2437 -6.32383e-13
-25.2437 -19.4174 -2.12689e-12
-6.32383e-13 -2.12689e-12 -6.34209

-15.6534 -25.126 2.16508e-12
-25.126 5.89567 3.49883e-12
2.16508e-12 3.49883e-12 -5.77511

42.7178 -18.6877 -2.84217e-13
-18.6877 -9.16534 -4.13832e-12
-2.84217e-13 -4.13832e-12 -5.36871

27.4317 -18.8493 -4.65405e-12
-18.8493 -20.3679 1.18098e-12
-4.65405e-12 1.18098e-12 -5.68933

-41.3937 -25.3369 2.91234e-12
-25.3369 -14.964 5.85569e-12
2.91234e-12 5.85569e-12 -11.5667

29.7807 35.9686 1.54188e-12
35.9686 25.2269 2.40163e-12
1.54188e-12 2.40163e-12 -8.64397

-28.5178 15.3765 -8.74264e-13
15.3765 18.5188 -7.8811e-13
-8.74264e-13 -7.8811e-13 -5.87357

-23.1078 26.4219 2.55026e-12
26.4219 -12.5465 -1.15848e-12
2.55026e-12 -1.15848e-12 -9.95771

-42.0964 25.4736 -4.21789e-12
25.4736 -11.5925 2.41259e-12
-4.21789e-12 2.41259e-12 -10.9924

-37.2882 11.6213 -3.43859e-12
11.6213 11.8441 2.38269e-12
-3.43859e-12 2.38269e-12 -9.08016

64.3922 -8.22681 4.03944e-12
-8.22681 3.19796 -3.53051e-12
4.03944e-12 -3.53051e-12 -4.25048

8.73405 18.606 3.57758e-12
18.606 59.2191 -8.11203e-13
3.57758e-12 -8.11203e-13 -4.16196

-25.6142 -24.3802 -1.27276e-12
-24.3802 0.45849 8.54132e-13
-1.27276e-12 8.54132e-13 -7.21513

-1.14136 25.6654 -2.49104e-12
25.6654 13.7523 -2.34361e-12
-2.49104e-12 -2.34361e-12 -4.08223

32.3784 -35.6285 -2.62664e-12
-35.6285 21.7 7.69873e-12
-2.62664e-12 7.69873e-12 -8.48568

59.5353 38.3157 4.02641e-14
38.3157 17.8476 1.73965e-12
4.02641e-14 1.73965e-12 -13.7221

12.1252 -33.3102 3.11395e-12
-33.3102 42.9129 5.79092e-13
3.11395e-12 5.79092e-13 -9.54231

30.5511 -31.1588 -5.17394e-12
-31.1588 36.8132 -1.42701e-12
-5.17394e-12 -1.42701e-12 -4.40506

11.7688 -6.83865 2.55411e-12
-6.83865 -48.8378 4.3839e-12
2.55411e-12 4.3839e-12 -8.76978

25.2743 30.341 8.41875e-12
30.341 41.0885 7.15161e-12
8.41875e-12 7.15161e-12 -4.45556

62.6812 13.2943 2.50348e-12
13.2943 5.22843 4.94419e-14
2.50348e-12 4.94419e-14 -4.30507

-7.02527 13.3785 -3.01714e-12
13.3785 61.3433 -4.26326e-14
-3.01714e-12 -4.26326e-14 -8.69454

11.7298 -22.3398 -7.40149e-13
-22.3398 55.7624 -1.89241e-12
-7.40149e-13 -1.89241e-12 -4.30102

-47.2606 -1.09149 1.20141e-12
-1.09149 12.4096 3.34547e-12
1.20141e-12 3.34547e-12 -22.1621

-5.9186 2.24655 1.8634e-12
2.24655 59.0035 -2.94165e-12
1.8634e-12 -2.94165e-12 -5.26204

6.26891 31.0885 -3.8843e-13
31.0885 47.8645 2.77467e-12
-3.8843e-13 2.77467e-12 -9.6601

-39.7252 12.1077 9.8857e-13
12.1077 12.8448 3.53673e-12
9.8857e-13 3.53673e-12 -9.31264

40.7378 -27.6469 -5.12775e-12
-27.6469 8.35775 1.68635e-12
-5.12775e-12 1.68635e-12 -5.6415

7.54008 20.5569 6.86858e-13
20.5569 -47.4668 -8.90251e-13
6.86858e-13 -8.90251e-13 -16.4816

-3.42103 26.2704 2.42946e-12
26.2704 -31.4867 4.20701e-13
2.42946e-12 4.20701e-13 -22.2525

15.7774 -18.5673 2.17071e-12
-18.5673 -30.0126 -6.81825e-13
2.17071e-12 -6.81825e-13 -8.18252

4.42875 -1.80107 1.92128e-12
-1.80107 -34.133 -1.23013e-12
1.92128e-12 -1.23013e-12 -24.4395

-14.3394 -31.8116 1.50783e-12
-31.8116 -11.9301 -2.01883e-12
1.50783e-12 -2.01883e-12 -9.04905

56.2175 23.3272 5.05433e-12
23.3272 0.817153 3.39343e-12
5.05433e-12 3.39343e-12 -8.28756

-27.828 30.162 1.28727e-12
30.162 -9.23639 -2.05317e-12
1.28727e-12 -2.05317e-12 -8.79993

-27.0035 29.2058 -2.0357e-12
29.2058 -9.20176 -4.81393e-13
-2.0357e-12 -4.81393e-13 -8.67721

28.6284 30.6601 3.3206e-12
30.6601 40.4054 -3.8772e-12
3.3206e-12 -3.8772e-12 -4.44858

0.343101 27.0848 -1.66149e-12
27.0848 -19.8456 -3.8695e-12
-1.66149e-12 -3.8695e-12 -11.7768

64.5071 3.52506 5.26157e-12
3.52506 -11.8252 1.3155e-12
5.26157e-12 1.3155e-12 -10.0179

-14.8996 31.8172 -4.50751e-12
31.8172 -20.7987 -2.68822e-13
-4.50751e-12 -2.68822e-13 -12.4473

-37.9438 -12.5997 1.2265e-12
-12.5997 8.18003 -3.6593e-13
1.2265e-12 -3.6593e-13 -14.0226

-0.475047 24.2782 1.38053e-12
24.2782 -29.999 1.94896e-12
1.38053e-12 1.94896e-12 -20.7714

-23.7273 -29.5786 2.00373e-12
-29.5786 -11.9349 3.83693e-12
2.00373e-12 3.83693e-12 -8.84286

-38.1479 -4.8981 7.64796e-13
-4.8981 18.8465 -7.79229e-13
7.64796e-13 -7.79229e-13 -11.7298

69.9436 -24.5557 -3.87956e-12
-24.5557 18.0288 -2.67638e-12
-3.87956e-12 -2.67638e-12 -7.04409

39.9817 29.6924 3.39047e-12
29.6924 13.4795 5.00933e-12
3.39047e-12 5.00933e-12 -5.21459

-4.29571 14.6962 3.55123e-12
14.6962 60.5705 -2.03215e-12
3.55123e-12 -2.03215e-12 -8.40047

1.61143 -1.13887 -2.60621e-12
-1.13887 -56.1232 4.25919e-12
-2.60621e-12 4.25919e-12 -11.2088

9.61413 0.00223211 5.45726e-12
0.00223211 -44.7535 -5.01802e-13
5.45726e-12 -5.01802e-13 -8.43744

-31.0785 23.1237 -2.20298e-12
23.1237 -4.33705 5.11591e-13
-2.20298e-12 5.11591e-13 -8.45789

-34.7625 23.8709 -3.34962e-12
23.8709 -13.1924 2.50098e-12
-3.34962e-12 2.50098e-12 -14.8129

-43.3785 -24.3807 -4.74785e-12
-24.3807 -12.6139 1.2846e-12
-4.74785e-12 1.2846e-12 -11.4683

-39.0588 -0.672723 1.56649e-12
-0.672723 21.0464 -1.89952e-12
1.56649e-12 -1.89952e-12 -10.4952

-40.8066 25.5903 1.30888e-12
25.5903 -13.2224 3.78593e-12
1.30888e-12 3.78593e-12 -11.1719

32.3214 -10.3078 -4.88913e-12
-10.3078 -25.153 -5.2179e-12
-4.88913e-12 -5.2179e-12 -6.01369

8.70689 -32.8328 -1.25944e-12
-32.8328 22.7976 -1.80004e-12
-1.25944e-12 -1.80004e-12 -6.99154

2.39687 -2.30064 -1.3262e-12
-2.30064 -49.9606 6.66726e-13
-1.3262e-12 6.66726e-13 -14.7724

36.7453 -34.5076 5.72934e-12
-34.5076 24.4796 1.73372e-12
5.72934e-12 1.73372e-12 -7.70877

-38.2937 19.0861 -7.72123e-13
19.0861 -7.0937 3.65633e-12
-7.72123e-13 3.65633e-12 -14.4492

7.87076 -26.4786 -1.09779e-12
-26.4786 -27.9942 8.57388e-13
-1.09779e-12 8.57388e-13 -10.9688

63.9466 -9.69007 2.16716e-12
-9.69007 5.67773 -2.08307e-12
2.16716e-12 -2.08307e-12 -5.07196

6.04087 -23.1919 1.94985e-12
-23.1919 -35.4681 -7.06102e-13
1.94985e-12 -7.06102e-13 -17.736

0.141357 2.35826 2.70288e-12
2.35826 -56.174 -1.66178e-12
2.70288e-12 -1.66178e-12 -11.5457

-4.06201 -23.3213 3.31764e-12
-23.3213 -23.4116 -8.98837e-13
3.31764e-12 -8.98837e-13 -16.7199

11.0388 -25.8594 2.69414e-13
-25.8594 -29.4855 -1.86695e-12
2.69414e-13 -1.86695e-12 -9.73328

10.2014 -8.54603 2.59289e-12
-8.54603 -43.4896 2.35486e-12
2.59289e-12 2.35486e-12 -9.28099

-35.4182 -23.0681 3.45797e-13
-23.0681 -12.6457 -3.88386e-12
3.45797e-13 -3.88386e-12 -15.1029

23.6642 -31.3414 7.04385e-12
-31.3414 5.71266 2.33473e-12
7.04385e-12 2.33473e-12 -5.87777

11.0599 -24.5871 -3.30639e-12
-24.5871 -27.4944 -3.95358e-12
-3.30639e-12 -3.95358e-12 -10.0478

46.6426 10.8643 -1.05871e-12
10.8643 -16.1167 5.38828e-14
-1.05871e-12 5.38828e-14 -6.79941

-14.1861 26.3401 -4.28665e-12
26.3401 -15.6396 -1.57696e-12
-4.28665e-12 -1.57696e-12 -14.1188

-45.2519 -37.613 1.81899e-12
-37.613 -20.6124 4.6179e-12
1.81899e-12 4.6179e-12 -14.9189

-43.7086 37.2653 4.52379e-13
37.2653 -21.2662 4.40648e-12
4.52379e-13 4.40648e-12 -14.7693

-61.1853 -28.5734 -5.76317e-13
-28.5734 -7.49704 7.99657e-13
-5.76317e-13 7.99657e-13 -15.1994

-58.4161 27.0642 -1.23324e-12
27.0642 -6.27167 2.54019e-13
-1.23324e-12 2.54019e-13 -14.4779

5.60067 -8.52767 -7.09062e-14
-8.52767 -71.0642 -8.40069e-13
-7.09062e-14 -8.40069e-13 -14.7095

4.39739 9.27368 -1.2097e-12
9.27368 -68.8328 -2.7646e-12
-1.2097e-12 -2.7646e-12 -14.4375

9.02398 -9.84609 4.31063e-13
-9.84609 -40.8897 9.5346e-13
4.31063e-13 9.5346e-13 -9.61149

-24.3355 32.1163 3.94055e-13
32.1163 -24.8101 2.68679e-12
3.94055e-13 2.68679e-12 -21.1453

-25.5229 -32.8543 -2.16064e-12
-32.8543 -25.0962 1.06679e-12
-2.16064e-12 1.06679e-12 -21.4695

-53.9201 16.0685 5.33455e-12
16.0685 3.40185 -3.12816e-12
5.33455e-12 -3.12816e-12 -21.4029

-52.421 -15.801 -3.27516e-12
-15.801 3.29716 9.84694e-13
-3.27516e-12 9.84694e-13 -21.0762

6.11234 -3.74753 -2.31356e-12
-3.74753 -43.9253 -2.70717e-12
-2.31356e-12 -2.70717e-12 -25.7653

6.9185 3.6103 4.43408e-12
3.6103 -46.3488 2.09699e-12
4.43408e-12 2.09699e-12 -26.1416

-15.6253 9.83674 5.3928e-12
9.83674 46.2622 1.05634e-12
5.3928e-12 1.05634e-12 -5.84757

-22.9185 -24.774 4.34319e-13
-24.774 -14.5522 -3.53939e-12
4.34319e-13 -3.53939e-12 -10.3296

-56.6037 -36.3876 1.74838e-12
-36.3876 -14.5327 1.29704e-12
1.74838e-12 1.29704e-12 -13.4369

33.3582 -4.66425 -4.0418e-12
-4.66425 -19.8466 9.22632e-13
-4.0418e-12 9.22632e-13 -3.94469

3.43344 -16.6948 -1.0257e-12
-16.6948 -52.629 3.69186e-13
-1.0257e-12 3.69186e-13 -21.5328

3.67457 16.1758 4.82769e-12
16.1758 -51.8846 -3.41061e-13
4.82769e-12 -3.41061e-13 -21.4061

6.55577 0.121883 -1.2957e-12
0.121883 -76.7551 5.65385e-12
-1.2957e-12 5.65385e-12 -13.3037

-7.56918 23.3749 1.86902e-12
23.3749 39.9355 5.68434e-13
1.86902e-12 5.68434e-13 -6.88487

-56.8894 36.1716 1.69235e-12
36.1716 -14.0114 2.61983e-12
1.69235e-12 2.61983e-12 -13.3886

-39.7945 -23.3957 -3.26539e-12
-23.3957 2.56158 1.36779e-13
-3.26539e-12 1.36779e-13 -8.80056

37.1166 23.3525 4.18983e-12
23.3525 -8.61272 -2.47802e-12
4.18983e-12 -2.47802e-12 -5.75821

4.73541 23.8582 1.88175e-12
23.8582 -38.2258 -1.70086e-12
1.88175e-12 -1.70086e-12 -18.9858

24.0134 -31.3132 -3.27797e-12
-31.3132 6.40852 -3.52607e-12
-3.27797e-12 -3.52607e-12 -5.64775

2.43081 -3.23089 1.21488e-12
-3.23089 -48.3698 -4.29286e-14
1.21488e-12 -4.29286e-14 -14.7425

-60.4579 -34.161 1.80685e-12
-34.161 -14.3498 -2.70036e-12
1.80685e-12 -2.70036e-12 -14.0306

-17.4521 8.31986 -3.51152e-12
8.31986 45.6915 2.76875e-12
-3.51152e-12 2.76875e-12 -5.78061

-9.46841 21.8113 9.25778e-13
21.8113 40.4248 -8.12387e-13
9.25778e-13 -8.12387e-13 -6.65335

58.6031 35.7754 -1.13924e-12
35.7754 37.0879 1.67096e-12
-1.13924e-12 1.67096e-12 -6.91573

70.4834 1.57873 -8.83441e-13
1.57873 -5.54262 4.1005e-12
-8.83441e-13 4.1005e-12 -10.3738

-30.7595 -22.8044 1.01371e-12
-22.8044 -13.3563 -1.35099e-12
1.01371e-12 -1.35099e-12 -14.4659

32.8412 31.1834 -6.11185e-12
31.1834 69.7937 -4.39826e-12
-6.11185e-12 -4.39826e-12 -6.67923

-19.3762 23.6098 1.03591e-12
23.6098 7.68694 3.246e-12
1.03591e-12 3.246e-12 -5.51288

47.6367 -5.34948 -9.04047e-12
-5.34948 -17.4327 9.17192e-13
-9.04047e-12 9.17192e-13 -6.82135

33.2193 11.2159 -3.88845e-12
11.2159 -23.6364 -4.01309e-12
-3.88845e-12 -4.01309e-12 -6.01345

6.25429 0.429906 -3.95269e-12
0.429906 -77.5524 1.45066e-12
-3.95269e-12 1.45066e-12 -13.4495

-58.936 -29.0311 -3.77587e-12
-29.0311 -6.28807 2.34538e-12
-3.77587e-12 2.34538e-12 -14.6969

-28.332 -6.31901 -8.93182e-12
-6.31901 -11.3586 3.7188e-12
-8.93182e-12 3.7188e-12 -51.5899

-44.6982 37.4117 -8.07058e-13
37.4117 -20.8115 -1.01996e-12
-8.07058e-13 -1.01996e-12 -14.7733

93.7896 1.66327 -4.93827e-12
1.66327 16.6554 -3.48247e-12
-4.93827e-12 -3.48247e-12 -6.04297

10.0366 -32.7865 -1.22805e-12
-32.7865 21.3109 -1.85096e-12
-1.22805e-12 -1.85096e-12 -6.8078

-56.9363 36.6131 3.41127e-12
36.6131 -14.5712 2.61287e-12
3.41127e-12 2.61287e-12 -13.5048

-35.0787 -11.1338 3.6694e-12
-11.1338 19.1771 1.73432e-12
3.6694e-12 1.73432e-12 -8.31609

-5.47712 -25.5142 8.93804e-13
-25.5142 37.35 2.13163e-14
8.93804e-13 2.13163e-14 -6.98663

-58.4524 28.8301 1.56108e-12
28.8301 -6.27145 5.32137e-12
1.56108e-12 5.32137e-12 -14.614

28.4958 -26.1415 2.3069e-12
-26.1415 -4.91221 1.81603e-12
2.3069e-12 1.81603e-12 -4.69681

-21.1707 10.4834 -1.39622e-12
10.4834 -18.559 -9.51705e-12
-1.39622e-12 -9.51705e-12 -51.6855

3.43312 30.8715 9.16008e-13
30.8715 27.1625 -2.91086e-12
9.16008e-13 -2.91086e-12 -6.73258

6.14062 8.12676 3.72517e-12
8.12676 -72.298 -1.66533e-13
3.72517e-12 -1.66533e-13 -14.9841

-11.5456 30.1906 1.66119e-12
30.1906 -20.6032 -3.11247e-12
1.66119e-12 -3.11247e-12 -11.5489

-30.7974 23.3317 4.73695e-14
23.3317 -5.09962 -4.1774e-13
4.73695e-14 -4.1774e-13 -8.46395

-25.8637 -32.4889 -1.99396e-12
-32.4889 -24.1129 -4.17085e-12
-1.99396e-12 -4.17085e-12 -21.559

9.20553 -23.19 -4.60076e-13
-23.19 -27.922 1.83054e-12
-4.60076e-13 1.83054e-12 -11.4255

-37.6607 10.4708 1.68199e-13
10.4708 8.92891 2.32525e-12
1.68199e-13 2.32525e-12 -25.3313

-23.0402 -23.4336 2.30453e-12
-23.4336 4.95251 -6.22909e-13
2.30453e-12 -6.22909e-13 -6.26259

88.8025 -9.70766 5.21302e-12
-9.70766 10.8074 6.2957e-13
5.21302e-12 6.2957e-13 -10.0308

84.0426 -14.277 -8.35598e-12
-14.277 2.81283 -8.70415e-13
-8.35598e-12 -8.70415e-13 -13.1967

5.88808 16.5293 -1.26921e-12
16.5293 -33.9324 3.60926e-12
-1.26921e-12 3.60926e-12 -22.3762

-16.421 22.5014 4.52083e-13
22.5014 16.228 2.10202e-13
4.52083e-13 2.10202e-13 -5.08487

-3.91222 29.1629 2.9754e-12
29.1629 -12.2295 1.19608e-12
2.9754e-12 1.19608e-12 -8.39594

50.9923 0.688664 1.73728e-12
0.688664 -6.53141 3.40118e-12
1.73728e-12 3.40118e-12 -3.63404

-48.141 6.57123 8.13877e-13
6.57123 14.7862 -6.24093e-13
8.13877e-13 -6.24093e-13 -18.9524

10.1157 16.5408 -6.02185e-13
16.5408 -36.0795 4.35859e-12
-6.02185e-13 4.35859e-12 -9.13518

-4.50333 -25.7607 3.61962e-12
-25.7607 35.5553 -3.01389e-12
3.61962e-12 -3.01389e-12 -6.74659

-39.1909 -2.57244 1.95229e-12
-2.57244 21.5042 9.14824e-13
1.95229e-12 9.14824e-13 -10.6691

-7.99026 13.365 1.80981e-12
13.365 44.405 2.11623e-12
1.80981e-12 2.11623e-12 -3.94391

3.73474 -29.7131 1.00483e-12
-29.7131 -17.3644 2.66276e-12
1.00483e-12 2.66276e-12 -8.92022

21.4259 -29.947 1.4578e-12
-29.947 14.7561 -3.07902e-14
1.4578e-12 -3.07902e-14 -3.91748

6.88114 31.6223 2.8321e-12
31.6223 25.4016 -1.21976e-13
2.8321e-12 -1.21976e-13 -6.82774

2.78564 -15.0202 -3.35287e-12
-15.0202 -39.2676 1.82676e-12
-3.35287e-12 1.82676e-12 -63.3125

-46.1597 2.04125 -1.35751e-12
2.04125 11.4615 1.77162e-12
-1.35751e-12 1.77162e-12 -22.7569

-55.445 20.3002 1.29289e-12
20.3002 3.09589 -3.40439e-12
1.29289e-12 -3.40439e-12 -22.916

5.91692 15.4391 -3.45294e-12
15.4391 -58.8189 2.57542e-12
-3.45294e-12 2.57542e-12 -23.0361

-18.9213 -26.1885 -1.12828e-12
-26.1885 -12.9132 2.12275e-13
-1.12828e-12 2.12275e-13 -9.65229

41.3457 17.957 2.4194e-12
17.957 -6.27062 -3.03313e-12
2.4194e-12 -3.03313e-12 -3.86102

-44.6828 -5.29415 -4.94071e-12
-5.29415 4.53832 2.62101e-12
-4.94071e-12 2.62101e-12 -39.1455

7.49926 -18.9882 1.05545e-12
-18.9882 -39.8942 -4.58596e-13
1.05545e-12 -4.58596e-13 -11.6597

30.2908 -15.5987 -5.29532e-12
-15.5987 -20.508 -2.84365e-13
-5.29532e-12 -2.84365e-13 -4.80458

-9.63797 11.603 2.21452e-12
11.603 44.3188 7.74492e-13
2.21452e-12 7.74492e-13 -3.85867

8.33413 -25.7338 8.67454e-13
-25.7338 32.9916 9.34364e-13
8.67454e-13 9.34364e-13 -3.63263

-10.2448 -25.2738 2.6148e-12
-25.2738 -19.1001 1.70116e-12
2.6148e-12 1.70116e-12 -23.1749

17.0051 31.959 -5.24084e-12
31.959 11.1974 3.87068e-12
-5.24084e-12 3.87068e-12 -5.74591

-1.06929 -25.1347 -1.99929e-12
-25.1347 -30.7627 -1.66918e-12
-1.99929e-12 -1.66918e-12 -20.8916

48.0646 2.59733 1.08358e-12
2.59733 -8.40926 6.1889e-12
1.08358e-12 6.1889e-12 -3.53119

6.55269 -28.9301 8.82257e-14
-28.9301 72.0495 6.90174e-12
8.82257e-14 6.90174e-12 -14.5513

21.7915 -29.2305 5.99816e-13
-29.2305 13.9636 -1.85333e-12
5.99816e-13 -1.85333e-12 -3.92987

35.351 32.1584 -8.08834e-13
32.1584 74.1334 2.62901e-12
-8.08834e-13 2.62901e-12 -5.44156

-45.283 -11.877 -2.31791e-12
-11.877 13.9222 -1.26832e-12
-2.31791e-12 -1.26832e-12 -15.3262

-14.4199 -13.8211 -4.83628e-12
-13.8211 43.3819 1.59398e-12
-4.83628e-12 1.59398e-12 -5.67222

-19.2437 -23.9882 -5.06957e-12
-23.9882 -19.8305 -6.75904e-13
-5.06957e-12 -6.75904e-13 -64.2543

2.43854 23.7704 1.80359e-12
23.7704 36.0064 -3.52074e-12
1.80359e-12 -3.52074e-12 -3.71064

-15.1823 -32.7263 3.87838e-13
-32.7263 -21.1188 -1.4948e-12
3.87838e-13 -1.4948e-12 -14.3127

-14.5646 -11.9629 -2.93343e-12
-11.9629 45.5301 -3.44613e-13
-2.93343e-12 -3.44613e-13 -5.73842

7.83563 -19.1169 -5.79684e-13
-19.1169 -43.1217 1.45069e-14
-5.79684e-13 1.45069e-14 -12.6318

6.54589 23.8767 2.0132e-13
23.8767 35.1711 2.61835e-12
2.0132e-13 2.61835e-12 -3.44161

23.1733 -4.97545 3.03757e-13
-4.97545 -30.6757 -1.8849e-12
3.03757e-13 -1.8849e-12 -5.3638

36.9699 -30.3423 9.00376e-12
-30.3423 122.625 -5.11591e-12
9.00376e-12 -5.11591e-12 -6.24193

-26.8687 21.0138 -2.05169e-13
21.0138 8.4343 1.08891e-12
-2.05169e-13 1.08891e-12 -7.12943

40.338 -19.323 3.36324e-12
-19.323 -11.3718 6.17935e-12
3.36324e-12 6.17935e-12 -5.72544

6.52866 -21.4459 -2.85905e-12
-21.4459 -45.5583 -3.72443e-13
-2.85905e-12 -3.72443e-13 -24.9719

20.7051 31.7535 -2.55322e-12
31.7535 9.55768 -1.68043e-12
-2.55322e-12 -1.68043e-12 -5.80548

13.9189 -29.9714 -8.36664e-13
-29.9714 -7.60528 2.22045e-14
-8.36664e-13 2.22045e-14 -5.9437

6.75483 20.8852 -5.01525e-13
20.8852 -27.7918 -6.16721e-12
-5.01525e-13 -6.16721e-12 -11.1085

-38.274 -28.0758 5.04989e-12
-28.0758 -14.0377 -5.46304e-13
5.04989e-12 -5.46304e-13 -11.0605

8.64656 -26.2248 5.87382e-13
-26.2248 31.1706 -3.66048e-12
5.87382e-13 -3.66048e-12 -3.63465

15.3315 28.9806 1.42641e-12
28.9806 19.1538 4.61853e-14
1.42641e-12 4.61853e-14 -3.88242

28.6402 26.1909 -7.99361e-13
26.1909 -5.6328 5.70684e-12
-7.99361e-13 5.70684e-12 -4.8014

7.91484 -14.6098 1.901e-12
-14.6098 -36.8773 1.66297e-12
1.901e-12 1.66297e-12 -13.991

-6.84092 -16.6173 3.54857e-12
-16.6173 41.3405 6.61989e-13
3.54857e-12 6.61989e-13 -3.95886

17.4406 -17.5682 3.4183e-12
-17.5682 -30.9987 -1.69849e-12
3.4183e-12 -1.69849e-12 -7.10467

19.8419 16.9083 -2.24413e-13
16.9083 -31.6638 -1.74734e-12
-2.24413e-13 -1.74734e-12 -7.33389

-33.6794 -9.38692 -2.29294e-12
-9.38692 8.75598 4.18036e-13
-2.29294e-12 4.18036e-13 -23.9929

43.4311 -13.4298 -4.5001e-13
-13.4298 -8.36823 -2.89679e-12
-4.5001e-13 -2.89679e-12 -3.8036

-19.3778 0.594005 1.81188e-13
0.594005 43.1449 5.13012e-12
1.81188e-13 5.13012e-12 -4.77486

28.0557 18.5548 2.24591e-12
18.5548 -18.1983 1.71063e-12
2.24591e-12 1.71063e-12 -4.74909

25.5283 27.6035 2.47506e-12
27.6035 -3.77514 -2.70717e-12
2.47506e-12 -2.70717e-12 -4.77055

-6.71472 -15.6858 3.65604e-12
-15.6858 43.7981 1.36543e-12
3.65604e-12 1.36543e-12 -3.8474

-19.9058 -1.2023 -2.55795e-12
-1.2023 42.1275 -4.1922e-13
-2.55795e-12 -4.1922e-13 -4.68642

-5.4732 29.1343 -3.53732e-12
29.1343 -23.6463 5.10377e-12
-3.53732e-12 5.10377e-12 -16.7967

-37.2733 -10.922 3.82035e-12
-10.922 21.6799 5.26394e-13
3.82035e-12 5.26394e-13 -7.82946

27.1432 -26.7149 -3.59653e-12
-26.7149 -5.53027 -3.45857e-12
-3.59653e-12 -3.45857e-12 -4.9436

40.7187 21.3322 -5.6725e-13
21.3322 -8.36954 2.98487e-12
-5.6725e-13 2.98487e-12 -5.46696

12.378 23.6652 -1.52411e-12
23.6652 -27.1266 -5.4771e-13
-1.52411e-12 -5.4771e-13 -8.66647

-37.796 5.47069 -1.93327e-12
5.47069 23.3113 2.08781e-12
-1.93327e-12 2.08781e-12 -8.59691

18.5931 29.0651 -3.91391e-13
29.0651 17.3778 1.64491e-12
-3.91391e-13 1.64491e-12 -3.94651

-9.98916 22.9638 -1.27898e-13
22.9638 -14.9127 1.09157e-12
-1.27898e-13 1.09157e-12 -24.0261

68.3156 -59.691 -1.62477e-12
-59.691 36.3347 -8.21387e-12
-1.62477e-12 -8.21387e-12 -23.0108

17.5309 -25.0475 1.42997e-12
-25.0475 -17.9915 4.74583e-13
1.42997e-12 4.74583e-13 -6.41708

10.0586 7.0698 1.77991e-12
7.0698 82.5496 2.64085e-12
1.77991e-12 2.64085e-12 -7.16502

11.9205 -28.8889 -6.53699e-13
-28.8889 -3.8812 1.38674e-12
-6.53699e-13 1.38674e-12 -5.16518

-66.945 -52.7008 1.79767e-12
-52.7008 143.249 -2.00373e-12
1.79767e-12 -2.00373e-12 -49.6695

-68.3882 51.4515 1.8782e-12
51.4515 142.536 -1.85689e-12
1.8782e-12 -1.85689e-12 -49.8586

19.5689 117.154 -5.64408e-12
117.154 64.1281 -1.88057e-12
-5.64408e-12 -1.88057e-12 -48.3602

20.5278 -117.096 1.65793e-14
-117.096 61.025 -5.30539e-13
1.65793e-14 -5.30539e-13 -48.7249

157.742 -1.36336 1.04213e-13
-1.36336 -79.1871 -2.85084e-14
1.04213e-13 -2.85084e-14 -48.9118

110.324 -91.1252 4.57116e-12
-91.1252 -36.6902 -2.76401e-12
4.57116e-12 -2.76401e-12 -50.3064

110.378 91.653 -4.98327e-12
91.653 -36.5005 -4.53326e-12
-4.98327e-12 -4.53326e-12 -50.1792

7.84711 14.3302 -7.08885e-12
14.3302 -42.6814 -3.85706e-12
-7.08885e-12 -3.85706e-12 -15.0788

-11.791 25.5366 -3.55331e-12
25.5366 -27.4046 4.26474e-13
-3.55331e-12 4.26474e-13 -35.1383

12.4381 6.60597 -1.61175e-12
6.60597 -40.5331 1.86221e-12
-1.61175e-12 1.86221e-12 -8.25189

26.2547 21.7843 -4.64221e-13
21.7843 -19.528 3.09293e-12
-4.64221e-13 3.09293e-12 -5.85025

-21.2294 17.7442 -6.94704e-13
17.7442 29.8682 1.43352e-12
-6.94704e-13 1.43352e-12 -6.16172

22.5303 28.8981 -5.58546e-12
28.8981 -0.775093 3.56219e-12
-5.58546e-12 3.56219e-12 -4.73018

4.05568 -29.6632 -1.4276e-12
-29.6632 -17.466 2.20742e-12
-1.4276e-12 2.20742e-12 -8.50393

25.9952 28.0274 1.26121e-12
28.0274 -2.30126 -1.15641e-12
1.26121e-12 -1.15641e-12 -4.73058

-19.3464 -2.8412 -2.86156e-12
-2.8412 43.071 3.17376e-12
-2.86156e-12 3.17376e-12 -4.7694

-13.4117 -26.0975 1.43115e-12
-26.0975 -25.8384 3.01196e-12
1.43115e-12 3.01196e-12 -35.5214

-19.8415 -4.86231 -4.36096e-13
-4.86231 41.7761 1.56083e-12
-4.36096e-13 1.56083e-12 -4.74326

-1.82681 23.0161 -3.73627e-13
23.0161 -24.377 1.81188e-13
-3.73627e-13 1.81188e-13 -16.1498

44.9822 26.8703 4.28457e-12
26.8703 8.11169 1.13095e-12
4.28457e-12 1.13095e-12 -5.36864

-52.509 -13.2161 2.13074e-12
-13.2161 0.150449 -1.98064e-12
2.13074e-12 -1.98064e-12 -20.6173

20.2804 13.7278 5.57717e-12
13.7278 -31.1409 -8.08538e-13
5.57717e-12 -8.08538e-13 -7.0424

13.7008 -29.9873 4.29878e-13
-29.9873 -6.69102 2.30334e-13
4.29878e-13 2.30334e-13 -5.83463

29.6307 -24.7132 2.19558e-12
-24.7132 -7.87323 3.06777e-12
2.19558e-12 3.06777e-12 -4.82455

5.76491 -16.0745 5.07002e-12
-16.0745 -32.3342 -2.07242e-14
5.07002e-12 -2.07242e-14 -22.2556

12.6277 27.9287 2.57986e-12
27.9287 -13.6383 -5.12775e-13
2.57986e-12 -5.12775e-13 -6.41906

23.309 23.9772 4.78965e-12
23.9772 -17.9427 -2.46025e-12
4.78965e-12 -2.46025e-12 -5.96177

-31.0763 -2.79295 -1.63754e-12
-2.79295 30.1316 -1.13628e-12
-1.63754e-12 -1.13628e-12 -6.39793

-28.6287 5.87331 -1.24827e-12
5.87331 33.3213 5.85606e-13
-1.24827e-12 5.85606e-13 -6.05873

34.5484 2.64668 -4.9134e-12
2.64668 -26.1827 5.27078e-12
-4.9134e-12 5.27078e-12 -6.14147

50.6509 -7.28956 3.30402e-13
-7.28956 -14.0811 -1.21562e-12
3.30402e-13 -1.21562e-12 -6.77815

11.0413 30.4844 4.73873e-12
30.4844 -4.7872 6.34159e-13
4.73873e-12 6.34159e-13 -5.96558

17.4676 -26.1552 4.20404e-14
-26.1552 -17.4545 -6.32383e-13
4.20404e-14 -6.32383e-13 -6.35119

-0.0844916 -21.2543 6.161e-13
-21.2543 -27.9557 -3.9441e-12
6.161e-13 -3.9441e-12 -17.1664

4.93925 -31.6333 2.75691e-12
-31.6333 4.86168 9.10087e-13
2.75691e-12 9.10087e-13 -5.93442

-8.22667 -27.7852 9.18969e-13
-27.7852 18.5789 -1.89419e-12
9.18969e-13 -1.89419e-12 -6.12903

-1.64992 29.8868 -1.60227e-12
29.8868 10.4475 -5.23848e-12
-1.60227e-12 -5.23848e-12 -5.79946

-26.0158 -9.57783 2.73355e-12
-9.57783 32.9696 -3.9672e-14
2.73355e-12 -3.9672e-14 -5.7864

-31.3222 -1.54476 -6.55772e-13
-1.54476 31.6507 2.55203e-13
-6.55772e-13 2.55203e-13 -6.22275

-38.9149 5.74795 -1.97749e-12
5.74795 23.9465 2.22045e-12
-1.97749e-12 2.22045e-12 -9.18232

-17.2175 -21.0888 4.49389e-12
-21.0888 26.5709 1.09424e-12
4.49389e-12 1.09424e-12 -5.77111

13.0719 24.111 -8.53836e-13
24.111 -28.1008 -1.07588e-12
-8.53836e-13 -1.07588e-12 -9.20419

21.555 -9.58967 3.36442e-12
-9.58967 -31.7058 4.82429e-13
3.36442e-12 4.82429e-13 -6.59722

-27.1528 7.46521 1.09951e-12
7.46521 34.3345 -7.44294e-13
1.09951e-12 -7.44294e-13 -5.87313

-35.2351 -9.70107 1.91671e-12
-9.70107 22.3135 3.75996e-13
1.91671e-12 3.75996e-13 -8.18274

-29.155 -16.3305 -3.08938e-13
-16.3305 19.3467 -2.63671e-12
-3.08938e-13 -2.63671e-12 -6.6609

36.9676 -8.23913 3.78956e-14
-8.23913 -20.236 -1.17447e-12
3.78956e-14 -1.17447e-12 -5.10064

-14.8095 -32.3468 9.05646e-13
-32.3468 -21.6274 -3.24067e-12
9.05646e-13 -3.24067e-12 -12.9925

-22.8235 9.32076 2.77052e-12
9.32076 33.3232 -2.97836e-13
2.77052e-12 -2.97836e-13 -4.78798

-0.750941 -18.2126 1.0146e-12
-18.2126 -35.1576 2.65343e-12
1.0146e-12 2.65343e-12 -33.278

4.93231 24.8225 -2.25005e-14
24.8225 75.3061 -1.10608e-12
-2.25005e-14 -1.10608e-12 -14.3188

-14.1417 -26.6261 2.12867e-12
-26.6261 -16.3498 7.70643e-13
2.12867e-12 7.70643e-13 -14.6404

-6.35703 -30.2028 3.47278e-12
-30.2028 -23.602 -5.76428e-13
3.47278e-12 -5.76428e-13 -17.0876

-31.27 -0.701302 -2.38246e-12
-0.701302 31.5003 -1.93268e-12
-2.38246e-12 -1.93268e-12 -6.34763

28.4876 -16.6225 -4.0643e-12
-16.6225 -18.0564 3.82509e-13
-4.0643e-12 3.82509e-13 -4.43719

-37.8044 12.8416 -2.55927e-12
12.8416 11.1651 2.7048e-12
-2.55927e-12 2.7048e-12 -10.9885

-8.86112 -3.1805 -6.26595e-12
-3.1805 111.05 -3.8014e-12
-6.26595e-12 -3.8014e-12 -22.6717

-31.6019 14.2736 2.30319e-12
14.2736 21.3504 -1.6455e-12
2.30319e-12 -1.6455e-12 -7.12361

12.4221 -29.489 4.42905e-13
-29.489 -2.51928 7.16464e-12
4.42905e-13 7.16464e-12 -4.92741

33.6318 25.1055 2.21393e-12
25.1055 124.029 1.93031e-12
2.21393e-12 1.93031e-12 -6.21426

-13.5027 26.0981 2.83166e-12
26.0981 -19.0974 1.49901e-11
2.83166e-12 1.49901e-11 -58.8963

-9.55279 -27.8075 5.19895e-12
-27.8075 -22.8069 -5.11739e-13
5.19895e-12 -5.11739e-13 -59.5466

-2.86558 -30.4189 1.91669e-12
-30.4189 -7.32089 -8.28374e-13
1.91669e-12 -8.28374e-13 -7.28656

3.86053 -31.16 -9.49759e-13
-31.16 5.63587 6.00053e-12
-9.49759e-13 6.00053e-12 -6.06164

25.152 20.8274 2.61302e-12
20.8274 -17.0339 6.81233e-13
2.61302e-12 6.81233e-13 -4.97609

31.8051 15.006 1.64017e-13
15.006 -23.3004 -2.56891e-12
1.64017e-13 -2.56891e-12 -5.95393

-9.48884 3.0836 -1.4051e-12
3.0836 -9.83063 2.87614e-11
-1.4051e-12 2.87614e-11 -80.9391

-5.54908 -7.0002 2.92137e-13
-7.0002 -14.0419 -3.66566e-12
2.92137e-13 -3.66566e-12 -80.2918

11.7485 4.82431 1.66326e-12
4.82431 -43.2052 -2.9412e-12
1.66326e-12 -2.9412e-12 -7.82682

-35.0562 6.73094 -3.287e-13
6.73094 24.3753 4.48116e-12
-3.287e-13 4.48116e-12 -7.56334

-36.1099 6.73632 2.79065e-12
6.73632 24.4326 4.07792e-12
2.79065e-12 4.07792e-12 -8.30831

74.5862 58.634 -4.42431e-12
58.634 34.1725 6.1083e-12
-4.42431e-12 6.1083e-12 -21.873

-6.91946 -28.1996 9.99497e-13
-28.1996 16.8753 -7.48438e-13
9.99497e-13 -7.48438e-13 -6.11592

8.17206 17.9745 -2.19913e-12
17.9745 -44.8757 -1.31036e-12
-2.19913e-12 -1.31036e-12 -12.8964

32.703 9.5397 -3.42955e-12
9.5397 -19.0797 3.43044e-12
-3.42955e-12 3.43044e-12 -4.07367

3.38808 -26.7231 -6.55061e-12
-26.7231 13.4841 -9.0831e-13
-6.55061e-12 -9.0831e-13 -3.82631

26.2375 -20.2376 -2.56624e-12
-20.2376 -20.3225 3.45472e-12
-2.56624e-12 3.45472e-12 -5.8625

65.39 60.2318 -2.75454e-12
60.2318 34.2893 -5.47118e-12
-2.75454e-12 -5.47118e-12 -23.8678

-13.2424 31.069 1.05338e-12
31.069 -16.8811 -2.20535e-12
1.05338e-12 -2.20535e-12 -12.7855

-18.6037 -19.786 1.05042e-12
-19.786 28.4147 2.22163e-12
1.05042e-12 2.22163e-12 -5.96877

11.1746 28.8575 2.78059e-12
28.8575 -13.3228 1.54425e-12
2.78059e-12 1.54425e-12 -6.43548

-31.8686 -4.14479 5.42181e-12
-4.14479 30.1479 2.45966e-12
5.42181e-12 2.45966e-12 -6.35719

-14.5959 19.6091 8.06762e-13
19.6091 27.1853 1.5703e-12
8.06762e-13 1.5703e-12 -4.418

7.47946 30.5186 -5.515e-12
30.5186 -1.67003 -5.97448e-13
-5.515e-12 -5.97448e-13 -5.65978

-9.34447 -22.4731 -6.35936e-13
-22.4731 23.1493 -3.05237e-12
-6.35936e-13 -3.05237e-12 -4.17475

4.59082 -27.3524 -4.71208e-12
-27.3524 11.4492 -9.34364e-13
-4.71208e-12 -9.34364e-13 -3.93782

24.2718 11.2569 7.08914e-13
11.2569 102.078 1.79294e-12
7.08914e-13 1.79294e-12 -12.405

37.4665 -33.456 -7.79229e-13
-33.456 69.2853 1.80478e-12
-7.79229e-13 1.80478e-12 -5.70294

-25.3347 -11.6905 1.82809e-12
-11.6905 31.3681 -2.18373e-12
1.82809e-12 -2.18373e-12 -5.64768

16.0966 26.4844 -4.3201e-12
26.4844 -15.5016 5.04841e-12
-4.3201e-12 5.04841e-12 -6.2168

4.95604 29.4778 -1.35418e-12
29.4778 1.63715 -3.57699e-12
-1.35418e-12 -3.57699e-12 -4.98927

-9.85425 -21.4338 2.23229e-13
-21.4338 25.1209 3.27679e-12
2.23229e-13 3.27679e-12 -4.03255

-21.6342 -11.7823 -7.78636e-13
-11.7823 32.0821 -5.02709e-13
-7.78636e-13 -5.02709e-13 -4.63652

10.4632 28.4094 1.67925e-12
28.4094 -0.156212 -2.35782e-12
1.67925e-12 -2.35782e-12 -4.67222

-21.8463 -13.8777 4.52853e-12
-13.8777 29.4674 -4.07555e-12
4.52853e-12 -4.07555e-12 -4.84646

6.95878 27.8548 1.47023e-12
27.8548 73.0846 -3.44613e-12
1.47023e-12 -3.44613e-12 -14.3219

-45.8315 -4.0413 -4.05245e-12
-4.0413 14.0479 -1.91965e-12
-4.05245e-12 -1.91965e-12 -19.9649

0.877461 31.0273 -1.88886e-12
31.0273 7.52059 -1.01015e-12
-1.88886e-12 -1.01015e-12 -6.08838

9.71929 14.9011 2.32466e-12
14.9011 -36.4288 -4.25437e-13
2.32466e-12 -4.25437e-13 -10.9849

9.92883 -15.9274 5.06262e-14
-15.9274 -39.4103 -8.32519e-13
5.06262e-14 -8.32519e-13 -13.0688

85.6128 -24.2044 -8.76336e-13
-24.2044 7.63596 -4.89801e-12
-8.76336e-13 -4.89801e-12 -12.9578

-23.2066 -21.2671 -4.0643e-12
-21.2671 10.5139 -4.32839e-13
-4.0643e-12 -4.32839e-13 -6.16462

-16.6006 26.6981 2.53841e-12
26.6981 1.77872 3.93167e-13
2.53841e-12 3.93167e-13 -6.58706

-26.2015 -21.7279 -3.93226e-12
-21.7279 -5.36477 1.52027e-13
-3.93226e-12 1.52027e-13 -23.8672

-41.5971 14.1068 -8.90843e-13
14.1068 -3.56014 4.0498e-12
-8.90843e-13 4.0498e-12 -64.1287

-0.893381 9.44534 -5.76013e-12
9.44534 -44.2598 -1.90514e-12
-5.76013e-12 -1.90514e-12 -64.2301

-20.3842 32.7055 -7.57261e-12
32.7055 -23.2024 -3.89229e-12
-7.57261e-12 -3.89229e-12 -24.3296

-11.4101 26.0002 1.79442e-12
26.0002 22.6042 -7.11135e-13
1.79442e-12 -7.11135e-13 -5.925

16.0388 26.6614 -1.92439e-12
26.6614 -17.2868 -1.2621e-12
-1.92439e-12 -1.2621e-12 -6.54927

30.4282 45.1857 -3.47692e-12
45.1857 47.5546 -5.31368e-12
-3.47692e-12 -5.31368e-12 -15.1949

-44.8889 -11.3438 1.39429e-12
-11.3438 -1.80808 -1.89093e-12
1.39429e-12 -1.89093e-12 -61.6847

-8.29818 -3.43297 -1.89296e-11
-3.43297 -12.7553 5.06439e-12
-1.89296e-11 5.06439e-12 -77.2291

-14.6916 -0.210071 -4.47864e-12
-0.210071 -6.41857 3.63583e-12
-4.47864e-12 3.63583e-12 -77.3733

27.6649 -53.8023 8.61296e-12
-53.8023 71.1483 -7.48202e-12
8.61296e-12 -7.48202e-12 -24.3896

-11.6913 -11.6 1.82254e-12
-11.6 -16.2045 3.14741e-12
1.82254e-12 3.14741e-12 -37.4315

-32.6104 8.81307 2.81153e-12
8.81307 -9.41957 1.31066e-12
2.81153e-12 1.31066e-12 -49.542

18.2563 -26.1994 2.77881e-12
-26.1994 -19.546 -3.55271e-13
2.77881e-12 -3.55271e-13 -6.50601

-39.4299 1.0111 -3.4666e-12
1.0111 11.9802 -1.21325e-12
-3.4666e-12 -1.21325e-12 -19.7219

-30.2021 -20.2678 -2.14495e-13
-20.2678 6.30517 3.13823e-14
-2.14495e-13 3.13823e-14 -7.2155

10.5366 6.25532 1.16085e-12
6.25532 -52.3898 -1.21814e-12
1.16085e-12 -1.21814e-12 -9.63923

-49.8126 15.5963 -3.20981e-12
15.5963 10.1654 -1.01637e-12
-3.20981e-12 -1.01637e-12 -13.5308

-40.2833 7.19163 -1.47682e-12
7.19163 16.5415 -5.02176e-12
-1.47682e-12 -5.02176e-12 -13.774

16.405 20.3927 9.75812e-13
20.3927 -25.8404 -3.83071e-12
9.75812e-13 -3.83071e-12 -7.60715

-9.10014 -3.1139 -6.22968e-12
-3.1139 108.394 4.1472e-12
-6.22968e-12 4.1472e-12 -23.102

-3.31987 -27.6236 4.29819e-12
-27.6236 -3.62931 -7.11135e-13
4.29819e-12 -7.11135e-13 -5.82944

-7.33486 -26.1162 1.61412e-12
-26.1162 -14.0817 -5.02798e-12
1.61412e-12 -5.02798e-12 -9.81031

-14.1982 -31.4837 -1.41605e-12
-31.4837 -21.7779 1.35595e-12
-1.41605e-12 1.35595e-12 -12.7554

90.7271 32.7494 2.52953e-12
32.7494 20.9063 -6.23827e-12
2.52953e-12 -6.23827e-12 -16.506

-23.1176 -20.1165 2.09048e-12
-20.1165 -17.385 -9.95204e-13
2.09048e-12 -9.95204e-13 -44.4282

72.6299 54.322 -3.46271e-12
54.322 91.64 -2.69059e-12
-3.46271e-12 -2.69059e-12 -6.14246

-36.2149 -21.4396 2.93809e-12
-21.4396 -6.79682 -4.3728e-13
2.93809e-12 -4.3728e-13 -13.0427

15.0339 14.6504 -1.86281e-12
14.6504 -37.7514 2.66409e-12
-1.86281e-12 2.66409e-12 -8.1783

44.5724 -14.5723 1.51109e-12
-14.5723 -8.27144 -1.09468e-12
1.51109e-12 -1.09468e-12 -4.418

-21.2304 24.0466 2.69592e-12
24.0466 4.95563 -2.04992e-12
2.69592e-12 -2.04992e-12 -5.97582

17.3732 20.4279 5.73053e-12
20.4279 -26.792 4.94419e-13
5.73053e-12 4.94419e-13 -6.95096

-51.14 11.4006 3.17598e-12
11.4006 7.71053 -4.60343e-12
3.17598e-12 -4.60343e-12 -29.9944

-7.28679 -31.5801 -2.75868e-12
-31.5801 -12.8265 4.4024e-13
-2.75868e-12 4.4024e-13 -8.11857

2.79679 19.8124 1.07825e-12
19.8124 -46.0334 -4.63629e-13
1.07825e-12 -4.63629e-13 -29.9863

-24.6706 -18.4433 -7.28898e-13
-18.4433 17.8362 -1.84386e-12
-7.28898e-13 -1.84386e-12 -5.47951

-42.3403 4.28314 -4.16896e-12
4.28314 17.8694 -3.50771e-12
-4.16896e-12 -3.50771e-12 -12.7279

-4.09805 9.92672 -4.25497e-12
9.92672 -40.2761 -2.10498e-12
-4.25497e-12 -2.10498e-12 -47.5495

-2.68827 -8.51333 2.63049e-12
-8.51333 -38.3073 3.21683e-12
2.63049e-12 3.21683e-12 -47.4052

81.7219 18.5122 -5.54934e-12
18.5122 1.70034 -2.09492e-12
-5.54934e-12 -2.09492e-12 -14.453

3.89495 7.96498 -2.50141e-12
7.96498 -45.1829 1.89286e-12
-2.50141e-12 1.89286e-12 -11.0178

35.8711 7.74041 -3.56367e-12
7.74041 184.571 -9.04758e-13
-3.56367e-12 -9.04758e-13 -9.75784

40.1446 -11.385 -4.39208e-12
-11.385 190.369 1.33108e-12
-4.39208e-12 1.33108e-12 -7.38968

53.764 56.4065 2.68822e-12
56.4065 159.253 9.4739e-15
2.68822e-12 9.4739e-15 -11.5005

1.70908 -28.9504 2.2915e-13
-28.9504 -24.6906 4.78195e-12
2.2915e-13 4.78195e-12 -11.9625

16.0487 -49.1899 -6.27291e-12
-49.1899 99.4177 5.43328e-12
-6.27291e-12 5.43328e-12 -21.6894

54.5118 -55.949 -3.61666e-12
-55.949 149.97 4.47168e-12
-3.61666e-12 4.47168e-12 -13.6654

-2.16535 26.2198 8.96468e-13
26.2198 17.5727 -2.05998e-12
8.96468e-13 -2.05998e-12 -3.99531

134.937 73.8432 4.59958e-12
73.8432 85.0235 -1.81425e-12
4.59958e-12 -1.81425e-12 -10.1596

-18.7196 13.0473 1.76659e-12
13.0473 -3.90028 -1.83527e-12
1.76659e-12 -1.83527e-12 -26.7698

3.74113 0.0393052 -1.15019e-13
0.0393052 -26.1889 -3.4559e-12
-1.15019e-13 -3.4559e-12 -26.773

144.095 -73.1286 -6.78331e-12
-73.1286 85.351 1.73372e-12
-6.78331e-12 1.73372e-12 -8.19692

-21.3923 -23.4237 1.94097e-12
-23.4237 12.2482 -1.21088e-12
1.94097e-12 -1.21088e-12 -6.49048

89.3451 34.7287 2.79717e-12
34.7287 41.3894 8.90784e-12
2.79717e-12 8.90784e-12 -11.5482

72.1857 63.4902 1.46609e-12
63.4902 149.691 1.8332e-12
1.46609e-12 1.8332e-12 -9.67424

26.1642 21.6299 2.82678e-12
21.6299 100.132 -1.12976e-12
2.82678e-12 -1.12976e-12 -13.0316

73.8725 -65.919 -5.33144e-12
-65.919 151.142 -4.46695e-12
-5.33144e-12 -4.46695e-12 -9.4028

25.7686 -12.3809 6.22909e-12
-12.3809 105.011 5.47118e-13
6.22909e-12 5.47118e-13 -12.4286

-28.6639 6.84183 1.5293e-12
6.84183 3.10675 -5.50671e-13
1.5293e-12 -5.50671e-13 -37.8541

37.7424 -45.9741 4.45984e-12
-45.9741 49.6687 6.26936e-12
4.45984e-12 6.26936e-12 -15.5324

14.4434 47.5312 -2.47979e-12
47.5312 94.8782 1.45188e-12
-2.47979e-12 1.45188e-12 -22.1926

173.336 37.911 -1.29792e-12
37.911 48.0405 2.64026e-12
-1.29792e-12 2.64026e-12 -9.52288

7.02096 -29.2855 5.01702e-12
-29.2855 -14.3581 4.54185e-12
5.01702e-12 4.54185e-12 -7.15554

-38.4172 12.8967 1.46994e-13
12.8967 6.4353 5.56296e-13
1.46994e-13 5.56296e-13 -15.2903

88.5033 -38.1119 3.54798e-12
-38.1119 34.1624 1.8711e-12
3.54798e-12 1.8711e-12 -14.0998

6.0419 -28.802 -1.36424e-12
-28.802 -16.1714 -5.1843e-12
-1.36424e-12 -5.1843e-12 -8.02939

169.203 -36.3429 4.73695e-15
-36.3429 34.928 1.85452e-12
4.73695e-15 1.85452e-12 -13.2907

-5.72495 -28.3172 2.4792e-12
-28.3172 -14.4725 6.70042e-12
2.4792e-12 6.70042e-12 -9.30897

-17.79 -25.2946 -2.33413e-12
-25.2946 12.0804 7.87518e-13
-2.33413e-12 7.87518e-13 -5.93364

118.874 69.4597 -3.5385e-12
69.4597 96.2172 8.88652e-12
-3.5385e-12 8.88652e-12 -11.4009

29.4125 -22.9324 -7.07108e-12
-22.9324 97.7946 -7.9486e-12
-7.07108e-12 -7.9486e-12 -14.3402

117.957 -71.6916 3.58587e-12
-71.6916 93.6786 8.5502e-13
3.58587e-12 8.5502e-13 -12.4169

22.2642 50.7367 2.84217e-14
50.7367 73.777 7.14806e-12
2.84217e-14 7.14806e-12 -24.7776

-1.53602 -30.2119 3.19093e-12
-30.2119 -6.55218 4.23691e-12
3.19093e-12 4.23691e-12 -6.9973

-7.0452 -14.6403 -1.96258e-12
-14.6403 -21.9193 9.43542e-13
-1.96258e-12 9.43542e-13 -32.6147

-11.892 11.0927 3.92175e-12
11.0927 -16.431 -3.78512e-13
3.92175e-12 -3.78512e-13 -77.7955

-26.1692 -5.15999 1.8486e-12
-5.15999 -6.38737 -7.17204e-12
1.8486e-12 -7.17204e-12 -77.6292

-38.9407 13.0836 -2.54617e-12
13.0836 13.7444 1.70234e-12
-2.54617e-12 1.70234e-12 -10.2384

-14.4806 -10.667 3.21232e-12
-10.667 -17.3185 -5.15632e-12
3.21232e-12 -5.15632e-12 -78.7583

-25.903 4.09172 1.56838e-12
4.09172 -5.91388 2.49615e-13
1.56838e-12 2.49615e-13 -78.9005

-3.63386 7.43417 6.90085e-12
7.43417 -27.8607 -2.49238e-12
6.90085e-12 -2.49238e-12 -77.9877

-43.9755 -12.1153 -1.28345e-12
-12.1153 2.91633 -2.24709e-12
-1.28345e-12 -2.24709e-12 -68.159

11.9737 -30.4697 -1.24262e-11
-30.4697 76.1622 1.49214e-13
-1.24262e-11 1.49214e-13 -14.7009

0.521915 -12.9721 -3.73716e-12
-12.9721 -39.9908 -3.07724e-12
-3.73716e-12 -3.07724e-12 -45.2776

-16.3488 -34.4178 -5.77612e-12
-34.4178 -22.0685 3.85114e-12
-5.77612e-12 3.85114e-12 -23.5901

-2.42056 -18.1768 2.49075e-12
-18.1768 -29.8953 2.13488e-12
2.49075e-12 2.13488e-12 -33.6269

12.7383 15.4591 1.49628e-12
15.4591 -37.7159 -2.2536e-12
1.49628e-12 -2.2536e-12 -9.62481

-46.9088 9.8643 -6.98201e-12
9.8643 8.87771 6.95695e-12
-6.98201e-12 6.95695e-12 -70.1548

3.46269 19.2277 -3.24836e-12
19.2277 -41.4723 -6.98919e-12
-3.24836e-12 -6.98919e-12 -70.2707

1.47238 11.3062 -1.21059e-12
11.3062 -23.9651 -3.7077e-12
-1.21059e-12 -3.7077e-12 -31.8681

109.391 -15.3392 1.83083e-12
-15.3392 -12.5355 3.45205e-12
1.83083e-12 3.45205e-12 -25.0372

-14.32 24.9638 3.45679e-12
24.9638 10.3862 2.04873e-12
3.45679e-12 2.04873e-12 -5.80415

76.6062 -61.3541 4.44563e-12
-61.3541 37.3648 -2.61717e-12
4.44563e-12 -2.61717e-12 -22.3954

76.1135 -57.4568 1.6603e-12
-57.4568 99.2275 6.58673e-12
1.6603e-12 6.58673e-12 -5.55541

118.195 -36.5437 8.57862e-12
-36.5437 40.6006 7.12911e-13
8.57862e-12 7.12911e-13 -7.37857

-51.1147 -5.15897 1.56201e-12
-5.15897 3.3408 -6.26565e-12
1.56201e-12 -6.26565e-12 -60.6612

-50.4786 2.89123 -2.20875e-12
2.89123 3.13506 -4.56701e-12
-2.20875e-12 -4.56701e-12 -60.1337

-11.9756 -24.4564 3.00796e-12
-24.4564 -35.0037 -3.84803e-13
3.00796e-12 -3.84803e-13 -59.1678

-8.99197 -21.7607 6.10049e-12
-21.7607 -37.8884 -1.08654e-12
6.10049e-12 -1.08654e-12 -59.4774

-14.7027 26.1361 -2.3513e-12
26.1361 -33.028 4.48323e-12
-2.3513e-12 4.48323e-12 -60.7524

-18.1578 3.09956 -6.56897e-12
3.09956 -13.1647 2.14273e-14
-6.56897e-12 2.14273e-14 -75.4799

-9.94508 -20.509 -1.09542e-13
-20.509 -32.651 3.43503e-12
-1.09542e-13 3.43503e-12 -56.7381

-26.6487 -18.5684 2.96237e-12
-18.5684 -14.1959 2.20072e-11
2.96237e-12 2.20072e-11 -71.2736

-15.4792 2.43459 -1.33138e-12
2.43459 -12.8527 -3.76913e-12
-1.33138e-12 -3.76913e-12 -77.8745

-6.02756 -20.5264 3.24037e-12
-20.5264 -41.4875 -2.92655e-12
3.24037e-12 -2.92655e-12 -60.5085

-6.75685 20.956 6.50369e-13
20.956 -40.1437 -2.47091e-12
6.50369e-13 -2.47091e-12 -60.0196

-14.3164 -3.45862 -6.74349e-12
-3.45862 -11.3902 1.69484e-11
-6.74349e-12 1.69484e-11 -76.8889

-11.2642 -3.11732 6.51908e-12
-3.11732 -17.6895 -3.72931e-12
6.51908e-12 -3.72931e-12 -74.0517

-24.2043 12.1098 1.00169e-11
12.1098 -13.4007 -3.80962e-12
1.00169e-11 -3.80962e-12 -69.9698

-22.0827 26.9298 1.36158e-12
26.9298 -26.267 2.42355e-12
1.36158e-12 2.42355e-12 -57.5837

VECTORS fluid_flux_TPM float
-8.72077e-05 3.1024e-05 2.66633e-21
3.55905e-06 6.8816e-06 2.97404e-21
-1.27856e-05 -1.02241e-05 1.03782e-20
-4.17001e-06 4.25344e-06 -1.81777e-21
2.27046e-05 -6.31243e-06 2.57011e-20
2.7572e-06 -1.59014e-05 6.92582e-21
-8.57838e-05 -3.10888e-05 1.40062e-21
-1.38904e-05 -1.04653e-05 -5.92689e-22
2.21188e-05 9.45393e-07 -2.0312e-20
1.13825e-05 -3.90757e-06 -6.30005e-21
5.45937e-05 1.24824e-05 2.42017e-21
2.34654e-06 -1.71918e-05 2.09645e-20
1.36097e-05 1.12523e-05 1.35797e-20
2.66172e-06 1.37827e-05 5.07922e-21
2.05782e-05 -2.94625e-06 3.14682e-20
-1.63301e-05 -2.72863e-07 -6.83728e-21
2.75315e-06 1.40969e-05 1.13056e-20
1.01804e-05 -2.39157e-06 -4.50714e-21
9.89729e-06 1.72204e-05 9.30321e-21
-1.48465e-05 1.88521e-06 -1.0602e-20
-3.6007e-06 -2.13012e-05 1.22963e-20
3.4107e-05 5.94107e-05 -1.25941e-20
1.56954e-05 1.63109e-06 3.39333e-21
1.12258e-05 -1.128e-05 3.64189e-20
-1.50764e-05 -3.33197e-06 -9.76194e-22
-6.7714e-07 -1.11294e-05 1.81038e-20
6.28964e-05 -4.90793e-06 8.26184e-21
1.40642e-05 1.02476e-05 3.02843e-20
-2.51467e-05 -2.06404e-05 -3.79349e-21
4.91148e-05 -1.28125e-05 8.15333e-21
-1.65804e-05 -6.03758e-06 -4.65266e-21
5.53645e-06 -3.20333e-05 1.227e-20
4.76494e-05 -4.80424e-05 -7.29808e-21
-4.92285e-06 -4.12436e-05 1.31658e-20
-2.96703e-05 3.70016e-05 2.50241e-20
-3.82436e-05 -1.63934e-05 1.24579e-20
3.26993e-05 4.32112e-05 -1.61923e-20
-4.47363e-05 -8.72499e-06 -5.7962e-21
1.43729e-05 -1.10806e-05 3.94345e-20
4.64654e-05 5.01102e-05 -1.73622e-21
3.21262e-05 -1.40206e-05 -6.36371e-21
3.36367e-05 -4.23393e-05 1.43145e-20
-1.98945e-05 -5.03735e-05 1.81159e-20
-1.58963e-05 6.35612e-06 -1.83754e-20
3.05224e-05 -2.93115e-05 -4.55535e-21
-3.03295e-05 1.09892e-05 6.70782e-21
-4.04982e-06 -2.03687e-05 1.6735e-20
7.88535e-06 2.02099e-05 3.09289e-21
-1.63409e-05 5.92728e-06 1.35754e-21
-1.78182e-05 2.87231e-05 2.15886e-20
3.24057e-05 1.52895e-05 -1.94964e-21
2.93625e-05 -1.00743e-05 -6.4561e-23
-1.5665e-05 1.57591e-05 4.30736e-21
-2.35392e-05 -2.06885e-05 3.48852e-21
-2.11381e-05 -5.13201e-06 -1.06932e-20
-4.47877e-05 2.70737e-05 8.73993e-21
-2.93695e-05 -3.802e-05 5.12711e-21
6.3629e-06 -3.06254e-05 9.13739e-21
-4.7704e-05 6.48236e-06 -3.68951e-21
6.07363e-06 1.3696e-05 -4.39877e-22
-5.57641e-06 -8.17286e-06 6.30704e-21
-6.58308e-06 -1.79423e-05 1.3744e-20
5.71401e-05 2.4858e-05 -7.77313e-21
9.24222e-06 1.81431e-05 7.59367e-21
1.22957e-05 -1.44441e-05 1.88838e-20
-1.64049e-06 -2.07512e-05 9.28563e-21
4.6208e-06 -8.80498e-06 3.92625e-20
-1.00899e-05 -5.56454e-06 8.79481e-22
-1.0602e-05 1.19286e-05 -2.41753e-20
2.55804e-06 -4.09235e-06 7.92109e-21
-1.50425e-05 -1.58423e-05 1.37635e-22
-2.13636e-05 5.16561e-06 -1.80571e-20
-3.55662e-06 3.44793e-05 2.193e-20
-1.78708e-05 1.07102e-05 -9.88317e-21
-9.07028e-06 1.46138e-05 -8.05054e-21
-6.03513e-05 7.69166e-06 8.98762e-21
7.8176e-06 -2.16803e-05 3.92508e-21
-1.88791e-05 -8.89957e-06 7.62701e-21
1.93361e-06 1.16234e-05 3.45033e-21
2.62995e-05 5.08936e-06 1.25119e-20
3.41671e-05 -2.89735e-05 -1.09227e-20
2.21452e-05 2.0555e-05 -2.13082e-20
1.19078e-05 -2.82217e-06 2.77926e-20
-3.2152e-05 2.40658e-05 1.42142e-20
3.79023e-05 4.8456e-06 1.82141e-20
-4.98059e-06 4.9412e-05 1.27629e-20
-1.74102e-06 -1.68562e-05 -3.65252e-21
1.81229e-05 9.95413e-06 2.70532e-20
2.93159e-05 3.02842e-05 -5.5994e-22
5.50218e-05 3.80114e-05 -8.10752e-21
-5.33107e-06 3.07712e-05 1.33314e-20
5.91766e-05 -3.55106e-05 -2.84602e-20
-2.71234e-05 5.3409e-06 3.7562e-21
1.78383e-05 1.10013e-05 2.64584e-20
-2.96395e-05 9.90279e-06 6.10785e-21
1.66521e-05 2.85197e-05 -1.30572e-21
1.01683e-05 -4.43843e-05 -9.98745e-21
1.91537e-06 1.16202e-05 5.76408e-21
-1.48e-05 -1.76192e-05 4.61477e-21
3.06973e-06 1.74738e-05 1.31007e-20
2.64055e-05 5.25721e-06 2.8249e-21
-1.54425e-05 3.32094e-05 3.12647e-20
4.05501e-05 -1.33325e-05 -5.25292e-21
-3.77288e-06 7.45465e-06 -3.33572e-21
9.95233e-06 5.89901e-06 2.74261e-20
-2.28047e-06 -1.1324e-05 2.16141e-20
3.22049e-06 -1.92509e-05 2.89571e-20
1.74685e-05 3.89188e-06 4.73514e-21
-7.93681e-06 4.09705e-05 2.51839e-20
-9.80512e-06 2.47911e-07 -1.01963e-20
9.31804e-06 1.18852e-05 1.38483e-20
-2.17724e-06 -4.17117e-05 -1.30585e-20
4.20208e-05 1.28644e-05 -2.17775e-20
4.42232e-06 -7.45281e-06 2.56453e-20
-1.11446e-05 -3.55346e-06 9.11343e-21
-2.93241e-05 -1.24853e-05 -8.68202e-21
1.5803e-05 4.11452e-05 1.04143e-20
-4.34827e-05 -1.5573e-05 1.55342e-21
1.60177e-05 -4.11217e-05 -1.04783e-20
-3.69962e-06 -3.19185e-05 5.527e-21
2.18377e-05 6.52132e-07 4.02937e-21
-7.17112e-06 1.83957e-05 8.06326e-21
-1.61111e-06 3.96936e-06 1.31467e-20
-3.68578e-06 -1.65379e-05 7.26444e-21
5.22972e-06 -8.30168e-06 6.30189e-21
9.35901e-06 1.58627e-05 -1.89022e-21
3.30995e-05 1.06518e-05 5.42546e-21
8.61502e-06 -7.45765e-06 3.00066e-20
-8.2705e-06 -4.51576e-05 -5.90018e-21
2.55508e-05 -1.88189e-05 -5.24928e-21
4.97766e-06 2.77698e-05 1.71849e-20
-2.81619e-06 -2.84146e-06 1.41579e-21
-8.62581e-06 -8.32541e-06 5.04315e-21
-4.77642e-06 4.41243e-08 -3.13774e-21
-2.28714e-05 2.85926e-05 6.31976e-21
1.87621e-05 -3.73731e-05 9.62366e-21
-2.65786e-05 4.27121e-05 1.70324e-20
-1.63709e-05 9.53474e-06 -1.66528e-20
2.52782e-06 1.21982e-05 1.79613e-20
-2.29855e-05 -3.49875e-05 1.41929e-20
1.39353e-05 3.34642e-05 -6.25727e-22
1.75068e-05 9.3687e-06 1.66968e-20
2.28102e-05 -8.52219e-06 -1.37509e-20
-1.25313e-06 -1.12648e-05 3.59147e-20
-3.39098e-05 -3.15562e-05 9.70612e-21
-2.75133e-06 1.13027e-05 -6.89214e-21
1.72457e-05 1.01712e-05 1.05265e-20
1.88864e-05 -8.82035e-06 -5.97567e-21
8.24271e-06 -1.4344e-05 2.31139e-20
2.43555e-05 -1.07947e-05 -6.07692e-21
1.90084e-05 -8.99735e-06 -5.16197e-21
4.64036e-06 2.05788e-07 3.52893e-20
2.57391e-05 2.022e-05 -8.83208e-21
-2.74147e-06 -1.70289e-05 -2.0118e-21
-1.04792e-05 -4.45673e-06 2.21946e-21
1.12578e-06 -3.88985e-06 2.74913e-20
-3.15488e-06 1.5846e-05 7.73465e-21
-3.48813e-05 2.76794e-06 7.90471e-21
-1.21208e-05 -3.32562e-05 4.17216e-21
-7.87861e-06 9.77843e-06 -2.26101e-21
1.35644e-05 1.66393e-05 7.33296e-21
2.65669e-05 -1.87436e-05 -1.03061e-20
-3.67901e-05 -2.03494e-05 -2.81215e-21
1.7402e-05 -2.75059e-05 -1.09676e-20
2.28026e-05 -2.72149e-05 -1.83505e-21
-1.09437e-05 3.7847e-06 -1.08957e-20
-1.98278e-05 -2.88384e-05 1.43315e-20
-3.48777e-05 -5.79106e-06 -5.17502e-21
-3.85223e-06 -3.17407e-05 -3.39544e-21
1.54467e-05 -3.16972e-05 1.54838e-20
-9.10561e-06 -2.61979e-05 3.42576e-21
4.58092e-06 3.14035e-05 1.59222e-20
-1.57515e-05 -2.85203e-05 1.43233e-20
2.93863e-06 -1.62913e-05 2.33152e-20
-2.47378e-05 1.82588e-05 -4.38285e-21
-1.50299e-05 -1.21104e-05 -1.18143e-21
-2.73512e-05 -5.17213e-06 3.84079e-21
1.56672e-05 -9.18104e-06 -1.25283e-20
-4.30667e-06 2.39511e-05 -3.96601e-21
1.22319e-05 -9.32395e-06 3.16137e-20
-2.95841e-05 -1.31634e-05 -1.37767e-20
-8.83115e-06 -7.45765e-06 1.32286e-20
9.08156e-06 7.54041e-06 1.76451e-20
2.14255e-05 2.86991e-05 -4.78029e-21
-1.75078e-05 -1.08086e-05 1.56733e-20
-3.25042e-05 -7.51028e-07 -5.31142e-22
-1.63358e-05 -5.01586e-06 -1.17191e-20
-4.57786e-06 -1.65823e-05 1.12853e-20
1.76837e-05 2.1238e-05 1.59083e-20
-1.09567e-05 5.87442e-06 -9.42509e-21
6.36003e-07 -2.05542e-05 1.24801e-20
-4.19373e-05 1.08502e-05 7.68825e-21
2.48591e-05 2.02452e-05 1.49551e-21
3.79426e-06 3.27835e-05 1.29945e-20
-2.43183e-06 3.79699e-06 1.50734e-21
-9.0504e-06 2.51187e-07 -1.79795e-20
4.35484e-06 7.75966e-06 -4.6866e-21
-1.16933e-05 3.40127e-06 -6.48681e-21
-2.07327e-06 -3.78472e-06 8.09632e-21
1.65969e-06 2.07588e-05 5.41998e-21
4.47215e-06 4.49675e-07 3.98088e-21
-1.9537e-05 4.75638e-06 -4.2816e-21
-1.72975e-05 1.93569e-05 -6.63536e-21
-3.10727e-06 1.15776e-05 -2.56426e-20
-2.92154e-05 1.83933e-05 -9.7225e-22
-9.34287e-06 8.97885e-06 2.89585e-21
1.73103e-05 -1.16132e-05 -1.14539e-20
3.66023e-05 -3.5645e-06 2.48111e-21
-2.11396e-05 1.12967e-05 -1.23164e-20
2.23289e-06 4.498e-06 -4.45559e-21
2.17742e-05 -4.34467e-06 1.21048e-20
-1.7278e-05 1.03523e-05 -5.2281e-21
-9.87126e-06 5.53874e-06 -1.31473e-20
1.18308e-05 3.74249e-06 3.47627e-20
2.18787e-05 -1.34704e-05 2.85218e-21
-1.73791e-05 9.95558e-06 -1.91973e-20
-2.50356e-05 -5.30276e-06 1.4467e-20
-1.67608e-05 -4.36224e-06 -2.94312e-21
9.8757e-06 6.23701e-09 3.24256e-20
1.01733e-05 1.95351e-07 2.78211e-20
4.39053e-06 8.31673e-06 5.88019e-21
4.8293e-06 -8.7973e-06 4.3844e-20
-5.01009e-06 8.41939e-06 1.30663e-21
-5.2664e-06 -8.65715e-06 3.89143e-21
9.91048e-06 -7.40762e-06 -5.52334e-21
-2.03264e-05 3.23474e-06 -3.30643e-20
-2.00588e-05 -3.28356e-06 -4.66721e-21
-1.28341e-05 1.58756e-05 1.00241e-20
-1.29139e-05 -1.59299e-05 1.26444e-20
7.48587e-06 -1.98427e-05 -8.03749e-21
7.20563e-06 1.97628e-05 7.42361e-21
1.5577e-06 2.58836e-05 4.84367e-21
1.12398e-05 -3.13667e-06 2.52594e-20
2.35977e-06 -3.86632e-06 4.49201e-21
-2.14102e-05 1.42161e-06 6.14812e-22
7.67677e-06 -1.9512e-05 3.51732e-21
7.27304e-06 1.96605e-05 1.4913e-20
4.76854e-06 -5.27114e-08 9.52028e-21
8.96768e-06 2.44018e-05 -6.36948e-21
-2.24217e-06 -4.0161e-06 2.50466e-20
2.31762e-06 -1.13164e-05 1.11644e-20
-2.24291e-05 -1.21508e-05 7.18773e-21
-2.13568e-05 -1.14939e-05 1.61002e-20
-2.18913e-05 1.36277e-05 -3.73199e-22
3.25105e-06 -1.22868e-05 -1.26616e-20
-1.56524e-06 3.38175e-06 6.29703e-21
-5.87325e-07 -2.55672e-05 1.78585e-20
-7.71971e-06 -2.44211e-05 2.46915e-20
3.27016e-05 3.03603e-05 -1.21981e-20
3.54506e-05 -1.81506e-06 -5.30325e-21
-1.27102e-05 -3.63191e-06 -1.13778e-21
-2.28908e-05 -4.13827e-05 1.84797e-20
8.3036e-06 1.37469e-05 6.43801e-21
-2.52338e-05 3.03306e-06 6.18153e-21
2.00636e-05 5.78595e-06 -5.69069e-21
-4.53277e-06 -3.27401e-08 9.45025e-21
-4.66484e-06 -8.41209e-06 5.04224e-21
-7.07235e-06 -3.93297e-05 6.14303e-21
-9.70758e-06 -8.39073e-08 -2.24403e-21
-4.86702e-05 -1.81557e-06 -4.84638e-21
1.73073e-05 -1.91037e-05 1.08224e-20
2.42915e-06 3.99876e-06 9.28201e-21
-1.20633e-07 -1.75122e-05 3.86384e-21
-9.81763e-06 2.40818e-05 1.39413e-20
-4.37169e-06 8.6267e-06 -9.29773e-21
2.05545e-05 -1.36049e-05 -1.23321e-20
-3.76556e-05 -1.35502e-05 1.40253e-20
-1.52644e-05 -2.03639e-05 4.42924e-21
4.97663e-06 8.38832e-06 2.2359e-20
1.66296e-05 5.16011e-06 5.14485e-20
-4.76344e-06 -7.3376e-06 6.28188e-21
1.97946e-05 3.54685e-06 3.43758e-20
1.81867e-05 -9.82481e-06 1.97057e-21
-3.48789e-07 2.71699e-05 4.79123e-21
8.31949e-06 -1.36653e-05 3.51371e-20
4.87985e-05 2.20035e-06 -9.8398e-21
-4.23519e-05 1.1452e-05 5.52456e-21
2.28572e-05 1.15548e-05 1.71285e-20
-6.45214e-06 -1.71771e-05 1.43997e-20
-1.53479e-05 -8.61703e-06 -1.02418e-20
2.87837e-05 -2.10519e-07 -6.52106e-21
-6.91892e-07 -2.42517e-05 -1.33892e-20
-1.26157e-05 -1.08726e-05 -2.35891e-21
1.02225e-05 -2.34965e-05 -4.6666e-21
-4.96542e-07 2.05526e-05 8.35219e-21
7.91659e-06 2.60641e-05 3.01043e-21
1.72655e-05 -9.88289e-06 -6.20568e-22
-1.89453e-05 1.92958e-05 -8.45132e-21
1.65254e-05 2.00266e-05 -3.40211e-21
-6.22217e-05 1.60196e-05 -2.12633e-20
-1.01077e-05 2.60125e-05 8.17956e-22
1.25172e-05 -1.52461e-05 1.01421e-20
-7.02808e-06 -1.83952e-05 8.79359e-21
-1.18519e-05 4.50502e-06 -1.34117e-20
-2.58896e-05 -7.04477e-06 1.35405e-20
-6.3852e-06 3.88522e-05 1.5844e-20
-1.2604e-05 1.19007e-05 -1.50461e-20
2.07736e-05 -4.47496e-06 1.79055e-20
-6.87147e-06 -2.57904e-05 2.19189e-21
-1.48666e-05 2.38874e-05 1.20981e-20
-2.17858e-05 1.25629e-05 -1.01912e-20
-2.05665e-05 -1.50532e-05 1.58586e-21
1.8026e-05 -2.0652e-05 4.88097e-22
-2.75266e-05 -1.45603e-06 9.9241e-21
1.23653e-05 -4.08043e-05 -7.88106e-21
1.93834e-05 -1.89104e-05 1.34257e-20
2.4729e-05 4.30756e-05 2.5766e-21
1.97083e-06 1.98636e-05 -2.56476e-21
2.96066e-06 -2.54175e-05 -1.52066e-21
-4.16303e-05 4.6955e-05 -2.13998e-20
-1.27003e-05 -2.4408e-05 -1.6292e-21
1.63645e-05 -6.41961e-06 2.36993e-20
-2.41056e-06 2.57685e-05 1.50849e-20
1.28811e-05 -1.18247e-05 -8.09812e-21
1.38785e-05 2.43094e-05 -2.29131e-21
1.72274e-05 -1.40029e-06 -5.47059e-21
2.21168e-05 -6.32074e-05 -1.30161e-20
-5.87526e-06 -1.28573e-05 2.64396e-20
-2.31809e-05 1.00856e-05 9.30654e-21
-2.0017e-05 1.87163e-05 -1.74547e-20
2.16092e-05 1.45655e-05 2.32236e-20
1.86699e-05 -1.07551e-05 5.3348e-21
1.49498e-05 1.25916e-05 2.18527e-20
-5.42735e-06 4.55056e-08 -1.51758e-20
1.54014e-05 -2.30839e-05 1.49613e-21
-1.69878e-05 -2.04062e-05 -7.21822e-22
2.25586e-05 9.7723e-06 2.75901e-20
1.28048e-05 -1.1988e-05 -1.90411e-20
9.55253e-06 -2.48481e-05 1.22879e-20
1.66568e-05 -6.93188e-06 -2.50656e-20
-1.58031e-05 -7.54353e-06 8.34521e-21
1.29666e-06 -2.62991e-05 1.53877e-20
-2.61029e-05 4.47242e-06 5.35177e-21
2.39004e-06 2.45392e-05 -2.99981e-21
2.0582e-05 6.6265e-06 -3.28611e-22
-2.17173e-05 -1.07003e-05 6.46653e-22
-8.97591e-06 2.56063e-05 9.90437e-21
-1.49518e-06 -2.41845e-05 1.84088e-20
1.94636e-05 1.18357e-05 1.42203e-20
-1.76871e-06 1.80822e-05 3.35149e-21
-2.01359e-05 1.37006e-05 6.83484e-21
2.35076e-05 1.14136e-05 1.06074e-20
-1.71128e-05 -9.98421e-06 4.56233e-21
9.50879e-08 -1.9832e-05 4.30282e-21
1.83798e-05 1.99815e-05 9.5318e-21
-2.21507e-05 -1.43017e-05 4.78757e-21
4.83445e-05 -3.39776e-05 -1.22469e-20
1.78946e-05 -1.0821e-05 1.09979e-20
9.00066e-06 4.30815e-05 2.2011e-20
1.70319e-05 -1.36768e-05 3.98337e-20
-1.98724e-05 8.70243e-05 -6.05873e-21
-1.97626e-05 -8.65386e-05 -4.04117e-22
5.71771e-05 7.17086e-05 -1.39483e-20
5.69146e-05 -7.13824e-05 8.79478e-22
9.06359e-05 -1.60749e-10 -1.43721e-20
-7.81914e-05 3.76333e-05 -1.11489e-20
-7.74458e-05 -3.72776e-05 -9.30321e-21
1.22324e-05 1.18172e-05 1.35069e-20
2.93644e-05 2.18898e-05 9.99383e-21
1.14468e-05 3.33243e-06 -1.22266e-20
1.88535e-05 9.75036e-06 3.18688e-21
4.98864e-06 2.01678e-05 9.22772e-21
-1.88296e-05 -1.49786e-05 -2.636e-21
1.7036e-05 -1.0213e-05 1.76715e-20
1.98503e-05 1.45477e-05 1.96678e-20
-3.16658e-06 2.43612e-05 -1.59968e-20
2.94372e-05 -1.99905e-05 7.11954e-21
3.79346e-06 -2.37371e-05 -1.04681e-21
2.19584e-05 5.22646e-06 2.79269e-20
2.98925e-05 1.10247e-05 1.27105e-20
1.42071e-05 1.41422e-05 1.08682e-20
1.58814e-05 6.59296e-06 4.6833e-21
-1.84967e-05 1.09354e-05 -1.27459e-20
-2.25606e-05 9.03563e-06 -3.84988e-21
2.29269e-05 -1.12622e-05 -1.0166e-20
-1.82659e-05 -9.9969e-06 -2.44645e-22
-1.85524e-05 -1.05813e-05 8.75539e-21
-3.4382e-07 -2.07655e-05 1.49315e-20
-8.61444e-08 -2.11585e-05 1.82566e-20
-2.01248e-05 -1.00537e-06 1.97591e-20
2.66961e-05 -4.01873e-06 4.8179e-21
1.81101e-05 1.13409e-05 1.30528e-20
-1.78623e-05 1.09439e-05 -7.87107e-21
-1.53598e-05 1.66219e-05 -8.31006e-21
1.60204e-05 -1.37518e-05 3.56428e-20
-1.10223e-05 1.74615e-05 1.68649e-21
-1.42234e-05 -1.4888e-05 1.32738e-20
-1.15513e-06 2.12084e-05 3.36818e-22
-1.28755e-06 2.09661e-05 -1.0102e-20
8.97096e-08 -1.98319e-05 5.62644e-21
6.11018e-06 -1.97353e-05 8.71418e-21
-1.71392e-05 -9.93446e-06 -6.08177e-21
1.55852e-05 -5.48972e-06 9.07948e-21
6.63091e-07 2.14756e-05 1.17901e-21
3.00808e-07 1.85056e-05 3.68921e-21
-2.34552e-06 1.68556e-05 2.21449e-20
2.19066e-05 -5.52686e-06 4.56324e-21
-1.65397e-05 5.37753e-06 -7.31597e-21
4.15704e-06 2.15153e-05 8.12269e-21
-3.25552e-05 1.2918e-05 -5.90262e-21
9.76236e-06 4.17274e-05 1.61811e-20
-1.70518e-05 4.56769e-06 -1.4934e-21
1.96825e-05 -1.1629e-05 1.71622e-20
9.45676e-07 2.10175e-05 1.47126e-21
-2.04793e-05 6.69878e-06 -1.30355e-20
2.44386e-06 -1.62609e-05 2.46649e-20
1.81893e-06 -5.80071e-05 -1.13135e-20
2.00627e-06 1.74846e-05 1.47893e-20
-1.69605e-05 1.40213e-05 -2.07968e-20
1.78524e-05 6.39658e-05 1.37458e-20
4.5765e-05 3.77033e-05 -3.10197e-21
5.20601e-05 -3.52524e-05 -1.03255e-20
1.48141e-05 -1.01662e-05 2.73564e-20
-1.5784e-05 1.40363e-05 -1.08163e-20
-2.02151e-05 -7.91998e-06 1.70197e-21
-1.96439e-05 -6.82179e-06 9.11646e-21
5.92617e-05 -2.46097e-05 -2.92921e-20
5.74285e-05 2.38688e-05 7.30051e-21
1.08936e-05 3.81714e-06 -1.45137e-20
7.66563e-07 1.95776e-05 -2.16822e-21
7.83481e-08 1.9559e-05 1.22888e-20
-4.83787e-05 -3.69154e-05 2.34558e-21
1.14242e-05 -1.71705e-05 2.53522e-20
1.17323e-05 1.24636e-05 1.34454e-20
-2.14163e-05 -3.39545e-06 6.89729e-21
-1.40438e-05 1.72006e-05 -1.08588e-20
-1.8887e-05 9.16697e-06 -4.01663e-21
4.76393e-05 3.36915e-05 -2.19733e-21
1.58051e-05 7.06107e-06 2.68052e-20
-5.5663e-06 2.00287e-05 1.01596e-20
-1.69767e-05 -1.17482e-05 8.27306e-21
1.85609e-06 -2.05412e-05 -2.14093e-21
-8.949e-06 -1.92657e-05 1.51343e-20
-1.72477e-05 -1.17726e-05 8.04508e-21
1.05787e-05 -1.89342e-05 2.03166e-20
1.41213e-05 -1.69879e-05 1.37743e-20
-2.44021e-06 -6.14324e-05 1.32286e-20
2.61781e-05 -4.11224e-05 -1.07796e-20
1.74735e-06 -2.0784e-05 -2.16306e-21
1.79573e-05 1.13545e-05 2.24981e-21
-1.44752e-05 -1.49041e-05 4.87495e-22
-9.84031e-06 1.97086e-05 7.51513e-21
-5.03903e-06 2.10051e-05 -1.10625e-21
1.66259e-05 1.42426e-05 2.36484e-20
6.05852e-06 -1.98599e-05 -4.44164e-21
-1.34055e-05 -4.03548e-05 -1.2842e-21
-1.98823e-06 2.50385e-05 -2.72099e-20
1.47907e-05 1.4454e-05 7.27081e-21
-1.29573e-05 -1.02159e-05 9.09343e-21
-1.3514e-05 1.06074e-05 -1.90015e-20
4.43395e-05 -1.89118e-05 -1.93158e-20
7.56247e-06 -1.33992e-05 2.66585e-20
-8.31654e-06 -1.2626e-05 1.78473e-21
2.13289e-05 6.36299e-06 2.67849e-21
1.09935e-05 -5.06582e-05 2.35292e-20
-3.84486e-05 -3.49004e-05 1.31807e-20
2.3305e-05 6.20693e-06 1.81784e-20
-9.32755e-06 -1.82798e-05 6.80605e-22
1.87042e-05 9.48209e-06 1.28275e-20
-2.85624e-05 -3.25488e-05 4.34222e-21
9.68747e-06 5.00431e-05 6.99119e-22
3.43316e-05 -5.98553e-05 8.57894e-21
-3.47346e-05 -5.97722e-05 1.04258e-20
2.78063e-05 -5.20184e-05 -8.86847e-21
-1.26972e-05 4.363e-05 -1.18886e-20
-6.27562e-06 3.89746e-05 1.34781e-20
-1.87293e-05 8.94522e-06 -2.59177e-21
5.97677e-06 2.42404e-05 1.06274e-20
-2.3914e-06 1.26531e-05 4.21822e-21
1.01195e-05 3.2329e-06 2.46262e-21
-3.18824e-06 1.62043e-05 7.84985e-21
-2.47439e-07 2.09902e-05 -9.02883e-21
1.66594e-05 9.74987e-06 -2.99506e-22
1.71005e-06 5.77199e-05 1.11058e-20
-1.47162e-05 1.07319e-05 -1.06214e-20
1.59482e-05 -6.24615e-06 2.11388e-20
1.68706e-05 -4.50864e-06 2.06564e-20
-6.0658e-05 -8.76819e-06 3.53096e-21
-3.46031e-05 1.67402e-05 -8.6129e-21
-4.35114e-05 -5.25422e-05 -1.36e-21
8.65587e-06 8.34507e-06 4.03452e-21
1.42088e-05 7.29201e-06 1.79916e-20
2.68028e-05 -4.19555e-06 1.33242e-21
-8.10378e-06 -1.32418e-05 -2.5193e-21
1.72153e-05 8.42799e-06 1.06746e-21
7.33478e-06 -3.00324e-05 1.21245e-20
-1.37127e-05 1.02042e-05 -1.10055e-20
-2.23727e-05 -2.14207e-05 9.88316e-21
-5.83554e-06 1.62965e-05 1.4885e-22
-3.27075e-06 2.0677e-05 -6.42252e-21
3.38472e-05 2.12948e-05 -1.52049e-20
3.61105e-05 -1.92814e-05 1.27881e-20
-4.20671e-05 -1.16221e-05 8.94577e-21
7.6336e-06 7.68516e-06 2.74124e-20
-4.05829e-06 0.000101353 -9.62607e-21
8.61633e-07 -0.00010446 1.01772e-20
5.24502e-05 8.76382e-05 -1.08763e-20
-1.91015e-05 8.45725e-06 -1.60259e-20
-2.63745e-05 5.65451e-05 1.29109e-20
5.30284e-05 -8.4633e-05 2.194e-21
-1.17196e-05 -1.82809e-05 -2.17065e-21
7.7994e-05 6.74925e-05 7.30934e-22
2.39917e-05 -1.79754e-05 1.58398e-20
-3.60716e-06 -2.98198e-05 1.92722e-20
8.17723e-05 -6.58452e-05 6.25004e-21
-6.74411e-06 1.45172e-05 5.59327e-22
-5.38278e-05 -3.4821e-05 3.45153e-21
-4.30099e-05 -9.31223e-05 -1.7632e-21
-2.41107e-05 -5.77996e-05 1.27334e-22
-4.39714e-05 9.41293e-05 -3.03103e-21
-1.00925e-05 6.40788e-05 9.7143e-21
1.56315e-05 3.71053e-05 -1.81685e-21
-2.79531e-05 3.72374e-05 1.56184e-20
-2.5271e-05 -5.51789e-05 1.37224e-20
0.000100358 1.73156e-05 -8.575e-21
-1.69261e-05 1.07662e-05 -1.11613e-20
-5.91188e-06 1.63317e-05 1.47605e-20
-5.07539e-05 3.76365e-05 1.14078e-20
-1.72749e-05 9.94333e-06 -2.44423e-20
9.91948e-05 -1.52621e-05 -2.0506e-21
-1.5359e-05 7.79807e-06 8.88937e-21
7.19204e-06 -1.44938e-05 9.46785e-21
-7.79631e-05 -6.09432e-05 -1.3255e-20
-2.58769e-05 5.77125e-05 7.96504e-21
-7.91161e-05 6.03705e-05 3.48637e-22
2.45382e-05 5.19461e-05 -1.90263e-20
-1.47664e-05 1.05816e-05 -1.65949e-20
-2.05282e-05 2.44746e-05 -1.84179e-20
-2.85304e-05 4.98139e-05 2.57226e-20
-5.67714e-05 2.07972e-07 -3.6799e-20
-9.44036e-07 1.62948e-05 8.16484e-21
-2.88473e-05 -5.04024e-05 2.4526e-21
-5.81937e-05 -2.19784e-07 1.32798e-20
-2.83472e-05 4.86923e-05 -2.54843e-20
-1.51891e-05 6.62608e-05 2.13331e-20
-1.78634e-05 4.12572e-05 2.3059e-20
-3.38975e-05 2.71352e-05 -1.28769e-20
2.43809e-05 -6.05646e-06 3.2231e-20
3.79996e-05 -2.19513e-06 1.5412e-20
1.34813e-05 8.19965e-06 2.52115e-20
-1.04683e-05 -7.39817e-05 -2.79064e-21
-6.94433e-05 -2.79719e-05 -1.54947e-21
3.71292e-05 7.32679e-07 6.24338e-21
5.83614e-05 -1.08913e-05 -1.4036e-22
-1.05828e-05 -1.3496e-05 -1.71894e-22
-5.08247e-05 3.76223e-05 -5.50395e-21
-4.61299e-05 5.39956e-05 2.31075e-20
6.23576e-05 -2.22306e-05 -2.43592e-21
-2.81751e-05 -5.0493e-05 6.49923e-21
-2.87748e-05 4.97755e-05 3.81099e-20
-5.72498e-05 -1.17106e-06 -9.73461e-21
-2.65712e-05 5.05937e-05 -2.3195e-21
-5.79485e-05 -8.16948e-07 -2.45251e-20
6.60708e-05 1.7391e-05 -2.25876e-20
5.63757e-05 1.29239e-06 -9.59515e-21
5.0896e-05 -2.92715e-05 -3.54545e-20
2.49082e-05 -5.94224e-05 -1.14893e-20
2.99161e-05 -4.88528e-05 -7.44938e-21
2.91651e-05 4.86768e-05 4.60993e-21
2.43431e-05 5.80847e-05 -4.32191e-21
7.57962e-05 -2.00359e-05 -1.23885e-20
4.62626e-05 2.90609e-05 -3.62736e-21
4.66205e-05 1.37444e-05 -9.33897e-21
TENSORS solid_stress_TPM float
375.029 -24.9203 1.98478e-12
-24.9203 238.569 1.78465e-12
1.98478e-12 1.78465e-12 197.816

457 -21.3202 -3.59683e-12
-21.3202 489.983 6.54884e-13
-3.59683e-12 6.54884e-13 487.107

454.875 28.043 -2.37144e-12
28.043 463.704 9.54496e-13
-2.37144e-12 9.54496e-13 458.455

455.024 -29.8427 -3.51141e-12
-29.8427 482.605 2.38639e-12
-3.51141e-12 2.38639e-12 484.853

527.683 19.9309 -4.00361e-12
19.9309 548.454 -1.07758e-12
-4.00361e-12 -1.07758e-12 527.354

437.307 -18.0742 -2.09225e-12
-18.0742 480.334 5.66362e-12
-2.09225e-12 5.66362e-12 458.036

372.324 26.4844 1.90899e-12
26.4844 239.088 -1.32398e-12
1.90899e-12 -1.32398e-12 197.8

473.648 29.9577 3.30106e-12
29.9577 469.497 2.01676e-12
3.30106e-12 2.01676e-12 472.333

471.544 5.48309 -4.17562e-12
5.48309 417.818 -2.61953e-12
-4.17562e-12 -2.61953e-12 432.791

504.255 -7.47756 3.44613e-13
-7.47756 444.108 -1.67074e-12
3.44613e-13 -1.67074e-12 483.448

360.29 16.3083 -2.5769e-12
16.3083 247.653 3.53199e-12
-2.5769e-12 3.53199e-12 233.643

444.778 -13.4531 -1.59724e-13
-13.4531 498.381 -1.24937e-12
-1.59724e-13 -1.24937e-12 472.235

466.863 27.8329 4.90867e-13
27.8329 468.297 6.08698e-13
4.90867e-13 6.08698e-13 466.73

457.033 -14.34 9.63007e-13
-14.34 500.429 3.9441e-12
9.63007e-13 3.9441e-12 483.453

512.934 33.3115 -4.11404e-12
33.3115 511.593 -3.5198e-12
-4.11404e-12 -3.5198e-12 515.222

489.167 0.560964 1.31924e-12
0.560964 435.518 -2.54602e-13
1.31924e-12 -2.54602e-13 462.267

457.579 -17.9692 1.98482e-12
-17.9692 512.882 1.36602e-12
1.98482e-12 1.36602e-12 493.593

493.953 -2.6652 1.58096e-12
-2.6652 439.044 4.6807e-13
1.58096e-12 4.6807e-13 474.259

418.788 26.6734 -7.09655e-13
26.6734 449.655 -1.26121e-13
-7.09655e-13 -1.26121e-13 424.048

481.976 -4.19553 8.7456e-13
-4.19553 424.917 -8.38514e-13
8.7456e-13 -8.38514e-13 453.47

425.292 8.66849 -1.1835e-12
8.66849 481.898 3.61962e-12
-1.1835e-12 3.61962e-12 444.836

634.128 6.28776 4.11507e-12
6.28776 633.963 -3.22276e-12
4.11507e-12 -3.22276e-12 570.315

479.147 1.87597 2.17544e-12
1.87597 422.936 -2.58712e-12
2.17544e-12 -2.58712e-12 449.727

447.158 -27.7149 -2.77023e-12
-27.7149 461.145 -2.34598e-12
-2.77023e-12 -2.34598e-12 452.943

481.044 6.84932 -1.00009e-12
6.84932 425.436 3.69245e-12
-1.00009e-12 3.69245e-12 452.933

449.754 19.1128 2.61909e-12
19.1128 490.313 5.27282e-12
2.61909e-12 5.27282e-12 478.201

377.65 4.18132 4.56642e-12
4.18132 291.651 -3.2457e-12
4.56642e-12 -3.2457e-12 258.999

462.68 30.7456 3.97608e-12
30.7456 460.71 -1.94274e-12
3.97608e-12 -1.94274e-12 460.541

384.936 37.0739 3.50653e-12
37.0739 383.515 4.47287e-12
3.50653e-12 4.47287e-12 348.414

586.94 10.3235 1.20763e-12
10.3235 563.449 1.54476e-12
1.20763e-12 1.54476e-12 546.87

491.682 14.2168 -1.32043e-12
14.2168 442.493 9.5346e-13
-1.32043e-12 9.5346e-13 465.851

352.851 -17.7801 -2.05998e-12
-17.7801 416.718 1.56912e-12
-2.05998e-12 1.56912e-12 348.585

331.014 -42.1012 1.01134e-12
-42.1012 335.869 -6.43278e-12
1.01134e-12 -6.43278e-12 253.48

531.407 5.98682 2.27767e-12
5.98682 586.887 -1.77725e-12
2.27767e-12 -1.77725e-12 538.579

554.021 -4.84079 -4.95071e-12
-4.84079 582.069 6.96628e-13
-4.95071e-12 6.96628e-13 542.509

577.984 21.0279 -8.14164e-13
21.0279 539.945 3.25591e-12
-8.14164e-13 3.25591e-12 538.347

556.182 5.0676 -3.71066e-12
5.0676 600.673 -2.57453e-12
-3.71066e-12 -2.57453e-12 547.966

573.772 -9.1699 1.78169e-12
-9.1699 555.762 4.40611e-13
1.78169e-12 4.40611e-13 540.635

467.123 -27.9979 -2.92803e-12
-27.9979 466.486 -3.69305e-12
-2.92803e-12 -3.69305e-12 465.103

330.398 41.5205 -2.64559e-12
41.5205 337.967 2.90849e-12
-2.64559e-12 2.90849e-12 253.838

414.52 -17.9488 -1.02437e-12
-17.9488 354.483 1.64135e-12
-1.02437e-12 1.64135e-12 346.316

559.303 -3.70615 -2.38328e-13
-3.70615 599.922 2.54937e-12
-2.38328e-13 2.54937e-12 548.381

586.41 19.5557 -2.93765e-13
19.5557 572.453 1.02229e-12
-2.93765e-13 1.02229e-12 548.169

490.887 -12.2732 1.12147e-12
-12.2732 442.847 -2.66157e-13
1.12147e-12 -2.66157e-13 466.523

341.704 -43.2984 -3.81325e-12
-43.2984 345.332 -1.84741e-13
-3.81325e-12 -1.84741e-13 288.972

417.546 -18.0631 9.59233e-14
-18.0631 357.1 -1.79649e-12
9.59233e-14 -1.79649e-12 351.489

413 17.0854 -3.80881e-13
17.0854 464.769 -9.64562e-13
-3.80881e-13 -9.64562e-13 428.714

429.616 19.3387 -5.63549e-12
19.3387 466.499 3.34902e-12
-5.63549e-12 3.34902e-12 437.067

486.767 -16.3009 -2.85993e-13
-16.3009 432.862 -4.33431e-12
-2.85993e-13 -4.33431e-12 458.664

355.569 -34.1848 1.71063e-12
-34.1848 389.389 -2.61598e-12
1.71063e-12 -2.61598e-12 332.557

410.239 19.1815 2.33887e-12
19.1815 350.69 -3.79015e-12
2.33887e-12 -3.79015e-12 339.466

425.187 -25.288 -1.00542e-12
-25.288 383.808 -2.88155e-12
-1.00542e-12 -2.88155e-12 373.064

519.911 19.4858 1.64313e-13
19.4858 547.521 -1.4954e-12
1.64313e-13 -1.4954e-12 525.721

416.399 29.6488 -1.34293e-12
29.6488 393.873 3.15481e-12
-1.34293e-12 3.15481e-12 373.928

522.165 -21.8128 -3.50979e-12
-21.8128 541.387 4.61964e-13
-3.50979e-12 4.61964e-13 524.367

364.059 -42.7106 1.7503e-12
-42.7106 343.271 6.72292e-12
1.7503e-12 6.72292e-12 289.69

553.442 5.4598 1.46076e-12
5.4598 583.861 -6.68798e-13
1.46076e-12 -6.68798e-13 542.883

373.704 -5.32969 -2.55914e-12
-5.32969 436.649 -1.6603e-12
-2.55914e-12 -1.6603e-12 373.813

580.81 10.3842 -1.98537e-12
10.3842 556.162 1.02988e-12
-1.98537e-12 1.02988e-12 542.64

435.044 21.4128 -2.94934e-12
21.4128 473.748 2.31222e-12
-2.94934e-12 2.31222e-12 454.659

513.561 5.75384 -2.37173e-12
5.75384 452.795 1.37327e-12
-2.37173e-12 1.37327e-12 494.854

522.448 11.4589 -2.94091e-12
11.4589 487.851 7.37484e-13
-2.94091e-12 7.37484e-13 507.068

383.695 31.8194 -1.48977e-12
31.8194 315.185 -2.75691e-12
-1.48977e-12 -2.75691e-12 269.863

482.078 -6.03509 -2.36122e-12
-6.03509 528.17 -2.6971e-12
-2.36122e-12 -2.6971e-12 504.091

487.086 9.51966 -2.6823e-13
9.51966 523.68 7.93143e-13
-2.6823e-13 7.93143e-13 507.486

456.449 -2.88075 7.0736e-13
-2.88075 520.147 -2.21689e-12
7.0736e-13 -2.21689e-12 487.797

464.445 23.4021 2.8294e-12
23.4021 503.46 5.64881e-13
2.8294e-12 5.64881e-13 495.431

496.737 8.46345 -2.58815e-12
8.46345 444.388 2.27596e-12
-2.58815e-12 2.27596e-12 477.688

445.496 -28.239 -1.34648e-12
-28.239 459.518 -3.64745e-12
-1.34648e-12 -3.64745e-12 451.157

501.671 -1.71122 -1.83705e-12
-1.71122 444.906 1.62093e-14
-1.83705e-12 1.62093e-14 489.059

519.524 -19.2618 2.69725e-12
-19.2618 546.814 4.60076e-13
2.69725e-12 4.60076e-13 525.454

523.294 21.3078 1.42612e-12
21.3078 542.912 4.4971e-13
1.42612e-12 4.4971e-13 525.256

353.401 -16.5831 -1.7016e-12
-16.5831 415.726 -5.57776e-13
-1.7016e-12 -5.57776e-13 346.104

506.011 -27.936 5.95672e-13
-27.936 485.301 -3.34399e-12
5.95672e-13 -3.34399e-12 493.871

449.71 -25.1344 1.28875e-12
-25.1344 471.21 -9.4739e-14
1.28875e-12 -9.4739e-14 458.568

357.862 -31.7101 3.66403e-12
-31.7101 285.67 4.22181e-13
3.66403e-12 4.22181e-13 249.853

498.491 3.22259 2.02927e-12
3.22259 541.396 -1.35062e-12
2.02927e-12 -1.35062e-12 513.633

501.717 28.9437 -3.74397e-12
28.9437 474.54 5.21065e-13
-3.74397e-12 5.21065e-13 487.648

448.435 19.6641 1.79841e-12
19.6641 492.098 -2.90967e-12
1.79841e-12 -2.90967e-12 477.633

440.183 7.9994 1.66859e-12
7.9994 373.029 -3.21373e-12
1.66859e-12 -3.21373e-12 382.926

386.443 -33.9349 -3.42837e-12
-33.9349 360.199 1.7882e-13
-3.42837e-12 1.7882e-13 319.428

537.713 -10.5875 -3.15511e-12
-10.5875 556.131 2.4869e-14
-3.15511e-12 2.4869e-14 531.241

482.648 23.8994 2.35486e-12
23.8994 504.551 -2.11721e-12
2.35486e-12 -2.11721e-12 502.034

385.363 -32.3832 3.62969e-12
-32.3832 345.299 1.9386e-12
3.62969e-12 1.9386e-12 317.074

422.188 10.7909 2.72138e-12
10.7909 363.843 2.2838e-12
2.72138e-12 2.2838e-12 350.246

307.645 -21.2056 -6.27646e-14
-21.2056 388.435 8.23045e-12
-6.27646e-14 8.23045e-12 288.109

434.436 14.4255 -7.82041e-13
14.4255 488.659 8.09427e-13
-7.82041e-13 8.09427e-13 460.875

509.712 23.1428 -1.21444e-12
23.1428 475.163 1.22983e-12
-1.21444e-12 1.22983e-12 489.938

338.234 42.1979 -3.01389e-12
42.1979 349.564 1.74557e-12
-3.01389e-12 1.74557e-12 288.945

634.214 16.5072 6.56482e-12
16.5072 603.066 1.54949e-11
6.56482e-12 1.54949e-11 565.32

372.881 -4.10827 -7.0699e-13
-4.10827 436.808 -2.0961e-12
-7.0699e-13 -2.0961e-12 373.419

637.119 -16.6323 -6.20637e-12
-16.6323 599.536 -5.7628e-12
-6.20637e-12 -5.7628e-12 564.826

533.932 -27.3349 -4.64044e-12
-27.3349 507.231 1.4353e-12
-4.64044e-12 1.4353e-12 515.707

505.288 27.4245 4.02759e-12
27.4245 466.326 -5.55585e-12
4.02759e-12 -5.55585e-12 485.064

426.917 -24.4102 -3.291e-12
-24.4102 386.231 4.42727e-12
-3.291e-12 4.42727e-12 375.971

358.929 31.3226 -6.00882e-12
31.3226 395.996 2.57216e-12
-6.00882e-12 2.57216e-12 339.194

339.818 -10.7049 1.88945e-12
-10.7049 408.384 -4.83169e-13
1.88945e-12 -4.83169e-13 319.099

453.096 21.9706 -6.52811e-13
21.9706 494.67 -6.51153e-12
-6.52811e-13 -6.51153e-12 483.16

533.106 16.794 -4.74287e-13
16.794 506.191 -6.17254e-12
-4.74287e-13 -6.17254e-12 513.346

443.445 15.1537 9.14824e-13
15.1537 488.432 -1.60109e-12
9.14824e-13 -1.60109e-12 464.275

451.473 15.9536 3.03875e-12
15.9536 400.53 -4.8761e-12
3.03875e-12 -4.8761e-12 403.74

374.482 -21.4721 2.64855e-12
-21.4721 419.859 -3.8014e-13
2.64855e-12 -3.8014e-13 357.191

389.716 -29.3901 -4.42905e-13
-29.3901 342.364 -2.81256e-13
-4.42905e-13 -2.81256e-13 314.385

454.958 -24.5728 6.76496e-14
-24.5728 480.057 1.40628e-12
6.76496e-14 1.40628e-12 478.363

466.419 27.4508 -3.15481e-12
27.4508 478.736 -3.95713e-12
-3.15481e-12 -3.95713e-12 479.802

452.209 23.1875 -1.76348e-12
23.1875 492.551 3.39136e-12
-1.76348e-12 3.39136e-12 482.036

466.29 13.1692 -2.18176e-12
13.1692 529.77 2.2767e-12
-2.18176e-12 2.2767e-12 501.377

490.854 9.3722 3.52548e-12
9.3722 437.882 2.07138e-12
3.52548e-12 2.07138e-12 462.048

327.706 -4.66498 -3.54206e-12
-4.66498 403.374 -1.32161e-12
-3.54206e-12 -1.32161e-12 314.406

462.572 -36.8333 1.48355e-12
-36.8333 487.683 -1.35395e-12
1.48355e-12 -1.35395e-12 492.741

445.842 27.4649 -5.52447e-13
27.4649 463.263 1.28904e-12
-5.52447e-13 1.28904e-12 455.007

305.667 2.1703 2.78599e-12
2.1703 393.354 7.72123e-13
2.78599e-12 7.72123e-13 297.251

385.99 34.6097 -1.73846e-12
34.6097 332.443 7.59097e-13
-1.73846e-12 7.59097e-13 306.24

453.344 -22.9737 8.63309e-13
-22.9737 480.063 2.03748e-12
8.63309e-13 2.03748e-12 476.166

501.387 5.73296 1.12118e-12
5.73296 441.308 -3.85048e-12
1.12118e-12 -3.85048e-12 481.003

422.374 27.2035 1.36187e-12
27.2035 389.761 -1.61826e-12
1.36187e-12 -1.61826e-12 374.228

570.538 12.7455 -8.85218e-13
12.7455 565.914 -2.57957e-12
-8.85218e-13 -2.57957e-12 542.911

396.172 24.33 1.11555e-12
24.33 349.643 2.73263e-12
1.11555e-12 2.73263e-12 319.039

569.16 -13.0551 -2.11312e-12
-13.0551 565.825 -3.90058e-12
-2.11312e-12 -3.90058e-12 542.367

375.086 0.778519 -6.15226e-12
0.778519 438.862 -2.77704e-12
-6.15226e-12 -2.77704e-12 374.634

461.464 -2.23528 -2.00965e-12
-2.23528 399.297 1.30003e-12
-2.00965e-12 1.30003e-12 417.275

538.19 -15.7681 1.30237e-12
-15.7681 480.625 -1.48711e-12
1.30237e-12 -1.48711e-12 513.472

457.238 24.3881 2.91606e-12
24.3881 487.778 9.66782e-13
2.91606e-12 9.66782e-13 488.348

461.25 -13.535 1.16996e-12
-13.535 519.129 9.32587e-13
1.16996e-12 9.32587e-13 495.708

514.963 -8.00002 -1.4125e-12
-8.00002 438.185 -2.68615e-12
-1.4125e-12 -2.68615e-12 494.271

488.31 -22.2842 -2.05199e-12
-22.2842 541.597 -5.27874e-13
-2.05199e-12 -5.27874e-13 515.745

556.047 -6.59641 3.27294e-12
-6.59641 560.39 -1.03166e-12
3.27294e-12 -1.03166e-12 538.724

463.86 -29.9081 4.08059e-12
-29.9081 483.189 1.50517e-12
4.08059e-12 1.50517e-12 483.593

341.702 11.4534 -7.41066e-12
11.4534 406.187 1.33582e-12
-7.41066e-12 1.33582e-12 319.478

422.475 -28.1459 2.82204e-12
-28.1459 391.236 5.56769e-12
2.82204e-12 5.56769e-12 375.141

507.377 -13.7723 6.12843e-13
-13.7723 558.744 -2.55973e-12
6.12843e-13 -2.55973e-12 525.247

501.05 0.5044 7.75084e-13
0.5044 441.273 -4.50565e-12
7.75084e-13 -4.50565e-12 487.08

476.936 -21.5246 9.542e-13
-21.5246 507.416 2.89783e-12
9.542e-13 2.89783e-12 501.499

459.091 25.6976 1.56157e-12
25.6976 484.594 -3.56789e-13
1.56157e-12 -3.56789e-13 487.975

394.424 -31.4638 -2.36848e-14
-31.4638 400.593 -3.90799e-14
-2.36848e-14 -3.90799e-14 357.516

552.123 -7.08515 -3.36457e-12
-7.08515 585.292 -3.38455e-12
-3.36457e-12 -3.38455e-12 542.599

347.205 -33.0761 2.64559e-12
-33.0761 382.601 -6.27409e-12
2.64559e-12 -6.27409e-12 303.43

490.863 -19.1794 -3.04941e-13
-19.1794 448.381 -1.37224e-12
-3.04941e-13 -1.37224e-12 467.118

519.702 1.97022 1.36987e-12
1.97022 466.808 -2.43242e-12
1.36987e-12 -2.43242e-12 502.826

570.555 17.8751 -5.13071e-13
17.8751 566.477 4.15223e-12
-5.13071e-13 4.15223e-12 542.371

375.285 20.1824 -1.27128e-12
20.1824 424.025 -2.80546e-12
-1.27128e-12 -2.80546e-12 360.215

489.075 27.2102 -1.72011e-12
27.2102 468.533 -6.1758e-13
-1.72011e-12 -6.1758e-13 476.633

454.372 -24.5112 -2.19084e-12
-24.5112 415.336 1.57622e-12
-2.19084e-12 1.57622e-12 418.596

454.712 -17.8384 1.00771e-12
-17.8384 494.9 -1.76333e-12
1.00771e-12 -1.76333e-12 482.635

379.192 35.0675 -4.42905e-13
35.0675 366.024 -3.51482e-12
-4.42905e-13 -3.51482e-12 317.043

449.145 -21.831 -2.58934e-12
-21.831 491.697 8.64198e-13
-2.58934e-12 8.64198e-13 479.767

485.484 30.8502 -2.72375e-12
30.8502 465.129 3.76321e-12
-2.72375e-12 3.76321e-12 473.439

480.315 -25.2437 -6.32383e-13
-25.2437 442.36 -2.12689e-12
-6.32383e-13 -2.12689e-12 455.436

448.211 -25.126 2.16508e-12
-25.126 469.76 3.49883e-12
2.16508e-12 3.49883e-12 458.089

445.337 -18.6877 -2.84217e-13
-18.6877 393.454 -4.13832e-12
-2.84217e-13 -4.13832e-12 397.251

470.645 -18.8493 -4.65405e-12
-18.8493 422.846 1.18098e-12
-4.65405e-12 1.18098e-12 437.524

458.991 -25.3369 2.91234e-12
-25.3369 485.421 5.85569e-12
2.91234e-12 5.85569e-12 488.818

386.534 35.9686 1.54188e-12
35.9686 381.981 2.40163e-12
1.54188e-12 2.40163e-12 348.11

444.487 15.3765 -8.74264e-13
15.3765 491.524 -7.8811e-13
-8.74264e-13 -7.8811e-13 467.132

469.388 26.4219 2.55026e-12
26.4219 479.949 -1.15848e-12
2.55026e-12 -1.15848e-12 482.538

456.134 25.4736 -4.21789e-12
25.4736 486.638 2.41259e-12
-4.21789e-12 2.41259e-12 487.238

457.799 11.6213 -3.43859e-12
11.6213 506.931 2.38269e-12
-3.43859e-12 2.38269e-12 486.007

431.942 -8.22681 4.03944e-12
-8.22681 370.748 -3.53051e-12
4.03944e-12 -3.53051e-12 363.299

376.771 18.606 3.57758e-12
18.606 427.256 -8.11203e-13
3.57758e-12 -8.11203e-13 363.875

452.303 -24.3802 -1.27276e-12
-24.3802 478.376 8.54132e-13
-1.27276e-12 8.54132e-13 470.702

440.737 25.6654 -2.49104e-12
25.6654 455.631 -2.34361e-12
-2.49104e-12 -2.34361e-12 437.797

390.947 -35.6285 -2.62664e-12
-35.6285 380.269 7.69873e-12
-2.62664e-12 7.69873e-12 350.083

368.933 38.3157 4.02641e-14
38.3157 327.245 1.73965e-12
4.02641e-14 1.73965e-12 295.676

363.639 -33.3102 3.11395e-12
-33.3102 394.426 5.79092e-13
3.11395e-12 5.79092e-13 341.971

397.921 -31.1588 -5.17394e-12
-31.1588 404.183 -1.42701e-12
-5.17394e-12 -1.42701e-12 362.965

502.847 -6.83865 2.55411e-12
-6.83865 442.24 4.3839e-12
2.55411e-12 4.3839e-12 482.308

393.155 30.341 8.41875e-12
30.341 408.969 7.15161e-12
8.41875e-12 7.15161e-12 363.425

429.691 13.2943 2.50348e-12
13.2943 372.238 4.94419e-14
2.50348e-12 4.94419e-14 362.705

350.135 13.3785 -3.01714e-12
13.3785 418.504 -4.26326e-14
-3.01714e-12 -4.26326e-14 348.466

379.47 -22.3398 -7.40149e-13
-22.3398 423.502 -1.89241e-12
-7.40149e-13 -1.89241e-12 363.439

491.199 -1.09149 1.20141e-12
-1.09149 550.869 3.34547e-12
1.20141e-12 3.34547e-12 516.297

372.854 2.24655 1.8634e-12
2.24655 437.776 -2.94165e-12
1.8634e-12 -2.94165e-12 373.511

357.881 31.0885 -3.8843e-13
31.0885 399.476 2.77467e-12
-3.8843e-13 2.77467e-12 341.952

457.981 12.1077 9.8857e-13
12.1077 510.551 3.53673e-12
9.8857e-13 3.53673e-12 488.394

421.442 -27.6469 -5.12775e-12
-27.6469 389.062 1.68635e-12
-5.12775e-12 1.68635e-12 375.063

524.747 20.5569 6.86858e-13
20.5569 469.74 -8.90251e-13
6.86858e-13 -8.90251e-13 500.726

534.917 26.2704 2.42946e-12
26.2704 506.851 4.20701e-13
2.42946e-12 4.20701e-13 516.085

494.806 -18.5673 2.17071e-12
-18.5673 449.016 -6.81825e-13
2.17071e-12 -6.81825e-13 470.846

554.576 -1.80107 1.92128e-12
-1.80107 516.015 -1.23013e-12
1.92128e-12 -1.23013e-12 525.708

473.277 -31.8116 1.50783e-12
-31.8116 475.687 -2.01883e-12
1.50783e-12 -2.01883e-12 478.568

412.588 23.3272 5.05433e-12
23.3272 357.187 3.39343e-12
5.05433e-12 3.39343e-12 348.083

464.167 30.162 1.28727e-12
30.162 482.758 -2.05317e-12
1.28727e-12 -2.05317e-12 483.195

464.429 29.2058 -2.0357e-12
29.2058 482.231 -4.81393e-13
-2.0357e-12 -4.81393e-13 482.756

393.937 30.6601 3.3206e-12
30.6601 405.714 -3.8772e-12
3.3206e-12 -3.8772e-12 360.86

502.845 27.0848 -1.66149e-12
27.0848 482.656 -3.8695e-12
-1.66149e-12 -3.8695e-12 490.725

415.341 3.52506 5.26157e-12
3.52506 339.009 1.3155e-12
5.26157e-12 1.3155e-12 340.816

493.113 31.8172 -4.50751e-12
31.8172 487.214 -2.68822e-13
-4.50751e-12 -2.68822e-13 495.565

476.318 -12.5997 1.2265e-12
-12.5997 522.442 -3.6593e-13
1.2265e-12 -3.6593e-13 500.239

536.918 24.2782 1.38053e-12
24.2782 507.394 1.94896e-12
1.38053e-12 1.94896e-12 516.622

468.168 -29.5786 2.00373e-12
-29.5786 479.96 3.83693e-12
2.00373e-12 3.83693e-12 483.052

464.552 -4.8981 7.64796e-13
-4.8981 521.547 -7.79229e-13
7.64796e-13 -7.79229e-13 490.97

400.93 -24.5557 -3.87956e-12
-24.5557 349.015 -2.67638e-12
-3.87956e-12 -2.67638e-12 323.942

418.957 29.6924 3.39047e-12
29.6924 392.455 5.00933e-12
3.39047e-12 5.00933e-12 373.761

352.336 14.6962 3.55123e-12
14.6962 417.202 -2.03215e-12
3.55123e-12 -2.03215e-12 348.231

500.52 -1.13887 -2.60621e-12
-1.13887 442.785 4.25919e-12
-2.60621e-12 4.25919e-12 487.7

492.461 0.00223211 5.45726e-12
0.00223211 438.094 -5.01802e-13
5.45726e-12 -5.01802e-13 474.41

452.956 23.1237 -2.20298e-12
23.1237 479.698 5.11591e-13
-2.20298e-12 5.11591e-13 475.577

481.295 23.8709 -3.34962e-12
23.8709 502.866 2.50098e-12
-3.34962e-12 2.50098e-12 501.245

456.579 -24.3807 -4.74785e-12
-24.3807 487.343 1.2846e-12
-4.74785e-12 1.2846e-12 488.489

457.828 -0.672723 1.56649e-12
-0.672723 517.934 -1.89952e-12
1.56649e-12 -1.89952e-12 486.392

458.876 25.5903 1.30888e-12
25.5903 486.461 3.78593e-12
1.30888e-12 3.78593e-12 488.511

465.552 -10.3078 -4.88913e-12
-10.3078 408.078 -5.2179e-12
-4.88913e-12 -5.2179e-12 427.217

400.859 -32.8328 -1.25944e-12
-32.8328 414.95 -1.80004e-12
-1.25944e-12 -1.80004e-12 385.16

518.092 -2.30064 -1.3262e-12
-2.30064 465.734 6.66726e-13
-1.3262e-12 6.66726e-13 500.923

391.867 -34.5076 5.72934e-12
-34.5076 379.601 1.73372e-12
5.72934e-12 1.73372e-12 347.413

477.997 19.0861 -7.72123e-13
19.0861 509.197 3.65633e-12
-7.72123e-13 3.65633e-12 501.842

506.109 -26.4786 -1.09779e-12
-26.4786 470.244 8.57388e-13
-1.09779e-12 8.57388e-13 487.27

424.996 -9.69007 2.16716e-12
-9.69007 366.727 -2.08307e-12
2.16716e-12 -2.08307e-12 355.977

530.264 -23.1919 1.94985e-12
-23.1919 488.755 -7.06102e-13
1.94985e-12 -7.06102e-13 506.487

500.889 2.35826 2.70288e-12
2.35826 444.574 -1.66178e-12
2.70288e-12 -1.66178e-12 489.202

521.189 -23.3213 3.31764e-12
-23.3213 501.84 -8.98837e-13
3.31764e-12 -8.98837e-13 508.531

502.013 -25.8594 2.69414e-13
-25.8594 461.489 -1.86695e-12
2.69414e-13 -1.86695e-12 481.241

498.824 -8.54603 2.59289e-12
-8.54603 445.133 2.35486e-12
2.59289e-12 2.35486e-12 479.342

482.218 -23.0681 3.45797e-13
-23.0681 504.99 -3.88386e-12
3.45797e-13 -3.88386e-12 502.533

428.536 -31.3414 7.04385e-12
-31.3414 410.585 2.33473e-12
7.04385e-12 2.33473e-12 398.994

503.265 -24.5871 -3.30639e-12
-24.5871 464.711 -3.95358e-12
-3.30639e-12 -3.95358e-12 482.157

441.237 10.8643 -1.05871e-12
10.8643 378.478 5.38828e-14
-1.05871e-12 5.38828e-14 387.795

500.035 26.3401 -4.28665e-12
26.3401 498.582 -1.57696e-12
-4.28665e-12 -1.57696e-12 500.103

463.747 -37.613 1.81899e-12
-37.613 488.386 4.6179e-12
1.81899e-12 4.6179e-12 494.08

464.856 37.2653 4.52379e-13
37.2653 487.298 4.40648e-12
4.52379e-13 4.40648e-12 493.795

446.324 -28.5734 -5.76317e-13
-28.5734 500.012 7.99657e-13
-5.76317e-13 7.99657e-13 492.31

448.559 27.0642 -1.23324e-12
27.0642 500.703 2.54019e-13
-1.23324e-12 2.54019e-13 492.497

513.067 -8.52767 -7.09062e-14
-8.52767 436.402 -8.40069e-13
-7.09062e-14 -8.40069e-13 492.757

511.229 9.27368 -1.2097e-12
9.27368 437.999 -2.7646e-12
-1.2097e-12 -2.7646e-12 492.395

501.653 -9.84609 4.31063e-13
-9.84609 451.74 9.5346e-13
4.31063e-13 9.5346e-13 483.018

510.863 32.1163 3.94055e-13
32.1163 510.388 2.68679e-12
3.94055e-13 2.68679e-12 514.053

509.639 -32.8543 -2.16064e-12
-32.8543 510.066 1.06679e-12
-2.16064e-12 1.06679e-12 513.692

481.808 16.0685 5.33455e-12
16.0685 539.13 -3.12816e-12
5.33455e-12 -3.12816e-12 514.325

483.001 -15.801 -3.27516e-12
-15.801 538.719 9.84694e-13
-3.27516e-12 9.84694e-13 514.346

556.868 -3.74753 -2.31356e-12
-3.74753 506.831 -2.70717e-12
-2.31356e-12 -2.70717e-12 524.991

558.423 3.6103 4.43408e-12
3.6103 505.155 2.09699e-12
4.43408e-12 2.09699e-12 525.363

387.305 9.83674 5.3928e-12
9.83674 449.192 1.05634e-12
5.3928e-12 1.05634e-12 397.083

472.384 -24.774 4.34319e-13
-24.774 480.75 -3.53939e-12
4.34319e-13 -3.53939e-12 484.973

443.457 -36.3876 1.74838e-12
-36.3876 485.528 1.29704e-12
1.74838e-12 1.29704e-12 486.624

473.637 -4.66425 -4.0418e-12
-4.66425 420.432 9.22632e-13
-4.0418e-12 9.22632e-13 436.334

540.252 -16.6948 -1.0257e-12
-16.6948 484.19 3.69186e-13
-1.0257e-12 3.69186e-13 515.286

540.972 16.1758 4.82769e-12
16.1758 485.413 -3.41061e-13
4.82769e-12 -3.41061e-13 515.891

506.857 0.121883 -1.2957e-12
0.121883 423.546 5.65385e-12
-1.2957e-12 5.65385e-12 486.998

384.787 23.3749 1.86902e-12
23.3749 432.292 5.68434e-13
1.86902e-12 5.68434e-13 385.472

442.329 36.1716 1.69235e-12
36.1716 485.207 2.61983e-12
1.69235e-12 2.61983e-12 485.829

452.593 -23.3957 -3.26539e-12
-23.3957 494.949 1.36779e-13
-3.26539e-12 1.36779e-13 483.587

443.243 23.3525 4.18983e-12
23.3525 397.514 -2.47802e-12
4.18983e-12 -2.47802e-12 400.368

530.966 23.8582 1.88175e-12
23.8582 488.005 -1.70086e-12
1.88175e-12 -1.70086e-12 507.245

428.474 -31.3132 -3.27797e-12
-31.3132 410.869 -3.52607e-12
-3.27797e-12 -3.52607e-12 398.813

519.856 -3.23089 1.21488e-12
-3.23089 469.055 -4.29286e-14
1.21488e-12 -4.29286e-14 502.682

439.391 -34.161 1.80685e-12
-34.161 485.499 -2.70036e-12
1.80685e-12 -2.70036e-12 485.819

389.179 8.31986 -3.51152e-12
8.31986 452.323 2.76875e-12
-3.51152e-12 2.76875e-12 400.851

385.874 21.8113 9.25778e-13
21.8113 435.768 -8.12387e-13
9.25778e-13 -8.12387e-13 388.69

383.842 35.7754 -1.13924e-12
35.7754 362.327 1.67096e-12
-1.13924e-12 1.67096e-12 318.324

408.177 1.57873 -8.83441e-13
1.57873 332.151 4.1005e-12
-8.83441e-13 4.1005e-12 327.32

485.451 -22.8044 1.01371e-12
-22.8044 502.854 -1.35099e-12
1.01371e-12 -1.35099e-12 501.745

351.874 31.1834 -6.11185e-12
31.1834 388.826 -4.39826e-12
-6.11185e-12 -4.39826e-12 312.353

451.344 23.6098 1.03591e-12
23.6098 478.408 3.246e-12
1.03591e-12 3.246e-12 465.208

442.191 -5.34948 -9.04047e-12
-5.34948 377.121 9.17192e-13
-9.04047e-12 9.17192e-13 387.733

464.15 11.2159 -3.88845e-12
11.2159 407.294 -4.01309e-12
-3.88845e-12 -4.01309e-12 424.917

505.373 0.429906 -3.95269e-12
0.429906 421.566 1.45066e-12
-3.95269e-12 1.45066e-12 485.669

449.344 -29.0311 -3.77587e-12
-29.0311 501.992 2.34538e-12
-3.77587e-12 2.34538e-12 493.583

572.507 -6.31901 -8.93182e-12
-6.31901 589.48 3.7188e-12
-8.93182e-12 3.7188e-12 549.249

463.134 37.4117 -8.07058e-13
37.4117 487.021 -1.01996e-12
-8.07058e-13 -1.01996e-12 493.059

408.733 1.66327 -4.93827e-12
1.66327 331.598 -3.48247e-12
-4.93827e-12 -3.48247e-12 308.9

404.229 -32.7865 -1.22805e-12
-32.7865 415.503 -1.85096e-12
-1.22805e-12 -1.85096e-12 387.384

443.135 36.6131 3.41127e-12
36.6131 485.5 2.61287e-12
3.41127e-12 2.61287e-12 486.566

444.674 -11.1338 3.6694e-12
-11.1338 498.929 1.73432e-12
3.6694e-12 1.73432e-12 471.436

386.068 -25.5142 8.93804e-13
-25.5142 428.895 2.13163e-14
8.93804e-13 2.13163e-14 384.559

449.444 28.8301 1.56108e-12
28.8301 501.625 5.32137e-12
1.56108e-12 5.32137e-12 493.283

452.705 -26.1415 2.3069e-12
-26.1415 419.297 1.81603e-12
2.3069e-12 1.81603e-12 419.512

579.549 10.4834 -1.39622e-12
10.4834 582.16 -9.51705e-12
-1.39622e-12 -9.51705e-12 549.034

398.323 30.8715 9.16008e-13
30.8715 422.053 -2.91086e-12
9.16008e-13 -2.91086e-12 388.158

515.701 8.12676 3.72517e-12
8.12676 437.262 -1.66533e-13
3.72517e-12 -1.66533e-13 494.576

493.8 30.1906 1.66119e-12
30.1906 484.742 -3.11247e-12
1.66119e-12 -3.11247e-12 493.797

453.459 23.3317 4.73695e-14
23.3317 479.157 -4.1774e-13
4.73695e-14 -4.1774e-13 475.793

510.697 -32.4889 -1.99396e-12
-32.4889 512.448 -4.17085e-12
-1.99396e-12 -4.17085e-12 515.002

510.303 -23.19 -4.60076e-13
-23.19 473.176 1.83054e-12
-4.60076e-13 1.83054e-12 489.672

511.397 10.4708 1.68199e-13
10.4708 557.987 2.32525e-12
1.68199e-13 2.32525e-12 523.727

452.167 -23.4336 2.30453e-12
-23.4336 480.16 -6.22909e-13
2.30453e-12 -6.22909e-13 468.945

394.405 -9.70766 5.21302e-12
-9.70766 316.41 6.2957e-13
5.21302e-12 6.2957e-13 295.571

387.285 -14.277 -8.35598e-12
-14.277 306.055 -8.70415e-13
-8.35598e-12 -8.70415e-13 290.046

547.579 16.5293 -1.26921e-12
16.5293 507.759 3.60926e-12
-1.26921e-12 3.60926e-12 519.315

436.482 22.5014 4.52083e-13
22.5014 469.13 2.10202e-13
4.52083e-13 2.10202e-13 447.818

475.957 29.1629 2.9754e-12
29.1629 467.64 1.19608e-12
2.9754e-12 1.19608e-12 471.473

450.295 0.688664 1.73728e-12
0.688664 392.772 3.40118e-12
1.73728e-12 3.40118e-12 395.669

478.346 6.57123 8.13877e-13
6.57123 541.273 -6.24093e-13
8.13877e-13 -6.24093e-13 507.535

507.325 16.5408 -6.02185e-13
16.5408 461.13 4.35859e-12
-6.02185e-13 4.35859e-12 488.074

389.972 -25.7607 3.61962e-12
-25.7607 430.03 -3.01389e-12
3.61962e-12 -3.01389e-12 387.728

456.313 -2.57244 1.95229e-12
-2.57244 517.008 9.14824e-13
1.95229e-12 9.14824e-13 484.835

400.584 13.365 1.80981e-12
13.365 452.979 2.11623e-12
1.80981e-12 2.11623e-12 404.63

486.908 -29.7131 1.00483e-12
-29.7131 465.808 2.66276e-12
1.00483e-12 2.66276e-12 474.253

430.292 -29.947 1.4578e-12
-29.947 423.623 -3.07902e-14
1.4578e-12 -3.07902e-14 404.949

399.705 31.6223 2.8321e-12
31.6223 418.226 -1.21976e-13
2.8321e-12 -1.21976e-13 385.996

623.998 -15.0202 -3.35287e-12
-15.0202 581.945 1.82676e-12
-3.35287e-12 1.82676e-12 557.9

494.517 2.04125 -1.35751e-12
2.04125 552.138 1.77162e-12
-1.35751e-12 1.77162e-12 517.919

483.496 20.3002 1.29289e-12
20.3002 542.037 -3.40439e-12
1.29289e-12 -3.40439e-12 516.025

544.7 15.4391 -3.45294e-12
15.4391 479.965 2.57542e-12
-3.45294e-12 2.57542e-12 515.747

473.742 -26.1885 -1.12828e-12
-26.1885 479.75 2.12275e-13
-1.12828e-12 2.12275e-13 483.011

452.119 17.957 2.4194e-12
17.957 404.502 -3.03313e-12
2.4194e-12 -3.03313e-12 406.912

531.575 -5.29415 -4.94071e-12
-5.29415 580.796 2.62101e-12
-4.94071e-12 2.62101e-12 537.113

512.181 -18.9882 1.05545e-12
-18.9882 464.787 -4.58596e-13
1.05545e-12 -4.58596e-13 493.022

473.969 -15.5987 -5.29532e-12
-15.5987 423.17 -2.84365e-13
-5.29532e-12 -2.84365e-13 438.874

401.994 11.603 2.21452e-12
11.603 455.951 7.74492e-13
2.21452e-12 7.74492e-13 407.774

410.917 -25.7338 8.67454e-13
-25.7338 435.575 9.34364e-13
8.67454e-13 9.34364e-13 398.95

532.043 -25.2738 2.6148e-12
-25.2738 523.188 1.70116e-12
2.6148e-12 1.70116e-12 519.113

423.05 31.959 -5.24084e-12
31.959 417.243 3.87068e-12
-5.24084e-12 3.87068e-12 400.299

535.476 -25.1347 -1.99929e-12
-25.1347 505.783 -1.66918e-12
-1.99929e-12 -1.66918e-12 515.654

453.488 2.59733 1.08358e-12
2.59733 397.014 6.1889e-12
1.08358e-12 6.1889e-12 401.892

311.095 -28.9301 8.82257e-14
-28.9301 376.592 6.90174e-12
8.82257e-14 6.90174e-12 289.991

431.87 -29.2305 5.99816e-13
-29.2305 424.042 -1.85333e-12
5.99816e-13 -1.85333e-12 406.148

353.757 32.1584 -8.08834e-13
32.1584 392.539 2.62901e-12
-8.08834e-13 2.62901e-12 312.964

470.341 -11.877 -2.31791e-12
-11.877 529.546 -1.26832e-12
-2.31791e-12 -1.26832e-12 500.298

391.445 -13.8211 -4.83628e-12
-13.8211 449.247 1.59398e-12
-4.83628e-12 1.59398e-12 400.193

602.851 -23.9882 -5.06957e-12
-23.9882 602.264 -6.75904e-13
-5.06957e-12 -6.75904e-13 557.841

408.366 23.7704 1.80359e-12
23.7704 441.934 -3.52074e-12
1.80359e-12 -3.52074e-12 402.217

496.572 -32.7263 3.87838e-13
-32.7263 490.635 -1.4948e-12
3.87838e-13 -1.4948e-12 497.441

388.184 -11.9629 -2.93343e-12
-11.9629 448.279 -3.44613e-13
-2.93343e-12 -3.44613e-13 397.01

516.705 -19.1169 -5.79684e-13
-19.1169 465.748 1.45069e-14
-5.79684e-13 1.45069e-14 496.238

410.681 23.8767 2.0132e-13
23.8767 439.306 2.61835e-12
2.0132e-13 2.61835e-12 400.693

488.914 -4.97545 3.03757e-13
-4.97545 435.065 -1.8849e-12
3.03757e-13 -1.8849e-12 460.377

305.779 -30.3423 9.00376e-12
-30.3423 391.434 -5.11591e-12
9.00376e-12 -5.11591e-12 262.567

438.604 21.0138 -2.05169e-13
21.0138 473.907 1.08891e-12
-2.05169e-13 1.08891e-12 458.344

445.682 -19.323 3.36324e-12
-19.323 393.973 6.17935e-12
3.36324e-12 6.17935e-12 399.619

551.6 -21.4459 -2.85905e-12
-21.4459 499.513 -3.72443e-13
-2.85905e-12 -3.72443e-13 520.099

424.466 31.7535 -2.55322e-12
31.7535 413.319 -1.68043e-12
-2.55322e-12 -1.68043e-12 397.956

459.159 -29.9714 -8.36664e-13
-29.9714 437.634 2.22045e-14
-8.36664e-13 2.22045e-14 439.296

510.616 20.8852 -5.01525e-13
20.8852 476.069 -6.16721e-12
-5.01525e-13 -6.16721e-12 492.753

461.501 -28.0758 5.04989e-12
-28.0758 485.737 -5.46304e-13
5.04989e-12 -5.46304e-13 488.715

413.717 -26.2248 5.87382e-13
-26.2248 436.241 -3.66048e-12
5.87382e-13 -3.66048e-12 401.436

426.072 28.9806 1.42641e-12
28.9806 429.895 4.61853e-14
1.42641e-12 4.61853e-14 406.858

452.498 26.1909 -7.99361e-13
26.1909 418.225 5.70684e-12
-7.99361e-13 5.70684e-12 419.056

521.968 -14.6098 1.901e-12
-14.6098 477.175 1.66297e-12
1.901e-12 1.66297e-12 500.062

403.559 -16.6173 3.54857e-12
-16.6173 451.74 6.61989e-13
3.54857e-12 6.61989e-13 406.441

496.044 -17.5682 3.4183e-12
-17.5682 447.605 -1.69849e-12
3.4183e-12 -1.69849e-12 471.499

487.762 16.9083 -2.24413e-13
16.9083 436.257 -1.74734e-12
-2.24413e-13 -1.74734e-12 460.587

513.341 -9.38692 -2.29294e-12
-9.38692 555.777 4.18036e-13
-2.29294e-12 4.18036e-13 523.028

453.976 -13.4298 -4.5001e-13
-13.4298 402.177 -2.89679e-12
-4.5001e-13 -2.89679e-12 406.741

403.2 0.594005 1.81188e-13
0.594005 465.723 5.13012e-12
1.81188e-13 5.13012e-12 417.803

475.024 18.5548 2.24591e-12
18.5548 428.77 1.71063e-12
2.24591e-12 1.71063e-12 442.219

451.141 27.6035 2.47506e-12
27.6035 421.837 -2.70717e-12
2.47506e-12 -2.70717e-12 420.842

400.867 -15.6858 3.65604e-12
-15.6858 451.38 1.36543e-12
3.65604e-12 1.36543e-12 403.734

405.999 -1.2023 -2.55795e-12
-1.2023 468.032 -4.1922e-13
-2.55795e-12 -4.1922e-13 421.218

516.198 29.1343 -3.53732e-12
29.1343 498.025 5.10377e-12
-3.53732e-12 5.10377e-12 504.875

441.703 -10.922 3.82035e-12
-10.922 500.656 5.26394e-13
3.82035e-12 5.26394e-13 471.147

451.438 -26.7149 -3.59653e-12
-26.7149 418.765 -3.45857e-12
-3.59653e-12 -3.45857e-12 419.351

444.385 21.3322 -5.6725e-13
21.3322 395.297 2.98487e-12
-5.6725e-13 2.98487e-12 398.2

497.594 23.6652 -1.52411e-12
23.6652 458.089 -5.4771e-13
-1.52411e-12 -5.4771e-13 476.549

447.681 5.47069 -1.93327e-12
5.47069 508.789 2.08781e-12
-1.93327e-12 2.08781e-12 476.88

427.648 29.0651 -3.91391e-13
29.0651 426.433 1.64491e-12
-3.91391e-13 1.64491e-12 405.109

536.821 22.9638 -1.27898e-13
22.9638 531.897 1.09157e-12
-1.27898e-13 1.09157e-12 522.784

314.749 -59.691 -1.62477e-12
-59.691 282.769 -8.21387e-12
-1.62477e-12 -8.21387e-12 223.423

480.593 -25.0475 1.42997e-12
-25.0475 445.071 4.74583e-13
1.42997e-12 4.74583e-13 456.645

336.663 7.0698 1.77991e-12
7.0698 409.154 2.64085e-12
1.77991e-12 2.64085e-12 319.439

460.537 -28.8889 -6.53699e-13
-28.8889 444.736 1.38674e-12
-6.53699e-13 1.38674e-12 443.452

96.4237 -52.7008 1.79767e-12
-52.7008 306.617 -2.00373e-12
1.79767e-12 -2.00373e-12 113.699

95.9576 51.4515 1.8782e-12
51.4515 306.882 -1.85689e-12
1.8782e-12 -1.85689e-12 114.487

181.517 117.154 -5.64408e-12
117.154 226.076 -1.88057e-12
-5.64408e-12 -1.88057e-12 113.588

182.814 -117.096 1.65793e-14
-117.096 223.312 -5.30539e-13
1.65793e-14 -5.30539e-13 113.562

321.582 -1.36336 1.04213e-13
-1.36336 84.6533 -2.85084e-14
1.04213e-13 -2.85084e-14 114.929

274.433 -91.1252 4.57116e-12
-91.1252 127.418 -2.76401e-12
4.57116e-12 -2.76401e-12 113.802

275.129 91.653 -4.98327e-12
91.653 128.251 -4.53326e-12
-4.98327e-12 -4.53326e-12 114.572

525.239 14.3302 -7.08885e-12
14.3302 474.711 -3.85706e-12
-7.08885e-12 -3.85706e-12 502.313

556.797 25.5366 -3.55331e-12
25.5366 541.183 4.26474e-13
-3.55331e-12 4.26474e-13 533.449

492.091 6.60597 -1.61175e-12
6.60597 439.12 1.86221e-12
-1.61175e-12 1.86221e-12 471.401

470.298 21.7843 -4.64221e-13
21.7843 424.516 3.09293e-12
-4.64221e-13 3.09293e-12 438.193

409.974 17.7442 -6.94704e-13
17.7442 461.072 1.43352e-12
-6.94704e-13 1.43352e-12 425.042

448.009 28.8981 -5.58546e-12
28.8981 424.704 3.56219e-12
-5.58546e-12 3.56219e-12 420.749

487.148 -29.6632 -1.4276e-12
-29.6632 465.626 2.20742e-12
-1.4276e-12 2.20742e-12 474.589

449.366 28.0274 1.26121e-12
28.0274 421.07 -1.15641e-12
1.26121e-12 -1.15641e-12 418.641

402.962 -2.8412 -2.86156e-12
-2.8412 465.38 3.17376e-12
-2.86156e-12 3.17376e-12 417.539

555.803 -26.0975 1.43115e-12
-26.0975 543.376 3.01196e-12
1.43115e-12 3.01196e-12 533.693

405.5 -4.86231 -4.36096e-13
-4.86231 467.118 1.56083e-12
-4.36096e-13 1.56083e-12 420.598

522.292 23.0161 -3.73627e-13
23.0161 499.742 1.81188e-13
-3.73627e-13 1.81188e-13 507.969

423.377 26.8703 4.28457e-12
26.8703 386.506 1.13095e-12
4.28457e-12 1.13095e-12 373.026

480.108 -13.2161 2.13074e-12
-13.2161 532.768 -1.98064e-12
2.13074e-12 -1.98064e-12 512

484.197 13.7278 5.57717e-12
13.7278 432.775 -8.08538e-13
5.57717e-12 -8.08538e-13 456.874

457.367 -29.9873 4.29878e-13
-29.9873 436.975 2.30334e-13
4.29878e-13 2.30334e-13 437.832

454.307 -24.7132 2.19558e-12
-24.7132 416.803 3.06777e-12
2.19558e-12 3.06777e-12 419.852

547.404 -16.0745 5.07002e-12
-16.0745 509.305 -2.07242e-14
5.07002e-12 -2.07242e-14 519.384

475.971 27.9287 2.57986e-12
27.9287 449.705 -5.12775e-13
2.57986e-12 -5.12775e-13 456.924

469.1 23.9772 4.78965e-12
23.9772 427.848 -2.46025e-12
4.78965e-12 -2.46025e-12 439.829

432.428 -2.79295 -1.63754e-12
-2.79295 493.635 -1.13628e-12
-1.63754e-12 -1.13628e-12 457.106

417.606 5.87331 -1.24827e-12
5.87331 479.556 5.85606e-13
-1.24827e-12 5.85606e-13 440.176

463.01 2.64668 -4.9134e-12
2.64668 402.279 5.27078e-12
-4.9134e-12 5.27078e-12 422.32

438.646 -7.28956 3.30402e-13
-7.28956 373.914 -1.21562e-12
3.30402e-13 -1.21562e-12 381.217

454.842 30.4844 4.73873e-12
30.4844 439.014 6.34159e-13
4.73873e-12 6.34159e-13 437.836

478.464 -26.1552 4.20404e-14
-26.1552 443.542 -6.32383e-13
4.20404e-14 -6.32383e-13 454.645

525.7 -21.2543 6.161e-13
-21.2543 497.828 -3.9441e-12
6.161e-13 -3.9441e-12 508.618

437.732 -31.6333 2.75691e-12
-31.6333 437.654 9.10087e-13
2.75691e-12 9.10087e-13 426.858

417.589 -27.7852 9.18969e-13
-27.7852 444.395 -1.89419e-12
9.18969e-13 -1.89419e-12 419.687

430.646 29.8868 -1.60227e-12
29.8868 442.743 -5.23848e-12
-1.60227e-12 -5.23848e-12 426.496

416.224 -9.57783 2.73355e-12
-9.57783 475.21 -3.9672e-14
2.73355e-12 -3.9672e-14 436.454

428.894 -1.54476 -6.55772e-13
-1.54476 491.867 2.55203e-13
-6.55772e-13 2.55203e-13 453.994

445.181 5.74795 -1.97749e-12
5.74795 508.042 2.22045e-12
-1.97749e-12 2.22045e-12 474.913

414.618 -21.0888 4.49389e-12
-21.0888 458.406 1.09424e-12
4.49389e-12 1.09424e-12 426.064

496.868 24.111 -8.53836e-13
24.111 455.695 -1.07588e-12
-8.53836e-13 -1.07588e-12 474.592

483.372 -9.58967 3.36442e-12
-9.58967 430.111 4.82429e-13
3.36442e-12 4.82429e-13 455.22

415.632 7.46521 1.09951e-12
7.46521 477.12 -7.44294e-13
1.09951e-12 -7.44294e-13 436.912

443.954 -9.70107 1.91671e-12
-9.70107 501.503 3.75996e-13
1.91671e-12 3.75996e-13 471.006

433.173 -16.3305 -3.08938e-13
-16.3305 481.675 -2.63671e-12
-3.08938e-13 -2.63671e-12 455.667

463.538 -8.23913 3.78956e-14
-8.23913 406.334 -1.17447e-12
3.78956e-14 -1.17447e-12 421.47

494.433 -32.3468 9.05646e-13
-32.3468 487.615 -3.24067e-12
9.05646e-13 -3.24067e-12 496.25

422.943 9.32076 2.77052e-12
9.32076 479.09 -2.97836e-13
2.77052e-12 -2.97836e-13 440.979

564.358 -18.2126 1.0146e-12
-18.2126 529.951 2.65343e-12
1.0146e-12 2.65343e-12 531.831

309.048 24.8225 -2.25005e-14
24.8225 379.422 -1.10608e-12
-2.25005e-14 -1.10608e-12 289.797

501.698 -26.6261 2.12867e-12
-26.6261 499.49 7.70643e-13
2.12867e-12 7.70643e-13 501.199

515.649 -30.2028 3.47278e-12
-30.2028 498.404 -5.76428e-13
3.47278e-12 -5.76428e-13 504.918

429.222 -0.701302 -2.38246e-12
-0.701302 491.992 -1.93268e-12
-2.38246e-12 -1.93268e-12 454.144

474.88 -16.6225 -4.0643e-12
-16.6225 428.336 3.82509e-13
-4.0643e-12 3.82509e-13 441.955

462.305 12.8416 -2.55927e-12
12.8416 511.274 2.7048e-12
-2.55927e-12 2.7048e-12 489.121

240.776 -3.1805 -6.26595e-12
-3.1805 360.687 -3.8014e-12
-6.26595e-12 -3.8014e-12 226.965

432.403 14.2736 2.30319e-12
14.2736 485.356 -1.6455e-12
2.30319e-12 -1.6455e-12 456.882

458.111 -29.489 4.42905e-13
-29.489 443.17 7.16464e-12
4.42905e-13 7.16464e-12 440.761

304.186 25.1055 2.21393e-12
25.1055 394.584 1.93031e-12
2.21393e-12 1.93031e-12 264.34

603.551 26.0981 2.83166e-12
26.0981 597.956 1.49901e-11
2.83166e-12 1.49901e-11 558.157

608.285 -27.8075 5.19895e-12
-27.8075 595.031 -5.11739e-13
5.19895e-12 -5.11739e-13 558.291

463.493 -30.4189 1.91669e-12
-30.4189 459.038 -8.28374e-13
1.91669e-12 -8.28374e-13 459.072

434.584 -31.16 -9.49759e-13
-31.16 436.359 6.00053e-12
-9.49759e-13 6.00053e-12 424.662

474.1 20.8274 2.61302e-12
20.8274 431.915 6.81233e-13
2.61302e-12 6.81233e-13 443.972

465.221 15.006 1.64017e-13
15.006 410.116 -2.56891e-12
1.64017e-13 -2.56891e-12 427.462

646.07 3.0836 -1.4051e-12
3.0836 645.728 2.87614e-11
-1.4051e-12 2.87614e-11 574.62

649.891 -7.0002 2.92137e-13
-7.0002 641.398 -3.66566e-12
2.92137e-13 -3.66566e-12 575.148

496.988 4.82431 1.66326e-12
4.82431 442.034 -2.9412e-12
1.66326e-12 -2.9412e-12 477.412

443.557 6.73094 -3.287e-13
6.73094 502.989 4.48116e-12
-3.287e-13 4.48116e-12 471.05

441.972 6.73632 2.79065e-12
6.73632 502.514 4.07792e-12
2.79065e-12 4.07792e-12 469.773

321.536 58.634 -4.42431e-12
58.634 281.122 6.1083e-12
-4.42431e-12 6.1083e-12 225.076

420.228 -28.1996 9.99497e-13
-28.1996 444.023 -7.48438e-13
9.99497e-13 -7.48438e-13 421.031

520.578 17.9745 -2.19913e-12
17.9745 467.53 -1.31036e-12
-2.19913e-12 -1.31036e-12 499.509

472.979 9.5397 -3.42955e-12
9.5397 421.197 3.43044e-12
-3.42955e-12 3.43044e-12 436.203

440.629 -26.7231 -6.55061e-12
-26.7231 450.725 -9.0831e-13
-6.55061e-12 -9.0831e-13 433.415

469.276 -20.2376 -2.56624e-12
-20.2376 422.716 3.45472e-12
-2.56624e-12 3.45472e-12 437.176

312.473 60.2318 -2.75454e-12
60.2318 281.372 -5.47118e-12
-2.75454e-12 -5.47118e-12 223.215

492.681 31.069 1.05338e-12
31.069 489.042 -2.20535e-12
1.05338e-12 -2.20535e-12 493.138

410.863 -19.786 1.05042e-12
-19.786 457.881 2.22163e-12
1.05042e-12 2.22163e-12 423.497

474.128 28.8575 2.78059e-12
28.8575 449.631 1.54425e-12
2.78059e-12 1.54425e-12 456.518

430.956 -4.14479 5.42181e-12
-4.14479 492.972 2.45966e-12
5.42181e-12 2.45966e-12 456.467

423.93 19.6091 8.06762e-13
19.6091 465.711 1.5703e-12
8.06762e-13 1.5703e-12 434.108

452.747 30.5186 -5.515e-12
30.5186 443.598 -5.97448e-13
-5.515e-12 -5.97448e-13 439.608

428.643 -22.4731 -6.35936e-13
-22.4731 461.136 -3.05237e-12
-6.35936e-13 -3.05237e-12 433.812

443.574 -27.3524 -4.71208e-12
-27.3524 450.432 -9.34364e-13
-4.71208e-12 -9.34364e-13 435.045

294.778 11.2569 7.08914e-13
11.2569 372.585 1.79294e-12
7.08914e-13 1.79294e-12 258.101

357.298 -33.456 -7.79229e-13
-33.456 389.117 1.80478e-12
-7.79229e-13 1.80478e-12 314.128

419.658 -11.6905 1.82809e-12
-11.6905 476.36 -2.18373e-12
1.82809e-12 -2.18373e-12 439.345

478.397 26.4844 -4.3201e-12
26.4844 446.799 5.04841e-12
-4.3201e-12 5.04841e-12 456.084

452.345 29.4778 -1.35418e-12
29.4778 449.026 -3.57699e-12
-1.35418e-12 -3.57699e-12 442.399

426.808 -21.4338 2.23229e-13
-21.4338 461.783 3.27679e-12
2.23229e-13 3.27679e-12 432.63

422.93 -11.7823 -7.78636e-13
-11.7823 476.647 -5.02709e-13
-7.78636e-13 -5.02709e-13 439.928

457.706 28.4094 1.67925e-12
28.4094 447.087 -2.35782e-12
1.67925e-12 -2.35782e-12 442.571

425.105 -13.8777 4.52853e-12
-13.8777 476.419 -4.07555e-12
4.52853e-12 -4.07555e-12 442.105

311.265 27.8548 1.47023e-12
27.8548 377.39 -3.44613e-12
1.47023e-12 -3.44613e-12 289.984

485.17 -4.0413 -4.05245e-12
-4.0413 545.049 -1.91965e-12
-4.05245e-12 -1.91965e-12 511.037

432.985 31.0273 -1.88886e-12
31.0273 439.628 -1.01015e-12
-1.88886e-12 -1.01015e-12 426.019

509.31 14.9011 2.32466e-12
14.9011 463.161 -4.25437e-13
2.32466e-12 -4.25437e-13 488.605

516.921 -15.9274 5.06262e-14
-15.9274 467.582 -8.32519e-13
5.06262e-14 -8.32519e-13 493.923

383.925 -24.2044 -8.76336e-13
-24.2044 305.948 -4.89801e-12
-8.76336e-13 -4.89801e-12 285.354

442.278 -21.2671 -4.0643e-12
-21.2671 475.999 -4.32839e-13
-4.0643e-12 -4.32839e-13 459.32

447.827 26.6981 2.53841e-12
26.6981 466.206 3.93167e-13
2.53841e-12 3.93167e-13 457.841

522.975 -21.7279 -3.93226e-12
-21.7279 543.812 1.52027e-13
-3.93226e-12 1.52027e-13 525.309

579.584 14.1068 -8.90843e-13
14.1068 617.621 4.0498e-12
-8.90843e-13 4.0498e-12 557.053

620.208 9.44534 -5.76013e-12
9.44534 576.842 -1.90514e-12
-5.76013e-12 -1.90514e-12 556.871

523.47 32.7055 -7.57261e-12
32.7055 520.651 -3.89229e-12
-7.57261e-12 -3.89229e-12 519.524

414.891 26.0002 1.79442e-12
26.0002 448.905 -7.11135e-13
1.79442e-12 -7.11135e-13 420.376

478.095 26.6614 -1.92439e-12
26.6614 444.769 -1.2621e-12
-1.92439e-12 -1.2621e-12 455.507

332.362 45.1857 -3.47692e-12
45.1857 349.489 -5.31368e-12
-3.47692e-12 -5.31368e-12 286.739

571.391 -11.3438 1.39429e-12
-11.3438 614.472 -1.89093e-12
1.39429e-12 -1.89093e-12 554.595

641.327 -3.43297 -1.89296e-11
-3.43297 636.87 5.06439e-12
-1.89296e-11 5.06439e-12 572.396

634.905 -0.210071 -4.47864e-12
-0.210071 643.178 3.63583e-12
-4.47864e-12 3.63583e-12 572.223

272.963 -53.8023 8.61296e-12
-53.8023 316.447 -7.48202e-12
8.61296e-12 -7.48202e-12 220.909

566.638 -11.6 1.82254e-12
-11.6 562.125 3.14741e-12
1.82254e-12 3.14741e-12 540.898

563.771 8.81307 2.81153e-12
8.81307 586.962 1.31066e-12
2.81153e-12 1.31066e-12 546.84

478.243 -26.1994 2.77881e-12
-26.1994 440.441 -3.55271e-13
2.77881e-12 -3.55271e-13 453.481

494.348 1.0111 -3.4666e-12
1.0111 545.759 -1.21325e-12
-3.4666e-12 -1.21325e-12 514.056

447.65 -20.2678 -2.14495e-13
-20.2678 484.157 3.13823e-14
-2.14495e-13 3.13823e-14 470.636

506.3 6.25532 1.16085e-12
6.25532 443.373 -1.21814e-12
1.16085e-12 -1.21814e-12 486.124

461.274 15.5963 -3.20981e-12
15.5963 521.252 -1.01637e-12
-3.20981e-12 -1.01637e-12 497.556

471.18 7.19163 -1.47682e-12
7.19163 528.005 -5.02176e-12
-1.47682e-12 -5.02176e-12 497.69

493.762 20.3927 9.75812e-13
20.3927 451.517 -3.83071e-12
9.75812e-13 -3.83071e-12 469.75

241.065 -3.1139 -6.22968e-12
-3.1139 358.559 4.1472e-12
-6.22968e-12 4.1472e-12 227.063

463.699 -27.6236 4.29819e-12
-27.6236 463.39 -7.11135e-13
4.29819e-12 -7.11135e-13 461.19

488.344 -26.1162 1.61412e-12
-26.1162 481.597 -5.02798e-12
1.61412e-12 -5.02798e-12 485.868

497.537 -31.4837 -1.41605e-12
-31.4837 489.957 1.35595e-12
-1.41605e-12 1.35595e-12 498.98

355.599 32.7494 2.52953e-12
32.7494 285.778 -6.23827e-12
2.52953e-12 -6.23827e-12 248.366

563.881 -20.1165 2.09048e-12
-20.1165 569.614 -9.95204e-13
2.09048e-12 -9.95204e-13 542.571

337.647 54.322 -3.46271e-12
54.322 356.657 -2.69059e-12
-3.46271e-12 -2.69059e-12 258.874

477.071 -21.4396 2.93809e-12
-21.4396 506.489 -4.3728e-13
2.93809e-12 -4.3728e-13 500.243

504.772 14.6504 -1.86281e-12
14.6504 451.986 2.66409e-12
-1.86281e-12 2.66409e-12 481.559

449.83 -14.5723 1.51109e-12
-14.5723 396.986 -1.09468e-12
1.51109e-12 -1.09468e-12 400.839

452.592 24.0466 2.69592e-12
24.0466 478.779 -2.04992e-12
2.69592e-12 -2.04992e-12 467.847

493.665 20.4279 5.73053e-12
20.4279 449.5 4.94419e-13
5.73053e-12 4.94419e-13 469.341

505.565 11.4006 3.17598e-12
11.4006 564.416 -4.60343e-12
3.17598e-12 -4.60343e-12 526.711

475.895 -31.5801 -2.75868e-12
-31.5801 470.355 4.4024e-13
-2.75868e-12 4.4024e-13 475.063

559.27 19.8124 1.07825e-12
19.8124 510.44 -4.63629e-13
1.07825e-12 -4.63629e-13 526.487

439.957 -18.4433 -7.28898e-13
-18.4433 482.464 -1.84386e-12
-7.28898e-13 -1.84386e-12 459.148

465.897 4.28314 -4.16896e-12
4.28314 526.107 -3.50771e-12
-4.16896e-12 -3.50771e-12 495.509

588.64 9.92672 -4.25497e-12
9.92672 552.462 -2.10498e-12
-4.25497e-12 -2.10498e-12 545.188

590.423 -8.51333 2.63049e-12
-8.51333 554.804 3.21683e-12
2.63049e-12 3.21683e-12 545.706

382.308 18.5122 -5.54934e-12
18.5122 302.287 -2.09492e-12
-5.54934e-12 -2.09492e-12 286.133

502.677 7.96498 -2.50141e-12
7.96498 453.599 1.89286e-12
-2.50141e-12 1.89286e-12 487.764

232.815 7.74041 -3.56367e-12
7.74041 381.515 -9.04758e-13
-3.56367e-12 -9.04758e-13 187.186

236.984 -11.385 -4.39208e-12
-11.385 387.208 1.33108e-12
-4.39208e-12 1.33108e-12 189.45

249.287 56.4065 2.68822e-12
56.4065 354.776 9.4739e-15
2.68822e-12 9.4739e-15 184.023

505.014 -28.9504 2.2915e-13
-28.9504 478.614 4.78195e-12
2.2915e-13 4.78195e-12 491.342

258.471 -49.1899 -6.27291e-12
-49.1899 341.84 5.43328e-12
-6.27291e-12 5.43328e-12 220.733

249.292 -55.949 -3.61666e-12
-55.949 344.751 4.47168e-12
-3.61666e-12 4.47168e-12 181.115

434.653 26.2198 8.96468e-13
26.2198 454.391 -2.05998e-12
8.96468e-13 -2.05998e-12 432.823

329.923 73.8432 4.59958e-12
73.8432 280.01 -1.81425e-12
4.59958e-12 -1.81425e-12 184.827

540.127 13.0473 1.76659e-12
13.0473 554.946 -1.83527e-12
1.76659e-12 -1.83527e-12 532.076

562.383 0.0393052 -1.15019e-13
0.0393052 532.453 -3.4559e-12
-1.15019e-13 -3.4559e-12 531.869

338.601 -73.1286 -6.78331e-12
-73.1286 279.857 1.73372e-12
-6.78331e-12 1.73372e-12 186.309

432.668 -23.4237 1.94097e-12
-23.4237 466.309 -1.21088e-12
1.94097e-12 -1.21088e-12 447.57

358.93 34.7287 2.79717e-12
34.7287 310.974 8.90784e-12
2.79717e-12 8.90784e-12 258.037

267.704 63.4902 1.46609e-12
63.4902 345.21 1.8332e-12
1.46609e-12 1.8332e-12 185.844

293.692 21.6299 2.82678e-12
21.6299 367.66 -1.12976e-12
2.82678e-12 -1.12976e-12 254.496

267.576 -65.919 -5.33144e-12
-65.919 344.845 -4.46695e-12
-5.33144e-12 -4.46695e-12 184.3

291.639 -12.3809 6.22909e-12
-12.3809 370.881 5.47118e-13
6.22909e-12 5.47118e-13 253.442

550.307 6.84183 1.5293e-12
6.84183 582.077 -5.50671e-13
1.5293e-12 -5.50671e-13 541.116

329.888 -45.9741 4.45984e-12
-45.9741 341.814 6.26936e-12
4.45984e-12 6.26936e-12 276.613

259.781 47.5312 -2.47979e-12
47.5312 340.216 1.45188e-12
-2.47979e-12 1.45188e-12 223.145

370.215 37.911 -1.29792e-12
37.911 244.919 2.64026e-12
-1.29792e-12 2.64026e-12 187.356

481.889 -29.2855 5.01702e-12
-29.2855 460.51 4.54185e-12
5.01702e-12 4.54185e-12 467.713

480.976 12.8967 1.46994e-13
12.8967 525.828 5.56296e-13
1.46994e-13 5.56296e-13 504.103

354.417 -38.1119 3.54798e-12
-38.1119 300.076 1.8711e-12
3.54798e-12 1.8711e-12 251.814

482.533 -28.802 -1.36424e-12
-28.802 460.32 -5.1843e-12
-1.36424e-12 -5.1843e-12 468.462

365.263 -36.3429 4.73695e-15
-36.3429 230.988 1.85452e-12
4.73695e-15 1.85452e-12 182.77

481.501 -28.3172 2.4792e-12
-28.3172 472.754 6.70042e-12
2.4792e-12 6.70042e-12 477.917

436.352 -25.2946 -2.33413e-12
-25.2946 466.222 7.87518e-13
-2.33413e-12 7.87518e-13 448.208

314.798 69.4597 -3.5385e-12
69.4597 292.141 8.88652e-12
-3.5385e-12 8.88652e-12 184.523

290.781 -22.9324 -7.07108e-12
-22.9324 359.163 -7.9486e-12
-7.07108e-12 -7.9486e-12 247.028

312.399 -71.6916 3.58587e-12
-71.6916 288.121 8.5502e-13
3.58587e-12 8.5502e-13 182.026

268.545 50.7367 2.84217e-14
50.7367 320.058 7.14806e-12
2.84217e-14 7.14806e-12 221.504

459.86 -30.2119 3.19093e-12
-30.2119 454.844 4.23691e-12
3.19093e-12 4.23691e-12 454.399

559.286 -14.6403 -1.96258e-12
-14.6403 544.412 9.43542e-13
-1.96258e-12 9.43542e-13 533.716

635.922 11.0927 3.92175e-12
11.0927 631.383 -3.78512e-13
3.92175e-12 -3.78512e-13 570.019

619.957 -5.15999 1.8486e-12
-5.15999 639.739 -7.17204e-12
1.8486e-12 -7.17204e-12 568.497

453.868 13.0836 -2.54617e-12
13.0836 506.554 1.70234e-12
-2.54617e-12 1.70234e-12 482.571

634.152 -10.667 3.21232e-12
-10.667 631.314 -5.15632e-12
3.21232e-12 -5.15632e-12 569.874

622.696 4.09172 1.56838e-12
4.09172 642.685 2.49615e-13
1.56838e-12 2.49615e-13 569.698

643.375 7.43417 6.90085e-12
7.43417 619.148 -2.49238e-12
6.90085e-12 -2.49238e-12 569.021

584.776 -12.1153 -1.28345e-12
-12.1153 631.668 -2.24709e-12
-1.28345e-12 -2.24709e-12 560.592

307.443 -30.4697 -1.24262e-11
-30.4697 371.631 1.49214e-13
-1.24262e-11 1.49214e-13 280.768

589.625 -12.9721 -3.73716e-12
-12.9721 549.113 -3.07724e-12
-3.73716e-12 -3.07724e-12 543.826

527.206 -34.4178 -5.77612e-12
-34.4178 521.486 3.85114e-12
-5.77612e-12 3.85114e-12 519.964

565.464 -18.1768 2.49075e-12
-18.1768 537.989 2.13488e-12
2.49075e-12 2.13488e-12 534.257

502.569 15.4591 1.49628e-12
15.4591 452.114 -2.2536e-12
1.49628e-12 -2.2536e-12 480.205

586.349 9.8643 -6.98201e-12
9.8643 642.135 6.95695e-12
-6.98201e-12 6.95695e-12 563.103

636.658 19.2277 -3.24836e-12
19.2277 591.723 -6.98919e-12
-3.24836e-12 -6.98919e-12 562.924

569.775 11.3062 -1.21059e-12
11.3062 544.338 -3.7077e-12
-1.21059e-12 -3.7077e-12 536.435

353.441 -15.3392 1.83083e-12
-15.3392 231.515 3.45205e-12
1.83083e-12 3.45205e-12 219.013

437.205 24.9638 3.45679e-12
24.9638 461.911 2.04873e-12
3.45679e-12 2.04873e-12 445.72

317.089 -61.3541 4.44563e-12
-61.3541 277.848 -2.61717e-12
4.44563e-12 -2.61717e-12 218.088

334.208 -57.4568 1.6603e-12
-57.4568 357.322 6.58673e-12
1.6603e-12 6.58673e-12 252.539

383.333 -36.5437 8.57862e-12
-36.5437 305.738 7.12911e-13
8.57862e-12 7.12911e-13 257.759

562.496 -5.15897 1.56201e-12
-5.15897 616.951 -6.26565e-12
1.56201e-12 -6.26565e-12 552.949

562.203 2.89123 -2.20875e-12
2.89123 615.817 -4.56701e-12
-2.20875e-12 -4.56701e-12 552.548

598.77 -24.4564 3.00796e-12
-24.4564 575.742 -3.84803e-13
3.00796e-12 -3.84803e-13 551.578

602.329 -21.7607 6.10049e-12
-21.7607 573.433 -1.08654e-12
6.10049e-12 -1.08654e-12 551.844

598.783 26.1361 -2.3513e-12
26.1361 580.457 4.48323e-12
-2.3513e-12 4.48323e-12 552.733

625.742 3.09956 -6.56897e-12
3.09956 630.735 2.14273e-14
-6.56897e-12 2.14273e-14 568.42

599.059 -20.509 -1.09542e-13
-20.509 576.353 3.43503e-12
-1.09542e-13 3.43503e-12 552.266

607.81 -18.5684 2.96237e-12
-18.5684 620.263 2.20072e-11
2.96237e-12 2.20072e-11 563.185

632.9 2.43459 -1.33138e-12
2.43459 635.527 -3.76913e-12
-1.33138e-12 -3.76913e-12 570.505

607.886 -20.5264 3.24037e-12
-20.5264 572.426 -2.92655e-12
3.24037e-12 -2.92655e-12 553.405

607.071 20.956 6.50369e-13
20.956 573.685 -2.47091e-12
6.50369e-13 -2.47091e-12 553.809

633.851 -3.45862 -6.74349e-12
-3.45862 636.778 1.69484e-11
-6.74349e-12 1.69484e-11 571.279

632.181 -3.11732 6.51908e-12
-3.11732 625.756 -3.72931e-12
6.51908e-12 -3.72931e-12 569.394

609.681 12.1098 1.00169e-11
12.1098 620.485 -3.80962e-12
1.00169e-11 -3.80962e-12 563.916

587.203 26.9298 1.36158e-12
26.9298 583.018 2.42355e-12
1.36158e-12 2.42355e-12 551.702

FIELD solute_concentration_TPM 2
S_ext 1 563 float
0.98756
0.98737
0.98739
0.987371
0.98734
0.98739
0.98756
0.987381
0.987407
0.987373
0.987521
0.987381
0.987385
0.987373
0.987347
0.987388
0.987364
0.987379
0.987411
0.987393
0.987399
0.987285
0.987395
0.987393
0.987393
0.987376
0.987511
0.987388
0.987458
0.987313
0.987386
0.987457
0.987516
0.987322
0.987321
0.987322
0.987309
0.987324
0.987386
0.987516
0.987458
0.987309
0.987309
0.987385
0.987491
0.987457
0.987409
0.987404
0.987389
0.987467
0.987462
0.987443
0.987338
0.987444
0.987339
0.987497
0.987321
0.987443
0.987321
0.987391
0.987363
0.987355
0.987507
0.987358
0.987355
0.987369
0.987363
0.987377
0.987394
0.987369
0.987338
0.987338
0.987459
0.987365
0.98739
0.98752
0.987349
0.987369
0.987376
0.987436
0.987476
0.987335
0.987359
0.987478
0.987457
0.987494
0.987388
0.987368
0.987491
0.987293
0.987443
0.987294
0.987347
0.987371
0.987443
0.987462
0.987477
0.987373
0.98735
0.987386
0.987424
0.987454
0.987478
0.987376
0.987375
0.987374
0.987358
0.987388
0.987479
0.987364
0.987391
0.987487
0.987482
0.987378
0.987375
0.987444
0.987323
0.987479
0.987324
0.987443
0.987415
0.987348
0.987368
0.987364
0.987364
0.987346
0.987327
0.987373
0.987478
0.987442
0.987336
0.98737
0.987359
0.987369
0.987455
0.98732
0.987488
0.987384
0.987358
0.98732
0.987452
0.987378
0.987415
0.987373
0.987481
0.987375
0.987379
0.987392
0.98739
0.987428
0.987403
0.987368
0.987457
0.987385
0.987373
0.987369
0.987371
0.987452
0.987451
0.987382
0.987403
0.987456
0.98749
0.98746
0.98745
0.987374
0.987451
0.987452
0.987458
0.98745
0.987346
0.987443
0.987462
0.98737
0.987443
0.987358
0.987346
0.987382
0.987339
0.987376
0.987459
0.987373
0.987373
0.987451
0.987367
0.987463
0.987364
0.98736
0.987347
0.987373
0.987367
0.987476
0.987442
0.987457
0.987369
0.987379
0.987378
0.987359
0.987368
0.98737
0.987368
0.98741
0.987435
0.987359
0.98746
0.987358
0.98737
0.987454
0.987354
0.987368
0.987355
0.987374
0.987375
0.987359
0.987427
0.987373
0.987435
0.98736
0.987364
0.987363
0.987364
0.987364
0.987364
0.987364
0.987373
0.987348
0.987348
0.987347
0.987347
0.98734
0.987339
0.987428
0.987372
0.987368
0.987405
0.987348
0.987347
0.987369
0.987434
0.987369
0.987373
0.987427
0.987353
0.987428
0.987359
0.987368
0.987426
0.987433
0.987477
0.987468
0.987359
0.987483
0.987386
0.987435
0.98741
0.987369
0.987363
0.98731
0.987364
0.987487
0.987433
0.987368
0.987381
0.987436
0.987363
0.987415
0.98731
0.987434
0.987363
0.987365
0.987378
0.987348
0.987369
0.987339
0.987383
0.987489
0.987495
0.987345
0.987397
0.987381
0.98743
0.987353
0.98737
0.987433
0.987371
0.987424
0.987379
0.987425
0.987434
0.9873
0.987344
0.987345
0.987346
0.987373
0.987424
0.987324
0.987366
0.987403
0.987423
0.987429
0.987344
0.987427
0.987348
0.987428
0.987491
0.987423
0.987481
0.987359
0.987426
0.987299
0.987427
0.987362
0.987428
0.987364
0.987427
0.987389
0.987514
0.987389
0.987427
0.987342
0.987427
0.987402
0.987367
0.987368
0.987427
0.987424
0.987415
0.987361
0.987423
0.987382
0.987388
0.987341
0.987424
0.987416
0.987401
0.987415
0.987425
0.987414
0.987356
0.987381
0.987415
0.987427
0.987378
0.987377
0.987424
0.987341
0.987528
0.987391
0.987477
0.9874
0.987586
0.987586
0.987584
0.987584
0.987582
0.987591
0.987591
0.987359
0.98733
0.987381
0.987402
0.98741
0.987415
0.987379
0.987415
0.987416
0.98733
0.987414
0.987355
0.987443
0.987349
0.98739
0.987403
0.987415
0.987345
0.987391
0.987402
0.987391
0.987401
0.987413
0.987437
0.987402
0.987392
0.987353
0.987409
0.987414
0.98741
0.987403
0.987392
0.987378
0.98741
0.987378
0.987392
0.987403
0.987381
0.987391
0.987413
0.987363
0.987401
0.98733
0.987491
0.987359
0.987357
0.987392
0.987402
0.987368
0.987528
0.98739
0.987402
0.987513
0.987303
0.987304
0.987389
0.987411
0.9874
0.98741
0.987284
0.987283
0.987378
0.987381
0.987381
0.987532
0.987413
0.987362
0.987405
0.987407
0.987404
0.987527
0.987365
0.987411
0.987391
0.987391
0.987406
0.987402
0.987406
0.987406
0.987514
0.987481
0.987402
0.987391
0.987401
0.987407
0.987402
0.9874
0.987401
0.987492
0.98735
0.987409
0.987369
0.987365
0.987494
0.987389
0.98739
0.987341
0.987297
0.987297
0.987343
0.987414
0.987391
0.987495
0.9873
0.987283
0.987283
0.987529
0.987323
0.987312
0.987393
0.987348
0.987382
0.987371
0.987361
0.987361
0.987382
0.987527
0.987388
0.987372
0.987362
0.987521
0.987318
0.98752
0.98736
0.987375
0.987426
0.987384
0.987383
0.987335
0.987379
0.987335
0.98739
0.987363
0.987316
0.987317
0.987497
0.98737
0.987562
0.987563
0.987562
0.987367
0.987533
0.987563
0.987407
0.987561
0.987334
0.987334
0.987562
0.987396
0.987517
0.987566
0.987517
0.987567
0.987517
0.987322
0.987501
0.987532
0.98756
0.987384
0.987357
0.98752
0.987383
0.98756
0.987376
0.987396
0.987567
0.98752
0.987568
0.987528
0.987392
0.98733
0.987283
0.987284
0.987372
0.987283
0.987283
0.987284
0.987295
0.987498
0.987317
0.987344
0.987331
0.987375
0.987293
0.987293
0.98733
0.987529
0.987398
0.987536
0.987524
0.987515
0.987301
0.987302
0.987303
0.987303
0.987301
0.987288
0.987307
0.987294
0.987287
0.987304
0.987304
0.987287
0.987287
0.987293
0.987306
P_ext 1 563 float
0.0199987
0.0199938
0.0199945
0.0199939
0.019992
0.0199945
0.0199987
0.0199942
0.019995
0.0199939
0.0199979
0.0199942
0.0199943
0.0199939
0.0199925
0.0199945
0.0199935
0.0199941
0.0199952
0.0199947
0.0199948
0.0199887
0.0199947
0.0199946
0.0199947
0.019994
0.0199977
0.0199944
0.0199965
0.0199904
0.0199944
0.0199964
0.0199978
0.019991
0.019991
0.019991
0.0199903
0.0199912
0.0199943
0.0199978
0.0199964
0.0199903
0.0199903
0.0199944
0.0199972
0.0199965
0.0199951
0.019995
0.0199945
0.0199967
0.0199965
0.0199961
0.019992
0.0199961
0.0199921
0.0199974
0.019991
0.0199961
0.019991
0.0199946
0.0199934
0.019993
0.0199976
0.0199931
0.019993
0.0199936
0.0199934
0.019994
0.0199947
0.0199937
0.019992
0.019992
0.0199965
0.0199934
0.0199946
0.0199979
0.0199926
0.0199936
0.019994
0.0199959
0.0199969
0.0199918
0.0199932
0.019997
0.0199964
0.0199973
0.0199944
0.0199935
0.0199972
0.019989
0.0199961
0.019989
0.0199925
0.0199936
0.0199961
0.0199966
0.0199969
0.0199939
0.0199926
0.0199944
0.0199956
0.0199964
0.0199969
0.0199941
0.0199939
0.019994
0.0199931
0.0199944
0.019997
0.0199935
0.0199946
0.0199972
0.019997
0.0199941
0.019994
0.0199961
0.019991
0.019997
0.019991
0.0199961
0.0199953
0.0199926
0.0199937
0.0199934
0.0199934
0.0199925
0.0199912
0.0199939
0.0199969
0.019996
0.0199919
0.0199938
0.0199932
0.0199938
0.0199964
0.0199909
0.0199972
0.0199943
0.0199931
0.0199909
0.0199963
0.0199939
0.0199953
0.0199939
0.019997
0.019994
0.019994
0.0199945
0.0199945
0.0199957
0.0199949
0.0199937
0.0199964
0.0199943
0.0199939
0.0199938
0.0199938
0.0199963
0.0199963
0.0199943
0.019995
0.0199964
0.0199972
0.0199965
0.0199963
0.019994
0.0199963
0.0199963
0.0199965
0.0199963
0.0199924
0.0199961
0.0199966
0.0199937
0.0199961
0.0199931
0.0199924
0.0199941
0.0199921
0.0199939
0.0199965
0.0199939
0.0199939
0.0199963
0.0199935
0.0199966
0.0199934
0.0199932
0.0199924
0.0199939
0.0199935
0.0199969
0.0199961
0.0199964
0.0199938
0.0199942
0.0199941
0.0199932
0.0199937
0.0199936
0.0199937
0.0199952
0.0199959
0.0199932
0.0199965
0.0199932
0.0199936
0.0199963
0.0199929
0.0199937
0.0199928
0.0199938
0.019994
0.0199931
0.0199956
0.0199938
0.0199959
0.0199932
0.0199934
0.0199934
0.0199935
0.0199935
0.0199935
0.0199935
0.0199938
0.0199926
0.0199926
0.0199925
0.0199926
0.019992
0.019992
0.0199957
0.0199938
0.0199937
0.0199951
0.0199925
0.0199925
0.0199937
0.0199959
0.0199938
0.0199939
0.0199957
0.0199928
0.0199957
0.0199931
0.0199938
0.0199956
0.0199958
0.0199969
0.0199967
0.0199932
0.0199971
0.0199944
0.0199959
0.0199952
0.0199938
0.0199935
0.0199903
0.0199935
0.0199972
0.0199958
0.0199937
0.0199941
0.0199959
0.0199935
0.0199953
0.0199903
0.0199959
0.0199934
0.0199935
0.0199941
0.0199925
0.0199935
0.019992
0.0199943
0.0199972
0.0199973
0.0199923
0.0199948
0.0199941
0.0199957
0.0199928
0.0199938
0.0199958
0.0199937
0.0199956
0.019994
0.0199956
0.0199958
0.0199896
0.0199923
0.0199924
0.0199925
0.0199939
0.0199956
0.0199911
0.0199935
0.0199949
0.0199955
0.0199957
0.0199923
0.0199957
0.0199924
0.0199957
0.0199972
0.0199955
0.019997
0.0199931
0.0199956
0.0199896
0.0199957
0.0199932
0.0199957
0.0199934
0.0199957
0.0199945
0.0199977
0.0199945
0.0199957
0.0199922
0.0199956
0.0199948
0.0199934
0.0199938
0.0199956
0.0199956
0.0199953
0.0199932
0.0199956
0.0199941
0.0199944
0.0199921
0.0199956
0.0199953
0.0199948
0.0199953
0.0199956
0.0199953
0.0199929
0.0199942
0.0199953
0.0199956
0.019994
0.019994
0.0199956
0.0199921
0.019998
0.0199945
0.0199969
0.0199948
0.0199992
0.0199993
0.0199992
0.0199992
0.0199991
0.0199994
0.0199994
0.0199931
0.0199914
0.0199942
0.0199949
0.0199952
0.0199953
0.019994
0.0199953
0.0199953
0.0199914
0.0199953
0.0199928
0.0199961
0.0199927
0.0199945
0.0199949
0.0199953
0.0199923
0.0199945
0.0199949
0.0199945
0.0199949
0.0199953
0.0199959
0.0199949
0.0199946
0.0199928
0.0199951
0.0199953
0.0199952
0.0199949
0.0199946
0.019994
0.0199952
0.019994
0.0199945
0.0199949
0.0199941
0.0199946
0.0199952
0.0199934
0.0199949
0.0199915
0.0199972
0.0199932
0.0199929
0.0199945
0.0199949
0.0199936
0.019998
0.0199945
0.0199949
0.0199977
0.0199897
0.0199897
0.0199944
0.0199952
0.0199948
0.0199952
0.0199884
0.0199884
0.0199941
0.0199941
0.0199941
0.0199981
0.0199953
0.0199933
0.0199951
0.0199951
0.019995
0.019998
0.0199934
0.0199952
0.0199945
0.0199945
0.0199951
0.0199949
0.0199951
0.019995
0.0199977
0.019997
0.0199949
0.0199945
0.0199949
0.0199951
0.0199949
0.0199948
0.0199949
0.0199973
0.0199926
0.0199951
0.0199936
0.0199934
0.0199973
0.0199945
0.0199946
0.0199921
0.0199896
0.0199896
0.0199922
0.0199953
0.0199945
0.0199973
0.0199898
0.0199886
0.0199886
0.0199981
0.0199911
0.0199904
0.0199946
0.0199925
0.0199943
0.0199938
0.0199933
0.0199932
0.0199941
0.019998
0.0199945
0.0199937
0.0199933
0.0199979
0.0199908
0.0199979
0.0199933
0.0199939
0.0199956
0.0199944
0.0199942
0.0199918
0.0199941
0.0199918
0.0199945
0.0199933
0.0199906
0.0199905
0.0199974
0.0199937
0.0199988
0.0199988
0.0199988
0.0199935
0.0199982
0.0199988
0.0199951
0.0199987
0.0199918
0.0199918
0.0199987
0.0199948
0.0199978
0.0199988
0.0199978
0.0199989
0.0199978
0.019991
0.0199975
0.0199981
0.0199987
0.0199942
0.019993
0.0199979
0.0199942
0.0199987
0.0199939
0.0199947
0.0199989
0.0199979
0.0199989
0.019998
0.0199946
0.0199915
0.0199887
0.0199887
0.0199938
0.0199886
0.0199887
0.0199887
0.0199893
0.0199974
0.0199907
0.0199922
0.0199914
0.0199939
0.0199892
0.0199892
0.0199914
0.019998
0.0199948
0.0199982
0.019998
0.0199978
0.0199899
0.0199899
0.01999
0.01999
0.0199899
0.0199888
0.01999
0.0199891
0.0199886
0.0199898
0.0199898
0.0199886
0.0199888
0.0199891
0.01999
FIELD solute_flux_TPM 2
S_ext 3 563 float
-5.40074e-05 1.80669e-05 3.00187e-19
2.34346e-06 4.50326e-06 3.369e-19
-8.34892e-06 -6.63452e-06 1.67132e-18
-2.7507e-06 2.77391e-06 -5.01713e-19
1.52002e-05 -4.34298e-06 7.10631e-19
1.81788e-06 -1.04225e-05 -1.65132e-18
-5.31824e-05 -1.82867e-05 1.38317e-21
-9.11102e-06 -6.78829e-06 1.66386e-19
1.45458e-05 6.15426e-07 -4.47429e-18
7.55012e-06 -2.64844e-06 -2.34785e-18
3.5953e-05 8.37135e-06 2.19955e-21
1.53037e-06 -1.12839e-05 8.55026e-19
9.01421e-06 7.3554e-06 1.45538e-20
1.75823e-06 9.0252e-06 1.73357e-19
1.3781e-05 -2.0188e-06 1.05025e-18
-1.06006e-05 -1.72841e-07 -1.744e-19
1.83749e-06 9.29279e-06 1.35513e-18
6.73608e-06 -1.61088e-06 -1.83745e-18
6.47658e-06 1.12932e-05 1.15644e-18
-9.66095e-06 1.2213e-06 -3.42095e-19
-2.3426e-06 -1.38822e-05 2.32694e-18
2.86302e-05 4.0395e-05 -3.35705e-18
1.03646e-05 1.05748e-06 -6.59012e-19
7.40782e-06 -7.41138e-06 2.68699e-18
-9.80305e-06 -2.16734e-06 4.95492e-19
-4.31409e-07 -7.28674e-06 2.68784e-18
4.12591e-05 -3.23069e-06 1.42545e-18
9.30263e-06 6.74944e-06 3.35577e-18
-1.6323e-05 -1.32506e-05 -1.60994e-18
3.24446e-05 -8.58576e-06 -1.54718e-18
-1.07763e-05 -3.96055e-06 -1.16992e-18
3.48426e-06 -2.09287e-05 1.45296e-18
3.09566e-05 -3.15547e-05 -1.10662e-18
-3.45692e-06 -2.77239e-05 1.90513e-18
-1.9586e-05 2.43843e-05 2.78526e-18
-2.57367e-05 -1.08579e-05 2.42152e-18
2.15068e-05 2.8167e-05 -5.55578e-18
-2.96089e-05 -5.79605e-06 -1.55659e-18
9.53214e-06 -7.2575e-06 2.86807e-18
3.02428e-05 3.2881e-05 -7.72737e-19
2.10725e-05 -9.22513e-06 -2.89295e-18
2.19347e-05 -2.71105e-05 2.2657e-18
-1.25177e-05 -3.25308e-05 1.74923e-18
-1.03284e-05 4.17112e-06 -1.01747e-18
1.98026e-05 -1.93697e-05 -1.10292e-18
-1.95461e-05 6.94963e-06 8.0714e-19
-2.68206e-06 -1.32346e-05 2.97991e-18
5.15602e-06 1.31989e-05 -6.54657e-19
-1.06641e-05 3.86811e-06 3.31969e-18
-1.17511e-05 1.84777e-05 4.00954e-18
2.12643e-05 1.00183e-05 -1.28246e-18
1.92154e-05 -6.66769e-06 -1.45889e-18
-1.03993e-05 1.04225e-05 3.45399e-19
-1.52133e-05 -1.32175e-05 -4.8031e-19
-1.40114e-05 -3.42749e-06 -1.54439e-18
-2.88715e-05 1.71928e-05 1.4307e-18
-1.93895e-05 -2.50944e-05 1.21281e-18
4.0188e-06 -1.98942e-05 6.58335e-19
-3.14349e-05 4.28638e-06 -8.65219e-19
3.9807e-06 8.98393e-06 -1.82412e-18
-3.64967e-06 -5.40165e-06 5.65064e-21
-4.30282e-06 -1.18517e-05 1.873e-18
3.72778e-05 1.62468e-05 -2.21223e-18
6.14904e-06 1.19547e-05 1.75447e-19
8.16479e-06 -9.52816e-06 1.54056e-18
-1.11574e-06 -1.36702e-05 1.18587e-18
3.07588e-06 -5.8019e-06 4.23397e-18
-6.57956e-06 -3.65075e-06 1.68644e-19
-6.95536e-06 7.74224e-06 -3.16711e-18
1.68829e-06 -2.77052e-06 8.20999e-21
-9.96884e-06 -1.04843e-05 1.70814e-19
-1.41312e-05 3.43623e-06 -2.74872e-18
-2.50334e-06 2.22947e-05 3.39336e-18
-1.17576e-05 7.04058e-06 -9.7583e-21
-5.94343e-06 9.4853e-06 -6.42287e-21
-3.85119e-05 4.78829e-06 1.25629e-18
5.22386e-06 -1.43087e-05 -1.01549e-18
-1.24297e-05 -5.78658e-06 1.18192e-18
1.26374e-06 7.63757e-06 -6.63869e-19
1.72912e-05 3.32087e-06 8.25483e-19
2.23036e-05 -1.90102e-05 -2.7225e-18
1.47527e-05 1.35809e-05 -5.16221e-18
7.97336e-06 -1.94084e-06 8.69128e-19
-2.07671e-05 1.52224e-05 2.55727e-18
2.48005e-05 3.17817e-06 2.59427e-18
-3.57944e-06 3.18859e-05 3.00863e-18
-1.15304e-06 -1.10211e-05 -1.66616e-18
1.20745e-05 6.55967e-06 1.87458e-18
1.90451e-05 1.99471e-05 -6.26942e-19
4.25389e-05 2.64439e-05 -2.98704e-18
-3.54482e-06 1.99927e-05 1.4711e-18
4.44326e-05 -2.49697e-05 -4.58327e-18
-1.799e-05 3.47979e-06 1.70115e-18
1.18788e-05 7.33773e-06 2.03883e-18
-1.91019e-05 6.35486e-06 9.78372e-19
1.07772e-05 1.87021e-05 -8.01725e-19
6.4136e-06 -2.87772e-05 -1.76512e-18
1.27366e-06 7.63313e-06 -1.16431e-18
-9.71138e-06 -1.16495e-05 6.8473e-19
2.00226e-06 1.1442e-05 5.10459e-19
1.732e-05 3.46122e-06 -9.80549e-19
-1.00794e-05 2.14283e-05 5.98915e-18
2.64967e-05 -8.83261e-06 -1.91132e-18
-2.49491e-06 4.85046e-06 -1.68534e-19
6.62022e-06 3.85952e-06 1.86332e-18
-1.47575e-06 -7.40945e-06 2.02646e-18
2.15622e-06 -1.27291e-05 3.73778e-18
1.15283e-05 2.57175e-06 -9.9341e-19
-5.36105e-06 2.66254e-05 4.15574e-18
-6.51557e-06 1.26848e-07 -1.01437e-18
6.15438e-06 7.79868e-06 1.00833e-18
-1.75906e-06 -2.71424e-05 -2.5383e-18
2.74812e-05 8.52933e-06 -4.13945e-18
2.95156e-06 -4.88203e-06 5.25268e-19
-7.2658e-06 -2.33703e-06 1.51102e-18
-1.88711e-05 -8.02559e-06 -1.94786e-18
1.06408e-05 2.7763e-05 5.2798e-19
-2.77645e-05 -9.89093e-06 1.333e-21
1.07894e-05 -2.78369e-05 -2.25249e-18
-2.45614e-06 -2.07202e-05 3.10188e-21
1.43756e-05 3.95958e-07 -4.87607e-19
-4.75964e-06 1.22304e-05 2.3797e-18
-1.04833e-06 2.59464e-06 1.18301e-18
-2.45074e-06 -1.09135e-05 -1.60303e-19
3.49188e-06 -5.61221e-06 6.22135e-21
6.21094e-06 1.04877e-05 -1.86863e-18
2.2345e-05 7.29484e-06 -2.74697e-18
5.7716e-06 -4.87855e-06 6.99076e-19
-5.50125e-06 -2.9127e-05 -1.59123e-18
1.67324e-05 -1.23411e-05 -1.9487e-18
3.30582e-06 1.84332e-05 1.21136e-18
-1.83221e-06 -1.87187e-06 -8.33829e-19
-5.70966e-06 -5.48623e-06 4.77239e-21
-3.15368e-06 5.71473e-08 -1.67484e-18
-1.48203e-05 1.82981e-05 1.61972e-18
1.29188e-05 -2.50102e-05 7.00631e-19
-1.73164e-05 2.7368e-05 2.71467e-18
-1.06637e-05 6.20932e-06 -6.82856e-19
1.66734e-06 8.17196e-06 6.91934e-19
-1.51709e-05 -2.36748e-05 2.77596e-18
8.98753e-06 2.17875e-05 -6.43738e-19
1.16341e-05 6.12454e-06 1.83485e-19
1.49812e-05 -5.65312e-06 -3.46021e-18
-8.22527e-07 -7.40009e-06 4.88361e-18
-2.18049e-05 -2.00536e-05 1.28947e-18
-1.79507e-06 7.40822e-06 -1.67609e-18
1.14402e-05 6.74743e-06 -1.15967e-18
1.24756e-05 -5.88287e-06 -1.16619e-18
5.46519e-06 -9.39224e-06 -1.41557e-19
1.60015e-05 -7.0965e-06 -2.77901e-18
1.25391e-05 -5.93752e-06 -1.65731e-18
3.14153e-06 1.91418e-07 1.70723e-18
1.67941e-05 1.32953e-05 -2.09091e-18
-1.76836e-06 -1.11135e-05 -1.98644e-21
-6.88771e-06 -2.88198e-06 8.38161e-19
7.52115e-07 -2.54624e-06 2.03242e-18
-2.1047e-06 1.04144e-05 8.55432e-21
-2.23508e-05 1.76434e-06 9.76777e-19
-7.90653e-06 -2.14404e-05 -3.16587e-19
-5.16986e-06 6.36728e-06 6.64289e-19
8.90042e-06 1.08752e-05 -3.21337e-19
1.73292e-05 -1.23581e-05 -3.06133e-18
-2.37814e-05 -1.28918e-05 -1.26428e-18
1.12641e-05 -1.80616e-05 -2.25143e-18
1.48493e-05 -1.77871e-05 -8.10184e-19
-7.14322e-06 2.50903e-06 -8.45168e-19
-1.28425e-05 -1.84843e-05 1.62698e-18
-2.2333e-05 -3.71371e-06 -9.75713e-19
-2.69535e-06 -2.05564e-05 -1.28706e-18
9.97171e-06 -2.06398e-05 2.59797e-18
-6.06189e-06 -1.73577e-05 3.44635e-19
2.86154e-06 2.04e-05 2.27972e-18
-1.03728e-05 -1.83742e-05 2.09235e-18
1.97626e-06 -1.07037e-05 2.20447e-18
-1.60011e-05 1.16505e-05 -4.90526e-19
-9.90121e-06 -8.00751e-06 -8.42824e-19
-1.81084e-05 -3.37153e-06 8.53884e-19
1.03919e-05 -6.09955e-06 -2.51585e-18
-2.84141e-06 1.58647e-05 3.37662e-19
8.17584e-06 -6.14522e-06 1.70053e-18
-1.90772e-05 -8.36422e-06 -2.901e-18
-5.80713e-06 -4.85145e-06 2.51781e-18
6.05124e-06 4.92745e-06 1.02023e-18
1.39545e-05 1.87399e-05 -1.61422e-18
-1.14696e-05 -7.10479e-06 2.70787e-18
-2.09243e-05 -5.05487e-07 -4.82261e-19
-1.07847e-05 -3.24727e-06 -1.18884e-18
-3.02527e-06 -1.09262e-05 8.5357e-19
1.1851e-05 1.4277e-05 3.5667e-19
-7.22429e-06 3.80375e-06 -3.44758e-19
4.47784e-07 -1.35237e-05 1.86203e-18
-2.68766e-05 6.89022e-06 1.6014e-18
1.62803e-05 1.32469e-05 3.10587e-21
2.35757e-06 2.14026e-05 9.70732e-19
-1.58099e-06 2.51646e-06 1.85072e-21
-5.89602e-06 1.65117e-07 -2.51652e-18
2.89519e-06 5.08109e-06 -2.83612e-18
-7.7301e-06 2.28095e-06 -6.79677e-19
-1.34219e-06 -2.46825e-06 -1.58925e-19
1.11958e-06 1.36566e-05 3.39215e-19
3.01055e-06 2.51082e-07 -2.1697e-18
-1.26719e-05 3.05998e-06 -1.64049e-19
-1.13011e-05 1.24861e-05 -6.55653e-19
-2.02991e-06 7.66302e-06 -2.71855e-18
-1.89286e-05 1.17926e-05 -1.31362e-21
-6.19646e-06 5.92015e-06 -1.68127e-18
1.1523e-05 -7.80277e-06 -2.69727e-18
2.39488e-05 -2.37944e-06 -1.12226e-18
-1.39931e-05 7.42878e-06 -5.1849e-19
1.47078e-06 2.99449e-06 -2.8473e-18
1.46141e-05 -2.83493e-06 -4.94436e-19
-1.13347e-05 6.82283e-06 2.00403e-18
-6.45329e-06 3.64125e-06 -3.46459e-19
7.96272e-06 2.56678e-06 2.2243e-18
1.43337e-05 -8.88757e-06 -8.08451e-19
-1.14149e-05 6.48977e-06 -1.8612e-18
-1.61717e-05 -3.39994e-06 1.80146e-18
-1.10316e-05 -2.83832e-06 -1.71252e-19
6.66695e-06 5.69311e-08 2.04225e-18
6.83003e-06 8.03029e-08 1.53439e-18
2.91432e-06 5.4884e-06 5.38629e-21
3.21241e-06 -5.80509e-06 3.72419e-18
-3.29607e-06 5.59166e-06 1.00586e-18
-3.45352e-06 -5.72219e-06 -3.30585e-19
6.57257e-06 -4.9668e-06 -2.01464e-18
-1.34905e-05 2.16244e-06 -5.45449e-18
-1.33388e-05 -2.20512e-06 -1.19039e-18
-8.52551e-06 1.05392e-05 1.05444e-20
-8.57371e-06 -1.05799e-05 2.38607e-18
4.99119e-06 -1.33784e-05 -2.22529e-18
4.80878e-06 1.32643e-05 -1.01588e-18
9.677e-07 1.68923e-05 4.23857e-21
7.50847e-06 -2.01247e-06 -1.42815e-19
1.62313e-06 -2.52564e-06 -1.3299e-18
-1.38392e-05 9.30089e-07 6.62247e-19
5.15294e-06 -1.31631e-05 -3.34561e-19
4.88249e-06 1.32105e-05 1.39364e-20
3.17567e-06 -5.90277e-08 5.1123e-19
5.80712e-06 1.59708e-05 -1.62926e-18
-1.47851e-06 -2.6327e-06 1.69255e-18
1.55311e-06 -7.43498e-06 -8.26199e-19
-1.45164e-05 -7.78653e-06 1.14926e-18
-1.41252e-05 -7.56124e-06 2.72273e-18
-1.42088e-05 8.78591e-06 3.2882e-19
2.15188e-06 -8.27695e-06 -4.22479e-18
-1.05059e-06 2.20645e-06 8.39583e-19
-4.7028e-07 -1.66078e-05 2.29967e-18
-5.1097e-06 -1.58073e-05 3.92403e-18
2.13465e-05 1.98841e-05 -3.19319e-18
2.32964e-05 -1.2044e-06 -1.75486e-18
-8.42189e-06 -2.44565e-06 3.35117e-19
-1.48753e-05 -2.64889e-05 3.36075e-18
5.47912e-06 8.99969e-06 -4.9248e-19
-1.63002e-05 1.92343e-06 1.66619e-19
1.3223e-05 3.78956e-06 -2.46757e-18
-2.97192e-06 -1.24784e-08 1.3435e-18
-3.07301e-06 -5.5587e-06 -1.62145e-19
-5.43639e-06 -2.58624e-05 3.52662e-19
-6.43198e-06 -2.80103e-08 1.65032e-19
-3.09203e-05 -1.16058e-06 -1.27436e-18
1.12984e-05 -1.25583e-05 6.59923e-19
1.65206e-06 2.61743e-06 -8.25029e-19
-7.69716e-08 -1.1493e-05 -8.29021e-19
-6.48745e-06 1.55803e-05 3.09512e-18
-2.89035e-06 5.70169e-06 -4.19507e-18
1.35216e-05 -8.93375e-06 -3.45913e-18
-2.51118e-05 -8.20374e-06 2.43905e-18
-9.96223e-06 -1.31499e-05 1.64762e-19
3.32429e-06 5.6219e-06 2.03255e-18
1.11115e-05 3.34829e-06 5.76164e-18
-3.12158e-06 -4.77898e-06 3.41552e-19
1.33226e-05 2.4275e-06 2.74512e-18
1.21444e-05 -6.51633e-06 -1.6573e-19
-2.4905e-07 1.7971e-05 -1.18866e-18
5.50445e-06 -8.95186e-06 1.70052e-18
3.19532e-05 1.36562e-06 -2.38663e-18
-2.71461e-05 7.07305e-06 9.507e-19
1.53636e-05 7.67227e-06 5.27731e-19
-4.21777e-06 -1.115e-05 3.15755e-18
-1.00397e-05 -5.61111e-06 -2.51074e-18
1.88677e-05 -1.56015e-07 -2.45482e-18
-4.79546e-07 -1.60588e-05 -3.73706e-18
-8.23854e-06 -7.16282e-06 -1.34383e-18
6.63711e-06 -1.53921e-05 -1.79192e-18
-3.65061e-07 1.35181e-05 -1.59019e-19
5.10778e-06 1.69818e-05 1.68533e-19
1.14615e-05 -6.58054e-06 -1.33874e-18
-1.23054e-05 1.23966e-05 -8.28402e-19
1.078e-05 1.31399e-05 -6.51652e-19
-4.32744e-05 1.03228e-05 -4.38078e-18
-6.73634e-06 1.72339e-05 -2.03858e-18
8.3146e-06 -1.00994e-05 -1.00744e-18
-4.63333e-06 -1.21773e-05 1.19503e-18
-7.80855e-06 2.90476e-06 -1.51874e-18
-1.6679e-05 -4.55008e-06 2.14184e-18
-4.46194e-06 2.60616e-05 1.73366e-18
-8.25983e-06 7.88222e-06 -6.88089e-19
1.36814e-05 -2.99881e-06 3.15641e-18
-4.48591e-06 -1.67239e-05 -3.2548e-19
-9.67911e-06 1.54071e-05 2.78872e-18
-1.44057e-05 8.29865e-06 -1.0315e-18
-1.33343e-05 -9.71553e-06 -9.77575e-19
1.20969e-05 -1.39486e-05 -1.69275e-19
-1.77076e-05 -9.3924e-07 6.59735e-19
7.80723e-06 -2.67557e-05 -1.42528e-18
1.27035e-05 -1.23779e-05 8.27797e-19
1.59812e-05 2.80771e-05 -1.6036e-19
1.29326e-06 1.31158e-05 -1.85681e-18
1.89611e-06 -1.6593e-05 -2.12232e-18
-2.81516e-05 3.30459e-05 -3.33399e-18
-8.25666e-06 -1.57528e-05 -1.14805e-18
1.0984e-05 -4.25193e-06 1.03369e-18
-1.6669e-06 1.6726e-05 2.62203e-18
8.58657e-06 -7.97477e-06 -2.86577e-18
9.04075e-06 1.58581e-05 -9.83035e-19
1.13631e-05 -9.6366e-07 -1.83309e-18
1.39892e-05 -4.09677e-05 -1.89811e-18
-3.84453e-06 -8.3788e-06 4.83531e-18
-1.50041e-05 6.44609e-06 1.47627e-18
-1.32801e-05 1.2413e-05 -2.0593e-18
1.41474e-05 9.57117e-06 3.28175e-18
1.22993e-05 -7.11907e-06 -6.57898e-19
9.92173e-06 8.39549e-06 1.70294e-18
-3.60771e-06 -7.62278e-09 -1.68772e-18
1.00422e-05 -1.50744e-05 -1.4677e-18
-1.10232e-05 -1.3127e-05 -1.63524e-18
1.48104e-05 6.43416e-06 3.47104e-18
8.5445e-06 -8.03149e-06 -4.23414e-18
6.18496e-06 -1.61991e-05 -1.5372e-19
1.10249e-05 -4.65998e-06 -5.19507e-18
-1.03014e-05 -4.9063e-06 8.39382e-19
8.77486e-07 -1.73882e-05 2.23346e-18
-1.68251e-05 2.88999e-06 1.68717e-19
1.48974e-06 1.59819e-05 -1.1514e-18
1.35507e-05 4.3778e-06 -2.31705e-18
-1.40547e-05 -6.92436e-06 -3.29828e-19
-5.86882e-06 1.65964e-05 2.78241e-18
-9.89247e-07 -1.5756e-05 2.1549e-18
1.30082e-05 7.89804e-06 -4.94905e-19
-1.1374e-06 1.18546e-05 -1.64322e-19
-1.30781e-05 8.79914e-06 1.32155e-18
1.54518e-05 7.47759e-06 6.60937e-19
-1.1167e-05 -6.56483e-06 1.72388e-19
1.01648e-07 -1.30126e-05 -3.29445e-19
1.20361e-05 1.306e-05 9.89133e-19
-1.46076e-05 -9.44231e-06 1.02969e-18
3.16226e-05 -2.26273e-05 -2.32347e-18
1.18519e-05 -7.1328e-06 1.33892e-18
5.64332e-06 2.79599e-05 3.84918e-18
1.12453e-05 -8.97522e-06 4.99967e-18
-1.47222e-05 5.67776e-05 -1.77554e-18
-1.47988e-05 -5.62373e-05 -1.50543e-19
3.69586e-05 4.8313e-05 -2.82789e-18
3.65139e-05 -4.83012e-05 4.49575e-19
6.03463e-05 -2.95523e-08 -2.68149e-18
-5.19281e-05 2.10389e-05 -2.21035e-18
-5.10854e-05 -2.12587e-05 -1.62736e-18
8.1667e-06 7.8875e-06 3.51293e-19
1.9761e-05 1.47127e-05 3.52632e-19
7.57497e-06 2.2033e-06 -4.00966e-18
1.24441e-05 6.40212e-06 -1.649e-18
3.23982e-06 1.32035e-05 9.94118e-19
-1.22261e-05 -9.63415e-06 -1.97437e-18
1.13568e-05 -6.73067e-06 3.51781e-19
1.30573e-05 9.52676e-06 1.65639e-18
-2.09048e-06 1.58681e-05 -2.97047e-18
1.98578e-05 -1.35091e-05 -1.70877e-18
2.41652e-06 -1.547e-05 -1.97094e-18
1.46965e-05 3.39682e-06 1.3795e-18
1.95527e-05 7.25881e-06 1.31411e-18
9.42992e-06 9.3619e-06 5.17054e-19
1.04987e-05 4.34828e-06 -8.24698e-19
-1.20456e-05 7.09524e-06 -2.32359e-18
-1.46107e-05 5.84725e-06 -1.15222e-18
1.54274e-05 -7.52504e-06 -2.73472e-18
-1.18861e-05 -6.51676e-06 -1.16193e-18
-1.20668e-05 -6.83061e-06 8.33902e-19
-2.13916e-07 -1.35868e-05 1.51009e-18
-9.88485e-08 -1.38046e-05 1.99969e-18
-1.30388e-05 -6.55342e-07 2.80931e-18
1.75503e-05 -2.66231e-06 -6.46205e-19
1.19194e-05 7.4705e-06 8.39294e-19
-1.16682e-05 7.0783e-06 -3.39031e-19
-1.01061e-05 1.10014e-05 4.99626e-19
1.0527e-05 -9.05833e-06 4.1448e-18
-7.22929e-06 1.1313e-05 1.47832e-18
-9.26644e-06 -9.64206e-06 1.65758e-18
-8.06538e-07 1.38193e-05 -1.65211e-19
-8.36776e-07 1.37166e-05 -2.33281e-18
3.28706e-08 -1.30164e-05 7.17136e-21
3.9915e-06 -1.29238e-05 -6.48093e-19
-1.12261e-05 -6.46268e-06 -2.01059e-18
1.02965e-05 -3.649e-06 1.16933e-18
4.18203e-07 1.40431e-05 -1.65609e-19
1.71667e-07 1.21201e-05 -1.61238e-19
-1.56162e-06 1.09931e-05 4.16763e-18
1.44081e-05 -3.64489e-06 3.33142e-19
-1.09498e-05 3.485e-06 -1.75374e-19
2.67776e-06 1.40563e-05 5.03054e-19
-2.17109e-05 8.51376e-06 -5.1986e-19
6.12664e-06 2.73361e-05 3.00671e-18
-1.12548e-05 2.97052e-06 6.72294e-19
1.31976e-05 -7.80932e-06 1.20224e-18
5.7212e-07 1.37485e-05 -3.31243e-19
-1.32677e-05 4.35765e-06 -3.4223e-19
1.62072e-06 -1.06779e-05 3.88466e-18
5.95384e-07 -3.78759e-05 -1.71995e-18
1.30524e-06 1.14654e-05 1.84021e-18
-1.10644e-05 9.04539e-06 -3.32648e-18
1.12745e-05 4.14972e-05 2.68618e-18
3.15124e-05 2.61347e-05 -1.04882e-18
3.61244e-05 -2.47163e-05 -2.97391e-18
9.80711e-06 -6.71716e-06 2.35326e-18
-1.0303e-05 9.08457e-06 -1.82016e-18
-1.30994e-05 -5.15448e-06 1.6844e-19
-1.27398e-05 -4.3986e-06 1.48927e-18
4.44171e-05 -1.22049e-05 -4.62116e-18
4.53077e-05 9.52705e-06 7.3094e-21
7.20633e-06 2.51847e-06 -4.51929e-18
4.64277e-07 1.28464e-05 -1.50333e-18
4.99746e-08 1.28379e-05 1.34579e-18
-3.15521e-05 -2.30884e-05 4.67741e-19
7.48343e-06 -1.12698e-05 1.8312e-18
7.82152e-06 8.35032e-06 8.54366e-19
-1.38426e-05 -2.21187e-06 1.65659e-18
-9.15833e-06 1.11112e-05 -5.04541e-19
-1.22813e-05 5.9137e-06 1.60036e-19
3.12287e-05 2.24004e-05 -1.23712e-18
1.05391e-05 4.66358e-06 1.03438e-18
-3.68761e-06 1.301e-05 2.96704e-18
-1.10909e-05 -7.60062e-06 3.36653e-19
1.18103e-06 -1.3447e-05 -1.82946e-18
-5.82574e-06 -1.25107e-05 3.14702e-18
-1.12169e-05 -7.63204e-06 5.02576e-19
6.92016e-06 -1.23766e-05 1.3394e-18
9.29322e-06 -1.11133e-05 -1.14018e-18
-1.92766e-06 -3.96353e-05 2.35912e-18
1.69069e-05 -2.68162e-05 -2.24531e-18
1.13811e-06 -1.35914e-05 -2.64223e-18
1.18805e-05 7.44637e-06 -2.1565e-18
-9.44203e-06 -9.62598e-06 -6.59255e-19
-6.42303e-06 1.2779e-05 2.47965e-18
-3.29289e-06 1.36783e-05 -1.67154e-19
1.09596e-05 9.31557e-06 2.66898e-18
3.93901e-06 -1.29834e-05 -3.47341e-18
-9.07708e-06 -2.59941e-05 -4.76836e-19
-1.35867e-06 1.65879e-05 -6.97871e-18
9.71097e-06 9.49347e-06 -3.22729e-19
-8.47501e-06 -6.70138e-06 5.10963e-19
-8.89288e-06 6.97175e-06 -6.92139e-19
2.90911e-05 -1.25029e-05 -4.43109e-18
4.97533e-06 -8.77685e-06 1.85257e-18
-5.45078e-06 -8.19598e-06 3.33589e-19
1.43447e-05 4.37542e-06 -3.41009e-18
8.8193e-06 -3.18176e-05 4.02944e-18
-2.31503e-05 -2.35263e-05 1.40657e-18
1.56423e-05 4.09985e-06 1.86319e-20
-6.10873e-06 -1.18477e-05 9.96516e-22
1.23493e-05 6.27831e-06 1.07716e-20
-1.87238e-05 -2.07907e-05 7.89137e-19
7.14212e-06 3.23518e-05 -2.60747e-18
3.13447e-05 -4.04828e-05 2.82909e-18
-1.93887e-05 -4.73766e-05 1.77247e-18
1.76498e-05 -3.45024e-05 -1.24078e-18
-8.41913e-06 2.89045e-05 -1.73473e-18
-4.79631e-06 2.56001e-05 1.39607e-18
-1.22082e-05 5.8436e-06 9.92659e-19
4.00388e-06 1.60371e-05 8.59853e-19
-1.57529e-06 8.24978e-06 1.66853e-18
6.71699e-06 2.15274e-06 -1.50278e-18
-2.12952e-06 1.07024e-05 -3.2855e-19
-1.61147e-07 1.38413e-05 -3.71776e-18
1.1038e-05 6.43144e-06 -2.50207e-18
5.51171e-07 3.76966e-05 1.70845e-18
-9.62772e-06 6.94378e-06 -6.7541e-19
1.06184e-05 -4.0993e-06 5.23319e-19
1.13296e-05 -2.9422e-06 -1.47241e-19
-3.86408e-05 -5.55163e-06 1.60165e-19
-2.29475e-05 1.0919e-05 -1.7328e-18
-2.80411e-05 -3.32487e-05 -3.19912e-19
5.7244e-06 5.49118e-06 -4.99999e-19
9.41692e-06 4.86353e-06 1.68991e-18
1.75789e-05 -2.80443e-06 -1.46821e-18
-5.29136e-06 -8.61377e-06 -3.34532e-19
1.139e-05 5.5995e-06 -1.83294e-18
4.88248e-06 -1.99354e-05 8.65499e-19
-9.02991e-06 6.62482e-06 -1.01288e-18
-1.48168e-05 -1.41941e-05 1.54543e-18
-3.81123e-06 1.06244e-05 4.97374e-19
-2.19953e-06 1.36384e-05 -3.37423e-18
2.29221e-05 1.42361e-05 -2.9502e-18
2.44388e-05 -1.29688e-05 1.39434e-18
-2.69903e-05 -7.26857e-06 1.74173e-18
5.0548e-06 5.12235e-06 3.54499e-18
-3.16196e-06 6.59074e-05 -2.46346e-18
-1.43148e-08 -6.76996e-05 2.16757e-18
3.33677e-05 5.7104e-05 -2.31655e-18
-1.2607e-05 5.50445e-06 -2.20144e-18
-1.79003e-05 3.61441e-05 1.85908e-18
3.35728e-05 -5.51165e-05 9.18386e-19
-7.63642e-06 -1.18178e-05 -9.92087e-19
5.10485e-05 4.44428e-05 -3.05664e-19
1.59585e-05 -1.18736e-05 5.2924e-19
-2.32119e-06 -1.9747e-05 2.93188e-18
5.34878e-05 -4.34573e-05 1.39717e-18
-4.43588e-06 9.44327e-06 1.48795e-18
-3.42745e-05 -2.17738e-05 4.7026e-19
-2.82284e-05 -5.89395e-05 -2.98348e-19
-1.59817e-05 -3.73072e-05 -4.65882e-19
-2.90206e-05 5.99052e-05 -9.15603e-19
-6.8719e-06 4.14547e-05 2.04255e-18
1.06882e-05 2.48223e-05 -1.72533e-18
-1.83957e-05 2.36388e-05 2.52129e-18
-1.71285e-05 -3.51862e-05 2.63258e-18
6.56804e-05 1.1524e-05 -2.14853e-18
-1.11013e-05 6.97582e-06 -3.4262e-19
-3.93002e-06 1.07656e-05 1.83342e-19
-3.25059e-05 2.34103e-05 2.3552e-18
-1.13059e-05 6.49032e-06 -3.35845e-18
6.50336e-05 -1.02742e-05 -3.09543e-19
-1.00842e-05 5.06972e-06 3.18482e-18
4.74035e-06 -9.51245e-06 -1.3147e-18
-5.04989e-05 -3.84775e-05 -2.32128e-18
-1.72177e-05 3.73406e-05 1.40518e-18
-5.17024e-05 3.82024e-05 1.4831e-19
1.56112e-05 3.43741e-05 -3.71133e-18
-9.66759e-06 6.87012e-06 -1.83812e-18
-1.35755e-05 1.63104e-05 -2.4207e-18
-2.41709e-05 3.03556e-05 2.48955e-18
-3.78985e-05 -4.88851e-06 -5.66183e-18
-6.34396e-07 1.07183e-05 -3.25592e-19
-2.56015e-05 -3.04831e-05 7.06224e-19
-3.92115e-05 6.93604e-06 1.94845e-18
-1.4935e-05 3.46444e-05 -5.30132e-18
-1.1528e-05 4.61211e-05 2.46675e-18
-1.20032e-05 2.66107e-05 4.2675e-18
-2.23687e-05 1.80227e-05 -1.73921e-18
1.64358e-05 -4.04582e-06 1.90358e-18
2.56826e-05 -1.38771e-06 -1.01598e-18
8.95474e-06 5.44364e-06 2.86743e-18
-8.09936e-06 -5.3064e-05 8.72209e-19
-5.0014e-05 -1.95047e-05 -5.26237e-19
2.50089e-05 3.35569e-07 -6.82452e-19
3.84507e-05 -7.42313e-06 -6.14193e-19
-6.90374e-06 -8.76502e-06 -1.6613e-19
-3.3364e-05 2.34564e-05 -9.22994e-19
-2.99005e-05 3.42504e-05 4.40971e-18
4.06462e-05 -1.46457e-05 -7.83647e-19
-1.86882e-05 -3.16682e-05 1.91689e-18
-1.90226e-05 3.14233e-05 6.46148e-18
-3.69102e-05 -1.30587e-06 -2.09162e-18
-1.67886e-05 3.30161e-05 -1.3912e-18
-3.67927e-05 3.80404e-07 -5.06122e-18
4.57607e-05 1.63878e-05 -5.47008e-18
3.69404e-05 1.35781e-06 -2.96168e-18
3.47265e-05 -1.77918e-05 -8.25918e-18
1.01267e-05 -4.88138e-05 3.4076e-19
1.83567e-05 -3.19748e-05 8.60626e-19
1.82321e-05 3.19712e-05 -1.21232e-18
9.91705e-06 4.76955e-05 -1.76541e-18
4.9975e-05 -1.40919e-05 -2.47352e-18
3.20409e-05 1.58703e-05 -8.78909e-19
3.07989e-05 8.41525e-06 -3.3044e-18
P_ext 3 563 float
-1.08032e-06 3.65283e-07 2.63954e-20
1.02442e-09 4.00124e-08 -5.1689e-21
-9.95472e-08 -9.36144e-08 -4.90398e-20
-3.14901e-08 2.90676e-08 2.08395e-20
2.74735e-08 5.24941e-10 3.25869e-20
3.27623e-08 -1.32965e-07 -2.84352e-20
-1.06365e-06 -3.69703e-07 2.8966e-20
-7.80442e-08 -8.85348e-08 -2.86626e-20
2.17097e-07 3.84557e-09 -8.27544e-20
7.92621e-08 -7.44611e-09 -2.73972e-21
7.03208e-07 1.64821e-07 -1.37411e-19
3.865e-08 -1.13145e-07 5.25899e-20
8.85749e-08 1.05434e-07 -3.86861e-20
-9.12395e-09 8.2594e-08 7.8544e-20
2.4814e-08 9.19223e-09 -4.43897e-20
-1.38782e-07 -2.27186e-09 -8.58408e-20
-1.73387e-08 5.44284e-08 5.27089e-20
8.36601e-08 -1.26234e-08 -2.87066e-20
9.60921e-08 1.71372e-07 2.8392e-20
-1.28921e-07 1.30012e-08 1.26995e-20
-4.83986e-08 -1.82604e-07 -5.1499e-20
1.59592e-09 3.30299e-10 3.82425e-20
1.42789e-07 1.16253e-08 3.3656e-20
9.09054e-08 -1.0496e-07 -1.73521e-20
-1.31697e-07 -2.1207e-08 -1.13887e-19
-2.48259e-08 -7.207e-08 -2.04866e-20
8.08434e-07 -6.61337e-08 -2.90325e-20
9.90491e-08 8.35049e-08 -3.57003e-20
-2.95799e-07 -2.34965e-07 -1.2666e-20
1.73826e-08 3.26972e-09 -3.76648e-20
-1.32235e-07 -2.35496e-08 -7.03496e-20
5.78113e-08 -3.76191e-07 5.28685e-20
6.07504e-07 -6.2216e-07 -1.72649e-20
1.2944e-09 -2.8532e-08 7.55363e-20
-7.67846e-09 2.19427e-08 -1.29715e-20
-2.38171e-08 -1.56907e-08 -1.85532e-20
3.15433e-09 1.57546e-08 -9.49802e-20
-2.40812e-08 4.10065e-09 2.4115e-20
9.56518e-08 -1.0403e-07 2.16727e-20
5.92809e-07 6.48381e-07 5.61628e-20
3.7867e-07 -1.71561e-07 -6.77823e-20
5.85888e-09 -1.44273e-08 1.38435e-20
-9.48231e-09 -1.2636e-08 3.28314e-20
-1.31362e-07 2.69837e-08 -3.16411e-20
3.75682e-07 -3.68937e-07 1.46043e-20
-3.50058e-07 1.26003e-07 3.01745e-20
-4.42275e-08 -1.92997e-07 -1.767e-20
7.98017e-08 1.93851e-07 3.62479e-20
-1.26004e-07 3.29497e-08 1.29689e-19
-2.16816e-07 3.37225e-07 2.78974e-20
3.84324e-07 1.88214e-07 -8.75517e-20
3.33717e-07 -1.09759e-07 -6.81516e-20
-9.83236e-09 2.33672e-08 -2.12506e-20
-2.61157e-07 -2.34351e-07 1.79174e-20
-2.56336e-08 3.38468e-09 -5.3501e-20
-5.60126e-07 3.28937e-07 -1.21267e-20
-7.12995e-09 -2.1851e-08 1.07961e-19
7.4366e-08 -3.44871e-07 -4.53479e-20
-2.22702e-08 -4.85104e-09 -5.44524e-21
5.83462e-08 1.16988e-07 -2.8553e-20
-3.11346e-08 -9.44894e-09 1.05927e-20
-3.28741e-08 -3.08799e-08 -2.36053e-21
7.28925e-07 3.20917e-07 -1.08318e-19
-6.26027e-10 6.36636e-08 -8.42987e-20
9.84001e-09 -4.24773e-08 -1.3434e-19
1.65309e-08 -9.45015e-08 -7.69203e-21
-6.56009e-09 -3.09421e-08 -7.00212e-20
-7.5631e-08 -1.92212e-08 -8.08318e-20
-8.80404e-08 1.07723e-07 2.14832e-21
2.36114e-08 -8.57358e-09 2.10698e-20
-9.69803e-09 -2.404e-08 2.66835e-20
-2.53531e-08 -3.71608e-09 -6.96782e-20
-4.36369e-08 4.04277e-07 1.30329e-20
-7.76783e-08 3.92352e-08 -1.05393e-19
-7.53595e-08 1.28898e-07 -8.05798e-20
-7.5799e-07 8.90956e-08 3.8953e-20
3.45131e-11 -6.00319e-08 -1.31536e-20
-7.29768e-08 -6.1143e-08 5.34755e-21
3.07289e-08 7.49858e-08 1.31303e-20
2.90515e-07 5.80795e-08 1.79597e-20
4.16365e-07 -3.6227e-07 -2.76474e-20
1.14156e-08 2.79532e-08 -1.23607e-19
2.81667e-08 8.7404e-09 8.45245e-21
-3.87955e-07 2.87026e-07 3.20614e-22
4.52857e-07 5.50569e-08 -4.48286e-20
-6.86389e-08 6.13791e-07 -3.17089e-20
-2.37958e-08 -1.23017e-07 -1.14331e-19
8.35362e-08 5.88347e-08 5.5439e-22
3.61357e-07 3.81079e-07 -7.29245e-21
6.54819e-09 2.91424e-09 9.01942e-20
-6.9646e-08 3.4682e-07 3.05824e-20
5.91502e-09 -3.16937e-09 -2.52062e-20
-4.18217e-08 2.85217e-08 5.37022e-21
9.02827e-08 3.67431e-08 3.72662e-20
-3.33948e-07 1.03238e-07 3.30766e-20
1.93824e-07 3.4058e-07 2.46149e-21
1.2058e-07 -5.44416e-07 -5.99525e-20
2.83454e-08 7.43141e-08 -1.81514e-20
-5.129e-08 -3.05193e-08 5.35109e-21
4.24968e-08 1.35916e-07 -4.91582e-20
2.82564e-07 4.80837e-08 -4.60389e-20
-1.87572e-07 3.87514e-07 -2.46486e-20
4.9862e-07 -1.62964e-07 -1.76589e-20
-2.76707e-08 6.04134e-08 -7.86762e-21
5.30342e-08 5.38614e-08 7.88487e-20
-3.15207e-08 -7.27162e-08 7.0877e-20
-1.26795e-08 -5.54046e-08 -1.57486e-19
1.46679e-07 1.75847e-08 9.10319e-20
-1.06983e-07 5.00432e-07 4.01691e-20
-2.47454e-08 1.52653e-08 -5.51448e-20
7.31629e-08 1.08424e-07 -6.44425e-20
-3.61758e-08 -5.13545e-07 -3.48668e-20
5.19513e-07 1.55986e-07 -1.09445e-19
3.53726e-08 -6.25067e-08 -9.90547e-21
-8.07575e-08 -9.2382e-09 -4.93981e-20
-3.32279e-07 -1.33365e-07 -1.53757e-20
1.64327e-08 1.75769e-08 1.09965e-20
-5.27806e-07 -1.84586e-07 4.47924e-20
1.66825e-08 -1.75283e-08 -2.98509e-20
-5.13228e-08 -3.60865e-07 -5.30933e-20
2.22725e-07 8.45185e-09 -6.39625e-20
-1.98389e-08 1.69298e-08 4.51533e-20
5.32482e-09 2.43249e-08 -1.80419e-20
1.48993e-08 -6.52507e-08 -1.56137e-20
2.58803e-08 -1.21037e-08 -2.34191e-20
4.83736e-10 2.62148e-08 -7.16023e-20
2.26298e-08 -2.82509e-09 -3.21309e-20
4.22158e-08 -6.2279e-08 1.62736e-20
-1.08068e-07 -5.51189e-07 1.99059e-20
2.85499e-07 -2.19779e-07 -3.30848e-20
9.2473e-10 3.47854e-08 1.09664e-19
-2.40754e-08 -4.35507e-09 1.56963e-20
-7.83475e-09 -2.69284e-08 7.99863e-21
-1.98536e-08 -1.40139e-08 2.60575e-20
-2.66902e-07 3.33526e-07 -3.01311e-20
-3.06617e-10 -2.64938e-08 1.08023e-19
-3.33854e-07 5.24204e-07 4.50081e-20
-1.25479e-07 5.77054e-08 -3.67857e-20
1.76449e-08 1.9029e-08 1.61406e-20
-2.28097e-08 -1.33372e-08 -2.12553e-20
1.62784e-07 3.92875e-07 -4.89998e-21
9.39297e-08 8.37128e-08 -4.40885e-20
2.2798e-07 -7.51847e-08 -3.62164e-20
1.28296e-08 -7.01522e-08 3.73175e-20
-4.13639e-07 -3.81161e-07 -1.96555e-20
-3.98861e-08 6.89322e-08 2.5919e-20
1.03572e-07 5.52471e-08 -3.63641e-20
1.5145e-07 -5.21408e-08 1.28908e-20
6.54049e-08 -1.30656e-07 -4.74602e-21
2.59269e-07 -1.19552e-07 -1.28271e-20
1.72502e-07 -8.14232e-08 -6.96798e-20
1.7337e-08 -1.43687e-08 1.23514e-19
3.00727e-07 2.37872e-07 -4.27764e-20
-4.35342e-08 -1.25896e-07 -9.36662e-20
-5.3471e-08 -4.57476e-08 -7.78119e-21
-8.74113e-09 -2.2947e-08 2.40555e-20
1.20091e-08 8.98282e-08 -1.81603e-20
-4.0223e-07 2.88381e-08 9.60179e-20
-1.4694e-07 -3.83966e-07 -4.95475e-21
-6.32847e-08 8.0667e-08 -2.60481e-20
1.24444e-07 1.65848e-07 -3.07769e-20
3.09535e-07 -2.19542e-07 7.2882e-21
-4.52493e-07 -2.41928e-07 -2.45667e-20
2.01304e-07 -3.27705e-07 -1.07817e-19
2.62128e-07 -3.22438e-07 -7.32783e-20
-7.72073e-08 7.64808e-09 -7.32733e-20
-2.30115e-07 -3.32996e-07 -7.35514e-21
-4.02808e-07 -6.31315e-08 4.53374e-20
-4.80055e-08 -3.67593e-07 1.49477e-20
1.79191e-07 -3.70372e-07 -7.53753e-20
3.74699e-09 -5.09199e-08 -4.2407e-20
5.32491e-08 3.54623e-07 5.08309e-20
-1.89698e-07 -3.31855e-07 3.02606e-20
-1.77949e-08 -8.14347e-08 -6.76594e-20
-2.74225e-07 2.05297e-07 7.57633e-21
-5.37286e-08 -1.7615e-08 2.89507e-20
-4.18598e-08 -2.87676e-08 -2.91269e-20
1.09454e-07 -5.61325e-08 3.88592e-20
-1.50627e-08 2.1327e-08 1.59532e-20
5.81776e-08 -7.34319e-08 8.42424e-21
-3.41223e-07 -1.51751e-07 -3.28808e-20
-4.52035e-08 -6.08807e-08 -2.32633e-20
4.72429e-08 6.45846e-08 -2.31943e-20
2.46738e-07 3.40587e-07 2.51528e-20
-8.73438e-08 -4.02778e-08 6.06948e-20
-3.79569e-07 -8.54005e-09 9.00474e-20
-4.86577e-08 -4.51254e-08 -1.07418e-20
-2.76987e-09 -6.53562e-08 2.39354e-20
4.7662e-08 2.40399e-08 -1.55849e-20
-5.49674e-08 5.4181e-08 -2.83086e-21
-9.18009e-09 -9.62082e-08 -4.99747e-21
-5.06686e-07 1.24809e-07 2.51103e-20
2.77758e-07 2.36954e-07 -9.356e-20
3.71135e-08 3.85914e-07 1.78323e-20
-2.23784e-08 7.69419e-09 2.09213e-20
-7.46568e-08 2.31988e-09 -1.20064e-19
3.42752e-08 6.54387e-08 -4.95529e-20
-2.71344e-08 -6.66224e-09 2.88054e-20
3.21036e-09 -2.31325e-08 -5.06472e-21
-1.49291e-08 1.01836e-07 1.58407e-20
1.65444e-08 1.74315e-08 1.83589e-20
-1.88577e-07 4.16851e-08 2.31106e-20
-1.91245e-07 2.08671e-07 -1.14213e-19
-2.06488e-08 1.91616e-08 -1.89087e-20
-3.4598e-07 2.08805e-07 -2.25721e-20
-8.88388e-09 2.94862e-08 -2.09739e-20
9.33842e-08 -3.34529e-08 7.05457e-20
4.337e-07 -3.99009e-08 -8.04515e-20
-5.43722e-08 3.44042e-08 -1.61198e-20
2.1988e-08 1.01372e-08 -3.40565e-20
5.65921e-08 -3.54134e-08 2.14391e-20
-9.70852e-08 3.23589e-08 1.82021e-20
-7.06539e-08 1.85231e-08 -2.89314e-20
2.48468e-08 -7.25758e-09 3.7535e-20
2.29771e-07 -1.39737e-07 5.17686e-21
-9.04327e-08 5.76601e-08 -9.20153e-20
-2.70127e-07 -5.63297e-08 8.1459e-20
-5.74168e-08 -3.02306e-08 4.20902e-20
2.19634e-08 -1.45803e-08 1.07933e-19
2.43296e-08 1.7092e-08 3.17339e-21
-6.14006e-09 2.76596e-08 5.24025e-20
-2.49131e-09 -3.12078e-08 1.39234e-20
-2.53243e-08 1.29458e-08 -5.19394e-21
-2.83421e-08 -1.45206e-08 -3.13084e-20
7.10003e-08 -2.68348e-08 2.34143e-20
-2.59817e-08 -7.14512e-09 -2.18473e-20
-2.59266e-08 6.88235e-09 -8.02985e-21
-6.39068e-09 2.57586e-08 2.87602e-21
-6.93794e-09 -2.63231e-08 2.14648e-20
1.71326e-08 -1.91837e-08 -4.28011e-20
1.64712e-08 1.83602e-08 -3.44981e-20
9.93949e-09 2.74209e-07 7.89489e-20
5.32072e-08 -4.38894e-08 1.87846e-20
1.24181e-08 -2.34192e-08 1.31233e-20
-2.06801e-07 7.64382e-09 5.161e-20
1.96376e-08 -1.86445e-08 1.21886e-19
1.83348e-08 1.89345e-08 -5.53537e-20
2.81289e-08 -6.12017e-10 -1.28312e-20
9.49274e-08 2.68708e-07 2.01692e-20
-1.42319e-08 -2.32745e-08 1.0734e-19
3.07739e-08 -7.04359e-08 2.632e-20
-2.30777e-07 -1.27683e-07 4.35399e-20
-5.07174e-08 -3.29229e-08 1.87951e-20
-2.31619e-07 1.37372e-07 -1.77562e-20
2.05426e-08 -2.10631e-08 3.92537e-20
-9.84557e-09 2.18833e-08 6.00267e-20
-5.41669e-09 -2.65531e-07 -3.28742e-20
-8.69308e-08 -2.62987e-07 2.59339e-20
3.98553e-07 3.79326e-07 -4.00514e-20
4.26306e-07 -2.42086e-08 -7.7286e-20
-3.02445e-08 6.58639e-09 1.84013e-20
-2.85113e-07 -5.03835e-07 -4.71773e-21
6.79873e-08 1.16571e-07 -5.18314e-20
-2.73308e-07 3.21899e-08 4.5726e-20
1.96213e-07 5.48664e-08 -1.0024e-19
-2.68117e-08 -1.08447e-10 -4.14862e-20
5.8167e-10 -2.78693e-08 1.05757e-20
-2.43597e-09 -1.9066e-08 1.05696e-19
-2.3768e-08 -1.41403e-08 -4.7116e-20
-5.91157e-07 -2.24019e-08 8.42347e-20
1.85805e-07 -2.10145e-07 -4.88404e-21
1.26356e-08 2.45092e-08 -7.64338e-21
6.45915e-09 -1.17336e-07 -2.85821e-20
-1.10829e-07 2.62467e-07 2.85377e-22
2.27061e-09 2.94888e-08 -7.60391e-20
1.98269e-07 -1.41874e-07 -8.23476e-20
-1.74445e-08 -7.62696e-09 8.41887e-20
-1.68598e-07 -2.19129e-07 -4.04741e-20
2.32333e-08 1.18248e-08 6.3276e-20
5.49836e-08 5.31527e-08 6.6626e-20
-3.91177e-08 -6.09372e-08 6.52171e-20
2.40736e-08 -7.78208e-09 8.01304e-20
8.14729e-08 -5.68769e-08 -1.04491e-20
-4.8398e-09 4.54321e-08 7.47733e-20
6.70222e-08 -1.12962e-07 -7.08357e-21
6.11961e-07 3.08343e-08 -8.18887e-20
-5.1844e-07 1.37169e-07 7.13387e-20
4.3423e-08 3.02591e-08 8.34741e-21
-6.42339e-08 -1.54649e-07 4.68318e-20
-9.76429e-08 -6.3699e-08 -3.93086e-20
3.17799e-07 -3.19401e-09 -6.12969e-20
2.71768e-09 -6.06462e-08 -2.40084e-20
-7.94285e-08 -2.8047e-08 -1.31421e-20
1.08306e-07 -2.58768e-07 -1.24374e-19
8.63498e-09 1.04249e-07 1.58872e-20
8.88915e-08 2.75665e-07 5.13211e-21
1.06691e-07 -5.62244e-08 2.34836e-20
-1.94607e-07 2.0714e-07 -9.9718e-20
1.78947e-07 2.21122e-07 -6.09121e-20
-1.12593e-08 5.03459e-09 -2.76628e-20
1.85151e-09 4.80418e-08 -5.84258e-20
3.62788e-09 -2.18008e-08 -1.2164e-19
-1.72569e-08 -1.43177e-08 -7.92841e-20
-5.94362e-08 4.71254e-08 3.37109e-20
-2.7266e-07 -6.46015e-08 1.43464e-19
9.54203e-10 3.06509e-08 4.86644e-20
-7.13154e-08 2.1291e-08 4.95169e-21
1.93192e-07 -2.80086e-08 -4.74755e-21
-8.26108e-08 -2.6752e-07 -1.01649e-20
-1.62708e-07 2.59124e-07 -3.54892e-20
-4.59501e-08 2.12381e-08 -2.14687e-20
-2.18065e-07 -1.54297e-07 -4.33473e-20
4.93678e-08 -2.31555e-08 -2.65161e-20
-2.95677e-07 -1.44782e-08 9.96966e-20
1.4474e-07 -5.10734e-07 -3.45091e-20
1.97768e-07 -2.07677e-07 1.29622e-20
3.02389e-07 5.36134e-07 1.75198e-20
-2.83213e-09 6.48118e-08 8.42865e-20
2.59584e-08 -2.69365e-07 -3.56745e-20
-1.05221e-08 6.37297e-09 -1.09382e-19
-1.4019e-07 -2.61595e-07 -1.02196e-20
4.7045e-08 -4.02606e-08 6.62626e-20
-2.70459e-08 2.72473e-07 6.6447e-20
6.56688e-08 -1.92791e-08 -1.0684e-20
1.49421e-07 2.66283e-07 -2.04455e-20
1.49661e-07 -3.49479e-09 -3.38423e-20
2.73142e-07 -8.05922e-07 9.56286e-21
-5.78809e-08 -1.07757e-07 8.35014e-20
-2.41386e-07 1.05177e-07 7.14368e-20
-3.38279e-08 1.66239e-08 -1.89626e-20
2.29153e-07 1.53461e-07 -5.56212e-20
1.63338e-07 -9.0176e-08 -1.79739e-20
8.63461e-08 3.79369e-08 -4.87979e-21
-1.76602e-08 1.49216e-08 -5.53839e-21
1.63827e-07 -2.53088e-07 -5.3482e-20
-1.74658e-07 -2.17955e-07 7.57558e-21
2.25352e-07 8.88892e-08 3.10478e-21
5.73327e-08 -3.54378e-08 -5.30689e-20
1.05351e-07 -2.61846e-07 2.0716e-20
1.2381e-07 -2.34715e-08 -5.25933e-20
-1.20147e-07 -4.79349e-08 -2.43775e-21
-5.22476e-09 -4.87741e-08 1.09636e-19
-2.75386e-07 3.82414e-08 -2.80321e-20
2.89337e-08 2.41583e-07 -2.61461e-21
1.884e-07 4.39639e-08 -6.19609e-20
-2.14006e-07 -9.57882e-08 7.4381e-20
-1.05229e-07 2.69823e-07 -2.02112e-20
-2.40519e-08 -2.35367e-07 -4.57768e-20
6.22317e-08 3.03729e-08 5.52375e-21
-4.03888e-08 1.13837e-07 4.95995e-20
-1.92446e-07 1.38025e-07 4.88434e-20
2.47152e-07 1.24664e-07 -3.2945e-20
-1.12522e-07 -3.53502e-08 2.73306e-21
-2.72839e-08 -1.15874e-07 -1.74924e-19
1.88871e-07 2.19546e-07 -2.39456e-21
-4.44072e-08 -2.01435e-08 -6.3868e-20
6.21004e-07 -4.46533e-07 -4.59319e-20
1.31524e-07 -9.20182e-08 8.58733e-20
1.07398e-07 5.263e-07 5.47474e-21
1.38685e-07 -1.33327e-07 3.34797e-21
-2.99805e-07 1.14174e-06 7.37576e-20
-3.01543e-07 -1.13062e-06 -5.10275e-20
7.40859e-07 9.73823e-07 -2.33836e-20
7.31669e-07 -9.73562e-07 -6.90279e-20
1.21274e-06 -4.72751e-10 -4.67915e-20
-1.04543e-06 4.20596e-07 4.38168e-20
-1.0281e-06 -4.25169e-07 -3.01637e-20
5.0006e-08 2.71286e-08 -6.03735e-20
3.20881e-08 1.55802e-08 2.43265e-20
9.31969e-08 1.25515e-08 -3.66959e-20
1.64532e-07 8.79311e-08 7.22658e-20
4.88061e-08 1.9441e-07 1.5536e-20
-1.76388e-07 -1.51543e-07 -5.91291e-20
8.88336e-08 -8.18879e-08 2.64924e-20
1.89527e-07 1.52103e-07 2.85399e-20
-4.38299e-08 2.3928e-07 -7.20721e-20
3.11221e-08 -1.52862e-08 -2.12664e-20
4.46077e-08 -2.29625e-07 -5.38982e-20
5.82914e-08 3.9303e-08 -4.77062e-21
3.41832e-07 1.19748e-07 -4.51575e-20
7.66748e-09 2.4612e-08 -9.23281e-20
1.32123e-07 4.32449e-08 -2.0644e-20
-1.63521e-07 9.04534e-08 2.29457e-20
-2.2388e-07 7.745e-08 6.40052e-20
4.43333e-08 -3.03728e-08 -8.80183e-20
-1.42942e-07 -6.61469e-08 3.37935e-20
-1.57054e-07 -9.3026e-08 8.26379e-20
-1.37661e-08 -1.57662e-07 -1.00681e-20
6.21195e-10 -1.81075e-07 -9.94726e-21
-1.99361e-07 -8.61801e-09 9.26985e-20
2.95889e-07 -4.59411e-08 -9.10732e-20
1.59633e-07 9.83812e-08 -6.42073e-20
-1.32099e-07 9.01139e-08 -7.02087e-20
-5.95669e-08 2.91609e-08 8.71859e-20
1.48993e-07 -1.33502e-07 2.38157e-20
-1.11944e-07 1.74302e-07 -6.3994e-20
-1.37897e-07 -1.45259e-07 2.68574e-22
-1.3068e-08 1.89862e-07 7.75599e-21
-2.84052e-08 1.60246e-07 -7.79883e-20
4.68267e-09 -1.16339e-07 -3.37867e-20
6.0017e-08 -1.93979e-07 -3.06429e-20
-9.81019e-08 -6.29567e-08 7.03697e-20
1.35914e-07 -3.87611e-08 -1.79792e-20
3.33019e-10 1.89628e-07 8.50678e-20
-4.10146e-09 1.21167e-07 5.48669e-20
-3.04501e-08 1.36292e-07 4.70316e-20
2.23058e-07 -5.48945e-08 6.96441e-23
-4.68525e-08 4.47289e-08 1.03554e-20
5.05579e-08 1.89781e-07 5.44001e-20
-3.0559e-08 1.9288e-08 -1.61899e-20
1.12647e-07 5.2234e-07 1.02148e-20
-5.52649e-08 2.98321e-08 3.68308e-20
5.86356e-08 -3.05221e-08 3.732e-20
1.68646e-08 1.61267e-07 1.1673e-19
-1.89127e-07 4.49252e-08 -5.38369e-21
-5.81295e-09 -8.19894e-08 -1.4111e-19
7.80151e-09 -7.45188e-07 -7.26438e-20
2.26383e-08 1.36714e-07 -1.26689e-20
-1.41289e-07 1.34413e-07 -8.16964e-21
2.19395e-07 8.15983e-07 -2.13452e-21
1.05407e-08 6.94085e-09 -1.09527e-20
9.10714e-09 -6.61969e-09 -1.92761e-20
1.06372e-07 -8.29503e-08 -9.8464e-21
-1.50985e-07 1.35186e-07 2.54488e-20
-1.81231e-07 -5.35357e-08 2.58451e-20
-1.86234e-07 -6.11656e-08 4.89084e-20
-3.70623e-09 2.28056e-09 -3.646e-20
-2.55922e-09 -1.23063e-09 5.8104e-20
8.69932e-08 1.76769e-08 -1.59613e-20
2.7609e-08 1.26967e-07 6.25385e-20
-3.1909e-09 1.26245e-07 2.88674e-20
-6.24155e-07 -4.53385e-07 7.2099e-21
1.10797e-07 -1.74267e-07 -2.77148e-20
5.60485e-08 2.01906e-08 -1.55117e-20
-2.0555e-07 -2.21127e-08 7.88989e-21
-1.29969e-07 1.71705e-07 -5.31174e-21
-1.67789e-07 7.88959e-08 7.71738e-21
6.12772e-07 4.40288e-07 1.91768e-20
6.06489e-08 3.98653e-08 -4.68165e-21
-5.96481e-08 1.9468e-07 -5.10977e-20
-1.1759e-07 -1.00719e-07 2.35022e-20
2.92511e-08 -1.5337e-07 -5.71008e-20
-9.51487e-08 -1.81032e-07 -2.80851e-20
-1.52471e-07 -1.04509e-07 -5.91796e-20
1.04499e-07 -1.85327e-07 3.90561e-20
1.25353e-07 -1.72267e-07 -4.35755e-20
-3.97279e-08 -7.77617e-07 -2.17642e-20
3.19722e-07 -5.11405e-07 -2.26865e-20
1.52748e-08 -1.8618e-07 -7.99305e-20
1.31295e-07 9.99501e-08 -4.9274e-20
-1.17938e-07 -1.4316e-07 -8.25763e-20
-1.02284e-07 1.90692e-07 -7.55768e-21
-6.28404e-08 1.86901e-07 -6.45453e-20
1.36899e-07 1.41758e-07 -3.82411e-20
6.71146e-08 -1.74817e-07 1.28134e-20
-1.73518e-07 -4.94751e-07 -2.95377e-20
3.91116e-09 6.01257e-08 1.80257e-20
1.38595e-07 1.42613e-07 -4.35414e-20
-7.47168e-08 -3.67942e-08 2.90192e-20
-6.20848e-08 3.38936e-08 2.84961e-20
5.55553e-07 -2.43378e-07 -4.97468e-20
6.90043e-08 -1.14043e-07 1.60593e-20
-6.5495e-08 -1.12046e-07 7.78376e-21
2.48616e-08 -2.14948e-09 6.13949e-20
2.14694e-09 -9.42314e-09 1.5287e-19
-6.97066e-09 -6.8961e-09 1.22726e-19
3.06104e-08 2.00661e-08 -2.61925e-20
-9.59495e-08 -1.81126e-07 4.35113e-20
1.47651e-07 5.92151e-08 2.40103e-22
-3.59272e-07 -3.94974e-07 -5.16283e-20
1.35755e-09 1.15821e-08 5.97881e-20
1.34034e-09 2.067e-09 1.66883e-20
2.58652e-09 -3.41207e-10 2.77455e-20
3.44755e-07 -6.80811e-07 -4.58601e-20
-1.43322e-08 1.68812e-08 -7.29342e-20
-3.28771e-09 2.0451e-08 1.64937e-20
-1.4846e-07 5.27757e-08 -2.6732e-21
-5.1297e-09 6.03075e-08 5.06588e-20
-3.26168e-08 9.67108e-08 3.65451e-20
6.72377e-08 2.86791e-09 4.96904e-20
1.5164e-08 5.81401e-08 4.4846e-20
-3.97486e-09 8.03955e-08 5.09297e-21
1.15237e-07 6.2695e-08 -2.08796e-20
8.20887e-09 7.41709e-07 1.70965e-20
-1.07215e-07 1.01448e-07 -1.84361e-20
8.03932e-08 -5.40522e-08 2.92601e-20
4.64136e-08 -4.23767e-08 1.37224e-19
-7.6074e-07 -1.04452e-07 6.08179e-20
-2.16868e-08 8.5959e-09 2.67945e-20
-5.53938e-07 -6.55258e-07 1.46046e-20
1.00679e-08 2.69587e-08 -3.14589e-20
9.71687e-08 1.88952e-08 5.56898e-21
2.89279e-07 -3.75437e-08 -2.28985e-20
-6.6131e-08 -1.08668e-07 6.75834e-20
1.26442e-07 3.62665e-08 -7.7896e-21
6.59365e-10 -3.21815e-08 2.90422e-21
-7.13126e-08 8.25059e-08 5.00311e-21
-2.72727e-08 -1.73508e-08 -5.31343e-20
-6.42749e-08 1.30582e-07 -7.52677e-20
1.16279e-08 8.24219e-08 -4.4831e-20
1.88992e-08 1.3853e-08 -5.96597e-20
1.87561e-08 -1.33079e-08 7.04612e-20
-5.15716e-07 -1.4049e-07 5.43075e-20
5.68173e-08 2.12026e-08 -1.77708e-20
-6.8403e-08 1.32392e-06 2.02726e-21
-4.75886e-09 -1.36019e-06 -1.90899e-20
6.69508e-07 1.14611e-06 -5.29857e-20
-6.94921e-08 5.51279e-08 -1.1063e-19
-3.54763e-07 7.13955e-07 4.59872e-20
6.73353e-07 -1.10622e-06 -5.96726e-20
-1.11352e-07 -1.80224e-07 2.04987e-20
1.02251e-06 8.95958e-07 -5.76424e-20
1.2024e-08 -2.13261e-08 3.17373e-22
-1.25286e-08 -2.16095e-08 5.93088e-20
1.07184e-06 -8.7601e-07 -1.14884e-19
-6.56844e-08 1.29175e-07 -3.87391e-20
-6.73289e-07 -4.28798e-07 -3.65929e-20
-5.67759e-07 -1.18337e-06 -4.09451e-20
-3.17999e-07 -7.31566e-07 -4.39106e-20
-5.8367e-07 1.20307e-06 1.91827e-20
-1.37934e-07 8.15279e-07 -4.61467e-20
-9.7222e-10 2.85554e-08 8.01868e-21
-3.54156e-07 4.55966e-07 1.49099e-20
-3.39061e-07 -6.93957e-07 3.88424e-20
1.31847e-06 2.30078e-07 -7.91855e-20
-1.03108e-07 8.76575e-08 -1.044e-19
-2.4233e-09 5.79169e-08 4.25047e-20
-6.37766e-07 4.61699e-07 6.59206e-20
-1.14348e-07 6.10295e-08 -8.39208e-20
1.30548e-06 -2.04645e-07 -1.41473e-19
-8.72746e-08 5.85853e-08 -2.59652e-20
6.35733e-08 -1.31477e-07 -2.56419e-20
-1.01593e-06 -7.71609e-07 -2.91404e-20
-3.42565e-07 7.33996e-07 -4.11797e-20
-1.04055e-06 7.65942e-07 1.17489e-19
3.04035e-07 6.78273e-07 -2.72217e-21
-1.11939e-07 8.8983e-08 -7.02562e-20
-3.10663e-08 1.75953e-08 -8.61716e-20
-1.70226e-09 -2.70242e-09 8.77078e-21
4.2705e-10 -2.33422e-09 -5.29283e-20
8.50977e-09 8.93604e-08 -2.07733e-20
-2.49623e-09 2.70675e-09 1.15509e-19
1.3167e-09 3.35177e-09 3.32528e-20
2.25211e-09 -9.66252e-10 -4.72241e-20
-1.33188e-09 1.05871e-08 1.09603e-19
-2.33945e-07 5.10417e-07 -1.17329e-20
-1.75996e-08 1.2634e-08 -8.38624e-20
3.03331e-08 -1.91087e-08 1.04304e-19
2.97326e-08 -1.72232e-08 3.5161e-20
8.56472e-08 3.34251e-08 2.40064e-20
-8.0713e-10 -9.0612e-09 1.28444e-19
-8.09084e-09 -4.10058e-09 4.64481e-20
2.97151e-08 1.7334e-08 -5.89992e-20
7.56041e-07 -1.4571e-07 -1.67769e-20
-9.79618e-08 -1.24867e-07 6.45932e-20
-6.61926e-07 4.61478e-07 5.51459e-20
-5.92653e-07 6.75952e-07 5.66292e-20
7.98872e-07 -2.88502e-07 -6.61495e-20
-3.83578e-09 -1.11219e-08 1.57543e-19
-4.21212e-09 1.14245e-08 8.48848e-20
-1.25568e-08 2.15423e-09 2.69366e-20
-8.23196e-09 8.39943e-09 -7.32906e-20
-1.13829e-08 -2.40969e-09 -7.91921e-20
2.11008e-09 2.67362e-09 -6.08529e-20
1.22181e-08 -3.00453e-09 3.77612e-20
5.15316e-09 -3.62213e-09 -2.25868e-20
-3.60236e-09 -2.60127e-09 8.22759e-20
7.81248e-09 -8.03601e-09 3.23949e-20
7.85581e-09 8.27526e-09 7.06922e-20
-3.62433e-09 2.28692e-09 7.69509e-20
3.9776e-09 -7.93124e-10 -2.48858e-22
6.59517e-09 3.6525e-09 8.13519e-21
1.42791e-08 5.09444e-09 -2.89836e-21
SCALARS rr_necrosis float
LOOKUP_TABLE default
0
0
0
0
0
0
0
0
0
0
0
0
0
0
0
0
0
0
0
0
0
0
0
0
0
0
0
0
0
0
0
0
0
0
0
0
0
0
0
0
0
0
0
0
0
0
0
0
0
0
0
0
0
0
0
0
0
0
0
0
0
0
0
0
0
0
0
0
0
0
0
0
0
0
0
0
0
0
0
0
0
0
0
0
0
0
0
0
0
0
0
0
0
0
0
0
0
0
0
0
0
0
0
0
0
0
0
0
0
0
0
0
0
0
0
0
0
0
0
0
0
0
0
0
0
0
0
0
0
0
0
0
0
0
0
0
0
0
0
0
0
0
0
0
0
0
0
0
0
0
0
0
0
0
0
0
0
0
0
0
0
0
0
0
0
0
0
0
0
0
0
0
0
0
0
0
0
0
0
0
0
0
0
0
0
0
0
0
0
0
0
0
0
0
0
0
0
0
0
0
0
0
0
0
0
0
0
0
0
0
0
0
0
0
0
0
0
0
0
0
0
0
0
0
0
0
0
0
0
0
0
0
0
0
0
0
0
0
0
0
0
0
0
0
0
0
0
0
0
0
0
0
0
0
0
0
0
0
0
0
0
0
0
0
0
0
0
0
0
0
0
0
0
0
0
0
0
0
0
0
0
0
0
0
0
0
0
0
0
0
0
0
0
0
0
0
0
0
0
0
0
0
0
0
0
0
0
0
0
0
0
0
0
0
0
0
0
0
0
0
0
0
0
0
0
0
0
0
0
0
0
0
0
0
0
0
0
0
0
0
0
0
0
0
0
0
0
0
0
0
0
0
0
0
0
0
0
0
0
0
0
0
0
0
0
0
0
0
0
0
0
0
0
0
0
0
0
0
0
0
0
0
0
0
0
0
0
0
0
0
0
0
0
0
0
0
0
0
0
0
0
0
0
0
0
0
0
0
0
0
0
0
0
0
0
0
0
0
0
0
0
0
0
0
0
0
0
0
0
0
0
0
0
0
0
0
0
0
0
0
0
0
0
0
0
0
0
0
0
0
0
0
0
0
0
0
0
0
0
0
0
0
0
0
0
0
0
0
0
0
0
0
0
0
0
0
0
0
0
0
0
0
0
0
0
0
0
0
0
0
0
0
0
0
0
0
0
0
0
0
0
0
0
0
0
0
0
0
0
0
0
0
0
0
0
0
0
0
0
0
0
0
0
0
0
0
0
0
0
0
0
0
0
0
0
0
0
0
0
0
0
0
0
0
0
0
0
0
0
0
0
0
0
0
0
0
0
0
0
0
0
0
0
SCALARS rr_protein float
LOOKUP_TABLE default
1
1
1
1
1
1
1
1
1
1
1
1
1
1
1
1
1
1
1
1
1
1
1
1
1
1
1
1
1
1
1
1
1
1
1
1
1
1
1
1
1
1
1
1
1
1
1
1
1
1
1
1
1
1
1
1
1
1
1
1
1
1
1
1
1
1
1
1
1
1
1
1
1
1
1
1
1
1
1
1
1
1
1
1
1
1
1
1
1
1
1
1
1
1
1
1
1
1
1
1
1
1
1
1
1
1
1
1
1
1
1
1
1
1
1
1
1
1
1
1
1
1
1
1
1
1
1
1
1
1
1
1
1
1
1
1
1
1
1
1
1
1
1
1
1
1
1
1
1
1
1
1
1
1
1
1
1
1
1
1
1
1
1
1
1
1
1
1
1
1
1
1
1
1
1
1
1
1
1
1
1
1
1
1
1
1
1
1
1
1
1
1
1
1
1
1
1
1
1
1
1
1
1
1
1
1
1
1
1
1
1
1
1
1
1
1
1
1
1
1
1
1
1
1
1
1
1
1
1
1
1
1
1
1
1
1
1
1
1
1
1
1
1
1
1
1
1
1
1
1
1
1
1
1
1
1
1
1
1
1
1
1
1
1
1
1
1
1
1
1
1
1
1
1
1
1
1
1
1
1
1
1
1
1
1
1
1
1
1
1
1
1
1
1
1
1
1
1
1
1
1
1
1
1
1
1
1
1
1
1
1
1
1
1
1
1
1
1
1
1
1
1
1
1
1
1
1
1
1
1
1
1
1
1
1
1
1
1
1
1
1
1
1
1
1
1
1
1
1
1
1
1
1
1
1
1
1
1
1
1
1
1
1
1
1
1
1
1
1
1
1
1
1
1
1
1
1
1
1
1
1
1
1
1
1
1
1
1
1
1
1
1
1
1
1
1
1
1
1
1
1
1
1
1
1
1
1
1
1
1
1
1
1
1
1
1
1
1
1
1
1
1
1
1
1
1
1
1
1
1
1
1
1
1
1
1
1
1
1
1
1
1
1
1
1
1
1
1
1
1
1
1
1
1
1
1
1
1
1
1
1
1
1
1
1
1
1
1
1
1
1
1
1
1
1
1
1
1
1
1
1
1
1
1
1
1
1
1
1
1
1
1
1
1
1
1
1
1
1
1
1
1
1
1
1
1
1
1
1
1
1
1
1
1
1
1
1
1
1
1
1
1
1
1
1
1
1
1
1
1
1
1
1
1
1
1
1
1
1
1
1
1
1
1
1
1
1
1
1
1
1
1
1
1
1
1
1
1
1
1
1
1
1
SCALARS rr_(S_ext) float
LOOKUP_TABLE default
0.985856
0.985793
0.985803
0.985792
0.985795
0.985802
0.985855
0.985801
0.985809
0.985797
0.985824
0.985801
0.985802
0.985797
0.985791
0.985803
0.985793
0.985798
0.985807
0.985802
0.985807
0.985782
0.985803
0.985803
0.985803
0.985796
0.985833
0.985802
0.98582
0.985785
0.985803
0.985819
0.985836
0.985787
0.98579
0.985787
0.985783
0.985791
0.985803
0.985836
0.985819
0.985782
0.985782
0.985802
0.985823
0.98582
0.985808
0.985808
0.985802
0.98582
0.98582
0.985817
0.985791
0.985819
0.985792
0.985833
0.98579
0.985818
0.98579
0.985801
0.985792
0.985795
0.985837
0.985796
0.985794
0.985798
0.985792
0.985797
0.985803
0.985793
0.985791
0.985791
0.98582
0.985798
0.985803
0.985834
0.985795
0.985798
0.985796
0.985813
0.985827
0.985794
0.985793
0.985825
0.985822
0.985828
0.985802
0.985799
0.985823
0.985784
0.985818
0.985784
0.985793
0.985799
0.985819
0.985818
0.985829
0.985796
0.985795
0.985803
0.985814
0.985823
0.985824
0.985795
0.985797
0.985796
0.985793
0.985803
0.985825
0.985789
0.985801
0.985824
0.985824
0.985797
0.985796
0.98582
0.985792
0.98583
0.985793
0.985819
0.985809
0.98579
0.985792
0.985795
0.98579
0.98579
0.985792
0.985796
0.985829
0.985818
0.985789
0.985792
0.985792
0.985792
0.985823
0.985789
0.985832
0.985803
0.985792
0.985789
0.985822
0.985801
0.985811
0.985796
0.98583
0.985796
0.985801
0.985805
0.985803
0.985813
0.985807
0.985792
0.985818
0.985802
0.985796
0.985792
0.985798
0.985823
0.985822
0.985799
0.985808
0.985818
0.985826
0.985818
0.985821
0.985796
0.985822
0.985823
0.985819
0.985821
0.985793
0.985818
0.985819
0.985798
0.985818
0.985793
0.985793
0.985801
0.985793
0.985799
0.985821
0.985796
0.985796
0.985821
0.985799
0.98582
0.985795
0.985796
0.985795
0.985796
0.985798
0.985828
0.985818
0.985819
0.985792
0.985797
0.985796
0.985792
0.985792
0.985799
0.985792
0.985808
0.985814
0.985792
0.985821
0.985792
0.985799
0.985821
0.985795
0.985792
0.985796
0.9858
0.985797
0.985793
0.985812
0.9858
0.985814
0.985796
0.985789
0.985789
0.985788
0.985789
0.985789
0.985789
0.985797
0.98579
0.98579
0.985789
0.98579
0.985793
0.985792
0.985812
0.985796
0.985788
0.985809
0.985791
0.985791
0.985789
0.985813
0.985788
0.985796
0.985813
0.985794
0.985813
0.985793
0.985787
0.985812
0.985813
0.985827
0.98582
0.985793
0.985831
0.985802
0.985814
0.985807
0.985788
0.985789
0.985785
0.985789
0.985834
0.985813
0.985788
0.985801
0.985813
0.985789
0.985811
0.985784
0.985814
0.985789
0.985796
0.985797
0.985791
0.9858
0.985792
0.985801
0.985827
0.985828
0.985795
0.985805
0.985801
0.985816
0.985794
0.985798
0.985813
0.985799
0.985814
0.985801
0.985815
0.985813
0.985783
0.985792
0.985789
0.985789
0.985797
0.985815
0.985787
0.985796
0.985807
0.985814
0.985816
0.985793
0.985813
0.985795
0.985816
0.985823
0.985814
0.985831
0.985795
0.985812
0.985783
0.985815
0.985795
0.985813
0.985796
0.985815
0.985803
0.985843
0.985801
0.985813
0.985791
0.985812
0.985807
0.985799
0.985792
0.985815
0.985814
0.98581
0.985797
0.985814
0.985802
0.985802
0.985794
0.985815
0.985811
0.985807
0.985811
0.985814
0.985811
0.985796
0.985801
0.985811
0.985813
0.985801
0.985801
0.985813
0.985794
0.985826
0.985805
0.985827
0.985807
0.985815
0.985816
0.985814
0.985814
0.985812
0.98582
0.985821
0.985795
0.98579
0.985798
0.985806
0.985807
0.985811
0.985801
0.985811
0.985811
0.98579
0.985811
0.985796
0.985817
0.985789
0.985802
0.985807
0.985811
0.985795
0.985805
0.985807
0.985804
0.985806
0.985808
0.985814
0.985806
0.985805
0.985795
0.985808
0.985808
0.985808
0.985807
0.985804
0.9858
0.985808
0.985801
0.985803
0.985806
0.985801
0.985802
0.985809
0.985795
0.985807
0.98579
0.985823
0.985795
0.985796
0.985804
0.985808
0.985797
0.985828
0.985802
0.985808
0.985842
0.985786
0.985787
0.985803
0.985808
0.985807
0.985808
0.985786
0.985785
0.985798
0.985801
0.985801
0.985833
0.985808
0.985795
0.985809
0.985809
0.985807
0.985825
0.985796
0.985808
0.985804
0.985804
0.985808
0.985807
0.985808
0.985809
0.985835
0.98583
0.985806
0.985805
0.985807
0.985809
0.985807
0.985807
0.985807
0.985825
0.985793
0.985807
0.985798
0.985796
0.985826
0.985802
0.985802
0.985794
0.98578
0.985779
0.985791
0.985808
0.985804
0.985825
0.98578
0.985782
0.985782
0.985826
0.98579
0.985784
0.985805
0.985794
0.985799
0.985795
0.985794
0.985797
0.985802
0.985827
0.985803
0.985799
0.985796
0.985834
0.985786
0.985846
0.985793
0.985799
0.985814
0.985801
0.985802
0.985789
0.9858
0.985789
0.985803
0.985797
0.985786
0.985788
0.985828
0.985795
0.985855
0.985859
0.985853
0.985798
0.985832
0.985851
0.985809
0.985853
0.985793
0.985793
0.985855
0.985803
0.985839
0.985859
0.985836
0.985859
0.985836
0.98579
0.985827
0.985831
0.985853
0.985803
0.985795
0.985837
0.985802
0.985849
0.985799
0.985804
0.985858
0.985835
0.985857
0.985825
0.985803
0.985791
0.98578
0.98578
0.985798
0.98578
0.985779
0.98578
0.985781
0.985827
0.985786
0.985793
0.985792
0.985799
0.985782
0.985782
0.985793
0.985824
0.985804
0.985833
0.985848
0.985841
0.98578
0.98578
0.985781
0.985781
0.98578
0.985782
0.985784
0.985783
0.985784
0.985783
0.985782
0.985784
0.985782
0.985782
0.985783
SCALARS rr_(P_ext) float
LOOKUP_TABLE default
0.0211792
0.0210793
0.0210881
0.021081
0.0210541
0.0210883
0.0211795
0.0210823
0.0210965
0.0210797
0.0211726
0.0210823
0.0210843
0.0210784
0.0210633
0.0210867
0.0210748
0.0210834
0.0211009
0.0210906
0.021092
0.0210197
0.0210918
0.0210904
0.0210907
0.0210817
0.0211587
0.021087
0.0211282
0.0210399
0.0210847
0.0211279
0.0211601
0.0210459
0.021043
0.021046
0.0210388
0.0210443
0.0210848
0.0211599
0.0211284
0.0210384
0.0210385
0.0210846
0.0211505
0.0211268
0.0210988
0.0210948
0.0210879
0.0211343
0.0211307
0.021118
0.0210555
0.0211178
0.0210563
0.0211476
0.0210428
0.0211177
0.0210429
0.0210901
0.0210751
0.0210669
0.0211523
0.0210674
0.0210667
0.0210749
0.0210748
0.0210817
0.0210912
0.021079
0.0210557
0.0210558
0.0211285
0.0210718
0.0210878
0.0211644
0.0210615
0.021075
0.0210817
0.0211157
0.0211364
0.021051
0.0210709
0.0211392
0.0211253
0.0211494
0.021087
0.0210733
0.0211504
0.0210246
0.0211179
0.0210248
0.0210609
0.021076
0.021117
0.0211317
0.0211362
0.0210799
0.0210617
0.0210852
0.0211066
0.0211229
0.0211394
0.0210825
0.0210807
0.0210805
0.0210698
0.021086
0.0211396
0.0210778
0.02109
0.0211473
0.0211428
0.021083
0.021081
0.0211174
0.0210429
0.0211367
0.0210432
0.0211171
0.0211031
0.0210645
0.0210793
0.021073
0.0210771
0.0210625
0.0210464
0.0210799
0.0211362
0.021117
0.0210556
0.02108
0.0210714
0.0210796
0.0211228
0.0210427
0.0211418
0.0210837
0.0210709
0.0210428
0.0211216
0.0210794
0.0211016
0.0210796
0.0211371
0.0210814
0.0210809
0.0210879
0.0210882
0.0211096
0.0210951
0.0210793
0.0211281
0.0210842
0.0210797
0.0210799
0.0210769
0.0211207
0.0211204
0.0210844
0.0210947
0.0211274
0.0211481
0.0211307
0.0211208
0.0210804
0.0211207
0.0211209
0.0211281
0.0211206
0.0210607
0.0211177
0.0211309
0.021076
0.0211175
0.0210701
0.0210608
0.0210823
0.0210551
0.0210804
0.021128
0.02108
0.0210801
0.0211215
0.0210731
0.0211316
0.0210731
0.0210696
0.0210603
0.0210798
0.021073
0.0211352
0.0211175
0.021128
0.0210797
0.0210838
0.0210832
0.0210715
0.0210795
0.0210752
0.0210793
0.0210997
0.021115
0.0210716
0.0211279
0.021071
0.021075
0.0211234
0.0210657
0.0210791
0.0210648
0.0210779
0.021081
0.0210709
0.0211093
0.0210771
0.021114
0.0210697
0.0210773
0.0210773
0.0210784
0.021078
0.0210779
0.021078
0.021079
0.021064
0.0210643
0.021064
0.0210639
0.0210561
0.0210561
0.02111
0.0210787
0.0210819
0.0210953
0.0210633
0.0210629
0.0210816
0.0211147
0.0210822
0.0210798
0.0211089
0.0210655
0.0211093
0.0210706
0.0210826
0.0211087
0.0211136
0.0211366
0.0211359
0.0210709
0.0211386
0.0210854
0.0211141
0.0211003
0.0210824
0.0210775
0.0210379
0.0210777
0.0211393
0.021114
0.0210819
0.0210823
0.0211152
0.0210776
0.0211011
0.021038
0.0211139
0.021077
0.0210736
0.0210832
0.0210635
0.0210735
0.0210556
0.0210844
0.0211459
0.0211495
0.0210583
0.0210917
0.0210823
0.0211093
0.0210653
0.0210761
0.0211139
0.0210758
0.0211063
0.0210805
0.0211062
0.0211145
0.0210303
0.0210598
0.021063
0.0210632
0.021079
0.0211055
0.021047
0.021074
0.0210943
0.0211052
0.0211083
0.0210584
0.021109
0.0210609
0.0211073
0.0211503
0.0211057
0.0211376
0.0210694
0.0211089
0.0210304
0.0211072
0.0210717
0.02111
0.0210726
0.0211075
0.021087
0.021154
0.021089
0.0211092
0.0210587
0.0211096
0.0210943
0.0210726
0.021079
0.0211074
0.0211056
0.0211014
0.0210696
0.0211058
0.0210823
0.0210869
0.0210558
0.0211056
0.0211019
0.0210928
0.0211008
0.0211067
0.0211006
0.0210666
0.0210826
0.0211015
0.0211093
0.0210798
0.0210796
0.0211061
0.0210559
0.0211761
0.0210873
0.0211365
0.0210924
0.021229
0.0212288
0.0212282
0.0212285
0.0212281
0.0212292
0.0212288
0.0210691
0.0210497
0.0210841
0.0210947
0.0211004
0.0211009
0.0210805
0.0211015
0.021102
0.0210495
0.0211009
0.021065
0.0211179
0.0210655
0.0210885
0.0210949
0.0211013
0.0210581
0.0210873
0.0210942
0.0210872
0.0210941
0.0211017
0.0211161
0.0210949
0.0210882
0.0210647
0.0210994
0.0211026
0.0210998
0.0210956
0.0210885
0.0210803
0.0210999
0.0210805
0.0210893
0.0210953
0.0210821
0.0210891
0.0211011
0.0210727
0.0210933
0.0210506
0.0211502
0.0210691
0.0210666
0.0210884
0.021093
0.0210751
0.0211749
0.0210884
0.0210935
0.0211534
0.021031
0.0210307
0.0210873
0.0211005
0.0210923
0.0210994
0.0210158
0.0210158
0.021082
0.021082
0.0210824
0.0211752
0.021102
0.0210713
0.0210953
0.0210961
0.0210954
0.0211767
0.0210732
0.021101
0.0210876
0.0210876
0.0210963
0.0210944
0.0210963
0.0210955
0.0211592
0.0211374
0.0210944
0.0210875
0.0210932
0.0210967
0.0210939
0.0210926
0.0210932
0.0211502
0.0210632
0.0211
0.0210754
0.0210727
0.0211508
0.021088
0.0210889
0.0210557
0.0210316
0.0210316
0.0210598
0.0211022
0.0210879
0.0211518
0.0210336
0.021018
0.0210181
0.0211778
0.0210443
0.0210399
0.0210889
0.0210614
0.0210842
0.0210791
0.0210724
0.02107
0.0210823
0.0211751
0.0210864
0.0210761
0.0210715
0.021165
0.0210431
0.0211552
0.0210718
0.0210788
0.0211079
0.0210848
0.0210827
0.0210549
0.0210814
0.021055
0.0210875
0.0210714
0.0210415
0.0210409
0.0211515
0.0210778
0.021181
0.0211792
0.0211832
0.0210733
0.0211763
0.0211853
0.0210966
0.0211822
0.0210507
0.0210507
0.0211806
0.0210927
0.0211589
0.0211816
0.0211608
0.021182
0.0211608
0.0210437
0.0211551
0.0211759
0.0211808
0.0210831
0.0210678
0.0211624
0.0210829
0.0211846
0.0210797
0.021092
0.0211827
0.0211638
0.0211842
0.0211778
0.0210893
0.021049
0.0210198
0.0210211
0.021078
0.02102
0.0210201
0.0210206
0.0210283
0.0211532
0.0210422
0.0210591
0.0210489
0.0210792
0.0210263
0.0210263
0.0210471
0.0211789
0.021093
0.0211777
0.0211568
0.021156
0.0210347
0.021035
0.0210357
0.0210355
0.0210348
0.0210215
0.0210355
0.0210262
0.0210196
0.0210345
0.0210344
0.0210192
0.0210212
0.0210259
0.0210362
SCALARS rr_(S) float
LOOKUP_TABLE default
0.96534
0.965228
0.965241
0.965228
0.965217
0.965241
0.965339
0.965237
0.965252
0.965231
0.965306
0.965237
0.965239
0.965232
0.965218
0.965241
0.965226
0.965234
0.965252
0.965243
0.965248
0.965188
0.965243
0.965243
0.965243
0.965232
0.965307
0.96524
0.965279
0.965201
0.96524
0.965278
0.965311
0.965206
0.965207
0.965206
0.965198
0.965208
0.96524
0.965311
0.965278
0.965198
0.965198
0.965239
0.965294
0.965279
0.965252
0.96525
0.965241
0.965282
0.96528
0.965271
0.965214
0.965272
0.965215
0.965302
0.965207
0.965271
0.965207
0.965241
0.965225
0.965223
0.965308
0.965225
0.965223
0.965231
0.965224
0.965233
0.965243
0.965227
0.965214
0.965214
0.965279
0.965229
0.965242
0.965311
0.965221
0.965231
0.965232
0.965266
0.96529
0.965214
0.965223
0.96529
0.96528
0.965298
0.96524
0.965231
0.965294
0.965192
0.965271
0.965193
0.965219
0.965232
0.965272
0.965279
0.965291
0.965231
0.965221
0.96524
0.965262
0.965279
0.965289
0.965232
0.965232
0.965231
0.965223
0.965241
0.96529
0.965223
0.965241
0.965293
0.96529
0.965233
0.965232
0.965273
0.965209
0.965293
0.96521
0.965272
0.965255
0.965218
0.965227
0.965227
0.965224
0.965217
0.96521
0.965231
0.965292
0.965271
0.965212
0.965227
0.965223
0.965227
0.965279
0.965206
0.965298
0.965239
0.965223
0.965206
0.965277
0.965236
0.965256
0.965231
0.965294
0.965231
0.965236
0.965243
0.965242
0.965263
0.965249
0.965227
0.965277
0.965239
0.965231
0.965227
0.965231
0.965278
0.965277
0.965236
0.96525
0.965276
0.965295
0.965279
0.965276
0.965231
0.965277
0.965278
0.965278
0.965276
0.965218
0.965271
0.96528
0.965231
0.965272
0.965224
0.965218
0.965237
0.965216
0.965234
0.96528
0.965231
0.965231
0.965277
0.96523
0.965281
0.965227
0.965226
0.96522
0.965231
0.96523
0.965291
0.965271
0.965277
0.965227
0.965234
0.965233
0.965223
0.965227
0.965231
0.965227
0.965252
0.965266
0.965223
0.96528
0.965223
0.965232
0.965278
0.965223
0.965227
0.965224
0.965234
0.965232
0.965223
0.965262
0.965233
0.965266
0.965226
0.965223
0.965223
0.965223
0.965223
0.965223
0.965224
0.965232
0.965217
0.965217
0.965217
0.965217
0.965216
0.965215
0.965262
0.96523
0.965225
0.965251
0.965218
0.965218
0.965225
0.965265
0.965225
0.965231
0.965262
0.965222
0.965263
0.965224
0.965224
0.965261
0.965265
0.96529
0.965283
0.965223
0.965295
0.965239
0.965266
0.965252
0.965225
0.965223
0.965199
0.965223
0.965298
0.965265
0.965224
0.965237
0.965266
0.965223
0.965256
0.965199
0.965265
0.965223
0.965228
0.965233
0.965218
0.965231
0.965216
0.965238
0.965295
0.965298
0.965219
0.965246
0.965237
0.965265
0.965222
0.965231
0.965265
0.965232
0.965261
0.965236
0.965262
0.965265
0.965195
0.965217
0.965216
0.965216
0.965231
0.965262
0.965206
0.965228
0.965249
0.965261
0.965264
0.965218
0.965262
0.96522
0.965264
0.965294
0.965261
0.965294
0.965225
0.965262
0.965194
0.965263
0.965226
0.965263
0.965227
0.965263
0.965242
0.965314
0.96524
0.965263
0.965216
0.965262
0.965248
0.96523
0.965227
0.965263
0.965262
0.965256
0.965227
0.965261
0.965238
0.965241
0.965217
0.965262
0.965256
0.965248
0.965256
0.965262
0.965256
0.965224
0.965237
0.965256
0.965262
0.965236
0.965235
0.965261
0.965217
0.96531
0.965243
0.96529
0.965248
0.965328
0.965328
0.965326
0.965326
0.965324
0.965332
0.965333
0.965225
0.96521
0.965235
0.965249
0.965252
0.965256
0.965236
0.965256
0.965256
0.965211
0.965256
0.965224
0.965271
0.965218
0.965241
0.965249
0.965256
0.96522
0.965243
0.965249
0.965243
0.965248
0.965254
0.965267
0.965249
0.965244
0.965223
0.965252
0.965254
0.965253
0.965249
0.965243
0.965235
0.965252
0.965236
0.965242
0.965249
0.965237
0.965242
0.965254
0.965226
0.965249
0.96521
0.965294
0.965225
0.965224
0.965243
0.965249
0.96523
0.965311
0.965241
0.965249
0.965313
0.965198
0.965198
0.965241
0.965253
0.965248
0.965252
0.96519
0.965189
0.965234
0.965237
0.965237
0.965316
0.965254
0.965226
0.965251
0.965252
0.965249
0.965309
0.965228
0.965253
0.965243
0.965243
0.965251
0.965249
0.965251
0.965251
0.96531
0.965294
0.965248
0.965243
0.965248
0.965252
0.965249
0.965248
0.965248
0.965295
0.96522
0.965252
0.96523
0.965228
0.965296
0.965241
0.965241
0.965217
0.965192
0.965191
0.965216
0.965254
0.965243
0.965296
0.965193
0.965187
0.965187
0.965311
0.965208
0.9652
0.965244
0.96522
0.965236
0.96523
0.965225
0.965227
0.965238
0.96531
0.965241
0.965232
0.965226
0.965312
0.965203
0.965318
0.965224
0.965234
0.965262
0.965238
0.965238
0.965212
0.965235
0.965212
0.965242
0.965228
0.965203
0.965204
0.965298
0.965229
0.965341
0.965343
0.965339
0.965229
0.965316
0.965338
0.965252
0.965339
0.965214
0.965214
0.96534
0.965244
0.965313
0.965344
0.965311
0.965344
0.965311
0.965207
0.9653
0.965315
0.965338
0.965239
0.965224
0.965313
0.965238
0.965336
0.965234
0.965245
0.965344
0.965312
0.965343
0.96531
0.965243
0.965211
0.965186
0.965186
0.965232
0.965186
0.965186
0.965187
0.965192
0.965298
0.965203
0.965218
0.965212
0.965233
0.965191
0.965191
0.965212
0.965309
0.965246
0.965318
0.965321
0.965313
0.965193
0.965193
0.965195
0.965195
0.965193
0.965189
0.965198
0.965192
0.96519
0.965196
0.965196
0.96519
0.965188
0.965191
0.965197
SCALARS rr_(P) float
LOOKUP_TABLE default
0.0241831
0.0241237
0.0241291
0.0241247
0.0241086
0.0241292
0.0241833
0.0241256
0.0241341
0.024124
0.024179
0.0241256
0.0241268
0.0241232
0.024114
0.0241282
0.024121
0.0241262
0.0241367
0.0241306
0.0241314
0.0240875
0.0241313
0.0241304
0.0241306
0.0241252
0.0241709
0.0241284
0.0241529
0.0240998
0.0241271
0.0241527
0.0241718
0.0241035
0.0241018
0.0241035
0.0240991
0.0241026
0.0241271
0.0241716
0.024153
0.0240989
0.0240989
0.024127
0.024166
0.024152
0.0241355
0.0241331
0.0241289
0.0241565
0.0241544
0.0241469
0.0241093
0.0241468
0.0241098
0.0241644
0.0241016
0.0241467
0.0241017
0.0241302
0.0241212
0.0241163
0.0241672
0.0241166
0.0241162
0.0241211
0.024121
0.0241252
0.0241309
0.0241235
0.0241095
0.0241095
0.024153
0.0241192
0.0241289
0.0241743
0.0241131
0.0241212
0.0241252
0.0241455
0.0241577
0.0241067
0.0241187
0.0241594
0.0241512
0.0241654
0.0241284
0.0241202
0.0241659
0.0240904
0.0241468
0.0240905
0.0241127
0.0241218
0.0241463
0.0241549
0.0241577
0.0241241
0.0241132
0.0241274
0.0241401
0.0241498
0.0241595
0.0241257
0.0241246
0.0241245
0.024118
0.0241279
0.0241596
0.0241227
0.0241302
0.0241641
0.0241615
0.024126
0.0241248
0.0241466
0.0241017
0.024158
0.0241019
0.0241464
0.024138
0.0241147
0.0241237
0.02412
0.0241223
0.0241135
0.0241038
0.0241241
0.0241577
0.0241463
0.0241094
0.0241241
0.024119
0.0241239
0.0241497
0.0241016
0.024161
0.0241265
0.0241186
0.0241016
0.0241491
0.0241239
0.0241371
0.0241239
0.0241582
0.024125
0.0241247
0.024129
0.0241292
0.0241419
0.0241332
0.0241237
0.0241528
0.0241268
0.024124
0.024124
0.0241224
0.0241485
0.0241483
0.0241268
0.024133
0.0241524
0.0241646
0.0241543
0.0241485
0.0241244
0.0241485
0.0241487
0.0241528
0.0241484
0.0241125
0.0241467
0.0241544
0.0241218
0.0241466
0.0241182
0.0241126
0.0241256
0.0241092
0.0241244
0.0241528
0.0241242
0.0241242
0.024149
0.0241201
0.0241548
0.02412
0.0241179
0.0241123
0.0241241
0.02412
0.0241571
0.0241466
0.0241527
0.024124
0.0241264
0.0241261
0.024119
0.0241238
0.0241213
0.0241237
0.024136
0.0241451
0.0241191
0.0241527
0.0241187
0.0241212
0.0241501
0.0241155
0.0241236
0.024115
0.0241229
0.0241248
0.0241186
0.0241417
0.0241224
0.0241445
0.024118
0.0241224
0.0241224
0.0241231
0.0241228
0.0241228
0.0241229
0.0241236
0.0241145
0.0241146
0.0241144
0.0241144
0.0241097
0.0241097
0.0241421
0.0241234
0.0241252
0.0241334
0.024114
0.0241138
0.024125
0.0241449
0.0241254
0.0241241
0.0241415
0.0241154
0.0241417
0.0241185
0.0241256
0.0241413
0.0241442
0.0241579
0.0241574
0.0241187
0.0241591
0.0241275
0.0241446
0.0241363
0.0241255
0.0241225
0.0240986
0.0241227
0.0241595
0.0241445
0.0241252
0.0241256
0.0241452
0.0241226
0.0241369
0.0240987
0.0241444
0.0241223
0.0241203
0.0241261
0.0241142
0.0241203
0.0241094
0.0241269
0.0241633
0.0241655
0.0241111
0.0241313
0.0241256
0.0241417
0.0241153
0.0241219
0.0241444
0.0241217
0.02414
0.0241245
0.0241399
0.0241448
0.024094
0.0241119
0.0241138
0.024114
0.0241236
0.0241395
0.0241041
0.0241206
0.0241328
0.0241393
0.0241412
0.0241111
0.0241415
0.0241126
0.0241406
0.0241659
0.0241396
0.0241585
0.0241178
0.0241415
0.024094
0.0241405
0.0241191
0.0241421
0.0241197
0.0241407
0.0241284
0.0241682
0.0241296
0.0241416
0.0241113
0.0241419
0.0241328
0.0241198
0.0241235
0.0241406
0.0241396
0.024137
0.0241179
0.0241396
0.0241256
0.0241284
0.0241096
0.0241396
0.0241373
0.0241319
0.0241367
0.0241402
0.0241366
0.0241161
0.0241258
0.0241371
0.0241417
0.0241241
0.024124
0.0241398
0.0241096
0.024181
0.0241286
0.0241578
0.0241317
0.024212
0.024212
0.0242116
0.0242117
0.0242115
0.0242122
0.024212
0.0241176
0.0241058
0.0241266
0.024133
0.0241364
0.0241367
0.0241245
0.0241371
0.0241374
0.0241056
0.0241367
0.0241151
0.0241468
0.0241154
0.0241293
0.0241332
0.024137
0.024111
0.0241286
0.0241328
0.0241285
0.0241327
0.0241372
0.0241457
0.0241331
0.0241292
0.024115
0.0241358
0.0241377
0.0241361
0.0241335
0.0241293
0.0241244
0.0241361
0.0241245
0.0241298
0.0241334
0.0241255
0.0241296
0.0241368
0.0241198
0.0241322
0.0241063
0.0241658
0.0241176
0.0241161
0.0241292
0.0241321
0.0241212
0.0241803
0.0241292
0.0241323
0.0241679
0.0240944
0.0240942
0.0241286
0.0241365
0.0241316
0.0241358
0.0240851
0.0240851
0.0241254
0.0241254
0.0241257
0.0241806
0.0241373
0.0241189
0.0241334
0.0241339
0.0241334
0.0241814
0.0241201
0.0241368
0.0241288
0.0241288
0.024134
0.0241328
0.024134
0.0241335
0.0241712
0.0241584
0.0241329
0.0241287
0.0241322
0.0241342
0.0241325
0.0241318
0.0241322
0.0241658
0.024114
0.0241361
0.0241214
0.0241198
0.0241662
0.024129
0.0241295
0.0241095
0.0240947
0.0240947
0.0241119
0.0241375
0.0241289
0.0241668
0.0240959
0.0240865
0.0240866
0.024182
0.0241026
0.0240998
0.0241295
0.024113
0.0241267
0.0241236
0.0241196
0.0241181
0.0241256
0.0241805
0.0241281
0.0241219
0.024119
0.0241746
0.0241018
0.024169
0.0241192
0.0241235
0.0241409
0.0241271
0.0241259
0.0241089
0.0241251
0.024109
0.0241287
0.024119
0.0241007
0.0241004
0.0241666
0.0241228
0.0241842
0.0241832
0.0241855
0.0241202
0.0241812
0.0241867
0.0241342
0.0241849
0.0241065
0.0241065
0.024184
0.0241318
0.0241711
0.0241846
0.0241722
0.0241848
0.0241722
0.0241022
0.0241688
0.024181
0.0241841
0.0241261
0.0241168
0.0241731
0.024126
0.0241863
0.024124
0.0241314
0.0241852
0.0241739
0.0241861
0.024182
0.0241298
0.0241054
0.0240876
0.0240883
0.024123
0.0240877
0.0240877
0.024088
0.0240927
0.0241676
0.0241012
0.0241115
0.0241053
0.0241237
0.0240915
0.0240915
0.0241043
0.0241826
0.024132
0.024182
0.0241699
0.0241694
0.0240966
0.0240967
0.0240972
0.024097
0.0240966
0.0240886
0.0240971
0.0240914
0.0240874
0.0240964
0.0240964
0.0240872
0.0240884
0.0240912
0.0240975
SCALARS rr_(T) float
LOOKUP_TABLE default
0.160037
0.160063
0.160061
0.160063
0.160074
0.160061
0.160037
0.160063
0.160059
0.160063
0.160037
0.160063
0.160062
0.160064
0.16007
0.160061
0.160065
0.160062
0.160057
0.16006
0.16006
0.160089
0.16006
0.16006
0.16006
0.160063
0.160041
0.160062
0.160049
0.16008
0.160062
0.160049
0.160041
0.160078
0.160079
0.160078
0.160081
0.160078
0.160062
0.160041
0.160049
0.160081
0.160081
0.160062
0.160043
0.16005
0.160058
0.160059
0.160061
0.160048
0.160049
0.160052
0.160073
0.160053
0.160073
0.160045
0.160079
0.160053
0.160079
0.16006
0.160065
0.160069
0.160044
0.160068
0.160069
0.160066
0.160065
0.160063
0.16006
0.160064
0.160073
0.160073
0.160049
0.160067
0.160061
0.16004
0.160071
0.160066
0.160063
0.160053
0.160048
0.160075
0.160067
0.160047
0.160051
0.160044
0.160061
0.160067
0.160043
0.160087
0.160052
0.160087
0.160071
0.160066
0.160053
0.160048
0.160048
0.160063
0.160071
0.160062
0.160056
0.160051
0.160046
0.160062
0.160063
0.160063
0.160068
0.160062
0.160046
0.160064
0.16006
0.160044
0.160045
0.160062
0.160063
0.160053
0.160079
0.160048
0.160079
0.160053
0.160057
0.160069
0.160063
0.160066
0.160064
0.16007
0.160078
0.160063
0.160048
0.160053
0.160073
0.160063
0.160067
0.160063
0.160051
0.160079
0.160046
0.160063
0.160067
0.160079
0.160052
0.160064
0.160057
0.160064
0.160048
0.160063
0.160064
0.160061
0.160061
0.160055
0.160059
0.160063
0.160049
0.160062
0.160064
0.160063
0.160065
0.160052
0.160052
0.160062
0.160059
0.16005
0.160044
0.160049
0.160052
0.160063
0.160052
0.160052
0.160049
0.160052
0.160071
0.160053
0.160049
0.160065
0.160053
0.160067
0.160071
0.160063
0.160074
0.160064
0.16005
0.160063
0.160063
0.160052
0.160067
0.160048
0.160066
0.160068
0.160072
0.160063
0.160067
0.160048
0.160053
0.160049
0.160063
0.160062
0.160062
0.160067
0.160063
0.160066
0.160063
0.160058
0.160053
0.160067
0.16005
0.160067
0.160066
0.160051
0.160069
0.160063
0.16007
0.160065
0.160063
0.160067
0.160055
0.160065
0.160053
0.160068
0.160064
0.160064
0.160063
0.160064
0.160064
0.160064
0.160064
0.16007
0.16007
0.16007
0.16007
0.160073
0.160073
0.160055
0.160064
0.160062
0.160059
0.16007
0.16007
0.160062
0.160053
0.160062
0.160063
0.160055
0.160069
0.160055
0.160067
0.160062
0.160055
0.160054
0.160047
0.160047
0.160067
0.160047
0.160062
0.160053
0.160057
0.160062
0.160064
0.160081
0.160064
0.160047
0.160053
0.160062
0.160063
0.160053
0.160064
0.160057
0.160081
0.160053
0.160064
0.160066
0.160062
0.16007
0.160067
0.160074
0.160062
0.160045
0.160044
0.160073
0.16006
0.160063
0.160055
0.16007
0.160065
0.160053
0.160066
0.160056
0.160064
0.160056
0.160053
0.160085
0.160072
0.16007
0.16007
0.160064
0.160056
0.160077
0.160066
0.160059
0.160056
0.160055
0.160072
0.160055
0.160071
0.160056
0.160043
0.160056
0.160047
0.160068
0.160055
0.160085
0.160056
0.160067
0.160055
0.160066
0.160055
0.160061
0.160043
0.160061
0.160055
0.160072
0.160055
0.160059
0.160067
0.160063
0.160056
0.160056
0.160057
0.160068
0.160056
0.160063
0.160062
0.160074
0.160056
0.160057
0.16006
0.160057
0.160056
0.160057
0.160069
0.160063
0.160057
0.160055
0.160064
0.160064
0.160056
0.160073
0.160036
0.160062
0.160047
0.16006
0.160019
0.160019
0.160019
0.160019
0.160019
0.160019
0.160019
0.160068
0.160076
0.160062
0.160059
0.160057
0.160057
0.160064
0.160057
0.160057
0.160076
0.160057
0.16007
0.160052
0.160069
0.160061
0.160059
0.160057
0.160073
0.160062
0.160059
0.160062
0.160059
0.160057
0.160053
0.160059
0.160061
0.16007
0.160058
0.160057
0.160057
0.160059
0.160061
0.160064
0.160057
0.160064
0.160061
0.160059
0.160063
0.160061
0.160057
0.160066
0.16006
0.160076
0.160043
0.160068
0.160069
0.160061
0.16006
0.160066
0.160036
0.160061
0.16006
0.160044
0.160084
0.160085
0.160061
0.160057
0.16006
0.160058
0.160091
0.160091
0.160063
0.160063
0.160063
0.160036
0.160057
0.160067
0.160059
0.160059
0.160059
0.160035
0.160066
0.160057
0.160061
0.160061
0.160059
0.160059
0.160059
0.160059
0.160041
0.160047
0.160059
0.160062
0.16006
0.160058
0.160059
0.16006
0.16006
0.160043
0.16007
0.160057
0.160066
0.160067
0.160043
0.160061
0.160061
0.160074
0.160084
0.160084
0.160072
0.160057
0.160061
0.160043
0.160083
0.16009
0.16009
0.160035
0.160078
0.16008
0.160061
0.160071
0.160062
0.160064
0.160066
0.160068
0.160063
0.160036
0.160062
0.160065
0.160067
0.160039
0.160079
0.160043
0.160066
0.160064
0.160055
0.160062
0.160063
0.160074
0.160063
0.160074
0.160061
0.160067
0.16008
0.16008
0.160043
0.160064
0.160036
0.160037
0.160035
0.160066
0.160036
0.160035
0.160059
0.160036
0.160076
0.160076
0.160037
0.160059
0.160042
0.160036
0.160041
0.160036
0.160041
0.160079
0.160042
0.160036
0.160036
0.160063
0.160068
0.16004
0.160063
0.160035
0.160064
0.16006
0.160036
0.16004
0.160035
0.160035
0.160061
0.160076
0.160089
0.160089
0.160065
0.160089
0.160089
0.160089
0.160085
0.160042
0.160079
0.160072
0.160077
0.160064
0.160086
0.160086
0.160077
0.160035
0.160059
0.160036
0.160043
0.160043
0.160082
0.160082
0.160082
0.160082
0.160082
0.160089
0.160082
0.160087
0.16009
0.160083
0.160083
0.16009
0.160089
0.160087
0.160082
SCALARS rr_tsim float
LOOKUP_TABLE default
340
340
340
340
340
340
340
340
340
340
340
340
340
340
340
340
340
340
340
340
340
340
340
340
340
340
340
340
340
340
340
340
340
340
340
340
340
340
340
340
340
340
340
340
340
340
340
340
340
340
340
340
340
340
340
340
340
340
340
340
340
340
340
340
340
340
340
340
340
340
340
340
340
340
340
340
340
340
340
340
340
340
340
340
340
340
340
340
340
340
340
340
340
340
340
340
340
340
340
340
340
340
340
340
340
340
340
340
340
340
340
340
340
340
340
340
340
340
340
340
340
340
340
340
340
340
340
340
340
340
340
340
340
340
340
340
340
340
340
340
340
340
340
340
340
340
340
340
340
340
340
340
340
340
340
340
340
340
340
340
340
340
340
340
340
340
340
340
340
340
340
340
340
340
340
340
340
340
340
340
340
340
340
340
340
340
340
340
340
340
340
340
340
340
340
340
340
340
340
340
340
340
340
340
340
340
340
340
340
340
340
340
340
340
340
340
340
340
340
340
340
340
340
340
340
340
340
340
340
340
340
340
340
340
340
340
340
340
340
340
340
340
340
340
340
340
340
340
340
340
340
340
340
340
340
340
340
340
340
340
340
340
340
340
340
340
340
340
340
340
340
340
340
340
340
340
340
340
340
340
340
340
340
340
340
340
340
340
340
340
340
340
340
340
340
340
340
340
340
340
340
340
340
340
340
340
340
340
340
340
340
340
340
340
340
340
340
340
340
340
340
340
340
340
340
340
340
340
340
340
340
340
340
340
340
340
340
340
340
340
340
340
340
340
340
340
340
340
340
340
340
340
340
340
340
340
340
340
340
340
340
340
340
340
340
340
340
340
340
340
340
340
340
340
340
340
340
340
340
340
340
340
340
340
340
340
340
340
340
340
340
340
340
340
340
340
340
340
340
340
340
340
340
340
340
340
340
340
340
340
340
340
340
340
340
340
340
340
340
340
340
340
340
340
340
340
340
340
340
340
340
340
340
340
340
340
340
340
340
340
340
340
340
340
340
340
340
340
340
340
340
340
340
340
340
340
340
340
340
340
340
340
340
340
340
340
340
340
340
340
340
340
340
340
340
340
340
340
340
340
340
340
340
340
340
340
340
340
340
340
340
340
340
340
340
340
340
340
340
340
340
340
340
340
340
340
340
340
340
340
340
340
340
340
340
340
340
340
340
340
340
340
340
340
340
340
340
340
340
340
340
340
340
340
340
340
340
340
340
340
340
340
340
340
340
340
340
340
340
340
340
340
340
340
340
340
340
340
340
340
340
340
340
SCALARS rr_Vext float
LOOKUP_TABLE default
0.181359
0.449122
0.356048
0.468109
0.250492
0.377827
0.179274
0.465088
0.395106
0.504565
0.165389
0.466508
0.409825
0.435013
0.516134
0.424864
0.369043
0.414183
0.365531
0.360527
0.405108
0.0765106
0.415069
0.383014
0.347105
0.403471
0.15501
0.352834
0.267413
0.339246
0.361969
0.276485
0.17152
0.252901
0.249247
0.253452
0.330126
0.24949
0.361539
0.192836
0.224721
0.29105
0.291059
0.397271
0.216885
0.24412
0.344612
0.350183
0.330079
0.303761
0.312853
0.245236
0.401517
0.315206
0.369414
0.157753
0.266178
0.317516
0.26615
0.393184
0.470928
0.464872
0.153275
0.327641
0.445313
0.417373
0.455654
0.391904
0.357985
0.515556
0.435554
0.43079
0.277654
0.338744
0.353971
0.176426
0.372675
0.413476
0.395169
0.271132
0.24049
0.283506
0.527531
0.24025
0.32776
0.119291
0.407579
0.344609
0.229706
0.0374828
0.273092
0.0407607
0.316357
0.299312
0.258659
0.232983
0.220908
0.44293
0.37291
0.351855
0.293535
0.277769
0.230478
0.418575
0.426137
0.383831
0.340626
0.340847
0.244628
0.512518
0.326026
0.164038
0.220056
0.457878
0.429717
0.304481
0.30863
0.183508
0.320035
0.303365
0.266985
0.502648
0.511809
0.442039
0.484524
0.384951
0.220815
0.478209
0.200078
0.262278
0.227503
0.456394
0.449023
0.448248
0.288937
0.187537
0.190638
0.327439
0.404468
0.187459
0.241541
0.387289
0.287969
0.472757
0.223275
0.385189
0.349731
0.336127
0.214789
0.269545
0.304298
0.440625
0.248026
0.39741
0.461989
0.469242
0.307855
0.249007
0.247656
0.401135
0.333852
0.246117
0.160076
0.239704
0.240466
0.430954
0.252348
0.2551
0.274619
0.245938
0.386343
0.258183
0.226058
0.297713
0.272811
0.340305
0.382117
0.361132
0.313976
0.360844
0.266566
0.418245
0.448851
0.241614
0.442299
0.239439
0.436794
0.402736
0.378965
0.379414
0.446226
0.200774
0.266927
0.246016
0.447408
0.439019
0.407198
0.447893
0.452951
0.381864
0.466568
0.307715
0.274109
0.51273
0.285547
0.465952
0.36996
0.226654
0.286341
0.461723
0.389034
0.350307
0.450055
0.445254
0.278858
0.28422
0.267542
0.395452
0.433418
0.49809
0.478087
0.520369
0.471557
0.515285
0.432054
0.4572
0.46065
0.434353
0.456356
0.422918
0.416634
0.28241
0.389409
0.454293
0.312119
0.470271
0.432155
0.492658
0.288245
0.468275
0.448676
0.284499
0.406912
0.282468
0.455237
0.411288
0.296254
0.277677
0.235552
0.271097
0.455772
0.197501
0.347019
0.276527
0.313902
0.46867
0.455547
0.147788
0.457103
0.23643
0.261764
0.466269
0.379026
0.264584
0.52218
0.29123
0.147779
0.267723
0.406397
0.50892
0.382688
0.457753
0.425154
0.226614
0.216731
0.175978
0.201428
0.308134
0.229075
0.37198
0.227524
0.406391
0.287622
0.268101
0.323952
0.293521
0.39852
0.281486
0.287595
0.13637
0.303571
0.437809
0.438057
0.391523
0.281115
0.192358
0.545876
0.360487
0.298317
0.27429
0.284975
0.282728
0.358842
0.27809
0.192059
0.274791
0.183495
0.351066
0.279576
0.127091
0.263721
0.321336
0.279314
0.443668
0.290709
0.381466
0.138314
0.305661
0.287013
0.261623
0.269317
0.321991
0.308721
0.321045
0.266563
0.271163
0.293858
0.4036
0.276094
0.399021
0.358786
0.290796
0.286473
0.290122
0.323371
0.289911
0.270116
0.308528
0.333028
0.387865
0.290168
0.286352
0.425141
0.419247
0.276211
0.290834
0.117368
0.342062
0.227677
0.319679
0.126304
0.131123
0.117233
0.119129
0.126411
0.133076
0.137186
0.365817
0.275202
0.269662
0.305533
0.296206
0.292407
0.314708
0.285992
0.292386
0.310822
0.291313
0.368787
0.261063
0.378831
0.289102
0.277577
0.291595
0.322764
0.328992
0.304695
0.351048
0.326029
0.300388
0.213974
0.303858
0.298861
0.328279
0.305307
0.288517
0.275034
0.304062
0.31909
0.436159
0.283305
0.423999
0.438657
0.298863
0.422861
0.322474
0.255677
0.356792
0.307316
0.229504
0.18527
0.353347
0.377137
0.313431
0.259541
0.317011
0.138204
0.309862
0.289511
0.140569
0.0597485
0.0653752
0.26865
0.283293
0.331355
0.316585
0.0311308
0.0325286
0.318178
0.32154
0.30424
0.103723
0.264725
0.315902
0.31564
0.272074
0.24028
0.107863
0.464464
0.284944
0.352158
0.35767
0.255161
0.323443
0.249474
0.275478
0.129739
0.19938
0.323803
0.327748
0.280323
0.293561
0.303656
0.320503
0.306407
0.14396
0.275777
0.301351
0.290883
0.437485
0.143857
0.23373
0.240571
0.234522
0.155624
0.155628
0.267698
0.208506
0.301871
0.153855
0.185525
0.0614166
0.0614141
0.112309
0.199632
0.134971
0.256999
0.284536
0.297805
0.336998
0.307416
0.28523
0.222215
0.127171
0.278048
0.290579
0.282436
0.144129
0.147644
0.104628
0.281946
0.285969
0.224179
0.258248
0.238711
0.22379
0.292909
0.223756
0.257202
0.251385
0.158046
0.19524
0.165307
0.310643
0.112706
0.118918
0.115939
0.294531
0.10769
0.104732
0.200915
0.0979318
0.243153
0.243508
0.100659
0.255443
0.113722
0.110988
0.127154
0.105858
0.105723
0.174204
0.12624
0.112774
0.106277
0.235809
0.272657
0.118743
0.260315
0.0960764
0.264786
0.208171
0.100551
0.0864348
0.0948693
0.12646
0.22555
0.192179
0.0824423
0.0914071
0.253855
0.0775858
0.0775825
0.0878715
0.0979618
0.0995846
0.127333
0.207531
0.193793
0.253766
0.0775241
0.0775208
0.229251
0.0843463
0.178713
0.0765188
0.0783411
0.103271
0.198595
0.205595
0.218906
0.200659
0.198579
0.0438923
0.32038
0.0557536
0.0543417
0.259007
0.257238
0.0563344
0.0390571
0.0548043
0.238559
SCALARS rr_Vli float
LOOKUP_TABLE default
0.396486
0.903296
0.721402
0.942901
0.493002
0.765663
0.392034
0.937669
0.806266
1.01511
0.359835
0.940541
0.8277
0.874152
1.02412
0.859727
0.739393
0.835914
0.748795
0.732052
0.823479
0.146196
0.843736
0.777625
0.704886
0.813138
0.333348
0.714255
0.560607
0.6598
0.731224
0.579527
0.369271
0.494392
0.485904
0.495506
0.641456
0.486895
0.73048
0.415064
0.47121
0.565329
0.565389
0.802513
0.463322
0.511146
0.70466
0.71357
0.66868
0.640141
0.657313
0.509708
0.79128
0.654953
0.728498
0.336093
0.518807
0.659755
0.51879
0.798045
0.943862
0.925028
0.327839
0.652217
0.886008
0.836194
0.912998
0.789772
0.727288
1.0367
0.858505
0.849151
0.582209
0.676851
0.716967
0.381182
0.738158
0.828438
0.79642
0.562479
0.507622
0.556447
1.0535
0.508331
0.685383
0.254579
0.825074
0.689486
0.49066
0.0719434
0.567527
0.0782461
0.626349
0.600258
0.537107
0.489901
0.466216
0.891212
0.738706
0.711147
0.604216
0.579672
0.487749
0.844109
0.858079
0.772712
0.679545
0.689378
0.517758
1.02965
0.661676
0.349478
0.467058
0.923819
0.865434
0.63249
0.601612
0.38741
0.624001
0.62999
0.547958
0.99831
1.02947
0.884276
0.972855
0.763251
0.431749
0.962234
0.422252
0.544645
0.448452
0.918478
0.897108
0.901821
0.602898
0.365537
0.404181
0.66093
0.807731
0.365414
0.503537
0.778932
0.59024
0.951058
0.471531
0.776063
0.704321
0.680953
0.435246
0.556267
0.620246
0.886305
0.519981
0.802495
0.92944
0.94426
0.617852
0.518656
0.515712
0.810195
0.680205
0.515659
0.341238
0.503637
0.500927
0.867513
0.525644
0.531442
0.575695
0.512235
0.764766
0.536473
0.475014
0.597024
0.566758
0.679099
0.756451
0.728157
0.61851
0.726371
0.558759
0.841634
0.903302
0.503621
0.884781
0.503408
0.873805
0.803282
0.749914
0.763388
0.89254
0.423343
0.554569
0.51569
0.900208
0.886299
0.82171
0.894903
0.911194
0.765269
0.938415
0.629673
0.568291
1.02453
0.59847
0.93055
0.741276
0.47324
0.569197
0.928572
0.772726
0.703604
0.906434
0.889136
0.575328
0.57047
0.554199
0.788781
0.870376
1.00028
0.961014
1.04558
0.94745
1.03539
0.86871
0.907696
0.914768
0.862343
0.905931
0.833929
0.821515
0.583003
0.782793
0.915906
0.636237
0.93312
0.857208
0.993022
0.597475
0.944367
0.902753
0.586735
0.8088
0.582773
0.908854
0.829724
0.610879
0.57498
0.497305
0.572061
0.9101
0.417614
0.70148
0.572845
0.642711
0.945255
0.914966
0.286927
0.918293
0.500196
0.542258
0.940099
0.764199
0.548648
1.04887
0.596675
0.286927
0.554499
0.815976
1.01856
0.772232
0.908465
0.850822
0.4466
0.437752
0.374434
0.429883
0.608683
0.465559
0.749991
0.469384
0.807668
0.576816
0.55534
0.649546
0.603994
0.802276
0.579178
0.596019
0.263019
0.600442
0.868509
0.869129
0.787207
0.578062
0.376387
1.09285
0.734299
0.613258
0.565366
0.562957
0.583123
0.710459
0.572676
0.410196
0.565166
0.387691
0.700125
0.576598
0.245149
0.543076
0.642113
0.576619
0.887239
0.598797
0.772172
0.296222
0.619802
0.592061
0.51704
0.555816
0.655878
0.617314
0.645549
0.54901
0.557647
0.602196
0.804985
0.56787
0.804505
0.726242
0.573154
0.589127
0.594775
0.657842
0.593794
0.555993
0.631806
0.662546
0.782179
0.59465
0.590809
0.855286
0.843307
0.568299
0.573277
0.256088
0.6926
0.480627
0.650102
0.287606
0.29855
0.266803
0.271172
0.287682
0.303056
0.312311
0.729343
0.539723
0.544565
0.622603
0.6065
0.598932
0.633518
0.58613
0.599483
0.609469
0.596711
0.732657
0.542545
0.753106
0.586003
0.565698
0.597464
0.637466
0.666112
0.620591
0.710715
0.663996
0.615741
0.444039
0.619296
0.605571
0.652003
0.624636
0.591867
0.562871
0.620017
0.64672
0.877916
0.579857
0.853547
0.889737
0.609276
0.852427
0.653928
0.52384
0.713542
0.625424
0.450401
0.395665
0.704467
0.750312
0.6352
0.528048
0.635252
0.301236
0.62802
0.589264
0.300912
0.115298
0.126126
0.544003
0.580096
0.673735
0.647661
0.0592774
0.0619388
0.641395
0.648086
0.613481
0.226113
0.542803
0.631011
0.643416
0.555013
0.489877
0.235469
0.929282
0.583732
0.713231
0.724382
0.520582
0.658847
0.508989
0.561646
0.279101
0.421176
0.659631
0.663707
0.570432
0.599123
0.618255
0.651892
0.623522
0.307427
0.547096
0.616831
0.583014
0.8749
0.307367
0.473533
0.487753
0.46224
0.300515
0.300535
0.529553
0.427592
0.611535
0.329005
0.358876
0.117176
0.117176
0.245398
0.389619
0.262494
0.52105
0.563539
0.60141
0.677645
0.614656
0.569069
0.448036
0.27725
0.562545
0.582799
0.564247
0.311556
0.287924
0.224284
0.563451
0.574849
0.461942
0.521746
0.481453
0.440836
0.590093
0.440798
0.520821
0.502146
0.307811
0.380027
0.353393
0.623981
0.246785
0.25998
0.254334
0.589282
0.234981
0.230138
0.410009
0.214644
0.47712
0.477842
0.220334
0.51961
0.244574
0.243122
0.273901
0.231958
0.227739
0.339829
0.270697
0.245996
0.232677
0.475748
0.543001
0.256116
0.525107
0.211011
0.532688
0.423218
0.220454
0.186663
0.208255
0.276319
0.457466
0.376607
0.157552
0.174883
0.509986
0.148307
0.148306
0.168048
0.188628
0.213205
0.248113
0.410273
0.379761
0.51034
0.149004
0.149003
0.448511
0.184461
0.363609
0.167149
0.16815
0.221553
0.384549
0.398195
0.424214
0.388778
0.384539
0.0840102
0.620731
0.107163
0.103829
0.501444
0.497965
0.107596
0.0747329
0.105301
0.462542
SCALARS rr_S_ext' float
LOOKUP_TABLE default
-0.000276539
-0.000631589
-0.000504304
-0.000659252
-0.000344922
-0.000535243
-0.000273432
-0.000655581
-0.000563514
-0.000709768
-0.000251009
-0.000657589
-0.000578667
-0.000611229
-0.000716344
-0.000601024
-0.000517044
-0.000584419
-0.000523287
-0.000511717
-0.000575609
-0.000102366
-0.000589767
-0.000543575
-0.000492726
-0.000568519
-0.000232619
-0.000499321
-0.000391508
-0.000461768
-0.000511214
-0.000404722
-0.000257678
-0.000345957
-0.000340044
-0.000346736
-0.000448941
-0.000340728
-0.000510692
-0.000289635
-0.000329073
-0.000395665
-0.000395706
-0.000561054
-0.000323382
-0.00035698
-0.000492471
-0.000498749
-0.00046745
-0.000446981
-0.000459013
-0.000356053
-0.000553585
-0.000457517
-0.000509653
-0.000234602
-0.000363073
-0.000460871
-0.00036306
-0.000557853
-0.000660018
-0.000646983
-0.000228813
-0.000456168
-0.000619693
-0.000584738
-0.000638441
-0.000552183
-0.000508379
-0.000724872
-0.000600614
-0.000594069
-0.000406591
-0.000473348
-0.000501209
-0.00026596
-0.000516349
-0.000579313
-0.000556829
-0.000392937
-0.000354433
-0.00038934
-0.000736765
-0.000354902
-0.000478684
-0.000177693
-0.000576792
-0.000482166
-0.000342464
-5.03684e-05
-0.000396444
-5.47807e-05
-0.000438142
-0.00041974
-0.000375204
-0.000342098
-0.000325524
-0.000623134
-0.000516731
-0.000497171
-0.000422191
-0.000404878
-0.00034053
-0.000590161
-0.000599955
-0.000540271
-0.000475252
-0.000481943
-0.00036148
-0.000719954
-0.000462529
-0.000243943
-0.000326055
-0.000645882
-0.000605094
-0.00044183
-0.000421021
-0.000270498
-0.000436686
-0.000440087
-0.000382914
-0.000698272
-0.000719809
-0.000618387
-0.000680255
-0.000533885
-0.000302122
-0.000672792
-0.000294827
-0.000380469
-0.000313738
-0.000642193
-0.000627381
-0.000630551
-0.000421103
-0.00025581
-0.000282171
-0.000462081
-0.000564883
-0.000255724
-0.000351712
-0.000544637
-0.000412477
-0.000664982
-0.000329229
-0.000542601
-0.000492449
-0.00047603
-0.000304262
-0.000388658
-0.000433515
-0.000619706
-0.000363135
-0.000561048
-0.000649865
-0.000660221
-0.000432033
-0.000362282
-0.000360228
-0.000566426
-0.000475429
-0.000360123
-0.000238188
-0.000351698
-0.000349896
-0.000606556
-0.000367162
-0.000371211
-0.000402045
-0.000357797
-0.00053497
-0.000374753
-0.000331709
-0.000417479
-0.000395911
-0.000474936
-0.000529152
-0.000509097
-0.00043272
-0.000507872
-0.000390219
-0.000588467
-0.000631584
-0.000351772
-0.000618742
-0.000351531
-0.000611064
-0.000561794
-0.000524586
-0.00053376
-0.00062417
-0.000295598
-0.000387395
-0.00036014
-0.000629422
-0.00061964
-0.00057449
-0.000625838
-0.000637107
-0.000535138
-0.000656143
-0.000440055
-0.000397005
-0.000716493
-0.000417954
-0.000650776
-0.000518363
-0.000330534
-0.000398119
-0.000649263
-0.000540488
-0.000491985
-0.00063376
-0.000621815
-0.000401978
-0.000398901
-0.00038717
-0.000551652
-0.000608595
-0.000699429
-0.000671953
-0.000731094
-0.000662479
-0.000723964
-0.000607414
-0.000634898
-0.00063984
-0.000603175
-0.000633665
-0.000583414
-0.000574729
-0.000407334
-0.000547342
-0.000640358
-0.000444692
-0.000652692
-0.000599599
-0.000694279
-0.000417395
-0.000660252
-0.000631204
-0.000409954
-0.000565708
-0.000407181
-0.000635609
-0.000580094
-0.000426825
-0.000401692
-0.000347227
-0.000399427
-0.000636477
-0.000291572
-0.00049041
-0.000400196
-0.000449158
-0.000660871
-0.000639771
-0.000200818
-0.000642093
-0.000349226
-0.000378827
-0.000657272
-0.000534297
-0.00038328
-0.000733402
-0.000416979
-0.000200818
-0.000387382
-0.00057056
-0.000712282
-0.000539899
-0.000635442
-0.000594987
-0.000312445
-0.000306043
-0.000261374
-0.000300053
-0.000425812
-0.000325426
-0.000524363
-0.000327957
-0.000564917
-0.000403348
-0.000387967
-0.000454208
-0.000422041
-0.000560943
-0.000404702
-0.00041638
-0.000184119
-0.000420031
-0.000607502
-0.000607932
-0.000550426
-0.000403929
-0.000263375
-0.000764228
-0.000513242
-0.000428526
-0.00039503
-0.000393824
-0.000407429
-0.000496979
-0.000400149
-0.000286304
-0.000394915
-0.000270687
-0.00048965
-0.000402871
-0.000171608
-0.000379466
-0.000449052
-0.000402873
-0.000620464
-0.000418397
-0.000539811
-0.000206739
-0.000433269
-0.000413672
-0.000361696
-0.000388342
-0.000458429
-0.000431702
-0.000451374
-0.00038361
-0.000389663
-0.000420834
-0.000562985
-0.000396804
-0.000562478
-0.000507702
-0.000400982
-0.00041166
-0.000415644
-0.000459819
-0.00041497
-0.000388497
-0.000441537
-0.0004634
-0.000546865
-0.000415561
-0.000412795
-0.000598019
-0.000589646
-0.0003971
-0.000401068
-0.000178623
-0.00048418
-0.000335583
-0.000454414
-0.00020033
-0.000207953
-0.000185843
-0.000188884
-0.000200386
-0.000211091
-0.00021754
-0.000510088
-0.000377644
-0.000380719
-0.000435166
-0.000423851
-0.00041856
-0.000442951
-0.000409606
-0.000418932
-0.000426448
-0.000417007
-0.000512458
-0.000378992
-0.000526748
-0.000409647
-0.000395392
-0.00041753
-0.00044595
-0.000465663
-0.000433766
-0.000496845
-0.000464105
-0.000430297
-0.000310194
-0.000432853
-0.000423331
-0.000456048
-0.000436536
-0.000413603
-0.000393368
-0.00043335
-0.000452094
-0.000613833
-0.000405237
-0.000596792
-0.000621961
-0.000425846
-0.000595986
-0.000457125
-0.000366078
-0.000498994
-0.000437155
-0.00031514
-0.000276162
-0.000492691
-0.000524786
-0.000444041
-0.000369095
-0.000444219
-0.000210121
-0.00043902
-0.000411879
-0.000210015
-8.071e-05
-8.82902e-05
-0.000380298
-0.000405399
-0.000470936
-0.000452629
-4.15098e-05
-4.33736e-05
-0.000448439
-0.00045312
-0.00042892
-0.00015772
-0.000379322
-0.000441293
-0.00044971
-0.000387914
-0.000342393
-0.000164238
-0.000649857
-0.000407935
-0.000498599
-0.000506394
-0.000363847
-0.000460504
-0.000355744
-0.000392556
-0.000194762
-0.000294068
-0.000461051
-0.00046398
-0.000398719
-0.000418737
-0.000432139
-0.000455663
-0.000435826
-0.000214576
-0.000382682
-0.000431075
-0.000407688
-0.000611836
-0.000214531
-0.000331029
-0.000340962
-0.000323386
-0.000210359
-0.000210373
-0.00037044
-0.000298809
-0.000427503
-0.000229627
-0.000251199
-8.20498e-05
-8.20494e-05
-0.000171159
-0.000272654
-0.000183709
-0.00036424
-0.000394202
-0.000420462
-0.000473816
-0.000429843
-0.000397988
-0.000313248
-0.000193389
-0.000393271
-0.000407531
-0.0003946
-0.000217377
-0.000201492
-0.000156528
-0.00039404
-0.000401945
-0.000322768
-0.000364763
-0.000336609
-0.000308415
-0.000412579
-0.000308388
-0.000364092
-0.000351173
-0.000215416
-0.00026596
-0.000246651
-0.000436307
-0.000172118
-0.00018133
-0.000177372
-0.000412092
-0.000163901
-0.000160489
-0.000286563
-0.000149697
-0.000333838
-0.000334343
-0.000153671
-0.000363197
-0.00017067
-0.000169562
-0.000191125
-0.000161774
-0.000158914
-0.000237814
-0.000188915
-0.000171586
-0.000162279
-0.000332618
-0.000379777
-0.000178708
-0.000367129
-0.000147153
-0.000372457
-0.000295827
-0.000153748
-0.000130241
-0.000145234
-0.000192725
-0.000319788
-0.000263519
-0.000110317
-0.000122448
-0.000356597
-0.000103843
-0.000103842
-0.000117664
-0.000132049
-0.0001488
-0.000173636
-0.000287005
-0.000265725
-0.000356835
-0.000104316
-0.000104315
-0.000313846
-0.000128653
-0.000254155
-0.000116584
-0.000117348
-0.000154618
-0.000269162
-0.000278712
-0.000296919
-0.000272118
-0.000269155
-5.8821e-05
-0.00043447
-7.50232e-05
-7.27006e-05
-0.000350984
-0.000348549
-7.53394e-05
-5.23257e-05
-7.37202e-05
-0.000323741
SCALARS rr_P_ext' float
LOOKUP_TABLE default
0.000181995
0.000420336
0.000335305
0.000438661
0.000230184
0.000355868
0.000179943
0.000436166
0.000374326
0.000472346
0.000165306
0.000437501
0.000384907
0.000406831
0.000477565
0.000399679
0.000344273
0.000388769
0.00034743
0.000340139
0.000382554
6.85646e-05
0.000391963
0.00036132
0.000327511
0.000378261
0.000153441
0.00033203
0.000259141
0.00030862
0.00034003
0.000267894
0.000169944
0.000231071
0.0002272
0.000231589
0.000300082
0.000227626
0.000339675
0.000191026
0.000217809
0.000264483
0.000264508
0.000373182
0.000213505
0.000236326
0.000327047
0.000331366
0.000310808
0.000295652
0.000303734
0.000235946
0.000369376
0.000303194
0.000340034
0.000154947
0.000242592
0.000305417
0.000242581
0.000370825
0.000439452
0.000431168
0.000151042
0.000303988
0.000412987
0.000389348
0.0004251
0.000367396
0.000337896
0.00048243
0.000400747
0.000396378
0.000269117
0.000315286
0.000333261
0.00017532
0.000344311
0.000385732
0.000370483
0.000260453
0.000234386
0.000259916
0.000490777
0.00023462
0.000316951
0.000117333
0.000383546
0.000321105
0.000226107
3.37183e-05
0.000262717
3.66715e-05
0.000292176
0.000279448
0.000248667
0.000226345
0.000215273
0.000414686
0.00034456
0.000330668
0.000280132
0.000268155
0.000225113
0.000392629
0.000399221
0.000359517
0.000316618
0.000320511
0.000238959
0.000479214
0.000307464
0.000161117
0.000215459
0.000429673
0.000402632
0.00029281
0.000281307
0.000178875
0.000291764
0.000291666
0.000254168
0.000465461
0.000479043
0.000411832
0.000452823
0.000355959
0.000201787
0.00044773
0.000194973
0.000252155
0.000209333
0.00042736
0.000417891
0.000419628
0.000278906
0.000170923
0.000186487
0.000307382
0.000376283
0.000170863
0.000232976
0.000362466
0.000273839
0.000442545
0.000217703
0.000361031
0.000327679
0.000316511
0.000202297
0.000257794
0.000288015
0.000412422
0.00024036
0.000373196
0.000432482
0.000439361
0.000287605
0.000240004
0.000238652
0.000376763
0.000315878
0.000238386
0.000157303
0.000232722
0.000231796
0.00040363
0.000243236
0.000245914
0.000266117
0.000237035
0.000356755
0.000248347
0.000219492
0.000277945
0.000262374
0.000316396
0.000352872
0.000338704
0.000288744
0.000337961
0.000258293
0.000391611
0.000420299
0.000233019
0.000412069
0.000232591
0.000406954
0.000374283
0.000349845
0.00035521
0.00041569
0.000195506
0.000256729
0.000238383
0.000418872
0.000412183
0.000382171
0.00041686
0.000423996
0.000356308
0.000436675
0.00029221
0.000263171
0.000477238
0.000276655
0.000433497
0.000345147
0.000218902
0.000265352
0.000432102
0.000360279
0.000327482
0.000421704
0.000414209
0.000266639
0.000265546
0.000256681
0.000367524
0.000405114
0.000465576
0.000447232
0.000486619
0.000440952
0.000481873
0.000404261
0.000423237
0.000426519
0.00040209
0.000422421
0.000389251
0.000383458
0.000270171
0.000364291
0.000426041
0.000295438
0.00043513
0.000399752
0.000461929
0.000276695
0.00043926
0.000420058
0.000271943
0.000377057
0.00027009
0.000423411
0.000385915
0.000283141
0.000266322
0.000229614
0.000264151
0.000423979
0.00019277
0.000326165
0.000265314
0.000298233
0.000439667
0.000425857
0.000134245
0.000427391
0.00023087
0.000251148
0.000437291
0.000355472
0.000254067
0.000488177
0.000276843
0.000134244
0.000256826
0.000379804
0.000474335
0.000359161
0.00042362
0.000396229
0.000208476
0.000203566
0.00017266
0.000198128
0.000284035
0.000216286
0.000348863
0.000217542
0.000376536
0.000268535
0.00025721
0.000302403
0.000280043
0.000373274
0.000268541
0.000276029
0.000123182
0.000280134
0.000405015
0.000405295
0.000366334
0.00026805
0.000175893
0.000508909
0.000341012
0.000284383
0.000262063
0.000262696
0.000270266
0.000331412
0.00026549
0.000189031
0.000262062
0.000178982
0.000326225
0.000267244
0.000114811
0.000251768
0.000299101
0.000267212
0.000413234
0.00027759
0.000358957
0.000136446
0.000288046
0.000274402
0.000241254
0.000257584
0.000304593
0.00028752
0.000300408
0.000254513
0.000258579
0.000279394
0.000375078
0.000263314
0.000374221
0.000337607
0.000267548
0.000273177
0.000275934
0.000305568
0.000275519
0.000257776
0.000293166
0.000308831
0.000363824
0.000275892
0.000273813
0.00039798
0.000392414
0.000263499
0.000267602
0.000117588
0.000321953
0.000221918
0.00030199
0.000131079
0.000136069
0.000121609
0.000123596
0.000131127
0.000138118
0.000142344
0.000339853
0.000252134
0.000253244
0.000289122
0.000281428
0.000277901
0.000294758
0.000271936
0.000278113
0.000284725
0.00027687
0.000341586
0.000251151
0.000351083
0.000272354
0.000262692
0.000277206
0.000297475
0.000309641
0.00028821
0.000330379
0.000308371
0.000285666
0.000205599
0.000287578
0.000281465
0.000303996
0.000289881
0.000274556
0.000261204
0.00028789
0.000300579
0.000408476
0.000269082
0.00039713
0.000413476
0.000282914
0.000396523
0.000303903
0.000243048
0.000332331
0.000290492
0.000210386
0.000182337
0.000328263
0.00034974
0.000295228
0.000245274
0.000295776
0.000138343
0.000291887
0.000273691
0.000138617
5.39943e-05
5.90671e-05
0.000252874
0.000269174
0.000312976
0.00030057
2.7815e-05
2.90639e-05
0.000298358
0.000301477
0.00028536
0.00010384
0.000251815
0.000293947
0.000298771
0.000257691
0.000227469
0.000108111
0.000432782
0.000270842
0.000331529
0.000336713
0.000241699
0.000305971
0.000236316
0.000260794
0.000128463
0.000194446
0.000306332
0.000308515
0.000264954
0.000278151
0.000287141
0.000302812
0.000289612
0.000141675
0.000255128
0.000286237
0.000271445
0.000407485
0.000141635
0.000220099
0.000226682
0.000215773
0.000140717
0.000140726
0.000247056
0.000198362
0.000284247
0.000151585
0.000168001
5.4967e-05
5.49665e-05
0.000112652
0.000182147
0.000122782
0.000242158
0.000262863
0.000279679
0.000315343
0.000286285
0.000265142
0.000208406
0.000127323
0.000261529
0.000271316
0.00026284
0.000143285
0.000134621
0.000103294
0.000262456
0.00026752
0.000214133
0.000242616
0.000223939
0.0002058
0.00027452
0.00020578
0.000242098
0.000233917
0.000143948
0.000177735
0.000162829
0.000290419
0.000113249
0.000119336
0.000116676
0.000274439
0.000107896
0.000105545
0.000190354
9.8483e-05
0.000222872
0.000223207
0.000101116
0.000241362
0.000112577
0.00011156
0.000126042
0.000106432
0.000104799
0.000158882
0.000124663
0.00011296
0.000106777
0.000221275
0.000253067
0.000117832
0.000244238
9.67819e-05
0.000247869
0.000196605
0.000101143
8.58603e-05
9.55261e-05
0.000126846
0.000212594
0.000175955
7.38888e-05
8.20029e-05
0.000237357
6.95507e-05
6.95497e-05
7.88032e-05
8.83636e-05
9.8212e-05
0.000116022
0.000191426
0.000177429
0.000237483
6.98205e-05
6.98197e-05
0.000209602
8.46659e-05
0.000168893
7.6735e-05
7.74252e-05
0.000102023
0.000179992
0.000186372
0.000198533
0.000181955
0.000179985
3.93902e-05
0.000290513
5.02145e-05
4.86952e-05
0.000234711
0.000233087
5.0465e-05
3.50419e-05
4.93444e-05
0.000216454
SCALARS rr_S' float
LOOKUP_TABLE default
5.88744e-05
0.000135713
0.000108279
0.000141634
7.42827e-05
0.00011492
5.82108e-05
0.000140834
0.0001209
0.000152507
5.34673e-05
0.000141265
0.000124288
0.000131351
0.000154141
0.000129064
0.000111145
0.000125532
0.000112223
0.000109845
0.000123547
2.21109e-05
0.000126584
0.000116685
0.000105767
0.000122135
4.96176e-05
0.000107219
8.37494e-05
9.95649e-05
0.000109798
8.65777e-05
5.49558e-05
7.45558e-05
7.33029e-05
7.47231e-05
9.68082e-05
7.34426e-05
0.000109683
6.1773e-05
7.03918e-05
8.53231e-05
8.53314e-05
0.000120502
6.90293e-05
7.63738e-05
0.000105635
0.000107022
0.000100368
9.556e-05
9.81655e-05
7.62378e-05
0.000119204
9.79666e-05
0.000109737
5.00944e-05
7.82687e-05
9.86845e-05
7.82655e-05
0.000119754
0.000141873
0.000139177
4.88366e-05
9.81258e-05
0.000133308
0.000125698
0.000137239
0.000118627
0.000109122
0.00015576
0.000129328
0.000127918
8.69737e-05
0.000101782
0.000107618
5.66987e-05
0.000111129
0.000124531
0.000119623
8.41522e-05
7.5761e-05
8.38724e-05
0.00015843
7.58406e-05
0.000102427
3.79351e-05
0.000123854
0.000103663
7.31035e-05
1.08746e-05
8.48878e-05
1.1827e-05
9.43006e-05
9.02196e-05
8.03468e-05
7.31549e-05
6.95831e-05
0.000133891
0.00011121
0.000106776
9.04951e-05
8.66539e-05
7.27676e-05
0.000126776
0.0001289
0.00011608
0.000102207
0.000103497
7.72436e-05
0.000154717
9.92916e-05
5.20885e-05
6.96514e-05
0.000138738
0.000130002
9.46105e-05
9.07598e-05
5.78188e-05
9.41342e-05
9.42402e-05
8.21018e-05
0.000150238
0.000154667
0.000132951
0.000146194
0.000114889
6.51083e-05
0.00014456
6.30215e-05
8.14736e-05
6.75553e-05
0.000137982
0.000134902
0.000135485
9.01277e-05
5.51454e-05
6.0285e-05
9.92534e-05
0.000121469
5.51264e-05
7.52837e-05
0.00011703
8.84534e-05
0.000142885
7.03697e-05
0.00011657
0.000105801
0.00010221
6.53272e-05
8.32837e-05
9.30206e-05
0.000133157
7.76795e-05
0.000120506
0.000139636
0.000141857
9.28548e-05
7.75537e-05
7.71162e-05
0.000121658
0.000102019
7.70405e-05
5.08563e-05
7.52145e-05
7.49011e-05
0.000130322
7.85979e-05
7.94636e-05
8.60036e-05
7.65939e-05
0.000115143
8.02442e-05
7.09391e-05
8.97342e-05
8.47766e-05
0.000102136
0.00011389
0.000109364
9.31822e-05
0.00010912
8.3475e-05
0.000126441
0.000135703
7.52975e-05
0.000133029
7.51736e-05
0.000131377
0.000120822
0.000112912
0.000114688
0.000134197
6.31924e-05
8.29524e-05
7.70402e-05
0.000135241
0.000133093
0.000123401
0.00013457
0.000136895
0.000115032
0.000140988
9.43841e-05
8.50297e-05
0.000154062
8.94093e-05
0.000139939
0.000111428
7.07382e-05
8.56512e-05
0.000139511
0.00011629
0.000105732
0.00013616
0.000133712
8.61407e-05
8.57333e-05
8.29312e-05
0.00011864
0.000130792
0.000150312
0.000144393
0.000157108
0.000142364
0.000155576
0.000130523
0.000136608
0.000137668
0.000129782
0.000136344
0.000125619
0.00012375
8.72827e-05
0.000117617
0.00013756
9.54187e-05
0.000140445
0.000129025
0.000149147
8.93986e-05
0.00014183
0.000135625
8.78537e-05
0.000121707
8.72559e-05
0.000136682
0.000124606
9.14708e-05
8.60452e-05
7.42189e-05
8.53806e-05
0.000136866
6.23123e-05
0.000105322
8.57206e-05
9.63304e-05
0.000141961
0.000137489
4.33076e-05
0.000137985
7.46293e-05
8.11434e-05
0.000141193
0.000114778
8.20884e-05
0.00015761
8.9423e-05
4.33074e-05
8.29776e-05
0.00012262
0.000153131
0.000115971
0.00013673
0.000127916
6.7279e-05
6.57321e-05
5.58189e-05
6.4057e-05
9.16683e-05
6.98495e-05
0.000112645
7.02794e-05
0.000121538
8.66965e-05
8.31019e-05
9.76305e-05
9.04661e-05
0.000120522
8.67503e-05
8.9183e-05
3.97324e-05
9.04115e-05
0.000130724
0.000130815
0.000118277
8.65905e-05
5.67536e-05
0.000164294
0.000110136
9.18662e-05
8.4661e-05
8.47816e-05
8.7312e-05
0.000106964
8.57666e-05
6.11162e-05
8.46562e-05
5.78541e-05
0.000105307
8.63354e-05
3.70323e-05
8.13336e-05
9.65559e-05
8.63269e-05
0.000133403
8.96755e-05
0.000115914
4.41189e-05
9.3019e-05
8.86483e-05
7.78617e-05
8.32157e-05
9.83734e-05
9.28195e-05
9.69912e-05
8.22204e-05
8.35313e-05
9.02476e-05
0.000121078
8.50608e-05
0.000120832
0.00010902
8.6343e-05
8.82471e-05
8.91307e-05
9.86855e-05
8.89952e-05
8.32733e-05
9.46946e-05
9.9687e-05
0.000117476
8.91167e-05
8.84582e-05
0.000128497
0.0001267
8.51212e-05
8.63607e-05
3.80357e-05
0.000103966
7.1731e-05
9.75291e-05
4.24389e-05
4.40544e-05
3.93725e-05
4.00159e-05
4.24536e-05
4.47183e-05
4.60864e-05
0.000109706
8.13582e-05
8.17724e-05
9.33774e-05
9.09025e-05
8.97647e-05
9.51711e-05
8.78388e-05
8.98349e-05
9.1874e-05
8.94313e-05
0.000110257
8.11504e-05
0.000113322
8.79511e-05
8.48419e-05
8.95407e-05
9.60055e-05
9.99903e-05
9.30822e-05
0.000106687
9.95932e-05
9.2274e-05
6.64297e-05
9.28793e-05
9.0893e-05
9.81228e-05
9.36311e-05
8.86867e-05
8.43694e-05
9.29813e-05
9.70659e-05
0.000131888
8.6914e-05
0.000128225
0.000133526
9.13734e-05
0.000128033
9.81402e-05
7.85069e-05
0.000107286
9.38175e-05
6.78882e-05
5.89519e-05
0.000105965
0.000112892
9.53378e-05
7.92137e-05
9.54892e-05
4.47485e-05
9.42587e-05
8.83919e-05
4.48203e-05
1.74162e-05
1.90524e-05
8.16586e-05
8.69446e-05
0.000101077
9.70838e-05
8.96916e-06
9.37186e-06
9.63356e-05
9.73433e-05
9.21401e-05
3.35886e-05
8.134e-05
9.48914e-05
9.64952e-05
8.3229e-05
7.34665e-05
3.49706e-05
0.000139715
8.74843e-05
0.000107059
0.000108733
7.8064e-05
9.88187e-05
7.63253e-05
8.42298e-05
4.15412e-05
6.28526e-05
9.89351e-05
9.96268e-05
8.55697e-05
8.98378e-05
9.27365e-05
9.77953e-05
9.35332e-05
4.58055e-05
8.2347e-05
9.24551e-05
8.76347e-05
0.000131548
4.57931e-05
7.10756e-05
7.32027e-05
6.96341e-05
4.53893e-05
4.53922e-05
7.97356e-05
6.40742e-05
9.17906e-05
4.90108e-05
5.41921e-05
1.77253e-05
1.77252e-05
3.64403e-05
5.87689e-05
3.9611e-05
7.82006e-05
8.48406e-05
9.03086e-05
0.000101814
9.24199e-05
8.55906e-05
6.72925e-05
4.1184e-05
8.44523e-05
8.75946e-05
8.48498e-05
4.6339e-05
4.34335e-05
3.34003e-05
8.47263e-05
8.63735e-05
6.91761e-05
7.8342e-05
7.23084e-05
6.64138e-05
8.86382e-05
6.64076e-05
7.81792e-05
7.55131e-05
4.64409e-05
5.7341e-05
5.26462e-05
9.37642e-05
3.66367e-05
3.86047e-05
3.77466e-05
8.85979e-05
3.49009e-05
3.41469e-05
6.14811e-05
3.18604e-05
7.19178e-05
7.20262e-05
3.27114e-05
7.79492e-05
3.6404e-05
3.60909e-05
4.07594e-05
3.4432e-05
3.38899e-05
5.12619e-05
4.03088e-05
3.65387e-05
3.45428e-05
7.14488e-05
8.16892e-05
3.81056e-05
7.88632e-05
3.13113e-05
8.00304e-05
6.34938e-05
3.27215e-05
2.7767e-05
3.0905e-05
4.10317e-05
6.8654e-05
5.67763e-05
2.38278e-05
2.64451e-05
7.66336e-05
2.24289e-05
2.24287e-05
2.5413e-05
2.85005e-05
3.17551e-05
3.7432e-05
6.17809e-05
5.72517e-05
7.66761e-05
2.25188e-05
2.25186e-05
6.76311e-05
2.73878e-05
5.45453e-05
2.48221e-05
2.50363e-05
3.29894e-05
5.80612e-05
6.01198e-05
6.40437e-05
5.86955e-05
5.80594e-05
1.27031e-05
9.37148e-05
1.61953e-05
1.57033e-05
7.57124e-05
7.51881e-05
1.62739e-05
1.13007e-05
1.59146e-05
6.98254e-05
SCALARS rr_P' float
LOOKUP_TABLE default
3.56701e-05
7.55406e-05
6.07199e-05
7.89567e-05
4.04549e-05
6.44552e-05
3.52778e-05
7.85812e-05
6.82876e-05
8.49145e-05
3.22358e-05
7.88226e-05
6.94717e-05
7.30477e-05
8.46373e-05
7.22814e-05
6.16266e-05
7.01177e-05
6.36343e-05
6.17326e-05
6.95093e-05
1.16904e-05
7.12198e-05
6.55692e-05
5.94482e-05
6.81227e-05
2.95604e-05
6.00718e-05
4.86173e-05
5.35827e-05
6.1387e-05
5.02505e-05
3.27783e-05
4.03298e-05
3.95418e-05
4.04234e-05
5.20499e-05
3.96594e-05
6.13338e-05
3.68354e-05
4.08722e-05
4.58585e-05
4.58663e-05
6.73699e-05
4.08476e-05
4.42802e-05
5.97884e-05
6.03608e-05
5.62746e-05
5.57688e-05
5.71137e-05
4.38692e-05
6.50056e-05
5.63562e-05
5.98827e-05
2.9561e-05
4.22121e-05
5.67696e-05
4.22134e-05
6.72741e-05
7.86932e-05
7.66382e-05
2.89346e-05
5.40545e-05
7.33981e-05
6.96926e-05
7.61017e-05
6.6161e-05
6.13602e-05
8.66823e-05
7.0539e-05
6.97729e-05
5.05007e-05
5.62804e-05
6.033e-05
3.39406e-05
6.09099e-05
6.90499e-05
6.6723e-05
4.83319e-05
4.42863e-05
4.55514e-05
8.75581e-05
4.4441e-05
5.93057e-05
2.24244e-05
6.93917e-05
5.73978e-05
4.32539e-05
5.77545e-06
4.88397e-05
6.28221e-06
5.16651e-05
5.0072e-05
4.61899e-05
4.25974e-05
4.06683e-05
7.45574e-05
6.09611e-05
5.97276e-05
5.15647e-05
5.0069e-05
4.26488e-05
7.07561e-05
7.18336e-05
6.4674e-05
5.6427e-05
5.79345e-05
4.52776e-05
8.60226e-05
5.57743e-05
3.07378e-05
4.09443e-05
7.74709e-05
7.24599e-05
5.44101e-05
4.89538e-05
3.38036e-05
5.07868e-05
5.41813e-05
4.66439e-05
8.25729e-05
8.60997e-05
7.36028e-05
8.12376e-05
6.30367e-05
3.52258e-05
8.05017e-05
3.68329e-05
4.68398e-05
3.68491e-05
7.68511e-05
7.45881e-05
7.5438e-05
5.20692e-05
2.97421e-05
3.53986e-05
5.54462e-05
6.71307e-05
2.97341e-05
4.34528e-05
6.51406e-05
5.01846e-05
7.95517e-05
4.11563e-05
6.49997e-05
5.89689e-05
5.73092e-05
3.66384e-05
4.75798e-05
5.24795e-05
7.4127e-05
4.50952e-05
6.73466e-05
7.77467e-05
7.90029e-05
5.15734e-05
4.47237e-05
4.44601e-05
6.80057e-05
5.7532e-05
4.46961e-05
3.00286e-05
4.37618e-05
4.31996e-05
7.26037e-05
4.53286e-05
4.58336e-05
4.99241e-05
4.41679e-05
6.30721e-05
4.61619e-05
4.12782e-05
4.98003e-05
4.87595e-05
5.6404e-05
6.23898e-05
6.10287e-05
5.07942e-05
6.07907e-05
4.84513e-05
7.04163e-05
7.55818e-05
4.34549e-05
7.36438e-05
4.37666e-05
7.27329e-05
6.66892e-05
6.18294e-05
6.3862e-05
7.42826e-05
3.68995e-05
4.77135e-05
4.47172e-05
7.53087e-05
7.43632e-05
6.89185e-05
7.44084e-05
7.62157e-05
6.37973e-05
7.84798e-05
5.34601e-05
4.8804e-05
8.51932e-05
5.18892e-05
7.73407e-05
6.17871e-05
4.08939e-05
4.71158e-05
7.76495e-05
6.39192e-05
5.87717e-05
7.58957e-05
7.38929e-05
4.91983e-05
4.76221e-05
4.7558e-05
6.54873e-05
7.26901e-05
8.35416e-05
8.03281e-05
8.7366e-05
7.91624e-05
8.65154e-05
7.26297e-05
7.50526e-05
7.56536e-05
7.1303e-05
7.49003e-05
6.85435e-05
6.75214e-05
4.98806e-05
6.54337e-05
7.6757e-05
5.38362e-05
7.71168e-05
7.08229e-05
8.32029e-05
5.13009e-05
7.91623e-05
7.55214e-05
5.01565e-05
6.69438e-05
4.98348e-05
7.55159e-05
6.95729e-05
5.22131e-05
4.93254e-05
4.33941e-05
4.98953e-05
7.56325e-05
3.64897e-05
5.89235e-05
4.91607e-05
5.45951e-05
7.92434e-05
7.64251e-05
2.32655e-05
7.67177e-05
4.3726e-05
4.65354e-05
7.87882e-05
6.40467e-05
4.71249e-05
8.76157e-05
5.07132e-05
2.32668e-05
4.75782e-05
6.81367e-05
8.48153e-05
6.47674e-05
7.50924e-05
7.08418e-05
3.66897e-05
3.67444e-05
3.28957e-05
3.78674e-05
5.01083e-05
3.92908e-05
6.28557e-05
4.01363e-05
6.68431e-05
4.81167e-05
4.76546e-05
5.41743e-05
5.15314e-05
6.7148e-05
4.94104e-05
5.11678e-05
2.12044e-05
4.94855e-05
7.17627e-05
7.18231e-05
6.58148e-05
4.92888e-05
3.07287e-05
9.10256e-05
6.20944e-05
5.22766e-05
4.83063e-05
4.63456e-05
4.98507e-05
5.86027e-05
4.88919e-05
3.61569e-05
4.81973e-05
3.38515e-05
5.81178e-05
4.92913e-05
1.97656e-05
4.63642e-05
5.33951e-05
4.9335e-05
7.38279e-05
5.1132e-05
6.49396e-05
2.61737e-05
5.22045e-05
5.06225e-05
4.25807e-05
4.75428e-05
5.54626e-05
5.13627e-05
5.39747e-05
4.68767e-05
4.75518e-05
5.11926e-05
6.68291e-05
4.84296e-05
6.7424e-05
6.10752e-05
4.70915e-05
5.02358e-05
5.05794e-05
5.55659e-05
5.0455e-05
4.74481e-05
5.36762e-05
5.4882e-05
6.55652e-05
5.05524e-05
5.05236e-05
7.15422e-05
7.05313e-05
4.84804e-05
4.7105e-05
2.29989e-05
5.82617e-05
4.19348e-05
5.48953e-05
2.68123e-05
2.78302e-05
2.48608e-05
2.52722e-05
2.68057e-05
2.82551e-05
2.91094e-05
6.05287e-05
4.41519e-05
4.57029e-05
5.26671e-05
5.15207e-05
5.08937e-05
5.30211e-05
4.98309e-05
5.09846e-05
4.98495e-05
5.07064e-05
6.06154e-05
4.6691e-05
6.23427e-05
4.93414e-05
4.7858e-05
5.07834e-05
5.24693e-05
5.60316e-05
5.24745e-05
5.97796e-05
5.6141e-05
5.23562e-05
3.8165e-05
5.23952e-05
5.09734e-05
5.39296e-05
5.30242e-05
5.03604e-05
4.77938e-05
5.24788e-05
5.44488e-05
7.34691e-05
4.92406e-05
7.14377e-05
7.49593e-05
5.15594e-05
7.14298e-05
5.50814e-05
4.45232e-05
5.9377e-05
5.28457e-05
3.68664e-05
3.48736e-05
5.84633e-05
6.21531e-05
5.34752e-05
4.46068e-05
5.29545e-05
2.70291e-05
5.28746e-05
4.97959e-05
2.65774e-05
9.29952e-06
1.01707e-05
4.5765e-05
4.92806e-05
5.68827e-05
5.49753e-05
4.72564e-06
4.93781e-06
5.37457e-05
5.43e-05
5.142e-05
2.0291e-05
4.61666e-05
5.24543e-05
5.44438e-05
4.69935e-05
4.14576e-05
2.11567e-05
7.73595e-05
4.96084e-05
6.00109e-05
6.09483e-05
4.40832e-05
5.57143e-05
4.31023e-05
4.7532e-05
2.47575e-05
3.67695e-05
5.57843e-05
5.58378e-05
4.81948e-05
5.07488e-05
5.22607e-05
5.50549e-05
5.26811e-05
2.70952e-05
4.52066e-05
5.23831e-05
4.86089e-05
7.28031e-05
2.71023e-05
3.98543e-05
4.10777e-05
3.79787e-05
2.42527e-05
2.42552e-05
4.36479e-05
3.63723e-05
5.14654e-05
2.90315e-05
2.90065e-05
9.35744e-06
9.35769e-06
2.20663e-05
3.17376e-05
2.13165e-05
4.38812e-05
4.64979e-05
5.04748e-05
5.66597e-05
5.11381e-05
4.72562e-05
3.75495e-05
2.48818e-05
4.7289e-05
4.86197e-05
4.69104e-05
2.77531e-05
2.34373e-05
1.98333e-05
4.68576e-05
4.80512e-05
3.94593e-05
4.3805e-05
4.03617e-05
3.6202e-05
4.94202e-05
3.62008e-05
4.38148e-05
4.17427e-05
2.50279e-05
3.08838e-05
3.11757e-05
5.21238e-05
2.22325e-05
2.33891e-05
2.29496e-05
4.90554e-05
2.11042e-05
2.07969e-05
3.47273e-05
1.93534e-05
3.90487e-05
3.91097e-05
1.98438e-05
4.38865e-05
2.16892e-05
2.19102e-05
2.43242e-05
2.09099e-05
2.02249e-05
2.76703e-05
2.3944e-05
2.20874e-05
2.09591e-05
3.98944e-05
4.50203e-05
2.27706e-05
4.40274e-05
1.90601e-05
4.45578e-05
3.57281e-05
1.98828e-05
1.66138e-05
1.88028e-05
2.48468e-05
3.85394e-05
3.07875e-05
1.26e-05
1.39999e-05
4.26068e-05
1.18632e-05
1.18634e-05
1.34479e-05
1.51851e-05
1.88328e-05
2.01823e-05
3.37976e-05
3.10445e-05
4.26753e-05
1.19762e-05
1.19765e-05
3.66124e-05
1.65997e-05
3.07166e-05
1.50265e-05
1.48861e-05
1.96057e-05
3.11092e-05
3.22196e-05
3.43418e-05
3.14679e-05
3.11099e-05
6.72768e-06
5.02417e-05
8.61346e-06
8.30206e-06
4.05599e-05
4.02747e-05
8.60052e-06
5.98314e-06
8.4611e-06
3.74618e-05
SCALARS rr_T' float
LOOKUP_TABLE default
0.000209654
0.000477623
0.000381447
0.000498564
0.000260676
0.000404851
0.000207299
0.000495799
0.000426321
0.000536748
0.000190271
0.000497318
0.000437653
0.000462213
0.000541507
0.000454588
0.000390958
0.000441995
0.000395933
0.000387079
0.000435422
7.73003e-05
0.000446133
0.000411176
0.000372715
0.000429952
0.000176266
0.000377668
0.00029643
0.000348868
0.00038664
0.000306434
0.000195261
0.000261409
0.000256921
0.000261999
0.000339169
0.000257446
0.000386247
0.000219475
0.00024916
0.000298917
0.000298948
0.000424335
0.000244991
0.000270277
0.000372596
0.000377307
0.00035357
0.000338486
0.000347566
0.000269516
0.000418391
0.000346316
0.000385195
0.000177717
0.000274319
0.000348855
0.00027431
0.000421973
0.000499071
0.000489112
0.000173352
0.000344862
0.00046848
0.000442142
0.000482752
0.000417597
0.00038456
0.000548163
0.000453936
0.00044899
0.000307853
0.000357888
0.000379102
0.000201559
0.000390303
0.000438041
0.000421112
0.000297418
0.000268415
0.000294222
0.000557045
0.00026879
0.000362408
0.000134614
0.000436264
0.000364569
0.000259446
3.80398e-05
0.000300089
4.13723e-05
0.000331184
0.00031739
0.000284003
0.000259043
0.000246521
0.000471234
0.000390593
0.000376025
0.000319487
0.000306511
0.000257906
0.000446328
0.000453715
0.000408576
0.000359312
0.000364514
0.000273774
0.00054443
0.000349867
0.000184793
0.000246966
0.000488475
0.000457604
0.000334439
0.000318102
0.000204851
0.000329941
0.000333117
0.000289739
0.000527859
0.000544339
0.000467565
0.000514401
0.000403571
0.000228288
0.000508787
0.000223274
0.000287989
0.00023712
0.00048565
0.00047435
0.000476842
0.000318792
0.000193277
0.000213719
0.000349472
0.000427091
0.000193212
0.000266253
0.000411866
0.000312096
0.000502878
0.000249331
0.000410348
0.000372415
0.00036006
0.00023014
0.000294133
0.000327961
0.000468639
0.000274948
0.000424326
0.000491447
0.000499282
0.000326693
0.000274248
0.000272691
0.000428396
0.000359665
0.000272663
0.000180437
0.000266307
0.000264873
0.000458703
0.000277943
0.000281009
0.000304408
0.000270852
0.000404372
0.000283668
0.000251172
0.00031568
0.000299682
0.000359077
0.000399975
0.000385018
0.000327039
0.000384074
0.000295453
0.000445019
0.000477627
0.000266298
0.000467833
0.000266185
0.000462029
0.000424739
0.000396519
0.000403646
0.000471935
0.000223851
0.000293236
0.000272679
0.00047599
0.000468636
0.000434484
0.000473183
0.000481799
0.000404641
0.000496192
0.000332946
0.000300492
0.000541727
0.000316451
0.000492032
0.000391954
0.000250233
0.000300965
0.000490987
0.000408582
0.000372035
0.000479282
0.000470134
0.000304212
0.00030164
0.00029304
0.000417072
0.000460215
0.000528903
0.00050814
0.000552856
0.000500968
0.000547465
0.000459336
0.000479947
0.000483686
0.000455966
0.000479013
0.000440942
0.000434378
0.00030827
0.000413906
0.00048429
0.000336417
0.00049339
0.000453251
0.000525065
0.000315923
0.000499339
0.000477336
0.000310244
0.000427656
0.000308149
0.00048056
0.000438721
0.00032301
0.000304028
0.000262959
0.000302487
0.000481219
0.000220821
0.000370913
0.0003029
0.00033984
0.000499808
0.000483792
0.000151712
0.000485551
0.000264489
0.000286726
0.000497082
0.000404076
0.000290105
0.000554597
0.000315499
0.000151712
0.000293199
0.000431451
0.000538567
0.000408323
0.000480353
0.000449877
0.000236141
0.000231464
0.000197989
0.00022731
0.000321843
0.000246168
0.000396563
0.000248193
0.000427057
0.000304995
0.000293643
0.000343451
0.00031937
0.000424209
0.000306248
0.000315153
0.000139071
0.000317485
0.000459226
0.000459554
0.000416241
0.000305657
0.000199015
0.00057785
0.000388268
0.000324268
0.000298945
0.000297665
0.000308334
0.000375657
0.00030281
0.000216899
0.000298839
0.000204999
0.000370194
0.000304884
0.000129622
0.000287159
0.00033952
0.000304895
0.000469132
0.000316622
0.000408292
0.000156635
0.000327725
0.00031306
0.000273386
0.000293895
0.000346802
0.000326408
0.000341337
0.000290296
0.000294863
0.000318418
0.00042564
0.000300268
0.000425388
0.000384006
0.000303056
0.000311508
0.000314494
0.00034784
0.000313975
0.000293989
0.000334075
0.000350324
0.000413583
0.000314428
0.000312398
0.000452238
0.000445904
0.000300495
0.000303122
0.000135412
0.000366218
0.000254141
0.000343748
0.00015208
0.000157867
0.00014108
0.00014339
0.00015212
0.00016025
0.000165144
0.000385643
0.000285379
0.000287942
0.000329207
0.000320693
0.000316692
0.000334977
0.000309923
0.000316983
0.000322257
0.000315518
0.000387396
0.000286878
0.000398207
0.000309854
0.000299118
0.000315916
0.000337062
0.000352212
0.000328144
0.000375796
0.000351094
0.00032558
0.000234792
0.000327459
0.000320201
0.000344749
0.000330283
0.000312956
0.000297624
0.00032784
0.000341959
0.000464204
0.000306605
0.000451319
0.000470456
0.000322161
0.000450727
0.00034577
0.000276986
0.000377289
0.000330699
0.00023815
0.000209216
0.00037249
0.000396731
0.000335867
0.000279211
0.000335893
0.000159286
0.000332071
0.000311579
0.000159114
6.09636e-05
6.66888e-05
0.000287646
0.000306732
0.000356244
0.000342458
3.13426e-05
3.27499e-05
0.000339142
0.00034268
0.000324382
0.000119563
0.000287013
0.00033365
0.000340213
0.000293469
0.000259027
0.00012451
0.000491362
0.000308655
0.000377127
0.000383023
0.000275263
0.000348372
0.000269133
0.000296976
0.000147581
0.000222705
0.000348786
0.000350941
0.000301622
0.000316793
0.000326909
0.000344694
0.000329693
0.000162558
0.000289279
0.000326156
0.000308272
0.000462608
0.000162527
0.000250384
0.000257903
0.00024441
0.000158896
0.000158907
0.000280002
0.000226094
0.000323354
0.000173968
0.000189754
6.19563e-05
6.1956e-05
0.00012976
0.000206011
0.000138793
0.00027551
0.000297973
0.000318
0.000358309
0.000325002
0.000300898
0.000236902
0.000146603
0.00029745
0.000308159
0.000298348
0.000164743
0.00015224
0.000118596
0.000297927
0.000303955
0.000244258
0.000275877
0.000254572
0.000233093
0.000312016
0.000233072
0.000275388
0.000265512
0.000162755
0.000200939
0.000186864
0.000329933
0.000130495
0.000137472
0.000134486
0.000311586
0.000124252
0.000121692
0.000216796
0.000113499
0.000252278
0.00025266
0.000116508
0.000274748
0.000129324
0.000128558
0.000144832
0.000122655
0.000120422
0.000179685
0.000143137
0.000130077
0.000123035
0.000251555
0.000287114
0.000135427
0.000277654
0.000111578
0.000281662
0.000223781
0.000116572
9.87025e-05
0.000110121
0.00014611
0.000241889
0.000199131
8.33046e-05
9.24683e-05
0.000269658
7.84166e-05
7.84158e-05
8.88548e-05
9.97365e-05
0.000112737
0.00013119
0.000216933
0.000200799
0.000269845
7.87854e-05
7.87848e-05
0.000237151
9.75384e-05
0.000192262
8.83842e-05
8.89136e-05
0.000117152
0.000203329
0.000210544
0.000224302
0.000205565
0.000203324
4.442e-05
0.00032821
5.66621e-05
5.48989e-05
0.000265137
0.000263298
5.68909e-05
3.95146e-05
5.56774e-05
0.000244568
SCALARS rr_uec(SIM,_S_ext) float
LOOKUP_TABLE default
0.0133665
0.0304539
0.0243213
0.0317891
0.0166211
0.0258135
0.0132164
0.0316125
0.0271822
0.0342236
0.0121312
0.0317094
0.027905
0.0294712
0.0345274
0.0289847
0.024928
0.028182
0.0252447
0.0246803
0.0277626
0.00492891
0.0284456
0.0262168
0.0237645
0.0274142
0.0112382
0.0240804
0.0189
0.0222448
0.0246524
0.0195379
0.0124492
0.0166681
0.0163819
0.0167056
0.0216263
0.0164153
0.0246273
0.0139931
0.0158861
0.0190598
0.0190618
0.0270558
0.0156201
0.0172325
0.0237567
0.0240571
0.0225438
0.0215814
0.0221603
0.017184
0.0266774
0.0220807
0.0245607
0.0113307
0.0174912
0.0222426
0.0174906
0.0269052
0.0318216
0.0311865
0.0110524
0.0219889
0.029871
0.0281915
0.030781
0.0266264
0.0245197
0.0349516
0.0289438
0.0286284
0.0196283
0.0228194
0.0241718
0.0128508
0.0248863
0.02793
0.0268506
0.0189632
0.0171136
0.0187601
0.035518
0.0171375
0.0231066
0.00858266
0.0278165
0.0232453
0.0165418
0.00242553
0.0191333
0.00263802
0.0211168
0.0202371
0.0181077
0.0165163
0.0157176
0.0300464
0.0249048
0.0239755
0.0203703
0.0195427
0.0164436
0.0284584
0.0289293
0.0260513
0.0229103
0.0232416
0.0174553
0.0347137
0.0223077
0.0117821
0.0157461
0.0311457
0.0291773
0.0213234
0.0202829
0.0130608
0.0210377
0.0212392
0.0184737
0.0336573
0.0347078
0.0298126
0.0327991
0.0257324
0.0145561
0.0324409
0.0142355
0.0183619
0.0151192
0.0309657
0.0302453
0.0304042
0.0203257
0.0123238
0.0136262
0.0222825
0.027232
0.0123197
0.0169759
0.0262609
0.0198992
0.0320641
0.0158968
0.0261643
0.0237455
0.0229576
0.0146738
0.0187538
0.0209108
0.0298811
0.0175304
0.0270553
0.0313352
0.031835
0.0208303
0.0174856
0.0173864
0.0273149
0.0229323
0.0173847
0.0115043
0.0169794
0.016888
0.0292474
0.0177212
0.0179167
0.0194087
0.0172692
0.0257835
0.0180864
0.0160144
0.0201281
0.0191074
0.0228953
0.0255031
0.024549
0.0208526
0.0244889
0.0188377
0.0283749
0.030454
0.0169788
0.0298295
0.0169716
0.0294596
0.0270819
0.0252827
0.0257369
0.0300911
0.0142723
0.0186965
0.0173857
0.0303498
0.0298807
0.0277032
0.0301709
0.0307202
0.0258003
0.0316379
0.0212286
0.0191591
0.0345414
0.0201765
0.0313728
0.0249914
0.0159545
0.01919
0.0313061
0.0260518
0.0237213
0.0305596
0.0299765
0.0193964
0.0192328
0.018684
0.026593
0.0293441
0.0337238
0.0323999
0.035251
0.0319426
0.0349073
0.0292877
0.0306023
0.0308407
0.0290733
0.0305428
0.0281152
0.0276967
0.0196552
0.0263911
0.0308791
0.0214499
0.0314594
0.0289001
0.033479
0.020143
0.0318387
0.0304355
0.019781
0.027268
0.0196474
0.0306412
0.0279736
0.020595
0.0193847
0.0167658
0.0192861
0.0306833
0.0140791
0.0236496
0.0193127
0.0216682
0.0318686
0.0308474
0.00967356
0.0309596
0.0168631
0.0182815
0.0316948
0.0257642
0.0184969
0.0353621
0.0201161
0.00967358
0.0186942
0.02751
0.0343397
0.0260351
0.0306282
0.0286846
0.0150568
0.0147583
0.0126234
0.0144927
0.0205212
0.0156958
0.0252852
0.0158246
0.0272298
0.0194468
0.0187225
0.0218988
0.0203628
0.0270479
0.0195262
0.020094
0.00886754
0.0202434
0.0292812
0.029302
0.02654
0.0194885
0.0126896
0.0368444
0.024756
0.0206751
0.0190605
0.0189796
0.0196592
0.0239525
0.0193069
0.0138291
0.0190538
0.0130703
0.0236041
0.0194392
0.00826506
0.018309
0.0216483
0.0194399
0.0299125
0.0201876
0.0260329
0.00998648
0.020896
0.0199605
0.0174316
0.0187386
0.0221121
0.0208121
0.0217641
0.0185091
0.0188003
0.0203022
0.0271393
0.0191449
0.027123
0.0244844
0.0193234
0.0198616
0.0200521
0.0221783
0.020019
0.0187445
0.0213005
0.0223371
0.0263704
0.0200479
0.0199183
0.0288351
0.0284312
0.0191594
0.0193275
0.00863355
0.0233502
0.0162035
0.0219174
0.00969624
0.0100652
0.0089949
0.00914217
0.00969883
0.0102171
0.0105291
0.0245891
0.0181963
0.0183595
0.0209903
0.0204474
0.0201922
0.0213584
0.0197606
0.0202108
0.0205478
0.0201173
0.0247009
0.0182911
0.0253904
0.0197564
0.0190718
0.0201427
0.0214916
0.0224572
0.0209225
0.0239609
0.0223858
0.020759
0.0149702
0.0208788
0.0204161
0.0219817
0.0210588
0.0199541
0.0189765
0.0209031
0.0218034
0.029598
0.0195492
0.0287764
0.0299965
0.020541
0.0287387
0.0220465
0.0176606
0.0240564
0.0210854
0.0151849
0.0133392
0.0237505
0.0252961
0.021415
0.0178025
0.0214169
0.0101556
0.021173
0.0198663
0.0101446
0.0038872
0.00425225
0.0183405
0.0195572
0.0227142
0.0218351
0.0019985
0.00208823
0.021624
0.0218495
0.0206829
0.00762296
0.0183
0.021274
0.0216919
0.0187116
0.0165156
0.00793844
0.0313299
0.0196798
0.0240458
0.0244217
0.0175508
0.0222122
0.0171599
0.0189352
0.00940935
0.0141992
0.0222387
0.0223761
0.0192314
0.0201987
0.0208437
0.0219777
0.0210213
0.0103644
0.0184449
0.0207957
0.0196558
0.0294965
0.0103624
0.0159646
0.0164441
0.015584
0.0101317
0.0101324
0.0178535
0.0144157
0.0206172
0.0110918
0.0120993
0.00395053
0.00395051
0.00827318
0.0131357
0.00884983
0.0175666
0.0189992
0.020276
0.0228462
0.0207226
0.0191856
0.015105
0.00934701
0.0189656
0.0196485
0.0190231
0.0105035
0.00970717
0.00756122
0.0189963
0.0193805
0.0155737
0.0175901
0.0162317
0.0148625
0.0198944
0.0148612
0.0175589
0.0169294
0.0103776
0.0128123
0.011914
0.021037
0.00831974
0.00876453
0.00857423
0.0198671
0.00792193
0.00775855
0.0138229
0.0072362
0.0160857
0.01611
0.007428
0.0175181
0.0082453
0.00819622
0.00923403
0.00781985
0.00767776
0.0114571
0.00912607
0.00829331
0.00784415
0.0160393
0.0183068
0.00863443
0.0177034
0.00711376
0.0179591
0.0142683
0.00743204
0.00629297
0.00702078
0.00931562
0.015423
0.012697
0.00531178
0.00589609
0.0171937
0.0050001
0.00500006
0.00566567
0.00635951
0.00718784
0.00836497
0.013832
0.0128033
0.0172056
0.0050236
0.00502356
0.0151212
0.00621881
0.0122587
0.0056351
0.00566879
0.0074692
0.0129649
0.013425
0.0143021
0.0131075
0.0129646
0.00283236
0.0209276
0.00361295
0.00350052
0.0169059
0.0167886
0.00362754
0.00251958
0.00355016
0.0155944
SCALARS rr_uec(PEX,_P_ext) float
LOOKUP_TABLE default
-0.0609182
-0.138838
-0.110877
-0.144925
-0.0757823
-0.11768
-0.0602341
-0.14412
-0.123917
-0.156025
-0.0552883
-0.144561
-0.127217
-0.134359
-0.157418
-0.132138
-0.113648
-0.128479
-0.115082
-0.112513
-0.126564
-0.0224755
-0.129678
-0.119517
-0.108338
-0.12498
-0.0512213
-0.109779
-0.0861508
-0.101427
-0.112388
-0.0890584
-0.0567408
-0.0759982
-0.0746942
-0.0761694
-0.0986076
-0.0748463
-0.112274
-0.0637772
-0.0724127
-0.0869052
-0.0869143
-0.123345
-0.0711947
-0.0785504
-0.1083
-0.109671
-0.102774
-0.0983709
-0.101011
-0.0783319
-0.121632
-0.100653
-0.111981
-0.0516451
-0.0797523
-0.101391
-0.0797497
-0.122656
-0.145076
-0.142185
-0.0503759
-0.100251
-0.136187
-0.128527
-0.140332
-0.121388
-0.111781
-0.159344
-0.131965
-0.130527
-0.0894704
-0.104036
-0.110196
-0.05857
-0.113464
-0.127334
-0.12241
-0.0864424
-0.0780061
-0.0855358
-0.161931
-0.0781142
-0.105327
-0.0391191
-0.126812
-0.105977
-0.0753956
-0.0110601
-0.0872176
-0.012029
-0.0962775
-0.0922618
-0.0825429
-0.0752841
-0.0716432
-0.136981
-0.113548
-0.109302
-0.0928597
-0.0890823
-0.0749513
-0.129739
-0.131888
-0.118767
-0.104451
-0.105956
-0.0795627
-0.158259
-0.101697
-0.0537019
-0.0717709
-0.141991
-0.133018
-0.0972013
-0.0924812
-0.0595331
-0.0959228
-0.0968171
-0.0842148
-0.15345
-0.158232
-0.135918
-0.149531
-0.11732
-0.0663687
-0.147897
-0.0648872
-0.0837013
-0.0689339
-0.141171
-0.137891
-0.138611
-0.0926517
-0.0561912
-0.062109
-0.101585
-0.124153
-0.0561723
-0.0773825
-0.119723
-0.0907134
-0.146179
-0.0724597
-0.119281
-0.108255
-0.10466
-0.0668958
-0.0854897
-0.0953273
-0.136227
-0.0799076
-0.123343
-0.142856
-0.145134
-0.0949658
-0.0797061
-0.0792539
-0.124526
-0.104543
-0.0792436
-0.0524356
-0.0773953
-0.0769816
-0.133338
-0.0807801
-0.0816711
-0.0884695
-0.0787195
-0.117554
-0.0824451
-0.0729966
-0.0917648
-0.0870994
-0.104382
-0.116276
-0.111918
-0.0950746
-0.111644
-0.0858668
-0.12936
-0.138839
-0.0773954
-0.135995
-0.0773598
-0.134309
-0.12347
-0.115271
-0.117334
-0.137188
-0.0650553
-0.0852262
-0.0792482
-0.138363
-0.136223
-0.126296
-0.137552
-0.140052
-0.117625
-0.144236
-0.0967746
-0.0873359
-0.157477
-0.0919695
-0.143032
-0.113937
-0.0727259
-0.087491
-0.142723
-0.118776
-0.108146
-0.13932
-0.136666
-0.0884192
-0.087683
-0.0851705
-0.121241
-0.133779
-0.153746
-0.14771
-0.160709
-0.145625
-0.159141
-0.133522
-0.139522
-0.140609
-0.132551
-0.139251
-0.128187
-0.126279
-0.0895985
-0.120317
-0.140775
-0.097785
-0.143431
-0.131762
-0.152628
-0.0918209
-0.145149
-0.138755
-0.0901724
-0.12432
-0.0895634
-0.139697
-0.127529
-0.0938831
-0.0883643
-0.0764205
-0.0879085
-0.139888
-0.0641739
-0.107816
-0.088036
-0.0987782
-0.145286
-0.140633
-0.0441079
-0.141144
-0.0768641
-0.0833353
-0.144493
-0.117458
-0.084317
-0.161215
-0.0917026
-0.0441079
-0.0852167
-0.125418
-0.156557
-0.118692
-0.139641
-0.130776
-0.0686492
-0.0672819
-0.057537
-0.0660567
-0.0935628
-0.0715539
-0.115274
-0.0721372
-0.124146
-0.0886587
-0.0853458
-0.0998377
-0.0928258
-0.123311
-0.0890118
-0.0915973
-0.0404338
-0.0922956
-0.133499
-0.133595
-0.120995
-0.0888405
-0.0578583
-0.167976
-0.112857
-0.0942498
-0.0868884
-0.0865342
-0.0896172
-0.109206
-0.0880122
-0.0630313
-0.0868586
-0.059576
-0.107614
-0.0886145
-0.0376866
-0.0834632
-0.0986966
-0.0886173
-0.136374
-0.0920266
-0.118681
-0.0455173
-0.0952613
-0.0909909
-0.0794759
-0.0854204
-0.100804
-0.0948845
-0.0992221
-0.084375
-0.085703
-0.092551
-0.123732
-0.0872741
-0.123652
-0.111621
-0.0881024
-0.0905411
-0.0914104
-0.101106
-0.0912599
-0.0854486
-0.0971022
-0.101839
-0.120221
-0.0913913
-0.0907983
-0.131459
-0.129618
-0.08734
-0.0881213
-0.0393471
-0.106451
-0.0738576
-0.0999171
-0.0441813
-0.0458625
-0.0409857
-0.0416567
-0.0441931
-0.0465546
-0.0479764
-0.112105
-0.0829654
-0.0836991
-0.0956897
-0.0932128
-0.0920496
-0.0973725
-0.0900819
-0.0921339
-0.0936867
-0.0917083
-0.112617
-0.0833782
-0.11576
-0.0900666
-0.0869438
-0.0918239
-0.0979872
-0.10238
-0.0953807
-0.109235
-0.102052
-0.0946327
-0.0682403
-0.0951815
-0.0930743
-0.100219
-0.0960005
-0.0909633
-0.0865077
-0.095292
-0.0993987
-0.134937
-0.0891182
-0.131191
-0.136749
-0.0936413
-0.131018
-0.100506
-0.0805086
-0.109675
-0.0961238
-0.0692347
-0.0607985
-0.108282
-0.11533
-0.0976281
-0.0811578
-0.0976408
-0.0462842
-0.0965246
-0.0905662
-0.0462381
-0.0177247
-0.0193893
-0.0836118
-0.0891549
-0.103549
-0.0995392
-0.00911317
-0.00952234
-0.0985826
-0.099611
-0.094292
-0.0347417
-0.0834229
-0.0969903
-0.0988883
-0.0853013
-0.0752905
-0.0361791
-0.142835
-0.0897135
-0.109621
-0.111335
-0.0800093
-0.10126
-0.0782276
-0.0863209
-0.0428857
-0.0647217
-0.101381
-0.10201
-0.087672
-0.0920804
-0.0950218
-0.100192
-0.0958315
-0.0472398
-0.0840946
-0.0948008
-0.0896116
-0.134477
-0.0472305
-0.0727805
-0.0749658
-0.0710533
-0.0461978
-0.0462009
-0.0813991
-0.0657161
-0.093991
-0.0505552
-0.0551691
-0.0180142
-0.0180142
-0.0377045
-0.0598929
-0.0403516
-0.0800835
-0.0866226
-0.0924362
-0.104155
-0.0944761
-0.0874699
-0.0688631
-0.0425988
-0.0864619
-0.0895783
-0.0867282
-0.0478717
-0.0442603
-0.0344632
-0.0866058
-0.0883555
-0.0709938
-0.0801917
-0.0739992
-0.0677634
-0.0906977
-0.0677574
-0.0800487
-0.077183
-0.0473177
-0.0584191
-0.0543027
-0.0959075
-0.0379171
-0.0399446
-0.0390766
-0.0905757
-0.0361041
-0.0353588
-0.063015
-0.0329787
-0.073342
-0.0734529
-0.0338531
-0.079861
-0.0375804
-0.0373542
-0.0420864
-0.0356388
-0.0349934
-0.0522392
-0.041595
-0.0377966
-0.0357496
-0.0731223
-0.0834638
-0.0393534
-0.0807088
-0.0324203
-0.081875
-0.0650464
-0.0338713
-0.0286815
-0.0319968
-0.0424553
-0.0703108
-0.0578917
-0.0242213
-0.0268855
-0.078386
-0.0228
-0.0227998
-0.0258349
-0.0289979
-0.0327611
-0.0381406
-0.0630644
-0.0583764
-0.0784402
-0.0229067
-0.0229065
-0.0689451
-0.0283417
-0.0558846
-0.0256818
-0.0258376
-0.0340435
-0.0591156
-0.0612132
-0.0652128
-0.0597655
-0.059114
-0.0129153
-0.0954228
-0.0164744
-0.0159621
-0.0770856
-0.0765507
-0.0165414
-0.011489
-0.0161881
-0.0711048
SCALARS cell_type float
LOOKUP_TABLE default
0
0
0
0
0
0
0
0
0
0
0
0
0
0
0
0
0
0
0
0
0
1
0
0
0
0
0
0
0
0
0
0
0
0
0
0
0
0
0
0
0
0
0
0
0
0
0
0
0
0
0
0
0
0
0
0
0
0
0
0
0
0
0
0
0
0
0
0
0
0
0
0
0
0
0
0
0
0
0
0
0
0
0
0
0
0
0
0
0
0
0
0
0
0
0
0
0
0
0
0
0
0
0
0
0
0
0
0
0
0
0
0
0
0
0
0
0
0
0
0
0
0
0
0
0
0
0
0
0
0
0
0
0
0
0
0
0
0
0
0
0
0
0
0
0
0
0
0
0
0
0
0
0
0
0
0
0
0
0
0
0
0
0
0
0
0
0
0
0
0
0
0
0
0
0
0
0
0
0
0
0
0
0
0
0
0
0
0
0
0
0
0
0
0
0
0
0
0
0
0
0
0
0
0
0
0
0
0
0
0
0
0
0
0
0
0
0
0
0
0
0
0
0
0
0
0
0
0
0
0
0
0
0
0
0
0
0
0
0
0
0
0
0
0
0
0
0
0
0
0
0
0
0
0
0
0
0
0
0
0
0
0
0
0
0
0
0
0
0
0
0
0
0
0
0
0
0
0
0
0
0
0
0
0
0
0
0
0
0
0
0
0
0
0
0
0
0
0
0
0
0
0
0
0
0
0
0
0
0
0
0
0
0
0
0
0
0
0
0
0
0
0
0
0
0
0
0
0
0
0
0
0
0
0
0
0
0
0
0
0
0
0
0
0
0
0
0
0
0
0
2
2
2
2
2
2
2
0
0
0
0
0
0
0
0
0
0
0
0
0
0
0
0
0
0
0
0
0
0
0
0
0
0
0
0
0
0
0
0
0
0
0
0
0
0
0
0
0
0
0
0
0
0
0
0
0
0
0
0
0
0
0
0
0
0
0
1
1
0
0
0
0
0
0
0
0
0
0
0
0
0
0
0
0
0
0
0
0
0
0
0
0
0
0
0
0
0
0
0
0
0
0
0
0
0
0
0
0
0
0
0
1
1
0
0
0
0
0
0
0
0
0
0
0
0
0
0
0
0
0
0
0
0
0
0
0
0
0
0
0
0
0
0
0
0
0
0
0
0
0
0
0
0
0
0
0
0
0
0
0
0
0
0
0
0
0
0
0
0
0
0
0
0
0
0
0
0
0
1
1
0
0
0
0
0
0
0
0
0
0
0
0
0
0
0
0
0
0
0
0
0
0
0
0
0
0
0
0
0
0
0
0
0
TENSORS Lagrange_strain float
0.0305674 -0.00319827 4.06396e-08
-0.00319827 0.0133889 -1.78197e-07
4.06396e-08 -1.78197e-07 0.00740158

0.029192 -0.0028007 5.66682e-08
-0.0028007 0.0335531 1.91172e-08
5.66682e-08 1.91172e-08 0.0331626

0.0300206 0.00367893 -3.73024e-08
0.00367893 0.0311687 4.42201e-08
-3.73024e-08 4.42201e-08 0.030467

0.0291608 -0.00392502 -2.31751e-07
-0.00392502 0.032798 -7.81821e-08
-2.31751e-07 -7.81821e-08 0.0330875

0.0353665 0.00266895 -2.46745e-08
0.00266895 0.0380847 8.55791e-08
-2.46745e-08 8.55791e-08 0.0352916

0.0277346 -0.00236716 6.05403e-08
-0.00236716 0.0333825 -1.92949e-07
6.05403e-08 -1.92949e-07 0.0304381

0.0302614 0.00339396 3.75534e-08
0.00339396 0.0134944 -4.51322e-08
3.75534e-08 -4.51322e-08 0.00746301

0.0317536 0.00393954 1.19589e-07
0.00393954 0.0311992 7.89772e-08
1.19589e-07 7.89772e-08 0.0315598

0.0332407 0.000715383 4.72373e-08
0.000715383 0.0262207 -3.16826e-09
4.72373e-08 -3.16826e-09 0.0281414

0.0354664 -0.000991247 4.67923e-08
-0.000991247 0.0275504 1.781e-07
4.67923e-08 1.781e-07 0.0327202

0.0280606 0.00205106 -1.7562e-07
0.00205106 0.0138087 2.56221e-07
-1.7562e-07 2.56221e-07 0.0117532

0.0279525 -0.00176566 1.06948e-07
-0.00176566 0.0350058 -4.61267e-08
1.06948e-07 -4.61267e-08 0.0315484

0.0311203 0.00365703 4.26998e-08
0.00365703 0.0312992 2.0889e-07
4.26998e-08 2.0889e-07 0.0310787

0.0290683 -0.00187995 1.51698e-07
-0.00187995 0.0347983 9.32813e-08
1.51698e-07 9.32813e-08 0.0325457

0.0346309 0.00441829 4.82251e-08
0.00441829 0.0343614 -3.16185e-08
4.82251e-08 -3.16185e-08 0.034884

0.0343269 7.30614e-05 1.55068e-07
7.30614e-05 0.0272852 -3.09991e-08
1.55068e-07 -3.09991e-08 0.0307776

0.028692 -0.0023537 1.47536e-07
-0.0023537 0.0360132 7.85447e-08
1.47536e-07 7.85447e-08 0.0334493

0.0345719 -0.000353007 1.89376e-07
-0.000353007 0.0273556 -7.82084e-10
1.89376e-07 -7.82084e-10 0.0319762

0.0269193 0.00347813 4.0037e-08
0.00347813 0.0309439 -1.21785e-07
4.0037e-08 -1.21785e-07 0.0275759

0.033884 -0.000550299 6.78251e-08
-0.000550299 0.0264086 -1.56876e-07
6.78251e-08 -1.56876e-07 0.0301334

0.0266213 0.00113504 1.02895e-07
0.00113504 0.0340327 1.2713e-07
1.02895e-07 1.2713e-07 0.0291492

0.0452949 0.000852711 1.35909e-07
0.000852711 0.0452644 5.8041e-08
1.35909e-07 5.8041e-08 0.0366376

0.0336743 0.000247455 -2.40607e-07
0.000247455 0.0263146 2.7208e-08
-2.40607e-07 2.7208e-08 0.0298043

0.0293089 -0.00363195 -7.75835e-09
-0.00363195 0.0311351 9.89539e-09
-7.75835e-09 9.89539e-09 0.0300459

0.0337791 0.000900043 1.27554e-07
0.000900043 0.0264957 3.54898e-08
1.27554e-07 3.54898e-08 0.0300804

0.0285454 0.00250737 -1.82321e-07
0.00250737 0.033893 1.88817e-08
-1.82321e-07 1.88817e-08 0.0322862

0.0286289 0.000526712 -2.29616e-08
0.000526712 0.0176893 -6.09956e-08
-2.29616e-08 -6.09956e-08 0.013171

0.0309132 0.00403441 1.17653e-07
0.00403441 0.0306456 4.17586e-08
1.17653e-07 4.17586e-08 0.0306099

0.0259241 0.00477635 5.24551e-08
0.00477635 0.0257325 1.40455e-07
5.24551e-08 1.40455e-07 0.0211275

0.0415287 0.00136982 6.92096e-08
0.00136982 0.0383494 6.22315e-08
6.92096e-08 6.22315e-08 0.0361346

0.0344099 0.00187091 1.39716e-07
0.00187091 0.0279515 5.7049e-08
1.39716e-07 5.7049e-08 0.0309992

0.0217591 -0.00228784 -1.631e-07
-0.00228784 0.0299912 -1.95996e-07
-1.631e-07 -1.95996e-07 0.0211243

0.0228629 -0.00535222 1.98588e-07
-0.00535222 0.0234724 -2.3096e-07
1.98588e-07 -2.3096e-07 0.0125786

0.0348321 0.000800922 -4.30911e-08
0.000800922 0.0422549 -1.0411e-07
-4.30911e-08 -1.0411e-07 0.0357856

0.0374529 -0.000662051 -1.36736e-07
-0.000662051 0.0412025 3.37746e-07
-1.36736e-07 3.37746e-07 0.0359002

0.0410751 0.00281316 1.41432e-07
0.00281316 0.0359856 -1.14435e-07
1.41432e-07 -1.14435e-07 0.0357659

0.0372534 0.000705292 1.15993e-08
0.000705292 0.043215 -4.891e-08
1.15993e-08 -4.891e-08 0.036141

0.0402605 -0.00121873 -1.27878e-07
-0.00121873 0.0378298 3.8263e-08
-1.27878e-07 3.8263e-08 0.0358075

0.0312148 -0.00367779 -1.69433e-07
-0.00367779 0.0311226 1.24314e-10
-1.69433e-07 1.24314e-10 0.0309246

0.0227469 0.00527886 9.50932e-08
0.00527886 0.0237085 1.55645e-07
9.50932e-08 1.55645e-07 0.0125807

0.0297599 -0.00231565 -5.46209e-08
-0.00231565 0.0220305 3.9114e-08
-5.46209e-08 3.9114e-08 0.0208742

0.0376188 -0.000522886 1.61869e-07
-0.000522886 0.0430643 -1.30328e-07
1.61869e-07 -1.30328e-07 0.0361437

0.0412402 0.00263438 6.88853e-08
0.00263438 0.0394148 -8.64583e-08
6.88853e-08 -8.64583e-08 0.0361262

0.0343005 -0.00161721 2.99728e-09
-0.00161721 0.0279937 1.16942e-07
2.99728e-09 1.16942e-07 0.0310832

0.023105 -0.00552552 3.96828e-08
-0.00552552 0.0235621 -5.74047e-08
3.96828e-08 -5.74047e-08 0.0162156

0.0299424 -0.00233228 -6.57426e-08
-0.00233228 0.0221546 -1.68658e-07
-6.57426e-08 -1.68658e-07 0.0213436

0.0258929 0.00222726 1.08929e-07
0.00222726 0.0326529 1.14092e-07
1.08929e-07 1.14092e-07 0.0279145

0.02755 0.00252863 -1.0758e-07
0.00252863 0.0323732 9.89299e-08
-1.0758e-07 9.89299e-08 0.02849

0.0341743 -0.0021411 -9.6934e-09
-0.0021411 0.0271064 1.04729e-07
-9.6934e-09 1.04729e-07 0.0304713

0.0229019 -0.00439211 1.31081e-07
-0.00439211 0.027248 1.98719e-07
1.31081e-07 1.98719e-07 0.0198498

0.0294932 0.00247133 3.70999e-08
0.00247133 0.0218336 5.30577e-08
3.70999e-08 5.30577e-08 0.0202803

0.0298713 -0.00327075 3.09936e-08
-0.00327075 0.0245128 -8.2247e-08
3.09936e-08 -8.2247e-08 0.0230475

0.0344771 0.00257788 1.06908e-07
0.00257788 0.0382023 -3.01579e-08
1.06908e-07 -3.01579e-08 0.0352703

0.0286885 0.00383848 1.74253e-07
0.00383848 0.0257791 1.3758e-07
1.74253e-07 1.3758e-07 0.0231161

0.0349278 -0.00291574 -6.92924e-08
-0.00291574 0.0374322 4.72968e-08
-6.92924e-08 4.72968e-08 0.0351886

0.0255794 -0.0054552 2.69235e-07
-0.0054552 0.0229018 -1.20755e-07
2.69235e-07 -1.20755e-07 0.0158191

0.0373464 0.000746105 -6.1104e-08
0.000746105 0.0414128 -3.10268e-07
-6.1104e-08 -3.10268e-07 0.0359207

0.023167 -0.000693146 -3.11559e-08
-0.000693146 0.0313126 3.10642e-08
-3.11559e-08 3.10642e-08 0.0231021

0.0410292 0.0013798 -7.19027e-08
0.0013798 0.0377066 1.72604e-07
-7.19027e-08 1.72604e-07 0.0358989

0.027675 0.00280494 -1.44458e-07
0.00280494 0.0327485 -3.24209e-08
-1.44458e-07 -3.24209e-08 0.0302303

0.0361383 0.000784773 -1.63734e-09
0.000784773 0.0281307 -7.46486e-08
-1.63734e-09 -7.46486e-08 0.0336724

0.0362536 0.00153416 -5.11827e-09
0.00153416 0.0316927 -1.09038e-07
-5.11827e-09 -1.09038e-07 0.0342201

0.0286365 0.00405682 -2.27598e-07
0.00405682 0.0198969 1.24017e-08
-2.27598e-07 1.24017e-08 0.0137588

0.0309719 -0.000783962 -1.72668e-07
-0.000783962 0.0370843 -1.20986e-07
-1.72668e-07 -1.20986e-07 0.0338809

0.0315543 0.0012437 -2.05339e-08
0.0012437 0.03642 -1.14684e-10
-2.05339e-08 -1.14684e-10 0.0342589

0.0285483 -0.000375284 -7.28717e-08
-0.000375284 0.0369552 1.6936e-08
-7.28717e-08 1.6936e-08 0.03267

0.029602 0.00307126 -1.35919e-07
0.00307126 0.0347905 8.43508e-08
-1.35919e-07 8.43508e-08 0.0337083

0.0347187 0.00112184 1.83465e-09
0.00112184 0.0278379 4.68001e-08
1.83465e-09 4.68001e-08 0.0322078

0.0291865 -0.0036989 -2.12461e-08
-0.0036989 0.0310201 -5.191e-08
-2.12461e-08 -5.191e-08 0.0299088

0.035054 -0.000237069 3.83082e-08
-0.000237069 0.0275792 1.78051e-07
3.83082e-08 1.78051e-07 0.0333924

0.0344518 -0.00254825 1.38254e-07
-0.00254825 0.0381332 -2.94662e-09
1.38254e-07 -2.94662e-09 0.0352603

0.0350102 0.00284937 -9.59892e-08
0.00284937 0.0375698 1.73755e-07
-9.59892e-08 1.73755e-07 0.0352401

0.0218881 -0.00213179 -7.24095e-08
-0.00213179 0.0299213 -1.42452e-07
-7.24095e-08 -1.42452e-07 0.0208507

0.0347001 -0.00369096 1.46723e-07
-0.00369096 0.0319575 1.05475e-08
1.46723e-07 1.05475e-08 0.0330783

0.0292912 -0.0032972 -9.84487e-09
-0.0032972 0.0321117 -3.1803e-08
-9.84487e-09 -3.1803e-08 0.0304326

0.0267789 -0.00401677 -1.03351e-07
-0.00401677 0.017605 -5.50033e-08
-1.03351e-07 -5.50033e-08 0.0127256

0.0324037 0.0004186 -2.93112e-08
0.0004186 0.0381042 -1.06252e-09
-2.93112e-08 -1.06252e-09 0.0344051

0.0345364 0.0038173 1.30751e-08
0.0038173 0.0309408 1.74212e-07
1.30751e-08 1.74212e-07 0.0326596

0.0283758 0.00258137 -1.84925e-07
0.00258137 0.0341285 -5.62098e-08
-1.84925e-07 -5.62098e-08 0.0322131

0.031541 0.00103783 4.48054e-08
0.00103783 0.0228434 -1.82504e-07
4.48054e-08 -1.82504e-07 0.0240686

0.0270965 -0.00435849 -1.76334e-07
-0.00435849 0.0237362 -7.64955e-08
-1.76334e-07 -7.64955e-08 0.0183231

0.0362598 -0.00140289 1.01346e-07
-0.00140289 0.0387422 1.42557e-07
1.01346e-07 1.42557e-07 0.0354006

0.0315553 0.00317104 4.55227e-08
0.00317104 0.0344004 -3.15541e-08
4.55227e-08 -3.15541e-08 0.0340897

0.0273009 -0.00415591 7.66985e-09
-0.00415591 0.0221744 -5.77746e-08
7.66985e-09 -5.77746e-08 0.0184108

0.0303572 0.00139111 1.62684e-07
0.00139111 0.0228299 -1.84283e-07
1.62684e-07 -1.84283e-07 0.020954

0.0186017 -0.0026969 1.75314e-08
-0.0026969 0.0289278 3.47695e-07
1.75314e-08 3.47695e-07 0.0158926

0.0271993 0.00188878 4.84067e-08
0.00188878 0.0343195 -3.90657e-09
4.84067e-08 -3.90657e-09 0.0306538

0.0353809 0.00305682 -3.10165e-08
0.00305682 0.0308194 -1.99241e-07
-3.10165e-08 -1.99241e-07 0.0327531

0.0226474 0.00538556 5.73084e-08
0.00538556 0.0240879 1.12152e-07
5.73084e-08 1.12152e-07 0.0161981

0.0459502 0.00223795 -3.96853e-07
0.00223795 0.0417503 2.12724e-07
-3.96853e-07 2.12724e-07 0.0366385

0.0230808 -0.000534356 1.73247e-08
-0.000534356 0.0313533 4.68766e-08
1.73247e-08 4.68766e-08 0.0230719

0.0463614 -0.00225553 4.21885e-07
-0.00225553 0.0412944 6.55182e-07
4.21885e-07 6.55182e-07 0.0365936

0.0370649 -0.00362429 -5.66578e-08
-0.00362429 0.0334906 2.54841e-08
-5.66578e-08 2.54841e-08 0.0346202

0.0351365 0.00361913 -1.64968e-07
0.00361913 0.0300035 2.96319e-07
-1.64968e-07 2.96319e-07 0.0324558

0.0299611 -0.00315882 -1.59755e-07
-0.00315882 0.0246898 -2.2389e-08
-1.59755e-07 -2.2389e-08 0.0232853

0.0230117 0.00402952 1.71175e-07
0.00402952 0.0277783 -9.60566e-08
1.71175e-07 -9.60566e-08 0.0203815

0.0210934 -0.0013786 -1.94497e-07
-0.0013786 0.0298943 -1.10195e-07
-1.94497e-07 -1.10195e-07 0.018251

0.0287448 0.00288882 1.20672e-07
0.00288882 0.0342263 -1.79016e-09
1.20672e-07 -1.79016e-09 0.0326989

0.0370112 0.0022361 -5.31391e-08
0.0022361 0.0334515 4.41602e-08
-5.31391e-08 4.41602e-08 0.0343836

0.0281476 0.00198811 -1.73063e-07
0.00198811 0.0340588 3.63063e-09
-1.73063e-07 3.63063e-09 0.0308647

0.0318816 0.00207295 2.13867e-08
0.00207295 0.0252534 -2.19626e-07
2.13867e-08 -2.19626e-07 0.0256168

0.0239069 -0.00277414 -4.63945e-08
-0.00277414 0.029764 -1.3981e-07
-4.63945e-08 -1.3981e-07 0.021561

0.0278978 -0.00376352 -1.31809e-07
-0.00376352 0.0218148 3.29415e-08
-1.31809e-07 3.29415e-08 0.0180755

0.0293303 -0.00323197 -2.105e-07
-0.00323197 0.032629 9.696e-08
-2.105e-07 9.696e-08 0.0324021

0.0306254 0.00361457 -1.31807e-07
0.00361457 0.0322276 -4.53688e-08
-1.31807e-07 -4.53688e-08 0.0323699

0.0287071 0.00304789 -3.28568e-08
0.00304789 0.0340262 3.76618e-08
-3.28568e-08 3.76618e-08 0.0326294

0.029206 0.00172535 -2.57635e-08
0.00172535 0.0376165 -2.93026e-09
-2.57635e-08 -2.93026e-09 0.0338453

0.0344765 0.00123249 -2.60465e-07
0.00123249 0.027523 2.32374e-09
-2.60465e-07 2.32374e-09 0.0306739

0.0199602 -0.000605293 -1.24835e-07
-0.000605293 0.0296596 -6.3538e-08
-1.24835e-07 -6.3538e-08 0.0181034

0.0297962 -0.00486313 -4.20875e-08
-0.00486313 0.0330481 -2.0028e-07
-4.20875e-08 -2.0028e-07 0.0337408

0.0290805 0.00359971 8.02502e-08
0.00359971 0.0313586 2.03288e-07
8.02502e-08 2.03288e-07 0.0302632

0.0181052 0.000282822 -5.07395e-08
0.000282822 0.0293097 -1.41486e-07
-5.07395e-08 -1.41486e-07 0.016878

0.0278424 0.00442343 -1.25844e-07
0.00442343 0.0209676 9.32627e-08
-1.25844e-07 9.32627e-08 0.0174542

0.0291902 -0.00302046 -3.50232e-08
-0.00302046 0.0327023 -1.19839e-07
-3.50232e-08 -1.19839e-07 0.0321845

0.0352413 0.000759785 -1.98884e-08
0.000759785 0.0273377 8.79039e-08
-1.98884e-08 8.79039e-08 0.0325518

0.0294264 0.00352005 1.8368e-07
0.00352005 0.0252005 1.24223e-07
1.8368e-07 1.24223e-07 0.0231105

0.0396362 0.00171009 -1.16422e-07
0.00171009 0.0390391 -2.89148e-08
-1.16422e-07 -2.89148e-08 0.0359393

0.0283742 0.00312312 -2.24949e-07
0.00312312 0.0224008 -1.21034e-07
-2.24949e-07 -1.21034e-07 0.0182859

0.039488 -0.00175078 -1.18747e-07
-0.00175078 0.0390648 -1.61891e-07
-1.18747e-07 -1.61891e-07 0.0359045

0.0232603 0.000103411 1.43006e-07
0.000103411 0.031517 5.35808e-08
1.43006e-07 5.35808e-08 0.0231189

0.0327577 -0.000288348 1.56797e-07
-0.000288348 0.0246592 1.10404e-07
1.56797e-07 1.10404e-07 0.0269654

0.0380539 -0.00212919 7.51458e-08
-0.00212919 0.0304628 -1.33124e-07
7.51458e-08 -1.33124e-07 0.0347924

0.0292372 0.00320588 5.8236e-08
0.00320588 0.033277 -1.37719e-07
5.8236e-08 -1.37719e-07 0.0333419

0.0289496 -0.00177241 2.9331e-08
-0.00177241 0.0366083 -6.50948e-09
2.9331e-08 -6.50948e-09 0.0334987

0.0365824 -0.00108478 1.65558e-07
-0.00108478 0.0264752 -2.15688e-08
1.65558e-07 -2.15688e-08 0.0338591

0.0311794 -0.00292607 -1.80756e-07
-0.00292607 0.0383051 4.04005e-08
-1.80756e-07 4.04005e-08 0.0348428

0.0381645 -0.000884906 3.066e-07
-0.000884906 0.0387302 -1.00118e-07
3.066e-07 -1.00118e-07 0.0358346

0.0301788 -0.00393969 -8.84903e-08
-0.00393969 0.0327096 -1.19693e-07
-8.84903e-08 -1.19693e-07 0.0327623

0.0213321 0.00146948 2.26487e-07
0.00146948 0.0296126 1.66906e-08
2.26487e-07 1.66906e-08 0.018295

0.0293869 -0.00364546 5.81563e-08
-0.00364546 0.0253482 -1.98568e-08
5.81563e-08 -1.98568e-08 0.0231812

0.0328587 -0.00181686 1.00957e-07
-0.00181686 0.0397168 1.42695e-07
1.00957e-07 1.42695e-07 0.0352401

0.03509 7.67564e-05 -4.6053e-09
7.67564e-05 0.027221 8.92806e-08
-4.6053e-09 8.92806e-08 0.0332502

0.0308174 -0.00282883 3.94182e-08
-0.00282883 0.0348906 -2.34218e-08
3.94182e-08 -2.34218e-08 0.0340831

0.0295334 0.00338865 8.38511e-08
0.00338865 0.0328704 -1.56834e-07
8.38511e-08 -1.56834e-07 0.033325

0.0264593 -0.00406309 8.35874e-08
-0.00406309 0.0272606 1.98015e-07
8.35874e-08 1.98015e-07 0.0215837

0.0371718 -0.000958409 -3.60921e-08
-0.000958409 0.0416093 -1.02962e-07
-3.60921e-08 -1.02962e-07 0.0358856

0.0227102 -0.00423744 2.91699e-07
-0.00423744 0.0272428 -5.89772e-08
2.91699e-07 -5.89772e-08 0.0168768

0.0341818 -0.00252475 -9.52562e-09
-0.00252475 0.0286056 8.75162e-08
-9.52562e-09 8.75162e-08 0.0310434

0.0364245 0.000289876 -3.20143e-08
0.000289876 0.0294366 -1.98332e-07
-3.20143e-08 -1.98332e-07 0.0341928

0.0396399 0.0023967 -3.13153e-09
0.0023967 0.0391125 6.1088e-08
-3.13153e-09 6.1088e-08 0.0358666

0.0238553 0.00260904 2.56196e-08
0.00260904 0.0301503 1.7173e-07
2.56196e-08 1.7173e-07 0.021798

0.0334299 0.00358126 -3.98956e-08
0.00358126 0.0307141 8.15832e-08
-3.98956e-08 8.15832e-08 0.0317662

0.0316419 -0.00319427 -8.78241e-08
-0.00319427 0.026551 -6.17482e-08
-8.78241e-08 -6.17482e-08 0.0269344

0.0289282 -0.00234077 5.25472e-08
-0.00234077 0.0342338 4.41181e-08
5.25472e-08 4.41181e-08 0.0326049

0.0262433 0.00450123 -3.84187e-08
0.00450123 0.0245569 2.73861e-08
-3.84187e-08 2.73861e-08 0.0180805

0.0284218 -0.0028665 3.02607e-08
-0.0028665 0.0340313 3.77516e-08
3.02607e-08 3.77516e-08 0.032448

0.0331481 0.00405887 5.74957e-08
0.00405887 0.0304637 -2.20567e-07
5.74957e-08 -2.20567e-07 0.0315413

0.0333337 -0.00331187 6.83399e-08
-0.00331187 0.028356 -2.43628e-07
6.83399e-08 -2.43628e-07 0.0300449

0.0291599 -0.00329524 -4.87906e-08
-0.00329524 0.0319868 -3.23612e-08
-4.87906e-08 -3.23612e-08 0.0304363

0.0314541 -0.00242925 -6.42733e-08
-0.00242925 0.0247179 -9.58004e-08
-6.42733e-08 -9.58004e-08 0.0251553

0.0329542 -0.00246665 -6.00931e-08
-0.00246665 0.0267085 -5.84565e-08
-6.00931e-08 -5.84565e-08 0.0285956

0.0294902 -0.00334167 -1.43848e-07
-0.00334167 0.0329492 -1.36687e-08
-1.43848e-07 -1.36687e-08 0.0334064

0.0261332 0.00463372 -1.4049e-07
0.00463372 0.0255403 9.75241e-08
-1.4049e-07 9.75241e-08 0.0210917

0.0281491 0.00201653 -2.05674e-07
0.00201653 0.034335 -4.86596e-08
-2.05674e-07 -4.86596e-08 0.0311084

0.0308854 0.00348106 3.86069e-08
0.00348106 0.0322544 -6.29102e-08
3.86069e-08 -6.29102e-08 0.0325992

0.0291563 0.00334804 2.36192e-08
0.00334804 0.0331908 1.61233e-07
2.36192e-08 1.61233e-07 0.0332595

0.0289832 0.00152278 2.60448e-08
0.00152278 0.0354695 -2.31841e-07
2.60448e-08 -2.31841e-07 0.0326946

0.0310517 -0.00106171 6.13693e-08
-0.00106171 0.0231407 5.95749e-08
6.13693e-08 5.95749e-08 0.0220772

0.0238831 0.00240554 -1.76682e-07
0.00240554 0.0304093 -1.00963e-07
-1.76682e-07 -1.00963e-07 0.0221122

0.0292124 -0.00320399 -1.40656e-08
-0.00320399 0.0326353 -1.49112e-08
-1.40656e-08 -1.49112e-08 0.0316175

0.0289866 0.00335659 -1.79311e-07
0.00335659 0.0309316 -8.7708e-08
-1.79311e-07 -8.7708e-08 0.0285671

0.0266117 -0.00459098 -2.05529e-07
-0.00459098 0.0252295 -3.82632e-08
-2.05529e-07 -3.82632e-08 0.0212559

0.0262768 0.00489316 4.82303e-08
0.00489316 0.0209456 -3.14091e-07
4.82303e-08 -3.14091e-07 0.0167618

0.0235021 -0.00428658 1.47182e-07
-0.00428658 0.0274637 2.9581e-07
1.47182e-07 2.9581e-07 0.0206257

0.0266709 -0.00402725 -6.27891e-08
-0.00402725 0.0274817 2.85697e-07
-6.27891e-08 2.85697e-07 0.0220493

0.0353638 -0.000906589 -8.75859e-08
-0.000906589 0.0273894 -6.41701e-08
-8.75859e-08 -6.41701e-08 0.0326541

0.0260446 0.00392153 1.25944e-07
0.00392153 0.0280913 2.68383e-08
1.25944e-07 2.68383e-08 0.0221018

0.030787 0.00171646 6.8557e-08
0.00171646 0.0233596 -3.54214e-09
6.8557e-08 -3.54214e-09 0.0220249

0.0214303 0.00172203 2.12342e-07
0.00172203 0.0302396 -2.83035e-08
2.12342e-07 -2.83035e-08 0.0211321

0.0242621 -0.00288928 -7.86344e-08
-0.00288928 0.0299507 -1.93502e-07
-7.86344e-08 -1.93502e-07 0.0220855

0.0313452 -0.000131194 3.50196e-08
-0.000131194 0.0392735 1.79043e-07
3.50196e-08 1.79043e-07 0.0346704

0.0230577 0.000294706 9.79145e-08
0.000294706 0.0314597 5.20428e-08
9.79145e-08 5.20428e-08 0.0230616

0.0227765 0.00400126 -2.50064e-07
0.00400126 0.0281264 -4.04972e-09
-2.50064e-07 -4.04972e-09 0.0206375

0.0288877 0.00158559 -1.58152e-07
0.00158559 0.0358322 -1.59036e-08
-1.58152e-07 -1.59036e-08 0.0328931

0.0293153 -0.00357986 -1.36001e-07
-0.00357986 0.025129 1.80531e-08
-1.36001e-07 1.80531e-08 0.0232391

0.0369764 0.002733 -4.7976e-08
0.002733 0.0297228 -7.9785e-08
-4.7976e-08 -7.9785e-08 0.0338013

0.0371757 0.0034832 -2.02086e-07
0.0034832 0.0334225 -7.55553e-09
-2.02086e-07 -7.55553e-09 0.0346519

0.0345436 -0.00244658 1.54452e-07
-0.00244658 0.0285294 -2.34612e-07
1.54452e-07 -2.34612e-07 0.0313785

0.0390566 -0.00026551 1.65695e-07
-0.00026551 0.0339245 3.94792e-08
1.65695e-07 3.94792e-08 0.0352079

0.0314787 -0.00418757 1.05728e-07
-0.00418757 0.0317815 -2.2582e-07
1.05728e-07 -2.2582e-07 0.0321559

0.0294614 0.00300734 1.10978e-07
0.00300734 0.0223268 -6.23854e-08
1.10978e-07 -6.23854e-08 0.0210661

0.0302292 0.00397294 8.67326e-08
0.00397294 0.0326627 -1.51351e-07
8.67326e-08 -1.51351e-07 0.0327196

0.0302766 0.00384677 -1.21795e-07
0.00384677 0.0326067 -6.45036e-08
-1.21795e-07 -6.45036e-08 0.0326744

0.0262439 0.00396148 -3.82709e-08
0.00396148 0.0277671 -1.04892e-07
-3.82709e-08 -1.04892e-07 0.0218643

0.0344498 0.0035765 8.07761e-08
0.0035765 0.0317796 7.99542e-08
8.07761e-08 7.99542e-08 0.0328312

0.0302478 0.000452435 8.31678e-08
0.000452435 0.020428 2.73707e-08
8.31678e-08 2.73707e-08 0.0205728

0.0331857 0.00420075 -2.15726e-08
0.00420075 0.0323727 -6.88192e-08
-2.15726e-08 -6.88192e-08 0.0334835

0.0305006 -0.00165462 -5.38545e-08
-0.00165462 0.0366159 -1.0377e-08
-5.38545e-08 -1.0377e-08 0.0336625

0.03736 0.00323277 -8.43088e-08
0.00323277 0.0334595 1.57194e-07
-8.43088e-08 1.57194e-07 0.034664

0.0307367 -0.00389605 -1.44669e-07
-0.00389605 0.0322728 1.11344e-07
-1.44669e-07 1.11344e-07 0.0326799

0.0293737 -0.000644745 1.74687e-07
-0.000644745 0.0369025 3.83031e-08
1.74687e-07 3.83031e-08 0.0328476

0.0288122 -0.00315225 -7.44849e-08
-0.00315225 0.0221396 -1.68321e-07
-7.44849e-08 -1.68321e-07 0.0187586

0.0290022 0.00384455 6.67417e-08
0.00384455 0.0255773 9.26119e-08
6.67417e-08 9.26119e-08 0.0230725

0.021701 0.00189101 2.99776e-08
0.00189101 0.0300606 1.71918e-07
2.99776e-08 1.71918e-07 0.0210834

0.0349895 -0.000161489 1.07534e-07
-0.000161489 0.0273891 -6.42506e-08
1.07534e-07 -6.42506e-08 0.0333012

0.034419 2.39861e-07 -9.571e-08
2.39861e-07 0.0272743 -4.89787e-08
-9.571e-08 -4.89787e-08 0.0320408

0.0291652 0.00303978 1.67929e-07
0.00303978 0.0326795 -7.71461e-08
1.67929e-07 -7.71461e-08 0.0321323

0.0314493 0.00316614 -2.36076e-08
0.00316614 0.03425 -7.24866e-08
-2.36076e-08 -7.24866e-08 0.0340578

0.0291683 -0.0032044 -2.45397e-08
-0.0032044 0.0332379 1.78844e-07
-2.45397e-08 1.78844e-07 0.0333786

0.0287735 -8.5512e-05 -8.2762e-08
-8.5512e-05 0.0367045 -1.04626e-07
-8.2762e-08 -1.04626e-07 0.0325254

0.0294637 0.00337597 9.62725e-10
0.00337597 0.0330747 1.2386e-07
9.62725e-10 1.2386e-07 0.0333543

0.0328585 -0.00134648 1.30334e-07
-0.00134648 0.0253615 -1.09367e-07
1.30334e-07 -1.09367e-07 0.0278285

0.0263546 -0.00425448 1.98544e-07
-0.00425448 0.0281792 8.90557e-09
1.98544e-07 8.90557e-09 0.0242672

0.0362974 -0.00033138 -5.81061e-08
-0.00033138 0.0293829 9.09379e-08
-5.81061e-08 9.09379e-08 0.0340277

0.0267806 -0.00444527 -3.01116e-08
-0.00444527 0.0251901 1.44597e-08
-3.01116e-08 1.44597e-08 0.0209488

0.0308994 0.0025071 -3.11852e-08
0.0025071 0.035063 1.04597e-07
-3.11852e-08 1.04597e-07 0.0340674

0.0351128 -0.00349683 -1.5512e-07
-0.00349683 0.030388 2.20946e-07
-1.5512e-07 2.20946e-07 0.0326145

0.0305013 -0.00124979 2.01366e-08
-0.00124979 0.0229781 2.13072e-07
2.01366e-08 2.13072e-07 0.0214781

0.037148 -0.00307708 -2.04863e-07
-0.00307708 0.0316532 7.45236e-08
-2.04863e-07 7.45236e-08 0.0339876

0.0349691 0.000321979 -2.42183e-07
0.000321979 0.0275543 1.70894e-08
-2.42183e-07 1.70894e-08 0.0334296

0.0358431 -0.00308811 -3.05491e-08
-0.00308811 0.0332577 -3.0756e-08
-3.05491e-08 -3.0756e-08 0.0341432

0.0349278 -0.00341026 1.60335e-07
-0.00341026 0.0295945 -6.49874e-08
1.60335e-07 -6.49874e-08 0.0321777

0.0349088 -0.00113362 2.25346e-08
-0.00113362 0.0278497 1.14402e-07
2.25346e-08 1.14402e-07 0.032341

0.0314892 -0.00306243 5.31956e-08
-0.00306243 0.0344478 7.81268e-08
5.31956e-08 7.81268e-08 0.0341462

0.0292349 -0.0040709 -6.17727e-08
-0.0040709 0.0268994 1.53975e-07
-6.17727e-08 1.53975e-07 0.0253458

0.0349918 -0.0032435 1.70322e-07
-0.0032435 0.0299148 -2.56291e-08
1.70322e-07 -2.56291e-08 0.0321949

0.031462 0.00140899 -2.75883e-08
0.00140899 0.0233267 -8.4278e-09
-2.75883e-08 -8.4278e-09 0.0244833

0.0336644 0.00348422 -6.78627e-08
0.00348422 0.0334438 2.85945e-09
-6.78627e-08 2.85945e-09 0.0336497

0.0298922 -0.00496718 2.96726e-09
-0.00496718 0.0330779 -1.95185e-08
2.96726e-09 -1.95185e-08 0.0338568

0.0300425 0.0049206 -4.35704e-08
0.0049206 0.0329402 1.25839e-07
-4.35704e-08 1.25839e-07 0.0338238

0.0276876 -0.00374173 4.56573e-08
-0.00374173 0.0348067 5.79383e-13
4.56573e-08 5.79383e-13 0.0337663

0.0279254 0.0035471 7.47037e-08
0.0035471 0.0348347 9.34429e-08
7.47037e-08 9.34429e-08 0.0337312

0.0364292 -0.00115389 -1.69609e-08
-0.00115389 0.0263414 1.58156e-07
-1.69609e-08 1.58156e-07 0.0337575

0.0361981 0.00124755 -4.54264e-08
0.00124755 0.0265628 -7.18868e-09
-4.54264e-08 -7.18868e-09 0.0337203

0.035034 -0.00130672 -1.11256e-07
-0.00130672 0.0284677 -1.94729e-07
-1.11256e-07 -1.94729e-07 0.0325755

0.0344362 0.00425898 3.35093e-08
0.00425898 0.0342891 -7.14907e-08
3.35093e-08 -7.14907e-08 0.0348122

0.0343121 -0.00435686 -7.94169e-08
-0.00435686 0.0342806 2.96107e-08
-7.94169e-08 2.96107e-08 0.0348006

0.0305206 0.00209362 3.8862e-08
0.00209362 0.0381647 -3.34391e-08
3.8862e-08 -3.34391e-08 0.0348494

0.0306636 -0.00205954 5.33451e-08
-0.00205954 0.0380948 1.15699e-09
5.33451e-08 1.15699e-09 0.0348367

0.0395016 -0.000528963 -1.09057e-07
-0.000528963 0.0328492 -1.85922e-07
-1.09057e-07 -1.85922e-07 0.0352576

0.039705 0.000513345 -3.9312e-08
0.000513345 0.0326215 1.6382e-07
-3.9312e-08 1.6382e-07 0.0353028

0.0239648 0.00127595 2.31482e-08
0.00127595 0.0320028 -8.56178e-08
2.31482e-08 -8.56178e-08 0.025184

0.0311618 -0.00326519 5.02548e-08
-0.00326519 0.0322401 1.10619e-07
5.02548e-08 1.10619e-07 0.0328015

0.0277792 -0.00478561 -3.70401e-08
-0.00478561 0.0333113 1.79144e-07
-3.70401e-08 1.79144e-07 0.0334549

0.0333581 -0.00061025 1.05214e-07
-0.00061025 0.0264028 -1.5402e-07
1.05214e-07 -1.5402e-07 0.0284479

0.0381874 -0.00225192 8.65374e-08
-0.00225192 0.030794 1.4753e-07
8.65374e-08 1.4753e-07 0.0348924

0.0382359 0.00218411 8.24426e-08
0.00218411 0.0309073 -1.7992e-08
8.24426e-08 -1.7992e-08 0.0349246

0.0360837 1.56056e-05 -1.45589e-07
1.56056e-05 0.0251254 -1.5452e-07
-1.45589e-07 -1.5452e-07 0.03347

0.0242406 0.00302884 -7.62995e-08
0.00302884 0.0303971 -1.43251e-08
-7.62995e-08 -1.43251e-08 0.0242767

0.0276738 0.00475637 -1.09298e-07
0.00475637 0.0333122 1.55647e-07
-1.09298e-07 1.55647e-07 0.0333927

0.0286741 -0.00307603 5.3669e-08
-0.00307603 0.0342607 4.41039e-08
5.3669e-08 4.41039e-08 0.032752

0.0310851 0.00303565 5.88719e-09
0.00303565 0.0251464 1.15354e-07
5.88719e-09 1.15354e-07 0.0254668

0.0372278 0.00316551 -6.36869e-08
0.00316551 0.0315406 5.39474e-08
-6.36869e-08 5.39474e-08 0.0340756

0.0292267 -0.00406713 -3.89372e-08
-0.00406713 0.0269354 -1.3922e-07
-3.89372e-08 -1.3922e-07 0.025321

0.0364011 -0.000453649 1.76528e-07
-0.000453649 0.0296911 9.67759e-11
1.76528e-07 9.67759e-11 0.0341307

0.0273443 -0.00449496 1.59176e-07
-0.00449496 0.0333947 -2.11012e-07
1.59176e-07 -2.11012e-07 0.0334414

0.0240376 0.00107885 5.92871e-08
0.00107885 0.032244 -1.18986e-07
5.92871e-08 -1.18986e-07 0.0255056

0.0242294 0.00282657 -1.09473e-07
0.00282657 0.0307012 3.49139e-08
-1.09473e-07 3.49139e-08 0.0245446

0.0267918 0.00459418 -1.33281e-07
0.00459418 0.0240414 1.07143e-07
-1.33281e-07 1.07143e-07 0.0182133

0.0298503 0.000199831 2.05888e-07
0.000199831 0.0200882 -6.72005e-08
2.05888e-07 -6.72005e-08 0.0193622

0.0319083 -0.00302371 1.21126e-07
-0.00302371 0.0341619 2.02812e-08
1.21126e-07 2.02812e-08 0.0340353

0.0229183 0.0039995 -1.7925e-07
0.0039995 0.0276598 1.22247e-07
-1.7925e-07 1.22247e-07 0.0176528

0.0292094 0.00310076 2.03058e-07
0.00310076 0.0327627 -2.34979e-08
2.03058e-07 -2.34979e-08 0.0310119

0.0315943 -0.000694449 -1.0773e-07
-0.000694449 0.0231598 5.523e-08
-1.0773e-07 5.523e-08 0.0244846

0.0327606 0.00146447 1.43998e-07
0.00146447 0.0253465 -2.29996e-07
1.43998e-07 -2.29996e-07 0.0276127

0.035978 5.6236e-05 9.934e-08
5.6236e-05 0.0249584 -7.90507e-08
9.934e-08 -7.90507e-08 0.0333859

0.0279655 -0.00380543 -1.34633e-07
-0.00380543 0.0349488 -1.84428e-08
-1.34633e-07 -1.84428e-08 0.0338157

0.0393145 -0.000843792 2.05303e-07
-0.000843792 0.0416019 -3.26819e-07
2.05303e-07 -3.26819e-07 0.0361898

0.0298673 0.00493914 2.4685e-08
0.00493914 0.032956 -1.5854e-07
2.4685e-08 -1.5854e-07 0.0337788

0.030288 0.000214507 -1.08905e-07
0.000214507 0.0203966 1.47099e-08
-1.08905e-07 1.47099e-08 0.0172759

0.0266735 -0.00425017 1.19398e-07
-0.00425017 0.0281328 1.77896e-08
1.19398e-07 1.77896e-08 0.0244372

0.027746 0.00481589 1.49315e-07
0.00481589 0.033315 -1.36666e-07
1.49315e-07 -1.36666e-07 0.033455

0.0279448 -0.00145856 -1.15494e-07
-0.00145856 0.035085 -7.47282e-08
-1.15494e-07 -7.47282e-08 0.03145

0.0244647 -0.00330496 -1.03188e-07
-0.00330496 0.0300149 -4.79811e-08
-1.03188e-07 -4.79811e-08 0.0242168

0.0279903 0.00377966 -8.69631e-08
0.00377966 0.0349101 1.08189e-07
-8.69631e-08 1.08189e-07 0.0337865

0.0313613 -0.00340935 1.10696e-08
-0.00340935 0.0270083 1.61342e-07
1.10696e-08 1.61342e-07 0.0269911

0.0402795 0.00140844 1.20547e-07
0.00140844 0.0406178 -2.14057e-07
1.20547e-07 -2.14057e-07 0.0361703

0.0258809 0.00400277 9.44064e-08
0.00400277 0.0289541 -3.20587e-08
9.44064e-08 -3.20587e-08 0.0245107

0.0366777 0.00110283 -2.06032e-07
0.00110283 0.0263519 6.83038e-08
-2.06032e-07 6.83038e-08 0.0338975

0.0333416 0.00398416 2.68854e-08
0.00398416 0.032115 -6.26828e-08
2.68854e-08 -6.26828e-08 0.0333154

0.0292278 0.0030672 8.41531e-08
0.0030672 0.032605 -1.51353e-07
8.41531e-08 -1.51353e-07 0.0321575

0.0343644 -0.00431095 7.987e-08
-0.00431095 0.0345044 7.7561e-08
7.987e-08 7.7561e-08 0.0348848

0.0354895 -0.00306329 -2.35056e-07
-0.00306329 0.0305898 5.80289e-08
-2.35056e-07 5.80289e-08 0.0327502

0.0333664 0.00138751 -1.85459e-07
0.00138751 0.0395772 -1.41463e-07
-1.85459e-07 -1.41463e-07 0.0350023

0.0291967 -0.00307906 -5.49339e-08
-0.00307906 0.0328726 -8.79527e-08
-5.49339e-08 -8.79527e-08 0.0313831

0.0292647 -0.00123221 6.96086e-08
-0.00123221 0.0192869 -1.07433e-07
6.96086e-08 -1.07433e-07 0.016412

0.0287783 -0.00183228 -1.46598e-07
-0.00183228 0.0184139 -6.39508e-08
-1.46598e-07 -6.39508e-08 0.0161969

0.038529 0.0022022 3.297e-08
0.0022022 0.0332388 -6.14727e-08
3.297e-08 -6.14727e-08 0.0347628

0.0280558 0.00294498 -1.61305e-07
0.00294498 0.0323345 -5.18059e-08
-1.61305e-07 -5.18059e-08 0.0295179

0.0320669 0.00383431 4.28699e-08
0.00383431 0.0309605 1.76479e-07
4.28699e-08 1.76479e-07 0.0314543

0.0320496 9.00123e-05 -1.08821e-07
9.00123e-05 0.0245767 1.42865e-07
-1.08821e-07 1.42865e-07 0.024888

0.0302376 0.000866356 1.84115e-07
0.000866356 0.038581 6.42305e-08
1.84115e-07 6.42305e-08 0.0340962

0.0354022 0.00219155 -6.8543e-08
0.00219155 0.0293227 -1.00345e-07
-6.8543e-08 -1.00345e-07 0.0328581

0.0248113 -0.00333879 -1.13865e-07
-0.00333879 0.0300057 -1.38797e-07
-1.13865e-07 -1.38797e-07 0.0244699

0.0286505 -0.000337971 -1.63109e-07
-0.000337971 0.0366572 -1.12315e-07
-1.63109e-07 -1.12315e-07 0.0323956

0.0252152 0.00173991 -3.06791e-08
0.00173991 0.0320295 -8.72738e-08
-3.06791e-08 -8.72738e-08 0.0256839

0.0332806 -0.00390962 -2.19867e-08
-0.00390962 0.0304967 7.06613e-08
-2.19867e-08 7.06613e-08 0.0315923

0.0290648 -0.00389605 3.49558e-08
-0.00389605 0.0282 3.47992e-09
3.49558e-08 3.47992e-09 0.0257134

0.0261492 0.00409871 5.326e-08
0.00409871 0.0285464 5.65566e-08
5.326e-08 5.65566e-08 0.024318

0.0452876 -0.00201735 1.72557e-07
-0.00201735 0.039606 3.3736e-07
1.72557e-07 3.3736e-07 0.0363668

0.0316666 0.000256542 6.34543e-08
0.000256542 0.0393271 -1.11149e-07
6.34543e-08 -1.11149e-07 0.034769

0.0306164 0.00265106 -3.00914e-08
0.00265106 0.038443 3.4246e-08
-3.00914e-08 3.4246e-08 0.0349575

0.0387654 0.00209472 1.33552e-07
0.00209472 0.0302215 3.23861e-08
1.33552e-07 3.23861e-08 0.0349424

0.0313706 -0.00345066 -8.60211e-08
-0.00345066 0.0321405 2.01662e-07
-8.60211e-08 2.01662e-07 0.0325726

0.0318178 0.00233599 2.19702e-08
0.00233599 0.0256203 9.1763e-08
2.19702e-08 9.1763e-08 0.0258795

0.0349938 -0.000708733 -2.58078e-07
-0.000708733 0.0415753 -5.63476e-10
-2.58078e-07 -5.63476e-10 0.0357276

0.0357877 -0.00251848 3.42733e-08
-0.00251848 0.0295501 8.73575e-08
3.42733e-08 8.73575e-08 0.0332579

0.0332968 -0.00203959 5.08868e-08
-0.00203959 0.0266526 2.25338e-07
5.08868e-08 2.25338e-07 0.0286753

0.0252522 0.00151091 -1.33562e-08
0.00151091 0.0322743 -1.21731e-07
-1.33562e-08 -1.21731e-07 0.0259499

0.0268046 -0.00334466 1.73618e-07
-0.00334466 0.0300092 -3.82094e-08
1.73618e-07 -3.82094e-08 0.0251872

0.0364779 -0.0033603 -1.29164e-07
-0.0033603 0.0352875 -7.28768e-08
-1.29164e-07 -7.28768e-08 0.0347422

0.0284753 0.004152 4.01077e-09
0.004152 0.0277158 -1.8339e-07
4.01077e-09 -1.8339e-07 0.0254676

0.0372435 -0.00334561 1.43032e-07
-0.00334561 0.0333222 -2.06302e-07
1.43032e-07 -2.06302e-07 0.0346115

0.0322059 0.000337883 -9.07677e-08
0.000337883 0.0248624 8.8436e-08
-9.07677e-08 8.8436e-08 0.0254374

0.0191609 -0.00368907 4.09079e-08
-0.00368907 0.0275259 2.7715e-07
4.09079e-08 2.7715e-07 0.0163107

0.0292096 -0.00380357 -1.34333e-07
-0.00380357 0.0281924 -4.88399e-09
-1.34333e-07 -4.88399e-09 0.0258076

0.0230457 0.00412724 1.46393e-07
0.00412724 0.0280202 -1.39611e-07
1.46393e-07 -1.39611e-07 0.017592

0.0296909 -0.00155927 -6.86047e-08
-0.00155927 0.0375332 -1.46069e-07
-6.86047e-08 -1.46069e-07 0.0336483

0.0243599 -0.00179354 3.79721e-09
-0.00179354 0.0318722 -2.28118e-08
3.79721e-09 -2.28118e-08 0.0254478

0.0424378 -0.00323401 -8.92123e-08
-0.00323401 0.0423765 -5.56483e-08
-8.92123e-08 -5.56483e-08 0.0363751

0.0263363 0.00309101 5.22554e-08
0.00309101 0.0307014 3.49902e-08
5.22554e-08 3.49902e-08 0.0254776

0.0334761 -0.00432343 -5.48912e-09
-0.00432343 0.0326593 -2.11729e-08
-5.48912e-09 -2.11729e-08 0.0335662

0.0240804 -0.00155072 4.80122e-08
-0.00155072 0.0318865 -5.88038e-09
4.80122e-08 -5.88038e-09 0.0251765

0.0362222 -0.00253871 -2.3109e-07
-0.00253871 0.0295107 -1.75634e-08
-2.3109e-07 -1.75634e-08 0.033519

0.0266733 0.00310474 9.85871e-08
0.00310474 0.0303941 -1.71373e-08
9.85871e-08 -1.71373e-08 0.0253129

0.0343426 -0.000653756 -1.99057e-07
-0.000653756 0.0272764 -5.47407e-08
-1.99057e-07 -5.47407e-08 0.0305773

0.0188903 -0.00387145 1.22621e-07
-0.00387145 0.0298012 8.77546e-08
1.22621e-07 8.77546e-08 0.0129611

0.0279988 0.00275446 -1.67863e-07
0.00275446 0.0326286 -9.91131e-08
-1.67863e-07 -9.91131e-08 0.0305732

0.031437 -0.0025123 4.66328e-08
-0.0025123 0.0247218 -1.71683e-08
4.66328e-08 -1.71683e-08 0.0254055

0.0391175 -0.00286931 9.40448e-08
-0.00286931 0.0322209 1.61337e-08
9.40448e-08 1.61337e-08 0.0349364

0.0287525 0.00412378 -2.13846e-08
0.00412378 0.0272993 -6.04232e-08
-2.13846e-08 -6.04232e-08 0.025255

0.0313608 -0.00391911 2.0674e-07
-0.00391911 0.0285413 -1.32369e-07
2.0674e-07 -1.32369e-07 0.0287304

0.0354074 0.00276392 2.7584e-07
0.00276392 0.0308553 5.61781e-08
2.7584e-07 5.61781e-08 0.0330386

0.0297724 -0.00370368 1.60392e-07
-0.00370368 0.0329369 -2.09923e-07
1.60392e-07 -2.09923e-07 0.0333417

0.0270545 -0.00341004 5.10918e-08
-0.00341004 0.0299816 -1.26248e-07
5.10918e-08 -1.26248e-07 0.0253968

0.02844 0.00377089 -9.3327e-08
0.00377089 0.028939 -3.73966e-08
-9.3327e-08 -3.73966e-08 0.0258866

0.0313704 0.00341315 -1.16128e-07
0.00341315 0.0268986 1.40631e-07
-1.16128e-07 1.40631e-07 0.0269653

0.0365351 -0.00194425 -1.17208e-07
-0.00194425 0.0306244 2.24165e-07
-1.17208e-07 2.24165e-07 0.0336349

0.025533 -0.00216307 -5.9632e-08
-0.00216307 0.0318009 -2.82125e-08
-5.9632e-08 -2.82125e-08 0.025853

0.0346989 -0.00231404 1.80858e-07
-0.00231404 0.0283335 -1.7485e-07
1.80858e-07 -1.7485e-07 0.0314551

0.0341846 0.00222307 1.18291e-07
0.00222307 0.027431 9.82351e-08
1.18291e-07 9.82351e-08 0.0306029

0.0336443 -0.00124568 7.3935e-08
-0.00124568 0.0392993 1.78631e-07
7.3935e-08 1.78631e-07 0.0349265

0.0320711 -0.00174665 -4.3233e-09
-0.00174665 0.0253297 -1.14738e-07
-4.3233e-09 -1.14738e-07 0.0258704

0.0250011 7.98422e-05 -2.61944e-08
7.98422e-05 0.03315 -5.32199e-09
-2.61944e-08 -5.32199e-09 0.0268604

0.0332459 0.00242868 2.67656e-07
0.00242868 0.0271929 -3.16343e-08
2.67656e-07 -3.16343e-08 0.0289212

0.0311165 0.00359874 -1.49202e-07
0.00359874 0.0272917 -1.97561e-07
-1.49202e-07 -1.97561e-07 0.0271217

0.0252946 -0.00204097 -8.18929e-08
-0.00204097 0.0318632 -8.87759e-09
-8.18929e-08 -8.87759e-09 0.0256103

0.0252003 -0.000154707 -2.02138e-09
-0.000154707 0.0332907 -2.48926e-08
-2.02138e-09 -2.48926e-08 0.0271432

0.0354119 0.00385821 6.60141e-08
0.00385821 0.0329947 -6.40569e-08
6.60141e-08 -6.40569e-08 0.0338945

0.0275848 -0.00143094 8.04567e-08
-0.00143094 0.0353409 1.62772e-07
8.04567e-08 1.62772e-07 0.0314411

0.0312329 -0.0034837 -6.80253e-08
-0.0034837 0.0269767 -1.40542e-07
-6.80253e-08 -1.40542e-07 0.0270089

0.0312955 0.0027724 -1.33906e-07
0.0027724 0.0249213 1.09591e-07
-1.33906e-07 1.09591e-07 0.0252453

0.0345814 0.00311846 9.4951e-09
0.00311846 0.0293857 -1.03101e-07
9.4951e-09 -1.03101e-07 0.0317948

0.0279903 0.00071662 2.15062e-08
0.00071662 0.0360385 4.0088e-08
2.15062e-08 4.0088e-08 0.0318171

0.0287152 0.00378108 -9.27511e-08
0.00378108 0.0285585 5.96524e-08
-9.27511e-08 5.96524e-08 0.0257271

0.0367899 0.00305728 -1.21888e-07
0.00305728 0.0361246 -1.49071e-07
-1.21888e-07 -1.49071e-07 0.0349062

0.0226795 -0.00754508 2.20464e-07
-0.00754508 0.0186872 2.7509e-07
2.20464e-07 2.7509e-07 0.0108448

0.0332903 -0.00328733 1.19913e-07
-0.00328733 0.0286314 -1.39633e-07
1.19913e-07 -1.39633e-07 0.0301231

0.0207262 0.000913446 -8.57274e-08
0.000913446 0.0300301 -5.86228e-08
-8.57274e-08 -5.86228e-08 0.0183458

0.0312992 -0.00378159 2.16503e-07
-0.00378159 0.0292301 -1.15053e-07
2.16503e-07 -1.15053e-07 0.0290306

0.00153952 -0.00651862 -3.9718e-09
-0.00651862 0.0275677 1.74016e-08
-3.9718e-09 1.74016e-08 0.00290823

0.00146992 0.00636819 1.95163e-08
0.00636819 0.0275856 8.55066e-08
1.95163e-08 8.55066e-08 0.00300118

0.0119843 0.0145046 -9.11835e-08
0.0145046 0.017532 -1.14341e-07
-9.11835e-08 -1.14341e-07 0.00277111

0.0121657 -0.0144953 -9.56116e-08
-0.0144953 0.0172235 1.19893e-07
-9.56116e-08 1.19893e-07 0.00280372

0.02934 -0.000164084 -1.17809e-07
-0.000164084 0 0
-1.17809e-07 0 0.00295253

0.0235917 -0.0112824 1.72461e-07
-0.0112824 0.00539536 -8.30529e-08
1.72461e-07 -8.30529e-08 0.00297823

0.0236335 0.0113486 -1.48129e-08
0.0113486 0.00544942 -7.13353e-09
-1.48129e-08 -7.13353e-09 0.0030394

0.0369102 0.00191133 -2.266e-07
0.00191133 0.0302414 -8.81756e-08
-2.266e-07 -8.81756e-08 0.033877

0.0387046 0.00341018 1.70239e-08
0.00341018 0.036617 -8.67494e-08
1.70239e-08 -8.67494e-08 0.0355778

0.0344143 0.000872314 8.16821e-08
0.000872314 0.0274561 3.44203e-08
8.16821e-08 3.44203e-08 0.031687

0.0328718 0.00285016 1.70463e-07
0.00285016 0.0268885 1.4339e-07
1.70463e-07 1.4339e-07 0.0286456

0.0257 0.00231305 6.28858e-08
0.00231305 0.0323664 1.01744e-07
6.28858e-08 1.01744e-07 0.0276349

0.030712 0.00376878 -1.53621e-07
0.00376878 0.0276753 -1.91014e-07
-1.53621e-07 -1.91014e-07 0.0271169

0.0333048 -0.0039032 1.21624e-07
-0.0039032 0.0304651 2.77456e-07
1.21624e-07 2.77456e-07 0.0316292

0.0309725 0.00365423 -2.22822e-09
0.00365423 0.027286 -6.02556e-08
-2.22822e-09 -6.02556e-08 0.0269246

0.0249865 -0.000371427 4.96871e-08
-0.000371427 0.033121 -2.88825e-09
4.96871e-08 -2.88825e-09 0.0268425

0.0385475 -0.00348468 1.12821e-07
-0.00348468 0.0368804 -1.96029e-08
1.12821e-07 -1.96029e-08 0.0355834

0.0251749 -0.000635514 3.00881e-09
-0.000635514 0.0332094 -2.4465e-08
3.00881e-09 -2.4465e-08 0.0271021

0.0360172 0.00304707 1.56731e-08
0.00304707 0.0330107 7.03943e-08
1.56731e-08 7.03943e-08 0.0340974

0.0296225 0.0034756 6.38162e-08
0.0034756 0.0248457 9.79639e-08
6.38162e-08 9.79639e-08 0.0230222

0.0304953 -0.00171373 1.50237e-07
-0.00171373 0.0375117 -8.03217e-08
1.50237e-07 -8.03217e-08 0.034736

0.0339198 0.00180446 -2.3747e-07
0.00180446 0.0271811 -3.64351e-08
-2.3747e-07 -3.64351e-08 0.0303198

0.0312004 -0.00392023 -7.7554e-08
-0.00392023 0.0285305 -1.24968e-07
-7.7554e-08 -1.24968e-07 0.0286138

0.0315828 -0.00322131 1.96721e-08
-0.00322131 0.0266911 2.81856e-08
1.96721e-08 2.81856e-08 0.0270471

0.0384791 -0.00214137 1.88145e-07
-0.00214137 0.0334168 -1.20229e-07
1.88145e-07 -1.20229e-07 0.0347444

0.0326805 0.00366396 1.26499e-07
0.00366396 0.0292315 -8.88626e-08
1.26499e-07 -8.88626e-08 0.0301544

0.0326441 0.00313751 7.68975e-08
0.00313751 0.0272517 -1.88679e-07
7.68975e-08 -1.88679e-07 0.0287874

0.0269546 -0.000365151 1.53206e-07
-0.000365151 0.0349862 -5.69967e-09
1.53206e-07 -5.69967e-09 0.0301674

0.0258991 0.000765764 6.75698e-08
0.000765764 0.034003 1.2561e-07
6.75698e-08 1.2561e-07 0.0288225

0.0327772 0.000345365 -2.63203e-08
0.000345365 0.0248612 9.25338e-08
-2.63203e-08 9.25338e-08 0.0274433

0.0313865 -0.000944824 -7.18765e-08
-0.000944824 0.0230035 2.09467e-07
-7.18765e-08 2.09467e-07 0.0238917

0.0308801 0.00398521 2.78034e-10
0.00398521 0.0288056 -5.57626e-08
2.78034e-10 -5.57626e-08 0.0286236

0.0331175 -0.00343134 -1.39759e-07
-0.00343134 0.0285401 -1.25746e-07
-1.39759e-07 -1.25746e-07 0.0299688

0.0364123 -0.00282395 -1.48808e-07
-0.00282395 0.0327326 1.25857e-07
-1.48808e-07 1.25857e-07 0.0341436

0.0292057 -0.00412763 -5.02848e-08
-0.00412763 0.0291917 -1.33689e-07
-5.02848e-08 -1.33689e-07 0.0277534

0.0269716 -0.00362029 1.3206e-07
-0.00362029 0.0304642 3.17168e-08
1.3206e-07 3.17168e-08 0.0272129

0.0283258 0.00389933 -2.89939e-08
0.00389933 0.0299003 9.06979e-08
-2.89939e-08 9.06979e-08 0.0277515

0.0259008 -0.00124895 7.21043e-08
-0.00124895 0.033613 -3.81543e-08
7.21043e-08 -3.81543e-08 0.0285154

0.0266541 -0.00020203 1.33113e-07
-0.00020203 0.0349125 7.4148e-08
1.33113e-07 7.4148e-08 0.0299193

0.0277619 0.000753084 1.7399e-07
0.000753084 0.0360379 3.89278e-08
1.7399e-07 3.89278e-08 0.0316577

0.0262468 -0.00274946 -1.52649e-07
-0.00274946 0.0319628 1.1028e-07
-1.52649e-07 1.1028e-07 0.0277101

0.0345821 0.00317565 5.76362e-09
0.00317565 0.0291678 -9.60601e-08
5.76362e-09 -9.60601e-08 0.0316339

0.0339087 -0.0012609 -9.72751e-08
-0.0012609 0.0269299 1.97116e-07
-9.72751e-08 1.97116e-07 0.0302012

0.0257899 0.000974455 -7.10205e-08
0.000974455 0.033829 -8.53313e-08
-7.10205e-08 -8.53313e-08 0.0285414

0.0278236 -0.00127 7.70429e-08
-0.00127 0.0353967 1.62065e-07
7.70429e-08 1.62065e-07 0.0313655

0.0272925 -0.00213714 5.98361e-09
-0.00213714 0.0336563 3.17908e-09
5.98361e-09 3.17908e-09 0.0302251

0.0327763 -0.00107723 1.5664e-07
-0.00107723 0.0253197 1.27381e-07
1.5664e-07 1.27381e-07 0.0272538

0.0333149 -0.00427126 5.41528e-08
-0.00427126 0.0323801 1.75508e-07
5.41528e-08 1.75508e-07 0.0335287

0.0264881 0.00121978 1.75654e-07
0.00121978 0.033835 -8.22495e-08
1.75654e-07 -8.22495e-08 0.0288156

0.0398103 -0.00243164 2.13062e-07
-0.00243164 0.0352181 -8.49591e-08
2.13062e-07 -8.49591e-08 0.0354606

0.0188885 0.00316466 -3.12415e-08
0.00316466 0.0278757 -1.56162e-07
-3.12415e-08 -1.56162e-07 0.0162725

0.0338155 -0.0035228 -4.08229e-08
-0.0035228 0.0334945 2.42317e-08
-4.08229e-08 2.42317e-08 0.0337256

0.0353435 -0.00399933 -6.37202e-08
-0.00399933 0.0330462 -1.47799e-07
-6.37202e-08 -1.47799e-07 0.0339035

0.0266854 -9.03509e-05 -1.64582e-07
-9.03509e-05 0.0349176 6.73207e-08
-1.64582e-07 6.73207e-08 0.0299275

0.0332421 -0.00217662 2.93193e-08
-0.00217662 0.0271525 9.72614e-08
2.93193e-08 9.72614e-08 0.0289022

0.029347 0.00168467 -2.03021e-08
0.00168467 0.035819 -2.39802e-08
-2.03021e-08 -2.39802e-08 0.0328792

0.0132073 -0.000379115 1.44373e-07
-0.000379115 0.0283616 8.18457e-08
1.44373e-07 8.18457e-08 0.0111516

0.0271131 0.00186851 2.19876e-07
0.00186851 0.0340608 4.88048e-10
2.19876e-07 4.88048e-10 0.0303057

0.0311085 -0.00385832 3.23988e-08
-0.00385832 0.0291535 9.67195e-08
3.23988e-08 9.67195e-08 0.0288058

0.0186195 0.00320454 5.142e-08
0.00320454 0.030139 7.18679e-08
5.142e-08 7.18679e-08 0.0131266

0.0426002 0.00351784 1.49729e-07
0.00351784 0.0418486 2.32728e-07
1.49729e-07 2.32728e-07 0.0364799

0.043206 -0.00374868 -7.29612e-07
-0.00374868 0.0414175 7.00669e-07
-7.29612e-07 7.00669e-07 0.0364624

0.0310645 -0.00399078 -3.48221e-08
-0.00399078 0.0304706 2.80939e-07
-3.48221e-08 2.80939e-07 0.0304605

0.0289214 -0.00406389 -2.08984e-08
-0.00406389 0.0291499 9.61216e-08
-2.08984e-08 9.61216e-08 0.0275938

0.0330502 0.00272692 -9.13028e-08
0.00272692 0.0275278 7.97766e-08
-9.13028e-08 7.97766e-08 0.0290748

0.0327787 0.00196001 -8.69147e-08
0.00196001 0.0255907 8.78395e-08
-8.69147e-08 8.78395e-08 0.0278222

0.0463995 0.000419477 4.16889e-07
0.000419477 0.0463556 -4.72623e-08
4.16889e-07 -4.72623e-08 0.0366941

0.0469206 -0.000952612 -3.74311e-07
-0.000952612 0.0457683 8.01318e-08
-3.74311e-07 8.01318e-08 0.0367653

0.0347985 0.00063851 1.83281e-07
0.00063851 0.0275723 -5.38296e-08
1.83281e-07 -5.38296e-08 0.0322159

0.0277513 0.00088232 2.24483e-07
0.00088232 0.0355695 -6.9806e-09
2.24483e-07 -6.9806e-09 0.0313479

0.027607 0.000882833 -2.16121e-07
0.000882833 0.0355696 -1.95658e-08
-2.16121e-07 -1.95658e-08 0.0312441

0.0234586 0.00739981 -3.34635e-07
0.00739981 0.0183015 5.8286e-09
-3.34635e-07 5.8286e-09 0.0109013

0.0272464 -0.00367548 -1.40284e-08
-0.00367548 0.0303465 -2.95234e-08
-1.40284e-08 -2.95234e-08 0.0273188

0.0365662 0.00239159 -1.37807e-07
0.00239159 0.0295756 -2.01757e-07
-1.37807e-07 -2.01757e-07 0.0337838

0.0332728 0.00124752 -5.86178e-08
0.00124752 0.0265035 3.33565e-08
-5.86178e-08 3.33565e-08 0.0284311

0.0291515 -0.00349239 -6.51264e-08
-0.00349239 0.0304704 1.53265e-08
-6.51264e-08 1.53265e-08 0.0281725

0.0328103 -0.00264764 -1.61571e-08
-0.00264764 0.0267274 2.70537e-08
-1.61571e-08 2.70537e-08 0.028586

0.0224596 0.00761254 1.26028e-07
0.00761254 0.01859 -3.13004e-07
1.26028e-07 -3.13004e-07 0.0109037

0.0331442 0.00410226 -3.68372e-08
0.00410226 0.0326376 8.58853e-08
-3.68372e-08 8.58853e-08 0.0331809

0.0258895 -0.00257816 -1.14805e-08
-0.00257816 0.0320233 -1.24774e-07
-1.14805e-08 -1.24774e-07 0.0275067

0.0324816 0.00378575 -3.60131e-09
0.00378575 0.0292673 8.77408e-08
-3.60131e-09 8.77408e-08 0.0301462

0.0268152 -0.000543515 -1.40561e-07
-0.000543515 0.0349512 -3.5727e-08
-1.40561e-07 -3.5727e-08 0.0301371

0.0269893 0.00256329 5.13932e-08
0.00256329 0.0324472 1.27037e-07
5.13932e-08 1.27037e-07 0.0282857

0.0305256 0.00399091 -1.56995e-08
0.00399091 0.0293223 8.65014e-08
-1.56995e-08 8.65014e-08 0.0287743

0.0276079 -0.00293706 7.13132e-08
-0.00293706 0.0318534 1.50082e-07
7.13132e-08 1.50082e-07 0.0282482

0.0294553 -0.00357567 1.15043e-08
-0.00357567 0.0303502 -2.79038e-08
1.15043e-08 -2.79038e-08 0.0283042

0.0181373 0.00142539 -4.96492e-08
0.00142539 0.0280355 -7.60359e-08
-4.96492e-08 -7.60359e-08 0.0131272

0.0234731 -0.00429374 1.60105e-07
-0.00429374 0.0275555 2.74296e-07
1.60105e-07 2.74296e-07 0.0177229

0.0262047 -0.00152588 -8.11194e-08
-0.00152588 0.0336226 9.77465e-08
-8.11194e-08 9.77465e-08 0.0287511

0.0330227 0.00347484 1.49312e-07
0.00347484 0.0288771 -6.85466e-08
1.49312e-07 -6.85466e-08 0.0300681

0.030321 0.00385735 -2.00317e-08
0.00385735 0.0298856 9.14115e-08
-2.00317e-08 9.14115e-08 0.0289895

0.0274136 -0.00280048 5.29021e-08
-0.00280048 0.031983 -1.20173e-07
5.29021e-08 -1.20173e-07 0.0281382

0.0265537 -0.00154076 3.39217e-08
-0.00154076 0.0335814 -4.01165e-08
3.39217e-08 -4.01165e-08 0.0287454

0.0309556 0.00371833 2.42826e-08
0.00371833 0.0295627 -1.02912e-07
2.42826e-08 -1.02912e-07 0.0289403

0.0267586 -0.00181617 -1.65431e-07
-0.00181617 0.0334729 7.97203e-08
-1.65431e-07 7.97203e-08 0.0289534

0.0191655 0.0035544 8.28392e-08
0.0035544 0.0276071 1.51603e-07
8.28392e-08 1.51603e-07 0.0162917

0.0308727 -0.00053501 -1.75894e-08
-0.00053501 0.0388186 7.83195e-08
-1.75894e-08 7.83195e-08 0.0342936

0.0286555 0.00404769 -1.83675e-07
0.00404769 0.0295178 -7.95513e-08
-1.83675e-07 -7.95513e-08 0.0277137

0.0355797 0.00197516 -6.9193e-08
0.00197516 0.0295022 -9.90999e-08
-6.9193e-08 -9.90999e-08 0.0328417

0.0362581 -0.00211448 -8.49359e-08
-0.00211448 0.0297543 -8.06973e-08
-8.49359e-08 -8.06973e-08 0.033217

0.0285099 -0.00309567 4.48926e-08
-0.00309567 0.0185685 -2.24207e-07
4.48926e-08 -2.24207e-07 0.0157294

0.0283527 -0.00279008 1.33666e-07
-0.00279008 0.0327738 -1.5487e-07
1.33666e-07 -1.5487e-07 0.0305707

0.0291902 0.00350094 1.48422e-07
0.00350094 0.0315987 -5.54092e-08
1.48422e-07 -5.54092e-08 0.0304865

0.0349591 -0.00290715 -9.41602e-08
-0.00290715 0.0376747 -2.47764e-07
-9.41602e-08 -2.47764e-07 0.0352353

0.0394597 0.00188548 -1.11091e-07
0.00188548 0.0446087 -2.32496e-07
-1.11091e-07 -2.32496e-07 0.0364322

0.0449431 0.00129037 -1.10405e-07
0.00129037 0.0391156 6.127e-08
-1.10405e-07 6.127e-08 0.0364141

0.0355597 0.00434527 -2.72074e-08
0.00434527 0.0351344 3.9345e-08
-2.72074e-08 3.9345e-08 0.0350025

0.026571 0.00338785 7.23903e-08
0.00338785 0.0310052 7.14886e-08
7.23903e-08 7.14886e-08 0.027255

0.0330383 0.00349713 1.08813e-07
0.00349713 0.0286661 3.3272e-08
1.08813e-07 3.3272e-08 0.0300492

0.0220592 0.00576406 -1.29097e-07
0.00576406 0.0242368 4.37589e-08
-1.29097e-07 4.37589e-08 0.0160719

0.0386177 -0.00151218 -7.54145e-08
-0.00151218 0.0444319 -2.25958e-08
-7.54145e-08 -2.25958e-08 0.0363613

0.046048 -0.000463849 -6.53878e-07
-0.000463849 0.0454387 -2.03576e-08
-6.53878e-07 -2.03576e-08 0.0366903

0.0451791 -3.20329e-05 -4.53379e-08
-3.20329e-05 0.0463021 -3.66744e-07
-4.53379e-08 -3.66744e-07 0.0366722

0.0176405 -0.00679462 -6.22176e-08
-0.00679462 0.0231076 -2.81579e-07
-6.22176e-08 -2.81579e-07 0.0107382

0.039292 -0.00155625 1.72124e-07
-0.00155625 0.038714 2.45284e-08
1.72124e-07 2.45284e-08 0.0358527

0.0383962 0.00117665 5.82234e-08
0.00117665 0.0415173 3.5489e-07
5.82234e-08 3.5489e-07 0.0361242

0.0331742 -0.00343556 -5.19e-08
-0.00343556 0.0282188 7.70091e-08
-5.19e-08 7.70091e-08 0.0299026

0.0318438 0.00014064 1.22888e-07
0.00014064 0.0386712 6.4054e-08
1.22888e-07 6.4054e-08 0.0344496

0.028576 -0.00266011 2.12321e-08
-0.00266011 0.0333794 3.57224e-09
2.12321e-08 3.57224e-09 0.0315883

0.0356606 0.000831824 1.87779e-07
0.000831824 0.0273767 -5.05939e-08
1.87779e-07 -5.05939e-08 0.0329992

0.0288752 0.00204417 -7.67705e-09
0.00204417 0.0368157 1.32446e-07
-7.67705e-09 1.32446e-07 0.0336687

0.0298686 0.000946311 -3.39126e-08
0.000946311 0.0373873 1.16513e-07
-3.39126e-08 1.16513e-07 0.0333626

0.0344006 0.00268489 -3.5721e-07
0.00268489 0.0288508 9.26216e-08
-3.5721e-07 9.26216e-08 0.0312254

0.0132789 -0.000409387 -4.98927e-08
-0.000409387 0.0281221 3.19151e-08
-4.98927e-08 3.19151e-08 0.011201

0.0309637 -0.003626 1.13192e-07
-0.003626 0.0309143 -1.317e-08
1.13192e-07 -1.317e-08 0.0306086

0.0329275 -0.00344337 2.32801e-07
-0.00344337 0.03202 -1.20647e-07
2.32801e-07 -1.20647e-07 0.0325784

0.0335698 -0.00415904 2.99924e-08
-0.00415904 0.0325335 1.15688e-07
2.99924e-08 1.15688e-07 0.0337348

0.0265614 0.00414853 1.30366e-07
0.00414853 0.0176911 3.61872e-08
1.30366e-07 3.61872e-08 0.0126048

0.0388275 -0.00269678 -1.21436e-08
-0.00269678 0.0395756 3.32526e-07
-1.21436e-08 3.32526e-07 0.0359576

0.0230823 0.0069206 -2.83656e-07
0.0069206 0.0255013 -1.63315e-07
-2.83656e-07 -1.63315e-07 0.0126091

0.0308737 -0.0028174 2.27304e-07
-0.0028174 0.0348067 2.88499e-12
2.27304e-07 2.88499e-12 0.0339554

0.0354107 0.00193632 1.18127e-07
0.00193632 0.028465 8.63121e-08
1.18127e-07 8.63121e-08 0.0323437

0.0318202 -0.00189337 3.2804e-09
-0.00189337 0.0249502 8.60326e-08
3.2804e-09 8.60326e-08 0.0253947

0.0292915 0.00315917 1.44678e-07
0.00315917 0.032731 -4.41716e-08
1.44678e-07 -4.41716e-08 0.0312788

0.034436 0.00268857 -2.79009e-07
0.00268857 0.0286336 -9.29875e-08
-2.79009e-07 -9.29875e-08 0.03122

0.032518 0.00149882 -3.51027e-08
0.00149882 0.0403731 -1.03534e-07
-3.51027e-08 -1.03534e-07 0.0353357

0.0319393 -0.00415454 -4.2031e-08
-0.00415454 0.0312005 6.87621e-08
-4.2031e-08 6.87621e-08 0.0318098

0.0396756 0.0026555 -2.74115e-09
0.0026555 0.0331976 6.96192e-08
-2.74115e-09 6.96192e-08 0.0353152

0.0279707 -0.00241843 1.95525e-08
-0.00241843 0.0335501 5.33118e-09
1.95525e-08 5.33118e-09 0.0304697

0.0293502 0.000558761 -5.43131e-08
0.000558761 0.0373111 1.14341e-07
-5.43131e-08 1.14341e-07 0.0332518

0.041943 0.00133767 -7.4295e-08
0.00133767 0.0370997 -7.4962e-08
-7.4295e-08 -7.4962e-08 0.0361155

0.0420973 -0.00114776 2.47302e-09
-0.00114776 0.0373259 -3.10331e-08
2.47302e-09 -3.10331e-08 0.0360974

0.0283826 0.002369 -1.52128e-07
0.002369 0.0181812 7.84831e-08
-1.52128e-07 7.84831e-08 0.0159494

0.0350249 0.00106111 1.10369e-07
0.00106111 0.0285654 8.68139e-08
1.10369e-07 8.68139e-08 0.0330582

0.0128667 0.000923333 -4.299e-08
0.000923333 0.031626 -1.87347e-08
-4.299e-08 -1.87347e-08 0.00612158

0.0131623 -0.00138812 1.41428e-07
-0.00138812 0.0321318 -2.26435e-08
1.41428e-07 -2.26435e-08 0.0061119

0.0152685 0.00715413 -1.24206e-07
0.00715413 0.0284526 1.02473e-09
-1.24206e-07 1.02473e-09 0.00598402

0.0347633 -0.0038209 5.55401e-08
-0.0038209 0.0312673 -1.56827e-07
5.55401e-08 -1.56827e-07 0.0329383

0.0155805 -0.00619414 -1.16774e-07
-0.00619414 0.0261525 9.51397e-08
-1.16774e-07 9.51397e-08 0.0104718

0.0155127 -0.0070867 -1.69152e-07
-0.0070867 0.0274232 -1.4155e-07
-1.69152e-07 -1.4155e-07 0.00591383

0.0284253 0.0034256 -1.46651e-08
0.0034256 0.0310055 7.12173e-08
-1.46651e-08 7.12173e-08 0.028152

0.0251931 0.00932573 2.45042e-07
0.00932573 0.0190205 -1.78468e-07
2.45042e-07 -1.78468e-07 0.00593373

0.0365375 0.00173182 1.08882e-07
0.00173182 0.0385514 2.09474e-09
1.08882e-07 2.09474e-09 0.0354744

0.039534 2.52127e-05 1.41665e-07
2.52127e-05 0.0355393 6.10098e-09
1.41665e-07 6.10098e-09 0.0354551

0.0261068 -0.00924429 2.94555e-07
-0.00924429 0.0188123 2.02101e-07
2.94555e-07 2.02101e-07 0.0058879

0.0276893 -0.003065 5.05587e-10
-0.003065 0.0320941 -3.22417e-08
5.05587e-10 -3.22417e-08 0.0296221

0.0262547 0.00441804 1.89972e-07
0.00441804 0.0201576 -1.92917e-07
1.89972e-07 -1.92917e-07 0.0130443

0.017279 0.00797293 1.51926e-07
0.00797293 0.0271486 1.24977e-07
1.51926e-07 1.24977e-07 0.0059877

0.0181959 0.00275505 -5.55332e-08
0.00275505 0.0275891 -7.5029e-08
-5.55332e-08 -7.5029e-08 0.0128498

0.0173039 -0.00827614 -9.304e-08
-0.00827614 0.027152 4.49221e-08
-9.304e-08 4.49221e-08 0.00581365

0.0179326 -0.00157096 1.67477e-07
-0.00157096 0.0280049 -8.66264e-08
1.67477e-07 -8.66264e-08 0.0126902

0.0370497 0.000923383 -7.88373e-08
0.000923383 0.0412996 -1.49768e-08
-7.88373e-08 -1.49768e-08 0.0358093

0.0221308 -0.00585504 2.77209e-07
-0.00585504 0.0236642 -1.15789e-07
2.77209e-07 -1.15789e-07 0.0151585

0.0156999 0.005986 1.01054e-10
0.005986 0.0259018 -2.02249e-07
1.01054e-10 -2.02249e-07 0.0107499

0.0302082 0.00473002 4.21113e-08
0.00473002 0.0143491 2.77631e-07
4.21113e-08 2.77631e-07 0.00611572

0.0329379 -0.00384921 -2.34066e-07
-0.00384921 0.0301232 6.81721e-09
-2.34066e-07 6.81721e-09 0.0310505

0.030888 0.00169406 -4.25609e-08
0.00169406 0.0368422 1.33986e-07
-4.25609e-08 1.33986e-07 0.0339495

0.0260894 -0.00484374 1.65003e-08
-0.00484374 0.0191968 3.20728e-07
1.65003e-08 3.20728e-07 0.0126947

0.0330001 -0.00378578 -2.27555e-07
-0.00378578 0.0300743 2.22953e-08
-2.27555e-07 2.22953e-08 0.0311269

0.0300184 -0.00451979 9.74608e-08
-0.00451979 0.0130533 -3.73484e-07
9.74608e-08 -3.73484e-07 0.00603717

0.0324726 -0.00372718 -1.68499e-07
-0.00372718 0.0313068 -1.16735e-07
-1.68499e-07 -1.16735e-07 0.0319786

0.0280903 -0.00331105 1.85451e-07
-0.00331105 0.0320032 4.05272e-10
1.85451e-07 4.05272e-10 0.0296246

0.0234431 0.00874352 -5.60707e-09
0.00874352 0.0204825 2.70295e-07
-5.60707e-09 2.70295e-07 0.00602602

0.0181993 -0.0029207 -2.67109e-07
-0.0029207 0.0268659 -2.6286e-07
-2.67109e-07 -2.6286e-07 0.0122697

0.0233143 -0.00901911 1.53805e-07
-0.00901911 0.0201517 2.82558e-07
1.53805e-07 2.82558e-07 0.00588385

0.0170821 0.00640807 1.45103e-09
0.00640807 0.0235657 1.62748e-07
1.45103e-09 1.62748e-07 0.0108308

0.0308254 -0.00396004 1.09679e-07
-0.00396004 0.0301594 -2.36251e-08
1.09679e-07 -2.36251e-08 0.0300848

0.0389169 -0.00195857 1.11798e-07
-0.00195857 0.0369404 -1.81827e-07
1.11798e-07 -1.81827e-07 0.0354988

0.045541 0.00150612 -2.21603e-07
0.00150612 0.0449514 -4.14293e-07
-2.21603e-07 -4.14293e-07 0.0366184

0.0435642 -0.000711784 3.09975e-07
-0.000711784 0.0462317 -5.54191e-08
3.09975e-07 -5.54191e-08 0.0365841

0.028615 0.00171595 1.1829e-07
0.00171595 0.0355653 -2.12671e-07
1.1829e-07 -2.12671e-07 0.0323888

0.0453362 -0.00144722 2.68933e-07
-0.00144722 0.0449791 2.66279e-07
2.68933e-07 2.66279e-07 0.0366361

0.0438079 0.000567661 1.04411e-07
0.000567661 0.0465063 1.8844e-07
1.04411e-07 1.8844e-07 0.0366173

0.0466785 0.000991325 -4.76918e-08
0.000991325 0.0433769 -5.04092e-08
-4.76918e-08 -5.04092e-08 0.0365923

0.03975 -0.00163932 1.56238e-07
-0.00163932 0.0460747 5.51719e-08
1.56238e-07 5.51719e-08 0.0364821

0.0190535 -0.00388721 -4.27533e-07
-0.00388721 0.0272302 6.43764e-08
-4.27533e-07 6.43764e-08 0.0154708

0.0421415 -0.00175024 -5.27853e-08
-0.00175024 0.0367251 -1.48699e-07
-5.27853e-08 -1.48699e-07 0.036004

0.0359638 -0.00457321 -1.72531e-07
-0.00457321 0.0351499 6.21264e-08
-1.72531e-07 6.21264e-08 0.0349674

0.0397526 -0.00242164 2.02733e-07
-0.00242164 0.0360632 1.68214e-07
2.02733e-07 1.68214e-07 0.0355665

0.0351837 0.00204322 2.36443e-07
0.00204322 0.0285482 -6.01785e-08
2.36443e-07 -6.01785e-08 0.0322311

0.0396921 0.00133791 2.64758e-07
0.00133791 0.0472264 2.71633e-07
2.64758e-07 2.71633e-07 0.0365479

0.0464963 0.00259328 -1.02167e-07
0.00259328 0.0404181 -3.14862e-07
-1.02167e-07 -3.14862e-07 0.0365292

0.0400867 0.00150538 -2.92741e-08
0.00150538 0.0366733 4.01793e-08
-2.92741e-08 4.01793e-08 0.0356145

0.027914 -0.00191984 -2.36679e-07
-0.00191984 0.0125244 -3.3961e-07
-2.36679e-07 -3.3961e-07 0.0106243

0.0283181 0.00326748 -6.48896e-08
0.00326748 0.0315487 -1.37941e-07
-6.48896e-08 -1.37941e-07 0.02941

0.0231876 -0.00773573 9.10548e-08
-0.00773573 0.0181795 3.34518e-07
9.10548e-08 3.34518e-07 0.0102892

0.0228302 -0.00731553 2.92319e-08
-0.00731553 0.0257681 1.13215e-07
2.92319e-08 1.13215e-07 0.0119543

0.0290219 -0.00464687 -3.025e-07
-0.00464687 0.0191279 -1.58931e-07
-3.025e-07 -1.58931e-07 0.0126148

0.0375738 -0.000660683 -1.18666e-07
-0.000660683 0.0449116 3.20825e-07
-1.18666e-07 3.20825e-07 0.0362931

0.0375715 0.000358147 -1.85844e-07
0.000358147 0.0447888 -4.08352e-07
-1.85844e-07 -4.08352e-07 0.0362733

0.0426052 -0.00327475 2.62372e-07
-0.00327475 0.03945 -1.95028e-07
2.62372e-07 -1.95028e-07 0.0362272

0.0429973 -0.00294491 7.15803e-08
-0.00294491 0.0391685 7.56587e-08
7.15803e-08 7.56587e-08 0.0362341

0.0425015 0.00350473 7.02404e-08
0.00350473 0.0399723 2.72979e-07
7.02404e-08 2.72979e-07 0.036272

0.0443965 0.000416939 -2.02017e-07
0.000416939 0.0450837 3.2275e-07
-2.02017e-07 3.2275e-07 0.0366353

0.0426089 -0.00274478 -3.08144e-07
-0.00274478 0.0395067 1.44583e-07
-3.08144e-07 1.44583e-07 0.0362888

0.0426027 -0.00251089 -4.81677e-07
-0.00251089 0.0442661 -5.49371e-07
-4.81677e-07 -5.49371e-07 0.0365629

0.0451178 0.000332266 5.35635e-08
0.000332266 0.0454673 4.00547e-07
5.35635e-08 4.00547e-07 0.0366536

0.0436363 -0.00278318 -1.95464e-07
-0.00278318 0.0389162 -1.18903e-07
-1.95464e-07 -1.18903e-07 0.0363294

0.0435121 0.00283879 -1.28961e-07
0.00283879 0.039069 -3.60324e-08
-1.28961e-07 -3.60324e-08 0.0363674

0.0451927 -0.000470172 -1.87588e-07
-0.000470172 0.0455815 7.70068e-08
-1.87588e-07 7.70068e-08 0.0367023

0.0452258 -0.000426227 -2.35103e-07
-0.000426227 0.0443626 5.06424e-07
-2.35103e-07 5.06424e-07 0.0367206

0.0427981 0.00163846 1.71962e-07
0.00163846 0.0442484 -1.74531e-07
1.71962e-07 -1.74531e-07 0.0366067

0.041116 0.00361825 6.04223e-08
0.00361825 0.0405161 1.62203e-07
6.04223e-08 1.62203e-07 0.0363213

SCALARS pressure float
LOOKUP_TABLE default
-60.0506
19.3082
5.80326
21.2901
15.8788
5.88722
-58.6737
7.78301
-3.80499
15.1245
-24.4316
7.61716
5.59198
12.2791
23.3377
5.53886
18.5208
13.2071
-0.693011
6.7564
-0.904962
33.1349
5.80062
5.7967
6.60169
14.9027
-38.3848
6.67154
-15.2423
30.6264
5.1762
-15.6571
-42.0558
27.3262
20.7792
27.3591
31.8847
19.8091
4.85949
-42.5991
-17.4073
31.9055
31.9936
5.99345
-21.8048
-15.9758
-1.05259
-3.4056
6.54465
-16.2177
-18.9187
-15.3459
20.7556
-15.3731
20.3088
-33.1484
21.1297
-15.4602
21.1395
7.04475
21.7647
16.1188
-45.5616
12.7897
16.3621
10.905
21.5739
13.828
5.77333
21.8169
20.8117
20.7823
-17.6909
11.6005
3.97383
-31.6093
14.3567
10.9961
14.146
-8.72011
-28.9446
14.9777
20.163
-22.0377
-23.4293
-28.0917
7.09762
9.63229
-22.2156
37.7417
-15.509
38.4443
18.3045
10.7614
-15.1665
-15.8727
-30.2211
14.7533
14.3657
4.59858
-10.7663
-21.9394
-25.1013
16.2128
14.1001
14.9615
18.6974
3.7746
-24.5582
26.5131
7.21738
-21.4088
-24.6118
14.8377
15.0779
-16.1456
20.165
-29.113
20.6286
-16.7293
-2.90488
23.8339
21.727
16.0328
26.6797
22.6316
21.7857
15.7084
-29.7807
-16.0989
24.0917
21.6172
20.9893
22.0656
-22.0138
23.5873
-33.8371
5.46326
21.7543
23.6306
-21.9367
6.67632
-5.96686
15.0834
-30.4073
15.6238
7.83305
2.40742
5.17761
-9.3946
-0.458175
22.6415
-15.4546
5.29088
15.204
21.5604
11.5081
-21.1132
-21.2637
10.7903
-2.84291
-15.1976
-21.2203
-15.1652
-20.9864
15.2796
-20.6358
-21.2015
-15.2078
-21.0637
19.0043
-15.941
-14.8244
12.0643
-14.4847
18.8028
19.0534
7.47258
18.0479
11.7729
-16.249
15.2881
14.9608
-21.5284
10.4264
-14.2213
16.0485
14.5954
17.0818
14.835
10.3437
-26.9761
-16.0822
-15.9581
21.9069
14.5256
14.6245
20.9226
22.4869
9.50255
21.7336
-0.384917
-8.17099
20.7787
-17.8387
19.9456
10.3641
-21.5175
15.7211
22.5261
14.7312
9.39332
14.1897
21.0556
-7.83305
8.82742
-7.90885
14.6482
26.9277
26.5814
27.9605
26.3886
26.7243
26.291
13.8257
23.4303
24.0295
23.9737
23.4
21.1927
21.8573
-8.2631
15.9334
28.1911
-3.18897
23.5761
23.2054
27.8344
-8.4938
28.0965
15.3445
-7.58188
17.4921
-8.25807
20.2271
29.6128
-7.48626
-8.10103
-29.5918
-18.189
19.5272
-31.9852
5.73405
-7.79422
-1.18984
28.2492
26.6403
30.4268
26.761
-34.8007
-8.17992
28.3374
8.07258
-8.29543
26.446
-6.29559
30.4717
-7.95435
27.0472
14.5659
14.787
23.8452
10.0473
18.021
8.11677
-29.8597
-24.5529
16.8068
1.7593
8.17923
-13.6089
17.4357
11.6997
-8.10178
9.45193
-10.8236
7.51663
-10.7548
-8.485
33.2648
19.1517
25.0884
25.3127
13.829
-10.4047
26.43
14.6849
-1.6594
-10.2741
-12.5644
17.5066
-7.48552
17.5745
-12.0414
-21.3503
-10.6084
-34.681
15.5623
-7.76325
34.4429
-11.5781
16.8713
-8.40903
15.9726
-12.7584
4.28875
-51.1178
8.52129
-7.74692
21.3338
-8.15243
-0.123313
10.7152
21.1241
-12.0609
-10.201
-6.06865
14.3178
-10.1802
6.88757
6.38526
16.3054
-10.4197
-6.33076
-1.70277
-5.66086
-11.0787
-5.84508
15.3054
7.80759
-5.55645
-8.96073
7.80502
7.69388
-10.6748
16.3093
-27.2132
2.29256
-28.481
-0.958028
-8.87805
-8.09635
-11.779
-10.9426
-9.88094
-7.77595
-7.89931
16.6377
24.778
12.1156
-0.292159
-0.825714
-5.67502
7.30475
-6.32112
-6.31841
24.9238
-5.73045
14.1179
-15.9084
24.3253
5.96762
-0.391715
-5.64431
16.2749
2.47656
0.1985
2.44754
0.455369
-0.741407
-9.93055
-0.0961556
2.11272
15.0689
-1.28884
-1.40772
-0.999379
-0.389135
1.96475
8.05023
-1.19412
8.07767
5.58268
-0.436197
7.03477
5.48972
-3.87699
16.4765
-1.90393
23.0622
-21.9732
15.044
15.6822
2.0391
-1.99801
12.5426
-26.5058
5.79171
-1.65845
-50.4822
30.4988
30.6354
5.82434
-1.14492
-1.04734
-0.850253
33.4195
33.2942
13.0945
6.08142
6.66189
-28.9619
-1.27999
16.5333
-3.18322
-4.34862
-0.017505
-25.2705
14.303
-1.28076
2.86124
2.69264
-2.72379
-0.0498838
-3.21001
-4.03407
-37.9817
-33.683
-0.12859
1.87393
-0.534639
-3.74471
-1.93712
-1.87825
-0.924863
-21.9071
17.2495
-0.769891
12.5648
14.1834
-26.7637
6.28575
7.1363
18.4778
36.4286
36.4611
22.6387
-1.75637
2.59908
-20.9293
36.1272
32.7609
32.8278
-24.8079
21.7758
30.524
2.59857
15.7239
10.3708
17.1641
17.726
12.5053
5.68087
-25.3973
4.25954
10.409
16.2438
-31.7091
28.3102
-52.7092
18.6848
10.2986
-10.6277
7.41686
5.45657
24.4746
9.41061
24.4076
4.10463
12.3996
30.6412
29.4669
-22.9898
17.4352
-70.2281
-74.3745
-67.1721
11.648
-31.259
-63.6056
-3.80401
-69.9336
16.4632
16.4069
-73.7497
5.21155
-39.7288
-70.7341
-37.7547
-71.8704
-39.4502
21.1371
-23.9596
-29.043
-70.618
4.83089
15.7574
-36.1886
6.05298
-63.6133
9.83549
3.88108
-67.8966
-37.6223
-66.4062
-23.7545
5.0285
20.5264
35.3728
36.7286
11.8116
36.8525
36.9058
36.4941
36.4061
-24.4783
28.2488
20.6691
21.9809
11.5341
36.062
36.0934
18.1203
-23.9393
3.24598
-30.5252
-56.5952
-50.4724
36.145
35.8258
35.3824
35.4526
36.161
35.6008
33.1114
37.3727
35.4021
36.0078
35.6401
34.1985
34.3351
35.8582
35.3111
