# vtk DataFile Version 3.0
vtk output at time 120
ASCII
DATASET UNSTRUCTURED_GRID
POINTS 626 float
-3.68058e-05 0.000978749 0 3.68058e-05 0.000978749 0 -0.000829194 0.00052125 0 
-0.0008235 0.0005 0 -0.000866 0.0004575 0 -0.000866 -0.0004575 0 
-0.0008235 -0.0005 0 -0.000829194 -0.00052125 0 -3.68058e-05 -0.000978749 0 
3.68058e-05 -0.000978749 0 0.000829194 -0.00052125 0 0.000866 -0.0004575 0 
0.000866 0.0004575 0 0.000829194 0.00052125 0 8.5e-05 0 0 
-3.68058e-05 0.000978749 -0.001 3.68058e-05 0.000978749 -0.001 -0.000829194 0.00052125 -0.001 
-0.0008235 0.0005 -0.001 -0.000866 0.0004575 -0.001 -0.000866 -0.0004575 -0.001 
-0.0008235 -0.0005 -0.001 -0.000829194 -0.00052125 -0.001 -3.68058e-05 -0.000978749 -0.001 
3.68058e-05 -0.000978749 -0.001 0.000829194 -0.00052125 -0.001 0.000866 -0.0004575 -0.001 
0.000866 0.0004575 -0.001 0.000829194 0.00052125 -0.001 8.5e-05 0 -0.001 
8.46223e-17 0.0009575 0 -0.000715996 0.000586607 0 -0.000602797 0.000651965 0 
-0.000489599 0.000717321 0 -0.000376401 0.000782678 0 -0.000263202 0.000848036 0 
-0.000150004 0.000913393 0 -0.000835948 0.000469948 0 -0.000866 -0.000326786 0 
-0.000866 -0.000196071 0 -0.000866 -6.53571e-05 0 -0.000866 6.53571e-05 0 
-0.000866 0.000196071 0 -0.000866 0.000326786 0 -0.000835948 -0.000469948 0 
-0.000150004 -0.000913393 0 -0.000263202 -0.000848036 0 -0.000376401 -0.000782678 0 
-0.000489599 -0.000717321 0 -0.000602797 -0.000651965 0 -0.000715996 -0.000586607 0 
8.47648e-17 -0.0009575 0 0.000715996 -0.000586607 0 0.000602797 -0.000651965 0 
0.000489599 -0.000717321 0 0.000376401 -0.000782678 0 0.000263202 -0.000848036 0 
0.000150004 -0.000913393 0 0.000829194 -0.00047875 0 0.000866 0.000326786 0 
0.000866 0.000196071 0 0.000866 6.53571e-05 0 0.000866 -6.53571e-05 0 
0.000866 -0.000196071 0 0.000866 -0.000326786 0 0.000829194 0.00047875 0 
0.000150004 0.000913393 0 0.000263202 0.000848036 0 0.000376401 0.000782678 0 
0.000489599 0.000717321 0 0.000602797 0.000651965 0 0.000715996 0.000586607 0 
5.29966e-05 6.64557e-05 0 -1.89143e-05 8.28689e-05 0 -7.65824e-05 3.68801e-05 0 
-7.65824e-05 -3.68801e-05 0 -1.89143e-05 -8.28689e-05 0 5.29966e-05 -6.64557e-05 0 
8.46223e-17 0.0009575 -0.001 -0.000715996 0.000586607 -0.001 -0.000602797 0.000651965 -0.001 
-0.000489599 0.000717321 -0.001 -0.000376401 0.000782678 -0.001 -0.000263202 0.000848036 -0.001 
-0.000150004 0.000913393 -0.001 -0.000835948 0.000469948 -0.001 -0.000866 -0.000326786 -0.001 
-0.000866 -0.000196071 -0.001 -0.000866 -6.53571e-05 -0.001 -0.000866 6.53571e-05 -0.001 
-0.000866 0.000196071 -0.001 -0.000866 0.000326786 -0.001 -0.000835948 -0.000469948 -0.001 
-0.000150004 -0.000913393 -0.001 -0.000263202 -0.000848036 -0.001 -0.000376401 -0.000782678 -0.001 
-0.000489599 -0.000717321 -0.001 -0.000602797 -0.000651965 -0.001 -0.000715996 -0.000586607 -0.001 
8.47648e-17 -0.0009575 -0.001 0.000715996 -0.000586607 -0.001 0.000602797 -0.000651965 -0.001 
0.000489599 -0.000717321 -0.001 0.000376401 -0.000782678 -0.001 0.000263202 -0.000848036 -0.001 
0.000150004 -0.000913393 -0.001 0.000829194 -0.00047875 -0.001 0.000866 0.000326786 -0.001 
0.000866 0.000196071 -0.001 0.000866 6.53571e-05 -0.001 0.000866 -6.53571e-05 -0.001 
0.000866 -0.000196071 -0.001 0.000866 -0.000326786 -0.001 0.000829194 0.00047875 -0.001 
0.000150004 0.000913393 -0.001 0.000263202 0.000848036 -0.001 0.000376401 0.000782678 -0.001 
0.000489599 0.000717321 -0.001 0.000602797 0.000651965 -0.001 0.000715996 0.000586607 -0.001 
5.29966e-05 6.64557e-05 -0.001 -1.89143e-05 8.28689e-05 -0.001 -7.65824e-05 3.68801e-05 -0.001 
-7.65824e-05 -3.68801e-05 -0.001 -1.89143e-05 -8.28689e-05 -0.001 5.29966e-05 -6.64557e-05 -0.001 
0.000131234 6.38474e-05 0 0.00012964 -6.2443e-05 0 3.13827e-05 0.0001394 0 
3.12554e-05 -0.000136939 0 -0.000140461 8.25467e-19 0 -8.90565e-05 -0.000102707 0 
-9.04142e-05 0.000102872 0 -0.000765769 -0.00025965 0 -0.000756873 0.000262774 0 
-0.00015609 0.000787505 0 -0.000155807 -0.00079355 0 0.000605069 0.000528035 0 
0.000608694 -0.00052497 0 0.000744069 0.000116929 0 -0.000494418 0.000596218 0 
-0.000483866 -0.000584648 0 0.000269496 0.000702219 0 0.000263201 -0.000717324 0 
0.000754429 -0.000127825 0 -0.000748858 5.84659e-07 0 -0.000747838 0.000373886 0 
-0.0006542 0.000324842 0 -0.000645137 0.000210123 0 -0.000550884 0.000274171 0 
-0.000538857 0.000163195 0 -0.00045062 0.000224461 0 -0.000438393 0.000123907 0 
-0.000354088 0.000181668 0 -0.000363908 0.000282171 0 -0.000270361 0.000239477 0 
-0.000279138 0.000337653 0 -0.000188888 0.000294791 0 -0.000196448 0.000393271 0 
-0.000104767 0.000348259 0 -0.000113332 0.000449012 0 -2.01066e-05 0.000403223 0 
-2.89189e-05 0.000507105 0 6.9524e-05 0.000461596 0 -0.000213644 0.000490203 0 
7.33757e-05 0.000357726 0 0.000163331 0.00041299 0 0.000163359 0.000313022 0 
0.000248077 0.000366368 0 0.000250914 0.000265758 0 0.000335709 0.000322266 0 
0.000340555 0.000218148 0 0.000427299 0.000276717 0 0.000431508 0.000173093 0 
0.000328731 0.000425633 0 0.00034586 0.000114823 0 0.000435362 7.05241e-05 0 
0.000350892 1.5455e-05 0 0.000441547 -3.11896e-05 0 0.000353547 -8.47783e-05 0 
0.000445767 -0.000132964 0 0.000356135 -0.000186358 0 0.000449094 -0.000234674 0 
0.000359978 -0.000287876 0 0.00026856 -0.000240545 0 0.000271895 -0.000341045 0 
0.000181792 -0.00029305 0 0.00018533 -0.000392851 0 9.75701e-05 -0.00034483 0 
9.98764e-05 -0.000444884 0 8.75116e-06 -0.000396343 0 1.20916e-05 -0.000500496 0 
-7.83929e-05 -0.000449843 0 -8.1471e-05 -0.000347249 0 -0.000171566 -0.000403733 0 
-0.000169889 -0.000298891 0 -0.000259867 -0.000354132 0 -0.000257696 -0.000249137 0 
-0.00034313 -0.000299896 0 -0.000344514 -0.000199127 0 -0.000434309 -0.000250039 0 
-0.000169832 -0.000505815 0 -0.000435227 -0.000146227 0 0.000280331 -0.000442424 0 
-0.000340889 8.76793e-05 0 -0.000515252 4.06198e-05 0 6.50491e-05 0.000568253 0 
0.00053278 1.74743e-05 0 0.000522071 0.000229831 0 -0.00037162 0.000391659 0 
-0.000255272 -0.000150439 0 -0.000442893 -0.000350705 0 0.000450067 -0.000332559 0 
0.000545175 -0.000276306 0 -0.000527797 -0.000197598 0 0.000105306 -0.000551033 0 
1.45836e-05 -0.000609147 0 0.00017145 0.000214453 0 0.000515525 0.000341711 0 
0.000636086 0.000290368 0 -0.000558657 0.000404468 0 -4.01232e-05 0.000616718 0 
6.60192e-05 0.000696422 0 -0.000101806 0.0002546 0 0.000271142 -3.88908e-05 0 
0.000179455 -0.00018534 0 -8.79553e-05 -0.000254307 0 -0.000749267 -0.000373451 0 
-0.000655941 -0.000323397 0 0.000709746 0.000466718 0 0.000698426 -0.000473086 0 
-5.25801e-05 -0.00084886 0 -4.93005e-05 0.000848038 0 0.000617396 -0.000413362 0 
0.000702056 -0.000369817 0 0.000131459 -0.000679171 0 2.48171e-05 -0.000715924 0 
-0.000664217 -0.00042729 0 -0.000528828 -8.80444e-05 0 -0.000611101 -0.000136672 0 
-0.000426972 -4.45841e-05 0 0.000800669 0.000378216 0 0.000821144 -0.000415062 0 
7.2799e-05 0.00088254 0 6.81831e-05 -0.00087503 0 0.000104963 -0.000788946 0 
-7.40696e-05 -0.000660054 0 0.000126061 0.000809943 0 0.000764361 0.000295682 0 
0.000166862 0.000630623 0 0.000516462 -0.00046707 0 -0.000563585 -0.000389606 0 
-0.000622598 -1.40238e-05 0 0.000629891 0.000171529 0 2.5614e-06 -0.000299794 0 
8.6901e-05 -0.00024329 0 0.000272045 -0.000136982 0 -0.00075148 0.000138321 0 
0.000209366 -0.000599589 0 0.000324913 -0.000630055 0 0.000614044 0.00041245 0 
0.00049651 -0.000573327 0 0.000394822 -0.000507321 0 -0.000173714 -0.000206698 0 
0.000264897 5.63722e-05 0 0.000247997 0.000152811 0 -4.63327e-05 -0.000920208 0 
9.18688e-05 0.000258626 0 -5.54111e-06 0.000290558 0 -0.000184219 0.000201484 0 
-0.000263559 0.000142267 0 -0.000256427 5.13624e-05 0 -0.000336894 -2.06179e-06 0 
-0.000228499 -4.2388e-05 0 -0.00017589 0.000106626 0 -0.000769947 -0.000133367 0 
0.000767591 -0.000500293 0 -5.05874e-05 0.000737978 0 0.000754456 -3.51771e-06 0 
0.00064691 -6.15298e-05 0 0.000630483 -0.00018134 0 0.000749187 -0.000265543 0 
-0.000760805 -0.000462521 0 0.000638155 6.09315e-05 0 -4.46661e-05 0.000922995 0 
-2.37945e-05 0.000207237 0 0.000776979 0.000500181 0 -0.000605691 0.000527596 0 
-0.000377914 -0.000653727 0 -0.000372325 -0.000526022 0 -0.000275829 -0.000589621 0 
-0.000254285 -0.000710579 0 -0.000379307 0.000656222 0 -0.000379818 0.00052718 0 
-0.000266817 0.000721555 0 -0.000150544 0.000668174 0 0.000381963 0.00065079 0 
0.000493113 0.000590432 0 0.000505439 0.000463708 0 -0.000269094 0.000596608 0 
0.000385815 0.000532045 0 0.000283599 0.0005899 0 -0.000176405 -0.000108505 0 
-0.000278769 -0.000475415 0 0.000185395 2.33014e-06 0 0.000186773 0.000517571 0 
0.000540032 -8.68444e-05 0 -0.000600694 -0.000514877 0 -0.00063703 8.98033e-05 0 
-0.000459677 0.000335729 0 -0.000338836 -0.000100751 0 -0.000457327 0.000432721 0 
-8.72007e-06 -0.000210238 0 0.000156073 0.000129496 0 -7.70692e-05 -0.000555049 0 
0.00036091 -0.000389728 0 0.000531628 0.000120564 0 -0.000285451 0.000435562 0 
0.000192719 -0.000494604 0 0.00041642 0.00039368 0 -0.000135943 0.000554637 0 
-0.000170665 -0.000610079 0 -0.000666304 0.000434981 0 -0.000758736 0.000479231 0 
-0.000470189 -0.000458901 0 0.000203433 -8.59809e-05 0 0.000101846 0.000170114 0 
-0.00035513 -0.00040726 0 0.000100184 -0.000165831 0 2.96286e-05 0.00081537 0 
0.000720946 0.000381836 0 -0.000539809 -0.000292001 0 0.00052211 -0.000182426 0 
-6.41339e-05 -0.000753908 0 0.000638039 -0.000299861 0 -0.000605136 -0.000230182 0 
-3.41638e-05 -0.000145561 0 -0.000104037 0.000172396 0 -0.000808575 -0.00042774 0 
-0.000807207 -0.000465052 0 -0.00080817 0.000429771 0 -0.000806589 0.000469738 0 
-9.50634e-05 -0.000178909 0 0.000247777 0.000445058 0 1.48293e-05 -0.000814201 0 
-4.11555e-05 0.000140955 0 0.000276104 -0.000536845 0 0.000765969 -0.000436638 0 
0.000780871 -0.000362769 0 0.000424176 -0.000642018 0 0.00053413 -0.000368009 0 
-0.000416333 4.17911e-05 0 -0.000133891 -6.23822e-05 0 4.2574e-05 0.000206312 0 
0.000141163 -0.000121542 0 0.000707423 0.000212137 0 0.000172327 0.000723882 0 
7.72652e-06 -0.00090254 0 -0.000134435 5.66935e-05 0 -0.000188826 3.70894e-05 0 
0.000197119 8.09714e-05 0 1.27801e-05 0.000917296 0 0.000800767 0.00044758 0 
-0.000686682 0.000507104 0 9.35831e-05 0.000110457 0 -0.000696793 -0.000509595 0 
-0.00068446 -8.52012e-05 0 -0.000691033 -0.000201242 0 5.24052e-05 -0.000189075 0 
-0.000151818 -0.000701092 0 -0.000296988 0.000518087 0 9.31023e-05 -0.000108117 0 
0.00044261 -0.000416726 0 0.000197044 -0.000784423 0 -0.000516861 0.000504567 0 
0.000298997 0.000502377 0 0.000131234 6.38474e-05 -0.001 0.00012964 -6.2443e-05 -0.001 
3.13827e-05 0.0001394 -0.001 3.12554e-05 -0.000136939 -0.001 -0.000140461 8.25467e-19 -0.001 
-8.90565e-05 -0.000102707 -0.001 -9.04142e-05 0.000102872 -0.001 -0.000765769 -0.00025965 -0.001 
-0.000756873 0.000262774 -0.001 -0.00015609 0.000787505 -0.001 -0.000155807 -0.00079355 -0.001 
0.000605069 0.000528035 -0.001 0.000608694 -0.00052497 -0.001 0.000744069 0.000116929 -0.001 
-0.000494418 0.000596218 -0.001 -0.000483866 -0.000584648 -0.001 0.000269496 0.000702219 -0.001 
0.000263201 -0.000717324 -0.001 0.000754429 -0.000127825 -0.001 -0.000748858 5.84659e-07 -0.001 
-0.000747838 0.000373886 -0.001 -0.0006542 0.000324842 -0.001 -0.000645137 0.000210123 -0.001 
-0.000550884 0.000274171 -0.001 -0.000538857 0.000163195 -0.001 -0.00045062 0.000224461 -0.001 
-0.000438393 0.000123907 -0.001 -0.000354088 0.000181668 -0.001 -0.000363908 0.000282171 -0.001 
-0.000270361 0.000239477 -0.001 -0.000279138 0.000337653 -0.001 -0.000188888 0.000294791 -0.001 
-0.000196448 0.000393271 -0.001 -0.000104767 0.000348259 -0.001 -0.000113332 0.000449012 -0.001 
-2.01066e-05 0.000403223 -0.001 -2.89189e-05 0.000507105 -0.001 6.9524e-05 0.000461596 -0.001 
-0.000213644 0.000490203 -0.001 7.33757e-05 0.000357726 -0.001 0.000163331 0.00041299 -0.001 
0.000163359 0.000313022 -0.001 0.000248077 0.000366368 -0.001 0.000250914 0.000265758 -0.001 
0.000335709 0.000322266 -0.001 0.000340555 0.000218148 -0.001 0.000427299 0.000276717 -0.001 
0.000431508 0.000173093 -0.001 0.000328731 0.000425633 -0.001 0.00034586 0.000114823 -0.001 
0.000435362 7.05241e-05 -0.001 0.000350892 1.5455e-05 -0.001 0.000441547 -3.11896e-05 -0.001 
0.000353547 -8.47783e-05 -0.001 0.000445767 -0.000132964 -0.001 0.000356135 -0.000186358 -0.001 
0.000449094 -0.000234674 -0.001 0.000359978 -0.000287876 -0.001 0.00026856 -0.000240545 -0.001 
0.000271895 -0.000341045 -0.001 0.000181792 -0.00029305 -0.001 0.00018533 -0.000392851 -0.001 
9.75701e-05 -0.00034483 -0.001 9.98764e-05 -0.000444884 -0.001 8.75116e-06 -0.000396343 -0.001 
1.20916e-05 -0.000500496 -0.001 -7.83929e-05 -0.000449843 -0.001 -8.1471e-05 -0.000347249 -0.001 
-0.000171566 -0.000403733 -0.001 -0.000169889 -0.000298891 -0.001 -0.000259867 -0.000354132 -0.001 
-0.000257696 -0.000249137 -0.001 -0.00034313 -0.000299896 -0.001 -0.000344514 -0.000199127 -0.001 
-0.000434309 -0.000250039 -0.001 -0.000169832 -0.000505815 -0.001 -0.000435227 -0.000146227 -0.001 
0.000280331 -0.000442424 -0.001 -0.000340889 8.76793e-05 -0.001 -0.000515252 4.06198e-05 -0.001 
6.50491e-05 0.000568253 -0.001 0.00053278 1.74743e-05 -0.001 0.000522071 0.000229831 -0.001 
-0.00037162 0.000391659 -0.001 -0.000255272 -0.000150439 -0.001 -0.000442893 -0.000350705 -0.001 
0.000450067 -0.000332559 -0.001 0.000545175 -0.000276306 -0.001 -0.000527797 -0.000197598 -0.001 
0.000105306 -0.000551033 -0.001 1.45836e-05 -0.000609147 -0.001 0.00017145 0.000214453 -0.001 
0.000515525 0.000341711 -0.001 0.000636086 0.000290368 -0.001 -0.000558657 0.000404468 -0.001 
-4.01232e-05 0.000616718 -0.001 6.60192e-05 0.000696422 -0.001 -0.000101806 0.0002546 -0.001 
0.000271142 -3.88908e-05 -0.001 0.000179455 -0.00018534 -0.001 -8.79553e-05 -0.000254307 -0.001 
-0.000749267 -0.000373451 -0.001 -0.000655941 -0.000323397 -0.001 0.000709746 0.000466718 -0.001 
0.000698426 -0.000473086 -0.001 -5.25801e-05 -0.00084886 -0.001 -4.93005e-05 0.000848038 -0.001 
0.000617396 -0.000413362 -0.001 0.000702056 -0.000369817 -0.001 0.000131459 -0.000679171 -0.001 
2.48171e-05 -0.000715924 -0.001 -0.000664217 -0.00042729 -0.001 -0.000528828 -8.80444e-05 -0.001 
-0.000611101 -0.000136672 -0.001 -0.000426972 -4.45841e-05 -0.001 0.000800669 0.000378216 -0.001 
0.000821144 -0.000415062 -0.001 7.2799e-05 0.00088254 -0.001 6.81831e-05 -0.00087503 -0.001 
0.000104963 -0.000788946 -0.001 -7.40696e-05 -0.000660054 -0.001 0.000126061 0.000809943 -0.001 
0.000764361 0.000295682 -0.001 0.000166862 0.000630623 -0.001 0.000516462 -0.00046707 -0.001 
-0.000563585 -0.000389606 -0.001 -0.000622598 -1.40238e-05 -0.001 0.000629891 0.000171529 -0.001 
2.5614e-06 -0.000299794 -0.001 8.6901e-05 -0.00024329 -0.001 0.000272045 -0.000136982 -0.001 
-0.00075148 0.000138321 -0.001 0.000209366 -0.000599589 -0.001 0.000324913 -0.000630055 -0.001 
0.000614044 0.00041245 -0.001 0.00049651 -0.000573327 -0.001 0.000394822 -0.000507321 -0.001 
-0.000173714 -0.000206698 -0.001 0.000264897 5.63722e-05 -0.001 0.000247997 0.000152811 -0.001 
-4.63327e-05 -0.000920208 -0.001 9.18688e-05 0.000258626 -0.001 -5.54111e-06 0.000290558 -0.001 
-0.000184219 0.000201484 -0.001 -0.000263559 0.000142267 -0.001 -0.000256427 5.13624e-05 -0.001 
-0.000336894 -2.06179e-06 -0.001 -0.000228499 -4.2388e-05 -0.001 -0.00017589 0.000106626 -0.001 
-0.000769947 -0.000133367 -0.001 0.000767591 -0.000500293 -0.001 -5.05874e-05 0.000737978 -0.001 
0.000754456 -3.51771e-06 -0.001 0.00064691 -6.15298e-05 -0.001 0.000630483 -0.00018134 -0.001 
0.000749187 -0.000265543 -0.001 -0.000760805 -0.000462521 -0.001 0.000638155 6.09315e-05 -0.001 
-4.46661e-05 0.000922995 -0.001 -2.37945e-05 0.000207237 -0.001 0.000776979 0.000500181 -0.001 
-0.000605691 0.000527596 -0.001 -0.000377914 -0.000653727 -0.001 -0.000372325 -0.000526022 -0.001 
-0.000275829 -0.000589621 -0.001 -0.000254285 -0.000710579 -0.001 -0.000379307 0.000656222 -0.001 
-0.000379818 0.00052718 -0.001 -0.000266817 0.000721555 -0.001 -0.000150544 0.000668174 -0.001 
0.000381963 0.00065079 -0.001 0.000493113 0.000590432 -0.001 0.000505439 0.000463708 -0.001 
-0.000269094 0.000596608 -0.001 0.000385815 0.000532045 -0.001 0.000283599 0.0005899 -0.001 
-0.000176405 -0.000108505 -0.001 -0.000278769 -0.000475415 -0.001 0.000185395 2.33014e-06 -0.001 
0.000186773 0.000517571 -0.001 0.000540032 -8.68444e-05 -0.001 -0.000600694 -0.000514877 -0.001 
-0.00063703 8.98033e-05 -0.001 -0.000459677 0.000335729 -0.001 -0.000338836 -0.000100751 -0.001 
-0.000457327 0.000432721 -0.001 -8.72007e-06 -0.000210238 -0.001 0.000156073 0.000129496 -0.001 
-7.70692e-05 -0.000555049 -0.001 0.00036091 -0.000389728 -0.001 0.000531628 0.000120564 -0.001 
-0.000285451 0.000435562 -0.001 0.000192719 -0.000494604 -0.001 0.00041642 0.00039368 -0.001 
-0.000135943 0.000554637 -0.001 -0.000170665 -0.000610079 -0.001 -0.000666304 0.000434981 -0.001 
-0.000758736 0.000479231 -0.001 -0.000470189 -0.000458901 -0.001 0.000203433 -8.59809e-05 -0.001 
0.000101846 0.000170114 -0.001 -0.00035513 -0.00040726 -0.001 0.000100184 -0.000165831 -0.001 
2.96286e-05 0.00081537 -0.001 0.000720946 0.000381836 -0.001 -0.000539809 -0.000292001 -0.001 
0.00052211 -0.000182426 -0.001 -6.41339e-05 -0.000753908 -0.001 0.000638039 -0.000299861 -0.001 
-0.000605136 -0.000230182 -0.001 -3.41638e-05 -0.000145561 -0.001 -0.000104037 0.000172396 -0.001 
-0.000808575 -0.00042774 -0.001 -0.000807207 -0.000465052 -0.001 -0.00080817 0.000429771 -0.001 
-0.000806589 0.000469738 -0.001 -9.50634e-05 -0.000178909 -0.001 0.000247777 0.000445058 -0.001 
1.48293e-05 -0.000814201 -0.001 -4.11555e-05 0.000140955 -0.001 0.000276104 -0.000536845 -0.001 
0.000765969 -0.000436638 -0.001 0.000780871 -0.000362769 -0.001 0.000424176 -0.000642018 -0.001 
0.00053413 -0.000368009 -0.001 -0.000416333 4.17911e-05 -0.001 -0.000133891 -6.23822e-05 -0.001 
4.2574e-05 0.000206312 -0.001 0.000141163 -0.000121542 -0.001 0.000707423 0.000212137 -0.001 
0.000172327 0.000723882 -0.001 7.72652e-06 -0.00090254 -0.001 -0.000134435 5.66935e-05 -0.001 
-0.000188826 3.70894e-05 -0.001 0.000197119 8.09714e-05 -0.001 1.27801e-05 0.000917296 -0.001 
0.000800767 0.00044758 -0.001 -0.000686682 0.000507104 -0.001 9.35831e-05 0.000110457 -0.001 
-0.000696793 -0.000509595 -0.001 -0.00068446 -8.52012e-05 -0.001 -0.000691033 -0.000201242 -0.001 
5.24052e-05 -0.000189075 -0.001 -0.000151818 -0.000701092 -0.001 -0.000296988 0.000518087 -0.001 
9.31023e-05 -0.000108117 -0.001 0.00044261 -0.000416726 -0.001 0.000197044 -0.000784423 -0.001 
-0.000516861 0.000504567 -0.001 0.000298997 0.000502377 -0.001 

CELLS 563 3941
6 14 304 127 29 554 377 
6 143 259 55 393 509 103 
6 300 319 174 550 569 424 
6 259 349 55 509 599 103 
6 50 365 307 98 615 557 
6 299 320 164 549 570 414 
6 126 304 14 376 554 29 
6 298 319 300 548 569 550 
6 205 240 238 455 490 488 
6 257 308 145 507 558 395 
6 130 352 273 380 602 523 
6 295 320 299 545 570 549 
6 324 327 289 574 577 539 
6 235 258 143 485 508 393 
6 50 307 49 98 557 97 
6 207 283 279 457 533 529 
6 143 373 235 393 623 485 
6 145 308 252 395 558 502 
6 194 303 196 444 553 446 
6 279 306 207 529 556 457 
6 206 305 163 456 555 413 
6 51 357 9 99 607 24 
6 238 252 205 488 502 455 
6 293 317 209 543 567 459 
6 207 316 283 457 566 533 
6 142 301 249 392 551 499 
6 273 359 130 523 609 380 
6 211 327 324 461 577 574 
6 169 265 217 419 515 467 
6 7 365 50 22 615 98 
6 283 316 253 533 566 503 
6 159 268 223 409 518 473 
6 274 337 132 524 587 382 
6 232 361 329 482 611 579 
6 231 266 45 481 516 93 
6 229 362 330 479 612 580 
6 9 244 57 24 494 105 
6 230 276 52 480 526 100 
6 209 311 293 459 561 543 
6 131 342 302 381 592 552 
6 270 271 204 520 521 454 
6 66 243 1 114 493 16 
6 59 241 12 107 491 27 
6 280 306 279 530 556 529 
6 269 337 274 519 587 524 
6 179 256 224 429 506 474 
6 163 305 166 413 555 416 
6 201 303 194 451 553 444 
6 280 332 306 530 582 556 
6 186 255 225 436 505 475 
6 210 310 273 460 560 523 
6 153 270 204 403 520 454 
6 136 231 45 386 481 93 
6 171 265 169 421 515 419 
6 138 230 52 388 480 100 
6 225 354 325 475 604 575 
6 36 284 232 84 534 482 
6 161 268 159 411 518 409 
6 71 286 229 119 536 479 
6 290 303 201 540 553 451 
6 139 355 60 389 605 108 
6 60 355 248 108 605 498 
6 273 352 302 523 602 552 
6 235 373 245 485 623 495 
6 67 356 247 115 606 497 
6 221 295 277 471 545 527 
6 142 356 67 392 606 115 
6 139 283 253 389 533 503 
6 203 315 262 453 565 512 
6 41 257 145 89 507 395 
6 36 232 135 84 482 385 
6 71 229 137 119 479 387 
6 254 255 188 504 505 438 
6 233 350 334 483 600 584 
6 262 346 203 512 596 453 
6 304 325 127 554 575 377 
6 222 329 247 472 579 497 
6 218 298 260 468 548 510 
6 290 321 291 540 571 541 
6 272 310 240 522 560 490 
6 269 274 270 519 524 520 
6 244 245 57 494 495 105 
6 49 307 141 97 557 391 
6 225 325 256 475 575 506 
6 273 310 272 523 560 522 
6 312 368 255 562 618 505 
6 249 305 206 499 555 456 
6 228 331 251 478 581 501 
6 302 342 263 552 592 513 
6 338 339 44 588 589 92 
6 190 254 188 440 504 438 
6 37 341 340 85 591 590 
6 138 233 230 388 483 480 
6 228 335 331 478 585 581 
6 181 256 179 431 506 429 
6 195 263 226 445 513 476 
6 268 285 223 518 535 473 
6 290 291 288 540 541 538 
6 219 330 248 469 580 498 
6 201 321 290 451 571 540 
6 240 310 202 490 560 452 
6 188 255 186 438 505 436 
6 270 274 271 520 524 521 
6 262 349 259 512 599 509 
6 141 324 289 391 574 539 
6 296 301 142 546 551 392 
6 247 356 222 497 606 472 
6 239 252 238 489 502 488 
6 254 312 255 504 562 505 
6 54 261 53 102 511 101 
6 289 327 303 539 577 553 
6 268 353 285 518 603 535 
6 273 302 210 523 552 460 
6 292 299 293 542 549 543 
6 278 283 139 528 533 389 
6 175 265 171 425 515 421 
6 227 338 38 477 588 86 
6 264 360 265 514 610 515 
6 43 340 146 91 590 396 
6 165 268 161 415 518 411 
6 205 351 240 455 601 490 
6 64 281 63 112 531 111 
6 288 291 47 538 541 95 
6 135 295 294 385 545 544 
6 42 257 41 90 507 89 
6 245 373 57 495 623 105 
6 31 363 323 79 613 573 
6 292 293 140 542 543 390 
6 267 353 268 517 603 518 
6 155 270 153 405 520 403 
6 244 344 245 494 594 495 
6 61 278 139 109 528 389 
6 135 294 35 385 544 83 
6 69 297 296 117 547 546 
6 186 225 184 436 475 434 
6 329 361 243 579 611 493 
6 255 328 225 505 578 475 
6 213 332 280 463 582 530 
6 39 275 133 87 525 383 
6 330 362 241 580 612 491 
6 195 226 193 445 476 443 
6 211 324 251 461 574 501 
6 151 153 152 401 403 402 
6 295 299 294 545 549 544 
6 265 313 217 515 563 467 
6 258 259 143 508 509 393 
6 251 331 211 501 581 461 
6 149 151 150 399 401 400 
6 293 370 317 543 620 567 
6 153 204 152 403 454 402 
6 151 152 150 401 402 400 
6 33 292 140 81 542 390 
6 210 263 197 460 513 447 
6 301 305 249 551 555 499 
6 298 300 297 548 550 547 
6 68 296 142 116 546 392 
6 321 369 291 571 619 541 
6 179 224 177 429 474 427 
6 167 267 165 417 517 415 
6 259 346 262 509 596 512 
6 303 327 196 553 577 446 
6 269 270 155 519 520 405 
6 265 360 313 515 610 563 
6 223 269 157 473 519 407 
6 157 269 155 407 519 405 
6 144 279 278 394 529 528 
6 169 217 167 419 467 417 
6 177 264 175 427 514 425 
6 267 268 165 517 518 415 
6 159 223 157 409 473 407 
6 232 277 135 482 527 385 
6 193 254 190 443 504 440 
6 217 267 167 467 517 417 
6 249 356 142 499 606 392 
6 184 256 181 434 506 431 
6 248 355 219 498 605 469 
6 229 260 137 479 510 387 
6 149 150 148 399 400 398 
6 64 348 281 112 598 531 
6 311 374 293 561 624 543 
6 264 265 175 514 515 425 
6 297 300 296 547 550 546 
6 141 289 288 391 539 538 
6 197 263 195 447 513 445 
6 218 260 219 468 510 469 
6 224 264 177 474 514 427 
6 137 298 297 387 548 547 
6 277 295 135 527 545 385 
6 133 228 227 383 478 477 
6 261 349 262 511 599 512 
6 221 277 222 471 527 472 
6 256 325 224 506 575 474 
6 199 210 197 449 460 447 
6 226 254 193 476 504 443 
6 144 278 62 394 528 110 
6 279 283 278 529 533 528 
6 289 290 288 539 540 538 
6 137 297 70 387 547 118 
6 34 294 292 82 544 542 
6 235 236 216 485 486 466 
6 141 288 48 391 538 96 
6 178 306 180 428 556 430 
6 185 186 184 435 436 434 
6 63 281 144 111 531 394 
6 225 256 184 475 506 434 
6 46 291 136 94 541 386 
6 147 149 148 397 399 398 
6 271 272 204 521 522 454 
6 233 334 234 483 584 484 
6 145 275 40 395 525 88 
6 220 322 287 470 572 537 
6 280 334 213 530 584 463 
6 144 280 279 394 530 529 
6 140 287 32 390 537 80 
6 154 155 153 404 405 403 
6 334 350 213 584 600 463 
6 176 177 175 426 427 425 
6 260 298 137 510 548 387 
6 33 140 32 81 390 80 
6 49 141 48 97 391 96 
6 56 143 55 104 393 103 
6 68 142 67 116 392 115 
6 63 144 62 111 394 110 
6 61 139 60 109 389 108 
6 148 308 257 398 558 507 
6 71 137 70 119 387 118 
6 53 138 52 101 388 100 
6 46 136 45 94 386 93 
6 36 135 35 84 385 83 
6 43 146 134 91 396 384 
6 133 227 38 383 477 86 
6 192 193 190 442 443 440 
6 293 374 140 543 624 390 
6 34 292 33 82 542 81 
6 207 306 178 457 556 428 
6 43 134 42 91 384 90 
6 39 133 38 87 383 86 
6 41 145 40 89 395 88 
6 194 195 193 444 445 443 
6 69 296 68 117 546 116 
6 294 299 292 544 549 542 
6 173 175 171 423 425 421 
6 260 330 219 510 580 469 
6 183 184 181 433 434 431 
6 134 257 42 384 507 90 
6 55 349 54 103 599 102 
6 163 165 161 413 415 411 
6 166 167 165 416 417 415 
6 210 302 263 460 552 513 
6 271 273 272 521 523 522 
6 53 261 138 101 511 388 
6 217 326 267 467 576 517 
6 289 303 290 539 553 540 
6 178 179 177 428 429 427 
6 238 240 202 488 490 452 
6 62 278 61 110 528 109 
6 35 294 34 83 544 82 
6 284 361 232 534 611 482 
6 70 297 69 118 547 117 
6 224 304 264 474 554 514 
6 156 157 155 406 407 405 
6 48 288 47 96 538 95 
6 221 320 295 471 570 545 
6 187 188 186 437 438 436 
6 47 291 46 95 541 94 
6 151 154 153 401 404 403 
6 286 362 229 536 612 479 
6 168 169 167 418 419 417 
6 40 275 39 88 525 87 
6 307 324 141 557 574 391 
6 300 301 296 550 551 546 
6 32 287 31 80 537 79 
6 147 220 149 397 470 399 
6 333 344 231 583 594 481 
6 299 370 293 549 620 543 
6 271 359 273 521 609 523 
6 224 325 304 474 575 554 
6 228 237 227 478 487 477 
6 305 375 343 555 625 593 
6 218 319 298 468 569 548 
6 240 351 272 490 601 522 
6 277 329 222 527 579 472 
6 253 355 139 503 605 389 
6 158 159 157 408 409 407 
6 236 246 216 486 496 466 
6 192 194 193 442 444 443 
6 220 309 149 470 559 399 
6 183 185 184 433 435 434 
6 196 197 195 446 447 445 
6 276 347 58 526 597 106 
6 136 333 231 386 583 481 
6 67 247 66 115 497 114 
6 60 248 59 108 498 107 
6 261 262 250 511 512 500 
6 173 176 175 423 426 425 
6 344 357 231 594 607 481 
6 144 281 280 394 531 530 
6 152 205 150 402 455 400 
6 163 166 165 413 416 415 
6 185 187 186 435 437 436 
6 233 234 230 483 484 480 
6 170 171 169 420 421 419 
6 146 147 134 396 397 384 
6 176 178 177 426 428 427 
6 285 337 223 535 587 473 
6 154 156 155 404 406 405 
6 263 342 226 513 592 476 
6 235 245 236 485 495 486 
6 160 161 159 410 411 409 
6 58 347 242 106 597 492 
6 166 168 167 416 418 417 
6 287 374 220 537 624 470 
6 189 190 188 439 440 438 
6 148 257 134 398 507 384 
6 194 196 195 444 446 445 
6 252 308 205 502 558 455 
6 285 345 337 535 595 587 
6 301 375 305 551 625 555 
6 180 181 179 430 431 429 
6 281 348 234 531 598 484 
6 198 199 197 448 449 447 
6 151 309 154 401 559 404 
6 228 367 335 478 617 585 
6 54 349 261 102 599 511 
6 156 158 157 406 408 407 
6 168 170 169 418 420 419 
6 200 202 199 450 452 449 
6 147 148 134 397 398 384 
6 158 160 159 408 410 409 
6 150 308 148 400 558 398 
6 253 316 208 503 566 458 
6 232 329 277 482 579 527 
6 178 180 179 428 430 429 
6 191 192 190 441 442 440 
6 214 238 202 464 488 452 
6 172 173 171 422 423 421 
6 187 189 188 437 439 438 
6 162 163 161 412 413 411 
6 228 251 237 478 501 487 
6 215 258 235 465 508 485 
6 182 183 181 432 433 431 
6 202 310 199 452 560 449 
6 219 253 208 469 503 458 
6 222 249 206 472 499 456 
6 196 198 197 446 448 447 
6 229 330 260 479 580 510 
6 132 358 274 382 608 524 
6 149 309 151 399 559 401 
6 226 312 254 476 562 504 
6 154 309 209 404 559 459 
6 77 129 76 125 379 124 
6 73 128 72 121 378 120 
6 76 131 75 124 381 123 
6 74 132 73 122 382 121 
6 75 130 74 123 380 122 
6 14 127 77 29 377 125 
6 72 126 14 120 376 29 
6 133 367 228 383 617 478 
6 237 282 227 487 532 477 
6 239 366 252 489 616 502 
6 200 214 202 450 464 452 
6 192 201 194 442 451 444 
6 170 172 171 420 422 421 
6 220 311 309 470 561 559 
6 198 200 199 448 450 449 
6 189 191 190 439 441 440 
6 146 323 322 396 573 572 
6 160 162 161 410 412 411 
6 251 307 237 501 557 487 
6 199 310 210 449 560 460 
6 57 373 56 105 623 104 
6 214 239 238 464 489 488 
6 182 212 183 432 462 433 
6 180 182 181 430 432 431 
6 146 322 147 396 572 397 
6 172 218 208 422 468 458 
6 172 208 173 422 458 423 
6 162 221 206 412 471 456 
6 162 206 163 412 456 413 
6 176 207 178 426 457 428 
6 272 351 204 522 601 454 
6 198 211 200 448 461 450 
6 182 213 212 432 463 462 
6 234 334 281 484 584 531 
6 154 209 156 404 459 406 
6 185 203 187 435 453 437 
6 168 174 170 418 424 420 
6 189 215 191 439 465 441 
6 215 216 191 465 466 441 
6 221 222 206 471 472 456 
6 158 164 160 408 414 410 
6 218 219 208 468 469 458 
6 205 308 150 455 558 400 
6 191 314 192 441 564 442 
6 215 235 216 465 485 466 
6 215 318 258 465 568 508 
6 152 351 205 402 601 455 
6 138 261 250 388 511 500 
6 192 314 201 442 564 451 
6 234 347 230 484 597 480 
6 226 342 312 476 592 562 
6 138 250 233 388 500 483 
6 147 322 220 397 572 470 
6 216 314 191 466 564 441 
6 306 332 180 556 582 430 
6 222 356 249 472 606 499 
6 128 345 285 378 595 535 
6 314 321 201 564 571 451 
6 212 315 183 462 565 433 
6 312 342 336 562 592 586 
6 282 339 338 532 589 588 
6 340 341 323 590 591 573 
6 309 311 209 559 561 459 
6 183 315 185 433 565 435 
6 208 316 173 458 566 423 
6 173 316 176 423 566 426 
6 3 341 37 18 591 85 
6 44 339 6 92 589 21 
6 252 366 145 502 616 395 
6 246 321 314 496 571 564 
6 246 314 216 496 564 466 
6 126 364 313 376 614 563 
6 156 317 158 406 567 408 
6 275 367 133 525 617 383 
6 176 316 207 426 566 457 
6 185 315 203 435 565 453 
6 180 332 182 430 582 432 
6 302 352 131 552 602 381 
6 251 324 307 501 574 557 
6 187 318 189 437 568 439 
6 172 319 218 422 569 468 
6 162 320 221 412 570 471 
6 305 343 166 555 593 416 
6 170 319 172 420 569 422 
6 158 317 164 408 567 414 
6 209 317 156 459 567 406 
6 285 353 128 535 603 378 
6 223 337 269 473 587 519 
6 160 320 162 410 570 412 
6 211 331 200 461 581 450 
6 174 319 170 424 569 420 
6 203 318 187 453 568 437 
6 189 318 215 439 568 465 
6 198 327 211 448 577 461 
6 164 320 160 414 570 410 
6 326 353 267 576 603 517 
6 236 344 333 486 594 583 
6 196 327 198 446 577 448 
6 219 355 253 469 605 503 
6 281 334 280 531 584 530 
6 274 359 271 524 609 521 
6 164 370 299 414 620 549 
6 174 375 300 424 625 550 
6 287 363 31 537 613 79 
6 243 361 1 493 611 16 
6 241 362 12 491 612 27 
6 307 365 237 557 615 487 
6 166 343 168 416 593 418 
6 200 331 214 450 581 464 
6 313 326 217 563 576 467 
6 9 357 244 24 607 494 
6 1 361 30 16 611 78 
6 12 362 65 27 612 113 
6 337 345 132 587 595 382 
6 242 348 64 492 598 112 
6 231 357 266 481 607 516 
6 182 332 213 432 582 463 
6 245 344 236 495 594 486 
6 258 346 259 508 596 509 
6 145 366 275 395 616 525 
6 291 369 136 541 619 386 
6 236 333 246 486 583 496 
6 331 335 214 581 585 464 
6 312 336 129 562 586 379 
6 315 372 262 565 622 512 
6 220 374 311 470 624 561 
6 140 374 287 390 624 537 
6 126 360 304 376 610 554 
6 230 347 276 480 597 526 
6 313 364 326 563 614 576 
6 56 373 143 104 623 393 
6 239 367 366 489 617 616 
6 204 351 152 454 601 402 
6 300 375 301 550 625 551 
6 214 335 239 464 585 489 
6 247 329 243 497 579 493 
6 262 372 250 512 622 500 
6 248 330 241 498 580 491 
6 318 346 258 568 596 508 
6 333 369 246 583 619 496 
6 282 338 227 532 588 477 
6 146 340 323 396 590 573 
6 304 360 264 554 610 514 
6 366 367 275 616 617 525 
6 129 336 76 379 586 124 
6 73 345 128 121 595 378 
6 76 336 131 124 586 381 
6 250 350 233 500 600 483 
6 129 371 328 379 621 578 
6 132 345 73 382 595 121 
6 168 343 174 418 593 424 
6 131 352 75 381 602 123 
6 66 247 243 114 497 493 
6 59 248 241 107 498 491 
6 74 358 132 122 608 382 
6 203 346 318 453 596 568 
6 313 360 126 563 610 376 
6 128 364 72 378 614 120 
6 128 353 326 378 603 576 
6 77 371 129 125 621 379 
6 129 368 312 379 618 562 
6 244 357 344 494 607 594 
6 328 354 225 578 604 475 
6 326 364 128 576 614 378 
6 75 352 130 123 602 380 
6 350 372 212 600 622 462 
6 136 369 333 386 619 583 
6 325 354 127 575 604 377 
6 213 350 212 463 600 462 
6 130 358 74 380 608 122 
6 250 372 350 500 622 600 
6 317 370 164 567 620 414 
6 72 364 126 120 614 376 
6 328 368 129 578 618 379 
6 127 371 77 377 621 125 
6 336 342 131 586 592 381 
6 212 372 315 462 622 565 
6 234 348 347 484 598 597 
6 8 266 51 23 516 99 
6 10 276 58 25 526 106 
6 246 369 321 496 619 571 
6 30 284 0 78 534 15 
6 65 286 13 113 536 28 
6 58 242 11 106 492 26 
6 266 357 51 516 607 99 
6 255 368 328 505 618 578 
6 347 348 242 597 598 492 
6 322 363 287 572 613 537 
6 323 363 322 573 613 572 
6 335 367 239 585 617 489 
6 30 361 284 78 611 534 
6 65 362 286 113 612 536 
6 237 365 282 487 615 532 
6 130 359 358 380 609 608 
6 343 375 174 593 625 424 
6 354 371 127 604 621 377 
6 328 371 354 578 621 604 
6 358 359 274 608 609 524 
6 0 284 36 15 534 84 
6 45 266 8 93 516 23 
6 52 276 10 100 526 25 
6 11 242 64 26 492 112 
6 13 286 71 28 536 119 
6 2 323 3 17 573 18 
6 31 323 2 79 573 17 
6 323 341 3 573 591 18 
6 37 340 4 85 590 19 
6 4 340 43 19 590 91 
6 38 338 5 86 588 20 
6 5 338 44 20 588 92 
6 6 282 7 21 532 22 
6 6 339 282 21 589 532 
6 282 365 7 532 615 22 

CELL_TYPES 563
13
13
13
13
13
13
13
13
13
13
13
13
13
13
13
13
13
13
13
13
13
13
13
13
13
13
13
13
13
13
13
13
13
13
13
13
13
13
13
13
13
13
13
13
13
13
13
13
13
13
13
13
13
13
13
13
13
13
13
13
13
13
13
13
13
13
13
13
13
13
13
13
13
13
13
13
13
13
13
13
13
13
13
13
13
13
13
13
13
13
13
13
13
13
13
13
13
13
13
13
13
13
13
13
13
13
13
13
13
13
13
13
13
13
13
13
13
13
13
13
13
13
13
13
13
13
13
13
13
13
13
13
13
13
13
13
13
13
13
13
13
13
13
13
13
13
13
13
13
13
13
13
13
13
13
13
13
13
13
13
13
13
13
13
13
13
13
13
13
13
13
13
13
13
13
13
13
13
13
13
13
13
13
13
13
13
13
13
13
13
13
13
13
13
13
13
13
13
13
13
13
13
13
13
13
13
13
13
13
13
13
13
13
13
13
13
13
13
13
13
13
13
13
13
13
13
13
13
13
13
13
13
13
13
13
13
13
13
13
13
13
13
13
13
13
13
13
13
13
13
13
13
13
13
13
13
13
13
13
13
13
13
13
13
13
13
13
13
13
13
13
13
13
13
13
13
13
13
13
13
13
13
13
13
13
13
13
13
13
13
13
13
13
13
13
13
13
13
13
13
13
13
13
13
13
13
13
13
13
13
13
13
13
13
13
13
13
13
13
13
13
13
13
13
13
13
13
13
13
13
13
13
13
13
13
13
13
13
13
13
13
13
13
13
13
13
13
13
13
13
13
13
13
13
13
13
13
13
13
13
13
13
13
13
13
13
13
13
13
13
13
13
13
13
13
13
13
13
13
13
13
13
13
13
13
13
13
13
13
13
13
13
13
13
13
13
13
13
13
13
13
13
13
13
13
13
13
13
13
13
13
13
13
13
13
13
13
13
13
13
13
13
13
13
13
13
13
13
13
13
13
13
13
13
13
13
13
13
13
13
13
13
13
13
13
13
13
13
13
13
13
13
13
13
13
13
13
13
13
13
13
13
13
13
13
13
13
13
13
13
13
13
13
13
13
13
13
13
13
13
13
13
13
13
13
13
13
13
13
13
13
13
13
13
13
13
13
13
13
13
13
13
13
13
13
13
13
13
13
13
13
13
13
13
13
13
13
13
13
13
13
13
13
13
13
13
13
13
13
13
13
13
13
13
13
13
13
13
13
13
13
13
13
13
13
13
13
13
13
13
13
13
13
13
13
13
13
13
13
13
13
13
13

POINT_DATA 626
VECTORS displacement float
-1.74394e-06 3.09563e-05 1.80559e-05
1.73564e-06 3.09753e-05 1.8101e-05
-2.59879e-05 1.69938e-05 1.80879e-05
-2.58425e-05 1.60339e-05 1.80525e-05
-2.77223e-05 1.39737e-05 1.80699e-05
-2.77152e-05 -1.402e-05 1.80954e-05
-2.58137e-05 -1.60721e-05 1.81067e-05
-2.59841e-05 -1.70118e-05 1.81679e-05
-1.6774e-06 -3.096e-05 1.80523e-05
1.75544e-06 -3.09615e-05 1.81027e-05
2.59452e-05 -1.69816e-05 1.80444e-05
2.77186e-05 -1.39376e-05 1.80442e-05
2.76741e-05 1.39903e-05 1.80925e-05
2.59166e-05 1.69939e-05 1.80469e-05
0 0 0
-1.74394e-06 3.09563e-05 -1.80559e-05
1.73564e-06 3.09753e-05 -1.8101e-05
-2.59879e-05 1.69938e-05 -1.80879e-05
-2.58425e-05 1.60339e-05 -1.80525e-05
-2.77223e-05 1.39737e-05 -1.80699e-05
-2.77152e-05 -1.402e-05 -1.80954e-05
-2.58137e-05 -1.60721e-05 -1.81067e-05
-2.59841e-05 -1.70118e-05 -1.81679e-05
-1.6774e-06 -3.096e-05 -1.80523e-05
1.75544e-06 -3.09615e-05 -1.81027e-05
2.59452e-05 -1.69816e-05 -1.80444e-05
2.77186e-05 -1.39376e-05 -1.80442e-05
2.76741e-05 1.39903e-05 -1.80925e-05
2.59166e-05 1.69939e-05 -1.80469e-05
0 0 0
2.48864e-08 3.01562e-05 1.80351e-05
-2.11422e-05 1.87135e-05 1.75507e-05
-1.72339e-05 1.98351e-05 1.69219e-05
-1.4008e-05 2.10558e-05 1.6556e-05
-1.12077e-05 2.26666e-05 1.65499e-05
-8.52457e-06 2.48347e-05 1.69024e-05
-5.56798e-06 2.76236e-05 1.75384e-05
-2.64514e-05 1.468e-05 1.80343e-05
-2.67705e-05 -9.01232e-06 1.75783e-05
-2.58081e-05 -5.03598e-06 1.6927e-05
-2.52564e-05 -1.63638e-06 1.65725e-05
-2.52593e-05 1.60802e-06 1.65754e-05
-2.58003e-05 5.02337e-06 1.69252e-05
-2.67567e-05 8.9854e-06 1.75648e-05
-2.64383e-05 -1.47264e-05 1.80631e-05
-5.54124e-06 -2.76381e-05 1.75306e-05
-8.47709e-06 -2.48437e-05 1.69017e-05
-1.11709e-05 -2.2686e-05 1.65572e-05
-1.39717e-05 -2.10888e-05 1.65606e-05
-1.72163e-05 -1.98705e-05 1.69377e-05
-2.11357e-05 -1.87503e-05 1.75631e-05
8.98294e-08 -3.01409e-05 1.80302e-05
2.11255e-05 -1.86259e-05 1.75124e-05
1.7246e-05 -1.97635e-05 1.68739e-05
1.4035e-05 -2.10127e-05 1.65127e-05
1.12259e-05 -2.25947e-05 1.65472e-05
8.58172e-06 -2.47819e-05 1.68752e-05
5.65485e-06 -2.76283e-05 1.75359e-05
2.61261e-05 -1.50606e-05 1.80292e-05
2.67185e-05 8.9392e-06 1.75024e-05
2.57239e-05 5.0501e-06 1.69094e-05
2.52085e-05 1.6235e-06 1.65243e-05
2.52056e-05 -1.5996e-06 1.65226e-05
2.57525e-05 -4.99789e-06 1.68894e-05
2.67006e-05 -8.91795e-06 1.75106e-05
2.61092e-05 1.50617e-05 1.80262e-05
5.6333e-06 2.76197e-05 1.75105e-05
8.50909e-06 2.48086e-05 1.69122e-05
1.12179e-05 2.26428e-05 1.65304e-05
1.40056e-05 2.10237e-05 1.65258e-05
1.7223e-05 1.97948e-05 1.68861e-05
2.11165e-05 1.86355e-05 1.75263e-05
0 0 0
0 0 0
0 0 0
0 0 0
0 0 0
0 0 0
2.48864e-08 3.01562e-05 -1.80351e-05
-2.11422e-05 1.87135e-05 -1.75507e-05
-1.72339e-05 1.98351e-05 -1.69219e-05
-1.4008e-05 2.10558e-05 -1.6556e-05
-1.12077e-05 2.26666e-05 -1.65499e-05
-8.52457e-06 2.48347e-05 -1.69024e-05
-5.56798e-06 2.76236e-05 -1.75384e-05
-2.64514e-05 1.468e-05 -1.80343e-05
-2.67705e-05 -9.01232e-06 -1.75783e-05
-2.58081e-05 -5.03598e-06 -1.6927e-05
-2.52564e-05 -1.63638e-06 -1.65725e-05
-2.52593e-05 1.60802e-06 -1.65754e-05
-2.58003e-05 5.02337e-06 -1.69252e-05
-2.67567e-05 8.9854e-06 -1.75648e-05
-2.64383e-05 -1.47264e-05 -1.80631e-05
-5.54124e-06 -2.76381e-05 -1.75306e-05
-8.47709e-06 -2.48437e-05 -1.69017e-05
-1.11709e-05 -2.2686e-05 -1.65572e-05
-1.39717e-05 -2.10888e-05 -1.65606e-05
-1.72163e-05 -1.98705e-05 -1.69377e-05
-2.11357e-05 -1.87503e-05 -1.75631e-05
8.98294e-08 -3.01409e-05 -1.80302e-05
2.11255e-05 -1.86259e-05 -1.75124e-05
1.7246e-05 -1.97635e-05 -1.68739e-05
1.4035e-05 -2.10127e-05 -1.65127e-05
1.12259e-05 -2.25947e-05 -1.65472e-05
8.58172e-06 -2.47819e-05 -1.68752e-05
5.65485e-06 -2.76283e-05 -1.75359e-05
2.61261e-05 -1.50606e-05 -1.80292e-05
2.67185e-05 8.9392e-06 -1.75024e-05
2.57239e-05 5.0501e-06 -1.69094e-05
2.52085e-05 1.6235e-06 -1.65243e-05
2.52056e-05 -1.5996e-06 -1.65226e-05
2.57525e-05 -4.99789e-06 -1.68894e-05
2.67006e-05 -8.91795e-06 -1.75106e-05
2.61092e-05 1.50617e-05 -1.80262e-05
5.6333e-06 2.76197e-05 -1.75105e-05
8.50909e-06 2.48086e-05 -1.69122e-05
1.12179e-05 2.26428e-05 -1.65304e-05
1.40056e-05 2.10237e-05 -1.65258e-05
1.7223e-05 1.97948e-05 -1.68861e-05
2.11165e-05 1.86355e-05 -1.75263e-05
0 0 0
0 0 0
0 0 0
0 0 0
0 0 0
0 0 0
1.79378e-06 8.58793e-07 4.55258e-06
1.73791e-06 -8.25159e-07 4.46113e-06
4.31977e-07 1.84972e-06 4.49544e-06
4.36121e-07 -1.78073e-06 4.3564e-06
-1.84759e-06 2.09646e-08 4.42268e-06
-1.12315e-06 -1.30894e-06 4.1513e-06
-1.15927e-06 1.30687e-06 4.20008e-06
-2.25146e-05 -7.28825e-06 1.70009e-05
-2.21979e-05 7.37214e-06 1.69696e-05
-4.86072e-06 2.29001e-05 1.6938e-05
-4.85823e-06 -2.31333e-05 1.69649e-05
1.74225e-05 1.56365e-05 1.69308e-05
1.75701e-05 -1.55375e-05 1.69401e-05
2.10751e-05 3.16415e-06 1.63254e-05
-1.39542e-05 1.71525e-05 1.64794e-05
-1.35922e-05 -1.67425e-05 1.6411e-05
7.76839e-06 1.9821e-05 1.63322e-05
7.68539e-06 -2.03115e-05 1.64035e-05
2.14739e-05 -3.44402e-06 1.64012e-05
-2.11043e-05 6.58815e-09 1.62477e-05
-2.24218e-05 1.10005e-05 1.74545e-05
-1.87522e-05 9.25536e-06 1.6628e-05
-1.79841e-05 5.79588e-06 1.60373e-05
-1.4985e-05 7.44887e-06 1.54873e-05
-1.42255e-05 4.30804e-06 1.48306e-05
-1.15334e-05 5.7443e-06 1.40956e-05
-1.08588e-05 3.06895e-06 1.33744e-05
-8.40108e-06 4.30518e-06 1.24052e-05
-9.05946e-06 7.01391e-06 1.34572e-05
-6.20454e-06 5.48889e-06 1.16897e-05
-6.8288e-06 8.25004e-06 1.30808e-05
-4.2817e-06 6.67537e-06 1.14512e-05
-4.80036e-06 9.61062e-06 1.30948e-05
-2.40104e-06 7.99391e-06 1.17237e-05
-2.81306e-06 1.1168e-05 1.34758e-05
-4.75446e-07 9.59598e-06 1.25018e-05
-7.3841e-07 1.29979e-05 1.41426e-05
1.7312e-06 1.15186e-05 1.35358e-05
-5.5351e-06 1.27013e-05 1.44379e-05
1.6852e-06 8.22455e-06 1.17483e-05
4.00447e-06 1.01216e-05 1.31518e-05
3.70561e-06 7.09845e-06 1.1479e-05
6.06784e-06 8.96732e-06 1.31142e-05
5.76723e-06 6.10722e-06 1.17363e-05
8.35869e-06 8.02091e-06 1.34929e-05
8.10623e-06 5.19564e-06 1.25012e-05
1.09548e-05 7.09757e-06 1.41479e-05
1.07467e-05 4.32311e-06 1.34999e-05
8.53115e-06 1.10383e-05 1.44617e-05
7.93825e-06 2.64393e-06 1.17282e-05
1.06468e-05 1.73733e-06 1.31049e-05
7.94924e-06 3.58786e-07 1.14563e-05
1.08072e-05 -7.59168e-07 1.3125e-05
8.11222e-06 -1.93794e-06 1.17099e-05
1.10991e-05 -3.31309e-06 1.34848e-05
8.47034e-06 -4.4243e-06 1.24449e-05
1.15046e-05 -6.00332e-06 1.41103e-05
8.95622e-06 -7.13863e-06 1.34289e-05
6.14795e-06 -5.4948e-06 1.1642e-05
6.64498e-06 -8.30147e-06 1.30191e-05
4.10549e-06 -6.58897e-06 1.13117e-05
4.52368e-06 -9.55156e-06 1.29891e-05
2.24245e-06 -7.85884e-06 1.15981e-05
2.48501e-06 -1.10027e-05 1.33518e-05
2.25305e-07 -9.37436e-06 1.23544e-05
3.30035e-07 -1.27707e-05 1.40347e-05
-1.91558e-06 -1.11515e-05 1.33779e-05
-1.8412e-06 -7.92218e-06 1.15829e-05
-4.16821e-06 -9.87557e-06 1.30859e-05
-3.81421e-06 -6.73097e-06 1.13179e-05
-6.34609e-06 -8.66265e-06 1.31002e-05
-5.89172e-06 -5.69841e-06 1.16292e-05
-8.50035e-06 -7.43634e-06 1.33806e-05
-8.16813e-06 -4.7284e-06 1.24095e-05
-1.10965e-05 -6.40324e-06 1.40708e-05
-4.37198e-06 -1.31242e-05 1.44346e-05
-1.08096e-05 -3.65095e-06 1.34401e-05
7.22666e-06 -1.13736e-05 1.42739e-05
-7.74225e-06 1.98283e-06 1.14937e-05
-1.32171e-05 1.03513e-06 1.42119e-05
1.72925e-06 1.50839e-05 1.49532e-05
1.37691e-05 4.62273e-07 1.43888e-05
1.38442e-05 6.10056e-06 1.49327e-05
-9.69479e-06 1.0197e-05 1.45335e-05
-5.41639e-06 -3.19788e-06 1.01829e-05
-1.17145e-05 -9.29803e-06 1.48902e-05
1.18833e-05 -8.76087e-06 1.47881e-05
1.47829e-05 -7.47417e-06 1.54044e-05
-1.39608e-05 -5.24429e-06 1.48627e-05
2.79603e-06 -1.45172e-05 1.47972e-05
4.24589e-07 -1.65006e-05 1.53988e-05
3.51868e-06 4.39724e-06 9.58182e-06
1.40116e-05 9.29975e-06 1.54926e-05
1.79321e-05 8.14557e-06 1.63016e-05
-1.56766e-05 1.13962e-05 1.62345e-05
-1.09417e-06 1.67703e-05 1.54963e-05
1.90698e-06 1.96231e-05 1.6312e-05
-2.09202e-06 5.22044e-06 9.59832e-06
5.55433e-06 -7.84658e-07 9.59487e-06
3.5862e-06 -3.68381e-06 9.08266e-06
-1.77976e-06 -5.17893e-06 9.45032e-06
-2.24703e-05 -1.10116e-05 1.74753e-05
-1.87995e-05 -9.2421e-06 1.66521e-05
2.11493e-05 1.41657e-05 1.75065e-05
2.07552e-05 -1.43186e-05 1.74365e-05
-1.76468e-06 -2.54483e-05 1.75119e-05
-1.68221e-06 2.54123e-05 1.75165e-05
1.77143e-05 -1.19077e-05 1.66882e-05
2.06472e-05 -1.07519e-05 1.7117e-05
3.7759e-06 -1.89866e-05 1.61404e-05
7.68574e-07 -2.03473e-05 1.64839e-05
-1.94065e-05 -1.26514e-05 1.71441e-05
-1.37321e-05 -2.3071e-06 1.44729e-05
-1.6594e-05 -3.70172e-06 1.54786e-05
-1.03766e-05 -1.09647e-06 1.2953e-05
2.44537e-05 1.10736e-05 1.76525e-05
2.54992e-05 -1.24041e-05 1.7849e-05
2.64933e-06 2.67278e-05 1.76614e-05
2.52108e-06 -2.64154e-05 1.76303e-05
3.33965e-06 -2.30336e-05 1.70301e-05
-2.05404e-06 -1.83212e-05 1.59519e-05
4.05928e-06 2.3793e-05 1.71314e-05
2.26157e-05 8.37991e-06 1.71202e-05
4.61393e-06 1.73146e-05 1.57283e-05
1.44281e-05 -1.31204e-05 1.61384e-05
-1.57888e-05 -1.09855e-05 1.62156e-05
-1.6801e-05 -3.81458e-07 1.53784e-05
1.73072e-05 4.68784e-06 1.57267e-05
6.55253e-08 -6.38775e-06 1.02682e-05
1.74183e-06 -4.84878e-06 9.09317e-06
5.85086e-06 -2.93571e-06 1.03789e-05
-2.14457e-05 3.75082e-06 1.64599e-05
5.72978e-06 -1.62757e-05 1.55088e-05
9.08413e-06 -1.75003e-05 1.59986e-05
1.75734e-05 1.18825e-05 1.66733e-05
1.39953e-05 -1.63834e-05 1.64023e-05
1.07408e-05 -1.379e-05 1.55512e-05
-3.54821e-06 -4.22047e-06 9.50147e-06
5.39947e-06 1.13857e-06 9.49975e-06
5.2184e-06 3.22309e-06 1.0048e-05
-1.74983e-06 -2.83563e-05 1.78777e-05
1.89218e-06 5.29924e-06 9.58516e-06
-1.13832e-07 6.10541e-06 1.00395e-05
-3.78517e-06 4.12801e-06 9.57911e-06
-5.62306e-06 3.03439e-06 1.0286e-05
-5.16581e-06 1.04074e-06 9.21429e-06
-7.52776e-06 -6.17436e-08 1.11732e-05
-4.33465e-06 -8.10328e-07 8.38247e-06
-3.10878e-06 1.87245e-06 7.3746e-06
-2.20827e-05 -3.60806e-06 1.65168e-05
2.34077e-05 -1.56889e-05 1.7837e-05
-1.50729e-06 2.11694e-05 1.6683e-05
2.12632e-05 -8.45267e-08 1.62268e-05
1.76234e-05 -1.64693e-06 1.55825e-05
1.7349e-05 -4.94204e-06 1.57717e-05
2.1893e-05 -7.45168e-06 1.69146e-05
-2.31837e-05 -1.42554e-05 1.78336e-05
1.73259e-05 1.649e-06 1.55096e-05
-1.73404e-06 2.84748e-05 1.7895e-05
-4.22098e-07 3.68364e-06 7.49585e-06
2.37734e-05 1.57433e-05 1.78854e-05
-1.74986e-05 1.56433e-05 1.69759e-05
-1.0627e-05 -1.84675e-05 1.62561e-05
-1.01003e-05 -1.43434e-05 1.55727e-05
-7.50832e-06 -1.6096e-05 1.56231e-05
-7.32263e-06 -2.0122e-05 1.63963e-05
-1.07052e-05 1.85366e-05 1.62678e-05
-1.03481e-05 1.43851e-05 1.56204e-05
-7.77317e-06 2.04939e-05 1.64453e-05
-4.25328e-06 1.8611e-05 1.6054e-05
1.07605e-05 1.83468e-05 1.62272e-05
1.38927e-05 1.69361e-05 1.6432e-05
1.4043e-05 1.29738e-05 1.60523e-05
-7.36211e-06 1.62895e-05 1.56396e-05
1.05259e-05 1.45481e-05 1.56463e-05
7.74931e-06 1.60935e-05 1.5615e-05
-3.11666e-06 -1.89888e-06 7.39373e-06
-7.25818e-06 -1.24229e-05 1.46262e-05
3.00884e-06 4.03627e-08 6.60147e-06
4.87293e-06 1.35237e-05 1.46191e-05
1.40771e-05 -2.26056e-06 1.45715e-05
-1.7291e-05 -1.52177e-05 1.69465e-05
-1.73678e-05 2.42049e-06 1.55989e-05
-1.22056e-05 8.91258e-06 1.49445e-05
-7.70617e-06 -2.29268e-06 1.15555e-05
-1.24507e-05 1.18135e-05 1.5541e-05
-1.42745e-07 -3.75446e-06 7.55474e-06
2.7304e-06 2.27222e-06 7.25247e-06
-2.00401e-06 -1.46516e-05 1.48091e-05
9.36578e-06 -1.0069e-05 1.43904e-05
1.38618e-05 3.15805e-06 1.45671e-05
-7.34059e-06 1.12002e-05 1.42613e-05
4.99759e-06 -1.27757e-05 1.43703e-05
1.10327e-05 1.04313e-05 1.49207e-05
-3.59671e-06 1.46864e-05 1.49091e-05
-4.63581e-06 -1.66181e-05 1.55499e-05
-1.95085e-05 1.28933e-05 1.71623e-05
-2.31285e-05 1.48591e-05 1.78443e-05
-1.29059e-05 -1.2687e-05 1.58136e-05
3.76104e-06 -1.58623e-06 7.90755e-06
1.7645e-06 2.92247e-06 7.08497e-06
-9.23118e-06 -1.06103e-05 1.45328e-05
1.72785e-06 -2.82333e-06 6.93159e-06
9.94774e-07 2.41186e-05 1.73095e-05
2.13694e-05 1.11947e-05 1.72996e-05
-1.46657e-05 -7.95398e-06 1.54864e-05
1.37091e-05 -4.78668e-06 1.46917e-05
-1.91001e-06 -2.17645e-05 1.68038e-05
1.80617e-05 -8.4197e-06 1.63418e-05
-1.66802e-05 -6.32905e-06 1.57835e-05
-4.32926e-07 -1.92243e-06 4.79883e-06
-1.80548e-06 2.99563e-06 7.17772e-06
-2.50536e-05 -1.29827e-05 1.79232e-05
-2.51288e-05 -1.45082e-05 1.8003e-05
-2.50468e-05 1.30346e-05 1.79069e-05
-2.51196e-05 1.46509e-05 1.7983e-05
-1.64856e-06 -3.12505e-06 7.21046e-06
6.32843e-06 1.13693e-05 1.40776e-05
5.3373e-07 -2.40878e-05 1.73032e-05
-5.22809e-07 1.80965e-06 4.64536e-06
7.40803e-06 -1.43448e-05 1.51535e-05
2.33044e-05 -1.32102e-05 1.77297e-05
2.36343e-05 -1.05384e-05 1.74918e-05
1.19893e-05 -1.82123e-05 1.62944e-05
1.47312e-05 -1.01474e-05 1.57967e-05
-1.00278e-05 1.00132e-06 1.27556e-05
-1.74012e-06 -8.1595e-07 4.72381e-06
7.69114e-07 3.70859e-06 7.57373e-06
2.34322e-06 -1.99729e-06 6.55579e-06
2.0158e-05 5.8983e-06 1.64547e-05
5.07043e-06 2.05975e-05 1.64971e-05
3.42121e-07 -2.76819e-05 1.78549e-05
-1.73133e-06 7.09153e-07 4.60667e-06
-3.21171e-06 6.23087e-07 6.82466e-06
3.57745e-06 1.47551e-06 7.63721e-06
4.99232e-07 2.83257e-05 1.79282e-05
2.4762e-05 1.3735e-05 1.79193e-05
-2.03298e-05 1.55368e-05 1.743e-05
1.17878e-06 1.36455e-06 4.46019e-06
-2.06411e-05 -1.57294e-05 1.75286e-05
-1.90004e-05 -2.32238e-06 1.59473e-05
-1.95606e-05 -5.58544e-06 1.63334e-05
9.0574e-07 -3.24796e-06 7.00664e-06
-4.36633e-06 -1.97908e-05 1.63229e-05
-7.9379e-06 1.38355e-05 1.51022e-05
1.16582e-06 -1.30426e-06 4.33962e-06
1.19354e-05 -1.12292e-05 1.52933e-05
6.13344e-06 -2.26978e-05 1.68216e-05
-1.45233e-05 1.43564e-05 1.63247e-05
7.92969e-06 1.33223e-05 1.49491e-05
1.79378e-06 8.58793e-07 -4.55258e-06
1.73791e-06 -8.25159e-07 -4.46113e-06
4.31977e-07 1.84972e-06 -4.49544e-06
4.36121e-07 -1.78073e-06 -4.3564e-06
-1.84759e-06 2.09646e-08 -4.42268e-06
-1.12315e-06 -1.30894e-06 -4.1513e-06
-1.15927e-06 1.30687e-06 -4.20008e-06
-2.25146e-05 -7.28825e-06 -1.70009e-05
-2.21979e-05 7.37214e-06 -1.69696e-05
-4.86072e-06 2.29001e-05 -1.6938e-05
-4.85823e-06 -2.31333e-05 -1.69649e-05
1.74225e-05 1.56365e-05 -1.69308e-05
1.75701e-05 -1.55375e-05 -1.69401e-05
2.10751e-05 3.16415e-06 -1.63254e-05
-1.39542e-05 1.71525e-05 -1.64794e-05
-1.35922e-05 -1.67425e-05 -1.6411e-05
7.76839e-06 1.9821e-05 -1.63322e-05
7.68539e-06 -2.03115e-05 -1.64035e-05
2.14739e-05 -3.44402e-06 -1.64012e-05
-2.11043e-05 6.58815e-09 -1.62477e-05
-2.24218e-05 1.10005e-05 -1.74545e-05
-1.87522e-05 9.25536e-06 -1.6628e-05
-1.79841e-05 5.79588e-06 -1.60373e-05
-1.4985e-05 7.44887e-06 -1.54873e-05
-1.42255e-05 4.30804e-06 -1.48306e-05
-1.15334e-05 5.7443e-06 -1.40956e-05
-1.08588e-05 3.06895e-06 -1.33744e-05
-8.40108e-06 4.30518e-06 -1.24052e-05
-9.05946e-06 7.01391e-06 -1.34572e-05
-6.20454e-06 5.48889e-06 -1.16897e-05
-6.8288e-06 8.25004e-06 -1.30808e-05
-4.2817e-06 6.67537e-06 -1.14512e-05
-4.80036e-06 9.61062e-06 -1.30948e-05
-2.40104e-06 7.99391e-06 -1.17237e-05
-2.81306e-06 1.1168e-05 -1.34758e-05
-4.75446e-07 9.59598e-06 -1.25018e-05
-7.3841e-07 1.29979e-05 -1.41426e-05
1.7312e-06 1.15186e-05 -1.35358e-05
-5.5351e-06 1.27013e-05 -1.44379e-05
1.6852e-06 8.22455e-06 -1.17483e-05
4.00447e-06 1.01216e-05 -1.31518e-05
3.70561e-06 7.09845e-06 -1.1479e-05
6.06784e-06 8.96732e-06 -1.31142e-05
5.76723e-06 6.10722e-06 -1.17363e-05
8.35869e-06 8.02091e-06 -1.34929e-05
8.10623e-06 5.19564e-06 -1.25012e-05
1.09548e-05 7.09757e-06 -1.41479e-05
1.07467e-05 4.32311e-06 -1.34999e-05
8.53115e-06 1.10383e-05 -1.44617e-05
7.93825e-06 2.64393e-06 -1.17282e-05
1.06468e-05 1.73733e-06 -1.31049e-05
7.94924e-06 3.58786e-07 -1.14563e-05
1.08072e-05 -7.59168e-07 -1.3125e-05
8.11222e-06 -1.93794e-06 -1.17099e-05
1.10991e-05 -3.31309e-06 -1.34848e-05
8.47034e-06 -4.4243e-06 -1.24449e-05
1.15046e-05 -6.00332e-06 -1.41103e-05
8.95622e-06 -7.13863e-06 -1.34289e-05
6.14795e-06 -5.4948e-06 -1.1642e-05
6.64498e-06 -8.30147e-06 -1.30191e-05
4.10549e-06 -6.58897e-06 -1.13117e-05
4.52368e-06 -9.55156e-06 -1.29891e-05
2.24245e-06 -7.85884e-06 -1.15981e-05
2.48501e-06 -1.10027e-05 -1.33518e-05
2.25305e-07 -9.37436e-06 -1.23544e-05
3.30035e-07 -1.27707e-05 -1.40347e-05
-1.91558e-06 -1.11515e-05 -1.33779e-05
-1.8412e-06 -7.92218e-06 -1.15829e-05
-4.16821e-06 -9.87557e-06 -1.30859e-05
-3.81421e-06 -6.73097e-06 -1.13179e-05
-6.34609e-06 -8.66265e-06 -1.31002e-05
-5.89172e-06 -5.69841e-06 -1.16292e-05
-8.50035e-06 -7.43634e-06 -1.33806e-05
-8.16813e-06 -4.7284e-06 -1.24095e-05
-1.10965e-05 -6.40324e-06 -1.40708e-05
-4.37198e-06 -1.31242e-05 -1.44346e-05
-1.08096e-05 -3.65095e-06 -1.34401e-05
7.22666e-06 -1.13736e-05 -1.42739e-05
-7.74225e-06 1.98283e-06 -1.14937e-05
-1.32171e-05 1.03513e-06 -1.42119e-05
1.72925e-06 1.50839e-05 -1.49532e-05
1.37691e-05 4.62273e-07 -1.43888e-05
1.38442e-05 6.10056e-06 -1.49327e-05
-9.69479e-06 1.0197e-05 -1.45335e-05
-5.41639e-06 -3.19788e-06 -1.01829e-05
-1.17145e-05 -9.29803e-06 -1.48902e-05
1.18833e-05 -8.76087e-06 -1.47881e-05
1.47829e-05 -7.47417e-06 -1.54044e-05
-1.39608e-05 -5.24429e-06 -1.48627e-05
2.79603e-06 -1.45172e-05 -1.47972e-05
4.24589e-07 -1.65006e-05 -1.53988e-05
3.51868e-06 4.39724e-06 -9.58182e-06
1.40116e-05 9.29975e-06 -1.54926e-05
1.79321e-05 8.14557e-06 -1.63016e-05
-1.56766e-05 1.13962e-05 -1.62345e-05
-1.09417e-06 1.67703e-05 -1.54963e-05
1.90698e-06 1.96231e-05 -1.6312e-05
-2.09202e-06 5.22044e-06 -9.59832e-06
5.55433e-06 -7.84658e-07 -9.59487e-06
3.5862e-06 -3.68381e-06 -9.08266e-06
-1.77976e-06 -5.17893e-06 -9.45032e-06
-2.24703e-05 -1.10116e-05 -1.74753e-05
-1.87995e-05 -9.2421e-06 -1.66521e-05
2.11493e-05 1.41657e-05 -1.75065e-05
2.07552e-05 -1.43186e-05 -1.74365e-05
-1.76468e-06 -2.54483e-05 -1.75119e-05
-1.68221e-06 2.54123e-05 -1.75165e-05
1.77143e-05 -1.19077e-05 -1.66882e-05
2.06472e-05 -1.07519e-05 -1.7117e-05
3.7759e-06 -1.89866e-05 -1.61404e-05
7.68574e-07 -2.03473e-05 -1.64839e-05
-1.94065e-05 -1.26514e-05 -1.71441e-05
-1.37321e-05 -2.3071e-06 -1.44729e-05
-1.6594e-05 -3.70172e-06 -1.54786e-05
-1.03766e-05 -1.09647e-06 -1.2953e-05
2.44537e-05 1.10736e-05 -1.76525e-05
2.54992e-05 -1.24041e-05 -1.7849e-05
2.64933e-06 2.67278e-05 -1.76614e-05
2.52108e-06 -2.64154e-05 -1.76303e-05
3.33965e-06 -2.30336e-05 -1.70301e-05
-2.05404e-06 -1.83212e-05 -1.59519e-05
4.05928e-06 2.3793e-05 -1.71314e-05
2.26157e-05 8.37991e-06 -1.71202e-05
4.61393e-06 1.73146e-05 -1.57283e-05
1.44281e-05 -1.31204e-05 -1.61384e-05
-1.57888e-05 -1.09855e-05 -1.62156e-05
-1.6801e-05 -3.81458e-07 -1.53784e-05
1.73072e-05 4.68784e-06 -1.57267e-05
6.55253e-08 -6.38775e-06 -1.02682e-05
1.74183e-06 -4.84878e-06 -9.09317e-06
5.85086e-06 -2.93571e-06 -1.03789e-05
-2.14457e-05 3.75082e-06 -1.64599e-05
5.72978e-06 -1.62757e-05 -1.55088e-05
9.08413e-06 -1.75003e-05 -1.59986e-05
1.75734e-05 1.18825e-05 -1.66733e-05
1.39953e-05 -1.63834e-05 -1.64023e-05
1.07408e-05 -1.379e-05 -1.55512e-05
-3.54821e-06 -4.22047e-06 -9.50147e-06
5.39947e-06 1.13857e-06 -9.49975e-06
5.2184e-06 3.22309e-06 -1.0048e-05
-1.74983e-06 -2.83563e-05 -1.78777e-05
1.89218e-06 5.29924e-06 -9.58516e-06
-1.13832e-07 6.10541e-06 -1.00395e-05
-3.78517e-06 4.12801e-06 -9.57911e-06
-5.62306e-06 3.03439e-06 -1.0286e-05
-5.16581e-06 1.04074e-06 -9.21429e-06
-7.52776e-06 -6.17436e-08 -1.11732e-05
-4.33465e-06 -8.10328e-07 -8.38247e-06
-3.10878e-06 1.87245e-06 -7.3746e-06
-2.20827e-05 -3.60806e-06 -1.65168e-05
2.34077e-05 -1.56889e-05 -1.7837e-05
-1.50729e-06 2.11694e-05 -1.6683e-05
2.12632e-05 -8.45267e-08 -1.62268e-05
1.76234e-05 -1.64693e-06 -1.55825e-05
1.7349e-05 -4.94204e-06 -1.57717e-05
2.1893e-05 -7.45168e-06 -1.69146e-05
-2.31837e-05 -1.42554e-05 -1.78336e-05
1.73259e-05 1.649e-06 -1.55096e-05
-1.73404e-06 2.84748e-05 -1.7895e-05
-4.22098e-07 3.68364e-06 -7.49585e-06
2.37734e-05 1.57433e-05 -1.78854e-05
-1.74986e-05 1.56433e-05 -1.69759e-05
-1.0627e-05 -1.84675e-05 -1.62561e-05
-1.01003e-05 -1.43434e-05 -1.55727e-05
-7.50832e-06 -1.6096e-05 -1.56231e-05
-7.32263e-06 -2.0122e-05 -1.63963e-05
-1.07052e-05 1.85366e-05 -1.62678e-05
-1.03481e-05 1.43851e-05 -1.56204e-05
-7.77317e-06 2.04939e-05 -1.64453e-05
-4.25328e-06 1.8611e-05 -1.6054e-05
1.07605e-05 1.83468e-05 -1.62272e-05
1.38927e-05 1.69361e-05 -1.6432e-05
1.4043e-05 1.29738e-05 -1.60523e-05
-7.36211e-06 1.62895e-05 -1.56396e-05
1.05259e-05 1.45481e-05 -1.56463e-05
7.74931e-06 1.60935e-05 -1.5615e-05
-3.11666e-06 -1.89888e-06 -7.39373e-06
-7.25818e-06 -1.24229e-05 -1.46262e-05
3.00884e-06 4.03627e-08 -6.60147e-06
4.87293e-06 1.35237e-05 -1.46191e-05
1.40771e-05 -2.26056e-06 -1.45715e-05
-1.7291e-05 -1.52177e-05 -1.69465e-05
-1.73678e-05 2.42049e-06 -1.55989e-05
-1.22056e-05 8.91258e-06 -1.49445e-05
-7.70617e-06 -2.29268e-06 -1.15555e-05
-1.24507e-05 1.18135e-05 -1.5541e-05
-1.42745e-07 -3.75446e-06 -7.55474e-06
2.7304e-06 2.27222e-06 -7.25247e-06
-2.00401e-06 -1.46516e-05 -1.48091e-05
9.36578e-06 -1.0069e-05 -1.43904e-05
1.38618e-05 3.15805e-06 -1.45671e-05
-7.34059e-06 1.12002e-05 -1.42613e-05
4.99759e-06 -1.27757e-05 -1.43703e-05
1.10327e-05 1.04313e-05 -1.49207e-05
-3.59671e-06 1.46864e-05 -1.49091e-05
-4.63581e-06 -1.66181e-05 -1.55499e-05
-1.95085e-05 1.28933e-05 -1.71623e-05
-2.31285e-05 1.48591e-05 -1.78443e-05
-1.29059e-05 -1.2687e-05 -1.58136e-05
3.76104e-06 -1.58623e-06 -7.90755e-06
1.7645e-06 2.92247e-06 -7.08497e-06
-9.23118e-06 -1.06103e-05 -1.45328e-05
1.72785e-06 -2.82333e-06 -6.93159e-06
9.94774e-07 2.41186e-05 -1.73095e-05
2.13694e-05 1.11947e-05 -1.72996e-05
-1.46657e-05 -7.95398e-06 -1.54864e-05
1.37091e-05 -4.78668e-06 -1.46917e-05
-1.91001e-06 -2.17645e-05 -1.68038e-05
1.80617e-05 -8.4197e-06 -1.63418e-05
-1.66802e-05 -6.32905e-06 -1.57835e-05
-4.32926e-07 -1.92243e-06 -4.79883e-06
-1.80548e-06 2.99563e-06 -7.17772e-06
-2.50536e-05 -1.29827e-05 -1.79232e-05
-2.51288e-05 -1.45082e-05 -1.8003e-05
-2.50468e-05 1.30346e-05 -1.79069e-05
-2.51196e-05 1.46509e-05 -1.7983e-05
-1.64856e-06 -3.12505e-06 -7.21046e-06
6.32843e-06 1.13693e-05 -1.40776e-05
5.3373e-07 -2.40878e-05 -1.73032e-05
-5.22809e-07 1.80965e-06 -4.64536e-06
7.40803e-06 -1.43448e-05 -1.51535e-05
2.33044e-05 -1.32102e-05 -1.77297e-05
2.36343e-05 -1.05384e-05 -1.74918e-05
1.19893e-05 -1.82123e-05 -1.62944e-05
1.47312e-05 -1.01474e-05 -1.57967e-05
-1.00278e-05 1.00132e-06 -1.27556e-05
-1.74012e-06 -8.1595e-07 -4.72381e-06
7.69114e-07 3.70859e-06 -7.57373e-06
2.34322e-06 -1.99729e-06 -6.55579e-06
2.0158e-05 5.8983e-06 -1.64547e-05
5.07043e-06 2.05975e-05 -1.64971e-05
3.42121e-07 -2.76819e-05 -1.78549e-05
-1.73133e-06 7.09153e-07 -4.60667e-06
-3.21171e-06 6.23087e-07 -6.82466e-06
3.57745e-06 1.47551e-06 -7.63721e-06
4.99232e-07 2.83257e-05 -1.79282e-05
2.4762e-05 1.3735e-05 -1.79193e-05
-2.03298e-05 1.55368e-05 -1.743e-05
1.17878e-06 1.36455e-06 -4.46019e-06
-2.06411e-05 -1.57294e-05 -1.75286e-05
-1.90004e-05 -2.32238e-06 -1.59473e-05
-1.95606e-05 -5.58544e-06 -1.63334e-05
9.0574e-07 -3.24796e-06 -7.00664e-06
-4.36633e-06 -1.97908e-05 -1.63229e-05
-7.9379e-06 1.38355e-05 -1.51022e-05
1.16582e-06 -1.30426e-06 -4.33962e-06
1.19354e-05 -1.12292e-05 -1.52933e-05
6.13344e-06 -2.26978e-05 -1.68216e-05
-1.45233e-05 1.43564e-05 -1.63247e-05
7.92969e-06 1.33223e-05 -1.49491e-05
SCALARS effective_fluid_pressure_TPM float
LOOKUP_TABLE default
665
665
665
665
665
665
665
665
665
665
665
665
665
665
133
665
665
665
665
665
665
665
665
665
665
665
665
665
665
133
665
560.34
520.693
502.837
502.608
519.82
559.961
665
562.007
520.788
503.28
503.389
520.72
561.629
665
559.628
519.691
502.782
502.999
521.188
561.644
665
558.884
519.035
501.57
502.266
518.884
559.473
665
558.524
519.975
501.903
501.834
519.407
557.964
665
558.68
519.988
502.075
501.937
519.396
559.687
133
133
133
133
133
133
665
560.34
520.693
502.837
502.608
519.82
559.961
665
562.007
520.788
503.28
503.389
520.72
561.629
665
559.628
519.691
502.782
502.999
521.188
561.644
665
558.884
519.035
501.57
502.266
518.884
559.473
665
558.524
519.975
501.903
501.834
519.407
557.964
665
558.68
519.988
502.075
501.937
519.396
559.687
133
133
133
133
133
133
228.268
226.338
227.051
224.12
225.535
219.856
220.873
529.191
528.201
526.58
527.959
526.607
527.66
498.732
503.578
501.617
498.973
501.489
501.271
494.354
562.521
519.005
495.055
480.762
461.383
443.302
425.07
402.142
427.295
385.287
417.762
379.633
417.925
385.972
427.411
404.32
444.406
429.1
450.283
386.581
419.325
380.228
418.337
386.211
427.784
404.248
444.516
428.184
450.88
386.056
418.189
379.645
418.545
385.579
427.621
402.942
443.579
426.476
384.072
416.161
376.328
415.368
383.045
424.442
400.868
441.728
425.25
382.781
417.801
376.593
418.119
383.866
425.29
402.235
442.701
450.673
426.749
446.032
380.753
444.698
465.312
448.765
464.786
453.434
350.926
463.527
461.059
478.465
462.795
460.665
478.37
337.299
480.842
505.872
503.632
480.908
506.179
337.712
337.524
326.186
334.437
563.397
519.681
567.597
562.384
567.915
567.768
521.829
542.737
498.645
513.755
542.082
451.476
477.593
414.679
579.536
611.039
579.689
576.05
534.573
494.495
538.247
537.943
485.053
498.131
503.348
473.156
485.101
352.771
326.436
355.2
503.46
477.733
488.376
520.898
502.043
477.931
335.563
335.426
347.723
613.456
337.4
347.594
337.287
353.227
329.21
373.28
310.68
288.805
504.726
608.392
521.119
493.738
478.343
486.37
526.513
600.353
476.58
615.909
291.414
615.808
528.741
494.549
478.25
479.424
501.33
494.856
479.451
502.526
495.189
493.76
502.277
495.262
479.898
480.064
479.066
289.311
454.606
271.958
455.014
453.642
527.022
479.487
465.236
382.123
480.522
292.687
286.099
461.492
449.647
453.991
445.868
448.703
463.617
463.275
479.966
543.477
601.714
487.506
300.32
282.478
453.027
279.179
552.258
552.017
480.787
458.031
526.244
508.198
488.602
233.741
284.575
614.516
636.327
615.15
636.684
285.297
441.354
553.098
230.496
467.566
590.277
566.049
495.829
490.061
410.057
232.13
293.113
271.141
507.907
509.205
607.825
229.673
276.992
294.448
618.887
618.8
558.531
226.532
562.544
488.326
503.407
280.863
504.077
466.392
224.017
473.598
519.592
502.993
462.458
228.268
226.338
227.051
224.12
225.535
219.856
220.873
529.191
528.201
526.58
527.959
526.607
527.66
498.732
503.578
501.617
498.973
501.489
501.271
494.354
562.521
519.005
495.055
480.762
461.383
443.302
425.07
402.142
427.295
385.287
417.762
379.633
417.925
385.972
427.411
404.32
444.406
429.1
450.283
386.581
419.325
380.228
418.337
386.211
427.784
404.248
444.516
428.184
450.88
386.056
418.189
379.645
418.545
385.579
427.621
402.942
443.579
426.476
384.072
416.161
376.328
415.368
383.045
424.442
400.868
441.728
425.25
382.781
417.801
376.593
418.119
383.866
425.29
402.235
442.701
450.673
426.749
446.032
380.753
444.698
465.312
448.765
464.786
453.434
350.926
463.527
461.059
478.465
462.795
460.665
478.37
337.299
480.842
505.872
503.632
480.908
506.179
337.712
337.524
326.186
334.437
563.397
519.681
567.597
562.384
567.915
567.768
521.829
542.737
498.645
513.755
542.082
451.476
477.593
414.679
579.536
611.039
579.689
576.05
534.573
494.495
538.247
537.943
485.053
498.131
503.348
473.156
485.101
352.771
326.436
355.2
503.46
477.733
488.376
520.898
502.043
477.931
335.563
335.426
347.723
613.456
337.4
347.594
337.287
353.227
329.21
373.28
310.68
288.805
504.726
608.392
521.119
493.738
478.343
486.37
526.513
600.353
476.58
615.909
291.414
615.808
528.741
494.549
478.25
479.424
501.33
494.856
479.451
502.526
495.189
493.76
502.277
495.262
479.898
480.064
479.066
289.311
454.606
271.958
455.014
453.642
527.022
479.487
465.236
382.123
480.522
292.687
286.099
461.492
449.647
453.991
445.868
448.703
463.617
463.275
479.966
543.477
601.714
487.506
300.32
282.478
453.027
279.179
552.258
552.017
480.787
458.031
526.244
508.198
488.602
233.741
284.575
614.516
636.327
615.15
636.684
285.297
441.354
553.098
230.496
467.566
590.277
566.049
495.829
490.061
410.057
232.13
293.113
271.141
507.907
509.205
607.825
229.673
276.992
294.448
618.887
618.8
558.531
226.532
562.544
488.326
503.407
280.863
504.077
466.392
224.017
473.598
519.592
502.993
462.458

CELL_DATA 563
TENSORS stress float
164.623 -24.9213 -3.17849e-12
-24.9213 28.1522 9.26074e-13
-3.17849e-12 9.26074e-13 -12.601

-40.3396 -21.3208 -3.34777e-12
-21.3208 -7.35488 -2.73737e-12
-3.34777e-12 -2.73737e-12 -10.234

-9.94209 28.0455 5.98632e-13
28.0455 -1.11145 -2.02149e-12
5.98632e-13 -2.02149e-12 -6.36293

-40.4274 -29.8425 7.40696e-12
-29.8425 -12.8458 1.44536e-12
7.40696e-12 1.44536e-12 -10.6002

-22.6912 19.9308 1.95932e-12
19.9308 -1.926 -5.19274e-12
1.95932e-12 -5.19274e-12 -23.0201

-27.1426 -18.076 -1.58481e-12
-18.076 15.888 6.47186e-13
-1.58481e-12 6.47186e-13 -6.41372

161.274 26.4856 -6.58436e-13
26.4856 28.0288 8.09308e-12
-6.58436e-13 8.09308e-12 -13.26

-5.96289 29.9593 -5.41789e-13
29.9593 -10.1131 -1.79027e-12
-5.41789e-13 -1.79027e-12 -7.27859

34.6327 5.48355 -2.86586e-13
5.48355 -19.0984 -4.71512e-13
-2.86586e-13 -4.71512e-13 -4.12471

11.8602 -7.47764 -7.99361e-13
-7.47764 -48.2882 -2.17448e-12
-7.99361e-13 -2.17448e-12 -8.94916

104.203 16.3102 -2.60059e-12
16.3102 -8.44386 3.1329e-12
-2.60059e-12 3.1329e-12 -22.4536

-34.6398 -13.4541 -3.08997e-12
-13.4541 18.9656 -1.74675e-13
-3.08997e-12 -1.74675e-13 -7.18286

-6.02757 27.8348 8.60349e-13
27.8348 -4.59215 -1.26358e-12
8.60349e-13 -1.26358e-12 -6.16157

-35.5541 -14.3409 5.06232e-12
-14.3409 7.84506 2.10321e-12
5.06232e-12 2.10321e-12 -9.13342

-23.6537 33.3093 2.27433e-12
33.3093 -24.9928 1.25868e-12
2.27433e-12 1.25868e-12 -21.3644

21.3114 0.561074 -4.48234e-13
0.561074 -32.3412 2.67009e-12
-4.48234e-13 2.67009e-12 -5.5922

-48.9602 -17.9688 1.70456e-12
-17.9688 6.34238 -5.18637e-12
1.70456e-12 -5.18637e-12 -12.9475

11.6602 -2.6652 -1.53862e-12
-2.6652 -43.2519 8.87216e-13
-1.53862e-12 8.87216e-13 -8.03615

-11.3528 26.6764 1.27898e-13
26.6764 19.5172 -1.05338e-12
1.27898e-13 -1.05338e-12 -6.09221

21.7658 -4.19601 -2.55677e-12
-4.19601 -35.2986 2.69288e-12
-2.55677e-12 2.69288e-12 -6.74408

-24.4825 8.6696 -3.32416e-12
8.6696 32.1284 9.76996e-13
-3.32416e-12 9.76996e-13 -4.93678

-11.8085 6.28617 3.10219e-12
6.28617 -11.9705 3.98644e-12
3.10219e-12 3.98644e-12 -75.6065

22.7438 1.8761 -1.81188e-13
1.8761 -33.4731 -4.27732e-13
-1.81188e-13 -4.27732e-13 -6.68005

-12.3903 -27.7175 -2.25982e-12
-27.7175 1.59857 -4.0347e-12
-2.25982e-12 -4.0347e-12 -6.60545

21.3048 6.84989 -2.61243e-12
6.84989 -34.3081 -2.44279e-12
-2.61243e-12 -2.44279e-12 -6.80927

-37.9078 19.1137 1.63306e-12
19.1137 2.65373 -2.22962e-12
1.63306e-12 -2.22962e-12 -9.45999

106.611 4.18182 6.31436e-12
4.18182 20.6037 -8.80511e-12
6.31436e-12 -8.80511e-12 -12.0485

-5.30339 30.7479 -1.03325e-12
30.7479 -7.27433 2.68792e-12
-1.03325e-12 2.68792e-12 -7.44413

27.8904 37.0784 3.64272e-12
37.0784 26.4696 -2.70362e-12
3.64272e-12 -2.70362e-12 -8.63403

-9.43918 10.3236 3.11159e-13
10.3236 -32.9256 -1.12292e-12
3.11159e-13 -1.12292e-12 -49.501

19.8311 14.2173 3.55271e-14
14.2173 -29.3619 8.57092e-13
3.55271e-14 8.57092e-13 -6.00331

-4.21317 -17.7823 -2.8777e-12
-17.7823 59.6615 -2.96059e-14
-2.8777e-12 -2.96059e-14 -8.47793

66.2883 -42.1054 2.8398e-12
-42.1054 71.1438 -9.02389e-13
2.8398e-12 -9.02389e-13 -11.2509

-48.208 5.98557 2.3305e-12
5.98557 7.26911 -6.0633e-13
2.3305e-12 -6.0633e-13 -41.0322

-26.2905 -4.83887 4.46162e-13
-4.83887 1.75659 7.02253e-13
4.46162e-13 7.02253e-13 -37.7974

-1.46769 21.0274 6.48666e-13
21.0274 -39.5041 1.07869e-12
6.48666e-13 1.07869e-12 -41.098

-43.9714 5.06571 1.56926e-12
5.06571 0.514052 2.69917e-12
1.56926e-12 2.69917e-12 -52.1829

-2.76119 -9.17077 -3.97341e-12
-9.17077 -20.7682 -3.52253e-12
-3.97341e-12 -3.52253e-12 -35.8922

-3.97584 -27.9999 -4.78551e-12
-27.9999 -4.61124 -3.91627e-12
-4.78551e-12 -3.91627e-12 -5.99693

65.6021 41.5246 2.70006e-12
41.5246 73.1718 -1.03052e-11
2.70006e-12 -1.03052e-11 -10.9626

60.159 -17.951 -4.41365e-12
-17.951 0.114489 5.15203e-12
-4.41365e-12 5.15203e-12 -8.05177

-41.7994 -3.70452 1.93771e-13
-3.70452 -1.18567 -5.90343e-13
1.93771e-13 -5.90343e-13 -52.7176

-14.5915 19.5529 -3.36324e-12
19.5529 -28.5497 1.8258e-12
-3.36324e-12 1.8258e-12 -52.8258

18.1417 -12.2736 1.06581e-13
-12.2736 -29.9018 -1.19652e-12
1.06581e-13 -1.19652e-12 -6.22548

38.1751 -43.3033 -1.53714e-12
-43.3033 41.8036 5.49486e-12
-1.53714e-12 5.49486e-12 -14.5598

58.1475 -18.0653 -6.49791e-12
-18.0653 -2.30554 -3.34133e-12
-6.49791e-12 -3.34133e-12 -7.91551

-21.4457 17.0873 -1.59961e-12
17.0873 30.328 -6.90292e-12
-1.59961e-12 -6.90292e-12 -5.73105

-11.3752 19.3409 -2.62664e-12
19.3409 25.5111 -1.01844e-13
-2.62664e-12 -1.01844e-13 -3.92432

20.791 -16.3021 -1.44536e-12
-16.3021 -33.1178 2.60118e-12
-1.44536e-12 2.60118e-12 -7.31428

12.6142 -34.189 1.82136e-12
-34.189 46.438 -3.81325e-13
1.82136e-12 -3.81325e-13 -10.3989

62.3641 19.1838 7.25938e-13
19.1838 2.80818 -2.63967e-12
7.25938e-13 -2.63967e-12 -8.41553

46.5157 -25.2909 3.45324e-12
-25.2909 5.13198 2.75987e-12
3.45324e-12 2.75987e-12 -5.6121

-31.8967 19.4841 -8.19345e-13
19.4841 -4.28484 3.19685e-12
-8.19345e-13 3.19685e-12 -26.0836

37.0403 29.6524 -1.87346e-12
29.6524 14.5117 -2.06886e-12
-1.87346e-12 -2.06886e-12 -5.4345

-27.4483 -21.8127 2.85609e-12
-21.8127 -8.23048 -2.47687e-12
2.85609e-12 -2.47687e-12 -25.2462

64.8727 -42.7152 -1.73372e-12
-42.7152 44.0826 1.90425e-12
-1.73372e-12 1.90425e-12 -9.5023

-27.7486 5.45782 -9.29627e-13
5.45782 2.66904 3.19981e-12
-9.29627e-13 3.19981e-12 -38.3029

-5.56083 -5.3304 2.18788e-13
-5.3304 57.3913 -3.06718e-12
2.18788e-13 -3.06718e-12 -5.45154

-0.201746 10.3846 -6.51331e-15
10.3846 -24.8458 -3.04009e-12
-6.51331e-15 -3.04009e-12 -38.3644

-26.4884 21.4147 -8.65974e-13
21.4147 12.2192 -1.07588e-12
-8.65974e-13 -1.07588e-12 -6.87246

4.72561 5.75465 2.78622e-12
5.75465 -56.0403 1.35492e-12
2.78622e-12 1.35492e-12 -13.9822

0.540456 11.459 1.32487e-12
11.459 -34.0576 -5.06795e-12
1.32487e-12 -5.06795e-12 -14.8402

106.351 31.8222 1.14871e-12
31.8222 37.8349 7.10543e-12
1.14871e-12 7.10543e-12 -7.48896

-35.493 -6.036 5.95997e-12
-6.036 10.6013 -4.65998e-12
5.95997e-12 -4.65998e-12 -13.4796

-35.3606 9.52044 7.51991e-14
9.52044 1.23394 3.98111e-12
7.51991e-14 3.98111e-12 -14.9605

-42.5897 -2.88144 -3.91502e-13
-2.88144 21.1106 1.2547e-12
-3.91502e-13 1.2547e-12 -11.2403

-44.9089 23.4014 4.38261e-12
23.4014 -5.89264 -9.25482e-13
4.38261e-12 -9.25482e-13 -13.9232

9.97097 8.46411 -5.7027e-12
8.46411 -42.3807 5.86198e-14
-5.7027e-12 5.86198e-14 -9.08023

-12.3367 -28.2416 4.70172e-12
-28.2416 1.68611 2.89369e-12
4.70172e-12 2.89369e-12 -6.67664

1.30881 -1.71149 3.34251e-12
-1.71149 -55.4572 -9.9698e-14
3.34251e-12 -9.9698e-14 -11.306

-31.8862 -19.2601 -1.95044e-12
-19.2601 -4.59411 6.06863e-12
-1.95044e-12 6.06863e-12 -25.9529

-27.9736 21.3078 -2.35397e-12
21.3078 -8.36021 -3.85332e-12
-2.35397e-12 -3.85332e-12 -26.0113

-0.654293 -16.5852 1.09098e-13
-16.5852 61.6775 1.77399e-12
1.09098e-13 1.77399e-12 -7.9506

-0.650358 -27.937 3.2756e-12
-27.937 -21.3631 -4.34112e-12
3.2756e-12 -4.34112e-12 -12.792

-14.095 -25.1364 -4.16852e-13
-25.1364 7.4064 -4.448e-12
-4.16852e-13 -4.448e-12 -5.23854

91.6852 -31.7133 -2.57216e-12
-31.7133 19.4861 1.21799e-12
-2.57216e-12 1.21799e-12 -16.3325

-33.7078 3.22302 1.07122e-12
3.22302 9.20016 -2.19735e-12
1.07122e-12 -2.19735e-12 -18.563

2.75089 28.9449 -3.33067e-12
28.9449 -24.4258 -1.11437e-12
-3.33067e-12 -1.11437e-12 -11.3179

-38.436 19.6649 5.17245e-12
19.6649 5.2294 5.23729e-13
5.17245e-12 5.23729e-13 -9.2375

50.1933 8.00034 -2.64559e-12
8.00034 -16.9681 -4.52379e-13
-2.64559e-12 -4.52379e-13 -7.06929

60.0352 -33.9388 -4.28694e-12
-33.9388 33.7879 7.55307e-12
-4.28694e-12 7.55307e-12 -6.98454

-18.9622 -10.5869 1.64343e-12
-10.5869 -0.540702 -3.84877e-13
1.64343e-12 -3.84877e-13 -25.429

-33.9258 23.9001 -2.57631e-12
23.9001 -12.0246 6.30255e-13
-2.57631e-12 6.30255e-13 -14.5413

58.1599 -32.387 2.90375e-12
-32.387 18.0911 -3.20928e-12
2.90375e-12 -3.20928e-12 -10.1349

66.864 10.7922 -1.15818e-12
10.7922 8.51156 1.79989e-12
-1.15818e-12 1.79989e-12 -5.08582

7.67322 -21.208 -1.68251e-12
-21.208 88.4713 -6.27646e-13
-1.68251e-12 -6.27646e-13 -11.8626

-33.9894 14.4264 -3.40254e-12
14.4264 20.2383 4.49596e-12
-3.40254e-12 4.49596e-12 -7.54896

8.4747 23.1446 5.58013e-12
23.1446 -26.0754 -2.88362e-13
5.58013e-12 -2.88362e-13 -11.3004

34.8704 42.2027 5.38355e-12
42.2027 46.2021 -3.48521e-12
5.38355e-12 -3.48521e-12 -14.4212

-4.39436 16.5055 -1.07294e-11
16.5055 -35.5374 1.0479e-11
-1.07294e-11 1.0479e-11 -73.2741

-5.98301 -4.10881 -2.48335e-12
-4.10881 57.9518 1.14871e-13
-2.48335e-12 1.14871e-13 -5.44375

-1.81924 -16.6308 2.78281e-12
-16.6308 -39.3969 -7.97555e-12
2.78281e-12 -7.97555e-12 -74.0972

-3.33045 -27.3348 2.28321e-12
-27.3348 -30.0293 5.0302e-12
2.28321e-12 5.0302e-12 -21.5532

8.96647 27.4252 3.1933e-12
27.4252 -29.997 2.55114e-12
3.1933e-12 2.55114e-12 -11.2587

45.7135 -24.413 -5.1988e-12
-24.413 5.02231 -1.59458e-12
-5.1988e-12 -1.59458e-12 -5.23818

10.094 31.3265 -2.53841e-12
31.3265 47.1657 -6.15804e-12
-2.53841e-12 -6.15804e-12 -9.64209

14.2716 -10.7061 -1.54306e-12
-10.7061 82.8447 4.66116e-12
-1.54306e-12 4.66116e-12 -6.4478

-38.6338 21.9713 -1.62285e-12
21.9713 2.94118 -7.99361e-15
-1.62285e-12 -7.99361e-15 -8.57121

1.19315 16.795 -3.25665e-15
16.795 -25.7237 9.56864e-13
-3.25665e-15 9.56864e-13 -18.5672

-26.5402 15.1552 1.61604e-12
15.1552 18.4494 -1.5626e-12
1.61604e-12 -1.5626e-12 -5.71046

43.6609 15.9552 -4.9738e-14
15.9552 -7.28816 -1.40332e-13
-4.9738e-14 -1.40332e-13 -4.07753

12.5758 -21.4747 1.00364e-12
-21.4747 57.9591 -4.15668e-13
1.00364e-12 -4.15668e-13 -4.71562

66.0008 -29.3935 -2.38269e-12
-29.3935 18.6434 7.11076e-12
-2.38269e-12 7.11076e-12 -9.33618

-32.3824 -24.5741 1.57148e-12
-24.5741 -7.28255 -2.60384e-12
1.57148e-12 -2.60384e-12 -8.97875

-22.6684 27.4524 9.37028e-13
27.4524 -10.3518 -6.22021e-13
9.37028e-13 -6.22021e-13 -9.28628

-38.3519 23.1882 -2.63167e-12
23.1882 1.99074 -3.51008e-12
-2.63167e-12 -3.51008e-12 -8.52713

-51.554 13.1688 -4.51766e-12
13.1688 11.926 1.13687e-12
-4.51766e-12 1.13687e-12 -16.4669

23.4853 9.37266 -7.11135e-13
9.37266 -29.4909 2.9828e-13
-7.11135e-13 2.9828e-13 -5.32406

3.76688 -4.66545 9.68114e-14
-4.66545 79.4438 3.00323e-12
9.68114e-14 3.00323e-12 -9.53236

-44.9387 -36.8319 3.46982e-12
-36.8319 -19.8285 -1.48836e-12
3.46982e-12 -1.48836e-12 -14.7719

-16.082 27.4674 3.37804e-13
27.4674 1.33976 -1.87287e-12
3.37804e-13 -1.87287e-12 -6.91749

-5.01757 2.17044 1.07847e-12
2.17044 82.6798 3.82272e-12
1.07847e-12 3.82272e-12 -13.4319

69.0501 34.6137 -9.85286e-12
34.6137 15.4964 -1.36365e-12
-9.85286e-12 -1.36365e-12 -10.7067

-31.3539 -22.9751 -2.62605e-13
-22.9751 -4.63321 2.37025e-12
-2.62605e-13 2.37025e-12 -8.53242

11.7431 5.73294 -1.01815e-12
5.73294 -48.3371 -1.17676e-12
-1.01815e-12 -1.17676e-12 -8.64353

43.0676 27.2067 -2.49519e-12
27.2067 10.4506 -1.5099e-12
-2.49519e-12 -1.5099e-12 -5.08284

-9.41282 12.7448 -2.34242e-12
12.7448 -14.0404 -7.03348e-12
-2.34242e-12 -7.03348e-12 -37.0356

70.3393 24.3329 2.72375e-12
24.3329 23.8051 2.36848e-13
2.72375e-12 2.36848e-13 -6.80029

-10.5838 -13.0543 1.44388e-12
-13.0543 -13.9222 -4.83347e-12
1.44388e-12 -4.83347e-12 -37.3733

-4.38246 0.778653 6.24093e-13
0.778653 59.4016 -2.54848e-12
6.24093e-13 -2.54848e-12 -4.83267

38.3586 -2.23554 1.53833e-12
-2.23554 -23.8152 8.01692e-13
1.53833e-12 8.01692e-13 -5.83508

3.59315 -15.7666 5.73911e-13
-15.7666 -53.9689 1.29082e-12
5.73911e-13 1.29082e-12 -21.1235

-42.2781 24.3883 3.99962e-13
24.3883 -11.737 -1.72203e-12
3.99962e-13 -1.72203e-12 -11.1697

-46.8127 -13.5353 -3.5198e-12
-13.5353 11.0667 1.22391e-12
-3.5198e-12 1.22391e-12 -12.3551

5.80968 -7.9995 3.56766e-12
-7.9995 -70.9653 -1.3789e-12
3.56766e-12 -1.3789e-12 -14.8831

-49.5386 -22.2823 6.73269e-12
-22.2823 3.74729 4.30174e-13
6.73269e-12 4.30174e-13 -22.1035

-17.4585 -6.59815 -8.25059e-12
-6.59815 -13.1155 -1.28001e-12
-8.25059e-12 -1.28001e-12 -34.7771

-28.7305 -29.9085 -2.05554e-12
-29.9085 -9.40007 1.3977e-12
-2.05554e-12 1.3977e-12 -8.9982

15.6928 11.4547 -3.75019e-12
11.4547 80.1859 -1.22924e-12
-3.75019e-12 -1.22924e-12 -6.53145

42.2918 -28.1493 2.70362e-12
-28.1493 11.0496 -5.09578e-12
2.70362e-12 -5.09578e-12 -5.04611

-47.1702 -13.7708 -4.86552e-12
-13.7708 4.19627 -1.65793e-14
-4.86552e-12 -1.65793e-14 -29.2981

2.96452 0.504902 2.0702e-12
0.504902 -56.8129 -2.52901e-12
2.0702e-12 -2.52901e-12 -11.0074

-39.3377 -21.5241 -2.51354e-13
-21.5241 -8.85681 -1.50161e-12
-2.51354e-13 -1.50161e-12 -14.7753

-40.1954 25.6982 3.24585e-12
25.6982 -14.692 -7.10543e-15
3.24585e-12 -7.10543e-15 -11.313

32.2612 -31.4676 5.37999e-12
-31.4676 38.4308 9.68707e-13
5.37999e-12 9.68707e-13 -4.64979

-31.4682 -7.08307 5.22922e-12
-7.08307 1.70146 1.53122e-12
5.22922e-12 1.53122e-12 -40.9868

36.6315 -33.0798 3.61429e-12
-33.0798 72.032 -5.85014e-13
3.61429e-12 -5.85014e-13 -7.14509

16.613 -19.1809 1.14279e-13
-19.1809 -25.8727 1.08891e-12
1.14279e-13 1.08891e-12 -7.13556

1.50234 1.97122 2.42717e-12
1.97122 -51.3916 -1.03236e-12
2.42717e-12 -1.03236e-12 -15.3751

-12.8733 17.8744 5.03123e-12
17.8744 -16.9559 1.12828e-12
5.03123e-12 1.12828e-12 -41.0544

10.7117 20.1849 -8.22453e-13
20.1849 59.4576 -1.73017e-12
-8.22453e-13 -1.73017e-12 -4.35832

4.31724 27.2121 -2.9073e-13
27.2121 -16.2247 3.7419e-12
-2.9073e-13 3.7419e-12 -8.1262

30.9053 -24.5136 -7.48438e-13
-24.5136 -8.13525 -7.42221e-13
-7.48438e-13 -7.42221e-13 -4.87477

-37.7898 -17.8392 -1.87779e-12
-17.8392 2.40072 1.80448e-12
-1.87779e-12 1.80448e-12 -9.86667

55.5168 35.0714 3.68061e-12
35.0714 42.3474 8.40809e-14
3.68061e-12 8.40809e-14 -6.637

-40.0165 -21.8314 -5.18415e-12
-21.8314 2.53669 -1.80596e-12
-5.18415e-12 -1.80596e-12 -9.3962

2.96576 30.8517 1.66149e-12
30.8517 -17.3909 8.39329e-13
1.66149e-12 8.39329e-13 -9.08037

18.5374 -25.2454 6.43989e-12
-25.2454 -19.4208 4.4705e-14
6.43989e-12 4.4705e-14 -6.34495

-15.6557 -25.1281 5.71069e-12
-25.1281 5.89523 9.166e-13
5.71069e-12 9.166e-13 -5.77819

42.7202 -18.6899 -2.41585e-13
-18.6899 -9.16905 -4.31063e-13
-2.41585e-13 -4.31063e-13 -5.37155

27.4325 -18.8512 2.6675e-12
-18.8512 -20.3718 1.53477e-12
2.6675e-12 1.53477e-12 -5.69242

-41.3942 -25.3375 -2.05554e-12
-25.3375 -14.9645 2.49715e-12
-2.05554e-12 2.49715e-12 -11.5691

29.7815 35.9729 -6.21133e-12
35.9729 25.2273 7.63833e-13
-6.21133e-12 7.63833e-13 -8.64614

-28.5204 15.3779 4.99822e-12
15.3779 18.5189 3.83101e-12
4.99822e-12 3.83101e-12 -5.87642

-23.1092 26.4235 1.09897e-12
26.4235 -12.5481 1.05723e-12
1.09897e-12 1.05723e-12 -9.96029

-42.0977 25.4736 -1.31075e-12
25.4736 -11.5926 9.51091e-13
-1.31075e-12 9.51091e-13 -10.9949

-37.2902 11.6224 6.142e-12
11.6224 11.8441 5.96264e-13
6.142e-12 5.96264e-13 -9.08241

64.3971 -8.22777 -3.48166e-13
-8.22777 3.19542 1.98508e-13
-3.48166e-13 1.98508e-13 -4.25252

8.73225 18.6083 7.72478e-12
18.6083 59.2234 2.46203e-12
7.72478e-12 2.46203e-12 -4.16398

-25.6169 -24.3817 -4.16674e-12
-24.3817 0.457999 5.19407e-12
-4.16674e-12 5.19407e-12 -7.2182

-1.14345 25.6681 1.14397e-12
25.6681 13.7521 2.16656e-12
1.14397e-12 2.16656e-12 -4.08529

32.3795 -35.6328 3.99917e-12
-35.6328 21.6999 -7.17056e-13
3.99917e-12 -7.17056e-13 -8.48789

59.5401 38.3202 1.06226e-12
38.3202 17.8478 1.39977e-12
1.06226e-12 1.39977e-12 -13.723

12.1239 -33.3143 -3.35258e-12
-33.3143 42.9154 1.56319e-13
-3.35258e-12 1.56319e-13 -9.54443

30.5518 -31.1626 7.21911e-12
-31.1626 36.8148 -1.89241e-12
7.21911e-12 -1.89241e-12 -4.40709

11.7689 -6.83862 -9.51831e-13
-6.83862 -48.8389 1.90174e-12
-9.51831e-13 1.90174e-12 -8.77232

25.2745 30.3447 2.31637e-12
30.3447 41.0907 6.20422e-12
2.31637e-12 6.20422e-12 -4.45761

62.6859 13.2959 -4.93472e-12
13.2959 5.22616 1.16292e-12
-4.93472e-12 1.16292e-12 -4.30708

-7.0289 13.3801 4.63777e-13
13.3801 61.3479 3.6285e-12
4.63777e-13 3.6285e-12 -8.69674

11.7283 -22.3425 1.04983e-12
-22.3425 55.7663 3.19744e-12
1.04983e-12 3.19744e-12 -4.30306

-47.2602 -1.09225 1.17684e-12
-1.09225 12.409 -2.27492e-12
1.17684e-12 -2.27492e-12 -22.1609

-5.9221 2.24687 -5.11191e-12
2.24687 59.0078 -3.50534e-12
-5.11191e-12 -3.50534e-12 -5.26443

6.26697 31.0923 2.41111e-12
31.0923 47.8677 4.65169e-12
2.41111e-12 4.65169e-12 -9.66223

-39.7264 12.1086 5.22999e-12
12.1086 12.8443 -6.10771e-12
5.22999e-12 -6.10771e-12 -9.31479

40.7398 -27.6502 -7.87044e-12
-27.6502 8.35603 -7.4903e-13
-7.87044e-12 -7.4903e-13 -5.64396

7.53871 20.5571 -2.38328e-12
20.5571 -47.4673 5.79388e-13
-2.38328e-12 5.79388e-13 -16.4824

-3.42206 26.2704 5.48184e-12
26.2704 -31.4859 3.85558e-12
5.48184e-12 3.85558e-12 -22.2513

15.7771 -18.5689 -3.84759e-12
-18.5689 -30.0159 -1.04746e-12
-3.84759e-12 -1.04746e-12 -8.18515

4.42781 -1.80289 -1.5663e-12
-1.80289 -34.1329 -4.11671e-12
-1.5663e-12 -4.11671e-12 -24.4376

-14.3411 -31.8129 -1.4951e-12
-31.8129 -11.9318 -1.83379e-12
-1.4951e-12 -1.83379e-12 -9.05168

56.2215 23.33 -1.86991e-12
23.33 0.814407 -8.08242e-13
-1.86991e-12 -8.08242e-13 -8.28971

-27.8288 30.1625 1.26536e-12
30.1625 -9.23666 -1.33227e-12
1.26536e-12 -1.33227e-12 -8.80246

-27.0045 29.2063 1.85185e-12
29.2063 -9.20193 1.31302e-12
1.85185e-12 1.31302e-12 -8.67976

28.6289 30.6638 -1.76807e-12
30.6638 40.4074 -8.1215e-12
-1.76807e-12 -8.1215e-12 -4.45057

0.343054 27.086 -1.22273e-12
27.086 -19.8482 -2.69444e-12
-1.22273e-12 -2.69444e-12 -11.7783

64.5123 3.52548 -2.67993e-12
3.52548 -11.8293 1.51405e-12
-2.67993e-12 1.51405e-12 -10.0201

-14.9006 31.8172 7.78044e-13
31.8172 -20.7989 7.01661e-13
7.78044e-13 7.01661e-13 -12.4488

-37.9465 -12.5994 1.5139e-12
-12.5994 8.18024 1.37904e-12
1.5139e-12 1.37904e-12 -14.0237

-0.474738 24.2776 -2.82204e-12
24.2776 -30 3.83397e-13
-2.82204e-12 3.83397e-13 -20.7705

-23.7283 -29.5792 -3.94322e-12
-29.5792 -11.9351 -4.95426e-12
-3.94322e-12 -4.95426e-12 -8.84535

-38.1509 -4.89756 3.72855e-12
-4.89756 18.8468 1.95518e-12
3.72855e-12 1.95518e-12 -11.7313

69.9493 -24.5587 5.56118e-12
-24.5587 18.0284 1.03858e-12
5.56118e-12 1.03858e-12 -7.04526

39.9836 29.696 2.25716e-12
29.696 13.4784 3.39758e-12
2.25716e-12 3.39758e-12 -5.21697

-4.29897 14.698 -3.8658e-12
14.698 60.5751 1.56083e-12
-3.8658e-12 1.56083e-12 -8.40262

1.61128 -1.13918 -5.30094e-13
-1.13918 -56.1243 1.39104e-12
-5.30094e-13 1.39104e-12 -11.2113

9.61415 0.00217985 -2.88658e-13
0.00217985 -44.757 3.19736e-12
-2.88658e-13 3.19736e-12 -8.44053

-31.0809 23.1251 -6.48814e-13
23.1251 -4.33794 7.09359e-13
-6.48814e-13 7.09359e-13 -8.46096

-34.7621 23.8714 -7.28306e-14
23.8714 -13.1936 2.96929e-12
-7.28306e-14 2.96929e-12 -14.8141

-43.3795 -24.3809 2.23488e-12
-24.3809 -12.6138 -1.91787e-12
2.23488e-12 -1.91787e-12 -11.4707

-39.0615 -0.673351 -1.42664e-13
-0.673351 21.0463 -2.07538e-12
-1.42664e-13 -2.07538e-12 -10.497

-40.8071 25.5909 -2.48246e-13
25.5909 -13.2232 2.54878e-12
-2.48246e-13 2.54878e-12 -11.1744

32.3228 -10.3088 -2.77526e-12
-10.3088 -25.1579 3.31587e-14
-2.77526e-12 3.31587e-14 -6.01694

8.70514 -32.8368 -3.07487e-12
-32.8368 22.7977 8.0842e-12
-3.07487e-12 8.0842e-12 -6.99442

2.39651 -2.30176 -2.03363e-12
-2.30176 -49.9612 1.65675e-12
-2.03363e-12 1.65675e-12 -14.7737

36.7469 -34.5117 6.70516e-12
-34.5117 24.4798 1.38556e-13
6.70516e-12 1.38556e-13 -7.71078

-38.295 19.0859 2.23599e-12
19.0859 -7.09324 -1.5931e-12
2.23599e-12 -1.5931e-12 -14.4505

7.87054 -26.4792 -6.72706e-12
-26.4792 -27.9967 -2.8854e-12
-6.72706e-12 -2.8854e-12 -10.9706

63.9515 -9.69125 -4.01338e-12
-9.69125 5.67549 -3.34562e-12
-4.01338e-12 -3.34562e-12 -5.07388

6.03935 -23.1927 -2.61302e-12
-23.1927 -35.4689 -1.98212e-12
-2.61302e-12 -1.98212e-12 -17.7362

0.141449 2.3584 9.63377e-13
2.3584 -56.1747 2.32851e-13
9.63377e-13 2.32851e-13 -11.5481

-4.06255 -23.3225 4.96788e-12
-23.3225 -23.4121 3.16325e-12
4.96788e-12 3.16325e-12 -16.72

11.0382 -25.8601 -1.22391e-12
-25.8601 -29.4882 -2.77319e-12
-1.22391e-12 -2.77319e-12 -9.73546

10.201 -8.54694 2.70894e-13
-8.54694 -43.4926 5.41493e-13
2.70894e-13 5.41493e-13 -9.28378

-35.4175 -23.0686 -9.31699e-13
-23.0686 -12.647 7.84113e-13
-9.31699e-13 7.84113e-13 -15.104

23.6643 -31.3449 -2.74388e-12
-31.3449 5.71065 4.5303e-12
-2.74388e-12 4.5303e-12 -5.8807

11.0591 -24.5888 -2.91323e-13
-24.5888 -27.4964 1.95606e-12
-2.91323e-13 1.95606e-12 -10.0498

46.6455 10.8655 2.38506e-12
10.8655 -16.1214 -6.39488e-13
2.38506e-12 -6.39488e-13 -6.80233

-14.1864 26.3412 7.48438e-13
26.3412 -15.6418 4.7408e-12
7.48438e-13 4.7408e-12 -14.1199

-45.2506 -37.6114 -4.31951e-13
-37.6114 -20.6117 1.59358e-12
-4.31951e-13 1.59358e-12 -14.9203

-43.7075 37.2638 -4.42313e-13
37.2638 -21.2654 8.14978e-13
-4.42313e-13 8.14978e-13 -14.7707

-61.1828 -28.5725 -3.51448e-12
-28.5725 -7.49721 -2.88066e-13
-3.51448e-12 -2.88066e-13 -15.2007

-58.414 27.0634 1.00675e-12
27.0634 -6.2718 -9.3614e-13
1.00675e-12 -9.3614e-13 -14.4794

5.6003 -8.52708 -2.3815e-12
-8.52708 -71.0618 2.41881e-13
-2.3815e-12 2.41881e-13 -14.7109

4.39721 9.27305 1.15981e-12
9.27305 -68.8307 -8.23193e-13
1.15981e-12 -8.23193e-13 -14.4389

9.02379 -9.84694 2.11979e-13
-9.84694 -40.8926 2.26175e-12
2.11979e-13 2.26175e-12 -9.61405

-24.3353 32.1143 -5.39628e-12
32.1143 -24.8086 1.62661e-12
-5.39628e-12 1.62661e-12 -21.1446

-25.5225 -32.8522 2.44664e-12
-32.8522 -25.0947 -4.01962e-12
2.44664e-12 -4.01962e-12 -21.4687

-53.917 16.0681 -3.36916e-13
16.0681 3.4006 -4.73103e-13
-3.36916e-13 -4.73103e-13 -21.4021

-52.4181 -15.8006 2.48468e-12
-15.8006 3.296 4.42639e-12
2.48468e-12 4.42639e-12 -21.0755

6.11085 -3.74914 2.91811e-12
-3.74914 -43.9242 3.51541e-12
2.91811e-12 3.51541e-12 -25.7633

6.91687 3.61185 2.51073e-12
3.61185 -46.3475 2.47506e-12
2.51073e-12 2.47506e-12 -26.1396

-15.6297 9.83786 -3.42459e-12
9.83786 46.2649 2.89783e-12
-3.42459e-12 2.89783e-12 -5.85048

-22.9199 -24.7755 -2.48127e-12
-24.7755 -14.5531 1.86651e-12
-2.48127e-12 1.86651e-12 -10.332

-56.6021 -36.3864 -2.82108e-12
-36.3864 -14.5324 -6.79901e-13
-2.82108e-12 -6.79901e-13 -13.4389

33.3599 -4.66458 1.11437e-12
-4.66458 -19.8504 2.65299e-12
1.11437e-12 2.65299e-12 -3.94774

3.43286 -16.6932 -5.93599e-14
-16.6932 -52.6267 1.91787e-12
-5.93599e-14 1.91787e-12 -21.5319

3.67402 16.1742 4.87151e-12
16.1742 -51.8824 1.58007e-12
4.87151e-12 1.58007e-12 -21.4052

6.55538 0.121865 8.92767e-13
0.121865 -76.7528 2.04349e-12
8.92767e-13 2.04349e-12 -13.3057

-7.57282 23.3777 5.83237e-14
23.3777 39.9375 3.91746e-12
5.83237e-14 3.91746e-12 -6.88775

-56.8877 36.1704 4.07289e-12
36.1704 -14.011 3.0318e-12
4.07289e-12 3.0318e-12 -13.3905

-39.7952 -23.3962 4.35207e-13
-23.3962 2.56124 1.91343e-12
4.35207e-13 1.91343e-12 -8.80308

37.1181 23.3551 2.97954e-12
23.3551 -8.61627 -3.24896e-12
2.97954e-12 -3.24896e-12 -5.76116

4.73403 23.8588 8.11203e-14
23.8588 -38.2263 -2.02682e-12
8.11203e-14 -2.02682e-12 -18.9857

24.0136 -31.3167 -5.08749e-12
-31.3167 6.40665 -6.05027e-12
-5.08749e-12 -6.05027e-12 -5.65066

2.43049 -3.23188 1.48104e-12
-3.23188 -48.3703 -2.73056e-12
1.48104e-12 -2.73056e-12 -14.7437

-60.4556 -34.1601 -1.73802e-12
-34.1601 -14.3498 1.18838e-12
-1.73802e-12 1.18838e-12 -14.0325

-17.4567 8.32078 1.0914e-12
8.32078 45.6941 1.78228e-12
1.0914e-12 1.78228e-12 -5.78357

-9.47226 21.8139 1.93356e-12
21.8139 40.4269 -9.41469e-13
1.93356e-12 -9.41469e-13 -6.65626

58.6074 35.7794 -3.09441e-12
35.7794 37.0895 -1.7278e-12
-3.09441e-12 -1.7278e-12 -6.9167

70.4893 1.57893 -6.22791e-12
1.57893 -5.5459 -3.66981e-12
-6.22791e-12 -3.66981e-12 -10.3755

-30.7593 -22.8051 1.5099e-13
-22.8051 -13.3574 -2.2918e-12
1.5099e-13 -2.2918e-12 -14.4671

32.8425 31.1869 -1.54898e-12
31.1869 69.7991 -5.22249e-12
-1.54898e-12 -5.22249e-12 -6.67996

-19.3784 23.6114 1.01844e-13
23.6114 7.68667 -1.08358e-13
1.01844e-13 -1.08358e-13 -5.51588

47.6398 -5.35009 1.57267e-12
-5.35009 -17.4376 5.43743e-12
1.57267e-12 5.43743e-12 -6.82427

33.2207 11.2171 2.28972e-12
11.2171 -23.6412 -1.01548e-12
2.28972e-12 -1.01548e-12 -6.01668

6.25392 0.429882 -1.00127e-12
0.429882 -77.55 1.34081e-12
-1.00127e-12 1.34081e-12 -13.4514

-58.9338 -29.0302 2.32096e-12
-29.0302 -6.28833 -2.07715e-12
2.32096e-12 -2.07715e-12 -14.6983

-28.3314 -6.31805 -9.20671e-12
-6.31805 -11.3555 2.46825e-12
-9.20671e-12 2.46825e-12 -51.581

-44.697 37.4101 -6.03961e-13
37.4101 -20.8108 1.70493e-12
-6.03961e-13 1.70493e-12 -14.7747

93.7976 1.66342 2.68348e-12
1.66342 16.655 7.2596e-12
2.68348e-12 7.2596e-12 -6.04349

10.035 -32.7904 -2.19972e-12
-32.7904 21.3108 2.03511e-12
-2.19972e-12 2.03511e-12 -6.8107

-56.9345 36.6118 7.22163e-13
36.6118 -14.5709 -3.24185e-13
7.22163e-13 -3.24185e-13 -13.5067

-35.0826 -11.1343 -1.35886e-12
-11.1343 19.1774 -7.78636e-13
-1.35886e-12 -7.78636e-13 -8.31874

-5.48055 -25.5173 4.50543e-12
-25.5173 37.3518 1.83438e-12
4.50543e-12 1.83438e-12 -6.98951

-58.4504 28.8292 -1.16755e-12
28.8292 -6.27171 -8.565e-13
-1.16755e-12 -8.565e-13 -14.6154

28.4964 -26.1444 -3.08849e-12
-26.1444 -4.91488 2.22281e-12
-3.08849e-12 2.22281e-12 -4.69976

-21.1674 10.484 9.63082e-13
10.484 -18.5586 8.84552e-13
9.63082e-13 8.84552e-13 -51.6765

3.43076 30.8753 -2.52302e-12
30.8753 27.1631 -1.41872e-12
-2.52302e-12 -1.41872e-12 -6.7355

6.14 8.12619 -1.93001e-12
8.12619 -72.2953 1.27335e-12
-1.93001e-12 1.27335e-12 -14.9855

-11.5468 30.1911 -2.20949e-12
30.1911 -20.6031 1.0146e-12
-2.20949e-12 1.0146e-12 -11.5506

-30.7996 23.3331 -5.7776e-12
23.3331 -5.10043 7.61761e-13
-5.7776e-12 7.61761e-13 -8.46697

-25.8634 -32.4869 2.09492e-12
-32.4869 -24.1114 2.02581e-12
2.09492e-12 2.02581e-12 -21.5581

9.20449 -23.1917 1.9007e-13
-23.1917 -27.9238 3.01714e-12
1.9007e-13 3.01714e-12 -11.4271

-37.6619 10.4693 1.98493e-12
10.4693 8.929 -2.57572e-13
1.98493e-12 -2.57572e-13 -25.3292

-23.0426 -23.4351 2.03482e-12
-23.4351 4.95203 -2.93158e-12
2.03482e-12 -2.93158e-12 -6.26562

88.8103 -9.70888 2.72848e-12
-9.70888 10.8065 -1.70863e-12
2.72848e-12 -1.70863e-12 -10.0313

84.0503 -14.2785 4.61616e-12
-14.2785 2.8112 -7.39557e-13
4.61616e-12 -7.39557e-13 -13.1974

5.88671 16.5307 6.80937e-15
16.5307 -33.9323 -2.90464e-12
6.80937e-15 -2.90464e-12 -22.3749

-16.4241 22.5037 5.50996e-12
22.5037 16.2279 -3.28922e-12
5.50996e-12 -3.28922e-12 -5.08807

-3.91338 29.165 -1.80537e-12
29.165 -12.2319 -1.3302e-12
-1.80537e-12 -1.3302e-12 -8.39856

50.9958 0.68872 1.74438e-12
0.68872 -6.53498 -3.53397e-12
1.74438e-12 -3.53397e-12 -3.63668

-48.1422 6.5705 6.48796e-13
6.5705 14.7856 -2.22814e-12
6.48796e-13 -2.22814e-12 -18.9524

10.1157 16.5407 -3.36738e-12
16.5407 -36.0814 -4.2523e-12
-3.36738e-12 -4.2523e-12 -9.13735

-4.5066 -25.7638 3.27679e-12
-25.7638 35.5568 -3.6818e-12
3.27679e-12 -3.6818e-12 -6.7495

-39.194 -2.57192 -1.42109e-12
-2.57192 21.5044 -8.56796e-13
-1.42109e-12 -8.56796e-13 -10.671

-7.99364 13.3667 8.92619e-13
13.3667 44.4075 3.32416e-12
8.92619e-13 3.32416e-12 -3.9467

3.73413 -29.7148 1.22036e-12
-29.7148 -17.3672 4.98594e-12
1.22036e-12 4.98594e-12 -8.9226

21.4256 -29.9505 3.13586e-12
-29.9505 14.7555 8.01196e-12
3.13586e-12 8.01196e-12 -3.92027

6.87919 31.6262 -8.20677e-13
31.6262 25.4019 -9.3614e-13
-8.20677e-13 -9.3614e-13 -6.83063

2.78455 -15.0193 -3.10862e-13
-15.0193 -39.2626 1.39289e-12
-3.10862e-13 1.39289e-12 -63.3005

-46.1593 2.04194 -4.41573e-13
2.04194 11.4609 1.61234e-12
-4.41573e-13 1.61234e-12 -22.7555

-55.442 20.2988 -8.01877e-13
20.2988 3.09437 2.57246e-12
-8.01877e-13 2.57246e-12 -22.9149

5.91534 15.4378 1.55461e-12
15.4378 -58.8157 3.4639e-13
1.55461e-12 3.4639e-13 -23.035

-18.9228 -26.1901 1.51997e-12
-26.1901 -12.9146 5.38177e-12
1.51997e-12 5.38177e-12 -9.65478

41.3481 17.9589 2.5698e-13
17.9589 -6.27394 1.42582e-12
2.5698e-13 1.42582e-12 -3.86382

-44.6814 -5.29294 1.4934e-12
-5.29294 4.53846 2.79154e-12
1.4934e-12 2.79154e-12 -39.14

7.49946 -18.9878 -2.86882e-13
-18.9878 -39.8955 -5.25802e-13
-2.86882e-13 -5.25802e-13 -11.6613

30.2919 -15.5999 2.28854e-12
-15.5999 -20.512 -1.73742e-12
2.28854e-12 -1.73742e-12 -4.80767

-9.64148 11.6045 2.82174e-12
11.6045 44.3213 5.44749e-14
2.82174e-12 5.44749e-14 -3.86149

8.33241 -25.7369 -2.98013e-12
-25.7369 32.993 1.76333e-12
-2.98013e-12 1.76333e-12 -3.63534

-10.2438 -25.2739 -2.92507e-13
-25.2739 -19.1021 -6.89375e-13
-2.92507e-13 -6.89375e-13 -23.1734

17.0044 31.9627 1.89656e-12
31.9627 11.1961 3.53317e-12
1.89656e-12 3.53317e-12 -5.74886

-1.06899 -25.1341 -2.89901e-12
-25.1341 -30.7636 5.54253e-12
-2.89901e-12 5.54253e-12 -20.8907

48.0678 2.59759 3.94114e-12
2.59759 -8.41292 1.07536e-12
3.94114e-12 1.07536e-12 -3.53394

6.55173 -28.9333 -1.10726e-12
-28.9333 72.0558 2.70006e-12
-1.10726e-12 2.70006e-12 -14.5522

21.7913 -29.2339 -6.09231e-12
-29.2339 13.9629 3.72798e-12
-6.09231e-12 3.72798e-12 -3.93265

35.3526 32.1621 3.83338e-12
32.1621 74.1394 -1.72899e-12
3.83338e-12 -1.72899e-12 -5.44213

-45.2851 -11.8763 -3.60293e-12
-11.8763 13.9216 2.26367e-12
-3.60293e-12 2.26367e-12 -15.3271

-14.4242 -13.8228 2.06057e-13
-13.8228 43.3843 -1.97768e-12
2.06057e-13 -1.97768e-12 -5.67517

-19.2402 -23.9855 -4.82577e-12
-23.9855 -19.8296 8.10463e-13
-4.82577e-12 8.10463e-13 -64.2421

2.43623 23.7733 -4.16319e-12
23.7733 36.0081 -7.53175e-13
-4.16319e-12 -7.53175e-13 -3.7134

-15.183 -32.7264 -1.31332e-12
-32.7264 -21.1205 -2.314e-12
-1.31332e-12 -2.314e-12 -14.314

-14.5689 -11.9643 -2.96119e-12
-11.9643 45.5327 6.44225e-13
-2.96119e-12 6.44225e-13 -5.74132

7.83531 -19.1166 4.763e-12
-19.1166 -43.1226 -2.68556e-12
4.763e-12 -2.68556e-12 -12.6332

6.54402 23.8796 2.67164e-12
23.8796 35.1726 2.71783e-12
2.67164e-12 2.71783e-12 -3.44432

23.1741 -4.9757 -7.75676e-14
-4.9757 -30.679 -9.14898e-13
-7.75676e-14 -9.14898e-13 -5.36681

36.9725 -30.3449 -3.38929e-12
-30.3449 122.636 2.11979e-12
-3.38929e-12 2.11979e-12 -6.24069

-26.8723 21.0156 4.61231e-12
21.0156 8.43392 5.67132e-12
4.61231e-12 5.67132e-12 -7.13267

40.3401 -19.3251 4.51787e-12
-19.3251 -11.3758 -3.44524e-12
4.51787e-12 -3.44524e-12 -5.72838

6.52677 -21.4456 8.25147e-12
-21.4456 -45.5572 -3.40557e-12
8.25147e-12 -3.40557e-12 -24.9703

20.7048 31.7572 3.4485e-12
31.7572 9.55617 3.71851e-13
3.4485e-12 3.71851e-13 -5.80839

13.9184 -29.9741 1.80478e-12
-29.9741 -7.60816 2.13814e-12
1.80478e-12 2.13814e-12 -5.94676

6.75526 20.8859 3.1027e-12
20.8859 -27.7942 1.70234e-12
3.1027e-12 1.70234e-12 -11.1101

-38.2748 -28.0762 -3.76232e-12
-28.0762 -14.0385 -3.5009e-14
-3.76232e-12 -3.5009e-14 -11.063

8.64488 -26.2279 -2.00255e-12
-26.2279 31.1718 -1.62714e-12
-2.00255e-12 -1.62714e-12 -3.6374

15.3306 28.984 -1.15641e-12
28.984 19.1537 -1.7953e-12
-1.15641e-12 -1.7953e-12 -3.88525

28.641 26.1936 -3.40942e-12
26.1936 -5.63587 1.89419e-12
-3.40942e-12 1.89419e-12 -4.80438

7.91402 -14.6112 5.2142e-12
-14.6112 -36.879 -1.03266e-12
5.2142e-12 -1.03266e-12 -13.9921

-6.84416 -16.6194 3.69512e-12
-16.6194 41.3427 1.26121e-12
3.69512e-12 1.26121e-12 -3.9617

17.4408 -17.5688 -3.68535e-12
-17.5688 -31.0016 1.42464e-12
-3.68535e-12 1.42464e-12 -7.10736

19.8417 16.9097 1.04627e-12
16.9097 -31.6677 -3.81532e-12
1.04627e-12 -3.81532e-12 -7.3369

-33.6811 -9.38542 -3.6456e-13
-9.38542 8.7564 -1.35122e-12
-3.6456e-13 -1.35122e-12 -23.991

43.4337 -13.4312 3.75877e-12
-13.4312 -8.37179 -1.26684e-12
3.75877e-12 -1.26684e-12 -3.80642

-19.3822 0.594239 4.02641e-13
0.594239 43.1472 4.1022e-12
4.02641e-13 4.1022e-12 -4.77782

28.0568 18.5562 2.56091e-12
18.5562 -18.2021 -2.67046e-13
2.56091e-12 -2.67046e-13 -4.75211

25.5288 27.6064 3.76706e-12
27.6064 -3.77795 1.38497e-12
3.76706e-12 1.38497e-12 -4.77353

-6.71798 -15.6878 3.2303e-12
-15.6878 43.8005 -2.04518e-12
3.2303e-12 -2.04518e-12 -3.85018

-19.9102 -1.20226 2.67334e-12
-1.20226 42.1296 -4.85538e-14
2.67334e-12 -4.85538e-14 -4.68939

-5.47329 29.1346 2.37144e-12
29.1346 -23.6484 -1.7127e-12
2.37144e-12 -1.7127e-12 -16.7971

-37.2761 -10.9229 1.18897e-12
-10.9229 21.6798 3.27087e-12
1.18897e-12 3.27087e-12 -7.83208

27.1436 -26.7178 -2.06946e-12
-26.7178 -5.53297 -4.24135e-12
-2.06946e-12 -4.24135e-12 -4.94657

40.7207 21.3347 6.38304e-13
21.3347 -8.37309 -4.44089e-14
6.38304e-13 -4.44089e-14 -5.46983

12.3781 23.6661 2.30986e-12
23.6661 -27.1295 -2.00077e-12
2.30986e-12 -2.00077e-12 -8.66877

-37.7989 5.47154 -3.02721e-13
5.47154 23.3114 -5.24617e-13
-3.02721e-13 -5.24617e-13 -8.59921

18.5925 29.0685 3.94706e-12
29.0685 17.3775 1.76511e-12
3.94706e-12 1.76511e-12 -3.94931

-9.98797 22.964 1.82669e-12
22.964 -14.9151 4.02937e-12
1.82669e-12 4.02937e-12 -24.0243

68.3229 -59.6964 7.33991e-12
-59.6964 36.3384 -2.78651e-12
7.33991e-12 -2.78651e-12 -23.0096

17.5304 -25.0497 9.08962e-12
-25.0497 -17.9943 5.79981e-13
9.08962e-12 5.79981e-13 -6.41989

10.0572 7.07056 -2.13459e-12
7.07056 82.5566 5.48776e-12
-2.13459e-12 5.48776e-12 -7.16604

11.9195 -28.8916 2.9902e-13
-28.8916 -3.88296 -2.46025e-12
2.9902e-13 -2.46025e-12 -5.16814

-66.9433 -52.7042 9.05942e-13
-52.7042 143.264 8.33703e-13
9.05942e-13 8.33703e-13 -49.6656

-68.3867 51.4548 1.14871e-13
51.4548 142.551 3.67587e-12
1.14871e-13 3.67587e-12 -49.8547

19.5762 117.161 1.60346e-12
117.161 64.1381 7.10543e-14
1.60346e-12 7.10543e-14 -48.356

20.5351 -117.104 4.73695e-14
-117.104 61.0348 -5.25802e-13
4.73695e-14 -5.25802e-13 -48.7208

157.758 -1.36347 -3.58114e-12
-1.36347 -79.1863 4.07394e-14
-3.58114e-12 4.07394e-14 -48.9078

110.338 -91.131 2.84691e-12
-91.131 -36.6866 -1.78109e-12
2.84691e-12 -1.78109e-12 -50.3025

110.391 91.659 6.16277e-12
91.659 -36.4968 4.63748e-12
6.16277e-12 4.63748e-12 -50.1753

7.84592 14.3314 -4.1244e-12
14.3314 -42.6825 1.00423e-12
-4.1244e-12 1.00423e-12 -15.0798

-11.7898 25.5356 2.76816e-13
25.5356 -27.405 -2.18906e-12
2.76816e-13 -2.18906e-12 -35.1339

12.4382 6.60661 -8.20085e-13
6.60661 -40.5368 -4.98638e-13
-8.20085e-13 -4.98638e-13 -8.25491

26.2551 21.7865 1.40036e-12
21.7865 -19.5318 7.72123e-13
1.40036e-12 7.72123e-13 -5.85334

-21.2338 17.7462 -4.30915e-13
17.7462 29.8691 1.60346e-12
-4.30915e-13 1.60346e-12 -6.16497

22.5302 28.9012 -5.88566e-13
28.9012 -0.777225 3.57995e-12
-5.88566e-13 3.57995e-12 -4.73317

4.05431 -29.665 4.37576e-13
-29.665 -17.4676 7.34227e-14
4.37576e-13 7.34227e-14 -8.50631

25.9954 28.0305 -2.80842e-12
28.0305 -2.30363 7.82189e-13
-2.80842e-12 7.82189e-13 -4.73355

-19.3507 -2.84171 -8.8581e-13
-2.84171 43.0732 2.22281e-12
-8.8581e-13 2.22281e-12 -4.77238

-13.4102 -26.0964 -4.91992e-12
-26.0964 -25.8388 -3.21757e-12
-4.91992e-12 -3.21757e-12 -35.5169

-19.8458 -4.86305 -5.98632e-13
-4.86305 41.7781 -2.64796e-12
-5.98632e-13 -2.64796e-12 -4.74627

-1.82763 23.0174 3.1181e-12
23.0174 -24.3774 -5.28066e-12
3.1181e-12 -5.28066e-12 -16.15

44.9847 26.8735 6.78095e-12
26.8735 8.10981 2.55144e-12
6.78095e-12 2.55144e-12 -5.37103

-52.5059 -13.2163 2.54818e-12
-13.2163 0.149875 -1.31391e-12
2.54818e-12 -1.31391e-12 -20.6167

20.2807 13.729 -1.77458e-12
13.729 -31.1451 -2.1639e-12
-1.77458e-12 -2.1639e-12 -7.04549

13.7002 -29.9901 9.69299e-13
-29.9901 -6.6938 -5.59138e-12
9.69299e-13 -5.59138e-12 -5.8377

29.6317 -24.7156 8.95284e-13
-24.7156 -7.87649 2.21749e-12
8.95284e-13 2.21749e-12 -4.82754

5.76363 -16.076 -4.10131e-12
-16.076 -32.3342 -5.75865e-12
-4.10131e-12 -5.75865e-12 -22.2543

12.6275 27.9308 -2.83566e-12
27.9308 -13.6414 5.22841e-13
-2.83566e-12 5.22841e-13 -6.42186

23.309 23.9795 -5.5896e-13
23.9795 -17.9462 1.9685e-12
-5.5896e-13 1.9685e-12 -5.96484

-31.0805 -2.79281 6.45643e-12
-2.79281 30.1325 3.96128e-13
6.45643e-12 3.96128e-13 -6.40074

-28.6333 5.87368 3.7833e-12
5.87368 33.3224 2.55618e-12
3.7833e-12 2.55618e-12 -6.06181

34.55 2.64696 -1.71714e-13
2.64696 -26.1879 2.70798e-12
-1.71714e-13 2.70798e-12 -6.14476

50.6543 -7.29044 1.58806e-12
-7.29044 -14.0857 -3.39447e-12
1.58806e-12 -3.39447e-12 -6.78093

11.0404 30.4872 -5.75895e-12
30.4872 -4.78984 -8.60349e-13
-5.75895e-12 -8.60349e-13 -5.96868

17.4671 -26.1575 5.90343e-13
-26.1575 -17.4573 -3.33689e-12
5.90343e-13 -3.33689e-12 -6.35401

-0.0837331 -21.2547 2.60532e-14
-21.2547 -27.9573 1.31036e-12
2.60532e-14 1.31036e-12 -17.1663

4.93752 -31.6366 2.81849e-12
-31.6366 4.85996 -2.61717e-12
2.81849e-12 -2.61717e-12 -5.93762

-8.22995 -27.7884 -2.64973e-12
-27.7884 18.5787 -6.92365e-12
-2.64973e-12 -6.92365e-12 -6.1323

-1.65235 29.8901 9.39101e-13
29.8901 10.4466 8.45546e-13
9.39101e-13 8.45546e-13 -5.8027

-26.0204 -9.57872 2.44889e-12
-9.57872 32.9709 -2.89487e-12
2.44889e-12 -2.89487e-12 -5.7895

-31.3262 -1.54527 5.44868e-12
-1.54527 31.6515 -9.36732e-13
5.44868e-12 -9.36732e-13 -6.22561

-38.9186 5.74776 5.48966e-12
5.74776 23.9467 3.07902e-14
5.48966e-12 3.07902e-14 -9.18468

-17.2215 -21.0912 2.75424e-12
-21.0912 26.5716 1.50457e-12
2.75424e-12 1.50457e-12 -5.77435

13.071 24.1128 1.29082e-13
24.1128 -28.1033 -5.08334e-13
1.29082e-13 -5.08334e-13 -9.20655

21.5555 -9.59052 -1.21325e-12
-9.59052 -31.7101 -3.87305e-12
-1.21325e-12 -3.87305e-12 -6.60039

-27.1574 7.4658 -5.39661e-13
7.4658 34.3357 -2.17604e-12
-5.39661e-13 -2.17604e-12 -5.87621

-35.239 -9.70137 -2.36269e-13
-9.70137 22.3139 6.30192e-12
-2.36269e-13 6.30192e-12 -8.18531

-29.1591 -16.332 -2.24606e-12
-16.332 19.347 -5.63224e-12
-2.24606e-12 -5.63224e-12 -6.66403

36.9697 -8.23996 1.18424e-13
-8.23996 -20.2407 -1.36187e-14
1.18424e-13 -1.36187e-14 -5.10376

-14.8105 -32.3468 -2.53812e-12
-32.3468 -21.6277 3.9441e-12
-2.53812e-12 3.9441e-12 -12.994

-22.8273 9.322 -3.55286e-12
9.322 33.3244 -1.46017e-12
-3.55286e-12 -1.46017e-12 -4.79097

-0.751742 -18.213 3.48166e-13
-18.213 -35.1563 2.89102e-13
3.48166e-13 2.89102e-13 -33.2739

4.93111 24.8253 -8.28967e-13
24.8253 75.3128 1.33345e-12
-8.28967e-13 1.33345e-12 -14.3196

-14.142 -26.6271 -1.92083e-12
-26.6271 -16.3519 2.67297e-12
-1.92083e-12 2.67297e-12 -14.6414

-6.35718 -30.203 4.72037e-12
-30.203 -23.6042 -6.3108e-12
4.72037e-12 -6.3108e-12 -17.088

-31.2742 -0.700986 -1.73195e-13
-0.700986 31.5012 -1.12384e-12
-1.73195e-13 -1.12384e-12 -6.35047

28.4888 -16.6237 -8.81073e-13
-16.6237 -18.06 -1.28105e-12
-8.81073e-13 -1.28105e-12 -4.44019

-37.8075 12.8419 -5.50406e-12
12.8419 11.1652 -6.07869e-12
-5.50406e-12 -6.07869e-12 -10.9904

-8.8614 -3.18112 4.84264e-12
-3.18112 111.061 -9.30811e-13
4.84264e-12 -9.30811e-13 -22.6707

-31.6062 14.2747 -1.36691e-12
14.2747 21.3506 -2.65447e-12
-1.36691e-12 -2.65447e-12 -7.12668

12.421 -29.4918 -5.70803e-13
-29.4918 -2.52098 1.98301e-12
-5.70803e-13 1.98301e-12 -4.93039

33.634 25.1077 -4.82222e-12
25.1077 124.039 -9.64917e-12
-4.82222e-12 -9.64917e-12 -6.21311

-13.5011 26.0954 -7.48172e-12
26.0954 -19.0966 1.62551e-12
-7.48172e-12 1.62551e-12 -58.8854

-9.55198 -27.8044 4.18983e-12
-27.8044 -22.8055 -8.33851e-12
4.18983e-12 -8.33851e-12 -59.5357

-2.86729 -30.4213 -2.41585e-12
-30.4213 -7.3233 1.43115e-12
-2.41585e-12 1.43115e-12 -7.28957

3.85865 -31.1633 3.4408e-12
-31.1633 5.6343 -9.02389e-13
3.4408e-12 -9.02389e-13 -6.06485

25.1528 20.829 2.04222e-12
20.829 -17.0374 -2.58993e-12
2.04222e-12 -2.58993e-12 -4.97906

31.8062 15.0075 1.64313e-12
15.0075 -23.305 -7.49327e-13
1.64313e-12 -7.49327e-13 -5.95715

-9.48685 3.08183 -2.70206e-12
3.08183 -9.8293 7.65802e-12
-2.70206e-12 7.65802e-12 -80.9222

-5.54772 -6.9976 -1.39376e-11
-6.9976 -14.0396 1.49925e-12
-1.39376e-11 1.49925e-12 -80.275

11.7489 4.8242 -1.13095e-12
4.8242 -43.2077 3.85914e-13
-1.13095e-12 3.85914e-13 -7.82968

-35.0594 6.73185 -4.04099e-12
6.73185 24.3756 -1.0516e-12
-4.04099e-12 -1.0516e-12 -7.56588

-36.1139 6.73641 -3.65622e-12
6.73641 24.4329 -2.82263e-12
-3.65622e-12 -2.82263e-12 -8.31087

74.5932 58.6395 5.46171e-12
58.6395 34.1767 -1.06179e-11
5.46171e-12 -1.06179e-11 -21.8718

-6.92256 -28.2028 2.35071e-13
-28.2028 16.875 -5.84125e-12
2.35071e-13 -5.84125e-12 -6.1192

8.17175 17.9742 1.71715e-14
17.9742 -44.8763 -1.09187e-12
1.71715e-14 -1.09187e-12 -12.8977

32.7046 9.54042 -2.47506e-13
9.54042 -19.0836 -8.34e-13
-2.47506e-13 -8.34e-13 -4.07673

3.38625 -26.7259 1.69761e-12
-26.7259 13.4838 -4.31892e-12
1.69761e-12 -4.31892e-12 -3.82933

26.238 -20.2395 1.8557e-12
-20.2395 -20.3265 3.54561e-12
1.8557e-12 3.54561e-12 -5.86561

65.397 60.2374 1.7882e-12
60.2374 34.2929 -4.61853e-14
1.7882e-12 -4.61853e-14 -23.8668

-13.2431 31.0699 -3.4488e-12
31.0699 -16.8835 -1.79767e-12
-3.4488e-12 -1.79767e-12 -12.7872

-18.608 -19.7882 -2.5846e-12
-19.7882 28.4156 5.35453e-12
-2.5846e-12 5.35453e-12 -5.97201

11.1735 28.8599 -1.95873e-12
28.8599 -13.3251 -1.28904e-12
-1.95873e-12 -1.28904e-12 -6.43834

-31.8726 -4.14548 6.54661e-13
-4.14548 30.1485 -9.98905e-13
6.54661e-13 -9.98905e-13 -6.36006

-14.5992 19.6112 -3.50801e-12
19.6112 27.186 -7.00299e-12
-3.50801e-12 -7.00299e-12 -4.42111

7.4783 30.5216 1.57385e-12
30.5216 -1.67219 -7.01069e-13
1.57385e-12 -7.01069e-13 -5.66287

-9.34739 -22.4755 6.96924e-13
-22.4755 23.1497 -2.6669e-12
6.96924e-13 -2.6669e-12 -4.17786

4.5891 -27.3551 -1.00305e-12
-27.3551 11.4488 -5.21834e-12
-1.00305e-12 -5.21834e-12 -3.94083

24.2735 11.258 4.62623e-12
11.258 102.088 -1.86636e-12
4.62623e-12 -1.86636e-12 -12.4041

37.4683 -33.4597 1.11555e-12
-33.4597 69.2907 4.33194e-12
1.11555e-12 4.33194e-12 -5.7036

-25.3391 -11.6916 -1.4028e-12
-11.6916 31.3693 -2.20505e-12
-1.4028e-12 -2.20505e-12 -5.65078

16.096 26.4867 1.35062e-12
26.4867 -15.5041 -1.63484e-12
1.35062e-12 -1.63484e-12 -6.21959

4.95442 29.4805 -1.41516e-13
29.4805 1.6359 -2.42769e-14
-1.41516e-13 -2.42769e-14 -4.99234

-9.85718 -21.4361 -1.63129e-12
-21.4361 25.1216 2.43716e-12
-1.63129e-12 2.43716e-12 -4.03563

-21.638 -11.7837 -4.41662e-12
-11.7837 32.0832 -2.70539e-12
-4.41662e-12 -2.70539e-12 -4.63956

10.462 28.4121 -3.49587e-12
28.4121 -0.157553 -1.26536e-12
-3.49587e-12 -1.26536e-12 -4.67518

-21.85 -13.8792 -6.19356e-13
-13.8792 29.4682 -7.29727e-12
-6.19356e-13 -7.29727e-12 -4.84954

6.95777 27.858 4.18332e-12
27.858 73.091 -7.92492e-12
4.18332e-12 -7.92492e-12 -14.3228

-45.8326 -4.04058 -4.16657e-14
-4.04058 14.0477 -3.34666e-12
-4.16657e-14 -3.34666e-12 -19.9644

0.875272 31.0307 0
31.0307 7.51919 -1.67866e-12
0 -1.67866e-12 -6.09163

9.71884 14.9023 -2.37736e-12
14.9023 -36.4313 -2.23436e-12
-2.37736e-12 -2.23436e-12 -10.9869

9.92771 -15.9287 -4.28398e-13
-15.9287 -39.412 -1.56823e-12
-4.28398e-13 -1.56823e-12 -13.0703

85.6207 -24.207 1.03029e-12
-24.207 7.63518 -3.8014e-13
1.03029e-12 -3.8014e-13 -12.9582

-23.2095 -21.2688 -3.02277e-12
-21.2688 10.5138 7.78044e-13
-3.02277e-12 7.78044e-13 -6.16773

-16.6031 26.7003 -5.27489e-12
26.7003 1.77767 -3.68298e-13
-5.27489e-12 -3.68298e-13 -6.59027

-26.2 -21.7276 -9.61305e-13
-21.7276 -5.36758 -6.16581e-13
-9.61305e-13 -6.16581e-13 -23.8656

-41.5932 14.1043 -1.70205e-12
14.1043 -3.55938 2.80309e-12
-1.70205e-12 2.80309e-12 -64.1167

-0.893985 9.44522 -1.15389e-12
9.44522 -44.2545 -1.03029e-13
-1.15389e-12 -1.03029e-13 -64.2181

-20.3832 32.7045 6.76022e-12
32.7045 -23.2036 -4.02315e-12
6.76022e-12 -4.02315e-12 -24.3282

-11.4137 26.0032 -5.10614e-12
26.0032 22.6044 -3.3585e-12
-5.10614e-12 -3.3585e-12 -5.92827

16.0387 26.6632 1.01667e-12
26.6632 -17.2901 -3.55123e-12
1.01667e-12 -3.55123e-12 -6.55212

30.43 45.1907 -8.31453e-12
45.1907 47.5584 -2.60414e-12
-8.31453e-12 -2.60414e-12 -15.1956

-44.8847 -11.3418 -2.49874e-13
-11.3418 -1.80765 3.32001e-12
-2.49874e-13 3.32001e-12 -61.6734

-8.298 -3.43186 1.02482e-11
-3.43186 -12.7516 -2.59141e-12
1.02482e-11 -2.59141e-12 -77.2131

-14.6878 -0.209096 1.12236e-12
-0.209096 -6.41847 3.95609e-13
1.12236e-12 3.95609e-13 -77.3573

27.668 -53.8072 -8.35361e-12
-53.8072 71.156 9.87654e-13
-8.35361e-12 9.87654e-13 -24.3885

-11.689 -11.5991 -4.12899e-12
-11.5991 -16.2055 2.3442e-12
-4.12899e-12 2.3442e-12 -37.4259

-32.6094 8.81174 7.39409e-12
8.81174 -9.41715 2.05317e-12
7.39409e-12 2.05317e-12 -49.5337

18.2562 -26.2012 6.37475e-12
-26.2012 -19.5495 -2.09551e-12
6.37475e-12 -2.09551e-12 -6.50891

-39.4313 1.01024 -6.99529e-12
1.01024 11.9805 6.60805e-13
-6.99529e-12 6.60805e-13 -19.7212

-30.205 -20.2694 -2.36892e-12
-20.2694 6.30473 3.20336e-12
-2.36892e-12 3.20336e-12 -7.21855

10.5362 6.25551 -8.58573e-15
6.25551 -52.3907 2.95127e-12
-8.58573e-15 2.95127e-12 -9.64173

-49.8132 15.5962 3.43789e-12
15.5962 10.1646 3.19774e-12
3.43789e-12 3.19774e-12 -13.5322

-40.286 7.19116 -2.44728e-12
7.19116 16.5414 -8.70415e-13
-2.44728e-12 -8.70415e-13 -13.7751

16.4047 20.3944 -1.29852e-12
20.3944 -25.8436 2.19084e-14
-1.29852e-12 2.19084e-14 -7.60977

-9.1005 -3.11391 4.10783e-14
-3.11391 108.405 -4.29878e-12
4.10783e-14 -4.29878e-12 -23.101

-3.32176 -27.6259 2.61361e-12
-27.6259 -3.63024 3.61844e-12
2.61361e-12 3.61844e-12 -5.83237

-7.33584 -26.118 4.53918e-12
-26.118 -14.0832 -3.04764e-12
4.53918e-12 -3.04764e-12 -9.81236

-14.1992 -31.4837 -1.39829e-12
-31.4837 -21.778 1.38319e-12
-1.39829e-12 1.38319e-12 -12.7568

90.7358 32.7527 -8.02203e-12
32.7527 20.908 -1.75859e-12
-8.02203e-12 -1.75859e-12 -16.5052

-23.1147 -20.1157 -3.24777e-12
-20.1157 -17.3856 4.43801e-12
-3.24777e-12 4.43801e-12 -44.4213

72.6358 54.3267 1.12029e-12
54.3267 91.6475 1.175e-11
1.12029e-12 1.175e-11 -6.14107

-36.2167 -21.4389 7.70643e-13
-21.4389 -6.79682 2.18492e-13
7.70643e-13 2.18492e-13 -13.0443

15.034 14.6506 -5.87974e-13
14.6506 -37.7538 -2.37928e-12
-5.87974e-13 -2.37928e-12 -8.18078

44.5751 -14.5739 1.66978e-12
-14.5739 -8.27513 9.68262e-13
1.66978e-12 9.68262e-13 -4.4208

-21.2325 24.0481 -3.89496e-12
24.0481 4.95517 2.089e-12
-3.89496e-12 2.089e-12 -5.97882

17.3733 20.4289 3.80496e-12
20.4289 -26.7951 8.8581e-13
3.80496e-12 8.8581e-13 -6.95365

-51.139 11.3994 2.91226e-12
11.3994 7.70976 4.81985e-12
2.91226e-12 4.81985e-12 -29.9914

-7.28847 -31.5816 3.10714e-12
-31.5816 -12.828 9.25186e-13
3.10714e-12 9.25186e-13 -8.12124

2.79539 19.8122 4.14246e-12
19.8122 -46.0318 6.57785e-12
4.14246e-12 6.57785e-12 -29.9833

-24.6735 -18.4449 5.50523e-12
-18.4449 17.8363 2.30926e-13
5.50523e-12 2.30926e-13 -5.48254

-42.3421 4.28384 -3.52802e-12
4.28384 17.8693 1.46609e-12
-3.52802e-12 1.46609e-12 -12.7291

-4.09803 9.92757 -4.92998e-12
9.92757 -40.2729 3.94781e-12
-4.92998e-12 3.94781e-12 -47.5418

-2.68844 -8.51434 4.5007e-12
-8.51434 -38.3043 -2.58312e-13
4.5007e-12 -2.58312e-13 -47.3974

81.7295 18.5141 6.20541e-12
18.5141 1.6987 -3.72206e-12
6.20541e-12 -3.72206e-12 -14.4537

3.89505 7.96565 1.24759e-12
7.96565 -45.1851 -9.83362e-13
1.24759e-12 -9.83362e-13 -11.0201

35.8768 7.74135 -5.77316e-15
7.74135 184.586 -1.67214e-12
-5.77316e-15 -1.67214e-12 -9.75328

40.1505 -11.3861 7.26437e-12
-11.3861 190.384 -4.90274e-12
7.26437e-12 -4.90274e-12 -7.38495

53.7705 56.41 8.81073e-13
56.41 159.267 -1.80004e-13
8.81073e-13 -1.80004e-13 -11.496

1.70771 -28.9516 5.24617e-13
-28.9516 -24.6917 -2.79539e-12
5.24617e-13 -2.79539e-12 -11.964

16.0512 -49.1946 3.55508e-12
-49.1946 99.4271 7.25227e-12
3.55508e-12 7.25227e-12 -21.688

54.5185 -55.9525 -2.56269e-12
-55.9525 149.984 -5.36223e-12
-2.56269e-12 -5.36223e-12 -13.661

-2.16769 26.2226 1.36187e-13
26.2226 17.5727 -4.04062e-12
1.36187e-13 -4.04062e-12 -3.9984

134.949 73.8479 4.59484e-12
73.8479 85.032 1.77399e-12
4.59484e-12 1.77399e-12 -10.155

-18.7218 13.0464 -3.38011e-12
13.0464 -3.89901 4.18569e-12
-3.38011e-12 4.18569e-12 -26.767

3.74072 0.0412771 2.72538e-12
0.0412771 -26.1894 8.11055e-12
2.72538e-12 8.11055e-12 -26.7703

144.108 -73.1332 2.84217e-14
-73.1332 85.3595 2.70243e-12
2.84217e-14 2.70243e-12 -8.19211

-21.3961 -23.426 2.50259e-12
-23.426 12.2476 -8.17124e-12
2.50259e-12 -8.17124e-12 -6.49384

89.3533 34.7322 -7.88939e-12
34.7322 41.3928 -1.72307e-12
-7.88939e-12 -1.72307e-12 -11.5471

72.194 63.4945 -1.1075e-11
63.4945 149.704 8.52651e-13
-1.1075e-11 8.52651e-13 -9.66961

26.1662 21.6321 2.88007e-12
21.6321 100.141 -9.28443e-13
2.88007e-12 -9.28443e-13 -13.0307

73.881 -65.9235 9.166e-13
-65.9235 151.155 9.66338e-13
9.166e-13 9.66338e-13 -9.39804

25.7707 -12.3821 9.55088e-13
-12.3821 105.02 6.72647e-13
9.55088e-13 6.72647e-13 -12.4275

-28.664 6.83991 -1.47186e-12
6.83991 3.10762 -9.83806e-13
-1.47186e-12 -9.83806e-13 -37.8485

37.7453 -45.9791 2.69888e-12
-45.9791 49.6727 5.36933e-12
2.69888e-12 5.36933e-12 -15.5327

14.4457 47.5358 -2.32111e-12
47.5358 94.8872 1.51061e-11
-2.32111e-12 1.51061e-11 -22.1913

173.351 37.9138 -1.21266e-12
37.9138 48.047 5.36578e-12
-1.21266e-12 5.36578e-12 -9.51832

7.01972 -29.2876 -3.19507e-12
-29.2876 -14.3599 2.98132e-13
-3.19507e-12 2.98132e-13 -7.15813

-38.4195 12.8963 -1.84712e-12
12.8963 6.43563 4.73044e-12
-1.84712e-12 4.73044e-12 -15.2911

88.5118 -38.1157 -4.37931e-12
-38.1157 34.1653 -2.50348e-12
-4.37931e-12 -2.50348e-12 -14.0988

6.04117 -28.8038 -2.63019e-12
-28.8038 -16.1743 3.01448e-12
-2.63019e-12 3.01448e-12 -8.03197

169.217 -36.3456 -8.05282e-13
-36.3456 34.9336 -4.27806e-12
-8.05282e-13 -4.27806e-12 -13.2864

-5.72603 -28.3191 -4.67774e-13
-28.3191 -14.4747 -6.72943e-13
-4.67774e-13 -6.72943e-13 -9.31135

-17.7934 -25.2971 -4.10753e-12
-25.2971 12.0798 1.10371e-12
-4.10753e-12 1.10371e-12 -5.93697

118.885 69.4643 3.65219e-12
69.4643 96.2271 -7.13385e-12
3.65219e-12 -7.13385e-12 -11.3964

29.4151 -22.9347 -1.75149e-12
-22.9347 97.8039 -2.58638e-12
-1.75149e-12 -2.58638e-12 -14.3391

117.968 -71.6964 1.00423e-12
-71.6964 93.6884 -4.47168e-12
1.00423e-12 -4.47168e-12 -12.4124

22.2668 50.7413 -3.09086e-12
50.7413 73.7849 -6.38067e-12
-3.09086e-12 -6.38067e-12 -24.7766

-1.5378 -30.2144 -2.80072e-13
-30.2144 -6.55441 -2.05317e-12
-2.80072e-13 -2.05317e-12 -7.00037

-7.04353 -14.6409 6.50946e-12
-14.6409 -21.9202 4.50188e-12
6.50946e-12 4.50188e-12 -32.6105

-11.8915 11.0909 -2.06287e-12
11.0909 -16.4268 -5.23344e-12
-2.06287e-12 -5.23344e-12 -77.7796

-26.1641 -5.16032 -2.18314e-12
-5.16032 -6.38716 -8.75191e-12
-2.18314e-12 -8.75191e-12 -77.6134

-38.9441 13.0839 -2.69581e-12
13.0839 13.7443 -1.25825e-12
-2.69581e-12 -1.25825e-12 -10.2407

-14.4795 -10.6652 -5.27978e-12
-10.6652 -17.3141 -4.3204e-12
-5.27978e-12 -4.3204e-12 -78.7422

-25.8979 4.09224 -2.50614e-13
4.09224 -5.9136 7.98572e-12
-2.50614e-13 7.98572e-12 -78.8843

-3.63253 7.43177 6.58288e-12
7.43177 -27.8569 -2.29076e-12
6.58288e-12 -2.29076e-12 -77.9718

-43.9706 -12.113 -1.22546e-12
-12.113 2.91605 8.65071e-12
-1.22546e-12 8.65071e-12 -68.1459

11.9734 -30.4731 -7.04503e-12
-30.4731 76.169 2.82559e-12
-7.04503e-12 2.82559e-12 -14.7014

0.520754 -12.9721 -4.07644e-12
-12.9721 -39.9882 4.4779e-12
-4.07644e-12 4.4779e-12 -45.2705

-16.3485 -34.4164 7.84587e-12
-34.4164 -22.07 3.00811e-12
7.84587e-12 3.00811e-12 -23.5888

-2.42153 -18.1775 -2.89813e-12
-18.1775 -29.8937 2.97984e-12
-2.89813e-12 2.97984e-12 -33.6226

12.7376 15.4603 -6.77384e-13
15.4603 -37.7188 -2.76934e-12
-6.77384e-13 -2.76934e-12 -9.62732

-46.9034 9.86271 -7.70476e-12
9.86271 8.87624 -7.6669e-12
-7.70476e-12 -7.6669e-12 -70.1412

3.46158 19.2255 -8.46997e-12
19.2255 -41.4672 -3.07783e-12
-8.46997e-12 -3.07783e-12 -70.2571

1.47102 11.308 -2.21216e-12
11.308 -23.9641 2.9979e-12
-2.21216e-12 2.9979e-12 -31.864

109.401 -15.341 1.27258e-11
-15.341 -12.5356 -3.51541e-12
1.27258e-11 -3.51541e-12 -25.0361

-14.3232 24.9663 9.96536e-13
24.9663 10.3857 6.94556e-13
9.96536e-13 6.94556e-13 -5.80743

76.6135 -61.3597 7.65255e-12
-61.3597 37.3695 -2.59585e-12
7.65255e-12 -2.59585e-12 -22.3939

76.1197 -57.4615 5.2746e-12
-57.4615 99.2358 2.27137e-12
5.2746e-12 2.27137e-12 -5.55365

118.205 -36.547 6.35462e-12
-36.547 40.6037 -3.51482e-12
6.35462e-12 -3.51482e-12 -7.37729

-51.1082 -5.15872 2.58371e-12
-5.15872 3.33959 -9.64414e-12
2.58371e-12 -9.64414e-12 -60.65

-50.4722 2.89136 -4.39204e-13
2.89136 3.13386 -2.85712e-12
-4.39204e-13 -2.85712e-12 -60.1227

-11.9752 -24.4533 -3.25813e-12
-24.4533 -34.999 -2.72967e-12
-3.25813e-12 -2.72967e-12 -59.1571

-8.99103 -21.7573 5.27482e-12
-21.7573 -37.8842 -3.01122e-12
5.27482e-12 -3.01122e-12 -59.4666

-14.7017 26.1327 -1.17802e-12
26.1327 -33.0236 -2.7985e-13
-1.17802e-12 -2.7985e-13 -60.7412

-18.1542 3.09734 3.30106e-13
3.09734 -13.1628 9.78329e-12
3.30106e-13 9.78329e-12 -75.4645

-9.94472 -20.5066 -4.92998e-12
-20.5066 -32.6469 -1.02215e-13
-4.92998e-12 -1.02215e-13 -56.7279

-26.644 -18.5665 4.587e-12
-18.5665 -14.1956 9.61202e-12
4.587e-12 9.61202e-12 -71.2597

-15.4753 2.43295 -2.94979e-12
2.43295 -12.8515 -1.59705e-11
-2.94979e-12 -1.59705e-11 -77.8585

-6.02704 -20.5235 2.58312e-14
-20.5235 -41.4828 6.59324e-13
2.58312e-14 6.59324e-13 -60.4974

-6.75624 20.953 8.77572e-12
20.953 -40.1392 1.71418e-12
8.77572e-12 1.71418e-12 -60.0086

-14.3128 -3.45685 9.73429e-12
-3.45685 -11.3893 -1.54758e-11
9.73429e-12 -1.54758e-11 -76.8731

-11.262 -3.11485 -7.85742e-12
-3.11485 -17.6863 1.3496e-11
-7.85742e-12 1.3496e-11 -74.0365

-24.1998 12.1094 -6.0485e-13
12.1094 -13.4003 -7.92366e-12
-6.0485e-13 -7.92366e-12 -69.956

-22.0802 26.927 -5.35276e-13
26.927 -26.2654 -1.33301e-12
-5.35276e-13 -1.33301e-12 -57.5735

VECTORS fluid_flux_TPM float
-8.7244e-05 3.10377e-05 2.19912e-20
3.56047e-06 6.88432e-06 2.7032e-20
-1.27906e-05 -1.02281e-05 -1.036e-20
-4.17162e-06 4.25512e-06 2.84541e-20
2.27135e-05 -6.31493e-06 -3.91721e-21
2.75833e-06 -1.59076e-05 -6.16243e-21
-8.58194e-05 -3.11023e-05 1.4933e-20
-1.38959e-05 -1.04695e-05 4.455e-21
2.21275e-05 9.45764e-07 -7.67e-22
1.13869e-05 -3.90909e-06 1.88507e-21
5.46151e-05 1.24873e-05 -6.23882e-21
2.34751e-06 -1.71985e-05 -3.50671e-21
1.3615e-05 1.12567e-05 4.49017e-21
2.6628e-06 1.37881e-05 1.92607e-20
2.05863e-05 -2.94742e-06 3.76316e-21
-1.63366e-05 -2.72965e-07 2.46482e-20
2.75426e-06 1.41024e-05 1.96769e-20
1.01844e-05 -2.3925e-06 3.88323e-21
9.90123e-06 1.72272e-05 5.15622e-21
-1.48523e-05 1.88596e-06 1.49724e-20
-3.60207e-06 -2.13096e-05 -2.24214e-20
3.41204e-05 5.9434e-05 -1.92582e-20
1.57016e-05 1.63173e-06 1.59837e-20
1.12303e-05 -1.12844e-05 -1.27165e-20
-1.50824e-05 -3.33328e-06 2.55225e-20
-6.77371e-07 -1.11338e-05 -3.86384e-21
6.29209e-05 -4.90981e-06 -1.12322e-20
1.40698e-05 1.02516e-05 4.16244e-21
-2.51566e-05 -2.06487e-05 6.3907e-21
4.91341e-05 -1.28175e-05 1.60641e-20
-1.65869e-05 -6.03995e-06 -2.37467e-21
5.53879e-06 -3.20458e-05 -1.41605e-20
4.76683e-05 -4.80611e-05 5.76025e-23
-4.92475e-06 -4.12597e-05 -2.44211e-20
-2.9682e-05 3.70161e-05 4.80242e-21
-3.82586e-05 -1.63999e-05 3.18259e-20
3.27122e-05 4.32281e-05 1.69936e-20
-4.47538e-05 -8.72844e-06 -6.45073e-21
1.43786e-05 -1.10849e-05 -2.36508e-20
4.64837e-05 5.01297e-05 7.83407e-21
3.21388e-05 -1.40261e-05 -5.09013e-21
3.36499e-05 -4.23559e-05 -1.34542e-20
-1.99023e-05 -5.03933e-05 -3.54367e-21
-1.59026e-05 6.35863e-06 -3.95311e-22
3.05345e-05 -2.93228e-05 1.37618e-20
-3.03416e-05 1.09936e-05 -7.09398e-22
-4.05135e-06 -2.03767e-05 -2.3504e-20
7.88849e-06 2.02178e-05 1.64912e-20
-1.63474e-05 5.92963e-06 9.39053e-21
-1.78251e-05 2.87346e-05 4.92582e-21
3.24184e-05 1.52954e-05 -1.35715e-20
2.9374e-05 -1.00782e-05 7.17621e-21
-1.56711e-05 1.57652e-05 -3.16322e-21
-2.35485e-05 -2.06968e-05 1.96451e-21
-2.11463e-05 -5.13402e-06 7.43664e-21
-4.48055e-05 2.70847e-05 2.74637e-21
-2.9381e-05 -3.80349e-05 -1.18295e-20
6.36554e-06 -3.06374e-05 -6.71783e-21
-4.77227e-05 6.48493e-06 5.9816e-22
6.07606e-06 1.37013e-05 7.20652e-21
-5.57859e-06 -8.17606e-06 2.21592e-20
-6.58566e-06 -1.79494e-05 2.97292e-20
5.71624e-05 2.48676e-05 -1.22366e-20
9.24587e-06 1.81502e-05 7.29902e-21
1.23005e-05 -1.44497e-05 -1.99479e-20
-1.64108e-06 -2.07593e-05 -1.11398e-20
4.62263e-06 -8.80844e-06 -7.67796e-21
-1.00939e-05 -5.56673e-06 7.94778e-21
-1.06061e-05 1.19333e-05 -6.37705e-21
2.55904e-06 -4.09394e-06 7.02432e-21
-1.50484e-05 -1.58484e-05 -1.92919e-20
-2.1372e-05 5.16764e-06 8.48922e-21
-3.55786e-06 3.4493e-05 -3.26538e-21
-1.78778e-05 1.07145e-05 1.06047e-20
-9.07381e-06 1.46196e-05 -7.0713e-21
-6.03757e-05 7.6949e-06 -9.20102e-22
7.8207e-06 -2.16888e-05 -2.25967e-20
-1.88865e-05 -8.90309e-06 1.96805e-20
1.93441e-06 1.16279e-05 3.45615e-22
2.63098e-05 5.09135e-06 -4.68146e-21
3.41806e-05 -2.89848e-05 -4.77211e-21
2.21539e-05 2.05631e-05 3.632e-20
1.19125e-05 -2.82329e-06 -9.03947e-21
-3.21648e-05 2.40756e-05 -3.41757e-21
3.79172e-05 4.84748e-06 -1.80122e-20
-4.98227e-06 4.94316e-05 1.87853e-20
-1.74166e-06 -1.68629e-05 -1.27769e-20
1.813e-05 9.95801e-06 1.57073e-20
2.93275e-05 3.0296e-05 -1.77078e-21
5.50434e-05 3.80263e-05 -2.98284e-21
-5.33306e-06 3.07833e-05 2.80367e-21
5.91998e-05 -3.55245e-05 -3.10947e-20
-2.7134e-05 5.34301e-06 -8.6138e-21
1.78453e-05 1.10056e-05 -1.08714e-21
-2.96513e-05 9.90677e-06 9.33819e-23
1.66588e-05 2.85309e-05 1.02339e-20
1.01725e-05 -4.44018e-05 -1.55987e-20
1.91616e-06 1.16247e-05 6.05268e-21
-1.48058e-05 -1.76261e-05 1.90296e-20
3.07098e-06 1.74806e-05 4.2146e-21
2.64159e-05 5.25926e-06 2.33831e-21
-1.54485e-05 3.32226e-05 8.99762e-21
4.05661e-05 -1.33376e-05 1.28993e-20
-3.77432e-06 7.45761e-06 2.23196e-20
9.95625e-06 5.90131e-06 -1.81071e-20
-2.28133e-06 -1.13284e-05 1.02197e-20
3.22179e-06 -1.92584e-05 -2.0148e-20
1.74753e-05 3.8934e-06 1.06062e-20
-7.93971e-06 4.09867e-05 1.66751e-23
-9.80892e-06 2.48029e-07 2.91684e-20
9.32172e-06 1.18898e-05 1.60137e-20
-2.17777e-06 -4.17282e-05 -1.06729e-20
4.20373e-05 1.28693e-05 -7.73341e-21
4.42409e-06 -7.45571e-06 1.29494e-20
-1.1149e-05 -3.55485e-06 2.19282e-20
-2.93357e-05 -1.24903e-05 1.32604e-20
1.58091e-05 4.11613e-05 8.78146e-21
-4.35001e-05 -1.55793e-05 -8.40676e-22
1.6024e-05 -4.11378e-05 1.46705e-22
-3.70097e-06 -3.19311e-05 6.24215e-21
2.18463e-05 6.52393e-07 2.1066e-20
-7.17392e-06 1.84029e-05 1.57703e-20
-1.61171e-06 3.9709e-06 4.84214e-21
-3.68719e-06 -1.65443e-05 -2.48204e-20
5.23176e-06 -8.30491e-06 1.1314e-21
9.3627e-06 1.58689e-05 2.2259e-20
3.31124e-05 1.0656e-05 1.04895e-21
8.61842e-06 -7.46055e-06 2.34107e-20
-8.2736e-06 -4.51755e-05 -1.27963e-20
2.55608e-05 -1.88262e-05 1.46974e-20
4.97964e-06 2.77807e-05 1.29937e-20
-2.81729e-06 -2.84257e-06 6.90974e-21
-8.62915e-06 -8.32864e-06 -9.79737e-21
-4.77827e-06 4.4122e-08 -3.66224e-21
-2.28804e-05 2.8604e-05 7.11528e-21
1.87695e-05 -3.73877e-05 -1.62657e-20
-2.6589e-05 4.27292e-05 1.03582e-20
-1.63773e-05 9.53852e-06 1.36345e-20
2.5288e-06 1.2203e-05 -1.29148e-21
-2.29945e-05 -3.50012e-05 1.26256e-20
1.39409e-05 3.34774e-05 1.50685e-20
1.75136e-05 9.37235e-06 2.82547e-22
2.28192e-05 -8.5255e-06 1.01045e-21
-1.25358e-06 -1.12692e-05 -7.22017e-21
-3.39232e-05 -3.15689e-05 -6.49075e-21
-2.75238e-06 1.13071e-05 3.13891e-20
1.72525e-05 1.01751e-05 4.07453e-21
1.88938e-05 -8.82377e-06 -1.03564e-20
8.24597e-06 -1.43496e-05 -3.10834e-21
2.43651e-05 -1.07989e-05 1.93238e-21
1.90159e-05 -9.00085e-06 2.97099e-22
4.6422e-06 2.05885e-07 6.11271e-21
2.57493e-05 2.02278e-05 -2.97646e-21
-2.74251e-06 -1.70356e-05 -9.9432e-21
-1.04833e-05 -4.45851e-06 -2.16157e-21
1.12625e-06 -3.89139e-06 -1.40223e-20
-3.15608e-06 1.58522e-05 -2.76182e-21
-3.48952e-05 2.76907e-06 2.60783e-21
-1.21255e-05 -3.32695e-05 -1.65943e-20
-7.88167e-06 9.7823e-06 3.1511e-21
1.35698e-05 1.66458e-05 2.42838e-20
2.65774e-05 -1.87509e-05 8.20909e-21
-3.68047e-05 -2.03578e-05 1.2146e-20
1.74089e-05 -2.75167e-05 -2.18916e-21
2.28116e-05 -2.72255e-05 3.02103e-21
-1.0948e-05 3.78619e-06 1.2193e-20
-1.98355e-05 -2.885e-05 5.76922e-22
-3.48916e-05 -5.79338e-06 -3.38998e-21
-3.85356e-06 -3.17533e-05 -6.41375e-21
1.54529e-05 -3.17097e-05 -2.12791e-21
-9.10914e-06 -2.62082e-05 -2.07301e-20
4.58284e-06 3.14159e-05 1.06502e-21
-1.57575e-05 -2.85317e-05 -7.97989e-21
2.93981e-06 -1.62977e-05 -4.91977e-21
-2.47476e-05 1.82661e-05 -1.27268e-21
-1.50358e-05 -1.21152e-05 2.12312e-20
-2.73619e-05 -5.17417e-06 2.43766e-20
1.56733e-05 -9.18461e-06 -8.76449e-21
-4.30834e-06 2.39605e-05 1.57985e-20
1.22367e-05 -9.32757e-06 -1.35581e-20
-2.95959e-05 -1.31687e-05 -1.28784e-21
-8.83459e-06 -7.4606e-06 2.44865e-21
9.08514e-06 7.54334e-06 -5.52517e-21
2.1434e-05 2.87103e-05 5.05406e-21
-1.75147e-05 -1.08129e-05 1.36318e-20
-3.25172e-05 -7.51313e-07 -6.659e-21
-1.63422e-05 -5.01786e-06 2.16641e-20
-4.57962e-06 -1.65888e-05 -8.71417e-21
1.76906e-05 2.12463e-05 -1.89266e-21
-1.0961e-05 5.87675e-06 1.23458e-20
6.36292e-07 -2.05622e-05 -9.31413e-21
-4.1954e-05 1.08546e-05 -7.34446e-21
2.48689e-05 2.02531e-05 -6.3425e-21
3.7959e-06 3.27964e-05 1.94368e-20
-2.43279e-06 3.79848e-06 7.31507e-21
-9.05396e-06 2.51292e-07 1.42524e-20
4.35658e-06 7.76268e-06 1.21972e-20
-1.16978e-05 3.40259e-06 -9.26714e-21
-2.07404e-06 -3.78618e-06 3.69769e-21
1.66038e-06 2.07669e-05 -1.71257e-21
4.47392e-06 4.49838e-07 -1.23688e-20
-1.95447e-05 4.75828e-06 8.94185e-21
-1.73042e-05 1.93646e-05 -8.41579e-22
-3.10848e-06 1.15821e-05 2.2543e-20
-2.92269e-05 1.84007e-05 6.95945e-21
-9.3465e-06 8.98234e-06 -2.39207e-22
1.7317e-05 -1.16177e-05 6.51075e-21
3.66166e-05 -3.56588e-06 2.11354e-20
-2.11478e-05 1.13012e-05 -5.13196e-21
2.23376e-06 4.49976e-06 -2.50626e-21
2.17827e-05 -4.34635e-06 1.40887e-20
-1.72848e-05 1.03564e-05 5.97568e-21
-9.87514e-06 5.54092e-06 1.08303e-20
1.18354e-05 3.74398e-06 5.52245e-21
2.18873e-05 -1.34757e-05 1.05505e-22
-1.73859e-05 9.95952e-06 1.22206e-20
-2.50455e-05 -5.30488e-06 6.3889e-21
-1.67674e-05 -4.36397e-06 3.19596e-20
9.87958e-06 6.2575e-09 1.21542e-20
1.01773e-05 1.95413e-07 -1.17504e-20
4.39228e-06 8.32e-06 3.5219e-20
4.83121e-06 -8.80076e-06 -7.58975e-21
-5.01205e-06 8.42269e-06 3.15262e-21
-5.26846e-06 -8.66053e-06 1.76751e-20
9.91436e-06 -7.41051e-06 -7.19955e-21
-2.03343e-05 3.236e-06 -6.49684e-22
-2.00667e-05 -3.28484e-06 2.64966e-20
-1.28391e-05 1.58818e-05 -7.32446e-22
-1.29189e-05 -1.59361e-05 -6.77482e-21
7.48878e-06 -1.98504e-05 -8.76722e-21
7.20844e-06 1.97705e-05 8.00657e-22
1.5584e-06 2.58938e-05 1.08278e-20
1.12443e-05 -3.13788e-06 1.50588e-20
2.36072e-06 -3.86781e-06 2.6978e-20
-2.14186e-05 1.42218e-06 7.80135e-21
7.67976e-06 -1.95196e-05 -1.31628e-20
7.27587e-06 1.96682e-05 1.2976e-20
4.7704e-06 -5.273e-08 1.93098e-20
8.9713e-06 2.44113e-05 2.77953e-20
-2.24302e-06 -4.01769e-06 -2.03514e-20
2.31856e-06 -1.13208e-05 -2.5287e-21
-2.2438e-05 -1.21557e-05 9.73371e-21
-2.13651e-05 -1.14984e-05 2.99869e-20
-2.18999e-05 1.36332e-05 1.34259e-20
3.25232e-06 -1.22916e-05 -1.4655e-20
-1.56582e-06 3.38309e-06 2.87552e-20
-5.87451e-07 -2.55773e-05 -1.25956e-20
-7.72265e-06 -2.44308e-05 -1.55372e-21
3.27144e-05 3.03721e-05 3.40424e-21
3.54645e-05 -1.81576e-06 3.17929e-21
-1.27151e-05 -3.63332e-06 2.56262e-20
-2.28998e-05 -4.13993e-05 -1.66377e-21
8.30689e-06 1.37522e-05 4.35072e-21
-2.52438e-05 3.03429e-06 1.94163e-23
2.00715e-05 5.78821e-06 9.96108e-21
-4.53455e-06 -3.27481e-08 1.16534e-20
-4.66662e-06 -8.41536e-06 -7.22502e-21
-7.07509e-06 -3.93451e-05 -1.97009e-20
-9.71135e-06 -8.39585e-08 -3.44093e-21
-4.86898e-05 -1.81629e-06 6.12513e-21
1.73142e-05 -1.91112e-05 -1.12107e-20
2.43013e-06 4.0003e-06 1.97662e-21
-1.2063e-07 -1.75191e-05 -2.85181e-20
-9.82139e-06 2.40914e-05 2.12974e-21
-4.37337e-06 8.63005e-06 -7.39237e-21
2.05625e-05 -1.36102e-05 -6.1703e-21
-3.76704e-05 -1.35556e-05 1.14051e-20
-1.52704e-05 -2.03721e-05 -3.85746e-21
4.97857e-06 8.39159e-06 1.42754e-20
1.66361e-05 5.16211e-06 -1.94574e-20
-4.76528e-06 -7.34051e-06 -1.56343e-21
1.98024e-05 3.54826e-06 2.89159e-21
1.81938e-05 -9.82864e-06 3.81077e-22
-3.48896e-07 2.71806e-05 2.14892e-20
8.32279e-06 -1.36707e-05 5.9781e-21
4.88176e-05 2.20122e-06 1.35475e-20
-4.23689e-05 1.14568e-05 -5.50637e-21
2.28662e-05 1.15593e-05 3.56127e-21
-6.45464e-06 -1.71839e-05 -9.54605e-21
-1.53539e-05 -8.62045e-06 9.82162e-21
2.87949e-05 -2.10595e-07 -2.60145e-21
-6.92124e-07 -2.42612e-05 -1.66531e-20
-1.26207e-05 -1.08769e-05 1.27429e-20
1.02266e-05 -2.35056e-05 -2.46478e-22
-4.96692e-07 2.05606e-05 1.76442e-21
7.91978e-06 2.60743e-05 1.47717e-20
1.72723e-05 -9.88674e-06 -1.89017e-20
-1.89527e-05 1.93035e-05 2.28465e-21
1.6532e-05 2.00344e-05 1.92746e-20
-6.22461e-05 1.60259e-05 2.50385e-21
-1.01116e-05 2.60226e-05 -8.41918e-21
1.25222e-05 -1.52521e-05 -7.75498e-21
-7.03082e-06 -1.84024e-05 1.86616e-20
-1.18565e-05 4.50682e-06 7.95233e-21
-2.58999e-05 -7.04757e-06 8.67688e-21
-6.38768e-06 3.88675e-05 -6.93307e-21
-1.2609e-05 1.19054e-05 1.34648e-20
2.07818e-05 -4.47669e-06 4.43529e-21
-6.87411e-06 -2.58006e-05 -3.18293e-21
-1.48724e-05 2.38969e-05 8.49785e-22
-2.17943e-05 1.25679e-05 -3.14108e-21
-2.05746e-05 -1.50592e-05 -1.34362e-20
1.80331e-05 -2.06601e-05 -1.81414e-21
-2.75376e-05 -1.45661e-06 4.64056e-21
1.23704e-05 -4.08203e-05 -2.96677e-21
1.93911e-05 -1.89178e-05 -5.51607e-21
2.47388e-05 4.30925e-05 2.6345e-21
1.97164e-06 1.98714e-05 6.55049e-21
2.96192e-06 -2.54275e-05 -1.58728e-20
-4.16466e-05 4.69735e-05 1.06108e-20
-1.27052e-05 -2.44177e-05 -1.02642e-20
1.63709e-05 -6.4221e-06 -6.67235e-21
-2.4114e-06 2.57787e-05 3.0553e-21
1.28861e-05 -1.18294e-05 -1.4286e-20
1.3884e-05 2.43189e-05 2.86718e-20
1.72341e-05 -1.40083e-06 -1.06917e-20
2.21258e-05 -6.32322e-05 1.02545e-20
-5.87753e-06 -1.28624e-05 2.32817e-22
-2.31901e-05 1.00897e-05 -1.48398e-21
-2.00249e-05 1.87236e-05 2.42504e-20
2.16177e-05 1.45712e-05 -7.88561e-21
1.86772e-05 -1.07593e-05 -1.24904e-21
1.49556e-05 1.25965e-05 5.93687e-21
-5.42944e-06 4.55454e-08 2.05209e-20
1.54075e-05 -2.30929e-05 5.48394e-21
-1.69945e-05 -2.04143e-05 -8.75569e-21
2.25674e-05 9.7761e-06 -4.50806e-21
1.28098e-05 -1.19927e-05 5.2505e-21
9.55637e-06 -2.48579e-05 -6.22822e-21
1.66633e-05 -6.93458e-06 -9.25258e-21
-1.58094e-05 -7.54651e-06 1.29306e-20
1.29719e-06 -2.63094e-05 -6.79242e-21
-2.61133e-05 4.47421e-06 2.65888e-22
2.39107e-06 2.45489e-05 -6.361e-21
2.059e-05 6.62908e-06 3.75439e-21
-2.17259e-05 -1.07045e-05 1.07633e-20
-8.97937e-06 2.56164e-05 1.32222e-20
-1.49569e-06 -2.4194e-05 -2.87348e-20
1.94712e-05 1.18403e-05 -5.59884e-21
-1.76937e-06 1.80893e-05 1.1657e-20
-2.01438e-05 1.37061e-05 1.05941e-20
2.35168e-05 1.1418e-05 2.43593e-21
-1.71195e-05 -9.98813e-06 1.44737e-20
9.51633e-08 -1.98398e-05 -2.04091e-21
1.8387e-05 1.99893e-05 3.83443e-21
-2.21594e-05 -1.43073e-05 1.88056e-20
4.83636e-05 -3.39906e-05 1.37333e-21
1.79016e-05 -1.08252e-05 -4.06362e-21
9.00439e-06 4.30984e-05 9.84921e-21
1.70386e-05 -1.36822e-05 -5.20534e-21
-1.98788e-05 8.70591e-05 5.70191e-21
-1.97689e-05 -8.65734e-05 -2.5166e-20
5.72003e-05 7.1736e-05 -2.22129e-21
5.69379e-05 -7.14095e-05 -1.98521e-20
9.06712e-05 -1.43205e-10 -7.02099e-21
-7.8222e-05 3.76512e-05 1.037e-20
-7.74763e-05 -3.7295e-05 -9.85011e-21
1.22372e-05 1.18219e-05 -2.39639e-20
2.93759e-05 2.18983e-05 -1.66656e-20
1.14513e-05 3.33373e-06 6.95127e-21
1.88609e-05 9.75416e-06 1.61405e-21
4.99067e-06 2.01757e-05 5.91777e-21
-1.88371e-05 -1.49846e-05 -6.79936e-21
1.70427e-05 -1.0217e-05 -1.19547e-20
1.98581e-05 1.45533e-05 -1.83991e-21
-3.16775e-06 2.43708e-05 1.42427e-21
2.94488e-05 -1.99984e-05 -7.52667e-21
3.79503e-06 -2.37465e-05 -1.18413e-20
2.1967e-05 5.22849e-06 -2.3465e-21
2.99042e-05 1.1029e-05 6.78179e-21
1.42127e-05 1.41478e-05 4.75399e-20
1.58876e-05 6.59553e-06 9.82254e-21
-1.8504e-05 1.09397e-05 1.84497e-20
-2.25695e-05 9.03923e-06 2.40822e-20
2.29359e-05 -1.12666e-05 4.14456e-21
-1.8273e-05 -1.00009e-05 3.57522e-21
-1.85597e-05 -1.05855e-05 2.24961e-22
-3.43903e-07 -2.07736e-05 -6.5614e-21
-8.61071e-08 -2.11668e-05 -6.5241e-21
-2.01328e-05 -1.00576e-06 2.42701e-20
2.67066e-05 -4.02028e-06 -8.83026e-21
1.81172e-05 1.13454e-05 9.61182e-21
-1.78693e-05 1.09482e-05 2.0654e-20
-1.53658e-05 1.66284e-05 6.20397e-21
1.60267e-05 -1.37571e-05 5.60824e-21
-1.10266e-05 1.74684e-05 1.64529e-21
-1.4229e-05 -1.48939e-05 -1.67632e-20
-1.15552e-06 2.12168e-05 -8.84021e-22
-1.288e-06 2.09743e-05 1.89305e-20
8.97967e-08 -1.98397e-05 -3.13348e-20
6.11265e-06 -1.9743e-05 -5.38122e-22
-1.71459e-05 -9.93839e-06 6.40042e-21
1.55913e-05 -5.49186e-06 8.94153e-21
6.63416e-07 2.1484e-05 -3.85897e-21
3.00975e-07 1.85129e-05 5.73406e-21
-2.34639e-06 1.68622e-05 2.13762e-21
2.19152e-05 -5.52901e-06 -2.94645e-21
-1.65461e-05 5.37967e-06 1.77e-20
4.15873e-06 2.15238e-05 -7.8277e-21
-3.25679e-05 1.29231e-05 1.01976e-20
9.76646e-06 4.17437e-05 9.235e-21
-1.70585e-05 4.5695e-06 -6.4495e-21
1.96903e-05 -1.16335e-05 -7.33355e-22
9.46106e-07 2.10257e-05 1.27672e-20
-2.04874e-05 6.70144e-06 3.28057e-20
2.44485e-06 -1.62673e-05 -1.2521e-20
1.82026e-06 -5.803e-05 -2.42183e-20
2.00711e-06 1.74915e-05 -2.81488e-21
-1.69671e-05 1.40268e-05 5.60703e-21
1.78597e-05 6.39909e-05 4.25249e-21
4.57829e-05 3.77181e-05 -2.07083e-22
5.20805e-05 -3.52662e-05 -2.527e-20
1.48199e-05 -1.01702e-05 -1.3593e-20
-1.57902e-05 1.40419e-05 3.27994e-21
-2.0223e-05 -7.92312e-06 6.86881e-21
-1.96516e-05 -6.82451e-06 7.04495e-21
5.9285e-05 -2.46194e-05 -2.63572e-20
5.74511e-05 2.38781e-05 1.89887e-20
1.08978e-05 3.81863e-06 1.36242e-21
7.66912e-07 1.95853e-05 4.00784e-21
7.84274e-08 1.95666e-05 8.11602e-21
-4.83977e-05 -3.69308e-05 6.12059e-21
1.14287e-05 -1.71772e-05 -6.10725e-21
1.17369e-05 1.24685e-05 2.84672e-21
-2.14248e-05 -3.39679e-06 3.2169e-21
-1.40493e-05 1.72075e-05 -6.09905e-21
-1.88944e-05 9.17063e-06 1.96442e-20
4.76581e-05 3.37044e-05 -9.32473e-21
1.58113e-05 7.06381e-06 -7.15165e-21
-5.56842e-06 2.00366e-05 8.74964e-21
-1.69833e-05 -1.17529e-05 6.86371e-22
1.85688e-06 -2.05492e-05 -1.81526e-20
-8.95247e-06 -1.92733e-05 -1.33529e-20
-1.72545e-05 -1.17772e-05 -1.08077e-21
1.05829e-05 -1.89416e-05 -2.72809e-20
1.41269e-05 -1.69946e-05 -2.36738e-20
-2.44085e-06 -6.14568e-05 -1.53256e-20
2.61885e-05 -4.11385e-05 -8.00475e-21
1.7481e-06 -2.07921e-05 3.65191e-21
1.79643e-05 1.13589e-05 4.91793e-21
-1.44809e-05 -1.49101e-05 -7.9035e-21
-9.84413e-06 1.97164e-05 -3.02193e-21
-5.04096e-06 2.10133e-05 -4.16941e-21
1.66325e-05 1.42482e-05 2.83367e-21
6.06097e-06 -1.98677e-05 -1.02406e-20
-1.34105e-05 -4.03709e-05 5.88502e-21
-1.98897e-06 2.50483e-05 -2.24068e-21
1.47965e-05 1.44596e-05 2.10232e-20
-1.29624e-05 -1.022e-05 8.51227e-21
-1.35193e-05 1.06116e-05 7.36903e-21
4.43568e-05 -1.89191e-05 7.10436e-21
7.56548e-06 -1.34044e-05 1.45161e-20
-8.31978e-06 -1.2631e-05 -2.34377e-21
2.13373e-05 6.36551e-06 8.88636e-21
1.09978e-05 -5.0678e-05 -3.00894e-20
-3.84637e-05 -3.49141e-05 5.82077e-21
2.33141e-05 6.20935e-06 -1.25219e-20
-9.33117e-06 -1.8287e-05 -1.63697e-20
1.87116e-05 9.48578e-06 3.85565e-21
-2.85735e-05 -3.2562e-05 -2.941e-21
9.69129e-06 5.00628e-05 1.59865e-20
3.43451e-05 -5.98788e-05 -1.88526e-20
-3.47482e-05 -5.97956e-05 4.60418e-21
2.78177e-05 -5.20386e-05 8.14815e-21
-1.27021e-05 4.36471e-05 -1.00948e-22
-6.27805e-06 3.89898e-05 -8.50257e-21
-1.87367e-05 8.94877e-06 2.22223e-20
5.97914e-06 2.42499e-05 4.32133e-21
-2.3923e-06 1.26581e-05 1.04865e-20
1.01234e-05 3.23416e-06 4.70876e-21
-3.18946e-06 1.62106e-05 -4.16124e-21
-2.47499e-07 2.09984e-05 4.51079e-21
1.66659e-05 9.75366e-06 -4.32069e-21
1.71129e-06 5.77427e-05 1.09943e-20
-1.47219e-05 1.07361e-05 1.30737e-20
1.59545e-05 -6.24858e-06 -1.43609e-21
1.68772e-05 -4.51038e-06 1.19386e-20
-6.06826e-05 -8.7718e-06 -7.03766e-21
-3.46167e-05 1.67468e-05 -9.22514e-22
-4.35285e-05 -5.25635e-05 5.8726e-21
8.6593e-06 8.34834e-06 3.74757e-20
1.42144e-05 7.29485e-06 8.51469e-21
2.68133e-05 -4.19717e-06 7.49756e-21
-8.10693e-06 -1.32471e-05 -7.48908e-21
1.7222e-05 8.43127e-06 5.84515e-22
7.33769e-06 -3.00441e-05 -2.94006e-20
-1.3718e-05 1.02082e-05 1.04013e-20
-2.23814e-05 -2.14291e-05 2.40452e-20
-5.83779e-06 1.63029e-05 6.14364e-21
-3.272e-06 2.06851e-05 -9.6294e-21
3.38605e-05 2.13031e-05 -1.27997e-21
3.61247e-05 -1.9289e-05 -2.21195e-20
-4.2084e-05 -1.16269e-05 -1.17528e-20
7.63659e-06 7.68816e-06 1.56521e-20
-4.05929e-06 0.000101393 -7.49787e-21
8.62583e-07 -0.000104501 -1.17607e-20
5.24714e-05 8.76725e-05 -3.55339e-21
-1.9109e-05 8.4606e-06 -8.6235e-21
-2.63844e-05 5.65679e-05 2.99647e-21
5.305e-05 -8.46663e-05 2.36437e-21
-1.17242e-05 -1.82882e-05 -2.27619e-20
7.80244e-05 6.75184e-05 -1.80647e-20
2.40011e-05 -1.79825e-05 -2.8191e-20
-3.60854e-06 -2.98315e-05 2.03521e-20
8.18043e-05 -6.58704e-05 4.72845e-21
-6.74671e-06 1.45229e-05 -4.79605e-21
-5.38495e-05 -3.48354e-05 2.24042e-22
-4.30266e-05 -9.31601e-05 -1.69284e-20
-2.41199e-05 -5.78226e-05 -1.35169e-20
-4.39884e-05 9.41672e-05 1.61908e-20
-1.00962e-05 6.41042e-05 1.40674e-20
1.56377e-05 3.71199e-05 -1.58918e-21
-2.7964e-05 3.72526e-05 -3.7935e-21
-2.52805e-05 -5.52012e-05 -6.59231e-21
0.000100397 1.73223e-05 -2.1284e-20
-1.69327e-05 1.07704e-05 2.95115e-20
-5.91416e-06 1.63381e-05 -5.72586e-21
-5.07743e-05 3.76522e-05 -7.94079e-21
-1.72817e-05 9.94726e-06 -6.3052e-21
9.92334e-05 -1.5268e-05 -3.15898e-21
-1.5365e-05 7.80117e-06 6.5611e-21
7.19491e-06 -1.44994e-05 -1.52122e-20
-7.79938e-05 -6.09681e-05 -2.87006e-21
-2.58867e-05 5.77355e-05 1.4681e-20
-7.91469e-05 6.03951e-05 1.26283e-20
2.45483e-05 5.19663e-05 1.32362e-21
-1.47721e-05 1.05858e-05 3.62919e-21
-2.05362e-05 2.44842e-05 1.40371e-20
-2.85415e-05 4.98334e-05 -1.27029e-20
-5.67937e-05 2.08073e-07 -3.54067e-21
-9.44362e-07 1.63011e-05 -1.02758e-20
-2.88586e-05 -5.04222e-05 -1.53101e-20
-5.82165e-05 -2.19917e-07 2.19716e-20
-2.83583e-05 4.87114e-05 1.44434e-20
-1.5195e-05 6.62868e-05 -2.07346e-20
-1.78701e-05 4.12736e-05 1.48872e-20
-3.39108e-05 2.71458e-05 3.68043e-21
2.43905e-05 -6.05881e-06 6.22093e-21
3.80145e-05 -2.19596e-06 -3.93932e-21
1.34865e-05 8.20285e-06 -1.34384e-20
-1.04724e-05 -7.40106e-05 -2.71733e-20
-6.94705e-05 -2.79829e-05 1.88359e-20
3.71438e-05 7.32939e-07 -5.96933e-21
5.83842e-05 -1.08954e-05 -9.86501e-22
-1.0587e-05 -1.35013e-05 -8.65293e-21
-5.08445e-05 3.76381e-05 8.43525e-21
-4.61479e-05 5.40174e-05 1.19592e-20
6.2382e-05 -2.22392e-05 -4.21397e-22
-2.81862e-05 -5.05128e-05 -1.24401e-20
-2.8786e-05 4.9795e-05 -2.26555e-21
-5.72723e-05 -1.17154e-06 -1.98542e-21
-2.65816e-05 5.06136e-05 1.31598e-20
-5.79712e-05 -8.17253e-07 7.14408e-21
6.60967e-05 1.73979e-05 -9.51241e-21
5.63978e-05 1.29294e-06 1.16712e-20
5.0916e-05 -2.9283e-05 -1.63206e-20
2.4918e-05 -5.94456e-05 -2.99187e-20
2.99278e-05 -4.8872e-05 -1.73595e-21
2.91765e-05 4.86959e-05 -2.86127e-21
2.43526e-05 5.81074e-05 -1.34375e-20
7.5826e-05 -2.00439e-05 1.83718e-20
4.62808e-05 2.90723e-05 2.08383e-20
4.66388e-05 1.37497e-05 -6.34372e-21
TENSORS solid_stress_TPM float
375.055 -24.9213 -3.17849e-12
-24.9213 238.584 9.26074e-13
-3.17849e-12 9.26074e-13 197.831

457.038 -21.3208 -3.34777e-12
-21.3208 490.022 -2.73737e-12
-3.34777e-12 -2.73737e-12 487.143

454.912 28.0455 5.98632e-13
28.0455 463.742 -2.02149e-12
5.98632e-13 -2.02149e-12 458.491

455.063 -29.8425 7.40696e-12
-29.8425 482.645 1.44536e-12
7.40696e-12 1.44536e-12 484.89

527.712 19.9308 1.95932e-12
19.9308 548.477 -5.19274e-12
1.95932e-12 -5.19274e-12 527.383

437.343 -18.076 -1.58481e-12
-18.076 480.373 6.47186e-13
-1.58481e-12 6.47186e-13 458.072

372.349 26.4856 -6.58436e-13
26.4856 239.104 8.09308e-12
-6.58436e-13 8.09308e-12 197.815

473.685 29.9593 -5.41789e-13
29.9593 469.535 -1.79027e-12
-5.41789e-13 -1.79027e-12 472.369

471.584 5.48355 -2.86586e-13
5.48355 417.853 -4.71512e-13
-2.86586e-13 -4.71512e-13 432.826

504.294 -7.47764 -7.99361e-13
-7.47764 444.145 -2.17448e-12
-7.99361e-13 -2.17448e-12 483.484

360.318 16.3102 -2.60059e-12
16.3102 247.671 3.1329e-12
-2.60059e-12 3.1329e-12 233.661

444.814 -13.4541 -3.08997e-12
-13.4541 498.419 -1.74675e-13
-3.08997e-12 -1.74675e-13 472.271

466.9 27.8348 8.60349e-13
27.8348 468.335 -1.26358e-12
8.60349e-13 -1.26358e-12 466.766

457.068 -14.3409 5.06232e-12
-14.3409 500.467 2.10321e-12
5.06232e-12 2.10321e-12 483.489

512.965 33.3093 2.27433e-12
33.3093 511.626 1.25868e-12
2.27433e-12 1.25868e-12 515.254

489.208 0.561074 -4.48234e-13
0.561074 435.555 2.67009e-12
-4.48234e-13 2.67009e-12 462.304

457.615 -17.9688 1.70456e-12
-17.9688 512.918 -5.18637e-12
1.70456e-12 -5.18637e-12 493.628

493.992 -2.6652 -1.53862e-12
-2.6652 439.08 8.87216e-13
-1.53862e-12 8.87216e-13 474.296

418.823 26.6764 1.27898e-13
26.6764 449.693 -1.05338e-12
1.27898e-13 -1.05338e-12 424.083

482.016 -4.19601 -2.55677e-12
-4.19601 424.952 2.69288e-12
-2.55677e-12 2.69288e-12 453.506

425.326 8.6696 -3.32416e-12
8.6696 481.937 9.76996e-13
-3.32416e-12 9.76996e-13 444.872

634.133 6.28617 3.10219e-12
6.28617 633.971 3.98644e-12
3.10219e-12 3.98644e-12 570.335

479.187 1.8761 -1.81188e-13
1.8761 422.97 -4.27732e-13
-1.81188e-13 -4.27732e-13 449.763

447.194 -27.7175 -2.25982e-12
-27.7175 461.183 -4.0347e-12
-2.25982e-12 -4.0347e-12 452.979

481.083 6.84989 -2.61243e-12
6.84989 425.471 -2.44279e-12
-2.61243e-12 -2.44279e-12 452.969

449.79 19.1137 1.63306e-12
19.1137 490.351 -2.22962e-12
1.63306e-12 -2.22962e-12 478.237

377.68 4.18182 6.31436e-12
4.18182 291.673 -8.80511e-12
6.31436e-12 -8.80511e-12 259.02

462.717 30.7479 -1.03325e-12
30.7479 460.746 2.68792e-12
-1.03325e-12 2.68792e-12 460.576

384.968 37.0784 3.64272e-12
37.0784 383.547 -2.70362e-12
3.64272e-12 -2.70362e-12 348.444

586.957 10.3236 3.11159e-13
10.3236 563.47 -1.12292e-12
3.11159e-13 -1.12292e-12 546.895

491.722 14.2173 3.55271e-14
14.2173 442.529 8.57092e-13
3.55271e-14 8.57092e-13 465.887

352.879 -17.7823 -2.8777e-12
-17.7823 416.754 -2.96059e-14
-2.8777e-12 -2.96059e-14 348.615

331.039 -42.1054 2.8398e-12
-42.1054 335.895 -9.02389e-13
2.8398e-12 -9.02389e-13 253.5

531.43 5.98557 2.3305e-12
5.98557 586.907 -6.0633e-13
2.3305e-12 -6.0633e-13 538.605

554.042 -4.83887 4.46162e-13
-4.83887 582.089 7.02253e-13
4.46162e-13 7.02253e-13 542.535

578.004 21.0274 6.48666e-13
21.0274 539.968 1.07869e-12
6.48666e-13 1.07869e-12 538.374

556.203 5.06571 1.56926e-12
5.06571 600.688 2.69917e-12
1.56926e-12 2.69917e-12 547.991

573.792 -9.17077 -3.97341e-12
-9.17077 555.785 -3.52253e-12
-3.97341e-12 -3.52253e-12 540.661

467.16 -27.9999 -4.78551e-12
-27.9999 466.524 -3.91627e-12
-4.78551e-12 -3.91627e-12 465.139

330.424 41.5246 2.70006e-12
41.5246 337.993 -1.03052e-11
2.70006e-12 -1.03052e-11 253.859

414.556 -17.951 -4.41365e-12
-17.951 354.511 5.15203e-12
-4.41365e-12 5.15203e-12 346.345

559.324 -3.70452 1.93771e-13
-3.70452 599.937 -5.90343e-13
1.93771e-13 -5.90343e-13 548.406

586.429 19.5529 -3.36324e-12
19.5529 572.47 1.8258e-12
-3.36324e-12 1.8258e-12 548.194

490.927 -12.2736 1.06581e-13
-12.2736 442.883 -1.19652e-12
1.06581e-13 -1.19652e-12 466.56

341.731 -43.3033 -1.53714e-12
-43.3033 345.359 5.49486e-12
-1.53714e-12 5.49486e-12 288.996

417.582 -18.0653 -6.49791e-12
-18.0653 357.129 -3.34133e-12
-6.49791e-12 -3.34133e-12 351.519

413.034 17.0873 -1.59961e-12
17.0873 464.808 -6.90292e-12
-1.59961e-12 -6.90292e-12 428.749

429.652 19.3409 -2.62664e-12
19.3409 466.538 -1.01844e-13
-2.62664e-12 -1.01844e-13 437.103

486.805 -16.3021 -1.44536e-12
-16.3021 432.896 2.60118e-12
-1.44536e-12 2.60118e-12 458.7

355.598 -34.189 1.82136e-12
-34.189 389.422 -3.81325e-13
1.82136e-12 -3.81325e-13 332.585

410.274 19.1838 7.25938e-13
19.1838 350.718 -2.63967e-12
7.25938e-13 -2.63967e-12 339.494

425.223 -25.2909 3.45324e-12
-25.2909 383.84 2.75987e-12
3.45324e-12 2.75987e-12 373.095

519.937 19.4841 -8.19345e-13
19.4841 547.549 3.19685e-12
-8.19345e-13 3.19685e-12 525.75

416.434 29.6524 -1.87346e-12
29.6524 393.906 -2.06886e-12
-1.87346e-12 -2.06886e-12 373.96

522.195 -21.8127 2.85609e-12
-21.8127 541.412 -2.47687e-12
2.85609e-12 -2.47687e-12 524.397

364.089 -42.7152 -1.73372e-12
-42.7152 343.298 1.90425e-12
-1.73372e-12 1.90425e-12 289.714

553.464 5.45782 -9.29627e-13
5.45782 583.882 3.19981e-12
-9.29627e-13 3.19981e-12 542.91

373.735 -5.3304 2.18788e-13
-5.3304 436.687 -3.06718e-12
2.18788e-13 -3.06718e-12 373.844

580.829 10.3846 -6.51331e-15
10.3846 556.185 -3.04009e-12
-6.51331e-15 -3.04009e-12 542.666

435.08 21.4147 -8.65974e-13
21.4147 473.787 -1.07588e-12
-8.65974e-13 -1.07588e-12 454.695

513.597 5.75465 2.78622e-12
5.75465 452.831 1.35492e-12
2.78622e-12 1.35492e-12 494.889

522.482 11.459 1.32487e-12
11.459 487.884 -5.06795e-12
1.32487e-12 -5.06795e-12 507.102

383.725 31.8222 1.14871e-12
31.8222 315.209 7.10543e-12
1.14871e-12 7.10543e-12 269.885

482.11 -6.036 5.95997e-12
-6.036 528.205 -4.65998e-12
5.95997e-12 -4.65998e-12 504.124

487.119 9.52044 7.51991e-14
9.52044 523.714 3.98111e-12
7.51991e-14 3.98111e-12 507.52

456.482 -2.88144 -3.91502e-13
-2.88144 520.182 1.2547e-12
-3.91502e-13 1.2547e-12 487.831

464.48 23.4014 4.38261e-12
23.4014 503.496 -9.25482e-13
4.38261e-12 -9.25482e-13 495.466

496.775 8.46411 -5.7027e-12
8.46411 444.424 5.86198e-14
-5.7027e-12 5.86198e-14 477.724

445.533 -28.2416 4.70172e-12
-28.2416 459.556 2.89369e-12
4.70172e-12 2.89369e-12 451.193

501.71 -1.71149 3.34251e-12
-1.71149 444.944 -9.9698e-14
3.34251e-12 -9.9698e-14 489.095

519.55 -19.2601 -1.95044e-12
-19.2601 546.842 6.06863e-12
-1.95044e-12 6.06863e-12 525.483

523.323 21.3078 -2.35397e-12
21.3078 542.937 -3.85332e-12
-2.35397e-12 -3.85332e-12 525.286

353.43 -16.5852 1.09098e-13
-16.5852 415.762 1.77399e-12
1.09098e-13 1.77399e-12 346.133

506.046 -27.937 3.2756e-12
-27.937 485.333 -4.34112e-12
3.2756e-12 -4.34112e-12 493.904

449.748 -25.1364 -4.16852e-13
-25.1364 471.249 -4.448e-12
-4.16852e-13 -4.448e-12 458.604

357.89 -31.7133 -2.57216e-12
-31.7133 285.691 1.21799e-12
-2.57216e-12 1.21799e-12 249.873

498.52 3.22302 1.07122e-12
3.22302 541.428 -2.19735e-12
1.07122e-12 -2.19735e-12 513.665

501.751 28.9449 -3.33067e-12
28.9449 474.575 -1.11437e-12
-3.33067e-12 -1.11437e-12 487.683

448.471 19.6649 5.17245e-12
19.6649 492.136 5.23729e-13
5.17245e-12 5.23729e-13 477.669

440.221 8.00034 -2.64559e-12
8.00034 373.059 -4.52379e-13
-2.64559e-12 -4.52379e-13 382.958

386.475 -33.9388 -4.28694e-12
-33.9388 360.228 7.55307e-12
-4.28694e-12 7.55307e-12 319.455

537.737 -10.5869 1.64343e-12
-10.5869 556.158 -3.84877e-13
1.64343e-12 -3.84877e-13 531.27

482.683 23.9001 -2.57631e-12
23.9001 504.585 6.30255e-13
-2.57631e-12 6.30255e-13 502.068

385.395 -32.387 2.90375e-12
-32.387 345.327 -3.20928e-12
2.90375e-12 -3.20928e-12 317.101

422.225 10.7922 -1.15818e-12
10.7922 363.872 1.79989e-12
-1.15818e-12 1.79989e-12 350.275

307.669 -21.208 -1.68251e-12
-21.208 388.467 -6.27646e-13
-1.68251e-12 -6.27646e-13 288.133

434.47 14.4264 -3.40254e-12
14.4264 488.698 4.49596e-12
-3.40254e-12 4.49596e-12 460.911

509.747 23.1446 5.58013e-12
23.1446 475.197 -2.88362e-13
5.58013e-12 -2.88362e-13 489.972

338.261 42.2027 5.38355e-12
42.2027 349.592 -3.48521e-12
5.38355e-12 -3.48521e-12 288.969

634.22 16.5055 -1.07294e-11
16.5055 603.077 1.0479e-11
-1.07294e-11 1.0479e-11 565.34

372.911 -4.10881 -2.48335e-12
-4.10881 436.846 1.14871e-13
-2.48335e-12 1.14871e-13 373.451

637.125 -16.6308 2.78281e-12
-16.6308 599.548 -7.97555e-12
2.78281e-12 -7.97555e-12 564.847

533.961 -27.3348 2.28321e-12
-27.3348 507.262 5.0302e-12
2.28321e-12 5.0302e-12 515.738

505.323 27.4252 3.1933e-12
27.4252 466.36 2.55114e-12
3.1933e-12 2.55114e-12 485.098

426.954 -24.413 -5.1988e-12
-24.413 386.263 -1.59458e-12
-5.1988e-12 -1.59458e-12 376.002

358.958 31.3265 -2.53841e-12
31.3265 396.03 -6.15804e-12
-2.53841e-12 -6.15804e-12 339.222

339.845 -10.7061 -1.54306e-12
-10.7061 408.418 4.66116e-12
-1.54306e-12 4.66116e-12 319.126

453.134 21.9713 -1.62285e-12
21.9713 494.709 -7.99361e-15
-1.62285e-12 -7.99361e-15 483.197

533.137 16.795 -3.25665e-15
16.795 506.221 9.56864e-13
-3.25665e-15 9.56864e-13 513.377

443.481 15.1552 1.61604e-12
15.1552 488.471 -1.5626e-12
1.61604e-12 -1.5626e-12 464.311

451.512 15.9552 -4.9738e-14
15.9552 400.562 -1.40332e-13
-4.9738e-14 -1.40332e-13 403.773

374.512 -21.4747 1.00364e-12
-21.4747 419.895 -4.15668e-13
1.00364e-12 -4.15668e-13 357.221

389.748 -29.3935 -2.38269e-12
-29.3935 342.391 7.11076e-12
-2.38269e-12 7.11076e-12 314.411

454.996 -24.5741 1.57148e-12
-24.5741 480.096 -2.60384e-12
1.57148e-12 -2.60384e-12 478.4

466.456 27.4524 9.37028e-13
27.4524 478.773 -6.22021e-13
9.37028e-13 -6.22021e-13 479.838

452.248 23.1882 -2.63167e-12
23.1882 492.591 -3.51008e-12
-2.63167e-12 -3.51008e-12 482.073

466.323 13.1688 -4.51766e-12
13.1688 529.803 1.13687e-12
-4.51766e-12 1.13687e-12 501.41

490.894 9.37266 -7.11135e-13
9.37266 437.918 2.9828e-13
-7.11135e-13 2.9828e-13 462.084

327.732 -4.66545 9.68114e-14
-4.66545 403.409 3.00323e-12
9.68114e-14 3.00323e-12 314.432

462.611 -36.8319 3.46982e-12
-36.8319 487.721 -1.48836e-12
3.46982e-12 -1.48836e-12 492.777

445.879 27.4674 3.37804e-13
27.4674 463.301 -1.87287e-12
3.37804e-13 -1.87287e-12 455.043

305.69 2.17044 1.07847e-12
2.17044 393.387 3.82272e-12
1.07847e-12 3.82272e-12 297.275

386.022 34.6137 -9.85286e-12
34.6137 332.469 -1.36365e-12
-9.85286e-12 -1.36365e-12 306.266

453.381 -22.9751 -2.62605e-13
-22.9751 480.102 2.37025e-12
-2.62605e-13 2.37025e-12 476.202

501.427 5.73294 -1.01815e-12
5.73294 441.346 -1.17676e-12
-1.01815e-12 -1.17676e-12 481.04

422.41 27.2067 -2.49519e-12
27.2067 389.793 -1.5099e-12
-2.49519e-12 -1.5099e-12 374.259

570.56 12.7448 -2.34242e-12
12.7448 565.933 -7.03348e-12
-2.34242e-12 -7.03348e-12 542.938

396.205 24.3329 2.72375e-12
24.3329 349.671 2.36848e-13
2.72375e-12 2.36848e-13 319.065

569.183 -13.0543 1.44388e-12
-13.0543 565.844 -4.83347e-12
1.44388e-12 -4.83347e-12 542.393

375.116 0.778653 6.24093e-13
0.778653 438.9 -2.54848e-12
6.24093e-13 -2.54848e-12 374.666

461.503 -2.23554 1.53833e-12
-2.23554 399.329 8.01692e-13
1.53833e-12 8.01692e-13 417.31

538.221 -15.7666 5.73911e-13
-15.7666 480.659 1.29082e-12
5.73911e-13 1.29082e-12 513.505

457.276 24.3883 3.99962e-13
24.3883 487.817 -1.72203e-12
3.99962e-13 -1.72203e-12 488.384

461.285 -13.5353 -3.5198e-12
-13.5353 519.165 1.22391e-12
-3.5198e-12 1.22391e-12 495.743

514.999 -7.9995 3.56766e-12
-7.9995 438.224 -1.3789e-12
3.56766e-12 -1.3789e-12 494.307

488.341 -22.2823 6.73269e-12
-22.2823 541.627 4.30174e-13
6.73269e-12 4.30174e-13 515.776

556.07 -6.59815 -8.25059e-12
-6.59815 560.413 -1.28001e-12
-8.25059e-12 -1.28001e-12 538.751

463.898 -29.9085 -2.05554e-12
-29.9085 483.228 1.3977e-12
-2.05554e-12 1.3977e-12 483.63

341.729 11.4547 -3.75019e-12
11.4547 406.222 -1.22924e-12
-3.75019e-12 -1.22924e-12 319.504

422.511 -28.1493 2.70362e-12
-28.1493 391.268 -5.09578e-12
2.70362e-12 -5.09578e-12 375.173

507.404 -13.7708 -4.86552e-12
-13.7708 558.77 -1.65793e-14
-4.86552e-12 -1.65793e-14 525.276

501.089 0.504902 2.0702e-12
0.504902 441.311 -2.52901e-12
2.0702e-12 -2.52901e-12 487.117

476.971 -21.5241 -2.51354e-13
-21.5241 507.452 -1.50161e-12
-2.51354e-13 -1.50161e-12 501.533

459.129 25.6982 3.24585e-12
25.6982 484.633 -7.10543e-15
3.24585e-12 -7.10543e-15 488.012

394.457 -31.4676 5.37999e-12
-31.4676 400.626 9.68707e-13
5.37999e-12 9.68707e-13 357.546

552.143 -7.08307 5.22922e-12
-7.08307 585.313 1.53122e-12
5.22922e-12 1.53122e-12 542.625

347.232 -33.0798 3.61429e-12
-33.0798 382.633 -5.85014e-13
3.61429e-12 -5.85014e-13 303.456

490.902 -19.1809 1.14279e-13
-19.1809 448.416 1.08891e-12
1.14279e-13 1.08891e-12 467.153

519.737 1.97122 2.42717e-12
1.97122 466.843 -1.03236e-12
2.42717e-12 -1.03236e-12 502.86

570.578 17.8744 5.03123e-12
17.8744 566.495 1.12828e-12
5.03123e-12 1.12828e-12 542.397

375.315 20.1849 -8.22453e-13
20.1849 424.061 -1.73017e-12
-8.22453e-13 -1.73017e-12 360.245

489.111 27.2121 -2.9073e-13
27.2121 468.569 3.7419e-12
-2.9073e-13 3.7419e-12 476.668

454.41 -24.5136 -7.48438e-13
-24.5136 415.37 -7.42221e-13
-7.48438e-13 -7.42221e-13 418.63

454.747 -17.8392 -1.87779e-12
-17.8392 494.938 1.80448e-12
-1.87779e-12 1.80448e-12 482.671

379.224 35.0714 3.68061e-12
35.0714 366.054 8.40809e-14
3.68061e-12 8.40809e-14 317.07

449.183 -21.8314 -5.18415e-12
-21.8314 491.736 -1.80596e-12
-5.18415e-12 -1.80596e-12 479.803

485.52 30.8517 1.66149e-12
30.8517 465.163 8.39329e-13
1.66149e-12 8.39329e-13 473.474

480.353 -25.2454 6.43989e-12
-25.2454 442.395 4.4705e-14
6.43989e-12 4.4705e-14 455.471

448.248 -25.1281 5.71069e-12
-25.1281 469.799 9.166e-13
5.71069e-12 9.166e-13 458.126

445.375 -18.6899 -2.41585e-13
-18.6899 393.486 -4.31063e-13
-2.41585e-13 -4.31063e-13 397.284

470.684 -18.8512 2.6675e-12
-18.8512 422.88 1.53477e-12
2.6675e-12 1.53477e-12 437.559

459.03 -25.3375 -2.05554e-12
-25.3375 485.459 2.49715e-12
-2.05554e-12 2.49715e-12 488.855

386.567 35.9729 -6.21133e-12
35.9729 382.012 7.63833e-13
-6.21133e-12 7.63833e-13 348.139

444.524 15.3779 4.99822e-12
15.3779 491.563 3.83101e-12
4.99822e-12 3.83101e-12 467.168

469.425 26.4235 1.09897e-12
26.4235 479.986 1.05723e-12
1.09897e-12 1.05723e-12 482.574

456.172 25.4736 -1.31075e-12
25.4736 486.677 9.51091e-13
-1.31075e-12 9.51091e-13 487.275

457.834 11.6224 6.142e-12
11.6224 506.969 5.96264e-13
6.142e-12 5.96264e-13 486.042

431.98 -8.22777 -3.48166e-13
-8.22777 370.778 1.98508e-13
-3.48166e-13 1.98508e-13 363.33

376.802 18.6083 7.72478e-12
18.6083 427.293 2.46203e-12
7.72478e-12 2.46203e-12 363.906

452.34 -24.3817 -4.16674e-12
-24.3817 478.415 5.19407e-12
-4.16674e-12 5.19407e-12 470.739

440.774 25.6681 1.14397e-12
25.6681 455.669 2.16656e-12
1.14397e-12 2.16656e-12 437.832

390.98 -35.6328 3.99917e-12
-35.6328 380.3 -7.17056e-13
3.99917e-12 -7.17056e-13 350.112

368.963 38.3202 1.06226e-12
38.3202 327.271 1.39977e-12
1.06226e-12 1.39977e-12 295.7

363.668 -33.3143 -3.35258e-12
-33.3143 394.46 1.56319e-13
-3.35258e-12 1.56319e-13 342

397.954 -31.1626 7.21911e-12
-31.1626 404.217 -1.89241e-12
7.21911e-12 -1.89241e-12 362.995

502.886 -6.83862 -9.51831e-13
-6.83862 442.278 1.90174e-12
-9.51831e-13 1.90174e-12 482.345

393.188 30.3447 2.31637e-12
30.3447 409.004 6.20422e-12
2.31637e-12 6.20422e-12 363.455

429.728 13.2959 -4.93472e-12
13.2959 372.268 1.16292e-12
-4.93472e-12 1.16292e-12 362.735

350.163 13.3801 4.63777e-13
13.3801 418.54 3.6285e-12
4.63777e-13 3.6285e-12 348.495

379.501 -22.3425 1.04983e-12
-22.3425 423.539 3.19744e-12
1.04983e-12 3.19744e-12 363.469

491.229 -1.09225 1.17684e-12
-1.09225 550.898 -2.27492e-12
1.17684e-12 -2.27492e-12 516.328

372.884 2.24687 -5.11191e-12
2.24687 437.814 -3.50534e-12
-5.11191e-12 -3.50534e-12 373.542

357.91 31.0923 2.41111e-12
31.0923 399.51 4.65169e-12
2.41111e-12 4.65169e-12 341.98

458.017 12.1086 5.22999e-12
12.1086 510.588 -6.10771e-12
5.22999e-12 -6.10771e-12 488.429

421.478 -27.6502 -7.87044e-12
-27.6502 389.094 -7.4903e-13
-7.87044e-12 -7.4903e-13 375.094

524.78 20.5571 -2.38328e-12
20.5571 469.774 5.79388e-13
-2.38328e-12 5.79388e-13 500.759

534.945 26.2704 5.48184e-12
26.2704 506.882 3.85558e-12
5.48184e-12 3.85558e-12 516.116

494.844 -18.5689 -3.84759e-12
-18.5689 449.051 -1.04746e-12
-3.84759e-12 -1.04746e-12 470.882

554.603 -1.80289 -1.5663e-12
-1.80289 516.042 -4.11671e-12
-1.5663e-12 -4.11671e-12 525.738

473.314 -31.8129 -1.4951e-12
-31.8129 475.723 -1.83379e-12
-1.4951e-12 -1.83379e-12 478.603

412.623 23.33 -1.86991e-12
23.33 357.216 -8.08242e-13
-1.86991e-12 -8.08242e-13 348.112

464.205 30.1625 1.26536e-12
30.1625 482.797 -1.33227e-12
1.26536e-12 -1.33227e-12 483.231

464.468 29.2063 1.85185e-12
29.2063 482.27 1.31302e-12
1.85185e-12 1.31302e-12 482.792

393.97 30.6638 -1.76807e-12
30.6638 405.748 -8.1215e-12
-1.76807e-12 -8.1215e-12 360.89

502.88 27.086 -1.22273e-12
27.086 482.689 -2.69444e-12
-1.22273e-12 -2.69444e-12 490.759

415.377 3.52548 -2.67993e-12
3.52548 339.036 1.51405e-12
-2.67993e-12 1.51405e-12 340.845

493.148 31.8172 7.78044e-13
31.8172 487.25 7.01661e-13
7.78044e-13 7.01661e-13 495.6

476.349 -12.5994 1.5139e-12
-12.5994 522.476 1.37904e-12
1.5139e-12 1.37904e-12 500.272

536.948 24.2776 -2.82204e-12
24.2776 507.423 3.83397e-13
-2.82204e-12 3.83397e-13 516.652

468.206 -29.5792 -3.94322e-12
-29.5792 479.999 -4.95426e-12
-3.94322e-12 -4.95426e-12 483.089

464.584 -4.89756 3.72855e-12
-4.89756 521.582 1.95518e-12
3.72855e-12 1.95518e-12 491.004

400.964 -24.5587 5.56118e-12
-24.5587 349.043 1.03858e-12
5.56118e-12 1.03858e-12 323.969

418.993 29.696 2.25716e-12
29.696 392.487 3.39758e-12
2.25716e-12 3.39758e-12 373.792

352.364 14.698 -3.8658e-12
14.698 417.238 1.56083e-12
-3.8658e-12 1.56083e-12 348.261

500.559 -1.13918 -5.30094e-13
-1.13918 442.823 1.39104e-12
-5.30094e-13 1.39104e-12 487.736

492.501 0.00217985 -2.88658e-13
0.00217985 438.13 3.19736e-12
-2.88658e-13 3.19736e-12 474.447

452.994 23.1251 -6.48814e-13
23.1251 479.737 7.09359e-13
-6.48814e-13 7.09359e-13 475.614

481.331 23.8714 -7.28306e-14
23.8714 502.9 2.96929e-12
-7.28306e-14 2.96929e-12 501.279

456.617 -24.3809 2.23488e-12
-24.3809 487.382 -1.91787e-12
2.23488e-12 -1.91787e-12 488.526

457.862 -0.673351 -1.42664e-13
-0.673351 517.97 -2.07538e-12
-1.42664e-13 -2.07538e-12 486.426

458.915 25.5909 -2.48246e-13
25.5909 486.499 2.54878e-12
-2.48246e-13 2.54878e-12 488.548

465.592 -10.3088 -2.77526e-12
-10.3088 408.111 3.31587e-14
-2.77526e-12 3.31587e-14 427.252

400.892 -32.8368 -3.07487e-12
-32.8368 414.985 8.0842e-12
-3.07487e-12 8.0842e-12 385.193

518.127 -2.30176 -2.03363e-12
-2.30176 465.769 1.65675e-12
-2.03363e-12 1.65675e-12 500.957

391.9 -34.5117 6.70516e-12
-34.5117 379.633 1.38556e-13
6.70516e-12 1.38556e-13 347.442

478.032 19.0859 2.23599e-12
19.0859 509.233 -1.5931e-12
2.23599e-12 -1.5931e-12 501.876

506.145 -26.4792 -6.72706e-12
-26.4792 470.277 -2.8854e-12
-6.72706e-12 -2.8854e-12 487.304

425.033 -9.69125 -4.01338e-12
-9.69125 366.757 -3.34562e-12
-4.01338e-12 -3.34562e-12 356.007

530.294 -23.1927 -2.61302e-12
-23.1927 488.786 -1.98212e-12
-2.61302e-12 -1.98212e-12 506.519

500.928 2.3584 9.63377e-13
2.3584 444.612 2.32851e-13
9.63377e-13 2.32851e-13 489.238

521.221 -23.3225 4.96788e-12
-23.3225 501.871 3.16325e-12
4.96788e-12 3.16325e-12 508.563

502.049 -25.8601 -1.22391e-12
-25.8601 461.523 -2.77319e-12
-1.22391e-12 -2.77319e-12 481.276

498.862 -8.54694 2.70894e-13
-8.54694 445.169 5.41493e-13
2.70894e-13 5.41493e-13 479.378

482.253 -23.0686 -9.31699e-13
-23.0686 505.024 7.84113e-13
-9.31699e-13 7.84113e-13 502.567

428.572 -31.3449 -2.74388e-12
-31.3449 410.619 4.5303e-12
-2.74388e-12 4.5303e-12 399.027

503.301 -24.5888 -2.91323e-13
-24.5888 464.745 1.95606e-12
-2.91323e-13 1.95606e-12 482.192

441.275 10.8655 2.38506e-12
10.8655 378.508 -6.39488e-13
2.38506e-12 -6.39488e-13 387.827

500.069 26.3412 7.48438e-13
26.3412 498.614 4.7408e-12
7.48438e-13 4.7408e-12 500.136

463.786 -37.6114 -4.31951e-13
-37.6114 488.424 1.59358e-12
-4.31951e-13 1.59358e-12 494.116

464.894 37.2638 -4.42313e-13
37.2638 487.336 8.14978e-13
-4.42313e-13 8.14978e-13 493.831

446.364 -28.5725 -3.51448e-12
-28.5725 500.049 -2.88066e-13
-3.51448e-12 -2.88066e-13 492.346

448.598 27.0634 1.00675e-12
27.0634 500.741 -9.3614e-13
1.00675e-12 -9.3614e-13 492.533

513.105 -8.52708 -2.3815e-12
-8.52708 436.442 2.41881e-13
-2.3815e-12 2.41881e-13 492.793

511.267 9.27305 1.15981e-12
9.27305 438.039 -8.23193e-13
1.15981e-12 -8.23193e-13 492.431

501.691 -9.84694 2.11979e-13
-9.84694 451.775 2.26175e-12
2.11979e-13 2.26175e-12 483.053

510.894 32.1143 -5.39628e-12
32.1143 510.421 1.62661e-12
-5.39628e-12 1.62661e-12 514.085

509.671 -32.8522 2.44664e-12
-32.8522 510.098 -4.01962e-12
2.44664e-12 -4.01962e-12 513.724

481.842 16.0681 -3.36916e-13
16.0681 539.16 -4.73103e-13
-3.36916e-13 -4.73103e-13 514.357

483.035 -15.8006 2.48468e-12
-15.8006 538.749 4.42639e-12
2.48468e-12 4.42639e-12 514.378

556.894 -3.74914 2.91811e-12
-3.74914 506.859 3.51541e-12
2.91811e-12 3.51541e-12 525.02

558.448 3.61185 2.51073e-12
3.61185 505.184 2.47506e-12
2.51073e-12 2.47506e-12 525.392

387.336 9.83786 -3.42459e-12
9.83786 449.231 2.89783e-12
-3.42459e-12 2.89783e-12 397.116

472.421 -24.7755 -2.48127e-12
-24.7755 480.788 1.86651e-12
-2.48127e-12 1.86651e-12 485.009

443.498 -36.3864 -2.82108e-12
-36.3864 485.568 -6.79901e-13
-2.82108e-12 -6.79901e-13 486.661

473.677 -4.66458 1.11437e-12
-4.66458 420.467 2.65299e-12
1.11437e-12 2.65299e-12 436.37

540.282 -16.6932 -5.93599e-14
-16.6932 484.223 1.91787e-12
-5.93599e-14 1.91787e-12 515.318

541.002 16.1742 4.87151e-12
16.1742 485.446 1.58007e-12
4.87151e-12 1.58007e-12 515.923

506.896 0.121865 8.92767e-13
0.121865 423.588 2.04349e-12
8.92767e-13 2.04349e-12 487.035

384.819 23.3777 5.83237e-14
23.3777 432.329 3.91746e-12
5.83237e-14 3.91746e-12 385.504

442.37 36.1704 4.07289e-12
36.1704 485.246 3.0318e-12
4.07289e-12 3.0318e-12 485.867

452.631 -23.3962 4.35207e-13
-23.3962 494.988 1.91343e-12
4.35207e-13 1.91343e-12 483.623

443.281 23.3551 2.97954e-12
23.3551 397.547 -3.24896e-12
2.97954e-12 -3.24896e-12 400.402

530.997 23.8588 8.11203e-14
23.8588 488.036 -2.02682e-12
8.11203e-14 -2.02682e-12 507.277

428.51 -31.3167 -5.08749e-12
-31.3167 410.903 -6.05027e-12
-5.08749e-12 -6.05027e-12 398.846

519.891 -3.23188 1.48104e-12
-3.23188 469.09 -2.73056e-12
1.48104e-12 -2.73056e-12 502.716

439.433 -34.1601 -1.73802e-12
-34.1601 485.539 1.18838e-12
-1.73802e-12 1.18838e-12 485.856

389.211 8.32078 1.0914e-12
8.32078 452.361 1.78228e-12
1.0914e-12 1.78228e-12 400.884

385.906 21.8139 1.93356e-12
21.8139 435.805 -9.41469e-13
1.93356e-12 -9.41469e-13 388.722

383.874 35.7794 -3.09441e-12
35.7794 362.356 -1.7278e-12
-3.09441e-12 -1.7278e-12 318.35

408.212 1.57893 -6.22791e-12
1.57893 332.177 -3.66981e-12
-6.22791e-12 -3.66981e-12 327.348

485.487 -22.8051 1.5099e-13
-22.8051 502.889 -2.2918e-12
1.5099e-13 -2.2918e-12 501.779

351.902 31.1869 -1.54898e-12
31.1869 388.858 -5.22249e-12
-1.54898e-12 -5.22249e-12 312.379

451.382 23.6114 1.01844e-13
23.6114 478.447 -1.08358e-13
1.01844e-13 -1.08358e-13 465.244

442.229 -5.35009 1.57267e-12
-5.35009 377.152 5.43743e-12
1.57267e-12 5.43743e-12 387.765

464.189 11.2171 2.28972e-12
11.2171 407.327 -1.01548e-12
2.28972e-12 -1.01548e-12 424.952

505.412 0.429882 -1.00127e-12
0.429882 421.608 1.34081e-12
-1.00127e-12 1.34081e-12 485.707

449.384 -29.0302 2.32096e-12
-29.0302 502.029 -2.07715e-12
2.32096e-12 -2.07715e-12 493.619

572.523 -6.31805 -9.20671e-12
-6.31805 589.499 2.46825e-12
-9.20671e-12 2.46825e-12 549.274

463.173 37.4101 -6.03961e-13
37.4101 487.059 1.70493e-12
-6.03961e-13 1.70493e-12 493.095

408.767 1.66342 2.68348e-12
1.66342 331.624 7.2596e-12
2.68348e-12 7.2596e-12 308.926

404.263 -32.7904 -2.19972e-12
-32.7904 415.538 2.03511e-12
-2.19972e-12 2.03511e-12 387.417

443.176 36.6118 7.22163e-13
36.6118 485.539 -3.24185e-13
7.22163e-13 -3.24185e-13 486.603

444.708 -11.1343 -1.35886e-12
-11.1343 498.968 -7.78636e-13
-1.35886e-12 -7.78636e-13 471.471

386.1 -25.5173 4.50543e-12
-25.5173 428.932 1.83438e-12
4.50543e-12 1.83438e-12 384.591

449.484 28.8292 -1.16755e-12
28.8292 501.663 -8.565e-13
-1.16755e-12 -8.565e-13 493.319

452.743 -26.1444 -3.08849e-12
-26.1444 419.331 2.22281e-12
-3.08849e-12 2.22281e-12 419.547

579.568 10.484 9.63082e-13
10.484 582.176 8.84552e-13
9.63082e-13 8.84552e-13 549.059

398.356 30.8753 -2.52302e-12
30.8753 422.089 -1.41872e-12
-2.52302e-12 -1.41872e-12 388.19

515.738 8.12619 -1.93001e-12
8.12619 437.302 1.27335e-12
-1.93001e-12 1.27335e-12 494.612

493.835 30.1911 -2.20949e-12
30.1911 484.779 1.0146e-12
-2.20949e-12 1.0146e-12 493.831

453.497 23.3331 -5.7776e-12
23.3331 479.196 7.61761e-13
-5.7776e-12 7.61761e-13 475.83

510.728 -32.4869 2.09492e-12
-32.4869 512.48 2.02581e-12
2.09492e-12 2.02581e-12 515.033

510.337 -23.1917 1.9007e-13
-23.1917 473.209 3.01714e-12
1.9007e-13 3.01714e-12 489.706

511.424 10.4693 1.98493e-12
10.4693 558.015 -2.57572e-13
1.98493e-12 -2.57572e-13 523.756

452.204 -23.4351 2.03482e-12
-23.4351 480.199 -2.93158e-12
2.03482e-12 -2.93158e-12 468.981

394.437 -9.70888 2.72848e-12
-9.70888 316.434 -1.70863e-12
2.72848e-12 -1.70863e-12 295.596

387.317 -14.2785 4.61616e-12
-14.2785 306.078 -7.39557e-13
4.61616e-12 -7.39557e-13 290.07

547.607 16.5307 6.80937e-15
16.5307 507.788 -2.90464e-12
6.80937e-15 -2.90464e-12 519.345

436.518 22.5037 5.50996e-12
22.5037 469.17 -3.28922e-12
5.50996e-12 -3.28922e-12 447.854

475.994 29.165 -1.80537e-12
29.165 467.675 -1.3302e-12
-1.80537e-12 -1.3302e-12 471.508

450.334 0.68872 1.74438e-12
0.68872 392.804 -3.53397e-12
1.74438e-12 -3.53397e-12 395.702

478.376 6.5705 6.48796e-13
6.5705 541.304 -2.22814e-12
6.48796e-13 -2.22814e-12 507.566

507.363 16.5407 -3.36738e-12
16.5407 461.165 -4.2523e-12
-3.36738e-12 -4.2523e-12 488.11

390.004 -25.7638 3.27679e-12
-25.7638 430.067 -3.6818e-12
3.27679e-12 -3.6818e-12 387.761

456.346 -2.57192 -1.42109e-12
-2.57192 517.044 -8.56796e-13
-1.42109e-12 -8.56796e-13 484.869

400.617 13.3667 8.92619e-13
13.3667 453.018 3.32416e-12
8.92619e-13 3.32416e-12 404.664

486.944 -29.7148 1.22036e-12
-29.7148 465.843 4.98594e-12
1.22036e-12 4.98594e-12 474.287

430.329 -29.9505 3.13586e-12
-29.9505 423.659 8.01196e-12
3.13586e-12 8.01196e-12 404.983

399.739 31.6262 -8.20677e-13
31.6262 418.261 -9.3614e-13
-8.20677e-13 -9.3614e-13 386.029

624.008 -15.0193 -3.10862e-13
-15.0193 581.961 1.39289e-12
-3.10862e-13 1.39289e-12 557.923

494.546 2.04194 -4.41573e-13
2.04194 552.167 1.61234e-12
-4.41573e-13 1.61234e-12 517.95

483.53 20.2988 -8.01877e-13
20.2988 542.066 2.57246e-12
-8.01877e-13 2.57246e-12 516.057

544.729 15.4378 1.55461e-12
15.4378 479.998 3.4639e-13
1.55461e-12 3.4639e-13 515.779

473.779 -26.1901 1.51997e-12
-26.1901 479.787 5.38177e-12
1.51997e-12 5.38177e-12 483.047

452.158 17.9589 2.5698e-13
17.9589 404.536 1.42582e-12
2.5698e-13 1.42582e-12 406.946

531.598 -5.29294 1.4934e-12
-5.29294 580.818 2.79154e-12
1.4934e-12 2.79154e-12 537.139

512.218 -18.9878 -2.86882e-13
-18.9878 464.823 -5.25802e-13
-2.86882e-13 -5.25802e-13 493.057

474.009 -15.5999 2.28854e-12
-15.5999 423.205 -1.73742e-12
2.28854e-12 -1.73742e-12 438.909

402.028 11.6045 2.82174e-12
11.6045 455.99 5.44749e-14
2.82174e-12 5.44749e-14 407.808

410.952 -25.7369 -2.98013e-12
-25.7369 435.612 1.76333e-12
-2.98013e-12 1.76333e-12 398.984

532.073 -25.2739 -2.92507e-13
-25.2739 523.215 -6.89375e-13
-2.92507e-13 -6.89375e-13 519.143

423.086 31.9627 1.89656e-12
31.9627 417.278 3.53317e-12
1.89656e-12 3.53317e-12 400.333

535.507 -25.1341 -2.89901e-12
-25.1341 505.812 5.54253e-12
-2.89901e-12 5.54253e-12 515.685

453.527 2.59759 3.94114e-12
2.59759 397.046 1.07536e-12
3.94114e-12 1.07536e-12 401.925

311.119 -28.9333 -1.10726e-12
-28.9333 376.623 2.70006e-12
-1.10726e-12 2.70006e-12 290.015

431.906 -29.2339 -6.09231e-12
-29.2339 424.078 3.72798e-12
-6.09231e-12 3.72798e-12 406.182

353.785 32.1621 3.83338e-12
32.1621 392.572 -1.72899e-12
3.83338e-12 -1.72899e-12 312.99

470.373 -11.8763 -3.60293e-12
-11.8763 529.579 2.26367e-12
-3.60293e-12 2.26367e-12 500.331

391.477 -13.8228 2.06057e-13
-13.8228 449.285 -1.97768e-12
2.06057e-13 -1.97768e-12 400.226

602.865 -23.9855 -4.82577e-12
-23.9855 602.276 8.10463e-13
-4.82577e-12 8.10463e-13 557.863

408.4 23.7733 -4.16319e-12
23.7733 441.972 -7.53175e-13
-4.16319e-12 -7.53175e-13 402.25

496.606 -32.7264 -1.31332e-12
-32.7264 490.668 -2.314e-12
-1.31332e-12 -2.314e-12 497.475

388.216 -11.9643 -2.96119e-12
-11.9643 448.318 6.44225e-13
-2.96119e-12 6.44225e-13 397.043

516.741 -19.1166 4.763e-12
-19.1166 465.783 -2.68556e-12
4.763e-12 -2.68556e-12 496.272

410.715 23.8796 2.67164e-12
23.8796 439.344 2.71783e-12
2.67164e-12 2.71783e-12 400.727

488.954 -4.9757 -7.75676e-14
-4.9757 435.101 -9.14898e-13
-7.75676e-14 -9.14898e-13 460.413

305.801 -30.3449 -3.38929e-12
-30.3449 391.464 2.11979e-12
-3.38929e-12 2.11979e-12 262.588

438.64 21.0156 4.61231e-12
21.0156 473.946 5.67132e-12
4.61231e-12 5.67132e-12 458.38

445.721 -19.3251 4.51787e-12
-19.3251 394.005 -3.44524e-12
4.51787e-12 -3.44524e-12 399.652

551.627 -21.4456 8.25147e-12
-21.4456 499.543 -3.40557e-12
8.25147e-12 -3.40557e-12 520.13

424.502 31.7572 3.4485e-12
31.7572 413.353 3.71851e-13
3.4485e-12 3.71851e-13 397.989

459.196 -29.9741 1.80478e-12
-29.9741 437.669 2.13814e-12
1.80478e-12 2.13814e-12 439.331

510.652 20.8859 3.1027e-12
20.8859 476.103 1.70234e-12
3.1027e-12 1.70234e-12 492.787

461.539 -28.0762 -3.76232e-12
-28.0762 485.776 -3.5009e-14
-3.76232e-12 -3.5009e-14 488.751

413.752 -26.2279 -2.00255e-12
-26.2279 436.279 -1.62714e-12
-2.00255e-12 -1.62714e-12 401.47

426.108 28.984 -1.15641e-12
28.984 429.931 -1.7953e-12
-1.15641e-12 -1.7953e-12 406.892

452.536 26.1936 -3.40942e-12
26.1936 418.259 1.89419e-12
-3.40942e-12 1.89419e-12 419.09

522.001 -14.6112 5.2142e-12
-14.6112 477.208 -1.03266e-12
5.2142e-12 -1.03266e-12 500.095

403.592 -16.6194 3.69512e-12
-16.6194 451.779 1.26121e-12
3.69512e-12 1.26121e-12 406.474

496.082 -17.5688 -3.68535e-12
-17.5688 447.64 1.42464e-12
-3.68535e-12 1.42464e-12 471.534

487.801 16.9097 1.04627e-12
16.9097 436.291 -3.81532e-12
1.04627e-12 -3.81532e-12 460.622

513.367 -9.38542 -3.6456e-13
-9.38542 555.805 -1.35122e-12
-3.6456e-13 -1.35122e-12 523.057

454.015 -13.4312 3.75877e-12
-13.4312 402.21 -1.26684e-12
3.75877e-12 -1.26684e-12 406.775

403.233 0.594239 4.02641e-13
0.594239 465.762 4.1022e-12
4.02641e-13 4.1022e-12 417.837

475.063 18.5562 2.56091e-12
18.5562 428.805 -2.67046e-13
2.56091e-12 -2.67046e-13 442.255

451.178 27.6064 3.76706e-12
27.6064 421.872 1.38497e-12
3.76706e-12 1.38497e-12 420.876

400.9 -15.6878 3.2303e-12
-15.6878 451.419 -2.04518e-12
3.2303e-12 -2.04518e-12 403.768

406.032 -1.20226 2.67334e-12
-1.20226 468.072 -4.85538e-14
2.67334e-12 -4.85538e-14 421.253

516.23 29.1346 2.37144e-12
29.1346 498.055 -1.7127e-12
2.37144e-12 -1.7127e-12 504.907

441.738 -10.9229 1.18897e-12
-10.9229 500.694 3.27087e-12
1.18897e-12 3.27087e-12 471.182

451.476 -26.7178 -2.06946e-12
-26.7178 418.799 -4.24135e-12
-2.06946e-12 -4.24135e-12 419.386

444.423 21.3347 6.38304e-13
21.3347 395.329 -4.44089e-14
6.38304e-13 -4.44089e-14 398.233

497.631 23.6661 2.30986e-12
23.6661 458.123 -2.00077e-12
2.30986e-12 -2.00077e-12 476.584

447.716 5.47154 -3.02721e-13
5.47154 508.826 -5.24617e-13
-3.02721e-13 -5.24617e-13 476.915

427.684 29.0685 3.94706e-12
29.0685 426.469 1.76511e-12
3.94706e-12 1.76511e-12 405.142

536.85 22.964 1.82669e-12
22.964 531.922 4.02937e-12
1.82669e-12 4.02937e-12 522.813

314.773 -59.6964 7.33991e-12
-59.6964 282.789 -2.78651e-12
7.33991e-12 -2.78651e-12 223.441

480.63 -25.0497 9.08962e-12
-25.0497 445.106 5.79981e-13
9.08962e-12 5.79981e-13 456.68

336.689 7.07056 -2.13459e-12
7.07056 409.188 5.48776e-12
-2.13459e-12 5.48776e-12 319.466

460.574 -28.8916 2.9902e-13
-28.8916 444.772 -2.46025e-12
2.9902e-13 -2.46025e-12 443.487

96.4299 -52.7042 9.05942e-13
-52.7042 306.637 8.33703e-13
9.05942e-13 8.33703e-13 113.708

95.9638 51.4548 1.14871e-13
51.4548 306.901 3.67587e-12
1.14871e-13 3.67587e-12 114.496

181.528 117.161 1.60346e-12
117.161 226.09 7.10543e-14
1.60346e-12 7.10543e-14 113.596

182.826 -117.104 4.73695e-14
-117.104 223.326 -5.25802e-13
4.73695e-14 -5.25802e-13 113.57

321.603 -1.36347 -3.58114e-12
-1.36347 84.6588 4.07394e-14
-3.58114e-12 4.07394e-14 114.937

274.45 -91.131 2.84691e-12
-91.131 127.426 -1.78109e-12
2.84691e-12 -1.78109e-12 113.81

275.147 91.659 6.16277e-12
91.659 128.259 4.63748e-12
6.16277e-12 4.63748e-12 114.581

525.272 14.3314 -4.1244e-12
14.3314 474.744 1.00423e-12
-4.1244e-12 1.00423e-12 502.346

556.821 25.5356 2.76816e-13
25.5356 541.206 -2.18906e-12
2.76816e-13 -2.18906e-12 533.477

492.13 6.60661 -8.20085e-13
6.60661 439.155 -4.98638e-13
-8.20085e-13 -4.98638e-13 471.437

470.337 21.7865 1.40036e-12
21.7865 424.55 7.72123e-13
1.40036e-12 7.72123e-13 438.228

410.008 17.7462 -4.30915e-13
17.7462 461.111 1.60346e-12
-4.30915e-13 1.60346e-12 425.076

448.047 28.9012 -5.88566e-13
28.9012 424.739 3.57995e-12
-5.88566e-13 3.57995e-12 420.783

487.184 -29.665 4.37576e-13
-29.665 465.662 7.34227e-14
4.37576e-13 7.34227e-14 474.623

449.404 28.0305 -2.80842e-12
28.0305 421.105 7.82189e-13
-2.80842e-12 7.82189e-13 418.675

402.995 -2.84171 -8.8581e-13
-2.84171 465.419 2.22281e-12
-8.8581e-13 2.22281e-12 417.574

555.827 -26.0964 -4.91992e-12
-26.0964 543.399 -3.21757e-12
-4.91992e-12 -3.21757e-12 533.721

405.533 -4.86305 -5.98632e-13
-4.86305 467.157 -2.64796e-12
-5.98632e-13 -2.64796e-12 420.633

522.323 23.0174 3.1181e-12
23.0174 499.773 -5.28066e-12
3.1181e-12 -5.28066e-12 508.001

423.413 26.8735 6.78095e-12
26.8735 386.538 2.55144e-12
6.78095e-12 2.55144e-12 373.057

480.144 -13.2163 2.54818e-12
-13.2163 532.799 -1.31391e-12
2.54818e-12 -1.31391e-12 512.033

484.235 13.729 -1.77458e-12
13.729 432.81 -2.1639e-12
-1.77458e-12 -2.1639e-12 456.909

457.405 -29.9901 9.69299e-13
-29.9901 437.011 -5.59138e-12
9.69299e-13 -5.59138e-12 437.867

454.345 -24.7156 8.95284e-13
-24.7156 416.837 2.21749e-12
8.95284e-13 2.21749e-12 419.886

547.432 -16.076 -4.10131e-12
-16.076 509.334 -5.75865e-12
-4.10131e-12 -5.75865e-12 519.414

476.009 27.9308 -2.83566e-12
27.9308 449.74 5.22841e-13
-2.83566e-12 5.22841e-13 456.959

469.138 23.9795 -5.5896e-13
23.9795 427.883 1.9685e-12
-5.5896e-13 1.9685e-12 439.864

432.461 -2.79281 6.45643e-12
-2.79281 493.674 3.96128e-13
6.45643e-12 3.96128e-13 457.141

417.639 5.87368 3.7833e-12
5.87368 479.595 2.55618e-12
3.7833e-12 2.55618e-12 440.211

463.05 2.64696 -1.71714e-13
2.64696 402.312 2.70798e-12
-1.71714e-13 2.70798e-12 422.355

438.684 -7.29044 1.58806e-12
-7.29044 373.944 -3.39447e-12
1.58806e-12 -3.39447e-12 381.249

454.879 30.4872 -5.75895e-12
30.4872 439.049 -8.60349e-13
-5.75895e-12 -8.60349e-13 437.87

478.501 -26.1575 5.90343e-13
-26.1575 443.577 -3.33689e-12
5.90343e-13 -3.33689e-12 454.68

525.733 -21.2547 2.60532e-14
-21.2547 497.859 1.31036e-12
2.60532e-14 1.31036e-12 508.65

437.768 -31.6366 2.81849e-12
-31.6366 437.69 -2.61717e-12
2.81849e-12 -2.61717e-12 426.893

417.624 -27.7884 -2.64973e-12
-27.7884 444.432 -6.92365e-12
-2.64973e-12 -6.92365e-12 419.721

430.681 29.8901 9.39101e-13
29.8901 442.78 8.45546e-13
9.39101e-13 8.45546e-13 426.531

416.258 -9.57872 2.44889e-12
-9.57872 475.249 -2.89487e-12
2.44889e-12 -2.89487e-12 436.489

428.928 -1.54527 5.44868e-12
-1.54527 491.906 -9.36732e-13
5.44868e-12 -9.36732e-13 454.029

445.214 5.74776 5.48966e-12
5.74776 508.079 3.07902e-14
5.48966e-12 3.07902e-14 474.948

414.652 -21.0912 2.75424e-12
-21.0912 458.445 1.50457e-12
2.75424e-12 1.50457e-12 426.099

496.904 24.1128 1.29082e-13
24.1128 455.73 -5.08334e-13
1.29082e-13 -5.08334e-13 474.627

483.411 -9.59052 -1.21325e-12
-9.59052 430.146 -3.87305e-12
-1.21325e-12 -3.87305e-12 455.255

415.666 7.4658 -5.39661e-13
7.4658 477.159 -2.17604e-12
-5.39661e-13 -2.17604e-12 436.947

443.988 -9.70137 -2.36269e-13
-9.70137 501.541 6.30192e-12
-2.36269e-13 6.30192e-12 471.041

433.208 -16.332 -2.24606e-12
-16.332 481.714 -5.63224e-12
-2.24606e-12 -5.63224e-12 455.703

463.578 -8.23996 1.18424e-13
-8.23996 406.367 -1.36187e-14
1.18424e-13 -1.36187e-14 421.504

494.468 -32.3468 -2.53812e-12
-32.3468 487.651 3.9441e-12
-2.53812e-12 3.9441e-12 496.284

422.978 9.322 -3.55286e-12
9.322 479.129 -1.46017e-12
-3.55286e-12 -1.46017e-12 441.014

564.381 -18.213 3.48166e-13
-18.213 529.976 2.89102e-13
3.48166e-13 2.89102e-13 531.859

309.072 24.8253 -8.28967e-13
24.8253 379.453 1.33345e-12
-8.28967e-13 1.33345e-12 289.821

501.732 -26.6271 -1.92083e-12
-26.6271 499.522 2.67297e-12
-1.92083e-12 2.67297e-12 501.232

515.681 -30.203 4.72037e-12
-30.203 498.434 -6.3108e-12
4.72037e-12 -6.3108e-12 504.95

429.256 -0.700986 -1.73195e-13
-0.700986 492.031 -1.12384e-12
-1.73195e-13 -1.12384e-12 454.18

474.92 -16.6237 -8.81073e-13
-16.6237 428.371 -1.28105e-12
-8.81073e-13 -1.28105e-12 441.991

462.338 12.8419 -5.50406e-12
12.8419 511.311 -6.07869e-12
-5.50406e-12 -6.07869e-12 489.155

240.793 -3.18112 4.84264e-12
-3.18112 360.715 -9.30811e-13
4.84264e-12 -9.30811e-13 226.983

432.438 14.2747 -1.36691e-12
14.2747 485.394 -2.65447e-12
-1.36691e-12 -2.65447e-12 456.917

458.148 -29.4918 -5.70803e-13
-29.4918 443.206 1.98301e-12
-5.70803e-13 1.98301e-12 440.797

304.209 25.1077 -4.82222e-12
25.1077 394.614 -9.64917e-12
-4.82222e-12 -9.64917e-12 264.362

603.564 26.0954 -7.48172e-12
26.0954 597.969 1.62551e-12
-7.48172e-12 1.62551e-12 558.18

608.297 -27.8044 4.18983e-12
-27.8044 595.044 -8.33851e-12
4.18983e-12 -8.33851e-12 558.314

463.53 -30.4213 -2.41585e-12
-30.4213 459.074 1.43115e-12
-2.41585e-12 1.43115e-12 459.108

434.62 -31.1633 3.4408e-12
-31.1633 436.395 -9.02389e-13
3.4408e-12 -9.02389e-13 424.696

474.14 20.829 2.04222e-12
20.829 431.949 -2.58993e-12
2.04222e-12 -2.58993e-12 444.008

465.261 15.0075 1.64313e-12
15.0075 410.15 -7.49327e-13
1.64313e-12 -7.49327e-13 427.497

646.074 3.08183 -2.70206e-12
3.08183 645.732 7.65802e-12
-2.70206e-12 7.65802e-12 574.639

649.895 -6.9976 -1.39376e-11
-6.9976 641.403 1.49925e-12
-1.39376e-11 1.49925e-12 575.167

497.028 4.8242 -1.13095e-12
4.8242 442.071 3.85914e-13
-1.13095e-12 3.85914e-13 477.449

443.592 6.73185 -4.04099e-12
6.73185 503.027 -1.0516e-12
-4.04099e-12 -1.0516e-12 471.085

442.005 6.73641 -3.65622e-12
6.73641 502.552 -2.82263e-12
-3.65622e-12 -2.82263e-12 469.808

321.559 58.6395 5.46171e-12
58.6395 281.143 -1.06179e-11
5.46171e-12 -1.06179e-11 225.094

420.263 -28.2028 2.35071e-13
-28.2028 444.06 -5.84125e-12
2.35071e-13 -5.84125e-12 421.066

520.613 17.9742 1.71715e-14
17.9742 467.565 -1.09187e-12
1.71715e-14 -1.09187e-12 499.544

473.019 9.54042 -2.47506e-13
9.54042 421.231 -8.34e-13
-2.47506e-13 -8.34e-13 436.238

440.666 -26.7259 1.69761e-12
-26.7259 450.764 -4.31892e-12
1.69761e-12 -4.31892e-12 433.451

469.315 -20.2395 1.8557e-12
-20.2395 422.75 3.54561e-12
1.8557e-12 3.54561e-12 437.211

312.496 60.2374 1.7882e-12
60.2374 281.392 -4.61853e-14
1.7882e-12 -4.61853e-14 223.233

492.716 31.0699 -3.4488e-12
31.0699 489.075 -1.79767e-12
-3.4488e-12 -1.79767e-12 493.172

410.896 -19.7882 -2.5846e-12
-19.7882 457.92 5.35453e-12
-2.5846e-12 5.35453e-12 423.532

474.165 28.8599 -1.95873e-12
28.8599 449.667 -1.28904e-12
-1.95873e-12 -1.28904e-12 456.553

430.99 -4.14548 6.54661e-13
-4.14548 493.011 -9.98905e-13
6.54661e-13 -9.98905e-13 456.503

423.965 19.6112 -3.50801e-12
19.6112 465.75 -7.00299e-12
-3.50801e-12 -7.00299e-12 434.143

452.784 30.5216 1.57385e-12
30.5216 443.634 -7.01069e-13
1.57385e-12 -7.01069e-13 439.643

428.678 -22.4755 6.96924e-13
-22.4755 461.175 -2.6669e-12
6.96924e-13 -2.6669e-12 433.848

443.611 -27.3551 -1.00305e-12
-27.3551 450.47 -5.21834e-12
-1.00305e-12 -5.21834e-12 435.081

294.8 11.258 4.62623e-12
11.258 372.614 -1.86636e-12
4.62623e-12 -1.86636e-12 258.122

357.326 -33.4597 1.11555e-12
-33.4597 389.149 4.33194e-12
1.11555e-12 4.33194e-12 314.154

419.691 -11.6916 -1.4028e-12
-11.6916 476.4 -2.20505e-12
-1.4028e-12 -2.20505e-12 439.38

478.434 26.4867 1.35062e-12
26.4867 446.834 -1.63484e-12
1.35062e-12 -1.63484e-12 456.119

452.382 29.4805 -1.41516e-13
29.4805 449.063 -2.42769e-14
-1.41516e-13 -2.42769e-14 442.435

426.844 -21.4361 -1.63129e-12
-21.4361 461.822 2.43716e-12
-1.63129e-12 2.43716e-12 432.665

422.965 -11.7837 -4.41662e-12
-11.7837 476.686 -2.70539e-12
-4.41662e-12 -2.70539e-12 439.964

457.743 28.4121 -3.49587e-12
28.4121 447.124 -1.26536e-12
-3.49587e-12 -1.26536e-12 442.606

425.14 -13.8792 -6.19356e-13
-13.8792 476.458 -7.29727e-12
-6.19356e-13 -7.29727e-12 442.14

311.288 27.858 4.18332e-12
27.858 377.422 -7.92492e-12
4.18332e-12 -7.92492e-12 290.008

485.2 -4.04058 -4.16657e-14
-4.04058 545.08 -3.34666e-12
-4.16657e-14 -3.34666e-12 511.068

433.02 31.0307 0
31.0307 439.664 -1.67866e-12
0 -1.67866e-12 426.053

509.346 14.9023 -2.37736e-12
14.9023 463.195 -2.23436e-12
-2.37736e-12 -2.23436e-12 488.64

516.955 -15.9287 -4.28398e-13
-15.9287 467.615 -1.56823e-12
-4.28398e-13 -1.56823e-12 493.957

383.956 -24.207 1.03029e-12
-24.207 305.971 -3.8014e-13
1.03029e-12 -3.8014e-13 285.377

442.315 -21.2688 -3.02277e-12
-21.2688 476.038 7.78044e-13
-3.02277e-12 7.78044e-13 459.357

447.864 26.7003 -5.27489e-12
26.7003 466.245 -3.68298e-13
-5.27489e-12 -3.68298e-13 457.877

523.004 -21.7276 -9.61305e-13
-21.7276 543.837 -6.16581e-13
-9.61305e-13 -6.16581e-13 525.339

579.599 14.1043 -1.70205e-12
14.1043 617.633 2.80309e-12
-1.70205e-12 2.80309e-12 557.075

620.218 9.44522 -1.15389e-12
9.44522 576.858 -1.03029e-13
-1.15389e-12 -1.03029e-13 556.894

523.499 32.7045 6.76022e-12
32.7045 520.679 -4.02315e-12
6.76022e-12 -4.02315e-12 519.555

414.925 26.0032 -5.10614e-12
26.0032 448.943 -3.3585e-12
-5.10614e-12 -3.3585e-12 420.41

478.133 26.6632 1.01667e-12
26.6632 444.804 -3.55123e-12
1.01667e-12 -3.55123e-12 455.542

332.389 45.1907 -8.31453e-12
45.1907 349.517 -2.60414e-12
-8.31453e-12 -2.60414e-12 286.763

571.407 -11.3418 -2.49874e-13
-11.3418 614.484 3.32001e-12
-2.49874e-13 3.32001e-12 554.618

641.331 -3.43186 1.02482e-11
-3.43186 636.877 -2.59141e-12
1.02482e-11 -2.59141e-12 572.416

634.912 -0.209096 1.12236e-12
-0.209096 643.182 3.95609e-13
1.12236e-12 3.95609e-13 572.243

272.983 -53.8072 -8.35361e-12
-53.8072 316.471 9.87654e-13
-8.35361e-12 9.87654e-13 220.926

566.662 -11.5991 -4.12899e-12
-11.5991 562.145 2.3442e-12
-4.12899e-12 2.3442e-12 540.925

563.789 8.81174 7.39409e-12
8.81174 586.981 2.05317e-12
7.39409e-12 2.05317e-12 546.865

478.281 -26.2012 6.37475e-12
-26.2012 440.476 -2.09551e-12
6.37475e-12 -2.09551e-12 453.516

494.377 1.01024 -6.99529e-12
1.01024 545.789 6.60805e-13
-6.99529e-12 6.60805e-13 514.088

447.686 -20.2694 -2.36892e-12
-20.2694 484.196 3.20336e-12
-2.36892e-12 3.20336e-12 470.673

506.338 6.25551 -8.58573e-15
6.25551 443.411 2.95127e-12
-8.58573e-15 2.95127e-12 486.16

461.309 15.5962 3.43789e-12
15.5962 521.287 3.19774e-12
3.43789e-12 3.19774e-12 497.59

471.212 7.19116 -2.44728e-12
7.19116 528.039 -8.70415e-13
-2.44728e-12 -8.70415e-13 497.723

493.799 20.3944 -1.29852e-12
20.3944 451.551 2.19084e-14
-1.29852e-12 2.19084e-14 469.785

241.082 -3.11391 4.10783e-14
-3.11391 358.587 -4.29878e-12
4.10783e-14 -4.29878e-12 227.081

463.737 -27.6259 2.61361e-12
-27.6259 463.428 3.61844e-12
2.61361e-12 3.61844e-12 461.226

488.38 -26.118 4.53918e-12
-26.118 481.632 -3.04764e-12
4.53918e-12 -3.04764e-12 485.903

497.572 -31.4837 -1.39829e-12
-31.4837 489.993 1.38319e-12
-1.39829e-12 1.38319e-12 499.014

355.627 32.7527 -8.02203e-12
32.7527 285.799 -1.75859e-12
-8.02203e-12 -1.75859e-12 248.386

563.903 -20.1157 -3.24777e-12
-20.1157 569.632 4.43801e-12
-3.24777e-12 4.43801e-12 542.596

337.672 54.3267 1.12029e-12
54.3267 356.684 1.175e-11
1.12029e-12 1.175e-11 258.895

477.105 -21.4389 7.70643e-13
-21.4389 506.525 2.18492e-13
7.70643e-13 2.18492e-13 500.277

504.81 14.6506 -5.87974e-13
14.6506 452.022 -2.37928e-12
-5.87974e-13 -2.37928e-12 481.595

449.868 -14.5739 1.66978e-12
-14.5739 397.018 9.68262e-13
1.66978e-12 9.68262e-13 400.872

452.63 24.0481 -3.89496e-12
24.0481 478.818 2.089e-12
-3.89496e-12 2.089e-12 467.884

493.703 20.4289 3.80496e-12
20.4289 449.535 8.8581e-13
3.80496e-12 8.8581e-13 469.377

505.592 11.3994 2.91226e-12
11.3994 564.441 4.81985e-12
2.91226e-12 4.81985e-12 526.74

475.931 -31.5816 3.10714e-12
-31.5816 470.392 9.25186e-13
3.10714e-12 9.25186e-13 475.099

559.294 19.8122 4.14246e-12
19.8122 510.467 6.57785e-12
4.14246e-12 6.57785e-12 526.516

439.993 -18.4449 5.50523e-12
-18.4449 482.503 2.30926e-13
5.50523e-12 2.30926e-13 459.184

465.93 4.28384 -3.52802e-12
4.28384 526.141 1.46609e-12
-3.52802e-12 1.46609e-12 495.543

588.657 9.92757 -4.92998e-12
9.92757 552.482 3.94781e-12
-4.92998e-12 3.94781e-12 545.214

590.44 -8.51434 4.5007e-12
-8.51434 554.824 -2.58312e-13
4.5007e-12 -2.58312e-13 545.731

382.34 18.5141 6.20541e-12
18.5141 302.309 -3.72206e-12
6.20541e-12 -3.72206e-12 286.157

502.715 7.96565 1.24759e-12
7.96565 453.635 -9.83362e-13
1.24759e-12 -9.83362e-13 487.8

232.83 7.74135 -5.77316e-15
7.74135 381.54 -1.67214e-12
-5.77316e-15 -1.67214e-12 187.2

237 -11.3861 7.26437e-12
-11.3861 387.234 -4.90274e-12
7.26437e-12 -4.90274e-12 189.464

249.303 56.41 8.81073e-13
56.41 354.799 -1.80004e-13
8.81073e-13 -1.80004e-13 184.036

505.048 -28.9516 5.24617e-13
-28.9516 478.649 -2.79539e-12
5.24617e-13 -2.79539e-12 491.376

258.49 -49.1946 3.55508e-12
-49.1946 341.866 7.25227e-12
3.55508e-12 7.25227e-12 220.751

249.308 -55.9525 -2.56269e-12
-55.9525 344.774 -5.36223e-12
-2.56269e-12 -5.36223e-12 181.129

434.689 26.2226 1.36187e-13
26.2226 454.429 -4.04062e-12
1.36187e-13 -4.04062e-12 432.858

329.945 73.8479 4.59484e-12
73.8479 280.027 1.77399e-12
4.59484e-12 1.77399e-12 184.84

540.15 13.0464 -3.38011e-12
13.0464 554.973 4.18569e-12
-3.38011e-12 4.18569e-12 532.105

562.409 0.0412771 2.72538e-12
0.0412771 532.478 8.11055e-12
2.72538e-12 8.11055e-12 531.898

338.623 -73.1332 2.84217e-14
-73.1332 279.875 2.70243e-12
2.84217e-14 2.70243e-12 186.323

432.704 -23.426 2.50259e-12
-23.426 466.348 -8.17124e-12
2.50259e-12 -8.17124e-12 447.606

358.958 34.7322 -7.88939e-12
34.7322 310.998 -1.72307e-12
-7.88939e-12 -1.72307e-12 258.058

267.722 63.4945 -1.1075e-11
63.4945 345.232 8.52651e-13
-1.1075e-11 8.52651e-13 185.858

293.714 21.6321 2.88007e-12
21.6321 367.689 -9.28443e-13
2.88007e-12 -9.28443e-13 254.517

267.593 -65.9235 9.166e-13
-65.9235 344.867 9.66338e-13
9.166e-13 9.66338e-13 184.314

291.661 -12.3821 9.55088e-13
-12.3821 370.91 6.72647e-13
9.55088e-13 6.72647e-13 253.462

550.327 6.83991 -1.47186e-12
6.83991 582.099 -9.83806e-13
-1.47186e-12 -9.83806e-13 541.143

329.914 -45.9791 2.69888e-12
-45.9791 341.842 5.36933e-12
2.69888e-12 5.36933e-12 276.636

259.8 47.5358 -2.32111e-12
47.5358 340.241 1.51061e-11
-2.32111e-12 1.51061e-11 223.163

370.239 37.9138 -1.21266e-12
37.9138 244.935 5.36578e-12
-1.21266e-12 5.36578e-12 187.37

481.926 -29.2876 -3.19507e-12
-29.2876 460.546 2.98132e-13
-3.19507e-12 2.98132e-13 467.748

481.007 12.8963 -1.84712e-12
12.8963 525.862 4.73044e-12
-1.84712e-12 4.73044e-12 504.136

354.445 -38.1157 -4.37931e-12
-38.1157 300.098 -2.50348e-12
-4.37931e-12 -2.50348e-12 251.834

482.57 -28.8038 -2.63019e-12
-28.8038 460.354 3.01448e-12
-2.63019e-12 3.01448e-12 468.497

365.286 -36.3456 -8.05282e-13
-36.3456 231.003 -4.27806e-12
-8.05282e-13 -4.27806e-12 182.783

481.537 -28.3191 -4.67774e-13
-28.3191 472.789 -6.72943e-13
-4.67774e-13 -6.72943e-13 477.952

436.388 -25.2971 -4.10753e-12
-25.2971 466.261 1.10371e-12
-4.10753e-12 1.10371e-12 448.244

314.818 69.4643 3.65219e-12
69.4643 292.16 -7.13385e-12
3.65219e-12 -7.13385e-12 184.537

290.802 -22.9347 -1.75149e-12
-22.9347 359.191 -2.58638e-12
-1.75149e-12 -2.58638e-12 247.048

312.419 -71.6964 1.00423e-12
-71.6964 288.14 -4.47168e-12
1.00423e-12 -4.47168e-12 182.039

268.565 50.7413 -3.09086e-12
50.7413 320.083 -6.38067e-12
-3.09086e-12 -6.38067e-12 221.521

459.897 -30.2144 -2.80072e-13
-30.2144 454.88 -2.05317e-12
-2.80072e-13 -2.05317e-12 454.434

559.311 -14.6409 6.50946e-12
-14.6409 544.434 4.50188e-12
6.50946e-12 4.50188e-12 533.744

635.927 11.0909 -2.06287e-12
11.0909 631.392 -5.23344e-12
-2.06287e-12 -5.23344e-12 570.039

619.967 -5.16032 -2.18314e-12
-5.16032 639.744 -8.75191e-12
-2.18314e-12 -8.75191e-12 568.517

453.902 13.0839 -2.69581e-12
13.0839 506.59 -1.25825e-12
-2.69581e-12 -1.25825e-12 482.605

634.157 -10.6652 -5.27978e-12
-10.6652 631.322 -4.3204e-12
-5.27978e-12 -4.3204e-12 569.894

622.705 4.09224 -2.50614e-13
4.09224 642.689 7.98572e-12
-2.50614e-13 7.98572e-12 569.718

643.38 7.43177 6.58288e-12
7.43177 619.156 -2.29076e-12
6.58288e-12 -2.29076e-12 569.041

584.79 -12.113 -1.22546e-12
-12.113 631.676 8.65071e-12
-1.22546e-12 8.65071e-12 560.614

307.466 -30.4731 -7.04503e-12
-30.4731 371.662 2.82559e-12
-7.04503e-12 2.82559e-12 280.791

589.643 -12.9721 -4.07644e-12
-12.9721 549.134 4.4779e-12
-4.07644e-12 4.4779e-12 543.851

527.235 -34.4164 7.84587e-12
-34.4164 521.513 3.00811e-12
7.84587e-12 3.00811e-12 519.994

565.486 -18.1775 -2.89813e-12
-18.1775 538.014 2.97984e-12
-2.89813e-12 2.97984e-12 534.285

502.605 15.4603 -6.77384e-13
15.4603 452.149 -2.76934e-12
-6.77384e-13 -2.76934e-12 480.24

586.362 9.86271 -7.70476e-12
9.86271 642.142 -7.6669e-12
-7.70476e-12 -7.6669e-12 563.124

636.664 19.2255 -8.46997e-12
19.2255 591.735 -3.07783e-12
-8.46997e-12 -3.07783e-12 562.946

569.797 11.308 -2.21216e-12
11.308 544.362 2.9979e-12
-2.21216e-12 2.9979e-12 536.462

353.468 -15.341 1.27258e-11
-15.341 231.531 -3.51541e-12
1.27258e-11 -3.51541e-12 219.031

437.241 24.9663 9.96536e-13
24.9663 461.95 6.94556e-13
9.96536e-13 6.94556e-13 445.756

317.112 -61.3597 7.65255e-12
-61.3597 277.868 -2.59585e-12
7.65255e-12 -2.59585e-12 218.105

334.232 -57.4615 5.2746e-12
-57.4615 357.348 2.27137e-12
5.2746e-12 2.27137e-12 252.559

383.362 -36.547 6.35462e-12
-36.547 305.76 -3.51482e-12
6.35462e-12 -3.51482e-12 257.779

562.515 -5.15872 2.58371e-12
-5.15872 616.963 -9.64414e-12
2.58371e-12 -9.64414e-12 552.973

562.222 2.89136 -4.39204e-13
2.89136 615.828 -2.85712e-12
-4.39204e-13 -2.85712e-12 552.572

598.784 -24.4533 -3.25813e-12
-24.4533 575.76 -2.72967e-12
-3.25813e-12 -2.72967e-12 551.602

602.343 -21.7573 5.27482e-12
-21.7573 573.45 -3.01122e-12
5.27482e-12 -3.01122e-12 551.868

598.796 26.1327 -1.17802e-12
26.1327 580.474 -2.7985e-13
-1.17802e-12 -2.7985e-13 552.757

625.75 3.09734 3.30106e-13
3.09734 630.742 9.78329e-12
3.30106e-13 9.78329e-12 568.44

599.073 -20.5066 -4.92998e-12
-20.5066 576.371 -1.02215e-13
-4.92998e-12 -1.02215e-13 552.29

607.822 -18.5665 4.587e-12
-18.5665 620.27 9.61202e-12
4.587e-12 9.61202e-12 563.206

632.908 2.43295 -2.94979e-12
2.43295 635.532 -1.59705e-11
-2.94979e-12 -1.59705e-11 570.525

607.899 -20.5235 2.58312e-14
-20.5235 572.443 6.59324e-13
2.58312e-14 6.59324e-13 553.429

607.085 20.953 8.77572e-12
20.953 573.702 1.71418e-12
8.77572e-12 1.71418e-12 553.832

633.859 -3.45685 9.73429e-12
-3.45685 636.783 -1.54758e-11
9.73429e-12 -1.54758e-11 571.299

632.189 -3.11485 -7.85742e-12
-3.11485 625.765 1.3496e-11
-7.85742e-12 1.3496e-11 569.414

609.694 12.1094 -6.0485e-13
12.1094 620.493 -7.92366e-12
-6.0485e-13 -7.92366e-12 563.937

587.219 26.927 -5.35276e-13
26.927 583.033 -1.33301e-12
-5.35276e-13 -1.33301e-12 551.725

FIELD solute_concentration_TPM 2
S_ext 1 563 float
0.85259
0.852432
0.852447
0.852433
0.852414
0.852447
0.85259
0.852441
0.852461
0.852435
0.852556
0.852441
0.852444
0.852435
0.852418
0.852446
0.852429
0.852439
0.852464
0.85245
0.852455
0.852381
0.852451
0.85245
0.85245
0.852437
0.852548
0.852446
0.852503
0.852398
0.852444
0.852502
0.852552
0.852403
0.852402
0.852403
0.852395
0.852404
0.852445
0.852552
0.852503
0.852394
0.852394
0.852444
0.852531
0.852502
0.852462
0.852458
0.852447
0.85251
0.852506
0.85249
0.852412
0.852491
0.852413
0.852535
0.852402
0.85249
0.852402
0.852448
0.852428
0.852423
0.852545
0.852425
0.852423
0.852433
0.852428
0.852437
0.85245
0.852432
0.852413
0.852412
0.852504
0.85243
0.852448
0.852555
0.85242
0.852433
0.852437
0.852484
0.852518
0.85241
0.852425
0.85252
0.852502
0.852533
0.852446
0.852433
0.85253
0.852388
0.85249
0.852389
0.852418
0.852435
0.85249
0.852506
0.852519
0.852435
0.85242
0.852445
0.852475
0.8525
0.852519
0.852436
0.852436
0.852435
0.852425
0.852446
0.85252
0.852428
0.852448
0.852528
0.852523
0.852438
0.852436
0.852491
0.852405
0.852521
0.852405
0.85249
0.852467
0.852418
0.852431
0.852429
0.852428
0.852417
0.852407
0.852435
0.852519
0.852489
0.852411
0.852432
0.852425
0.852431
0.8525
0.852402
0.852528
0.852443
0.852425
0.852402
0.852498
0.852439
0.852468
0.852435
0.852522
0.852436
0.85244
0.85245
0.852448
0.852478
0.852458
0.852431
0.852501
0.852443
0.852435
0.852432
0.852434
0.852498
0.852497
0.852441
0.852458
0.852501
0.85253
0.852505
0.852496
0.852435
0.852497
0.852498
0.852502
0.852496
0.852417
0.85249
0.852506
0.852433
0.85249
0.852425
0.852417
0.852442
0.852413
0.852438
0.852504
0.852435
0.852435
0.852497
0.852431
0.852507
0.852428
0.852426
0.852419
0.852435
0.852431
0.852518
0.85249
0.852502
0.852431
0.852439
0.852438
0.852425
0.852431
0.852433
0.852431
0.852463
0.852484
0.852425
0.852504
0.852425
0.852434
0.852499
0.852423
0.852431
0.852424
0.852436
0.852436
0.852426
0.852477
0.852436
0.852483
0.852426
0.852428
0.852428
0.852428
0.852428
0.852428
0.852428
0.852436
0.852418
0.852418
0.852418
0.852418
0.852415
0.852414
0.852478
0.852434
0.852431
0.852459
0.852419
0.852419
0.852431
0.852483
0.852431
0.852435
0.852477
0.852422
0.852478
0.852426
0.852431
0.852476
0.852482
0.852518
0.852512
0.852425
0.852524
0.852444
0.852483
0.852464
0.852431
0.852428
0.852396
0.852428
0.852527
0.852482
0.852431
0.852441
0.852484
0.852428
0.852467
0.852396
0.852482
0.852428
0.85243
0.852438
0.852419
0.852433
0.852413
0.852442
0.852529
0.852534
0.852418
0.852453
0.852441
0.852479
0.852422
0.852433
0.852482
0.852434
0.852475
0.85244
0.852475
0.852483
0.85239
0.852416
0.852417
0.852417
0.852435
0.852475
0.852404
0.85243
0.852458
0.852474
0.852478
0.852416
0.852477
0.85242
0.852477
0.85253
0.852474
0.852522
0.852426
0.852476
0.85239
0.852477
0.852428
0.852478
0.852429
0.852477
0.852447
0.852551
0.852447
0.852477
0.852415
0.852477
0.852457
0.852431
0.852431
0.852477
0.852474
0.852467
0.852428
0.852474
0.852442
0.852446
0.852414
0.852475
0.852468
0.852456
0.852467
0.852475
0.852466
0.852425
0.852441
0.852468
0.852477
0.852439
0.852438
0.852474
0.852414
0.852562
0.852449
0.852518
0.852455
0.852612
0.852613
0.852611
0.852611
0.852609
0.852617
0.852617
0.852426
0.852408
0.852441
0.852457
0.852463
0.852467
0.85244
0.852467
0.852468
0.852409
0.852467
0.852424
0.85249
0.852419
0.852448
0.852458
0.852467
0.852418
0.852449
0.852457
0.852448
0.852456
0.852465
0.852485
0.852458
0.85245
0.852422
0.852463
0.852466
0.852463
0.852458
0.85245
0.852439
0.852463
0.852439
0.852449
0.852458
0.852441
0.852448
0.852466
0.852428
0.852456
0.852408
0.85253
0.852426
0.852425
0.85245
0.852457
0.852432
0.852562
0.852448
0.852457
0.852549
0.852393
0.852393
0.852447
0.852464
0.852455
0.852463
0.852383
0.852382
0.852438
0.852441
0.852442
0.852566
0.852466
0.852428
0.852459
0.852461
0.852458
0.852562
0.85243
0.852464
0.852449
0.852449
0.85246
0.852457
0.85246
0.85246
0.85255
0.852522
0.852457
0.852449
0.852456
0.852461
0.852457
0.852456
0.852456
0.852532
0.85242
0.852463
0.852432
0.852429
0.852533
0.852447
0.852447
0.852415
0.852388
0.852388
0.852416
0.852466
0.852449
0.852534
0.85239
0.85238
0.85238
0.852563
0.852403
0.852397
0.85245
0.852419
0.852441
0.852434
0.852427
0.852428
0.852442
0.852561
0.852446
0.852435
0.852428
0.852556
0.8524
0.852555
0.852426
0.852437
0.852476
0.852443
0.852443
0.852411
0.852439
0.852411
0.852447
0.852429
0.8524
0.852401
0.852535
0.852433
0.852592
0.852592
0.852592
0.852431
0.852567
0.852593
0.852461
0.852591
0.85241
0.85241
0.852591
0.852452
0.852553
0.852595
0.852553
0.852596
0.852553
0.852403
0.852539
0.852566
0.85259
0.852443
0.852424
0.852555
0.852443
0.85259
0.852438
0.852452
0.852596
0.852556
0.852596
0.852563
0.852449
0.852408
0.85238
0.852381
0.852435
0.85238
0.85238
0.852381
0.852387
0.852536
0.8524
0.852417
0.852409
0.852437
0.852387
0.852386
0.852408
0.852563
0.852454
0.852569
0.852559
0.852551
0.85239
0.85239
0.852391
0.852392
0.85239
0.852384
0.852395
0.852388
0.852384
0.852393
0.852393
0.852384
0.852382
0.852387
0.852394
P_ext 1 563 float
0.0137658
0.0137624
0.0137629
0.0137624
0.0137611
0.0137629
0.0137658
0.0137626
0.0137632
0.0137624
0.0137652
0.0137626
0.0137627
0.0137624
0.0137615
0.0137628
0.0137621
0.0137626
0.0137633
0.013763
0.0137631
0.0137589
0.013763
0.0137629
0.013763
0.0137625
0.013765
0.0137628
0.0137642
0.01376
0.0137628
0.0137642
0.0137651
0.0137604
0.0137604
0.0137605
0.01376
0.0137605
0.0137627
0.0137651
0.0137642
0.0137599
0.01376
0.0137627
0.0137647
0.0137642
0.0137633
0.0137632
0.0137628
0.0137644
0.0137643
0.0137639
0.0137611
0.013764
0.0137612
0.0137648
0.0137604
0.0137639
0.0137604
0.0137629
0.0137621
0.0137618
0.013765
0.0137619
0.0137618
0.0137622
0.0137621
0.0137625
0.013763
0.0137623
0.0137611
0.0137611
0.0137642
0.0137621
0.0137629
0.0137652
0.0137615
0.0137622
0.0137625
0.0137638
0.0137645
0.013761
0.0137619
0.0137645
0.0137642
0.0137648
0.0137628
0.0137621
0.0137647
0.013759
0.013764
0.013759
0.0137614
0.0137622
0.013764
0.0137643
0.0137645
0.0137624
0.0137616
0.0137628
0.0137636
0.0137642
0.0137645
0.0137625
0.0137625
0.0137625
0.0137619
0.0137628
0.0137645
0.0137622
0.0137629
0.0137647
0.0137646
0.0137626
0.0137625
0.013764
0.0137604
0.0137646
0.0137604
0.0137639
0.0137634
0.0137615
0.0137623
0.0137621
0.0137621
0.0137614
0.0137606
0.0137624
0.0137645
0.0137639
0.013761
0.0137624
0.0137619
0.0137623
0.0137642
0.0137604
0.0137647
0.0137627
0.0137619
0.0137604
0.0137641
0.0137625
0.0137634
0.0137624
0.0137646
0.0137625
0.0137625
0.0137628
0.0137629
0.0137636
0.0137631
0.0137623
0.0137642
0.0137627
0.0137624
0.0137624
0.0137623
0.0137641
0.0137641
0.0137627
0.0137632
0.0137642
0.0137647
0.0137642
0.0137641
0.0137625
0.0137641
0.0137641
0.0137642
0.0137641
0.0137614
0.0137639
0.0137643
0.0137623
0.013764
0.0137619
0.0137614
0.0137626
0.0137612
0.0137625
0.0137642
0.0137625
0.0137624
0.0137641
0.0137622
0.0137643
0.0137621
0.0137619
0.0137614
0.0137625
0.0137621
0.0137645
0.0137639
0.0137642
0.0137624
0.0137626
0.0137626
0.013762
0.0137623
0.0137623
0.0137623
0.0137633
0.0137638
0.013762
0.0137642
0.0137619
0.0137622
0.0137641
0.0137617
0.0137623
0.0137617
0.0137624
0.0137625
0.0137619
0.0137636
0.0137624
0.0137638
0.0137619
0.0137621
0.0137621
0.0137622
0.0137622
0.0137622
0.0137622
0.0137624
0.0137615
0.0137615
0.0137615
0.0137615
0.0137611
0.0137611
0.0137637
0.0137623
0.0137623
0.0137632
0.0137615
0.0137614
0.0137623
0.0137638
0.0137624
0.0137624
0.0137637
0.0137617
0.0137637
0.0137619
0.0137623
0.0137636
0.0137638
0.0137645
0.0137644
0.013762
0.0137646
0.0137628
0.0137638
0.0137633
0.0137624
0.0137621
0.0137599
0.0137622
0.0137647
0.0137638
0.0137623
0.0137626
0.0137638
0.0137621
0.0137634
0.01376
0.0137638
0.0137621
0.0137621
0.0137626
0.0137615
0.0137621
0.0137612
0.0137627
0.0137647
0.0137648
0.0137613
0.013763
0.0137626
0.0137637
0.0137617
0.0137623
0.0137638
0.0137623
0.0137636
0.0137625
0.0137636
0.0137638
0.0137595
0.0137614
0.0137614
0.0137614
0.0137624
0.0137636
0.0137605
0.0137622
0.0137631
0.0137636
0.0137637
0.0137613
0.0137637
0.0137614
0.0137637
0.0137647
0.0137636
0.0137646
0.0137619
0.0137636
0.0137595
0.0137637
0.013762
0.0137637
0.0137621
0.0137636
0.0137628
0.0137651
0.0137629
0.0137637
0.0137613
0.0137636
0.0137631
0.0137621
0.0137623
0.0137636
0.0137636
0.0137634
0.0137619
0.0137636
0.0137626
0.0137628
0.0137612
0.0137636
0.0137634
0.0137631
0.0137634
0.0137636
0.0137634
0.0137617
0.0137626
0.0137634
0.0137636
0.0137625
0.0137625
0.0137636
0.0137612
0.0137653
0.0137628
0.0137645
0.013763
0.0137661
0.0137661
0.0137661
0.0137661
0.0137661
0.0137662
0.0137662
0.0137619
0.0137607
0.0137626
0.0137631
0.0137633
0.0137634
0.0137625
0.0137634
0.0137634
0.0137607
0.0137634
0.0137617
0.0137639
0.0137616
0.0137628
0.0137631
0.0137634
0.0137613
0.0137629
0.0137631
0.0137628
0.0137631
0.0137634
0.0137638
0.0137631
0.0137629
0.0137617
0.0137633
0.0137634
0.0137633
0.0137632
0.0137629
0.0137625
0.0137633
0.0137625
0.0137629
0.0137631
0.0137626
0.0137629
0.0137634
0.0137621
0.0137631
0.0137608
0.0137647
0.0137619
0.0137617
0.0137629
0.0137631
0.0137622
0.0137653
0.0137628
0.0137631
0.0137651
0.0137595
0.0137595
0.0137628
0.0137633
0.0137631
0.0137633
0.0137586
0.0137586
0.0137625
0.0137626
0.0137626
0.0137654
0.0137634
0.013762
0.0137632
0.0137633
0.0137632
0.0137653
0.0137621
0.0137634
0.0137629
0.0137628
0.0137632
0.0137631
0.0137632
0.0137632
0.0137651
0.0137646
0.0137631
0.0137628
0.0137631
0.0137633
0.0137631
0.0137631
0.0137631
0.0137648
0.0137616
0.0137633
0.0137623
0.0137621
0.0137648
0.0137628
0.0137629
0.0137612
0.0137595
0.0137595
0.0137613
0.0137634
0.0137628
0.0137648
0.0137596
0.0137588
0.0137588
0.0137653
0.0137605
0.0137601
0.0137629
0.0137615
0.0137627
0.0137624
0.013762
0.013762
0.0137626
0.0137653
0.0137628
0.0137623
0.013762
0.0137652
0.0137603
0.0137652
0.013762
0.0137624
0.0137636
0.0137627
0.0137626
0.013761
0.0137626
0.013761
0.0137629
0.013762
0.0137601
0.0137601
0.0137648
0.0137623
0.0137658
0.0137658
0.0137658
0.0137622
0.0137654
0.0137658
0.0137633
0.0137658
0.013761
0.013761
0.0137658
0.013763
0.0137651
0.0137659
0.0137651
0.0137659
0.0137651
0.0137605
0.0137649
0.0137654
0.0137658
0.0137627
0.0137618
0.0137652
0.0137626
0.0137658
0.0137625
0.013763
0.0137659
0.0137652
0.0137659
0.0137653
0.0137629
0.0137608
0.0137588
0.0137589
0.0137624
0.0137588
0.0137588
0.0137589
0.0137593
0.0137649
0.0137602
0.0137613
0.0137607
0.0137624
0.0137592
0.0137592
0.0137607
0.0137653
0.0137631
0.0137654
0.0137652
0.0137651
0.0137596
0.0137597
0.0137597
0.0137597
0.0137597
0.0137589
0.0137597
0.0137591
0.0137588
0.0137596
0.0137596
0.0137588
0.0137589
0.0137591
0.0137597
FIELD solute_flux_TPM 2
S_ext 3 563 float
-4.66336e-05 1.55727e-05 3.71451e-18
2.33616e-06 4.22945e-06 2.53023e-18
-7.66813e-06 -5.99449e-06 -1.00486e-18
-2.53534e-06 2.57508e-06 2.86411e-18
1.50114e-05 -4.34635e-06 1.53455e-18
1.59397e-06 -9.51326e-06 -8.34736e-19
-4.59225e-05 -1.57623e-05 2.60478e-18
-8.57699e-06 -6.18286e-06 1.00751e-18
1.30618e-05 5.89095e-07 -8.25233e-19
7.00791e-06 -2.5973e-06 5.02421e-19
3.11537e-05 7.24687e-06 -1.69592e-18
1.26621e-06 -1.05099e-05 -1.69774e-19
8.40822e-06 6.63451e-06 9.99707e-19
1.8203e-06 8.46003e-06 3.50294e-19
1.36106e-05 -2.08142e-06 3.39422e-18
-9.65161e-06 -1.57304e-07 2.51478e-18
1.95571e-06 8.9201e-06 6.87185e-19
6.16396e-06 -1.52447e-06 8.37293e-19
5.81981e-06 1.0122e-05 1.15257e-18
-8.77953e-06 1.13236e-06 8.39631e-19
-2.01188e-06 -1.26337e-05 -2.99657e-18
2.86195e-05 4.03913e-05 -3.71294e-18
9.38839e-06 9.77965e-07 3.15793e-18
6.78618e-06 -6.69384e-06 -2.8261e-18
-8.90267e-06 -2.02224e-06 2.50831e-18
-2.61867e-07 -6.7937e-06 8.30843e-19
3.57404e-05 -2.77917e-06 -2.36268e-18
8.62512e-06 6.17848e-06 1.49679e-18
-1.43029e-05 -1.16459e-05 1.60591e-18
3.23253e-05 -8.60804e-06 3.81748e-18
-9.87198e-06 -3.79924e-06 -2.33467e-18
3.08943e-06 -1.83595e-05 -2.2567e-18
2.68097e-05 -2.73077e-05 -1.56953e-19
-3.46598e-06 -2.75283e-05 -1.39809e-18
-1.95332e-05 2.42338e-05 1.90073e-18
-2.55734e-05 -1.07502e-05 3.29462e-18
2.14849e-05 2.80591e-05 -5.06267e-19
-2.94437e-05 -5.82412e-06 -1.72867e-18
8.87777e-06 -6.54622e-06 -4.84677e-18
2.61962e-05 2.8455e-05 1.25456e-18
1.84864e-05 -8.05348e-06 -1.44514e-18
2.18941e-05 -2.70117e-05 1.2e-18
-1.2453e-05 -3.24439e-05 -3.29358e-18
-9.43008e-06 3.98633e-06 -1.83307e-18
1.7238e-05 -1.68511e-05 2.68483e-18
-1.71554e-05 6.08908e-06 -9.66889e-19
-2.37985e-06 -1.19154e-05 -2.97915e-18
4.61053e-06 1.18738e-05 3.31274e-18
-9.80248e-06 3.64263e-06 8.38743e-19
-1.02706e-05 1.6175e-05 3.22922e-19
1.86397e-05 8.73297e-06 -3.05546e-18
1.69357e-05 -5.91789e-06 6.57023e-19
-1.03317e-05 1.0262e-05 -8.56124e-19
-1.34294e-05 -1.16167e-05 3.21566e-19
-1.38352e-05 -3.45065e-06 -5.05049e-19
-2.50473e-05 1.49471e-05 6.32074e-19
-1.93405e-05 -2.49445e-05 8.52063e-19
3.51082e-06 -1.75384e-05 -6.56549e-19
-3.1282e-05 4.31953e-06 -1.89738e-18
3.58182e-06 8.18405e-06 9.97867e-19
-3.43662e-06 -5.33654e-06 5.22752e-19
-4.07777e-06 -1.16397e-05 1.71434e-18
3.2301e-05 1.40556e-05 -2.99239e-18
6.15289e-06 1.15186e-05 -2.02119e-18
8.09695e-06 -9.23709e-06 -1.20056e-18
-1.22865e-06 -1.30234e-05 -1.5193e-18
3.12036e-06 -5.58992e-06 3.28867e-19
-6.06231e-06 -3.51902e-06 -9.92796e-19
-6.35339e-06 7.00579e-06 -3.14677e-18
1.52684e-06 -2.71166e-06 8.42389e-19
-9.90216e-06 -1.03192e-05 -1.55264e-18
-1.3957e-05 3.46169e-06 8.59953e-19
-2.20534e-06 1.95338e-05 -1.29215e-18
-1.12259e-05 6.77194e-06 8.50588e-19
-5.42813e-06 8.60394e-06 -2.99283e-18
-3.33383e-05 4.18029e-06 -4.70091e-19
5.22338e-06 -1.38973e-05 -1.54772e-18
-1.19301e-05 -5.3683e-06 2.70329e-18
1.05374e-06 7.12459e-06 -8.33693e-19
1.53066e-05 2.92411e-06 -1.46408e-18
1.94604e-05 -1.65365e-05 -8.02591e-19
1.46742e-05 1.33889e-05 3.28633e-18
7.78012e-06 -2.0004e-06 6.65506e-19
-1.81182e-05 1.32626e-05 -7.96545e-19
2.17075e-05 2.80213e-06 -4.362e-18
-3.11088e-06 2.76957e-05 3.32361e-18
-9.90485e-07 -1.01798e-05 -1.17236e-18
1.15027e-05 6.15701e-06 3.0389e-18
1.65782e-05 1.73456e-05 -9.44521e-19
4.24941e-05 2.64234e-05 3.47869e-19
-3.06913e-06 1.76235e-05 3.29543e-19
4.43921e-05 -2.49475e-05 -1.77897e-18
-1.77032e-05 3.28459e-06 -3.23534e-18
1.1261e-05 7.0861e-06 -8.41072e-19
-1.68207e-05 5.64958e-06 -8.08398e-19
9.4536e-06 1.63763e-05 1.93033e-18
5.59021e-06 -2.50596e-05 -2.56252e-18
1.0799e-06 7.1247e-06 6.72989e-19
-9.36002e-06 -1.14402e-05 1.71286e-18
1.7118e-06 1.05125e-05 -3.27675e-19
1.53892e-05 3.13259e-06 -1.60055e-19
-8.79831e-06 1.87815e-05 1.1332e-18
2.30921e-05 -7.71993e-06 2.08153e-18
-2.30567e-06 4.43733e-06 2.18791e-18
6.25721e-06 3.49127e-06 -2.35455e-18
-1.26032e-06 -6.91195e-06 4.35318e-18
2.24264e-06 -1.23497e-05 -1.02799e-18
1.05253e-05 2.45134e-06 1.50529e-18
-4.63055e-06 2.32084e-05 -1.57615e-19
-6.34593e-06 2.25787e-08 2.20059e-18
5.65404e-06 7.05744e-06 3.16088e-18
-1.51203e-06 -2.36364e-05 -1.59074e-18
2.3934e-05 7.46441e-06 -2.0722e-18
2.70964e-06 -4.45461e-06 3.1788e-18
-6.71342e-06 -2.27367e-06 1.85625e-18
-1.66013e-05 -7.11452e-06 1.4653e-18
1.0528e-05 2.76423e-05 2.07766e-18
-2.41605e-05 -8.63052e-06 -4.17076e-21
1.0675e-05 -2.77166e-05 3.27715e-18
-2.1056e-06 -1.8255e-05 2.11044e-18
1.28535e-05 3.38201e-07 3.45672e-18
-4.62379e-06 1.21139e-05 5.20566e-19
-1.08459e-06 2.42822e-06 1.34203e-18
-2.55233e-06 -1.04667e-05 -3.55134e-18
3.31478e-06 -5.52901e-06 1.17255e-18
6.2071e-06 1.03078e-05 1.87979e-19
2.21895e-05 7.31421e-06 6.8839e-19
5.4826e-06 -4.45264e-06 4.5339e-18
-4.76332e-06 -2.53632e-05 -2.08268e-18
1.4782e-05 -1.08398e-05 1.95521e-18
3.29917e-06 1.81947e-05 -5.00963e-19
-1.66758e-06 -1.8419e-06 -9.96991e-19
-5.65565e-06 -5.3017e-06 -1.1856e-18
-3.01773e-06 1.52852e-07 1.33448e-18
-1.29973e-05 1.60201e-05 4.90882e-19
1.29209e-05 -2.48282e-05 -3.58188e-19
-1.5037e-05 2.37889e-05 1.90977e-18
-9.80548e-06 5.81448e-06 1.34468e-18
1.54655e-06 8.04123e-06 -5.05388e-19
-1.50142e-05 -2.35833e-05 -1.62632e-19
7.87564e-06 1.91041e-05 2.43847e-18
1.09912e-05 5.55205e-06 3.34243e-19
1.34231e-05 -5.1392e-06 -4.91774e-19
-9.10049e-07 -6.92011e-06 -8.40882e-19
-1.89805e-05 -1.74509e-05 -8.04641e-19
-1.52249e-06 6.9366e-06 4.20176e-18
1.07316e-05 6.36946e-06 1.33934e-18
1.144e-05 -5.52616e-06 -1.66987e-18
5.01791e-06 -8.49891e-06 -8.33146e-19
1.423e-05 -6.27966e-06 -3.24837e-19
1.13599e-05 -5.38087e-06 3.29612e-19
3.02275e-06 2.89522e-07 8.41673e-19
1.47403e-05 1.16708e-05 -1.12653e-18
-1.47087e-06 -1.02524e-05 -1.76145e-19
-6.52172e-06 -2.56921e-06 6.66179e-19
8.11701e-07 -2.38923e-06 3.22687e-19
-2.18655e-06 9.79969e-06 -1.51066e-18
-1.96034e-05 1.56735e-06 -3.23142e-19
-6.90289e-06 -1.88177e-05 -2.60132e-18
-4.73707e-06 5.81566e-06 -8.29234e-19
8.04965e-06 9.74152e-06 4.80676e-18
1.52152e-05 -1.08588e-05 1.28867e-18
-2.06922e-05 -1.12403e-05 2.37856e-18
9.88934e-06 -1.58237e-05 1.58031e-19
1.30588e-05 -1.55847e-05 4.88866e-19
-6.6151e-06 2.4565e-06 6.78648e-19
-1.12707e-05 -1.62098e-05 1.59879e-19
-1.95816e-05 -3.28247e-06 -1.61936e-18
-2.36752e-06 -1.8046e-05 -6.46559e-19
8.74772e-06 -1.81099e-05 1.75169e-21
-6.08732e-06 -1.70089e-05 -2.56525e-18
2.49779e-06 1.79775e-05 2.11156e-21
-9.07733e-06 -1.6108e-05 -1.6101e-18
2.0976e-06 -1.01463e-05 1.16934e-18
-1.41278e-05 1.02482e-05 -6.48844e-19
-9.53342e-06 -7.88653e-06 1.53529e-18
-1.78214e-05 -3.17466e-06 1.38164e-18
9.64319e-06 -5.71545e-06 -1.17745e-18
-2.73793e-06 1.57181e-05 1.84263e-19
7.7776e-06 -5.64307e-06 -2.35088e-18
-1.67468e-05 -7.32784e-06 -4.7954e-19
-5.49775e-06 -4.43509e-06 1.84096e-18
5.72786e-06 4.4858e-06 -1.00697e-18
1.22691e-05 1.64136e-05 6.46545e-19
-1.08717e-05 -6.82904e-06 8.53032e-19
-1.83323e-05 -4.4716e-07 -1.60577e-18
-1.04513e-05 -2.93869e-06 4.38824e-18
-3.00608e-06 -1.04786e-05 -6.82136e-19
1.15245e-05 1.41121e-05 -1.7162e-19
-6.84806e-06 3.43326e-06 1.24184e-20
5.10545e-07 -1.28652e-05 -5.11174e-19
-2.34168e-05 6.03797e-06 -1.43817e-18
1.43829e-05 1.16282e-05 -1.62498e-18
2.10408e-06 1.8767e-05 2.9031e-18
-1.42798e-06 2.46361e-06 5.88447e-21
-5.38551e-06 1.49252e-07 8.45553e-19
2.66077e-06 4.63363e-06 1.84463e-18
-7.54398e-06 2.32633e-06 -1.018e-18
-1.36397e-06 -2.30999e-06 1.0062e-18
1.2215e-06 1.29596e-05 -1.17692e-18
2.89719e-06 1.32023e-07 -1.01403e-18
-1.13831e-05 2.77503e-06 -3.22043e-19
-9.99457e-06 1.10606e-05 -8.10806e-19
-1.88858e-06 7.53139e-06 1.19718e-18
-1.65658e-05 1.03666e-05 3.2998e-19
-6.13527e-06 5.7181e-06 1.17926e-18
1.0884e-05 -7.57359e-06 1.85045e-18
2.09866e-05 -2.1069e-06 3.39983e-18
-1.36207e-05 7.19308e-06 -1.69623e-18
1.32044e-06 2.92491e-06 -1.00606e-18
1.42263e-05 -2.5926e-06 2.21281e-18
-1.06704e-05 6.60114e-06 -1.64054e-19
-5.97004e-06 3.51428e-06 -1.57116e-19
7.79219e-06 2.6162e-06 5.10581e-19
1.27637e-05 -7.93277e-06 -4.86064e-19
-1.07961e-05 6.0952e-06 1.18297e-18
-1.43262e-05 -3.01509e-06 -6.42059e-19
-1.06383e-05 -2.6315e-06 4.5803e-18
6.51629e-06 1.5649e-07 1.35036e-18
6.66319e-06 -3.64267e-08 3.25559e-19
2.95595e-06 5.29895e-06 1.70332e-18
3.22909e-06 -5.59135e-06 1.49958e-18
-3.1228e-06 5.50269e-06 -1.50346e-18
-3.2596e-06 -5.62244e-06 -3.19602e-19
6.0869e-06 -4.78294e-06 -6.7637e-19
-1.33121e-05 2.21107e-06 1.69026e-19
-1.31608e-05 -2.25196e-06 2.22431e-18
-8.48127e-06 1.03626e-05 7.84147e-23
-8.52573e-06 -1.03994e-05 -6.82849e-19
4.87359e-06 -1.32465e-05 -3.48579e-19
4.69571e-06 1.3138e-05 1.71808e-19
8.99733e-07 1.50187e-05 1.6377e-18
7.14421e-06 -1.71245e-06 3.0247e-18
1.53814e-06 -2.36544e-06 5.36132e-18
-1.24256e-05 8.77784e-07 -4.85342e-19
5.01849e-06 -1.30349e-05 -5.17079e-19
4.75696e-06 1.30803e-05 3.57339e-18
2.98322e-06 -5.48513e-08 2.51955e-18
5.15858e-06 1.41351e-05 5.21194e-18
-1.38117e-06 -2.47346e-06 -1.85209e-18
1.34274e-06 -6.95307e-06 -1.69411e-19
-1.29395e-05 -6.91409e-06 4.97978e-19
-1.37778e-05 -7.33568e-06 3.41045e-18
-1.26262e-05 7.84726e-06 2.45538e-18
2.01126e-06 -8.1323e-06 -1.36134e-18
-9.83251e-07 2.05676e-06 2.02514e-18
-4.33272e-07 -1.47935e-05 -1.15397e-18
-4.51585e-06 -1.40106e-05 3.23966e-19
1.8625e-05 1.72938e-05 5.50873e-21
2.03854e-05 -1.03911e-06 1.59565e-19
-8.21447e-06 -2.49051e-06 1.03269e-18
-1.29285e-05 -2.30486e-05 1.67243e-21
5.01414e-06 8.20254e-06 5.01645e-19
-1.4433e-05 1.70352e-06 -1.6213e-18
1.1882e-05 3.41454e-06 1.16072e-18
-2.78849e-06 -1.17369e-08 5.0985e-19
-3.07669e-06 -5.36782e-06 -1.17779e-18
-5.41947e-06 -2.57313e-05 -5.36581e-19
-6.26903e-06 6.85646e-08 4.99556e-19
-2.68838e-05 -1.00761e-06 1.43874e-18
1.0029e-05 -1.11227e-05 -2.119e-18
1.56558e-06 2.44977e-06 1.33642e-18
-1.21042e-07 -1.06903e-05 -4.5284e-18
-5.73034e-06 1.37873e-05 -9.72366e-19
-2.90558e-06 5.49974e-06 -5.08425e-19
1.21665e-05 -7.96416e-06 -1.97815e-18
-2.49917e-05 -8.15143e-06 -1.37591e-18
-8.81042e-06 -1.16528e-05 -6.53739e-19
3.1653e-06 5.54059e-06 1.85468e-18
1.07348e-05 2.98484e-06 -3.20964e-18
-2.85409e-06 -4.36228e-06 1.4996e-18
1.31572e-05 2.48047e-06 -1.66228e-19
1.15867e-05 -6.12709e-06 1.70239e-19
-2.15762e-07 1.76595e-05 2.92104e-18
5.04607e-06 -8.17936e-06 6.71541e-19
2.7775e-05 1.15501e-06 2.54421e-18
-2.36069e-05 6.13657e-06 -1.10913e-18
1.5066e-05 7.46482e-06 5.12849e-19
-3.77871e-06 -1.00927e-05 -6.68283e-19
-9.37166e-06 -5.17547e-06 2.01012e-18
1.66963e-05 -1.34208e-07 -4.91781e-19
-4.98228e-07 -1.56434e-05 -1.70752e-18
-7.69513e-06 -6.97049e-06 -4.92292e-19
5.89716e-06 -1.36243e-05 4.8573e-19
-4.24107e-07 1.28047e-05 -1.68154e-19
4.5004e-06 1.50981e-05 2.46436e-18
1.07316e-05 -6.19589e-06 -2.35545e-18
-1.09756e-05 1.09812e-05 -3.26213e-19
9.55746e-06 1.16293e-05 3.74871e-18
-4.31969e-05 1.0288e-05 -1.2183e-18
-6.74877e-06 1.69047e-05 -1.70682e-18
8.2892e-06 -9.94977e-06 2.1974e-18
-4.51515e-06 -1.20786e-05 -6.61637e-19
-7.40171e-06 2.58257e-06 -1.49957e-18
-1.48158e-05 -4.10856e-06 5.25298e-21
-4.46862e-06 2.58514e-05 -1.03709e-18
-7.77185e-06 7.73607e-06 -1.55479e-19
1.23607e-05 -2.80722e-06 9.94577e-19
-3.92151e-06 -1.48958e-05 4.82388e-19
-8.5674e-06 1.36366e-05 -1.62861e-18
-1.40907e-05 8.15313e-06 -1.36378e-18
-1.18443e-05 -8.66124e-06 -3.10839e-18
1.17588e-05 -1.37898e-05 1.68699e-19
-1.56873e-05 -8.40294e-07 -1.14046e-18
6.81918e-06 -2.3269e-05 -3.15184e-19
1.1352e-05 -1.09588e-05 -1.31094e-18
1.39164e-05 2.44162e-05 -3.36039e-21
1.31239e-06 1.2672e-05 -1.34421e-18
1.71871e-06 -1.47525e-05 -1.97109e-18
-2.80791e-05 3.30021e-05 2.44978e-18
-7.29879e-06 -1.39654e-05 -1.64162e-18
1.06617e-05 -3.97657e-06 -5.12571e-19
-1.48214e-06 1.48643e-05 -1.62404e-19
8.13717e-06 -7.84238e-06 -1.52632e-18
8.01975e-06 1.40387e-05 5.90267e-18
1.03397e-05 -9.39686e-07 -2.16951e-18
1.21243e-05 -3.54654e-05 2.04653e-18
-3.44888e-06 -7.642e-06 1.6593e-18
-1.33548e-05 5.72744e-06 -1.30729e-18
-1.30484e-05 1.22987e-05 2.403e-18
1.25816e-05 8.52261e-06 -1.63465e-18
1.11826e-05 -6.50257e-06 -4.96598e-19
9.33083e-06 8.13555e-06 3.42524e-19
-3.4867e-06 -1.09533e-07 1.02088e-18
8.92271e-06 -1.33451e-05 1.31436e-18
-9.82969e-06 -1.16376e-05 -1.80847e-18
1.32702e-05 5.82658e-06 -6.61247e-19
8.152e-06 -7.78861e-06 1.18619e-18
5.4651e-06 -1.44098e-05 -1.71165e-19
1.01781e-05 -4.49917e-06 -1.00782e-18
-9.4798e-06 -4.57833e-06 6.75825e-19
9.13378e-07 -1.70538e-05 6.76075e-19
-1.49434e-05 2.6286e-06 -1.4719e-18
1.29202e-06 1.43308e-05 -1.15427e-18
1.22627e-05 4.07709e-06 3.08369e-21
-1.25921e-05 -6.26962e-06 8.29184e-19
-5.14987e-06 1.47527e-05 1.3177e-18
-8.24943e-07 -1.41473e-05 -4.13174e-18
1.25819e-05 7.69002e-06 -8.49053e-19
-8.61445e-07 1.10758e-05 1.17595e-18
-1.17628e-05 7.85584e-06 1.81526e-18
1.3763e-05 6.62581e-06 1.66524e-19
-1.03973e-05 -6.32271e-06 1.35132e-18
2.88008e-07 -1.22197e-05 -2.95306e-21
1.07454e-05 1.15599e-05 3.3078e-19
-1.4303e-05 -9.30426e-06 6.98695e-19
2.73848e-05 -1.95794e-05 4.62339e-19
1.09523e-05 -6.50358e-06 -6.67482e-19
4.90993e-06 2.43661e-05 1.75571e-18
1.0297e-05 -8.0638e-06 -6.66243e-19
-1.26768e-05 4.899e-05 1.32991e-18
-1.27415e-05 -4.85257e-05 -4.46015e-18
3.19054e-05 4.167e-05 -4.50626e-19
3.15236e-05 -4.16599e-05 -3.41568e-18
5.20738e-05 -2.64006e-08 -1.05292e-18
-4.47973e-05 1.81709e-05 1.62807e-18
-4.4073e-05 -1.83594e-05 -2.0816e-18
7.82432e-06 7.70143e-06 -4.57522e-18
1.9541e-05 1.4606e-05 -1.72953e-18
6.93764e-06 2.1173e-06 1.73272e-19
1.13193e-05 5.80097e-06 -9.44821e-23
2.90625e-06 1.18748e-05 9.90769e-19
-1.10205e-05 -8.59846e-06 -2.30307e-18
1.07488e-05 -6.17064e-06 -2.01356e-18
1.17619e-05 8.48728e-06 -1.56847e-21
-1.79105e-06 1.42327e-05 -3.27511e-19
1.96443e-05 -1.34044e-05 -1.03527e-18
2.11169e-06 -1.39006e-05 -1.32155e-18
1.4297e-05 3.12786e-06 -2.86158e-21
1.72176e-05 6.44077e-06 9.73236e-19
9.3769e-06 9.19313e-06 4.43993e-18
9.59523e-06 4.05243e-06 8.38995e-19
-1.09278e-05 6.47684e-06 2.82022e-18
-1.30806e-05 5.31783e-06 3.63512e-18
1.51235e-05 -7.31684e-06 5.14277e-19
-1.09086e-05 -6.06432e-06 5.59285e-21
-1.09931e-05 -6.19462e-06 -1.48382e-18
-1.19871e-07 -1.25085e-05 6.58852e-19
-1.0312e-07 -1.25666e-05 -6.68231e-19
-1.16764e-05 -5.96423e-07 2.31867e-18
1.5529e-05 -2.34847e-06 -2.43984e-18
1.08281e-05 6.79794e-06 2.64771e-18
-1.07648e-05 6.46208e-06 3.16997e-18
-9.69824e-06 1.08014e-05 -6.71517e-19
9.50854e-06 -8.14589e-06 6.57588e-19
-6.46428e-06 1.01218e-05 -1.47345e-18
-8.32393e-06 -8.64927e-06 -2.64105e-18
-7.17273e-07 1.25214e-05 -8.26985e-19
-6.4271e-07 1.26207e-05 2.67057e-18
7.96618e-10 -1.22204e-05 -4.70437e-18
3.58131e-06 -1.1598e-05 4.89967e-19
-1.05549e-05 -6.03193e-06 -1.6442e-19
9.36723e-06 -3.38386e-06 1.33279e-18
4.15883e-07 1.27467e-05 -1.32152e-18
1.99577e-07 1.12912e-05 1.72253e-19
-1.35359e-06 1.00611e-05 -4.95401e-19
1.28837e-05 -3.26969e-06 -1.15052e-18
-1.06288e-05 3.17913e-06 1.02429e-18
2.33222e-06 1.27588e-05 -1.49478e-18
-2.15013e-05 8.38141e-06 -5.04807e-19
5.35768e-06 2.37702e-05 1.58186e-18
-1.08762e-05 2.76641e-06 -3.38124e-18
1.2796e-05 -7.60031e-06 -1.70442e-19
4.56836e-07 1.26456e-05 1.67112e-18
-1.19747e-05 4.05037e-06 4.82249e-18
1.66018e-06 -1.01167e-05 -1.18496e-18
5.42731e-07 -3.27902e-05 -4.03517e-18
1.15052e-06 1.05305e-05 -1.16463e-18
-1.00984e-05 8.12656e-06 9.9609e-19
9.77661e-06 3.59261e-05 9.48023e-19
3.14398e-05 2.6087e-05 2.61453e-18
3.60616e-05 -2.46709e-05 -8.93279e-19
9.07954e-06 -6.15e-06 -2.8339e-18
-9.27108e-06 8.16063e-06 3.00075e-21
-1.18604e-05 -4.7883e-06 -3.23939e-19
-1.14669e-05 -3.98048e-06 -3.22021e-19
4.44414e-05 -1.22197e-05 -3.75878e-19
4.53242e-05 9.53432e-06 2.48883e-18
6.61136e-06 2.39742e-06 -1.66555e-19
2.75611e-07 1.19778e-05 5.01631e-19
7.1794e-08 1.19743e-05 1.17429e-18
-2.72921e-05 -1.99947e-05 6.21069e-19
6.72616e-06 -1.00788e-05 -1.1554e-18
7.43794e-06 8.21165e-06 1.71236e-19
-1.24376e-05 -2.06061e-06 -1.48213e-18
-8.26988e-06 9.93752e-06 -2.31096e-18
-1.11343e-05 5.37431e-06 2.82243e-18
2.70472e-05 1.93952e-05 -2.00718e-18
1.01237e-05 4.39089e-06 -1.01623e-18
-3.28002e-06 1.16795e-05 3.35044e-19
-1.02866e-05 -6.91194e-06 -6.64428e-19
9.81115e-07 -1.23982e-05 -2.50673e-18
-5.17544e-06 -1.12732e-05 -1.1653e-18
-1.01745e-05 -6.9176e-06 -9.91695e-19
6.20586e-06 -1.11098e-05 -4.80234e-18
8.43623e-06 -9.93581e-06 -4.47589e-18
-1.65642e-06 -3.43272e-05 -2.04202e-18
1.47237e-05 -2.33241e-05 -1.59996e-18
1.0337e-06 -1.23186e-05 1.15991e-18
1.09825e-05 6.76293e-06 1.16782e-18
-8.63565e-06 -8.64735e-06 -1.32966e-18
-5.72395e-06 1.14755e-05 -2.64124e-18
-2.86347e-06 1.24006e-05 -1.81658e-18
1.00236e-05 8.34654e-06 9.95802e-19
3.48029e-06 -1.17882e-05 -1.49678e-18
-7.89259e-06 -2.26166e-05 1.73745e-18
-1.38545e-06 1.6176e-05 -1.52829e-18
8.76362e-06 8.51877e-06 3.80082e-18
-7.96377e-06 -6.4493e-06 -8.31335e-19
-8.46795e-06 6.73946e-06 -1.62065e-19
2.52984e-05 -1.08414e-05 1.11123e-18
4.50351e-06 -7.99705e-06 2.66959e-18
-5.00292e-06 -7.4299e-06 4.96426e-19
1.41738e-05 4.39008e-06 1.71417e-18
8.8038e-06 -3.17525e-05 -2.28935e-18
-2.31025e-05 -2.34781e-05 -8.65584e-19
1.54322e-05 3.96258e-06 -1.3697e-18
-5.45304e-06 -1.06098e-05 -2.47597e-18
1.13395e-05 5.87324e-06 3.37005e-19
-1.62712e-05 -1.80945e-05 -1.5951e-19
7.13216e-06 3.2272e-05 1.05656e-18
3.13358e-05 -4.04956e-05 -1.92473e-19
-1.9405e-05 -4.73739e-05 -1.75888e-18
1.52968e-05 -2.98566e-05 1.69736e-18
-8.32089e-06 2.87886e-05 -8.61349e-19
-4.77353e-06 2.54596e-05 3.39008e-19
-1.1193e-05 5.48257e-06 3.33797e-18
4.03881e-06 1.56239e-05 -1.69417e-18
-1.35242e-06 7.58834e-06 1.00907e-18
6.25701e-06 2.1329e-06 -3.28979e-19
-2.23293e-06 1.03042e-05 -3.39787e-19
-1.33914e-07 1.32908e-05 -1.63461e-19
1.02497e-05 6.00248e-06 -1.83931e-18
4.95659e-07 3.26349e-05 2.63624e-18
-8.89441e-06 6.25017e-06 5.11663e-19
1.00681e-05 -3.72966e-06 3.35152e-19
1.10115e-05 -2.65245e-06 2.70419e-18
-3.34485e-05 -4.83878e-06 -1.55908e-18
-2.27985e-05 1.08602e-05 -2.07027e-18
-2.42591e-05 -2.8775e-05 1.10436e-18
5.65502e-06 5.30641e-06 2.5565e-18
8.75219e-06 4.73394e-06 7.51204e-21
1.56023e-05 -2.54783e-06 1.14823e-18
-4.83911e-06 -7.87061e-06 -6.34675e-21
1.05252e-05 5.35119e-06 -1.66682e-18
4.87761e-06 -1.97148e-05 -2.07471e-18
-8.54187e-06 6.0606e-06 7.47743e-21
-1.463e-05 -1.40748e-05 2.5808e-18
-3.37189e-06 9.73139e-06 -3.27032e-19
-2.27887e-06 1.30741e-05 -2.70257e-18
2.27924e-05 1.41408e-05 6.90178e-19
2.431e-05 -1.28773e-05 -2.43838e-18
-2.34699e-05 -6.30944e-06 -1.73642e-18
4.66615e-06 4.97696e-06 2.02305e-18
-2.69427e-06 5.68702e-05 -9.31043e-19
1.88194e-08 -5.84145e-05 -2.16184e-18
2.87973e-05 4.92812e-05 -6.13192e-19
-1.21312e-05 5.12731e-06 -2.69659e-18
-1.54795e-05 3.12714e-05 1.38729e-18
2.89763e-05 -4.75663e-05 9.23605e-19
-6.87528e-06 -1.05859e-05 -3.48127e-18
4.40691e-05 3.83261e-05 -3.39673e-18
1.58758e-05 -1.1727e-05 -1.56675e-18
-2.23505e-06 -1.95984e-05 1.04539e-18
4.61714e-05 -3.74766e-05 1.5424e-18
-3.9869e-06 8.56015e-06 -1.98818e-18
-2.96785e-05 -1.88468e-05 -3.13184e-19
-2.43533e-05 -5.08617e-05 -3.08897e-18
-1.38111e-05 -3.23136e-05 -1.88417e-18
-2.5037e-05 5.16929e-05 3.69754e-18
-5.93032e-06 3.58897e-05 2.66166e-18
1.06949e-05 2.46262e-05 -1.38103e-18
-1.59782e-05 2.05262e-05 -3.15737e-19
-1.4815e-05 -3.045e-05 -7.76847e-19
5.668e-05 9.954e-06 -3.40009e-18
-1.03958e-05 6.37636e-06 4.52587e-18
-3.91319e-06 1.03689e-05 -1.35523e-18
-2.81528e-05 2.02589e-05 -1.25866e-18
-1.05237e-05 6.07281e-06 -2.33844e-18
5.61224e-05 -8.87795e-06 -3.09688e-19
-9.48701e-06 4.66902e-06 -3.30761e-19
4.3057e-06 -8.6136e-06 -2.82387e-18
-4.35641e-05 -3.32112e-05 -7.60277e-19
-1.48794e-05 3.23307e-05 2.96685e-18
-4.45996e-05 3.29749e-05 2.16213e-18
1.35362e-05 2.97455e-05 -1.44871e-19
-8.90207e-06 6.26172e-06 -1.61942e-19
-1.33624e-05 1.61896e-05 5.27592e-19
-2.41591e-05 3.03725e-05 -1.77081e-18
-3.79e-05 -4.87296e-06 1.05159e-18
-6.92436e-07 1.01068e-05 -2.85466e-18
-2.55843e-05 -3.05002e-05 -8.92773e-19
-3.92191e-05 6.9137e-06 2.13005e-18
-1.49493e-05 3.46499e-05 3.17739e-18
-1.15189e-05 4.60484e-05 -2.11385e-18
-1.04061e-05 2.31265e-05 2.99738e-18
-2.22482e-05 1.79357e-05 -8.5946e-19
1.62277e-05 -3.91513e-06 1.53663e-18
2.54786e-05 -1.26963e-06 -6.89866e-19
8.36881e-06 5.21471e-06 -3.18817e-18
-8.09356e-06 -5.30017e-05 -7.23038e-19
-4.99583e-05 -1.94768e-05 3.65997e-19
2.4805e-05 2.16592e-07 1.37163e-18
3.32911e-05 -6.42929e-06 3.07182e-19
-6.23405e-06 -7.91141e-06 -8.3307e-19
-2.88462e-05 2.03076e-05 1.54735e-18
-2.58541e-05 2.96355e-05 3.2951e-18
3.51919e-05 -1.26761e-05 -3.13551e-19
-1.86612e-05 -3.15922e-05 1.3794e-18
-1.89931e-05 3.13453e-05 -1.76203e-19
-3.68241e-05 -1.31994e-06 -6.96672e-19
-1.67328e-05 3.2958e-05 1.74683e-18
-3.67145e-05 3.96158e-07 7.15561e-21
4.57452e-05 1.63703e-05 -8.10825e-21
3.68564e-05 1.37783e-06 4.35041e-18
3.46905e-05 -1.77671e-05 1.03572e-18
1.01501e-05 -4.87954e-05 -1.96199e-18
1.83035e-05 -3.19192e-05 3.64654e-18
1.81786e-05 3.1914e-05 -1.75295e-19
9.94056e-06 4.76792e-05 -3.18135e-18
4.99467e-05 -1.40876e-05 3.18004e-18
3.19948e-05 1.58451e-05 4.74372e-18
3.07006e-05 8.38087e-06 -8.71488e-19
P_ext 3 563 float
-7.3965e-07 2.50059e-07 3.1678e-20
6.82661e-10 2.73513e-08 -1.53186e-20
-6.80738e-08 -6.40258e-08 -2.34666e-20
-2.15339e-08 1.98738e-08 -1.78638e-20
1.87322e-08 3.72906e-10 4.00008e-20
2.24106e-08 -9.09319e-08 3.363e-20
-7.28236e-07 -2.53086e-07 4.57832e-20
-5.3351e-08 -6.05447e-08 -3.37897e-20
1.48503e-07 2.62732e-09 -1.54478e-20
5.41926e-08 -5.07878e-09 2.61474e-20
4.81463e-07 1.12865e-07 1.69332e-20
2.64394e-08 -7.73579e-08 5.46665e-20
6.05555e-08 7.21085e-08 3.90886e-20
-6.25887e-09 5.64608e-08 3.1645e-20
1.69273e-08 6.30102e-09 4.50795e-20
-9.49095e-08 -1.55361e-09 -2.30342e-20
-1.18786e-08 3.71914e-08 -1.81112e-20
5.72093e-08 -8.62759e-09 1.30683e-20
6.57318e-08 1.17233e-07 -2.0425e-20
-8.81729e-08 8.88927e-09 -2.31035e-20
-3.31142e-08 -1.24888e-07 -2.61572e-20
1.10263e-09 1.5985e-10 -1.12701e-20
9.7661e-08 7.94915e-09 1.83391e-20
6.21657e-08 -7.17895e-08 4.97509e-21
-9.00717e-08 -1.44982e-08 2.88347e-20
-1.69908e-08 -4.92727e-08 2.86277e-20
5.53458e-07 -4.52768e-08 1.4461e-20
6.77241e-08 5.71088e-08 -5.13123e-21
-2.02445e-07 -1.60806e-07 1.05003e-22
1.1862e-08 2.24324e-09 1.29907e-19
-9.04266e-08 -1.60886e-08 -6.50768e-20
3.95608e-08 -2.57462e-07 -5.77806e-20
4.15905e-07 -4.25941e-07 2.9352e-20
8.75403e-10 -1.94799e-08 -4.8716e-20
-5.23341e-09 1.4979e-08 -8.02869e-21
-1.62644e-08 -1.07067e-08 6.22451e-20
2.13186e-09 1.07626e-08 -3.76307e-20
-1.64336e-08 2.80476e-09 -8.08757e-20
6.53966e-08 -7.11489e-08 -2.37578e-20
4.05845e-07 4.43892e-07 1.23574e-20
2.5916e-07 -1.17421e-07 -4.01397e-20
3.97675e-09 -9.85782e-09 1.3326e-20
-6.49201e-09 -8.61204e-09 -3.52352e-20
-8.98315e-08 1.84371e-08 -5.20465e-20
2.57174e-07 -2.5256e-07 -1.46035e-20
-2.39573e-07 8.62345e-08 1.50375e-20
-3.0259e-08 -1.32017e-07 -2.3419e-20
5.45862e-08 1.32597e-07 2.34574e-20
-8.61675e-08 2.25227e-08 -1.28242e-20
-1.48401e-07 2.3081e-07 1.00281e-20
2.63037e-07 1.28823e-07 -2.02696e-20
2.28364e-07 -7.51052e-08 3.30507e-20
-6.70247e-09 1.59393e-08 -2.67103e-20
-1.78709e-07 -1.6037e-07 -3.5458e-20
-1.74827e-08 2.31526e-09 2.67529e-20
-3.83431e-07 2.25171e-07 2.21667e-20
-4.85833e-09 -1.49167e-08 3.21811e-20
5.08908e-08 -2.35996e-07 1.25584e-20
-1.51977e-08 -3.32004e-09 -8.07325e-21
3.99059e-08 8.00091e-08 1.8234e-20
-2.12832e-08 -6.43229e-09 1.34184e-20
-2.24679e-08 -2.10727e-08 4.00264e-20
4.98988e-07 2.19684e-07 1.22419e-20
-4.55003e-10 4.34959e-08 -1.04652e-20
6.69573e-09 -2.90143e-08 2.3749e-21
1.13127e-08 -6.45909e-08 1.82303e-20
-4.50926e-09 -2.11371e-08 5.75907e-20
-5.1716e-08 -1.31272e-08 1.05415e-20
-6.02117e-08 7.36768e-08 -6.99199e-20
1.61474e-08 -5.84935e-09 1.57829e-20
-6.61031e-09 -1.63995e-08 -1.89566e-20
-1.72912e-08 -2.5404e-09 -5.22817e-21
-2.9865e-08 2.76688e-07 -3.771e-20
-5.30871e-08 2.68107e-08 -2.08826e-20
-5.15374e-08 8.81531e-08 -5.45922e-20
-5.18949e-07 6.09964e-08 2.67281e-20
7.74317e-12 -4.10053e-08 1.02768e-20
-4.98711e-08 -4.18036e-08 -1.8104e-20
2.10209e-08 5.12671e-08 2.08564e-20
1.98788e-07 3.97439e-08 -5.13112e-21
2.84988e-07 -2.47967e-07 -2.52878e-21
7.77715e-09 1.90702e-08 1.92466e-20
1.92255e-08 5.99029e-09 2.88206e-20
-2.65551e-07 1.96467e-07 2.43078e-21
3.09931e-07 3.76783e-08 4.85042e-21
-4.6989e-08 4.20173e-07 2.49488e-20
-1.62828e-08 -8.41182e-08 -2.74372e-21
5.70935e-08 4.02171e-08 2.90975e-20
2.47368e-07 2.6087e-07 3.69149e-20
4.47205e-09 1.96301e-09 -8.25381e-21
-4.76668e-08 2.3733e-07 -5.55649e-20
4.03857e-09 -2.14013e-09 2.30538e-21
-2.85569e-08 1.94964e-08 1.84449e-20
6.17132e-08 2.51046e-08 1.57047e-20
-2.28522e-07 7.064e-08 -1.52451e-20
1.32655e-07 2.33101e-07 1.26663e-20
8.25319e-08 -3.72638e-07 -4.25288e-20
1.93882e-08 5.08054e-08 4.44646e-20
-3.50413e-08 -2.08343e-08 2.67961e-20
2.90697e-08 9.29416e-08 3.64846e-20
1.93324e-07 3.28929e-08 3.32359e-20
-1.28373e-07 2.65201e-07 -2.47719e-21
3.41299e-07 -1.11546e-07 4.24178e-20
-1.89222e-08 4.13125e-08 -4.65895e-20
3.62471e-08 3.68377e-08 -1.85461e-20
-2.1563e-08 -4.97126e-08 3.66954e-20
-8.68869e-09 -3.7852e-08 2.34083e-20
1.00307e-07 1.20161e-08 3.3922e-20
-7.32339e-08 3.42541e-07 3.73319e-20
-1.6897e-08 1.04461e-08 4.48573e-20
5.00297e-08 7.41574e-08 5.7178e-20
-2.47652e-08 -3.51541e-07 -2.73452e-20
3.5561e-07 1.06773e-07 -5.70993e-20
2.41873e-08 -4.27463e-08 5.38559e-21
-5.5218e-08 -6.30588e-09 8.11789e-21
-2.27382e-07 -9.12568e-08 1.83832e-22
1.12184e-08 1.19881e-08 3.78554e-20
-3.61274e-07 -1.26343e-07 -2.7409e-20
1.13898e-08 -1.19566e-08 1.07886e-20
-3.51278e-08 -2.4694e-07 2.54047e-20
1.52369e-07 5.78331e-09 2.84479e-20
-1.35567e-08 1.15326e-08 1.87311e-20
3.6504e-09 1.66304e-08 4.18741e-20
1.02064e-08 -4.459e-08 -2.92475e-20
1.76912e-08 -8.25116e-09 2.09553e-20
2.99714e-10 1.78929e-08 -2.62065e-20
1.5434e-08 -1.93195e-09 -2.14972e-20
2.88506e-08 -4.25887e-08 4.4732e-20
-7.39744e-08 -3.77275e-07 -3.74366e-20
1.95362e-07 -1.50399e-07 4.57068e-20
6.13413e-10 2.37504e-08 1.08248e-20
-1.64646e-08 -2.96709e-09 -1.03526e-20
-5.33267e-09 -1.83932e-08 -3.43212e-20
-1.35668e-08 -9.59078e-09 6.26486e-20
-1.82659e-07 2.28254e-07 -4.02485e-20
-2.09566e-10 -1.80732e-08 4.02169e-20
-2.2853e-07 3.58823e-07 3.73017e-20
-8.5803e-08 3.94491e-08 1.58086e-20
1.20599e-08 1.29773e-08 -1.0731e-23
-1.55594e-08 -9.09928e-09 2.71244e-20
1.11402e-07 2.68867e-07 -3.00157e-20
6.42055e-08 5.72469e-08 2.09036e-20
1.5596e-07 -5.1428e-08 2.30673e-20
8.78511e-09 -4.79593e-08 4.17078e-20
-2.83128e-07 -2.60897e-07 -6.47926e-20
-2.72873e-08 4.7125e-08 -1.52089e-20
7.08058e-08 3.77702e-08 -2.08236e-20
1.0357e-07 -3.56474e-08 -4.42449e-20
4.47254e-08 -8.93592e-08 1.80985e-20
1.7739e-07 -8.18017e-08 -1.52881e-20
1.17989e-07 -5.56924e-08 -4.12472e-20
1.18424e-08 -9.83553e-09 -4.43245e-20
2.05814e-07 1.62797e-07 -4.51598e-20
-2.97846e-08 -8.60841e-08 -1.57479e-20
-3.6547e-08 -3.12882e-08 -5.26161e-21
-5.98923e-09 -1.56864e-08 3.89786e-20
8.22823e-09 6.14044e-08 3.66104e-20
-2.75264e-07 1.97334e-08 -4.99216e-21
-1.00563e-07 -2.62763e-07 -2.29049e-20
-4.32769e-08 5.51637e-08 -4.67742e-20
8.51158e-08 1.13447e-07 -7.38387e-21
2.11841e-07 -1.50251e-07 2.52073e-20
-3.09751e-07 -1.6561e-07 -1.95749e-20
1.37772e-07 -2.24287e-07 -2.45683e-21
1.79383e-07 -2.20662e-07 1.77365e-20
-5.2789e-08 5.21665e-09 -1.28928e-20
-1.57479e-07 -2.27884e-07 -1.25691e-20
-2.75661e-07 -4.32009e-08 -1.01527e-20
-3.28558e-08 -2.51576e-07 -5.10444e-21
1.22628e-07 -2.53463e-07 1.26661e-20
2.57504e-09 -3.47826e-08 -8.23396e-21
3.64392e-08 2.4267e-07 -3.78928e-20
-1.29835e-07 -2.27125e-07 -5.10561e-21
-1.21902e-08 -5.56602e-08 3.13873e-20
-1.8765e-07 1.40486e-07 -2.52451e-20
-3.67197e-08 -1.20144e-08 3.19018e-20
-2.85853e-08 -1.9665e-08 7.20351e-20
7.48386e-08 -3.83737e-08 -4.70422e-20
-1.02768e-08 1.45411e-08 6.42633e-20
3.97604e-08 -5.02169e-08 -1.58518e-20
-2.3353e-07 -1.03857e-07 -1.49263e-20
-3.0897e-08 -4.16306e-08 2.35292e-20
3.22883e-08 4.41663e-08 3.90948e-20
1.68852e-07 2.33085e-07 -3.27501e-20
-5.96996e-08 -2.75246e-08 2.38373e-20
-2.59784e-07 -5.8441e-09 -2.25592e-20
-3.32376e-08 -3.08592e-08 4.23301e-20
-1.88058e-09 -4.46578e-08 2.09527e-20
3.25642e-08 1.64051e-08 6.63552e-20
-3.75696e-08 3.70529e-08 -2.41234e-21
-6.28052e-09 -6.57557e-08 2.35227e-20
-3.46812e-07 8.54238e-08 9.91277e-21
1.90067e-07 1.62154e-07 -3.79623e-20
2.53942e-08 2.64118e-07 2.27883e-20
-1.53047e-08 5.24798e-09 -7.73507e-21
-5.10546e-08 1.58647e-09 -1.0213e-20
2.3436e-08 4.47517e-08 3.40338e-20
-1.85234e-08 -4.56738e-09 4.19615e-20
2.20529e-09 -1.58151e-08 -2.86748e-20
-1.02211e-08 6.96063e-08 -4.46253e-20
1.13004e-08 1.19292e-08 -1.84605e-20
-1.28998e-07 2.85126e-08 -5.37549e-20
-1.30864e-07 1.42783e-07 -3.03818e-20
-1.4114e-08 1.30684e-08 5.02843e-20
-2.36791e-07 1.42901e-07 1.00888e-20
-6.04908e-09 2.0141e-08 2.89483e-20
6.38352e-08 -2.28519e-08 -1.0423e-20
2.96812e-07 -2.73051e-08 1.03596e-20
-3.71451e-08 2.35026e-08 -3.17769e-20
1.50378e-08 6.91693e-09 -4.96875e-20
3.86537e-08 -2.42104e-08 3.19383e-20
-6.63701e-08 2.2104e-08 -2.3453e-20
-4.83108e-08 1.26493e-08 1.05903e-20
1.69555e-08 -4.9762e-09 -3.14979e-20
1.57206e-07 -9.56055e-08 4.58797e-20
-6.18171e-08 3.94154e-08 -1.55324e-20
-1.84833e-07 -3.85427e-08 -1.00816e-20
-3.92257e-08 -2.06678e-08 4.47443e-22
1.49911e-08 -9.97973e-09 -6.52475e-20
1.66092e-08 1.16977e-08 2.33971e-20
-4.22125e-09 1.88961e-08 -2.30433e-20
-1.72589e-09 -2.13212e-08 2.34313e-20
-1.73117e-08 8.82581e-09 -2.55762e-21
-1.93751e-08 -9.90209e-09 5.48234e-21
4.85452e-08 -1.83305e-08 1.03355e-20
-1.77261e-08 -4.89966e-09 -7.95471e-21
-1.76876e-08 4.71981e-09 4.27051e-20
-4.33868e-09 1.75866e-08 1.05732e-20
-4.71301e-09 -1.79723e-08 3.43254e-20
1.16933e-08 -1.30788e-08 -2.94348e-20
1.12407e-08 1.25156e-08 3.46561e-20
6.79432e-09 1.87614e-07 -2.02369e-20
3.6361e-08 -3.00211e-08 -4.16368e-20
8.48692e-09 -1.60116e-08 -4.13434e-20
-1.41458e-07 5.22487e-09 -2.82448e-20
1.34194e-08 -1.27067e-08 3.69058e-20
1.25295e-08 1.29038e-08 5.47635e-21
1.92299e-08 -4.19101e-10 5.48422e-21
6.49506e-08 1.83866e-07 3.0769e-20
-9.73155e-09 -1.59107e-08 -5.48717e-21
2.10486e-08 -4.81533e-08 -2.65191e-21
-1.57893e-07 -8.73601e-08 -3.29626e-20
-3.46484e-08 -2.24895e-08 6.6546e-20
-1.58475e-07 9.39848e-08 -3.03725e-20
1.40406e-08 -1.43686e-08 -2.07203e-22
-6.73283e-09 1.49614e-08 2.64465e-20
-3.70587e-09 -1.8167e-07 2.38228e-21
-5.94844e-08 -1.79945e-07 1.26629e-20
2.72796e-07 2.59641e-07 -7.4504e-21
2.91787e-07 -1.65723e-08 7.45569e-21
-2.06484e-08 4.51554e-09 7.66774e-20
-1.95159e-07 -3.44869e-07 -1.98286e-20
4.64899e-08 7.97184e-08 1.82489e-20
-1.8701e-07 2.20262e-08 1.5257e-20
1.34222e-07 3.75318e-08 2.72203e-21
-1.83299e-08 -7.41481e-11 7.97844e-21
4.15302e-10 -1.90407e-08 -5.24186e-20
-1.65281e-09 -1.29974e-08 1.05585e-20
-1.62289e-08 -9.67682e-09 5.75039e-20
-4.04644e-07 -1.53337e-08 -3.45871e-20
1.27133e-07 -1.43792e-07 -1.79531e-20
8.6355e-09 1.67572e-08 3.13044e-20
4.42145e-09 -8.02246e-08 -4.50917e-22
-7.58384e-08 1.79595e-07 -2.78351e-20
1.56981e-09 2.0148e-08 -1.07369e-22
1.3563e-07 -9.70603e-08 2.47469e-21
-1.1887e-08 -5.20716e-09 5.42932e-20
-1.15365e-07 -1.49936e-07 -1.02082e-20
1.58813e-08 8.05934e-09 1.06624e-20
3.75609e-08 3.63511e-08 7.58041e-21
-2.67516e-08 -4.16716e-08 7.79945e-21
1.64182e-08 -5.33708e-09 -4.76272e-20
5.56824e-08 -3.88797e-08 4.46605e-20
-3.30066e-09 3.10208e-08 -2.36442e-21
4.58295e-08 -7.72479e-08 2.86988e-20
4.18907e-07 2.11077e-08 7.59998e-21
-3.54902e-07 9.38983e-08 1.22575e-20
2.96575e-08 2.06638e-08 5.05761e-20
-4.39382e-08 -1.05772e-07 1.02308e-20
-6.67564e-08 -4.35574e-08 -7.69194e-21
2.17445e-07 -2.18652e-09 -2.8055e-20
1.85321e-09 -4.14301e-08 1.29636e-20
-5.43027e-08 -1.91485e-08 2.37449e-20
7.41047e-08 -1.77062e-07 5.32856e-20
5.90541e-09 7.12582e-08 -2.09483e-20
6.08191e-08 1.88604e-07 -4.32592e-20
7.29393e-08 -3.84391e-08 -2.11668e-20
-1.33143e-07 1.41722e-07 -7.15313e-20
1.22442e-07 1.51304e-07 -5.55376e-20
-7.67512e-09 3.4254e-09 -1.35882e-20
1.28047e-09 3.28154e-08 3.44259e-20
2.44594e-09 -1.48773e-08 1.04835e-20
-1.17915e-08 -9.74687e-09 2.14405e-20
-4.06231e-08 3.22304e-08 -1.2935e-20
-1.86546e-07 -4.41917e-08 -3.31403e-20
6.45182e-10 2.09265e-08 4.01853e-20
-4.87522e-08 1.45264e-08 5.43314e-21
1.32141e-07 -1.91498e-08 -5.09156e-21
-5.65275e-08 -1.83025e-07 1.26765e-20
-1.11328e-07 1.77295e-07 -2.2894e-20
-3.13803e-08 1.45064e-08 -1.3345e-20
-1.49201e-07 -1.05565e-07 -4.09841e-20
3.373e-08 -1.58017e-08 1.06013e-20
-2.02301e-07 -9.90493e-09 -7.59939e-21
9.9079e-08 -3.49627e-07 -2.4661e-20
1.35301e-07 -1.42092e-07 -2.57823e-21
2.06979e-07 3.66977e-07 -5.03242e-21
-1.95095e-09 4.42818e-08 1.85184e-20
1.77552e-08 -1.84297e-07 1.76526e-20
-7.16919e-09 4.34446e-09 2.19307e-20
-9.59208e-08 -1.78981e-07 7.52258e-21
3.21322e-08 -2.75296e-08 -1.32805e-20
-1.85065e-08 1.86426e-07 -7.6366e-20
4.48883e-08 -1.31512e-08 -1.85864e-20
1.02231e-07 1.82193e-07 2.3382e-20
1.02351e-07 -2.38518e-09 -7.94303e-21
1.86978e-07 -5.51704e-07 -1.70294e-20
-3.95914e-08 -7.36932e-08 2.07196e-20
-1.65153e-07 7.19615e-08 -7.39437e-20
-2.311e-08 1.13325e-08 6.14974e-20
1.56785e-07 1.04996e-07 -1.78542e-20
1.11716e-07 -6.1676e-08 4.1248e-20
5.9024e-08 2.59134e-08 9.20725e-20
-1.20626e-08 1.02115e-08 5.51661e-20
1.12087e-07 -1.73164e-07 2.81399e-20
-1.19493e-07 -1.4912e-07 -3.33733e-20
1.54162e-07 6.08033e-08 -1.54462e-20
3.91821e-08 -2.42035e-08 -3.41832e-20
7.20799e-08 -1.79146e-07 4.07783e-20
8.46579e-08 -1.60328e-08 -2.09509e-20
-8.21612e-08 -3.27705e-08 1.05749e-20
-3.56574e-09 -3.33044e-08 7.89852e-21
-1.88411e-07 2.61581e-08 -3.32937e-20
1.97953e-08 1.65266e-07 -6.67486e-20
1.2886e-07 3.00605e-08 3.0483e-23
-1.464e-07 -6.55211e-08 -8.45415e-20
-7.20038e-08 1.84606e-07 -4.88675e-21
-1.64607e-08 -1.61009e-07 -1.83637e-20
4.25167e-08 2.0751e-08 2.10501e-20
-2.76356e-08 7.78283e-08 -2.45222e-21
-1.31649e-07 9.4424e-08 -2.29469e-20
1.69098e-07 8.5297e-08 6.36769e-20
-7.69328e-08 -2.41506e-08 -5.01112e-21
-1.86726e-08 -7.92146e-08 3.13254e-20
1.29215e-07 1.50213e-07 -5.06458e-21
-3.03207e-08 -1.37574e-08 2.96139e-20
4.252e-07 -3.05715e-07 -1.4528e-20
8.99368e-08 -6.29308e-08 -2.08382e-20
7.35097e-08 3.60238e-07 -1.48362e-20
9.48453e-08 -9.11979e-08 6.70801e-20
-2.05324e-07 7.81941e-07 -9.18953e-21
-2.06512e-07 -7.74324e-07 -6.0317e-20
5.0739e-07 6.6692e-07 1.6147e-20
5.011e-07 -6.66739e-07 1.59226e-20
8.30552e-07 -3.2758e-10 2.05287e-20
-7.15981e-07 2.88073e-07 -1.13574e-20
-7.04112e-07 -2.91203e-07 1.3853e-20
3.41723e-08 1.85197e-08 3.65776e-20
2.19071e-08 1.06442e-08 1.04882e-20
6.37309e-08 8.57354e-09 4.43319e-20
1.12534e-07 6.01428e-08 1.03137e-20
3.33851e-08 1.32989e-07 1.03527e-20
-1.2066e-07 -1.03671e-07 -4.11457e-20
6.07212e-08 -5.59976e-08 -1.32262e-20
1.29649e-07 1.04058e-07 7.68471e-21
-2.99937e-08 1.6369e-07 -7.17676e-20
2.1245e-08 -1.04422e-08 1.32941e-20
3.05187e-08 -1.5708e-07 6.40347e-20
3.98151e-08 2.6868e-08 -5.24797e-23
2.33919e-07 8.19395e-08 -5.01215e-21
5.20734e-09 1.68033e-08 -9.90932e-21
9.0356e-08 2.95664e-08 -2.06114e-20
-1.11845e-07 6.18643e-08 -4.86948e-20
-1.53157e-07 5.29757e-08 -4.57651e-20
3.02774e-08 -2.07432e-08 8.04988e-21
-9.7751e-08 -4.52277e-08 -7.00069e-20
-1.07417e-07 -6.36257e-08 -2.58072e-20
-9.42133e-09 -1.07814e-07 2.32748e-20
4.23476e-10 -1.23846e-07 2.05541e-20
-1.36381e-07 -5.8942e-09 3.11287e-20
2.02467e-07 -3.14375e-08 -5.33264e-20
1.09183e-07 6.72896e-08 2.71316e-21
-9.03335e-08 6.16264e-08 -5.15909e-20
-4.07049e-08 1.99075e-08 9.26657e-23
1.01915e-07 -9.13244e-08 4.891e-20
-7.65837e-08 1.19239e-07 -2.30456e-20
-9.43313e-08 -9.93665e-08 -2.59197e-20
-8.94228e-09 1.29862e-07 -7.21512e-20
-1.94376e-08 1.09583e-07 -4.38024e-20
3.19943e-09 -7.95343e-08 2.21197e-21
4.10543e-08 -1.32695e-07 7.43951e-20
-6.70671e-08 -4.304e-08 8.43317e-23
9.29529e-08 -2.65031e-08 1.56588e-20
2.22937e-10 1.29701e-07 -6.44554e-20
-2.81277e-09 8.28417e-08 -4.68222e-20
-2.08346e-08 9.32051e-08 -2.55962e-21
1.52594e-07 -3.75532e-08 -7.71391e-21
-3.20029e-08 3.05877e-08 2.12669e-20
3.45859e-08 1.29803e-07 -4.13682e-20
-2.08622e-08 1.31657e-08 -1.85882e-20
7.71095e-08 3.57572e-07 -9.69057e-21
-3.77535e-08 2.03949e-08 1.57288e-20
4.00578e-08 -2.0855e-08 1.32108e-20
1.15357e-08 1.10282e-07 -7.56166e-21
-1.2936e-07 3.07181e-08 8.20941e-21
-3.99196e-09 -5.60387e-08 1.82027e-20
5.35749e-09 -5.10215e-07 -9.43431e-20
1.54848e-08 9.34921e-08 -1.30175e-20
-9.66327e-08 9.19395e-08 -5.414e-20
1.50185e-07 5.58591e-07 -5.6397e-20
7.17753e-09 4.73391e-09 1.36182e-20
6.2008e-09 -4.51441e-09 -3.84823e-20
7.27337e-08 -5.673e-08 1.79723e-20
-1.03285e-07 9.24762e-08 -3.33367e-20
-1.23955e-07 -3.66052e-08 2.67165e-21
-1.27393e-07 -4.18373e-08 -2.55903e-20
-2.58584e-09 1.59863e-09 -1.14015e-20
-1.798e-09 -8.94045e-10 4.16586e-20
5.94858e-08 1.20786e-08 2.60769e-20
1.88885e-08 8.6808e-08 -2.08203e-20
-2.1839e-09 8.63148e-08 -2.33676e-20
-4.27332e-07 -3.10441e-07 -2.16267e-20
7.57923e-08 -1.19217e-07 1.78435e-20
3.83109e-08 1.37716e-08 3.68695e-20
-1.40602e-07 -1.5119e-08 -5.40689e-20
-8.8901e-08 1.17455e-07 -2.5892e-20
-1.14765e-07 5.3961e-08 -2.80525e-20
4.19567e-07 3.01442e-07 -1.43371e-22
4.14378e-08 2.72573e-08 2.61663e-20
-4.08088e-08 1.33175e-07 -7.56744e-21
-8.04057e-08 -6.88812e-08 -4.15073e-20
2.00102e-08 -1.04878e-07 7.49213e-21
-6.50917e-08 -1.23828e-07 7.57764e-21
-1.04286e-07 -7.14812e-08 -1.28834e-20
7.14806e-08 -1.26771e-07 2.19633e-21
8.57368e-08 -1.17841e-07 -3.38628e-20
-2.71987e-08 -5.32367e-07 -8.80313e-20
2.18842e-07 -3.5005e-07 -1.00526e-20
1.04463e-08 -1.27343e-07 5.6848e-20
8.97798e-08 6.83567e-08 -5.12591e-21
-8.06591e-08 -9.79219e-08 5.04393e-21
-6.99721e-08 1.3044e-07 -3.09641e-20
-4.29941e-08 1.27834e-07 -2.32793e-20
9.36248e-08 9.69664e-08 -1.28599e-20
4.59104e-08 -1.19567e-07 7.47335e-20
-1.18787e-07 -3.38684e-07 -9.75722e-21
2.67309e-09 4.10726e-08 -1.85635e-20
9.48022e-08 9.75583e-08 4.6567e-20
-5.10776e-08 -2.51342e-08 -5.13938e-21
-4.2435e-08 2.31487e-08 3.95074e-20
3.80308e-07 -1.66609e-07 9.91422e-21
4.71919e-08 -7.79932e-08 4.691e-20
-4.47897e-08 -7.66298e-08 -7.81559e-21
1.69514e-08 -1.47433e-09 3.21172e-20
1.42647e-09 -6.4104e-09 -8.58657e-21
-4.75841e-09 -4.66362e-09 2.18485e-20
2.08878e-08 1.37189e-08 2.11008e-20
-6.56418e-08 -1.23907e-07 2.0277e-20
1.00971e-07 4.04861e-08 1.56514e-20
-2.45946e-07 -2.70385e-07 -2.21684e-20
8.93857e-10 7.89014e-09 -1.06459e-20
9.28236e-10 1.47848e-09 -4.98406e-20
1.8312e-09 -2.1145e-10 -2.47254e-20
2.36038e-07 -4.66159e-07 -4.07854e-20
-9.78906e-09 1.15167e-08 9.4234e-20
-2.2333e-09 1.395e-08 1.60922e-20
-1.01528e-07 3.60813e-08 4.44145e-20
-3.51839e-09 4.11939e-08 1.59934e-20
-2.23153e-08 6.61295e-08 -1.54471e-20
4.59696e-08 1.94771e-09 4.18924e-20
1.0387e-08 3.97277e-08 -4.73738e-20
-2.71663e-09 5.4938e-08 -2.55798e-21
7.87916e-08 4.2862e-08 1.03635e-20
5.63472e-09 5.07837e-07 -5.05016e-20
-7.3312e-08 6.93834e-08 1.05647e-20
5.49446e-08 -3.69638e-08 -4.45535e-20
3.16984e-08 -2.89824e-08 3.17385e-20
-5.20835e-07 -7.15096e-08 -1.96699e-20
-1.47933e-08 5.87929e-09 -2.96513e-20
-3.79205e-07 -4.48562e-07 -1.70452e-20
6.85312e-09 1.84121e-08 -2.31571e-20
6.64344e-08 1.28993e-08 4.71901e-20
1.97923e-07 -2.56818e-08 -5.34917e-20
-4.52236e-08 -7.43105e-08 -2.87267e-20
8.64572e-08 2.47827e-08 5.21631e-20
4.29498e-10 -2.19742e-08 2.26453e-21
-4.87451e-08 5.64206e-08 -4.94395e-20
-1.86322e-08 -1.18313e-08 4.83312e-20
-4.39671e-08 8.92975e-08 -1.80828e-20
7.96212e-09 5.6327e-08 -3.95988e-20
1.28978e-08 9.44495e-09 1.61742e-20
1.27975e-08 -9.07247e-09 2.66945e-20
-3.53043e-07 -9.61726e-08 -3.69641e-20
3.88479e-08 1.44761e-08 3.423e-20
-4.68111e-08 9.06421e-07 -5.07656e-20
-3.2405e-09 -9.31241e-07 -6.03357e-20
4.58363e-07 7.8471e-07 -2.63909e-20
-4.74859e-08 3.769e-08 7.75695e-21
-2.42919e-07 4.8882e-07 -3.36674e-20
4.61004e-07 -7.57409e-07 -1.19717e-20
-7.61685e-08 -1.23281e-07 -2.35213e-20
7.00082e-07 6.13393e-07 1.17721e-20
8.19546e-09 -1.45418e-08 1.83536e-20
-8.54462e-09 -1.4734e-08 5.3842e-20
7.3384e-07 -5.99729e-07 2.64802e-20
-4.49303e-08 8.83487e-08 -2.07214e-20
-4.60939e-07 -2.93559e-07 -1.23581e-20
-3.88737e-07 -8.10182e-07 -4.5867e-20
-2.17714e-07 -5.00845e-07 -7.34391e-20
-3.99631e-07 8.23669e-07 2.90012e-20
-9.44348e-08 5.58158e-07 1.47477e-20
-6.66601e-10 1.9482e-08 -1.61802e-20
-2.42454e-07 3.12146e-07 -2.48171e-21
-2.32169e-07 -4.75129e-07 -2.17725e-20
9.02681e-07 1.57544e-07 9.26502e-21
-7.04923e-08 5.99432e-08 4.46869e-20
-1.64234e-09 3.95691e-08 2.56412e-21
-4.36631e-07 3.16093e-07 -2.67556e-21
-7.81821e-08 4.17247e-08 -3.65469e-20
8.93809e-07 -1.40138e-07 1.42678e-20
-5.96602e-08 4.00593e-08 3.66505e-20
4.34787e-08 -8.99246e-08 -2.60422e-20
-6.95553e-07 -5.28305e-07 2.36646e-21
-2.34535e-07 5.02522e-07 -3.87995e-20
-7.12414e-07 5.24429e-07 3.13056e-20
2.08159e-07 4.6442e-07 -2.88076e-20
-7.65484e-08 6.08558e-08 -2.32817e-20
-2.12074e-08 1.20037e-08 1.62824e-20
-1.15218e-09 -1.91668e-09 -4.69238e-20
3.59263e-10 -1.61367e-09 -7.42117e-20
5.82727e-09 6.10845e-08 -7.98505e-21
-1.69751e-09 1.91814e-09 1.90342e-20
9.63962e-10 2.31707e-09 4.97863e-20
1.58887e-09 -7.13577e-10 2.76727e-20
-9.07159e-10 7.22111e-09 1.60878e-20
-1.60156e-07 3.49419e-07 -2.92616e-20
-1.20229e-08 8.60498e-09 3.24184e-20
2.06982e-08 -1.30661e-08 9.39368e-23
2.02937e-08 -1.17641e-08 5.29709e-21
5.8555e-08 2.28372e-08 2.33373e-20
-5.38199e-10 -6.17974e-09 2.1499e-20
-5.51112e-09 -2.80841e-09 8.45728e-21
2.02797e-08 1.18327e-08 5.28295e-21
5.17654e-07 -9.97885e-08 -1.44175e-20
-6.7005e-08 -8.54056e-08 3.60577e-20
-4.53197e-07 3.15985e-07 -4.31771e-20
-4.05709e-07 4.62732e-07 5.08371e-21
5.46877e-07 -1.97503e-07 1.46858e-20
-2.58269e-09 -7.60809e-09 2.6958e-20
-2.84122e-09 7.81609e-09 -1.36037e-20
-8.56973e-09 1.50743e-09 -4.61306e-20
-5.6535e-09 5.70929e-09 4.35759e-20
-7.76556e-09 -1.68473e-09 5.70953e-20
1.39172e-09 1.86097e-09 4.10602e-20
8.33123e-09 -2.08209e-09 1.64438e-20
3.48449e-09 -2.48186e-09 5.23813e-21
-2.52002e-09 -1.75277e-09 -1.14109e-20
5.35517e-09 -5.46129e-09 3.79801e-20
5.3852e-09 5.62446e-09 2.71208e-20
-2.5355e-09 1.53324e-09 2.18299e-20
2.66949e-09 -5.9216e-10 6.61753e-20
4.45969e-09 2.48926e-09 6.59235e-20
9.72468e-09 3.50602e-09 2.97285e-20
SCALARS rr_necrosis float
LOOKUP_TABLE default
0
0
0
0
0
0
0
0
0
0
0
0
0
0
0
0
0
0
0
0
0
0
0
0
0
0
0
0
0
0
0
0
0
0
0
0
0
0
0
0
0
0
0
0
0
0
0
0
0
0
0
0
0
0
0
0
0
0
0
0
0
0
0
0
0
0
0
0
0
0
0
0
0
0
0
0
0
0
0
0
0
0
0
0
0
0
0
0
0
0
0
0
0
0
0
0
0
0
0
0
0
0
0
0
0
0
0
0
0
0
0
0
0
0
0
0
0
0
0
0
0
0
0
0
0
0
0
0
0
0
0
0
0
0
0
0
0
0
0
0
0
0
0
0
0
0
0
0
0
0
0
0
0
0
0
0
0
0
0
0
0
0
0
0
0
0
0
0
0
0
0
0
0
0
0
0
0
0
0
0
0
0
0
0
0
0
0
0
0
0
0
0
0
0
0
0
0
0
0
0
0
0
0
0
0
0
0
0
0
0
0
0
0
0
0
0
0
0
0
0
0
0
0
0
0
0
0
0
0
0
0
0
0
0
0
0
0
0
0
0
0
0
0
0
0
0
0
0
0
0
0
0
0
0
0
0
0
0
0
0
0
0
0
0
0
0
0
0
0
0
0
0
0
0
0
0
0
0
0
0
0
0
0
0
0
0
0
0
0
0
0
0
0
0
0
0
0
0
0
0
0
0
0
0
0
0
0
0
0
0
0
0
0
0
0
0
0
0
0
0
0
0
0
0
0
0
0
0
0
0
0
0
0
0
0
0
0
0
0
0
0
0
0
0
0
0
0
0
0
0
0
0
0
0
0
0
0
0
0
0
0
0
0
0
0
0
0
0
0
0
0
0
0
0
0
0
0
0
0
0
0
0
0
0
0
0
0
0
0
0
0
0
0
0
0
0
0
0
0
0
0
0
0
0
0
0
0
0
0
0
0
0
0
0
0
0
0
0
0
0
0
0
0
0
0
0
0
0
0
0
0
0
0
0
0
0
0
0
0
0
0
0
0
0
0
0
0
0
0
0
0
0
0
0
0
0
0
0
0
0
0
0
0
0
0
0
0
0
0
0
0
0
0
0
0
0
0
0
0
0
0
0
0
0
0
0
0
0
0
0
0
0
0
0
0
0
0
0
0
0
0
0
0
0
0
0
0
0
0
0
0
0
0
0
0
0
0
0
0
0
0
0
0
0
0
0
0
0
0
0
0
0
0
0
0
0
0
0
0
0
0
0
0
0
0
0
0
0
0
0
0
0
0
0
0
0
0
0
0
0
0
0
0
SCALARS rr_protein float
LOOKUP_TABLE default
1
1
1
1
1
1
1
1
1
1
1
1
1
1
1
1
1
1
1
1
1
1
1
1
1
1
1
1
1
1
1
1
1
1
1
1
1
1
1
1
1
1
1
1
1
1
1
1
1
1
1
1
1
1
1
1
1
1
1
1
1
1
1
1
1
1
1
1
1
1
1
1
1
1
1
1
1
1
1
1
1
1
1
1
1
1
1
1
1
1
1
1
1
1
1
1
1
1
1
1
1
1
1
1
1
1
1
1
1
1
1
1
1
1
1
1
1
1
1
1
1
1
1
1
1
1
1
1
1
1
1
1
1
1
1
1
1
1
1
1
1
1
1
1
1
1
1
1
1
1
1
1
1
1
1
1
1
1
1
1
1
1
1
1
1
1
1
1
1
1
1
1
1
1
1
1
1
1
1
1
1
1
1
1
1
1
1
1
1
1
1
1
1
1
1
1
1
1
1
1
1
1
1
1
1
1
1
1
1
1
1
1
1
1
1
1
1
1
1
1
1
1
1
1
1
1
1
1
1
1
1
1
1
1
1
1
1
1
1
1
1
1
1
1
1
1
1
1
1
1
1
1
1
1
1
1
1
1
1
1
1
1
1
1
1
1
1
1
1
1
1
1
1
1
1
1
1
1
1
1
1
1
1
1
1
1
1
1
1
1
1
1
1
1
1
1
1
1
1
1
1
1
1
1
1
1
1
1
1
1
1
1
1
1
1
1
1
1
1
1
1
1
1
1
1
1
1
1
1
1
1
1
1
1
1
1
1
1
1
1
1
1
1
1
1
1
1
1
1
1
1
1
1
1
1
1
1
1
1
1
1
1
1
1
1
1
1
1
1
1
1
1
1
1
1
1
1
1
1
1
1
1
1
1
1
1
1
1
1
1
1
1
1
1
1
1
1
1
1
1
1
1
1
1
1
1
1
1
1
1
1
1
1
1
1
1
1
1
1
1
1
1
1
1
1
1
1
1
1
1
1
1
1
1
1
1
1
1
1
1
1
1
1
1
1
1
1
1
1
1
1
1
1
1
1
1
1
1
1
1
1
1
1
1
1
1
1
1
1
1
1
1
1
1
1
1
1
1
1
1
1
1
1
1
1
1
1
1
1
1
1
1
1
1
1
1
1
1
1
1
1
1
1
1
1
1
1
1
1
1
1
1
1
1
1
1
1
1
1
1
1
1
1
1
1
1
1
1
1
1
1
1
1
1
1
1
1
1
1
1
1
1
1
1
1
1
1
1
1
1
1
1
1
1
1
1
1
1
1
1
1
1
1
SCALARS rr_(S_ext) float
LOOKUP_TABLE default
0.843813
0.844213
0.844181
0.844204
0.844332
0.84418
0.843811
0.844206
0.844148
0.844214
0.843814
0.844206
0.844198
0.844221
0.844285
0.844188
0.844234
0.844198
0.844126
0.844169
0.844167
0.844482
0.844164
0.84417
0.844169
0.844205
0.843885
0.844185
0.844013
0.84439
0.844197
0.844013
0.843882
0.844364
0.84438
0.844363
0.844393
0.844375
0.844196
0.843883
0.844011
0.844395
0.844394
0.844197
0.843913
0.84402
0.844136
0.844155
0.844182
0.843985
0.844001
0.844057
0.844322
0.84406
0.844319
0.843937
0.844381
0.844059
0.84438
0.844171
0.844231
0.844272
0.843919
0.844271
0.844273
0.844239
0.844233
0.844206
0.844167
0.844214
0.844321
0.844321
0.844012
0.844253
0.844183
0.843861
0.844298
0.844238
0.844205
0.844063
0.843982
0.844346
0.844252
0.843967
0.844029
0.843923
0.844185
0.844247
0.843914
0.844462
0.844058
0.844461
0.844299
0.844234
0.844063
0.843996
0.843984
0.844213
0.844297
0.844194
0.844106
0.84404
0.843966
0.8442
0.84421
0.84421
0.844258
0.844191
0.843966
0.844216
0.844171
0.843929
0.84395
0.844199
0.844208
0.844062
0.844383
0.843983
0.844382
0.844063
0.844117
0.84428
0.844211
0.844244
0.84422
0.844289
0.844366
0.844213
0.843984
0.844062
0.84432
0.844209
0.844249
0.84421
0.844041
0.84438
0.843962
0.844201
0.844252
0.84438
0.844045
0.84422
0.844126
0.844214
0.843982
0.844206
0.844213
0.844184
0.84418
0.844092
0.844153
0.844212
0.844011
0.844199
0.844214
0.844209
0.844228
0.84405
0.844051
0.844195
0.844156
0.844014
0.843927
0.844
0.844048
0.84421
0.844049
0.844049
0.844012
0.844049
0.844299
0.844059
0.844
0.844232
0.84406
0.844256
0.844299
0.844207
0.844326
0.844213
0.844014
0.844212
0.844212
0.844045
0.844247
0.843997
0.844244
0.844261
0.844303
0.844213
0.844247
0.843989
0.844059
0.844012
0.84421
0.844196
0.844198
0.844248
0.844211
0.844237
0.844212
0.844132
0.844067
0.844248
0.844015
0.844251
0.844239
0.844036
0.844278
0.844213
0.844284
0.844226
0.844208
0.844252
0.844092
0.84423
0.844072
0.84426
0.844219
0.844219
0.844212
0.844215
0.844216
0.844215
0.844218
0.844282
0.84428
0.844281
0.844282
0.844321
0.84432
0.844089
0.844218
0.844197
0.844154
0.844286
0.844288
0.844199
0.844068
0.844195
0.844213
0.844095
0.844278
0.844093
0.844254
0.844192
0.844095
0.844074
0.843981
0.843978
0.844252
0.843976
0.844193
0.844072
0.844129
0.844194
0.844218
0.844399
0.844216
0.843976
0.844071
0.844196
0.844206
0.844066
0.844217
0.844129
0.844398
0.844073
0.84422
0.844242
0.844198
0.844285
0.844246
0.844323
0.844196
0.843939
0.843923
0.844313
0.844167
0.844206
0.844095
0.844279
0.844232
0.844072
0.844235
0.844108
0.844215
0.844109
0.844069
0.844434
0.844303
0.844285
0.844284
0.844218
0.844112
0.844359
0.84424
0.844157
0.844113
0.8441
0.844311
0.844095
0.844301
0.844105
0.843915
0.84411
0.84398
0.844261
0.844094
0.844433
0.844105
0.844251
0.84409
0.844247
0.844103
0.844187
0.843916
0.844175
0.844094
0.844307
0.844091
0.844156
0.844249
0.844213
0.844104
0.844111
0.844127
0.844262
0.84411
0.844207
0.844186
0.844324
0.844111
0.844125
0.844163
0.84413
0.844106
0.844131
0.844275
0.844205
0.844127
0.844093
0.844218
0.844219
0.844108
0.844323
0.8438
0.844187
0.843982
0.844165
0.843547
0.843548
0.843549
0.843548
0.843547
0.84355
0.843553
0.844263
0.844349
0.844196
0.844154
0.844129
0.84413
0.844215
0.844127
0.844124
0.84435
0.844129
0.844283
0.844058
0.844274
0.844179
0.844154
0.844128
0.844314
0.844187
0.844157
0.844187
0.844157
0.844123
0.844063
0.844153
0.844183
0.844283
0.844133
0.844119
0.844132
0.84415
0.844181
0.844215
0.844131
0.844214
0.844176
0.844151
0.844207
0.844176
0.844127
0.844245
0.844161
0.844344
0.843915
0.844263
0.844275
0.844182
0.844163
0.844236
0.843807
0.844179
0.844161
0.843918
0.844433
0.844435
0.844185
0.844129
0.844166
0.844134
0.844505
0.844504
0.844204
0.844208
0.844206
0.84381
0.844122
0.844252
0.844154
0.84415
0.844151
0.843795
0.844245
0.844126
0.844185
0.844185
0.844149
0.844156
0.844149
0.844153
0.843885
0.84398
0.844155
0.844186
0.844161
0.844147
0.844159
0.844164
0.844161
0.843917
0.844288
0.84413
0.844235
0.844247
0.843915
0.844181
0.844177
0.844324
0.844424
0.844424
0.844303
0.844121
0.844184
0.84391
0.844416
0.84449
0.84449
0.843791
0.844374
0.844389
0.84418
0.844298
0.844196
0.844216
0.844246
0.84426
0.844207
0.843804
0.844189
0.844233
0.844252
0.843858
0.844376
0.843914
0.844248
0.844221
0.8441
0.844195
0.844206
0.844324
0.844209
0.844323
0.844184
0.844253
0.844384
0.844388
0.843913
0.844222
0.843804
0.843816
0.843792
0.844245
0.843804
0.843781
0.844148
0.843797
0.844347
0.844347
0.843806
0.84416
0.84389
0.843805
0.843879
0.843803
0.843879
0.844377
0.843896
0.843805
0.843803
0.844204
0.844268
0.843872
0.844205
0.843782
0.844217
0.844164
0.8438
0.843864
0.843791
0.84379
0.844176
0.844353
0.84448
0.844474
0.844223
0.844479
0.844478
0.844476
0.844441
0.843904
0.84438
0.844307
0.844354
0.844218
0.844452
0.844451
0.844364
0.843785
0.84416
0.843799
0.843909
0.843905
0.84441
0.844408
0.844406
0.844407
0.844409
0.844474
0.844411
0.844453
0.844485
0.844414
0.844414
0.844487
0.844475
0.844454
0.844405
SCALARS rr_(P_ext) float
LOOKUP_TABLE default
0.0145802
0.0145057
0.0145123
0.014507
0.014487
0.0145124
0.0145804
0.0145079
0.0145185
0.014506
0.0145753
0.0145079
0.0145095
0.014505
0.0144938
0.0145112
0.0145024
0.0145088
0.0145218
0.0145141
0.0145151
0.0144614
0.014515
0.014514
0.0145142
0.0145075
0.0145649
0.0145114
0.0145422
0.0144765
0.0145097
0.014542
0.014566
0.0144809
0.0144787
0.014481
0.0144756
0.0144797
0.0145098
0.0145658
0.0145423
0.0144753
0.0144754
0.0145097
0.0145588
0.0145411
0.0145203
0.0145173
0.0145121
0.0145468
0.0145441
0.0145346
0.014488
0.0145344
0.0144886
0.0145566
0.0144785
0.0145343
0.0144786
0.0145137
0.0145026
0.0144965
0.0145602
0.0144969
0.0144964
0.0145024
0.0145024
0.0145075
0.0145146
0.0145055
0.0144882
0.0144882
0.0145424
0.0145001
0.014512
0.0145692
0.0144925
0.0145025
0.0145075
0.0145329
0.0145483
0.0144846
0.0144995
0.0145504
0.01454
0.014558
0.0145114
0.0145012
0.0145588
0.0144651
0.0145345
0.0144652
0.0144921
0.0145032
0.0145338
0.0145448
0.0145482
0.0145061
0.0144926
0.0145101
0.0145261
0.0145382
0.0145505
0.0145081
0.0145068
0.0145066
0.0144986
0.0145107
0.0145506
0.0145046
0.0145137
0.0145565
0.0145531
0.0145085
0.014507
0.0145341
0.0144786
0.0145485
0.0144788
0.0145339
0.0145235
0.0144947
0.0145057
0.0145011
0.0145041
0.0144932
0.0144812
0.0145061
0.0145482
0.0145338
0.0144881
0.0145062
0.0144999
0.0145059
0.0145381
0.0144785
0.0145523
0.014509
0.0144995
0.0144786
0.0145373
0.0145058
0.0145223
0.0145059
0.0145488
0.0145073
0.0145069
0.0145121
0.0145124
0.0145283
0.0145174
0.0145057
0.0145421
0.0145094
0.014506
0.0145061
0.0145039
0.0145366
0.0145363
0.0145095
0.0145172
0.0145416
0.014557
0.0145441
0.0145366
0.0145065
0.0145366
0.0145367
0.0145421
0.0145365
0.0144919
0.0145344
0.0145442
0.0145033
0.0145342
0.0144989
0.0144919
0.014508
0.0144877
0.0145065
0.0145421
0.0145062
0.0145063
0.0145371
0.0145011
0.0145447
0.0145011
0.0144985
0.0144916
0.0145061
0.014501
0.0145474
0.0145342
0.014542
0.014506
0.014509
0.0145086
0.0144999
0.0145058
0.0145027
0.0145057
0.0145209
0.0145323
0.0145
0.014542
0.0144995
0.0145025
0.0145386
0.0144956
0.0145056
0.0144949
0.0145046
0.014507
0.0144994
0.0145281
0.014504
0.0145316
0.0144986
0.0145042
0.0145042
0.0145051
0.0145047
0.0145047
0.0145048
0.0145055
0.0144944
0.0144946
0.0144943
0.0144943
0.0144885
0.0144884
0.0145286
0.0145053
0.0145076
0.0145176
0.0144938
0.0144936
0.0145074
0.0145321
0.0145079
0.0145061
0.0145278
0.0144954
0.0145281
0.0144992
0.0145082
0.0145276
0.0145313
0.0145485
0.0145479
0.0144994
0.0145499
0.0145103
0.0145316
0.0145214
0.014508
0.0145044
0.014475
0.0145046
0.0145504
0.0145316
0.0145077
0.0145079
0.0145325
0.0145044
0.014522
0.014475
0.0145315
0.0145041
0.0145015
0.0145086
0.014494
0.0145014
0.0144881
0.0145095
0.0145554
0.0145581
0.0144901
0.014515
0.014508
0.0145281
0.0144953
0.0145033
0.0145315
0.0145031
0.0145258
0.0145066
0.0145258
0.014532
0.0144693
0.0144912
0.0144936
0.0144938
0.0145055
0.0145253
0.0144817
0.0145018
0.0145169
0.014525
0.0145273
0.0144901
0.0145278
0.014492
0.0145265
0.0145587
0.0145254
0.0145492
0.0144984
0.0145278
0.0144694
0.0145265
0.0145001
0.0145286
0.0145007
0.0145267
0.0145114
0.0145614
0.0145129
0.014528
0.0144904
0.0145283
0.0145169
0.0145007
0.0145055
0.0145266
0.0145253
0.0145222
0.0144985
0.0145254
0.014508
0.0145114
0.0144882
0.0145253
0.0145225
0.0145158
0.0145218
0.0145261
0.0145216
0.0144962
0.0145081
0.0145222
0.0145281
0.0145061
0.0145059
0.0145257
0.0144883
0.0145779
0.0145117
0.0145484
0.0145155
0.0146174
0.0146173
0.0146169
0.0146171
0.0146168
0.0146176
0.0146173
0.0144981
0.0144837
0.0145093
0.0145172
0.0145214
0.0145218
0.0145066
0.0145223
0.0145226
0.0144836
0.0145218
0.0144951
0.0145345
0.0144955
0.0145126
0.0145174
0.0145221
0.0144899
0.0145117
0.0145168
0.0145116
0.0145167
0.0145224
0.0145331
0.0145174
0.0145123
0.0144948
0.0145207
0.0145231
0.014521
0.0145178
0.0145125
0.0145065
0.0145211
0.0145066
0.0145132
0.0145176
0.0145078
0.014513
0.014522
0.0145008
0.0145161
0.0144844
0.0145586
0.0144981
0.0144963
0.0145125
0.0145159
0.0145026
0.014577
0.0145125
0.0145163
0.014561
0.0144698
0.0144696
0.0145117
0.0145215
0.0145154
0.0145207
0.0144585
0.0144585
0.0145078
0.0145077
0.014508
0.0145772
0.0145226
0.0144998
0.0145176
0.0145183
0.0145177
0.0145784
0.0145012
0.0145219
0.0145119
0.0145119
0.0145183
0.0145169
0.0145184
0.0145177
0.0145653
0.014549
0.014517
0.0145118
0.0145161
0.0145186
0.0145166
0.0145156
0.0145161
0.0145586
0.0144938
0.0145211
0.0145028
0.0145008
0.014559
0.0145122
0.0145128
0.0144882
0.0144703
0.0144703
0.0144912
0.0145228
0.0145121
0.0145598
0.0144717
0.0144602
0.0144602
0.0145792
0.0144797
0.0144764
0.0145128
0.0144924
0.0145094
0.0145055
0.0145006
0.0144988
0.014508
0.0145772
0.014511
0.0145034
0.0144999
0.0145696
0.0144788
0.0145623
0.0145002
0.0145053
0.014527
0.0145098
0.0145083
0.0144875
0.0145073
0.0144876
0.0145118
0.0144998
0.0144776
0.0144772
0.0145596
0.0145046
0.0145816
0.0145802
0.0145832
0.0145012
0.0145781
0.0145848
0.0145186
0.0145824
0.0144844
0.0144845
0.0145813
0.0145157
0.0145651
0.014582
0.0145665
0.0145823
0.0145665
0.0144793
0.0145623
0.0145778
0.0145814
0.0145086
0.0144972
0.0145677
0.0145084
0.0145843
0.014506
0.0145152
0.0145828
0.0145688
0.0145839
0.0145792
0.0145131
0.0144832
0.0144615
0.0144624
0.0145048
0.0144617
0.0144617
0.0144621
0.0144678
0.0145609
0.0144781
0.0144907
0.0144831
0.0145057
0.0144663
0.0144664
0.0144818
0.01458
0.0145159
0.0145791
0.0145635
0.0145629
0.0144726
0.0144728
0.0144733
0.0144731
0.0144727
0.0144628
0.0144732
0.0144663
0.0144613
0.0144724
0.0144724
0.014461
0.0144626
0.014466
0.0144737
SCALARS rr_(S) float
LOOKUP_TABLE default
0.768811
0.769026
0.769008
0.76902
0.769098
0.769008
0.76881
0.769023
0.768991
0.769027
0.768804
0.769023
0.769018
0.769031
0.769069
0.769012
0.769039
0.769018
0.768977
0.769001
0.769001
0.769188
0.768999
0.769002
0.769001
0.769021
0.768846
0.769011
0.768915
0.769133
0.769018
0.768915
0.768845
0.769117
0.769126
0.769116
0.769134
0.769123
0.769018
0.768846
0.768914
0.769135
0.769134
0.769017
0.76886
0.76892
0.768983
0.768994
0.769009
0.7689
0.768909
0.76894
0.769091
0.768942
0.769089
0.768875
0.769127
0.768941
0.769127
0.769002
0.769036
0.769061
0.768866
0.769061
0.769062
0.769042
0.769037
0.769022
0.769
0.769026
0.769091
0.769091
0.768915
0.76905
0.76901
0.768832
0.769077
0.769042
0.769021
0.768943
0.7689
0.769106
0.769049
0.768891
0.768925
0.768867
0.769011
0.769047
0.76886
0.769177
0.768941
0.769177
0.769077
0.76904
0.768944
0.768905
0.768901
0.769026
0.769077
0.769016
0.768967
0.768931
0.76889
0.769018
0.769024
0.769024
0.769053
0.769015
0.76889
0.769027
0.769003
0.768869
0.768881
0.769018
0.769023
0.768943
0.769129
0.768901
0.769128
0.768944
0.768973
0.769066
0.769025
0.769045
0.76903
0.769071
0.769119
0.769026
0.768901
0.768943
0.76909
0.769023
0.769047
0.769024
0.768932
0.769127
0.768889
0.76902
0.769049
0.769126
0.768934
0.769031
0.768978
0.769027
0.7689
0.769022
0.769027
0.769011
0.769008
0.768959
0.768993
0.769025
0.768914
0.769019
0.769027
0.769023
0.769035
0.768937
0.768938
0.769016
0.768995
0.768916
0.768868
0.768908
0.768936
0.769024
0.768937
0.768937
0.768915
0.768937
0.769078
0.768941
0.768908
0.769038
0.768942
0.769052
0.769078
0.769024
0.769094
0.769027
0.768916
0.769025
0.769026
0.768934
0.769047
0.768907
0.769044
0.769055
0.769081
0.769026
0.769047
0.768904
0.768942
0.768915
0.769024
0.769016
0.769017
0.769047
0.769024
0.769041
0.769025
0.768981
0.768945
0.769046
0.768917
0.769048
0.769043
0.768929
0.769065
0.769026
0.769069
0.769034
0.769024
0.769049
0.768959
0.769037
0.768948
0.769054
0.769029
0.769029
0.769025
0.769027
0.769027
0.769027
0.76903
0.769067
0.769066
0.769067
0.769067
0.769091
0.769091
0.768958
0.76903
0.769016
0.768994
0.76907
0.769071
0.769017
0.768945
0.769014
0.769026
0.768961
0.769065
0.76896
0.769051
0.769013
0.768961
0.768949
0.768899
0.768896
0.769049
0.768897
0.769015
0.768948
0.768979
0.769014
0.769028
0.769138
0.769027
0.768897
0.768947
0.769015
0.769023
0.768944
0.769028
0.76898
0.769137
0.768948
0.76903
0.769044
0.769017
0.769069
0.769047
0.769092
0.769017
0.768875
0.768866
0.769086
0.769
0.769023
0.768962
0.769066
0.769038
0.768947
0.76904
0.768968
0.769029
0.768969
0.768946
0.769159
0.76908
0.769069
0.769068
0.769029
0.768971
0.769114
0.769043
0.768995
0.768971
0.768964
0.769085
0.768961
0.769079
0.768967
0.768861
0.76897
0.768899
0.769055
0.76896
0.769159
0.768967
0.769049
0.768958
0.769047
0.768966
0.769012
0.768866
0.769005
0.76896
0.769082
0.768958
0.768995
0.769049
0.769026
0.768966
0.76897
0.768979
0.769056
0.768969
0.769024
0.769011
0.769093
0.768971
0.768978
0.768999
0.768981
0.768968
0.768981
0.769064
0.769022
0.768979
0.76896
0.76903
0.76903
0.768969
0.769092
0.768796
0.769013
0.768899
0.769
0.768651
0.768652
0.768652
0.768652
0.768651
0.768654
0.768656
0.769056
0.769108
0.769017
0.768994
0.768979
0.768981
0.769029
0.768979
0.768977
0.769109
0.76898
0.769068
0.768941
0.769062
0.769008
0.768993
0.76898
0.769088
0.769012
0.768995
0.769012
0.768995
0.768976
0.768943
0.768993
0.76901
0.769068
0.768982
0.768974
0.768981
0.768991
0.769009
0.769028
0.768981
0.769028
0.769006
0.768992
0.769024
0.769006
0.768979
0.769045
0.768998
0.769105
0.768861
0.769056
0.769064
0.769009
0.768999
0.76904
0.768801
0.769007
0.768998
0.768867
0.76916
0.769161
0.769011
0.768979
0.769001
0.768982
0.769204
0.769203
0.769021
0.769024
0.769023
0.768803
0.768975
0.76905
0.768994
0.768992
0.768992
0.768794
0.769045
0.768978
0.769011
0.769011
0.768991
0.768995
0.768991
0.768993
0.768847
0.7689
0.768994
0.769012
0.768998
0.76899
0.768996
0.769
0.768998
0.768862
0.769071
0.76898
0.76904
0.769046
0.768861
0.769008
0.769006
0.769093
0.769153
0.769153
0.76908
0.768975
0.769011
0.768858
0.769148
0.769193
0.769193
0.768791
0.769123
0.769132
0.769008
0.769077
0.769016
0.769028
0.769045
0.769054
0.769024
0.768799
0.769013
0.769039
0.76905
0.768831
0.769124
0.768866
0.769046
0.769032
0.768964
0.769016
0.769023
0.769092
0.769025
0.769092
0.76901
0.769051
0.769129
0.769132
0.768861
0.769032
0.768806
0.768813
0.768798
0.769046
0.7688
0.768791
0.76899
0.768801
0.769106
0.769106
0.768807
0.768996
0.76885
0.768807
0.768843
0.768806
0.768843
0.769125
0.768851
0.768801
0.768805
0.769022
0.769059
0.76884
0.769022
0.768791
0.769029
0.768999
0.768804
0.768835
0.768799
0.768791
0.769006
0.76911
0.769187
0.769183
0.769033
0.769186
0.769186
0.769185
0.769164
0.768856
0.769127
0.769083
0.769112
0.76903
0.76917
0.76917
0.769117
0.768787
0.768997
0.768798
0.768863
0.768859
0.769144
0.769143
0.769142
0.769143
0.769143
0.769184
0.769146
0.769172
0.769191
0.769147
0.769147
0.769192
0.769184
0.769172
0.769142
SCALARS rr_(P) float
LOOKUP_TABLE default
0.0168217
0.0167794
0.0167832
0.0167801
0.0167687
0.0167833
0.0168218
0.0167807
0.0167868
0.0167796
0.0168187
0.0167807
0.0167816
0.0167791
0.0167726
0.0167826
0.0167775
0.0167812
0.0167886
0.0167843
0.0167849
0.0167539
0.0167848
0.0167842
0.0167843
0.0167805
0.016813
0.0167827
0.0168001
0.0167625
0.0167818
0.0168
0.0168136
0.0167651
0.0167639
0.0167652
0.016762
0.0167645
0.0167818
0.0168135
0.0168002
0.0167619
0.0167619
0.0167817
0.0168095
0.0167995
0.0167877
0.0167861
0.0167831
0.0168027
0.0168012
0.0167959
0.0167693
0.0167958
0.0167696
0.0168083
0.0167638
0.0167957
0.0167639
0.016784
0.0167776
0.0167742
0.0168103
0.0167744
0.0167741
0.0167776
0.0167775
0.0167805
0.0167845
0.0167793
0.0167693
0.0167694
0.0168003
0.0167762
0.0167831
0.0168153
0.0167719
0.0167776
0.0167805
0.0167949
0.0168036
0.0167674
0.0167759
0.0168048
0.0167989
0.0168091
0.0167827
0.0167769
0.0168094
0.0167559
0.0167958
0.016756
0.0167716
0.016778
0.0167954
0.0168016
0.0168036
0.0167797
0.0167719
0.016782
0.0167911
0.016798
0.0168048
0.0167808
0.01678
0.01678
0.0167753
0.0167823
0.0168049
0.0167787
0.016784
0.0168082
0.0168063
0.016781
0.0167802
0.0167956
0.0167639
0.0168038
0.016764
0.0167955
0.0167896
0.0167731
0.0167794
0.0167768
0.0167784
0.0167722
0.0167653
0.0167797
0.0168036
0.0167954
0.0167693
0.0167797
0.0167761
0.0167795
0.0167979
0.0167638
0.0168059
0.0167813
0.0167758
0.0167638
0.0167974
0.0167795
0.0167889
0.0167796
0.0168039
0.0167803
0.0167801
0.0167831
0.0167833
0.0167923
0.0167861
0.0167794
0.0168001
0.0167816
0.0167796
0.0167796
0.0167784
0.016797
0.0167969
0.0167816
0.016786
0.0167998
0.0168085
0.0168012
0.016797
0.0167799
0.016797
0.0167971
0.0168001
0.016797
0.0167715
0.0167957
0.0168013
0.0167781
0.0167957
0.0167755
0.0167715
0.0167807
0.0167691
0.0167799
0.0168001
0.0167797
0.0167798
0.0167973
0.0167768
0.0168016
0.0167768
0.0167753
0.0167713
0.0167797
0.0167768
0.0168031
0.0167957
0.0168
0.0167796
0.0167813
0.0167811
0.0167761
0.0167795
0.0167777
0.0167794
0.0167881
0.0167946
0.0167762
0.0168
0.0167759
0.0167776
0.0167982
0.0167736
0.0167793
0.0167732
0.0167788
0.0167802
0.0167758
0.0167922
0.0167785
0.0167942
0.0167753
0.0167785
0.0167785
0.016779
0.0167788
0.0167788
0.0167788
0.0167793
0.0167729
0.016773
0.0167729
0.0167728
0.0167695
0.0167695
0.0167925
0.0167792
0.0167804
0.0167863
0.0167726
0.0167724
0.0167803
0.0167945
0.0167806
0.0167797
0.016792
0.0167735
0.0167922
0.0167757
0.0167807
0.0167919
0.016794
0.0168037
0.0168033
0.0167758
0.0168046
0.0167821
0.0167942
0.0167884
0.0167807
0.0167786
0.0167617
0.0167787
0.0168049
0.0167942
0.0167805
0.0167807
0.0167947
0.0167786
0.0167887
0.0167617
0.0167941
0.0167784
0.016777
0.0167811
0.0167727
0.016777
0.0167693
0.0167816
0.0168076
0.0168091
0.0167705
0.0167848
0.0167807
0.0167922
0.0167735
0.0167781
0.0167941
0.016778
0.0167909
0.01678
0.0167909
0.0167944
0.0167584
0.0167711
0.0167724
0.0167725
0.0167793
0.0167906
0.0167656
0.0167772
0.0167859
0.0167905
0.0167918
0.0167705
0.016792
0.0167716
0.0167914
0.0168094
0.0167907
0.0168041
0.0167752
0.016792
0.0167584
0.0167913
0.0167762
0.0167925
0.0167766
0.0167914
0.0167827
0.0168111
0.0167836
0.0167921
0.0167706
0.0167923
0.0167858
0.0167766
0.0167793
0.0167914
0.0167907
0.0167888
0.0167753
0.0167907
0.0167807
0.0167827
0.0167694
0.0167907
0.0167891
0.0167852
0.0167886
0.0167911
0.0167885
0.016774
0.0167808
0.0167889
0.0167922
0.0167797
0.0167796
0.0167909
0.0167695
0.0168202
0.0167829
0.0168037
0.016785
0.0168423
0.0168422
0.0168419
0.016842
0.0168419
0.0168424
0.0168422
0.0167751
0.0167667
0.0167815
0.016786
0.0167884
0.0167886
0.0167799
0.0167889
0.0167891
0.0167667
0.0167886
0.0167733
0.0167958
0.0167735
0.0167834
0.0167861
0.0167888
0.0167704
0.0167829
0.0167858
0.0167828
0.0167858
0.016789
0.016795
0.0167861
0.0167833
0.0167732
0.016788
0.0167893
0.0167882
0.0167864
0.0167834
0.0167799
0.0167882
0.01678
0.0167837
0.0167862
0.0167807
0.0167836
0.0167887
0.0167766
0.0167854
0.0167671
0.0168094
0.0167751
0.016774
0.0167833
0.0167853
0.0167777
0.0168197
0.0167833
0.0167855
0.0168108
0.0167587
0.0167586
0.0167829
0.0167884
0.016785
0.016788
0.0167522
0.0167522
0.0167806
0.0167806
0.0167808
0.0168198
0.0167891
0.016776
0.0167863
0.0167866
0.0167863
0.0168204
0.0167768
0.0167887
0.016783
0.016783
0.0167867
0.0167859
0.0167867
0.0167863
0.0168132
0.016804
0.0167859
0.0167829
0.0167854
0.0167869
0.0167857
0.0167851
0.0167854
0.0168094
0.0167726
0.0167882
0.0167778
0.0167766
0.0168096
0.0167832
0.0167835
0.0167694
0.0167589
0.0167589
0.0167711
0.0167892
0.0167831
0.01681
0.0167598
0.0167532
0.0167532
0.0168209
0.0167645
0.0167625
0.0167835
0.0167718
0.0167815
0.0167793
0.0167765
0.0167755
0.0167807
0.0168198
0.0167825
0.0167781
0.0167761
0.0168156
0.0167639
0.0168116
0.0167762
0.0167792
0.0167916
0.0167818
0.0167809
0.016769
0.0167804
0.016769
0.0167829
0.0167761
0.0167632
0.0167629
0.0168099
0.0167788
0.0168224
0.0168217
0.0168233
0.0167769
0.0168203
0.0168242
0.0167868
0.0168229
0.0167672
0.0167673
0.0168223
0.0167851
0.0168131
0.0168227
0.0168139
0.0168229
0.0168139
0.0167642
0.0168115
0.0168201
0.0168223
0.0167811
0.0167745
0.0168145
0.016781
0.0168239
0.0167796
0.0167849
0.0168231
0.0168151
0.0168238
0.0168209
0.0167837
0.0167665
0.0167539
0.0167544
0.0167789
0.016754
0.016754
0.0167542
0.0167575
0.0168107
0.0167635
0.0167708
0.0167664
0.0167794
0.0167567
0.0167567
0.0167657
0.0168213
0.0167853
0.0168209
0.0168123
0.0168119
0.0167603
0.0167604
0.0167607
0.0167606
0.0167603
0.0167546
0.0167606
0.0167566
0.0167538
0.0167602
0.0167601
0.0167536
0.0167545
0.0167565
0.0167609
SCALARS rr_(T) float
LOOKUP_TABLE default
0.0450244
0.0450513
0.0450488
0.0450506
0.0450619
0.0450487
0.0450243
0.0450507
0.0450463
0.0450513
0.0450251
0.0450507
0.04505
0.045052
0.0450579
0.0450491
0.0450533
0.0450502
0.045045
0.045048
0.0450477
0.045077
0.0450477
0.0450481
0.0450479
0.0450508
0.0450293
0.0450494
0.0450374
0.0450681
0.0450499
0.0450374
0.045029
0.0450656
0.0450666
0.0450655
0.0450685
0.045066
0.0450499
0.0450291
0.0450373
0.0450687
0.0450686
0.0450498
0.0450313
0.0450378
0.0450456
0.0450468
0.045049
0.0450357
0.0450367
0.0450402
0.0450613
0.0450403
0.045061
0.0450323
0.0450667
0.0450403
0.0450667
0.0450482
0.0450531
0.0450563
0.0450313
0.0450562
0.0450564
0.0450536
0.0450533
0.0450508
0.0450478
0.0450515
0.0450612
0.0450612
0.0450373
0.0450548
0.0450488
0.0450277
0.0450588
0.0450536
0.0450508
0.0450408
0.0450353
0.0450631
0.0450548
0.0450344
0.0450383
0.0450317
0.0450493
0.0450543
0.0450313
0.0450752
0.0450403
0.0450752
0.045059
0.0450533
0.0450405
0.0450364
0.0450354
0.0450512
0.0450587
0.0450497
0.0450434
0.0450389
0.0450344
0.0450503
0.0450512
0.0450509
0.0450555
0.0450495
0.0450344
0.0450519
0.0450482
0.0450322
0.0450334
0.0450502
0.0450508
0.0450404
0.0450667
0.0450353
0.0450666
0.0450405
0.0450444
0.0450574
0.0450513
0.045054
0.0450522
0.0450584
0.0450653
0.0450512
0.0450354
0.0450405
0.0450614
0.0450511
0.0450546
0.0450512
0.045039
0.0450668
0.0450339
0.0450504
0.0450548
0.0450668
0.0450393
0.0450519
0.0450449
0.0450516
0.0450352
0.0450507
0.0450516
0.0450491
0.0450487
0.0450426
0.0450468
0.0450513
0.0450374
0.04505
0.0450515
0.0450511
0.0450525
0.0450395
0.0450396
0.0450498
0.0450468
0.0450376
0.045032
0.0450367
0.0450395
0.045051
0.0450395
0.0450395
0.0450374
0.0450396
0.0450592
0.0450403
0.0450366
0.0450528
0.0450404
0.0450554
0.0450591
0.045051
0.0450614
0.0450514
0.0450374
0.0450511
0.0450511
0.0450393
0.0450543
0.0450364
0.045054
0.0450555
0.0450593
0.0450512
0.0450544
0.0450356
0.0450404
0.0450374
0.0450512
0.04505
0.0450502
0.0450545
0.0450513
0.0450535
0.0450514
0.0450453
0.045041
0.0450545
0.0450375
0.0450547
0.0450536
0.0450388
0.0450573
0.0450514
0.0450575
0.0450525
0.0450511
0.0450548
0.0450427
0.0450528
0.0450412
0.0450555
0.0450521
0.0450521
0.0450516
0.0450517
0.0450518
0.0450517
0.0450519
0.0450575
0.0450574
0.0450576
0.0450576
0.0450612
0.0450612
0.0450424
0.0450519
0.0450502
0.0450466
0.0450579
0.0450581
0.0450503
0.0450411
0.04505
0.0450512
0.0450428
0.0450573
0.0450426
0.045055
0.0450499
0.0450428
0.0450414
0.0450353
0.0450353
0.0450548
0.0450348
0.0450495
0.0450412
0.0450452
0.04505
0.045052
0.045069
0.0450518
0.0450347
0.0450413
0.0450502
0.0450509
0.0450409
0.0450519
0.0450451
0.0450689
0.0450413
0.0450522
0.0450538
0.0450501
0.0450578
0.0450542
0.0450614
0.0450498
0.0450327
0.0450317
0.0450603
0.0450476
0.0450509
0.0450427
0.0450574
0.0450528
0.0450413
0.0450533
0.0450435
0.0450517
0.0450435
0.0450411
0.0450724
0.0450595
0.045058
0.045058
0.0450518
0.0450437
0.0450651
0.0450536
0.045047
0.0450438
0.0450429
0.0450602
0.0450427
0.0450591
0.0450432
0.0450313
0.0450437
0.0450351
0.0450557
0.0450427
0.0450724
0.0450432
0.0450548
0.0450424
0.0450542
0.0450432
0.0450491
0.045031
0.0450484
0.0450427
0.04506
0.0450426
0.0450471
0.0450544
0.0450515
0.0450432
0.0450437
0.045045
0.0450557
0.0450436
0.0450508
0.0450493
0.0450613
0.0450437
0.0450448
0.0450475
0.0450451
0.0450434
0.0450452
0.045057
0.0450507
0.0450449
0.0450427
0.0450518
0.0450518
0.0450436
0.0450612
0.0450242
0.0450494
0.0450353
0.0450477
0.0450089
0.0450089
0.0450091
0.045009
0.045009
0.0450089
0.045009
0.0450558
0.045064
0.04505
0.045047
0.0450452
0.0450451
0.0450516
0.0450449
0.0450447
0.0450641
0.0450451
0.0450574
0.0450403
0.0450569
0.0450488
0.0450469
0.045045
0.0450604
0.0450493
0.0450471
0.0450493
0.0450471
0.0450447
0.0450407
0.0450469
0.045049
0.0450575
0.0450455
0.0450444
0.0450453
0.0450466
0.0450489
0.0450517
0.0450453
0.0450516
0.0450485
0.0450468
0.045051
0.0450485
0.045045
0.0450541
0.0450473
0.0450635
0.0450314
0.0450557
0.045057
0.045049
0.0450473
0.0450534
0.0450246
0.0450488
0.0450473
0.0450311
0.0450722
0.0450724
0.0450493
0.0450451
0.0450476
0.0450455
0.0450791
0.045079
0.0450505
0.045051
0.045051
0.0450246
0.0450446
0.0450547
0.0450466
0.0450464
0.0450467
0.045024
0.0450543
0.0450449
0.0450492
0.0450492
0.0450463
0.045047
0.0450463
0.0450466
0.0450292
0.0450351
0.045047
0.0450493
0.0450473
0.0450462
0.0450471
0.0450475
0.0450473
0.0450314
0.0450582
0.0450453
0.0450533
0.0450544
0.0450313
0.0450487
0.0450485
0.0450613
0.0450719
0.0450718
0.0450597
0.0450446
0.0450492
0.0450309
0.045071
0.0450778
0.0450777
0.0450237
0.045066
0.0450681
0.0450488
0.0450589
0.0450499
0.0450515
0.0450543
0.0450555
0.045051
0.0450245
0.0450493
0.045053
0.0450546
0.0450275
0.0450667
0.0450307
0.0450544
0.0450519
0.0450431
0.0450497
0.0450508
0.0450617
0.045051
0.0450617
0.0450489
0.0450548
0.0450676
0.0450678
0.0450311
0.0450522
0.0450239
0.0450246
0.0450232
0.0450542
0.0450243
0.0450226
0.0450462
0.0450236
0.0450633
0.0450632
0.0450241
0.0450473
0.0450293
0.0450239
0.0450288
0.0450238
0.0450288
0.0450664
0.04503
0.0450244
0.045024
0.0450506
0.0450562
0.0450283
0.0450508
0.0450227
0.0450518
0.0450476
0.0450235
0.0450279
0.0450231
0.0450237
0.0450486
0.0450641
0.045077
0.0450765
0.0450524
0.0450769
0.0450769
0.0450767
0.0450734
0.0450306
0.0450672
0.04506
0.0450643
0.045052
0.0450743
0.0450743
0.045065
0.0450234
0.0450472
0.045024
0.0450304
0.0450304
0.0450704
0.0450703
0.04507
0.0450701
0.0450703
0.0450763
0.0450701
0.0450744
0.0450773
0.0450706
0.0450706
0.0450774
0.0450764
0.0450745
0.0450699
SCALARS rr_tsim float
LOOKUP_TABLE default
120
120
120
120
120
120
120
120
120
120
120
120
120
120
120
120
120
120
120
120
120
120
120
120
120
120
120
120
120
120
120
120
120
120
120
120
120
120
120
120
120
120
120
120
120
120
120
120
120
120
120
120
120
120
120
120
120
120
120
120
120
120
120
120
120
120
120
120
120
120
120
120
120
120
120
120
120
120
120
120
120
120
120
120
120
120
120
120
120
120
120
120
120
120
120
120
120
120
120
120
120
120
120
120
120
120
120
120
120
120
120
120
120
120
120
120
120
120
120
120
120
120
120
120
120
120
120
120
120
120
120
120
120
120
120
120
120
120
120
120
120
120
120
120
120
120
120
120
120
120
120
120
120
120
120
120
120
120
120
120
120
120
120
120
120
120
120
120
120
120
120
120
120
120
120
120
120
120
120
120
120
120
120
120
120
120
120
120
120
120
120
120
120
120
120
120
120
120
120
120
120
120
120
120
120
120
120
120
120
120
120
120
120
120
120
120
120
120
120
120
120
120
120
120
120
120
120
120
120
120
120
120
120
120
120
120
120
120
120
120
120
120
120
120
120
120
120
120
120
120
120
120
120
120
120
120
120
120
120
120
120
120
120
120
120
120
120
120
120
120
120
120
120
120
120
120
120
120
120
120
120
120
120
120
120
120
120
120
120
120
120
120
120
120
120
120
120
120
120
120
120
120
120
120
120
120
120
120
120
120
120
120
120
120
120
120
120
120
120
120
120
120
120
120
120
120
120
120
120
120
120
120
120
120
120
120
120
120
120
120
120
120
120
120
120
120
120
120
120
120
120
120
120
120
120
120
120
120
120
120
120
120
120
120
120
120
120
120
120
120
120
120
120
120
120
120
120
120
120
120
120
120
120
120
120
120
120
120
120
120
120
120
120
120
120
120
120
120
120
120
120
120
120
120
120
120
120
120
120
120
120
120
120
120
120
120
120
120
120
120
120
120
120
120
120
120
120
120
120
120
120
120
120
120
120
120
120
120
120
120
120
120
120
120
120
120
120
120
120
120
120
120
120
120
120
120
120
120
120
120
120
120
120
120
120
120
120
120
120
120
120
120
120
120
120
120
120
120
120
120
120
120
120
120
120
120
120
120
120
120
120
120
120
120
120
120
120
120
120
120
120
120
120
120
120
120
120
120
120
120
120
120
120
120
120
120
120
120
120
120
120
120
120
120
120
120
120
120
120
120
120
120
120
120
120
120
120
120
120
120
120
120
120
120
120
120
120
120
120
120
120
120
120
120
120
120
120
120
120
120
120
120
120
SCALARS rr_Vext float
LOOKUP_TABLE default
0.181361
0.449133
0.356056
0.468119
0.250496
0.377836
0.179276
0.465099
0.395115
0.504576
0.165391
0.466518
0.409834
0.435022
0.516144
0.424874
0.369051
0.414193
0.365539
0.360535
0.405117
0.0765111
0.415078
0.383022
0.347113
0.40348
0.155012
0.352841
0.267418
0.33925
0.361977
0.27649
0.171522
0.252904
0.24925
0.253455
0.33013
0.249494
0.361547
0.192839
0.224725
0.291053
0.291063
0.39728
0.216889
0.244124
0.344619
0.350191
0.330086
0.303766
0.312859
0.245241
0.401524
0.315213
0.36942
0.157756
0.266182
0.317522
0.266154
0.393193
0.470939
0.464881
0.153278
0.327648
0.445322
0.417382
0.455664
0.391913
0.357993
0.515567
0.435561
0.430797
0.277659
0.338751
0.35398
0.176428
0.372682
0.413485
0.395177
0.271138
0.240494
0.283511
0.527542
0.240254
0.327766
0.119293
0.407588
0.344616
0.229709
0.0374831
0.273098
0.040761
0.316363
0.299318
0.258664
0.232987
0.220912
0.44294
0.372917
0.351863
0.293541
0.277775
0.230482
0.418585
0.426146
0.38384
0.340633
0.340855
0.244633
0.512529
0.326033
0.164041
0.22006
0.457888
0.429727
0.304488
0.308635
0.183511
0.320039
0.303372
0.266991
0.502658
0.511821
0.442048
0.484535
0.384958
0.220818
0.47822
0.200082
0.262284
0.227506
0.456404
0.449032
0.448258
0.288942
0.187539
0.190641
0.327446
0.404476
0.187462
0.241546
0.387297
0.287975
0.472767
0.223279
0.385197
0.349738
0.336134
0.214794
0.269551
0.304305
0.440635
0.248031
0.397419
0.461999
0.469252
0.307862
0.249012
0.247661
0.401144
0.333859
0.246121
0.160079
0.239708
0.240471
0.430964
0.252353
0.255105
0.274625
0.245943
0.38635
0.258188
0.226063
0.29772
0.272816
0.340312
0.382124
0.36114
0.313982
0.360852
0.266571
0.418255
0.448861
0.241619
0.442308
0.239444
0.436803
0.402744
0.378972
0.379422
0.446235
0.200778
0.266933
0.246021
0.447419
0.439029
0.407207
0.447902
0.452961
0.381872
0.466579
0.307722
0.274115
0.512741
0.285552
0.465962
0.369968
0.226659
0.286346
0.461734
0.389041
0.350314
0.450065
0.445264
0.278864
0.284226
0.267548
0.39546
0.433428
0.498102
0.478098
0.520381
0.471567
0.515297
0.432064
0.457209
0.460659
0.434362
0.456365
0.422925
0.416641
0.282416
0.389418
0.454304
0.312126
0.47028
0.432163
0.49267
0.288251
0.468286
0.448686
0.284505
0.40692
0.282474
0.455246
0.411298
0.29626
0.277683
0.235556
0.271101
0.455781
0.197504
0.347027
0.276533
0.313909
0.468681
0.455557
0.14779
0.457113
0.236434
0.261769
0.46628
0.379034
0.26459
0.522192
0.291236
0.147781
0.267729
0.406407
0.508931
0.382697
0.457762
0.425163
0.226618
0.216736
0.175981
0.201431
0.308139
0.22908
0.371988
0.227529
0.406399
0.287628
0.268106
0.323959
0.293527
0.398529
0.281492
0.287601
0.136371
0.303576
0.437817
0.438065
0.391532
0.281121
0.192361
0.545888
0.360495
0.298323
0.274296
0.28498
0.282734
0.358848
0.278096
0.192062
0.274797
0.183499
0.351073
0.279581
0.127092
0.263726
0.321343
0.27932
0.443677
0.290715
0.381475
0.138316
0.305668
0.287019
0.261628
0.269323
0.321998
0.308728
0.321052
0.266569
0.271168
0.293865
0.403608
0.2761
0.39903
0.358794
0.290801
0.286479
0.290128
0.323378
0.289918
0.270122
0.308535
0.333034
0.387873
0.290174
0.286358
0.42515
0.419256
0.276217
0.290839
0.11737
0.342069
0.227681
0.319686
0.126305
0.131124
0.117234
0.11913
0.126412
0.133077
0.137187
0.365824
0.275206
0.269668
0.305539
0.296212
0.292413
0.314715
0.285998
0.292392
0.310827
0.291319
0.368794
0.261068
0.378839
0.289108
0.277584
0.291601
0.32277
0.328999
0.304701
0.351055
0.326036
0.300395
0.213979
0.303865
0.298867
0.328286
0.305314
0.288524
0.27504
0.304068
0.319097
0.436168
0.283311
0.424008
0.438667
0.29887
0.42287
0.322481
0.255682
0.356799
0.307323
0.229507
0.185273
0.353354
0.377144
0.313438
0.259547
0.317018
0.138205
0.309869
0.289518
0.140571
0.059749
0.0653758
0.268656
0.283299
0.331362
0.316592
0.031131
0.0325288
0.318185
0.321547
0.304247
0.103725
0.264731
0.315908
0.315647
0.27208
0.240286
0.107864
0.464473
0.28495
0.352166
0.357677
0.255167
0.32345
0.249479
0.275484
0.12974
0.199384
0.323811
0.327755
0.28033
0.293568
0.303663
0.32051
0.306414
0.143962
0.275783
0.301358
0.290889
0.437494
0.143859
0.233735
0.240576
0.234526
0.155626
0.15563
0.267702
0.20851
0.301878
0.153858
0.185527
0.061417
0.0614145
0.112311
0.199635
0.134972
0.257004
0.284541
0.297811
0.337006
0.307422
0.285236
0.222219
0.127172
0.278054
0.290585
0.282442
0.144131
0.147646
0.10463
0.281952
0.285975
0.224184
0.258254
0.238716
0.223793
0.292915
0.22376
0.257208
0.25139
0.158048
0.195242
0.16531
0.31065
0.112707
0.118919
0.11594
0.294537
0.107691
0.104733
0.200919
0.0979328
0.243157
0.243511
0.10066
0.255449
0.113724
0.11099
0.127156
0.105859
0.105724
0.174207
0.126242
0.112776
0.106278
0.235814
0.272662
0.118745
0.26032
0.0960774
0.264792
0.208175
0.100552
0.086436
0.0948703
0.126462
0.225555
0.192181
0.0824429
0.0914077
0.25386
0.0775863
0.077583
0.0878721
0.0979626
0.0995861
0.127335
0.207535
0.193796
0.253772
0.0775247
0.0775214
0.229254
0.0843474
0.178716
0.0765197
0.0783422
0.103272
0.198597
0.205597
0.218908
0.200661
0.198581
0.0438926
0.320383
0.055754
0.054342
0.25901
0.25724
0.0563348
0.0390574
0.0548048
0.238562
SCALARS rr_Vli float
LOOKUP_TABLE default
0.396488
0.903303
0.721407
0.942909
0.493005
0.765669
0.392035
0.937676
0.806272
1.01512
0.359836
0.940548
0.827707
0.874159
1.02413
0.859734
0.739399
0.83592
0.748801
0.732058
0.823485
0.146196
0.843743
0.777631
0.704892
0.813145
0.33335
0.714261
0.560611
0.659803
0.731229
0.579531
0.369273
0.494394
0.485906
0.495508
0.641459
0.486898
0.730486
0.415066
0.471213
0.565332
0.565391
0.802519
0.463324
0.51115
0.704665
0.713576
0.668685
0.640145
0.657318
0.509712
0.791285
0.654957
0.728502
0.336095
0.51881
0.659759
0.518793
0.798051
0.943869
0.925035
0.327841
0.652221
0.886015
0.8362
0.913005
0.789778
0.727293
1.03671
0.85851
0.849156
0.582213
0.676855
0.716973
0.381184
0.738163
0.828444
0.796426
0.562483
0.507625
0.55645
1.05351
0.508334
0.685387
0.25458
0.82508
0.689491
0.490663
0.0719436
0.567531
0.0782463
0.626353
0.600262
0.537111
0.489904
0.466219
0.891219
0.738711
0.711153
0.60422
0.579676
0.487751
0.844115
0.858086
0.772719
0.67955
0.689384
0.517761
1.02965
0.661681
0.34948
0.467061
0.923826
0.865441
0.632495
0.601615
0.387413
0.624004
0.629994
0.547963
0.998317
1.02948
0.884283
0.972862
0.763257
0.431752
0.962242
0.422254
0.544649
0.448455
0.918485
0.897115
0.901828
0.602902
0.365539
0.404183
0.660935
0.807737
0.365416
0.503541
0.778938
0.590244
0.951065
0.471533
0.776069
0.704326
0.680958
0.435249
0.556271
0.62025
0.886313
0.519984
0.802502
0.929447
0.944268
0.617857
0.518659
0.515716
0.810202
0.68021
0.515662
0.34124
0.503641
0.50093
0.86752
0.525647
0.531446
0.575699
0.512239
0.764771
0.536476
0.475017
0.597029
0.566761
0.679104
0.756455
0.728163
0.618514
0.726377
0.558762
0.841641
0.90331
0.503624
0.884787
0.503411
0.873812
0.803288
0.749919
0.763394
0.892546
0.423346
0.554573
0.515693
0.900215
0.886306
0.821716
0.894909
0.911202
0.765275
0.938422
0.629678
0.568295
1.02454
0.598474
0.930557
0.741282
0.473243
0.569201
0.928579
0.772732
0.703609
0.906441
0.889142
0.575332
0.570475
0.554203
0.788787
0.870383
1.00029
0.961022
1.04559
0.947457
1.03539
0.868717
0.907702
0.914774
0.862349
0.905937
0.833934
0.82152
0.583007
0.782799
0.915913
0.636242
0.933126
0.857214
0.99303
0.597479
0.944375
0.902761
0.586739
0.808806
0.582777
0.90886
0.829731
0.610884
0.574984
0.497308
0.572064
0.910107
0.417616
0.701486
0.572849
0.642716
0.945263
0.914973
0.286928
0.9183
0.500199
0.542261
0.940107
0.764205
0.548652
1.04888
0.596679
0.286929
0.554503
0.815983
1.01856
0.772239
0.908471
0.850828
0.446603
0.437755
0.374436
0.429885
0.608687
0.465562
0.749997
0.469387
0.807673
0.576821
0.555343
0.649551
0.603999
0.802282
0.579182
0.596023
0.26302
0.600446
0.868515
0.869134
0.787213
0.578066
0.376389
1.09286
0.734304
0.613262
0.56537
0.562961
0.583127
0.710463
0.57268
0.410198
0.56517
0.387693
0.70013
0.576603
0.24515
0.54308
0.642117
0.576623
0.887246
0.598801
0.772178
0.296224
0.619807
0.592066
0.517043
0.55582
0.655883
0.617318
0.645554
0.549013
0.557651
0.6022
0.804991
0.567874
0.804511
0.726247
0.573157
0.589131
0.59478
0.657847
0.593798
0.555998
0.631811
0.66255
0.782185
0.594655
0.590813
0.855292
0.843313
0.568304
0.573281
0.256089
0.692606
0.48063
0.650107
0.287607
0.298551
0.266804
0.271172
0.287683
0.303057
0.312312
0.729348
0.539726
0.544569
0.622608
0.606504
0.598936
0.633523
0.586135
0.599487
0.609472
0.596716
0.732662
0.542548
0.753111
0.586007
0.565702
0.597469
0.63747
0.666117
0.620596
0.71072
0.664001
0.615746
0.444042
0.619301
0.605575
0.652008
0.62464
0.591872
0.562875
0.620021
0.646725
0.877922
0.579861
0.853553
0.889744
0.609281
0.852434
0.653933
0.523844
0.713547
0.625429
0.450403
0.395667
0.704472
0.750317
0.635205
0.528052
0.635256
0.301237
0.628025
0.589269
0.300913
0.115299
0.126126
0.544007
0.580101
0.673741
0.647666
0.0592775
0.061939
0.6414
0.648091
0.613486
0.226114
0.542808
0.631016
0.643421
0.555018
0.489881
0.23547
0.929288
0.583737
0.713236
0.724387
0.520586
0.658852
0.508993
0.561651
0.279103
0.421179
0.659636
0.663712
0.570437
0.599128
0.61826
0.651897
0.623527
0.307429
0.5471
0.616835
0.583019
0.874907
0.307369
0.473536
0.487757
0.462243
0.300516
0.300536
0.529556
0.427595
0.61154
0.329007
0.358877
0.117176
0.117176
0.245399
0.389621
0.262495
0.521054
0.563542
0.601415
0.677651
0.614661
0.569073
0.448039
0.277252
0.56255
0.582804
0.564251
0.311558
0.287925
0.224285
0.563455
0.574853
0.461945
0.521751
0.481456
0.440839
0.590098
0.4408
0.520825
0.50215
0.307812
0.380029
0.353395
0.623986
0.246786
0.25998
0.254334
0.589286
0.234982
0.230139
0.410012
0.214645
0.477123
0.477845
0.220335
0.519614
0.244575
0.243123
0.273902
0.231959
0.22774
0.339831
0.270698
0.245997
0.232678
0.475752
0.543005
0.256117
0.525111
0.211012
0.532692
0.423222
0.220455
0.186664
0.208255
0.27632
0.45747
0.376609
0.157552
0.174883
0.509989
0.148307
0.148306
0.168049
0.188629
0.213206
0.248114
0.410276
0.379763
0.510344
0.149005
0.149004
0.448513
0.184462
0.363612
0.167149
0.168151
0.221554
0.384551
0.398196
0.424215
0.38878
0.384541
0.0840104
0.620733
0.107163
0.103829
0.501446
0.497967
0.107596
0.0747331
0.105301
0.462544
SCALARS rr_S_ext' float
LOOKUP_TABLE default
-0.00117301
-0.00267823
-0.00213855
-0.00279555
-0.00146251
-0.00226975
-0.00115983
-0.00278001
-0.0023897
-0.00300976
-0.00106468
-0.00278852
-0.00245387
-0.0025919
-0.00303746
-0.0025487
-0.00219248
-0.00247825
-0.00221914
-0.00217001
-0.00244096
-0.000433986
-0.00250099
-0.0023051
-0.00208947
-0.00241081
-0.000986647
-0.00211741
-0.00166043
-0.00195783
-0.00216784
-0.00171647
-0.00109294
-0.00146684
-0.00144177
-0.00147015
-0.00190344
-0.00144467
-0.00216562
-0.00122848
-0.00139564
-0.00167756
-0.00167773
-0.00237918
-0.00137158
-0.00151399
-0.00208844
-0.00211504
-0.00198227
-0.00189573
-0.00194674
-0.00151002
-0.00234727
-0.00194033
-0.002161
-0.000995031
-0.0015394
-0.00195455
-0.00153935
-0.00236565
-0.00279875
-0.0027434
-0.000970493
-0.0019343
-0.00262768
-0.00247953
-0.00270724
-0.00234154
-0.00215585
-0.00307379
-0.00254668
-0.00251893
-0.0017244
-0.00200717
-0.00212543
-0.00112808
-0.00218944
-0.00245653
-0.00236124
-0.00166643
-0.00150323
-0.00165083
-0.00312414
-0.00150523
-0.00203014
-0.000753661
-0.00244593
-0.00204457
-0.00145252
-0.000213543
-0.00168132
-0.000232249
-0.00185781
-0.00177988
-0.00159123
-0.00145089
-0.00138062
-0.00264239
-0.00219106
-0.00210829
-0.00179045
-0.00171711
-0.00144427
-0.00250259
-0.0025441
-0.00229102
-0.00201522
-0.00204371
-0.00153313
-0.00305291
-0.00196141
-0.00103465
-0.00138289
-0.00273888
-0.0025659
-0.0018738
-0.0017851
-0.00114724
-0.00185152
-0.0018664
-0.00162386
-0.00296084
-0.00305233
-0.0026222
-0.00288457
-0.00226379
-0.00128099
-0.00285296
-0.00125043
-0.00161356
-0.00133028
-0.0027232
-0.00266032
-0.00267383
-0.00178592
-0.00108462
-0.00119677
-0.00195948
-0.0023953
-0.00108425
-0.00149163
-0.00230952
-0.00174922
-0.00281984
-0.00139634
-0.0023009
-0.00208823
-0.00201865
-0.00129026
-0.00164825
-0.00183841
-0.00262784
-0.00154009
-0.00237916
-0.00275574
-0.00279965
-0.00183201
-0.00153645
-0.00152774
-0.00240196
-0.00201615
-0.00152732
-0.00101024
-0.0014916
-0.00148392
-0.00257209
-0.00155715
-0.00157432
-0.00170512
-0.00151743
-0.00226838
-0.00158932
-0.00140683
-0.00177029
-0.00167905
-0.00201389
-0.00224371
-0.00215884
-0.00183479
-0.00215363
-0.00165496
-0.00249539
-0.00267822
-0.00149188
-0.00262371
-0.0014909
-0.00259115
-0.00238219
-0.00222435
-0.0022634
-0.00264672
-0.00125369
-0.00164294
-0.00152739
-0.00266905
-0.0026276
-0.00243614
-0.00265378
-0.00270163
-0.00226921
-0.00278235
-0.00186616
-0.00168368
-0.00303819
-0.00177259
-0.00275952
-0.00219807
-0.00140181
-0.00168814
-0.00275317
-0.00229181
-0.00208624
-0.00268746
-0.00263671
-0.00170474
-0.00169152
-0.00164197
-0.00233919
-0.0025807
-0.00296588
-0.00284938
-0.00310016
-0.0028092
-0.00306992
-0.00257572
-0.00269212
-0.00271308
-0.00255761
-0.00268689
-0.00247375
-0.00243692
-0.00172746
-0.00232098
-0.00271543
-0.00188581
-0.00276756
-0.00254243
-0.00294408
-0.00177015
-0.00279979
-0.00267661
-0.00173856
-0.00239875
-0.00172681
-0.0026952
-0.00245988
-0.00181011
-0.00170355
-0.00147267
-0.00169405
-0.00269889
-0.00123663
-0.00207962
-0.00169721
-0.00190477
-0.00280242
-0.0027129
-0.000851437
-0.00272275
-0.00148116
-0.00160658
-0.00278715
-0.0022657
-0.00162547
-0.00310994
-0.00176831
-0.000851437
-0.00164286
-0.00241941
-0.00302035
-0.00228946
-0.00269442
-0.00252298
-0.00132481
-0.00129779
-0.00110857
-0.00127263
-0.00180551
-0.00138002
-0.00222357
-0.00139083
-0.0023954
-0.00171037
-0.00164534
-0.00192604
-0.00178981
-0.00237868
-0.00171628
-0.00176584
-0.000780611
-0.00178101
-0.00257594
-0.00257777
-0.00233407
-0.001713
-0.0011167
-0.00324064
-0.0021765
-0.00181731
-0.00167527
-0.00166988
-0.00172786
-0.00210729
-0.00169698
-0.00121432
-0.00167477
-0.00114805
-0.00207628
-0.00170852
-0.000727571
-0.00160926
-0.00190414
-0.00170854
-0.002631
-0.00177436
-0.00228912
-0.000876871
-0.00183733
-0.00175433
-0.00153365
-0.00164691
-0.00194405
-0.00183058
-0.00191403
-0.00162684
-0.0016525
-0.00178466
-0.00238725
-0.00168278
-0.0023852
-0.00215295
-0.00170022
-0.00174579
-0.00176266
-0.00194994
-0.00175979
-0.00164756
-0.00187246
-0.00196495
-0.00231899
-0.00176231
-0.00175061
-0.00253589
-0.00250038
-0.00168404
-0.00170058
-0.000757656
-0.00205321
-0.00142328
-0.00192702
-0.000849843
-0.000882184
-0.000788384
-0.000801287
-0.000850078
-0.000895498
-0.000922854
-0.00216294
-0.00160122
-0.00161445
-0.0018454
-0.00179745
-0.00177502
-0.00187833
-0.00173705
-0.0017766
-0.00180815
-0.00176843
-0.00217296
-0.0016073
-0.00223355
-0.00173715
-0.00167674
-0.00177065
-0.0018909
-0.00197469
-0.00183947
-0.00210692
-0.00196812
-0.00182479
-0.00131552
-0.00183559
-0.00179518
-0.00193377
-0.00185124
-0.00175401
-0.00166818
-0.00183771
-0.00191715
-0.00260295
-0.00171851
-0.0025307
-0.0026375
-0.00180588
-0.00252729
-0.00193849
-0.00155246
-0.00211592
-0.00185383
-0.00133621
-0.00117131
-0.00208917
-0.00222524
-0.001883
-0.00156521
-0.00188368
-0.000891258
-0.00186171
-0.00174665
-0.000890765
-0.000342189
-0.000374326
-0.00161269
-0.0017192
-0.00199708
-0.00191949
-0.000175981
-0.000183882
-0.00190161
-0.00192146
-0.00181884
-0.000668995
-0.00160862
-0.00187124
-0.00190709
-0.00164503
-0.00145199
-0.000696643
-0.00275564
-0.00172996
-0.00211436
-0.00214741
-0.00154297
-0.00195285
-0.00150861
-0.00166471
-0.000826081
-0.00124721
-0.00195517
-0.00196755
-0.00169084
-0.00177575
-0.00183256
-0.00193231
-0.0018482
-0.000910095
-0.00162266
-0.00182809
-0.00172877
-0.00259442
-0.000909905
-0.00140376
-0.00144589
-0.0013712
-0.000891864
-0.000891924
-0.00157073
-0.00126718
-0.00181287
-0.000973938
-0.00106502
-0.000347853
-0.000347851
-0.000726001
-0.00115604
-0.000778902
-0.0015446
-0.0016715
-0.00178299
-0.0020092
-0.00182269
-0.00168761
-0.00132834
-0.000820287
-0.0016677
-0.00172811
-0.00167325
-0.000922016
-0.000854309
-0.000663907
-0.00167087
-0.00170444
-0.00136882
-0.0015468
-0.0014274
-0.00130771
-0.00174954
-0.0013076
-0.00154397
-0.0014891
-0.000913341
-0.00112764
-0.00104614
-0.00185014
-0.000730084
-0.000769155
-0.000752373
-0.00174743
-0.000695213
-0.000680763
-0.00121523
-0.000634979
-0.00141549
-0.00141763
-0.000651837
-0.0015402
-0.000723896
-0.000719242
-0.00081066
-0.000686207
-0.000674034
-0.00100832
-0.000801271
-0.00072781
-0.000688349
-0.00141048
-0.00161037
-0.000757995
-0.00155682
-0.000624193
-0.0015794
-0.0012545
-0.000652165
-0.000552423
-0.000616053
-0.000817477
-0.0013561
-0.00111733
-0.000467693
-0.000519126
-0.00151214
-0.000440247
-0.000440243
-0.000498845
-0.000559846
-0.000631121
-0.000736199
-0.00121695
-0.00112668
-0.00151315
-0.000442261
-0.000442258
-0.00133071
-0.000545707
-0.00107779
-0.000494511
-0.000497728
-0.000655806
-0.00114119
-0.00118168
-0.00125887
-0.00115372
-0.00114116
-0.000249376
-0.00184206
-0.000318072
-0.000308218
-0.00148809
-0.00147777
-0.000319405
-0.000221839
-0.000312547
-0.0013726
SCALARS rr_P_ext' float
LOOKUP_TABLE default
0.000139366
0.00032215
0.000256963
0.00033619
0.000176454
0.000272721
0.000137795
0.000334274
0.000286847
0.000362011
0.000126593
0.000335298
0.000294985
0.000311802
0.000366062
0.0003063
0.000263865
0.000297947
0.000266226
0.000260662
0.000293162
5.25753e-05
0.000300373
0.000276894
0.000250984
0.000289898
0.000117522
0.000254455
0.00019853
0.000236609
0.000260591
0.000205236
0.00013016
0.000177146
0.000174182
0.000177543
0.000230066
0.000174507
0.000260319
0.000146307
0.000166865
0.000202773
0.000202792
0.000285998
0.000163537
0.000181052
0.000250612
0.00025393
0.000238189
0.000226489
0.000232687
0.000180773
0.000283151
0.000232297
0.000260657
0.000118686
0.000185983
0.000234
0.000185975
0.000284179
0.000336813
0.000330487
0.000115691
0.000233003
0.000316552
0.000298412
0.000325814
0.000281571
0.000258942
0.000369742
0.000307198
0.000303849
0.000206171
0.000241654
0.000255397
0.000134272
0.000263923
0.000295641
0.000283937
0.000199553
0.000179552
0.000199251
0.000376164
0.000179728
0.000242823
8.98739e-05
0.000293935
0.000246111
0.00017319
2.58542e-05
0.000201284
2.81185e-05
0.000223962
0.000214178
0.000190521
0.000173399
0.000164911
0.000317819
0.000264114
0.000253415
0.000214647
0.000205443
0.000172444
0.000300908
0.000305964
0.000275536
0.000242679
0.000245629
0.00018305
0.00036728
0.000235622
0.000123413
0.000165045
0.000329296
0.000308578
0.000224341
0.000215664
0.000137028
0.00022368
0.000223465
0.000194759
0.00035678
0.000367144
0.00031565
0.000347056
0.00027285
0.000154696
0.000343144
0.00014936
0.000193194
0.000160468
0.000327532
0.000320298
0.000321607
0.00021368
0.000131038
0.000142853
0.000235572
0.000288408
0.000130992
0.000178493
0.000277798
0.000209834
0.000339171
0.000166771
0.000276694
0.000251133
0.00024256
0.000155031
0.000197526
0.000220709
0.000316085
0.000184141
0.00028601
0.000331458
0.00033673
0.000220428
0.000183879
0.000182843
0.000288743
0.000242062
0.00018263
0.000120491
0.000178286
0.00017759
0.000309344
0.000186355
0.000188406
0.000203874
0.000181604
0.000273465
0.000190274
0.00016815
0.000213026
0.000201023
0.000242509
0.000270488
0.00025958
0.000221342
0.000259015
0.00019788
0.000300133
0.00032212
0.000178526
0.000315831
0.000178184
0.000311911
0.000286878
0.000268168
0.000272236
0.000318606
0.000149769
0.000196697
0.000182627
0.000321028
0.00031589
0.00029289
0.000319507
0.000324956
0.000273088
0.000334673
0.000223915
0.000201637
0.000365785
0.000211947
0.00033226
0.000264535
0.000167708
0.000203393
0.000331169
0.000276156
0.000250989
0.000323194
0.000317478
0.000204304
0.000203521
0.000196666
0.000281698
0.00031049
0.000356829
0.000342767
0.000372955
0.000337955
0.000369317
0.000309831
0.000324416
0.000326931
0.000308207
0.000323791
0.000298385
0.000293945
0.000207009
0.000279199
0.000326516
0.000226396
0.000333534
0.000306417
0.000354022
0.000211999
0.000336646
0.000321936
0.000208369
0.000289015
0.000206948
0.000324531
0.000295762
0.00021695
0.000204054
0.000175896
0.000202355
0.000324965
0.00014767
0.000249964
0.000203281
0.000228529
0.000336957
0.000326387
0.000102923
0.000327562
0.000176855
0.000192427
0.000335138
0.000272431
0.000194661
0.00037415
0.000212137
0.000102922
0.000196777
0.000291092
0.000363554
0.000275256
0.000324711
0.000303689
0.000159811
0.000156009
0.000132256
0.00015176
0.000217727
0.000165746
0.000267366
0.000166685
0.000288616
0.000205814
0.000197072
0.000231772
0.00021458
0.000286078
0.000205766
0.00021149
9.44472e-05
0.000214733
0.000310451
0.000310665
0.000280763
0.000205391
0.000134843
0.000390051
0.000261322
0.000217907
0.000200799
0.000201369
0.000207084
0.000254038
0.000203427
0.000144791
0.000200803
0.000137108
0.000250043
0.000204768
8.80288e-05
0.000192913
0.000229249
0.000204741
0.000316725
0.000212698
0.000275091
0.00010451
0.000220743
0.000210252
0.000184932
0.000197365
0.000233414
0.000220371
0.000230237
0.000195016
0.000198135
0.000214091
0.000287488
0.000201762
0.0002868
0.000258729
0.000205093
0.00020932
0.000211439
0.000234164
0.000211123
0.000197517
0.000224646
0.000236717
0.000278831
0.000211408
0.000209801
0.000305015
0.00030075
0.000201903
0.000205134
9.00474e-05
0.000246732
0.000170001
0.000231423
0.000100334
0.000104153
9.30861e-05
9.46067e-05
0.000100371
0.000105722
0.000108957
0.00026049
0.000193287
0.000194081
0.000221557
0.000215652
0.000212948
0.000225904
0.000208376
0.000213108
0.000218272
0.000212158
0.000261827
0.000192423
0.000269106
0.000208719
0.000201304
0.000212415
0.000228029
0.000237297
0.00022086
0.000253189
0.00023631
0.000218897
0.000157525
0.000220374
0.000215702
0.000233015
0.00022213
0.000210382
0.000200156
0.000220612
0.000230349
0.000313058
0.000206192
0.000304362
0.000316866
0.000216799
0.000303893
0.000232895
0.000186241
0.000254717
0.00022261
0.000161281
0.000139664
0.000251606
0.000268074
0.000226249
0.000187959
0.000226694
0.000105943
0.000223688
0.000209735
0.000106173
4.13988e-05
4.52884e-05
0.000193793
0.000206261
0.000239842
0.000230321
2.13293e-05
2.22869e-05
0.00022866
0.00023105
0.000218697
7.95205e-05
0.000192957
0.0002253
0.000228951
0.00019747
0.000174311
8.27897e-05
0.000331707
0.000207539
0.00025407
0.000258043
0.000185215
0.00023447
0.00018109
0.000199848
9.83907e-05
0.000148955
0.000234746
0.000236433
0.00020304
0.000213147
0.000220042
0.000232053
0.000221936
0.000108518
0.00019556
0.000219338
0.000208045
0.000312319
0.000108487
0.000168674
0.000173718
0.000165404
0.000107891
0.000107897
0.000189378
0.000151998
0.000217834
0.000116107
0.000128808
4.21493e-05
4.21488e-05
8.62665e-05
0.000139641
9.41328e-05
0.000185577
0.000201492
0.00021434
0.000241683
0.000219425
0.000203224
0.000159721
9.75032e-05
0.000200427
0.000207946
0.000201457
0.000109737
0.000103207
7.91166e-05
0.000201162
0.000205032
0.000164075
0.000185935
0.000171625
0.00015776
0.000210392
0.000157744
0.000185534
0.000179289
0.000110359
0.000136263
0.00012472
0.000222584
8.67213e-05
9.13838e-05
8.93436e-05
0.000210344
8.26251e-05
8.08193e-05
0.000145869
7.54134e-05
0.000170853
0.00017111
7.74308e-05
0.000184962
8.62234e-05
8.54278e-05
9.65349e-05
8.15002e-05
8.02651e-05
0.000121806
9.54833e-05
8.65035e-05
8.17656e-05
0.000169582
0.000193972
9.02453e-05
0.000187181
7.41092e-05
0.000189969
0.000150664
7.74503e-05
6.5758e-05
7.31479e-05
9.71361e-05
0.000162921
0.000134889
5.66579e-05
6.28791e-05
0.000181915
5.33313e-05
5.33305e-05
6.04258e-05
6.77523e-05
7.52251e-05
8.89483e-05
0.000146737
0.000136019
0.00018201
5.35354e-05
5.35347e-05
0.000160686
6.48346e-05
0.000129426
5.8762e-05
5.93018e-05
7.81421e-05
0.000138
0.000142892
0.000152215
0.000139504
0.000137995
3.0204e-05
0.000222736
3.85023e-05
3.73396e-05
0.000179954
0.000178709
3.86967e-05
2.68698e-05
3.78353e-05
0.000165954
SCALARS rr_S' float
LOOKUP_TABLE default
0.000972806
0.00222207
0.00177425
0.00231939
0.00121353
0.00188309
0.000961872
0.00230649
0.00198255
0.00249712
0.000882988
0.00231355
0.00203588
0.00215045
0.00252027
0.00211454
0.00181908
0.00205611
0.00184101
0.00180032
0.00202511
0.000360151
0.00207491
0.0019124
0.00173351
0.00200017
0.000818322
0.00175671
0.00137734
0.00162461
0.00179857
0.00142383
0.000906477
0.00121716
0.00119637
0.0012199
0.00157949
0.00119878
0.00179673
0.0010189
0.00115769
0.00139205
0.00139219
0.00197392
0.00113762
0.00125587
0.0017326
0.00175469
0.00164459
0.00157248
0.00161482
0.00125263
0.00194766
0.00160959
0.00179309
0.000825317
0.00127739
0.00162139
0.00127735
0.00196264
0.00232209
0.00227625
0.000804948
0.00160492
0.00218024
0.00205725
0.00224618
0.0019427
0.00178858
0.00255025
0.00211312
0.00209009
0.0014304
0.00166536
0.00176336
0.000935603
0.00181666
0.00203817
0.00195905
0.00138239
0.0012469
0.00136981
0.00259211
0.00124854
0.00168404
0.000625109
0.00202927
0.00169638
0.00120475
0.000177209
0.00139473
0.000192732
0.0015415
0.00147674
0.00132
0.0012035
0.0011452
0.00219233
0.001818
0.00174916
0.00148533
0.00142439
0.00119797
0.00207631
0.00211077
0.0019008
0.00167205
0.00169558
0.00127168
0.00253294
0.00162727
0.000858174
0.00114705
0.00227235
0.00212886
0.0015544
0.00148127
0.000951613
0.00153638
0.00154827
0.00134715
0.00245669
0.00253244
0.00217563
0.00239327
0.00187834
0.00106295
0.00236703
0.0010372
0.00133852
0.00110381
0.00225937
0.00220727
0.00221841
0.00148147
0.00090001
0.000992672
0.00162571
0.00198739
0.000899706
0.00123735
0.00191616
0.00145116
0.00233955
0.00115823
0.00190899
0.00173255
0.00167477
0.00107046
0.00136735
0.00152519
0.00218026
0.00127752
0.0019739
0.00228637
0.0023228
0.00152
0.00127454
0.00126731
0.00199281
0.00167265
0.00126692
0.000837927
0.00123728
0.00123096
0.002134
0.00129171
0.00130595
0.00141441
0.00125876
0.00188216
0.00131841
0.00116696
0.00146879
0.00139285
0.00167094
0.00186169
0.00179112
0.00152243
0.00178681
0.0013728
0.00207036
0.00222205
0.00123756
0.00217689
0.00123669
0.00214987
0.00197653
0.00184563
0.00187789
0.00219598
0.00103992
0.00136289
0.00126698
0.00221444
0.00218002
0.00202118
0.00220184
0.00224147
0.00188274
0.00230845
0.00154819
0.0013967
0.00252079
0.00147038
0.00228958
0.00182372
0.00116284
0.00140068
0.00228424
0.00190157
0.00173092
0.00222971
0.00218769
0.00141421
0.00140343
0.00136211
0.00194085
0.00214116
0.00246073
0.00236406
0.00257213
0.00233073
0.00254705
0.00213702
0.00223372
0.00225111
0.00212211
0.00222938
0.0020526
0.00202204
0.00143305
0.00192567
0.0022529
0.00156452
0.00229632
0.00210953
0.0024426
0.00146843
0.00232289
0.00222072
0.00144227
0.0019903
0.00143252
0.00223622
0.00204087
0.00150163
0.0014132
0.00122154
0.00140518
0.00223928
0.00102575
0.00172537
0.00140793
0.00158021
0.00232507
0.00225084
0.00070653
0.00225901
0.00122858
0.00133275
0.0023124
0.00187978
0.00134842
0.00258026
0.001467
0.000706531
0.00136285
0.00200734
0.00250598
0.00189948
0.00223564
0.00209331
0.00109927
0.00107673
0.000919498
0.00105556
0.00149812
0.00114491
0.00184483
0.0011538
0.00198752
0.00141908
0.00136491
0.00159801
0.0014848
0.00197353
0.0014238
0.00146486
0.000647777
0.00147778
0.00213733
0.00213885
0.00193652
0.00142109
0.00092662
0.00268874
0.00180568
0.00150762
0.00138977
0.00138558
0.00143339
0.0017485
0.00140778
0.00100719
0.00138937
0.000952278
0.00172271
0.00141735
0.000603763
0.00133502
0.00157987
0.00141736
0.00218294
0.00147198
0.00189917
0.000727292
0.00152433
0.00145535
0.00127254
0.00136623
0.00161284
0.00151884
0.00158803
0.0013496
0.00137089
0.00148056
0.00198072
0.00139602
0.00197892
0.0017862
0.00141077
0.00144828
0.0014623
0.00161773
0.00145993
0.00136679
0.0015534
0.00163036
0.00192399
0.00146201
0.00145226
0.00210397
0.00207451
0.00139706
0.00141107
0.000628347
0.00170345
0.00118058
0.00159872
0.00070463
0.000731445
0.000653674
0.000664372
0.000704827
0.000742484
0.000765168
0.00179461
0.00132865
0.00133945
0.00153099
0.00149118
0.00147256
0.0015584
0.00144106
0.00147387
0.00150035
0.0014671
0.00180296
0.00133333
0.00185322
0.00144122
0.00139106
0.00146894
0.00156897
0.0016383
0.00152607
0.00174801
0.00163281
0.00151385
0.00109129
0.00152285
0.00148937
0.0016045
0.00153581
0.00145512
0.00138393
0.00152461
0.00159056
0.0021596
0.00142569
0.00209965
0.00218818
0.0014982
0.00209681
0.00160826
0.00128792
0.00175558
0.001538
0.00110875
0.000971513
0.00173341
0.00184633
0.00156223
0.00129855
0.00156287
0.000739152
0.00154456
0.00144907
0.000738817
0.000283959
0.000310628
0.00133797
0.00142626
0.00165685
0.00159243
0.000146043
0.0001526
0.00157771
0.00159418
0.00150904
0.000554821
0.00133451
0.00155258
0.00158217
0.00136475
0.0012046
0.000577746
0.00228635
0.00143518
0.00175418
0.0017816
0.00128008
0.00162014
0.00125157
0.00138109
0.000685148
0.00103453
0.00162206
0.00163238
0.00140277
0.0014732
0.00152035
0.00160311
0.00153332
0.000754858
0.00134637
0.00151659
0.00143435
0.00215259
0.000754698
0.00116463
0.00119958
0.00113776
0.000740094
0.000740144
0.0013033
0.00105126
0.00150404
0.000807804
0.00088378
0.000288674
0.000288673
0.00060209
0.000959273
0.000646335
0.00128147
0.00138691
0.00147928
0.00166699
0.00151229
0.00140022
0.00110208
0.000680292
0.00138361
0.00143379
0.0013883
0.000764696
0.000708901
0.000550653
0.00138633
0.00141414
0.00113554
0.00128332
0.00118427
0.00108508
0.00145155
0.00108499
0.00128096
0.00123551
0.000757888
0.000935715
0.000867695
0.00153502
0.000605472
0.00063788
0.00062395
0.00144984
0.000576562
0.000564558
0.00100818
0.000526596
0.00117454
0.00117631
0.000540581
0.0012778
0.000600397
0.000596479
0.000672353
0.000569082
0.000559037
0.000836698
0.000664581
0.000603596
0.00057086
0.00117023
0.00133615
0.000628669
0.00129164
0.000517645
0.00131039
0.00104078
0.000540849
0.000458168
0.000510897
0.000677953
0.00112508
0.000927131
0.000388123
0.000430804
0.00125459
0.000365346
0.000365343
0.000413973
0.000464582
0.000523462
0.000610896
0.00100976
0.000934892
0.00125542
0.000367009
0.000367006
0.0011042
0.000452565
0.000894165
0.000410111
0.000412819
0.000543931
0.000946977
0.000980575
0.00104463
0.000957378
0.000946952
0.000206948
0.00152857
0.00026395
0.00025578
0.00123485
0.00122628
0.000265064
0.000184096
0.000259366
0.001139
SCALARS rr_P' float
LOOKUP_TABLE default
6.0837e-05
0.000134015
0.000107343
0.000139975
7.2522e-05
0.000113937
6.01604e-05
0.000139249
0.000120311
0.000150623
5.51027e-05
0.000139676
0.000123003
0.000129647
0.000151132
0.000127861
0.000109532
0.000124189
0.000111907
0.000109021
0.00012269
2.12595e-05
0.000125709
0.000115803
0.00010498
0.000120737
5.08038e-05
0.000106242
8.45616e-05
9.6608e-05
0.000108677
8.74093e-05
5.63047e-05
7.25337e-05
7.1212e-05
7.26994e-05
9.38874e-05
7.1387e-05
0.000108573
6.32808e-05
7.1083e-05
8.27336e-05
8.27447e-05
0.00011927
7.04207e-05
7.70628e-05
0.000105235
0.000106418
9.94919e-05
9.67617e-05
9.92365e-05
7.66184e-05
0.000116459
9.84405e-05
0.000107247
5.10276e-05
7.60283e-05
9.91623e-05
7.6028e-05
0.00011883
0.000139841
0.000136662
4.98541e-05
9.63725e-05
0.000130891
0.000123871
0.000135254
0.000117265
0.000108335
0.000153796
0.000126362
0.000124987
8.7828e-05
0.00010016
0.00010667
5.82055e-05
0.000108857
0.000122725
0.000118256
8.44873e-05
7.67808e-05
8.1767e-05
0.000155864
7.69622e-05
0.000103278
3.86779e-05
0.000122726
0.000102084
7.45728e-05
1.048e-05
8.53051e-05
1.13987e-05
9.23528e-05
8.89548e-05
8.07072e-05
7.39858e-05
7.05134e-05
0.000132245
0.000108942
0.000105714
9.04735e-05
8.72776e-05
7.38517e-05
0.000125367
0.000127367
0.000114685
0.000100497
0.000102506
7.83994e-05
0.000152693
9.85211e-05
5.30591e-05
7.08026e-05
0.000137232
0.000128467
9.50537e-05
8.81664e-05
5.86021e-05
9.14565e-05
9.46669e-05
8.19536e-05
0.000147378
0.000152741
0.000130915
0.000144238
0.000112602
6.33484e-05
0.000142786
6.38638e-05
8.1841e-05
6.60082e-05
0.000136301
0.000132748
0.000133813
9.07698e-05
5.35678e-05
6.12443e-05
9.81976e-05
0.000119501
5.35514e-05
7.57822e-05
0.000115565
8.82306e-05
0.000141115
7.13368e-05
0.000115219
0.00010455
0.000101319
6.47669e-05
8.33795e-05
9.25106e-05
0.0001315
7.84343e-05
0.00011925
0.00013791
0.000140122
9.15893e-05
7.80308e-05
7.75801e-05
0.000120404
0.000101437
7.77629e-05
5.18206e-05
7.60362e-05
7.53671e-05
0.000128751
7.90839e-05
7.99602e-05
8.68361e-05
7.7063e-05
0.000112753
8.0633e-05
7.17177e-05
8.84741e-05
8.51783e-05
0.000100442
0.00011153
0.00010814
9.1017e-05
0.000107803
8.42783e-05
0.000124893
0.000134049
7.57907e-05
0.000130989
7.60214e-05
0.000129366
0.000118786
0.000110549
0.000113276
0.000132132
6.40059e-05
8.33484e-05
7.77824e-05
0.000133578
0.00013169
0.000122072
0.000132425
0.000135199
0.000113377
0.000139227
9.40634e-05
8.53386e-05
0.000151612
9.02636e-05
0.000137674
0.000109814
7.1267e-05
8.40585e-05
0.000137761
0.00011408
0.000104334
0.000134556
0.000131542
8.6227e-05
8.45686e-05
8.31937e-05
0.000116643
0.000129052
0.000148316
0.000142546
0.000155065
0.000140509
0.000153555
0.000128869
0.000133981
0.000135037
0.000127287
0.000133715
0.000122763
0.000120934
8.73981e-05
0.000116114
0.000136015
9.4899e-05
0.000137703
0.000126484
0.000147454
8.97134e-05
0.000140258
0.000133956
8.79229e-05
0.000119438
8.73428e-05
0.000134447
0.000123248
9.15351e-05
8.63005e-05
7.52266e-05
8.65169e-05
0.000134642
6.32114e-05
0.000104283
8.59948e-05
9.60333e-05
0.000140395
0.000135673
4.1983e-05
0.000136178
7.57279e-05
8.14028e-05
0.000139611
0.00011349
8.2395e-05
0.000155533
8.91778e-05
4.19841e-05
8.32343e-05
0.000120978
0.000150824
0.000114721
0.000134075
0.000125981
6.57301e-05
6.50556e-05
5.68185e-05
6.53129e-05
8.9668e-05
6.93584e-05
0.00011138
7.03469e-05
0.000119266
8.54812e-05
8.33639e-05
9.62517e-05
9.04289e-05
0.000119073
8.67104e-05
8.94883e-05
3.83863e-05
8.84985e-05
0.000128156
0.000128255
0.000116778
8.65223e-05
5.52411e-05
0.000161844
0.000109494
9.17797e-05
8.4702e-05
8.29332e-05
8.7384e-05
0.000104754
8.57661e-05
6.23405e-05
8.45985e-05
5.86633e-05
0.000103526
8.64049e-05
3.57797e-05
8.13325e-05
9.50221e-05
8.64416e-05
0.000131336
8.9686e-05
0.000114855
4.50699e-05
9.22541e-05
8.87296e-05
7.61808e-05
8.33131e-05
9.77997e-05
9.13764e-05
9.57664e-05
8.22259e-05
8.34696e-05
9.0011e-05
0.000119037
8.50045e-05
0.000119475
0.000108021
8.43603e-05
8.81814e-05
8.8916e-05
9.80424e-05
8.87366e-05
8.32519e-05
9.44102e-05
9.78755e-05
0.00011617
8.88843e-05
8.85484e-05
0.000126906
0.000125122
8.50802e-05
8.43812e-05
3.92615e-05
0.00010303
7.27005e-05
9.68755e-05
4.48792e-05
4.65851e-05
4.16233e-05
4.23083e-05
4.488e-05
4.72921e-05
4.87296e-05
0.000107834
7.92843e-05
8.09233e-05
9.28527e-05
9.0624e-05
8.95061e-05
9.4024e-05
8.76129e-05
8.96237e-05
8.95235e-05
8.91753e-05
0.000108173
8.15509e-05
0.00011122
8.72102e-05
8.43699e-05
8.92984e-05
9.39014e-05
9.90883e-05
9.25348e-05
0.00010572
9.90038e-05
9.20454e-05
6.67052e-05
9.23658e-05
9.011e-05
9.62547e-05
9.33042e-05
8.85039e-05
8.40884e-05
9.24915e-05
9.62424e-05
0.000130291
8.66294e-05
0.000126681
0.000132448
9.0881e-05
0.000126584
9.73357e-05
7.82923e-05
0.000105626
9.32255e-05
6.61805e-05
6.01302e-05
0.000104156
0.000110842
9.45251e-05
7.87019e-05
9.41113e-05
4.61637e-05
9.34596e-05
8.784e-05
4.57749e-05
1.68306e-05
1.84095e-05
8.09276e-05
8.6681e-05
0.000100391
9.67408e-05
8.60842e-06
8.99492e-06
9.52454e-05
9.62341e-05
9.1111e-05
3.46534e-05
8.11519e-05
9.33652e-05
9.59699e-05
8.28081e-05
7.3073e-05
3.6108e-05
0.000137587
8.72395e-05
0.00010611
0.000107768
7.76749e-05
9.82431e-05
7.59457e-05
8.37791e-05
4.25424e-05
6.37254e-05
9.8363e-05
9.87373e-05
8.50251e-05
8.94056e-05
9.21736e-05
9.71489e-05
9.29388e-05
4.67196e-05
8.07305e-05
9.21555e-05
8.63796e-05
0.000129512
4.67204e-05
7.04585e-05
7.25957e-05
6.80353e-05
4.38789e-05
4.38826e-05
7.80539e-05
6.39309e-05
9.09893e-05
5.00264e-05
5.24356e-05
1.70296e-05
1.70297e-05
3.76445e-05
5.7126e-05
3.84338e-05
7.7551e-05
8.31028e-05
8.93718e-05
0.000100529
9.098e-05
8.41609e-05
6.65373e-05
4.24919e-05
8.36575e-05
8.63709e-05
8.34915e-05
4.75835e-05
4.2202e-05
3.41374e-05
8.33844e-05
8.52686e-05
6.9199e-05
7.75465e-05
7.15093e-05
6.48701e-05
8.7606e-05
6.48661e-05
7.74792e-05
7.42988e-05
4.50941e-05
5.56611e-05
5.37285e-05
9.25286e-05
3.78911e-05
3.98914e-05
3.90796e-05
8.72472e-05
3.60263e-05
3.53863e-05
6.11825e-05
3.29693e-05
7.0103e-05
7.02107e-05
3.38251e-05
7.7438e-05
3.72752e-05
3.73349e-05
4.17722e-05
3.56251e-05
3.47322e-05
4.98165e-05
4.12065e-05
3.77102e-05
3.5723e-05
7.06708e-05
8.02484e-05
3.90808e-05
7.7998e-05
3.24386e-05
7.90396e-05
6.3059e-05
3.38662e-05
2.84975e-05
3.20083e-05
4.23879e-05
6.80979e-05
5.53065e-05
2.29121e-05
2.54436e-05
7.56291e-05
2.15697e-05
2.15698e-05
2.44454e-05
2.75116e-05
3.24342e-05
3.63553e-05
6.04575e-05
5.57688e-05
7.57129e-05
2.17171e-05
2.17173e-05
6.58231e-05
2.8307e-05
5.41939e-05
2.56382e-05
2.56069e-05
3.37328e-05
5.62089e-05
5.82087e-05
6.20258e-05
5.68405e-05
5.62087e-05
1.22245e-05
9.07522e-05
1.5619e-05
1.50981e-05
7.32906e-05
7.2779e-05
1.56438e-05
1.08733e-05
1.53454e-05
6.76437e-05
SCALARS rr_T' float
LOOKUP_TABLE default
0.000197474
0.000449944
0.000359337
0.00046967
0.000245579
0.000381384
0.000195256
0.000467065
0.000401605
0.000505642
0.000179219
0.000468495
0.000412287
0.000435428
0.000510138
0.000428239
0.000368304
0.000416378
0.000372976
0.000364641
0.000410181
7.28273e-05
0.000420271
0.000387341
0.000351109
0.000405034
0.00016603
0.000355778
0.000279231
0.000328671
0.000364231
0.000288654
0.000183922
0.000246273
0.000242046
0.000246828
0.000319533
0.00024254
0.000363861
0.00020673
0.000234703
0.000281612
0.000281641
0.000399741
0.000230768
0.000254596
0.000350993
0.000355434
0.000333076
0.000318843
0.000327398
0.000253882
0.000394159
0.000326227
0.000362885
0.0001674
0.000258437
0.000328619
0.000258428
0.000397512
0.000470153
0.000460777
0.000163288
0.000324883
0.00044134
0.000416522
0.000454779
0.000393395
0.000362267
0.000516397
0.000427645
0.000422986
0.00028999
0.000337152
0.000357128
0.000189853
0.000367695
0.000412659
0.000396707
0.000280167
0.000252838
0.000277184
0.00052477
0.00025319
0.000341381
0.000126799
0.000410977
0.000343445
0.000244384
3.58384e-05
0.000282681
3.8978e-05
0.000312
0.000298998
0.00026753
0.000244012
0.000232214
0.000443925
0.000367968
0.00035423
0.000300959
0.000288729
0.000242938
0.00042046
0.000427421
0.000384898
0.000338495
0.000343387
0.000257885
0.000512881
0.000329586
0.000174066
0.000232631
0.000460165
0.000431084
0.000315039
0.000299685
0.000192962
0.000310837
0.000313794
0.000272938
0.000497281
0.000512794
0.000440474
0.000484593
0.000380194
0.000215069
0.000479302
0.000210316
0.000271284
0.000223386
0.000457506
0.000446866
0.000449209
0.000300298
0.000182087
0.000201314
0.000329217
0.000402346
0.000182026
0.000250807
0.000387998
0.000294
0.000473735
0.000234861
0.000386567
0.000350832
0.000339189
0.0002168
0.000277075
0.000308948
0.000441481
0.000258995
0.000399732
0.000462967
0.000470348
0.000307762
0.000258338
0.000256872
0.000403567
0.000338814
0.000256842
0.000169962
0.000250854
0.000249507
0.00043212
0.000261819
0.000264707
0.000286746
0.00025514
0.000380949
0.000267213
0.000236597
0.000297388
0.000282298
0.000338272
0.000376807
0.000362704
0.000308098
0.000361815
0.00027831
0.000419229
0.000449947
0.000250849
0.000440726
0.000250739
0.000435258
0.000400131
0.000373552
0.000380254
0.000444591
0.00021086
0.000276227
0.000256858
0.000448405
0.000441475
0.000409303
0.000445767
0.000453878
0.000381194
0.000467437
0.000313642
0.000283062
0.000510339
0.00029809
0.000463525
0.000369243
0.000235716
0.00028353
0.000462534
0.000384913
0.000350476
0.000451506
0.000442895
0.000286569
0.00028416
0.000276043
0.000392908
0.000433547
0.000498255
0.000478694
0.000520819
0.000471938
0.00051574
0.000432717
0.000452144
0.000455666
0.000429553
0.000451265
0.000415403
0.00040922
0.000290392
0.00038992
0.000456223
0.000316913
0.000464809
0.000426996
0.000494636
0.000297598
0.0004704
0.000449674
0.000292251
0.000402881
0.000290278
0.000452717
0.000413294
0.000304278
0.000286394
0.000247698
0.000284933
0.000453338
0.000208006
0.000349415
0.000285331
0.000320136
0.000470842
0.000455757
0.000142929
0.000457414
0.000249139
0.000270095
0.000468274
0.000380657
0.000273278
0.000522459
0.000297205
0.000142929
0.000276193
0.000406449
0.000507361
0.000384658
0.000452527
0.00042381
0.000222464
0.000218049
0.000186496
0.000214113
0.000303201
0.000231898
0.00037358
0.000233799
0.000402317
0.000287322
0.000276611
0.00032355
0.000300849
0.000399625
0.000288488
0.000296873
0.000131021
0.000299095
0.000432625
0.000432933
0.000392119
0.000287933
0.000187491
0.000544367
0.000365759
0.000305464
0.000281608
0.000280424
0.000290452
0.000353898
0.000285249
0.000204307
0.000281509
0.000193102
0.000348746
0.000287202
0.000122119
0.000270506
0.000319848
0.000287212
0.00044195
0.00029826
0.000384627
0.00014754
0.000308729
0.000294904
0.000257551
0.00027685
0.000326697
0.000307495
0.000321556
0.000273461
0.000277764
0.000299955
0.000400979
0.000282856
0.000400734
0.000361748
0.000285504
0.000293444
0.000296259
0.000327676
0.00029577
0.00027694
0.000314704
0.000330029
0.000389613
0.000296197
0.00029428
0.00042603
0.000420063
0.00028307
0.000285566
0.000127546
0.000344991
0.000239392
0.000323821
0.000143234
0.000148684
0.000132873
0.000135049
0.000143271
0.000150928
0.000155537
0.0003633
0.000268853
0.000271254
0.000310122
0.000302099
0.000298329
0.000315564
0.000291953
0.000298603
0.000303596
0.000297223
0.000364954
0.000270237
0.000375138
0.000291893
0.000281777
0.000297598
0.000317539
0.000331797
0.00030912
0.000354014
0.00033074
0.000306702
0.000221173
0.000308475
0.000301641
0.000324778
0.000311133
0.00029481
0.000280367
0.000308834
0.000322137
0.000437302
0.000288828
0.000425164
0.000443186
0.000303484
0.000424605
0.000325727
0.000260926
0.000355428
0.000311528
0.000224359
0.00019707
0.000350909
0.000373747
0.000316399
0.000263024
0.000316429
0.000150033
0.000312822
0.000293516
0.000149876
5.7435e-05
6.28288e-05
0.000270973
0.000288947
0.000335593
0.000322602
2.95292e-05
3.0855e-05
0.000319487
0.00032282
0.000305583
0.000112617
0.000270371
0.000314319
0.000320489
0.000276455
0.00024401
0.000117277
0.000462892
0.000290758
0.000355267
0.000360822
0.000259304
0.000328176
0.00025353
0.000279759
0.000139012
0.00020978
0.000328566
0.000330599
0.000284136
0.000298426
0.000307957
0.000324712
0.00031058
0.000153121
0.000272521
0.000307245
0.000290409
0.000435804
0.000153091
0.000235871
0.000242954
0.000230255
0.000149699
0.000149709
0.000263784
0.000212984
0.000304612
0.000163868
0.00017877
5.83713e-05
5.8371e-05
0.000122222
0.000194083
0.000130758
0.00025954
0.000280713
0.000299569
0.000337545
0.000306171
0.000283464
0.000223172
0.000138086
0.00028021
0.000290302
0.000281062
0.000155175
0.000143425
0.00011171
0.000280665
0.000286341
0.000230092
0.000259888
0.000239818
0.000219593
0.000293933
0.000219574
0.000259426
0.000250129
0.000153332
0.000189306
0.000176015
0.000310814
0.000122913
0.000129485
0.000126672
0.000293532
0.000117034
0.000114621
0.000204227
0.000106905
0.000237669
0.000238028
0.000109739
0.000258821
0.000121815
0.000121089
0.000136421
0.000115528
0.000113429
0.000169281
0.000134826
0.00012252
0.000115887
0.000236976
0.00027048
0.000127563
0.000261562
0.000105095
0.00026534
0.000210808
0.000109799
9.29704e-05
0.000103723
0.000137622
0.000227868
0.0001876
7.84842e-05
8.71175e-05
0.000254031
7.3879e-05
7.38782e-05
8.37131e-05
9.3964e-05
0.000106191
0.000123594
0.000204368
0.000189171
0.000254208
7.42257e-05
7.42252e-05
0.000223418
9.18717e-05
0.000181116
8.32495e-05
8.3751e-05
0.00011035
0.000191559
0.000198356
0.000211317
0.000193666
0.000191554
4.18495e-05
0.000309211
5.33829e-05
5.17222e-05
0.00024979
0.000248056
5.3599e-05
3.72281e-05
5.24551e-05
0.00023041
SCALARS rr_uec(SIM,_S_ext) float
LOOKUP_TABLE default
0.0150844
0.0343534
0.0274366
0.03586
0.0187474
0.02912
0.014915
0.0356609
0.0306651
0.038606
0.01369
0.0357701
0.0314789
0.0332448
0.0389459
0.0326972
0.0281195
0.0317912
0.0284799
0.027842
0.0313192
0.00555859
0.0320898
0.0295752
0.0268088
0.0309249
0.0126815
0.0271647
0.0213245
0.0250888
0.0278097
0.0220442
0.0140481
0.0187996
0.0184766
0.018842
0.0243912
0.0185144
0.0277815
0.0157902
0.017924
0.0214965
0.0214987
0.030521
0.0176255
0.019443
0.026801
0.0271394
0.0254314
0.0243505
0.0250033
0.0193876
0.0300902
0.0249122
0.0277029
0.0127853
0.0197277
0.0250948
0.0197271
0.0303518
0.0358956
0.035178
0.0124715
0.0248032
0.0336941
0.0318007
0.0347218
0.0300362
0.0276608
0.0394271
0.0326467
0.0322909
0.0221462
0.0257405
0.0272679
0.0145015
0.0280708
0.0315057
0.030289
0.0213947
0.0193096
0.0211597
0.0400646
0.0193368
0.0260704
0.00968451
0.0313794
0.0262211
0.0186655
0.00273545
0.0215868
0.0029751
0.0238189
0.0228281
0.0204297
0.0186353
0.0177345
0.0338939
0.0280916
0.0270463
0.0229813
0.0220491
0.0185539
0.0321029
0.0326339
0.0293873
0.0258428
0.0262184
0.0196954
0.0391585
0.0251653
0.0132945
0.0177671
0.0351344
0.0329137
0.0240577
0.0228764
0.0147368
0.0237277
0.0239626
0.0208414
0.0379646
0.0391521
0.0336291
0.0369986
0.0290253
0.0164176
0.036595
0.0160621
0.0207164
0.0170535
0.034931
0.034117
0.0342974
0.0229326
0.0138996
0.015375
0.0251362
0.0307179
0.0138949
0.0191531
0.0296235
0.0224493
0.0361698
0.0179367
0.0295148
0.0267862
0.0258982
0.0165534
0.0211579
0.02359
0.0337073
0.0197792
0.0305203
0.0353477
0.0359115
0.0234973
0.0197281
0.0196161
0.0308132
0.0258704
0.0196147
0.0129811
0.0191577
0.0190538
0.0329926
0.0199939
0.0202144
0.0218984
0.0194839
0.0290826
0.0204056
0.0180689
0.0227052
0.0215575
0.0258259
0.0287664
0.0276929
0.0235202
0.0276248
0.0212542
0.0320084
0.0343537
0.0191563
0.0336482
0.019149
0.0332309
0.0305484
0.0285177
0.0290326
0.0339433
0.0161036
0.0210939
0.0196159
0.0342361
0.0337076
0.0312511
0.0340331
0.0346539
0.0291035
0.0356891
0.023949
0.0216157
0.038963
0.0227647
0.0353887
0.0281909
0.0180008
0.0216459
0.0353147
0.0293858
0.0267586
0.0344729
0.0338137
0.0218829
0.0216953
0.0210796
0.029997
0.0331013
0.0380417
0.0365485
0.0397647
0.0360326
0.0393769
0.0330379
0.0345185
0.0347875
0.0327939
0.0344514
0.0317121
0.0312401
0.0221748
0.0297704
0.0348335
0.0241982
0.0354852
0.0325984
0.0377664
0.0227257
0.035916
0.0343328
0.0223167
0.0307578
0.022166
0.0345635
0.031556
0.023235
0.02187
0.0189171
0.0217609
0.034611
0.0158858
0.0266786
0.0217888
0.024445
0.0359498
0.0347971
0.0109103
0.0349237
0.0190272
0.0206254
0.0357537
0.0290636
0.0208686
0.0398898
0.022694
0.0109103
0.021091
0.0310324
0.0387359
0.0293694
0.0345477
0.0323568
0.016983
0.0166485
0.0142438
0.0163533
0.0231468
0.0177065
0.0285232
0.0178532
0.0307147
0.0219366
0.021123
0.0247025
0.0229729
0.0305115
0.022029
0.0226703
0.0100009
0.0228336
0.0330282
0.0330518
0.0299383
0.0219864
0.0143125
0.0415613
0.0279277
0.0233251
0.0215038
0.021408
0.0221793
0.0270174
0.0217817
0.0156045
0.021496
0.0147475
0.0266254
0.0219311
0.00932138
0.0206559
0.0244195
0.021932
0.0337417
0.0227753
0.0293674
0.0112688
0.0235726
0.0225193
0.0196619
0.0211407
0.0249451
0.0234764
0.024551
0.0208816
0.02121
0.0229041
0.0306131
0.0215988
0.0305965
0.0276205
0.0217955
0.0224073
0.0226219
0.0250197
0.0225844
0.0211472
0.0240302
0.0251959
0.0297474
0.0226171
0.0224717
0.0325274
0.0320718
0.0216152
0.0218002
0.00974302
0.0263411
0.0182827
0.0247253
0.0109447
0.0113612
0.010153
0.0103193
0.0109476
0.0115326
0.0118848
0.0277365
0.0205237
0.0207108
0.0236796
0.0230677
0.0227799
0.0240934
0.022293
0.0228009
0.0231758
0.0226954
0.027862
0.0206366
0.0286399
0.0222871
0.0215154
0.0227241
0.0242413
0.0253336
0.0236031
0.02703
0.0252539
0.0234193
0.0168897
0.0235539
0.0230312
0.0247948
0.0237574
0.0225114
0.0214083
0.0235814
0.0245963
0.0333881
0.0220543
0.0324614
0.033839
0.0231728
0.032419
0.0248705
0.0199238
0.027136
0.0237868
0.0171272
0.0150517
0.0267905
0.0285336
0.0241581
0.0200832
0.0241589
0.0114606
0.0238851
0.0224115
0.0114471
0.00438402
0.00479572
0.0206896
0.0220635
0.0256241
0.0246331
0.00225377
0.00235496
0.0243932
0.0246476
0.0233316
0.00860253
0.0206452
0.0239972
0.0244712
0.0211091
0.0186317
0.00895861
0.0353407
0.0222018
0.0271257
0.0275498
0.0197995
0.0250581
0.0193586
0.0213613
0.0106178
0.0160213
0.0250879
0.0252422
0.0216953
0.0227868
0.0235142
0.0247933
0.0237144
0.011695
0.0208052
0.0234606
0.0221723
0.0332725
0.0116928
0.0180096
0.0185505
0.0175777
0.0114267
0.0114274
0.0201378
0.0162632
0.023258
0.012516
0.0136459
0.00445518
0.00445516
0.00933641
0.0148154
0.0099813
0.0198168
0.0214304
0.0228727
0.0257716
0.0233754
0.0216414
0.0170394
0.0105481
0.0213948
0.0221641
0.0214582
0.0118527
0.0109484
0.00853213
0.021428
0.021862
0.01757
0.019843
0.0183104
0.0167638
0.022442
0.0167623
0.019808
0.0190965
0.0117045
0.0144505
0.0134437
0.0237306
0.00938906
0.00989094
0.00967635
0.0224104
0.00893996
0.0087559
0.0155941
0.00816629
0.0181432
0.0181706
0.00838269
0.0197624
0.00930419
0.00924969
0.01042
0.00882495
0.00866384
0.0129221
0.0102979
0.00935904
0.00885233
0.0180934
0.0206499
0.00974344
0.0199706
0.0080282
0.0202587
0.0160962
0.00838732
0.00710129
0.00792324
0.0105128
0.0173986
0.0143209
0.00599037
0.00664936
0.0193952
0.00563888
0.00563883
0.0063895
0.00717222
0.00811075
0.00943455
0.0156018
0.0144408
0.0194087
0.00566553
0.00566549
0.017055
0.00701805
0.0138292
0.00635929
0.00639674
0.00842833
0.0146221
0.015141
0.0161304
0.014783
0.0146218
0.00319422
0.0236027
0.00407462
0.00394771
0.0190669
0.0189346
0.00409095
0.00284148
0.00400381
0.0175878
SCALARS rr_uec(PEX,_P_ext) float
LOOKUP_TABLE default
-0.0624386
-0.142292
-0.113636
-0.14853
-0.0776655
-0.120608
-0.0617374
-0.147705
-0.127001
-0.159906
-0.0566679
-0.148157
-0.130382
-0.137701
-0.161332
-0.135426
-0.116474
-0.131676
-0.117947
-0.115313
-0.129714
-0.0230332
-0.132905
-0.122491
-0.111034
-0.128089
-0.0524988
-0.112511
-0.0882973
-0.103946
-0.115184
-0.0912773
-0.058156
-0.077886
-0.0765495
-0.0780615
-0.101056
-0.0767054
-0.115067
-0.0653679
-0.0742169
-0.0890633
-0.0890727
-0.126414
-0.0729699
-0.0805074
-0.110995
-0.1124
-0.105331
-0.100822
-0.103528
-0.0802829
-0.124654
-0.10316
-0.114764
-0.0529327
-0.0817332
-0.103916
-0.0817305
-0.125708
-0.148683
-0.14572
-0.0516321
-0.102744
-0.139573
-0.131723
-0.143822
-0.124408
-0.114562
-0.163307
-0.135245
-0.133771
-0.0916996
-0.106623
-0.112938
-0.060031
-0.116284
-0.130501
-0.125455
-0.0885953
-0.0799502
-0.0876611
-0.165957
-0.0800612
-0.107951
-0.0400944
-0.129967
-0.108613
-0.0772755
-0.0113346
-0.0893899
-0.0123275
-0.0986705
-0.0945564
-0.0845987
-0.0771601
-0.0734287
-0.140388
-0.11637
-0.112021
-0.0951717
-0.0913014
-0.0768194
-0.132967
-0.135168
-0.121721
-0.107048
-0.108592
-0.0815458
-0.162195
-0.104227
-0.0550408
-0.07356
-0.145523
-0.136327
-0.0996222
-0.0947783
-0.0610168
-0.0983053
-0.0992285
-0.0863113
-0.157265
-0.162168
-0.139298
-0.15325
-0.120237
-0.0680174
-0.151576
-0.0665044
-0.085786
-0.0706469
-0.144683
-0.14132
-0.142059
-0.0949597
-0.0575869
-0.0636572
-0.104112
-0.127241
-0.0575675
-0.0793101
-0.122701
-0.0929716
-0.149815
-0.0742656
-0.122249
-0.110948
-0.107264
-0.0685603
-0.0876184
-0.0976998
-0.139615
-0.0818986
-0.126411
-0.14641
-0.148744
-0.0973277
-0.0816916
-0.081228
-0.127624
-0.107145
-0.0812179
-0.0537429
-0.0793238
-0.0788992
-0.136654
-0.0827922
-0.0837054
-0.0906737
-0.0806803
-0.120476
-0.0844986
-0.0748155
-0.094047
-0.0892687
-0.106978
-0.119166
-0.114702
-0.0974372
-0.114421
-0.0880062
-0.132578
-0.142292
-0.0793233
-0.139377
-0.0792874
-0.137648
-0.12654
-0.118136
-0.120252
-0.1406
-0.0666765
-0.0873489
-0.0812227
-0.141805
-0.139612
-0.129438
-0.140972
-0.143536
-0.12055
-0.147824
-0.0991835
-0.0895109
-0.161393
-0.0942609
-0.146588
-0.116771
-0.0745377
-0.0896661
-0.146273
-0.121729
-0.110836
-0.142785
-0.140064
-0.0906208
-0.0898638
-0.0872915
-0.124256
-0.137107
-0.15757
-0.151384
-0.164706
-0.149248
-0.1631
-0.136844
-0.142991
-0.144105
-0.135846
-0.142713
-0.131373
-0.129417
-0.0918295
-0.12331
-0.144277
-0.100219
-0.146996
-0.135038
-0.156425
-0.0941077
-0.14876
-0.142206
-0.0924176
-0.127411
-0.0917935
-0.143171
-0.130701
-0.0962207
-0.0905648
-0.0783251
-0.0900993
-0.143367
-0.0657734
-0.110499
-0.0902284
-0.101237
-0.1489
-0.144131
-0.0452032
-0.144655
-0.0787799
-0.0854107
-0.148088
-0.120379
-0.0864169
-0.165225
-0.0939853
-0.0452033
-0.0873389
-0.128537
-0.160451
-0.121644
-0.143112
-0.134028
-0.0703552
-0.0689558
-0.0589714
-0.0677037
-0.0958882
-0.0733345
-0.118141
-0.0739334
-0.127233
-0.0908637
-0.0874712
-0.102321
-0.0951369
-0.126378
-0.091228
-0.0938785
-0.0414376
-0.0945896
-0.136818
-0.136915
-0.124005
-0.0910523
-0.0592956
-0.172153
-0.115665
-0.0965963
-0.0890518
-0.0886849
-0.0918486
-0.111921
-0.0902036
-0.0646029
-0.0890211
-0.0610608
-0.11029
-0.090821
-0.0386222
-0.0855412
-0.101151
-0.0908239
-0.139765
-0.0943179
-0.121634
-0.0466524
-0.0976316
-0.0932565
-0.0814512
-0.0875473
-0.103313
-0.097244
-0.10169
-0.0864758
-0.0878367
-0.0948549
-0.126809
-0.0894469
-0.126728
-0.114399
-0.0902918
-0.0927953
-0.0936859
-0.103622
-0.0935316
-0.087576
-0.0995192
-0.104371
-0.123212
-0.0936664
-0.0930592
-0.134729
-0.132842
-0.0895145
-0.0903112
-0.040329
-0.109099
-0.0756984
-0.102404
-0.0452858
-0.047009
-0.0420103
-0.0426981
-0.0452979
-0.0477185
-0.0491758
-0.114893
-0.0850266
-0.0857813
-0.0980712
-0.0955331
-0.0943409
-0.0997946
-0.0923243
-0.0944274
-0.0960143
-0.0939911
-0.115416
-0.0854549
-0.118637
-0.0923076
-0.0891076
-0.0941096
-0.100423
-0.104927
-0.0977544
-0.111953
-0.104591
-0.0969884
-0.0699399
-0.0975503
-0.0953901
-0.102711
-0.09839
-0.0932277
-0.088661
-0.0976636
-0.101872
-0.138293
-0.0913365
-0.134454
-0.140152
-0.0959718
-0.134277
-0.103007
-0.0825127
-0.112403
-0.0985159
-0.0709549
-0.0623145
-0.110974
-0.118197
-0.100057
-0.0831775
-0.100069
-0.0474392
-0.0989263
-0.0928201
-0.0473911
-0.0181647
-0.0198706
-0.0856921
-0.0913741
-0.106126
-0.102017
-0.00933927
-0.00975859
-0.101035
-0.102089
-0.0966376
-0.0356086
-0.0854996
-0.0994021
-0.101349
-0.0874243
-0.0771643
-0.0370819
-0.146387
-0.0919467
-0.112349
-0.114105
-0.0820006
-0.10378
-0.0801746
-0.0884692
-0.0439554
-0.0663347
-0.103904
-0.104548
-0.0898538
-0.0943722
-0.0973866
-0.102685
-0.0982164
-0.0484176
-0.086185
-0.0971605
-0.0918402
-0.137821
-0.0484081
-0.0745914
-0.0768311
-0.072819
-0.0473447
-0.0473479
-0.0834222
-0.067352
-0.0963296
-0.0518158
-0.0565389
-0.0184612
-0.0184611
-0.0386454
-0.0613806
-0.0413538
-0.0820761
-0.0887757
-0.0947358
-0.106746
-0.0968254
-0.0896448
-0.0705761
-0.0436619
-0.0886131
-0.0918062
-0.0888848
-0.0490659
-0.0453597
-0.0353226
-0.0887594
-0.0905531
-0.0727614
-0.0821868
-0.07584
-0.0694473
-0.0929538
-0.0694412
-0.0820404
-0.0791023
-0.0484929
-0.05987
-0.0556568
-0.0982929
-0.0388635
-0.0409416
-0.040052
-0.0928281
-0.0370051
-0.0362415
-0.0645834
-0.0338019
-0.0751642
-0.0752779
-0.034698
-0.0818484
-0.0385177
-0.0382866
-0.0431362
-0.0365284
-0.0358662
-0.0535368
-0.0426323
-0.0387399
-0.0366419
-0.0749413
-0.0855389
-0.040335
-0.0827165
-0.0332296
-0.0839115
-0.066665
-0.0347168
-0.0293969
-0.0327955
-0.0435148
-0.0720603
-0.0593299
-0.0248223
-0.0275527
-0.0803357
-0.0233658
-0.0233656
-0.026476
-0.0297178
-0.0335781
-0.0390879
-0.0646318
-0.0598267
-0.0803912
-0.0234752
-0.0234751
-0.0706578
-0.029049
-0.0572753
-0.0263227
-0.026482
-0.0348925
-0.0605834
-0.0627332
-0.0668321
-0.0612495
-0.0605818
-0.0132358
-0.0977922
-0.0168833
-0.0163582
-0.0789995
-0.0784514
-0.0169518
-0.0117741
-0.0165899
-0.0728704
SCALARS cell_type float
LOOKUP_TABLE default
0
0
0
0
0
0
0
0
0
0
0
0
0
0
0
0
0
0
0
0
0
1
0
0
0
0
0
0
0
0
0
0
0
0
0
0
0
0
0
0
0
0
0
0
0
0
0
0
0
0
0
0
0
0
0
0
0
0
0
0
0
0
0
0
0
0
0
0
0
0
0
0
0
0
0
0
0
0
0
0
0
0
0
0
0
0
0
0
0
0
0
0
0
0
0
0
0
0
0
0
0
0
0
0
0
0
0
0
0
0
0
0
0
0
0
0
0
0
0
0
0
0
0
0
0
0
0
0
0
0
0
0
0
0
0
0
0
0
0
0
0
0
0
0
0
0
0
0
0
0
0
0
0
0
0
0
0
0
0
0
0
0
0
0
0
0
0
0
0
0
0
0
0
0
0
0
0
0
0
0
0
0
0
0
0
0
0
0
0
0
0
0
0
0
0
0
0
0
0
0
0
0
0
0
0
0
0
0
0
0
0
0
0
0
0
0
0
0
0
0
0
0
0
0
0
0
0
0
0
0
0
0
0
0
0
0
0
0
0
0
0
0
0
0
0
0
0
0
0
0
0
0
0
0
0
0
0
0
0
0
0
0
0
0
0
0
0
0
0
0
0
0
0
0
0
0
0
0
0
0
0
0
0
0
0
0
0
0
0
0
0
0
0
0
0
0
0
0
0
0
0
0
0
0
0
0
0
0
0
0
0
0
0
0
0
0
0
0
0
0
0
0
0
0
0
0
0
0
0
0
0
0
0
0
0
0
0
0
0
0
0
0
0
0
0
0
0
0
0
0
2
2
2
2
2
2
2
0
0
0
0
0
0
0
0
0
0
0
0
0
0
0
0
0
0
0
0
0
0
0
0
0
0
0
0
0
0
0
0
0
0
0
0
0
0
0
0
0
0
0
0
0
0
0
0
0
0
0
0
0
0
0
0
0
0
0
1
1
0
0
0
0
0
0
0
0
0
0
0
0
0
0
0
0
0
0
0
0
0
0
0
0
0
0
0
0
0
0
0
0
0
0
0
0
0
0
0
0
0
0
0
1
1
0
0
0
0
0
0
0
0
0
0
0
0
0
0
0
0
0
0
0
0
0
0
0
0
0
0
0
0
0
0
0
0
0
0
0
0
0
0
0
0
0
0
0
0
0
0
0
0
0
0
0
0
0
0
0
0
0
0
0
0
0
0
0
0
0
1
1
0
0
0
0
0
0
0
0
0
0
0
0
0
0
0
0
0
0
0
0
0
0
0
0
0
0
0
0
0
0
0
0
0
TENSORS Lagrange_strain float
0.0305697 -0.00319831 4.3704e-08
-0.00319831 0.0133897 1.32118e-07
4.3704e-08 1.32118e-07 0.00740226

0.0291946 -0.00280095 -2.09752e-07
-0.00280095 0.0335561 -6.15304e-08
-2.09752e-07 -6.15304e-08 0.0331653

0.0300231 0.00367926 1.1513e-09
0.00367926 0.0311714 1.20431e-07
1.1513e-09 1.20431e-07 0.0304697

0.0291641 -0.00392508 8.49844e-08
-0.00392508 0.0328011 3.78995e-08
8.49844e-08 3.78995e-08 0.0330902

0.035369 0.00266876 -8.84592e-08
0.00266876 0.0380864 8.31548e-08
-8.84592e-08 8.31548e-08 0.0352939

0.027737 -0.00236714 1.37144e-08
-0.00236714 0.0333859 -1.18308e-07
1.37144e-08 -1.18308e-07 0.0304407

0.0302636 0.0033941 4.35076e-08
0.0033941 0.0134953 1.40704e-07
4.35076e-08 1.40704e-07 0.00746366

0.0317564 0.00393988 6.52027e-08
0.00393988 0.0312019 1.34722e-07
6.52027e-08 1.34722e-07 0.0315625

0.0332439 0.000715501 -1.80119e-07
0.000715501 0.0262231 8.10881e-09
-1.80119e-07 8.10881e-09 0.0281438

0.0354692 -0.000991082 5.36537e-08
-0.000991082 0.0275531 1.16889e-07
5.36537e-08 1.16889e-07 0.0327229

0.0280631 0.00205135 3.79394e-08
0.00205135 0.0138096 -3.09437e-07
3.79394e-08 -3.09437e-07 0.0117543

0.027955 -0.00176567 3.21879e-08
-0.00176567 0.0350085 -5.9871e-08
3.21879e-08 -5.9871e-08 0.0315511

0.0311232 0.00365745 5.26487e-08
0.00365745 0.0313022 1.18658e-07
5.26487e-08 1.18658e-07 0.0310814

0.029071 -0.00187999 -3.58532e-08
-0.00187999 0.0348013 1.15093e-08
-3.58532e-08 1.15093e-08 0.0325482

0.034633 0.00441816 -1.14648e-07
0.00441816 0.0343641 1.25274e-07
-1.14648e-07 1.25274e-07 0.0348864

0.0343303 7.31839e-05 1.48582e-07
7.31839e-05 0.0272878 2.05749e-07
1.48582e-07 2.05749e-07 0.0307803

0.0286949 -0.00235361 -3.05083e-08
-0.00235361 0.0360153 3.00801e-08
-3.05083e-08 3.00801e-08 0.0334519

0.0345753 -0.000353069 1.54863e-07
-0.000353069 0.0273581 -1.00973e-08
1.54863e-07 -1.00973e-08 0.0319789

0.0269217 0.00347847 6.58983e-08
0.00347847 0.0309468 -7.57458e-08
6.58983e-08 -7.57458e-08 0.0275783

0.0338869 -0.00055053 -1.17577e-07
-0.00055053 0.026411 -1.78744e-07
-1.17577e-07 -1.78744e-07 0.0301361

0.0266237 0.00113527 6.31679e-08
0.00113527 0.0340361 -2.36669e-08
6.31679e-08 -2.36669e-08 0.0291517

0.0452949 0.000851334 -1.52948e-07
0.000851334 0.0452648 -2.8709e-07
-1.52948e-07 -2.8709e-07 0.0366396

0.0336776 0.000247522 -5.634e-08
0.000247522 0.026317 -4.96957e-09
-5.634e-08 -4.96957e-09 0.0298069

0.0293113 -0.00363242 -5.47915e-08
-0.00363242 0.0311379 9.68779e-08
-5.47915e-08 9.68779e-08 0.0300485

0.0337825 0.000900118 2.21024e-07
0.000900118 0.026498 2.97214e-08
2.21024e-07 2.97214e-08 0.030083

0.0285479 0.00250775 -1.29938e-07
0.00250775 0.0338958 -3.7828e-09
-1.29938e-07 -3.7828e-09 0.0322888

0.0286314 0.000526784 -2.73129e-07
0.000526784 0.0176907 3.36322e-07
-2.73129e-07 3.36322e-07 0.0131722

0.0309161 0.00403493 1.06228e-07
0.00403493 0.0306483 -8.21019e-10
1.06228e-07 -8.21019e-10 0.0306125

0.0259262 0.00477683 5.23755e-08
0.00477683 0.0257349 -4.04013e-08
5.23755e-08 -4.04013e-08 0.0211293

0.0415295 0.00136957 8.17698e-08
0.00136957 0.0383513 4.07561e-08
8.17698e-08 4.07561e-08 0.0361367

0.0344134 0.0018712 2.06066e-07
0.0018712 0.0279542 2.68453e-09
2.06066e-07 2.68453e-09 0.0310018

0.021761 -0.00228818 -1.28862e-07
-0.00228818 0.0299944 1.57535e-08
-1.28862e-07 1.57535e-08 0.0211263

0.0228648 -0.00535282 2.23255e-08
-0.00535282 0.0234743 -1.04899e-07
2.23255e-08 -1.04899e-07 0.0125797

0.0348338 0.000800713 7.14081e-08
0.000800713 0.042256 -4.36176e-08
7.14081e-08 -4.36176e-08 0.0357879

0.0374545 -0.000661629 2.10921e-07
-0.000661629 0.0412035 -2.4547e-07
2.10921e-07 -2.4547e-07 0.0359025

0.0410764 0.00281314 -1.25703e-08
0.00281314 0.0359877 1.36983e-07
-1.25703e-08 1.36983e-07 0.0357681

0.0372551 0.000705194 7.11849e-08
0.000705194 0.0432165 -1.30497e-07
7.11849e-08 -1.30497e-07 0.0361432

0.0402619 -0.00121882 -3.99506e-07
-0.00121882 0.0378315 -1.20711e-08
-3.99506e-07 -1.20711e-08 0.0358098

0.0312177 -0.00367823 -1.64491e-07
-0.00367823 0.0311254 9.03252e-08
-1.64491e-07 9.03252e-08 0.0309273

0.0227487 0.00527938 2.49353e-07
0.00527938 0.0237102 -2.41878e-08
2.49353e-07 -2.41878e-08 0.0125818

0.0297629 -0.00231598 1.13603e-09
-0.00231598 0.0220323 2.64203e-09
1.13603e-09 2.64203e-09 0.0208761

0.0376205 -0.000522541 -9.69182e-08
-0.000522541 0.0430649 -1.39042e-07
-9.69182e-08 -1.39042e-07 0.0361459

0.0412419 0.00263414 -7.2429e-08
0.00263414 0.039416 1.36893e-07
-7.2429e-08 1.36893e-07 0.0361284

0.0343032 -0.00161721 -1.48191e-07
-0.00161721 0.0279963 -5.00941e-08
-1.48191e-07 -5.00941e-08 0.0310858

0.023107 -0.00552622 3.47236e-08
-0.00552622 0.023564 -1.18729e-07
3.47236e-08 -1.18729e-07 0.016217

0.0299455 -0.0023325 -1.2676e-07
-0.0023325 0.0221565 -5.56068e-08
-1.2676e-07 -5.56068e-08 0.0213455

0.0258952 0.00222759 2.81589e-08
0.00222759 0.0326562 4.95384e-08
2.81589e-08 4.95384e-08 0.027917

0.0275525 0.00252894 7.41377e-08
0.00252894 0.0323761 -8.80485e-08
7.41377e-08 -8.80485e-08 0.0284925

0.0341776 -0.00214094 3.976e-08
-0.00214094 0.0271088 1.2976e-07
3.976e-08 1.2976e-07 0.030474

0.0229039 -0.00439267 9.0238e-08
-0.00439267 0.0272505 2.5595e-07
9.0238e-08 2.5595e-07 0.0198516

0.0294957 0.00247178 -4.54699e-08
0.00247178 0.0218354 -5.31305e-08
-4.54699e-08 -5.31305e-08 0.0202822

0.0298742 -0.00327113 1.33042e-07
-0.00327113 0.024515 -1.84207e-07
1.33042e-07 -1.84207e-07 0.0230496

0.034479 0.00257752 -4.39174e-08
0.00257752 0.0382049 1.39213e-07
-4.39174e-08 1.39213e-07 0.0352726

0.0286913 0.00383879 -7.93625e-08
0.00383879 0.0257815 -3.70742e-08
-7.93625e-08 -3.70742e-08 0.0231182

0.0349302 -0.00291589 1.21059e-08
-0.00291589 0.0374339 5.16064e-08
1.21059e-08 5.16064e-08 0.0351909

0.0255817 -0.0054558 3.15307e-07
-0.0054558 0.0229037 -1.20252e-07
3.15307e-07 -1.20252e-07 0.0158205

0.0373481 0.000745968 -2.41843e-08
0.000745968 0.0414144 2.65295e-07
-2.41843e-08 2.65295e-07 0.0359229

0.023169 -0.00069339 8.82379e-09
-0.00069339 0.0313154 2.52979e-07
8.82379e-09 2.52979e-07 0.0231042

0.0410315 0.00137987 -2.1633e-07
0.00137987 0.0377082 -4.36995e-08
-2.1633e-07 -4.36995e-08 0.0359012

0.0276774 0.00280528 7.25014e-08
0.00280528 0.0327517 -9.44942e-08
7.25014e-08 -9.44942e-08 0.0302329

0.0361413 0.000784676 -2.95368e-08
0.000784676 0.0281335 -2.03817e-07
-2.95368e-08 -2.03817e-07 0.033675

0.0362566 0.00153414 -7.78504e-09
0.00153414 0.0316952 1.0932e-08
-7.78504e-09 1.0932e-08 0.0342226

0.028639 0.00405722 1.50298e-07
0.00405722 0.0198984 2.21257e-07
1.50298e-07 2.21257e-07 0.0137601

0.0309743 -0.000783927 -3.20503e-08
-0.000783927 0.0370865 2.9139e-08
-3.20503e-08 2.9139e-08 0.0338834

0.0315567 0.00124372 -1.25795e-07
0.00124372 0.036423 5.80015e-08
-1.25795e-07 5.80015e-08 0.0342614

0.0285506 -0.000375373 1.33929e-07
-0.000375373 0.0369581 -7.74701e-08
1.33929e-07 -7.74701e-08 0.0326725

0.0296047 0.00307125 -3.97823e-08
0.00307125 0.0347935 -4.939e-09
-3.97823e-08 -4.939e-09 0.0337109

0.0347214 0.00112205 1.07341e-08
0.00112205 0.0278405 -1.19243e-08
1.07341e-08 -1.19243e-08 0.0322105

0.0291893 -0.00369917 2.48339e-08
-0.00369917 0.0310228 -1.4014e-07
2.48339e-08 -1.4014e-07 0.0299114

0.0350569 -0.000236936 3.23729e-08
-0.000236936 0.0275819 1.16557e-07
3.23729e-08 1.16557e-07 0.0333951

0.0344537 -0.00254794 -1.50283e-07
-0.00254794 0.0381356 7.08041e-08
-1.50283e-07 7.08041e-08 0.0352626

0.0350124 0.00284969 9.52561e-08
0.00284969 0.0375713 -5.9908e-08
9.52561e-08 -5.9908e-08 0.0352425

0.02189 -0.00213205 -5.61362e-08
-0.00213205 0.0299242 -1.33886e-07
-5.61362e-08 -1.33886e-07 0.0208527

0.034703 -0.0036911 -9.43198e-08
-0.0036911 0.0319597 -1.52461e-07
-9.43198e-08 -1.52461e-07 0.0330808

0.0292938 -0.00329753 2.90703e-08
-0.00329753 0.0321146 -1.32757e-07
2.90703e-08 -1.32757e-07 0.0304352

0.0267814 -0.00401719 2.15291e-07
-0.00401719 0.0176062 -1.4691e-08
2.15291e-07 -1.4691e-08 0.0127267

0.0324058 0.000418573 8.16333e-08
0.000418573 0.0381068 6.44993e-08
8.16333e-08 6.44993e-08 0.0344076

0.0345393 0.00381738 -1.32273e-07
0.00381738 0.0309435 1.77585e-07
-1.32273e-07 1.77585e-07 0.0326622

0.0283785 0.00258167 -2.37969e-07
0.00258167 0.0341316 -3.07487e-08
-2.37969e-07 -3.07487e-08 0.0322157

0.0315441 0.00103787 1.89209e-07
0.00103787 0.0228453 3.16582e-08
1.89209e-07 3.16582e-08 0.0240708

0.027099 -0.00435897 1.97532e-08
-0.00435897 0.0237382 -1.20292e-07
1.97532e-08 -1.20292e-07 0.0183247

0.0362615 -0.00140276 1.52907e-07
-0.00140276 0.0387444 4.39976e-08
1.52907e-07 4.39976e-08 0.0354029

0.0315578 0.00317122 6.50683e-08
0.00317122 0.0344031 1.22425e-07
6.50683e-08 1.22425e-07 0.0340922

0.0273031 -0.00415644 1.78741e-08
-0.00415644 0.0221764 -4.85864e-08
1.78741e-08 -4.85864e-08 0.0184125

0.0303601 0.00139119 -9.32507e-08
0.00139119 0.0228319 3.71106e-08
-9.32507e-08 3.71106e-08 0.0209559

0.0186031 -0.00269712 -4.68185e-08
-0.00269712 0.0289306 -8.30393e-08
-4.68185e-08 -8.30393e-08 0.0158941

0.0272017 0.00188893 8.35671e-08
0.00188893 0.0343221 2.50773e-08
8.35671e-08 2.50773e-08 0.0306564

0.035384 0.00305681 -1.71854e-08
0.00305681 0.0308218 1.53272e-07
-1.71854e-08 1.53272e-07 0.0327556

0.0226493 0.00538636 1.82923e-07
0.00538636 0.0240901 -1.02038e-07
1.82923e-07 -1.02038e-07 0.0161996

0.0459505 0.00223759 -3.0206e-07
0.00223759 0.0417511 3.29836e-07
-3.0206e-07 3.29836e-07 0.0366406

0.0230828 -0.000534419 9.94235e-08
-0.000534419 0.0313564 1.94256e-07
9.94235e-08 1.94256e-07 0.0230741

0.0463635 -0.00225608 5.12052e-07
-0.00225608 0.0412952 -1.97074e-07
5.12052e-07 -1.97074e-07 0.0365957

0.037067 -0.00362433 3.36976e-08
-0.00362433 0.0334927 1.42254e-08
3.36976e-08 1.42254e-08 0.0346226

0.0351395 0.00361935 1.72614e-08
0.00361935 0.0300059 2.58323e-08
1.72614e-08 2.58323e-08 0.0324583

0.0299642 -0.00315909 -2.40886e-07
-0.00315909 0.024692 1.22098e-07
-2.40886e-07 1.22098e-07 0.0232875

0.0230138 0.0040301 -9.27701e-08
0.0040301 0.0277806 7.16328e-08
-9.27701e-08 7.16328e-08 0.0203834

0.0210951 -0.00137869 -8.38373e-08
-0.00137869 0.029897 -1.03877e-07
-8.38373e-08 -1.03877e-07 0.0182527

0.0287477 0.00288879 7.61339e-08
0.00288879 0.0342293 2.5202e-08
7.61339e-08 2.5202e-08 0.0327016

0.0370136 0.0022362 6.30234e-08
0.0022362 0.0334535 -1.73519e-08
6.30234e-08 -1.73519e-08 0.034386

0.0281503 0.00198838 -1.86379e-07
0.00198838 0.0340617 2.32937e-07
-1.86379e-07 2.32937e-07 0.0308673

0.0318847 0.00207311 1.65123e-07
0.00207311 0.0252557 -6.52864e-09
1.65123e-07 -6.52864e-09 0.0256191

0.023909 -0.00277447 -1.17696e-07
-0.00277447 0.0297669 -1.40441e-07
-1.17696e-07 -1.40441e-07 0.0215629

0.0279004 -0.00376399 7.19711e-08
-0.00376399 0.0218166 8.19253e-09
7.19711e-08 8.19253e-09 0.0180771

0.0293335 -0.0032323 9.71927e-08
-0.0032323 0.0326321 1.39628e-07
9.71927e-08 1.39628e-07 0.0324048

0.0306283 0.00361496 -7.91686e-08
0.00361496 0.0322304 -7.34841e-08
-7.91686e-08 -7.34841e-08 0.0323726

0.0287099 0.00304816 1.05091e-08
0.00304816 0.0340289 1.38557e-08
1.05091e-08 1.38557e-08 0.0326321

0.0292085 0.00172509 -1.68393e-08
0.00172509 0.0376192 1.16526e-07
-1.68393e-08 1.16526e-07 0.0338479

0.0344795 0.00123242 -1.29598e-09
0.00123242 0.0275255 6.48146e-08
-1.29598e-09 6.48146e-08 0.0306765

0.0199618 -0.00060529 -6.1478e-08
-0.00060529 0.0296623 -1.25337e-07
-6.1478e-08 -1.25337e-07 0.0181051

0.0297995 -0.004863 -1.41113e-07
-0.004863 0.033051 1.79707e-07
-1.41113e-07 1.79707e-07 0.0337434

0.0290833 0.00360017 5.35719e-08
0.00360017 0.0313616 1.18428e-07
5.35719e-08 1.18428e-07 0.0302658

0.0181065 0.000282944 -1.90611e-08
0.000282944 0.0293124 -1.17906e-07
-1.90611e-08 -1.17906e-07 0.0168795

0.0278452 0.00442407 -1.61658e-07
0.00442407 0.0209693 -2.41663e-08
-1.61658e-07 -2.41663e-08 0.0174558

0.029193 -0.00302065 -4.87355e-08
-0.00302065 0.0327051 -9.7971e-08
-4.87355e-08 -9.7971e-08 0.0321872

0.0352443 0.000759732 -1.54646e-08
0.000759732 0.0273405 3.76313e-08
-1.54646e-08 3.76313e-08 0.0325545

0.029429 0.00352052 -8.65088e-08
0.00352052 0.0252028 -2.69498e-08
-8.65088e-08 -2.69498e-08 0.0231126

0.0396376 0.00171012 1.64587e-07
0.00171012 0.0390402 2.83307e-08
1.64587e-07 2.83307e-08 0.0359415

0.028377 0.00312358 7.15333e-08
0.00312358 0.0224026 6.53447e-08
7.15333e-08 6.53447e-08 0.0182875

0.0394901 -0.00175059 7.88234e-09
-0.00175059 0.0390661 1.60146e-07
7.88234e-09 1.60146e-07 0.0359067

0.0232623 0.00010364 8.30089e-08
0.00010364 0.03152 2.62574e-07
8.30089e-08 2.62574e-07 0.023121

0.0327608 -0.000288413 -9.55224e-08
-0.000288413 0.0246614 9.5542e-08
-9.55224e-08 9.5542e-08 0.0269678

0.0380559 -0.00212907 1.23029e-08
-0.00212907 0.0304655 1.07939e-07
1.23029e-08 1.07939e-07 0.0347948

0.02924 0.0032057 1.17137e-07
0.0032057 0.0332798 1.14282e-07
1.17137e-07 1.14282e-07 0.0333446

0.0289523 -0.0017725 3.88862e-08
-0.0017725 0.0366108 1.19899e-07
3.88862e-08 1.19899e-07 0.0335013

0.0365853 -0.00108481 5.40034e-08
-0.00108481 0.0264784 8.26807e-08
5.40034e-08 8.26807e-08 0.0338617

0.0311817 -0.00292569 -2.95641e-08
-0.00292569 0.0383075 -2.20382e-08
-2.95641e-08 -2.20382e-08 0.0348452

0.0381665 -0.000884825 -3.03412e-07
-0.000884825 0.0387321 2.4317e-08
-3.03412e-07 2.4317e-08 0.0358368

0.0301817 -0.00393977 -3.04235e-08
-0.00393977 0.0327124 -9.80968e-08
-3.04235e-08 -9.80968e-08 0.032765

0.0213339 0.00146972 9.42028e-08
0.00146972 0.0296153 -5.33647e-08
9.42028e-08 -5.33647e-08 0.0182967

0.0293897 -0.00364593 2.18866e-07
-0.00364593 0.0253505 1.29218e-08
2.18866e-07 1.29218e-08 0.0231833

0.0328607 -0.00181694 -1.00024e-07
-0.00181694 0.0397192 1.52048e-07
-1.00024e-07 1.52048e-07 0.0352424

0.0350928 7.67684e-05 1.12607e-09
7.67684e-05 0.0272239 3.90875e-08
1.12607e-09 3.90875e-08 0.0332529

0.03082 -0.00282895 4.02204e-08
-0.00282895 0.0348935 1.1776e-07
4.02204e-08 1.1776e-07 0.0340857

0.0295364 0.00338866 3.54094e-08
0.00338866 0.0328732 -1.1376e-07
3.54094e-08 -1.1376e-07 0.0333277

0.0264617 -0.00406359 1.28071e-07
-0.00406359 0.0272631 2.57194e-07
1.28071e-07 2.57194e-07 0.0215856

0.0371734 -0.000958105 2.33408e-07
-0.000958105 0.0416106 -1.68439e-08
2.33408e-07 -1.68439e-08 0.0358879

0.0227122 -0.00423794 2.26439e-07
-0.00423794 0.0272452 3.72735e-08
2.26439e-07 3.72735e-08 0.0168784

0.0341851 -0.00252514 4.32512e-08
-0.00252514 0.0286079 -2.16512e-07
4.32512e-08 -2.16512e-07 0.031046

0.0364272 0.000290071 -2.16715e-08
0.000290071 0.029439 -2.6772e-08
-2.16715e-08 -2.6772e-08 0.0341953

0.0396421 0.00239648 2.06716e-07
0.00239648 0.0391138 -1.29245e-07
2.06716e-07 -1.29245e-07 0.0358689

0.0238575 0.00260928 -2.83104e-08
0.00260928 0.0301532 -4.696e-08
-2.83104e-08 -4.696e-08 0.0218

0.0334324 0.0035817 2.89422e-08
0.0035817 0.0307169 1.87051e-08
2.89422e-08 1.87051e-08 0.0317688

0.0316449 -0.00319449 -1.52109e-07
-0.00319449 0.0265533 -2.83126e-07
-1.52109e-07 -2.83126e-07 0.0269368

0.0289308 -0.00234091 -1.08816e-08
-0.00234091 0.0342367 1.14672e-08
-1.08816e-08 1.14672e-08 0.0326075

0.0262458 0.00450177 6.43174e-08
0.00450177 0.0245589 -2.52629e-08
6.43174e-08 -2.52629e-08 0.0180821

0.0284244 -0.00286669 -2.04068e-07
-0.00286669 0.0340342 -6.54095e-08
-2.04068e-07 -6.54095e-08 0.0324507

0.0331508 0.00405896 -1.41453e-08
0.00405896 0.0304661 1.52362e-07
-1.41453e-08 1.52362e-07 0.0315439

0.0333365 -0.00331188 -1.86423e-07
-0.00331188 0.0283584 -1.80936e-08
-1.86423e-07 -1.80936e-08 0.0300474

0.0291628 -0.00329543 -7.98391e-08
-0.00329543 0.0319896 7.11353e-08
-7.98391e-08 7.11353e-08 0.030439

0.0314571 -0.00242944 -1.88117e-07
-0.00242944 0.0247202 -2.29718e-07
-1.88117e-07 -2.29718e-07 0.0251576

0.0329574 -0.0024669 -1.35401e-08
-0.0024669 0.0267109 -2.66693e-07
-1.35401e-08 -2.66693e-07 0.0285981

0.0294931 -0.00334173 -9.57231e-08
-0.00334173 0.0329522 2.70795e-08
-9.57231e-08 2.70795e-08 0.033409

0.0261355 0.00463413 7.003e-10
0.00463413 0.0255427 5.87784e-08
7.003e-10 5.87784e-08 0.0210936

0.0281516 0.00201684 -1.33034e-07
0.00201684 0.0343377 -1.30652e-08
-1.33034e-07 -1.30652e-08 0.0311111

0.0308884 0.00348157 -2.59042e-08
0.00348157 0.0322571 -2.47416e-08
-2.59042e-08 -2.47416e-08 0.0326018

0.0291589 0.00334819 7.06692e-08
0.00334819 0.033194 1.45413e-07
7.06692e-08 1.45413e-07 0.0332621

0.0289859 0.00152327 -6.63803e-08
0.00152327 0.0354724 -1.73622e-07
-6.63803e-08 -1.73622e-07 0.0326972

0.0310548 -0.00106189 -9.46772e-08
-0.00106189 0.0231426 2.12854e-09
-9.46772e-08 2.12854e-09 0.0220792

0.0238852 0.0024058 -1.31733e-07
0.0024058 0.0304124 1.09058e-07
-1.31733e-07 1.09058e-07 0.0221142

0.029215 -0.00320411 -6.10548e-08
-0.00320411 0.0326384 2.29621e-07
-6.10548e-08 2.29621e-07 0.0316202

0.0289893 0.0033569 -9.70408e-08
0.0033569 0.0309345 -5.04134e-08
-9.70408e-08 -5.04134e-08 0.0285697

0.0266141 -0.0045915 -6.50468e-08
-0.0045915 0.0252317 -6.93963e-09
-6.50468e-08 -6.93963e-09 0.0212578

0.0262792 0.00489382 3.46878e-08
0.00489382 0.0209474 9.12685e-08
3.46878e-08 9.12685e-08 0.0167633

0.0235041 -0.00428716 -9.12653e-08
-0.00428716 0.0274661 1.19763e-07
-9.12653e-08 1.19763e-07 0.0206276

0.0266732 -0.00402778 -7.28307e-09
-0.00402778 0.0274841 1.24135e-07
-7.28307e-09 1.24135e-07 0.0220513

0.0353669 -0.000906454 1.85359e-07
-0.000906454 0.0273924 -3.81522e-09
1.85359e-07 -3.81522e-09 0.0326568

0.0260466 0.00392201 1.07372e-07
0.00392201 0.0280941 -1.25545e-07
1.07372e-07 -1.25545e-07 0.0221038

0.0307898 0.00171665 -6.18801e-08
0.00171665 0.0233616 4.59651e-08
-6.18801e-08 4.59651e-08 0.0220269

0.0214321 0.00172237 1.65919e-07
0.00172237 0.0302427 1.64477e-07
1.65919e-07 1.64477e-07 0.021134

0.0242642 -0.00288961 -1.39623e-07
-0.00288961 0.0299539 1.54316e-08
-1.39623e-07 1.54316e-08 0.0220875

0.0313475 -0.000131145 -8.15651e-08
-0.000131145 0.0392757 -5.03185e-08
-8.15651e-08 -5.03185e-08 0.0346728

0.0230596 0.000294712 1.7793e-08
0.000294712 0.0314629 1.8902e-07
1.7793e-08 1.8902e-07 0.0230637

0.0227785 0.0040017 5.02679e-08
0.0040017 0.0281292 -1.30044e-07
5.02679e-08 -1.30044e-07 0.0206394

0.0288906 0.0015858 -6.14181e-08
0.0015858 0.0358348 -1.02116e-07
-6.14181e-08 -1.02116e-07 0.0328957

0.0293181 -0.00358037 -2.9487e-07
-0.00358037 0.0251311 3.0138e-08
-2.9487e-07 3.0138e-08 0.0232412

0.0369788 0.0027331 6.38402e-08
0.0027331 0.0297255 -3.78845e-08
6.38402e-08 -3.78845e-08 0.0338039

0.0371775 0.00348331 1.46471e-07
0.00348331 0.0334245 2.76471e-08
1.46471e-07 2.76471e-08 0.0346543

0.0345466 -0.00244661 -2.45003e-08
-0.00244661 0.0285318 -5.42971e-10
-2.45003e-08 -5.42971e-10 0.031381

0.0390584 -0.000265664 -9.93314e-08
-0.000265664 0.0339266 -1.04956e-07
-9.93314e-08 -1.04956e-07 0.0352103

0.0314814 -0.00418771 -6.66981e-08
-0.00418771 0.031784 1.00296e-08
-6.66981e-08 1.00296e-08 0.0321585

0.029464 0.00300775 -5.93842e-08
0.00300775 0.0223287 4.25445e-08
-5.93842e-08 4.25445e-08 0.0210679

0.0302324 0.00397314 2.89492e-08
0.00397314 0.0326657 -1.25555e-07
2.89492e-08 -1.25555e-07 0.0327222

0.0302798 0.0038469 -6.72123e-08
0.0038469 0.0326095 -9.62958e-08
-6.72123e-08 -9.62958e-08 0.032677

0.0262461 0.00396209 -7.61234e-09
0.00396209 0.0277694 7.52729e-08
-7.61234e-09 7.52729e-08 0.0218663

0.0344525 0.00357686 -4.21816e-09
0.00357686 0.0317818 -7.61595e-10
-4.21816e-09 -7.61595e-10 0.0328337

0.0302507 0.000452554 -8.75229e-08
0.000452554 0.0204296 -8.17296e-09
-8.75229e-08 -8.17296e-09 0.0205747

0.0331882 0.00420076 -1.90551e-07
0.00420076 0.0323752 -4.07751e-08
-1.90551e-07 -4.07751e-08 0.0334861

0.0305029 -0.00165448 -2.49902e-09
-0.00165448 0.0366184 1.17993e-07
-2.49902e-09 1.17993e-07 0.033665

0.0373621 0.00323281 1.47436e-08
0.00323281 0.0334619 -1.59017e-07
1.47436e-08 -1.59017e-07 0.0346664

0.0307396 -0.00389615 1.2721e-07
-0.00389615 0.0322759 1.462e-07
1.2721e-07 1.462e-07 0.0326825

0.029376 -0.000644694 -6.18154e-08
-0.000644694 0.0369055 -9.43768e-08
-6.18154e-08 -9.43768e-08 0.0328501

0.0288146 -0.00315266 1.37358e-08
-0.00315266 0.0221415 -5.4178e-08
1.37358e-08 -5.4178e-08 0.0187603

0.0290047 0.00384485 -1.30305e-07
0.00384485 0.0255797 6.21083e-08
-1.30305e-07 6.21083e-08 0.0230746

0.0217028 0.00189118 1.44014e-07
0.00189118 0.0300635 -3.49066e-08
1.44014e-07 -3.49066e-08 0.0210854

0.0349925 -0.000161332 -1.49442e-07
-0.000161332 0.0273921 -3.74634e-09
-1.49442e-07 -3.74634e-09 0.0333039

0.0344222 3.51577e-07 7.49266e-08
3.51577e-07 0.0272769 2.00715e-07
7.49266e-08 2.00715e-07 0.0320435

0.0291681 0.00303984 1.58554e-07
0.00303984 0.0326823 -1.06125e-07
1.58554e-07 -1.06125e-07 0.032135

0.031452 0.00316639 -1.67514e-07
0.00316639 0.0342529 7.22292e-10
-1.67514e-07 7.22292e-10 0.0340604

0.0291711 -0.00320449 -7.7085e-08
-0.00320449 0.0332412 1.61481e-07
-7.7085e-08 1.61481e-07 0.0333813

0.0287758 -8.56903e-05 -1.70402e-08
-8.56903e-05 0.0367073 -1.63314e-09
-1.70402e-08 -1.63314e-09 0.0325278

0.0294668 0.00337595 5.18083e-08
0.00337595 0.0330774 8.62629e-08
5.18083e-08 8.62629e-08 0.033357

0.0328621 -0.00134664 1.52242e-08
-0.00134664 0.0253638 -1.57754e-07
1.52242e-08 -1.57754e-07 0.027831

0.026357 -0.00425504 2.70589e-07
-0.00425504 0.0281819 2.28799e-08
2.70589e-07 2.28799e-08 0.0242694

0.0363001 -0.000331733 6.36766e-08
-0.000331733 0.0293854 2.1464e-08
6.36766e-08 2.1464e-08 0.0340302

0.0267828 -0.00444593 -1.83769e-08
-0.00444593 0.0251923 2.07879e-08
-1.83769e-08 2.07879e-08 0.0209507

0.0309018 0.00250728 -5.80529e-08
0.00250728 0.0350655 -2.35872e-08
-5.80529e-08 -2.35872e-08 0.03407

0.0351158 -0.00349696 7.66332e-08
-0.00349696 0.0303905 -1.49414e-07
7.66332e-08 -1.49414e-07 0.032617

0.0305044 -0.00124998 -1.81487e-08
-0.00124998 0.0229801 -4.2208e-08
-1.81487e-08 -4.2208e-08 0.02148

0.0371501 -0.00307702 1.51443e-07
-0.00307702 0.0316553 -1.97304e-07
1.51443e-07 -1.97304e-07 0.0339901

0.0349719 0.000321842 3.1205e-08
0.000321842 0.0275572 3.71654e-08
3.1205e-08 3.71654e-08 0.0334323

0.0358456 -0.00308858 1.71632e-07
-0.00308858 0.0332599 -2.60528e-08
1.71632e-07 -2.60528e-08 0.0341457

0.0349309 -0.00341074 -2.21892e-07
-0.00341074 0.0295971 2.14795e-08
-2.21892e-07 2.14795e-08 0.0321803

0.0349117 -0.00113377 1.3295e-07
-0.00113377 0.0278523 -8.87236e-08
1.3295e-07 -8.87236e-08 0.0323437

0.0314923 -0.00306253 7.7734e-08
-0.00306253 0.0344507 -8.49524e-08
7.7734e-08 -8.49524e-08 0.0341488

0.0292379 -0.00407148 1.80835e-07
-0.00407148 0.0269017 6.86863e-08
1.80835e-07 6.86863e-08 0.0253481

0.0349949 -0.00324401 -2.18086e-07
-0.00324401 0.0299175 3.64978e-08
-2.18086e-07 3.64978e-08 0.0321975

0.0314651 0.00140916 -1.50467e-08
0.00140916 0.0233288 4.84525e-08
-1.50467e-08 4.84525e-08 0.0244855

0.0336673 0.00348413 -2.16552e-07
0.00348413 0.0334458 -5.57333e-10
-2.16552e-07 -5.57333e-10 0.0336522

0.0298955 -0.00496706 1.30697e-07
-0.00496706 0.0330809 1.80803e-08
1.30697e-07 1.80803e-08 0.0338595

0.0300456 0.00492028 8.6325e-08
0.00492028 0.0329429 8.48103e-08
8.6325e-08 8.48103e-08 0.0338264

0.0276905 -0.00374178 -1.22446e-07
-0.00374178 0.0348095 8.98632e-08
-1.22446e-07 8.98632e-08 0.033769

0.0279285 0.00354708 1.76871e-07
0.00354708 0.0348377 4.41145e-09
1.76871e-07 4.41145e-09 0.0337338

0.0364322 -0.00115379 -5.50022e-08
-0.00115379 0.0263445 -1.72535e-07
-5.50022e-08 -1.72535e-07 0.0337601

0.0362009 0.0012475 -7.31828e-08
0.0012475 0.0265658 -1.36585e-07
-7.31828e-08 -1.36585e-07 0.0337229

0.0350367 -0.00130674 -8.85353e-10
-0.00130674 0.0284703 -1.17617e-08
-8.85353e-10 -1.17617e-08 0.032578

0.0344384 0.004259 6.10033e-08
0.004259 0.0342919 4.91301e-09
6.10033e-08 4.91301e-09 0.0348147

0.0343143 -0.00435687 8.44546e-08
-0.00435687 0.0342833 1.77544e-07
8.44546e-08 1.77544e-07 0.034803

0.0305232 0.00209366 -1.38351e-07
0.00209366 0.0381673 1.34584e-07
-1.38351e-07 1.34584e-07 0.0348518

0.0306665 -0.00205957 9.29243e-09
-0.00205957 0.0380972 6.30639e-08
9.29243e-09 6.30639e-08 0.0348391

0.0395038 -0.000529031 1.47633e-08
-0.000529031 0.0328512 1.42775e-07
1.47633e-08 1.42775e-07 0.0352599

0.0397064 0.000513685 9.41673e-08
0.000513685 0.032624 -1.47597e-07
9.41673e-08 -1.47597e-07 0.0353052

0.0239669 0.00127602 -1.60781e-07
0.00127602 0.0320057 -1.38835e-07
-1.60781e-07 -1.38835e-07 0.0251863

0.0311646 -0.00326553 -4.49238e-08
-0.00326553 0.0322427 -1.22168e-07
-4.49238e-08 -1.22168e-07 0.0328041

0.0277823 -0.00478544 -2.19677e-08
-0.00478544 0.0333146 1.60226e-07
-2.19677e-08 1.60226e-07 0.0334575

0.0333616 -0.000610454 8.53185e-09
-0.000610454 0.0264052 -1.69705e-07
8.53185e-09 -1.69705e-07 0.0284504

0.0381896 -0.00225179 -1.2595e-07
-0.00225179 0.0307967 -9.71539e-08
-1.2595e-07 -9.71539e-08 0.0348949

0.038238 0.00218389 -4.69277e-09
0.00218389 0.0309099 -4.22868e-17
-4.69277e-09 -4.22868e-17 0.034927

0.0360863 1.5614e-05 9.64803e-09
1.5614e-05 0.0251285 7.54636e-08
9.64803e-09 7.54636e-08 0.0334727

0.0242429 0.00302915 -4.71601e-08
0.00302915 0.0304002 -8.14139e-08
-4.71601e-08 -8.14139e-08 0.024279

0.0276769 0.00475619 -1.19836e-07
0.00475619 0.0333154 1.37396e-07
-1.19836e-07 1.37396e-07 0.0333954

0.0286771 -0.0030761 1.02542e-08
-0.0030761 0.0342636 1.10836e-08
1.02542e-08 1.10836e-08 0.0327547

0.0310879 0.00303603 -2.00803e-07
0.00303603 0.0251487 -3.2868e-08
-2.00803e-07 -3.2868e-08 0.0254692

0.0372296 0.00316571 3.70894e-08
0.00316571 0.0315428 6.69656e-09
3.70894e-08 6.69656e-09 0.0340781

0.0292292 -0.00406745 -2.6072e-07
-0.00406745 0.0269377 -2.59417e-08
-2.6072e-07 -2.59417e-08 0.0253233

0.0364038 -0.000453948 -7.69752e-08
-0.000453948 0.0296938 -1.77061e-07
-7.69752e-08 -1.77061e-07 0.0341332

0.0273473 -0.0044946 -6.67348e-09
-0.0044946 0.0333976 6.90531e-08
-6.67348e-09 6.90531e-08 0.0334442

0.0240397 0.00107908 -8.90873e-08
0.00107908 0.0322466 -9.08261e-08
-8.90873e-08 -9.08261e-08 0.0255079

0.0242315 0.00282673 -1.47015e-07
0.00282673 0.0307039 7.91666e-08
-1.47015e-07 7.91666e-08 0.0245468

0.0267945 0.00459475 -1.15914e-07
0.00459475 0.0240436 -1.10438e-07
-1.15914e-07 -1.10438e-07 0.018215

0.0298532 0.000199901 -8.50534e-08
0.000199901 0.0200898 5.87047e-08
-8.50534e-08 5.87047e-08 0.0193639

0.0319109 -0.00302406 -1.35335e-07
-0.00302406 0.0341648 1.87618e-07
-1.35335e-07 1.87618e-07 0.0340379

0.0229203 0.00399989 2.65544e-08
0.00399989 0.0276624 -1.72132e-07
2.65544e-08 -1.72132e-07 0.0176544

0.0292124 0.00310104 1.67544e-07
0.00310104 0.0327659 -9.2119e-08
1.67544e-07 -9.2119e-08 0.0310146

0.0315972 -0.0006946 -7.83097e-08
-0.0006946 0.0231617 2.57269e-09
-7.83097e-08 2.57269e-09 0.0244868

0.0327639 0.00146458 -1.85956e-07
0.00146458 0.0253487 2.19949e-08
-1.85956e-07 2.19949e-08 0.0276152

0.0359807 5.62423e-05 -6.57019e-08
5.62423e-05 0.0249616 1.47322e-07
-6.57019e-08 1.47322e-07 0.0333886

0.0279685 -0.00380555 -9.93323e-08
-0.00380555 0.0349516 1.21718e-07
-9.93323e-08 1.21718e-07 0.0338183

0.0393156 -0.000843992 -2.91735e-07
-0.000843992 0.0416035 2.81903e-07
-2.91735e-07 2.81903e-07 0.036192

0.0298705 0.00493895 -1.01098e-07
0.00493895 0.0329588 -1.17589e-07
-1.01098e-07 -1.17589e-07 0.0337814

0.0302907 0.000214604 4.19607e-08
0.000214604 0.0203982 3.23039e-10
4.19607e-08 3.23039e-10 0.0172774

0.0266759 -0.00425089 7.57913e-08
-0.00425089 0.0281355 2.03171e-09
7.57913e-08 2.03171e-09 0.0244394

0.0277491 0.00481582 3.63961e-08
0.00481582 0.0333178 1.13347e-07
3.63961e-08 1.13347e-07 0.0334577

0.0279471 -0.00145876 1.48934e-07
-0.00145876 0.0350876 -4.4851e-08
1.48934e-07 -4.4851e-08 0.0314526

0.0244669 -0.00330536 -1.41244e-07
-0.00330536 0.0300179 -1.02985e-07
-1.41244e-07 -1.02985e-07 0.024219

0.0279934 0.00377932 2.08833e-07
0.00377932 0.0349127 -4.08936e-08
2.08833e-07 -4.08936e-08 0.0337892

0.0313642 -0.00340976 -4.12676e-09
-0.00340976 0.0270107 5.06946e-08
-4.12676e-09 5.06946e-08 0.0269935

0.0402813 0.00140918 -9.98238e-08
0.00140918 0.0406188 -2.77903e-07
-9.98238e-08 -2.77903e-07 0.0361725

0.0258829 0.00400331 1.51616e-07
0.00400331 0.0289568 -4.4334e-08
1.51616e-07 -4.4334e-08 0.024513

0.0366805 0.00110276 -1.80164e-08
0.00110276 0.026355 -3.23545e-08
-1.80164e-08 -3.23545e-08 0.0339002

0.0333441 0.00398435 -5.36286e-08
0.00398435 0.0321179 -7.63349e-08
-5.36286e-08 -7.63349e-08 0.033318

0.0292306 0.00306736 9.54238e-08
0.00306736 0.032608 -1.23332e-07
9.54238e-08 -1.23332e-07 0.0321601

0.0343663 -0.00431073 -7.76569e-08
-0.00431073 0.0345073 -8.13946e-08
-7.76569e-08 -8.13946e-08 0.0348872

0.0354923 -0.0030637 1.72652e-07
-0.0030637 0.0305923 4.63254e-08
1.72652e-07 4.63254e-08 0.0327527

0.0333683 0.00138775 2.15899e-07
0.00138775 0.0395792 1.50121e-07
2.15899e-07 1.50121e-07 0.0350046

0.0291996 -0.00307938 -9.10578e-08
-0.00307938 0.0328758 -3.03419e-08
-9.10578e-08 -3.03419e-08 0.0313858

0.0292674 -0.00123233 1.46549e-07
-0.00123233 0.0192884 1.2746e-07
1.46549e-07 1.2746e-07 0.0164135

0.0287807 -0.00183251 1.49313e-08
-0.00183251 0.0184153 -5.58118e-08
1.49313e-08 -5.58118e-08 0.0161983

0.038531 0.00220232 -1.09204e-07
0.00220232 0.033241 7.20716e-08
-1.09204e-07 7.20716e-08 0.0347651

0.0280584 0.00294536 -1.00059e-07
0.00294536 0.0323378 7.71644e-08
-1.00059e-07 7.71644e-08 0.0295206

0.0320698 0.00383454 2.16258e-08
0.00383454 0.0309633 1.90095e-07
2.16258e-08 1.90095e-07 0.0314569

0.0320526 9.00095e-05 1.75021e-07
9.00095e-05 0.0245789 6.20528e-08
1.75021e-07 6.20528e-08 0.0248902

0.0302398 0.000866199 -1.58622e-08
0.000866199 0.0385835 3.46603e-08
-1.58622e-08 3.46603e-08 0.0340986

0.0354043 0.00219111 -9.25476e-08
0.00219111 0.0293253 -2.27923e-07
-9.25476e-08 -2.27923e-07 0.0328607

0.0248134 -0.00333909 -7.10334e-08
-0.00333909 0.0300088 -9.29453e-08
-7.10334e-08 -9.29453e-08 0.0244721

0.0286528 -0.000337752 1.25425e-07
-0.000337752 0.0366601 1.20208e-08
1.25425e-07 1.20208e-08 0.0323982

0.0252175 0.00174026 -1.40125e-08
0.00174026 0.0320324 -1.34496e-07
-1.40125e-08 -1.34496e-07 0.0256862

0.0332831 -0.00390982 3.83271e-09
-0.00390982 0.0304992 3.62152e-08
3.83271e-09 3.62152e-08 0.0315948

0.0290672 -0.00389644 -2.44374e-07
-0.00389644 0.0282027 5.80951e-09
-2.44374e-07 5.80951e-09 0.0257158

0.0261514 0.00409937 -2.12326e-08
0.00409937 0.028549 5.14438e-08
-2.12326e-08 5.14438e-08 0.0243203

0.0452876 -0.00201711 -9.6662e-09
-0.00201711 0.0396074 3.9931e-07
-9.6662e-09 3.9931e-07 0.036369

0.0316689 0.000256348 -5.57419e-08
0.000256348 0.039329 1.17041e-07
-5.57419e-08 1.17041e-07 0.0347714

0.030619 0.00265091 -8.76027e-08
0.00265091 0.0384452 -7.97574e-08
-8.76027e-08 -7.97574e-08 0.03496

0.038768 0.00209471 2.64853e-09
0.00209471 0.0302244 2.15908e-08
2.64853e-09 2.15908e-08 0.0349449

0.0313735 -0.003451 -5.80916e-08
-0.003451 0.0321431 -1.39267e-07
-5.80916e-08 -1.39267e-07 0.0325752

0.0318208 0.00233619 -1.16641e-07
0.00233619 0.0256225 -1.56703e-07
-1.16641e-07 -1.56703e-07 0.0258819

0.0349954 -0.00070831 1.80187e-07
-0.00070831 0.0415773 2.19967e-07
1.80187e-07 2.19967e-07 0.0357298

0.0357907 -0.00251872 8.58288e-08
-0.00251872 0.0295526 2.06035e-08
8.58288e-08 2.06035e-08 0.0332604

0.0332999 -0.00203992 9.4927e-08
-0.00203992 0.026655 1.06513e-08
9.4927e-08 1.06513e-08 0.0286778

0.0252544 0.00151102 -4.37232e-08
0.00151102 0.0322769 -8.91809e-08
-4.37232e-08 -8.91809e-08 0.0259523

0.0268071 -0.00334505 2.10362e-07
-0.00334505 0.0300122 -9.0611e-08
2.10362e-07 -9.0611e-08 0.0251895

0.0364801 -0.00336033 3.89879e-08
-0.00336033 0.0352895 2.13993e-08
3.89879e-08 2.13993e-08 0.0347445

0.0284782 0.00415246 -6.61986e-08
0.00415246 0.0277183 -1.20361e-08
-6.61986e-08 -1.20361e-08 0.0254699

0.0372459 -0.00334516 -6.25797e-08
-0.00334516 0.0333241 1.48977e-07
-6.25797e-08 1.48977e-07 0.034614

0.0322089 0.00033801 -3.72444e-08
0.00033801 0.0248646 8.25243e-08
-3.72444e-08 8.25243e-08 0.0254397

0.0191624 -0.00368947 -7.41176e-08
-0.00368947 0.0275283 -8.79316e-08
-7.41176e-08 -8.79316e-08 0.0163122

0.0292125 -0.00380409 1.53653e-07
-0.00380409 0.0281951 8.98616e-09
1.53653e-07 8.98616e-09 0.0258099

0.0230477 0.00412788 3.84623e-08
0.00412788 0.0280229 3.07383e-07
3.84623e-08 3.07383e-07 0.0175936

0.0296931 -0.00155928 -2.72642e-08
-0.00155928 0.0375354 2.79791e-08
-2.72642e-08 2.79791e-08 0.0336508

0.0243621 -0.00179392 1.5584e-07
-0.00179392 0.0318751 2.7128e-08
1.5584e-07 2.7128e-08 0.02545

0.0424385 -0.00323358 -2.25673e-07
-0.00323358 0.0423769 7.50097e-08
-2.25673e-07 7.50097e-08 0.0363773

0.0263386 0.00309138 7.38807e-08
0.00309138 0.0307041 7.92988e-08
7.38807e-08 7.92988e-08 0.0254799

0.0334793 -0.00432349 1.61481e-07
-0.00432349 0.0326617 -2.98808e-08
1.61481e-07 -2.98808e-08 0.0335687

0.0240825 -0.00155096 2.37703e-07
-0.00155096 0.0318898 -4.34305e-08
2.37703e-07 -4.34305e-08 0.0251788

0.0362249 -0.00253881 1.05314e-07
-0.00253881 0.0295135 -1.69062e-07
1.05314e-07 -1.69062e-07 0.0335216

0.0266756 0.00310508 6.14603e-08
0.00310508 0.0303972 -8.32321e-08
6.14603e-08 -8.32321e-08 0.0253152

0.034346 -0.000653824 -4.0005e-08
-0.000653824 0.0272789 -3.71435e-08
-4.0005e-08 -3.71435e-08 0.0305799

0.0188917 -0.00387179 -2.67141e-08
-0.00387179 0.0298038 -1.96264e-07
-2.67141e-08 -1.96264e-07 0.0129622

0.0280014 0.00275471 -1.15542e-07
0.00275471 0.0326314 -3.63851e-08
-1.15542e-07 -3.63851e-08 0.0305758

0.0314398 -0.00251257 1.70506e-07
-0.00251257 0.024724 1.32838e-07
1.70506e-07 1.32838e-07 0.0254078

0.0391197 -0.00286924 -4.00861e-08
-0.00286924 0.0322232 -8.56311e-08
-4.00861e-08 -8.56311e-08 0.0349388

0.0287553 0.00412436 -1.34185e-07
0.00412436 0.027302 5.59738e-08
-1.34185e-07 5.59738e-08 0.0252573

0.0313635 -0.00391948 -8.72833e-08
-0.00391948 0.028544 1.75715e-07
-8.72833e-08 1.75715e-07 0.0287329

0.0354103 0.00276415 -6.84728e-08
0.00276415 0.0308576 7.25793e-08
-6.84728e-08 7.25793e-08 0.0330411

0.029775 -0.00370346 1.06922e-07
-0.00370346 0.0329398 1.67738e-07
1.06922e-07 1.67738e-07 0.0333443

0.0270571 -0.00341054 3.45658e-08
-0.00341054 0.0299846 -8.49158e-08
3.45658e-08 -8.49158e-08 0.0253991

0.0284427 0.00377139 -4.10428e-08
0.00377139 0.0289417 -4.9829e-08
-4.10428e-08 -4.9829e-08 0.025889

0.0313734 0.00341373 1.28219e-07
0.00341373 0.0269012 -2.16975e-07
1.28219e-07 -2.16975e-07 0.0269677

0.0365379 -0.00194434 1.15987e-07
-0.00194434 0.030627 -1.46453e-07
1.15987e-07 -1.46453e-07 0.0336374

0.0255353 -0.00216329 -1.94268e-08
-0.00216329 0.0318039 1.22347e-08
-1.94268e-08 1.22347e-08 0.0258554

0.0347018 -0.00231408 -3.0326e-08
-0.00231408 0.0283361 -1.3733e-08
-3.0326e-08 -1.3733e-08 0.0314576

0.0341881 0.00222342 1.60093e-07
0.00222342 0.0274335 9.11733e-08
1.60093e-07 9.11733e-08 0.0306056

0.0336461 -0.0012455 6.78348e-08
-0.0012455 0.0393015 -5.20777e-08
6.78348e-08 -5.20777e-08 0.0349289

0.032074 -0.00174688 1.89488e-08
-0.00174688 0.0253319 -1.57305e-07
1.89488e-08 -1.57305e-07 0.0258727

0.0250033 7.96404e-05 -8.10934e-08
7.96404e-05 0.0331534 -2.69274e-07
-8.10934e-08 -2.69274e-07 0.0268628

0.0332491 0.00242884 -2.17068e-07
0.00242884 0.0271953 -2.76594e-08
-2.17068e-07 -2.76594e-08 0.0289237

0.0311194 0.00359919 -1.02045e-07
0.00359919 0.0272943 1.67079e-07
-1.02045e-07 1.67079e-07 0.0271242

0.0252969 -0.00204122 -1.13206e-07
-0.00204122 0.0318665 -5.15392e-08
-1.13206e-07 -5.15392e-08 0.0256126

0.0252026 -0.000154667 -9.90865e-08
-0.000154667 0.0332936 -7.5827e-08
-9.90865e-08 -7.5827e-08 0.0271456

0.035415 0.00385811 -7.73864e-08
0.00385811 0.032997 6.94859e-08
-7.73864e-08 6.94859e-08 0.033897

0.0275873 -0.00143099 4.65742e-08
-0.00143099 0.0353442 -6.91577e-08
4.65742e-08 -6.91577e-08 0.0314436

0.0312358 -0.003484 2.83484e-07
-0.003484 0.026979 -5.36298e-09
2.83484e-07 -5.36298e-09 0.0270113

0.0312984 0.00277277 2.03285e-07
0.00277277 0.0249235 -8.75373e-08
2.03285e-07 -8.75373e-08 0.0252476

0.0345844 0.00311833 2.02873e-09
0.00311833 0.0293882 -2.01372e-07
2.02873e-09 -2.01372e-07 0.0317974

0.0279928 0.000716636 1.05129e-07
0.000716636 0.0360413 -9.94361e-09
1.05129e-07 -9.94361e-09 0.0318197

0.0287181 0.00378163 -1.32952e-07
0.00378163 0.028561 5.38217e-08
-1.32952e-07 5.38217e-08 0.0257294

0.0367916 0.00305742 7.78109e-08
0.00305742 0.0361268 1.48797e-07
7.78109e-08 1.48797e-07 0.0349086

0.0226813 -0.00754587 3.7453e-08
-0.00754587 0.0186886 2.40518e-07
3.7453e-08 2.40518e-07 0.0108457

0.0332928 -0.00328759 -9.03536e-08
-0.00328759 0.028634 1.75706e-07
-9.03536e-08 1.75706e-07 0.0301256

0.0207279 0.000913477 1.08918e-07
0.000913477 0.0300328 -1.039e-07
1.08918e-07 -1.039e-07 0.0183475

0.031302 -0.00378182 -1.86996e-07
-0.00378182 0.0292328 -2.49173e-09
-1.86996e-07 -2.49173e-09 0.0290331

0.00153963 -0.00651906 2.14477e-08
-0.00651906 0.0275695 -9.39687e-08
2.14477e-08 -9.39687e-08 0.00290848

0.00147002 0.00636861 -4.3242e-08
0.00636861 0.0275874 -1.89456e-07
-4.3242e-08 -1.89456e-07 0.00300147

0.011985 0.0145055 -1.18779e-07
0.0145055 0.0175332 -1.48944e-07
-1.18779e-07 -1.48944e-07 0.00277135

0.0121665 -0.0144962 -1.32204e-07
-0.0144962 0.0172246 1.65778e-07
-1.32204e-07 1.65778e-07 0.00280396

0.0293419 -0.000164098 2.05274e-07
-0.000164098 0 0
2.05274e-07 0 0.00295282

0.0235931 -0.0112831 -8.39413e-08
-0.0112831 0.0053957 4.0424e-08
-8.39413e-08 4.0424e-08 0.00297852

0.0236351 0.0113493 1.42204e-07
0.0113493 0.00544979 6.84819e-08
1.42204e-07 6.84819e-08 0.00303965

0.0369125 0.00191158 1.92677e-07
0.00191158 0.0302438 1.47672e-07
1.92677e-07 1.47672e-07 0.0338795

0.0387062 0.00340965 -9.06481e-08
0.00340965 0.0366184 1.01571e-07
-9.06481e-08 1.01571e-07 0.03558

0.0344175 0.000872339 4.19734e-08
0.000872339 0.0274586 6.89324e-08
4.19734e-08 6.89324e-08 0.0316896

0.0328747 0.00285056 -1.10585e-07
0.00285056 0.0268911 -2.19433e-07
-1.10585e-07 -2.19433e-07 0.028648

0.0257023 0.00231347 8.55529e-09
0.00231347 0.0323693 -8.90903e-08
8.55529e-09 -8.90903e-08 0.0276373

0.0307149 0.00376928 1.63088e-08
0.00376928 0.0276778 -8.20995e-09
1.63088e-08 -8.20995e-09 0.0271193

0.0333072 -0.00390334 -1.2711e-08
-0.00390334 0.0304678 1.23944e-08
-1.2711e-08 1.23944e-08 0.0316317

0.0309755 0.0036548 -2.74206e-08
0.0036548 0.0272887 5.75321e-08
-2.74206e-08 5.75321e-08 0.0269269

0.0249887 -0.0003715 1.21274e-07
-0.0003715 0.0331245 -2.62779e-07
1.21274e-07 -2.62779e-07 0.0268449

0.0385492 -0.00348469 -2.04533e-07
-0.00348469 0.0368818 7.26636e-08
-2.04533e-07 7.26636e-08 0.0355856

0.0251772 -0.000635803 1.14392e-07
-0.000635803 0.0332122 -5.77151e-08
1.14392e-07 -5.77151e-08 0.0271045

0.03602 0.00304739 -1.51175e-08
0.00304739 0.0330131 -9.68221e-08
-1.51175e-08 -9.68221e-08 0.0340998

0.029625 0.00347609 -5.69394e-08
0.00347609 0.0248479 -7.23582e-08
-5.69394e-08 -7.23582e-08 0.0230243

0.0304984 -0.00171395 -1.5493e-07
-0.00171395 0.0375145 2.36906e-08
-1.5493e-07 2.36906e-08 0.0347384

0.0339227 0.00180454 5.18726e-08
0.00180454 0.0271834 -2.51612e-08
5.18726e-08 -2.51612e-08 0.0303224

0.0312034 -0.00392076 2.08179e-07
-0.00392076 0.028533 1.21491e-07
2.08179e-07 1.21491e-07 0.0286164

0.0315856 -0.00322162 2.69389e-07
-0.00322162 0.0266935 -3.25007e-08
2.69389e-07 -3.25007e-08 0.0270495

0.0384808 -0.00214153 -1.44469e-07
-0.00214153 0.0334187 -7.33783e-09
-1.44469e-07 -7.33783e-09 0.0347468

0.0326834 0.00366413 -1.28565e-07
0.00366413 0.029234 -1.10063e-07
-1.28565e-07 -1.10063e-07 0.030157

0.0326472 0.00313782 1.10463e-08
0.00313782 0.0272543 1.71943e-07
1.10463e-08 1.71943e-07 0.0287899

0.026957 -0.00036498 -1.11965e-07
-0.00036498 0.0349895 2.27312e-08
-1.11965e-07 2.27312e-08 0.0301699

0.0259015 0.000765953 -7.78059e-08
0.000765953 0.0340064 -2.95735e-08
-7.78059e-08 -2.95735e-08 0.028825

0.0327804 0.000345489 -1.23227e-07
0.000345489 0.0248634 7.74579e-08
-1.23227e-07 7.74579e-08 0.0274458

0.0313894 -0.000944983 1.2069e-07
-0.000944983 0.0230055 -3.61243e-08
1.2069e-07 -3.61243e-08 0.0238938

0.0308828 0.00398541 3.10141e-08
0.00398541 0.028808 1.64573e-07
3.10141e-08 1.64573e-07 0.0286261

0.0331204 -0.00343173 3.24597e-08
-0.00343173 0.0285425 1.19896e-07
3.24597e-08 1.19896e-07 0.0299713

0.0364148 -0.00282371 1.69898e-07
-0.00282371 0.0327347 -1.80465e-07
1.69898e-07 -1.80465e-07 0.0341461

0.0292083 -0.00412787 1.46111e-07
-0.00412787 0.0291944 2.09603e-08
1.46111e-07 2.09603e-08 0.0277559

0.0269741 -0.00362067 8.73083e-08
-0.00362067 0.0304671 1.15508e-07
8.73083e-08 1.15508e-07 0.0272154

0.0283284 0.0038998 -4.24575e-08
0.0038998 0.0299033 -5.25839e-08
-4.24575e-08 -5.25839e-08 0.027754

0.0259032 -0.00124887 -9.24981e-08
-0.00124887 0.0336158 7.45494e-08
-9.24981e-08 7.45494e-08 0.0285179

0.0266564 -0.000201918 -1.32402e-07
-0.000201918 0.0349153 1.27202e-09
-1.32402e-07 1.27202e-09 0.0299218

0.0277643 0.000753154 -1.26386e-07
0.000753154 0.0360407 -8.18996e-09
-1.26386e-07 -8.18996e-09 0.0316602

0.0262491 -0.00274967 -3.60436e-08
-0.00274967 0.0319655 3.69829e-08
-3.60436e-08 3.69829e-08 0.0277126

0.0345846 0.0031759 -4.88368e-08
0.0031759 0.0291704 -1.05541e-07
-4.88368e-08 -1.05541e-07 0.0316365

0.033912 -0.00126112 -3.04489e-08
-0.00126112 0.0269322 -1.35045e-08
-3.04489e-08 -1.35045e-08 0.0302038

0.0257922 0.000974258 9.90641e-08
0.000974258 0.0338321 5.23536e-08
9.90641e-08 5.23536e-08 0.0285439

0.0278259 -0.00127002 -7.19716e-08
-0.00127002 0.0353999 -9.33475e-08
-7.19716e-08 -9.33475e-08 0.031368

0.027295 -0.00213737 4.68361e-08
-0.00213737 0.0336591 -6.84031e-08
4.68361e-08 -6.84031e-08 0.0302277

0.0327794 -0.00107742 -9.66347e-08
-0.00107742 0.0253218 1.87296e-07
-9.66347e-08 1.87296e-07 0.0272563

0.0333172 -0.00427122 1.12689e-08
-0.00427122 0.0323826 -1.52426e-07
1.12689e-08 -1.52426e-07 0.0335312

0.0264905 0.00122005 -7.67325e-08
0.00122005 0.0338382 5.0155e-08
-7.67325e-08 5.0155e-08 0.0288181

0.0398121 -0.00243155 -4.09415e-08
-0.00243155 0.0352201 2.42243e-08
-4.09415e-08 2.42243e-08 0.0354629

0.01889 0.00316492 -1.11834e-07
0.00316492 0.0278782 2.92827e-07
-1.11834e-07 2.92827e-07 0.016274

0.0338179 -0.00352273 1.12061e-07
-0.00352273 0.0334966 8.10087e-09
1.12061e-07 8.10087e-09 0.0337281

0.0353463 -0.00399947 1.87228e-07
-0.00399947 0.0330482 2.91101e-08
1.87228e-07 2.91101e-08 0.033906

0.0266878 -9.05152e-05 1.26852e-07
-9.05152e-05 0.0349204 7.2183e-09
1.26852e-07 7.2183e-09 0.02993

0.0332453 -0.0021764 -1.42088e-07
-0.0021764 0.0271549 1.63655e-07
-1.42088e-07 1.63655e-07 0.0289047

0.0293494 0.00168455 4.11779e-08
0.00168455 0.0358216 -1.08126e-07
4.11779e-08 -1.08126e-07 0.0328818

0.0132082 -0.00037918 -3.16334e-07
-0.00037918 0.0283641 -1.20047e-07
-3.16334e-07 -1.20047e-07 0.0111526

0.0271155 0.00186862 1.91973e-08
0.00186862 0.0340637 2.31172e-07
1.91973e-08 2.31172e-07 0.0303083

0.0311114 -0.00385886 1.246e-07
-0.00385886 0.0291564 -4.70725e-08
1.246e-07 -4.70725e-08 0.0288084

0.0186209 0.00320473 -2.71709e-07
0.00320473 0.0301415 -1.49625e-07
-2.71709e-07 -1.49625e-07 0.0131278

0.0426016 0.00351704 3.25906e-07
0.00351704 0.0418494 3.52807e-07
3.25906e-07 3.52807e-07 0.0364821

0.043206 -0.00374876 2.13935e-07
-0.00374876 0.0414183 -1.85255e-07
2.13935e-07 -1.85255e-07 0.0364645

0.0310675 -0.00399119 -1.99573e-07
-0.00399119 0.0304734 1.69095e-08
-1.99573e-07 1.69095e-08 0.030463

0.0289239 -0.00406454 -2.11064e-07
-0.00406454 0.0291529 -5.00863e-08
-2.11064e-07 -5.00863e-08 0.0275963

0.0330534 0.00272719 6.68598e-08
0.00272719 0.0275303 8.29076e-08
6.68598e-08 8.29076e-08 0.0290774

0.0327818 0.00196014 -5.7872e-08
0.00196014 0.0255929 -1.54776e-07
-5.7872e-08 -1.54776e-07 0.0278247

0.0464016 0.000418537 5.12665e-07
0.000418537 0.046357 -1.18288e-07
5.12665e-07 -1.18288e-07 0.0366963

0.0469203 -0.000951091 -1.17442e-07
-0.000951091 0.0457678 -7.54178e-07
-1.17442e-07 -7.54178e-07 0.0367674

0.0348018 0.000638356 1.52894e-07
0.000638356 0.027575 -2.74194e-08
1.52894e-07 -2.74194e-08 0.0322185

0.0277536 0.000882274 1.50121e-07
0.000882274 0.0355729 8.75287e-09
1.50121e-07 8.75287e-09 0.0313505

0.0276094 0.000882864 1.27529e-07
0.000882864 0.0355731 8.10704e-09
1.27529e-07 8.10704e-09 0.0312467

0.0234605 0.00740059 2.91258e-07
0.00740059 0.018303 -1.59216e-07
2.91258e-07 -1.59216e-07 0.0109023

0.0272491 -0.0036759 6.29078e-08
-0.0036759 0.0303492 -1.27114e-07
6.29078e-08 -1.27114e-07 0.0273213

0.036569 0.00239157 3.20137e-07
0.00239157 0.029578 -1.54518e-08
3.20137e-07 -1.54518e-08 0.0337863

0.0332759 0.0012476 -1.51668e-07
0.0012476 0.0265058 2.55145e-08
-1.51668e-07 2.55145e-08 0.0284337

0.0291544 -0.00349279 -1.30457e-07
-0.00349279 0.0304733 9.74849e-08
-1.30457e-07 9.74849e-08 0.0281751

0.0328129 -0.00264787 -2.808e-07
-0.00264787 0.0267297 -5.05592e-08
-2.808e-07 -5.05592e-08 0.0285885

0.0224614 0.00761326 2.38094e-07
0.00761326 0.0185914 1.3933e-07
2.38094e-07 1.3933e-07 0.0109047

0.0331466 0.00410256 -4.91981e-08
0.00410256 0.0326401 -8.66393e-08
-4.91981e-08 -8.66393e-08 0.0331835

0.0258918 -0.00257848 -1.14625e-07
-0.00257848 0.0320265 -4.96373e-08
-1.14625e-07 -4.96373e-08 0.0275092

0.0324845 0.00378597 -1.32717e-07
0.00378597 0.0292698 -1.04424e-07
-1.32717e-07 -1.04424e-07 0.0301487

0.0268176 -0.00054395 9.15238e-08
-0.00054395 0.0349544 4.35303e-08
9.15238e-08 4.35303e-08 0.0301397

0.0269917 0.00256364 -9.88188e-08
0.00256364 0.0324505 7.80199e-08
-9.88188e-08 7.80199e-08 0.0282882

0.0305284 0.00399138 -2.65371e-08
0.00399138 0.029325 -9.44285e-08
-2.65371e-08 -9.44285e-08 0.0287768

0.0276107 -0.00293741 1.57297e-07
-0.00293741 0.0318561 7.1304e-08
1.57297e-07 7.1304e-08 0.0282508

0.0294576 -0.00357608 5.95121e-08
-0.00357608 0.0303529 -1.27456e-07
5.95121e-08 -1.27456e-07 0.0283068

0.0181386 0.0014256 -1.56119e-08
0.0014256 0.0280382 1.24818e-07
-1.56119e-08 1.24818e-07 0.0131284

0.0234752 -0.00429432 4.47947e-08
-0.00429432 0.0275579 -9.12813e-08
4.47947e-08 -9.12813e-08 0.0177245

0.0262071 -0.00152635 7.31526e-08
-0.00152635 0.0336258 2.37739e-09
7.31526e-08 2.37739e-09 0.0287535

0.0330255 0.00347498 -4.62274e-09
0.00347498 0.0288795 1.6784e-07
-4.62274e-09 1.6784e-07 0.0300706

0.0303236 0.00385778 -6.2345e-08
0.00385778 0.0298885 -5.39848e-08
-6.2345e-08 -5.39848e-08 0.028992

0.0274161 -0.0028008 5.70289e-09
-0.0028008 0.0319862 -4.09242e-08
5.70289e-09 -4.09242e-08 0.0281408

0.0265563 -0.00154102 -4.6965e-08
-0.00154102 0.0335842 7.68958e-08
-4.6965e-08 7.68958e-08 0.028748

0.0309581 0.00371859 1.11211e-07
0.00371859 0.0295652 7.17335e-09
1.11211e-07 7.17335e-09 0.0289429

0.026761 -0.00181613 -6.22139e-08
-0.00181613 0.0334764 -2.66026e-08
-6.22139e-08 -2.66026e-08 0.028956

0.0191671 0.00355477 1.99267e-07
0.00355477 0.0276097 -1.52433e-07
1.99267e-07 -1.52433e-07 0.0162932

0.0308749 -0.000534679 8.7138e-08
-0.000534679 0.0388203 -1.84223e-08
8.7138e-08 -1.84223e-08 0.034296

0.0286582 0.00404809 -1.45014e-07
0.00404809 0.0295203 3.57902e-08
-1.45014e-07 3.57902e-08 0.0277162

0.0355815 0.00197498 -1.09389e-07
0.00197498 0.0295047 -1.95762e-07
-1.09389e-07 -1.95762e-07 0.0328444

0.0362609 -0.00211478 1.01078e-07
-0.00211478 0.029757 4.21041e-08
1.01078e-07 4.21041e-08 0.0332195

0.0285124 -0.00309603 1.09643e-07
-0.00309603 0.01857 -4.6963e-08
1.09643e-07 -4.6963e-08 0.0157308

0.0283551 -0.00279033 7.16926e-08
-0.00279033 0.032777 -8.811e-08
7.16926e-08 -8.811e-08 0.0305733

0.0291929 0.00350091 1.67358e-07
0.00350091 0.0316017 3.12729e-08
1.67358e-07 3.12729e-08 0.0304892

0.0349608 -0.00290743 4.82025e-08
-0.00290743 0.0376764 1.53886e-07
4.82025e-08 1.53886e-07 0.0352376

0.0394608 0.00188504 2.34566e-07
0.00188504 0.0446087 -1.5058e-08
2.34566e-07 -1.5058e-08 0.0364343

0.0449441 0.00129029 2.50731e-07
0.00129029 0.0391169 -1.29373e-07
2.50731e-07 -1.29373e-07 0.0364162

0.0355622 0.00434525 -1.01783e-07
0.00434525 0.0351364 -1.59749e-07
-1.01783e-07 -1.59749e-07 0.0350049

0.0265733 0.00338836 -2.85182e-08
0.00338836 0.0310082 -1.06928e-07
-2.85182e-08 -1.06928e-07 0.0272574

0.0330411 0.00349735 4.15497e-08
0.00349735 0.0286686 5.17503e-08
4.15497e-08 5.17503e-08 0.0300517

0.0220611 0.00576476 -8.39928e-08
0.00576476 0.0242388 1.60725e-09
-8.39928e-08 1.60725e-09 0.0160733

0.0386189 -0.00151211 1.74955e-07
-0.00151211 0.0444332 -1.61912e-07
1.74955e-07 -1.61912e-07 0.0363635

0.046048 -0.000464064 4.20283e-08
-0.000464064 0.0454387 6.02341e-08
4.20283e-08 6.02341e-08 0.0366923

0.0451801 -3.19818e-05 2.01609e-07
-3.19818e-05 0.0463011 1.94e-07
2.01609e-07 1.94e-07 0.0366743

0.0176418 -0.00679529 1.8541e-08
-0.00679529 0.0231095 -1.05444e-07
1.8541e-08 -1.05444e-07 0.0107391

0.0392936 -0.00155591 -1.77371e-07
-0.00155591 0.0387153 7.94632e-08
-1.77371e-07 7.94632e-08 0.035855

0.0383974 0.00117631 -2.71787e-07
0.00117631 0.0415181 -2.87792e-07
-2.71787e-07 -2.87792e-07 0.0361263

0.0331771 -0.00343598 -1.31837e-07
-0.00343598 0.0282212 -2.59283e-07
-1.31837e-07 -2.59283e-07 0.0299051

0.0318459 0.000140409 -5.63001e-08
0.000140409 0.0386731 -3.84618e-09
-5.63001e-08 -3.84618e-09 0.0344519

0.0285786 -0.00266018 -1.3655e-07
-0.00266018 0.0333825 1.90082e-07
-1.3655e-07 1.90082e-07 0.031591

0.0356637 0.000831693 2.03013e-07
0.000831693 0.0273795 1.00996e-08
2.03013e-07 1.00996e-08 0.0330019

0.0288778 0.00204451 -7.81374e-08
0.00204451 0.0368183 -4.74423e-08
-7.81374e-08 -4.74423e-08 0.0336713

0.0298709 0.000946355 9.62218e-08
0.000946355 0.0373899 -3.98569e-08
9.62218e-08 -3.98569e-08 0.0333651

0.0344036 0.00268518 4.18226e-08
0.00268518 0.0288533 5.17788e-08
4.18226e-08 5.17788e-08 0.031228

0.0132798 -0.0004094 2.37553e-07
-0.0004094 0.0281246 5.07963e-08
2.37553e-07 5.07963e-08 0.0112021

0.0309666 -0.0036262 1.36297e-07
-0.0036262 0.0309171 -1.08093e-07
1.36297e-07 -1.08093e-07 0.0306113

0.03293 -0.00344352 -2.23202e-08
-0.00344352 0.0320227 4.68286e-08
-2.23202e-08 4.68286e-08 0.0325809

0.033573 -0.00415912 1.26659e-07
-0.00415912 0.0325359 -1.64302e-07
1.26659e-07 -1.64302e-07 0.0337374

0.0265636 0.00414888 -9.85444e-08
0.00414888 0.0176924 1.61549e-08
-9.85444e-08 1.61549e-08 0.0126059

0.0388293 -0.00269648 -2.40107e-07
-0.00269648 0.039577 3.93285e-07
-2.40107e-07 3.93285e-07 0.0359598

0.0230841 0.00692127 1.48294e-07
0.00692127 0.0255033 3.11344e-07
1.48294e-07 3.11344e-07 0.0126103

0.0308766 -0.00281767 -9.11589e-08
-0.00281767 0.0348095 8.98795e-08
-9.11589e-08 8.98795e-08 0.033958

0.0354139 0.00193635 -5.52689e-08
0.00193635 0.0284675 -6.96548e-08
-5.52689e-08 -6.96548e-08 0.0323463

0.0318232 -0.00189363 -2.63202e-08
-0.00189363 0.0249523 2.05808e-07
-2.63202e-08 2.05808e-07 0.025397

0.0292942 0.00315913 1.73252e-07
0.00315913 0.0327337 1.4414e-08
1.73252e-07 1.4414e-08 0.0312814

0.0344391 0.00268881 6.6085e-08
0.00268881 0.0286362 -5.80976e-09
6.6085e-08 -5.80976e-09 0.0312226

0.0325202 0.00149861 8.2575e-08
0.00149861 0.0403748 8.00286e-08
8.2575e-08 8.00286e-08 0.035338

0.0319421 -0.0041547 -1.11587e-07
-0.0041547 0.0312032 2.2624e-08
-1.11587e-07 2.2624e-08 0.0318124

0.0396779 0.00265561 2.15165e-07
0.00265561 0.0331996 5.92746e-08
2.15165e-07 5.92746e-08 0.0353175

0.0279734 -0.00241843 9.87043e-08
-0.00241843 0.0335529 -6.01961e-08
9.87043e-08 -6.01961e-08 0.0304723

0.0293526 0.000558414 1.92935e-08
0.000558414 0.0373136 -4.79956e-08
1.92935e-08 -4.79956e-08 0.0332543

0.0419449 0.00133738 1.22852e-07
0.00133738 0.037101 7.39587e-08
1.22852e-07 7.39587e-08 0.0361177

0.0420978 -0.00114839 -5.92106e-08
-0.00114839 0.0373272 8.77419e-08
-5.92106e-08 8.77419e-08 0.0360995

0.0283853 0.00236919 4.57658e-08
0.00236919 0.0181825 -5.35434e-09
4.57658e-08 -5.35434e-09 0.0159508

0.0350278 0.00106125 2.57986e-07
0.00106125 0.0285679 -8.74483e-08
2.57986e-07 -8.74483e-08 0.0330608

0.0128676 0.000923434 2.29965e-07
0.000923434 0.0316282 9.91439e-08
2.29965e-07 9.91439e-08 0.00612212

0.0131632 -0.00138825 -3.11177e-07
-0.00138825 0.0321338 4.82275e-08
-3.11177e-07 4.82275e-08 0.00611244

0.0152695 0.00715462 -2.20438e-07
0.00715462 0.0284546 2.08682e-07
-2.20438e-07 2.08682e-07 0.00598455

0.0347659 -0.00382112 5.32486e-08
-0.00382112 0.03127 1.18466e-07
5.32486e-08 1.18466e-07 0.0329409

0.0155817 -0.00619475 -1.00975e-07
-0.00619475 0.0261545 7.31943e-08
-1.00975e-07 7.31943e-08 0.0104727

0.0155136 -0.00708716 -1.48191e-07
-0.00708716 0.027425 1.10602e-07
-1.48191e-07 1.10602e-07 0.00591432

0.028428 0.00342599 -2.56156e-09
0.00342599 0.0310085 -1.0692e-07
-2.56156e-09 -1.0692e-07 0.0281546

0.0251948 0.00932632 -3.62764e-08
0.00932632 0.0190218 -1.65116e-07
-3.62764e-08 -1.65116e-07 0.00593422

0.0365392 0.00173176 -1.23848e-07
0.00173176 0.0385535 -7.14171e-08
-1.23848e-07 -7.14171e-08 0.0354767

0.0395365 2.56735e-05 -4.374e-08
2.56735e-05 0.0355409 1.73192e-07
-4.374e-08 1.73192e-07 0.0354574

0.0261086 -0.00924491 6.94801e-08
-0.00924491 0.0188135 2.08644e-07
6.94801e-08 2.08644e-07 0.00588839

0.0276917 -0.00306522 6.11665e-08
-0.00306522 0.032097 -1.34093e-07
6.11665e-08 -1.34093e-07 0.0296247

0.0262568 0.00441851 -9.05221e-08
0.00441851 0.0201593 -1.48668e-08
-9.05221e-08 -1.48668e-08 0.0130455

0.0172802 0.00797355 8.87926e-09
0.00797355 0.0271504 -1.74536e-07
8.87926e-09 -1.74536e-07 0.00598827

0.0181973 0.0027553 3.32075e-07
0.0027553 0.0275917 6.66328e-08
3.32075e-07 6.66328e-08 0.012851

0.0173051 -0.00827672 -3.00534e-08
-0.00827672 0.0271538 -7.83347e-08
-3.00534e-08 -7.83347e-08 0.00581414

0.017934 -0.00157096 -1.69961e-07
-0.00157096 0.0280072 2.73307e-07
-1.69961e-07 2.73307e-07 0.0126914

0.0370512 0.000922945 -5.67651e-09
0.000922945 0.0413017 2.34929e-07
-5.67651e-09 2.34929e-07 0.0358115

0.0221327 -0.00585574 1.65184e-07
-0.00585574 0.0236662 -2.1016e-07
1.65184e-07 -2.1016e-07 0.0151599

0.015701 0.00598666 2.29856e-07
0.00598666 0.0259038 2.99445e-07
2.29856e-07 2.99445e-07 0.0107509

0.0302102 0.00473038 2.76379e-08
0.00473038 0.01435 -3.08791e-07
2.76379e-08 -3.08791e-07 0.00611626

0.0329405 -0.00384962 7.49482e-08
-0.00384962 0.030126 -7.34588e-08
7.49482e-08 -7.34588e-08 0.0310531

0.0308903 0.0016937 1.71732e-08
0.0016937 0.0368448 -5.15679e-08
1.71732e-08 -5.15679e-08 0.033952

0.0260918 -0.00484435 2.29257e-07
-0.00484435 0.0191984 2.91147e-08
2.29257e-07 2.91147e-08 0.0126959

0.0330028 -0.00378611 1.04916e-07
-0.00378611 0.030077 -2.41401e-09
1.04916e-07 -2.41401e-09 0.0311294

0.0300204 -0.00452017 7.5423e-08
-0.00452017 0.0130542 2.25997e-07
7.5423e-08 2.25997e-07 0.0060377

0.0324752 -0.00372749 -3.55522e-08
-0.00372749 0.0313095 1.34189e-07
-3.55522e-08 1.34189e-07 0.0319812

0.0280928 -0.00331131 1.34904e-07
-0.00331131 0.0320061 1.01093e-07
1.34904e-07 1.01093e-07 0.0296273

0.0234447 0.00874416 1.30769e-07
0.00874416 0.020484 -2.86972e-07
1.30769e-07 -2.86972e-07 0.00602656

0.0182008 -0.00292097 1.38734e-08
-0.00292097 0.026868 3.47743e-07
1.38734e-08 3.47743e-07 0.0122708

0.0233157 -0.00901981 -7.5661e-08
-0.00901981 0.0201531 -1.22243e-07
-7.5661e-08 -1.22243e-07 0.00588438

0.0170833 0.00640863 -3.66181e-07
0.00640863 0.0235674 2.43414e-08
-3.66181e-07 2.43414e-08 0.0108317

0.0308281 -0.00396043 1.45608e-07
-0.00396043 0.0301623 -7.96583e-08
1.45608e-07 -7.96583e-08 0.0300874

0.0389191 -0.00195865 -4.92268e-08
-0.00195865 0.0369417 1.63019e-08
-4.92268e-08 1.63019e-08 0.035501

0.045541 0.00150649 1.98119e-07
0.00150649 0.0449538 3.2195e-07
1.98119e-07 3.2195e-07 0.0366205

0.0435647 -0.000712003 1.41632e-07
-0.000712003 0.0462316 -3.3252e-08
1.41632e-07 -3.3252e-08 0.0365863

0.0286173 0.00171567 7.06104e-08
0.00171567 0.0355679 -1.45208e-07
7.06104e-08 -1.45208e-07 0.0323915

0.0453363 -0.00144792 -7.73145e-08
-0.00144792 0.0449806 -3.77792e-07
-7.73145e-08 -3.77792e-07 0.0366382

0.0438073 0.000567794 2.37214e-07
0.000567794 0.0465063 -5.43156e-07
2.37214e-07 -5.43156e-07 0.0366194

0.0466795 0.000991355 -1.51152e-07
0.000991355 0.0433772 8.44501e-08
-1.51152e-07 8.44501e-08 0.0365945

0.0397511 -0.00163924 -2.77894e-07
-0.00163924 0.0460747 -2.69479e-07
-2.77894e-07 -2.69479e-07 0.0364842

0.0190551 -0.00388768 1.59986e-07
-0.00388768 0.0272326 4.8566e-08
1.59986e-07 4.8566e-08 0.0154722

0.0421424 -0.00175017 -2.15788e-07
-0.00175017 0.0367264 4.99067e-08
-2.15788e-07 4.99067e-08 0.0360062

0.0359654 -0.00457331 7.82249e-08
-0.00457331 0.035152 3.51451e-08
7.82249e-08 3.51451e-08 0.0349698

0.0397544 -0.00242142 -2.69523e-07
-0.00242142 0.0360655 -6.30987e-08
-2.69523e-07 -6.30987e-08 0.0355688

0.0351865 0.0020434 -9.83504e-08
0.0020434 0.0285508 -1.63086e-08
-9.83504e-08 -1.63086e-08 0.0322337

0.039693 0.0013373 -3.25425e-07
0.0013373 0.047226 -5.65776e-08
-3.25425e-07 -5.65776e-08 0.03655

0.0464955 0.00259325 4.47628e-07
0.00259325 0.0404189 -3.04141e-08
4.47628e-07 -3.04141e-08 0.0365313

0.0400875 0.00150575 2.2677e-08
0.00150575 0.0366753 -2.09125e-07
2.2677e-08 -2.09125e-07 0.0356168

0.0279162 -0.00192011 -3.23117e-07
-0.00192011 0.0125252 2.69416e-07
-3.23117e-07 2.69416e-07 0.0106252

0.0283208 0.00326782 1.66193e-08
0.00326782 0.031552 -2.70961e-08
1.66193e-08 -2.70961e-08 0.0294126

0.0231893 -0.00773661 -1.6887e-07
-0.00773661 0.0181809 -4.84713e-08
-1.6887e-07 -4.84713e-08 0.0102901

0.022832 -0.00731622 -1.36314e-07
-0.00731622 0.0257701 6.89819e-08
-1.36314e-07 6.89819e-08 0.0119553

0.0290243 -0.00464737 -2.32494e-07
-0.00464737 0.0191294 1.67628e-08
-2.32494e-07 1.67628e-08 0.0126159

0.0375754 -0.000660599 3.5883e-08
-0.000660599 0.0449128 -3.93626e-07
3.5883e-08 -3.93626e-07 0.0362952

0.0375731 0.000358356 2.48842e-07
0.000358356 0.0447911 3.30111e-07
2.48842e-07 3.30111e-07 0.0362755

0.042606 -0.0032743 5.61026e-08
-0.0032743 0.0394512 -2.84514e-07
5.61026e-08 -2.84514e-07 0.0362294

0.0429986 -0.00294434 -1.62801e-07
-0.00294434 0.0391696 7.2056e-08
-1.62801e-07 7.2056e-08 0.0362364

0.0425017 0.00350368 -2.01889e-08
0.00350368 0.0399733 9.47385e-08
-2.01889e-08 9.47385e-08 0.0362742

0.0443975 0.00041607 4.5905e-07
0.00041607 0.0450803 4.3338e-07
4.5905e-07 4.3338e-07 0.0366374

0.0426096 -0.00274438 1.15552e-07
-0.00274438 0.0395085 -1.42487e-07
1.15552e-07 -1.42487e-07 0.0362909

0.0426031 -0.00251197 2.31795e-07
-0.00251197 0.0442679 -2.75196e-07
2.31795e-07 -2.75196e-07 0.036565

0.0451182 0.000331042 -3.83127e-07
0.000331042 0.0454679 -8.16026e-07
-3.83127e-07 -8.16026e-07 0.0366557

0.043638 -0.00278294 6.86119e-08
-0.00278294 0.0389176 1.26109e-07
6.86119e-08 1.26109e-07 0.0363315

0.0435126 0.00283855 3.24774e-08
0.00283855 0.0390702 -4.68422e-08
3.24774e-08 -4.68422e-08 0.0363696

0.0451938 -0.000471022 -9.22016e-08
-0.000471022 0.0455826 1.93745e-07
-9.22016e-08 1.93745e-07 0.0367044

0.0452281 -0.000426541 -6.4299e-07
-0.000426541 0.0443626 7.48749e-07
-6.4299e-07 7.48749e-07 0.0367227

0.0427993 0.00163904 3.99464e-07
0.00163904 0.0442484 -9.95045e-07
3.99464e-07 -9.95045e-07 0.0366088

0.0411169 0.0036183 9.51231e-08
0.0036183 0.0405173 -1.10769e-07
9.51231e-08 -1.10769e-07 0.0363234

SCALARS pressure float
LOOKUP_TABLE default
-60.058
19.3095
5.80549
21.2911
15.8791
5.88947
-58.681
7.78487
-3.80318
15.1257
-24.4352
7.61902
5.59376
12.2808
23.337
5.54068
18.5218
13.2093
-0.690718
6.75896
-0.903048
33.1285
5.80313
5.79907
6.60419
14.9047
-38.3889
6.67395
-15.242
30.6219
5.17803
-15.6568
-42.0604
27.3237
20.7771
27.3566
31.8801
19.8072
4.86134
-42.6037
-17.4072
31.9009
31.989
5.9952
-21.8063
-15.9755
-1.05041
-3.40385
6.54703
-16.2178
-18.9189
-15.3452
20.755
-15.3725
20.3083
-33.151
21.1275
-15.4596
21.1373
7.04723
21.7656
16.1191
-45.5657
12.7904
16.3624
10.9065
21.5749
13.83
5.77575
21.8182
20.8111
20.7817
-17.6909
11.6018
3.97573
-31.613
14.3569
10.9976
14.148
-8.71865
-28.9462
14.9773
20.1639
-22.0387
-23.4299
-28.094
7.10003
9.6337
-22.2171
37.7353
-15.5083
38.4378
18.3043
10.7631
-15.1659
-15.8725
-30.2228
14.7546
14.3659
4.60042
-10.7651
-21.9397
-25.1027
16.2146
14.1022
14.9628
18.6983
3.77655
-24.5594
26.513
7.21992
-21.4101
-24.6132
14.8398
15.0792
-16.1451
20.1629
-29.1147
20.6265
-16.7288
-2.90279
23.8331
21.7282
16.0337
26.6796
22.6316
21.7837
15.7096
-29.7824
-16.0984
24.0907
21.6186
20.9899
22.0668
-22.0141
23.5845
-33.8395
5.4651
21.7548
23.6279
-21.937
6.67789
-5.9651
15.0853
-30.4091
15.6253
7.83516
2.40947
5.17956
-9.3932
-0.456065
22.6426
-15.4542
5.29265
15.2059
21.5618
11.5095
-21.1133
-21.2639
10.7924
-2.84113
-15.1972
-21.2216
-15.165
-20.9865
15.2808
-20.6358
-21.2017
-15.2074
-21.0638
19.004
-15.9404
-14.8241
12.0656
-14.484
18.8036
19.0531
7.47464
18.0476
11.7749
-16.2487
15.2893
14.9621
-21.5286
10.4278
-14.221
16.0494
14.5966
17.0817
14.8362
10.3451
-26.9775
-16.0817
-15.9578
21.9081
14.5278
14.6266
20.9232
22.488
9.50409
21.7349
-0.382663
-8.16947
20.7795
-17.8387
19.9462
10.3656
-21.5177
15.7219
22.5271
14.7315
9.39513
14.1918
21.0562
-7.83143
8.82904
-7.90728
14.6494
26.9275
26.5812
27.9603
26.3884
26.7242
26.2908
13.8276
23.4295
24.0286
23.9728
23.3992
21.1922
21.8567
-8.26155
15.935
28.1911
-3.18724
23.5753
23.2045
27.8344
-8.49231
28.0964
15.3457
-7.58023
17.4927
-8.25652
20.2278
29.6126
-7.48461
-8.09947
-29.5934
-18.1893
19.5279
-31.9872
5.73588
-7.79266
-1.18761
28.2492
26.6402
30.4226
26.7608
-34.8031
-8.17837
28.3374
8.07466
-8.29392
26.4458
-6.29391
30.4675
-7.95279
27.0469
14.5668
14.789
23.8443
10.0488
18.0207
8.11874
-29.8618
-24.5547
16.8068
1.76142
8.1813
-13.608
17.4363
11.701
-8.10023
9.45351
-10.8224
7.51856
-10.7536
-8.48351
33.2595
19.1513
25.0875
25.3118
13.8307
-10.4034
26.4276
14.6858
-1.65742
-10.2728
-12.5634
17.5064
-7.48389
17.5744
-12.0403
-21.3518
-10.6072
-34.6833
15.5635
-7.76165
34.4373
-11.577
16.8725
-8.40751
15.9735
-12.7574
4.29056
-51.1225
8.52367
-7.74532
21.3336
-8.15087
-0.121151
10.7163
21.1254
-12.0598
-10.1997
-6.06692
14.3191
-10.1789
6.8894
6.38763
16.3052
-10.4185
-6.32907
-1.70085
-5.65911
-11.0775
-5.84335
15.3063
7.80944
-5.5547
-8.95926
7.80674
7.69556
-10.6735
16.3091
-27.2172
2.29461
-28.4826
-0.956119
-8.88494
-8.10316
-11.7861
-10.9497
-9.88789
-7.78282
-7.90619
16.6388
24.7762
12.1178
-0.289988
-0.823433
-5.67326
7.30655
-6.31941
-6.31669
24.9219
-5.72868
14.1184
-15.9078
24.3242
5.96996
-0.389557
-5.64256
16.275
2.47859
0.200684
2.44958
0.45758
-0.73913
-9.92924
-0.0939484
2.11475
15.0691
-1.28662
-1.40549
-0.997171
-0.386997
1.96679
8.05218
-1.19192
8.07963
5.585
-0.434038
7.03679
5.49203
-3.87509
16.4774
-1.90204
23.0607
-21.9748
15.0451
15.6831
2.04115
-1.99618
12.5442
-26.5097
5.79408
-1.65654
-50.4868
30.4944
30.6311
5.82672
-1.1427
-1.04544
-0.848
33.4128
33.2874
13.0962
6.08325
6.66395
-28.966
-1.27774
16.5341
-3.18142
-4.34692
-0.015323
-25.2744
14.3046
-1.27853
2.86331
2.6947
-2.72188
-0.0477459
-3.20816
-4.03235
-37.9858
-33.6851
-0.126454
1.87589
-0.53266
-3.74292
-1.93522
-1.87643
-0.922884
-21.9087
17.2498
-0.767609
12.5665
14.1849
-26.7659
6.28781
7.13856
18.4777
36.4231
36.4555
22.6383
-1.75415
2.6012
-20.9309
36.1219
32.7542
32.8212
-24.8118
21.7735
30.5201
2.60071
15.724
10.3729
17.1654
17.727
12.5066
5.68289
-25.4011
4.26146
10.4105
16.2446
-31.7129
28.3072
-52.7141
18.6859
10.3002
-10.6264
7.41872
5.45848
24.4736
9.41255
24.4066
4.10658
12.4006
30.6376
29.4634
-22.9915
17.4367
-70.2366
-74.3833
-67.1806
11.6493
-31.2634
-63.6138
-3.80221
-69.9421
16.4626
16.4063
-73.7585
5.21409
-39.733
-70.7427
-37.7589
-71.8792
-39.4545
21.135
-23.9617
-29.0472
-70.6265
4.83277
15.7583
-36.1928
6.05503
-63.6214
9.83735
3.88353
-67.9051
-37.6266
-66.4146
-23.7584
5.03086
20.5247
35.366
36.7216
11.8135
36.8453
36.8986
36.4871
36.4002
-24.4803
28.246
20.6691
21.9793
11.5362
36.0561
36.0876
18.119
-23.9432
3.24829
-30.5297
-56.6006
-50.4772
36.1395
35.8204
35.3771
35.4473
36.1555
35.5938
33.1065
37.3664
35.3951
36.0024
35.6347
34.1917
34.3283
35.852
35.3064
