# vtk DataFile Version 3.0
vtk output at time 220
ASCII
DATASET UNSTRUCTURED_GRID
POINTS 626 float
-3.68058e-05 0.000978749 0 3.68058e-05 0.000978749 0 -0.000829194 0.00052125 0 
-0.0008235 0.0005 0 -0.000866 0.0004575 0 -0.000866 -0.0004575 0 
-0.0008235 -0.0005 0 -0.000829194 -0.00052125 0 -3.68058e-05 -0.000978749 0 
3.68058e-05 -0.000978749 0 0.000829194 -0.00052125 0 0.000866 -0.0004575 0 
0.000866 0.0004575 0 0.000829194 0.00052125 0 8.5e-05 0 0 
-3.68058e-05 0.000978749 -0.001 3.68058e-05 0.000978749 -0.001 -0.000829194 0.00052125 -0.001 
-0.0008235 0.0005 -0.001 -0.000866 0.0004575 -0.001 -0.000866 -0.0004575 -0.001 
-0.0008235 -0.0005 -0.001 -0.000829194 -0.00052125 -0.001 -3.68058e-05 -0.000978749 -0.001 
3.68058e-05 -0.000978749 -0.001 0.000829194 -0.00052125 -0.001 0.000866 -0.0004575 -0.001 
0.000866 0.0004575 -0.001 0.000829194 0.00052125 -0.001 8.5e-05 0 -0.001 
8.46223e-17 0.0009575 0 -0.000715996 0.000586607 0 -0.000602797 0.000651965 0 
-0.000489599 0.000717321 0 -0.000376401 0.000782678 0 -0.000263202 0.000848036 0 
-0.000150004 0.000913393 0 -0.000835948 0.000469948 0 -0.000866 -0.000326786 0 
-0.000866 -0.000196071 0 -0.000866 -6.53571e-05 0 -0.000866 6.53571e-05 0 
-0.000866 0.000196071 0 -0.000866 0.000326786 0 -0.000835948 -0.000469948 0 
-0.000150004 -0.000913393 0 -0.000263202 -0.000848036 0 -0.000376401 -0.000782678 0 
-0.000489599 -0.000717321 0 -0.000602797 -0.000651965 0 -0.000715996 -0.000586607 0 
8.47648e-17 -0.0009575 0 0.000715996 -0.000586607 0 0.000602797 -0.000651965 0 
0.000489599 -0.000717321 0 0.000376401 -0.000782678 0 0.000263202 -0.000848036 0 
0.000150004 -0.000913393 0 0.000829194 -0.00047875 0 0.000866 0.000326786 0 
0.000866 0.000196071 0 0.000866 6.53571e-05 0 0.000866 -6.53571e-05 0 
0.000866 -0.000196071 0 0.000866 -0.000326786 0 0.000829194 0.00047875 0 
0.000150004 0.000913393 0 0.000263202 0.000848036 0 0.000376401 0.000782678 0 
0.000489599 0.000717321 0 0.000602797 0.000651965 0 0.000715996 0.000586607 0 
5.29966e-05 6.64557e-05 0 -1.89143e-05 8.28689e-05 0 -7.65824e-05 3.68801e-05 0 
-7.65824e-05 -3.68801e-05 0 -1.89143e-05 -8.28689e-05 0 5.29966e-05 -6.64557e-05 0 
8.46223e-17 0.0009575 -0.001 -0.000715996 0.000586607 -0.001 -0.000602797 0.000651965 -0.001 
-0.000489599 0.000717321 -0.001 -0.000376401 0.000782678 -0.001 -0.000263202 0.000848036 -0.001 
-0.000150004 0.000913393 -0.001 -0.000835948 0.000469948 -0.001 -0.000866 -0.000326786 -0.001 
-0.000866 -0.000196071 -0.001 -0.000866 -6.53571e-05 -0.001 -0.000866 6.53571e-05 -0.001 
-0.000866 0.000196071 -0.001 -0.000866 0.000326786 -0.001 -0.000835948 -0.000469948 -0.001 
-0.000150004 -0.000913393 -0.001 -0.000263202 -0.000848036 -0.001 -0.000376401 -0.000782678 -0.001 
-0.000489599 -0.000717321 -0.001 -0.000602797 -0.000651965 -0.001 -0.000715996 -0.000586607 -0.001 
8.47648e-17 -0.0009575 -0.001 0.000715996 -0.000586607 -0.001 0.000602797 -0.000651965 -0.001 
0.000489599 -0.000717321 -0.001 0.000376401 -0.000782678 -0.001 0.000263202 -0.000848036 -0.001 
0.000150004 -0.000913393 -0.001 0.000829194 -0.00047875 -0.001 0.000866 0.000326786 -0.001 
0.000866 0.000196071 -0.001 0.000866 6.53571e-05 -0.001 0.000866 -6.53571e-05 -0.001 
0.000866 -0.000196071 -0.001 0.000866 -0.000326786 -0.001 0.000829194 0.00047875 -0.001 
0.000150004 0.000913393 -0.001 0.000263202 0.000848036 -0.001 0.000376401 0.000782678 -0.001 
0.000489599 0.000717321 -0.001 0.000602797 0.000651965 -0.001 0.000715996 0.000586607 -0.001 
5.29966e-05 6.64557e-05 -0.001 -1.89143e-05 8.28689e-05 -0.001 -7.65824e-05 3.68801e-05 -0.001 
-7.65824e-05 -3.68801e-05 -0.001 -1.89143e-05 -8.28689e-05 -0.001 5.29966e-05 -6.64557e-05 -0.001 
0.000131234 6.38474e-05 0 0.00012964 -6.2443e-05 0 3.13827e-05 0.0001394 0 
3.12554e-05 -0.000136939 0 -0.000140461 8.25467e-19 0 -8.90565e-05 -0.000102707 0 
-9.04142e-05 0.000102872 0 -0.000765769 -0.00025965 0 -0.000756873 0.000262774 0 
-0.00015609 0.000787505 0 -0.000155807 -0.00079355 0 0.000605069 0.000528035 0 
0.000608694 -0.00052497 0 0.000744069 0.000116929 0 -0.000494418 0.000596218 0 
-0.000483866 -0.000584648 0 0.000269496 0.000702219 0 0.000263201 -0.000717324 0 
0.000754429 -0.000127825 0 -0.000748858 5.84659e-07 0 -0.000747838 0.000373886 0 
-0.0006542 0.000324842 0 -0.000645137 0.000210123 0 -0.000550884 0.000274171 0 
-0.000538857 0.000163195 0 -0.00045062 0.000224461 0 -0.000438393 0.000123907 0 
-0.000354088 0.000181668 0 -0.000363908 0.000282171 0 -0.000270361 0.000239477 0 
-0.000279138 0.000337653 0 -0.000188888 0.000294791 0 -0.000196448 0.000393271 0 
-0.000104767 0.000348259 0 -0.000113332 0.000449012 0 -2.01066e-05 0.000403223 0 
-2.89189e-05 0.000507105 0 6.9524e-05 0.000461596 0 -0.000213644 0.000490203 0 
7.33757e-05 0.000357726 0 0.000163331 0.00041299 0 0.000163359 0.000313022 0 
0.000248077 0.000366368 0 0.000250914 0.000265758 0 0.000335709 0.000322266 0 
0.000340555 0.000218148 0 0.000427299 0.000276717 0 0.000431508 0.000173093 0 
0.000328731 0.000425633 0 0.00034586 0.000114823 0 0.000435362 7.05241e-05 0 
0.000350892 1.5455e-05 0 0.000441547 -3.11896e-05 0 0.000353547 -8.47783e-05 0 
0.000445767 -0.000132964 0 0.000356135 -0.000186358 0 0.000449094 -0.000234674 0 
0.000359978 -0.000287876 0 0.00026856 -0.000240545 0 0.000271895 -0.000341045 0 
0.000181792 -0.00029305 0 0.00018533 -0.000392851 0 9.75701e-05 -0.00034483 0 
9.98764e-05 -0.000444884 0 8.75116e-06 -0.000396343 0 1.20916e-05 -0.000500496 0 
-7.83929e-05 -0.000449843 0 -8.1471e-05 -0.000347249 0 -0.000171566 -0.000403733 0 
-0.000169889 -0.000298891 0 -0.000259867 -0.000354132 0 -0.000257696 -0.000249137 0 
-0.00034313 -0.000299896 0 -0.000344514 -0.000199127 0 -0.000434309 -0.000250039 0 
-0.000169832 -0.000505815 0 -0.000435227 -0.000146227 0 0.000280331 -0.000442424 0 
-0.000340889 8.76793e-05 0 -0.000515252 4.06198e-05 0 6.50491e-05 0.000568253 0 
0.00053278 1.74743e-05 0 0.000522071 0.000229831 0 -0.00037162 0.000391659 0 
-0.000255272 -0.000150439 0 -0.000442893 -0.000350705 0 0.000450067 -0.000332559 0 
0.000545175 -0.000276306 0 -0.000527797 -0.000197598 0 0.000105306 -0.000551033 0 
1.45836e-05 -0.000609147 0 0.00017145 0.000214453 0 0.000515525 0.000341711 0 
0.000636086 0.000290368 0 -0.000558657 0.000404468 0 -4.01232e-05 0.000616718 0 
6.60192e-05 0.000696422 0 -0.000101806 0.0002546 0 0.000271142 -3.88908e-05 0 
0.000179455 -0.00018534 0 -8.79553e-05 -0.000254307 0 -0.000749267 -0.000373451 0 
-0.000655941 -0.000323397 0 0.000709746 0.000466718 0 0.000698426 -0.000473086 0 
-5.25801e-05 -0.00084886 0 -4.93005e-05 0.000848038 0 0.000617396 -0.000413362 0 
0.000702056 -0.000369817 0 0.000131459 -0.000679171 0 2.48171e-05 -0.000715924 0 
-0.000664217 -0.00042729 0 -0.000528828 -8.80444e-05 0 -0.000611101 -0.000136672 0 
-0.000426972 -4.45841e-05 0 0.000800669 0.000378216 0 0.000821144 -0.000415062 0 
7.2799e-05 0.00088254 0 6.81831e-05 -0.00087503 0 0.000104963 -0.000788946 0 
-7.40696e-05 -0.000660054 0 0.000126061 0.000809943 0 0.000764361 0.000295682 0 
0.000166862 0.000630623 0 0.000516462 -0.00046707 0 -0.000563585 -0.000389606 0 
-0.000622598 -1.40238e-05 0 0.000629891 0.000171529 0 2.5614e-06 -0.000299794 0 
8.6901e-05 -0.00024329 0 0.000272045 -0.000136982 0 -0.00075148 0.000138321 0 
0.000209366 -0.000599589 0 0.000324913 -0.000630055 0 0.000614044 0.00041245 0 
0.00049651 -0.000573327 0 0.000394822 -0.000507321 0 -0.000173714 -0.000206698 0 
0.000264897 5.63722e-05 0 0.000247997 0.000152811 0 -4.63327e-05 -0.000920208 0 
9.18688e-05 0.000258626 0 -5.54111e-06 0.000290558 0 -0.000184219 0.000201484 0 
-0.000263559 0.000142267 0 -0.000256427 5.13624e-05 0 -0.000336894 -2.06179e-06 0 
-0.000228499 -4.2388e-05 0 -0.00017589 0.000106626 0 -0.000769947 -0.000133367 0 
0.000767591 -0.000500293 0 -5.05874e-05 0.000737978 0 0.000754456 -3.51771e-06 0 
0.00064691 -6.15298e-05 0 0.000630483 -0.00018134 0 0.000749187 -0.000265543 0 
-0.000760805 -0.000462521 0 0.000638155 6.09315e-05 0 -4.46661e-05 0.000922995 0 
-2.37945e-05 0.000207237 0 0.000776979 0.000500181 0 -0.000605691 0.000527596 0 
-0.000377914 -0.000653727 0 -0.000372325 -0.000526022 0 -0.000275829 -0.000589621 0 
-0.000254285 -0.000710579 0 -0.000379307 0.000656222 0 -0.000379818 0.00052718 0 
-0.000266817 0.000721555 0 -0.000150544 0.000668174 0 0.000381963 0.00065079 0 
0.000493113 0.000590432 0 0.000505439 0.000463708 0 -0.000269094 0.000596608 0 
0.000385815 0.000532045 0 0.000283599 0.0005899 0 -0.000176405 -0.000108505 0 
-0.000278769 -0.000475415 0 0.000185395 2.33014e-06 0 0.000186773 0.000517571 0 
0.000540032 -8.68444e-05 0 -0.000600694 -0.000514877 0 -0.00063703 8.98033e-05 0 
-0.000459677 0.000335729 0 -0.000338836 -0.000100751 0 -0.000457327 0.000432721 0 
-8.72007e-06 -0.000210238 0 0.000156073 0.000129496 0 -7.70692e-05 -0.000555049 0 
0.00036091 -0.000389728 0 0.000531628 0.000120564 0 -0.000285451 0.000435562 0 
0.000192719 -0.000494604 0 0.00041642 0.00039368 0 -0.000135943 0.000554637 0 
-0.000170665 -0.000610079 0 -0.000666304 0.000434981 0 -0.000758736 0.000479231 0 
-0.000470189 -0.000458901 0 0.000203433 -8.59809e-05 0 0.000101846 0.000170114 0 
-0.00035513 -0.00040726 0 0.000100184 -0.000165831 0 2.96286e-05 0.00081537 0 
0.000720946 0.000381836 0 -0.000539809 -0.000292001 0 0.00052211 -0.000182426 0 
-6.41339e-05 -0.000753908 0 0.000638039 -0.000299861 0 -0.000605136 -0.000230182 0 
-3.41638e-05 -0.000145561 0 -0.000104037 0.000172396 0 -0.000808575 -0.00042774 0 
-0.000807207 -0.000465052 0 -0.00080817 0.000429771 0 -0.000806589 0.000469738 0 
-9.50634e-05 -0.000178909 0 0.000247777 0.000445058 0 1.48293e-05 -0.000814201 0 
-4.11555e-05 0.000140955 0 0.000276104 -0.000536845 0 0.000765969 -0.000436638 0 
0.000780871 -0.000362769 0 0.000424176 -0.000642018 0 0.00053413 -0.000368009 0 
-0.000416333 4.17911e-05 0 -0.000133891 -6.23822e-05 0 4.2574e-05 0.000206312 0 
0.000141163 -0.000121542 0 0.000707423 0.000212137 0 0.000172327 0.000723882 0 
7.72652e-06 -0.00090254 0 -0.000134435 5.66935e-05 0 -0.000188826 3.70894e-05 0 
0.000197119 8.09714e-05 0 1.27801e-05 0.000917296 0 0.000800767 0.00044758 0 
-0.000686682 0.000507104 0 9.35831e-05 0.000110457 0 -0.000696793 -0.000509595 0 
-0.00068446 -8.52012e-05 0 -0.000691033 -0.000201242 0 5.24052e-05 -0.000189075 0 
-0.000151818 -0.000701092 0 -0.000296988 0.000518087 0 9.31023e-05 -0.000108117 0 
0.00044261 -0.000416726 0 0.000197044 -0.000784423 0 -0.000516861 0.000504567 0 
0.000298997 0.000502377 0 0.000131234 6.38474e-05 -0.001 0.00012964 -6.2443e-05 -0.001 
3.13827e-05 0.0001394 -0.001 3.12554e-05 -0.000136939 -0.001 -0.000140461 8.25467e-19 -0.001 
-8.90565e-05 -0.000102707 -0.001 -9.04142e-05 0.000102872 -0.001 -0.000765769 -0.00025965 -0.001 
-0.000756873 0.000262774 -0.001 -0.00015609 0.000787505 -0.001 -0.000155807 -0.00079355 -0.001 
0.000605069 0.000528035 -0.001 0.000608694 -0.00052497 -0.001 0.000744069 0.000116929 -0.001 
-0.000494418 0.000596218 -0.001 -0.000483866 -0.000584648 -0.001 0.000269496 0.000702219 -0.001 
0.000263201 -0.000717324 -0.001 0.000754429 -0.000127825 -0.001 -0.000748858 5.84659e-07 -0.001 
-0.000747838 0.000373886 -0.001 -0.0006542 0.000324842 -0.001 -0.000645137 0.000210123 -0.001 
-0.000550884 0.000274171 -0.001 -0.000538857 0.000163195 -0.001 -0.00045062 0.000224461 -0.001 
-0.000438393 0.000123907 -0.001 -0.000354088 0.000181668 -0.001 -0.000363908 0.000282171 -0.001 
-0.000270361 0.000239477 -0.001 -0.000279138 0.000337653 -0.001 -0.000188888 0.000294791 -0.001 
-0.000196448 0.000393271 -0.001 -0.000104767 0.000348259 -0.001 -0.000113332 0.000449012 -0.001 
-2.01066e-05 0.000403223 -0.001 -2.89189e-05 0.000507105 -0.001 6.9524e-05 0.000461596 -0.001 
-0.000213644 0.000490203 -0.001 7.33757e-05 0.000357726 -0.001 0.000163331 0.00041299 -0.001 
0.000163359 0.000313022 -0.001 0.000248077 0.000366368 -0.001 0.000250914 0.000265758 -0.001 
0.000335709 0.000322266 -0.001 0.000340555 0.000218148 -0.001 0.000427299 0.000276717 -0.001 
0.000431508 0.000173093 -0.001 0.000328731 0.000425633 -0.001 0.00034586 0.000114823 -0.001 
0.000435362 7.05241e-05 -0.001 0.000350892 1.5455e-05 -0.001 0.000441547 -3.11896e-05 -0.001 
0.000353547 -8.47783e-05 -0.001 0.000445767 -0.000132964 -0.001 0.000356135 -0.000186358 -0.001 
0.000449094 -0.000234674 -0.001 0.000359978 -0.000287876 -0.001 0.00026856 -0.000240545 -0.001 
0.000271895 -0.000341045 -0.001 0.000181792 -0.00029305 -0.001 0.00018533 -0.000392851 -0.001 
9.75701e-05 -0.00034483 -0.001 9.98764e-05 -0.000444884 -0.001 8.75116e-06 -0.000396343 -0.001 
1.20916e-05 -0.000500496 -0.001 -7.83929e-05 -0.000449843 -0.001 -8.1471e-05 -0.000347249 -0.001 
-0.000171566 -0.000403733 -0.001 -0.000169889 -0.000298891 -0.001 -0.000259867 -0.000354132 -0.001 
-0.000257696 -0.000249137 -0.001 -0.00034313 -0.000299896 -0.001 -0.000344514 -0.000199127 -0.001 
-0.000434309 -0.000250039 -0.001 -0.000169832 -0.000505815 -0.001 -0.000435227 -0.000146227 -0.001 
0.000280331 -0.000442424 -0.001 -0.000340889 8.76793e-05 -0.001 -0.000515252 4.06198e-05 -0.001 
6.50491e-05 0.000568253 -0.001 0.00053278 1.74743e-05 -0.001 0.000522071 0.000229831 -0.001 
-0.00037162 0.000391659 -0.001 -0.000255272 -0.000150439 -0.001 -0.000442893 -0.000350705 -0.001 
0.000450067 -0.000332559 -0.001 0.000545175 -0.000276306 -0.001 -0.000527797 -0.000197598 -0.001 
0.000105306 -0.000551033 -0.001 1.45836e-05 -0.000609147 -0.001 0.00017145 0.000214453 -0.001 
0.000515525 0.000341711 -0.001 0.000636086 0.000290368 -0.001 -0.000558657 0.000404468 -0.001 
-4.01232e-05 0.000616718 -0.001 6.60192e-05 0.000696422 -0.001 -0.000101806 0.0002546 -0.001 
0.000271142 -3.88908e-05 -0.001 0.000179455 -0.00018534 -0.001 -8.79553e-05 -0.000254307 -0.001 
-0.000749267 -0.000373451 -0.001 -0.000655941 -0.000323397 -0.001 0.000709746 0.000466718 -0.001 
0.000698426 -0.000473086 -0.001 -5.25801e-05 -0.00084886 -0.001 -4.93005e-05 0.000848038 -0.001 
0.000617396 -0.000413362 -0.001 0.000702056 -0.000369817 -0.001 0.000131459 -0.000679171 -0.001 
2.48171e-05 -0.000715924 -0.001 -0.000664217 -0.00042729 -0.001 -0.000528828 -8.80444e-05 -0.001 
-0.000611101 -0.000136672 -0.001 -0.000426972 -4.45841e-05 -0.001 0.000800669 0.000378216 -0.001 
0.000821144 -0.000415062 -0.001 7.2799e-05 0.00088254 -0.001 6.81831e-05 -0.00087503 -0.001 
0.000104963 -0.000788946 -0.001 -7.40696e-05 -0.000660054 -0.001 0.000126061 0.000809943 -0.001 
0.000764361 0.000295682 -0.001 0.000166862 0.000630623 -0.001 0.000516462 -0.00046707 -0.001 
-0.000563585 -0.000389606 -0.001 -0.000622598 -1.40238e-05 -0.001 0.000629891 0.000171529 -0.001 
2.5614e-06 -0.000299794 -0.001 8.6901e-05 -0.00024329 -0.001 0.000272045 -0.000136982 -0.001 
-0.00075148 0.000138321 -0.001 0.000209366 -0.000599589 -0.001 0.000324913 -0.000630055 -0.001 
0.000614044 0.00041245 -0.001 0.00049651 -0.000573327 -0.001 0.000394822 -0.000507321 -0.001 
-0.000173714 -0.000206698 -0.001 0.000264897 5.63722e-05 -0.001 0.000247997 0.000152811 -0.001 
-4.63327e-05 -0.000920208 -0.001 9.18688e-05 0.000258626 -0.001 -5.54111e-06 0.000290558 -0.001 
-0.000184219 0.000201484 -0.001 -0.000263559 0.000142267 -0.001 -0.000256427 5.13624e-05 -0.001 
-0.000336894 -2.06179e-06 -0.001 -0.000228499 -4.2388e-05 -0.001 -0.00017589 0.000106626 -0.001 
-0.000769947 -0.000133367 -0.001 0.000767591 -0.000500293 -0.001 -5.05874e-05 0.000737978 -0.001 
0.000754456 -3.51771e-06 -0.001 0.00064691 -6.15298e-05 -0.001 0.000630483 -0.00018134 -0.001 
0.000749187 -0.000265543 -0.001 -0.000760805 -0.000462521 -0.001 0.000638155 6.09315e-05 -0.001 
-4.46661e-05 0.000922995 -0.001 -2.37945e-05 0.000207237 -0.001 0.000776979 0.000500181 -0.001 
-0.000605691 0.000527596 -0.001 -0.000377914 -0.000653727 -0.001 -0.000372325 -0.000526022 -0.001 
-0.000275829 -0.000589621 -0.001 -0.000254285 -0.000710579 -0.001 -0.000379307 0.000656222 -0.001 
-0.000379818 0.00052718 -0.001 -0.000266817 0.000721555 -0.001 -0.000150544 0.000668174 -0.001 
0.000381963 0.00065079 -0.001 0.000493113 0.000590432 -0.001 0.000505439 0.000463708 -0.001 
-0.000269094 0.000596608 -0.001 0.000385815 0.000532045 -0.001 0.000283599 0.0005899 -0.001 
-0.000176405 -0.000108505 -0.001 -0.000278769 -0.000475415 -0.001 0.000185395 2.33014e-06 -0.001 
0.000186773 0.000517571 -0.001 0.000540032 -8.68444e-05 -0.001 -0.000600694 -0.000514877 -0.001 
-0.00063703 8.98033e-05 -0.001 -0.000459677 0.000335729 -0.001 -0.000338836 -0.000100751 -0.001 
-0.000457327 0.000432721 -0.001 -8.72007e-06 -0.000210238 -0.001 0.000156073 0.000129496 -0.001 
-7.70692e-05 -0.000555049 -0.001 0.00036091 -0.000389728 -0.001 0.000531628 0.000120564 -0.001 
-0.000285451 0.000435562 -0.001 0.000192719 -0.000494604 -0.001 0.00041642 0.00039368 -0.001 
-0.000135943 0.000554637 -0.001 -0.000170665 -0.000610079 -0.001 -0.000666304 0.000434981 -0.001 
-0.000758736 0.000479231 -0.001 -0.000470189 -0.000458901 -0.001 0.000203433 -8.59809e-05 -0.001 
0.000101846 0.000170114 -0.001 -0.00035513 -0.00040726 -0.001 0.000100184 -0.000165831 -0.001 
2.96286e-05 0.00081537 -0.001 0.000720946 0.000381836 -0.001 -0.000539809 -0.000292001 -0.001 
0.00052211 -0.000182426 -0.001 -6.41339e-05 -0.000753908 -0.001 0.000638039 -0.000299861 -0.001 
-0.000605136 -0.000230182 -0.001 -3.41638e-05 -0.000145561 -0.001 -0.000104037 0.000172396 -0.001 
-0.000808575 -0.00042774 -0.001 -0.000807207 -0.000465052 -0.001 -0.00080817 0.000429771 -0.001 
-0.000806589 0.000469738 -0.001 -9.50634e-05 -0.000178909 -0.001 0.000247777 0.000445058 -0.001 
1.48293e-05 -0.000814201 -0.001 -4.11555e-05 0.000140955 -0.001 0.000276104 -0.000536845 -0.001 
0.000765969 -0.000436638 -0.001 0.000780871 -0.000362769 -0.001 0.000424176 -0.000642018 -0.001 
0.00053413 -0.000368009 -0.001 -0.000416333 4.17911e-05 -0.001 -0.000133891 -6.23822e-05 -0.001 
4.2574e-05 0.000206312 -0.001 0.000141163 -0.000121542 -0.001 0.000707423 0.000212137 -0.001 
0.000172327 0.000723882 -0.001 7.72652e-06 -0.00090254 -0.001 -0.000134435 5.66935e-05 -0.001 
-0.000188826 3.70894e-05 -0.001 0.000197119 8.09714e-05 -0.001 1.27801e-05 0.000917296 -0.001 
0.000800767 0.00044758 -0.001 -0.000686682 0.000507104 -0.001 9.35831e-05 0.000110457 -0.001 
-0.000696793 -0.000509595 -0.001 -0.00068446 -8.52012e-05 -0.001 -0.000691033 -0.000201242 -0.001 
5.24052e-05 -0.000189075 -0.001 -0.000151818 -0.000701092 -0.001 -0.000296988 0.000518087 -0.001 
9.31023e-05 -0.000108117 -0.001 0.00044261 -0.000416726 -0.001 0.000197044 -0.000784423 -0.001 
-0.000516861 0.000504567 -0.001 0.000298997 0.000502377 -0.001 

CELLS 563 3941
6 14 304 127 29 554 377 
6 143 259 55 393 509 103 
6 300 319 174 550 569 424 
6 259 349 55 509 599 103 
6 50 365 307 98 615 557 
6 299 320 164 549 570 414 
6 126 304 14 376 554 29 
6 298 319 300 548 569 550 
6 205 240 238 455 490 488 
6 257 308 145 507 558 395 
6 130 352 273 380 602 523 
6 295 320 299 545 570 549 
6 324 327 289 574 577 539 
6 235 258 143 485 508 393 
6 50 307 49 98 557 97 
6 207 283 279 457 533 529 
6 143 373 235 393 623 485 
6 145 308 252 395 558 502 
6 194 303 196 444 553 446 
6 279 306 207 529 556 457 
6 206 305 163 456 555 413 
6 51 357 9 99 607 24 
6 238 252 205 488 502 455 
6 293 317 209 543 567 459 
6 207 316 283 457 566 533 
6 142 301 249 392 551 499 
6 273 359 130 523 609 380 
6 211 327 324 461 577 574 
6 169 265 217 419 515 467 
6 7 365 50 22 615 98 
6 283 316 253 533 566 503 
6 159 268 223 409 518 473 
6 274 337 132 524 587 382 
6 232 361 329 482 611 579 
6 231 266 45 481 516 93 
6 229 362 330 479 612 580 
6 9 244 57 24 494 105 
6 230 276 52 480 526 100 
6 209 311 293 459 561 543 
6 131 342 302 381 592 552 
6 270 271 204 520 521 454 
6 66 243 1 114 493 16 
6 59 241 12 107 491 27 
6 280 306 279 530 556 529 
6 269 337 274 519 587 524 
6 179 256 224 429 506 474 
6 163 305 166 413 555 416 
6 201 303 194 451 553 444 
6 280 332 306 530 582 556 
6 186 255 225 436 505 475 
6 210 310 273 460 560 523 
6 153 270 204 403 520 454 
6 136 231 45 386 481 93 
6 171 265 169 421 515 419 
6 138 230 52 388 480 100 
6 225 354 325 475 604 575 
6 36 284 232 84 534 482 
6 161 268 159 411 518 409 
6 71 286 229 119 536 479 
6 290 303 201 540 553 451 
6 139 355 60 389 605 108 
6 60 355 248 108 605 498 
6 273 352 302 523 602 552 
6 235 373 245 485 623 495 
6 67 356 247 115 606 497 
6 221 295 277 471 545 527 
6 142 356 67 392 606 115 
6 139 283 253 389 533 503 
6 203 315 262 453 565 512 
6 41 257 145 89 507 395 
6 36 232 135 84 482 385 
6 71 229 137 119 479 387 
6 254 255 188 504 505 438 
6 233 350 334 483 600 584 
6 262 346 203 512 596 453 
6 304 325 127 554 575 377 
6 222 329 247 472 579 497 
6 218 298 260 468 548 510 
6 290 321 291 540 571 541 
6 272 310 240 522 560 490 
6 269 274 270 519 524 520 
6 244 245 57 494 495 105 
6 49 307 141 97 557 391 
6 225 325 256 475 575 506 
6 273 310 272 523 560 522 
6 312 368 255 562 618 505 
6 249 305 206 499 555 456 
6 228 331 251 478 581 501 
6 302 342 263 552 592 513 
6 338 339 44 588 589 92 
6 190 254 188 440 504 438 
6 37 341 340 85 591 590 
6 138 233 230 388 483 480 
6 228 335 331 478 585 581 
6 181 256 179 431 506 429 
6 195 263 226 445 513 476 
6 268 285 223 518 535 473 
6 290 291 288 540 541 538 
6 219 330 248 469 580 498 
6 201 321 290 451 571 540 
6 240 310 202 490 560 452 
6 188 255 186 438 505 436 
6 270 274 271 520 524 521 
6 262 349 259 512 599 509 
6 141 324 289 391 574 539 
6 296 301 142 546 551 392 
6 247 356 222 497 606 472 
6 239 252 238 489 502 488 
6 254 312 255 504 562 505 
6 54 261 53 102 511 101 
6 289 327 303 539 577 553 
6 268 353 285 518 603 535 
6 273 302 210 523 552 460 
6 292 299 293 542 549 543 
6 278 283 139 528 533 389 
6 175 265 171 425 515 421 
6 227 338 38 477 588 86 
6 264 360 265 514 610 515 
6 43 340 146 91 590 396 
6 165 268 161 415 518 411 
6 205 351 240 455 601 490 
6 64 281 63 112 531 111 
6 288 291 47 538 541 95 
6 135 295 294 385 545 544 
6 42 257 41 90 507 89 
6 245 373 57 495 623 105 
6 31 363 323 79 613 573 
6 292 293 140 542 543 390 
6 267 353 268 517 603 518 
6 155 270 153 405 520 403 
6 244 344 245 494 594 495 
6 61 278 139 109 528 389 
6 135 294 35 385 544 83 
6 69 297 296 117 547 546 
6 186 225 184 436 475 434 
6 329 361 243 579 611 493 
6 255 328 225 505 578 475 
6 213 332 280 463 582 530 
6 39 275 133 87 525 383 
6 330 362 241 580 612 491 
6 195 226 193 445 476 443 
6 211 324 251 461 574 501 
6 151 153 152 401 403 402 
6 295 299 294 545 549 544 
6 265 313 217 515 563 467 
6 258 259 143 508 509 393 
6 251 331 211 501 581 461 
6 149 151 150 399 401 400 
6 293 370 317 543 620 567 
6 153 204 152 403 454 402 
6 151 152 150 401 402 400 
6 33 292 140 81 542 390 
6 210 263 197 460 513 447 
6 301 305 249 551 555 499 
6 298 300 297 548 550 547 
6 68 296 142 116 546 392 
6 321 369 291 571 619 541 
6 179 224 177 429 474 427 
6 167 267 165 417 517 415 
6 259 346 262 509 596 512 
6 303 327 196 553 577 446 
6 269 270 155 519 520 405 
6 265 360 313 515 610 563 
6 223 269 157 473 519 407 
6 157 269 155 407 519 405 
6 144 279 278 394 529 528 
6 169 217 167 419 467 417 
6 177 264 175 427 514 425 
6 267 268 165 517 518 415 
6 159 223 157 409 473 407 
6 232 277 135 482 527 385 
6 193 254 190 443 504 440 
6 217 267 167 467 517 417 
6 249 356 142 499 606 392 
6 184 256 181 434 506 431 
6 248 355 219 498 605 469 
6 229 260 137 479 510 387 
6 149 150 148 399 400 398 
6 64 348 281 112 598 531 
6 311 374 293 561 624 543 
6 264 265 175 514 515 425 
6 297 300 296 547 550 546 
6 141 289 288 391 539 538 
6 197 263 195 447 513 445 
6 218 260 219 468 510 469 
6 224 264 177 474 514 427 
6 137 298 297 387 548 547 
6 277 295 135 527 545 385 
6 133 228 227 383 478 477 
6 261 349 262 511 599 512 
6 221 277 222 471 527 472 
6 256 325 224 506 575 474 
6 199 210 197 449 460 447 
6 226 254 193 476 504 443 
6 144 278 62 394 528 110 
6 279 283 278 529 533 528 
6 289 290 288 539 540 538 
6 137 297 70 387 547 118 
6 34 294 292 82 544 542 
6 235 236 216 485 486 466 
6 141 288 48 391 538 96 
6 178 306 180 428 556 430 
6 185 186 184 435 436 434 
6 63 281 144 111 531 394 
6 225 256 184 475 506 434 
6 46 291 136 94 541 386 
6 147 149 148 397 399 398 
6 271 272 204 521 522 454 
6 233 334 234 483 584 484 
6 145 275 40 395 525 88 
6 220 322 287 470 572 537 
6 280 334 213 530 584 463 
6 144 280 279 394 530 529 
6 140 287 32 390 537 80 
6 154 155 153 404 405 403 
6 334 350 213 584 600 463 
6 176 177 175 426 427 425 
6 260 298 137 510 548 387 
6 33 140 32 81 390 80 
6 49 141 48 97 391 96 
6 56 143 55 104 393 103 
6 68 142 67 116 392 115 
6 63 144 62 111 394 110 
6 61 139 60 109 389 108 
6 148 308 257 398 558 507 
6 71 137 70 119 387 118 
6 53 138 52 101 388 100 
6 46 136 45 94 386 93 
6 36 135 35 84 385 83 
6 43 146 134 91 396 384 
6 133 227 38 383 477 86 
6 192 193 190 442 443 440 
6 293 374 140 543 624 390 
6 34 292 33 82 542 81 
6 207 306 178 457 556 428 
6 43 134 42 91 384 90 
6 39 133 38 87 383 86 
6 41 145 40 89 395 88 
6 194 195 193 444 445 443 
6 69 296 68 117 546 116 
6 294 299 292 544 549 542 
6 173 175 171 423 425 421 
6 260 330 219 510 580 469 
6 183 184 181 433 434 431 
6 134 257 42 384 507 90 
6 55 349 54 103 599 102 
6 163 165 161 413 415 411 
6 166 167 165 416 417 415 
6 210 302 263 460 552 513 
6 271 273 272 521 523 522 
6 53 261 138 101 511 388 
6 217 326 267 467 576 517 
6 289 303 290 539 553 540 
6 178 179 177 428 429 427 
6 238 240 202 488 490 452 
6 62 278 61 110 528 109 
6 35 294 34 83 544 82 
6 284 361 232 534 611 482 
6 70 297 69 118 547 117 
6 224 304 264 474 554 514 
6 156 157 155 406 407 405 
6 48 288 47 96 538 95 
6 221 320 295 471 570 545 
6 187 188 186 437 438 436 
6 47 291 46 95 541 94 
6 151 154 153 401 404 403 
6 286 362 229 536 612 479 
6 168 169 167 418 419 417 
6 40 275 39 88 525 87 
6 307 324 141 557 574 391 
6 300 301 296 550 551 546 
6 32 287 31 80 537 79 
6 147 220 149 397 470 399 
6 333 344 231 583 594 481 
6 299 370 293 549 620 543 
6 271 359 273 521 609 523 
6 224 325 304 474 575 554 
6 228 237 227 478 487 477 
6 305 375 343 555 625 593 
6 218 319 298 468 569 548 
6 240 351 272 490 601 522 
6 277 329 222 527 579 472 
6 253 355 139 503 605 389 
6 158 159 157 408 409 407 
6 236 246 216 486 496 466 
6 192 194 193 442 444 443 
6 220 309 149 470 559 399 
6 183 185 184 433 435 434 
6 196 197 195 446 447 445 
6 276 347 58 526 597 106 
6 136 333 231 386 583 481 
6 67 247 66 115 497 114 
6 60 248 59 108 498 107 
6 261 262 250 511 512 500 
6 173 176 175 423 426 425 
6 344 357 231 594 607 481 
6 144 281 280 394 531 530 
6 152 205 150 402 455 400 
6 163 166 165 413 416 415 
6 185 187 186 435 437 436 
6 233 234 230 483 484 480 
6 170 171 169 420 421 419 
6 146 147 134 396 397 384 
6 176 178 177 426 428 427 
6 285 337 223 535 587 473 
6 154 156 155 404 406 405 
6 263 342 226 513 592 476 
6 235 245 236 485 495 486 
6 160 161 159 410 411 409 
6 58 347 242 106 597 492 
6 166 168 167 416 418 417 
6 287 374 220 537 624 470 
6 189 190 188 439 440 438 
6 148 257 134 398 507 384 
6 194 196 195 444 446 445 
6 252 308 205 502 558 455 
6 285 345 337 535 595 587 
6 301 375 305 551 625 555 
6 180 181 179 430 431 429 
6 281 348 234 531 598 484 
6 198 199 197 448 449 447 
6 151 309 154 401 559 404 
6 228 367 335 478 617 585 
6 54 349 261 102 599 511 
6 156 158 157 406 408 407 
6 168 170 169 418 420 419 
6 200 202 199 450 452 449 
6 147 148 134 397 398 384 
6 158 160 159 408 410 409 
6 150 308 148 400 558 398 
6 253 316 208 503 566 458 
6 232 329 277 482 579 527 
6 178 180 179 428 430 429 
6 191 192 190 441 442 440 
6 214 238 202 464 488 452 
6 172 173 171 422 423 421 
6 187 189 188 437 439 438 
6 162 163 161 412 413 411 
6 228 251 237 478 501 487 
6 215 258 235 465 508 485 
6 182 183 181 432 433 431 
6 202 310 199 452 560 449 
6 219 253 208 469 503 458 
6 222 249 206 472 499 456 
6 196 198 197 446 448 447 
6 229 330 260 479 580 510 
6 132 358 274 382 608 524 
6 149 309 151 399 559 401 
6 226 312 254 476 562 504 
6 154 309 209 404 559 459 
6 77 129 76 125 379 124 
6 73 128 72 121 378 120 
6 76 131 75 124 381 123 
6 74 132 73 122 382 121 
6 75 130 74 123 380 122 
6 14 127 77 29 377 125 
6 72 126 14 120 376 29 
6 133 367 228 383 617 478 
6 237 282 227 487 532 477 
6 239 366 252 489 616 502 
6 200 214 202 450 464 452 
6 192 201 194 442 451 444 
6 170 172 171 420 422 421 
6 220 311 309 470 561 559 
6 198 200 199 448 450 449 
6 189 191 190 439 441 440 
6 146 323 322 396 573 572 
6 160 162 161 410 412 411 
6 251 307 237 501 557 487 
6 199 310 210 449 560 460 
6 57 373 56 105 623 104 
6 214 239 238 464 489 488 
6 182 212 183 432 462 433 
6 180 182 181 430 432 431 
6 146 322 147 396 572 397 
6 172 218 208 422 468 458 
6 172 208 173 422 458 423 
6 162 221 206 412 471 456 
6 162 206 163 412 456 413 
6 176 207 178 426 457 428 
6 272 351 204 522 601 454 
6 198 211 200 448 461 450 
6 182 213 212 432 463 462 
6 234 334 281 484 584 531 
6 154 209 156 404 459 406 
6 185 203 187 435 453 437 
6 168 174 170 418 424 420 
6 189 215 191 439 465 441 
6 215 216 191 465 466 441 
6 221 222 206 471 472 456 
6 158 164 160 408 414 410 
6 218 219 208 468 469 458 
6 205 308 150 455 558 400 
6 191 314 192 441 564 442 
6 215 235 216 465 485 466 
6 215 318 258 465 568 508 
6 152 351 205 402 601 455 
6 138 261 250 388 511 500 
6 192 314 201 442 564 451 
6 234 347 230 484 597 480 
6 226 342 312 476 592 562 
6 138 250 233 388 500 483 
6 147 322 220 397 572 470 
6 216 314 191 466 564 441 
6 306 332 180 556 582 430 
6 222 356 249 472 606 499 
6 128 345 285 378 595 535 
6 314 321 201 564 571 451 
6 212 315 183 462 565 433 
6 312 342 336 562 592 586 
6 282 339 338 532 589 588 
6 340 341 323 590 591 573 
6 309 311 209 559 561 459 
6 183 315 185 433 565 435 
6 208 316 173 458 566 423 
6 173 316 176 423 566 426 
6 3 341 37 18 591 85 
6 44 339 6 92 589 21 
6 252 366 145 502 616 395 
6 246 321 314 496 571 564 
6 246 314 216 496 564 466 
6 126 364 313 376 614 563 
6 156 317 158 406 567 408 
6 275 367 133 525 617 383 
6 176 316 207 426 566 457 
6 185 315 203 435 565 453 
6 180 332 182 430 582 432 
6 302 352 131 552 602 381 
6 251 324 307 501 574 557 
6 187 318 189 437 568 439 
6 172 319 218 422 569 468 
6 162 320 221 412 570 471 
6 305 343 166 555 593 416 
6 170 319 172 420 569 422 
6 158 317 164 408 567 414 
6 209 317 156 459 567 406 
6 285 353 128 535 603 378 
6 223 337 269 473 587 519 
6 160 320 162 410 570 412 
6 211 331 200 461 581 450 
6 174 319 170 424 569 420 
6 203 318 187 453 568 437 
6 189 318 215 439 568 465 
6 198 327 211 448 577 461 
6 164 320 160 414 570 410 
6 326 353 267 576 603 517 
6 236 344 333 486 594 583 
6 196 327 198 446 577 448 
6 219 355 253 469 605 503 
6 281 334 280 531 584 530 
6 274 359 271 524 609 521 
6 164 370 299 414 620 549 
6 174 375 300 424 625 550 
6 287 363 31 537 613 79 
6 243 361 1 493 611 16 
6 241 362 12 491 612 27 
6 307 365 237 557 615 487 
6 166 343 168 416 593 418 
6 200 331 214 450 581 464 
6 313 326 217 563 576 467 
6 9 357 244 24 607 494 
6 1 361 30 16 611 78 
6 12 362 65 27 612 113 
6 337 345 132 587 595 382 
6 242 348 64 492 598 112 
6 231 357 266 481 607 516 
6 182 332 213 432 582 463 
6 245 344 236 495 594 486 
6 258 346 259 508 596 509 
6 145 366 275 395 616 525 
6 291 369 136 541 619 386 
6 236 333 246 486 583 496 
6 331 335 214 581 585 464 
6 312 336 129 562 586 379 
6 315 372 262 565 622 512 
6 220 374 311 470 624 561 
6 140 374 287 390 624 537 
6 126 360 304 376 610 554 
6 230 347 276 480 597 526 
6 313 364 326 563 614 576 
6 56 373 143 104 623 393 
6 239 367 366 489 617 616 
6 204 351 152 454 601 402 
6 300 375 301 550 625 551 
6 214 335 239 464 585 489 
6 247 329 243 497 579 493 
6 262 372 250 512 622 500 
6 248 330 241 498 580 491 
6 318 346 258 568 596 508 
6 333 369 246 583 619 496 
6 282 338 227 532 588 477 
6 146 340 323 396 590 573 
6 304 360 264 554 610 514 
6 366 367 275 616 617 525 
6 129 336 76 379 586 124 
6 73 345 128 121 595 378 
6 76 336 131 124 586 381 
6 250 350 233 500 600 483 
6 129 371 328 379 621 578 
6 132 345 73 382 595 121 
6 168 343 174 418 593 424 
6 131 352 75 381 602 123 
6 66 247 243 114 497 493 
6 59 248 241 107 498 491 
6 74 358 132 122 608 382 
6 203 346 318 453 596 568 
6 313 360 126 563 610 376 
6 128 364 72 378 614 120 
6 128 353 326 378 603 576 
6 77 371 129 125 621 379 
6 129 368 312 379 618 562 
6 244 357 344 494 607 594 
6 328 354 225 578 604 475 
6 326 364 128 576 614 378 
6 75 352 130 123 602 380 
6 350 372 212 600 622 462 
6 136 369 333 386 619 583 
6 325 354 127 575 604 377 
6 213 350 212 463 600 462 
6 130 358 74 380 608 122 
6 250 372 350 500 622 600 
6 317 370 164 567 620 414 
6 72 364 126 120 614 376 
6 328 368 129 578 618 379 
6 127 371 77 377 621 125 
6 336 342 131 586 592 381 
6 212 372 315 462 622 565 
6 234 348 347 484 598 597 
6 8 266 51 23 516 99 
6 10 276 58 25 526 106 
6 246 369 321 496 619 571 
6 30 284 0 78 534 15 
6 65 286 13 113 536 28 
6 58 242 11 106 492 26 
6 266 357 51 516 607 99 
6 255 368 328 505 618 578 
6 347 348 242 597 598 492 
6 322 363 287 572 613 537 
6 323 363 322 573 613 572 
6 335 367 239 585 617 489 
6 30 361 284 78 611 534 
6 65 362 286 113 612 536 
6 237 365 282 487 615 532 
6 130 359 358 380 609 608 
6 343 375 174 593 625 424 
6 354 371 127 604 621 377 
6 328 371 354 578 621 604 
6 358 359 274 608 609 524 
6 0 284 36 15 534 84 
6 45 266 8 93 516 23 
6 52 276 10 100 526 25 
6 11 242 64 26 492 112 
6 13 286 71 28 536 119 
6 2 323 3 17 573 18 
6 31 323 2 79 573 17 
6 323 341 3 573 591 18 
6 37 340 4 85 590 19 
6 4 340 43 19 590 91 
6 38 338 5 86 588 20 
6 5 338 44 20 588 92 
6 6 282 7 21 532 22 
6 6 339 282 21 589 532 
6 282 365 7 532 615 22 

CELL_TYPES 563
13
13
13
13
13
13
13
13
13
13
13
13
13
13
13
13
13
13
13
13
13
13
13
13
13
13
13
13
13
13
13
13
13
13
13
13
13
13
13
13
13
13
13
13
13
13
13
13
13
13
13
13
13
13
13
13
13
13
13
13
13
13
13
13
13
13
13
13
13
13
13
13
13
13
13
13
13
13
13
13
13
13
13
13
13
13
13
13
13
13
13
13
13
13
13
13
13
13
13
13
13
13
13
13
13
13
13
13
13
13
13
13
13
13
13
13
13
13
13
13
13
13
13
13
13
13
13
13
13
13
13
13
13
13
13
13
13
13
13
13
13
13
13
13
13
13
13
13
13
13
13
13
13
13
13
13
13
13
13
13
13
13
13
13
13
13
13
13
13
13
13
13
13
13
13
13
13
13
13
13
13
13
13
13
13
13
13
13
13
13
13
13
13
13
13
13
13
13
13
13
13
13
13
13
13
13
13
13
13
13
13
13
13
13
13
13
13
13
13
13
13
13
13
13
13
13
13
13
13
13
13
13
13
13
13
13
13
13
13
13
13
13
13
13
13
13
13
13
13
13
13
13
13
13
13
13
13
13
13
13
13
13
13
13
13
13
13
13
13
13
13
13
13
13
13
13
13
13
13
13
13
13
13
13
13
13
13
13
13
13
13
13
13
13
13
13
13
13
13
13
13
13
13
13
13
13
13
13
13
13
13
13
13
13
13
13
13
13
13
13
13
13
13
13
13
13
13
13
13
13
13
13
13
13
13
13
13
13
13
13
13
13
13
13
13
13
13
13
13
13
13
13
13
13
13
13
13
13
13
13
13
13
13
13
13
13
13
13
13
13
13
13
13
13
13
13
13
13
13
13
13
13
13
13
13
13
13
13
13
13
13
13
13
13
13
13
13
13
13
13
13
13
13
13
13
13
13
13
13
13
13
13
13
13
13
13
13
13
13
13
13
13
13
13
13
13
13
13
13
13
13
13
13
13
13
13
13
13
13
13
13
13
13
13
13
13
13
13
13
13
13
13
13
13
13
13
13
13
13
13
13
13
13
13
13
13
13
13
13
13
13
13
13
13
13
13
13
13
13
13
13
13
13
13
13
13
13
13
13
13
13
13
13
13
13
13
13
13
13
13
13
13
13
13
13
13
13
13
13
13
13
13
13
13
13
13
13
13
13
13
13
13
13
13
13
13
13
13
13
13
13
13
13
13
13
13
13
13
13
13
13
13
13
13
13
13
13
13
13
13
13
13
13
13
13
13
13
13
13
13
13
13
13

POINT_DATA 626
VECTORS displacement float
-1.74038e-06 3.08982e-05 1.80207e-05
1.73209e-06 3.09172e-05 1.80657e-05
-2.59393e-05 1.69616e-05 1.80527e-05
-2.57941e-05 1.60037e-05 1.80173e-05
-2.76701e-05 1.39478e-05 1.80347e-05
-2.76631e-05 -1.3994e-05 1.80601e-05
-2.57654e-05 -1.60418e-05 1.80714e-05
-2.59355e-05 -1.69797e-05 1.81325e-05
-1.67397e-06 -3.0902e-05 1.80171e-05
1.75187e-06 -3.09035e-05 1.80675e-05
2.58967e-05 -1.69495e-05 1.80092e-05
2.76665e-05 -1.39117e-05 1.80091e-05
2.7622e-05 1.39644e-05 1.80572e-05
2.58681e-05 1.69618e-05 1.80117e-05
0 0 0
-1.74038e-06 3.08982e-05 -1.80207e-05
1.73209e-06 3.09172e-05 -1.80657e-05
-2.59393e-05 1.69616e-05 -1.80527e-05
-2.57941e-05 1.60037e-05 -1.80173e-05
-2.76701e-05 1.39478e-05 -1.80347e-05
-2.76631e-05 -1.3994e-05 -1.80601e-05
-2.57654e-05 -1.60418e-05 -1.80714e-05
-2.59355e-05 -1.69797e-05 -1.81325e-05
-1.67397e-06 -3.0902e-05 -1.80171e-05
1.75187e-06 -3.09035e-05 -1.80675e-05
2.58967e-05 -1.69495e-05 -1.80092e-05
2.76665e-05 -1.39117e-05 -1.80091e-05
2.7622e-05 1.39644e-05 -1.80572e-05
2.58681e-05 1.69618e-05 -1.80117e-05
0 0 0
2.48223e-08 3.00997e-05 1.79999e-05
-2.11033e-05 1.86783e-05 1.75167e-05
-1.72025e-05 1.97983e-05 1.68893e-05
-1.39825e-05 2.10171e-05 1.65243e-05
-1.1187e-05 2.26251e-05 1.65182e-05
-8.50847e-06 2.47891e-05 1.68699e-05
-5.55712e-06 2.75724e-05 1.75044e-05
-2.64018e-05 1.46526e-05 1.79992e-05
-2.67205e-05 -8.9961e-06 1.75442e-05
-2.57605e-05 -5.02715e-06 1.68944e-05
-2.52101e-05 -1.63355e-06 1.65408e-05
-2.5213e-05 1.60523e-06 1.65437e-05
-2.57527e-05 5.01455e-06 1.68926e-05
-2.67068e-05 8.96922e-06 1.75308e-05
-2.63887e-05 -1.46988e-05 1.80279e-05
-5.53041e-06 -2.75869e-05 1.74966e-05
-8.46108e-06 -2.47981e-05 1.68692e-05
-1.11503e-05 -2.26445e-05 1.65255e-05
-1.39462e-05 -2.10501e-05 1.65289e-05
-1.71849e-05 -1.98336e-05 1.69051e-05
-2.10968e-05 -1.8715e-05 1.75291e-05
8.96388e-08 -3.00845e-05 1.79951e-05
2.10867e-05 -1.85909e-05 1.74785e-05
1.72146e-05 -1.97269e-05 1.68414e-05
1.40094e-05 -2.09742e-05 1.64811e-05
1.12052e-05 -2.25534e-05 1.65155e-05
8.5655e-06 -2.47365e-05 1.68428e-05
5.6438e-06 -2.75771e-05 1.75019e-05
2.60772e-05 -1.50324e-05 1.79941e-05
2.66688e-05 8.92315e-06 1.74685e-05
2.56765e-05 5.04123e-06 1.68769e-05
2.51623e-05 1.62069e-06 1.64926e-05
2.51594e-05 -1.59683e-06 1.64909e-05
2.57051e-05 -4.98912e-06 1.68569e-05
2.66509e-05 -8.90193e-06 1.74767e-05
2.60603e-05 1.50335e-05 1.79911e-05
5.62228e-06 2.75685e-05 1.74766e-05
8.49303e-06 2.47631e-05 1.68797e-05
1.11972e-05 2.26014e-05 1.64988e-05
1.39801e-05 2.09851e-05 1.64942e-05
1.71917e-05 1.97581e-05 1.68536e-05
2.10777e-05 1.86005e-05 1.74923e-05
0 0 0
0 0 0
0 0 0
0 0 0
0 0 0
0 0 0
2.48223e-08 3.00997e-05 -1.79999e-05
-2.11033e-05 1.86783e-05 -1.75167e-05
-1.72025e-05 1.97983e-05 -1.68893e-05
-1.39825e-05 2.10171e-05 -1.65243e-05
-1.1187e-05 2.26251e-05 -1.65182e-05
-8.50847e-06 2.47891e-05 -1.68699e-05
-5.55712e-06 2.75724e-05 -1.75044e-05
-2.64018e-05 1.46526e-05 -1.79992e-05
-2.67205e-05 -8.9961e-06 -1.75442e-05
-2.57605e-05 -5.02715e-06 -1.68944e-05
-2.52101e-05 -1.63355e-06 -1.65408e-05
-2.5213e-05 1.60523e-06 -1.65437e-05
-2.57527e-05 5.01455e-06 -1.68926e-05
-2.67068e-05 8.96922e-06 -1.75308e-05
-2.63887e-05 -1.46988e-05 -1.80279e-05
-5.53041e-06 -2.75869e-05 -1.74966e-05
-8.46108e-06 -2.47981e-05 -1.68692e-05
-1.11503e-05 -2.26445e-05 -1.65255e-05
-1.39462e-05 -2.10501e-05 -1.65289e-05
-1.71849e-05 -1.98336e-05 -1.69051e-05
-2.10968e-05 -1.8715e-05 -1.75291e-05
8.96388e-08 -3.00845e-05 -1.79951e-05
2.10867e-05 -1.85909e-05 -1.74785e-05
1.72146e-05 -1.97269e-05 -1.68414e-05
1.40094e-05 -2.09742e-05 -1.64811e-05
1.12052e-05 -2.25534e-05 -1.65155e-05
8.5655e-06 -2.47365e-05 -1.68428e-05
5.6438e-06 -2.75771e-05 -1.75019e-05
2.60772e-05 -1.50324e-05 -1.79941e-05
2.66688e-05 8.92315e-06 -1.74685e-05
2.56765e-05 5.04123e-06 -1.68769e-05
2.51623e-05 1.62069e-06 -1.64926e-05
2.51594e-05 -1.59683e-06 -1.64909e-05
2.57051e-05 -4.98912e-06 -1.68569e-05
2.66509e-05 -8.90193e-06 -1.74767e-05
2.60603e-05 1.50335e-05 -1.79911e-05
5.62228e-06 2.75685e-05 -1.74766e-05
8.49303e-06 2.47631e-05 -1.68797e-05
1.11972e-05 2.26014e-05 -1.64988e-05
1.39801e-05 2.09851e-05 -1.64942e-05
1.71917e-05 1.97581e-05 -1.68536e-05
2.10777e-05 1.86005e-05 -1.74923e-05
0 0 0
0 0 0
0 0 0
0 0 0
0 0 0
0 0 0
1.79131e-06 8.57617e-07 4.54539e-06
1.73553e-06 -8.24031e-07 4.45409e-06
4.31384e-07 1.8472e-06 4.48838e-06
4.35525e-07 -1.77831e-06 4.34956e-06
-1.84507e-06 2.09298e-08 4.41573e-06
-1.12162e-06 -1.30717e-06 4.14479e-06
-1.1577e-06 1.30509e-06 4.1935e-06
-2.24733e-05 -7.27507e-06 1.69682e-05
-2.21572e-05 7.35879e-06 1.69369e-05
-4.85166e-06 2.28582e-05 1.69054e-05
-4.84915e-06 -2.30909e-05 1.69322e-05
1.73907e-05 1.56078e-05 1.68982e-05
1.7538e-05 -1.55089e-05 1.69075e-05
2.10369e-05 3.1585e-06 1.62943e-05
-1.39289e-05 1.71212e-05 1.64479e-05
-1.35676e-05 -1.6712e-05 1.63796e-05
7.75422e-06 1.97851e-05 1.63011e-05
7.67134e-06 -2.02746e-05 1.63722e-05
2.14349e-05 -3.43786e-06 1.63699e-05
-2.10661e-05 6.57055e-09 1.62167e-05
-2.23804e-05 1.09803e-05 1.74207e-05
-1.87181e-05 9.23853e-06 1.65962e-05
-1.79517e-05 5.78546e-06 1.60068e-05
-1.49583e-05 7.43557e-06 1.54582e-05
-1.42004e-05 4.30043e-06 1.4803e-05
-1.15134e-05 5.7343e-06 1.40697e-05
-1.08402e-05 3.06368e-06 1.33501e-05
-8.38694e-06 4.29793e-06 1.2383e-05
-9.04388e-06 7.00186e-06 1.34327e-05
-6.19425e-06 5.47979e-06 1.16691e-05
-6.81714e-06 8.23597e-06 1.30571e-05
-4.27463e-06 6.66437e-06 1.14311e-05
-4.79217e-06 9.59423e-06 1.30711e-05
-2.39706e-06 7.98064e-06 1.1703e-05
-2.80823e-06 1.11488e-05 1.34512e-05
-4.74645e-07 9.57979e-06 1.24794e-05
-7.37127e-07 1.29752e-05 1.41166e-05
1.72823e-06 1.14988e-05 1.35112e-05
-5.52542e-06 1.26791e-05 1.44111e-05
1.6824e-06 8.2109e-06 1.17276e-05
3.99763e-06 1.01043e-05 1.3128e-05
3.6995e-06 7.08674e-06 1.14588e-05
6.05749e-06 8.95202e-06 1.30905e-05
5.75766e-06 6.09709e-06 1.17156e-05
8.34431e-06 8.00712e-06 1.34683e-05
8.09257e-06 5.18688e-06 1.24788e-05
1.09357e-05 7.08521e-06 1.41218e-05
1.07283e-05 4.31567e-06 1.34753e-05
8.51622e-06 1.1019e-05 1.44349e-05
7.92509e-06 2.63954e-06 1.17075e-05
1.06286e-05 1.73436e-06 1.30812e-05
7.93614e-06 3.58193e-07 1.14362e-05
1.07888e-05 -7.57866e-07 1.31012e-05
8.09877e-06 -1.93472e-06 1.16892e-05
1.108e-05 -3.30738e-06 1.34602e-05
8.45608e-06 -4.41684e-06 1.24226e-05
1.14845e-05 -5.99287e-06 1.40843e-05
8.94084e-06 -7.12637e-06 1.34045e-05
6.13778e-06 -5.48571e-06 1.16215e-05
6.63366e-06 -8.28733e-06 1.29956e-05
4.09875e-06 -6.57815e-06 1.12919e-05
4.51599e-06 -9.53531e-06 1.29657e-05
2.23874e-06 -7.84584e-06 1.15777e-05
2.48076e-06 -1.09838e-05 1.33276e-05
2.24927e-07 -9.35859e-06 1.23323e-05
3.29463e-07 -1.27485e-05 1.40089e-05
-1.9123e-06 -1.11324e-05 1.33536e-05
-1.83816e-06 -7.90907e-06 1.15626e-05
-4.1611e-06 -9.85873e-06 1.30622e-05
-3.80794e-06 -6.71991e-06 1.1298e-05
-6.33526e-06 -8.64788e-06 1.30765e-05
-5.88195e-06 -5.68898e-06 1.16087e-05
-8.48575e-06 -7.42359e-06 1.33562e-05
-8.15438e-06 -4.72044e-06 1.23873e-05
-1.10772e-05 -6.3921e-06 1.40449e-05
-4.36434e-06 -1.31012e-05 1.44079e-05
-1.07911e-05 -3.64467e-06 1.34156e-05
7.21406e-06 -1.13538e-05 1.42476e-05
-7.72947e-06 1.97955e-06 1.14735e-05
-1.31941e-05 1.03333e-06 1.41857e-05
1.72619e-06 1.50573e-05 1.49253e-05
1.3745e-05 4.61465e-07 1.43621e-05
1.38198e-05 6.08978e-06 1.49048e-05
-9.67778e-06 1.01792e-05 1.45065e-05
-5.40769e-06 -3.19275e-06 1.01654e-05
-1.16938e-05 -9.28162e-06 1.48624e-05
1.18623e-05 -8.74543e-06 1.47606e-05
1.47565e-05 -7.46084e-06 1.53754e-05
-1.39361e-05 -5.23503e-06 1.48349e-05
2.79111e-06 -1.44917e-05 1.47696e-05
4.23833e-07 -1.64712e-05 1.53698e-05
3.51312e-06 4.39029e-06 9.56553e-06
1.39866e-05 9.28316e-06 1.54634e-05
1.78997e-05 8.13086e-06 1.62705e-05
-1.56483e-05 1.13756e-05 1.62036e-05
-1.09222e-06 1.67404e-05 1.54671e-05
1.90351e-06 1.95876e-05 1.62809e-05
-2.0887e-06 5.21219e-06 9.582e-06
5.54556e-06 -7.83418e-07 9.57857e-06
3.5806e-06 -3.67806e-06 9.06736e-06
-1.77696e-06 -5.17077e-06 9.43429e-06
-2.24288e-05 -1.09914e-05 1.74414e-05
-1.87653e-05 -9.22531e-06 1.66202e-05
2.11103e-05 1.41395e-05 1.74726e-05
2.0717e-05 -1.4292e-05 1.74028e-05
-1.76131e-06 -2.54013e-05 1.74779e-05
-1.679e-06 2.53654e-05 1.74826e-05
1.76821e-05 -1.1886e-05 1.66562e-05
2.06093e-05 -1.07322e-05 1.7084e-05
3.76906e-06 -1.89523e-05 1.61097e-05
7.67165e-07 -2.03104e-05 1.64524e-05
-1.93709e-05 -1.26281e-05 1.71111e-05
-1.37081e-05 -2.30305e-06 1.44461e-05
-1.65644e-05 -3.69512e-06 1.54494e-05
-1.03589e-05 -1.0946e-06 1.29297e-05
2.44082e-05 1.10533e-05 1.76183e-05
2.54516e-05 -1.23812e-05 1.78143e-05
2.64419e-06 2.66782e-05 1.76271e-05
2.5162e-06 -2.63665e-05 1.75961e-05
3.33341e-06 -2.29914e-05 1.69973e-05
-2.05034e-06 -1.82883e-05 1.59217e-05
4.05163e-06 2.37494e-05 1.70983e-05
2.25741e-05 8.3647e-06 1.70872e-05
4.60565e-06 1.72836e-05 1.56986e-05
1.44021e-05 -1.30967e-05 1.61077e-05
-1.57603e-05 -1.09657e-05 1.61847e-05
-1.67711e-05 -3.80786e-07 1.53495e-05
1.72762e-05 4.67945e-06 1.5697e-05
6.5421e-08 -6.37748e-06 1.02505e-05
1.73911e-06 -4.8412e-06 9.07784e-06
5.84144e-06 -2.93098e-06 1.03611e-05
-2.14068e-05 3.74409e-06 1.64284e-05
5.71955e-06 -1.62466e-05 1.54795e-05
9.06776e-06 -1.74688e-05 1.59682e-05
1.75414e-05 1.18609e-05 1.66413e-05
1.39699e-05 -1.63536e-05 1.63709e-05
1.07216e-05 -1.37654e-05 1.55218e-05
-3.5426e-06 -4.21381e-06 9.48535e-06
5.39097e-06 1.13678e-06 9.48364e-06
5.21007e-06 3.21794e-06 1.00308e-05
-1.74638e-06 -2.83035e-05 1.78429e-05
1.88919e-06 5.29086e-06 9.56886e-06
-1.13651e-07 6.09566e-06 1.00223e-05
-3.77918e-06 4.12149e-06 9.56284e-06
-5.61402e-06 3.02951e-06 1.02683e-05
-5.1577e-06 1.0391e-06 9.19872e-06
-7.51543e-06 -6.16398e-08 1.11537e-05
-4.32802e-06 -8.09095e-07 8.36855e-06
-3.10413e-06 1.86965e-06 7.36252e-06
-2.20425e-05 -3.60162e-06 1.64852e-05
2.33642e-05 -1.56595e-05 1.78023e-05
-1.50452e-06 2.11308e-05 1.6651e-05
2.12247e-05 -8.43712e-08 1.61959e-05
1.75919e-05 -1.64399e-06 1.55531e-05
1.73179e-05 -4.93319e-06 1.57418e-05
2.18529e-05 -7.43818e-06 1.6882e-05
-2.31406e-05 -1.42289e-05 1.77989e-05
1.7295e-05 1.64606e-06 1.54804e-05
-1.73063e-06 2.84218e-05 1.78601e-05
-4.21469e-07 3.67811e-06 7.48354e-06
2.37293e-05 1.57138e-05 1.78506e-05
-1.74666e-05 1.56145e-05 1.69432e-05
-1.06078e-05 -1.8434e-05 1.62251e-05
-1.00823e-05 -1.43177e-05 1.55433e-05
-7.4949e-06 -1.60673e-05 1.55936e-05
-7.30927e-06 -2.00855e-05 1.6365e-05
-1.06859e-05 1.8503e-05 1.62368e-05
-1.03296e-05 1.43594e-05 1.55909e-05
-7.75896e-06 2.04567e-05 1.64138e-05
-4.2456e-06 1.85775e-05 1.60235e-05
1.0741e-05 1.83136e-05 1.61963e-05
1.38675e-05 1.69053e-05 1.64006e-05
1.40177e-05 1.29504e-05 1.60218e-05
-7.34895e-06 1.62604e-05 1.561e-05
1.05071e-05 1.45221e-05 1.56167e-05
7.73546e-06 1.60647e-05 1.55855e-05
-3.11198e-06 -1.89604e-06 7.38159e-06
-7.24544e-06 -1.24011e-05 1.4599e-05
3.00446e-06 4.03021e-08 6.5908e-06
4.86438e-06 1.35e-05 1.4592e-05
1.40524e-05 -2.25658e-06 1.45444e-05
-1.72595e-05 -1.51898e-05 1.69139e-05
-1.73367e-05 2.41617e-06 1.55694e-05
-1.2184e-05 8.89683e-06 1.49166e-05
-7.69344e-06 -2.2889e-06 1.15352e-05
-1.24285e-05 1.17924e-05 1.55117e-05
-1.42532e-07 -3.74882e-06 7.54233e-06
2.72633e-06 2.26884e-06 7.2406e-06
-2.00049e-06 -1.46257e-05 1.47815e-05
9.3494e-06 -1.00514e-05 1.43638e-05
1.38375e-05 3.1525e-06 1.45401e-05
-7.32779e-06 1.11807e-05 1.4235e-05
4.98886e-06 -1.27534e-05 1.43437e-05
1.10132e-05 1.04129e-05 1.48928e-05
-3.59037e-06 1.46604e-05 1.48812e-05
-4.62753e-06 -1.65884e-05 1.55206e-05
-1.94727e-05 1.28696e-05 1.71292e-05
-2.30855e-05 1.48314e-05 1.78096e-05
-1.28828e-05 -1.26643e-05 1.57836e-05
3.75535e-06 -1.58383e-06 7.89448e-06
1.76189e-06 2.91812e-06 7.0734e-06
-9.21499e-06 -1.05917e-05 1.45059e-05
1.7253e-06 -2.81915e-06 6.92029e-06
9.92877e-07 2.40742e-05 1.7276e-05
2.13301e-05 1.11741e-05 1.72662e-05
-1.46396e-05 -7.93979e-06 1.54572e-05
1.3685e-05 -4.77825e-06 1.46644e-05
-1.90647e-06 -2.17248e-05 1.67715e-05
1.8029e-05 -8.40447e-06 1.63106e-05
-1.66502e-05 -6.31771e-06 1.57536e-05
-4.32315e-07 -1.91973e-06 4.79122e-06
-1.80279e-06 2.99117e-06 7.16598e-06
-2.50069e-05 -1.29586e-05 1.78883e-05
-2.50819e-05 -1.44811e-05 1.79679e-05
-2.50001e-05 1.30104e-05 1.78721e-05
-2.50727e-05 1.46235e-05 1.7948e-05
-1.6461e-06 -3.12039e-06 7.19866e-06
6.31743e-06 1.13495e-05 1.40517e-05
5.32718e-07 -2.40435e-05 1.72698e-05
-5.22071e-07 1.80711e-06 4.638e-06
7.39489e-06 -1.43193e-05 1.51251e-05
2.32612e-05 -1.31858e-05 1.76953e-05
2.35905e-05 -1.0519e-05 1.74579e-05
1.19676e-05 -1.81793e-05 1.62633e-05
1.47048e-05 -1.01292e-05 1.57668e-05
-1.00108e-05 9.9962e-07 1.27327e-05
-1.73767e-06 -8.14804e-07 4.71632e-06
7.67957e-07 3.70302e-06 7.56126e-06
2.33978e-06 -1.99436e-06 6.54514e-06
2.01214e-05 5.88767e-06 1.64232e-05
5.06113e-06 2.05601e-05 1.64655e-05
3.41454e-07 -2.76304e-05 1.78202e-05
-1.7289e-06 7.08161e-07 4.59937e-06
-3.20696e-06 6.22172e-07 6.81354e-06
3.57207e-06 1.47329e-06 7.62463e-06
4.98244e-07 2.82729e-05 1.78933e-05
2.47158e-05 1.37095e-05 1.78845e-05
-2.02924e-05 1.5508e-05 1.73963e-05
1.17712e-06 1.36265e-06 4.45313e-06
-2.06031e-05 -1.57002e-05 1.74946e-05
-1.89662e-05 -2.31823e-06 1.5917e-05
-1.95252e-05 -5.57538e-06 1.63022e-05
9.04401e-07 -3.24315e-06 6.99519e-06
-4.35837e-06 -1.9755e-05 1.62918e-05
-7.92384e-06 1.3811e-05 1.50739e-05
1.16418e-06 -1.30244e-06 4.33275e-06
1.19141e-05 -1.12092e-05 1.52645e-05
6.12202e-06 -2.26563e-05 1.67893e-05
-1.4497e-05 1.43304e-05 1.62936e-05
7.91568e-06 1.32987e-05 1.49212e-05
1.79131e-06 8.57617e-07 -4.54539e-06
1.73553e-06 -8.24031e-07 -4.45409e-06
4.31384e-07 1.8472e-06 -4.48838e-06
4.35525e-07 -1.77831e-06 -4.34956e-06
-1.84507e-06 2.09298e-08 -4.41573e-06
-1.12162e-06 -1.30717e-06 -4.14479e-06
-1.1577e-06 1.30509e-06 -4.1935e-06
-2.24733e-05 -7.27507e-06 -1.69682e-05
-2.21572e-05 7.35879e-06 -1.69369e-05
-4.85166e-06 2.28582e-05 -1.69054e-05
-4.84915e-06 -2.30909e-05 -1.69322e-05
1.73907e-05 1.56078e-05 -1.68982e-05
1.7538e-05 -1.55089e-05 -1.69075e-05
2.10369e-05 3.1585e-06 -1.62943e-05
-1.39289e-05 1.71212e-05 -1.64479e-05
-1.35676e-05 -1.6712e-05 -1.63796e-05
7.75422e-06 1.97851e-05 -1.63011e-05
7.67134e-06 -2.02746e-05 -1.63722e-05
2.14349e-05 -3.43786e-06 -1.63699e-05
-2.10661e-05 6.57055e-09 -1.62167e-05
-2.23804e-05 1.09803e-05 -1.74207e-05
-1.87181e-05 9.23853e-06 -1.65962e-05
-1.79517e-05 5.78546e-06 -1.60068e-05
-1.49583e-05 7.43557e-06 -1.54582e-05
-1.42004e-05 4.30043e-06 -1.4803e-05
-1.15134e-05 5.7343e-06 -1.40697e-05
-1.08402e-05 3.06368e-06 -1.33501e-05
-8.38694e-06 4.29793e-06 -1.2383e-05
-9.04388e-06 7.00186e-06 -1.34327e-05
-6.19425e-06 5.47979e-06 -1.16691e-05
-6.81714e-06 8.23597e-06 -1.30571e-05
-4.27463e-06 6.66437e-06 -1.14311e-05
-4.79217e-06 9.59423e-06 -1.30711e-05
-2.39706e-06 7.98064e-06 -1.1703e-05
-2.80823e-06 1.11488e-05 -1.34512e-05
-4.74645e-07 9.57979e-06 -1.24794e-05
-7.37127e-07 1.29752e-05 -1.41166e-05
1.72823e-06 1.14988e-05 -1.35112e-05
-5.52542e-06 1.26791e-05 -1.44111e-05
1.6824e-06 8.2109e-06 -1.17276e-05
3.99763e-06 1.01043e-05 -1.3128e-05
3.6995e-06 7.08674e-06 -1.14588e-05
6.05749e-06 8.95202e-06 -1.30905e-05
5.75766e-06 6.09709e-06 -1.17156e-05
8.34431e-06 8.00712e-06 -1.34683e-05
8.09257e-06 5.18688e-06 -1.24788e-05
1.09357e-05 7.08521e-06 -1.41218e-05
1.07283e-05 4.31567e-06 -1.34753e-05
8.51622e-06 1.1019e-05 -1.44349e-05
7.92509e-06 2.63954e-06 -1.17075e-05
1.06286e-05 1.73436e-06 -1.30812e-05
7.93614e-06 3.58193e-07 -1.14362e-05
1.07888e-05 -7.57866e-07 -1.31012e-05
8.09877e-06 -1.93472e-06 -1.16892e-05
1.108e-05 -3.30738e-06 -1.34602e-05
8.45608e-06 -4.41684e-06 -1.24226e-05
1.14845e-05 -5.99287e-06 -1.40843e-05
8.94084e-06 -7.12637e-06 -1.34045e-05
6.13778e-06 -5.48571e-06 -1.16215e-05
6.63366e-06 -8.28733e-06 -1.29956e-05
4.09875e-06 -6.57815e-06 -1.12919e-05
4.51599e-06 -9.53531e-06 -1.29657e-05
2.23874e-06 -7.84584e-06 -1.15777e-05
2.48076e-06 -1.09838e-05 -1.33276e-05
2.24927e-07 -9.35859e-06 -1.23323e-05
3.29463e-07 -1.27485e-05 -1.40089e-05
-1.9123e-06 -1.11324e-05 -1.33536e-05
-1.83816e-06 -7.90907e-06 -1.15626e-05
-4.1611e-06 -9.85873e-06 -1.30622e-05
-3.80794e-06 -6.71991e-06 -1.1298e-05
-6.33526e-06 -8.64788e-06 -1.30765e-05
-5.88195e-06 -5.68898e-06 -1.16087e-05
-8.48575e-06 -7.42359e-06 -1.33562e-05
-8.15438e-06 -4.72044e-06 -1.23873e-05
-1.10772e-05 -6.3921e-06 -1.40449e-05
-4.36434e-06 -1.31012e-05 -1.44079e-05
-1.07911e-05 -3.64467e-06 -1.34156e-05
7.21406e-06 -1.13538e-05 -1.42476e-05
-7.72947e-06 1.97955e-06 -1.14735e-05
-1.31941e-05 1.03333e-06 -1.41857e-05
1.72619e-06 1.50573e-05 -1.49253e-05
1.3745e-05 4.61465e-07 -1.43621e-05
1.38198e-05 6.08978e-06 -1.49048e-05
-9.67778e-06 1.01792e-05 -1.45065e-05
-5.40769e-06 -3.19275e-06 -1.01654e-05
-1.16938e-05 -9.28162e-06 -1.48624e-05
1.18623e-05 -8.74543e-06 -1.47606e-05
1.47565e-05 -7.46084e-06 -1.53754e-05
-1.39361e-05 -5.23503e-06 -1.48349e-05
2.79111e-06 -1.44917e-05 -1.47696e-05
4.23833e-07 -1.64712e-05 -1.53698e-05
3.51312e-06 4.39029e-06 -9.56553e-06
1.39866e-05 9.28316e-06 -1.54634e-05
1.78997e-05 8.13086e-06 -1.62705e-05
-1.56483e-05 1.13756e-05 -1.62036e-05
-1.09222e-06 1.67404e-05 -1.54671e-05
1.90351e-06 1.95876e-05 -1.62809e-05
-2.0887e-06 5.21219e-06 -9.582e-06
5.54556e-06 -7.83418e-07 -9.57857e-06
3.5806e-06 -3.67806e-06 -9.06736e-06
-1.77696e-06 -5.17077e-06 -9.43429e-06
-2.24288e-05 -1.09914e-05 -1.74414e-05
-1.87653e-05 -9.22531e-06 -1.66202e-05
2.11103e-05 1.41395e-05 -1.74726e-05
2.0717e-05 -1.4292e-05 -1.74028e-05
-1.76131e-06 -2.54013e-05 -1.74779e-05
-1.679e-06 2.53654e-05 -1.74826e-05
1.76821e-05 -1.1886e-05 -1.66562e-05
2.06093e-05 -1.07322e-05 -1.7084e-05
3.76906e-06 -1.89523e-05 -1.61097e-05
7.67165e-07 -2.03104e-05 -1.64524e-05
-1.93709e-05 -1.26281e-05 -1.71111e-05
-1.37081e-05 -2.30305e-06 -1.44461e-05
-1.65644e-05 -3.69512e-06 -1.54494e-05
-1.03589e-05 -1.0946e-06 -1.29297e-05
2.44082e-05 1.10533e-05 -1.76183e-05
2.54516e-05 -1.23812e-05 -1.78143e-05
2.64419e-06 2.66782e-05 -1.76271e-05
2.5162e-06 -2.63665e-05 -1.75961e-05
3.33341e-06 -2.29914e-05 -1.69973e-05
-2.05034e-06 -1.82883e-05 -1.59217e-05
4.05163e-06 2.37494e-05 -1.70983e-05
2.25741e-05 8.3647e-06 -1.70872e-05
4.60565e-06 1.72836e-05 -1.56986e-05
1.44021e-05 -1.30967e-05 -1.61077e-05
-1.57603e-05 -1.09657e-05 -1.61847e-05
-1.67711e-05 -3.80786e-07 -1.53495e-05
1.72762e-05 4.67945e-06 -1.5697e-05
6.5421e-08 -6.37748e-06 -1.02505e-05
1.73911e-06 -4.8412e-06 -9.07784e-06
5.84144e-06 -2.93098e-06 -1.03611e-05
-2.14068e-05 3.74409e-06 -1.64284e-05
5.71955e-06 -1.62466e-05 -1.54795e-05
9.06776e-06 -1.74688e-05 -1.59682e-05
1.75414e-05 1.18609e-05 -1.66413e-05
1.39699e-05 -1.63536e-05 -1.63709e-05
1.07216e-05 -1.37654e-05 -1.55218e-05
-3.5426e-06 -4.21381e-06 -9.48535e-06
5.39097e-06 1.13678e-06 -9.48364e-06
5.21007e-06 3.21794e-06 -1.00308e-05
-1.74638e-06 -2.83035e-05 -1.78429e-05
1.88919e-06 5.29086e-06 -9.56886e-06
-1.13651e-07 6.09566e-06 -1.00223e-05
-3.77918e-06 4.12149e-06 -9.56284e-06
-5.61402e-06 3.02951e-06 -1.02683e-05
-5.1577e-06 1.0391e-06 -9.19872e-06
-7.51543e-06 -6.16398e-08 -1.11537e-05
-4.32802e-06 -8.09095e-07 -8.36855e-06
-3.10413e-06 1.86965e-06 -7.36252e-06
-2.20425e-05 -3.60162e-06 -1.64852e-05
2.33642e-05 -1.56595e-05 -1.78023e-05
-1.50452e-06 2.11308e-05 -1.6651e-05
2.12247e-05 -8.43712e-08 -1.61959e-05
1.75919e-05 -1.64399e-06 -1.55531e-05
1.73179e-05 -4.93319e-06 -1.57418e-05
2.18529e-05 -7.43818e-06 -1.6882e-05
-2.31406e-05 -1.42289e-05 -1.77989e-05
1.7295e-05 1.64606e-06 -1.54804e-05
-1.73063e-06 2.84218e-05 -1.78601e-05
-4.21469e-07 3.67811e-06 -7.48354e-06
2.37293e-05 1.57138e-05 -1.78506e-05
-1.74666e-05 1.56145e-05 -1.69432e-05
-1.06078e-05 -1.8434e-05 -1.62251e-05
-1.00823e-05 -1.43177e-05 -1.55433e-05
-7.4949e-06 -1.60673e-05 -1.55936e-05
-7.30927e-06 -2.00855e-05 -1.6365e-05
-1.06859e-05 1.8503e-05 -1.62368e-05
-1.03296e-05 1.43594e-05 -1.55909e-05
-7.75896e-06 2.04567e-05 -1.64138e-05
-4.2456e-06 1.85775e-05 -1.60235e-05
1.0741e-05 1.83136e-05 -1.61963e-05
1.38675e-05 1.69053e-05 -1.64006e-05
1.40177e-05 1.29504e-05 -1.60218e-05
-7.34895e-06 1.62604e-05 -1.561e-05
1.05071e-05 1.45221e-05 -1.56167e-05
7.73546e-06 1.60647e-05 -1.55855e-05
-3.11198e-06 -1.89604e-06 -7.38159e-06
-7.24544e-06 -1.24011e-05 -1.4599e-05
3.00446e-06 4.03021e-08 -6.5908e-06
4.86438e-06 1.35e-05 -1.4592e-05
1.40524e-05 -2.25658e-06 -1.45444e-05
-1.72595e-05 -1.51898e-05 -1.69139e-05
-1.73367e-05 2.41617e-06 -1.55694e-05
-1.2184e-05 8.89683e-06 -1.49166e-05
-7.69344e-06 -2.2889e-06 -1.15352e-05
-1.24285e-05 1.17924e-05 -1.55117e-05
-1.42532e-07 -3.74882e-06 -7.54233e-06
2.72633e-06 2.26884e-06 -7.2406e-06
-2.00049e-06 -1.46257e-05 -1.47815e-05
9.3494e-06 -1.00514e-05 -1.43638e-05
1.38375e-05 3.1525e-06 -1.45401e-05
-7.32779e-06 1.11807e-05 -1.4235e-05
4.98886e-06 -1.27534e-05 -1.43437e-05
1.10132e-05 1.04129e-05 -1.48928e-05
-3.59037e-06 1.46604e-05 -1.48812e-05
-4.62753e-06 -1.65884e-05 -1.55206e-05
-1.94727e-05 1.28696e-05 -1.71292e-05
-2.30855e-05 1.48314e-05 -1.78096e-05
-1.28828e-05 -1.26643e-05 -1.57836e-05
3.75535e-06 -1.58383e-06 -7.89448e-06
1.76189e-06 2.91812e-06 -7.0734e-06
-9.21499e-06 -1.05917e-05 -1.45059e-05
1.7253e-06 -2.81915e-06 -6.92029e-06
9.92877e-07 2.40742e-05 -1.7276e-05
2.13301e-05 1.11741e-05 -1.72662e-05
-1.46396e-05 -7.93979e-06 -1.54572e-05
1.3685e-05 -4.77825e-06 -1.46644e-05
-1.90647e-06 -2.17248e-05 -1.67715e-05
1.8029e-05 -8.40447e-06 -1.63106e-05
-1.66502e-05 -6.31771e-06 -1.57536e-05
-4.32315e-07 -1.91973e-06 -4.79122e-06
-1.80279e-06 2.99117e-06 -7.16598e-06
-2.50069e-05 -1.29586e-05 -1.78883e-05
-2.50819e-05 -1.44811e-05 -1.79679e-05
-2.50001e-05 1.30104e-05 -1.78721e-05
-2.50727e-05 1.46235e-05 -1.7948e-05
-1.6461e-06 -3.12039e-06 -7.19866e-06
6.31743e-06 1.13495e-05 -1.40517e-05
5.32718e-07 -2.40435e-05 -1.72698e-05
-5.22071e-07 1.80711e-06 -4.638e-06
7.39489e-06 -1.43193e-05 -1.51251e-05
2.32612e-05 -1.31858e-05 -1.76953e-05
2.35905e-05 -1.0519e-05 -1.74579e-05
1.19676e-05 -1.81793e-05 -1.62633e-05
1.47048e-05 -1.01292e-05 -1.57668e-05
-1.00108e-05 9.9962e-07 -1.27327e-05
-1.73767e-06 -8.14804e-07 -4.71632e-06
7.67957e-07 3.70302e-06 -7.56126e-06
2.33978e-06 -1.99436e-06 -6.54514e-06
2.01214e-05 5.88767e-06 -1.64232e-05
5.06113e-06 2.05601e-05 -1.64655e-05
3.41454e-07 -2.76304e-05 -1.78202e-05
-1.7289e-06 7.08161e-07 -4.59937e-06
-3.20696e-06 6.22172e-07 -6.81354e-06
3.57207e-06 1.47329e-06 -7.62463e-06
4.98244e-07 2.82729e-05 -1.78933e-05
2.47158e-05 1.37095e-05 -1.78845e-05
-2.02924e-05 1.5508e-05 -1.73963e-05
1.17712e-06 1.36265e-06 -4.45313e-06
-2.06031e-05 -1.57002e-05 -1.74946e-05
-1.89662e-05 -2.31823e-06 -1.5917e-05
-1.95252e-05 -5.57538e-06 -1.63022e-05
9.04401e-07 -3.24315e-06 -6.99519e-06
-4.35837e-06 -1.9755e-05 -1.62918e-05
-7.92384e-06 1.3811e-05 -1.50739e-05
1.16418e-06 -1.30244e-06 -4.33275e-06
1.19141e-05 -1.12092e-05 -1.52645e-05
6.12202e-06 -2.26563e-05 -1.67893e-05
-1.4497e-05 1.43304e-05 -1.62936e-05
7.91568e-06 1.32987e-05 -1.49212e-05
SCALARS effective_fluid_pressure_TPM float
LOOKUP_TABLE default
663.81
663.81
663.81
663.81
663.81
663.81
663.81
663.81
663.81
663.81
663.81
663.81
663.81
663.81
133
663.81
663.81
663.81
663.81
663.81
663.81
663.81
663.81
663.81
663.81
663.81
663.81
663.81
663.81
133
663.81
559.352
519.781
501.961
501.732
518.91
558.973
663.81
561.015
519.876
502.402
502.512
519.808
560.637
663.81
558.64
518.781
501.905
502.123
520.276
560.653
663.81
557.898
518.126
500.696
501.391
517.976
558.485
663.81
557.539
519.064
501.028
500.96
518.498
556.979
663.81
557.695
519.078
501.2
501.062
518.487
558.699
133
133
133
133
133
133
663.81
559.352
519.781
501.961
501.732
518.91
558.973
663.81
561.015
519.876
502.402
502.512
519.808
560.637
663.81
558.64
518.781
501.905
502.123
520.276
560.653
663.81
557.898
518.126
500.696
501.391
517.976
558.485
663.81
557.539
519.064
501.028
500.96
518.498
556.979
663.81
557.695
519.078
501.2
501.062
518.487
558.699
133
133
133
133
133
133
228.033
226.108
226.819
223.895
225.307
219.642
220.656
528.264
527.275
525.658
527.034
525.685
526.736
497.866
502.702
500.744
498.106
500.617
500.399
493.495
561.53
518.1
494.198
479.937
460.599
442.559
424.367
401.492
426.587
384.676
417.076
379.036
417.239
385.359
426.703
403.665
443.66
428.389
449.523
385.967
418.636
379.629
417.649
385.598
427.075
403.594
443.77
427.475
450.118
385.443
417.501
379.047
417.857
384.967
426.912
402.29
442.835
425.77
383.464
415.479
375.738
414.688
382.439
423.741
400.221
440.988
424.547
382.176
417.115
376.002
417.432
383.259
424.587
401.585
441.959
449.913
426.043
445.281
380.153
443.95
464.52
448.008
463.994
452.668
350.396
462.739
460.276
477.645
462.008
459.883
477.55
336.801
480.016
504.994
502.758
480.082
505.299
337.213
337.025
325.715
333.946
562.404
518.774
566.596
561.392
566.912
566.766
520.918
541.785
497.781
512.86
541.131
450.714
476.773
414.001
578.511
609.953
578.663
575.032
533.636
493.64
537.302
536.999
484.217
497.268
502.475
472.345
484.265
352.236
325.964
354.66
502.584
476.912
487.531
519.989
501.169
477.109
335.069
334.932
347.2
612.365
336.902
347.071
336.789
352.691
328.732
372.697
310.245
288.423
503.847
607.311
520.21
492.881
477.52
485.531
525.591
599.288
475.761
614.814
291.026
614.712
527.815
493.691
477.428
478.599
500.458
493.996
478.626
501.651
494.331
492.903
501.403
494.404
479.072
479.237
478.241
288.928
453.836
271.616
454.243
452.874
526.1
478.662
464.444
381.52
479.696
292.296
285.723
460.708
448.888
453.222
445.118
447.946
462.828
462.486
479.141
542.523
600.646
486.665
299.91
282.111
452.261
278.82
551.286
551.046
479.962
457.254
525.324
507.315
487.76
233.492
284.203
613.423
635.193
614.056
635.548
284.923
440.613
552.125
230.256
466.766
589.231
565.05
494.968
489.216
409.388
231.886
292.721
270.802
507.023
508.318
606.745
229.435
276.639
294.053
617.786
617.699
557.547
226.302
561.551
487.482
502.533
280.5
503.202
465.596
223.793
472.787
518.683
502.119
461.671
228.033
226.108
226.819
223.895
225.307
219.642
220.656
528.264
527.275
525.658
527.034
525.685
526.736
497.866
502.702
500.744
498.106
500.617
500.399
493.495
561.53
518.1
494.198
479.937
460.599
442.559
424.367
401.492
426.587
384.676
417.076
379.036
417.239
385.359
426.703
403.665
443.66
428.389
449.523
385.967
418.636
379.629
417.649
385.598
427.075
403.594
443.77
427.475
450.118
385.443
417.501
379.047
417.857
384.967
426.912
402.29
442.835
425.77
383.464
415.479
375.738
414.688
382.439
423.741
400.221
440.988
424.547
382.176
417.115
376.002
417.432
383.259
424.587
401.585
441.959
449.913
426.043
445.281
380.153
443.95
464.52
448.008
463.994
452.668
350.396
462.739
460.276
477.645
462.008
459.883
477.55
336.801
480.016
504.994
502.758
480.082
505.299
337.213
337.025
325.715
333.946
562.404
518.774
566.596
561.392
566.912
566.766
520.918
541.785
497.781
512.86
541.131
450.714
476.773
414.001
578.511
609.953
578.663
575.032
533.636
493.64
537.302
536.999
484.217
497.268
502.475
472.345
484.265
352.236
325.964
354.66
502.584
476.912
487.531
519.989
501.169
477.109
335.069
334.932
347.2
612.365
336.902
347.071
336.789
352.691
328.732
372.697
310.245
288.423
503.847
607.311
520.21
492.881
477.52
485.531
525.591
599.288
475.761
614.814
291.026
614.712
527.815
493.691
477.428
478.599
500.458
493.996
478.626
501.651
494.331
492.903
501.403
494.404
479.072
479.237
478.241
288.928
453.836
271.616
454.243
452.874
526.1
478.662
464.444
381.52
479.696
292.296
285.723
460.708
448.888
453.222
445.118
447.946
462.828
462.486
479.141
542.523
600.646
486.665
299.91
282.111
452.261
278.82
551.286
551.046
479.962
457.254
525.324
507.315
487.76
233.492
284.203
613.423
635.193
614.056
635.548
284.923
440.613
552.125
230.256
466.766
589.231
565.05
494.968
489.216
409.388
231.886
292.721
270.802
507.023
508.318
606.745
229.435
276.639
294.053
617.786
617.699
557.547
226.302
561.551
487.482
502.533
280.5
503.202
465.596
223.793
472.787
518.683
502.119
461.671

CELL_DATA 563
TENSORS stress float
164.292 -24.896 2.29268e-12
-24.896 28.0233 5.46526e-12
2.29268e-12 5.46526e-12 -12.7018

-40.2442 -21.2708 -2.72952e-12
-21.2708 -7.33707 -1.19874e-12
-2.72952e-12 -1.19874e-12 -10.2104

-9.91803 27.9784 1.62063e-12
27.9784 -1.10861 -2.18581e-12
1.62063e-12 -2.18581e-12 -6.35165

-40.3324 -29.7726 -7.84113e-13
-29.7726 -12.8153 -2.24487e-12
-7.84113e-13 -2.24487e-12 -10.5762

-22.6378 19.8853 1.17299e-12
19.8853 -1.91878 -7.15132e-12
1.17299e-12 -7.15132e-12 -22.9675

-27.0775 -18.0328 -9.98313e-13
-18.0328 15.8501 7.67978e-13
-9.98313e-13 7.67978e-13 -6.40245

160.948 26.4575 1.01844e-12
26.4575 27.901 -3.06718e-13
1.01844e-12 -3.06718e-13 -13.3592

-5.94812 29.8881 -4.4101e-12
29.8881 -10.0886 -1.95399e-12
-4.4101e-12 -1.95399e-12 -7.26368

34.5503 5.47046 -5.7554e-13
5.47046 -19.0528 -1.55635e-12
-5.7554e-13 -1.55635e-12 -4.12314

11.8325 -7.46002 -6.2587e-13
-7.46002 -48.1742 1.08447e-12
-6.2587e-13 1.08447e-12 -8.92911

103.954 16.2763 3.67824e-12
16.2763 -8.49235 2.52598e-12
3.67824e-12 2.52598e-12 -22.5064

-34.5569 -13.4221 1.23146e-12
-13.4221 18.9212 7.32451e-13
1.23146e-12 7.32451e-13 -7.1682

-6.01247 27.7686 3.48048e-12
27.7686 -4.58071 -4.11404e-12
3.48048e-12 -4.11404e-12 -6.14977

-35.4691 -14.3068 5.71219e-13
-14.3068 7.82673 -6.63765e-13
5.71219e-13 -6.63765e-13 -9.11323

-23.5988 33.233 -5.84125e-13
33.233 -24.9363 -2.00912e-12
-5.84125e-13 -2.00912e-12 -21.317

21.2613 0.559689 2.66986e-12
0.559689 -32.2637 -4.1676e-12
2.66986e-12 -4.1676e-12 -5.58177

-48.8457 -17.9268 6.31032e-13
-17.9268 6.32744 2.00255e-12
6.31032e-13 2.00255e-12 -12.9188

11.6327 -2.65889 -3.91391e-13
-2.65889 -43.1488 2.7837e-13
-3.91391e-13 2.7837e-13 -8.01885

-11.3271 26.6128 -3.3209e-12
26.6128 19.4693 2.86704e-12
-3.3209e-12 2.86704e-12 -6.08825

21.7136 -4.18587 1.10726e-13
-4.18587 -35.2143 -1.56756e-12
1.10726e-13 -1.56756e-12 -6.73257

-24.4237 8.64903 -3.67928e-12
8.64903 32.0523 -1.94333e-12
-3.67928e-12 -1.94333e-12 -4.93129

-11.7815 6.27186 1.83742e-12
6.27186 -11.9427 -5.59449e-12
1.83742e-12 -5.59449e-12 -75.4405

22.689 1.87164 -2.13696e-12
1.87164 -33.3932 -3.23253e-12
-2.13696e-12 -3.23253e-12 -6.66948

-12.3608 -27.6511 -2.93365e-12
-27.6511 1.59451 -1.87939e-12
-2.93365e-12 -1.87939e-12 -6.59462

21.2535 6.83346 -3.23297e-13
6.83346 -34.2262 3.89096e-12
-3.23297e-13 3.89096e-12 -6.79779

-37.8178 19.0684 -5.18134e-12
19.0684 2.64715 4.08621e-12
-5.18134e-12 4.08621e-12 -9.43955

106.368 4.17301 1.9161e-12
4.17301 20.5194 3.88578e-12
1.9161e-12 3.88578e-12 -12.1068

-5.29098 30.6745 2.76993e-12
30.6745 -7.25682 2.30097e-12
2.76993e-12 2.30097e-12 -7.4308

27.8171 36.9954 1.67451e-12
36.9954 26.3982 -4.70853e-12
1.67451e-12 -4.70853e-12 -8.6496

-9.41749 10.2998 2.65003e-12
10.2998 -32.8533 -5.81853e-12
2.65003e-12 -5.81853e-12 -49.3931

19.7846 14.1836 -1.83498e-12
14.1836 -29.2912 7.14984e-14
-1.83498e-12 7.14984e-14 -5.99177

-4.21522 -17.7423 3.51659e-12
-17.7423 59.5166 7.08174e-13
3.51659e-12 7.08174e-13 -8.49379

66.1177 -42.0289 1.89241e-12
-42.0289 70.9656 1.71004e-12
1.89241e-12 1.71004e-12 -11.3149

-48.0982 5.97237 1.85678e-12
5.97237 7.25155 -4.13684e-12
1.85678e-12 -4.13684e-12 -40.9427

-26.2294 -4.82854 1.69228e-12
-4.82854 1.75343 7.29194e-13
1.69228e-12 7.29194e-13 -37.7132

-1.46472 20.9789 -6.71907e-12
20.9789 -39.4147 1.16988e-12
-6.71907e-12 1.16988e-12 -41.0084

-43.8739 5.05544 -1.38127e-12
5.05544 0.512643 2.20564e-13
-1.38127e-12 2.20564e-13 -52.0693

-2.75341 -9.14926 4.0273e-12
-9.14926 -20.7202 -1.1777e-12
4.0273e-12 -1.1777e-12 -35.8121

-3.96553 -27.9332 -2.50289e-12
-27.9332 -4.59976 -4.34023e-13
-2.50289e-12 -4.34023e-13 -5.98569

65.4322 41.449 -4.52379e-12
41.449 72.9895 -8.88178e-12
-4.52379e-12 -8.88178e-12 -11.0275

60.0133 -17.9112 9.71075e-13
-17.9112 0.103051 1.51523e-12
9.71075e-13 1.51523e-12 -8.06983

-41.7067 -3.69719 3.25961e-13
-3.69719 -1.18326 1.11067e-12
3.25961e-13 1.11067e-12 -52.6028

-14.5601 19.5099 1.014e-13
19.5099 -28.4857 -9.76996e-14
1.014e-13 -9.76996e-14 -52.7108

18.099 -12.2445 2.13755e-12
-12.2445 -29.8299 1.38408e-13
2.13755e-12 1.38408e-13 -6.21337

38.0673 -43.2148 6.58318e-12
-43.2148 41.6874 1.70886e-12
6.58318e-12 1.70886e-12 -14.5922

58.0063 -18.0255 2.73085e-12
-18.0255 -2.30976 1.15049e-12
2.73085e-12 1.15049e-12 -7.93096

-21.3954 17.0466 -1.01785e-12
17.0466 30.255 -2.74862e-12
-1.01785e-12 -2.74862e-12 -5.72685

-11.3477 19.2949 3.95832e-13
19.2949 25.451 -5.23966e-12
3.95832e-13 -5.23966e-12 -3.92222

20.7414 -16.263 1.62892e-12
-16.263 -33.039 9.88395e-13
1.62892e-12 9.88395e-13 -7.30129

12.5705 -34.1139 -1.1949e-12
-34.1139 46.3202 -3.38692e-12
-1.1949e-12 -3.38692e-12 -10.4179

62.2127 19.1417 -3.86772e-12
19.1417 2.78859 -1.48918e-12
-3.86772e-12 -1.48918e-12 -8.43621

46.4046 -25.2323 -9.2489e-13
-25.2323 5.11411 7.40149e-13
-9.2489e-13 7.40149e-13 -5.62466

-31.8225 19.4395 2.32273e-12
19.4395 -4.27469 1.36691e-12
2.32273e-12 1.36691e-12 -26.0254

36.9495 29.5847 1.37253e-12
29.5847 14.4736 -4.69313e-12
1.37253e-12 -4.69313e-12 -5.44724

-27.3848 -21.7624 -3.21787e-12
-21.7624 -8.21056 -2.51317e-12
-3.21787e-12 -2.51317e-12 -25.1898

64.7195 -42.6315 9.18969e-13
-42.6315 43.9639 3.65811e-12
9.18969e-13 3.65811e-12 -9.54533

-27.6844 5.44608 -4.0643e-12
5.44608 2.66386 -2.134e-12
-4.0643e-12 -2.134e-12 -38.2176

-5.55334 -5.31913 8.19197e-13
-5.31913 57.2547 -6.34633e-12
8.19197e-13 -6.34633e-12 -5.46428

-0.19975 10.3605 -2.56684e-13
10.3605 -24.7888 -2.41071e-12
-2.56684e-13 -2.41071e-12 -38.279

-26.4252 21.3636 1.34707e-12
21.3636 12.1896 -4.27155e-12
1.34707e-12 -4.27155e-12 -6.86064

4.71468 5.74124 2.82589e-13
5.74124 -55.9094 1.52086e-12
2.82589e-13 1.52086e-12 -13.951

0.539719 11.4323 2.49874e-13
11.4323 -33.977 -2.57157e-12
2.49874e-13 -2.57157e-12 -14.8062

106.124 31.7691 4.26089e-12
31.7691 37.7271 3.45679e-12
4.26089e-12 3.45679e-12 -7.5474

-35.4086 -6.02143 7.04251e-12
-6.02143 10.5772 2.3288e-12
7.04251e-12 2.3288e-12 -13.4488

-35.2772 9.4979 2.91811e-12
9.4979 1.23179 -5.4022e-12
2.91811e-12 -5.4022e-12 -14.9262

-42.4887 -2.87443 -3.4008e-12
-2.87443 21.0609 3.3212e-12
-3.4008e-12 3.3212e-12 -11.2162

-44.804 23.3468 2.98495e-12
23.3468 -5.87872 -1.86547e-12
2.98495e-12 -1.86547e-12 -13.892

9.9473 8.44387 -1.5475e-12
8.44387 -42.2799 1.80078e-12
-1.5475e-12 1.80078e-12 -9.06058

-12.3075 -28.1739 4.93886e-12
-28.1739 1.68192 1.58569e-12
4.93886e-12 1.58569e-12 -6.66585

1.30639 -1.70745 1.34159e-12
-1.70745 -55.3269 1.51753e-12
1.34159e-12 1.51753e-12 -11.2802

-31.812 -19.216 -3.72709e-12
-19.216 -4.58336 4.58715e-12
-3.72709e-12 4.58715e-12 -25.8951

-27.9091 21.2586 1.61352e-13
21.2586 -8.34002 -4.97398e-13
1.61352e-13 -4.97398e-13 -25.9533

-0.664412 -16.5476 -2.57631e-12
-16.5476 61.5292 7.99361e-13
-2.57631e-12 7.99361e-13 -7.96888

-0.648901 -27.8708 2.32051e-12
-27.8708 -21.3118 2.64796e-12
2.32051e-12 2.64796e-12 -12.7642

-14.0609 -25.0764 5.42973e-13
-25.0764 7.38946 5.19229e-12
5.42973e-13 5.19229e-12 -5.22947

91.4657 -31.6542 3.60956e-12
-31.6542 19.3991 6.13731e-12
3.60956e-12 6.13731e-12 -16.3868

-33.6276 3.21533 -4.28317e-12
3.21533 9.17862 -1.93504e-12
-4.28317e-12 -1.93504e-12 -18.5214

2.74478 28.8763 4.36155e-12
28.8763 -24.3679 -1.95133e-12
4.36155e-12 -1.95133e-12 -11.2936

-38.3446 19.6184 -2.12393e-12
19.6184 5.2168 -6.01889e-13
-2.12393e-12 -6.01889e-13 -9.21763

50.0713 7.98174 3.58706e-12
7.98174 -16.9341 -1.34707e-12
3.58706e-12 -1.34707e-12 -7.07494

59.89 -33.8689 -2.47387e-12
-33.8689 33.7005 -2.32111e-13
-2.47387e-12 -2.32111e-13 -7.01779

-18.9163 -10.5629 -1.37164e-12
-10.5629 -0.538191 -4.51787e-13
-1.37164e-12 -4.51787e-13 -25.3711

-33.8463 23.8444 1.74616e-12
23.8444 -11.9958 -1.96223e-12
1.74616e-12 -1.96223e-12 -14.5083

58.0158 -32.3181 2.78414e-12
-32.3181 18.0324 1.28135e-12
2.78414e-12 1.28135e-12 -10.1621

66.7077 10.7677 -4.00272e-13
10.7677 8.48212 -4.5756e-12
-4.00272e-13 -4.5756e-12 -5.10932

7.62643 -21.1651 6.19356e-13
-21.1651 88.2633 -6.15804e-12
6.19356e-13 -6.15804e-12 -11.9019

-33.9082 14.3922 -8.41179e-13
14.3922 20.1899 5.39657e-12
-8.41179e-13 5.39657e-12 -7.53518

8.45525 23.0892 3.60008e-12
23.0892 -26.0132 -1.27868e-12
3.60008e-12 -1.27868e-12 -11.2761

34.7691 42.1167 7.14095e-12
42.1167 46.0783 -8.66862e-13
7.14095e-12 -8.66862e-13 -14.4539

-4.38554 16.4688 1.68189e-11
16.4688 -35.4586 -3.46064e-12
1.68189e-11 -3.46064e-12 -73.1147

-5.97441 -4.1002 -3.42126e-12
-4.1002 57.8139 3.25073e-12
-3.42126e-12 3.25073e-12 -5.45641

-1.81614 -16.5939 -1.37871e-11
-16.5939 -39.3098 -3.99162e-12
-1.37871e-11 -3.99162e-12 -73.9362

-3.32237 -27.2711 2.43953e-12
-27.2711 -29.9598 -1.4165e-12
2.43953e-12 -1.4165e-12 -21.5055

8.94527 27.3603 4.36332e-12
27.3603 -29.9258 3.22142e-12
4.36332e-12 3.22142e-12 -11.235

45.6036 -24.3566 2.45137e-13
-24.3566 5.0055 3.85292e-12
2.45137e-13 3.85292e-12 -5.25043

10.0579 31.257 -8.05282e-13
31.257 47.0475 -6.68858e-12
-8.05282e-13 -6.68858e-12 -9.65936

14.2233 -10.6848 -8.41401e-13
-10.6848 82.6556 5.69145e-12
-8.41401e-13 5.69145e-12 -6.48186

-38.5424 21.9195 -5.05225e-13
21.9195 2.93468 5.61033e-13
-5.05225e-13 5.61033e-13 -8.55184

1.19056 16.7552 -8.50579e-13
16.7552 -25.6623 3.47278e-13
-8.50579e-13 3.47278e-13 -18.5255

-26.4762 15.119 -2.47136e-12
15.119 18.4063 4.91459e-13
-2.47136e-12 4.91459e-13 -5.69983

43.5573 15.9174 1.70175e-12
15.9174 -7.27292 -1.12887e-12
1.70175e-12 -1.12887e-12 -4.08338

12.5402 -21.4279 -1.60464e-12
-21.4279 57.8223 1.72188e-12
-1.60464e-12 1.72188e-12 -4.73649

65.8428 -29.3312 -3.63324e-12
-29.3312 18.5823 -1.97886e-12
-3.63324e-12 -1.97886e-12 -9.36693

-32.3057 -24.5159 -5.17379e-12
-24.5159 -7.26508 3.81473e-12
-5.17379e-12 3.81473e-12 -8.95885

-22.6147 27.3871 1.06285e-12
27.3871 -10.3268 -3.62702e-12
1.06285e-12 -3.62702e-12 -9.26606

-38.2613 23.1335 -1.8936e-12
23.1335 1.98648 9.90911e-13
-1.8936e-12 9.90911e-13 -8.50791

-51.4336 13.1381 -1.30555e-12
13.1381 11.8978 -4.74287e-12
-1.30555e-12 -4.74287e-12 -16.4308

23.43 9.35028 -2.09018e-13
9.35028 -29.4197 1.62241e-13
-2.09018e-13 1.62241e-13 -5.31449

3.73887 -4.65702 2.7495e-12
-4.65702 79.2563 1.12739e-12
2.7495e-12 1.12739e-12 -9.56214

-44.8346 -36.7466 -5.41552e-12
-36.7466 -19.7832 -1.97094e-12
-5.41552e-12 -1.97094e-12 -14.7393

-16.0439 27.4016 -4.03322e-12
27.4016 1.33645 -4.24253e-12
-4.03322e-12 -4.24253e-12 -6.90552

-5.03451 2.16739 1.15237e-11
2.16739 82.4806 5.2367e-12
1.15237e-11 5.2367e-12 -13.4627

68.8851 34.5409 -4.23957e-13
34.5409 15.4374 1.62892e-12
-4.23957e-13 1.62892e-12 -10.7386

-31.2792 -22.9205 2.66394e-12
-22.9205 -4.62208 5.37052e-13
2.66394e-12 5.37052e-13 -8.51374

11.7156 5.71944 5.00933e-13
5.71944 -48.223 -2.95882e-12
5.00933e-13 -2.95882e-12 -8.62421

42.9648 27.144 -1.57385e-12
27.144 10.4209 -5.04308e-12
-1.57385e-12 -5.04308e-12 -5.09617

-9.39098 12.7157 3.63398e-12
12.7157 -14.0064 -4.62149e-13
3.63398e-12 -4.62149e-13 -36.9529

70.1741 24.2811 6.49673e-12
24.2811 23.7367 5.5825e-12
6.49673e-12 5.5825e-12 -6.83382

-10.5595 -13.0245 -1.8329e-12
-13.0245 -13.8887 7.09951e-13
-1.8329e-12 7.09951e-13 -37.29

-4.3774 0.777828 1.16988e-12
0.777828 59.2613 -4.38879e-12
1.16988e-12 -4.38879e-12 -4.84648

38.266 -2.22989 1.51701e-12
-2.22989 -23.7603 -2.6242e-13
1.51701e-12 -2.6242e-13 -5.83333

3.58442 -15.731 2.3781e-12
-15.731 -53.8451 8.57684e-13
2.3781e-12 8.57684e-13 -21.0768

-42.1785 24.3313 8.43989e-13
24.3313 -11.7089 1.81588e-12
8.43989e-13 1.81588e-12 -11.1441

-46.7028 -13.5035 5.93724e-12
-13.5035 11.0411 -3.606e-12
5.93724e-12 -3.606e-12 -12.3274

5.79569 -7.98136 1.85008e-12
-7.98136 -70.8012 -2.18788e-13
1.85008e-12 -2.18788e-13 -14.8502

-49.4245 -22.231 2.39557e-12
-22.231 3.73908 5.25209e-13
2.39557e-12 5.25209e-13 -22.0544

-17.418 -6.58222 7.04918e-13
-6.58222 -13.085 -3.68165e-12
7.04918e-13 -3.68165e-12 -34.6998

-28.6625 -29.8381 -2.88125e-12
-29.8381 -9.37781 -3.65337e-13
-2.88125e-12 -3.65337e-13 -8.97792

15.6419 11.4316 -3.5915e-12
11.4316 80.0002 -4.81511e-12
-3.5915e-12 -4.81511e-12 -6.5655

42.1896 -28.0853 9.50943e-13
-28.0853 11.0199 4.55813e-12
9.50943e-13 4.55813e-12 -5.05921

-47.0616 -13.7396 -6.28823e-12
-13.7396 4.1852 -4.34911e-13
-6.28823e-12 -4.34911e-13 -29.2341

2.95841 0.503669 9.42653e-13
0.503669 -56.6794 -4.01753e-13
9.42653e-13 -4.01753e-13 -10.9822

-39.2456 -21.4741 3.09678e-13
-21.4741 -8.8358 3.54827e-12
3.09678e-13 3.54827e-12 -14.7419

-40.1008 25.6382 5.38029e-12
25.6382 -14.657 -1.16936e-12
5.38029e-12 -1.16936e-12 -11.2872

32.1809 -31.3982 5.50315e-12
-31.3982 38.3387 -1.82373e-13
5.50315e-12 -1.82373e-13 -4.67064

-31.3952 -7.06775 1.76755e-12
-7.06775 1.69726 -2.4641e-12
1.76755e-12 -2.4641e-12 -40.8964

36.5329 -33.0139 -2.52716e-12
-33.0139 71.8642 -1.40924e-12
-2.52716e-12 -1.40924e-12 -7.1859

16.5738 -19.1351 3.62732e-12
-19.1351 -25.8103 1.13835e-12
3.62732e-12 1.13835e-12 -7.12197

1.49925 1.96658 3.73338e-12
1.96658 -51.2718 4.68366e-13
3.73338e-12 4.68366e-13 -15.3405

-12.8446 17.8333 -2.2391e-12
17.8333 -16.9156 -2.54167e-12
-2.2391e-12 -2.54167e-12 -40.9638

10.6806 20.1405 -4.35385e-12
20.1405 59.3177 9.166e-13
-4.35385e-12 9.166e-13 -4.3786

4.30777 27.1473 2.85993e-13
27.1473 -16.1858 -3.16488e-13
2.85993e-13 -3.16488e-13 -8.10967

30.8317 -24.4552 5.38355e-12
-24.4552 -8.11701 -4.56316e-12
5.38355e-12 -4.56316e-12 -4.87513

-37.6999 -17.7971 2.85927e-12
-17.7971 2.39489 -2.95171e-12
2.85927e-12 -2.95171e-12 -9.84498

55.3832 35 7.59689e-12
35 42.2409 -7.75676e-13
7.59689e-12 -7.75676e-13 -6.67197

-39.9219 -21.78 -1.36084e-12
-21.78 2.53047 -2.7723e-12
-1.36084e-12 -2.7723e-12 -9.37566

2.95861 30.7783 -3.09205e-12
30.7783 -17.3491 2.6518e-12
-3.09205e-12 2.6518e-12 -9.06243

18.4935 -25.1852 -4.85834e-12
-25.1852 -19.3742 -2.00314e-12
-4.85834e-12 -2.00314e-12 -6.33501

-15.6182 -25.0682 1.06966e-12
-25.0682 5.88164 4.00687e-12
1.06966e-12 4.00687e-12 -5.7682

42.6173 -18.6463 -2.94165e-12
-18.6463 -9.15005 7.67386e-13
-2.94165e-12 7.67386e-13 -5.3766

27.3667 -18.8062 -2.05524e-12
-18.8062 -20.3234 -6.09498e-12
-2.05524e-12 -6.09498e-12 -5.68681

-41.2969 -25.2783 -1.74912e-12
-25.2783 -14.9289 -1.9782e-12
-1.74912e-12 -1.9782e-12 -11.5428

29.7035 35.8927 5.21065e-14
35.8927 25.1589 2.52953e-12
5.21065e-14 2.52953e-12 -8.66197

-28.4518 15.3412 -2.96977e-12
15.3412 18.4757 4.25378e-12
-2.96977e-12 4.25378e-12 -5.86494

-23.0546 26.3607 1.50102e-13
26.3607 -12.518 3.24777e-12
1.50102e-13 3.24777e-12 -9.93838

-41.9986 25.4142 -3.94525e-12
25.4142 -11.5648 2.74921e-12
-3.94525e-12 2.74921e-12 -10.9698

-37.2014 11.5947 -3.36707e-12
11.5947 11.8166 1.87643e-12
-3.36707e-12 1.87643e-12 -9.0622

64.2473 -8.2091 3.06362e-12
-8.2091 3.18112 -3.27309e-12
3.06362e-12 -3.27309e-12 -4.27137

8.70616 18.5672 3.91391e-13
18.5672 59.0849 2.44782e-12
3.91391e-13 2.44782e-12 -4.18314

-25.5554 -24.3238 1.21473e-12
-24.3238 0.457154 8.69231e-13
1.21473e-12 8.69231e-13 -7.20299

-1.14021 25.6071 2.45256e-12
25.6071 13.7199 2.94875e-12
2.45256e-12 2.94875e-12 -4.08272

32.2962 -35.5528 -2.25242e-12
-35.5528 21.6398 7.85801e-12
-2.25242e-12 7.85801e-12 -8.50313

59.3904 38.2393 6.38186e-12
38.2393 17.7808 8.94929e-12
6.38186e-12 8.94929e-12 -13.7541

12.0838 -33.2403 2.62131e-12
-33.2403 42.8066 -1.19608e-13
2.62131e-12 -1.19608e-13 -9.56073

30.4763 -31.0932 -8.8427e-12
-31.0932 36.7261 -5.22249e-13
-8.8427e-12 -5.22249e-13 -4.42614

11.7415 -6.82259 -3.11099e-12
-6.82259 -48.7237 -1.65586e-12
-3.11099e-12 -1.65586e-12 -8.75256

25.2108 30.2771 2.64085e-13
30.2771 40.9926 1.24345e-13
2.64085e-13 1.24345e-13 -4.4763

62.5398 13.2661 7.56728e-13
13.2661 5.2072 2.89961e-12
7.56728e-13 2.89961e-12 -4.32622

-7.02424 13.3496 -2.50289e-12
13.3496 61.1992 2.68822e-12
-2.50289e-12 2.68822e-12 -8.71204

11.6956 -22.2932 9.14824e-13
-22.2932 55.6348 -5.80395e-12
9.14824e-13 -5.80395e-12 -4.32209

-47.1505 -1.08926 3.55094e-12
-1.08926 12.3799 -4.11819e-12
3.55094e-12 -4.11819e-12 -22.112

-5.91376 2.24253 -5.63979e-12
2.24253 58.8677 1.74794e-12
-5.63979e-12 1.74794e-12 -5.27752

6.23945 31.0233 1.66267e-12
31.0233 47.7478 2.00255e-12
1.66267e-12 2.00255e-12 -9.6784

-39.6321 12.0798 2.32038e-12
12.0798 12.8148 -4.70971e-12
2.32038e-12 -4.70971e-12 -9.29372

40.6404 -27.5867 -2.4419e-12
-27.5867 8.33207 -3.52074e-12
-2.4419e-12 -3.52074e-12 -5.65561

7.5209 20.5089 -3.27442e-13
20.5089 -47.3566 4.02049e-12
-3.27442e-13 4.02049e-12 -16.4462

-3.41397 26.2091 2.36848e-13
26.2091 -31.4133 -2.63286e-12
2.36848e-13 -2.63286e-12 -22.2022

15.7397 -18.5244 2.05051e-12
-18.5244 -29.944 1.23457e-13
2.05051e-12 1.23457e-13 -8.16909

4.41873 -1.79835 1.70219e-12
-1.79835 -34.0533 -4.09332e-12
1.70219e-12 -4.09332e-12 -24.3825

-14.3069 -31.7375 -2.56772e-12
-31.7375 -11.9032 1.33848e-12
-2.56772e-12 1.33848e-12 -9.03235

56.0839 23.278 -2.59585e-12
23.278 0.802753 7.40563e-12
-2.59585e-12 7.40563e-12 -8.30584

-27.7629 30.0915 3.659e-12
30.0915 -9.21463 -2.61924e-12
3.659e-12 -2.61924e-12 -8.78256

-26.9405 29.1376 1.3675e-12
29.1376 -9.18007 -5.99224e-13
1.3675e-12 -5.99224e-13 -8.66026

28.5573 30.5958 8.78704e-13
30.5958 40.3109 -6.31554e-12
8.78704e-13 -6.31554e-12 -4.47032

0.342171 27.0217 1.26003e-12
27.0217 -19.8002 3.07843e-12
1.26003e-12 3.07843e-12 -11.7528

64.3555 3.51779 3.37626e-12
3.51779 -11.8177 2.823e-12
3.37626e-12 2.823e-12 -10.0357

-14.8652 31.7427 -2.71487e-13
31.7427 -20.7501 3.8997e-12
-2.71487e-13 3.8997e-12 -12.4208

-37.8562 -12.5701 2.08048e-12
-12.5701 8.16092 -2.15591e-12
2.08048e-12 -2.15591e-12 -13.9924

-0.473886 24.2212 -4.3429e-12
24.2212 -29.9295 -3.802e-12
-4.3429e-12 -3.802e-12 -20.7243

-23.6721 -29.5096 3.30462e-12
-29.5096 -11.9068 2.12926e-12
3.30462e-12 2.12926e-12 -8.82548

-38.0597 -4.88635 -1.85962e-12
-4.88635 18.8023 3.64035e-12
-1.85962e-12 3.64035e-12 -11.706

69.7844 -24.5055 7.10543e-14
-24.5055 17.9727 -1.53004e-12
7.10543e-14 -1.53004e-12 -7.0758

39.8865 29.6287 -3.30758e-12
29.6287 13.443 1.56793e-12
-3.30758e-12 1.56793e-12 -5.23029

-4.3008 14.6649 -2.62338e-12
14.6649 60.4285 -2.90138e-12
-2.62338e-12 -2.90138e-12 -8.41878

1.60826 -1.1365 1.98345e-12
-1.1365 -55.9924 -8.23637e-13
1.98345e-12 -8.23637e-13 -11.1856

9.59145 0.0021762 -2.5997e-12
0.0021762 -44.6505 -3.06712e-12
-2.5997e-12 -3.06712e-12 -8.42218

-31.007 23.0702 -5.4697e-13
23.0702 -4.32749 7.28306e-13
-5.4697e-13 7.28306e-13 -8.44252

-34.6808 23.8159 -1.57444e-12
23.8159 -13.1623 -1.00248e-12
-1.57444e-12 -1.00248e-12 -14.7806

-43.2776 -24.324 -3.72924e-12
-24.324 -12.5838 3.5989e-12
-3.72924e-12 3.5989e-12 -11.4446

-38.9684 -0.67152 2.52217e-12
-0.67152 20.9968 1.18661e-12
2.52217e-12 1.18661e-12 -10.4746

-40.711 25.5311 2.13311e-13
25.5311 -13.1915 2.7572e-12
2.13311e-13 2.7572e-12 -11.1488

32.2447 -10.2842 -2.22992e-12
-10.2842 -25.0989 2.83566e-12
-2.22992e-12 2.83566e-12 -6.01231

8.67972 -32.7603 2.2388e-12
-32.7603 22.7397 1.86399e-12
2.2388e-12 1.86399e-12 -6.99938

2.39147 -2.29621 1.83853e-12
-2.29621 -49.8444 2.6444e-12
1.83853e-12 2.6444e-12 -14.7403

36.6554 -34.4345 7.61347e-12
-34.4345 24.4134 -2.45611e-12
7.61347e-12 -2.45611e-12 -7.72892

-38.2052 19.0415 2.52095e-13
19.0415 -7.07623 6.71167e-13
2.52095e-13 6.71167e-13 -14.4177

7.85199 -26.4167 2.21038e-12
-26.4167 -27.9299 5.42677e-13
2.21038e-12 5.42677e-13 -10.9471

63.8018 -9.66875 4.51905e-12
-9.66875 5.65428 -1.05397e-12
4.51905e-12 -1.05397e-12 -5.09444

6.02556 -23.1379 -4.34675e-12
-23.1379 -35.3858 1.26625e-12
-4.34675e-12 1.26625e-12 -17.6971

0.141667 2.35293 2.28499e-12
2.35293 -56.043 -2.64825e-13
2.28499e-12 -2.64825e-13 -11.5218

-4.05274 -23.2674 -1.99189e-12
-23.2674 -23.357 5.58812e-12
-1.99189e-12 5.58812e-12 -16.6827

11.0124 -25.7989 5.24854e-12
-25.7989 -29.4177 2.91619e-13
5.24854e-12 2.91619e-13 -9.71491

10.1771 -8.5264 -1.37224e-12
-8.5264 -43.3893 1.42286e-12
-1.37224e-12 1.42286e-12 -9.26347

-35.3348 -23.0149 -1.10726e-12
-23.0149 -12.6169 1.67124e-12
-1.10726e-12 1.67124e-12 -15.0699

23.606 -31.2711 6.45647e-12
-31.2711 5.69423 -3.55094e-12
6.45647e-12 -3.55094e-12 -5.8841

11.0333 -24.5301 3.24481e-13
-24.5301 -27.4308 -3.39343e-12
3.24481e-13 -3.39343e-12 -10.0287

46.5321 10.8402 -6.59739e-12
10.8402 -16.0884 4.56938e-12
-6.59739e-12 4.56938e-12 -6.80673

-14.1531 26.279 6.05915e-12
26.279 -15.6041 -1.01696e-12
6.05915e-12 -1.01696e-12 -14.0884

-45.1457 -37.5244 -4.56405e-12
-37.5244 -20.5648 -2.62942e-12
-4.56405e-12 -2.62942e-12 -14.8873

-43.6062 37.1776 2.30482e-12
37.1776 -21.217 2.60895e-12
2.30482e-12 2.60895e-12 -14.7381

-61.042 -28.5059 1.5908e-12
-28.5059 -7.4801 -6.61693e-13
1.5908e-12 -6.61693e-13 -15.1673

-58.2792 27.0004 4.84057e-13
27.0004 -6.25748 -4.18332e-13
4.84057e-13 -4.18332e-13 -14.4474

5.58678 -8.50774 2.15502e-12
-8.50774 -70.8975 9.26814e-13
2.15502e-12 9.26814e-13 -14.6784

4.38644 9.25192 4.0649e-13
9.25192 -68.6713 2.26826e-12
4.0649e-13 2.26826e-12 -14.407

9.00259 -9.82332 -2.18788e-13
-9.82332 -40.7953 -6.12251e-13
-2.18788e-13 -6.12251e-13 -9.59293

-24.279 32.0408 -2.55203e-12
32.0408 -24.7525 1.97779e-12
-2.55203e-12 1.97779e-12 -21.0977

-25.4636 -32.777 -1.62359e-12
-32.777 -25.0381 4.57235e-12
-1.62359e-12 4.57235e-12 -21.4213

-53.7941 16.0307 -1.01371e-12
16.0307 3.39304 1.03088e-12
-1.01371e-12 1.03088e-12 -21.3548

-52.2984 -15.7639 -1.05131e-12
-15.7639 3.28873 2.88214e-12
-1.05131e-12 2.88214e-12 -21.0287

6.09739 -3.74012 1.64269e-12
-3.74012 -43.8228 -1.45484e-12
1.64269e-12 -1.45484e-12 -25.7059

6.90143 3.60322 2.8139e-12
3.60322 -46.2408 -6.73831e-13
2.8139e-12 -6.73831e-13 -26.0815

-15.596 9.81463 -3.41105e-12
9.81463 46.1533 -3.00086e-12
-3.41105e-12 -3.00086e-12 -5.85442

-22.8657 -24.7166 -3.01803e-12
-24.7166 -14.5187 -2.53723e-13
-3.01803e-12 -2.53723e-13 -10.3091

-56.4709 -36.3019 2.11298e-12
-36.3019 -14.4991 3.68772e-12
2.11298e-12 3.68772e-12 -13.4092

33.2811 -4.65344 -2.56151e-12
-4.65344 -19.8028 -1.94629e-12
-2.56151e-12 -1.94629e-12 -3.94552

3.4246 -16.6556 1.9155e-12
-16.6556 -52.5059 -5.48598e-13
1.9155e-12 -5.48598e-13 -21.4842

3.66535 16.1378 3.57595e-12
16.1378 -51.7633 -3.7863e-12
3.57595e-12 -3.7863e-12 -21.3577

6.53967 0.121623 7.81153e-13
0.121623 -76.5747 1.11351e-12
7.81153e-13 1.11351e-12 -13.2763

-7.5601 23.3232 -1.68695e-12
23.3232 39.8396 5.82527e-12
-1.68695e-12 5.82527e-12 -6.89296

-56.756 36.0864 3.59194e-13
36.0864 -13.979 3.62036e-12
3.59194e-13 3.62036e-12 -13.361

-39.7013 -23.3412 8.82553e-13
-23.3412 2.55561 -2.33088e-12
8.82553e-13 -2.33088e-12 -8.78319

37.0281 23.3004 2.37558e-12
23.3004 -8.59834 -1.50339e-12
2.37558e-12 -1.50339e-12 -5.76416

4.72287 23.8025 4.21589e-13
23.8025 -38.1374 3.73479e-12
4.21589e-13 3.73479e-12 -18.9442

23.955 -31.243 -2.90138e-12
-31.243 6.3887 -3.336e-12
-2.90138e-12 -3.336e-12 -5.65439

2.42544 -3.22422 2.70302e-13
-3.22422 -48.2571 7.66794e-14
2.70302e-13 7.66794e-14 -14.7102

-60.3158 -34.0807 1.03843e-13
-34.0807 -14.3171 -2.81863e-12
1.03843e-13 -2.81863e-12 -14.0017

-17.4183 8.30101 6.90459e-12
8.30101 45.5841 8.28966e-15
6.90459e-12 8.28966e-15 -5.78652

-9.45461 21.7629 7.30971e-13
21.7629 40.3282 3.51008e-12
7.30971e-13 3.51008e-12 -6.66087

58.4656 35.7065 -1.75386e-12
35.7065 36.9963 -9.53312e-13
-1.75386e-12 -9.53312e-13 -6.95037

70.3178 1.57509 9.71075e-14
1.57509 -5.55023 3.56989e-12
9.71075e-14 3.56989e-12 -10.3971

-30.687 -22.7519 -2.20298e-12
-22.7519 -13.3255 4.69071e-12
-2.20298e-12 4.69071e-12 -14.4342

32.7543 31.1242 1.3145e-12
31.1242 69.6373 1.89478e-12
1.3145e-12 1.89478e-12 -6.71703

-19.3315 23.5552 -3.56959e-12
23.5552 7.66912 -4.08917e-12
-3.56959e-12 -4.08917e-12 -5.50519

47.5241 -5.33765 -3.51837e-12
-5.33765 -17.4016 -2.39882e-12
-3.51837e-12 -2.39882e-12 -6.82863

33.1403 11.1903 2.14821e-12
11.1903 -23.5861 -2.9224e-12
2.14821e-12 -2.9224e-12 -6.0128

6.23887 0.428886 1.4387e-12
0.428886 -77.3702 -3.79976e-12
1.4387e-12 -3.79976e-12 -13.4218

-58.798 -28.9627 -2.27907e-12
-28.9627 -6.27383 5.09045e-12
-2.27907e-12 5.09045e-12 -14.6658

-28.2673 -6.30358 9.55014e-13
-6.30358 -11.3318 -1.34263e-12
9.55014e-13 -1.34263e-12 -51.4687

-44.5935 37.3236 2.52243e-13
37.3236 -20.7634 -1.31669e-12
2.52243e-13 -1.31669e-12 -14.7421

93.5888 1.66056 -7.66676e-12
1.66056 16.5981 2.04429e-12
-7.66676e-12 2.04429e-12 -6.08356

10.007 -32.7139 -5.37466e-12
-32.7139 21.2563 -7.87104e-12
-5.37466e-12 -7.87104e-12 -6.81544

-56.8027 36.5268 1.52774e-12
36.5268 -14.5376 7.68126e-13
1.52774e-12 7.68126e-13 -13.477

-34.9985 -11.1079 -4.47603e-12
-11.1079 19.1316 5.33499e-13
-4.47603e-12 5.33499e-13 -8.3022

-5.47269 -25.458 2.65891e-12
-25.458 37.2597 -1.46253e-12
2.65891e-12 -1.46253e-12 -6.99465

-58.3156 28.7621 1.44336e-12
28.7621 -6.2573 1.26921e-12
1.44336e-12 1.26921e-12 -14.5831

28.4281 -26.0826 5.22841e-12
-26.0826 -4.90357 -1.79412e-13
5.22841e-12 -1.79412e-13 -4.70033

-21.1209 10.4593 -3.1779e-12
10.4593 -18.5173 5.00244e-12
-3.1779e-12 5.00244e-12 -51.564

3.41838 30.8033 -9.23113e-13
30.8033 27.095 5.51973e-12
-9.23113e-13 5.51973e-12 -6.74007

6.12534 8.10784 3.99281e-12
8.10784 -72.1282 2.97377e-12
3.99281e-12 2.97377e-12 -14.9524

-11.519 30.1201 1.93297e-12
30.1201 -20.5548 -3.72058e-12
1.93297e-12 -3.72058e-12 -11.5248

-30.7263 23.2777 -2.93099e-12
23.2777 -5.08815 -2.86852e-12
-2.93099e-12 -2.86852e-12 -8.44842

-25.8036 -32.4125 3.97045e-12
-32.4125 -24.057 2.53997e-12
3.97045e-12 2.53997e-12 -21.5104

9.18332 -23.1363 1.48326e-12
-23.1363 -27.8574 -3.51896e-12
1.48326e-12 -3.51896e-12 -11.4025

-37.5732 10.4457 4.85582e-12
10.4457 8.90825 -4.31063e-13
4.85582e-12 -4.31063e-13 -25.2729

-22.9871 -23.3793 1.03058e-12
-23.3793 4.94073 -1.85156e-12
1.03058e-12 -1.85156e-12 -6.25283

88.6059 -9.68699 3.04586e-12
-9.68699 10.7582 3.40313e-12
3.04586e-12 3.40313e-12 -10.0696

83.8495 -14.2517 -5.37881e-12
-14.2517 2.77687 1.99663e-12
-5.37881e-12 1.99663e-12 -13.2319

5.87378 16.4912 -2.90286e-12
16.4912 -33.853 -4.97735e-12
-2.90286e-12 -4.97735e-12 -22.3251

-16.3845 22.4499 -1.42671e-12
22.4499 16.1895 -4.59899e-12
-1.42671e-12 -4.59899e-12 -5.08111

-3.90407 29.0953 -5.695e-12
29.0953 -12.2023 -2.69e-12
-5.695e-12 -2.69e-12 -8.38182

50.8752 0.687065 9.31995e-13
0.687065 -6.52215 2.79887e-13
9.31995e-13 2.79887e-13 -3.64595

-48.0296 6.55553 -3.00374e-12
6.55553 14.7504 -1.01371e-12
-3.00374e-12 -1.01371e-12 -18.9109

10.0925 16.5018 -2.75572e-12
16.5018 -35.9953 -2.59674e-12
-2.75572e-12 -2.59674e-12 -9.11664

-4.50065 -25.7037 1.71655e-12
-25.7037 35.4692 1.55846e-12
1.71655e-12 1.55846e-12 -6.7542

-39.1004 -2.56605 -2.53303e-12
-2.56605 21.4535 2.89428e-12
-2.53303e-12 2.89428e-12 -10.6484

-7.97611 13.3358 5.34476e-12
13.3358 44.3021 -1.09424e-12
5.34476e-12 -1.09424e-12 -3.95262

3.72521 -29.644 3.23119e-12
-29.644 -17.3254 -4.27243e-12
3.23119e-12 -4.27243e-12 -8.90487

21.3738 -29.8805 2.35249e-12
-29.8805 14.7202 4.40063e-12
2.35249e-12 4.40063e-12 -3.92603

6.8584 31.5525 4.52734e-12
31.5525 25.3378 -2.80309e-12
4.52734e-12 -2.80309e-12 -6.83584

2.77855 -14.9853 7.38668e-13
-14.9853 -39.1751 -4.67522e-12
7.38668e-13 -4.67522e-12 -63.1625

-46.0523 2.03684 2.60925e-12
2.03684 11.4342 -1.02022e-12
2.60925e-12 -1.02022e-12 -22.7052

-55.3159 20.2519 3.01833e-13
20.2519 3.08754 2.06501e-12
3.01833e-13 2.06501e-12 -22.8644

5.9014 15.4032 5.65326e-13
15.4032 -58.6814 -2.82737e-13
5.65326e-13 -2.82737e-13 -22.9842

-18.8778 -26.1278 4.46162e-13
-26.1278 -12.8836 -6.2587e-13
4.46162e-13 -6.2587e-13 -9.6335

41.2504 17.9165 -2.30926e-12
17.9165 -6.2606 1.17684e-12
-2.30926e-12 1.17684e-12 -3.86911

-44.5791 -5.28132 -1.596e-12
-5.28132 4.52677 8.83027e-12
-1.596e-12 8.83027e-12 -39.0545

7.48182 -18.9435 -3.92397e-12
-18.9435 -39.8012 1.47734e-12
-3.92397e-12 1.47734e-12 -11.6352

30.2201 -15.5626 9.95352e-13
-15.5626 -20.4631 6.74794e-12
9.95352e-13 6.74794e-12 -4.80348

-9.61986 11.5776 1.64609e-12
11.5776 44.2162 -1.18424e-14
1.64609e-12 -1.18424e-14 -3.86669

8.31114 -25.677 1.16055e-13
-25.677 32.9144 1.10963e-12
1.16055e-13 1.10963e-12 -3.64343

-10.2204 -25.2148 -3.25665e-15
-25.2148 -19.0563 -2.74418e-12
-3.25665e-15 -2.74418e-12 -23.122

16.9621 31.8874 2.66039e-12
31.8874 11.167 2.7421e-12
2.66039e-12 2.7421e-12 -5.75192

-1.06694 -25.0757 -3.82213e-12
-25.0757 -30.6915 -1.10785e-12
-3.82213e-12 -1.10785e-12 -20.8444

47.9544 2.59154 -1.64491e-12
2.59154 -8.39485 -6.36528e-14
-1.64491e-12 -6.36528e-14 -3.54123

6.50586 -28.8748 -3.46271e-12
-28.8748 71.8778 2.63375e-12
-3.46271e-12 2.63375e-12 -14.5847

21.7387 -29.1654 -7.16464e-14
-29.1654 13.9293 -6.92009e-12
-7.16464e-14 -6.92009e-12 -3.93825

35.2598 32.0973 9.42653e-13
32.0973 73.9679 4.47168e-12
9.42653e-13 4.47168e-12 -5.48198

-45.1783 -11.8489 2.734e-12
-11.8489 13.8888 3.58883e-12
2.734e-12 3.58883e-12 -15.2934

-14.3928 -13.7902 -5.35882e-12
-13.7902 43.2797 1.71833e-12
-5.35882e-12 1.71833e-12 -5.67847

-19.1983 -23.9319 -8.23489e-13
-23.9319 -19.7852 -1.11333e-12
-8.23489e-13 -1.11333e-12 -64.1024

2.42906 23.7181 3.86772e-12
23.7181 35.9229 1.86162e-12
3.86772e-12 1.86162e-12 -3.72035

-15.1475 -32.6496 8.49691e-13
-32.6496 -21.0707 6.54617e-12
8.49691e-13 6.54617e-12 -14.2825

-14.5376 -11.936 1.40458e-12
-11.936 45.4232 -2.12334e-12
1.40458e-12 -2.12334e-12 -5.74541

7.817 -19.072 -1.89152e-12
-19.072 -43.0212 1.12858e-12
-1.89152e-12 1.12858e-12 -12.605

6.52722 23.8241 -7.14688e-13
23.8241 35.0894 6.26936e-12
-7.14688e-13 6.26936e-12 -3.4524

23.1196 -4.9638 -4.20108e-12
-4.9638 -30.6054 1.95436e-12
-4.20108e-12 1.95436e-12 -5.35739

36.863 -30.2954 -6.11185e-12
-30.2954 122.381 -1.07529e-12
-6.11185e-12 -1.07529e-12 -6.3063

-26.8081 20.9654 1.27602e-13
20.9654 8.41342 -2.33413e-12
1.27602e-13 -2.33413e-12 -7.11963

40.2424 -19.28 5.63697e-13
-19.28 -11.3512 2.9449e-12
5.63697e-13 2.9449e-12 -5.73161

6.51209 -21.3959 1.58125e-12
-21.3959 -45.4522 -4.10664e-12
1.58125e-12 -4.10664e-12 -24.9151

20.6535 31.6825 1.23161e-13
31.6825 9.53067 1.95399e-12
1.23161e-13 1.95399e-12 -5.81222

13.8849 -29.9025 2.59111e-12
-29.9025 -7.5903 3.51393e-12
2.59111e-12 3.51393e-12 -5.94044

6.73939 20.8365 5.9277e-12
20.8365 -27.7275 2.62338e-12
5.9277e-12 2.62338e-12 -11.0856

-38.1844 -28.0108 2.94357e-12
-28.0108 -14.0047 1.00964e-12
2.94357e-12 1.00964e-12 -11.0376

8.62324 -26.1669 9.33772e-13
-26.1669 31.0976 -9.0831e-13
9.33772e-13 -9.0831e-13 -3.6448

15.2931 28.916 1.32753e-12
28.916 19.1079 6.19001e-12
1.32753e-12 6.19001e-12 -3.89057

28.5729 26.1314 1.79057e-12
26.1314 -5.62359 -2.61421e-13
1.79057e-12 -2.61421e-13 -4.80476

7.89582 -14.5763 -5.43447e-12
-14.5763 -36.7918 -1.1191e-12
-5.43447e-12 -1.1191e-12 -13.961

-6.82912 -16.5808 2.99464e-12
-16.5808 41.2443 2.65388e-12
2.99464e-12 2.65388e-12 -3.96699

17.4 -17.527 3.27383e-12
-17.527 -30.9273 -1.36113e-12
3.27383e-12 -1.36113e-12 -7.0931

19.7945 16.8691 -1.83675e-12
16.8691 -31.5921 1.76984e-12
-1.83675e-12 1.76984e-12 -7.32361

-33.6011 -9.36433 1.42775e-12
-9.36433 8.73616 -3.41001e-12
1.42775e-12 -3.41001e-12 -23.9374

43.3311 -13.3995 -3.2685e-12
-13.3995 -8.35349 1.02984e-12
-3.2685e-12 1.02984e-12 -3.81181

-19.3369 0.593217 -8.64464e-12
0.593217 43.0444 -1.06581e-14
-8.64464e-12 -1.06581e-14 -4.77852

27.9905 18.5118 -2.69473e-12
18.5118 -18.1584 -8.73375e-13
-2.69473e-12 -8.73375e-13 -4.7475

25.4679 27.5408 -8.21861e-13
27.5408 -3.76973 6.4837e-14
-8.21861e-13 6.4837e-14 -4.77341

-6.7034 -15.6516 5.41108e-12
-15.6516 43.6967 -1.04213e-13
5.41108e-12 -1.04213e-13 -3.8564

-19.8634 -1.19919 5.37089e-12
-1.19919 42.0294 1.71833e-12
5.37089e-12 1.71833e-12 -4.68941

-5.46095 29.0661 -1.2245e-12
29.0661 -23.5923 -4.82222e-12
-1.2245e-12 -4.82222e-12 -16.7603

-37.1872 -10.897 -3.45427e-12
-10.897 21.6287 1.95991e-12
-3.45427e-12 1.95991e-12 -7.81644

27.0782 -26.6545 2.06946e-12
-26.6545 -5.52039 -3.36442e-12
2.06946e-12 -3.36442e-12 -4.94651

40.6222 21.2846 1.64372e-12
21.2846 -8.35619 2.34242e-12
1.64372e-12 2.34242e-12 -5.47433

12.349 23.6099 -8.73375e-13
23.6099 -27.0645 -4.70735e-13
-8.73375e-13 -4.70735e-13 -8.65102

-37.7087 5.45847 1.44914e-12
5.45847 23.2565 1.43648e-12
1.44914e-12 1.43648e-12 -8.58159

18.5473 29.0005 2.32703e-13
29.0005 17.3358 -2.62249e-12
2.32703e-13 -2.62249e-12 -3.95512

-9.96486 22.9102 -3.68949e-12
22.9102 -14.8785 4.98164e-12
-3.68949e-12 4.98164e-12 -23.9706

68.1328 -59.5947 9.75812e-13
-59.5947 36.2131 6.80937e-13
9.75812e-13 6.80937e-13 -23.0671

17.489 -24.9899 2.404e-13
-24.9899 -17.951 4.4554e-12
2.404e-13 4.4554e-12 -6.40968

10.0177 7.05737 1.37046e-12
7.05737 82.3654 2.84217e-14
1.37046e-12 2.84217e-14 -7.19867

11.8912 -28.8228 -1.19963e-12
-28.8228 -3.87327 2.84217e-14
-1.19963e-12 2.84217e-14 -5.16259

-66.9957 -52.6335 2.96059e-14
-52.6335 142.931 1.74794e-12
2.96059e-14 1.74794e-12 -49.7565

-68.4366 51.3856 -1.75504e-12
51.3856 142.218 2.73322e-12
-1.75504e-12 2.73322e-12 -49.9448

19.4073 117.005 -1.06345e-12
117.005 63.91 1.82846e-12
-1.06345e-12 1.82846e-12 -48.4502

20.3653 -116.948 9.40285e-13
-116.948 60.811 -1.38793e-12
9.40285e-13 -1.38793e-12 -48.8142

157.405 -1.36121 -1.76215e-12
-1.36121 -79.2219 -4.05648e-14
-1.76215e-12 -4.05648e-14 -48.9998

110.046 -91.0085 -8.62125e-13
-91.0085 -36.7798 1.8782e-12
-8.62125e-13 1.8782e-12 -50.3924

110.099 91.5354 1.54425e-12
91.5354 -36.59 9.71075e-14
1.54425e-12 9.71075e-14 -50.265

7.82782 14.2972 -5.53927e-13
14.2972 -42.5822 3.17494e-12
-5.53927e-13 3.17494e-12 -15.0463

-11.7641 25.4765 -1.78376e-12
25.4765 -27.3419 2.47298e-12
-1.78376e-12 2.47298e-12 -35.0571

12.4085 6.59072 -1.74853e-12
6.59072 -40.4403 -1.03103e-13
-1.74853e-12 -1.03103e-13 -8.23777

26.1921 21.7344 -2.62901e-13
21.7344 -19.4856 -2.11979e-13
-2.62901e-13 -2.11979e-13 -5.84733

-21.1844 17.704 6.77192e-12
17.704 29.7966 -4.40122e-12
6.77192e-12 -4.40122e-12 -6.16068

22.4759 28.8328 9.07718e-13
28.8328 -0.775651 3.51067e-12
9.07718e-13 3.51067e-12 -4.73314

4.04507 -29.5944 4.47938e-12
-29.5944 -17.4258 7.27418e-13
4.47938e-12 7.27418e-13 -8.48925

25.9329 27.9643 8.65086e-13
27.9643 -2.29859 6.2883e-13
8.65086e-13 6.2883e-13 -4.73421

-19.3056 -2.83533 9.76108e-13
-2.83533 42.9705 -9.58048e-13
9.76108e-13 -9.58048e-13 -4.77312

-13.3807 -26.0362 -1.3672e-12
-26.0362 -25.7793 2.08722e-13
-1.3672e-12 2.08722e-13 -35.4392

-19.7992 -4.85196 -1.01223e-12
-4.85196 41.6784 2.75335e-12
-1.01223e-12 2.75335e-12 -4.74627

-1.82283 22.9628 -1.84031e-12
22.9628 -24.32 2.67845e-12
-1.84031e-12 2.67845e-12 -16.114

44.8781 26.8113 -2.77349e-12
26.8113 8.08504 5.70803e-13
-2.77349e-12 5.70803e-13 -5.38405

-52.3864 -13.1852 4.7223e-12
-13.1852 0.149617 1.96287e-13
4.7223e-12 1.96287e-13 -20.5711

20.2321 13.6959 2.46144e-12
13.6959 -31.0708 -4.45066e-12
2.46144e-12 -4.45066e-12 -7.0334

13.6673 -29.9185 -3.18027e-12
-29.9185 -6.67807 4.1546e-12
-3.18027e-12 4.1546e-12 -5.83168

29.5609 -24.6569 1.27187e-12
-24.6569 -7.85866 -2.47979e-12
1.27187e-12 -2.47979e-12 -4.82758

5.75107 -16.0376 -8.77816e-13
-16.0376 -32.2584 -1.25056e-12
-8.77816e-13 -1.25056e-12 -22.2047

12.5977 27.8641 -4.76656e-12
27.8641 -13.6082 -2.26515e-12
-4.76656e-12 -2.26515e-12 -6.41146

23.2531 23.9222 -3.03046e-12
23.9222 -17.9035 -8.60053e-13
-3.03046e-12 -8.60053e-13 -5.95819

-31.0058 -2.78621 2.37762e-12
-2.78621 30.061 1.06581e-13
2.37762e-12 1.06581e-13 -6.3904

-28.5651 5.85963 3.73153e-12
5.85963 33.2425 8.03505e-13
3.73153e-12 8.03505e-13 -6.05495

34.4663 2.6406 -3.73745e-12
2.6406 -26.127 1.94659e-13
-3.73745e-12 1.94659e-13 -6.14082

50.5312 -7.2734 8.90547e-13
-7.2734 -14.0581 -6.34737e-12
8.90547e-13 -6.34737e-12 -6.7878

11.0136 30.4144 4.35681e-12
30.4144 -4.77882 -2.43361e-13
4.35681e-12 -2.43361e-13 -5.96257

17.4257 -26.0949 -2.64677e-12
-26.0949 -17.4153 7.88969e-12
-2.64677e-12 7.88969e-12 -6.3441

-0.0838777 -21.2048 -3.75788e-12
-21.2048 -27.891 2.46529e-12
-3.75788e-12 2.46529e-12 -17.1281

4.92472 -31.5612 -8.84034e-13
-31.5612 4.84741 -5.70211e-13
-8.84034e-13 -5.70211e-13 -5.93355

-8.21188 -27.7223 1.73372e-12
-27.7223 18.5329 -1.64254e-12
1.73372e-12 -1.64254e-12 -6.12907

-1.64925 29.8188 -8.89955e-13
29.8188 10.4207 -1.24227e-12
-8.89955e-13 -1.24227e-12 -5.79869

-25.9586 -9.55582 -9.25889e-13
-9.55582 32.8919 -2.82678e-12
-9.25889e-13 -2.82678e-12 -5.78382

-31.2511 -1.5416 6.93364e-12
-1.5416 31.5764 5.37644e-13
6.93364e-12 5.37644e-13 -6.21608

-38.8256 5.73431 1.0685e-12
5.73431 23.8898 -4.54155e-13
1.0685e-12 -4.54155e-13 -9.16628

-17.1814 -21.041 2.57483e-12
-21.041 26.5073 4.65228e-12
2.57483e-12 4.65228e-12 -5.77056

13.0402 24.0552 -2.84987e-12
24.0552 -28.0364 -2.14584e-12
-2.84987e-12 -2.14584e-12 -9.18812

21.5039 -9.56748 -3.87423e-12
-9.56748 -31.6343 5.06469e-12
-3.87423e-12 5.06469e-12 -6.58933

-27.0929 7.44802 -2.51719e-12
7.44802 34.2534 5.46999e-12
-2.51719e-12 5.46999e-12 -5.87037

-35.1545 -9.67842 1.75757e-12
-9.67842 22.261 1.87465e-12
1.75757e-12 1.87465e-12 -8.16921

-29.0892 -16.293 -3.94603e-12
-16.293 19.3007 -2.59526e-12
-3.94603e-12 -2.59526e-12 -6.65271

36.8811 -8.22054 9.50943e-13
-8.22054 -20.1934 4.95515e-12
9.50943e-13 4.95515e-12 -5.10259

-14.7754 -32.271 1.69672e-12
-32.271 -21.577 1.2168e-13
1.69672e-12 1.2168e-13 -12.9649

-22.7724 9.29996 -2.43479e-12
9.29996 33.2454 4.763e-12
-2.43479e-12 4.763e-12 -4.78653

-0.750284 -18.1703 -2.20357e-12
-18.1703 -35.0757 -9.90319e-13
-2.20357e-12 -9.90319e-13 -33.2009

4.88953 24.775 5.62513e-14
24.775 75.1286 1.6982e-12
5.62513e-14 1.6982e-12 -14.3523

-14.1088 -26.5642 2.85697e-13
-26.5642 -16.3126 -1.17743e-12
2.85697e-13 -1.17743e-12 -14.6087

-6.34278 -30.1321 -3.14534e-12
-30.1321 -23.5482 -1.70471e-12
-3.14534e-12 -1.70471e-12 -17.0505

-31.1991 -0.699299 1.76355e-12
-0.699299 31.4264 7.88702e-13
1.76355e-12 7.88702e-13 -6.34071

28.4216 -16.5841 -1.19134e-12
-16.5841 -18.0164 2.91471e-12
-1.19134e-12 2.91471e-12 -4.43603

-37.7172 12.8118 -1.65394e-12
12.8118 11.1387 -5.28052e-12
-1.65394e-12 -5.28052e-12 -10.9663

-8.91143 -3.1711 2.5017e-13
-3.1711 110.802 8.50283e-13
2.5017e-13 8.50283e-13 -22.7265

-31.5305 14.2407 -3.33696e-12
14.2407 21.2993 -1.84149e-12
-3.33696e-12 -1.84149e-12 -7.11445

12.3917 -29.4216 -1.24416e-11
-29.4216 -2.51449 8.62125e-13
-1.24416e-11 8.62125e-13 -4.92563

33.5311 25.0662 -1.70412e-12
25.0662 123.782 -5.33381e-12
-1.70412e-12 -5.33381e-12 -6.27747

-13.4701 26.0366 -4.00628e-12
26.0366 -19.0528 -8.61874e-12
-4.00628e-12 -8.61874e-12 -58.7562

-9.52988 -27.7417 6.07929e-12
-27.7417 -22.7536 6.41901e-12
6.07929e-12 6.41901e-12 -59.4051

-2.86066 -30.3485 -1.54365e-12
-30.3485 -7.30554 8.99133e-13
-1.54365e-12 8.99133e-13 -7.27678

3.84814 -31.089 4.53267e-12
-31.089 5.61976 -2.78947e-12
4.53267e-12 -2.78947e-12 -6.06084

25.0934 20.7793 -1.58629e-12
20.7793 -16.9965 1.15582e-12
-1.58629e-12 1.15582e-12 -4.97361

31.7294 14.9717 -2.02801e-12
14.9717 -23.2505 1.93504e-12
-2.02801e-12 1.93504e-12 -5.95271

-9.46402 3.07447 -7.72604e-12
3.07447 -9.80614 1.30429e-12
-7.72604e-12 1.30429e-12 -80.7442

-5.53403 -6.98155 6.57274e-12
-6.98155 -14.0069 1.81855e-12
6.57274e-12 1.81855e-12 -80.0984

11.7213 4.81293 4.65405e-13
4.81293 -43.1049 2.74299e-13
4.65405e-13 2.74299e-13 -7.81247

-34.9754 6.71575 -8.24822e-13
6.71575 24.3181 -1.17121e-12
-8.24822e-13 -1.17121e-12 -7.55101

-36.0273 6.72056 8.88522e-13
6.72056 24.3748 -3.62377e-13
8.88522e-13 -3.62377e-13 -8.29481

74.4042 58.5361 -7.14806e-12
58.5361 34.045 -1.82136e-12
-7.14806e-12 -1.82136e-12 -21.9308

-6.90754 -28.1357 1.19608e-13
-28.1357 16.8333 1.81366e-12
1.19608e-13 1.81366e-12 -6.11578

8.15295 17.9323 -4.37783e-12
17.9323 -44.7708 -1.39355e-12
-4.37783e-12 -1.39355e-12 -12.8685

32.6274 9.51769 -2.60414e-12
9.51769 -19.0378 3.66433e-12
-2.60414e-12 3.66433e-12 -4.07433

3.37856 -26.6623 3.3058e-12
-26.6623 13.4523 -2.72138e-12
3.3058e-12 -2.72138e-12 -3.82808

26.1751 -20.1912 -2.86941e-12
-20.1912 -20.2781 -2.47062e-12
-2.86941e-12 -2.47062e-12 -5.8595

65.2114 60.1329 -2.73322e-12
60.1329 34.1693 3.50416e-12
-2.73322e-12 3.50416e-12 -23.9229

-13.2121 30.9965 -2.40075e-12
30.9965 -16.8431 1.15907e-12
-2.40075e-12 1.15907e-12 -12.7592

-18.5648 -19.7411 1.82521e-12
-19.7411 28.3466 -1.66563e-12
1.82521e-12 -1.66563e-12 -5.96837

11.1472 28.791 -1.9084e-12
28.791 -13.2929 -5.30539e-13
-1.9084e-12 -5.30539e-13 -6.42788

-31.7961 -4.13566 -2.44308e-12
-4.13566 30.077 -9.06534e-13
-2.44308e-12 -9.06534e-13 -6.3498

-14.5642 19.5648 5.31604e-12
19.5648 27.1215 -3.71377e-12
5.31604e-12 -3.71377e-12 -4.41845

7.46036 30.4487 -1.43174e-12
30.4487 -1.66826 -5.50671e-13
-1.43174e-12 -5.50671e-13 -5.65676

-9.32476 -22.4222 3.95654e-12
-22.4222 23.0949 2.33769e-12
3.95654e-12 2.33769e-12 -4.17577

4.57861 -27.2902 -3.80318e-12
-27.2902 11.422 1.05989e-13
-3.80318e-12 1.05989e-13 -3.93917

24.182 11.2377 1.00366e-11
11.2377 101.853 6.23383e-12
1.00366e-11 6.23383e-12 -12.4618

37.3718 -33.3924 4.49892e-12
-33.3924 69.1292 -4.09273e-12
4.49892e-12 -4.09273e-12 -5.7422

-25.2787 -11.6637 -3.54206e-12
-11.6637 31.2942 4.94419e-13
-3.54206e-12 4.94419e-13 -5.6448

16.0581 26.4235 -2.08307e-12
26.4235 -15.4667 3.28922e-12
-2.08307e-12 3.28922e-12 -6.2099

4.94273 29.4103 1.06641e-12
29.4103 1.63244 -1.32635e-13
1.06641e-12 -1.32635e-13 -4.98698

-9.83339 -21.3853 5.05077e-13
-21.3853 25.0621 7.98176e-13
5.05077e-13 7.98176e-13 -4.03406

-21.5859 -11.7558 -4.93531e-13
-11.7558 32.0072 -2.68111e-12
-4.93531e-13 -2.68111e-12 -4.63546

10.4375 28.3444 4.49004e-12
28.3444 -0.156571 2.42058e-12
4.49004e-12 2.42058e-12 -4.67076

-21.7974 -13.8464 -4.26326e-13
-13.8464 29.3982 3.12816e-12
-4.26326e-13 3.12816e-12 -4.84455

6.91251 27.7992 -8.83619e-12
27.7992 72.9118 -2.58874e-12
-8.83619e-12 -2.58874e-12 -14.3554

-45.7252 -4.03147 1.883e-12
-4.03147 14.0143 -5.97211e-12
1.883e-12 -5.97211e-12 -19.9206

0.871945 30.9567 1.64135e-12
30.9567 7.50016 2.50466e-12
1.64135e-12 2.50466e-12 -6.08735

9.69619 14.8666 -2.50377e-12
14.8666 -36.3447 -4.07674e-13
-2.50377e-12 -4.07674e-13 -10.9628

9.90471 -15.8906 -5.45608e-12
-15.8906 -39.319 4.64221e-13
-5.45608e-12 4.64221e-13 -13.0415

85.4157 -24.1594 3.7043e-12
-24.1594 7.58644 -9.65391e-12
3.7043e-12 -9.65391e-12 -12.9974

-23.1536 -21.2182 -9.98313e-13
-21.2182 10.4887 2.18137e-12
-9.98313e-13 2.18137e-12 -6.15665

-16.5636 26.6365 -4.61942e-12
26.6365 1.77365 -2.53427e-12
-4.61942e-12 -2.53427e-12 -6.57846

-26.1389 -21.6777 -1.20792e-12
-21.6777 -5.35367 -3.9209e-12
-1.20792e-12 -3.9209e-12 -23.8117

-41.5011 14.0726 6.02614e-12
14.0726 -3.55197 2.45374e-12
6.02614e-12 2.45374e-12 -63.9775

-0.892762 9.42436 6.18143e-12
9.42436 -44.1563 -4.14691e-12
6.18143e-12 -4.14691e-12 -64.0787

-20.3371 32.6289 4.60639e-12
32.6289 -23.1499 8.63028e-12
4.60639e-12 8.63028e-12 -24.2748

-11.3879 25.9414 2.78e-13
25.9414 22.5493 1.05397e-13
2.78e-13 1.05397e-13 -5.92527

16.0007 26.5995 1.5703e-12
26.5995 -17.2487 -1.77044e-13
1.5703e-12 -1.77044e-13 -6.54182

30.3346 45.1003 -3.45561e-12
45.1003 47.4271 -4.73695e-15
-3.45561e-12 -4.73695e-15 -15.2291

-44.7852 -11.3162 5.32182e-12
-11.3162 -1.80425 -1.34411e-13
5.32182e-12 -1.34411e-13 -61.5397

-8.27882 -3.42382 2.22449e-11
-3.42382 -12.7217 -3.13112e-12
2.22449e-11 -3.13112e-12 -77.0434

-14.6535 -0.208521 3.37656e-13
-0.208521 -6.40363 -3.19352e-12
3.37656e-13 -3.19352e-12 -77.1873

27.5549 -53.7146 -6.6566e-12
-53.7146 70.9587 -8.88178e-13
-6.6566e-12 -8.88178e-13 -24.4452

-11.6627 -11.5729 3.12343e-13
-11.5729 -16.167 3.74101e-12
3.12343e-13 3.74101e-12 -37.3428

-32.5356 8.7918 -9.42268e-12
8.7918 -9.39793 1.61027e-12
-9.42268e-12 1.61027e-12 -49.426

18.2128 -26.1386 -2.16656e-12
-26.1386 -19.5026 -2.45137e-13
-2.16656e-12 -2.45137e-13 -6.49882

-39.3382 1.0083 -7.5957e-12
1.0083 11.9524 -6.90233e-12
-7.5957e-12 -6.90233e-12 -19.6774

-30.1325 -20.221 1.73846e-12
-20.221 6.29005 -1.56319e-12
1.73846e-12 -1.56319e-12 -7.20343

10.5117 6.24083 -2.38121e-12
6.24083 -52.2673 2.75557e-13
-2.38121e-12 2.75557e-13 -9.61988

-49.6966 15.5597 -2.21389e-12
15.5597 10.141 1.73787e-12
-2.21389e-12 1.73787e-12 -13.502

-40.1901 7.17462 -1.21532e-13
7.17462 16.5024 -3.28152e-12
-1.21532e-13 -3.28152e-12 -13.7448

16.3661 20.3454 2.23466e-12
20.3454 -25.7815 1.77843e-12
2.23466e-12 1.77843e-12 -7.5951

-9.14936 -3.11238 -3.47167e-12
-3.11238 108.148 1.68162e-13
-3.47167e-12 1.68162e-13 -23.156

-3.31308 -27.56 -6.4837e-12
-27.56 -3.62109 -2.51236e-12
-6.4837e-12 -2.51236e-12 -5.82194

-7.31805 -26.0558 2.62013e-12
-26.0558 -14.0492 7.12289e-12
2.62013e-12 7.12289e-12 -9.79106

-14.1651 -31.4099 1.85067e-12
-31.4099 -21.7268 -3.18708e-13
1.85067e-12 -3.18708e-13 -12.7278

90.517 32.6919 -2.6598e-12
32.6919 20.8181 -7.93351e-12
-2.6598e-12 -7.93351e-12 -16.56

-23.0636 -20.0694 3.91746e-12
-20.0694 -17.3461 -5.11176e-12
3.91746e-12 -5.11176e-12 -44.3244

72.465 54.2375 -6.61515e-12
54.2375 91.4459 -1.81425e-12
-6.61515e-12 -1.81425e-12 -6.20888

-36.1311 -21.3893 -1.4763e-12
-21.3893 -6.77967 0
-1.4763e-12 0 -13.0141

14.9989 14.616 -1.73017e-12
14.616 -37.6636 1.54025e-12
-1.73017e-12 1.54025e-12 -8.16287

44.4693 -14.5393 -1.32398e-12
-14.5393 -8.25807 5.91334e-12
-1.32398e-12 5.91334e-12 -4.42687

-21.1814 23.9909 3.64094e-12
23.9909 4.94409 8.21861e-13
3.64094e-12 8.21861e-13 -5.96669

17.3326 20.3802 2.27907e-12
20.3802 -26.7306 -7.87577e-12
2.27907e-12 -7.87577e-12 -6.94014

-51.0218 11.3735 -5.40464e-12
11.3735 7.69127 1.95873e-12
-5.40464e-12 1.95873e-12 -29.9257

-7.27073 -31.5066 -6.64357e-13
-31.5066 -12.7971 -4.3577e-12
-6.64357e-13 -4.3577e-12 -8.10424

2.78865 19.7663 -1.65793e-14
19.7663 -45.9267 5.47414e-12
-1.65793e-14 5.47414e-12 -29.9176

-24.6139 -18.4011 8.62421e-13
-18.4011 17.7944 -2.49578e-12
8.62421e-13 -2.49578e-12 -5.47293

-42.2418 4.27352 -5.07673e-14
4.27352 17.8273 -8.78704e-13
-5.07673e-14 -8.78704e-13 -12.7011

-4.09011 9.90403 5.20502e-12
9.90403 -40.1825 -4.403e-12
5.20502e-12 -4.403e-12 -47.4385

-2.68342 -8.49407 -4.7932e-13
-8.49407 -38.218 6.83009e-13
-4.7932e-13 6.83009e-13 -47.2942

81.5308 18.479 -1.75267e-13
18.479 1.66481 -5.78145e-12
-1.75267e-13 -5.78145e-12 -14.488

3.88565 7.94661 1.15582e-12
7.94661 -45.0783 1.61204e-13
1.15582e-12 1.61204e-13 -10.9956

35.7249 7.72456 -1.72159e-12
7.72456 184.232 -1.7053e-12
-1.72159e-12 -1.7053e-12 -9.86763

39.9927 -11.3656 1.83679e-12
-11.3656 190.024 -3.13112e-12
1.83679e-12 -3.13112e-12 -7.50285

53.5978 56.3362 3.61429e-12
56.3362 158.94 -9.18969e-13
3.61429e-12 -9.18969e-13 -11.6096

1.70417 -28.883 -5.73763e-13
-28.883 -24.6333 -7.01069e-13
-5.73763e-13 -7.01069e-13 -11.938

15.9507 -49.1079 1.89715e-12
-49.1079 99.1942 2.73085e-12
1.89715e-12 2.73085e-12 -21.7499

54.3442 -55.8786 -4.47879e-12
-55.8786 149.668 -1.80478e-12
-4.47879e-12 -1.80478e-12 -13.7719

-2.16236 26.1602 -9.07718e-13
26.1602 17.5315 -3.34666e-12
-9.07718e-13 -3.34666e-12 -3.99684

134.655 73.7489 -1.73846e-12
73.7489 84.8183 4.47642e-12
-1.73846e-12 4.47642e-12 -10.2705

-18.6767 13.0168 -3.34754e-12
13.0168 -3.88863 4.46813e-12
-3.34754e-12 4.46813e-12 -26.7063

3.73404 0.0407146 5.10051e-12
0.0407146 -26.1276 -1.68251e-12
5.10051e-12 -1.68251e-12 -26.7095

143.802 -73.0362 3.20218e-12
-73.0362 85.1448 8.33703e-13
3.20218e-12 8.33703e-13 -8.31093

-21.345 -23.37 -9.38805e-13
-23.37 12.218 3.87009e-12
-9.38805e-13 3.87009e-12 -6.48386

89.1416 34.6679 -4.39352e-12
34.6679 41.2701 3.60837e-12
-4.39352e-12 3.60837e-12 -11.6071

71.9884 63.4056 4.99748e-13
63.4056 149.401 8.90547e-13
4.99748e-13 8.90547e-13 -9.78511

26.0696 21.5917 -5.26157e-12
21.5917 99.9077 3.96246e-12
-5.26157e-12 3.96246e-12 -13.0894

73.6717 -65.8314 5.44276e-12
-65.8314 150.849 1.8711e-12
5.44276e-12 1.8711e-12 -9.51561

25.6736 -12.3601 9.94168e-13
-12.3601 104.779 4.12588e-12
9.94168e-13 4.12588e-12 -12.4887

-28.5966 6.82496 3.59512e-12
6.82496 3.10059 1.13725e-11
3.59512e-12 1.13725e-11 -37.7645

37.6307 -45.8893 -6.11777e-12
-45.8893 49.538 1.88531e-12
-6.11777e-12 1.88531e-12 -15.5714

14.3496 47.451 1.05397e-13
47.451 94.6615 -3.30639e-12
1.05397e-13 -3.30639e-12 -22.2504

173.014 37.8572 -4.04536e-12
37.8572 47.876 -1.83616e-12
-4.04536e-12 -1.83616e-12 -9.63302

7.00364 -29.2177 4.27332e-12
-29.2177 -14.3251 1.77428e-12
4.27332e-12 1.77428e-12 -7.14452

-38.3284 12.8663 2.75816e-12
12.8663 6.42046 -1.91254e-13
2.75816e-12 -1.91254e-13 -15.2569

88.2977 -38.0458 1.46846e-12
-38.0458 34.0526 1.0516e-12
1.46846e-12 1.0516e-12 -14.1577

6.02692 -28.7351 -6.69094e-13
-28.7351 -16.1352 -4.43823e-12
-6.69094e-13 -4.43823e-12 -8.0166

168.884 -36.2905 -8.28967e-13
-36.2905 34.7813 -7.09299e-12
-8.28967e-13 -7.09299e-12 -13.3964

-5.7124 -28.2515 5.99816e-13
-28.2515 -14.4398 -3.09678e-13
5.99816e-13 -3.09678e-13 -9.29195

-17.7508 -25.2367 8.46434e-13
-25.2367 12.0509 3.97489e-12
8.46434e-13 3.97489e-12 -5.9281

118.622 69.3685 3.67587e-12
69.3685 95.9885 3.69245e-12
3.67587e-12 3.69245e-12 -11.5091

29.3091 -22.8923 5.83356e-12
-22.8923 97.5733 7.24043e-12
5.83356e-12 7.24043e-12 -14.3998

117.706 -71.5974 -1.69583e-12
-71.5974 93.4522 -5.35039e-12
-1.69583e-12 -5.35039e-12 -12.525

22.1625 50.654 -3.55271e-12
50.654 73.5845 -5.50907e-12
-3.55271e-12 -5.50907e-12 -24.8318

-1.53438 -30.1422 -9.33239e-12
-30.1422 -6.53863 2.85579e-12
-9.33239e-12 2.85579e-12 -6.98875

-7.02763 -14.6064 2.50762e-12
-14.6064 -21.8688 2.56536e-12
2.50762e-12 2.56536e-12 -32.5383

-11.8647 11.066 -1.70804e-12
11.066 -16.389 6.93963e-13
-1.70804e-12 6.93963e-13 -77.6093

-26.1053 -5.14922 -6.56319e-12
-5.14922 -6.37293 4.94897e-12
-6.56319e-12 4.94897e-12 -77.444

-38.8512 13.0531 1.23209e-12
13.0531 13.7116 -5.32315e-13
1.23209e-12 -5.32315e-13 -10.2188

-14.4471 -10.6415 -9.51498e-12
-10.6415 -17.2746 -4.26474e-12
-9.51498e-12 -4.26474e-12 -78.5701

-25.8395 4.08349 -5.43861e-12
4.08349 -5.9 1.42606e-11
-5.43861e-12 1.42606e-11 -78.7119

-3.62382 7.41481 1.29153e-11
7.41481 -27.7946 -4.60446e-12
1.29153e-11 -4.60446e-12 -77.8014

-43.8726 -12.0861 -9.39049e-12
-12.0861 2.90894 -8.22364e-12
-9.39049e-12 -8.22364e-12 -67.9977

11.916 -30.4115 8.17598e-12
-30.4115 75.9825 -6.21251e-12
8.17598e-12 -6.21251e-12 -14.7384

0.519054 -12.9422 -3.25192e-12
-12.9422 -39.8979 5.16476e-12
-3.25192e-12 5.16476e-12 -45.1716

-16.3107 -34.3371 -5.97152e-13
-34.3371 -22.0182 2.99479e-12
-5.97152e-13 2.99479e-12 -23.5364

-2.41568 -18.1349 8.82849e-13
-18.1349 -29.825 2.96504e-12
8.82849e-13 2.96504e-12 -33.5484

12.7075 15.4233 2.2086e-12
15.4233 -37.6291 -1.93564e-12
2.2086e-12 -1.93564e-12 -9.60691

-46.7986 9.84098 -1.716e-12
9.84098 8.85595 -7.66809e-12
-1.716e-12 -7.66809e-12 -69.9884

3.45377 19.1822 -1.02798e-11
19.1822 -41.3749 4.38797e-12
-1.02798e-11 4.38797e-12 -70.1039

1.4692 11.2807 -3.17405e-12
11.2807 -23.9077 8.44983e-12
-3.17405e-12 8.44983e-12 -31.7927

109.143 -15.3093 -3.54561e-12
-15.3093 -12.5865 -5.42677e-12
-3.54561e-12 -5.42677e-12 -25.0927

-14.2889 24.9066 -9.40877e-13
24.9066 10.3608 -1.35773e-12
-9.40877e-13 -1.35773e-12 -5.79928

76.4195 -61.2546 -3.95062e-12
-61.2546 37.2306 -7.36596e-13
-3.95062e-12 -7.36596e-13 -22.4564

75.9423 -57.3694 -3.49113e-12
-57.3694 99.0194 1.4803e-12
-3.49113e-12 1.4803e-12 -5.62685

117.959 -36.4851 1.49925e-12
-36.4851 40.4847 -8.12979e-12
1.49925e-12 -8.12979e-12 -7.4431

-50.9958 -5.14665 -4.1848e-12
-5.14665 3.33187 1.35373e-12
-4.1848e-12 1.35373e-12 -60.5186

-50.3612 2.88438 3.43932e-12
2.88438 3.1265 4.91932e-12
3.43932e-12 4.91932e-12 -59.9924

-11.9485 -24.399 -4.83584e-12
-24.399 -34.9225 4.61238e-12
-4.83584e-12 4.61238e-12 -59.0289

-8.97206 -21.7096 4.94482e-12
-21.7096 -37.8004 -3.09856e-12
4.94482e-12 -3.09856e-12 -59.3377

-14.6691 26.0747 -6.77088e-13
26.0747 -32.9518 -1.45387e-12
-6.77088e-13 -1.45387e-12 -60.6096

-18.1138 3.09035 4.38212e-12
3.09035 -13.133 6.50628e-12
4.38212e-12 6.50628e-12 -75.2996

-9.9222 -20.4607 -1.44507e-12
-20.4607 -32.5752 -2.04259e-12
-1.44507e-12 -2.04259e-12 -56.6044

-26.5852 -18.525 6.37934e-12
-18.525 -14.1644 1.32353e-12
6.37934e-12 1.32353e-12 -71.1047

-15.4397 2.42736 -1.06715e-12
2.42736 -12.8228 -3.53125e-12
-1.06715e-12 -3.53125e-12 -77.688

-6.0147 -20.4785 -6.22206e-12
-20.4785 -41.3907 1.58481e-12
-6.22206e-12 1.58481e-12 -60.3662

-6.74227 20.907 -1.51745e-12
20.907 -40.0502 1.13391e-12
-1.51745e-12 1.13391e-12 -59.8784

-14.2797 -3.44882 -1.8104e-12
-3.44882 -11.3637 3.03461e-14
-1.8104e-12 3.03461e-14 -76.7045

-11.2368 -3.10777 2.686e-12
-3.10777 -17.646 2.0797e-11
2.686e-12 2.0797e-11 -73.8743

-24.1461 12.0823 2.98043e-12
12.0823 -13.3705 8.64471e-12
2.98043e-12 8.64471e-12 -69.8036

-22.0313 26.8667 -5.61329e-13
26.8667 -26.2075 1.16244e-11
-5.61329e-13 1.16244e-11 -57.4487

VECTORS fluid_flux_TPM float
-8.70792e-05 3.09798e-05 -6.00326e-21
3.55405e-06 6.87157e-06 8.28732e-21
-1.27671e-05 -1.02092e-05 -1.27884e-20
-4.16386e-06 4.24725e-06 7.84197e-21
2.26718e-05 -6.30361e-06 -1.95711e-20
2.75306e-06 -1.58781e-05 -1.26993e-20
-8.56573e-05 -3.10441e-05 -6.42042e-21
-1.38705e-05 -1.04501e-05 -4.15366e-21
2.20861e-05 9.44078e-07 -1.24716e-20
1.13657e-05 -3.90188e-06 -3.0656e-20
5.45104e-05 1.24631e-05 -4.3868e-21
2.34293e-06 -1.71668e-05 -2.15672e-21
1.35898e-05 1.12357e-05 7.60123e-21
2.6581e-06 1.37628e-05 1.55933e-20
2.05486e-05 -2.94221e-06 -1.14778e-20
-1.63064e-05 -2.72472e-07 1.14096e-20
2.74943e-06 1.40766e-05 7.32446e-21
1.01654e-05 -2.38805e-06 -2.86006e-20
9.88274e-06 1.7195e-05 -2.72546e-22
-1.48249e-05 1.8825e-06 2.02287e-20
-3.59528e-06 -2.12702e-05 1.04924e-21
3.40486e-05 5.9325e-05 2.53e-20
1.56722e-05 1.62874e-06 -2.16102e-20
1.12094e-05 -1.12634e-05 -6.9646e-21
-1.50545e-05 -3.32719e-06 2.34468e-21
-6.75982e-07 -1.11132e-05 -2.18245e-20
6.28002e-05 -4.9001e-06 -3.12048e-21
1.40437e-05 1.02326e-05 1.31562e-22
-2.51093e-05 -2.06102e-05 -2.46473e-21
4.90458e-05 -1.27949e-05 7.60216e-21
-1.65564e-05 -6.029e-06 6.57868e-22
5.52859e-06 -3.19855e-05 -7.72797e-21
4.75771e-05 -4.79687e-05 -8.17484e-21
-4.9157e-06 -4.11848e-05 6.23292e-22
-2.96291e-05 3.69495e-05 2.29341e-20
-3.81891e-05 -1.63703e-05 1.82529e-20
3.26541e-05 4.3151e-05 2.74613e-20
-4.46733e-05 -8.71327e-06 2.04124e-21
1.43519e-05 -1.10643e-05 -1.35166e-20
4.63947e-05 5.00334e-05 6.62747e-21
3.20781e-05 -1.39994e-05 5.01251e-21
3.35905e-05 -4.22812e-05 -7.64613e-21
-1.98672e-05 -5.03045e-05 -4.87791e-21
-1.58732e-05 6.34707e-06 8.85151e-21
3.04767e-05 -2.9267e-05 -5.62158e-21
-3.02849e-05 1.09732e-05 7.20168e-21
-4.04378e-06 -2.03389e-05 -5.50517e-21
7.87373e-06 2.01802e-05 -1.0159e-21
-1.63172e-05 5.91881e-06 1.75008e-20
-1.77913e-05 2.86808e-05 1.21569e-20
3.23571e-05 1.52663e-05 -7.10012e-21
2.93187e-05 -1.00593e-05 -6.61991e-21
-1.5643e-05 1.57363e-05 1.51434e-20
-2.35046e-05 -2.06582e-05 6.99102e-22
-2.11078e-05 -5.12512e-06 -1.00526e-20
-4.47204e-05 2.70339e-05 1.88559e-20
-2.93287e-05 -3.79664e-05 6.29096e-21
6.35358e-06 -3.05801e-05 -6.97491e-21
-4.76372e-05 6.47378e-06 -8.01901e-21
6.06467e-06 1.36759e-05 8.18547e-22
-5.56822e-06 -8.16122e-06 -5.83773e-21
-6.57342e-06 -1.79168e-05 -1.0946e-20
5.7053e-05 2.48198e-05 -4.1952e-21
9.22927e-06 1.8117e-05 1.40678e-20
1.22783e-05 -1.44232e-05 4.28492e-21
-1.63834e-06 -2.07215e-05 4.68297e-21
4.61433e-06 -8.7922e-06 -4.98615e-21
-1.00752e-05 -5.55661e-06 3.2766e-21
-1.05865e-05 1.19112e-05 2.97138e-20
2.55417e-06 -4.08635e-06 -2.52861e-20
-1.50214e-05 -1.58194e-05 1.05204e-20
-2.13331e-05 5.1587e-06 4.25643e-21
-3.55109e-06 3.44282e-05 7.02705e-21
-1.78452e-05 1.0695e-05 5.83594e-21
-9.05703e-06 1.45925e-05 2.80418e-20
-6.02611e-05 7.68101e-06 3.53338e-21
7.8067e-06 -2.16493e-05 3.84988e-21
-1.88522e-05 -8.88672e-06 -7.32567e-21
1.93063e-06 1.16065e-05 8.13875e-21
2.62603e-05 5.08175e-06 7.23985e-21
3.41158e-05 -2.89295e-05 -7.01837e-22
2.21141e-05 2.05255e-05 1.98612e-20
1.18904e-05 -2.81828e-06 -6.07663e-21
-3.21043e-05 2.40305e-05 7.81558e-21
3.78454e-05 4.8384e-06 -7.9702e-21
-4.97257e-06 4.9338e-05 2.40136e-21
-1.73836e-06 -1.68318e-05 -8.81906e-21
1.80967e-05 9.9397e-06 -1.19508e-20
2.92719e-05 3.02383e-05 9.81525e-21
5.49337e-05 3.79558e-05 1.17643e-20
-5.32285e-06 3.07257e-05 3.42516e-21
5.90843e-05 -3.54582e-05 -2.17115e-20
-2.70849e-05 5.33312e-06 -1.07708e-20
1.78125e-05 1.09855e-05 -1.85279e-20
-2.95959e-05 9.88845e-06 5.26537e-21
1.66275e-05 2.8477e-05 -1.12222e-20
1.01534e-05 -4.43178e-05 -9.90165e-21
1.91243e-06 1.16033e-05 4.28584e-21
-1.47787e-05 -1.75943e-05 1.35684e-20
3.0651e-06 1.74483e-05 3.10714e-21
2.63663e-05 5.24951e-06 -4.60418e-21
-1.54193e-05 3.31603e-05 1.18716e-20
4.0489e-05 -1.33123e-05 4.15122e-21
-3.76733e-06 7.44377e-06 7.72465e-21
9.93779e-06 5.89028e-06 -8.49012e-21
-2.27705e-06 -1.13075e-05 -2.36868e-20
3.2161e-06 -1.92234e-05 -5.71132e-21
1.74428e-05 3.8863e-06 -2.07829e-20
-7.92429e-06 4.09092e-05 -1.87174e-21
-9.7909e-06 2.47464e-07 2.53206e-20
9.30437e-06 1.18677e-05 6.42708e-21
-2.17322e-06 -4.16493e-05 -2.95041e-21
4.19574e-05 1.28451e-05 -1.4738e-20
4.41573e-06 -7.44185e-06 -3.23356e-21
-1.11284e-05 -3.5484e-06 4.98282e-21
-2.9281e-05 -1.24672e-05 -5.59034e-21
1.57799e-05 4.10865e-05 4.94749e-22
-4.34183e-05 -1.55502e-05 1.695e-21
1.59944e-05 -4.10629e-05 -2.21232e-20
-3.69386e-06 -3.18713e-05 1.47428e-21
2.18054e-05 6.51182e-07 -1.54972e-20
-7.16059e-06 1.83694e-05 1.45157e-21
-1.60892e-06 3.96354e-06 -1.12947e-20
-3.68073e-06 -1.65141e-05 4.7239e-21
5.22198e-06 -8.28955e-06 -2.35289e-20
9.34587e-06 1.58399e-05 1.80908e-20
3.30518e-05 1.06369e-05 -2.91811e-20
8.60238e-06 -7.44671e-06 -8.56865e-21
-8.25772e-06 -4.50902e-05 -9.45904e-21
2.55128e-05 -1.87907e-05 4.89276e-21
4.97075e-06 2.77304e-05 1.18701e-20
-2.81199e-06 -2.83741e-06 -1.03897e-20
-8.61362e-06 -8.31327e-06 -2.85945e-21
-4.76946e-06 4.41728e-08 1.38153e-21
-2.28375e-05 2.85505e-05 1.15393e-20
1.87351e-05 -3.73197e-05 -7.66583e-21
-2.65384e-05 4.26486e-05 1.33362e-21
-1.63472e-05 9.52109e-06 1.19984e-20
2.52388e-06 1.21806e-05 -1.44158e-20
-2.29529e-05 -3.49375e-05 7.07647e-21
1.39147e-05 3.34143e-05 9.83465e-22
1.74814e-05 9.35494e-06 -1.49318e-20
2.27765e-05 -8.50966e-06 -5.65411e-22
-1.25153e-06 -1.12484e-05 6.10573e-21
-3.38593e-05 -3.15096e-05 5.16775e-21
-2.74715e-06 1.12863e-05 1.01578e-20
1.72206e-05 1.01564e-05 -1.64506e-20
1.88587e-05 -8.80752e-06 -2.29872e-20
8.23056e-06 -1.4323e-05 -1.0504e-20
2.43194e-05 -1.07786e-05 -1.20814e-20
1.89804e-05 -8.98408e-06 -1.32468e-20
4.63346e-06 2.05558e-07 -8.58382e-21
2.57007e-05 2.01897e-05 1.68892e-21
-2.73732e-06 -1.70042e-05 -4.05452e-21
-1.0464e-05 -4.45013e-06 -3.16625e-21
1.12427e-06 -3.88414e-06 -1.11219e-20
-3.15057e-06 1.58231e-05 4.57082e-21
-3.48301e-05 2.76396e-06 7.70736e-21
-1.21026e-05 -3.32071e-05 7.97049e-21
-7.86707e-06 9.76419e-06 2.14353e-20
1.35445e-05 1.66148e-05 7.27594e-21
2.65273e-05 -1.87155e-05 -4.57597e-21
-3.67352e-05 -2.03198e-05 -1.45822e-21
1.73762e-05 -2.74647e-05 -1.12159e-20
2.27686e-05 -2.71742e-05 -5.83774e-21
-1.09278e-05 3.77928e-06 1.99726e-21
-1.97984e-05 -2.8796e-05 1.68014e-21
-3.48264e-05 -5.78263e-06 -1.04625e-20
-3.84621e-06 -3.16938e-05 -4.72035e-22
1.54238e-05 -3.165e-05 -2.04397e-20
-9.09293e-06 -2.61607e-05 5.26353e-21
4.57425e-06 3.1357e-05 -3.99782e-21
-1.57278e-05 -2.84783e-05 3.50943e-21
2.93461e-06 -1.62678e-05 -2.21917e-21
-2.47015e-05 1.82321e-05 1.24353e-23
-1.50083e-05 -1.20933e-05 4.68572e-21
-2.73125e-05 -5.16458e-06 -7.66703e-21
1.56442e-05 -9.16766e-06 -2.0634e-20
-4.29999e-06 2.39171e-05 7.41561e-22
1.22141e-05 -9.31025e-06 -1.11477e-20
-2.95406e-05 -1.31442e-05 1.79626e-21
-8.81838e-06 -7.44678e-06 5.66524e-21
9.06828e-06 7.52934e-06 -6.1888e-21
2.13937e-05 2.86561e-05 -5.00707e-21
-1.74828e-05 -1.07933e-05 -5.23686e-21
-3.24564e-05 -7.49903e-07 2.81398e-21
-1.63124e-05 -5.0085e-06 -3.06347e-21
-4.57152e-06 -1.65584e-05 5.5448e-22
1.76581e-05 2.12076e-05 -3.73561e-21
-1.09408e-05 5.86584e-06 6.28037e-21
6.35166e-07 -2.05247e-05 -1.29145e-20
-4.18752e-05 1.08345e-05 6.43618e-21
2.48221e-05 2.02149e-05 -9.67823e-21
3.789e-06 3.27346e-05 -1.85172e-21
-2.42819e-06 3.79152e-06 1.2076e-20
-9.03717e-06 2.50814e-07 1.2786e-20
4.34837e-06 7.74825e-06 -9.53482e-21
-1.16764e-05 3.39663e-06 3.29571e-21
-2.07043e-06 -3.77917e-06 9.48748e-23
1.65751e-06 2.0729e-05 1.58676e-20
4.46554e-06 4.48933e-07 2.10639e-21
-1.95085e-05 4.74951e-06 2.30948e-20
-1.72718e-05 1.93286e-05 4.86428e-21
-3.10256e-06 1.1561e-05 1.16306e-20
-2.91719e-05 1.83664e-05 1.16082e-21
-9.32964e-06 8.96576e-06 4.0903e-21
1.72851e-05 -1.15965e-05 -2.37893e-20
3.65474e-05 -3.55916e-06 8.5468e-21
-2.11095e-05 1.12807e-05 9.40934e-21
2.22949e-06 4.49149e-06 -3.61048e-20
2.17427e-05 -4.33817e-06 -6.79211e-21
-1.72531e-05 1.03376e-05 1.8896e-20
-9.85685e-06 5.53084e-06 2.58237e-21
1.18135e-05 3.73726e-06 -6.09453e-21
2.18463e-05 -1.34505e-05 -8.17544e-21
-1.73541e-05 9.94132e-06 2.64816e-21
-2.49989e-05 -5.29503e-06 1.13051e-21
-1.67369e-05 -4.35579e-06 -1.11877e-20
9.8612e-06 6.27605e-09 -1.44343e-20
1.01585e-05 1.94994e-07 6.72904e-21
4.38434e-06 8.30466e-06 3.86446e-21
4.82244e-06 -8.78453e-06 -1.92389e-21
-5.00276e-06 8.40728e-06 1.35997e-20
-5.2587e-06 -8.64472e-06 -9.21256e-21
9.89583e-06 -7.39686e-06 -2.23999e-20
-2.02973e-05 3.23036e-06 -1.34544e-21
-2.003e-05 -3.27909e-06 -2.05816e-21
-1.28159e-05 1.58528e-05 1.07075e-20
-1.28956e-05 -1.5907e-05 -2.36348e-21
7.47474e-06 -1.98141e-05 -2.51781e-20
7.19489e-06 1.97344e-05 -1.5513e-20
1.55562e-06 2.58454e-05 -1.83109e-22
1.12234e-05 -3.13191e-06 -1.43412e-20
2.3562e-06 -3.86071e-06 -1.29664e-20
-2.1379e-05 1.41959e-06 3.37181e-21
7.66542e-06 -1.94838e-05 -3.07485e-20
7.26227e-06 1.96322e-05 -1.62005e-20
4.76151e-06 -5.25907e-08 -3.88539e-20
8.95457e-06 2.43656e-05 2.50019e-21
-2.23888e-06 -4.01026e-06 9.30108e-22
2.31405e-06 -1.12999e-05 -4.09758e-21
-2.23964e-05 -1.21331e-05 -5.45683e-22
-2.13265e-05 -1.14776e-05 -4.16184e-21
-2.18591e-05 1.36079e-05 -1.1896e-21
3.24607e-06 -1.2269e-05 -2.34674e-20
-1.5629e-06 3.37681e-06 1.76603e-20
-5.86373e-07 -2.55297e-05 -1.00857e-20
-7.70817e-06 -2.43853e-05 1.17791e-20
3.26524e-05 3.03143e-05 -3.58614e-21
3.53973e-05 -1.81223e-06 7.71946e-21
-1.26918e-05 -3.62693e-06 7.68917e-21
-2.28564e-05 -4.13213e-05 -1.22457e-20
8.29139e-06 1.37267e-05 -1.03431e-20
-2.51968e-05 3.02866e-06 8.94155e-21
2.00339e-05 5.77743e-06 -1.07387e-20
-4.52617e-06 -3.27079e-08 1.06393e-20
-4.65824e-06 -8.39989e-06 1.06592e-21
-7.06109e-06 -3.92745e-05 7.37356e-21
-9.69355e-06 -8.36948e-08 2.78427e-21
-4.85984e-05 -1.81286e-06 -1.03855e-20
1.72817e-05 -1.90753e-05 -7.56911e-21
2.42552e-06 3.99294e-06 1.78221e-20
-1.20552e-07 -1.74868e-05 5.59327e-22
-9.80296e-06 2.40465e-05 7.32658e-21
-4.36551e-06 8.61418e-06 3.79168e-21
2.05242e-05 -1.35847e-05 -8.3528e-21
-3.76023e-05 -1.35324e-05 1.51152e-20
-1.52418e-05 -2.03342e-05 4.65355e-22
4.96927e-06 8.37616e-06 -2.67416e-20
1.66056e-05 5.15246e-06 -9.40629e-21
-4.75644e-06 -7.32687e-06 -2.60024e-21
1.97659e-05 3.54192e-06 -1.75087e-20
1.81603e-05 -9.81051e-06 -8.88729e-21
-3.4827e-07 2.71314e-05 1.10895e-20
8.30722e-06 -1.36453e-05 -2.80367e-21
4.87245e-05 2.19686e-06 8.94261e-23
-4.22893e-05 1.14354e-05 2.64055e-22
2.28243e-05 1.15383e-05 -9.40175e-21
-6.44265e-06 -1.71521e-05 -1.67347e-20
-1.53258e-05 -8.60455e-06 -1.33426e-20
2.87408e-05 -2.10151e-07 -1.69775e-20
-6.90906e-07 -2.42172e-05 -6.96794e-21
-1.25974e-05 -1.08571e-05 4.73604e-21
1.02075e-05 -2.34616e-05 -1.82563e-20
-4.95877e-07 2.05231e-05 3.03559e-21
7.90493e-06 2.60257e-05 -2.95495e-21
1.72404e-05 -9.86851e-06 -1.10789e-20
-1.89175e-05 1.92676e-05 1.14196e-20
1.6501e-05 1.99968e-05 -1.79686e-21
-6.21308e-05 1.59974e-05 1.85552e-20
-1.00936e-05 2.59754e-05 9.83376e-21
1.24996e-05 -1.52241e-05 6.19698e-21
-7.01779e-06 -1.8369e-05 5.30751e-21
-1.18347e-05 4.49836e-06 7.72161e-21
-2.58518e-05 -7.0346e-06 8.18576e-21
-6.37595e-06 3.87969e-05 1.05344e-20
-1.25858e-05 1.18838e-05 7.99689e-21
2.0743e-05 -4.46843e-06 -1.22524e-20
-6.86118e-06 -2.57526e-05 7.54333e-21
-1.48446e-05 2.38524e-05 1.53877e-20
-2.17548e-05 1.25451e-05 -4.37828e-21
-2.05363e-05 -1.50313e-05 4.39043e-21
1.79999e-05 -2.06224e-05 -1.44e-20
-2.74864e-05 -1.45391e-06 2.62785e-21
1.23474e-05 -4.07426e-05 5.23807e-21
1.93548e-05 -1.88823e-05 -6.52653e-21
2.4692e-05 4.30106e-05 1.12231e-21
1.96817e-06 1.98352e-05 1.423e-20
2.95647e-06 -2.538e-05 -5.4797e-21
-4.15706e-05 4.68859e-05 2.34286e-20
-1.26815e-05 -2.43722e-05 8.02294e-21
1.63407e-05 -6.41014e-06 -1.34541e-20
-2.40686e-06 2.57306e-05 -7.11314e-21
1.28622e-05 -1.18077e-05 -3.33105e-20
1.3858e-05 2.42734e-05 1.10995e-20
1.7202e-05 -1.39825e-06 -2.99154e-20
2.20839e-05 -6.31114e-05 1.34775e-20
-5.8666e-06 -1.28386e-05 -1.15873e-20
-2.31471e-05 1.0071e-05 1.79049e-20
-1.99885e-05 1.86899e-05 7.48031e-21
2.15772e-05 1.4544e-05 -8.61443e-21
1.86425e-05 -1.07393e-05 -1.04107e-20
1.49279e-05 1.25736e-05 -1.24379e-20
-5.41943e-06 4.53322e-08 1.71858e-20
1.53786e-05 -2.30497e-05 -1.87832e-20
-1.69629e-05 -2.03763e-05 1.32482e-22
2.25252e-05 9.75797e-06 -1.80347e-20
1.2786e-05 -1.19707e-05 -2.56126e-20
9.53844e-06 -2.48115e-05 -1.76257e-20
1.66323e-05 -6.92186e-06 -2.83059e-20
-1.57802e-05 -7.53272e-06 -3.13654e-21
1.29482e-06 -2.62618e-05 -2.33346e-21
-2.60648e-05 4.466e-06 1.67529e-20
2.38657e-06 2.45033e-05 -2.75928e-20
2.05516e-05 6.61691e-06 -1.20047e-20
-2.16856e-05 -1.06848e-05 5.43575e-21
-8.96249e-06 2.55688e-05 9.64276e-21
-1.49283e-06 -2.41491e-05 -1.03416e-20
1.94356e-05 1.18187e-05 -9.44723e-21
-1.7659e-06 1.80561e-05 1.84906e-20
-2.01065e-05 1.36807e-05 1.79728e-20
2.34727e-05 1.13966e-05 -1.83143e-21
-1.70881e-05 -9.97005e-06 -5.6143e-21
9.517e-08 -1.98034e-05 6.77026e-21
1.83527e-05 1.99518e-05 5.30658e-21
-2.21193e-05 -1.42814e-05 -8.38854e-22
4.82709e-05 -3.39251e-05 -1.05301e-20
1.78684e-05 -1.08051e-05 -9.10799e-21
8.98747e-06 4.3017e-05 -4.83487e-21
1.70069e-05 -1.36566e-05 -9.03137e-22
-1.9838e-05 8.68912e-05 4.70056e-21
-1.97281e-05 -8.64067e-05 -1.87538e-21
5.70904e-05 7.15954e-05 3.63434e-21
5.68289e-05 -7.12693e-05 1.17567e-21
9.04945e-05 -9.47179e-11 -2.92918e-21
-7.80699e-05 3.75837e-05 6.65203e-21
-7.73262e-05 -3.72276e-05 2.17793e-21
1.22145e-05 1.18003e-05 -1.17479e-20
2.93224e-05 2.18586e-05 -1.04971e-20
1.14299e-05 3.32765e-06 -1.51019e-20
1.88258e-05 9.73604e-06 -1.54823e-20
4.98137e-06 2.01381e-05 -6.60899e-22
-1.88022e-05 -1.49568e-05 3.39181e-21
1.70113e-05 -1.01981e-05 -3.96056e-21
1.98211e-05 1.45261e-05 -1.85237e-20
-3.16171e-06 2.43255e-05 2.55872e-21
2.9395e-05 -1.99619e-05 -1.26196e-20
3.78788e-06 -2.37024e-05 -1.68924e-21
2.19267e-05 5.21877e-06 -1.03849e-20
2.98479e-05 1.10084e-05 -8.74055e-21
1.4187e-05 1.41218e-05 6.99827e-21
1.5858e-05 6.58338e-06 -1.11095e-20
-1.84698e-05 1.09196e-05 2.27586e-20
-2.25277e-05 9.02261e-06 3.05869e-20
2.28939e-05 -1.1246e-05 -1.05701e-20
-1.82394e-05 -9.98256e-06 3.56309e-21
-1.85255e-05 -1.0566e-05 2.26161e-21
-3.43214e-07 -2.07354e-05 -7.51091e-21
-8.59784e-08 -2.11277e-05 2.89006e-21
-2.00955e-05 -1.00391e-06 1.68902e-20
2.66564e-05 -4.01266e-06 -1.32595e-20
1.80835e-05 1.13243e-05 -7.25807e-21
-1.78365e-05 1.09281e-05 1.84421e-20
-1.53377e-05 1.65984e-05 1.75049e-21
1.59968e-05 -1.37315e-05 -5.46364e-21
-1.10061e-05 1.7436e-05 1.20711e-20
-1.42026e-05 -1.48663e-05 1.47341e-22
-1.15334e-06 2.11775e-05 4.98828e-21
-1.28548e-06 2.09357e-05 -3.40999e-21
8.95878e-08 -1.98034e-05 -1.18058e-20
6.10123e-06 -1.97062e-05 -1.66177e-20
-1.71146e-05 -9.92021e-06 2.33134e-22
1.55622e-05 -5.48167e-06 -9.43753e-21
6.62234e-07 2.14443e-05 -1.05656e-20
3.00491e-07 1.84789e-05 6.63415e-21
-2.34194e-06 1.68311e-05 1.00942e-20
2.18741e-05 -5.51864e-06 -1.9378e-20
-1.6516e-05 5.36966e-06 5.16907e-22
4.15088e-06 2.14839e-05 -1.34426e-20
-3.25091e-05 1.28997e-05 1.73168e-20
9.74834e-06 4.16644e-05 -3.51721e-23
-1.70274e-05 4.56097e-06 6.75725e-21
1.96541e-05 -1.16122e-05 -9.54788e-21
9.44273e-07 2.0987e-05 7.96116e-22
-2.04495e-05 6.68918e-06 2.57808e-20
2.44054e-06 -1.62375e-05 1.59433e-21
1.81764e-06 -5.7919e-05 4.83335e-21
2.0033e-06 1.74591e-05 -3.94992e-21
-1.69358e-05 1.40009e-05 2.27574e-20
1.78259e-05 6.38686e-05 -6.28218e-21
4.56986e-05 3.76484e-05 -8.11577e-22
5.19841e-05 -3.52005e-05 -1.50252e-20
1.47924e-05 -1.01513e-05 1.99147e-21
-1.57609e-05 1.40159e-05 1.66722e-20
-2.01857e-05 -7.90864e-06 1.04743e-20
-1.96153e-05 -6.81193e-06 -2.7597e-21
5.91692e-05 -2.45822e-05 -9.74161e-21
5.73348e-05 2.38461e-05 -7.73131e-21
1.08775e-05 3.81164e-06 -2.45548e-20
7.6528e-07 1.95493e-05 4.24643e-21
7.8274e-08 1.95307e-05 4.55899e-21
-4.8305e-05 -3.68616e-05 1.68408e-21
1.14074e-05 -1.71451e-05 -7.50818e-21
1.17151e-05 1.24457e-05 -1.87565e-20
-2.13851e-05 -3.3906e-06 8.82694e-21
-1.40233e-05 1.71755e-05 1.1433e-20
-1.88595e-05 9.15374e-06 3.31241e-20
4.75667e-05 3.36396e-05 4.11697e-22
1.57822e-05 7.05075e-06 -6.1203e-21
-5.558e-06 1.99994e-05 1.74092e-20
-1.69522e-05 -1.17312e-05 -5.54033e-21
1.85328e-06 -2.05114e-05 -1.0005e-20
-8.93579e-06 -1.92376e-05 -4.28584e-21
-1.72227e-05 -1.17555e-05 1.23025e-21
1.05631e-05 -1.89064e-05 -1.9867e-20
1.41006e-05 -1.69629e-05 4.48168e-21
-2.43581e-06 -6.13398e-05 3.11622e-21
2.6139e-05 -4.10603e-05 5.69946e-22
1.74482e-06 -2.07536e-05 -9.12769e-21
1.7931e-05 1.13379e-05 -1.54623e-20
-1.44542e-05 -1.48824e-05 -6.17546e-21
-9.82578e-06 1.96798e-05 2.09957e-20
-5.03146e-06 2.09745e-05 7.13468e-21
1.66016e-05 1.42216e-05 4.23793e-21
6.04955e-06 -1.98309e-05 -1.1278e-20
-1.33847e-05 -4.02948e-05 1.86173e-21
-1.98542e-06 2.50029e-05 7.42482e-21
1.4769e-05 1.44327e-05 8.43009e-21
-1.29386e-05 -1.02014e-05 2.36165e-22
-1.34945e-05 1.05923e-05 1.30188e-20
4.42724e-05 -1.88827e-05 1.01075e-20
7.55132e-06 -1.33795e-05 -4.27675e-21
-8.30442e-06 -1.26077e-05 -4.56171e-21
2.1298e-05 6.35406e-06 -1.69211e-20
1.09754e-05 -5.05901e-05 -7.22776e-21
-3.83987e-05 -3.48506e-05 1.66356e-20
2.32716e-05 6.19791e-06 -1.37052e-20
-9.31379e-06 -1.82531e-05 2.59208e-22
1.86769e-05 9.46835e-06 -2.2808e-20
-2.85192e-05 -3.25009e-05 2.98007e-22
9.6726e-06 4.99743e-05 1.8825e-20
3.42684e-05 -5.97693e-05 -4.38074e-21
-3.46917e-05 -5.96745e-05 1.21927e-20
2.77652e-05 -5.19383e-05 1.22321e-20
-1.26787e-05 4.35688e-05 1.25307e-20
-6.26569e-06 3.892e-05 2.26021e-20
-1.87022e-05 8.93245e-06 1.41836e-20
5.96846e-06 2.42059e-05 7.71677e-21
-2.38777e-06 1.26347e-05 2.70505e-20
1.01045e-05 3.22829e-06 -2.5665e-20
-3.1839e-06 1.6181e-05 -2.66057e-21
-2.47069e-07 2.09602e-05 1.40669e-21
1.6635e-05 9.73572e-06 -8.41617e-21
1.7087e-06 5.76323e-05 3.30449e-21
-1.46948e-05 1.07162e-05 9.08919e-21
1.5925e-05 -6.23691e-06 -1.06111e-20
1.68461e-05 -4.50194e-06 -1.0511e-20
-6.05675e-05 -8.75575e-06 -1.55645e-20
-3.45544e-05 1.67169e-05 6.78545e-21
-4.34455e-05 -5.24639e-05 1.13675e-20
8.64363e-06 8.33288e-06 -4.92701e-21
1.4188e-05 7.28154e-06 -1.14396e-20
2.67629e-05 -4.18937e-06 -1.64246e-20
-8.09196e-06 -1.32226e-05 -5.01343e-21
1.71901e-05 8.41586e-06 -1.97857e-20
7.32458e-06 -2.99898e-05 7.95805e-21
-1.36929e-05 1.01894e-05 1.56624e-20
-2.23409e-05 -2.13906e-05 2.86097e-21
-5.82687e-06 1.62728e-05 2.49529e-20
-3.26627e-06 2.06474e-05 -2.93523e-21
3.37986e-05 2.12646e-05 1.84415e-21
3.60587e-05 -1.92539e-05 -1.7097e-20
-4.20049e-05 -1.16052e-05 -1.38974e-20
7.62226e-06 7.67408e-06 -2.34613e-20
-4.05043e-06 0.000101197 -9.65581e-22
8.61837e-07 -0.000104298 8.75508e-21
5.23704e-05 8.75027e-05 1.03519e-20
-1.90742e-05 8.44504e-06 1.05626e-20
-2.63332e-05 5.64605e-05 -1.27723e-21
5.29481e-05 -8.45023e-05 -1.89477e-22
-1.17025e-05 -1.82543e-05 1.62223e-21
7.7873e-05 6.73865e-05 7.98929e-21
2.3958e-05 -1.79495e-05 -1.31301e-21
-3.60147e-06 -2.97777e-05 5.24445e-21
8.16454e-05 -6.57417e-05 -1.92965e-21
-6.73414e-06 1.4496e-05 2.55844e-20
-5.37475e-05 -3.47698e-05 -7.2244e-22
-4.2943e-05 -9.29817e-05 8.57167e-21
-2.40733e-05 -5.77126e-05 -7.59731e-21
-4.39027e-05 9.39864e-05 -2.1227e-24
-1.00764e-05 6.39819e-05 -3.21021e-21
1.56092e-05 3.70524e-05 1.19944e-20
-2.79107e-05 3.71825e-05 4.85427e-21
-2.52315e-05 -5.50966e-05 -4.35406e-21
0.000100201 1.72886e-05 -4.94947e-21
-1.69018e-05 1.07506e-05 1.7375e-20
-5.90364e-06 1.63082e-05 8.73781e-21
-5.06781e-05 3.75814e-05 1.00266e-20
-1.725e-05 9.92907e-06 5.84382e-21
9.90403e-05 -1.52381e-05 -5.45878e-21
-1.53368e-05 7.78675e-06 8.51439e-21
7.18146e-06 -1.44725e-05 -1.13329e-20
-7.7843e-05 -6.08515e-05 1.3171e-20
-2.58366e-05 5.76253e-05 -5.44605e-21
-7.89932e-05 6.02796e-05 3.86201e-21
2.4502e-05 5.18662e-05 2.88915e-22
-1.47449e-05 1.05662e-05 1.07851e-20
-2.04989e-05 2.444e-05 5.68861e-21
-2.84812e-05 4.97481e-05 2.22396e-20
-5.66908e-05 2.1613e-07 -1.0935e-21
-9.42814e-07 1.62712e-05 5.33266e-21
-2.87955e-05 -5.03362e-05 -1.03416e-20
-5.81104e-05 -2.31558e-07 8.22485e-22
-2.83137e-05 4.86196e-05 1.18086e-20
-1.51653e-05 6.61639e-05 2.02069e-20
-1.78356e-05 4.11956e-05 6.59898e-21
-3.38499e-05 2.70971e-05 1.92534e-20
2.43458e-05 -6.04752e-06 -1.7268e-20
3.79452e-05 -2.19171e-06 -1.436e-20
1.34615e-05 8.18784e-06 -1.80623e-20
-1.04517e-05 -7.38708e-05 -7.7036e-22
-6.9339e-05 -2.79309e-05 1.96736e-20
3.70761e-05 7.31471e-07 -2.53009e-20
5.82721e-05 -1.08742e-05 -3.44637e-21
-1.05673e-05 -1.34763e-05 -7.00946e-21
-5.07467e-05 3.75676e-05 -1.57464e-21
-4.60595e-05 5.3915e-05 1.50642e-21
6.22624e-05 -2.21964e-05 -7.44603e-21
-2.81359e-05 -5.04251e-05 -1.98382e-20
-2.87348e-05 4.97082e-05 1.46098e-20
-5.71713e-05 -1.16889e-06 -1.49004e-21
-2.6535e-05 5.05238e-05 1.07851e-20
-5.787e-05 -8.17061e-07 -3.93598e-21
6.5974e-05 1.73586e-05 -2.65615e-20
5.62972e-05 1.29012e-06 -2.60667e-20
5.08227e-05 -2.92334e-05 -1.52995e-20
2.48838e-05 -5.9322e-05 -5.24748e-21
2.98764e-05 -4.87852e-05 -1.79407e-20
2.91257e-05 4.86092e-05 -7.22138e-21
2.43192e-05 5.79867e-05 2.05409e-20
7.56898e-05 -2.00069e-05 -8.69717e-21
4.6195e-05 2.90262e-05 -1.91991e-20
4.65552e-05 1.37262e-05 -1.28557e-20
TENSORS solid_stress_TPM float
374.534 -24.896 2.29268e-12
-24.896 238.265 5.46526e-12
2.29268e-12 5.46526e-12 197.54

456.269 -21.2708 -2.72952e-12
-21.2708 489.176 -1.19874e-12
-2.72952e-12 -1.19874e-12 486.302

454.143 27.9784 1.62063e-12
27.9784 462.953 -2.18581e-12
1.62063e-12 -2.18581e-12 457.71

454.297 -29.7726 -7.84113e-13
-29.7726 481.814 -2.24487e-12
-7.84113e-13 -2.24487e-12 484.053

526.797 19.8853 1.17299e-12
19.8853 547.516 -7.15132e-12
1.17299e-12 -7.15132e-12 526.467

436.616 -18.0328 -9.98313e-13
-18.0328 479.544 7.67978e-13
-9.98313e-13 7.67978e-13 457.291

371.831 26.4575 1.01844e-12
26.4575 238.784 -3.06718e-13
1.01844e-12 -3.06718e-13 197.524

472.875 29.8881 -4.4101e-12
29.8881 468.735 -1.95399e-12
-4.4101e-12 -1.95399e-12 471.56

470.772 5.47046 -5.7554e-13
5.47046 417.169 -1.55635e-12
-5.7554e-13 -1.55635e-12 432.098

503.413 -7.46002 -6.2587e-13
-7.46002 443.406 1.08447e-12
-6.2587e-13 1.08447e-12 482.651

359.767 16.2763 3.67824e-12
16.2763 247.32 2.52598e-12
3.67824e-12 2.52598e-12 233.306

444.073 -13.4221 1.23146e-12
-13.4221 497.551 7.32451e-13
1.23146e-12 7.32451e-13 471.461

466.105 27.7686 3.48048e-12
27.7686 467.537 -4.11404e-12
3.48048e-12 -4.11404e-12 465.968

456.301 -14.3068 5.71219e-13
-14.3068 499.597 -6.63765e-13
5.71219e-13 -6.63765e-13 482.657

512.077 33.233 -5.84125e-13
33.233 510.74 -2.00912e-12
-5.84125e-13 -2.00912e-12 514.359

488.358 0.559689 2.66986e-12
0.559689 434.833 -4.1676e-12
2.66986e-12 -4.1676e-12 461.515

456.848 -17.9268 6.31032e-13
-17.9268 512.021 2.00255e-12
6.31032e-13 2.00255e-12 492.775

493.133 -2.65889 -3.91391e-13
-2.65889 438.352 2.7837e-13
-3.91391e-13 2.7837e-13 473.482

418.134 26.6128 -3.3209e-12
26.6128 448.93 2.86704e-12
-3.3209e-12 2.86704e-12 423.373

481.181 -4.18587 1.10726e-13
-4.18587 424.253 -1.56756e-12
1.10726e-13 -1.56756e-12 452.735

424.627 8.64903 -3.67928e-12
8.64903 481.103 -1.94333e-12
-3.67928e-12 -1.94333e-12 444.119

633.007 6.27186 1.83742e-12
6.27186 632.846 -5.59449e-12
1.83742e-12 -5.59449e-12 569.348

478.358 1.87164 -2.13696e-12
1.87164 422.276 -3.23253e-12
-2.13696e-12 -3.23253e-12 449

446.443 -27.6511 -2.93365e-12
-27.6511 460.398 -1.87939e-12
-2.93365e-12 -1.87939e-12 452.209

480.251 6.83346 -3.23297e-13
6.83346 424.771 3.89096e-12
-3.23297e-13 3.89096e-12 452.199

449.037 19.0684 -5.18134e-12
19.0684 489.502 4.08621e-12
-5.18134e-12 4.08621e-12 477.415

377.098 4.17301 1.9161e-12
4.17301 291.25 3.88578e-12
1.9161e-12 3.88578e-12 258.623

461.931 30.6745 2.76993e-12
30.6745 459.965 2.30097e-12
2.76993e-12 2.30097e-12 459.791

384.35 36.9954 1.67451e-12
36.9954 382.931 -4.70853e-12
1.67451e-12 -4.70853e-12 347.884

585.921 10.2998 2.65003e-12
10.2998 562.485 -5.81853e-12
2.65003e-12 -5.81853e-12 545.945

490.867 14.1836 -1.83498e-12
14.1836 441.792 7.14984e-14
-1.83498e-12 7.14984e-14 465.091

352.333 -17.7423 3.51659e-12
-17.7423 416.065 7.08174e-13
3.51659e-12 7.08174e-13 348.054

330.545 -42.0289 1.89241e-12
-42.0289 335.393 1.71004e-12
1.89241e-12 1.71004e-12 253.113

530.514 5.97237 1.85678e-12
5.97237 585.864 -4.13684e-12
1.85678e-12 -4.13684e-12 537.67

553.076 -4.82854 1.69228e-12
-4.82854 581.059 7.29194e-13
1.69228e-12 7.29194e-13 541.593

576.982 20.9789 -6.71907e-12
20.9789 539.032 1.16988e-12
-6.71907e-12 1.16988e-12 537.439

555.235 5.05544 -1.38127e-12
5.05544 599.622 2.20564e-13
-1.38127e-12 2.20564e-13 547.04

572.781 -9.14926 4.0273e-12
-9.14926 554.814 -1.1777e-12
4.0273e-12 -1.1777e-12 539.722

466.364 -27.9332 -2.50289e-12
-27.9332 465.73 -4.34023e-13
-2.50289e-12 -4.34023e-13 464.344

329.93 41.449 -4.52379e-12
41.449 337.487 -8.88178e-12
-4.52379e-12 -8.88178e-12 253.47

413.872 -17.9112 9.71075e-13
-17.9112 353.962 1.51523e-12
9.71075e-13 1.51523e-12 345.789

558.349 -3.69719 3.25961e-13
-3.69719 598.873 1.11067e-12
3.25961e-13 1.11067e-12 547.453

585.393 19.5099 1.014e-13
19.5099 571.468 -9.76996e-14
1.014e-13 -9.76996e-14 547.242

490.074 -12.2445 2.13755e-12
-12.2445 442.145 1.38408e-13
2.13755e-12 1.38408e-13 465.762

341.206 -43.2148 6.58318e-12
-43.2148 344.826 1.70886e-12
6.58318e-12 1.70886e-12 288.546

416.89 -18.0255 2.73085e-12
-18.0255 356.574 1.15049e-12
2.73085e-12 1.15049e-12 350.953

412.36 17.0466 -1.01785e-12
17.0466 464.011 -2.74862e-12
-1.01785e-12 -2.74862e-12 428.029

428.94 19.2949 3.95832e-13
19.2949 465.739 -5.23966e-12
3.95832e-13 -5.23966e-12 436.366

485.961 -16.263 1.62892e-12
-16.263 432.181 9.88395e-13
1.62892e-12 9.88395e-13 457.919

355.043 -34.1139 -1.1949e-12
-34.1139 388.793 -3.38692e-12
-1.1949e-12 -3.38692e-12 332.054

409.6 19.1417 -3.86772e-12
19.1417 350.175 -1.48918e-12
-3.86772e-12 -1.48918e-12 338.951

424.517 -25.2323 -9.2489e-13
-25.2323 383.226 7.40149e-13
-9.2489e-13 7.40149e-13 372.488

519.04 19.4395 2.32273e-12
19.4395 546.587 1.36691e-12
2.32273e-12 1.36691e-12 524.837

415.747 29.5847 1.37253e-12
29.5847 393.271 -4.69313e-12
1.37253e-12 -4.69313e-12 373.35

521.291 -21.7624 -3.21787e-12
-21.7624 540.465 -2.51317e-12
-3.21787e-12 -2.51317e-12 523.486

363.529 -42.6315 9.18969e-13
-42.6315 342.773 3.65811e-12
9.18969e-13 3.65811e-12 289.264

552.5 5.44608 -4.0643e-12
5.44608 582.848 -2.134e-12
-4.0643e-12 -2.134e-12 541.966

373.145 -5.31913 8.19197e-13
-5.31913 435.953 -6.34633e-12
8.19197e-13 -6.34633e-12 373.234

579.803 10.3605 -2.56684e-13
10.3605 555.214 -2.41071e-12
-2.56684e-13 -2.41071e-12 541.723

434.358 21.3636 1.34707e-12
21.3636 472.972 -4.27155e-12
1.34707e-12 -4.27155e-12 453.922

512.699 5.74124 2.82589e-13
5.74124 452.075 1.52086e-12
2.82589e-13 1.52086e-12 494.033

521.569 11.4323 2.49874e-13
11.4323 487.052 -2.57157e-12
2.49874e-13 -2.57157e-12 506.223

383.143 31.7691 4.26089e-12
31.7691 314.747 3.45679e-12
4.26089e-12 3.45679e-12 269.472

481.291 -6.02143 7.04251e-12
-6.02143 527.277 2.3288e-12
7.04251e-12 2.3288e-12 503.251

486.289 9.4979 2.91811e-12
9.4979 522.798 -5.4022e-12
2.91811e-12 -5.4022e-12 506.64

455.719 -2.87443 -3.4008e-12
-2.87443 519.268 3.3212e-12
-3.4008e-12 3.3212e-12 486.991

463.697 23.3468 2.98495e-12
23.3468 502.622 -1.86547e-12
2.98495e-12 -1.86547e-12 494.609

495.911 8.44387 -1.5475e-12
8.44387 443.684 1.80078e-12
-1.5475e-12 1.80078e-12 476.903

444.785 -28.1739 4.93886e-12
-28.1739 458.775 1.58569e-12
4.93886e-12 1.58569e-12 450.427

500.837 -1.70745 1.34159e-12
-1.70745 444.203 1.51753e-12
1.34159e-12 1.51753e-12 488.25

518.653 -19.216 -3.72709e-12
-19.216 545.882 4.58715e-12
-3.72709e-12 4.58715e-12 524.57

522.417 21.2586 1.61352e-13
21.2586 541.987 -4.97398e-13
1.61352e-13 -4.97398e-13 524.373

352.882 -16.5476 -2.57631e-12
-16.5476 415.076 7.99361e-13
-2.57631e-12 7.99361e-13 345.578

505.167 -27.8708 2.32051e-12
-27.8708 484.504 2.64796e-12
2.32051e-12 2.64796e-12 493.052

448.991 -25.0764 5.42973e-13
-25.0764 470.441 5.19229e-12
5.42973e-13 5.19229e-12 457.823

357.344 -31.6542 3.60956e-12
-31.6542 285.277 6.13731e-12
3.60956e-12 6.13731e-12 249.491

497.668 3.21533 -4.28317e-12
3.21533 540.474 -1.93504e-12
-4.28317e-12 -1.93504e-12 512.775

500.881 28.8763 4.36155e-12
28.8763 473.768 -1.95133e-12
4.36155e-12 -1.95133e-12 486.843

447.722 19.6184 -2.12393e-12
19.6184 491.283 -6.01889e-13
-2.12393e-12 -6.01889e-13 476.849

439.477 7.98174 3.58706e-12
7.98174 372.472 -1.34707e-12
3.58706e-12 -1.34707e-12 382.331

385.858 -33.8689 -2.47387e-12
-33.8689 359.668 -2.32111e-13
-2.47387e-12 -2.32111e-13 318.95

536.802 -10.5629 -1.37164e-12
-10.5629 555.18 -4.51787e-13
-1.37164e-12 -4.51787e-13 530.347

481.86 23.8444 1.74616e-12
23.8444 503.711 -1.96223e-12
1.74616e-12 -1.96223e-12 501.198

384.777 -32.3181 2.78414e-12
-32.3181 344.794 1.28135e-12
2.78414e-12 1.28135e-12 316.6

421.528 10.7677 -4.00272e-13
10.7677 363.303 -4.5756e-12
-4.00272e-13 -4.5756e-12 349.711

307.213 -21.1651 6.19356e-13
-21.1651 387.85 -6.15804e-12
6.19356e-13 -6.15804e-12 287.685

433.752 14.3922 -8.41179e-13
14.3922 487.85 5.39657e-12
-8.41179e-13 5.39657e-12 460.125

508.859 23.0892 3.60008e-12
23.0892 474.391 -1.27868e-12
3.60008e-12 -1.27868e-12 489.128

337.743 42.1167 7.14095e-12
42.1167 349.052 -8.66862e-13
7.14095e-12 -8.66862e-13 288.52

633.09 16.4688 1.68189e-11
16.4688 602.017 -3.46064e-12
1.68189e-11 -3.46064e-12 564.361

372.324 -4.1002 -3.42126e-12
-4.1002 436.113 3.25073e-12
-3.42126e-12 3.25073e-12 372.842

635.989 -16.5939 -1.37871e-11
-16.5939 598.495 -3.99162e-12
-1.37871e-11 -3.99162e-12 563.869

533.026 -27.2711 2.43953e-12
-27.2711 506.389 -1.4165e-12
2.43953e-12 -1.4165e-12 514.843

504.444 27.3603 4.36332e-12
27.3603 465.573 3.22142e-12
4.36332e-12 3.22142e-12 484.264

426.243 -24.3566 2.45137e-13
-24.3566 385.645 3.85292e-12
2.45137e-13 3.85292e-12 375.389

358.397 31.257 -8.05282e-13
31.257 395.387 -6.68858e-12
-8.05282e-13 -6.68858e-12 338.68

339.327 -10.6848 -8.41401e-13
-10.6848 407.759 5.69145e-12
-8.41401e-13 5.69145e-12 318.622

452.374 21.9195 -5.05225e-13
21.9195 493.851 5.61033e-13
-5.05225e-13 5.61033e-13 482.364

532.204 16.7552 -8.50579e-13
16.7552 505.351 3.47278e-13
-8.50579e-13 3.47278e-13 512.487

442.741 15.119 -2.47136e-12
15.119 487.624 4.91459e-13
-2.47136e-12 4.91459e-13 463.518

450.745 15.9174 1.70175e-12
15.9174 399.915 -1.12887e-12
1.70175e-12 -1.12887e-12 403.104

373.921 -21.4279 -1.60464e-12
-21.4279 419.203 1.72188e-12
-1.60464e-12 1.72188e-12 356.644

389.125 -29.3312 -3.63324e-12
-29.3312 341.864 -1.97886e-12
-3.63324e-12 -1.97886e-12 313.915

454.23 -24.5159 -5.17379e-12
-24.5159 479.271 3.81473e-12
-5.17379e-12 3.81473e-12 477.577

465.664 27.3871 1.06285e-12
27.3871 477.952 -3.62702e-12
1.06285e-12 -3.62702e-12 479.013

451.489 23.1335 -1.8936e-12
23.1335 491.737 9.90911e-13
-1.8936e-12 9.90911e-13 481.242

465.539 13.1381 -1.30555e-12
13.1381 528.871 -4.74287e-12
-1.30555e-12 -4.74287e-12 500.542

490.041 9.35028 -2.09018e-13
9.35028 437.191 1.62241e-13
-2.09018e-13 1.62241e-13 461.296

327.238 -4.65702 2.7495e-12
-4.65702 402.755 1.12739e-12
2.7495e-12 1.12739e-12 313.937

461.829 -36.7466 -5.41552e-12
-36.7466 486.881 -1.97094e-12
-5.41552e-12 -1.97094e-12 491.925

445.131 27.4016 -4.03322e-12
27.4016 462.511 -4.24253e-12
-4.03322e-12 -4.24253e-12 454.269

305.238 2.16739 1.15237e-11
2.16739 392.754 5.2367e-12
1.15237e-11 5.2367e-12 296.81

385.408 34.5409 -4.23957e-13
34.5409 331.961 1.62892e-12
-4.23957e-13 1.62892e-12 305.785

452.619 -22.9205 2.66394e-12
-22.9205 479.276 5.37052e-13
2.66394e-12 5.37052e-13 475.384

500.551 5.71944 5.00933e-13
5.71944 440.613 -2.95882e-12
5.00933e-13 -2.95882e-12 480.212

421.71 27.144 -1.57385e-12
27.144 389.166 -5.04308e-12
-1.57385e-12 -5.04308e-12 373.649

569.556 12.7157 3.63398e-12
12.7157 564.941 -4.62149e-13
3.63398e-12 -4.62149e-13 541.994

395.569 24.2811 6.49673e-12
24.2811 349.132 5.5825e-12
6.49673e-12 5.5825e-12 318.561

568.182 -13.0245 -1.8329e-12
-13.0245 564.852 7.09951e-13
-1.8329e-12 7.09951e-13 541.451

374.524 0.777828 1.16988e-12
0.777828 438.163 -4.38879e-12
1.16988e-12 -4.38879e-12 374.055

460.712 -2.22989 1.51701e-12
-2.22989 398.686 -2.6242e-13
1.51701e-12 -2.6242e-13 416.613

537.274 -15.731 2.3781e-12
-15.731 479.845 8.57684e-13
2.3781e-12 8.57684e-13 512.613

456.506 24.3313 8.43989e-13
24.3313 486.976 1.81588e-12
8.43989e-13 1.81588e-12 487.541

460.51 -13.5035 5.93724e-12
-13.5035 518.254 -3.606e-12
5.93724e-12 -3.606e-12 494.886

514.097 -7.98136 1.85008e-12
-7.98136 437.5 -2.18788e-13
1.85008e-12 -2.18788e-13 493.451

487.51 -22.231 2.39557e-12
-22.231 540.674 5.25209e-13
2.39557e-12 5.25209e-13 514.88

555.097 -6.58222 7.04918e-13
-6.58222 559.43 -3.68165e-12
7.04918e-13 -3.68165e-12 537.815

463.112 -29.8381 -2.88125e-12
-29.8381 482.397 -3.65337e-13
-2.88125e-12 -3.65337e-13 482.797

341.207 11.4316 -3.5915e-12
11.4316 405.565 -4.81511e-12
-3.5915e-12 -4.81511e-12 318.999

421.81 -28.0853 9.50943e-13
-28.0853 390.64 4.55813e-12
9.50943e-13 4.55813e-12 374.561

506.536 -13.7396 -6.28823e-12
-13.7396 557.783 -4.34911e-13
-6.28823e-12 -4.34911e-13 524.364

500.216 0.503669 9.42653e-13
0.503669 440.579 -4.01753e-13
9.42653e-13 -4.01753e-13 486.276

476.161 -21.4741 3.09678e-13
-21.4741 506.57 3.54827e-12
3.09678e-13 3.54827e-12 500.664

458.355 25.6382 5.38029e-12
25.6382 483.799 -1.16936e-12
5.38029e-12 -1.16936e-12 487.169

393.82 -31.3982 5.50315e-12
-31.3982 399.978 -1.82373e-13
5.50315e-12 -1.82373e-13 356.968

551.183 -7.06775 1.76755e-12
-7.06775 584.276 -2.4641e-12
1.76755e-12 -2.4641e-12 541.682

346.699 -33.0139 -2.52716e-12
-33.0139 382.031 -1.40924e-12
-2.52716e-12 -1.40924e-12 302.981

490.05 -19.1351 3.62732e-12
-19.1351 447.666 1.13835e-12
3.62732e-12 1.13835e-12 466.355

518.828 1.96658 3.73338e-12
1.96658 466.057 4.68366e-13
3.73338e-12 4.68366e-13 501.988

569.574 17.8333 -2.2391e-12
17.8333 565.503 -2.54167e-12
-2.2391e-12 -2.54167e-12 541.455

374.722 20.1405 -4.35385e-12
20.1405 423.359 9.166e-13
-4.35385e-12 9.166e-13 359.663

488.268 27.1473 2.85993e-13
27.1473 467.774 -3.16488e-13
2.85993e-13 -3.16488e-13 475.85

453.638 -24.4552 5.38355e-12
-24.4552 414.689 -4.56316e-12
5.38355e-12 -4.56316e-12 417.931

453.985 -17.7971 2.85927e-12
-17.7971 494.079 -2.95171e-12
2.85927e-12 -2.95171e-12 481.84

378.625 35 7.59689e-12
35 365.482 -7.75676e-13
7.59689e-12 -7.75676e-13 316.569

448.431 -21.78 -1.36084e-12
-21.78 490.884 -2.7723e-12
-1.36084e-12 -2.7723e-12 478.977

484.684 30.7783 -3.09205e-12
30.7783 464.376 2.6518e-12
-3.09205e-12 2.6518e-12 472.663

479.525 -25.1852 -4.85834e-12
-25.1852 441.657 -2.00314e-12
-4.85834e-12 -2.00314e-12 454.696

447.495 -25.0682 1.06966e-12
-25.0682 468.995 4.00687e-12
1.06966e-12 4.00687e-12 457.345

444.622 -18.6463 -2.94165e-12
-18.6463 392.854 7.67386e-13
-2.94165e-12 7.67386e-13 396.628

469.875 -18.8062 -2.05524e-12
-18.8062 422.185 -6.09498e-12
-2.05524e-12 -6.09498e-12 436.822

458.256 -25.2783 -1.74912e-12
-25.2783 484.624 -1.9782e-12
-1.74912e-12 -1.9782e-12 488.01

385.945 35.8927 5.21065e-14
35.8927 381.4 2.52953e-12
5.21065e-14 2.52953e-12 347.579

443.782 15.3412 -2.96977e-12
15.3412 490.71 4.25378e-12
-2.96977e-12 4.25378e-12 466.369

468.627 26.3607 1.50102e-13
26.3607 479.164 3.24777e-12
1.50102e-13 3.24777e-12 481.743

455.405 25.4142 -3.94525e-12
25.4142 485.838 2.74921e-12
-3.94525e-12 2.74921e-12 486.433

457.066 11.5947 -3.36707e-12
11.5947 506.084 1.87643e-12
-3.36707e-12 1.87643e-12 485.205

431.26 -8.2091 3.06362e-12
-8.2091 370.194 -3.27309e-12
3.06362e-12 -3.27309e-12 362.742

376.206 18.5672 3.91391e-13
18.5672 426.584 2.44782e-12
3.91391e-13 2.44782e-12 363.316

451.58 -24.3238 1.21473e-12
-24.3238 477.592 8.69231e-13
1.21473e-12 8.69231e-13 469.932

440.036 25.6071 2.45256e-12
25.6071 454.896 2.94875e-12
2.45256e-12 2.94875e-12 437.094

390.348 -35.5528 -2.25242e-12
-35.5528 379.692 7.85801e-12
-2.25242e-12 7.85801e-12 349.549

368.382 38.2393 6.38186e-12
38.2393 326.773 8.94929e-12
6.38186e-12 8.94929e-12 295.238

363.097 -33.2403 2.62131e-12
-33.2403 393.819 -1.19608e-13
2.62131e-12 -1.19608e-13 341.452

397.31 -31.0932 -8.8427e-12
-31.0932 403.56 -5.22249e-13
-8.8427e-12 -5.22249e-13 362.408

502.008 -6.82259 -3.11099e-12
-6.82259 441.543 -1.65586e-12
-3.11099e-12 -1.65586e-12 481.514

392.554 30.2771 2.64085e-13
30.2771 408.336 1.24345e-13
2.64085e-13 1.24345e-13 362.867

429.014 13.2661 7.56728e-13
13.2661 371.681 2.89961e-12
7.56728e-13 2.89961e-12 362.148

349.623 13.3496 -2.50289e-12
13.3496 417.846 2.68822e-12
-2.50289e-12 2.68822e-12 347.935

378.898 -22.2932 9.14824e-13
-22.2932 422.838 -5.80395e-12
9.14824e-13 -5.80395e-12 362.881

490.394 -1.08926 3.55094e-12
-1.08926 549.924 -4.11819e-12
3.55094e-12 -4.11819e-12 515.432

372.297 2.24253 -5.63979e-12
2.24253 437.079 1.74794e-12
-5.63979e-12 1.74794e-12 372.934

357.35 31.0233 1.66267e-12
31.0233 398.859 2.00255e-12
1.66267e-12 2.00255e-12 341.432

457.248 12.0798 2.32038e-12
12.0798 509.695 -4.70971e-12
2.32038e-12 -4.70971e-12 487.587

420.779 -27.5867 -2.4419e-12
-27.5867 388.47 -3.52074e-12
-2.4419e-12 -3.52074e-12 374.483

523.86 20.5089 -3.27442e-13
20.5089 468.982 4.02049e-12
-3.27442e-13 4.02049e-12 499.892

534.009 26.2091 2.36848e-13
26.2091 506.01 -2.63286e-12
2.36848e-13 -2.63286e-12 515.221

493.984 -18.5244 2.05051e-12
-18.5244 448.301 1.23457e-13
2.05051e-12 1.23457e-13 470.076

553.626 -1.79835 1.70219e-12
-1.79835 515.154 -4.09332e-12
1.70219e-12 -4.09332e-12 524.825

472.507 -31.7375 -2.56772e-12
-31.7375 474.91 1.33848e-12
-2.56772e-12 1.33848e-12 477.781

411.942 23.278 -2.59585e-12
23.278 356.661 7.40563e-12
-2.59585e-12 7.40563e-12 347.553

463.418 30.0915 3.659e-12
30.0915 481.967 -2.61924e-12
3.659e-12 -2.61924e-12 482.399

463.68 29.1376 1.3675e-12
29.1376 481.441 -5.99224e-13
1.3675e-12 -5.99224e-13 481.961

393.334 30.5958 8.78704e-13
30.5958 405.088 -6.31554e-12
8.78704e-13 -6.31554e-12 360.306

502.008 27.0217 1.26003e-12
27.0217 481.866 3.07843e-12
1.26003e-12 3.07843e-12 489.913

414.69 3.51779 3.37626e-12
3.51779 338.517 2.823e-12
3.37626e-12 2.823e-12 340.299

492.299 31.7427 -2.71487e-13
31.7427 486.414 3.8997e-12
-2.71487e-13 3.8997e-12 494.743

475.543 -12.5701 2.08048e-12
-12.5701 521.561 -2.15591e-12
2.08048e-12 -2.15591e-12 499.407

536.007 24.2212 -4.3429e-12
24.2212 506.551 -3.802e-12
-4.3429e-12 -3.802e-12 515.756

467.41 -29.5096 3.30462e-12
-29.5096 479.175 2.12926e-12
3.30462e-12 2.12926e-12 482.256

463.804 -4.88635 -1.85962e-12
-4.88635 520.666 3.64035e-12
-1.85962e-12 3.64035e-12 490.158

400.316 -24.5055 7.10543e-14
-24.5055 348.504 -1.53004e-12
7.10543e-14 -1.53004e-12 323.456

418.3 29.6287 -3.30758e-12
29.6287 391.856 1.56793e-12
-3.30758e-12 1.56793e-12 373.183

351.819 14.6649 -2.62338e-12
14.6649 416.548 -2.90138e-12
-2.62338e-12 -2.90138e-12 347.701

499.688 -1.1365 1.98345e-12
-1.1365 442.087 -8.23637e-13
1.98345e-12 -8.23637e-13 486.894

491.645 0.0021762 -2.5997e-12
0.0021762 437.404 -3.06712e-12
-2.5997e-12 -3.06712e-12 473.632

452.232 23.0702 -5.4697e-13
23.0702 478.912 7.28306e-13
-5.4697e-13 7.28306e-13 474.797

480.511 23.8159 -1.57444e-12
23.8159 502.029 -1.00248e-12
-1.57444e-12 -1.00248e-12 500.411

455.849 -24.324 -3.72924e-12
-24.324 486.542 3.5989e-12
-3.72924e-12 3.5989e-12 487.682

457.095 -0.67152 2.52217e-12
-0.67152 517.06 1.18661e-12
2.52217e-12 1.18661e-12 485.589

458.141 25.5311 2.13311e-13
25.5311 485.661 2.7572e-12
2.13311e-13 2.7572e-12 487.704

464.792 -10.2842 -2.22992e-12
-10.2842 407.449 2.83566e-12
-2.22992e-12 2.83566e-12 426.535

400.24 -32.7603 2.2388e-12
-32.7603 414.3 1.86399e-12
2.2388e-12 1.86399e-12 384.561

517.221 -2.29621 1.83853e-12
-2.29621 464.985 2.6444e-12
1.83853e-12 2.6444e-12 500.089

391.268 -34.4345 7.61347e-12
-34.4345 379.026 -2.45611e-12
7.61347e-12 -2.45611e-12 346.884

477.219 19.0415 2.52095e-13
19.0415 508.348 6.71167e-13
2.52095e-13 6.71167e-13 501.007

505.264 -26.4167 2.21038e-12
-26.4167 469.482 5.42677e-13
2.21038e-12 5.42677e-13 486.465

424.329 -9.66875 4.51905e-12
-9.66875 366.181 -1.05397e-12
4.51905e-12 -1.05397e-12 355.433

529.365 -23.1379 -4.34675e-12
-23.1379 487.953 1.26625e-12
-4.34675e-12 1.26625e-12 505.642

500.056 2.35293 2.28499e-12
2.35293 443.872 -2.64825e-13
2.28499e-12 -2.64825e-13 488.393

520.313 -23.2674 -1.99189e-12
-23.2674 501.008 5.58812e-12
-1.99189e-12 5.58812e-12 507.683

501.176 -25.7989 5.24854e-12
-25.7989 460.746 2.91619e-13
5.24854e-12 2.91619e-13 480.449

497.994 -8.5264 -1.37224e-12
-8.5264 444.427 1.42286e-12
-1.37224e-12 1.42286e-12 478.553

481.431 -23.0149 -1.10726e-12
-23.0149 504.149 1.67124e-12
-1.10726e-12 1.67124e-12 501.696

427.858 -31.2711 6.45647e-12
-31.2711 409.946 -3.55094e-12
6.45647e-12 -3.55094e-12 398.368

502.425 -24.5301 3.24481e-13
-24.5301 463.961 -3.39343e-12
3.24481e-13 -3.39343e-12 481.363

440.529 10.8402 -6.59739e-12
10.8402 377.909 4.56938e-12
-6.59739e-12 4.56938e-12 387.19

499.206 26.279 6.05915e-12
26.279 497.755 -1.01696e-12
6.05915e-12 -1.01696e-12 499.271

463.002 -37.5244 -4.56405e-12
-37.5244 487.583 -2.62942e-12
-4.56405e-12 -2.62942e-12 493.261

464.108 37.1776 2.30482e-12
37.1776 486.497 2.60895e-12
2.30482e-12 2.60895e-12 492.976

445.619 -28.5059 1.5908e-12
-28.5059 499.181 -6.61693e-13
1.5908e-12 -6.61693e-13 491.494

447.849 27.0004 4.84057e-13
27.0004 499.871 -4.18332e-13
4.84057e-13 -4.18332e-13 491.681

512.206 -8.50774 2.15502e-12
-8.50774 435.721 9.26814e-13
2.15502e-12 9.26814e-13 491.94

510.372 9.25192 4.0649e-13
9.25192 437.315 2.26826e-12
4.0649e-13 2.26826e-12 491.579

500.817 -9.82332 -2.18788e-13
-9.82332 451.019 -6.12251e-13
-2.18788e-13 -6.12251e-13 482.222

510.011 32.0408 -2.55203e-12
32.0408 509.538 1.97779e-12
-2.55203e-12 1.97779e-12 513.193

508.79 -32.777 -1.62359e-12
-32.777 509.216 4.57235e-12
-1.62359e-12 4.57235e-12 512.832

481.024 16.0307 -1.01371e-12
16.0307 538.211 1.03088e-12
-1.01371e-12 1.03088e-12 513.464

482.215 -15.7639 -1.05131e-12
-15.7639 537.802 2.88214e-12
-1.05131e-12 2.88214e-12 513.485

555.912 -3.74012 1.64269e-12
-3.74012 505.991 -1.45484e-12
1.64269e-12 -1.45484e-12 524.108

557.462 3.60322 2.8139e-12
3.60322 504.32 -6.73831e-13
2.8139e-12 -6.73831e-13 524.479

386.718 9.81463 -3.41105e-12
9.81463 448.468 -3.00086e-12
-3.41105e-12 -3.00086e-12 396.46

471.616 -24.7166 -3.01803e-12
-24.7166 479.963 -2.53723e-13
-3.01803e-12 -2.53723e-13 484.173

442.759 -36.3019 2.11298e-12
-36.3019 484.73 3.68772e-12
2.11298e-12 3.68772e-12 485.82

472.861 -4.65344 -2.56151e-12
-4.65344 419.777 -1.94629e-12
-2.56151e-12 -1.94629e-12 435.634

539.332 -16.6556 1.9155e-12
-16.6556 483.401 -5.48598e-13
1.9155e-12 -5.48598e-13 514.423

540.05 16.1378 3.57595e-12
16.1378 484.621 -3.7863e-12
3.57595e-12 -3.7863e-12 515.027

506.009 0.121623 7.81153e-13
0.121623 422.895 1.11351e-12
7.81153e-13 1.11351e-12 486.193

384.204 23.3232 -1.68695e-12
23.3232 431.604 5.82527e-12
-1.68695e-12 5.82527e-12 384.871

441.632 36.0864 3.59194e-13
36.0864 484.409 3.62036e-12
3.59194e-13 3.62036e-12 485.027

451.872 -23.3412 8.82553e-13
-23.3412 494.129 -2.33088e-12
8.82553e-13 -2.33088e-12 482.79

442.532 23.3004 2.37558e-12
23.3004 396.905 -1.50339e-12
2.37558e-12 -1.50339e-12 399.74

530.066 23.8025 4.21589e-13
23.8025 487.206 3.73479e-12
4.21589e-13 3.73479e-12 506.399

427.796 -31.243 -2.90138e-12
-31.243 410.23 -3.336e-12
-2.90138e-12 -3.336e-12 398.187

518.981 -3.22422 2.70302e-13
-3.22422 468.299 7.66794e-14
2.70302e-13 7.66794e-14 501.846

438.702 -34.0807 1.03843e-13
-34.0807 484.701 -2.81863e-12
1.03843e-13 -2.81863e-12 485.017

388.589 8.30101 6.90459e-12
8.30101 451.591 8.28966e-15
6.90459e-12 8.28966e-15 400.221

385.289 21.7629 7.30971e-13
21.7629 435.072 3.51008e-12
7.30971e-13 3.51008e-12 388.083

383.263 35.7065 -1.75386e-12
35.7065 361.794 -9.53312e-13
-1.75386e-12 -9.53312e-13 317.847

407.542 1.57509 9.71075e-14
1.57509 331.674 3.56989e-12
9.71075e-14 3.56989e-12 326.827

484.657 -22.7519 -2.20298e-12
-22.7519 502.019 4.69071e-12
-2.20298e-12 4.69071e-12 500.91

351.359 31.1242 1.3145e-12
31.1242 388.242 1.89478e-12
1.3145e-12 1.89478e-12 311.888

450.623 23.5552 -3.56959e-12
23.5552 477.623 -4.08917e-12
-3.56959e-12 -4.08917e-12 464.449

441.481 -5.33765 -3.51837e-12
-5.33765 376.555 -2.39882e-12
-3.51837e-12 -2.39882e-12 387.128

463.393 11.1903 2.14821e-12
11.1903 406.666 -2.9224e-12
2.14821e-12 -2.9224e-12 424.24

504.528 0.428886 1.4387e-12
0.428886 420.919 -3.79976e-12
1.4387e-12 -3.79976e-12 484.868

448.633 -28.9627 -2.27907e-12
-28.9627 501.157 5.09045e-12
-2.27907e-12 5.09045e-12 492.765

571.521 -6.30358 9.55014e-13
-6.30358 588.457 -1.34263e-12
9.55014e-13 -1.34263e-12 548.32

462.391 37.3236 2.52243e-13
37.3236 486.221 -1.31669e-12
2.52243e-13 -1.31669e-12 492.242

408.113 1.66056 -7.66676e-12
1.66056 331.123 2.04429e-12
-7.66676e-12 2.04429e-12 308.441

403.603 -32.7139 -5.37466e-12
-32.7139 414.852 -7.87104e-12
-5.37466e-12 -7.87104e-12 386.781

442.437 36.5268 1.52774e-12
36.5268 484.702 7.68126e-13
1.52774e-12 7.68126e-13 485.763

443.968 -11.1079 -4.47603e-12
-11.1079 498.098 5.33499e-13
-4.47603e-12 5.33499e-13 470.664

385.482 -25.458 2.65891e-12
-25.458 428.214 -1.46253e-12
2.65891e-12 -1.46253e-12 383.96

448.733 28.7621 1.44336e-12
28.7621 500.791 1.26921e-12
1.44336e-12 1.26921e-12 492.465

451.974 -26.0826 5.22841e-12
-26.0826 418.643 -1.79412e-13
5.22841e-12 -1.79412e-13 418.846

578.548 10.4593 -3.1779e-12
10.4593 581.152 5.00244e-12
-3.1779e-12 5.00244e-12 548.105

397.711 30.8033 -9.23113e-13
30.8033 421.387 5.51973e-12
-9.23113e-13 5.51973e-12 387.552

514.834 8.10784 3.99281e-12
8.10784 436.58 2.97377e-12
3.99281e-12 2.97377e-12 493.756

492.984 30.1201 1.93297e-12
30.1201 483.948 -3.72058e-12
1.93297e-12 -3.72058e-12 492.978

452.734 23.2777 -2.93099e-12
23.2777 478.372 -2.86852e-12
-2.93099e-12 -2.86852e-12 475.012

509.846 -32.4125 3.97045e-12
-32.4125 511.592 2.53997e-12
3.97045e-12 2.53997e-12 514.139

509.448 -23.1363 1.48326e-12
-23.1363 472.408 -3.51896e-12
1.48326e-12 -3.51896e-12 488.862

510.547 10.4457 4.85582e-12
10.4457 557.029 -4.31063e-13
4.85582e-12 -4.31063e-13 522.847

451.444 -23.3793 1.03058e-12
-23.3793 479.372 -1.85156e-12
1.03058e-12 -1.85156e-12 468.178

393.811 -9.68699 3.04586e-12
-9.68699 315.963 3.40313e-12
3.04586e-12 3.40313e-12 295.135

386.7 -14.2517 -5.37881e-12
-14.2517 305.627 1.99663e-12
-5.37881e-12 1.99663e-12 289.619

546.643 16.4912 -2.90286e-12
16.4912 506.917 -4.97735e-12
-2.90286e-12 -4.97735e-12 518.444

435.791 22.4499 -1.42671e-12
22.4499 468.365 -4.59899e-12
-1.42671e-12 -4.59899e-12 447.095

475.179 29.0953 -5.695e-12
29.0953 466.881 -2.69e-12
-5.695e-12 -2.69e-12 470.701

449.57 0.687065 9.31995e-13
0.687065 392.173 2.79887e-13
9.31995e-13 2.79887e-13 395.049

477.569 6.55553 -3.00374e-12
6.55553 540.349 -1.01371e-12
-3.00374e-12 -1.01371e-12 506.688

506.477 16.5018 -2.75572e-12
16.5018 460.389 -2.59674e-12
-2.75572e-12 -2.59674e-12 487.268

389.377 -25.7037 1.71655e-12
-25.7037 429.347 1.55846e-12
1.71655e-12 1.55846e-12 387.124

455.583 -2.56605 -2.53303e-12
-2.56605 516.137 2.89428e-12
-2.53303e-12 2.89428e-12 484.035

399.97 13.3358 5.34476e-12
13.3358 452.248 -1.09424e-12
5.34476e-12 -1.09424e-12 403.993

486.105 -29.644 3.23119e-12
-29.644 465.054 -4.27243e-12
3.23119e-12 -4.27243e-12 473.475

429.611 -29.8805 2.35249e-12
-29.8805 422.958 4.40063e-12
2.35249e-12 4.40063e-12 404.312

399.089 31.5525 4.52734e-12
31.5525 417.569 -2.80309e-12
4.52734e-12 -2.80309e-12 385.395

622.896 -14.9853 7.38668e-13
-14.9853 580.943 -4.67522e-12
7.38668e-13 -4.67522e-12 556.955

493.704 2.03684 2.60925e-12
2.03684 551.191 -1.02022e-12
2.60925e-12 -1.02022e-12 517.052

482.709 20.2519 3.01833e-13
20.2519 541.112 2.06501e-12
3.01833e-13 2.06501e-12 515.161

543.769 15.4032 5.65326e-13
15.4032 479.186 -2.82737e-13
5.65326e-13 -2.82737e-13 514.883

472.971 -26.1278 4.46162e-13
-26.1278 478.965 -6.2587e-13
4.46162e-13 -6.2587e-13 482.215

451.39 17.9165 -2.30926e-12
17.9165 403.879 1.17684e-12
-2.30926e-12 1.17684e-12 406.271

530.682 -5.28132 -1.596e-12
-5.28132 579.788 8.83027e-12
-1.596e-12 8.83027e-12 536.206

511.322 -18.9435 -3.92397e-12
-18.9435 464.039 1.47734e-12
-3.92397e-12 1.47734e-12 492.205

473.192 -15.5626 9.95352e-13
-15.5626 422.509 6.74794e-12
9.95352e-13 6.74794e-12 438.169

401.377 11.5776 1.64609e-12
11.5776 455.213 -1.18424e-14
1.64609e-12 -1.18424e-14 407.13

410.279 -25.677 1.16055e-13
-25.677 434.882 1.10963e-12
1.16055e-13 1.10963e-12 398.325

531.144 -25.2148 -3.25665e-15
-25.2148 522.309 -2.74418e-12
-3.25665e-15 -2.74418e-12 518.243

422.384 31.8874 2.66039e-12
31.8874 416.589 2.7421e-12
2.66039e-12 2.7421e-12 399.67

534.568 -25.0757 -3.82213e-12
-25.0757 504.944 -1.10785e-12
-3.82213e-12 -1.10785e-12 514.791

452.756 2.59154 -1.64491e-12
2.59154 396.407 -6.36528e-14
-1.64491e-12 -6.36528e-14 401.26

310.653 -28.8748 -3.46271e-12
-28.8748 376.025 2.63375e-12
-3.46271e-12 2.63375e-12 289.563

431.185 -29.1654 -7.16464e-14
-29.1654 423.376 -6.92009e-12
-7.16464e-14 -6.92009e-12 405.508

353.239 32.0973 9.42653e-13
32.0973 391.947 4.47168e-12
9.42653e-13 4.47168e-12 312.498

469.581 -11.8489 2.734e-12
-11.8489 528.648 3.58883e-12
2.734e-12 3.58883e-12 499.466

390.85 -13.7902 -5.35882e-12
-13.7902 448.522 1.71833e-12
-5.35882e-12 1.71833e-12 399.564

601.8 -23.9319 -8.23489e-13
-23.9319 601.213 -1.11333e-12
-8.23489e-13 -1.11333e-12 556.896

407.734 23.7181 3.86772e-12
23.7181 441.228 1.86162e-12
3.86772e-12 1.86162e-12 401.584

495.75 -32.6496 8.49691e-13
-32.6496 489.827 6.54617e-12
8.49691e-13 6.54617e-12 496.615

387.596 -11.936 1.40458e-12
-11.936 447.557 -2.12334e-12
1.40458e-12 -2.12334e-12 396.388

515.836 -19.072 -1.89152e-12
-19.072 464.998 1.12858e-12
-1.89152e-12 1.12858e-12 495.414

410.044 23.8241 -7.14688e-13
23.8241 438.606 6.26936e-12
-7.14688e-13 6.26936e-12 400.064

488.105 -4.9638 -4.20108e-12
-4.9638 434.38 1.95436e-12
-4.20108e-12 1.95436e-12 459.628

305.358 -30.2954 -6.11185e-12
-30.2954 390.876 -1.07529e-12
-6.11185e-12 -1.07529e-12 262.189

437.91 20.9654 1.27602e-13
20.9654 473.132 -2.33413e-12
1.27602e-13 -2.33413e-12 457.599

444.966 -19.28 5.63697e-13
-19.28 393.372 2.9449e-12
5.63697e-13 2.9449e-12 398.992

550.654 -21.3959 1.58125e-12
-21.3959 498.69 -4.10664e-12
1.58125e-12 -4.10664e-12 519.227

423.797 31.6825 1.23161e-13
31.6825 412.674 1.95399e-12
1.23161e-13 1.95399e-12 397.331

458.415 -29.9025 2.59111e-12
-29.9025 436.94 3.51393e-12
2.59111e-12 3.51393e-12 438.59

509.762 20.8365 5.9277e-12
20.8365 475.295 2.62338e-12
5.9277e-12 2.62338e-12 491.937

460.76 -28.0108 2.94357e-12
-28.0108 484.94 1.00964e-12
2.94357e-12 1.00964e-12 487.907

413.073 -26.1669 9.33772e-13
-26.1669 435.548 -9.0831e-13
9.33772e-13 -9.0831e-13 400.805

425.401 28.916 1.32753e-12
28.916 429.216 6.19001e-12
1.32753e-12 6.19001e-12 406.217

451.768 26.1314 1.79057e-12
26.1314 417.572 -2.61421e-13
1.79057e-12 -2.61421e-13 418.391

521.087 -14.5763 -5.43447e-12
-14.5763 476.4 -1.1191e-12
-5.43447e-12 -1.1191e-12 499.23

402.938 -16.5808 2.99464e-12
-16.5808 451.011 2.65388e-12
2.99464e-12 2.65388e-12 405.8

495.22 -17.527 3.27383e-12
-17.527 446.892 -1.36113e-12
3.27383e-12 -1.36113e-12 470.727

486.955 16.8691 -1.83675e-12
16.8691 435.568 1.76984e-12
-1.83675e-12 1.76984e-12 459.837

512.486 -9.36433 1.42775e-12
-9.36433 554.823 -3.41001e-12
1.42775e-12 -3.41001e-12 522.15

453.243 -13.3995 -3.2685e-12
-13.3995 401.559 1.02984e-12
-3.2685e-12 1.02984e-12 406.1

402.582 0.593217 -8.64464e-12
0.593217 464.963 -1.06581e-14
-8.64464e-12 -1.06581e-14 417.14

474.245 18.5118 -2.69473e-12
18.5118 428.096 -8.73375e-13
-2.69473e-12 -8.73375e-13 441.507

450.414 27.5408 -8.21861e-13
27.5408 421.176 6.4837e-14
-8.21861e-13 6.4837e-14 420.173

400.252 -15.6516 5.41108e-12
-15.6516 450.652 -1.04213e-13
5.41108e-12 -1.04213e-13 403.099

405.375 -1.19919 5.37089e-12
-1.19919 467.267 1.71833e-12
5.37089e-12 1.71833e-12 420.549

515.333 29.0661 -1.2245e-12
29.0661 497.201 -4.82222e-12
-1.2245e-12 -4.82222e-12 504.033

441.005 -10.897 -3.45427e-12
-10.897 499.82 1.95991e-12
-3.45427e-12 1.95991e-12 470.375

450.71 -26.6545 2.06946e-12
-26.6545 418.111 -3.36442e-12
2.06946e-12 -3.36442e-12 418.685

443.671 21.2846 1.64372e-12
21.2846 394.693 2.34242e-12
1.64372e-12 2.34242e-12 397.575

496.767 23.6099 -8.73375e-13
23.6099 457.353 -4.70735e-13
-8.73375e-13 -4.70735e-13 475.767

446.97 5.45847 1.44914e-12
5.45847 507.935 1.43648e-12
1.44914e-12 1.43648e-12 476.097

426.973 29.0005 2.32703e-13
29.0005 425.762 -2.62249e-12
2.32703e-13 -2.62249e-12 404.471

535.912 22.9102 -3.68949e-12
22.9102 530.998 4.98164e-12
-3.68949e-12 4.98164e-12 521.906

314.304 -59.5947 9.75812e-13
-59.5947 282.384 6.80937e-13
9.75812e-13 6.80937e-13 223.104

479.802 -24.9899 2.404e-13
-24.9899 444.362 4.4554e-12
2.404e-13 4.4554e-12 455.903

336.177 7.05737 1.37046e-12
7.05737 408.525 2.84217e-14
1.37046e-12 2.84217e-14 318.961

459.791 -28.8228 -1.19963e-12
-28.8228 444.026 2.84217e-14
-1.19963e-12 2.84217e-14 442.737

96.3025 -52.6335 2.96059e-14
-52.6335 306.229 1.74794e-12
2.96059e-14 1.74794e-12 113.542

95.8365 51.3856 -1.75504e-12
51.3856 306.492 2.73322e-12
-1.75504e-12 2.73322e-12 114.328

181.288 117.005 -1.06345e-12
117.005 225.791 1.82846e-12
-1.06345e-12 1.82846e-12 113.43

182.584 -116.948 9.40285e-13
-116.948 223.03 -1.38793e-12
9.40285e-13 -1.38793e-12 113.404

321.174 -1.36121 -1.76215e-12
-1.36121 84.547 -4.05648e-14
-1.76215e-12 -4.05648e-14 114.769

274.082 -91.0085 -8.62125e-13
-91.0085 127.256 1.8782e-12
-8.62125e-13 1.8782e-12 113.644

274.777 91.5354 1.54425e-12
91.5354 128.088 9.71075e-14
1.54425e-12 9.71075e-14 114.413

524.351 14.2972 -5.53927e-13
14.2972 473.941 3.17494e-12
-5.53927e-13 3.17494e-12 501.477

555.843 25.4765 -1.78376e-12
25.4765 540.265 2.47298e-12
-1.78376e-12 2.47298e-12 532.55

491.275 6.59072 -1.74853e-12
6.59072 438.427 -1.03103e-13
-1.74853e-12 -1.03103e-13 470.629

469.529 21.7344 -2.62901e-13
21.7344 423.851 -2.11979e-13
-2.62901e-13 -2.11979e-13 437.489

409.34 17.704 6.77192e-12
17.704 460.321 -4.40122e-12
6.77192e-12 -4.40122e-12 424.364

447.289 28.8328 9.07718e-13
28.8328 424.037 3.51067e-12
9.07718e-13 3.51067e-12 420.08

486.344 -29.5944 4.47938e-12
-29.5944 464.873 7.27418e-13
4.47938e-12 7.27418e-13 473.81

448.643 27.9643 8.65086e-13
27.9643 420.411 6.2883e-13
8.65086e-13 6.2883e-13 417.976

402.344 -2.83533 9.76108e-13
-2.83533 464.62 -9.58048e-13
9.76108e-13 -9.58048e-13 416.877

554.852 -26.0362 -1.3672e-12
-26.0362 542.454 2.08722e-13
-1.3672e-12 2.08722e-13 532.794

404.877 -4.85196 -1.01223e-12
-4.85196 466.355 2.75335e-12
-1.01223e-12 2.75335e-12 419.93

521.412 22.9628 -1.84031e-12
22.9628 498.915 2.67845e-12
-1.84031e-12 2.67845e-12 507.121

422.712 26.8113 -2.77349e-12
26.8113 385.918 5.70803e-13
-2.77349e-12 5.70803e-13 372.449

479.329 -13.1852 4.7223e-12
-13.1852 531.865 1.96287e-13
4.7223e-12 1.96287e-13 511.144

483.397 13.6959 2.46144e-12
13.6959 432.094 -4.45066e-12
2.46144e-12 -4.45066e-12 456.132

456.627 -29.9185 -3.18027e-12
-29.9185 436.282 4.1546e-12
-3.18027e-12 4.1546e-12 437.128

453.573 -24.6569 1.27187e-12
-24.6569 416.154 -2.47979e-12
1.27187e-12 -2.47979e-12 419.185

546.469 -16.0376 -8.77816e-13
-16.0376 508.459 -1.25056e-12
-8.77816e-13 -1.25056e-12 518.513

475.191 27.8641 -4.76656e-12
27.8641 448.985 -2.26515e-12
-4.76656e-12 -2.26515e-12 456.182

468.333 23.9222 -3.03046e-12
23.9222 427.176 -8.60053e-13
-3.03046e-12 -8.60053e-13 439.121

431.748 -2.78621 2.37762e-12
-2.78621 492.815 1.06581e-13
2.37762e-12 1.06581e-13 456.363

416.958 5.85963 3.73153e-12
5.85963 478.765 8.03505e-13
3.73153e-12 8.03505e-13 439.468

462.255 2.6406 -3.73745e-12
2.6406 401.662 1.94659e-13
-3.73745e-12 1.94659e-13 421.648

437.944 -7.2734 8.90547e-13
-7.2734 373.355 -6.34737e-12
8.90547e-13 -6.34737e-12 380.625

454.108 30.4144 4.35681e-12
30.4144 438.316 -2.43361e-13
4.35681e-12 -2.43361e-13 437.132

477.678 -26.0949 -2.64677e-12
-26.0949 442.837 7.88969e-12
-2.64677e-12 7.88969e-12 453.908

524.813 -21.2048 -3.75788e-12
-21.2048 497.006 2.46529e-12
-3.75788e-12 2.46529e-12 507.769

437.035 -31.5612 -8.84034e-13
-31.5612 436.958 -5.70211e-13
-8.84034e-13 -5.70211e-13 426.177

416.937 -27.7223 1.73372e-12
-27.7223 443.682 -1.64254e-12
1.73372e-12 -1.64254e-12 419.02

429.965 29.8188 -8.89955e-13
29.8188 442.035 -1.24227e-12
-8.89955e-13 -1.24227e-12 425.816

415.579 -9.55582 -9.25889e-13
-9.55582 474.429 -2.82678e-12
-9.25889e-13 -2.82678e-12 435.753

428.222 -1.5416 6.93364e-12
-1.5416 491.05 5.37644e-13
6.93364e-12 5.37644e-13 453.257

444.475 5.73431 1.0685e-12
5.73431 507.19 -4.54155e-13
1.0685e-12 -4.54155e-13 474.134

413.974 -21.041 2.57483e-12
-21.041 457.662 4.65228e-12
2.57483e-12 4.65228e-12 425.385

496.041 24.0552 -2.84987e-12
24.0552 454.965 -2.14584e-12
-2.84987e-12 -2.14584e-12 473.813

482.574 -9.56748 -3.87423e-12
-9.56748 429.436 5.06469e-12
-3.87423e-12 5.06469e-12 454.481

414.988 7.44802 -2.51719e-12
7.44802 476.334 5.46999e-12
-2.51719e-12 5.46999e-12 436.211

443.25 -9.67842 1.75757e-12
-9.67842 500.665 1.87465e-12
1.75757e-12 1.87465e-12 470.235

432.491 -16.293 -3.94603e-12
-16.293 480.881 -2.59526e-12
-3.94603e-12 -2.59526e-12 454.927

462.783 -8.22054 9.50943e-13
-8.22054 405.709 4.95515e-12
9.50943e-13 4.95515e-12 420.799

493.616 -32.271 1.69672e-12
-32.271 486.814 1.2168e-13
1.69672e-12 1.2168e-13 495.426

422.283 9.29996 -2.43479e-12
9.29996 478.301 4.763e-12
-2.43479e-12 4.763e-12 440.269

563.386 -18.1703 -2.20357e-12
-18.1703 529.06 -9.90319e-13
-2.20357e-12 -9.90319e-13 530.935

308.611 24.775 5.62513e-14
24.775 378.85 1.6982e-12
5.62513e-14 1.6982e-12 289.37

500.865 -26.5642 2.85697e-13
-26.5642 498.661 -1.17743e-12
2.85697e-13 -1.17743e-12 500.365

514.784 -30.1321 -3.14534e-12
-30.1321 497.579 -1.70471e-12
-3.14534e-12 -1.70471e-12 504.077

428.549 -0.699299 1.76355e-12
-0.699299 491.175 7.88702e-13
1.76355e-12 7.88702e-13 453.408

474.102 -16.5841 -1.19134e-12
-16.5841 427.664 2.91471e-12
-1.19134e-12 2.91471e-12 441.244

461.561 12.8118 -1.65394e-12
12.8118 510.417 -5.28052e-12
-1.65394e-12 -5.28052e-12 488.312

240.456 -3.1711 2.5017e-13
-3.1711 360.169 8.50283e-13
2.5017e-13 8.50283e-13 226.641

431.723 14.2407 -3.33696e-12
14.2407 484.553 -1.84149e-12
-3.33696e-12 -1.84149e-12 456.14

457.37 -29.4216 -1.24416e-11
-29.4216 442.464 8.62125e-13
-1.24416e-11 8.62125e-13 440.052

303.768 25.0662 -1.70412e-12
25.0662 394.019 -5.33381e-12
-1.70412e-12 -5.33381e-12 263.96

602.498 26.0366 -4.00628e-12
26.0366 596.915 -8.61874e-12
-4.00628e-12 -8.61874e-12 557.212

607.22 -27.7417 6.07929e-12
-27.7417 593.997 6.41901e-12
6.07929e-12 6.41901e-12 557.345

462.742 -30.3485 -1.54365e-12
-30.3485 458.297 8.99133e-13
-1.54365e-12 8.99133e-13 458.326

433.894 -31.089 4.53267e-12
-31.089 435.665 -2.78947e-12
4.53267e-12 -2.78947e-12 423.985

473.324 20.7793 -1.58629e-12
20.7793 431.234 1.15582e-12
-1.58629e-12 1.15582e-12 443.257

464.462 14.9717 -2.02801e-12
14.9717 409.482 1.93504e-12
-2.02801e-12 1.93504e-12 426.78

644.925 3.07447 -7.72604e-12
3.07447 644.583 1.30429e-12
-7.72604e-12 1.30429e-12 573.645

648.737 -6.98155 6.57274e-12
-6.98155 640.264 1.81855e-12
6.57274e-12 1.81855e-12 574.172

496.162 4.81293 4.65405e-13
4.81293 441.336 2.74299e-13
4.65405e-13 2.74299e-13 476.628

442.854 6.71575 -8.24822e-13
6.71575 502.148 -1.17121e-12
-8.24822e-13 -1.17121e-12 470.279

441.272 6.72056 8.88522e-13
6.72056 501.674 -3.62377e-13
8.88522e-13 -3.62377e-13 469.004

321.09 58.5361 -7.14806e-12
58.5361 280.731 -1.82136e-12
-7.14806e-12 -1.82136e-12 224.755

419.57 -28.1357 1.19608e-13
-28.1357 443.311 1.81366e-12
1.19608e-13 1.81366e-12 420.362

519.701 17.9323 -4.37783e-12
17.9323 466.777 -1.39355e-12
-4.37783e-12 -1.39355e-12 498.679

472.205 9.51769 -2.60414e-12
9.51769 420.54 3.66433e-12
-2.60414e-12 3.66433e-12 435.503

439.928 -26.6623 3.3058e-12
-26.6623 450.002 -2.72138e-12
3.3058e-12 -2.72138e-12 432.721

468.509 -20.1912 -2.86941e-12
-20.1912 422.055 -2.47062e-12
-2.86941e-12 -2.47062e-12 436.474

312.03 60.1329 -2.73322e-12
60.1329 280.988 3.50416e-12
-2.73322e-12 3.50416e-12 222.896

491.868 30.9965 -2.40075e-12
30.9965 488.237 1.15907e-12
-2.40075e-12 1.15907e-12 492.321

410.227 -19.7411 1.82521e-12
-19.7411 457.138 -1.66563e-12
1.82521e-12 -1.66563e-12 422.823

473.352 28.791 -1.9084e-12
28.791 448.912 -5.30539e-13
-1.9084e-12 -5.30539e-13 455.777

430.28 -4.13566 -2.44308e-12
-4.13566 492.153 -9.06534e-13
-2.44308e-12 -9.06534e-13 455.726

423.266 19.5648 5.31604e-12
19.5648 464.952 -3.71377e-12
5.31604e-12 -3.71377e-12 433.412

452.018 30.4487 -1.43174e-12
30.4487 442.89 -5.50671e-13
-1.43174e-12 -5.50671e-13 438.901

427.969 -22.4222 3.95654e-12
-22.4222 460.388 2.33769e-12
3.95654e-12 2.33769e-12 433.118

442.866 -27.2902 -3.80318e-12
-27.2902 449.709 1.05989e-13
-3.80318e-12 1.05989e-13 434.348

294.371 11.2377 1.00366e-11
11.2377 372.042 6.23383e-12
1.00366e-11 6.23383e-12 257.727

356.774 -33.3924 4.49892e-12
-33.3924 388.531 -4.09273e-12
4.49892e-12 -4.09273e-12 313.66

419.004 -11.6637 -3.54206e-12
-11.6637 475.577 4.94419e-13
-3.54206e-12 4.94419e-13 438.638

477.611 26.4235 -2.08307e-12
26.4235 446.086 3.28922e-12
-2.08307e-12 3.28922e-12 455.343

451.617 29.4103 1.06641e-12
29.4103 448.306 -1.32635e-13
1.06641e-12 -1.32635e-13 441.687

426.138 -21.3853 5.05077e-13
-21.3853 461.034 7.98176e-13
5.05077e-13 7.98176e-13 431.937

422.27 -11.7558 -4.93531e-13
-11.7558 475.864 -2.68111e-12
-4.93531e-13 -2.68111e-12 439.221

456.966 28.3444 4.49004e-12
28.3444 446.372 2.42058e-12
4.49004e-12 2.42058e-12 441.858

424.44 -13.8464 -4.26326e-13
-13.8464 475.636 3.12816e-12
-4.26326e-13 3.12816e-12 441.393

310.824 27.7992 -8.83619e-12
27.7992 376.823 -2.58874e-12
-8.83619e-12 -2.58874e-12 289.556

484.378 -4.03147 1.883e-12
-4.03147 544.117 -5.97211e-12
1.883e-12 -5.97211e-12 510.183

432.298 30.9567 1.64135e-12
30.9567 438.927 2.50466e-12
1.64135e-12 2.50466e-12 425.339

508.457 14.8666 -2.50377e-12
14.8666 462.416 -4.07674e-13
-2.50377e-12 -4.07674e-13 487.798

516.051 -15.8906 -5.45608e-12
-15.8906 466.827 4.64221e-13
-5.45608e-12 4.64221e-13 493.104

383.347 -24.1594 3.7043e-12
-24.1594 305.518 -9.65391e-12
3.7043e-12 -9.65391e-12 284.934

441.577 -21.2182 -9.98313e-13
-21.2182 475.219 2.18137e-12
-9.98313e-13 2.18137e-12 458.574

447.112 26.6365 -4.61942e-12
26.6365 465.449 -2.53427e-12
-4.61942e-12 -2.53427e-12 457.097

522.099 -21.6777 -1.20792e-12
-21.6777 542.884 -3.9209e-12
-1.20792e-12 -3.9209e-12 524.426

578.585 14.0726 6.02614e-12
14.0726 616.534 2.45374e-12
6.02614e-12 2.45374e-12 556.109

619.114 9.42436 6.18143e-12
9.42436 575.85 -4.14691e-12
6.18143e-12 -4.14691e-12 555.928

522.59 32.6289 4.60639e-12
32.6289 519.777 8.63028e-12
4.60639e-12 8.63028e-12 518.652

414.245 25.9414 2.78e-13
25.9414 448.182 1.05397e-13
2.78e-13 1.05397e-13 419.707

477.31 26.5995 1.5703e-12
26.5995 444.061 -1.77044e-13
1.5703e-12 -1.77044e-13 454.768

331.88 45.1003 -3.45561e-12
45.1003 348.972 -4.73695e-15
-3.45561e-12 -4.73695e-15 286.316

570.411 -11.3162 5.32182e-12
-11.3162 613.392 -1.34411e-13
5.32182e-12 -1.34411e-13 553.656

640.19 -3.42382 2.22449e-11
-3.42382 635.747 -3.13112e-12
2.22449e-11 -3.13112e-12 571.425

633.786 -0.208521 3.37656e-13
-0.208521 642.036 -3.19352e-12
3.37656e-13 -3.19352e-12 571.252

272.593 -53.7146 -6.6566e-12
-53.7146 315.997 -8.88178e-13
-6.6566e-12 -8.88178e-13 220.593

565.665 -11.5729 3.12343e-13
-11.5729 561.161 3.74101e-12
3.12343e-13 3.74101e-12 539.985

562.805 8.7918 -9.42268e-12
8.7918 585.943 1.61027e-12
-9.42268e-12 1.61027e-12 545.915

477.457 -26.1386 -2.16656e-12
-26.1386 439.742 -2.45137e-13
-2.16656e-12 -2.45137e-13 452.746

493.536 1.0083 -7.5957e-12
1.0083 544.826 -6.90233e-12
-7.5957e-12 -6.90233e-12 513.196

446.937 -20.221 1.73846e-12
-20.221 483.36 -1.56319e-12
1.73846e-12 -1.56319e-12 469.866

505.453 6.24083 -2.38121e-12
6.24083 442.674 2.75557e-13
-2.38121e-12 2.75557e-13 485.322

460.535 15.5597 -2.21389e-12
15.5597 520.372 1.73787e-12
-2.21389e-12 1.73787e-12 496.729

470.418 7.17462 -1.21532e-13
7.17462 527.111 -3.28152e-12
-1.21532e-13 -3.28152e-12 496.863

492.943 20.3454 2.23466e-12
20.3454 450.795 1.77843e-12
2.23466e-12 1.77843e-12 468.981

240.745 -3.11238 -3.47167e-12
-3.11238 358.042 1.68162e-13
-3.47167e-12 1.68162e-13 226.738

462.948 -27.56 -6.4837e-12
-27.56 462.64 -2.51236e-12
-6.4837e-12 -2.51236e-12 460.439

487.54 -26.0558 2.62013e-12
-26.0558 480.808 7.12289e-12
2.62013e-12 7.12289e-12 485.066

496.713 -31.4099 1.85067e-12
-31.4099 489.152 -3.18708e-13
1.85067e-12 -3.18708e-13 498.151

355.084 32.6919 -2.6598e-12
32.6919 285.385 -7.93351e-12
-2.6598e-12 -7.93351e-12 248.007

562.915 -20.0694 3.91746e-12
-20.0694 568.632 -5.11176e-12
3.91746e-12 -5.11176e-12 541.654

337.177 54.2375 -6.61515e-12
54.2375 356.158 -1.81425e-12
-6.61515e-12 -1.81425e-12 258.503

476.294 -21.3893 -1.4763e-12
-21.3893 505.646 0
-1.4763e-12 0 499.411

503.928 14.616 -1.73017e-12
14.616 451.266 1.54025e-12
-1.73017e-12 1.54025e-12 480.767

449.106 -14.5393 -1.32398e-12
-14.5393 396.378 5.91334e-12
-1.32398e-12 5.91334e-12 400.209

451.868 23.9909 3.64094e-12
23.9909 477.994 8.21861e-13
3.64094e-12 8.21861e-13 467.083

492.846 20.3802 2.27907e-12
20.3802 448.783 -7.87577e-12
2.27907e-12 -7.87577e-12 468.574

504.729 11.3735 -5.40464e-12
11.3735 563.442 1.95873e-12
-5.40464e-12 1.95873e-12 525.825

475.117 -31.5066 -6.64357e-13
-31.5066 469.591 -4.3577e-12
-6.64357e-13 -4.3577e-12 474.284

558.307 19.7663 -1.65793e-14
19.7663 509.592 5.47414e-12
-1.65793e-14 5.47414e-12 525.601

439.261 -18.4011 8.62421e-13
-18.4011 481.669 -2.49578e-12
8.62421e-13 -2.49578e-12 458.402

465.147 4.27352 -5.07673e-14
4.27352 525.216 -8.78704e-13
-5.07673e-14 -8.78704e-13 494.687

587.615 9.90403 5.20502e-12
9.90403 551.522 -4.403e-12
5.20502e-12 -4.403e-12 544.266

589.394 -8.49407 -4.7932e-13
-8.49407 553.859 6.83009e-13
-4.7932e-13 6.83009e-13 544.783

381.731 18.479 -1.75267e-13
18.479 301.865 -5.78145e-12
-1.75267e-13 -5.78145e-12 285.712

501.84 7.94661 1.15582e-12
7.94661 452.876 1.61204e-13
1.15582e-12 1.61204e-13 486.958

232.52 7.72456 -1.72159e-12
7.72456 381.027 -1.7053e-12
-1.72159e-12 -1.7053e-12 186.928

236.684 -11.3656 1.83679e-12
-11.3656 386.715 -3.13112e-12
1.83679e-12 -3.13112e-12 189.189

248.976 56.3362 3.61429e-12
56.3362 354.318 -9.18969e-13
3.61429e-12 -9.18969e-13 183.768

504.171 -28.883 -5.73763e-13
-28.883 477.834 -7.01069e-13
-5.73763e-13 -7.01069e-13 490.529

258.12 -49.1079 1.89715e-12
-49.1079 341.363 2.73085e-12
1.89715e-12 2.73085e-12 220.419

248.981 -55.8786 -4.47879e-12
-55.8786 344.306 -1.80478e-12
-4.47879e-12 -1.80478e-12 180.865

433.965 26.1602 -9.07718e-13
26.1602 453.658 -3.34666e-12
-9.07718e-13 -3.34666e-12 432.13

329.498 73.7489 -1.73846e-12
73.7489 279.661 4.47642e-12
-1.73846e-12 4.47642e-12 184.572

539.21 13.0168 -3.34754e-12
13.0168 553.998 4.46813e-12
-3.34754e-12 4.46813e-12 531.18

561.417 0.0407146 5.10051e-12
0.0407146 531.555 -1.68251e-12
5.10051e-12 -1.68251e-12 530.974

338.166 -73.0362 3.20218e-12
-73.0362 279.508 8.33703e-13
3.20218e-12 8.33703e-13 186.053

431.986 -23.37 -9.38805e-13
-23.37 465.549 3.87009e-12
-9.38805e-13 3.87009e-12 446.847

358.411 34.6679 -4.39352e-12
34.6679 310.54 3.60837e-12
-4.39352e-12 3.60837e-12 257.662

267.362 63.4056 4.99748e-13
63.4056 344.774 8.90547e-13
4.99748e-13 8.90547e-13 185.589

293.287 21.5917 -5.26157e-12
21.5917 367.125 3.96246e-12
-5.26157e-12 3.96246e-12 254.128

267.234 -65.8314 5.44276e-12
-65.8314 344.411 1.8711e-12
5.44276e-12 1.8711e-12 184.047

291.237 -12.3601 9.94168e-13
-12.3601 370.343 4.12588e-12
9.94168e-13 4.12588e-12 253.075

549.371 6.82496 3.59512e-12
6.82496 581.068 1.13725e-11
3.59512e-12 1.13725e-11 540.203

329.41 -45.8893 -6.11777e-12
-45.8893 341.317 1.88531e-12
-6.11777e-12 1.88531e-12 276.208

259.427 47.451 1.05397e-13
47.451 339.739 -3.30639e-12
1.05397e-13 -3.30639e-12 222.827

369.745 37.8572 -4.04536e-12
37.8572 244.607 -1.83616e-12
-4.04536e-12 -1.83616e-12 187.098

481.097 -29.2177 4.27332e-12
-29.2177 459.768 1.77428e-12
4.27332e-12 1.77428e-12 466.948

480.191 12.8663 2.75816e-12
12.8663 524.94 -1.91254e-13
2.75816e-12 -1.91254e-13 503.263

353.904 -38.0458 1.46846e-12
-38.0458 299.659 1.0516e-12
1.46846e-12 1.0516e-12 251.449

481.739 -28.7351 -6.69094e-13
-28.7351 459.577 -4.43823e-12
-6.69094e-13 -4.43823e-12 467.696

364.798 -36.2905 -8.28967e-13
-36.2905 230.695 -7.09299e-12
-8.28967e-13 -7.09299e-12 182.518

480.711 -28.2515 5.99816e-13
-28.2515 471.984 -3.09678e-13
5.99816e-13 -3.09678e-13 477.132

435.662 -25.2367 8.46434e-13
-25.2367 465.463 3.97489e-12
8.46434e-13 3.97489e-12 447.484

314.4 69.3685 3.67587e-12
69.3685 291.767 3.69245e-12
3.67587e-12 3.69245e-12 184.269

290.381 -22.8923 5.83356e-12
-22.8923 358.645 7.24043e-12
5.83356e-12 7.24043e-12 246.672

312.006 -71.5974 -1.69583e-12
-71.5974 287.752 -5.35039e-12
-1.69583e-12 -5.35039e-12 181.775

268.182 50.654 -3.55271e-12
50.654 319.604 -5.50907e-12
-3.55271e-12 -5.50907e-12 221.187

459.116 -30.1422 -9.33239e-12
-30.1422 454.112 2.85579e-12
-9.33239e-12 2.85579e-12 453.662

558.328 -14.6064 2.50762e-12
-14.6064 543.487 2.56536e-12
2.50762e-12 2.56536e-12 532.817

634.797 11.066 -1.70804e-12
11.066 630.273 6.93963e-13
-1.70804e-12 6.93963e-13 569.052

618.872 -5.14922 -6.56319e-12
-5.14922 638.604 4.94897e-12
-6.56319e-12 4.94897e-12 567.533

453.143 13.0531 1.23209e-12
13.0531 505.706 -5.32315e-13
1.23209e-12 -5.32315e-13 481.775

633.031 -10.6415 -9.51498e-12
-10.6415 630.203 -4.26474e-12
-9.51498e-12 -4.26474e-12 568.908

621.605 4.08349 -5.43861e-12
4.08349 641.544 1.42606e-11
-5.43861e-12 1.42606e-11 568.732

642.234 7.41481 1.29153e-11
7.41481 618.063 -4.60446e-12
1.29153e-11 -4.60446e-12 568.056

583.768 -12.0861 -9.39049e-12
-12.0861 630.549 -8.22364e-12
-9.39049e-12 -8.22364e-12 559.643

307.011 -30.4115 8.17598e-12
-30.4115 371.078 -6.21251e-12
8.17598e-12 -6.21251e-12 280.357

588.597 -12.9422 -3.25192e-12
-12.9422 548.18 5.16476e-12
-3.25192e-12 5.16476e-12 542.906

526.318 -34.3371 -5.97152e-13
-34.3371 520.61 2.99479e-12
-5.97152e-13 2.99479e-12 519.092

564.49 -18.1349 8.82849e-13
-18.1349 537.08 2.96504e-12
8.82849e-13 2.96504e-12 533.357

501.73 15.4233 2.2086e-12
15.4233 451.393 -1.93564e-12
2.2086e-12 -1.93564e-12 479.415

585.338 9.84098 -1.716e-12
9.84098 640.992 -7.66809e-12
-1.716e-12 -7.66809e-12 562.148

635.528 19.1822 -1.02798e-11
19.1822 590.699 4.38797e-12
-1.02798e-11 4.38797e-12 561.97

568.792 11.2807 -3.17405e-12
11.2807 543.416 8.44983e-12
-3.17405e-12 8.44983e-12 535.531

352.937 -15.3093 -3.54561e-12
-15.3093 231.207 -5.42677e-12
-3.54561e-12 -5.42677e-12 218.701

436.512 24.9066 -9.40877e-13
24.9066 461.162 -1.35773e-12
-9.40877e-13 -1.35773e-12 445.001

316.654 -61.2546 -3.95062e-12
-61.2546 277.465 -7.36596e-13
-3.95062e-12 -7.36596e-13 217.778

333.747 -57.3694 -3.49113e-12
-57.3694 356.824 1.4803e-12
-3.49113e-12 1.4803e-12 252.178

382.791 -36.4851 1.49925e-12
-36.4851 305.317 -8.12979e-12
1.49925e-12 -8.12979e-12 257.389

561.536 -5.14665 -4.1848e-12
-5.14665 615.864 1.35373e-12
-4.1848e-12 1.35373e-12 552.013

561.244 2.88438 3.43932e-12
2.88438 614.732 4.91932e-12
3.43932e-12 4.91932e-12 551.613

597.725 -24.399 -4.83584e-12
-24.399 574.751 4.61238e-12
-4.83584e-12 4.61238e-12 550.644

601.275 -21.7096 4.94482e-12
-21.7096 572.447 -3.09856e-12
4.94482e-12 -3.09856e-12 550.91

597.738 26.0747 -6.77088e-13
26.0747 579.455 -1.45387e-12
-6.77088e-13 -1.45387e-12 551.798

624.642 3.09035 4.38212e-12
3.09035 629.622 6.50628e-12
4.38212e-12 6.50628e-12 567.456

598.014 -20.4607 -1.44507e-12
-20.4607 575.361 -2.04259e-12
-1.44507e-12 -2.04259e-12 551.331

606.75 -18.525 6.37934e-12
-18.525 619.17 1.32353e-12
6.37934e-12 1.32353e-12 562.23

631.786 2.42736 -1.06715e-12
2.42736 634.403 -3.53125e-12
-1.06715e-12 -3.53125e-12 569.537

606.82 -20.4785 -6.22206e-12
-20.4785 571.444 1.58481e-12
-6.22206e-12 1.58481e-12 552.468

606.007 20.907 -1.51745e-12
20.907 572.699 1.13391e-12
-1.51745e-12 1.13391e-12 552.871

632.735 -3.44882 -1.8104e-12
-3.44882 635.651 3.03461e-14
-1.8104e-12 3.03461e-14 570.31

631.066 -3.10777 2.686e-12
-3.10777 624.656 2.0797e-11
2.686e-12 2.0797e-11 568.428

608.617 12.0823 2.98043e-12
12.0823 619.393 8.64471e-12
2.98043e-12 8.64471e-12 562.96

586.185 26.8667 -5.61329e-13
26.8667 582.009 1.16244e-11
-5.61329e-13 1.16244e-11 550.768

FIELD solute_concentration_TPM 2
S_ext 1 563 float
0.577182
0.577072
0.577083
0.577072
0.577055
0.577083
0.577182
0.577078
0.577093
0.577074
0.577159
0.577078
0.57708
0.577073
0.577059
0.577082
0.577069
0.577077
0.577095
0.577085
0.577088
0.577025
0.577086
0.577085
0.577085
0.577075
0.577153
0.577082
0.577123
0.57704
0.577081
0.577122
0.577156
0.577045
0.577045
0.577045
0.577038
0.577046
0.577081
0.577156
0.577123
0.577038
0.577038
0.57708
0.577142
0.577122
0.577094
0.577091
0.577083
0.577128
0.577125
0.577114
0.577054
0.577114
0.577055
0.577145
0.577045
0.577114
0.577045
0.577084
0.577068
0.577064
0.577151
0.577065
0.577063
0.577071
0.577068
0.577076
0.577085
0.577071
0.577054
0.577054
0.577123
0.577069
0.577083
0.577158
0.57706
0.577071
0.577075
0.577109
0.577133
0.577052
0.577066
0.577134
0.577122
0.577144
0.577082
0.577071
0.577142
0.57703
0.577114
0.57703
0.577059
0.577073
0.577114
0.577125
0.577134
0.577074
0.577061
0.577081
0.577103
0.57712
0.577134
0.577075
0.577075
0.577074
0.577065
0.577082
0.577134
0.577068
0.577084
0.57714
0.577136
0.577076
0.577074
0.577115
0.577046
0.577135
0.577047
0.577114
0.577098
0.57706
0.577071
0.577068
0.577068
0.577058
0.577048
0.577074
0.577134
0.577113
0.577053
0.577072
0.577066
0.577071
0.577121
0.577044
0.57714
0.57708
0.577065
0.577044
0.577119
0.577076
0.577098
0.577073
0.577136
0.577074
0.577077
0.577084
0.577083
0.577105
0.577091
0.577071
0.577122
0.57708
0.577073
0.577071
0.577072
0.577119
0.577118
0.577078
0.577091
0.577121
0.577141
0.577124
0.577118
0.577074
0.577119
0.577119
0.577122
0.577118
0.577058
0.577114
0.577125
0.577072
0.577114
0.577065
0.577058
0.577078
0.577055
0.577075
0.577123
0.577074
0.577074
0.577119
0.57707
0.577125
0.577068
0.577066
0.577059
0.577074
0.57707
0.577133
0.577113
0.577122
0.577071
0.577077
0.577076
0.577066
0.577071
0.577072
0.577071
0.577095
0.577109
0.577066
0.577123
0.577065
0.577072
0.57712
0.577063
0.577071
0.577063
0.577074
0.577075
0.577066
0.577104
0.577074
0.577109
0.577066
0.577068
0.577068
0.577068
0.577068
0.577068
0.577069
0.577074
0.577059
0.577059
0.577059
0.577059
0.577055
0.577055
0.577105
0.577073
0.577071
0.577092
0.57706
0.577059
0.577071
0.577109
0.577071
0.577074
0.577105
0.577062
0.577105
0.577066
0.577071
0.577104
0.577108
0.577133
0.577129
0.577066
0.577137
0.577081
0.577109
0.577095
0.577071
0.577068
0.577039
0.577068
0.577139
0.577108
0.577071
0.577078
0.577109
0.577068
0.577097
0.577039
0.577108
0.577068
0.577069
0.577076
0.57706
0.577071
0.577055
0.577079
0.57714
0.577144
0.577058
0.577087
0.577078
0.577106
0.577062
0.577072
0.577108
0.577072
0.577103
0.577077
0.577103
0.577109
0.577033
0.577057
0.577058
0.577058
0.577073
0.577103
0.577046
0.57707
0.577091
0.577102
0.577105
0.577057
0.577104
0.57706
0.577105
0.577142
0.577102
0.577136
0.577066
0.577104
0.577033
0.577104
0.577068
0.577105
0.577069
0.577104
0.577083
0.577155
0.577083
0.577105
0.577056
0.577105
0.57709
0.57707
0.577071
0.577104
0.577103
0.577097
0.577067
0.577102
0.577079
0.577082
0.577056
0.577103
0.577098
0.577089
0.577097
0.577103
0.577097
0.577064
0.577078
0.577098
0.577105
0.577076
0.577076
0.577103
0.577056
0.577163
0.577084
0.577133
0.577089
0.577197
0.577197
0.577196
0.577196
0.577194
0.5772
0.5772
0.577066
0.57705
0.577078
0.57709
0.577095
0.577097
0.577077
0.577098
0.577098
0.57705
0.577097
0.577063
0.577114
0.57706
0.577083
0.577091
0.577098
0.577058
0.577084
0.57709
0.577084
0.57709
0.577096
0.57711
0.57709
0.577085
0.577063
0.577094
0.577097
0.577095
0.577091
0.577085
0.577076
0.577095
0.577077
0.577084
0.577091
0.577078
0.577084
0.577096
0.577068
0.57709
0.57705
0.577142
0.577066
0.577064
0.577084
0.57709
0.577071
0.577163
0.577083
0.57709
0.577154
0.577035
0.577035
0.577083
0.577095
0.577089
0.577095
0.577025
0.577024
0.577076
0.577078
0.577078
0.577166
0.577096
0.577067
0.577092
0.577093
0.577091
0.577163
0.577069
0.577096
0.577084
0.577084
0.577092
0.57709
0.577092
0.577092
0.577155
0.577136
0.57709
0.577084
0.577089
0.577093
0.57709
0.577089
0.577089
0.577142
0.577061
0.577094
0.577071
0.577069
0.577143
0.577083
0.577083
0.577056
0.577032
0.577032
0.577057
0.577097
0.577084
0.577144
0.577033
0.577024
0.577024
0.577164
0.577046
0.57704
0.577085
0.57706
0.577078
0.577073
0.577067
0.577067
0.577079
0.577163
0.577082
0.577073
0.577067
0.577159
0.577043
0.577158
0.577066
0.577075
0.577104
0.57708
0.577079
0.577052
0.577077
0.577053
0.577083
0.577068
0.577042
0.577042
0.577145
0.577072
0.577183
0.577184
0.577183
0.57707
0.577166
0.577184
0.577093
0.577183
0.577052
0.577052
0.577183
0.577087
0.577157
0.577186
0.577157
0.577186
0.577157
0.577045
0.577147
0.577166
0.577182
0.57708
0.577064
0.577158
0.577079
0.577182
0.577075
0.577087
0.577186
0.577159
0.577186
0.577163
0.577084
0.57705
0.577024
0.577025
0.577073
0.577024
0.577024
0.577024
0.57703
0.577146
0.577042
0.577058
0.57705
0.577075
0.577029
0.577029
0.57705
0.577164
0.577088
0.577168
0.577161
0.577156
0.577034
0.577034
0.577035
0.577035
0.577034
0.577026
0.577037
0.57703
0.577026
0.577035
0.577035
0.577026
0.577026
0.577029
0.577036
P_ext 1 563 float
0.0151755
0.0151718
0.0151723
0.0151718
0.0151704
0.0151723
0.0151755
0.0151721
0.0151727
0.0151718
0.0151749
0.015172
0.0151722
0.0151718
0.0151708
0.0151723
0.0151715
0.015172
0.0151728
0.0151724
0.0151725
0.0151679
0.0151724
0.0151724
0.0151724
0.0151719
0.0151747
0.0151722
0.0151738
0.0151692
0.0151722
0.0151738
0.0151748
0.0151697
0.0151697
0.0151697
0.0151691
0.0151698
0.0151722
0.0151748
0.0151738
0.0151691
0.0151691
0.0151722
0.0151744
0.0151738
0.0151728
0.0151727
0.0151723
0.015174
0.0151739
0.0151735
0.0151704
0.0151735
0.0151705
0.0151745
0.0151696
0.0151735
0.0151697
0.0151724
0.0151715
0.0151712
0.0151746
0.0151712
0.0151712
0.0151716
0.0151715
0.015172
0.0151724
0.0151717
0.0151704
0.0151704
0.0151738
0.0151715
0.0151724
0.0151749
0.0151709
0.0151716
0.0151719
0.0151734
0.0151741
0.0151703
0.0151713
0.0151742
0.0151738
0.0151744
0.0151722
0.0151715
0.0151744
0.0151681
0.0151735
0.0151681
0.0151708
0.0151716
0.0151735
0.0151739
0.0151741
0.0151719
0.0151709
0.0151722
0.0151731
0.0151737
0.0151741
0.015172
0.0151719
0.0151719
0.0151712
0.0151723
0.0151742
0.0151716
0.0151724
0.0151743
0.0151742
0.015172
0.0151719
0.0151735
0.0151697
0.0151742
0.0151697
0.0151735
0.0151729
0.0151709
0.0151717
0.0151715
0.0151715
0.0151708
0.0151698
0.0151718
0.0151742
0.0151735
0.0151703
0.0151718
0.0151713
0.0151718
0.0151737
0.0151696
0.0151743
0.0151721
0.0151713
0.0151696
0.0151737
0.0151719
0.0151729
0.0151718
0.0151742
0.0151719
0.0151719
0.0151723
0.0151723
0.0151732
0.0151726
0.0151717
0.0151738
0.0151722
0.0151718
0.0151718
0.0151717
0.0151737
0.0151737
0.0151721
0.0151727
0.0151737
0.0151744
0.0151738
0.0151736
0.0151719
0.0151737
0.0151737
0.0151738
0.0151736
0.0151707
0.0151735
0.0151739
0.0151717
0.0151735
0.0151713
0.0151707
0.015172
0.0151705
0.0151719
0.0151738
0.0151719
0.0151719
0.0151737
0.0151716
0.0151739
0.0151715
0.0151713
0.0151707
0.0151719
0.0151715
0.0151741
0.0151735
0.0151738
0.0151718
0.0151721
0.015172
0.0151713
0.0151717
0.0151717
0.0151717
0.0151728
0.0151734
0.0151713
0.0151738
0.0151713
0.0151716
0.0151737
0.0151711
0.0151717
0.015171
0.0151718
0.0151719
0.0151713
0.0151732
0.0151718
0.0151734
0.0151713
0.0151715
0.0151715
0.0151716
0.0151716
0.0151716
0.0151716
0.0151718
0.0151709
0.0151709
0.0151708
0.0151708
0.0151704
0.0151704
0.0151732
0.0151718
0.0151717
0.0151727
0.0151708
0.0151708
0.0151717
0.0151733
0.0151718
0.0151719
0.0151732
0.015171
0.0151732
0.0151713
0.0151718
0.0151732
0.0151733
0.0151741
0.015174
0.0151713
0.0151742
0.0151722
0.0151734
0.0151728
0.0151718
0.0151715
0.0151691
0.0151716
0.0151743
0.0151733
0.0151717
0.015172
0.0151734
0.0151715
0.0151729
0.0151691
0.0151733
0.0151715
0.0151715
0.015172
0.0151708
0.0151715
0.0151704
0.0151722
0.0151743
0.0151745
0.0151706
0.0151725
0.015172
0.0151732
0.015171
0.0151717
0.0151733
0.0151717
0.0151731
0.0151719
0.0151732
0.0151733
0.0151686
0.0151707
0.0151708
0.0151708
0.0151718
0.0151731
0.0151698
0.0151716
0.0151726
0.0151731
0.0151732
0.0151706
0.0151732
0.0151708
0.0151732
0.0151744
0.0151731
0.0151742
0.0151713
0.0151732
0.0151686
0.0151732
0.0151714
0.0151732
0.0151714
0.0151732
0.0151723
0.0151748
0.0151723
0.0151732
0.0151706
0.0151732
0.0151726
0.0151715
0.0151717
0.0151732
0.0151731
0.0151729
0.0151713
0.0151731
0.015172
0.0151723
0.0151705
0.0151731
0.0151729
0.0151726
0.0151729
0.0151732
0.0151729
0.0151711
0.015172
0.0151729
0.0151732
0.0151719
0.0151719
0.0151731
0.0151705
0.015175
0.0151723
0.0151741
0.0151725
0.0151759
0.0151759
0.0151759
0.0151759
0.0151758
0.015176
0.015176
0.0151712
0.0151699
0.0151721
0.0151726
0.0151728
0.0151729
0.0151719
0.0151729
0.0151729
0.0151699
0.0151729
0.015171
0.0151735
0.0151709
0.0151723
0.0151726
0.0151729
0.0151706
0.0151723
0.0151726
0.0151723
0.0151726
0.0151729
0.0151734
0.0151726
0.0151724
0.015171
0.0151728
0.0151729
0.0151728
0.0151726
0.0151723
0.0151719
0.0151728
0.0151719
0.0151723
0.0151726
0.015172
0.0151724
0.0151729
0.0151715
0.0151726
0.0151701
0.0151744
0.0151713
0.0151711
0.0151723
0.0151726
0.0151716
0.015175
0.0151723
0.0151726
0.0151747
0.0151687
0.0151687
0.0151722
0.0151728
0.0151726
0.0151728
0.0151677
0.0151677
0.015172
0.015172
0.015172
0.0151751
0.0151729
0.0151714
0.0151727
0.0151728
0.0151727
0.015175
0.0151715
0.0151729
0.0151723
0.0151723
0.0151727
0.0151726
0.0151727
0.0151727
0.0151748
0.0151742
0.0151726
0.0151723
0.0151726
0.0151728
0.0151726
0.0151726
0.0151726
0.0151744
0.0151709
0.0151728
0.0151717
0.0151715
0.0151744
0.0151723
0.0151724
0.0151705
0.0151686
0.0151686
0.0151706
0.0151729
0.0151723
0.0151744
0.0151687
0.0151678
0.0151679
0.015175
0.0151697
0.0151692
0.0151724
0.0151708
0.0151721
0.0151718
0.0151714
0.0151713
0.015172
0.015175
0.0151723
0.0151717
0.0151714
0.0151749
0.0151695
0.0151749
0.0151714
0.0151718
0.0151732
0.0151722
0.0151721
0.0151703
0.015172
0.0151703
0.0151723
0.0151714
0.0151693
0.0151693
0.0151745
0.0151717
0.0151755
0.0151755
0.0151755
0.0151715
0.0151751
0.0151756
0.0151728
0.0151755
0.0151702
0.0151702
0.0151755
0.0151725
0.0151748
0.0151756
0.0151748
0.0151756
0.0151748
0.0151697
0.0151746
0.0151751
0.0151755
0.0151721
0.0151712
0.0151749
0.0151721
0.0151755
0.0151719
0.0151725
0.0151756
0.0151749
0.0151756
0.015175
0.0151724
0.01517
0.0151679
0.0151679
0.0151718
0.0151679
0.0151679
0.0151679
0.0151684
0.0151745
0.0151694
0.0151706
0.01517
0.0151718
0.0151683
0.0151683
0.0151699
0.015175
0.0151726
0.0151751
0.0151749
0.0151748
0.0151688
0.0151688
0.0151689
0.0151689
0.0151688
0.015168
0.0151689
0.0151682
0.0151679
0.0151688
0.0151688
0.0151679
0.015168
0.0151682
0.0151689
FIELD solute_flux_TPM 2
S_ext 3 563 float
-3.15191e-05 1.0541e-05 -9.25017e-19
1.4052e-06 2.66906e-06 -6.6385e-19
-4.92767e-06 -3.90392e-06 -2.33077e-18
-1.62453e-06 1.64047e-06 -8.3029e-19
9.09731e-06 -2.6063e-06 -2.23171e-18
1.06387e-06 -6.14438e-06 -1.0032e-18
-3.10377e-05 -1.06692e-05 -1.00082e-18
-5.40252e-06 -4.00035e-06 -8.35752e-19
8.54944e-06 3.66098e-07 5.6833e-19
4.46497e-06 -1.5829e-06 -9.36797e-19
2.09951e-05 4.88754e-06 -8.69656e-20
8.86555e-07 -6.67748e-06 1.08461e-18
5.33584e-06 4.32674e-06 2.33561e-18
1.06242e-06 5.34729e-06 3.4358e-19
8.24794e-06 -1.21885e-06 -1.10725e-18
-6.24652e-06 -1.01841e-07 8.38604e-19
1.11669e-06 5.53087e-06 -1.63168e-19
3.97296e-06 -9.56157e-07 -1.01597e-18
3.80717e-06 6.63538e-06 8.34527e-20
-5.6908e-06 7.22118e-07 2.49559e-18
-1.36586e-06 -8.17956e-06 1.49034e-18
1.71769e-05 2.42364e-05 1.07023e-18
6.10159e-06 6.24954e-07 -4.26926e-19
4.37013e-06 -4.3607e-06 -3.37099e-19
-5.77379e-06 -1.283e-06 -3.30113e-19
-2.38471e-07 -4.31285e-06 -3.26603e-18
2.40925e-05 -1.88413e-06 1.59608e-19
5.5003e-06 3.98112e-06 1.32838e-18
-9.55133e-06 -7.75782e-06 -4.84808e-19
1.94521e-05 -5.15427e-06 -2.55014e-19
-6.3573e-06 -2.35698e-06 2.39406e-22
2.04325e-06 -1.22488e-05 -5.6649e-19
1.80759e-05 -1.84226e-05 -7.83506e-19
-2.07517e-06 -1.66107e-05 1.80619e-18
-1.17452e-05 1.46122e-05 6.16829e-19
-1.54222e-05 -6.50176e-06 2.76225e-18
1.29015e-05 1.68869e-05 2.09194e-18
-1.77452e-05 -3.4811e-06 -3.18548e-18
5.64079e-06 -4.26915e-06 -1.08931e-18
1.76597e-05 1.91969e-05 1.48471e-18
1.23331e-05 -5.3944e-06 2.64643e-18
1.3156e-05 -1.6254e-05 8.60859e-19
-7.50249e-06 -1.95078e-05 -2.0802e-18
-6.08928e-06 2.48051e-06 -1.60871e-19
1.15737e-05 -1.13193e-05 -2.387e-19
-1.14408e-05 4.06656e-06 5.65487e-19
-1.57293e-06 -7.78251e-06 -8.59148e-20
3.0282e-06 7.76039e-06 -4.95052e-19
-6.29509e-06 2.29383e-06 1.33832e-18
-6.87288e-06 1.08103e-05 1.67929e-18
1.24435e-05 5.85665e-06 -4.51818e-21
1.12557e-05 -3.91061e-06 6.4507e-19
-6.2314e-06 6.23405e-06 7.76026e-19
-8.91396e-06 -7.7385e-06 -4.06461e-19
-8.38548e-06 -2.05932e-06 -4.77968e-18
-1.68638e-05 1.00462e-05 3.7995e-18
-1.16278e-05 -1.50383e-05 2.07323e-18
2.3504e-06 -1.16539e-05 -4.08553e-19
-1.88423e-05 2.57592e-06 -6.94177e-19
2.34058e-06 5.29435e-06 -1.65582e-19
-2.16416e-06 -3.23311e-06 -1.34655e-18
-2.55461e-06 -7.08547e-06 -2.87823e-18
2.1769e-05 9.48487e-06 -2.99172e-21
3.68987e-06 7.12042e-06 1.1057e-18
4.89069e-06 -5.68184e-06 1.18487e-18
-6.82956e-07 -8.12447e-06 2.18323e-18
1.85086e-06 -3.45561e-06 -8.62739e-20
-3.88563e-06 -2.17464e-06 2.53567e-19
-4.10096e-06 4.55699e-06 2.91108e-18
9.93566e-07 -1.6552e-06 -1.81731e-19
-5.97325e-06 -6.27058e-06 2.65049e-18
-8.45762e-06 2.06484e-06 5.13661e-19
-1.46614e-06 1.30455e-05 6.4262e-19
-6.99076e-06 4.19211e-06 -1.6784e-18
-3.50422e-06 5.58547e-06 2.75506e-18
-2.24859e-05 2.80006e-06 1.01475e-18
3.13428e-06 -8.53581e-06 1.10572e-18
-7.39786e-06 -3.42178e-06 -1.01186e-18
7.3306e-07 4.52093e-06 1.17244e-18
1.01365e-05 1.9449e-06 3.32636e-18
1.30409e-05 -1.11091e-05 1.19076e-18
8.84218e-06 8.12529e-06 7.82394e-19
4.76072e-06 -1.17169e-06 -5.08424e-19
-1.21423e-05 8.89831e-06 1.74783e-18
1.45091e-05 1.86176e-06 -1.61641e-19
-2.09125e-06 1.86285e-05 7.1154e-19
-6.72275e-07 -6.51171e-06 -3.37581e-19
7.17611e-06 3.8875e-06 -4.2783e-19
1.11309e-05 1.16558e-05 2.05346e-18
2.55177e-05 1.58639e-05 1.75824e-18
-2.06975e-06 1.17114e-05 -2.40026e-19
2.66545e-05 -1.49791e-05 -8.88121e-19
-1.07594e-05 2.06442e-06 -4.42235e-18
7.05314e-06 4.37243e-06 -7.66206e-19
-1.11875e-05 3.72832e-06 1.60003e-21
6.30751e-06 1.0942e-05 -1.92457e-18
3.74943e-06 -1.68201e-05 -1.5985e-18
7.40967e-07 4.51882e-06 2.90007e-21
-5.78461e-06 -6.96457e-06 1.11169e-18
1.16653e-06 6.75368e-06 -3.31498e-19
1.01604e-05 2.0373e-06 1.62751e-18
-5.89389e-06 1.25394e-05 8.97131e-19
1.54893e-05 -5.16593e-06 1.83079e-18
-1.4742e-06 2.86069e-06 -4.95763e-19
3.92855e-06 2.27147e-06 -1.00563e-18
-8.59585e-07 -4.38595e-06 -3.77095e-18
1.30412e-06 -7.59184e-06 -8.67917e-20
6.79666e-06 1.52861e-06 7.1181e-20
-3.12882e-06 1.5565e-05 -3.17757e-19
-3.88884e-06 6.36011e-08 2.35815e-18
3.6326e-06 4.59023e-06 1.49521e-18
-1.02561e-06 -1.58645e-05 5.48274e-19
1.60628e-05 4.98969e-06 -1.67446e-18
1.7419e-06 -2.87788e-06 3.32422e-19
-4.29318e-06 -1.3946e-06 3.36571e-19
-1.10503e-05 -4.70607e-06 -2.35177e-18
6.37073e-06 1.66432e-05 1.8982e-18
-1.62262e-05 -5.78335e-06 -1.58957e-19
6.45968e-06 -1.66875e-05 -2.7164e-19
-1.43158e-06 -1.21363e-05 1.21424e-18
8.44274e-06 2.30659e-07 -8.93579e-20
-2.83934e-06 7.32408e-06 -1.52343e-18
-6.33325e-07 1.53676e-06 -2.09612e-18
-1.48259e-06 -6.49438e-06 1.51486e-18
2.07381e-06 -3.35723e-06 9.91347e-19
3.72611e-06 6.27086e-06 7.73614e-19
1.33881e-05 4.37931e-06 -1.90826e-18
3.42825e-06 -2.87599e-06 7.76353e-20
-3.2121e-06 -1.70245e-05 -1.2792e-18
9.80541e-06 -7.22448e-06 2.18822e-18
1.98276e-06 1.10311e-05 -1.18701e-18
-1.07953e-06 -1.1195e-06 -2.76272e-18
-3.41925e-06 -3.26947e-06 1.66811e-19
-1.87583e-06 4.57724e-08 -7.50745e-19
-8.67343e-06 1.07056e-05 1.86265e-18
7.75145e-06 -1.49841e-05 7.71842e-19
-1.01162e-05 1.59913e-05 3.154e-19
-6.29526e-06 3.67826e-06 5.06652e-19
9.85827e-07 4.88737e-06 1.59936e-19
-9.08359e-06 -1.41938e-05 4.35751e-19
5.25916e-06 1.27505e-05 2.42914e-19
6.90333e-06 3.60604e-06 -1.09543e-18
8.80184e-06 -3.3302e-06 9.83425e-19
-5.04007e-07 -4.3824e-06 1.67567e-18
-1.2744e-05 -1.17199e-05 2.45478e-19
-1.04431e-06 4.38831e-06 -7.75097e-20
6.77914e-06 4.00308e-06 -9.28471e-19
7.36115e-06 -3.48692e-06 -1.5892e-18
3.22545e-06 -5.52816e-06 -1.00018e-18
9.38836e-06 -4.15988e-06 -1.69137e-19
7.38201e-06 -3.49574e-06 -3.36901e-19
1.87063e-06 1.2664e-07 9.14409e-19
9.82997e-06 7.78214e-06 9.62776e-19
-1.02531e-06 -6.56483e-06 -4.19627e-19
-4.08866e-06 -1.69164e-06 -1.00434e-18
4.58432e-07 -1.50887e-06 -1.84419e-18
-1.27261e-06 6.17485e-06 -8.11605e-20
-1.30809e-05 1.03498e-06 4.0717e-19
-4.62346e-06 -1.25496e-05 2.34726e-18
-3.04996e-06 3.75418e-06 1.59338e-18
5.23823e-06 6.38909e-06 2.31575e-18
1.01438e-05 -7.23487e-06 7.60662e-20
-1.38979e-05 -7.53686e-06 -5.52468e-19
6.59349e-06 -1.05683e-05 -1.52729e-18
8.69477e-06 -1.04079e-05 -6.48964e-19
-4.22253e-06 1.49909e-06 -1.16883e-18
-7.51692e-06 -1.08178e-05 2.43987e-19
-1.30697e-05 -2.1765e-06 -3.07319e-18
-1.57777e-06 -1.20326e-05 8.0066e-19
5.83622e-06 -1.20803e-05 -2.91756e-18
-3.64013e-06 -1.03726e-05 1.70159e-18
1.67335e-06 1.19493e-05 -1.29852e-18
-6.0681e-06 -1.07526e-05 5.64904e-19
1.20031e-06 -6.35531e-06 8.11661e-20
-9.37589e-06 6.82212e-06 -6.49421e-19
-5.89649e-06 -4.78994e-06 3.76691e-21
-1.08304e-05 -1.99926e-06 -1.70317e-18
6.14529e-06 -3.61366e-06 -8.45555e-19
-1.69229e-06 9.50107e-06 -2.47443e-18
4.8577e-06 -3.62684e-06 -6.74528e-19
-1.11667e-05 -4.8942e-06 -4.81662e-19
-3.44711e-06 -2.86091e-06 6.71753e-19
3.59191e-06 2.90345e-06 -1.50814e-18
8.17047e-06 1.09648e-05 -4.07446e-19
-6.81001e-06 -4.22978e-06 -1.34892e-18
-1.22435e-05 -2.96285e-07 -3.18803e-19
-6.43072e-06 -1.91133e-06 -1.26394e-18
-1.81287e-06 -6.50194e-06 1.01215e-18
7.07131e-06 8.54632e-06 1.18801e-18
-4.28936e-06 2.2378e-06 -3.30354e-19
2.76197e-07 -8.03521e-06 -1.35298e-18
-1.57108e-05 4.0319e-06 1.11567e-18
9.54052e-06 7.75387e-06 -4.90467e-19
1.3842e-06 1.25252e-05 -7.23925e-19
-9.30201e-07 1.50349e-06 5.92151e-19
-3.47632e-06 9.71681e-08 1.42321e-18
1.70898e-06 2.99492e-06 -1.75432e-18
-4.61559e-06 1.37402e-06 -3.34875e-19
-8.07892e-07 -1.4619e-06 1.83833e-18
6.83991e-07 8.11031e-06 1.93851e-18
1.79269e-06 1.3634e-07 -3.32369e-19
-7.44854e-06 1.80182e-06 1.73955e-18
-6.62383e-06 7.32065e-06 2.4741e-19
-1.20091e-06 4.58192e-06 5.1135e-19
-1.10736e-05 6.90445e-06 -1.25157e-22
-3.71046e-06 3.52772e-06 -3.34582e-19
6.83713e-06 -4.65414e-06 -1.1878e-18
1.40138e-05 -1.39494e-06 3.22332e-18
-8.35112e-06 4.42899e-06 -7.56352e-19
8.64394e-07 1.7883e-06 -2.86319e-18
8.72187e-06 -1.67184e-06 2.49383e-19
-6.72109e-06 4.06709e-06 1.76851e-18
-3.81394e-06 2.16951e-06 -9.17459e-19
4.75704e-06 1.54602e-06 1.17472e-18
8.41185e-06 -5.21795e-06 -5.74846e-19
-6.7747e-06 3.84655e-06 -1.59113e-18
-9.48158e-06 -1.9938e-06 -9.75108e-19
-6.57171e-06 -1.67813e-06 -2.53582e-18
3.98197e-06 4.61171e-08 -8.32957e-21
4.07788e-06 3.41635e-08 9.24423e-19
1.75355e-06 3.2702e-06 -1.67075e-18
1.9294e-06 -3.45731e-06 8.3497e-20
-1.95679e-06 3.34421e-06 9.28111e-19
-2.04878e-06 -3.42124e-06 -1.84624e-18
3.88522e-06 -2.958e-06 -9.76877e-20
-8.07265e-06 1.30332e-06 -4.24301e-19
-7.98166e-06 -1.32872e-06 -3.13339e-18
-5.1099e-06 6.30211e-06 -8.40911e-19
-5.13837e-06 -6.32607e-06 5.07094e-19
2.98046e-06 -8.01111e-06 -4.40695e-19
2.87156e-06 7.94329e-06 1.62616e-19
5.72513e-07 9.91056e-06 -3.26894e-19
4.46134e-06 -1.17144e-06 -1.17944e-18
9.63676e-07 -1.49612e-06 -6.97714e-21
-8.13398e-06 5.51782e-07 -9.0528e-19
3.07548e-06 -7.8823e-06 -6.10582e-19
2.91428e-06 7.91052e-06 -1.78438e-19
1.88227e-06 -3.49128e-08 -2.02387e-18
3.40649e-06 9.36217e-06 8.11227e-19
-8.75395e-07 -1.56049e-06 2.50395e-19
9.06645e-07 -4.40311e-06 3.31935e-19
-8.52068e-06 -4.56729e-06 -1.63033e-18
-8.43335e-06 -4.50968e-06 -9.32217e-19
-8.3354e-06 5.15896e-06 -2.19936e-18
1.27417e-06 -4.9487e-06 4.07562e-19
-6.22232e-07 1.30588e-06 1.42701e-18
-2.77671e-07 -9.74703e-06 -8.19957e-19
-2.99451e-06 -9.26881e-06 3.17226e-18
1.24812e-05 1.16194e-05 1.58427e-19
1.36283e-05 -7.02782e-07 2.71362e-18
-5.02809e-06 -1.47278e-06 -1.63383e-19
-8.69147e-06 -1.54805e-05 -2.07733e-18
3.2317e-06 5.30417e-06 -1.50267e-18
-9.55607e-06 1.12769e-06 6.1118e-21
7.7729e-06 2.22874e-06 9.76889e-19
-1.7611e-06 -7.39773e-09 3.39609e-19
-1.84417e-06 -3.3122e-06 1.42357e-18
-3.25983e-06 -1.55015e-05 2.08226e-18
-3.8395e-06 -5.22384e-09 -7.51405e-19
-1.80678e-05 -6.77992e-07 -2.1507e-18
6.62673e-06 -7.36269e-06 -9.79296e-19
9.80849e-07 1.5503e-06 2.42851e-18
-5.1472e-08 -6.79947e-06 1.41803e-18
-3.80156e-06 9.13306e-06 4.91441e-19
-1.73596e-06 3.39667e-06 2.24896e-21
7.9504e-06 -5.24393e-06 -3.33453e-19
-1.50525e-05 -4.91584e-06 2.5196e-18
-5.8391e-06 -7.71033e-06 4.05845e-19
1.97543e-06 3.36327e-06 -1.60596e-18
6.62165e-06 1.96535e-06 -5.08072e-19
-1.84082e-06 -2.81737e-06 -8.40421e-20
7.97348e-06 1.4629e-06 -6.03125e-19
7.2197e-06 -3.8631e-06 8.3505e-19
-1.45483e-07 1.07451e-05 -4.19927e-19
3.24769e-06 -5.27841e-06 4.14841e-19
1.86702e-05 7.94089e-07 8.7213e-19
-1.58628e-05 4.13149e-06 1.60895e-19
9.18233e-06 4.57847e-06 3.35127e-19
-2.47796e-06 -6.5632e-06 -2.07829e-18
-5.94366e-06 -3.31438e-06 -2.42648e-18
1.10601e-05 -9.09836e-08 -1.47992e-18
-2.89918e-07 -9.58537e-06 -8.8042e-20
-4.87789e-06 -4.27457e-06 5.8941e-19
3.89351e-06 -9.0231e-06 -2.28409e-18
-2.2608e-07 8.02527e-06 -2.49045e-19
2.99185e-06 9.96312e-06 -2.49333e-19
6.78937e-06 -3.90215e-06 1.62031e-19
-7.22372e-06 7.26822e-06 6.61069e-19
6.32133e-06 7.70264e-06 5.69278e-19
-2.59551e-05 6.18939e-06 -1.03584e-18
-4.04325e-06 1.03007e-05 -2.49241e-19
4.98565e-06 -6.04146e-06 1.69811e-18
-2.76566e-06 -7.29434e-06 -2.49992e-19
-4.63626e-06 1.70418e-06 -5.80103e-19
-9.78394e-06 -2.6771e-06 8.62326e-20
-2.67791e-06 1.56115e-05 -6.81636e-19
-4.8973e-06 4.71173e-06 -1.63861e-19
8.0504e-06 -1.7763e-06 -1.72163e-19
-2.6238e-06 -9.8151e-06 2.1257e-18
-5.67408e-06 9.03191e-06 1.55815e-18
-8.60556e-06 4.96164e-06 -3.74713e-18
-7.82181e-06 -5.70286e-06 8.38719e-20
7.21751e-06 -8.35003e-06 1.18004e-18
-1.03822e-05 -5.51679e-07 -1.38675e-18
4.56583e-06 -1.56346e-05 1.02605e-18
7.45997e-06 -7.25647e-06 -8.21133e-19
9.34096e-06 1.64068e-05 2.40088e-19
7.78307e-07 7.81618e-06 3.45352e-19
1.11642e-06 -9.73499e-06 -1.65086e-19
-1.6882e-05 1.98222e-05 -1.29387e-18
-4.83907e-06 -9.23732e-06 1.55335e-18
6.55166e-06 -2.51805e-06 -1.52252e-18
-9.77909e-07 9.81225e-06 -2.4479e-18
5.09795e-06 -4.7689e-06 -1.86858e-18
5.302e-06 9.29658e-06 2.61896e-18
6.69506e-06 -5.75314e-07 -2.09494e-18
8.16977e-06 -2.392e-05 2.60132e-18
-2.25922e-06 -4.93887e-06 -1.58249e-18
-8.80458e-06 3.78148e-06 1.23369e-18
-7.9401e-06 7.43402e-06 -2.03781e-18
8.30058e-06 5.61686e-06 -3.28511e-19
7.24561e-06 -4.19746e-06 2.40795e-19
5.88212e-06 5.00609e-06 -9.21929e-20
-2.15002e-06 -1.68022e-08 1.43109e-18
5.89104e-06 -8.83716e-06 -2.86674e-18
-6.47075e-06 -7.69757e-06 1.63562e-19
8.70146e-06 3.7876e-06 -9.14273e-19
5.07953e-06 -4.78974e-06 -1.36232e-18
3.62466e-06 -9.50479e-06 -1.89175e-18
6.51333e-06 -2.77668e-06 -1.60071e-18
-6.08226e-06 -2.90446e-06 -5.0041e-19
5.30744e-07 -1.03927e-05 5.11609e-19
-9.86938e-06 1.70265e-06 1.23464e-18
8.70176e-07 9.39107e-06 -5.26208e-18
7.97591e-06 2.59061e-06 1.06741e-18
-8.25739e-06 -4.0761e-06 8.55273e-20
-3.43501e-06 9.73669e-06 1.67339e-19
-5.73808e-07 -9.26063e-06 -8.2734e-19
7.75374e-06 4.71381e-06 1.62095e-19
-6.49314e-07 7.01932e-06 2.09538e-18
-7.68909e-06 5.16638e-06 5.01693e-19
9.06844e-06 4.38434e-06 1.70904e-18
-6.60786e-06 -3.90985e-06 -9.23288e-19
8.33596e-08 -7.71243e-06 2.51014e-18
7.06685e-06 7.65603e-06 1.55789e-18
-8.72795e-06 -5.64872e-06 -3.41666e-19
1.84643e-05 -1.32101e-05 -1.39239e-18
7.00322e-06 -4.2042e-06 9.07043e-19
3.29807e-06 1.63446e-05 -7.18323e-19
6.63343e-06 -5.27579e-06 1.07428e-18
-8.58627e-06 3.31301e-05 8.08865e-19
-8.63081e-06 -3.28152e-05 4.01578e-21
2.15677e-05 2.81882e-05 5.20403e-19
2.13085e-05 -2.81812e-05 1.52727e-19
3.52123e-05 -1.72936e-08 -3.72074e-19
-3.02992e-05 1.22791e-05 1.18497e-18
-2.9808e-05 -1.24071e-05 2.22837e-19
4.85885e-06 4.71014e-06 -9.15318e-20
1.18301e-05 8.81465e-06 -6.926e-19
4.46847e-06 1.31166e-06 1.82289e-18
7.33151e-06 3.76916e-06 -5.84674e-19
1.9039e-06 7.76267e-06 -8.34353e-20
-7.19108e-06 -5.6563e-06 -2.21006e-22
6.74114e-06 -3.9712e-06 1.33342e-18
7.67898e-06 5.59135e-06 -1.48793e-18
-1.21833e-06 9.32469e-06 -4.90989e-19
1.18889e-05 -8.09277e-06 1.70735e-18
1.41339e-06 -9.09376e-06 7.35787e-19
8.76991e-06 2.0058e-06 3.31937e-19
1.14514e-05 4.2571e-06 -5.69317e-21
5.65151e-06 5.59668e-06 -1.60269e-18
6.19079e-06 2.57348e-06 8.22808e-19
-7.09329e-06 4.18298e-06 1.08572e-18
-8.5829e-06 3.44487e-06 2.47938e-18
9.21987e-06 -4.49004e-06 -5.92855e-21
-7.01445e-06 -3.8558e-06 9.15235e-19
-7.11131e-06 -4.02211e-06 -8.25559e-20
-1.17051e-07 -8.02274e-06 7.87969e-20
-5.97748e-08 -8.13426e-06 1.65421e-18
-7.65984e-06 -3.86138e-07 1.81519e-18
1.02876e-05 -1.5597e-06 -6.56874e-19
7.02076e-06 4.40159e-06 -4.64079e-21
-6.89255e-06 4.1731e-06 5.08897e-19
-6.01468e-06 6.57679e-06 -2.28477e-18
6.19402e-06 -5.32549e-06 -8.57741e-20
-4.24575e-06 6.64488e-06 1.71107e-19
-5.44678e-06 -5.66614e-06 -3.28788e-19
-4.73161e-07 8.1359e-06 2.66212e-21
-4.78762e-07 8.09851e-06 -5.83555e-19
1.59236e-08 -7.71435e-06 -2.58017e-19
2.34571e-06 -7.5952e-06 -1.89819e-18
-6.65509e-06 -3.82596e-06 -2.90616e-22
6.0664e-06 -2.15759e-06 9.8961e-19
2.50668e-07 8.27034e-06 -1.82044e-18
1.06403e-07 7.17262e-06 3.37903e-19
-9.11964e-07 6.48403e-06 5.85725e-19
8.46198e-06 -2.14192e-06 -1.32474e-18
-6.53126e-06 2.05429e-06 -1.26158e-18
1.56524e-06 8.27815e-06 -2.97903e-18
-1.30012e-05 5.09234e-06 -5.03689e-19
3.58379e-06 1.59734e-05 5.47642e-19
-6.7074e-06 1.75777e-06 -7.55208e-19
7.87034e-06 -4.66045e-06 3.31518e-19
3.29484e-07 8.1168e-06 -6.64494e-19
-7.80553e-06 2.57775e-06 2.07922e-18
9.77214e-07 -6.33938e-06 1.34317e-18
3.51136e-07 -2.21145e-05 1.23453e-18
7.64588e-07 6.76703e-06 -1.66128e-18
-6.52279e-06 5.31706e-06 1.33485e-18
6.58503e-06 2.42294e-05 -6.29643e-19
1.88986e-05 1.5675e-05 5.22169e-19
2.1667e-05 -1.48242e-05 4.27077e-19
5.79699e-06 -3.96221e-06 2.24289e-18
-6.058e-06 5.33991e-06 1.07579e-18
-7.71103e-06 -3.04878e-06 5.857e-19
-7.49119e-06 -2.58902e-06 -1.48099e-18
2.66532e-05 -7.32467e-06 1.75992e-18
2.71866e-05 5.71711e-06 -3.57662e-19
4.25238e-06 1.49656e-06 6.99144e-20
2.55958e-07 7.60364e-06 8.53144e-20
3.26086e-08 7.59916e-06 4.19226e-19
-1.84196e-05 -1.34815e-05 5.41581e-19
4.39922e-06 -6.61895e-06 -7.43308e-19
4.64681e-06 4.99348e-06 -1.27326e-18
-8.13708e-06 -1.30898e-06 8.29545e-19
-5.38842e-06 6.52596e-06 1.71773e-19
-7.23119e-06 3.48355e-06 3.06858e-18
1.82347e-05 1.3079e-05 1.58989e-19
6.27357e-06 2.76536e-06 1.00388e-18
-2.16361e-06 7.6464e-06 1.81586e-18
-6.55805e-06 -4.47779e-06 -1.41424e-18
6.84672e-07 -7.94242e-06 -5.85973e-19
-3.41742e-06 -7.35797e-06 -8.3296e-20
-6.60512e-06 -4.49353e-06 -6.60277e-19
4.06644e-06 -7.27399e-06 -2.64833e-18
5.47316e-06 -6.52671e-06 1.32301e-18
-1.12386e-06 -2.31438e-05 1.25104e-18
9.88216e-06 -1.56705e-05 3.9853e-19
6.70359e-07 -8.00213e-06 -4.17555e-19
7.02059e-06 4.38584e-06 -9.1903e-19
-5.56849e-06 -5.65823e-06 -1.32565e-18
-3.76994e-06 7.51107e-06 1.9915e-18
-1.92419e-06 8.05376e-06 1.70029e-19
6.46352e-06 5.47309e-06 1.65459e-18
2.30841e-06 -7.64666e-06 -8.34045e-19
-5.30387e-06 -1.5191e-05 1.10417e-18
-8.18372e-07 9.90324e-06 -1.26777e-18
5.71294e-06 5.57911e-06 2.22311e-18
-5.02361e-06 -3.99059e-06 8.47347e-20
-5.28466e-06 4.15518e-06 5.12387e-19
1.69992e-05 -7.30214e-06 2.52511e-18
2.92862e-06 -5.17252e-06 3.31202e-19
-3.2167e-06 -4.82568e-06 -9.96446e-19
8.58614e-06 2.62706e-06 -7.77659e-19
5.28989e-06 -1.90825e-05 1.04003e-18
-1.38841e-05 -1.411e-05 1.66397e-18
9.36005e-06 2.44333e-06 2.45474e-19
-3.58654e-06 -6.96011e-06 -3.28423e-19
7.28844e-06 3.71838e-06 -1.50534e-18
-1.09397e-05 -1.21508e-05 3.91076e-19
4.28421e-06 1.94013e-05 -2.49598e-19
1.88058e-05 -2.4291e-05 7.90329e-19
-1.1635e-05 -2.84256e-05 2.56175e-18
1.03075e-05 -2.01429e-05 2.08066e-18
-5.03942e-06 1.73285e-05 -7.67435e-19
-2.8751e-06 1.5343e-05 1.22332e-18
-7.20317e-06 3.46287e-06 9.15316e-20
2.40652e-06 9.57264e-06 -1.01537e-18
-9.18396e-07 4.87051e-06 2.67954e-18
3.97495e-06 1.28924e-06 -4.33819e-19
-1.29009e-06 6.37353e-06 -1.09456e-18
-9.34238e-08 8.23868e-06 -1.0949e-18
6.5282e-06 3.80742e-06 1.16266e-18
3.24256e-07 2.20098e-05 9.28945e-19
-5.68866e-06 4.08308e-06 -6.59906e-19
6.30501e-06 -2.41519e-06 -5.9404e-19
6.75949e-06 -1.73051e-06 -5.38877e-21
-2.2561e-05 -3.24545e-06 -2.6571e-18
-1.37505e-05 6.54413e-06 -1.03013e-18
-1.63707e-05 -1.94124e-05 2.28103e-18
3.4263e-06 3.27242e-06 -2.8624e-18
5.57037e-06 2.90254e-06 1.74954e-18
1.03102e-05 -1.65186e-06 -1.15195e-18
-3.12054e-06 -5.07911e-06 -9.17945e-19
6.73027e-06 3.32991e-06 -5.95034e-19
2.92896e-06 -1.19346e-05 3.24795e-18
-5.35936e-06 3.90721e-06 7.60418e-19
-8.86745e-06 -8.50206e-06 -8.51589e-19
-2.23401e-06 6.26751e-06 2.33926e-18
-1.32921e-06 8.1153e-06 -9.26794e-19
1.37375e-05 8.53018e-06 -1.71208e-19
1.46477e-05 -7.77027e-06 2.49674e-19
-1.57715e-05 -4.24605e-06 -2.9161e-18
2.98619e-06 3.05592e-06 -6.83712e-19
-1.84074e-06 3.84583e-05 7.3666e-20
-4.3903e-09 -3.9504e-05 1.77231e-18
1.94718e-05 3.33222e-05 2.07319e-18
-7.50709e-06 3.25743e-06 -1.00146e-18
-1.0449e-05 2.11014e-05 -1.56222e-19
1.95917e-05 -3.21624e-05 -1.50371e-19
-4.49053e-06 -6.94295e-06 8.47596e-20
2.97901e-05 2.59304e-05 1.46587e-18
9.56509e-06 -7.10632e-06 5.98677e-19
-1.3822e-06 -1.18302e-05 -4.25816e-19
3.12133e-05 -2.53555e-05 1.47184e-19
-2.60762e-06 5.56001e-06 2.90737e-18
-2.00129e-05 -1.2713e-05 -2.32053e-19
-1.64713e-05 -3.43939e-05 1.9298e-18
-9.32818e-06 -2.17847e-05 -8.41989e-20
-1.69335e-05 3.49571e-05 7.69718e-20
-4.00989e-06 2.42045e-05 -3.10834e-19
6.41366e-06 1.48697e-05 -1.11314e-18
-1.0747e-05 1.38097e-05 1.1026e-18
-9.99883e-06 -2.0543e-05 3.81774e-19
3.83264e-05 6.72553e-06 -5.40616e-19
-6.57613e-06 4.11361e-06 5.93387e-19
-2.35599e-06 6.41169e-06 9.33155e-19
-1.89809e-05 1.36679e-05 2.11449e-18
-6.68971e-06 3.84412e-06 -1.08161e-18
3.7949e-05 -5.99646e-06 -3.86999e-19
-5.97887e-06 2.99374e-06 -9.14654e-19
2.79208e-06 -5.5996e-06 -9.16301e-19
-2.94664e-05 -2.2454e-05 2.38665e-18
-1.00496e-05 2.18027e-05 -7.01708e-19
-3.01682e-05 2.22936e-05 7.67634e-19
9.11767e-06 2.0068e-05 1.55782e-19
-5.7087e-06 4.04909e-06 -6.56916e-19
-8.11962e-06 9.77165e-06 -2.82754e-18
-1.45012e-05 1.82151e-05 -1.57049e-18
-2.27391e-05 -2.93143e-06 -2.0212e-18
-3.87604e-07 6.35756e-06 7.56542e-19
-1.53589e-05 -1.82916e-05 5.21844e-19
-2.35276e-05 4.15915e-06 8.85041e-20
-8.96241e-06 2.07872e-05 -6.96802e-19
-6.91575e-06 2.76637e-05 -1.38527e-18
-7.00999e-06 1.55481e-05 9.44139e-19
-1.34064e-05 1.08031e-05 -1.02375e-18
9.83638e-06 -2.41168e-06 -1.03076e-18
1.53849e-05 -8.18391e-07 3.34733e-19
5.3025e-06 3.23871e-06 -9.36426e-20
-4.85901e-06 -3.18307e-05 2.18612e-18
-3.00016e-05 -1.16993e-05 3.77199e-18
1.49807e-05 1.87042e-07 -2.50559e-18
2.24503e-05 -4.33423e-06 -3.85716e-19
-4.06188e-06 -5.15661e-06 -1.32678e-18
-1.94757e-05 1.36957e-05 4.10891e-21
-1.74545e-05 1.99965e-05 5.52652e-19
2.37327e-05 -8.55079e-06 -7.11095e-19
-1.12098e-05 -1.89913e-05 -1.13993e-18
-1.14101e-05 1.88442e-05 -1.90088e-18
-2.21354e-05 -7.85502e-07 -2.3422e-18
-1.0066e-05 1.98025e-05 -7.73898e-19
-2.20658e-05 2.30444e-07 -1.04431e-18
2.74543e-05 9.83079e-06 -1.03134e-19
2.21538e-05 8.17368e-07 -8.82622e-19
2.08315e-05 -1.0672e-05 1.56548e-18
6.07847e-06 -2.9286e-05 3.48805e-19
1.10072e-05 -1.91781e-05 -5.32429e-19
1.09324e-05 1.91757e-05 -6.12077e-19
5.95272e-06 2.86152e-05 3.44391e-18
2.99814e-05 -8.45475e-06 -2.64043e-18
1.92189e-05 9.51906e-06 -2.37331e-18
1.84674e-05 5.04477e-06 -2.52051e-18
P_ext 3 563 float
-8.17753e-07 2.76502e-07 1.92747e-20
7.72805e-10 3.02815e-08 1.05774e-20
-7.53414e-08 -7.08532e-08 -1.83549e-20
-2.38324e-08 2.19992e-08 1.83714e-20
2.07865e-08 3.9946e-10 -2.75174e-22
2.47975e-08 -1.00634e-07 -5.4637e-20
-8.05131e-07 -2.79847e-07 -7.35867e-21
-5.90641e-08 -6.70079e-08 2.86347e-20
1.64315e-07 2.91004e-09 1.52032e-20
5.99873e-08 -5.63327e-09 -4.92959e-22
5.32286e-07 1.2476e-07 -1.47385e-22
2.92542e-08 -8.56307e-08 5.22076e-21
6.70353e-08 7.97982e-08 1.31346e-20
-6.90796e-09 6.25081e-08 4.99196e-20
1.87724e-08 6.95909e-09 -1.07517e-20
-1.05038e-07 -1.71941e-09 4.9506e-20
-1.31257e-08 4.1189e-08 6.30273e-20
6.33171e-08 -9.55309e-09 -1.08303e-20
7.273e-08 1.29707e-07 2.30994e-20
-9.75749e-08 9.83979e-09 3.39502e-20
-3.66324e-08 -1.38205e-07 9.56103e-20
1.20613e-09 2.51352e-10 -9.58385e-20
1.08071e-07 8.79843e-09 -4.68583e-20
6.88016e-08 -7.94397e-08 -4.40988e-20
-9.96755e-08 -1.60498e-08 5.20553e-21
-1.87909e-08 -5.4544e-08 -4.46324e-20
6.11931e-07 -5.00578e-08 -3.18105e-20
7.49632e-08 6.32e-08 5.21778e-21
-2.23896e-07 -1.77851e-07 -1.27919e-22
1.31496e-08 2.47659e-09 7.57189e-20
-1.00082e-07 -1.7821e-08 -2.60024e-20
4.37599e-08 -2.84745e-07 1.23404e-20
4.59844e-07 -4.70934e-07 5.11061e-20
9.80766e-10 -2.1587e-08 5.37568e-20
-5.80664e-09 1.66014e-08 -4.00798e-20
-1.8019e-08 -1.18727e-08 1.10199e-20
2.38319e-09 1.19189e-08 -1.58144e-20
-1.82182e-08 3.10516e-09 -2.95715e-20
7.23918e-08 -7.87357e-08 -4.43945e-20
4.4872e-07 4.90781e-07 1.71757e-20
2.86621e-07 -1.29857e-07 2.01139e-20
4.43031e-09 -1.09146e-08 -7.85536e-20
-7.17464e-09 -9.55767e-09 -5.47963e-21
-9.94215e-08 2.04203e-08 5.47886e-20
2.84368e-07 -2.79259e-07 3.67747e-20
-2.64966e-07 9.53755e-08 7.6025e-21
-3.34744e-08 -1.46075e-07 4.36264e-20
6.04004e-08 1.4672e-07 -7.72925e-21
-9.53651e-08 2.49364e-08 3.91957e-20
-1.64112e-07 2.55256e-07 1.0121e-20
2.90902e-07 1.42463e-07 3.48614e-20
2.52593e-07 -8.30762e-08 -5.12526e-21
-7.43686e-09 1.76806e-08 -2.43422e-21
-1.97672e-07 -1.77385e-07 -1.01908e-20
-1.93942e-08 2.56339e-09 -2.94517e-20
-4.23981e-07 2.48988e-07 -4.65383e-20
-5.3916e-09 -1.6532e-08 4.05029e-20
5.62906e-08 -2.61036e-07 -2.79427e-20
-1.68478e-08 -3.67259e-09 2.58457e-21
4.41605e-08 8.85419e-08 1.03526e-20
-2.35628e-08 -7.14651e-09 -2.10609e-20
-2.48792e-08 -2.33641e-08 1.56721e-20
5.51746e-07 2.4291e-07 -9.88262e-21
-4.78283e-10 4.8178e-08 2.9235e-20
7.44189e-09 -3.21439e-08 2.64602e-20
1.25138e-08 -7.15174e-08 6.03823e-20
-4.96846e-09 -2.3415e-08 5.4989e-20
-5.72403e-08 -1.45448e-08 1.04788e-20
-6.6633e-08 8.15314e-08 3.14552e-20
1.78702e-08 -6.48636e-09 -1.86732e-20
-7.33532e-09 -1.81898e-08 4.8139e-20
-1.9182e-08 -2.81407e-09 3.20465e-20
-3.30273e-08 3.06007e-07 2.62884e-21
-5.87857e-08 2.96919e-08 5.35664e-21
-5.70356e-08 9.75577e-08 4.45312e-20
-5.7376e-07 6.74433e-08 3.1614e-20
2.31822e-11 -4.54289e-08 1.86171e-20
-5.52262e-08 -4.62752e-08 -1.0604e-20
2.32587e-08 5.67502e-08 4.70366e-20
2.1989e-07 4.39604e-08 3.30643e-20
3.15158e-07 -2.74211e-07 2.72336e-20
8.63445e-09 2.11513e-08 2.94844e-21
2.13123e-08 6.61736e-09 -5.26912e-20
-2.93656e-07 2.17262e-07 -1.48235e-20
3.42776e-07 4.1673e-08 2.00017e-20
-5.19518e-08 4.64604e-07 -3.19728e-20
-1.80104e-08 -9.31036e-08 2.57762e-20
6.32191e-08 4.45267e-08 1.03098e-20
2.73525e-07 2.88449e-07 1.98872e-20
4.95248e-09 2.20481e-09 4.66997e-20
-5.27154e-08 2.62511e-07 -1.50941e-20
4.47348e-09 -2.39791e-09 2.15632e-20
-3.16442e-08 2.1586e-08 -2.14042e-20
6.83255e-08 2.78045e-08 -1.86265e-20
-2.52769e-07 7.81416e-08 5.07042e-21
1.4671e-07 2.57791e-07 -2.26836e-20
9.12727e-08 -4.12084e-07 1.73258e-20
2.14542e-08 5.62417e-08 1.31366e-20
-3.88151e-08 -2.30928e-08 -1.0368e-20
3.21656e-08 1.02867e-07 3.38447e-20
2.1387e-07 3.63929e-08 2.28966e-20
-1.41977e-07 2.93318e-07 -2.32885e-21
3.77419e-07 -1.2335e-07 1.73387e-20
-2.09419e-08 4.57236e-08 2.09426e-20
4.01357e-08 4.07649e-08 7.69538e-21
-2.38571e-08 -5.5033e-08 -3.67885e-22
-9.59885e-09 -4.19262e-08 3.41459e-20
1.11013e-07 1.33074e-08 -1.33109e-20
-8.09765e-08 3.78792e-07 -2.48337e-20
-1.87232e-08 1.15549e-08 5.52961e-20
5.53727e-08 8.2061e-08 1.04368e-20
-2.73785e-08 -3.8872e-07 -5.05442e-21
3.93234e-07 1.18069e-07 -1.01693e-20
2.67716e-08 -4.73074e-08 5.18585e-21
-6.11199e-08 -6.98996e-09 -1.03708e-20
-2.51507e-07 -1.00945e-07 -5.28424e-23
1.24345e-08 1.32964e-08 7.5467e-20
-3.99516e-07 -1.3972e-07 -2.46508e-21
1.26235e-08 -1.32596e-08 -2.72738e-20
-3.88467e-08 -2.73143e-07 -2.27891e-20
1.68576e-07 6.3975e-09 1.5118e-20
-1.50129e-08 1.28056e-08 -3.17163e-20
4.03202e-09 1.84091e-08 -2.10711e-20
1.128e-08 -4.93792e-08 4.73259e-20
1.95857e-08 -9.15559e-09 2.26502e-21
3.61916e-10 1.98351e-08 -7.65495e-21
1.71209e-08 -2.14006e-09 1.29867e-20
3.19481e-08 -4.71351e-08 -1.0589e-20
-8.17988e-08 -4.17214e-07 2.22749e-20
2.16095e-07 -1.66352e-07 -2.77883e-20
6.98131e-10 2.63197e-08 1.61582e-20
-1.82213e-08 -3.2942e-09 -4.97618e-20
-5.92467e-09 -2.03771e-08 2.09896e-20
-1.50239e-08 -1.06078e-08 2.35295e-20
-2.02023e-07 2.52455e-07 -2.24831e-20
-2.34834e-10 -2.00461e-08 3.76346e-20
-2.52705e-07 3.96791e-07 -6.69202e-20
-9.49681e-08 4.36728e-08 -1.80505e-20
1.33538e-08 1.43957e-08 -8.12102e-21
-1.726e-08 -1.0089e-08 -1.60532e-20
1.23216e-07 2.97373e-07 5.09222e-21
7.10861e-08 6.3358e-08 -1.33154e-20
1.72553e-07 -5.69042e-08 2.82383e-20
9.71242e-09 -5.30917e-08 1.04564e-19
-3.13097e-07 -2.88516e-07 5.97858e-20
-3.01888e-08 5.21688e-08 1.58081e-20
7.83849e-08 4.18109e-08 -3.93367e-20
1.14624e-07 -3.94604e-08 -2.1094e-20
4.95013e-08 -9.88877e-08 -2.08774e-20
1.96238e-07 -9.04883e-08 -6.8886e-20
1.3056e-07 -6.16261e-08 -4.91999e-20
1.31194e-08 -1.08762e-08 5.08791e-21
2.27625e-07 1.80048e-07 -2.25227e-20
-3.29505e-08 -9.52833e-08 2.59495e-20
-4.04659e-08 -3.46248e-08 4.17488e-20
-6.61711e-09 -1.73665e-08 -5.38763e-21
9.09232e-09 6.79823e-08 -7.79746e-21
-3.04457e-07 2.1828e-08 1.78051e-20
-1.11221e-07 -2.90631e-07 2.27879e-20
-4.78963e-08 6.10526e-08 2.37401e-20
9.41877e-08 1.25526e-07 1.04073e-20
2.34292e-07 -1.66174e-07 -2.51745e-20
-3.42509e-07 -1.83126e-07 1.47739e-20
1.52372e-07 -2.48045e-07 3.48323e-20
1.98409e-07 -2.44057e-07 -1.52097e-20
-5.84327e-08 5.78629e-09 -2.08872e-20
-1.74178e-07 -2.52052e-07 3.53448e-20
-3.04894e-07 -4.77852e-08 7.40569e-21
-3.63341e-08 -2.78239e-07 1.75137e-20
1.35634e-07 -2.8034e-07 2.7378e-20
2.83959e-09 -3.8531e-08 2.66208e-20
4.03067e-08 2.68418e-07 -2.78914e-20
-1.43585e-07 -2.51189e-07 1.99953e-20
-1.34712e-08 -6.16292e-08 4.1879e-20
-2.07563e-07 1.55393e-07 -2.57755e-21
-4.06599e-08 -1.33264e-08 3.16858e-20
-3.16731e-08 -2.17721e-08 -5.45178e-21
8.2838e-08 -4.24816e-08 -1.59765e-20
-1.13988e-08 1.61344e-08 1.60169e-20
4.40277e-08 -5.5576e-08 2.42118e-21
-2.58279e-07 -1.14865e-07 7.53335e-21
-3.42092e-08 -4.60772e-08 2.87874e-20
3.57529e-08 4.88803e-08 -2.61788e-20
1.8676e-07 2.57795e-07 -2.53692e-20
-6.61018e-08 -3.04809e-08 -2.63541e-20
-2.87306e-07 -6.46386e-09 4.99745e-21
-3.68199e-08 -3.41534e-08 1.82918e-20
-2.09374e-09 -4.94593e-08 3.42491e-20
3.60681e-08 1.81874e-08 -1.59862e-20
-4.15982e-08 4.10073e-08 1.05724e-20
-6.94848e-09 -7.28095e-08 -2.9094e-20
-3.83529e-07 9.44729e-08 -2.9818e-20
2.10237e-07 1.79353e-07 -3.56334e-20
2.80931e-08 2.92105e-07 -3.01382e-20
-1.69371e-08 5.82102e-09 1.32354e-20
-5.65036e-08 1.75587e-09 4.96423e-20
2.59408e-08 4.95265e-08 -1.83361e-20
-2.05309e-08 -5.04486e-09 7.93267e-21
2.43198e-09 -1.75066e-08 5.48441e-20
-1.13009e-08 7.70693e-08 3.16867e-20
1.25196e-08 1.3194e-08 2.09417e-20
-1.42729e-07 3.15504e-08 8.05772e-21
-1.44753e-07 1.57944e-07 -3.2842e-20
-1.56274e-08 1.44967e-08 -6.29221e-20
-2.6188e-07 1.58049e-07 -2.4278e-21
-6.71852e-09 2.23127e-08 1.05799e-20
7.06736e-08 -2.53139e-08 -1.60768e-20
3.28274e-07 -3.02008e-08 4.54324e-20
-4.11447e-08 2.60354e-08 3.44779e-20
1.66416e-08 7.6695e-09 -4.49595e-20
4.28245e-08 -2.68022e-08 3.16255e-20
-7.34751e-08 2.44867e-08 1.33829e-20
-5.3473e-08 1.40165e-08 1.56611e-20
1.87996e-08 -5.49537e-09 -1.85241e-20
1.73912e-07 -1.05765e-07 -7.90887e-20
-6.84397e-08 4.36382e-08 7.90421e-21
-2.0446e-07 -4.26362e-08 7.58829e-21
-4.345e-08 -2.28796e-08 -8.09647e-21
1.66177e-08 -1.10362e-08 -4.20942e-20
1.84085e-08 1.29372e-08 -3.13131e-20
-4.65064e-09 2.09304e-08 1.83502e-20
-1.8891e-09 -2.36158e-08 5.21623e-21
-1.91652e-08 9.79297e-09 -3.37907e-20
-2.14492e-08 -1.09847e-08 -3.15211e-20
5.37348e-08 -2.03063e-08 4.40579e-20
-1.96562e-08 -5.40998e-09 3.70275e-20
-1.96144e-08 5.21113e-09 -2.66477e-21
-4.83087e-09 1.94895e-08 2.92715e-20
-5.24502e-09 -1.99168e-08 2.11588e-20
1.29646e-08 -1.45129e-08 -8.38162e-21
1.2464e-08 1.38896e-08 5.83784e-20
7.52342e-09 2.07547e-07 -3.90927e-23
4.02659e-08 -3.32185e-08 -2.84733e-21
9.39798e-09 -1.77235e-08 3.62848e-20
-1.56523e-07 5.78488e-09 -1.54251e-20
1.48604e-08 -1.4103e-08 7.46549e-21
1.38744e-08 1.43224e-08 -1.61214e-20
2.12878e-08 -4.63264e-10 -4.49032e-20
7.18512e-08 2.03385e-07 1.77629e-20
-1.07707e-08 -1.76143e-08 1.04304e-20
2.32923e-08 -5.33065e-08 2.08572e-20
-1.74674e-07 -9.66436e-08 -2.03788e-20
-3.83786e-08 -2.49141e-08 -2.11874e-20
-1.75312e-07 1.03976e-07 -3.05165e-20
1.55468e-08 -1.59353e-08 4.17377e-20
-7.45101e-09 1.65616e-08 5.49613e-20
-4.09842e-09 -2.00978e-07 3.04888e-20
-6.57969e-08 -1.99056e-07 2.04491e-20
3.01675e-07 2.87121e-07 -4.73501e-20
3.2268e-07 -1.83241e-08 1.25075e-20
-2.28845e-08 4.98751e-09 8.00677e-21
-2.15811e-07 -3.81372e-07 5.69112e-20
5.1456e-08 8.82262e-08 -4.4347e-20
-2.06868e-07 2.4365e-08 5.22248e-21
1.48508e-07 4.15267e-08 -5.30986e-21
-2.02911e-08 -8.20112e-11 -5.05726e-21
4.4399e-10 -2.10889e-08 5.23213e-20
-1.84299e-09 -1.44255e-08 3.79798e-20
-1.79835e-08 -1.07034e-08 -1.04062e-20
-4.4747e-07 -1.69567e-08 -7.55048e-21
1.40636e-07 -1.59058e-07 -2.80031e-20
9.56253e-09 1.85485e-08 3.93505e-20
4.88971e-09 -8.88027e-08 4.43385e-20
-8.38859e-08 1.98662e-07 2.65079e-21
1.7221e-09 2.23146e-08 7.90072e-21
1.50065e-07 -1.07382e-07 -7.19324e-20
-1.31986e-08 -5.7707e-09 -3.76288e-20
-1.27612e-07 -1.6586e-07 -7.61219e-21
1.75823e-08 8.94431e-09 -2.13342e-20
4.16078e-08 4.02289e-08 -2.90235e-20
-2.96056e-08 -4.61201e-08 -2.6416e-21
1.82123e-08 -5.89195e-09 2.88638e-20
6.16574e-08 -4.30449e-08 -7.97334e-21
-3.66252e-09 3.43781e-08 -1.31659e-20
5.07255e-08 -8.54942e-08 -2.08468e-20
4.63212e-07 2.33394e-08 -1.23017e-20
-3.92429e-07 1.03831e-07 -1.22523e-20
3.28582e-08 2.28981e-08 -4.27131e-20
-4.86165e-08 -1.17049e-07 5.14244e-20
-7.38981e-08 -4.821e-08 -1.84605e-20
2.40541e-07 -2.41753e-09 7.32708e-21
2.05733e-09 -4.58922e-08 -8.8455e-23
-6.01132e-08 -2.12222e-08 1.57938e-20
8.19775e-08 -1.9586e-07 -4.8501e-20
6.5365e-09 7.88953e-08 3.41321e-20
6.72829e-08 2.08649e-07 7.61888e-21
8.07458e-08 -4.25509e-08 -6.27846e-20
-1.47296e-07 1.56785e-07 5.31481e-21
1.35445e-07 1.67366e-07 2.2801e-20
-8.5171e-09 3.80975e-09 -2.96841e-20
1.4052e-09 3.63529e-08 -5.03328e-20
2.74031e-09 -1.64943e-08 -7.85376e-21
-1.30588e-08 -1.08287e-08 1.86339e-20
-4.49802e-08 3.56677e-08 5.35023e-21
-2.06376e-07 -4.88957e-08 -2.28894e-20
7.23643e-10 2.31907e-08 -1.05844e-20
-5.39724e-08 1.61084e-08 -2.61096e-20
1.4622e-07 -2.11971e-08 -7.90864e-21
-6.2528e-08 -2.02484e-07 3.58857e-20
-1.23153e-07 1.96132e-07 1.81259e-20
-3.47713e-08 1.60709e-08 -3.72926e-20
-1.65053e-07 -1.16787e-07 -1.52243e-20
3.7359e-08 -1.75182e-08 4.4881e-20
-2.23799e-07 -1.09584e-08 -1.52831e-20
1.09562e-07 -3.86591e-07 4.44787e-20
1.49688e-07 -1.5719e-07 -2.56698e-20
2.28889e-07 4.05815e-07 -2.97472e-20
-2.14482e-09 4.90461e-08 2.65518e-20
1.96481e-08 -2.0388e-07 1.77564e-20
-7.9611e-09 4.81977e-09 6.57087e-20
-1.0611e-07 -1.98002e-07 1.53824e-20
3.55995e-08 -3.04701e-08 -8.09585e-21
-2.04696e-08 2.06234e-07 -3.82898e-20
4.96979e-08 -1.45854e-08 -4.74876e-22
1.13096e-07 2.01549e-07 5.11356e-20
1.13271e-07 -2.64414e-09 -5.49971e-20
2.06754e-07 -6.10031e-07 5.41743e-20
-4.38077e-08 -8.15559e-08 7.56732e-21
-1.82704e-07 7.96089e-08 1.04473e-20
-2.55972e-08 1.25757e-08 -5.20365e-21
1.73444e-07 1.16152e-07 -1.28096e-20
1.23624e-07 -6.82497e-08 -1.03303e-19
6.53476e-08 2.87074e-08 3.39761e-20
-1.3363e-08 1.12948e-08 2.116e-20
1.24001e-07 -1.91561e-07 -2.83893e-21
-1.32197e-07 -1.64971e-07 -7.67743e-21
1.70564e-07 6.7277e-08 -1.0571e-20
4.33884e-08 -2.68163e-08 3.12528e-20
7.97409e-08 -1.98189e-07 -3.85832e-20
9.37034e-08 -1.7761e-08 -2.12609e-20
-9.09324e-08 -3.62781e-08 -2.6001e-20
-3.95437e-09 -3.69078e-08 6.12848e-20
-2.08439e-07 2.8944e-08 3.08571e-20
2.19011e-08 1.8285e-07 -5.51041e-21
1.42593e-07 3.32728e-08 -2.60278e-20
-1.61978e-07 -7.24996e-08 -2.55732e-20
-7.96479e-08 2.04228e-07 1.80015e-20
-1.82048e-08 -1.78144e-07 1.01215e-20
4.70936e-08 2.29835e-08 -1.60165e-20
-3.05703e-08 8.61542e-08 2.11189e-20
-1.45659e-07 1.0447e-07 2.07924e-20
1.87067e-07 9.43569e-08 1.26914e-20
-8.51603e-08 -2.67508e-08 2.50115e-21
-2.06519e-08 -8.76951e-08 9.3748e-23
1.42954e-07 1.66173e-07 3.58631e-20
-3.36038e-08 -1.52421e-08 -3.99889e-20
4.70066e-07 -3.37994e-07 2.87232e-20
9.95426e-08 -6.96441e-08 -3.90823e-20
8.1295e-08 3.98372e-07 1.49133e-20
1.04964e-07 -1.00911e-07 -5.94138e-20
-2.26912e-07 8.64256e-07 2.48187e-21
-2.28227e-07 -8.55838e-07 -6.8836e-21
5.60805e-07 7.37122e-07 -6.00663e-20
5.53852e-07 -7.36922e-07 4.16755e-20
9.17978e-07 -3.57114e-10 6.97188e-21
-7.91348e-07 3.18395e-07 -4.49871e-21
-7.78232e-07 -3.21854e-07 2.3291e-20
3.78431e-08 2.05271e-08 -1.86237e-20
2.42795e-08 1.1787e-08 7.86535e-21
7.05349e-08 9.49786e-09 -1.58389e-20
1.24528e-07 6.65515e-08 5.90881e-20
3.69408e-08 1.47144e-07 1.0233e-20
-1.33504e-07 -1.14701e-07 -1.02474e-20
6.72289e-08 -6.19762e-08 -4.25927e-23
1.43449e-07 1.15124e-07 -6.94951e-20
-3.31748e-08 1.81107e-07 3.59295e-20
2.35485e-08 -1.1565e-08 1.58945e-20
3.37645e-08 -1.73798e-07 1.02047e-20
4.41104e-08 2.97457e-08 -1.86694e-20
2.58736e-07 9.06367e-08 -2.79442e-20
5.7967e-09 1.86222e-08 -3.16201e-20
9.99967e-08 3.27284e-08 1.79616e-20
-1.23763e-07 6.84607e-08 4.67878e-20
-1.69451e-07 5.86196e-08 5.69055e-20
3.35473e-08 -2.29844e-08 4.77176e-20
-1.08186e-07 -5.00621e-08 -3.88839e-20
-1.18868e-07 -7.04085e-08 6.11265e-23
-1.04196e-08 -1.19326e-07 -1.83014e-20
4.71084e-10 -1.37048e-07 8.51745e-20
-1.50893e-07 -6.52255e-09 3.35912e-20
2.23958e-07 -3.47726e-08 2.31106e-21
1.2082e-07 7.44602e-08 -1.30167e-20
-9.99781e-08 6.82036e-08 2.10333e-20
-4.50793e-08 2.20646e-08 -5.28056e-21
1.12768e-07 -1.01043e-07 -7.71423e-20
-8.4728e-08 1.31926e-07 2.68212e-21
-1.04371e-07 -1.09944e-07 3.59296e-20
-9.8902e-09 1.437e-07 -3.60085e-20
-2.14999e-08 1.21281e-07 -3.19078e-23
3.54474e-09 -8.80473e-08 5.01608e-21
4.5426e-08 -1.46818e-07 -5.67021e-20
-7.42447e-08 -4.76473e-08 -4.9599e-20
1.02867e-07 -2.93354e-08 5.06172e-21
2.51995e-10 1.43522e-07 1.26956e-20
-3.10445e-09 9.1702e-08 7.94104e-21
-2.30469e-08 1.03153e-07 -4.12983e-20
1.68828e-07 -4.15483e-08 -3.87678e-20
-3.54535e-08 3.38533e-08 -1.83946e-20
3.82675e-08 1.43638e-07 -1.31047e-20
-2.31213e-08 1.45955e-08 3.23924e-20
8.52694e-08 3.95375e-07 1.47423e-20
-4.18211e-08 2.25779e-08 2.75758e-21
4.43718e-08 -2.30967e-08 2.62586e-20
1.27655e-08 1.22054e-07 4.66578e-20
-1.43144e-07 3.40011e-08 8.10105e-21
-4.40145e-09 -6.20491e-08 4.98322e-20
5.91486e-09 -5.64066e-07 2.17258e-20
1.71348e-08 1.03471e-07 -1.30243e-20
-1.06936e-07 1.01734e-07 2.61494e-20
1.66071e-07 6.17646e-07 -9.93314e-21
7.9744e-09 5.25014e-09 1.90387e-20
6.88906e-09 -5.00736e-09 7.94074e-21
8.0506e-08 -6.27803e-08 2.64865e-21
-1.14277e-07 1.0232e-07 -1.51976e-20
-1.37168e-07 -4.05176e-08 5.34355e-21
-1.40956e-07 -4.62946e-08 -2.8254e-20
-2.8025e-09 1.72435e-09 3.01986e-20
-1.93481e-09 -9.29389e-10 6.05722e-20
6.58395e-08 1.33772e-08 -4.98731e-20
2.0898e-08 9.60916e-08 -1.29649e-20
-2.41498e-09 9.5545e-08 4.69541e-20
-4.72452e-07 -3.43196e-07 -3.13029e-20
8.38603e-08 -1.31898e-07 -3.59975e-20
4.2417e-08 1.5275e-08 7.59897e-21
-1.55577e-07 -1.67355e-08 1.61325e-22
-9.83694e-08 1.29961e-07 1.69106e-22
-1.26994e-07 5.97138e-08 5.46032e-20
4.63834e-07 3.33268e-07 -2.88252e-20
4.58964e-08 3.01704e-08 -2.11196e-20
-4.5146e-08 1.47349e-07 4.38341e-20
-8.89957e-08 -7.62301e-08 -3.89869e-20
2.21407e-08 -1.16076e-07 -5.35461e-21
-7.20163e-08 -1.37018e-07 6.9495e-20
-1.154e-07 -7.90995e-08 -2.57533e-20
7.90935e-08 -1.40269e-07 -2.08897e-20
9.48755e-08 -1.30385e-07 -3.34591e-20
-3.00676e-08 -5.88613e-07 7.2697e-21
2.42009e-07 -3.87097e-07 4.47782e-20
1.15614e-08 -1.40913e-07 -2.07552e-20
9.9369e-08 7.56476e-08 -2.87657e-20
-8.92614e-08 -1.08354e-07 -2.58956e-20
-7.74169e-08 1.4433e-07 3.89875e-20
-4.75632e-08 1.41459e-07 -1.53823e-20
1.03613e-07 1.07293e-07 7.82347e-21
5.07986e-08 -1.32312e-07 -5.44136e-20
-1.31339e-07 -3.74497e-07 7.1388e-20
2.96119e-09 4.54983e-08 -1.31249e-20
1.04898e-07 1.0794e-07 7.83328e-21
-5.65466e-08 -2.78437e-08 -3.40493e-20
-4.69852e-08 2.56483e-08 -3.39577e-20
4.20516e-07 -1.84219e-07 5.42103e-20
5.2227e-08 -8.63133e-08 -4.93294e-20
-4.9569e-08 -8.48029e-08 4.39767e-20
1.88099e-08 -1.62876e-09 2.37356e-20
1.6244e-09 -7.12902e-09 -2.458e-20
-5.27353e-09 -5.21737e-09 3.5619e-20
2.31595e-08 1.51855e-08 -8.18626e-21
-7.2622e-08 -1.37091e-07 5.89406e-20
1.11749e-07 4.48146e-08 -3.40637e-20
-2.71945e-07 -2.98974e-07 3.68417e-20
1.02675e-09 8.7623e-09 -3.50058e-20
1.01345e-09 1.56262e-09 3.84746e-20
1.95555e-09 -2.58225e-10 -2.7348e-20
2.60967e-07 -5.15331e-07 7.71577e-20
-1.08451e-08 1.27691e-08 6.74887e-20
-2.48743e-09 1.5473e-08 -3.74768e-20
-1.12362e-07 3.99416e-08 -2.83071e-20
-3.88478e-09 4.56366e-08 -5.20243e-21
-2.46869e-08 7.31945e-08 1.86181e-20
5.08865e-08 2.16836e-09 -4.48191e-20
1.14801e-08 4.39975e-08 -3.15698e-20
-3.00808e-09 6.08408e-08 -3.15697e-20
8.72144e-08 4.74485e-08 -1.31453e-20
6.22248e-09 5.61433e-07 3.38558e-20
-8.1144e-08 7.67827e-08 -1.80408e-20
6.08409e-08 -4.09092e-08 -3.42288e-20
3.51213e-08 -3.20727e-08 -3.96105e-20
-5.75842e-07 -7.90667e-08 2.88609e-20
-1.64079e-08 6.50332e-09 -3.76135e-20
-4.19298e-07 -4.95995e-07 4.43241e-20
7.61511e-09 2.04001e-08 3.14708e-20
7.35395e-08 1.4297e-08 1.55296e-20
2.18953e-07 -2.84153e-08 -1.30255e-20
-5.00507e-08 -8.22454e-08 -2.68284e-21
9.56952e-08 2.74449e-08 1.01151e-20
4.96635e-10 -2.43487e-08 -5.85382e-20
-5.39688e-08 6.24446e-08 8.05206e-21
-2.06358e-08 -1.31258e-08 2.40408e-20
-4.86478e-08 9.88308e-08 1.07618e-20
8.80329e-09 6.23746e-08 -2.6367e-20
1.42986e-08 1.04814e-08 2.9706e-20
1.41903e-08 -1.00693e-08 2.43592e-21
-3.90368e-07 -1.06344e-07 7.17334e-21
4.30008e-08 1.6043e-08 -2.12814e-20
-5.17657e-08 1.00211e-06 -2.1672e-20
-3.59265e-09 -1.02957e-06 6.02054e-20
5.06778e-07 8.67529e-07 -1.4149e-20
-5.25886e-08 4.17226e-08 3.43124e-20
-2.68531e-07 5.40432e-07 -2.42349e-21
5.09691e-07 -8.37333e-07 2.62939e-20
-8.42789e-08 -1.36408e-07 5.92731e-20
7.73971e-07 6.78167e-07 -7.08566e-21
9.0948e-09 -1.61362e-08 -4.01797e-20
-9.48118e-09 -1.6348e-08 8.11171e-21
8.11309e-07 -6.63068e-07 2.32561e-21
-4.97139e-08 9.77675e-08 1.84957e-20
-5.09645e-07 -3.2458e-07 4.64393e-20
-4.29757e-07 -8.9575e-07 -3.81895e-20
-2.40704e-07 -5.53756e-07 1.45259e-20
-4.41799e-07 9.1066e-07 -1.6728e-20
-1.04404e-07 6.17121e-07 -4.15676e-20
-7.38211e-10 2.16062e-08 -4.28949e-20
-2.68073e-07 3.45143e-07 -6.36199e-20
-2.56647e-07 -5.25295e-07 2.88777e-20
9.97986e-07 1.74153e-07 4.70043e-21
-7.80338e-08 6.6344e-08 4.19267e-20
-1.83096e-09 4.38289e-08 -3.68266e-20
-4.82756e-07 3.49486e-07 -1.69215e-20
-8.65414e-08 4.61886e-08 -5.20029e-20
9.88155e-07 -1.54902e-07 9.52394e-21
-6.60499e-08 4.43398e-08 1.31795e-20
4.81163e-08 -9.9509e-08 -1.56697e-20
-7.69002e-07 -5.8407e-07 2.66489e-20
-2.59298e-07 5.55595e-07 -4.38498e-20
-7.87632e-07 5.7978e-07 -7.05434e-21
2.30143e-07 5.1341e-07 -7.11587e-21
-8.472e-08 6.73474e-08 -2.31394e-20
-2.35085e-08 1.33118e-08 4.2975e-20
-1.28814e-09 -2.04363e-09 -7.11265e-20
3.22198e-10 -1.7657e-09 -5.2171e-20
6.44227e-09 6.76279e-08 -2.60833e-20
-1.88853e-09 2.04707e-09 2.18316e-20
9.95542e-10 2.53542e-09 2.47483e-20
1.70317e-09 -7.30614e-10 6.33517e-20
-1.00701e-09 8.00841e-09 -7.3357e-20
-1.77079e-07 3.86356e-07 -5.63487e-20
-1.33152e-08 9.55778e-09 5.42179e-20
2.29497e-08 -1.44612e-08 -2.94925e-20
2.24951e-08 -1.30352e-08 3.46325e-20
6.4819e-08 2.52943e-08 2.35935e-21
-6.10745e-10 -6.8535e-09 5.19184e-20
-6.11965e-09 -3.10134e-09 4.94956e-20
2.24827e-08 1.31189e-08 -3.74774e-22
5.72278e-07 -1.10293e-07 -9.61356e-21
-7.41435e-08 -9.45077e-08 2.82905e-20
-5.01041e-07 3.49323e-07 -6.26121e-20
-4.48601e-07 5.1166e-07 -5.13432e-20
6.04692e-07 -2.18376e-07 -2.22007e-20
-2.9003e-09 -8.41312e-09 7.83362e-21
-3.18503e-09 8.6421e-09 -5.6721e-20
-9.49797e-09 1.63086e-09 -2.98228e-20
-6.22789e-09 6.35216e-09 6.25363e-20
-8.60991e-09 -1.82393e-09 4.60633e-20
1.59681e-09 2.0212e-09 5.99801e-20
9.24192e-09 -2.27409e-09 2.67214e-20
3.89864e-09 -2.74022e-09 4.89677e-20
-2.7241e-09 -1.96794e-09 -2.48221e-20
5.91049e-09 -6.0777e-09 -4.91182e-20
5.94322e-09 6.25869e-09 2.15937e-20
-2.74064e-09 1.73023e-09 7.45668e-20
3.0098e-09 -5.97558e-10 -1.11239e-20
4.9903e-09 2.76406e-09 -3.02831e-21
1.08026e-08 3.85446e-09 1.87672e-20
SCALARS rr_necrosis float
LOOKUP_TABLE default
0
0
0
0
0
0
0
0
0
0
0
0
0
0
0
0
0
0
0
0
0
0
0
0
0
0
0
0
0
0
0
0
0
0
0
0
0
0
0
0
0
0
0
0
0
0
0
0
0
0
0
0
0
0
0
0
0
0
0
0
0
0
0
0
0
0
0
0
0
0
0
0
0
0
0
0
0
0
0
0
0
0
0
0
0
0
0
0
0
0
0
0
0
0
0
0
0
0
0
0
0
0
0
0
0
0
0
0
0
0
0
0
0
0
0
0
0
0
0
0
0
0
0
0
0
0
0
0
0
0
0
0
0
0
0
0
0
0
0
0
0
0
0
0
0
0
0
0
0
0
0
0
0
0
0
0
0
0
0
0
0
0
0
0
0
0
0
0
0
0
0
0
0
0
0
0
0
0
0
0
0
0
0
0
0
0
0
0
0
0
0
0
0
0
0
0
0
0
0
0
0
0
0
0
0
0
0
0
0
0
0
0
0
0
0
0
0
0
0
0
0
0
0
0
0
0
0
0
0
0
0
0
0
0
0
0
0
0
0
0
0
0
0
0
0
0
0
0
0
0
0
0
0
0
0
0
0
0
0
0
0
0
0
0
0
0
0
0
0
0
0
0
0
0
0
0
0
0
0
0
0
0
0
0
0
0
0
0
0
0
0
0
0
0
0
0
0
0
0
0
0
0
0
0
0
0
0
0
0
0
0
0
0
0
0
0
0
0
0
0
0
0
0
0
0
0
0
0
0
0
0
0
0
0
0
0
0
0
0
0
0
0
0
0
0
0
0
0
0
0
0
0
0
0
0
0
0
0
0
0
0
0
0
0
0
0
0
0
0
0
0
0
0
0
0
0
0
0
0
0
0
0
0
0
0
0
0
0
0
0
0
0
0
0
0
0
0
0
0
0
0
0
0
0
0
0
0
0
0
0
0
0
0
0
0
0
0
0
0
0
0
0
0
0
0
0
0
0
0
0
0
0
0
0
0
0
0
0
0
0
0
0
0
0
0
0
0
0
0
0
0
0
0
0
0
0
0
0
0
0
0
0
0
0
0
0
0
0
0
0
0
0
0
0
0
0
0
0
0
0
0
0
0
0
0
0
0
0
0
0
0
0
0
0
0
0
0
0
0
0
0
0
0
0
0
0
0
0
0
0
0
0
0
0
0
0
0
0
0
0
0
0
0
0
0
0
0
0
0
0
0
0
0
0
0
0
0
0
0
0
0
0
0
0
0
0
0
0
0
0
0
0
0
0
0
0
0
0
0
0
0
0
0
SCALARS rr_protein float
LOOKUP_TABLE default
1
1
1
1
1
1
1
1
1
1
1
1
1
1
1
1
1
1
1
1
1
1
1
1
1
1
1
1
1
1
1
1
1
1
1
1
1
1
1
1
1
1
1
1
1
1
1
1
1
1
1
1
1
1
1
1
1
1
1
1
1
1
1
1
1
1
1
1
1
1
1
1
1
1
1
1
1
1
1
1
1
1
1
1
1
1
1
1
1
1
1
1
1
1
1
1
1
1
1
1
1
1
1
1
1
1
1
1
1
1
1
1
1
1
1
1
1
1
1
1
1
1
1
1
1
1
1
1
1
1
1
1
1
1
1
1
1
1
1
1
1
1
1
1
1
1
1
1
1
1
1
1
1
1
1
1
1
1
1
1
1
1
1
1
1
1
1
1
1
1
1
1
1
1
1
1
1
1
1
1
1
1
1
1
1
1
1
1
1
1
1
1
1
1
1
1
1
1
1
1
1
1
1
1
1
1
1
1
1
1
1
1
1
1
1
1
1
1
1
1
1
1
1
1
1
1
1
1
1
1
1
1
1
1
1
1
1
1
1
1
1
1
1
1
1
1
1
1
1
1
1
1
1
1
1
1
1
1
1
1
1
1
1
1
1
1
1
1
1
1
1
1
1
1
1
1
1
1
1
1
1
1
1
1
1
1
1
1
1
1
1
1
1
1
1
1
1
1
1
1
1
1
1
1
1
1
1
1
1
1
1
1
1
1
1
1
1
1
1
1
1
1
1
1
1
1
1
1
1
1
1
1
1
1
1
1
1
1
1
1
1
1
1
1
1
1
1
1
1
1
1
1
1
1
1
1
1
1
1
1
1
1
1
1
1
1
1
1
1
1
1
1
1
1
1
1
1
1
1
1
1
1
1
1
1
1
1
1
1
1
1
1
1
1
1
1
1
1
1
1
1
1
1
1
1
1
1
1
1
1
1
1
1
1
1
1
1
1
1
1
1
1
1
1
1
1
1
1
1
1
1
1
1
1
1
1
1
1
1
1
1
1
1
1
1
1
1
1
1
1
1
1
1
1
1
1
1
1
1
1
1
1
1
1
1
1
1
1
1
1
1
1
1
1
1
1
1
1
1
1
1
1
1
1
1
1
1
1
1
1
1
1
1
1
1
1
1
1
1
1
1
1
1
1
1
1
1
1
1
1
1
1
1
1
1
1
1
1
1
1
1
1
1
1
1
1
1
1
1
1
1
1
1
1
1
1
1
1
1
1
1
1
1
1
1
1
1
1
1
1
1
1
1
1
1
1
1
1
1
1
1
1
1
SCALARS rr_(S_ext) float
LOOKUP_TABLE default
0.575282
0.575306
0.575306
0.575305
0.575323
0.575306
0.575282
0.575309
0.575305
0.575308
0.575268
0.575309
0.575308
0.575309
0.575315
0.575307
0.575309
0.575306
0.575301
0.575305
0.575307
0.575336
0.575304
0.575305
0.575305
0.575307
0.575281
0.575307
0.575292
0.575326
0.575309
0.575292
0.575282
0.575323
0.575327
0.575323
0.575325
0.575327
0.575309
0.575282
0.575292
0.575325
0.575325
0.575308
0.57528
0.575293
0.575303
0.575306
0.575306
0.575289
0.575291
0.575297
0.57532
0.575298
0.575319
0.575288
0.575327
0.575297
0.575327
0.575304
0.575308
0.575315
0.575288
0.575315
0.575315
0.575312
0.575308
0.575307
0.575305
0.575306
0.57532
0.57532
0.575292
0.575314
0.575307
0.575279
0.575318
0.575312
0.575307
0.575296
0.575291
0.575324
0.575311
0.575289
0.575296
0.575284
0.575306
0.575314
0.57528
0.575335
0.575297
0.575335
0.575318
0.575312
0.575298
0.575289
0.575292
0.575307
0.575318
0.575308
0.575302
0.575297
0.575288
0.575306
0.575307
0.575307
0.575312
0.575308
0.575288
0.575305
0.575305
0.575283
0.575286
0.575306
0.575307
0.575299
0.575328
0.575293
0.575328
0.575298
0.575301
0.575314
0.575305
0.575311
0.575306
0.575315
0.575326
0.575308
0.575293
0.575298
0.575318
0.575305
0.57531
0.575305
0.575297
0.575326
0.575291
0.575309
0.575311
0.575326
0.575297
0.575311
0.575303
0.575308
0.575293
0.575306
0.57531
0.575308
0.575306
0.575299
0.575305
0.575305
0.575291
0.575309
0.575308
0.575305
0.57531
0.575299
0.575298
0.575306
0.575305
0.575291
0.575284
0.57529
0.575297
0.575307
0.575298
0.575299
0.575292
0.575298
0.575317
0.575297
0.57529
0.575311
0.575298
0.575312
0.575317
0.575309
0.575321
0.575309
0.575293
0.575307
0.575307
0.575297
0.575313
0.57529
0.575311
0.575314
0.575319
0.575308
0.575313
0.575293
0.575297
0.575292
0.575305
0.575306
0.575306
0.57531
0.575305
0.575312
0.575306
0.575302
0.575297
0.57531
0.575293
0.575311
0.575313
0.575296
0.575316
0.575306
0.575317
0.575311
0.575307
0.575311
0.575299
0.575312
0.575297
0.575314
0.575305
0.575305
0.575304
0.575305
0.575305
0.575305
0.575309
0.575314
0.575314
0.575314
0.575314
0.57532
0.57532
0.575299
0.575308
0.575302
0.575306
0.575315
0.575315
0.575302
0.575296
0.575301
0.575308
0.5753
0.575315
0.5753
0.575312
0.575301
0.5753
0.575297
0.575291
0.575287
0.575311
0.575292
0.575308
0.575297
0.575302
0.575301
0.575305
0.575327
0.575305
0.575294
0.575297
0.575302
0.575309
0.575296
0.575305
0.575303
0.575327
0.575297
0.575305
0.575312
0.575306
0.575315
0.575314
0.57532
0.575308
0.575286
0.575284
0.57532
0.575306
0.575309
0.575301
0.575315
0.575311
0.575297
0.575312
0.575302
0.57531
0.575302
0.575296
0.575331
0.575318
0.575314
0.575314
0.575309
0.575303
0.575323
0.575311
0.575305
0.575303
0.575302
0.575319
0.5753
0.575319
0.575303
0.575281
0.575302
0.575293
0.575313
0.5753
0.57533
0.575302
0.575312
0.575299
0.575312
0.575302
0.575307
0.57529
0.575305
0.5753
0.575318
0.575299
0.575305
0.575314
0.575306
0.575302
0.575303
0.575303
0.575314
0.575302
0.575309
0.575307
0.575321
0.575303
0.575303
0.575306
0.575304
0.575302
0.575303
0.575316
0.575309
0.575303
0.575299
0.57531
0.57531
0.575302
0.575321
0.575267
0.575308
0.575291
0.575306
0.575228
0.575228
0.575228
0.575227
0.575226
0.575231
0.575231
0.575314
0.575323
0.575306
0.575305
0.575302
0.575304
0.57531
0.575303
0.575303
0.575323
0.575303
0.575317
0.575297
0.575312
0.575306
0.575305
0.575303
0.575321
0.575308
0.575305
0.575308
0.575305
0.575301
0.575296
0.575304
0.575308
0.575316
0.575302
0.575301
0.575302
0.575304
0.575307
0.57531
0.575302
0.57531
0.575306
0.575304
0.575309
0.575306
0.575302
0.575311
0.575306
0.575322
0.575281
0.575314
0.575316
0.575307
0.575307
0.575311
0.575269
0.575306
0.575306
0.57529
0.575332
0.575333
0.575307
0.575302
0.575307
0.575303
0.575342
0.575341
0.575307
0.575309
0.575309
0.575271
0.575301
0.575312
0.575306
0.575306
0.575305
0.575266
0.575312
0.575302
0.575308
0.575308
0.575305
0.575305
0.575305
0.575306
0.575282
0.575293
0.575305
0.575308
0.575306
0.575305
0.575306
0.575306
0.575306
0.575282
0.575316
0.575302
0.575311
0.575312
0.575282
0.575306
0.575305
0.575321
0.575328
0.575328
0.575317
0.575301
0.575308
0.575281
0.575327
0.575338
0.575337
0.575265
0.575326
0.575325
0.575307
0.575318
0.575307
0.575308
0.575311
0.575314
0.57531
0.575268
0.575308
0.575312
0.575312
0.575278
0.575324
0.575291
0.575311
0.57531
0.575301
0.575308
0.57531
0.575319
0.575309
0.575319
0.575307
0.575313
0.575326
0.575327
0.575283
0.575308
0.575281
0.575284
0.575278
0.575313
0.57527
0.575276
0.575305
0.575279
0.575324
0.575324
0.575281
0.575304
0.575285
0.575283
0.575282
0.575282
0.575282
0.575326
0.57528
0.57527
0.57528
0.57531
0.575314
0.575281
0.575309
0.575275
0.57531
0.575305
0.575282
0.57528
0.57528
0.575265
0.575306
0.575324
0.575335
0.575334
0.57531
0.575335
0.575335
0.575335
0.575331
0.575281
0.575325
0.575319
0.575324
0.575309
0.575332
0.575332
0.575326
0.575264
0.575305
0.57527
0.575292
0.575288
0.575326
0.575326
0.575326
0.575326
0.575326
0.575336
0.575328
0.575333
0.575338
0.575328
0.575328
0.575338
0.575335
0.575333
0.575327
SCALARS rr_(P_ext) float
LOOKUP_TABLE default
0.0160725
0.0159957
0.0160025
0.015997
0.0159764
0.0160026
0.0160728
0.015998
0.0160089
0.015996
0.0160675
0.015998
0.0159996
0.015995
0.0159834
0.0160014
0.0159923
0.0159989
0.0160123
0.0160044
0.0160055
0.0159499
0.0160054
0.0160043
0.0160045
0.0159976
0.0160568
0.0160016
0.0160333
0.0159655
0.0159999
0.0160331
0.0160579
0.0159701
0.0159678
0.0159702
0.0159646
0.0159688
0.016
0.0160577
0.0160335
0.0159643
0.0159644
0.0159998
0.0160505
0.0160322
0.0160107
0.0160077
0.0160023
0.0160381
0.0160353
0.0160255
0.0159774
0.0160253
0.015978
0.0160482
0.0159676
0.0160253
0.0159677
0.016004
0.0159925
0.0159862
0.0160519
0.0159866
0.0159861
0.0159923
0.0159923
0.0159976
0.0160049
0.0159955
0.0159776
0.0159776
0.0160335
0.0159899
0.0160023
0.0160612
0.0159821
0.0159924
0.0159976
0.0160237
0.0160396
0.015974
0.0159893
0.0160418
0.0160311
0.0160497
0.0160016
0.0159911
0.0160504
0.0159537
0.0160254
0.0159538
0.0159816
0.0159932
0.0160247
0.016036
0.0160395
0.0159962
0.0159822
0.0160003
0.0160168
0.0160293
0.0160419
0.0159982
0.0159968
0.0159967
0.0159884
0.0160009
0.0160421
0.0159946
0.0160039
0.016048
0.0160446
0.0159986
0.015997
0.0160251
0.0159677
0.0160398
0.0159679
0.0160248
0.016014
0.0159843
0.0159957
0.0159909
0.015994
0.0159828
0.0159704
0.0159962
0.0160395
0.0160247
0.0159775
0.0159962
0.0159897
0.015996
0.0160292
0.0159676
0.0160438
0.0159991
0.0159893
0.0159677
0.0160283
0.0159958
0.0160129
0.015996
0.0160402
0.0159973
0.015997
0.0160024
0.0160026
0.016019
0.0160078
0.0159957
0.0160333
0.0159995
0.015996
0.0159962
0.0159939
0.0160276
0.0160273
0.0159996
0.0160075
0.0160327
0.0160486
0.0160353
0.0160276
0.0159966
0.0160276
0.0160277
0.0160333
0.0160275
0.0159814
0.0160253
0.0160354
0.0159932
0.0160251
0.0159887
0.0159815
0.0159981
0.0159772
0.0159966
0.0160332
0.0159963
0.0159963
0.0160282
0.015991
0.0160359
0.015991
0.0159883
0.0159811
0.0159961
0.0159909
0.0160387
0.0160251
0.0160332
0.015996
0.0159992
0.0159988
0.0159898
0.0159958
0.0159926
0.0159957
0.0160114
0.0160232
0.0159898
0.0160331
0.0159893
0.0159924
0.0160297
0.0159852
0.0159956
0.0159845
0.0159946
0.015997
0.0159892
0.0160188
0.015994
0.0160224
0.0159883
0.0159942
0.0159942
0.015995
0.0159947
0.0159947
0.0159947
0.0159955
0.015984
0.0159842
0.015984
0.0159839
0.0159779
0.0159779
0.0160193
0.0159953
0.0159977
0.016008
0.0159834
0.0159832
0.0159975
0.016023
0.015998
0.0159961
0.0160185
0.0159851
0.0160188
0.015989
0.0159983
0.0160183
0.0160221
0.0160398
0.0160392
0.0159893
0.0160413
0.0160004
0.0160225
0.0160119
0.0159981
0.0159943
0.0159639
0.0159945
0.0160419
0.0160224
0.0159977
0.015998
0.0160234
0.0159944
0.0160125
0.015964
0.0160223
0.015994
0.0159914
0.0159988
0.0159836
0.0159913
0.0159775
0.0159997
0.0160469
0.0160497
0.0159796
0.0160053
0.015998
0.0160188
0.015985
0.0159933
0.0160224
0.015993
0.0160165
0.0159966
0.0160164
0.0160228
0.0159581
0.0159807
0.0159832
0.0159834
0.0159955
0.0160159
0.0159709
0.0159917
0.0160073
0.0160156
0.016018
0.0159796
0.0160185
0.0159816
0.0160172
0.0160503
0.016016
0.0160406
0.0159881
0.0160185
0.0159582
0.0160172
0.0159899
0.0160194
0.0159906
0.0160174
0.0160016
0.0160532
0.0160032
0.0160187
0.0159799
0.0160191
0.0160072
0.0159906
0.0159955
0.0160173
0.016016
0.0160127
0.0159882
0.0160161
0.015998
0.0160016
0.0159776
0.016016
0.0160131
0.0160061
0.0160123
0.0160168
0.0160121
0.0159859
0.0159982
0.0160128
0.0160188
0.0159961
0.0159959
0.0160164
0.0159777
0.0160702
0.0160019
0.0160397
0.0160058
0.0161109
0.0161108
0.0161103
0.0161105
0.0161102
0.016111
0.0161107
0.0159879
0.015973
0.0159994
0.0160076
0.0160119
0.0160123
0.0159966
0.0160128
0.0160132
0.0159728
0.0160123
0.0159847
0.0160254
0.0159851
0.0160028
0.0160077
0.0160126
0.0159794
0.0160019
0.0160072
0.0160018
0.0160071
0.0160129
0.016024
0.0160078
0.0160026
0.0159845
0.0160112
0.0160136
0.0160115
0.0160082
0.0160028
0.0159965
0.0160116
0.0159966
0.0160034
0.016008
0.0159979
0.0160032
0.0160125
0.0159907
0.0160065
0.0159736
0.0160503
0.0159879
0.0159859
0.0160027
0.0160063
0.0159925
0.0160693
0.0160027
0.0160066
0.0160527
0.0159586
0.0159584
0.0160019
0.016012
0.0160057
0.0160112
0.0159469
0.0159469
0.0159978
0.0159978
0.0159981
0.0160695
0.0160132
0.0159896
0.016008
0.0160087
0.0160081
0.0160706
0.015991
0.0160124
0.0160021
0.0160021
0.0160088
0.0160073
0.0160088
0.0160081
0.0160572
0.0160404
0.0160074
0.016002
0.0160064
0.0160091
0.0160069
0.016006
0.0160064
0.0160502
0.0159834
0.0160116
0.0159927
0.0159907
0.0160507
0.0160024
0.0160031
0.0159776
0.015959
0.0159591
0.0159807
0.0160134
0.0160023
0.0160515
0.0159606
0.0159486
0.0159487
0.0160715
0.0159688
0.0159654
0.0160031
0.015982
0.0159995
0.0159955
0.0159904
0.0159886
0.015998
0.0160694
0.0160012
0.0159933
0.0159897
0.0160616
0.0159679
0.0160541
0.01599
0.0159953
0.0160177
0.0159999
0.0159984
0.0159769
0.0159973
0.015977
0.016002
0.0159896
0.0159667
0.0159662
0.0160513
0.0159946
0.016074
0.0160726
0.0160757
0.0159911
0.0160703
0.0160772
0.016009
0.0160748
0.0159737
0.0159738
0.0160737
0.016006
0.016057
0.0160744
0.0160584
0.0160747
0.0160584
0.0159684
0.0160541
0.01607
0.0160738
0.0159987
0.0159869
0.0160596
0.0159985
0.0160767
0.0159961
0.0160055
0.0160752
0.0160608
0.0160764
0.0160715
0.0160034
0.0159724
0.01595
0.015951
0.0159948
0.0159502
0.0159502
0.0159506
0.0159565
0.0160526
0.0159672
0.0159802
0.0159723
0.0159957
0.015955
0.015955
0.015971
0.0160723
0.0160062
0.0160714
0.0160553
0.0160547
0.0159615
0.0159617
0.0159622
0.015962
0.0159615
0.0159513
0.015962
0.0159549
0.0159498
0.0159613
0.0159612
0.0159495
0.0159511
0.0159547
0.0159626
SCALARS rr_(S) float
LOOKUP_TABLE default
0.5613
0.561272
0.561277
0.561272
0.561276
0.561277
0.5613
0.561276
0.56128
0.561274
0.561283
0.561276
0.561277
0.561275
0.561273
0.561277
0.561273
0.561275
0.561278
0.561276
0.561279
0.561273
0.561277
0.561277
0.561277
0.561274
0.561289
0.561276
0.561283
0.561273
0.561277
0.561283
0.56129
0.561273
0.561274
0.561273
0.561271
0.561275
0.561277
0.56129
0.561283
0.561271
0.561271
0.561277
0.561284
0.561284
0.561279
0.561279
0.561277
0.561283
0.561283
0.561283
0.561274
0.561284
0.561274
0.561289
0.561275
0.561283
0.561275
0.561276
0.561272
0.561274
0.561292
0.561275
0.561274
0.561276
0.561272
0.561274
0.561277
0.561272
0.561274
0.561274
0.561284
0.561276
0.561277
0.561289
0.561275
0.561276
0.561274
0.56128
0.561287
0.561276
0.561273
0.561286
0.561285
0.561287
0.561276
0.561276
0.561284
0.561274
0.561283
0.561274
0.561274
0.561276
0.561284
0.561282
0.561288
0.561274
0.561275
0.561277
0.561282
0.561285
0.561285
0.561273
0.561274
0.561274
0.561273
0.561278
0.561286
0.56127
0.561276
0.561284
0.561285
0.561274
0.561274
0.561284
0.561276
0.561289
0.561276
0.561284
0.561279
0.561272
0.561272
0.561274
0.561271
0.561273
0.561275
0.561274
0.561288
0.561283
0.561273
0.561272
0.561273
0.561272
0.561286
0.561274
0.561289
0.561277
0.561273
0.561274
0.561285
0.561277
0.56128
0.561274
0.561289
0.561274
0.561277
0.561278
0.561277
0.561281
0.561279
0.561272
0.561282
0.561277
0.561274
0.561272
0.561275
0.561286
0.561285
0.561275
0.561279
0.561282
0.561285
0.561282
0.561285
0.561274
0.561285
0.561286
0.561283
0.561285
0.561274
0.561283
0.561283
0.561275
0.561283
0.561274
0.561274
0.561277
0.561275
0.561275
0.561284
0.561274
0.561274
0.561285
0.561276
0.561283
0.561274
0.561275
0.561275
0.561274
0.561276
0.561288
0.561283
0.561283
0.561272
0.561274
0.561274
0.561273
0.561272
0.561276
0.561272
0.561279
0.561281
0.561273
0.561284
0.561273
0.561276
0.561285
0.561275
0.561272
0.561276
0.561276
0.561274
0.561273
0.561281
0.561276
0.561281
0.561275
0.561271
0.56127
0.56127
0.56127
0.56127
0.56127
0.561275
0.561272
0.561272
0.561272
0.561272
0.561275
0.561274
0.561281
0.561274
0.56127
0.56128
0.561273
0.561273
0.56127
0.56128
0.561269
0.561274
0.561281
0.561274
0.561281
0.561273
0.561269
0.561281
0.561281
0.561287
0.561283
0.561273
0.561289
0.561277
0.561281
0.561279
0.56127
0.56127
0.561272
0.56127
0.561291
0.56128
0.561269
0.561276
0.561281
0.56127
0.56128
0.561272
0.561281
0.561271
0.561275
0.561274
0.561273
0.561277
0.561275
0.561276
0.561286
0.561287
0.561275
0.561278
0.561276
0.561282
0.561274
0.561275
0.561281
0.561276
0.561282
0.561277
0.561282
0.56128
0.561273
0.561274
0.561272
0.561272
0.561274
0.561282
0.561273
0.561275
0.561279
0.561282
0.561283
0.561275
0.561281
0.561275
0.561283
0.561284
0.561282
0.561289
0.561274
0.561281
0.561272
0.561282
0.561274
0.561281
0.561275
0.561282
0.561277
0.561294
0.561276
0.561281
0.561274
0.56128
0.561279
0.561276
0.561272
0.561282
0.561282
0.56128
0.561276
0.561282
0.561277
0.561277
0.561275
0.561282
0.56128
0.561279
0.561281
0.561282
0.56128
0.561275
0.561276
0.56128
0.561281
0.561277
0.561276
0.561281
0.561275
0.561284
0.561278
0.561287
0.561279
0.561274
0.561274
0.561274
0.561273
0.561272
0.561277
0.561277
0.561275
0.561274
0.561275
0.561278
0.561278
0.561281
0.561277
0.56128
0.56128
0.561274
0.56128
0.561276
0.561283
0.561272
0.561277
0.561279
0.561281
0.561276
0.561278
0.561279
0.561278
0.561278
0.561279
0.561281
0.561278
0.561278
0.561275
0.561279
0.561279
0.561279
0.561278
0.561278
0.561276
0.561279
0.561276
0.561277
0.561278
0.561276
0.561277
0.561279
0.561274
0.561279
0.561274
0.561284
0.561275
0.561275
0.561278
0.561279
0.561275
0.561285
0.561277
0.561279
0.561294
0.561274
0.561275
0.561277
0.561279
0.561279
0.561279
0.561276
0.561275
0.561275
0.561277
0.561277
0.561287
0.561279
0.561274
0.56128
0.56128
0.561279
0.561283
0.561275
0.561279
0.561278
0.561278
0.561279
0.561279
0.561279
0.56128
0.56129
0.561289
0.561278
0.561278
0.561279
0.56128
0.561279
0.561279
0.561279
0.561285
0.561274
0.561278
0.561275
0.561275
0.561285
0.561277
0.561276
0.561275
0.56127
0.56127
0.561273
0.561279
0.561278
0.561285
0.56127
0.561273
0.561273
0.561283
0.561274
0.561272
0.561278
0.561275
0.561275
0.561274
0.561273
0.561275
0.561277
0.561284
0.561277
0.561276
0.561275
0.561289
0.561273
0.561296
0.561273
0.561276
0.561281
0.561276
0.561277
0.561273
0.561276
0.561273
0.561277
0.561275
0.561273
0.561274
0.561286
0.561274
0.5613
0.561302
0.561298
0.561276
0.561287
0.561297
0.56128
0.561298
0.561275
0.561275
0.5613
0.561277
0.561292
0.561302
0.56129
0.561302
0.56129
0.561275
0.561286
0.561287
0.561299
0.561277
0.561274
0.561291
0.561277
0.561296
0.561276
0.561277
0.561301
0.56129
0.5613
0.561283
0.561277
0.561275
0.561272
0.561272
0.561275
0.561272
0.561271
0.561272
0.561272
0.561285
0.561273
0.561274
0.561275
0.561275
0.561272
0.561272
0.561276
0.561282
0.561277
0.561288
0.561298
0.561293
0.56127
0.56127
0.56127
0.561271
0.56127
0.561273
0.561273
0.561273
0.561274
0.561272
0.561272
0.561274
0.561273
0.561273
0.561272
SCALARS rr_(P) float
LOOKUP_TABLE default
0.0183456
0.0183002
0.0183043
0.018301
0.0182887
0.0183044
0.0183457
0.0183017
0.0183081
0.0183004
0.0183424
0.0183017
0.0183026
0.0182998
0.0182928
0.0183037
0.0182981
0.0183021
0.0183101
0.0183054
0.0183061
0.0182727
0.018306
0.0183053
0.0183055
0.0183014
0.0183362
0.0183038
0.0183225
0.018282
0.0183028
0.0183223
0.0183369
0.0182848
0.0182835
0.0182849
0.0182815
0.0182841
0.0183028
0.0183368
0.0183225
0.0182813
0.0182813
0.0183027
0.0183325
0.0183218
0.0183092
0.0183074
0.0183042
0.0183252
0.0183236
0.0183179
0.0182893
0.0183178
0.0182897
0.0183312
0.0182834
0.0183178
0.0182835
0.0183052
0.0182983
0.0182946
0.0183334
0.0182948
0.0182945
0.0182982
0.0182981
0.0183013
0.0183057
0.0183
0.0182894
0.0182894
0.0183226
0.0182968
0.0183042
0.0183388
0.0182921
0.0182983
0.0183014
0.0183168
0.0183262
0.0182873
0.0182964
0.0183274
0.0183212
0.0183321
0.0183038
0.0182975
0.0183324
0.0182749
0.0183178
0.0182749
0.0182918
0.0182987
0.0183174
0.018324
0.0183261
0.0183005
0.0182922
0.018303
0.0183128
0.0183201
0.0183275
0.0183017
0.0183009
0.0183008
0.0182958
0.0183034
0.0183276
0.0182995
0.0183051
0.0183311
0.0183291
0.018302
0.018301
0.0183177
0.0182835
0.0183264
0.0182836
0.0183175
0.0183111
0.0182934
0.0183002
0.0182974
0.0182991
0.0182925
0.0182851
0.0183005
0.0183261
0.0183174
0.0182893
0.0183005
0.0182966
0.0183003
0.0183201
0.0182834
0.0183286
0.0183023
0.0182963
0.0182834
0.0183196
0.0183003
0.0183105
0.0183004
0.0183265
0.0183012
0.018301
0.0183042
0.0183044
0.0183141
0.0183075
0.0183002
0.0183224
0.0183025
0.0183004
0.0183005
0.0182992
0.0183191
0.018319
0.0183026
0.0183073
0.0183221
0.0183314
0.0183236
0.0183191
0.0183008
0.0183192
0.0183192
0.0183224
0.0183191
0.0182917
0.0183178
0.0183237
0.0182988
0.0183177
0.018296
0.0182917
0.0183017
0.0182891
0.0183007
0.0183224
0.0183006
0.0183006
0.0183195
0.0182974
0.018324
0.0182974
0.0182958
0.0182915
0.0183005
0.0182974
0.0183257
0.0183177
0.0183224
0.0183004
0.0183023
0.018302
0.0182967
0.0183003
0.0182984
0.0183002
0.0183096
0.0183165
0.0182967
0.0183224
0.0182964
0.0182983
0.0183203
0.018294
0.0183001
0.0182936
0.0182996
0.018301
0.0182963
0.0183139
0.0182992
0.0183161
0.0182958
0.0182992
0.0182992
0.0182997
0.0182995
0.0182995
0.0182996
0.0183001
0.0182932
0.0182933
0.0182931
0.0182931
0.0182896
0.0182895
0.0183142
0.0183
0.0183013
0.0183076
0.0182928
0.0182927
0.0183012
0.0183164
0.0183015
0.0183005
0.0183138
0.0182939
0.018314
0.0182962
0.0183016
0.0183136
0.0183159
0.0183263
0.0183259
0.0182964
0.0183272
0.0183031
0.0183161
0.0183098
0.0183016
0.0182993
0.0182811
0.0182994
0.0183276
0.0183161
0.0183013
0.0183016
0.0183166
0.0182994
0.0183102
0.0182811
0.018316
0.0182991
0.0182976
0.0183021
0.0182929
0.0182976
0.0182893
0.0183026
0.0183304
0.0183321
0.0182906
0.018306
0.0183017
0.018314
0.0182938
0.0182988
0.018316
0.0182987
0.0183126
0.0183008
0.0183126
0.0183163
0.0182776
0.0182912
0.0182927
0.0182928
0.0183001
0.0183123
0.0182853
0.0182978
0.0183072
0.0183121
0.0183135
0.0182906
0.0183138
0.0182918
0.0183131
0.0183324
0.0183123
0.0183268
0.0182957
0.0183137
0.0182776
0.018313
0.0182967
0.0183143
0.0182972
0.0183131
0.0183038
0.0183342
0.0183047
0.0183139
0.0182908
0.0183141
0.0183071
0.0182972
0.0183001
0.0183131
0.0183123
0.0183104
0.0182958
0.0183124
0.0183017
0.0183038
0.0182894
0.0183123
0.0183106
0.0183065
0.0183101
0.0183128
0.01831
0.0182944
0.0183018
0.0183104
0.0183139
0.0183005
0.0183004
0.0183125
0.0182895
0.018344
0.0183039
0.0183263
0.0183063
0.0183676
0.0183676
0.0183673
0.0183674
0.0183672
0.0183677
0.0183676
0.0182955
0.0182866
0.0183024
0.0183073
0.0183099
0.0183101
0.0183008
0.0183104
0.0183106
0.0182865
0.0183101
0.0182937
0.0183178
0.0182939
0.0183045
0.0183074
0.0183103
0.0182905
0.018304
0.0183071
0.0183039
0.018307
0.0183105
0.018317
0.0183074
0.0183044
0.0182936
0.0183094
0.0183109
0.0183096
0.0183077
0.0183045
0.0183007
0.0183097
0.0183008
0.0183048
0.0183076
0.0183016
0.0183047
0.0183102
0.0182972
0.0183067
0.018287
0.0183323
0.0182956
0.0182944
0.0183044
0.0183066
0.0182983
0.0183434
0.0183044
0.0183068
0.0183339
0.0182779
0.0182778
0.0183039
0.0183099
0.0183062
0.0183094
0.0182708
0.0182708
0.0183015
0.0183015
0.0183017
0.0183436
0.0183106
0.0182966
0.0183076
0.018308
0.0183076
0.0183442
0.0182974
0.0183102
0.0183041
0.0183041
0.0183081
0.0183072
0.018308
0.0183077
0.0183365
0.0183267
0.0183072
0.018304
0.0183067
0.0183082
0.018307
0.0183064
0.0183066
0.0183323
0.0182929
0.0183097
0.0182985
0.0182972
0.0183326
0.0183042
0.0183046
0.0182894
0.0182781
0.0182781
0.0182912
0.0183107
0.0183042
0.0183331
0.018279
0.0182719
0.0182719
0.0183447
0.0182841
0.018282
0.0183047
0.018292
0.0183025
0.0183001
0.0182971
0.018296
0.0183017
0.0183435
0.0183036
0.0182988
0.0182967
0.0183391
0.0182835
0.0183348
0.0182968
0.0183
0.0183133
0.0183028
0.0183019
0.0182889
0.0183012
0.018289
0.018304
0.0182966
0.0182827
0.0182825
0.018333
0.0182995
0.0183464
0.0183456
0.0183474
0.0182975
0.0183441
0.0183483
0.0183082
0.0183469
0.0182871
0.0182871
0.0183462
0.0183064
0.0183364
0.0183467
0.0183372
0.0183469
0.0183372
0.0182838
0.0183346
0.0183439
0.0183463
0.0183021
0.018295
0.0183379
0.0183019
0.0183479
0.0183005
0.0183061
0.0183472
0.0183386
0.0183478
0.0183447
0.0183048
0.0182863
0.0182727
0.0182733
0.0182997
0.0182728
0.0182728
0.018273
0.0182766
0.0183337
0.0182831
0.0182909
0.0182862
0.0183002
0.0182757
0.0182757
0.0182854
0.0183452
0.0183065
0.0183447
0.0183355
0.0183351
0.0182795
0.0182797
0.01828
0.0182799
0.0182796
0.0182735
0.0182799
0.0182756
0.0182726
0.0182794
0.0182794
0.0182724
0.0182733
0.0182755
0.0182802
SCALARS rr_(T) float
LOOKUP_TABLE default
0.0811715
0.0811843
0.0811826
0.0811835
0.0811954
0.0811826
0.0811713
0.0811841
0.0811809
0.0811844
0.0811701
0.0811841
0.0811835
0.0811853
0.0811917
0.0811825
0.0811866
0.0811835
0.0811801
0.081182
0.0811819
0.0812046
0.0811818
0.0811821
0.081182
0.0811841
0.0811727
0.0811833
0.0811762
0.0812008
0.0811833
0.0811762
0.0811727
0.0811983
0.0811993
0.0811983
0.0812006
0.0811989
0.0811834
0.0811727
0.0811762
0.0812007
0.0812007
0.0811832
0.0811733
0.0811764
0.0811805
0.0811811
0.0811829
0.0811753
0.0811759
0.0811776
0.0811947
0.0811776
0.0811943
0.0811742
0.0811994
0.0811776
0.0811994
0.0811821
0.0811866
0.0811898
0.0811741
0.0811896
0.0811899
0.0811872
0.0811867
0.0811842
0.0811818
0.0811846
0.0811946
0.0811946
0.0811761
0.0811883
0.0811823
0.0811718
0.0811921
0.0811871
0.0811842
0.0811778
0.0811754
0.0811965
0.0811883
0.0811748
0.0811767
0.0811736
0.0811832
0.0811878
0.0811733
0.0812027
0.0811776
0.081203
0.0811926
0.0811871
0.0811777
0.0811756
0.0811755
0.0811842
0.0811921
0.0811832
0.0811793
0.081177
0.0811749
0.0811834
0.0811846
0.0811839
0.0811891
0.081183
0.0811748
0.0811851
0.0811822
0.0811737
0.0811744
0.0811835
0.0811837
0.0811777
0.0811996
0.0811754
0.0811996
0.0811778
0.0811798
0.0811911
0.0811843
0.0811872
0.0811855
0.081192
0.0811986
0.0811842
0.0811755
0.0811778
0.0811946
0.0811841
0.0811881
0.0811842
0.081177
0.0811995
0.0811749
0.081184
0.0811884
0.0811994
0.0811771
0.0811855
0.0811802
0.0811849
0.0811754
0.0811839
0.0811854
0.0811832
0.0811823
0.0811789
0.0811815
0.0811844
0.0811762
0.0811834
0.0811849
0.0811841
0.0811858
0.0811773
0.0811773
0.0811831
0.0811811
0.0811763
0.0811736
0.0811758
0.0811773
0.0811839
0.0811773
0.0811772
0.0811762
0.0811773
0.0811927
0.0811776
0.0811758
0.081186
0.0811776
0.081189
0.0811927
0.0811847
0.0811947
0.0811849
0.0811762
0.0811841
0.0811841
0.0811772
0.0811878
0.0811756
0.0811872
0.0811889
0.0811929
0.0811842
0.0811879
0.0811755
0.0811777
0.0811762
0.0811841
0.0811832
0.0811834
0.081188
0.0811843
0.081187
0.0811844
0.0811803
0.0811779
0.0811879
0.0811763
0.0811882
0.0811872
0.0811769
0.0811908
0.0811845
0.081191
0.081186
0.0811844
0.0811884
0.0811789
0.0811864
0.081178
0.0811889
0.0811854
0.0811853
0.0811848
0.0811849
0.0811849
0.0811849
0.0811853
0.0811913
0.0811912
0.0811914
0.0811914
0.0811946
0.0811946
0.0811787
0.0811852
0.0811831
0.0811809
0.0811917
0.0811919
0.0811833
0.0811779
0.0811829
0.0811842
0.0811789
0.081191
0.0811788
0.0811885
0.0811827
0.081179
0.0811781
0.0811754
0.0811752
0.0811882
0.0811753
0.0811828
0.081178
0.0811804
0.0811829
0.0811852
0.0812
0.0811851
0.0811753
0.0811781
0.0811831
0.0811846
0.0811778
0.0811852
0.0811803
0.0812
0.0811781
0.0811855
0.0811871
0.0811833
0.0811917
0.0811878
0.0811944
0.0811831
0.0811742
0.0811736
0.0811936
0.0811816
0.0811846
0.0811788
0.081191
0.0811859
0.0811781
0.0811869
0.0811793
0.0811855
0.0811792
0.081178
0.0812025
0.081193
0.0811919
0.0811918
0.0811851
0.0811794
0.0811979
0.0811868
0.0811814
0.0811794
0.0811788
0.0811934
0.0811789
0.0811927
0.081179
0.0811733
0.0811794
0.0811754
0.0811892
0.0811789
0.0812024
0.081179
0.0811883
0.0811787
0.0811876
0.081179
0.0811826
0.0811741
0.0811822
0.0811788
0.0811934
0.0811788
0.0811818
0.0811878
0.0811845
0.0811791
0.0811793
0.0811803
0.0811891
0.0811793
0.0811843
0.0811833
0.0811943
0.0811793
0.0811801
0.0811818
0.0811803
0.0811791
0.0811803
0.0811906
0.0811842
0.0811802
0.0811789
0.0811854
0.0811854
0.0811793
0.0811943
0.0811698
0.0811835
0.0811753
0.081182
0.0811605
0.0811605
0.0811606
0.0811606
0.0811605
0.0811606
0.0811607
0.0811892
0.081197
0.0811836
0.0811816
0.0811803
0.0811803
0.0811853
0.0811803
0.0811801
0.0811971
0.0811803
0.0811908
0.0811777
0.0811907
0.0811829
0.0811815
0.0811802
0.0811937
0.0811833
0.0811817
0.0811834
0.0811817
0.0811799
0.0811778
0.0811816
0.0811831
0.0811908
0.0811806
0.0811797
0.0811803
0.0811813
0.081183
0.0811855
0.0811803
0.0811854
0.0811825
0.0811814
0.0811847
0.0811825
0.0811801
0.0811874
0.0811817
0.0811967
0.0811733
0.0811891
0.0811906
0.0811831
0.0811816
0.0811868
0.08117
0.0811829
0.0811816
0.0811742
0.0812022
0.0812026
0.0811833
0.0811802
0.0811819
0.0811805
0.0812065
0.0812059
0.0811837
0.0811846
0.0811848
0.0811702
0.0811799
0.0811879
0.081181
0.0811808
0.0811813
0.0811696
0.0811878
0.0811801
0.0811832
0.0811832
0.0811808
0.0811815
0.0811808
0.0811811
0.0811727
0.0811754
0.0811815
0.0811834
0.0811815
0.0811807
0.0811814
0.0811818
0.0811816
0.0811733
0.0811917
0.0811804
0.0811867
0.0811878
0.0811733
0.0811824
0.0811822
0.0811948
0.0812019
0.0812018
0.0811932
0.0811798
0.0811833
0.0811731
0.0812014
0.0812049
0.0812048
0.0811694
0.0811989
0.0811994
0.0811829
0.0811923
0.0811832
0.0811846
0.0811876
0.081189
0.0811848
0.0811699
0.0811829
0.0811865
0.0811879
0.0811717
0.0811985
0.0811742
0.0811878
0.0811851
0.0811791
0.0811829
0.0811844
0.0811951
0.0811844
0.081195
0.0811825
0.0811883
0.0811992
0.0811995
0.0811732
0.0811855
0.0811715
0.081172
0.0811709
0.0811876
0.08117
0.0811705
0.0811807
0.0811712
0.0811969
0.0811968
0.0811716
0.0811815
0.0811729
0.0811716
0.0811725
0.0811715
0.0811725
0.0811991
0.0811727
0.08117
0.0811714
0.0811843
0.0811896
0.0811722
0.0811846
0.0811705
0.0811853
0.0811817
0.0811713
0.081172
0.081171
0.0811694
0.0811826
0.081197
0.081205
0.081205
0.0811859
0.0812053
0.0812053
0.081205
0.0812022
0.081173
0.0811989
0.0811935
0.0811977
0.0811855
0.0812025
0.0812025
0.081198
0.0811692
0.0811814
0.0811699
0.0811741
0.0811738
0.0812007
0.0812005
0.0812006
0.0812007
0.0812006
0.0812048
0.0812012
0.0812034
0.0812053
0.0812012
0.0812011
0.0812048
0.0812045
0.0812036
0.0812009
SCALARS rr_tsim float
LOOKUP_TABLE default
3.66667
3.66667
3.66667
3.66667
3.66667
3.66667
3.66667
3.66667
3.66667
3.66667
3.66667
3.66667
3.66667
3.66667
3.66667
3.66667
3.66667
3.66667
3.66667
3.66667
3.66667
3.66667
3.66667
3.66667
3.66667
3.66667
3.66667
3.66667
3.66667
3.66667
3.66667
3.66667
3.66667
3.66667
3.66667
3.66667
3.66667
3.66667
3.66667
3.66667
3.66667
3.66667
3.66667
3.66667
3.66667
3.66667
3.66667
3.66667
3.66667
3.66667
3.66667
3.66667
3.66667
3.66667
3.66667
3.66667
3.66667
3.66667
3.66667
3.66667
3.66667
3.66667
3.66667
3.66667
3.66667
3.66667
3.66667
3.66667
3.66667
3.66667
3.66667
3.66667
3.66667
3.66667
3.66667
3.66667
3.66667
3.66667
3.66667
3.66667
3.66667
3.66667
3.66667
3.66667
3.66667
3.66667
3.66667
3.66667
3.66667
3.66667
3.66667
3.66667
3.66667
3.66667
3.66667
3.66667
3.66667
3.66667
3.66667
3.66667
3.66667
3.66667
3.66667
3.66667
3.66667
3.66667
3.66667
3.66667
3.66667
3.66667
3.66667
3.66667
3.66667
3.66667
3.66667
3.66667
3.66667
3.66667
3.66667
3.66667
3.66667
3.66667
3.66667
3.66667
3.66667
3.66667
3.66667
3.66667
3.66667
3.66667
3.66667
3.66667
3.66667
3.66667
3.66667
3.66667
3.66667
3.66667
3.66667
3.66667
3.66667
3.66667
3.66667
3.66667
3.66667
3.66667
3.66667
3.66667
3.66667
3.66667
3.66667
3.66667
3.66667
3.66667
3.66667
3.66667
3.66667
3.66667
3.66667
3.66667
3.66667
3.66667
3.66667
3.66667
3.66667
3.66667
3.66667
3.66667
3.66667
3.66667
3.66667
3.66667
3.66667
3.66667
3.66667
3.66667
3.66667
3.66667
3.66667
3.66667
3.66667
3.66667
3.66667
3.66667
3.66667
3.66667
3.66667
3.66667
3.66667
3.66667
3.66667
3.66667
3.66667
3.66667
3.66667
3.66667
3.66667
3.66667
3.66667
3.66667
3.66667
3.66667
3.66667
3.66667
3.66667
3.66667
3.66667
3.66667
3.66667
3.66667
3.66667
3.66667
3.66667
3.66667
3.66667
3.66667
3.66667
3.66667
3.66667
3.66667
3.66667
3.66667
3.66667
3.66667
3.66667
3.66667
3.66667
3.66667
3.66667
3.66667
3.66667
3.66667
3.66667
3.66667
3.66667
3.66667
3.66667
3.66667
3.66667
3.66667
3.66667
3.66667
3.66667
3.66667
3.66667
3.66667
3.66667
3.66667
3.66667
3.66667
3.66667
3.66667
3.66667
3.66667
3.66667
3.66667
3.66667
3.66667
3.66667
3.66667
3.66667
3.66667
3.66667
3.66667
3.66667
3.66667
3.66667
3.66667
3.66667
3.66667
3.66667
3.66667
3.66667
3.66667
3.66667
3.66667
3.66667
3.66667
3.66667
3.66667
3.66667
3.66667
3.66667
3.66667
3.66667
3.66667
3.66667
3.66667
3.66667
3.66667
3.66667
3.66667
3.66667
3.66667
3.66667
3.66667
3.66667
3.66667
3.66667
3.66667
3.66667
3.66667
3.66667
3.66667
3.66667
3.66667
3.66667
3.66667
3.66667
3.66667
3.66667
3.66667
3.66667
3.66667
3.66667
3.66667
3.66667
3.66667
3.66667
3.66667
3.66667
3.66667
3.66667
3.66667
3.66667
3.66667
3.66667
3.66667
3.66667
3.66667
3.66667
3.66667
3.66667
3.66667
3.66667
3.66667
3.66667
3.66667
3.66667
3.66667
3.66667
3.66667
3.66667
3.66667
3.66667
3.66667
3.66667
3.66667
3.66667
3.66667
3.66667
3.66667
3.66667
3.66667
3.66667
3.66667
3.66667
3.66667
3.66667
3.66667
3.66667
3.66667
3.66667
3.66667
3.66667
3.66667
3.66667
3.66667
3.66667
3.66667
3.66667
3.66667
3.66667
3.66667
3.66667
3.66667
3.66667
3.66667
3.66667
3.66667
3.66667
3.66667
3.66667
3.66667
3.66667
3.66667
3.66667
3.66667
3.66667
3.66667
3.66667
3.66667
3.66667
3.66667
3.66667
3.66667
3.66667
3.66667
3.66667
3.66667
3.66667
3.66667
3.66667
3.66667
3.66667
3.66667
3.66667
3.66667
3.66667
3.66667
3.66667
3.66667
3.66667
3.66667
3.66667
3.66667
3.66667
3.66667
3.66667
3.66667
3.66667
3.66667
3.66667
3.66667
3.66667
3.66667
3.66667
3.66667
3.66667
3.66667
3.66667
3.66667
3.66667
3.66667
3.66667
3.66667
3.66667
3.66667
3.66667
3.66667
3.66667
3.66667
3.66667
3.66667
3.66667
3.66667
3.66667
3.66667
3.66667
3.66667
3.66667
3.66667
3.66667
3.66667
3.66667
3.66667
3.66667
3.66667
3.66667
3.66667
3.66667
3.66667
3.66667
3.66667
3.66667
3.66667
3.66667
3.66667
3.66667
3.66667
3.66667
3.66667
3.66667
3.66667
3.66667
3.66667
3.66667
3.66667
3.66667
3.66667
3.66667
3.66667
3.66667
3.66667
3.66667
3.66667
3.66667
3.66667
3.66667
3.66667
3.66667
3.66667
3.66667
3.66667
3.66667
3.66667
3.66667
3.66667
3.66667
3.66667
3.66667
3.66667
3.66667
3.66667
3.66667
3.66667
3.66667
3.66667
3.66667
3.66667
3.66667
3.66667
3.66667
3.66667
3.66667
3.66667
3.66667
3.66667
3.66667
3.66667
3.66667
3.66667
3.66667
3.66667
3.66667
3.66667
3.66667
3.66667
3.66667
3.66667
3.66667
3.66667
3.66667
3.66667
3.66667
3.66667
3.66667
3.66667
3.66667
3.66667
3.66667
3.66667
3.66667
3.66667
3.66667
3.66667
3.66667
3.66667
3.66667
3.66667
3.66667
3.66667
3.66667
3.66667
3.66667
3.66667
3.66667
3.66667
3.66667
3.66667
3.66667
3.66667
3.66667
SCALARS rr_Vext float
LOOKUP_TABLE default
1.8132e-10
4.48913e-10
3.5589e-10
4.67893e-10
2.50357e-10
3.7766e-10
1.79237e-10
4.64875e-10
3.9494e-10
5.0433e-10
1.6535e-10
4.66294e-10
4.09639e-10
4.34808e-10
5.15871e-10
4.24674e-10
3.68866e-10
4.13995e-10
3.65381e-10
3.60369e-10
4.04933e-10
7.64619e-11
4.1489e-10
3.82847e-10
3.46954e-10
4.03285e-10
1.54969e-10
3.52676e-10
2.67322e-10
3.3905e-10
3.61805e-10
2.76391e-10
1.71475e-10
2.52759e-10
2.49105e-10
2.5331e-10
3.29934e-10
2.49349e-10
3.61376e-10
1.92786e-10
2.24645e-10
2.9088e-10
2.9089e-10
3.97091e-10
2.16823e-10
2.44036e-10
3.44469e-10
3.50034e-10
3.29932e-10
3.03662e-10
3.12749e-10
2.45147e-10
4.01303e-10
3.15091e-10
3.69217e-10
1.57708e-10
2.66026e-10
3.174e-10
2.65998e-10
3.93012e-10
4.70704e-10
4.64638e-10
1.53233e-10
3.27477e-10
4.45089e-10
4.17173e-10
4.55436e-10
3.91724e-10
3.5783e-10
5.15315e-10
4.35322e-10
4.3056e-10
2.7756e-10
3.38579e-10
3.53814e-10
1.76381e-10
3.72482e-10
4.13278e-10
3.94987e-10
2.71032e-10
2.40414e-10
2.83351e-10
5.27273e-10
2.40175e-10
3.27647e-10
1.19257e-10
4.07397e-10
3.44442e-10
2.2964e-10
3.74595e-11
2.72993e-10
4.07354e-11
3.16193e-10
2.99169e-10
2.58564e-10
2.32906e-10
2.20838e-10
4.42724e-10
3.72717e-10
3.51696e-10
2.93419e-10
2.77672e-10
2.30406e-10
4.18384e-10
4.2594e-10
3.83653e-10
3.40458e-10
3.40694e-10
2.44552e-10
5.12277e-10
3.25883e-10
1.6399e-10
2.19989e-10
4.57669e-10
4.29519e-10
3.0437e-10
3.08454e-10
1.8345e-10
3.19852e-10
3.03254e-10
2.66878e-10
5.02393e-10
5.11571e-10
4.41825e-10
4.84296e-10
3.84753e-10
2.20691e-10
4.77987e-10
2.00015e-10
2.62182e-10
2.27381e-10
4.56182e-10
4.48803e-10
4.4804e-10
2.88835e-10
1.8743e-10
1.9058e-10
3.2729e-10
4.0427e-10
1.87352e-10
2.41456e-10
3.87108e-10
2.87852e-10
4.72537e-10
2.23205e-10
3.85011e-10
3.49569e-10
3.35978e-10
2.14694e-10
2.69441e-10
3.04169e-10
4.4042e-10
2.47942e-10
3.97229e-10
4.61773e-10
4.69024e-10
3.07709e-10
2.48919e-10
2.47568e-10
4.00953e-10
3.3371e-10
2.46033e-10
1.60029e-10
2.39624e-10
2.40381e-10
4.30755e-10
2.52258e-10
2.55009e-10
2.74526e-10
2.45851e-10
3.86142e-10
2.58089e-10
2.25983e-10
2.97571e-10
2.72711e-10
3.40138e-10
3.81919e-10
3.60966e-10
3.13808e-10
3.60677e-10
2.66476e-10
4.18051e-10
4.48642e-10
2.41528e-10
4.42085e-10
2.3936e-10
4.36582e-10
4.02537e-10
3.78767e-10
3.79237e-10
4.46009e-10
2.0071e-10
2.6683e-10
2.45933e-10
4.47201e-10
4.3882e-10
4.07012e-10
4.47675e-10
4.5274e-10
3.81681e-10
4.66351e-10
3.07588e-10
2.74007e-10
5.1248e-10
2.8545e-10
4.65724e-10
3.69783e-10
2.26575e-10
2.86196e-10
4.61508e-10
3.88836e-10
3.50142e-10
4.49847e-10
4.45036e-10
2.7875e-10
2.84086e-10
2.67442e-10
3.95256e-10
4.33214e-10
4.97856e-10
4.77864e-10
5.20125e-10
4.71336e-10
5.15044e-10
4.31852e-10
4.56968e-10
4.60415e-10
4.34132e-10
4.56123e-10
4.22692e-10
4.16413e-10
2.82302e-10
3.89227e-10
4.54086e-10
3.11987e-10
4.70031e-10
4.31933e-10
4.92432e-10
2.88138e-10
4.68061e-10
4.48468e-10
2.84389e-10
4.06706e-10
2.82359e-10
4.55013e-10
4.11101e-10
2.96139e-10
2.77573e-10
2.35478e-10
2.7101e-10
4.55549e-10
1.97439e-10
3.46863e-10
2.76423e-10
3.13774e-10
4.68456e-10
4.55333e-10
1.47702e-10
4.56888e-10
2.36357e-10
2.61666e-10
4.66056e-10
3.78852e-10
2.64486e-10
5.21935e-10
2.91111e-10
1.47693e-10
2.67623e-10
4.06206e-10
5.08675e-10
3.82514e-10
4.5752e-10
4.24949e-10
2.26493e-10
2.16632e-10
1.75927e-10
2.0137e-10
3.07971e-10
2.28975e-10
3.71809e-10
2.27436e-10
4.06185e-10
2.87485e-10
2.68e-10
3.23798e-10
2.93405e-10
3.98335e-10
2.81375e-10
2.87488e-10
1.36287e-10
3.03412e-10
4.37585e-10
4.37833e-10
3.9134e-10
2.81004e-10
1.92251e-10
5.45613e-10
3.60334e-10
2.98198e-10
2.74184e-10
2.84825e-10
2.82619e-10
3.58656e-10
2.77981e-10
1.92004e-10
2.74682e-10
1.83438e-10
3.50893e-10
2.79467e-10
1.27014e-10
2.63617e-10
3.2118e-10
2.79207e-10
4.43453e-10
2.90595e-10
3.81296e-10
1.38277e-10
3.05526e-10
2.86902e-10
2.61486e-10
2.69213e-10
3.21853e-10
3.08571e-10
3.20895e-10
2.66459e-10
2.71055e-10
2.93739e-10
4.03401e-10
2.75985e-10
3.98838e-10
3.58626e-10
2.9064e-10
2.86359e-10
2.90004e-10
3.23232e-10
2.89793e-10
2.7001e-10
3.08402e-10
3.32861e-10
3.87687e-10
2.9005e-10
2.86242e-10
4.24943e-10
4.19051e-10
2.76102e-10
2.90679e-10
1.17342e-10
3.4191e-10
2.27605e-10
3.19541e-10
1.26288e-10
1.31106e-10
1.17218e-10
1.19114e-10
1.26395e-10
1.33059e-10
1.37168e-10
3.65636e-10
2.75051e-10
2.6954e-10
3.05403e-10
2.96084e-10
2.92287e-10
3.14562e-10
2.85876e-10
2.92267e-10
3.10651e-10
2.91194e-10
3.68599e-10
2.60967e-10
3.7864e-10
2.88974e-10
2.7746e-10
2.91476e-10
3.22594e-10
3.28846e-10
3.04565e-10
3.50891e-10
3.2589e-10
3.00266e-10
2.13895e-10
3.03729e-10
2.98728e-10
3.28112e-10
3.05181e-10
2.88401e-10
2.74921e-10
3.03933e-10
3.18949e-10
4.35956e-10
2.83188e-10
4.23802e-10
4.38464e-10
2.98736e-10
4.22667e-10
3.22331e-10
2.55572e-10
3.56619e-10
3.07184e-10
2.29378e-10
1.85217e-10
3.53172e-10
3.76948e-10
3.13292e-10
2.5943e-10
3.16859e-10
1.38172e-10
3.09725e-10
2.89387e-10
1.40531e-10
5.97124e-11
6.53357e-11
2.68531e-10
2.83177e-10
3.31212e-10
3.16454e-10
3.11106e-11
3.25075e-11
3.18032e-10
3.21392e-10
3.04101e-10
1.037e-10
2.64618e-10
3.15747e-10
3.15506e-10
2.71959e-10
2.40179e-10
1.07839e-10
4.64239e-10
2.84827e-10
3.52002e-10
3.57511e-10
2.55054e-10
3.23305e-10
2.49369e-10
2.75362e-10
1.29704e-10
1.99318e-10
3.23666e-10
3.27602e-10
2.80203e-10
2.93438e-10
3.03526e-10
3.20365e-10
3.06276e-10
1.43919e-10
2.75636e-10
3.01227e-10
2.90743e-10
4.37273e-10
1.43816e-10
2.33627e-10
2.40464e-10
2.34396e-10
1.55531e-10
1.55535e-10
2.67558e-10
2.08421e-10
3.01737e-10
1.53812e-10
1.85415e-10
6.13772e-11
6.13747e-11
1.12284e-10
1.99519e-10
1.34893e-10
2.56885e-10
2.84389e-10
2.9767e-10
3.36841e-10
3.07266e-10
2.85089e-10
2.22113e-10
1.27141e-10
2.77923e-10
2.9044e-10
2.82298e-10
1.44093e-10
1.4756e-10
1.04601e-10
2.81808e-10
2.85835e-10
2.24092e-10
2.58131e-10
2.38601e-10
2.2367e-10
2.92774e-10
2.23636e-10
2.57087e-10
2.51262e-10
1.57955e-10
1.95127e-10
1.65261e-10
3.10497e-10
1.12683e-10
1.18893e-10
1.15916e-10
2.94389e-10
1.07665e-10
1.04712e-10
2.00831e-10
9.79121e-11
2.4302e-10
2.43374e-10
1.00639e-10
2.55333e-10
1.13692e-10
1.10966e-10
1.27121e-10
1.05837e-10
1.05695e-10
1.74105e-10
1.26205e-10
1.12748e-10
1.06255e-10
2.35701e-10
2.72521e-10
1.18713e-10
2.60195e-10
9.60575e-11
2.64663e-10
2.08081e-10
1.00531e-10
8.64129e-11
9.48506e-11
1.26431e-10
2.25451e-10
1.92072e-10
8.23899e-11
9.13493e-11
2.53735e-10
7.75365e-11
7.75332e-11
8.78158e-11
9.79019e-11
9.95569e-11
1.27261e-10
2.07423e-10
1.93686e-10
2.53648e-10
7.74762e-11
7.74729e-11
2.29123e-10
8.43275e-11
1.78636e-10
7.65016e-11
7.83207e-11
1.03243e-10
1.98477e-10
2.05473e-10
2.18777e-10
2.0054e-10
1.98462e-10
4.38646e-11
3.20191e-10
5.57192e-11
5.43071e-11
2.58854e-10
2.57085e-10
5.62984e-11
3.90324e-11
5.47704e-11
2.38419e-10
SCALARS rr_Vli float
LOOKUP_TABLE default
3.96459e-10
9.03147e-10
7.2129e-10
9.42748e-10
4.92906e-10
7.65545e-10
3.92007e-10
9.37517e-10
8.06148e-10
1.01495e-09
3.59807e-10
9.40389e-10
8.27568e-10
8.74007e-10
1.02393e-09
8.59592e-10
7.39268e-10
8.3578e-10
7.48689e-10
7.3194e-10
8.23354e-10
1.46161e-10
8.43609e-10
7.77506e-10
7.04779e-10
8.13007e-10
3.33319e-10
7.14144e-10
5.60543e-10
6.59661e-10
7.31107e-10
5.7946e-10
3.6924e-10
4.94291e-10
4.85803e-10
4.95405e-10
6.4132e-10
4.86795e-10
7.30364e-10
4.15028e-10
4.71156e-10
5.65209e-10
5.65269e-10
8.02385e-10
4.63278e-10
5.11087e-10
7.04559e-10
7.13465e-10
6.68576e-10
6.40071e-10
6.5724e-10
5.09645e-10
7.91128e-10
6.54871e-10
7.28358e-10
3.36061e-10
5.18699e-10
6.59672e-10
5.18682e-10
7.97922e-10
9.43703e-10
9.24863e-10
3.27809e-10
6.521e-10
8.8585e-10
8.36051e-10
9.12843e-10
7.89644e-10
7.27177e-10
1.03653e-09
8.5834e-10
8.48987e-10
5.82143e-10
6.76733e-10
7.16856e-10
3.8115e-10
7.38021e-10
8.28297e-10
7.96291e-10
5.62408e-10
5.07568e-10
5.56337e-10
1.05332e-09
5.08278e-10
6.85302e-10
2.54554e-10
8.24945e-10
6.89367e-10
4.90614e-10
7.19268e-11
5.67457e-10
7.82281e-11
6.26233e-10
6.00157e-10
5.3704e-10
4.89846e-10
4.66166e-10
8.91066e-10
7.38569e-10
7.11034e-10
6.04134e-10
5.79603e-10
4.87698e-10
8.43973e-10
8.57939e-10
7.72586e-10
6.79426e-10
6.8927e-10
5.17704e-10
1.02947e-09
6.61575e-10
3.49444e-10
4.67011e-10
9.23671e-10
8.65293e-10
6.32411e-10
6.01487e-10
3.87369e-10
6.23871e-10
6.29911e-10
5.47882e-10
9.98129e-10
1.0293e-09
8.84124e-10
9.72693e-10
7.63111e-10
4.31662e-10
9.62077e-10
4.22207e-10
5.44577e-10
4.48366e-10
9.18328e-10
8.96953e-10
9.01673e-10
6.02826e-10
3.65461e-10
4.0414e-10
6.60824e-10
8.0759e-10
3.65338e-10
5.03476e-10
7.78804e-10
5.90157e-10
9.50902e-10
4.71481e-10
7.75937e-10
7.04206e-10
6.80847e-10
4.35178e-10
5.56193e-10
6.20154e-10
8.8616e-10
5.19921e-10
8.02367e-10
9.29287e-10
9.44105e-10
6.17749e-10
5.18593e-10
5.15649e-10
8.10066e-10
6.80104e-10
5.15599e-10
3.41205e-10
5.03581e-10
5.00866e-10
8.67371e-10
5.2558e-10
5.31377e-10
5.75629e-10
5.12173e-10
7.64624e-10
5.36406e-10
4.74961e-10
5.96924e-10
5.66687e-10
6.7898e-10
7.5631e-10
7.28039e-10
6.18391e-10
7.26253e-10
5.58695e-10
8.41496e-10
9.03154e-10
5.0356e-10
8.84629e-10
5.03351e-10
8.73655e-10
8.03141e-10
7.49774e-10
7.63262e-10
8.92386e-10
4.23298e-10
5.545e-10
5.15631e-10
9.0006e-10
8.86157e-10
8.21578e-10
8.94747e-10
9.11045e-10
7.6514e-10
9.3826e-10
6.29583e-10
5.68219e-10
1.02436e-09
5.98401e-10
9.30388e-10
7.41151e-10
4.73183e-10
5.69095e-10
9.28419e-10
7.72586e-10
7.03487e-10
9.06286e-10
8.88981e-10
5.75251e-10
5.70375e-10
5.54128e-10
7.88642e-10
8.70231e-10
1.00012e-09
9.60855e-10
1.04541e-09
9.47293e-10
1.03521e-09
8.68567e-10
9.0753e-10
9.14602e-10
8.62186e-10
9.05766e-10
8.33769e-10
8.21358e-10
5.82926e-10
7.82664e-10
9.15758e-10
6.36143e-10
9.32949e-10
8.57051e-10
9.92862e-10
5.97398e-10
9.44215e-10
9.02605e-10
5.86657e-10
8.08654e-10
5.82696e-10
9.08695e-10
8.29591e-10
6.10798e-10
5.74906e-10
4.97252e-10
5.71999e-10
9.09942e-10
4.1757e-10
7.01369e-10
5.72771e-10
6.4262e-10
9.45103e-10
9.14814e-10
2.86866e-10
9.1814e-10
5.00144e-10
5.42188e-10
9.39948e-10
7.64076e-10
5.48578e-10
1.0487e-09
5.9659e-10
2.86866e-10
5.54428e-10
8.1584e-10
1.01838e-09
7.72109e-10
9.08299e-10
8.50676e-10
4.46514e-10
4.37682e-10
3.74397e-10
4.29842e-10
6.08568e-10
4.65488e-10
7.4987e-10
4.69321e-10
8.07522e-10
5.76719e-10
5.55268e-10
6.49436e-10
6.03912e-10
8.02145e-10
5.79099e-10
5.95943e-10
2.6296e-10
6.00329e-10
8.6835e-10
8.6897e-10
7.87077e-10
5.77983e-10
3.76311e-10
1.09266e-09
7.3419e-10
6.13173e-10
5.6529e-10
5.62851e-10
5.83045e-10
7.10327e-10
5.72598e-10
4.10157e-10
5.65089e-10
3.8765e-10
7.00002e-10
5.76521e-10
2.45094e-10
5.43003e-10
6.42001e-10
5.76542e-10
8.87086e-10
5.98716e-10
7.72052e-10
2.96196e-10
6.19706e-10
5.91982e-10
5.16942e-10
5.55742e-10
6.55781e-10
6.17207e-10
6.45442e-10
5.48935e-10
5.5757e-10
6.02111e-10
8.04843e-10
5.67792e-10
8.04375e-10
7.26128e-10
5.73044e-10
5.89046e-10
5.94692e-10
6.57743e-10
5.9371e-10
5.55918e-10
6.31717e-10
6.62427e-10
7.82053e-10
5.94566e-10
5.9073e-10
8.55145e-10
8.43168e-10
5.68222e-10
5.73167e-10
2.56069e-10
6.92492e-10
4.80576e-10
6.50005e-10
2.87595e-10
2.98538e-10
2.66792e-10
2.71161e-10
2.87671e-10
3.03044e-10
3.12298e-10
7.29214e-10
5.39615e-10
5.44478e-10
6.22511e-10
6.06413e-10
5.98847e-10
6.33415e-10
5.86048e-10
5.99399e-10
6.09347e-10
5.96627e-10
7.32525e-10
5.42477e-10
7.5297e-10
5.85912e-10
5.65614e-10
5.9738e-10
6.37345e-10
6.66008e-10
6.20499e-10
7.10604e-10
6.63897e-10
6.15655e-10
4.43983e-10
6.19205e-10
6.05477e-10
6.51885e-10
6.24546e-10
5.91785e-10
5.6279e-10
6.19925e-10
6.4662e-10
8.77772e-10
5.79774e-10
8.53407e-10
8.896e-10
6.09186e-10
8.52289e-10
6.53827e-10
5.23766e-10
7.13419e-10
6.2533e-10
4.50311e-10
3.95627e-10
7.04343e-10
7.50178e-10
6.35101e-10
5.27969e-10
6.35144e-10
3.01213e-10
6.27923e-10
5.89176e-10
3.00885e-10
1.15273e-10
1.26098e-10
5.43918e-10
5.80014e-10
6.73634e-10
6.47568e-10
5.9263e-11
6.19239e-11
6.41292e-10
6.47981e-10
6.13382e-10
2.26096e-10
5.42727e-10
6.30901e-10
6.43321e-10
5.54932e-10
4.89805e-10
2.35452e-10
9.29122e-10
5.8365e-10
7.1312e-10
7.24269e-10
5.20505e-10
6.58749e-10
5.08914e-10
5.61564e-10
2.79077e-10
4.21132e-10
6.59533e-10
6.63604e-10
5.70347e-10
5.99036e-10
6.18163e-10
6.51794e-10
6.23429e-10
3.07398e-10
5.46996e-10
6.16743e-10
5.82915e-10
8.74749e-10
3.07338e-10
4.73459e-10
4.87677e-10
4.62151e-10
3.00448e-10
3.00469e-10
5.29454e-10
4.27532e-10
6.1144e-10
3.28974e-10
3.58797e-10
1.17148e-10
1.17148e-10
2.4538e-10
3.89539e-10
2.62439e-10
5.20969e-10
5.63434e-10
6.01315e-10
6.77534e-10
6.1455e-10
5.68969e-10
4.47963e-10
2.7723e-10
5.62457e-10
5.82701e-10
5.64149e-10
3.11531e-10
2.87864e-10
2.24264e-10
5.63353e-10
5.74754e-10
4.61879e-10
5.21663e-10
4.81375e-10
4.40751e-10
5.89997e-10
4.40713e-10
5.2074e-10
5.02059e-10
3.07747e-10
3.79947e-10
3.5336e-10
6.23877e-10
2.46769e-10
2.59962e-10
2.54317e-10
5.89181e-10
2.34963e-10
2.30123e-10
4.09949e-10
2.1463e-10
4.77026e-10
4.77747e-10
2.20319e-10
5.19532e-10
2.44552e-10
2.43106e-10
2.73878e-10
2.31943e-10
2.27719e-10
3.39759e-10
2.70672e-10
2.45978e-10
2.32662e-10
4.75672e-10
5.42905e-10
2.56094e-10
5.25022e-10
2.10998e-10
5.32601e-10
4.23155e-10
2.2044e-10
1.86647e-10
2.08241e-10
2.76298e-10
4.57396e-10
3.76532e-10
1.57514e-10
1.74842e-10
5.09901e-10
1.48272e-10
1.48271e-10
1.68009e-10
1.88586e-10
2.13186e-10
2.48061e-10
4.10196e-10
3.79684e-10
5.10256e-10
1.4897e-10
1.48969e-10
4.4842e-10
1.84448e-10
3.63555e-10
1.67137e-10
1.68136e-10
2.21534e-10
3.84465e-10
3.98108e-10
4.24122e-10
3.88694e-10
3.84456e-10
8.39905e-11
6.20597e-10
1.07139e-10
1.03804e-10
5.01335e-10
4.97856e-10
1.07571e-10
7.47153e-11
1.05277e-10
4.62443e-10
SCALARS rr_S_ext' float
LOOKUP_TABLE default
-1.69358e-11
-3.87229e-11
-3.09162e-11
-4.04181e-11
-2.11528e-11
-3.28128e-11
-1.67454e-11
-4.01927e-11
-3.45429e-11
-4.35159e-11
-1.53732e-11
-4.03158e-11
-3.54764e-11
-3.74751e-11
-4.39264e-11
-3.68462e-11
-3.17016e-11
-3.58293e-11
-3.20754e-11
-3.13698e-11
-3.52861e-11
-6.27987e-12
-3.61539e-11
-3.33228e-11
-3.02055e-11
-3.48551e-11
-1.42493e-11
-3.0611e-11
-2.39906e-11
-2.83224e-11
-3.1341e-11
-2.48004e-11
-1.57841e-11
-2.12179e-11
-2.0856e-11
-2.12657e-11
-2.7536e-11
-2.08977e-11
-3.13089e-11
-1.77416e-11
-2.01647e-11
-2.42684e-11
-2.42709e-11
-3.43966e-11
-1.98109e-11
-2.18751e-11
-3.01872e-11
-3.05734e-11
-2.86569e-11
-2.73879e-11
-2.81263e-11
-2.18205e-11
-3.39488e-11
-2.80388e-11
-3.12544e-11
-1.43727e-11
-2.22685e-11
-2.82443e-11
-2.22677e-11
-3.41982e-11
-4.04676e-11
-3.96719e-11
-1.40173e-11
-2.79714e-11
-3.79986e-11
-3.58522e-11
-3.91447e-11
-3.38537e-11
-3.11649e-11
-4.44422e-11
-3.68328e-11
-3.64314e-11
-2.49147e-11
-2.90234e-11
-3.07266e-11
-1.62905e-11
-3.16635e-11
-3.55195e-11
-3.41385e-11
-2.40815e-11
-2.17167e-11
-2.38776e-11
-4.51751e-11
-2.17447e-11
-2.93335e-11
-1.08859e-11
-3.53604e-11
-2.95636e-11
-2.09799e-11
-3.0898e-12
-2.42959e-11
-3.36047e-12
-2.68678e-11
-2.57353e-11
-2.29944e-11
-2.0962e-11
-1.99455e-11
-3.82043e-11
-3.16868e-11
-3.04799e-11
-2.58771e-11
-2.48114e-11
-2.08641e-11
-3.61817e-11
-3.67828e-11
-3.31238e-11
-2.91407e-11
-2.9546e-11
-2.21477e-11
-4.41411e-11
-2.83546e-11
-1.49449e-11
-1.99764e-11
-3.95976e-11
-3.70979e-11
-2.70775e-11
-2.58226e-11
-1.65738e-11
-2.67833e-11
-2.69708e-11
-2.34705e-11
-4.28178e-11
-4.41316e-11
-3.7916e-11
-4.17074e-11
-3.27383e-11
-1.85295e-11
-4.12488e-11
-1.80646e-11
-2.33171e-11
-1.924e-11
-3.93727e-11
-3.8468e-11
-3.86591e-11
-2.58057e-11
-1.56897e-11
-1.72881e-11
-2.83291e-11
-3.46361e-11
-1.56844e-11
-2.15536e-11
-3.33918e-11
-2.5283e-11
-4.07701e-11
-2.01723e-11
-3.32663e-11
-3.01917e-11
-2.91829e-11
-1.86527e-11
-2.38209e-11
-2.65745e-11
-3.79943e-11
-2.22519e-11
-3.43963e-11
-3.98433e-11
-4.0478e-11
-2.64888e-11
-2.22016e-11
-2.20758e-11
-3.4726e-11
-2.9144e-11
-2.20675e-11
-1.45922e-11
-2.15505e-11
-2.14426e-11
-3.71877e-11
-2.25007e-11
-2.27488e-11
-2.46362e-11
-2.19268e-11
-3.28055e-11
-2.29666e-11
-2.03256e-11
-2.55967e-11
-2.42633e-11
-2.91212e-11
-3.24487e-11
-3.12119e-11
-2.65369e-11
-3.11374e-11
-2.39116e-11
-3.60789e-11
-3.87223e-11
-2.15573e-11
-3.79378e-11
-2.154e-11
-3.7467e-11
-3.44473e-11
-3.21689e-11
-3.27248e-11
-3.82706e-11
-1.81121e-11
-2.37414e-11
-2.20685e-11
-3.85898e-11
-3.79885e-11
-3.52207e-11
-3.83734e-11
-3.9061e-11
-3.28109e-11
-4.02282e-11
-2.6974e-11
-2.4331e-11
-4.39319e-11
-2.56112e-11
-3.99027e-11
-3.17824e-11
-2.02554e-11
-2.44123e-11
-3.98065e-11
-3.31425e-11
-3.01643e-11
-3.88553e-11
-3.81269e-11
-2.46374e-11
-2.44574e-11
-2.37286e-11
-3.38254e-11
-3.73138e-11
-4.28829e-11
-4.11978e-11
-4.4824e-11
-4.06172e-11
-4.43869e-11
-3.72408e-11
-3.89319e-11
-3.92348e-11
-3.69866e-11
-3.88563e-11
-3.57778e-11
-3.52453e-11
-2.49654e-11
-3.35579e-11
-3.92593e-11
-2.72596e-11
-4.00233e-11
-3.67678e-11
-4.25652e-11
-2.55807e-11
-4.04788e-11
-3.86991e-11
-2.51263e-11
-3.46887e-11
-2.49563e-11
-3.89729e-11
-3.55643e-11
-2.61605e-11
-2.46187e-11
-2.12751e-11
-2.44736e-11
-3.9026e-11
-1.78647e-11
-3.00653e-11
-2.45268e-11
-2.75318e-11
-4.05167e-11
-3.92251e-11
-1.23174e-11
-3.93674e-11
-2.1397e-11
-2.32172e-11
-4.02962e-11
-3.27569e-11
-2.34898e-11
-4.49657e-11
-2.55591e-11
-1.23174e-11
-2.37415e-11
-3.49818e-11
-4.36728e-11
-3.31e-11
-3.89654e-11
-3.64811e-11
-1.91608e-11
-1.87626e-11
-1.60131e-11
-1.8382e-11
-2.61124e-11
-1.99494e-11
-3.21479e-11
-2.01007e-11
-3.46403e-11
-2.47303e-11
-2.37774e-11
-2.78487e-11
-2.58679e-11
-3.43912e-11
-2.48052e-11
-2.55186e-11
-1.1294e-11
-2.57574e-11
-3.72523e-11
-3.72786e-11
-3.37469e-11
-2.47581e-11
-1.61529e-11
-4.68577e-11
-3.1462e-11
-2.62658e-11
-2.42119e-11
-2.41507e-11
-2.49716e-11
-3.04757e-11
-2.45259e-11
-1.75394e-11
-2.42055e-11
-1.65853e-11
-3.00237e-11
-2.46922e-11
-1.05266e-11
-2.32582e-11
-2.75337e-11
-2.46921e-11
-3.80435e-11
-2.56443e-11
-3.30933e-11
-1.26648e-11
-2.65611e-11
-2.53542e-11
-2.21804e-11
-2.38015e-11
-2.81019e-11
-2.64697e-11
-2.76739e-11
-2.35122e-11
-2.38836e-11
-2.57954e-11
-3.45203e-11
-2.43213e-11
-3.44846e-11
-3.11249e-11
-2.45904e-11
-2.52319e-11
-2.54771e-11
-2.81876e-11
-2.54361e-11
-2.38119e-11
-2.70646e-11
-2.8415e-11
-3.35273e-11
-2.54721e-11
-2.53003e-11
-3.66646e-11
-3.61513e-11
-2.43393e-11
-2.45956e-11
-1.09394e-11
-2.96827e-11
-2.05618e-11
-2.78564e-11
-1.2261e-11
-1.27276e-11
-1.13744e-11
-1.15605e-11
-1.22645e-11
-1.29196e-11
-1.33144e-11
-3.1277e-11
-2.31605e-11
-2.33408e-11
-2.66758e-11
-2.59806e-11
-2.56561e-11
-2.71571e-11
-2.51071e-11
-2.56786e-11
-2.61536e-11
-2.55609e-11
-3.14237e-11
-2.32263e-11
-3.22996e-11
-2.51131e-11
-2.42376e-11
-2.55929e-11
-2.73474e-11
-2.85476e-11
-2.65901e-11
-3.04592e-11
-2.84499e-11
-2.63753e-11
-1.90104e-11
-2.65339e-11
-2.59522e-11
-2.79647e-11
-2.67584e-11
-2.53518e-11
-2.41122e-11
-2.65642e-11
-2.77153e-11
-3.76339e-11
-2.48397e-11
-3.65891e-11
-3.81286e-11
-2.61043e-11
-3.6539e-11
-2.80236e-11
-2.24391e-11
-3.05956e-11
-2.67981e-11
-1.9327e-11
-1.69182e-11
-3.02103e-11
-3.2179e-11
-2.72217e-11
-2.26261e-11
-2.72364e-11
-1.28686e-11
-2.69139e-11
-2.52486e-11
-1.28655e-11
-4.95079e-12
-5.41577e-12
-2.33142e-11
-2.48495e-11
-2.88693e-11
-2.77448e-11
-2.54662e-12
-2.66096e-12
-2.74931e-11
-2.77802e-11
-2.62964e-11
-9.65941e-12
-2.32506e-11
-2.70581e-11
-2.75672e-11
-2.37789e-11
-2.09886e-11
-1.00584e-11
-3.98455e-11
-2.50048e-11
-3.05666e-11
-3.10445e-11
-2.23035e-11
-2.82291e-11
-2.18068e-11
-2.40636e-11
-1.19303e-11
-1.80179e-11
-2.82626e-11
-2.84443e-11
-2.4442e-11
-2.56682e-11
-2.64905e-11
-2.79329e-11
-2.67167e-11
-1.31453e-11
-2.34663e-11
-2.64235e-11
-2.49966e-11
-3.75145e-11
-1.31424e-11
-2.02936e-11
-2.09024e-11
-1.98317e-11
-1.29034e-11
-1.29042e-11
-2.27163e-11
-1.83155e-11
-2.6208e-11
-1.40671e-11
-1.54082e-11
-5.03363e-12
-5.0336e-12
-1.04821e-11
-1.67225e-11
-1.12678e-11
-2.23294e-11
-2.41732e-11
-2.57773e-11
-2.90499e-11
-2.63557e-11
-2.44032e-11
-1.92048e-11
-1.18439e-11
-2.41098e-11
-2.49867e-11
-2.41951e-11
-1.33147e-11
-1.23581e-11
-9.58875e-12
-2.41606e-11
-2.46435e-11
-1.97829e-11
-2.23625e-11
-2.06369e-11
-1.89138e-11
-2.52948e-11
-1.89121e-11
-2.23207e-11
-2.15323e-11
-1.32123e-11
-1.63125e-11
-1.51101e-11
-2.67505e-11
-1.05406e-11
-1.1105e-11
-1.08621e-11
-2.52671e-11
-1.00378e-11
-9.82794e-12
-1.7566e-11
-9.16739e-12
-2.04738e-11
-2.05048e-11
-9.41099e-12
-2.22646e-11
-1.04546e-11
-1.0384e-11
-1.17073e-11
-9.90702e-12
-9.73419e-12
-1.45858e-11
-1.15726e-11
-1.05085e-11
-9.9381e-12
-2.03921e-11
-2.3287e-11
-1.09465e-11
-2.25079e-11
-9.01135e-12
-2.28354e-11
-1.81348e-11
-9.41545e-12
-7.97757e-12
-8.89389e-12
-1.18028e-11
-1.96042e-11
-1.61615e-11
-6.76762e-12
-7.51174e-12
-2.18634e-11
-6.37045e-12
-6.37038e-12
-7.21831e-12
-8.10015e-12
-9.11543e-12
-1.06497e-11
-1.76e-11
-1.62968e-11
-2.18776e-11
-6.39905e-12
-6.39899e-12
-1.92484e-11
-7.87886e-12
-1.558e-11
-7.13984e-12
-7.18848e-12
-9.47161e-12
-1.65098e-11
-1.70955e-11
-1.82122e-11
-1.6691e-11
-1.65094e-11
-3.60844e-12
-2.66493e-11
-4.60216e-12
-4.45999e-12
-2.15286e-11
-2.13794e-11
-4.62189e-12
-3.20999e-12
-4.52225e-12
-1.98573e-11
SCALARS rr_P_ext' float
LOOKUP_TABLE default
8.43129e-12
1.94771e-11
1.55367e-11
2.03261e-11
1.06666e-11
1.64895e-11
8.33622e-12
2.02105e-11
1.73445e-11
2.18871e-11
7.65818e-12
2.02724e-11
1.78352e-11
1.88513e-11
2.21296e-11
1.85196e-11
1.59527e-11
1.80142e-11
1.60981e-11
1.57606e-11
1.77259e-11
3.17745e-12
1.81619e-11
1.67421e-11
1.51755e-11
1.75274e-11
7.10878e-12
1.5385e-11
1.20066e-11
1.43017e-11
1.57558e-11
1.24122e-11
7.87333e-12
1.07078e-11
1.05285e-11
1.07318e-11
1.3906e-11
1.05483e-11
1.57393e-11
8.85006e-12
1.00916e-11
1.22563e-11
1.22575e-11
1.72919e-11
9.89168e-12
1.09496e-11
1.51537e-11
1.5354e-11
1.44016e-11
1.36981e-11
1.40726e-11
1.09321e-11
1.71166e-11
1.40479e-11
1.57569e-11
7.17874e-12
1.12418e-11
1.41509e-11
1.12413e-11
1.71825e-11
2.0363e-11
1.99795e-11
6.99779e-12
1.40862e-11
1.91371e-11
1.80413e-11
1.9698e-11
1.70239e-11
1.56567e-11
2.23544e-11
1.85703e-11
1.83678e-11
1.24688e-11
1.46096e-11
1.5442e-11
8.12232e-12
1.59549e-11
1.78738e-11
1.7167e-11
1.20676e-11
1.08595e-11
1.20444e-11
2.27415e-11
1.08703e-11
1.46852e-11
5.43607e-12
1.7772e-11
1.48792e-11
1.04755e-11
1.56258e-12
1.21725e-11
1.69943e-12
1.35391e-11
1.29489e-11
1.15215e-11
1.0487e-11
9.97395e-12
1.92153e-11
1.59665e-11
1.53219e-11
1.29797e-11
1.24244e-11
1.04298e-11
1.81931e-11
1.84986e-11
1.66589e-11
1.46714e-11
1.48513e-11
1.10713e-11
2.22054e-11
1.42466e-11
7.46461e-12
9.98241e-12
1.99096e-11
1.86567e-11
1.35668e-11
1.30359e-11
8.28758e-12
1.35205e-11
1.35138e-11
1.17768e-11
2.15687e-11
2.21974e-11
1.90833e-11
2.09825e-11
1.64946e-11
9.35084e-12
2.07464e-11
9.03342e-12
1.16832e-11
9.70033e-12
1.98025e-11
1.93641e-11
1.94443e-11
1.29225e-11
7.92063e-12
8.64016e-12
1.4243e-11
1.74361e-11
7.91786e-12
1.07944e-11
1.67956e-11
1.26882e-11
2.05062e-11
1.00865e-11
1.6729e-11
1.51836e-11
1.46659e-11
9.37364e-12
1.19446e-11
1.33453e-11
1.91104e-11
1.11365e-11
1.72926e-11
2.00399e-11
2.03586e-11
1.33268e-11
1.11201e-11
1.10575e-11
1.74579e-11
1.46364e-11
1.1045e-11
7.28788e-12
1.07825e-11
1.07398e-11
1.87029e-11
1.12698e-11
1.13939e-11
1.23298e-11
1.09825e-11
1.65316e-11
1.15067e-11
1.01695e-11
1.28792e-11
1.21566e-11
1.46611e-11
1.63516e-11
1.56944e-11
1.33802e-11
1.56601e-11
1.19673e-11
1.8146e-11
1.94753e-11
1.07965e-11
1.90943e-11
1.07764e-11
1.88572e-11
1.73435e-11
1.62114e-11
1.64593e-11
1.9262e-11
9.05812e-12
1.18951e-11
1.10448e-11
1.94092e-11
1.90991e-11
1.77085e-11
1.93163e-11
1.96467e-11
1.65104e-11
2.02342e-11
1.35395e-11
1.21936e-11
2.21141e-11
1.28181e-11
2.00872e-11
1.59932e-11
1.01423e-11
1.2296e-11
2.00223e-11
1.66947e-11
1.51746e-11
1.95404e-11
1.91935e-11
1.23545e-11
1.23046e-11
1.18929e-11
1.70303e-11
1.87718e-11
2.15734e-11
2.07234e-11
2.25485e-11
2.04324e-11
2.23286e-11
1.87322e-11
1.96121e-11
1.97642e-11
1.86322e-11
1.95743e-11
1.80376e-11
1.77691e-11
1.25181e-11
1.68802e-11
1.97413e-11
1.36892e-11
2.01633e-11
1.85239e-11
2.14043e-11
1.28202e-11
2.03538e-11
1.94642e-11
1.26002e-11
1.74722e-11
1.25144e-11
1.96199e-11
1.7882e-11
1.31191e-11
1.23396e-11
1.06384e-11
1.22385e-11
1.96462e-11
8.93132e-12
1.51133e-11
1.22929e-11
1.38186e-11
2.03726e-11
1.9733e-11
6.22103e-12
1.9804e-11
1.06965e-11
1.16366e-11
2.02626e-11
1.64714e-11
1.17718e-11
2.26207e-11
1.28275e-11
6.22098e-12
1.18996e-11
1.7599e-11
2.19795e-11
1.66423e-11
1.96299e-11
1.83602e-11
9.66062e-12
9.43253e-12
7.99941e-12
9.17931e-12
1.31619e-11
1.00217e-11
1.61651e-11
1.00796e-11
1.7448e-11
1.24432e-11
1.19175e-11
1.40125e-11
1.29756e-11
1.72963e-11
1.24427e-11
1.27894e-11
5.70843e-12
1.29811e-11
1.87678e-11
1.87807e-11
1.69748e-11
1.24199e-11
8.15086e-12
2.35815e-11
1.5801e-11
1.31767e-11
1.21424e-11
1.21731e-11
1.25225e-11
1.53572e-11
1.23013e-11
8.75779e-12
1.21425e-11
8.29249e-12
1.51166e-11
1.23825e-11
5.3205e-12
1.16655e-11
1.38596e-11
1.2381e-11
1.91482e-11
1.28619e-11
1.66327e-11
6.32154e-12
1.33469e-11
1.27141e-11
1.11794e-11
1.19349e-11
1.41135e-11
1.3323e-11
1.392e-11
1.17927e-11
1.19811e-11
1.29457e-11
1.73803e-11
1.22005e-11
1.73402e-11
1.56434e-11
1.23979e-11
1.26575e-11
1.27853e-11
1.41587e-11
1.27661e-11
1.19439e-11
1.35838e-11
1.43106e-11
1.68584e-11
1.27834e-11
1.26868e-11
1.84411e-11
1.81833e-11
1.2209e-11
1.24004e-11
5.44749e-12
1.49181e-11
1.02818e-11
1.39929e-11
6.0716e-12
6.30274e-12
5.63299e-12
5.72502e-12
6.07383e-12
6.39765e-12
6.59343e-12
1.57481e-11
1.16838e-11
1.17344e-11
1.33966e-11
1.30399e-11
1.28765e-11
1.36582e-11
1.26001e-11
1.28863e-11
1.31941e-11
1.28287e-11
1.58285e-11
1.16366e-11
1.62686e-11
1.26198e-11
1.21719e-11
1.28443e-11
1.37847e-11
1.43476e-11
1.33543e-11
1.53085e-11
1.42885e-11
1.32363e-11
9.52609e-12
1.33251e-11
1.3042e-11
1.40867e-11
1.34316e-11
1.27215e-11
1.21029e-11
1.33395e-11
1.39276e-11
1.89275e-11
1.24679e-11
1.84017e-11
1.91588e-11
1.31089e-11
1.83736e-11
1.40816e-11
1.12616e-11
1.53994e-11
1.34601e-11
9.74919e-12
8.44766e-12
1.5211e-11
1.62063e-11
1.36797e-11
1.13649e-11
1.37055e-11
6.40904e-12
1.35249e-11
1.26816e-11
6.42213e-12
2.50217e-12
2.73726e-12
1.17172e-11
1.24721e-11
1.4502e-11
1.39269e-11
1.28903e-12
1.3469e-12
1.38249e-11
1.39694e-11
1.32226e-11
4.81063e-12
1.16678e-11
1.36208e-11
1.38437e-11
1.19402e-11
1.05399e-11
5.00844e-12
2.0054e-11
1.25494e-11
1.53618e-11
1.5602e-11
1.11992e-11
1.41773e-11
1.09498e-11
1.2084e-11
5.95159e-12
9.00899e-12
1.4194e-11
1.42954e-11
1.22768e-11
1.28882e-11
1.33048e-11
1.4031e-11
1.34193e-11
6.5638e-12
1.18223e-11
1.32628e-11
1.2578e-11
1.88819e-11
6.56195e-12
1.01985e-11
1.05035e-11
9.99875e-12
6.52102e-12
6.52141e-12
1.14483e-11
9.19105e-12
1.31709e-11
7.02288e-12
7.78535e-12
2.54732e-12
2.54729e-12
5.21881e-12
8.44076e-12
5.68978e-12
1.12206e-11
1.21807e-11
1.29593e-11
1.4612e-11
1.32658e-11
1.22861e-11
9.65686e-12
5.8985e-12
1.21183e-11
1.2572e-11
1.21794e-11
6.63816e-12
6.23839e-12
4.7856e-12
1.21616e-11
1.23961e-11
9.92166e-12
1.12419e-11
1.03766e-11
9.53659e-12
1.27204e-11
9.53567e-12
1.12179e-11
1.08392e-11
6.6706e-12
8.23635e-12
7.54384e-12
1.34572e-11
5.24648e-12
5.5285e-12
5.40519e-12
1.27168e-11
4.99848e-12
4.88953e-12
8.82012e-12
4.5624e-12
1.03278e-11
1.03433e-11
4.68442e-12
1.11837e-11
5.21559e-12
5.16825e-12
5.83938e-12
4.93064e-12
4.85522e-12
7.36265e-12
5.77554e-12
5.2331e-12
4.94666e-12
1.02531e-11
1.17266e-11
5.45899e-12
1.13172e-11
4.48356e-12
1.14855e-11
9.10981e-12
4.68565e-12
3.97778e-12
4.42539e-12
5.87638e-12
9.85075e-12
8.15372e-12
3.42419e-12
3.80021e-12
1.09984e-11
3.22315e-12
3.2231e-12
3.65193e-12
4.09492e-12
4.55013e-12
5.37649e-12
8.87048e-12
8.22203e-12
1.10042e-11
3.23562e-12
3.23557e-12
9.71297e-12
3.92228e-12
7.82575e-12
3.55489e-12
3.58708e-12
4.72667e-12
8.341e-12
8.63668e-12
9.20023e-12
8.43196e-12
8.34072e-12
1.82543e-12
1.34627e-11
2.32703e-12
2.25666e-12
1.08768e-11
1.08015e-11
2.33868e-12
1.62392e-12
2.28672e-12
1.00307e-11
SCALARS rr_S' float
LOOKUP_TABLE default
6.45186e-12
1.48406e-11
1.18428e-11
1.54887e-11
8.11868e-12
1.25691e-11
6.37919e-12
1.54015e-11
1.32255e-11
1.66772e-11
5.85859e-12
1.54486e-11
1.35926e-11
1.43633e-11
1.68502e-11
1.41156e-11
1.21529e-11
1.37285e-11
1.22775e-11
1.20148e-11
1.35137e-11
2.41488e-12
1.3846e-11
1.27628e-11
1.15687e-11
1.33565e-11
5.43507e-12
1.17266e-11
9.16778e-12
1.08788e-11
1.2008e-11
9.47734e-12
6.01999e-12
8.1472e-12
8.00975e-12
8.1655e-12
1.05773e-11
8.02522e-12
1.19955e-11
6.76672e-12
7.70561e-12
9.32238e-12
9.3233e-12
1.31787e-11
7.56011e-12
8.36014e-12
1.15562e-11
1.17069e-11
1.09775e-11
1.04621e-11
1.07465e-11
8.34367e-12
1.30287e-11
1.07216e-11
1.19942e-11
5.48595e-12
8.55231e-12
1.08002e-11
8.55198e-12
1.30984e-11
1.55129e-11
1.52154e-11
5.34876e-12
1.07276e-11
1.45737e-11
1.37441e-11
1.50061e-11
1.29728e-11
1.19358e-11
1.70327e-11
1.41354e-11
1.39813e-11
9.52079e-12
1.11283e-11
1.17704e-11
6.2115e-12
1.21476e-11
1.36165e-11
1.30818e-11
9.20941e-12
8.29477e-12
9.16617e-12
1.73217e-11
8.304e-12
1.12116e-11
4.15455e-12
1.3546e-11
1.13344e-11
8.00629e-12
1.18781e-12
9.29031e-12
1.29185e-12
1.0308e-11
9.86505e-12
8.79315e-12
8.00866e-12
7.61833e-12
1.46415e-11
1.21565e-11
1.16776e-11
9.9016e-12
9.4846e-12
7.96756e-12
1.38642e-11
1.4096e-11
1.2694e-11
1.11744e-11
1.13193e-11
8.45768e-12
1.69183e-11
1.08603e-11
5.70434e-12
7.62695e-12
1.51726e-11
1.42166e-11
1.03543e-11
9.91722e-12
6.33037e-12
1.0286e-11
1.03137e-11
8.98259e-12
1.64239e-11
1.69134e-11
1.45367e-11
1.59862e-11
1.25591e-11
7.11483e-12
1.58082e-11
6.89994e-12
8.91649e-12
7.3837e-12
1.5089e-11
1.47496e-11
1.48158e-11
9.86479e-12
6.02567e-12
6.60112e-12
1.08546e-11
1.32807e-11
6.0236e-12
8.23987e-12
1.27976e-11
9.67718e-12
1.5625e-11
7.70459e-12
1.27479e-11
1.157e-11
1.11789e-11
7.14505e-12
9.11316e-12
1.01754e-11
1.45612e-11
8.50334e-12
1.3179e-11
1.52698e-11
1.55127e-11
1.01534e-11
8.48814e-12
8.4402e-12
1.3305e-11
1.11597e-11
8.43326e-12
5.56948e-12
8.23397e-12
8.19785e-12
1.42515e-11
8.60243e-12
8.69722e-12
9.41454e-12
8.38309e-12
1.25862e-11
8.78208e-12
7.76594e-12
9.81199e-12
9.27806e-12
1.11667e-11
1.24493e-11
1.196e-11
1.01845e-11
1.19328e-11
9.13771e-12
1.38269e-11
1.48398e-11
8.24136e-12
1.45451e-11
8.22962e-12
1.43645e-11
1.32095e-11
1.23423e-11
1.25416e-11
1.46728e-11
6.91849e-12
9.07844e-12
8.43333e-12
1.47892e-11
1.45555e-11
1.34954e-11
1.47132e-11
1.497e-11
1.2578e-11
1.54175e-11
1.03256e-11
9.30529e-12
1.68444e-11
9.78728e-12
1.53001e-11
1.21839e-11
7.74267e-12
9.36348e-12
1.52559e-11
1.27127e-11
1.15616e-11
1.489e-11
1.46193e-11
9.42571e-12
9.3747e-12
9.07544e-12
1.2971e-11
1.4302e-11
1.64365e-11
1.57896e-11
1.71799e-11
1.55676e-11
1.70124e-11
1.42729e-11
1.49337e-11
1.50497e-11
1.41875e-11
1.49048e-11
1.37301e-11
1.35258e-11
9.55082e-12
1.28616e-11
1.50436e-11
1.04378e-11
1.53529e-11
1.41044e-11
1.63106e-11
9.78335e-12
1.55106e-11
1.48311e-11
9.61306e-12
1.33051e-11
9.54773e-12
1.49439e-11
1.36271e-11
1.00088e-11
9.41613e-12
8.12597e-12
9.34792e-12
1.49641e-11
6.82263e-12
1.15187e-11
9.38071e-12
1.05387e-11
1.5525e-11
1.50344e-11
4.73172e-12
1.50887e-11
8.17133e-12
8.87981e-12
1.54409e-11
1.25521e-11
8.98345e-12
1.72346e-11
9.78315e-12
4.7317e-12
9.08049e-12
1.34083e-11
1.67433e-11
1.26828e-11
1.49469e-11
1.39862e-11
7.35346e-12
7.18876e-12
6.11265e-12
7.01535e-12
1.00197e-11
7.64022e-12
1.23187e-11
7.69012e-12
1.32866e-11
9.47983e-12
9.09412e-12
1.06753e-11
9.89835e-12
1.31797e-11
9.49176e-12
9.75972e-12
4.34041e-12
9.88268e-12
1.42902e-11
1.43002e-11
1.29339e-11
9.47413e-12
6.20198e-12
1.7964e-11
1.20474e-11
1.00513e-11
9.26357e-12
9.267e-12
9.5538e-12
1.16923e-11
9.38433e-12
6.69342e-12
9.26255e-12
6.33436e-12
1.15133e-11
9.44693e-12
4.04546e-12
8.89929e-12
1.0557e-11
9.44623e-12
1.45859e-11
9.81209e-12
1.26776e-11
4.83222e-12
1.0174e-11
9.70006e-12
8.51071e-12
9.10572e-12
1.07608e-11
1.01486e-11
1.06062e-11
8.99635e-12
9.13944e-12
9.87341e-12
1.32375e-11
9.30682e-12
1.32142e-11
1.19235e-11
9.43714e-12
9.6554e-12
9.75133e-12
1.07946e-11
9.73627e-12
9.11142e-12
1.03598e-11
1.08981e-11
1.28471e-11
9.7497e-12
9.67931e-12
1.40516e-11
1.3855e-11
9.3135e-12
9.4391e-12
4.16802e-12
1.13708e-11
7.85356e-12
1.0668e-11
4.656e-12
4.83323e-12
4.31952e-12
4.39013e-12
4.65755e-12
4.90608e-12
5.05613e-12
1.19941e-11
8.89124e-12
8.94295e-12
1.02144e-11
9.94487e-12
9.82047e-12
1.04074e-11
9.60991e-12
9.82839e-12
1.00404e-11
9.784e-12
1.20532e-11
8.8813e-12
1.23886e-11
9.61955e-12
9.28073e-12
9.79604e-12
1.04938e-11
1.0936e-11
1.0182e-11
1.16684e-11
1.08942e-11
1.00952e-11
7.26996e-12
1.016e-11
9.94123e-12
1.07267e-11
1.02432e-11
9.70292e-12
9.23002e-12
1.01712e-11
1.06164e-11
1.44226e-11
9.50843e-12
1.4022e-11
1.46045e-11
9.99529e-12
1.40015e-11
1.07341e-11
8.5889e-12
1.17303e-11
1.02622e-11
7.41928e-12
6.45637e-12
1.15851e-11
1.23417e-11
1.04274e-11
8.66471e-12
1.04411e-11
4.90347e-12
1.03094e-11
9.66876e-12
4.90899e-12
1.90259e-12
2.08131e-12
8.9311e-12
9.51189e-12
1.1056e-11
1.06209e-11
9.79501e-13
1.02348e-12
1.05352e-11
1.06453e-11
1.00764e-11
3.68059e-12
8.89903e-12
1.03749e-11
1.05555e-11
9.10452e-12
8.03648e-12
3.83219e-12
1.52763e-11
9.57103e-12
1.17092e-11
1.18923e-11
8.53955e-12
1.08095e-11
8.34935e-12
9.21387e-12
4.55043e-12
6.88161e-12
1.08223e-11
1.08963e-11
9.35999e-12
9.82758e-12
1.01441e-11
1.06972e-11
1.02311e-11
5.01658e-12
9.00182e-12
1.01146e-11
9.58228e-12
1.43831e-11
5.01529e-12
7.77374e-12
8.00652e-12
7.61089e-12
4.95853e-12
4.95884e-12
8.71575e-12
7.01009e-12
1.00393e-11
5.36782e-12
5.92042e-12
1.93583e-12
1.93582e-12
3.99334e-12
6.42181e-12
4.32802e-12
8.55315e-12
9.27404e-12
9.87651e-12
1.11336e-11
1.01049e-11
9.35771e-12
7.35906e-12
4.51291e-12
9.23645e-12
9.57805e-12
9.27704e-12
5.07662e-12
4.74598e-12
3.65833e-12
9.26361e-12
9.44507e-12
7.56917e-12
8.56789e-12
7.90767e-12
7.25882e-12
9.69324e-12
7.25815e-12
8.55056e-12
8.25617e-12
5.07444e-12
6.26537e-12
5.76593e-12
1.02531e-11
4.01508e-12
4.23057e-12
4.13692e-12
9.68717e-12
3.8245e-12
3.74258e-12
6.72555e-12
3.49172e-12
7.85964e-12
7.87149e-12
3.58487e-12
8.52636e-12
3.98766e-12
3.95531e-12
4.46495e-12
3.77353e-12
3.71244e-12
5.60144e-12
4.41506e-12
4.00394e-12
3.78559e-12
7.81373e-12
8.93076e-12
4.17437e-12
8.62453e-12
3.43174e-12
8.75161e-12
6.94509e-12
3.58613e-12
3.04192e-12
3.38716e-12
4.4965e-12
7.50907e-12
6.20469e-12
2.60241e-12
2.88834e-12
8.37986e-12
2.44964e-12
2.44961e-12
2.77559e-12
3.11331e-12
3.47802e-12
4.09011e-12
6.75305e-12
6.25663e-12
8.38473e-12
2.45977e-12
2.45975e-12
7.39063e-12
3.00139e-12
5.96639e-12
2.72012e-12
2.74231e-12
3.6134e-12
6.34328e-12
6.56822e-12
6.99701e-12
6.41266e-12
6.34309e-12
1.38744e-12
1.02386e-11
1.76905e-12
1.71506e-12
8.27166e-12
8.21436e-12
1.77736e-12
1.23427e-12
1.73837e-12
7.62878e-12
SCALARS rr_P' float
LOOKUP_TABLE default
2.05266e-12
4.4052e-12
3.53668e-12
4.60327e-12
2.36756e-12
3.75414e-12
2.03e-12
4.58071e-12
3.97287e-12
4.9516e-12
1.85641e-12
4.59478e-12
4.04854e-12
4.26043e-12
4.94662e-12
4.21097e-12
3.59605e-12
4.08665e-12
3.69984e-12
3.5944e-12
4.04649e-12
6.87542e-13
4.14605e-12
3.81786e-12
3.46132e-12
3.97129e-12
1.70543e-12
3.49943e-12
2.81614e-12
3.14201e-12
3.57726e-12
2.91083e-12
1.89075e-12
2.36288e-12
2.31778e-12
2.36833e-12
3.05261e-12
2.32426e-12
3.57406e-12
2.12486e-12
2.36743e-12
2.68966e-12
2.69008e-12
3.92592e-12
2.35907e-12
2.56543e-12
3.47725e-12
3.51252e-12
3.27784e-12
3.22772e-12
3.30714e-12
2.54473e-12
3.80352e-12
3.26921e-12
3.5034e-12
1.70797e-12
2.47438e-12
3.29319e-12
2.47443e-12
3.91731e-12
4.59165e-12
4.47703e-12
1.67074e-12
3.15754e-12
4.28783e-12
4.06674e-12
4.44064e-12
3.85698e-12
3.5724e-12
5.05509e-12
4.12717e-12
4.08232e-12
2.92514e-12
3.28554e-12
3.51415e-12
1.95671e-12
3.56092e-12
4.0292e-12
3.88969e-12
2.80443e-12
2.5625e-12
2.66704e-12
5.11192e-12
2.57048e-12
3.43672e-12
1.29528e-12
4.04235e-12
3.35005e-12
2.49809e-12
3.39413e-13
2.83312e-12
3.69185e-13
3.02066e-12
2.92136e-12
2.67974e-12
2.46627e-12
2.35322e-12
4.34757e-12
3.56385e-12
3.48028e-12
2.99576e-12
2.90244e-12
2.46674e-12
4.12439e-12
4.18821e-12
3.77092e-12
3.29494e-12
3.37541e-12
2.61874e-12
5.01737e-12
3.24773e-12
1.77596e-12
2.36707e-12
4.51544e-12
4.22462e-12
3.15646e-12
2.86951e-12
1.9559e-12
2.97684e-12
3.14333e-12
2.71115e-12
4.82522e-12
5.02087e-12
4.29597e-12
4.73871e-12
3.68463e-12
2.06378e-12
4.69416e-12
2.13129e-12
2.71743e-12
2.15598e-12
4.48117e-12
4.35438e-12
4.39899e-12
3.01846e-12
1.74341e-12
2.04681e-12
3.2315e-12
3.91931e-12
1.74291e-12
2.51933e-12
3.79872e-12
2.91758e-12
4.63892e-12
2.3812e-12
3.78942e-12
3.43807e-12
3.33808e-12
2.13399e-12
2.7631e-12
3.05374e-12
4.32268e-12
2.61212e-12
3.9248e-12
4.53363e-12
4.6067e-12
3.00858e-12
2.59338e-12
2.5782e-12
3.96307e-12
3.34797e-12
2.58925e-12
1.73482e-12
2.53399e-12
2.50495e-12
4.23333e-12
2.62842e-12
2.65765e-12
2.89186e-12
2.56117e-12
3.68769e-12
2.67784e-12
2.39015e-12
2.90553e-12
2.82861e-12
3.29345e-12
3.64776e-12
3.55747e-12
2.97221e-12
3.54455e-12
2.80659e-12
4.10602e-12
4.40716e-12
2.5195e-12
4.29838e-12
2.53402e-12
4.24518e-12
3.89432e-12
3.61523e-12
3.72392e-12
4.33574e-12
2.13544e-12
2.7679e-12
2.59028e-12
4.39138e-12
4.33388e-12
4.01684e-12
4.34385e-12
4.4444e-12
3.72257e-12
4.57657e-12
3.10884e-12
2.83212e-12
4.97338e-12
3.0058e-12
4.51538e-12
3.60538e-12
2.37038e-12
2.75286e-12
4.52823e-12
3.73513e-12
3.42807e-12
4.4249e-12
4.31415e-12
2.85722e-12
2.77804e-12
2.76019e-12
3.82412e-12
4.24002e-12
4.87296e-12
4.6848e-12
5.09559e-12
4.61716e-12
5.04597e-12
4.23565e-12
4.38604e-12
4.42098e-12
4.16691e-12
4.3772e-12
4.01015e-12
3.95037e-12
2.89657e-12
3.81613e-12
4.47436e-12
3.13265e-12
4.50708e-12
4.13946e-12
4.85029e-12
2.97711e-12
4.61435e-12
4.40379e-12
2.91305e-12
3.91142e-12
2.89419e-12
4.40908e-12
4.05516e-12
3.03258e-12
2.86293e-12
2.5108e-12
2.88718e-12
4.41574e-12
2.11079e-12
3.43334e-12
2.85318e-12
3.17454e-12
4.61901e-12
4.45776e-12
1.36466e-12
4.47467e-12
2.52917e-12
2.70081e-12
4.59272e-12
3.73342e-12
2.73459e-12
5.11043e-12
2.94851e-12
1.36472e-12
2.76142e-12
3.97453e-12
4.95002e-12
3.77492e-12
4.38862e-12
4.13457e-12
2.14674e-12
2.1413e-12
1.90102e-12
2.1873e-12
2.93073e-12
2.28739e-12
3.664e-12
2.33096e-12
3.90561e-12
2.80728e-12
2.76581e-12
3.1608e-12
2.99398e-12
3.91518e-12
2.87079e-12
2.96947e-12
1.24513e-12
2.89369e-12
4.19432e-12
4.19775e-12
3.83822e-12
2.86401e-12
1.80008e-12
5.31221e-12
3.61361e-12
3.03776e-12
2.80585e-12
2.71064e-12
2.89526e-12
3.42627e-12
2.84028e-12
2.08824e-12
2.8005e-12
1.95843e-12
3.39387e-12
2.86279e-12
1.16062e-12
2.69344e-12
3.11707e-12
2.86488e-12
4.30934e-12
2.9703e-12
3.78303e-12
1.51101e-12
3.0403e-12
2.94e-12
2.49027e-12
2.76094e-12
3.22767e-12
2.9981e-12
3.14769e-12
2.72315e-12
2.76304e-12
2.97627e-12
3.90251e-12
2.81397e-12
3.9303e-12
3.55793e-12
2.7553e-12
2.919e-12
2.94043e-12
3.23436e-12
2.93365e-12
2.75661e-12
3.12103e-12
3.20619e-12
3.82181e-12
2.93904e-12
2.93417e-12
4.17186e-12
4.113e-12
2.81678e-12
2.75605e-12
1.32389e-12
3.39386e-12
2.4264e-12
3.19551e-12
1.53339e-12
1.59163e-12
1.4219e-12
1.44539e-12
1.53315e-12
1.61588e-12
1.66483e-12
3.53482e-12
2.58543e-12
2.66343e-12
3.06479e-12
2.99575e-12
2.95913e-12
3.09151e-12
2.89706e-12
2.96394e-12
2.91915e-12
2.94822e-12
3.54195e-12
2.70846e-12
3.64248e-12
2.87373e-12
2.78489e-12
2.95256e-12
3.06891e-12
3.26398e-12
3.05382e-12
3.48235e-12
3.26724e-12
3.04379e-12
2.2144e-12
3.04888e-12
2.96895e-12
3.15142e-12
3.08358e-12
2.9274e-12
2.77927e-12
3.0535e-12
3.17125e-12
4.28385e-12
2.86335e-12
4.16531e-12
4.36529e-12
3.00012e-12
4.16392e-12
3.20782e-12
2.58861e-12
3.46582e-12
3.07583e-12
2.15857e-12
2.01415e-12
3.41422e-12
3.63095e-12
3.11459e-12
2.59641e-12
3.08993e-12
1.55613e-12
3.07956e-12
2.89826e-12
1.53443e-12
5.46025e-13
5.97202e-13
2.66587e-12
2.86547e-12
3.31129e-12
3.19707e-12
2.7809e-13
2.90576e-13
3.13305e-12
3.16544e-12
2.99733e-12
1.16818e-12
2.68382e-12
3.06234e-12
3.16801e-12
2.73416e-12
2.41229e-12
1.21775e-12
4.51512e-12
2.88433e-12
3.49561e-12
3.55022e-12
2.56478e-12
3.24231e-12
2.5077e-12
2.76574e-12
1.42826e-12
2.1273e-12
3.24635e-12
3.25259e-12
2.80518e-12
2.95243e-12
3.04156e-12
3.20471e-12
3.06629e-12
1.56492e-12
2.64218e-12
3.04606e-12
2.83626e-12
4.24951e-12
1.5652e-12
2.32137e-12
2.39234e-12
2.22211e-12
1.42384e-12
1.42398e-12
2.55228e-12
2.11439e-12
2.99772e-12
1.67639e-12
1.70244e-12
5.50476e-13
5.50488e-13
1.26993e-12
1.85998e-12
1.24998e-12
2.55563e-12
2.7184e-12
2.94151e-12
3.30426e-12
2.98502e-12
2.75941e-12
2.18884e-12
1.43246e-12
2.75504e-12
2.83658e-12
2.73861e-12
1.59987e-12
1.37372e-12
1.14482e-12
2.73539e-12
2.80238e-12
2.29208e-12
2.55264e-12
2.35265e-12
2.11835e-12
2.88119e-12
2.11826e-12
2.55227e-12
2.43698e-12
1.46726e-12
1.81075e-12
1.80029e-12
3.04027e-12
1.27908e-12
1.34595e-12
1.31995e-12
2.86314e-12
1.21482e-12
1.19583e-12
2.02037e-12
1.11327e-12
2.2864e-12
2.28996e-12
1.14171e-12
2.55456e-12
1.25131e-12
1.26046e-12
1.40297e-12
1.20285e-12
1.16653e-12
1.62174e-12
1.38202e-12
1.27147e-12
1.20584e-12
2.32529e-12
2.62962e-12
1.3131e-12
2.56625e-12
1.09605e-12
2.59831e-12
2.07986e-12
1.14367e-12
9.57873e-13
1.08134e-12
1.42994e-12
2.24438e-12
1.80308e-12
7.41018e-13
8.23193e-13
2.4851e-12
6.97659e-13
6.97669e-13
7.90792e-13
8.91923e-13
1.08728e-12
1.18309e-12
1.9765e-12
1.81813e-12
2.48867e-12
7.03659e-13
7.03671e-13
2.1448e-12
9.55187e-13
1.7879e-12
8.64819e-13
8.59086e-13
1.13154e-12
1.82554e-12
1.89063e-12
2.01497e-12
1.8464e-12
1.82556e-12
3.9556e-13
2.94798e-12
5.06077e-13
4.88271e-13
2.38019e-12
2.3635e-12
5.05856e-13
3.51802e-13
4.97156e-13
2.19784e-12
SCALARS rr_T' float
LOOKUP_TABLE default
1.02071e-11
2.32515e-11
1.85696e-11
2.4271e-11
1.26898e-11
1.9709e-11
1.00925e-11
2.41364e-11
2.07544e-11
2.61298e-11
9.26333e-12
2.42103e-11
2.13058e-11
2.25013e-11
2.6361e-11
2.21302e-11
1.90324e-11
2.15171e-11
1.92751e-11
1.88438e-11
2.11973e-11
3.76289e-12
2.17187e-11
2.00169e-11
1.81446e-11
2.09308e-11
8.58143e-12
1.83857e-11
1.44313e-11
1.69829e-11
1.88224e-11
1.49183e-11
9.50623e-12
1.27254e-11
1.25069e-11
1.27541e-11
1.65106e-11
1.25325e-11
1.88033e-11
1.06851e-11
1.213e-11
1.45512e-11
1.45527e-11
2.06574e-11
1.19272e-11
1.31581e-11
1.81389e-11
1.83682e-11
1.72125e-11
1.64788e-11
1.69208e-11
1.31209e-11
2.03675e-11
1.68598e-11
1.87515e-11
8.65202e-12
1.33538e-11
1.69834e-11
1.33534e-11
2.05425e-11
2.42955e-11
2.38105e-11
8.4396e-12
1.67883e-11
2.28061e-11
2.15241e-11
2.35011e-11
2.03294e-11
1.87212e-11
2.66855e-11
2.20979e-11
2.18571e-11
1.49874e-11
1.74225e-11
1.84555e-11
9.81286e-12
1.90003e-11
2.13245e-11
2.05005e-11
1.44793e-11
1.30675e-11
1.43228e-11
2.71177e-11
1.30858e-11
1.76433e-11
6.55358e-12
2.12382e-11
1.77478e-11
1.2631e-11
1.85174e-12
1.46093e-11
2.01397e-12
1.61223e-11
1.5451e-11
1.38262e-11
1.26112e-11
1.20016e-11
2.29405e-11
1.90144e-11
1.83056e-11
1.55535e-11
1.4922e-11
1.25559e-11
2.1728e-11
2.20876e-11
1.98902e-11
1.74918e-11
1.77453e-11
1.33285e-11
2.65037e-11
1.70323e-11
8.99653e-12
1.20233e-11
2.37799e-11
2.2277e-11
1.62816e-11
1.54852e-11
9.97296e-12
1.60615e-11
1.62172e-11
1.41053e-11
2.56967e-11
2.64993e-11
2.27617e-11
2.50419e-11
1.96462e-11
1.11131e-11
2.47686e-11
1.08699e-11
1.40203e-11
1.15431e-11
2.36423e-11
2.3092e-11
2.32135e-11
1.55199e-11
9.40874e-12
1.04047e-11
1.7013e-11
2.07913e-11
9.40557e-12
1.29621e-11
2.00503e-11
1.51937e-11
2.44809e-11
1.21384e-11
1.99765e-11
1.81298e-11
1.75285e-11
1.12037e-11
1.43193e-11
1.59659e-11
2.28141e-11
1.33855e-11
2.0657e-11
2.39245e-11
2.43059e-11
1.59039e-11
1.33513e-11
1.32755e-11
2.08552e-11
1.75093e-11
1.32742e-11
8.78442e-12
1.29648e-11
1.28949e-11
2.23304e-11
1.35312e-11
1.36805e-11
1.48197e-11
1.3186e-11
1.96852e-11
1.38099e-11
1.2228e-11
1.53678e-11
1.45895e-11
1.74803e-11
1.94711e-11
1.87434e-11
1.59204e-11
1.86974e-11
1.43837e-11
2.16643e-11
2.32517e-11
1.29643e-11
2.27748e-11
1.29589e-11
2.24922e-11
2.06768e-11
1.93029e-11
1.96502e-11
2.29745e-11
1.08979e-11
1.42757e-11
1.3275e-11
2.3172e-11
2.28141e-11
2.11515e-11
2.30352e-11
2.34548e-11
1.96985e-11
2.41554e-11
1.62087e-11
1.46289e-11
2.6372e-11
1.5406e-11
2.39528e-11
1.90809e-11
1.21822e-11
1.46513e-11
2.39021e-11
1.98902e-11
1.81113e-11
2.33323e-11
2.28867e-11
1.48099e-11
1.46843e-11
1.42661e-11
2.03036e-11
2.2404e-11
2.57479e-11
2.47371e-11
2.69139e-11
2.43879e-11
2.66515e-11
2.23612e-11
2.33643e-11
2.35463e-11
2.21969e-11
2.33188e-11
2.14653e-11
2.11458e-11
1.50075e-11
2.01496e-11
2.35761e-11
1.63776e-11
2.40187e-11
2.20647e-11
2.55611e-11
1.53801e-11
2.43087e-11
2.32375e-11
1.51036e-11
2.08187e-11
1.50016e-11
2.33943e-11
2.13577e-11
1.57251e-11
1.4801e-11
1.28019e-11
1.47263e-11
2.34264e-11
1.07505e-11
1.80568e-11
1.47461e-11
1.65443e-11
2.43316e-11
2.35518e-11
7.3853e-12
2.36374e-11
1.28764e-11
1.39587e-11
2.41988e-11
1.96711e-11
1.41232e-11
2.69987e-11
1.53593e-11
7.38531e-12
1.42738e-11
2.10037e-11
2.62182e-11
1.98779e-11
2.33841e-11
2.19006e-11
1.14955e-11
1.12681e-11
9.63897e-12
1.10664e-11
1.56675e-11
1.1984e-11
1.93054e-11
1.20828e-11
2.07896e-11
1.48476e-11
1.42955e-11
1.67197e-11
1.55478e-11
2.06512e-11
1.4909e-11
1.53426e-11
6.76987e-12
1.54554e-11
2.23556e-11
2.23715e-11
2.02633e-11
1.48803e-11
9.68807e-12
2.81306e-11
1.89018e-11
1.57863e-11
1.45535e-11
1.44906e-11
1.50106e-11
1.82873e-11
1.47417e-11
1.05596e-11
1.45483e-11
9.98019e-12
1.80215e-11
1.48426e-11
6.3099e-12
1.39797e-11
1.65283e-11
1.48432e-11
2.2838e-11
1.54141e-11
1.98765e-11
7.62571e-12
1.59544e-11
1.52407e-11
1.33086e-11
1.43077e-11
1.68831e-11
1.589e-11
1.66169e-11
1.41324e-11
1.43547e-11
1.55014e-11
2.07207e-11
1.46179e-11
2.07087e-11
1.86942e-11
1.4753e-11
1.51651e-11
1.53104e-11
1.69337e-11
1.52851e-11
1.43122e-11
1.62636e-11
1.70541e-11
2.0134e-11
1.53072e-11
1.52084e-11
2.20157e-11
2.17074e-11
1.4629e-11
1.47561e-11
6.59256e-12
1.78283e-11
1.23726e-11
1.67344e-11
7.40417e-12
7.68591e-12
6.8686e-12
6.98106e-12
7.40611e-12
7.80193e-12
8.04019e-12
1.87736e-11
1.38923e-11
1.40176e-11
1.60266e-11
1.56122e-11
1.54174e-11
1.63073e-11
1.50879e-11
1.54316e-11
1.56876e-11
1.53602e-11
1.88588e-11
1.39662e-11
1.93851e-11
1.50843e-11
1.45618e-11
1.53796e-11
1.64084e-11
1.71464e-11
1.59748e-11
1.82945e-11
1.70921e-11
1.58501e-11
1.14304e-11
1.59415e-11
1.5588e-11
1.67827e-11
1.6079e-11
1.52356e-11
1.44891e-11
1.596e-11
1.66473e-11
2.25982e-11
1.49263e-11
2.1971e-11
2.29028e-11
1.56836e-11
2.19422e-11
1.68328e-11
1.34844e-11
1.83669e-11
1.60992e-11
1.15932e-11
1.01855e-11
1.81333e-11
1.93133e-11
1.63507e-11
1.35926e-11
1.63518e-11
7.75482e-12
1.61659e-11
1.51684e-11
7.74643e-12
2.96767e-12
3.24637e-12
1.40032e-11
1.49325e-11
1.73428e-11
1.66717e-11
1.52572e-12
1.59422e-12
1.651e-11
1.66823e-11
1.57915e-11
5.82092e-12
1.39726e-11
1.62425e-11
1.65624e-11
1.42868e-11
1.26101e-11
6.06177e-12
2.39202e-11
1.50261e-11
1.83593e-11
1.86463e-11
1.34005e-11
1.69596e-11
1.31021e-11
1.44575e-11
7.18495e-12
1.08422e-11
1.69797e-11
1.70845e-11
1.46836e-11
1.54222e-11
1.59147e-11
1.67805e-11
1.60502e-11
7.91405e-12
1.40824e-11
1.58781e-11
1.50071e-11
2.25204e-11
7.91252e-12
1.21892e-11
1.25553e-11
1.1898e-11
7.73497e-12
7.73549e-12
1.36307e-11
1.10069e-11
1.57416e-11
8.46954e-12
9.23715e-12
3.01596e-12
3.01594e-12
6.31738e-12
1.00286e-11
6.75643e-12
1.34124e-11
1.45056e-11
1.54808e-11
1.74431e-11
1.58215e-11
1.46481e-11
1.15328e-11
7.13736e-12
1.44805e-11
1.50016e-11
1.4524e-11
8.02048e-12
7.41102e-12
5.7738e-12
1.45035e-11
1.4797e-11
1.18912e-11
1.34302e-11
1.2393e-11
1.13471e-11
1.51895e-11
1.13461e-11
1.34065e-11
1.29255e-11
7.92289e-12
9.78169e-12
9.09737e-12
1.60617e-11
6.35323e-12
6.6929e-12
6.54755e-12
1.51685e-11
6.04922e-12
5.92466e-12
1.05542e-11
5.52578e-12
1.2281e-11
1.22996e-11
5.67226e-12
1.33754e-11
6.29611e-12
6.25893e-12
7.05109e-12
5.97152e-12
5.86273e-12
8.74705e-12
6.96854e-12
6.33279e-12
5.99003e-12
1.22462e-11
1.3977e-11
6.59325e-12
1.35167e-11
5.43226e-12
1.37118e-11
1.08941e-11
5.67537e-12
4.80531e-12
5.36131e-12
7.11338e-12
1.17757e-11
9.69377e-12
4.05517e-12
4.50126e-12
1.31274e-11
3.81723e-12
3.81719e-12
4.32535e-12
4.8551e-12
5.48853e-12
6.3863e-12
1.05605e-11
9.77494e-12
1.31365e-11
3.83521e-12
3.83518e-12
1.15445e-11
4.74867e-12
9.35974e-12
4.303e-12
4.32875e-12
5.7035e-12
9.89797e-12
1.02492e-11
1.09189e-11
1.00068e-11
9.89772e-12
2.16232e-12
1.59771e-11
2.75827e-12
2.67241e-12
1.29068e-11
1.28172e-11
2.76938e-12
1.92353e-12
2.71033e-12
1.19055e-11
SCALARS rr_uec(SIM,_S_ext) float
LOOKUP_TABLE default
1.20089e-09
2.73559e-09
2.18475e-09
2.85555e-09
1.49296e-09
2.3188e-09
1.18741e-09
2.83969e-09
2.44179e-09
3.07422e-09
1.08989e-09
2.84839e-09
2.50666e-09
2.64732e-09
3.10142e-09
2.60366e-09
2.2392e-09
2.53154e-09
2.26776e-09
2.21702e-09
2.4939e-09
4.42699e-10
2.55526e-09
2.35503e-09
2.13475e-09
2.46256e-09
1.00964e-09
2.16311e-09
1.69789e-09
1.99804e-09
2.21449e-09
1.75519e-09
1.11844e-09
1.49715e-09
1.47144e-09
1.50053e-09
1.94249e-09
1.47444e-09
2.21224e-09
1.25714e-09
1.42714e-09
1.71195e-09
1.71213e-09
2.43038e-09
1.40329e-09
1.54809e-09
2.13409e-09
2.16105e-09
2.02509e-09
1.93879e-09
1.99079e-09
1.54371e-09
2.39625e-09
1.9836e-09
2.20613e-09
1.01794e-09
1.57108e-09
1.99814e-09
1.57103e-09
2.41688e-09
2.85843e-09
2.80134e-09
9.92943e-10
1.97516e-09
2.68317e-09
2.53235e-09
2.76496e-09
2.39179e-09
2.20259e-09
3.13962e-09
2.59983e-09
2.5715e-09
1.76331e-09
2.04978e-09
2.17132e-09
1.15453e-09
2.2354e-09
2.50886e-09
2.41193e-09
1.70353e-09
1.53743e-09
1.68508e-09
3.19044e-09
1.53959e-09
2.07578e-09
7.71055e-10
2.49872e-09
2.08804e-09
1.48609e-09
2.17856e-10
1.71882e-09
2.36941e-10
1.8968e-09
1.81784e-09
1.62669e-09
1.48375e-09
1.41202e-09
2.699e-09
2.23706e-09
2.15369e-09
1.82991e-09
1.75561e-09
1.47725e-09
2.55636e-09
2.59866e-09
2.34013e-09
2.05794e-09
2.08776e-09
1.56814e-09
3.11824e-09
2.00389e-09
1.05848e-09
1.41459e-09
2.79776e-09
2.62093e-09
1.91556e-09
1.82183e-09
1.17334e-09
1.88963e-09
1.90799e-09
1.65952e-09
3.02326e-09
3.11772e-09
2.67796e-09
2.94625e-09
2.31141e-09
1.30745e-09
2.91408e-09
1.27887e-09
1.64952e-09
1.35806e-09
2.78158e-09
2.71682e-09
2.73113e-09
1.82595e-09
1.10694e-09
1.22414e-09
2.0016e-09
2.44614e-09
1.10657e-09
1.52502e-09
2.35895e-09
1.78757e-09
2.88023e-09
1.42812e-09
2.35028e-09
2.133e-09
2.06225e-09
1.31814e-09
1.6847e-09
1.87842e-09
2.68414e-09
1.57485e-09
2.43033e-09
2.81476e-09
2.85966e-09
1.87112e-09
1.57081e-09
1.56189e-09
2.45365e-09
2.06001e-09
1.56176e-09
1.03352e-09
1.52536e-09
1.51712e-09
2.62722e-09
1.59197e-09
1.60953e-09
1.74359e-09
1.55137e-09
2.31598e-09
1.62477e-09
1.43866e-09
1.80805e-09
1.71649e-09
2.05659e-09
2.2908e-09
2.20519e-09
1.87305e-09
2.19978e-09
1.69229e-09
2.54885e-09
2.73561e-09
1.52528e-09
2.67948e-09
1.52466e-09
2.64625e-09
2.43266e-09
2.271e-09
2.31188e-09
2.70298e-09
1.28217e-09
1.67957e-09
1.56185e-09
2.72625e-09
2.68413e-09
2.48852e-09
2.71014e-09
2.75952e-09
2.31756e-09
2.84195e-09
1.90699e-09
1.72113e-09
3.10272e-09
1.81256e-09
2.81809e-09
2.24489e-09
1.43327e-09
1.72374e-09
2.81214e-09
2.3401e-09
2.13082e-09
2.7451e-09
2.69267e-09
1.74243e-09
1.72763e-09
1.67845e-09
2.38874e-09
2.63589e-09
3.02931e-09
2.9104e-09
3.1665e-09
2.86931e-09
3.13563e-09
2.63084e-09
2.74884e-09
2.77026e-09
2.6115e-09
2.7435e-09
2.52541e-09
2.48782e-09
1.76567e-09
2.37065e-09
2.77381e-09
1.92685e-09
2.82583e-09
2.59594e-09
3.00735e-09
1.80952e-09
2.86e-09
2.73395e-09
1.77697e-09
2.44935e-09
1.76497e-09
2.75238e-09
2.51281e-09
1.85009e-09
1.74138e-09
1.50618e-09
1.7326e-09
2.75616e-09
1.26482e-09
2.12441e-09
1.73492e-09
1.94648e-09
2.86269e-09
2.77093e-09
8.68881e-10
2.78101e-09
1.51494e-09
1.64228e-09
2.84708e-09
2.31435e-09
1.66164e-09
3.17647e-09
1.80705e-09
8.68883e-10
1.67936e-09
2.47115e-09
3.08462e-09
2.33868e-09
2.75117e-09
2.57664e-09
1.35245e-09
1.32572e-09
1.13406e-09
1.30201e-09
1.84329e-09
1.40994e-09
2.27132e-09
1.42156e-09
2.44592e-09
1.74685e-09
1.6819e-09
1.9671e-09
1.82923e-09
2.42965e-09
1.75407e-09
1.80511e-09
7.96472e-10
1.81835e-09
2.63017e-09
2.63205e-09
2.38402e-09
1.75069e-09
1.13981e-09
3.30961e-09
2.22383e-09
1.85728e-09
1.71225e-09
1.70482e-09
1.76603e-09
2.15152e-09
1.73438e-09
1.24239e-09
1.71164e-09
1.17419e-09
2.12026e-09
1.74627e-09
7.42358e-10
1.64474e-09
1.94458e-09
1.74634e-09
2.68693e-09
1.81349e-09
2.33851e-09
8.97182e-10
1.87707e-09
1.7931e-09
1.56577e-09
1.68333e-09
1.98633e-09
1.86948e-09
1.95502e-09
1.66271e-09
1.68886e-09
1.82377e-09
2.43781e-09
1.71983e-09
2.43641e-09
2.19941e-09
1.73569e-09
1.7842e-09
1.8013e-09
1.99227e-09
1.79833e-09
1.68386e-09
1.91345e-09
2.00644e-09
2.3688e-09
1.80092e-09
1.78931e-09
2.59018e-09
2.5539e-09
1.72113e-09
1.73607e-09
7.75658e-10
2.09752e-09
1.45567e-09
1.96883e-09
8.71195e-10
9.04345e-10
8.0818e-10
8.21412e-10
8.71427e-10
9.17992e-10
9.46024e-10
2.20874e-09
1.63444e-09
1.6492e-09
1.88556e-09
1.83681e-09
1.81389e-09
1.91858e-09
1.77512e-09
1.81556e-09
1.84565e-09
1.80716e-09
2.21876e-09
1.64316e-09
2.2807e-09
1.7747e-09
1.71322e-09
1.80944e-09
1.93046e-09
2.0173e-09
1.87947e-09
2.15238e-09
2.01092e-09
1.8648e-09
1.34482e-09
1.87555e-09
1.83396e-09
1.97451e-09
1.89173e-09
1.7925e-09
1.70468e-09
1.87773e-09
1.95858e-09
2.65872e-09
1.75612e-09
2.58492e-09
2.69456e-09
1.8452e-09
2.58154e-09
1.98041e-09
1.58647e-09
2.1609e-09
1.8941e-09
1.36395e-09
1.19837e-09
2.1334e-09
2.27223e-09
1.92369e-09
1.59919e-09
1.92381e-09
9.12403e-10
1.90195e-09
1.78459e-09
9.11386e-10
3.49144e-10
3.81933e-10
1.6475e-09
1.75685e-09
2.04041e-09
1.96146e-09
1.79497e-10
1.87557e-10
1.94244e-09
1.9627e-09
1.8579e-09
6.84864e-10
1.64391e-09
1.91096e-09
1.94859e-09
1.68087e-09
1.4836e-09
7.13208e-10
2.81425e-09
1.76786e-09
2.16e-09
2.19377e-09
1.57659e-09
1.99532e-09
1.54148e-09
1.70095e-09
8.45337e-10
1.27561e-09
1.9977e-09
2.01002e-09
1.72756e-09
1.81446e-09
1.87239e-09
1.97425e-09
1.88834e-09
9.31123e-10
1.65681e-09
1.8681e-09
1.76561e-09
2.64956e-09
9.30942e-10
1.43409e-09
1.47715e-09
1.39981e-09
9.10021e-10
9.10083e-10
1.60367e-09
1.29498e-09
1.85202e-09
9.96479e-10
1.08675e-09
3.54823e-10
3.54821e-10
7.43283e-10
1.17987e-09
7.94896e-10
1.57799e-09
1.70659e-09
1.82135e-09
2.05222e-09
1.86143e-09
1.72337e-09
1.35685e-09
8.39756e-10
1.70365e-09
1.76496e-09
1.70877e-09
9.43645e-10
8.71909e-10
6.79299e-10
1.70636e-09
1.7409e-09
1.39902e-09
1.58009e-09
1.45806e-09
1.33499e-09
1.78707e-09
1.33488e-09
1.5773e-09
1.5207e-09
9.32129e-10
1.15081e-09
1.07034e-09
1.88969e-09
7.47476e-10
7.87436e-10
7.70342e-10
1.78459e-09
7.11725e-10
6.9706e-10
1.24172e-09
6.50127e-10
1.44486e-09
1.44704e-09
6.67358e-10
1.57364e-09
7.40758e-10
7.36379e-10
8.29588e-10
7.02565e-10
6.89773e-10
1.02909e-09
8.19881e-10
7.4509e-10
7.04746e-10
1.44078e-09
1.64442e-09
7.75722e-10
1.59026e-09
6.39128e-10
1.61322e-09
1.28172e-09
6.67723e-10
5.65365e-10
6.30774e-10
8.36938e-10
1.38543e-09
1.14047e-09
4.77087e-10
5.29569e-10
1.54446e-09
4.49094e-10
4.4909e-10
5.08874e-10
5.71201e-10
6.4575e-10
7.5135e-10
1.24245e-09
1.15002e-09
1.54554e-09
4.5121e-10
4.51206e-10
1.35821e-09
5.58714e-10
1.10119e-09
5.06272e-10
5.09285e-10
6.71032e-10
1.1645e-09
1.20582e-09
1.28462e-09
1.17731e-09
1.16447e-09
2.54394e-10
1.87971e-09
3.24508e-10
3.14406e-10
1.51848e-09
1.50795e-09
3.25814e-10
2.26301e-10
3.18868e-10
1.40068e-09
SCALARS rr_uec(PEX,_P_ext) float
LOOKUP_TABLE default
-3.72504e-09
-8.4882e-09
-6.77885e-09
-8.86034e-09
-4.6329e-09
-7.19476e-09
-3.6832e-09
-8.81115e-09
-7.57618e-09
-9.53894e-09
-3.38073e-09
-8.83814e-09
-7.77776e-09
-8.21436e-09
-9.62385e-09
-8.07868e-09
-6.94808e-09
-7.85496e-09
-7.0361e-09
-6.8789e-09
-7.73799e-09
-1.37393e-09
-7.92835e-09
-7.30713e-09
-6.62362e-09
-7.64097e-09
-3.13197e-09
-6.71171e-09
-5.2675e-09
-6.20051e-09
-6.87118e-09
-5.44528e-09
-3.46948e-09
-4.64603e-09
-4.56628e-09
-4.6565e-09
-6.02813e-09
-4.57559e-09
-6.8642e-09
-3.89973e-09
-4.42752e-09
-5.31273e-09
-5.31329e-09
-7.54108e-09
-4.35321e-09
-4.80278e-09
-6.6214e-09
-6.70518e-09
-6.28343e-09
-6.01474e-09
-6.17613e-09
-4.78935e-09
-7.4359e-09
-6.1541e-09
-6.84591e-09
-3.15784e-09
-4.8755e-09
-6.19923e-09
-4.87534e-09
-7.49902e-09
-8.86947e-09
-8.69261e-09
-3.08026e-09
-6.12896e-09
-8.32593e-09
-7.85771e-09
-8.57944e-09
-7.4214e-09
-6.83412e-09
-9.74184e-09
-8.06764e-09
-7.97973e-09
-5.47047e-09
-6.3604e-09
-6.73718e-09
-3.58135e-09
-6.93662e-09
-7.78482e-09
-7.48386e-09
-5.28522e-09
-4.76958e-09
-5.22914e-09
-9.89985e-09
-4.77621e-09
-6.43994e-09
-2.39194e-09
-7.75305e-09
-6.47911e-09
-4.61007e-09
-6.76109e-10
-5.33263e-09
-7.3534e-10
-5.88594e-09
-5.64061e-09
-5.04681e-09
-4.60311e-09
-4.38053e-09
-8.37465e-09
-6.94177e-09
-6.68252e-09
-5.67749e-09
-5.44669e-09
-4.58282e-09
-7.93198e-09
-8.06329e-09
-7.26111e-09
-6.38574e-09
-6.47795e-09
-4.86478e-09
-9.67553e-09
-6.2176e-09
-3.28359e-09
-4.38839e-09
-8.681e-09
-8.1324e-09
-5.94305e-09
-5.65365e-09
-3.64008e-09
-5.86405e-09
-5.91956e-09
-5.1489e-09
-9.38129e-09
-9.67388e-09
-8.30957e-09
-9.14188e-09
-7.17243e-09
-4.05735e-09
-9.04204e-09
-3.96745e-09
-5.11764e-09
-4.21424e-09
-8.63086e-09
-8.43018e-09
-8.47434e-09
-5.66493e-09
-3.43514e-09
-3.79761e-09
-6.21066e-09
-7.5903e-09
-3.43398e-09
-4.73133e-09
-7.31956e-09
-5.54621e-09
-8.93702e-09
-4.43046e-09
-7.29258e-09
-6.61843e-09
-6.39877e-09
-4.08991e-09
-5.22691e-09
-5.82823e-09
-8.32855e-09
-4.88578e-09
-7.54092e-09
-8.73387e-09
-8.87313e-09
-5.80593e-09
-4.8734e-09
-4.84574e-09
-7.61327e-09
-6.39165e-09
-4.84517e-09
-3.20617e-09
-4.73219e-09
-4.70681e-09
-8.15194e-09
-4.93906e-09
-4.99354e-09
-5.40927e-09
-4.81307e-09
-7.18668e-09
-5.04084e-09
-4.46324e-09
-5.61022e-09
-5.3254e-09
-6.38155e-09
-7.10854e-09
-6.8424e-09
-5.81234e-09
-6.82564e-09
-5.25014e-09
-7.90876e-09
-8.48825e-09
-4.73212e-09
-8.31431e-09
-4.73002e-09
-8.21117e-09
-7.54851e-09
-7.04712e-09
-7.17349e-09
-8.38722e-09
-3.97771e-09
-5.21087e-09
-4.84546e-09
-8.45918e-09
-8.32841e-09
-7.72149e-09
-8.40945e-09
-8.56242e-09
-7.19123e-09
-8.81822e-09
-5.91677e-09
-5.33984e-09
-9.62761e-09
-5.62327e-09
-8.74444e-09
-6.96577e-09
-4.44663e-09
-5.34883e-09
-8.72573e-09
-7.26144e-09
-6.61173e-09
-8.51766e-09
-8.35527e-09
-5.40602e-09
-5.36069e-09
-5.20743e-09
-7.41224e-09
-8.17889e-09
-9.39961e-09
-9.03059e-09
-9.82528e-09
-8.90314e-09
-9.72947e-09
-8.16321e-09
-8.52978e-09
-8.59623e-09
-8.10359e-09
-8.51319e-09
-7.83668e-09
-7.72002e-09
-5.47813e-09
-7.35585e-09
-8.60666e-09
-5.9785e-09
-8.7687e-09
-8.05535e-09
-9.33132e-09
-5.61406e-09
-8.87411e-09
-8.4831e-09
-5.5132e-09
-7.60042e-09
-5.47598e-09
-8.54056e-09
-7.79682e-09
-5.74008e-09
-5.4027e-09
-4.67263e-09
-5.37504e-09
-8.55227e-09
-3.92385e-09
-6.59168e-09
-5.38263e-09
-6.03928e-09
-8.88245e-09
-8.59789e-09
-2.69642e-09
-8.62915e-09
-4.69978e-09
-5.09523e-09
-8.83401e-09
-7.18108e-09
-5.15526e-09
-9.85623e-09
-5.60668e-09
-2.69642e-09
-5.21026e-09
-7.6677e-09
-9.5714e-09
-7.25656e-09
-8.53701e-09
-7.99519e-09
-4.19684e-09
-4.11348e-09
-3.51808e-09
-4.03904e-09
-5.71995e-09
-4.37472e-09
-7.04757e-09
-4.41052e-09
-7.58978e-09
-5.42033e-09
-5.21815e-09
-6.10377e-09
-5.67541e-09
-7.53891e-09
-5.44222e-09
-5.60038e-09
-2.47178e-09
-5.6425e-09
-8.16155e-09
-8.16737e-09
-7.39733e-09
-5.43174e-09
-3.53708e-09
-1.02695e-08
-6.89996e-09
-5.76246e-09
-5.31242e-09
-5.29026e-09
-5.47926e-09
-6.67634e-09
-5.38112e-09
-3.85406e-09
-5.31057e-09
-3.64271e-09
-6.57913e-09
-5.41796e-09
-2.30384e-09
-5.10298e-09
-6.03396e-09
-5.41814e-09
-8.33741e-09
-5.62656e-09
-7.25594e-09
-2.78319e-09
-5.82413e-09
-5.56325e-09
-4.85876e-09
-5.22267e-09
-6.16307e-09
-5.80091e-09
-6.06618e-09
-5.15874e-09
-5.23991e-09
-5.65856e-09
-7.56451e-09
-5.33597e-09
-7.55983e-09
-6.82434e-09
-5.3861e-09
-5.53572e-09
-5.58883e-09
-6.18154e-09
-5.57962e-09
-5.22437e-09
-5.93681e-09
-6.22603e-09
-7.35003e-09
-5.58766e-09
-5.55148e-09
-8.03705e-09
-7.92448e-09
-5.34e-09
-5.38726e-09
-2.40598e-09
-6.50822e-09
-4.51593e-09
-6.10882e-09
-2.70178e-09
-2.80459e-09
-2.50636e-09
-2.5474e-09
-2.7025e-09
-2.84692e-09
-2.93386e-09
-6.8537e-09
-5.07199e-09
-5.11719e-09
-5.85039e-09
-5.69901e-09
-5.6279e-09
-5.95311e-09
-5.5076e-09
-5.63306e-09
-5.72743e-09
-5.60703e-09
-6.8849e-09
-5.09789e-09
-7.07705e-09
-5.50653e-09
-5.31567e-09
-5.6141e-09
-5.99044e-09
-6.25931e-09
-5.83149e-09
-6.67844e-09
-6.23935e-09
-5.78584e-09
-4.17232e-09
-5.81932e-09
-5.69041e-09
-6.12698e-09
-5.86944e-09
-5.5615e-09
-5.28906e-09
-5.82608e-09
-6.07708e-09
-8.24969e-09
-5.44866e-09
-8.0207e-09
-8.36064e-09
-5.72516e-09
-8.01015e-09
-6.1448e-09
-4.92229e-09
-6.70518e-09
-5.87691e-09
-4.23259e-09
-3.71753e-09
-6.61994e-09
-7.05078e-09
-5.96883e-09
-4.9619e-09
-5.96945e-09
-2.83016e-09
-5.90136e-09
-5.53713e-09
-2.82725e-09
-1.08354e-09
-1.18529e-09
-5.11188e-09
-5.45091e-09
-6.33089e-09
-6.0858e-09
-5.57084e-10
-5.82096e-10
-6.02711e-09
-6.08999e-09
-5.7648e-09
-2.12437e-09
-5.10047e-09
-5.92964e-09
-6.04595e-09
-5.21526e-09
-4.6032e-09
-2.21226e-09
-8.73248e-09
-5.48507e-09
-6.70207e-09
-6.80686e-09
-4.89172e-09
-6.19096e-09
-4.78278e-09
-5.27759e-09
-2.62229e-09
-3.95733e-09
-6.19833e-09
-6.23671e-09
-5.36018e-09
-5.62974e-09
-5.80954e-09
-6.12563e-09
-5.85904e-09
-2.88848e-09
-5.14116e-09
-5.79609e-09
-5.47858e-09
-8.22146e-09
-2.88791e-09
-4.44968e-09
-4.5833e-09
-4.34381e-09
-2.82415e-09
-2.82434e-09
-4.97634e-09
-4.01788e-09
-5.74646e-09
-3.09121e-09
-3.37259e-09
-1.10121e-09
-1.1012e-09
-2.30554e-09
-3.66144e-09
-2.4668e-09
-4.89618e-09
-5.29569e-09
-5.65136e-09
-6.36778e-09
-5.77595e-09
-5.34758e-09
-4.21013e-09
-2.60481e-09
-5.28613e-09
-5.47655e-09
-5.30225e-09
-2.92719e-09
-2.70577e-09
-2.10728e-09
-5.29477e-09
-5.40182e-09
-4.3406e-09
-4.90276e-09
-4.52415e-09
-4.14268e-09
-5.54504e-09
-4.14232e-09
-4.89404e-09
-4.7187e-09
-2.89266e-09
-3.57132e-09
-3.32035e-09
-5.86352e-09
-2.31857e-09
-2.44254e-09
-2.38948e-09
-5.5375e-09
-2.20768e-09
-2.16215e-09
-3.8527e-09
-2.0166e-09
-4.48368e-09
-4.49046e-09
-2.07006e-09
-4.88261e-09
-2.29789e-09
-2.28415e-09
-2.57343e-09
-2.17926e-09
-2.13971e-09
-3.19354e-09
-2.54335e-09
-2.31117e-09
-2.18603e-09
-4.47054e-09
-5.10264e-09
-2.40632e-09
-4.93436e-09
-1.98246e-09
-5.00563e-09
-3.97686e-09
-2.07118e-09
-1.75377e-09
-1.95656e-09
-2.59604e-09
-4.2987e-09
-3.53913e-09
-1.48065e-09
-1.64352e-09
-4.7923e-09
-1.39377e-09
-1.39376e-09
-1.57929e-09
-1.77268e-09
-2.00319e-09
-2.33165e-09
-3.85544e-09
-3.56877e-09
-4.79562e-09
-1.40031e-09
-1.4003e-09
-4.21485e-09
-1.73303e-09
-3.41672e-09
-1.57038e-09
-1.57986e-09
-2.08162e-09
-3.61385e-09
-3.74209e-09
-3.9866e-09
-3.65359e-09
-3.61376e-09
-7.89514e-10
-5.8334e-09
-1.00709e-09
-9.75767e-10
-4.71239e-09
-4.6797e-09
-1.01117e-09
-7.02328e-10
-9.89593e-10
-4.34679e-09
SCALARS cell_type float
LOOKUP_TABLE default
0
0
0
0
0
0
0
0
0
0
0
0
0
0
0
0
0
0
0
0
0
1
0
0
0
0
0
0
0
0
0
0
0
0
0
0
0
0
0
0
0
0
0
0
0
0
0
0
0
0
0
0
0
0
0
0
0
0
0
0
0
0
0
0
0
0
0
0
0
0
0
0
0
0
0
0
0
0
0
0
0
0
0
0
0
0
0
0
0
0
0
0
0
0
0
0
0
0
0
0
0
0
0
0
0
0
0
0
0
0
0
0
0
0
0
0
0
0
0
0
0
0
0
0
0
0
0
0
0
0
0
0
0
0
0
0
0
0
0
0
0
0
0
0
0
0
0
0
0
0
0
0
0
0
0
0
0
0
0
0
0
0
0
0
0
0
0
0
0
0
0
0
0
0
0
0
0
0
0
0
0
0
0
0
0
0
0
0
0
0
0
0
0
0
0
0
0
0
0
0
0
0
0
0
0
0
0
0
0
0
0
0
0
0
0
0
0
0
0
0
0
0
0
0
0
0
0
0
0
0
0
0
0
0
0
0
0
0
0
0
0
0
0
0
0
0
0
0
0
0
0
0
0
0
0
0
0
0
0
0
0
0
0
0
0
0
0
0
0
0
0
0
0
0
0
0
0
0
0
0
0
0
0
0
0
0
0
0
0
0
0
0
0
0
0
0
0
0
0
0
0
0
0
0
0
0
0
0
0
0
0
0
0
0
0
0
0
0
0
0
0
0
0
0
0
0
0
0
0
0
0
0
0
0
0
0
0
0
0
0
0
0
0
0
0
0
0
0
0
0
2
2
2
2
2
2
2
0
0
0
0
0
0
0
0
0
0
0
0
0
0
0
0
0
0
0
0
0
0
0
0
0
0
0
0
0
0
0
0
0
0
0
0
0
0
0
0
0
0
0
0
0
0
0
0
0
0
0
0
0
0
0
0
0
0
0
1
1
0
0
0
0
0
0
0
0
0
0
0
0
0
0
0
0
0
0
0
0
0
0
0
0
0
0
0
0
0
0
0
0
0
0
0
0
0
0
0
0
0
0
0
1
1
0
0
0
0
0
0
0
0
0
0
0
0
0
0
0
0
0
0
0
0
0
0
0
0
0
0
0
0
0
0
0
0
0
0
0
0
0
0
0
0
0
0
0
0
0
0
0
0
0
0
0
0
0
0
0
0
0
0
0
0
0
0
0
0
0
1
1
0
1
1
1
0
0
0
0
0
0
0
0
0
0
0
0
0
0
0
0
0
0
0
1
0
0
1
0
0
1
1
0
0
TENSORS Lagrange_strain float
0.0305246 -0.00319482 -1.26689e-07
-0.00319482 0.0133712 -2.42797e-07
-1.26689e-07 -2.42797e-07 0.00739037

0.0291407 -0.00279395 1.85049e-08
-0.00279395 0.0334908 -1.69123e-07
1.85049e-08 -1.69123e-07 0.033101

0.0299671 0.00366991 2.73942e-07
0.00366991 0.0311124 5.55162e-08
2.73942e-07 5.55162e-08 0.0304118

0.0291099 -0.00391502 7.16524e-08
-0.00391502 0.0327379 -1.51181e-07
7.16524e-08 -1.51181e-07 0.0330261

0.0352991 0.00266279 1.12933e-07
0.00266279 0.0380101 -8.31442e-08
1.12933e-07 -8.31442e-08 0.0352245

0.0276868 -0.00236129 2.91468e-08
-0.00236129 0.0333214 1.53842e-07
2.91468e-08 1.53842e-07 0.030383

0.0302188 0.00339025 -1.30318e-07
0.00339025 0.0134767 -8.68086e-08
-1.30318e-07 -8.68086e-08 0.00745172

0.0316958 0.00392988 -6.16449e-08
0.00392988 0.0311428 -1.87182e-08
-6.16449e-08 -1.87182e-08 0.031502

0.0331797 0.000713577 6.51175e-10
0.000713577 0.0261766 2.53574e-08
6.51175e-10 2.53574e-08 0.0280915

0.0353991 -0.000988447 1.28118e-07
-0.000988447 0.0275031 6.03688e-08
1.28118e-07 6.03688e-08 0.0326596

0.0280167 0.00204689 -1.1211e-07
0.00204689 0.0137899 -3.57735e-08
-1.1211e-07 -3.57735e-08 0.0117351

0.0279042 -0.00176139 -4.25698e-08
-0.00176139 0.0349399 -7.3611e-08
-4.25698e-08 -7.3611e-08 0.0314907

0.031064 0.00364798 1.02e-07
0.00364798 0.0312429 -1.86422e-07
1.02e-07 -1.86422e-07 0.0310221

0.0290173 -0.00187525 1.37813e-07
-0.00187525 0.0347329 1.06861e-07
1.37813e-07 1.06861e-07 0.0324855

0.0345656 0.00440722 3.59246e-09
0.00440722 0.0342973 9.25751e-08
3.59246e-09 9.25751e-08 0.034818

0.0342628 7.30422e-05 8.68612e-08
7.30422e-05 0.0272385 7.50743e-08
8.68612e-08 7.50743e-08 0.0307217

0.028642 -0.00234775 1.242e-07
-0.00234775 0.0359446 5.95413e-08
1.242e-07 5.95413e-08 0.033387

0.0345078 -0.000352284 6.77319e-08
-0.000352284 0.0273087 1.35905e-07
6.77319e-08 1.35905e-07 0.0319175

0.0268736 0.00346973 -5.28625e-08
0.00346973 0.0308886 1.50737e-07
-5.28625e-08 1.50737e-07 0.0275273

0.0338206 -0.000549057 4.15309e-08
-0.000549057 0.026364 9.61999e-09
4.15309e-08 9.61999e-09 0.030079

0.0265762 0.00113237 -1.62837e-08
0.00113237 0.0339697 -1.60341e-08
-1.62837e-08 -1.60341e-08 0.029097

0.0452014 0.000849596 4.46069e-07
0.000849596 0.0451719 -1.14139e-07
4.46069e-07 -1.14139e-07 0.0365671

0.0336117 0.000246823 2.4289e-09
0.000246823 0.0262703 2.52097e-08
2.4289e-09 2.52097e-08 0.0297507

0.0292571 -0.00362309 -1.80174e-07
-0.00362309 0.0310788 -7.82657e-08
-1.80174e-07 -7.82657e-08 0.0299917

0.0337164 0.000897916 5.10175e-08
0.000897916 0.0264509 1.61801e-07
5.10175e-08 1.61801e-07 0.0300261

0.0284955 0.00250146 -9.34099e-09
0.00250146 0.0338301 1.57559e-07
-9.34099e-09 1.57559e-07 0.0322266

0.0285836 0.00052554 -8.32342e-08
0.00052554 0.0176641 -9.6118e-08
-8.32342e-08 -9.6118e-08 0.0131506

0.0308575 0.00402437 -7.02799e-08
0.00402437 0.0305905 1.97404e-07
-7.02799e-08 1.97404e-07 0.0305544

0.0258811 0.00476548 -1.11726e-07
0.00476548 0.0256897 1.77571e-07
-1.11726e-07 1.77571e-07 0.0210925

0.0414458 0.00136662 8.58877e-09
0.00136662 0.0382744 -5.71689e-08
8.58877e-09 -5.71689e-08 0.0360654

0.0343455 0.00186637 -1.05679e-07
0.00186637 0.0279033 -1.18059e-07
-1.05679e-07 -1.18059e-07 0.0309427

0.0217254 -0.00228269 -2.51924e-08
-0.00228269 0.0299395 1.57818e-07
-2.51924e-08 1.57818e-07 0.0210894

0.0228282 -0.00534261 1.24593e-07
-0.00534261 0.0234368 1.9991e-07
1.24593e-07 1.9991e-07 0.0125592

0.0347661 0.000798366 -1.90163e-07
0.000798366 0.0421699 1.02492e-07
-1.90163e-07 1.02492e-07 0.0357173

0.0373802 -0.0006599 -8.64198e-09
-0.0006599 0.0411204 2.82959e-07
-8.64198e-09 2.82959e-07 0.0358316

0.040993 0.00280575 2.36065e-07
0.00280575 0.0359169 1.14326e-07
2.36065e-07 1.14326e-07 0.0356976

0.0371812 0.00070372 7.0007e-08
0.00070372 0.0431276 -3.4798e-08
7.0007e-08 -3.4798e-08 0.0360717

0.0401812 -0.0012157 8.44494e-09
-0.0012157 0.0377564 -6.50372e-08
8.44494e-09 -6.50372e-08 0.0357392

0.0311583 -0.00366873 1.66612e-07
-0.00366873 0.0310663 -5.73444e-08
1.66612e-07 -5.73444e-08 0.0308684

0.0227124 0.00526931 -2.80364e-07
0.00526931 0.0236725 -1.63696e-07
-2.80364e-07 -1.63696e-07 0.0125613

0.0297088 -0.00231058 2.51978e-07
-0.00231058 0.0219961 -5.93684e-08
2.51978e-07 -5.93684e-08 0.0208398

0.0375457 -0.000521684 -1.34545e-07
-0.000521684 0.0429768 -6.0123e-08
-1.34545e-07 -6.0123e-08 0.0360745

0.0411581 0.00262764 -2.15984e-07
0.00262764 0.039337 -1.8011e-08
-2.15984e-07 -1.8011e-08 0.036057

0.034236 -0.00161322 7.59626e-08
-0.00161322 0.0279452 -1.35585e-07
7.59626e-08 -1.35585e-07 0.0310265

0.0230688 -0.00551437 1.23722e-07
-0.00551437 0.0235249 2.02049e-07
1.23722e-07 2.02049e-07 0.0161899

0.0298905 -0.00232715 -1.83335e-07
-0.00232715 0.0221202 1.26122e-07
-1.83335e-07 1.26122e-07 0.0213082

0.0258496 0.00222192 5.08517e-08
0.00222192 0.0325935 -1.56602e-07
5.08517e-08 -1.56602e-07 0.0278652

0.0275028 0.00252265 3.98616e-08
0.00252265 0.0323139 1.21263e-08
3.98616e-08 1.21263e-08 0.0284394

0.0341109 -0.0021354 1.41192e-07
-0.0021354 0.0270602 -7.30271e-08
1.41192e-07 -7.30271e-08 0.0304161

0.0228657 -0.00438267 5.50779e-08
-0.00438267 0.0272022 -9.99682e-08
5.50779e-08 -9.99682e-08 0.0198173

0.0294424 0.00246604 1.3192e-07
0.00246604 0.0217998 7.24912e-08
1.3192e-07 7.24912e-08 0.020247

0.0298194 -0.0032631 8.82314e-08
-0.0032631 0.0244728 1.73213e-07
8.82314e-08 1.73213e-07 0.0230087

0.0344121 0.00257147 1.83207e-07
0.00257147 0.0381284 -6.83182e-09
1.83207e-07 -6.83182e-09 0.0352033

0.0286387 0.00382971 -3.3707e-08
0.00382971 0.0257362 1.75889e-07
-3.3707e-08 1.75889e-07 0.0230771

0.0348619 -0.00290865 -2.15043e-07
-0.00290865 0.0373598 -9.95888e-08
-2.15043e-07 -9.95888e-08 0.0351218

0.0255392 -0.00544463 -1.78217e-07
-0.00544463 0.0228661 5.23043e-08
-1.78217e-07 5.23043e-08 0.0157941

0.0372739 0.000743931 2.65637e-07
0.000743931 0.0413295 2.754e-08
2.65637e-07 2.754e-08 0.035852

0.0231302 -0.000691773 -5.66255e-08
-0.000691773 0.0312569 1.04144e-07
-5.66255e-08 1.04144e-07 0.0230631

0.0409474 0.00137667 -8.72711e-08
0.00137667 0.0376333 9.09348e-08
-8.72711e-08 9.09348e-08 0.0358303

0.0276274 0.00279813 1.02943e-08
0.00279813 0.0326881 -9.40399e-08
1.02943e-08 -9.40399e-08 0.0301757

0.0360699 0.000782847 1.47893e-07
0.000782847 0.0280821 -2.28641e-09
1.47893e-07 -2.28641e-09 0.0336095

0.0361849 0.00153043 1.60488e-07
0.00153043 0.0316347 1.21288e-07
1.60488e-07 1.21288e-07 0.0341558

0.028592 0.00405013 -1.38498e-07
0.00405013 0.0198677 -1.59669e-07
-1.38498e-07 -1.59669e-07 0.0137374

0.0309159 -0.000782102 2.06563e-08
-0.000782102 0.0370129 -4.98579e-09
2.06563e-08 -4.98579e-09 0.0338175

0.0314969 0.00124047 1.95696e-07
0.00124047 0.0363505 -2.58775e-08
1.95696e-07 -2.58775e-08 0.0341945

0.0284984 -0.00037437 5.73231e-08
-0.00037437 0.0368845 1.86862e-07
5.73231e-08 1.86862e-07 0.0326095

0.0295496 0.00306364 7.23622e-08
0.00306364 0.0347249 6.4338e-08
7.23622e-08 6.4338e-08 0.0336452

0.0346531 0.00111909 -6.74777e-08
0.00111909 0.0277899 -1.1533e-07
-6.74777e-08 -1.1533e-07 0.0321485

0.0291353 -0.00368965 2.12769e-07
-0.00368965 0.0309642 -3.21917e-08
2.12769e-07 -3.21917e-08 0.0298549

0.0349881 -0.000236206 -1.01322e-07
-0.000236206 0.0275319 5.60391e-08
-1.01322e-07 5.60391e-08 0.0333302

0.0343868 -0.00254148 1.20145e-07
-0.00254148 0.0380594 -1.96411e-07
1.20145e-07 -1.96411e-07 0.0351933

0.0349439 0.00284259 3.16271e-08
0.00284259 0.0374967 8.4684e-08
3.16271e-08 8.4684e-08 0.0351732

0.0218542 -0.00212679 -1.92315e-07
-0.00212679 0.0298697 7.34943e-08
-1.92315e-07 7.34943e-08 0.0208163

0.0346351 -0.00368153 -2.78123e-07
-0.00368153 0.031899 1.41591e-07
-2.78123e-07 1.41591e-07 0.0330168

0.0292396 -0.00328897 7.18538e-08
-0.00328897 0.0320534 -2.80995e-07
7.18538e-08 -2.80995e-07 0.0303775

0.0267371 -0.00400938 -1.80315e-07
-0.00400938 0.0175798 -1.98475e-07
-1.80315e-07 -1.98475e-07 0.012706

0.0323439 0.000417836 -6.31266e-08
0.000417836 0.0380303 4.4004e-09
-6.31266e-08 4.4004e-09 0.0343404

0.034472 0.00380788 -1.78752e-08
0.00380788 0.0308851 1.17783e-07
-1.78752e-08 1.17783e-07 0.0325991

0.0283265 0.00257498 -1.14239e-07
0.00257498 0.0340651 -1.05675e-07
-1.14239e-07 -1.05675e-07 0.0321537

0.0314847 0.00103539 -1.1252e-07
0.00103539 0.0228073 -2.50332e-09
-1.1252e-07 -2.50332e-09 0.0240277

0.0270517 -0.00434944 -1.3693e-07
-0.00434944 0.0236988 1.79553e-07
-1.3693e-07 1.79553e-07 0.0182935

0.0361901 -0.00139907 -1.78078e-08
-0.00139907 0.0386666 -2.21966e-07
-1.78078e-08 -2.21966e-07 0.0353333

0.0314979 0.00316298 -1.6974e-08
0.00316298 0.0343362 9.2822e-08
-1.6974e-08 9.2822e-08 0.0340257

0.0272555 -0.00414718 -5.70684e-08
-0.00414718 0.0221399 2.30921e-08
-5.70684e-08 2.30921e-08 0.0183812

0.0303048 0.00138795 1.7468e-07
0.00138795 0.0227938 -8.14032e-09
1.7468e-07 -8.14032e-09 0.0209193

0.0185746 -0.00269143 1.75859e-08
-0.00269143 0.0288801 1.34726e-07
1.75859e-08 1.34726e-07 0.0158675

0.0271528 0.00188411 -3.36554e-08
0.00188411 0.034255 -5.77236e-08
-3.36554e-08 -5.77236e-08 0.0305982

0.0353142 0.00304885 -4.7384e-08
0.00304885 0.0307637 -2.43332e-07
-4.7384e-08 -2.43332e-07 0.0326923

0.0226122 0.00537474 8.79381e-08
0.00537474 0.0240499 2.62386e-07
8.79381e-08 2.62386e-07 0.0161724

0.0458546 0.00223196 -5.10041e-08
0.00223196 0.0416666 1.07556e-08
-5.10041e-08 1.07556e-08 0.0365679

0.0230442 -0.000533136 -1.78249e-07
-0.000533136 0.0312975 1.04187e-07
-1.78249e-07 1.04187e-07 0.023033

0.0462662 -0.00225018 5.30591e-07
-0.00225018 0.0412118 1.55801e-07
5.30591e-07 1.55801e-07 0.0365232

0.0369933 -0.00361508 -1.50144e-07
-0.00361508 0.0334281 -2.1158e-07
-1.50144e-07 -2.1158e-07 0.0345549

0.0350701 0.00361023 -8.95931e-08
0.00361023 0.0299498 -8.70877e-08
-8.95931e-08 -8.70877e-08 0.0323958

0.0299087 -0.00315142 5.76534e-08
-0.00315142 0.0246495 -2.50411e-07
5.76534e-08 -2.50411e-07 0.023246

0.0229753 0.0040207 -1.52743e-08
0.0040207 0.0277312 -3.10096e-07
-1.52743e-08 -3.10096e-07 0.020348

0.0210612 -0.0013757 6.77459e-08
-0.0013757 0.029844 -9.12414e-08
6.77459e-08 -9.12414e-08 0.0182216

0.0286947 0.00288176 7.71615e-08
0.00288176 0.0341627 -7.16235e-08
7.71615e-08 -7.16235e-08 0.0326384

0.0369401 0.00223054 -4.74718e-08
0.00223054 0.0333893 -2.69465e-07
-4.74718e-08 -2.69465e-07 0.0343188

0.0280989 0.00198317 -8.77444e-08
0.00198317 0.0339953 2.99117e-08
-8.77444e-08 2.99117e-08 0.0308086

0.0318242 0.00206788 -3.197e-08
0.00206788 0.0252117 1.2415e-07
-3.197e-08 1.2415e-07 0.0255726

0.0238686 -0.00276817 1.65992e-07
-0.00276817 0.0297127 1.11207e-07
1.65992e-07 1.11207e-07 0.0215251

0.0278516 -0.00375559 -2.49933e-07
-0.00375559 0.0217808 -9.85333e-08
-2.49933e-07 -9.85333e-08 0.0180463

0.0292789 -0.00322389 1.07327e-07
-0.00322389 0.0325693 1.45313e-07
1.07327e-07 1.45313e-07 0.0323423

0.0305705 0.00360574 1.73675e-07
0.00360574 0.032169 -8.23242e-08
1.73675e-07 -8.23242e-08 0.0323102

0.0286571 0.00304042 1.0802e-07
0.00304042 0.0339629 1.72346e-07
1.0802e-07 1.72346e-07 0.032569

0.0291546 0.00172094 9.56944e-08
0.00172094 0.0375441 -7.95863e-08
9.56944e-08 -7.95863e-08 0.033782

0.034412 0.00122952 3.9726e-08
0.00122952 0.0274757 7.24758e-08
3.9726e-08 7.24758e-08 0.0306183

0.0199305 -0.000604 -6.77272e-08
-0.000604 0.0296098 -1.11907e-07
-6.77272e-08 -1.11907e-07 0.0180742

0.0297433 -0.00485068 -1.23003e-07
-0.00485068 0.0329875 1.89546e-08
-1.23003e-07 1.89546e-08 0.0336777

0.0290292 0.0035909 -1.27424e-07
0.0035909 0.0313021 -1.53073e-07
-1.27424e-07 -1.53073e-07 0.0302085

0.0180791 0.000282489 -1.45173e-07
0.000282489 0.0292606 -4.44953e-08
-1.45173e-07 -4.44953e-08 0.016851

0.0277966 0.00441435 1.50257e-07
0.00441435 0.0209354 6.76621e-08
1.50257e-07 6.76621e-08 0.0174262

0.0291389 -0.0030128 -2.18349e-08
-0.0030128 0.0326422 1.09151e-07
-2.18349e-08 1.09151e-07 0.0321252

0.0351748 0.000757608 -1.46533e-07
0.000757608 0.027291 3.41189e-08
-1.46533e-07 3.41189e-08 0.0324917

0.0293751 0.00351186 1.79285e-07
0.00351186 0.0251589 -1.25842e-07
1.79285e-07 -1.25842e-07 0.0230715

0.0395574 0.00170587 -1.56692e-07
0.00170587 0.0389619 -2.10375e-07
-1.56692e-07 -2.10375e-07 0.0358706

0.0283267 0.00311668 -1.28139e-07
0.00311668 0.0223658 -8.4864e-08
-1.28139e-07 -8.4864e-08 0.0182564

0.0394105 -0.00174625 -1.18338e-07
-0.00174625 0.0389876 7.0258e-09
-1.18338e-07 7.0258e-09 0.0358358

0.0232233 0.000103364 1.27599e-08
0.000103364 0.031461 1.13116e-07
1.27599e-08 1.13116e-07 0.0230799

0.0326979 -0.000287732 -4.22476e-08
-0.000287732 0.0246189 -1.91171e-08
-4.22476e-08 -1.91171e-08 0.0269182

0.0379795 -0.00212381 7.29147e-08
-0.00212381 0.0304082 2.15864e-07
7.29147e-08 2.15864e-07 0.0347266

0.0291858 0.00319784 6.36134e-08
0.00319784 0.0332154 -1.01229e-07
6.36134e-08 -1.01229e-07 0.0332798

0.0288989 -0.00176813 4.0403e-08
-0.00176813 0.0365379 1.67196e-07
4.0403e-08 1.67196e-07 0.0334362

0.036513 -0.00108215 3.28332e-08
-0.00108215 0.0264309 -1.54567e-07
3.28332e-08 -1.54567e-07 0.0337957

0.0311228 -0.00291869 3.0469e-08
-0.00291869 0.0382304 -2.04381e-07
3.0469e-08 -2.04381e-07 0.0347769

0.0380904 -0.000882742 -1.46059e-07
-0.000882742 0.0386548 -9.53001e-08
-1.46059e-07 -9.53001e-08 0.0357661

0.0301252 -0.00392988 -7.74307e-08
-0.00392988 0.0326495 1.0943e-07
-7.74307e-08 1.0943e-07 0.0327016

0.0212995 0.00146656 3.30586e-08
0.00146656 0.0295626 5.73493e-08
3.30586e-08 5.73493e-08 0.0182655

0.0293358 -0.00363724 -7.13208e-10
-0.00363724 0.0253068 -3.11526e-08
-7.13208e-10 -3.11526e-08 0.023142

0.0327978 -0.00181243 -1.99696e-07
-0.00181243 0.0396391 -1.44219e-07
-1.99696e-07 -1.44219e-07 0.0351732

0.035024 7.63288e-05 5.51774e-10
7.63288e-05 0.0271747 4.68333e-08
5.51774e-10 4.68333e-08 0.0331884

0.0307619 -0.0028219 9.97118e-08
-0.0028219 0.0348249 6.77489e-08
9.97118e-08 6.77489e-08 0.0340192

0.0294812 0.00338027 1.55819e-08
0.00338027 0.0328103 -9.57967e-08
1.55819e-08 -9.57967e-08 0.0332629

0.026415 -0.00405408 -8.16046e-09
-0.00405408 0.0272148 -1.01508e-07
-8.16046e-09 -1.01508e-07 0.0215478

0.0370999 -0.000955632 -3.56597e-08
-0.000955632 0.0415263 1.28044e-07
-3.56597e-08 1.28044e-07 0.0358171

0.0226749 -0.0042291 3.55673e-08
-0.0042291 0.0271983 -6.8773e-08
3.55673e-08 -6.8773e-08 0.0168499

0.0341184 -0.00251836 1.41713e-07
-0.00251836 0.0285556 -1.17433e-07
1.41713e-07 -1.17433e-07 0.0309868

0.036355 0.000289316 -5.44361e-08
0.000289316 0.0293844 1.43353e-07
-5.44361e-08 1.43353e-07 0.0341286

0.039562 0.00239024 1.90737e-07
0.00239024 0.0390353 1.69398e-07
1.90737e-07 1.69398e-07 0.0357981

0.023817 0.00260331 -2.35171e-07
0.00260331 0.0300982 9.35518e-08
-2.35171e-07 9.35518e-08 0.0217617

0.0333676 0.00357229 -1.28662e-07
0.00357229 0.0306589 2.12328e-07
-1.28662e-07 2.12328e-07 0.0317079

0.0315848 -0.00318646 1.51113e-07
-0.00318646 0.026506 2.99814e-08
1.51113e-07 2.99814e-08 0.0268873

0.0288775 -0.00233506 -5.82572e-08
-0.00233506 0.0341697 -4.77676e-08
-5.82572e-08 -4.77676e-08 0.0325446

0.0262008 0.0044921 -2.08264e-07
0.0044921 0.0245177 5.67649e-08
-2.08264e-07 5.67649e-08 0.0180513

0.0283723 -0.0028595 -1.71569e-07
-0.0028595 0.0339677 -3.46086e-08
-1.71569e-07 -3.46086e-08 0.0323881

0.0330867 0.00404835 2.37066e-08
0.00404835 0.0304089 -2.60359e-07
2.37066e-08 -2.60359e-07 0.0314835

0.0332722 -0.00330351 1.46493e-08
-0.00330351 0.0283066 -3.63821e-08
1.46493e-08 -3.63821e-08 0.0299906

0.0291088 -0.00328697 6.74785e-08
-0.00328697 0.0319286 1.76856e-07
6.74785e-08 1.76856e-07 0.0303812

0.0313977 -0.00242348 5.56058e-08
-0.00242348 0.0246775 1.68954e-07
5.56058e-08 1.68954e-07 0.0251121

0.0328938 -0.00246051 -1.72151e-08
-0.00246051 0.0266632 9.53088e-09
-1.72151e-08 9.53088e-09 0.0285447

0.0294383 -0.00333335 4.10996e-08
-0.00333335 0.0328887 -1.17982e-07
4.10996e-08 -1.17982e-07 0.0333441

0.0260895 0.00462326 -1.41103e-07
0.00462326 0.0254982 -1.06441e-08
-1.41103e-07 -1.06441e-08 0.0210568

0.0281002 0.00201174 -8.76996e-08
0.00201174 0.0342706 -6.72638e-08
-8.76996e-08 -6.72638e-08 0.0310518

0.0308297 0.00347237 -2.4881e-08
0.00347237 0.0321952 4.57244e-08
-2.4881e-08 4.57244e-08 0.0325389

0.029105 0.00333966 -2.16629e-08
0.00333966 0.0331295 -1.11292e-07
-2.16629e-08 -1.11292e-07 0.0331976

0.0289324 0.00151915 -2.27997e-07
0.00151915 0.0354027 -1.11145e-08
-2.27997e-07 -1.11145e-08 0.0326341

0.0309974 -0.00105934 -1.46188e-07
-0.00105934 0.0231039 1.9315e-07
-1.46188e-07 1.9315e-07 0.0220403

0.0238447 0.00240016 -2.02101e-07
0.00240016 0.0303563 3.49649e-08
-2.02101e-07 3.49649e-08 0.0220753

0.0291609 -0.00319572 -5.74699e-08
-0.00319572 0.0325755 2.39029e-07
-5.74699e-08 2.39029e-07 0.0315596

0.0289357 0.00334848 1.19821e-07
0.00334848 0.0308763 1.23958e-07
1.19821e-07 1.23958e-07 0.0285163

0.0265674 -0.00458081 1.92405e-08
-0.00458081 0.0251883 -2.96993e-08
1.92405e-08 -2.96993e-08 0.0212207

0.0262344 0.00488292 -1.81801e-07
0.00488292 0.0209134 -4.66026e-08
-1.81801e-07 -4.66026e-08 0.0167351

0.0234645 -0.00427729 -2.96164e-08
-0.00427729 0.0274172 -1.68078e-07
-2.96164e-08 -1.68078e-07 0.0205917

0.0266264 -0.00401844 -4.2144e-08
-0.00401844 0.0274352 -1.68933e-07
-4.2144e-08 -1.68933e-07 0.0220125

0.0352973 -0.000904098 -3.31685e-08
-0.000904098 0.0273427 -1.24588e-07
-3.31685e-08 -1.24588e-07 0.0325938

0.0260012 0.00391265 1.53081e-07
0.00391265 0.0280434 -2.3257e-07
1.53081e-07 -2.3257e-07 0.0220648

0.0307334 0.00171262 1.59581e-07
0.00171262 0.0233223 5.7179e-08
1.59581e-07 5.7179e-08 0.0219881

0.0213974 0.00171816 4.05829e-08
0.00171816 0.030187 8.01837e-08
4.05829e-08 8.01837e-08 0.0210971

0.0242229 -0.00288295 1.23093e-07
-0.00288295 0.0298991 1.62652e-07
1.23093e-07 1.62652e-07 0.0220486

0.0312884 -0.000130683 -8.86535e-10
-0.000130683 0.0391967 1.71e-08
-8.86535e-10 1.71e-08 0.0346049

0.0230211 0.000294116 2.14743e-07
0.000294116 0.0314037 1.29381e-07
2.14743e-07 1.29381e-07 0.0230227

0.0227406 0.00399234 1.03657e-08
0.00399234 0.0280785 -2.43942e-07
1.03657e-08 -2.43942e-07 0.0206035

0.0288372 0.00158187 6.83043e-08
0.00158187 0.0357643 4.63351e-08
6.83043e-08 4.63351e-08 0.0328321

0.0292642 -0.00357161 1.50281e-07
-0.00357161 0.0250875 -9.2647e-08
1.50281e-07 -9.2647e-08 0.0231998

0.0369054 0.0027264 -7.01372e-08
0.0027264 0.0296699 2.78374e-07
-7.01372e-08 2.78374e-07 0.033738

0.0371036 0.00347447 -4.62859e-08
0.00347447 0.0333601 -4.83433e-08
-4.62859e-08 -4.83433e-08 0.0345864

0.0344787 -0.0024405 2.4062e-08
-0.0024405 0.0284795 -3.54096e-08
2.4062e-08 -3.54096e-08 0.0313211

0.0389796 -0.000264987 -1.77078e-07
-0.000264987 0.033861 -2.60934e-07
-1.77078e-07 -2.60934e-07 0.0351411

0.0314215 -0.00417712 -3.89201e-08
-0.00417712 0.0317234 1.11397e-07
-3.89201e-08 1.11397e-07 0.0320967

0.0294104 0.00300087 2.18244e-07
0.00300087 0.0222919 -2.43315e-08
2.18244e-07 -2.43315e-08 0.0210312

0.0301751 0.00396289 3.38171e-08
0.00396289 0.0326031 -6.21464e-08
3.38171e-08 -6.21464e-08 0.032659

0.0302227 0.00383719 8.21061e-08
0.00383719 0.032547 9.19629e-08
8.21061e-08 9.19629e-08 0.0326139

0.0261999 0.0039527 9.80791e-09
0.0039527 0.02772 -3.09495e-07
9.80791e-09 -3.09495e-07 0.0218279

0.0343856 0.00356772 1.34814e-07
0.00356772 0.0317215 -9.48562e-08
1.34814e-07 -9.48562e-08 0.0327702

0.0301954 0.000451354 7.18604e-08
0.000451354 0.0203971 -1.26797e-07
7.18604e-08 -1.26797e-07 0.020539

0.0331243 0.00418998 -1.53477e-07
0.00418998 0.0323131 3.32559e-08
-1.53477e-07 3.32559e-08 0.033421

0.0304458 -0.00165033 7.02451e-08
-0.00165033 0.0365456 1.68608e-07
7.02451e-08 1.68608e-07 0.0335995

0.0372879 0.00322469 1.21353e-07
0.00322469 0.0333974 -1.95903e-08
1.21353e-07 -1.95903e-08 0.0345985

0.0306816 -0.00388628 7.07006e-08
-0.00388628 0.032214 1.37363e-07
7.07006e-08 1.37363e-07 0.0326194

0.0293217 -0.000643184 -1.03391e-07
-0.000643184 0.0368319 1.73023e-07
-1.03391e-07 1.73023e-07 0.0327866

0.0287639 -0.00314549 2.06521e-08
-0.00314549 0.0221052 1.27684e-07
2.06521e-08 1.27684e-07 0.0187282

0.0289517 0.00383557 -1.8595e-08
0.00383557 0.0255352 -1.36804e-08
-1.8595e-08 -1.36804e-08 0.0230336

0.0216674 0.00188658 2.16673e-07
0.00188658 0.0300087 1.25001e-07
2.16673e-07 1.25001e-07 0.0210486

0.0349236 -0.000160851 6.56012e-08
-0.000160851 0.0273424 -1.24684e-07
6.56012e-08 -1.24684e-07 0.0332393

0.034355 3.96031e-07 -1.324e-07
3.96031e-07 0.0272277 5.94797e-08
-1.324e-07 5.94797e-08 0.0319819

0.0291139 0.0030325 -2.85945e-08
0.0030325 0.0326195 9.67586e-08
-2.85945e-08 9.67586e-08 0.0320732

0.0313926 0.00315839 -1.88826e-07
0.00315839 0.0341861 -3.00052e-08
-1.88826e-07 -3.00052e-08 0.033994

0.0291169 -0.0031964 -1.33223e-07
-0.0031964 0.0331769 -6.52224e-10
-1.33223e-07 -6.52224e-10 0.0333165

0.028723 -8.54129e-05 -3.21954e-08
-8.54129e-05 0.0366338 -4.70351e-08
-3.21954e-08 -4.70351e-08 0.0324652

0.0294118 0.00336731 -6.14965e-08
0.00336731 0.0330132 -1.28317e-07
-6.14965e-08 -1.28317e-07 0.0332922

0.0327987 -0.00134318 -8.2387e-08
-0.00134318 0.0253195 -1.70975e-07
-8.2387e-08 -1.70975e-07 0.0277794

0.0263101 -0.00424461 -4.0906e-08
-0.00424461 0.028131 -4.76893e-08
-4.0906e-08 -4.76893e-08 0.0242258

0.0362279 -0.000330854 1.49746e-07
-0.000330854 0.0293309 8.6433e-08
1.49746e-07 8.6433e-08 0.0339638

0.0267358 -0.00443527 5.37564e-10
-0.00443527 0.0251485 -8.74156e-08
5.37564e-10 -8.74156e-08 0.0209142

0.0308435 0.0025008 -1.50177e-07
0.0025008 0.0349969 1.99992e-08
-1.50177e-07 1.99992e-08 0.0340035

0.0350465 -0.00348828 -8.70652e-08
-0.00348828 0.0303336 1.28125e-07
-8.70652e-08 1.28125e-07 0.0325541

0.0304487 -0.00124698 2.83083e-07
-0.00124698 0.0229417 1.25994e-08
2.83083e-07 1.25994e-08 0.0214424

0.0370762 -0.00306927 1.44269e-07
-0.00306927 0.0315955 6.48464e-08
1.44269e-07 6.48464e-08 0.0339238

0.0349032 0.000320958 -1.62469e-08
0.000320958 0.0275071 -8.50997e-08
-1.62469e-08 -8.50997e-08 0.0333674

0.0357744 -0.00308068 -1.62e-07
-0.00308068 0.0331961 9.07992e-08
-1.62e-07 9.07992e-08 0.034079

0.0348628 -0.00340177 -1.46071e-07
-0.00340177 0.0295421 1.41097e-07
-1.46071e-07 1.41097e-07 0.0321184

0.0348431 -0.00113096 -3.101e-08
-0.00113096 0.0278016 -1.21066e-07
-3.101e-08 -1.21066e-07 0.0322814

0.0314319 -0.00305471 6.39861e-08
-0.00305471 0.0343835 -6.95112e-08
6.39861e-08 -6.95112e-08 0.0340821

0.0291836 -0.00406111 -4.03594e-08
-0.00406111 0.0268538 2.62024e-08
-4.03594e-08 2.62024e-08 0.0253021

0.0349265 -0.00323563 -1.82769e-07
-0.00323563 0.0298617 -3.56651e-09
-1.82769e-07 -3.56651e-09 0.0321355

0.0314056 0.00140568 3.03214e-08
0.00140568 0.0232895 5.0748e-08
3.03214e-08 5.0748e-08 0.0244415

0.0336019 0.00347524 -9.82345e-08
0.00347524 0.0333813 -5.23353e-08
-9.82345e-08 -5.23353e-08 0.0335868

0.0298389 -0.00495472 3.90445e-08
-0.00495472 0.0330171 -1.17949e-07
3.90445e-08 -1.17949e-07 0.0337935

0.0299892 0.00490809 1.12472e-07
0.00490809 0.032879 -1.35892e-07
1.12472e-07 -1.35892e-07 0.0337605

0.0276402 -0.00373249 1.01686e-07
-0.00373249 0.0347412 -2.51593e-08
1.01686e-07 -2.51593e-08 0.0337032

0.0278775 0.00353821 -1.46777e-07
0.00353821 0.034769 5.48816e-08
-1.46777e-07 5.48816e-08 0.0336682

0.0363598 -0.00115085 4.4087e-08
-0.00115085 0.0262974 -8.6262e-08
4.4087e-08 -8.6262e-08 0.0336944

0.0361296 0.00124445 4.61018e-08
0.00124445 0.0265182 1.54547e-07
4.61018e-08 1.54547e-07 0.0336573

0.0349678 -0.00130323 1.36121e-08
-0.00130323 0.0284181 -2.09708e-07
1.36121e-08 -2.09708e-07 0.0325152

0.0343714 0.00424848 8.94725e-08
0.00424848 0.034225 -2.49235e-08
8.94725e-08 -2.49235e-08 0.0347464

0.0342478 -0.00434605 -8.94501e-08
-0.00434605 0.0342164 1.1895e-07
-8.94501e-08 1.1895e-07 0.0347348

0.0304657 0.00208828 -1.29e-07
0.00208828 0.0380909 -2.19438e-08
-1.29e-07 -2.19438e-08 0.0347835

0.0306087 -0.00205434 -4.49711e-08
-0.00205434 0.0380212 -1.88353e-07
-4.49711e-08 -1.88353e-07 0.0347708

0.0394241 -0.000527771 -1.00148e-07
-0.000527771 0.0327884 -3.8434e-08
-1.00148e-07 -3.8434e-08 0.0351906

0.0396259 0.000512278 -9.28043e-08
0.000512278 0.0325616 -5.06667e-08
-9.28043e-08 -5.06667e-08 0.0352358

0.0239261 0.00127288 3.89815e-08
0.00127288 0.0319448 -1.94161e-07
3.89815e-08 -1.94161e-07 0.0251406

0.0311055 -0.0032573 -4.69565e-08
-0.0032573 0.0321813 1.60025e-07
-4.69565e-08 1.60025e-07 0.0327407

0.0277317 -0.00477354 1.03094e-07
-0.00477354 0.0332501 -6.08352e-09
1.03094e-07 -6.08352e-09 0.0333925

0.033297 -0.000608813 1.87764e-08
-0.000608813 0.0263582 8.02734e-09
1.87764e-08 8.02734e-09 0.0283974

0.0381136 -0.00224603 2.37291e-08
-0.00224603 0.0307386 1.72707e-07
2.37291e-08 1.72707e-07 0.0348264

0.0381612 0.00217838 -1.36337e-07
0.00217838 0.0308516 1.43927e-08
-1.36337e-07 1.43927e-08 0.0348585

0.0360148 1.5551e-05 -9.85407e-08
1.5551e-05 0.0250845 6.10859e-08
-9.85407e-08 6.10859e-08 0.0334076

0.0242013 0.0030217 -1.78574e-07
0.0030217 0.0303434 1.98274e-07
-1.78574e-07 1.98274e-07 0.0242353

0.0276265 0.00474444 2.39758e-08
0.00474444 0.0332506 -1.09381e-07
2.39758e-08 -1.09381e-07 0.0333306

0.0286242 -0.00306825 -1.06285e-07
-0.00306825 0.0341965 -4.68991e-08
-1.06285e-07 -4.68991e-08 0.0326914

0.0310298 0.00302832 4.16436e-08
0.00302832 0.0251049 -1.33212e-07
4.16436e-08 -1.33212e-07 0.0254229

0.0371558 0.00315777 -1.75115e-07
0.00315777 0.0314832 -1.50953e-07
-1.75115e-07 -1.50953e-07 0.0340115

0.0291756 -0.00405749 -3.94565e-08
-0.00405749 0.0268895 2.14299e-07
-3.94565e-08 2.14299e-07 0.0252774

0.0363322 -0.000452628 1.19122e-07
-0.000452628 0.0296385 1.64915e-08
1.19122e-07 1.64915e-08 0.0340666

0.0272977 -0.00448355 3.43564e-08
-0.00448355 0.0333331 -1.38556e-07
3.43564e-08 -1.38556e-07 0.0333792

0.0239987 0.00107632 -5.87384e-08
0.00107632 0.0321855 -3.35951e-08
-5.87384e-08 -3.35951e-08 0.0254616

0.02419 0.0028198 -7.64846e-08
0.0028198 0.0306466 2.88842e-07
-7.64846e-08 2.88842e-07 0.0245026

0.0267479 0.00458492 4.71808e-08
0.00458492 0.0240035 2.61775e-07
4.71808e-08 2.61775e-07 0.0181839

0.0297991 0.000199421 2.18168e-07
0.000199421 0.0200582 1.09484e-07
2.18168e-07 1.09484e-07 0.0193306

0.0318497 -0.00301631 -5.04585e-08
-0.00301631 0.0340981 1.17058e-07
-5.04585e-08 1.17058e-07 0.0339715

0.0228825 0.00399148 1.33387e-07
0.00399148 0.0276145 -2.15568e-08
1.33387e-07 -2.15568e-08 0.0176245

0.029158 0.00309319 -1.57136e-07
0.00309319 0.0327023 -9.84185e-08
-1.57136e-07 -9.84185e-08 0.0309555

0.0315376 -0.000692882 -6.10539e-08
-0.000692882 0.0231229 1.95858e-07
-6.10539e-08 1.95858e-07 0.0244428

0.0327008 0.00146077 -4.1952e-08
0.00146077 0.0253045 1.25191e-07
-4.1952e-08 1.25191e-07 0.027564

0.0359094 5.61306e-05 8.49375e-08
5.61306e-05 0.0249179 -8.98251e-08
8.49375e-08 -8.98251e-08 0.0333238

0.0279173 -0.00379602 -9.20777e-08
-0.00379602 0.0348829 7.32116e-08
-9.20777e-08 7.32116e-08 0.0337524

0.0392369 -0.000841746 -1.34163e-07
-0.000841746 0.041518 5.22697e-08
-1.34163e-07 5.22697e-08 0.0361204

0.0298146 0.00492673 -1.4928e-07
0.00492673 0.0328957 -1.00403e-07
-1.4928e-07 -1.00403e-07 0.0337156

0.0302376 0.00021405 1.96701e-07
0.00021405 0.0203658 -1.18197e-07
1.96701e-07 -1.18197e-07 0.0172483

0.0266284 -0.00424026 -1.26945e-07
-0.00424026 0.0280843 -4.45538e-08
-1.26945e-07 -4.45538e-08 0.0243955

0.0276985 0.00480341 -7.59948e-08
0.00480341 0.0332532 -1.02877e-07
-7.59948e-08 -1.02877e-07 0.0333927

0.0278964 -0.00145499 -6.53861e-08
-0.00145499 0.0350188 -7.6539e-08
-6.53861e-08 -7.6539e-08 0.0313925

0.0244249 -0.00329729 2.43981e-07
-0.00329729 0.0299623 -1.46779e-08
2.43981e-07 -1.46779e-08 0.0241755

0.0279421 0.00377008 -2.29471e-09
0.00377008 0.0348444 1.0403e-08
-2.29471e-09 1.0403e-08 0.0337234

0.0313048 -0.00340115 1.5806e-07
-0.00340115 0.0269625 4.56359e-08
1.5806e-07 4.56359e-08 0.0269438

0.0401997 0.00140507 1.36631e-07
0.00140507 0.0405376 -3.58946e-07
1.36631e-07 -3.58946e-07 0.0361009

0.0258376 0.00399343 2.74705e-07
0.00399343 0.0289039 -8.45784e-09
2.74705e-07 -8.45784e-09 0.0244688

0.0366077 0.00109999 4.1482e-08
0.00109999 0.0263079 -3.59472e-09
4.1482e-08 -3.59472e-09 0.0338341

0.0332798 0.00397416 -1.03547e-07
0.00397416 0.0320568 -5.22268e-08
-1.03547e-07 -5.22268e-08 0.0332533

0.0291765 0.00305954 2.48746e-07
0.00305954 0.0325455 -5.51426e-08
2.48746e-07 -5.51426e-08 0.0320983

0.0342997 -0.00429987 7.77383e-08
-0.00429987 0.0344399 -6.98781e-08
7.77383e-08 -6.98781e-08 0.0348187

0.0354223 -0.00305587 -1.39881e-07
-0.00305587 0.0305349 2.04742e-08
-1.39881e-07 2.04742e-08 0.0326895

0.0333042 0.00138402 8.22657e-10
0.00138402 0.0394994 -1.23743e-07
8.22657e-10 -1.23743e-07 0.0349359

0.0291454 -0.00307137 4.78769e-08
-0.00307137 0.0328124 -2.0827e-09
4.78769e-08 -2.0827e-09 0.0313258

0.0292162 -0.00122946 -2.28918e-07
-0.00122946 0.0192586 -2.38296e-08
-2.28918e-07 -2.38296e-08 0.0163859

0.0287307 -0.00182881 1.94372e-07
-0.00182881 0.0183874 -1.22492e-07
1.94372e-07 -1.22492e-07 0.0161713

0.038454 0.00219669 9.29798e-08
0.00219669 0.0331771 3.33316e-08
9.29798e-08 3.33316e-08 0.034697

0.0280073 0.00293806 -2.71597e-08
0.00293806 0.0322762 -1.3901e-07
-2.71597e-08 -1.3901e-07 0.029465

0.0320082 0.003825 -1.59688e-07
0.003825 0.0309047 1.05924e-07
-1.59688e-07 1.05924e-07 0.0313967

0.0319922 8.96818e-05 -1.08649e-07
8.96818e-05 0.0245366 -1.08903e-08
-1.08649e-07 -1.08903e-08 0.0248453

0.0301834 0.000863921 -1.75985e-07
0.000863921 0.0385055 -3.0134e-08
-1.75985e-07 -3.0134e-08 0.0340321

0.0353345 0.00218574 -4.97925e-08
0.00218574 0.029271 -7.83315e-08
-4.97925e-08 -7.83315e-08 0.0327972

0.0247706 -0.00333094 2.19297e-07
-0.00333094 0.029953 1.21063e-08
2.19297e-07 1.21063e-08 0.0244281

0.0286004 -0.000337106 -1.316e-07
-0.000337106 0.0365866 -5.65568e-08
-1.316e-07 -5.65568e-08 0.0323358

0.0251736 0.00173595 6.69207e-08
0.00173595 0.0319714 -1.93415e-07
6.69207e-08 -1.93415e-07 0.0256394

0.0332189 -0.00389982 -2.85612e-08
-0.00389982 0.0304421 2.70838e-08
-2.85612e-08 2.70838e-08 0.0315344

0.029014 -0.00388683 -1.77533e-07
-0.00388683 0.0281518 -5.22872e-08
-1.77533e-07 -5.22872e-08 0.025669

0.0261053 0.00408928 1.41235e-07
0.00408928 0.0284967 -7.8315e-08
1.41235e-07 -7.8315e-08 0.0242765

0.0451943 -0.00201254 2.22316e-07
-0.00201254 0.0395274 -1.73297e-09
2.22316e-07 -1.73297e-09 0.036297

0.0316088 0.000256092 1.28838e-07
0.000256092 0.03925 -1.08139e-07
1.28838e-07 -1.08139e-07 0.0347032

0.0305614 0.00264438 1.98891e-07
0.00264438 0.0383674 -3.69389e-08
1.98891e-07 -3.69389e-08 0.0348914

0.03869 0.00208945 -1.382e-07
0.00208945 0.0301675 -1.8351e-07
-1.382e-07 -1.8351e-07 0.0348763

0.0313138 -0.00344225 -4.45643e-08
-0.00344225 0.0320816 -4.02155e-08
-4.45643e-08 -4.02155e-08 0.0325123

0.0317606 0.00233047 -1.76211e-08
0.00233047 0.0255775 -4.61289e-08
-1.76211e-08 -4.61289e-08 0.0258346

0.0349274 -0.000706777 -1.9986e-07
-0.000706777 0.0414921 2.66493e-07
-1.9986e-07 2.66493e-07 0.0356594

0.0357198 -0.00251239 -1.2516e-07
-0.00251239 0.0294977 9.68311e-08
-1.2516e-07 9.68311e-08 0.0331959

0.0332355 -0.00203452 -5.5722e-08
-0.00203452 0.0266074 -8.89311e-08
-5.5722e-08 -8.89311e-08 0.0286242

0.0252104 0.00150732 1.17726e-07
0.00150732 0.0322158 -2.70647e-08
1.17726e-07 -2.70647e-08 0.0259049

0.0267592 -0.00333681 -2.8492e-08
-0.00333681 0.0299566 -2.43586e-08
-2.8492e-08 -2.43586e-08 0.0251438

0.0364079 -0.00335175 1.07076e-07
-0.00335175 0.0352203 1.374e-07
1.07076e-07 1.374e-07 0.0346765

0.0284258 0.00414235 -1.33075e-07
0.00414235 0.0276684 -1.0671e-08
-1.33075e-07 -1.0671e-08 0.0254237

0.0371717 -0.00333704 3.44106e-08
-0.00333704 0.0332602 -4.93471e-08
3.44106e-08 -4.93471e-08 0.0345462

0.0321478 0.000337071 -6.25341e-08
0.000337071 0.0248216 1.93266e-07
-6.25341e-08 1.93266e-07 0.0253935

0.0191325 -0.0036816 9.28171e-09
-0.0036816 0.0274804 -1.87159e-07
9.28171e-09 -1.87159e-07 0.0162848

0.0291584 -0.00379439 -7.03872e-08
-0.00379439 0.0281438 -3.9541e-08
-7.03872e-08 -3.9541e-08 0.0257629

0.0230097 0.004119 1.71386e-07
0.004119 0.0279738 2.68959e-08
1.71386e-07 2.68959e-08 0.0175638

0.0296381 -0.00155549 -5.28529e-08
-0.00155549 0.0374607 1.2757e-08
-5.28529e-08 1.2757e-08 0.0335854

0.0243203 -0.00178939 1.89764e-08
-0.00178939 0.0318147 -1.2267e-08
1.89764e-08 -1.2267e-08 0.0254038

0.0423511 -0.00322646 1.74099e-07
-0.00322646 0.0422912 -7.41269e-08
1.74099e-07 -7.41269e-08 0.0363053

0.0262922 0.00308376 8.75583e-08
0.00308376 0.0306468 2.89144e-07
8.75583e-08 2.89144e-07 0.0254336

0.0334145 -0.00431278 -9.69528e-08
-0.00431278 0.0325991 1.15565e-07
-9.69528e-08 1.15565e-07 0.0335035

0.0240414 -0.00154703 -8.85097e-08
-0.00154703 0.0318292 -5.09476e-08
-8.85097e-08 -5.09476e-08 0.0251332

0.0361532 -0.00253231 -1.31879e-07
-0.00253231 0.0294586 5.60763e-09
-1.31879e-07 5.60763e-09 0.0334565

0.0266283 0.00309742 -2.71176e-08
0.00309742 0.0303404 1.96045e-07
-2.71176e-08 1.96045e-07 0.0252693

0.0342785 -0.000652313 -4.57909e-08
-0.000652313 0.0272297 1.19958e-07
-4.57909e-08 1.19958e-07 0.0305218

0.0188629 -0.00386517 -8.43621e-08
-0.00386517 0.0297556 2.90453e-08
-8.43621e-08 2.90453e-08 0.012941

0.0279504 0.00274774 -2.82217e-08
0.00274774 0.0325685 -1.46793e-07
-2.82217e-08 -1.46793e-07 0.0305178

0.0313805 -0.00250637 1.09681e-07
-0.00250637 0.0246814 -2.49594e-07
1.09681e-07 -2.49594e-07 0.0253617

0.0390411 -0.00286201 1.39426e-07
-0.00286201 0.0321619 -1.57741e-07
1.39426e-07 -1.57741e-07 0.0348703

0.0287026 0.00411401 -5.91618e-08
0.00411401 0.0272528 -8.40654e-08
-5.91618e-08 -8.40654e-08 0.0252115

0.0313042 -0.00390958 2.02921e-07
-0.00390958 0.0284917 -2.13053e-08
2.02921e-07 -2.13053e-08 0.0286792

0.0353404 0.0027571 -8.48895e-08
0.0027571 0.0307995 -8.97255e-08
-8.48895e-08 -8.97255e-08 0.0329772

0.0297195 -0.00369431 1.97901e-07
-0.00369431 0.0328765 3.54745e-09
1.97901e-07 3.54745e-09 0.0332796

0.0270083 -0.00340218 -1.12221e-07
-0.00340218 0.0299289 -1.33484e-08
-1.12221e-07 -1.33484e-08 0.0253531

0.0283905 0.0037622 -1.27044e-07
0.0037622 0.0288888 -1.98048e-08
-1.27044e-07 -1.98048e-08 0.0258418

0.0313141 0.00340501 6.59102e-08
0.00340501 0.0268529 -1.20833e-07
6.59102e-08 -1.20833e-07 0.0269181

0.0364652 -0.00193946 -7.35993e-08
-0.00193946 0.0305695 1.29318e-07
-7.35993e-08 1.29318e-07 0.033572

0.0254907 -0.00215804 2.15823e-07
-0.00215804 0.0317435 4.46071e-09
2.15823e-07 4.46071e-09 0.0258083

0.0346337 -0.00230809 -5.48341e-08
-0.00230809 0.0282842 -2.14098e-07
-5.48341e-08 -2.14098e-07 0.0313975

0.034121 0.00221753 -1.59608e-07
0.00221753 0.027384 -1.396e-08
-1.59608e-07 -1.396e-08 0.0305474

0.0335813 -0.00124288 -2.24238e-07
-0.00124288 0.0392224 1.97158e-08
-2.24238e-07 1.97158e-08 0.0348604

0.0320132 -0.00174252 1.56197e-07
-0.00174252 0.0252877 -1.60771e-07
1.56197e-07 -1.60771e-07 0.0258256

0.0249599 7.95589e-05 -1.42205e-07
7.95589e-05 0.0330893 1.00759e-07
-1.42205e-07 1.00759e-07 0.0268134

0.033185 0.00242262 -1.78015e-07
0.00242262 0.0271463 -9.3461e-08
-1.78015e-07 -9.3461e-08 0.0288696

0.0310609 0.00358986 9.86262e-08
0.00358986 0.0272452 -1.85223e-08
9.86262e-08 -1.85223e-08 0.0270742

0.0252527 -0.00203636 2.28455e-07
-0.00203636 0.031806 -4.36617e-08
2.28455e-07 -4.36617e-08 0.025566

0.0251587 -0.000154185 -9.31593e-08
-0.000154185 0.0332294 1.90647e-08
-9.31593e-08 1.90647e-08 0.0270955

0.0353455 0.00384852 1.47925e-07
0.00384852 0.0329337 2.89222e-08
1.47925e-07 2.89222e-08 0.0338309

0.0275375 -0.0014273 7.73598e-08
-0.0014273 0.0352741 1.6579e-07
7.73598e-08 1.6579e-07 0.0313835

0.0311768 -0.00347531 5.0558e-08
-0.00347531 0.0269307 2.18052e-07
5.0558e-08 2.18052e-07 0.0269616

0.0312394 0.0027658 7.55902e-08
0.0027658 0.0248803 -1.03852e-07
7.55902e-08 -1.03852e-07 0.0252019

0.0345166 0.00311047 -6.08933e-08
0.00311047 0.0293336 1.68913e-07
-6.08933e-08 1.68913e-07 0.0317364

0.0279419 0.000714822 -1.9872e-08
0.000714822 0.0359698 -8.03466e-08
-1.9872e-08 -8.03466e-08 0.0317587

0.0286654 0.00377224 -6.51014e-08
0.00377224 0.0285088 -7.41507e-08
-6.51014e-08 -7.41507e-08 0.0256825

0.0367188 0.00304949 -1.12435e-07
0.00304949 0.0360556 6.82785e-08
-1.12435e-07 6.82785e-08 0.0348401

0.0226451 -0.00753232 9.90083e-08
-0.00753232 0.0186608 -3.78064e-07
9.90083e-08 -3.78064e-07 0.0108283

0.0332287 -0.0032792 1.44978e-08
-0.0032792 0.0285815 -3.66925e-08
1.44978e-08 -3.66925e-08 0.0300686

0.0206948 0.000911524 1.08351e-07
0.000911524 0.0299795 -8.97503e-08
1.08351e-07 -8.97503e-08 0.0183162

0.0312428 -0.00377238 2.12518e-07
-0.00377238 0.0291788 -4.25401e-09
2.12518e-07 -4.25401e-09 0.0289787

0.00153749 -0.00651003 4.6867e-08
-0.00651003 0.0275314 -2.05338e-07
4.6867e-08 -2.05338e-07 0.00290389

0.00146797 0.00635978 -1.18628e-08
0.00635978 0.0275493 -5.19744e-08
-1.18628e-08 -5.19744e-08 0.00299673

0.0119686 0.0144856 1.51172e-07
0.0144856 0.0175091 1.89564e-07
1.51172e-07 1.89564e-07 0.00276703

0.0121498 -0.0144763 3.89527e-08
-0.0144763 0.017201 -4.88451e-08
3.89527e-08 -4.88451e-08 0.00279958

0.0293013 -0.000163826 5.89044e-08
-0.000163826 0 0
5.89044e-08 0 0.00294816

0.0235605 -0.0112674 1.26674e-07
-0.0112674 0.00538822 -6.10032e-08
1.26674e-07 -6.10032e-08 0.00297379

0.0236022 0.0113335 -1.4961e-07
0.0113335 0.0054422 -7.20483e-08
-1.4961e-07 -7.20483e-08 0.00303487

0.0368393 0.0019066 1.13616e-07
0.0019066 0.0301872 -3.27522e-08
1.13616e-07 -3.27522e-08 0.0338135

0.0386289 0.00340115 -4.7893e-08
0.00340115 0.0365461 -1.89291e-07
-4.7893e-08 -1.89291e-07 0.03551

0.0343494 0.000870271 -1.87786e-07
0.000870271 0.0274089 5.12155e-08
-1.87786e-07 5.12155e-08 0.0316289

0.0328117 0.00284313 -1.61542e-07
0.00284313 0.0268429 -1.23036e-07
-1.61542e-07 -1.23036e-07 0.0285946

0.0256572 0.00230762 1.7003e-07
0.00230762 0.0323072 1.43284e-08
1.7003e-07 1.43284e-08 0.0275861

0.030657 0.00375974 8.64312e-08
0.00375974 0.0276279 -4.61496e-10
8.64312e-08 -4.61496e-10 0.0270694

0.0332431 -0.00389343 -3.3381e-08
-0.00389343 0.0304104 2.0146e-08
-3.3381e-08 2.0146e-08 0.0315712

0.030917 0.00364562 4.43327e-08
0.00364562 0.0272395 -8.27758e-08
4.43327e-08 -8.27758e-08 0.0268774

0.0249454 -0.000370628 -5.46044e-09
-0.000370628 0.0330605 1.05143e-07
-5.46044e-09 1.05143e-07 0.0267956

0.0384724 -0.00347577 5.19707e-08
-0.00347577 0.036809 1.61736e-07
5.19707e-08 1.61736e-07 0.0355155

0.0251334 -0.000634215 3.99503e-08
-0.000634215 0.0331482 3.03552e-08
3.99503e-08 3.03552e-08 0.0270545

0.0359489 0.00303982 1.43834e-07
0.00303982 0.0329494 3.99271e-08
1.43834e-07 3.99271e-08 0.0340333

0.0295708 0.00346744 2.90203e-08
0.00346744 0.0248049 -1.00954e-07
2.90203e-08 -1.00954e-07 0.0229835

0.0304407 -0.00170956 3.60919e-08
-0.00170956 0.0374391 -2.06413e-07
3.60919e-08 -2.06413e-07 0.0346703

0.0338569 0.0018 1.361e-07
0.0018 0.0271345 -9.06246e-08
1.361e-07 -9.06246e-08 0.0302649

0.0311442 -0.00391063 2.11123e-07
-0.00391063 0.0284808 -5.04427e-08
2.11123e-07 -5.04427e-08 0.0285629

0.0315259 -0.00321353 -5.17289e-08
-0.00321353 0.0266459 2.12585e-08
-5.17289e-08 2.12585e-08 0.0269997

0.0384041 -0.00213587 1.06656e-07
-0.00213587 0.0333544 8.85753e-08
1.06656e-07 8.85753e-08 0.0346787

0.0326206 0.00365472 -1.99687e-08
0.00365472 0.0291799 -1.60203e-07
-1.99687e-08 -1.60203e-07 0.0300999

0.0325844 0.00312974 4.9034e-08
0.00312974 0.0272053 -2.05722e-08
4.9034e-08 -2.05722e-08 0.028736

0.0269087 -0.000364083 2.1333e-08
-0.000364083 0.0349209 -2.24223e-07
2.1333e-08 -2.24223e-07 0.0301129

0.0258559 0.000764065 -1.1139e-07
0.000764065 0.03394 -2.00196e-08
-1.1139e-07 -2.00196e-08 0.028771

0.0327175 0.000344525 -7.96955e-08
0.000344525 0.0248204 1.92597e-07
-7.96955e-08 1.92597e-07 0.027395

0.0313307 -0.000942735 -1.05123e-07
-0.000942735 0.022967 -4.67879e-09
-1.05123e-07 -4.67879e-09 0.0238511

0.0308247 0.00397555 5.41954e-08
0.00397555 0.028755 -6.5002e-08
5.41954e-08 -6.5002e-08 0.0285726

0.033056 -0.00342284 3.33821e-08
-0.00342284 0.0284903 -5.22776e-08
3.33821e-08 -5.22776e-08 0.0299147

0.0363427 -0.00281667 -2.00925e-08
-0.00281667 0.0326722 -8.55702e-08
-2.00925e-08 -8.55702e-08 0.0340795

0.0291544 -0.00411753 -8.01805e-08
-0.00411753 0.0291405 -2.48492e-08
-8.01805e-08 -2.48492e-08 0.0277044

0.0269257 -0.00361154 -1.75015e-07
-0.00361154 0.0304099 2.20334e-07
-1.75015e-07 2.20334e-07 0.0271652

0.0282764 0.00389006 -1.47309e-07
0.00389006 0.0298472 -5.96601e-08
-1.47309e-07 -5.96601e-08 0.0277026

0.0258575 -0.00124595 1.14725e-07
-0.00124595 0.0335511 -8.44191e-08
1.14725e-07 -8.44191e-08 0.0284647

0.0266089 -0.000201654 1.81653e-07
-0.000201654 0.0348471 3.86349e-08
1.81653e-07 3.86349e-08 0.0298654

0.027714 0.000751222 8.74402e-08
0.000751222 0.0359693 -8.11468e-08
8.74402e-08 -8.11468e-08 0.0315996

0.0262026 -0.00274272 2.11781e-07
-0.00274272 0.0319043 1.10632e-08
2.11781e-07 1.10632e-08 0.0276613

0.0345172 0.00316752 1.0993e-07
0.00316752 0.0291164 -1.52825e-07
1.0993e-07 -1.52825e-07 0.0315758

0.0338459 -0.00125774 -1.36447e-07
-0.00125774 0.0268839 -1.0459e-07
-1.36447e-07 -1.0459e-07 0.0301466

0.0257468 0.000971925 -1.5023e-07
0.000971925 0.0337663 8.69873e-08
-1.5023e-07 8.69873e-08 0.0284907

0.0277755 -0.0012668 9.78143e-08
-0.0012668 0.0353296 1.69955e-07
9.78143e-08 1.69955e-07 0.0313081

0.0272458 -0.00213177 -7.52926e-08
-0.00213177 0.0335939 -1.6136e-07
-7.52926e-08 -1.6136e-07 0.0301705

0.0327165 -0.00107458 -4.12769e-08
-0.00107458 0.0252777 -1.02073e-07
-4.12769e-08 -1.02073e-07 0.027206

0.0332527 -0.00426057 2.28068e-08
-0.00426057 0.0323206 -5.2909e-08
2.28068e-08 -5.2909e-08 0.0334661

0.0264435 0.00121691 1.2363e-07
0.00121691 0.0337724 9.0456e-08
1.2363e-07 9.0456e-08 0.0287642

0.0397325 -0.00242544 -4.92934e-08
-0.00242544 0.0351511 1.42991e-07
-4.92934e-08 1.42991e-07 0.0353931

0.0188607 0.0031582 4.97439e-08
0.0031582 0.0278295 1.54145e-08
4.97439e-08 1.54145e-08 0.0162467

0.0337523 -0.00351384 -8.01015e-08
-0.00351384 0.033432 -2.16855e-07
-8.01015e-08 -2.16855e-07 0.0336625

0.0352763 -0.00398918 -1.71264e-07
-0.00398918 0.0329848 5.79705e-08
-1.71264e-07 5.79705e-08 0.0338399

0.0266402 -9.02708e-05 -1.16587e-07
-9.02708e-05 0.0348522 3.17948e-08
-1.16587e-07 3.17948e-08 0.0298735

0.0331809 -0.00217087 -1.57953e-07
-0.00217087 0.0271062 -1.68669e-08
-1.57953e-07 -1.68669e-08 0.0288506

0.0292951 0.00168046 6.30203e-08
0.00168046 0.0357512 4.66441e-08
6.30203e-08 4.66441e-08 0.0328182

0.0131897 -0.000377883 -7.86411e-08
-0.000377883 0.028318 2.75346e-08
-7.86411e-08 2.75346e-08 0.0111346

0.0270668 0.00186385 9.08359e-08
0.00186385 0.0339973 2.84686e-08
9.08359e-08 2.84686e-08 0.0302509

0.0310523 -0.00384905 1.88076e-07
-0.00384905 0.0291024 -9.69947e-08
1.88076e-07 -9.69947e-08 0.0287545

0.0185926 0.00319926 7.39556e-08
0.00319926 0.0300924 8.25129e-08
7.39556e-08 8.25129e-08 0.0131062

0.0425145 0.00350883 -6.14703e-08
0.00350883 0.0417647 1.037e-08
-6.14703e-08 1.037e-08 0.0364098

0.0431178 -0.00373886 4.33549e-09
-0.00373886 0.0413345 1.76605e-07
4.33549e-09 1.76605e-07 0.0363923

0.0310085 -0.00398088 2.00923e-07
-0.00398088 0.0304159 1.44468e-08
2.00923e-07 1.44468e-08 0.0304053

0.0288707 -0.00405402 -1.49127e-07
-0.00405402 0.0290988 -9.99648e-08
-1.49127e-07 -9.99648e-08 0.0275452

0.0329895 0.00272018 3.4277e-08
0.00272018 0.0274806 2.998e-09
3.4277e-08 2.998e-09 0.0290228

0.032719 0.00195536 8.94297e-09
0.00195536 0.025548 -4.52145e-08
8.94297e-09 -4.52145e-08 0.027773

0.0463042 0.000417097 5.26164e-07
0.000417097 0.0462603 -4.68767e-07
5.26164e-07 -4.68767e-07 0.0366235

0.0468222 -0.000949461 -6.58922e-08
-0.000949461 0.0456734 9.81258e-08
-6.58922e-08 9.81258e-08 0.0366944

0.0347337 0.000636528 3.54865e-08
0.000636528 0.027525 -1.42892e-07
3.54865e-08 -1.42892e-07 0.0321565

0.0277033 0.000880168 1.17517e-07
0.000880168 0.0355023 -1.67318e-08
1.17517e-07 -1.67318e-08 0.0312906

0.0275596 0.00088046 -1.49906e-07
0.00088046 0.0355025 -2.43692e-08
-1.49906e-07 -2.43692e-08 0.031187

0.0234243 0.00738683 1.17797e-09
0.00738683 0.0182745 2.91885e-07
1.17797e-09 2.91885e-07 0.0108847

0.0271998 -0.00366669 -3.18177e-08
-0.00366669 0.0302923 -1.33215e-07
-3.18177e-08 -1.33215e-07 0.0272709

0.0364964 0.00238549 -2.47467e-08
0.00238549 0.029523 1.4428e-07
-2.47467e-08 1.4428e-07 0.0337206

0.0332119 0.00124454 -9.76798e-08
0.00124454 0.0264587 1.59889e-07
-9.76798e-08 1.59889e-07 0.0283806

0.0291005 -0.00348378 3.57032e-08
-0.00348378 0.0304161 2.38082e-07
3.57032e-08 2.38082e-07 0.0281227

0.0327496 -0.00264119 -1.3495e-07
-0.00264119 0.026682 1.85695e-08
-1.3495e-07 1.85695e-08 0.0285351

0.0224256 0.00759953 -2.89443e-07
0.00759953 0.0185635 -1.97368e-08
-2.89443e-07 -1.97368e-08 0.0108871

0.0330828 0.00409212 -1.8478e-07
0.00409212 0.0325774 1.37204e-07
-1.8478e-07 1.37204e-07 0.0331191

0.0258462 -0.00257204 5.9838e-08
-0.00257204 0.031965 2.33854e-07
5.9838e-08 2.33854e-07 0.0274583

0.0324217 0.0037765 -1.82957e-07
0.0037765 0.0292157 6.10455e-08
-1.82957e-07 6.10455e-08 0.0300916

0.0267697 -0.000542422 2.98709e-08
-0.000542422 0.0348859 -2.23344e-07
2.98709e-08 -2.23344e-07 0.0300827

0.0269433 0.00255708 -2.74332e-08
0.00255708 0.0323883 -1.39105e-07
-2.74332e-08 -1.39105e-07 0.0282355

0.030471 0.00398118 1.31659e-07
0.00398118 0.0292706 9.02084e-08
1.31659e-07 9.02084e-08 0.028723

0.0275606 -0.00293002 2.0648e-08
-0.00293002 0.0317951 -2.28575e-08
2.0648e-08 -2.28575e-08 0.0281982

0.0294033 -0.00356709 -1.4794e-07
-0.00356709 0.0302959 -1.40825e-07
-1.4794e-07 -1.40825e-07 0.028254

0.0181112 0.0014229 -1.44387e-07
0.0014229 0.0279914 -2.57651e-08
-1.44387e-07 -2.57651e-08 0.0131069

0.0234362 -0.00428522 -1.72335e-08
-0.00428522 0.02751 -1.86695e-07
-1.72335e-08 -1.86695e-07 0.0176944

0.0261607 -0.0015224 1.02239e-07
-0.0015224 0.0335604 -6.00162e-08
1.02239e-07 -6.00162e-08 0.0286998

0.0329621 0.00346628 1.37439e-07
0.00346628 0.0288264 -7.21823e-08
1.37439e-07 -7.21823e-08 0.0300138

0.0302668 0.00384799 2.41155e-07
0.00384799 0.0298324 -3.34927e-08
2.41155e-07 -3.34927e-08 0.0289377

0.0273666 -0.00279384 -1.77121e-07
-0.00279384 0.0319247 2.16784e-07
-1.77121e-07 2.16784e-07 0.0280884

0.0265089 -0.001537 -1.17045e-07
-0.001537 0.0335196 -9.62945e-08
-1.17045e-07 -9.62945e-08 0.0286942

0.0309 0.00370927 -7.52597e-08
0.00370927 0.0295104 1.89195e-07
-7.52597e-08 1.89195e-07 0.0288887

0.0267132 -0.00181157 1.90597e-07
-0.00181157 0.0334113 -4.11174e-08
1.90597e-07 -4.11174e-08 0.0289017

0.0191373 0.00354694 1.18363e-07
0.00354694 0.0275619 -2.32022e-08
1.18363e-07 -2.32022e-08 0.0162659

0.0308169 -0.000533533 -3.02323e-08
-0.000533533 0.0387428 -1.64331e-07
-3.02323e-08 -1.64331e-07 0.034229

0.0286055 0.00403793 9.39515e-08
0.00403793 0.0294656 1.70072e-07
9.39515e-08 1.70072e-07 0.0276648

0.0355114 0.0019701 -1.82698e-07
0.0019701 0.0294498 1.75426e-07
-1.82698e-07 1.75426e-07 0.0327808

0.0361891 -0.00210935 -9.11652e-08
-0.00210935 0.0297015 1.44744e-07
-9.11652e-08 1.44744e-07 0.0331551

0.0284627 -0.00308949 -2.45642e-07
-0.00308949 0.0185414 -1.0374e-07
-2.45642e-07 -1.0374e-07 0.0157046

0.0283033 -0.00278336 -1.41216e-07
-0.00278336 0.032714 6.508e-08
-1.41216e-07 6.508e-08 0.0305153

0.0291388 0.00349187 1.43186e-07
0.00349187 0.0315417 1.25663e-07
1.43186e-07 1.25663e-07 0.0304313

0.0348924 -0.00290018 1.15851e-07
-0.00290018 0.0376019 1.29279e-09
1.15851e-07 1.29279e-09 0.0351683

0.0393817 0.00188056 -1.47485e-07
0.00188056 0.0445172 -6.49667e-08
-1.47485e-07 -6.49667e-08 0.0363622

0.0448517 0.00128703 -4.44671e-07
0.00128703 0.0390384 1.70377e-07
-4.44671e-07 1.70377e-07 0.0363442

0.0354917 0.00433439 1.18659e-07
0.00433439 0.0350677 2.16139e-08
1.18659e-07 2.16139e-08 0.0349362

0.0265261 0.00337961 -7.66883e-08
0.00337961 0.0309495 -9.19352e-09
-7.66883e-08 -9.19352e-09 0.0272071

0.0329778 0.00348848 2.51796e-08
0.00348848 0.028616 2.10054e-07
2.51796e-08 2.10054e-07 0.0299949

0.0220251 0.00575262 1.21338e-07
0.00575262 0.0241982 -2.92904e-09
1.21338e-07 -2.92904e-09 0.0160464

0.0385419 -0.00150874 3.95635e-07
-0.00150874 0.0443417 -1.3331e-07
3.95635e-07 -1.3331e-07 0.0362915

0.0459525 -0.000463496 -1.06915e-07
-0.000463496 0.0453457 -8.08571e-08
-1.06915e-07 -8.08571e-08 0.0366196

0.045087 -3.16645e-05 -3.60888e-07
-3.16645e-05 0.0462065 -3.81212e-07
-3.60888e-07 -3.81212e-07 0.0366016

0.0176157 -0.00678319 -1.22828e-08
-0.00678319 0.0230724 1.72775e-07
-1.22828e-08 1.72775e-07 0.0107218

0.0392141 -0.00155196 -3.05917e-07
-0.00155196 0.0386378 4.34643e-08
-3.05917e-07 4.34643e-08 0.0357843

0.038321 0.00117372 -2.00246e-07
0.00117372 0.0414343 2.66241e-07
-2.00246e-07 2.66241e-07 0.036055

0.0331125 -0.0034271 -1.10435e-08
-0.0034271 0.0281698 -1.54799e-07
-1.10435e-08 -1.54799e-07 0.0298487

0.0317855 0.000140132 -1.98673e-07
0.000140132 0.0385959 -1.47237e-07
-1.98673e-07 -1.47237e-07 0.0343846

0.0285261 -0.00265365 -1.05987e-07
-0.00265365 0.0333172 2.13616e-07
-1.05987e-07 2.13616e-07 0.0315305

0.0355938 0.000829436 9.03327e-08
0.000829436 0.0273299 -1.01844e-07
9.03327e-08 -1.01844e-07 0.032938

0.0288246 0.00203917 -2.2307e-07
0.00203917 0.0367452 -6.65911e-08
-2.2307e-07 -6.65911e-08 0.0336058

0.0298154 0.000943984 -1.00067e-07
0.000943984 0.0373152 -5.85419e-10
-1.00067e-07 -5.85419e-10 0.0333004

0.0343362 0.00267847 1.73912e-07
0.00267847 0.0288001 1.91365e-07
1.73912e-07 1.91365e-07 0.0311684

0.0132612 -0.00040905 9.02106e-08
-0.00040905 0.0280785 8.88074e-08
9.02106e-08 8.88074e-08 0.0111839

0.0309081 -0.00361712 1.46426e-07
-0.00361712 0.0308586 -5.13858e-08
1.46426e-07 -5.13858e-08 0.0305531

0.0328667 -0.00343476 -5.51211e-08
-0.00343476 0.0319614 9.80289e-08
-5.51211e-08 9.80289e-08 0.0325181

0.0335078 -0.00414897 -8.31171e-08
-0.00414897 0.0324739 1.6901e-07
-8.31171e-08 1.6901e-07 0.0336717

0.0265199 0.00414096 1.67519e-07
0.00414096 0.0176658 1.75555e-07
1.67519e-07 1.75555e-07 0.0125855

0.0387522 -0.00268967 3.14392e-08
-0.00268967 0.039497 -6.59465e-09
3.14392e-08 -6.59465e-09 0.0358888

0.023048 0.00690921 9.97607e-08
0.00690921 0.0254632 -3.1183e-08
9.97607e-08 -3.1183e-08 0.0125897

0.0308182 -0.00281029 2.10196e-07
-0.00281029 0.0347412 -2.51624e-08
2.10196e-07 -2.51624e-08 0.0338918

0.0353433 0.00193163 -1.30716e-07
0.00193163 0.0284154 1.3275e-07
-1.30716e-07 1.3275e-07 0.0322841

0.0317631 -0.00188878 -4.54537e-08
-0.00188878 0.0249091 -1.03035e-07
-4.54537e-08 -1.03035e-07 0.025351

0.02924 0.00315097 2.21451e-07
0.00315097 0.0326705 -1.02961e-07
2.21451e-07 -1.02961e-07 0.0312217

0.0343717 0.0026819 2.35534e-07
0.0026819 0.0285837 4.50989e-08
2.35534e-07 4.50989e-08 0.031163

0.032458 0.00149534 -5.55093e-08
0.00149534 0.0402932 1.40748e-07
-5.55093e-08 1.40748e-07 0.0352686

0.0318809 -0.00414412 -8.04342e-08
-0.00414412 0.0311439 6.83111e-08
-8.04342e-08 6.83111e-08 0.0317514

0.0395976 0.00264876 1.75817e-07
0.00264876 0.0331359 -1.57156e-07
1.75817e-07 -1.57156e-07 0.0352481

0.0279225 -0.00241283 2.04734e-07
-0.00241283 0.0334878 -1.16992e-07
2.04734e-07 -1.16992e-07 0.0304145

0.0292983 0.000557473 1.83768e-07
0.000557473 0.0372392 2.94614e-08
1.83768e-07 2.94614e-08 0.0331899

0.041859 0.00133407 -1.93188e-07
0.00133407 0.0370274 -1.70567e-07
-1.93188e-07 -1.70567e-07 0.0360463

0.0420126 -0.0011449 2.21611e-08
-0.0011449 0.0372533 1.58727e-07
2.21611e-08 1.58727e-07 0.0360282

0.0283354 0.0023646 -2.28654e-08
0.0023646 0.0181551 2.0459e-07
-2.28654e-08 2.0459e-07 0.0159242

0.0349592 0.00105858 -3.89607e-08
0.00105858 0.0285155 1.27636e-07
-3.89607e-08 1.27636e-07 0.0329968

0.0128496 0.000921471 1.19671e-07
0.000921471 0.0315832 -1.38578e-07
1.19671e-07 -1.38578e-07 0.00611239

0.0131448 -0.00138561 -7.86841e-08
-0.00138561 0.0320884 7.28518e-09
-7.86841e-08 7.28518e-09 0.00610276

0.0152487 0.0071447 2.53859e-07
0.0071447 0.0284137 -1.71204e-07
2.53859e-07 -1.71204e-07 0.00597509

0.0346979 -0.00381137 -2.7434e-07
-0.00381137 0.0312105 1.48452e-07
-2.7434e-07 1.48452e-07 0.0328771

0.0155584 -0.0061835 -2.28339e-07
-0.0061835 0.0261136 6.75153e-08
-2.28339e-07 6.75153e-08 0.0104558

0.0154925 -0.00707731 7.08321e-08
-0.00707731 0.0273854 6.45279e-08
7.08321e-08 6.45279e-08 0.005905

0.0283759 0.00341726 -1.84158e-07
0.00341726 0.0309498 -9.61076e-09
-1.84158e-07 -9.61076e-09 0.0281022

0.0251585 0.00931321 -6.27921e-08
0.00931321 0.0189958 2.30794e-07
-6.27921e-08 2.30794e-07 0.00592488

0.036467 0.00172731 -1.7863e-07
0.00172731 0.0384756 5.04404e-08
-1.7863e-07 5.04404e-08 0.035407

0.0394566 2.53574e-05 -1.96474e-07
2.53574e-05 0.0354714 6.61183e-09
-1.96474e-07 6.61183e-09 0.0353876

0.0260712 -0.00923197 -1.93589e-07
-0.00923197 0.0187878 -9.77603e-08
-1.93589e-07 -9.77603e-08 0.00587909

0.0276416 -0.00305782 1.20449e-07
-0.00305782 0.0320359 -2.82958e-07
1.20449e-07 -2.82958e-07 0.0295689

0.0262138 0.00440988 1.52053e-07
0.00440988 0.0201279 2.35411e-07
1.52053e-07 2.35411e-07 0.0130241

0.0172555 0.00796183 7.61367e-08
0.00796183 0.0271126 -2.6043e-08
7.61367e-08 -2.6043e-08 0.00597877

0.0181698 0.00274994 9.21984e-08
0.00274994 0.0275459 -6.53217e-08
9.21984e-08 -6.53217e-08 0.01283

0.0172804 -0.00826468 -1.2469e-07
-0.00826468 0.0271159 -1.52969e-07
-1.2469e-07 -1.52969e-07 0.00580494

0.0179069 -0.00156813 1.99484e-08
-0.00156813 0.027961 1.27327e-07
1.99484e-08 1.27327e-07 0.0126706

0.0369781 0.000920455 2.29227e-07
0.000920455 0.0412172 2.32012e-07
2.29227e-07 2.32012e-07 0.0357409

0.0220964 -0.00584376 1.07449e-07
-0.00584376 0.0236272 2.23664e-07
1.07449e-07 2.23664e-07 0.0151347

0.0156775 0.00597554 7.57225e-08
0.00597554 0.0258632 -2.78221e-08
7.57225e-08 -2.78221e-08 0.0107336

0.0301676 0.00472305 4.82617e-08
0.00472305 0.0143297 -1.87536e-08
4.82617e-08 -1.87536e-08 0.00610658

0.032877 -0.00383995 1.93713e-08
-0.00383995 0.0300696 -2.67718e-08
1.93713e-08 -2.67718e-08 0.0309939

0.0308322 0.00168996 1.17166e-07
0.00168996 0.0367716 -8.1291e-08
1.17166e-07 -8.1291e-08 0.0338858

0.0260487 -0.00483498 -1.28075e-07
-0.00483498 0.0191689 -3.47101e-08
-1.28075e-07 -3.47101e-08 0.0126751

0.0329391 -0.00377664 1.89261e-08
-0.00377664 0.0300208 -2.78325e-08
1.89261e-08 -2.78325e-08 0.03107

0.0299781 -0.00451308 -7.85106e-08
-0.00451308 0.013036 2.38322e-07
-7.85106e-08 2.38322e-07 0.00602813

0.0324127 -0.00371796 -5.28173e-08
-0.00371796 0.0312499 1.08852e-07
-5.28173e-08 1.08852e-07 0.0319198

0.0280416 -0.0033031 -1.12117e-07
-0.0033031 0.0319449 1.5162e-07
-1.12117e-07 1.5162e-07 0.0295715

0.023412 0.00873141 -1.4181e-07
0.00873141 0.0204548 1.74991e-07
-1.4181e-07 1.74991e-07 0.00601702

0.0181733 -0.00291539 -2.49568e-07
-0.00291539 0.0268241 1.79441e-08
-2.49568e-07 1.79441e-08 0.0122508

0.0232834 -0.00900667 1.19536e-07
-0.00900667 0.0201244 8.21344e-08
1.19536e-07 8.21344e-08 0.00587504

0.0170582 0.00639718 2.30386e-07
0.00639718 0.0235298 -2.0364e-07
2.30386e-07 -2.0364e-07 0.0108143

0.0307699 -0.00395052 1.50643e-07
-0.00395052 0.0301057 -3.83795e-08
1.50643e-07 -3.83795e-08 0.0300304

0.038841 -0.00195394 9.98412e-08
-0.00195394 0.0368687 2.85642e-07
9.98412e-08 2.85642e-07 0.0354312

0.045447 0.0015027 -7.44448e-08
0.0015027 0.0448605 -4.06816e-09
-7.44448e-08 -4.06816e-09 0.036548

0.0434755 -0.000710272 1.59737e-07
-0.000710272 0.0461343 1.77341e-07
1.59737e-07 1.77341e-07 0.0365138

0.0285648 0.00171173 1.62362e-07
0.00171173 0.0354982 6.97102e-08
1.62362e-07 6.97102e-08 0.0323291

0.0452427 -0.00144342 1.7629e-07
-0.00144342 0.0448878 -5.1491e-07
1.7629e-07 -5.1491e-07 0.0365656

0.0437189 0.000566277 -4.54933e-08
0.000566277 0.0464089 -1.1084e-07
-4.54933e-08 -1.1084e-07 0.0365469

0.0465818 0.000988487 -2.70317e-07
0.000988487 0.0432892 -1.3032e-07
-2.70317e-07 -1.3032e-07 0.036522

0.0396713 -0.00163486 -1.01108e-07
-0.00163486 0.0459797 -3.72068e-08
-1.01108e-07 -3.72068e-08 0.036412

0.0190256 -0.00387944 -2.30359e-07
-0.00387944 0.0271857 -2.3084e-08
-2.30359e-07 -2.3084e-08 0.0154464

0.0420552 -0.00174594 2.76012e-08
-0.00174594 0.0366539 3.0036e-07
2.76012e-08 3.0036e-07 0.0359352

0.0358945 -0.0045619 1.4382e-07
-0.0045619 0.0350834 -1.0936e-07
1.4382e-07 -1.0936e-07 0.0349011

0.0396743 -0.00241548 -1.12525e-07
-0.00241548 0.0359946 -1.81871e-07
-1.12525e-07 -1.81871e-07 0.0354987

0.0351171 0.00203807 -4.54525e-08
0.00203807 0.0284985 2.72034e-08
-4.54525e-08 2.72034e-08 0.0321717

0.0396135 0.00133432 -1.48736e-07
0.00133432 0.0471293 -9.41449e-08
-1.48736e-07 -9.41449e-08 0.0364776

0.0464002 0.00258683 -2.12114e-07
0.00258683 0.0403384 -5.16795e-07
-2.12114e-07 -5.16795e-07 0.0364589

0.0400073 0.00150127 -1.65924e-07
0.00150127 0.036603 1.34291e-07
-1.65924e-07 1.34291e-07 0.0355467

0.0278714 -0.00191599 1.55019e-07
-0.00191599 0.0125077 2.14538e-07
1.55019e-07 2.14538e-07 0.0106081

0.0282691 0.00325969 -1.8218e-07
0.00325969 0.0314924 -4.69535e-10
-1.8218e-07 -4.69535e-10 0.0293572

0.0231539 -0.00772269 1.89205e-07
-0.00772269 0.018153 2.71725e-08
1.89205e-07 2.71725e-08 0.0102735

0.0227967 -0.00730384 2.16041e-07
-0.00730384 0.0257296 1.22184e-07
2.16041e-07 1.22184e-07 0.0119358

0.0289778 -0.00463894 3.07084e-07
-0.00463894 0.0191001 -2.06109e-07
3.07084e-07 -2.06109e-07 0.0125953

0.0375007 -0.000659213 3.16973e-07
-0.000659213 0.0448205 -5.34587e-07
3.16973e-07 -5.34587e-07 0.0362235

0.0374985 0.000357646 -2.70149e-08
0.000357646 0.0446983 3.64795e-09
-2.70149e-08 3.64795e-09 0.0362038

0.042519 -0.00326619 6.56147e-08
-0.00326619 0.0393724 -9.92345e-08
6.56147e-08 -9.92345e-08 0.0361577

0.0429111 -0.0029373 -1.70831e-07
-0.0029373 0.0390911 -2.52179e-08
-1.70831e-07 -2.52179e-08 0.0361647

0.042416 0.00349556 -1.1812e-07
0.00349556 0.0398923 6.92201e-08
-1.1812e-07 6.92201e-08 0.0362024

0.0443071 0.000416587 6.86186e-07
0.000416587 0.0449888 9.37584e-07
6.86186e-07 9.37584e-07 0.0365648

0.0425223 -0.00273761 2.8647e-08
-0.00273761 0.0394293 -1.64905e-07
2.8647e-08 -1.64905e-07 0.0362191

0.0425165 -0.00250534 1.71655e-07
-0.00250534 0.0441768 -6.66782e-07
1.71655e-07 -6.66782e-07 0.0364926

0.0450257 0.000331615 4.35886e-08
0.000331615 0.0453748 -1.80922e-07
4.35886e-08 -1.80922e-07 0.0365831

0.043548 -0.00277612 8.02004e-08
-0.00277612 0.0388396 -1.04484e-07
8.02004e-08 -1.04484e-07 0.0362596

0.0434235 0.00283184 2.1957e-07
0.00283184 0.0389919 3.60301e-09
2.1957e-07 3.60301e-09 0.0362976

0.0451006 -0.000469419 3.51066e-07
-0.000469419 0.0454875 -2.49999e-07
3.51066e-07 -2.49999e-07 0.0366316

0.0451332 -0.000425298 -6.08622e-07
-0.000425298 0.0442735 1.00554e-06
-6.08622e-07 1.00554e-06 0.0366499

0.0427118 0.00163475 -6.62732e-08
0.00163475 0.0441572 9.82935e-08
-6.62732e-08 9.82935e-08 0.0365362

0.0410342 0.00360896 -2.51377e-08
0.00360896 0.0404361 3.25973e-07
-2.51377e-08 3.25973e-07 0.0362516

SCALARS pressure float
LOOKUP_TABLE default
-59.8713
19.2639
5.79277
21.2413
15.8414
5.87662
-58.4967
7.76679
-3.79146
15.0903
-24.3185
7.60132
5.58098
12.2519
23.284
5.52805
18.479
13.1783
-0.684625
6.74443
-0.899112
33.0549
5.79124
5.78695
6.59016
14.8701
-38.2603
6.65953
-15.1885
30.5546
5.16611
-15.6025
-41.9228
27.2631
20.7297
27.2959
31.8102
19.7619
4.85033
-42.4647
-17.3488
31.8309
31.9189
5.98142
-21.7208
-15.9219
-1.04424
-3.39371
6.53294
-16.1576
-18.855
-15.298
20.7076
-15.3253
20.2617
-33.046
21.0794
-15.4124
21.0892
7.03205
21.7152
16.0812
-45.4345
12.7601
16.3239
10.8813
21.5249
13.7977
5.76382
21.7669
20.7635
20.7342
-17.632
11.575
3.96696
-31.4927
14.3234
10.9723
14.1152
-8.68739
-28.8576
14.9419
20.1168
-21.962
-23.3602
-27.9959
7.08448
9.61135
-22.1312
37.6529
-15.461
38.354
18.2625
10.7385
-15.1196
-15.8153
-30.1323
14.7199
14.3324
4.58993
-10.7337
-21.8753
-25.0194
16.1765
14.0692
14.9276
18.6555
3.76806
-24.4777
26.4524
7.20433
-21.3278
-24.528
14.805
15.0439
-16.0965
20.1168
-29.0257
20.5794
-16.6791
-2.89079
23.7792
21.6772
15.9964
26.6186
22.58
21.7343
15.6727
-29.6922
-16.0501
24.0368
21.5677
20.9411
22.015
-21.9497
23.5314
-33.7371
5.45283
21.7044
23.5747
-21.8732
6.66256
-5.94652
15.05
-30.3174
15.589
7.81763
2.40524
5.16826
-9.36355
-0.45218
22.5895
-15.4001
5.28034
15.1703
21.5111
11.4823
-21.0524
-21.2026
10.7671
-2.83233
-15.1443
-21.139
-15.1099
-20.9254
15.2449
-20.5757
-21.1403
-15.1543
-21.0028
18.9609
-15.8921
-14.7696
12.037
-14.439
18.7607
19.0098
7.4578
18.0057
11.7475
-16.1936
15.2534
14.9269
-21.466
10.4036
-14.1674
16.0121
14.5626
17.0426
14.8015
10.3211
-26.8938
-16.0331
-15.903
21.8566
14.4937
14.5923
20.8746
22.4353
9.48206
21.6838
-0.377816
-8.14
20.731
-17.78
19.8997
10.3417
-21.4539
15.6858
22.4744
14.6975
9.37342
14.1586
21.0072
-7.80539
8.80876
-7.87901
14.6152
26.8659
26.5204
27.8965
26.328
26.6631
26.2306
13.7952
23.3764
23.9743
23.9186
23.3461
21.1438
21.8069
-8.2343
15.8978
28.1264
-3.1776
23.5218
23.1519
27.7705
-8.46217
28.032
15.3096
-7.55518
17.4529
-8.22976
20.1806
29.5449
-7.45976
-8.07093
-29.5038
-18.1235
19.4822
-31.8915
5.72253
-7.76461
-1.18048
28.1844
26.5792
30.3559
26.6997
-34.7011
-8.1493
28.2724
8.05635
-8.26412
26.3853
-6.27473
30.4007
-7.92445
26.9851
14.5329
14.7543
23.7903
10.0255
17.9793
8.09974
-29.7648
-24.4648
16.7681
1.75869
8.16274
-13.569
17.3967
11.6732
-8.07146
9.4318
-10.7911
7.5017
-10.7226
-8.45344
33.1863
19.1078
25.0309
25.2547
13.7983
-10.3736
26.369
14.6515
-1.65119
-10.2432
-12.5274
17.4663
-7.45905
17.5343
-12.0061
-21.2663
-10.5766
-34.5819
15.5276
-7.73615
34.3619
-11.5439
16.8336
-8.38006
15.9364
-12.7214
4.28107
-50.9791
8.50477
-7.71986
21.2851
-8.12399
-0.118035
10.6912
21.0756
-12.0253
-10.1702
-6.04819
14.2857
-10.1494
6.8735
6.37372
16.2674
-10.3886
-6.30964
-1.69484
-5.64159
-11.0456
-5.82551
15.2712
7.79163
-5.53712
-8.93056
7.78886
7.67793
-10.6427
16.2713
-27.0929
2.29055
-28.3948
-0.951795
-8.72616
-7.94569
-11.6224
-10.7874
-9.72771
-7.62477
-7.748
16.6002
24.721
12.0898
-0.286412
-0.817192
-5.6557
7.29
-6.30004
-6.29725
24.8664
-5.71099
14.0856
-15.8597
24.2693
5.95737
-0.385848
-5.62488
16.2373
2.47401
0.202881
2.44507
0.459212
-0.732852
-9.89511
-0.0907531
2.11121
15.0343
-1.27953
-1.39733
-0.990917
-0.383172
1.96362
8.03406
-1.18511
8.06145
5.57323
-0.430059
7.0209
5.48041
-3.8617
16.4391
-1.89549
23.009
-21.8886
15.0101
15.6472
2.03783
-1.9897
12.5149
-26.3879
5.78188
-1.65052
-50.3453
30.4264
30.5628
5.81433
-1.13569
-1.04111
-0.842073
33.3381
33.2131
13.0654
6.06945
6.64913
-28.8394
-1.26999
16.4954
-3.17176
-4.33427
-0.0124772
-25.1526
14.2714
-1.27115
2.85787
2.68964
-2.71293
-0.0451113
-3.19811
-4.02049
-37.8577
-33.5863
-0.123576
1.87282
-0.529397
-3.73156
-1.9286
-1.87006
-0.918744
-21.823
17.2105
-0.761586
12.5371
14.1519
-26.6683
6.27383
7.12282
18.4348
36.3435
36.3759
22.5873
-1.74535
2.59659
-20.8442
36.0431
32.6813
32.7481
-24.6895
21.7242
30.4532
2.59621
15.6877
10.3486
17.1252
17.6859
12.4775
5.67017
-25.281
4.25204
10.3861
16.2066
-31.5917
28.2447
-52.5673
18.6416
10.2759
-10.5948
7.40131
5.44608
24.4187
9.39069
24.3519
4.09749
12.3719
30.5704
29.3985
-22.9025
17.3961
-70.0297
-74.1712
-66.9762
11.6224
-31.1317
-63.4135
-3.79075
-69.7344
16.4239
16.3677
-73.5454
5.20364
-39.6016
-70.5347
-37.6293
-71.6683
-39.3213
21.0868
-23.8658
-28.9202
-70.4191
4.82199
15.7216
-36.0642
6.04162
-63.4229
9.81472
3.87599
-67.7005
-37.4942
-66.2109
-23.6384
5.02059
20.4782
35.2877
36.6408
11.7861
36.7639
36.8171
36.4066
36.3205
-24.3867
28.1835
20.6218
21.9297
11.5095
35.977
36.0084
18.0771
-23.8214
3.24245
-30.3979
-56.4449
-50.3335
36.0609
35.7424
35.3
35.37
36.0768
35.5154
33.0339
37.2848
35.3168
35.9239
35.557
34.116
34.2524
35.7734
35.2292
