# vtk DataFile Version 3.0
vtk output at time 0
ASCII
DATASET UNSTRUCTURED_GRID
POINTS 626 float
-3.68058e-05 0.000978749 0 3.68058e-05 0.000978749 0 -0.000829194 0.00052125 0 
-0.0008235 0.0005 0 -0.000866 0.0004575 0 -0.000866 -0.0004575 0 
-0.0008235 -0.0005 0 -0.000829194 -0.00052125 0 -3.68058e-05 -0.000978749 0 
3.68058e-05 -0.000978749 0 0.000829194 -0.00052125 0 0.000866 -0.0004575 0 
0.000866 0.0004575 0 0.000829194 0.00052125 0 8.5e-05 0 0 
-3.68058e-05 0.000978749 -0.001 3.68058e-05 0.000978749 -0.001 -0.000829194 0.00052125 -0.001 
-0.0008235 0.0005 -0.001 -0.000866 0.0004575 -0.001 -0.000866 -0.0004575 -0.001 
-0.0008235 -0.0005 -0.001 -0.000829194 -0.00052125 -0.001 -3.68058e-05 -0.000978749 -0.001 
3.68058e-05 -0.000978749 -0.001 0.000829194 -0.00052125 -0.001 0.000866 -0.0004575 -0.001 
0.000866 0.0004575 -0.001 0.000829194 0.00052125 -0.001 8.5e-05 0 -0.001 
8.46223e-17 0.0009575 0 -0.000715996 0.000586607 0 -0.000602797 0.000651965 0 
-0.000489599 0.000717321 0 -0.000376401 0.000782678 0 -0.000263202 0.000848036 0 
-0.000150004 0.000913393 0 -0.000835948 0.000469948 0 -0.000866 -0.000326786 0 
-0.000866 -0.000196071 0 -0.000866 -6.53571e-05 0 -0.000866 6.53571e-05 0 
-0.000866 0.000196071 0 -0.000866 0.000326786 0 -0.000835948 -0.000469948 0 
-0.000150004 -0.000913393 0 -0.000263202 -0.000848036 0 -0.000376401 -0.000782678 0 
-0.000489599 -0.000717321 0 -0.000602797 -0.000651965 0 -0.000715996 -0.000586607 0 
8.47648e-17 -0.0009575 0 0.000715996 -0.000586607 0 0.000602797 -0.000651965 0 
0.000489599 -0.000717321 0 0.000376401 -0.000782678 0 0.000263202 -0.000848036 0 
0.000150004 -0.000913393 0 0.000829194 -0.00047875 0 0.000866 0.000326786 0 
0.000866 0.000196071 0 0.000866 6.53571e-05 0 0.000866 -6.53571e-05 0 
0.000866 -0.000196071 0 0.000866 -0.000326786 0 0.000829194 0.00047875 0 
0.000150004 0.000913393 0 0.000263202 0.000848036 0 0.000376401 0.000782678 0 
0.000489599 0.000717321 0 0.000602797 0.000651965 0 0.000715996 0.000586607 0 
5.29966e-05 6.64557e-05 0 -1.89143e-05 8.28689e-05 0 -7.65824e-05 3.68801e-05 0 
-7.65824e-05 -3.68801e-05 0 -1.89143e-05 -8.28689e-05 0 5.29966e-05 -6.64557e-05 0 
8.46223e-17 0.0009575 -0.001 -0.000715996 0.000586607 -0.001 -0.000602797 0.000651965 -0.001 
-0.000489599 0.000717321 -0.001 -0.000376401 0.000782678 -0.001 -0.000263202 0.000848036 -0.001 
-0.000150004 0.000913393 -0.001 -0.000835948 0.000469948 -0.001 -0.000866 -0.000326786 -0.001 
-0.000866 -0.000196071 -0.001 -0.000866 -6.53571e-05 -0.001 -0.000866 6.53571e-05 -0.001 
-0.000866 0.000196071 -0.001 -0.000866 0.000326786 -0.001 -0.000835948 -0.000469948 -0.001 
-0.000150004 -0.000913393 -0.001 -0.000263202 -0.000848036 -0.001 -0.000376401 -0.000782678 -0.001 
-0.000489599 -0.000717321 -0.001 -0.000602797 -0.000651965 -0.001 -0.000715996 -0.000586607 -0.001 
8.47648e-17 -0.0009575 -0.001 0.000715996 -0.000586607 -0.001 0.000602797 -0.000651965 -0.001 
0.000489599 -0.000717321 -0.001 0.000376401 -0.000782678 -0.001 0.000263202 -0.000848036 -0.001 
0.000150004 -0.000913393 -0.001 0.000829194 -0.00047875 -0.001 0.000866 0.000326786 -0.001 
0.000866 0.000196071 -0.001 0.000866 6.53571e-05 -0.001 0.000866 -6.53571e-05 -0.001 
0.000866 -0.000196071 -0.001 0.000866 -0.000326786 -0.001 0.000829194 0.00047875 -0.001 
0.000150004 0.000913393 -0.001 0.000263202 0.000848036 -0.001 0.000376401 0.000782678 -0.001 
0.000489599 0.000717321 -0.001 0.000602797 0.000651965 -0.001 0.000715996 0.000586607 -0.001 
5.29966e-05 6.64557e-05 -0.001 -1.89143e-05 8.28689e-05 -0.001 -7.65824e-05 3.68801e-05 -0.001 
-7.65824e-05 -3.68801e-05 -0.001 -1.89143e-05 -8.28689e-05 -0.001 5.29966e-05 -6.64557e-05 -0.001 
0.000131234 6.38474e-05 0 0.00012964 -6.2443e-05 0 3.13827e-05 0.0001394 0 
3.12554e-05 -0.000136939 0 -0.000140461 8.25467e-19 0 -8.90565e-05 -0.000102707 0 
-9.04142e-05 0.000102872 0 -0.000765769 -0.00025965 0 -0.000756873 0.000262774 0 
-0.00015609 0.000787505 0 -0.000155807 -0.00079355 0 0.000605069 0.000528035 0 
0.000608694 -0.00052497 0 0.000744069 0.000116929 0 -0.000494418 0.000596218 0 
-0.000483866 -0.000584648 0 0.000269496 0.000702219 0 0.000263201 -0.000717324 0 
0.000754429 -0.000127825 0 -0.000748858 5.84659e-07 0 -0.000747838 0.000373886 0 
-0.0006542 0.000324842 0 -0.000645137 0.000210123 0 -0.000550884 0.000274171 0 
-0.000538857 0.000163195 0 -0.00045062 0.000224461 0 -0.000438393 0.000123907 0 
-0.000354088 0.000181668 0 -0.000363908 0.000282171 0 -0.000270361 0.000239477 0 
-0.000279138 0.000337653 0 -0.000188888 0.000294791 0 -0.000196448 0.000393271 0 
-0.000104767 0.000348259 0 -0.000113332 0.000449012 0 -2.01066e-05 0.000403223 0 
-2.89189e-05 0.000507105 0 6.9524e-05 0.000461596 0 -0.000213644 0.000490203 0 
7.33757e-05 0.000357726 0 0.000163331 0.00041299 0 0.000163359 0.000313022 0 
0.000248077 0.000366368 0 0.000250914 0.000265758 0 0.000335709 0.000322266 0 
0.000340555 0.000218148 0 0.000427299 0.000276717 0 0.000431508 0.000173093 0 
0.000328731 0.000425633 0 0.00034586 0.000114823 0 0.000435362 7.05241e-05 0 
0.000350892 1.5455e-05 0 0.000441547 -3.11896e-05 0 0.000353547 -8.47783e-05 0 
0.000445767 -0.000132964 0 0.000356135 -0.000186358 0 0.000449094 -0.000234674 0 
0.000359978 -0.000287876 0 0.00026856 -0.000240545 0 0.000271895 -0.000341045 0 
0.000181792 -0.00029305 0 0.00018533 -0.000392851 0 9.75701e-05 -0.00034483 0 
9.98764e-05 -0.000444884 0 8.75116e-06 -0.000396343 0 1.20916e-05 -0.000500496 0 
-7.83929e-05 -0.000449843 0 -8.1471e-05 -0.000347249 0 -0.000171566 -0.000403733 0 
-0.000169889 -0.000298891 0 -0.000259867 -0.000354132 0 -0.000257696 -0.000249137 0 
-0.00034313 -0.000299896 0 -0.000344514 -0.000199127 0 -0.000434309 -0.000250039 0 
-0.000169832 -0.000505815 0 -0.000435227 -0.000146227 0 0.000280331 -0.000442424 0 
-0.000340889 8.76793e-05 0 -0.000515252 4.06198e-05 0 6.50491e-05 0.000568253 0 
0.00053278 1.74743e-05 0 0.000522071 0.000229831 0 -0.00037162 0.000391659 0 
-0.000255272 -0.000150439 0 -0.000442893 -0.000350705 0 0.000450067 -0.000332559 0 
0.000545175 -0.000276306 0 -0.000527797 -0.000197598 0 0.000105306 -0.000551033 0 
1.45836e-05 -0.000609147 0 0.00017145 0.000214453 0 0.000515525 0.000341711 0 
0.000636086 0.000290368 0 -0.000558657 0.000404468 0 -4.01232e-05 0.000616718 0 
6.60192e-05 0.000696422 0 -0.000101806 0.0002546 0 0.000271142 -3.88908e-05 0 
0.000179455 -0.00018534 0 -8.79553e-05 -0.000254307 0 -0.000749267 -0.000373451 0 
-0.000655941 -0.000323397 0 0.000709746 0.000466718 0 0.000698426 -0.000473086 0 
-5.25801e-05 -0.00084886 0 -4.93005e-05 0.000848038 0 0.000617396 -0.000413362 0 
0.000702056 -0.000369817 0 0.000131459 -0.000679171 0 2.48171e-05 -0.000715924 0 
-0.000664217 -0.00042729 0 -0.000528828 -8.80444e-05 0 -0.000611101 -0.000136672 0 
-0.000426972 -4.45841e-05 0 0.000800669 0.000378216 0 0.000821144 -0.000415062 0 
7.2799e-05 0.00088254 0 6.81831e-05 -0.00087503 0 0.000104963 -0.000788946 0 
-7.40696e-05 -0.000660054 0 0.000126061 0.000809943 0 0.000764361 0.000295682 0 
0.000166862 0.000630623 0 0.000516462 -0.00046707 0 -0.000563585 -0.000389606 0 
-0.000622598 -1.40238e-05 0 0.000629891 0.000171529 0 2.5614e-06 -0.000299794 0 
8.6901e-05 -0.00024329 0 0.000272045 -0.000136982 0 -0.00075148 0.000138321 0 
0.000209366 -0.000599589 0 0.000324913 -0.000630055 0 0.000614044 0.00041245 0 
0.00049651 -0.000573327 0 0.000394822 -0.000507321 0 -0.000173714 -0.000206698 0 
0.000264897 5.63722e-05 0 0.000247997 0.000152811 0 -4.63327e-05 -0.000920208 0 
9.18688e-05 0.000258626 0 -5.54111e-06 0.000290558 0 -0.000184219 0.000201484 0 
-0.000263559 0.000142267 0 -0.000256427 5.13624e-05 0 -0.000336894 -2.06179e-06 0 
-0.000228499 -4.2388e-05 0 -0.00017589 0.000106626 0 -0.000769947 -0.000133367 0 
0.000767591 -0.000500293 0 -5.05874e-05 0.000737978 0 0.000754456 -3.51771e-06 0 
0.00064691 -6.15298e-05 0 0.000630483 -0.00018134 0 0.000749187 -0.000265543 0 
-0.000760805 -0.000462521 0 0.000638155 6.09315e-05 0 -4.46661e-05 0.000922995 0 
-2.37945e-05 0.000207237 0 0.000776979 0.000500181 0 -0.000605691 0.000527596 0 
-0.000377914 -0.000653727 0 -0.000372325 -0.000526022 0 -0.000275829 -0.000589621 0 
-0.000254285 -0.000710579 0 -0.000379307 0.000656222 0 -0.000379818 0.00052718 0 
-0.000266817 0.000721555 0 -0.000150544 0.000668174 0 0.000381963 0.00065079 0 
0.000493113 0.000590432 0 0.000505439 0.000463708 0 -0.000269094 0.000596608 0 
0.000385815 0.000532045 0 0.000283599 0.0005899 0 -0.000176405 -0.000108505 0 
-0.000278769 -0.000475415 0 0.000185395 2.33014e-06 0 0.000186773 0.000517571 0 
0.000540032 -8.68444e-05 0 -0.000600694 -0.000514877 0 -0.00063703 8.98033e-05 0 
-0.000459677 0.000335729 0 -0.000338836 -0.000100751 0 -0.000457327 0.000432721 0 
-8.72007e-06 -0.000210238 0 0.000156073 0.000129496 0 -7.70692e-05 -0.000555049 0 
0.00036091 -0.000389728 0 0.000531628 0.000120564 0 -0.000285451 0.000435562 0 
0.000192719 -0.000494604 0 0.00041642 0.00039368 0 -0.000135943 0.000554637 0 
-0.000170665 -0.000610079 0 -0.000666304 0.000434981 0 -0.000758736 0.000479231 0 
-0.000470189 -0.000458901 0 0.000203433 -8.59809e-05 0 0.000101846 0.000170114 0 
-0.00035513 -0.00040726 0 0.000100184 -0.000165831 0 2.96286e-05 0.00081537 0 
0.000720946 0.000381836 0 -0.000539809 -0.000292001 0 0.00052211 -0.000182426 0 
-6.41339e-05 -0.000753908 0 0.000638039 -0.000299861 0 -0.000605136 -0.000230182 0 
-3.41638e-05 -0.000145561 0 -0.000104037 0.000172396 0 -0.000808575 -0.00042774 0 
-0.000807207 -0.000465052 0 -0.00080817 0.000429771 0 -0.000806589 0.000469738 0 
-9.50634e-05 -0.000178909 0 0.000247777 0.000445058 0 1.48293e-05 -0.000814201 0 
-4.11555e-05 0.000140955 0 0.000276104 -0.000536845 0 0.000765969 -0.000436638 0 
0.000780871 -0.000362769 0 0.000424176 -0.000642018 0 0.00053413 -0.000368009 0 
-0.000416333 4.17911e-05 0 -0.000133891 -6.23822e-05 0 4.2574e-05 0.000206312 0 
0.000141163 -0.000121542 0 0.000707423 0.000212137 0 0.000172327 0.000723882 0 
7.72652e-06 -0.00090254 0 -0.000134435 5.66935e-05 0 -0.000188826 3.70894e-05 0 
0.000197119 8.09714e-05 0 1.27801e-05 0.000917296 0 0.000800767 0.00044758 0 
-0.000686682 0.000507104 0 9.35831e-05 0.000110457 0 -0.000696793 -0.000509595 0 
-0.00068446 -8.52012e-05 0 -0.000691033 -0.000201242 0 5.24052e-05 -0.000189075 0 
-0.000151818 -0.000701092 0 -0.000296988 0.000518087 0 9.31023e-05 -0.000108117 0 
0.00044261 -0.000416726 0 0.000197044 -0.000784423 0 -0.000516861 0.000504567 0 
0.000298997 0.000502377 0 0.000131234 6.38474e-05 -0.001 0.00012964 -6.2443e-05 -0.001 
3.13827e-05 0.0001394 -0.001 3.12554e-05 -0.000136939 -0.001 -0.000140461 8.25467e-19 -0.001 
-8.90565e-05 -0.000102707 -0.001 -9.04142e-05 0.000102872 -0.001 -0.000765769 -0.00025965 -0.001 
-0.000756873 0.000262774 -0.001 -0.00015609 0.000787505 -0.001 -0.000155807 -0.00079355 -0.001 
0.000605069 0.000528035 -0.001 0.000608694 -0.00052497 -0.001 0.000744069 0.000116929 -0.001 
-0.000494418 0.000596218 -0.001 -0.000483866 -0.000584648 -0.001 0.000269496 0.000702219 -0.001 
0.000263201 -0.000717324 -0.001 0.000754429 -0.000127825 -0.001 -0.000748858 5.84659e-07 -0.001 
-0.000747838 0.000373886 -0.001 -0.0006542 0.000324842 -0.001 -0.000645137 0.000210123 -0.001 
-0.000550884 0.000274171 -0.001 -0.000538857 0.000163195 -0.001 -0.00045062 0.000224461 -0.001 
-0.000438393 0.000123907 -0.001 -0.000354088 0.000181668 -0.001 -0.000363908 0.000282171 -0.001 
-0.000270361 0.000239477 -0.001 -0.000279138 0.000337653 -0.001 -0.000188888 0.000294791 -0.001 
-0.000196448 0.000393271 -0.001 -0.000104767 0.000348259 -0.001 -0.000113332 0.000449012 -0.001 
-2.01066e-05 0.000403223 -0.001 -2.89189e-05 0.000507105 -0.001 6.9524e-05 0.000461596 -0.001 
-0.000213644 0.000490203 -0.001 7.33757e-05 0.000357726 -0.001 0.000163331 0.00041299 -0.001 
0.000163359 0.000313022 -0.001 0.000248077 0.000366368 -0.001 0.000250914 0.000265758 -0.001 
0.000335709 0.000322266 -0.001 0.000340555 0.000218148 -0.001 0.000427299 0.000276717 -0.001 
0.000431508 0.000173093 -0.001 0.000328731 0.000425633 -0.001 0.00034586 0.000114823 -0.001 
0.000435362 7.05241e-05 -0.001 0.000350892 1.5455e-05 -0.001 0.000441547 -3.11896e-05 -0.001 
0.000353547 -8.47783e-05 -0.001 0.000445767 -0.000132964 -0.001 0.000356135 -0.000186358 -0.001 
0.000449094 -0.000234674 -0.001 0.000359978 -0.000287876 -0.001 0.00026856 -0.000240545 -0.001 
0.000271895 -0.000341045 -0.001 0.000181792 -0.00029305 -0.001 0.00018533 -0.000392851 -0.001 
9.75701e-05 -0.00034483 -0.001 9.98764e-05 -0.000444884 -0.001 8.75116e-06 -0.000396343 -0.001 
1.20916e-05 -0.000500496 -0.001 -7.83929e-05 -0.000449843 -0.001 -8.1471e-05 -0.000347249 -0.001 
-0.000171566 -0.000403733 -0.001 -0.000169889 -0.000298891 -0.001 -0.000259867 -0.000354132 -0.001 
-0.000257696 -0.000249137 -0.001 -0.00034313 -0.000299896 -0.001 -0.000344514 -0.000199127 -0.001 
-0.000434309 -0.000250039 -0.001 -0.000169832 -0.000505815 -0.001 -0.000435227 -0.000146227 -0.001 
0.000280331 -0.000442424 -0.001 -0.000340889 8.76793e-05 -0.001 -0.000515252 4.06198e-05 -0.001 
6.50491e-05 0.000568253 -0.001 0.00053278 1.74743e-05 -0.001 0.000522071 0.000229831 -0.001 
-0.00037162 0.000391659 -0.001 -0.000255272 -0.000150439 -0.001 -0.000442893 -0.000350705 -0.001 
0.000450067 -0.000332559 -0.001 0.000545175 -0.000276306 -0.001 -0.000527797 -0.000197598 -0.001 
0.000105306 -0.000551033 -0.001 1.45836e-05 -0.000609147 -0.001 0.00017145 0.000214453 -0.001 
0.000515525 0.000341711 -0.001 0.000636086 0.000290368 -0.001 -0.000558657 0.000404468 -0.001 
-4.01232e-05 0.000616718 -0.001 6.60192e-05 0.000696422 -0.001 -0.000101806 0.0002546 -0.001 
0.000271142 -3.88908e-05 -0.001 0.000179455 -0.00018534 -0.001 -8.79553e-05 -0.000254307 -0.001 
-0.000749267 -0.000373451 -0.001 -0.000655941 -0.000323397 -0.001 0.000709746 0.000466718 -0.001 
0.000698426 -0.000473086 -0.001 -5.25801e-05 -0.00084886 -0.001 -4.93005e-05 0.000848038 -0.001 
0.000617396 -0.000413362 -0.001 0.000702056 -0.000369817 -0.001 0.000131459 -0.000679171 -0.001 
2.48171e-05 -0.000715924 -0.001 -0.000664217 -0.00042729 -0.001 -0.000528828 -8.80444e-05 -0.001 
-0.000611101 -0.000136672 -0.001 -0.000426972 -4.45841e-05 -0.001 0.000800669 0.000378216 -0.001 
0.000821144 -0.000415062 -0.001 7.2799e-05 0.00088254 -0.001 6.81831e-05 -0.00087503 -0.001 
0.000104963 -0.000788946 -0.001 -7.40696e-05 -0.000660054 -0.001 0.000126061 0.000809943 -0.001 
0.000764361 0.000295682 -0.001 0.000166862 0.000630623 -0.001 0.000516462 -0.00046707 -0.001 
-0.000563585 -0.000389606 -0.001 -0.000622598 -1.40238e-05 -0.001 0.000629891 0.000171529 -0.001 
2.5614e-06 -0.000299794 -0.001 8.6901e-05 -0.00024329 -0.001 0.000272045 -0.000136982 -0.001 
-0.00075148 0.000138321 -0.001 0.000209366 -0.000599589 -0.001 0.000324913 -0.000630055 -0.001 
0.000614044 0.00041245 -0.001 0.00049651 -0.000573327 -0.001 0.000394822 -0.000507321 -0.001 
-0.000173714 -0.000206698 -0.001 0.000264897 5.63722e-05 -0.001 0.000247997 0.000152811 -0.001 
-4.63327e-05 -0.000920208 -0.001 9.18688e-05 0.000258626 -0.001 -5.54111e-06 0.000290558 -0.001 
-0.000184219 0.000201484 -0.001 -0.000263559 0.000142267 -0.001 -0.000256427 5.13624e-05 -0.001 
-0.000336894 -2.06179e-06 -0.001 -0.000228499 -4.2388e-05 -0.001 -0.00017589 0.000106626 -0.001 
-0.000769947 -0.000133367 -0.001 0.000767591 -0.000500293 -0.001 -5.05874e-05 0.000737978 -0.001 
0.000754456 -3.51771e-06 -0.001 0.00064691 -6.15298e-05 -0.001 0.000630483 -0.00018134 -0.001 
0.000749187 -0.000265543 -0.001 -0.000760805 -0.000462521 -0.001 0.000638155 6.09315e-05 -0.001 
-4.46661e-05 0.000922995 -0.001 -2.37945e-05 0.000207237 -0.001 0.000776979 0.000500181 -0.001 
-0.000605691 0.000527596 -0.001 -0.000377914 -0.000653727 -0.001 -0.000372325 -0.000526022 -0.001 
-0.000275829 -0.000589621 -0.001 -0.000254285 -0.000710579 -0.001 -0.000379307 0.000656222 -0.001 
-0.000379818 0.00052718 -0.001 -0.000266817 0.000721555 -0.001 -0.000150544 0.000668174 -0.001 
0.000381963 0.00065079 -0.001 0.000493113 0.000590432 -0.001 0.000505439 0.000463708 -0.001 
-0.000269094 0.000596608 -0.001 0.000385815 0.000532045 -0.001 0.000283599 0.0005899 -0.001 
-0.000176405 -0.000108505 -0.001 -0.000278769 -0.000475415 -0.001 0.000185395 2.33014e-06 -0.001 
0.000186773 0.000517571 -0.001 0.000540032 -8.68444e-05 -0.001 -0.000600694 -0.000514877 -0.001 
-0.00063703 8.98033e-05 -0.001 -0.000459677 0.000335729 -0.001 -0.000338836 -0.000100751 -0.001 
-0.000457327 0.000432721 -0.001 -8.72007e-06 -0.000210238 -0.001 0.000156073 0.000129496 -0.001 
-7.70692e-05 -0.000555049 -0.001 0.00036091 -0.000389728 -0.001 0.000531628 0.000120564 -0.001 
-0.000285451 0.000435562 -0.001 0.000192719 -0.000494604 -0.001 0.00041642 0.00039368 -0.001 
-0.000135943 0.000554637 -0.001 -0.000170665 -0.000610079 -0.001 -0.000666304 0.000434981 -0.001 
-0.000758736 0.000479231 -0.001 -0.000470189 -0.000458901 -0.001 0.000203433 -8.59809e-05 -0.001 
0.000101846 0.000170114 -0.001 -0.00035513 -0.00040726 -0.001 0.000100184 -0.000165831 -0.001 
2.96286e-05 0.00081537 -0.001 0.000720946 0.000381836 -0.001 -0.000539809 -0.000292001 -0.001 
0.00052211 -0.000182426 -0.001 -6.41339e-05 -0.000753908 -0.001 0.000638039 -0.000299861 -0.001 
-0.000605136 -0.000230182 -0.001 -3.41638e-05 -0.000145561 -0.001 -0.000104037 0.000172396 -0.001 
-0.000808575 -0.00042774 -0.001 -0.000807207 -0.000465052 -0.001 -0.00080817 0.000429771 -0.001 
-0.000806589 0.000469738 -0.001 -9.50634e-05 -0.000178909 -0.001 0.000247777 0.000445058 -0.001 
1.48293e-05 -0.000814201 -0.001 -4.11555e-05 0.000140955 -0.001 0.000276104 -0.000536845 -0.001 
0.000765969 -0.000436638 -0.001 0.000780871 -0.000362769 -0.001 0.000424176 -0.000642018 -0.001 
0.00053413 -0.000368009 -0.001 -0.000416333 4.17911e-05 -0.001 -0.000133891 -6.23822e-05 -0.001 
4.2574e-05 0.000206312 -0.001 0.000141163 -0.000121542 -0.001 0.000707423 0.000212137 -0.001 
0.000172327 0.000723882 -0.001 7.72652e-06 -0.00090254 -0.001 -0.000134435 5.66935e-05 -0.001 
-0.000188826 3.70894e-05 -0.001 0.000197119 8.09714e-05 -0.001 1.27801e-05 0.000917296 -0.001 
0.000800767 0.00044758 -0.001 -0.000686682 0.000507104 -0.001 9.35831e-05 0.000110457 -0.001 
-0.000696793 -0.000509595 -0.001 -0.00068446 -8.52012e-05 -0.001 -0.000691033 -0.000201242 -0.001 
5.24052e-05 -0.000189075 -0.001 -0.000151818 -0.000701092 -0.001 -0.000296988 0.000518087 -0.001 
9.31023e-05 -0.000108117 -0.001 0.00044261 -0.000416726 -0.001 0.000197044 -0.000784423 -0.001 
-0.000516861 0.000504567 -0.001 0.000298997 0.000502377 -0.001 

CELLS 563 3941
6 14 304 127 29 554 377 
6 143 259 55 393 509 103 
6 300 319 174 550 569 424 
6 259 349 55 509 599 103 
6 50 365 307 98 615 557 
6 299 320 164 549 570 414 
6 126 304 14 376 554 29 
6 298 319 300 548 569 550 
6 205 240 238 455 490 488 
6 257 308 145 507 558 395 
6 130 352 273 380 602 523 
6 295 320 299 545 570 549 
6 324 327 289 574 577 539 
6 235 258 143 485 508 393 
6 50 307 49 98 557 97 
6 207 283 279 457 533 529 
6 143 373 235 393 623 485 
6 145 308 252 395 558 502 
6 194 303 196 444 553 446 
6 279 306 207 529 556 457 
6 206 305 163 456 555 413 
6 51 357 9 99 607 24 
6 238 252 205 488 502 455 
6 293 317 209 543 567 459 
6 207 316 283 457 566 533 
6 142 301 249 392 551 499 
6 273 359 130 523 609 380 
6 211 327 324 461 577 574 
6 169 265 217 419 515 467 
6 7 365 50 22 615 98 
6 283 316 253 533 566 503 
6 159 268 223 409 518 473 
6 274 337 132 524 587 382 
6 232 361 329 482 611 579 
6 231 266 45 481 516 93 
6 229 362 330 479 612 580 
6 9 244 57 24 494 105 
6 230 276 52 480 526 100 
6 209 311 293 459 561 543 
6 131 342 302 381 592 552 
6 270 271 204 520 521 454 
6 66 243 1 114 493 16 
6 59 241 12 107 491 27 
6 280 306 279 530 556 529 
6 269 337 274 519 587 524 
6 179 256 224 429 506 474 
6 163 305 166 413 555 416 
6 201 303 194 451 553 444 
6 280 332 306 530 582 556 
6 186 255 225 436 505 475 
6 210 310 273 460 560 523 
6 153 270 204 403 520 454 
6 136 231 45 386 481 93 
6 171 265 169 421 515 419 
6 138 230 52 388 480 100 
6 225 354 325 475 604 575 
6 36 284 232 84 534 482 
6 161 268 159 411 518 409 
6 71 286 229 119 536 479 
6 290 303 201 540 553 451 
6 139 355 60 389 605 108 
6 60 355 248 108 605 498 
6 273 352 302 523 602 552 
6 235 373 245 485 623 495 
6 67 356 247 115 606 497 
6 221 295 277 471 545 527 
6 142 356 67 392 606 115 
6 139 283 253 389 533 503 
6 203 315 262 453 565 512 
6 41 257 145 89 507 395 
6 36 232 135 84 482 385 
6 71 229 137 119 479 387 
6 254 255 188 504 505 438 
6 233 350 334 483 600 584 
6 262 346 203 512 596 453 
6 304 325 127 554 575 377 
6 222 329 247 472 579 497 
6 218 298 260 468 548 510 
6 290 321 291 540 571 541 
6 272 310 240 522 560 490 
6 269 274 270 519 524 520 
6 244 245 57 494 495 105 
6 49 307 141 97 557 391 
6 225 325 256 475 575 506 
6 273 310 272 523 560 522 
6 312 368 255 562 618 505 
6 249 305 206 499 555 456 
6 228 331 251 478 581 501 
6 302 342 263 552 592 513 
6 338 339 44 588 589 92 
6 190 254 188 440 504 438 
6 37 341 340 85 591 590 
6 138 233 230 388 483 480 
6 228 335 331 478 585 581 
6 181 256 179 431 506 429 
6 195 263 226 445 513 476 
6 268 285 223 518 535 473 
6 290 291 288 540 541 538 
6 219 330 248 469 580 498 
6 201 321 290 451 571 540 
6 240 310 202 490 560 452 
6 188 255 186 438 505 436 
6 270 274 271 520 524 521 
6 262 349 259 512 599 509 
6 141 324 289 391 574 539 
6 296 301 142 546 551 392 
6 247 356 222 497 606 472 
6 239 252 238 489 502 488 
6 254 312 255 504 562 505 
6 54 261 53 102 511 101 
6 289 327 303 539 577 553 
6 268 353 285 518 603 535 
6 273 302 210 523 552 460 
6 292 299 293 542 549 543 
6 278 283 139 528 533 389 
6 175 265 171 425 515 421 
6 227 338 38 477 588 86 
6 264 360 265 514 610 515 
6 43 340 146 91 590 396 
6 165 268 161 415 518 411 
6 205 351 240 455 601 490 
6 64 281 63 112 531 111 
6 288 291 47 538 541 95 
6 135 295 294 385 545 544 
6 42 257 41 90 507 89 
6 245 373 57 495 623 105 
6 31 363 323 79 613 573 
6 292 293 140 542 543 390 
6 267 353 268 517 603 518 
6 155 270 153 405 520 403 
6 244 344 245 494 594 495 
6 61 278 139 109 528 389 
6 135 294 35 385 544 83 
6 69 297 296 117 547 546 
6 186 225 184 436 475 434 
6 329 361 243 579 611 493 
6 255 328 225 505 578 475 
6 213 332 280 463 582 530 
6 39 275 133 87 525 383 
6 330 362 241 580 612 491 
6 195 226 193 445 476 443 
6 211 324 251 461 574 501 
6 151 153 152 401 403 402 
6 295 299 294 545 549 544 
6 265 313 217 515 563 467 
6 258 259 143 508 509 393 
6 251 331 211 501 581 461 
6 149 151 150 399 401 400 
6 293 370 317 543 620 567 
6 153 204 152 403 454 402 
6 151 152 150 401 402 400 
6 33 292 140 81 542 390 
6 210 263 197 460 513 447 
6 301 305 249 551 555 499 
6 298 300 297 548 550 547 
6 68 296 142 116 546 392 
6 321 369 291 571 619 541 
6 179 224 177 429 474 427 
6 167 267 165 417 517 415 
6 259 346 262 509 596 512 
6 303 327 196 553 577 446 
6 269 270 155 519 520 405 
6 265 360 313 515 610 563 
6 223 269 157 473 519 407 
6 157 269 155 407 519 405 
6 144 279 278 394 529 528 
6 169 217 167 419 467 417 
6 177 264 175 427 514 425 
6 267 268 165 517 518 415 
6 159 223 157 409 473 407 
6 232 277 135 482 527 385 
6 193 254 190 443 504 440 
6 217 267 167 467 517 417 
6 249 356 142 499 606 392 
6 184 256 181 434 506 431 
6 248 355 219 498 605 469 
6 229 260 137 479 510 387 
6 149 150 148 399 400 398 
6 64 348 281 112 598 531 
6 311 374 293 561 624 543 
6 264 265 175 514 515 425 
6 297 300 296 547 550 546 
6 141 289 288 391 539 538 
6 197 263 195 447 513 445 
6 218 260 219 468 510 469 
6 224 264 177 474 514 427 
6 137 298 297 387 548 547 
6 277 295 135 527 545 385 
6 133 228 227 383 478 477 
6 261 349 262 511 599 512 
6 221 277 222 471 527 472 
6 256 325 224 506 575 474 
6 199 210 197 449 460 447 
6 226 254 193 476 504 443 
6 144 278 62 394 528 110 
6 279 283 278 529 533 528 
6 289 290 288 539 540 538 
6 137 297 70 387 547 118 
6 34 294 292 82 544 542 
6 235 236 216 485 486 466 
6 141 288 48 391 538 96 
6 178 306 180 428 556 430 
6 185 186 184 435 436 434 
6 63 281 144 111 531 394 
6 225 256 184 475 506 434 
6 46 291 136 94 541 386 
6 147 149 148 397 399 398 
6 271 272 204 521 522 454 
6 233 334 234 483 584 484 
6 145 275 40 395 525 88 
6 220 322 287 470 572 537 
6 280 334 213 530 584 463 
6 144 280 279 394 530 529 
6 140 287 32 390 537 80 
6 154 155 153 404 405 403 
6 334 350 213 584 600 463 
6 176 177 175 426 427 425 
6 260 298 137 510 548 387 
6 33 140 32 81 390 80 
6 49 141 48 97 391 96 
6 56 143 55 104 393 103 
6 68 142 67 116 392 115 
6 63 144 62 111 394 110 
6 61 139 60 109 389 108 
6 148 308 257 398 558 507 
6 71 137 70 119 387 118 
6 53 138 52 101 388 100 
6 46 136 45 94 386 93 
6 36 135 35 84 385 83 
6 43 146 134 91 396 384 
6 133 227 38 383 477 86 
6 192 193 190 442 443 440 
6 293 374 140 543 624 390 
6 34 292 33 82 542 81 
6 207 306 178 457 556 428 
6 43 134 42 91 384 90 
6 39 133 38 87 383 86 
6 41 145 40 89 395 88 
6 194 195 193 444 445 443 
6 69 296 68 117 546 116 
6 294 299 292 544 549 542 
6 173 175 171 423 425 421 
6 260 330 219 510 580 469 
6 183 184 181 433 434 431 
6 134 257 42 384 507 90 
6 55 349 54 103 599 102 
6 163 165 161 413 415 411 
6 166 167 165 416 417 415 
6 210 302 263 460 552 513 
6 271 273 272 521 523 522 
6 53 261 138 101 511 388 
6 217 326 267 467 576 517 
6 289 303 290 539 553 540 
6 178 179 177 428 429 427 
6 238 240 202 488 490 452 
6 62 278 61 110 528 109 
6 35 294 34 83 544 82 
6 284 361 232 534 611 482 
6 70 297 69 118 547 117 
6 224 304 264 474 554 514 
6 156 157 155 406 407 405 
6 48 288 47 96 538 95 
6 221 320 295 471 570 545 
6 187 188 186 437 438 436 
6 47 291 46 95 541 94 
6 151 154 153 401 404 403 
6 286 362 229 536 612 479 
6 168 169 167 418 419 417 
6 40 275 39 88 525 87 
6 307 324 141 557 574 391 
6 300 301 296 550 551 546 
6 32 287 31 80 537 79 
6 147 220 149 397 470 399 
6 333 344 231 583 594 481 
6 299 370 293 549 620 543 
6 271 359 273 521 609 523 
6 224 325 304 474 575 554 
6 228 237 227 478 487 477 
6 305 375 343 555 625 593 
6 218 319 298 468 569 548 
6 240 351 272 490 601 522 
6 277 329 222 527 579 472 
6 253 355 139 503 605 389 
6 158 159 157 408 409 407 
6 236 246 216 486 496 466 
6 192 194 193 442 444 443 
6 220 309 149 470 559 399 
6 183 185 184 433 435 434 
6 196 197 195 446 447 445 
6 276 347 58 526 597 106 
6 136 333 231 386 583 481 
6 67 247 66 115 497 114 
6 60 248 59 108 498 107 
6 261 262 250 511 512 500 
6 173 176 175 423 426 425 
6 344 357 231 594 607 481 
6 144 281 280 394 531 530 
6 152 205 150 402 455 400 
6 163 166 165 413 416 415 
6 185 187 186 435 437 436 
6 233 234 230 483 484 480 
6 170 171 169 420 421 419 
6 146 147 134 396 397 384 
6 176 178 177 426 428 427 
6 285 337 223 535 587 473 
6 154 156 155 404 406 405 
6 263 342 226 513 592 476 
6 235 245 236 485 495 486 
6 160 161 159 410 411 409 
6 58 347 242 106 597 492 
6 166 168 167 416 418 417 
6 287 374 220 537 624 470 
6 189 190 188 439 440 438 
6 148 257 134 398 507 384 
6 194 196 195 444 446 445 
6 252 308 205 502 558 455 
6 285 345 337 535 595 587 
6 301 375 305 551 625 555 
6 180 181 179 430 431 429 
6 281 348 234 531 598 484 
6 198 199 197 448 449 447 
6 151 309 154 401 559 404 
6 228 367 335 478 617 585 
6 54 349 261 102 599 511 
6 156 158 157 406 408 407 
6 168 170 169 418 420 419 
6 200 202 199 450 452 449 
6 147 148 134 397 398 384 
6 158 160 159 408 410 409 
6 150 308 148 400 558 398 
6 253 316 208 503 566 458 
6 232 329 277 482 579 527 
6 178 180 179 428 430 429 
6 191 192 190 441 442 440 
6 214 238 202 464 488 452 
6 172 173 171 422 423 421 
6 187 189 188 437 439 438 
6 162 163 161 412 413 411 
6 228 251 237 478 501 487 
6 215 258 235 465 508 485 
6 182 183 181 432 433 431 
6 202 310 199 452 560 449 
6 219 253 208 469 503 458 
6 222 249 206 472 499 456 
6 196 198 197 446 448 447 
6 229 330 260 479 580 510 
6 132 358 274 382 608 524 
6 149 309 151 399 559 401 
6 226 312 254 476 562 504 
6 154 309 209 404 559 459 
6 77 129 76 125 379 124 
6 73 128 72 121 378 120 
6 76 131 75 124 381 123 
6 74 132 73 122 382 121 
6 75 130 74 123 380 122 
6 14 127 77 29 377 125 
6 72 126 14 120 376 29 
6 133 367 228 383 617 478 
6 237 282 227 487 532 477 
6 239 366 252 489 616 502 
6 200 214 202 450 464 452 
6 192 201 194 442 451 444 
6 170 172 171 420 422 421 
6 220 311 309 470 561 559 
6 198 200 199 448 450 449 
6 189 191 190 439 441 440 
6 146 323 322 396 573 572 
6 160 162 161 410 412 411 
6 251 307 237 501 557 487 
6 199 310 210 449 560 460 
6 57 373 56 105 623 104 
6 214 239 238 464 489 488 
6 182 212 183 432 462 433 
6 180 182 181 430 432 431 
6 146 322 147 396 572 397 
6 172 218 208 422 468 458 
6 172 208 173 422 458 423 
6 162 221 206 412 471 456 
6 162 206 163 412 456 413 
6 176 207 178 426 457 428 
6 272 351 204 522 601 454 
6 198 211 200 448 461 450 
6 182 213 212 432 463 462 
6 234 334 281 484 584 531 
6 154 209 156 404 459 406 
6 185 203 187 435 453 437 
6 168 174 170 418 424 420 
6 189 215 191 439 465 441 
6 215 216 191 465 466 441 
6 221 222 206 471 472 456 
6 158 164 160 408 414 410 
6 218 219 208 468 469 458 
6 205 308 150 455 558 400 
6 191 314 192 441 564 442 
6 215 235 216 465 485 466 
6 215 318 258 465 568 508 
6 152 351 205 402 601 455 
6 138 261 250 388 511 500 
6 192 314 201 442 564 451 
6 234 347 230 484 597 480 
6 226 342 312 476 592 562 
6 138 250 233 388 500 483 
6 147 322 220 397 572 470 
6 216 314 191 466 564 441 
6 306 332 180 556 582 430 
6 222 356 249 472 606 499 
6 128 345 285 378 595 535 
6 314 321 201 564 571 451 
6 212 315 183 462 565 433 
6 312 342 336 562 592 586 
6 282 339 338 532 589 588 
6 340 341 323 590 591 573 
6 309 311 209 559 561 459 
6 183 315 185 433 565 435 
6 208 316 173 458 566 423 
6 173 316 176 423 566 426 
6 3 341 37 18 591 85 
6 44 339 6 92 589 21 
6 252 366 145 502 616 395 
6 246 321 314 496 571 564 
6 246 314 216 496 564 466 
6 126 364 313 376 614 563 
6 156 317 158 406 567 408 
6 275 367 133 525 617 383 
6 176 316 207 426 566 457 
6 185 315 203 435 565 453 
6 180 332 182 430 582 432 
6 302 352 131 552 602 381 
6 251 324 307 501 574 557 
6 187 318 189 437 568 439 
6 172 319 218 422 569 468 
6 162 320 221 412 570 471 
6 305 343 166 555 593 416 
6 170 319 172 420 569 422 
6 158 317 164 408 567 414 
6 209 317 156 459 567 406 
6 285 353 128 535 603 378 
6 223 337 269 473 587 519 
6 160 320 162 410 570 412 
6 211 331 200 461 581 450 
6 174 319 170 424 569 420 
6 203 318 187 453 568 437 
6 189 318 215 439 568 465 
6 198 327 211 448 577 461 
6 164 320 160 414 570 410 
6 326 353 267 576 603 517 
6 236 344 333 486 594 583 
6 196 327 198 446 577 448 
6 219 355 253 469 605 503 
6 281 334 280 531 584 530 
6 274 359 271 524 609 521 
6 164 370 299 414 620 549 
6 174 375 300 424 625 550 
6 287 363 31 537 613 79 
6 243 361 1 493 611 16 
6 241 362 12 491 612 27 
6 307 365 237 557 615 487 
6 166 343 168 416 593 418 
6 200 331 214 450 581 464 
6 313 326 217 563 576 467 
6 9 357 244 24 607 494 
6 1 361 30 16 611 78 
6 12 362 65 27 612 113 
6 337 345 132 587 595 382 
6 242 348 64 492 598 112 
6 231 357 266 481 607 516 
6 182 332 213 432 582 463 
6 245 344 236 495 594 486 
6 258 346 259 508 596 509 
6 145 366 275 395 616 525 
6 291 369 136 541 619 386 
6 236 333 246 486 583 496 
6 331 335 214 581 585 464 
6 312 336 129 562 586 379 
6 315 372 262 565 622 512 
6 220 374 311 470 624 561 
6 140 374 287 390 624 537 
6 126 360 304 376 610 554 
6 230 347 276 480 597 526 
6 313 364 326 563 614 576 
6 56 373 143 104 623 393 
6 239 367 366 489 617 616 
6 204 351 152 454 601 402 
6 300 375 301 550 625 551 
6 214 335 239 464 585 489 
6 247 329 243 497 579 493 
6 262 372 250 512 622 500 
6 248 330 241 498 580 491 
6 318 346 258 568 596 508 
6 333 369 246 583 619 496 
6 282 338 227 532 588 477 
6 146 340 323 396 590 573 
6 304 360 264 554 610 514 
6 366 367 275 616 617 525 
6 129 336 76 379 586 124 
6 73 345 128 121 595 378 
6 76 336 131 124 586 381 
6 250 350 233 500 600 483 
6 129 371 328 379 621 578 
6 132 345 73 382 595 121 
6 168 343 174 418 593 424 
6 131 352 75 381 602 123 
6 66 247 243 114 497 493 
6 59 248 241 107 498 491 
6 74 358 132 122 608 382 
6 203 346 318 453 596 568 
6 313 360 126 563 610 376 
6 128 364 72 378 614 120 
6 128 353 326 378 603 576 
6 77 371 129 125 621 379 
6 129 368 312 379 618 562 
6 244 357 344 494 607 594 
6 328 354 225 578 604 475 
6 326 364 128 576 614 378 
6 75 352 130 123 602 380 
6 350 372 212 600 622 462 
6 136 369 333 386 619 583 
6 325 354 127 575 604 377 
6 213 350 212 463 600 462 
6 130 358 74 380 608 122 
6 250 372 350 500 622 600 
6 317 370 164 567 620 414 
6 72 364 126 120 614 376 
6 328 368 129 578 618 379 
6 127 371 77 377 621 125 
6 336 342 131 586 592 381 
6 212 372 315 462 622 565 
6 234 348 347 484 598 597 
6 8 266 51 23 516 99 
6 10 276 58 25 526 106 
6 246 369 321 496 619 571 
6 30 284 0 78 534 15 
6 65 286 13 113 536 28 
6 58 242 11 106 492 26 
6 266 357 51 516 607 99 
6 255 368 328 505 618 578 
6 347 348 242 597 598 492 
6 322 363 287 572 613 537 
6 323 363 322 573 613 572 
6 335 367 239 585 617 489 
6 30 361 284 78 611 534 
6 65 362 286 113 612 536 
6 237 365 282 487 615 532 
6 130 359 358 380 609 608 
6 343 375 174 593 625 424 
6 354 371 127 604 621 377 
6 328 371 354 578 621 604 
6 358 359 274 608 609 524 
6 0 284 36 15 534 84 
6 45 266 8 93 516 23 
6 52 276 10 100 526 25 
6 11 242 64 26 492 112 
6 13 286 71 28 536 119 
6 2 323 3 17 573 18 
6 31 323 2 79 573 17 
6 323 341 3 573 591 18 
6 37 340 4 85 590 19 
6 4 340 43 19 590 91 
6 38 338 5 86 588 20 
6 5 338 44 20 588 92 
6 6 282 7 21 532 22 
6 6 339 282 21 589 532 
6 282 365 7 532 615 22 

CELL_TYPES 563
13
13
13
13
13
13
13
13
13
13
13
13
13
13
13
13
13
13
13
13
13
13
13
13
13
13
13
13
13
13
13
13
13
13
13
13
13
13
13
13
13
13
13
13
13
13
13
13
13
13
13
13
13
13
13
13
13
13
13
13
13
13
13
13
13
13
13
13
13
13
13
13
13
13
13
13
13
13
13
13
13
13
13
13
13
13
13
13
13
13
13
13
13
13
13
13
13
13
13
13
13
13
13
13
13
13
13
13
13
13
13
13
13
13
13
13
13
13
13
13
13
13
13
13
13
13
13
13
13
13
13
13
13
13
13
13
13
13
13
13
13
13
13
13
13
13
13
13
13
13
13
13
13
13
13
13
13
13
13
13
13
13
13
13
13
13
13
13
13
13
13
13
13
13
13
13
13
13
13
13
13
13
13
13
13
13
13
13
13
13
13
13
13
13
13
13
13
13
13
13
13
13
13
13
13
13
13
13
13
13
13
13
13
13
13
13
13
13
13
13
13
13
13
13
13
13
13
13
13
13
13
13
13
13
13
13
13
13
13
13
13
13
13
13
13
13
13
13
13
13
13
13
13
13
13
13
13
13
13
13
13
13
13
13
13
13
13
13
13
13
13
13
13
13
13
13
13
13
13
13
13
13
13
13
13
13
13
13
13
13
13
13
13
13
13
13
13
13
13
13
13
13
13
13
13
13
13
13
13
13
13
13
13
13
13
13
13
13
13
13
13
13
13
13
13
13
13
13
13
13
13
13
13
13
13
13
13
13
13
13
13
13
13
13
13
13
13
13
13
13
13
13
13
13
13
13
13
13
13
13
13
13
13
13
13
13
13
13
13
13
13
13
13
13
13
13
13
13
13
13
13
13
13
13
13
13
13
13
13
13
13
13
13
13
13
13
13
13
13
13
13
13
13
13
13
13
13
13
13
13
13
13
13
13
13
13
13
13
13
13
13
13
13
13
13
13
13
13
13
13
13
13
13
13
13
13
13
13
13
13
13
13
13
13
13
13
13
13
13
13
13
13
13
13
13
13
13
13
13
13
13
13
13
13
13
13
13
13
13
13
13
13
13
13
13
13
13
13
13
13
13
13
13
13
13
13
13
13
13
13
13
13
13
13
13
13
13
13
13
13
13
13
13
13
13
13
13
13
13
13
13
13
13
13
13
13
13
13
13
13
13
13
13
13
13
13
13
13
13
13
13
13
13
13
13
13
13
13
13
13
13
13
13
13
13
13
13
13
13
13
13
13
13
13
13
13
13
13
13
13
13
13
13

POINT_DATA 626
VECTORS displacement float
0 0 0
0 0 0
0 0 0
0 0 0
0 0 0
0 0 0
0 0 0
0 0 0
0 0 0
0 0 0
0 0 0
0 0 0
0 0 0
0 0 0
0 0 0
0 0 0
0 0 0
0 0 0
0 0 0
0 0 0
0 0 0
0 0 0
0 0 0
0 0 0
0 0 0
0 0 0
0 0 0
0 0 0
0 0 0
0 0 0
0 0 0
0 0 0
0 0 0
0 0 0
0 0 0
0 0 0
0 0 0
0 0 0
0 0 0
0 0 0
0 0 0
0 0 0
0 0 0
0 0 0
0 0 0
0 0 0
0 0 0
0 0 0
0 0 0
0 0 0
0 0 0
0 0 0
0 0 0
0 0 0
0 0 0
0 0 0
0 0 0
0 0 0
0 0 0
0 0 0
0 0 0
0 0 0
0 0 0
0 0 0
0 0 0
0 0 0
0 0 0
0 0 0
0 0 0
0 0 0
0 0 0
0 0 0
0 0 0
0 0 0
0 0 0
0 0 0
0 0 0
0 0 0
0 0 0
0 0 0
0 0 0
0 0 0
0 0 0
0 0 0
0 0 0
0 0 0
0 0 0
0 0 0
0 0 0
0 0 0
0 0 0
0 0 0
0 0 0
0 0 0
0 0 0
0 0 0
0 0 0
0 0 0
0 0 0
0 0 0
0 0 0
0 0 0
0 0 0
0 0 0
0 0 0
0 0 0
0 0 0
0 0 0
0 0 0
0 0 0
0 0 0
0 0 0
0 0 0
0 0 0
0 0 0
0 0 0
0 0 0
0 0 0
0 0 0
0 0 0
0 0 0
0 0 0
0 0 0
0 0 0
0 0 0
0 0 0
0 0 0
0 0 0
0 0 0
0 0 0
0 0 0
0 0 0
0 0 0
0 0 0
0 0 0
0 0 0
0 0 0
0 0 0
0 0 0
0 0 0
0 0 0
0 0 0
0 0 0
0 0 0
0 0 0
0 0 0
0 0 0
0 0 0
0 0 0
0 0 0
0 0 0
0 0 0
0 0 0
0 0 0
0 0 0
0 0 0
0 0 0
0 0 0
0 0 0
0 0 0
0 0 0
0 0 0
0 0 0
0 0 0
0 0 0
0 0 0
0 0 0
0 0 0
0 0 0
0 0 0
0 0 0
0 0 0
0 0 0
0 0 0
0 0 0
0 0 0
0 0 0
0 0 0
0 0 0
0 0 0
0 0 0
0 0 0
0 0 0
0 0 0
0 0 0
0 0 0
0 0 0
0 0 0
0 0 0
0 0 0
0 0 0
0 0 0
0 0 0
0 0 0
0 0 0
0 0 0
0 0 0
0 0 0
0 0 0
0 0 0
0 0 0
0 0 0
0 0 0
0 0 0
0 0 0
0 0 0
0 0 0
0 0 0
0 0 0
0 0 0
0 0 0
0 0 0
0 0 0
0 0 0
0 0 0
0 0 0
0 0 0
0 0 0
0 0 0
0 0 0
0 0 0
0 0 0
0 0 0
0 0 0
0 0 0
0 0 0
0 0 0
0 0 0
0 0 0
0 0 0
0 0 0
0 0 0
0 0 0
0 0 0
0 0 0
0 0 0
0 0 0
0 0 0
0 0 0
0 0 0
0 0 0
0 0 0
0 0 0
0 0 0
0 0 0
0 0 0
0 0 0
0 0 0
0 0 0
0 0 0
0 0 0
0 0 0
0 0 0
0 0 0
0 0 0
0 0 0
0 0 0
0 0 0
0 0 0
0 0 0
0 0 0
0 0 0
0 0 0
0 0 0
0 0 0
0 0 0
0 0 0
0 0 0
0 0 0
0 0 0
0 0 0
0 0 0
0 0 0
0 0 0
0 0 0
0 0 0
0 0 0
0 0 0
0 0 0
0 0 0
0 0 0
0 0 0
0 0 0
0 0 0
0 0 0
0 0 0
0 0 0
0 0 0
0 0 0
0 0 0
0 0 0
0 0 0
0 0 0
0 0 0
0 0 0
0 0 0
0 0 0
0 0 0
0 0 0
0 0 0
0 0 0
0 0 0
0 0 0
0 0 0
0 0 0
0 0 0
0 0 0
0 0 0
0 0 0
0 0 0
0 0 0
0 0 0
0 0 0
0 0 0
0 0 0
0 0 0
0 0 0
0 0 0
0 0 0
0 0 0
0 0 0
0 0 0
0 0 0
0 0 0
0 0 0
0 0 0
0 0 0
0 0 0
0 0 0
0 0 0
0 0 0
0 0 0
0 0 0
0 0 0
0 0 0
0 0 0
0 0 0
0 0 0
0 0 0
0 0 0
0 0 0
0 0 0
0 0 0
0 0 0
0 0 0
0 0 0
0 0 0
0 0 0
0 0 0
0 0 0
0 0 0
0 0 0
0 0 0
0 0 0
0 0 0
0 0 0
0 0 0
0 0 0
0 0 0
0 0 0
0 0 0
0 0 0
0 0 0
0 0 0
0 0 0
0 0 0
0 0 0
0 0 0
0 0 0
0 0 0
0 0 0
0 0 0
0 0 0
0 0 0
0 0 0
0 0 0
0 0 0
0 0 0
0 0 0
0 0 0
0 0 0
0 0 0
0 0 0
0 0 0
0 0 0
0 0 0
0 0 0
0 0 0
0 0 0
0 0 0
0 0 0
0 0 0
0 0 0
0 0 0
0 0 0
0 0 0
0 0 0
0 0 0
0 0 0
0 0 0
0 0 0
0 0 0
0 0 0
0 0 0
0 0 0
0 0 0
0 0 0
0 0 0
0 0 0
0 0 0
0 0 0
0 0 0
0 0 0
0 0 0
0 0 0
0 0 0
0 0 0
0 0 0
0 0 0
0 0 0
0 0 0
0 0 0
0 0 0
0 0 0
0 0 0
0 0 0
0 0 0
0 0 0
0 0 0
0 0 0
0 0 0
0 0 0
0 0 0
0 0 0
0 0 0
0 0 0
0 0 0
0 0 0
0 0 0
0 0 0
0 0 0
0 0 0
0 0 0
0 0 0
0 0 0
0 0 0
0 0 0
0 0 0
0 0 0
0 0 0
0 0 0
0 0 0
0 0 0
0 0 0
0 0 0
0 0 0
0 0 0
0 0 0
0 0 0
0 0 0
0 0 0
0 0 0
0 0 0
0 0 0
0 0 0
0 0 0
0 0 0
0 0 0
0 0 0
0 0 0
0 0 0
0 0 0
0 0 0
0 0 0
0 0 0
0 0 0
0 0 0
0 0 0
0 0 0
0 0 0
0 0 0
0 0 0
0 0 0
0 0 0
0 0 0
0 0 0
0 0 0
0 0 0
0 0 0
0 0 0
0 0 0
0 0 0
0 0 0
0 0 0
0 0 0
0 0 0
0 0 0
0 0 0
0 0 0
0 0 0
0 0 0
0 0 0
0 0 0
0 0 0
0 0 0
0 0 0
0 0 0
0 0 0
0 0 0
0 0 0
0 0 0
0 0 0
0 0 0
0 0 0
0 0 0
0 0 0
0 0 0
0 0 0
0 0 0
0 0 0
0 0 0
0 0 0
0 0 0
0 0 0
0 0 0
0 0 0
0 0 0
0 0 0
0 0 0
0 0 0
0 0 0
0 0 0
0 0 0
0 0 0
0 0 0
0 0 0
0 0 0
0 0 0
0 0 0
0 0 0
0 0 0
0 0 0
0 0 0
0 0 0
0 0 0
0 0 0
0 0 0
0 0 0
0 0 0
0 0 0
0 0 0
0 0 0
0 0 0
0 0 0
0 0 0
0 0 0
0 0 0
0 0 0
0 0 0
0 0 0
0 0 0
0 0 0
0 0 0
0 0 0
0 0 0
0 0 0
0 0 0
0 0 0
0 0 0
0 0 0
0 0 0
0 0 0
0 0 0
0 0 0
0 0 0
0 0 0
0 0 0
0 0 0
0 0 0
0 0 0
0 0 0
0 0 0
0 0 0
0 0 0
0 0 0
0 0 0
0 0 0
0 0 0
0 0 0
0 0 0
0 0 0
0 0 0
0 0 0
0 0 0
0 0 0
0 0 0
0 0 0
0 0 0
0 0 0
0 0 0
0 0 0
0 0 0
0 0 0
0 0 0
0 0 0
0 0 0
0 0 0
0 0 0
0 0 0
0 0 0
0 0 0
0 0 0
0 0 0
0 0 0
0 0 0
0 0 0
0 0 0
0 0 0
0 0 0
0 0 0
0 0 0
0 0 0
0 0 0
0 0 0
0 0 0
0 0 0
SCALARS effective_fluid_pressure_TPM float
LOOKUP_TABLE default
0
0
0
0
0
0
0
0
0
0
0
0
0
0
0
0
0
0
0
0
0
0
0
0
0
0
0
0
0
0
0
0
0
0
0
0
0
0
0
0
0
0
0
0
0
0
0
0
0
0
0
0
0
0
0
0
0
0
0
0
0
0
0
0
0
0
0
0
0
0
0
0
0
0
0
0
0
0
0
0
0
0
0
0
0
0
0
0
0
0
0
0
0
0
0
0
0
0
0
0
0
0
0
0
0
0
0
0
0
0
0
0
0
0
0
0
0
0
0
0
0
0
0
0
0
0
0
0
0
0
0
0
0
0
0
0
0
0
0
0
0
0
0
0
0
0
0
0
0
0
0
0
0
0
0
0
0
0
0
0
0
0
0
0
0
0
0
0
0
0
0
0
0
0
0
0
0
0
0
0
0
0
0
0
0
0
0
0
0
0
0
0
0
0
0
0
0
0
0
0
0
0
0
0
0
0
0
0
0
0
0
0
0
0
0
0
0
0
0
0
0
0
0
0
0
0
0
0
0
0
0
0
0
0
0
0
0
0
0
0
0
0
0
0
0
0
0
0
0
0
0
0
0
0
0
0
0
0
0
0
0
0
0
0
0
0
0
0
0
0
0
0
0
0
0
0
0
0
0
0
0
0
0
0
0
0
0
0
0
0
0
0
0
0
0
0
0
0
0
0
0
0
0
0
0
0
0
0
0
0
0
0
0
0
0
0
0
0
0
0
0
0
0
0
0
0
0
0
0
0
0
0
0
0
0
0
0
0
0
0
0
0
0
0
0
0
0
0
0
0
0
0
0
0
0
0
0
0
0
0
0
0
0
0
0
0
0
0
0
0
0
0
0
0
0
0
0
0
0
0
0
0
0
0
0
0
0
0
0
0
0
0
0
0
0
0
0
0
0
0
0
0
0
0
0
0
0
0
0
0
0
0
0
0
0
0
0
0
0
0
0
0
0
0
0
0
0
0
0
0
0
0
0
0
0
0
0
0
0
0
0
0
0
0
0
0
0
0
0
0
0
0
0
0
0
0
0
0
0
0
0
0
0
0
0
0
0
0
0
0
0
0
0
0
0
0
0
0
0
0
0
0
0
0
0
0
0
0
0
0
0
0
0
0
0
0
0
0
0
0
0
0
0
0
0
0
0
0
0
0
0
0
0
0
0
0
0
0
0
0
0
0
0
0
0
0
0
0
0
0
0
0
0
0
0
0
0
0
0
0
0
0
0
0
0
0
0
0
0
0
0
0
0
0
0
0
0
0
0
0
0
0
0
0
0
0
0
0
0
0
0
0
0
0
0
0
0
0
0
0
0
0
0
0
0
0
0
0
0
0
0
0
0
0
0
0
0
0
0
0
0
0
0
0
0
0
0
0
0
0
0
0
0
0
0
0
0
0
0
0
0
0
0
0
0
0

CELL_DATA 563
TENSORS stress float
0 0 0
0 0 0
0 0 0

0 0 0
0 0 0
0 0 0

0 0 0
0 0 0
0 0 0

0 0 0
0 0 0
0 0 0

0 0 0
0 0 0
0 0 0

0 0 0
0 0 0
0 0 0

0 0 0
0 0 0
0 0 0

0 0 0
0 0 0
0 0 0

0 0 0
0 0 0
0 0 0

0 0 0
0 0 0
0 0 0

0 0 0
0 0 0
0 0 0

0 0 0
0 0 0
0 0 0

0 0 0
0 0 0
0 0 0

0 0 0
0 0 0
0 0 0

0 0 0
0 0 0
0 0 0

0 0 0
0 0 0
0 0 0

0 0 0
0 0 0
0 0 0

0 0 0
0 0 0
0 0 0

0 0 0
0 0 0
0 0 0

0 0 0
0 0 0
0 0 0

0 0 0
0 0 0
0 0 0

0 0 0
0 0 0
0 0 0

0 0 0
0 0 0
0 0 0

0 0 0
0 0 0
0 0 0

0 0 0
0 0 0
0 0 0

0 0 0
0 0 0
0 0 0

0 0 0
0 0 0
0 0 0

0 0 0
0 0 0
0 0 0

0 0 0
0 0 0
0 0 0

0 0 0
0 0 0
0 0 0

0 0 0
0 0 0
0 0 0

0 0 0
0 0 0
0 0 0

0 0 0
0 0 0
0 0 0

0 0 0
0 0 0
0 0 0

0 0 0
0 0 0
0 0 0

0 0 0
0 0 0
0 0 0

0 0 0
0 0 0
0 0 0

0 0 0
0 0 0
0 0 0

0 0 0
0 0 0
0 0 0

0 0 0
0 0 0
0 0 0

0 0 0
0 0 0
0 0 0

0 0 0
0 0 0
0 0 0

0 0 0
0 0 0
0 0 0

0 0 0
0 0 0
0 0 0

0 0 0
0 0 0
0 0 0

0 0 0
0 0 0
0 0 0

0 0 0
0 0 0
0 0 0

0 0 0
0 0 0
0 0 0

0 0 0
0 0 0
0 0 0

0 0 0
0 0 0
0 0 0

0 0 0
0 0 0
0 0 0

0 0 0
0 0 0
0 0 0

0 0 0
0 0 0
0 0 0

0 0 0
0 0 0
0 0 0

0 0 0
0 0 0
0 0 0

0 0 0
0 0 0
0 0 0

0 0 0
0 0 0
0 0 0

0 0 0
0 0 0
0 0 0

0 0 0
0 0 0
0 0 0

0 0 0
0 0 0
0 0 0

0 0 0
0 0 0
0 0 0

0 0 0
0 0 0
0 0 0

0 0 0
0 0 0
0 0 0

0 0 0
0 0 0
0 0 0

0 0 0
0 0 0
0 0 0

0 0 0
0 0 0
0 0 0

0 0 0
0 0 0
0 0 0

0 0 0
0 0 0
0 0 0

0 0 0
0 0 0
0 0 0

0 0 0
0 0 0
0 0 0

0 0 0
0 0 0
0 0 0

0 0 0
0 0 0
0 0 0

0 0 0
0 0 0
0 0 0

0 0 0
0 0 0
0 0 0

0 0 0
0 0 0
0 0 0

0 0 0
0 0 0
0 0 0

0 0 0
0 0 0
0 0 0

0 0 0
0 0 0
0 0 0

0 0 0
0 0 0
0 0 0

0 0 0
0 0 0
0 0 0

0 0 0
0 0 0
0 0 0

0 0 0
0 0 0
0 0 0

0 0 0
0 0 0
0 0 0

0 0 0
0 0 0
0 0 0

0 0 0
0 0 0
0 0 0

0 0 0
0 0 0
0 0 0

0 0 0
0 0 0
0 0 0

0 0 0
0 0 0
0 0 0

0 0 0
0 0 0
0 0 0

0 0 0
0 0 0
0 0 0

0 0 0
0 0 0
0 0 0

0 0 0
0 0 0
0 0 0

0 0 0
0 0 0
0 0 0

0 0 0
0 0 0
0 0 0

0 0 0
0 0 0
0 0 0

0 0 0
0 0 0
0 0 0

0 0 0
0 0 0
0 0 0

0 0 0
0 0 0
0 0 0

0 0 0
0 0 0
0 0 0

0 0 0
0 0 0
0 0 0

0 0 0
0 0 0
0 0 0

0 0 0
0 0 0
0 0 0

0 0 0
0 0 0
0 0 0

0 0 0
0 0 0
0 0 0

0 0 0
0 0 0
0 0 0

0 0 0
0 0 0
0 0 0

0 0 0
0 0 0
0 0 0

0 0 0
0 0 0
0 0 0

0 0 0
0 0 0
0 0 0

0 0 0
0 0 0
0 0 0

0 0 0
0 0 0
0 0 0

0 0 0
0 0 0
0 0 0

0 0 0
0 0 0
0 0 0

0 0 0
0 0 0
0 0 0

0 0 0
0 0 0
0 0 0

0 0 0
0 0 0
0 0 0

0 0 0
0 0 0
0 0 0

0 0 0
0 0 0
0 0 0

0 0 0
0 0 0
0 0 0

0 0 0
0 0 0
0 0 0

0 0 0
0 0 0
0 0 0

0 0 0
0 0 0
0 0 0

0 0 0
0 0 0
0 0 0

0 0 0
0 0 0
0 0 0

0 0 0
0 0 0
0 0 0

0 0 0
0 0 0
0 0 0

0 0 0
0 0 0
0 0 0

0 0 0
0 0 0
0 0 0

0 0 0
0 0 0
0 0 0

0 0 0
0 0 0
0 0 0

0 0 0
0 0 0
0 0 0

0 0 0
0 0 0
0 0 0

0 0 0
0 0 0
0 0 0

0 0 0
0 0 0
0 0 0

0 0 0
0 0 0
0 0 0

0 0 0
0 0 0
0 0 0

0 0 0
0 0 0
0 0 0

0 0 0
0 0 0
0 0 0

0 0 0
0 0 0
0 0 0

0 0 0
0 0 0
0 0 0

0 0 0
0 0 0
0 0 0

0 0 0
0 0 0
0 0 0

0 0 0
0 0 0
0 0 0

0 0 0
0 0 0
0 0 0

0 0 0
0 0 0
0 0 0

0 0 0
0 0 0
0 0 0

0 0 0
0 0 0
0 0 0

0 0 0
0 0 0
0 0 0

0 0 0
0 0 0
0 0 0

0 0 0
0 0 0
0 0 0

0 0 0
0 0 0
0 0 0

0 0 0
0 0 0
0 0 0

0 0 0
0 0 0
0 0 0

0 0 0
0 0 0
0 0 0

0 0 0
0 0 0
0 0 0

0 0 0
0 0 0
0 0 0

0 0 0
0 0 0
0 0 0

0 0 0
0 0 0
0 0 0

0 0 0
0 0 0
0 0 0

0 0 0
0 0 0
0 0 0

0 0 0
0 0 0
0 0 0

0 0 0
0 0 0
0 0 0

0 0 0
0 0 0
0 0 0

0 0 0
0 0 0
0 0 0

0 0 0
0 0 0
0 0 0

0 0 0
0 0 0
0 0 0

0 0 0
0 0 0
0 0 0

0 0 0
0 0 0
0 0 0

0 0 0
0 0 0
0 0 0

0 0 0
0 0 0
0 0 0

0 0 0
0 0 0
0 0 0

0 0 0
0 0 0
0 0 0

0 0 0
0 0 0
0 0 0

0 0 0
0 0 0
0 0 0

0 0 0
0 0 0
0 0 0

0 0 0
0 0 0
0 0 0

0 0 0
0 0 0
0 0 0

0 0 0
0 0 0
0 0 0

0 0 0
0 0 0
0 0 0

0 0 0
0 0 0
0 0 0

0 0 0
0 0 0
0 0 0

0 0 0
0 0 0
0 0 0

0 0 0
0 0 0
0 0 0

0 0 0
0 0 0
0 0 0

0 0 0
0 0 0
0 0 0

0 0 0
0 0 0
0 0 0

0 0 0
0 0 0
0 0 0

0 0 0
0 0 0
0 0 0

0 0 0
0 0 0
0 0 0

0 0 0
0 0 0
0 0 0

0 0 0
0 0 0
0 0 0

0 0 0
0 0 0
0 0 0

0 0 0
0 0 0
0 0 0

0 0 0
0 0 0
0 0 0

0 0 0
0 0 0
0 0 0

0 0 0
0 0 0
0 0 0

0 0 0
0 0 0
0 0 0

0 0 0
0 0 0
0 0 0

0 0 0
0 0 0
0 0 0

0 0 0
0 0 0
0 0 0

0 0 0
0 0 0
0 0 0

0 0 0
0 0 0
0 0 0

0 0 0
0 0 0
0 0 0

0 0 0
0 0 0
0 0 0

0 0 0
0 0 0
0 0 0

0 0 0
0 0 0
0 0 0

0 0 0
0 0 0
0 0 0

0 0 0
0 0 0
0 0 0

0 0 0
0 0 0
0 0 0

0 0 0
0 0 0
0 0 0

0 0 0
0 0 0
0 0 0

0 0 0
0 0 0
0 0 0

0 0 0
0 0 0
0 0 0

0 0 0
0 0 0
0 0 0

0 0 0
0 0 0
0 0 0

0 0 0
0 0 0
0 0 0

0 0 0
0 0 0
0 0 0

0 0 0
0 0 0
0 0 0

0 0 0
0 0 0
0 0 0

0 0 0
0 0 0
0 0 0

0 0 0
0 0 0
0 0 0

0 0 0
0 0 0
0 0 0

0 0 0
0 0 0
0 0 0

0 0 0
0 0 0
0 0 0

0 0 0
0 0 0
0 0 0

0 0 0
0 0 0
0 0 0

0 0 0
0 0 0
0 0 0

0 0 0
0 0 0
0 0 0

0 0 0
0 0 0
0 0 0

0 0 0
0 0 0
0 0 0

0 0 0
0 0 0
0 0 0

0 0 0
0 0 0
0 0 0

0 0 0
0 0 0
0 0 0

0 0 0
0 0 0
0 0 0

0 0 0
0 0 0
0 0 0

0 0 0
0 0 0
0 0 0

0 0 0
0 0 0
0 0 0

0 0 0
0 0 0
0 0 0

0 0 0
0 0 0
0 0 0

0 0 0
0 0 0
0 0 0

0 0 0
0 0 0
0 0 0

0 0 0
0 0 0
0 0 0

0 0 0
0 0 0
0 0 0

0 0 0
0 0 0
0 0 0

0 0 0
0 0 0
0 0 0

0 0 0
0 0 0
0 0 0

0 0 0
0 0 0
0 0 0

0 0 0
0 0 0
0 0 0

0 0 0
0 0 0
0 0 0

0 0 0
0 0 0
0 0 0

0 0 0
0 0 0
0 0 0

0 0 0
0 0 0
0 0 0

0 0 0
0 0 0
0 0 0

0 0 0
0 0 0
0 0 0

0 0 0
0 0 0
0 0 0

0 0 0
0 0 0
0 0 0

0 0 0
0 0 0
0 0 0

0 0 0
0 0 0
0 0 0

0 0 0
0 0 0
0 0 0

0 0 0
0 0 0
0 0 0

0 0 0
0 0 0
0 0 0

0 0 0
0 0 0
0 0 0

0 0 0
0 0 0
0 0 0

0 0 0
0 0 0
0 0 0

0 0 0
0 0 0
0 0 0

0 0 0
0 0 0
0 0 0

0 0 0
0 0 0
0 0 0

0 0 0
0 0 0
0 0 0

0 0 0
0 0 0
0 0 0

0 0 0
0 0 0
0 0 0

0 0 0
0 0 0
0 0 0

0 0 0
0 0 0
0 0 0

0 0 0
0 0 0
0 0 0

0 0 0
0 0 0
0 0 0

0 0 0
0 0 0
0 0 0

0 0 0
0 0 0
0 0 0

0 0 0
0 0 0
0 0 0

0 0 0
0 0 0
0 0 0

0 0 0
0 0 0
0 0 0

0 0 0
0 0 0
0 0 0

0 0 0
0 0 0
0 0 0

0 0 0
0 0 0
0 0 0

0 0 0
0 0 0
0 0 0

0 0 0
0 0 0
0 0 0

0 0 0
0 0 0
0 0 0

0 0 0
0 0 0
0 0 0

0 0 0
0 0 0
0 0 0

0 0 0
0 0 0
0 0 0

0 0 0
0 0 0
0 0 0

0 0 0
0 0 0
0 0 0

0 0 0
0 0 0
0 0 0

0 0 0
0 0 0
0 0 0

0 0 0
0 0 0
0 0 0

0 0 0
0 0 0
0 0 0

0 0 0
0 0 0
0 0 0

0 0 0
0 0 0
0 0 0

0 0 0
0 0 0
0 0 0

0 0 0
0 0 0
0 0 0

0 0 0
0 0 0
0 0 0

0 0 0
0 0 0
0 0 0

0 0 0
0 0 0
0 0 0

0 0 0
0 0 0
0 0 0

0 0 0
0 0 0
0 0 0

0 0 0
0 0 0
0 0 0

0 0 0
0 0 0
0 0 0

0 0 0
0 0 0
0 0 0

0 0 0
0 0 0
0 0 0

0 0 0
0 0 0
0 0 0

0 0 0
0 0 0
0 0 0

0 0 0
0 0 0
0 0 0

0 0 0
0 0 0
0 0 0

0 0 0
0 0 0
0 0 0

0 0 0
0 0 0
0 0 0

0 0 0
0 0 0
0 0 0

0 0 0
0 0 0
0 0 0

0 0 0
0 0 0
0 0 0

0 0 0
0 0 0
0 0 0

0 0 0
0 0 0
0 0 0

0 0 0
0 0 0
0 0 0

0 0 0
0 0 0
0 0 0

0 0 0
0 0 0
0 0 0

0 0 0
0 0 0
0 0 0

0 0 0
0 0 0
0 0 0

0 0 0
0 0 0
0 0 0

0 0 0
0 0 0
0 0 0

0 0 0
0 0 0
0 0 0

0 0 0
0 0 0
0 0 0

0 0 0
0 0 0
0 0 0

0 0 0
0 0 0
0 0 0

0 0 0
0 0 0
0 0 0

0 0 0
0 0 0
0 0 0

0 0 0
0 0 0
0 0 0

0 0 0
0 0 0
0 0 0

0 0 0
0 0 0
0 0 0

0 0 0
0 0 0
0 0 0

0 0 0
0 0 0
0 0 0

0 0 0
0 0 0
0 0 0

0 0 0
0 0 0
0 0 0

0 0 0
0 0 0
0 0 0

0 0 0
0 0 0
0 0 0

0 0 0
0 0 0
0 0 0

0 0 0
0 0 0
0 0 0

0 0 0
0 0 0
0 0 0

0 0 0
0 0 0
0 0 0

0 0 0
0 0 0
0 0 0

0 0 0
0 0 0
0 0 0

0 0 0
0 0 0
0 0 0

0 0 0
0 0 0
0 0 0

0 0 0
0 0 0
0 0 0

0 0 0
0 0 0
0 0 0

0 0 0
0 0 0
0 0 0

0 0 0
0 0 0
0 0 0

0 0 0
0 0 0
0 0 0

0 0 0
0 0 0
0 0 0

0 0 0
0 0 0
0 0 0

0 0 0
0 0 0
0 0 0

0 0 0
0 0 0
0 0 0

0 0 0
0 0 0
0 0 0

0 0 0
0 0 0
0 0 0

0 0 0
0 0 0
0 0 0

0 0 0
0 0 0
0 0 0

0 0 0
0 0 0
0 0 0

0 0 0
0 0 0
0 0 0

0 0 0
0 0 0
0 0 0

0 0 0
0 0 0
0 0 0

0 0 0
0 0 0
0 0 0

0 0 0
0 0 0
0 0 0

0 0 0
0 0 0
0 0 0

0 0 0
0 0 0
0 0 0

0 0 0
0 0 0
0 0 0

0 0 0
0 0 0
0 0 0

0 0 0
0 0 0
0 0 0

0 0 0
0 0 0
0 0 0

0 0 0
0 0 0
0 0 0

0 0 0
0 0 0
0 0 0

0 0 0
0 0 0
0 0 0

0 0 0
0 0 0
0 0 0

0 0 0
0 0 0
0 0 0

0 0 0
0 0 0
0 0 0

0 0 0
0 0 0
0 0 0

0 0 0
0 0 0
0 0 0

0 0 0
0 0 0
0 0 0

0 0 0
0 0 0
0 0 0

0 0 0
0 0 0
0 0 0

0 0 0
0 0 0
0 0 0

0 0 0
0 0 0
0 0 0

0 0 0
0 0 0
0 0 0

0 0 0
0 0 0
0 0 0

0 0 0
0 0 0
0 0 0

0 0 0
0 0 0
0 0 0

0 0 0
0 0 0
0 0 0

0 0 0
0 0 0
0 0 0

0 0 0
0 0 0
0 0 0

0 0 0
0 0 0
0 0 0

0 0 0
0 0 0
0 0 0

0 0 0
0 0 0
0 0 0

0 0 0
0 0 0
0 0 0

0 0 0
0 0 0
0 0 0

0 0 0
0 0 0
0 0 0

0 0 0
0 0 0
0 0 0

0 0 0
0 0 0
0 0 0

0 0 0
0 0 0
0 0 0

0 0 0
0 0 0
0 0 0

0 0 0
0 0 0
0 0 0

0 0 0
0 0 0
0 0 0

0 0 0
0 0 0
0 0 0

0 0 0
0 0 0
0 0 0

0 0 0
0 0 0
0 0 0

0 0 0
0 0 0
0 0 0

0 0 0
0 0 0
0 0 0

0 0 0
0 0 0
0 0 0

0 0 0
0 0 0
0 0 0

0 0 0
0 0 0
0 0 0

0 0 0
0 0 0
0 0 0

0 0 0
0 0 0
0 0 0

0 0 0
0 0 0
0 0 0

0 0 0
0 0 0
0 0 0

0 0 0
0 0 0
0 0 0

0 0 0
0 0 0
0 0 0

0 0 0
0 0 0
0 0 0

0 0 0
0 0 0
0 0 0

0 0 0
0 0 0
0 0 0

0 0 0
0 0 0
0 0 0

0 0 0
0 0 0
0 0 0

0 0 0
0 0 0
0 0 0

0 0 0
0 0 0
0 0 0

0 0 0
0 0 0
0 0 0

0 0 0
0 0 0
0 0 0

0 0 0
0 0 0
0 0 0

0 0 0
0 0 0
0 0 0

0 0 0
0 0 0
0 0 0

0 0 0
0 0 0
0 0 0

0 0 0
0 0 0
0 0 0

0 0 0
0 0 0
0 0 0

0 0 0
0 0 0
0 0 0

0 0 0
0 0 0
0 0 0

0 0 0
0 0 0
0 0 0

0 0 0
0 0 0
0 0 0

0 0 0
0 0 0
0 0 0

0 0 0
0 0 0
0 0 0

0 0 0
0 0 0
0 0 0

0 0 0
0 0 0
0 0 0

0 0 0
0 0 0
0 0 0

0 0 0
0 0 0
0 0 0

0 0 0
0 0 0
0 0 0

0 0 0
0 0 0
0 0 0

0 0 0
0 0 0
0 0 0

0 0 0
0 0 0
0 0 0

0 0 0
0 0 0
0 0 0

0 0 0
0 0 0
0 0 0

0 0 0
0 0 0
0 0 0

0 0 0
0 0 0
0 0 0

0 0 0
0 0 0
0 0 0

0 0 0
0 0 0
0 0 0

0 0 0
0 0 0
0 0 0

0 0 0
0 0 0
0 0 0

0 0 0
0 0 0
0 0 0

0 0 0
0 0 0
0 0 0

0 0 0
0 0 0
0 0 0

0 0 0
0 0 0
0 0 0

0 0 0
0 0 0
0 0 0

0 0 0
0 0 0
0 0 0

0 0 0
0 0 0
0 0 0

0 0 0
0 0 0
0 0 0

0 0 0
0 0 0
0 0 0

0 0 0
0 0 0
0 0 0

0 0 0
0 0 0
0 0 0

0 0 0
0 0 0
0 0 0

0 0 0
0 0 0
0 0 0

0 0 0
0 0 0
0 0 0

0 0 0
0 0 0
0 0 0

0 0 0
0 0 0
0 0 0

0 0 0
0 0 0
0 0 0

0 0 0
0 0 0
0 0 0

0 0 0
0 0 0
0 0 0

0 0 0
0 0 0
0 0 0

0 0 0
0 0 0
0 0 0

0 0 0
0 0 0
0 0 0

0 0 0
0 0 0
0 0 0

0 0 0
0 0 0
0 0 0

0 0 0
0 0 0
0 0 0

0 0 0
0 0 0
0 0 0

0 0 0
0 0 0
0 0 0

0 0 0
0 0 0
0 0 0

0 0 0
0 0 0
0 0 0

0 0 0
0 0 0
0 0 0

0 0 0
0 0 0
0 0 0

0 0 0
0 0 0
0 0 0

0 0 0
0 0 0
0 0 0

0 0 0
0 0 0
0 0 0

0 0 0
0 0 0
0 0 0

0 0 0
0 0 0
0 0 0

0 0 0
0 0 0
0 0 0

0 0 0
0 0 0
0 0 0

0 0 0
0 0 0
0 0 0

0 0 0
0 0 0
0 0 0

0 0 0
0 0 0
0 0 0

0 0 0
0 0 0
0 0 0

0 0 0
0 0 0
0 0 0

0 0 0
0 0 0
0 0 0

0 0 0
0 0 0
0 0 0

0 0 0
0 0 0
0 0 0

0 0 0
0 0 0
0 0 0

0 0 0
0 0 0
0 0 0

0 0 0
0 0 0
0 0 0

0 0 0
0 0 0
0 0 0

0 0 0
0 0 0
0 0 0

0 0 0
0 0 0
0 0 0

0 0 0
0 0 0
0 0 0

0 0 0
0 0 0
0 0 0

0 0 0
0 0 0
0 0 0

0 0 0
0 0 0
0 0 0

0 0 0
0 0 0
0 0 0

0 0 0
0 0 0
0 0 0

0 0 0
0 0 0
0 0 0

0 0 0
0 0 0
0 0 0

0 0 0
0 0 0
0 0 0

0 0 0
0 0 0
0 0 0

0 0 0
0 0 0
0 0 0

0 0 0
0 0 0
0 0 0

0 0 0
0 0 0
0 0 0

0 0 0
0 0 0
0 0 0

0 0 0
0 0 0
0 0 0

0 0 0
0 0 0
0 0 0

0 0 0
0 0 0
0 0 0

0 0 0
0 0 0
0 0 0

0 0 0
0 0 0
0 0 0

0 0 0
0 0 0
0 0 0

0 0 0
0 0 0
0 0 0

0 0 0
0 0 0
0 0 0

0 0 0
0 0 0
0 0 0

0 0 0
0 0 0
0 0 0

0 0 0
0 0 0
0 0 0

0 0 0
0 0 0
0 0 0

0 0 0
0 0 0
0 0 0

0 0 0
0 0 0
0 0 0

0 0 0
0 0 0
0 0 0

0 0 0
0 0 0
0 0 0

0 0 0
0 0 0
0 0 0

0 0 0
0 0 0
0 0 0

0 0 0
0 0 0
0 0 0

0 0 0
0 0 0
0 0 0

0 0 0
0 0 0
0 0 0

0 0 0
0 0 0
0 0 0

0 0 0
0 0 0
0 0 0

0 0 0
0 0 0
0 0 0

0 0 0
0 0 0
0 0 0

0 0 0
0 0 0
0 0 0

0 0 0
0 0 0
0 0 0

0 0 0
0 0 0
0 0 0

0 0 0
0 0 0
0 0 0

0 0 0
0 0 0
0 0 0

0 0 0
0 0 0
0 0 0

0 0 0
0 0 0
0 0 0

0 0 0
0 0 0
0 0 0

0 0 0
0 0 0
0 0 0

0 0 0
0 0 0
0 0 0

0 0 0
0 0 0
0 0 0

0 0 0
0 0 0
0 0 0

0 0 0
0 0 0
0 0 0

0 0 0
0 0 0
0 0 0

0 0 0
0 0 0
0 0 0

0 0 0
0 0 0
0 0 0

VECTORS fluid_flux_TPM float
0 0 0
0 0 0
0 0 0
0 0 0
0 0 0
0 0 0
0 0 0
0 0 0
0 0 0
0 0 0
0 0 0
0 0 0
0 0 0
0 0 0
0 0 0
0 0 0
0 0 0
0 0 0
0 0 0
0 0 0
0 0 0
0 0 0
0 0 0
0 0 0
0 0 0
0 0 0
0 0 0
0 0 0
0 0 0
0 0 0
0 0 0
0 0 0
0 0 0
0 0 0
0 0 0
0 0 0
0 0 0
0 0 0
0 0 0
0 0 0
0 0 0
0 0 0
0 0 0
0 0 0
0 0 0
0 0 0
0 0 0
0 0 0
0 0 0
0 0 0
0 0 0
0 0 0
0 0 0
0 0 0
0 0 0
0 0 0
0 0 0
0 0 0
0 0 0
0 0 0
0 0 0
0 0 0
0 0 0
0 0 0
0 0 0
0 0 0
0 0 0
0 0 0
0 0 0
0 0 0
0 0 0
0 0 0
0 0 0
0 0 0
0 0 0
0 0 0
0 0 0
0 0 0
0 0 0
0 0 0
0 0 0
0 0 0
0 0 0
0 0 0
0 0 0
0 0 0
0 0 0
0 0 0
0 0 0
0 0 0
0 0 0
0 0 0
0 0 0
0 0 0
0 0 0
0 0 0
0 0 0
0 0 0
0 0 0
0 0 0
0 0 0
0 0 0
0 0 0
0 0 0
0 0 0
0 0 0
0 0 0
0 0 0
0 0 0
0 0 0
0 0 0
0 0 0
0 0 0
0 0 0
0 0 0
0 0 0
0 0 0
0 0 0
0 0 0
0 0 0
0 0 0
0 0 0
0 0 0
0 0 0
0 0 0
0 0 0
0 0 0
0 0 0
0 0 0
0 0 0
0 0 0
0 0 0
0 0 0
0 0 0
0 0 0
0 0 0
0 0 0
0 0 0
0 0 0
0 0 0
0 0 0
0 0 0
0 0 0
0 0 0
0 0 0
0 0 0
0 0 0
0 0 0
0 0 0
0 0 0
0 0 0
0 0 0
0 0 0
0 0 0
0 0 0
0 0 0
0 0 0
0 0 0
0 0 0
0 0 0
0 0 0
0 0 0
0 0 0
0 0 0
0 0 0
0 0 0
0 0 0
0 0 0
0 0 0
0 0 0
0 0 0
0 0 0
0 0 0
0 0 0
0 0 0
0 0 0
0 0 0
0 0 0
0 0 0
0 0 0
0 0 0
0 0 0
0 0 0
0 0 0
0 0 0
0 0 0
0 0 0
0 0 0
0 0 0
0 0 0
0 0 0
0 0 0
0 0 0
0 0 0
0 0 0
0 0 0
0 0 0
0 0 0
0 0 0
0 0 0
0 0 0
0 0 0
0 0 0
0 0 0
0 0 0
0 0 0
0 0 0
0 0 0
0 0 0
0 0 0
0 0 0
0 0 0
0 0 0
0 0 0
0 0 0
0 0 0
0 0 0
0 0 0
0 0 0
0 0 0
0 0 0
0 0 0
0 0 0
0 0 0
0 0 0
0 0 0
0 0 0
0 0 0
0 0 0
0 0 0
0 0 0
0 0 0
0 0 0
0 0 0
0 0 0
0 0 0
0 0 0
0 0 0
0 0 0
0 0 0
0 0 0
0 0 0
0 0 0
0 0 0
0 0 0
0 0 0
0 0 0
0 0 0
0 0 0
0 0 0
0 0 0
0 0 0
0 0 0
0 0 0
0 0 0
0 0 0
0 0 0
0 0 0
0 0 0
0 0 0
0 0 0
0 0 0
0 0 0
0 0 0
0 0 0
0 0 0
0 0 0
0 0 0
0 0 0
0 0 0
0 0 0
0 0 0
0 0 0
0 0 0
0 0 0
0 0 0
0 0 0
0 0 0
0 0 0
0 0 0
0 0 0
0 0 0
0 0 0
0 0 0
0 0 0
0 0 0
0 0 0
0 0 0
0 0 0
0 0 0
0 0 0
0 0 0
0 0 0
0 0 0
0 0 0
0 0 0
0 0 0
0 0 0
0 0 0
0 0 0
0 0 0
0 0 0
0 0 0
0 0 0
0 0 0
0 0 0
0 0 0
0 0 0
0 0 0
0 0 0
0 0 0
0 0 0
0 0 0
0 0 0
0 0 0
0 0 0
0 0 0
0 0 0
0 0 0
0 0 0
0 0 0
0 0 0
0 0 0
0 0 0
0 0 0
0 0 0
0 0 0
0 0 0
0 0 0
0 0 0
0 0 0
0 0 0
0 0 0
0 0 0
0 0 0
0 0 0
0 0 0
0 0 0
0 0 0
0 0 0
0 0 0
0 0 0
0 0 0
0 0 0
0 0 0
0 0 0
0 0 0
0 0 0
0 0 0
0 0 0
0 0 0
0 0 0
0 0 0
0 0 0
0 0 0
0 0 0
0 0 0
0 0 0
0 0 0
0 0 0
0 0 0
0 0 0
0 0 0
0 0 0
0 0 0
0 0 0
0 0 0
0 0 0
0 0 0
0 0 0
0 0 0
0 0 0
0 0 0
0 0 0
0 0 0
0 0 0
0 0 0
0 0 0
0 0 0
0 0 0
0 0 0
0 0 0
0 0 0
0 0 0
0 0 0
0 0 0
0 0 0
0 0 0
0 0 0
0 0 0
0 0 0
0 0 0
0 0 0
0 0 0
0 0 0
0 0 0
0 0 0
0 0 0
0 0 0
0 0 0
0 0 0
0 0 0
0 0 0
0 0 0
0 0 0
0 0 0
0 0 0
0 0 0
0 0 0
0 0 0
0 0 0
0 0 0
0 0 0
0 0 0
0 0 0
0 0 0
0 0 0
0 0 0
0 0 0
0 0 0
0 0 0
0 0 0
0 0 0
0 0 0
0 0 0
0 0 0
0 0 0
0 0 0
0 0 0
0 0 0
0 0 0
0 0 0
0 0 0
0 0 0
0 0 0
0 0 0
0 0 0
0 0 0
0 0 0
0 0 0
0 0 0
0 0 0
0 0 0
0 0 0
0 0 0
0 0 0
0 0 0
0 0 0
0 0 0
0 0 0
0 0 0
0 0 0
0 0 0
0 0 0
0 0 0
0 0 0
0 0 0
0 0 0
0 0 0
0 0 0
0 0 0
0 0 0
0 0 0
0 0 0
0 0 0
0 0 0
0 0 0
0 0 0
0 0 0
0 0 0
0 0 0
0 0 0
0 0 0
0 0 0
0 0 0
0 0 0
0 0 0
0 0 0
0 0 0
0 0 0
0 0 0
0 0 0
0 0 0
0 0 0
0 0 0
0 0 0
0 0 0
0 0 0
0 0 0
0 0 0
0 0 0
0 0 0
0 0 0
0 0 0
0 0 0
0 0 0
0 0 0
0 0 0
0 0 0
0 0 0
0 0 0
0 0 0
0 0 0
0 0 0
0 0 0
0 0 0
0 0 0
0 0 0
0 0 0
0 0 0
0 0 0
0 0 0
0 0 0
0 0 0
0 0 0
0 0 0
0 0 0
0 0 0
0 0 0
0 0 0
0 0 0
0 0 0
0 0 0
0 0 0
0 0 0
0 0 0
0 0 0
0 0 0
0 0 0
0 0 0
0 0 0
0 0 0
0 0 0
0 0 0
0 0 0
0 0 0
0 0 0
0 0 0
0 0 0
0 0 0
0 0 0
0 0 0
0 0 0
0 0 0
0 0 0
0 0 0
0 0 0
0 0 0
0 0 0
0 0 0
0 0 0
0 0 0
0 0 0
0 0 0
0 0 0
0 0 0
0 0 0
0 0 0
0 0 0
0 0 0
0 0 0
0 0 0
0 0 0
TENSORS solid_stress_TPM float
0 0 0
0 0 0
0 0 0

0 0 0
0 0 0
0 0 0

0 0 0
0 0 0
0 0 0

0 0 0
0 0 0
0 0 0

0 0 0
0 0 0
0 0 0

0 0 0
0 0 0
0 0 0

0 0 0
0 0 0
0 0 0

0 0 0
0 0 0
0 0 0

0 0 0
0 0 0
0 0 0

0 0 0
0 0 0
0 0 0

0 0 0
0 0 0
0 0 0

0 0 0
0 0 0
0 0 0

0 0 0
0 0 0
0 0 0

0 0 0
0 0 0
0 0 0

0 0 0
0 0 0
0 0 0

0 0 0
0 0 0
0 0 0

0 0 0
0 0 0
0 0 0

0 0 0
0 0 0
0 0 0

0 0 0
0 0 0
0 0 0

0 0 0
0 0 0
0 0 0

0 0 0
0 0 0
0 0 0

0 0 0
0 0 0
0 0 0

0 0 0
0 0 0
0 0 0

0 0 0
0 0 0
0 0 0

0 0 0
0 0 0
0 0 0

0 0 0
0 0 0
0 0 0

0 0 0
0 0 0
0 0 0

0 0 0
0 0 0
0 0 0

0 0 0
0 0 0
0 0 0

0 0 0
0 0 0
0 0 0

0 0 0
0 0 0
0 0 0

0 0 0
0 0 0
0 0 0

0 0 0
0 0 0
0 0 0

0 0 0
0 0 0
0 0 0

0 0 0
0 0 0
0 0 0

0 0 0
0 0 0
0 0 0

0 0 0
0 0 0
0 0 0

0 0 0
0 0 0
0 0 0

0 0 0
0 0 0
0 0 0

0 0 0
0 0 0
0 0 0

0 0 0
0 0 0
0 0 0

0 0 0
0 0 0
0 0 0

0 0 0
0 0 0
0 0 0

0 0 0
0 0 0
0 0 0

0 0 0
0 0 0
0 0 0

0 0 0
0 0 0
0 0 0

0 0 0
0 0 0
0 0 0

0 0 0
0 0 0
0 0 0

0 0 0
0 0 0
0 0 0

0 0 0
0 0 0
0 0 0

0 0 0
0 0 0
0 0 0

0 0 0
0 0 0
0 0 0

0 0 0
0 0 0
0 0 0

0 0 0
0 0 0
0 0 0

0 0 0
0 0 0
0 0 0

0 0 0
0 0 0
0 0 0

0 0 0
0 0 0
0 0 0

0 0 0
0 0 0
0 0 0

0 0 0
0 0 0
0 0 0

0 0 0
0 0 0
0 0 0

0 0 0
0 0 0
0 0 0

0 0 0
0 0 0
0 0 0

0 0 0
0 0 0
0 0 0

0 0 0
0 0 0
0 0 0

0 0 0
0 0 0
0 0 0

0 0 0
0 0 0
0 0 0

0 0 0
0 0 0
0 0 0

0 0 0
0 0 0
0 0 0

0 0 0
0 0 0
0 0 0

0 0 0
0 0 0
0 0 0

0 0 0
0 0 0
0 0 0

0 0 0
0 0 0
0 0 0

0 0 0
0 0 0
0 0 0

0 0 0
0 0 0
0 0 0

0 0 0
0 0 0
0 0 0

0 0 0
0 0 0
0 0 0

0 0 0
0 0 0
0 0 0

0 0 0
0 0 0
0 0 0

0 0 0
0 0 0
0 0 0

0 0 0
0 0 0
0 0 0

0 0 0
0 0 0
0 0 0

0 0 0
0 0 0
0 0 0

0 0 0
0 0 0
0 0 0

0 0 0
0 0 0
0 0 0

0 0 0
0 0 0
0 0 0

0 0 0
0 0 0
0 0 0

0 0 0
0 0 0
0 0 0

0 0 0
0 0 0
0 0 0

0 0 0
0 0 0
0 0 0

0 0 0
0 0 0
0 0 0

0 0 0
0 0 0
0 0 0

0 0 0
0 0 0
0 0 0

0 0 0
0 0 0
0 0 0

0 0 0
0 0 0
0 0 0

0 0 0
0 0 0
0 0 0

0 0 0
0 0 0
0 0 0

0 0 0
0 0 0
0 0 0

0 0 0
0 0 0
0 0 0

0 0 0
0 0 0
0 0 0

0 0 0
0 0 0
0 0 0

0 0 0
0 0 0
0 0 0

0 0 0
0 0 0
0 0 0

0 0 0
0 0 0
0 0 0

0 0 0
0 0 0
0 0 0

0 0 0
0 0 0
0 0 0

0 0 0
0 0 0
0 0 0

0 0 0
0 0 0
0 0 0

0 0 0
0 0 0
0 0 0

0 0 0
0 0 0
0 0 0

0 0 0
0 0 0
0 0 0

0 0 0
0 0 0
0 0 0

0 0 0
0 0 0
0 0 0

0 0 0
0 0 0
0 0 0

0 0 0
0 0 0
0 0 0

0 0 0
0 0 0
0 0 0

0 0 0
0 0 0
0 0 0

0 0 0
0 0 0
0 0 0

0 0 0
0 0 0
0 0 0

0 0 0
0 0 0
0 0 0

0 0 0
0 0 0
0 0 0

0 0 0
0 0 0
0 0 0

0 0 0
0 0 0
0 0 0

0 0 0
0 0 0
0 0 0

0 0 0
0 0 0
0 0 0

0 0 0
0 0 0
0 0 0

0 0 0
0 0 0
0 0 0

0 0 0
0 0 0
0 0 0

0 0 0
0 0 0
0 0 0

0 0 0
0 0 0
0 0 0

0 0 0
0 0 0
0 0 0

0 0 0
0 0 0
0 0 0

0 0 0
0 0 0
0 0 0

0 0 0
0 0 0
0 0 0

0 0 0
0 0 0
0 0 0

0 0 0
0 0 0
0 0 0

0 0 0
0 0 0
0 0 0

0 0 0
0 0 0
0 0 0

0 0 0
0 0 0
0 0 0

0 0 0
0 0 0
0 0 0

0 0 0
0 0 0
0 0 0

0 0 0
0 0 0
0 0 0

0 0 0
0 0 0
0 0 0

0 0 0
0 0 0
0 0 0

0 0 0
0 0 0
0 0 0

0 0 0
0 0 0
0 0 0

0 0 0
0 0 0
0 0 0

0 0 0
0 0 0
0 0 0

0 0 0
0 0 0
0 0 0

0 0 0
0 0 0
0 0 0

0 0 0
0 0 0
0 0 0

0 0 0
0 0 0
0 0 0

0 0 0
0 0 0
0 0 0

0 0 0
0 0 0
0 0 0

0 0 0
0 0 0
0 0 0

0 0 0
0 0 0
0 0 0

0 0 0
0 0 0
0 0 0

0 0 0
0 0 0
0 0 0

0 0 0
0 0 0
0 0 0

0 0 0
0 0 0
0 0 0

0 0 0
0 0 0
0 0 0

0 0 0
0 0 0
0 0 0

0 0 0
0 0 0
0 0 0

0 0 0
0 0 0
0 0 0

0 0 0
0 0 0
0 0 0

0 0 0
0 0 0
0 0 0

0 0 0
0 0 0
0 0 0

0 0 0
0 0 0
0 0 0

0 0 0
0 0 0
0 0 0

0 0 0
0 0 0
0 0 0

0 0 0
0 0 0
0 0 0

0 0 0
0 0 0
0 0 0

0 0 0
0 0 0
0 0 0

0 0 0
0 0 0
0 0 0

0 0 0
0 0 0
0 0 0

0 0 0
0 0 0
0 0 0

0 0 0
0 0 0
0 0 0

0 0 0
0 0 0
0 0 0

0 0 0
0 0 0
0 0 0

0 0 0
0 0 0
0 0 0

0 0 0
0 0 0
0 0 0

0 0 0
0 0 0
0 0 0

0 0 0
0 0 0
0 0 0

0 0 0
0 0 0
0 0 0

0 0 0
0 0 0
0 0 0

0 0 0
0 0 0
0 0 0

0 0 0
0 0 0
0 0 0

0 0 0
0 0 0
0 0 0

0 0 0
0 0 0
0 0 0

0 0 0
0 0 0
0 0 0

0 0 0
0 0 0
0 0 0

0 0 0
0 0 0
0 0 0

0 0 0
0 0 0
0 0 0

0 0 0
0 0 0
0 0 0

0 0 0
0 0 0
0 0 0

0 0 0
0 0 0
0 0 0

0 0 0
0 0 0
0 0 0

0 0 0
0 0 0
0 0 0

0 0 0
0 0 0
0 0 0

0 0 0
0 0 0
0 0 0

0 0 0
0 0 0
0 0 0

0 0 0
0 0 0
0 0 0

0 0 0
0 0 0
0 0 0

0 0 0
0 0 0
0 0 0

0 0 0
0 0 0
0 0 0

0 0 0
0 0 0
0 0 0

0 0 0
0 0 0
0 0 0

0 0 0
0 0 0
0 0 0

0 0 0
0 0 0
0 0 0

0 0 0
0 0 0
0 0 0

0 0 0
0 0 0
0 0 0

0 0 0
0 0 0
0 0 0

0 0 0
0 0 0
0 0 0

0 0 0
0 0 0
0 0 0

0 0 0
0 0 0
0 0 0

0 0 0
0 0 0
0 0 0

0 0 0
0 0 0
0 0 0

0 0 0
0 0 0
0 0 0

0 0 0
0 0 0
0 0 0

0 0 0
0 0 0
0 0 0

0 0 0
0 0 0
0 0 0

0 0 0
0 0 0
0 0 0

0 0 0
0 0 0
0 0 0

0 0 0
0 0 0
0 0 0

0 0 0
0 0 0
0 0 0

0 0 0
0 0 0
0 0 0

0 0 0
0 0 0
0 0 0

0 0 0
0 0 0
0 0 0

0 0 0
0 0 0
0 0 0

0 0 0
0 0 0
0 0 0

0 0 0
0 0 0
0 0 0

0 0 0
0 0 0
0 0 0

0 0 0
0 0 0
0 0 0

0 0 0
0 0 0
0 0 0

0 0 0
0 0 0
0 0 0

0 0 0
0 0 0
0 0 0

0 0 0
0 0 0
0 0 0

0 0 0
0 0 0
0 0 0

0 0 0
0 0 0
0 0 0

0 0 0
0 0 0
0 0 0

0 0 0
0 0 0
0 0 0

0 0 0
0 0 0
0 0 0

0 0 0
0 0 0
0 0 0

0 0 0
0 0 0
0 0 0

0 0 0
0 0 0
0 0 0

0 0 0
0 0 0
0 0 0

0 0 0
0 0 0
0 0 0

0 0 0
0 0 0
0 0 0

0 0 0
0 0 0
0 0 0

0 0 0
0 0 0
0 0 0

0 0 0
0 0 0
0 0 0

0 0 0
0 0 0
0 0 0

0 0 0
0 0 0
0 0 0

0 0 0
0 0 0
0 0 0

0 0 0
0 0 0
0 0 0

0 0 0
0 0 0
0 0 0

0 0 0
0 0 0
0 0 0

0 0 0
0 0 0
0 0 0

0 0 0
0 0 0
0 0 0

0 0 0
0 0 0
0 0 0

0 0 0
0 0 0
0 0 0

0 0 0
0 0 0
0 0 0

0 0 0
0 0 0
0 0 0

0 0 0
0 0 0
0 0 0

0 0 0
0 0 0
0 0 0

0 0 0
0 0 0
0 0 0

0 0 0
0 0 0
0 0 0

0 0 0
0 0 0
0 0 0

0 0 0
0 0 0
0 0 0

0 0 0
0 0 0
0 0 0

0 0 0
0 0 0
0 0 0

0 0 0
0 0 0
0 0 0

0 0 0
0 0 0
0 0 0

0 0 0
0 0 0
0 0 0

0 0 0
0 0 0
0 0 0

0 0 0
0 0 0
0 0 0

0 0 0
0 0 0
0 0 0

0 0 0
0 0 0
0 0 0

0 0 0
0 0 0
0 0 0

0 0 0
0 0 0
0 0 0

0 0 0
0 0 0
0 0 0

0 0 0
0 0 0
0 0 0

0 0 0
0 0 0
0 0 0

0 0 0
0 0 0
0 0 0

0 0 0
0 0 0
0 0 0

0 0 0
0 0 0
0 0 0

0 0 0
0 0 0
0 0 0

0 0 0
0 0 0
0 0 0

0 0 0
0 0 0
0 0 0

0 0 0
0 0 0
0 0 0

0 0 0
0 0 0
0 0 0

0 0 0
0 0 0
0 0 0

0 0 0
0 0 0
0 0 0

0 0 0
0 0 0
0 0 0

0 0 0
0 0 0
0 0 0

0 0 0
0 0 0
0 0 0

0 0 0
0 0 0
0 0 0

0 0 0
0 0 0
0 0 0

0 0 0
0 0 0
0 0 0

0 0 0
0 0 0
0 0 0

0 0 0
0 0 0
0 0 0

0 0 0
0 0 0
0 0 0

0 0 0
0 0 0
0 0 0

0 0 0
0 0 0
0 0 0

0 0 0
0 0 0
0 0 0

0 0 0
0 0 0
0 0 0

0 0 0
0 0 0
0 0 0

0 0 0
0 0 0
0 0 0

0 0 0
0 0 0
0 0 0

0 0 0
0 0 0
0 0 0

0 0 0
0 0 0
0 0 0

0 0 0
0 0 0
0 0 0

0 0 0
0 0 0
0 0 0

0 0 0
0 0 0
0 0 0

0 0 0
0 0 0
0 0 0

0 0 0
0 0 0
0 0 0

0 0 0
0 0 0
0 0 0

0 0 0
0 0 0
0 0 0

0 0 0
0 0 0
0 0 0

0 0 0
0 0 0
0 0 0

0 0 0
0 0 0
0 0 0

0 0 0
0 0 0
0 0 0

0 0 0
0 0 0
0 0 0

0 0 0
0 0 0
0 0 0

0 0 0
0 0 0
0 0 0

0 0 0
0 0 0
0 0 0

0 0 0
0 0 0
0 0 0

0 0 0
0 0 0
0 0 0

0 0 0
0 0 0
0 0 0

0 0 0
0 0 0
0 0 0

0 0 0
0 0 0
0 0 0

0 0 0
0 0 0
0 0 0

0 0 0
0 0 0
0 0 0

0 0 0
0 0 0
0 0 0

0 0 0
0 0 0
0 0 0

0 0 0
0 0 0
0 0 0

0 0 0
0 0 0
0 0 0

0 0 0
0 0 0
0 0 0

0 0 0
0 0 0
0 0 0

0 0 0
0 0 0
0 0 0

0 0 0
0 0 0
0 0 0

0 0 0
0 0 0
0 0 0

0 0 0
0 0 0
0 0 0

0 0 0
0 0 0
0 0 0

0 0 0
0 0 0
0 0 0

0 0 0
0 0 0
0 0 0

0 0 0
0 0 0
0 0 0

0 0 0
0 0 0
0 0 0

0 0 0
0 0 0
0 0 0

0 0 0
0 0 0
0 0 0

0 0 0
0 0 0
0 0 0

0 0 0
0 0 0
0 0 0

0 0 0
0 0 0
0 0 0

0 0 0
0 0 0
0 0 0

0 0 0
0 0 0
0 0 0

0 0 0
0 0 0
0 0 0

0 0 0
0 0 0
0 0 0

0 0 0
0 0 0
0 0 0

0 0 0
0 0 0
0 0 0

0 0 0
0 0 0
0 0 0

0 0 0
0 0 0
0 0 0

0 0 0
0 0 0
0 0 0

0 0 0
0 0 0
0 0 0

0 0 0
0 0 0
0 0 0

0 0 0
0 0 0
0 0 0

0 0 0
0 0 0
0 0 0

0 0 0
0 0 0
0 0 0

0 0 0
0 0 0
0 0 0

0 0 0
0 0 0
0 0 0

0 0 0
0 0 0
0 0 0

0 0 0
0 0 0
0 0 0

0 0 0
0 0 0
0 0 0

0 0 0
0 0 0
0 0 0

0 0 0
0 0 0
0 0 0

0 0 0
0 0 0
0 0 0

0 0 0
0 0 0
0 0 0

0 0 0
0 0 0
0 0 0

0 0 0
0 0 0
0 0 0

0 0 0
0 0 0
0 0 0

0 0 0
0 0 0
0 0 0

0 0 0
0 0 0
0 0 0

0 0 0
0 0 0
0 0 0

0 0 0
0 0 0
0 0 0

0 0 0
0 0 0
0 0 0

0 0 0
0 0 0
0 0 0

0 0 0
0 0 0
0 0 0

0 0 0
0 0 0
0 0 0

0 0 0
0 0 0
0 0 0

0 0 0
0 0 0
0 0 0

0 0 0
0 0 0
0 0 0

0 0 0
0 0 0
0 0 0

0 0 0
0 0 0
0 0 0

0 0 0
0 0 0
0 0 0

0 0 0
0 0 0
0 0 0

0 0 0
0 0 0
0 0 0

0 0 0
0 0 0
0 0 0

0 0 0
0 0 0
0 0 0

0 0 0
0 0 0
0 0 0

0 0 0
0 0 0
0 0 0

0 0 0
0 0 0
0 0 0

0 0 0
0 0 0
0 0 0

0 0 0
0 0 0
0 0 0

0 0 0
0 0 0
0 0 0

0 0 0
0 0 0
0 0 0

0 0 0
0 0 0
0 0 0

0 0 0
0 0 0
0 0 0

0 0 0
0 0 0
0 0 0

0 0 0
0 0 0
0 0 0

0 0 0
0 0 0
0 0 0

0 0 0
0 0 0
0 0 0

0 0 0
0 0 0
0 0 0

0 0 0
0 0 0
0 0 0

0 0 0
0 0 0
0 0 0

0 0 0
0 0 0
0 0 0

0 0 0
0 0 0
0 0 0

0 0 0
0 0 0
0 0 0

0 0 0
0 0 0
0 0 0

0 0 0
0 0 0
0 0 0

0 0 0
0 0 0
0 0 0

0 0 0
0 0 0
0 0 0

0 0 0
0 0 0
0 0 0

0 0 0
0 0 0
0 0 0

0 0 0
0 0 0
0 0 0

0 0 0
0 0 0
0 0 0

0 0 0
0 0 0
0 0 0

0 0 0
0 0 0
0 0 0

0 0 0
0 0 0
0 0 0

0 0 0
0 0 0
0 0 0

0 0 0
0 0 0
0 0 0

0 0 0
0 0 0
0 0 0

0 0 0
0 0 0
0 0 0

0 0 0
0 0 0
0 0 0

0 0 0
0 0 0
0 0 0

0 0 0
0 0 0
0 0 0

0 0 0
0 0 0
0 0 0

0 0 0
0 0 0
0 0 0

0 0 0
0 0 0
0 0 0

0 0 0
0 0 0
0 0 0

0 0 0
0 0 0
0 0 0

0 0 0
0 0 0
0 0 0

0 0 0
0 0 0
0 0 0

0 0 0
0 0 0
0 0 0

0 0 0
0 0 0
0 0 0

0 0 0
0 0 0
0 0 0

0 0 0
0 0 0
0 0 0

0 0 0
0 0 0
0 0 0

0 0 0
0 0 0
0 0 0

0 0 0
0 0 0
0 0 0

0 0 0
0 0 0
0 0 0

0 0 0
0 0 0
0 0 0

0 0 0
0 0 0
0 0 0

0 0 0
0 0 0
0 0 0

0 0 0
0 0 0
0 0 0

0 0 0
0 0 0
0 0 0

0 0 0
0 0 0
0 0 0

0 0 0
0 0 0
0 0 0

0 0 0
0 0 0
0 0 0

0 0 0
0 0 0
0 0 0

0 0 0
0 0 0
0 0 0

0 0 0
0 0 0
0 0 0

0 0 0
0 0 0
0 0 0

0 0 0
0 0 0
0 0 0

0 0 0
0 0 0
0 0 0

0 0 0
0 0 0
0 0 0

0 0 0
0 0 0
0 0 0

0 0 0
0 0 0
0 0 0

0 0 0
0 0 0
0 0 0

0 0 0
0 0 0
0 0 0

0 0 0
0 0 0
0 0 0

0 0 0
0 0 0
0 0 0

0 0 0
0 0 0
0 0 0

0 0 0
0 0 0
0 0 0

0 0 0
0 0 0
0 0 0

0 0 0
0 0 0
0 0 0

0 0 0
0 0 0
0 0 0

0 0 0
0 0 0
0 0 0

0 0 0
0 0 0
0 0 0

0 0 0
0 0 0
0 0 0

0 0 0
0 0 0
0 0 0

0 0 0
0 0 0
0 0 0

0 0 0
0 0 0
0 0 0

0 0 0
0 0 0
0 0 0

0 0 0
0 0 0
0 0 0

0 0 0
0 0 0
0 0 0

0 0 0
0 0 0
0 0 0

0 0 0
0 0 0
0 0 0

0 0 0
0 0 0
0 0 0

0 0 0
0 0 0
0 0 0

0 0 0
0 0 0
0 0 0

0 0 0
0 0 0
0 0 0

0 0 0
0 0 0
0 0 0

0 0 0
0 0 0
0 0 0

0 0 0
0 0 0
0 0 0

0 0 0
0 0 0
0 0 0

0 0 0
0 0 0
0 0 0

0 0 0
0 0 0
0 0 0

0 0 0
0 0 0
0 0 0

0 0 0
0 0 0
0 0 0

0 0 0
0 0 0
0 0 0

0 0 0
0 0 0
0 0 0

0 0 0
0 0 0
0 0 0

0 0 0
0 0 0
0 0 0

0 0 0
0 0 0
0 0 0

0 0 0
0 0 0
0 0 0

0 0 0
0 0 0
0 0 0

0 0 0
0 0 0
0 0 0

0 0 0
0 0 0
0 0 0

0 0 0
0 0 0
0 0 0

0 0 0
0 0 0
0 0 0

0 0 0
0 0 0
0 0 0

0 0 0
0 0 0
0 0 0

0 0 0
0 0 0
0 0 0

0 0 0
0 0 0
0 0 0

0 0 0
0 0 0
0 0 0

0 0 0
0 0 0
0 0 0

0 0 0
0 0 0
0 0 0

0 0 0
0 0 0
0 0 0

0 0 0
0 0 0
0 0 0

0 0 0
0 0 0
0 0 0

0 0 0
0 0 0
0 0 0

0 0 0
0 0 0
0 0 0

0 0 0
0 0 0
0 0 0

0 0 0
0 0 0
0 0 0

0 0 0
0 0 0
0 0 0

0 0 0
0 0 0
0 0 0

0 0 0
0 0 0
0 0 0

0 0 0
0 0 0
0 0 0

0 0 0
0 0 0
0 0 0

0 0 0
0 0 0
0 0 0

0 0 0
0 0 0
0 0 0

0 0 0
0 0 0
0 0 0

0 0 0
0 0 0
0 0 0

0 0 0
0 0 0
0 0 0

0 0 0
0 0 0
0 0 0

0 0 0
0 0 0
0 0 0

0 0 0
0 0 0
0 0 0

0 0 0
0 0 0
0 0 0

0 0 0
0 0 0
0 0 0

0 0 0
0 0 0
0 0 0

0 0 0
0 0 0
0 0 0

0 0 0
0 0 0
0 0 0

0 0 0
0 0 0
0 0 0

0 0 0
0 0 0
0 0 0

0 0 0
0 0 0
0 0 0

0 0 0
0 0 0
0 0 0

0 0 0
0 0 0
0 0 0

0 0 0
0 0 0
0 0 0

0 0 0
0 0 0
0 0 0

0 0 0
0 0 0
0 0 0

0 0 0
0 0 0
0 0 0

0 0 0
0 0 0
0 0 0

0 0 0
0 0 0
0 0 0

0 0 0
0 0 0
0 0 0

0 0 0
0 0 0
0 0 0

0 0 0
0 0 0
0 0 0

0 0 0
0 0 0
0 0 0

0 0 0
0 0 0
0 0 0

0 0 0
0 0 0
0 0 0

0 0 0
0 0 0
0 0 0

0 0 0
0 0 0
0 0 0

0 0 0
0 0 0
0 0 0

0 0 0
0 0 0
0 0 0

0 0 0
0 0 0
0 0 0

0 0 0
0 0 0
0 0 0

FIELD solute_concentration_TPM 2
S_ext 1 563 float
0
0
0
0
0
0
0
0
0
0
0
0
0
0
0
0
0
0
0
0
0
0
0
0
0
0
0
0
0
0
0
0
0
0
0
0
0
0
0
0
0
0
0
0
0
0
0
0
0
0
0
0
0
0
0
0
0
0
0
0
0
0
0
0
0
0
0
0
0
0
0
0
0
0
0
0
0
0
0
0
0
0
0
0
0
0
0
0
0
0
0
0
0
0
0
0
0
0
0
0
0
0
0
0
0
0
0
0
0
0
0
0
0
0
0
0
0
0
0
0
0
0
0
0
0
0
0
0
0
0
0
0
0
0
0
0
0
0
0
0
0
0
0
0
0
0
0
0
0
0
0
0
0
0
0
0
0
0
0
0
0
0
0
0
0
0
0
0
0
0
0
0
0
0
0
0
0
0
0
0
0
0
0
0
0
0
0
0
0
0
0
0
0
0
0
0
0
0
0
0
0
0
0
0
0
0
0
0
0
0
0
0
0
0
0
0
0
0
0
0
0
0
0
0
0
0
0
0
0
0
0
0
0
0
0
0
0
0
0
0
0
0
0
0
0
0
0
0
0
0
0
0
0
0
0
0
0
0
0
0
0
0
0
0
0
0
0
0
0
0
0
0
0
0
0
0
0
0
0
0
0
0
0
0
0
0
0
0
0
0
0
0
0
0
0
0
0
0
0
0
0
0
0
0
0
0
0
0
0
0
0
0
0
0
0
0
0
0
0
0
0
0
0
0
0
0
0
0
0
0
0
0
0
0
0
0
0
0
0
0
0
0
0
0
0
0
0
0
0
0
0
0
0
0
0
0
0
0
0
0
0
0
0
0
0
0
0
0
0
0
0
0
0
0
0
0
0
0
0
0
0
0
0
0
0
0
0
0
0
0
0
0
0
0
0
0
0
0
0
0
0
0
0
0
0
0
0
0
0
0
0
0
0
0
0
0
0
0
0
0
0
0
0
0
0
0
0
0
0
0
0
0
0
0
0
0
0
0
0
0
0
0
0
0
0
0
0
0
0
0
0
0
0
0
0
0
0
0
0
0
0
0
0
0
0
0
0
0
0
0
0
0
0
0
0
0
0
0
0
0
0
0
0
0
0
0
0
0
0
0
0
0
0
0
0
0
0
0
0
0
0
0
0
0
0
0
0
0
0
0
0
0
0
0
0
0
0
0
0
0
0
0
0
0
0
0
0
0
0
0
0
0
0
0
0
0
0
0
0
0
0
0
0
0
0
0
0
0
0
0
0
0
0
0
0
0
0
0
0
0
0
0
0
P_ext 1 563 float
0
0
0
0
0
0
0
0
0
0
0
0
0
0
0
0
0
0
0
0
0
0
0
0
0
0
0
0
0
0
0
0
0
0
0
0
0
0
0
0
0
0
0
0
0
0
0
0
0
0
0
0
0
0
0
0
0
0
0
0
0
0
0
0
0
0
0
0
0
0
0
0
0
0
0
0
0
0
0
0
0
0
0
0
0
0
0
0
0
0
0
0
0
0
0
0
0
0
0
0
0
0
0
0
0
0
0
0
0
0
0
0
0
0
0
0
0
0
0
0
0
0
0
0
0
0
0
0
0
0
0
0
0
0
0
0
0
0
0
0
0
0
0
0
0
0
0
0
0
0
0
0
0
0
0
0
0
0
0
0
0
0
0
0
0
0
0
0
0
0
0
0
0
0
0
0
0
0
0
0
0
0
0
0
0
0
0
0
0
0
0
0
0
0
0
0
0
0
0
0
0
0
0
0
0
0
0
0
0
0
0
0
0
0
0
0
0
0
0
0
0
0
0
0
0
0
0
0
0
0
0
0
0
0
0
0
0
0
0
0
0
0
0
0
0
0
0
0
0
0
0
0
0
0
0
0
0
0
0
0
0
0
0
0
0
0
0
0
0
0
0
0
0
0
0
0
0
0
0
0
0
0
0
0
0
0
0
0
0
0
0
0
0
0
0
0
0
0
0
0
0
0
0
0
0
0
0
0
0
0
0
0
0
0
0
0
0
0
0
0
0
0
0
0
0
0
0
0
0
0
0
0
0
0
0
0
0
0
0
0
0
0
0
0
0
0
0
0
0
0
0
0
0
0
0
0
0
0
0
0
0
0
0
0
0
0
0
0
0
0
0
0
0
0
0
0
0
0
0
0
0
0
0
0
0
0
0
0
0
0
0
0
0
0
0
0
0
0
0
0
0
0
0
0
0
0
0
0
0
0
0
0
0
0
0
0
0
0
0
0
0
0
0
0
0
0
0
0
0
0
0
0
0
0
0
0
0
0
0
0
0
0
0
0
0
0
0
0
0
0
0
0
0
0
0
0
0
0
0
0
0
0
0
0
0
0
0
0
0
0
0
0
0
0
0
0
0
0
0
0
0
0
0
0
0
0
0
0
0
0
0
0
0
0
0
0
0
0
0
0
0
0
0
0
0
0
0
0
0
0
0
0
0
0
0
0
0
0
0
0
0
0
0
0
0
0
0
0
0
0
0
0
0
0
0
0
0
0
0
0
0
0
0
0
0
0
0
0
0
0
0
0
0
0
0
0
0
0
0
0
0
0
0
FIELD solute_flux_TPM 2
S_ext 3 563 float
0 0 0
0 0 0
0 0 0
0 0 0
0 0 0
0 0 0
0 0 0
0 0 0
0 0 0
0 0 0
0 0 0
0 0 0
0 0 0
0 0 0
0 0 0
0 0 0
0 0 0
0 0 0
0 0 0
0 0 0
0 0 0
0 0 0
0 0 0
0 0 0
0 0 0
0 0 0
0 0 0
0 0 0
0 0 0
0 0 0
0 0 0
0 0 0
0 0 0
0 0 0
0 0 0
0 0 0
0 0 0
0 0 0
0 0 0
0 0 0
0 0 0
0 0 0
0 0 0
0 0 0
0 0 0
0 0 0
0 0 0
0 0 0
0 0 0
0 0 0
0 0 0
0 0 0
0 0 0
0 0 0
0 0 0
0 0 0
0 0 0
0 0 0
0 0 0
0 0 0
0 0 0
0 0 0
0 0 0
0 0 0
0 0 0
0 0 0
0 0 0
0 0 0
0 0 0
0 0 0
0 0 0
0 0 0
0 0 0
0 0 0
0 0 0
0 0 0
0 0 0
0 0 0
0 0 0
0 0 0
0 0 0
0 0 0
0 0 0
0 0 0
0 0 0
0 0 0
0 0 0
0 0 0
0 0 0
0 0 0
0 0 0
0 0 0
0 0 0
0 0 0
0 0 0
0 0 0
0 0 0
0 0 0
0 0 0
0 0 0
0 0 0
0 0 0
0 0 0
0 0 0
0 0 0
0 0 0
0 0 0
0 0 0
0 0 0
0 0 0
0 0 0
0 0 0
0 0 0
0 0 0
0 0 0
0 0 0
0 0 0
0 0 0
0 0 0
0 0 0
0 0 0
0 0 0
0 0 0
0 0 0
0 0 0
0 0 0
0 0 0
0 0 0
0 0 0
0 0 0
0 0 0
0 0 0
0 0 0
0 0 0
0 0 0
0 0 0
0 0 0
0 0 0
0 0 0
0 0 0
0 0 0
0 0 0
0 0 0
0 0 0
0 0 0
0 0 0
0 0 0
0 0 0
0 0 0
0 0 0
0 0 0
0 0 0
0 0 0
0 0 0
0 0 0
0 0 0
0 0 0
0 0 0
0 0 0
0 0 0
0 0 0
0 0 0
0 0 0
0 0 0
0 0 0
0 0 0
0 0 0
0 0 0
0 0 0
0 0 0
0 0 0
0 0 0
0 0 0
0 0 0
0 0 0
0 0 0
0 0 0
0 0 0
0 0 0
0 0 0
0 0 0
0 0 0
0 0 0
0 0 0
0 0 0
0 0 0
0 0 0
0 0 0
0 0 0
0 0 0
0 0 0
0 0 0
0 0 0
0 0 0
0 0 0
0 0 0
0 0 0
0 0 0
0 0 0
0 0 0
0 0 0
0 0 0
0 0 0
0 0 0
0 0 0
0 0 0
0 0 0
0 0 0
0 0 0
0 0 0
0 0 0
0 0 0
0 0 0
0 0 0
0 0 0
0 0 0
0 0 0
0 0 0
0 0 0
0 0 0
0 0 0
0 0 0
0 0 0
0 0 0
0 0 0
0 0 0
0 0 0
0 0 0
0 0 0
0 0 0
0 0 0
0 0 0
0 0 0
0 0 0
0 0 0
0 0 0
0 0 0
0 0 0
0 0 0
0 0 0
0 0 0
0 0 0
0 0 0
0 0 0
0 0 0
0 0 0
0 0 0
0 0 0
0 0 0
0 0 0
0 0 0
0 0 0
0 0 0
0 0 0
0 0 0
0 0 0
0 0 0
0 0 0
0 0 0
0 0 0
0 0 0
0 0 0
0 0 0
0 0 0
0 0 0
0 0 0
0 0 0
0 0 0
0 0 0
0 0 0
0 0 0
0 0 0
0 0 0
0 0 0
0 0 0
0 0 0
0 0 0
0 0 0
0 0 0
0 0 0
0 0 0
0 0 0
0 0 0
0 0 0
0 0 0
0 0 0
0 0 0
0 0 0
0 0 0
0 0 0
0 0 0
0 0 0
0 0 0
0 0 0
0 0 0
0 0 0
0 0 0
0 0 0
0 0 0
0 0 0
0 0 0
0 0 0
0 0 0
0 0 0
0 0 0
0 0 0
0 0 0
0 0 0
0 0 0
0 0 0
0 0 0
0 0 0
0 0 0
0 0 0
0 0 0
0 0 0
0 0 0
0 0 0
0 0 0
0 0 0
0 0 0
0 0 0
0 0 0
0 0 0
0 0 0
0 0 0
0 0 0
0 0 0
0 0 0
0 0 0
0 0 0
0 0 0
0 0 0
0 0 0
0 0 0
0 0 0
0 0 0
0 0 0
0 0 0
0 0 0
0 0 0
0 0 0
0 0 0
0 0 0
0 0 0
0 0 0
0 0 0
0 0 0
0 0 0
0 0 0
0 0 0
0 0 0
0 0 0
0 0 0
0 0 0
0 0 0
0 0 0
0 0 0
0 0 0
0 0 0
0 0 0
0 0 0
0 0 0
0 0 0
0 0 0
0 0 0
0 0 0
0 0 0
0 0 0
0 0 0
0 0 0
0 0 0
0 0 0
0 0 0
0 0 0
0 0 0
0 0 0
0 0 0
0 0 0
0 0 0
0 0 0
0 0 0
0 0 0
0 0 0
0 0 0
0 0 0
0 0 0
0 0 0
0 0 0
0 0 0
0 0 0
0 0 0
0 0 0
0 0 0
0 0 0
0 0 0
0 0 0
0 0 0
0 0 0
0 0 0
0 0 0
0 0 0
0 0 0
0 0 0
0 0 0
0 0 0
0 0 0
0 0 0
0 0 0
0 0 0
0 0 0
0 0 0
0 0 0
0 0 0
0 0 0
0 0 0
0 0 0
0 0 0
0 0 0
0 0 0
0 0 0
0 0 0
0 0 0
0 0 0
0 0 0
0 0 0
0 0 0
0 0 0
0 0 0
0 0 0
0 0 0
0 0 0
0 0 0
0 0 0
0 0 0
0 0 0
0 0 0
0 0 0
0 0 0
0 0 0
0 0 0
0 0 0
0 0 0
0 0 0
0 0 0
0 0 0
0 0 0
0 0 0
0 0 0
0 0 0
0 0 0
0 0 0
0 0 0
0 0 0
0 0 0
0 0 0
0 0 0
0 0 0
0 0 0
0 0 0
0 0 0
0 0 0
0 0 0
0 0 0
0 0 0
0 0 0
0 0 0
0 0 0
0 0 0
0 0 0
0 0 0
0 0 0
0 0 0
0 0 0
0 0 0
0 0 0
0 0 0
0 0 0
0 0 0
0 0 0
0 0 0
0 0 0
0 0 0
0 0 0
0 0 0
0 0 0
0 0 0
0 0 0
0 0 0
0 0 0
0 0 0
0 0 0
0 0 0
0 0 0
0 0 0
0 0 0
0 0 0
0 0 0
0 0 0
0 0 0
0 0 0
0 0 0
0 0 0
0 0 0
0 0 0
0 0 0
0 0 0
0 0 0
0 0 0
0 0 0
0 0 0
0 0 0
0 0 0
0 0 0
0 0 0
0 0 0
0 0 0
0 0 0
0 0 0
0 0 0
0 0 0
0 0 0
0 0 0
0 0 0
0 0 0
0 0 0
0 0 0
0 0 0
0 0 0
0 0 0
0 0 0
0 0 0
0 0 0
0 0 0
0 0 0
0 0 0
0 0 0
0 0 0
0 0 0
0 0 0
0 0 0
0 0 0
0 0 0
0 0 0
0 0 0
0 0 0
0 0 0
0 0 0
0 0 0
0 0 0
0 0 0
0 0 0
0 0 0
0 0 0
0 0 0
0 0 0
0 0 0
0 0 0
0 0 0
0 0 0
0 0 0
0 0 0
0 0 0
P_ext 3 563 float
0 0 0
0 0 0
0 0 0
0 0 0
0 0 0
0 0 0
0 0 0
0 0 0
0 0 0
0 0 0
0 0 0
0 0 0
0 0 0
0 0 0
0 0 0
0 0 0
0 0 0
0 0 0
0 0 0
0 0 0
0 0 0
0 0 0
0 0 0
0 0 0
0 0 0
0 0 0
0 0 0
0 0 0
0 0 0
0 0 0
0 0 0
0 0 0
0 0 0
0 0 0
0 0 0
0 0 0
0 0 0
0 0 0
0 0 0
0 0 0
0 0 0
0 0 0
0 0 0
0 0 0
0 0 0
0 0 0
0 0 0
0 0 0
0 0 0
0 0 0
0 0 0
0 0 0
0 0 0
0 0 0
0 0 0
0 0 0
0 0 0
0 0 0
0 0 0
0 0 0
0 0 0
0 0 0
0 0 0
0 0 0
0 0 0
0 0 0
0 0 0
0 0 0
0 0 0
0 0 0
0 0 0
0 0 0
0 0 0
0 0 0
0 0 0
0 0 0
0 0 0
0 0 0
0 0 0
0 0 0
0 0 0
0 0 0
0 0 0
0 0 0
0 0 0
0 0 0
0 0 0
0 0 0
0 0 0
0 0 0
0 0 0
0 0 0
0 0 0
0 0 0
0 0 0
0 0 0
0 0 0
0 0 0
0 0 0
0 0 0
0 0 0
0 0 0
0 0 0
0 0 0
0 0 0
0 0 0
0 0 0
0 0 0
0 0 0
0 0 0
0 0 0
0 0 0
0 0 0
0 0 0
0 0 0
0 0 0
0 0 0
0 0 0
0 0 0
0 0 0
0 0 0
0 0 0
0 0 0
0 0 0
0 0 0
0 0 0
0 0 0
0 0 0
0 0 0
0 0 0
0 0 0
0 0 0
0 0 0
0 0 0
0 0 0
0 0 0
0 0 0
0 0 0
0 0 0
0 0 0
0 0 0
0 0 0
0 0 0
0 0 0
0 0 0
0 0 0
0 0 0
0 0 0
0 0 0
0 0 0
0 0 0
0 0 0
0 0 0
0 0 0
0 0 0
0 0 0
0 0 0
0 0 0
0 0 0
0 0 0
0 0 0
0 0 0
0 0 0
0 0 0
0 0 0
0 0 0
0 0 0
0 0 0
0 0 0
0 0 0
0 0 0
0 0 0
0 0 0
0 0 0
0 0 0
0 0 0
0 0 0
0 0 0
0 0 0
0 0 0
0 0 0
0 0 0
0 0 0
0 0 0
0 0 0
0 0 0
0 0 0
0 0 0
0 0 0
0 0 0
0 0 0
0 0 0
0 0 0
0 0 0
0 0 0
0 0 0
0 0 0
0 0 0
0 0 0
0 0 0
0 0 0
0 0 0
0 0 0
0 0 0
0 0 0
0 0 0
0 0 0
0 0 0
0 0 0
0 0 0
0 0 0
0 0 0
0 0 0
0 0 0
0 0 0
0 0 0
0 0 0
0 0 0
0 0 0
0 0 0
0 0 0
0 0 0
0 0 0
0 0 0
0 0 0
0 0 0
0 0 0
0 0 0
0 0 0
0 0 0
0 0 0
0 0 0
0 0 0
0 0 0
0 0 0
0 0 0
0 0 0
0 0 0
0 0 0
0 0 0
0 0 0
0 0 0
0 0 0
0 0 0
0 0 0
0 0 0
0 0 0
0 0 0
0 0 0
0 0 0
0 0 0
0 0 0
0 0 0
0 0 0
0 0 0
0 0 0
0 0 0
0 0 0
0 0 0
0 0 0
0 0 0
0 0 0
0 0 0
0 0 0
0 0 0
0 0 0
0 0 0
0 0 0
0 0 0
0 0 0
0 0 0
0 0 0
0 0 0
0 0 0
0 0 0
0 0 0
0 0 0
0 0 0
0 0 0
0 0 0
0 0 0
0 0 0
0 0 0
0 0 0
0 0 0
0 0 0
0 0 0
0 0 0
0 0 0
0 0 0
0 0 0
0 0 0
0 0 0
0 0 0
0 0 0
0 0 0
0 0 0
0 0 0
0 0 0
0 0 0
0 0 0
0 0 0
0 0 0
0 0 0
0 0 0
0 0 0
0 0 0
0 0 0
0 0 0
0 0 0
0 0 0
0 0 0
0 0 0
0 0 0
0 0 0
0 0 0
0 0 0
0 0 0
0 0 0
0 0 0
0 0 0
0 0 0
0 0 0
0 0 0
0 0 0
0 0 0
0 0 0
0 0 0
0 0 0
0 0 0
0 0 0
0 0 0
0 0 0
0 0 0
0 0 0
0 0 0
0 0 0
0 0 0
0 0 0
0 0 0
0 0 0
0 0 0
0 0 0
0 0 0
0 0 0
0 0 0
0 0 0
0 0 0
0 0 0
0 0 0
0 0 0
0 0 0
0 0 0
0 0 0
0 0 0
0 0 0
0 0 0
0 0 0
0 0 0
0 0 0
0 0 0
0 0 0
0 0 0
0 0 0
0 0 0
0 0 0
0 0 0
0 0 0
0 0 0
0 0 0
0 0 0
0 0 0
0 0 0
0 0 0
0 0 0
0 0 0
0 0 0
0 0 0
0 0 0
0 0 0
0 0 0
0 0 0
0 0 0
0 0 0
0 0 0
0 0 0
0 0 0
0 0 0
0 0 0
0 0 0
0 0 0
0 0 0
0 0 0
0 0 0
0 0 0
0 0 0
0 0 0
0 0 0
0 0 0
0 0 0
0 0 0
0 0 0
0 0 0
0 0 0
0 0 0
0 0 0
0 0 0
0 0 0
0 0 0
0 0 0
0 0 0
0 0 0
0 0 0
0 0 0
0 0 0
0 0 0
0 0 0
0 0 0
0 0 0
0 0 0
0 0 0
0 0 0
0 0 0
0 0 0
0 0 0
0 0 0
0 0 0
0 0 0
0 0 0
0 0 0
0 0 0
0 0 0
0 0 0
0 0 0
0 0 0
0 0 0
0 0 0
0 0 0
0 0 0
0 0 0
0 0 0
0 0 0
0 0 0
0 0 0
0 0 0
0 0 0
0 0 0
0 0 0
0 0 0
0 0 0
0 0 0
0 0 0
0 0 0
0 0 0
0 0 0
0 0 0
0 0 0
0 0 0
0 0 0
0 0 0
0 0 0
0 0 0
0 0 0
0 0 0
0 0 0
0 0 0
0 0 0
0 0 0
0 0 0
0 0 0
0 0 0
0 0 0
0 0 0
0 0 0
0 0 0
0 0 0
0 0 0
0 0 0
0 0 0
0 0 0
0 0 0
0 0 0
0 0 0
0 0 0
0 0 0
0 0 0
0 0 0
0 0 0
0 0 0
0 0 0
0 0 0
0 0 0
0 0 0
0 0 0
0 0 0
0 0 0
0 0 0
0 0 0
0 0 0
0 0 0
0 0 0
0 0 0
0 0 0
0 0 0
0 0 0
0 0 0
0 0 0
0 0 0
0 0 0
0 0 0
0 0 0
0 0 0
0 0 0
0 0 0
0 0 0
0 0 0
0 0 0
0 0 0
0 0 0
0 0 0
0 0 0
0 0 0
0 0 0
0 0 0
0 0 0
0 0 0
0 0 0
0 0 0
0 0 0
0 0 0
0 0 0
0 0 0
0 0 0
0 0 0
0 0 0
0 0 0
0 0 0
0 0 0
0 0 0
0 0 0
0 0 0
0 0 0
0 0 0
0 0 0
0 0 0
0 0 0
0 0 0
0 0 0
0 0 0
0 0 0
0 0 0
0 0 0
0 0 0
0 0 0
0 0 0
0 0 0
0 0 0
0 0 0
0 0 0
0 0 0
0 0 0
0 0 0
0 0 0
SCALARS rr_necrosis float
LOOKUP_TABLE default
0
0
0
0
0
0
0
0
0
0
0
0
0
0
0
0
0
0
0
0
0
0
0
0
0
0
0
0
0
0
0
0
0
0
0
0
0
0
0
0
0
0
0
0
0
0
0
0
0
0
0
0
0
0
0
0
0
0
0
0
0
0
0
0
0
0
0
0
0
0
0
0
0
0
0
0
0
0
0
0
0
0
0
0
0
0
0
0
0
0
0
0
0
0
0
0
0
0
0
0
0
0
0
0
0
0
0
0
0
0
0
0
0
0
0
0
0
0
0
0
0
0
0
0
0
0
0
0
0
0
0
0
0
0
0
0
0
0
0
0
0
0
0
0
0
0
0
0
0
0
0
0
0
0
0
0
0
0
0
0
0
0
0
0
0
0
0
0
0
0
0
0
0
0
0
0
0
0
0
0
0
0
0
0
0
0
0
0
0
0
0
0
0
0
0
0
0
0
0
0
0
0
0
0
0
0
0
0
0
0
0
0
0
0
0
0
0
0
0
0
0
0
0
0
0
0
0
0
0
0
0
0
0
0
0
0
0
0
0
0
0
0
0
0
0
0
0
0
0
0
0
0
0
0
0
0
0
0
0
0
0
0
0
0
0
0
0
0
0
0
0
0
0
0
0
0
0
0
0
0
0
0
0
0
0
0
0
0
0
0
0
0
0
0
0
0
0
0
0
0
0
0
0
0
0
0
0
0
0
0
0
0
0
0
0
0
0
0
0
0
0
0
0
0
0
0
0
0
0
0
0
0
0
0
0
0
0
0
0
0
0
0
0
0
0
0
0
0
0
0
0
0
0
0
0
0
0
0
0
0
0
0
0
0
0
0
0
0
0
0
0
0
0
0
0
0
0
0
0
0
0
0
0
0
0
0
0
0
0
0
0
0
0
0
0
0
0
0
0
0
0
0
0
0
0
0
0
0
0
0
0
0
0
0
0
0
0
0
0
0
0
0
0
0
0
0
0
0
0
0
0
0
0
0
0
0
0
0
0
0
0
0
0
0
0
0
0
0
0
0
0
0
0
0
0
0
0
0
0
0
0
0
0
0
0
0
0
0
0
0
0
0
0
0
0
0
0
0
0
0
0
0
0
0
0
0
0
0
0
0
0
0
0
0
0
0
0
0
0
0
0
0
0
0
0
0
0
0
0
0
0
0
0
0
0
0
0
0
0
0
0
0
0
0
0
0
0
0
0
0
0
0
0
0
0
0
0
0
0
0
0
0
0
0
0
0
0
0
0
0
0
0
0
0
0
0
0
0
0
0
0
0
0
SCALARS rr_protein float
LOOKUP_TABLE default
0
0
0
0
0
0
0
0
0
0
0
0
0
0
0
0
0
0
0
0
0
0
0
0
0
0
0
0
0
0
0
0
0
0
0
0
0
0
0
0
0
0
0
0
0
0
0
0
0
0
0
0
0
0
0
0
0
0
0
0
0
0
0
0
0
0
0
0
0
0
0
0
0
0
0
0
0
0
0
0
0
0
0
0
0
0
0
0
0
0
0
0
0
0
0
0
0
0
0
0
0
0
0
0
0
0
0
0
0
0
0
0
0
0
0
0
0
0
0
0
0
0
0
0
0
0
0
0
0
0
0
0
0
0
0
0
0
0
0
0
0
0
0
0
0
0
0
0
0
0
0
0
0
0
0
0
0
0
0
0
0
0
0
0
0
0
0
0
0
0
0
0
0
0
0
0
0
0
0
0
0
0
0
0
0
0
0
0
0
0
0
0
0
0
0
0
0
0
0
0
0
0
0
0
0
0
0
0
0
0
0
0
0
0
0
0
0
0
0
0
0
0
0
0
0
0
0
0
0
0
0
0
0
0
0
0
0
0
0
0
0
0
0
0
0
0
0
0
0
0
0
0
0
0
0
0
0
0
0
0
0
0
0
0
0
0
0
0
0
0
0
0
0
0
0
0
0
0
0
0
0
0
0
0
0
0
0
0
0
0
0
0
0
0
0
0
0
0
0
0
0
0
0
0
0
0
0
0
0
0
0
0
0
0
0
0
0
0
0
0
0
0
0
0
0
0
0
0
0
0
0
0
0
0
0
0
0
0
0
0
0
0
0
0
0
0
0
0
0
0
0
0
0
0
0
0
0
0
0
0
0
0
0
0
0
0
0
0
0
0
0
0
0
0
0
0
0
0
0
0
0
0
0
0
0
0
0
0
0
0
0
0
0
0
0
0
0
0
0
0
0
0
0
0
0
0
0
0
0
0
0
0
0
0
0
0
0
0
0
0
0
0
0
0
0
0
0
0
0
0
0
0
0
0
0
0
0
0
0
0
0
0
0
0
0
0
0
0
0
0
0
0
0
0
0
0
0
0
0
0
0
0
0
0
0
0
0
0
0
0
0
0
0
0
0
0
0
0
0
0
0
0
0
0
0
0
0
0
0
0
0
0
0
0
0
0
0
0
0
0
0
0
0
0
0
0
0
0
0
0
0
0
0
0
0
0
0
0
0
0
0
0
0
0
0
0
0
0
0
0
0
0
0
0
0
0
0
0
0
0
0
0
0
0
0
0
0
0
0
0
0
0
0
0
0
0
0
0
0
0
0
0
0
SCALARS rr_(S_ext) float
LOOKUP_TABLE default
0
0
0
0
0
0
0
0
0
0
0
0
0
0
0
0
0
0
0
0
0
0
0
0
0
0
0
0
0
0
0
0
0
0
0
0
0
0
0
0
0
0
0
0
0
0
0
0
0
0
0
0
0
0
0
0
0
0
0
0
0
0
0
0
0
0
0
0
0
0
0
0
0
0
0
0
0
0
0
0
0
0
0
0
0
0
0
0
0
0
0
0
0
0
0
0
0
0
0
0
0
0
0
0
0
0
0
0
0
0
0
0
0
0
0
0
0
0
0
0
0
0
0
0
0
0
0
0
0
0
0
0
0
0
0
0
0
0
0
0
0
0
0
0
0
0
0
0
0
0
0
0
0
0
0
0
0
0
0
0
0
0
0
0
0
0
0
0
0
0
0
0
0
0
0
0
0
0
0
0
0
0
0
0
0
0
0
0
0
0
0
0
0
0
0
0
0
0
0
0
0
0
0
0
0
0
0
0
0
0
0
0
0
0
0
0
0
0
0
0
0
0
0
0
0
0
0
0
0
0
0
0
0
0
0
0
0
0
0
0
0
0
0
0
0
0
0
0
0
0
0
0
0
0
0
0
0
0
0
0
0
0
0
0
0
0
0
0
0
0
0
0
0
0
0
0
0
0
0
0
0
0
0
0
0
0
0
0
0
0
0
0
0
0
0
0
0
0
0
0
0
0
0
0
0
0
0
0
0
0
0
0
0
0
0
0
0
0
0
0
0
0
0
0
0
0
0
0
0
0
0
0
0
0
0
0
0
0
0
0
0
0
0
0
0
0
0
0
0
0
0
0
0
0
0
0
0
0
0
0
0
0
0
0
0
0
0
0
0
0
0
0
0
0
0
0
0
0
0
0
0
0
0
0
0
0
0
0
0
0
0
0
0
0
0
0
0
0
0
0
0
0
0
0
0
0
0
0
0
0
0
0
0
0
0
0
0
0
0
0
0
0
0
0
0
0
0
0
0
0
0
0
0
0
0
0
0
0
0
0
0
0
0
0
0
0
0
0
0
0
0
0
0
0
0
0
0
0
0
0
0
0
0
0
0
0
0
0
0
0
0
0
0
0
0
0
0
0
0
0
0
0
0
0
0
0
0
0
0
0
0
0
0
0
0
0
0
0
0
0
0
0
0
0
0
0
0
0
0
0
0
0
0
0
0
0
0
0
0
0
0
0
0
0
0
0
0
0
0
0
0
0
0
0
0
0
0
0
0
0
0
0
0
0
0
0
0
0
0
0
0
0
0
0
0
0
0
0
0
0
0
0
0
SCALARS rr_(P_ext) float
LOOKUP_TABLE default
0
0
0
0
0
0
0
0
0
0
0
0
0
0
0
0
0
0
0
0
0
0
0
0
0
0
0
0
0
0
0
0
0
0
0
0
0
0
0
0
0
0
0
0
0
0
0
0
0
0
0
0
0
0
0
0
0
0
0
0
0
0
0
0
0
0
0
0
0
0
0
0
0
0
0
0
0
0
0
0
0
0
0
0
0
0
0
0
0
0
0
0
0
0
0
0
0
0
0
0
0
0
0
0
0
0
0
0
0
0
0
0
0
0
0
0
0
0
0
0
0
0
0
0
0
0
0
0
0
0
0
0
0
0
0
0
0
0
0
0
0
0
0
0
0
0
0
0
0
0
0
0
0
0
0
0
0
0
0
0
0
0
0
0
0
0
0
0
0
0
0
0
0
0
0
0
0
0
0
0
0
0
0
0
0
0
0
0
0
0
0
0
0
0
0
0
0
0
0
0
0
0
0
0
0
0
0
0
0
0
0
0
0
0
0
0
0
0
0
0
0
0
0
0
0
0
0
0
0
0
0
0
0
0
0
0
0
0
0
0
0
0
0
0
0
0
0
0
0
0
0
0
0
0
0
0
0
0
0
0
0
0
0
0
0
0
0
0
0
0
0
0
0
0
0
0
0
0
0
0
0
0
0
0
0
0
0
0
0
0
0
0
0
0
0
0
0
0
0
0
0
0
0
0
0
0
0
0
0
0
0
0
0
0
0
0
0
0
0
0
0
0
0
0
0
0
0
0
0
0
0
0
0
0
0
0
0
0
0
0
0
0
0
0
0
0
0
0
0
0
0
0
0
0
0
0
0
0
0
0
0
0
0
0
0
0
0
0
0
0
0
0
0
0
0
0
0
0
0
0
0
0
0
0
0
0
0
0
0
0
0
0
0
0
0
0
0
0
0
0
0
0
0
0
0
0
0
0
0
0
0
0
0
0
0
0
0
0
0
0
0
0
0
0
0
0
0
0
0
0
0
0
0
0
0
0
0
0
0
0
0
0
0
0
0
0
0
0
0
0
0
0
0
0
0
0
0
0
0
0
0
0
0
0
0
0
0
0
0
0
0
0
0
0
0
0
0
0
0
0
0
0
0
0
0
0
0
0
0
0
0
0
0
0
0
0
0
0
0
0
0
0
0
0
0
0
0
0
0
0
0
0
0
0
0
0
0
0
0
0
0
0
0
0
0
0
0
0
0
0
0
0
0
0
0
0
0
0
0
0
0
0
0
0
0
0
0
0
0
0
0
0
0
0
0
0
0
0
0
0
0
0
0
SCALARS rr_(S) float
LOOKUP_TABLE default
0
0
0
0
0
0
0
0
0
0
0
0
0
0
0
0
0
0
0
0
0
0
0
0
0
0
0
0
0
0
0
0
0
0
0
0
0
0
0
0
0
0
0
0
0
0
0
0
0
0
0
0
0
0
0
0
0
0
0
0
0
0
0
0
0
0
0
0
0
0
0
0
0
0
0
0
0
0
0
0
0
0
0
0
0
0
0
0
0
0
0
0
0
0
0
0
0
0
0
0
0
0
0
0
0
0
0
0
0
0
0
0
0
0
0
0
0
0
0
0
0
0
0
0
0
0
0
0
0
0
0
0
0
0
0
0
0
0
0
0
0
0
0
0
0
0
0
0
0
0
0
0
0
0
0
0
0
0
0
0
0
0
0
0
0
0
0
0
0
0
0
0
0
0
0
0
0
0
0
0
0
0
0
0
0
0
0
0
0
0
0
0
0
0
0
0
0
0
0
0
0
0
0
0
0
0
0
0
0
0
0
0
0
0
0
0
0
0
0
0
0
0
0
0
0
0
0
0
0
0
0
0
0
0
0
0
0
0
0
0
0
0
0
0
0
0
0
0
0
0
0
0
0
0
0
0
0
0
0
0
0
0
0
0
0
0
0
0
0
0
0
0
0
0
0
0
0
0
0
0
0
0
0
0
0
0
0
0
0
0
0
0
0
0
0
0
0
0
0
0
0
0
0
0
0
0
0
0
0
0
0
0
0
0
0
0
0
0
0
0
0
0
0
0
0
0
0
0
0
0
0
0
0
0
0
0
0
0
0
0
0
0
0
0
0
0
0
0
0
0
0
0
0
0
0
0
0
0
0
0
0
0
0
0
0
0
0
0
0
0
0
0
0
0
0
0
0
0
0
0
0
0
0
0
0
0
0
0
0
0
0
0
0
0
0
0
0
0
0
0
0
0
0
0
0
0
0
0
0
0
0
0
0
0
0
0
0
0
0
0
0
0
0
0
0
0
0
0
0
0
0
0
0
0
0
0
0
0
0
0
0
0
0
0
0
0
0
0
0
0
0
0
0
0
0
0
0
0
0
0
0
0
0
0
0
0
0
0
0
0
0
0
0
0
0
0
0
0
0
0
0
0
0
0
0
0
0
0
0
0
0
0
0
0
0
0
0
0
0
0
0
0
0
0
0
0
0
0
0
0
0
0
0
0
0
0
0
0
0
0
0
0
0
0
0
0
0
0
0
0
0
0
0
0
0
0
0
0
0
0
0
0
0
0
0
0
0
0
0
0
0
0
0
0
0
0
0
0
0
0
0
0
0
SCALARS rr_(P) float
LOOKUP_TABLE default
0
0
0
0
0
0
0
0
0
0
0
0
0
0
0
0
0
0
0
0
0
0
0
0
0
0
0
0
0
0
0
0
0
0
0
0
0
0
0
0
0
0
0
0
0
0
0
0
0
0
0
0
0
0
0
0
0
0
0
0
0
0
0
0
0
0
0
0
0
0
0
0
0
0
0
0
0
0
0
0
0
0
0
0
0
0
0
0
0
0
0
0
0
0
0
0
0
0
0
0
0
0
0
0
0
0
0
0
0
0
0
0
0
0
0
0
0
0
0
0
0
0
0
0
0
0
0
0
0
0
0
0
0
0
0
0
0
0
0
0
0
0
0
0
0
0
0
0
0
0
0
0
0
0
0
0
0
0
0
0
0
0
0
0
0
0
0
0
0
0
0
0
0
0
0
0
0
0
0
0
0
0
0
0
0
0
0
0
0
0
0
0
0
0
0
0
0
0
0
0
0
0
0
0
0
0
0
0
0
0
0
0
0
0
0
0
0
0
0
0
0
0
0
0
0
0
0
0
0
0
0
0
0
0
0
0
0
0
0
0
0
0
0
0
0
0
0
0
0
0
0
0
0
0
0
0
0
0
0
0
0
0
0
0
0
0
0
0
0
0
0
0
0
0
0
0
0
0
0
0
0
0
0
0
0
0
0
0
0
0
0
0
0
0
0
0
0
0
0
0
0
0
0
0
0
0
0
0
0
0
0
0
0
0
0
0
0
0
0
0
0
0
0
0
0
0
0
0
0
0
0
0
0
0
0
0
0
0
0
0
0
0
0
0
0
0
0
0
0
0
0
0
0
0
0
0
0
0
0
0
0
0
0
0
0
0
0
0
0
0
0
0
0
0
0
0
0
0
0
0
0
0
0
0
0
0
0
0
0
0
0
0
0
0
0
0
0
0
0
0
0
0
0
0
0
0
0
0
0
0
0
0
0
0
0
0
0
0
0
0
0
0
0
0
0
0
0
0
0
0
0
0
0
0
0
0
0
0
0
0
0
0
0
0
0
0
0
0
0
0
0
0
0
0
0
0
0
0
0
0
0
0
0
0
0
0
0
0
0
0
0
0
0
0
0
0
0
0
0
0
0
0
0
0
0
0
0
0
0
0
0
0
0
0
0
0
0
0
0
0
0
0
0
0
0
0
0
0
0
0
0
0
0
0
0
0
0
0
0
0
0
0
0
0
0
0
0
0
0
0
0
0
0
0
0
0
0
0
0
0
0
0
0
0
0
0
0
0
0
0
0
0
0
0
0
0
0
0
0
0
0
0
0
SCALARS rr_(T) float
LOOKUP_TABLE default
0
0
0
0
0
0
0
0
0
0
0
0
0
0
0
0
0
0
0
0
0
0
0
0
0
0
0
0
0
0
0
0
0
0
0
0
0
0
0
0
0
0
0
0
0
0
0
0
0
0
0
0
0
0
0
0
0
0
0
0
0
0
0
0
0
0
0
0
0
0
0
0
0
0
0
0
0
0
0
0
0
0
0
0
0
0
0
0
0
0
0
0
0
0
0
0
0
0
0
0
0
0
0
0
0
0
0
0
0
0
0
0
0
0
0
0
0
0
0
0
0
0
0
0
0
0
0
0
0
0
0
0
0
0
0
0
0
0
0
0
0
0
0
0
0
0
0
0
0
0
0
0
0
0
0
0
0
0
0
0
0
0
0
0
0
0
0
0
0
0
0
0
0
0
0
0
0
0
0
0
0
0
0
0
0
0
0
0
0
0
0
0
0
0
0
0
0
0
0
0
0
0
0
0
0
0
0
0
0
0
0
0
0
0
0
0
0
0
0
0
0
0
0
0
0
0
0
0
0
0
0
0
0
0
0
0
0
0
0
0
0
0
0
0
0
0
0
0
0
0
0
0
0
0
0
0
0
0
0
0
0
0
0
0
0
0
0
0
0
0
0
0
0
0
0
0
0
0
0
0
0
0
0
0
0
0
0
0
0
0
0
0
0
0
0
0
0
0
0
0
0
0
0
0
0
0
0
0
0
0
0
0
0
0
0
0
0
0
0
0
0
0
0
0
0
0
0
0
0
0
0
0
0
0
0
0
0
0
0
0
0
0
0
0
0
0
0
0
0
0
0
0
0
0
0
0
0
0
0
0
0
0
0
0
0
0
0
0
0
0
0
0
0
0
0
0
0
0
0
0
0
0
0
0
0
0
0
0
0
0
0
0
0
0
0
0
0
0
0
0
0
0
0
0
0
0
0
0
0
0
0
0
0
0
0
0
0
0
0
0
0
0
0
0
0
0
0
0
0
0
0
0
0
0
0
0
0
0
0
0
0
0
0
0
0
0
0
0
0
0
0
0
0
0
0
0
0
0
0
0
0
0
0
0
0
0
0
0
0
0
0
0
0
0
0
0
0
0
0
0
0
0
0
0
0
0
0
0
0
0
0
0
0
0
0
0
0
0
0
0
0
0
0
0
0
0
0
0
0
0
0
0
0
0
0
0
0
0
0
0
0
0
0
0
0
0
0
0
0
0
0
0
0
0
0
0
0
0
0
0
0
0
0
0
0
0
0
0
0
0
0
0
0
0
0
0
0
0
0
0
0
0
0
SCALARS rr_tsim float
LOOKUP_TABLE default
0
0
0
0
0
0
0
0
0
0
0
0
0
0
0
0
0
0
0
0
0
0
0
0
0
0
0
0
0
0
0
0
0
0
0
0
0
0
0
0
0
0
0
0
0
0
0
0
0
0
0
0
0
0
0
0
0
0
0
0
0
0
0
0
0
0
0
0
0
0
0
0
0
0
0
0
0
0
0
0
0
0
0
0
0
0
0
0
0
0
0
0
0
0
0
0
0
0
0
0
0
0
0
0
0
0
0
0
0
0
0
0
0
0
0
0
0
0
0
0
0
0
0
0
0
0
0
0
0
0
0
0
0
0
0
0
0
0
0
0
0
0
0
0
0
0
0
0
0
0
0
0
0
0
0
0
0
0
0
0
0
0
0
0
0
0
0
0
0
0
0
0
0
0
0
0
0
0
0
0
0
0
0
0
0
0
0
0
0
0
0
0
0
0
0
0
0
0
0
0
0
0
0
0
0
0
0
0
0
0
0
0
0
0
0
0
0
0
0
0
0
0
0
0
0
0
0
0
0
0
0
0
0
0
0
0
0
0
0
0
0
0
0
0
0
0
0
0
0
0
0
0
0
0
0
0
0
0
0
0
0
0
0
0
0
0
0
0
0
0
0
0
0
0
0
0
0
0
0
0
0
0
0
0
0
0
0
0
0
0
0
0
0
0
0
0
0
0
0
0
0
0
0
0
0
0
0
0
0
0
0
0
0
0
0
0
0
0
0
0
0
0
0
0
0
0
0
0
0
0
0
0
0
0
0
0
0
0
0
0
0
0
0
0
0
0
0
0
0
0
0
0
0
0
0
0
0
0
0
0
0
0
0
0
0
0
0
0
0
0
0
0
0
0
0
0
0
0
0
0
0
0
0
0
0
0
0
0
0
0
0
0
0
0
0
0
0
0
0
0
0
0
0
0
0
0
0
0
0
0
0
0
0
0
0
0
0
0
0
0
0
0
0
0
0
0
0
0
0
0
0
0
0
0
0
0
0
0
0
0
0
0
0
0
0
0
0
0
0
0
0
0
0
0
0
0
0
0
0
0
0
0
0
0
0
0
0
0
0
0
0
0
0
0
0
0
0
0
0
0
0
0
0
0
0
0
0
0
0
0
0
0
0
0
0
0
0
0
0
0
0
0
0
0
0
0
0
0
0
0
0
0
0
0
0
0
0
0
0
0
0
0
0
0
0
0
0
0
0
0
0
0
0
0
0
0
0
0
0
0
0
0
0
0
0
0
0
0
0
0
0
0
0
0
0
0
0
0
0
0
0
0
0
SCALARS rr_Vext float
LOOKUP_TABLE default
0
0
0
0
0
0
0
0
0
0
0
0
0
0
0
0
0
0
0
0
0
0
0
0
0
0
0
0
0
0
0
0
0
0
0
0
0
0
0
0
0
0
0
0
0
0
0
0
0
0
0
0
0
0
0
0
0
0
0
0
0
0
0
0
0
0
0
0
0
0
0
0
0
0
0
0
0
0
0
0
0
0
0
0
0
0
0
0
0
0
0
0
0
0
0
0
0
0
0
0
0
0
0
0
0
0
0
0
0
0
0
0
0
0
0
0
0
0
0
0
0
0
0
0
0
0
0
0
0
0
0
0
0
0
0
0
0
0
0
0
0
0
0
0
0
0
0
0
0
0
0
0
0
0
0
0
0
0
0
0
0
0
0
0
0
0
0
0
0
0
0
0
0
0
0
0
0
0
0
0
0
0
0
0
0
0
0
0
0
0
0
0
0
0
0
0
0
0
0
0
0
0
0
0
0
0
0
0
0
0
0
0
0
0
0
0
0
0
0
0
0
0
0
0
0
0
0
0
0
0
0
0
0
0
0
0
0
0
0
0
0
0
0
0
0
0
0
0
0
0
0
0
0
0
0
0
0
0
0
0
0
0
0
0
0
0
0
0
0
0
0
0
0
0
0
0
0
0
0
0
0
0
0
0
0
0
0
0
0
0
0
0
0
0
0
0
0
0
0
0
0
0
0
0
0
0
0
0
0
0
0
0
0
0
0
0
0
0
0
0
0
0
0
0
0
0
0
0
0
0
0
0
0
0
0
0
0
0
0
0
0
0
0
0
0
0
0
0
0
0
0
0
0
0
0
0
0
0
0
0
0
0
0
0
0
0
0
0
0
0
0
0
0
0
0
0
0
0
0
0
0
0
0
0
0
0
0
0
0
0
0
0
0
0
0
0
0
0
0
0
0
0
0
0
0
0
0
0
0
0
0
0
0
0
0
0
0
0
0
0
0
0
0
0
0
0
0
0
0
0
0
0
0
0
0
0
0
0
0
0
0
0
0
0
0
0
0
0
0
0
0
0
0
0
0
0
0
0
0
0
0
0
0
0
0
0
0
0
0
0
0
0
0
0
0
0
0
0
0
0
0
0
0
0
0
0
0
0
0
0
0
0
0
0
0
0
0
0
0
0
0
0
0
0
0
0
0
0
0
0
0
0
0
0
0
0
0
0
0
0
0
0
0
0
0
0
0
0
0
0
0
0
0
0
0
0
0
0
0
0
0
0
0
0
0
0
0
0
0
0
0
0
0
0
0
0
0
0
0
0
0
0
0
SCALARS rr_Vli float
LOOKUP_TABLE default
0
0
0
0
0
0
0
0
0
0
0
0
0
0
0
0
0
0
0
0
0
0
0
0
0
0
0
0
0
0
0
0
0
0
0
0
0
0
0
0
0
0
0
0
0
0
0
0
0
0
0
0
0
0
0
0
0
0
0
0
0
0
0
0
0
0
0
0
0
0
0
0
0
0
0
0
0
0
0
0
0
0
0
0
0
0
0
0
0
0
0
0
0
0
0
0
0
0
0
0
0
0
0
0
0
0
0
0
0
0
0
0
0
0
0
0
0
0
0
0
0
0
0
0
0
0
0
0
0
0
0
0
0
0
0
0
0
0
0
0
0
0
0
0
0
0
0
0
0
0
0
0
0
0
0
0
0
0
0
0
0
0
0
0
0
0
0
0
0
0
0
0
0
0
0
0
0
0
0
0
0
0
0
0
0
0
0
0
0
0
0
0
0
0
0
0
0
0
0
0
0
0
0
0
0
0
0
0
0
0
0
0
0
0
0
0
0
0
0
0
0
0
0
0
0
0
0
0
0
0
0
0
0
0
0
0
0
0
0
0
0
0
0
0
0
0
0
0
0
0
0
0
0
0
0
0
0
0
0
0
0
0
0
0
0
0
0
0
0
0
0
0
0
0
0
0
0
0
0
0
0
0
0
0
0
0
0
0
0
0
0
0
0
0
0
0
0
0
0
0
0
0
0
0
0
0
0
0
0
0
0
0
0
0
0
0
0
0
0
0
0
0
0
0
0
0
0
0
0
0
0
0
0
0
0
0
0
0
0
0
0
0
0
0
0
0
0
0
0
0
0
0
0
0
0
0
0
0
0
0
0
0
0
0
0
0
0
0
0
0
0
0
0
0
0
0
0
0
0
0
0
0
0
0
0
0
0
0
0
0
0
0
0
0
0
0
0
0
0
0
0
0
0
0
0
0
0
0
0
0
0
0
0
0
0
0
0
0
0
0
0
0
0
0
0
0
0
0
0
0
0
0
0
0
0
0
0
0
0
0
0
0
0
0
0
0
0
0
0
0
0
0
0
0
0
0
0
0
0
0
0
0
0
0
0
0
0
0
0
0
0
0
0
0
0
0
0
0
0
0
0
0
0
0
0
0
0
0
0
0
0
0
0
0
0
0
0
0
0
0
0
0
0
0
0
0
0
0
0
0
0
0
0
0
0
0
0
0
0
0
0
0
0
0
0
0
0
0
0
0
0
0
0
0
0
0
0
0
0
0
0
0
0
0
0
0
0
0
0
0
0
0
0
0
0
0
0
0
0
0
0
0
0
SCALARS rr_S_ext' float
LOOKUP_TABLE default
0
0
0
0
0
0
0
0
0
0
0
0
0
0
0
0
0
0
0
0
0
0
0
0
0
0
0
0
0
0
0
0
0
0
0
0
0
0
0
0
0
0
0
0
0
0
0
0
0
0
0
0
0
0
0
0
0
0
0
0
0
0
0
0
0
0
0
0
0
0
0
0
0
0
0
0
0
0
0
0
0
0
0
0
0
0
0
0
0
0
0
0
0
0
0
0
0
0
0
0
0
0
0
0
0
0
0
0
0
0
0
0
0
0
0
0
0
0
0
0
0
0
0
0
0
0
0
0
0
0
0
0
0
0
0
0
0
0
0
0
0
0
0
0
0
0
0
0
0
0
0
0
0
0
0
0
0
0
0
0
0
0
0
0
0
0
0
0
0
0
0
0
0
0
0
0
0
0
0
0
0
0
0
0
0
0
0
0
0
0
0
0
0
0
0
0
0
0
0
0
0
0
0
0
0
0
0
0
0
0
0
0
0
0
0
0
0
0
0
0
0
0
0
0
0
0
0
0
0
0
0
0
0
0
0
0
0
0
0
0
0
0
0
0
0
0
0
0
0
0
0
0
0
0
0
0
0
0
0
0
0
0
0
0
0
0
0
0
0
0
0
0
0
0
0
0
0
0
0
0
0
0
0
0
0
0
0
0
0
0
0
0
0
0
0
0
0
0
0
0
0
0
0
0
0
0
0
0
0
0
0
0
0
0
0
0
0
0
0
0
0
0
0
0
0
0
0
0
0
0
0
0
0
0
0
0
0
0
0
0
0
0
0
0
0
0
0
0
0
0
0
0
0
0
0
0
0
0
0
0
0
0
0
0
0
0
0
0
0
0
0
0
0
0
0
0
0
0
0
0
0
0
0
0
0
0
0
0
0
0
0
0
0
0
0
0
0
0
0
0
0
0
0
0
0
0
0
0
0
0
0
0
0
0
0
0
0
0
0
0
0
0
0
0
0
0
0
0
0
0
0
0
0
0
0
0
0
0
0
0
0
0
0
0
0
0
0
0
0
0
0
0
0
0
0
0
0
0
0
0
0
0
0
0
0
0
0
0
0
0
0
0
0
0
0
0
0
0
0
0
0
0
0
0
0
0
0
0
0
0
0
0
0
0
0
0
0
0
0
0
0
0
0
0
0
0
0
0
0
0
0
0
0
0
0
0
0
0
0
0
0
0
0
0
0
0
0
0
0
0
0
0
0
0
0
0
0
0
0
0
0
0
0
0
0
0
0
0
0
0
0
0
0
0
0
0
0
0
0
0
0
0
0
SCALARS rr_P_ext' float
LOOKUP_TABLE default
0
0
0
0
0
0
0
0
0
0
0
0
0
0
0
0
0
0
0
0
0
0
0
0
0
0
0
0
0
0
0
0
0
0
0
0
0
0
0
0
0
0
0
0
0
0
0
0
0
0
0
0
0
0
0
0
0
0
0
0
0
0
0
0
0
0
0
0
0
0
0
0
0
0
0
0
0
0
0
0
0
0
0
0
0
0
0
0
0
0
0
0
0
0
0
0
0
0
0
0
0
0
0
0
0
0
0
0
0
0
0
0
0
0
0
0
0
0
0
0
0
0
0
0
0
0
0
0
0
0
0
0
0
0
0
0
0
0
0
0
0
0
0
0
0
0
0
0
0
0
0
0
0
0
0
0
0
0
0
0
0
0
0
0
0
0
0
0
0
0
0
0
0
0
0
0
0
0
0
0
0
0
0
0
0
0
0
0
0
0
0
0
0
0
0
0
0
0
0
0
0
0
0
0
0
0
0
0
0
0
0
0
0
0
0
0
0
0
0
0
0
0
0
0
0
0
0
0
0
0
0
0
0
0
0
0
0
0
0
0
0
0
0
0
0
0
0
0
0
0
0
0
0
0
0
0
0
0
0
0
0
0
0
0
0
0
0
0
0
0
0
0
0
0
0
0
0
0
0
0
0
0
0
0
0
0
0
0
0
0
0
0
0
0
0
0
0
0
0
0
0
0
0
0
0
0
0
0
0
0
0
0
0
0
0
0
0
0
0
0
0
0
0
0
0
0
0
0
0
0
0
0
0
0
0
0
0
0
0
0
0
0
0
0
0
0
0
0
0
0
0
0
0
0
0
0
0
0
0
0
0
0
0
0
0
0
0
0
0
0
0
0
0
0
0
0
0
0
0
0
0
0
0
0
0
0
0
0
0
0
0
0
0
0
0
0
0
0
0
0
0
0
0
0
0
0
0
0
0
0
0
0
0
0
0
0
0
0
0
0
0
0
0
0
0
0
0
0
0
0
0
0
0
0
0
0
0
0
0
0
0
0
0
0
0
0
0
0
0
0
0
0
0
0
0
0
0
0
0
0
0
0
0
0
0
0
0
0
0
0
0
0
0
0
0
0
0
0
0
0
0
0
0
0
0
0
0
0
0
0
0
0
0
0
0
0
0
0
0
0
0
0
0
0
0
0
0
0
0
0
0
0
0
0
0
0
0
0
0
0
0
0
0
0
0
0
0
0
0
0
0
0
0
0
0
0
0
0
0
0
0
0
0
0
0
0
0
0
0
0
0
0
0
0
0
0
0
0
0
0
0
0
0
SCALARS rr_S' float
LOOKUP_TABLE default
0
0
0
0
0
0
0
0
0
0
0
0
0
0
0
0
0
0
0
0
0
0
0
0
0
0
0
0
0
0
0
0
0
0
0
0
0
0
0
0
0
0
0
0
0
0
0
0
0
0
0
0
0
0
0
0
0
0
0
0
0
0
0
0
0
0
0
0
0
0
0
0
0
0
0
0
0
0
0
0
0
0
0
0
0
0
0
0
0
0
0
0
0
0
0
0
0
0
0
0
0
0
0
0
0
0
0
0
0
0
0
0
0
0
0
0
0
0
0
0
0
0
0
0
0
0
0
0
0
0
0
0
0
0
0
0
0
0
0
0
0
0
0
0
0
0
0
0
0
0
0
0
0
0
0
0
0
0
0
0
0
0
0
0
0
0
0
0
0
0
0
0
0
0
0
0
0
0
0
0
0
0
0
0
0
0
0
0
0
0
0
0
0
0
0
0
0
0
0
0
0
0
0
0
0
0
0
0
0
0
0
0
0
0
0
0
0
0
0
0
0
0
0
0
0
0
0
0
0
0
0
0
0
0
0
0
0
0
0
0
0
0
0
0
0
0
0
0
0
0
0
0
0
0
0
0
0
0
0
0
0
0
0
0
0
0
0
0
0
0
0
0
0
0
0
0
0
0
0
0
0
0
0
0
0
0
0
0
0
0
0
0
0
0
0
0
0
0
0
0
0
0
0
0
0
0
0
0
0
0
0
0
0
0
0
0
0
0
0
0
0
0
0
0
0
0
0
0
0
0
0
0
0
0
0
0
0
0
0
0
0
0
0
0
0
0
0
0
0
0
0
0
0
0
0
0
0
0
0
0
0
0
0
0
0
0
0
0
0
0
0
0
0
0
0
0
0
0
0
0
0
0
0
0
0
0
0
0
0
0
0
0
0
0
0
0
0
0
0
0
0
0
0
0
0
0
0
0
0
0
0
0
0
0
0
0
0
0
0
0
0
0
0
0
0
0
0
0
0
0
0
0
0
0
0
0
0
0
0
0
0
0
0
0
0
0
0
0
0
0
0
0
0
0
0
0
0
0
0
0
0
0
0
0
0
0
0
0
0
0
0
0
0
0
0
0
0
0
0
0
0
0
0
0
0
0
0
0
0
0
0
0
0
0
0
0
0
0
0
0
0
0
0
0
0
0
0
0
0
0
0
0
0
0
0
0
0
0
0
0
0
0
0
0
0
0
0
0
0
0
0
0
0
0
0
0
0
0
0
0
0
0
0
0
0
0
0
0
0
0
0
0
0
0
0
0
0
0
0
0
0
0
0
SCALARS rr_P' float
LOOKUP_TABLE default
0
0
0
0
0
0
0
0
0
0
0
0
0
0
0
0
0
0
0
0
0
0
0
0
0
0
0
0
0
0
0
0
0
0
0
0
0
0
0
0
0
0
0
0
0
0
0
0
0
0
0
0
0
0
0
0
0
0
0
0
0
0
0
0
0
0
0
0
0
0
0
0
0
0
0
0
0
0
0
0
0
0
0
0
0
0
0
0
0
0
0
0
0
0
0
0
0
0
0
0
0
0
0
0
0
0
0
0
0
0
0
0
0
0
0
0
0
0
0
0
0
0
0
0
0
0
0
0
0
0
0
0
0
0
0
0
0
0
0
0
0
0
0
0
0
0
0
0
0
0
0
0
0
0
0
0
0
0
0
0
0
0
0
0
0
0
0
0
0
0
0
0
0
0
0
0
0
0
0
0
0
0
0
0
0
0
0
0
0
0
0
0
0
0
0
0
0
0
0
0
0
0
0
0
0
0
0
0
0
0
0
0
0
0
0
0
0
0
0
0
0
0
0
0
0
0
0
0
0
0
0
0
0
0
0
0
0
0
0
0
0
0
0
0
0
0
0
0
0
0
0
0
0
0
0
0
0
0
0
0
0
0
0
0
0
0
0
0
0
0
0
0
0
0
0
0
0
0
0
0
0
0
0
0
0
0
0
0
0
0
0
0
0
0
0
0
0
0
0
0
0
0
0
0
0
0
0
0
0
0
0
0
0
0
0
0
0
0
0
0
0
0
0
0
0
0
0
0
0
0
0
0
0
0
0
0
0
0
0
0
0
0
0
0
0
0
0
0
0
0
0
0
0
0
0
0
0
0
0
0
0
0
0
0
0
0
0
0
0
0
0
0
0
0
0
0
0
0
0
0
0
0
0
0
0
0
0
0
0
0
0
0
0
0
0
0
0
0
0
0
0
0
0
0
0
0
0
0
0
0
0
0
0
0
0
0
0
0
0
0
0
0
0
0
0
0
0
0
0
0
0
0
0
0
0
0
0
0
0
0
0
0
0
0
0
0
0
0
0
0
0
0
0
0
0
0
0
0
0
0
0
0
0
0
0
0
0
0
0
0
0
0
0
0
0
0
0
0
0
0
0
0
0
0
0
0
0
0
0
0
0
0
0
0
0
0
0
0
0
0
0
0
0
0
0
0
0
0
0
0
0
0
0
0
0
0
0
0
0
0
0
0
0
0
0
0
0
0
0
0
0
0
0
0
0
0
0
0
0
0
0
0
0
0
0
0
0
0
0
0
0
0
0
0
0
0
0
0
0
0
0
0
0
SCALARS rr_T' float
LOOKUP_TABLE default
0
0
0
0
0
0
0
0
0
0
0
0
0
0
0
0
0
0
0
0
0
0
0
0
0
0
0
0
0
0
0
0
0
0
0
0
0
0
0
0
0
0
0
0
0
0
0
0
0
0
0
0
0
0
0
0
0
0
0
0
0
0
0
0
0
0
0
0
0
0
0
0
0
0
0
0
0
0
0
0
0
0
0
0
0
0
0
0
0
0
0
0
0
0
0
0
0
0
0
0
0
0
0
0
0
0
0
0
0
0
0
0
0
0
0
0
0
0
0
0
0
0
0
0
0
0
0
0
0
0
0
0
0
0
0
0
0
0
0
0
0
0
0
0
0
0
0
0
0
0
0
0
0
0
0
0
0
0
0
0
0
0
0
0
0
0
0
0
0
0
0
0
0
0
0
0
0
0
0
0
0
0
0
0
0
0
0
0
0
0
0
0
0
0
0
0
0
0
0
0
0
0
0
0
0
0
0
0
0
0
0
0
0
0
0
0
0
0
0
0
0
0
0
0
0
0
0
0
0
0
0
0
0
0
0
0
0
0
0
0
0
0
0
0
0
0
0
0
0
0
0
0
0
0
0
0
0
0
0
0
0
0
0
0
0
0
0
0
0
0
0
0
0
0
0
0
0
0
0
0
0
0
0
0
0
0
0
0
0
0
0
0
0
0
0
0
0
0
0
0
0
0
0
0
0
0
0
0
0
0
0
0
0
0
0
0
0
0
0
0
0
0
0
0
0
0
0
0
0
0
0
0
0
0
0
0
0
0
0
0
0
0
0
0
0
0
0
0
0
0
0
0
0
0
0
0
0
0
0
0
0
0
0
0
0
0
0
0
0
0
0
0
0
0
0
0
0
0
0
0
0
0
0
0
0
0
0
0
0
0
0
0
0
0
0
0
0
0
0
0
0
0
0
0
0
0
0
0
0
0
0
0
0
0
0
0
0
0
0
0
0
0
0
0
0
0
0
0
0
0
0
0
0
0
0
0
0
0
0
0
0
0
0
0
0
0
0
0
0
0
0
0
0
0
0
0
0
0
0
0
0
0
0
0
0
0
0
0
0
0
0
0
0
0
0
0
0
0
0
0
0
0
0
0
0
0
0
0
0
0
0
0
0
0
0
0
0
0
0
0
0
0
0
0
0
0
0
0
0
0
0
0
0
0
0
0
0
0
0
0
0
0
0
0
0
0
0
0
0
0
0
0
0
0
0
0
0
0
0
0
0
0
0
0
0
0
0
0
0
0
0
0
0
0
0
0
0
0
0
0
0
0
0
SCALARS rr_uec(SIM,_S_ext) float
LOOKUP_TABLE default
0
0
0
0
0
0
0
0
0
0
0
0
0
0
0
0
0
0
0
0
0
0
0
0
0
0
0
0
0
0
0
0
0
0
0
0
0
0
0
0
0
0
0
0
0
0
0
0
0
0
0
0
0
0
0
0
0
0
0
0
0
0
0
0
0
0
0
0
0
0
0
0
0
0
0
0
0
0
0
0
0
0
0
0
0
0
0
0
0
0
0
0
0
0
0
0
0
0
0
0
0
0
0
0
0
0
0
0
0
0
0
0
0
0
0
0
0
0
0
0
0
0
0
0
0
0
0
0
0
0
0
0
0
0
0
0
0
0
0
0
0
0
0
0
0
0
0
0
0
0
0
0
0
0
0
0
0
0
0
0
0
0
0
0
0
0
0
0
0
0
0
0
0
0
0
0
0
0
0
0
0
0
0
0
0
0
0
0
0
0
0
0
0
0
0
0
0
0
0
0
0
0
0
0
0
0
0
0
0
0
0
0
0
0
0
0
0
0
0
0
0
0
0
0
0
0
0
0
0
0
0
0
0
0
0
0
0
0
0
0
0
0
0
0
0
0
0
0
0
0
0
0
0
0
0
0
0
0
0
0
0
0
0
0
0
0
0
0
0
0
0
0
0
0
0
0
0
0
0
0
0
0
0
0
0
0
0
0
0
0
0
0
0
0
0
0
0
0
0
0
0
0
0
0
0
0
0
0
0
0
0
0
0
0
0
0
0
0
0
0
0
0
0
0
0
0
0
0
0
0
0
0
0
0
0
0
0
0
0
0
0
0
0
0
0
0
0
0
0
0
0
0
0
0
0
0
0
0
0
0
0
0
0
0
0
0
0
0
0
0
0
0
0
0
0
0
0
0
0
0
0
0
0
0
0
0
0
0
0
0
0
0
0
0
0
0
0
0
0
0
0
0
0
0
0
0
0
0
0
0
0
0
0
0
0
0
0
0
0
0
0
0
0
0
0
0
0
0
0
0
0
0
0
0
0
0
0
0
0
0
0
0
0
0
0
0
0
0
0
0
0
0
0
0
0
0
0
0
0
0
0
0
0
0
0
0
0
0
0
0
0
0
0
0
0
0
0
0
0
0
0
0
0
0
0
0
0
0
0
0
0
0
0
0
0
0
0
0
0
0
0
0
0
0
0
0
0
0
0
0
0
0
0
0
0
0
0
0
0
0
0
0
0
0
0
0
0
0
0
0
0
0
0
0
0
0
0
0
0
0
0
0
0
0
0
0
0
0
0
0
0
0
0
0
0
0
0
0
0
0
0
0
0
SCALARS rr_uec(PEX,_P_ext) float
LOOKUP_TABLE default
0
0
0
0
0
0
0
0
0
0
0
0
0
0
0
0
0
0
0
0
0
0
0
0
0
0
0
0
0
0
0
0
0
0
0
0
0
0
0
0
0
0
0
0
0
0
0
0
0
0
0
0
0
0
0
0
0
0
0
0
0
0
0
0
0
0
0
0
0
0
0
0
0
0
0
0
0
0
0
0
0
0
0
0
0
0
0
0
0
0
0
0
0
0
0
0
0
0
0
0
0
0
0
0
0
0
0
0
0
0
0
0
0
0
0
0
0
0
0
0
0
0
0
0
0
0
0
0
0
0
0
0
0
0
0
0
0
0
0
0
0
0
0
0
0
0
0
0
0
0
0
0
0
0
0
0
0
0
0
0
0
0
0
0
0
0
0
0
0
0
0
0
0
0
0
0
0
0
0
0
0
0
0
0
0
0
0
0
0
0
0
0
0
0
0
0
0
0
0
0
0
0
0
0
0
0
0
0
0
0
0
0
0
0
0
0
0
0
0
0
0
0
0
0
0
0
0
0
0
0
0
0
0
0
0
0
0
0
0
0
0
0
0
0
0
0
0
0
0
0
0
0
0
0
0
0
0
0
0
0
0
0
0
0
0
0
0
0
0
0
0
0
0
0
0
0
0
0
0
0
0
0
0
0
0
0
0
0
0
0
0
0
0
0
0
0
0
0
0
0
0
0
0
0
0
0
0
0
0
0
0
0
0
0
0
0
0
0
0
0
0
0
0
0
0
0
0
0
0
0
0
0
0
0
0
0
0
0
0
0
0
0
0
0
0
0
0
0
0
0
0
0
0
0
0
0
0
0
0
0
0
0
0
0
0
0
0
0
0
0
0
0
0
0
0
0
0
0
0
0
0
0
0
0
0
0
0
0
0
0
0
0
0
0
0
0
0
0
0
0
0
0
0
0
0
0
0
0
0
0
0
0
0
0
0
0
0
0
0
0
0
0
0
0
0
0
0
0
0
0
0
0
0
0
0
0
0
0
0
0
0
0
0
0
0
0
0
0
0
0
0
0
0
0
0
0
0
0
0
0
0
0
0
0
0
0
0
0
0
0
0
0
0
0
0
0
0
0
0
0
0
0
0
0
0
0
0
0
0
0
0
0
0
0
0
0
0
0
0
0
0
0
0
0
0
0
0
0
0
0
0
0
0
0
0
0
0
0
0
0
0
0
0
0
0
0
0
0
0
0
0
0
0
0
0
0
0
0
0
0
0
0
0
0
0
0
0
0
0
0
0
0
0
0
0
0
0
0
0
0
0
0
0
SCALARS cell_type float
LOOKUP_TABLE default
0
0
0
0
0
0
0
0
0
0
0
0
0
0
0
0
0
0
0
0
0
1
0
0
0
0
0
0
0
0
0
0
0
0
0
0
0
0
0
0
0
0
0
0
0
0
0
0
0
0
0
0
0
0
0
0
0
0
0
0
0
0
0
0
0
0
0
0
0
0
0
0
0
0
0
0
0
0
0
0
0
0
0
0
0
0
0
0
0
0
0
0
0
0
0
0
0
0
0
0
0
0
0
0
0
0
0
0
0
0
0
0
0
0
0
0
0
0
0
0
0
0
0
0
0
0
0
0
0
0
0
0
0
0
0
0
0
0
0
0
0
0
0
0
0
0
0
0
0
0
0
0
0
0
0
0
0
0
0
0
0
0
0
0
0
0
0
0
0
0
0
0
0
0
0
0
0
0
0
0
0
0
0
0
0
0
0
0
0
0
0
0
0
0
0
0
0
0
0
0
0
0
0
0
0
0
0
0
0
0
0
0
0
0
0
0
0
0
0
0
0
0
0
0
0
0
0
0
0
0
0
0
0
0
0
0
0
0
0
0
0
0
0
0
0
0
0
0
0
0
0
0
0
0
0
0
0
0
0
0
0
0
0
0
0
0
0
0
0
0
0
0
0
0
0
0
0
0
0
0
0
0
0
0
0
0
0
0
0
0
0
0
0
0
0
0
0
0
0
0
0
0
0
0
0
0
0
0
0
0
0
0
0
0
0
0
0
0
0
0
0
0
0
0
0
0
0
0
0
0
0
0
0
0
0
0
0
0
0
0
0
0
0
0
0
0
0
0
0
0
2
2
2
2
2
2
2
0
0
0
0
0
0
0
0
0
0
0
0
0
0
0
0
0
0
0
0
0
0
0
0
0
0
0
0
0
0
0
0
0
0
0
0
0
0
0
0
0
0
0
0
0
0
0
0
0
0
0
0
0
0
0
0
0
0
0
1
1
0
0
0
0
0
0
0
0
0
0
0
0
0
0
0
0
0
0
0
0
0
0
0
0
0
0
0
0
0
0
0
0
0
0
0
0
0
0
0
0
0
0
0
1
1
0
0
0
0
0
0
0
0
0
0
0
0
0
0
0
0
0
0
0
0
0
0
0
0
0
0
0
0
0
0
0
0
0
0
0
0
0
0
0
0
0
0
0
0
0
0
0
0
0
0
0
0
0
0
0
0
0
0
0
0
0
0
0
0
0
1
1
0
1
1
1
0
0
0
0
0
0
0
0
0
0
0
0
0
0
0
0
0
0
0
1
0
0
1
0
0
1
1
0
0
TENSORS Lagrange_strain float
-2.22045e-16 2.22045e-16 2.25514e-16
2.22045e-16 0 -8.88178e-16
2.25514e-16 -8.88178e-16 0

4.44089e-16 -2.22045e-16 -2.35922e-16
-2.22045e-16 4.44089e-16 2.498e-16
-2.35922e-16 2.498e-16 2.22045e-16

-8.88178e-16 0 2.77556e-17
0 0 -1.38778e-16
2.77556e-17 -1.38778e-16 0

-4.44089e-16 3.05311e-16 5.27356e-16
3.05311e-16 0 -2.77556e-17
5.27356e-16 -2.77556e-17 -1.11022e-16

-8.88178e-16 -3.33067e-16 -1.38778e-17
-3.33067e-16 0 1.38778e-17
-1.38778e-17 1.38778e-17 0

0 2.77556e-16 1.11022e-16
2.77556e-16 0 0
1.11022e-16 0 0

-2.22045e-16 -1.38778e-17 -8.67362e-18
-1.38778e-17 0 -4.43547e-16
-8.67362e-18 -4.43547e-16 0

8.88178e-16 2.22045e-16 3.08149e-33
2.22045e-16 4.44089e-16 -2.08167e-16
3.08149e-33 -2.08167e-16 0

4.44089e-16 -1.11022e-16 0
-1.11022e-16 0 2.22045e-16
0 2.22045e-16 0

-2.22045e-16 -4.75965e-17 -2.35922e-16
-4.75965e-17 -1.11022e-16 6.36969e-19
-2.35922e-16 6.36969e-19 -1.11022e-16

2.22045e-16 1.66533e-16 0
1.66533e-16 0 -2.7929e-16
0 -2.7929e-16 2.22045e-16

0 -1.11022e-16 -1.38778e-17
-1.11022e-16 0 -1.249e-16
-1.38778e-17 -1.249e-16 0

8.88178e-16 4.44089e-16 0
4.44089e-16 4.44089e-16 4.44089e-16
0 4.44089e-16 0

2.22045e-16 -1.97215e-31 4.57967e-16
-1.97215e-31 0 -2.22045e-16
4.57967e-16 -2.22045e-16 2.22045e-16

1.11022e-15 0 4.71845e-16
0 4.44089e-16 -4.16334e-17
4.71845e-16 -4.16334e-17 0

0 4.44089e-16 2.08167e-16
4.44089e-16 -1.11022e-16 2.2031e-16
2.08167e-16 2.2031e-16 0

4.44089e-16 -8.32667e-17 -2.35922e-16
-8.32667e-17 2.22045e-16 4.16334e-17
-2.35922e-16 4.16334e-17 2.22045e-16

-8.88178e-16 -6.93889e-18 -1.38778e-17
-6.93889e-18 0 2.60209e-18
-1.38778e-17 2.60209e-18 0

0 2.22045e-16 -6.93889e-18
2.22045e-16 2.22045e-16 -4.16334e-17
-6.93889e-18 -4.16334e-17 0

-1.11022e-16 -4.51028e-17 2.34723e-34
-4.51028e-17 0 -2.60209e-18
2.34723e-34 -2.60209e-18 0

-2.22045e-16 2.22045e-16 1.09288e-16
2.22045e-16 -8.88178e-16 -8.32667e-17
1.09288e-16 -8.32667e-17 0

0 -1.38778e-17 8.89046e-16
-1.38778e-17 2.22045e-16 -1.38778e-16
8.89046e-16 -1.38778e-16 0

-2.22045e-16 -2.77556e-16 -2.22045e-16
-2.77556e-16 0 3.46945e-18
-2.22045e-16 3.46945e-18 2.22045e-16

-2.22045e-16 4.44089e-16 -2.08167e-17
4.44089e-16 -2.22045e-16 -9.24446e-33
-2.08167e-17 -9.24446e-33 0

0 -6.59195e-17 3.747e-16
-6.59195e-17 0 1.8735e-16
3.747e-16 1.8735e-16 2.22045e-16

0 6.93889e-18 -1.73472e-17
6.93889e-18 0 5.55112e-17
-1.73472e-17 5.55112e-17 0

-6.66134e-16 -2.2967e-17 -1.52837e-35
-2.2967e-17 0 -2.21712e-16
-1.52837e-35 -2.21712e-16 0

0 -9.86076e-32 -2.35922e-16
-9.86076e-32 0 1.94289e-16
-2.35922e-16 1.94289e-16 2.22045e-16

2.22045e-16 2.60209e-17 1.04083e-17
2.60209e-17 4.44089e-16 -3.81639e-16
1.04083e-17 -3.81639e-16 0

2.22045e-16 8.32667e-17 -1.38778e-17
8.32667e-17 -8.88178e-16 -1.38778e-17
-1.38778e-17 -1.38778e-17 0

0 -4.996e-16 -5.55112e-17
-4.996e-16 -2.22045e-16 4.3715e-16
-5.55112e-17 4.3715e-16 0

2.22045e-16 1.11022e-16 -4.62223e-33
1.11022e-16 -2.22045e-16 4.23273e-16
-4.62223e-33 4.23273e-16 0

0 0 -1.73472e-18
0 0 0
-1.73472e-18 0 0

-2.22045e-16 -2.498e-16 -1.2326e-32
-2.498e-16 -4.44089e-16 2.77556e-17
-1.2326e-32 2.77556e-17 -1.11022e-16

0 -8.74301e-16 -4.47559e-16
-8.74301e-16 4.44089e-16 1.38778e-16
-4.47559e-16 1.38778e-16 0

2.22045e-16 -3.60822e-16 -4.16334e-17
-3.60822e-16 0 1.38778e-17
-4.16334e-17 1.38778e-17 0

0 0 0
0 -2.22045e-16 2.22045e-16
0 2.22045e-16 0

-8.88178e-16 1.11022e-16 5.55112e-17
1.11022e-16 6.66134e-16 5.55112e-17
5.55112e-17 5.55112e-17 0

0 4.44089e-16 -1.11022e-16
4.44089e-16 0 -2.08167e-16
-1.11022e-16 -2.08167e-16 0

0 0 -3.46945e-18
0 0 -6.245e-17
-3.46945e-18 -6.245e-17 0

4.44089e-16 -2.77556e-17 -6.93889e-18
-2.77556e-17 2.22045e-16 -8.67362e-18
-6.93889e-18 -8.67362e-18 0

-2.22045e-16 4.16334e-17 -1.14492e-16
4.16334e-17 0 8.32667e-17
-1.14492e-16 8.32667e-17 0

-1.77636e-15 2.22045e-16 8.32667e-17
2.22045e-16 0 4.16334e-17
8.32667e-17 4.16334e-17 0

-4.44089e-16 5.55112e-17 -1.38778e-17
5.55112e-17 -2.22045e-16 -2.22045e-16
-1.38778e-17 -2.22045e-16 0

-1.11022e-16 1.38778e-16 -2.22045e-16
1.38778e-16 0 -4.47559e-16
-2.22045e-16 -4.47559e-16 2.22045e-16

-2.22045e-16 1.38778e-17 2.28983e-16
1.38778e-17 0 -3.46945e-18
2.28983e-16 -3.46945e-18 0

0 3.33067e-16 -4.4062e-16
3.33067e-16 0 0
-4.4062e-16 0 2.22045e-16

0 1.66533e-16 -1.14492e-16
1.66533e-16 0 -1.38778e-17
-1.14492e-16 -1.38778e-17 2.22045e-16

-1.11022e-16 -8.67362e-18 1.73472e-16
-8.67362e-18 0 4.54498e-16
1.73472e-16 4.54498e-16 0

-1.11022e-16 2.77556e-17 2.22045e-16
2.77556e-17 0 -6.93889e-18
2.22045e-16 -6.93889e-18 0

0 -2.08167e-16 -1.38778e-17
-2.08167e-16 0 -6.93889e-18
-1.38778e-17 -6.93889e-18 0

-4.44089e-16 2.35922e-16 -6.93889e-18
2.35922e-16 0 -3.46945e-18
-6.93889e-18 -3.46945e-18 0

0 4.44089e-16 -2.25514e-16
4.44089e-16 8.88178e-16 -2.77556e-17
-2.25514e-16 -2.77556e-17 0

2.22045e-16 1.66533e-16 -2.01228e-16
1.66533e-16 0 6.93889e-18
-2.01228e-16 6.93889e-18 0

-8.88178e-16 0 -4.16334e-17
0 -4.44089e-16 4.44089e-16
-4.16334e-17 4.44089e-16 0

0 5.55112e-17 0
5.55112e-17 -4.44089e-16 -2.23779e-16
0 -2.23779e-16 0

0 -1.11022e-16 1.59595e-16
-1.11022e-16 0 5.55112e-17
1.59595e-16 5.55112e-17 0

-1.11022e-16 -2.22045e-16 -3.46945e-18
-2.22045e-16 0 -4.85723e-17
-3.46945e-18 -4.85723e-17 0

4.44089e-16 2.22045e-16 4.30211e-16
2.22045e-16 6.66134e-16 -1.38778e-17
4.30211e-16 -1.38778e-17 0

0 -1.70003e-16 3.46945e-18
-1.70003e-16 0 1.04083e-16
3.46945e-18 1.04083e-16 0

0 0 -5.55112e-17
0 0 -1.11022e-16
-5.55112e-17 -1.11022e-16 0

0 -2.77556e-17 1.94289e-16
-2.77556e-17 4.44089e-16 2.77556e-17
1.94289e-16 2.77556e-17 2.22045e-16

0 0 -3.29597e-16
0 0 -3.46945e-18
-3.29597e-16 -3.46945e-18 2.22045e-16

0 -2.77556e-17 -1.04083e-17
-2.77556e-17 2.22045e-16 -2.77556e-17
-1.04083e-17 -2.77556e-17 0

-3.33067e-16 -5.55112e-17 3.46945e-18
-5.55112e-17 0 -5.55112e-17
3.46945e-18 -5.55112e-17 0

0 -2.35922e-16 1.73472e-18
-2.35922e-16 4.44089e-16 -1.38778e-17
1.73472e-18 -1.38778e-17 0

0 -3.33067e-16 2.77556e-17
-3.33067e-16 2.22045e-16 -2.77556e-17
2.77556e-17 -2.77556e-17 2.22045e-16

-2.22045e-16 0 4.02456e-16
0 0 3.46945e-18
4.02456e-16 3.46945e-18 0

2.22045e-16 0 4.16334e-17
0 0 -4.44089e-16
4.16334e-17 -4.44089e-16 0

-2.22045e-16 6.07153e-18 -2.35922e-16
6.07153e-18 -1.11022e-16 2.26124e-16
-2.35922e-16 2.26124e-16 0

-1.11022e-16 5.55112e-16 -2.15106e-16
5.55112e-16 -8.88178e-16 2.77556e-17
-2.15106e-16 2.77556e-17 0

-8.88178e-16 1.94289e-16 -4.57967e-16
1.94289e-16 0 1.11022e-16
-4.57967e-16 1.11022e-16 0

2.22045e-16 1.11022e-16 -3.46945e-18
1.11022e-16 4.44089e-16 0
-3.46945e-18 0 2.22045e-16

-2.22045e-16 2.77556e-16 -2.77556e-17
2.77556e-16 -6.66134e-16 6.93889e-18
-2.77556e-17 6.93889e-18 0

0 -3.33067e-16 -8.32667e-17
-3.33067e-16 0 4.44089e-16
-8.32667e-17 4.44089e-16 2.22045e-16

-4.44089e-16 -2.77556e-17 -4.4062e-16
-2.77556e-17 -2.22045e-16 2.22045e-16
-4.4062e-16 2.22045e-16 0

0 0 3.46945e-18
0 6.66134e-16 8.32667e-17
3.46945e-18 8.32667e-17 0

0 -3.88578e-16 -1.38778e-17
-3.88578e-16 -4.44089e-16 1.38778e-17
-1.38778e-17 1.38778e-17 0

2.22045e-16 3.88578e-16 2.70617e-16
3.88578e-16 0 -4.16334e-17
2.70617e-16 -4.16334e-17 0

0 1.94289e-16 4.81482e-35
1.94289e-16 2.22045e-16 2.55872e-16
4.81482e-35 2.55872e-16 0

0 1.80411e-16 -4.30211e-16
1.80411e-16 0 5.89806e-17
-4.30211e-16 5.89806e-17 0

0 -7.77156e-16 -4.47559e-16
-7.77156e-16 -6.66134e-16 -7.70372e-34
-4.47559e-16 -7.70372e-34 0

0 4.02456e-16 4.44089e-16
4.02456e-16 8.88178e-16 4.85723e-17
4.44089e-16 4.85723e-17 2.22045e-16

-4.44089e-16 0 0
0 -1.11022e-16 3.46945e-16
0 3.46945e-16 0

-2.22045e-16 -2.34188e-17 -2.15106e-16
-2.34188e-17 2.22045e-16 5.85469e-18
-2.15106e-16 5.85469e-18 2.22045e-16

-1.11022e-16 -5.55112e-17 -1.54074e-33
-5.55112e-17 -4.44089e-16 -1.38778e-17
-1.54074e-33 -1.38778e-17 0

0 1.04083e-17 -1.73472e-18
1.04083e-17 8.88178e-16 -4.71845e-16
-1.73472e-18 -4.71845e-16 0

8.88178e-16 1.66533e-16 -6.93889e-17
1.66533e-16 0 0
-6.93889e-17 0 0

0 2.22045e-16 -6.93889e-18
2.22045e-16 4.44089e-16 -1.38778e-17
-6.93889e-18 -1.38778e-17 0

0 -1.88738e-15 8.32667e-17
-1.88738e-15 -1.11022e-16 -6.245e-16
8.32667e-17 -6.245e-16 0

0 1.17961e-16 4.44089e-16
1.17961e-16 0 -1.66533e-16
4.44089e-16 -1.66533e-16 0

-6.66134e-16 -2.08167e-16 -1.63758e-15
-2.08167e-16 -1.77636e-15 0
-1.63758e-15 0 0

0 2.77556e-17 -4.44089e-16
2.77556e-17 0 -8.32667e-17
-4.44089e-16 -8.32667e-17 0

8.88178e-16 3.33067e-16 -1.38778e-17
3.33067e-16 0 -2.22045e-16
-1.38778e-17 -2.22045e-16 2.22045e-16

0 -1.11022e-16 -1.38778e-17
-1.11022e-16 -5.55112e-16 5.20417e-18
-1.38778e-17 5.20417e-18 0

0 -1.9082e-17 -1.73472e-18
-1.9082e-17 0 9.71445e-17
-1.73472e-18 9.71445e-17 0

0 0 3.46945e-18
0 -2.22045e-16 -2.42861e-16
3.46945e-18 -2.42861e-16 0

0 -3.88578e-16 -4.44089e-16
-3.88578e-16 -7.77156e-16 1.38778e-16
-4.44089e-16 1.38778e-16 0

0 0 -2.77556e-17
0 0 -6.93889e-18
-2.77556e-17 -6.93889e-18 0

0 -8.76035e-17 -6.93889e-18
-8.76035e-17 -4.44089e-16 5.20417e-17
-6.93889e-18 5.20417e-17 2.22045e-16

0 -1.11022e-16 1.38778e-17
-1.11022e-16 2.22045e-16 4.4062e-16
1.38778e-17 4.4062e-16 2.22045e-16

0 2.42861e-16 -3.46945e-18
2.42861e-16 -2.22045e-16 6.93889e-18
-3.46945e-18 6.93889e-18 2.22045e-16

-1.11022e-16 -8.32667e-17 -2.22045e-16
-8.32667e-17 -2.22045e-16 4.47559e-16
-2.22045e-16 4.47559e-16 0

-6.66134e-16 1.66533e-16 -2.77556e-17
1.66533e-16 0 -2.77556e-16
-2.77556e-17 -2.77556e-16 0

-2.22045e-16 -2.08167e-16 6.93889e-18
-2.08167e-16 -2.22045e-16 -1.94289e-16
6.93889e-18 -1.94289e-16 0

0 -2.22045e-16 -2.01228e-16
-2.22045e-16 8.88178e-16 4.57967e-16
-2.01228e-16 4.57967e-16 2.22045e-16

-1.11022e-16 -1.11022e-16 -1.04083e-17
-1.11022e-16 -2.22045e-16 2.35922e-16
-1.04083e-17 2.35922e-16 0

4.44089e-16 -2.77556e-17 2.77556e-17
-2.77556e-17 -1.11022e-16 -3.27863e-16
2.77556e-17 -3.27863e-16 0

0 0 0
0 0 -1.66533e-16
0 -1.66533e-16 0

0 0 0
0 6.66134e-16 8.32667e-17
0 8.32667e-17 0

0 1.66533e-16 4.44089e-16
1.66533e-16 2.22045e-16 -6.93889e-17
4.44089e-16 -6.93889e-17 0

-1.11022e-16 0 8.67362e-19
0 -1.11022e-16 -1.38778e-17
8.67362e-19 -1.38778e-17 0

-2.22045e-16 -2.22045e-16 4.3715e-16
-2.22045e-16 0 -4.51028e-16
4.3715e-16 -4.51028e-16 0

-2.22045e-16 2.22045e-16 6.16298e-33
2.22045e-16 0 -2.08167e-16
6.16298e-33 -2.08167e-16 2.22045e-16

-8.88178e-16 4.44089e-16 -1.80411e-16
4.44089e-16 -2.22045e-16 6.93889e-18
-1.80411e-16 6.93889e-18 0

-3.33067e-16 5.55112e-17 3.40006e-16
5.55112e-17 0 -4.51028e-16
3.40006e-16 -4.51028e-16 0

0 3.33067e-16 2.498e-16
3.33067e-16 -4.44089e-16 2.63678e-16
2.498e-16 2.63678e-16 2.22045e-16

0 1.11022e-16 0
1.11022e-16 0 1.04083e-17
0 1.04083e-17 0

0 -2.22045e-16 2.77556e-17
-2.22045e-16 2.22045e-16 6.93889e-18
2.77556e-17 6.93889e-18 0

0 4.16334e-17 -2.21177e-16
4.16334e-17 -1.11022e-16 2.08167e-16
-2.21177e-16 2.08167e-16 0

-8.88178e-16 1.73472e-18 -3.88578e-16
1.73472e-18 0 0
-3.88578e-16 0 0

-4.44089e-16 1.11022e-16 4.44089e-16
1.11022e-16 0 1.38778e-17
4.44089e-16 1.38778e-17 0

2.22045e-16 2.22045e-16 2.22045e-16
2.22045e-16 0 8.32667e-17
2.22045e-16 8.32667e-17 0

0 1.17961e-16 2.08167e-17
1.17961e-16 0 2.35922e-16
2.08167e-17 2.35922e-16 0

0 5.55112e-17 1.11022e-16
5.55112e-17 0 0
1.11022e-16 0 0

-2.22045e-16 1.11022e-16 9.02056e-17
1.11022e-16 0 2.77556e-17
9.02056e-17 2.77556e-17 0

1.33227e-15 4.44089e-16 5.55112e-17
4.44089e-16 -1.11022e-15 4.02456e-16
5.55112e-17 4.02456e-16 0

4.44089e-16 3.46945e-18 1.38778e-17
3.46945e-18 0 1.38778e-17
1.38778e-17 1.38778e-17 0

-1.11022e-16 -2.1684e-16 2.2237e-16
-2.1684e-16 2.22045e-16 6.93889e-18
2.2237e-16 6.93889e-18 0

0 -2.08167e-16 -6.93889e-18
-2.08167e-16 0 -3.64292e-16
-6.93889e-18 -3.64292e-16 0

-1.11022e-16 -6.66134e-16 6.93889e-18
-6.66134e-16 1.33227e-15 -2.22045e-16
6.93889e-18 -2.22045e-16 0

1.55431e-15 0 -8.32667e-17
0 0 -2.25514e-16
-8.32667e-17 -2.25514e-16 0

0 -2.22045e-16 2.28983e-16
-2.22045e-16 8.88178e-16 -3.08149e-33
2.28983e-16 -3.08149e-33 0

2.22045e-16 -1.76942e-16 4.44089e-16
-1.76942e-16 -1.11022e-16 4.16334e-17
4.44089e-16 4.16334e-17 0

0 -8.67362e-17 4.51028e-16
-8.67362e-17 0 1.38778e-17
4.51028e-16 1.38778e-17 0

0 -5.91646e-31 -8.86444e-16
-5.91646e-31 0 3.05311e-16
-8.86444e-16 3.05311e-16 0

0 9.71445e-17 3.46945e-18
9.71445e-17 -2.22045e-16 1.00614e-16
3.46945e-18 1.00614e-16 0

0 1.11022e-16 -4.16334e-17
1.11022e-16 0 -3.43475e-16
-4.16334e-17 -3.43475e-16 0

2.22045e-16 1.11022e-16 1.94289e-16
1.11022e-16 0 2.08167e-16
1.94289e-16 2.08167e-16 0

-1.33227e-15 0 3.88578e-16
0 0 -1.38778e-17
3.88578e-16 -1.38778e-17 2.22045e-16

0 5.55112e-17 5.20417e-18
5.55112e-17 0 -4.09395e-16
5.20417e-18 -4.09395e-16 0

-2.22045e-16 5.55112e-17 0
5.55112e-17 4.44089e-16 2.498e-16
0 2.498e-16 0

0 8.32667e-17 2.35922e-16
8.32667e-17 -1.11022e-16 4.44089e-16
2.35922e-16 4.44089e-16 2.22045e-16

-1.11022e-16 1.11022e-16 -4.51028e-16
1.11022e-16 6.66134e-16 2.77556e-17
-4.51028e-16 2.77556e-17 0

0 2.77556e-17 -1.07553e-16
2.77556e-17 0 -6.93889e-18
-1.07553e-16 -6.93889e-18 0

4.44089e-16 0 -1.249e-16
0 0 0
-1.249e-16 0 0

-4.44089e-16 -2.77556e-17 4.16334e-17
-2.77556e-17 4.44089e-16 3.53884e-16
4.16334e-17 3.53884e-16 0

2.22045e-16 0 2.35922e-16
0 2.22045e-16 -1.04083e-17
2.35922e-16 -1.04083e-17 2.22045e-16

0 -5.55112e-17 6.93889e-17
-5.55112e-17 0 2.77556e-17
6.93889e-17 2.77556e-17 2.22045e-16

0 3.33067e-16 5.55112e-17
3.33067e-16 0 3.92048e-16
5.55112e-17 3.92048e-16 0

0 0 0
0 -1.11022e-16 -2.77556e-16
0 -2.77556e-16 0

0 0 1.38778e-17
0 -8.88178e-16 0
1.38778e-17 0 0

-1.11022e-16 1.11022e-16 2.15106e-16
1.11022e-16 -2.22045e-16 -2.08167e-17
2.15106e-16 -2.08167e-17 -2.22045e-16

0 -1.66533e-16 2.32453e-16
-1.66533e-16 0 -2.08167e-16
2.32453e-16 -2.08167e-16 2.22045e-16

0 0 2.22045e-16
0 4.44089e-16 1.38778e-17
2.22045e-16 1.38778e-17 2.22045e-16

0 1.73472e-17 1.38778e-17
1.73472e-17 -6.66134e-16 -1.249e-16
1.38778e-17 -1.249e-16 0

0 0 -6.93889e-18
0 0 -1.38778e-17
-6.93889e-18 -1.38778e-17 0

-1.11022e-16 2.25514e-16 -6.93889e-18
2.25514e-16 -1.11022e-16 4.4062e-16
-6.93889e-18 4.4062e-16 0

0 -2.22045e-16 2.2031e-16
-2.22045e-16 0 1.38778e-17
2.2031e-16 1.38778e-17 0

4.44089e-16 -3.88578e-16 -2.77556e-17
-3.88578e-16 8.88178e-16 -1.38778e-17
-2.77556e-17 -1.38778e-17 2.22045e-16

-4.44089e-16 1.47911e-31 -1.54074e-32
1.47911e-31 2.22045e-16 -2.56739e-16
-1.54074e-32 -2.56739e-16 0

0 -1.66533e-16 6.93889e-18
-1.66533e-16 -2.22045e-16 -4.44089e-16
6.93889e-18 -4.44089e-16 0

0 0 -4.47559e-16
0 -3.33067e-16 -1.04083e-17
-4.47559e-16 -1.04083e-17 0

-1.11022e-16 -1.11022e-16 2.15106e-16
-1.11022e-16 -4.44089e-16 6.93889e-18
2.15106e-16 6.93889e-18 0

0 4.16334e-17 1.38778e-17
4.16334e-17 0 -2.84495e-16
1.38778e-17 -2.84495e-16 0

-4.44089e-16 5.11743e-17 1.10967e-35
5.11743e-17 -2.22045e-16 4.44198e-16
1.10967e-35 4.44198e-16 0

4.44089e-16 1.66533e-16 -2.25514e-16
1.66533e-16 -4.44089e-16 1.38778e-17
-2.25514e-16 1.38778e-17 0

0 2.22045e-16 -1.38778e-17
2.22045e-16 2.22045e-16 3.46945e-18
-1.38778e-17 3.46945e-18 4.44089e-16

0 1.11022e-16 -1.12757e-16
1.11022e-16 0 6.93889e-18
-1.12757e-16 6.93889e-18 0

0 8.32667e-17 0
8.32667e-17 2.22045e-16 -2.63678e-16
0 -2.63678e-16 2.22045e-16

0 2.1684e-17 -6.93889e-18
2.1684e-17 0 1.35308e-16
-6.93889e-18 1.35308e-16 0

0 -4.85723e-17 4.33681e-19
-4.85723e-17 0 -1.38778e-17
4.33681e-19 -1.38778e-17 0

2.22045e-16 -1.11022e-16 6.93889e-18
-1.11022e-16 0 4.3715e-16
6.93889e-18 4.3715e-16 0

0 2.08167e-17 -1.38778e-17
2.08167e-17 0 -3.46945e-16
-1.38778e-17 -3.46945e-16 0

4.44089e-16 2.08167e-16 6.93889e-18
2.08167e-16 2.22045e-16 -3.19189e-16
6.93889e-18 -3.19189e-16 2.22045e-16

0 1.11022e-16 4.16334e-17
1.11022e-16 -1.11022e-16 3.46945e-17
4.16334e-17 3.46945e-17 2.22045e-16

0 3.33067e-16 -4.16334e-16
3.33067e-16 0 2.77556e-17
-4.16334e-16 2.77556e-17 2.22045e-16

0 -5.55112e-17 -1.38778e-17
-5.55112e-17 -1.11022e-16 2.22045e-16
-1.38778e-17 2.22045e-16 0

0 -6.10623e-16 6.93889e-17
-6.10623e-16 -2.22045e-16 -2.08167e-17
6.93889e-17 -2.08167e-17 0

-4.44089e-16 1.11022e-16 3.08149e-33
1.11022e-16 0 1.38778e-17
3.08149e-33 1.38778e-17 0

-3.33067e-16 0 -1.38778e-17
0 -2.22045e-16 -6.245e-17
-1.38778e-17 -6.245e-17 0

0 6.66134e-16 -1.94289e-16
6.66134e-16 0 4.44089e-16
-1.94289e-16 4.44089e-16 2.22045e-16

-7.77156e-16 -3.33067e-16 -2.08167e-16
-3.33067e-16 0 -2.77556e-17
-2.08167e-16 -2.77556e-17 0

-2.22045e-16 -2.22045e-16 -4.47559e-16
-2.22045e-16 0 -4.51028e-16
-4.47559e-16 -4.51028e-16 0

4.44089e-16 5.55112e-17 -2.22045e-16
5.55112e-17 0 0
-2.22045e-16 0 0

0 8.32667e-17 6.93889e-18
8.32667e-17 0 -1.39645e-16
6.93889e-18 -1.39645e-16 0

0 -3.33067e-16 1.38778e-17
-3.33067e-16 4.44089e-16 4.16334e-17
1.38778e-17 4.16334e-17 0

-2.22045e-16 0 -3.46945e-18
0 4.44089e-16 -3.88578e-16
-3.46945e-18 -3.88578e-16 0

0 2.22045e-16 -6.16298e-33
2.22045e-16 -4.44089e-16 -1.38778e-17
-6.16298e-33 -1.38778e-17 0

-8.88178e-16 -1.11022e-16 2.08167e-16
-1.11022e-16 0 1.38778e-17
2.08167e-16 1.38778e-17 0

0 -6.93889e-18 1.73472e-18
-6.93889e-18 8.88178e-16 -8.32667e-17
1.73472e-18 -8.32667e-17 0

0 4.16334e-17 -1.38778e-17
4.16334e-17 -1.11022e-16 6.07153e-18
-1.38778e-17 6.07153e-18 0

-1.11022e-16 2.22045e-16 -6.93889e-18
2.22045e-16 0 -2.08167e-17
-6.93889e-18 -2.08167e-17 0

0 5.55112e-17 5.20417e-18
5.55112e-17 0 1.38778e-17
5.20417e-18 1.38778e-17 0

0 3.34043e-16 -2.77556e-17
3.34043e-16 2.22045e-16 1.41543e-16
-2.77556e-17 1.41543e-16 0

0 4.82253e-16 -4.71845e-16
4.82253e-16 -1.11022e-16 -1.38236e-16
-4.71845e-16 -1.38236e-16 0

0 2.22045e-16 2.08167e-16
2.22045e-16 -4.44089e-16 -5.55112e-17
2.08167e-16 -5.55112e-17 0

0 0 2.08167e-16
0 0 5.55112e-17
2.08167e-16 5.55112e-17 2.22045e-16

-1.11022e-16 2.22045e-16 -1.38778e-17
2.22045e-16 -8.88178e-16 2.35922e-16
-1.38778e-17 2.35922e-16 0

2.22045e-16 -3.33067e-16 -3.35235e-16
-3.33067e-16 8.88178e-16 -1.38778e-17
-3.35235e-16 -1.38778e-17 0

0 -4.44089e-16 2.08167e-16
-4.44089e-16 -8.88178e-16 5.55112e-17
2.08167e-16 5.55112e-17 2.22045e-16

0 -1.97215e-31 -2.08167e-16
-1.97215e-31 0 4.47559e-16
-2.08167e-16 4.47559e-16 0

-2.22045e-16 0 2.22045e-16
0 -2.22045e-16 -6.93889e-18
2.22045e-16 -6.93889e-18 0

-8.88178e-16 2.77556e-17 2.77556e-16
2.77556e-17 -2.22045e-16 -2.39392e-16
2.77556e-16 -2.39392e-16 0

0 -2.22045e-16 2.08167e-17
-2.22045e-16 -2.22045e-16 -4.57967e-16
2.08167e-17 -4.57967e-16 0

4.44089e-16 4.47559e-16 6.93889e-18
4.47559e-16 0 -5.55112e-17
6.93889e-18 -5.55112e-17 2.22045e-16

0 2.77556e-17 1.94289e-16
2.77556e-17 -4.44089e-16 -4.44089e-16
1.94289e-16 -4.44089e-16 0

0 0 -2.01228e-16
0 0 0
-2.01228e-16 0 0

0 -3.88578e-16 1.38778e-17
-3.88578e-16 0 2.35922e-16
1.38778e-17 2.35922e-16 0

0 -4.996e-16 -3.60822e-16
-4.996e-16 0 -2.1684e-16
-3.60822e-16 -2.1684e-16 0

-1.11022e-16 -3.88578e-16 -1.94289e-16
-3.88578e-16 8.88178e-16 0
-1.94289e-16 0 2.22045e-16

0 -4.16334e-17 -5.55112e-17
-4.16334e-17 0 -2.35922e-16
-5.55112e-17 -2.35922e-16 0

-8.88178e-16 2.22045e-16 -1.94289e-16
2.22045e-16 0 -6.93889e-18
-1.94289e-16 -6.93889e-18 0

-4.44089e-16 -3.33067e-16 -2.08167e-16
-3.33067e-16 0 2.77556e-17
-2.08167e-16 2.77556e-17 2.22045e-16

4.44089e-16 -3.60822e-16 2.56739e-16
-3.60822e-16 4.44089e-16 -1.38778e-17
2.56739e-16 -1.38778e-17 0

0 0 2.08167e-16
0 2.22045e-16 -1.38778e-17
2.08167e-16 -1.38778e-17 2.22045e-16

0 -5.55112e-17 -2.15106e-16
-5.55112e-17 0 6.93889e-18
-2.15106e-16 6.93889e-18 0

-6.66134e-16 2.22045e-16 1.2326e-32
2.22045e-16 0 -4.16334e-16
1.2326e-32 -4.16334e-16 2.22045e-16

6.66134e-16 -6.93889e-18 1.38778e-17
-6.93889e-18 -2.22045e-16 -5.55112e-17
1.38778e-17 -5.55112e-17 0

-2.22045e-16 -3.33067e-16 -2.498e-16
-3.33067e-16 0 -1.94289e-16
-2.498e-16 -1.94289e-16 0

-1.11022e-16 -2.15163e-17 -1.38778e-17
-2.15163e-17 2.22045e-16 6.20706e-17
-1.38778e-17 6.20706e-17 0

4.44089e-16 0 6.93889e-18
0 0 -2.498e-16
6.93889e-18 -2.498e-16 0

0 5.55112e-17 -2.77556e-17
5.55112e-17 -2.22045e-16 0
-2.77556e-17 0 0

2.22045e-16 0 1.38778e-16
0 0 -6.93889e-18
1.38778e-16 -6.93889e-18 0

0 -1.38778e-17 0
-1.38778e-17 0 2.42861e-16
0 2.42861e-16 0

-2.22045e-16 4.44089e-16 -2.08167e-16
4.44089e-16 0 2.22045e-16
-2.08167e-16 2.22045e-16 0

0 0 -4.16334e-17
0 0 -2.63678e-16
-4.16334e-17 -2.63678e-16 2.22045e-16

-4.44089e-16 -3.33067e-16 -4.4062e-16
-3.33067e-16 0 0
-4.4062e-16 0 2.22045e-16

0 2.42861e-17 -4.3715e-16
2.42861e-17 6.66134e-16 1.249e-16
-4.3715e-16 1.249e-16 0

1.11022e-15 4.44089e-16 0
4.44089e-16 -6.66134e-16 -1.38778e-17
0 -1.38778e-17 0

4.44089e-16 2.22045e-16 4.71845e-16
2.22045e-16 2.22045e-16 -6.245e-17
4.71845e-16 -6.245e-17 2.22045e-16

0 -9.21572e-18 2.60209e-18
-9.21572e-18 0 -1.11022e-16
2.60209e-18 -1.11022e-16 0

-2.22045e-16 5.55112e-17 1.52656e-16
5.55112e-17 4.44089e-16 -6.93889e-17
1.52656e-16 -6.93889e-17 2.22045e-16

0 -1.73472e-16 4.16334e-16
-1.73472e-16 -2.22045e-16 -2.63678e-16
4.16334e-16 -2.63678e-16 0

0 4.16334e-17 1.44445e-34
4.16334e-17 0 -1.0842e-16
1.44445e-34 -1.0842e-16 0

6.66134e-16 0 1.94289e-16
0 4.44089e-16 -6.93889e-18
1.94289e-16 -6.93889e-18 0

0 -1.11022e-16 2.22045e-16
-1.11022e-16 2.22045e-16 -2.08167e-17
2.22045e-16 -2.08167e-17 2.22045e-16

2.22045e-16 2.77556e-17 -1.94289e-16
2.77556e-17 -1.11022e-16 0
-1.94289e-16 0 0

0 -1.30104e-18 4.45824e-16
-1.30104e-18 -2.22045e-16 2.498e-16
4.45824e-16 2.498e-16 0

-2.22045e-16 -6.66134e-16 4.57967e-16
-6.66134e-16 -8.88178e-16 5.55112e-17
4.57967e-16 5.55112e-17 0

4.44089e-16 2.01228e-16 1.2326e-32
2.01228e-16 0 1.04083e-16
1.2326e-32 1.04083e-16 0

0 -5.55112e-17 4.44089e-16
-5.55112e-17 0 2.08167e-17
4.44089e-16 2.08167e-17 2.22045e-16

4.44089e-16 2.77556e-17 1.249e-16
2.77556e-17 -4.44089e-16 -4.78784e-16
1.249e-16 -4.78784e-16 0

0 -8.32667e-17 6.93889e-18
-8.32667e-17 0 -2.08167e-17
6.93889e-18 -2.08167e-17 0

4.44089e-16 -4.16334e-17 5.55112e-17
-4.16334e-17 0 2.77556e-16
5.55112e-17 2.77556e-16 2.22045e-16

0 1.11022e-16 4.16334e-17
1.11022e-16 0 -1.80411e-16
4.16334e-17 -1.80411e-16 0

0 2.1684e-18 -1.30104e-18
2.1684e-18 0 3.05311e-16
-1.30104e-18 3.05311e-16 0

4.44089e-16 2.6773e-17 1.73472e-18
2.6773e-17 2.22045e-16 -1.79869e-16
1.73472e-18 -1.79869e-16 0

-2.22045e-16 0 -2.32453e-16
0 0 0
-2.32453e-16 0 0

0 1.47451e-17 -4.09395e-16
1.47451e-17 -1.11022e-16 -1.95156e-18
-4.09395e-16 -1.95156e-18 0

0 2.22045e-16 1.38778e-17
2.22045e-16 0 0
1.38778e-17 0 0

4.44089e-16 1.97215e-31 -2.23779e-16
1.97215e-31 2.22045e-16 -4.51028e-16
-2.23779e-16 -4.51028e-16 0

-3.33067e-16 -3.33067e-16 -6.93889e-18
-3.33067e-16 8.88178e-16 -1.38778e-17
-6.93889e-18 -1.38778e-17 0

0 2.42861e-17 4.44089e-16
2.42861e-17 0 -1.73472e-18
4.44089e-16 -1.73472e-18 0

0 -1.97215e-31 2.35922e-16
-1.97215e-31 0 -4.3715e-16
2.35922e-16 -4.3715e-16 0

-6.66134e-16 -2.77556e-17 -1.38778e-16
-2.77556e-17 -1.11022e-16 0
-1.38778e-16 0 0

0 3.46945e-17 0
3.46945e-17 6.66134e-16 -9.71445e-17
0 -9.71445e-17 2.22045e-16

2.22045e-16 6.66134e-16 2.22045e-16
6.66134e-16 0 5.55112e-17
2.22045e-16 5.55112e-17 2.22045e-16

-4.44089e-16 -5.55112e-16 4.44089e-16
-5.55112e-16 0 -2.08167e-16
4.44089e-16 -2.08167e-16 0

4.44089e-16 -2.77556e-17 2.01228e-16
-2.77556e-17 0 -1.73472e-18
2.01228e-16 -1.73472e-18 0

0 0 0
0 0 4.3715e-16
0 4.3715e-16 0

0 1.11022e-16 -2.498e-16
1.11022e-16 -8.88178e-16 2.77556e-17
-2.498e-16 2.77556e-17 0

0 -4.44089e-16 -3.46945e-18
-4.44089e-16 6.66134e-16 2.77556e-17
-3.46945e-18 2.77556e-17 0

0 0 3.46945e-18
0 2.22045e-16 -1.38778e-17
3.46945e-18 -1.38778e-17 0

-6.66134e-16 1.11022e-16 0
1.11022e-16 -4.44089e-16 -5.55112e-17
0 -5.55112e-17 0

4.44089e-16 -2.77556e-16 4.30211e-16
-2.77556e-16 0 -6.93889e-18
4.30211e-16 -6.93889e-18 0

0 1.11022e-16 1.38778e-17
1.11022e-16 -1.55431e-15 -2.08167e-16
1.38778e-17 -2.08167e-16 0

-1.11022e-16 6.93889e-18 2.08167e-17
6.93889e-18 2.22045e-16 -9.02056e-17
2.08167e-17 -9.02056e-17 0

0 0 2.77556e-17
0 2.22045e-16 -6.93889e-18
2.77556e-17 -6.93889e-18 0

-1.11022e-16 0 -2.35922e-16
0 0 -1.38778e-17
-2.35922e-16 -1.38778e-17 0

0 4.44089e-16 -2.46519e-32
4.44089e-16 0 -5.55112e-17
-2.46519e-32 -5.55112e-17 0

4.44089e-16 2.08167e-17 0
2.08167e-17 6.66134e-16 6.93889e-17
0 6.93889e-17 0

1.11022e-15 -1.66533e-16 2.22045e-16
-1.66533e-16 2.22045e-16 2.15106e-16
2.22045e-16 2.15106e-16 0

-1.11022e-16 6.66134e-16 3.46945e-18
6.66134e-16 0 4.71845e-16
3.46945e-18 4.71845e-16 0

0 0 5.55112e-17
0 6.66134e-16 -4.16334e-17
5.55112e-17 -4.16334e-17 2.22045e-16

-2.22045e-16 4.51028e-17 1.31839e-16
4.51028e-17 0 -4.44089e-16
1.31839e-16 -4.44089e-16 0

4.44089e-16 6.93889e-18 -1.73472e-17
6.93889e-18 0 5.96311e-19
-1.73472e-17 5.96311e-19 0

0 3.88578e-16 4.16334e-17
3.88578e-16 -1.11022e-16 9.02056e-17
4.16334e-17 9.02056e-17 0

0 -3.33067e-16 6.93889e-18
-3.33067e-16 -1.33227e-15 1.38778e-17
6.93889e-18 1.38778e-17 0

-2.22045e-16 2.22045e-16 2.22045e-16
2.22045e-16 0 1.38778e-17
2.22045e-16 1.38778e-17 0

0 -3.46945e-17 -5.55112e-17
-3.46945e-17 -2.22045e-16 2.7761e-16
-5.55112e-17 2.7761e-16 -2.22045e-16

2.22045e-16 -1.38778e-17 0
-1.38778e-17 0 -9.71445e-17
0 -9.71445e-17 0

-6.66134e-16 5.27356e-16 -8.32667e-17
5.27356e-16 0 -7.39557e-32
-8.32667e-17 -7.39557e-32 4.44089e-16

0 1.66533e-16 -6.93889e-18
1.66533e-16 -8.88178e-16 -6.93889e-18
-6.93889e-18 -6.93889e-18 0

0 2.08167e-16 8.67362e-19
2.08167e-16 0 2.77556e-17
8.67362e-19 2.77556e-17 0

2.22045e-16 5.55112e-17 6.93889e-18
5.55112e-17 6.66134e-16 2.77556e-17
6.93889e-18 2.77556e-17 2.22045e-16

0 0 -2.77556e-17
0 -2.22045e-16 1.38778e-17
-2.77556e-17 1.38778e-17 0

0 0 -2.15106e-16
0 -2.22045e-16 -2.08167e-17
-2.15106e-16 -2.08167e-17 0

0 2.7929e-16 1.04083e-17
2.7929e-16 2.22045e-16 2.35922e-16
1.04083e-17 2.35922e-16 0

0 2.77556e-17 -2.77556e-17
2.77556e-17 0 9.71445e-17
-2.77556e-17 9.71445e-17 0

-3.33067e-16 3.9443e-31 -4.38885e-16
3.9443e-31 8.88178e-16 -4.71845e-16
-4.38885e-16 -4.71845e-16 0

0 0 -1.17961e-16
0 0 -5.55112e-17
-1.17961e-16 -5.55112e-17 0

-4.44089e-16 0 -2.22045e-16
0 2.22045e-16 0
-2.22045e-16 0 0

-2.22045e-16 -2.22045e-16 -2.35922e-16
-2.22045e-16 0 -1.38778e-17
-2.35922e-16 -1.38778e-17 -1.11022e-16

0 -3.53884e-16 -6.93889e-18
-3.53884e-16 0 5.20417e-17
-6.93889e-18 5.20417e-17 0

0 -4.33681e-16 4.45824e-16
-4.33681e-16 -7.77156e-16 5.54668e-32
4.45824e-16 5.54668e-32 2.22045e-16

-1.33227e-15 -4.85723e-17 -2.77556e-17
-4.85723e-17 0 5.89806e-17
-2.77556e-17 5.89806e-17 0

4.44089e-16 2.22045e-16 -5.55112e-17
2.22045e-16 -1.11022e-16 -2.15106e-16
-5.55112e-17 -2.15106e-16 0

0 5.55112e-17 2.27249e-16
5.55112e-17 -2.22045e-16 4.92661e-16
2.27249e-16 4.92661e-16 0

0 5.55112e-17 -1.73472e-17
5.55112e-17 4.44089e-16 -2.08167e-17
-1.73472e-17 -2.08167e-17 2.22045e-16

0 3.33067e-16 -4.16334e-17
3.33067e-16 4.44089e-16 -2.77556e-17
-4.16334e-17 -2.77556e-17 0

0 -4.16334e-17 -6.93889e-18
-4.16334e-17 -6.66134e-16 3.40006e-16
-6.93889e-18 3.40006e-16 0

0 3.88578e-16 -2.77556e-17
3.88578e-16 -6.66134e-16 -6.93889e-18
-2.77556e-17 -6.93889e-18 0

0 8.32667e-17 -3.46945e-17
8.32667e-17 -2.22045e-16 -1.63931e-16
-3.46945e-17 -1.63931e-16 0

0 0 0
0 4.44089e-16 2.77556e-17
0 2.77556e-17 0

-6.66134e-16 5.55112e-17 -2.01228e-16
5.55112e-17 2.22045e-16 2.08167e-17
-2.01228e-16 2.08167e-17 2.22045e-16

4.44089e-16 5.55112e-17 2.1684e-16
5.55112e-17 -3.33067e-16 -4.44089e-16
2.1684e-16 -4.44089e-16 0

2.22045e-16 -5.37764e-17 -5.20417e-18
-5.37764e-17 8.88178e-16 1.66533e-16
-5.20417e-18 1.66533e-16 0

0 -5.55112e-17 3.46945e-18
-5.55112e-17 -6.66134e-16 -2.77556e-17
3.46945e-18 -2.77556e-17 0

1.33227e-15 0 2.77556e-17
0 4.44089e-16 8.60423e-16
2.77556e-17 8.60423e-16 0

2.22045e-16 2.77556e-16 1.04083e-17
2.77556e-16 2.22045e-16 1.38778e-17
1.04083e-17 1.38778e-17 0

8.88178e-16 -6.10623e-16 2.35922e-16
-6.10623e-16 2.22045e-16 4.44089e-16
2.35922e-16 4.44089e-16 0

0 -1.66533e-16 2.18575e-16
-1.66533e-16 2.22045e-16 -4.16334e-17
2.18575e-16 -4.16334e-17 0

-8.88178e-16 5.55112e-17 -5.55112e-17
5.55112e-17 2.22045e-16 -2.22045e-16
-5.55112e-17 -2.22045e-16 0

0 -1.11022e-16 2.32453e-16
-1.11022e-16 -4.44089e-16 4.23273e-16
2.32453e-16 4.23273e-16 0

0 -4.16334e-16 -9.71445e-17
-4.16334e-16 2.22045e-16 5.20417e-18
-9.71445e-17 5.20417e-18 0

0 0 4.44089e-16
0 0 0
4.44089e-16 0 2.22045e-16

-3.33067e-16 4.02456e-16 1.38778e-17
4.02456e-16 -2.22045e-16 -2.77556e-17
1.38778e-17 -2.77556e-17 0

4.44089e-16 1.38778e-17 -2.35922e-16
1.38778e-17 -3.33067e-16 1.04083e-17
-2.35922e-16 1.04083e-17 0

0 -3.33067e-16 -1.38778e-17
-3.33067e-16 -2.22045e-16 -1.38778e-17
-1.38778e-17 -1.38778e-17 0

0 1.75207e-16 4.57967e-16
1.75207e-16 -1.11022e-16 -1.249e-16
4.57967e-16 -1.249e-16 0

-2.22045e-16 1.38778e-17 -4.44089e-16
1.38778e-17 -4.44089e-16 -6.93889e-18
-4.44089e-16 -6.93889e-18 0

0 -2.22045e-16 9.24446e-33
-2.22045e-16 0 -1.31839e-16
9.24446e-33 -1.31839e-16 0

2.22045e-16 -4.44089e-16 -5.55112e-17
-4.44089e-16 0 4.16334e-17
-5.55112e-17 4.16334e-17 2.22045e-16

0 5.55112e-17 -6.93889e-18
5.55112e-17 4.44089e-16 -7.70372e-34
-6.93889e-18 -7.70372e-34 0

0 0 -1.8735e-16
0 4.44089e-16 -2.08167e-17
-1.8735e-16 -2.08167e-17 0

0 -1.42247e-16 -4.16334e-17
-1.42247e-16 -1.11022e-16 -2.08167e-16
-4.16334e-17 -2.08167e-16 0

0 3.9443e-31 3.60822e-16
3.9443e-31 -4.44089e-16 4.44089e-16
3.60822e-16 4.44089e-16 0

4.44089e-16 -1.11022e-16 -6.93889e-18
-1.11022e-16 -2.22045e-16 0
-6.93889e-18 0 0

-6.66134e-16 0 -1.38778e-17
0 0 -2.35922e-16
-1.38778e-17 -2.35922e-16 0

-1.33227e-15 0 -6.93889e-17
0 0 -4.57967e-16
-6.93889e-17 -4.57967e-16 2.22045e-16

-2.22045e-16 -3.33067e-16 4.42354e-16
-3.33067e-16 0 0
4.42354e-16 0 0

0 -2.77556e-17 -3.46945e-17
-2.77556e-17 2.22045e-16 5.20417e-18
-3.46945e-17 5.20417e-18 0

0 2.15106e-16 -2.1684e-19
2.15106e-16 0 4.30211e-16
-2.1684e-19 4.30211e-16 0

8.88178e-16 8.84709e-17 0
8.84709e-17 2.22045e-16 -2.08167e-17
0 -2.08167e-17 0

0 7.63278e-17 4.85723e-17
7.63278e-17 4.44089e-16 -5.20417e-16
4.85723e-17 -5.20417e-16 0

4.44089e-16 -3.33067e-16 3.46945e-18
-3.33067e-16 0 -2.77556e-17
3.46945e-18 -2.77556e-17 0

-1.11022e-16 -2.77556e-17 1.30104e-18
-2.77556e-17 0 -3.88578e-16
1.30104e-18 -3.88578e-16 0

0 0 -1.38778e-17
0 -5.55112e-16 5.55112e-17
-1.38778e-17 5.55112e-17 0

-4.44089e-16 0 2.25514e-16
0 0 1.38778e-17
2.25514e-16 1.38778e-17 0

6.66134e-16 1.66533e-16 6.93889e-18
1.66533e-16 4.44089e-16 -6.93889e-18
6.93889e-18 -6.93889e-18 0

0 1.38778e-16 -2.77556e-17
1.38778e-16 0 -4.57967e-16
-2.77556e-17 -4.57967e-16 2.22045e-16

4.44089e-16 -2.35922e-16 -1.54074e-33
-2.35922e-16 -1.11022e-16 -7.63278e-17
-1.54074e-33 -7.63278e-17 0

-1.11022e-16 5.55112e-17 0
5.55112e-17 -8.88178e-16 -2.498e-16
0 -2.498e-16 0

0 -1.66533e-16 -2.77556e-17
-1.66533e-16 0 -2.77556e-17
-2.77556e-17 -2.77556e-17 0

0 -6.93889e-16 0
-6.93889e-16 -6.66134e-16 2.22045e-16
0 2.22045e-16 0

0 -1.66533e-16 -3.46945e-18
-1.66533e-16 -3.33067e-16 7.70372e-34
-3.46945e-18 7.70372e-34 0

6.66134e-16 -5.55112e-17 1.66533e-16
-5.55112e-17 0 1.38778e-17
1.66533e-16 1.38778e-17 0

-3.33067e-16 0 -2.22966e-16
0 -4.44089e-16 6.93889e-18
-2.22966e-16 6.93889e-18 0

-3.33067e-16 0 -2.28983e-16
0 -4.44089e-16 1.38778e-17
-2.28983e-16 1.38778e-17 0

-2.22045e-16 4.51028e-17 1.30104e-18
4.51028e-17 -4.44089e-16 -1.73472e-18
1.30104e-18 -1.73472e-18 -1.11022e-16

-2.22045e-16 2.77556e-17 -1.73472e-18
2.77556e-17 0 3.46945e-18
-1.73472e-18 3.46945e-18 0

0 1.38778e-17 1.73472e-18
1.38778e-17 0 3.46945e-18
1.73472e-18 3.46945e-18 0

0 9.19403e-17 1.0842e-17
9.19403e-17 0 -6.71338e-16
1.0842e-17 -6.71338e-16 0

0 0 -2.25514e-16
0 0 0
-2.25514e-16 0 0

0 0 3.46945e-18
0 0 3.46945e-18
3.46945e-18 3.46945e-18 2.22045e-16

0 1.11022e-16 2.60209e-17
1.11022e-16 0 -1.73472e-18
2.60209e-17 -1.73472e-18 0

0 -2.22045e-16 -2.22045e-16
-2.22045e-16 0 2.08167e-16
-2.22045e-16 2.08167e-16 0

-6.66134e-16 -1.22125e-15 4.16334e-17
-1.22125e-15 0 4.30211e-16
4.16334e-17 4.30211e-16 0

8.88178e-16 9.02056e-17 4.71845e-16
9.02056e-17 0 2.60209e-18
4.71845e-16 2.60209e-18 2.22045e-16

0 8.32667e-17 -2.88889e-33
8.32667e-17 -1.11022e-16 -1.73472e-17
-2.88889e-33 -1.73472e-17 0

0 -2.46519e-32 3.46945e-18
-2.46519e-32 -2.22045e-16 -2.77556e-17
3.46945e-18 -2.77556e-17 0

0 0 -2.22045e-16
0 -4.44089e-16 0
-2.22045e-16 0 0

0 4.16334e-16 -1.11022e-16
4.16334e-16 6.66134e-16 2.08167e-17
-1.11022e-16 2.08167e-17 2.22045e-16

0 -1.11022e-16 6.93889e-18
-1.11022e-16 -4.44089e-16 0
6.93889e-18 0 0

0 1.73472e-17 6.50521e-19
1.73472e-17 0 -4.16334e-17
6.50521e-19 -4.16334e-17 0

0 5.55112e-17 -5.55112e-17
5.55112e-17 0 -2.91434e-16
-5.55112e-17 -2.91434e-16 0

2.22045e-16 6.245e-17 -4.33681e-19
6.245e-17 0 -4.44089e-16
-4.33681e-19 -4.44089e-16 2.22045e-16

4.44089e-16 -2.22045e-16 4.71845e-16
-2.22045e-16 4.44089e-16 0
4.71845e-16 0 0

2.22045e-16 1.80411e-16 1.38778e-17
1.80411e-16 2.22045e-16 2.98372e-16
1.38778e-17 2.98372e-16 0

2.22045e-16 -4.44089e-16 -6.93889e-18
-4.44089e-16 -2.22045e-16 0
-6.93889e-18 0 4.44089e-16

0 4.44089e-16 -1.38778e-17
4.44089e-16 2.22045e-16 4.47559e-16
-1.38778e-17 4.47559e-16 0

0 -1.52656e-16 -9.24446e-33
-1.52656e-16 0 -2.01228e-16
-9.24446e-33 -2.01228e-16 0

0 9.02056e-17 1.54074e-33
9.02056e-17 -1.11022e-16 -3.95517e-16
1.54074e-33 -3.95517e-16 0

0 -4.44089e-16 2.77556e-16
-4.44089e-16 -2.22045e-16 4.51028e-16
2.77556e-16 4.51028e-16 0

-4.44089e-16 5.55112e-17 2.08167e-16
5.55112e-17 -2.22045e-16 6.93889e-18
2.08167e-16 6.93889e-18 0

-2.22045e-16 2.77556e-17 1.34815e-33
2.77556e-17 0 2.42861e-17
1.34815e-33 2.42861e-17 0

2.22045e-16 -3.46945e-18 -4.4062e-16
-3.46945e-18 8.88178e-16 -9.71445e-17
-4.4062e-16 -9.71445e-17 2.22045e-16

0 5.55112e-17 -3.46945e-18
5.55112e-17 0 2.77556e-17
-3.46945e-18 2.77556e-17 0

2.22045e-16 -4.64906e-16 1.38778e-17
-4.64906e-16 0 4.33681e-18
1.38778e-17 4.33681e-18 0

4.44089e-16 0 6.93889e-18
0 -2.22045e-16 1.73472e-18
6.93889e-18 1.73472e-18 0

-4.44089e-16 2.22045e-16 -1.66533e-16
2.22045e-16 6.66134e-16 -1.38778e-17
-1.66533e-16 -1.38778e-17 2.22045e-16

-2.22045e-16 -4.44089e-16 0
-4.44089e-16 0 6.93889e-18
0 6.93889e-18 0

0 1.11022e-16 -2.08167e-16
1.11022e-16 -1.11022e-16 -2.28983e-16
-2.08167e-16 -2.28983e-16 0

-2.22045e-16 2.08167e-16 -4.51028e-16
2.08167e-16 -4.44089e-16 9.71445e-17
-4.51028e-16 9.71445e-17 -1.11022e-16

2.22045e-16 -1.94289e-16 -2.08167e-17
-1.94289e-16 4.44089e-16 4.85723e-16
-2.08167e-17 4.85723e-16 2.22045e-16

-2.22045e-16 1.11022e-16 -2.22045e-16
1.11022e-16 2.22045e-16 -2.77556e-17
-2.22045e-16 -2.77556e-17 0

-1.11022e-16 1.7911e-16 1.30104e-18
1.7911e-16 -1.11022e-16 -1.11022e-16
1.30104e-18 -1.11022e-16 0

0 0 -2.1684e-18
0 0 -4.57967e-16
-2.1684e-18 -4.57967e-16 0

0 3.33067e-16 -2.22045e-16
3.33067e-16 8.88178e-16 1.38778e-17
-2.22045e-16 1.38778e-17 2.22045e-16

0 1.8735e-16 4.51028e-16
1.8735e-16 -1.11022e-16 1.66533e-16
4.51028e-16 1.66533e-16 0

-2.22045e-16 -3.33067e-16 -1.249e-16
-3.33067e-16 -2.22045e-16 6.93889e-18
-1.249e-16 6.93889e-18 0

-4.44089e-16 0 -4.16334e-17
0 0 3.46945e-18
-4.16334e-17 3.46945e-18 2.22045e-16

0 5.55112e-17 -2.23779e-16
5.55112e-17 0 -6.93889e-17
-2.23779e-16 -6.93889e-17 0

0 1.76942e-16 9.1073e-18
1.76942e-16 8.88178e-16 3.60822e-16
9.1073e-18 3.60822e-16 0

-1.11022e-16 2.22045e-16 2.22045e-16
2.22045e-16 0 1.38778e-17
2.22045e-16 1.38778e-17 0

0 -2.77556e-17 2.77556e-17
-2.77556e-17 0 -2.19443e-16
2.77556e-17 -2.19443e-16 0

0 2.22045e-16 1.38778e-17
2.22045e-16 0 -1.38778e-17
1.38778e-17 -1.38778e-17 0

-2.22045e-16 0 1.04083e-17
0 4.44089e-16 6.93889e-17
1.04083e-17 6.93889e-17 0

-4.44089e-16 0 1.38778e-17
0 -4.44089e-16 -4.57967e-16
1.38778e-17 -4.57967e-16 0

0 2.34188e-16 2.1684e-18
2.34188e-16 4.44089e-16 -6.93889e-18
2.1684e-18 -6.93889e-18 0

0 4.44089e-16 0
4.44089e-16 -8.88178e-16 -3.88578e-16
0 -3.88578e-16 -1.11022e-16

-8.88178e-16 3.88578e-16 -2.77556e-17
3.88578e-16 0 4.16334e-17
-2.77556e-17 4.16334e-17 0

2.22045e-16 -2.32453e-16 -2.21177e-16
-2.32453e-16 -8.88178e-16 1.38778e-17
-2.21177e-16 1.38778e-17 2.22045e-16

0 -4.71845e-16 -4.16334e-16
-4.71845e-16 0 4.54498e-16
-4.16334e-16 4.54498e-16 0

0 -1.66533e-16 1.11022e-16
-1.66533e-16 -4.44089e-16 1.38778e-17
1.11022e-16 1.38778e-17 0

0 -1.59595e-16 3.62557e-16
-1.59595e-16 0 -2.08167e-17
3.62557e-16 -2.08167e-17 2.22045e-16

0 -3.33067e-16 1.04083e-17
-3.33067e-16 -8.88178e-16 -2.77556e-17
1.04083e-17 -2.77556e-17 0

0 -1.97215e-31 2.28983e-16
-1.97215e-31 -2.22045e-16 -4.02456e-16
2.28983e-16 -4.02456e-16 2.22045e-16

-2.22045e-16 8.32667e-17 -1.92593e-34
8.32667e-17 -6.66134e-16 8.84709e-16
-1.92593e-34 8.84709e-16 -1.11022e-16

2.22045e-15 1.66533e-16 -1.66533e-16
1.66533e-16 -1.77636e-15 -5.55112e-17
-1.66533e-16 -5.55112e-17 0

8.88178e-16 -1.38778e-16 -2.77556e-17
-1.38778e-16 4.44089e-16 -7.35523e-16
-2.77556e-17 -7.35523e-16 0

0 -4.23273e-16 2.08167e-17
-4.23273e-16 0 -1.76223e-32
2.08167e-17 -1.76223e-32 2.22045e-16

0 -8.67362e-17 -6.93889e-18
-8.67362e-17 -1.11022e-16 -6.93889e-18
-6.93889e-18 -6.93889e-18 0

0 -5.55112e-17 -1.38778e-17
-5.55112e-17 2.22045e-16 -2.11636e-16
-1.38778e-17 -2.11636e-16 0

2.22045e-16 4.85723e-16 -1.80411e-16
4.85723e-16 0 -4.38885e-16
-1.80411e-16 -4.38885e-16 0

0 0 -2.77556e-17
0 8.88178e-16 1.38778e-17
-2.77556e-17 1.38778e-17 0

-8.88178e-16 0 1.11022e-16
0 8.88178e-16 8.88178e-16
1.11022e-16 8.88178e-16 0

0 -4.49944e-16 -2.63678e-16
-4.49944e-16 -1.11022e-16 2.22709e-16
-2.63678e-16 2.22709e-16 0

-2.22045e-16 0 3.46945e-18
0 0 4.85723e-16
3.46945e-18 4.85723e-16 0

-2.22045e-16 4.6187e-17 1.30104e-18
4.6187e-17 2.22045e-16 2.91434e-16
1.30104e-18 2.91434e-16 0

-2.22045e-16 0 0
0 -1.11022e-16 3.46945e-18
0 3.46945e-18 0

-2.22045e-16 -6.93889e-18 -2.77556e-17
-6.93889e-18 -3.33067e-16 4.16334e-17
-2.77556e-17 4.16334e-17 0

0 0 0
0 2.22045e-16 0
0 0 0

4.44089e-16 1.04083e-17 -2.35922e-16
1.04083e-17 -1.11022e-16 5.20417e-18
-2.35922e-16 5.20417e-18 0

0 4.44089e-16 2.77556e-17
4.44089e-16 0 -4.57967e-16
2.77556e-17 -4.57967e-16 0

4.44089e-16 -5.55112e-17 1.94289e-16
-5.55112e-17 0 6.93889e-18
1.94289e-16 6.93889e-18 0

0 1.11022e-16 -1.73472e-17
1.11022e-16 0 -6.93889e-18
-1.73472e-17 -6.93889e-18 0

0 -5.55112e-16 -2.35922e-16
-5.55112e-16 -3.33067e-16 -1.94289e-16
-2.35922e-16 -1.94289e-16 0

-1.11022e-16 1.11022e-16 3.46945e-18
1.11022e-16 0 2.08167e-16
3.46945e-18 2.08167e-16 0

0 2.22045e-16 -1.38778e-17
2.22045e-16 0 -3.33067e-16
-1.38778e-17 -3.33067e-16 0

0 0 -2.18575e-16
0 0 1.38778e-17
-2.18575e-16 1.38778e-17 0

-1.11022e-16 2.22045e-16 1.38778e-17
2.22045e-16 -6.66134e-16 -2.08167e-16
1.38778e-17 -2.08167e-16 0

4.44089e-16 5.55112e-17 -2.22045e-16
5.55112e-17 2.22045e-16 2.22045e-16
-2.22045e-16 2.22045e-16 0

0 0 0
0 0 -2.77556e-17
0 -2.77556e-17 2.22045e-16

-2.22045e-16 1.66533e-16 -6.93889e-18
1.66533e-16 2.22045e-16 3.46945e-17
-6.93889e-18 3.46945e-17 -1.11022e-16

2.22045e-16 -1.67401e-16 2.48933e-16
-1.67401e-16 4.44089e-16 1.04083e-17
2.48933e-16 1.04083e-17 0

-2.22045e-16 2.60209e-17 -2.42861e-17
2.60209e-17 -3.33067e-16 -9.24446e-33
-2.42861e-17 -9.24446e-33 0

4.44089e-16 3.08781e-16 -4.33681e-18
3.08781e-16 4.44089e-16 1.94289e-16
-4.33681e-18 1.94289e-16 4.44089e-16

0 0 2.77556e-17
0 0 3.46945e-17
2.77556e-17 3.46945e-17 0

0 1.66533e-16 2.77556e-17
1.66533e-16 2.22045e-16 1.38778e-17
2.77556e-17 1.38778e-17 0

4.44089e-16 -1.11022e-16 -4.61436e-16
-1.11022e-16 0 -4.57967e-16
-4.61436e-16 -4.57967e-16 0

2.22045e-16 2.22045e-16 -1.2326e-32
2.22045e-16 -2.22045e-16 -2.77556e-17
-1.2326e-32 -2.77556e-17 0

0 1.94289e-16 4.30211e-16
1.94289e-16 0 6.245e-17
4.30211e-16 6.245e-17 0

4.44089e-16 -4.996e-16 2.25514e-16
-4.996e-16 2.22045e-16 -4.57967e-16
2.25514e-16 -4.57967e-16 0

0 -1.11022e-16 -1.73472e-18
-1.11022e-16 -4.44089e-16 4.44089e-16
-1.73472e-18 4.44089e-16 0

0 -1.04083e-17 0
-1.04083e-17 -2.22045e-16 2.77556e-16
0 2.77556e-16 0

-2.22045e-16 5.55112e-17 -2.77556e-17
5.55112e-17 0 6.93889e-18
-2.77556e-17 6.93889e-18 2.22045e-16

4.44089e-16 -4.44089e-16 -4.30211e-16
-4.44089e-16 -7.77156e-16 2.08167e-16
-4.30211e-16 2.08167e-16 0

0 -1.38778e-17 -1.52656e-16
-1.38778e-17 4.44089e-16 1.38778e-17
-1.52656e-16 1.38778e-17 0

4.44089e-16 1.97215e-31 4.44089e-16
1.97215e-31 2.22045e-16 2.18575e-16
4.44089e-16 2.18575e-16 0

0 1.11022e-16 -3.67761e-16
1.11022e-16 0 4.16334e-17
-3.67761e-16 4.16334e-17 0

0 -2.22045e-16 0
-2.22045e-16 0 1.66533e-16
0 1.66533e-16 2.22045e-16

2.22045e-16 5.55112e-17 1.38778e-17
5.55112e-17 0 3.88578e-16
1.38778e-17 3.88578e-16 0

0 1.38778e-17 -2.19443e-16
1.38778e-17 0 -8.32667e-17
-2.19443e-16 -8.32667e-17 2.22045e-16

0 -1.45717e-16 2.77556e-17
-1.45717e-16 0 4.11997e-16
2.77556e-17 4.11997e-16 2.22045e-16

8.88178e-16 1.38778e-17 1.80411e-16
1.38778e-17 0 1.38778e-17
1.80411e-16 1.38778e-17 2.22045e-16

0 -5.55112e-17 2.56739e-16
-5.55112e-17 4.44089e-16 5.55112e-17
2.56739e-16 5.55112e-17 2.22045e-16

-8.88178e-16 -1.94289e-16 -4.16334e-17
-1.94289e-16 0 -4.23273e-16
-4.16334e-17 -4.23273e-16 0

-2.22045e-16 5.55112e-17 2.28983e-16
5.55112e-17 -2.22045e-16 7.70372e-34
2.28983e-16 7.70372e-34 0

-1.11022e-16 3.9443e-31 4.38885e-16
3.9443e-31 1.77636e-15 4.996e-16
4.38885e-16 4.996e-16 0

2.22045e-16 -2.50952e-18 -1.7103e-18
-2.50952e-18 0 -4.71845e-16
-1.7103e-18 -4.71845e-16 0

0 0 -1.38778e-16
0 0 4.16334e-17
-1.38778e-16 4.16334e-17 0

-2.22045e-16 0 -1.73472e-18
0 4.44089e-16 -4.44089e-16
-1.73472e-18 -4.44089e-16 0

0 -2.22045e-16 2.77556e-17
-2.22045e-16 -6.66134e-16 -3.46945e-17
2.77556e-17 -3.46945e-17 0

0 9.4369e-16 -4.44957e-16
9.4369e-16 0 -9.62965e-35
-4.44957e-16 -9.62965e-35 0

-2.22045e-16 -4.44089e-16 -2.77556e-17
-4.44089e-16 2.22045e-16 2.08167e-17
-2.77556e-17 2.08167e-17 0

-1.11022e-16 2.77556e-17 -2.23779e-16
2.77556e-17 0 -4.16334e-17
-2.23779e-16 -4.16334e-17 0

-4.44089e-16 0 6.93889e-18
0 0 -5.55112e-17
6.93889e-18 -5.55112e-17 0

0 -4.44089e-16 5.27356e-16
-4.44089e-16 0 3.46945e-18
5.27356e-16 3.46945e-18 0

0 -1.66533e-16 -1.04083e-16
-1.66533e-16 0 1.38778e-16
-1.04083e-16 1.38778e-16 0

-1.11022e-16 1.66533e-16 4.44089e-16
1.66533e-16 -4.44089e-16 0
4.44089e-16 0 0

-4.44089e-16 0 -4.71845e-16
0 0 6.93889e-18
-4.71845e-16 6.93889e-18 0

0 -1.249e-16 1.54074e-33
-1.249e-16 0 -6.93889e-18
1.54074e-33 -6.93889e-18 0

0 -3.88578e-16 -3.747e-16
-3.88578e-16 0 -4.30211e-16
-3.747e-16 -4.30211e-16 2.22045e-16

0 -2.22045e-16 0
-2.22045e-16 0 -2.498e-16
0 -2.498e-16 0

4.44089e-16 1.11022e-16 4.57967e-16
1.11022e-16 0 9.71445e-17
4.57967e-16 9.71445e-17 0

0 -8.37004e-17 -1.11022e-16
-8.37004e-17 0 4.46258e-16
-1.11022e-16 4.46258e-16 0

0 2.22045e-16 -2.77556e-17
2.22045e-16 -8.88178e-16 4.57967e-16
-2.77556e-17 4.57967e-16 0

0 -2.77556e-17 4.4062e-16
-2.77556e-17 -2.22045e-16 1.04083e-17
4.4062e-16 1.04083e-17 0

0 0 -6.93889e-18
0 -8.88178e-16 -2.08167e-16
-6.93889e-18 -2.08167e-16 0

-8.88178e-16 -2.77556e-17 -2.498e-16
-2.77556e-17 0 3.46945e-18
-2.498e-16 3.46945e-18 0

4.44089e-16 -5.55112e-17 2.35922e-16
-5.55112e-17 2.22045e-16 0
2.35922e-16 0 2.22045e-16

0 4.44089e-16 -2.01228e-16
4.44089e-16 8.88178e-16 5.55112e-17
-2.01228e-16 5.55112e-17 2.22045e-16

8.88178e-16 0 2.91434e-16
0 -1.11022e-16 -1.04083e-17
2.91434e-16 -1.04083e-17 0

-1.11022e-16 8.32667e-16 -2.1684e-16
8.32667e-16 0 2.77556e-17
-2.1684e-16 2.77556e-17 0

0 0 1.38778e-17
0 0 -1.94289e-16
1.38778e-17 -1.94289e-16 0

0 6.66134e-16 0
6.66134e-16 0 -2.22045e-16
0 -2.22045e-16 0

-1.11022e-16 1.11022e-16 -2.28983e-16
1.11022e-16 0 -5.27356e-16
-2.28983e-16 -5.27356e-16 0

0 2.77556e-17 0
2.77556e-17 0 1.38778e-17
0 1.38778e-17 4.44089e-16

-1.77636e-15 -5.55112e-16 -8.32667e-16
-5.55112e-16 0 -2.08167e-17
-8.32667e-16 -2.08167e-17 0

-4.44089e-16 -9.86076e-32 2.77556e-16
-9.86076e-32 2.22045e-16 -4.16334e-16
2.77556e-16 -4.16334e-16 -1.11022e-16

-1.11022e-16 1.38778e-16 -6.93889e-18
1.38778e-16 -1.11022e-16 1.73472e-18
-6.93889e-18 1.73472e-18 0

0 -5.55112e-16 -3.88578e-16
-5.55112e-16 0 -4.47559e-16
-3.88578e-16 -4.47559e-16 2.22045e-16

0 -9.71445e-17 -5.54244e-16
-9.71445e-17 0 8.67362e-18
-5.54244e-16 8.67362e-18 2.22045e-16

0 0 0
0 2.22045e-16 -1.11022e-15
0 -1.11022e-15 0

0 2.77556e-17 -4.4062e-16
2.77556e-17 4.44089e-16 -1.14492e-16
-4.4062e-16 -1.14492e-16 2.22045e-16

-4.44089e-16 -1.11022e-16 0
-1.11022e-16 0 4.16334e-17
0 4.16334e-17 0

2.22045e-16 -2.77556e-16 -2.18575e-16
-2.77556e-16 4.44089e-16 3.46945e-18
-2.18575e-16 3.46945e-18 2.22045e-16

2.22045e-16 1.11022e-16 4.33681e-19
1.11022e-16 0 -4.44089e-16
4.33681e-19 -4.44089e-16 2.22045e-16

4.44089e-16 1.88217e-16 6.93889e-18
1.88217e-16 2.22045e-16 7.97973e-17
6.93889e-18 7.97973e-17 0

0 1.38778e-17 -3.46945e-18
1.38778e-17 0 4.55365e-16
-3.46945e-18 4.55365e-16 0

0 -8.95117e-16 1.73472e-18
-8.95117e-16 -8.88178e-16 -2.22045e-16
1.73472e-18 -2.22045e-16 0

-2.22045e-16 5.55112e-17 -1.38778e-16
5.55112e-17 0 4.71845e-16
-1.38778e-16 4.71845e-16 0

4.44089e-16 2.77556e-17 2.23779e-16
2.77556e-17 0 1.92593e-34
2.23779e-16 1.92593e-34 0

2.22045e-16 -5.20417e-17 -4.02456e-16
-5.20417e-17 4.44089e-16 4.57967e-16
-4.02456e-16 4.57967e-16 2.22045e-16

0 2.22045e-16 4.54498e-16
2.22045e-16 2.22045e-16 -4.4062e-16
4.54498e-16 -4.4062e-16 0

-1.11022e-16 -1.249e-16 4.45824e-16
-1.249e-16 0 1.73472e-18
4.45824e-16 1.73472e-18 0

2.22045e-16 2.22045e-16 -4.4062e-16
2.22045e-16 2.22045e-16 3.46945e-16
-4.4062e-16 3.46945e-16 2.22045e-16

0 5.55112e-17 4.42354e-16
5.55112e-17 -3.33067e-16 3.46945e-18
4.42354e-16 3.46945e-18 0

-1.11022e-16 -1.73472e-18 -4.40403e-16
-1.73472e-18 -2.22045e-16 -2.08167e-16
-4.40403e-16 -2.08167e-16 0

2.22045e-16 3.46945e-17 4.33681e-19
3.46945e-17 0 -5.55112e-17
4.33681e-19 -5.55112e-17 0

2.22045e-16 1.66533e-16 -1.15556e-33
1.66533e-16 -1.11022e-16 -4.47559e-16
-1.15556e-33 -4.47559e-16 0

-2.22045e-16 -1.14492e-16 8.67362e-19
-1.14492e-16 0 -3.36536e-16
8.67362e-19 -3.36536e-16 0

0 -4.61615e-17 -4.47559e-16
-4.61615e-17 0 -4.44624e-16
-4.47559e-16 -4.44624e-16 2.22045e-16

0 0 -2.35922e-16
0 0 -2.08167e-17
-2.35922e-16 -2.08167e-17 0

0 9.54098e-18 1.04083e-17
9.54098e-18 -4.44089e-16 -6.93889e-17
1.04083e-17 -6.93889e-17 0

0 2.77556e-17 1.15556e-33
2.77556e-17 -2.22045e-16 6.93889e-18
1.15556e-33 6.93889e-18 0

0 1.11022e-16 0
1.11022e-16 2.22045e-16 -2.70617e-16
0 -2.70617e-16 4.44089e-16

4.44089e-16 2.498e-16 8.67362e-18
2.498e-16 0 8.36137e-16
8.67362e-18 8.36137e-16 2.22045e-16

4.44089e-16 4.44089e-16 4.16334e-17
4.44089e-16 0 -4.85723e-17
4.16334e-17 -4.85723e-17 0

4.44089e-16 -1.38778e-17 6.93889e-18
-1.38778e-17 6.66134e-16 4.16334e-17
6.93889e-18 4.16334e-17 0

-1.11022e-16 0 6.93889e-18
0 0 -1.73472e-18
6.93889e-18 -1.73472e-18 0

0 5.55112e-17 -4.41487e-16
5.55112e-17 -6.66134e-16 -1.04083e-17
-4.41487e-16 -1.04083e-17 0

-3.33067e-16 0 3.46945e-18
0 0 4.38885e-16
3.46945e-18 4.38885e-16 0

0 -1.38778e-16 -2.2031e-16
-1.38778e-16 -4.44089e-16 -4.4062e-16
-2.2031e-16 -4.4062e-16 0

-4.44089e-16 4.16334e-16 6.93889e-18
4.16334e-16 0 -5.55112e-17
6.93889e-18 -5.55112e-17 2.22045e-16

-2.22045e-16 -2.77556e-17 -5.55112e-17
-2.77556e-17 0 -4.85723e-16
-5.55112e-17 -4.85723e-16 0

-1.11022e-16 -8.9116e-16 9.89811e-19
-8.9116e-16 -6.66134e-16 -4.16334e-16
9.89811e-19 -4.16334e-16 0

-8.88178e-16 1.77636e-15 -2.77556e-17
1.77636e-15 0 -8.60423e-16
-2.77556e-17 -8.60423e-16 0

-2.22045e-16 0 -1.38778e-17
0 4.44089e-16 -1.38778e-17
-1.38778e-17 -1.38778e-17 0

0 5.55112e-17 0
5.55112e-17 -3.55271e-15 0
0 0 2.22045e-16

8.88178e-16 4.44089e-16 1.2326e-32
4.44089e-16 0 1.38778e-17
1.2326e-32 1.38778e-17 0

0 -8.88178e-16 9.15934e-16
-8.88178e-16 0 6.93889e-16
9.15934e-16 6.93889e-16 0

-1.11022e-16 2.10791e-16 3.3929e-19
2.10791e-16 0 -9.15934e-16
3.3929e-19 -9.15934e-16 0

0 2.22045e-16 -1.54074e-33
2.22045e-16 6.66134e-16 -3.46945e-18
-1.54074e-33 -3.46945e-18 0

0 -1.11022e-16 -8.60423e-16
-1.11022e-16 0 3.33067e-16
-8.60423e-16 3.33067e-16 0

4.44089e-16 5.55112e-17 -2.77556e-17
5.55112e-17 -2.22045e-16 1.11022e-16
-2.77556e-17 1.11022e-16 0

-2.22045e-16 0 0
0 4.44089e-16 4.30211e-16
0 4.30211e-16 0

-1.55431e-15 0 -4.16334e-17
0 0 4.23273e-16
-4.16334e-17 4.23273e-16 0

0 -2.77556e-17 0
-2.77556e-17 4.44089e-16 -4.71845e-16
0 -4.71845e-16 0

0 -3.9443e-31 -4.44089e-16
-3.9443e-31 0 4.30211e-16
-4.44089e-16 4.30211e-16 0

0 0 -2.77556e-17
0 2.22045e-16 2.91434e-16
-2.77556e-17 2.91434e-16 0

-1.11022e-16 1.66533e-16 1.38778e-17
1.66533e-16 2.22045e-16 3.46945e-18
1.38778e-17 3.46945e-18 0

0 -1.11022e-16 -4.30211e-16
-1.11022e-16 -2.22045e-16 4.16334e-17
-4.30211e-16 4.16334e-17 0

-4.44089e-16 -5.55112e-17 2.22045e-16
-5.55112e-17 -1.11022e-16 8.89913e-16
2.22045e-16 8.89913e-16 0

0 2.46519e-32 -3.46945e-18
2.46519e-32 2.22045e-16 4.47559e-16
-3.46945e-18 4.47559e-16 2.22045e-16

0 2.22045e-16 -6.69603e-16
2.22045e-16 0 -1.54074e-33
-6.69603e-16 -1.54074e-33 2.22045e-16

0 -6.93889e-18 3.46945e-18
-6.93889e-18 8.88178e-16 -1.38778e-16
3.46945e-18 -1.38778e-16 0

2.22045e-16 -2.46519e-32 -5.72459e-17
-2.46519e-32 0 3.85186e-34
-5.72459e-17 3.85186e-34 0

0 0 0
0 8.88178e-16 2.77556e-17
0 2.77556e-17 0

-2.22045e-15 4.44089e-16 -2.77556e-17
4.44089e-16 0 1.38778e-17
-2.77556e-17 1.38778e-17 0

-1.55431e-15 4.44089e-16 3.33067e-16
4.44089e-16 0 0
3.33067e-16 0 0

0 0 0
0 0 -1.84575e-15
0 -1.84575e-15 0

4.44089e-16 -1.97215e-31 4.71845e-16
-1.97215e-31 -6.66134e-16 -1.249e-16
4.71845e-16 -1.249e-16 0

-1.33227e-15 -8.88178e-16 -5.27356e-16
-8.88178e-16 0 1.47911e-31
-5.27356e-16 1.47911e-31 0

-3.55271e-15 2.22045e-15 -8.32667e-16
2.22045e-15 -3.55271e-15 8.74301e-16
-8.32667e-16 8.74301e-16 2.22045e-16

4.44089e-16 -5.55112e-17 -1.66533e-16
-5.55112e-17 2.22045e-16 -2.77556e-17
-1.66533e-16 -2.77556e-17 0

0 0 -3.60822e-16
0 0 0
-3.60822e-16 0 0

-8.88178e-16 0 0
0 0 4.16334e-17
0 4.16334e-17 0

5.32907e-15 1.77636e-15 0
1.77636e-15 0 1.80411e-15
0 1.80411e-15 2.22045e-16

0 -6.66134e-16 1.11022e-16
-6.66134e-16 -1.33227e-15 -4.44089e-16
1.11022e-16 -4.44089e-16 0

0 -8.88178e-16 -1.11022e-16
-8.88178e-16 -1.77636e-15 -4.85723e-16
-1.11022e-16 -4.85723e-16 0

SCALARS pressure float
LOOKUP_TABLE default
-0
-0
-0
-0
-0
-0
-0
-0
-0
-0
-0
-0
-0
-0
-0
-0
-0
-0
-0
-0
-0
-0
-0
-0
-0
-0
-0
-0
-0
-0
-0
-0
-0
-0
-0
-0
-0
-0
-0
-0
-0
-0
-0
-0
-0
-0
-0
-0
-0
-0
-0
-0
-0
-0
-0
-0
-0
-0
-0
-0
-0
-0
-0
-0
-0
-0
-0
-0
-0
-0
-0
-0
-0
-0
-0
-0
-0
-0
-0
-0
-0
-0
-0
-0
-0
-0
-0
-0
-0
-0
-0
-0
-0
-0
-0
-0
-0
-0
-0
-0
-0
-0
-0
-0
-0
-0
-0
-0
-0
-0
-0
-0
-0
-0
-0
-0
-0
-0
-0
-0
-0
-0
-0
-0
-0
-0
-0
-0
-0
-0
-0
-0
-0
-0
-0
-0
-0
-0
-0
-0
-0
-0
-0
-0
-0
-0
-0
-0
-0
-0
-0
-0
-0
-0
-0
-0
-0
-0
-0
-0
-0
-0
-0
-0
-0
-0
-0
-0
-0
-0
-0
-0
-0
-0
-0
-0
-0
-0
-0
-0
-0
-0
-0
-0
-0
-0
-0
-0
-0
-0
-0
-0
-0
-0
-0
-0
-0
-0
-0
-0
-0
-0
-0
-0
-0
-0
-0
-0
-0
-0
-0
-0
-0
-0
-0
-0
-0
-0
-0
-0
-0
-0
-0
-0
-0
-0
-0
-0
-0
-0
-0
-0
-0
-0
-0
-0
-0
-0
-0
-0
-0
-0
-0
-0
-0
-0
-0
-0
-0
-0
-0
-0
-0
-0
-0
-0
-0
-0
-0
-0
-0
-0
-0
-0
-0
-0
-0
-0
-0
-0
-0
-0
-0
-0
-0
-0
-0
-0
-0
-0
-0
-0
-0
-0
-0
-0
-0
-0
-0
-0
-0
-0
-0
-0
-0
-0
-0
-0
-0
-0
-0
-0
-0
-0
-0
-0
-0
-0
-0
-0
-0
-0
-0
-0
-0
-0
-0
-0
-0
-0
-0
-0
-0
-0
-0
-0
-0
-0
-0
-0
-0
-0
-0
-0
-0
-0
-0
-0
-0
-0
-0
-0
-0
-0
-0
-0
-0
-0
-0
-0
-0
-0
-0
-0
-0
-0
-0
-0
-0
-0
-0
-0
-0
-0
-0
-0
-0
-0
-0
-0
-0
-0
-0
-0
-0
-0
-0
-0
-0
-0
-0
-0
-0
-0
-0
-0
-0
-0
-0
-0
-0
-0
-0
-0
-0
-0
-0
-0
-0
-0
-0
-0
-0
-0
-0
-0
-0
-0
-0
-0
-0
-0
-0
-0
-0
-0
-0
-0
-0
-0
-0
-0
-0
-0
-0
-0
-0
-0
-0
-0
-0
-0
-0
-0
-0
-0
-0
-0
-0
-0
-0
-0
-0
-0
-0
-0
-0
-0
-0
-0
-0
-0
-0
-0
-0
-0
-0
-0
-0
-0
-0
-0
-0
-0
-0
-0
-0
-0
-0
-0
-0
-0
-0
-0
-0
-0
-0
-0
-0
-0
-0
-0
-0
-0
-0
-0
-0
-0
-0
-0
-0
-0
-0
-0
-0
-0
-0
-0
-0
-0
-0
-0
-0
-0
-0
-0
-0
-0
-0
-0
-0
-0
-0
-0
-0
-0
-0
-0
-0
-0
-0
-0
-0
-0
-0
-0
-0
-0
-0
-0
-0
-0
-0
-0
-0
-0
-0
-0
-0
-0
-0
-0
-0
-0
-0
-0
-0
-0
-0
-0
-0
-0
-0
-0
-0
-0
-0
-0
-0
-0
-0
-0
-0
